# step Hamiltonian StressXX CellTensor1 CellTensor2 CellTensor3 CellTensor4 
0 6.6333664314e+00 5.1306046045e-02 1.7438352029e+00 -3.0204111715e+00 1.7438352029e+00 3.0204111715e+00 
100 6.6314440644e+00 5.7766686515e-02 1.7438352029e+00 -3.0204111715e+00 1.7438352029e+00 3.0204111715e+00 
200 6.6293111384e+00 6.2535910508e-02 1.7421791539e+00 -3.0175428104e+00 1.7421791539e+00 3.0175428104e+00 
300 6.6270773207e+00 6.6796230611e-02 1.7403847011e+00 -3.0144347271e+00 1.7403847011e+00 3.0144347271e+00 
400 6.6247618244e+00 7.0571961685e-02 1.7384660466e+00 -3.0111115199e+00 1.7384660466e+00 3.0111115199e+00 
500 6.6223826679e+00 7.3886325778e-02 1.7364367227e+00 -3.0075966278e+00 1.7364367227e+00 3.0075966278e+00 
600 6.6199567113e+00 7.6761581947e-02 1.7343096305e+00 -3.0039123961e+00 1.7343096305e+00 3.0039123961e+00 
700 6.6174996888e+00 7.9219137871e-02 1.7320970718e+00 -3.0000801321e+00 1.7320970718e+00 3.0000801321e+00 
800 6.6150262393e+00 8.1279644869e-02 1.7298107772e+00 -2.9961201537e+00 1.7298107772e+00 2.9961201537e+00 
900 6.6125499335e+00 8.2963077817e-02 1.7274619301e+00 -2.9920518311e+00 1.7274619301e+00 2.9920518311e+00 
1000 6.6100832994e+00 8.4288801424e-02 1.7250611875e+00 -2.9878936229e+00 1.7250611875e+00 2.9878936229e+00 
1100 6.6076378465e+00 8.5275624211e-02 1.7226186979e+00 -2.9836631069e+00 1.7226186979e+00 2.9836631069e+00 
1200 6.6052240890e+00 8.5941841522e-02 1.7201441174e+00 -2.9793770077e+00 1.7201441174e+00 2.9793770077e+00 
1300 6.6028515683e+00 8.6305268828e-02 1.7176466229e+00 -2.9750512204e+00 1.7176466229e+00 2.9750512204e+00 
1400 6.6005288761e+00 8.6383266537e-02 1.7151349247e+00 -2.9707008315e+00 1.7151349247e+00 2.9707008315e+00 
1500 6.5982636778e+00 8.6192757471e-02 1.7126172774e+00 -2.9663401384e+00 1.7126172774e+00 2.9663401384e+00 
1600 6.5960627365e+00 8.5750238122e-02 1.7101014900e+00 -2.9619826668e+00 1.7101014900e+00 2.9619826668e+00 
1700 6.5939319391e+00 8.5071784717e-02 1.7075949354e+00 -2.9576411869e+00 1.7075949354e+00 2.9576411869e+00 
1800 6.5918763231e+00 8.4173055082e-02 1.7051045594e+00 -2.9533277291e+00 1.7051045594e+00 2.9533277291e+00 
1900 6.5899001059e+00 8.3069287188e-02 1.7026368891e+00 -2.9490535987e+00 1.7026368891e+00 2.9490535987e+00 
2000 6.5880067150e+00 8.1775295217e-02 1.7001980419e+00 -2.9448293915e+00 1.7001980419e+00 2.9448293915e+00 
2100 6.5861988213e+00 8.0305463885e-02 1.6977937341e+00 -2.9406650082e+00 1.6977937341e+00 2.9406650082e+00 
2200 6.5844783731e+00 7.8673741687e-02 1.6954292892e+00 -2.9365696695e+00 1.6954292892e+00 2.9365696695e+00 
2300 6.5828466329e+00 7.6893633653e-02 1.6931096474e+00 -2.9325519321e+00 1.6931096474e+00 2.9325519321e+00 
2400 6.5813042152e+00 7.4978194104e-02 1.6908393744e+00 -2.9286197039e+00 1.6908393744e+00 2.9286197039e+00 
2500 6.5798511262e+00 7.2940019856e-02 1.6886226710e+00 -2.9247802611e+00 1.6886226710e+00 2.9247802611e+00 
2600 6.5784868048e+00 7.0791244201e-02 1.6864633831e+00 -2.9210402646e+00 1.6864633831e+00 2.9210402646e+00 
2700 6.5772101643e+00 6.8543531967e-02 1.6843650113e+00 -2.9174057781e+00 1.6843650113e+00 2.9174057781e+00 
2800 6.5760196357e+00 6.6208075868e-02 1.6823307220e+00 -2.9138822857e+00 1.6823307220e+00 2.9138822857e+00 
2900 6.5749132104e+00 6.3795594300e-02 1.6803633575e+00 -2.9104747104e+00 1.6803633575e+00 2.9104747104e+00 
3000 6.5738884844e+00 6.1316330696e-02 1.6784654475e+00 -2.9071874338e+00 1.6784654475e+00 2.9071874338e+00 
3100 6.5729427015e+00 5.8780054496e-02 1.6766392199e+00 -2.9040243149e+00 1.6766392199e+00 2.9040243149e+00 
3200 6.5720727965e+00 5.6196063738e-02 1.6748866127e+00 -2.9009887101e+00 1.6748866127e+00 2.9009887101e+00 
3300 6.5712754383e+00 5.3573189259e-02 1.6732092850e+00 -2.8980834933e+00 1.6732092850e+00 2.8980834933e+00 
3400 6.5705470710e+00 5.0919800447e-02 1.6716086294e+00 -2.8953110764e+00 1.6716086294e+00 2.8953110764e+00 
3500 6.5698839551e+00 4.8243812466e-02 1.6700857830e+00 -2.8926734292e+00 1.6700857830e+00 2.8926734292e+00 
3600 6.5692822066e+00 4.5552694852e-02 1.6686416401e+00 -2.8901721002e+00 1.6686416401e+00 2.8901721002e+00 
3700 6.5687378347e+00 4.2853481370e-02 1.6672768629e+00 -2.8878082369e+00 1.6672768629e+00 2.8878082369e+00 
3800 6.5682467783e+00 4.0152780991e-02 1.6659918942e+00 -2.8855826058e+00 1.6659918942e+00 2.8855826058e+00 
3900 6.5678049395e+00 3.7456789867e-02 1.6647869683e+00 -2.8834956129e+00 1.6647869683e+00 2.8834956129e+00 
4000 6.5674082163e+00 3.4771304147e-02 1.6636621226e+00 -2.8815473230e+00 1.6636621226e+00 2.8815473230e+00 
4100 6.5670525325e+00 3.2101733511e-02 1.6626172091e+00 -2.8797374797e+00 1.6626172091e+00 2.8797374797e+00 
4200 6.5667338654e+00 2.9453115261e-02 1.6616519050e+00 -2.8780655239e+00 1.6616519050e+00 2.8780655239e+00 
4300 6.5664482712e+00 2.6830128839e-02 1.6607657237e+00 -2.8765306129e+00 1.6607657237e+00 2.8765306129e+00 
4400 6.5661919085e+00 2.4237110646e-02 1.6599580254e+00 -2.8751316384e+00 1.6599580254e+00 2.8751316384e+00 
4500 6.5659610590e+00 2.1678069026e-02 1.6592280270e+00 -2.8738672441e+00 1.6592280270e+00 2.8738672441e+00 
4600 6.5657521462e+00 1.9156699305e-02 1.6585748122e+00 -2.8727358429e+00 1.6585748122e+00 2.8727358429e+00 
4700 6.5655617511e+00 1.6676398773e-02 1.6579973409e+00 -2.8717356333e+00 1.6579973409e+00 2.8717356333e+00 
4800 6.5653866268e+00 1.4240281516e-02 1.6574944585e+00 -2.8708646153e+00 1.6574944585e+00 2.8708646153e+00 
4900 6.5652237097e+00 1.1851193003e-02 1.6570649045e+00 -2.8701206060e+00 1.6570649045e+00 2.8701206060e+00 
5000 6.5650701292e+00 9.5117243626e-03 1.6567073214e+00 -2.8695012540e+00 1.6567073214e+00 2.8695012540e+00 
5100 6.5649232155e+00 7.2242262644e-03 1.6564202626e+00 -2.8690040535e+00 1.6564202626e+00 2.8690040535e+00 
5200 6.5647805043e+00 4.9908223708e-03 1.6562022000e+00 -2.8686263579e+00 1.6562022000e+00 2.8686263579e+00 
5300 6.5646397413e+00 2.8134222930e-03 1.6560515316e+00 -2.8683653926e+00 1.6560515316e+00 2.8683653926e+00 
5400 6.5644988832e+00 6.9373402466e-04 1.6559665886e+00 -2.8682182671e+00 1.6559665886e+00 2.8682182671e+00 
5500 6.5643560983e+00 -1.3667241789e-03 1.6559456421e+00 -2.8681819868e+00 1.6559456421e+00 2.8681819868e+00 
5600 6.5642097650e+00 -3.3666124954e-03 1.6559869095e+00 -2.8682534639e+00 1.6559869095e+00 2.8682534639e+00 
5700 6.5640584687e+00 -5.3047588171e-03 1.6560885603e+00 -2.8684295282e+00 1.6560885603e+00 2.8684295282e+00 
5800 6.5639009980e+00 -7.1801486260e-03 1.6562487221e+00 -2.8687069367e+00 1.6562487221e+00 2.8687069367e+00 
5900 6.5637363389e+00 -8.9919154605e-03 1.6564654862e+00 -2.8690823831e+00 1.6564654862e+00 2.8690823831e+00 
6000 6.5635636684e+00 -1.0739331969e-02 1.6567369124e+00 -2.8695525070e+00 1.6567369124e+00 2.8695525070e+00 
6100 6.5633823476e+00 -1.2421801540e-02 1.6570610339e+00 -2.8701139020e+00 1.6570610339e+00 2.8701139020e+00 
6200 6.5631919127e+00 -1.4038850495e-02 1.6574358623e+00 -2.8707631237e+00 1.6574358623e+00 2.8707631237e+00 
6300 6.5629920665e+00 -1.5590120818e-02 1.6578593914e+00 -2.8714966978e+00 1.6578593914e+00 2.8714966978e+00 
6400 6.5627826686e+00 -1.7075363417e-02 1.6583296019e+00 -2.8723111262e+00 1.6583296019e+00 2.8723111262e+00 
6500 6.5625637257e+00 -1.8494431878e-02 1.6588444648e+00 -2.8732028949e+00 1.6588444648e+00 2.8732028949e+00 
6600 6.5623353805e+00 -1.9847276691e-02 1.6594019452e+00 -2.8741684793e+00 1.6594019452e+00 2.8741684793e+00 
6700 6.5620979017e+00 -2.1133939927e-02 1.6600000061e+00 -2.8752043512e+00 1.6600000061e+00 2.8752043512e+00 
6800 6.5618516721e+00 -2.2354550331e-02 1.6606366113e+00 -2.8763069836e+00 1.6606366113e+00 2.8763069836e+00 
6900 6.5615971787e+00 -2.3509318808e-02 1.6613097284e+00 -2.8774728567e+00 1.6613097284e+00 2.8774728567e+00 
7000 6.5613350004e+00 -2.4598534270e-02 1.6620173324e+00 -2.8786984627e+00 1.6620173324e+00 2.8786984627e+00 
7100 6.5610657977e+00 -2.5622559821e-02 1.6627574077e+00 -2.8799803107e+00 1.6627574077e+00 2.8799803107e+00 
7200 6.5607903018e+00 -2.6581829242e-02 1.6635279511e+00 -2.8813149312e+00 1.6635279511e+00 2.8813149312e+00 
7300 6.5605093033e+00 -2.7476843769e-02 1.6643269746e+00 -2.8826988804e+00 1.6643269746e+00 2.8826988804e+00 
7400 6.5602236421e+00 -2.8308169107e-02 1.6651525069e+00 -2.8841287443e+00 1.6651525069e+00 2.8841287443e+00 
7500 6.5599341975e+00 -2.9076432687e-02 1.6660025965e+00 -2.8856011426e+00 1.6660025965e+00 2.8856011426e+00 
7600 6.5596418775e+00 -2.9782321118e-02 1.6668753133e+00 -2.8871127325e+00 1.6668753133e+00 2.8871127325e+00 
7700 6.5593476103e+00 -3.0426577825e-02 1.6677687508e+00 -2.8886602117e+00 1.6677687508e+00 2.8886602117e+00 
7800 6.5590523348e+00 -3.1010000839e-02 1.6686810281e+00 -2.8902403223e+00 1.6686810281e+00 2.8902403223e+00 
7900 6.5587569919e+00 -3.1533440729e-02 1.6696102913e+00 -2.8918498534e+00 1.6696102913e+00 2.8918498534e+00 
8000 6.5584625170e+00 -3.1997798654e-02 1.6705547156e+00 -2.8934856443e+00 1.6705547156e+00 2.8934856443e+00 
8100 6.5581698320e+00 -3.2404024508e-02 1.6715125069e+00 -2.8951445874e+00 1.6715125069e+00 2.8951445874e+00 
8200 6.5578798387e+00 -3.2753115152e-02 1.6724819030e+00 -2.8968236307e+00 1.6724819030e+00 2.8968236307e+00 
8300 6.5575934119e+00 -3.3046112716e-02 1.6734611754e+00 -2.8985197804e+00 1.6734611754e+00 2.8985197804e+00 
8400 6.5573113940e+00 -3.3284102949e-02 1.6744486307e+00 -2.9002301030e+00 1.6744486307e+00 2.9002301030e+00 
8500 6.5570345892e+00 -3.3468213610e-02 1.6754426114e+00 -2.9019517282e+00 1.6754426114e+00 2.9019517282e+00 
8600 6.5567637594e+00 -3.3599612890e-02 1.6764414978e+00 -2.9036818502e+00 1.6764414978e+00 2.9036818502e+00 
8700 6.5564996194e+00 -3.3679507846e-02 1.6774437087e+00 -2.9054177303e+00 1.6774437087e+00 2.9054177303e+00 
8800 6.5562428335e+00 -3.3709142846e-02 1.6784477026e+00 -2.9071566988e+00 1.6784477026e+00 2.9071566988e+00 
8900 6.5559940124e+00 -3.3689798012e-02 1.6794519788e+00 -2.9088961562e+00 1.6794519788e+00 2.9088961562e+00 
9000 6.5557537110e+00 -3.3622787653e-02 1.6804550784e+00 -2.9106335756e+00 1.6804550784e+00 2.9106335756e+00 
9100 6.5555224259e+00 -3.3509458681e-02 1.6814555848e+00 -2.9123665035e+00 1.6814555848e+00 2.9123665035e+00 
9200 6.5553005942e+00 -3.3351189010e-02 1.6824521251e+00 -2.9140925620e+00 1.6824521251e+00 2.9140925620e+00 
9300 6.5550885923e+00 -3.3149385920e-02 1.6834433706e+00 -2.9158094495e+00 1.6834433706e+00 2.9158094495e+00 
9400 6.5548867359e+00 -3.2905484401e-02 1.6844280374e+00 -2.9175149424e+00 1.6844280374e+00 2.9175149424e+00 
9500 6.5546952791e+00 -3.2620945453e-02 1.6854048872e+00 -2.9192068959e+00 1.6854048872e+00 2.9192068959e+00 
9600 6.5545144156e+00 -3.2297254351e-02 1.6863727277e+00 -2.9208832450e+00 1.6863727277e+00 2.9208832450e+00 
9700 6.5543442789e+00 -3.1935918878e-02 1.6873304137e+00 -2.9225420057e+00 1.6873304137e+00 2.9225420057e+00 
9800 6.5541849437e+00 -3.1538467507e-02 1.6882768467e+00 -2.9241812757e+00 1.6882768467e+00 2.9241812757e+00 
9900 6.5540364274e+00 -3.1106447546e-02 1.6892109759e+00 -2.9257992349e+00 1.6892109759e+00 2.9257992349e+00 
10000 6.5538986919e+00 -3.0641423244e-02 1.6901317984e+00 -2.9273941464e+00 1.6901317984e+00 2.9273941464e+00 
10100 6.5537716456e+00 -3.0144973852e-02 1.6910383597e+00 -2.9289643566e+00 1.6910383597e+00 2.9289643566e+00 
10200 6.5536551463e+00 -2.9618691645e-02 1.6919297535e+00 -2.9305082958e+00 1.6919297535e+00 2.9305082958e+00 
10300 6.5535490031e+00 -2.9064179898e-02 1.6928051221e+00 -2.9320244787e+00 1.6928051221e+00 2.9320244787e+00 
10400 6.5534529799e+00 -2.8483050840e-02 1.6936636567e+00 -2.9335115043e+00 1.6936636567e+00 2.9335115043e+00 
10500 6.5533667983e+00 -2.7876923553e-02 1.6945045971e+00 -2.9349680559e+00 1.6945045971e+00 2.9349680559e+00 
10600 6.5532901405e+00 -2.7247421852e-02 1.6953272322e+00 -2.9363929016e+00 1.6953272322e+00 2.9363929016e+00 
10700 6.5532226531e+00 -2.6596172131e-02 1.6961308993e+00 -2.9377848938e+00 1.6961308993e+00 2.9377848938e+00 
10800 6.5531639503e+00 -2.5924801178e-02 1.6969149844e+00 -2.9391429691e+00 1.6969149844e+00 2.9391429691e+00 
10900 6.5531136177e+00 -2.5234933976e-02 1.6976789221e+00 -2.9404661480e+00 1.6976789221e+00 2.9404661480e+00 
11000 6.5530712152e+00 -2.4528191474e-02 1.6984221950e+00 -2.9417535344e+00 1.6984221950e+00 2.9417535344e+00 
11100 6.5530362816e+00 -2.3806188357e-02 1.6991443337e+00 -2.9430043153e+00 1.6991443337e+00 2.9430043153e+00 
11200 6.5530083375e+00 -2.3070530792e-02 1.6998449164e+00 -2.9442177602e+00 1.6998449164e+00 2.9442177602e+00 
11300 6.5529868891e+00 -2.2322814180e-02 1.7005235685e+00 -2.9453932201e+00 1.7005235685e+00 2.9453932201e+00 
11400 6.5529714317e+00 -2.1564620906e-02 1.7011799619e+00 -2.9465301268e+00 1.7011799619e+00 2.9465301268e+00 
11500 6.5529614533e+00 -2.0797518090e-02 1.7018138149e+00 -2.9476279924e+00 1.7018138149e+00 2.9476279924e+00 
11600 6.5529564382e+00 -2.0023055356e-02 1.7024248912e+00 -2.9486864076e+00 1.7024248912e+00 2.9486864076e+00 
11700 6.5529558695e+00 -1.9242762616e-02 1.7030129996e+00 -2.9497050412e+00 1.7030129996e+00 2.9497050412e+00 
11800 6.5529592334e+00 -1.8458147877e-02 1.7035779931e+00 -2.9506836387e+00 1.7035779931e+00 2.9506836387e+00 
11900 6.5529660212e+00 -1.7670695077e-02 1.7041197683e+00 -2.9516220209e+00 1.7041197683e+00 2.9516220209e+00 
12000 6.5529757330e+00 -1.6881861962e-02 1.7046382644e+00 -2.9525200826e+00 1.7046382644e+00 2.9525200826e+00 
12100 6.5529878797e+00 -1.6093077995e-02 1.7051334627e+00 -2.9533777911e+00 1.7051334627e+00 2.9533777911e+00 
12200 6.5530019864e+00 -1.5305742325e-02 1.7056053853e+00 -2.9541951851e+00 1.7056053853e+00 2.9541951851e+00 
12300 6.5530175937e+00 -1.4521221804e-02 1.7060540944e+00 -2.9549723720e+00 1.7060540944e+00 2.9549723720e+00 
12400 6.5530342610e+00 -1.3740849063e-02 1.7064796913e+00 -2.9557095274e+00 1.7064796913e+00 2.9557095274e+00 
12500 6.5530515675e+00 -1.2965920662e-02 1.7068823152e+00 -2.9564068924e+00 1.7068823152e+00 2.9564068924e+00 
12600 6.5530691144e+00 -1.2197695308e-02 1.7072621422e+00 -2.9570647722e+00 1.7072621422e+00 2.9570647722e+00 
12700 6.5530865267e+00 -1.1437392149e-02 1.7076193844e+00 -2.9576835337e+00 1.7076193844e+00 2.9576835337e+00 
12800 6.5531034539e+00 -1.0686189162e-02 1.7079542882e+00 -2.9582636042e+00 1.7079542882e+00 2.9582636042e+00 
12900 6.5531195715e+00 -9.9452216208e-03 1.7082671337e+00 -2.9588054685e+00 1.7082671337e+00 2.9588054685e+00 
13000 6.5531345820e+00 -9.2155806630e-03 1.7085582329e+00 -2.9593096671e+00 1.7085582329e+00 2.9593096671e+00 
13100 6.5531482151e+00 -8.4983119566e-03 1.7088279288e+00 -2.9597767941e+00 1.7088279288e+00 2.9597767941e+00 
13200 6.5531602288e+00 -7.7944144693e-03 1.7090765939e+00 -2.9602074947e+00 1.7090765939e+00 2.9602074947e+00 
13300 6.5531704093e+00 -7.1048393463e-03 1.7093046290e+00 -2.9606024630e+00 1.7093046290e+00 2.9606024630e+00 
13400 6.5531785709e+00 -6.4304888994e-03 1.7095124616e+00 -2.9609624396e+00 1.7095124616e+00 2.9609624396e+00 
13500 6.5531845564e+00 -5.7722157109e-03 1.7097005446e+00 -2.9612882090e+00 1.7097005446e+00 2.9612882090e+00 
13600 6.5531882363e+00 -5.1308218548e-03 1.7098693552e+00 -2.9615805975e+00 1.7098693552e+00 2.9615805975e+00 
13700 6.5531895087e+00 -4.5070582373e-03 1.7100193929e+00 -2.9618404704e+00 1.7100193929e+00 2.9618404704e+00 
13800 6.5531882984e+00 -3.9016240595e-03 1.7101511784e+00 -2.9620687296e+00 1.7101511784e+00 2.9620687296e+00 
13900 6.5531845561e+00 -3.3151664024e-03 1.7102652522e+00 -2.9622663112e+00 1.7102652522e+00 2.9622663112e+00 
14000 6.5531782577e+00 -2.7482799344e-03 1.7103621727e+00 -2.9624341825e+00 1.7103621727e+00 2.9624341825e+00 
14100 6.5531694029e+00 -2.2015067442e-03 1.7104425154e+00 -2.9625733401e+00 1.7104425154e+00 2.9625733401e+00 
14200 6.5531580144e+00 -1.6753362950e-03 1.7105068707e+00 -2.9626848068e+00 1.7105068707e+00 2.9626848068e+00 
14300 6.5531441361e+00 -1.1702055034e-03 1.7105558429e+00 -2.9627696290e+00 1.7105558429e+00 2.9627696290e+00 
14400 6.5531278321e+00 -6.8649893753e-04 1.7105900484e+00 -2.9628288747e+00 1.7105900484e+00 2.9628288747e+00 
14500 6.5531091852e+00 -2.2454913584e-04 1.7106101146e+00 -2.9628636304e+00 1.7106101146e+00 2.9628636304e+00 
14600 6.5530882953e+00 2.1536295716e-04 1.7106166780e+00 -2.9628749986e+00 1.7106166780e+00 2.9628749986e+00 
14700 6.5530652776e+00 6.3300744102e-04 1.7106103831e+00 -2.9628640955e+00 1.7106103831e+00 2.9628640955e+00 
14800 6.5530402612e+00 1.0282047980e-03 1.7105918808e+00 -2.9628320485e+00 1.7105918808e+00 2.9628320485e+00 
14900 6.5530133877e+00 1.4008251241e-03 1.7105618268e+00 -2.9627799935e+00 1.7105618268e+00 2.9627799935e+00 
15000 6.5529848090e+00 1.7507872567e-03 1.7105208806e+00 -2.9627090726e+00 1.7105208806e+00 2.9627090726e+00 
15100 6.5529546859e+00 2.0780578023e-03 1.7104697038e+00 -2.9626204319e+00 1.7104697038e+00 2.9626204319e+00 
15200 6.5529231865e+00 2.3826500707e-03 1.7104089590e+00 -2.9625152186e+00 1.7104089590e+00 2.9625152186e+00 
15300 6.5528904846e+00 2.6646229185e-03 1.7103393080e+00 -2.9623945796e+00 1.7103393080e+00 2.9623945796e+00 
15400 6.5528567577e+00 2.9240795092e-03 1.7102614111e+00 -2.9622596582e+00 1.7102614111e+00 2.9622596582e+00 
15500 6.5528221861e+00 3.1611659942e-03 1.7101759254e+00 -2.9621115927e+00 1.7101759254e+00 2.9621115927e+00 
15600 6.5527869509e+00 3.3760701203e-03 1.7100835040e+00 -2.9619515141e+00 1.7100835040e+00 2.9619515141e+00 
15700 6.5527512327e+00 3.5690197707e-03 1.7099847943e+00 -2.9617805439e+00 1.7099847943e+00 2.9617805439e+00 
15800 6.5527152104e+00 3.7402814448e-03 1.7098804371e+00 -2.9615997920e+00 1.7098804371e+00 2.9615997920e+00 
15900 6.5526790596e+00 3.8901586820e-03 1.7097710657e+00 -2.9614103551e+00 1.7097710657e+00 2.9614103551e+00 
16000 6.5526429516e+00 4.0189904376e-03 1.7096573044e+00 -2.9612133147e+00 1.7096573044e+00 2.9612133147e+00 
16100 6.5526070522e+00 4.1271494156e-03 1.7095397678e+00 -2.9610097355e+00 1.7095397678e+00 2.9610097355e+00 
16200 6.5525715208e+00 4.2150403643e-03 1.7094190599e+00 -2.9608006632e+00 1.7094190599e+00 2.9608006632e+00 
16300 6.5525365093e+00 4.2830983426e-03 1.7092957727e+00 -2.9605871235e+00 1.7092957727e+00 2.9605871235e+00 
16400 6.5525021614e+00 4.3317869606e-03 1.7091704858e+00 -2.9603701203e+00 1.7091704858e+00 2.9603701203e+00 
16500 6.5524686117e+00 4.3615966026e-03 1.7090437655e+00 -2.9601506342e+00 1.7090437655e+00 2.9601506342e+00 
16600 6.5524359853e+00 4.3730426369e-03 1.7089161637e+00 -2.9599296213e+00 1.7089161637e+00 2.9599296213e+00 
16700 6.5524043970e+00 4.3666636190e-03 1.7087882174e+00 -2.9597080119e+00 1.7087882174e+00 2.9597080119e+00 
16800 6.5523739512e+00 4.3430194922e-03 1.7086604482e+00 -2.9594867092e+00 1.7086604482e+00 2.9594867092e+00 
16900 6.5523447411e+00 4.3026897934e-03 1.7085333614e+00 -2.9592665883e+00 1.7085333614e+00 2.9592665883e+00 
17000 6.5523168490e+00 4.2462718663e-03 1.7084074453e+00 -2.9590484953e+00 1.7084074453e+00 2.9590484953e+00 
17100 6.5522903459e+00 4.1743790888e-03 1.7082831711e+00 -2.9588332460e+00 1.7082831711e+00 2.9588332460e+00 
17200 6.5522652913e+00 4.0876391181e-03 1.7081609920e+00 -2.9586216256e+00 1.7081609920e+00 2.9586216256e+00 
17300 6.5522417334e+00 3.9866921584e-03 1.7080413431e+00 -2.9584143877e+00 1.7080413431e+00 2.9584143877e+00 
17400 6.5522197096e+00 3.8721892549e-03 1.7079246408e+00 -2.9582122534e+00 1.7079246408e+00 2.9582122534e+00 
17500 6.5521992457e+00 3.7447906182e-03 1.7078112826e+00 -2.9580159111e+00 1.7078112826e+00 2.9580159111e+00 
17600 6.5521803574e+00 3.6051639814e-03 1.7077016466e+00 -2.9578260161e+00 1.7077016466e+00 2.9578260161e+00 
17700 6.5521630497e+00 3.4539829951e-03 1.7075960917e+00 -2.9576431896e+00 1.7075960917e+00 2.9576431896e+00 
17800 6.5521473178e+00 3.2919256614e-03 1.7074949568e+00 -2.9574680189e+00 1.7074949568e+00 2.9574680189e+00 
17900 6.5521331473e+00 3.1196728098e-03 1.7073985614e+00 -2.9573010571e+00 1.7073985614e+00 2.9573010571e+00 
18000 6.5521205149e+00 2.9379066188e-03 1.7073072047e+00 -2.9571428227e+00 1.7073072047e+00 2.9571428227e+00 
18100 6.5521093888e+00 2.7473091828e-03 1.7072211662e+00 -2.9569937997e+00 1.7072211662e+00 2.9569937997e+00 
18200 6.5520997294e+00 2.5485611281e-03 1.7071407054e+00 -2.9568544375e+00 1.7071407054e+00 2.9568544375e+00 
18300 6.5520914900e+00 2.3423402793e-03 1.7070660618e+00 -2.9567251510e+00 1.7070660618e+00 2.9567251510e+00 
18400 6.5520846171e+00 2.1293203756e-03 1.7069974551e+00 -2.9566063206e+00 1.7069974551e+00 2.9566063206e+00 
18500 6.5520790515e+00 1.9101698403e-03 1.7069350851e+00 -2.9564982927e+00 1.7069350851e+00 2.9564982927e+00 
18600 6.5520747287e+00 1.6855506032e-03 1.7068791322e+00 -2.9564013794e+00 1.7068791322e+00 2.9564013794e+00 
18700 6.5520715796e+00 1.4561169765e-03 1.7068297573e+00 -2.9563158595e+00 1.7068297573e+00 2.9563158595e+00 
18800 6.5520695313e+00 1.2225145843e-03 1.7067871018e+00 -2.9562419781e+00 1.7067871018e+00 2.9562419781e+00 
18900 6.5520685078e+00 9.8537934745e-04 1.7067512886e+00 -2.9561799478e+00 1.7067512886e+00 2.9561799478e+00 
19000 6.5520684304e+00 7.4533652102e-04 1.7067224216e+00 -2.9561299487e+00 1.7067224216e+00 2.9561299487e+00 
19100 6.5520692188e+00 5.0299978727e-04 1.7067005863e+00 -2.9560921289e+00 1.7067005863e+00 2.9560921289e+00 
19200 6.5520707914e+00 2.5897040160e-04 1.7066858503e+00 -2.9560666053e+00 1.7066858503e+00 2.9560666053e+00 
19300 6.5520730660e+00 1.3836392074e-05 1.7066782634e+00 -2.9560534644e+00 1.7066782634e+00 2.9560534644e+00 
19400 6.5520759603e+00 -2.3137443359e-04 1.7066782634e+00 -2.9560534644e+00 1.7066782634e+00 2.9560534644e+00 
19500 6.5520793928e+00 -4.7702293618e-04 1.7066850419e+00 -2.9560652051e+00 1.7066850419e+00 2.9560652051e+00 
19600 6.5520832832e+00 -7.2209804984e-04 1.7066990171e+00 -2.9560894108e+00 1.7066990171e+00 2.9560894108e+00 
19700 6.5520875526e+00 -9.6607164314e-04 1.7067201719e+00 -2.9561260521e+00 1.7067201719e+00 2.9561260521e+00 
19800 6.5520921244e+00 -1.2084320364e-03 1.7067484740e+00 -2.9561750727e+00 1.7067484740e+00 2.9561750727e+00 
19900 6.5520969244e+00 -1.4486844977e-03 1.7067838757e+00 -2.9562363902e+00 1.7067838757e+00 2.9562363902e+00 
20000 6.5521018813e+00 -1.6863516905e-03 1.7068263149e+00 -2.9563098971e+00 1.7068263149e+00 2.9563098971e+00 
20100 6.5521069271e+00 -1.9209740761e-03 1.7068757153e+00 -2.9563954612e+00 1.7068757153e+00 2.9563954612e+00 
20200 6.5521119974e+00 -2.1521102699e-03 1.7069319873e+00 -2.9564929271e+00 1.7069319873e+00 2.9564929271e+00 
20300 6.5521170317e+00 -2.3793373536e-03 1.7069950280e+00 -2.9566021167e+00 1.7069950280e+00 2.9566021167e+00 
20400 6.5521219733e+00 -2.6022511450e-03 1.7070647222e+00 -2.9567228307e+00 1.7070647222e+00 2.9567228307e+00 
20500 6.5521267701e+00 -2.8204664261e-03 1.7071409428e+00 -2.9568548486e+00 1.7071409428e+00 2.9568548486e+00 
20600 6.5521313741e+00 -3.0336171296e-03 1.7072235514e+00 -2.9569979309e+00 1.7072235514e+00 2.9569979309e+00 
20700 6.5521357420e+00 -3.2413564879e-03 1.7073123987e+00 -2.9571518189e+00 1.7073123987e+00 2.9571518189e+00 
20800 6.5521398351e+00 -3.4433571425e-03 1.7074073252e+00 -2.9573162365e+00 1.7074073252e+00 2.9573162365e+00 
20900 6.5521436192e+00 -3.6393112174e-03 1.7075081621e+00 -2.9574908911e+00 1.7075081621e+00 2.9574908911e+00 
21000 6.5521470648e+00 -3.8289303565e-03 1.7076147311e+00 -2.9576754740e+00 1.7076147311e+00 2.9576754740e+00 
21100 6.5521501468e+00 -4.0119457270e-03 1.7077268457e+00 -2.9578696622e+00 1.7077268457e+00 2.9578696622e+00 
21200 6.5521528448e+00 -4.1881079888e-03 1.7078443116e+00 -2.9580731191e+00 1.7078443116e+00 2.9580731191e+00 
21300 6.5521551428e+00 -4.3571872328e-03 1.7079669269e+00 -2.9582854951e+00 1.7079669269e+00 2.9582854951e+00 
21400 6.5521570290e+00 -4.5189728873e-03 1.7080944833e+00 -2.9585064292e+00 1.7080944833e+00 2.9585064292e+00 
21500 6.5521584959e+00 -4.6732735954e-03 1.7082267661e+00 -2.9587355498e+00 1.7082267661e+00 2.9587355498e+00 
21600 6.5521595397e+00 -4.8199170633e-03 1.7083635552e+00 -2.9589724754e+00 1.7083635552e+00 2.9589724754e+00 
21700 6.5521601607e+00 -4.9587498809e-03 1.7085046254e+00 -2.9592168162e+00 1.7085046254e+00 2.9592168162e+00 
21800 6.5521603626e+00 -5.0896373166e-03 1.7086497470e+00 -2.9594681742e+00 1.7086497470e+00 2.9594681742e+00 
21900 6.5521601525e+00 -5.2124630862e-03 1.7087986866e+00 -2.9597261451e+00 1.7087986866e+00 2.9597261451e+00 
22000 6.5521595406e+00 -5.3271290972e-03 1.7089512072e+00 -2.9599903186e+00 1.7089512072e+00 2.9599903186e+00 
22100 6.5521585401e+00 -5.4335551704e-03 1.7091070692e+00 -2.9602602794e+00 1.7091070692e+00 2.9602602794e+00 
22200 6.5521571665e+00 -5.5316787389e-03 1.7092660306e+00 -2.9605356086e+00 1.7092660306e+00 2.9605356086e+00 
22300 6.5521554381e+00 -5.6214545260e-03 1.7094278476e+00 -2.9608158838e+00 1.7094278476e+00 2.9608158838e+00 
22400 6.5521533750e+00 -5.7028542022e-03 1.7095922752e+00 -2.9611006809e+00 1.7095922752e+00 2.9611006809e+00 
22500 6.5521509992e+00 -5.7758660237e-03 1.7097590678e+00 -2.9613895742e+00 1.7097590678e+00 2.9613895742e+00 
22600 6.5521483344e+00 -5.8404944525e-03 1.7099279794e+00 -2.9616821376e+00 1.7099279794e+00 2.9616821376e+00 
22700 6.5521454053e+00 -5.8967597583e-03 1.7100987641e+00 -2.9619779454e+00 1.7100987641e+00 2.9619779454e+00 
22800 6.5521422379e+00 -5.9446976046e-03 1.7102711769e+00 -2.9622765731e+00 1.7102711769e+00 2.9622765731e+00 
22900 6.5521388590e+00 -5.9843586199e-03 1.7104449739e+00 -2.9625775983e+00 1.7104449739e+00 2.9625775983e+00 
23000 6.5521352958e+00 -6.0158079530e-03 1.7106199126e+00 -2.9628806010e+00 1.7106199126e+00 2.9628806010e+00 
23100 6.5521315760e+00 -6.0391248155e-03 1.7107957527e+00 -2.9631851650e+00 1.7107957527e+00 2.9631851650e+00 
23200 6.5521277271e+00 -6.0544020120e-03 1.7109722562e+00 -2.9634908780e+00 1.7109722562e+00 2.9634908780e+00 
23300 6.5521237766e+00 -6.0617454576e-03 1.7111491879e+00 -2.9637973328e+00 1.7111491879e+00 2.9637973328e+00 
23400 6.5521197519e+00 -6.0612736851e-03 1.7113263159e+00 -2.9641041276e+00 1.7113263159e+00 2.9641041276e+00 
23500 6.5521156795e+00 -6.0531173422e-03 1.7115034119e+00 -2.9644108667e+00 1.7115034119e+00 2.9644108667e+00 
23600 6.5521115854e+00 -6.0374186795e-03 1.7116802512e+00 -2.9647171614e+00 1.7116802512e+00 2.9647171614e+00 
23700 6.5521074947e+00 -6.0143310307e-03 1.7118566136e+00 -2.9650226301e+00 1.7118566136e+00 2.9650226301e+00 
23800 6.5521034315e+00 -5.9840182852e-03 1.7120322835e+00 -2.9653268993e+00 1.7120322835e+00 2.9653268993e+00 
23900 6.5520994185e+00 -5.9466543543e-03 1.7122070501e+00 -2.9656296039e+00 1.7122070501e+00 2.9656296039e+00 
24000 6.5520954776e+00 -5.9024226328e-03 1.7123807077e+00 -2.9659303876e+00 1.7123807077e+00 2.9659303876e+00 
24100 6.5520916289e+00 -5.8515154548e-03 1.7125530561e+00 -2.9662289038e+00 1.7125530561e+00 2.9662289038e+00 
24200 6.5520878913e+00 -5.7941335467e-03 1.7127239008e+00 -2.9665248155e+00 1.7127239008e+00 2.9665248155e+00 
24300 6.5520842819e+00 -5.7304854774e-03 1.7128930533e+00 -2.9668177962e+00 1.7128930533e+00 2.9668177962e+00 
24400 6.5520808166e+00 -5.6607871062e-03 1.7130603310e+00 -2.9671075298e+00 1.7130603310e+00 2.9671075298e+00 
24500 6.5520775093e+00 -5.5852610299e-03 1.7132255581e+00 -2.9673937114e+00 1.7132255581e+00 2.9673937114e+00 
24600 6.5520743723e+00 -5.5041360299e-03 1.7133885649e+00 -2.9676760475e+00 1.7133885649e+00 2.9676760475e+00 
24700 6.5520714165e+00 -5.4176465198e-03 1.7135491888e+00 -2.9679542562e+00 1.7135491888e+00 2.9679542562e+00 
24800 6.5520686509e+00 -5.3260319946e-03 1.7137072738e+00 -2.9682280676e+00 1.7137072738e+00 2.9682280676e+00 
24900 6.5520660827e+00 -5.2295364825e-03 1.7138626712e+00 -2.9684972237e+00 1.7138626712e+00 2.9684972237e+00 
25000 6.5520637176e+00 -5.1284079997e-03 1.7140152393e+00 -2.9687614794e+00 1.7140152393e+00 2.9687614794e+00 
25100 6.5520615599e+00 -5.0228980095e-03 1.7141648436e+00 -2.9690206017e+00 1.7141648436e+00 2.9690206017e+00 
25200 6.5520596119e+00 -4.9132608862e-03 1.7143113572e+00 -2.9692743707e+00 1.7143113572e+00 2.9692743707e+00 
25300 6.5520578748e+00 -4.7997533844e-03 1.7144546605e+00 -2.9695225793e+00 1.7144546605e+00 2.9695225793e+00 
25400 6.5520563479e+00 -4.6826341158e-03 1.7145946414e+00 -2.9697650333e+00 1.7145946414e+00 2.9697650333e+00 
25500 6.5520550296e+00 -4.5621630317e-03 1.7147311955e+00 -2.9700015519e+00 1.7147311955e+00 2.9700015519e+00 
25600 6.5520539167e+00 -4.4386009152e-03 1.7148642257e+00 -2.9702319670e+00 1.7148642257e+00 2.9702319670e+00 
25700 6.5520530047e+00 -4.3122088807e-03 1.7149936429e+00 -2.9704561241e+00 1.7149936429e+00 2.9704561241e+00 
25800 6.5520522883e+00 -4.1832478835e-03 1.7151193652e+00 -2.9706738816e+00 1.7151193652e+00 2.9706738816e+00 
25900 6.5520517608e+00 -4.0519782400e-03 1.7152413188e+00 -2.9708851113e+00 1.7152413188e+00 2.9708851113e+00 
26000 6.5520514147e+00 -3.9186591578e-03 1.7153594370e+00 -2.9710896981e+00 1.7153594370e+00 2.9710896981e+00 
26100 6.5520512416e+00 -3.7835482781e-03 1.7154736609e+00 -2.9712875398e+00 1.7154736609e+00 2.9712875398e+00 
26200 6.5520512325e+00 -3.6469012294e-03 1.7155839392e+00 -2.9714785473e+00 1.7155839392e+00 2.9714785473e+00 
26300 6.5520513776e+00 -3.5089711947e-03 1.7156902277e+00 -2.9716626445e+00 1.7156902277e+00 2.9716626445e+00 
26400 6.5520516665e+00 -3.3700084914e-03 1.7157924900e+00 -2.9718397679e+00 1.7157924900e+00 2.9718397679e+00 
26500 6.5520520884e+00 -3.2302601655e-03 1.7158906965e+00 -2.9720098666e+00 1.7158906965e+00 2.9720098666e+00 
26600 6.5520526321e+00 -3.0899695992e-03 1.7159848252e+00 -2.9721729022e+00 1.7159848252e+00 2.9721729022e+00 
26700 6.5520532863e+00 -2.9493761345e-03 1.7160748608e+00 -2.9723288485e+00 1.7160748608e+00 2.9723288485e+00 
26800 6.5520540393e+00 -2.8087147111e-03 1.7161607953e+00 -2.9724776915e+00 1.7161607953e+00 2.9724776915e+00 
26900 6.5520548795e+00 -2.6682155203e-03 1.7162426273e+00 -2.9726194286e+00 1.7162426273e+00 2.9726194286e+00 
27000 6.5520557952e+00 -2.5281036749e-03 1.7163203621e+00 -2.9727540692e+00 1.7163203621e+00 2.9727540692e+00 
27100 6.5520567748e+00 -2.3885988953e-03 1.7163940116e+00 -2.9728816339e+00 1.7163940116e+00 2.9728816339e+00 
27200 6.5520578069e+00 -2.2499152126e-03 1.7164635939e+00 -2.9730021541e+00 1.7164635939e+00 2.9730021541e+00 
27300 6.5520588803e+00 -2.1122606884e-03 1.7165291336e+00 -2.9731156721e+00 1.7165291336e+00 2.9731156721e+00 
27400 6.5520599841e+00 -1.9758371513e-03 1.7165906611e+00 -2.9732222408e+00 1.7165906611e+00 2.9732222408e+00 
27500 6.5520611079e+00 -1.8408399520e-03 1.7166482126e+00 -2.9733219230e+00 1.7166482126e+00 2.9733219230e+00 
27600 6.5520622415e+00 -1.7074577345e-03 1.7167018302e+00 -2.9734147913e+00 1.7167018302e+00 2.9734147913e+00 
27700 6.5520633753e+00 -1.5758722259e-03 1.7167515612e+00 -2.9735009279e+00 1.7167515612e+00 2.9735009279e+00 
27800 6.5520645002e+00 -1.4462580436e-03 1.7167974583e+00 -2.9735804241e+00 1.7167974583e+00 2.9735804241e+00 
27900 6.5520656077e+00 -1.3187825200e-03 1.7168395793e+00 -2.9736533797e+00 1.7168395793e+00 2.9736533797e+00 
28000 6.5520666899e+00 -1.1936055455e-03 1.7168779867e+00 -2.9737199033e+00 1.7168779867e+00 2.9737199033e+00 
28100 6.5520677394e+00 -1.0708794285e-03 1.7169127477e+00 -2.9737801112e+00 1.7169127477e+00 2.9737801112e+00 
28200 6.5520687496e+00 -9.5074877416e-04 1.7169439340e+00 -2.9738341275e+00 1.7169439340e+00 2.9738341275e+00 
28300 6.5520697145e+00 -8.3335037945e-04 1.7169716213e+00 -2.9738820833e+00 1.7169716213e+00 2.9738820833e+00 
28400 6.5520706286e+00 -7.1881314650e-04 1.7169958894e+00 -2.9739241169e+00 1.7169958894e+00 2.9739241169e+00 
28500 6.5520714874e+00 -6.0725801286e-04 1.7170168218e+00 -2.9739603727e+00 1.7170168218e+00 2.9739603727e+00 
28600 6.5520722869e+00 -4.9879789884e-04 1.7170345053e+00 -2.9739910015e+00 1.7170345053e+00 2.9739910015e+00 
28700 6.5520730237e+00 -3.9353767158e-04 1.7170490303e+00 -2.9740161596e+00 1.7170490303e+00 2.9740161596e+00 
28800 6.5520736952e+00 -2.9157412578e-04 1.7170604900e+00 -2.9740360084e+00 1.7170604900e+00 2.9740360084e+00 
28900 6.5520742993e+00 -1.9299598044e-04 1.7170689805e+00 -2.9740507144e+00 1.7170689805e+00 2.9740507144e+00 
29000 6.5520748346e+00 -9.7883891634e-05 1.7170746005e+00 -2.9740604484e+00 1.7170746005e+00 2.9740604484e+00 
29100 6.5520753005e+00 -6.3104806735e-06 1.7170774508e+00 -2.9740653853e+00 1.7170774508e+00 2.9740653853e+00 
29200 6.5520756966e+00 8.1457259495e-05 1.7170774508e+00 -2.9740653853e+00 1.7170774508e+00 2.9740653853e+00 
29300 6.5520760233e+00 1.6577280598e-04 1.7170750788e+00 -2.9740612769e+00 1.7170750788e+00 2.9740612769e+00 
29400 6.5520762816e+00 2.4637929196e-04 1.7170702516e+00 -2.9740529160e+00 1.7170702516e+00 2.9740529160e+00 
29500 6.5520764728e+00 3.2323566990e-04 1.7170630772e+00 -2.9740404895e+00 1.7170630772e+00 2.9740404895e+00 
29600 6.5520765987e+00 3.9630856758e-04 1.7170536648e+00 -2.9740241867e+00 1.7170536648e+00 2.9740241867e+00 
29700 6.5520766617e+00 4.6557217590e-04 1.7170421244e+00 -2.9740041982e+00 1.7170421244e+00 2.9740041982e+00 
29800 6.5520766643e+00 5.3100812460e-04 1.7170285670e+00 -2.9739807162e+00 1.7170285670e+00 2.9739807162e+00 
29900 6.5520766095e+00 5.9260534612e-04 1.7170131041e+00 -2.9739539335e+00 1.7170131041e+00 2.9739539335e+00 
30000 6.5520765006e+00 6.5035992830e-04 1.7169958472e+00 -2.9739240438e+00 1.7169958472e+00 2.9739240438e+00 
30100 6.5520763411e+00 7.0427495657e-04 1.7169769084e+00 -2.9738912407e+00 1.7169769084e+00 2.9738912407e+00 
30200 6.5520761350e+00 7.5436034597e-04 1.7169563993e+00 -2.9738557179e+00 1.7169563993e+00 2.9738557179e+00 
30300 6.5520758860e+00 8.0063266384e-04 1.7169344314e+00 -2.9738176684e+00 1.7169344314e+00 2.9738176684e+00 
30400 6.5520755983e+00 8.4311494361e-04 1.7169111156e+00 -2.9737772844e+00 1.7169111156e+00 2.9737772844e+00 
30500 6.5520752761e+00 8.8183649037e-04 1.7168865625e+00 -2.9737347570e+00 1.7168865625e+00 2.9737347570e+00 
30600 6.5520749237e+00 9.1683267872e-04 1.7168608813e+00 -2.9736902759e+00 1.7168608813e+00 2.9736902759e+00 
30700 6.5520745455e+00 9.4814474369e-04 1.7168341805e+00 -2.9736440288e+00 1.7168341805e+00 2.9736440288e+00 
30800 6.5520741457e+00 9.7581956515e-04 1.7168065674e+00 -2.9735962015e+00 1.7168065674e+00 2.9735962015e+00 
30900 6.5520737287e+00 9.9990944638e-04 1.7167781478e+00 -2.9735469774e+00 1.7167781478e+00 2.9735469774e+00 
31000 6.5520732987e+00 1.0204718875e-03 1.7167490262e+00 -2.9734965373e+00 1.7167490262e+00 2.9734965373e+00 
31100 6.5520728598e+00 1.0375693540e-03 1.7167193053e+00 -2.9734450591e+00 1.7167193053e+00 2.9734450591e+00 
31200 6.5520724160e+00 1.0512690419e-03 1.7166890858e+00 -2.9733927174e+00 1.7166890858e+00 2.9733927174e+00 
31300 6.5520719713e+00 1.0616426385e-03 1.7166584668e+00 -2.9733396838e+00 1.7166584668e+00 2.9733396838e+00 
31400 6.5520715293e+00 1.0687660811e-03 1.7166275451e+00 -2.9732861259e+00 1.7166275451e+00 2.9732861259e+00 
31500 6.5520710936e+00 1.0727193127e-03 1.7165964154e+00 -2.9732322076e+00 1.7165964154e+00 2.9732322076e+00 
31600 6.5520706675e+00 1.0735860368e-03 1.7165651700e+00 -2.9731780889e+00 1.7165651700e+00 2.9731780889e+00 
31700 6.5520702541e+00 1.0714534703e-03 1.7165338987e+00 -2.9731239255e+00 1.7165338987e+00 2.9731239255e+00 
31800 6.5520698562e+00 1.0664120959e-03 1.7165026890e+00 -2.9730698687e+00 1.7165026890e+00 2.9730698687e+00 
31900 6.5520694766e+00 1.0585554144e-03 1.7164716256e+00 -2.9730160653e+00 1.7164716256e+00 2.9730160653e+00 
32000 6.5520691177e+00 1.0479796977e-03 1.7164407905e+00 -2.9729626573e+00 1.7164407905e+00 2.9729626573e+00 
32100 6.5520687814e+00 1.0347837418e-03 1.7164102629e+00 -2.9729097819e+00 1.7164102629e+00 2.9729097819e+00 
32200 6.5520684697e+00 1.0190686222e-03 1.7163801191e+00 -2.9728575714e+00 1.7163801191e+00 2.9728575714e+00 
32300 6.5520681843e+00 1.0009374500e-03 1.7163504327e+00 -2.9728061529e+00 1.7163504327e+00 2.9728061529e+00 
32400 6.5520679264e+00 9.8049513128e-04 1.7163212738e+00 -2.9727556484e+00 1.7163212738e+00 2.9727556484e+00 
32500 6.5520676971e+00 9.5784812821e-04 1.7162927101e+00 -2.9727061745e+00 1.7162927101e+00 2.9727061745e+00 
32600 6.5520674972e+00 9.3310422377e-04 1.7162648056e+00 -2.9726578425e+00 1.7162648056e+00 2.9726578425e+00 
32700 6.5520673274e+00 9.0637228970e-04 1.7162376215e+00 -2.9726107583e+00 1.7162376215e+00 2.9726107583e+00 
32800 6.5520671880e+00 8.7776205826e-04 1.7162112158e+00 -2.9725650222e+00 1.7162112158e+00 2.9725650222e+00 
32900 6.5520670790e+00 8.4738389821e-04 1.7161856432e+00 -2.9725207292e+00 1.7161856432e+00 2.9725207292e+00 
33000 6.5520670003e+00 8.1534859519e-04 1.7161609552e+00 -2.9724779684e+00 1.7161609552e+00 2.9724779684e+00 
33100 6.5520669517e+00 7.8176713692e-04 1.7161372003e+00 -2.9724368236e+00 1.7161372003e+00 2.9724368236e+00 
33200 6.5520669324e+00 7.4675050350e-04 1.7161144234e+00 -2.9723973729e+00 1.7161144234e+00 2.9723973729e+00 
33300 6.5520669419e+00 7.1040946302e-04 1.7160926664e+00 -2.9723596887e+00 1.7160926664e+00 2.9723596887e+00 
33400 6.5520669793e+00 6.7285437278e-04 1.7160719680e+00 -2.9723238380e+00 1.7160719680e+00 2.9723238380e+00 
33500 6.5520670433e+00 6.3419498640e-04 1.7160523635e+00 -2.9722898821e+00 1.7160523635e+00 2.9722898821e+00 
33600 6.5520671329e+00 5.9454026682e-04 1.7160338852e+00 -2.9722578768e+00 1.7160338852e+00 2.9722578768e+00 
33700 6.5520672468e+00 5.5399820579e-04 1.7160165622e+00 -2.9722278723e+00 1.7160165622e+00 2.9722278723e+00 
33800 6.5520673833e+00 5.1267564952e-04 1.7160004202e+00 -2.9721999136e+00 1.7160004202e+00 2.9721999136e+00 
33900 6.5520675411e+00 4.7067813107e-04 1.7159854822e+00 -2.9721740401e+00 1.7159854822e+00 2.9721740401e+00 
34000 6.5520677185e+00 4.2810970942e-04 1.7159717677e+00 -2.9721502859e+00 1.7159717677e+00 2.9721502859e+00 
34100 6.5520679138e+00 3.8507281532e-04 1.7159592934e+00 -2.9721286799e+00 1.7159592934e+00 2.9721286799e+00 
34200 6.5520681252e+00 3.4166810417e-04 1.7159480731e+00 -2.9721092457e+00 1.7159480731e+00 2.9721092457e+00 
34300 6.5520683510e+00 2.9799431590e-04 1.7159381174e+00 -2.9720920020e+00 1.7159381174e+00 2.9720920020e+00 
34400 6.5520685894e+00 2.5414814192e-04 1.7159294343e+00 -2.9720769624e+00 1.7159294343e+00 2.9720769624e+00 
34500 6.5520688385e+00 2.1022409930e-04 1.7159220288e+00 -2.9720641356e+00 1.7159220288e+00 2.9720641356e+00 
34600 6.5520690966e+00 1.6631441207e-04 1.7159159031e+00 -2.9720535256e+00 1.7159159031e+00 2.9720535256e+00 
34700 6.5520693618e+00 1.2250889988e-04 1.7159110568e+00 -2.9720451317e+00 1.7159110568e+00 2.9720451317e+00 
34800 6.5520696324e+00 7.8894873730e-05 1.7159074871e+00 -2.9720389487e+00 1.7159074871e+00 2.9720389487e+00 
34900 6.5520699067e+00 3.5557039121e-05 1.7159051881e+00 -2.9720349668e+00 1.7159051881e+00 2.9720349668e+00 
35000 6.5520701830e+00 -6.2779931933e-06 1.7159051881e+00 -2.9720349668e+00 1.7159051881e+00 2.9720349668e+00 
35100 6.5520704597e+00 -4.9053427726e-05 1.7159051881e+00 -2.9720349668e+00 1.7159051881e+00 2.9720349668e+00 
35200 6.5520707355e+00 -9.2685133204e-05 1.7159051881e+00 -2.9720349668e+00 1.7159051881e+00 2.9720349668e+00 
35300 6.5520710086e+00 -1.3410668032e-04 1.7159078889e+00 -2.9720396447e+00 1.7159078889e+00 2.9720396447e+00 
35400 6.5520712779e+00 -1.7487131195e-04 1.7159117966e+00 -2.9720464131e+00 1.7159117966e+00 2.9720464131e+00 
35500 6.5520715419e+00 -2.1491154450e-04 1.7159168922e+00 -2.9720552389e+00 1.7159168922e+00 2.9720552389e+00 
35600 6.5520717996e+00 -2.5416298027e-04 1.7159231545e+00 -2.9720660855e+00 1.7159231545e+00 2.9720660855e+00 
35700 6.5520720498e+00 -2.9256434801e-04 1.7159305605e+00 -2.9720789131e+00 1.7159305605e+00 2.9720789131e+00 
35800 6.5520722915e+00 -3.3005753670e-04 1.7159390855e+00 -2.9720936788e+00 1.7159390855e+00 2.9720936788e+00 
35900 6.5520725240e+00 -3.6658762283e-04 1.7159487029e+00 -2.9721103366e+00 1.7159487029e+00 2.9721103366e+00 
36000 6.5520727463e+00 -4.0210289125e-04 1.7159593847e+00 -2.9721288380e+00 1.7159593847e+00 2.9721288380e+00 
36100 6.5520729579e+00 -4.3655484962e-04 1.7159711013e+00 -2.9721491317e+00 1.7159711013e+00 2.9721491317e+00 
36200 6.5520731582e+00 -4.6989823676e-04 1.7159838216e+00 -2.9721711640e+00 1.7159838216e+00 2.9721711640e+00 
36300 6.5520733467e+00 -5.0209102487e-04 1.7159975134e+00 -2.9721948790e+00 1.7159975134e+00 2.9721948790e+00 
36400 6.5520735231e+00 -5.3309441596e-04 1.7160121432e+00 -2.9722202184e+00 1.7160121432e+00 2.9722202184e+00 
36500 6.5520736871e+00 -5.6287283247e-04 1.7160276762e+00 -2.9722471223e+00 1.7160276762e+00 2.9722471223e+00 
36600 6.5520738386e+00 -5.9139390232e-04 1.7160440766e+00 -2.9722755288e+00 1.7160440766e+00 2.9722755288e+00 
36700 6.5520739775e+00 -6.1862843865e-04 1.7160613080e+00 -2.9723053743e+00 1.7160613080e+00 2.9723053743e+00 
36800 6.5520741039e+00 -6.4455041416e-04 1.7160793327e+00 -2.9723365940e+00 1.7160793327e+00 2.9723365940e+00 
36900 6.5520742179e+00 -6.6913693055e-04 1.7160981124e+00 -2.9723691215e+00 1.7160981124e+00 2.9723691215e+00 
37000 6.5520743196e+00 -6.9236818299e-04 1.7161176084e+00 -2.9724028894e+00 1.7161176084e+00 2.9724028894e+00 
37100 6.5520744094e+00 -7.1422741993e-04 1.7161377809e+00 -2.9724378293e+00 1.7161377809e+00 2.9724378293e+00 
37200 6.5520744876e+00 -7.3470089840e-04 1.7161585901e+00 -2.9724738719e+00 1.7161585901e+00 2.9724738719e+00 
37300 6.5520745546e+00 -7.5377783495e-04 1.7161799955e+00 -2.9725109472e+00 1.7161799955e+00 2.9725109472e+00 
37400 6.5520746108e+00 -7.7145035257e-04 1.7162019565e+00 -2.9725489847e+00 1.7162019565e+00 2.9725489847e+00 
37500 6.5520746568e+00 -7.8771342356e-04 1.7162244321e+00 -2.9725879135e+00 1.7162244321e+00 2.9725879135e+00 
37600 6.5520746932e+00 -8.0256480872e-04 1.7162473811e+00 -2.9726276625e+00 1.7162473811e+00 2.9726276625e+00 
37700 6.5520747205e+00 -8.1600499303e-04 1.7162707626e+00 -2.9726681603e+00 1.7162707626e+00 2.9726681603e+00 
37800 6.5520747393e+00 -8.2803711793e-04 1.7162945353e+00 -2.9727093358e+00 1.7162945353e+00 2.9727093358e+00 
37900 6.5520747504e+00 -8.3866691049e-04 1.7163186581e+00 -2.9727511179e+00 1.7163186581e+00 2.9727511179e+00 
38000 6.5520747543e+00 -8.4790260964e-04 1.7163430903e+00 -2.9727934357e+00 1.7163430903e+00 2.9727934357e+00 
38100 6.5520747519e+00 -8.5575488970e-04 1.7163677912e+00 -2.9728362189e+00 1.7163677912e+00 2.9728362189e+00 
38200 6.5520747437e+00 -8.6223678128e-04 1.7163927205e+00 -2.9728793977e+00 1.7163927205e+00 2.9728793977e+00 
38300 6.5520747306e+00 -8.6736358989e-04 1.7164178383e+00 -2.9729229030e+00 1.7164178383e+00 2.9729229030e+00 
38400 6.5520747131e+00 -8.7115281245e-04 1.7164431050e+00 -2.9729666662e+00 1.7164431050e+00 2.9729666662e+00 
38500 6.5520746921e+00 -8.7362405179e-04 1.7164684818e+00 -2.9730106201e+00 1.7164684818e+00 2.9730106201e+00 
38600 6.5520746681e+00 -8.7479892941e-04 1.7164939302e+00 -2.9730546979e+00 1.7164939302e+00 2.9730546979e+00 
38700 6.5520746419e+00 -8.7470099670e-04 1.7165194124e+00 -2.9730988344e+00 1.7165194124e+00 2.9730988344e+00 
38800 6.5520746141e+00 -8.7335564484e-04 1.7165448913e+00 -2.9731429653e+00 1.7165448913e+00 2.9731429653e+00 
38900 6.5520745853e+00 -8.7079001347e-04 1.7165703307e+00 -2.9731870276e+00 1.7165703307e+00 2.9731870276e+00 
39000 6.5520745561e+00 -8.6703289835e-04 1.7165956951e+00 -2.9732309599e+00 1.7165956951e+00 2.9732309599e+00 
39100 6.5520745271e+00 -8.6211465838e-04 1.7166209495e+00 -2.9732747019e+00 1.7166209495e+00 2.9732747019e+00 
39200 6.5520744988e+00 -8.5606712180e-04 1.7166460604e+00 -2.9733181952e+00 1.7166460604e+00 2.9733181952e+00 
39300 6.5520744717e+00 -8.4892349214e-04 1.7166709948e+00 -2.9733613828e+00 1.7166709948e+00 2.9733613828e+00 
39400 6.5520744463e+00 -8.4071825376e-04 1.7166957207e+00 -2.9734042094e+00 1.7166957207e+00 2.9734042094e+00 
39500 6.5520744230e+00 -8.3148707747e-04 1.7167202073e+00 -2.9734466214e+00 1.7167202073e+00 2.9734466214e+00 
39600 6.5520744022e+00 -8.2126672609e-04 1.7167444246e+00 -2.9734885671e+00 1.7167444246e+00 2.9734885671e+00 
39700 6.5520743842e+00 -8.1009496034e-04 1.7167683440e+00 -2.9735299966e+00 1.7167683440e+00 2.9735299966e+00 
39800 6.5520743694e+00 -7.9801044516e-04 1.7167919377e+00 -2.9735708620e+00 1.7167919377e+00 2.9735708620e+00 
39900 6.5520743579e+00 -7.8505265658e-04 1.7168151790e+00 -2.9736111173e+00 1.7168151790e+00 2.9736111173e+00 
40000 6.5520743500e+00 -7.7126178926e-04 1.7168380427e+00 -2.9736507184e+00 1.7168380427e+00 2.9736507184e+00 
40100 6.5520743459e+00 -7.5667866503e-04 1.7168605045e+00 -2.9736896232e+00 1.7168605045e+00 2.9736896232e+00 
40200 6.5520743457e+00 -7.4134464235e-04 1.7168825412e+00 -2.9737277920e+00 1.7168825412e+00 2.9737277920e+00 
40300 6.5520743495e+00 -7.2530152696e-04 1.7169041311e+00 -2.9737651868e+00 1.7169041311e+00 2.9737651868e+00 
40400 6.5520743574e+00 -7.0859148385e-04 1.7169252535e+00 -2.9738017719e+00 1.7169252535e+00 2.9738017719e+00 
40500 6.5520743694e+00 -6.9125695057e-04 1.7169458890e+00 -2.9738375136e+00 1.7169458890e+00 2.9738375136e+00 
40600 6.5520743855e+00 -6.7334055223e-04 1.7169660195e+00 -2.9738723806e+00 1.7169660195e+00 2.9738723806e+00 
40700 6.5520744056e+00 -6.5488501799e-04 1.7169856280e+00 -2.9739063435e+00 1.7169856280e+00 2.9739063435e+00 
40800 6.5520744297e+00 -6.3593309948e-04 1.7170046988e+00 -2.9739393751e+00 1.7170046988e+00 2.9739393751e+00 
40900 6.5520744576e+00 -6.1652749101e-04 1.7170232175e+00 -2.9739714505e+00 1.7170232175e+00 2.9739714505e+00 
41000 6.5520744893e+00 -5.9671075180e-04 1.7170411709e+00 -2.9740025467e+00 1.7170411709e+00 2.9740025467e+00 
41100 6.5520745245e+00 -5.7652523029e-04 1.7170585471e+00 -2.9740326431e+00 1.7170585471e+00 2.9740326431e+00 
41200 6.5520745631e+00 -5.5601299061e-04 1.7170753353e+00 -2.9740617211e+00 1.7170753353e+00 2.9740617211e+00 
41300 6.5520746050e+00 -5.3521574135e-04 1.7170915260e+00 -2.9740897643e+00 1.7170915260e+00 2.9740897643e+00 
41400 6.5520746498e+00 -5.1417476659e-04 1.7171071110e+00 -2.9741167582e+00 1.7171071110e+00 2.9741167582e+00 
41500 6.5520746973e+00 -4.9293085940e-04 1.7171220831e+00 -2.9741426907e+00 1.7171220831e+00 2.9741426907e+00 
41600 6.5520747474e+00 -4.7152425782e-04 1.7171364365e+00 -2.9741675516e+00 1.7171364365e+00 2.9741675516e+00 
41700 6.5520747998e+00 -4.4999458330e-04 1.7171501665e+00 -2.9741913326e+00 1.7171501665e+00 2.9741913326e+00 
41800 6.5520748541e+00 -4.2838078182e-04 1.7171632695e+00 -2.9742140276e+00 1.7171632695e+00 2.9742140276e+00 
41900 6.5520749101e+00 -4.0672106757e-04 1.7171757430e+00 -2.9742356324e+00 1.7171757430e+00 2.9742356324e+00 
42000 6.5520749677e+00 -3.8505286942e-04 1.7171875857e+00 -2.9742561446e+00 1.7171875857e+00 2.9742561446e+00 
42100 6.5520750264e+00 -3.6341277995e-04 1.7171987975e+00 -2.9742755639e+00 1.7171987975e+00 2.9742755639e+00 
42200 6.5520750860e+00 -3.4183650738e-04 1.7172093790e+00 -2.9742938917e+00 1.7172093790e+00 2.9742938917e+00 
42300 6.5520751463e+00 -3.2035883021e-04 1.7172193323e+00 -2.9743111313e+00 1.7172193323e+00 2.9743111313e+00 
42400 6.5520752070e+00 -2.9901355464e-04 1.7172286602e+00 -2.9743272876e+00 1.7172286602e+00 2.9743272876e+00 
42500 6.5520752679e+00 -2.7783347484e-04 1.7172373664e+00 -2.9743423673e+00 1.7172373664e+00 2.9743423673e+00 
42600 6.5520753286e+00 -2.5685033601e-04 1.7172454560e+00 -2.9743563789e+00 1.7172454560e+00 2.9743563789e+00 
42700 6.5520753890e+00 -2.3609480028e-04 1.7172529346e+00 -2.9743693321e+00 1.7172529346e+00 2.9743693321e+00 
42800 6.5520754489e+00 -2.1559641542e-04 1.7172598088e+00 -2.9743812386e+00 1.7172598088e+00 2.9743812386e+00 
42900 6.5520755080e+00 -1.9538358637e-04 1.7172660861e+00 -2.9743921113e+00 1.7172660861e+00 2.9743921113e+00 
43000 6.5520755660e+00 -1.7548354956e-04 1.7172717749e+00 -2.9744019645e+00 1.7172717749e+00 2.9744019645e+00 
43100 6.5520756230e+00 -1.5592235001e-04 1.7172768843e+00 -2.9744108142e+00 1.7172768843e+00 2.9744108142e+00 
43200 6.5520756786e+00 -1.3672482125e-04 1.7172814241e+00 -2.9744186774e+00 1.7172814241e+00 2.9744186774e+00 
43300 6.5520757327e+00 -1.1791456786e-04 1.7172854049e+00 -2.9744255725e+00 1.7172854049e+00 2.9744255725e+00 
43400 6.5520757852e+00 -9.9513950801e-05 1.7172888381e+00 -2.9744315189e+00 1.7172888381e+00 2.9744315189e+00 
43500 6.5520758359e+00 -8.1544075414e-05 1.7172917355e+00 -2.9744365374e+00 1.7172917355e+00 2.9744365374e+00 
43600 6.5520758848e+00 -6.4024781999e-05 1.7172941097e+00 -2.9744406496e+00 1.7172941097e+00 2.9744406496e+00 
43700 6.5520759317e+00 -4.9027981704e-05 1.7172941097e+00 -2.9744406496e+00 1.7172941097e+00 2.9744406496e+00 
43800 6.5520759766e+00 -3.3981192338e-05 1.7172941097e+00 -2.9744406496e+00 1.7172941097e+00 2.9744406496e+00 
43900 6.5520760192e+00 -1.8914068878e-05 1.7172941097e+00 -2.9744406496e+00 1.7172941097e+00 2.9744406496e+00 
44000 6.5520760597e+00 -3.8553262169e-06 1.7172941097e+00 -2.9744406496e+00 1.7172941097e+00 2.9744406496e+00 
44100 6.5520760981e+00 1.1167279918e-05 1.7172941097e+00 -2.9744406496e+00 1.7172941097e+00 2.9744406496e+00 
44200 6.5520761342e+00 2.6126969801e-05 1.7172941097e+00 -2.9744406496e+00 1.7172941097e+00 2.9744406496e+00 
44300 6.5520761683e+00 4.0997954324e-05 1.7172941097e+00 -2.9744406496e+00 1.7172941097e+00 2.9744406496e+00 
44400 6.5520762002e+00 5.5755447463e-05 1.7172941097e+00 -2.9744406496e+00 1.7172941097e+00 2.9744406496e+00 
44500 6.5520762302e+00 7.0375676609e-05 1.7172941097e+00 -2.9744406496e+00 1.7172941097e+00 2.9744406496e+00 
44600 6.5520762581e+00 8.4835890834e-05 1.7172941097e+00 -2.9744406496e+00 1.7172941097e+00 2.9744406496e+00 
44700 6.5520762839e+00 9.6393206223e-05 1.7172916397e+00 -2.9744363714e+00 1.7172916397e+00 2.9744363714e+00 
44800 6.5520763076e+00 1.0736359555e-04 1.7172888331e+00 -2.9744315103e+00 1.7172888331e+00 2.9744315103e+00 
44900 6.5520763294e+00 1.1774326941e-04 1.7172857072e+00 -2.9744260960e+00 1.7172857072e+00 2.9744260960e+00 
45000 6.5520763494e+00 1.2752959517e-04 1.7172822790e+00 -2.9744201582e+00 1.7172822790e+00 2.9744201582e+00 
45100 6.5520763676e+00 1.3672107402e-04 1.7172785659e+00 -2.9744137269e+00 1.7172785659e+00 2.9744137269e+00 
45200 6.5520763841e+00 1.4531731645e-04 1.7172745851e+00 -2.9744068320e+00 1.7172745851e+00 2.9744068320e+00 
45300 6.5520763990e+00 1.5331901626e-04 1.7172703541e+00 -2.9743995036e+00 1.7172703541e+00 2.9743995036e+00 
45400 6.5520764125e+00 1.6072792325e-04 1.7172658901e+00 -2.9743917717e+00 1.7172658901e+00 2.9743917717e+00 
45500 6.5520764246e+00 1.6754681446e-04 1.7172612103e+00 -2.9743836661e+00 1.7172612103e+00 2.9743836661e+00 
45600 6.5520764355e+00 1.7377946436e-04 1.7172563320e+00 -2.9743752166e+00 1.7172563320e+00 2.9743752166e+00 
45700 6.5520764452e+00 1.7943061375e-04 1.7172512722e+00 -2.9743664528e+00 1.7172512722e+00 2.9743664528e+00 
45800 6.5520764539e+00 1.8450593777e-04 1.7172460478e+00 -2.9743574040e+00 1.7172460478e+00 2.9743574040e+00 
45900 6.5520764617e+00 1.8901201277e-04 1.7172406757e+00 -2.9743480991e+00 1.7172406757e+00 2.9743480991e+00 
46000 6.5520764686e+00 1.9295628250e-04 1.7172351723e+00 -2.9743385670e+00 1.7172351723e+00 2.9743385670e+00 
46100 6.5520764749e+00 1.9634702332e-04 1.7172295541e+00 -2.9743288360e+00 1.7172295541e+00 2.9743288360e+00 
46200 6.5520764805e+00 1.9919330885e-04 1.7172238371e+00 -2.9743189339e+00 1.7172238371e+00 2.9743189339e+00 
46300 6.5520764857e+00 2.0150497394e-04 1.7172180373e+00 -2.9743088883e+00 1.7172180373e+00 2.9743088883e+00 
46400 6.5520764905e+00 2.0329257805e-04 1.7172121701e+00 -2.9742987260e+00 1.7172121701e+00 2.9742987260e+00 
46500 6.5520764950e+00 2.0456736829e-04 1.7172062508e+00 -2.9742884735e+00 1.7172062508e+00 2.9742884735e+00 
46600 6.5520764993e+00 2.0534124195e-04 1.7172002944e+00 -2.9742781567e+00 1.7172002944e+00 2.9742781567e+00 
46700 6.5520765036e+00 2.0562670886e-04 1.7171943155e+00 -2.9742678009e+00 1.7171943155e+00 2.9742678009e+00 
46800 6.5520765078e+00 2.0543685342e-04 1.7171883282e+00 -2.9742574306e+00 1.7171883282e+00 2.9742574306e+00 
46900 6.5520765120e+00 2.0478529658e-04 1.7171823464e+00 -2.9742470699e+00 1.7171823464e+00 2.9742470699e+00 
47000 6.5520765164e+00 2.0368615765e-04 1.7171763836e+00 -2.9742367420e+00 1.7171763836e+00 2.9742367420e+00 
47100 6.5520765210e+00 2.0215401624e-04 1.7171704528e+00 -2.9742264694e+00 1.7171704528e+00 2.9742264694e+00 
47200 6.5520765258e+00 2.0020387416e-04 1.7171645665e+00 -2.9742162742e+00 1.7171645665e+00 2.9742162742e+00 
47300 6.5520765310e+00 1.9785111753e-04 1.7171587370e+00 -2.9742061772e+00 1.7171587370e+00 2.9742061772e+00 
47400 6.5520765365e+00 1.9511147912e-04 1.7171529760e+00 -2.9741961988e+00 1.7171529760e+00 2.9741961988e+00 
47500 6.5520765424e+00 1.9200100089e-04 1.7171472948e+00 -2.9741863586e+00 1.7171472948e+00 2.9741863586e+00 
47600 6.5520765487e+00 1.8853599695e-04 1.7171417041e+00 -2.9741766753e+00 1.7171417041e+00 2.9741766753e+00 
47700 6.5520765555e+00 1.8473301688e-04 1.7171362143e+00 -2.9741671666e+00 1.7171362143e+00 2.9741671666e+00 
47800 6.5520765628e+00 1.8060880954e-04 1.7171308352e+00 -2.9741578498e+00 1.7171308352e+00 2.9741578498e+00 
47900 6.5520765706e+00 1.7618028738e-04 1.7171255761e+00 -2.9741487409e+00 1.7171255761e+00 2.9741487409e+00 
48000 6.5520765789e+00 1.7146449130e-04 1.7171204461e+00 -2.9741398553e+00 1.7171204461e+00 2.9741398553e+00 
48100 6.5520765877e+00 1.6647855621e-04 1.7171154533e+00 -2.9741312075e+00 1.7171154533e+00 2.9741312075e+00 
48200 6.5520765970e+00 1.6123967713e-04 1.7171106056e+00 -2.9741228112e+00 1.7171106056e+00 2.9741228112e+00 
48300 6.5520766068e+00 1.5576507618e-04 1.7171059106e+00 -2.9741146791e+00 1.7171059106e+00 2.9741146791e+00 
48400 6.5520766171e+00 1.5007197016e-04 1.7171013749e+00 -2.9741068230e+00 1.7171013749e+00 2.9741068230e+00 
48500 6.5520766278e+00 1.4417753906e-04 1.7170970050e+00 -2.9740992541e+00 1.7170970050e+00 2.9740992541e+00 
48600 6.5520766391e+00 1.3809889537e-04 1.7170928067e+00 -2.9740919825e+00 1.7170928067e+00 2.9740919825e+00 
48700 6.5520766507e+00 1.3185305424e-04 1.7170887854e+00 -2.9740850174e+00 1.7170887854e+00 2.9740850174e+00 
48800 6.5520766628e+00 1.2545690459e-04 1.7170849459e+00 -2.9740783673e+00 1.7170849459e+00 2.9740783673e+00 
48900 6.5520766752e+00 1.1892718114e-04 1.7170812927e+00 -2.9740720397e+00 1.7170812927e+00 2.9740720397e+00 
49000 6.5520766880e+00 1.1228043745e-04 1.7170778297e+00 -2.9740660415e+00 1.7170778297e+00 2.9740660415e+00 
49100 6.5520767010e+00 1.0553301991e-04 1.7170745602e+00 -2.9740603786e+00 1.7170745602e+00 2.9740603786e+00 
49200 6.5520767144e+00 9.8701042803e-05 1.7170714871e+00 -2.9740550559e+00 1.7170714871e+00 2.9740550559e+00 
49300 6.5520767280e+00 9.1800364329e-05 1.7170686130e+00 -2.9740500778e+00 1.7170686130e+00 2.9740500778e+00 
49400 6.5520767418e+00 8.4846563792e-05 1.7170659398e+00 -2.9740454477e+00 1.7170659398e+00 2.9740454477e+00 
49500 6.5520767557e+00 7.7854919799e-05 1.7170634691e+00 -2.9740411684e+00 1.7170634691e+00 2.9740411684e+00 
49600 6.5520767698e+00 7.0840389567e-05 1.7170612021e+00 -2.9740372417e+00 1.7170612021e+00 2.9740372417e+00 
49700 6.5520767839e+00 6.3817589322e-05 1.7170591392e+00 -2.9740336687e+00 1.7170591392e+00 2.9740336687e+00 
49800 6.5520767982e+00 5.8848926501e-05 1.7170591392e+00 -2.9740336687e+00 1.7170591392e+00 2.9740336687e+00 
49900 6.5520768124e+00 5.3685221723e-05 1.7170591392e+00 -2.9740336687e+00 1.7170591392e+00 2.9740336687e+00 
50000 6.5520768265e+00 4.8340276100e-05 1.7170591392e+00 -2.9740336687e+00 1.7170591392e+00 2.9740336687e+00 
50100 6.5520768405e+00 4.2827792378e-05 1.7170591392e+00 -2.9740336687e+00 1.7170591392e+00 2.9740336687e+00 
50200 6.5520768544e+00 3.7161354127e-05 1.7170591392e+00 -2.9740336687e+00 1.7170591392e+00 2.9740336687e+00 
50300 6.5520768680e+00 3.1354405790e-05 1.7170591392e+00 -2.9740336687e+00 1.7170591392e+00 2.9740336687e+00 
50400 6.5520768815e+00 2.5420233608e-05 1.7170591392e+00 -2.9740336687e+00 1.7170591392e+00 2.9740336687e+00 
50500 6.5520768947e+00 1.9371947436e-05 1.7170591392e+00 -2.9740336687e+00 1.7170591392e+00 2.9740336687e+00 
50600 6.5520769077e+00 1.3222463440e-05 1.7170591392e+00 -2.9740336687e+00 1.7170591392e+00 2.9740336687e+00 
50700 6.5520769204e+00 6.9844876929e-06 1.7170591392e+00 -2.9740336687e+00 1.7170591392e+00 2.9740336687e+00 
50800 6.5520769328e+00 6.7050063277e-07 1.7170591392e+00 -2.9740336687e+00 1.7170591392e+00 2.9740336687e+00 
50900 6.5520769449e+00 -5.7072575647e-06 1.7170591392e+00 -2.9740336687e+00 1.7170591392e+00 2.9740336687e+00 
51000 6.5520769567e+00 -1.2136800749e-05 1.7170591392e+00 -2.9740336687e+00 1.7170591392e+00 2.9740336687e+00 
51100 6.5520769681e+00 -1.8606409675e-05 1.7170591392e+00 -2.9740336687e+00 1.7170591392e+00 2.9740336687e+00 
51200 6.5520769792e+00 -2.5104644007e-05 1.7170591392e+00 -2.9740336687e+00 1.7170591392e+00 2.9740336687e+00 
51300 6.5520769900e+00 -3.1620353460e-05 1.7170591392e+00 -2.9740336687e+00 1.7170591392e+00 2.9740336687e+00 
51400 6.5520770004e+00 -3.8142688088e-05 1.7170591392e+00 -2.9740336687e+00 1.7170591392e+00 2.9740336687e+00 
51500 6.5520770104e+00 -4.4661107719e-05 1.7170591392e+00 -2.9740336687e+00 1.7170591392e+00 2.9740336687e+00 
51600 6.5520770201e+00 -5.1165390559e-05 1.7170591392e+00 -2.9740336687e+00 1.7170591392e+00 2.9740336687e+00 
51700 6.5520770294e+00 -5.7645640960e-05 1.7170591392e+00 -2.9740336687e+00 1.7170591392e+00 2.9740336687e+00 
51800 6.5520770384e+00 -6.4092296404e-05 1.7170591392e+00 -2.9740336687e+00 1.7170591392e+00 2.9740336687e+00 
51900 6.5520770470e+00 -7.0496133645e-05 1.7170591392e+00 -2.9740336687e+00 1.7170591392e+00 2.9740336687e+00 
52000 6.5520770552e+00 -7.6848274115e-05 1.7170591392e+00 -2.9740336687e+00 1.7170591392e+00 2.9740336687e+00 
52100 6.5520770629e+00 -8.0674214802e-05 1.7170613770e+00 -2.9740375447e+00 1.7170613770e+00 2.9740375447e+00 
52200 6.5520770702e+00 -8.4296619299e-05 1.7170637262e+00 -2.9740416136e+00 1.7170637262e+00 2.9740416136e+00 
52300 6.5520770771e+00 -8.7712610783e-05 1.7170661809e+00 -2.9740458652e+00 1.7170661809e+00 2.9740458652e+00 
52400 6.5520770837e+00 -9.0919793047e-05 1.7170687350e+00 -2.9740502891e+00 1.7170687350e+00 2.9740502891e+00 
52500 6.5520770899e+00 -9.3916242433e-05 1.7170713825e+00 -2.9740548748e+00 1.7170713825e+00 2.9740548748e+00 
52600 6.5520770957e+00 -9.6700499129e-05 1.7170741173e+00 -2.9740596116e+00 1.7170741173e+00 2.9740596116e+00 
52700 6.5520771013e+00 -9.9271557821e-05 1.7170769332e+00 -2.9740644888e+00 1.7170769332e+00 2.9740644888e+00 
52800 6.5520771065e+00 -1.0162885777e-04 1.7170798239e+00 -2.9740694956e+00 1.7170798239e+00 2.9740694956e+00 
52900 6.5520771114e+00 -1.0377227235e-04 1.7170827832e+00 -2.9740746214e+00 1.7170827832e+00 2.9740746214e+00 
53000 6.5520771160e+00 -1.0570209800e-04 1.7170858050e+00 -2.9740798552e+00 1.7170858050e+00 2.9740798552e+00 
53100 6.5520771204e+00 -1.0741904277e-04 1.7170888830e+00 -2.9740851864e+00 1.7170888830e+00 2.9740851864e+00 
53200 6.5520771245e+00 -1.0892421431e-04 1.7170920109e+00 -2.9740906041e+00 1.7170920109e+00 2.9740906041e+00 
53300 6.5520771284e+00 -1.1021910752e-04 1.7170951827e+00 -2.9740960978e+00 1.7170951827e+00 2.9740960978e+00 
53400 6.5520771321e+00 -1.1130559174e-04 1.7170983921e+00 -2.9741016568e+00 1.7170983921e+00 2.9741016568e+00 
53500 6.5520771356e+00 -1.1218589759e-04 1.7171016332e+00 -2.9741072705e+00 1.7171016332e+00 2.9741072705e+00 
53600 6.5520771390e+00 -1.1286260355e-04 1.7171048999e+00 -2.9741129286e+00 1.7171048999e+00 2.9741129286e+00 
53700 6.5520771422e+00 -1.1333862208e-04 1.7171081864e+00 -2.9741186209e+00 1.7171081864e+00 2.9741186209e+00 
53800 6.5520771452e+00 -1.1361718569e-04 1.7171114866e+00 -2.9741243371e+00 1.7171114866e+00 2.9741243371e+00 
53900 6.5520771481e+00 -1.1370183259e-04 1.7171147950e+00 -2.9741300674e+00 1.7171147950e+00 2.9741300674e+00 
54000 6.5520771510e+00 -1.1359639219e-04 1.7171181059e+00 -2.9741358020e+00 1.7171181059e+00 2.9741358020e+00 
54100 6.5520771537e+00 -1.1330497055e-04 1.7171214136e+00 -2.9741415312e+00 1.7171214136e+00 2.9741415312e+00 
54200 6.5520771564e+00 -1.1283193545e-04 1.7171247129e+00 -2.9741472457e+00 1.7171247129e+00 2.9741472457e+00 
54300 6.5520771590e+00 -1.1218190162e-04 1.7171279984e+00 -2.9741529363e+00 1.7171279984e+00 2.9741529363e+00 
54400 6.5520771616e+00 -1.1135971563e-04 1.7171312650e+00 -2.9741585942e+00 1.7171312650e+00 2.9741585942e+00 
54500 6.5520771642e+00 -1.1037044097e-04 1.7171345076e+00 -2.9741642105e+00 1.7171345076e+00 2.9741642105e+00 
54600 6.5520771667e+00 -1.0921934289e-04 1.7171377214e+00 -2.9741697770e+00 1.7171377214e+00 2.9741697770e+00 
54700 6.5520771692e+00 -1.0791187341e-04 1.7171409016e+00 -2.9741752854e+00 1.7171409016e+00 2.9741752854e+00 
54800 6.5520771718e+00 -1.0645365627e-04 1.7171440438e+00 -2.9741807278e+00 1.7171440438e+00 2.9741807278e+00 
54900 6.5520771743e+00 -1.0485047195e-04 1.7171471436e+00 -2.9741860967e+00 1.7171471436e+00 2.9741860967e+00 
55000 6.5520771769e+00 -1.0310824284e-04 1.7171501966e+00 -2.9741913848e+00 1.7171501966e+00 2.9741913848e+00 
55100 6.5520771795e+00 -1.0123301840e-04 1.7171531989e+00 -2.9741965849e+00 1.7171531989e+00 2.9741965849e+00 
55200 6.5520771821e+00 -9.9230960566e-05 1.7171561466e+00 -2.9742016905e+00 1.7171561466e+00 2.9742016905e+00 
55300 6.5520771848e+00 -9.7108329275e-05 1.7171590360e+00 -2.9742066951e+00 1.7171590360e+00 2.9742066951e+00 
55400 6.5520771875e+00 -9.4871468137e-05 1.7171618636e+00 -2.9742115926e+00 1.7171618636e+00 2.9742115926e+00 
55500 6.5520771903e+00 -9.2526790337e-05 1.7171646261e+00 -2.9742163773e+00 1.7171646261e+00 2.9742163773e+00 
55600 6.5520771931e+00 -9.0080764777e-05 1.7171673202e+00 -2.9742210437e+00 1.7171673202e+00 2.9742210437e+00 
55700 6.5520771960e+00 -8.7539902425e-05 1.7171699432e+00 -2.9742255868e+00 1.7171699432e+00 2.9742255868e+00 
55800 6.5520771989e+00 -8.4910742946e-05 1.7171724921e+00 -2.9742300017e+00 1.7171724921e+00 2.9742300017e+00 
55900 6.5520772019e+00 -8.2199841605e-05 1.7171749645e+00 -2.9742342841e+00 1.7171749645e+00 2.9742342841e+00 
56000 6.5520772049e+00 -7.9413756469e-05 1.7171773580e+00 -2.9742384297e+00 1.7171773580e+00 2.9742384297e+00 
56100 6.5520772080e+00 -7.6559035931e-05 1.7171796703e+00 -2.9742424347e+00 1.7171796703e+00 2.9742424347e+00 
56200 6.5520772111e+00 -7.3642206527e-05 1.7171818995e+00 -2.9742462958e+00 1.7171818995e+00 2.9742462958e+00 
56300 6.5520772142e+00 -7.0669761161e-05 1.7171840438e+00 -2.9742500098e+00 1.7171840438e+00 2.9742500098e+00 
56400 6.5520772176e+00 -6.9915044584e-05 1.7171840438e+00 -2.9742500098e+00 1.7171840438e+00 2.9742500098e+00 
56500 6.5520772209e+00 -6.9032033172e-05 1.7171840438e+00 -2.9742500098e+00 1.7171840438e+00 2.9742500098e+00 
56600 6.5520772243e+00 -6.8026088649e-05 1.7171840438e+00 -2.9742500098e+00 1.7171840438e+00 2.9742500098e+00 
56700 6.5520772277e+00 -6.6902611143e-05 1.7171840438e+00 -2.9742500098e+00 1.7171840438e+00 2.9742500098e+00 
56800 6.5520772311e+00 -6.5667028725e-05 1.7171840438e+00 -2.9742500098e+00 1.7171840438e+00 2.9742500098e+00 
56900 6.5520772344e+00 -6.4324787252e-05 1.7171840438e+00 -2.9742500098e+00 1.7171840438e+00 2.9742500098e+00 
57000 6.5520772378e+00 -6.2881340484e-05 1.7171840438e+00 -2.9742500098e+00 1.7171840438e+00 2.9742500098e+00 
57100 6.5520772411e+00 -6.1342140505e-05 1.7171840438e+00 -2.9742500098e+00 1.7171840438e+00 2.9742500098e+00 
57200 6.5520772444e+00 -5.9712628465e-05 1.7171840438e+00 -2.9742500098e+00 1.7171840438e+00 2.9742500098e+00 
57300 6.5520772477e+00 -5.7998225608e-05 1.7171840438e+00 -2.9742500098e+00 1.7171840438e+00 2.9742500098e+00 
57400 6.5520772509e+00 -5.6204324643e-05 1.7171840438e+00 -2.9742500098e+00 1.7171840438e+00 2.9742500098e+00 
57500 6.5520772541e+00 -5.4336281423e-05 1.7171840438e+00 -2.9742500098e+00 1.7171840438e+00 2.9742500098e+00 
57600 6.5520772573e+00 -5.2399406953e-05 1.7171840438e+00 -2.9742500098e+00 1.7171840438e+00 2.9742500098e+00 
57700 6.5520772604e+00 -5.0398959733e-05 1.7171840438e+00 -2.9742500098e+00 1.7171840438e+00 2.9742500098e+00 
57800 6.5520772635e+00 -4.8340138436e-05 1.7171840438e+00 -2.9742500098e+00 1.7171840438e+00 2.9742500098e+00 
57900 6.5520772665e+00 -4.6228074904e-05 1.7171840438e+00 -2.9742500098e+00 1.7171840438e+00 2.9742500098e+00 
58000 6.5520772694e+00 -4.4067827503e-05 1.7171840438e+00 -2.9742500098e+00 1.7171840438e+00 2.9742500098e+00 
58100 6.5520772723e+00 -4.1864374801e-05 1.7171840438e+00 -2.9742500098e+00 1.7171840438e+00 2.9742500098e+00 
58200 6.5520772752e+00 -3.9622609585e-05 1.7171840438e+00 -2.9742500098e+00 1.7171840438e+00 2.9742500098e+00 
58300 6.5520772779e+00 -3.7347333223e-05 1.7171840438e+00 -2.9742500098e+00 1.7171840438e+00 2.9742500098e+00 
58400 6.5520772806e+00 -3.5043250349e-05 1.7171840438e+00 -2.9742500098e+00 1.7171840438e+00 2.9742500098e+00 
58500 6.5520772833e+00 -3.2714963888e-05 1.7171840438e+00 -2.9742500098e+00 1.7171840438e+00 2.9742500098e+00 
58600 6.5520772859e+00 -3.0366970421e-05 1.7171840438e+00 -2.9742500098e+00 1.7171840438e+00 2.9742500098e+00 
58700 6.5520772884e+00 -2.8003655872e-05 1.7171840438e+00 -2.9742500098e+00 1.7171840438e+00 2.9742500098e+00 
58800 6.5520772908e+00 -2.5629291518e-05 1.7171840438e+00 -2.9742500098e+00 1.7171840438e+00 2.9742500098e+00 
58900 6.5520772932e+00 -2.3248030332e-05 1.7171840438e+00 -2.9742500098e+00 1.7171840438e+00 2.9742500098e+00 
59000 6.5520772955e+00 -2.0863903639e-05 1.7171840438e+00 -2.9742500098e+00 1.7171840438e+00 2.9742500098e+00 
59100 6.5520772977e+00 -1.8480818086e-05 1.7171840438e+00 -2.9742500098e+00 1.7171840438e+00 2.9742500098e+00 
59200 6.5520772999e+00 -1.6102552930e-05 1.7171840438e+00 -2.9742500098e+00 1.7171840438e+00 2.9742500098e+00 
59300 6.5520773020e+00 -1.3732757618e-05 1.7171840438e+00 -2.9742500098e+00 1.7171840438e+00 2.9742500098e+00 
59400 6.5520773040e+00 -1.1374949682e-05 1.7171840438e+00 -2.9742500098e+00 1.7171840438e+00 2.9742500098e+00 
59500 6.5520773060e+00 -9.0325129119e-06 1.7171840438e+00 -2.9742500098e+00 1.7171840438e+00 2.9742500098e+00 
59600 6.5520773079e+00 -6.7086958297e-06 1.7171840438e+00 -2.9742500098e+00 1.7171840438e+00 2.9742500098e+00 
59700 6.5520773097e+00 -4.4066104388e-06 1.7171840438e+00 -2.9742500098e+00 1.7171840438e+00 2.9742500098e+00 
59800 6.5520773115e+00 -2.1292312379e-06 1.7171840438e+00 -2.9742500098e+00 1.7171840438e+00 2.9742500098e+00 
59900 6.5520773132e+00 1.2060547693e-07 1.7171840438e+00 -2.9742500098e+00 1.7171840438e+00 2.9742500098e+00 
60000 6.5520773149e+00 2.3402020703e-06 1.7171840438e+00 -2.9742500098e+00 1.7171840438e+00 2.9742500098e+00 
60100 6.5520773165e+00 4.5269997595e-06 1.7171840438e+00 -2.9742500098e+00 1.7171840438e+00 2.9742500098e+00 
60200 6.5520773181e+00 6.6785785744e-06 1.7171840438e+00 -2.9742500098e+00 1.7171840438e+00 2.9742500098e+00 
60300 6.5520773196e+00 8.7926570628e-06 1.7171840438e+00 -2.9742500098e+00 1.7171840438e+00 2.9742500098e+00 
60400 6.5520773210e+00 1.0867091784e-05 1.7171840438e+00 -2.9742500098e+00 1.7171840438e+00 2.9742500098e+00 
60500 6.5520773225e+00 1.2899876573e-05 1.7171840438e+00 -2.9742500098e+00 1.7171840438e+00 2.9742500098e+00 
60600 6.5520773238e+00 1.4889141602e-05 1.7171840438e+00 -2.9742500098e+00 1.7171840438e+00 2.9742500098e+00 
60700 6.5520773252e+00 1.6833152210e-05 1.7171840438e+00 -2.9742500098e+00 1.7171840438e+00 2.9742500098e+00 
60800 6.5520773264e+00 1.8730307576e-05 1.7171840438e+00 -2.9742500098e+00 1.7171840438e+00 2.9742500098e+00 
60900 6.5520773277e+00 2.0579139178e-05 1.7171840438e+00 -2.9742500098e+00 1.7171840438e+00 2.9742500098e+00 
61000 6.5520773289e+00 2.2378309077e-05 1.7171840438e+00 -2.9742500098e+00 1.7171840438e+00 2.9742500098e+00 
61100 6.5520773301e+00 2.4126608041e-05 1.7171840438e+00 -2.9742500098e+00 1.7171840438e+00 2.9742500098e+00 
61200 6.5520773312e+00 2.5822953500e-05 1.7171840438e+00 -2.9742500098e+00 1.7171840438e+00 2.9742500098e+00 
61300 6.5520773324e+00 2.7466387345e-05 1.7171840438e+00 -2.9742500098e+00 1.7171840438e+00 2.9742500098e+00 
61400 6.5520773334e+00 2.9056073596e-05 1.7171840438e+00 -2.9742500098e+00 1.7171840438e+00 2.9742500098e+00 
61500 6.5520773345e+00 3.0591295919e-05 1.7171840438e+00 -2.9742500098e+00 1.7171840438e+00 2.9742500098e+00 
61600 6.5520773356e+00 3.2071455032e-05 1.7171840438e+00 -2.9742500098e+00 1.7171840438e+00 2.9742500098e+00 
61700 6.5520773366e+00 3.3496065970e-05 1.7171840438e+00 -2.9742500098e+00 1.7171840438e+00 2.9742500098e+00 
61800 6.5520773376e+00 3.4864755272e-05 1.7171840438e+00 -2.9742500098e+00 1.7171840438e+00 2.9742500098e+00 
61900 6.5520773386e+00 3.6177258032e-05 1.7171840438e+00 -2.9742500098e+00 1.7171840438e+00 2.9742500098e+00 
62000 6.5520773395e+00 3.7433414881e-05 1.7171840438e+00 -2.9742500098e+00 1.7171840438e+00 2.9742500098e+00 
62100 6.5520773405e+00 3.8633168876e-05 1.7171840438e+00 -2.9742500098e+00 1.7171840438e+00 2.9742500098e+00 
62200 6.5520773414e+00 3.9776562311e-05 1.7171840438e+00 -2.9742500098e+00 1.7171840438e+00 2.9742500098e+00 
62300 6.5520773423e+00 4.0863733458e-05 1.7171840438e+00 -2.9742500098e+00 1.7171840438e+00 2.9742500098e+00 
62400 6.5520773432e+00 4.1894913250e-05 1.7171840438e+00 -2.9742500098e+00 1.7171840438e+00 2.9742500098e+00 
62500 6.5520773441e+00 4.2870421909e-05 1.7171840438e+00 -2.9742500098e+00 1.7171840438e+00 2.9742500098e+00 
62600 6.5520773450e+00 4.3790665522e-05 1.7171840438e+00 -2.9742500098e+00 1.7171840438e+00 2.9742500098e+00 
62700 6.5520773459e+00 4.4656132593e-05 1.7171840438e+00 -2.9742500098e+00 1.7171840438e+00 2.9742500098e+00 
62800 6.5520773467e+00 4.5467390548e-05 1.7171840438e+00 -2.9742500098e+00 1.7171840438e+00 2.9742500098e+00 
62900 6.5520773476e+00 4.6225082219e-05 1.7171840438e+00 -2.9742500098e+00 1.7171840438e+00 2.9742500098e+00 
63000 6.5520773484e+00 4.6929922319e-05 1.7171840438e+00 -2.9742500098e+00 1.7171840438e+00 2.9742500098e+00 
63100 6.5520773493e+00 4.7582693890e-05 1.7171840438e+00 -2.9742500098e+00 1.7171840438e+00 2.9742500098e+00 
63200 6.5520773501e+00 4.8184244766e-05 1.7171840438e+00 -2.9742500098e+00 1.7171840438e+00 2.9742500098e+00 
63300 6.5520773509e+00 4.8735484022e-05 1.7171840438e+00 -2.9742500098e+00 1.7171840438e+00 2.9742500098e+00 
63400 6.5520773518e+00 4.9237378430e-05 1.7171840438e+00 -2.9742500098e+00 1.7171840438e+00 2.9742500098e+00 
63500 6.5520773526e+00 4.9690948945e-05 1.7171840438e+00 -2.9742500098e+00 1.7171840438e+00 2.9742500098e+00 
63600 6.5520773534e+00 5.0097267195e-05 1.7171840438e+00 -2.9742500098e+00 1.7171840438e+00 2.9742500098e+00 
63700 6.5520773542e+00 5.0457451996e-05 1.7171840438e+00 -2.9742500098e+00 1.7171840438e+00 2.9742500098e+00 
63800 6.5520773550e+00 5.0772665900e-05 1.7171840438e+00 -2.9742500098e+00 1.7171840438e+00 2.9742500098e+00 
63900 6.5520773557e+00 5.1044111785e-05 1.7171840438e+00 -2.9742500098e+00 1.7171840438e+00 2.9742500098e+00 
64000 6.5520773565e+00 5.1273029471e-05 1.7171840438e+00 -2.9742500098e+00 1.7171840438e+00 2.9742500098e+00 
64100 6.5520773573e+00 5.1460692394e-05 1.7171840438e+00 -2.9742500098e+00 1.7171840438e+00 2.9742500098e+00 
64200 6.5520773581e+00 5.1608404311e-05 1.7171840438e+00 -2.9742500098e+00 1.7171840438e+00 2.9742500098e+00 
64300 6.5520773588e+00 5.1717496074e-05 1.7171840438e+00 -2.9742500098e+00 1.7171840438e+00 2.9742500098e+00 
64400 6.5520773596e+00 5.1789322456e-05 1.7171840438e+00 -2.9742500098e+00 1.7171840438e+00 2.9742500098e+00 
64500 6.5520773603e+00 5.1825259030e-05 1.7171840438e+00 -2.9742500098e+00 1.7171840438e+00 2.9742500098e+00 
64600 6.5520773610e+00 5.1826699118e-05 1.7171840438e+00 -2.9742500098e+00 1.7171840438e+00 2.9742500098e+00 
64700 6.5520773618e+00 5.1795050810e-05 1.7171840438e+00 -2.9742500098e+00 1.7171840438e+00 2.9742500098e+00 
64800 6.5520773625e+00 5.1731734039e-05 1.7171840438e+00 -2.9742500098e+00 1.7171840438e+00 2.9742500098e+00 
64900 6.5520773632e+00 5.1638177748e-05 1.7171840438e+00 -2.9742500098e+00 1.7171840438e+00 2.9742500098e+00 
65000 6.5520773639e+00 5.1515817115e-05 1.7171840438e+00 -2.9742500098e+00 1.7171840438e+00 2.9742500098e+00 
65100 6.5520773646e+00 5.1366090867e-05 1.7171840438e+00 -2.9742500098e+00 1.7171840438e+00 2.9742500098e+00 
65200 6.5520773653e+00 5.1190438665e-05 1.7171840438e+00 -2.9742500098e+00 1.7171840438e+00 2.9742500098e+00 
65300 6.5520773659e+00 5.0990298579e-05 1.7171840438e+00 -2.9742500098e+00 1.7171840438e+00 2.9742500098e+00 
65400 6.5520773666e+00 5.0767104644e-05 1.7171840438e+00 -2.9742500098e+00 1.7171840438e+00 2.9742500098e+00 
65500 6.5520773672e+00 5.0522284493e-05 1.7171840438e+00 -2.9742500098e+00 1.7171840438e+00 2.9742500098e+00 
65600 6.5520773679e+00 5.0257257085e-05 1.7171840438e+00 -2.9742500098e+00 1.7171840438e+00 2.9742500098e+00 
65700 6.5520773685e+00 4.9973430524e-05 1.7171840438e+00 -2.9742500098e+00 1.7171840438e+00 2.9742500098e+00 
65800 6.5520773691e+00 4.9672199956e-05 1.7171840438e+00 -2.9742500098e+00 1.7171840438e+00 2.9742500098e+00 
65900 6.5520773698e+00 4.9354945561e-05 1.7171840438e+00 -2.9742500098e+00 1.7171840438e+00 2.9742500098e+00 
66000 6.5520773704e+00 4.9023030634e-05 1.7171840438e+00 -2.9742500098e+00 1.7171840438e+00 2.9742500098e+00 
66100 6.5520773709e+00 4.8677799757e-05 1.7171840438e+00 -2.9742500098e+00 1.7171840438e+00 2.9742500098e+00 
66200 6.5520773715e+00 4.8320577065e-05 1.7171840438e+00 -2.9742500098e+00 1.7171840438e+00 2.9742500098e+00 
66300 6.5520773721e+00 4.7952664592e-05 1.7171840438e+00 -2.9742500098e+00 1.7171840438e+00 2.9742500098e+00 
66400 6.5520773727e+00 4.7575340722e-05 1.7171840438e+00 -2.9742500098e+00 1.7171840438e+00 2.9742500098e+00 
66500 6.5520773732e+00 4.7189858716e-05 1.7171840438e+00 -2.9742500098e+00 1.7171840438e+00 2.9742500098e+00 
66600 6.5520773737e+00 4.6797445343e-05 1.7171840438e+00 -2.9742500098e+00 1.7171840438e+00 2.9742500098e+00 
66700 6.5520773743e+00 4.6399299593e-05 1.7171840438e+00 -2.9742500098e+00 1.7171840438e+00 2.9742500098e+00 
66800 6.5520773748e+00 4.5996591475e-05 1.7171840438e+00 -2.9742500098e+00 1.7171840438e+00 2.9742500098e+00 
66900 6.5520773753e+00 4.5590460918e-05 1.7171840438e+00 -2.9742500098e+00 1.7171840438e+00 2.9742500098e+00 
67000 6.5520773758e+00 4.5182016743e-05 1.7171840438e+00 -2.9742500098e+00 1.7171840438e+00 2.9742500098e+00 
67100 6.5520773763e+00 4.4772335724e-05 1.7171840438e+00 -2.9742500098e+00 1.7171840438e+00 2.9742500098e+00 
67200 6.5520773767e+00 4.4362461750e-05 1.7171840438e+00 -2.9742500098e+00 1.7171840438e+00 2.9742500098e+00 
67300 6.5520773772e+00 4.3953405054e-05 1.7171840438e+00 -2.9742500098e+00 1.7171840438e+00 2.9742500098e+00 
67400 6.5520773776e+00 4.3546141527e-05 1.7171840438e+00 -2.9742500098e+00 1.7171840438e+00 2.9742500098e+00 
67500 6.5520773781e+00 4.3141612119e-05 1.7171840438e+00 -2.9742500098e+00 1.7171840438e+00 2.9742500098e+00 
67600 6.5520773785e+00 4.2740722316e-05 1.7171840438e+00 -2.9742500098e+00 1.7171840438e+00 2.9742500098e+00 
67700 6.5520773789e+00 4.2344341697e-05 1.7171840438e+00 -2.9742500098e+00 1.7171840438e+00 2.9742500098e+00 
67800 6.5520773793e+00 4.1953303568e-05 1.7171840438e+00 -2.9742500098e+00 1.7171840438e+00 2.9742500098e+00 
67900 6.5520773798e+00 4.1568404659e-05 1.7171840438e+00 -2.9742500098e+00 1.7171840438e+00 2.9742500098e+00 
68000 6.5520773801e+00 4.1190404918e-05 1.7171840438e+00 -2.9742500098e+00 1.7171840438e+00 2.9742500098e+00 
68100 6.5520773805e+00 4.0820027347e-05 1.7171840438e+00 -2.9742500098e+00 1.7171840438e+00 2.9742500098e+00 
68200 6.5520773809e+00 4.0457957929e-05 1.7171840438e+00 -2.9742500098e+00 1.7171840438e+00 2.9742500098e+00 
68300 6.5520773813e+00 4.0104845608e-05 1.7171840438e+00 -2.9742500098e+00 1.7171840438e+00 2.9742500098e+00 
68400 6.5520773816e+00 3.9761302343e-05 1.7171840438e+00 -2.9742500098e+00 1.7171840438e+00 2.9742500098e+00 
68500 6.5520773820e+00 3.9427903217e-05 1.7171840438e+00 -2.9742500098e+00 1.7171840438e+00 2.9742500098e+00 
68600 6.5520773823e+00 3.9105186611e-05 1.7171840438e+00 -2.9742500098e+00 1.7171840438e+00 2.9742500098e+00 
68700 6.5520773827e+00 3.8793654434e-05 1.7171840438e+00 -2.9742500098e+00 1.7171840438e+00 2.9742500098e+00 
68800 6.5520773830e+00 3.8493772409e-05 1.7171840438e+00 -2.9742500098e+00 1.7171840438e+00 2.9742500098e+00 
68900 6.5520773833e+00 3.8205970410e-05 1.7171840438e+00 -2.9742500098e+00 1.7171840438e+00 2.9742500098e+00 
69000 6.5520773837e+00 3.7930642856e-05 1.7171840438e+00 -2.9742500098e+00 1.7171840438e+00 2.9742500098e+00 
69100 6.5520773840e+00 3.7668149155e-05 1.7171840438e+00 -2.9742500098e+00 1.7171840438e+00 2.9742500098e+00 
69200 6.5520773843e+00 3.7418814177e-05 1.7171840438e+00 -2.9742500098e+00 1.7171840438e+00 2.9742500098e+00 
69300 6.5520773846e+00 3.7182928797e-05 1.7171840438e+00 -2.9742500098e+00 1.7171840438e+00 2.9742500098e+00 
69400 6.5520773849e+00 3.6960750464e-05 1.7171840438e+00 -2.9742500098e+00 1.7171840438e+00 2.9742500098e+00 
69500 6.5520773851e+00 3.6752503810e-05 1.7171840438e+00 -2.9742500098e+00 1.7171840438e+00 2.9742500098e+00 
69600 6.5520773854e+00 3.6558381304e-05 1.7171840438e+00 -2.9742500098e+00 1.7171840438e+00 2.9742500098e+00 
69700 6.5520773857e+00 3.6378543934e-05 1.7171840438e+00 -2.9742500098e+00 1.7171840438e+00 2.9742500098e+00 
69800 6.5520773860e+00 3.6213121923e-05 1.7171840438e+00 -2.9742500098e+00 1.7171840438e+00 2.9742500098e+00 
69900 6.5520773862e+00 3.6062215478e-05 1.7171840438e+00 -2.9742500098e+00 1.7171840438e+00 2.9742500098e+00 
70000 6.5520773865e+00 3.5925895568e-05 1.7171840438e+00 -2.9742500098e+00 1.7171840438e+00 2.9742500098e+00 
70100 6.5520773868e+00 3.5804204721e-05 1.7171840438e+00 -2.9742500098e+00 1.7171840438e+00 2.9742500098e+00 
70200 6.5520773870e+00 3.5697157853e-05 1.7171840438e+00 -2.9742500098e+00 1.7171840438e+00 2.9742500098e+00 
70300 6.5520773873e+00 3.5604743115e-05 1.7171840438e+00 -2.9742500098e+00 1.7171840438e+00 2.9742500098e+00 
70400 6.5520773875e+00 3.5526922755e-05 1.7171840438e+00 -2.9742500098e+00 1.7171840438e+00 2.9742500098e+00 
70500 6.5520773878e+00 3.5463634006e-05 1.7171840438e+00 -2.9742500098e+00 1.7171840438e+00 2.9742500098e+00 
70600 6.5520773880e+00 3.5414789984e-05 1.7171840438e+00 -2.9742500098e+00 1.7171840438e+00 2.9742500098e+00 
70700 6.5520773882e+00 3.5380280598e-05 1.7171840438e+00 -2.9742500098e+00 1.7171840438e+00 2.9742500098e+00 
70800 6.5520773885e+00 3.5359973476e-05 1.7171840438e+00 -2.9742500098e+00 1.7171840438e+00 2.9742500098e+00 
70900 6.5520773887e+00 3.5353714895e-05 1.7171840438e+00 -2.9742500098e+00 1.7171840438e+00 2.9742500098e+00 
71000 6.5520773889e+00 3.5361330724e-05 1.7171840438e+00 -2.9742500098e+00 1.7171840438e+00 2.9742500098e+00 
71100 6.5520773891e+00 3.5382627363e-05 1.7171840438e+00 -2.9742500098e+00 1.7171840438e+00 2.9742500098e+00 
71200 6.5520773893e+00 3.5417392695e-05 1.7171840438e+00 -2.9742500098e+00 1.7171840438e+00 2.9742500098e+00 
71300 6.5520773896e+00 3.5465397044e-05 1.7171840438e+00 -2.9742500098e+00 1.7171840438e+00 2.9742500098e+00 
71400 6.5520773898e+00 3.5526394113e-05 1.7171840438e+00 -2.9742500098e+00 1.7171840438e+00 2.9742500098e+00 
71500 6.5520773900e+00 3.5600121942e-05 1.7171840438e+00 -2.9742500098e+00 1.7171840438e+00 2.9742500098e+00 
71600 6.5520773902e+00 3.5686303851e-05 1.7171840438e+00 -2.9742500098e+00 1.7171840438e+00 2.9742500098e+00 
71700 6.5520773904e+00 3.5784649387e-05 1.7171840438e+00 -2.9742500098e+00 1.7171840438e+00 2.9742500098e+00 
71800 6.5520773906e+00 3.5894855251e-05 1.7171840438e+00 -2.9742500098e+00 1.7171840438e+00 2.9742500098e+00 
71900 6.5520773908e+00 3.6016606235e-05 1.7171840438e+00 -2.9742500098e+00 1.7171840438e+00 2.9742500098e+00 
72000 6.5520773910e+00 3.6149576136e-05 1.7171840438e+00 -2.9742500098e+00 1.7171840438e+00 2.9742500098e+00 
72100 6.5520773912e+00 3.6293428667e-05 1.7171840438e+00 -2.9742500098e+00 1.7171840438e+00 2.9742500098e+00 
72200 6.5520773914e+00 3.6447818357e-05 1.7171840438e+00 -2.9742500098e+00 1.7171840438e+00 2.9742500098e+00 
72300 6.5520773915e+00 3.6612391434e-05 1.7171840438e+00 -2.9742500098e+00 1.7171840438e+00 2.9742500098e+00 
72400 6.5520773917e+00 3.6786786695e-05 1.7171840438e+00 -2.9742500098e+00 1.7171840438e+00 2.9742500098e+00 
72500 6.5520773919e+00 3.6970636370e-05 1.7171840438e+00 -2.9742500098e+00 1.7171840438e+00 2.9742500098e+00 
72600 6.5520773921e+00 3.7163566955e-05 1.7171840438e+00 -2.9742500098e+00 1.7171840438e+00 2.9742500098e+00 
72700 6.5520773923e+00 3.7365200037e-05 1.7171840438e+00 -2.9742500098e+00 1.7171840438e+00 2.9742500098e+00 
72800 6.5520773924e+00 3.7575153109e-05 1.7171840438e+00 -2.9742500098e+00 1.7171840438e+00 2.9742500098e+00 
72900 6.5520773926e+00 3.7793040348e-05 1.7171840438e+00 -2.9742500098e+00 1.7171840438e+00 2.9742500098e+00 
73000 6.5520773928e+00 3.8018473391e-05 1.7171840438e+00 -2.9742500098e+00 1.7171840438e+00 2.9742500098e+00 
73100 6.5520773929e+00 3.8251062083e-05 1.7171840438e+00 -2.9742500098e+00 1.7171840438e+00 2.9742500098e+00 
73200 6.5520773931e+00 3.8490415200e-05 1.7171840438e+00 -2.9742500098e+00 1.7171840438e+00 2.9742500098e+00 
73300 6.5520773933e+00 3.8736141163e-05 1.7171840438e+00 -2.9742500098e+00 1.7171840438e+00 2.9742500098e+00 
73400 6.5520773934e+00 3.8987848720e-05 1.7171840438e+00 -2.9742500098e+00 1.7171840438e+00 2.9742500098e+00 
73500 6.5520773936e+00 3.9245147611e-05 1.7171840438e+00 -2.9742500098e+00 1.7171840438e+00 2.9742500098e+00 
73600 6.5520773937e+00 3.9507649207e-05 1.7171840438e+00 -2.9742500098e+00 1.7171840438e+00 2.9742500098e+00 
73700 6.5520773939e+00 3.9774967126e-05 1.7171840438e+00 -2.9742500098e+00 1.7171840438e+00 2.9742500098e+00 
73800 6.5520773940e+00 4.0046717831e-05 1.7171840438e+00 -2.9742500098e+00 1.7171840438e+00 2.9742500098e+00 
73900 6.5520773942e+00 4.0322521197e-05 1.7171840438e+00 -2.9742500098e+00 1.7171840438e+00 2.9742500098e+00 
74000 6.5520773943e+00 4.0602001062e-05 1.7171840438e+00 -2.9742500098e+00 1.7171840438e+00 2.9742500098e+00 
74100 6.5520773945e+00 4.0884785742e-05 1.7171840438e+00 -2.9742500098e+00 1.7171840438e+00 2.9742500098e+00 
74200 6.5520773946e+00 4.1170508532e-05 1.7171840438e+00 -2.9742500098e+00 1.7171840438e+00 2.9742500098e+00 
74300 6.5520773947e+00 4.1458808185e-05 1.7171840438e+00 -2.9742500098e+00 1.7171840438e+00 2.9742500098e+00 
74400 6.5520773949e+00 4.1749329353e-05 1.7171840438e+00 -2.9742500098e+00 1.7171840438e+00 2.9742500098e+00 
74500 6.5520773950e+00 4.2041723018e-05 1.7171840438e+00 -2.9742500098e+00 1.7171840438e+00 2.9742500098e+00 
74600 6.5520773951e+00 4.2335646892e-05 1.7171840438e+00 -2.9742500098e+00 1.7171840438e+00 2.9742500098e+00 
74700 6.5520773953e+00 4.2630765789e-05 1.7171840438e+00 -2.9742500098e+00 1.7171840438e+00 2.9742500098e+00 
74800 6.5520773954e+00 4.2926751979e-05 1.7171840438e+00 -2.9742500098e+00 1.7171840438e+00 2.9742500098e+00 
74900 6.5520773955e+00 4.3223285523e-05 1.7171840438e+00 -2.9742500098e+00 1.7171840438e+00 2.9742500098e+00 
75000 6.5520773956e+00 4.3520054566e-05 1.7171840438e+00 -2.9742500098e+00 1.7171840438e+00 2.9742500098e+00 
75100 6.5520773958e+00 4.3816755629e-05 1.7171840438e+00 -2.9742500098e+00 1.7171840438e+00 2.9742500098e+00 
75200 6.5520773959e+00 4.4113093856e-05 1.7171840438e+00 -2.9742500098e+00 1.7171840438e+00 2.9742500098e+00 
75300 6.5520773960e+00 4.4408783257e-05 1.7171840438e+00 -2.9742500098e+00 1.7171840438e+00 2.9742500098e+00 
75400 6.5520773961e+00 4.4703546916e-05 1.7171840438e+00 -2.9742500098e+00 1.7171840438e+00 2.9742500098e+00 
75500 6.5520773962e+00 4.4997117182e-05 1.7171840438e+00 -2.9742500098e+00 1.7171840438e+00 2.9742500098e+00 
75600 6.5520773963e+00 4.5289235837e-05 1.7171840438e+00 -2.9742500098e+00 1.7171840438e+00 2.9742500098e+00 
75700 6.5520773964e+00 4.5579654241e-05 1.7171840438e+00 -2.9742500098e+00 1.7171840438e+00 2.9742500098e+00 
75800 6.5520773966e+00 4.5868133458e-05 1.7171840438e+00 -2.9742500098e+00 1.7171840438e+00 2.9742500098e+00 
75900 6.5520773967e+00 4.6154444357e-05 1.7171840438e+00 -2.9742500098e+00 1.7171840438e+00 2.9742500098e+00 
76000 6.5520773968e+00 4.6438367703e-05 1.7171840438e+00 -2.9742500098e+00 1.7171840438e+00 2.9742500098e+00 
76100 6.5520773969e+00 4.6719694213e-05 1.7171840438e+00 -2.9742500098e+00 1.7171840438e+00 2.9742500098e+00 
76200 6.5520773970e+00 4.6998224613e-05 1.7171840438e+00 -2.9742500098e+00 1.7171840438e+00 2.9742500098e+00 
76300 6.5520773971e+00 4.7273769653e-05 1.7171840438e+00 -2.9742500098e+00 1.7171840438e+00 2.9742500098e+00 
76400 6.5520773972e+00 4.7546150123e-05 1.7171840438e+00 -2.9742500098e+00 1.7171840438e+00 2.9742500098e+00 
76500 6.5520773973e+00 4.7815196845e-05 1.7171840438e+00 -2.9742500098e+00 1.7171840438e+00 2.9742500098e+00 
76600 6.5520773973e+00 4.8080750637e-05 1.7171840438e+00 -2.9742500098e+00 1.7171840438e+00 2.9742500098e+00 
76700 6.5520773974e+00 4.8342662284e-05 1.7171840438e+00 -2.9742500098e+00 1.7171840438e+00 2.9742500098e+00 
76800 6.5520773975e+00 4.8600792470e-05 1.7171840438e+00 -2.9742500098e+00 1.7171840438e+00 2.9742500098e+00 
76900 6.5520773976e+00 4.8855011715e-05 1.7171840438e+00 -2.9742500098e+00 1.7171840438e+00 2.9742500098e+00 
77000 6.5520773977e+00 4.9105200274e-05 1.7171840438e+00 -2.9742500098e+00 1.7171840438e+00 2.9742500098e+00 
77100 6.5520773978e+00 4.9351248052e-05 1.7171840438e+00 -2.9742500098e+00 1.7171840438e+00 2.9742500098e+00 
77200 6.5520773979e+00 4.9593054473e-05 1.7171840438e+00 -2.9742500098e+00 1.7171840438e+00 2.9742500098e+00 
77300 6.5520773980e+00 4.9830528362e-05 1.7171840438e+00 -2.9742500098e+00 1.7171840438e+00 2.9742500098e+00 
77400 6.5520773980e+00 5.0063587804e-05 1.7171840438e+00 -2.9742500098e+00 1.7171840438e+00 2.9742500098e+00 
77500 6.5520773981e+00 5.0292159988e-05 1.7171840438e+00 -2.9742500098e+00 1.7171840438e+00 2.9742500098e+00 
77600 6.5520773982e+00 5.0516181049e-05 1.7171840438e+00 -2.9742500098e+00 1.7171840438e+00 2.9742500098e+00 
77700 6.5520773983e+00 5.0735595902e-05 1.7171840438e+00 -2.9742500098e+00 1.7171840438e+00 2.9742500098e+00 
77800 6.5520773983e+00 5.0950358044e-05 1.7171840438e+00 -2.9742500098e+00 1.7171840438e+00 2.9742500098e+00 
77900 6.5520773984e+00 5.1160429376e-05 1.7171840438e+00 -2.9742500098e+00 1.7171840438e+00 2.9742500098e+00 
78000 6.5520773985e+00 5.1365780002e-05 1.7171840438e+00 -2.9742500098e+00 1.7171840438e+00 2.9742500098e+00 
78100 6.5520773986e+00 5.1566388017e-05 1.7171840438e+00 -2.9742500098e+00 1.7171840438e+00 2.9742500098e+00 
78200 6.5520773986e+00 5.1762239300e-05 1.7171840438e+00 -2.9742500098e+00 1.7171840438e+00 2.9742500098e+00 
78300 6.5520773987e+00 5.1953327285e-05 1.7171840438e+00 -2.9742500098e+00 1.7171840438e+00 2.9742500098e+00 
78400 6.5520773988e+00 5.2139652743e-05 1.7171840438e+00 -2.9742500098e+00 1.7171840438e+00 2.9742500098e+00 
78500 6.5520773988e+00 5.2321223540e-05 1.7171840438e+00 -2.9742500098e+00 1.7171840438e+00 2.9742500098e+00 
78600 6.5520773989e+00 5.2498054416e-05 1.7171840438e+00 -2.9742500098e+00 1.7171840438e+00 2.9742500098e+00 
78700 6.5520773990e+00 5.2670166718e-05 1.7171840438e+00 -2.9742500098e+00 1.7171840438e+00 2.9742500098e+00 
78800 6.5520773990e+00 5.2837588186e-05 1.7171840438e+00 -2.9742500098e+00 1.7171840438e+00 2.9742500098e+00 
78900 6.5520773991e+00 5.3000352682e-05 1.7171840438e+00 -2.9742500098e+00 1.7171840438e+00 2.9742500098e+00 
79000 6.5520773992e+00 5.3158499949e-05 1.7171840438e+00 -2.9742500098e+00 1.7171840438e+00 2.9742500098e+00 
79100 6.5520773992e+00 5.3312075356e-05 1.7171840438e+00 -2.9742500098e+00 1.7171840438e+00 2.9742500098e+00 
79200 6.5520773993e+00 5.3461129646e-05 1.7171840438e+00 -2.9742500098e+00 1.7171840438e+00 2.9742500098e+00 
79300 6.5520773994e+00 5.3605718675e-05 1.7171840438e+00 -2.9742500098e+00 1.7171840438e+00 2.9742500098e+00 
79400 6.5520773994e+00 5.3745903163e-05 1.7171840438e+00 -2.9742500098e+00 1.7171840438e+00 2.9742500098e+00 
79500 6.5520773995e+00 5.3881748431e-05 1.7171840438e+00 -2.9742500098e+00 1.7171840438e+00 2.9742500098e+00 
79600 6.5520773995e+00 5.4013324149e-05 1.7171840438e+00 -2.9742500098e+00 1.7171840438e+00 2.9742500098e+00 
79700 6.5520773996e+00 5.4140704082e-05 1.7171840438e+00 -2.9742500098e+00 1.7171840438e+00 2.9742500098e+00 
79800 6.5520773997e+00 5.4263965830e-05 1.7171840438e+00 -2.9742500098e+00 1.7171840438e+00 2.9742500098e+00 
79900 6.5520773997e+00 5.4383190577e-05 1.7171840438e+00 -2.9742500098e+00 1.7171840438e+00 2.9742500098e+00 
80000 6.5520773998e+00 5.4498462845e-05 1.7171840438e+00 -2.9742500098e+00 1.7171840438e+00 2.9742500098e+00 
80100 6.5520773998e+00 5.4609870243e-05 1.7171840438e+00 -2.9742500098e+00 1.7171840438e+00 2.9742500098e+00 
80200 6.5520773999e+00 5.4717503215e-05 1.7171840438e+00 -2.9742500098e+00 1.7171840438e+00 2.9742500098e+00 
80300 6.5520773999e+00 5.4821454803e-05 1.7171840438e+00 -2.9742500098e+00 1.7171840438e+00 2.9742500098e+00 
80400 6.5520774000e+00 5.4921820406e-05 1.7171840438e+00 -2.9742500098e+00 1.7171840438e+00 2.9742500098e+00 
80500 6.5520774000e+00 5.5018697549e-05 1.7171840438e+00 -2.9742500098e+00 1.7171840438e+00 2.9742500098e+00 
80600 6.5520774001e+00 5.5112185635e-05 1.7171840438e+00 -2.9742500098e+00 1.7171840438e+00 2.9742500098e+00 
80700 6.5520774001e+00 5.5202385738e-05 1.7171840438e+00 -2.9742500098e+00 1.7171840438e+00 2.9742500098e+00 
80800 6.5520774002e+00 5.5289400363e-05 1.7171840438e+00 -2.9742500098e+00 1.7171840438e+00 2.9742500098e+00 
80900 6.5520774002e+00 5.5373333234e-05 1.7171840438e+00 -2.9742500098e+00 1.7171840438e+00 2.9742500098e+00 
81000 6.5520774003e+00 5.5454289076e-05 1.7171840438e+00 -2.9742500098e+00 1.7171840438e+00 2.9742500098e+00 
81100 6.5520774003e+00 5.5532373412e-05 1.7171840438e+00 -2.9742500098e+00 1.7171840438e+00 2.9742500098e+00 
81200 6.5520774004e+00 5.5607692354e-05 1.7171840438e+00 -2.9742500098e+00 1.7171840438e+00 2.9742500098e+00 
81300 6.5520774004e+00 5.5680352408e-05 1.7171840438e+00 -2.9742500098e+00 1.7171840438e+00 2.9742500098e+00 
81400 6.5520774005e+00 5.5750460278e-05 1.7171840438e+00 -2.9742500098e+00 1.7171840438e+00 2.9742500098e+00 
81500 6.5520774005e+00 5.5818122685e-05 1.7171840438e+00 -2.9742500098e+00 1.7171840438e+00 2.9742500098e+00 
81600 6.5520774006e+00 5.5883446176e-05 1.7171840438e+00 -2.9742500098e+00 1.7171840438e+00 2.9742500098e+00 
81700 6.5520774006e+00 5.5946536962e-05 1.7171840438e+00 -2.9742500098e+00 1.7171840438e+00 2.9742500098e+00 
81800 6.5520774006e+00 5.6007500743e-05 1.7171840438e+00 -2.9742500098e+00 1.7171840438e+00 2.9742500098e+00 
81900 6.5520774007e+00 5.6066442540e-05 1.7171840438e+00 -2.9742500098e+00 1.7171840438e+00 2.9742500098e+00 
82000 6.5520774007e+00 5.6100880451e-05 1.7171840438e+00 -2.9742500098e+00 1.7171840438e+00 2.9742500098e+00 
82000 6.5520774007e+00 5.6100880451e-05 1.7171840438e+00 -2.9742500098e+00 1.7171840438e+00 2.9742500098e+00 
