# step Hamiltonian StressXX CellTensor1 CellTensor2 CellTensor3 CellTensor4 
0 6.3138715832e+00 5.6927016590e-03 1.7439943123e+00 -3.0206867570e+00 1.7439943123e+00 3.0206867570e+00 
100 6.3120554765e+00 6.9106707993e-03 1.7439943123e+00 -3.0206867570e+00 1.7439943123e+00 3.0206867570e+00 
200 6.3101999698e+00 7.8424830438e-03 1.7437961884e+00 -3.0203435963e+00 1.7437961884e+00 3.0203435963e+00 
300 6.3083216835e+00 8.6040181748e-03 1.7435713251e+00 -3.0199541217e+00 1.7435713251e+00 3.0199541217e+00 
400 6.3064337085e+00 9.2119414524e-03 1.7433245954e+00 -3.0195267734e+00 1.7433245954e+00 3.0195267734e+00 
500 6.3045470348e+00 9.6810917234e-03 1.7430603960e+00 -3.0190691665e+00 1.7430603960e+00 3.0190691665e+00 
600 6.3026708405e+00 1.0024715028e-02 1.7427826995e+00 -3.0185881821e+00 1.7427826995e+00 3.0185881821e+00 
700 6.3008127410e+00 1.0254667297e-02 1.7424951008e+00 -3.0180900466e+00 1.7424951008e+00 3.0180900466e+00 
800 6.2989790023e+00 1.0381590067e-02 1.7422008567e+00 -3.0175804008e+00 1.7422008567e+00 3.0175804008e+00 
900 6.2971747264e+00 1.0415062717e-02 1.7419029205e+00 -3.0170643602e+00 1.7419029205e+00 3.0170643602e+00 
1000 6.2954040094e+00 1.0363734305e-02 1.7416039726e+00 -3.0165465672e+00 1.7416039726e+00 3.0165465672e+00 
1100 6.2936700795e+00 1.0235437721e-02 1.7413064469e+00 -3.0160312376e+00 1.7413064469e+00 3.0160312376e+00 
1200 6.2919754155e+00 1.0037288531e-02 1.7410125541e+00 -3.0155222002e+00 1.7410125541e+00 3.0155222002e+00 
1300 6.2903218508e+00 9.7757705864e-03 1.7407243019e+00 -3.0150229329e+00 1.7407243019e+00 3.0150229329e+00 
1400 6.2887106626e+00 9.4568101921e-03 1.7404435134e+00 -3.0145365929e+00 1.7404435134e+00 3.0145365929e+00 
1500 6.2871426506e+00 9.0858404039e-03 1.7401718423e+00 -3.0140660448e+00 1.7401718423e+00 3.0140660448e+00 
1600 6.2856182049e+00 8.6678568040e-03 1.7399107873e+00 -3.0136138842e+00 1.7399107873e+00 3.0136138842e+00 
1700 6.2841373668e+00 8.2074659243e-03 1.7396617041e+00 -3.0131824595e+00 1.7396617041e+00 3.0131824595e+00 
1800 6.2826998805e+00 7.7089273246e-03 1.7394258168e+00 -3.0127738908e+00 1.7394258168e+00 3.0127738908e+00 
1900 6.2813052400e+00 7.1761901964e-03 1.7392042275e+00 -3.0123900868e+00 1.7392042275e+00 3.0123900868e+00 
2000 6.2799527296e+00 6.6129252395e-03 1.7389979249e+00 -3.0120327601e+00 1.7389979249e+00 3.0120327601e+00 
2100 6.2786414602e+00 6.0225524559e-03 1.7388077923e+00 -3.0117034408e+00 1.7388077923e+00 3.0117034408e+00 
2200 6.2773704007e+00 5.4082654146e-03 1.7386346146e+00 -3.0114034883e+00 1.7386346146e+00 3.0114034883e+00 
2300 6.2761384066e+00 4.7730524641e-03 1.7384790850e+00 -3.0111341031e+00 1.7384790850e+00 3.0111341031e+00 
2400 6.2749442447e+00 4.1197153015e-03 1.7383418101e+00 -3.0108963360e+00 1.7383418101e+00 3.0108963360e+00 
2500 6.2737866151e+00 3.4508852516e-03 1.7382233159e+00 -3.0106910980e+00 1.7382233159e+00 3.0106910980e+00 
2600 6.2726641709e+00 2.7690375576e-03 1.7381240521e+00 -3.0105191681e+00 1.7381240521e+00 3.0105191681e+00 
2700 6.2715755351e+00 2.0765039463e-03 1.7380443968e+00 -3.0103812011e+00 1.7380443968e+00 3.0103812011e+00 
2800 6.2705193160e+00 1.3754836908e-03 1.7379846604e+00 -3.0102777345e+00 1.7379846604e+00 3.0102777345e+00 
2900 6.2694941203e+00 6.6805336554e-04 1.7379450893e+00 -3.0102091954e+00 1.7379450893e+00 3.0102091954e+00 
3000 6.2684985651e+00 -4.3824538991e-05 1.7379258697e+00 -3.0101759061e+00 1.7379258697e+00 3.0101759061e+00 
3100 6.2675312893e+00 -7.5924155012e-04 1.7379258697e+00 -3.0101759061e+00 1.7379258697e+00 3.0101759061e+00 
3200 6.2665909568e+00 -1.4745326946e-03 1.7379477130e+00 -3.0102137399e+00 1.7379477130e+00 3.0102137399e+00 
3300 6.2656762696e+00 -2.1889965203e-03 1.7379901349e+00 -3.0102872167e+00 1.7379901349e+00 3.0102872167e+00 
3400 6.2647859724e+00 -2.9010588859e-03 1.7380531102e+00 -3.0103962931e+00 1.7380531102e+00 3.0103962931e+00 
3500 6.2639188576e+00 -3.6092293351e-03 1.7381365680e+00 -3.0105408463e+00 1.7381365680e+00 3.0105408463e+00 
3600 6.2630737696e+00 -4.3120968809e-03 1.7382403937e+00 -3.0107206777e+00 1.7382403937e+00 3.0107206777e+00 
3700 6.2622496077e+00 -5.0083262435e-03 1.7383644315e+00 -3.0109355174e+00 1.7383644315e+00 3.0109355174e+00 
3800 6.2614453296e+00 -5.6966544856e-03 1.7385084863e+00 -3.0111850276e+00 1.7385084863e+00 3.0111850276e+00 
3900 6.2606599520e+00 -6.3758879976e-03 1.7386723263e+00 -3.0114688068e+00 1.7386723263e+00 3.0114688068e+00 
4000 6.2598925527e+00 -7.0448997908e-03 1.7388556846e+00 -3.0117863927e+00 1.7388556846e+00 3.0117863927e+00 
4100 6.2591422703e+00 -7.7026270612e-03 1.7390582614e+00 -3.0121372660e+00 1.7390582614e+00 3.0121372660e+00 
4200 6.2584083049e+00 -8.3480689900e-03 1.7392797258e+00 -3.0125208536e+00 1.7392797258e+00 3.0125208536e+00 
4300 6.2576899168e+00 -8.9802847532e-03 1.7395197177e+00 -3.0129365318e+00 1.7395197177e+00 3.0129365318e+00 
4400 6.2569864261e+00 -9.5983917129e-03 1.7397778495e+00 -3.0133836292e+00 1.7397778495e+00 3.0133836292e+00 
4500 6.2562972110e+00 -1.0201563768e-02 1.7400537078e+00 -3.0138614299e+00 1.7400537078e+00 3.0138614299e+00 
4600 6.2556217059e+00 -1.0789029841e-02 1.7403468554e+00 -3.0143691764e+00 1.7403468554e+00 3.0143691764e+00 
4700 6.2549594000e+00 -1.1360072489e-02 1.7406568324e+00 -3.0149060723e+00 1.7406568324e+00 3.0149060723e+00 
4800 6.2543098342e+00 -1.1914026615e-02 1.7409831583e+00 -3.0154712853e+00 1.7409831583e+00 3.0154712853e+00 
4900 6.2536725992e+00 -1.2450278263e-02 1.7413253332e+00 -3.0160639497e+00 1.7413253332e+00 3.0160639497e+00 
5000 6.2530473324e+00 -1.2968263496e-02 1.7416828398e+00 -3.0166831692e+00 1.7416828398e+00 3.0166831692e+00 
5100 6.2524337156e+00 -1.3467467333e-02 1.7420551442e+00 -3.0173280194e+00 1.7420551442e+00 3.0173280194e+00 
5200 6.2518314712e+00 -1.3947422731e-02 1.7424416982e+00 -3.0179975505e+00 1.7424416982e+00 3.0179975505e+00 
5300 6.2512403600e+00 -1.4407709623e-02 1.7428419399e+00 -3.0186907894e+00 1.7428419399e+00 3.0186907894e+00 
5400 6.2506601779e+00 -1.4847953974e-02 1.7432552957e+00 -3.0194067428e+00 1.7432552957e+00 3.0194067428e+00 
5500 6.2500907524e+00 -1.5267826868e-02 1.7436811817e+00 -3.0201443989e+00 1.7436811817e+00 3.0201443989e+00 
5600 6.2495319401e+00 -1.5667043618e-02 1.7441190044e+00 -3.0209027301e+00 1.7441190044e+00 3.0209027301e+00 
5700 6.2489836233e+00 -1.6045362878e-02 1.7445681629e+00 -3.0216806954e+00 1.7445681629e+00 3.0216806954e+00 
5800 6.2484457071e+00 -1.6402585767e-02 1.7450280494e+00 -3.0224772422e+00 1.7450280494e+00 3.0224772422e+00 
5900 6.2479181164e+00 -1.6738554988e-02 1.7454980511e+00 -3.0232913090e+00 1.7454980511e+00 3.0232913090e+00 
6000 6.2474007930e+00 -1.7053153952e-02 1.7459775509e+00 -3.0241218271e+00 1.7459775509e+00 3.0241218271e+00 
6100 6.2468936932e+00 -1.7346305882e-02 1.7464659292e+00 -3.0249677230e+00 1.7464659292e+00 3.0249677230e+00 
6200 6.2463967846e+00 -1.7617972917e-02 1.7469625643e+00 -3.0258279203e+00 1.7469625643e+00 3.0258279203e+00 
6300 6.2459100441e+00 -1.7868155196e-02 1.7474668344e+00 -3.0267013418e+00 1.7474668344e+00 3.0267013418e+00 
6400 6.2454334551e+00 -1.8096889923e-02 1.7479781181e+00 -3.0275869111e+00 1.7479781181e+00 3.0275869111e+00 
6500 6.2449670057e+00 -1.8304250419e-02 1.7484957957e+00 -3.0284835550e+00 1.7484957957e+00 3.0284835550e+00 
6600 6.2445106862e+00 -1.8490345151e-02 1.7490192503e+00 -3.0293902050e+00 1.7490192503e+00 3.0293902050e+00 
6700 6.2440644873e+00 -1.8655316737e-02 1.7495478688e+00 -3.0303057990e+00 1.7495478688e+00 3.0303057990e+00 
6800 6.2436283985e+00 -1.8799340929e-02 1.7500810426e+00 -3.0312292832e+00 1.7500810426e+00 3.0312292832e+00 
6900 6.2432024064e+00 -1.8922625576e-02 1.7506181693e+00 -3.0321596138e+00 1.7506181693e+00 3.0321596138e+00 
7000 6.2427864929e+00 -1.9025409559e-02 1.7511586526e+00 -3.0330957584e+00 1.7511586526e+00 3.0330957584e+00 
7100 6.2423806346e+00 -1.9107961703e-02 1.7517019041e+00 -3.0340366977e+00 1.7517019041e+00 3.0340366977e+00 
7200 6.2419848011e+00 -1.9170579667e-02 1.7522473438e+00 -3.0349814268e+00 1.7522473438e+00 3.0349814268e+00 
7300 6.2415989541e+00 -1.9213588805e-02 1.7527944006e+00 -3.0359289570e+00 1.7527944006e+00 3.0359289570e+00 
7400 6.2412230468e+00 -1.9237341016e-02 1.7533425136e+00 -3.0368783167e+00 1.7533425136e+00 3.0368783167e+00 
7500 6.2408570231e+00 -1.9242213557e-02 1.7538911327e+00 -3.0378285528e+00 1.7538911327e+00 3.0378285528e+00 
7600 6.2405008172e+00 -1.9228607850e-02 1.7544397191e+00 -3.0387787323e+00 1.7544397191e+00 3.0387787323e+00 
7700 6.2401543527e+00 -1.9196948258e-02 1.7549877462e+00 -3.0397279430e+00 1.7549877462e+00 3.0397279430e+00 
7800 6.2398175432e+00 -1.9147680848e-02 1.7555347000e+00 -3.0406752949e+00 1.7555347000e+00 3.0406752949e+00 
7900 6.2394902914e+00 -1.9081272143e-02 1.7560800800e+00 -3.0416199208e+00 1.7560800800e+00 3.0416199208e+00 
8000 6.2391724895e+00 -1.8998207846e-02 1.7566233997e+00 -3.0425609780e+00 1.7566233997e+00 3.0425609780e+00 
8100 6.2388640192e+00 -1.8898991565e-02 1.7571641867e+00 -3.0434976486e+00 1.7571641867e+00 3.0434976486e+00 
8200 6.2385647518e+00 -1.8784143519e-02 1.7577019838e+00 -3.0444291404e+00 1.7577019838e+00 3.0444291404e+00 
8300 6.2382745486e+00 -1.8654199240e-02 1.7582363490e+00 -3.0453546881e+00 1.7582363490e+00 3.0453546881e+00 
8400 6.2379932615e+00 -1.8509708265e-02 1.7587668560e+00 -3.0462735533e+00 1.7587668560e+00 3.0462735533e+00 
8500 6.2377207328e+00 -1.8351232824e-02 1.7592930950e+00 -3.0471850259e+00 1.7592930950e+00 3.0471850259e+00 
8600 6.2374567964e+00 -1.8179346532e-02 1.7598146720e+00 -3.0480884239e+00 1.7598146720e+00 3.0480884239e+00 
8700 6.2372012782e+00 -1.7994633075e-02 1.7603312104e+00 -3.0489830945e+00 1.7603312104e+00 3.0489830945e+00 
8800 6.2369539965e+00 -1.7797684901e-02 1.7608423501e+00 -3.0498684145e+00 1.7608423501e+00 3.0498684145e+00 
8900 6.2367147629e+00 -1.7589101920e-02 1.7613477484e+00 -3.0507437901e+00 1.7613477484e+00 3.0507437901e+00 
9000 6.2364833831e+00 -1.7369490205e-02 1.7618470801e+00 -3.0516086578e+00 1.7618470801e+00 3.0516086578e+00 
9100 6.2362596575e+00 -1.7139460714e-02 1.7623400371e+00 -3.0524624846e+00 1.7623400371e+00 3.0524624846e+00 
9200 6.2360433817e+00 -1.6899628013e-02 1.7628263295e+00 -3.0533047676e+00 1.7628263295e+00 3.0533047676e+00 
9300 6.2358343481e+00 -1.6650609026e-02 1.7633056845e+00 -3.0541350349e+00 1.7633056845e+00 3.0541350349e+00 
9400 6.2356323457e+00 -1.6393021794e-02 1.7637778475e+00 -3.0549528451e+00 1.7637778475e+00 3.0549528451e+00 
9500 6.2354371616e+00 -1.6127484264e-02 1.7642425812e+00 -3.0557577875e+00 1.7642425812e+00 3.0557577875e+00 
9600 6.2352485814e+00 -1.5854613089e-02 1.7646996663e+00 -3.0565494821e+00 1.7646996663e+00 3.0565494821e+00 
9700 6.2350663903e+00 -1.5575022465e-02 1.7651489010e+00 -3.0573275794e+00 1.7651489010e+00 3.0573275794e+00 
9800 6.2348903734e+00 -1.5289322988e-02 1.7655901009e+00 -3.0580917601e+00 1.7655901009e+00 3.0580917601e+00 
9900 6.2347203168e+00 -1.4998120547e-02 1.7660230991e+00 -3.0588417350e+00 1.7660230991e+00 3.0588417350e+00 
10000 6.2345560082e+00 -1.4702015240e-02 1.7664477459e+00 -3.0595772449e+00 1.7664477459e+00 3.0595772449e+00 
10100 6.2343972374e+00 -1.4401600335e-02 1.7668639086e+00 -3.0602980598e+00 1.7668639086e+00 3.0602980598e+00 
10200 6.2342437973e+00 -1.4097461256e-02 1.7672714712e+00 -3.0610039789e+00 1.7672714712e+00 3.0610039789e+00 
10300 6.2340954839e+00 -1.3790174617e-02 1.7676703344e+00 -3.0616948303e+00 1.7676703344e+00 3.0616948303e+00 
10400 6.2339520976e+00 -1.3480307288e-02 1.7680604151e+00 -3.0623704699e+00 1.7680604151e+00 3.0623704699e+00 
10500 6.2338134430e+00 -1.3168415503e-02 1.7684416462e+00 -3.0630307815e+00 1.7684416462e+00 3.0630307815e+00 
10600 6.2336793298e+00 -1.2855044017e-02 1.7688139762e+00 -3.0636756760e+00 1.7688139762e+00 3.0636756760e+00 
10700 6.2335495731e+00 -1.2540725294e-02 1.7691773690e+00 -3.0643050907e+00 1.7691773690e+00 3.0643050907e+00 
10800 6.2334239937e+00 -1.2225978756e-02 1.7695318033e+00 -3.0649189890e+00 1.7695318033e+00 3.0649189890e+00 
10900 6.2333024186e+00 -1.1911310062e-02 1.7698772726e+00 -3.0655173593e+00 1.7698772726e+00 3.0655173593e+00 
11000 6.2331846808e+00 -1.1597210446e-02 1.7702137842e+00 -3.0661002146e+00 1.7702137842e+00 3.0661002146e+00 
11100 6.2330706203e+00 -1.1284156098e-02 1.7705413596e+00 -3.0666675917e+00 1.7705413596e+00 3.0666675917e+00 
11200 6.2329600835e+00 -1.0972607589e-02 1.7708600332e+00 -3.0672195505e+00 1.7708600332e+00 3.0672195505e+00 
11300 6.2328529237e+00 -1.0663009354e-02 1.7711698523e+00 -3.0677561731e+00 1.7711698523e+00 3.0677561731e+00 
11400 6.2327490014e+00 -1.0355789214e-02 1.7714708769e+00 -3.0682775628e+00 1.7714708769e+00 3.0682775628e+00 
11500 6.2326481836e+00 -1.0051357952e-02 1.7717631784e+00 -3.0687838440e+00 1.7717631784e+00 3.0687838440e+00 
11600 6.2325503448e+00 -9.7501089408e-03 1.7720468401e+00 -3.0692751604e+00 1.7720468401e+00 3.0692751604e+00 
11700 6.2324553660e+00 -9.4524178125e-03 1.7723219559e+00 -3.0697516749e+00 1.7723219559e+00 3.0697516749e+00 
11800 6.2323631353e+00 -9.1586421810e-03 1.7725886302e+00 -3.0702135684e+00 1.7725886302e+00 3.0702135684e+00 
11900 6.2322735473e+00 -8.8691214120e-03 1.7728469773e+00 -3.0706610388e+00 1.7728469773e+00 3.0706610388e+00 
12000 6.2321865035e+00 -8.5841764394e-03 1.7730971210e+00 -3.0710943004e+00 1.7730971210e+00 3.0710943004e+00 
12100 6.2321019114e+00 -8.3041096288e-03 1.7733391938e+00 -3.0715135828e+00 1.7733391938e+00 3.0715135828e+00 
12200 6.2320196851e+00 -8.0292046874e-03 1.7735733366e+00 -3.0719191300e+00 1.7735733366e+00 3.0719191300e+00 
12300 6.2319397443e+00 -7.7597266172e-03 1.7737996982e+00 -3.0723111997e+00 1.7737996982e+00 3.0723111997e+00 
12400 6.2318620146e+00 -7.4959217138e-03 1.7740184344e+00 -3.0726900620e+00 1.7740184344e+00 3.0726900620e+00 
12500 6.2317864271e+00 -7.2380176063e-03 1.7742297082e+00 -3.0730559989e+00 1.7742297082e+00 3.0730559989e+00 
12600 6.2317129178e+00 -6.9862233390e-03 1.7744336884e+00 -3.0734093030e+00 1.7744336884e+00 3.0734093030e+00 
12700 6.2316414277e+00 -6.7407294932e-03 1.7746305499e+00 -3.0737502771e+00 1.7746305499e+00 3.0737502771e+00 
12800 6.2315719024e+00 -6.5017083470e-03 1.7748204725e+00 -3.0740792327e+00 1.7748204725e+00 3.0740792327e+00 
12900 6.2315042917e+00 -6.2693140719e-03 1.7750036409e+00 -3.0743964897e+00 1.7750036409e+00 3.0743964897e+00 
13000 6.2314385491e+00 -6.0436829653e-03 1.7751802439e+00 -3.0747023750e+00 1.7751802439e+00 3.0747023750e+00 
13100 6.2313746319e+00 -5.8249337157e-03 1.7753504739e+00 -3.0749972220e+00 1.7753504739e+00 3.0749972220e+00 
13200 6.2313125007e+00 -5.6131677006e-03 1.7755145267e+00 -3.0752813698e+00 1.7755145267e+00 3.0752813698e+00 
13300 6.2312521189e+00 -5.4084693138e-03 1.7756726006e+00 -3.0755551618e+00 1.7756726006e+00 3.0755551618e+00 
13400 6.2311934525e+00 -5.2109063214e-03 1.7758248963e+00 -3.0758189458e+00 1.7758248963e+00 3.0758189458e+00 
13500 6.2311364699e+00 -5.0205302445e-03 1.7759716162e+00 -3.0760730721e+00 1.7759716162e+00 3.0760730721e+00 
13600 6.2310811416e+00 -4.8373767661e-03 1.7761129641e+00 -3.0763178939e+00 1.7761129641e+00 3.0763178939e+00 
13700 6.2310274398e+00 -4.6614661611e-03 1.7762491446e+00 -3.0765537654e+00 1.7762491446e+00 3.0765537654e+00 
13800 6.2309753380e+00 -4.4928037474e-03 1.7763803628e+00 -3.0767810419e+00 1.7763803628e+00 3.0767810419e+00 
13900 6.2309248111e+00 -4.3313803556e-03 1.7765068238e+00 -3.0770000788e+00 1.7765068238e+00 3.0770000788e+00 
14000 6.2308758350e+00 -4.1771728169e-03 1.7766287324e+00 -3.0772112307e+00 1.7766287324e+00 3.0772112307e+00 
14100 6.2308283861e+00 -4.0301444656e-03 1.7767462927e+00 -3.0774148511e+00 1.7767462927e+00 3.0774148511e+00 
14200 6.2307824414e+00 -3.8902456561e-03 1.7768597075e+00 -3.0776112913e+00 1.7768597075e+00 3.0776112913e+00 
14300 6.2307379785e+00 -3.7574142912e-03 1.7769691783e+00 -3.0778009003e+00 1.7769691783e+00 3.0778009003e+00 
14400 6.2306949747e+00 -3.6315763610e-03 1.7770749047e+00 -3.0779840239e+00 1.7770749047e+00 3.0779840239e+00 
14500 6.2306534077e+00 -3.5126464905e-03 1.7771770842e+00 -3.0781610039e+00 1.7771770842e+00 3.0781610039e+00 
14600 6.2306132546e+00 -3.4005284936e-03 1.7772759117e+00 -3.0783321781e+00 1.7772759117e+00 3.0783321781e+00 
14700 6.2305744926e+00 -3.2951159329e-03 1.7773715794e+00 -3.0784978795e+00 1.7773715794e+00 3.0784978795e+00 
14800 6.2305370984e+00 -3.1962926832e-03 1.7774642765e+00 -3.0786584356e+00 1.7774642765e+00 3.0786584356e+00 
14900 6.2305010481e+00 -3.1039334967e-03 1.7775541889e+00 -3.0788141684e+00 1.7775541889e+00 3.0788141684e+00 
15000 6.2304663173e+00 -3.0179045703e-03 1.7776414987e+00 -3.0789653934e+00 1.7776414987e+00 3.0789653934e+00 
15100 6.2304328811e+00 -2.9380641108e-03 1.7777263845e+00 -3.0791124198e+00 1.7777263845e+00 3.0791124198e+00 
15200 6.2304007138e+00 -2.8642628999e-03 1.7778090205e+00 -3.0792555497e+00 1.7778090205e+00 3.0792555497e+00 
15300 6.2303697891e+00 -2.7963448545e-03 1.7778895771e+00 -3.0793950778e+00 1.7778895771e+00 3.0793950778e+00 
15400 6.2303400799e+00 -2.7341475841e-03 1.7779682200e+00 -3.0795312912e+00 1.7779682200e+00 3.0795312912e+00 
15500 6.2303115587e+00 -2.6775029418e-03 1.7780451102e+00 -3.0796644690e+00 1.7780451102e+00 3.0796644690e+00 
15600 6.2302841970e+00 -2.6262375693e-03 1.7781204042e+00 -3.0797948820e+00 1.7781204042e+00 3.0797948820e+00 
15700 6.2302579658e+00 -2.5801734343e-03 1.7781942534e+00 -3.0799227926e+00 1.7781942534e+00 3.0799227926e+00 
15800 6.2302328354e+00 -2.5391283596e-03 1.7782668042e+00 -3.0800484544e+00 1.7782668042e+00 3.0800484544e+00 
15900 6.2302087758e+00 -2.5029165427e-03 1.7783381981e+00 -3.0801721121e+00 1.7783381981e+00 3.0801721121e+00 
16000 6.2301857562e+00 -2.4713490649e-03 1.7784085709e+00 -3.0802940014e+00 1.7784085709e+00 3.0802940014e+00 
16100 6.2301637454e+00 -2.4442343906e-03 1.7784780534e+00 -3.0804143486e+00 1.7784780534e+00 3.0804143486e+00 
16200 6.2301427119e+00 -2.4213788541e-03 1.7785467708e+00 -3.0805333707e+00 1.7785467708e+00 3.0805333707e+00 
16300 6.2301226239e+00 -2.4025871341e-03 1.7786148431e+00 -3.0806512754e+00 1.7786148431e+00 3.0806512754e+00 
16400 6.2301034494e+00 -2.3876627161e-03 1.7786823845e+00 -3.0807682605e+00 1.7786823845e+00 3.0807682605e+00 
16500 6.2300851561e+00 -2.3764083409e-03 1.7787495038e+00 -3.0808845145e+00 1.7787495038e+00 3.0808845145e+00 
16600 6.2300677117e+00 -2.3686264396e-03 1.7788163042e+00 -3.0810002161e+00 1.7788163042e+00 3.0810002161e+00 
16700 6.2300510839e+00 -2.3641195539e-03 1.7788828833e+00 -3.0811155346e+00 1.7788828833e+00 3.0811155346e+00 
16800 6.2300352407e+00 -2.3626907425e-03 1.7789493333e+00 -3.0812306293e+00 1.7789493333e+00 3.0812306293e+00 
16900 6.2300201499e+00 -2.3641439718e-03 1.7790157406e+00 -3.0813456502e+00 1.7790157406e+00 3.0813456502e+00 
17000 6.2300057800e+00 -2.3682844920e-03 1.7790821863e+00 -3.0814607375e+00 1.7790821863e+00 3.0814607375e+00 
17100 6.2299920995e+00 -2.3749191975e-03 1.7791487459e+00 -3.0815760221e+00 1.7791487459e+00 3.0815760221e+00 
17200 6.2299790774e+00 -2.3838569713e-03 1.7792154894e+00 -3.0816916253e+00 1.7792154894e+00 3.0816916253e+00 
17300 6.2299666834e+00 -2.3949090144e-03 1.7792824816e+00 -3.0818076592e+00 1.7792824816e+00 3.0818076592e+00 
17400 6.2299548875e+00 -2.4078891586e-03 1.7793497819e+00 -3.0819242267e+00 1.7793497819e+00 3.0819242267e+00 
17500 6.2299436606e+00 -2.4226141640e-03 1.7794174444e+00 -3.0820414216e+00 1.7794174444e+00 3.0820414216e+00 
17600 6.2299329740e+00 -2.4389039992e-03 1.7794855181e+00 -3.0821593286e+00 1.7794855181e+00 3.0821593286e+00 
17700 6.2299228000e+00 -2.4565821073e-03 1.7795540469e+00 -3.0822780240e+00 1.7795540469e+00 3.0822780240e+00 
17800 6.2299131116e+00 -2.4754756544e-03 1.7796230697e+00 -3.0823975751e+00 1.7796230697e+00 3.0823975751e+00 
17900 6.2299038826e+00 -2.4954157628e-03 1.7796926207e+00 -3.0825180410e+00 1.7796926207e+00 3.0825180410e+00 
18000 6.2298950880e+00 -2.5162377285e-03 1.7797627292e+00 -3.0826394725e+00 1.7797627292e+00 3.0826394725e+00 
18100 6.2298867033e+00 -2.5377812224e-03 1.7798334200e+00 -3.0827619124e+00 1.7798334200e+00 3.0827619124e+00 
18200 6.2298787052e+00 -2.5598904765e-03 1.7799047131e+00 -3.0828853957e+00 1.7799047131e+00 3.0828853957e+00 
18300 6.2298710714e+00 -2.5824144541e-03 1.7799766245e+00 -3.0830099499e+00 1.7799766245e+00 3.0830099499e+00 
18400 6.2298637805e+00 -2.6052070056e-03 1.7800491657e+00 -3.0831355949e+00 1.7800491657e+00 3.0831355949e+00 
18500 6.2298568123e+00 -2.6281270080e-03 1.7801223441e+00 -3.0832623437e+00 1.7801223441e+00 3.0832623437e+00 
18600 6.2298501473e+00 -2.6510384911e-03 1.7801961633e+00 -3.0833902023e+00 1.7801961633e+00 3.0833902023e+00 
18700 6.2298437674e+00 -2.6738107477e-03 1.7802706230e+00 -3.0835191703e+00 1.7802706230e+00 3.0835191703e+00 
18800 6.2298376552e+00 -2.6963184305e-03 1.7803457192e+00 -3.0836492407e+00 1.7803457192e+00 3.0836492407e+00 
18900 6.2298317946e+00 -2.7184416345e-03 1.7804214443e+00 -3.0837804004e+00 1.7804214443e+00 3.0837804004e+00 
19000 6.2298261702e+00 -2.7400659662e-03 1.7804977875e+00 -3.0839126307e+00 1.7804977875e+00 3.0839126307e+00 
19100 6.2298207679e+00 -2.7610825985e-03 1.7805747347e+00 -3.0840459071e+00 1.7805747347e+00 3.0840459071e+00 
19200 6.2298155743e+00 -2.7813883134e-03 1.7806522687e+00 -3.0841802000e+00 1.7806522687e+00 3.0841802000e+00 
19300 6.2298105771e+00 -2.8008855320e-03 1.7807303695e+00 -3.0843154746e+00 1.7807303695e+00 3.0843154746e+00 
19400 6.2298057649e+00 -2.8194823308e-03 1.7808090144e+00 -3.0844516915e+00 1.7808090144e+00 3.0844516915e+00 
19500 6.2298011270e+00 -2.8370924482e-03 1.7808881779e+00 -3.0845888068e+00 1.7808881779e+00 3.0845888068e+00 
19600 6.2297966538e+00 -2.8536352770e-03 1.7809678324e+00 -3.0847267724e+00 1.7809678324e+00 3.0847267724e+00 
19700 6.2297923364e+00 -2.8690358474e-03 1.7810479477e+00 -3.0848655362e+00 1.7810479477e+00 3.0848655362e+00 
19800 6.2297881667e+00 -2.8832247985e-03 1.7811284918e+00 -3.0850050426e+00 1.7811284918e+00 3.0850050426e+00 
19900 6.2297841372e+00 -2.8961383389e-03 1.7812094306e+00 -3.0851452327e+00 1.7812094306e+00 3.0851452327e+00 
20000 6.2297802413e+00 -2.9077181981e-03 1.7812907282e+00 -3.0852860442e+00 1.7812907282e+00 3.0852860442e+00 
20100 6.2297764729e+00 -2.9179115674e-03 1.7813723471e+00 -3.0854274123e+00 1.7813723471e+00 3.0854274123e+00 
20200 6.2297728267e+00 -2.9266710322e-03 1.7814542484e+00 -3.0855692695e+00 1.7814542484e+00 3.0855692695e+00 
20300 6.2297692976e+00 -2.9339544950e-03 1.7815363918e+00 -3.0857115460e+00 1.7815363918e+00 3.0857115460e+00 
20400 6.2297658815e+00 -2.9397250904e-03 1.7816187358e+00 -3.0858541701e+00 1.7816187358e+00 3.0858541701e+00 
20500 6.2297625744e+00 -2.9439510917e-03 1.7817012379e+00 -3.0859970680e+00 1.7817012379e+00 3.0859970680e+00 
20600 6.2297593729e+00 -2.9466058104e-03 1.7817838549e+00 -3.0861401647e+00 1.7817838549e+00 3.0861401647e+00 
20700 6.2297562740e+00 -2.9476674880e-03 1.7818665425e+00 -3.0862833838e+00 1.7818665425e+00 3.0862833838e+00 
20800 6.2297532751e+00 -2.9471191816e-03 1.7819492560e+00 -3.0864266479e+00 1.7819492560e+00 3.0864266479e+00 
20900 6.2297503738e+00 -2.9449486432e-03 1.7820319503e+00 -3.0865698787e+00 1.7820319503e+00 3.0865698787e+00 
21000 6.2297475681e+00 -2.9411481927e-03 1.7821145799e+00 -3.0867129973e+00 1.7821145799e+00 3.0867129973e+00 
21100 6.2297448561e+00 -2.9357145860e-03 1.7821970991e+00 -3.0868559247e+00 1.7821970991e+00 3.0868559247e+00 
21200 6.2297422363e+00 -2.9286488778e-03 1.7822794619e+00 -3.0869985813e+00 1.7822794619e+00 3.0869985813e+00 
21300 6.2297397072e+00 -2.9199562797e-03 1.7823616228e+00 -3.0871408881e+00 1.7823616228e+00 3.0871408881e+00 
21400 6.2297372677e+00 -2.9096460150e-03 1.7824435360e+00 -3.0872827659e+00 1.7824435360e+00 3.0872827659e+00 
21500 6.2297349164e+00 -2.8977311682e-03 1.7825251562e+00 -3.0874241362e+00 1.7825251562e+00 3.0874241362e+00 
21600 6.2297326525e+00 -2.8842285329e-03 1.7826064384e+00 -3.0875649212e+00 1.7826064384e+00 3.0875649212e+00 
21700 6.2297304748e+00 -2.8691584555e-03 1.7826873382e+00 -3.0877050438e+00 1.7826873382e+00 3.0877050438e+00 
21800 6.2297283824e+00 -2.8525446768e-03 1.7827678117e+00 -3.0878444279e+00 1.7827678117e+00 3.0878444279e+00 
21900 6.2297263745e+00 -2.8344141716e-03 1.7828478155e+00 -3.0879829987e+00 1.7828478155e+00 3.0879829987e+00 
22000 6.2297244500e+00 -2.8147969867e-03 1.7829273073e+00 -3.0881206825e+00 1.7829273073e+00 3.0881206825e+00 
22100 6.2297226081e+00 -2.7937260764e-03 1.7830062454e+00 -3.0882574073e+00 1.7830062454e+00 3.0882574073e+00 
22200 6.2297208477e+00 -2.7712371388e-03 1.7830845891e+00 -3.0883931026e+00 1.7830845891e+00 3.0883931026e+00 
22300 6.2297191679e+00 -2.7473684499e-03 1.7831622988e+00 -3.0885276996e+00 1.7831622988e+00 3.0885276996e+00 
22400 6.2297175676e+00 -2.7221606982e-03 1.7832393357e+00 -3.0886611315e+00 1.7832393357e+00 3.0886611315e+00 
22500 6.2297160457e+00 -2.6956568191e-03 1.7833156626e+00 -3.0887933335e+00 1.7833156626e+00 3.0887933335e+00 
22600 6.2297146009e+00 -2.6679018297e-03 1.7833912430e+00 -3.0889242427e+00 1.7833912430e+00 3.0889242427e+00 
22700 6.2297132322e+00 -2.6389426644e-03 1.7834660421e+00 -3.0890537985e+00 1.7834660421e+00 3.0890537985e+00 
22800 6.2297119379e+00 -2.6088280116e-03 1.7835400261e+00 -3.0891819426e+00 1.7835400261e+00 3.0891819426e+00 
22900 6.2297107169e+00 -2.5776081512e-03 1.7836131629e+00 -3.0893086191e+00 1.7836131629e+00 3.0893086191e+00 
23000 6.2297095675e+00 -2.5453347946e-03 1.7836854214e+00 -3.0894337746e+00 1.7836854214e+00 3.0894337746e+00 
23100 6.2297084883e+00 -2.5120609259e-03 1.7837567723e+00 -3.0895573580e+00 1.7837567723e+00 3.0895573580e+00 
23200 6.2297074774e+00 -2.4778406454e-03 1.7838271877e+00 -3.0896793210e+00 1.7838271877e+00 3.0896793210e+00 
23300 6.2297065332e+00 -2.4427290157e-03 1.7838966411e+00 -3.0897996178e+00 1.7838966411e+00 3.0897996178e+00 
23400 6.2297056540e+00 -2.4067819106e-03 1.7839651076e+00 -3.0899182053e+00 1.7839651076e+00 3.0899182053e+00 
23500 6.2297048377e+00 -2.3700558662e-03 1.7840325640e+00 -3.0900350432e+00 1.7840325640e+00 3.0900350432e+00 
23600 6.2297040825e+00 -2.3326079362e-03 1.7840989885e+00 -3.0901500939e+00 1.7840989885e+00 3.0901500939e+00 
23700 6.2297033863e+00 -2.2944955496e-03 1.7841643611e+00 -3.0902633225e+00 1.7841643611e+00 3.0902633225e+00 
23800 6.2297027472e+00 -2.2557763722e-03 1.7842286632e+00 -3.0903746969e+00 1.7842286632e+00 3.0903746969e+00 
23900 6.2297021630e+00 -2.2165081725e-03 1.7842918779e+00 -3.0904841880e+00 1.7842918779e+00 3.0904841880e+00 
24000 6.2297016317e+00 -2.1767486900e-03 1.7843539899e+00 -3.0905917692e+00 1.7843539899e+00 3.0905917692e+00 
24100 6.2297011509e+00 -2.1365555093e-03 1.7844149857e+00 -3.0906974170e+00 1.7844149857e+00 3.0906974170e+00 
24200 6.2297007187e+00 -2.0959859367e-03 1.7844748532e+00 -3.0908011105e+00 1.7844748532e+00 3.0908011105e+00 
24300 6.2297003328e+00 -2.0550968828e-03 1.7845335818e+00 -3.0909028316e+00 1.7845335818e+00 3.0909028316e+00 
24400 6.2296999910e+00 -2.0139447478e-03 1.7845911629e+00 -3.0910025649e+00 1.7845911629e+00 3.0910025649e+00 
24500 6.2296996912e+00 -1.9725853129e-03 1.7846475892e+00 -3.0911002981e+00 1.7846475892e+00 3.0911002981e+00 
24600 6.2296994311e+00 -1.9310736351e-03 1.7847028549e+00 -3.0911960210e+00 1.7847028549e+00 3.0911960210e+00 
24700 6.2296992086e+00 -1.8894639477e-03 1.7847569558e+00 -3.0912897267e+00 1.7847569558e+00 3.0912897267e+00 
24800 6.2296990215e+00 -1.8478095650e-03 1.7848098895e+00 -3.0913814104e+00 1.7848098895e+00 3.0913814104e+00 
24900 6.2296988679e+00 -1.8061627917e-03 1.7848616546e+00 -3.0914710703e+00 1.7848616546e+00 3.0914710703e+00 
25000 6.2296987455e+00 -1.7645748380e-03 1.7849122516e+00 -3.0915587068e+00 1.7849122516e+00 3.0915587068e+00 
25100 6.2296986525e+00 -1.7230957388e-03 1.7849616821e+00 -3.0916443229e+00 1.7849616821e+00 3.0916443229e+00 
25200 6.2296985867e+00 -1.6817742779e-03 1.7850099493e+00 -3.0917279243e+00 1.7850099493e+00 3.0917279243e+00 
25300 6.2296985464e+00 -1.6406579179e-03 1.7850570578e+00 -3.0918095185e+00 1.7850570578e+00 3.0918095185e+00 
25400 6.2296985297e+00 -1.5997927345e-03 1.7851030133e+00 -3.0918891158e+00 1.7851030133e+00 3.0918891158e+00 
25500 6.2296985347e+00 -1.5592233551e-03 1.7851478231e+00 -3.0919667285e+00 1.7851478231e+00 3.0919667285e+00 
25600 6.2296985598e+00 -1.5189929042e-03 1.7851914953e+00 -3.0920423712e+00 1.7851914953e+00 3.0920423712e+00 
25700 6.2296986034e+00 -1.4791429514e-03 1.7852340398e+00 -3.0921160603e+00 1.7852340398e+00 3.0921160603e+00 
25800 6.2296986637e+00 -1.4397134660e-03 1.7852754671e+00 -3.0921878145e+00 1.7852754671e+00 3.0921878145e+00 
25900 6.2296987394e+00 -1.4007427756e-03 1.7853157891e+00 -3.0922576543e+00 1.7853157891e+00 3.0922576543e+00 
26000 6.2296988290e+00 -1.3622675299e-03 1.7853550188e+00 -3.0923256021e+00 1.7853550188e+00 3.0923256021e+00 
26100 6.2296989312e+00 -1.3243226682e-03 1.7853931701e+00 -3.0923916821e+00 1.7853931701e+00 3.0923916821e+00 
26200 6.2296990448e+00 -1.2869413931e-03 1.7854302579e+00 -3.0924559201e+00 1.7854302579e+00 3.0924559201e+00 
26300 6.2296991684e+00 -1.2501551472e-03 1.7854662981e+00 -3.0925183436e+00 1.7854662981e+00 3.0925183436e+00 
26400 6.2296993011e+00 -1.2139935950e-03 1.7855013075e+00 -3.0925789815e+00 1.7855013075e+00 3.0925789815e+00 
26500 6.2296994417e+00 -1.1784846093e-03 1.7855353035e+00 -3.0926378643e+00 1.7855353035e+00 3.0926378643e+00 
26600 6.2296995894e+00 -1.1436542612e-03 1.7855683044e+00 -3.0926950237e+00 1.7855683044e+00 3.0926950237e+00 
26700 6.2296997432e+00 -1.1095268147e-03 1.7856003295e+00 -3.0927504926e+00 1.7856003295e+00 3.0927504926e+00 
26800 6.2296999024e+00 -1.0761247251e-03 1.7856313983e+00 -3.0928043054e+00 1.7856313983e+00 3.0928043054e+00 
26900 6.2297000662e+00 -1.0434686416e-03 1.7856615313e+00 -3.0928564973e+00 1.7856615313e+00 3.0928564973e+00 
27000 6.2297002339e+00 -1.0115774131e-03 1.7856907493e+00 -3.0929071044e+00 1.7856907493e+00 3.0929071044e+00 
27100 6.2297004050e+00 -9.8046809841e-04 1.7857190739e+00 -3.0929561641e+00 1.7857190739e+00 3.0929561641e+00 
27200 6.2297005789e+00 -9.5015597906e-04 1.7857465270e+00 -3.0930037143e+00 1.7857465270e+00 3.0930037143e+00 
27300 6.2297007552e+00 -9.2065457631e-04 1.7857731310e+00 -3.0930497937e+00 1.7857731310e+00 3.0930497937e+00 
27400 6.2297009334e+00 -8.9197567090e-04 1.7857989085e+00 -3.0930944417e+00 1.7857989085e+00 3.0930944417e+00 
27500 6.2297011131e+00 -8.6412932607e-04 1.7858238827e+00 -3.0931376983e+00 1.7858238827e+00 3.0931376983e+00 
27600 6.2297012940e+00 -8.3712391349e-04 1.7858480769e+00 -3.0931796038e+00 1.7858480769e+00 3.0931796038e+00 
27700 6.2297014759e+00 -8.1096614198e-04 1.7858715147e+00 -3.0932201992e+00 1.7858715147e+00 3.0932201992e+00 
27800 6.2297016586e+00 -7.8566108893e-04 1.7858942198e+00 -3.0932595256e+00 1.7858942198e+00 3.0932595256e+00 
27900 6.2297018418e+00 -7.6121223417e-04 1.7859162161e+00 -3.0932976244e+00 1.7859162161e+00 3.0932976244e+00 
28000 6.2297020254e+00 -7.3762149622e-04 1.7859375277e+00 -3.0933345371e+00 1.7859375277e+00 3.0933345371e+00 
28100 6.2297022092e+00 -7.1488927079e-04 1.7859581786e+00 -3.0933703055e+00 1.7859581786e+00 3.0933703055e+00 
28200 6.2297023933e+00 -6.9301447125e-04 1.7859781928e+00 -3.0934049711e+00 1.7859781928e+00 3.0934049711e+00 
28300 6.2297025774e+00 -6.7199457113e-04 1.7859975943e+00 -3.0934385756e+00 1.7859975943e+00 3.0934385756e+00 
28400 6.2297027617e+00 -6.5182564824e-04 1.7860164072e+00 -3.0934711605e+00 1.7860164072e+00 3.0934711605e+00 
28500 6.2297029460e+00 -6.3250243052e-04 1.7860346553e+00 -3.0935027671e+00 1.7860346553e+00 3.0935027671e+00 
28600 6.2297031303e+00 -6.1401834333e-04 1.7860523622e+00 -3.0935334363e+00 1.7860523622e+00 3.0935334363e+00 
28700 6.2297033147e+00 -5.9636555800e-04 1.7860695515e+00 -3.0935632091e+00 1.7860695515e+00 3.0935632091e+00 
28800 6.2297034991e+00 -5.7953504165e-04 1.7860862464e+00 -3.0935921255e+00 1.7860862464e+00 3.0935921255e+00 
28900 6.2297036836e+00 -5.6351660799e-04 1.7861024701e+00 -3.0936202257e+00 1.7861024701e+00 3.0936202257e+00 
29000 6.2297038683e+00 -5.4829896905e-04 1.7861182451e+00 -3.0936475489e+00 1.7861182451e+00 3.0936475489e+00 
29100 6.2297040530e+00 -5.3386978764e-04 1.7861335941e+00 -3.0936741340e+00 1.7861335941e+00 3.0936741340e+00 
29200 6.2297042380e+00 -5.2021573048e-04 1.7861485389e+00 -3.0937000193e+00 1.7861485389e+00 3.0937000193e+00 
29300 6.2297044232e+00 -5.0732252181e-04 1.7861631014e+00 -3.0937252423e+00 1.7861631014e+00 3.0937252423e+00 
29400 6.2297046086e+00 -4.9517499735e-04 1.7861773029e+00 -3.0937498400e+00 1.7861773029e+00 3.0937498400e+00 
29500 6.2297047943e+00 -4.8375715859e-04 1.7861911642e+00 -3.0937738485e+00 1.7861911642e+00 3.0937738485e+00 
29600 6.2297049802e+00 -4.7305222707e-04 1.7862047058e+00 -3.0937973032e+00 1.7862047058e+00 3.0937973032e+00 
29700 6.2297051665e+00 -4.6304269883e-04 1.7862179477e+00 -3.0938202388e+00 1.7862179477e+00 3.0938202388e+00 
29800 6.2297053532e+00 -4.5371039859e-04 1.7862309092e+00 -3.0938426889e+00 1.7862309092e+00 3.0938426889e+00 
29900 6.2297055401e+00 -4.4503653390e-04 1.7862436095e+00 -3.0938646863e+00 1.7862436095e+00 3.0938646863e+00 
30000 6.2297057274e+00 -4.3700174877e-04 1.7862560668e+00 -3.0938862631e+00 1.7862560668e+00 3.0938862631e+00 
30100 6.2297059149e+00 -4.2958617707e-04 1.7862682992e+00 -3.0939074501e+00 1.7862682992e+00 3.0939074501e+00 
30200 6.2297061028e+00 -4.2276949528e-04 1.7862803239e+00 -3.0939282775e+00 1.7862803239e+00 3.0939282775e+00 
30300 6.2297062909e+00 -4.1653097469e-04 1.7862921577e+00 -3.0939487742e+00 1.7862921577e+00 3.0939487742e+00 
30400 6.2297064792e+00 -4.1084953284e-04 1.7863038168e+00 -3.0939689684e+00 1.7863038168e+00 3.0939689684e+00 
30500 6.2297066676e+00 -4.0570378430e-04 1.7863153168e+00 -3.0939888870e+00 1.7863153168e+00 3.0939888870e+00 
30600 6.2297068562e+00 -4.0107209041e-04 1.7863266727e+00 -3.0940085560e+00 1.7863266727e+00 3.0940085560e+00 
30700 6.2297070448e+00 -3.9693260826e-04 1.7863378989e+00 -3.0940280003e+00 1.7863378989e+00 3.0940280003e+00 
30800 6.2297072334e+00 -3.9326333846e-04 1.7863490091e+00 -3.0940472438e+00 1.7863490091e+00 3.0940472438e+00 
30900 6.2297074219e+00 -3.9004217201e-04 1.7863600166e+00 -3.0940663093e+00 1.7863600166e+00 3.0940663093e+00 
31000 6.2297076101e+00 -3.8724693595e-04 1.7863709338e+00 -3.0940852185e+00 1.7863709338e+00 3.0940852185e+00 
31100 6.2297077981e+00 -3.8485543775e-04 1.7863817728e+00 -3.0941039921e+00 1.7863817728e+00 3.0941039921e+00 
31200 6.2297079857e+00 -3.8284550853e-04 1.7863925447e+00 -3.0941226497e+00 1.7863925447e+00 3.0941226497e+00 
31300 6.2297081727e+00 -3.8119504495e-04 1.7864032603e+00 -3.0941412097e+00 1.7864032603e+00 3.0941412097e+00 
31400 6.2297083592e+00 -3.7988204971e-04 1.7864139297e+00 -3.0941596895e+00 1.7864139297e+00 3.0941596895e+00 
31500 6.2297085449e+00 -3.7888467069e-04 1.7864245622e+00 -3.0941781056e+00 1.7864245622e+00 3.0941781056e+00 
31600 6.2297087298e+00 -3.7818123867e-04 1.7864351668e+00 -3.0941964733e+00 1.7864351668e+00 3.0941964733e+00 
31700 6.2297089138e+00 -3.7775030350e-04 1.7864457516e+00 -3.0942148067e+00 1.7864457516e+00 3.0942148067e+00 
31800 6.2297090966e+00 -3.7757066890e-04 1.7864563243e+00 -3.0942331191e+00 1.7864563243e+00 3.0942331191e+00 
31900 6.2297092783e+00 -3.7762142565e-04 1.7864668919e+00 -3.0942514228e+00 1.7864668919e+00 3.0942514228e+00 
32000 6.2297094587e+00 -3.7788198322e-04 1.7864774608e+00 -3.0942697287e+00 1.7864774608e+00 3.0942697287e+00 
32100 6.2297096377e+00 -3.7833209996e-04 1.7864880370e+00 -3.0942880472e+00 1.7864880370e+00 3.0942880472e+00 
32200 6.2297098152e+00 -3.7895191157e-04 1.7864986257e+00 -3.0943063874e+00 1.7864986257e+00 3.0943063874e+00 
32300 6.2297099910e+00 -3.7972195808e-04 1.7865092317e+00 -3.0943247576e+00 1.7865092317e+00 3.0943247576e+00 
32400 6.2297101651e+00 -3.8062320920e-04 1.7865198592e+00 -3.0943431649e+00 1.7865198592e+00 3.0943431649e+00 
32500 6.2297103373e+00 -3.8163708808e-04 1.7865305119e+00 -3.0943616159e+00 1.7865305119e+00 3.0943616159e+00 
32600 6.2297105076e+00 -3.8274549350e-04 1.7865411929e+00 -3.0943801158e+00 1.7865411929e+00 3.0943801158e+00 
32700 6.2297106759e+00 -3.8393082043e-04 1.7865519048e+00 -3.0943986694e+00 1.7865519048e+00 3.0943986694e+00 
32800 6.2297108420e+00 -3.8517597902e-04 1.7865626498e+00 -3.0944172804e+00 1.7865626498e+00 3.0944172804e+00 
32900 6.2297110059e+00 -3.8646441200e-04 1.7865734296e+00 -3.0944359516e+00 1.7865734296e+00 3.0944359516e+00 
33000 6.2297111675e+00 -3.8778011056e-04 1.7865842454e+00 -3.0944546851e+00 1.7865842454e+00 3.0944546851e+00 
33100 6.2297113268e+00 -3.8910762864e-04 1.7865950980e+00 -3.0944734823e+00 1.7865950980e+00 3.0944734823e+00 
33200 6.2297114837e+00 -3.9043209566e-04 1.7866059877e+00 -3.0944923437e+00 1.7866059877e+00 3.0944923437e+00 
33300 6.2297116381e+00 -3.9173922783e-04 1.7866169143e+00 -3.0945112693e+00 1.7866169143e+00 3.0945112693e+00 
33400 6.2297117899e+00 -3.9301533787e-04 1.7866278775e+00 -3.0945302580e+00 1.7866278775e+00 3.0945302580e+00 
33500 6.2297119392e+00 -3.9424734330e-04 1.7866388763e+00 -3.0945493085e+00 1.7866388763e+00 3.0945493085e+00 
33600 6.2297120859e+00 -3.9542277336e-04 1.7866499095e+00 -3.0945684186e+00 1.7866499095e+00 3.0945684186e+00 
33700 6.2297122299e+00 -3.9652977437e-04 1.7866609756e+00 -3.0945875856e+00 1.7866609756e+00 3.0945875856e+00 
33800 6.2297123713e+00 -3.9755711389e-04 1.7866720725e+00 -3.0946068061e+00 1.7866720725e+00 3.0946068061e+00 
33900 6.2297125100e+00 -3.9849418335e-04 1.7866831982e+00 -3.0946260763e+00 1.7866831982e+00 3.0946260763e+00 
34000 6.2297126461e+00 -3.9933099956e-04 1.7866943500e+00 -3.0946453917e+00 1.7866943500e+00 3.0946453917e+00 
34100 6.2297127794e+00 -4.0005820475e-04 1.7867055251e+00 -3.0946647477e+00 1.7867055251e+00 3.0946647477e+00 
34200 6.2297129101e+00 -4.0066706555e-04 1.7867167205e+00 -3.0946841387e+00 1.7867167205e+00 3.0946841387e+00 
34300 6.2297130380e+00 -4.0114947064e-04 1.7867279329e+00 -3.0947035592e+00 1.7867279329e+00 3.0947035592e+00 
34400 6.2297131634e+00 -4.0149792727e-04 1.7867391588e+00 -3.0947230029e+00 1.7867391588e+00 3.0947230029e+00 
34500 6.2297132860e+00 -4.0170555674e-04 1.7867503943e+00 -3.0947424633e+00 1.7867503943e+00 3.0947424633e+00 
34600 6.2297134061e+00 -4.0176608870e-04 1.7867616355e+00 -3.0947619337e+00 1.7867616355e+00 3.0947619337e+00 
34700 6.2297135236e+00 -4.0167385444e-04 1.7867728784e+00 -3.0947814069e+00 1.7867728784e+00 3.0947814069e+00 
34800 6.2297136385e+00 -4.0142377927e-04 1.7867841186e+00 -3.0948008756e+00 1.7867841186e+00 3.0948008756e+00 
34900 6.2297137509e+00 -4.0101137384e-04 1.7867953517e+00 -3.0948203320e+00 1.7867953517e+00 3.0948203320e+00 
35000 6.2297138608e+00 -4.0043272462e-04 1.7868065733e+00 -3.0948397682e+00 1.7868065733e+00 3.0948397682e+00 
35100 6.2297139683e+00 -3.9968448354e-04 1.7868177786e+00 -3.0948591763e+00 1.7868177786e+00 3.0948591763e+00 
35200 6.2297140734e+00 -3.9876385679e-04 1.7868289628e+00 -3.0948785480e+00 1.7868289628e+00 3.0948785480e+00 
35300 6.2297141762e+00 -3.9766859283e-04 1.7868401213e+00 -3.0948978750e+00 1.7868401213e+00 3.0948978750e+00 
35400 6.2297142767e+00 -3.9639696978e-04 1.7868512490e+00 -3.0949171488e+00 1.7868512490e+00 3.0949171488e+00 
35500 6.2297143749e+00 -3.9494778200e-04 1.7868623410e+00 -3.0949363608e+00 1.7868623410e+00 3.0949363608e+00 
35600 6.2297144710e+00 -3.9332032621e-04 1.7868733925e+00 -3.0949555025e+00 1.7868733925e+00 3.0949555025e+00 
35700 6.2297145650e+00 -3.9151438686e-04 1.7868843983e+00 -3.0949745651e+00 1.7868843983e+00 3.0949745651e+00 
35800 6.2297146569e+00 -3.8953022108e-04 1.7868953536e+00 -3.0949935402e+00 1.7868953536e+00 3.0949935402e+00 
35900 6.2297147469e+00 -3.8736854315e-04 1.7869062532e+00 -3.0950124189e+00 1.7869062532e+00 3.0950124189e+00 
36000 6.2297148348e+00 -3.8503050843e-04 1.7869170923e+00 -3.0950311928e+00 1.7869170923e+00 3.0950311928e+00 
36100 6.2297149209e+00 -3.8251769698e-04 1.7869278659e+00 -3.0950498532e+00 1.7869278659e+00 3.0950498532e+00 
36200 6.2297150052e+00 -3.7983209683e-04 1.7869385691e+00 -3.0950683918e+00 1.7869385691e+00 3.0950683918e+00 
36300 6.2297150877e+00 -3.7697608684e-04 1.7869491972e+00 -3.0950868000e+00 1.7869491972e+00 3.0950868000e+00 
36400 6.2297151685e+00 -3.7395241945e-04 1.7869597452e+00 -3.0951050698e+00 1.7869597452e+00 3.0951050698e+00 
36500 6.2297152476e+00 -3.7076420304e-04 1.7869702086e+00 -3.0951231929e+00 1.7869702086e+00 3.0951231929e+00 
36600 6.2297153251e+00 -3.6741488426e-04 1.7869805827e+00 -3.0951411614e+00 1.7869805827e+00 3.0951411614e+00 
36700 6.2297154010e+00 -3.6390823007e-04 1.7869908630e+00 -3.0951589674e+00 1.7869908630e+00 3.0951589674e+00 
36800 6.2297154755e+00 -3.6024830984e-04 1.7870010452e+00 -3.0951766035e+00 1.7870010452e+00 3.0951766035e+00 
36900 6.2297155485e+00 -3.5643947723e-04 1.7870111249e+00 -3.0951940620e+00 1.7870111249e+00 3.0951940620e+00 
37000 6.2297156201e+00 -3.5248635214e-04 1.7870210980e+00 -3.0952113359e+00 1.7870210980e+00 3.0952113359e+00 
37100 6.2297156903e+00 -3.4839380266e-04 1.7870309604e+00 -3.0952284181e+00 1.7870309604e+00 3.0952284181e+00 
37200 6.2297157592e+00 -3.4416692702e-04 1.7870407082e+00 -3.0952453018e+00 1.7870407082e+00 3.0952453018e+00 
37300 6.2297158268e+00 -3.3981103569e-04 1.7870503378e+00 -3.0952619807e+00 1.7870503378e+00 3.0952619807e+00 
37400 6.2297158932e+00 -3.3533163353e-04 1.7870598454e+00 -3.0952784483e+00 1.7870598454e+00 3.0952784483e+00 
37500 6.2297159584e+00 -3.3073440212e-04 1.7870692276e+00 -3.0952946988e+00 1.7870692276e+00 3.0952946988e+00 
37600 6.2297160224e+00 -3.2602518226e-04 1.7870784811e+00 -3.0953107264e+00 1.7870784811e+00 3.0953107264e+00 
37700 6.2297160853e+00 -3.2120995670e-04 1.7870876029e+00 -3.0953265258e+00 1.7870876029e+00 3.0953265258e+00 
37800 6.2297161470e+00 -3.1629483305e-04 1.7870965899e+00 -3.0953420917e+00 1.7870965899e+00 3.0953420917e+00 
37900 6.2297162077e+00 -3.1128602700e-04 1.7871054393e+00 -3.0953574193e+00 1.7871054393e+00 3.0953574193e+00 
38000 6.2297162674e+00 -3.0618984583e-04 1.7871141485e+00 -3.0953725041e+00 1.7871141485e+00 3.0953725041e+00 
38100 6.2297163260e+00 -3.0101267219e-04 1.7871227151e+00 -3.0953873419e+00 1.7871227151e+00 3.0953873419e+00 
38200 6.2297163836e+00 -2.9576094825e-04 1.7871311368e+00 -3.0954019288e+00 1.7871311368e+00 3.0954019288e+00 
38300 6.2297164403e+00 -2.9044116021e-04 1.7871394116e+00 -3.0954162610e+00 1.7871394116e+00 3.0954162610e+00 
38400 6.2297164960e+00 -2.8505982319e-04 1.7871475374e+00 -3.0954303355e+00 1.7871475374e+00 3.0954303355e+00 
38500 6.2297165507e+00 -2.7962346643e-04 1.7871555127e+00 -3.0954441491e+00 1.7871555127e+00 3.0954441491e+00 
38600 6.2297166046e+00 -2.7413861910e-04 1.7871633359e+00 -3.0954576992e+00 1.7871633359e+00 3.0954576992e+00 
38700 6.2297166575e+00 -2.6861179628e-04 1.7871710055e+00 -3.0954709834e+00 1.7871710055e+00 3.0954709834e+00 
38800 6.2297167095e+00 -2.6304948566e-04 1.7871785205e+00 -3.0954839998e+00 1.7871785205e+00 3.0954839998e+00 
38900 6.2297167607e+00 -2.5745813444e-04 1.7871858799e+00 -3.0954967466e+00 1.7871858799e+00 3.0954967466e+00 
39000 6.2297168110e+00 -2.5184413692e-04 1.7871930828e+00 -3.0955092223e+00 1.7871930828e+00 3.0955092223e+00 
39100 6.2297168604e+00 -2.4621382242e-04 1.7872001286e+00 -3.0955214260e+00 1.7872001286e+00 3.0955214260e+00 
39200 6.2297169090e+00 -2.4057344379e-04 1.7872070169e+00 -3.0955333568e+00 1.7872070169e+00 3.0955333568e+00 
39300 6.2297169567e+00 -2.3492916634e-04 1.7872137473e+00 -3.0955450143e+00 1.7872137473e+00 3.0955450143e+00 
39400 6.2297170037e+00 -2.2928705735e-04 1.7872203198e+00 -3.0955563982e+00 1.7872203198e+00 3.0955563982e+00 
39500 6.2297170498e+00 -2.2365307605e-04 1.7872267344e+00 -3.0955675087e+00 1.7872267344e+00 3.0955675087e+00 
39600 6.2297170951e+00 -2.1803306414e-04 1.7872329914e+00 -3.0955783461e+00 1.7872329914e+00 3.0955783461e+00 
39700 6.2297171395e+00 -2.1243273680e-04 1.7872390912e+00 -3.0955889112e+00 1.7872390912e+00 3.0955889112e+00 
39800 6.2297171832e+00 -2.0685767429e-04 1.7872450342e+00 -3.0955992048e+00 1.7872450342e+00 3.0955992048e+00 
39900 6.2297172261e+00 -2.0131331399e-04 1.7872508213e+00 -3.0956092283e+00 1.7872508213e+00 3.0956092283e+00 
40000 6.2297172683e+00 -1.9580494305e-04 1.7872564532e+00 -3.0956189831e+00 1.7872564532e+00 3.0956189831e+00 
40100 6.2297173096e+00 -1.9033769148e-04 1.7872619310e+00 -3.0956284709e+00 1.7872619310e+00 3.0956284709e+00 
40200 6.2297173502e+00 -1.8491652587e-04 1.7872672558e+00 -3.0956376938e+00 1.7872672558e+00 3.0956376938e+00 
40300 6.2297173900e+00 -1.7954624351e-04 1.7872724290e+00 -3.0956466540e+00 1.7872724290e+00 3.0956466540e+00 
40400 6.2297174290e+00 -1.7423146713e-04 1.7872774519e+00 -3.0956553540e+00 1.7872774519e+00 3.0956553540e+00 
40500 6.2297174673e+00 -1.6897664010e-04 1.7872823261e+00 -3.0956637963e+00 1.7872823261e+00 3.0956637963e+00 
40600 6.2297175049e+00 -1.6378602212e-04 1.7872870533e+00 -3.0956719841e+00 1.7872870533e+00 3.0956719841e+00 
40700 6.2297175417e+00 -1.5866368545e-04 1.7872916353e+00 -3.0956799203e+00 1.7872916353e+00 3.0956799203e+00 
40800 6.2297175778e+00 -1.5361351164e-04 1.7872960740e+00 -3.0956876083e+00 1.7872960740e+00 3.0956876083e+00 
40900 6.2297176132e+00 -1.4863918870e-04 1.7873003714e+00 -3.0956950516e+00 1.7873003714e+00 3.0956950516e+00 
41000 6.2297176479e+00 -1.4374420875e-04 1.7873045296e+00 -3.0957022538e+00 1.7873045296e+00 3.0957022538e+00 
41100 6.2297176819e+00 -1.3893186620e-04 1.7873085508e+00 -3.0957092188e+00 1.7873085508e+00 3.0957092188e+00 
41200 6.2297177151e+00 -1.3420525629e-04 1.7873124374e+00 -3.0957159506e+00 1.7873124374e+00 3.0957159506e+00 
41300 6.2297177477e+00 -1.2956727415e-04 1.7873161918e+00 -3.0957224534e+00 1.7873161918e+00 3.0957224534e+00 
41400 6.2297177796e+00 -1.2502061428e-04 1.7873198165e+00 -3.0957287315e+00 1.7873198165e+00 3.0957287315e+00 
41500 6.2297178109e+00 -1.2056777040e-04 1.7873233139e+00 -3.0957347892e+00 1.7873233139e+00 3.0957347892e+00 
41600 6.2297178415e+00 -1.1621103578e-04 1.7873266868e+00 -3.0957406312e+00 1.7873266868e+00 3.0957406312e+00 
41700 6.2297178715e+00 -1.1195250394e-04 1.7873299377e+00 -3.0957462620e+00 1.7873299377e+00 3.0957462620e+00 
41800 6.2297179008e+00 -1.0779406969e-04 1.7873330696e+00 -3.0957516865e+00 1.7873330696e+00 3.0957516865e+00 
41900 6.2297179295e+00 -1.0373743063e-04 1.7873360851e+00 -3.0957569095e+00 1.7873360851e+00 3.0957569095e+00 
42000 6.2297179576e+00 -9.9784088894e-05 1.7873389871e+00 -3.0957619360e+00 1.7873389871e+00 3.0957619360e+00 
42100 6.2297179851e+00 -9.5935353359e-05 1.7873417785e+00 -3.0957667708e+00 1.7873417785e+00 3.0957667708e+00 
42200 6.2297180120e+00 -9.2192342062e-05 1.7873444622e+00 -3.0957714192e+00 1.7873444622e+00 3.0957714192e+00 
42300 6.2297180383e+00 -8.8555985019e-05 1.7873470413e+00 -3.0957758862e+00 1.7873470413e+00 3.0957758862e+00 
42400 6.2297180641e+00 -8.5027027278e-05 1.7873495186e+00 -3.0957801771e+00 1.7873495186e+00 3.0957801771e+00 
42500 6.2297180893e+00 -8.1606032309e-05 1.7873518972e+00 -3.0957842969e+00 1.7873518972e+00 3.0957842969e+00 
42600 6.2297181139e+00 -7.8293385614e-05 1.7873541800e+00 -3.0957882509e+00 1.7873541800e+00 3.0957882509e+00 
42700 6.2297181381e+00 -7.5089298611e-05 1.7873563702e+00 -3.0957920445e+00 1.7873563702e+00 3.0957920445e+00 
42800 6.2297181617e+00 -7.1993812757e-05 1.7873584708e+00 -3.0957956828e+00 1.7873584708e+00 3.0957956828e+00 
42900 6.2297181848e+00 -6.9006803874e-05 1.7873604848e+00 -3.0957991711e+00 1.7873604848e+00 3.0957991711e+00 
43000 6.2297182076e+00 -6.7797499423e-05 1.7873604848e+00 -3.0957991711e+00 1.7873604848e+00 3.0957991711e+00 
43100 6.2297182299e+00 -6.6635419303e-05 1.7873604848e+00 -3.0957991711e+00 1.7873604848e+00 3.0957991711e+00 
43200 6.2297182517e+00 -6.5522484119e-05 1.7873604848e+00 -3.0957991711e+00 1.7873604848e+00 3.0957991711e+00 
43300 6.2297182730e+00 -6.4460436239e-05 1.7873604848e+00 -3.0957991711e+00 1.7873604848e+00 3.0957991711e+00 
43400 6.2297182938e+00 -6.3450842490e-05 1.7873604848e+00 -3.0957991711e+00 1.7873604848e+00 3.0957991711e+00 
43500 6.2297183143e+00 -6.2495097134e-05 1.7873604848e+00 -3.0957991711e+00 1.7873604848e+00 3.0957991711e+00 
43600 6.2297183343e+00 -6.1594425091e-05 1.7873604848e+00 -3.0957991711e+00 1.7873604848e+00 3.0957991711e+00 
43700 6.2297183538e+00 -6.0749885391e-05 1.7873604848e+00 -3.0957991711e+00 1.7873604848e+00 3.0957991711e+00 
43800 6.2297183730e+00 -5.9962374858e-05 1.7873604848e+00 -3.0957991711e+00 1.7873604848e+00 3.0957991711e+00 
43900 6.2297183918e+00 -5.9232631990e-05 1.7873604848e+00 -3.0957991711e+00 1.7873604848e+00 3.0957991711e+00 
44000 6.2297184102e+00 -5.8561241026e-05 1.7873604848e+00 -3.0957991711e+00 1.7873604848e+00 3.0957991711e+00 
44100 6.2297184282e+00 -5.7948636186e-05 1.7873604848e+00 -3.0957991711e+00 1.7873604848e+00 3.0957991711e+00 
44200 6.2297184458e+00 -5.7395106077e-05 1.7873604848e+00 -3.0957991711e+00 1.7873604848e+00 3.0957991711e+00 
44300 6.2297184631e+00 -5.6900798224e-05 1.7873604848e+00 -3.0957991711e+00 1.7873604848e+00 3.0957991711e+00 
44400 6.2297184801e+00 -5.6465723753e-05 1.7873604848e+00 -3.0957991711e+00 1.7873604848e+00 3.0957991711e+00 
44500 6.2297184967e+00 -5.6089762162e-05 1.7873604848e+00 -3.0957991711e+00 1.7873604848e+00 3.0957991711e+00 
44600 6.2297185130e+00 -5.5772666214e-05 1.7873604848e+00 -3.0957991711e+00 1.7873604848e+00 3.0957991711e+00 
44700 6.2297185290e+00 -5.5514066901e-05 1.7873604848e+00 -3.0957991711e+00 1.7873604848e+00 3.0957991711e+00 
44800 6.2297185447e+00 -5.5313478491e-05 1.7873604848e+00 -3.0957991711e+00 1.7873604848e+00 3.0957991711e+00 
44900 6.2297185601e+00 -5.5170303624e-05 1.7873604848e+00 -3.0957991711e+00 1.7873604848e+00 3.0957991711e+00 
45000 6.2297185752e+00 -5.5083838468e-05 1.7873604848e+00 -3.0957991711e+00 1.7873604848e+00 3.0957991711e+00 
45100 6.2297185901e+00 -5.5053277900e-05 1.7873604848e+00 -3.0957991711e+00 1.7873604848e+00 3.0957991711e+00 
45200 6.2297186046e+00 -5.5077720716e-05 1.7873604848e+00 -3.0957991711e+00 1.7873604848e+00 3.0957991711e+00 
45300 6.2297186189e+00 -5.5156174849e-05 1.7873604848e+00 -3.0957991711e+00 1.7873604848e+00 3.0957991711e+00 
45400 6.2297186329e+00 -5.5287562594e-05 1.7873604848e+00 -3.0957991711e+00 1.7873604848e+00 3.0957991711e+00 
45500 6.2297186467e+00 -5.5470725814e-05 1.7873604848e+00 -3.0957991711e+00 1.7873604848e+00 3.0957991711e+00 
45600 6.2297186602e+00 -5.5704431135e-05 1.7873604848e+00 -3.0957991711e+00 1.7873604848e+00 3.0957991711e+00 
45700 6.2297186735e+00 -5.5987375103e-05 1.7873604848e+00 -3.0957991711e+00 1.7873604848e+00 3.0957991711e+00 
45800 6.2297186865e+00 -5.6318189312e-05 1.7873604848e+00 -3.0957991711e+00 1.7873604848e+00 3.0957991711e+00 
45900 6.2297186993e+00 -5.6695445471e-05 1.7873604848e+00 -3.0957991711e+00 1.7873604848e+00 3.0957991711e+00 
46000 6.2297187119e+00 -5.7117660429e-05 1.7873604848e+00 -3.0957991711e+00 1.7873604848e+00 3.0957991711e+00 
46100 6.2297187242e+00 -5.7583301117e-05 1.7873604848e+00 -3.0957991711e+00 1.7873604848e+00 3.0957991711e+00 
46200 6.2297187363e+00 -5.8090789438e-05 1.7873604848e+00 -3.0957991711e+00 1.7873604848e+00 3.0957991711e+00 
46300 6.2297187482e+00 -5.8638507061e-05 1.7873604848e+00 -3.0957991711e+00 1.7873604848e+00 3.0957991711e+00 
46400 6.2297187599e+00 -5.9224800136e-05 1.7873604848e+00 -3.0957991711e+00 1.7873604848e+00 3.0957991711e+00 
46500 6.2297187713e+00 -5.9847983913e-05 1.7873604848e+00 -3.0957991711e+00 1.7873604848e+00 3.0957991711e+00 
46600 6.2297187826e+00 -6.0506347266e-05 1.7873604848e+00 -3.0957991711e+00 1.7873604848e+00 3.0957991711e+00 
46700 6.2297187937e+00 -6.1198157103e-05 1.7873604848e+00 -3.0957991711e+00 1.7873604848e+00 3.0957991711e+00 
46800 6.2297188045e+00 -6.1921662683e-05 1.7873604848e+00 -3.0957991711e+00 1.7873604848e+00 3.0957991711e+00 
46900 6.2297188152e+00 -6.2675099795e-05 1.7873604848e+00 -3.0957991711e+00 1.7873604848e+00 3.0957991711e+00 
47000 6.2297188256e+00 -6.3456694840e-05 1.7873604848e+00 -3.0957991711e+00 1.7873604848e+00 3.0957991711e+00 
47100 6.2297188359e+00 -6.4264668779e-05 1.7873604848e+00 -3.0957991711e+00 1.7873604848e+00 3.0957991711e+00 
47200 6.2297188460e+00 -6.5097240951e-05 1.7873604848e+00 -3.0957991711e+00 1.7873604848e+00 3.0957991711e+00 
47300 6.2297188559e+00 -6.5952632770e-05 1.7873604848e+00 -3.0957991711e+00 1.7873604848e+00 3.0957991711e+00 
47400 6.2297188656e+00 -6.6829071289e-05 1.7873604848e+00 -3.0957991711e+00 1.7873604848e+00 3.0957991711e+00 
47500 6.2297188751e+00 -6.7724792616e-05 1.7873604848e+00 -3.0957991711e+00 1.7873604848e+00 3.0957991711e+00 
47600 6.2297188845e+00 -6.8638045208e-05 1.7873604848e+00 -3.0957991711e+00 1.7873604848e+00 3.0957991711e+00 
47700 6.2297188937e+00 -6.9567093018e-05 1.7873604848e+00 -3.0957991711e+00 1.7873604848e+00 3.0957991711e+00 
47800 6.2297189027e+00 -7.0510218503e-05 1.7873604848e+00 -3.0957991711e+00 1.7873604848e+00 3.0957991711e+00 
47900 6.2297189115e+00 -7.1465725492e-05 1.7873604848e+00 -3.0957991711e+00 1.7873604848e+00 3.0957991711e+00 
48000 6.2297189200e+00 -7.0702966219e-05 1.7873624840e+00 -3.0958026338e+00 1.7873624840e+00 3.0958026338e+00 
48100 6.2297189285e+00 -7.1668798144e-05 1.7873624840e+00 -3.0958026338e+00 1.7873624840e+00 3.0958026338e+00 
48200 6.2297189367e+00 -7.0907905383e-05 1.7873644889e+00 -3.0958061063e+00 1.7873644889e+00 3.0958061063e+00 
48300 6.2297189447e+00 -7.0161541225e-05 1.7873664724e+00 -3.0958095420e+00 1.7873664724e+00 3.0958095420e+00 
48400 6.2297189527e+00 -7.1125017195e-05 1.7873664724e+00 -3.0958095420e+00 1.7873664724e+00 3.0958095420e+00 
48500 6.2297189604e+00 -7.0369784555e-05 1.7873684621e+00 -3.0958129882e+00 1.7873684621e+00 3.0958129882e+00 
48600 6.2297189681e+00 -7.1326416572e-05 1.7873684621e+00 -3.0958129882e+00 1.7873684621e+00 3.0958129882e+00 
48700 6.2297189755e+00 -7.0556391256e-05 1.7873704574e+00 -3.0958164441e+00 1.7873704574e+00 3.0958164441e+00 
48800 6.2297189829e+00 -7.1500074089e-05 1.7873704574e+00 -3.0958164441e+00 1.7873704574e+00 3.0958164441e+00 
48900 6.2297189900e+00 -7.0710025416e-05 1.7873724575e+00 -3.0958199085e+00 1.7873724575e+00 3.0958199085e+00 
49000 6.2297189971e+00 -7.1635069702e-05 1.7873724575e+00 -3.0958199085e+00 1.7873724575e+00 3.0958199085e+00 
49100 6.2297190039e+00 -7.0820457519e-05 1.7873744615e+00 -3.0958233794e+00 1.7873744615e+00 3.0958233794e+00 
49200 6.2297190106e+00 -7.0008330982e-05 1.7873764426e+00 -3.0958268108e+00 1.7873764426e+00 3.0958268108e+00 
49300 6.2297190173e+00 -7.0891010140e-05 1.7873764426e+00 -3.0958268108e+00 1.7873764426e+00 3.0958268108e+00 
49400 6.2297190237e+00 -7.0048324992e-05 1.7873784257e+00 -3.0958302457e+00 1.7873784257e+00 3.0958302457e+00 
49500 6.2297190301e+00 -7.0899931384e-05 1.7873784257e+00 -3.0958302457e+00 1.7873784257e+00 3.0958302457e+00 
49600 6.2297190363e+00 -7.0023886857e-05 1.7873804090e+00 -3.0958336809e+00 1.7873804090e+00 3.0958336809e+00 
49700 6.2297190424e+00 -7.0840367967e-05 1.7873804090e+00 -3.0958336809e+00 1.7873804090e+00 3.0958336809e+00 
49800 6.2297190483e+00 -6.9928800132e-05 1.7873823907e+00 -3.0958371133e+00 1.7873823907e+00 3.0958371133e+00 
49900 6.2297190543e+00 -7.0706576710e-05 1.7873823907e+00 -3.0958371133e+00 1.7873823907e+00 3.0958371133e+00 
50000 6.2297190601e+00 -7.1468408738e-05 1.7873823907e+00 -3.0958371133e+00 1.7873823907e+00 3.0958371133e+00 
50100 6.2297190657e+00 -7.0484824112e-05 1.7873843900e+00 -3.0958405761e+00 1.7873843900e+00 3.0958405761e+00 
50200 6.2297190713e+00 -7.1203650408e-05 1.7873843900e+00 -3.0958405761e+00 1.7873843900e+00 3.0958405761e+00 
50300 6.2297190766e+00 -7.0182178998e-05 1.7873863818e+00 -3.0958440261e+00 1.7873863818e+00 3.0958440261e+00 
50400 6.2297190820e+00 -7.0855550815e-05 1.7873863818e+00 -3.0958440261e+00 1.7873863818e+00 3.0958440261e+00 
50500 6.2297190871e+00 -6.9795984982e-05 1.7873883639e+00 -3.0958474592e+00 1.7873883639e+00 3.0958474592e+00 
50600 6.2297190923e+00 -7.0421912534e-05 1.7873883639e+00 -3.0958474592e+00 1.7873883639e+00 3.0958474592e+00 
50700 6.2297190974e+00 -7.1028100775e-05 1.7873883639e+00 -3.0958474592e+00 1.7873883639e+00 3.0958474592e+00 
50800 6.2297191022e+00 -6.9896144327e-05 1.7873903508e+00 -3.0958509006e+00 1.7873903508e+00 3.0958509006e+00 
50900 6.2297191071e+00 -7.0452918610e-05 1.7873903508e+00 -3.0958509006e+00 1.7873903508e+00 3.0958509006e+00 
51000 6.2297191119e+00 -7.0989199038e-05 1.7873903508e+00 -3.0958509006e+00 1.7873903508e+00 3.0958509006e+00 
51100 6.2297191165e+00 -6.9787677416e-05 1.7873923367e+00 -3.0958543402e+00 1.7873923367e+00 3.0958543402e+00 
51200 6.2297191211e+00 -7.0273462338e-05 1.7873923367e+00 -3.0958543402e+00 1.7873923367e+00 3.0958543402e+00 
51300 6.2297191256e+00 -7.0738414743e-05 1.7873923367e+00 -3.0958543402e+00 1.7873923367e+00 3.0958543402e+00 
51400 6.2297191299e+00 -6.9471437844e-05 1.7873943155e+00 -3.0958577676e+00 1.7873943155e+00 3.0958577676e+00 
51500 6.2297191343e+00 -6.9885640259e-05 1.7873943155e+00 -3.0958577676e+00 1.7873943155e+00 3.0958577676e+00 
51600 6.2297191386e+00 -7.0279054706e-05 1.7873943155e+00 -3.0958577676e+00 1.7873943155e+00 3.0958577676e+00 
51700 6.2297191428e+00 -7.0651879275e-05 1.7873943155e+00 -3.0958577676e+00 1.7873943155e+00 3.0958577676e+00 
51800 6.2297191470e+00 -7.1004342346e-05 1.7873943155e+00 -3.0958577676e+00 1.7873943155e+00 3.0958577676e+00 
51900 6.2297191509e+00 -6.9619110125e-05 1.7873963017e+00 -3.0958612079e+00 1.7873963017e+00 3.0958612079e+00 
52000 6.2297191549e+00 -6.9922257292e-05 1.7873963017e+00 -3.0958612079e+00 1.7873963017e+00 3.0958612079e+00 
52100 6.2297191588e+00 -7.0205599569e-05 1.7873963017e+00 -3.0958612079e+00 1.7873963017e+00 3.0958612079e+00 
52200 6.2297191627e+00 -7.0469491465e-05 1.7873963017e+00 -3.0958612079e+00 1.7873963017e+00 3.0958612079e+00 
52300 6.2297191665e+00 -7.0714310335e-05 1.7873963017e+00 -3.0958612079e+00 1.7873963017e+00 3.0958612079e+00 
52400 6.2297191700e+00 -6.9229895964e-05 1.7873982799e+00 -3.0958646341e+00 1.7873982799e+00 3.0958646341e+00 
52500 6.2297191737e+00 -6.9428430729e-05 1.7873982799e+00 -3.0958646341e+00 1.7873982799e+00 3.0958646341e+00 
52600 6.2297191773e+00 -6.9608852295e-05 1.7873982799e+00 -3.0958646341e+00 1.7873982799e+00 3.0958646341e+00 
52700 6.2297191808e+00 -6.9771634100e-05 1.7873982799e+00 -3.0958646341e+00 1.7873982799e+00 3.0958646341e+00 
52800 6.2297191843e+00 -6.9917264966e-05 1.7873982799e+00 -3.0958646341e+00 1.7873982799e+00 3.0958646341e+00 
52900 6.2297191877e+00 -7.0046247575e-05 1.7873982799e+00 -3.0958646341e+00 1.7873982799e+00 3.0958646341e+00 
53000 6.2297191910e+00 -7.0159096973e-05 1.7873982799e+00 -3.0958646341e+00 1.7873982799e+00 3.0958646341e+00 
53100 6.2297191943e+00 -7.0256339106e-05 1.7873982799e+00 -3.0958646341e+00 1.7873982799e+00 3.0958646341e+00 
53200 6.2297191976e+00 -7.0338509391e-05 1.7873982799e+00 -3.0958646341e+00 1.7873982799e+00 3.0958646341e+00 
53300 6.2297192007e+00 -7.0406151315e-05 1.7873982799e+00 -3.0958646341e+00 1.7873982799e+00 3.0958646341e+00 
53400 6.2297192039e+00 -7.0459815074e-05 1.7873982799e+00 -3.0958646341e+00 1.7873982799e+00 3.0958646341e+00 
53500 6.2297192069e+00 -7.0500056236e-05 1.7873982799e+00 -3.0958646341e+00 1.7873982799e+00 3.0958646341e+00 
53600 6.2297192099e+00 -7.0527434469e-05 1.7873982799e+00 -3.0958646341e+00 1.7873982799e+00 3.0958646341e+00 
53700 6.2297192129e+00 -7.0542512273e-05 1.7873982799e+00 -3.0958646341e+00 1.7873982799e+00 3.0958646341e+00 
53800 6.2297192158e+00 -7.0545853777e-05 1.7873982799e+00 -3.0958646341e+00 1.7873982799e+00 3.0958646341e+00 
53900 6.2297192187e+00 -7.0538023567e-05 1.7873982799e+00 -3.0958646341e+00 1.7873982799e+00 3.0958646341e+00 
54000 6.2297192215e+00 -7.0519585555e-05 1.7873982799e+00 -3.0958646341e+00 1.7873982799e+00 3.0958646341e+00 
54100 6.2297192242e+00 -7.0491101891e-05 1.7873982799e+00 -3.0958646341e+00 1.7873982799e+00 3.0958646341e+00 
54200 6.2297192269e+00 -7.0453131917e-05 1.7873982799e+00 -3.0958646341e+00 1.7873982799e+00 3.0958646341e+00 
54300 6.2297192296e+00 -7.0406231173e-05 1.7873982799e+00 -3.0958646341e+00 1.7873982799e+00 3.0958646341e+00 
54400 6.2297192322e+00 -7.0350950427e-05 1.7873982799e+00 -3.0958646341e+00 1.7873982799e+00 3.0958646341e+00 
54500 6.2297192348e+00 -7.0287834771e-05 1.7873982799e+00 -3.0958646341e+00 1.7873982799e+00 3.0958646341e+00 
54600 6.2297192373e+00 -7.0217422747e-05 1.7873982799e+00 -3.0958646341e+00 1.7873982799e+00 3.0958646341e+00 
54700 6.2297192398e+00 -7.0140245520e-05 1.7873982799e+00 -3.0958646341e+00 1.7873982799e+00 3.0958646341e+00 
54800 6.2297192422e+00 -7.0056826095e-05 1.7873982799e+00 -3.0958646341e+00 1.7873982799e+00 3.0958646341e+00 
54900 6.2297192446e+00 -6.9967678585e-05 1.7873982799e+00 -3.0958646341e+00 1.7873982799e+00 3.0958646341e+00 
55000 6.2297192470e+00 -6.9873307517e-05 1.7873982799e+00 -3.0958646341e+00 1.7873982799e+00 3.0958646341e+00 
55100 6.2297192493e+00 -6.9774207179e-05 1.7873982799e+00 -3.0958646341e+00 1.7873982799e+00 3.0958646341e+00 
55200 6.2297192516e+00 -6.9670861014e-05 1.7873982799e+00 -3.0958646341e+00 1.7873982799e+00 3.0958646341e+00 
55300 6.2297192538e+00 -6.9563741062e-05 1.7873982799e+00 -3.0958646341e+00 1.7873982799e+00 3.0958646341e+00 
55400 6.2297192560e+00 -6.9453307438e-05 1.7873982799e+00 -3.0958646341e+00 1.7873982799e+00 3.0958646341e+00 
55500 6.2297192581e+00 -6.9340007854e-05 1.7873982799e+00 -3.0958646341e+00 1.7873982799e+00 3.0958646341e+00 
55600 6.2297192603e+00 -6.9224277186e-05 1.7873982799e+00 -3.0958646341e+00 1.7873982799e+00 3.0958646341e+00 
55700 6.2297192623e+00 -6.9106537079e-05 1.7873982799e+00 -3.0958646341e+00 1.7873982799e+00 3.0958646341e+00 
55800 6.2297192644e+00 -6.8987195588e-05 1.7873982799e+00 -3.0958646341e+00 1.7873982799e+00 3.0958646341e+00 
55900 6.2297192664e+00 -6.8866646874e-05 1.7873982799e+00 -3.0958646341e+00 1.7873982799e+00 3.0958646341e+00 
56000 6.2297192684e+00 -6.8745270923e-05 1.7873982799e+00 -3.0958646341e+00 1.7873982799e+00 3.0958646341e+00 
56100 6.2297192703e+00 -6.8623433305e-05 1.7873982799e+00 -3.0958646341e+00 1.7873982799e+00 3.0958646341e+00 
56200 6.2297192722e+00 -6.8501484984e-05 1.7873982799e+00 -3.0958646341e+00 1.7873982799e+00 3.0958646341e+00 
56300 6.2297192741e+00 -6.8379762147e-05 1.7873982799e+00 -3.0958646341e+00 1.7873982799e+00 3.0958646341e+00 
56400 6.2297192759e+00 -6.8258586080e-05 1.7873982799e+00 -3.0958646341e+00 1.7873982799e+00 3.0958646341e+00 
56500 6.2297192777e+00 -6.8138263073e-05 1.7873982799e+00 -3.0958646341e+00 1.7873982799e+00 3.0958646341e+00 
56600 6.2297192795e+00 -6.8019084361e-05 1.7873982799e+00 -3.0958646341e+00 1.7873982799e+00 3.0958646341e+00 
56700 6.2297192813e+00 -6.7901326092e-05 1.7873982799e+00 -3.0958646341e+00 1.7873982799e+00 3.0958646341e+00 
56800 6.2297192830e+00 -6.7785249337e-05 1.7873982799e+00 -3.0958646341e+00 1.7873982799e+00 3.0958646341e+00 
56900 6.2297192847e+00 -6.7671100119e-05 1.7873982799e+00 -3.0958646341e+00 1.7873982799e+00 3.0958646341e+00 
57000 6.2297192863e+00 -6.7559109471e-05 1.7873982799e+00 -3.0958646341e+00 1.7873982799e+00 3.0958646341e+00 
57100 6.2297192879e+00 -6.7449493541e-05 1.7873982799e+00 -3.0958646341e+00 1.7873982799e+00 3.0958646341e+00 
57200 6.2297192895e+00 -6.7342453692e-05 1.7873982799e+00 -3.0958646341e+00 1.7873982799e+00 3.0958646341e+00 
57300 6.2297192911e+00 -6.7238176656e-05 1.7873982799e+00 -3.0958646341e+00 1.7873982799e+00 3.0958646341e+00 
57400 6.2297192927e+00 -6.7136834693e-05 1.7873982799e+00 -3.0958646341e+00 1.7873982799e+00 3.0958646341e+00 
57500 6.2297192942e+00 -6.7038585787e-05 1.7873982799e+00 -3.0958646341e+00 1.7873982799e+00 3.0958646341e+00 
57600 6.2297192957e+00 -6.6943573853e-05 1.7873982799e+00 -3.0958646341e+00 1.7873982799e+00 3.0958646341e+00 
57700 6.2297192971e+00 -6.6851928973e-05 1.7873982799e+00 -3.0958646341e+00 1.7873982799e+00 3.0958646341e+00 
57800 6.2297192986e+00 -6.6763767647e-05 1.7873982799e+00 -3.0958646341e+00 1.7873982799e+00 3.0958646341e+00 
57900 6.2297193000e+00 -6.6679193062e-05 1.7873982799e+00 -3.0958646341e+00 1.7873982799e+00 3.0958646341e+00 
58000 6.2297193014e+00 -6.6598295381e-05 1.7873982799e+00 -3.0958646341e+00 1.7873982799e+00 3.0958646341e+00 
58100 6.2297193028e+00 -6.6521152048e-05 1.7873982799e+00 -3.0958646341e+00 1.7873982799e+00 3.0958646341e+00 
58200 6.2297193041e+00 -6.6447828102e-05 1.7873982799e+00 -3.0958646341e+00 1.7873982799e+00 3.0958646341e+00 
58300 6.2297193055e+00 -6.6378376514e-05 1.7873982799e+00 -3.0958646341e+00 1.7873982799e+00 3.0958646341e+00 
58400 6.2297193068e+00 -6.6312838530e-05 1.7873982799e+00 -3.0958646341e+00 1.7873982799e+00 3.0958646341e+00 
58500 6.2297193080e+00 -6.6251244023e-05 1.7873982799e+00 -3.0958646341e+00 1.7873982799e+00 3.0958646341e+00 
58600 6.2297193093e+00 -6.6193611866e-05 1.7873982799e+00 -3.0958646341e+00 1.7873982799e+00 3.0958646341e+00 
58700 6.2297193105e+00 -6.6139950306e-05 1.7873982799e+00 -3.0958646341e+00 1.7873982799e+00 3.0958646341e+00 
58800 6.2297193118e+00 -6.6090257340e-05 1.7873982799e+00 -3.0958646341e+00 1.7873982799e+00 3.0958646341e+00 
58900 6.2297193130e+00 -6.6044521118e-05 1.7873982799e+00 -3.0958646341e+00 1.7873982799e+00 3.0958646341e+00 
59000 6.2297193141e+00 -6.6002720330e-05 1.7873982799e+00 -3.0958646341e+00 1.7873982799e+00 3.0958646341e+00 
59100 6.2297193153e+00 -6.5964824610e-05 1.7873982799e+00 -3.0958646341e+00 1.7873982799e+00 3.0958646341e+00 
59200 6.2297193164e+00 -6.5930794948e-05 1.7873982799e+00 -3.0958646341e+00 1.7873982799e+00 3.0958646341e+00 
59300 6.2297193176e+00 -6.5900584086e-05 1.7873982799e+00 -3.0958646341e+00 1.7873982799e+00 3.0958646341e+00 
59400 6.2297193187e+00 -6.5874136944e-05 1.7873982799e+00 -3.0958646341e+00 1.7873982799e+00 3.0958646341e+00 
59500 6.2297193198e+00 -6.5851391022e-05 1.7873982799e+00 -3.0958646341e+00 1.7873982799e+00 3.0958646341e+00 
59600 6.2297193208e+00 -6.5832276814e-05 1.7873982799e+00 -3.0958646341e+00 1.7873982799e+00 3.0958646341e+00 
59700 6.2297193219e+00 -6.5816718227e-05 1.7873982799e+00 -3.0958646341e+00 1.7873982799e+00 3.0958646341e+00 
59800 6.2297193229e+00 -6.5804632980e-05 1.7873982799e+00 -3.0958646341e+00 1.7873982799e+00 3.0958646341e+00 
59900 6.2297193239e+00 -6.5795933026e-05 1.7873982799e+00 -3.0958646341e+00 1.7873982799e+00 3.0958646341e+00 
60000 6.2297193249e+00 -6.5790524949e-05 1.7873982799e+00 -3.0958646341e+00 1.7873982799e+00 3.0958646341e+00 
60100 6.2297193259e+00 -6.5788310371e-05 1.7873982799e+00 -3.0958646341e+00 1.7873982799e+00 3.0958646341e+00 
60200 6.2297193269e+00 -6.5789186347e-05 1.7873982799e+00 -3.0958646341e+00 1.7873982799e+00 3.0958646341e+00 
60300 6.2297193278e+00 -6.5793045763e-05 1.7873982799e+00 -3.0958646341e+00 1.7873982799e+00 3.0958646341e+00 
60400 6.2297193288e+00 -6.5799777720e-05 1.7873982799e+00 -3.0958646341e+00 1.7873982799e+00 3.0958646341e+00 
60500 6.2297193297e+00 -6.5809267918e-05 1.7873982799e+00 -3.0958646341e+00 1.7873982799e+00 3.0958646341e+00 
60600 6.2297193306e+00 -6.5821399033e-05 1.7873982799e+00 -3.0958646341e+00 1.7873982799e+00 3.0958646341e+00 
60700 6.2297193315e+00 -6.5836051081e-05 1.7873982799e+00 -3.0958646341e+00 1.7873982799e+00 3.0958646341e+00 
60800 6.2297193324e+00 -6.5853101779e-05 1.7873982799e+00 -3.0958646341e+00 1.7873982799e+00 3.0958646341e+00 
60900 6.2297193333e+00 -6.5872426909e-05 1.7873982799e+00 -3.0958646341e+00 1.7873982799e+00 3.0958646341e+00 
61000 6.2297193341e+00 -6.5893900642e-05 1.7873982799e+00 -3.0958646341e+00 1.7873982799e+00 3.0958646341e+00 
61100 6.2297193349e+00 -6.5917395888e-05 1.7873982799e+00 -3.0958646341e+00 1.7873982799e+00 3.0958646341e+00 
61200 6.2297193358e+00 -6.5942784617e-05 1.7873982799e+00 -3.0958646341e+00 1.7873982799e+00 3.0958646341e+00 
61300 6.2297193366e+00 -6.5969938178e-05 1.7873982799e+00 -3.0958646341e+00 1.7873982799e+00 3.0958646341e+00 
61400 6.2297193374e+00 -6.5998727599e-05 1.7873982799e+00 -3.0958646341e+00 1.7873982799e+00 3.0958646341e+00 
61500 6.2297193382e+00 -6.6029023891e-05 1.7873982799e+00 -3.0958646341e+00 1.7873982799e+00 3.0958646341e+00 
61600 6.2297193389e+00 -6.6060698329e-05 1.7873982799e+00 -3.0958646341e+00 1.7873982799e+00 3.0958646341e+00 
61700 6.2297193397e+00 -6.6093622727e-05 1.7873982799e+00 -3.0958646341e+00 1.7873982799e+00 3.0958646341e+00 
61800 6.2297193405e+00 -6.6127669703e-05 1.7873982799e+00 -3.0958646341e+00 1.7873982799e+00 3.0958646341e+00 
61900 6.2297193412e+00 -6.6162712934e-05 1.7873982799e+00 -3.0958646341e+00 1.7873982799e+00 3.0958646341e+00 
62000 6.2297193419e+00 -6.6198627396e-05 1.7873982799e+00 -3.0958646341e+00 1.7873982799e+00 3.0958646341e+00 
62100 6.2297193426e+00 -6.6235289591e-05 1.7873982799e+00 -3.0958646341e+00 1.7873982799e+00 3.0958646341e+00 
62200 6.2297193433e+00 -6.6272577781e-05 1.7873982799e+00 -3.0958646341e+00 1.7873982799e+00 3.0958646341e+00 
62300 6.2297193440e+00 -6.6310372177e-05 1.7873982799e+00 -3.0958646341e+00 1.7873982799e+00 3.0958646341e+00 
62400 6.2297193447e+00 -6.6348555154e-05 1.7873982799e+00 -3.0958646341e+00 1.7873982799e+00 3.0958646341e+00 
62500 6.2297193454e+00 -6.6387011418e-05 1.7873982799e+00 -3.0958646341e+00 1.7873982799e+00 3.0958646341e+00 
62600 6.2297193460e+00 -6.6425628200e-05 1.7873982799e+00 -3.0958646341e+00 1.7873982799e+00 3.0958646341e+00 
62700 6.2297193467e+00 -6.6464295403e-05 1.7873982799e+00 -3.0958646341e+00 1.7873982799e+00 3.0958646341e+00 
62800 6.2297193473e+00 -6.6502905761e-05 1.7873982799e+00 -3.0958646341e+00 1.7873982799e+00 3.0958646341e+00 
62900 6.2297193480e+00 -6.6541354980e-05 1.7873982799e+00 -3.0958646341e+00 1.7873982799e+00 3.0958646341e+00 
63000 6.2297193486e+00 -6.6579541870e-05 1.7873982799e+00 -3.0958646341e+00 1.7873982799e+00 3.0958646341e+00 
63100 6.2297193492e+00 -6.6617368451e-05 1.7873982799e+00 -3.0958646341e+00 1.7873982799e+00 3.0958646341e+00 
63200 6.2297193498e+00 -6.6654740073e-05 1.7873982799e+00 -3.0958646341e+00 1.7873982799e+00 3.0958646341e+00 
63300 6.2297193504e+00 -6.6691565514e-05 1.7873982799e+00 -3.0958646341e+00 1.7873982799e+00 3.0958646341e+00 
63400 6.2297193510e+00 -6.6727757054e-05 1.7873982799e+00 -3.0958646341e+00 1.7873982799e+00 3.0958646341e+00 
63500 6.2297193515e+00 -6.6763230567e-05 1.7873982799e+00 -3.0958646341e+00 1.7873982799e+00 3.0958646341e+00 
63600 6.2297193521e+00 -6.6797905573e-05 1.7873982799e+00 -3.0958646341e+00 1.7873982799e+00 3.0958646341e+00 
63700 6.2297193526e+00 -6.6831705310e-05 1.7873982799e+00 -3.0958646341e+00 1.7873982799e+00 3.0958646341e+00 
63800 6.2297193532e+00 -6.6864556768e-05 1.7873982799e+00 -3.0958646341e+00 1.7873982799e+00 3.0958646341e+00 
63900 6.2297193537e+00 -6.6896390727e-05 1.7873982799e+00 -3.0958646341e+00 1.7873982799e+00 3.0958646341e+00 
64000 6.2297193543e+00 -6.6927141793e-05 1.7873982799e+00 -3.0958646341e+00 1.7873982799e+00 3.0958646341e+00 
64100 6.2297193548e+00 -6.6956748413e-05 1.7873982799e+00 -3.0958646341e+00 1.7873982799e+00 3.0958646341e+00 
64200 6.2297193553e+00 -6.6985152886e-05 1.7873982799e+00 -3.0958646341e+00 1.7873982799e+00 3.0958646341e+00 
64300 6.2297193558e+00 -6.7012301367e-05 1.7873982799e+00 -3.0958646341e+00 1.7873982799e+00 3.0958646341e+00 
64400 6.2297193563e+00 -6.7038143856e-05 1.7873982799e+00 -3.0958646341e+00 1.7873982799e+00 3.0958646341e+00 
64500 6.2297193568e+00 -6.7062634192e-05 1.7873982799e+00 -3.0958646341e+00 1.7873982799e+00 3.0958646341e+00 
64600 6.2297193573e+00 -6.7085730027e-05 1.7873982799e+00 -3.0958646341e+00 1.7873982799e+00 3.0958646341e+00 
64700 6.2297193577e+00 -6.7107392804e-05 1.7873982799e+00 -3.0958646341e+00 1.7873982799e+00 3.0958646341e+00 
64800 6.2297193582e+00 -6.7127587710e-05 1.7873982799e+00 -3.0958646341e+00 1.7873982799e+00 3.0958646341e+00 
64900 6.2297193587e+00 -6.7146283649e-05 1.7873982799e+00 -3.0958646341e+00 1.7873982799e+00 3.0958646341e+00 
65000 6.2297193591e+00 -6.7163453185e-05 1.7873982799e+00 -3.0958646341e+00 1.7873982799e+00 3.0958646341e+00 
65100 6.2297193596e+00 -6.7179072490e-05 1.7873982799e+00 -3.0958646341e+00 1.7873982799e+00 3.0958646341e+00 
65200 6.2297193600e+00 -6.7193121286e-05 1.7873982799e+00 -3.0958646341e+00 1.7873982799e+00 3.0958646341e+00 
65300 6.2297193604e+00 -6.7205582781e-05 1.7873982799e+00 -3.0958646341e+00 1.7873982799e+00 3.0958646341e+00 
65400 6.2297193609e+00 -6.7216443597e-05 1.7873982799e+00 -3.0958646341e+00 1.7873982799e+00 3.0958646341e+00 
65500 6.2297193613e+00 -6.7225693695e-05 1.7873982799e+00 -3.0958646341e+00 1.7873982799e+00 3.0958646341e+00 
65600 6.2297193617e+00 -6.7233326302e-05 1.7873982799e+00 -3.0958646341e+00 1.7873982799e+00 3.0958646341e+00 
65700 6.2297193621e+00 -6.7239337821e-05 1.7873982799e+00 -3.0958646341e+00 1.7873982799e+00 3.0958646341e+00 
65800 6.2297193625e+00 -6.7243727749e-05 1.7873982799e+00 -3.0958646341e+00 1.7873982799e+00 3.0958646341e+00 
65900 6.2297193629e+00 -6.7246498582e-05 1.7873982799e+00 -3.0958646341e+00 1.7873982799e+00 3.0958646341e+00 
66000 6.2297193633e+00 -6.7247655730e-05 1.7873982799e+00 -3.0958646341e+00 1.7873982799e+00 3.0958646341e+00 
66100 6.2297193637e+00 -6.7247207414e-05 1.7873982799e+00 -3.0958646341e+00 1.7873982799e+00 3.0958646341e+00 
66200 6.2297193640e+00 -6.7245164568e-05 1.7873982799e+00 -3.0958646341e+00 1.7873982799e+00 3.0958646341e+00 
66300 6.2297193644e+00 -6.7241540743e-05 1.7873982799e+00 -3.0958646341e+00 1.7873982799e+00 3.0958646341e+00 
66400 6.2297193648e+00 -6.7236351997e-05 1.7873982799e+00 -3.0958646341e+00 1.7873982799e+00 3.0958646341e+00 
66500 6.2297193651e+00 -6.7229616794e-05 1.7873982799e+00 -3.0958646341e+00 1.7873982799e+00 3.0958646341e+00 
66600 6.2297193655e+00 -6.7221355899e-05 1.7873982799e+00 -3.0958646341e+00 1.7873982799e+00 3.0958646341e+00 
66700 6.2297193658e+00 -6.7211592269e-05 1.7873982799e+00 -3.0958646341e+00 1.7873982799e+00 3.0958646341e+00 
66800 6.2297193662e+00 -6.7200350940e-05 1.7873982799e+00 -3.0958646341e+00 1.7873982799e+00 3.0958646341e+00 
66900 6.2297193665e+00 -6.7187658932e-05 1.7873982799e+00 -3.0958646341e+00 1.7873982799e+00 3.0958646341e+00 
67000 6.2297193668e+00 -6.7173545123e-05 1.7873982799e+00 -3.0958646341e+00 1.7873982799e+00 3.0958646341e+00 
67100 6.2297193672e+00 -6.7158040146e-05 1.7873982799e+00 -3.0958646341e+00 1.7873982799e+00 3.0958646341e+00 
67200 6.2297193675e+00 -6.7141176285e-05 1.7873982799e+00 -3.0958646341e+00 1.7873982799e+00 3.0958646341e+00 
67300 6.2297193678e+00 -6.7122987355e-05 1.7873982799e+00 -3.0958646341e+00 1.7873982799e+00 3.0958646341e+00 
67400 6.2297193681e+00 -6.7103508603e-05 1.7873982799e+00 -3.0958646341e+00 1.7873982799e+00 3.0958646341e+00 
67500 6.2297193684e+00 -6.7082776592e-05 1.7873982799e+00 -3.0958646341e+00 1.7873982799e+00 3.0958646341e+00 
67600 6.2297193687e+00 -6.7060829095e-05 1.7873982799e+00 -3.0958646341e+00 1.7873982799e+00 3.0958646341e+00 
67700 6.2297193690e+00 -6.7037704995e-05 1.7873982799e+00 -3.0958646341e+00 1.7873982799e+00 3.0958646341e+00 
67800 6.2297193693e+00 -6.7013444172e-05 1.7873982799e+00 -3.0958646341e+00 1.7873982799e+00 3.0958646341e+00 
67900 6.2297193696e+00 -6.6988087401e-05 1.7873982799e+00 -3.0958646341e+00 1.7873982799e+00 3.0958646341e+00 
68000 6.2297193699e+00 -6.6961676252e-05 1.7873982799e+00 -3.0958646341e+00 1.7873982799e+00 3.0958646341e+00 
68100 6.2297193702e+00 -6.6934252986e-05 1.7873982799e+00 -3.0958646341e+00 1.7873982799e+00 3.0958646341e+00 
68200 6.2297193705e+00 -6.6905860460e-05 1.7873982799e+00 -3.0958646341e+00 1.7873982799e+00 3.0958646341e+00 
68300 6.2297193708e+00 -6.6876542028e-05 1.7873982799e+00 -3.0958646341e+00 1.7873982799e+00 3.0958646341e+00 
68400 6.2297193710e+00 -6.6846341445e-05 1.7873982799e+00 -3.0958646341e+00 1.7873982799e+00 3.0958646341e+00 
68500 6.2297193713e+00 -6.6815302779e-05 1.7873982799e+00 -3.0958646341e+00 1.7873982799e+00 3.0958646341e+00 
68600 6.2297193716e+00 -6.6783470313e-05 1.7873982799e+00 -3.0958646341e+00 1.7873982799e+00 3.0958646341e+00 
68700 6.2297193718e+00 -6.6750888466e-05 1.7873982799e+00 -3.0958646341e+00 1.7873982799e+00 3.0958646341e+00 
68800 6.2297193721e+00 -6.6717601704e-05 1.7873982799e+00 -3.0958646341e+00 1.7873982799e+00 3.0958646341e+00 
68900 6.2297193723e+00 -6.6683654456e-05 1.7873982799e+00 -3.0958646341e+00 1.7873982799e+00 3.0958646341e+00 
69000 6.2297193726e+00 -6.6649091033e-05 1.7873982799e+00 -3.0958646341e+00 1.7873982799e+00 3.0958646341e+00 
69100 6.2297193728e+00 -6.6613955560e-05 1.7873982799e+00 -3.0958646341e+00 1.7873982799e+00 3.0958646341e+00 
69200 6.2297193730e+00 -6.6578291888e-05 1.7873982799e+00 -3.0958646341e+00 1.7873982799e+00 3.0958646341e+00 
69300 6.2297193733e+00 -6.6542143533e-05 1.7873982799e+00 -3.0958646341e+00 1.7873982799e+00 3.0958646341e+00 
69400 6.2297193735e+00 -6.6505553605e-05 1.7873982799e+00 -3.0958646341e+00 1.7873982799e+00 3.0958646341e+00 
69500 6.2297193737e+00 -6.6468564740e-05 1.7873982799e+00 -3.0958646341e+00 1.7873982799e+00 3.0958646341e+00 
69600 6.2297193740e+00 -6.6431219038e-05 1.7873982799e+00 -3.0958646341e+00 1.7873982799e+00 3.0958646341e+00 
69700 6.2297193742e+00 -6.6393558007e-05 1.7873982799e+00 -3.0958646341e+00 1.7873982799e+00 3.0958646341e+00 
69800 6.2297193744e+00 -6.6355622502e-05 1.7873982799e+00 -3.0958646341e+00 1.7873982799e+00 3.0958646341e+00 
69900 6.2297193746e+00 -6.6317452673e-05 1.7873982799e+00 -3.0958646341e+00 1.7873982799e+00 3.0958646341e+00 
70000 6.2297193748e+00 -6.6279087919e-05 1.7873982799e+00 -3.0958646341e+00 1.7873982799e+00 3.0958646341e+00 
70100 6.2297193751e+00 -6.6240566831e-05 1.7873982799e+00 -3.0958646341e+00 1.7873982799e+00 3.0958646341e+00 
70200 6.2297193753e+00 -6.6201927160e-05 1.7873982799e+00 -3.0958646341e+00 1.7873982799e+00 3.0958646341e+00 
70300 6.2297193755e+00 -6.6163205762e-05 1.7873982799e+00 -3.0958646341e+00 1.7873982799e+00 3.0958646341e+00 
70400 6.2297193757e+00 -6.6124438575e-05 1.7873982799e+00 -3.0958646341e+00 1.7873982799e+00 3.0958646341e+00 
70500 6.2297193759e+00 -6.6085660568e-05 1.7873982799e+00 -3.0958646341e+00 1.7873982799e+00 3.0958646341e+00 
70600 6.2297193761e+00 -6.6046905720e-05 1.7873982799e+00 -3.0958646341e+00 1.7873982799e+00 3.0958646341e+00 
70700 6.2297193763e+00 -6.6008206985e-05 1.7873982799e+00 -3.0958646341e+00 1.7873982799e+00 3.0958646341e+00 
70800 6.2297193764e+00 -6.5969596274e-05 1.7873982799e+00 -3.0958646341e+00 1.7873982799e+00 3.0958646341e+00 
70900 6.2297193766e+00 -6.5931104416e-05 1.7873982799e+00 -3.0958646341e+00 1.7873982799e+00 3.0958646341e+00 
71000 6.2297193768e+00 -6.5892761149e-05 1.7873982799e+00 -3.0958646341e+00 1.7873982799e+00 3.0958646341e+00 
71100 6.2297193770e+00 -6.5854595100e-05 1.7873982799e+00 -3.0958646341e+00 1.7873982799e+00 3.0958646341e+00 
71200 6.2297193772e+00 -6.5816633769e-05 1.7873982799e+00 -3.0958646341e+00 1.7873982799e+00 3.0958646341e+00 
71300 6.2297193773e+00 -6.5778903511e-05 1.7873982799e+00 -3.0958646341e+00 1.7873982799e+00 3.0958646341e+00 
71400 6.2297193775e+00 -6.5741429535e-05 1.7873982799e+00 -3.0958646341e+00 1.7873982799e+00 3.0958646341e+00 
71500 6.2297193777e+00 -6.5704235885e-05 1.7873982799e+00 -3.0958646341e+00 1.7873982799e+00 3.0958646341e+00 
71600 6.2297193779e+00 -6.5667345450e-05 1.7873982799e+00 -3.0958646341e+00 1.7873982799e+00 3.0958646341e+00 
71700 6.2297193780e+00 -6.5630779945e-05 1.7873982799e+00 -3.0958646341e+00 1.7873982799e+00 3.0958646341e+00 
71800 6.2297193782e+00 -6.5594559918e-05 1.7873982799e+00 -3.0958646341e+00 1.7873982799e+00 3.0958646341e+00 
71900 6.2297193784e+00 -6.5558704754e-05 1.7873982799e+00 -3.0958646341e+00 1.7873982799e+00 3.0958646341e+00 
72000 6.2297193785e+00 -6.5523232672e-05 1.7873982799e+00 -3.0958646341e+00 1.7873982799e+00 3.0958646341e+00 
72100 6.2297193787e+00 -6.5488160737e-05 1.7873982799e+00 -3.0958646341e+00 1.7873982799e+00 3.0958646341e+00 
72200 6.2297193788e+00 -6.5453504864e-05 1.7873982799e+00 -3.0958646341e+00 1.7873982799e+00 3.0958646341e+00 
72300 6.2297193790e+00 -6.5419279827e-05 1.7873982799e+00 -3.0958646341e+00 1.7873982799e+00 3.0958646341e+00 
72400 6.2297193791e+00 -6.5385499273e-05 1.7873982799e+00 -3.0958646341e+00 1.7873982799e+00 3.0958646341e+00 
72500 6.2297193793e+00 -6.5352175735e-05 1.7873982799e+00 -3.0958646341e+00 1.7873982799e+00 3.0958646341e+00 
72600 6.2297193794e+00 -6.5319320645e-05 1.7873982799e+00 -3.0958646341e+00 1.7873982799e+00 3.0958646341e+00 
72700 6.2297193796e+00 -6.5286944351e-05 1.7873982799e+00 -3.0958646341e+00 1.7873982799e+00 3.0958646341e+00 
72800 6.2297193797e+00 -6.5255056138e-05 1.7873982799e+00 -3.0958646341e+00 1.7873982799e+00 3.0958646341e+00 
72900 6.2297193798e+00 -6.5223664239e-05 1.7873982799e+00 -3.0958646341e+00 1.7873982799e+00 3.0958646341e+00 
73000 6.2297193800e+00 -6.5192775866e-05 1.7873982799e+00 -3.0958646341e+00 1.7873982799e+00 3.0958646341e+00 
73100 6.2297193801e+00 -6.5162397226e-05 1.7873982799e+00 -3.0958646341e+00 1.7873982799e+00 3.0958646341e+00 
73200 6.2297193803e+00 -6.5132533542e-05 1.7873982799e+00 -3.0958646341e+00 1.7873982799e+00 3.0958646341e+00 
73300 6.2297193804e+00 -6.5103189083e-05 1.7873982799e+00 -3.0958646341e+00 1.7873982799e+00 3.0958646341e+00 
73400 6.2297193805e+00 -6.5074367184e-05 1.7873982799e+00 -3.0958646341e+00 1.7873982799e+00 3.0958646341e+00 
73500 6.2297193806e+00 -6.5046070275e-05 1.7873982799e+00 -3.0958646341e+00 1.7873982799e+00 3.0958646341e+00 
73600 6.2297193808e+00 -6.5018299907e-05 1.7873982799e+00 -3.0958646341e+00 1.7873982799e+00 3.0958646341e+00 
73700 6.2297193809e+00 -6.4991056778e-05 1.7873982799e+00 -3.0958646341e+00 1.7873982799e+00 3.0958646341e+00 
73800 6.2297193810e+00 -6.4964340765e-05 1.7873982799e+00 -3.0958646341e+00 1.7873982799e+00 3.0958646341e+00 
73900 6.2297193811e+00 -6.4938150945e-05 1.7873982799e+00 -3.0958646341e+00 1.7873982799e+00 3.0958646341e+00 
74000 6.2297193813e+00 -6.4912485634e-05 1.7873982799e+00 -3.0958646341e+00 1.7873982799e+00 3.0958646341e+00 
74100 6.2297193814e+00 -6.4887342410e-05 1.7873982799e+00 -3.0958646341e+00 1.7873982799e+00 3.0958646341e+00 
74200 6.2297193815e+00 -6.4862718148e-05 1.7873982799e+00 -3.0958646341e+00 1.7873982799e+00 3.0958646341e+00 
74300 6.2297193816e+00 -6.4838609043e-05 1.7873982799e+00 -3.0958646341e+00 1.7873982799e+00 3.0958646341e+00 
74400 6.2297193817e+00 -6.4815010650e-05 1.7873982799e+00 -3.0958646341e+00 1.7873982799e+00 3.0958646341e+00 
74500 6.2297193818e+00 -6.4791917905e-05 1.7873982799e+00 -3.0958646341e+00 1.7873982799e+00 3.0958646341e+00 
74600 6.2297193819e+00 -6.4769325167e-05 1.7873982799e+00 -3.0958646341e+00 1.7873982799e+00 3.0958646341e+00 
74700 6.2297193820e+00 -6.4747226237e-05 1.7873982799e+00 -3.0958646341e+00 1.7873982799e+00 3.0958646341e+00 
74800 6.2297193822e+00 -6.4725614397e-05 1.7873982799e+00 -3.0958646341e+00 1.7873982799e+00 3.0958646341e+00 
74900 6.2297193823e+00 -6.4704482444e-05 1.7873982799e+00 -3.0958646341e+00 1.7873982799e+00 3.0958646341e+00 
75000 6.2297193824e+00 -6.4683822705e-05 1.7873982799e+00 -3.0958646341e+00 1.7873982799e+00 3.0958646341e+00 
75100 6.2297193825e+00 -6.4663627084e-05 1.7873982799e+00 -3.0958646341e+00 1.7873982799e+00 3.0958646341e+00 
75200 6.2297193826e+00 -6.4643887087e-05 1.7873982799e+00 -3.0958646341e+00 1.7873982799e+00 3.0958646341e+00 
75300 6.2297193827e+00 -6.4624593850e-05 1.7873982799e+00 -3.0958646341e+00 1.7873982799e+00 3.0958646341e+00 
75400 6.2297193828e+00 -6.4605738166e-05 1.7873982799e+00 -3.0958646341e+00 1.7873982799e+00 3.0958646341e+00 
75500 6.2297193829e+00 -6.4587310523e-05 1.7873982799e+00 -3.0958646341e+00 1.7873982799e+00 3.0958646341e+00 
75600 6.2297193829e+00 -6.4569301124e-05 1.7873982799e+00 -3.0958646341e+00 1.7873982799e+00 3.0958646341e+00 
75700 6.2297193830e+00 -6.4551699921e-05 1.7873982799e+00 -3.0958646341e+00 1.7873982799e+00 3.0958646341e+00 
75800 6.2297193831e+00 -6.4534496637e-05 1.7873982799e+00 -3.0958646341e+00 1.7873982799e+00 3.0958646341e+00 
75900 6.2297193832e+00 -6.4517680803e-05 1.7873982799e+00 -3.0958646341e+00 1.7873982799e+00 3.0958646341e+00 
76000 6.2297193833e+00 -6.4501241775e-05 1.7873982799e+00 -3.0958646341e+00 1.7873982799e+00 3.0958646341e+00 
76100 6.2297193834e+00 -6.4485168765e-05 1.7873982799e+00 -3.0958646341e+00 1.7873982799e+00 3.0958646341e+00 
76200 6.2297193835e+00 -6.4469450862e-05 1.7873982799e+00 -3.0958646341e+00 1.7873982799e+00 3.0958646341e+00 
76300 6.2297193836e+00 -6.4454077064e-05 1.7873982799e+00 -3.0958646341e+00 1.7873982799e+00 3.0958646341e+00 
76400 6.2297193837e+00 -6.4439036300e-05 1.7873982799e+00 -3.0958646341e+00 1.7873982799e+00 3.0958646341e+00 
76500 6.2297193837e+00 -6.4424317442e-05 1.7873982799e+00 -3.0958646341e+00 1.7873982799e+00 3.0958646341e+00 
76600 6.2297193838e+00 -6.4409909347e-05 1.7873982799e+00 -3.0958646341e+00 1.7873982799e+00 3.0958646341e+00 
76700 6.2297193839e+00 -6.4395800862e-05 1.7873982799e+00 -3.0958646341e+00 1.7873982799e+00 3.0958646341e+00 
76800 6.2297193840e+00 -6.4381980858e-05 1.7873982799e+00 -3.0958646341e+00 1.7873982799e+00 3.0958646341e+00 
76900 6.2297193841e+00 -6.4368438238e-05 1.7873982799e+00 -3.0958646341e+00 1.7873982799e+00 3.0958646341e+00 
77000 6.2297193841e+00 -6.4355161965e-05 1.7873982799e+00 -3.0958646341e+00 1.7873982799e+00 3.0958646341e+00 
77100 6.2297193842e+00 -6.4342141082e-05 1.7873982799e+00 -3.0958646341e+00 1.7873982799e+00 3.0958646341e+00 
77200 6.2297193843e+00 -6.4329364725e-05 1.7873982799e+00 -3.0958646341e+00 1.7873982799e+00 3.0958646341e+00 
77300 6.2297193844e+00 -6.4316822135e-05 1.7873982799e+00 -3.0958646341e+00 1.7873982799e+00 3.0958646341e+00 
77400 6.2297193844e+00 -6.4304502691e-05 1.7873982799e+00 -3.0958646341e+00 1.7873982799e+00 3.0958646341e+00 
77500 6.2297193845e+00 -6.4292395904e-05 1.7873982799e+00 -3.0958646341e+00 1.7873982799e+00 3.0958646341e+00 
77600 6.2297193846e+00 -6.4280491454e-05 1.7873982799e+00 -3.0958646341e+00 1.7873982799e+00 3.0958646341e+00 
77700 6.2297193847e+00 -6.4268779184e-05 1.7873982799e+00 -3.0958646341e+00 1.7873982799e+00 3.0958646341e+00 
77800 6.2297193847e+00 -6.4257249126e-05 1.7873982799e+00 -3.0958646341e+00 1.7873982799e+00 3.0958646341e+00 
77900 6.2297193848e+00 -6.4245891505e-05 1.7873982799e+00 -3.0958646341e+00 1.7873982799e+00 3.0958646341e+00 
78000 6.2297193849e+00 -6.4234696756e-05 1.7873982799e+00 -3.0958646341e+00 1.7873982799e+00 3.0958646341e+00 
78100 6.2297193849e+00 -6.4223655534e-05 1.7873982799e+00 -3.0958646341e+00 1.7873982799e+00 3.0958646341e+00 
78200 6.2297193850e+00 -6.4212758717e-05 1.7873982799e+00 -3.0958646341e+00 1.7873982799e+00 3.0958646341e+00 
78300 6.2297193851e+00 -6.4201997423e-05 1.7873982799e+00 -3.0958646341e+00 1.7873982799e+00 3.0958646341e+00 
78400 6.2297193851e+00 -6.4191363016e-05 1.7873982799e+00 -3.0958646341e+00 1.7873982799e+00 3.0958646341e+00 
78500 6.2297193852e+00 -6.4180847111e-05 1.7873982799e+00 -3.0958646341e+00 1.7873982799e+00 3.0958646341e+00 
78600 6.2297193853e+00 -6.4170441579e-05 1.7873982799e+00 -3.0958646341e+00 1.7873982799e+00 3.0958646341e+00 
78700 6.2297193853e+00 -6.4160138560e-05 1.7873982799e+00 -3.0958646341e+00 1.7873982799e+00 3.0958646341e+00 
78800 6.2297193854e+00 -6.4149930462e-05 1.7873982799e+00 -3.0958646341e+00 1.7873982799e+00 3.0958646341e+00 
78900 6.2297193854e+00 -6.4139809965e-05 1.7873982799e+00 -3.0958646341e+00 1.7873982799e+00 3.0958646341e+00 
79000 6.2297193855e+00 -6.4129770030e-05 1.7873982799e+00 -3.0958646341e+00 1.7873982799e+00 3.0958646341e+00 
79100 6.2297193856e+00 -6.4119803899e-05 1.7873982799e+00 -3.0958646341e+00 1.7873982799e+00 3.0958646341e+00 
79200 6.2297193856e+00 -6.4109905092e-05 1.7873982799e+00 -3.0958646341e+00 1.7873982799e+00 3.0958646341e+00 
79300 6.2297193857e+00 -6.4100067418e-05 1.7873982799e+00 -3.0958646341e+00 1.7873982799e+00 3.0958646341e+00 
79400 6.2297193857e+00 -6.4090284973e-05 1.7873982799e+00 -3.0958646341e+00 1.7873982799e+00 3.0958646341e+00 
79500 6.2297193858e+00 -6.4080552137e-05 1.7873982799e+00 -3.0958646341e+00 1.7873982799e+00 3.0958646341e+00 
79600 6.2297193858e+00 -6.4070863574e-05 1.7873982799e+00 -3.0958646341e+00 1.7873982799e+00 3.0958646341e+00 
79700 6.2297193859e+00 -6.4061214239e-05 1.7873982799e+00 -3.0958646341e+00 1.7873982799e+00 3.0958646341e+00 
79800 6.2297193859e+00 -6.4051599365e-05 1.7873982799e+00 -3.0958646341e+00 1.7873982799e+00 3.0958646341e+00 
79900 6.2297193860e+00 -6.4042014473e-05 1.7873982799e+00 -3.0958646341e+00 1.7873982799e+00 3.0958646341e+00 
80000 6.2297193860e+00 -6.4032455361e-05 1.7873982799e+00 -3.0958646341e+00 1.7873982799e+00 3.0958646341e+00 
80100 6.2297193861e+00 -6.4022918105e-05 1.7873982799e+00 -3.0958646341e+00 1.7873982799e+00 3.0958646341e+00 
80200 6.2297193861e+00 -6.4013399056e-05 1.7873982799e+00 -3.0958646341e+00 1.7873982799e+00 3.0958646341e+00 
80300 6.2297193862e+00 -6.4003894835e-05 1.7873982799e+00 -3.0958646341e+00 1.7873982799e+00 3.0958646341e+00 
80400 6.2297193862e+00 -6.3994402332e-05 1.7873982799e+00 -3.0958646341e+00 1.7873982799e+00 3.0958646341e+00 
80500 6.2297193862e+00 -6.3994212581e-05 1.7873982799e+00 -3.0958646341e+00 1.7873982799e+00 3.0958646341e+00 
80500 6.2297193862e+00 -6.3994212581e-05 1.7873982799e+00 -3.0958646341e+00 1.7873982799e+00 3.0958646341e+00 
