# step Hamiltonian StressXX CellTensor1 CellTensor2 CellTensor3 CellTensor4 
0 5.4380347684e+00 -5.5096249580e-02 1.6087831444e+00 -2.7864941444e+00 1.6087831444e+00 2.7864941444e+00 
100 5.4377714061e+00 -5.6578189316e-02 1.6087831444e+00 -2.7864941444e+00 1.6087831444e+00 2.7864941444e+00 
200 5.4373930720e+00 -5.6273670483e-02 1.6105418800e+00 -2.7895403638e+00 1.6105418800e+00 2.7895403638e+00 
300 5.4370104537e+00 -5.5971491276e-02 1.6122892370e+00 -2.7925668750e+00 1.6122892370e+00 2.7925668750e+00 
400 5.4366129928e+00 -5.5669084930e-02 1.6140253251e+00 -2.7955738678e+00 1.6140253251e+00 2.7955738678e+00 
500 5.4361919471e+00 -5.5364050124e-02 1.6157501738e+00 -2.7985613933e+00 1.6157501738e+00 2.7985613933e+00 
600 5.4357402699e+00 -5.5054128843e-02 1.6174637377e+00 -2.8015293731e+00 1.6174637377e+00 2.8015293731e+00 
700 5.4352524876e+00 -5.4737188807e-02 1.6191659017e+00 -2.8044776077e+00 1.6191659017e+00 2.8044776077e+00 
800 5.4347245749e+00 -5.4411209916e-02 1.6208564852e+00 -2.8074057842e+00 1.6208564852e+00 2.8074057842e+00 
900 5.4341538308e+00 -5.4074274234e-02 1.6225352455e+00 -2.8103134824e+00 1.6225352455e+00 2.8103134824e+00 
1000 5.4335387542e+00 -5.3724559028e-02 1.6242018818e+00 -2.8132001810e+00 1.6242018818e+00 2.8132001810e+00 
1100 5.4328789223e+00 -5.3360332448e-02 1.6258560378e+00 -2.8160652633e+00 1.6258560378e+00 2.8160652633e+00 
1200 5.4321748697e+00 -5.2979951419e-02 1.6274973055e+00 -2.8189080223e+00 1.6274973055e+00 2.8189080223e+00 
1300 5.4314279717e+00 -5.2581861383e-02 1.6291252275e+00 -2.8217276660e+00 1.6291252275e+00 2.8217276660e+00 
1400 5.4306403317e+00 -5.2164597522e-02 1.6307393003e+00 -2.8245233220e+00 1.6307393003e+00 2.8245233220e+00 
1500 5.4298146715e+00 -5.1726787149e-02 1.6323389771e+00 -2.8272940435e+00 1.6323389771e+00 2.8272940435e+00 
1600 5.4289542289e+00 -5.1267152952e-02 1.6339236708e+00 -2.8300388136e+00 1.6339236708e+00 2.8300388136e+00 
1700 5.4280626585e+00 -5.0784516835e-02 1.6354927573e+00 -2.8327565510e+00 1.6354927573e+00 2.8327565510e+00 
1800 5.4271439404e+00 -5.0277804102e-02 1.6370455781e+00 -2.8354461156e+00 1.6370455781e+00 2.8354461156e+00 
1900 5.4262022939e+00 -4.9746047765e-02 1.6385814442e+00 -2.8381063137e+00 1.6385814442e+00 2.8381063137e+00 
2000 5.4252420982e+00 -4.9188392794e-02 1.6400996392e+00 -2.8407359045e+00 1.6400996392e+00 2.8407359045e+00 
2100 5.4242678192e+00 -4.8604100140e-02 1.6415994225e+00 -2.8433336054e+00 1.6415994225e+00 2.8433336054e+00 
2200 5.4232839439e+00 -4.7992550391e-02 1.6430800334e+00 -2.8458980987e+00 1.6430800334e+00 2.8458980987e+00 
2300 5.4222949207e+00 -4.7353246942e-02 1.6445406942e+00 -2.8484280375e+00 1.6445406942e+00 2.8484280375e+00 
2400 5.4213051064e+00 -4.6685818603e-02 1.6459806145e+00 -2.8509220526e+00 1.6459806145e+00 2.8509220526e+00 
2500 5.4203187201e+00 -4.5990021549e-02 1.6473989944e+00 -2.8533787587e+00 1.6473989944e+00 2.8533787587e+00 
2600 5.4193398030e+00 -4.5265740585e-02 1.6487950287e+00 -2.8557967610e+00 1.6487950287e+00 2.8557967610e+00 
2700 5.4183721846e+00 -4.4512989668e-02 1.6501679106e+00 -2.8581746622e+00 1.6501679106e+00 2.8581746622e+00 
2800 5.4174194547e+00 -4.3731911691e-02 1.6515168354e+00 -2.8605110685e+00 1.6515168354e+00 2.8605110685e+00 
2900 5.4164849406e+00 -4.2922777502e-02 1.6528410045e+00 -2.8628045966e+00 1.6528410045e+00 2.8628045966e+00 
3000 5.4155716896e+00 -4.2085984189e-02 1.6541396289e+00 -2.8650538800e+00 1.6541396289e+00 2.8650538800e+00 
3100 5.4146824569e+00 -4.1222052630e-02 1.6554119330e+00 -2.8672575755e+00 1.6554119330e+00 2.8672575755e+00 
3200 5.4138196972e+00 -4.0331624347e-02 1.6566571583e+00 -2.8694143689e+00 1.6566571583e+00 2.8694143689e+00 
3300 5.4129855609e+00 -3.9415457695e-02 1.6578745665e+00 -2.8715229818e+00 1.6578745665e+00 2.8715229818e+00 
3400 5.4121818937e+00 -3.8474423435e-02 1.6590634431e+00 -2.8735821764e+00 1.6590634431e+00 2.8735821764e+00 
3500 5.4114102401e+00 -3.7509499725e-02 1.6602231004e+00 -2.8755907618e+00 1.6602231004e+00 2.8755907618e+00 
3600 5.4106718491e+00 -3.6521766591e-02 1.6613528808e+00 -2.8775475989e+00 1.6613528808e+00 2.8775475989e+00 
3700 5.4099676832e+00 -3.5512399922e-02 1.6624521594e+00 -2.8794516051e+00 1.6624521594e+00 2.8794516051e+00 
3800 5.4092984293e+00 -3.4482665050e-02 1.6635203465e+00 -2.8813017595e+00 1.6635203465e+00 2.8813017595e+00 
3900 5.4086645119e+00 -3.3433909964e-02 1.6645568906e+00 -2.8830971066e+00 1.6645568906e+00 2.8830971066e+00 
4000 5.4080661070e+00 -3.2367558225e-02 1.6655612801e+00 -2.8848367602e+00 1.6655612801e+00 2.8848367602e+00 
4100 5.4075031585e+00 -3.1285101620e-02 1.6665330457e+00 -2.8865199076e+00 1.6665330457e+00 2.8865199076e+00 
4200 5.4069753945e+00 -3.0188092626e-02 1.6674717621e+00 -2.8881458121e+00 1.6674717621e+00 2.8881458121e+00 
4300 5.4064823455e+00 -2.9078136729e-02 1.6683770494e+00 -2.8897138158e+00 1.6683770494e+00 2.8897138158e+00 
4400 5.4060233613e+00 -2.7956884652e-02 1.6692485750e+00 -2.8912233424e+00 1.6692485750e+00 2.8912233424e+00 
4500 5.4055976305e+00 -2.6826024538e-02 1.6700860543e+00 -2.8926738991e+00 1.6700860543e+00 2.8926738991e+00 
4600 5.4052041975e+00 -2.5687274149e-02 1.6708892516e+00 -2.8940650777e+00 1.6708892516e+00 2.8940650777e+00 
4700 5.4048419817e+00 -2.4542373107e-02 1.6716579813e+00 -2.8953965565e+00 1.6716579813e+00 2.8953965565e+00 
4800 5.4045097944e+00 -2.3393075235e-02 1.6723921078e+00 -2.8966681009e+00 1.6723921078e+00 2.8966681009e+00 
4900 5.4042063566e+00 -2.2241141042e-02 1.6730915462e+00 -2.8978795637e+00 1.6730915462e+00 2.8978795637e+00 
5000 5.4039303158e+00 -2.1088330368e-02 1.6737562622e+00 -2.8990308856e+00 1.6737562622e+00 2.8990308856e+00 
5100 5.4036802615e+00 -1.9936395259e-02 1.6743862718e+00 -2.9001220943e+00 1.6743862718e+00 2.9001220943e+00 
5200 5.4034547408e+00 -1.8787073069e-02 1.6749816415e+00 -2.9011533049e+00 1.6749816415e+00 2.9011533049e+00 
5300 5.4032522725e+00 -1.7642079846e-02 1.6755424871e+00 -2.9021247179e+00 1.6755424871e+00 2.9021247179e+00 
5400 5.4030713607e+00 -1.6503104023e-02 1.6760689734e+00 -2.9030366189e+00 1.6760689734e+00 2.9030366189e+00 
5500 5.4029105070e+00 -1.5371800420e-02 1.6765613133e+00 -2.9038893766e+00 1.6765613133e+00 2.9038893766e+00 
5600 5.4027682219e+00 -1.4249784614e-02 1.6770197666e+00 -2.9046834410e+00 1.6770197666e+00 2.9046834410e+00 
5700 5.4026430354e+00 -1.3138627655e-02 1.6774446389e+00 -2.9054193415e+00 1.6774446389e+00 2.9054193415e+00 
5800 5.4025335059e+00 -1.2039851183e-02 1.6778362804e+00 -2.9060976844e+00 1.6778362804e+00 2.9060976844e+00 
5900 5.4024382288e+00 -1.0954922924e-02 1.6781950842e+00 -2.9067191508e+00 1.6781950842e+00 2.9067191508e+00 
6000 5.4023558438e+00 -9.8852525966e-03 1.6785214848e+00 -2.9072844933e+00 1.6785214848e+00 2.9072844933e+00 
6100 5.4022850410e+00 -8.8321882335e-03 1.6788159565e+00 -2.9077945332e+00 1.6788159565e+00 2.9077945332e+00 
6200 5.4022245663e+00 -7.7970129098e-03 1.6790790115e+00 -2.9082501578e+00 1.6790790115e+00 2.9082501578e+00 
6300 5.4021732258e+00 -6.7809418933e-03 1.6793111981e+00 -2.9086523168e+00 1.6793111981e+00 2.9086523168e+00 
6400 5.4021298892e+00 -5.7851202060e-03 1.6795130987e+00 -2.9090020189e+00 1.6795130987e+00 2.9090020189e+00 
6500 5.4020934926e+00 -4.8106205974e-03 1.6796853277e+00 -2.9093003283e+00 1.6796853277e+00 2.9093003283e+00 
6600 5.4020630404e+00 -3.8584419208e-03 1.6798285298e+00 -2.9095483616e+00 1.6798285298e+00 2.9095483616e+00 
6700 5.4020376063e+00 -2.9295079032e-03 1.6799433774e+00 -2.9097472835e+00 1.6799433774e+00 2.9097472835e+00 
6800 5.4020163339e+00 -2.0246663003e-03 1.6800305688e+00 -2.9098983035e+00 1.6800305688e+00 2.9098983035e+00 
6900 5.4019984365e+00 -1.1446884195e-03 1.6800908260e+00 -2.9100026720e+00 1.6800908260e+00 2.9100026720e+00 
7000 5.4019831963e+00 -2.9026900005e-04 1.6801248924e+00 -2.9100616767e+00 1.6801248924e+00 2.9100616767e+00 
7100 5.4019699634e+00 5.3797357022e-04 1.6801335307e+00 -2.9100766387e+00 1.6801335307e+00 2.9100766387e+00 
7200 5.4019581539e+00 1.3394967159e-03 1.6801175209e+00 -2.9100489089e+00 1.6801175209e+00 2.9100489089e+00 
7300 5.4019472479e+00 2.1138328346e-03 1.6800776579e+00 -2.9099798641e+00 1.6800776579e+00 2.9099798641e+00 
7400 5.4019367873e+00 2.8605881753e-03 1.6800147495e+00 -2.9098709036e+00 1.6800147495e+00 2.9098709036e+00 
7500 5.4019263728e+00 3.5794414569e-03 1.6799296144e+00 -2.9097234453e+00 1.6799296144e+00 2.9097234453e+00 
7600 5.4019156612e+00 4.2701422468e-03 1.6798230801e+00 -2.9095389224e+00 1.6798230801e+00 2.9095389224e+00 
7700 5.4019043623e+00 4.9325091221e-03 1.6796959807e+00 -2.9093187799e+00 1.6796959807e+00 2.9093187799e+00 
7800 5.4018922355e+00 5.5664276345e-03 1.6795491554e+00 -2.9090644710e+00 1.6795491554e+00 2.9090644710e+00 
7900 5.4018790866e+00 6.1718481014e-03 1.6793834462e+00 -2.9087774542e+00 1.6793834462e+00 2.9087774542e+00 
8000 5.4018647645e+00 6.7487832434e-03 1.6791996962e+00 -2.9084591898e+00 1.6791996962e+00 2.9084591898e+00 
8100 5.4018491572e+00 7.2973056903e-03 1.6789987478e+00 -2.9081111370e+00 1.6789987478e+00 2.9081111370e+00 
8200 5.4018321891e+00 7.8175453757e-03 1.6787814413e+00 -2.9077347511e+00 1.6787814413e+00 2.9077347511e+00 
8300 5.4018138173e+00 8.3096868389e-03 1.6785486127e+00 -2.9073314802e+00 1.6785486127e+00 2.9073314802e+00 
8400 5.4017940282e+00 8.7739664556e-03 1.6783010928e+00 -2.9069027632e+00 1.6783010928e+00 2.9069027632e+00 
8500 5.4017728342e+00 9.2106696118e-03 1.6780397053e+00 -2.9064500268e+00 1.6780397053e+00 2.9064500268e+00 
8600 5.4017502708e+00 9.6201278421e-03 1.6777652655e+00 -2.9059746830e+00 1.6777652655e+00 2.9059746830e+00 
8700 5.4017263936e+00 1.0002715945e-02 1.6774785790e+00 -2.9054781274e+00 1.6774785790e+00 2.9054781274e+00 
8800 5.4017012750e+00 1.0358849092e-02 1.6771804405e+00 -2.9049617364e+00 1.6771804405e+00 2.9049617364e+00 
8900 5.4016750019e+00 1.0688979946e-02 1.6768716326e+00 -2.9044268654e+00 1.6768716326e+00 2.9044268654e+00 
9000 5.4016476732e+00 1.0993595796e-02 1.6765529248e+00 -2.9038748473e+00 1.6765529248e+00 2.9038748473e+00 
9100 5.4016193968e+00 1.1273215727e-02 1.6762250724e+00 -2.9033069903e+00 1.6762250724e+00 2.9033069903e+00 
9200 5.4015902879e+00 1.1528387835e-02 1.6758888157e+00 -2.9027245766e+00 1.6758888157e+00 2.9027245766e+00 
9300 5.4015604669e+00 1.1759686484e-02 1.6755448790e+00 -2.9021288608e+00 1.6755448790e+00 2.9021288608e+00 
9400 5.4015300572e+00 1.1967709640e-02 1.6751939700e+00 -2.9015210685e+00 1.6751939700e+00 2.9015210685e+00 
9500 5.4014991836e+00 1.2153076257e-02 1.6748367790e+00 -2.9009023956e+00 1.6748367790e+00 2.9009023956e+00 
9600 5.4014679710e+00 1.2316423749e-02 1.6744739783e+00 -2.9002740064e+00 1.6744739783e+00 2.9002740064e+00 
9700 5.4014365425e+00 1.2458405536e-02 1.6741062219e+00 -2.8996370335e+00 1.6741062219e+00 2.8996370335e+00 
9800 5.4014050187e+00 1.2579688679e-02 1.6737341444e+00 -2.8989925764e+00 1.6737341444e+00 2.8989925764e+00 
9900 5.4013735163e+00 1.2680951605e-02 1.6733583614e+00 -2.8983417011e+00 1.6733583614e+00 2.8983417011e+00 
10000 5.4013421473e+00 1.2762881918e-02 1.6729794684e+00 -2.8976854393e+00 1.6729794684e+00 2.8976854393e+00 
10100 5.4013110180e+00 1.2826174309e-02 1.6725980413e+00 -2.8970247881e+00 1.6725980413e+00 2.8970247881e+00 
10200 5.4012802287e+00 1.2871528564e-02 1.6722146352e+00 -2.8963607093e+00 1.6722146352e+00 2.8963607093e+00 
10300 5.4012498730e+00 1.2899647667e-02 1.6718297852e+00 -2.8956941296e+00 1.6718297852e+00 2.8956941296e+00 
10400 5.4012200373e+00 1.2911235997e-02 1.6714440058e+00 -2.8950259400e+00 1.6714440058e+00 2.8950259400e+00 
10500 5.4011908006e+00 1.2906997632e-02 1.6710577907e+00 -2.8943569958e+00 1.6710577907e+00 2.8943569958e+00 
10600 5.4011622345e+00 1.2887634742e-02 1.6706716131e+00 -2.8936881167e+00 1.6706716131e+00 2.8936881167e+00 
10700 5.4011344027e+00 1.2853846081e-02 1.6702859258e+00 -2.8930200866e+00 1.6702859258e+00 2.8930200866e+00 
10800 5.4011073613e+00 1.2806325581e-02 1.6699011607e+00 -2.8923536540e+00 1.6699011607e+00 2.8923536540e+00 
10900 5.4010811587e+00 1.2745761024e-02 1.6695177298e+00 -2.8916895321e+00 1.6695177298e+00 2.8916895321e+00 
11000 5.4010558359e+00 1.2672832827e-02 1.6691360245e+00 -2.8910283992e+00 1.6691360245e+00 2.8910283992e+00 
11100 5.4010314264e+00 1.2588212896e-02 1.6687564164e+00 -2.8903708986e+00 1.6687564164e+00 2.8903708986e+00 
11200 5.4010079568e+00 1.2492563585e-02 1.6683792571e+00 -2.8897176396e+00 1.6683792571e+00 2.8897176396e+00 
11300 5.4009854468e+00 1.2386536726e-02 1.6680048789e+00 -2.8890691975e+00 1.6680048789e+00 2.8890691975e+00 
11400 5.4009639097e+00 1.2270772751e-02 1.6676335947e+00 -2.8884261144e+00 1.6676335947e+00 2.8884261144e+00 
11500 5.4009433526e+00 1.2145899887e-02 1.6672656985e+00 -2.8877888995e+00 1.6672656985e+00 2.8877888995e+00 
11600 5.4009237769e+00 1.2012533436e-02 1.6669014657e+00 -2.8871580298e+00 1.6669014657e+00 2.8871580298e+00 
11700 5.4009051786e+00 1.1871275117e-02 1.6665411534e+00 -2.8865339506e+00 1.6665411534e+00 2.8865339506e+00 
11800 5.4008875490e+00 1.1722712489e-02 1.6661850010e+00 -2.8859170766e+00 1.6661850010e+00 2.8859170766e+00 
11900 5.4008708746e+00 1.1567418438e-02 1.6658332304e+00 -2.8853077920e+00 1.6658332304e+00 2.8853077920e+00 
12000 5.4008551379e+00 1.1405950725e-02 1.6654860463e+00 -2.8847064514e+00 1.6654860463e+00 2.8847064514e+00 
12100 5.4008403178e+00 1.1238851603e-02 1.6651436369e+00 -2.8841133811e+00 1.6651436369e+00 2.8841133811e+00 
12200 5.4008263899e+00 1.1066647488e-02 1.6648061744e+00 -2.8835288788e+00 1.6648061744e+00 2.8835288788e+00 
12300 5.4008133271e+00 1.0889848686e-02 1.6644738150e+00 -2.8829532155e+00 1.6644738150e+00 2.8829532155e+00 
12400 5.4008010997e+00 1.0708949172e-02 1.6641466999e+00 -2.8823866354e+00 1.6641466999e+00 2.8823866354e+00 
12500 5.4007896760e+00 1.0524426421e-02 1.6638249553e+00 -2.8818293574e+00 1.6638249553e+00 2.8818293574e+00 
12600 5.4007790226e+00 1.0336741287e-02 1.6635086932e+00 -2.8812815755e+00 1.6635086932e+00 2.8812815755e+00 
12700 5.4007691050e+00 1.0146337922e-02 1.6631980120e+00 -2.8807434598e+00 1.6631980120e+00 2.8807434598e+00 
12800 5.4007598873e+00 9.9536437387e-03 1.6628929964e+00 -2.8802151572e+00 1.6628929964e+00 2.8802151572e+00 
12900 5.4007513333e+00 9.7590694148e-03 1.6625937184e+00 -2.8796967926e+00 1.6625937184e+00 2.8796967926e+00 
13000 5.4007434063e+00 9.5630089286e-03 1.6623002377e+00 -2.8791884691e+00 1.6623002377e+00 2.8791884691e+00 
13100 5.4007360696e+00 9.3658396331e-03 1.6620126022e+00 -2.8786902697e+00 1.6620126022e+00 2.8786902697e+00 
13200 5.4007292864e+00 9.1679223590e-03 1.6617308481e+00 -2.8782022575e+00 1.6617308481e+00 2.8782022575e+00 
13300 5.4007230206e+00 8.9696015489e-03 1.6614550011e+00 -2.8777244765e+00 1.6614550011e+00 2.8777244765e+00 
13400 5.4007172364e+00 8.7712054171e-03 1.6611850763e+00 -2.8772569530e+00 1.6611850763e+00 2.8772569530e+00 
13500 5.4007118991e+00 8.5730461359e-03 1.6609210789e+00 -2.8767996960e+00 1.6609210789e+00 2.8767996960e+00 
13600 5.4007069747e+00 8.3754200439e-03 1.6606630045e+00 -2.8763526980e+00 1.6606630045e+00 2.8763526980e+00 
13700 5.4007024302e+00 8.1786078766e-03 1.6604108399e+00 -2.8759159361e+00 1.6604108399e+00 2.8759159361e+00 
13800 5.4006982342e+00 7.9828750155e-03 1.6601645633e+00 -2.8754893726e+00 1.6601645633e+00 2.8754893726e+00 
13900 5.4006943563e+00 7.7884717554e-03 1.6599241449e+00 -2.8750729557e+00 1.6599241449e+00 2.8750729557e+00 
14000 5.4006907675e+00 7.5956335876e-03 1.6596895472e+00 -2.8746666205e+00 1.6596895472e+00 2.8746666205e+00 
14100 5.4006874404e+00 7.4045814976e-03 1.6594607255e+00 -2.8742702897e+00 1.6594607255e+00 2.8742702897e+00 
14200 5.4006843490e+00 7.2155222752e-03 1.6592376285e+00 -2.8738838743e+00 1.6592376285e+00 2.8738838743e+00 
14300 5.4006814690e+00 7.0286488375e-03 1.6590201984e+00 -2.8735072743e+00 1.6590201984e+00 2.8735072743e+00 
14400 5.4006787774e+00 6.8441405606e-03 1.6588083715e+00 -2.8731403795e+00 1.6588083715e+00 2.8731403795e+00 
14500 5.4006762531e+00 6.6621636212e-03 1.6586020789e+00 -2.8727830702e+00 1.6586020789e+00 2.8727830702e+00 
14600 5.4006738763e+00 6.4828713456e-03 1.6584012463e+00 -2.8724352179e+00 1.6584012463e+00 2.8724352179e+00 
14700 5.4006716288e+00 6.3064045654e-03 1.6582057946e+00 -2.8720966857e+00 1.6582057946e+00 2.8720966857e+00 
14800 5.4006694942e+00 6.1328919790e-03 1.6580156408e+00 -2.8717673296e+00 1.6580156408e+00 2.8717673296e+00 
14900 5.4006674572e+00 5.9624505169e-03 1.6578306975e+00 -2.8714469984e+00 1.6578306975e+00 2.8714469984e+00 
15000 5.4006655041e+00 5.7951857116e-03 1.6576508739e+00 -2.8711355347e+00 1.6576508739e+00 2.8711355347e+00 
15100 5.4006636227e+00 5.6311920695e-03 1.6574760758e+00 -2.8708327756e+00 1.6574760758e+00 2.8708327756e+00 
15200 5.4006618019e+00 5.4705534446e-03 1.6573062062e+00 -2.8705385528e+00 1.6573062062e+00 2.8705385528e+00 
15300 5.4006600322e+00 5.3133434139e-03 1.6571411654e+00 -2.8702526938e+00 1.6571411654e+00 2.8702526938e+00 
15400 5.4006583051e+00 5.1596256527e-03 1.6569808514e+00 -2.8699750218e+00 1.6569808514e+00 2.8699750218e+00 
15500 5.4006566132e+00 5.0094543090e-03 1.6568251603e+00 -2.8697053569e+00 1.6568251603e+00 2.8697053569e+00 
15600 5.4006549503e+00 4.8628743782e-03 1.6566739863e+00 -2.8694435158e+00 1.6566739863e+00 2.8694435158e+00 
15700 5.4006533112e+00 4.7199220745e-03 1.6565272222e+00 -2.8691893131e+00 1.6565272222e+00 2.8691893131e+00 
15800 5.4006516915e+00 4.5806252016e-03 1.6563847599e+00 -2.8689425611e+00 1.6563847599e+00 2.8689425611e+00 
15900 5.4006500878e+00 4.4450035192e-03 1.6562464901e+00 -2.8687030707e+00 1.6562464901e+00 2.8687030707e+00 
16000 5.4006484974e+00 4.3130691077e-03 1.6561123028e+00 -2.8684706515e+00 1.6561123028e+00 2.8684706515e+00 
16100 5.4006469183e+00 4.1848267274e-03 1.6559820878e+00 -2.8682451126e+00 1.6559820878e+00 2.8682451126e+00 
16200 5.4006453493e+00 4.0602741752e-03 1.6558557346e+00 -2.8680262623e+00 1.6558557346e+00 2.8680262623e+00 
16300 5.4006437896e+00 3.9394026352e-03 1.6557331326e+00 -2.8678139095e+00 1.6557331326e+00 2.8678139095e+00 
16400 5.4006422389e+00 3.8221970256e-03 1.6556141716e+00 -2.8676078629e+00 1.6556141716e+00 2.8676078629e+00 
16500 5.4006406976e+00 3.7086363388e-03 1.6554987415e+00 -2.8674079322e+00 1.6554987415e+00 2.8674079322e+00 
16600 5.4006391661e+00 3.5986939775e-03 1.6553867331e+00 -2.8672139280e+00 1.6553867331e+00 2.8672139280e+00 
16700 5.4006376454e+00 3.4923380831e-03 1.6552780378e+00 -2.8670256622e+00 1.6552780378e+00 2.8670256622e+00 
16800 5.4006361368e+00 3.3895318588e-03 1.6551725480e+00 -2.8668429484e+00 1.6551725480e+00 2.8668429484e+00 
16900 5.4006346416e+00 3.2902338859e-03 1.6550701569e+00 -2.8666656019e+00 1.6550701569e+00 2.8666656019e+00 
17000 5.4006331615e+00 3.1943984334e-03 1.6549707593e+00 -2.8664934402e+00 1.6549707593e+00 2.8664934402e+00 
17100 5.4006316981e+00 3.1019757604e-03 1.6548742510e+00 -2.8663262829e+00 1.6548742510e+00 2.8663262829e+00 
17200 5.4006302534e+00 3.0129124113e-03 1.6547805295e+00 -2.8661639525e+00 1.6547805295e+00 2.8661639525e+00 
17300 5.4006288292e+00 2.9271515038e-03 1.6546894937e+00 -2.8660062739e+00 1.6546894937e+00 2.8660062739e+00 
17400 5.4006274274e+00 2.8446330093e-03 1.6546010444e+00 -2.8658530751e+00 1.6546010444e+00 2.8658530751e+00 
17500 5.4006260499e+00 2.7652940254e-03 1.6545150838e+00 -2.8657041870e+00 1.6545150838e+00 2.8657041870e+00 
17600 5.4006246985e+00 2.6890690409e-03 1.6544315164e+00 -2.8655594440e+00 1.6544315164e+00 2.8655594440e+00 
17700 5.4006233750e+00 2.6158901926e-03 1.6543502484e+00 -2.8654186837e+00 1.6543502484e+00 2.8654186837e+00 
17800 5.4006220812e+00 2.5456875144e-03 1.6542711881e+00 -2.8652817472e+00 1.6542711881e+00 2.8652817472e+00 
17900 5.4006208187e+00 2.4783891782e-03 1.6541942458e+00 -2.8651484793e+00 1.6541942458e+00 2.8651484793e+00 
18000 5.4006195889e+00 2.4139217264e-03 1.6541193341e+00 -2.8650187284e+00 1.6541193341e+00 2.8650187284e+00 
18100 5.4006183932e+00 2.3522102968e-03 1.6540463676e+00 -2.8648923468e+00 1.6540463676e+00 2.8648923468e+00 
18200 5.4006172328e+00 2.2931788389e-03 1.6539752634e+00 -2.8647691907e+00 1.6539752634e+00 2.8647691907e+00 
18300 5.4006161089e+00 2.2367503218e-03 1.6539059407e+00 -2.8646491202e+00 1.6539059407e+00 2.8646491202e+00 
18400 5.4006150223e+00 2.1828469347e-03 1.6538383209e+00 -2.8645319993e+00 1.6538383209e+00 2.8645319993e+00 
18500 5.4006139739e+00 2.1313902781e-03 1.6537723280e+00 -2.8644176962e+00 1.6537723280e+00 2.8644176962e+00 
18600 5.4006129642e+00 2.0823015480e-03 1.6537078881e+00 -2.8643060831e+00 1.6537078881e+00 2.8643060831e+00 
18700 5.4006119937e+00 2.0355017110e-03 1.6536449300e+00 -2.8641970364e+00 1.6536449300e+00 2.8641970364e+00 
18800 5.4006110629e+00 1.9909116719e-03 1.6535833844e+00 -2.8640904364e+00 1.6535833844e+00 2.8640904364e+00 
18900 5.4006101717e+00 1.9484524329e-03 1.6535231849e+00 -2.8639861677e+00 1.6535231849e+00 2.8639861677e+00 
19000 5.4006093203e+00 1.9080452455e-03 1.6534642670e+00 -2.8638841190e+00 1.6534642670e+00 2.8638841190e+00 
19100 5.4006085085e+00 1.8696117537e-03 1.6534065689e+00 -2.8637841830e+00 1.6534065689e+00 2.8637841830e+00 
19200 5.4006077362e+00 1.8330741301e-03 1.6533500311e+00 -2.8636862565e+00 1.6533500311e+00 2.8636862565e+00 
19300 5.4006070028e+00 1.7983552039e-03 1.6532945962e+00 -2.8635902406e+00 1.6532945962e+00 2.8635902406e+00 
19400 5.4006063080e+00 1.7653785819e-03 1.6532402095e+00 -2.8634960400e+00 1.6532402095e+00 2.8634960400e+00 
19500 5.4006056511e+00 1.7340687616e-03 1.6531868183e+00 -2.8634035638e+00 1.6531868183e+00 2.8634035638e+00 
19600 5.4006050314e+00 1.7043512368e-03 1.6531343724e+00 -2.8633127247e+00 1.6531343724e+00 2.8633127247e+00 
19700 5.4006044481e+00 1.6761525969e-03 1.6530828236e+00 -2.8632234395e+00 1.6530828236e+00 2.8632234395e+00 
19800 5.4006039003e+00 1.6494006185e-03 1.6530321260e+00 -2.8631356288e+00 1.6530321260e+00 2.8631356288e+00 
19900 5.4006033871e+00 1.6240243503e-03 1.6529822361e+00 -2.8630492170e+00 1.6529822361e+00 2.8630492170e+00 
20000 5.4006029075e+00 1.5999541912e-03 1.6529331123e+00 -2.8629641320e+00 1.6529331123e+00 2.8629641320e+00 
20100 5.4006024603e+00 1.5771219621e-03 1.6528847151e+00 -2.8628803056e+00 1.6528847151e+00 2.8628803056e+00 
20200 5.4006020445e+00 1.5554609713e-03 1.6528370072e+00 -2.8627976731e+00 1.6528370072e+00 2.8627976731e+00 
20300 5.4006016588e+00 1.5349060733e-03 1.6527899531e+00 -2.8627161731e+00 1.6527899531e+00 2.8627161731e+00 
20400 5.4006013021e+00 1.5153937222e-03 1.6527435196e+00 -2.8626357477e+00 1.6527435196e+00 2.8626357477e+00 
20500 5.4006009731e+00 1.4968620183e-03 1.6526976750e+00 -2.8625563426e+00 1.6526976750e+00 2.8625563426e+00 
20600 5.4006006705e+00 1.4792507507e-03 1.6526523898e+00 -2.8624779063e+00 1.6526523898e+00 2.8624779063e+00 
20700 5.4006003933e+00 1.4625014321e-03 1.6526076361e+00 -2.8624003907e+00 1.6526076361e+00 2.8624003907e+00 
20800 5.4006001399e+00 1.4465573305e-03 1.6525633880e+00 -2.8623237508e+00 1.6525633880e+00 2.8623237508e+00 
20900 5.4005999093e+00 1.4313634947e-03 1.6525196211e+00 -2.8622479443e+00 1.6525196211e+00 2.8622479443e+00 
21000 5.4005997002e+00 1.4168667745e-03 1.6524763128e+00 -2.8621729321e+00 1.6524763128e+00 2.8621729321e+00 
21100 5.4005995114e+00 1.4030158375e-03 1.6524334420e+00 -2.8620986776e+00 1.6524334420e+00 2.8620986776e+00 
21200 5.4005993415e+00 1.3897611801e-03 1.6523909891e+00 -2.8620251472e+00 1.6523909891e+00 2.8620251472e+00 
21300 5.4005991896e+00 1.3770551348e-03 1.6523489363e+00 -2.8619523095e+00 1.6523489363e+00 2.8619523095e+00 
21400 5.4005990543e+00 1.3648518735e-03 1.6523072668e+00 -2.8618801359e+00 1.6523072668e+00 2.8618801359e+00 
21500 5.4005989347e+00 1.3531074062e-03 1.6522659656e+00 -2.8618086001e+00 1.6522659656e+00 2.8618086001e+00 
21600 5.4005988295e+00 1.3417795764e-03 1.6522250188e+00 -2.8617376780e+00 1.6522250188e+00 2.8617376780e+00 
21700 5.4005987378e+00 1.3308280532e-03 1.6521844137e+00 -2.8616673480e+00 1.6521844137e+00 2.8616673480e+00 
21800 5.4005986585e+00 1.3202143195e-03 1.6521441391e+00 -2.8615975903e+00 1.6521441391e+00 2.8615975903e+00 
21900 5.4005985906e+00 1.3099016571e-03 1.6521041846e+00 -2.8615283872e+00 1.6521041846e+00 2.8615283872e+00 
22000 5.4005985334e+00 1.2998551290e-03 1.6520645414e+00 -2.8614597230e+00 1.6520645414e+00 2.8614597230e+00 
22100 5.4005984858e+00 1.2900415589e-03 1.6520252012e+00 -2.8613915839e+00 1.6520252012e+00 2.8613915839e+00 
22200 5.4005984470e+00 1.2804295078e-03 1.6519861571e+00 -2.8613239575e+00 1.6519861571e+00 2.8613239575e+00 
22300 5.4005984163e+00 1.2709892482e-03 1.6519474030e+00 -2.8612568335e+00 1.6519474030e+00 2.8612568335e+00 
22400 5.4005983928e+00 1.2616927365e-03 1.6519089337e+00 -2.8611902027e+00 1.6519089337e+00 2.8611902027e+00 
22500 5.4005983760e+00 1.2525135824e-03 1.6518707450e+00 -2.8611240578e+00 1.6518707450e+00 2.8611240578e+00 
22600 5.4005983651e+00 1.2434270170e-03 1.6518328331e+00 -2.8610583926e+00 1.6518328331e+00 2.8610583926e+00 
22700 5.4005983595e+00 1.2344098589e-03 1.6517951955e+00 -2.8609932023e+00 1.6517951955e+00 2.8609932023e+00 
22800 5.4005983587e+00 1.2254404787e-03 1.6517578299e+00 -2.8609284832e+00 1.6517578299e+00 2.8609284832e+00 
22900 5.4005983622e+00 1.2164987622e-03 1.6517207350e+00 -2.8608642330e+00 1.6517207350e+00 2.8608642330e+00 
23000 5.4005983694e+00 1.2075660714e-03 1.6516839100e+00 -2.8608004501e+00 1.6516839100e+00 2.8608004501e+00 
23100 5.4005983799e+00 1.1986252059e-03 1.6516473545e+00 -2.8607371341e+00 1.6516473545e+00 2.8607371341e+00 
23200 5.4005983933e+00 1.1896603616e-03 1.6516110689e+00 -2.8606742856e+00 1.6516110689e+00 2.8606742856e+00 
23300 5.4005984093e+00 1.1806570897e-03 1.6515750538e+00 -2.8606119058e+00 1.6515750538e+00 2.8606119058e+00 
23400 5.4005984275e+00 1.1716022541e-03 1.6515393106e+00 -2.8605499967e+00 1.6515393106e+00 2.8605499967e+00 
23500 5.4005984475e+00 1.1624839887e-03 1.6515038407e+00 -2.8604885610e+00 1.6515038407e+00 2.8604885610e+00 
23600 5.4005984692e+00 1.1532916541e-03 1.6514686461e+00 -2.8604276022e+00 1.6514686461e+00 2.8604276022e+00 
23700 5.4005984923e+00 1.1440157932e-03 1.6514337291e+00 -2.8603671242e+00 1.6514337291e+00 2.8603671242e+00 
23800 5.4005985165e+00 1.1346480879e-03 1.6513990922e+00 -2.8603071312e+00 1.6513990922e+00 2.8603071312e+00 
23900 5.4005985417e+00 1.1251813142e-03 1.6513647382e+00 -2.8602476283e+00 1.6513647382e+00 2.8602476283e+00 
24000 5.4005985678e+00 1.1156092977e-03 1.6513306701e+00 -2.8601886206e+00 1.6513306701e+00 2.8601886206e+00 
24100 5.4005985945e+00 1.1059268696e-03 1.6512968911e+00 -2.8601301137e+00 1.6512968911e+00 2.8601301137e+00 
24200 5.4005986217e+00 1.0961298223e-03 1.6512634046e+00 -2.8600721134e+00 1.6512634046e+00 2.8600721134e+00 
24300 5.4005986494e+00 1.0862148651e-03 1.6512302140e+00 -2.8600146257e+00 1.6512302140e+00 2.8600146257e+00 
24400 5.4005986775e+00 1.0761795804e-03 1.6511973231e+00 -2.8599576569e+00 1.6511973231e+00 2.8599576569e+00 
24500 5.4005987059e+00 1.0660223804e-03 1.6511647353e+00 -2.8599012132e+00 1.6511647353e+00 2.8599012132e+00 
24600 5.4005987345e+00 1.0557424639e-03 1.6511324545e+00 -2.8598453012e+00 1.6511324545e+00 2.8598453012e+00 
24700 5.4005987633e+00 1.0453397738e-03 1.6511004844e+00 -2.8597899273e+00 1.6511004844e+00 2.8597899273e+00 
24800 5.4005987922e+00 1.0348149550e-03 1.6510688286e+00 -2.8597350979e+00 1.6510688286e+00 2.8597350979e+00 
24900 5.4005988212e+00 1.0241693131e-03 1.6510374910e+00 -2.8596808196e+00 1.6510374910e+00 2.8596808196e+00 
25000 5.4005988504e+00 1.0134047739e-03 1.6510064751e+00 -2.8596270986e+00 1.6510064751e+00 2.8596270986e+00 
25100 5.4005988797e+00 1.0025238432e-03 1.6509757847e+00 -2.8595739412e+00 1.6509757847e+00 2.8595739412e+00 
25200 5.4005989091e+00 9.9152956749e-04 1.6509454233e+00 -2.8595213536e+00 1.6509454233e+00 2.8595213536e+00 
25300 5.4005989385e+00 9.8042549611e-04 1.6509153942e+00 -2.8594693418e+00 1.6509153942e+00 2.8594693418e+00 
25400 5.4005989681e+00 9.6921564327e-04 1.6508857009e+00 -2.8594179115e+00 1.6508857009e+00 2.8594179115e+00 
25500 5.4005989978e+00 9.5790445166e-04 1.6508563466e+00 -2.8593670683e+00 1.6508563466e+00 2.8593670683e+00 
25600 5.4005990276e+00 9.4649675682e-04 1.6508273343e+00 -2.8593168175e+00 1.6508273343e+00 2.8593168175e+00 
25700 5.4005990575e+00 9.3499775238e-04 1.6507986670e+00 -2.8592671644e+00 1.6507986670e+00 2.8592671644e+00 
25800 5.4005990876e+00 9.2341295641e-04 1.6507703476e+00 -2.8592181136e+00 1.6507703476e+00 2.8592181136e+00 
25900 5.4005991179e+00 9.1174817870e-04 1.6507423785e+00 -2.8591696698e+00 1.6507423785e+00 2.8591696698e+00 
26000 5.4005991483e+00 9.0000948910e-04 1.6507147623e+00 -2.8591218371e+00 1.6507147623e+00 2.8591218371e+00 
26100 5.4005991789e+00 8.8820318692e-04 1.6506875011e+00 -2.8590746194e+00 1.6506875011e+00 2.8590746194e+00 
26200 5.4005992097e+00 8.7633577135e-04 1.6506605972e+00 -2.8590280204e+00 1.6506605972e+00 2.8590280204e+00 
26300 5.4005992408e+00 8.6441391299e-04 1.6506340522e+00 -2.8589820432e+00 1.6506340522e+00 2.8589820432e+00 
26400 5.4005992720e+00 8.5244442643e-04 1.6506078680e+00 -2.8589366908e+00 1.6506078680e+00 2.8589366908e+00 
26500 5.4005993035e+00 8.4043424388e-04 1.6505820459e+00 -2.8588919656e+00 1.6505820459e+00 2.8588919656e+00 
26600 5.4005993353e+00 8.2839038999e-04 1.6505565873e+00 -2.8588478699e+00 1.6505565873e+00 2.8588478699e+00 
26700 5.4005993672e+00 8.1631995763e-04 1.6505314931e+00 -2.8588044055e+00 1.6505314931e+00 2.8588044055e+00 
26800 5.4005993995e+00 8.0423008479e-04 1.6505067641e+00 -2.8587615737e+00 1.6505067641e+00 2.8587615737e+00 
26900 5.4005994319e+00 7.9212793263e-04 1.6504824011e+00 -2.8587193756e+00 1.6504824011e+00 2.8587193756e+00 
27000 5.4005994646e+00 7.8002066446e-04 1.6504584043e+00 -2.8586778120e+00 1.6504584043e+00 2.8586778120e+00 
27100 5.4005994976e+00 7.6791542589e-04 1.6504347739e+00 -2.8586368830e+00 1.6504347739e+00 2.8586368830e+00 
27200 5.4005995308e+00 7.5581932601e-04 1.6504115099e+00 -2.8585965886e+00 1.6504115099e+00 2.8585965886e+00 
27300 5.4005995642e+00 7.4373941957e-04 1.6503886121e+00 -2.8585569283e+00 1.6503886121e+00 2.8585569283e+00 
27400 5.4005995978e+00 7.3168269021e-04 1.6503660799e+00 -2.8585179014e+00 1.6503660799e+00 2.8585179014e+00 
27500 5.4005996317e+00 7.1965603470e-04 1.6503439126e+00 -2.8584795066e+00 1.6503439126e+00 2.8584795066e+00 
27600 5.4005996657e+00 7.0766624819e-04 1.6503221095e+00 -2.8584417424e+00 1.6503221095e+00 2.8584417424e+00 
27700 5.4005996999e+00 6.9572001035e-04 1.6503006693e+00 -2.8584046069e+00 1.6503006693e+00 2.8584046069e+00 
27800 5.4005997343e+00 6.8382387262e-04 1.6502795907e+00 -2.8583680978e+00 1.6502795907e+00 2.8583680978e+00 
27900 5.4005997688e+00 6.7198424624e-04 1.6502588723e+00 -2.8583322125e+00 1.6502588723e+00 2.8583322125e+00 
28000 5.4005998034e+00 6.6020739130e-04 1.6502385124e+00 -2.8582969481e+00 1.6502385124e+00 2.8582969481e+00 
28100 5.4005998382e+00 6.4849940661e-04 1.6502185091e+00 -2.8582623013e+00 1.6502185091e+00 2.8582623013e+00 
28200 5.4005998730e+00 6.3686622053e-04 1.6501988602e+00 -2.8582282685e+00 1.6501988602e+00 2.8582282685e+00 
28300 5.4005999079e+00 6.2531358254e-04 1.6501795636e+00 -2.8581948458e+00 1.6501795636e+00 2.8581948458e+00 
28400 5.4005999429e+00 6.1384705575e-04 1.6501606168e+00 -2.8581620289e+00 1.6501606168e+00 2.8581620289e+00 
28500 5.4005999778e+00 6.0247201010e-04 1.6501420172e+00 -2.8581298135e+00 1.6501420172e+00 2.8581298135e+00 
28600 5.4006000128e+00 5.9119361642e-04 1.6501237621e+00 -2.8580981947e+00 1.6501237621e+00 2.8580981947e+00 
28700 5.4006000478e+00 5.8001684117e-04 1.6501058485e+00 -2.8580671675e+00 1.6501058485e+00 2.8580671675e+00 
28800 5.4006000827e+00 5.6894644200e-04 1.6500882734e+00 -2.8580367265e+00 1.6500882734e+00 2.8580367265e+00 
28900 5.4006001175e+00 5.5798696387e-04 1.6500710336e+00 -2.8580068662e+00 1.6500710336e+00 2.8580068662e+00 
29000 5.4006001523e+00 5.4714273600e-04 1.6500541256e+00 -2.8579775808e+00 1.6500541256e+00 2.8579775808e+00 
29100 5.4006001869e+00 5.3641786932e-04 1.6500375461e+00 -2.8579488643e+00 1.6500375461e+00 2.8579488643e+00 
29200 5.4006002214e+00 5.2581625467e-04 1.6500212914e+00 -2.8579207103e+00 1.6500212914e+00 2.8579207103e+00 
29300 5.4006002558e+00 5.1534156146e-04 1.6500053578e+00 -2.8578931125e+00 1.6500053578e+00 2.8578931125e+00 
29400 5.4006002900e+00 5.0499723704e-04 1.6499897415e+00 -2.8578660642e+00 1.6499897415e+00 2.8578660642e+00 
29500 5.4006003240e+00 4.9478650650e-04 1.6499744385e+00 -2.8578395586e+00 1.6499744385e+00 2.8578395586e+00 
29600 5.4006003577e+00 4.8471237302e-04 1.6499594447e+00 -2.8578135887e+00 1.6499594447e+00 2.8578135887e+00 
29700 5.4006003913e+00 4.7477761874e-04 1.6499447561e+00 -2.8577881473e+00 1.6499447561e+00 2.8577881473e+00 
29800 5.4006004246e+00 4.6498480608e-04 1.6499303685e+00 -2.8577632271e+00 1.6499303685e+00 2.8577632271e+00 
29900 5.4006004577e+00 4.5533627944e-04 1.6499162774e+00 -2.8577388208e+00 1.6499162774e+00 2.8577388208e+00 
30000 5.4006004905e+00 4.4583416741e-04 1.6499024787e+00 -2.8577149206e+00 1.6499024787e+00 2.8577149206e+00 
30100 5.4006005230e+00 4.3648038532e-04 1.6498889678e+00 -2.8576915191e+00 1.6498889678e+00 2.8576915191e+00 
30200 5.4006005552e+00 4.2727663812e-04 1.6498757402e+00 -2.8576686083e+00 1.6498757402e+00 2.8576686083e+00 
30300 5.4006005871e+00 4.1822442371e-04 1.6498627915e+00 -2.8576461804e+00 1.6498627915e+00 2.8576461804e+00 
30400 5.4006006186e+00 4.0932503645e-04 1.6498501170e+00 -2.8576242275e+00 1.6498501170e+00 2.8576242275e+00 
30500 5.4006006499e+00 4.0057957108e-04 1.6498377121e+00 -2.8576027416e+00 1.6498377121e+00 2.8576027416e+00 
30600 5.4006006808e+00 3.9198892683e-04 1.6498255721e+00 -2.8575817146e+00 1.6498255721e+00 2.8575817146e+00 
30700 5.4006007113e+00 3.8355381188e-04 1.6498136925e+00 -2.8575611384e+00 1.6498136925e+00 2.8575611384e+00 
30800 5.4006007415e+00 3.7527474791e-04 1.6498020683e+00 -2.8575410047e+00 1.6498020683e+00 2.8575410047e+00 
30900 5.4006007713e+00 3.6715207503e-04 1.6497906950e+00 -2.8575213056e+00 1.6497906950e+00 2.8575213056e+00 
31000 5.4006008008e+00 3.5918595670e-04 1.6497795678e+00 -2.8575020327e+00 1.6497795678e+00 2.8575020327e+00 
31100 5.4006008298e+00 3.5137638502e-04 1.6497686819e+00 -2.8574831778e+00 1.6497686819e+00 2.8574831778e+00 
31200 5.4006008585e+00 3.4372318604e-04 1.6497580327e+00 -2.8574647328e+00 1.6497580327e+00 2.8574647328e+00 
31300 5.4006008868e+00 3.3622602523e-04 1.6497476153e+00 -2.8574466894e+00 1.6497476153e+00 2.8574466894e+00 
31400 5.4006009148e+00 3.2888441308e-04 1.6497374251e+00 -2.8574290394e+00 1.6497374251e+00 2.8574290394e+00 
31500 5.4006009423e+00 3.2169771077e-04 1.6497274573e+00 -2.8574117747e+00 1.6497274573e+00 2.8574117747e+00 
31600 5.4006009694e+00 3.1466513600e-04 1.6497177073e+00 -2.8573948872e+00 1.6497177073e+00 2.8573948872e+00 
31700 5.4006009962e+00 3.0778576872e-04 1.6497081704e+00 -2.8573783687e+00 1.6497081704e+00 2.8573783687e+00 
31800 5.4006010226e+00 3.0105855712e-04 1.6496988419e+00 -2.8573622113e+00 1.6496988419e+00 2.8573622113e+00 
31900 5.4006010486e+00 2.9448232346e-04 1.6496897172e+00 -2.8573464070e+00 1.6496897172e+00 2.8573464070e+00 
32000 5.4006010742e+00 2.8805577003e-04 1.6496807919e+00 -2.8573309478e+00 1.6496807919e+00 2.8573309478e+00 
32100 5.4006010994e+00 2.8177748511e-04 1.6496720612e+00 -2.8573158258e+00 1.6496720612e+00 2.8573158258e+00 
32200 5.4006011243e+00 2.7564594888e-04 1.6496635208e+00 -2.8573010334e+00 1.6496635208e+00 2.8573010334e+00 
32300 5.4006011487e+00 2.6965953933e-04 1.6496551662e+00 -2.8572865628e+00 1.6496551662e+00 2.8572865628e+00 
32400 5.4006011728e+00 2.6381653816e-04 1.6496469930e+00 -2.8572724064e+00 1.6496469930e+00 2.8572724064e+00 
32500 5.4006011966e+00 2.5811513661e-04 1.6496389969e+00 -2.8572585567e+00 1.6496389969e+00 2.8572585567e+00 
32600 5.4006012199e+00 2.5255344123e-04 1.6496311735e+00 -2.8572450062e+00 1.6496311735e+00 2.8572450062e+00 
32700 5.4006012429e+00 2.4712947966e-04 1.6496235186e+00 -2.8572317477e+00 1.6496235186e+00 2.8572317477e+00 
32800 5.4006012655e+00 2.4184120622e-04 1.6496160282e+00 -2.8572187738e+00 1.6496160282e+00 2.8572187738e+00 
32900 5.4006012878e+00 2.3668650754e-04 1.6496086979e+00 -2.8572060774e+00 1.6496086979e+00 2.8572060774e+00 
33000 5.4006013097e+00 2.3166320799e-04 1.6496015239e+00 -2.8571936517e+00 1.6496015239e+00 2.8571936517e+00 
33100 5.4006013313e+00 2.2676907514e-04 1.6495945021e+00 -2.8571814896e+00 1.6495945021e+00 2.8571814896e+00 
33200 5.4006013525e+00 2.2200182499e-04 1.6495876287e+00 -2.8571695844e+00 1.6495876287e+00 2.8571695844e+00 
33300 5.4006013734e+00 2.1735912717e-04 1.6495808997e+00 -2.8571579294e+00 1.6495808997e+00 2.8571579294e+00 
33400 5.4006013940e+00 2.1283861003e-04 1.6495743114e+00 -2.8571465181e+00 1.6495743114e+00 2.8571465181e+00 
33500 5.4006014142e+00 2.0843786555e-04 1.6495678600e+00 -2.8571353441e+00 1.6495678600e+00 2.8571353441e+00 
33600 5.4006014342e+00 2.0415445415e-04 1.6495615421e+00 -2.8571244011e+00 1.6495615421e+00 2.8571244011e+00 
33700 5.4006014538e+00 1.9998590944e-04 1.6495553540e+00 -2.8571136829e+00 1.6495553540e+00 2.8571136829e+00 
33800 5.4006014730e+00 1.9592974272e-04 1.6495492921e+00 -2.8571031836e+00 1.6495492921e+00 2.8571031836e+00 
33900 5.4006014920e+00 1.9198344741e-04 1.6495433533e+00 -2.8570928971e+00 1.6495433533e+00 2.8570928971e+00 
34000 5.4006015107e+00 1.8814450334e-04 1.6495375340e+00 -2.8570828178e+00 1.6495375340e+00 2.8570828178e+00 
34100 5.4006015291e+00 1.8441038090e-04 1.6495318310e+00 -2.8570729400e+00 1.6495318310e+00 2.8570729400e+00 
34200 5.4006015472e+00 1.8077854500e-04 1.6495262413e+00 -2.8570632583e+00 1.6495262413e+00 2.8570632583e+00 
34300 5.4006015650e+00 1.7724645892e-04 1.6495207615e+00 -2.8570537671e+00 1.6495207615e+00 2.8570537671e+00 
34400 5.4006015825e+00 1.7381158804e-04 1.6495153889e+00 -2.8570444614e+00 1.6495153889e+00 2.8570444614e+00 
34500 5.4006015997e+00 1.7047140335e-04 1.6495101203e+00 -2.8570353360e+00 1.6495101203e+00 2.8570353360e+00 
34600 5.4006016167e+00 1.6722338487e-04 1.6495049530e+00 -2.8570263859e+00 1.6495049530e+00 2.8570263859e+00 
34700 5.4006016334e+00 1.6406502488e-04 1.6494998841e+00 -2.8570176063e+00 1.6494998841e+00 2.8570176063e+00 
34800 5.4006016498e+00 1.6099383104e-04 1.6494949109e+00 -2.8570089925e+00 1.6494949109e+00 2.8570089925e+00 
34900 5.4006016659e+00 1.5800732930e-04 1.6494900308e+00 -2.8570005400e+00 1.6494900308e+00 2.8570005400e+00 
35000 5.4006016818e+00 1.5510306676e-04 1.6494852412e+00 -2.8569922442e+00 1.6494852412e+00 2.8569922442e+00 
35100 5.4006016975e+00 1.5227861426e-04 1.6494805397e+00 -2.8569841008e+00 1.6494805397e+00 2.8569841008e+00 
35200 5.4006017129e+00 1.4953156890e-04 1.6494759237e+00 -2.8569761058e+00 1.6494759237e+00 2.8569761058e+00 
35300 5.4006017280e+00 1.4685955642e-04 1.6494713910e+00 -2.8569682549e+00 1.6494713910e+00 2.8569682549e+00 
35400 5.4006017430e+00 1.4426023338e-04 1.6494669393e+00 -2.8569605443e+00 1.6494669393e+00 2.8569605443e+00 
35500 5.4006017576e+00 1.4173128925e-04 1.6494625664e+00 -2.8569529702e+00 1.6494625664e+00 2.8569529702e+00 
35600 5.4006017721e+00 1.3927044834e-04 1.6494582701e+00 -2.8569455288e+00 1.6494582701e+00 2.8569455288e+00 
35700 5.4006017863e+00 1.3687547157e-04 1.6494540484e+00 -2.8569382166e+00 1.6494540484e+00 2.8569382166e+00 
35800 5.4006018003e+00 1.3454415814e-04 1.6494498993e+00 -2.8569310301e+00 1.6494498993e+00 2.8569310301e+00 
35900 5.4006018140e+00 1.3227434705e-04 1.6494458208e+00 -2.8569239660e+00 1.6494458208e+00 2.8569239660e+00 
36000 5.4006018276e+00 1.3006391851e-04 1.6494418112e+00 -2.8569170211e+00 1.6494418112e+00 2.8569170211e+00 
36100 5.4006018409e+00 1.2791079516e-04 1.6494378685e+00 -2.8569101922e+00 1.6494378685e+00 2.8569101922e+00 
36200 5.4006018540e+00 1.2581294325e-04 1.6494339911e+00 -2.8569034763e+00 1.6494339911e+00 2.8569034763e+00 
36300 5.4006018669e+00 1.2376837364e-04 1.6494301773e+00 -2.8568968706e+00 1.6494301773e+00 2.8568968706e+00 
36400 5.4006018795e+00 1.2177514271e-04 1.6494264254e+00 -2.8568903722e+00 1.6494264254e+00 2.8568903722e+00 
36500 5.4006018920e+00 1.1983135310e-04 1.6494227340e+00 -2.8568839785e+00 1.6494227340e+00 2.8568839785e+00 
36600 5.4006019043e+00 1.1793515446e-04 1.6494191015e+00 -2.8568776867e+00 1.6494191015e+00 2.8568776867e+00 
36700 5.4006019164e+00 1.1608474396e-04 1.6494155264e+00 -2.8568714946e+00 1.6494155264e+00 2.8568714946e+00 
36800 5.4006019282e+00 1.1427836677e-04 1.6494120075e+00 -2.8568653995e+00 1.6494120075e+00 2.8568653995e+00 
36900 5.4006019399e+00 1.1251431640e-04 1.6494085433e+00 -2.8568593994e+00 1.6494085433e+00 2.8568593994e+00 
37000 5.4006019514e+00 1.1079093498e-04 1.6494051325e+00 -2.8568534918e+00 1.6494051325e+00 2.8568534918e+00 
37100 5.4006019627e+00 1.0910661344e-04 1.6494017740e+00 -2.8568476747e+00 1.6494017740e+00 2.8568476747e+00 
37200 5.4006019738e+00 1.0745979156e-04 1.6493984665e+00 -2.8568419460e+00 1.6493984665e+00 2.8568419460e+00 
37300 5.4006019848e+00 1.0584895799e-04 1.6493952090e+00 -2.8568363037e+00 1.6493952090e+00 2.8568363037e+00 
37400 5.4006019955e+00 1.0427265012e-04 1.6493920003e+00 -2.8568307461e+00 1.6493920003e+00 2.8568307461e+00 
37500 5.4006020061e+00 1.0272945398e-04 1.6493888393e+00 -2.8568252712e+00 1.6493888393e+00 2.8568252712e+00 
37600 5.4006020165e+00 1.0121800392e-04 1.6493857252e+00 -2.8568198773e+00 1.6493857252e+00 2.8568198773e+00 
37700 5.4006020267e+00 9.9736982359e-05 1.6493826568e+00 -2.8568145627e+00 1.6493826568e+00 2.8568145627e+00 
37800 5.4006020367e+00 9.8285119348e-05 1.6493796334e+00 -2.8568093259e+00 1.6493796334e+00 2.8568093259e+00 
37900 5.4006020466e+00 9.6861192165e-05 1.6493766539e+00 -2.8568041654e+00 1.6493766539e+00 2.8568041654e+00 
38000 5.4006020563e+00 9.5464024794e-05 1.6493737176e+00 -2.8567990796e+00 1.6493737176e+00 2.8567990796e+00 
38100 5.4006020659e+00 9.4092487352e-05 1.6493708237e+00 -2.8567940671e+00 1.6493708237e+00 2.8567940671e+00 
38200 5.4006020753e+00 9.2745495489e-05 1.6493679713e+00 -2.8567891266e+00 1.6493679713e+00 2.8567891266e+00 
38300 5.4006020845e+00 9.1422009707e-05 1.6493651597e+00 -2.8567842569e+00 1.6493651597e+00 2.8567842569e+00 
38400 5.4006020936e+00 9.0121034650e-05 1.6493623883e+00 -2.8567794566e+00 1.6493623883e+00 2.8567794566e+00 
38500 5.4006021025e+00 8.8841618354e-05 1.6493596563e+00 -2.8567747247e+00 1.6493596563e+00 2.8567747247e+00 
38600 5.4006021113e+00 8.7582851444e-05 1.6493569631e+00 -2.8567700599e+00 1.6493569631e+00 2.8567700599e+00 
38700 5.4006021199e+00 8.6343866299e-05 1.6493543080e+00 -2.8567654612e+00 1.6493543080e+00 2.8567654612e+00 
38800 5.4006021284e+00 8.5123836193e-05 1.6493516905e+00 -2.8567609275e+00 1.6493516905e+00 2.8567609275e+00 
38900 5.4006021367e+00 8.3921974394e-05 1.6493491100e+00 -2.8567564579e+00 1.6493491100e+00 2.8567564579e+00 
39000 5.4006021449e+00 8.2737533236e-05 1.6493465659e+00 -2.8567520514e+00 1.6493465659e+00 2.8567520514e+00 
39100 5.4006021529e+00 8.1569803178e-05 1.6493440577e+00 -2.8567477071e+00 1.6493440577e+00 2.8567477071e+00 
39200 5.4006021608e+00 8.0418111828e-05 1.6493415849e+00 -2.8567434241e+00 1.6493415849e+00 2.8567434241e+00 
39300 5.4006021686e+00 7.9281822956e-05 1.6493391470e+00 -2.8567392016e+00 1.6493391470e+00 2.8567392016e+00 
39400 5.4006021762e+00 7.8160335488e-05 1.6493367436e+00 -2.8567350387e+00 1.6493367436e+00 2.8567350387e+00 
39500 5.4006021838e+00 7.7053082482e-05 1.6493343742e+00 -2.8567309347e+00 1.6493343742e+00 2.8567309347e+00 
39600 5.4006021911e+00 7.5959530107e-05 1.6493320383e+00 -2.8567268888e+00 1.6493320383e+00 2.8567268888e+00 
39700 5.4006021984e+00 7.4879176598e-05 1.6493297355e+00 -2.8567229004e+00 1.6493297355e+00 2.8567229004e+00 
39800 5.4006022055e+00 7.3811551210e-05 1.6493274655e+00 -2.8567189686e+00 1.6493274655e+00 2.8567189686e+00 
39900 5.4006022125e+00 7.2756213168e-05 1.6493252279e+00 -2.8567150930e+00 1.6493252279e+00 2.8567150930e+00 
40000 5.4006022194e+00 7.1712750620e-05 1.6493230223e+00 -2.8567112727e+00 1.6493230223e+00 2.8567112727e+00 
40100 5.4006022261e+00 7.0680779578e-05 1.6493208483e+00 -2.8567075072e+00 1.6493208483e+00 2.8567075072e+00 
40200 5.4006022329e+00 7.1263957362e-05 1.6493208483e+00 -2.8567075072e+00 1.6493208483e+00 2.8567075072e+00 
40300 5.4006022395e+00 7.0227871534e-05 1.6493186879e+00 -2.8567037653e+00 1.6493186879e+00 2.8567037653e+00 
40400 5.4006022460e+00 7.0796330365e-05 1.6493186879e+00 -2.8567037653e+00 1.6493186879e+00 2.8567037653e+00 
40500 5.4006022523e+00 6.9755675215e-05 1.6493165416e+00 -2.8567000479e+00 1.6493165416e+00 2.8567000479e+00 
40600 5.4006022587e+00 7.0308581795e-05 1.6493165416e+00 -2.8567000479e+00 1.6493165416e+00 2.8567000479e+00 
40700 5.4006022649e+00 7.0858591867e-05 1.6493165416e+00 -2.8567000479e+00 1.6493165416e+00 2.8567000479e+00 
40800 5.4006022709e+00 6.9797451258e-05 1.6493143935e+00 -2.8566963272e+00 1.6493143935e+00 2.8566963272e+00 
40900 5.4006022769e+00 7.0330675260e-05 1.6493143935e+00 -2.8566963272e+00 1.6493143935e+00 2.8566963272e+00 
41000 5.4006022828e+00 7.0860430789e-05 1.6493143935e+00 -2.8566963272e+00 1.6493143935e+00 2.8566963272e+00 
41100 5.4006022885e+00 6.9778450430e-05 1.6493122454e+00 -2.8566926065e+00 1.6493122454e+00 2.8566926065e+00 
41200 5.4006022942e+00 7.0290358130e-05 1.6493122454e+00 -2.8566926065e+00 1.6493122454e+00 2.8566926065e+00 
41300 5.4006022998e+00 7.0798308297e-05 1.6493122454e+00 -2.8566926065e+00 1.6493122454e+00 2.8566926065e+00 
41400 5.4006023051e+00 6.9695471667e-05 1.6493100991e+00 -2.8566888890e+00 1.6493100991e+00 2.8566888890e+00 
41500 5.4006023106e+00 7.0184689007e-05 1.6493100991e+00 -2.8566888890e+00 1.6493100991e+00 2.8566888890e+00 
41600 5.4006023159e+00 7.0669543797e-05 1.6493100991e+00 -2.8566888890e+00 1.6493100991e+00 2.8566888890e+00 
41700 5.4006023211e+00 7.1149910337e-05 1.6493100991e+00 -2.8566888890e+00 1.6493100991e+00 2.8566888890e+00 
41800 5.4006023261e+00 7.0011013387e-05 1.6493079421e+00 -2.8566851530e+00 1.6493079421e+00 2.8566851530e+00 
41900 5.4006023311e+00 7.0471629556e-05 1.6493079421e+00 -2.8566851530e+00 1.6493079421e+00 2.8566851530e+00 
42000 5.4006023361e+00 7.0927448105e-05 1.6493079421e+00 -2.8566851530e+00 1.6493079421e+00 2.8566851530e+00 
42100 5.4006023408e+00 6.9768769282e-05 1.6493057919e+00 -2.8566814287e+00 1.6493057919e+00 2.8566814287e+00 
42200 5.4006023456e+00 7.0204335312e-05 1.6493057919e+00 -2.8566814287e+00 1.6493057919e+00 2.8566814287e+00 
42300 5.4006023503e+00 7.0634877515e-05 1.6493057919e+00 -2.8566814287e+00 1.6493057919e+00 2.8566814287e+00 
42400 5.4006023549e+00 7.1060329028e-05 1.6493057919e+00 -2.8566814287e+00 1.6493057919e+00 2.8566814287e+00 
42500 5.4006023592e+00 6.9868004414e-05 1.6493036376e+00 -2.8566776975e+00 1.6493036376e+00 2.8566776975e+00 
42600 5.4006023637e+00 7.0272688076e-05 1.6493036376e+00 -2.8566776975e+00 1.6493036376e+00 2.8566776975e+00 
42700 5.4006023681e+00 7.0672144393e-05 1.6493036376e+00 -2.8566776975e+00 1.6493036376e+00 2.8566776975e+00 
42800 5.4006023724e+00 7.1066335563e-05 1.6493036376e+00 -2.8566776975e+00 1.6493036376e+00 2.8566776975e+00 
42900 5.4006023764e+00 6.9842467294e-05 1.6493014832e+00 -2.8566739659e+00 1.6493014832e+00 2.8566739659e+00 
43000 5.4006023806e+00 7.0215626155e-05 1.6493014832e+00 -2.8566739659e+00 1.6493014832e+00 2.8566739659e+00 
43100 5.4006023846e+00 7.0583467423e-05 1.6493014832e+00 -2.8566739659e+00 1.6493014832e+00 2.8566739659e+00 
43200 5.4006023886e+00 7.0945980256e-05 1.6493014832e+00 -2.8566739659e+00 1.6493014832e+00 2.8566739659e+00 
43300 5.4006023924e+00 6.9693126195e-05 1.6492993324e+00 -2.8566702406e+00 1.6492993324e+00 2.8566702406e+00 
43400 5.4006023963e+00 7.0034576293e-05 1.6492993324e+00 -2.8566702406e+00 1.6492993324e+00 2.8566702406e+00 
43500 5.4006024001e+00 7.0370722580e-05 1.6492993324e+00 -2.8566702406e+00 1.6492993324e+00 2.8566702406e+00 
43600 5.4006024038e+00 7.0701578575e-05 1.6492993324e+00 -2.8566702406e+00 1.6492993324e+00 2.8566702406e+00 
43700 5.4006024075e+00 7.1027159232e-05 1.6492993324e+00 -2.8566702406e+00 1.6492993324e+00 2.8566702406e+00 
43800 5.4006024109e+00 6.9735607261e-05 1.6492971792e+00 -2.8566665111e+00 1.6492971792e+00 2.8566665111e+00 
43900 5.4006024144e+00 7.0040294251e-05 1.6492971792e+00 -2.8566665111e+00 1.6492971792e+00 2.8566665111e+00 
44000 5.4006024179e+00 7.0339803790e-05 1.6492971792e+00 -2.8566665111e+00 1.6492971792e+00 2.8566665111e+00 
44100 5.4006024213e+00 7.0634172368e-05 1.6492971792e+00 -2.8566665111e+00 1.6492971792e+00 2.8566665111e+00 
44200 5.4006024246e+00 7.0923437153e-05 1.6492971792e+00 -2.8566665111e+00 1.6492971792e+00 2.8566665111e+00 
44300 5.4006024278e+00 6.9598113640e-05 1.6492950290e+00 -2.8566627870e+00 1.6492950290e+00 2.8566627870e+00 
44400 5.4006024310e+00 6.9866906725e-05 1.6492950290e+00 -2.8566627870e+00 1.6492950290e+00 2.8566627870e+00 
44500 5.4006024342e+00 7.0130755831e-05 1.6492950290e+00 -2.8566627870e+00 1.6492950290e+00 2.8566627870e+00 
44600 5.4006024373e+00 7.0389716512e-05 1.6492950290e+00 -2.8566627870e+00 1.6492950290e+00 2.8566627870e+00 
44700 5.4006024404e+00 7.0643844201e-05 1.6492950290e+00 -2.8566627870e+00 1.6492950290e+00 2.8566627870e+00 
44800 5.4006024434e+00 7.0893194217e-05 1.6492950290e+00 -2.8566627870e+00 1.6492950290e+00 2.8566627870e+00 
44900 5.4006024462e+00 6.9528983005e-05 1.6492928798e+00 -2.8566590645e+00 1.6492928798e+00 2.8566590645e+00 
45000 5.4006024491e+00 6.9758569390e-05 1.6492928798e+00 -2.8566590645e+00 1.6492928798e+00 2.8566590645e+00 
45100 5.4006024519e+00 6.9983587534e-05 1.6492928798e+00 -2.8566590645e+00 1.6492928798e+00 2.8566590645e+00 
45200 5.4006024547e+00 7.0204107928e-05 1.6492928798e+00 -2.8566590645e+00 1.6492928798e+00 2.8566590645e+00 
45300 5.4006024575e+00 7.0420200147e-05 1.6492928798e+00 -2.8566590645e+00 1.6492928798e+00 2.8566590645e+00 
45400 5.4006024602e+00 7.0631932854e-05 1.6492928798e+00 -2.8566590645e+00 1.6492928798e+00 2.8566590645e+00 
45500 5.4006024629e+00 7.0839373810e-05 1.6492928798e+00 -2.8566590645e+00 1.6492928798e+00 2.8566590645e+00 
45600 5.4006024653e+00 6.9434969282e-05 1.6492907323e+00 -2.8566553448e+00 1.6492907323e+00 2.8566553448e+00 
45700 5.4006024679e+00 6.9623660716e-05 1.6492907323e+00 -2.8566553448e+00 1.6492907323e+00 2.8566553448e+00 
45800 5.4006024704e+00 6.9808302454e-05 1.6492907323e+00 -2.8566553448e+00 1.6492907323e+00 2.8566553448e+00 
45900 5.4006024729e+00 6.9988974339e-05 1.6492907323e+00 -2.8566553448e+00 1.6492907323e+00 2.8566553448e+00 
46000 5.4006024753e+00 7.0165754550e-05 1.6492907323e+00 -2.8566553448e+00 1.6492907323e+00 2.8566553448e+00 
46100 5.4006024777e+00 7.0338719622e-05 1.6492907323e+00 -2.8566553448e+00 1.6492907323e+00 2.8566553448e+00 
46200 5.4006024801e+00 7.0507944461e-05 1.6492907323e+00 -2.8566553448e+00 1.6492907323e+00 2.8566553448e+00 
46300 5.4006024824e+00 7.0673502372e-05 1.6492907323e+00 -2.8566553448e+00 1.6492907323e+00 2.8566553448e+00 
46400 5.4006024846e+00 7.0835465076e-05 1.6492907323e+00 -2.8566553448e+00 1.6492907323e+00 2.8566553448e+00 
46500 5.4006024867e+00 6.9386367063e-05 1.6492885848e+00 -2.8566516253e+00 1.6492885848e+00 2.8566516253e+00 
46600 5.4006024889e+00 6.9530983355e-05 1.6492885848e+00 -2.8566516253e+00 1.6492885848e+00 2.8566516253e+00 
46700 5.4006024910e+00 6.9672254432e-05 1.6492885848e+00 -2.8566516253e+00 1.6492885848e+00 2.8566516253e+00 
46800 5.4006024932e+00 6.9810261534e-05 1.6492885848e+00 -2.8566516253e+00 1.6492885848e+00 2.8566516253e+00 
46900 5.4006024952e+00 6.9945083637e-05 1.6492885848e+00 -2.8566516253e+00 1.6492885848e+00 2.8566516253e+00 
47000 5.4006024973e+00 7.0076797487e-05 1.6492885848e+00 -2.8566516253e+00 1.6492885848e+00 2.8566516253e+00 
47100 5.4006024993e+00 7.0205477649e-05 1.6492885848e+00 -2.8566516253e+00 1.6492885848e+00 2.8566516253e+00 
47200 5.4006025013e+00 7.0331196531e-05 1.6492885848e+00 -2.8566516253e+00 1.6492885848e+00 2.8566516253e+00 
47300 5.4006025032e+00 7.0454024434e-05 1.6492885848e+00 -2.8566516253e+00 1.6492885848e+00 2.8566516253e+00 
47400 5.4006025051e+00 7.0574029592e-05 1.6492885848e+00 -2.8566516253e+00 1.6492885848e+00 2.8566516253e+00 
47500 5.4006025070e+00 7.0691278211e-05 1.6492885848e+00 -2.8566516253e+00 1.6492885848e+00 2.8566516253e+00 
47600 5.4006025088e+00 7.0805834517e-05 1.6492885848e+00 -2.8566516253e+00 1.6492885848e+00 2.8566516253e+00 
47700 5.4006025105e+00 6.9310892732e-05 1.6492864383e+00 -2.8566479073e+00 1.6492864383e+00 2.8566479073e+00 
47800 5.4006025122e+00 6.9409889039e-05 1.6492864383e+00 -2.8566479073e+00 1.6492864383e+00 2.8566479073e+00 
47900 5.4006025140e+00 6.9506418316e-05 1.6492864383e+00 -2.8566479073e+00 1.6492864383e+00 2.8566479073e+00 
48000 5.4006025157e+00 6.9600552915e-05 1.6492864383e+00 -2.8566479073e+00 1.6492864383e+00 2.8566479073e+00 
48100 5.4006025174e+00 6.9692362627e-05 1.6492864383e+00 -2.8566479073e+00 1.6492864383e+00 2.8566479073e+00 
48200 5.4006025190e+00 6.9781914742e-05 1.6492864383e+00 -2.8566479073e+00 1.6492864383e+00 2.8566479073e+00 
48300 5.4006025207e+00 6.9869274108e-05 1.6492864383e+00 -2.8566479073e+00 1.6492864383e+00 2.8566479073e+00 
48400 5.4006025223e+00 6.9954503183e-05 1.6492864383e+00 -2.8566479073e+00 1.6492864383e+00 2.8566479073e+00 
48500 5.4006025239e+00 7.0037662097e-05 1.6492864383e+00 -2.8566479073e+00 1.6492864383e+00 2.8566479073e+00 
48600 5.4006025254e+00 7.0118808713e-05 1.6492864383e+00 -2.8566479073e+00 1.6492864383e+00 2.8566479073e+00 
48700 5.4006025269e+00 7.0197998688e-05 1.6492864383e+00 -2.8566479073e+00 1.6492864383e+00 2.8566479073e+00 
48800 5.4006025284e+00 7.0275285528e-05 1.6492864383e+00 -2.8566479073e+00 1.6492864383e+00 2.8566479073e+00 
48900 5.4006025299e+00 7.0350720658e-05 1.6492864383e+00 -2.8566479073e+00 1.6492864383e+00 2.8566479073e+00 
49000 5.4006025313e+00 7.0424353478e-05 1.6492864383e+00 -2.8566479073e+00 1.6492864383e+00 2.8566479073e+00 
49100 5.4006025327e+00 7.0496231427e-05 1.6492864383e+00 -2.8566479073e+00 1.6492864383e+00 2.8566479073e+00 
49200 5.4006025341e+00 7.0566400041e-05 1.6492864383e+00 -2.8566479073e+00 1.6492864383e+00 2.8566479073e+00 
49300 5.4006025355e+00 7.0634903021e-05 1.6492864383e+00 -2.8566479073e+00 1.6492864383e+00 2.8566479073e+00 
49400 5.4006025369e+00 7.0701782289e-05 1.6492864383e+00 -2.8566479073e+00 1.6492864383e+00 2.8566479073e+00 
49500 5.4006025382e+00 7.0767078052e-05 1.6492864383e+00 -2.8566479073e+00 1.6492864383e+00 2.8566479073e+00 
49600 5.4006025393e+00 6.9224833208e-05 1.6492842929e+00 -2.8566441914e+00 1.6492842929e+00 2.8566441914e+00 
49700 5.4006025406e+00 6.9276721690e-05 1.6492842929e+00 -2.8566441914e+00 1.6492842929e+00 2.8566441914e+00 
49800 5.4006025418e+00 6.9327181586e-05 1.6492842929e+00 -2.8566441914e+00 1.6492842929e+00 2.8566441914e+00 
49900 5.4006025431e+00 6.9376262430e-05 1.6492842929e+00 -2.8566441914e+00 1.6492842929e+00 2.8566441914e+00 
50000 5.4006025443e+00 6.9424011535e-05 1.6492842929e+00 -2.8566441914e+00 1.6492842929e+00 2.8566441914e+00 
50100 5.4006025455e+00 6.9470474056e-05 1.6492842929e+00 -2.8566441914e+00 1.6492842929e+00 2.8566441914e+00 
50200 5.4006025467e+00 6.9515693056e-05 1.6492842929e+00 -2.8566441914e+00 1.6492842929e+00 2.8566441914e+00 
50300 5.4006025478e+00 6.9559709575e-05 1.6492842929e+00 -2.8566441914e+00 1.6492842929e+00 2.8566441914e+00 
50400 5.4006025489e+00 6.9602562697e-05 1.6492842929e+00 -2.8566441914e+00 1.6492842929e+00 2.8566441914e+00 
50500 5.4006025501e+00 6.9644289610e-05 1.6492842929e+00 -2.8566441914e+00 1.6492842929e+00 2.8566441914e+00 
50600 5.4006025512e+00 6.9684925679e-05 1.6492842929e+00 -2.8566441914e+00 1.6492842929e+00 2.8566441914e+00 
50700 5.4006025522e+00 6.9724504509e-05 1.6492842929e+00 -2.8566441914e+00 1.6492842929e+00 2.8566441914e+00 
50800 5.4006025533e+00 6.9763058008e-05 1.6492842929e+00 -2.8566441914e+00 1.6492842929e+00 2.8566441914e+00 
50900 5.4006025543e+00 6.9800616454e-05 1.6492842929e+00 -2.8566441914e+00 1.6492842929e+00 2.8566441914e+00 
51000 5.4006025554e+00 6.9837208560e-05 1.6492842929e+00 -2.8566441914e+00 1.6492842929e+00 2.8566441914e+00 
51100 5.4006025564e+00 6.9872861534e-05 1.6492842929e+00 -2.8566441914e+00 1.6492842929e+00 2.8566441914e+00 
51200 5.4006025574e+00 6.9907601142e-05 1.6492842929e+00 -2.8566441914e+00 1.6492842929e+00 2.8566441914e+00 
51300 5.4006025583e+00 6.9941451773e-05 1.6492842929e+00 -2.8566441914e+00 1.6492842929e+00 2.8566441914e+00 
51400 5.4006025593e+00 6.9974436491e-05 1.6492842929e+00 -2.8566441914e+00 1.6492842929e+00 2.8566441914e+00 
51500 5.4006025602e+00 7.0006577107e-05 1.6492842929e+00 -2.8566441914e+00 1.6492842929e+00 2.8566441914e+00 
51600 5.4006025611e+00 7.0037894226e-05 1.6492842929e+00 -2.8566441914e+00 1.6492842929e+00 2.8566441914e+00 
51700 5.4006025621e+00 7.0068407308e-05 1.6492842929e+00 -2.8566441914e+00 1.6492842929e+00 2.8566441914e+00 
51800 5.4006025629e+00 7.0098134729e-05 1.6492842929e+00 -2.8566441914e+00 1.6492842929e+00 2.8566441914e+00 
51900 5.4006025638e+00 7.0127093823e-05 1.6492842929e+00 -2.8566441914e+00 1.6492842929e+00 2.8566441914e+00 
52000 5.4006025647e+00 7.0155300952e-05 1.6492842929e+00 -2.8566441914e+00 1.6492842929e+00 2.8566441914e+00 
52100 5.4006025655e+00 7.0182771546e-05 1.6492842929e+00 -2.8566441914e+00 1.6492842929e+00 2.8566441914e+00 
52200 5.4006025664e+00 7.0209520158e-05 1.6492842929e+00 -2.8566441914e+00 1.6492842929e+00 2.8566441914e+00 
52300 5.4006025672e+00 7.0235560512e-05 1.6492842929e+00 -2.8566441914e+00 1.6492842929e+00 2.8566441914e+00 
52400 5.4006025680e+00 7.0260905554e-05 1.6492842929e+00 -2.8566441914e+00 1.6492842929e+00 2.8566441914e+00 
52500 5.4006025688e+00 7.0285567495e-05 1.6492842929e+00 -2.8566441914e+00 1.6492842929e+00 2.8566441914e+00 
52600 5.4006025696e+00 7.0309557859e-05 1.6492842929e+00 -2.8566441914e+00 1.6492842929e+00 2.8566441914e+00 
52700 5.4006025704e+00 7.0332887525e-05 1.6492842929e+00 -2.8566441914e+00 1.6492842929e+00 2.8566441914e+00 
52800 5.4006025711e+00 7.0355566770e-05 1.6492842929e+00 -2.8566441914e+00 1.6492842929e+00 2.8566441914e+00 
52900 5.4006025718e+00 7.0377605310e-05 1.6492842929e+00 -2.8566441914e+00 1.6492842929e+00 2.8566441914e+00 
53000 5.4006025726e+00 7.0399012340e-05 1.6492842929e+00 -2.8566441914e+00 1.6492842929e+00 2.8566441914e+00 
53100 5.4006025733e+00 7.0419796570e-05 1.6492842929e+00 -2.8566441914e+00 1.6492842929e+00 2.8566441914e+00 
53200 5.4006025740e+00 7.0439966263e-05 1.6492842929e+00 -2.8566441914e+00 1.6492842929e+00 2.8566441914e+00 
53300 5.4006025747e+00 7.0459529271e-05 1.6492842929e+00 -2.8566441914e+00 1.6492842929e+00 2.8566441914e+00 
53400 5.4006025754e+00 7.0478493066e-05 1.6492842929e+00 -2.8566441914e+00 1.6492842929e+00 2.8566441914e+00 
53500 5.4006025761e+00 7.0496864776e-05 1.6492842929e+00 -2.8566441914e+00 1.6492842929e+00 2.8566441914e+00 
53600 5.4006025767e+00 7.0514651210e-05 1.6492842929e+00 -2.8566441914e+00 1.6492842929e+00 2.8566441914e+00 
53700 5.4006025774e+00 7.0531858895e-05 1.6492842929e+00 -2.8566441914e+00 1.6492842929e+00 2.8566441914e+00 
53800 5.4006025780e+00 7.0548494096e-05 1.6492842929e+00 -2.8566441914e+00 1.6492842929e+00 2.8566441914e+00 
53900 5.4006025786e+00 7.0564562850e-05 1.6492842929e+00 -2.8566441914e+00 1.6492842929e+00 2.8566441914e+00 
54000 5.4006025792e+00 7.0580070986e-05 1.6492842929e+00 -2.8566441914e+00 1.6492842929e+00 2.8566441914e+00 
54100 5.4006025799e+00 7.0595024151e-05 1.6492842929e+00 -2.8566441914e+00 1.6492842929e+00 2.8566441914e+00 
54200 5.4006025805e+00 7.0609427836e-05 1.6492842929e+00 -2.8566441914e+00 1.6492842929e+00 2.8566441914e+00 
54300 5.4006025810e+00 7.0623287391e-05 1.6492842929e+00 -2.8566441914e+00 1.6492842929e+00 2.8566441914e+00 
54400 5.4006025816e+00 7.0636608050e-05 1.6492842929e+00 -2.8566441914e+00 1.6492842929e+00 2.8566441914e+00 
54500 5.4006025822e+00 7.0649394949e-05 1.6492842929e+00 -2.8566441914e+00 1.6492842929e+00 2.8566441914e+00 
54600 5.4006025827e+00 7.0661653142e-05 1.6492842929e+00 -2.8566441914e+00 1.6492842929e+00 2.8566441914e+00 
54700 5.4006025833e+00 7.0673387621e-05 1.6492842929e+00 -2.8566441914e+00 1.6492842929e+00 2.8566441914e+00 
54800 5.4006025838e+00 7.0684603331e-05 1.6492842929e+00 -2.8566441914e+00 1.6492842929e+00 2.8566441914e+00 
54900 5.4006025844e+00 7.0695305178e-05 1.6492842929e+00 -2.8566441914e+00 1.6492842929e+00 2.8566441914e+00 
55000 5.4006025849e+00 7.0705498054e-05 1.6492842929e+00 -2.8566441914e+00 1.6492842929e+00 2.8566441914e+00 
55100 5.4006025854e+00 7.0715186841e-05 1.6492842929e+00 -2.8566441914e+00 1.6492842929e+00 2.8566441914e+00 
55200 5.4006025857e+00 6.9119538856e-05 1.6492821491e+00 -2.8566404782e+00 1.6492821491e+00 2.8566404782e+00 
55300 5.4006025862e+00 6.9117888095e-05 1.6492821491e+00 -2.8566404782e+00 1.6492821491e+00 2.8566404782e+00 
55400 5.4006025867e+00 6.9115791853e-05 1.6492821491e+00 -2.8566404782e+00 1.6492821491e+00 2.8566404782e+00 
55500 5.4006025872e+00 6.9113270672e-05 1.6492821491e+00 -2.8566404782e+00 1.6492821491e+00 2.8566404782e+00 
55600 5.4006025877e+00 6.9110344329e-05 1.6492821491e+00 -2.8566404782e+00 1.6492821491e+00 2.8566404782e+00 
55700 5.4006025881e+00 6.9107031854e-05 1.6492821491e+00 -2.8566404782e+00 1.6492821491e+00 2.8566404782e+00 
55800 5.4006025886e+00 6.9103351547e-05 1.6492821491e+00 -2.8566404782e+00 1.6492821491e+00 2.8566404782e+00 
55900 5.4006025891e+00 6.9099320992e-05 1.6492821491e+00 -2.8566404782e+00 1.6492821491e+00 2.8566404782e+00 
56000 5.4006025895e+00 6.9094957074e-05 1.6492821491e+00 -2.8566404782e+00 1.6492821491e+00 2.8566404782e+00 
56100 5.4006025899e+00 6.9090276000e-05 1.6492821491e+00 -2.8566404782e+00 1.6492821491e+00 2.8566404782e+00 
56200 5.4006025904e+00 6.9085293309e-05 1.6492821491e+00 -2.8566404782e+00 1.6492821491e+00 2.8566404782e+00 
56300 5.4006025908e+00 6.9080023898e-05 1.6492821491e+00 -2.8566404782e+00 1.6492821491e+00 2.8566404782e+00 
56400 5.4006025912e+00 6.9074482030e-05 1.6492821491e+00 -2.8566404782e+00 1.6492821491e+00 2.8566404782e+00 
56500 5.4006025916e+00 6.9068681357e-05 1.6492821491e+00 -2.8566404782e+00 1.6492821491e+00 2.8566404782e+00 
56600 5.4006025920e+00 6.9062634937e-05 1.6492821491e+00 -2.8566404782e+00 1.6492821491e+00 2.8566404782e+00 
56700 5.4006025924e+00 6.9056355252e-05 1.6492821491e+00 -2.8566404782e+00 1.6492821491e+00 2.8566404782e+00 
56800 5.4006025928e+00 6.9049854220e-05 1.6492821491e+00 -2.8566404782e+00 1.6492821491e+00 2.8566404782e+00 
56900 5.4006025932e+00 6.9043143220e-05 1.6492821491e+00 -2.8566404782e+00 1.6492821491e+00 2.8566404782e+00 
57000 5.4006025936e+00 6.9036233106e-05 1.6492821491e+00 -2.8566404782e+00 1.6492821491e+00 2.8566404782e+00 
57100 5.4006025939e+00 6.9029134223e-05 1.6492821491e+00 -2.8566404782e+00 1.6492821491e+00 2.8566404782e+00 
57200 5.4006025943e+00 6.9021856423e-05 1.6492821491e+00 -2.8566404782e+00 1.6492821491e+00 2.8566404782e+00 
57300 5.4006025947e+00 6.9014409088e-05 1.6492821491e+00 -2.8566404782e+00 1.6492821491e+00 2.8566404782e+00 
57400 5.4006025950e+00 6.9006801140e-05 1.6492821491e+00 -2.8566404782e+00 1.6492821491e+00 2.8566404782e+00 
57500 5.4006025954e+00 6.8999041061e-05 1.6492821491e+00 -2.8566404782e+00 1.6492821491e+00 2.8566404782e+00 
57600 5.4006025957e+00 6.8991136908e-05 1.6492821491e+00 -2.8566404782e+00 1.6492821491e+00 2.8566404782e+00 
57700 5.4006025960e+00 6.8983096333e-05 1.6492821491e+00 -2.8566404782e+00 1.6492821491e+00 2.8566404782e+00 
57800 5.4006025964e+00 6.8974926590e-05 1.6492821491e+00 -2.8566404782e+00 1.6492821491e+00 2.8566404782e+00 
57900 5.4006025967e+00 6.8966634562e-05 1.6492821491e+00 -2.8566404782e+00 1.6492821491e+00 2.8566404782e+00 
58000 5.4006025970e+00 6.8958226767e-05 1.6492821491e+00 -2.8566404782e+00 1.6492821491e+00 2.8566404782e+00 
58100 5.4006025973e+00 6.8949709379e-05 1.6492821491e+00 -2.8566404782e+00 1.6492821491e+00 2.8566404782e+00 
58200 5.4006025977e+00 6.8941088240e-05 1.6492821491e+00 -2.8566404782e+00 1.6492821491e+00 2.8566404782e+00 
58300 5.4006025980e+00 6.8932368875e-05 1.6492821491e+00 -2.8566404782e+00 1.6492821491e+00 2.8566404782e+00 
58400 5.4006025983e+00 6.8923556506e-05 1.6492821491e+00 -2.8566404782e+00 1.6492821491e+00 2.8566404782e+00 
58500 5.4006025986e+00 6.8914656067e-05 1.6492821491e+00 -2.8566404782e+00 1.6492821491e+00 2.8566404782e+00 
58600 5.4006025988e+00 6.8905672215e-05 1.6492821491e+00 -2.8566404782e+00 1.6492821491e+00 2.8566404782e+00 
58700 5.4006025991e+00 6.8896609346e-05 1.6492821491e+00 -2.8566404782e+00 1.6492821491e+00 2.8566404782e+00 
58800 5.4006025994e+00 6.8887471607e-05 1.6492821491e+00 -2.8566404782e+00 1.6492821491e+00 2.8566404782e+00 
58900 5.4006025997e+00 6.8878262909e-05 1.6492821491e+00 -2.8566404782e+00 1.6492821491e+00 2.8566404782e+00 
59000 5.4006026000e+00 6.8868986937e-05 1.6492821491e+00 -2.8566404782e+00 1.6492821491e+00 2.8566404782e+00 
59100 5.4006026002e+00 6.8859647163e-05 1.6492821491e+00 -2.8566404782e+00 1.6492821491e+00 2.8566404782e+00 
59200 5.4006026005e+00 6.8850246858e-05 1.6492821491e+00 -2.8566404782e+00 1.6492821491e+00 2.8566404782e+00 
59300 5.4006026008e+00 6.8840789104e-05 1.6492821491e+00 -2.8566404782e+00 1.6492821491e+00 2.8566404782e+00 
59400 5.4006026010e+00 6.8831276804e-05 1.6492821491e+00 -2.8566404782e+00 1.6492821491e+00 2.8566404782e+00 
59500 5.4006026013e+00 6.8821712688e-05 1.6492821491e+00 -2.8566404782e+00 1.6492821491e+00 2.8566404782e+00 
59600 5.4006026015e+00 6.8812099331e-05 1.6492821491e+00 -2.8566404782e+00 1.6492821491e+00 2.8566404782e+00 
59700 5.4006026018e+00 6.8802439158e-05 1.6492821491e+00 -2.8566404782e+00 1.6492821491e+00 2.8566404782e+00 
59800 5.4006026020e+00 6.8792734452e-05 1.6492821491e+00 -2.8566404782e+00 1.6492821491e+00 2.8566404782e+00 
59900 5.4006026022e+00 6.8782987367e-05 1.6492821491e+00 -2.8566404782e+00 1.6492821491e+00 2.8566404782e+00 
60000 5.4006026025e+00 6.8773199935e-05 1.6492821491e+00 -2.8566404782e+00 1.6492821491e+00 2.8566404782e+00 
60100 5.4006026027e+00 6.8763374072e-05 1.6492821491e+00 -2.8566404782e+00 1.6492821491e+00 2.8566404782e+00 
60200 5.4006026029e+00 6.8753511588e-05 1.6492821491e+00 -2.8566404782e+00 1.6492821491e+00 2.8566404782e+00 
60300 5.4006026032e+00 6.8743614195e-05 1.6492821491e+00 -2.8566404782e+00 1.6492821491e+00 2.8566404782e+00 
60400 5.4006026034e+00 6.8733683516e-05 1.6492821491e+00 -2.8566404782e+00 1.6492821491e+00 2.8566404782e+00 
60500 5.4006026036e+00 6.8723721086e-05 1.6492821491e+00 -2.8566404782e+00 1.6492821491e+00 2.8566404782e+00 
60600 5.4006026038e+00 6.8713728365e-05 1.6492821491e+00 -2.8566404782e+00 1.6492821491e+00 2.8566404782e+00 
60700 5.4006026040e+00 6.8703706740e-05 1.6492821491e+00 -2.8566404782e+00 1.6492821491e+00 2.8566404782e+00 
60800 5.4006026042e+00 6.8693657535e-05 1.6492821491e+00 -2.8566404782e+00 1.6492821491e+00 2.8566404782e+00 
60900 5.4006026044e+00 6.8683582012e-05 1.6492821491e+00 -2.8566404782e+00 1.6492821491e+00 2.8566404782e+00 
61000 5.4006026046e+00 6.8673481379e-05 1.6492821491e+00 -2.8566404782e+00 1.6492821491e+00 2.8566404782e+00 
61100 5.4006026048e+00 6.8663356797e-05 1.6492821491e+00 -2.8566404782e+00 1.6492821491e+00 2.8566404782e+00 
61200 5.4006026050e+00 6.8653209379e-05 1.6492821491e+00 -2.8566404782e+00 1.6492821491e+00 2.8566404782e+00 
61300 5.4006026052e+00 6.8643040205e-05 1.6492821491e+00 -2.8566404782e+00 1.6492821491e+00 2.8566404782e+00 
61400 5.4006026054e+00 6.8632850313e-05 1.6492821491e+00 -2.8566404782e+00 1.6492821491e+00 2.8566404782e+00 
61500 5.4006026056e+00 6.8622640713e-05 1.6492821491e+00 -2.8566404782e+00 1.6492821491e+00 2.8566404782e+00 
61600 5.4006026058e+00 6.8612412385e-05 1.6492821491e+00 -2.8566404782e+00 1.6492821491e+00 2.8566404782e+00 
61700 5.4006026059e+00 6.8602166289e-05 1.6492821491e+00 -2.8566404782e+00 1.6492821491e+00 2.8566404782e+00 
61800 5.4006026061e+00 6.8591903361e-05 1.6492821491e+00 -2.8566404782e+00 1.6492821491e+00 2.8566404782e+00 
61900 5.4006026063e+00 6.8581624521e-05 1.6492821491e+00 -2.8566404782e+00 1.6492821491e+00 2.8566404782e+00 
62000 5.4006026064e+00 6.8571330674e-05 1.6492821491e+00 -2.8566404782e+00 1.6492821491e+00 2.8566404782e+00 
62100 5.4006026066e+00 6.8561022712e-05 1.6492821491e+00 -2.8566404782e+00 1.6492821491e+00 2.8566404782e+00 
62200 5.4006026068e+00 6.8550701518e-05 1.6492821491e+00 -2.8566404782e+00 1.6492821491e+00 2.8566404782e+00 
62300 5.4006026069e+00 6.8540367968e-05 1.6492821491e+00 -2.8566404782e+00 1.6492821491e+00 2.8566404782e+00 
62400 5.4006026071e+00 6.8530022930e-05 1.6492821491e+00 -2.8566404782e+00 1.6492821491e+00 2.8566404782e+00 
62500 5.4006026073e+00 6.8519667272e-05 1.6492821491e+00 -2.8566404782e+00 1.6492821491e+00 2.8566404782e+00 
62600 5.4006026074e+00 6.8509301858e-05 1.6492821491e+00 -2.8566404782e+00 1.6492821491e+00 2.8566404782e+00 
62700 5.4006026076e+00 6.8498927551e-05 1.6492821491e+00 -2.8566404782e+00 1.6492821491e+00 2.8566404782e+00 
62800 5.4006026077e+00 6.8488545217e-05 1.6492821491e+00 -2.8566404782e+00 1.6492821491e+00 2.8566404782e+00 
62900 5.4006026079e+00 6.8478155721e-05 1.6492821491e+00 -2.8566404782e+00 1.6492821491e+00 2.8566404782e+00 
63000 5.4006026080e+00 6.8467759935e-05 1.6492821491e+00 -2.8566404782e+00 1.6492821491e+00 2.8566404782e+00 
63100 5.4006026082e+00 6.8457358729e-05 1.6492821491e+00 -2.8566404782e+00 1.6492821491e+00 2.8566404782e+00 
63200 5.4006026083e+00 6.8446952984e-05 1.6492821491e+00 -2.8566404782e+00 1.6492821491e+00 2.8566404782e+00 
63300 5.4006026084e+00 6.8436543583e-05 1.6492821491e+00 -2.8566404782e+00 1.6492821491e+00 2.8566404782e+00 
63400 5.4006026086e+00 6.8426131416e-05 1.6492821491e+00 -2.8566404782e+00 1.6492821491e+00 2.8566404782e+00 
63500 5.4006026087e+00 6.8415717376e-05 1.6492821491e+00 -2.8566404782e+00 1.6492821491e+00 2.8566404782e+00 
63600 5.4006026088e+00 6.8405302367e-05 1.6492821491e+00 -2.8566404782e+00 1.6492821491e+00 2.8566404782e+00 
63700 5.4006026090e+00 6.8394887298e-05 1.6492821491e+00 -2.8566404782e+00 1.6492821491e+00 2.8566404782e+00 
63800 5.4006026091e+00 6.8384473083e-05 1.6492821491e+00 -2.8566404782e+00 1.6492821491e+00 2.8566404782e+00 
63900 5.4006026092e+00 6.8374060646e-05 1.6492821491e+00 -2.8566404782e+00 1.6492821491e+00 2.8566404782e+00 
64000 5.4006026094e+00 6.8363650913e-05 1.6492821491e+00 -2.8566404782e+00 1.6492821491e+00 2.8566404782e+00 
64100 5.4006026095e+00 6.8353244821e-05 1.6492821491e+00 -2.8566404782e+00 1.6492821491e+00 2.8566404782e+00 
64200 5.4006026096e+00 6.8342843311e-05 1.6492821491e+00 -2.8566404782e+00 1.6492821491e+00 2.8566404782e+00 
64300 5.4006026097e+00 6.8332447332e-05 1.6492821491e+00 -2.8566404782e+00 1.6492821491e+00 2.8566404782e+00 
64400 5.4006026098e+00 6.8322057834e-05 1.6492821491e+00 -2.8566404782e+00 1.6492821491e+00 2.8566404782e+00 
64500 5.4006026099e+00 6.8311675777e-05 1.6492821491e+00 -2.8566404782e+00 1.6492821491e+00 2.8566404782e+00 
64600 5.4006026101e+00 6.8301302124e-05 1.6492821491e+00 -2.8566404782e+00 1.6492821491e+00 2.8566404782e+00 
64700 5.4006026102e+00 6.8290937841e-05 1.6492821491e+00 -2.8566404782e+00 1.6492821491e+00 2.8566404782e+00 
64800 5.4006026103e+00 6.8280583900e-05 1.6492821491e+00 -2.8566404782e+00 1.6492821491e+00 2.8566404782e+00 
64900 5.4006026104e+00 6.8270241274e-05 1.6492821491e+00 -2.8566404782e+00 1.6492821491e+00 2.8566404782e+00 
65000 5.4006026105e+00 6.8259910940e-05 1.6492821491e+00 -2.8566404782e+00 1.6492821491e+00 2.8566404782e+00 
65100 5.4006026106e+00 6.8249593874e-05 1.6492821491e+00 -2.8566404782e+00 1.6492821491e+00 2.8566404782e+00 
65200 5.4006026107e+00 6.8239291058e-05 1.6492821491e+00 -2.8566404782e+00 1.6492821491e+00 2.8566404782e+00 
65300 5.4006026108e+00 6.8229003470e-05 1.6492821491e+00 -2.8566404782e+00 1.6492821491e+00 2.8566404782e+00 
65400 5.4006026109e+00 6.8218732090e-05 1.6492821491e+00 -2.8566404782e+00 1.6492821491e+00 2.8566404782e+00 
65500 5.4006026110e+00 6.8208477896e-05 1.6492821491e+00 -2.8566404782e+00 1.6492821491e+00 2.8566404782e+00 
65600 5.4006026111e+00 6.8198241864e-05 1.6492821491e+00 -2.8566404782e+00 1.6492821491e+00 2.8566404782e+00 
65700 5.4006026112e+00 6.8188024969e-05 1.6492821491e+00 -2.8566404782e+00 1.6492821491e+00 2.8566404782e+00 
65800 5.4006026113e+00 6.8177828181e-05 1.6492821491e+00 -2.8566404782e+00 1.6492821491e+00 2.8566404782e+00 
65900 5.4006026114e+00 6.8167652468e-05 1.6492821491e+00 -2.8566404782e+00 1.6492821491e+00 2.8566404782e+00 
66000 5.4006026115e+00 6.8157498792e-05 1.6492821491e+00 -2.8566404782e+00 1.6492821491e+00 2.8566404782e+00 
66100 5.4006026116e+00 6.8147368108e-05 1.6492821491e+00 -2.8566404782e+00 1.6492821491e+00 2.8566404782e+00 
66200 5.4006026117e+00 6.8137261369e-05 1.6492821491e+00 -2.8566404782e+00 1.6492821491e+00 2.8566404782e+00 
66300 5.4006026118e+00 6.8127179516e-05 1.6492821491e+00 -2.8566404782e+00 1.6492821491e+00 2.8566404782e+00 
66400 5.4006026118e+00 6.8117123486e-05 1.6492821491e+00 -2.8566404782e+00 1.6492821491e+00 2.8566404782e+00 
66500 5.4006026119e+00 6.8107094207e-05 1.6492821491e+00 -2.8566404782e+00 1.6492821491e+00 2.8566404782e+00 
66600 5.4006026120e+00 6.8097092597e-05 1.6492821491e+00 -2.8566404782e+00 1.6492821491e+00 2.8566404782e+00 
66700 5.4006026121e+00 6.8087119566e-05 1.6492821491e+00 -2.8566404782e+00 1.6492821491e+00 2.8566404782e+00 
66800 5.4006026122e+00 6.8077176010e-05 1.6492821491e+00 -2.8566404782e+00 1.6492821491e+00 2.8566404782e+00 
66900 5.4006026122e+00 6.8067262819e-05 1.6492821491e+00 -2.8566404782e+00 1.6492821491e+00 2.8566404782e+00 
67000 5.4006026123e+00 6.8057380866e-05 1.6492821491e+00 -2.8566404782e+00 1.6492821491e+00 2.8566404782e+00 
67100 5.4006026124e+00 6.8047531016e-05 1.6492821491e+00 -2.8566404782e+00 1.6492821491e+00 2.8566404782e+00 
67200 5.4006026125e+00 6.8037714119e-05 1.6492821491e+00 -2.8566404782e+00 1.6492821491e+00 2.8566404782e+00 
67300 5.4006026126e+00 6.8027931012e-05 1.6492821491e+00 -2.8566404782e+00 1.6492821491e+00 2.8566404782e+00 
67400 5.4006026126e+00 6.8018182519e-05 1.6492821491e+00 -2.8566404782e+00 1.6492821491e+00 2.8566404782e+00 
67500 5.4006026127e+00 6.8008469448e-05 1.6492821491e+00 -2.8566404782e+00 1.6492821491e+00 2.8566404782e+00 
67600 5.4006026128e+00 6.7998792593e-05 1.6492821491e+00 -2.8566404782e+00 1.6492821491e+00 2.8566404782e+00 
67700 5.4006026128e+00 6.7989152732e-05 1.6492821491e+00 -2.8566404782e+00 1.6492821491e+00 2.8566404782e+00 
67800 5.4006026129e+00 6.7979550628e-05 1.6492821491e+00 -2.8566404782e+00 1.6492821491e+00 2.8566404782e+00 
67900 5.4006026130e+00 6.7969987026e-05 1.6492821491e+00 -2.8566404782e+00 1.6492821491e+00 2.8566404782e+00 
68000 5.4006026131e+00 6.7960462657e-05 1.6492821491e+00 -2.8566404782e+00 1.6492821491e+00 2.8566404782e+00 
68100 5.4006026131e+00 6.7950978233e-05 1.6492821491e+00 -2.8566404782e+00 1.6492821491e+00 2.8566404782e+00 
68200 5.4006026132e+00 6.7941534448e-05 1.6492821491e+00 -2.8566404782e+00 1.6492821491e+00 2.8566404782e+00 
68300 5.4006026133e+00 6.7932131981e-05 1.6492821491e+00 -2.8566404782e+00 1.6492821491e+00 2.8566404782e+00 
68400 5.4006026133e+00 6.7922771490e-05 1.6492821491e+00 -2.8566404782e+00 1.6492821491e+00 2.8566404782e+00 
68500 5.4006026134e+00 6.7913453617e-05 1.6492821491e+00 -2.8566404782e+00 1.6492821491e+00 2.8566404782e+00 
68600 5.4006026134e+00 6.7904178986e-05 1.6492821491e+00 -2.8566404782e+00 1.6492821491e+00 2.8566404782e+00 
68700 5.4006026135e+00 6.7894948199e-05 1.6492821491e+00 -2.8566404782e+00 1.6492821491e+00 2.8566404782e+00 
68800 5.4006026136e+00 6.7885761841e-05 1.6492821491e+00 -2.8566404782e+00 1.6492821491e+00 2.8566404782e+00 
68900 5.4006026136e+00 6.7876620482e-05 1.6492821491e+00 -2.8566404782e+00 1.6492821491e+00 2.8566404782e+00 
69000 5.4006026137e+00 6.7867524666e-05 1.6492821491e+00 -2.8566404782e+00 1.6492821491e+00 2.8566404782e+00 
69100 5.4006026137e+00 6.7858474923e-05 1.6492821491e+00 -2.8566404782e+00 1.6492821491e+00 2.8566404782e+00 
69200 5.4006026138e+00 6.7849471760e-05 1.6492821491e+00 -2.8566404782e+00 1.6492821491e+00 2.8566404782e+00 
69300 5.4006026138e+00 6.7840515668e-05 1.6492821491e+00 -2.8566404782e+00 1.6492821491e+00 2.8566404782e+00 
69400 5.4006026139e+00 6.7831607115e-05 1.6492821491e+00 -2.8566404782e+00 1.6492821491e+00 2.8566404782e+00 
69500 5.4006026140e+00 6.7822746553e-05 1.6492821491e+00 -2.8566404782e+00 1.6492821491e+00 2.8566404782e+00 
69600 5.4006026140e+00 6.7813934414e-05 1.6492821491e+00 -2.8566404782e+00 1.6492821491e+00 2.8566404782e+00 
69700 5.4006026141e+00 6.7805171108e-05 1.6492821491e+00 -2.8566404782e+00 1.6492821491e+00 2.8566404782e+00 
69800 5.4006026141e+00 6.7796457028e-05 1.6492821491e+00 -2.8566404782e+00 1.6492821491e+00 2.8566404782e+00 
69900 5.4006026142e+00 6.7787792548e-05 1.6492821491e+00 -2.8566404782e+00 1.6492821491e+00 2.8566404782e+00 
70000 5.4006026142e+00 6.7779178022e-05 1.6492821491e+00 -2.8566404782e+00 1.6492821491e+00 2.8566404782e+00 
70100 5.4006026143e+00 6.7771638828e-05 1.6492821491e+00 -2.8566404782e+00 1.6492821491e+00 2.8566404782e+00 
70100 5.4006026143e+00 6.7771638827e-05 1.6492821491e+00 -2.8566404782e+00 1.6492821491e+00 2.8566404782e+00 
