# step Hamiltonian StressXX CellTensor1 CellTensor2 CellTensor3 CellTensor4 
0 5.9741569587e+00 1.9560677472e-01 2.8237630504e+00 -4.8909010719e+00 2.8237630504e+00 4.8909010719e+00 
100 5.9916685405e+00 2.2880996209e-01 2.8237630504e+00 -4.8909010719e+00 2.8237630504e+00 4.8909010719e+00 
200 6.0086438918e+00 2.5975944931e-01 2.8197125128e+00 -4.8838853350e+00 2.8197125128e+00 4.8838853350e+00 
300 6.0255984899e+00 2.8844491671e-01 2.8151076354e+00 -4.8759094532e+00 2.8151076354e+00 4.8759094532e+00 
400 6.0425478290e+00 3.1516747674e-01 2.8099860325e+00 -4.8670385768e+00 2.8099860325e+00 4.8670385768e+00 
500 6.0594807680e+00 3.4020251206e-01 2.8043799115e+00 -4.8573284904e+00 2.8043799115e+00 4.8573284904e+00 
600 6.0763601480e+00 3.6379633945e-01 2.7983165459e+00 -4.8468264332e+00 2.7983165459e+00 4.8468264332e+00 
700 6.0931243925e+00 3.8616365467e-01 2.7918187970e+00 -4.8355720019e+00 2.7918187970e+00 4.8355720019e+00 
800 6.1096895685e+00 4.0748530021e-01 2.7849056724e+00 -4.8235981190e+00 2.7849056724e+00 4.8235981190e+00 
900 6.1259514302e+00 4.2790570119e-01 2.7775929217e+00 -4.8109320632e+00 2.7775929217e+00 4.8109320632e+00 
1000 6.1417870557e+00 4.4752918653e-01 2.7698936766e+00 -4.7975965795e+00 2.7698936766e+00 4.7975965795e+00 
1100 6.1570558168e+00 4.6641439245e-01 2.7618191607e+00 -4.7836111076e+00 2.7618191607e+00 4.7836111076e+00 
1200 6.1715996391e+00 4.8456614127e-01 2.7533795061e+00 -4.7689931971e+00 2.7533795061e+00 4.7689931971e+00 
1300 6.1852428636e+00 5.0192481970e-01 2.7445847285e+00 -4.7537601954e+00 2.7445847285e+00 4.7537601954e+00 
1400 6.1977925857e+00 5.1835467543e-01 2.7354459108e+00 -4.7379312989e+00 2.7354459108e+00 4.7379312989e+00 
1500 6.2090411580e+00 5.3363493759e-01 2.7259766248e+00 -4.7215300143e+00 2.7259766248e+00 4.7215300143e+00 
1600 6.2187734312e+00 5.4746117719e-01 2.7161945446e+00 -4.7045869544e+00 2.7161945446e+00 4.7045869544e+00 
1700 6.2267817621e+00 5.5946756182e-01 2.7061230756e+00 -4.6871426584e+00 2.7061230756e+00 4.6871426584e+00 
1800 6.2328907601e+00 5.6928015509e-01 2.6957926139e+00 -4.6692497740e+00 2.6957926139e+00 4.6692497740e+00 
1900 6.2369899774e+00 5.7660208898e-01 2.6852408550e+00 -4.6509735914e+00 2.6852408550e+00 4.6509735914e+00 
2000 6.2390663910e+00 5.8131137365e-01 2.6745115325e+00 -4.6323898596e+00 2.6745115325e+00 4.6323898596e+00 
2100 6.2392229732e+00 5.8353069593e-01 2.6636513048e+00 -4.6135793935e+00 2.6636513048e+00 4.6135793935e+00 
2200 6.2376709771e+00 5.8362704392e-01 2.6527052566e+00 -4.5946202820e+00 2.6527052566e+00 4.5946202820e+00 
2300 6.2346946109e+00 5.8213080516e-01 2.6417122904e+00 -4.5755799059e+00 2.6417122904e+00 4.5755799059e+00 
2400 6.2306011648e+00 5.7961043997e-01 2.6307019231e+00 -4.5565093903e+00 2.6307019231e+00 4.5565093903e+00 
2500 6.2256759093e+00 5.7656059728e-01 2.6196933742e+00 -4.5374420244e+00 2.6196933742e+00 4.5374420244e+00 
2600 6.2201549539e+00 5.7334253034e-01 2.6086967582e+00 -4.5183953268e+00 2.6086967582e+00 4.5183953268e+00 
2700 6.2142176774e+00 5.7017903733e-01 2.5977154455e+00 -4.4993751352e+00 2.5977154455e+00 4.4993751352e+00 
2800 6.2079924253e+00 5.6718249533e-01 2.5867485811e+00 -4.4803799689e+00 2.5867485811e+00 4.4803799689e+00 
2900 6.2015677283e+00 5.6439228482e-01 2.5757931262e+00 -4.4614045644e+00 2.5757931262e+00 4.4614045644e+00 
3000 6.1950037006e+00 5.6180712261e-01 2.5648452267e+00 -4.4424422462e+00 2.5648452267e+00 4.4424422462e+00 
3100 6.1883412291e+00 5.5940745831e-01 2.5539009877e+00 -4.4234862682e+00 2.5539009877e+00 4.4234862682e+00 
3200 6.1816085132e+00 5.5716866539e-01 2.5429568298e+00 -4.4045304307e+00 2.5429568298e+00 4.4045304307e+00 
3300 6.1748253830e+00 5.5506765253e-01 2.5320095955e+00 -4.3855692646e+00 2.5320095955e+00 4.3855692646e+00 
3400 6.1680060256e+00 5.5308545907e-01 2.5210565281e+00 -4.3665979955e+00 2.5210565281e+00 4.3665979955e+00 
3500 6.1611606645e+00 5.5120769705e-01 2.5100951987e+00 -4.3476124161e+00 2.5100951987e+00 4.3476124161e+00 
3600 6.1542965898e+00 5.4942399559e-01 2.4991234221e+00 -4.3286087415e+00 2.4991234221e+00 4.3286087415e+00 
3700 6.1474187980e+00 5.4772708761e-01 2.4881391818e+00 -4.3095834791e+00 2.4881391818e+00 4.3095834791e+00 
3800 6.1405304031e+00 5.4611185622e-01 2.4771405715e+00 -4.2905333273e+00 2.4771405715e+00 4.2905333273e+00 
3900 6.1336329159e+00 5.4457447654e-01 2.4661257540e+00 -4.2714551039e+00 2.4661257540e+00 4.2714551039e+00 
4000 6.1267264485e+00 5.4311169507e-01 2.4550929368e+00 -4.2523457038e+00 2.4550929368e+00 4.2523457038e+00 
4100 6.1198098787e+00 5.4172024523e-01 2.4440403605e+00 -4.2332020802e+00 2.4440403605e+00 4.2332020802e+00 
4200 6.1128809928e+00 5.4039638122e-01 2.4329663008e+00 -4.2140212461e+00 2.4329663008e+00 4.2140212461e+00 
4300 6.1059366195e+00 5.3913550835e-01 2.4218690782e+00 -4.1948002927e+00 2.4218690782e+00 4.1948002927e+00 
4400 6.0989727619e+00 5.3793189028e-01 2.4107470765e+00 -4.1755364208e+00 2.4107470765e+00 4.1755364208e+00 
4500 6.0919847326e+00 5.3677841781e-01 2.3995987682e+00 -4.1562269843e+00 2.3995987682e+00 4.1562269843e+00 
4600 6.0849672952e+00 5.3566642818e-01 2.3884227441e+00 -4.1368695428e+00 2.3884227441e+00 4.1368695428e+00 
4700 6.0779148147e+00 5.3458556851e-01 2.3772177494e+00 -4.1174619226e+00 2.3772177494e+00 4.1174619226e+00 
4800 6.0708214173e+00 5.3352370022e-01 2.3659827217e+00 -4.0980022837e+00 2.3659827217e+00 4.0980022837e+00 
4900 6.0636811636e+00 5.3246684424e-01 2.3547168336e+00 -4.0784891933e+00 2.3547168336e+00 4.0784891933e+00 
5000 6.0564882317e+00 5.3139916904e-01 2.3434195373e+00 -4.0589217021e+00 2.3434195373e+00 4.0589217021e+00 
5100 6.0492371136e+00 5.3030302477e-01 2.3320906104e+00 -4.0392994250e+00 2.3320906104e+00 4.0392994250e+00 
5200 6.0419228213e+00 5.2915902755e-01 2.3207302024e+00 -4.0196226212e+00 2.3207302024e+00 4.0196226212e+00 
5300 6.0345411024e+00 5.2794619777e-01 2.3093388818e+00 -3.9998922751e+00 2.3093388818e+00 3.9998922751e+00 
5400 6.0270886601e+00 5.2664215537e-01 2.2979176802e+00 -3.9801101737e+00 2.2979176802e+00 3.9801101737e+00 
5500 6.0195633749e+00 5.2522337347e-01 2.2864681347e+00 -3.9602789793e+00 2.2864681347e+00 3.9602789793e+00 
5600 6.0119645216e+00 5.2366548909e-01 2.2749923257e+00 -3.9404022949e+00 2.2749923257e+00 3.9404022949e+00 
5700 6.0042929745e+00 5.2194366696e-01 2.2634929087e+00 -3.9204847204e+00 2.2634929087e+00 3.9204847204e+00 
5800 5.9965513949e+00 5.2003300851e-01 2.2519731400e+00 -3.9005318958e+00 2.2519731400e+00 3.9005318958e+00 
5900 5.9887443900e+00 5.1790899511e-01 2.2404368937e+00 -3.8805505310e+00 2.2404368937e+00 3.8805505310e+00 
6000 5.9808786378e+00 5.1554795077e-01 2.2288886688e+00 -3.8605484188e+00 2.2288886688e+00 3.8605484188e+00 
6100 5.9729629683e+00 5.1292750713e-01 2.2173335878e+00 -3.8405344314e+00 2.2173335878e+00 3.8405344314e+00 
6200 5.9650083945e+00 5.1002705189e-01 2.2057773826e+00 -3.8205184968e+00 2.2057773826e+00 3.8205184968e+00 
6300 5.9570280889e+00 5.0682814150e-01 2.1942263717e+00 -3.8005115591e+00 2.1942263717e+00 3.8005115591e+00 
6400 5.9490373017e+00 5.0331486012e-01 2.1826874260e+00 -3.7805255188e+00 2.1826874260e+00 3.7805255188e+00 
6500 5.9410532209e+00 4.9947410996e-01 2.1711679251e+00 -3.7605731580e+00 2.1711679251e+00 3.7605731580e+00 
6600 5.9330947765e+00 4.9529582183e-01 2.1596757062e+00 -3.7406680509e+00 2.1596757062e+00 3.7406680509e+00 
6700 5.9251823947e+00 4.9077308007e-01 2.1482190050e+00 -3.7208244624e+00 2.1482190050e+00 3.7208244624e+00 
6800 5.9173377085e+00 4.8590216119e-01 2.1368063925e+00 -3.7010572377e+00 2.1368063925e+00 3.7010572377e+00 
6900 5.9095832356e+00 4.8068249083e-01 2.1254467075e+00 -3.6813816862e+00 2.1254467075e+00 3.6813816862e+00 
7000 5.9019420340e+00 4.7511652803e-01 2.1141489886e+00 -3.6618134630e+00 2.1141489886e+00 3.6618134630e+00 
7100 5.8944373463e+00 4.6920958900e-01 2.1029224049e+00 -3.6423684497e+00 2.1029224049e+00 3.6423684497e+00 
7200 5.8870922444e+00 4.6296962450e-01 2.0917761897e+00 -3.6230626386e+00 2.0917761897e+00 3.6230626386e+00 
7300 5.8799292843e+00 4.5640696531e-01 2.0807195758e+00 -3.6039120216e+00 2.0807195758e+00 3.6039120216e+00 
7400 5.8729701812e+00 4.4953404969e-01 2.0697617348e+00 -3.5849324842e+00 2.0697617348e+00 3.5849324842e+00 
7500 5.8662355109e+00 4.4236514488e-01 2.0589117207e+00 -3.5661397086e+00 2.0589117207e+00 3.5661397086e+00 
7600 5.8597444431e+00 4.3491607243e-01 2.0481784183e+00 -3.5475490835e+00 2.0481784183e+00 3.5475490835e+00 
7700 5.8535145118e+00 4.2720394482e-01 2.0375704955e+00 -3.5291756223e+00 2.0375704955e+00 3.5291756223e+00 
7800 5.8475614237e+00 4.1924691817e-01 2.0270963615e+00 -3.5110338900e+00 2.0270963615e+00 3.5110338900e+00 
7900 5.8418989050e+00 4.1106396396e-01 2.0167641287e+00 -3.4931379378e+00 2.0167641287e+00 3.4931379378e+00 
8000 5.8365385874e+00 4.0267466067e-01 2.0065815793e+00 -3.4755012449e+00 2.0065815793e+00 3.4755012449e+00 
8100 5.8314899317e+00 3.9409900526e-01 1.9965561364e+00 -3.4581366684e+00 1.9965561364e+00 3.4581366684e+00 
8200 5.8267601853e+00 3.8535724339e-01 1.9866948383e+00 -3.4410563991e+00 1.9866948383e+00 3.4410563991e+00 
8300 5.8223543741e+00 3.7646971692e-01 1.9770043170e+00 -3.4242719239e+00 1.9770043170e+00 3.4242719239e+00 
8400 5.8182753231e+00 3.6745672704e-01 1.9674907800e+00 -3.4077939943e+00 1.9674907800e+00 3.4077939943e+00 
8500 5.8145237051e+00 3.5833841140e-01 1.9581599950e+00 -3.3916326007e+00 1.9581599950e+00 3.3916326007e+00 
8600 5.8110981127e+00 3.4913463389e-01 1.9490172785e+00 -3.3757969512e+00 1.9490172785e+00 3.3757969512e+00 
8700 5.8079951523e+00 3.3986488568e-01 1.9400674863e+00 -3.3602954564e+00 1.9400674863e+00 3.3602954564e+00 
8800 5.8052095552e+00 3.3054819686e-01 1.9313150076e+00 -3.3451357186e+00 1.9313150076e+00 3.3451357186e+00 
8900 5.8027343048e+00 3.2120305759e-01 1.9227637614e+00 -3.3303245257e+00 1.9227637614e+00 3.3303245257e+00 
9000 5.8005607757e+00 3.1184734854e-01 1.9144171955e+00 -3.3158678495e+00 1.9144171955e+00 3.3158678495e+00 
9100 5.7986788829e+00 3.0249828003e-01 1.9062782882e+00 -3.3017708485e+00 1.9062782882e+00 3.3017708485e+00 
9200 5.7970772377e+00 2.9317233968e-01 1.8983495518e+00 -3.2880378742e+00 1.8983495518e+00 3.2880378742e+00 
9300 5.7957433088e+00 2.8388524824e-01 1.8906330389e+00 -3.2746724818e+00 1.8906330389e+00 3.2746724818e+00 
9400 5.7946635849e+00 2.7465192344e-01 1.8831303504e+00 -3.2616774441e+00 1.8831303504e+00 3.2616774441e+00 
9500 5.7938237388e+00 2.6548645164e-01 1.8758426454e+00 -3.2490547688e+00 1.8758426454e+00 3.2490547688e+00 
9600 5.7932087887e+00 2.5640206698e-01 1.8687706530e+00 -3.2368057186e+00 1.8687706530e+00 3.2368057186e+00 
9700 5.7928032563e+00 2.4741113779e-01 1.8619146855e+00 -3.2249308346e+00 1.8619146855e+00 3.2249308346e+00 
9800 5.7925913201e+00 2.3852515985e-01 1.8552746533e+00 -3.2134299615e+00 1.8552746533e+00 3.2134299615e+00 
9900 5.7925569622e+00 2.2975475612e-01 1.8488500806e+00 -3.2023022752e+00 1.8488500806e+00 3.2023022752e+00 
10000 5.7926841066e+00 2.2110968262e-01 1.8426401225e+00 -3.1915463122e+00 1.8426401225e+00 3.1915463122e+00 
10100 5.7929567498e+00 2.1259883977e-01 1.8366435826e+00 -3.1811600005e+00 1.8366435826e+00 3.1811600005e+00 
10200 5.7933590817e+00 2.0423028880e-01 1.8308589320e+00 -3.1711406917e+00 1.8308589320e+00 3.1711406917e+00 
10300 5.7938755958e+00 1.9601127275e-01 1.8252843278e+00 -3.1614851940e+00 1.8252843278e+00 3.1614851940e+00 
10400 5.7944911892e+00 1.8794824132e-01 1.8199176326e+00 -3.1521898053e+00 1.8199176326e+00 3.1521898053e+00 
10500 5.7951912521e+00 1.8004687922e-01 1.8147564345e+00 -3.1432503479e+00 1.8147564345e+00 3.1432503479e+00 
10600 5.7959617462e+00 1.7231213722e-01 1.8097980658e+00 -3.1346622015e+00 1.8097980658e+00 3.1346622015e+00 
10700 5.7967892713e+00 1.6474826567e-01 1.8050396235e+00 -3.1264203375e+00 1.8050396235e+00 3.1264203375e+00 
10800 5.7976611228e+00 1.5735884960e-01 1.8004779876e+00 -3.1185193525e+00 1.8004779876e+00 3.1185193525e+00 
10900 5.7985653374e+00 1.5014684522e-01 1.7961098409e+00 -3.1109535004e+00 1.7961098409e+00 3.1109535004e+00 
11000 5.7994907292e+00 1.4311461715e-01 1.7919316868e+00 -3.1037167252e+00 1.7919316868e+00 3.1037167252e+00 
11100 5.8004269163e+00 1.3626397603e-01 1.7879398676e+00 -3.0968026916e+00 1.7879398676e+00 3.0968026916e+00 
11200 5.8013643382e+00 1.2959621612e-01 1.7841305821e+00 -3.0902048156e+00 1.7841305821e+00 3.0902048156e+00 
11300 5.8022942647e+00 1.2311215246e-01 1.7804999018e+00 -3.0839162927e+00 1.7804999018e+00 3.0839162927e+00 
11400 5.8032087968e+00 1.1681215743e-01 1.7770437872e+00 -3.0779301267e+00 1.7770437872e+00 3.0779301267e+00 
11500 5.8041008610e+00 1.1069619625e-01 1.7737581033e+00 -3.0722391552e+00 1.7737581033e+00 3.0722391552e+00 
11600 5.8049641961e+00 1.0476386140e-01 1.7706386339e+00 -3.0668360757e+00 1.7706386339e+00 3.0668360757e+00 
11700 5.8057933354e+00 9.9014405585e-02 1.7676810954e+00 -3.0617134687e+00 1.7676810954e+00 3.0617134687e+00 
11800 5.8065835825e+00 9.3446773235e-02 1.7648811498e+00 -3.0568638207e+00 1.7648811498e+00 3.0568638207e+00 
11900 5.8073309838e+00 8.8059630357e-02 1.7622344170e+00 -3.0522795451e+00 1.7622344170e+00 3.0522795451e+00 
12000 5.8080322961e+00 8.2851392682e-02 1.7597364862e+00 -3.0479530020e+00 1.7597364862e+00 3.0479530020e+00 
12100 5.8086849521e+00 7.7820252060e-02 1.7573829265e+00 -3.0438765171e+00 1.7573829265e+00 3.0438765171e+00 
12200 5.8092870222e+00 7.2964201080e-02 1.7551692971e+00 -3.0400423985e+00 1.7551692971e+00 3.0400423985e+00 
12300 5.8098371756e+00 6.8281055904e-02 1.7530911562e+00 -3.0364429529e+00 1.7530911562e+00 3.0364429529e+00 
12400 5.8103346386e+00 6.3768477361e-02 1.7511440698e+00 -3.0330705002e+00 1.7511440698e+00 3.0330705002e+00 
12500 5.8107791527e+00 5.9423990321e-02 1.7493236195e+00 -3.0299173878e+00 1.7493236195e+00 3.0299173878e+00 
12600 5.8111709324e+00 5.5245001411e-02 1.7476254098e+00 -3.0269760024e+00 1.7476254098e+00 3.0269760024e+00 
12700 5.8115106219e+00 5.1228815144e-02 1.7460450750e+00 -3.0242387822e+00 1.7460450750e+00 3.0242387822e+00 
12800 5.8117992531e+00 4.7372648529e-02 1.7445782848e+00 -3.0216982271e+00 1.7445782848e+00 3.0216982271e+00 
12900 5.8120382038e+00 4.3673644248e-02 1.7432207505e+00 -3.0193469086e+00 1.7432207505e+00 3.0193469086e+00 
13000 5.8122291566e+00 4.0128882492e-02 1.7419682295e+00 -3.0171774787e+00 1.7419682295e+00 3.0171774787e+00 
13100 5.8123740592e+00 3.6735391538e-02 1.7408165306e+00 -3.0151826777e+00 1.7408165306e+00 3.0151826777e+00 
13200 5.8124750861e+00 3.3490157171e-02 1.7397615177e+00 -3.0133553417e+00 1.7397615177e+00 3.0133553417e+00 
13300 5.8125346019e+00 3.0390131028e-02 1.7387991138e+00 -3.0116884092e+00 1.7387991138e+00 3.0116884092e+00 
13400 5.8125551261e+00 2.7432237970e-02 1.7379253042e+00 -3.0101749267e+00 1.7379253042e+00 3.0101749267e+00 
13500 5.8125393001e+00 2.4613382564e-02 1.7371361403e+00 -3.0088080546e+00 1.7371361403e+00 3.0088080546e+00 
13600 5.8124898555e+00 2.1930454755e-02 1.7364277413e+00 -3.0075810716e+00 1.7364277413e+00 3.0075810716e+00 
13700 5.8124095855e+00 1.9380334823e-02 1.7357962977e+00 -3.0064873792e+00 1.7357962977e+00 3.0064873792e+00 
13800 5.8123013170e+00 1.6959897693e-02 1.7352380727e+00 -3.0055205052e+00 1.7352380727e+00 3.0055205052e+00 
13900 5.8121678862e+00 1.4666016671e-02 1.7347494049e+00 -3.0046741076e+00 1.7347494049e+00 3.0046741076e+00 
14000 5.8120121151e+00 1.2495566684e-02 1.7343267092e+00 -3.0039419773e+00 1.7343267092e+00 3.0039419773e+00 
14100 5.8118367908e+00 1.0445427078e-02 1.7339664791e+00 -3.0033180404e+00 1.7339664791e+00 3.0033180404e+00 
14200 5.8116446467e+00 8.5124840398e-03 1.7336652874e+00 -3.0027963612e+00 1.7336652874e+00 3.0027963612e+00 
14300 5.8114383453e+00 6.6936326876e-03 1.7334197878e+00 -3.0023711434e+00 1.7334197878e+00 3.0023711434e+00 
14400 5.8112204637e+00 4.9857788941e-03 1.7332267155e+00 -3.0020367323e+00 1.7332267155e+00 3.0020367323e+00 
14500 5.8109934804e+00 3.3858408731e-03 1.7330828881e+00 -3.0017876159e+00 1.7330828881e+00 3.0017876159e+00 
14600 5.8107597640e+00 1.8907505779e-03 1.7329852064e+00 -3.0016184263e+00 1.7329852064e+00 3.0016184263e+00 
14700 5.8105215640e+00 4.9745494453e-04 1.7329306549e+00 -3.0015239402e+00 1.7329306549e+00 3.0015239402e+00 
14800 5.8102810028e+00 -7.9708298688e-04 1.7329163019e+00 -3.0014990801e+00 1.7329163019e+00 3.0014990801e+00 
14900 5.8100400696e+00 -1.9958830442e-03 1.7329393002e+00 -3.0015389145e+00 1.7329393002e+00 3.0015389145e+00 
15000 5.8098006155e+00 -3.1019469645e-03 1.7329968872e+00 -3.0016386580e+00 1.7329968872e+00 3.0016386580e+00 
15100 5.8095643506e+00 -4.1182574825e-03 1.7330863846e+00 -3.0017936720e+00 1.7330863846e+00 3.0017936720e+00 
15200 5.8093328413e+00 -5.0477774463e-03 1.7332051988e+00 -3.0019994642e+00 1.7332051988e+00 3.0019994642e+00 
15300 5.8091075098e+00 -5.8934489471e-03 1.7333508205e+00 -3.0022516885e+00 1.7333508205e+00 3.0022516885e+00 
15400 5.8088896345e+00 -6.6581924462e-03 1.7335208249e+00 -3.0025461447e+00 1.7335208249e+00 3.0025461447e+00 
15500 5.8086803510e+00 -7.3449058907e-03 1.7337128709e+00 -3.0028787782e+00 1.7337128709e+00 3.0028787782e+00 
15600 5.8084806541e+00 -7.9564638078e-03 1.7339247012e+00 -3.0032456789e+00 1.7339247012e+00 3.0032456789e+00 
15700 5.8082914012e+00 -8.4957163700e-03 1.7341541413e+00 -3.0036430809e+00 1.7341541413e+00 3.0036430809e+00 
15800 5.8081133161e+00 -8.9654884268e-03 1.7343990998e+00 -3.0040673615e+00 1.7343990998e+00 3.0040673615e+00 
15900 5.8079469927e+00 -9.3685784987e-03 1.7346575672e+00 -3.0045150401e+00 1.7346575672e+00 3.0045150401e+00 
16000 5.8077929008e+00 -9.7077577301e-03 1.7349276153e+00 -3.0049827772e+00 1.7349276153e+00 3.0049827772e+00 
16100 5.8076513912e+00 -9.9857688010e-03 1.7352073970e+00 -3.0054673733e+00 1.7352073970e+00 3.0054673733e+00 
16200 5.8075227013e+00 -1.0205324797e-02 1.7354951449e+00 -3.0059657672e+00 1.7354951449e+00 3.0059657672e+00 
16300 5.8074069620e+00 -1.0369108036e-02 1.7357891708e+00 -3.0064750351e+00 1.7357891708e+00 3.0064750351e+00 
16400 5.8073042036e+00 -1.0479768860e-02 1.7360878651e+00 -3.0069923888e+00 1.7360878651e+00 3.0069923888e+00 
16500 5.8072143630e+00 -1.0539924387e-02 1.7363896952e+00 -3.0075151739e+00 1.7363896952e+00 3.0075151739e+00 
16600 5.8071372901e+00 -1.0552157226e-02 1.7366932052e+00 -3.0080408686e+00 1.7366932052e+00 3.0080408686e+00 
16700 5.8070727554e+00 -1.0519014170e-02 1.7369970143e+00 -3.0085670814e+00 1.7369970143e+00 3.0085670814e+00 
16800 5.8070204565e+00 -1.0443004855e-02 1.7372998162e+00 -3.0090915497e+00 1.7372998162e+00 3.0090915497e+00 
16900 5.8069800254e+00 -1.0326600408e-02 1.7376003776e+00 -3.0096121373e+00 1.7376003776e+00 3.0096121373e+00 
17000 5.8069510356e+00 -1.0172232066e-02 1.7378975373e+00 -3.0101268329e+00 1.7378975373e+00 3.0101268329e+00 
17100 5.8069330086e+00 -9.9822897986e-03 1.7381902046e+00 -3.0106337477e+00 1.7381902046e+00 3.0106337477e+00 
17200 5.8069254212e+00 -9.7591209185e-03 1.7384773586e+00 -3.0111311129e+00 1.7384773586e+00 3.0111311129e+00 
17300 5.8069277116e+00 -9.5050286962e-03 1.7387580463e+00 -3.0116172783e+00 1.7387580463e+00 3.0116172783e+00 
17400 5.8069392863e+00 -9.2222709826e-03 1.7390313816e+00 -3.0120907088e+00 1.7390313816e+00 3.0120907088e+00 
17500 5.8069595259e+00 -8.9130588471e-03 1.7392965437e+00 -3.0125499831e+00 1.7392965437e+00 3.0125499831e+00 
17600 5.8069877914e+00 -8.5795552360e-03 1.7395527760e+00 -3.0129937904e+00 1.7395527760e+00 3.0129937904e+00 
17700 5.8070234295e+00 -8.2238736591e-03 1.7397993841e+00 -3.0134209282e+00 1.7397993841e+00 3.0134209282e+00 
17800 5.8070657784e+00 -7.8480769107e-03 1.7400357349e+00 -3.0138302999e+00 1.7400357349e+00 3.0138302999e+00 
17900 5.8071141726e+00 -7.4541758309e-03 1.7402612546e+00 -3.0142209114e+00 1.7402612546e+00 3.0142209114e+00 
18000 5.8071679481e+00 -7.0441281145e-03 1.7404754273e+00 -3.0145918694e+00 1.7404754273e+00 3.0145918694e+00 
18100 5.8072264461e+00 -6.6198371739e-03 1.7406777934e+00 -3.0149423778e+00 1.7406777934e+00 3.0149423778e+00 
18200 5.8072890182e+00 -6.1831510605e-03 1.7408679480e+00 -3.0152717352e+00 1.7408679480e+00 3.0152717352e+00 
18300 5.8073550292e+00 -5.7358614524e-03 1.7410455392e+00 -3.0155793322e+00 1.7410455392e+00 3.0155793322e+00 
18400 5.8074238611e+00 -5.2797027132e-03 1.7412102664e+00 -3.0158646481e+00 1.7412102664e+00 3.0158646481e+00 
18500 5.8074949161e+00 -4.8163510268e-03 1.7413618787e+00 -3.0161272484e+00 1.7413618787e+00 3.0161272484e+00 
18600 5.8075676194e+00 -4.3474236142e-03 1.7415001732e+00 -3.0163667814e+00 1.7415001732e+00 3.0163667814e+00 
18700 5.8076414216e+00 -3.8744780359e-03 1.7416249931e+00 -3.0165829757e+00 1.7416249931e+00 3.0165829757e+00 
18800 5.8077158010e+00 -3.3990115851e-03 1.7417362260e+00 -3.0167756367e+00 1.7417362260e+00 3.0167756367e+00 
18900 5.8077902650e+00 -2.9224607750e-03 1.7418338022e+00 -3.0169446438e+00 1.7418338022e+00 3.0169446438e+00 
19000 5.8078643519e+00 -2.4462009229e-03 1.7419176933e+00 -3.0170899473e+00 1.7419176933e+00 3.0170899473e+00 
19100 5.8079376322e+00 -1.9715458359e-03 1.7419879095e+00 -3.0172115654e+00 1.7419879095e+00 3.0172115654e+00 
19200 5.8080097091e+00 -1.4997475985e-03 1.7420444988e+00 -3.0173095809e+00 1.7420444988e+00 3.0173095809e+00 
19300 5.8080802192e+00 -1.0319964651e-03 1.7420875445e+00 -3.0173841384e+00 1.7420875445e+00 3.0173841384e+00 
19400 5.8081488332e+00 -5.6942085866e-04 1.7421171642e+00 -3.0174354411e+00 1.7421171642e+00 3.0174354411e+00 
19500 5.8082152556e+00 -1.1308747631e-04 1.7421335070e+00 -3.0174637476e+00 1.7421335070e+00 3.0174637476e+00 
19600 5.8082792245e+00 3.3599849828e-04 1.7421367526e+00 -3.0174693693e+00 1.7421367526e+00 3.0174693693e+00 
19700 5.8083405118e+00 7.7689307515e-04 1.7421271094e+00 -3.0174526666e+00 1.7421271094e+00 3.0174526666e+00 
19800 5.8083989219e+00 1.2087130323e-03 1.7421048121e+00 -3.0174140468e+00 1.7421048121e+00 3.0174140468e+00 
19900 5.8084542913e+00 1.6306353852e-03 1.7420701211e+00 -3.0173539601e+00 1.7420701211e+00 3.0173539601e+00 
20000 5.8085064877e+00 2.0418967527e-03 1.7420233196e+00 -3.0172728976e+00 1.7420233196e+00 3.0172728976e+00 
20100 5.8085554090e+00 2.4417926227e-03 1.7419647129e+00 -3.0171713878e+00 1.7419647129e+00 3.0171713878e+00 
20200 5.8086009815e+00 2.8296765191e-03 1.7418946261e+00 -3.0170499938e+00 1.7418946261e+00 3.0170499938e+00 
20300 5.8086431593e+00 3.2049590743e-03 1.7418134026e+00 -3.0169093106e+00 1.7418134026e+00 3.0169093106e+00 
20400 5.8086819224e+00 3.5671070102e-03 1.7417214028e+00 -3.0167499622e+00 1.7417214028e+00 3.0167499622e+00 
20500 5.8087172752e+00 3.9156420315e-03 1.7416190020e+00 -3.0165725989e+00 1.7416190020e+00 3.0165725989e+00 
20600 5.8087492451e+00 4.2501396365e-03 1.7415065894e+00 -3.0163778945e+00 1.7415065894e+00 3.0163778945e+00 
20700 5.8087778805e+00 4.5702278493e-03 1.7413845660e+00 -3.0161665438e+00 1.7413845660e+00 3.0161665438e+00 
20800 5.8088032494e+00 4.8755858784e-03 1.7412533437e+00 -3.0159392601e+00 1.7412533437e+00 3.0159392601e+00 
20900 5.8088254375e+00 5.1659427070e-03 1.7411133434e+00 -3.0156967724e+00 1.7411133434e+00 3.0156967724e+00 
21000 5.8088445465e+00 5.4410756214e-03 1.7409649938e+00 -3.0154398234e+00 1.7409649938e+00 3.0154398234e+00 
21100 5.8088606924e+00 5.7008086804e-03 1.7408087300e+00 -3.0151691667e+00 1.7408087300e+00 3.0151691667e+00 
21200 5.8088740035e+00 5.9450111346e-03 1.7406449924e+00 -3.0148855647e+00 1.7406449924e+00 3.0148855647e+00 
21300 5.8088846192e+00 6.1735957997e-03 1.7404742248e+00 -3.0145897866e+00 1.7404742248e+00 3.0145897866e+00 
21400 5.8088926878e+00 6.3865173887e-03 1.7402968740e+00 -3.0142826060e+00 1.7402968740e+00 3.0142826060e+00 
21500 5.8088983651e+00 6.5837708116e-03 1.7401133879e+00 -3.0139647987e+00 1.7401133879e+00 3.0139647987e+00 
21600 5.8089018129e+00 6.7653894459e-03 1.7399242148e+00 -3.0136371414e+00 1.7399242148e+00 3.0136371414e+00 
21700 5.8089031973e+00 6.9314433847e-03 1.7397298022e+00 -3.0133004089e+00 1.7397298022e+00 3.0133004089e+00 
21800 5.8089026873e+00 7.0820376688e-03 1.7395305957e+00 -3.0129553731e+00 1.7395305957e+00 3.0129553731e+00 
21900 5.8089004536e+00 7.2173105068e-03 1.7393270379e+00 -3.0126028006e+00 1.7393270379e+00 3.0126028006e+00 
22000 5.8088966670e+00 7.3374314902e-03 1.7391195678e+00 -3.0122434519e+00 1.7391195678e+00 3.0122434519e+00 
22100 5.8088914974e+00 7.4425998079e-03 1.7389086196e+00 -3.0118780789e+00 1.7389086196e+00 3.0118780789e+00 
22200 5.8088851126e+00 7.5330424655e-03 1.7386946220e+00 -3.0115074241e+00 1.7386946220e+00 3.0115074241e+00 
22300 5.8088776772e+00 7.6090125142e-03 1.7384779972e+00 -3.0111322190e+00 1.7384779972e+00 3.0111322190e+00 
22400 5.8088693518e+00 7.6707872944e-03 1.7382591606e+00 -3.0107531829e+00 1.7382591606e+00 3.0107531829e+00 
22500 5.8088602921e+00 7.7186666975e-03 1.7380385196e+00 -3.0103710214e+00 1.7380385196e+00 3.0103710214e+00 
22600 5.8088506477e+00 7.7529714506e-03 1.7378164732e+00 -3.0099864259e+00 1.7378164732e+00 3.0099864259e+00 
22700 5.8088405624e+00 7.7740414290e-03 1.7375934115e+00 -3.0096000717e+00 1.7375934115e+00 3.0096000717e+00 
22800 5.8088301725e+00 7.7822339976e-03 1.7373697149e+00 -3.0092126178e+00 1.7373697149e+00 3.0092126178e+00 
22900 5.8088196071e+00 7.7779223873e-03 1.7371457538e+00 -3.0088247057e+00 1.7371457538e+00 3.0088247057e+00 
23000 5.8088089874e+00 7.7614941076e-03 1.7369218878e+00 -3.0084369585e+00 1.7369218878e+00 3.0084369585e+00 
23100 5.8087984261e+00 7.7333493986e-03 1.7366984659e+00 -3.0080499804e+00 1.7366984659e+00 3.0080499804e+00 
23200 5.8087880278e+00 7.6938997258e-03 1.7364758256e+00 -3.0076643560e+00 1.7364758256e+00 3.0076643560e+00 
23300 5.8087778883e+00 7.6435663179e-03 1.7362542925e+00 -3.0072806495e+00 1.7362542925e+00 3.0072806495e+00 
23400 5.8087680947e+00 7.5827787521e-03 1.7360341806e+00 -3.0068994045e+00 1.7360341806e+00 3.0068994045e+00 
23500 5.8087587252e+00 7.5119735860e-03 1.7358157915e+00 -3.0065211434e+00 1.7358157915e+00 3.0065211434e+00 
23600 5.8087498494e+00 7.4315930394e-03 1.7355994143e+00 -3.0061463672e+00 1.7355994143e+00 3.0061463672e+00 
23700 5.8087415284e+00 7.3420837257e-03 1.7353853257e+00 -3.0057755549e+00 1.7353853257e+00 3.0057755549e+00 
23800 5.8087338147e+00 7.2438954352e-03 1.7351737896e+00 -3.0054091635e+00 1.7351737896e+00 3.0054091635e+00 
23900 5.8087267524e+00 7.1374799692e-03 1.7349650569e+00 -3.0050476279e+00 1.7349650569e+00 3.0050476279e+00 
24000 5.8087203778e+00 7.0232900276e-03 1.7347593658e+00 -3.0046913604e+00 1.7347593658e+00 3.0046913604e+00 
24100 5.8087147194e+00 6.9017781472e-03 1.7345569413e+00 -3.0043407510e+00 1.7345569413e+00 3.0043407510e+00 
24200 5.8087097983e+00 6.7733956937e-03 1.7343579958e+00 -3.0039961673e+00 1.7343579958e+00 3.0039961673e+00 
24300 5.8087056286e+00 6.6385919057e-03 1.7341627285e+00 -3.0036579544e+00 1.7341627285e+00 3.0036579544e+00 
24400 5.8087022176e+00 6.4978129900e-03 1.7339713258e+00 -3.0033264351e+00 1.7339713258e+00 3.0033264351e+00 
24500 5.8086995665e+00 6.3515012688e-03 1.7337839612e+00 -3.0030019101e+00 1.7337839612e+00 3.0030019101e+00 
24600 5.8086976706e+00 6.2000943775e-03 1.7336007957e+00 -3.0026846581e+00 1.7336007957e+00 3.0026846581e+00 
24700 5.8086965199e+00 6.0440245124e-03 1.7334219774e+00 -3.0023749359e+00 1.7334219774e+00 3.0023749359e+00 
24800 5.8086960994e+00 5.8837177276e-03 1.7332476424e+00 -3.0020729788e+00 1.7332476424e+00 3.0020729788e+00 
24900 5.8086963894e+00 5.7195932799e-03 1.7330779142e+00 -3.0017790008e+00 1.7330779142e+00 3.0017790008e+00 
25000 5.8086973666e+00 5.5520630205e-03 1.7329129042e+00 -3.0014931952e+00 1.7329129042e+00 3.0014931952e+00 
25100 5.8086990037e+00 5.3815308333e-03 1.7327527122e+00 -3.0012157344e+00 1.7327527122e+00 3.0012157344e+00 
25200 5.8087012704e+00 5.2083921170e-03 1.7325974260e+00 -3.0009467709e+00 1.7325974260e+00 3.0009467709e+00 
25300 5.8087041337e+00 5.0330333108e-03 1.7324471223e+00 -3.0006864372e+00 1.7324471223e+00 3.0006864372e+00 
25400 5.8087075583e+00 4.8558314626e-03 1.7323018664e+00 -3.0004348466e+00 1.7323018664e+00 3.0004348466e+00 
25500 5.8087115071e+00 4.6771538373e-03 1.7321617128e+00 -3.0001920935e+00 1.7321617128e+00 3.0001920935e+00 
25600 5.8087159415e+00 4.4973575647e-03 1.7320267054e+00 -2.9999582538e+00 1.7320267054e+00 2.9999582538e+00 
25700 5.8087208216e+00 4.3167893255e-03 1.7318968777e+00 -2.9997333856e+00 1.7318968777e+00 2.9997333856e+00 
25800 5.8087261070e+00 4.1357850729e-03 1.7317722531e+00 -2.9995175296e+00 1.7317722531e+00 2.9995175296e+00 
25900 5.8087317570e+00 3.9546697907e-03 1.7316528455e+00 -2.9993107094e+00 1.7316528455e+00 2.9993107094e+00 
26000 5.8087377304e+00 3.7737572837e-03 1.7315386590e+00 -2.9991129327e+00 1.7315386590e+00 2.9991129327e+00 
26100 5.8087439868e+00 3.5933500011e-03 1.7314296889e+00 -2.9989241910e+00 1.7314296889e+00 2.9989241910e+00 
26200 5.8087504858e+00 3.4137388910e-03 1.7313259217e+00 -2.9987444608e+00 1.7313259217e+00 2.9987444608e+00 
26300 5.8087571881e+00 3.2352032832e-03 1.7312273352e+00 -2.9985737040e+00 1.7312273352e+00 2.9985737040e+00 
26400 5.8087640552e+00 3.0580108018e-03 1.7311338994e+00 -2.9984118684e+00 1.7311338994e+00 2.9984118684e+00 
26500 5.8087710501e+00 2.8824173032e-03 1.7310455762e+00 -2.9982588882e+00 1.7310455762e+00 2.9982588882e+00 
26600 5.8087781367e+00 2.7086668404e-03 1.7309623203e+00 -2.9981146848e+00 1.7309623203e+00 2.9981146848e+00 
26700 5.8087852808e+00 2.5369916514e-03 1.7308840793e+00 -2.9979791673e+00 1.7308840793e+00 2.9979791673e+00 
26800 5.8087924499e+00 2.3676121705e-03 1.7308107938e+00 -2.9978522331e+00 1.7308107938e+00 2.9978522331e+00 
26900 5.8087996132e+00 2.2007370614e-03 1.7307423982e+00 -2.9977337684e+00 1.7307423982e+00 2.9977337684e+00 
27000 5.8088067416e+00 2.0365632713e-03 1.7306788207e+00 -2.9976236491e+00 1.7306788207e+00 2.9976236491e+00 
27100 5.8088138085e+00 1.8752761039e-03 1.7306199839e+00 -2.9975217408e+00 1.7306199839e+00 2.9975217408e+00 
27200 5.8088207887e+00 1.7170493113e-03 1.7305658049e+00 -2.9974278999e+00 1.7305658049e+00 2.9974278999e+00 
27300 5.8088276595e+00 1.5620452035e-03 1.7305161957e+00 -2.9973419742e+00 1.7305161957e+00 2.9973419742e+00 
27400 5.8088344002e+00 1.4104147730e-03 1.7304710635e+00 -2.9972638030e+00 1.7304710635e+00 2.9972638030e+00 
27500 5.8088409921e+00 1.2622978362e-03 1.7304303113e+00 -2.9971932182e+00 1.7304303113e+00 2.9971932182e+00 
27600 5.8088474187e+00 1.1178231886e-03 1.7303938379e+00 -2.9971300444e+00 1.7303938379e+00 2.9971300444e+00 
27700 5.8088536654e+00 9.7710877292e-04 1.7303615384e+00 -2.9970740999e+00 1.7303615384e+00 2.9970740999e+00 
27800 5.8088597197e+00 8.4026186046e-04 1.7303333042e+00 -2.9970251969e+00 1.7303333042e+00 2.9970251969e+00 
27900 5.8088655711e+00 7.0737924405e-04 1.7303090239e+00 -2.9969831422e+00 1.7303090239e+00 2.9969831422e+00 
28000 5.8088712110e+00 5.7854744158e-04 1.7302885831e+00 -2.9969477377e+00 1.7302885831e+00 2.9969477377e+00 
28100 5.8088766325e+00 4.5384290983e-04 1.7302718649e+00 -2.9969187809e+00 1.7302718649e+00 2.9969187809e+00 
28200 5.8088818307e+00 3.3333226748e-04 1.7302587501e+00 -2.9968960655e+00 1.7302587501e+00 2.9968960655e+00 
28300 5.8088868020e+00 2.1707252673e-04 1.7302491177e+00 -2.9968793816e+00 1.7302491177e+00 2.9968793816e+00 
28400 5.8088915448e+00 1.0511133273e-04 1.7302428448e+00 -2.9968685167e+00 1.7302428448e+00 2.9968685167e+00 
28500 5.8088960588e+00 -2.5127898907e-06 1.7302398074e+00 -2.9968632556e+00 1.7302398074e+00 2.9968632556e+00 
28600 5.8089003449e+00 -1.0583561315e-04 1.7302398074e+00 -2.9968632556e+00 1.7302398074e+00 2.9968632556e+00 
28700 5.8089044056e+00 -2.0470393483e-04 1.7302428658e+00 -2.9968685530e+00 1.7302428658e+00 2.9968685530e+00 
28800 5.8089082444e+00 -2.9917180420e-04 1.7302487813e+00 -2.9968787989e+00 1.7302487813e+00 2.9968787989e+00 
28900 5.8089118658e+00 -3.8923459178e-04 1.7302574266e+00 -2.9968937730e+00 1.7302574266e+00 2.9968937730e+00 
29000 5.8089152755e+00 -4.7489547144e-04 1.7302686745e+00 -2.9969132550e+00 1.7302686745e+00 2.9969132550e+00 
29100 5.8089184799e+00 -5.5616514427e-04 1.7302823977e+00 -2.9969370242e+00 1.7302823977e+00 2.9969370242e+00 
29200 5.8089214861e+00 -6.3306155956e-04 1.7302984692e+00 -2.9969648609e+00 1.7302984692e+00 2.9969648609e+00 
29300 5.8089243021e+00 -7.0560963339e-04 1.7303167627e+00 -2.9969965461e+00 1.7303167627e+00 2.9969965461e+00 
29400 5.8089269361e+00 -7.7384096537e-04 1.7303371523e+00 -2.9970318620e+00 1.7303371523e+00 2.9970318620e+00 
29500 5.8089293971e+00 -8.3779355399e-04 1.7303595134e+00 -2.9970705925e+00 1.7303595134e+00 2.9970705925e+00 
29600 5.8089316943e+00 -8.9751151109e-04 1.7303837221e+00 -2.9971125232e+00 1.7303837221e+00 2.9971125232e+00 
29700 5.8089338372e+00 -9.5304477586e-04 1.7304096560e+00 -2.9971574421e+00 1.7304096560e+00 2.9971574421e+00 
29800 5.8089358356e+00 -1.0044488289e-03 1.7304371942e+00 -2.9972051397e+00 1.7304371942e+00 2.9972051397e+00 
29900 5.8089376992e+00 -1.0517844067e-03 1.7304662173e+00 -2.9972554091e+00 1.7304662173e+00 2.9972554091e+00 
30000 5.8089394380e+00 -1.0951172169e-03 1.7304966076e+00 -2.9973080466e+00 1.7304966076e+00 2.9973080466e+00 
30100 5.8089410617e+00 -1.1345176552e-03 1.7305282494e+00 -2.9973628518e+00 1.7305282494e+00 2.9973628518e+00 
30200 5.8089425802e+00 -1.1700605232e-03 1.7305610290e+00 -2.9974196278e+00 1.7305610290e+00 2.9974196278e+00 
30300 5.8089440030e+00 -1.2018247492e-03 1.7305948349e+00 -2.9974781814e+00 1.7305948349e+00 2.9974781814e+00 
30400 5.8089453395e+00 -1.2298931106e-03 1.7306295579e+00 -2.9975383234e+00 1.7306295579e+00 2.9975383234e+00 
30500 5.8089465989e+00 -1.2543519595e-03 1.7306650912e+00 -2.9975998688e+00 1.7306650912e+00 2.9975998688e+00 
30600 5.8089477901e+00 -1.2752909515e-03 1.7307013303e+00 -2.9976626368e+00 1.7307013303e+00 2.9976626368e+00 
30700 5.8089489215e+00 -1.2928027772e-03 1.7307381736e+00 -2.9977264513e+00 1.7307381736e+00 2.9977264513e+00 
30800 5.8089500013e+00 -1.3069828987e-03 1.7307755220e+00 -2.9977911407e+00 1.7307755220e+00 2.9977911407e+00 
30900 5.8089510373e+00 -1.3179292887e-03 1.7308132793e+00 -2.9978565382e+00 1.7308132793e+00 2.9978565382e+00 
31000 5.8089520366e+00 -1.3257421750e-03 1.7308513520e+00 -2.9979224820e+00 1.7308513520e+00 2.9979224820e+00 
31100 5.8089530064e+00 -1.3305237893e-03 1.7308896496e+00 -2.9979888153e+00 1.7308896496e+00 2.9979888153e+00 
31200 5.8089539529e+00 -1.3323781204e-03 1.7309280844e+00 -2.9980553864e+00 1.7309280844e+00 2.9980553864e+00 
31300 5.8089548822e+00 -1.3314106731e-03 1.7309665719e+00 -2.9981220488e+00 1.7309665719e+00 2.9981220488e+00 
31400 5.8089557996e+00 -1.3277282322e-03 1.7310050306e+00 -2.9981886612e+00 1.7310050306e+00 2.9981886612e+00 
31500 5.8089567104e+00 -1.3214386320e-03 1.7310433822e+00 -2.9982550880e+00 1.7310433822e+00 2.9982550880e+00 
31600 5.8089576189e+00 -1.3126505318e-03 1.7310815511e+00 -2.9983211986e+00 1.7310815511e+00 2.9983211986e+00 
31700 5.8089585294e+00 -1.3014731967e-03 1.7311194655e+00 -2.9983868681e+00 1.7311194655e+00 2.9983868681e+00 
31800 5.8089594453e+00 -1.2880162856e-03 1.7311570561e+00 -2.9984519770e+00 1.7311570561e+00 2.9984519770e+00 
31900 5.8089603699e+00 -1.2723896445e-03 1.7311942573e+00 -2.9985164113e+00 1.7311942573e+00 2.9985164113e+00 
32000 5.8089613059e+00 -1.2547031067e-03 1.7312310063e+00 -2.9985800625e+00 1.7312310063e+00 2.9985800625e+00 
32100 5.8089622556e+00 -1.2350662994e-03 1.7312672437e+00 -2.9986428276e+00 1.7312672437e+00 2.9986428276e+00 
32200 5.8089632209e+00 -1.2135884577e-03 1.7313029133e+00 -2.9987046091e+00 1.7313029133e+00 2.9987046091e+00 
32300 5.8089642033e+00 -1.1903782439e-03 1.7313379618e+00 -2.9987653149e+00 1.7313379618e+00 2.9987653149e+00 
32400 5.8089652039e+00 -1.1655435756e-03 1.7313723393e+00 -2.9988248585e+00 1.7313723393e+00 2.9988248585e+00 
32500 5.8089662234e+00 -1.1391914591e-03 1.7314059990e+00 -2.9988831587e+00 1.7314059990e+00 2.9988831587e+00 
32600 5.8089672625e+00 -1.1114278311e-03 1.7314388969e+00 -2.9989401397e+00 1.7314388969e+00 2.9989401397e+00 
32700 5.8089683211e+00 -1.0823574069e-03 1.7314709925e+00 -2.9989957309e+00 1.7314709925e+00 2.9989957309e+00 
32800 5.8089693992e+00 -1.0520835357e-03 1.7315022481e+00 -2.9990498671e+00 1.7315022481e+00 2.9990498671e+00 
32900 5.8089704963e+00 -1.0207080636e-03 1.7315326288e+00 -2.9991024881e+00 1.7315326288e+00 2.9991024881e+00 
33000 5.8089716119e+00 -9.8833120317e-04 1.7315621030e+00 -2.9991535389e+00 1.7315621030e+00 2.9991535389e+00 
33100 5.8089727450e+00 -9.5505141093e-04 1.7315906418e+00 -2.9992029695e+00 1.7315906418e+00 2.9992029695e+00 
33200 5.8089738947e+00 -9.2096527138e-04 1.7316182192e+00 -2.9992507349e+00 1.7316182192e+00 2.9992507349e+00 
33300 5.8089750597e+00 -8.8616738859e-04 1.7316448119e+00 -2.9992967948e+00 1.7316448119e+00 2.9992967948e+00 
33400 5.8089762387e+00 -8.5075028487e-04 1.7316703994e+00 -2.9993411137e+00 1.7316703994e+00 2.9993411137e+00 
33500 5.8089774302e+00 -8.1480430648e-04 1.7316949639e+00 -2.9993836606e+00 1.7316949639e+00 2.9993836606e+00 
33600 5.8089786326e+00 -7.7841753651e-04 1.7317184901e+00 -2.9994244093e+00 1.7317184901e+00 2.9994244093e+00 
33700 5.8089798443e+00 -7.4167571456e-04 1.7317409655e+00 -2.9994633377e+00 1.7317409655e+00 2.9994633377e+00 
33800 5.8089810635e+00 -7.0466216355e-04 1.7317623797e+00 -2.9995004282e+00 1.7317623797e+00 2.9995004282e+00 
33900 5.8089822886e+00 -6.6745772313e-04 1.7317827249e+00 -2.9995356673e+00 1.7317827249e+00 2.9995356673e+00 
34000 5.8089835176e+00 -6.3014069001e-04 1.7318019958e+00 -2.9995690454e+00 1.7318019958e+00 2.9995690454e+00 
34100 5.8089847489e+00 -5.9278676472e-04 1.7318201891e+00 -2.9996005570e+00 1.7318201891e+00 2.9996005570e+00 
34200 5.8089859805e+00 -5.5546900504e-04 1.7318373036e+00 -2.9996302003e+00 1.7318373036e+00 2.9996302003e+00 
34300 5.8089872109e+00 -5.1825778565e-04 1.7318533406e+00 -2.9996579773e+00 1.7318533406e+00 2.9996579773e+00 
34400 5.8089884380e+00 -4.8122076413e-04 1.7318683032e+00 -2.9996838931e+00 1.7318683032e+00 2.9996838931e+00 
34500 5.8089896604e+00 -4.4442285302e-04 1.7318821963e+00 -2.9997079567e+00 1.7318821963e+00 2.9997079567e+00 
34600 5.8089908764e+00 -4.0792619780e-04 1.7318950270e+00 -2.9997301801e+00 1.7318950270e+00 2.9997301801e+00 
34700 5.8089920843e+00 -3.7179016073e-04 1.7319068039e+00 -2.9997505782e+00 1.7319068039e+00 2.9997505782e+00 
34800 5.8089932827e+00 -3.3607131031e-04 1.7319175374e+00 -2.9997691693e+00 1.7319175374e+00 2.9997691693e+00 
34900 5.8089944701e+00 -3.0082341615e-04 1.7319272397e+00 -2.9997859742e+00 1.7319272397e+00 2.9997859742e+00 
35000 5.8089956452e+00 -2.6609744923e-04 1.7319359244e+00 -2.9998010165e+00 1.7319359244e+00 2.9998010165e+00 
35100 5.8089968068e+00 -2.3194158722e-04 1.7319436065e+00 -2.9998143222e+00 1.7319436065e+00 2.9998143222e+00 
35200 5.8089979536e+00 -1.9840122477e-04 1.7319503024e+00 -2.9998259200e+00 1.7319503024e+00 2.9998259200e+00 
35300 5.8089990846e+00 -1.6551898854e-04 1.7319560301e+00 -2.9998358407e+00 1.7319560301e+00 2.9998358407e+00 
35400 5.8090001989e+00 -1.3333475681e-04 1.7319608085e+00 -2.9998441171e+00 1.7319608085e+00 2.9998441171e+00 
35500 5.8090012956e+00 -1.0188568347e-04 1.7319646578e+00 -2.9998507842e+00 1.7319646578e+00 2.9998507842e+00 
35600 5.8090023739e+00 -7.1206226182e-05 1.7319675991e+00 -2.9998558787e+00 1.7319675991e+00 2.9998558787e+00 
35700 5.8090034332e+00 -4.1328178556e-05 1.7319696547e+00 -2.9998594392e+00 1.7319696547e+00 2.9998594392e+00 
35800 5.8090044729e+00 -1.3350639192e-05 1.7319696547e+00 -2.9998594392e+00 1.7319696547e+00 2.9998594392e+00 
35900 5.8090054924e+00 1.4514823421e-05 1.7319696547e+00 -2.9998594392e+00 1.7319696547e+00 2.9998594392e+00 
36000 5.8090064916e+00 4.2226805534e-05 1.7319696547e+00 -2.9998594392e+00 1.7319696547e+00 2.9998594392e+00 
36100 5.8090074702e+00 6.9745718832e-05 1.7319696547e+00 -2.9998594392e+00 1.7319696547e+00 2.9998594392e+00 
36200 5.8090084281e+00 9.7033789268e-05 1.7319696547e+00 -2.9998594392e+00 1.7319696547e+00 2.9998594392e+00 
36300 5.8090093649e+00 1.2154248531e-04 1.7319668535e+00 -2.9998545873e+00 1.7319668535e+00 2.9998545873e+00 
36400 5.8090102806e+00 1.4509922247e-04 1.7319633447e+00 -2.9998485098e+00 1.7319633447e+00 2.9998485098e+00 
36500 5.8090111754e+00 1.6769190161e-04 1.7319591558e+00 -2.9998412545e+00 1.7319591558e+00 2.9998412545e+00 
36600 5.8090120494e+00 1.8931065363e-04 1.7319543147e+00 -2.9998328695e+00 1.7319543147e+00 2.9998328695e+00 
36700 5.8090129027e+00 2.0994777814e-04 1.7319488495e+00 -2.9998234034e+00 1.7319488495e+00 2.9998234034e+00 
36800 5.8090137356e+00 2.2959768027e-04 1.7319427885e+00 -2.9998129054e+00 1.7319427885e+00 2.9998129054e+00 
36900 5.8090145485e+00 2.4825680586e-04 1.7319361601e+00 -2.9998014248e+00 1.7319361601e+00 2.9998014248e+00 
37000 5.8090153417e+00 2.6592357513e-04 1.7319289931e+00 -2.9997890112e+00 1.7319289931e+00 2.9997890112e+00 
37100 5.8090161157e+00 2.8259831506e-04 1.7319213160e+00 -2.9997757141e+00 1.7319213160e+00 2.9997757141e+00 
37200 5.8090168708e+00 2.9828319065e-04 1.7319131575e+00 -2.9997615831e+00 1.7319131575e+00 2.9997615831e+00 
37300 5.8090176075e+00 3.1298213521e-04 1.7319045461e+00 -2.9997466678e+00 1.7319045461e+00 2.9997466678e+00 
37400 5.8090183265e+00 3.2670077987e-04 1.7318955104e+00 -2.9997310174e+00 1.7318955104e+00 2.9997310174e+00 
37500 5.8090190283e+00 3.3944638244e-04 1.7318860785e+00 -2.9997146809e+00 1.7318860785e+00 2.9997146809e+00 
37600 5.8090197133e+00 3.5122775583e-04 1.7318762786e+00 -2.9996977070e+00 1.7318762786e+00 2.9996977070e+00 
37700 5.8090203823e+00 3.6205519612e-04 1.7318661385e+00 -2.9996801438e+00 1.7318661385e+00 2.9996801438e+00 
37800 5.8090210357e+00 3.7194041047e-04 1.7318556858e+00 -2.9996620392e+00 1.7318556858e+00 2.9996620392e+00 
37900 5.8090216743e+00 3.8089644499e-04 1.7318449476e+00 -2.9996434401e+00 1.7318449476e+00 2.9996434401e+00 
38000 5.8090222987e+00 3.8893761275e-04 1.7318339508e+00 -2.9996243930e+00 1.7318339508e+00 2.9996243930e+00 
38100 5.8090229093e+00 3.9607942196e-04 1.7318227217e+00 -2.9996049437e+00 1.7318227217e+00 2.9996049437e+00 
38200 5.8090235070e+00 4.0233850463e-04 1.7318112864e+00 -2.9995851371e+00 1.7318112864e+00 2.9995851371e+00 
38300 5.8090240922e+00 4.0773254557e-04 1.7317996703e+00 -2.9995650175e+00 1.7317996703e+00 2.9995650175e+00 
38400 5.8090246655e+00 4.1228021215e-04 1.7317878984e+00 -2.9995446279e+00 1.7317878984e+00 2.9995446279e+00 
38500 5.8090252276e+00 4.1600108463e-04 1.7317759951e+00 -2.9995240108e+00 1.7317759951e+00 2.9995240108e+00 
38600 5.8090257790e+00 4.1891558744e-04 1.7317639843e+00 -2.9995032074e+00 1.7317639843e+00 2.9995032074e+00 
38700 5.8090263203e+00 4.2104492126e-04 1.7317518892e+00 -2.9994822582e+00 1.7317518892e+00 2.9994822582e+00 
38800 5.8090268520e+00 4.2241099623e-04 1.7317397326e+00 -2.9994612024e+00 1.7317397326e+00 2.9994612024e+00 
38900 5.8090273746e+00 4.2303636616e-04 1.7317275365e+00 -2.9994400780e+00 1.7317275365e+00 2.9994400780e+00 
39000 5.8090278886e+00 4.2294416396e-04 1.7317153222e+00 -2.9994189223e+00 1.7317153222e+00 2.9994189223e+00 
39100 5.8090283944e+00 4.2215803840e-04 1.7317031105e+00 -2.9993977710e+00 1.7317031105e+00 2.9993977710e+00 
39200 5.8090288926e+00 4.2070209210e-04 1.7316909214e+00 -2.9993766589e+00 1.7316909214e+00 2.9993766589e+00 
39300 5.8090293835e+00 4.1860082096e-04 1.7316787743e+00 -2.9993556195e+00 1.7316787743e+00 2.9993556195e+00 
39400 5.8090298675e+00 4.1587905510e-04 1.7316666877e+00 -2.9993346849e+00 1.7316666877e+00 2.9993346849e+00 
39500 5.8090303450e+00 4.1256190127e-04 1.7316546797e+00 -2.9993138864e+00 1.7316546797e+00 2.9993138864e+00 
39600 5.8090308164e+00 4.0867468681e-04 1.7316427674e+00 -2.9992932536e+00 1.7316427674e+00 2.9992932536e+00 
39700 5.8090312819e+00 4.0424290534e-04 1.7316309672e+00 -2.9992728151e+00 1.7316309672e+00 2.9992728151e+00 
39800 5.8090317418e+00 3.9929216395e-04 1.7316192949e+00 -2.9992525981e+00 1.7316192949e+00 2.9992525981e+00 
39900 5.8090321964e+00 3.9384813226e-04 1.7316077654e+00 -2.9992326285e+00 1.7316077654e+00 2.9992326285e+00 
40000 5.8090326460e+00 3.8793649303e-04 1.7315963931e+00 -2.9992129311e+00 1.7315963931e+00 2.9992129311e+00 
40100 5.8090330907e+00 3.8158289472e-04 1.7315851914e+00 -2.9991935292e+00 1.7315851914e+00 2.9991935292e+00 
40200 5.8090335308e+00 3.7481290565e-04 1.7315741731e+00 -2.9991744449e+00 1.7315741731e+00 2.9991744449e+00 
40300 5.8090339665e+00 3.6765197009e-04 1.7315633502e+00 -2.9991556991e+00 1.7315633502e+00 2.9991556991e+00 
40400 5.8090343978e+00 3.6012536611e-04 1.7315527341e+00 -2.9991373114e+00 1.7315527341e+00 2.9991373114e+00 
40500 5.8090348249e+00 3.5225816525e-04 1.7315423352e+00 -2.9991193000e+00 1.7315423352e+00 2.9991193000e+00 
40600 5.8090352479e+00 3.4407519407e-04 1.7315321634e+00 -2.9991016819e+00 1.7315321634e+00 2.9991016819e+00 
40700 5.8090356669e+00 3.3560099749e-04 1.7315222278e+00 -2.9990844730e+00 1.7315222278e+00 2.9990844730e+00 
40800 5.8090360820e+00 3.2685980396e-04 1.7315125369e+00 -2.9990676878e+00 1.7315125369e+00 2.9990676878e+00 
40900 5.8090364932e+00 3.1787549253e-04 1.7315030983e+00 -2.9990513398e+00 1.7315030983e+00 2.9990513398e+00 
41000 5.8090369007e+00 3.0867156170e-04 1.7314939192e+00 -2.9990354410e+00 1.7314939192e+00 2.9990354410e+00 
41100 5.8090373043e+00 2.9927110005e-04 1.7314850057e+00 -2.9990200025e+00 1.7314850057e+00 2.9990200025e+00 
41200 5.8090377042e+00 2.8969675879e-04 1.7314763637e+00 -2.9990050340e+00 1.7314763637e+00 2.9990050340e+00 
41300 5.8090381003e+00 2.7997072594e-04 1.7314679981e+00 -2.9989905444e+00 1.7314679981e+00 2.9989905444e+00 
41400 5.8090384927e+00 2.7011470243e-04 1.7314599133e+00 -2.9989765412e+00 1.7314599133e+00 2.9989765412e+00 
41500 5.8090388813e+00 2.6014987985e-04 1.7314521131e+00 -2.9989630308e+00 1.7314521131e+00 2.9989630308e+00 
41600 5.8090392662e+00 2.5009691996e-04 1.7314446007e+00 -2.9989500189e+00 1.7314446007e+00 2.9989500189e+00 
41700 5.8090396472e+00 2.3997593593e-04 1.7314373785e+00 -2.9989375096e+00 1.7314373785e+00 2.9989375096e+00 
41800 5.8090400244e+00 2.2980647516e-04 1.7314304485e+00 -2.9989255066e+00 1.7314304485e+00 2.9989255066e+00 
41900 5.8090403978e+00 2.1960750388e-04 1.7314238122e+00 -2.9989140122e+00 1.7314238122e+00 2.9989140122e+00 
42000 5.8090407672e+00 2.0939739317e-04 1.7314174704e+00 -2.9989030278e+00 1.7314174704e+00 2.9989030278e+00 
42100 5.8090411327e+00 1.9919390680e-04 1.7314114234e+00 -2.9988925541e+00 1.7314114234e+00 2.9988925541e+00 
42200 5.8090414943e+00 1.8901419035e-04 1.7314056710e+00 -2.9988825908e+00 1.7314056710e+00 2.9988825908e+00 
42300 5.8090418518e+00 1.7887476206e-04 1.7314002126e+00 -2.9988731365e+00 1.7314002126e+00 2.9988731365e+00 
42400 5.8090422053e+00 1.6879150498e-04 1.7313950470e+00 -2.9988641894e+00 1.7313950470e+00 2.9988641894e+00 
42500 5.8090425547e+00 1.5877966067e-04 1.7313901726e+00 -2.9988557467e+00 1.7313901726e+00 2.9988557467e+00 
42600 5.8090429000e+00 1.4885382417e-04 1.7313855873e+00 -2.9988478047e+00 1.7313855873e+00 2.9988478047e+00 
42700 5.8090432412e+00 1.3902794044e-04 1.7313812886e+00 -2.9988403591e+00 1.7313812886e+00 2.9988403591e+00 
42800 5.8090435781e+00 1.2931530200e-04 1.7313772737e+00 -2.9988334050e+00 1.7313772737e+00 2.9988334050e+00 
42900 5.8090439109e+00 1.1972854786e-04 1.7313735392e+00 -2.9988269368e+00 1.7313735392e+00 2.9988269368e+00 
43000 5.8090442394e+00 1.1027966374e-04 1.7313700816e+00 -2.9988209480e+00 1.7313700816e+00 2.9988209480e+00 
43100 5.8090445637e+00 1.0097998332e-04 1.7313668968e+00 -2.9988154318e+00 1.7313668968e+00 2.9988154318e+00 
43200 5.8090448837e+00 9.1840190733e-05 1.7313639806e+00 -2.9988103808e+00 1.7313639806e+00 2.9988103808e+00 
43300 5.8090451994e+00 8.2870324120e-05 1.7313613284e+00 -2.9988057870e+00 1.7313613284e+00 2.9988057870e+00 
43400 5.8090455108e+00 7.4079780172e-05 1.7313589352e+00 -2.9988016419e+00 1.7313589352e+00 2.9988016419e+00 
43500 5.8090458180e+00 6.5477319719e-05 1.7313567958e+00 -2.9987979364e+00 1.7313567958e+00 2.9987979364e+00 
43600 5.8090461209e+00 5.8769870682e-05 1.7313567958e+00 -2.9987979364e+00 1.7313567958e+00 2.9987979364e+00 
43700 5.8090464196e+00 5.2058897083e-05 1.7313567958e+00 -2.9987979364e+00 1.7313567958e+00 2.9987979364e+00 
43800 5.8090467139e+00 4.5355339323e-05 1.7313567958e+00 -2.9987979364e+00 1.7313567958e+00 2.9987979364e+00 
43900 5.8090470039e+00 3.8669705664e-05 1.7313567958e+00 -2.9987979364e+00 1.7313567958e+00 2.9987979364e+00 
44000 5.8090472896e+00 3.2012071246e-05 1.7313567958e+00 -2.9987979364e+00 1.7313567958e+00 2.9987979364e+00 
44100 5.8090475712e+00 2.5392077858e-05 1.7313567958e+00 -2.9987979364e+00 1.7313567958e+00 2.9987979364e+00 
44200 5.8090478485e+00 1.8818934431e-05 1.7313567958e+00 -2.9987979364e+00 1.7313567958e+00 2.9987979364e+00 
44300 5.8090481217e+00 1.2301418244e-05 1.7313567958e+00 -2.9987979364e+00 1.7313567958e+00 2.9987979364e+00 
44400 5.8090483907e+00 5.8478767972e-06 1.7313567958e+00 -2.9987979364e+00 1.7313567958e+00 2.9987979364e+00 
44500 5.8090486557e+00 -5.3376966827e-07 1.7313567958e+00 -2.9987979364e+00 1.7313567958e+00 2.9987979364e+00 
44600 5.8090489167e+00 -6.8360250334e-06 1.7313567958e+00 -2.9987979364e+00 1.7313567958e+00 2.9987979364e+00 
44700 5.8090491738e+00 -1.3051813575e-05 1.7313567958e+00 -2.9987979364e+00 1.7313567958e+00 2.9987979364e+00 
44800 5.8090494269e+00 -1.9174475679e-05 1.7313567958e+00 -2.9987979364e+00 1.7313567958e+00 2.9987979364e+00 
44900 5.8090496762e+00 -2.5197763024e-05 1.7313567958e+00 -2.9987979364e+00 1.7313567958e+00 2.9987979364e+00 
45000 5.8090499218e+00 -3.1115833254e-05 1.7313567958e+00 -2.9987979364e+00 1.7313567958e+00 2.9987979364e+00 
45100 5.8090501636e+00 -3.6923244178e-05 1.7313567958e+00 -2.9987979364e+00 1.7313567958e+00 2.9987979364e+00 
45200 5.8090504017e+00 -4.2614947528e-05 1.7313567958e+00 -2.9987979364e+00 1.7313567958e+00 2.9987979364e+00 
45300 5.8090506362e+00 -4.8186282274e-05 1.7313567958e+00 -2.9987979364e+00 1.7313567958e+00 2.9987979364e+00 
45400 5.8090508673e+00 -5.3632967574e-05 1.7313567958e+00 -2.9987979364e+00 1.7313567958e+00 2.9987979364e+00 
45500 5.8090510948e+00 -5.8951095329e-05 1.7313567958e+00 -2.9987979364e+00 1.7313567958e+00 2.9987979364e+00 
45600 5.8090513189e+00 -6.4137122406e-05 1.7313567958e+00 -2.9987979364e+00 1.7313567958e+00 2.9987979364e+00 
45700 5.8090515397e+00 -6.9187862557e-05 1.7313567958e+00 -2.9987979364e+00 1.7313567958e+00 2.9987979364e+00 
45800 5.8090517573e+00 -7.4100478021e-05 1.7313567958e+00 -2.9987979364e+00 1.7313567958e+00 2.9987979364e+00 
45900 5.8090519714e+00 -7.6950239721e-05 1.7313589358e+00 -2.9988016429e+00 1.7313589358e+00 2.9988016429e+00 
46000 5.8090521823e+00 -7.9571020656e-05 1.7313611580e+00 -2.9988054919e+00 1.7313611580e+00 2.9988054919e+00 
46100 5.8090523901e+00 -8.1966271229e-05 1.7313634560e+00 -2.9988094721e+00 1.7313634560e+00 2.9988094721e+00 
46200 5.8090525949e+00 -8.4139719914e-05 1.7313658231e+00 -2.9988135720e+00 1.7313658231e+00 2.9988135720e+00 
46300 5.8090527967e+00 -8.6095356765e-05 1.7313682529e+00 -2.9988177807e+00 1.7313682529e+00 2.9988177807e+00 
46400 5.8090529955e+00 -8.7837417074e-05 1.7313707393e+00 -2.9988220871e+00 1.7313707393e+00 2.9988220871e+00 
46500 5.8090531916e+00 -8.9370365156e-05 1.7313732759e+00 -2.9988264807e+00 1.7313732759e+00 2.9988264807e+00 
46600 5.8090533848e+00 -9.0698878312e-05 1.7313758568e+00 -2.9988309510e+00 1.7313758568e+00 2.9988309510e+00 
46700 5.8090535752e+00 -9.1827830966e-05 1.7313784761e+00 -2.9988354877e+00 1.7313784761e+00 2.9988354877e+00 
46800 5.8090537631e+00 -9.2762279033e-05 1.7313811280e+00 -2.9988400809e+00 1.7313811280e+00 2.9988400809e+00 
46900 5.8090539483e+00 -9.3507444493e-05 1.7313838068e+00 -2.9988447208e+00 1.7313838068e+00 2.9988447208e+00 
47000 5.8090541309e+00 -9.4068700241e-05 1.7313865072e+00 -2.9988493980e+00 1.7313865072e+00 2.9988493980e+00 
47100 5.8090543110e+00 -9.4451555182e-05 1.7313892238e+00 -2.9988541032e+00 1.7313892238e+00 2.9988541032e+00 
47200 5.8090544887e+00 -9.4661639625e-05 1.7313919514e+00 -2.9988588276e+00 1.7313919514e+00 2.9988588276e+00 
47300 5.8090546640e+00 -9.4704690967e-05 1.7313946851e+00 -2.9988635625e+00 1.7313946851e+00 2.9988635625e+00 
47400 5.8090548369e+00 -9.4586539706e-05 1.7313974200e+00 -2.9988682995e+00 1.7313974200e+00 2.9988682995e+00 
47500 5.8090550076e+00 -9.4313095774e-05 1.7314001515e+00 -2.9988730306e+00 1.7314001515e+00 2.9988730306e+00 
47600 5.8090551760e+00 -9.3890335208e-05 1.7314028751e+00 -2.9988777481e+00 1.7314028751e+00 2.9988777481e+00 
47700 5.8090553421e+00 -9.3324287179e-05 1.7314055865e+00 -2.9988824443e+00 1.7314055865e+00 2.9988824443e+00 
47800 5.8090555061e+00 -9.2621021392e-05 1.7314082815e+00 -2.9988871123e+00 1.7314082815e+00 2.9988871123e+00 
47900 5.8090556680e+00 -9.1786635848e-05 1.7314109563e+00 -2.9988917451e+00 1.7314109563e+00 2.9988917451e+00 
48000 5.8090558278e+00 -9.0827244987e-05 1.7314136069e+00 -2.9988963361e+00 1.7314136069e+00 2.9988963361e+00 
48100 5.8090559856e+00 -8.9748968240e-05 1.7314162298e+00 -2.9989008791e+00 1.7314162298e+00 2.9989008791e+00 
48200 5.8090561414e+00 -8.8557918947e-05 1.7314188216e+00 -2.9989053682e+00 1.7314188216e+00 2.9989053682e+00 
48300 5.8090562951e+00 -8.7260193706e-05 1.7314213790e+00 -2.9989097977e+00 1.7314213790e+00 2.9989097977e+00 
48400 5.8090564470e+00 -8.5861862104e-05 1.7314238989e+00 -2.9989141623e+00 1.7314238989e+00 2.9989141623e+00 
48500 5.8090565969e+00 -8.4368956885e-05 1.7314263784e+00 -2.9989184570e+00 1.7314263784e+00 2.9989184570e+00 
48600 5.8090567450e+00 -8.2787464502e-05 1.7314288148e+00 -2.9989226769e+00 1.7314288148e+00 2.9989226769e+00 
48700 5.8090568912e+00 -8.1123316111e-05 1.7314312055e+00 -2.9989268178e+00 1.7314312055e+00 2.9989268178e+00 
48800 5.8090570355e+00 -7.9382378966e-05 1.7314335482e+00 -2.9989308754e+00 1.7314335482e+00 2.9989308754e+00 
48900 5.8090571781e+00 -7.7570448244e-05 1.7314358406e+00 -2.9989348460e+00 1.7314358406e+00 2.9989348460e+00 
49000 5.8090573189e+00 -7.5693239268e-05 1.7314380807e+00 -2.9989387259e+00 1.7314380807e+00 2.9989387259e+00 
49100 5.8090574580e+00 -7.3756380177e-05 1.7314402665e+00 -2.9989425119e+00 1.7314402665e+00 2.9989425119e+00 
49200 5.8090575953e+00 -7.1765404985e-05 1.7314423964e+00 -2.9989462010e+00 1.7314423964e+00 2.9989462010e+00 
49300 5.8090577309e+00 -6.9725747060e-05 1.7314444688e+00 -2.9989497905e+00 1.7314444688e+00 2.9989497905e+00 
49400 5.8090578651e+00 -6.9451100110e-05 1.7314444688e+00 -2.9989497905e+00 1.7314444688e+00 2.9989497905e+00 
49500 5.8090579975e+00 -6.9095851810e-05 1.7314444688e+00 -2.9989497905e+00 1.7314444688e+00 2.9989497905e+00 
49600 5.8090581283e+00 -6.8663927773e-05 1.7314444688e+00 -2.9989497905e+00 1.7314444688e+00 2.9989497905e+00 
49700 5.8090582574e+00 -6.8159229263e-05 1.7314444688e+00 -2.9989497905e+00 1.7314444688e+00 2.9989497905e+00 
49800 5.8090583850e+00 -6.7585627574e-05 1.7314444688e+00 -2.9989497905e+00 1.7314444688e+00 2.9989497905e+00 
49900 5.8090585109e+00 -6.6946958674e-05 1.7314444688e+00 -2.9989497905e+00 1.7314444688e+00 2.9989497905e+00 
50000 5.8090586352e+00 -6.6247018105e-05 1.7314444688e+00 -2.9989497905e+00 1.7314444688e+00 2.9989497905e+00 
50100 5.8090587580e+00 -6.5489556162e-05 1.7314444688e+00 -2.9989497905e+00 1.7314444688e+00 2.9989497905e+00 
50200 5.8090588792e+00 -6.4678273314e-05 1.7314444688e+00 -2.9989497905e+00 1.7314444688e+00 2.9989497905e+00 
50300 5.8090589989e+00 -6.3816815888e-05 1.7314444688e+00 -2.9989497905e+00 1.7314444688e+00 2.9989497905e+00 
50400 5.8090591171e+00 -6.2908772017e-05 1.7314444688e+00 -2.9989497905e+00 1.7314444688e+00 2.9989497905e+00 
50500 5.8090592338e+00 -6.1957667829e-05 1.7314444688e+00 -2.9989497905e+00 1.7314444688e+00 2.9989497905e+00 
50600 5.8090593490e+00 -6.0966963899e-05 1.7314444688e+00 -2.9989497905e+00 1.7314444688e+00 2.9989497905e+00 
50700 5.8090594627e+00 -5.9940051931e-05 1.7314444688e+00 -2.9989497905e+00 1.7314444688e+00 2.9989497905e+00 
50800 5.8090595750e+00 -5.8880251703e-05 1.7314444688e+00 -2.9989497905e+00 1.7314444688e+00 2.9989497905e+00 
50900 5.8090596858e+00 -5.7790808234e-05 1.7314444688e+00 -2.9989497905e+00 1.7314444688e+00 2.9989497905e+00 
51000 5.8090597952e+00 -5.6674889189e-05 1.7314444688e+00 -2.9989497905e+00 1.7314444688e+00 2.9989497905e+00 
51100 5.8090599032e+00 -5.5535582528e-05 1.7314444688e+00 -2.9989497905e+00 1.7314444688e+00 2.9989497905e+00 
51200 5.8090600098e+00 -5.4375894357e-05 1.7314444688e+00 -2.9989497905e+00 1.7314444688e+00 2.9989497905e+00 
51300 5.8090601151e+00 -5.3198747021e-05 1.7314444688e+00 -2.9989497905e+00 1.7314444688e+00 2.9989497905e+00 
51400 5.8090602190e+00 -5.2006977403e-05 1.7314444688e+00 -2.9989497905e+00 1.7314444688e+00 2.9989497905e+00 
51500 5.8090603215e+00 -5.0803335429e-05 1.7314444688e+00 -2.9989497905e+00 1.7314444688e+00 2.9989497905e+00 
51600 5.8090604227e+00 -4.9590482788e-05 1.7314444688e+00 -2.9989497905e+00 1.7314444688e+00 2.9989497905e+00 
51700 5.8090605226e+00 -4.8370991842e-05 1.7314444688e+00 -2.9989497905e+00 1.7314444688e+00 2.9989497905e+00 
51800 5.8090606212e+00 -4.7147344737e-05 1.7314444688e+00 -2.9989497905e+00 1.7314444688e+00 2.9989497905e+00 
51900 5.8090607185e+00 -4.5921932693e-05 1.7314444688e+00 -2.9989497905e+00 1.7314444688e+00 2.9989497905e+00 
52000 5.8090608146e+00 -4.4697055485e-05 1.7314444688e+00 -2.9989497905e+00 1.7314444688e+00 2.9989497905e+00 
52100 5.8090609093e+00 -4.3474921091e-05 1.7314444688e+00 -2.9989497905e+00 1.7314444688e+00 2.9989497905e+00 
52200 5.8090610029e+00 -4.2257645516e-05 1.7314444688e+00 -2.9989497905e+00 1.7314444688e+00 2.9989497905e+00 
52300 5.8090610953e+00 -4.1047252770e-05 1.7314444688e+00 -2.9989497905e+00 1.7314444688e+00 2.9989497905e+00 
52400 5.8090611864e+00 -3.9845675018e-05 1.7314444688e+00 -2.9989497905e+00 1.7314444688e+00 2.9989497905e+00 
52500 5.8090612763e+00 -3.8654752870e-05 1.7314444688e+00 -2.9989497905e+00 1.7314444688e+00 2.9989497905e+00 
52600 5.8090613651e+00 -3.7476235808e-05 1.7314444688e+00 -2.9989497905e+00 1.7314444688e+00 2.9989497905e+00 
52700 5.8090614527e+00 -3.6311782777e-05 1.7314444688e+00 -2.9989497905e+00 1.7314444688e+00 2.9989497905e+00 
52800 5.8090615392e+00 -3.5162962877e-05 1.7314444688e+00 -2.9989497905e+00 1.7314444688e+00 2.9989497905e+00 
52900 5.8090616246e+00 -3.4031256204e-05 1.7314444688e+00 -2.9989497905e+00 1.7314444688e+00 2.9989497905e+00 
53000 5.8090617088e+00 -3.2918054795e-05 1.7314444688e+00 -2.9989497905e+00 1.7314444688e+00 2.9989497905e+00 
53100 5.8090617919e+00 -3.1824663702e-05 1.7314444688e+00 -2.9989497905e+00 1.7314444688e+00 2.9989497905e+00 
53200 5.8090618740e+00 -3.0752302152e-05 1.7314444688e+00 -2.9989497905e+00 1.7314444688e+00 2.9989497905e+00 
53300 5.8090619550e+00 -2.9702104827e-05 1.7314444688e+00 -2.9989497905e+00 1.7314444688e+00 2.9989497905e+00 
53400 5.8090620349e+00 -2.8675123235e-05 1.7314444688e+00 -2.9989497905e+00 1.7314444688e+00 2.9989497905e+00 
53500 5.8090621138e+00 -2.7672327155e-05 1.7314444688e+00 -2.9989497905e+00 1.7314444688e+00 2.9989497905e+00 
53600 5.8090621917e+00 -2.6694606187e-05 1.7314444688e+00 -2.9989497905e+00 1.7314444688e+00 2.9989497905e+00 
53700 5.8090622686e+00 -2.5742771361e-05 1.7314444688e+00 -2.9989497905e+00 1.7314444688e+00 2.9989497905e+00 
53800 5.8090623445e+00 -2.4817556829e-05 1.7314444688e+00 -2.9989497905e+00 1.7314444688e+00 2.9989497905e+00 
53900 5.8090624194e+00 -2.3919621616e-05 1.7314444688e+00 -2.9989497905e+00 1.7314444688e+00 2.9989497905e+00 
54000 5.8090624933e+00 -2.3049551435e-05 1.7314444688e+00 -2.9989497905e+00 1.7314444688e+00 2.9989497905e+00 
54100 5.8090625663e+00 -2.2207860553e-05 1.7314444688e+00 -2.9989497905e+00 1.7314444688e+00 2.9989497905e+00 
54200 5.8090626383e+00 -2.1394993713e-05 1.7314444688e+00 -2.9989497905e+00 1.7314444688e+00 2.9989497905e+00 
54300 5.8090627094e+00 -2.0611328090e-05 1.7314444688e+00 -2.9989497905e+00 1.7314444688e+00 2.9989497905e+00 
54400 5.8090627796e+00 -1.9857175300e-05 1.7314444688e+00 -2.9989497905e+00 1.7314444688e+00 2.9989497905e+00 
54500 5.8090628489e+00 -1.9132783426e-05 1.7314444688e+00 -2.9989497905e+00 1.7314444688e+00 2.9989497905e+00 
54600 5.8090629173e+00 -1.8438339092e-05 1.7314444688e+00 -2.9989497905e+00 1.7314444688e+00 2.9989497905e+00 
54700 5.8090629849e+00 -1.7773969546e-05 1.7314444688e+00 -2.9989497905e+00 1.7314444688e+00 2.9989497905e+00 
54800 5.8090630516e+00 -1.7139744771e-05 1.7314444688e+00 -2.9989497905e+00 1.7314444688e+00 2.9989497905e+00 
54900 5.8090631174e+00 -1.6535679617e-05 1.7314444688e+00 -2.9989497905e+00 1.7314444688e+00 2.9989497905e+00 
55000 5.8090631824e+00 -1.5961735931e-05 1.7314444688e+00 -2.9989497905e+00 1.7314444688e+00 2.9989497905e+00 
55100 5.8090632465e+00 -1.5417824701e-05 1.7314444688e+00 -2.9989497905e+00 1.7314444688e+00 2.9989497905e+00 
55200 5.8090633099e+00 -1.4903808211e-05 1.7314444688e+00 -2.9989497905e+00 1.7314444688e+00 2.9989497905e+00 
55300 5.8090633724e+00 -1.4419502185e-05 1.7314444688e+00 -2.9989497905e+00 1.7314444688e+00 2.9989497905e+00 
55400 5.8090634342e+00 -1.3964677930e-05 1.7314444688e+00 -2.9989497905e+00 1.7314444688e+00 2.9989497905e+00 
55500 5.8090634952e+00 -1.3539064475e-05 1.7314444688e+00 -2.9989497905e+00 1.7314444688e+00 2.9989497905e+00 
55600 5.8090635554e+00 -1.3142350695e-05 1.7314444688e+00 -2.9989497905e+00 1.7314444688e+00 2.9989497905e+00 
55700 5.8090636148e+00 -1.2774187422e-05 1.7314444688e+00 -2.9989497905e+00 1.7314444688e+00 2.9989497905e+00 
55800 5.8090636735e+00 -1.2434189542e-05 1.7314444688e+00 -2.9989497905e+00 1.7314444688e+00 2.9989497905e+00 
55900 5.8090637315e+00 -1.2121938067e-05 1.7314444688e+00 -2.9989497905e+00 1.7314444688e+00 2.9989497905e+00 
56000 5.8090637887e+00 -1.1836982187e-05 1.7314444688e+00 -2.9989497905e+00 1.7314444688e+00 2.9989497905e+00 
56100 5.8090638452e+00 -1.1578841296e-05 1.7314444688e+00 -2.9989497905e+00 1.7314444688e+00 2.9989497905e+00 
56200 5.8090639010e+00 -1.1347006990e-05 1.7314444688e+00 -2.9989497905e+00 1.7314444688e+00 2.9989497905e+00 
56300 5.8090639561e+00 -1.1140945034e-05 1.7314444688e+00 -2.9989497905e+00 1.7314444688e+00 2.9989497905e+00 
56400 5.8090640105e+00 -1.0960097298e-05 1.7314444688e+00 -2.9989497905e+00 1.7314444688e+00 2.9989497905e+00 
56500 5.8090640642e+00 -1.0803883657e-05 1.7314444688e+00 -2.9989497905e+00 1.7314444688e+00 2.9989497905e+00 
56600 5.8090641173e+00 -1.0671703854e-05 1.7314444688e+00 -2.9989497905e+00 1.7314444688e+00 2.9989497905e+00 
56700 5.8090641697e+00 -1.0562939330e-05 1.7314444688e+00 -2.9989497905e+00 1.7314444688e+00 2.9989497905e+00 
56800 5.8090642214e+00 -1.0476955005e-05 1.7314444688e+00 -2.9989497905e+00 1.7314444688e+00 2.9989497905e+00 
56900 5.8090642725e+00 -1.0413101020e-05 1.7314444688e+00 -2.9989497905e+00 1.7314444688e+00 2.9989497905e+00 
57000 5.8090643230e+00 -1.0370714450e-05 1.7314444688e+00 -2.9989497905e+00 1.7314444688e+00 2.9989497905e+00 
57100 5.8090643728e+00 -1.0349120949e-05 1.7314444688e+00 -2.9989497905e+00 1.7314444688e+00 2.9989497905e+00 
57200 5.8090644220e+00 -1.0347636369e-05 1.7314444688e+00 -2.9989497905e+00 1.7314444688e+00 2.9989497905e+00 
57300 5.8090644706e+00 -1.0365568325e-05 1.7314444688e+00 -2.9989497905e+00 1.7314444688e+00 2.9989497905e+00 
57400 5.8090645186e+00 -1.0402217711e-05 1.7314444688e+00 -2.9989497905e+00 1.7314444688e+00 2.9989497905e+00 
57500 5.8090645660e+00 -1.0456880175e-05 1.7314444688e+00 -2.9989497905e+00 1.7314444688e+00 2.9989497905e+00 
57600 5.8090646129e+00 -1.0528847542e-05 1.7314444688e+00 -2.9989497905e+00 1.7314444688e+00 2.9989497905e+00 
57700 5.8090646591e+00 -1.0617409182e-05 1.7314444688e+00 -2.9989497905e+00 1.7314444688e+00 2.9989497905e+00 
57800 5.8090647047e+00 -1.0721853339e-05 1.7314444688e+00 -2.9989497905e+00 1.7314444688e+00 2.9989497905e+00 
57900 5.8090647498e+00 -1.0841468401e-05 1.7314444688e+00 -2.9989497905e+00 1.7314444688e+00 2.9989497905e+00 
58000 5.8090647944e+00 -1.0975544129e-05 1.7314444688e+00 -2.9989497905e+00 1.7314444688e+00 2.9989497905e+00 
58100 5.8090648383e+00 -1.1123372825e-05 1.7314444688e+00 -2.9989497905e+00 1.7314444688e+00 2.9989497905e+00 
58200 5.8090648818e+00 -1.1284250459e-05 1.7314444688e+00 -2.9989497905e+00 1.7314444688e+00 2.9989497905e+00 
58300 5.8090649247e+00 -1.1457477740e-05 1.7314444688e+00 -2.9989497905e+00 1.7314444688e+00 2.9989497905e+00 
58400 5.8090649670e+00 -1.1642361139e-05 1.7314444688e+00 -2.9989497905e+00 1.7314444688e+00 2.9989497905e+00 
58500 5.8090650089e+00 -1.1838213861e-05 1.7314444688e+00 -2.9989497905e+00 1.7314444688e+00 2.9989497905e+00 
58600 5.8090650502e+00 -1.2044356769e-05 1.7314444688e+00 -2.9989497905e+00 1.7314444688e+00 2.9989497905e+00 
58700 5.8090650910e+00 -1.2260119259e-05 1.7314444688e+00 -2.9989497905e+00 1.7314444688e+00 2.9989497905e+00 
58800 5.8090651313e+00 -1.2484840078e-05 1.7314444688e+00 -2.9989497905e+00 1.7314444688e+00 2.9989497905e+00 
58900 5.8090651711e+00 -1.2717868109e-05 1.7314444688e+00 -2.9989497905e+00 1.7314444688e+00 2.9989497905e+00 
59000 5.8090652104e+00 -1.2958563090e-05 1.7314444688e+00 -2.9989497905e+00 1.7314444688e+00 2.9989497905e+00 
59100 5.8090652492e+00 -1.3206296306e-05 1.7314444688e+00 -2.9989497905e+00 1.7314444688e+00 2.9989497905e+00 
59200 5.8090652876e+00 -1.3460451212e-05 1.7314444688e+00 -2.9989497905e+00 1.7314444688e+00 2.9989497905e+00 
59300 5.8090653254e+00 -1.3720424027e-05 1.7314444688e+00 -2.9989497905e+00 1.7314444688e+00 2.9989497905e+00 
59400 5.8090653628e+00 -1.3985624277e-05 1.7314444688e+00 -2.9989497905e+00 1.7314444688e+00 2.9989497905e+00 
59500 5.8090653998e+00 -1.4255475293e-05 1.7314444688e+00 -2.9989497905e+00 1.7314444688e+00 2.9989497905e+00 
59600 5.8090654362e+00 -1.4529414665e-05 1.7314444688e+00 -2.9989497905e+00 1.7314444688e+00 2.9989497905e+00 
59700 5.8090654723e+00 -1.4806894662e-05 1.7314444688e+00 -2.9989497905e+00 1.7314444688e+00 2.9989497905e+00 
59800 5.8090655078e+00 -1.5087382590e-05 1.7314444688e+00 -2.9989497905e+00 1.7314444688e+00 2.9989497905e+00 
59900 5.8090655430e+00 -1.5370361138e-05 1.7314444688e+00 -2.9989497905e+00 1.7314444688e+00 2.9989497905e+00 
60000 5.8090655777e+00 -1.5655328659e-05 1.7314444688e+00 -2.9989497905e+00 1.7314444688e+00 2.9989497905e+00 
60100 5.8090656120e+00 -1.5941799425e-05 1.7314444688e+00 -2.9989497905e+00 1.7314444688e+00 2.9989497905e+00 
60200 5.8090656458e+00 -1.6229303847e-05 1.7314444688e+00 -2.9989497905e+00 1.7314444688e+00 2.9989497905e+00 
60300 5.8090656793e+00 -1.6517388647e-05 1.7314444688e+00 -2.9989497905e+00 1.7314444688e+00 2.9989497905e+00 
60400 5.8090657123e+00 -1.6805617005e-05 1.7314444688e+00 -2.9989497905e+00 1.7314444688e+00 2.9989497905e+00 
60500 5.8090657449e+00 -1.7093568668e-05 1.7314444688e+00 -2.9989497905e+00 1.7314444688e+00 2.9989497905e+00 
60600 5.8090657771e+00 -1.7380840030e-05 1.7314444688e+00 -2.9989497905e+00 1.7314444688e+00 2.9989497905e+00 
60700 5.8090658089e+00 -1.7667044169e-05 1.7314444688e+00 -2.9989497905e+00 1.7314444688e+00 2.9989497905e+00 
60800 5.8090658404e+00 -1.7951810871e-05 1.7314444688e+00 -2.9989497905e+00 1.7314444688e+00 2.9989497905e+00 
60900 5.8090658714e+00 -1.8234786605e-05 1.7314444688e+00 -2.9989497905e+00 1.7314444688e+00 2.9989497905e+00 
61000 5.8090659021e+00 -1.8515634487e-05 1.7314444688e+00 -2.9989497905e+00 1.7314444688e+00 2.9989497905e+00 
61100 5.8090659323e+00 -1.8794034203e-05 1.7314444688e+00 -2.9989497905e+00 1.7314444688e+00 2.9989497905e+00 
61200 5.8090659623e+00 -1.9069681920e-05 1.7314444688e+00 -2.9989497905e+00 1.7314444688e+00 2.9989497905e+00 
61300 5.8090659918e+00 -1.9342290155e-05 1.7314444688e+00 -2.9989497905e+00 1.7314444688e+00 2.9989497905e+00 
61400 5.8090660210e+00 -1.9611587637e-05 1.7314444688e+00 -2.9989497905e+00 1.7314444688e+00 2.9989497905e+00 
61500 5.8090660498e+00 -1.9877319139e-05 1.7314444688e+00 -2.9989497905e+00 1.7314444688e+00 2.9989497905e+00 
61600 5.8090660782e+00 -2.0139245288e-05 1.7314444688e+00 -2.9989497905e+00 1.7314444688e+00 2.9989497905e+00 
61700 5.8090661064e+00 -2.0397142352e-05 1.7314444688e+00 -2.9989497905e+00 1.7314444688e+00 2.9989497905e+00 
61800 5.8090661341e+00 -2.0650802023e-05 1.7314444688e+00 -2.9989497905e+00 1.7314444688e+00 2.9989497905e+00 
61900 5.8090661615e+00 -2.0900031160e-05 1.7314444688e+00 -2.9989497905e+00 1.7314444688e+00 2.9989497905e+00 
62000 5.8090661886e+00 -2.1144651536e-05 1.7314444688e+00 -2.9989497905e+00 1.7314444688e+00 2.9989497905e+00 
62100 5.8090662154e+00 -2.1384499555e-05 1.7314444688e+00 -2.9989497905e+00 1.7314444688e+00 2.9989497905e+00 
62200 5.8090662418e+00 -2.1619425960e-05 1.7314444688e+00 -2.9989497905e+00 1.7314444688e+00 2.9989497905e+00 
62300 5.8090662679e+00 -2.1849295533e-05 1.7314444688e+00 -2.9989497905e+00 1.7314444688e+00 2.9989497905e+00 
62400 5.8090662937e+00 -2.2073986770e-05 1.7314444688e+00 -2.9989497905e+00 1.7314444688e+00 2.9989497905e+00 
62500 5.8090663192e+00 -2.2293391554e-05 1.7314444688e+00 -2.9989497905e+00 1.7314444688e+00 2.9989497905e+00 
62600 5.8090663443e+00 -2.2507414822e-05 1.7314444688e+00 -2.9989497905e+00 1.7314444688e+00 2.9989497905e+00 
62700 5.8090663692e+00 -2.2715974207e-05 1.7314444688e+00 -2.9989497905e+00 1.7314444688e+00 2.9989497905e+00 
62800 5.8090663937e+00 -2.2918999682e-05 1.7314444688e+00 -2.9989497905e+00 1.7314444688e+00 2.9989497905e+00 
62900 5.8090664180e+00 -2.3116433206e-05 1.7314444688e+00 -2.9989497905e+00 1.7314444688e+00 2.9989497905e+00 
63000 5.8090664419e+00 -2.3308228337e-05 1.7314444688e+00 -2.9989497905e+00 1.7314444688e+00 2.9989497905e+00 
63100 5.8090664656e+00 -2.3494349871e-05 1.7314444688e+00 -2.9989497905e+00 1.7314444688e+00 2.9989497905e+00 
63200 5.8090664890e+00 -2.3674773450e-05 1.7314444688e+00 -2.9989497905e+00 1.7314444688e+00 2.9989497905e+00 
63300 5.8090665120e+00 -2.3849485182e-05 1.7314444688e+00 -2.9989497905e+00 1.7314444688e+00 2.9989497905e+00 
63400 5.8090665348e+00 -2.4018481251e-05 1.7314444688e+00 -2.9989497905e+00 1.7314444688e+00 2.9989497905e+00 
63500 5.8090665574e+00 -2.4181767526e-05 1.7314444688e+00 -2.9989497905e+00 1.7314444688e+00 2.9989497905e+00 
63600 5.8090665796e+00 -2.4339359173e-05 1.7314444688e+00 -2.9989497905e+00 1.7314444688e+00 2.9989497905e+00 
63700 5.8090666016e+00 -2.4491280258e-05 1.7314444688e+00 -2.9989497905e+00 1.7314444688e+00 2.9989497905e+00 
63800 5.8090666233e+00 -2.4637563356e-05 1.7314444688e+00 -2.9989497905e+00 1.7314444688e+00 2.9989497905e+00 
63900 5.8090666448e+00 -2.4778249162e-05 1.7314444688e+00 -2.9989497905e+00 1.7314444688e+00 2.9989497905e+00 
64000 5.8090666660e+00 -2.4913386094e-05 1.7314444688e+00 -2.9989497905e+00 1.7314444688e+00 2.9989497905e+00 
64100 5.8090666869e+00 -2.5043029913e-05 1.7314444688e+00 -2.9989497905e+00 1.7314444688e+00 2.9989497905e+00 
64200 5.8090667076e+00 -2.5167243324e-05 1.7314444688e+00 -2.9989497905e+00 1.7314444688e+00 2.9989497905e+00 
64300 5.8090667280e+00 -2.5286095610e-05 1.7314444688e+00 -2.9989497905e+00 1.7314444688e+00 2.9989497905e+00 
64400 5.8090667482e+00 -2.5399662237e-05 1.7314444688e+00 -2.9989497905e+00 1.7314444688e+00 2.9989497905e+00 
64500 5.8090667681e+00 -2.5508024488e-05 1.7314444688e+00 -2.9989497905e+00 1.7314444688e+00 2.9989497905e+00 
64600 5.8090667878e+00 -2.5611269089e-05 1.7314444688e+00 -2.9989497905e+00 1.7314444688e+00 2.9989497905e+00 
64700 5.8090668073e+00 -2.5709487843e-05 1.7314444688e+00 -2.9989497905e+00 1.7314444688e+00 2.9989497905e+00 
64800 5.8090668265e+00 -2.5802777273e-05 1.7314444688e+00 -2.9989497905e+00 1.7314444688e+00 2.9989497905e+00 
64900 5.8090668455e+00 -2.5891238266e-05 1.7314444688e+00 -2.9989497905e+00 1.7314444688e+00 2.9989497905e+00 
65000 5.8090668642e+00 -2.5974975725e-05 1.7314444688e+00 -2.9989497905e+00 1.7314444688e+00 2.9989497905e+00 
65100 5.8090668827e+00 -2.6054098229e-05 1.7314444688e+00 -2.9989497905e+00 1.7314444688e+00 2.9989497905e+00 
65200 5.8090669011e+00 -2.6128717699e-05 1.7314444688e+00 -2.9989497905e+00 1.7314444688e+00 2.9989497905e+00 
65300 5.8090669191e+00 -2.6198949071e-05 1.7314444688e+00 -2.9989497905e+00 1.7314444688e+00 2.9989497905e+00 
65400 5.8090669370e+00 -2.6264909979e-05 1.7314444688e+00 -2.9989497905e+00 1.7314444688e+00 2.9989497905e+00 
65500 5.8090669547e+00 -2.6326720438e-05 1.7314444688e+00 -2.9989497905e+00 1.7314444688e+00 2.9989497905e+00 
65600 5.8090669721e+00 -2.6384502548e-05 1.7314444688e+00 -2.9989497905e+00 1.7314444688e+00 2.9989497905e+00 
65700 5.8090669893e+00 -2.6438380200e-05 1.7314444688e+00 -2.9989497905e+00 1.7314444688e+00 2.9989497905e+00 
65800 5.8090670063e+00 -2.6488478779e-05 1.7314444688e+00 -2.9989497905e+00 1.7314444688e+00 2.9989497905e+00 
65900 5.8090670232e+00 -2.6534924899e-05 1.7314444688e+00 -2.9989497905e+00 1.7314444688e+00 2.9989497905e+00 
66000 5.8090670398e+00 -2.6577846128e-05 1.7314444688e+00 -2.9989497905e+00 1.7314444688e+00 2.9989497905e+00 
66100 5.8090670562e+00 -2.6617370729e-05 1.7314444688e+00 -2.9989497905e+00 1.7314444688e+00 2.9989497905e+00 
66200 5.8090670724e+00 -2.6653627408e-05 1.7314444688e+00 -2.9989497905e+00 1.7314444688e+00 2.9989497905e+00 
66300 5.8090670884e+00 -2.6686745078e-05 1.7314444688e+00 -2.9989497905e+00 1.7314444688e+00 2.9989497905e+00 
66400 5.8090671042e+00 -2.6716852617e-05 1.7314444688e+00 -2.9989497905e+00 1.7314444688e+00 2.9989497905e+00 
66500 5.8090671199e+00 -2.6744078654e-05 1.7314444688e+00 -2.9989497905e+00 1.7314444688e+00 2.9989497905e+00 
66600 5.8090671353e+00 -2.6768551350e-05 1.7314444688e+00 -2.9989497905e+00 1.7314444688e+00 2.9989497905e+00 
66700 5.8090671506e+00 -2.6790398193e-05 1.7314444688e+00 -2.9989497905e+00 1.7314444688e+00 2.9989497905e+00 
66800 5.8090671657e+00 -2.6809745806e-05 1.7314444688e+00 -2.9989497905e+00 1.7314444688e+00 2.9989497905e+00 
66900 5.8090671805e+00 -2.6826719756e-05 1.7314444688e+00 -2.9989497905e+00 1.7314444688e+00 2.9989497905e+00 
67000 5.8090671953e+00 -2.6841444380e-05 1.7314444688e+00 -2.9989497905e+00 1.7314444688e+00 2.9989497905e+00 
67100 5.8090672098e+00 -2.6854042618e-05 1.7314444688e+00 -2.9989497905e+00 1.7314444688e+00 2.9989497905e+00 
67200 5.8090672242e+00 -2.6864635850e-05 1.7314444688e+00 -2.9989497905e+00 1.7314444688e+00 2.9989497905e+00 
67300 5.8090672384e+00 -2.6873343749e-05 1.7314444688e+00 -2.9989497905e+00 1.7314444688e+00 2.9989497905e+00 
67400 5.8090672524e+00 -2.6880284140e-05 1.7314444688e+00 -2.9989497905e+00 1.7314444688e+00 2.9989497905e+00 
67500 5.8090672662e+00 -2.6885572868e-05 1.7314444688e+00 -2.9989497905e+00 1.7314444688e+00 2.9989497905e+00 
67600 5.8090672799e+00 -2.6889323672e-05 1.7314444688e+00 -2.9989497905e+00 1.7314444688e+00 2.9989497905e+00 
67700 5.8090672935e+00 -2.6891648072e-05 1.7314444688e+00 -2.9989497905e+00 1.7314444688e+00 2.9989497905e+00 
67800 5.8090673068e+00 -2.6892655265e-05 1.7314444688e+00 -2.9989497905e+00 1.7314444688e+00 2.9989497905e+00 
67900 5.8090673200e+00 -2.6892452017e-05 1.7314444688e+00 -2.9989497905e+00 1.7314444688e+00 2.9989497905e+00 
68000 5.8090673331e+00 -2.6891142586e-05 1.7314444688e+00 -2.9989497905e+00 1.7314444688e+00 2.9989497905e+00 
68100 5.8090673460e+00 -2.6888828630e-05 1.7314444688e+00 -2.9989497905e+00 1.7314444688e+00 2.9989497905e+00 
68200 5.8090673587e+00 -2.6885609139e-05 1.7314444688e+00 -2.9989497905e+00 1.7314444688e+00 2.9989497905e+00 
68300 5.8090673713e+00 -2.6881580362e-05 1.7314444688e+00 -2.9989497905e+00 1.7314444688e+00 2.9989497905e+00 
68400 5.8090673837e+00 -2.6876835750e-05 1.7314444688e+00 -2.9989497905e+00 1.7314444688e+00 2.9989497905e+00 
68500 5.8090673960e+00 -2.6871465910e-05 1.7314444688e+00 -2.9989497905e+00 1.7314444688e+00 2.9989497905e+00 
68600 5.8090674081e+00 -2.6865558550e-05 1.7314444688e+00 -2.9989497905e+00 1.7314444688e+00 2.9989497905e+00 
68700 5.8090674201e+00 -2.6859198443e-05 1.7314444688e+00 -2.9989497905e+00 1.7314444688e+00 2.9989497905e+00 
68800 5.8090674320e+00 -2.6852467405e-05 1.7314444688e+00 -2.9989497905e+00 1.7314444688e+00 2.9989497905e+00 
68900 5.8090674437e+00 -2.6845444256e-05 1.7314444688e+00 -2.9989497905e+00 1.7314444688e+00 2.9989497905e+00 
69000 5.8090674552e+00 -2.6838204811e-05 1.7314444688e+00 -2.9989497905e+00 1.7314444688e+00 2.9989497905e+00 
69100 5.8090674667e+00 -2.6830821864e-05 1.7314444688e+00 -2.9989497905e+00 1.7314444688e+00 2.9989497905e+00 
69200 5.8090674780e+00 -2.6823365178e-05 1.7314444688e+00 -2.9989497905e+00 1.7314444688e+00 2.9989497905e+00 
69300 5.8090674891e+00 -2.6815901487e-05 1.7314444688e+00 -2.9989497905e+00 1.7314444688e+00 2.9989497905e+00 
69400 5.8090675001e+00 -2.6808494503e-05 1.7314444688e+00 -2.9989497905e+00 1.7314444688e+00 2.9989497905e+00 
69500 5.8090675110e+00 -2.6801204916e-05 1.7314444688e+00 -2.9989497905e+00 1.7314444688e+00 2.9989497905e+00 
69600 5.8090675218e+00 -2.6794090414e-05 1.7314444688e+00 -2.9989497905e+00 1.7314444688e+00 2.9989497905e+00 
69700 5.8090675324e+00 -2.6787205704e-05 1.7314444688e+00 -2.9989497905e+00 1.7314444688e+00 2.9989497905e+00 
69800 5.8090675429e+00 -2.6780602529e-05 1.7314444688e+00 -2.9989497905e+00 1.7314444688e+00 2.9989497905e+00 
69900 5.8090675533e+00 -2.6774329702e-05 1.7314444688e+00 -2.9989497905e+00 1.7314444688e+00 2.9989497905e+00 
70000 5.8090675636e+00 -2.6768433129e-05 1.7314444688e+00 -2.9989497905e+00 1.7314444688e+00 2.9989497905e+00 
70100 5.8090675737e+00 -2.6762955853e-05 1.7314444688e+00 -2.9989497905e+00 1.7314444688e+00 2.9989497905e+00 
70200 5.8090675837e+00 -2.6757938090e-05 1.7314444688e+00 -2.9989497905e+00 1.7314444688e+00 2.9989497905e+00 
70300 5.8090675936e+00 -2.6753417269e-05 1.7314444688e+00 -2.9989497905e+00 1.7314444688e+00 2.9989497905e+00 
70400 5.8090676034e+00 -2.6749428082e-05 1.7314444688e+00 -2.9989497905e+00 1.7314444688e+00 2.9989497905e+00 
70500 5.8090676131e+00 -2.6746002531e-05 1.7314444688e+00 -2.9989497905e+00 1.7314444688e+00 2.9989497905e+00 
70600 5.8090676226e+00 -2.6743169973e-05 1.7314444688e+00 -2.9989497905e+00 1.7314444688e+00 2.9989497905e+00 
70700 5.8090676321e+00 -2.6740957189e-05 1.7314444688e+00 -2.9989497905e+00 1.7314444688e+00 2.9989497905e+00 
70800 5.8090676414e+00 -2.6739388428e-05 1.7314444688e+00 -2.9989497905e+00 1.7314444688e+00 2.9989497905e+00 
70900 5.8090676506e+00 -2.6738485469e-05 1.7314444688e+00 -2.9989497905e+00 1.7314444688e+00 2.9989497905e+00 
71000 5.8090676597e+00 -2.6738267682e-05 1.7314444688e+00 -2.9989497905e+00 1.7314444688e+00 2.9989497905e+00 
71100 5.8090676687e+00 -2.6738752093e-05 1.7314444688e+00 -2.9989497905e+00 1.7314444688e+00 2.9989497905e+00 
71200 5.8090676776e+00 -2.6739953446e-05 1.7314444688e+00 -2.9989497905e+00 1.7314444688e+00 2.9989497905e+00 
71300 5.8090676864e+00 -2.6741884267e-05 1.7314444688e+00 -2.9989497905e+00 1.7314444688e+00 2.9989497905e+00 
71400 5.8090676950e+00 -2.6744554936e-05 1.7314444688e+00 -2.9989497905e+00 1.7314444688e+00 2.9989497905e+00 
71500 5.8090677036e+00 -2.6747973754e-05 1.7314444688e+00 -2.9989497905e+00 1.7314444688e+00 2.9989497905e+00 
71600 5.8090677121e+00 -2.6752147004e-05 1.7314444688e+00 -2.9989497905e+00 1.7314444688e+00 2.9989497905e+00 
71700 5.8090677205e+00 -2.6757079036e-05 1.7314444688e+00 -2.9989497905e+00 1.7314444688e+00 2.9989497905e+00 
71800 5.8090677288e+00 -2.6762772326e-05 1.7314444688e+00 -2.9989497905e+00 1.7314444688e+00 2.9989497905e+00 
71900 5.8090677369e+00 -2.6769227549e-05 1.7314444688e+00 -2.9989497905e+00 1.7314444688e+00 2.9989497905e+00 
72000 5.8090677450e+00 -2.6776443655e-05 1.7314444688e+00 -2.9989497905e+00 1.7314444688e+00 2.9989497905e+00 
72100 5.8090677530e+00 -2.6784417939e-05 1.7314444688e+00 -2.9989497905e+00 1.7314444688e+00 2.9989497905e+00 
72200 5.8090677609e+00 -2.6793146107e-05 1.7314444688e+00 -2.9989497905e+00 1.7314444688e+00 2.9989497905e+00 
72300 5.8090677687e+00 -2.6802622359e-05 1.7314444688e+00 -2.9989497905e+00 1.7314444688e+00 2.9989497905e+00 
72400 5.8090677764e+00 -2.6812839452e-05 1.7314444688e+00 -2.9989497905e+00 1.7314444688e+00 2.9989497905e+00 
72500 5.8090677840e+00 -2.6823788773e-05 1.7314444688e+00 -2.9989497905e+00 1.7314444688e+00 2.9989497905e+00 
72600 5.8090677915e+00 -2.6835460413e-05 1.7314444688e+00 -2.9989497905e+00 1.7314444688e+00 2.9989497905e+00 
72700 5.8090677990e+00 -2.6847843237e-05 1.7314444688e+00 -2.9989497905e+00 1.7314444688e+00 2.9989497905e+00 
72800 5.8090678063e+00 -2.6860924948e-05 1.7314444688e+00 -2.9989497905e+00 1.7314444688e+00 2.9989497905e+00 
72900 5.8090678136e+00 -2.6874692164e-05 1.7314444688e+00 -2.9989497905e+00 1.7314444688e+00 2.9989497905e+00 
73000 5.8090678207e+00 -2.6889130484e-05 1.7314444688e+00 -2.9989497905e+00 1.7314444688e+00 2.9989497905e+00 
73100 5.8090678278e+00 -2.6904224554e-05 1.7314444688e+00 -2.9989497905e+00 1.7314444688e+00 2.9989497905e+00 
73200 5.8090678348e+00 -2.6919958132e-05 1.7314444688e+00 -2.9989497905e+00 1.7314444688e+00 2.9989497905e+00 
73300 5.8090678418e+00 -2.6936314158e-05 1.7314444688e+00 -2.9989497905e+00 1.7314444688e+00 2.9989497905e+00 
73400 5.8090678486e+00 -2.6953274816e-05 1.7314444688e+00 -2.9989497905e+00 1.7314444688e+00 2.9989497905e+00 
73500 5.8090678554e+00 -2.6970821599e-05 1.7314444688e+00 -2.9989497905e+00 1.7314444688e+00 2.9989497905e+00 
73600 5.8090678621e+00 -2.6988935365e-05 1.7314444688e+00 -2.9989497905e+00 1.7314444688e+00 2.9989497905e+00 
73700 5.8090678687e+00 -2.7007596405e-05 1.7314444688e+00 -2.9989497905e+00 1.7314444688e+00 2.9989497905e+00 
73800 5.8090678752e+00 -2.7026784499e-05 1.7314444688e+00 -2.9989497905e+00 1.7314444688e+00 2.9989497905e+00 
73900 5.8090678816e+00 -2.7046478973e-05 1.7314444688e+00 -2.9989497905e+00 1.7314444688e+00 2.9989497905e+00 
74000 5.8090678880e+00 -2.7066658757e-05 1.7314444688e+00 -2.9989497905e+00 1.7314444688e+00 2.9989497905e+00 
74100 5.8090678943e+00 -2.7087302438e-05 1.7314444688e+00 -2.9989497905e+00 1.7314444688e+00 2.9989497905e+00 
74200 5.8090679005e+00 -2.7108388316e-05 1.7314444688e+00 -2.9989497905e+00 1.7314444688e+00 2.9989497905e+00 
74300 5.8090679067e+00 -2.7129894455e-05 1.7314444688e+00 -2.9989497905e+00 1.7314444688e+00 2.9989497905e+00 
74400 5.8090679128e+00 -2.7151798727e-05 1.7314444688e+00 -2.9989497905e+00 1.7314444688e+00 2.9989497905e+00 
74500 5.8090679188e+00 -2.7174078872e-05 1.7314444688e+00 -2.9989497905e+00 1.7314444688e+00 2.9989497905e+00 
74600 5.8090679247e+00 -2.7196712534e-05 1.7314444688e+00 -2.9989497905e+00 1.7314444688e+00 2.9989497905e+00 
74700 5.8090679306e+00 -2.7219677316e-05 1.7314444688e+00 -2.9989497905e+00 1.7314444688e+00 2.9989497905e+00 
74800 5.8090679364e+00 -2.7242950810e-05 1.7314444688e+00 -2.9989497905e+00 1.7314444688e+00 2.9989497905e+00 
74900 5.8090679421e+00 -2.7266510654e-05 1.7314444688e+00 -2.9989497905e+00 1.7314444688e+00 2.9989497905e+00 
75000 5.8090679478e+00 -2.7290334560e-05 1.7314444688e+00 -2.9989497905e+00 1.7314444688e+00 2.9989497905e+00 
75100 5.8090679534e+00 -2.7314400360e-05 1.7314444688e+00 -2.9989497905e+00 1.7314444688e+00 2.9989497905e+00 
75200 5.8090679589e+00 -2.7338686041e-05 1.7314444688e+00 -2.9989497905e+00 1.7314444688e+00 2.9989497905e+00 
75300 5.8090679644e+00 -2.7363169776e-05 1.7314444688e+00 -2.9989497905e+00 1.7314444688e+00 2.9989497905e+00 
75400 5.8090679698e+00 -2.7387829960e-05 1.7314444688e+00 -2.9989497905e+00 1.7314444688e+00 2.9989497905e+00 
75500 5.8090679751e+00 -2.7412645244e-05 1.7314444688e+00 -2.9989497905e+00 1.7314444688e+00 2.9989497905e+00 
75600 5.8090679804e+00 -2.7437594561e-05 1.7314444688e+00 -2.9989497905e+00 1.7314444688e+00 2.9989497905e+00 
75700 5.8090679856e+00 -2.7462657155e-05 1.7314444688e+00 -2.9989497905e+00 1.7314444688e+00 2.9989497905e+00 
75800 5.8090679908e+00 -2.7487812610e-05 1.7314444688e+00 -2.9989497905e+00 1.7314444688e+00 2.9989497905e+00 
75900 5.8090679959e+00 -2.7513040871e-05 1.7314444688e+00 -2.9989497905e+00 1.7314444688e+00 2.9989497905e+00 
76000 5.8090680009e+00 -2.7538322271e-05 1.7314444688e+00 -2.9989497905e+00 1.7314444688e+00 2.9989497905e+00 
76100 5.8090680059e+00 -2.7563637549e-05 1.7314444688e+00 -2.9989497905e+00 1.7314444688e+00 2.9989497905e+00 
76200 5.8090680108e+00 -2.7588967876e-05 1.7314444688e+00 -2.9989497905e+00 1.7314444688e+00 2.9989497905e+00 
76300 5.8090680156e+00 -2.7614294864e-05 1.7314444688e+00 -2.9989497905e+00 1.7314444688e+00 2.9989497905e+00 
76400 5.8090680204e+00 -2.7639600592e-05 1.7314444688e+00 -2.9989497905e+00 1.7314444688e+00 2.9989497905e+00 
76500 5.8090680252e+00 -2.7664867621e-05 1.7314444688e+00 -2.9989497905e+00 1.7314444688e+00 2.9989497905e+00 
76600 5.8090680299e+00 -2.7690079002e-05 1.7314444688e+00 -2.9989497905e+00 1.7314444688e+00 2.9989497905e+00 
76700 5.8090680345e+00 -2.7715218292e-05 1.7314444688e+00 -2.9989497905e+00 1.7314444688e+00 2.9989497905e+00 
76800 5.8090680391e+00 -2.7740269567e-05 1.7314444688e+00 -2.9989497905e+00 1.7314444688e+00 2.9989497905e+00 
76900 5.8090680436e+00 -2.7765217432e-05 1.7314444688e+00 -2.9989497905e+00 1.7314444688e+00 2.9989497905e+00 
77000 5.8090680481e+00 -2.7790047025e-05 1.7314444688e+00 -2.9989497905e+00 1.7314444688e+00 2.9989497905e+00 
77100 5.8090680525e+00 -2.7814744027e-05 1.7314444688e+00 -2.9989497905e+00 1.7314444688e+00 2.9989497905e+00 
77200 5.8090680569e+00 -2.7839294673e-05 1.7314444688e+00 -2.9989497905e+00 1.7314444688e+00 2.9989497905e+00 
77300 5.8090680612e+00 -2.7863685748e-05 1.7314444688e+00 -2.9989497905e+00 1.7314444688e+00 2.9989497905e+00 
77400 5.8090680655e+00 -2.7887904597e-05 1.7314444688e+00 -2.9989497905e+00 1.7314444688e+00 2.9989497905e+00 
77500 5.8090680697e+00 -2.7911939127e-05 1.7314444688e+00 -2.9989497905e+00 1.7314444688e+00 2.9989497905e+00 
77600 5.8090680739e+00 -2.7935777805e-05 1.7314444688e+00 -2.9989497905e+00 1.7314444688e+00 2.9989497905e+00 
77700 5.8090680780e+00 -2.7959409662e-05 1.7314444688e+00 -2.9989497905e+00 1.7314444688e+00 2.9989497905e+00 
77800 5.8090680821e+00 -2.7982824290e-05 1.7314444688e+00 -2.9989497905e+00 1.7314444688e+00 2.9989497905e+00 
77900 5.8090680861e+00 -2.8006011844e-05 1.7314444688e+00 -2.9989497905e+00 1.7314444688e+00 2.9989497905e+00 
78000 5.8090680901e+00 -2.8028963035e-05 1.7314444688e+00 -2.9989497905e+00 1.7314444688e+00 2.9989497905e+00 
78100 5.8090680940e+00 -2.8051669128e-05 1.7314444688e+00 -2.9989497905e+00 1.7314444688e+00 2.9989497905e+00 
78200 5.8090680979e+00 -2.8074121941e-05 1.7314444688e+00 -2.9989497905e+00 1.7314444688e+00 2.9989497905e+00 
78300 5.8090681018e+00 -2.8096313837e-05 1.7314444688e+00 -2.9989497905e+00 1.7314444688e+00 2.9989497905e+00 
78400 5.8090681056e+00 -2.8118237715e-05 1.7314444688e+00 -2.9989497905e+00 1.7314444688e+00 2.9989497905e+00 
78500 5.8090681093e+00 -2.8139887013e-05 1.7314444688e+00 -2.9989497905e+00 1.7314444688e+00 2.9989497905e+00 
78600 5.8090681130e+00 -2.8161255692e-05 1.7314444688e+00 -2.9989497905e+00 1.7314444688e+00 2.9989497905e+00 
78700 5.8090681167e+00 -2.8182338230e-05 1.7314444688e+00 -2.9989497905e+00 1.7314444688e+00 2.9989497905e+00 
78800 5.8090681203e+00 -2.8203129617e-05 1.7314444688e+00 -2.9989497905e+00 1.7314444688e+00 2.9989497905e+00 
78900 5.8090681239e+00 -2.8223625342e-05 1.7314444688e+00 -2.9989497905e+00 1.7314444688e+00 2.9989497905e+00 
79000 5.8090681274e+00 -2.8243821386e-05 1.7314444688e+00 -2.9989497905e+00 1.7314444688e+00 2.9989497905e+00 
79100 5.8090681309e+00 -2.8263714207e-05 1.7314444688e+00 -2.9989497905e+00 1.7314444688e+00 2.9989497905e+00 
79200 5.8090681344e+00 -2.8283300742e-05 1.7314444688e+00 -2.9989497905e+00 1.7314444688e+00 2.9989497905e+00 
79300 5.8090681378e+00 -2.8302578378e-05 1.7314444688e+00 -2.9989497905e+00 1.7314444688e+00 2.9989497905e+00 
79400 5.8090681412e+00 -2.8321544954e-05 1.7314444688e+00 -2.9989497905e+00 1.7314444688e+00 2.9989497905e+00 
79500 5.8090681445e+00 -2.8340198746e-05 1.7314444688e+00 -2.9989497905e+00 1.7314444688e+00 2.9989497905e+00 
79600 5.8090681478e+00 -2.8358538453e-05 1.7314444688e+00 -2.9989497905e+00 1.7314444688e+00 2.9989497905e+00 
79700 5.8090681511e+00 -2.8376563186e-05 1.7314444688e+00 -2.9989497905e+00 1.7314444688e+00 2.9989497905e+00 
79800 5.8090681543e+00 -2.8394272457e-05 1.7314444688e+00 -2.9989497905e+00 1.7314444688e+00 2.9989497905e+00 
79900 5.8090681575e+00 -2.8411666160e-05 1.7314444688e+00 -2.9989497905e+00 1.7314444688e+00 2.9989497905e+00 
80000 5.8090681607e+00 -2.8428744567e-05 1.7314444688e+00 -2.9989497905e+00 1.7314444688e+00 2.9989497905e+00 
80100 5.8090681638e+00 -2.8445508310e-05 1.7314444688e+00 -2.9989497905e+00 1.7314444688e+00 2.9989497905e+00 
80200 5.8090681669e+00 -2.8461958365e-05 1.7314444688e+00 -2.9989497905e+00 1.7314444688e+00 2.9989497905e+00 
80300 5.8090681699e+00 -2.8478096045e-05 1.7314444688e+00 -2.9989497905e+00 1.7314444688e+00 2.9989497905e+00 
80400 5.8090681729e+00 -2.8493922980e-05 1.7314444688e+00 -2.9989497905e+00 1.7314444688e+00 2.9989497905e+00 
80500 5.8090681759e+00 -2.8509441110e-05 1.7314444688e+00 -2.9989497905e+00 1.7314444688e+00 2.9989497905e+00 
80600 5.8090681788e+00 -2.8524652666e-05 1.7314444688e+00 -2.9989497905e+00 1.7314444688e+00 2.9989497905e+00 
80700 5.8090681817e+00 -2.8539560158e-05 1.7314444688e+00 -2.9989497905e+00 1.7314444688e+00 2.9989497905e+00 
80800 5.8090681846e+00 -2.8554166364e-05 1.7314444688e+00 -2.9989497905e+00 1.7314444688e+00 2.9989497905e+00 
80900 5.8090681874e+00 -2.8568474314e-05 1.7314444688e+00 -2.9989497905e+00 1.7314444688e+00 2.9989497905e+00 
81000 5.8090681902e+00 -2.8582487278e-05 1.7314444688e+00 -2.9989497905e+00 1.7314444688e+00 2.9989497905e+00 
81100 5.8090681930e+00 -2.8596208750e-05 1.7314444688e+00 -2.9989497905e+00 1.7314444688e+00 2.9989497905e+00 
81200 5.8090681957e+00 -2.8609642438e-05 1.7314444688e+00 -2.9989497905e+00 1.7314444688e+00 2.9989497905e+00 
81300 5.8090681984e+00 -2.8622792249e-05 1.7314444688e+00 -2.9989497905e+00 1.7314444688e+00 2.9989497905e+00 
81400 5.8090682011e+00 -2.8635662276e-05 1.7314444688e+00 -2.9989497905e+00 1.7314444688e+00 2.9989497905e+00 
81500 5.8090682038e+00 -2.8648256788e-05 1.7314444688e+00 -2.9989497905e+00 1.7314444688e+00 2.9989497905e+00 
81600 5.8090682064e+00 -2.8660580214e-05 1.7314444688e+00 -2.9989497905e+00 1.7314444688e+00 2.9989497905e+00 
81700 5.8090682090e+00 -2.8672637132e-05 1.7314444688e+00 -2.9989497905e+00 1.7314444688e+00 2.9989497905e+00 
81800 5.8090682115e+00 -2.8684432256e-05 1.7314444688e+00 -2.9989497905e+00 1.7314444688e+00 2.9989497905e+00 
81900 5.8090682141e+00 -2.8695970427e-05 1.7314444688e+00 -2.9989497905e+00 1.7314444688e+00 2.9989497905e+00 
82000 5.8090682166e+00 -2.8707256597e-05 1.7314444688e+00 -2.9989497905e+00 1.7314444688e+00 2.9989497905e+00 
82100 5.8090682190e+00 -2.8718295819e-05 1.7314444688e+00 -2.9989497905e+00 1.7314444688e+00 2.9989497905e+00 
82200 5.8090682215e+00 -2.8729093239e-05 1.7314444688e+00 -2.9989497905e+00 1.7314444688e+00 2.9989497905e+00 
82300 5.8090682239e+00 -2.8739654079e-05 1.7314444688e+00 -2.9989497905e+00 1.7314444688e+00 2.9989497905e+00 
82400 5.8090682263e+00 -2.8749983633e-05 1.7314444688e+00 -2.9989497905e+00 1.7314444688e+00 2.9989497905e+00 
82500 5.8090682286e+00 -2.8760087250e-05 1.7314444688e+00 -2.9989497905e+00 1.7314444688e+00 2.9989497905e+00 
82600 5.8090682309e+00 -2.8769970330e-05 1.7314444688e+00 -2.9989497905e+00 1.7314444688e+00 2.9989497905e+00 
82700 5.8090682332e+00 -2.8779638309e-05 1.7314444688e+00 -2.9989497905e+00 1.7314444688e+00 2.9989497905e+00 
82800 5.8090682355e+00 -2.8789096654e-05 1.7314444688e+00 -2.9989497905e+00 1.7314444688e+00 2.9989497905e+00 
82900 5.8090682378e+00 -2.8798350847e-05 1.7314444688e+00 -2.9989497905e+00 1.7314444688e+00 2.9989497905e+00 
83000 5.8090682400e+00 -2.8807406386e-05 1.7314444688e+00 -2.9989497905e+00 1.7314444688e+00 2.9989497905e+00 
83100 5.8090682422e+00 -2.8816268768e-05 1.7314444688e+00 -2.9989497905e+00 1.7314444688e+00 2.9989497905e+00 
83200 5.8090682444e+00 -2.8824943485e-05 1.7314444688e+00 -2.9989497905e+00 1.7314444688e+00 2.9989497905e+00 
83300 5.8090682465e+00 -2.8833436011e-05 1.7314444688e+00 -2.9989497905e+00 1.7314444688e+00 2.9989497905e+00 
83400 5.8090682486e+00 -2.8841751804e-05 1.7314444688e+00 -2.9989497905e+00 1.7314444688e+00 2.9989497905e+00 
83500 5.8090682507e+00 -2.8849896289e-05 1.7314444688e+00 -2.9989497905e+00 1.7314444688e+00 2.9989497905e+00 
83600 5.8090682528e+00 -2.8857874856e-05 1.7314444688e+00 -2.9989497905e+00 1.7314444688e+00 2.9989497905e+00 
83700 5.8090682549e+00 -2.8865692849e-05 1.7314444688e+00 -2.9989497905e+00 1.7314444688e+00 2.9989497905e+00 
83800 5.8090682569e+00 -2.8873355567e-05 1.7314444688e+00 -2.9989497905e+00 1.7314444688e+00 2.9989497905e+00 
83900 5.8090682589e+00 -2.8880868252e-05 1.7314444688e+00 -2.9989497905e+00 1.7314444688e+00 2.9989497905e+00 
84000 5.8090682609e+00 -2.8888236085e-05 1.7314444688e+00 -2.9989497905e+00 1.7314444688e+00 2.9989497905e+00 
84100 5.8090682628e+00 -2.8895464180e-05 1.7314444688e+00 -2.9989497905e+00 1.7314444688e+00 2.9989497905e+00 
84200 5.8090682648e+00 -2.8902557578e-05 1.7314444688e+00 -2.9989497905e+00 1.7314444688e+00 2.9989497905e+00 
84300 5.8090682667e+00 -2.8909521248e-05 1.7314444688e+00 -2.9989497905e+00 1.7314444688e+00 2.9989497905e+00 
84400 5.8090682686e+00 -2.8916360075e-05 1.7314444688e+00 -2.9989497905e+00 1.7314444688e+00 2.9989497905e+00 
84500 5.8090682704e+00 -2.8923078859e-05 1.7314444688e+00 -2.9989497905e+00 1.7314444688e+00 2.9989497905e+00 
84600 5.8090682723e+00 -2.8929682312e-05 1.7314444688e+00 -2.9989497905e+00 1.7314444688e+00 2.9989497905e+00 
84700 5.8090682741e+00 -2.8936175053e-05 1.7314444688e+00 -2.9989497905e+00 1.7314444688e+00 2.9989497905e+00 
84800 5.8090682759e+00 -2.8942561605e-05 1.7314444688e+00 -2.9989497905e+00 1.7314444688e+00 2.9989497905e+00 
84900 5.8090682777e+00 -2.8948846393e-05 1.7314444688e+00 -2.9989497905e+00 1.7314444688e+00 2.9989497905e+00 
85000 5.8090682795e+00 -2.8955033739e-05 1.7314444688e+00 -2.9989497905e+00 1.7314444688e+00 2.9989497905e+00 
85100 5.8090682812e+00 -2.8961127864e-05 1.7314444688e+00 -2.9989497905e+00 1.7314444688e+00 2.9989497905e+00 
85200 5.8090682829e+00 -2.8967132880e-05 1.7314444688e+00 -2.9989497905e+00 1.7314444688e+00 2.9989497905e+00 
85300 5.8090682846e+00 -2.8973052791e-05 1.7314444688e+00 -2.9989497905e+00 1.7314444688e+00 2.9989497905e+00 
85400 5.8090682863e+00 -2.8978891492e-05 1.7314444688e+00 -2.9989497905e+00 1.7314444688e+00 2.9989497905e+00 
85500 5.8090682880e+00 -2.8984652767e-05 1.7314444688e+00 -2.9989497905e+00 1.7314444688e+00 2.9989497905e+00 
85600 5.8090682896e+00 -2.8990340287e-05 1.7314444688e+00 -2.9989497905e+00 1.7314444688e+00 2.9989497905e+00 
85700 5.8090682913e+00 -2.8995957609e-05 1.7314444688e+00 -2.9989497905e+00 1.7314444688e+00 2.9989497905e+00 
85800 5.8090682929e+00 -2.9001508177e-05 1.7314444688e+00 -2.9989497905e+00 1.7314444688e+00 2.9989497905e+00 
85900 5.8090682945e+00 -2.9006995319e-05 1.7314444688e+00 -2.9989497905e+00 1.7314444688e+00 2.9989497905e+00 
86000 5.8090682960e+00 -2.9012422247e-05 1.7314444688e+00 -2.9989497905e+00 1.7314444688e+00 2.9989497905e+00 
86100 5.8090682976e+00 -2.9017792061e-05 1.7314444688e+00 -2.9989497905e+00 1.7314444688e+00 2.9989497905e+00 
86200 5.8090682991e+00 -2.9023107744e-05 1.7314444688e+00 -2.9989497905e+00 1.7314444688e+00 2.9989497905e+00 
86300 5.8090683006e+00 -2.9028372163e-05 1.7314444688e+00 -2.9989497905e+00 1.7314444688e+00 2.9989497905e+00 
86400 5.8090683021e+00 -2.9033588071e-05 1.7314444688e+00 -2.9989497905e+00 1.7314444688e+00 2.9989497905e+00 
86500 5.8090683036e+00 -2.9038758109e-05 1.7314444688e+00 -2.9989497905e+00 1.7314444688e+00 2.9989497905e+00 
86600 5.8090683051e+00 -2.9043884802e-05 1.7314444688e+00 -2.9989497905e+00 1.7314444688e+00 2.9989497905e+00 
86700 5.8090683065e+00 -2.9048970565e-05 1.7314444688e+00 -2.9989497905e+00 1.7314444688e+00 2.9989497905e+00 
86800 5.8090683080e+00 -2.9054017700e-05 1.7314444688e+00 -2.9989497905e+00 1.7314444688e+00 2.9989497905e+00 
86900 5.8090683094e+00 -2.9059028401e-05 1.7314444688e+00 -2.9989497905e+00 1.7314444688e+00 2.9989497905e+00 
87000 5.8090683108e+00 -2.9064004753e-05 1.7314444688e+00 -2.9989497905e+00 1.7314444688e+00 2.9989497905e+00 
87100 5.8090683122e+00 -2.9068948734e-05 1.7314444688e+00 -2.9989497905e+00 1.7314444688e+00 2.9989497905e+00 
87200 5.8090683135e+00 -2.9073862215e-05 1.7314444688e+00 -2.9989497905e+00 1.7314444688e+00 2.9989497905e+00 
87300 5.8090683149e+00 -2.9078746965e-05 1.7314444688e+00 -2.9989497905e+00 1.7314444688e+00 2.9989497905e+00 
87400 5.8090683162e+00 -2.9083604649e-05 1.7314444688e+00 -2.9989497905e+00 1.7314444688e+00 2.9989497905e+00 
87500 5.8090683176e+00 -2.9088436835e-05 1.7314444688e+00 -2.9989497905e+00 1.7314444688e+00 2.9989497905e+00 
87600 5.8090683189e+00 -2.9093244989e-05 1.7314444688e+00 -2.9989497905e+00 1.7314444688e+00 2.9989497905e+00 
87700 5.8090683202e+00 -2.9098030485e-05 1.7314444688e+00 -2.9989497905e+00 1.7314444688e+00 2.9989497905e+00 
87800 5.8090683214e+00 -2.9102794600e-05 1.7314444688e+00 -2.9989497905e+00 1.7314444688e+00 2.9989497905e+00 
87900 5.8090683227e+00 -2.9107538522e-05 1.7314444688e+00 -2.9989497905e+00 1.7314444688e+00 2.9989497905e+00 
88000 5.8090683239e+00 -2.9112263348e-05 1.7314444688e+00 -2.9989497905e+00 1.7314444688e+00 2.9989497905e+00 
88100 5.8090683252e+00 -2.9116970087e-05 1.7314444688e+00 -2.9989497905e+00 1.7314444688e+00 2.9989497905e+00 
88200 5.8090683264e+00 -2.9121659665e-05 1.7314444688e+00 -2.9989497905e+00 1.7314444688e+00 2.9989497905e+00 
88300 5.8090683276e+00 -2.9126332929e-05 1.7314444688e+00 -2.9989497905e+00 1.7314444688e+00 2.9989497905e+00 
88400 5.8090683288e+00 -2.9130990639e-05 1.7314444688e+00 -2.9989497905e+00 1.7314444688e+00 2.9989497905e+00 
88500 5.8090683300e+00 -2.9135633483e-05 1.7314444688e+00 -2.9989497905e+00 1.7314444688e+00 2.9989497905e+00 
88600 5.8090683311e+00 -2.9140262075e-05 1.7314444688e+00 -2.9989497905e+00 1.7314444688e+00 2.9989497905e+00 
88700 5.8090683323e+00 -2.9144876955e-05 1.7314444688e+00 -2.9989497905e+00 1.7314444688e+00 2.9989497905e+00 
88800 5.8090683334e+00 -2.9149478593e-05 1.7314444688e+00 -2.9989497905e+00 1.7314444688e+00 2.9989497905e+00 
88900 5.8090683346e+00 -2.9154067393e-05 1.7314444688e+00 -2.9989497905e+00 1.7314444688e+00 2.9989497905e+00 
89000 5.8090683357e+00 -2.9158643696e-05 1.7314444688e+00 -2.9989497905e+00 1.7314444688e+00 2.9989497905e+00 
89100 5.8090683368e+00 -2.9163207780e-05 1.7314444688e+00 -2.9989497905e+00 1.7314444688e+00 2.9989497905e+00 
89200 5.8090683379e+00 -2.9167759862e-05 1.7314444688e+00 -2.9989497905e+00 1.7314444688e+00 2.9989497905e+00 
89300 5.8090683389e+00 -2.9172300108e-05 1.7314444688e+00 -2.9989497905e+00 1.7314444688e+00 2.9989497905e+00 
89400 5.8090683400e+00 -2.9176828626e-05 1.7314444688e+00 -2.9989497905e+00 1.7314444688e+00 2.9989497905e+00 
89500 5.8090683411e+00 -2.9181345473e-05 1.7314444688e+00 -2.9989497905e+00 1.7314444688e+00 2.9989497905e+00 
89600 5.8090683421e+00 -2.9185850661e-05 1.7314444688e+00 -2.9989497905e+00 1.7314444688e+00 2.9989497905e+00 
89700 5.8090683431e+00 -2.9190344149e-05 1.7314444688e+00 -2.9989497905e+00 1.7314444688e+00 2.9989497905e+00 
89800 5.8090683441e+00 -2.9194825859e-05 1.7314444688e+00 -2.9989497905e+00 1.7314444688e+00 2.9989497905e+00 
89900 5.8090683452e+00 -2.9199295669e-05 1.7314444688e+00 -2.9989497905e+00 1.7314444688e+00 2.9989497905e+00 
90000 5.8090683461e+00 -2.9203753415e-05 1.7314444688e+00 -2.9989497905e+00 1.7314444688e+00 2.9989497905e+00 
90100 5.8090683471e+00 -2.9208198905e-05 1.7314444688e+00 -2.9989497905e+00 1.7314444688e+00 2.9989497905e+00 
90200 5.8090683481e+00 -2.9212631906e-05 1.7314444688e+00 -2.9989497905e+00 1.7314444688e+00 2.9989497905e+00 
90300 5.8090683491e+00 -2.9217052156e-05 1.7314444688e+00 -2.9989497905e+00 1.7314444688e+00 2.9989497905e+00 
90400 5.8090683500e+00 -2.9221459362e-05 1.7314444688e+00 -2.9989497905e+00 1.7314444688e+00 2.9989497905e+00 
90500 5.8090683509e+00 -2.9225853206e-05 1.7314444688e+00 -2.9989497905e+00 1.7314444688e+00 2.9989497905e+00 
90600 5.8090683519e+00 -2.9230233344e-05 1.7314444688e+00 -2.9989497905e+00 1.7314444688e+00 2.9989497905e+00 
90700 5.8090683528e+00 -2.9234599409e-05 1.7314444688e+00 -2.9989497905e+00 1.7314444688e+00 2.9989497905e+00 
90800 5.8090683537e+00 -2.9238951017e-05 1.7314444688e+00 -2.9989497905e+00 1.7314444688e+00 2.9989497905e+00 
90900 5.8090683546e+00 -2.9243287759e-05 1.7314444688e+00 -2.9989497905e+00 1.7314444688e+00 2.9989497905e+00 
91000 5.8090683555e+00 -2.9247609214e-05 1.7314444688e+00 -2.9989497905e+00 1.7314444688e+00 2.9989497905e+00 
91100 5.8090683564e+00 -2.9251914945e-05 1.7314444688e+00 -2.9989497905e+00 1.7314444688e+00 2.9989497905e+00 
91200 5.8090683572e+00 -2.9256204503e-05 1.7314444688e+00 -2.9989497905e+00 1.7314444688e+00 2.9989497905e+00 
91300 5.8090683581e+00 -2.9260477426e-05 1.7314444688e+00 -2.9989497905e+00 1.7314444688e+00 2.9989497905e+00 
91400 5.8090683589e+00 -2.9264733246e-05 1.7314444688e+00 -2.9989497905e+00 1.7314444688e+00 2.9989497905e+00 
91500 5.8090683598e+00 -2.9268971486e-05 1.7314444688e+00 -2.9989497905e+00 1.7314444688e+00 2.9989497905e+00 
91600 5.8090683606e+00 -2.9273191662e-05 1.7314444688e+00 -2.9989497905e+00 1.7314444688e+00 2.9989497905e+00 
91700 5.8090683614e+00 -2.9277393288e-05 1.7314444688e+00 -2.9989497905e+00 1.7314444688e+00 2.9989497905e+00 
91800 5.8090683622e+00 -2.9281575873e-05 1.7314444688e+00 -2.9989497905e+00 1.7314444688e+00 2.9989497905e+00 
91900 5.8090683630e+00 -2.9285738928e-05 1.7314444688e+00 -2.9989497905e+00 1.7314444688e+00 2.9989497905e+00 
92000 5.8090683638e+00 -2.9289881960e-05 1.7314444688e+00 -2.9989497905e+00 1.7314444688e+00 2.9989497905e+00 
92100 5.8090683646e+00 -2.9294004481e-05 1.7314444688e+00 -2.9989497905e+00 1.7314444688e+00 2.9989497905e+00 
92200 5.8090683654e+00 -2.9298106004e-05 1.7314444688e+00 -2.9989497905e+00 1.7314444688e+00 2.9989497905e+00 
92300 5.8090683661e+00 -2.9302186048e-05 1.7314444688e+00 -2.9989497905e+00 1.7314444688e+00 2.9989497905e+00 
92400 5.8090683669e+00 -2.9306244135e-05 1.7314444688e+00 -2.9989497905e+00 1.7314444688e+00 2.9989497905e+00 
92500 5.8090683676e+00 -2.9310279794e-05 1.7314444688e+00 -2.9989497905e+00 1.7314444688e+00 2.9989497905e+00 
92600 5.8090683684e+00 -2.9314292563e-05 1.7314444688e+00 -2.9989497905e+00 1.7314444688e+00 2.9989497905e+00 
92700 5.8090683691e+00 -2.9318281987e-05 1.7314444688e+00 -2.9989497905e+00 1.7314444688e+00 2.9989497905e+00 
92800 5.8090683698e+00 -2.9322247618e-05 1.7314444688e+00 -2.9989497905e+00 1.7314444688e+00 2.9989497905e+00 
92900 5.8090683705e+00 -2.9326189024e-05 1.7314444688e+00 -2.9989497905e+00 1.7314444688e+00 2.9989497905e+00 
93000 5.8090683712e+00 -2.9330105779e-05 1.7314444688e+00 -2.9989497905e+00 1.7314444688e+00 2.9989497905e+00 
93100 5.8090683719e+00 -2.9333997470e-05 1.7314444688e+00 -2.9989497905e+00 1.7314444688e+00 2.9989497905e+00 
93200 5.8090683726e+00 -2.9337863699e-05 1.7314444688e+00 -2.9989497905e+00 1.7314444688e+00 2.9989497905e+00 
93300 5.8090683733e+00 -2.9341704077e-05 1.7314444688e+00 -2.9989497905e+00 1.7314444688e+00 2.9989497905e+00 
93400 5.8090683740e+00 -2.9345518231e-05 1.7314444688e+00 -2.9989497905e+00 1.7314444688e+00 2.9989497905e+00 
93500 5.8090683746e+00 -2.9349305803e-05 1.7314444688e+00 -2.9989497905e+00 1.7314444688e+00 2.9989497905e+00 
93600 5.8090683753e+00 -2.9353066448e-05 1.7314444688e+00 -2.9989497905e+00 1.7314444688e+00 2.9989497905e+00 
93700 5.8090683759e+00 -2.9356799838e-05 1.7314444688e+00 -2.9989497905e+00 1.7314444688e+00 2.9989497905e+00 
93800 5.8090683766e+00 -2.9360505659e-05 1.7314444688e+00 -2.9989497905e+00 1.7314444688e+00 2.9989497905e+00 
93900 5.8090683772e+00 -2.9364183615e-05 1.7314444688e+00 -2.9989497905e+00 1.7314444688e+00 2.9989497905e+00 
94000 5.8090683779e+00 -2.9367833425e-05 1.7314444688e+00 -2.9989497905e+00 1.7314444688e+00 2.9989497905e+00 
94100 5.8090683785e+00 -2.9371454822e-05 1.7314444688e+00 -2.9989497905e+00 1.7314444688e+00 2.9989497905e+00 
94200 5.8090683791e+00 -2.9375047562e-05 1.7314444688e+00 -2.9989497905e+00 1.7314444688e+00 2.9989497905e+00 
94300 5.8090683797e+00 -2.9378611412e-05 1.7314444688e+00 -2.9989497905e+00 1.7314444688e+00 2.9989497905e+00 
94400 5.8090683803e+00 -2.9382146160e-05 1.7314444688e+00 -2.9989497905e+00 1.7314444688e+00 2.9989497905e+00 
94500 5.8090683809e+00 -2.9385651608e-05 1.7314444688e+00 -2.9989497905e+00 1.7314444688e+00 2.9989497905e+00 
94600 5.8090683815e+00 -2.9389127578e-05 1.7314444688e+00 -2.9989497905e+00 1.7314444688e+00 2.9989497905e+00 
94700 5.8090683821e+00 -2.9392573909e-05 1.7314444688e+00 -2.9989497905e+00 1.7314444688e+00 2.9989497905e+00 
94800 5.8090683826e+00 -2.9395990455e-05 1.7314444688e+00 -2.9989497905e+00 1.7314444688e+00 2.9989497905e+00 
94900 5.8090683832e+00 -2.9399377090e-05 1.7314444688e+00 -2.9989497905e+00 1.7314444688e+00 2.9989497905e+00 
95000 5.8090683838e+00 -2.9402733703e-05 1.7314444688e+00 -2.9989497905e+00 1.7314444688e+00 2.9989497905e+00 
95100 5.8090683843e+00 -2.9406060201e-05 1.7314444688e+00 -2.9989497905e+00 1.7314444688e+00 2.9989497905e+00 
95200 5.8090683849e+00 -2.9409356509e-05 1.7314444688e+00 -2.9989497905e+00 1.7314444688e+00 2.9989497905e+00 
95300 5.8090683854e+00 -2.9412622566e-05 1.7314444688e+00 -2.9989497905e+00 1.7314444688e+00 2.9989497905e+00 
95400 5.8090683860e+00 -2.9415858331e-05 1.7314444688e+00 -2.9989497905e+00 1.7314444688e+00 2.9989497905e+00 
95500 5.8090683865e+00 -2.9419063775e-05 1.7314444688e+00 -2.9989497905e+00 1.7314444688e+00 2.9989497905e+00 
95600 5.8090683870e+00 -2.9422238890e-05 1.7314444688e+00 -2.9989497905e+00 1.7314444688e+00 2.9989497905e+00 
95700 5.8090683875e+00 -2.9425383680e-05 1.7314444688e+00 -2.9989497905e+00 1.7314444688e+00 2.9989497905e+00 
95800 5.8090683880e+00 -2.9428498167e-05 1.7314444688e+00 -2.9989497905e+00 1.7314444688e+00 2.9989497905e+00 
95900 5.8090683885e+00 -2.9431582387e-05 1.7314444688e+00 -2.9989497905e+00 1.7314444688e+00 2.9989497905e+00 
96000 5.8090683891e+00 -2.9434636389e-05 1.7314444688e+00 -2.9989497905e+00 1.7314444688e+00 2.9989497905e+00 
96100 5.8090683895e+00 -2.9437660243e-05 1.7314444688e+00 -2.9989497905e+00 1.7314444688e+00 2.9989497905e+00 
96200 5.8090683900e+00 -2.9440654026e-05 1.7314444688e+00 -2.9989497905e+00 1.7314444688e+00 2.9989497905e+00 
96300 5.8090683905e+00 -2.9443617834e-05 1.7314444688e+00 -2.9989497905e+00 1.7314444688e+00 2.9989497905e+00 
96400 5.8090683910e+00 -2.9446551772e-05 1.7314444688e+00 -2.9989497905e+00 1.7314444688e+00 2.9989497905e+00 
96500 5.8090683915e+00 -2.9449455963e-05 1.7314444688e+00 -2.9989497905e+00 1.7314444688e+00 2.9989497905e+00 
96600 5.8090683919e+00 -2.9452330539e-05 1.7314444688e+00 -2.9989497905e+00 1.7314444688e+00 2.9989497905e+00 
96700 5.8090683924e+00 -2.9455175646e-05 1.7314444688e+00 -2.9989497905e+00 1.7314444688e+00 2.9989497905e+00 
96800 5.8090683929e+00 -2.9457991441e-05 1.7314444688e+00 -2.9989497905e+00 1.7314444688e+00 2.9989497905e+00 
96900 5.8090683933e+00 -2.9460778093e-05 1.7314444688e+00 -2.9989497905e+00 1.7314444688e+00 2.9989497905e+00 
97000 5.8090683938e+00 -2.9463535784e-05 1.7314444688e+00 -2.9989497905e+00 1.7314444688e+00 2.9989497905e+00 
97100 5.8090683942e+00 -2.9466264702e-05 1.7314444688e+00 -2.9989497905e+00 1.7314444688e+00 2.9989497905e+00 
97200 5.8090683946e+00 -2.9468965049e-05 1.7314444688e+00 -2.9989497905e+00 1.7314444688e+00 2.9989497905e+00 
97300 5.8090683951e+00 -2.9471637035e-05 1.7314444688e+00 -2.9989497905e+00 1.7314444688e+00 2.9989497905e+00 
97400 5.8090683955e+00 -2.9474280879e-05 1.7314444688e+00 -2.9989497905e+00 1.7314444688e+00 2.9989497905e+00 
97500 5.8090683959e+00 -2.9476896812e-05 1.7314444688e+00 -2.9989497905e+00 1.7314444688e+00 2.9989497905e+00 
97600 5.8090683963e+00 -2.9479485067e-05 1.7314444688e+00 -2.9989497905e+00 1.7314444688e+00 2.9989497905e+00 
97700 5.8090683968e+00 -2.9482045892e-05 1.7314444688e+00 -2.9989497905e+00 1.7314444688e+00 2.9989497905e+00 
97800 5.8090683972e+00 -2.9484579537e-05 1.7314444688e+00 -2.9989497905e+00 1.7314444688e+00 2.9989497905e+00 
97900 5.8090683976e+00 -2.9487086262e-05 1.7314444688e+00 -2.9989497905e+00 1.7314444688e+00 2.9989497905e+00 
98000 5.8090683980e+00 -2.9489566332e-05 1.7314444688e+00 -2.9989497905e+00 1.7314444688e+00 2.9989497905e+00 
98100 5.8090683984e+00 -2.9492020020e-05 1.7314444688e+00 -2.9989497905e+00 1.7314444688e+00 2.9989497905e+00 
98200 5.8090683988e+00 -2.9494447602e-05 1.7314444688e+00 -2.9989497905e+00 1.7314444688e+00 2.9989497905e+00 
98300 5.8090683991e+00 -2.9496849361e-05 1.7314444688e+00 -2.9989497905e+00 1.7314444688e+00 2.9989497905e+00 
98400 5.8090683995e+00 -2.9499225587e-05 1.7314444688e+00 -2.9989497905e+00 1.7314444688e+00 2.9989497905e+00 
98500 5.8090683999e+00 -2.9501576567e-05 1.7314444688e+00 -2.9989497905e+00 1.7314444688e+00 2.9989497905e+00 
98600 5.8090684003e+00 -2.9503902602e-05 1.7314444688e+00 -2.9989497905e+00 1.7314444688e+00 2.9989497905e+00 
98700 5.8090684007e+00 -2.9506203987e-05 1.7314444688e+00 -2.9989497905e+00 1.7314444688e+00 2.9989497905e+00 
98800 5.8090684010e+00 -2.9508481028e-05 1.7314444688e+00 -2.9989497905e+00 1.7314444688e+00 2.9989497905e+00 
98900 5.8090684014e+00 -2.9510734027e-05 1.7314444688e+00 -2.9989497905e+00 1.7314444688e+00 2.9989497905e+00 
99000 5.8090684017e+00 -2.9512963294e-05 1.7314444688e+00 -2.9989497905e+00 1.7314444688e+00 2.9989497905e+00 
99100 5.8090684021e+00 -2.9515169139e-05 1.7314444688e+00 -2.9989497905e+00 1.7314444688e+00 2.9989497905e+00 
99200 5.8090684024e+00 -2.9517351872e-05 1.7314444688e+00 -2.9989497905e+00 1.7314444688e+00 2.9989497905e+00 
99300 5.8090684028e+00 -2.9519511807e-05 1.7314444688e+00 -2.9989497905e+00 1.7314444688e+00 2.9989497905e+00 
99400 5.8090684031e+00 -2.9521649255e-05 1.7314444688e+00 -2.9989497905e+00 1.7314444688e+00 2.9989497905e+00 
99500 5.8090684035e+00 -2.9523764532e-05 1.7314444688e+00 -2.9989497905e+00 1.7314444688e+00 2.9989497905e+00 
99600 5.8090684038e+00 -2.9525857951e-05 1.7314444688e+00 -2.9989497905e+00 1.7314444688e+00 2.9989497905e+00 
99700 5.8090684041e+00 -2.9527929829e-05 1.7314444688e+00 -2.9989497905e+00 1.7314444688e+00 2.9989497905e+00 
99800 5.8090684044e+00 -2.9529980477e-05 1.7314444688e+00 -2.9989497905e+00 1.7314444688e+00 2.9989497905e+00 
99900 5.8090684048e+00 -2.9532010208e-05 1.7314444688e+00 -2.9989497905e+00 1.7314444688e+00 2.9989497905e+00 
100000 5.8090684051e+00 -2.9534019337e-05 1.7314444688e+00 -2.9989497905e+00 1.7314444688e+00 2.9989497905e+00 
100100 5.8090684054e+00 -2.9536008171e-05 1.7314444688e+00 -2.9989497905e+00 1.7314444688e+00 2.9989497905e+00 
100200 5.8090684057e+00 -2.9537977022e-05 1.7314444688e+00 -2.9989497905e+00 1.7314444688e+00 2.9989497905e+00 
100300 5.8090684060e+00 -2.9539926198e-05 1.7314444688e+00 -2.9989497905e+00 1.7314444688e+00 2.9989497905e+00 
100400 5.8090684063e+00 -2.9541856004e-05 1.7314444688e+00 -2.9989497905e+00 1.7314444688e+00 2.9989497905e+00 
100500 5.8090684066e+00 -2.9543766742e-05 1.7314444688e+00 -2.9989497905e+00 1.7314444688e+00 2.9989497905e+00 
100600 5.8090684069e+00 -2.9545658715e-05 1.7314444688e+00 -2.9989497905e+00 1.7314444688e+00 2.9989497905e+00 
100700 5.8090684072e+00 -2.9547532220e-05 1.7314444688e+00 -2.9989497905e+00 1.7314444688e+00 2.9989497905e+00 
100800 5.8090684075e+00 -2.9549387552e-05 1.7314444688e+00 -2.9989497905e+00 1.7314444688e+00 2.9989497905e+00 
100900 5.8090684078e+00 -2.9551225002e-05 1.7314444688e+00 -2.9989497905e+00 1.7314444688e+00 2.9989497905e+00 
101000 5.8090684081e+00 -2.9553044862e-05 1.7314444688e+00 -2.9989497905e+00 1.7314444688e+00 2.9989497905e+00 
101100 5.8090684084e+00 -2.9554847414e-05 1.7314444688e+00 -2.9989497905e+00 1.7314444688e+00 2.9989497905e+00 
101200 5.8090684087e+00 -2.9556632943e-05 1.7314444688e+00 -2.9989497905e+00 1.7314444688e+00 2.9989497905e+00 
101300 5.8090684089e+00 -2.9558401726e-05 1.7314444688e+00 -2.9989497905e+00 1.7314444688e+00 2.9989497905e+00 
101400 5.8090684092e+00 -2.9560154036e-05 1.7314444688e+00 -2.9989497905e+00 1.7314444688e+00 2.9989497905e+00 
101500 5.8090684095e+00 -2.9561890144e-05 1.7314444688e+00 -2.9989497905e+00 1.7314444688e+00 2.9989497905e+00 
101600 5.8090684097e+00 -2.9563610317e-05 1.7314444688e+00 -2.9989497905e+00 1.7314444688e+00 2.9989497905e+00 
101700 5.8090684100e+00 -2.9565314816e-05 1.7314444688e+00 -2.9989497905e+00 1.7314444688e+00 2.9989497905e+00 
101800 5.8090684103e+00 -2.9567003898e-05 1.7314444688e+00 -2.9989497905e+00 1.7314444688e+00 2.9989497905e+00 
101900 5.8090684105e+00 -2.9568677817e-05 1.7314444688e+00 -2.9989497905e+00 1.7314444688e+00 2.9989497905e+00 
102000 5.8090684108e+00 -2.9570336820e-05 1.7314444688e+00 -2.9989497905e+00 1.7314444688e+00 2.9989497905e+00 
102100 5.8090684110e+00 -2.9571981154e-05 1.7314444688e+00 -2.9989497905e+00 1.7314444688e+00 2.9989497905e+00 
102200 5.8090684113e+00 -2.9573611054e-05 1.7314444688e+00 -2.9989497905e+00 1.7314444688e+00 2.9989497905e+00 
102300 5.8090684115e+00 -2.9575226759e-05 1.7314444688e+00 -2.9989497905e+00 1.7314444688e+00 2.9989497905e+00 
102400 5.8090684118e+00 -2.9576828496e-05 1.7314444688e+00 -2.9989497905e+00 1.7314444688e+00 2.9989497905e+00 
102500 5.8090684120e+00 -2.9578416492e-05 1.7314444688e+00 -2.9989497905e+00 1.7314444688e+00 2.9989497905e+00 
102600 5.8090684122e+00 -2.9579990967e-05 1.7314444688e+00 -2.9989497905e+00 1.7314444688e+00 2.9989497905e+00 
102700 5.8090684125e+00 -2.9581552135e-05 1.7314444688e+00 -2.9989497905e+00 1.7314444688e+00 2.9989497905e+00 
102800 5.8090684127e+00 -2.9583100208e-05 1.7314444688e+00 -2.9989497905e+00 1.7314444688e+00 2.9989497905e+00 
102900 5.8090684129e+00 -2.9584635392e-05 1.7314444688e+00 -2.9989497905e+00 1.7314444688e+00 2.9989497905e+00 
103000 5.8090684132e+00 -2.9586157889e-05 1.7314444688e+00 -2.9989497905e+00 1.7314444688e+00 2.9989497905e+00 
103100 5.8090684134e+00 -2.9587667893e-05 1.7314444688e+00 -2.9989497905e+00 1.7314444688e+00 2.9989497905e+00 
103200 5.8090684136e+00 -2.9589165598e-05 1.7314444688e+00 -2.9989497905e+00 1.7314444688e+00 2.9989497905e+00 
103300 5.8090684138e+00 -2.9590651188e-05 1.7314444688e+00 -2.9989497905e+00 1.7314444688e+00 2.9989497905e+00 
103400 5.8090684140e+00 -2.9592124846e-05 1.7314444688e+00 -2.9989497905e+00 1.7314444688e+00 2.9989497905e+00 
103500 5.8090684143e+00 -2.9593586749e-05 1.7314444688e+00 -2.9989497905e+00 1.7314444688e+00 2.9989497905e+00 
103600 5.8090684145e+00 -2.9595037070e-05 1.7314444688e+00 -2.9989497905e+00 1.7314444688e+00 2.9989497905e+00 
103700 5.8090684147e+00 -2.9596475976e-05 1.7314444688e+00 -2.9989497905e+00 1.7314444688e+00 2.9989497905e+00 
103800 5.8090684149e+00 -2.9597903632e-05 1.7314444688e+00 -2.9989497905e+00 1.7314444688e+00 2.9989497905e+00 
103900 5.8090684151e+00 -2.9599320194e-05 1.7314444688e+00 -2.9989497905e+00 1.7314444688e+00 2.9989497905e+00 
104000 5.8090684153e+00 -2.9600725819e-05 1.7314444688e+00 -2.9989497905e+00 1.7314444688e+00 2.9989497905e+00 
104100 5.8090684155e+00 -2.9602120654e-05 1.7314444688e+00 -2.9989497905e+00 1.7314444688e+00 2.9989497905e+00 
104200 5.8090684157e+00 -2.9603504846e-05 1.7314444688e+00 -2.9989497905e+00 1.7314444688e+00 2.9989497905e+00 
104300 5.8090684159e+00 -2.9604878536e-05 1.7314444688e+00 -2.9989497905e+00 1.7314444688e+00 2.9989497905e+00 
104400 5.8090684161e+00 -2.9606241860e-05 1.7314444688e+00 -2.9989497905e+00 1.7314444688e+00 2.9989497905e+00 
104500 5.8090684163e+00 -2.9607594951e-05 1.7314444688e+00 -2.9989497905e+00 1.7314444688e+00 2.9989497905e+00 
104600 5.8090684165e+00 -2.9608937938e-05 1.7314444688e+00 -2.9989497905e+00 1.7314444688e+00 2.9989497905e+00 
104700 5.8090684167e+00 -2.9610270946e-05 1.7314444688e+00 -2.9989497905e+00 1.7314444688e+00 2.9989497905e+00 
104800 5.8090684169e+00 -2.9611594095e-05 1.7314444688e+00 -2.9989497905e+00 1.7314444688e+00 2.9989497905e+00 
104900 5.8090684170e+00 -2.9612907502e-05 1.7314444688e+00 -2.9989497905e+00 1.7314444688e+00 2.9989497905e+00 
105000 5.8090684172e+00 -2.9614211279e-05 1.7314444688e+00 -2.9989497905e+00 1.7314444688e+00 2.9989497905e+00 
105100 5.8090684174e+00 -2.9615505539e-05 1.7314444688e+00 -2.9989497905e+00 1.7314444688e+00 2.9989497905e+00 
105200 5.8090684176e+00 -2.9616790385e-05 1.7314444688e+00 -2.9989497905e+00 1.7314444688e+00 2.9989497905e+00 
105300 5.8090684177e+00 -2.9618065920e-05 1.7314444688e+00 -2.9989497905e+00 1.7314444688e+00 2.9989497905e+00 
105400 5.8090684179e+00 -2.9619332244e-05 1.7314444688e+00 -2.9989497905e+00 1.7314444688e+00 2.9989497905e+00 
105500 5.8090684181e+00 -2.9620589452e-05 1.7314444688e+00 -2.9989497905e+00 1.7314444688e+00 2.9989497905e+00 
105600 5.8090684183e+00 -2.9621837637e-05 1.7314444688e+00 -2.9989497905e+00 1.7314444688e+00 2.9989497905e+00 
105700 5.8090684184e+00 -2.9623076889e-05 1.7314444688e+00 -2.9989497905e+00 1.7314444688e+00 2.9989497905e+00 
105800 5.8090684186e+00 -2.9624307294e-05 1.7314444688e+00 -2.9989497905e+00 1.7314444688e+00 2.9989497905e+00 
105900 5.8090684188e+00 -2.9625528936e-05 1.7314444688e+00 -2.9989497905e+00 1.7314444688e+00 2.9989497905e+00 
106000 5.8090684189e+00 -2.9626741895e-05 1.7314444688e+00 -2.9989497905e+00 1.7314444688e+00 2.9989497905e+00 
106100 5.8090684191e+00 -2.9627946250e-05 1.7314444688e+00 -2.9989497905e+00 1.7314444688e+00 2.9989497905e+00 
106200 5.8090684192e+00 -2.9629142079e-05 1.7314444688e+00 -2.9989497905e+00 1.7314444688e+00 2.9989497905e+00 
106300 5.8090684194e+00 -2.9630329450e-05 1.7314444688e+00 -2.9989497905e+00 1.7314444688e+00 2.9989497905e+00 
106400 5.8090684196e+00 -2.9631508438e-05 1.7314444688e+00 -2.9989497905e+00 1.7314444688e+00 2.9989497905e+00 
106500 5.8090684197e+00 -2.9632679109e-05 1.7314444688e+00 -2.9989497905e+00 1.7314444688e+00 2.9989497905e+00 
106600 5.8090684199e+00 -2.9633841530e-05 1.7314444688e+00 -2.9989497905e+00 1.7314444688e+00 2.9989497905e+00 
106700 5.8090684200e+00 -2.9634995764e-05 1.7314444688e+00 -2.9989497905e+00 1.7314444688e+00 2.9989497905e+00 
106800 5.8090684202e+00 -2.9636141875e-05 1.7314444688e+00 -2.9989497905e+00 1.7314444688e+00 2.9989497905e+00 
106900 5.8090684203e+00 -2.9637279922e-05 1.7314444688e+00 -2.9989497905e+00 1.7314444688e+00 2.9989497905e+00 
107000 5.8090684205e+00 -2.9638409962e-05 1.7314444688e+00 -2.9989497905e+00 1.7314444688e+00 2.9989497905e+00 
107100 5.8090684206e+00 -2.9639532052e-05 1.7314444688e+00 -2.9989497905e+00 1.7314444688e+00 2.9989497905e+00 
107200 5.8090684207e+00 -2.9640646248e-05 1.7314444688e+00 -2.9989497905e+00 1.7314444688e+00 2.9989497905e+00 
107300 5.8090684209e+00 -2.9641752602e-05 1.7314444688e+00 -2.9989497905e+00 1.7314444688e+00 2.9989497905e+00 
107400 5.8090684210e+00 -2.9642851164e-05 1.7314444688e+00 -2.9989497905e+00 1.7314444688e+00 2.9989497905e+00 
107500 5.8090684212e+00 -2.9643941987e-05 1.7314444688e+00 -2.9989497905e+00 1.7314444688e+00 2.9989497905e+00 
107600 5.8090684213e+00 -2.9645025117e-05 1.7314444688e+00 -2.9989497905e+00 1.7314444688e+00 2.9989497905e+00 
107700 5.8090684214e+00 -2.9646100605e-05 1.7314444688e+00 -2.9989497905e+00 1.7314444688e+00 2.9989497905e+00 
107800 5.8090684216e+00 -2.9647168494e-05 1.7314444688e+00 -2.9989497905e+00 1.7314444688e+00 2.9989497905e+00 
107900 5.8090684217e+00 -2.9648228829e-05 1.7314444688e+00 -2.9989497905e+00 1.7314444688e+00 2.9989497905e+00 
108000 5.8090684218e+00 -2.9649281655e-05 1.7314444688e+00 -2.9989497905e+00 1.7314444688e+00 2.9989497905e+00 
108100 5.8090684219e+00 -2.9650327016e-05 1.7314444688e+00 -2.9989497905e+00 1.7314444688e+00 2.9989497905e+00 
108200 5.8090684221e+00 -2.9651364953e-05 1.7314444688e+00 -2.9989497905e+00 1.7314444688e+00 2.9989497905e+00 
108300 5.8090684222e+00 -2.9652395507e-05 1.7314444688e+00 -2.9989497905e+00 1.7314444688e+00 2.9989497905e+00 
108400 5.8090684223e+00 -2.9653418720e-05 1.7314444688e+00 -2.9989497905e+00 1.7314444688e+00 2.9989497905e+00 
108500 5.8090684224e+00 -2.9654434630e-05 1.7314444688e+00 -2.9989497905e+00 1.7314444688e+00 2.9989497905e+00 
108600 5.8090684226e+00 -2.9655443278e-05 1.7314444688e+00 -2.9989497905e+00 1.7314444688e+00 2.9989497905e+00 
108700 5.8090684227e+00 -2.9656444700e-05 1.7314444688e+00 -2.9989497905e+00 1.7314444688e+00 2.9989497905e+00 
108800 5.8090684228e+00 -2.9657438937e-05 1.7314444688e+00 -2.9989497905e+00 1.7314444688e+00 2.9989497905e+00 
108900 5.8090684229e+00 -2.9658426024e-05 1.7314444688e+00 -2.9989497905e+00 1.7314444688e+00 2.9989497905e+00 
109000 5.8090684230e+00 -2.9659405998e-05 1.7314444688e+00 -2.9989497905e+00 1.7314444688e+00 2.9989497905e+00 
109100 5.8090684232e+00 -2.9660378897e-05 1.7314444688e+00 -2.9989497905e+00 1.7314444688e+00 2.9989497905e+00 
109200 5.8090684233e+00 -2.9661344757e-05 1.7314444688e+00 -2.9989497905e+00 1.7314444688e+00 2.9989497905e+00 
109300 5.8090684234e+00 -2.9662303613e-05 1.7314444688e+00 -2.9989497905e+00 1.7314444688e+00 2.9989497905e+00 
109400 5.8090684235e+00 -2.9663255501e-05 1.7314444688e+00 -2.9989497905e+00 1.7314444688e+00 2.9989497905e+00 
109500 5.8090684236e+00 -2.9664200457e-05 1.7314444688e+00 -2.9989497905e+00 1.7314444688e+00 2.9989497905e+00 
109600 5.8090684237e+00 -2.9665138517e-05 1.7314444688e+00 -2.9989497905e+00 1.7314444688e+00 2.9989497905e+00 
109700 5.8090684238e+00 -2.9666069715e-05 1.7314444688e+00 -2.9989497905e+00 1.7314444688e+00 2.9989497905e+00 
109800 5.8090684239e+00 -2.9666994084e-05 1.7314444688e+00 -2.9989497905e+00 1.7314444688e+00 2.9989497905e+00 
109900 5.8090684240e+00 -2.9667911663e-05 1.7314444688e+00 -2.9989497905e+00 1.7314444688e+00 2.9989497905e+00 
110000 5.8090684241e+00 -2.9668822485e-05 1.7314444688e+00 -2.9989497905e+00 1.7314444688e+00 2.9989497905e+00 
110100 5.8090684242e+00 -2.9669726584e-05 1.7314444688e+00 -2.9989497905e+00 1.7314444688e+00 2.9989497905e+00 
110200 5.8090684243e+00 -2.9670623997e-05 1.7314444688e+00 -2.9989497905e+00 1.7314444688e+00 2.9989497905e+00 
110300 5.8090684244e+00 -2.9671514757e-05 1.7314444688e+00 -2.9989497905e+00 1.7314444688e+00 2.9989497905e+00 
110400 5.8090684245e+00 -2.9672398900e-05 1.7314444688e+00 -2.9989497905e+00 1.7314444688e+00 2.9989497905e+00 
110500 5.8090684246e+00 -2.9673276459e-05 1.7314444688e+00 -2.9989497905e+00 1.7314444688e+00 2.9989497905e+00 
110600 5.8090684247e+00 -2.9674147474e-05 1.7314444688e+00 -2.9989497905e+00 1.7314444688e+00 2.9989497905e+00 
110700 5.8090684248e+00 -2.9675011975e-05 1.7314444688e+00 -2.9989497905e+00 1.7314444688e+00 2.9989497905e+00 
110800 5.8090684249e+00 -2.9675870000e-05 1.7314444688e+00 -2.9989497905e+00 1.7314444688e+00 2.9989497905e+00 
110900 5.8090684250e+00 -2.9676721585e-05 1.7314444688e+00 -2.9989497905e+00 1.7314444688e+00 2.9989497905e+00 
111000 5.8090684251e+00 -2.9677566766e-05 1.7314444688e+00 -2.9989497905e+00 1.7314444688e+00 2.9989497905e+00 
111100 5.8090684252e+00 -2.9678405577e-05 1.7314444688e+00 -2.9989497905e+00 1.7314444688e+00 2.9989497905e+00 
111200 5.8090684253e+00 -2.9679238056e-05 1.7314444688e+00 -2.9989497905e+00 1.7314444688e+00 2.9989497905e+00 
111300 5.8090684254e+00 -2.9680064236e-05 1.7314444688e+00 -2.9989497905e+00 1.7314444688e+00 2.9989497905e+00 
111400 5.8090684255e+00 -2.9680884159e-05 1.7314444688e+00 -2.9989497905e+00 1.7314444688e+00 2.9989497905e+00 
111500 5.8090684256e+00 -2.9681697857e-05 1.7314444688e+00 -2.9989497905e+00 1.7314444688e+00 2.9989497905e+00 
111600 5.8090684256e+00 -2.9682505369e-05 1.7314444688e+00 -2.9989497905e+00 1.7314444688e+00 2.9989497905e+00 
111700 5.8090684257e+00 -2.9683306732e-05 1.7314444688e+00 -2.9989497905e+00 1.7314444688e+00 2.9989497905e+00 
111800 5.8090684258e+00 -2.9684101981e-05 1.7314444688e+00 -2.9989497905e+00 1.7314444688e+00 2.9989497905e+00 
111900 5.8090684259e+00 -2.9684891159e-05 1.7314444688e+00 -2.9989497905e+00 1.7314444688e+00 2.9989497905e+00 
112000 5.8090684260e+00 -2.9685674299e-05 1.7314444688e+00 -2.9989497905e+00 1.7314444688e+00 2.9989497905e+00 
112100 5.8090684261e+00 -2.9686451440e-05 1.7314444688e+00 -2.9989497905e+00 1.7314444688e+00 2.9989497905e+00 
112200 5.8090684261e+00 -2.9687222622e-05 1.7314444688e+00 -2.9989497905e+00 1.7314444688e+00 2.9989497905e+00 
112300 5.8090684262e+00 -2.9687987882e-05 1.7314444688e+00 -2.9989497905e+00 1.7314444688e+00 2.9989497905e+00 
112400 5.8090684263e+00 -2.9688747260e-05 1.7314444688e+00 -2.9989497905e+00 1.7314444688e+00 2.9989497905e+00 
112500 5.8090684264e+00 -2.9689500792e-05 1.7314444688e+00 -2.9989497905e+00 1.7314444688e+00 2.9989497905e+00 
112600 5.8090684265e+00 -2.9690248520e-05 1.7314444688e+00 -2.9989497905e+00 1.7314444688e+00 2.9989497905e+00 
112700 5.8090684265e+00 -2.9690990482e-05 1.7314444688e+00 -2.9989497905e+00 1.7314444688e+00 2.9989497905e+00 
112800 5.8090684266e+00 -2.9691726718e-05 1.7314444688e+00 -2.9989497905e+00 1.7314444688e+00 2.9989497905e+00 
112900 5.8090684267e+00 -2.9692457268e-05 1.7314444688e+00 -2.9989497905e+00 1.7314444688e+00 2.9989497905e+00 
113000 5.8090684268e+00 -2.9693182170e-05 1.7314444688e+00 -2.9989497905e+00 1.7314444688e+00 2.9989497905e+00 
113100 5.8090684268e+00 -2.9693901465e-05 1.7314444688e+00 -2.9989497905e+00 1.7314444688e+00 2.9989497905e+00 
113200 5.8090684269e+00 -2.9694615194e-05 1.7314444688e+00 -2.9989497905e+00 1.7314444688e+00 2.9989497905e+00 
113300 5.8090684270e+00 -2.9695323396e-05 1.7314444688e+00 -2.9989497905e+00 1.7314444688e+00 2.9989497905e+00 
113400 5.8090684271e+00 -2.9696026113e-05 1.7314444688e+00 -2.9989497905e+00 1.7314444688e+00 2.9989497905e+00 
113500 5.8090684271e+00 -2.9696723384e-05 1.7314444688e+00 -2.9989497905e+00 1.7314444688e+00 2.9989497905e+00 
113600 5.8090684272e+00 -2.9697415250e-05 1.7314444688e+00 -2.9989497905e+00 1.7314444688e+00 2.9989497905e+00 
113700 5.8090684273e+00 -2.9698101751e-05 1.7314444688e+00 -2.9989497905e+00 1.7314444688e+00 2.9989497905e+00 
113800 5.8090684273e+00 -2.9698782930e-05 1.7314444688e+00 -2.9989497905e+00 1.7314444688e+00 2.9989497905e+00 
113900 5.8090684274e+00 -2.9699458825e-05 1.7314444688e+00 -2.9989497905e+00 1.7314444688e+00 2.9989497905e+00 
114000 5.8090684275e+00 -2.9700129481e-05 1.7314444688e+00 -2.9989497905e+00 1.7314444688e+00 2.9989497905e+00 
114100 5.8090684275e+00 -2.9700794933e-05 1.7314444688e+00 -2.9989497905e+00 1.7314444688e+00 2.9989497905e+00 
114200 5.8090684276e+00 -2.9701455228e-05 1.7314444688e+00 -2.9989497905e+00 1.7314444688e+00 2.9989497905e+00 
114300 5.8090684277e+00 -2.9702110403e-05 1.7314444688e+00 -2.9989497905e+00 1.7314444688e+00 2.9989497905e+00 
114400 5.8090684277e+00 -2.9702760502e-05 1.7314444688e+00 -2.9989497905e+00 1.7314444688e+00 2.9989497905e+00 
114500 5.8090684278e+00 -2.9703405564e-05 1.7314444688e+00 -2.9989497905e+00 1.7314444688e+00 2.9989497905e+00 
114600 5.8090684279e+00 -2.9704045630e-05 1.7314444688e+00 -2.9989497905e+00 1.7314444688e+00 2.9989497905e+00 
114700 5.8090684279e+00 -2.9704680744e-05 1.7314444688e+00 -2.9989497905e+00 1.7314444688e+00 2.9989497905e+00 
114800 5.8090684280e+00 -2.9705310944e-05 1.7314444688e+00 -2.9989497905e+00 1.7314444688e+00 2.9989497905e+00 
114900 5.8090684280e+00 -2.9705936271e-05 1.7314444688e+00 -2.9989497905e+00 1.7314444688e+00 2.9989497905e+00 
115000 5.8090684281e+00 -2.9706556768e-05 1.7314444688e+00 -2.9989497905e+00 1.7314444688e+00 2.9989497905e+00 
115100 5.8090684282e+00 -2.9707172473e-05 1.7314444688e+00 -2.9989497905e+00 1.7314444688e+00 2.9989497905e+00 
115200 5.8090684282e+00 -2.9707783429e-05 1.7314444688e+00 -2.9989497905e+00 1.7314444688e+00 2.9989497905e+00 
115300 5.8090684283e+00 -2.9708389676e-05 1.7314444688e+00 -2.9989497905e+00 1.7314444688e+00 2.9989497905e+00 
115400 5.8090684283e+00 -2.9708991255e-05 1.7314444688e+00 -2.9989497905e+00 1.7314444688e+00 2.9989497905e+00 
115500 5.8090684284e+00 -2.9709588204e-05 1.7314444688e+00 -2.9989497905e+00 1.7314444688e+00 2.9989497905e+00 
115600 5.8090684284e+00 -2.9710180566e-05 1.7314444688e+00 -2.9989497905e+00 1.7314444688e+00 2.9989497905e+00 
115700 5.8090684285e+00 -2.9710768379e-05 1.7314444688e+00 -2.9989497905e+00 1.7314444688e+00 2.9989497905e+00 
115800 5.8090684285e+00 -2.9711351684e-05 1.7314444688e+00 -2.9989497905e+00 1.7314444688e+00 2.9989497905e+00 
115900 5.8090684286e+00 -2.9711930522e-05 1.7314444688e+00 -2.9989497905e+00 1.7314444688e+00 2.9989497905e+00 
116000 5.8090684287e+00 -2.9712504929e-05 1.7314444688e+00 -2.9989497905e+00 1.7314444688e+00 2.9989497905e+00 
116100 5.8090684287e+00 -2.9713074948e-05 1.7314444688e+00 -2.9989497905e+00 1.7314444688e+00 2.9989497905e+00 
116200 5.8090684288e+00 -2.9713640617e-05 1.7314444688e+00 -2.9989497905e+00 1.7314444688e+00 2.9989497905e+00 
116300 5.8090684288e+00 -2.9714201974e-05 1.7314444688e+00 -2.9989497905e+00 1.7314444688e+00 2.9989497905e+00 
116400 5.8090684289e+00 -2.9714759059e-05 1.7314444688e+00 -2.9989497905e+00 1.7314444688e+00 2.9989497905e+00 
116500 5.8090684289e+00 -2.9715311910e-05 1.7314444688e+00 -2.9989497905e+00 1.7314444688e+00 2.9989497905e+00 
116600 5.8090684289e+00 -2.9715630638e-05 1.7314444688e+00 -2.9989497905e+00 1.7314444688e+00 2.9989497905e+00 
116600 5.8090684289e+00 -2.9715630638e-05 1.7314444688e+00 -2.9989497905e+00 1.7314444688e+00 2.9989497905e+00 
