# step Hamiltonian StressXX CellTensor1 CellTensor2 CellTensor3 CellTensor4 
0 7.0240466754e+00 2.0092929337e-01 2.5594246509e+00 -4.4330535334e+00 2.5594246509e+00 4.4330535334e+00 
100 7.0446728357e+00 2.2123903667e-01 2.5594246509e+00 -4.4330535334e+00 2.5594246509e+00 4.4330535334e+00 
200 7.0643680136e+00 2.4035602746e-01 2.5551038230e+00 -4.4255696401e+00 2.5551038230e+00 4.4255696401e+00 
300 7.0836367682e+00 2.5912729169e-01 2.5504018194e+00 -4.4174255309e+00 2.5504018194e+00 4.4174255309e+00 
400 7.1023443262e+00 2.7752687401e-01 2.5453233825e+00 -4.4086294202e+00 2.5453233825e+00 4.4086294202e+00 
500 7.1203242032e+00 2.9545684804e-01 2.5398736311e+00 -4.3991901739e+00 2.5398736311e+00 4.3991901739e+00 
600 7.1373667057e+00 3.1271625323e-01 2.5340594871e+00 -4.3891197811e+00 2.5340594871e+00 4.3891197811e+00 
700 7.1532047195e+00 3.2896028749e-01 2.5278917346e+00 -4.3784369203e+00 2.5278917346e+00 4.3784369203e+00 
800 7.1675009513e+00 3.4365843477e-01 2.5213879196e+00 -4.3671719823e+00 2.5213879196e+00 4.3671719823e+00 
900 7.1798466296e+00 3.5607713013e-01 2.5145761314e+00 -4.3553736191e+00 2.5145761314e+00 4.3553736191e+00 
1000 7.1897892335e+00 3.6533674144e-01 2.5074992020e+00 -4.3431160177e+00 2.5074992020e+00 4.3431160177e+00 
1100 7.1969088598e+00 3.7060259274e-01 2.5002178571e+00 -4.3305043585e+00 2.5002178571e+00 4.3305043585e+00 
1200 7.2009439299e+00 3.7141516255e-01 2.4928101236e+00 -4.3176737877e+00 2.4928101236e+00 4.3176737877e+00 
1300 7.2019192351e+00 3.6801752204e-01 2.4853641170e+00 -4.3047769259e+00 2.4853641170e+00 4.3047769259e+00 
1400 7.2001884499e+00 3.6141675658e-01 2.4779641095e+00 -4.2919597370e+00 2.4779641095e+00 4.2919597370e+00 
1500 7.1963386399e+00 3.5304760539e-01 2.4706750823e+00 -4.2793347715e+00 2.4706750823e+00 4.2793347715e+00 
1600 7.1910105746e+00 3.4424830450e-01 2.4635337759e+00 -4.2669656660e+00 2.4635337759e+00 4.2669656660e+00 
1700 7.1847478529e+00 3.3590368664e-01 2.4565502077e+00 -4.2548697712e+00 2.4565502077e+00 4.2548697712e+00 
1800 7.1779373332e+00 3.2839731380e-01 2.4497164895e+00 -4.2430334239e+00 2.4497164895e+00 4.2430334239e+00 
1900 7.1708234686e+00 3.2175908435e-01 2.4430167928e+00 -4.2314292089e+00 2.4430167928e+00 4.2314292089e+00 
2000 7.1635506236e+00 3.1584370627e-01 2.4364344774e+00 -4.2200283042e+00 2.4364344774e+00 4.2200283042e+00 
2100 7.1562025745e+00 3.1045625321e-01 2.4299556803e+00 -4.2088066985e+00 2.4299556803e+00 4.2088066985e+00 
2200 7.1488295034e+00 3.0541622368e-01 2.4235703814e+00 -4.1977470363e+00 2.4235703814e+00 4.1977470363e+00 
2300 7.1414637424e+00 3.0058026228e-01 2.4172721625e+00 -4.1868382011e+00 2.4172721625e+00 4.1868382011e+00 
2400 7.1341281594e+00 2.9584397862e-01 2.4110574903e+00 -4.1760740732e+00 2.4110574903e+00 4.1760740732e+00 
2500 7.1268404005e+00 2.9113573358e-01 2.4049249490e+00 -4.1654522001e+00 2.4049249490e+00 4.1654522001e+00 
2600 7.1196149884e+00 2.8640875164e-01 2.3988745877e+00 -4.1549726668e+00 2.3988745877e+00 4.1549726668e+00 
2700 7.1124643616e+00 2.8163408711e-01 2.3929074215e+00 -4.1446372318e+00 2.3929074215e+00 4.1446372318e+00 
2800 7.1053994039e+00 2.7679512891e-01 2.3870250717e+00 -4.1344487032e+00 2.3870250717e+00 4.1344487032e+00 
2900 7.0984297326e+00 2.7188358347e-01 2.3812295146e+00 -4.1244105038e+00 2.3812295146e+00 4.1244105038e+00 
3000 7.0915638702e+00 2.6689664783e-01 2.3755229105e+00 -4.1145263755e+00 2.3755229105e+00 4.1145263755e+00 
3100 7.0848093607e+00 2.6183506599e-01 2.3699074899e+00 -4.1048001817e+00 2.3699074899e+00 4.1048001817e+00 
3200 7.0781728563e+00 2.5670181312e-01 2.3643854788e+00 -4.0952357780e+00 2.3643854788e+00 4.0952357780e+00 
3300 7.0716601895e+00 2.5150121476e-01 2.3589590507e+00 -4.0858369287e+00 2.3589590507e+00 4.0858369287e+00 
3400 7.0652764355e+00 2.4623836255e-01 2.3536302961e+00 -4.0766072551e+00 2.3536302961e+00 4.0766072551e+00 
3500 7.0590259674e+00 2.4091873036e-01 2.3484012049e+00 -4.0675502035e+00 2.3484012049e+00 4.0675502035e+00 
3600 7.0529125079e+00 2.3554792462e-01 2.3432736561e+00 -4.0586690285e+00 2.3432736561e+00 4.0586690285e+00 
3700 7.0469391757e+00 2.3013152430e-01 2.3382494128e+00 -4.0499667838e+00 2.3382494128e+00 4.0499667838e+00 
3800 7.0411085291e+00 2.2467498031e-01 2.3333301208e+00 -4.0414463201e+00 2.3333301208e+00 4.0414463201e+00 
3900 7.0354226062e+00 2.1918355409e-01 2.3285173094e+00 -4.0331102862e+00 2.3285173094e+00 4.0331102862e+00 
4000 7.0298829621e+00 2.1366228197e-01 2.3238123934e+00 -4.0249611327e+00 2.3238123934e+00 4.0249611327e+00 
4100 7.0244907033e+00 2.0811595635e-01 2.3192166762e+00 -4.0170011169e+00 2.3192166762e+00 4.0170011169e+00 
4200 7.0192465200e+00 2.0254911741e-01 2.3147313531e+00 -4.0092323094e+00 2.3147313531e+00 4.0092323094e+00 
4300 7.0141507160e+00 1.9696605186e-01 2.3103575153e+00 -4.0016566002e+00 2.3103575153e+00 4.0016566002e+00 
4400 7.0092032363e+00 1.9137079570e-01 2.3060961538e+00 -3.9942757055e+00 2.3060961538e+00 3.9942757055e+00 
4500 7.0044036929e+00 1.8576713951e-01 2.3019481632e+00 -3.9870911750e+00 2.3019481632e+00 3.9870911750e+00 
4600 6.9997513888e+00 1.8015863518e-01 2.2979143457e+00 -3.9801043982e+00 2.2979143457e+00 3.9801043982e+00 
4700 6.9952453406e+00 1.7454860326e-01 2.2939954154e+00 -3.9733166117e+00 2.2939954154e+00 3.9733166117e+00 
4800 6.9908842990e+00 1.6894014068e-01 2.2901920016e+00 -3.9667289058e+00 2.2901920016e+00 3.9667289058e+00 
4900 6.9866667685e+00 1.6333612840e-01 2.2865046530e+00 -3.9603422308e+00 2.2865046530e+00 3.9603422308e+00 
5000 6.9825910257e+00 1.5773923903e-01 2.2829338417e+00 -3.9541574041e+00 2.2829338417e+00 3.9541574041e+00 
5100 6.9786551358e+00 1.5215194424e-01 2.2794799660e+00 -3.9481751159e+00 2.2794799660e+00 3.9481751159e+00 
5200 6.9748569693e+00 1.4657652200e-01 2.2761433549e+00 -3.9423959360e+00 2.2761433549e+00 3.9423959360e+00 
5300 6.9711942161e+00 1.4101506367e-01 2.2729242713e+00 -3.9368203196e+00 2.2729242713e+00 3.9368203196e+00 
5400 6.9676644002e+00 1.3546948094e-01 2.2698229153e+00 -3.9314486135e+00 2.2698229153e+00 3.9314486135e+00 
5500 6.9642648924e+00 1.2994151264e-01 2.2668394280e+00 -3.9262810619e+00 2.2668394280e+00 3.9262810619e+00 
5600 6.9609929227e+00 1.2443273153e-01 2.2639738943e+00 -3.9213178119e+00 2.2639738943e+00 3.9213178119e+00 
5700 6.9578455924e+00 1.1894455107e-01 2.2612263466e+00 -3.9165589197e+00 2.2612263466e+00 3.9165589197e+00 
5800 6.9548198842e+00 1.1347823212e-01 2.2585967676e+00 -3.9120043552e+00 2.2585967676e+00 3.9120043552e+00 
5900 6.9519126736e+00 1.0803488979e-01 2.2560850936e+00 -3.9076540084e+00 2.2560850936e+00 3.9076540084e+00 
6000 6.9491207376e+00 1.0261550027e-01 2.2536912176e+00 -3.9035076935e+00 2.2536912176e+00 3.9035076935e+00 
6100 6.9464407650e+00 9.7220907768e-02 2.2514149917e+00 -3.8995651545e+00 2.2514149917e+00 3.8995651545e+00 
6200 6.9438693642e+00 9.1851831598e-02 2.2492562303e+00 -3.8958260702e+00 2.2492562303e+00 3.8958260702e+00 
6300 6.9414030723e+00 8.6508873305e-02 2.2472147128e+00 -3.8922900580e+00 2.2472147128e+00 3.8922900580e+00 
6400 6.9390383624e+00 8.1192523966e-02 2.2452901857e+00 -3.8889566793e+00 2.2452901857e+00 3.8889566793e+00 
6500 6.9367716516e+00 7.5903171604e-02 2.2434823655e+00 -3.8858254429e+00 2.2434823655e+00 3.8858254429e+00 
6600 6.9345993078e+00 7.0641108717e-02 2.2417909409e+00 -3.8828958095e+00 2.2417909409e+00 3.8828958095e+00 
6700 6.9325176568e+00 6.5406539941e-02 2.2402155748e+00 -3.8801671954e+00 2.2402155748e+00 3.8801671954e+00 
6800 6.9305229887e+00 6.0199589823e-02 2.2387559065e+00 -3.8776389758e+00 2.2387559065e+00 3.8776389758e+00 
6900 6.9286115641e+00 5.5020310699e-02 2.2374115536e+00 -3.8753104883e+00 2.2374115536e+00 3.8753104883e+00 
7000 6.9267796205e+00 4.9868690669e-02 2.2361821135e+00 -3.8731810356e+00 2.2361821135e+00 3.8731810356e+00 
7100 6.9250233778e+00 4.4744661652e-02 2.2350671653e+00 -3.8712498887e+00 2.2350671653e+00 3.8712498887e+00 
7200 6.9233390441e+00 3.9648107507e-02 2.2340662710e+00 -3.8695162889e+00 2.2340662710e+00 3.8695162889e+00 
7300 6.9217228209e+00 3.4578872201e-02 2.2331789768e+00 -3.8679794502e+00 2.2331789768e+00 3.8679794502e+00 
7400 6.9201709088e+00 2.9536768002e-02 2.2324048142e+00 -3.8666385612e+00 2.2324048142e+00 3.8666385612e+00 
7500 6.9186795122e+00 2.4521583682e-02 2.2317433009e+00 -3.8654927866e+00 2.2317433009e+00 3.8654927866e+00 
7600 6.9172448448e+00 1.9533092705e-02 2.2311939416e+00 -3.8645412684e+00 2.2311939416e+00 3.8645412684e+00 
7700 6.9158631340e+00 1.4571061373e-02 2.2307562286e+00 -3.8637831272e+00 2.2307562286e+00 3.8637831272e+00 
7800 6.9145306264e+00 9.6352569095e-03 2.2304296419e+00 -3.8632174625e+00 2.2304296419e+00 3.8632174625e+00 
7900 6.9132435920e+00 4.7254554508e-03 2.2302136498e+00 -3.8628433533e+00 2.2302136498e+00 3.8628433533e+00 
8000 6.9119983290e+00 -1.5855007989e-04 2.2301077089e+00 -3.8626598582e+00 2.2301077089e+00 3.8626598582e+00 
8100 6.9107911690e+00 -5.0169422456e-03 2.2301112637e+00 -3.8626660152e+00 2.2301112637e+00 3.8626660152e+00 
8200 6.9096184810e+00 -9.8498715454e-03 2.2302237465e+00 -3.8628608412e+00 2.2302237465e+00 3.8628608412e+00 
8300 6.9084766763e+00 -1.4657449071e-02 2.2304445771e+00 -3.8632433311e+00 2.2304445771e+00 3.8632433311e+00 
8400 6.9073622130e+00 -1.9439739401e-02 2.2307731620e+00 -3.8638124568e+00 2.2307731620e+00 3.8638124568e+00 
8500 6.9062716008e+00 -2.4196753767e-02 2.2312088938e+00 -3.8645671663e+00 2.2312088938e+00 3.8645671663e+00 
8600 6.9052014053e+00 -2.8928443520e-02 2.2317511499e+00 -3.8655063814e+00 2.2317511499e+00 3.8655063814e+00 
8700 6.9041482529e+00 -3.3634693934e-02 2.2323992921e+00 -3.8666289967e+00 2.2323992921e+00 3.8666289967e+00 
8800 6.9031088351e+00 -3.8315318378e-02 2.2331526651e+00 -3.8679338769e+00 2.2331526651e+00 3.8679338769e+00 
8900 6.9020799134e+00 -4.2970052892e-02 2.2340105950e+00 -3.8694198552e+00 2.2340105950e+00 3.8694198552e+00 
9000 6.9010583235e+00 -4.7598551189e-02 2.2349723884e+00 -3.8710857303e+00 2.2349723884e+00 3.8710857303e+00 
9100 6.9000409803e+00 -5.2200380138e-02 2.2360373307e+00 -3.8729302643e+00 2.2360373307e+00 3.8729302643e+00 
9200 6.8990248824e+00 -5.6775015733e-02 2.2372046841e+00 -3.8749521799e+00 2.2372046841e+00 3.8749521799e+00 
9300 6.8980071168e+00 -6.1321839598e-02 2.2384736869e+00 -3.8771501572e+00 2.2384736869e+00 3.8771501572e+00 
9400 6.8969848629e+00 -6.5840136048e-02 2.2398435509e+00 -3.8795228312e+00 2.2398435509e+00 3.8795228312e+00 
9500 6.8959553980e+00 -7.0329089735e-02 2.2413134601e+00 -3.8820687886e+00 2.2413134601e+00 3.8820687886e+00 
9600 6.8949161009e+00 -7.4787783906e-02 2.2428825688e+00 -3.8847865646e+00 2.2428825688e+00 3.8847865646e+00 
9700 6.8938644570e+00 -7.9215199291e-02 2.2445499999e+00 -3.8876746399e+00 2.2445499999e+00 3.8876746399e+00 
9800 6.8927980623e+00 -8.3610213651e-02 2.2463148430e+00 -3.8907314378e+00 2.2463148430e+00 3.8907314378e+00 
9900 6.8917146278e+00 -8.7971601988e-02 2.2481761526e+00 -3.8939553207e+00 2.2481761526e+00 3.8939553207e+00 
10000 6.8906119837e+00 -9.2298037442e-02 2.2501329466e+00 -3.8973445872e+00 2.2501329466e+00 3.8973445872e+00 
10100 6.8894880832e+00 -9.6588092876e-02 2.2521842042e+00 -3.9008974696e+00 2.2521842042e+00 3.9008974696e+00 
10200 6.8883410066e+00 -1.0084024316e-01 2.2543288646e+00 -3.9046121304e+00 2.2543288646e+00 3.9046121304e+00 
10300 6.8871689649e+00 -1.0505286817e-01 2.2565658252e+00 -3.9084866599e+00 2.2565658252e+00 3.9084866599e+00 
10400 6.8859703030e+00 -1.0922425641e-01 2.2588939406e+00 -3.9125190740e+00 2.2588939406e+00 3.9125190740e+00 
10500 6.8847435032e+00 -1.1335260942e-01 2.2613120204e+00 -3.9167073112e+00 2.2613120204e+00 3.9167073112e+00 
10600 6.8834871879e+00 -1.1743604679e-01 2.2638188290e+00 -3.9210492309e+00 2.2638188290e+00 3.9210492309e+00 
10700 6.8822001223e+00 -1.2147261179e-01 2.2664130835e+00 -3.9255426116e+00 2.2664130835e+00 3.9255426116e+00 
10800 6.8808812163e+00 -1.2546027768e-01 2.2690934538e+00 -3.9301851490e+00 2.2690934538e+00 3.9301851490e+00 
10900 6.8795295269e+00 -1.2939695463e-01 2.2718585607e+00 -3.9349744548e+00 2.2718585607e+00 3.9349744548e+00 
11000 6.8781442595e+00 -1.3328049707e-01 2.2747069765e+00 -3.9399080556e+00 2.2747069765e+00 3.9399080556e+00 
11100 6.8767247687e+00 -1.3710871172e-01 2.2776372235e+00 -3.9449833924e+00 2.2776372235e+00 3.9449833924e+00 
11200 6.8752705589e+00 -1.4087936596e-01 2.2806477748e+00 -3.9501978200e+00 2.2806477748e+00 3.9501978200e+00 
11300 6.8737812850e+00 -1.4459019665e-01 2.2837370532e+00 -3.9555486073e+00 2.2837370532e+00 3.9555486073e+00 
11400 6.8722567513e+00 -1.4823891934e-01 2.2869034325e+00 -3.9610329371e+00 2.2869034325e+00 3.9610329371e+00 
11500 6.8706969108e+00 -1.5182323777e-01 2.2901452372e+00 -3.9666479075e+00 2.2901452372e+00 3.9666479075e+00 
11600 6.8691018638e+00 -1.5534085357e-01 2.2934607433e+00 -3.9723905325e+00 2.2934607433e+00 3.9723905325e+00 
11700 6.8674718563e+00 -1.5878947619e-01 2.2968481792e+00 -3.9782577437e+00 2.2968481792e+00 3.9782577437e+00 
11800 6.8658072765e+00 -1.6216683291e-01 2.3003057270e+00 -3.9842463920e+00 2.3003057270e+00 3.9842463920e+00 
11900 6.8641086525e+00 -1.6547067888e-01 2.3038315232e+00 -3.9903532503e+00 2.3038315232e+00 3.9903532503e+00 
12000 6.8623766484e+00 -1.6869880716e-01 2.3074236609e+00 -3.9965750153e+00 2.3074236609e+00 3.9965750153e+00 
12100 6.8606120598e+00 -1.7184905867e-01 2.3110801910e+00 -4.0029083112e+00 2.3110801910e+00 4.0029083112e+00 
12200 6.8588158093e+00 -1.7491933190e-01 2.3147991243e+00 -4.0093496926e+00 2.3147991243e+00 4.0093496926e+00 
12300 6.8569889411e+00 -1.7790759246e-01 2.3185784336e+00 -4.0158956484e+00 2.3185784336e+00 4.0158956484e+00 
12400 6.8551326149e+00 -1.8081188234e-01 2.3224160561e+00 -4.0225426055e+00 2.3224160561e+00 4.0225426055e+00 
12500 6.8532480999e+00 -1.8363032873e-01 2.3263098957e+00 -4.0292869335e+00 2.3263098957e+00 4.0292869335e+00 
12600 6.8513367678e+00 -1.8636115251e-01 2.3302578255e+00 -4.0361249485e+00 2.3302578255e+00 4.0361249485e+00 
12700 6.8494000856e+00 -1.8900267618e-01 2.3342576911e+00 -4.0430529189e+00 2.3342576911e+00 4.0430529189e+00 
12800 6.8474396078e+00 -1.9155333136e-01 2.3383073128e+00 -4.0500670696e+00 2.3383073128e+00 4.0500670696e+00 
12900 6.8454569687e+00 -1.9401166563e-01 2.3424044894e+00 -4.0571635875e+00 2.3424044894e+00 4.0571635875e+00 
13000 6.8434538739e+00 -1.9637634882e-01 2.3465470005e+00 -4.0643386272e+00 2.3465470005e+00 4.0643386272e+00 
13100 6.8414320915e+00 -1.9864617862e-01 2.3507326104e+00 -4.0715883162e+00 2.3507326104e+00 4.0715883162e+00 
13200 6.8393934438e+00 -2.0082008555e-01 2.3549590711e+00 -4.0789087609e+00 2.3549590711e+00 4.0789087609e+00 
13300 6.8373397980e+00 -2.0289713719e-01 2.3592241256e+00 -4.0862960520e+00 2.3592241256e+00 4.0862960520e+00 
13400 6.8352730570e+00 -2.0487654176e-01 2.3635255113e+00 -4.0937462706e+00 2.3635255113e+00 4.0937462706e+00 
13500 6.8331951507e+00 -2.0675765094e-01 2.3678609636e+00 -4.1012554943e+00 2.3678609636e+00 4.1012554943e+00 
13600 6.8311080263e+00 -2.0853996194e-01 2.3722282190e+00 -4.1088198025e+00 2.3722282190e+00 4.1088198025e+00 
13700 6.8290136399e+00 -2.1022311896e-01 2.3766250187e+00 -4.1164352829e+00 2.3766250187e+00 4.1164352829e+00 
13800 6.8269139468e+00 -2.1180691380e-01 2.3810491116e+00 -4.1240980366e+00 2.3810491116e+00 4.1240980366e+00 
13900 6.8248108932e+00 -2.1329128590e-01 2.3854982582e+00 -4.1318041846e+00 2.3854982582e+00 4.1318041846e+00 
14000 6.8227064074e+00 -2.1467632161e-01 2.3899702335e+00 -4.1395498729e+00 2.3899702335e+00 4.1395498729e+00 
14100 6.8206023913e+00 -2.1596225288e-01 2.3944628298e+00 -4.1473312781e+00 2.3944628298e+00 4.1473312781e+00 
14200 6.8185007126e+00 -2.1714945529e-01 2.3989738607e+00 -4.1551446127e+00 2.3989738607e+00 4.1551446127e+00 
14300 6.8164031971e+00 -2.1823844553e-01 2.4035011631e+00 -4.1629861306e+00 2.4035011631e+00 4.1629861306e+00 
14400 6.8143116212e+00 -2.1922987826e-01 2.4080426010e+00 -4.1708521316e+00 2.4080426010e+00 4.1708521316e+00 
14500 6.8122277049e+00 -2.2012454253e-01 2.4125960673e+00 -4.1787389667e+00 2.4125960673e+00 4.1787389667e+00 
14600 6.8101531058e+00 -2.2092335774e-01 2.4171594873e+00 -4.1866430420e+00 2.4171594873e+00 4.1866430420e+00 
14700 6.8080894129e+00 -2.2162736908e-01 2.4217308207e+00 -4.1945608238e+00 2.4217308207e+00 4.1945608238e+00 
14800 6.8060381409e+00 -2.2223774270e-01 2.4263080642e+00 -4.2024888420e+00 2.4263080642e+00 4.2024888420e+00 
14900 6.8040007259e+00 -2.2275576050e-01 2.4308892534e+00 -4.2104236944e+00 2.4308892534e+00 4.2104236944e+00 
15000 6.8019785202e+00 -2.2318281457e-01 2.4354724651e+00 -4.2183620500e+00 2.4354724651e+00 4.2183620500e+00 
15100 6.7999727894e+00 -2.2352040151e-01 2.4400558194e+00 -4.2263006525e+00 2.4400558194e+00 4.2263006525e+00 
15200 6.7979847084e+00 -2.2377011645e-01 2.4446374810e+00 -4.2342363231e+00 2.4446374810e+00 4.2342363231e+00 
15300 6.7960153591e+00 -2.2393364695e-01 2.4492156610e+00 -4.2421659635e+00 2.4492156610e+00 4.2421659635e+00 
15400 6.7940657281e+00 -2.2401276680e-01 2.4537886184e+00 -4.2500865581e+00 2.4537886184e+00 4.2500865581e+00 
15500 6.7921367051e+00 -2.2400932967e-01 2.4583546615e+00 -4.2579951767e+00 2.4583546615e+00 4.2579951767e+00 
15600 6.7902290821e+00 -2.2392526287e-01 2.4629121486e+00 -4.2658889760e+00 2.4629121486e+00 4.2658889760e+00 
15700 6.7883435525e+00 -2.2376256094e-01 2.4674594895e+00 -4.2737652014e+00 2.4674594895e+00 4.2737652014e+00 
15800 6.7864807116e+00 -2.2352327938e-01 2.4719951459e+00 -4.2816211887e+00 2.4719951459e+00 4.2816211887e+00 
15900 6.7846410567e+00 -2.2320952841e-01 2.4765176323e+00 -4.2894543650e+00 2.4765176323e+00 4.2894543650e+00 
16000 6.7828249882e+00 -2.2282346679e-01 2.4810255166e+00 -4.2972622497e+00 2.4810255166e+00 4.2972622497e+00 
16100 6.7810328113e+00 -2.2236729585e-01 2.4855174205e+00 -4.3050424554e+00 2.4855174205e+00 4.3050424554e+00 
16200 6.7792647376e+00 -2.2184325351e-01 2.4899920195e+00 -4.3127926882e+00 2.4899920195e+00 4.3127926882e+00 
16300 6.7775208875e+00 -2.2125360859e-01 2.4944480435e+00 -4.3205107482e+00 2.4944480435e+00 4.3205107482e+00 
16400 6.7758012927e+00 -2.2060065519e-01 2.4988842765e+00 -4.3281945291e+00 2.4988842765e+00 4.3281945291e+00 
16500 6.7741058998e+00 -2.1988670737e-01 2.5032995567e+00 -4.3358420187e+00 2.5032995567e+00 4.3358420187e+00 
16600 6.7724345727e+00 -2.1911409389e-01 2.5076927762e+00 -4.3434512982e+00 2.5076927762e+00 4.3434512982e+00 
16700 6.7707870970e+00 -2.1828515328e-01 2.5120628811e+00 -4.3510205418e+00 2.5120628811e+00 4.3510205418e+00 
16800 6.7691631836e+00 -2.1740222904e-01 2.5164088703e+00 -4.3585480160e+00 2.5164088703e+00 4.3585480160e+00 
16900 6.7675624727e+00 -2.1646766513e-01 2.5207297962e+00 -4.3660320791e+00 2.5207297962e+00 4.3660320791e+00 
17000 6.7659845381e+00 -2.1548380163e-01 2.5250247630e+00 -4.3734711798e+00 2.5250247630e+00 4.3734711798e+00 
17100 6.7644288919e+00 -2.1445297064e-01 2.5292929268e+00 -4.3808638565e+00 2.5292929268e+00 4.3808638565e+00 
17200 6.7628949887e+00 -2.1337749242e-01 2.5335334949e+00 -4.3882087359e+00 2.5335334949e+00 4.3882087359e+00 
17300 6.7613822306e+00 -2.1225967174e-01 2.5377457247e+00 -4.3955045319e+00 2.5377457247e+00 4.3955045319e+00 
17400 6.7598899718e+00 -2.1110179446e-01 2.5419289230e+00 -4.4027500439e+00 2.5419289230e+00 4.4027500439e+00 
17500 6.7584175236e+00 -2.0990612433e-01 2.5460824455e+00 -4.4099441558e+00 2.5460824455e+00 4.4099441558e+00 
17600 6.7569641589e+00 -2.0867489996e-01 2.5502056952e+00 -4.4170858338e+00 2.5502056952e+00 4.4170858338e+00 
17700 6.7555291171e+00 -2.0741033210e-01 2.5542981220e+00 -4.4241741251e+00 2.5542981220e+00 4.4241741251e+00 
17800 6.7541116094e+00 -2.0611460100e-01 2.5583592218e+00 -4.4312081562e+00 2.5583592218e+00 4.4312081562e+00 
17900 6.7527108226e+00 -2.0478985406e-01 2.5623885349e+00 -4.4381871312e+00 2.5623885349e+00 4.4381871312e+00 
18000 6.7513259248e+00 -2.0343820362e-01 2.5663856454e+00 -4.4451103296e+00 2.5663856454e+00 4.4451103296e+00 
18100 6.7499560690e+00 -2.0206172495e-01 2.5703501798e+00 -4.4519771047e+00 2.5703501798e+00 4.4519771047e+00 
18200 6.7486003985e+00 -2.0066245441e-01 2.5742818065e+00 -4.4587868818e+00 2.5742818065e+00 4.4587868818e+00 
18300 6.7472580502e+00 -1.9924238777e-01 2.5781802338e+00 -4.4655391561e+00 2.5781802338e+00 4.4655391561e+00 
18400 6.7459281600e+00 -1.9780347873e-01 2.5820452096e+00 -4.4722334904e+00 2.5820452096e+00 4.4722334904e+00 
18500 6.7446098656e+00 -1.9634763751e-01 2.5858765196e+00 -4.4788695140e+00 2.5858765196e+00 4.4788695140e+00 
18600 6.7433023113e+00 -1.9487672971e-01 2.5896739865e+00 -4.4854469197e+00 2.5896739865e+00 4.4854469197e+00 
18700 6.7420046512e+00 -1.9339257515e-01 2.5934374690e+00 -4.4919654625e+00 2.5934374690e+00 4.4919654625e+00 
18800 6.7407160529e+00 -1.9189694701e-01 2.5971668600e+00 -4.4984249572e+00 2.5971668600e+00 4.4984249572e+00 
18900 6.7394357006e+00 -1.9039157094e-01 2.6008620861e+00 -4.5048252766e+00 2.6008620861e+00 4.5048252766e+00 
19000 6.7381627984e+00 -1.8887812443e-01 2.6045231061e+00 -4.5111663493e+00 2.6045231061e+00 4.5111663493e+00 
19100 6.7368965731e+00 -1.8735823616e-01 2.6081499100e+00 -4.5174481579e+00 2.6081499100e+00 4.5174481579e+00 
19200 6.7356362767e+00 -1.8583348555e-01 2.6117425175e+00 -4.5236707366e+00 2.6117425175e+00 4.5236707366e+00 
19300 6.7343811891e+00 -1.8430540238e-01 2.6153009774e+00 -4.5298341699e+00 2.6153009774e+00 4.5298341699e+00 
19400 6.7331306202e+00 -1.8277546650e-01 2.6188253658e+00 -4.5359385898e+00 2.6188253658e+00 4.5359385898e+00 
19500 6.7318839120e+00 -1.8124510760e-01 2.6223157858e+00 -4.5419841744e+00 2.6223157858e+00 4.5419841744e+00 
19600 6.7306404402e+00 -1.7971570515e-01 2.6257723654e+00 -4.5479711459e+00 2.6257723654e+00 4.5479711459e+00 
19700 6.7293996159e+00 -1.7818858832e-01 2.6291952571e+00 -4.5538997683e+00 2.6291952571e+00 4.5538997683e+00 
19800 6.7281608870e+00 -1.7666503604e-01 2.6325846367e+00 -4.5597703460e+00 2.6325846367e+00 4.5597703460e+00 
19900 6.7269237394e+00 -1.7514627711e-01 2.6359407020e+00 -4.5655832215e+00 2.6359407020e+00 4.5655832215e+00 
20000 6.7256876976e+00 -1.7363349038e-01 2.6392636717e+00 -4.5713387739e+00 2.6392636717e+00 4.5713387739e+00 
20100 6.7244523259e+00 -1.7212780497e-01 2.6425537846e+00 -4.5770374167e+00 2.6425537846e+00 4.5770374167e+00 
20200 6.7232172286e+00 -1.7063030059e-01 2.6458112986e+00 -4.5826795965e+00 2.6458112986e+00 4.5826795965e+00 
20300 6.7219820504e+00 -1.6914200790e-01 2.6490364893e+00 -4.5882657905e+00 2.6490364893e+00 4.5882657905e+00 
20400 6.7207464768e+00 -1.6766390890e-01 2.6522296492e+00 -4.5937965057e+00 2.6522296492e+00 4.5937965057e+00 
20500 6.7195102338e+00 -1.6619693741e-01 2.6553910868e+00 -4.5992722763e+00 2.6553910868e+00 4.5992722763e+00 
20600 6.7182730879e+00 -1.6474197955e-01 2.6585211256e+00 -4.6046936625e+00 2.6585211256e+00 4.6046936625e+00 
20700 6.7170348457e+00 -1.6329987431e-01 2.6616201031e+00 -4.6100612490e+00 2.6616201031e+00 4.6100612490e+00 
20800 6.7157953535e+00 -1.6187141413e-01 2.6646883698e+00 -4.6153756428e+00 2.6646883698e+00 4.6153756428e+00 
20900 6.7145544964e+00 -1.6045734553e-01 2.6677262885e+00 -4.6206374723e+00 2.6677262885e+00 4.6206374723e+00 
21000 6.7133121978e+00 -1.5905836980e-01 2.6707342331e+00 -4.6258473852e+00 2.6707342331e+00 4.6258473852e+00 
21100 6.7120684186e+00 -1.5767514365e-01 2.6737125881e+00 -4.6310060474e+00 2.6737125881e+00 4.6310060474e+00 
21200 6.7108231557e+00 -1.5630827999e-01 2.6766617475e+00 -4.6361141414e+00 2.6766617475e+00 4.6361141414e+00 
21300 6.7095764415e+00 -1.5495834867e-01 2.6795821140e+00 -4.6411723646e+00 2.6795821140e+00 4.6411723646e+00 
21400 6.7083283421e+00 -1.5362587727e-01 2.6824740983e+00 -4.6461814283e+00 2.6824740983e+00 4.6461814283e+00 
21500 6.7070789566e+00 -1.5231135193e-01 2.6853381182e+00 -4.6511420562e+00 2.6853381182e+00 4.6511420562e+00 
21600 6.7058284150e+00 -1.5101521817e-01 2.6881745977e+00 -4.6560549828e+00 2.6881745977e+00 4.6560549828e+00 
21700 6.7045768777e+00 -1.4973788175e-01 2.6909839668e+00 -4.6609209528e+00 2.6909839668e+00 4.6609209528e+00 
21800 6.7033245329e+00 -1.4847970957e-01 2.6937666600e+00 -4.6657407188e+00 2.6937666600e+00 4.6657407188e+00 
21900 6.7020715958e+00 -1.4724103055e-01 2.6965231163e+00 -4.6705150412e+00 2.6965231163e+00 4.6705150412e+00 
22000 6.7008183068e+00 -1.4602213656e-01 2.6992537781e+00 -4.6752446861e+00 2.6992537781e+00 4.6752446861e+00 
22100 6.6995649298e+00 -1.4482328331e-01 2.7019590906e+00 -4.6799304248e+00 2.7019590906e+00 4.6799304248e+00 
22200 6.6983117505e+00 -1.4364469136e-01 2.7046395013e+00 -4.6845730323e+00 2.7046395013e+00 4.6845730323e+00 
22300 6.6970590748e+00 -1.4248654699e-01 2.7072954592e+00 -4.6891732864e+00 2.7072954592e+00 4.6891732864e+00 
22400 6.6958072270e+00 -1.4134900323e-01 2.7099274144e+00 -4.6937319665e+00 2.7099274144e+00 4.6937319665e+00 
22500 6.6945565482e+00 -1.4023218079e-01 2.7125358173e+00 -4.6982498530e+00 2.7125358173e+00 4.6982498530e+00 
22600 6.6933073944e+00 -1.3913616904e-01 2.7151211184e+00 -4.7027277257e+00 2.7151211184e+00 4.7027277257e+00 
22700 6.6920601351e+00 -1.3806102700e-01 2.7176837671e+00 -4.7071663634e+00 2.7176837671e+00 4.7071663634e+00 
22800 6.6908151514e+00 -1.3700678431e-01 2.7202242119e+00 -4.7115665429e+00 2.7202242119e+00 4.7115665429e+00 
22900 6.6895728343e+00 -1.3597344222e-01 2.7227428996e+00 -4.7159290380e+00 2.7227428996e+00 4.7159290380e+00 
23000 6.6883335834e+00 -1.3496097456e-01 2.7252402747e+00 -4.7202546185e+00 2.7252402747e+00 4.7202546185e+00 
23100 6.6870978047e+00 -1.3396932875e-01 2.7277167791e+00 -4.7245440501e+00 2.7277167791e+00 4.7245440501e+00 
23200 6.6858659096e+00 -1.3299842676e-01 2.7301728518e+00 -4.7287980927e+00 2.7301728518e+00 4.7287980927e+00 
23300 6.6846383132e+00 -1.3204816606e-01 2.7326089280e+00 -4.7330175005e+00 2.7326089280e+00 4.7330175005e+00 
23400 6.6834154326e+00 -1.3111842066e-01 2.7350254393e+00 -4.7372030209e+00 2.7350254393e+00 4.7372030209e+00 
23500 6.6821976856e+00 -1.3020904201e-01 2.7374228129e+00 -4.7413553938e+00 2.7374228129e+00 4.7413553938e+00 
23600 6.6809854896e+00 -1.2931985996e-01 2.7398014714e+00 -4.7454753512e+00 2.7398014714e+00 4.7454753512e+00 
23700 6.6797792597e+00 -1.2845068375e-01 2.7421618324e+00 -4.7495636163e+00 2.7421618324e+00 4.7495636163e+00 
23800 6.6785794079e+00 -1.2760130293e-01 2.7445043082e+00 -4.7536209034e+00 2.7445043082e+00 4.7536209034e+00 
23900 6.6773863418e+00 -1.2677148826e-01 2.7468293055e+00 -4.7576479168e+00 2.7468293055e+00 4.7576479168e+00 
24000 6.6762004631e+00 -1.2596099267e-01 2.7491372251e+00 -4.7616453508e+00 2.7491372251e+00 4.7616453508e+00 
24100 6.6750221670e+00 -1.2516955213e-01 2.7514284616e+00 -4.7656138889e+00 2.7514284616e+00 4.7656138889e+00 
24200 6.6738518407e+00 -1.2439688657e-01 2.7537034033e+00 -4.7695542034e+00 2.7537034033e+00 4.7695542034e+00 
24300 6.6726898630e+00 -1.2364270074e-01 2.7559624316e+00 -4.7734669552e+00 2.7559624316e+00 4.7734669552e+00 
24400 6.6715366027e+00 -1.2290668509e-01 2.7582059211e+00 -4.7773527932e+00 2.7582059211e+00 4.7773527932e+00 
24500 6.6703924184e+00 -1.2218851659e-01 2.7604342395e+00 -4.7812123538e+00 2.7604342395e+00 4.7812123538e+00 
24600 6.6692576572e+00 -1.2148785962e-01 2.7626477469e+00 -4.7850462610e+00 2.7626477469e+00 4.7850462610e+00 
24700 6.6681326546e+00 -1.2080436673e-01 2.7648467960e+00 -4.7888551258e+00 2.7648467960e+00 4.7888551258e+00 
24800 6.6670177332e+00 -1.2013767947e-01 2.7670317320e+00 -4.7926395459e+00 2.7670317320e+00 4.7926395459e+00 
24900 6.6659132026e+00 -1.1948742920e-01 2.7692028920e+00 -4.7964001055e+00 2.7692028920e+00 4.7964001055e+00 
25000 6.6648193585e+00 -1.1885323782e-01 2.7713606056e+00 -4.8001373750e+00 2.7713606056e+00 4.8001373750e+00 
25100 6.6637364827e+00 -1.1823471853e-01 2.7735051939e+00 -4.8038519109e+00 2.7735051939e+00 4.8038519109e+00 
25200 6.6626648424e+00 -1.1763147659e-01 2.7756369702e+00 -4.8075442558e+00 2.7756369702e+00 4.8075442558e+00 
25300 6.6616046898e+00 -1.1704311003e-01 2.7777562393e+00 -4.8112149375e+00 2.7777562393e+00 4.8112149375e+00 
25400 6.6605562622e+00 -1.1646921034e-01 2.7798632977e+00 -4.8148644697e+00 2.7798632977e+00 4.8148644697e+00 
25500 6.6595197812e+00 -1.1590936317e-01 2.7819584336e+00 -4.8184933516e+00 2.7819584336e+00 4.8184933516e+00 
25600 6.6584954532e+00 -1.1536314899e-01 2.7840419266e+00 -4.8221020673e+00 2.7840419266e+00 4.8221020673e+00 
25700 6.6574834688e+00 -1.1483014372e-01 2.7861140478e+00 -4.8256910865e+00 2.7861140478e+00 4.8256910865e+00 
25800 6.6564840029e+00 -1.1430991941e-01 2.7881750598e+00 -4.8292608640e+00 2.7881750598e+00 4.8292608640e+00 
25900 6.6554972147e+00 -1.1380204481e-01 2.7902252165e+00 -4.8328118396e+00 2.7902252165e+00 4.8328118396e+00 
26000 6.6545232476e+00 -1.1330608601e-01 2.7922647633e+00 -4.8363444382e+00 2.7922647633e+00 4.8363444382e+00 
26100 6.6535622296e+00 -1.1282160696e-01 2.7942939369e+00 -4.8398590700e+00 2.7942939369e+00 4.8398590700e+00 
26200 6.6526142730e+00 -1.1234817012e-01 2.7963129654e+00 -4.8433561299e+00 2.7963129654e+00 4.8433561299e+00 
26300 6.6516794749e+00 -1.1188533693e-01 2.7983220683e+00 -4.8468359983e+00 2.7983220683e+00 4.8468359983e+00 
26400 6.6507579171e+00 -1.1143266838e-01 2.8003214567e+00 -4.8502990405e+00 2.8003214567e+00 4.8502990405e+00 
26500 6.6498496666e+00 -1.1098972554e-01 2.8023113328e+00 -4.8537456070e+00 2.8023113328e+00 4.8537456070e+00 
26600 6.6489547756e+00 -1.1055607001e-01 2.8042918905e+00 -4.8571760336e+00 2.8042918905e+00 4.8571760336e+00 
26700 6.6480732819e+00 -1.1013126447e-01 2.8062633153e+00 -4.8605906416e+00 2.8062633153e+00 4.8605906416e+00 
26800 6.6472052095e+00 -1.0971487309e-01 2.8082257842e+00 -4.8639897374e+00 2.8082257842e+00 4.8639897374e+00 
26900 6.6463505684e+00 -1.0930646203e-01 2.8101794659e+00 -4.8673736133e+00 2.8101794659e+00 4.8673736133e+00 
27000 6.6455093552e+00 -1.0890559985e-01 2.8121245207e+00 -4.8707425471e+00 2.8121245207e+00 4.8707425471e+00 
27100 6.6446815538e+00 -1.0851185794e-01 2.8140611008e+00 -4.8740968023e+00 2.8140611008e+00 4.8740968023e+00 
27200 6.6438671351e+00 -1.0812481096e-01 2.8159893504e+00 -4.8774366284e+00 2.8159893504e+00 4.8774366284e+00 
27300 6.6430660582e+00 -1.0774403720e-01 2.8179094054e+00 -4.8807622612e+00 2.8179094054e+00 4.8807622612e+00 
27400 6.6422782703e+00 -1.0736911899e-01 2.8198213940e+00 -4.8840739226e+00 2.8198213940e+00 4.8840739226e+00 
27500 6.6415037074e+00 -1.0699964303e-01 2.8217254364e+00 -4.8873718209e+00 2.8217254364e+00 4.8873718209e+00 
27600 6.6407422944e+00 -1.0663520083e-01 2.8236216453e+00 -4.8906561510e+00 2.8236216453e+00 4.8906561510e+00 
27700 6.6399939462e+00 -1.0627538895e-01 2.8255101256e+00 -4.8939270949e+00 2.8255101256e+00 4.8939270949e+00 
27800 6.6392585676e+00 -1.0591980942e-01 2.8273909748e+00 -4.8971848213e+00 2.8273909748e+00 4.8971848213e+00 
27900 6.6385360538e+00 -1.0556807000e-01 2.8292642831e+00 -4.9004294864e+00 2.8292642831e+00 4.9004294864e+00 
28000 6.6378262914e+00 -1.0521978454e-01 2.8311301333e+00 -4.9036612336e+00 2.8311301333e+00 4.9036612336e+00 
28100 6.6371291584e+00 -1.0487457323e-01 2.8329886011e+00 -4.9068801944e+00 2.8329886011e+00 4.9068801944e+00 
28200 6.6364445245e+00 -1.0453206290e-01 2.8348397555e+00 -4.9100864879e+00 2.8348397555e+00 4.9100864879e+00 
28300 6.6357722524e+00 -1.0419188729e-01 2.8366836584e+00 -4.9132802214e+00 2.8366836584e+00 4.9132802214e+00 
28400 6.6351121973e+00 -1.0385368734e-01 2.8385203652e+00 -4.9164614909e+00 2.8385203652e+00 4.9164614909e+00 
28500 6.6344642081e+00 -1.0351711139e-01 2.8403499247e+00 -4.9196303808e+00 2.8403499247e+00 4.9196303808e+00 
28600 6.6338281276e+00 -1.0318181546e-01 2.8421723792e+00 -4.9227869647e+00 2.8421723792e+00 4.9227869647e+00 
28700 6.6332037928e+00 -1.0284746346e-01 2.8439877651e+00 -4.9259313053e+00 2.8439877651e+00 4.9259313053e+00 
28800 6.6325910356e+00 -1.0251372739e-01 2.8457961124e+00 -4.9290634547e+00 2.8457961124e+00 4.9290634547e+00 
28900 6.6319896833e+00 -1.0218028760e-01 2.8475974455e+00 -4.9321834552e+00 2.8475974455e+00 4.9321834552e+00 
29000 6.6313995585e+00 -1.0184683293e-01 2.8493917829e+00 -4.9352913387e+00 2.8493917829e+00 4.9352913387e+00 
29100 6.6308204805e+00 -1.0151306093e-01 2.8511791376e+00 -4.9383871277e+00 2.8511791376e+00 4.9383871277e+00 
29200 6.6302522647e+00 -1.0117867800e-01 2.8529595171e+00 -4.9414708355e+00 2.8529595171e+00 4.9414708355e+00 
29300 6.6296947236e+00 -1.0084339959e-01 2.8547329238e+00 -4.9445424661e+00 2.8547329238e+00 4.9445424661e+00 
29400 6.6291476671e+00 -1.0050695036e-01 2.8564993551e+00 -4.9476020148e+00 2.8564993551e+00 4.9476020148e+00 
29500 6.6286109028e+00 -1.0016906427e-01 2.8582588034e+00 -4.9506494687e+00 2.8582588034e+00 4.9506494687e+00 
29600 6.6280842366e+00 -9.9829484776e-02 2.8600112566e+00 -4.9536848066e+00 2.8600112566e+00 4.9536848066e+00 
29700 6.6275674725e+00 -9.9487964902e-02 2.8617566978e+00 -4.9567079995e+00 2.8617566978e+00 4.9567079995e+00 
29800 6.6270604137e+00 -9.9144267390e-02 2.8634951061e+00 -4.9597190110e+00 2.8634951061e+00 4.9597190110e+00 
29900 6.6265628625e+00 -9.8798164780e-02 2.8652264562e+00 -4.9627177974e+00 2.8652264562e+00 4.9627177974e+00 
30000 6.6260746205e+00 -9.8449439516e-02 2.8669507190e+00 -4.9657043081e+00 2.8669507190e+00 4.9657043081e+00 
30100 6.6255954893e+00 -9.8097884015e-02 2.8686678615e+00 -4.9686784862e+00 2.8686678615e+00 4.9686784862e+00 
30200 6.6251252707e+00 -9.7743300748e-02 2.8703778473e+00 -4.9716402684e+00 2.8703778473e+00 4.9716402684e+00 
30300 6.6246637666e+00 -9.7385502297e-02 2.8720806363e+00 -4.9745895855e+00 2.8720806363e+00 4.9745895855e+00 
30400 6.6242107797e+00 -9.7024311406e-02 2.8737761855e+00 -4.9775263628e+00 2.8737761855e+00 4.9775263628e+00 
30500 6.6237661139e+00 -9.6659561020e-02 2.8754644485e+00 -4.9804505202e+00 2.8754644485e+00 4.9804505202e+00 
30600 6.6233295739e+00 -9.6291094317e-02 2.8771453765e+00 -4.9833619729e+00 2.8771453765e+00 4.9833619729e+00 
30700 6.6229009659e+00 -9.5918764724e-02 2.8788189176e+00 -4.9862606311e+00 2.8788189176e+00 4.9862606311e+00 
30800 6.6224800980e+00 -9.5542435930e-02 2.8804850178e+00 -4.9891464012e+00 2.8804850178e+00 4.9891464012e+00 
30900 6.6220667799e+00 -9.5161981879e-02 2.8821436204e+00 -4.9920191852e+00 2.8821436204e+00 4.9920191852e+00 
31000 6.6216608233e+00 -9.4777286762e-02 2.8837946668e+00 -4.9948788815e+00 2.8837946668e+00 4.9948788815e+00 
31100 6.6212620424e+00 -9.4388244992e-02 2.8854380966e+00 -4.9977253855e+00 2.8854380966e+00 4.9977253855e+00 
31200 6.6208702535e+00 -9.3994761171e-02 2.8870738475e+00 -5.0005585891e+00 2.8870738475e+00 5.0005585891e+00 
31300 6.6204852758e+00 -9.3596750044e-02 2.8887018556e+00 -5.0033783817e+00 2.8887018556e+00 5.0033783817e+00 
31400 6.6201069309e+00 -9.3194136450e-02 2.8903220555e+00 -5.0061846504e+00 2.8903220555e+00 5.0061846504e+00 
31500 6.6197350435e+00 -9.2786855251e-02 2.8919343810e+00 -5.0089772800e+00 2.8919343810e+00 5.0089772800e+00 
31600 6.6193694412e+00 -9.2374851262e-02 2.8935387644e+00 -5.0117561535e+00 2.8935387644e+00 5.0117561535e+00 
31700 6.6190099547e+00 -9.1958079161e-02 2.8951351373e+00 -5.0145211526e+00 2.8951351373e+00 5.0145211526e+00 
31800 6.6186564181e+00 -9.1536503395e-02 2.8967234307e+00 -5.0172721575e+00 2.8967234307e+00 5.0172721575e+00 
31900 6.6183086684e+00 -9.1110098075e-02 2.8983035750e+00 -5.0200090477e+00 2.8983035750e+00 5.0200090477e+00 
32000 6.6179665465e+00 -9.0678846858e-02 2.8998755002e+00 -5.0227317020e+00 2.8998755002e+00 5.0227317020e+00 
32100 6.6176298966e+00 -9.0242742823e-02 2.9014391362e+00 -5.0254399989e+00 2.9014391362e+00 5.0254399989e+00 
32200 6.6172985663e+00 -8.9801788331e-02 2.9029944126e+00 -5.0281338167e+00 2.9029944126e+00 5.0281338167e+00 
32300 6.6169724071e+00 -8.9355994883e-02 2.9045412595e+00 -5.0308130342e+00 2.9045412595e+00 5.0308130342e+00 
32400 6.6166512740e+00 -8.8905382964e-02 2.9060796071e+00 -5.0334775303e+00 2.9060796071e+00 5.0334775303e+00 
32500 6.6163350258e+00 -8.8449981876e-02 2.9076093858e+00 -5.0361271848e+00 2.9076093858e+00 5.0361271848e+00 
32600 6.6160235250e+00 -8.7989829565e-02 2.9091305270e+00 -5.0387618787e+00 2.9091305270e+00 5.0387618787e+00 
32700 6.6157166380e+00 -8.7524972441e-02 2.9106429626e+00 -5.0413814939e+00 2.9106429626e+00 5.0413814939e+00 
32800 6.6154142350e+00 -8.7055465182e-02 2.9121466253e+00 -5.0439859141e+00 2.9121466253e+00 5.0439859141e+00 
32900 6.6151161900e+00 -8.6581370535e-02 2.9136414489e+00 -5.0465750245e+00 2.9136414489e+00 5.0465750245e+00 
33000 6.6148223807e+00 -8.6102759109e-02 2.9151273682e+00 -5.0491487123e+00 2.9151273682e+00 5.0491487123e+00 
33100 6.6145326890e+00 -8.5619709157e-02 2.9166043196e+00 -5.0517068671e+00 2.9166043196e+00 5.0517068671e+00 
33200 6.6142470002e+00 -8.5132306353e-02 2.9180722404e+00 -5.0542493806e+00 2.9180722404e+00 5.0542493806e+00 
33300 6.6139652038e+00 -8.4640643560e-02 2.9195310699e+00 -5.0567761474e+00 2.9195310699e+00 5.0567761474e+00 
33400 6.6136871928e+00 -8.4144820591e-02 2.9209807487e+00 -5.0592870646e+00 2.9209807487e+00 5.0592870646e+00 
33500 6.6134128644e+00 -8.3644943965e-02 2.9224212192e+00 -5.0617820328e+00 2.9224212192e+00 5.0617820328e+00 
33600 6.6131421190e+00 -8.3141126652e-02 2.9238524257e+00 -5.0642609552e+00 2.9238524257e+00 5.0642609552e+00 
33700 6.6128748613e+00 -8.2633487824e-02 2.9252743145e+00 -5.0667237389e+00 2.9252743145e+00 5.0667237389e+00 
33800 6.6126109992e+00 -8.2122152581e-02 2.9266868339e+00 -5.0691702942e+00 2.9266868339e+00 5.0691702942e+00 
33900 6.6123504446e+00 -8.1607251693e-02 2.9280899344e+00 -5.0716005355e+00 2.9280899344e+00 5.0716005355e+00 
34000 6.6120931128e+00 -8.1088921320e-02 2.9294835685e+00 -5.0740143806e+00 2.9294835685e+00 5.0740143806e+00 
34100 6.6118389226e+00 -8.0567302742e-02 2.9308676914e+00 -5.0764117517e+00 2.9308676914e+00 5.0764117517e+00 
34200 6.6115877965e+00 -8.0042542072e-02 2.9322422604e+00 -5.0787925750e+00 2.9322422604e+00 5.0787925750e+00 
34300 6.6113396602e+00 -7.9514789974e-02 2.9336072354e+00 -5.0811567811e+00 2.9336072354e+00 5.0811567811e+00 
34400 6.6110944429e+00 -7.8984201381e-02 2.9349625789e+00 -5.0835043049e+00 2.9349625789e+00 5.0835043049e+00 
34500 6.6108520769e+00 -7.8450935198e-02 2.9363082559e+00 -5.0858350859e+00 2.9363082559e+00 5.0858350859e+00 
34600 6.6106124980e+00 -7.7915154016e-02 2.9376442342e+00 -5.0881490681e+00 2.9376442342e+00 5.0881490681e+00 
34700 6.6103756449e+00 -7.7377023820e-02 2.9389704842e+00 -5.0904462005e+00 2.9389704842e+00 5.0904462005e+00 
34800 6.6101414595e+00 -7.6836713692e-02 2.9402869791e+00 -5.0927264367e+00 2.9402869791e+00 5.0927264367e+00 
34900 6.6099098865e+00 -7.6294395520e-02 2.9415936952e+00 -5.0949897352e+00 2.9415936952e+00 5.0949897352e+00 
35000 6.6096808737e+00 -7.5750243704e-02 2.9428906112e+00 -5.0972360597e+00 2.9428906112e+00 5.0972360597e+00 
35100 6.6094543716e+00 -7.5204434861e-02 2.9441777090e+00 -5.0994653785e+00 2.9441777090e+00 5.0994653785e+00 
35200 6.6092303334e+00 -7.4657147536e-02 2.9454549734e+00 -5.1016776654e+00 2.9454549734e+00 5.1016776654e+00 
35300 6.6090087150e+00 -7.4108561909e-02 2.9467223922e+00 -5.1038728991e+00 2.9467223922e+00 5.1038728991e+00 
35400 6.6087894747e+00 -7.3558859507e-02 2.9479799561e+00 -5.1060510636e+00 2.9479799561e+00 5.1060510636e+00 
35500 6.6085725735e+00 -7.3008222919e-02 2.9492276587e+00 -5.1082121479e+00 2.9492276587e+00 5.1082121479e+00 
35600 6.6083579744e+00 -7.2456835513e-02 2.9504654968e+00 -5.1103561464e+00 2.9504654968e+00 5.1103561464e+00 
35700 6.6081456430e+00 -7.1904881153e-02 2.9516934701e+00 -5.1124830586e+00 2.9516934701e+00 5.1124830586e+00 
35800 6.6079355468e+00 -7.1352543930e-02 2.9529115814e+00 -5.1145928893e+00 2.9529115814e+00 5.1145928893e+00 
35900 6.6077276555e+00 -7.0800007885e-02 2.9541198365e+00 -5.1166856485e+00 2.9541198365e+00 5.1166856485e+00 
36000 6.6075219407e+00 -7.0247456744e-02 2.9553182441e+00 -5.1187613513e+00 2.9553182441e+00 5.1187613513e+00 
36100 6.6073183758e+00 -6.9695073658e-02 2.9565068160e+00 -5.1208200182e+00 2.9565068160e+00 5.1208200182e+00 
36200 6.6071169362e+00 -6.9143040946e-02 2.9576855669e+00 -5.1228616747e+00 2.9576855669e+00 5.1228616747e+00 
36300 6.6069175987e+00 -6.8591539846e-02 2.9588545146e+00 -5.1248863514e+00 2.9588545146e+00 5.1248863514e+00 
36400 6.6067203417e+00 -6.8040750270e-02 2.9600136796e+00 -5.1268940842e+00 2.9600136796e+00 5.1268940842e+00 
36500 6.6065251453e+00 -6.7490850570e-02 2.9611630857e+00 -5.1288849139e+00 2.9611630857e+00 5.1288849139e+00 
36600 6.6063319908e+00 -6.6942017304e-02 2.9623027591e+00 -5.1308588862e+00 2.9623027591e+00 5.1308588862e+00 
36700 6.6061408609e+00 -6.6394425018e-02 2.9634327292e+00 -5.1328160518e+00 2.9634327292e+00 5.1328160518e+00 
36800 6.6059517393e+00 -6.5848246028e-02 2.9645530281e+00 -5.1347564664e+00 2.9645530281e+00 5.1347564664e+00 
36900 6.6057646110e+00 -6.5303650214e-02 2.9656636905e+00 -5.1366801902e+00 2.9656636905e+00 5.1366801902e+00 
37000 6.6055794620e+00 -6.4760804820e-02 2.9667647542e+00 -5.1385872884e+00 2.9667647542e+00 5.1385872884e+00 
37100 6.6053962791e+00 -6.4219874266e-02 2.9678562592e+00 -5.1404778306e+00 2.9678562592e+00 5.1404778306e+00 
37200 6.6052150501e+00 -6.3681019961e-02 2.9689382485e+00 -5.1423518910e+00 2.9689382485e+00 5.1423518910e+00 
37300 6.6050357635e+00 -6.3144400135e-02 2.9700107675e+00 -5.1442095484e+00 2.9700107675e+00 5.1442095484e+00 
37400 6.6048584085e+00 -6.2610169669e-02 2.9710738641e+00 -5.1460508857e+00 2.9710738641e+00 5.1460508857e+00 
37500 6.6046829749e+00 -6.2078479944e-02 2.9721275886e+00 -5.1478759901e+00 2.9721275886e+00 5.1478759901e+00 
37600 6.6045094531e+00 -6.1549478690e-02 2.9731719939e+00 -5.1496849531e+00 2.9731719939e+00 5.1496849531e+00 
37700 6.6043378337e+00 -6.1023309851e-02 2.9742071350e+00 -5.1514778700e+00 2.9742071350e+00 5.1514778700e+00 
37800 6.6041681082e+00 -6.0500113457e-02 2.9752330692e+00 -5.1532548402e+00 2.9752330692e+00 5.1532548402e+00 
37900 6.6040002678e+00 -5.9980025502e-02 2.9762498560e+00 -5.1550159667e+00 2.9762498560e+00 5.1550159667e+00 
38000 6.6038343046e+00 -5.9463177836e-02 2.9772575572e+00 -5.1567613563e+00 2.9772575572e+00 5.1567613563e+00 
38100 6.6036702104e+00 -5.8949698064e-02 2.9782562364e+00 -5.1584911193e+00 2.9782562364e+00 5.1584911193e+00 
38200 6.6035079775e+00 -5.8439709456e-02 2.9792459592e+00 -5.1602053695e+00 2.9792459592e+00 5.1602053695e+00 
38300 6.6033475980e+00 -5.7933330860e-02 2.9802267932e+00 -5.1619042238e+00 2.9802267932e+00 5.1619042238e+00 
38400 6.6031890644e+00 -5.7430676633e-02 2.9811988078e+00 -5.1635878025e+00 2.9811988078e+00 5.1635878025e+00 
38500 6.6030323688e+00 -5.6931856577e-02 2.9821620741e+00 -5.1652562287e+00 2.9821620741e+00 5.1652562287e+00 
38600 6.6028775037e+00 -5.6436975879e-02 2.9831166649e+00 -5.1669096286e+00 2.9831166649e+00 5.1669096286e+00 
38700 6.6027244611e+00 -5.5946135068e-02 2.9840626547e+00 -5.1685481309e+00 2.9840626547e+00 5.1685481309e+00 
38800 6.6025732332e+00 -5.5459429978e-02 2.9850001193e+00 -5.1701718673e+00 2.9850001193e+00 5.1701718673e+00 
38900 6.6024238120e+00 -5.4976951714e-02 2.9859291361e+00 -5.1717809716e+00 2.9859291361e+00 5.1717809716e+00 
39000 6.6022761890e+00 -5.4498786633e-02 2.9868497838e+00 -5.1733755802e+00 2.9868497838e+00 5.1733755802e+00 
39100 6.6021303560e+00 -5.4025016333e-02 2.9877621424e+00 -5.1749558316e+00 2.9877621424e+00 5.1749558316e+00 
39200 6.6019863043e+00 -5.3555717645e-02 2.9886662930e+00 -5.1765218664e+00 2.9886662930e+00 5.1765218664e+00 
39300 6.6018440249e+00 -5.3090962635e-02 2.9895623180e+00 -5.1780738272e+00 2.9895623180e+00 5.1780738272e+00 
39400 6.6017035085e+00 -5.2630818615e-02 2.9904503007e+00 -5.1796118583e+00 2.9904503007e+00 5.1796118583e+00 
39500 6.6015647459e+00 -5.2175348160e-02 2.9913303253e+00 -5.1811361057e+00 2.9913303253e+00 5.1811361057e+00 
39600 6.6014277271e+00 -5.1724609133e-02 2.9922024771e+00 -5.1826467169e+00 2.9922024771e+00 5.1826467169e+00 
39700 6.6012924422e+00 -5.1278654713e-02 2.9930668421e+00 -5.1841438409e+00 2.9930668421e+00 5.1841438409e+00 
39800 6.6011588806e+00 -5.0837533436e-02 2.9939235069e+00 -5.1856276279e+00 2.9939235069e+00 5.1856276279e+00 
39900 6.6010270318e+00 -5.0401289234e-02 2.9947725589e+00 -5.1870982291e+00 2.9947725589e+00 5.1870982291e+00 
40000 6.6008968848e+00 -4.9969961490e-02 2.9956140860e+00 -5.1885557969e+00 2.9956140860e+00 5.1885557969e+00 
40100 6.6007684281e+00 -4.9543585089e-02 2.9964481768e+00 -5.1900004844e+00 2.9964481768e+00 5.1900004844e+00 
40200 6.6006416501e+00 -4.9122190480e-02 2.9972749200e+00 -5.1914324456e+00 2.9972749200e+00 5.1914324456e+00 
40300 6.6005165389e+00 -4.8705803740e-02 2.9980944048e+00 -5.1928518351e+00 2.9980944048e+00 5.1928518351e+00 
40400 6.6003930821e+00 -4.8294446651e-02 2.9989067209e+00 -5.1942588077e+00 2.9989067209e+00 5.1942588077e+00 
40500 6.6002712673e+00 -4.7888136764e-02 2.9997119578e+00 -5.1956535189e+00 2.9997119578e+00 5.1956535189e+00 
40600 6.6001510814e+00 -4.7486887489e-02 3.0005102054e+00 -5.1970361244e+00 3.0005102054e+00 5.1970361244e+00 
40700 6.6000325114e+00 -4.7090708173e-02 3.0013015537e+00 -5.1984067799e+00 3.0013015537e+00 5.1984067799e+00 
40800 6.5999155438e+00 -4.6699604189e-02 3.0020860927e+00 -5.1997656412e+00 3.0020860927e+00 5.1997656412e+00 
40900 6.5998001650e+00 -4.6313577024e-02 3.0028639121e+00 -5.2011128640e+00 3.0028639121e+00 5.2011128640e+00 
41000 6.5996863608e+00 -4.5932624377e-02 3.0036351019e+00 -5.2024486039e+00 3.0036351019e+00 5.2024486039e+00 
41100 6.5995741173e+00 -4.5556740251e-02 3.0043997516e+00 -5.2037730160e+00 3.0043997516e+00 5.2037730160e+00 
41200 6.5994634198e+00 -4.5185915055e-02 3.0051579506e+00 -5.2050862551e+00 3.0051579506e+00 5.2050862551e+00 
41300 6.5993542539e+00 -4.4820135708e-02 3.0059097879e+00 -5.2063884756e+00 3.0059097879e+00 5.2063884756e+00 
41400 6.5992466047e+00 -4.4459385736e-02 3.0066553523e+00 -5.2076798311e+00 3.0066553523e+00 5.2076798311e+00 
41500 6.5991404571e+00 -4.4103645383e-02 3.0073947322e+00 -5.2089604745e+00 3.0073947322e+00 5.2089604745e+00 
41600 6.5990357961e+00 -4.3752891717e-02 3.0081280153e+00 -5.2102305582e+00 3.0081280153e+00 5.2102305582e+00 
41700 6.5989326062e+00 -4.3407098738e-02 3.0088552891e+00 -5.2114902334e+00 3.0088552891e+00 5.2114902334e+00 
41800 6.5988308721e+00 -4.3066237487e-02 3.0095766404e+00 -5.2127396504e+00 3.0095766404e+00 5.2127396504e+00 
41900 6.5987305782e+00 -4.2730276158e-02 3.0102921554e+00 -5.2139789587e+00 3.0102921554e+00 5.2139789587e+00 
42000 6.5986317087e+00 -4.2399180209e-02 3.0110019196e+00 -5.2152083065e+00 3.0110019196e+00 5.2152083065e+00 
42100 6.5985342479e+00 -4.2072912471e-02 3.0117060180e+00 -5.2164278407e+00 3.0117060180e+00 5.2164278407e+00 
42200 6.5984381801e+00 -4.1751433263e-02 3.0124045347e+00 -5.2176377071e+00 3.0124045347e+00 5.2176377071e+00 
42300 6.5983434892e+00 -4.1434700504e-02 3.0130975531e+00 -5.2188380501e+00 3.0130975531e+00 5.2188380501e+00 
42400 6.5982501593e+00 -4.1122669821e-02 3.0137851557e+00 -5.2200290128e+00 3.0137851557e+00 5.2200290128e+00 
42500 6.5981581745e+00 -4.0815294665e-02 3.0144674243e+00 -5.2212107367e+00 3.0144674243e+00 5.2212107367e+00 
42600 6.5980675187e+00 -4.0512526419e-02 3.0151444398e+00 -5.2223833619e+00 3.0151444398e+00 5.2223833619e+00 
42700 6.5979781760e+00 -4.0214314508e-02 3.0158162821e+00 -5.2235470269e+00 3.0158162821e+00 5.2235470269e+00 
42800 6.5978901303e+00 -3.9920606510e-02 3.0164830302e+00 -5.2247018685e+00 3.0164830302e+00 5.2247018685e+00 
42900 6.5978033656e+00 -3.9631348263e-02 3.0171447622e+00 -5.2258480219e+00 3.0171447622e+00 5.2258480219e+00 
43000 6.5977178660e+00 -3.9346483974e-02 3.0178015551e+00 -5.2269856206e+00 3.0178015551e+00 5.2269856206e+00 
43100 6.5976336155e+00 -3.9065956321e-02 3.0184534850e+00 -5.2281147962e+00 3.0184534850e+00 5.2281147962e+00 
43200 6.5975505984e+00 -3.8789706561e-02 3.0191006268e+00 -5.2292356788e+00 3.0191006268e+00 5.2292356788e+00 
43300 6.5974687986e+00 -3.8517674634e-02 3.0197430546e+00 -5.2303483964e+00 3.0197430546e+00 5.2303483964e+00 
43400 6.5973882005e+00 -3.8249799258e-02 3.0203808411e+00 -5.2314530751e+00 3.0203808411e+00 5.2314530751e+00 
43500 6.5973087883e+00 -3.7986018036e-02 3.0210140582e+00 -5.2325498393e+00 3.0210140582e+00 5.2325498393e+00 
43600 6.5972305465e+00 -3.7726267548e-02 3.0216427765e+00 -5.2336388113e+00 3.0216427765e+00 5.2336388113e+00 
43700 6.5971534594e+00 -3.7470483451e-02 3.0222670655e+00 -5.2347201115e+00 3.0222670655e+00 5.2347201115e+00 
43800 6.5970775117e+00 -3.7218600567e-02 3.0228869936e+00 -5.2357938584e+00 3.0228869936e+00 5.2357938584e+00 
43900 6.5970026879e+00 -3.6970552982e-02 3.0235026280e+00 -5.2368601685e+00 3.0235026280e+00 5.2368601685e+00 
44000 6.5969289728e+00 -3.6726274130e-02 3.0241140347e+00 -5.2379191560e+00 3.0241140347e+00 5.2379191560e+00 
44100 6.5968563512e+00 -3.6485696881e-02 3.0247212787e+00 -5.2389709335e+00 3.0247212787e+00 5.2389709335e+00 
44200 6.5967848080e+00 -3.6248753628e-02 3.0253244237e+00 -5.2400156113e+00 3.0253244237e+00 5.2400156113e+00 
44300 6.5967143283e+00 -3.6015376366e-02 3.0259235322e+00 -5.2410532976e+00 3.0259235322e+00 5.2410532976e+00 
44400 6.5966448972e+00 -3.5785496777e-02 3.0265186655e+00 -5.2420840987e+00 3.0265186655e+00 5.2420840987e+00 
44500 6.5965765000e+00 -3.5559046304e-02 3.0271098837e+00 -5.2431081187e+00 3.0271098837e+00 5.2431081187e+00 
44600 6.5965091220e+00 -3.5335956228e-02 3.0276972459e+00 -5.2441254598e+00 3.0276972459e+00 5.2441254598e+00 
44700 6.5964427488e+00 -3.5116157739e-02 3.0282808097e+00 -5.2451362220e+00 3.0282808097e+00 5.2451362220e+00 
44800 6.5963773658e+00 -3.4899582009e-02 3.0288606317e+00 -5.2461405032e+00 3.0288606317e+00 5.2461405032e+00 
44900 6.5963129588e+00 -3.4686160259e-02 3.0294367673e+00 -5.2471383993e+00 3.0294367673e+00 5.2471383993e+00 
45000 6.5962495137e+00 -3.4475823825e-02 3.0300092707e+00 -5.2481300042e+00 3.0300092707e+00 5.2481300042e+00 
45100 6.5961870164e+00 -3.4268504217e-02 3.0305781947e+00 -5.2491154095e+00 3.0305781947e+00 5.2491154095e+00 
45200 6.5961254529e+00 -3.4064133187e-02 3.0311435913e+00 -5.2500947051e+00 3.0311435913e+00 5.2500947051e+00 
45300 6.5960648094e+00 -3.3862642780e-02 3.0317055109e+00 -5.2510679785e+00 3.0317055109e+00 5.2510679785e+00 
45400 6.5960050722e+00 -3.3663965393e-02 3.0322640032e+00 -5.2520353155e+00 3.0322640032e+00 5.2520353155e+00 
45500 6.5959462276e+00 -3.3468033827e-02 3.0328191164e+00 -5.2529967997e+00 3.0328191164e+00 5.2529967997e+00 
45600 6.5958882623e+00 -3.3274781340e-02 3.0333708975e+00 -5.2539525127e+00 3.0333708975e+00 5.2539525127e+00 
45700 6.5958311627e+00 -3.3084141690e-02 3.0339193927e+00 -5.2549025342e+00 3.0339193927e+00 5.2549025342e+00 
45800 6.5957749158e+00 -3.2896049186e-02 3.0344646466e+00 -5.2558469418e+00 3.0344646466e+00 5.2558469418e+00 
45900 6.5957195082e+00 -3.2710438729e-02 3.0350067032e+00 -5.2567858112e+00 3.0350067032e+00 5.2567858112e+00 
46000 6.5956649270e+00 -3.2527245855e-02 3.0355456049e+00 -5.2577192164e+00 3.0355456049e+00 5.2577192164e+00 
46100 6.5956111592e+00 -3.2346406772e-02 3.0360813933e+00 -5.2586472291e+00 3.0360813933e+00 5.2586472291e+00 
46200 6.5955581921e+00 -3.2167858396e-02 3.0366141088e+00 -5.2595699194e+00 3.0366141088e+00 5.2595699194e+00 
46300 6.5955060130e+00 -3.1991538387e-02 3.0371437908e+00 -5.2604873555e+00 3.0371437908e+00 5.2604873555e+00 
46400 6.5954546091e+00 -3.1817385184e-02 3.0376704774e+00 -5.2613996035e+00 3.0376704774e+00 5.2613996035e+00 
46500 6.5954039681e+00 -3.1645338029e-02 3.0381942060e+00 -5.2623067281e+00 3.0381942060e+00 5.2623067281e+00 
46600 6.5953540776e+00 -3.1475337000e-02 3.0387150128e+00 -5.2632087919e+00 3.0387150128e+00 5.2632087919e+00 
46700 6.5953049254e+00 -3.1307323034e-02 3.0392329329e+00 -5.2641058558e+00 3.0392329329e+00 5.2641058558e+00 
46800 6.5952564992e+00 -3.1141237953e-02 3.0397480005e+00 -5.2649979790e+00 3.0397480005e+00 5.2649979790e+00 
46900 6.5952087870e+00 -3.0977024487e-02 3.0402602487e+00 -5.2658852190e+00 3.0402602487e+00 5.2658852190e+00 
47000 6.5951617770e+00 -3.0814626291e-02 3.0407697099e+00 -5.2667676316e+00 3.0407697099e+00 5.2667676316e+00 
47100 6.5951154572e+00 -3.0653987967e-02 3.0412764152e+00 -5.2676452709e+00 3.0412764152e+00 5.2676452709e+00 
47200 6.5950698161e+00 -3.0495055079e-02 3.0417803949e+00 -5.2685181895e+00 3.0417803949e+00 5.2685181895e+00 
47300 6.5950248419e+00 -3.0337774167e-02 3.0422816785e+00 -5.2693864381e+00 3.0422816785e+00 5.2693864381e+00 
47400 6.5949805233e+00 -3.0182092764e-02 3.0427802945e+00 -5.2702500663e+00 3.0427802945e+00 5.2702500663e+00 
47500 6.5949368489e+00 -3.0027959402e-02 3.0432762703e+00 -5.2711091217e+00 3.0432762703e+00 5.2711091217e+00 
47600 6.5948938074e+00 -2.9875323629e-02 3.0437696329e+00 -5.2719636507e+00 3.0437696329e+00 5.2719636507e+00 
47700 6.5948513877e+00 -2.9724136012e-02 3.0442604080e+00 -5.2728136981e+00 3.0442604080e+00 5.2728136981e+00 
47800 6.5948095787e+00 -2.9574348148e-02 3.0447486206e+00 -5.2736593072e+00 3.0447486206e+00 5.2736593072e+00 
47900 6.5947683697e+00 -2.9425912668e-02 3.0452342951e+00 -5.2745005201e+00 3.0452342951e+00 5.2745005201e+00 
48000 6.5947277499e+00 -2.9278783242e-02 3.0457174548e+00 -5.2753373773e+00 3.0457174548e+00 5.2753373773e+00 
48100 6.5946877086e+00 -2.9132914584e-02 3.0461981224e+00 -5.2761699180e+00 3.0461981224e+00 5.2761699180e+00 
48200 6.5946482353e+00 -2.8988262450e-02 3.0466763198e+00 -5.2769981801e+00 3.0466763198e+00 5.2769981801e+00 
48300 6.5946093196e+00 -2.8844783643e-02 3.0471520680e+00 -5.2778222001e+00 3.0471520680e+00 5.2778222001e+00 
48400 6.5945709512e+00 -2.8702436013e-02 3.0476253875e+00 -5.2786420136e+00 3.0476253875e+00 5.2786420136e+00 
48500 6.5945331201e+00 -2.8561178451e-02 3.0480962980e+00 -5.2794576545e+00 3.0480962980e+00 5.2794576545e+00 
48600 6.5944958163e+00 -2.8420970894e-02 3.0485648184e+00 -5.2802691557e+00 3.0485648184e+00 5.2802691557e+00 
48700 6.5944590298e+00 -2.8281774315e-02 3.0490309672e+00 -5.2810765491e+00 3.0490309672e+00 5.2810765491e+00 
48800 6.5944227510e+00 -2.8143550722e-02 3.0494947620e+00 -5.2818798652e+00 3.0494947620e+00 5.2818798652e+00 
48900 6.5943869703e+00 -2.8006263155e-02 3.0499562197e+00 -5.2826791334e+00 3.0499562197e+00 5.2826791334e+00 
49000 6.5943516782e+00 -2.7869875675e-02 3.0504153569e+00 -5.2834743824e+00 3.0504153569e+00 5.2834743824e+00 
49100 6.5943168654e+00 -2.7734353365e-02 3.0508721893e+00 -5.2842656393e+00 3.0508721893e+00 5.2842656393e+00 
49200 6.5942825228e+00 -2.7599662314e-02 3.0513267321e+00 -5.2850529306e+00 3.0513267321e+00 5.2850529306e+00 
49300 6.5942486413e+00 -2.7465769618e-02 3.0517790001e+00 -5.2858362816e+00 3.0517790001e+00 5.2858362816e+00 
49400 6.5942152122e+00 -2.7332643364e-02 3.0522290072e+00 -5.2866157167e+00 3.0522290072e+00 5.2866157167e+00 
49500 6.5941822265e+00 -2.7200252626e-02 3.0526767670e+00 -5.2873912595e+00 3.0526767670e+00 5.2873912595e+00 
49600 6.5941496759e+00 -2.7068567453e-02 3.0531222926e+00 -5.2881629326e+00 3.0531222926e+00 5.2881629326e+00 
49700 6.5941175518e+00 -2.6937558858e-02 3.0535655966e+00 -5.2889307575e+00 3.0535655966e+00 5.2889307575e+00 
49800 6.5940858459e+00 -2.6807198812e-02 3.0540066909e+00 -5.2896947552e+00 3.0540066909e+00 5.2896947552e+00 
49900 6.5940545502e+00 -2.6677460227e-02 3.0544455871e+00 -5.2904549458e+00 3.0544455871e+00 5.2904549458e+00 
50000 6.5940236567e+00 -2.6548316948e-02 3.0548822964e+00 -5.2912113485e+00 3.0548822964e+00 5.2912113485e+00 
50100 6.5939931575e+00 -2.6419743741e-02 3.0553168294e+00 -5.2919639818e+00 3.0553168294e+00 5.2919639818e+00 
50200 6.5939630450e+00 -2.6291716281e-02 3.0557491965e+00 -5.2927128635e+00 3.0557491965e+00 5.2927128635e+00 
50300 6.5939333116e+00 -2.6164211139e-02 3.0561794074e+00 -5.2934580107e+00 3.0561794074e+00 5.2934580107e+00 
50400 6.5939039500e+00 -2.6037205767e-02 3.0566074716e+00 -5.2941994397e+00 3.0566074716e+00 5.2941994397e+00 
50500 6.5938749530e+00 -2.5910678492e-02 3.0570333983e+00 -5.2949371662e+00 3.0570333983e+00 5.2949371662e+00 
50600 6.5938463136e+00 -2.5784608495e-02 3.0574571960e+00 -5.2956712055e+00 3.0574571960e+00 5.2956712055e+00 
50700 6.5938180248e+00 -2.5658975802e-02 3.0578788732e+00 -5.2964015718e+00 3.0578788732e+00 5.2964015718e+00 
50800 6.5937900798e+00 -2.5533761270e-02 3.0582984380e+00 -5.2971282793e+00 3.0582984380e+00 5.2971282793e+00 
50900 6.5937624722e+00 -2.5408946572e-02 3.0587158979e+00 -5.2978513411e+00 3.0587158979e+00 5.2978513411e+00 
51000 6.5937351954e+00 -2.5284514186e-02 3.0591312605e+00 -5.2985707702e+00 3.0591312605e+00 5.2985707702e+00 
51100 6.5937082431e+00 -2.5160447379e-02 3.0595445328e+00 -5.2992865788e+00 3.0595445328e+00 5.2992865788e+00 
51200 6.5936816093e+00 -2.5036730193e-02 3.0599557216e+00 -5.2999987787e+00 3.0599557216e+00 5.2999987787e+00 
51300 6.5936552878e+00 -2.4913347432e-02 3.0603648335e+00 -5.3007073814e+00 3.0603648335e+00 5.3007073814e+00 
51400 6.5936292729e+00 -2.4790284649e-02 3.0607718749e+00 -5.3014123976e+00 3.0607718749e+00 5.3014123976e+00 
51500 6.5936035589e+00 -2.4667528129e-02 3.0611768516e+00 -5.3021138380e+00 3.0611768516e+00 5.3021138380e+00 
51600 6.5935781401e+00 -2.4545064877e-02 3.0615797697e+00 -5.3028117126e+00 3.0615797697e+00 5.3028117126e+00 
51700 6.5935530113e+00 -2.4422882605e-02 3.0619806347e+00 -5.3035060310e+00 3.0619806347e+00 5.3035060310e+00 
51800 6.5935281670e+00 -2.4300969716e-02 3.0623794519e+00 -5.3041968027e+00 3.0623794519e+00 5.3041968027e+00 
51900 6.5935036022e+00 -2.4179315292e-02 3.0627762266e+00 -5.3048840367e+00 3.0627762266e+00 5.3048840367e+00 
52000 6.5934793119e+00 -2.4057909078e-02 3.0631709638e+00 -5.3055677416e+00 3.0631709638e+00 5.3055677416e+00 
52100 6.5934552912e+00 -2.3936741468e-02 3.0635636683e+00 -5.3062479258e+00 3.0635636683e+00 5.3062479258e+00 
52200 6.5934315353e+00 -2.3815803495e-02 3.0639543449e+00 -5.3069245974e+00 3.0639543449e+00 5.3069245974e+00 
52300 6.5934080397e+00 -2.3695086813e-02 3.0643429980e+00 -5.3075977644e+00 3.0643429980e+00 5.3075977644e+00 
52400 6.5933847998e+00 -2.3574583686e-02 3.0647296320e+00 -5.3082674341e+00 3.0647296320e+00 5.3082674341e+00 
52500 6.5933618114e+00 -2.3454286973e-02 3.0651142512e+00 -5.3089336141e+00 3.0651142512e+00 5.3089336141e+00 
52600 6.5933390702e+00 -2.3334190115e-02 3.0654968597e+00 -5.3095963115e+00 3.0654968597e+00 5.3095963115e+00 
52700 6.5933165721e+00 -2.3214287123e-02 3.0658774615e+00 -5.3102555331e+00 3.0658774615e+00 5.3102555331e+00 
52800 6.5932943130e+00 -2.3094572562e-02 3.0662560605e+00 -5.3109112859e+00 3.0662560605e+00 5.3109112859e+00 
52900 6.5932722891e+00 -2.2975041540e-02 3.0666326606e+00 -5.3115635763e+00 3.0666326606e+00 5.3115635763e+00 
53000 6.5932504966e+00 -2.2855689696e-02 3.0670072655e+00 -5.3122124110e+00 3.0670072655e+00 5.3122124110e+00 
53100 6.5932289319e+00 -2.2736513182e-02 3.0673798787e+00 -5.3128577961e+00 3.0673798787e+00 5.3128577961e+00 
53200 6.5932075914e+00 -2.2617508656e-02 3.0677505040e+00 -5.3134997379e+00 3.0677505040e+00 5.3134997379e+00 
53300 6.5931864716e+00 -2.2498673268e-02 3.0681191449e+00 -5.3141382426e+00 3.0681191449e+00 5.3141382426e+00 
53400 6.5931655691e+00 -2.2380004644e-02 3.0684858047e+00 -5.3147733160e+00 3.0684858047e+00 5.3147733160e+00 
53500 6.5931448807e+00 -2.2261500877e-02 3.0688504870e+00 -5.3154049643e+00 3.0688504870e+00 5.3154049643e+00 
53600 6.5931244033e+00 -2.2143160514e-02 3.0692131951e+00 -5.3160331931e+00 3.0692131951e+00 5.3160331931e+00 
53700 6.5931041336e+00 -2.2024982543e-02 3.0695739324e+00 -5.3166580085e+00 3.0695739324e+00 5.3166580085e+00 
53800 6.5930840688e+00 -2.1906966382e-02 3.0699327022e+00 -5.3172794161e+00 3.0699327022e+00 5.3172794161e+00 
53900 6.5930642059e+00 -2.1789111865e-02 3.0702895080e+00 -5.3178974217e+00 3.0702895080e+00 5.3178974217e+00 
54000 6.5930445421e+00 -2.1671419232e-02 3.0706443529e+00 -5.3185120311e+00 3.0706443529e+00 5.3185120311e+00 
54100 6.5930250745e+00 -2.1553889118e-02 3.0709972403e+00 -5.3191232500e+00 3.0709972403e+00 5.3191232500e+00 
54200 6.5930058006e+00 -2.1436522538e-02 3.0713481735e+00 -5.3197310842e+00 3.0713481735e+00 5.3197310842e+00 
54300 6.5929867177e+00 -2.1319320879e-02 3.0716971559e+00 -5.3203355395e+00 3.0716971559e+00 5.3203355395e+00 
54400 6.5929678232e+00 -2.1202285887e-02 3.0720441908e+00 -5.3209366215e+00 3.0720441908e+00 5.3209366215e+00 
54500 6.5929491147e+00 -2.1085419655e-02 3.0723892816e+00 -5.3215343363e+00 3.0723892816e+00 5.3215343363e+00 
54600 6.5929305898e+00 -2.0968724614e-02 3.0727324316e+00 -5.3221286897e+00 3.0727324316e+00 5.3221286897e+00 
54700 6.5929122461e+00 -2.0852203519e-02 3.0730736444e+00 -5.3227196876e+00 3.0730736444e+00 5.3227196876e+00 
54800 6.5928940813e+00 -2.0735859441e-02 3.0734129234e+00 -5.3233073360e+00 3.0734129234e+00 5.3233073360e+00 
54900 6.5928760932e+00 -2.0619695754e-02 3.0737502722e+00 -5.3238916412e+00 3.0737502722e+00 5.3238916412e+00 
55000 6.5928582796e+00 -2.0503716125e-02 3.0740856942e+00 -5.3244726092e+00 3.0740856942e+00 5.3244726092e+00 
55100 6.5928406383e+00 -2.0387924502e-02 3.0744191931e+00 -5.3250502463e+00 3.0744191931e+00 5.3250502463e+00 
55200 6.5928231672e+00 -2.0272325107e-02 3.0747507727e+00 -5.3256245589e+00 3.0747507727e+00 5.3256245589e+00 
55300 6.5928058644e+00 -2.0156922422e-02 3.0750804366e+00 -5.3261955536e+00 3.0750804366e+00 5.3261955536e+00 
55400 6.5927887277e+00 -2.0041721178e-02 3.0754081887e+00 -5.3267632368e+00 3.0754081887e+00 5.3267632368e+00 
55500 6.5927717554e+00 -1.9926726350e-02 3.0757340328e+00 -5.3273276154e+00 3.0757340328e+00 5.3273276154e+00 
55600 6.5927549453e+00 -1.9811943140e-02 3.0760579730e+00 -5.3278886963e+00 3.0760579730e+00 5.3278886963e+00 
55700 6.5927382957e+00 -1.9697376971e-02 3.0763800132e+00 -5.3284464863e+00 3.0763800132e+00 5.3284464863e+00 
55800 6.5927218048e+00 -1.9583033477e-02 3.0767001577e+00 -5.3290009927e+00 3.0767001577e+00 5.3290009927e+00 
55900 6.5927054706e+00 -1.9468918491e-02 3.0770184105e+00 -5.3295522228e+00 3.0770184105e+00 5.3295522228e+00 
56000 6.5926892915e+00 -1.9355038037e-02 3.0773347760e+00 -5.3301001840e+00 3.0773347760e+00 5.3301001840e+00 
56100 6.5926732656e+00 -1.9241398318e-02 3.0776492587e+00 -5.3306448839e+00 3.0776492587e+00 5.3306448839e+00 
56200 6.5926573914e+00 -1.9128005709e-02 3.0779618629e+00 -5.3311863304e+00 3.0779618629e+00 5.3311863304e+00 
56300 6.5926416670e+00 -1.9014866746e-02 3.0782725934e+00 -5.3317245312e+00 3.0782725934e+00 5.3317245312e+00 
56400 6.5926260909e+00 -1.8901988116e-02 3.0785814546e+00 -5.3322594947e+00 3.0785814546e+00 5.3322594947e+00 
56500 6.5926106614e+00 -1.8789376647e-02 3.0788884516e+00 -5.3327912290e+00 3.0788884516e+00 5.3327912290e+00 
56600 6.5925953769e+00 -1.8677039303e-02 3.0791935891e+00 -5.3333197426e+00 3.0791935891e+00 5.3333197426e+00 
56700 6.5925802358e+00 -1.8564983167e-02 3.0794968722e+00 -5.3338450443e+00 3.0794968722e+00 5.3338450443e+00 
56800 6.5925652366e+00 -1.8453215441e-02 3.0797983059e+00 -5.3343671429e+00 3.0797983059e+00 5.3343671429e+00 
56900 6.5925503777e+00 -1.8341743429e-02 3.0800978956e+00 -5.3348860474e+00 3.0800978956e+00 5.3348860474e+00 
57000 6.5925356576e+00 -1.8230574531e-02 3.0803956465e+00 -5.3354017671e+00 3.0803956465e+00 5.3354017671e+00 
57100 6.5925210749e+00 -1.8119716236e-02 3.0806915641e+00 -5.3359143115e+00 3.0806915641e+00 5.3359143115e+00 
57200 6.5925066279e+00 -1.8009176110e-02 3.0809856540e+00 -5.3364236901e+00 3.0809856540e+00 5.3364236901e+00 
57300 6.5924923154e+00 -1.7898961788e-02 3.0812779218e+00 -5.3369299128e+00 3.0812779218e+00 5.3369299128e+00 
57400 6.5924781358e+00 -1.7789080968e-02 3.0815683734e+00 -5.3374329898e+00 3.0815683734e+00 5.3374329898e+00 
57500 6.5924640877e+00 -1.7679541398e-02 3.0818570148e+00 -5.3379329312e+00 3.0818570148e+00 5.3379329312e+00 
57600 6.5924501698e+00 -1.7570350870e-02 3.0821438518e+00 -5.3384297476e+00 3.0821438518e+00 5.3384297476e+00 
57700 6.5924363805e+00 -1.7461517214e-02 3.0824288908e+00 -5.3389234495e+00 3.0824288908e+00 5.3389234495e+00 
57800 6.5924227187e+00 -1.7353048283e-02 3.0827121379e+00 -5.3394140480e+00 3.0827121379e+00 5.3394140480e+00 
57900 6.5924091828e+00 -1.7244951953e-02 3.0829935997e+00 -5.3399015541e+00 3.0829935997e+00 5.3399015541e+00 
58000 6.5923957716e+00 -1.7137236107e-02 3.0832732826e+00 -5.3403859791e+00 3.0832732826e+00 5.3403859791e+00 
58100 6.5923824837e+00 -1.7029908634e-02 3.0835511933e+00 -5.3408673346e+00 3.0835511933e+00 5.3408673346e+00 
58200 6.5923693179e+00 -1.6922977416e-02 3.0838273386e+00 -5.3413456322e+00 3.0838273386e+00 5.3413456322e+00 
58300 6.5923562728e+00 -1.6816450322e-02 3.0841017254e+00 -5.3418208841e+00 3.0841017254e+00 5.3418208841e+00 
58400 6.5923433471e+00 -1.6710335203e-02 3.0843743607e+00 -5.3422931022e+00 3.0843743607e+00 5.3422931022e+00 
58500 6.5923305397e+00 -1.6604639878e-02 3.0846452516e+00 -5.3427622990e+00 3.0846452516e+00 5.3427622990e+00 
58600 6.5923178492e+00 -1.6499372135e-02 3.0849144054e+00 -5.3432284871e+00 3.0849144054e+00 5.3432284871e+00 
58700 6.5923052743e+00 -1.6394539714e-02 3.0851818295e+00 -5.3436916793e+00 3.0851818295e+00 5.3436916793e+00 
58800 6.5922928140e+00 -1.6290150310e-02 3.0854475314e+00 -5.3441518885e+00 3.0854475314e+00 5.3441518885e+00 
58900 6.5922804669e+00 -1.6186211558e-02 3.0857115188e+00 -5.3446091280e+00 3.0857115188e+00 5.3446091280e+00 
59000 6.5922682319e+00 -1.6082731030e-02 3.0859737993e+00 -5.3450634112e+00 3.0859737993e+00 5.3450634112e+00 
59100 6.5922561078e+00 -1.5979716227e-02 3.0862343809e+00 -5.3455147517e+00 3.0862343809e+00 5.3455147517e+00 
59200 6.5922440934e+00 -1.5877174573e-02 3.0864932714e+00 -5.3459631634e+00 3.0864932714e+00 5.3459631634e+00 
59300 6.5922321876e+00 -1.5775113407e-02 3.0867504791e+00 -5.3464086601e+00 3.0867504791e+00 5.3464086601e+00 
59400 6.5922203892e+00 -1.5673539979e-02 3.0870060121e+00 -5.3468512562e+00 3.0870060121e+00 5.3468512562e+00 
59500 6.5922086971e+00 -1.5572461442e-02 3.0872598787e+00 -5.3472909661e+00 3.0872598787e+00 5.3472909661e+00 
59600 6.5921971102e+00 -1.5471884845e-02 3.0875120874e+00 -5.3477278043e+00 3.0875120874e+00 5.3477278043e+00 
59700 6.5921856275e+00 -1.5371817131e-02 3.0877626466e+00 -5.3481617856e+00 3.0877626466e+00 5.3481617856e+00 
59800 6.5921742477e+00 -1.5272265126e-02 3.0880115651e+00 -5.3485929251e+00 3.0880115651e+00 5.3485929251e+00 
59900 6.5921629699e+00 -1.5173235537e-02 3.0882588516e+00 -5.3490212378e+00 3.0882588516e+00 5.3490212378e+00 
60000 6.5921517929e+00 -1.5074734947e-02 3.0885045148e+00 -5.3494467391e+00 3.0885045148e+00 5.3494467391e+00 
60100 6.5921407159e+00 -1.4976769806e-02 3.0887485639e+00 -5.3498694445e+00 3.0887485639e+00 5.3498694445e+00 
60200 6.5921297376e+00 -1.4879346429e-02 3.0889910078e+00 -5.3502893697e+00 3.0889910078e+00 5.3502893697e+00 
60300 6.5921188572e+00 -1.4782470989e-02 3.0892318557e+00 -5.3507065305e+00 3.0892318557e+00 5.3507065305e+00 
60400 6.5921080735e+00 -1.4686149516e-02 3.0894711169e+00 -5.3511209429e+00 3.0894711169e+00 5.3511209429e+00 
60500 6.5920973857e+00 -1.4590387886e-02 3.0897088005e+00 -5.3515326231e+00 3.0897088005e+00 5.3515326231e+00 
60600 6.5920867927e+00 -1.4495191823e-02 3.0899449162e+00 -5.3519415875e+00 3.0899449162e+00 5.3519415875e+00 
60700 6.5920762937e+00 -1.4400566890e-02 3.0901794734e+00 -5.3523478524e+00 3.0901794734e+00 5.3523478524e+00 
60800 6.5920658875e+00 -1.4306518488e-02 3.0904124817e+00 -5.3527514346e+00 3.0904124817e+00 5.3527514346e+00 
60900 6.5920555734e+00 -1.4213051850e-02 3.0906439507e+00 -5.3531523508e+00 3.0906439507e+00 5.3531523508e+00 
61000 6.5920453504e+00 -1.4120172038e-02 3.0908738903e+00 -5.3535506178e+00 3.0908738903e+00 5.3535506178e+00 
61100 6.5920352176e+00 -1.4027883939e-02 3.0911023103e+00 -5.3539462528e+00 3.0911023103e+00 5.3539462528e+00 
61200 6.5920251741e+00 -1.3936192264e-02 3.0913292205e+00 -5.3543392729e+00 3.0913292205e+00 5.3543392729e+00 
61300 6.5920152191e+00 -1.3845101540e-02 3.0915546310e+00 -5.3547296953e+00 3.0915546310e+00 5.3547296953e+00 
61400 6.5920053516e+00 -1.3754616112e-02 3.0917785518e+00 -5.3551175375e+00 3.0917785518e+00 5.3551175375e+00 
61500 6.5919955708e+00 -1.3664740136e-02 3.0920009931e+00 -5.3555028171e+00 3.0920009931e+00 5.3555028171e+00 
61600 6.5919858759e+00 -1.3575477581e-02 3.0922219649e+00 -5.3558855515e+00 3.0922219649e+00 5.3558855515e+00 
61700 6.5919762660e+00 -1.3486832220e-02 3.0924414776e+00 -5.3562657586e+00 3.0924414776e+00 5.3562657586e+00 
61800 6.5919667404e+00 -1.3398807635e-02 3.0926595414e+00 -5.3566434562e+00 3.0926595414e+00 5.3566434562e+00 
61900 6.5919572983e+00 -1.3311407210e-02 3.0928761667e+00 -5.3570186622e+00 3.0928761667e+00 5.3570186622e+00 
62000 6.5919479388e+00 -1.3224634130e-02 3.0930913638e+00 -5.3573913945e+00 3.0930913638e+00 5.3573913945e+00 
62100 6.5919386612e+00 -1.3138491380e-02 3.0933051432e+00 -5.3577616714e+00 3.0933051432e+00 5.3577616714e+00 
62200 6.5919294647e+00 -1.3052981745e-02 3.0935175154e+00 -5.3581295109e+00 3.0935175154e+00 5.3581295109e+00 
62300 6.5919203485e+00 -1.2968107803e-02 3.0937284910e+00 -5.3584949312e+00 3.0937284910e+00 5.3584949312e+00 
62400 6.5919113120e+00 -1.2883871932e-02 3.0939380804e+00 -5.3588579507e+00 3.0939380804e+00 5.3588579507e+00 
62500 6.5919023545e+00 -1.2800276302e-02 3.0941462943e+00 -5.3592185877e+00 3.0941462943e+00 5.3592185877e+00 
62600 6.5918934751e+00 -1.2717322879e-02 3.0943531432e+00 -5.3595768606e+00 3.0943531432e+00 5.3595768606e+00 
62700 6.5918846731e+00 -1.2635013420e-02 3.0945586379e+00 -5.3599327879e+00 3.0945586379e+00 5.3599327879e+00 
62800 6.5918759480e+00 -1.2553349476e-02 3.0947627890e+00 -5.3602863880e+00 3.0947627890e+00 5.3602863880e+00 
62900 6.5918672990e+00 -1.2472332393e-02 3.0949656073e+00 -5.3606376795e+00 3.0949656073e+00 5.3606376795e+00 
63000 6.5918587254e+00 -1.2391963305e-02 3.0951671033e+00 -5.3609866809e+00 3.0951671033e+00 5.3609866809e+00 
63100 6.5918502265e+00 -1.2312243144e-02 3.0953672880e+00 -5.3613334108e+00 3.0953672880e+00 5.3613334108e+00 
63200 6.5918418018e+00 -1.2233172630e-02 3.0955661719e+00 -5.3616778879e+00 3.0955661719e+00 5.3616778879e+00 
63300 6.5918334506e+00 -1.2154752280e-02 3.0957637658e+00 -5.3620201306e+00 3.0957637658e+00 5.3620201306e+00 
63400 6.5918251721e+00 -1.2076982404e-02 3.0959600805e+00 -5.3623601577e+00 3.0959600805e+00 5.3623601577e+00 
63500 6.5918169659e+00 -1.1999863108e-02 3.0961551268e+00 -5.3626979878e+00 3.0961551268e+00 5.3626979878e+00 
63600 6.5918088313e+00 -1.1923394291e-02 3.0963489154e+00 -5.3630336394e+00 3.0963489154e+00 5.3630336394e+00 
63700 6.5918007676e+00 -1.1847575654e-02 3.0965414569e+00 -5.3633671312e+00 3.0965414569e+00 5.3633671312e+00 
63800 6.5917927743e+00 -1.1772406691e-02 3.0967327623e+00 -5.3636984817e+00 3.0967327623e+00 5.3636984817e+00 
63900 6.5917848509e+00 -1.1697886699e-02 3.0969228421e+00 -5.3640277096e+00 3.0969228421e+00 5.3640277096e+00 
64000 6.5917769966e+00 -1.1624014777e-02 3.0971117071e+00 -5.3643548333e+00 3.0971117071e+00 5.3643548333e+00 
64100 6.5917692109e+00 -1.1550789825e-02 3.0972993679e+00 -5.3646798715e+00 3.0972993679e+00 5.3646798715e+00 
64200 6.5917614933e+00 -1.1478210549e-02 3.0974858353e+00 -5.3650028424e+00 3.0974858353e+00 5.3650028424e+00 
64300 6.5917538432e+00 -1.1406275464e-02 3.0976711198e+00 -5.3653237647e+00 3.0976711198e+00 5.3653237647e+00 
64400 6.5917462600e+00 -1.1334982892e-02 3.0978552321e+00 -5.3656426566e+00 3.0978552321e+00 5.3656426566e+00 
64500 6.5917387433e+00 -1.1264330968e-02 3.0980381828e+00 -5.3659595364e+00 3.0980381828e+00 5.3659595364e+00 
64600 6.5917312923e+00 -1.1194317641e-02 3.0982199824e+00 -5.3662744226e+00 3.0982199824e+00 5.3662744226e+00 
64700 6.5917239067e+00 -1.1124940677e-02 3.0984006414e+00 -5.3665873331e+00 3.0984006414e+00 5.3665873331e+00 
64800 6.5917165859e+00 -1.1056197661e-02 3.0985801703e+00 -5.3668982863e+00 3.0985801703e+00 5.3668982863e+00 
64900 6.5917093294e+00 -1.0988086001e-02 3.0987585795e+00 -5.3672073001e+00 3.0987585795e+00 5.3672073001e+00 
65000 6.5917021365e+00 -1.0920602932e-02 3.0989358794e+00 -5.3675143925e+00 3.0989358794e+00 5.3675143925e+00 
65100 6.5916950070e+00 -1.0853745514e-02 3.0991120803e+00 -5.3678195814e+00 3.0991120803e+00 5.3678195814e+00 
65200 6.5916879401e+00 -1.0787510642e-02 3.0992871925e+00 -5.3681228846e+00 3.0992871925e+00 5.3681228846e+00 
65300 6.5916809355e+00 -1.0721895044e-02 3.0994612262e+00 -5.3684243200e+00 3.0994612262e+00 5.3684243200e+00 
65400 6.5916739926e+00 -1.0656895288e-02 3.0996341917e+00 -5.3687239049e+00 3.0996341917e+00 5.3687239049e+00 
65500 6.5916671109e+00 -1.0592507784e-02 3.0998060990e+00 -5.3690216571e+00 3.0998060990e+00 5.3690216571e+00 
65600 6.5916602900e+00 -1.0528728787e-02 3.0999769581e+00 -5.3693175938e+00 3.0999769581e+00 5.3693175938e+00 
65700 6.5916535293e+00 -1.0465554401e-02 3.1001467792e+00 -5.3696117324e+00 3.1001467792e+00 5.3696117324e+00 
65800 6.5916468284e+00 -1.0402980584e-02 3.1003155720e+00 -5.3699040901e+00 3.1003155720e+00 5.3699040901e+00 
65900 6.5916401869e+00 -1.0341003150e-02 3.1004833464e+00 -5.3701946840e+00 3.1004833464e+00 5.3701946840e+00 
66000 6.5916336041e+00 -1.0279617775e-02 3.1006501123e+00 -5.3704835310e+00 3.1006501123e+00 5.3704835310e+00 
66100 6.5916270798e+00 -1.0218820000e-02 3.1008158793e+00 -5.3707706478e+00 3.1008158793e+00 5.3707706478e+00 
66200 6.5916206134e+00 -1.0158605234e-02 3.1009806570e+00 -5.3710560513e+00 3.1009806570e+00 5.3710560513e+00 
66300 6.5916142044e+00 -1.0098968761e-02 3.1011444551e+00 -5.3713397579e+00 3.1011444551e+00 5.3713397579e+00 
66400 6.5916078525e+00 -1.0039905740e-02 3.1013072831e+00 -5.3716217841e+00 3.1013072831e+00 5.3716217841e+00 
66500 6.5916015570e+00 -9.9814112131e-03 3.1014691502e+00 -5.3719021462e+00 3.1014691502e+00 5.3719021462e+00 
66600 6.5915953177e+00 -9.9234801088e-03 3.1016300658e+00 -5.3721808602e+00 3.1016300658e+00 5.3721808602e+00 
66700 6.5915891341e+00 -9.8661072452e-03 3.1017900392e+00 -5.3724579423e+00 3.1017900392e+00 5.3724579423e+00 
66800 6.5915830056e+00 -9.8092873352e-03 3.1019490795e+00 -5.3727334081e+00 3.1019490795e+00 5.3727334081e+00 
66900 6.5915769320e+00 -9.7530149907e-03 3.1021071957e+00 -5.3730072735e+00 3.1021071957e+00 5.3730072735e+00 
67000 6.5915709127e+00 -9.6972847276e-03 3.1022643969e+00 -5.3732795539e+00 3.1022643969e+00 5.3732795539e+00 
67100 6.5915649473e+00 -9.6420909696e-03 3.1024206918e+00 -5.3735502647e+00 3.1024206918e+00 5.3735502647e+00 
67200 6.5915590354e+00 -9.5874280529e-03 3.1025760894e+00 -5.3738194212e+00 3.1025760894e+00 5.3738194212e+00 
67300 6.5915531765e+00 -9.5332902310e-03 3.1027305982e+00 -5.3740870383e+00 3.1027305982e+00 5.3740870383e+00 
67400 6.5915473703e+00 -9.4796716788e-03 3.1028842269e+00 -5.3743531310e+00 3.1028842269e+00 5.3743531310e+00 
67500 6.5915416163e+00 -9.4265664977e-03 3.1030369840e+00 -5.3746177140e+00 3.1030369840e+00 5.3746177140e+00 
67600 6.5915359141e+00 -9.3739687194e-03 3.1031888778e+00 -5.3748808018e+00 3.1031888778e+00 5.3748808018e+00 
67700 6.5915302633e+00 -9.3218723111e-03 3.1033399167e+00 -5.3751424089e+00 3.1033399167e+00 5.3751424089e+00 
67800 6.5915246635e+00 -9.2702711797e-03 3.1034901089e+00 -5.3754025494e+00 3.1034901089e+00 5.3754025494e+00 
67900 6.5915191142e+00 -9.2191591763e-03 3.1036394624e+00 -5.3756612373e+00 3.1036394624e+00 5.3756612373e+00 
68000 6.5915136151e+00 -9.1685301011e-03 3.1037879854e+00 -5.3759184866e+00 3.1037879854e+00 5.3759184866e+00 
68100 6.5915081658e+00 -9.1183777074e-03 3.1039356856e+00 -5.3761743108e+00 3.1039356856e+00 5.3761743108e+00 
68200 6.5915027658e+00 -9.0686957063e-03 3.1040825709e+00 -5.3764287236e+00 3.1040825709e+00 5.3764287236e+00 
68300 6.5914974148e+00 -9.0194777713e-03 3.1042286489e+00 -5.3766817382e+00 3.1042286489e+00 5.3766817382e+00 
68400 6.5914921124e+00 -8.9707175426e-03 3.1043739273e+00 -5.3769333678e+00 3.1043739273e+00 5.3769333678e+00 
68500 6.5914868581e+00 -8.9224086312e-03 3.1045184136e+00 -5.3771836254e+00 3.1045184136e+00 5.3771836254e+00 
68600 6.5914816516e+00 -8.8745446239e-03 3.1046621151e+00 -5.3774325236e+00 3.1046621151e+00 5.3774325236e+00 
68700 6.5914764926e+00 -8.8271190871e-03 3.1048050390e+00 -5.3776800752e+00 3.1048050390e+00 5.3776800752e+00 
68800 6.5914713805e+00 -8.7801255712e-03 3.1049471927e+00 -5.3779262925e+00 3.1049471927e+00 5.3779262925e+00 
68900 6.5914663151e+00 -8.7335576148e-03 3.1050885830e+00 -5.3781711878e+00 3.1050885830e+00 5.3781711878e+00 
69000 6.5914612959e+00 -8.6874087493e-03 3.1052292171e+00 -5.3784147731e+00 3.1052292171e+00 5.3784147731e+00 
69100 6.5914563226e+00 -8.6416725023e-03 3.1053691017e+00 -5.3786570603e+00 3.1053691017e+00 5.3786570603e+00 
69200 6.5914513948e+00 -8.5963424023e-03 3.1055082435e+00 -5.3788980611e+00 3.1055082435e+00 5.3788980611e+00 
69300 6.5914465122e+00 -8.5514119824e-03 3.1056466493e+00 -5.3791377870e+00 3.1056466493e+00 5.3791377870e+00 
69400 6.5914416743e+00 -8.5068747843e-03 3.1057843256e+00 -5.3793762492e+00 3.1057843256e+00 5.3793762492e+00 
69500 6.5914368809e+00 -8.4627243622e-03 3.1059212787e+00 -5.3796134590e+00 3.1059212787e+00 5.3796134590e+00 
69600 6.5914321314e+00 -8.4189542868e-03 3.1060575150e+00 -5.3798494272e+00 3.1060575150e+00 5.3798494272e+00 
69700 6.5914274257e+00 -8.3755581489e-03 3.1061930408e+00 -5.3800841647e+00 3.1061930408e+00 5.3800841647e+00 
69800 6.5914227633e+00 -8.3325295629e-03 3.1063278620e+00 -5.3803176820e+00 3.1063278620e+00 5.3803176820e+00 
69900 6.5914181438e+00 -8.2898621707e-03 3.1064619849e+00 -5.3805499896e+00 3.1064619849e+00 5.3805499896e+00 
70000 6.5914135670e+00 -8.2475496454e-03 3.1065954151e+00 -5.3807810976e+00 3.1065954151e+00 5.3807810976e+00 
70100 6.5914090324e+00 -8.2055856941e-03 3.1067281587e+00 -5.3810110161e+00 3.1067281587e+00 5.3810110161e+00 
70200 6.5914045398e+00 -8.1639640619e-03 3.1068602211e+00 -5.3812397550e+00 3.1068602211e+00 5.3812397550e+00 
70300 6.5914000888e+00 -8.1226785350e-03 3.1069916081e+00 -5.3814673240e+00 3.1069916081e+00 5.3814673240e+00 
70400 6.5913956789e+00 -8.0817229439e-03 3.1071223252e+00 -5.3816937326e+00 3.1071223252e+00 5.3816937326e+00 
70500 6.5913913100e+00 -8.0410911662e-03 3.1072523777e+00 -5.3819189901e+00 3.1072523777e+00 5.3819189901e+00 
70600 6.5913869817e+00 -8.0007771305e-03 3.1073817709e+00 -5.3821431057e+00 3.1073817709e+00 5.3821431057e+00 
70700 6.5913826936e+00 -7.9607748183e-03 3.1075105100e+00 -5.3823660884e+00 3.1075105100e+00 5.3823660884e+00 
70800 6.5913784454e+00 -7.9210782677e-03 3.1076386002e+00 -5.3825879470e+00 3.1076386002e+00 5.3825879470e+00 
70900 6.5913742367e+00 -7.8816815756e-03 3.1077660463e+00 -5.3828086903e+00 3.1077660463e+00 5.3828086903e+00 
71000 6.5913700673e+00 -7.8425789008e-03 3.1078928534e+00 -5.3830283266e+00 3.1078928534e+00 5.3830283266e+00 
71100 6.5913659369e+00 -7.8037644662e-03 3.1080190262e+00 -5.3832468643e+00 3.1080190262e+00 5.3832468643e+00 
71200 6.5913618450e+00 -7.7652325617e-03 3.1081445695e+00 -5.3834643116e+00 3.1081445695e+00 5.3834643116e+00 
71300 6.5913577915e+00 -7.7269775463e-03 3.1082694878e+00 -5.3836806765e+00 3.1082694878e+00 5.3836806765e+00 
71400 6.5913537759e+00 -7.6889938504e-03 3.1083937857e+00 -5.3838959668e+00 3.1083937857e+00 5.3838959668e+00 
71500 6.5913497980e+00 -7.6512759781e-03 3.1085174677e+00 -5.3841101903e+00 3.1085174677e+00 5.3841101903e+00 
71600 6.5913458574e+00 -7.6138185093e-03 3.1086405381e+00 -5.3843233544e+00 3.1086405381e+00 5.3843233544e+00 
71700 6.5913419539e+00 -7.5766161018e-03 3.1087630010e+00 -5.3845354665e+00 3.1087630010e+00 5.3845354665e+00 
71800 6.5913380871e+00 -7.5396634929e-03 3.1088848609e+00 -5.3847465339e+00 3.1088848609e+00 5.3847465339e+00 
71900 6.5913342568e+00 -7.5029555015e-03 3.1090061216e+00 -5.3849565636e+00 3.1090061216e+00 5.3849565636e+00 
72000 6.5913304626e+00 -7.4664870297e-03 3.1091267872e+00 -5.3851655626e+00 3.1091267872e+00 5.3851655626e+00 
72100 6.5913267043e+00 -7.4302530647e-03 3.1092468617e+00 -5.3853735377e+00 3.1092468617e+00 5.3853735377e+00 
72200 6.5913229815e+00 -7.3942486796e-03 3.1093663488e+00 -5.3855804955e+00 3.1093663488e+00 5.3855804955e+00 
72300 6.5913192940e+00 -7.3584690356e-03 3.1094852524e+00 -5.3857864426e+00 3.1094852524e+00 5.3857864426e+00 
72400 6.5913156414e+00 -7.3229093829e-03 3.1096035761e+00 -5.3859913852e+00 3.1096035761e+00 5.3859913852e+00 
72500 6.5913120235e+00 -7.2875650621e-03 3.1097213235e+00 -5.3861953297e+00 3.1097213235e+00 5.3861953297e+00 
72600 6.5913084401e+00 -7.2524315052e-03 3.1098384982e+00 -5.3863982822e+00 3.1098384982e+00 5.3863982822e+00 
72700 6.5913048907e+00 -7.2175042366e-03 3.1099551035e+00 -5.3866002486e+00 3.1099551035e+00 5.3866002486e+00 
72800 6.5913013752e+00 -7.1827788744e-03 3.1100711430e+00 -5.3868012348e+00 3.1100711430e+00 5.3868012348e+00 
72900 6.5912978933e+00 -7.1482511307e-03 3.1101866198e+00 -5.3870012465e+00 3.1101866198e+00 5.3870012465e+00 
73000 6.5912944446e+00 -7.1139168129e-03 3.1103015373e+00 -5.3872002894e+00 3.1103015373e+00 5.3872002894e+00 
73100 6.5912910289e+00 -7.0797718237e-03 3.1104158985e+00 -5.3873983690e+00 3.1104158985e+00 5.3873983690e+00 
73200 6.5912876460e+00 -7.0458121624e-03 3.1105297067e+00 -5.3875954905e+00 3.1105297067e+00 5.3875954905e+00 
73300 6.5912842956e+00 -7.0120339248e-03 3.1106429648e+00 -5.3877916593e+00 3.1106429648e+00 5.3877916593e+00 
73400 6.5912809773e+00 -6.9784333040e-03 3.1107556759e+00 -5.3879868806e+00 3.1107556759e+00 5.3879868806e+00 
73500 6.5912776911e+00 -6.9450065904e-03 3.1108678428e+00 -5.3881811593e+00 3.1108678428e+00 5.3881811593e+00 
73600 6.5912744364e+00 -6.9117501720e-03 3.1109794683e+00 -5.3883745005e+00 3.1109794683e+00 5.3883745005e+00 
73700 6.5912712133e+00 -6.8786605345e-03 3.1110905554e+00 -5.3885669089e+00 3.1110905554e+00 5.3885669089e+00 
73800 6.5912680212e+00 -6.8457342615e-03 3.1112011067e+00 -5.3887583893e+00 3.1112011067e+00 5.3887583893e+00 
73900 6.5912648601e+00 -6.8129680342e-03 3.1113111249e+00 -5.3889489464e+00 3.1113111249e+00 5.3889489464e+00 
74000 6.5912617296e+00 -6.7803586314e-03 3.1114206126e+00 -5.3891385848e+00 3.1114206126e+00 5.3891385848e+00 
74100 6.5912586296e+00 -6.7479029295e-03 3.1115295725e+00 -5.3893273088e+00 3.1115295725e+00 5.3893273088e+00 
74200 6.5912555597e+00 -6.7155979017e-03 3.1116380069e+00 -5.3895151228e+00 3.1116380069e+00 5.3895151228e+00 
74300 6.5912525196e+00 -6.6834406180e-03 3.1117459185e+00 -5.3897020312e+00 3.1117459185e+00 5.3897020312e+00 
74400 6.5912495093e+00 -6.6514282450e-03 3.1118533097e+00 -5.3898880381e+00 3.1118533097e+00 5.3898880381e+00 
74500 6.5912465283e+00 -6.6195580448e-03 3.1119601828e+00 -5.3900731477e+00 3.1119601828e+00 5.3900731477e+00 
74600 6.5912435765e+00 -6.5878273748e-03 3.1120665401e+00 -5.3902573640e+00 3.1120665401e+00 5.3902573640e+00 
74700 6.5912406537e+00 -6.5562336869e-03 3.1121723840e+00 -5.3904406910e+00 3.1121723840e+00 5.3904406910e+00 
74800 6.5912377595e+00 -6.5247745269e-03 3.1122777167e+00 -5.3906231326e+00 3.1122777167e+00 5.3906231326e+00 
74900 6.5912348938e+00 -6.4934475336e-03 3.1123825404e+00 -5.3908046926e+00 3.1123825404e+00 5.3908046926e+00 
75000 6.5912320563e+00 -6.4622504381e-03 3.1124868573e+00 -5.3909853748e+00 3.1124868573e+00 5.3909853748e+00 
75100 6.5912292468e+00 -6.4311810626e-03 3.1125906696e+00 -5.3911651829e+00 3.1125906696e+00 5.3911651829e+00 
75200 6.5912264650e+00 -6.4002373198e-03 3.1126939793e+00 -5.3913441206e+00 3.1126939793e+00 5.3913441206e+00 
75300 6.5912237108e+00 -6.3694172115e-03 3.1127967885e+00 -5.3915221914e+00 3.1127967885e+00 5.3915221914e+00 
75400 6.5912209839e+00 -6.3387188278e-03 3.1128990993e+00 -5.3916993988e+00 3.1128990993e+00 5.3916993988e+00 
75500 6.5912182840e+00 -6.3081403459e-03 3.1130009136e+00 -5.3918757464e+00 3.1130009136e+00 5.3918757464e+00 
75600 6.5912156109e+00 -6.2776800287e-03 3.1131022334e+00 -5.3920512375e+00 3.1131022334e+00 5.3920512375e+00 
75700 6.5912129645e+00 -6.2473362237e-03 3.1132030607e+00 -5.3922258755e+00 3.1132030607e+00 5.3922258755e+00 
75800 6.5912103445e+00 -6.2171073619e-03 3.1133033974e+00 -5.3923996637e+00 3.1133033974e+00 5.3923996637e+00 
75900 6.5912077506e+00 -6.1869919561e-03 3.1134032454e+00 -5.3925726055e+00 3.1134032454e+00 5.3925726055e+00 
76000 6.5912051827e+00 -6.1569885997e-03 3.1135026065e+00 -5.3927447040e+00 3.1135026065e+00 5.3927447040e+00 
76100 6.5912026405e+00 -6.1270959655e-03 3.1136014826e+00 -5.3929159625e+00 3.1136014826e+00 5.3929159625e+00 
76200 6.5912001239e+00 -6.0973128036e-03 3.1136998756e+00 -5.3930863840e+00 3.1136998756e+00 5.3930863840e+00 
76300 6.5911976325e+00 -6.0676379407e-03 3.1137977872e+00 -5.3932559718e+00 3.1137977872e+00 5.3932559718e+00 
76400 6.5911951663e+00 -6.0380702780e-03 3.1138952191e+00 -5.3934247290e+00 3.1138952191e+00 5.3934247290e+00 
76500 6.5911927249e+00 -6.0086087898e-03 3.1139921733e+00 -5.3935926585e+00 3.1139921733e+00 5.3935926585e+00 
76600 6.5911903082e+00 -5.9792525220e-03 3.1140886514e+00 -5.3937597634e+00 3.1140886514e+00 5.3937597634e+00 
76700 6.5911879159e+00 -5.9500005902e-03 3.1141846551e+00 -5.3939260468e+00 3.1141846551e+00 5.3939260468e+00 
76800 6.5911855480e+00 -5.9208521785e-03 3.1142801862e+00 -5.3940915116e+00 3.1142801862e+00 5.3940915116e+00 
76900 6.5911832040e+00 -5.8918065374e-03 3.1143752464e+00 -5.3942561607e+00 3.1143752464e+00 5.3942561607e+00 
77000 6.5911808839e+00 -5.8628629821e-03 3.1144698374e+00 -5.3944199971e+00 3.1144698374e+00 5.3944199971e+00 
77100 6.5911785874e+00 -5.8340208913e-03 3.1145639609e+00 -5.3945830236e+00 3.1145639609e+00 5.3945830236e+00 
77200 6.5911763144e+00 -5.8052797047e-03 3.1146576184e+00 -5.3947452433e+00 3.1146576184e+00 5.3947452433e+00 
77300 6.5911740646e+00 -5.7766389220e-03 3.1147508118e+00 -5.3949066590e+00 3.1147508118e+00 5.3949066590e+00 
77400 6.5911718379e+00 -5.7480981005e-03 3.1148435426e+00 -5.3950672734e+00 3.1148435426e+00 5.3950672734e+00 
77500 6.5911696340e+00 -5.7196568537e-03 3.1149358125e+00 -5.3952270896e+00 3.1149358125e+00 5.3952270896e+00 
77600 6.5911674527e+00 -5.6913148494e-03 3.1150276232e+00 -5.3953861103e+00 3.1150276232e+00 5.3953861103e+00 
77700 6.5911652939e+00 -5.6630718079e-03 3.1151189762e+00 -5.3955443384e+00 3.1151189762e+00 5.3955443384e+00 
77800 6.5911631573e+00 -5.6349275002e-03 3.1152098732e+00 -5.3957017766e+00 3.1152098732e+00 5.3957017766e+00 
77900 6.5911610428e+00 -5.6068817460e-03 3.1153003158e+00 -5.3958584278e+00 3.1153003158e+00 5.3958584278e+00 
78000 6.5911589501e+00 -5.5789344124e-03 3.1153903057e+00 -5.3960142948e+00 3.1153903057e+00 5.3960142948e+00 
78100 6.5911568792e+00 -5.5510854114e-03 3.1154798444e+00 -5.3961693804e+00 3.1154798444e+00 5.3961693804e+00 
78200 6.5911548297e+00 -5.5233346987e-03 3.1155689336e+00 -5.3963236874e+00 3.1155689336e+00 5.3963236874e+00 
78300 6.5911528015e+00 -5.4956822715e-03 3.1156575749e+00 -5.3964772186e+00 3.1156575749e+00 5.3964772186e+00 
78400 6.5911507945e+00 -5.4681281668e-03 3.1157457698e+00 -5.3966299768e+00 3.1157457698e+00 5.3966299768e+00 
78500 6.5911488083e+00 -5.4406724596e-03 3.1158335202e+00 -5.3967819649e+00 3.1158335202e+00 5.3967819649e+00 
78600 6.5911468430e+00 -5.4133152613e-03 3.1159208274e+00 -5.3969331855e+00 3.1159208274e+00 5.3969331855e+00 
78700 6.5911448982e+00 -5.3860567175e-03 3.1160076933e+00 -5.3970836415e+00 3.1160076933e+00 5.3970836415e+00 
78800 6.5911429737e+00 -5.3588970066e-03 3.1160941193e+00 -5.3972333357e+00 3.1160941193e+00 5.3972333357e+00 
78900 6.5911410695e+00 -5.3318363377e-03 3.1161801071e+00 -5.3973822710e+00 3.1161801071e+00 5.3973822710e+00 
79000 6.5911391853e+00 -5.3048749494e-03 3.1162656583e+00 -5.3975304500e+00 3.1162656583e+00 5.3975304500e+00 
79100 6.5911373210e+00 -5.2780131074e-03 3.1163507746e+00 -5.3976778758e+00 3.1163507746e+00 5.3976778758e+00 
79200 6.5911354763e+00 -5.2512511032e-03 3.1164354575e+00 -5.3978245510e+00 3.1164354575e+00 5.3978245510e+00 
79300 6.5911336511e+00 -5.2245892524e-03 3.1165197088e+00 -5.3979704785e+00 3.1165197088e+00 5.3979704785e+00 
79400 6.5911318452e+00 -5.1980278926e-03 3.1166035301e+00 -5.3981156612e+00 3.1166035301e+00 5.3981156612e+00 
79500 6.5911300585e+00 -5.1715673824e-03 3.1166869230e+00 -5.3982601019e+00 3.1166869230e+00 5.3982601019e+00 
79600 6.5911282908e+00 -5.1452080993e-03 3.1167698891e+00 -5.3984038035e+00 3.1167698891e+00 5.3984038035e+00 
79700 6.5911265418e+00 -5.1189504382e-03 3.1168524302e+00 -5.3985467688e+00 3.1168524302e+00 5.3985467688e+00 
79800 6.5911248116e+00 -5.0927948097e-03 3.1169345479e+00 -5.3986890008e+00 3.1169345479e+00 5.3986890008e+00 
79900 6.5911230997e+00 -5.0667416387e-03 3.1170162438e+00 -5.3988305023e+00 3.1170162438e+00 5.3988305023e+00 
80000 6.5911214062e+00 -5.0407913629e-03 3.1170975197e+00 -5.3989712762e+00 3.1170975197e+00 5.3989712762e+00 
80100 6.5911197309e+00 -5.0149444311e-03 3.1171783772e+00 -5.3991113255e+00 3.1171783772e+00 5.3991113255e+00 
80200 6.5911180735e+00 -4.9892013018e-03 3.1172588179e+00 -5.3992506530e+00 3.1172588179e+00 5.3992506530e+00 
80300 6.5911164339e+00 -4.9635624416e-03 3.1173388437e+00 -5.3993892618e+00 3.1173388437e+00 5.3993892618e+00 
80400 6.5911148119e+00 -4.9380283242e-03 3.1174184563e+00 -5.3995271547e+00 3.1174184563e+00 5.3995271547e+00 
80500 6.5911132075e+00 -4.9125994285e-03 3.1174976572e+00 -5.3996643347e+00 3.1174976572e+00 5.3996643347e+00 
80600 6.5911116204e+00 -4.8872762374e-03 3.1175764483e+00 -5.3998008049e+00 3.1175764483e+00 5.3998008049e+00 
80700 6.5911100504e+00 -4.8620592367e-03 3.1176548312e+00 -5.3999365681e+00 3.1176548312e+00 5.3999365681e+00 
80800 6.5911084975e+00 -4.8369489133e-03 3.1177328078e+00 -5.4000716275e+00 3.1177328078e+00 5.4000716275e+00 
80900 6.5911069614e+00 -4.8119457545e-03 3.1178103797e+00 -5.4002059860e+00 3.1178103797e+00 5.4002059860e+00 
81000 6.5911054420e+00 -4.7870502465e-03 3.1178875487e+00 -5.4003396466e+00 3.1178875487e+00 5.4003396466e+00 
81100 6.5911039392e+00 -4.7622628729e-03 3.1179643165e+00 -5.4004726124e+00 3.1179643165e+00 5.4004726124e+00 
81200 6.5911024528e+00 -4.7375841140e-03 3.1180406850e+00 -5.4006048864e+00 3.1180406850e+00 5.4006048864e+00 
81300 6.5911009826e+00 -4.7130144455e-03 3.1181166558e+00 -5.4007364718e+00 3.1181166558e+00 5.4007364718e+00 
81400 6.5910995285e+00 -4.6885543373e-03 3.1181922308e+00 -5.4008673715e+00 3.1181922308e+00 5.4008673715e+00 
81500 6.5910980904e+00 -4.6642042526e-03 3.1182674118e+00 -5.4009975887e+00 3.1182674118e+00 5.4009975887e+00 
81600 6.5910966680e+00 -4.6399646466e-03 3.1183422004e+00 -5.4011271266e+00 3.1183422004e+00 5.4011271266e+00 
81700 6.5910952614e+00 -4.6158359660e-03 3.1184165987e+00 -5.4012559881e+00 3.1184165987e+00 5.4012559881e+00 
81800 6.5910938702e+00 -4.5918186474e-03 3.1184906083e+00 -5.4013841764e+00 3.1184906083e+00 5.4013841764e+00 
81900 6.5910924944e+00 -4.5679131169e-03 3.1185642310e+00 -5.4015116948e+00 3.1185642310e+00 5.4015116948e+00 
82000 6.5910911338e+00 -4.5441197891e-03 3.1186374687e+00 -5.4016385462e+00 3.1186374687e+00 5.4016385462e+00 
82100 6.5910897882e+00 -4.5204390659e-03 3.1187103233e+00 -5.4017647340e+00 3.1187103233e+00 5.4017647340e+00 
82200 6.5910884577e+00 -4.4968713362e-03 3.1187827964e+00 -5.4018902612e+00 3.1187827964e+00 5.4018902612e+00 
82300 6.5910871419e+00 -4.4734169749e-03 3.1188548901e+00 -5.4020151311e+00 3.1188548901e+00 5.4020151311e+00 
82400 6.5910858407e+00 -4.4500763421e-03 3.1189266061e+00 -5.4021393468e+00 3.1189266061e+00 5.4021393468e+00 
82500 6.5910845541e+00 -4.4268497824e-03 3.1189979462e+00 -5.4022629115e+00 3.1189979462e+00 5.4022629115e+00 
82600 6.5910832819e+00 -4.4037376243e-03 3.1190689124e+00 -5.4023858285e+00 3.1190689124e+00 5.4023858285e+00 
82700 6.5910820239e+00 -4.3807401798e-03 3.1191395064e+00 -5.4025081010e+00 3.1191395064e+00 5.4025081010e+00 
82800 6.5910807800e+00 -4.3578577432e-03 3.1192097302e+00 -5.4026297322e+00 3.1192097302e+00 5.4026297322e+00 
82900 6.5910795501e+00 -4.3350905913e-03 3.1192795856e+00 -5.4027507253e+00 3.1192795856e+00 5.4027507253e+00 
83000 6.5910783340e+00 -4.3124389821e-03 3.1193490745e+00 -5.4028710837e+00 3.1193490745e+00 5.4028710837e+00 
83100 6.5910771317e+00 -4.2899031550e-03 3.1194181988e+00 -5.4029908104e+00 3.1194181988e+00 5.4029908104e+00 
83200 6.5910759429e+00 -4.2674833300e-03 3.1194869603e+00 -5.4031099089e+00 3.1194869603e+00 5.4031099089e+00 
83300 6.5910747676e+00 -4.2451797072e-03 3.1195553610e+00 -5.4032283823e+00 3.1195553610e+00 5.4032283823e+00 
83400 6.5910736056e+00 -4.2229924667e-03 3.1196234027e+00 -5.4033462339e+00 3.1196234027e+00 5.4033462339e+00 
83500 6.5910724568e+00 -4.2009217682e-03 3.1196910872e+00 -5.4034634670e+00 3.1196910872e+00 5.4034634670e+00 
83600 6.5910713210e+00 -4.1789677503e-03 3.1197584166e+00 -5.4035800849e+00 3.1197584166e+00 5.4035800849e+00 
83700 6.5910701982e+00 -4.1571305308e-03 3.1198253927e+00 -5.4036960909e+00 3.1198253927e+00 5.4036960909e+00 
83800 6.5910690883e+00 -4.1354102060e-03 3.1198920173e+00 -5.4038114881e+00 3.1198920173e+00 5.4038114881e+00 
83900 6.5910679910e+00 -4.1138068508e-03 3.1199582925e+00 -5.4039262800e+00 3.1199582925e+00 5.4039262800e+00 
84000 6.5910669063e+00 -4.0923205181e-03 3.1200242200e+00 -5.4040404698e+00 3.1200242200e+00 5.4040404698e+00 
84100 6.5910658340e+00 -4.0709512391e-03 3.1200898017e+00 -5.4041540608e+00 3.1200898017e+00 5.4041540608e+00 
84200 6.5910647741e+00 -4.0496990231e-03 3.1201550397e+00 -5.4042670562e+00 3.1201550397e+00 5.4042670562e+00 
84300 6.5910637264e+00 -4.0285638570e-03 3.1202199357e+00 -5.4043794594e+00 3.1202199357e+00 5.4043794594e+00 
84400 6.5910626908e+00 -4.0075457058e-03 3.1202844917e+00 -5.4044912737e+00 3.1202844917e+00 5.4044912737e+00 
84500 6.5910616672e+00 -3.9866445120e-03 3.1203487096e+00 -5.4046025023e+00 3.1203487096e+00 5.4046025023e+00 
84600 6.5910606554e+00 -3.9658601961e-03 3.1204125912e+00 -5.4047131485e+00 3.1204125912e+00 5.4047131485e+00 
84700 6.5910596554e+00 -3.9451926564e-03 3.1204761384e+00 -5.4048232156e+00 3.1204761384e+00 5.4048232156e+00 
84800 6.5910586669e+00 -3.9246417690e-03 3.1205393532e+00 -5.4049327068e+00 3.1205393532e+00 5.4049327068e+00 
84900 6.5910576901e+00 -3.9042073878e-03 3.1206022375e+00 -5.4050416255e+00 3.1206022375e+00 5.4050416255e+00 
85000 6.5910567246e+00 -3.8838893449e-03 3.1206647930e+00 -5.4051499749e+00 3.1206647930e+00 5.4051499749e+00 
85100 6.5910557704e+00 -3.8636874503e-03 3.1207270218e+00 -5.4052577583e+00 3.1207270218e+00 5.4052577583e+00 
85200 6.5910548273e+00 -3.8436014926e-03 3.1207889257e+00 -5.4053649789e+00 3.1207889257e+00 5.4053649789e+00 
85300 6.5910538954e+00 -3.8236312387e-03 3.1208505065e+00 -5.4054716400e+00 3.1208505065e+00 5.4054716400e+00 
85400 6.5910529744e+00 -3.8037764339e-03 3.1209117661e+00 -5.4055777448e+00 3.1209117661e+00 5.4055777448e+00 
85500 6.5910520642e+00 -3.7840368028e-03 3.1209727065e+00 -5.4056832966e+00 3.1209727065e+00 5.4056832966e+00 
85600 6.5910511648e+00 -3.7644120488e-03 3.1210333294e+00 -5.4057882986e+00 3.1210333294e+00 5.4057882986e+00 
85700 6.5910502761e+00 -3.7449018546e-03 3.1210936367e+00 -5.4058927539e+00 3.1210936367e+00 5.4058927539e+00 
85800 6.5910493978e+00 -3.7255058828e-03 3.1211536303e+00 -5.4059966659e+00 3.1211536303e+00 5.4059966659e+00 
85900 6.5910485300e+00 -3.7062237757e-03 3.1212133121e+00 -5.4061000377e+00 3.1212133121e+00 5.4061000377e+00 
86000 6.5910476725e+00 -3.6870551557e-03 3.1212726838e+00 -5.4062028726e+00 3.1212726838e+00 5.4062028726e+00 
86100 6.5910468252e+00 -3.6679996261e-03 3.1213317473e+00 -5.4063051736e+00 3.1213317473e+00 5.4063051736e+00 
86200 6.5910459881e+00 -3.6490567707e-03 3.1213905044e+00 -5.4064069439e+00 3.1213905044e+00 5.4064069439e+00 
86300 6.5910451609e+00 -3.6302261550e-03 3.1214489570e+00 -5.4065081868e+00 3.1214489570e+00 5.4065081868e+00 
86400 6.5910443437e+00 -3.6115073257e-03 3.1215071069e+00 -5.4066089054e+00 3.1215071069e+00 5.4066089054e+00 
86500 6.5910435363e+00 -3.5928998117e-03 3.1215649559e+00 -5.4067091027e+00 3.1215649559e+00 5.4067091027e+00 
86600 6.5910427385e+00 -3.5744031245e-03 3.1216225057e+00 -5.4068087819e+00 3.1216225057e+00 5.4068087819e+00 
86700 6.5910419505e+00 -3.5560167580e-03 3.1216797582e+00 -5.4069079462e+00 3.1216797582e+00 5.4069079462e+00 
86800 6.5910411719e+00 -3.5377401899e-03 3.1217367152e+00 -5.4070065985e+00 3.1217367152e+00 5.4070065985e+00 
86900 6.5910404027e+00 -3.5195728811e-03 3.1217933784e+00 -5.4071047420e+00 3.1217933784e+00 5.4071047420e+00 
87000 6.5910396429e+00 -3.5015142770e-03 3.1218497495e+00 -5.4072023798e+00 3.1218497495e+00 5.4072023798e+00 
87100 6.5910388923e+00 -3.4835638075e-03 3.1219058305e+00 -5.4072995148e+00 3.1219058305e+00 5.4072995148e+00 
87200 6.5910381509e+00 -3.4657208875e-03 3.1219616229e+00 -5.4073961501e+00 3.1219616229e+00 5.4073961501e+00 
87300 6.5910374184e+00 -3.4479849177e-03 3.1220171286e+00 -5.4074922888e+00 3.1220171286e+00 5.4074922888e+00 
87400 6.5910366950e+00 -3.4303552845e-03 3.1220723492e+00 -5.4075879337e+00 3.1220723492e+00 5.4075879337e+00 
87500 6.5910359804e+00 -3.4128313610e-03 3.1221272865e+00 -5.4076830879e+00 3.1221272865e+00 5.4076830879e+00 
87600 6.5910352745e+00 -3.3954125076e-03 3.1221819422e+00 -5.4077777544e+00 3.1221819422e+00 5.4077777544e+00 
87700 6.5910345774e+00 -3.3780980717e-03 3.1222363180e+00 -5.4078719360e+00 3.1222363180e+00 5.4078719360e+00 
87800 6.5910338888e+00 -3.3608873891e-03 3.1222904156e+00 -5.4079656357e+00 3.1222904156e+00 5.4079656357e+00 
87900 6.5910332087e+00 -3.3437797841e-03 3.1223442366e+00 -5.4080588565e+00 3.1223442366e+00 5.4080588565e+00 
88000 6.5910325371e+00 -3.3267745700e-03 3.1223977827e+00 -5.4081516011e+00 3.1223977827e+00 5.4081516011e+00 
88100 6.5910318737e+00 -3.3098710498e-03 3.1224510556e+00 -5.4082438725e+00 3.1224510556e+00 5.4082438725e+00 
88200 6.5910312186e+00 -3.2930685164e-03 3.1225040569e+00 -5.4083356735e+00 3.1225040569e+00 5.4083356735e+00 
88300 6.5910305717e+00 -3.2763662536e-03 3.1225567883e+00 -5.4084270069e+00 3.1225567883e+00 5.4084270069e+00 
88400 6.5910299328e+00 -3.2597635360e-03 3.1226092513e+00 -5.4085178755e+00 3.1226092513e+00 5.4085178755e+00 
88500 6.5910293019e+00 -3.2432596303e-03 3.1226614476e+00 -5.4086082821e+00 3.1226614476e+00 5.4086082821e+00 
88600 6.5910286789e+00 -3.2268537951e-03 3.1227133788e+00 -5.4086982295e+00 3.1227133788e+00 5.4086982295e+00 
88700 6.5910280637e+00 -3.2105452817e-03 3.1227650464e+00 -5.4087877204e+00 3.1227650464e+00 5.4087877204e+00 
88800 6.5910274563e+00 -3.1943333348e-03 3.1228164520e+00 -5.4088767576e+00 3.1228164520e+00 5.4088767576e+00 
88900 6.5910268565e+00 -3.1782171928e-03 3.1228675972e+00 -5.4089653437e+00 3.1228675972e+00 5.4089653437e+00 
89000 6.5910262642e+00 -3.1621960883e-03 3.1229184836e+00 -5.4090534814e+00 3.1229184836e+00 5.4090534814e+00 
89100 6.5910256795e+00 -3.1462692489e-03 3.1229691126e+00 -5.4091411734e+00 3.1229691126e+00 5.4091411734e+00 
89200 6.5910251022e+00 -3.1304358973e-03 3.1230194857e+00 -5.4092284223e+00 3.1230194857e+00 5.4092284223e+00 
89300 6.5910245322e+00 -3.1146952520e-03 3.1230696046e+00 -5.4093152308e+00 3.1230696046e+00 5.4093152308e+00 
89400 6.5910239694e+00 -3.0990465279e-03 3.1231194707e+00 -5.4094016013e+00 3.1231194707e+00 5.4094016013e+00 
89500 6.5910234139e+00 -3.0834889367e-03 3.1231690854e+00 -5.4094875366e+00 3.1231690854e+00 5.4094875366e+00 
89600 6.5910228654e+00 -3.0680216873e-03 3.1232184503e+00 -5.4095730390e+00 3.1232184503e+00 5.4095730390e+00 
89700 6.5910223240e+00 -3.0526439866e-03 3.1232675668e+00 -5.4096581113e+00 3.1232675668e+00 5.4096581113e+00 
89800 6.5910217895e+00 -3.0373550396e-03 3.1233164363e+00 -5.4097427558e+00 3.1233164363e+00 5.4097427558e+00 
89900 6.5910212619e+00 -3.0221540500e-03 3.1233650603e+00 -5.4098269750e+00 3.1233650603e+00 5.4098269750e+00 
90000 6.5910207411e+00 -3.0070402207e-03 3.1234134402e+00 -5.4099107714e+00 3.1234134402e+00 5.4099107714e+00 
90100 6.5910202270e+00 -2.9920127546e-03 3.1234615774e+00 -5.4099941475e+00 3.1234615774e+00 5.4099941475e+00 
90200 6.5910197196e+00 -2.9770708542e-03 3.1235094733e+00 -5.4100771057e+00 3.1235094733e+00 5.4100771057e+00 
90300 6.5910192187e+00 -2.9622137229e-03 3.1235571293e+00 -5.4101596483e+00 3.1235571293e+00 5.4101596483e+00 
90400 6.5910187244e+00 -2.9474405651e-03 3.1236045467e+00 -5.4102417777e+00 3.1236045467e+00 5.4102417777e+00 
90500 6.5910182365e+00 -2.9327505864e-03 3.1236517270e+00 -5.4103234962e+00 3.1236517270e+00 5.4103234962e+00 
90600 6.5910177550e+00 -2.9181429945e-03 3.1236986713e+00 -5.4104048063e+00 3.1236986713e+00 5.4104048063e+00 
90700 6.5910172798e+00 -2.9036169993e-03 3.1237453812e+00 -5.4104857101e+00 3.1237453812e+00 5.4104857101e+00 
90800 6.5910168108e+00 -2.8891718132e-03 3.1237918578e+00 -5.4105662100e+00 3.1237918578e+00 5.4105662100e+00 
90900 6.5910163480e+00 -2.8748066518e-03 3.1238381026e+00 -5.4106463083e+00 3.1238381026e+00 5.4106463083e+00 
91000 6.5910158913e+00 -2.8605207340e-03 3.1238841167e+00 -5.4107260071e+00 3.1238841167e+00 5.4107260071e+00 
91100 6.5910154406e+00 -2.8463132828e-03 3.1239299015e+00 -5.4108053087e+00 3.1239299015e+00 5.4108053087e+00 
91200 6.5910149958e+00 -2.8321835249e-03 3.1239754582e+00 -5.4108842152e+00 3.1239754582e+00 5.4108842152e+00 
91300 6.5910145570e+00 -2.8181306920e-03 3.1240207881e+00 -5.4109627289e+00 3.1240207881e+00 5.4109627289e+00 
91400 6.5910141240e+00 -2.8041540202e-03 3.1240658925e+00 -5.4110408519e+00 3.1240658925e+00 5.4110408519e+00 
91500 6.5910136968e+00 -2.7902527512e-03 3.1241107724e+00 -5.4111185864e+00 3.1241107724e+00 5.4111185864e+00 
91600 6.5910132753e+00 -2.7764261320e-03 3.1241554293e+00 -5.4111959343e+00 3.1241554293e+00 5.4111959343e+00 
91700 6.5910128594e+00 -2.7626734153e-03 3.1241998642e+00 -5.4112728979e+00 3.1241998642e+00 5.4112728979e+00 
91800 6.5910124491e+00 -2.7489938601e-03 3.1242440784e+00 -5.4113494791e+00 3.1242440784e+00 5.4113494791e+00 
91900 6.5910120443e+00 -2.7353867319e-03 3.1242880731e+00 -5.4114256801e+00 3.1242880731e+00 5.4114256801e+00 
92000 6.5910116450e+00 -2.7218513025e-03 3.1243318493e+00 -5.4115015028e+00 3.1243318493e+00 5.4115015028e+00 
92100 6.5910112511e+00 -2.7083868510e-03 3.1243754084e+00 -5.4115769492e+00 3.1243754084e+00 5.4115769492e+00 
92200 6.5910108625e+00 -2.6949926635e-03 3.1244187513e+00 -5.4116520214e+00 3.1244187513e+00 5.4116520214e+00 
92300 6.5910104791e+00 -2.6816680336e-03 3.1244618793e+00 -5.4117267213e+00 3.1244618793e+00 5.4117267213e+00 
92400 6.5910101010e+00 -2.6684122626e-03 3.1245047935e+00 -5.4118010509e+00 3.1245047935e+00 5.4118010509e+00 
92500 6.5910097281e+00 -2.6552246597e-03 3.1245474950e+00 -5.4118750120e+00 3.1245474950e+00 5.4118750120e+00 
92600 6.5910093602e+00 -2.6421045420e-03 3.1245899848e+00 -5.4119486065e+00 3.1245899848e+00 5.4119486065e+00 
92700 6.5910089974e+00 -2.6290512352e-03 3.1246322641e+00 -5.4120218365e+00 3.1246322641e+00 5.4120218365e+00 
92800 6.5910086396e+00 -2.6160640733e-03 3.1246743340e+00 -5.4120947036e+00 3.1246743340e+00 5.4120947036e+00 
92900 6.5910082867e+00 -2.6031423989e-03 3.1247161955e+00 -5.4121672098e+00 3.1247161955e+00 5.4121672098e+00 
93000 6.5910079386e+00 -2.5902855636e-03 3.1247578496e+00 -5.4122393569e+00 3.1247578496e+00 5.4122393569e+00 
93100 6.5910075954e+00 -2.5774929278e-03 3.1247992975e+00 -5.4123111467e+00 3.1247992975e+00 5.4123111467e+00 
93200 6.5910072569e+00 -2.5647638611e-03 3.1248405401e+00 -5.4123825811e+00 3.1248405401e+00 5.4123825811e+00 
93300 6.5910069232e+00 -2.5520977425e-03 3.1248815785e+00 -5.4124536617e+00 3.1248815785e+00 5.4124536617e+00 
93400 6.5910065941e+00 -2.5394939600e-03 3.1249224137e+00 -5.4125243903e+00 3.1249224137e+00 5.4125243903e+00 
93500 6.5910062696e+00 -2.5269519115e-03 3.1249630467e+00 -5.4125947687e+00 3.1249630467e+00 5.4125947687e+00 
93600 6.5910059496e+00 -2.5144710041e-03 3.1250034785e+00 -5.4126647987e+00 3.1250034785e+00 5.4126647987e+00 
93700 6.5910056342e+00 -2.5020506549e-03 3.1250437101e+00 -5.4127344818e+00 3.1250437101e+00 5.4127344818e+00 
93800 6.5910053231e+00 -2.4896902905e-03 3.1250837425e+00 -5.4128038198e+00 3.1250837425e+00 5.4128038198e+00 
93900 6.5910050165e+00 -2.4773893474e-03 3.1251235765e+00 -5.4128728145e+00 3.1251235765e+00 5.4128728145e+00 
94000 6.5910047142e+00 -2.4651472721e-03 3.1251632133e+00 -5.4129414673e+00 3.1251632133e+00 5.4129414673e+00 
94100 6.5910044162e+00 -2.4529635207e-03 3.1252026536e+00 -5.4130097800e+00 3.1252026536e+00 5.4130097800e+00 
94200 6.5910041224e+00 -2.4408375597e-03 3.1252418986e+00 -5.4130777543e+00 3.1252418986e+00 5.4130777543e+00 
94300 6.5910038329e+00 -2.4287688652e-03 3.1252809491e+00 -5.4131453917e+00 3.1252809491e+00 5.4131453917e+00 
94400 6.5910035474e+00 -2.4167569236e-03 3.1253198059e+00 -5.4132126938e+00 3.1253198059e+00 5.4132126938e+00 
94500 6.5910032661e+00 -2.4048012310e-03 3.1253584702e+00 -5.4132796622e+00 3.1253584702e+00 5.4132796622e+00 
94600 6.5910029888e+00 -2.3929012940e-03 3.1253969427e+00 -5.4133462985e+00 3.1253969427e+00 5.4133462985e+00 
94700 6.5910027155e+00 -2.3810566287e-03 3.1254352243e+00 -5.4134126042e+00 3.1254352243e+00 5.4134126042e+00 
94800 6.5910024461e+00 -2.3692667617e-03 3.1254733160e+00 -5.4134785810e+00 3.1254733160e+00 5.4134785810e+00 
94900 6.5910021807e+00 -2.3575312291e-03 3.1255112186e+00 -5.4135442302e+00 3.1255112186e+00 5.4135442302e+00 
95000 6.5910019191e+00 -2.3458495772e-03 3.1255489330e+00 -5.4136095535e+00 3.1255489330e+00 5.4136095535e+00 
95100 6.5910016613e+00 -2.3342213623e-03 3.1255864601e+00 -5.4136745523e+00 3.1255864601e+00 5.4136745523e+00 
95200 6.5910014073e+00 -2.3226461505e-03 3.1256238007e+00 -5.4137392281e+00 3.1256238007e+00 5.4137392281e+00 
95300 6.5910011570e+00 -2.3111235174e-03 3.1256609557e+00 -5.4138035824e+00 3.1256609557e+00 5.4138035824e+00 
95400 6.5910009104e+00 -2.2996530489e-03 3.1256979259e+00 -5.4138676168e+00 3.1256979259e+00 5.4138676168e+00 
95500 6.5910006674e+00 -2.2882343400e-03 3.1257347122e+00 -5.4139313325e+00 3.1257347122e+00 5.4139313325e+00 
95600 6.5910004281e+00 -2.2768669957e-03 3.1257713154e+00 -5.4139947311e+00 3.1257713154e+00 5.4139947311e+00 
95700 6.5910001922e+00 -2.2655506304e-03 3.1258077364e+00 -5.4140578141e+00 3.1258077364e+00 5.4140578141e+00 
95800 6.5909999599e+00 -2.2542848679e-03 3.1258439759e+00 -5.4141205828e+00 3.1258439759e+00 5.4141205828e+00 
95900 6.5909997310e+00 -2.2430693412e-03 3.1258800348e+00 -5.4141830386e+00 3.1258800348e+00 5.4141830386e+00 
96000 6.5909995056e+00 -2.2319036928e-03 3.1259159138e+00 -5.4142451830e+00 3.1259159138e+00 5.4142451830e+00 
96100 6.5909992835e+00 -2.2207875741e-03 3.1259516139e+00 -5.4143070173e+00 3.1259516139e+00 5.4143070173e+00 
96200 6.5909990648e+00 -2.2097206457e-03 3.1259871358e+00 -5.4143685429e+00 3.1259871358e+00 5.4143685429e+00 
96300 6.5909988494e+00 -2.1987025767e-03 3.1260224802e+00 -5.4144297613e+00 3.1260224802e+00 5.4144297613e+00 
96400 6.5909986372e+00 -2.1877330455e-03 3.1260576480e+00 -5.4144906737e+00 3.1260576480e+00 5.4144906737e+00 
96500 6.5909984283e+00 -2.1768117386e-03 3.1260926399e+00 -5.4145512815e+00 3.1260926399e+00 5.4145512815e+00 
96600 6.5909982225e+00 -2.1659383515e-03 3.1261274568e+00 -5.4146115861e+00 3.1261274568e+00 5.4146115861e+00 
96700 6.5909980199e+00 -2.1551125877e-03 3.1261620994e+00 -5.4146715889e+00 3.1261620994e+00 5.4146715889e+00 
96800 6.5909978204e+00 -2.1443341590e-03 3.1261965684e+00 -5.4147312910e+00 3.1261965684e+00 5.4147312910e+00 
96900 6.5909976239e+00 -2.1336027854e-03 3.1262308647e+00 -5.4147906939e+00 3.1262308647e+00 5.4147906939e+00 
97000 6.5909974305e+00 -2.1229181947e-03 3.1262649890e+00 -5.4148497989e+00 3.1262649890e+00 5.4148497989e+00 
97100 6.5909972400e+00 -2.1122801225e-03 3.1262989420e+00 -5.4149086072e+00 3.1262989420e+00 5.4149086072e+00 
97200 6.5909970526e+00 -2.1016883121e-03 3.1263327245e+00 -5.4149671202e+00 3.1263327245e+00 5.4149671202e+00 
97300 6.5909968680e+00 -2.0911425142e-03 3.1263663372e+00 -5.4150253392e+00 3.1263663372e+00 5.4150253392e+00 
97400 6.5909966863e+00 -2.0806424867e-03 3.1263997810e+00 -5.4150832654e+00 3.1263997810e+00 5.4150832654e+00 
97500 6.5909965075e+00 -2.0701879948e-03 3.1264330564e+00 -5.4151409001e+00 3.1264330564e+00 5.4151409001e+00 
97600 6.5909963315e+00 -2.0597788106e-03 3.1264661643e+00 -5.4151982447e+00 3.1264661643e+00 5.4151982447e+00 
97700 6.5909961582e+00 -2.0494147130e-03 3.1264991053e+00 -5.4152553003e+00 3.1264991053e+00 5.4152553003e+00 
97800 6.5909959877e+00 -2.0390954876e-03 3.1265318803e+00 -5.4153120682e+00 3.1265318803e+00 5.4153120682e+00 
97900 6.5909958199e+00 -2.0288209262e-03 3.1265644899e+00 -5.4153685497e+00 3.1265644899e+00 5.4153685497e+00 
98000 6.5909956548e+00 -2.0185908273e-03 3.1265969349e+00 -5.4154247460e+00 3.1265969349e+00 5.4154247460e+00 
98100 6.5909954923e+00 -2.0084049951e-03 3.1266292159e+00 -5.4154806583e+00 3.1266292159e+00 5.4154806583e+00 
98200 6.5909953324e+00 -1.9982632400e-03 3.1266613337e+00 -5.4155362880e+00 3.1266613337e+00 5.4155362880e+00 
98300 6.5909951751e+00 -1.9881653782e-03 3.1266932889e+00 -5.4155916361e+00 3.1266932889e+00 5.4155916361e+00 
98400 6.5909950204e+00 -1.9781112312e-03 3.1267250824e+00 -5.4156467040e+00 3.1267250824e+00 5.4156467040e+00 
98500 6.5909948681e+00 -1.9681006261e-03 3.1267567148e+00 -5.4157014929e+00 3.1267567148e+00 5.4157014929e+00 
98600 6.5909947183e+00 -1.9581333952e-03 3.1267881867e+00 -5.4157560040e+00 3.1267881867e+00 5.4157560040e+00 
98700 6.5909945710e+00 -1.9482093760e-03 3.1268194990e+00 -5.4158102384e+00 3.1268194990e+00 5.4158102384e+00 
98800 6.5909944261e+00 -1.9383284105e-03 3.1268506523e+00 -5.4158641974e+00 3.1268506523e+00 5.4158641974e+00 
98900 6.5909942835e+00 -1.9284903458e-03 3.1268816472e+00 -5.4159178823e+00 3.1268816472e+00 5.4159178823e+00 
99000 6.5909941434e+00 -1.9186950332e-03 3.1269124846e+00 -5.4159712941e+00 3.1269124846e+00 5.4159712941e+00 
99100 6.5909940055e+00 -1.9089423286e-03 3.1269431650e+00 -5.4160244341e+00 3.1269431650e+00 5.4160244341e+00 
99200 6.5909938700e+00 -1.8992320918e-03 3.1269736891e+00 -5.4160773035e+00 3.1269736891e+00 5.4160773035e+00 
99300 6.5909937367e+00 -1.8895641869e-03 3.1270040577e+00 -5.4161299034e+00 3.1270040577e+00 5.4161299034e+00 
99400 6.5909936056e+00 -1.8799384815e-03 3.1270342714e+00 -5.4161822350e+00 3.1270342714e+00 5.4161822350e+00 
99500 6.5909934767e+00 -1.8703548471e-03 3.1270643309e+00 -5.4162342996e+00 3.1270643309e+00 5.4162342996e+00 
99600 6.5909933501e+00 -1.8608131586e-03 3.1270942368e+00 -5.4162860983e+00 3.1270942368e+00 5.4162860983e+00 
99700 6.5909932255e+00 -1.8513132941e-03 3.1271239900e+00 -5.4163376322e+00 3.1271239900e+00 5.4163376322e+00 
99800 6.5909931031e+00 -1.8418551350e-03 3.1271535909e+00 -5.4163889025e+00 3.1271535909e+00 5.4163889025e+00 
99900 6.5909929828e+00 -1.8324385655e-03 3.1271830403e+00 -5.4164399104e+00 3.1271830403e+00 5.4164399104e+00 
100000 6.5909928646e+00 -1.8230634729e-03 3.1272123389e+00 -5.4164906571e+00 3.1272123389e+00 5.4164906571e+00 
100100 6.5909927484e+00 -1.8137297467e-03 3.1272414874e+00 -5.4165411436e+00 3.1272414874e+00 5.4165411436e+00 
100200 6.5909926342e+00 -1.8044372794e-03 3.1272704863e+00 -5.4165913713e+00 3.1272704863e+00 5.4165913713e+00 
100300 6.5909925220e+00 -1.7951859654e-03 3.1272993364e+00 -5.4166413411e+00 3.1272993364e+00 5.4166413411e+00 
100400 6.5909924117e+00 -1.7859757015e-03 3.1273280383e+00 -5.4166910542e+00 3.1273280383e+00 5.4166910542e+00 
100500 6.5909923034e+00 -1.7768063865e-03 3.1273565926e+00 -5.4167405118e+00 3.1273565926e+00 5.4167405118e+00 
100600 6.5909921970e+00 -1.7676779210e-03 3.1273850002e+00 -5.4167897151e+00 3.1273850002e+00 5.4167897151e+00 
100700 6.5909920925e+00 -1.7585902074e-03 3.1274132615e+00 -5.4168386652e+00 3.1274132615e+00 5.4168386652e+00 
100800 6.5909919898e+00 -1.7495431497e-03 3.1274413773e+00 -5.4168873631e+00 3.1274413773e+00 5.4168873631e+00 
100900 6.5909918890e+00 -1.7405366533e-03 3.1274693481e+00 -5.4169358101e+00 3.1274693481e+00 5.4169358101e+00 
101000 6.5909917900e+00 -1.7315706248e-03 3.1274971748e+00 -5.4169840072e+00 3.1274971748e+00 5.4169840072e+00 
101100 6.5909916928e+00 -1.7226449721e-03 3.1275248578e+00 -5.4170319557e+00 3.1275248578e+00 5.4170319557e+00 
101200 6.5909915973e+00 -1.7137596041e-03 3.1275523979e+00 -5.4170796566e+00 3.1275523979e+00 5.4170796566e+00 
101300 6.5909915036e+00 -1.7049144307e-03 3.1275797958e+00 -5.4171271110e+00 3.1275797958e+00 5.4171271110e+00 
101400 6.5909914116e+00 -1.6961093623e-03 3.1276070519e+00 -5.4171743200e+00 3.1276070519e+00 5.4171743200e+00 
101500 6.5909913212e+00 -1.6873443103e-03 3.1276341671e+00 -5.4172212849e+00 3.1276341671e+00 5.4172212849e+00 
101600 6.5909912326e+00 -1.6786191863e-03 3.1276611419e+00 -5.4172680066e+00 3.1276611419e+00 5.4172680066e+00 
101700 6.5909911456e+00 -1.6699339026e-03 3.1276879770e+00 -5.4173144864e+00 3.1276879770e+00 5.4173144864e+00 
101800 6.5909910602e+00 -1.6612883716e-03 3.1277146730e+00 -5.4173607252e+00 3.1277146730e+00 5.4173607252e+00 
101900 6.5909909764e+00 -1.6526825061e-03 3.1277412306e+00 -5.4174067243e+00 3.1277412306e+00 5.4174067243e+00 
102000 6.5909908942e+00 -1.6441162187e-03 3.1277676504e+00 -5.4174524847e+00 3.1277676504e+00 5.4174524847e+00 
102100 6.5909908136e+00 -1.6355894222e-03 3.1277939330e+00 -5.4174980076e+00 3.1277939330e+00 5.4174980076e+00 
102200 6.5909907344e+00 -1.6271020293e-03 3.1278200791e+00 -5.4175432939e+00 3.1278200791e+00 5.4175432939e+00 
102300 6.5909906568e+00 -1.6186539523e-03 3.1278460893e+00 -5.4175883449e+00 3.1278460893e+00 5.4175883449e+00 
102400 6.5909905807e+00 -1.6102451034e-03 3.1278719642e+00 -5.4176331616e+00 3.1278719642e+00 5.4176331616e+00 
102500 6.5909905061e+00 -1.6018753942e-03 3.1278977045e+00 -5.4176777451e+00 3.1278977045e+00 5.4176777451e+00 
102600 6.5909904330e+00 -1.5935447361e-03 3.1279233108e+00 -5.4177220965e+00 3.1279233108e+00 5.4177220965e+00 
102700 6.5909903612e+00 -1.5852530397e-03 3.1279487837e+00 -5.4177662169e+00 3.1279487837e+00 5.4177662169e+00 
102800 6.5909902909e+00 -1.5770002149e-03 3.1279741239e+00 -5.4178101074e+00 3.1279741239e+00 5.4178101074e+00 
102900 6.5909902220e+00 -1.5687861713e-03 3.1279993320e+00 -5.4178537690e+00 3.1279993320e+00 5.4178537690e+00 
103000 6.5909901544e+00 -1.5606108171e-03 3.1280244085e+00 -5.4178972028e+00 3.1280244085e+00 5.4178972028e+00 
103100 6.5909900882e+00 -1.5524740603e-03 3.1280493542e+00 -5.4179404100e+00 3.1280493542e+00 5.4179404100e+00 
103200 6.5909900233e+00 -1.5443758074e-03 3.1280741696e+00 -5.4179833915e+00 3.1280741696e+00 5.4179833915e+00 
103300 6.5909899598e+00 -1.5363159642e-03 3.1280988553e+00 -5.4180261485e+00 3.1280988553e+00 5.4180261485e+00 
103400 6.5909898975e+00 -1.5282944356e-03 3.1281234121e+00 -5.4180686820e+00 3.1281234121e+00 5.4180686820e+00 
103500 6.5909898366e+00 -1.5203111251e-03 3.1281478404e+00 -5.4181109931e+00 3.1281478404e+00 5.4181109931e+00 
103600 6.5909897769e+00 -1.5123659352e-03 3.1281721409e+00 -5.4181530829e+00 3.1281721409e+00 5.4181530829e+00 
103700 6.5909897184e+00 -1.5044587673e-03 3.1281963143e+00 -5.4181949524e+00 3.1281963143e+00 5.4181949524e+00 
103800 6.5909896612e+00 -1.4965895213e-03 3.1282203610e+00 -5.4182366026e+00 3.1282203610e+00 5.4182366026e+00 
103900 6.5909896051e+00 -1.4887580961e-03 3.1282442819e+00 -5.4182780347e+00 3.1282442819e+00 5.4182780347e+00 
104000 6.5909895503e+00 -1.4809643892e-03 3.1282680773e+00 -5.4183192496e+00 3.1282680773e+00 5.4183192496e+00 
104100 6.5909894967e+00 -1.4732082966e-03 3.1282917480e+00 -5.4183602485e+00 3.1282917480e+00 5.4183602485e+00 
104200 6.5909894442e+00 -1.4654897131e-03 3.1283152946e+00 -5.4184010323e+00 3.1283152946e+00 5.4184010323e+00 
104300 6.5909893928e+00 -1.4578085321e-03 3.1283387176e+00 -5.4184416022e+00 3.1283387176e+00 5.4184416022e+00 
104400 6.5909893426e+00 -1.4501646454e-03 3.1283620177e+00 -5.4184819591e+00 3.1283620177e+00 5.4184819591e+00 
104500 6.5909892934e+00 -1.4425579434e-03 3.1283851954e+00 -5.4185221041e+00 3.1283851954e+00 5.4185221041e+00 
104600 6.5909892454e+00 -1.4349883152e-03 3.1284082514e+00 -5.4185620382e+00 3.1284082514e+00 5.4185620382e+00 
104700 6.5909891984e+00 -1.4274556482e-03 3.1284311862e+00 -5.4186017625e+00 3.1284311862e+00 5.4186017625e+00 
104800 6.5909891525e+00 -1.4199598284e-03 3.1284540005e+00 -5.4186412780e+00 3.1284540005e+00 5.4186412780e+00 
104900 6.5909891077e+00 -1.4125007401e-03 3.1284766948e+00 -5.4186805856e+00 3.1284766948e+00 5.4186805856e+00 
105000 6.5909890638e+00 -1.4050782664e-03 3.1284992697e+00 -5.4187196866e+00 3.1284992697e+00 5.4187196866e+00 
105100 6.5909890210e+00 -1.3976922885e-03 3.1285217258e+00 -5.4187585817e+00 3.1285217258e+00 5.4187585817e+00 
105200 6.5909889792e+00 -1.3903426865e-03 3.1285440638e+00 -5.4187972721e+00 3.1285440638e+00 5.4187972721e+00 
105300 6.5909889384e+00 -1.3830293384e-03 3.1285662841e+00 -5.4188357588e+00 3.1285662841e+00 5.4188357588e+00 
105400 6.5909888985e+00 -1.3757521213e-03 3.1285883873e+00 -5.4188740428e+00 3.1285883873e+00 5.4188740428e+00 
105500 6.5909888596e+00 -1.3685109102e-03 3.1286103741e+00 -5.4189121251e+00 3.1286103741e+00 5.4189121251e+00 
105600 6.5909888217e+00 -1.3613055790e-03 3.1286322451e+00 -5.4189500067e+00 3.1286322451e+00 5.4189500067e+00 
105700 6.5909887846e+00 -1.3541359999e-03 3.1286540007e+00 -5.4189876885e+00 3.1286540007e+00 5.4189876885e+00 
105800 6.5909887485e+00 -1.3470020436e-03 3.1286756416e+00 -5.4190251717e+00 3.1286756416e+00 5.4190251717e+00 
105900 6.5909887133e+00 -1.3399035794e-03 3.1286971683e+00 -5.4190624571e+00 3.1286971683e+00 5.4190624571e+00 
106000 6.5909886789e+00 -1.3328404750e-03 3.1287185815e+00 -5.4190995457e+00 3.1287185815e+00 5.4190995457e+00 
106100 6.5909886455e+00 -1.3258125967e-03 3.1287398816e+00 -5.4191364386e+00 3.1287398816e+00 5.4191364386e+00 
106200 6.5909886129e+00 -1.3188198095e-03 3.1287610693e+00 -5.4191731367e+00 3.1287610693e+00 5.4191731367e+00 
106300 6.5909885811e+00 -1.3118619768e-03 3.1287821451e+00 -5.4192096411e+00 3.1287821451e+00 5.4192096411e+00 
106400 6.5909885502e+00 -1.3049389607e-03 3.1288031095e+00 -5.4192459525e+00 3.1288031095e+00 5.4192459525e+00 
106500 6.5909885201e+00 -1.2980506220e-03 3.1288239632e+00 -5.4192820722e+00 3.1288239632e+00 5.4192820722e+00 
106600 6.5909884908e+00 -1.2911968200e-03 3.1288447066e+00 -5.4193180009e+00 3.1288447066e+00 5.4193180009e+00 
106700 6.5909884622e+00 -1.2843774129e-03 3.1288653404e+00 -5.4193537396e+00 3.1288653404e+00 5.4193537396e+00 
106800 6.5909884345e+00 -1.2775922574e-03 3.1288858651e+00 -5.4193892894e+00 3.1288858651e+00 5.4193892894e+00 
106900 6.5909884076e+00 -1.2708412091e-03 3.1289062812e+00 -5.4194246511e+00 3.1289062812e+00 5.4194246511e+00 
107000 6.5909883814e+00 -1.2641241223e-03 3.1289265893e+00 -5.4194598258e+00 3.1289265893e+00 5.4194598258e+00 
107100 6.5909883559e+00 -1.2574408503e-03 3.1289467899e+00 -5.4194948143e+00 3.1289467899e+00 5.4194948143e+00 
107200 6.5909883312e+00 -1.2507912450e-03 3.1289668836e+00 -5.4195296176e+00 3.1289668836e+00 5.4195296176e+00 
107300 6.5909883072e+00 -1.2441751574e-03 3.1289868709e+00 -5.4195642366e+00 3.1289868709e+00 5.4195642366e+00 
107400 6.5909882839e+00 -1.2375924373e-03 3.1290067524e+00 -5.4195986723e+00 3.1290067524e+00 5.4195986723e+00 
107500 6.5909882613e+00 -1.2310429336e-03 3.1290265285e+00 -5.4196329256e+00 3.1290265285e+00 5.4196329256e+00 
107600 6.5909882394e+00 -1.2245264940e-03 3.1290461999e+00 -5.4196669974e+00 3.1290461999e+00 5.4196669974e+00 
107700 6.5909882182e+00 -1.2180429654e-03 3.1290657670e+00 -5.4197008887e+00 3.1290657670e+00 5.4197008887e+00 
107800 6.5909881977e+00 -1.2115921938e-03 3.1290852304e+00 -5.4197346002e+00 3.1290852304e+00 5.4197346002e+00 
107900 6.5909881778e+00 -1.2051740243e-03 3.1291045906e+00 -5.4197681331e+00 3.1291045906e+00 5.4197681331e+00 
108000 6.5909881585e+00 -1.1987883011e-03 3.1291238481e+00 -5.4198014880e+00 3.1291238481e+00 5.4198014880e+00 
108100 6.5909881399e+00 -1.1924348677e-03 3.1291430034e+00 -5.4198346661e+00 3.1291430034e+00 5.4198346661e+00 
108200 6.5909881219e+00 -1.1861135669e-03 3.1291620571e+00 -5.4198676681e+00 3.1291620571e+00 5.4198676681e+00 
108300 6.5909881045e+00 -1.1798242406e-03 3.1291810097e+00 -5.4199004949e+00 3.1291810097e+00 5.4199004949e+00 
108400 6.5909880878e+00 -1.1735667302e-03 3.1291998617e+00 -5.4199331475e+00 3.1291998617e+00 5.4199331475e+00 
108500 6.5909880716e+00 -1.1673408766e-03 3.1292186136e+00 -5.4199656268e+00 3.1292186136e+00 5.4199656268e+00 
108600 6.5909880560e+00 -1.1611465200e-03 3.1292372659e+00 -5.4199979335e+00 3.1292372659e+00 5.4199979335e+00 
108700 6.5909880410e+00 -1.1549834999e-03 3.1292558191e+00 -5.4200300686e+00 3.1292558191e+00 5.4200300686e+00 
108800 6.5909880266e+00 -1.1488516558e-03 3.1292742737e+00 -5.4200620329e+00 3.1292742737e+00 5.4200620329e+00 
108900 6.5909880127e+00 -1.1427508263e-03 3.1292926303e+00 -5.4200938274e+00 3.1292926303e+00 5.4200938274e+00 
109000 6.5909879993e+00 -1.1366808498e-03 3.1293108892e+00 -5.4201254528e+00 3.1293108892e+00 5.4201254528e+00 
109100 6.5909879865e+00 -1.1306415646e-03 3.1293290511e+00 -5.4201569101e+00 3.1293290511e+00 5.4201569101e+00 
109200 6.5909879742e+00 -1.1246328083e-03 3.1293471163e+00 -5.4201882000e+00 3.1293471163e+00 5.4201882000e+00 
109300 6.5909879625e+00 -1.1186544185e-03 3.1293650855e+00 -5.4202193235e+00 3.1293650855e+00 5.4202193235e+00 
109400 6.5909879512e+00 -1.1127062326e-03 3.1293829590e+00 -5.4202502813e+00 3.1293829590e+00 5.4202502813e+00 
109500 6.5909879405e+00 -1.1067880877e-03 3.1294007374e+00 -5.4202810744e+00 3.1294007374e+00 5.4202810744e+00 
109600 6.5909879302e+00 -1.1008998211e-03 3.1294184211e+00 -5.4203117035e+00 3.1294184211e+00 5.4203117035e+00 
109700 6.5909879205e+00 -1.0950412696e-03 3.1294360106e+00 -5.4203421695e+00 3.1294360106e+00 5.4203421695e+00 
109800 6.5909879112e+00 -1.0892122704e-03 3.1294535065e+00 -5.4203724732e+00 3.1294535065e+00 5.4203724732e+00 
109900 6.5909879023e+00 -1.0834126604e-03 3.1294709091e+00 -5.4204026154e+00 3.1294709091e+00 5.4204026154e+00 
110000 6.5909878940e+00 -1.0776422768e-03 3.1294882190e+00 -5.4204325969e+00 3.1294882190e+00 5.4204325969e+00 
110100 6.5909878861e+00 -1.0719009568e-03 3.1295054365e+00 -5.4204624186e+00 3.1295054365e+00 5.4204624186e+00 
110200 6.5909878786e+00 -1.0661885378e-03 3.1295225623e+00 -5.4204920813e+00 3.1295225623e+00 5.4204920813e+00 
110300 6.5909878716e+00 -1.0605048573e-03 3.1295395966e+00 -5.4205215857e+00 3.1295395966e+00 5.4205215857e+00 
110400 6.5909878650e+00 -1.0548497533e-03 3.1295565401e+00 -5.4205509326e+00 3.1295565401e+00 5.4205509326e+00 
110500 6.5909878588e+00 -1.0492230638e-03 3.1295733932e+00 -5.4205801230e+00 3.1295733932e+00 5.4205801230e+00 
110600 6.5909878530e+00 -1.0436246272e-03 3.1295901562e+00 -5.4206091574e+00 3.1295901562e+00 5.4206091574e+00 
110700 6.5909878476e+00 -1.0380542823e-03 3.1296068297e+00 -5.4206380368e+00 3.1296068297e+00 5.4206380368e+00 
110800 6.5909878427e+00 -1.0325118684e-03 3.1296234142e+00 -5.4206667619e+00 3.1296234142e+00 5.4206667619e+00 
110900 6.5909878381e+00 -1.0269972249e-03 3.1296399100e+00 -5.4206953334e+00 3.1296399100e+00 5.4206953334e+00 
111000 6.5909878339e+00 -1.0215101922e-03 3.1296563176e+00 -5.4207237522e+00 3.1296563176e+00 5.4207237522e+00 
111100 6.5909878301e+00 -1.0160506107e-03 3.1296726374e+00 -5.4207520191e+00 3.1296726374e+00 5.4207520191e+00 
111200 6.5909878267e+00 -1.0106183216e-03 3.1296888700e+00 -5.4207801347e+00 3.1296888700e+00 5.4207801347e+00 
111300 6.5909878236e+00 -1.0052131668e-03 3.1297050157e+00 -5.4208080998e+00 3.1297050157e+00 5.4208080998e+00 
111400 6.5909878209e+00 -9.9983498852e-04 3.1297210749e+00 -5.4208359153e+00 3.1297210749e+00 5.4208359153e+00 
111500 6.5909878185e+00 -9.9448362985e-04 3.1297370481e+00 -5.4208635817e+00 3.1297370481e+00 5.4208635817e+00 
111600 6.5909878165e+00 -9.8915893451e-04 3.1297529358e+00 -5.4208911000e+00 3.1297529358e+00 5.4208911000e+00 
111700 6.5909878148e+00 -9.8386074692e-04 3.1297687383e+00 -5.4209184707e+00 3.1297687383e+00 5.4209184707e+00 
111800 6.5909878134e+00 -9.7858891227e-04 3.1297844561e+00 -5.4209456948e+00 3.1297844561e+00 5.4209456948e+00 
111900 6.5909878124e+00 -9.7334327652e-04 3.1298000896e+00 -5.4209727728e+00 3.1298000896e+00 5.4209727728e+00 
112000 6.5909878116e+00 -9.6812368644e-04 3.1298156393e+00 -5.4209997055e+00 3.1298156393e+00 5.4209997055e+00 
112100 6.5909878112e+00 -9.6292998962e-04 3.1298311054e+00 -5.4210264937e+00 3.1298311054e+00 5.4210264937e+00 
112200 6.5909878111e+00 -9.5776203455e-04 3.1298464885e+00 -5.4210531380e+00 3.1298464885e+00 5.4210531380e+00 
112300 6.5909878113e+00 -9.5261967056e-04 3.1298617890e+00 -5.4210796392e+00 3.1298617890e+00 5.4210796392e+00 
112400 6.5909878118e+00 -9.4750274794e-04 3.1298770073e+00 -5.4211059980e+00 3.1298770073e+00 5.4211059980e+00 
112500 6.5909878126e+00 -9.4241111789e-04 3.1298921437e+00 -5.4211322151e+00 3.1298921437e+00 5.4211322151e+00 
112600 6.5909878136e+00 -9.3734463258e-04 3.1299071987e+00 -5.4211582911e+00 3.1299071987e+00 5.4211582911e+00 
112700 6.5909878150e+00 -9.3230314515e-04 3.1299221727e+00 -5.4211842269e+00 3.1299221727e+00 5.4211842269e+00 
112800 6.5909878166e+00 -9.2728650977e-04 3.1299370661e+00 -5.4212100230e+00 3.1299370661e+00 5.4212100230e+00 
112900 6.5909878185e+00 -9.2229458161e-04 3.1299518793e+00 -5.4212356802e+00 3.1299518793e+00 5.4212356802e+00 
113000 6.5909878206e+00 -9.1732721690e-04 3.1299666127e+00 -5.4212611992e+00 3.1299666127e+00 5.4212611992e+00 
113100 6.5909878230e+00 -9.1238427293e-04 3.1299812667e+00 -5.4212865806e+00 3.1299812667e+00 5.4212865806e+00 
113200 6.5909878256e+00 -9.0746560805e-04 3.1299958416e+00 -5.4213118251e+00 3.1299958416e+00 5.4213118251e+00 
113300 6.5909878285e+00 -9.0257108172e-04 3.1300103379e+00 -5.4213369334e+00 3.1300103379e+00 5.4213369334e+00 
113400 6.5909878316e+00 -8.9770055452e-04 3.1300247559e+00 -5.4213619062e+00 3.1300247559e+00 5.4213619062e+00 
113500 6.5909878350e+00 -8.9285388813e-04 3.1300390961e+00 -5.4213867441e+00 3.1300390961e+00 5.4213867441e+00 
113600 6.5909878386e+00 -8.8803094539e-04 3.1300533587e+00 -5.4214114477e+00 3.1300533587e+00 5.4214114477e+00 
113700 6.5909878424e+00 -8.8323159026e-04 3.1300675443e+00 -5.4214360178e+00 3.1300675443e+00 5.4214360178e+00 
113800 6.5909878464e+00 -8.7845568790e-04 3.1300816531e+00 -5.4214604551e+00 3.1300816531e+00 5.4214604551e+00 
113900 6.5909878506e+00 -8.7370310461e-04 3.1300956856e+00 -5.4214847600e+00 3.1300956856e+00 5.4214847600e+00 
114000 6.5909878551e+00 -8.6897370787e-04 3.1301096421e+00 -5.4215089334e+00 3.1301096421e+00 5.4215089334e+00 
114100 6.5909878597e+00 -8.6426736636e-04 3.1301235230e+00 -5.4215329758e+00 3.1301235230e+00 5.4215329758e+00 
114200 6.5909878646e+00 -8.5958394996e-04 3.1301373287e+00 -5.4215568879e+00 3.1301373287e+00 5.4215568879e+00 
114300 6.5909878697e+00 -8.5492332973e-04 3.1301510594e+00 -5.4215806703e+00 3.1301510594e+00 5.4215806703e+00 
114400 6.5909878749e+00 -8.5028537796e-04 3.1301647157e+00 -5.4216043237e+00 3.1301647157e+00 5.4216043237e+00 
114500 6.5909878803e+00 -8.4566996813e-04 3.1301782979e+00 -5.4216278486e+00 3.1301782979e+00 5.4216278486e+00 
114600 6.5909878860e+00 -8.4107697497e-04 3.1301918062e+00 -5.4216512458e+00 3.1301918062e+00 5.4216512458e+00 
114700 6.5909878918e+00 -8.3650627438e-04 3.1302052411e+00 -5.4216745157e+00 3.1302052411e+00 5.4216745157e+00 
114800 6.5909878977e+00 -8.3195774350e-04 3.1302186030e+00 -5.4216976591e+00 3.1302186030e+00 5.4216976591e+00 
114900 6.5909879039e+00 -8.2743126072e-04 3.1302318921e+00 -5.4217206766e+00 3.1302318921e+00 5.4217206766e+00 
115000 6.5909879102e+00 -8.2292670562e-04 3.1302451089e+00 -5.4217435687e+00 3.1302451089e+00 5.4217435687e+00 
115100 6.5909879166e+00 -8.1844395899e-04 3.1302582537e+00 -5.4217663362e+00 3.1302582537e+00 5.4217663362e+00 
115200 6.5909879233e+00 -8.1398290288e-04 3.1302713268e+00 -5.4217889795e+00 3.1302713268e+00 5.4217889795e+00 
115300 6.5909879301e+00 -8.0954342052e-04 3.1302843286e+00 -5.4218114992e+00 3.1302843286e+00 5.4218114992e+00 
115400 6.5909879370e+00 -8.0512539636e-04 3.1302972594e+00 -5.4218338961e+00 3.1302972594e+00 5.4218338961e+00 
115500 6.5909879441e+00 -8.0072871609e-04 3.1303101196e+00 -5.4218561707e+00 3.1303101196e+00 5.4218561707e+00 
115600 6.5909879513e+00 -7.9635326658e-04 3.1303229096e+00 -5.4218783235e+00 3.1303229096e+00 5.4218783235e+00 
115700 6.5909879587e+00 -7.9199893590e-04 3.1303356296e+00 -5.4219003552e+00 3.1303356296e+00 5.4219003552e+00 
115800 6.5909879662e+00 -7.8766561333e-04 3.1303482800e+00 -5.4219222663e+00 3.1303482800e+00 5.4219222663e+00 
115900 6.5909879738e+00 -7.8335318933e-04 3.1303608611e+00 -5.4219440574e+00 3.1303608611e+00 5.4219440574e+00 
116000 6.5909879816e+00 -7.7906155553e-04 3.1303733733e+00 -5.4219657292e+00 3.1303733733e+00 5.4219657292e+00 
116100 6.5909879895e+00 -7.7479060477e-04 3.1303858169e+00 -5.4219872821e+00 3.1303858169e+00 5.4219872821e+00 
116200 6.5909879975e+00 -7.7054023102e-04 3.1303981922e+00 -5.4220087168e+00 3.1303981922e+00 5.4220087168e+00 
116300 6.5909880057e+00 -7.6631032942e-04 3.1304104996e+00 -5.4220300339e+00 3.1304104996e+00 5.4220300339e+00 
116400 6.5909880139e+00 -7.6210079626e-04 3.1304227394e+00 -5.4220512338e+00 3.1304227394e+00 5.4220512338e+00 
116500 6.5909880223e+00 -7.5791152897e-04 3.1304349119e+00 -5.4220723172e+00 3.1304349119e+00 5.4220723172e+00 
116600 6.5909880308e+00 -7.5374242610e-04 3.1304470174e+00 -5.4220932846e+00 3.1304470174e+00 5.4220932846e+00 
116700 6.5909880393e+00 -7.4959338732e-04 3.1304590563e+00 -5.4221141366e+00 3.1304590563e+00 5.4221141366e+00 
116800 6.5909880480e+00 -7.4546431340e-04 3.1304710289e+00 -5.4221348737e+00 3.1304710289e+00 5.4221348737e+00 
116900 6.5909880568e+00 -7.4135510622e-04 3.1304829355e+00 -5.4221554965e+00 3.1304829355e+00 5.4221554965e+00 
117000 6.5909880657e+00 -7.3726566870e-04 3.1304947764e+00 -5.4221760056e+00 3.1304947764e+00 5.4221760056e+00 
117100 6.5909880747e+00 -7.3319590487e-04 3.1305065520e+00 -5.4221964014e+00 3.1305065520e+00 5.4221964014e+00 
117200 6.5909880838e+00 -7.2914571980e-04 3.1305182625e+00 -5.4222166846e+00 3.1305182625e+00 5.4222166846e+00 
117300 6.5909880929e+00 -7.2511501959e-04 3.1305299082e+00 -5.4222368557e+00 3.1305299082e+00 5.4222368557e+00 
117400 6.5909881022e+00 -7.2110371137e-04 3.1305414896e+00 -5.4222569152e+00 3.1305414896e+00 5.4222569152e+00 
117500 6.5909881115e+00 -7.1711170329e-04 3.1305530068e+00 -5.4222768636e+00 3.1305530068e+00 5.4222768636e+00 
117600 6.5909881209e+00 -7.1313890449e-04 3.1305644603e+00 -5.4222967016e+00 3.1305644603e+00 5.4222967016e+00 
117700 6.5909881304e+00 -7.0918522509e-04 3.1305758502e+00 -5.4223164296e+00 3.1305758502e+00 5.4223164296e+00 
117800 6.5909881400e+00 -7.0525057618e-04 3.1305871770e+00 -5.4223360481e+00 3.1305871770e+00 5.4223360481e+00 
117900 6.5909881496e+00 -7.0133486982e-04 3.1305984409e+00 -5.4223555577e+00 3.1305984409e+00 5.4223555577e+00 
118000 6.5909881594e+00 -6.9743801896e-04 3.1306096422e+00 -5.4223749589e+00 3.1306096422e+00 5.4223749589e+00 
118100 6.5909881691e+00 -6.9355993752e-04 3.1306207812e+00 -5.4223942522e+00 3.1306207812e+00 5.4223942522e+00 
118200 6.5909881790e+00 -6.8970054030e-04 3.1306318582e+00 -5.4224134382e+00 3.1306318582e+00 5.4224134382e+00 
118300 6.5909881889e+00 -6.8585974298e-04 3.1306428736e+00 -5.4224325174e+00 3.1306428736e+00 5.4224325174e+00 
118400 6.5909881989e+00 -6.8203746212e-04 3.1306538276e+00 -5.4224514903e+00 3.1306538276e+00 5.4224514903e+00 
118500 6.5909882089e+00 -6.7823361514e-04 3.1306647205e+00 -5.4224703573e+00 3.1306647205e+00 5.4224703573e+00 
118600 6.5909882190e+00 -6.7444812028e-04 3.1306755526e+00 -5.4224891191e+00 3.1306755526e+00 5.4224891191e+00 
118700 6.5909882291e+00 -6.7068089663e-04 3.1306863242e+00 -5.4225077761e+00 3.1306863242e+00 5.4225077761e+00 
118800 6.5909882393e+00 -6.6693186405e-04 3.1306970356e+00 -5.4225263288e+00 3.1306970356e+00 5.4225263288e+00 
118900 6.5909882496e+00 -6.6320094321e-04 3.1307076871e+00 -5.4225447777e+00 3.1307076871e+00 5.4225447777e+00 
119000 6.5909882599e+00 -6.5948805553e-04 3.1307182790e+00 -5.4225631234e+00 3.1307182790e+00 5.4225631234e+00 
119100 6.5909882702e+00 -6.5579312321e-04 3.1307288115e+00 -5.4225813663e+00 3.1307288115e+00 5.4225813663e+00 
119200 6.5909882806e+00 -6.5211606916e-04 3.1307392850e+00 -5.4225995069e+00 3.1307392850e+00 5.4225995069e+00 
119300 6.5909882910e+00 -6.4845681702e-04 3.1307496998e+00 -5.4226175457e+00 3.1307496998e+00 5.4226175457e+00 
119400 6.5909883015e+00 -6.4481529113e-04 3.1307600560e+00 -5.4226354833e+00 3.1307600560e+00 5.4226354833e+00 
119500 6.5909883120e+00 -6.4119141651e-04 3.1307703541e+00 -5.4226533201e+00 3.1307703541e+00 5.4226533201e+00 
119600 6.5909883225e+00 -6.3758511885e-04 3.1307805942e+00 -5.4226710566e+00 3.1307805942e+00 5.4226710566e+00 
119700 6.5909883331e+00 -6.3399632449e-04 3.1307907768e+00 -5.4226886932e+00 3.1307907768e+00 5.4226886932e+00 
119800 6.5909883437e+00 -6.3042496040e-04 3.1308009020e+00 -5.4227062306e+00 3.1308009020e+00 5.4227062306e+00 
119900 6.5909883543e+00 -6.2687095418e-04 3.1308109701e+00 -5.4227236691e+00 3.1308109701e+00 5.4227236691e+00 
120000 6.5909883650e+00 -6.2333423401e-04 3.1308209814e+00 -5.4227410092e+00 3.1308209814e+00 5.4227410092e+00 
120100 6.5909883757e+00 -6.1981472867e-04 3.1308309362e+00 -5.4227582514e+00 3.1308309362e+00 5.4227582514e+00 
120200 6.5909883864e+00 -6.1631236750e-04 3.1308408348e+00 -5.4227753962e+00 3.1308408348e+00 5.4227753962e+00 
120300 6.5909883971e+00 -6.1282708038e-04 3.1308506774e+00 -5.4227924441e+00 3.1308506774e+00 5.4227924441e+00 
120400 6.5909884079e+00 -6.0935879774e-04 3.1308604643e+00 -5.4228093956e+00 3.1308604643e+00 5.4228093956e+00 
120500 6.5909884187e+00 -6.0590745052e-04 3.1308701958e+00 -5.4228262510e+00 3.1308701958e+00 5.4228262510e+00 
120600 6.5909884295e+00 -6.0247297017e-04 3.1308798721e+00 -5.4228430109e+00 3.1308798721e+00 5.4228430109e+00 
120700 6.5909884403e+00 -5.9905528862e-04 3.1308894936e+00 -5.4228596758e+00 3.1308894936e+00 5.4228596758e+00 
120800 6.5909884511e+00 -5.9565433827e-04 3.1308990605e+00 -5.4228762461e+00 3.1308990605e+00 5.4228762461e+00 
120900 6.5909884620e+00 -5.9227005197e-04 3.1309085730e+00 -5.4228927223e+00 3.1309085730e+00 5.4228927223e+00 
121000 6.5909884728e+00 -5.8890236303e-04 3.1309180314e+00 -5.4229091048e+00 3.1309180314e+00 5.4229091048e+00 
121100 6.5909884837e+00 -5.8555120519e-04 3.1309274361e+00 -5.4229253941e+00 3.1309274361e+00 5.4229253941e+00 
121200 6.5909884946e+00 -5.8221651256e-04 3.1309367871e+00 -5.4229415906e+00 3.1309367871e+00 5.4229415906e+00 
121300 6.5909885055e+00 -5.7889821970e-04 3.1309460850e+00 -5.4229576949e+00 3.1309460850e+00 5.4229576949e+00 
121400 6.5909885164e+00 -5.7559626151e-04 3.1309553297e+00 -5.4229737073e+00 3.1309553297e+00 5.4229737073e+00 
121500 6.5909885273e+00 -5.7231057329e-04 3.1309645218e+00 -5.4229896284e+00 3.1309645218e+00 5.4229896284e+00 
121600 6.5909885382e+00 -5.6904109068e-04 3.1309736613e+00 -5.4230054585e+00 3.1309736613e+00 5.4230054585e+00 
121700 6.5909885491e+00 -5.6578774966e-04 3.1309827486e+00 -5.4230211982e+00 3.1309827486e+00 5.4230211982e+00 
121800 6.5909885600e+00 -5.6255048656e-04 3.1309917839e+00 -5.4230368478e+00 3.1309917839e+00 5.4230368478e+00 
121900 6.5909885709e+00 -5.5932923801e-04 3.1310007675e+00 -5.4230524078e+00 3.1310007675e+00 5.4230524078e+00 
122000 6.5909885818e+00 -5.5612394095e-04 3.1310096996e+00 -5.4230678787e+00 3.1310096996e+00 5.4230678787e+00 
122100 6.5909885927e+00 -5.5293453260e-04 3.1310185805e+00 -5.4230832609e+00 3.1310185805e+00 5.4230832609e+00 
122200 6.5909886036e+00 -5.4976095047e-04 3.1310274105e+00 -5.4230985548e+00 3.1310274105e+00 5.4230985548e+00 
122300 6.5909886145e+00 -5.4660313236e-04 3.1310361897e+00 -5.4231137609e+00 3.1310361897e+00 5.4231137609e+00 
122400 6.5909886254e+00 -5.4346101629e-04 3.1310449185e+00 -5.4231288796e+00 3.1310449185e+00 5.4231288796e+00 
122500 6.5909886363e+00 -5.4033454054e-04 3.1310535971e+00 -5.4231439114e+00 3.1310535971e+00 5.4231439114e+00 
122600 6.5909886471e+00 -5.3722364364e-04 3.1310622257e+00 -5.4231588566e+00 3.1310622257e+00 5.4231588566e+00 
122700 6.5909886580e+00 -5.3412826433e-04 3.1310708047e+00 -5.4231737158e+00 3.1310708047e+00 5.4231737158e+00 
122800 6.5909886689e+00 -5.3104834157e-04 3.1310793342e+00 -5.4231884893e+00 3.1310793342e+00 5.4231884893e+00 
122900 6.5909886797e+00 -5.2798381453e-04 3.1310878144e+00 -5.4232031776e+00 3.1310878144e+00 5.4232031776e+00 
123000 6.5909886905e+00 -5.2493462257e-04 3.1310962458e+00 -5.4232177811e+00 3.1310962458e+00 5.4232177811e+00 
123100 6.5909887014e+00 -5.2190070525e-04 3.1311046284e+00 -5.4232323001e+00 3.1311046284e+00 5.4232323001e+00 
123200 6.5909887122e+00 -5.1888200228e-04 3.1311129625e+00 -5.4232467353e+00 3.1311129625e+00 5.4232467353e+00 
123300 6.5909887230e+00 -5.1587845357e-04 3.1311212484e+00 -5.4232610869e+00 3.1311212484e+00 5.4232610869e+00 
123400 6.5909887337e+00 -5.1288999918e-04 3.1311294863e+00 -5.4232753554e+00 3.1311294863e+00 5.4232753554e+00 
123500 6.5909887445e+00 -5.0991657932e-04 3.1311376765e+00 -5.4232895412e+00 3.1311376765e+00 5.4232895412e+00 
123600 6.5909887552e+00 -5.0695813434e-04 3.1311458192e+00 -5.4233036447e+00 3.1311458192e+00 5.4233036447e+00 
123700 6.5909887660e+00 -5.0401460477e-04 3.1311539146e+00 -5.4233176664e+00 3.1311539146e+00 5.4233176664e+00 
123800 6.5909887767e+00 -5.0108593122e-04 3.1311619630e+00 -5.4233316066e+00 3.1311619630e+00 5.4233316066e+00 
123900 6.5909887874e+00 -4.9817205445e-04 3.1311699646e+00 -5.4233454658e+00 3.1311699646e+00 5.4233454658e+00 
124000 6.5909887980e+00 -4.9527291534e-04 3.1311779196e+00 -5.4233592444e+00 3.1311779196e+00 5.4233592444e+00 
124100 6.5909888087e+00 -4.9238845489e-04 3.1311858284e+00 -5.4233729427e+00 3.1311858284e+00 5.4233729427e+00 
124200 6.5909888193e+00 -4.8951861418e-04 3.1311936910e+00 -5.4233865612e+00 3.1311936910e+00 5.4233865612e+00 
124300 6.5909888299e+00 -4.8666333443e-04 3.1312015078e+00 -5.4234001003e+00 3.1312015078e+00 5.4234001003e+00 
124400 6.5909888405e+00 -4.8382255693e-04 3.1312092790e+00 -5.4234135604e+00 3.1312092790e+00 5.4234135604e+00 
124500 6.5909888510e+00 -4.8099622307e-04 3.1312170048e+00 -5.4234269419e+00 3.1312170048e+00 5.4234269419e+00 
124600 6.5909888615e+00 -4.7818427433e-04 3.1312246855e+00 -5.4234402452e+00 3.1312246855e+00 5.4234402452e+00 
124700 6.5909888720e+00 -4.7538665227e-04 3.1312323212e+00 -5.4234534707e+00 3.1312323212e+00 5.4234534707e+00 
124800 6.5909888825e+00 -4.7260329855e-04 3.1312399123e+00 -5.4234666188e+00 3.1312399123e+00 5.4234666188e+00 
124900 6.5909888930e+00 -4.6983415487e-04 3.1312474589e+00 -5.4234796899e+00 3.1312474589e+00 5.4234796899e+00 
125000 6.5909889034e+00 -4.6707916303e-04 3.1312549612e+00 -5.4234926843e+00 3.1312549612e+00 5.4234926843e+00 
125100 6.5909889138e+00 -4.6433826490e-04 3.1312624196e+00 -5.4235056025e+00 3.1312624196e+00 5.4235056025e+00 
125200 6.5909889241e+00 -4.6161140239e-04 3.1312698341e+00 -5.4235184449e+00 3.1312698341e+00 5.4235184449e+00 
125300 6.5909889345e+00 -4.5889851752e-04 3.1312772051e+00 -5.4235312119e+00 3.1312772051e+00 5.4235312119e+00 
125400 6.5909889448e+00 -4.5619955233e-04 3.1312845328e+00 -5.4235439037e+00 3.1312845328e+00 5.4235439037e+00 
125500 6.5909889550e+00 -4.5351444894e-04 3.1312918173e+00 -5.4235565210e+00 3.1312918173e+00 5.4235565210e+00 
125600 6.5909889653e+00 -4.5084314953e-04 3.1312990590e+00 -5.4235690639e+00 3.1312990590e+00 5.4235690639e+00 
125700 6.5909889755e+00 -4.4818559632e-04 3.1313062580e+00 -5.4235815329e+00 3.1313062580e+00 5.4235815329e+00 
125800 6.5909889856e+00 -4.4554173162e-04 3.1313134145e+00 -5.4235939283e+00 3.1313134145e+00 5.4235939283e+00 
125900 6.5909889958e+00 -4.4291149775e-04 3.1313205288e+00 -5.4236062507e+00 3.1313205288e+00 5.4236062507e+00 
126000 6.5909890059e+00 -4.4029483712e-04 3.1313276011e+00 -5.4236185002e+00 3.1313276011e+00 5.4236185002e+00 
126100 6.5909890160e+00 -4.3769169217e-04 3.1313346316e+00 -5.4236306774e+00 3.1313346316e+00 5.4236306774e+00 
126200 6.5909890260e+00 -4.3510200542e-04 3.1313416205e+00 -5.4236427825e+00 3.1313416205e+00 5.4236427825e+00 
126300 6.5909890360e+00 -4.3252571940e-04 3.1313485680e+00 -5.4236548160e+00 3.1313485680e+00 5.4236548160e+00 
126400 6.5909890460e+00 -4.2996277673e-04 3.1313554744e+00 -5.4236667782e+00 3.1313554744e+00 5.4236667782e+00 
126500 6.5909890559e+00 -4.2741312007e-04 3.1313623398e+00 -5.4236786695e+00 3.1313623398e+00 5.4236786695e+00 
126600 6.5909890658e+00 -4.2487669213e-04 3.1313691646e+00 -5.4236904903e+00 3.1313691646e+00 5.4236904903e+00 
126700 6.5909890757e+00 -4.2235343568e-04 3.1313759488e+00 -5.4237022408e+00 3.1313759488e+00 5.4237022408e+00 
126800 6.5909890855e+00 -4.1984329353e-04 3.1313826927e+00 -5.4237139216e+00 3.1313826927e+00 5.4237139216e+00 
126900 6.5909890953e+00 -4.1734620857e-04 3.1313893965e+00 -5.4237255329e+00 3.1313893965e+00 5.4237255329e+00 
127000 6.5909891050e+00 -4.1486212372e-04 3.1313960604e+00 -5.4237370752e+00 3.1313960604e+00 5.4237370752e+00 
127100 6.5909891148e+00 -4.1239098198e-04 3.1314026846e+00 -5.4237485487e+00 3.1314026846e+00 5.4237485487e+00 
127200 6.5909891244e+00 -4.0993272639e-04 3.1314092694e+00 -5.4237599539e+00 3.1314092694e+00 5.4237599539e+00 
127300 6.5909891341e+00 -4.0748730007e-04 3.1314158149e+00 -5.4237712910e+00 3.1314158149e+00 5.4237712910e+00 
127400 6.5909891437e+00 -4.0505464618e-04 3.1314223213e+00 -5.4237825605e+00 3.1314223213e+00 5.4237825605e+00 
127500 6.5909891532e+00 -4.0263470797e-04 3.1314287889e+00 -5.4237937627e+00 3.1314287889e+00 5.4237937627e+00 
127600 6.5909891627e+00 -4.0022742872e-04 3.1314352178e+00 -5.4238048979e+00 3.1314352178e+00 5.4238048979e+00 
127700 6.5909891722e+00 -3.9783275182e-04 3.1314416083e+00 -5.4238159665e+00 3.1314416083e+00 5.4238159665e+00 
127800 6.5909891817e+00 -3.9545062070e-04 3.1314479605e+00 -5.4238269689e+00 3.1314479605e+00 5.4238269689e+00 
127900 6.5909891911e+00 -3.9308097889e-04 3.1314542747e+00 -5.4238379054e+00 3.1314542747e+00 5.4238379054e+00 
128000 6.5909892004e+00 -3.9072376995e-04 3.1314605511e+00 -5.4238487763e+00 3.1314605511e+00 5.4238487763e+00 
128100 6.5909892097e+00 -3.8837893757e-04 3.1314667898e+00 -5.4238595821e+00 3.1314667898e+00 5.4238595821e+00 
128200 6.5909892190e+00 -3.8604642549e-04 3.1314729910e+00 -5.4238703229e+00 3.1314729910e+00 5.4238703229e+00 
128300 6.5909892283e+00 -3.8372617753e-04 3.1314791550e+00 -5.4238809992e+00 3.1314791550e+00 5.4238809992e+00 
128400 6.5909892375e+00 -3.8141813762e-04 3.1314852819e+00 -5.4238916114e+00 3.1314852819e+00 5.4238916114e+00 
128500 6.5909892466e+00 -3.7912224975e-04 3.1314913719e+00 -5.4239021597e+00 3.1314913719e+00 5.4239021597e+00 
128600 6.5909892557e+00 -3.7683845803e-04 3.1314974253e+00 -5.4239126444e+00 3.1314974253e+00 5.4239126444e+00 
128700 6.5909892648e+00 -3.7456670663e-04 3.1315034422e+00 -5.4239230660e+00 3.1315034422e+00 5.4239230660e+00 
128800 6.5909892738e+00 -3.7230693984e-04 3.1315094228e+00 -5.4239334248e+00 3.1315094228e+00 5.4239334248e+00 
128900 6.5909892828e+00 -3.7005910206e-04 3.1315153674e+00 -5.4239437210e+00 3.1315153674e+00 5.4239437210e+00 
129000 6.5909892917e+00 -3.6782313778e-04 3.1315212760e+00 -5.4239539550e+00 3.1315212760e+00 5.4239539550e+00 
129100 6.5909893006e+00 -3.6559899159e-04 3.1315271489e+00 -5.4239641272e+00 3.1315271489e+00 5.4239641272e+00 
129200 6.5909893095e+00 -3.6338660820e-04 3.1315329863e+00 -5.4239742379e+00 3.1315329863e+00 5.4239742379e+00 
129300 6.5909893183e+00 -3.6118593243e-04 3.1315387884e+00 -5.4239842873e+00 3.1315387884e+00 5.4239842873e+00 
129400 6.5909893271e+00 -3.5899690922e-04 3.1315445553e+00 -5.4239942759e+00 3.1315445553e+00 5.4239942759e+00 
129500 6.5909893358e+00 -3.5681948363e-04 3.1315502872e+00 -5.4240042039e+00 3.1315502872e+00 5.4240042039e+00 
129600 6.5909893445e+00 -3.5465360084e-04 3.1315559844e+00 -5.4240140717e+00 3.1315559844e+00 5.4240140717e+00 
129700 6.5909893531e+00 -3.5249920616e-04 3.1315616470e+00 -5.4240238796e+00 3.1315616470e+00 5.4240238796e+00 
129800 6.5909893617e+00 -3.5035624503e-04 3.1315672752e+00 -5.4240336279e+00 3.1315672752e+00 5.4240336279e+00 
129900 6.5909893703e+00 -3.4822466300e-04 3.1315728691e+00 -5.4240433169e+00 3.1315728691e+00 5.4240433169e+00 
130000 6.5909893788e+00 -3.4610440581e-04 3.1315784290e+00 -5.4240529469e+00 3.1315784290e+00 5.4240529469e+00 
130100 6.5909893873e+00 -3.4399541928e-04 3.1315839550e+00 -5.4240625183e+00 3.1315839550e+00 5.4240625183e+00 
130200 6.5909893957e+00 -3.4189764942e-04 3.1315894474e+00 -5.4240720313e+00 3.1315894474e+00 5.4240720313e+00 
130300 6.5909894040e+00 -3.3981104235e-04 3.1315949063e+00 -5.4240814864e+00 3.1315949063e+00 5.4240814864e+00 
130400 6.5909894124e+00 -3.3773554437e-04 3.1316003318e+00 -5.4240908836e+00 3.1316003318e+00 5.4240908836e+00 
130500 6.5909894207e+00 -3.3567110191e-04 3.1316057242e+00 -5.4241002235e+00 3.1316057242e+00 5.4241002235e+00 
130600 6.5909894289e+00 -3.3361766157e-04 3.1316110836e+00 -5.4241095063e+00 3.1316110836e+00 5.4241095063e+00 
130700 6.5909894371e+00 -3.3157517011e-04 3.1316164102e+00 -5.4241187323e+00 3.1316164102e+00 5.4241187323e+00 
130800 6.5909894453e+00 -3.2954357443e-04 3.1316217042e+00 -5.4241279017e+00 3.1316217042e+00 5.4241279017e+00 
130900 6.5909894534e+00 -3.2752282164e-04 3.1316269657e+00 -5.4241370150e+00 3.1316269657e+00 5.4241370150e+00 
131000 6.5909894614e+00 -3.2551285896e-04 3.1316321950e+00 -5.4241460724e+00 3.1316321950e+00 5.4241460724e+00 
131100 6.5909894695e+00 -3.2351363385e-04 3.1316373922e+00 -5.4241550741e+00 3.1316373922e+00 5.4241550741e+00 
131200 6.5909894774e+00 -3.2152509387e-04 3.1316425574e+00 -5.4241640206e+00 3.1316425574e+00 5.4241640206e+00 
131300 6.5909894854e+00 -3.1954718682e-04 3.1316476909e+00 -5.4241729121e+00 3.1316476909e+00 5.4241729121e+00 
131400 6.5909894933e+00 -3.1757986065e-04 3.1316527928e+00 -5.4241817488e+00 3.1316527928e+00 5.4241817488e+00 
131500 6.5909895011e+00 -3.1562306350e-04 3.1316578633e+00 -5.4241905312e+00 3.1316578633e+00 5.4241905312e+00 
131600 6.5909895089e+00 -3.1367674370e-04 3.1316629025e+00 -5.4241992594e+00 3.1316629025e+00 5.4241992594e+00 
131700 6.5909895167e+00 -3.1174084976e-04 3.1316679107e+00 -5.4242079338e+00 3.1316679107e+00 5.4242079338e+00 
131800 6.5909895244e+00 -3.0981533038e-04 3.1316728879e+00 -5.4242165546e+00 3.1316728879e+00 5.4242165546e+00 
131900 6.5909895320e+00 -3.0790013447e-04 3.1316778344e+00 -5.4242251221e+00 3.1316778344e+00 5.4242251221e+00 
132000 6.5909895397e+00 -3.0599521112e-04 3.1316827503e+00 -5.4242336367e+00 3.1316827503e+00 5.4242336367e+00 
132100 6.5909895472e+00 -3.0410050963e-04 3.1316876358e+00 -5.4242420986e+00 3.1316876358e+00 5.4242420986e+00 
132200 6.5909895548e+00 -3.0221597950e-04 3.1316924910e+00 -5.4242505081e+00 3.1316924910e+00 5.4242505081e+00 
132300 6.5909895623e+00 -3.0034157042e-04 3.1316973161e+00 -5.4242588655e+00 3.1316973161e+00 5.4242588655e+00 
132400 6.5909895697e+00 -2.9847723230e-04 3.1317021113e+00 -5.4242671710e+00 3.1317021113e+00 5.4242671710e+00 
132500 6.5909895771e+00 -2.9662291525e-04 3.1317068767e+00 -5.4242754249e+00 3.1317068767e+00 5.4242754249e+00 
132600 6.5909895845e+00 -2.9477856961e-04 3.1317116125e+00 -5.4242836276e+00 3.1317116125e+00 5.4242836276e+00 
132700 6.5909895918e+00 -2.9294414590e-04 3.1317163189e+00 -5.4242917792e+00 3.1317163189e+00 5.4242917792e+00 
132800 6.5909895990e+00 -2.9111959488e-04 3.1317209960e+00 -5.4242998801e+00 3.1317209960e+00 5.4242998801e+00 
132900 6.5909896063e+00 -2.8930486752e-04 3.1317256439e+00 -5.4243079306e+00 3.1317256439e+00 5.4243079306e+00 
133000 6.5909896134e+00 -2.8749991499e-04 3.1317302628e+00 -5.4243159308e+00 3.1317302628e+00 5.4243159308e+00 
133100 6.5909896206e+00 -2.8570468870e-04 3.1317348529e+00 -5.4243238811e+00 3.1317348529e+00 5.4243238811e+00 
133200 6.5909896277e+00 -2.8391914028e-04 3.1317394144e+00 -5.4243317818e+00 3.1317394144e+00 5.4243317818e+00 
133300 6.5909896347e+00 -2.8214322157e-04 3.1317439473e+00 -5.4243396330e+00 3.1317439473e+00 5.4243396330e+00 
133400 6.5909896417e+00 -2.8037688464e-04 3.1317484519e+00 -5.4243474352e+00 3.1317484519e+00 5.4243474352e+00 
133500 6.5909896487e+00 -2.7862008178e-04 3.1317529282e+00 -5.4243551885e+00 3.1317529282e+00 5.4243551885e+00 
133600 6.5909896556e+00 -2.7687276553e-04 3.1317573765e+00 -5.4243628932e+00 3.1317573765e+00 5.4243628932e+00 
133700 6.5909896625e+00 -2.7513488862e-04 3.1317617970e+00 -5.4243705495e+00 3.1317617970e+00 5.4243705495e+00 
133800 6.5909896693e+00 -2.7340640403e-04 3.1317661896e+00 -5.4243781578e+00 3.1317661896e+00 5.4243781578e+00 
133900 6.5909896761e+00 -2.7168726498e-04 3.1317705547e+00 -5.4243857183e+00 3.1317705547e+00 5.4243857183e+00 
134000 6.5909896828e+00 -2.6997742491e-04 3.1317748923e+00 -5.4243932313e+00 3.1317748923e+00 5.4243932313e+00 
134100 6.5909896895e+00 -2.6827683747e-04 3.1317792026e+00 -5.4244006969e+00 3.1317792026e+00 5.4244006969e+00 
134200 6.5909896962e+00 -2.6658545658e-04 3.1317834857e+00 -5.4244081155e+00 3.1317834857e+00 5.4244081155e+00 
134300 6.5909897028e+00 -2.6490323637e-04 3.1317877418e+00 -5.4244154874e+00 3.1317877418e+00 5.4244154874e+00 
134400 6.5909897094e+00 -2.6323013120e-04 3.1317919711e+00 -5.4244228127e+00 3.1317919711e+00 5.4244228127e+00 
134500 6.5909897159e+00 -2.6156609569e-04 3.1317961736e+00 -5.4244300917e+00 3.1317961736e+00 5.4244300917e+00 
134600 6.5909897224e+00 -2.5991108465e-04 3.1318003496e+00 -5.4244373247e+00 3.1318003496e+00 5.4244373247e+00 
134700 6.5909897288e+00 -2.5826505318e-04 3.1318044992e+00 -5.4244445119e+00 3.1318044992e+00 5.4244445119e+00 
134800 6.5909897352e+00 -2.5662795658e-04 3.1318086224e+00 -5.4244516536e+00 3.1318086224e+00 5.4244516536e+00 
134900 6.5909897416e+00 -2.5499975038e-04 3.1318127195e+00 -5.4244587500e+00 3.1318127195e+00 5.4244587500e+00 
135000 6.5909897479e+00 -2.5338039037e-04 3.1318167907e+00 -5.4244658014e+00 3.1318167907e+00 5.4244658014e+00 
135100 6.5909897542e+00 -2.5176983256e-04 3.1318208359e+00 -5.4244728080e+00 3.1318208359e+00 5.4244728080e+00 
135200 6.5909897604e+00 -2.5016803320e-04 3.1318248555e+00 -5.4244797701e+00 3.1318248555e+00 5.4244797701e+00 
135300 6.5909897666e+00 -2.4857494877e-04 3.1318288494e+00 -5.4244866878e+00 3.1318288494e+00 5.4244866878e+00 
135400 6.5909897728e+00 -2.4699053599e-04 3.1318328180e+00 -5.4244935615e+00 3.1318328180e+00 5.4244935615e+00 
135500 6.5909897789e+00 -2.4541475182e-04 3.1318367612e+00 -5.4245003914e+00 3.1318367612e+00 5.4245003914e+00 
135600 6.5909897849e+00 -2.4384755344e-04 3.1318406793e+00 -5.4245071777e+00 3.1318406793e+00 5.4245071777e+00 
135700 6.5909897910e+00 -2.4228889828e-04 3.1318445723e+00 -5.4245139206e+00 3.1318445723e+00 5.4245139206e+00 
135800 6.5909897970e+00 -2.4073874399e-04 3.1318484405e+00 -5.4245206205e+00 3.1318484405e+00 5.4245206205e+00 
135900 6.5909898029e+00 -2.3919704847e-04 3.1318522839e+00 -5.4245272774e+00 3.1318522839e+00 5.4245272774e+00 
136000 6.5909898088e+00 -2.3766376983e-04 3.1318561026e+00 -5.4245338918e+00 3.1318561026e+00 5.4245338918e+00 
136100 6.5909898147e+00 -2.3613886644e-04 3.1318598969e+00 -5.4245404637e+00 3.1318598969e+00 5.4245404637e+00 
136200 6.5909898205e+00 -2.3462229687e-04 3.1318636669e+00 -5.4245469934e+00 3.1318636669e+00 5.4245469934e+00 
136300 6.5909898263e+00 -2.3311401995e-04 3.1318674126e+00 -5.4245534812e+00 3.1318674126e+00 5.4245534812e+00 
136400 6.5909898320e+00 -2.3161399472e-04 3.1318711343e+00 -5.4245599273e+00 3.1318711343e+00 5.4245599273e+00 
136500 6.5909898377e+00 -2.3012218045e-04 3.1318748319e+00 -5.4245663319e+00 3.1318748319e+00 5.4245663319e+00 
136600 6.5909898434e+00 -2.2863853665e-04 3.1318785058e+00 -5.4245726952e+00 3.1318785058e+00 5.4245726952e+00 
136700 6.5909898490e+00 -2.2716302306e-04 3.1318821560e+00 -5.4245790175e+00 3.1318821560e+00 5.4245790175e+00 
136800 6.5909898546e+00 -2.2569559962e-04 3.1318857826e+00 -5.4245852990e+00 3.1318857826e+00 5.4245852990e+00 
136900 6.5909898601e+00 -2.2423622651e-04 3.1318893858e+00 -5.4245915399e+00 3.1318893858e+00 5.4245915399e+00 
137000 6.5909898656e+00 -2.2278486415e-04 3.1318929657e+00 -5.4245977405e+00 3.1318929657e+00 5.4245977405e+00 
137100 6.5909898711e+00 -2.2134147315e-04 3.1318965224e+00 -5.4246039009e+00 3.1318965224e+00 5.4246039009e+00 
137200 6.5909898765e+00 -2.1990601436e-04 3.1319000561e+00 -5.4246100214e+00 3.1319000561e+00 5.4246100214e+00 
137300 6.5909898819e+00 -2.1847844886e-04 3.1319035668e+00 -5.4246161022e+00 3.1319035668e+00 5.4246161022e+00 
137400 6.5909898872e+00 -2.1705873792e-04 3.1319070548e+00 -5.4246221435e+00 3.1319070548e+00 5.4246221435e+00 
137500 6.5909898926e+00 -2.1564684305e-04 3.1319105201e+00 -5.4246281455e+00 3.1319105201e+00 5.4246281455e+00 
137600 6.5909898978e+00 -2.1424272598e-04 3.1319139628e+00 -5.4246341085e+00 3.1319139628e+00 5.4246341085e+00 
137700 6.5909899031e+00 -2.1284634863e-04 3.1319173831e+00 -5.4246400327e+00 3.1319173831e+00 5.4246400327e+00 
137800 6.5909899083e+00 -2.1145767315e-04 3.1319207811e+00 -5.4246459182e+00 3.1319207811e+00 5.4246459182e+00 
137900 6.5909899134e+00 -2.1007666189e-04 3.1319241570e+00 -5.4246517653e+00 3.1319241570e+00 5.4246517653e+00 
138000 6.5909899185e+00 -2.0870327743e-04 3.1319275108e+00 -5.4246575743e+00 3.1319275108e+00 5.4246575743e+00 
138100 6.5909899236e+00 -2.0733748254e-04 3.1319308426e+00 -5.4246633453e+00 3.1319308426e+00 5.4246633453e+00 
138200 6.5909899287e+00 -2.0597924020e-04 3.1319341527e+00 -5.4246690784e+00 3.1319341527e+00 5.4246690784e+00 
138300 6.5909899337e+00 -2.0462851360e-04 3.1319374411e+00 -5.4246747741e+00 3.1319374411e+00 5.4246747741e+00 
138400 6.5909899386e+00 -2.0328526613e-04 3.1319407079e+00 -5.4246804323e+00 3.1319407079e+00 5.4246804323e+00 
138500 6.5909899436e+00 -2.0194946139e-04 3.1319439532e+00 -5.4246860535e+00 3.1319439532e+00 5.4246860535e+00 
138600 6.5909899485e+00 -2.0062106315e-04 3.1319471773e+00 -5.4246916376e+00 3.1319471773e+00 5.4246916376e+00 
138700 6.5909899533e+00 -1.9930003543e-04 3.1319503801e+00 -5.4246971851e+00 3.1319503801e+00 5.4246971851e+00 
138800 6.5909899582e+00 -1.9798634239e-04 3.1319535618e+00 -5.4247026960e+00 3.1319535618e+00 5.4247026960e+00 
138900 6.5909899630e+00 -1.9667994842e-04 3.1319567226e+00 -5.4247081706e+00 3.1319567226e+00 5.4247081706e+00 
139000 6.5909899677e+00 -1.9538081811e-04 3.1319598624e+00 -5.4247136090e+00 3.1319598624e+00 5.4247136090e+00 
139100 6.5909899724e+00 -1.9408891621e-04 3.1319629816e+00 -5.4247190115e+00 3.1319629816e+00 5.4247190115e+00 
139200 6.5909899771e+00 -1.9280420768e-04 3.1319660801e+00 -5.4247243783e+00 3.1319660801e+00 5.4247243783e+00 
139300 6.5909899818e+00 -1.9152665766e-04 3.1319691581e+00 -5.4247297096e+00 3.1319691581e+00 5.4247297096e+00 
139400 6.5909899864e+00 -1.9025623148e-04 3.1319722157e+00 -5.4247350055e+00 3.1319722157e+00 5.4247350055e+00 
139500 6.5909899909e+00 -1.8899289466e-04 3.1319752531e+00 -5.4247402663e+00 3.1319752531e+00 5.4247402663e+00 
139600 6.5909899955e+00 -1.8773661289e-04 3.1319782702e+00 -5.4247454922e+00 3.1319782702e+00 5.4247454922e+00 
139700 6.5909900000e+00 -1.8648735204e-04 3.1319812673e+00 -5.4247506833e+00 3.1319812673e+00 5.4247506833e+00 
139800 6.5909900045e+00 -1.8524507817e-04 3.1319842444e+00 -5.4247558399e+00 3.1319842444e+00 5.4247558399e+00 
139900 6.5909900089e+00 -1.8400975751e-04 3.1319872018e+00 -5.4247609621e+00 3.1319872018e+00 5.4247609621e+00 
140000 6.5909900133e+00 -1.8278135647e-04 3.1319901393e+00 -5.4247660501e+00 3.1319901393e+00 5.4247660501e+00 
140100 6.5909900177e+00 -1.8155984163e-04 3.1319930573e+00 -5.4247711042e+00 3.1319930573e+00 5.4247711042e+00 
140200 6.5909900220e+00 -1.8034517973e-04 3.1319959558e+00 -5.4247761245e+00 3.1319959558e+00 5.4247761245e+00 
140300 6.5909900263e+00 -1.7913733770e-04 3.1319988349e+00 -5.4247811112e+00 3.1319988349e+00 5.4247811112e+00 
140400 6.5909900306e+00 -1.7793628261e-04 3.1320016947e+00 -5.4247860645e+00 3.1320016947e+00 5.4247860645e+00 
140500 6.5909900348e+00 -1.7674198174e-04 3.1320045353e+00 -5.4247909846e+00 3.1320045353e+00 5.4247909846e+00 
140600 6.5909900390e+00 -1.7555440249e-04 3.1320073568e+00 -5.4247958717e+00 3.1320073568e+00 5.4247958717e+00 
140700 6.5909900432e+00 -1.7437351244e-04 3.1320101594e+00 -5.4248007259e+00 3.1320101594e+00 5.4248007259e+00 
140800 6.5909900473e+00 -1.7319927934e-04 3.1320129431e+00 -5.4248055475e+00 3.1320129431e+00 5.4248055475e+00 
140900 6.5909900514e+00 -1.7203167108e-04 3.1320157081e+00 -5.4248103366e+00 3.1320157081e+00 5.4248103366e+00 
141000 6.5909900555e+00 -1.7087065572e-04 3.1320184545e+00 -5.4248150934e+00 3.1320184545e+00 5.4248150934e+00 
141100 6.5909900596e+00 -1.6971620147e-04 3.1320211823e+00 -5.4248198181e+00 3.1320211823e+00 5.4248198181e+00 
141200 6.5909900636e+00 -1.6856827670e-04 3.1320238916e+00 -5.4248245109e+00 3.1320238916e+00 5.4248245109e+00 
141300 6.5909900675e+00 -1.6742684991e-04 3.1320265827e+00 -5.4248291719e+00 3.1320265827e+00 5.4248291719e+00 
141400 6.5909900715e+00 -1.6629188979e-04 3.1320292555e+00 -5.4248338013e+00 3.1320292555e+00 5.4248338013e+00 
141500 6.5909900754e+00 -1.6516336514e-04 3.1320319102e+00 -5.4248383994e+00 3.1320319102e+00 5.4248383994e+00 
141600 6.5909900793e+00 -1.6404124493e-04 3.1320345469e+00 -5.4248429663e+00 3.1320345469e+00 5.4248429663e+00 
141700 6.5909900831e+00 -1.6292549826e-04 3.1320371657e+00 -5.4248475021e+00 3.1320371657e+00 5.4248475021e+00 
141800 6.5909900870e+00 -1.6181609438e-04 3.1320397666e+00 -5.4248520071e+00 3.1320397666e+00 5.4248520071e+00 
141900 6.5909900907e+00 -1.6071300270e-04 3.1320423498e+00 -5.4248564814e+00 3.1320423498e+00 5.4248564814e+00 
142000 6.5909900945e+00 -1.5961619273e-04 3.1320449155e+00 -5.4248609252e+00 3.1320449155e+00 5.4248609252e+00 
142100 6.5909900982e+00 -1.5852563415e-04 3.1320474636e+00 -5.4248653387e+00 3.1320474636e+00 5.4248653387e+00 
142200 6.5909901019e+00 -1.5744129678e-04 3.1320499943e+00 -5.4248697220e+00 3.1320499943e+00 5.4248697220e+00 
142300 6.5909901056e+00 -1.5636315056e-04 3.1320525077e+00 -5.4248740753e+00 3.1320525077e+00 5.4248740753e+00 
142400 6.5909901092e+00 -1.5529116557e-04 3.1320550039e+00 -5.4248783988e+00 3.1320550039e+00 5.4248783988e+00 
142500 6.5909901129e+00 -1.5422531201e-04 3.1320574829e+00 -5.4248826926e+00 3.1320574829e+00 5.4248826926e+00 
142600 6.5909901164e+00 -1.5316556025e-04 3.1320599450e+00 -5.4248869570e+00 3.1320599450e+00 5.4248869570e+00 
142700 6.5909901200e+00 -1.5211188073e-04 3.1320623901e+00 -5.4248911921e+00 3.1320623901e+00 5.4248911921e+00 
142800 6.5909901235e+00 -1.5106424408e-04 3.1320648184e+00 -5.4248953981e+00 3.1320648184e+00 5.4248953981e+00 
142900 6.5909901270e+00 -1.5002262102e-04 3.1320672300e+00 -5.4248995750e+00 3.1320672300e+00 5.4248995750e+00 
143000 6.5909901305e+00 -1.4898698241e-04 3.1320696249e+00 -5.4249037232e+00 3.1320696249e+00 5.4249037232e+00 
143100 6.5909901339e+00 -1.4795729922e-04 3.1320720033e+00 -5.4249078427e+00 3.1320720033e+00 5.4249078427e+00 
143200 6.5909901373e+00 -1.4693354256e-04 3.1320743653e+00 -5.4249119338e+00 3.1320743653e+00 5.4249119338e+00 
143300 6.5909901407e+00 -1.4591568366e-04 3.1320767109e+00 -5.4249159965e+00 3.1320767109e+00 5.4249159965e+00 
143400 6.5909901440e+00 -1.4490369386e-04 3.1320790403e+00 -5.4249200311e+00 3.1320790403e+00 5.4249200311e+00 
143500 6.5909901474e+00 -1.4389754463e-04 3.1320813535e+00 -5.4249240377e+00 3.1320813535e+00 5.4249240377e+00 
143600 6.5909901507e+00 -1.4289720755e-04 3.1320836507e+00 -5.4249280165e+00 3.1320836507e+00 5.4249280165e+00 
143700 6.5909901539e+00 -1.4190265433e-04 3.1320859319e+00 -5.4249319677e+00 3.1320859319e+00 5.4249319677e+00 
143800 6.5909901572e+00 -1.4091385678e-04 3.1320881972e+00 -5.4249358913e+00 3.1320881972e+00 5.4249358913e+00 
143900 6.5909901604e+00 -1.3993078683e-04 3.1320904467e+00 -5.4249397876e+00 3.1320904467e+00 5.4249397876e+00 
144000 6.5909901636e+00 -1.3895341654e-04 3.1320926805e+00 -5.4249436567e+00 3.1320926805e+00 5.4249436567e+00 
144100 6.5909901667e+00 -1.3798171807e-04 3.1320948987e+00 -5.4249474987e+00 3.1320948987e+00 5.4249474987e+00 
144200 6.5909901699e+00 -1.3701566368e-04 3.1320971014e+00 -5.4249513139e+00 3.1320971014e+00 5.4249513139e+00 
144300 6.5909901730e+00 -1.3605522576e-04 3.1320992887e+00 -5.4249551024e+00 3.1320992887e+00 5.4249551024e+00 
144400 6.5909901761e+00 -1.3510037680e-04 3.1321014607e+00 -5.4249588643e+00 3.1321014607e+00 5.4249588643e+00 
144500 6.5909901791e+00 -1.3415108941e-04 3.1321036174e+00 -5.4249625999e+00 3.1321036174e+00 5.4249625999e+00 
144600 6.5909901821e+00 -1.3320733630e-04 3.1321057589e+00 -5.4249663091e+00 3.1321057589e+00 5.4249663091e+00 
144700 6.5909901852e+00 -1.3226909027e-04 3.1321078854e+00 -5.4249699923e+00 3.1321078854e+00 5.4249699923e+00 
144800 6.5909901881e+00 -1.3133632427e-04 3.1321099969e+00 -5.4249736495e+00 3.1321099969e+00 5.4249736495e+00 
144900 6.5909901911e+00 -1.3040901131e-04 3.1321120935e+00 -5.4249772810e+00 3.1321120935e+00 5.4249772810e+00 
145000 6.5909901940e+00 -1.2948712453e-04 3.1321141753e+00 -5.4249808868e+00 3.1321141753e+00 5.4249808868e+00 
145100 6.5909901969e+00 -1.2857063718e-04 3.1321162424e+00 -5.4249844671e+00 3.1321162424e+00 5.4249844671e+00 
145200 6.5909901998e+00 -1.2765952259e-04 3.1321182949e+00 -5.4249880220e+00 3.1321182949e+00 5.4249880220e+00 
145300 6.5909902027e+00 -1.2675375421e-04 3.1321203328e+00 -5.4249915518e+00 3.1321203328e+00 5.4249915518e+00 
145400 6.5909902055e+00 -1.2585330558e-04 3.1321223562e+00 -5.4249950565e+00 3.1321223562e+00 5.4249950565e+00 
145500 6.5909902083e+00 -1.2495815036e-04 3.1321243653e+00 -5.4249985363e+00 3.1321243653e+00 5.4249985363e+00 
145600 6.5909902111e+00 -1.2406826228e-04 3.1321263601e+00 -5.4250019914e+00 3.1321263601e+00 5.4250019914e+00 
145700 6.5909902138e+00 -1.2318361521e-04 3.1321283407e+00 -5.4250054219e+00 3.1321283407e+00 5.4250054219e+00 
145800 6.5909902166e+00 -1.2230418308e-04 3.1321303071e+00 -5.4250088279e+00 3.1321303071e+00 5.4250088279e+00 
145900 6.5909902193e+00 -1.2142993995e-04 3.1321322595e+00 -5.4250122095e+00 3.1321322595e+00 5.4250122095e+00 
146000 6.5909902219e+00 -1.2056085995e-04 3.1321341980e+00 -5.4250155670e+00 3.1321341980e+00 5.4250155670e+00 
146100 6.5909902246e+00 -1.1969691735e-04 3.1321361226e+00 -5.4250189005e+00 3.1321361226e+00 5.4250189005e+00 
146200 6.5909902273e+00 -1.1883808646e-04 3.1321380334e+00 -5.4250222101e+00 3.1321380334e+00 5.4250222101e+00 
146300 6.5909902299e+00 -1.1798434172e-04 3.1321399304e+00 -5.4250254959e+00 3.1321399304e+00 5.4250254959e+00 
146400 6.5909902325e+00 -1.1713565768e-04 3.1321418139e+00 -5.4250287582e+00 3.1321418139e+00 5.4250287582e+00 
146500 6.5909902350e+00 -1.1629200896e-04 3.1321436838e+00 -5.4250319969e+00 3.1321436838e+00 5.4250319969e+00 
146600 6.5909902376e+00 -1.1545337029e-04 3.1321455402e+00 -5.4250352123e+00 3.1321455402e+00 5.4250352123e+00 
146700 6.5909902401e+00 -1.1461971648e-04 3.1321473832e+00 -5.4250384046e+00 3.1321473832e+00 5.4250384046e+00 
146800 6.5909902426e+00 -1.1379102245e-04 3.1321492130e+00 -5.4250415738e+00 3.1321492130e+00 5.4250415738e+00 
146900 6.5909902451e+00 -1.1296726320e-04 3.1321510295e+00 -5.4250447200e+00 3.1321510295e+00 5.4250447200e+00 
147000 6.5909902475e+00 -1.1214841383e-04 3.1321528328e+00 -5.4250478435e+00 3.1321528328e+00 5.4250478435e+00 
147100 6.5909902500e+00 -1.1133444956e-04 3.1321546231e+00 -5.4250509444e+00 3.1321546231e+00 5.4250509444e+00 
147200 6.5909902524e+00 -1.1052534566e-04 3.1321564004e+00 -5.4250540227e+00 3.1321564004e+00 5.4250540227e+00 
147300 6.5909902548e+00 -1.0972107750e-04 3.1321581648e+00 -5.4250570787e+00 3.1321581648e+00 5.4250570787e+00 
147400 6.5909902572e+00 -1.0892162058e-04 3.1321599163e+00 -5.4250601124e+00 3.1321599163e+00 5.4250601124e+00 
147500 6.5909902595e+00 -1.0812695046e-04 3.1321616550e+00 -5.4250631240e+00 3.1321616550e+00 5.4250631240e+00 
147600 6.5909902619e+00 -1.0733704279e-04 3.1321633811e+00 -5.4250661137e+00 3.1321633811e+00 5.4250661137e+00 
147700 6.5909902642e+00 -1.0655187333e-04 3.1321650946e+00 -5.4250690815e+00 3.1321650946e+00 5.4250690815e+00 
147800 6.5909902665e+00 -1.0577141792e-04 3.1321667955e+00 -5.4250720276e+00 3.1321667955e+00 5.4250720276e+00 
147900 6.5909902687e+00 -1.0499565250e-04 3.1321684840e+00 -5.4250749521e+00 3.1321684840e+00 5.4250749521e+00 
148000 6.5909902710e+00 -1.0422455308e-04 3.1321701601e+00 -5.4250778552e+00 3.1321701601e+00 5.4250778552e+00 
148100 6.5909902732e+00 -1.0345809581e-04 3.1321718238e+00 -5.4250807369e+00 3.1321718238e+00 5.4250807369e+00 
148200 6.5909902754e+00 -1.0269625686e-04 3.1321734754e+00 -5.4250835975e+00 3.1321734754e+00 5.4250835975e+00 
148300 6.5909902776e+00 -1.0193901256e-04 3.1321751148e+00 -5.4250864370e+00 3.1321751148e+00 5.4250864370e+00 
148400 6.5909902798e+00 -1.0118633928e-04 3.1321767420e+00 -5.4250892555e+00 3.1321767420e+00 5.4250892555e+00 
148500 6.5909902819e+00 -1.0043821352e-04 3.1321783573e+00 -5.4250920532e+00 3.1321783573e+00 5.4250920532e+00 
148600 6.5909902840e+00 -9.9694611833e-05 3.1321799606e+00 -5.4250948303e+00 3.1321799606e+00 5.4250948303e+00 
148700 6.5909902862e+00 -9.8955510892e-05 3.1321815521e+00 -5.4250975868e+00 3.1321815521e+00 5.4250975868e+00 
148800 6.5909902882e+00 -9.8220887446e-05 3.1321831318e+00 -5.4251003228e+00 3.1321831318e+00 5.4251003228e+00 
148900 6.5909902903e+00 -9.7490718340e-05 3.1321846997e+00 -5.4251030386e+00 3.1321846997e+00 5.4251030386e+00 
149000 6.5909902924e+00 -9.6764980505e-05 3.1321862560e+00 -5.4251057341e+00 3.1321862560e+00 5.4251057341e+00 
149100 6.5909902944e+00 -9.6043650967e-05 3.1321878007e+00 -5.4251084096e+00 3.1321878007e+00 5.4251084096e+00 
149200 6.5909902964e+00 -9.5326706839e-05 3.1321893338e+00 -5.4251110651e+00 3.1321893338e+00 5.4251110651e+00 
149300 6.5909902984e+00 -9.4614125322e-05 3.1321908556e+00 -5.4251137008e+00 3.1321908556e+00 5.4251137008e+00 
149400 6.5909903004e+00 -9.3905883712e-05 3.1321923659e+00 -5.4251163168e+00 3.1321923659e+00 5.4251163168e+00 
149500 6.5909903024e+00 -9.3201959389e-05 3.1321938649e+00 -5.4251189132e+00 3.1321938649e+00 5.4251189132e+00 
149600 6.5909903043e+00 -9.2502329827e-05 3.1321953528e+00 -5.4251214902e+00 3.1321953528e+00 5.4251214902e+00 
149700 6.5909903062e+00 -9.1806972591e-05 3.1321968294e+00 -5.4251240478e+00 3.1321968294e+00 5.4251240478e+00 
149800 6.5909903081e+00 -9.1115865332e-05 3.1321982949e+00 -5.4251265862e+00 3.1321982949e+00 5.4251265862e+00 
149900 6.5909903100e+00 -9.0428985792e-05 3.1321997494e+00 -5.4251291055e+00 3.1321997494e+00 5.4251291055e+00 
150000 6.5909903119e+00 -8.9746311806e-05 3.1322011930e+00 -5.4251316058e+00 3.1322011930e+00 5.4251316058e+00 
150100 6.5909903137e+00 -8.9067821291e-05 3.1322026256e+00 -5.4251340872e+00 3.1322026256e+00 5.4251340872e+00 
150200 6.5909903156e+00 -8.8393492264e-05 3.1322040474e+00 -5.4251365498e+00 3.1322040474e+00 5.4251365498e+00 
150300 6.5909903174e+00 -8.7723302825e-05 3.1322054585e+00 -5.4251389938e+00 3.1322054585e+00 5.4251389938e+00 
150400 6.5909903192e+00 -8.7057231165e-05 3.1322068588e+00 -5.4251414193e+00 3.1322068588e+00 5.4251414193e+00 
150500 6.5909903210e+00 -8.6395255563e-05 3.1322082485e+00 -5.4251438263e+00 3.1322082485e+00 5.4251438263e+00 
150600 6.5909903228e+00 -8.5737354391e-05 3.1322096277e+00 -5.4251462151e+00 3.1322096277e+00 5.4251462151e+00 
150700 6.5909903245e+00 -8.5083506112e-05 3.1322109963e+00 -5.4251485856e+00 3.1322109963e+00 5.4251485856e+00 
150800 6.5909903263e+00 -8.4433689272e-05 3.1322123545e+00 -5.4251509381e+00 3.1322123545e+00 5.4251509381e+00 
150900 6.5909903280e+00 -8.3787882513e-05 3.1322137023e+00 -5.4251532726e+00 3.1322137023e+00 5.4251532726e+00 
151000 6.5909903297e+00 -8.3146064563e-05 3.1322150398e+00 -5.4251555892e+00 3.1322150398e+00 5.4251555892e+00 
151100 6.5909903314e+00 -8.2508214237e-05 3.1322163671e+00 -5.4251578882e+00 3.1322163671e+00 5.4251578882e+00 
151200 6.5909903330e+00 -8.1874310452e-05 3.1322176842e+00 -5.4251601694e+00 3.1322176842e+00 5.4251601694e+00 
151300 6.5909903347e+00 -8.1244332202e-05 3.1322189912e+00 -5.4251624332e+00 3.1322189912e+00 5.4251624332e+00 
151400 6.5909903363e+00 -8.0618258576e-05 3.1322202881e+00 -5.4251646795e+00 3.1322202881e+00 5.4251646795e+00 
151500 6.5909903380e+00 -7.9996068750e-05 3.1322215750e+00 -5.4251669085e+00 3.1322215750e+00 5.4251669085e+00 
151600 6.5909903396e+00 -7.9377741985e-05 3.1322228520e+00 -5.4251691203e+00 3.1322228520e+00 5.4251691203e+00 
151700 6.5909903412e+00 -7.8763257649e-05 3.1322241191e+00 -5.4251713150e+00 3.1322241191e+00 5.4251713150e+00 
151800 6.5909903427e+00 -7.8152595180e-05 3.1322253764e+00 -5.4251734927e+00 3.1322253764e+00 5.4251734927e+00 
151900 6.5909903443e+00 -7.7545734117e-05 3.1322266240e+00 -5.4251756535e+00 3.1322266240e+00 5.4251756535e+00 
152000 6.5909903459e+00 -7.6942654086e-05 3.1322278618e+00 -5.4251777976e+00 3.1322278618e+00 5.4251777976e+00 
152100 6.5909903474e+00 -7.6343334793e-05 3.1322290901e+00 -5.4251799250e+00 3.1322290901e+00 5.4251799250e+00 
152200 6.5909903489e+00 -7.5747756050e-05 3.1322303088e+00 -5.4251820358e+00 3.1322303088e+00 5.4251820358e+00 
152300 6.5909903504e+00 -7.5155897748e-05 3.1322315179e+00 -5.4251841301e+00 3.1322315179e+00 5.4251841301e+00 
152400 6.5909903519e+00 -7.4567739868e-05 3.1322327176e+00 -5.4251862081e+00 3.1322327176e+00 5.4251862081e+00 
152500 6.5909903534e+00 -7.3983262487e-05 3.1322339080e+00 -5.4251882698e+00 3.1322339080e+00 5.4251882698e+00 
152600 6.5909903549e+00 -7.3402445758e-05 3.1322350890e+00 -5.4251903154e+00 3.1322350890e+00 5.4251903154e+00 
152700 6.5909903563e+00 -7.2825269939e-05 3.1322362607e+00 -5.4251923448e+00 3.1322362607e+00 5.4251923448e+00 
152800 6.5909903577e+00 -7.2251715360e-05 3.1322374232e+00 -5.4251943584e+00 3.1322374232e+00 5.4251943584e+00 
152900 6.5909903592e+00 -7.1681762456e-05 3.1322385766e+00 -5.4251963560e+00 3.1322385766e+00 5.4251963560e+00 
153000 6.5909903606e+00 -7.1115391741e-05 3.1322397208e+00 -5.4251983380e+00 3.1322397208e+00 5.4251983380e+00 
153100 6.5909903620e+00 -7.0552583822e-05 3.1322408560e+00 -5.4252003042e+00 3.1322408560e+00 5.4252003042e+00 
153200 6.5909903634e+00 -7.0684182185e-05 3.1322408560e+00 -5.4252003042e+00 3.1322408560e+00 5.4252003042e+00 
153300 6.5909903648e+00 -7.0826692865e-05 3.1322408560e+00 -5.4252003042e+00 3.1322408560e+00 5.4252003042e+00 
153400 6.5909903662e+00 -7.0285281802e-05 3.1322419867e+00 -5.4252022625e+00 3.1322419867e+00 5.4252022625e+00 
153500 6.5909903675e+00 -7.0433161654e-05 3.1322419867e+00 -5.4252022625e+00 3.1322419867e+00 5.4252022625e+00 
153600 6.5909903689e+00 -7.0590160389e-05 3.1322419867e+00 -5.4252022625e+00 3.1322419867e+00 5.4252022625e+00 
153700 6.5909903703e+00 -7.0755406334e-05 3.1322419867e+00 -5.4252022625e+00 3.1322419867e+00 5.4252022625e+00 
153800 6.5909903716e+00 -7.0235381746e-05 3.1322431161e+00 -5.4252042188e+00 3.1322431161e+00 5.4252042188e+00 
153900 6.5909903729e+00 -7.0402386194e-05 3.1322431161e+00 -5.4252042188e+00 3.1322431161e+00 5.4252042188e+00 
154000 6.5909903742e+00 -7.0577274874e-05 3.1322431161e+00 -5.4252042188e+00 3.1322431161e+00 5.4252042188e+00 
154100 6.5909903755e+00 -7.0759437247e-05 3.1322431161e+00 -5.4252042188e+00 3.1322431161e+00 5.4252042188e+00 
154200 6.5909903768e+00 -7.0255509775e-05 3.1322442457e+00 -5.4252061752e+00 3.1322442457e+00 5.4252061752e+00 
154300 6.5909903781e+00 -7.0438024769e-05 3.1322442457e+00 -5.4252061752e+00 3.1322442457e+00 5.4252061752e+00 
154400 6.5909903793e+00 -7.0627906787e-05 3.1322442457e+00 -5.4252061752e+00 3.1322442457e+00 5.4252061752e+00 
154500 6.5909903806e+00 -7.0824628189e-05 3.1322442457e+00 -5.4252061752e+00 3.1322442457e+00 5.4252061752e+00 
154600 6.5909903818e+00 -7.0334245216e-05 3.1322453762e+00 -5.4252081334e+00 3.1322453762e+00 5.4252081334e+00 
154700 6.5909903830e+00 -7.0530604752e-05 3.1322453762e+00 -5.4252081334e+00 3.1322453762e+00 5.4252081334e+00 
154800 6.5909903842e+00 -7.0734033496e-05 3.1322453762e+00 -5.4252081334e+00 3.1322453762e+00 5.4252081334e+00 
154900 6.5909903854e+00 -7.0251370664e-05 3.1322465054e+00 -5.4252100891e+00 3.1322465054e+00 5.4252100891e+00 
155000 6.5909903866e+00 -7.0454631218e-05 3.1322465054e+00 -5.4252100891e+00 3.1322465054e+00 5.4252100891e+00 
155100 6.5909903878e+00 -7.0664949037e-05 3.1322465054e+00 -5.4252100891e+00 3.1322465054e+00 5.4252100891e+00 
155200 6.5909903890e+00 -7.0881768936e-05 3.1322465054e+00 -5.4252100891e+00 3.1322465054e+00 5.4252100891e+00 
155300 6.5909903901e+00 -7.0410556586e-05 3.1322476368e+00 -5.4252120489e+00 3.1322476368e+00 5.4252120489e+00 
155400 6.5909903912e+00 -7.0626249115e-05 3.1322476368e+00 -5.4252120489e+00 3.1322476368e+00 5.4252120489e+00 
155500 6.5909903924e+00 -7.0848593452e-05 3.1322476368e+00 -5.4252120489e+00 3.1322476368e+00 5.4252120489e+00 
155600 6.5909903934e+00 -7.0383275375e-05 3.1322487678e+00 -5.4252140078e+00 3.1322487678e+00 5.4252140078e+00 
155700 6.5909903946e+00 -7.0604512530e-05 3.1322487678e+00 -5.4252140078e+00 3.1322487678e+00 5.4252140078e+00 
155800 6.5909903957e+00 -7.0832307732e-05 3.1322487678e+00 -5.4252140078e+00 3.1322487678e+00 5.4252140078e+00 
155900 6.5909903967e+00 -7.0372457222e-05 3.1322498985e+00 -5.4252159662e+00 3.1322498985e+00 5.4252159662e+00 
156000 6.5909903978e+00 -7.0598827123e-05 3.1322498985e+00 -5.4252159662e+00 3.1322498985e+00 5.4252159662e+00 
156100 6.5909903989e+00 -7.0831544052e-05 3.1322498985e+00 -5.4252159662e+00 3.1322498985e+00 5.4252159662e+00 
156200 6.5909903999e+00 -7.0376385036e-05 3.1322510292e+00 -5.4252179246e+00 3.1322510292e+00 5.4252179246e+00 
156300 6.5909904009e+00 -7.0607182517e-05 3.1322510292e+00 -5.4252179246e+00 3.1322510292e+00 5.4252179246e+00 
156400 6.5909904020e+00 -7.0844051209e-05 3.1322510292e+00 -5.4252179246e+00 3.1322510292e+00 5.4252179246e+00 
156500 6.5909904029e+00 -7.0392629380e-05 3.1322521600e+00 -5.4252198833e+00 3.1322521600e+00 5.4252198833e+00 
156600 6.5909904039e+00 -7.0626981406e-05 3.1322521600e+00 -5.4252198833e+00 3.1322521600e+00 5.4252198833e+00 
156700 6.5909904050e+00 -7.0867089768e-05 3.1322521600e+00 -5.4252198833e+00 3.1322521600e+00 5.4252198833e+00 
156800 6.5909904059e+00 -7.0418356678e-05 3.1322532913e+00 -5.4252218427e+00 3.1322532913e+00 5.4252218427e+00 
156900 6.5909904069e+00 -7.0655287528e-05 3.1322532913e+00 -5.4252218427e+00 3.1322532913e+00 5.4252218427e+00 
157000 6.5909904079e+00 -7.0897635957e-05 3.1322532913e+00 -5.4252218427e+00 3.1322532913e+00 5.4252218427e+00 
157100 6.5909904088e+00 -7.0450498479e-05 3.1322544230e+00 -5.4252238029e+00 3.1322544230e+00 5.4252238029e+00 
157200 6.5909904097e+00 -7.0688970401e-05 3.1322544230e+00 -5.4252238029e+00 3.1322544230e+00 5.4252238029e+00 
157300 6.5909904107e+00 -7.0932507697e-05 3.1322544230e+00 -5.4252238029e+00 3.1322544230e+00 5.4252238029e+00 
157400 6.5909904116e+00 -7.0485861720e-05 3.1322555553e+00 -5.4252257641e+00 3.1322555553e+00 5.4252257641e+00 
157500 6.5909904125e+00 -7.0724804046e-05 3.1322555553e+00 -5.4252257641e+00 3.1322555553e+00 5.4252257641e+00 
157600 6.5909904134e+00 -7.0275881499e-05 3.1322566843e+00 -5.4252277196e+00 3.1322566843e+00 5.4252277196e+00 
157700 6.5909904143e+00 -7.0510701959e-05 3.1322566843e+00 -5.4252277196e+00 3.1322566843e+00 5.4252277196e+00 
157800 6.5909904152e+00 -7.0750279092e-05 3.1322566843e+00 -5.4252277196e+00 3.1322566843e+00 5.4252277196e+00 
157900 6.5909904160e+00 -7.0301076117e-05 3.1322578137e+00 -5.4252296757e+00 3.1322578137e+00 5.4252296757e+00 
158000 6.5909904169e+00 -7.0535278068e-05 3.1322578137e+00 -5.4252296757e+00 3.1322578137e+00 5.4252296757e+00 
158100 6.5909904178e+00 -7.0773713510e-05 3.1322578137e+00 -5.4252296757e+00 3.1322578137e+00 5.4252296757e+00 
158200 6.5909904186e+00 -7.0322660477e-05 3.1322589434e+00 -5.4252316325e+00 3.1322589434e+00 5.4252316325e+00 
158300 6.5909904194e+00 -7.0554794231e-05 3.1322589434e+00 -5.4252316325e+00 3.1322589434e+00 5.4252316325e+00 
158400 6.5909904203e+00 -7.0790744563e-05 3.1322589434e+00 -5.4252316325e+00 3.1322589434e+00 5.4252316325e+00 
158500 6.5909904211e+00 -7.0336643473e-05 3.1322600735e+00 -5.4252335898e+00 3.1322600735e+00 5.4252335898e+00 
158600 6.5909904219e+00 -7.0565515263e-05 3.1322600735e+00 -5.4252335898e+00 3.1322600735e+00 5.4252335898e+00 
158700 6.5909904227e+00 -7.0797840452e-05 3.1322600735e+00 -5.4252335898e+00 3.1322600735e+00 5.4252335898e+00 
158800 6.5909904235e+00 -7.0339693776e-05 3.1322612036e+00 -5.4252355472e+00 3.1322612036e+00 5.4252355472e+00 
158900 6.5909904243e+00 -7.0564249494e-05 3.1322612036e+00 -5.4252355472e+00 3.1322612036e+00 5.4252355472e+00 
159000 6.5909904251e+00 -7.0791929770e-05 3.1322612036e+00 -5.4252355472e+00 3.1322612036e+00 5.4252355472e+00 
159100 6.5909904258e+00 -7.0328876328e-05 3.1322623337e+00 -5.4252375045e+00 3.1322623337e+00 5.4252375045e+00 
159200 6.5909904266e+00 -7.0548158586e-05 3.1322623337e+00 -5.4252375045e+00 3.1322623337e+00 5.4252375045e+00 
159300 6.5909904273e+00 -7.0770263515e-05 3.1322623337e+00 -5.4252375045e+00 3.1322623337e+00 5.4252375045e+00 
159400 6.5909904280e+00 -7.0301553001e-05 3.1322634633e+00 -5.4252394612e+00 3.1322634633e+00 5.4252394612e+00 
159500 6.5909904288e+00 -7.0514684956e-05 3.1322634633e+00 -5.4252394612e+00 3.1322634633e+00 5.4252394612e+00 
159600 6.5909904295e+00 -7.0730361764e-05 3.1322634633e+00 -5.4252394612e+00 3.1322634633e+00 5.4252394612e+00 
159700 6.5909904302e+00 -7.0255343731e-05 3.1322645924e+00 -5.4252414168e+00 3.1322645924e+00 5.4252414168e+00 
159800 6.5909904309e+00 -7.0461523069e-05 3.1322645924e+00 -5.4252414168e+00 3.1322645924e+00 5.4252414168e+00 
159900 6.5909904317e+00 -7.0669992384e-05 3.1322645924e+00 -5.4252414168e+00 3.1322645924e+00 5.4252414168e+00 
160000 6.5909904324e+00 -7.0880150055e-05 3.1322645924e+00 -5.4252414168e+00 3.1322645924e+00 5.4252414168e+00 
160100 6.5909904330e+00 -7.0397432696e-05 3.1322657239e+00 -5.4252433765e+00 3.1322657239e+00 5.4252433765e+00 
160200 6.5909904337e+00 -7.0596748816e-05 3.1322657239e+00 -5.4252433765e+00 3.1322657239e+00 5.4252433765e+00 
160300 6.5909904344e+00 -7.0797836185e-05 3.1322657239e+00 -5.4252433765e+00 3.1322657239e+00 5.4252433765e+00 
160400 6.5909904350e+00 -7.0306865137e-05 3.1322668540e+00 -5.4252453340e+00 3.1322668540e+00 5.4252453340e+00 
160500 6.5909904357e+00 -7.0497097114e-05 3.1322668540e+00 -5.4252453340e+00 3.1322668540e+00 5.4252453340e+00 
160600 6.5909904364e+00 -7.0689024503e-05 3.1322668540e+00 -5.4252453340e+00 3.1322668540e+00 5.4252453340e+00 
160700 6.5909904370e+00 -7.0882086026e-05 3.1322668540e+00 -5.4252453340e+00 3.1322668540e+00 5.4252453340e+00 
160800 6.5909904376e+00 -7.0381733390e-05 3.1322679855e+00 -5.4252472938e+00 3.1322679855e+00 5.4252472938e+00 
160900 6.5909904383e+00 -7.0562944769e-05 3.1322679855e+00 -5.4252472938e+00 3.1322679855e+00 5.4252472938e+00 
161000 6.5909904389e+00 -7.0745465688e-05 3.1322679855e+00 -5.4252472938e+00 3.1322679855e+00 5.4252472938e+00 
161100 6.5909904395e+00 -7.0236003332e-05 3.1322691148e+00 -5.4252492498e+00 3.1322691148e+00 5.4252492498e+00 
161200 6.5909904401e+00 -7.0406826977e-05 3.1322691148e+00 -5.4252492498e+00 3.1322691148e+00 5.4252492498e+00 
161300 6.5909904407e+00 -7.0578951606e-05 3.1322691148e+00 -5.4252492498e+00 3.1322691148e+00 5.4252492498e+00 
161400 6.5909904414e+00 -7.0751835811e-05 3.1322691148e+00 -5.4252492498e+00 3.1322691148e+00 5.4252492498e+00 
161500 6.5909904419e+00 -7.0232225017e-05 3.1322702442e+00 -5.4252512060e+00 3.1322702442e+00 5.4252512060e+00 
161600 6.5909904425e+00 -7.0392589111e-05 3.1322702442e+00 -5.4252512060e+00 3.1322702442e+00 5.4252512060e+00 
161700 6.5909904431e+00 -7.0553939540e-05 3.1322702442e+00 -5.4252512060e+00 3.1322702442e+00 5.4252512060e+00 
161800 6.5909904437e+00 -7.0715779981e-05 3.1322702442e+00 -5.4252512060e+00 3.1322702442e+00 5.4252512060e+00 
161900 6.5909904442e+00 -7.0185244193e-05 3.1322713730e+00 -5.4252531612e+00 3.1322713730e+00 5.4252531612e+00 
162000 6.5909904448e+00 -7.0334131936e-05 3.1322713730e+00 -5.4252531612e+00 3.1322713730e+00 5.4252531612e+00 
162100 6.5909904453e+00 -7.0483823599e-05 3.1322713730e+00 -5.4252531612e+00 3.1322713730e+00 5.4252531612e+00 
162200 6.5909904459e+00 -7.0633842612e-05 3.1322713730e+00 -5.4252531612e+00 3.1322713730e+00 5.4252531612e+00 
162300 6.5909904464e+00 -7.0783829147e-05 3.1322713730e+00 -5.4252531612e+00 3.1322713730e+00 5.4252531612e+00 
162400 6.5909904469e+00 -7.0240352841e-05 3.1322725029e+00 -5.4252551182e+00 3.1322725029e+00 5.4252551182e+00 
162500 6.5909904475e+00 -7.0376613812e-05 3.1322725029e+00 -5.4252551182e+00 3.1322725029e+00 5.4252551182e+00 
162600 6.5909904480e+00 -7.0513399658e-05 3.1322725029e+00 -5.4252551182e+00 3.1322725029e+00 5.4252551182e+00 
162700 6.5909904485e+00 -7.0650281175e-05 3.1322725029e+00 -5.4252551182e+00 3.1322725029e+00 5.4252551182e+00 
162800 6.5909904491e+00 -7.0786936209e-05 3.1322725029e+00 -5.4252551182e+00 3.1322725029e+00 5.4252551182e+00 
162900 6.5909904495e+00 -7.0229933747e-05 3.1322736329e+00 -5.4252570754e+00 3.1322736329e+00 5.4252570754e+00 
163000 6.5909904500e+00 -7.0352560222e-05 3.1322736329e+00 -5.4252570754e+00 3.1322736329e+00 5.4252570754e+00 
163100 6.5909904505e+00 -7.0475593296e-05 3.1322736329e+00 -5.4252570754e+00 3.1322736329e+00 5.4252570754e+00 
163200 6.5909904510e+00 -7.0598620947e-05 3.1322736329e+00 -5.4252570754e+00 3.1322736329e+00 5.4252570754e+00 
163300 6.5909904515e+00 -7.0721335593e-05 3.1322736329e+00 -5.4252570754e+00 3.1322736329e+00 5.4252570754e+00 
163400 6.5909904520e+00 -7.0150960649e-05 3.1322747618e+00 -5.4252590307e+00 3.1322747618e+00 5.4252590307e+00 
163500 6.5909904524e+00 -7.0259521568e-05 3.1322747618e+00 -5.4252590307e+00 3.1322747618e+00 5.4252590307e+00 
163600 6.5909904529e+00 -7.0368434299e-05 3.1322747618e+00 -5.4252590307e+00 3.1322747618e+00 5.4252590307e+00 
163700 6.5909904534e+00 -7.0477295512e-05 3.1322747618e+00 -5.4252590307e+00 3.1322747618e+00 5.4252590307e+00 
163800 6.5909904539e+00 -7.0585805356e-05 3.1322747618e+00 -5.4252590307e+00 3.1322747618e+00 5.4252590307e+00 
163900 6.5909904543e+00 -7.0693739979e-05 3.1322747618e+00 -5.4252590307e+00 3.1322747618e+00 5.4252590307e+00 
164000 6.5909904548e+00 -7.0800931793e-05 3.1322747618e+00 -5.4252590307e+00 3.1322747618e+00 5.4252590307e+00 
164100 6.5909904552e+00 -7.0213928925e-05 3.1322758920e+00 -5.4252609882e+00 3.1322758920e+00 5.4252609882e+00 
164200 6.5909904556e+00 -7.0306383149e-05 3.1322758920e+00 -5.4252609882e+00 3.1322758920e+00 5.4252609882e+00 
164300 6.5909904560e+00 -7.0399006895e-05 3.1322758920e+00 -5.4252609882e+00 3.1322758920e+00 5.4252609882e+00 
164400 6.5909904565e+00 -7.0491443862e-05 3.1322758920e+00 -5.4252609882e+00 3.1322758920e+00 5.4252609882e+00 
164500 6.5909904569e+00 -7.0583430968e-05 3.1322758920e+00 -5.4252609882e+00 3.1322758920e+00 5.4252609882e+00 
164600 6.5909904573e+00 -7.0674773394e-05 3.1322758920e+00 -5.4252609882e+00 3.1322758920e+00 5.4252609882e+00 
164700 6.5909904577e+00 -7.0765326652e-05 3.1322758920e+00 -5.4252609882e+00 3.1322758920e+00 5.4252609882e+00 
164800 6.5909904581e+00 -7.0162005243e-05 3.1322770216e+00 -5.4252629448e+00 3.1322770216e+00 5.4252629448e+00 
164900 6.5909904585e+00 -7.0237786833e-05 3.1322770216e+00 -5.4252629448e+00 3.1322770216e+00 5.4252629448e+00 
165000 6.5909904589e+00 -7.0313736699e-05 3.1322770216e+00 -5.4252629448e+00 3.1322770216e+00 5.4252629448e+00 
165100 6.5909904593e+00 -7.0389508667e-05 3.1322770216e+00 -5.4252629448e+00 3.1322770216e+00 5.4252629448e+00 
165200 6.5909904597e+00 -7.0464847996e-05 3.1322770216e+00 -5.4252629448e+00 3.1322770216e+00 5.4252629448e+00 
165300 6.5909904601e+00 -7.0539566760e-05 3.1322770216e+00 -5.4252629448e+00 3.1322770216e+00 5.4252629448e+00 
165400 6.5909904605e+00 -7.0613526222e-05 3.1322770216e+00 -5.4252629448e+00 3.1322770216e+00 5.4252629448e+00 
165500 6.5909904609e+00 -7.0686624126e-05 3.1322770216e+00 -5.4252629448e+00 3.1322770216e+00 5.4252629448e+00 
165600 6.5909904612e+00 -7.0758785444e-05 3.1322770216e+00 -5.4252629448e+00 3.1322770216e+00 5.4252629448e+00 
165700 6.5909904616e+00 -7.0137040076e-05 3.1322781511e+00 -5.4252649012e+00 3.1322781511e+00 5.4252649012e+00 
165800 6.5909904619e+00 -7.0194281277e-05 3.1322781511e+00 -5.4252649012e+00 3.1322781511e+00 5.4252649012e+00 
165900 6.5909904623e+00 -7.0251666487e-05 3.1322781511e+00 -5.4252649012e+00 3.1322781511e+00 5.4252649012e+00 
166000 6.5909904626e+00 -7.0308873246e-05 3.1322781511e+00 -5.4252649012e+00 3.1322781511e+00 5.4252649012e+00 
166100 6.5909904630e+00 -7.0365665194e-05 3.1322781511e+00 -5.4252649012e+00 3.1322781511e+00 5.4252649012e+00 
166200 6.5909904633e+00 -7.0421868700e-05 3.1322781511e+00 -5.4252649012e+00 3.1322781511e+00 5.4252649012e+00 
166300 6.5909904637e+00 -7.0477356168e-05 3.1322781511e+00 -5.4252649012e+00 3.1322781511e+00 5.4252649012e+00 
166400 6.5909904640e+00 -7.0532034033e-05 3.1322781511e+00 -5.4252649012e+00 3.1322781511e+00 5.4252649012e+00 
166500 6.5909904644e+00 -7.0585834045e-05 3.1322781511e+00 -5.4252649012e+00 3.1322781511e+00 5.4252649012e+00 
166600 6.5909904647e+00 -7.0638706935e-05 3.1322781511e+00 -5.4252649012e+00 3.1322781511e+00 5.4252649012e+00 
166700 6.5909904650e+00 -7.0690617726e-05 3.1322781511e+00 -5.4252649012e+00 3.1322781511e+00 5.4252649012e+00 
166800 6.5909904654e+00 -7.0741542263e-05 3.1322781511e+00 -5.4252649012e+00 3.1322781511e+00 5.4252649012e+00 
166900 6.5909904656e+00 -7.0098716300e-05 3.1322792803e+00 -5.4252668571e+00 3.1322792803e+00 5.4252668571e+00 
167000 6.5909904659e+00 -7.0134731184e-05 3.1322792803e+00 -5.4252668571e+00 3.1322792803e+00 5.4252668571e+00 
167100 6.5909904663e+00 -7.0170930398e-05 3.1322792803e+00 -5.4252668571e+00 3.1322792803e+00 5.4252668571e+00 
167200 6.5909904666e+00 -7.0207008506e-05 3.1322792803e+00 -5.4252668571e+00 3.1322792803e+00 5.4252668571e+00 
167300 6.5909904669e+00 -7.0242741993e-05 3.1322792803e+00 -5.4252668571e+00 3.1322792803e+00 5.4252668571e+00 
167400 6.5909904672e+00 -7.0277966838e-05 3.1322792803e+00 -5.4252668571e+00 3.1322792803e+00 5.4252668571e+00 
167500 6.5909904675e+00 -7.0312562525e-05 3.1322792803e+00 -5.4252668571e+00 3.1322792803e+00 5.4252668571e+00 
167600 6.5909904678e+00 -7.0346440584e-05 3.1322792803e+00 -5.4252668571e+00 3.1322792803e+00 5.4252668571e+00 
167700 6.5909904681e+00 -7.0379536313e-05 3.1322792803e+00 -5.4252668571e+00 3.1322792803e+00 5.4252668571e+00 
167800 6.5909904683e+00 -7.0411802776e-05 3.1322792803e+00 -5.4252668571e+00 3.1322792803e+00 5.4252668571e+00 
167900 6.5909904686e+00 -7.0443206380e-05 3.1322792803e+00 -5.4252668571e+00 3.1322792803e+00 5.4252668571e+00 
168000 6.5909904689e+00 -7.0473723621e-05 3.1322792803e+00 -5.4252668571e+00 3.1322792803e+00 5.4252668571e+00 
168100 6.5909904692e+00 -7.0503338648e-05 3.1322792803e+00 -5.4252668571e+00 3.1322792803e+00 5.4252668571e+00 
168200 6.5909904695e+00 -7.0532041428e-05 3.1322792803e+00 -5.4252668571e+00 3.1322792803e+00 5.4252668571e+00 
168300 6.5909904697e+00 -7.0559826347e-05 3.1322792803e+00 -5.4252668571e+00 3.1322792803e+00 5.4252668571e+00 
168400 6.5909904700e+00 -7.0586691142e-05 3.1322792803e+00 -5.4252668571e+00 3.1322792803e+00 5.4252668571e+00 
168500 6.5909904703e+00 -7.0612636066e-05 3.1322792803e+00 -5.4252668571e+00 3.1322792803e+00 5.4252668571e+00 
168600 6.5909904705e+00 -7.0637663250e-05 3.1322792803e+00 -5.4252668571e+00 3.1322792803e+00 5.4252668571e+00 
168700 6.5909904708e+00 -7.0661776180e-05 3.1322792803e+00 -5.4252668571e+00 3.1322792803e+00 5.4252668571e+00 
168800 6.5909904710e+00 -7.0684979299e-05 3.1322792803e+00 -5.4252668571e+00 3.1322792803e+00 5.4252668571e+00 
168900 6.5909904713e+00 -7.0707277698e-05 3.1322792803e+00 -5.4252668571e+00 3.1322792803e+00 5.4252668571e+00 
169000 6.5909904715e+00 -7.0728676852e-05 3.1322792803e+00 -5.4252668571e+00 3.1322792803e+00 5.4252668571e+00 
169100 6.5909904717e+00 -7.0056557293e-05 3.1322804094e+00 -5.4252688126e+00 3.1322804094e+00 5.4252688126e+00 
169200 6.5909904720e+00 -7.0063281905e-05 3.1322804094e+00 -5.4252688126e+00 3.1322804094e+00 5.4252688126e+00 
169300 6.5909904722e+00 -7.0070325181e-05 3.1322804094e+00 -5.4252688126e+00 3.1322804094e+00 5.4252688126e+00 
169400 6.5909904724e+00 -7.0077388543e-05 3.1322804094e+00 -5.4252688126e+00 3.1322804094e+00 5.4252688126e+00 
169500 6.5909904727e+00 -7.0084252393e-05 3.1322804094e+00 -5.4252688126e+00 3.1322804094e+00 5.4252688126e+00 
169600 6.5909904729e+00 -7.0090754332e-05 3.1322804094e+00 -5.4252688126e+00 3.1322804094e+00 5.4252688126e+00 
169700 6.5909904731e+00 -7.0096773703e-05 3.1322804094e+00 -5.4252688126e+00 3.1322804094e+00 5.4252688126e+00 
169800 6.5909904733e+00 -7.0102220544e-05 3.1322804094e+00 -5.4252688126e+00 3.1322804094e+00 5.4252688126e+00 
169900 6.5909904736e+00 -7.0107027645e-05 3.1322804094e+00 -5.4252688126e+00 3.1322804094e+00 5.4252688126e+00 
170000 6.5909904738e+00 -7.0111144809e-05 3.1322804094e+00 -5.4252688126e+00 3.1322804094e+00 5.4252688126e+00 
170100 6.5909904740e+00 -7.0114534653e-05 3.1322804094e+00 -5.4252688126e+00 3.1322804094e+00 5.4252688126e+00 
170200 6.5909904742e+00 -7.0117169533e-05 3.1322804094e+00 -5.4252688126e+00 3.1322804094e+00 5.4252688126e+00 
170300 6.5909904744e+00 -7.0119029251e-05 3.1322804094e+00 -5.4252688126e+00 3.1322804094e+00 5.4252688126e+00 
170400 6.5909904746e+00 -7.0120099338e-05 3.1322804094e+00 -5.4252688126e+00 3.1322804094e+00 5.4252688126e+00 
170500 6.5909904748e+00 -7.0120369750e-05 3.1322804094e+00 -5.4252688126e+00 3.1322804094e+00 5.4252688126e+00 
170600 6.5909904750e+00 -7.0119833876e-05 3.1322804094e+00 -5.4252688126e+00 3.1322804094e+00 5.4252688126e+00 
170700 6.5909904752e+00 -7.0118487766e-05 3.1322804094e+00 -5.4252688126e+00 3.1322804094e+00 5.4252688126e+00 
170800 6.5909904754e+00 -7.0116329537e-05 3.1322804094e+00 -5.4252688126e+00 3.1322804094e+00 5.4252688126e+00 
170900 6.5909904756e+00 -7.0113358897e-05 3.1322804094e+00 -5.4252688126e+00 3.1322804094e+00 5.4252688126e+00 
171000 6.5909904758e+00 -7.0109576775e-05 3.1322804094e+00 -5.4252688126e+00 3.1322804094e+00 5.4252688126e+00 
171100 6.5909904760e+00 -7.0104985026e-05 3.1322804094e+00 -5.4252688126e+00 3.1322804094e+00 5.4252688126e+00 
171200 6.5909904762e+00 -7.0099586180e-05 3.1322804094e+00 -5.4252688126e+00 3.1322804094e+00 5.4252688126e+00 
171300 6.5909904764e+00 -7.0093383270e-05 3.1322804094e+00 -5.4252688126e+00 3.1322804094e+00 5.4252688126e+00 
171400 6.5909904765e+00 -7.0086379666e-05 3.1322804094e+00 -5.4252688126e+00 3.1322804094e+00 5.4252688126e+00 
171500 6.5909904767e+00 -7.0078578954e-05 3.1322804094e+00 -5.4252688126e+00 3.1322804094e+00 5.4252688126e+00 
171600 6.5909904769e+00 -7.0069984837e-05 3.1322804094e+00 -5.4252688126e+00 3.1322804094e+00 5.4252688126e+00 
171700 6.5909904771e+00 -7.0060601065e-05 3.1322804094e+00 -5.4252688126e+00 3.1322804094e+00 5.4252688126e+00 
171800 6.5909904772e+00 -7.0050431361e-05 3.1322804094e+00 -5.4252688126e+00 3.1322804094e+00 5.4252688126e+00 
171900 6.5909904774e+00 -7.0039479375e-05 3.1322804094e+00 -5.4252688126e+00 3.1322804094e+00 5.4252688126e+00 
172000 6.5909904776e+00 -7.0027748650e-05 3.1322804094e+00 -5.4252688126e+00 3.1322804094e+00 5.4252688126e+00 
172100 6.5909904777e+00 -7.0015242594e-05 3.1322804094e+00 -5.4252688126e+00 3.1322804094e+00 5.4252688126e+00 
172200 6.5909904779e+00 -7.0001964457e-05 3.1322804094e+00 -5.4252688126e+00 3.1322804094e+00 5.4252688126e+00 
172300 6.5909904781e+00 -6.9987917317e-05 3.1322804094e+00 -5.4252688126e+00 3.1322804094e+00 5.4252688126e+00 
172400 6.5909904782e+00 -6.9973104065e-05 3.1322804094e+00 -5.4252688126e+00 3.1322804094e+00 5.4252688126e+00 
172500 6.5909904784e+00 -6.9957527419e-05 3.1322804094e+00 -5.4252688126e+00 3.1322804094e+00 5.4252688126e+00 
172600 6.5909904785e+00 -6.9941189897e-05 3.1322804094e+00 -5.4252688126e+00 3.1322804094e+00 5.4252688126e+00 
172700 6.5909904787e+00 -6.9924093844e-05 3.1322804094e+00 -5.4252688126e+00 3.1322804094e+00 5.4252688126e+00 
172800 6.5909904788e+00 -6.9906241421e-05 3.1322804094e+00 -5.4252688126e+00 3.1322804094e+00 5.4252688126e+00 
172900 6.5909904790e+00 -6.9887634613e-05 3.1322804094e+00 -5.4252688126e+00 3.1322804094e+00 5.4252688126e+00 
173000 6.5909904791e+00 -6.9868275248e-05 3.1322804094e+00 -5.4252688126e+00 3.1322804094e+00 5.4252688126e+00 
173100 6.5909904793e+00 -6.9848164990e-05 3.1322804094e+00 -5.4252688126e+00 3.1322804094e+00 5.4252688126e+00 
173200 6.5909904794e+00 -6.9827305362e-05 3.1322804094e+00 -5.4252688126e+00 3.1322804094e+00 5.4252688126e+00 
173300 6.5909904796e+00 -6.9805697747e-05 3.1322804094e+00 -5.4252688126e+00 3.1322804094e+00 5.4252688126e+00 
173400 6.5909904797e+00 -6.9783343410e-05 3.1322804094e+00 -5.4252688126e+00 3.1322804094e+00 5.4252688126e+00 
173500 6.5909904798e+00 -6.9760243497e-05 3.1322804094e+00 -5.4252688126e+00 3.1322804094e+00 5.4252688126e+00 
173600 6.5909904800e+00 -6.9736399060e-05 3.1322804094e+00 -5.4252688126e+00 3.1322804094e+00 5.4252688126e+00 
173700 6.5909904801e+00 -6.9711811059e-05 3.1322804094e+00 -5.4252688126e+00 3.1322804094e+00 5.4252688126e+00 
173800 6.5909904802e+00 -6.9686480379e-05 3.1322804094e+00 -5.4252688126e+00 3.1322804094e+00 5.4252688126e+00 
173900 6.5909904804e+00 -6.9660407839e-05 3.1322804094e+00 -5.4252688126e+00 3.1322804094e+00 5.4252688126e+00 
174000 6.5909904805e+00 -6.9633594206e-05 3.1322804094e+00 -5.4252688126e+00 3.1322804094e+00 5.4252688126e+00 
174100 6.5909904806e+00 -6.9606040203e-05 3.1322804094e+00 -5.4252688126e+00 3.1322804094e+00 5.4252688126e+00 
174200 6.5909904807e+00 -6.9577746523e-05 3.1322804094e+00 -5.4252688126e+00 3.1322804094e+00 5.4252688126e+00 
174300 6.5909904809e+00 -6.9548713839e-05 3.1322804094e+00 -5.4252688126e+00 3.1322804094e+00 5.4252688126e+00 
174400 6.5909904810e+00 -6.9518942811e-05 3.1322804094e+00 -5.4252688126e+00 3.1322804094e+00 5.4252688126e+00 
174500 6.5909904811e+00 -6.9488434103e-05 3.1322804094e+00 -5.4252688126e+00 3.1322804094e+00 5.4252688126e+00 
174600 6.5909904812e+00 -6.9457188385e-05 3.1322804094e+00 -5.4252688126e+00 3.1322804094e+00 5.4252688126e+00 
174700 6.5909904813e+00 -6.9425206345e-05 3.1322804094e+00 -5.4252688126e+00 3.1322804094e+00 5.4252688126e+00 
174800 6.5909904814e+00 -6.9392488697e-05 3.1322804094e+00 -5.4252688126e+00 3.1322804094e+00 5.4252688126e+00 
174900 6.5909904815e+00 -6.9359036197e-05 3.1322804094e+00 -5.4252688126e+00 3.1322804094e+00 5.4252688126e+00 
175000 6.5909904817e+00 -6.9324849635e-05 3.1322804094e+00 -5.4252688126e+00 3.1322804094e+00 5.4252688126e+00 
175100 6.5909904818e+00 -6.9289929857e-05 3.1322804094e+00 -5.4252688126e+00 3.1322804094e+00 5.4252688126e+00 
175200 6.5909904819e+00 -6.9254277765e-05 3.1322804094e+00 -5.4252688126e+00 3.1322804094e+00 5.4252688126e+00 
175300 6.5909904820e+00 -6.9217894325e-05 3.1322804094e+00 -5.4252688126e+00 3.1322804094e+00 5.4252688126e+00 
175400 6.5909904821e+00 -6.9180780571e-05 3.1322804094e+00 -5.4252688126e+00 3.1322804094e+00 5.4252688126e+00 
175500 6.5909904822e+00 -6.9142937612e-05 3.1322804094e+00 -5.4252688126e+00 3.1322804094e+00 5.4252688126e+00 
175600 6.5909904823e+00 -6.9104366643e-05 3.1322804094e+00 -5.4252688126e+00 3.1322804094e+00 5.4252688126e+00 
175700 6.5909904824e+00 -6.9065068939e-05 3.1322804094e+00 -5.4252688126e+00 3.1322804094e+00 5.4252688126e+00 
175800 6.5909904825e+00 -6.9025045871e-05 3.1322804094e+00 -5.4252688126e+00 3.1322804094e+00 5.4252688126e+00 
175900 6.5909904826e+00 -6.8984298899e-05 3.1322804094e+00 -5.4252688126e+00 3.1322804094e+00 5.4252688126e+00 
176000 6.5909904827e+00 -6.8942829581e-05 3.1322804094e+00 -5.4252688126e+00 3.1322804094e+00 5.4252688126e+00 
176100 6.5909904828e+00 -6.8900639584e-05 3.1322804094e+00 -5.4252688126e+00 3.1322804094e+00 5.4252688126e+00 
176200 6.5909904829e+00 -6.8857730674e-05 3.1322804094e+00 -5.4252688126e+00 3.1322804094e+00 5.4252688126e+00 
176300 6.5909904829e+00 -6.8814104723e-05 3.1322804094e+00 -5.4252688126e+00 3.1322804094e+00 5.4252688126e+00 
176400 6.5909904830e+00 -6.8769763721e-05 3.1322804094e+00 -5.4252688126e+00 3.1322804094e+00 5.4252688126e+00 
176500 6.5909904831e+00 -6.8724709764e-05 3.1322804094e+00 -5.4252688126e+00 3.1322804094e+00 5.4252688126e+00 
176600 6.5909904832e+00 -6.8678945061e-05 3.1322804094e+00 -5.4252688126e+00 3.1322804094e+00 5.4252688126e+00 
176700 6.5909904833e+00 -6.8632471942e-05 3.1322804094e+00 -5.4252688126e+00 3.1322804094e+00 5.4252688126e+00 
176800 6.5909904834e+00 -6.8585292851e-05 3.1322804094e+00 -5.4252688126e+00 3.1322804094e+00 5.4252688126e+00 
176900 6.5909904835e+00 -6.8537410352e-05 3.1322804094e+00 -5.4252688126e+00 3.1322804094e+00 5.4252688126e+00 
177000 6.5909904835e+00 -6.8488827127e-05 3.1322804094e+00 -5.4252688126e+00 3.1322804094e+00 5.4252688126e+00 
177100 6.5909904836e+00 -6.8439545978e-05 3.1322804094e+00 -5.4252688126e+00 3.1322804094e+00 5.4252688126e+00 
177200 6.5909904837e+00 -6.8389569831e-05 3.1322804094e+00 -5.4252688126e+00 3.1322804094e+00 5.4252688126e+00 
177300 6.5909904838e+00 -6.8338901721e-05 3.1322804094e+00 -5.4252688126e+00 3.1322804094e+00 5.4252688126e+00 
177400 6.5909904839e+00 -6.8287544816e-05 3.1322804094e+00 -5.4252688126e+00 3.1322804094e+00 5.4252688126e+00 
177500 6.5909904839e+00 -6.8235502400e-05 3.1322804094e+00 -5.4252688126e+00 3.1322804094e+00 5.4252688126e+00 
177600 6.5909904840e+00 -6.8182777871e-05 3.1322804094e+00 -5.4252688126e+00 3.1322804094e+00 5.4252688126e+00 
177700 6.5909904841e+00 -6.8129374757e-05 3.1322804094e+00 -5.4252688126e+00 3.1322804094e+00 5.4252688126e+00 
177800 6.5909904842e+00 -6.8075296691e-05 3.1322804094e+00 -5.4252688126e+00 3.1322804094e+00 5.4252688126e+00 
177900 6.5909904842e+00 -6.8020547438e-05 3.1322804094e+00 -5.4252688126e+00 3.1322804094e+00 5.4252688126e+00 
178000 6.5909904843e+00 -6.7965130870e-05 3.1322804094e+00 -5.4252688126e+00 3.1322804094e+00 5.4252688126e+00 
178100 6.5909904844e+00 -6.7909050977e-05 3.1322804094e+00 -5.4252688126e+00 3.1322804094e+00 5.4252688126e+00 
178200 6.5909904844e+00 -6.7852311862e-05 3.1322804094e+00 -5.4252688126e+00 3.1322804094e+00 5.4252688126e+00 
178300 6.5909904845e+00 -6.7794917741e-05 3.1322804094e+00 -5.4252688126e+00 3.1322804094e+00 5.4252688126e+00 
178400 6.5909904846e+00 -6.7736872946e-05 3.1322804094e+00 -5.4252688126e+00 3.1322804094e+00 5.4252688126e+00 
178500 6.5909904846e+00 -6.7678181910e-05 3.1322804094e+00 -5.4252688126e+00 3.1322804094e+00 5.4252688126e+00 
178600 6.5909904847e+00 -6.7618849179e-05 3.1322804094e+00 -5.4252688126e+00 3.1322804094e+00 5.4252688126e+00 
178700 6.5909904848e+00 -6.7558879401e-05 3.1322804094e+00 -5.4252688126e+00 3.1322804094e+00 5.4252688126e+00 
178800 6.5909904848e+00 -6.7498277337e-05 3.1322804094e+00 -5.4252688126e+00 3.1322804094e+00 5.4252688126e+00 
178900 6.5909904849e+00 -6.7437047840e-05 3.1322804094e+00 -5.4252688126e+00 3.1322804094e+00 5.4252688126e+00 
179000 6.5909904849e+00 -6.7375195867e-05 3.1322804094e+00 -5.4252688126e+00 3.1322804094e+00 5.4252688126e+00 
179100 6.5909904850e+00 -6.7312726471e-05 3.1322804094e+00 -5.4252688126e+00 3.1322804094e+00 5.4252688126e+00 
179200 6.5909904851e+00 -6.7249644807e-05 3.1322804094e+00 -5.4252688126e+00 3.1322804094e+00 5.4252688126e+00 
179300 6.5909904851e+00 -6.7185956115e-05 3.1322804094e+00 -5.4252688126e+00 3.1322804094e+00 5.4252688126e+00 
179400 6.5909904852e+00 -6.7121665732e-05 3.1322804094e+00 -5.4252688126e+00 3.1322804094e+00 5.4252688126e+00 
179500 6.5909904852e+00 -6.7056779082e-05 3.1322804094e+00 -5.4252688126e+00 3.1322804094e+00 5.4252688126e+00 
179600 6.5909904853e+00 -6.6991301672e-05 3.1322804094e+00 -5.4252688126e+00 3.1322804094e+00 5.4252688126e+00 
179700 6.5909904853e+00 -6.6925239099e-05 3.1322804094e+00 -5.4252688126e+00 3.1322804094e+00 5.4252688126e+00 
179800 6.5909904854e+00 -6.6858597036e-05 3.1322804094e+00 -5.4252688126e+00 3.1322804094e+00 5.4252688126e+00 
179900 6.5909904854e+00 -6.6791381239e-05 3.1322804094e+00 -5.4252688126e+00 3.1322804094e+00 5.4252688126e+00 
180000 6.5909904855e+00 -6.6723597540e-05 3.1322804094e+00 -5.4252688126e+00 3.1322804094e+00 5.4252688126e+00 
180100 6.5909904855e+00 -6.6655251842e-05 3.1322804094e+00 -5.4252688126e+00 3.1322804094e+00 5.4252688126e+00 
180200 6.5909904856e+00 -6.6586350123e-05 3.1322804094e+00 -5.4252688126e+00 3.1322804094e+00 5.4252688126e+00 
180300 6.5909904856e+00 -6.6516898425e-05 3.1322804094e+00 -5.4252688126e+00 3.1322804094e+00 5.4252688126e+00 
180400 6.5909904857e+00 -6.6446902864e-05 3.1322804094e+00 -5.4252688126e+00 3.1322804094e+00 5.4252688126e+00 
180500 6.5909904857e+00 -6.6432839033e-05 3.1322804094e+00 -5.4252688126e+00 3.1322804094e+00 5.4252688126e+00 
180500 6.5909904857e+00 -6.6432839033e-05 3.1322804094e+00 -5.4252688126e+00 3.1322804094e+00 5.4252688126e+00 
