# step Hamiltonian StressXX CellTensor1 CellTensor2 CellTensor3 CellTensor4 
0 5.4595471685e+00 2.9490417318e-02 1.7438352029e+00 -3.0204111715e+00 1.7438352029e+00 3.0204111715e+00 
100 5.4599975358e+00 3.0154546641e-02 1.7438352029e+00 -3.0204111715e+00 1.7438352029e+00 3.0204111715e+00 
200 5.4604138494e+00 2.9954143393e-02 1.7429706701e+00 -3.0189137568e+00 1.7429706701e+00 3.0189137568e+00 
300 5.4608225843e+00 2.9660931091e-02 1.7421114566e+00 -3.0174255552e+00 1.7421114566e+00 3.0174255552e+00 
400 5.4612209185e+00 2.9282635601e-02 1.7412602334e+00 -3.0159511934e+00 1.7412602334e+00 3.0159511934e+00 
500 5.4616064164e+00 2.8826778116e-02 1.7404194550e+00 -3.0144949226e+00 1.7404194550e+00 3.0144949226e+00 
600 5.4619770015e+00 2.8300661862e-02 1.7395913647e+00 -3.0130606280e+00 1.7395913647e+00 3.0130606280e+00 
700 5.4623309300e+00 2.7711360451e-02 1.7387779997e+00 -3.0116518385e+00 1.7387779997e+00 3.0116518385e+00 
800 5.4626667656e+00 2.7065707859e-02 1.7379811975e+00 -3.0102717366e+00 1.7379811975e+00 3.0102717366e+00 
900 5.4629833567e+00 2.6370289954e-02 1.7372026020e+00 -3.0089231697e+00 1.7372026020e+00 3.0089231697e+00 
1000 5.4632798141e+00 2.5631437533e-02 1.7364436701e+00 -3.0076086611e+00 1.7364436701e+00 3.0076086611e+00 
1100 5.4635554899e+00 2.4855220802e-02 1.7357056784e+00 -3.0063304219e+00 1.7357056784e+00 3.0063304219e+00 
1200 5.4638099574e+00 2.4047445203e-02 1.7349897301e+00 -3.0050903631e+00 1.7349897301e+00 3.0050903631e+00 
1300 5.4640429928e+00 2.3213648535e-02 1.7342967622e+00 -3.0038901075e+00 1.7342967622e+00 3.0038901075e+00 
1400 5.4642545562e+00 2.2359099269e-02 1.7336275527e+00 -3.0027310027e+00 1.7336275527e+00 3.0027310027e+00 
1500 5.4644447747e+00 2.1488795983e-02 1.7329827282e+00 -3.0016141338e+00 1.7329827282e+00 3.0016141338e+00 
1600 5.4646139262e+00 2.0607467823e-02 1.7323627706e+00 -3.0005403359e+00 1.7323627706e+00 3.0005403359e+00 
1700 5.4647624227e+00 1.9719575913e-02 1.7317680254e+00 -2.9995102070e+00 1.7317680254e+00 2.9995102070e+00 
1800 5.4648907960e+00 1.8829315631e-02 1.7311987086e+00 -2.9985241213e+00 1.7311987086e+00 2.9985241213e+00 
1900 5.4649996830e+00 1.7940619656e-02 1.7306549140e+00 -2.9975822414e+00 1.7306549140e+00 2.9975822414e+00 
2000 5.4650898116e+00 1.7057161734e-02 1.7301366211e+00 -2.9966845317e+00 1.7301366211e+00 2.9966845317e+00 
2100 5.4651619882e+00 1.6182361056e-02 1.7296437019e+00 -2.9958307706e+00 1.7296437019e+00 2.9958307706e+00 
2200 5.4652170846e+00 1.5319387204e-02 1.7291759283e+00 -2.9950205631e+00 1.7291759283e+00 2.9950205631e+00 
2300 5.4652560266e+00 1.4471165578e-02 1.7287329794e+00 -2.9942533530e+00 1.7287329794e+00 2.9942533530e+00 
2400 5.4652797825e+00 1.3640383253e-02 1.7283144480e+00 -2.9935284353e+00 1.7283144480e+00 2.9935284353e+00 
2500 5.4652893529e+00 1.2829495198e-02 1.7279198478e+00 -2.9928449677e+00 1.7279198478e+00 2.9928449677e+00 
2600 5.4652857604e+00 1.2040730810e-02 1.7275486200e+00 -2.9922019824e+00 1.7275486200e+00 2.9922019824e+00 
2700 5.4652700407e+00 1.1276100702e-02 1.7272001399e+00 -2.9915983972e+00 1.7272001399e+00 2.9915983972e+00 
2800 5.4652432339e+00 1.0537403713e-02 1.7268737231e+00 -2.9910330266e+00 1.7268737231e+00 2.9910330266e+00 
2900 5.4652063764e+00 9.8262340820e-03 1.7265686315e+00 -2.9905045924e+00 1.7265686315e+00 2.9905045924e+00 
3000 5.4651604938e+00 9.1439887635e-03 1.7262840797e+00 -2.9900117343e+00 1.7262840797e+00 2.9900117343e+00 
3100 5.4651065940e+00 8.4918748337e-03 1.7260192404e+00 -2.9895530193e+00 1.7260192404e+00 2.9895530193e+00 
3200 5.4650456615e+00 7.8709169713e-03 1.7257732503e+00 -2.9891269519e+00 1.7257732503e+00 2.9891269519e+00 
3300 5.4649786517e+00 7.2819649755e-03 1.7255452151e+00 -2.9887319832e+00 1.7255452151e+00 2.9887319832e+00 
3400 5.4649064864e+00 6.7257013010e-03 1.7253342146e+00 -2.9883665197e+00 1.7253342146e+00 2.9883665197e+00 
3500 5.4648300494e+00 6.2026485870e-03 1.7251393082e+00 -2.9880289319e+00 1.7251393082e+00 2.9880289319e+00 
3600 5.4647501830e+00 5.7131771606e-03 1.7249595389e+00 -2.9877175624e+00 1.7249595389e+00 2.9877175624e+00 
3700 5.4646676851e+00 5.2575124995e-03 1.7247939383e+00 -2.9874307338e+00 1.7247939383e+00 2.9874307338e+00 
3800 5.4645833066e+00 4.8357426366e-03 1.7246415307e+00 -2.9871667560e+00 1.7246415307e+00 2.9871667560e+00 
3900 5.4644977496e+00 4.4478254965e-03 1.7245013370e+00 -2.9869239334e+00 1.7245013370e+00 2.9869239334e+00 
4000 5.4644116660e+00 4.0935961502e-03 1.7243723789e+00 -2.9867005713e+00 1.7243723789e+00 2.9867005713e+00 
4100 5.4643256565e+00 3.7727739799e-03 1.7242536821e+00 -2.9864949825e+00 1.7242536821e+00 2.9864949825e+00 
4200 5.4642402701e+00 3.4849697442e-03 1.7241442801e+00 -2.9863054928e+00 1.7241442801e+00 2.9863054928e+00 
4300 5.4641560043e+00 3.2296925368e-03 1.7240432174e+00 -2.9861304469e+00 1.7240432174e+00 2.9861304469e+00 
4400 5.4640733050e+00 3.0063566322e-03 1.7239495520e+00 -2.9859682137e+00 1.7239495520e+00 2.9859682137e+00 
4500 5.4639925677e+00 2.8142882119e-03 1.7238623588e+00 -2.9858171908e+00 1.7238623588e+00 2.9858171908e+00 
4600 5.4639141385e+00 2.6527319663e-03 1.7237807321e+00 -2.9856758091e+00 1.7237807321e+00 2.9856758091e+00 
4700 5.4638383149e+00 2.5208575677e-03 1.7237037875e+00 -2.9855425371e+00 1.7237037875e+00 2.9855425371e+00 
4800 5.4637653481e+00 2.4177660097e-03 1.7236306647e+00 -2.9854158848e+00 1.7236306647e+00 2.9854158848e+00 
4900 5.4636954448e+00 2.3424958092e-03 1.7235605293e+00 -2.9852944068e+00 1.7235605293e+00 2.9852944068e+00 
5000 5.4636287687e+00 2.2940290672e-03 1.7234925747e+00 -2.9851767058e+00 1.7234925747e+00 2.9851767058e+00 
5100 5.4635654433e+00 2.2712973843e-03 1.7234260233e+00 -2.9850614355e+00 1.7234260233e+00 2.9850614355e+00 
5200 5.4635055542e+00 2.2731876286e-03 1.7233601289e+00 -2.9849473030e+00 1.7233601289e+00 2.9849473030e+00 
5300 5.4634491516e+00 2.2985475514e-03 1.7232941771e+00 -2.9848330712e+00 1.7232941771e+00 2.9848330712e+00 
5400 5.4633962528e+00 2.3461912479e-03 1.7232274871e+00 -2.9847175606e+00 1.7232274871e+00 2.9847175606e+00 
5500 5.4633468448e+00 2.4149044592e-03 1.7231594120e+00 -2.9845996512e+00 1.7231594120e+00 2.9845996512e+00 
5600 5.4633008875e+00 2.5034497135e-03 1.7230893405e+00 -2.9844782837e+00 1.7230893405e+00 2.9844782837e+00 
5700 5.4632583157e+00 2.6105713019e-03 1.7230166968e+00 -2.9843524611e+00 1.7230166968e+00 2.9843524611e+00 
5800 5.4632190424e+00 2.7350000863e-03 1.7229409415e+00 -2.9842212491e+00 1.7229409415e+00 2.9842212491e+00 
5900 5.4631829612e+00 2.8754581365e-03 1.7228615720e+00 -2.9840837771e+00 1.7228615720e+00 2.9840837771e+00 
6000 5.4631499490e+00 3.0306631934e-03 1.7227781226e+00 -2.9839392385e+00 1.7227781226e+00 2.9839392385e+00 
6100 5.4631198684e+00 3.1993329544e-03 1.7226901648e+00 -2.9837868911e+00 1.7226901648e+00 2.9837868911e+00 
6200 5.4630925704e+00 3.3801891804e-03 1.7225973070e+00 -2.9836260566e+00 1.7225973070e+00 2.9836260566e+00 
6300 5.4630678968e+00 3.5719616197e-03 1.7224991947e+00 -2.9834561213e+00 1.7224991947e+00 2.9834561213e+00 
6400 5.4630456820e+00 3.7733917469e-03 1.7223955103e+00 -2.9832765346e+00 1.7223955103e+00 2.9832765346e+00 
6500 5.4630257558e+00 3.9832363159e-03 1.7222859724e+00 -2.9830868094e+00 1.7222859724e+00 2.9830868094e+00 
6600 5.4630079449e+00 4.2002707230e-03 1.7221703357e+00 -2.9828865207e+00 1.7221703357e+00 2.9828865207e+00 
6700 5.4629920749e+00 4.4232921805e-03 1.7220483901e+00 -2.9826753047e+00 1.7220483901e+00 2.9826753047e+00 
6800 5.4629779722e+00 4.6511226973e-03 1.7219199606e+00 -2.9824528583e+00 1.7219199606e+00 2.9824528583e+00 
6900 5.4629654652e+00 4.8826118682e-03 1.7217849060e+00 -2.9822189370e+00 1.7217849060e+00 2.9822189370e+00 
7000 5.4629543863e+00 5.1166394679e-03 1.7216431187e+00 -2.9819733541e+00 1.7216431187e+00 2.9819733541e+00 
7100 5.4629445724e+00 5.3521178535e-03 1.7214945233e+00 -2.9817159793e+00 1.7214945233e+00 2.9817159793e+00 
7200 5.4629358667e+00 5.5879941716e-03 1.7213390759e+00 -2.9814467365e+00 1.7213390759e+00 2.9814467365e+00 
7300 5.4629281194e+00 5.8232523740e-03 1.7211767631e+00 -2.9811656025e+00 1.7211767631e+00 2.9811656025e+00 
7400 5.4629211884e+00 6.0569150407e-03 1.7210076010e+00 -2.9808726052e+00 1.7210076010e+00 2.9808726052e+00 
7500 5.4629149404e+00 6.2880450135e-03 1.7208316340e+00 -2.9805678214e+00 1.7208316340e+00 2.9805678214e+00 
7600 5.4629092507e+00 6.5157468406e-03 1.7206489336e+00 -2.9802513749e+00 1.7206489336e+00 2.9802513749e+00 
7700 5.4629040044e+00 6.7391680360e-03 1.7204595972e+00 -2.9799234348e+00 1.7204595972e+00 2.9799234348e+00 
7800 5.4628990964e+00 6.9575001561e-03 1.7202637472e+00 -2.9795842126e+00 1.7202637472e+00 2.9795842126e+00 
7900 5.4628944312e+00 7.1699796959e-03 1.7200615293e+00 -2.9792339609e+00 1.7200615293e+00 2.9792339609e+00 
8000 5.4628899235e+00 7.3758888108e-03 1.7198531113e+00 -2.9788729704e+00 1.7198531113e+00 2.9788729704e+00 
8100 5.4628854978e+00 7.5745558661e-03 1.7196386821e+00 -2.9785015681e+00 1.7196386821e+00 2.9785015681e+00 
8200 5.4628810886e+00 7.7653558198e-03 1.7194184500e+00 -2.9781201148e+00 1.7194184500e+00 2.9781201148e+00 
8300 5.4628766397e+00 7.9477104440e-03 1.7191926415e+00 -2.9777290030e+00 1.7191926415e+00 2.9777290030e+00 
8400 5.4628721042e+00 8.1210883894e-03 1.7189615001e+00 -2.9773286543e+00 1.7189615001e+00 2.9773286543e+00 
8500 5.4628674442e+00 8.2850050994e-03 1.7187252847e+00 -2.9769195173e+00 1.7187252847e+00 2.9769195173e+00 
8600 5.4628626301e+00 8.4390225802e-03 1.7184842685e+00 -2.9765020651e+00 1.7184842685e+00 2.9765020651e+00 
8700 5.4628576403e+00 8.5827490314e-03 1.7182387376e+00 -2.9760767930e+00 1.7182387376e+00 2.9760767930e+00 
8800 5.4628524607e+00 8.7158383465e-03 1.7179889894e+00 -2.9756442164e+00 1.7179889894e+00 2.9756442164e+00 
8900 5.4628470841e+00 8.8379894875e-03 1.7177353316e+00 -2.9752048683e+00 1.7177353316e+00 2.9752048683e+00 
9000 5.4628415095e+00 8.9489457421e-03 1.7174780810e+00 -2.9747592972e+00 1.7174780810e+00 2.9747592972e+00 
9100 5.4628357417e+00 9.0484938705e-03 1.7172175619e+00 -2.9743080648e+00 1.7172175619e+00 2.9743080648e+00 
9200 5.4628297905e+00 9.1364631484e-03 1.7169541048e+00 -2.9738517437e+00 1.7169541048e+00 2.9738517437e+00 
9300 5.4628236702e+00 9.2127243146e-03 1.7166880456e+00 -2.9733909158e+00 1.7166880456e+00 2.9733909158e+00 
9400 5.4628173990e+00 9.2771884297e-03 1.7164197242e+00 -2.9729261694e+00 1.7164197242e+00 2.9729261694e+00 
9500 5.4628109985e+00 9.3298056537e-03 1.7161494830e+00 -2.9724580980e+00 1.7161494830e+00 2.9724580980e+00 
9600 5.4628044927e+00 9.3705639501e-03 1.7158776664e+00 -2.9719872978e+00 1.7158776664e+00 2.9719872978e+00 
9700 5.4627979081e+00 9.3994877238e-03 1.7156046191e+00 -2.9715143660e+00 1.7156046191e+00 2.9715143660e+00 
9800 5.4627912724e+00 9.4166364001e-03 1.7153306854e+00 -2.9710398989e+00 1.7153306854e+00 2.9710398989e+00 
9900 5.4627846147e+00 9.4221029515e-03 1.7150562082e+00 -2.9705644904e+00 1.7150562082e+00 2.9705644904e+00 
10000 5.4627779643e+00 9.4160123806e-03 1.7147815276e+00 -2.9700887297e+00 1.7147815276e+00 2.9700887297e+00 
10100 5.4627713510e+00 9.3985201646e-03 1.7145069807e+00 -2.9696132004e+00 1.7145069807e+00 2.9696132004e+00 
10200 5.4627648041e+00 9.3698106696e-03 1.7142328998e+00 -2.9691384785e+00 1.7142328998e+00 2.9691384785e+00 
10300 5.4627583523e+00 9.3300955399e-03 1.7139596125e+00 -2.9686651310e+00 1.7139596125e+00 2.9686651310e+00 
10400 5.4627520231e+00 9.2796120699e-03 1.7136874402e+00 -2.9681937147e+00 1.7136874402e+00 2.9681937147e+00 
10500 5.4627458430e+00 9.2186215634e-03 1.7134166975e+00 -2.9677247745e+00 1.7134166975e+00 2.9677247745e+00 
10600 5.4627398366e+00 9.1474076877e-03 1.7131476917e+00 -2.9672588428e+00 1.7131476917e+00 2.9672588428e+00 
10700 5.4627340268e+00 9.0662748268e-03 1.7128807220e+00 -2.9667964378e+00 1.7128807220e+00 2.9667964378e+00 
10800 5.4627284345e+00 8.9755464398e-03 1.7126160789e+00 -2.9663380625e+00 1.7126160789e+00 2.9663380625e+00 
10900 5.4627230784e+00 8.8755634291e-03 1.7123540436e+00 -2.9658842040e+00 1.7123540436e+00 2.9658842040e+00 
11000 5.4627179750e+00 8.7666825239e-03 1.7120948875e+00 -2.9654353325e+00 1.7120948875e+00 2.9654353325e+00 
11100 5.4627131383e+00 8.6492746823e-03 1.7118388718e+00 -2.9649919003e+00 1.7118388718e+00 2.9649919003e+00 
11200 5.4627085800e+00 8.5237235177e-03 1.7115862469e+00 -2.9645543412e+00 1.7115862469e+00 2.9645543412e+00 
11300 5.4627043092e+00 8.3904237520e-03 1.7113372522e+00 -2.9641230697e+00 1.7113372522e+00 2.9641230697e+00 
11400 5.4627003328e+00 8.2497796998e-03 1.7110921158e+00 -2.9636984809e+00 1.7110921158e+00 2.9636984809e+00 
11500 5.4626966551e+00 8.1022037876e-03 1.7108510538e+00 -2.9632809493e+00 1.7108510538e+00 2.9632809493e+00 
11600 5.4626932783e+00 7.9481151095e-03 1.7106142705e+00 -2.9628708287e+00 1.7106142705e+00 2.9628708287e+00 
11700 5.4626902022e+00 7.7879380233e-03 1.7103819582e+00 -2.9624684520e+00 1.7103819582e+00 2.9624684520e+00 
11800 5.4626874243e+00 7.6221007893e-03 1.7101542966e+00 -2.9620741305e+00 1.7101542966e+00 2.9620741305e+00 
11900 5.4626849404e+00 7.4510342536e-03 1.7099314531e+00 -2.9616881543e+00 1.7099314531e+00 2.9616881543e+00 
12000 5.4626827442e+00 7.2751705775e-03 1.7097135825e+00 -2.9613107913e+00 1.7097135825e+00 2.9613107913e+00 
12100 5.4626808277e+00 7.0949420161e-03 1.7095008270e+00 -2.9609422880e+00 1.7095008270e+00 2.9609422880e+00 
12200 5.4626791814e+00 6.9107797460e-03 1.7092933162e+00 -2.9605828687e+00 1.7092933162e+00 2.9605828687e+00 
12300 5.4626777942e+00 6.7231127435e-03 1.7090911671e+00 -2.9602327361e+00 1.7090911671e+00 2.9602327361e+00 
12400 5.4626766538e+00 6.5323667149e-03 1.7088944840e+00 -2.9598920711e+00 1.7088944840e+00 2.9598920711e+00 
12500 5.4626757469e+00 6.3389630792e-03 1.7087033592e+00 -2.9595610331e+00 1.7087033592e+00 2.9595610331e+00 
12600 5.4626750592e+00 6.1433180038e-03 1.7085178721e+00 -2.9592397601e+00 1.7085178721e+00 2.9592397601e+00 
12700 5.4626745757e+00 5.9458414931e-03 1.7083380902e+00 -2.9589283688e+00 1.7083380902e+00 2.9589283688e+00 
12800 5.4626742807e+00 5.7469365308e-03 1.7081640690e+00 -2.9586269552e+00 1.7081640690e+00 2.9586269552e+00 
12900 5.4626741582e+00 5.5469982751e-03 1.7079958521e+00 -2.9583355950e+00 1.7079958521e+00 2.9583355950e+00 
13000 5.4626741919e+00 5.3464133079e-03 1.7078334714e+00 -2.9580543434e+00 1.7078334714e+00 2.9580543434e+00 
13100 5.4626743655e+00 5.1455589353e-03 1.7076769476e+00 -2.9577832362e+00 1.7076769476e+00 2.9577832362e+00 
13200 5.4626746625e+00 4.9448025421e-03 1.7075262902e+00 -2.9575222899e+00 1.7075262902e+00 2.9575222899e+00 
13300 5.4626750670e+00 4.7445009964e-03 1.7073814980e+00 -2.9572715024e+00 1.7073814980e+00 2.9572715024e+00 
13400 5.4626755629e+00 4.5450001058e-03 1.7072425590e+00 -2.9570308530e+00 1.7072425590e+00 2.9570308530e+00 
13500 5.4626761348e+00 4.3466341237e-03 1.7071094513e+00 -2.9568003038e+00 1.7071094513e+00 2.9568003038e+00 
13600 5.4626767679e+00 4.1497253047e-03 1.7069821431e+00 -2.9565797995e+00 1.7069821431e+00 2.9565797995e+00 
13700 5.4626774479e+00 3.9545835076e-03 1.7068605931e+00 -2.9563692686e+00 1.7068605931e+00 2.9563692686e+00 
13800 5.4626781611e+00 3.7615058458e-03 1.7067447506e+00 -2.9561686236e+00 1.7067447506e+00 2.9561686236e+00 
13900 5.4626788947e+00 3.5707763836e-03 1.7066345565e+00 -2.9559777617e+00 1.7066345565e+00 2.9559777617e+00 
14000 5.4626796368e+00 3.3826658764e-03 1.7065299430e+00 -2.9557965659e+00 1.7065299430e+00 2.9557965659e+00 
14100 5.4626803763e+00 3.1974315552e-03 1.7064308345e+00 -2.9556249049e+00 1.7064308345e+00 2.9556249049e+00 
14200 5.4626811029e+00 3.0153169517e-03 1.7063371476e+00 -2.9554626345e+00 1.7063371476e+00 2.9554626345e+00 
14300 5.4626818075e+00 2.8365517654e-03 1.7062487920e+00 -2.9553095980e+00 1.7062487920e+00 2.9553095980e+00 
14400 5.4626824818e+00 2.6613517685e-03 1.7061656702e+00 -2.9551656269e+00 1.7061656702e+00 2.9551656269e+00 
14500 5.4626831186e+00 2.4899187495e-03 1.7060876786e+00 -2.9550305415e+00 1.7060876786e+00 2.9550305415e+00 
14600 5.4626837114e+00 2.3224404929e-03 1.7060147075e+00 -2.9549041519e+00 1.7060147075e+00 2.9549041519e+00 
14700 5.4626842549e+00 2.1590907929e-03 1.7059466417e+00 -2.9547862584e+00 1.7059466417e+00 2.9547862584e+00 
14800 5.4626847447e+00 2.0000295015e-03 1.7058833608e+00 -2.9546766527e+00 1.7058833608e+00 2.9546766527e+00 
14900 5.4626851773e+00 1.8454026078e-03 1.7058247396e+00 -2.9545751178e+00 1.7058247396e+00 2.9545751178e+00 
15000 5.4626855500e+00 1.6953423482e-03 1.7057706487e+00 -2.9544814296e+00 1.7057706487e+00 2.9544814296e+00 
15100 5.4626858611e+00 1.5499673442e-03 1.7057209546e+00 -2.9543953569e+00 1.7057209546e+00 2.9543953569e+00 
15200 5.4626861096e+00 1.4093827696e-03 1.7056755204e+00 -2.9543166626e+00 1.7056755204e+00 2.9543166626e+00 
15300 5.4626862953e+00 1.2736805415e-03 1.7056342061e+00 -2.9542451041e+00 1.7056342061e+00 2.9542451041e+00 
15400 5.4626864185e+00 1.1429395373e-03 1.7055968688e+00 -2.9541804339e+00 1.7055968688e+00 2.9541804339e+00 
15500 5.4626864806e+00 1.0172258341e-03 1.7055633633e+00 -2.9541224008e+00 1.7055633633e+00 2.9541224008e+00 
15600 5.4626864830e+00 8.9659296928e-04 1.7055335426e+00 -2.9540707498e+00 1.7055335426e+00 2.9540707498e+00 
15700 5.4626864282e+00 7.8108222218e-04 1.7055072578e+00 -2.9540252233e+00 1.7055072578e+00 2.9540252233e+00 
15800 5.4626863187e+00 6.7072291355e-04 1.7054843591e+00 -2.9539855614e+00 1.7054843591e+00 2.9539855614e+00 
15900 5.4626861578e+00 5.6553272297e-04 1.7054646954e+00 -2.9539515029e+00 1.7054646954e+00 2.9539515029e+00 
16000 5.4626859488e+00 4.6551802203e-04 1.7054481154e+00 -2.9539227856e+00 1.7054481154e+00 2.9539227856e+00 
16100 5.4626856956e+00 3.7067422219e-04 1.7054344675e+00 -2.9538991466e+00 1.7054344675e+00 2.9538991466e+00 
16200 5.4626854022e+00 2.8098613607e-04 1.7054236000e+00 -2.9538803237e+00 1.7054236000e+00 2.9538803237e+00 
16300 5.4626850727e+00 1.9642835071e-04 1.7054153620e+00 -2.9538660550e+00 1.7054153620e+00 2.9538660550e+00 
16400 5.4626847116e+00 1.1696561167e-04 1.7054096031e+00 -2.9538560802e+00 1.7054096031e+00 2.9538560802e+00 
16500 5.4626843231e+00 4.2553216694e-05 1.7054061738e+00 -2.9538501406e+00 1.7054061738e+00 2.9538501406e+00 
16600 5.4626839116e+00 -2.5703199591e-05 1.7054061738e+00 -2.9538501406e+00 1.7054061738e+00 2.9538501406e+00 
16700 5.4626834817e+00 -9.0910474228e-05 1.7054061738e+00 -2.9538501406e+00 1.7054061738e+00 2.9538501406e+00 
16800 5.4626830377e+00 -1.5053728163e-04 1.7054088392e+00 -2.9538547571e+00 1.7054088392e+00 2.9538547571e+00 
16900 5.4626825839e+00 -2.0537848574e-04 1.7054132527e+00 -2.9538624016e+00 1.7054132527e+00 2.9538624016e+00 
17000 5.4626821244e+00 -2.5551990608e-04 1.7054192741e+00 -2.9538728309e+00 1.7054192741e+00 2.9538728309e+00 
17100 5.4626816632e+00 -3.0105431117e-04 1.7054267655e+00 -2.9538858064e+00 1.7054267655e+00 2.9538858064e+00 
17200 5.4626812040e+00 -3.4208099019e-04 1.7054355919e+00 -2.9539010941e+00 1.7054355919e+00 2.9539010941e+00 
17300 5.4626807505e+00 -3.7870532397e-04 1.7054456210e+00 -2.9539184651e+00 1.7054456210e+00 2.9539184651e+00 
17400 5.4626803059e+00 -4.1103835610e-04 1.7054567238e+00 -2.9539376958e+00 1.7054567238e+00 2.9539376958e+00 
17500 5.4626798734e+00 -4.3919636540e-04 1.7054687745e+00 -2.9539585682e+00 1.7054687745e+00 2.9539585682e+00 
17600 5.4626794558e+00 -4.6330044032e-04 1.7054816507e+00 -2.9539808703e+00 1.7054816507e+00 2.9539808703e+00 
17700 5.4626790555e+00 -4.8347605642e-04 1.7054952334e+00 -2.9540043963e+00 1.7054952334e+00 2.9540043963e+00 
17800 5.4626786749e+00 -4.9985265749e-04 1.7055094075e+00 -2.9540289465e+00 1.7055094075e+00 2.9540289465e+00 
17900 5.4626783160e+00 -5.1256324145e-04 1.7055240615e+00 -2.9540543281e+00 1.7055240615e+00 2.9540543281e+00 
18000 5.4626779805e+00 -5.2174395142e-04 1.7055390881e+00 -2.9540803549e+00 1.7055390881e+00 2.9540803549e+00 
18100 5.4626776697e+00 -5.2753367302e-04 1.7055543837e+00 -2.9541068477e+00 1.7055543837e+00 2.9541068477e+00 
18200 5.4626773847e+00 -5.3007363834e-04 1.7055698489e+00 -2.9541336342e+00 1.7055698489e+00 2.9541336342e+00 
18300 5.4626771265e+00 -5.2950703743e-04 1.7055853884e+00 -2.9541605494e+00 1.7055853884e+00 2.9541605494e+00 
18400 5.4626768957e+00 -5.2597863783e-04 1.7056009112e+00 -2.9541874356e+00 1.7056009112e+00 2.9541874356e+00 
18500 5.4626766925e+00 -5.1963441277e-04 1.7056163304e+00 -2.9542141424e+00 1.7056163304e+00 2.9542141424e+00 
18600 5.4626765171e+00 -5.1062117857e-04 1.7056315634e+00 -2.9542405269e+00 1.7056315634e+00 2.9542405269e+00 
18700 5.4626763693e+00 -4.9908624180e-04 1.7056465321e+00 -2.9542664534e+00 1.7056465321e+00 2.9542664534e+00 
18800 5.4626762488e+00 -4.8517705659e-04 1.7056611626e+00 -2.9542917941e+00 1.7056611626e+00 2.9542917941e+00 
18900 5.4626761551e+00 -4.6904089271e-04 1.7056753851e+00 -2.9543164283e+00 1.7056753851e+00 2.9543164283e+00 
19000 5.4626760875e+00 -4.5082451462e-04 1.7056891346e+00 -2.9543402430e+00 1.7056891346e+00 2.9543402430e+00 
19100 5.4626760450e+00 -4.3067387205e-04 1.7057023499e+00 -2.9543631326e+00 1.7057023499e+00 2.9543631326e+00 
19200 5.4626760267e+00 -4.0873380229e-04 1.7057149745e+00 -2.9543849990e+00 1.7057149745e+00 2.9543849990e+00 
19300 5.4626760314e+00 -3.8514774463e-04 1.7057269558e+00 -2.9544057512e+00 1.7057269558e+00 2.9544057512e+00 
19400 5.4626760578e+00 -3.6005746715e-04 1.7057382456e+00 -2.9544253058e+00 1.7057382456e+00 2.9544253058e+00 
19500 5.4626761046e+00 -3.3360280608e-04 1.7057487999e+00 -2.9544435864e+00 1.7057487999e+00 2.9544435864e+00 
19600 5.4626761704e+00 -3.0592141797e-04 1.7057585787e+00 -2.9544605238e+00 1.7057585787e+00 2.9544605238e+00 
19700 5.4626762537e+00 -2.7714854482e-04 1.7057675461e+00 -2.9544760557e+00 1.7057675461e+00 2.9544760557e+00 
19800 5.4626763529e+00 -2.4741679230e-04 1.7057756699e+00 -2.9544901266e+00 1.7057756699e+00 2.9544901266e+00 
19900 5.4626764666e+00 -2.1685592113e-04 1.7057829223e+00 -2.9545026880e+00 1.7057829223e+00 2.9545026880e+00 
20000 5.4626765932e+00 -1.8559265174e-04 1.7057892787e+00 -2.9545136978e+00 1.7057892787e+00 2.9545136978e+00 
20100 5.4626767311e+00 -1.5375048220e-04 1.7057947188e+00 -2.9545231203e+00 1.7057947188e+00 2.9545231203e+00 
20200 5.4626768788e+00 -1.2144951945e-04 1.7057992255e+00 -2.9545309262e+00 1.7057992255e+00 2.9545309262e+00 
20300 5.4626770348e+00 -8.8806323755e-05 1.7058027854e+00 -2.9545370921e+00 1.7058027854e+00 2.9545370921e+00 
20400 5.4626771976e+00 -5.5933766417e-05 1.7058053885e+00 -2.9545416007e+00 1.7058053885e+00 2.9545416007e+00 
20500 5.4626773658e+00 -2.4461186132e-05 1.7058053885e+00 -2.9545416007e+00 1.7058053885e+00 2.9545416007e+00 
20600 5.4626775378e+00 7.9150248142e-06 1.7058053885e+00 -2.9545416007e+00 1.7058053885e+00 2.9545416007e+00 
20700 5.4626777127e+00 4.1098166954e-05 1.7058053885e+00 -2.9545416007e+00 1.7058053885e+00 2.9545416007e+00 
20800 5.4626778892e+00 7.4993571707e-05 1.7058053885e+00 -2.9545416007e+00 1.7058053885e+00 2.9545416007e+00 
20900 5.4626780661e+00 1.0747014250e-04 1.7058031903e+00 -2.9545377934e+00 1.7058031903e+00 2.9545377934e+00 
21000 5.4626782423e+00 1.3958218865e-04 1.7058000402e+00 -2.9545323372e+00 1.7058000402e+00 2.9545323372e+00 
21100 5.4626784169e+00 1.7124561333e-04 1.7057959488e+00 -2.9545252507e+00 1.7057959488e+00 2.9545252507e+00 
21200 5.4626785890e+00 2.0238068508e-04 1.7057909293e+00 -2.9545165566e+00 1.7057909293e+00 2.9545165566e+00 
21300 5.4626787578e+00 2.3291206835e-04 1.7057849971e+00 -2.9545062818e+00 1.7057849971e+00 2.9545062818e+00 
21400 5.4626789226e+00 2.6276884303e-04 1.7057781700e+00 -2.9544944569e+00 1.7057781700e+00 2.9544944569e+00 
21500 5.4626790828e+00 2.9188451286e-04 1.7057704677e+00 -2.9544811161e+00 1.7057704677e+00 2.9544811161e+00 
21600 5.4626792378e+00 3.2019700351e-04 1.7057619119e+00 -2.9544662970e+00 1.7057619119e+00 2.9544662970e+00 
21700 5.4626793873e+00 3.4764865028e-04 1.7057525262e+00 -2.9544500404e+00 1.7057525262e+00 2.9544500404e+00 
21800 5.4626795308e+00 3.7418617604e-04 1.7057423357e+00 -2.9544323900e+00 1.7057423357e+00 2.9544323900e+00 
21900 5.4626796681e+00 3.9976065969e-04 1.7057313673e+00 -2.9544133922e+00 1.7057313673e+00 2.9544133922e+00 
22000 5.4626797991e+00 4.2432749545e-04 1.7057196491e+00 -2.9543930958e+00 1.7057196491e+00 2.9543930958e+00 
22100 5.4626799235e+00 4.4784634361e-04 1.7057072108e+00 -2.9543715519e+00 1.7057072108e+00 2.9543715519e+00 
22200 5.4626800414e+00 4.7028107277e-04 1.7056940829e+00 -2.9543488138e+00 1.7056940829e+00 2.9543488138e+00 
22300 5.4626801527e+00 4.9159969446e-04 1.7056802973e+00 -2.9543249364e+00 1.7056802973e+00 2.9543249364e+00 
22400 5.4626802576e+00 5.1177428999e-04 1.7056658867e+00 -2.9542999764e+00 1.7056658867e+00 2.9542999764e+00 
22500 5.4626803561e+00 5.3078093057e-04 1.7056508845e+00 -2.9542739919e+00 1.7056508845e+00 2.9542739919e+00 
22600 5.4626804486e+00 5.4859959054e-04 1.7056353250e+00 -2.9542470422e+00 1.7056353250e+00 2.9542470422e+00 
22700 5.4626805350e+00 5.6521405459e-04 1.7056192431e+00 -2.9542191874e+00 1.7056192431e+00 2.9542191874e+00 
22800 5.4626806159e+00 5.8061181908e-04 1.7056026740e+00 -2.9541904888e+00 1.7056026740e+00 2.9541904888e+00 
22900 5.4626806913e+00 5.9478398815e-04 1.7055856533e+00 -2.9541610081e+00 1.7055856533e+00 2.9541610081e+00 
23000 5.4626807618e+00 6.0772516482e-04 1.7055682169e+00 -2.9541308075e+00 1.7055682169e+00 2.9541308075e+00 
23100 5.4626808275e+00 6.1943333761e-04 1.7055504010e+00 -2.9540999495e+00 1.7055504010e+00 2.9540999495e+00 
23200 5.4626808890e+00 6.2990976320e-04 1.7055322417e+00 -2.9540684966e+00 1.7055322417e+00 2.9540684966e+00 
23300 5.4626809464e+00 6.3915884529e-04 1.7055137751e+00 -2.9540365115e+00 1.7055137751e+00 2.9540365115e+00 
23400 5.4626810004e+00 6.4718801035e-04 1.7054950371e+00 -2.9540040564e+00 1.7054950371e+00 2.9540040564e+00 
23500 5.4626810511e+00 6.5400758051e-04 1.7054760636e+00 -2.9539711932e+00 1.7054760636e+00 2.9539711932e+00 
23600 5.4626810991e+00 6.5963064397e-04 1.7054568898e+00 -2.9539379833e+00 1.7054568898e+00 2.9539379833e+00 
23700 5.4626811447e+00 6.6407292347e-04 1.7054375510e+00 -2.9539044875e+00 1.7054375510e+00 2.9539044875e+00 
23800 5.4626811882e+00 6.6735264302e-04 1.7054180818e+00 -2.9538707658e+00 1.7054180818e+00 2.9538707658e+00 
23900 5.4626812301e+00 6.6949039344e-04 1.7053985162e+00 -2.9538368772e+00 1.7053985162e+00 2.9538368772e+00 
24000 5.4626812707e+00 6.7050899690e-04 1.7053788877e+00 -2.9538028796e+00 1.7053788877e+00 2.9538028796e+00 
24100 5.4626813104e+00 6.7043337103e-04 1.7053592290e+00 -2.9537688299e+00 1.7053592290e+00 2.9537688299e+00 
24200 5.4626813494e+00 6.6929039268e-04 1.7053395724e+00 -2.9537347836e+00 1.7053395724e+00 2.9537347836e+00 
24300 5.4626813880e+00 6.6710876191e-04 1.7053199491e+00 -2.9537007950e+00 1.7053199491e+00 2.9537007950e+00 
24400 5.4626814266e+00 6.6391886637e-04 1.7053003895e+00 -2.9536669167e+00 1.7053003895e+00 2.9536669167e+00 
24500 5.4626814654e+00 6.5975264649e-04 1.7052809232e+00 -2.9536332001e+00 1.7052809232e+00 2.9536332001e+00 
24600 5.4626815046e+00 6.5464346163e-04 1.7052615788e+00 -2.9535996947e+00 1.7052615788e+00 2.9535996947e+00 
24700 5.4626815444e+00 6.4862595768e-04 1.7052423840e+00 -2.9535664484e+00 1.7052423840e+00 2.9535664484e+00 
24800 5.4626815850e+00 6.4173593615e-04 1.7052233655e+00 -2.9535335073e+00 1.7052233655e+00 2.9535335073e+00 
24900 5.4626816265e+00 6.3401022521e-04 1.7052045488e+00 -2.9535009158e+00 1.7052045488e+00 2.9535009158e+00 
25000 5.4626816691e+00 6.2548655279e-04 1.7051859584e+00 -2.9534687162e+00 1.7051859584e+00 2.9534687162e+00 
25100 5.4626817130e+00 6.1620342202e-04 1.7051676177e+00 -2.9534369492e+00 1.7051676177e+00 2.9534369492e+00 
25200 5.4626817581e+00 6.0619998924e-04 1.7051495490e+00 -2.9534056534e+00 1.7051495490e+00 2.9534056534e+00 
25300 5.4626818045e+00 5.9551594473e-04 1.7051317735e+00 -2.9533748652e+00 1.7051317735e+00 2.9533748652e+00 
25400 5.4626818523e+00 5.8419139643e-04 1.7051143110e+00 -2.9533446194e+00 1.7051143110e+00 2.9533446194e+00 
25500 5.4626819014e+00 5.7226675670e-04 1.7050971805e+00 -2.9533149485e+00 1.7050971805e+00 2.9533149485e+00 
25600 5.4626819520e+00 5.5978263244e-04 1.7050803995e+00 -2.9532858829e+00 1.7050803995e+00 2.9532858829e+00 
25700 5.4626820039e+00 5.4677971861e-04 1.7050639843e+00 -2.9532574510e+00 1.7050639843e+00 2.9532574510e+00 
25800 5.4626820571e+00 5.3329869523e-04 1.7050479504e+00 -2.9532296794e+00 1.7050479504e+00 2.9532296794e+00 
25900 5.4626821116e+00 5.1938012818e-04 1.7050323116e+00 -2.9532025922e+00 1.7050323116e+00 2.9532025922e+00 
26000 5.4626821674e+00 5.0506437372e-04 1.7050170808e+00 -2.9531762117e+00 1.7050170808e+00 2.9531762117e+00 
26100 5.4626822242e+00 4.9039148685e-04 1.7050022697e+00 -2.9531505582e+00 1.7050022697e+00 2.9531505582e+00 
26200 5.4626822820e+00 4.7540113374e-04 1.7049878888e+00 -2.9531256496e+00 1.7049878888e+00 2.9531256496e+00 
26300 5.4626823408e+00 4.6013250808e-04 1.7049739473e+00 -2.9531015023e+00 1.7049739473e+00 2.9531015023e+00 
26400 5.4626824005e+00 4.4462425157e-04 1.7049604535e+00 -2.9530781303e+00 1.7049604535e+00 2.9530781303e+00 
26500 5.4626824608e+00 4.2891437855e-04 1.7049474144e+00 -2.9530555459e+00 1.7049474144e+00 2.9530555459e+00 
26600 5.4626825217e+00 4.1304020478e-04 1.7049348359e+00 -2.9530337593e+00 1.7049348359e+00 2.9530337593e+00 
26700 5.4626825831e+00 3.9703828040e-04 1.7049227228e+00 -2.9530127789e+00 1.7049227228e+00 2.9530127789e+00 
26800 5.4626826449e+00 3.8094432709e-04 1.7049110789e+00 -2.9529926111e+00 1.7049110789e+00 2.9529926111e+00 
26900 5.4626827068e+00 3.6479317946e-04 1.7048999070e+00 -2.9529732607e+00 1.7048999070e+00 2.9529732607e+00 
27000 5.4626827689e+00 3.4861873062e-04 1.7048892086e+00 -2.9529547306e+00 1.7048892086e+00 2.9529547306e+00 
27100 5.4626828310e+00 3.3245388187e-04 1.7048789845e+00 -2.9529370220e+00 1.7048789845e+00 2.9529370220e+00 
27200 5.4626828929e+00 3.1633049664e-04 1.7048692345e+00 -2.9529201344e+00 1.7048692345e+00 2.9529201344e+00 
27300 5.4626829546e+00 3.0027935845e-04 1.7048599572e+00 -2.9529040657e+00 1.7048599572e+00 2.9529040657e+00 
27400 5.4626830159e+00 2.8433013299e-04 1.7048511507e+00 -2.9528888123e+00 1.7048511507e+00 2.9528888123e+00 
27500 5.4626830768e+00 2.6851133417e-04 1.7048428118e+00 -2.9528743690e+00 1.7048428118e+00 2.9528743690e+00 
27600 5.4626831371e+00 2.5285029414e-04 1.7048349369e+00 -2.9528607291e+00 1.7048349369e+00 2.9528607291e+00 
27700 5.4626831967e+00 2.3737313720e-04 1.7048275212e+00 -2.9528478848e+00 1.7048275212e+00 2.9528478848e+00 
27800 5.4626832556e+00 2.2210475752e-04 1.7048205594e+00 -2.9528358266e+00 1.7048205594e+00 2.9528358266e+00 
27900 5.4626833137e+00 2.0706880059e-04 1.7048140454e+00 -2.9528245440e+00 1.7048140454e+00 2.9528245440e+00 
28000 5.4626833709e+00 1.9228764825e-04 1.7048079723e+00 -2.9528140252e+00 1.7048079723e+00 2.9528140252e+00 
28100 5.4626834272e+00 1.7778240738e-04 1.7048023327e+00 -2.9528042572e+00 1.7048023327e+00 2.9528042572e+00 
28200 5.4626834825e+00 1.6357290193e-04 1.7047971186e+00 -2.9527952260e+00 1.7047971186e+00 2.9527952260e+00 
28300 5.4626835367e+00 1.4967766837e-04 1.7047923212e+00 -2.9527869166e+00 1.7047923212e+00 2.9527869166e+00 
28400 5.4626835898e+00 1.3611395438e-04 1.7047879312e+00 -2.9527793130e+00 1.7047879312e+00 2.9527793130e+00 
28500 5.4626836418e+00 1.2289772060e-04 1.7047839391e+00 -2.9527723985e+00 1.7047839391e+00 2.9527723985e+00 
28600 5.4626836927e+00 1.1004364547e-04 1.7047803346e+00 -2.9527661554e+00 1.7047803346e+00 2.9527661554e+00 
28700 5.4626837424e+00 9.7565132998e-05 1.7047771071e+00 -2.9527605652e+00 1.7047771071e+00 2.9527605652e+00 
28800 5.4626837909e+00 8.5474323175e-05 1.7047742456e+00 -2.9527556089e+00 1.7047742456e+00 2.9527556089e+00 
28900 5.4626838383e+00 7.3782105195e-05 1.7047717387e+00 -2.9527512668e+00 1.7047717387e+00 2.9527512668e+00 
29000 5.4626838845e+00 6.2498133133e-05 1.7047695747e+00 -2.9527475186e+00 1.7047695747e+00 2.9527475186e+00 
29100 5.4626839296e+00 5.3334200475e-05 1.7047695747e+00 -2.9527475186e+00 1.7047695747e+00 2.9527475186e+00 
29200 5.4626839735e+00 4.4307155154e-05 1.7047695747e+00 -2.9527475186e+00 1.7047695747e+00 2.9527475186e+00 
29300 5.4626840162e+00 3.5434108498e-05 1.7047695747e+00 -2.9527475186e+00 1.7047695747e+00 2.9527475186e+00 
29400 5.4626840578e+00 2.6730992545e-05 1.7047695747e+00 -2.9527475186e+00 1.7047695747e+00 2.9527475186e+00 
29500 5.4626840983e+00 1.8212575947e-05 1.7047695747e+00 -2.9527475186e+00 1.7047695747e+00 2.9527475186e+00 
29600 5.4626841377e+00 9.8924818881e-06 1.7047695747e+00 -2.9527475186e+00 1.7047695747e+00 2.9527475186e+00 
29700 5.4626841762e+00 1.7832078904e-06 1.7047695747e+00 -2.9527475186e+00 1.7047695747e+00 2.9527475186e+00 
29800 5.4626842136e+00 -6.1038526225e-06 1.7047695747e+00 -2.9527475186e+00 1.7047695747e+00 2.9527475186e+00 
29900 5.4626842502e+00 -1.3758387153e-05 1.7047695747e+00 -2.9527475186e+00 1.7047695747e+00 2.9527475186e+00 
30000 5.4626842859e+00 -2.1171139438e-05 1.7047695747e+00 -2.9527475186e+00 1.7047695747e+00 2.9527475186e+00 
30100 5.4626843207e+00 -2.8333883406e-05 1.7047695747e+00 -2.9527475186e+00 1.7047695747e+00 2.9527475186e+00 
30200 5.4626843548e+00 -3.5239395867e-05 1.7047695747e+00 -2.9527475186e+00 1.7047695747e+00 2.9527475186e+00 
30300 5.4626843881e+00 -4.1881428082e-05 1.7047695747e+00 -2.9527475186e+00 1.7047695747e+00 2.9527475186e+00 
30400 5.4626844208e+00 -4.8254676317e-05 1.7047695747e+00 -2.9527475186e+00 1.7047695747e+00 2.9527475186e+00 
30500 5.4626844528e+00 -5.4354751498e-05 1.7047695747e+00 -2.9527475186e+00 1.7047695747e+00 2.9527475186e+00 
30600 5.4626844842e+00 -6.0178148074e-05 1.7047695747e+00 -2.9527475186e+00 1.7047695747e+00 2.9527475186e+00 
30700 5.4626845151e+00 -6.5722212213e-05 1.7047695747e+00 -2.9527475186e+00 1.7047695747e+00 2.9527475186e+00 
30800 5.4626845454e+00 -7.0985109405e-05 1.7047695747e+00 -2.9527475186e+00 1.7047695747e+00 2.9527475186e+00 
30900 5.4626845750e+00 -7.4031508267e-05 1.7047716567e+00 -2.9527511247e+00 1.7047716567e+00 2.9527511247e+00 
31000 5.4626846041e+00 -7.6701989199e-05 1.7047738280e+00 -2.9527548855e+00 1.7047738280e+00 2.9527548855e+00 
31100 5.4626846327e+00 -7.9005548558e-05 1.7047760776e+00 -2.9527587819e+00 1.7047760776e+00 2.9527587819e+00 
31200 5.4626846609e+00 -8.0951704840e-05 1.7047783948e+00 -2.9527627954e+00 1.7047783948e+00 2.9527627954e+00 
31300 5.4626846887e+00 -8.2550458633e-05 1.7047807691e+00 -2.9527669078e+00 1.7047807691e+00 2.9527669078e+00 
31400 5.4626847161e+00 -8.3812252799e-05 1.7047831902e+00 -2.9527711013e+00 1.7047831902e+00 2.9527711013e+00 
31500 5.4626847431e+00 -8.4747932975e-05 1.7047856484e+00 -2.9527753590e+00 1.7047856484e+00 2.9527753590e+00 
31600 5.4626847698e+00 -8.5368708474e-05 1.7047881339e+00 -2.9527796641e+00 1.7047881339e+00 2.9527796641e+00 
31700 5.4626847962e+00 -8.5686113687e-05 1.7047906377e+00 -2.9527840008e+00 1.7047906377e+00 2.9527840008e+00 
31800 5.4626848223e+00 -8.5711970011e-05 1.7047931508e+00 -2.9527883536e+00 1.7047931508e+00 2.9527883536e+00 
31900 5.4626848481e+00 -8.5458348412e-05 1.7047956647e+00 -2.9527927078e+00 1.7047956647e+00 2.9527927078e+00 
32000 5.4626848737e+00 -8.4937532695e-05 1.7047981711e+00 -2.9527970490e+00 1.7047981711e+00 2.9527970490e+00 
32100 5.4626848990e+00 -8.4161983509e-05 1.7048006622e+00 -2.9528013638e+00 1.7048006622e+00 2.9528013638e+00 
32200 5.4626849240e+00 -8.3144303168e-05 1.7048031306e+00 -2.9528056391e+00 1.7048031306e+00 2.9528056391e+00 
32300 5.4626849488e+00 -8.1897201358e-05 1.7048055691e+00 -2.9528098628e+00 1.7048055691e+00 2.9528098628e+00 
32400 5.4626849734e+00 -8.0433461746e-05 1.7048079711e+00 -2.9528140231e+00 1.7048079711e+00 2.9528140231e+00 
32500 5.4626849978e+00 -7.8765909557e-05 1.7048103301e+00 -2.9528181090e+00 1.7048103301e+00 2.9528181090e+00 
32600 5.4626850219e+00 -7.6907380175e-05 1.7048126402e+00 -2.9528221102e+00 1.7048126402e+00 2.9528221102e+00 
32700 5.4626850458e+00 -7.4870688783e-05 1.7048148958e+00 -2.9528260171e+00 1.7048148958e+00 2.9528260171e+00 
32800 5.4626850695e+00 -7.2668601083e-05 1.7048170917e+00 -2.9528298204e+00 1.7048170917e+00 2.9528298204e+00 
32900 5.4626850930e+00 -7.0313805154e-05 1.7048192230e+00 -2.9528335119e+00 1.7048192230e+00 2.9528335119e+00 
33000 5.4626851164e+00 -6.9734634626e-05 1.7048192230e+00 -2.9528335119e+00 1.7048192230e+00 2.9528335119e+00 
33100 5.4626851395e+00 -6.8970149936e-05 1.7048192230e+00 -2.9528335119e+00 1.7048192230e+00 2.9528335119e+00 
33200 5.4626851624e+00 -6.8030018187e-05 1.7048192230e+00 -2.9528335119e+00 1.7048192230e+00 2.9528335119e+00 
33300 5.4626851850e+00 -6.6923922562e-05 1.7048192230e+00 -2.9528335119e+00 1.7048192230e+00 2.9528335119e+00 
33400 5.4626852074e+00 -6.5661538251e-05 1.7048192230e+00 -2.9528335119e+00 1.7048192230e+00 2.9528335119e+00 
33500 5.4626852294e+00 -6.4252509479e-05 1.7048192230e+00 -2.9528335119e+00 1.7048192230e+00 2.9528335119e+00 
33600 5.4626852512e+00 -6.2706427646e-05 1.7048192230e+00 -2.9528335119e+00 1.7048192230e+00 2.9528335119e+00 
33700 5.4626852727e+00 -6.1032810555e-05 1.7048192230e+00 -2.9528335119e+00 1.7048192230e+00 2.9528335119e+00 
33800 5.4626852939e+00 -5.9241082766e-05 1.7048192230e+00 -2.9528335119e+00 1.7048192230e+00 2.9528335119e+00 
33900 5.4626853148e+00 -5.7340557035e-05 1.7048192230e+00 -2.9528335119e+00 1.7048192230e+00 2.9528335119e+00 
34000 5.4626853354e+00 -5.5340416856e-05 1.7048192230e+00 -2.9528335119e+00 1.7048192230e+00 2.9528335119e+00 
34100 5.4626853556e+00 -5.3249700095e-05 1.7048192230e+00 -2.9528335119e+00 1.7048192230e+00 2.9528335119e+00 
34200 5.4626853756e+00 -5.1077283693e-05 1.7048192230e+00 -2.9528335119e+00 1.7048192230e+00 2.9528335119e+00 
34300 5.4626853952e+00 -4.8831869446e-05 1.7048192230e+00 -2.9528335119e+00 1.7048192230e+00 2.9528335119e+00 
34400 5.4626854145e+00 -4.6521970821e-05 1.7048192230e+00 -2.9528335119e+00 1.7048192230e+00 2.9528335119e+00 
34500 5.4626854335e+00 -4.4155900821e-05 1.7048192230e+00 -2.9528335119e+00 1.7048192230e+00 2.9528335119e+00 
34600 5.4626854521e+00 -4.1741760855e-05 1.7048192230e+00 -2.9528335119e+00 1.7048192230e+00 2.9528335119e+00 
34700 5.4626854705e+00 -3.9287430620e-05 1.7048192230e+00 -2.9528335119e+00 1.7048192230e+00 2.9528335119e+00 
34800 5.4626854884e+00 -3.6800558947e-05 1.7048192230e+00 -2.9528335119e+00 1.7048192230e+00 2.9528335119e+00 
34900 5.4626855061e+00 -3.4288555609e-05 1.7048192230e+00 -2.9528335119e+00 1.7048192230e+00 2.9528335119e+00 
35000 5.4626855234e+00 -3.1758584055e-05 1.7048192230e+00 -2.9528335119e+00 1.7048192230e+00 2.9528335119e+00 
35100 5.4626855404e+00 -2.9217555063e-05 1.7048192230e+00 -2.9528335119e+00 1.7048192230e+00 2.9528335119e+00 
35200 5.4626855571e+00 -2.6672121252e-05 1.7048192230e+00 -2.9528335119e+00 1.7048192230e+00 2.9528335119e+00 
35300 5.4626855734e+00 -2.4128672480e-05 1.7048192230e+00 -2.9528335119e+00 1.7048192230e+00 2.9528335119e+00 
35400 5.4626855895e+00 -2.1593332031e-05 1.7048192230e+00 -2.9528335119e+00 1.7048192230e+00 2.9528335119e+00 
35500 5.4626856052e+00 -1.9071953639e-05 1.7048192230e+00 -2.9528335119e+00 1.7048192230e+00 2.9528335119e+00 
35600 5.4626856206e+00 -1.6570119252e-05 1.7048192230e+00 -2.9528335119e+00 1.7048192230e+00 2.9528335119e+00 
35700 5.4626856357e+00 -1.4093137565e-05 1.7048192230e+00 -2.9528335119e+00 1.7048192230e+00 2.9528335119e+00 
35800 5.4626856505e+00 -1.1646043238e-05 1.7048192230e+00 -2.9528335119e+00 1.7048192230e+00 2.9528335119e+00 
35900 5.4626856649e+00 -9.2335968171e-06 1.7048192230e+00 -2.9528335119e+00 1.7048192230e+00 2.9528335119e+00 
36000 5.4626856791e+00 -6.8602852923e-06 1.7048192230e+00 -2.9528335119e+00 1.7048192230e+00 2.9528335119e+00 
36100 5.4626856930e+00 -4.5303232888e-06 1.7048192230e+00 -2.9528335119e+00 1.7048192230e+00 2.9528335119e+00 
36200 5.4626857066e+00 -2.2476548397e-06 1.7048192230e+00 -2.9528335119e+00 1.7048192230e+00 2.9528335119e+00 
36300 5.4626857200e+00 -1.5955727333e-08 1.7048192230e+00 -2.9528335119e+00 1.7048192230e+00 2.9528335119e+00 
36400 5.4626857331e+00 2.1613636554e-06 1.7048192230e+00 -2.9528335119e+00 1.7048192230e+00 2.9528335119e+00 
36500 5.4626857458e+00 4.2811549359e-06 1.7048192230e+00 -2.9528335119e+00 1.7048192230e+00 2.9528335119e+00 
36600 5.4626857584e+00 6.3405279322e-06 1.7048192230e+00 -2.9528335119e+00 1.7048192230e+00 2.9528335119e+00 
36700 5.4626857707e+00 8.3368463667e-06 1.7048192230e+00 -2.9528335119e+00 1.7048192230e+00 2.9528335119e+00 
36800 5.4626857827e+00 1.0267723193e-05 1.7048192230e+00 -2.9528335119e+00 1.7048192230e+00 2.9528335119e+00 
36900 5.4626857945e+00 1.2131015524e-05 1.7048192230e+00 -2.9528335119e+00 1.7048192230e+00 2.9528335119e+00 
37000 5.4626858060e+00 1.3924819219e-05 1.7048192230e+00 -2.9528335119e+00 1.7048192230e+00 2.9528335119e+00 
37100 5.4626858174e+00 1.5647463139e-05 1.7048192230e+00 -2.9528335119e+00 1.7048192230e+00 2.9528335119e+00 
37200 5.4626858285e+00 1.7297503116e-05 1.7048192230e+00 -2.9528335119e+00 1.7048192230e+00 2.9528335119e+00 
37300 5.4626858393e+00 1.8873715644e-05 1.7048192230e+00 -2.9528335119e+00 1.7048192230e+00 2.9528335119e+00 
37400 5.4626858500e+00 2.0375091337e-05 1.7048192230e+00 -2.9528335119e+00 1.7048192230e+00 2.9528335119e+00 
37500 5.4626858604e+00 2.1800828168e-05 1.7048192230e+00 -2.9528335119e+00 1.7048192230e+00 2.9528335119e+00 
37600 5.4626858707e+00 2.3150324514e-05 1.7048192230e+00 -2.9528335119e+00 1.7048192230e+00 2.9528335119e+00 
37700 5.4626858807e+00 2.4423172045e-05 1.7048192230e+00 -2.9528335119e+00 1.7048192230e+00 2.9528335119e+00 
37800 5.4626858906e+00 2.5619148465e-05 1.7048192230e+00 -2.9528335119e+00 1.7048192230e+00 2.9528335119e+00 
37900 5.4626859003e+00 2.6738210133e-05 1.7048192230e+00 -2.9528335119e+00 1.7048192230e+00 2.9528335119e+00 
38000 5.4626859098e+00 2.7780484596e-05 1.7048192230e+00 -2.9528335119e+00 1.7048192230e+00 2.9528335119e+00 
38100 5.4626859191e+00 2.8746263044e-05 1.7048192230e+00 -2.9528335119e+00 1.7048192230e+00 2.9528335119e+00 
38200 5.4626859282e+00 2.9635992713e-05 1.7048192230e+00 -2.9528335119e+00 1.7048192230e+00 2.9528335119e+00 
38300 5.4626859372e+00 3.0450269255e-05 1.7048192230e+00 -2.9528335119e+00 1.7048192230e+00 2.9528335119e+00 
38400 5.4626859460e+00 3.1189829093e-05 1.7048192230e+00 -2.9528335119e+00 1.7048192230e+00 2.9528335119e+00 
38500 5.4626859546e+00 3.1855541789e-05 1.7048192230e+00 -2.9528335119e+00 1.7048192230e+00 2.9528335119e+00 
38600 5.4626859631e+00 3.2448402419e-05 1.7048192230e+00 -2.9528335119e+00 1.7048192230e+00 2.9528335119e+00 
38700 5.4626859714e+00 3.2969524010e-05 1.7048192230e+00 -2.9528335119e+00 1.7048192230e+00 2.9528335119e+00 
38800 5.4626859796e+00 3.3420130015e-05 1.7048192230e+00 -2.9528335119e+00 1.7048192230e+00 2.9528335119e+00 
38900 5.4626859876e+00 3.3801546858e-05 1.7048192230e+00 -2.9528335119e+00 1.7048192230e+00 2.9528335119e+00 
39000 5.4626859955e+00 3.4115196584e-05 1.7048192230e+00 -2.9528335119e+00 1.7048192230e+00 2.9528335119e+00 
39100 5.4626860032e+00 3.4362589582e-05 1.7048192230e+00 -2.9528335119e+00 1.7048192230e+00 2.9528335119e+00 
39200 5.4626860108e+00 3.4545317438e-05 1.7048192230e+00 -2.9528335119e+00 1.7048192230e+00 2.9528335119e+00 
39300 5.4626860182e+00 3.4665045903e-05 1.7048192230e+00 -2.9528335119e+00 1.7048192230e+00 2.9528335119e+00 
39400 5.4626860256e+00 3.4723507992e-05 1.7048192230e+00 -2.9528335119e+00 1.7048192230e+00 2.9528335119e+00 
39500 5.4626860328e+00 3.4722497243e-05 1.7048192230e+00 -2.9528335119e+00 1.7048192230e+00 2.9528335119e+00 
39600 5.4626860398e+00 3.4663861103e-05 1.7048192230e+00 -2.9528335119e+00 1.7048192230e+00 2.9528335119e+00 
39700 5.4626860468e+00 3.4549494501e-05 1.7048192230e+00 -2.9528335119e+00 1.7048192230e+00 2.9528335119e+00 
39800 5.4626860536e+00 3.4381333583e-05 1.7048192230e+00 -2.9528335119e+00 1.7048192230e+00 2.9528335119e+00 
39900 5.4626860603e+00 3.4161349616e-05 1.7048192230e+00 -2.9528335119e+00 1.7048192230e+00 2.9528335119e+00 
40000 5.4626860668e+00 3.3891543084e-05 1.7048192230e+00 -2.9528335119e+00 1.7048192230e+00 2.9528335119e+00 
40100 5.4626860733e+00 3.3573937975e-05 1.7048192230e+00 -2.9528335119e+00 1.7048192230e+00 2.9528335119e+00 
40200 5.4626860796e+00 3.3210576260e-05 1.7048192230e+00 -2.9528335119e+00 1.7048192230e+00 2.9528335119e+00 
40300 5.4626860858e+00 3.2803512562e-05 1.7048192230e+00 -2.9528335119e+00 1.7048192230e+00 2.9528335119e+00 
40400 5.4626860919e+00 3.2354809042e-05 1.7048192230e+00 -2.9528335119e+00 1.7048192230e+00 2.9528335119e+00 
40500 5.4626860979e+00 3.1866530482e-05 1.7048192230e+00 -2.9528335119e+00 1.7048192230e+00 2.9528335119e+00 
40600 5.4626861038e+00 3.1340739571e-05 1.7048192230e+00 -2.9528335119e+00 1.7048192230e+00 2.9528335119e+00 
40700 5.4626861096e+00 3.0779492413e-05 1.7048192230e+00 -2.9528335119e+00 1.7048192230e+00 2.9528335119e+00 
40800 5.4626861152e+00 3.0184834235e-05 1.7048192230e+00 -2.9528335119e+00 1.7048192230e+00 2.9528335119e+00 
40900 5.4626861208e+00 2.9558795313e-05 1.7048192230e+00 -2.9528335119e+00 1.7048192230e+00 2.9528335119e+00 
41000 5.4626861263e+00 2.8903387102e-05 1.7048192230e+00 -2.9528335119e+00 1.7048192230e+00 2.9528335119e+00 
41100 5.4626861316e+00 2.8220598585e-05 1.7048192230e+00 -2.9528335119e+00 1.7048192230e+00 2.9528335119e+00 
41200 5.4626861369e+00 2.7512392833e-05 1.7048192230e+00 -2.9528335119e+00 1.7048192230e+00 2.9528335119e+00 
41300 5.4626861421e+00 2.6780703764e-05 1.7048192230e+00 -2.9528335119e+00 1.7048192230e+00 2.9528335119e+00 
41400 5.4626861471e+00 2.6027433120e-05 1.7048192230e+00 -2.9528335119e+00 1.7048192230e+00 2.9528335119e+00 
41500 5.4626861521e+00 2.5254447644e-05 1.7048192230e+00 -2.9528335119e+00 1.7048192230e+00 2.9528335119e+00 
41600 5.4626861570e+00 2.4463576460e-05 1.7048192230e+00 -2.9528335119e+00 1.7048192230e+00 2.9528335119e+00 
41700 5.4626861617e+00 2.3656608662e-05 1.7048192230e+00 -2.9528335119e+00 1.7048192230e+00 2.9528335119e+00 
41800 5.4626861664e+00 2.2835291077e-05 1.7048192230e+00 -2.9528335119e+00 1.7048192230e+00 2.9528335119e+00 
41900 5.4626861710e+00 2.2001326253e-05 1.7048192230e+00 -2.9528335119e+00 1.7048192230e+00 2.9528335119e+00 
42000 5.4626861756e+00 2.1156370609e-05 1.7048192230e+00 -2.9528335119e+00 1.7048192230e+00 2.9528335119e+00 
42100 5.4626861800e+00 2.0302032783e-05 1.7048192230e+00 -2.9528335119e+00 1.7048192230e+00 2.9528335119e+00 
42200 5.4626861843e+00 1.9439872168e-05 1.7048192230e+00 -2.9528335119e+00 1.7048192230e+00 2.9528335119e+00 
42300 5.4626861886e+00 1.8571397601e-05 1.7048192230e+00 -2.9528335119e+00 1.7048192230e+00 2.9528335119e+00 
42400 5.4626861928e+00 1.7698066250e-05 1.7048192230e+00 -2.9528335119e+00 1.7048192230e+00 2.9528335119e+00 
42500 5.4626861969e+00 1.6821282653e-05 1.7048192230e+00 -2.9528335119e+00 1.7048192230e+00 2.9528335119e+00 
42600 5.4626862009e+00 1.5942397923e-05 1.7048192230e+00 -2.9528335119e+00 1.7048192230e+00 2.9528335119e+00 
42700 5.4626862048e+00 1.5062709107e-05 1.7048192230e+00 -2.9528335119e+00 1.7048192230e+00 2.9528335119e+00 
42800 5.4626862087e+00 1.4183458699e-05 1.7048192230e+00 -2.9528335119e+00 1.7048192230e+00 2.9528335119e+00 
42900 5.4626862125e+00 1.3305834297e-05 1.7048192230e+00 -2.9528335119e+00 1.7048192230e+00 2.9528335119e+00 
43000 5.4626862162e+00 1.2430968395e-05 1.7048192230e+00 -2.9528335119e+00 1.7048192230e+00 2.9528335119e+00 
43100 5.4626862198e+00 1.1559938319e-05 1.7048192230e+00 -2.9528335119e+00 1.7048192230e+00 2.9528335119e+00 
43200 5.4626862234e+00 1.0693766291e-05 1.7048192230e+00 -2.9528335119e+00 1.7048192230e+00 2.9528335119e+00 
43300 5.4626862269e+00 9.8334195981e-06 1.7048192230e+00 -2.9528335119e+00 1.7048192230e+00 2.9528335119e+00 
43400 5.4626862304e+00 8.9798109044e-06 1.7048192230e+00 -2.9528335119e+00 1.7048192230e+00 2.9528335119e+00 
43500 5.4626862337e+00 8.1337986472e-06 1.7048192230e+00 -2.9528335119e+00 1.7048192230e+00 2.9528335119e+00 
43600 5.4626862370e+00 7.2961875632e-06 1.7048192230e+00 -2.9528335119e+00 1.7048192230e+00 2.9528335119e+00 
43700 5.4626862403e+00 6.4677292991e-06 1.7048192230e+00 -2.9528335119e+00 1.7048192230e+00 2.9528335119e+00 
43800 5.4626862435e+00 5.6491231166e-06 1.7048192230e+00 -2.9528335119e+00 1.7048192230e+00 2.9528335119e+00 
43900 5.4626862466e+00 4.8410166908e-06 1.7048192230e+00 -2.9528335119e+00 1.7048192230e+00 2.9528335119e+00 
44000 5.4626862496e+00 4.0440069840e-06 1.7048192230e+00 -2.9528335119e+00 1.7048192230e+00 2.9528335119e+00 
44100 5.4626862526e+00 3.2586412019e-06 1.7048192230e+00 -2.9528335119e+00 1.7048192230e+00 2.9528335119e+00 
44200 5.4626862556e+00 2.4854178157e-06 1.7048192230e+00 -2.9528335119e+00 1.7048192230e+00 2.9528335119e+00 
44300 5.4626862584e+00 1.7247876553e-06 1.7048192230e+00 -2.9528335119e+00 1.7048192230e+00 2.9528335119e+00 
44400 5.4626862613e+00 9.7715505326e-07 1.7048192230e+00 -2.9528335119e+00 1.7048192230e+00 2.9528335119e+00 
44500 5.4626862640e+00 2.4287905730e-07 1.7048192230e+00 -2.9528335119e+00 1.7048192230e+00 2.9528335119e+00 
44600 5.4626862668e+00 -4.7772532311e-07 1.7048192230e+00 -2.9528335119e+00 1.7048192230e+00 2.9528335119e+00 
44700 5.4626862694e+00 -1.1843858225e-06 1.7048192230e+00 -2.9528335119e+00 1.7048192230e+00 2.9528335119e+00 
44800 5.4626862720e+00 -1.8768715658e-06 1.7048192230e+00 -2.9528335119e+00 1.7048192230e+00 2.9528335119e+00 
44900 5.4626862746e+00 -2.5549917158e-06 1.7048192230e+00 -2.9528335119e+00 1.7048192230e+00 2.9528335119e+00 
45000 5.4626862771e+00 -3.2185940606e-06 1.7048192230e+00 -2.9528335119e+00 1.7048192230e+00 2.9528335119e+00 
45100 5.4626862796e+00 -3.8675635880e-06 1.7048192230e+00 -2.9528335119e+00 1.7048192230e+00 2.9528335119e+00 
45200 5.4626862820e+00 -4.5018210347e-06 1.7048192230e+00 -2.9528335119e+00 1.7048192230e+00 2.9528335119e+00 
45300 5.4626862844e+00 -5.1213214309e-06 1.7048192230e+00 -2.9528335119e+00 1.7048192230e+00 2.9528335119e+00 
45400 5.4626862867e+00 -5.7260526171e-06 1.7048192230e+00 -2.9528335119e+00 1.7048192230e+00 2.9528335119e+00 
45500 5.4626862890e+00 -6.3160337554e-06 1.7048192230e+00 -2.9528335119e+00 1.7048192230e+00 2.9528335119e+00 
45600 5.4626862912e+00 -6.8913138487e-06 1.7048192230e+00 -2.9528335119e+00 1.7048192230e+00 2.9528335119e+00 
45700 5.4626862934e+00 -7.4519702362e-06 1.7048192230e+00 -2.9528335119e+00 1.7048192230e+00 2.9528335119e+00 
45800 5.4626862956e+00 -7.9981071168e-06 1.7048192230e+00 -2.9528335119e+00 1.7048192230e+00 2.9528335119e+00 
45900 5.4626862977e+00 -8.5298540546e-06 1.7048192230e+00 -2.9528335119e+00 1.7048192230e+00 2.9528335119e+00 
46000 5.4626862998e+00 -9.0473645149e-06 1.7048192230e+00 -2.9528335119e+00 1.7048192230e+00 2.9528335119e+00 
46100 5.4626863018e+00 -9.5508143935e-06 1.7048192230e+00 -2.9528335119e+00 1.7048192230e+00 2.9528335119e+00 
46200 5.4626863038e+00 -1.0040400571e-05 1.7048192230e+00 -2.9528335119e+00 1.7048192230e+00 2.9528335119e+00 
46300 5.4626863058e+00 -1.0516339485e-05 1.7048192230e+00 -2.9528335119e+00 1.7048192230e+00 2.9528335119e+00 
46400 5.4626863077e+00 -1.0978865713e-05 1.7048192230e+00 -2.9528335119e+00 1.7048192230e+00 2.9528335119e+00 
46500 5.4626863096e+00 -1.1428230592e-05 1.7048192230e+00 -2.9528335119e+00 1.7048192230e+00 2.9528335119e+00 
46600 5.4626863114e+00 -1.1864700848e-05 1.7048192230e+00 -2.9528335119e+00 1.7048192230e+00 2.9528335119e+00 
46700 5.4626863133e+00 -1.2288557262e-05 1.7048192230e+00 -2.9528335119e+00 1.7048192230e+00 2.9528335119e+00 
46800 5.4626863150e+00 -1.2700093358e-05 1.7048192230e+00 -2.9528335119e+00 1.7048192230e+00 2.9528335119e+00 
46900 5.4626863168e+00 -1.3099614126e-05 1.7048192230e+00 -2.9528335119e+00 1.7048192230e+00 2.9528335119e+00 
47000 5.4626863185e+00 -1.3487434781e-05 1.7048192230e+00 -2.9528335119e+00 1.7048192230e+00 2.9528335119e+00 
47100 5.4626863202e+00 -1.3863879536e-05 1.7048192230e+00 -2.9528335119e+00 1.7048192230e+00 2.9528335119e+00 
47200 5.4626863218e+00 -1.4229280435e-05 1.7048192230e+00 -2.9528335119e+00 1.7048192230e+00 2.9528335119e+00 
47300 5.4626863235e+00 -1.4583976205e-05 1.7048192230e+00 -2.9528335119e+00 1.7048192230e+00 2.9528335119e+00 
47400 5.4626863250e+00 -1.4928311145e-05 1.7048192230e+00 -2.9528335119e+00 1.7048192230e+00 2.9528335119e+00 
47500 5.4626863266e+00 -1.5262634069e-05 1.7048192230e+00 -2.9528335119e+00 1.7048192230e+00 2.9528335119e+00 
47600 5.4626863281e+00 -1.5587297262e-05 1.7048192230e+00 -2.9528335119e+00 1.7048192230e+00 2.9528335119e+00 
47700 5.4626863296e+00 -1.5902655498e-05 1.7048192230e+00 -2.9528335119e+00 1.7048192230e+00 2.9528335119e+00 
47800 5.4626863311e+00 -1.6209065084e-05 1.7048192230e+00 -2.9528335119e+00 1.7048192230e+00 2.9528335119e+00 
47900 5.4626863326e+00 -1.6506882950e-05 1.7048192230e+00 -2.9528335119e+00 1.7048192230e+00 2.9528335119e+00 
48000 5.4626863340e+00 -1.6796465777e-05 1.7048192230e+00 -2.9528335119e+00 1.7048192230e+00 2.9528335119e+00 
48100 5.4626863354e+00 -1.7078169169e-05 1.7048192230e+00 -2.9528335119e+00 1.7048192230e+00 2.9528335119e+00 
48200 5.4626863367e+00 -1.7352346862e-05 1.7048192230e+00 -2.9528335119e+00 1.7048192230e+00 2.9528335119e+00 
48300 5.4626863381e+00 -1.7619349975e-05 1.7048192230e+00 -2.9528335119e+00 1.7048192230e+00 2.9528335119e+00 
48400 5.4626863394e+00 -1.7879526293e-05 1.7048192230e+00 -2.9528335119e+00 1.7048192230e+00 2.9528335119e+00 
48500 5.4626863407e+00 -1.8133219620e-05 1.7048192230e+00 -2.9528335119e+00 1.7048192230e+00 2.9528335119e+00 
48600 5.4626863420e+00 -1.8380769129e-05 1.7048192230e+00 -2.9528335119e+00 1.7048192230e+00 2.9528335119e+00 
48700 5.4626863432e+00 -1.8622508785e-05 1.7048192230e+00 -2.9528335119e+00 1.7048192230e+00 2.9528335119e+00 
48800 5.4626863444e+00 -1.8858766798e-05 1.7048192230e+00 -2.9528335119e+00 1.7048192230e+00 2.9528335119e+00 
48900 5.4626863456e+00 -1.9089865105e-05 1.7048192230e+00 -2.9528335119e+00 1.7048192230e+00 2.9528335119e+00 
49000 5.4626863468e+00 -1.9316118906e-05 1.7048192230e+00 -2.9528335119e+00 1.7048192230e+00 2.9528335119e+00 
49100 5.4626863480e+00 -1.9537836226e-05 1.7048192230e+00 -2.9528335119e+00 1.7048192230e+00 2.9528335119e+00 
49200 5.4626863491e+00 -1.9755317523e-05 1.7048192230e+00 -2.9528335119e+00 1.7048192230e+00 2.9528335119e+00 
49300 5.4626863502e+00 -1.9968855320e-05 1.7048192230e+00 -2.9528335119e+00 1.7048192230e+00 2.9528335119e+00 
49400 5.4626863513e+00 -2.0178733887e-05 1.7048192230e+00 -2.9528335119e+00 1.7048192230e+00 2.9528335119e+00 
49500 5.4626863524e+00 -2.0385228944e-05 1.7048192230e+00 -2.9528335119e+00 1.7048192230e+00 2.9528335119e+00 
49600 5.4626863534e+00 -2.0588607412e-05 1.7048192230e+00 -2.9528335119e+00 1.7048192230e+00 2.9528335119e+00 
49700 5.4626863544e+00 -2.0789127182e-05 1.7048192230e+00 -2.9528335119e+00 1.7048192230e+00 2.9528335119e+00 
49800 5.4626863555e+00 -2.0987036926e-05 1.7048192230e+00 -2.9528335119e+00 1.7048192230e+00 2.9528335119e+00 
49900 5.4626863564e+00 -2.1182575933e-05 1.7048192230e+00 -2.9528335119e+00 1.7048192230e+00 2.9528335119e+00 
50000 5.4626863574e+00 -2.1375973983e-05 1.7048192230e+00 -2.9528335119e+00 1.7048192230e+00 2.9528335119e+00 
50100 5.4626863584e+00 -2.1567451237e-05 1.7048192230e+00 -2.9528335119e+00 1.7048192230e+00 2.9528335119e+00 
50200 5.4626863593e+00 -2.1757218169e-05 1.7048192230e+00 -2.9528335119e+00 1.7048192230e+00 2.9528335119e+00 
50300 5.4626863602e+00 -2.1945475512e-05 1.7048192230e+00 -2.9528335119e+00 1.7048192230e+00 2.9528335119e+00 
50400 5.4626863611e+00 -2.2132414235e-05 1.7048192230e+00 -2.9528335119e+00 1.7048192230e+00 2.9528335119e+00 
50500 5.4626863620e+00 -2.2318215550e-05 1.7048192230e+00 -2.9528335119e+00 1.7048192230e+00 2.9528335119e+00 
50600 5.4626863629e+00 -2.2503050932e-05 1.7048192230e+00 -2.9528335119e+00 1.7048192230e+00 2.9528335119e+00 
50700 5.4626863638e+00 -2.2687082167e-05 1.7048192230e+00 -2.9528335119e+00 1.7048192230e+00 2.9528335119e+00 
50800 5.4626863646e+00 -2.2870461422e-05 1.7048192230e+00 -2.9528335119e+00 1.7048192230e+00 2.9528335119e+00 
50900 5.4626863654e+00 -2.3053331324e-05 1.7048192230e+00 -2.9528335119e+00 1.7048192230e+00 2.9528335119e+00 
51000 5.4626863662e+00 -2.3235825086e-05 1.7048192230e+00 -2.9528335119e+00 1.7048192230e+00 2.9528335119e+00 
51100 5.4626863670e+00 -2.3418066610e-05 1.7048192230e+00 -2.9528335119e+00 1.7048192230e+00 2.9528335119e+00 
51200 5.4626863678e+00 -2.3600170640e-05 1.7048192230e+00 -2.9528335119e+00 1.7048192230e+00 2.9528335119e+00 
51300 5.4626863686e+00 -2.3782242922e-05 1.7048192230e+00 -2.9528335119e+00 1.7048192230e+00 2.9528335119e+00 
51400 5.4626863693e+00 -2.3964380363e-05 1.7048192230e+00 -2.9528335119e+00 1.7048192230e+00 2.9528335119e+00 
51500 5.4626863701e+00 -2.4146671228e-05 1.7048192230e+00 -2.9528335119e+00 1.7048192230e+00 2.9528335119e+00 
51600 5.4626863708e+00 -2.4329195328e-05 1.7048192230e+00 -2.9528335119e+00 1.7048192230e+00 2.9528335119e+00 
51700 5.4626863715e+00 -2.4512024234e-05 1.7048192230e+00 -2.9528335119e+00 1.7048192230e+00 2.9528335119e+00 
51800 5.4626863722e+00 -2.4695221494e-05 1.7048192230e+00 -2.9528335119e+00 1.7048192230e+00 2.9528335119e+00 
51900 5.4626863729e+00 -2.4878842863e-05 1.7048192230e+00 -2.9528335119e+00 1.7048192230e+00 2.9528335119e+00 
52000 5.4626863735e+00 -2.5062936531e-05 1.7048192230e+00 -2.9528335119e+00 1.7048192230e+00 2.9528335119e+00 
52100 5.4626863742e+00 -2.5247543382e-05 1.7048192230e+00 -2.9528335119e+00 1.7048192230e+00 2.9528335119e+00 
52200 5.4626863749e+00 -2.5432697228e-05 1.7048192230e+00 -2.9528335119e+00 1.7048192230e+00 2.9528335119e+00 
52300 5.4626863755e+00 -2.5618425076e-05 1.7048192230e+00 -2.9528335119e+00 1.7048192230e+00 2.9528335119e+00 
52400 5.4626863761e+00 -2.5804747387e-05 1.7048192230e+00 -2.9528335119e+00 1.7048192230e+00 2.9528335119e+00 
52500 5.4626863767e+00 -2.5991678337e-05 1.7048192230e+00 -2.9528335119e+00 1.7048192230e+00 2.9528335119e+00 
52600 5.4626863773e+00 -2.6179226091e-05 1.7048192230e+00 -2.9528335119e+00 1.7048192230e+00 2.9528335119e+00 
52700 5.4626863779e+00 -2.6367393066e-05 1.7048192230e+00 -2.9528335119e+00 1.7048192230e+00 2.9528335119e+00 
52800 5.4626863785e+00 -2.6556176204e-05 1.7048192230e+00 -2.9528335119e+00 1.7048192230e+00 2.9528335119e+00 
52900 5.4626863791e+00 -2.6745567257e-05 1.7048192230e+00 -2.9528335119e+00 1.7048192230e+00 2.9528335119e+00 
53000 5.4626863796e+00 -2.6935553041e-05 1.7048192230e+00 -2.9528335119e+00 1.7048192230e+00 2.9528335119e+00 
53100 5.4626863802e+00 -2.7126115721e-05 1.7048192230e+00 -2.9528335119e+00 1.7048192230e+00 2.9528335119e+00 
53200 5.4626863807e+00 -2.7317233077e-05 1.7048192230e+00 -2.9528335119e+00 1.7048192230e+00 2.9528335119e+00 
53300 5.4626863813e+00 -2.7508878781e-05 1.7048192230e+00 -2.9528335119e+00 1.7048192230e+00 2.9528335119e+00 
53400 5.4626863818e+00 -2.7701022653e-05 1.7048192230e+00 -2.9528335119e+00 1.7048192230e+00 2.9528335119e+00 
53500 5.4626863823e+00 -2.7893630937e-05 1.7048192230e+00 -2.9528335119e+00 1.7048192230e+00 2.9528335119e+00 
53600 5.4626863828e+00 -2.8086666555e-05 1.7048192230e+00 -2.9528335119e+00 1.7048192230e+00 2.9528335119e+00 
53700 5.4626863833e+00 -2.8280089366e-05 1.7048192230e+00 -2.9528335119e+00 1.7048192230e+00 2.9528335119e+00 
53800 5.4626863838e+00 -2.8473856423e-05 1.7048192230e+00 -2.9528335119e+00 1.7048192230e+00 2.9528335119e+00 
53900 5.4626863843e+00 -2.8667922217e-05 1.7048192230e+00 -2.9528335119e+00 1.7048192230e+00 2.9528335119e+00 
54000 5.4626863847e+00 -2.8862238924e-05 1.7048192230e+00 -2.9528335119e+00 1.7048192230e+00 2.9528335119e+00 
54100 5.4626863852e+00 -2.9056756642e-05 1.7048192230e+00 -2.9528335119e+00 1.7048192230e+00 2.9528335119e+00 
54200 5.4626863856e+00 -2.9251423626e-05 1.7048192230e+00 -2.9528335119e+00 1.7048192230e+00 2.9528335119e+00 
54300 5.4626863861e+00 -2.9446186512e-05 1.7048192230e+00 -2.9528335119e+00 1.7048192230e+00 2.9528335119e+00 
54400 5.4626863865e+00 -2.9640990535e-05 1.7048192230e+00 -2.9528335119e+00 1.7048192230e+00 2.9528335119e+00 
54500 5.4626863870e+00 -2.9835779752e-05 1.7048192230e+00 -2.9528335119e+00 1.7048192230e+00 2.9528335119e+00 
54600 5.4626863874e+00 -3.0030497240e-05 1.7048192230e+00 -2.9528335119e+00 1.7048192230e+00 2.9528335119e+00 
54700 5.4626863878e+00 -3.0225085300e-05 1.7048192230e+00 -2.9528335119e+00 1.7048192230e+00 2.9528335119e+00 
54800 5.4626863882e+00 -3.0419485655e-05 1.7048192230e+00 -2.9528335119e+00 1.7048192230e+00 2.9528335119e+00 
54900 5.4626863886e+00 -3.0613639627e-05 1.7048192230e+00 -2.9528335119e+00 1.7048192230e+00 2.9528335119e+00 
55000 5.4626863890e+00 -3.0807488322e-05 1.7048192230e+00 -2.9528335119e+00 1.7048192230e+00 2.9528335119e+00 
55100 5.4626863894e+00 -3.1000972797e-05 1.7048192230e+00 -2.9528335119e+00 1.7048192230e+00 2.9528335119e+00 
55200 5.4626863898e+00 -3.1194034229e-05 1.7048192230e+00 -2.9528335119e+00 1.7048192230e+00 2.9528335119e+00 
55300 5.4626863901e+00 -3.1386614071e-05 1.7048192230e+00 -2.9528335119e+00 1.7048192230e+00 2.9528335119e+00 
55400 5.4626863905e+00 -3.1578654188e-05 1.7048192230e+00 -2.9528335119e+00 1.7048192230e+00 2.9528335119e+00 
55500 5.4626863909e+00 -3.1770097023e-05 1.7048192230e+00 -2.9528335119e+00 1.7048192230e+00 2.9528335119e+00 
55600 5.4626863912e+00 -3.1960885701e-05 1.7048192230e+00 -2.9528335119e+00 1.7048192230e+00 2.9528335119e+00 
55700 5.4626863916e+00 -3.2150964178e-05 1.7048192230e+00 -2.9528335119e+00 1.7048192230e+00 2.9528335119e+00 
55800 5.4626863919e+00 -3.2340277347e-05 1.7048192230e+00 -2.9528335119e+00 1.7048192230e+00 2.9528335119e+00 
55900 5.4626863922e+00 -3.2528771154e-05 1.7048192230e+00 -2.9528335119e+00 1.7048192230e+00 2.9528335119e+00 
56000 5.4626863926e+00 -3.2716392698e-05 1.7048192230e+00 -2.9528335119e+00 1.7048192230e+00 2.9528335119e+00 
56100 5.4626863929e+00 -3.2903090327e-05 1.7048192230e+00 -2.9528335119e+00 1.7048192230e+00 2.9528335119e+00 
56200 5.4626863932e+00 -3.3088813733e-05 1.7048192230e+00 -2.9528335119e+00 1.7048192230e+00 2.9528335119e+00 
56300 5.4626863935e+00 -3.3273514024e-05 1.7048192230e+00 -2.9528335119e+00 1.7048192230e+00 2.9528335119e+00 
56400 5.4626863938e+00 -3.3457143805e-05 1.7048192230e+00 -2.9528335119e+00 1.7048192230e+00 2.9528335119e+00 
56500 5.4626863941e+00 -3.3639657243e-05 1.7048192230e+00 -2.9528335119e+00 1.7048192230e+00 2.9528335119e+00 
56600 5.4626863944e+00 -3.3821010129e-05 1.7048192230e+00 -2.9528335119e+00 1.7048192230e+00 2.9528335119e+00 
56700 5.4626863947e+00 -3.4001159936e-05 1.7048192230e+00 -2.9528335119e+00 1.7048192230e+00 2.9528335119e+00 
56800 5.4626863950e+00 -3.4180065859e-05 1.7048192230e+00 -2.9528335119e+00 1.7048192230e+00 2.9528335119e+00 
56900 5.4626863953e+00 -3.4357688862e-05 1.7048192230e+00 -2.9528335119e+00 1.7048192230e+00 2.9528335119e+00 
57000 5.4626863956e+00 -3.4533991713e-05 1.7048192230e+00 -2.9528335119e+00 1.7048192230e+00 2.9528335119e+00 
57100 5.4626863959e+00 -3.4708939014e-05 1.7048192230e+00 -2.9528335119e+00 1.7048192230e+00 2.9528335119e+00 
57200 5.4626863961e+00 -3.4882497225e-05 1.7048192230e+00 -2.9528335119e+00 1.7048192230e+00 2.9528335119e+00 
57300 5.4626863964e+00 -3.5054634679e-05 1.7048192230e+00 -2.9528335119e+00 1.7048192230e+00 2.9528335119e+00 
57400 5.4626863967e+00 -3.5225321601e-05 1.7048192230e+00 -2.9528335119e+00 1.7048192230e+00 2.9528335119e+00 
57500 5.4626863969e+00 -3.5394530114e-05 1.7048192230e+00 -2.9528335119e+00 1.7048192230e+00 2.9528335119e+00 
57600 5.4626863972e+00 -3.5562234241e-05 1.7048192230e+00 -2.9528335119e+00 1.7048192230e+00 2.9528335119e+00 
57700 5.4626863974e+00 -3.5728409903e-05 1.7048192230e+00 -2.9528335119e+00 1.7048192230e+00 2.9528335119e+00 
57800 5.4626863977e+00 -3.5893034918e-05 1.7048192230e+00 -2.9528335119e+00 1.7048192230e+00 2.9528335119e+00 
57900 5.4626863979e+00 -3.6056088983e-05 1.7048192230e+00 -2.9528335119e+00 1.7048192230e+00 2.9528335119e+00 
58000 5.4626863981e+00 -3.6217553668e-05 1.7048192230e+00 -2.9528335119e+00 1.7048192230e+00 2.9528335119e+00 
58100 5.4626863984e+00 -3.6377412391e-05 1.7048192230e+00 -2.9528335119e+00 1.7048192230e+00 2.9528335119e+00 
58200 5.4626863986e+00 -3.6535650402e-05 1.7048192230e+00 -2.9528335119e+00 1.7048192230e+00 2.9528335119e+00 
58300 5.4626863988e+00 -3.6692254757e-05 1.7048192230e+00 -2.9528335119e+00 1.7048192230e+00 2.9528335119e+00 
58400 5.4626863990e+00 -3.6847214283e-05 1.7048192230e+00 -2.9528335119e+00 1.7048192230e+00 2.9528335119e+00 
58500 5.4626863992e+00 -3.7000519556e-05 1.7048192230e+00 -2.9528335119e+00 1.7048192230e+00 2.9528335119e+00 
58600 5.4626863995e+00 -3.7152162860e-05 1.7048192230e+00 -2.9528335119e+00 1.7048192230e+00 2.9528335119e+00 
58700 5.4626863997e+00 -3.7302138153e-05 1.7048192230e+00 -2.9528335119e+00 1.7048192230e+00 2.9528335119e+00 
58800 5.4626863999e+00 -3.7450441031e-05 1.7048192230e+00 -2.9528335119e+00 1.7048192230e+00 2.9528335119e+00 
58900 5.4626864001e+00 -3.7597068681e-05 1.7048192230e+00 -2.9528335119e+00 1.7048192230e+00 2.9528335119e+00 
59000 5.4626864003e+00 -3.7742019841e-05 1.7048192230e+00 -2.9528335119e+00 1.7048192230e+00 2.9528335119e+00 
59100 5.4626864005e+00 -3.7885294753e-05 1.7048192230e+00 -2.9528335119e+00 1.7048192230e+00 2.9528335119e+00 
59200 5.4626864007e+00 -3.8026895120e-05 1.7048192230e+00 -2.9528335119e+00 1.7048192230e+00 2.9528335119e+00 
59300 5.4626864009e+00 -3.8166824050e-05 1.7048192230e+00 -2.9528335119e+00 1.7048192230e+00 2.9528335119e+00 
59400 5.4626864010e+00 -3.8305086020e-05 1.7048192230e+00 -2.9528335119e+00 1.7048192230e+00 2.9528335119e+00 
59500 5.4626864012e+00 -3.8441686809e-05 1.7048192230e+00 -2.9528335119e+00 1.7048192230e+00 2.9528335119e+00 
59600 5.4626864014e+00 -3.8576633457e-05 1.7048192230e+00 -2.9528335119e+00 1.7048192230e+00 2.9528335119e+00 
59700 5.4626864016e+00 -3.8709934215e-05 1.7048192230e+00 -2.9528335119e+00 1.7048192230e+00 2.9528335119e+00 
59800 5.4626864018e+00 -3.8841598481e-05 1.7048192230e+00 -2.9528335119e+00 1.7048192230e+00 2.9528335119e+00 
59900 5.4626864019e+00 -3.8971636757e-05 1.7048192230e+00 -2.9528335119e+00 1.7048192230e+00 2.9528335119e+00 
60000 5.4626864021e+00 -3.9100060589e-05 1.7048192230e+00 -2.9528335119e+00 1.7048192230e+00 2.9528335119e+00 
60100 5.4626864023e+00 -3.9226882517e-05 1.7048192230e+00 -2.9528335119e+00 1.7048192230e+00 2.9528335119e+00 
60200 5.4626864024e+00 -3.9352116020e-05 1.7048192230e+00 -2.9528335119e+00 1.7048192230e+00 2.9528335119e+00 
60300 5.4626864026e+00 -3.9475775457e-05 1.7048192230e+00 -2.9528335119e+00 1.7048192230e+00 2.9528335119e+00 
60400 5.4626864028e+00 -3.9597876024e-05 1.7048192230e+00 -2.9528335119e+00 1.7048192230e+00 2.9528335119e+00 
60500 5.4626864029e+00 -3.9718433693e-05 1.7048192230e+00 -2.9528335119e+00 1.7048192230e+00 2.9528335119e+00 
60600 5.4626864031e+00 -3.9837465159e-05 1.7048192230e+00 -2.9528335119e+00 1.7048192230e+00 2.9528335119e+00 
60700 5.4626864032e+00 -3.9954987789e-05 1.7048192230e+00 -2.9528335119e+00 1.7048192230e+00 2.9528335119e+00 
60800 5.4626864034e+00 -4.0071019575e-05 1.7048192230e+00 -2.9528335119e+00 1.7048192230e+00 2.9528335119e+00 
60900 5.4626864035e+00 -4.0185579072e-05 1.7048192230e+00 -2.9528335119e+00 1.7048192230e+00 2.9528335119e+00 
61000 5.4626864037e+00 -4.0298685361e-05 1.7048192230e+00 -2.9528335119e+00 1.7048192230e+00 2.9528335119e+00 
61100 5.4626864038e+00 -4.0410357988e-05 1.7048192230e+00 -2.9528335119e+00 1.7048192230e+00 2.9528335119e+00 
61200 5.4626864040e+00 -4.0520616924e-05 1.7048192230e+00 -2.9528335119e+00 1.7048192230e+00 2.9528335119e+00 
61300 5.4626864041e+00 -4.0629482513e-05 1.7048192230e+00 -2.9528335119e+00 1.7048192230e+00 2.9528335119e+00 
61400 5.4626864042e+00 -4.0736975423e-05 1.7048192230e+00 -2.9528335119e+00 1.7048192230e+00 2.9528335119e+00 
61500 5.4626864044e+00 -4.0843116613e-05 1.7048192230e+00 -2.9528335119e+00 1.7048192230e+00 2.9528335119e+00 
61600 5.4626864045e+00 -4.0947927277e-05 1.7048192230e+00 -2.9528335119e+00 1.7048192230e+00 2.9528335119e+00 
61700 5.4626864046e+00 -4.1051428802e-05 1.7048192230e+00 -2.9528335119e+00 1.7048192230e+00 2.9528335119e+00 
61800 5.4626864047e+00 -4.1153642737e-05 1.7048192230e+00 -2.9528335119e+00 1.7048192230e+00 2.9528335119e+00 
61900 5.4626864049e+00 -4.1254590743e-05 1.7048192230e+00 -2.9528335119e+00 1.7048192230e+00 2.9528335119e+00 
62000 5.4626864050e+00 -4.1354294557e-05 1.7048192230e+00 -2.9528335119e+00 1.7048192230e+00 2.9528335119e+00 
62100 5.4626864051e+00 -4.1452775957e-05 1.7048192230e+00 -2.9528335119e+00 1.7048192230e+00 2.9528335119e+00 
62200 5.4626864052e+00 -4.1550056725e-05 1.7048192230e+00 -2.9528335119e+00 1.7048192230e+00 2.9528335119e+00 
62300 5.4626864054e+00 -4.1646158613e-05 1.7048192230e+00 -2.9528335119e+00 1.7048192230e+00 2.9528335119e+00 
62400 5.4626864055e+00 -4.1741103306e-05 1.7048192230e+00 -2.9528335119e+00 1.7048192230e+00 2.9528335119e+00 
62500 5.4626864056e+00 -4.1834912401e-05 1.7048192230e+00 -2.9528335119e+00 1.7048192230e+00 2.9528335119e+00 
62600 5.4626864057e+00 -4.1927607365e-05 1.7048192230e+00 -2.9528335119e+00 1.7048192230e+00 2.9528335119e+00 
62700 5.4626864058e+00 -4.2019209516e-05 1.7048192230e+00 -2.9528335119e+00 1.7048192230e+00 2.9528335119e+00 
62800 5.4626864059e+00 -4.2109739989e-05 1.7048192230e+00 -2.9528335119e+00 1.7048192230e+00 2.9528335119e+00 
62900 5.4626864060e+00 -4.2199219716e-05 1.7048192230e+00 -2.9528335119e+00 1.7048192230e+00 2.9528335119e+00 
63000 5.4626864061e+00 -4.2287669403e-05 1.7048192230e+00 -2.9528335119e+00 1.7048192230e+00 2.9528335119e+00 
63100 5.4626864062e+00 -4.2375109498e-05 1.7048192230e+00 -2.9528335119e+00 1.7048192230e+00 2.9528335119e+00 
63200 5.4626864063e+00 -4.2461560184e-05 1.7048192230e+00 -2.9528335119e+00 1.7048192230e+00 2.9528335119e+00 
63300 5.4626864064e+00 -4.2547041348e-05 1.7048192230e+00 -2.9528335119e+00 1.7048192230e+00 2.9528335119e+00 
63400 5.4626864065e+00 -4.2631572567e-05 1.7048192230e+00 -2.9528335119e+00 1.7048192230e+00 2.9528335119e+00 
63500 5.4626864066e+00 -4.2715173095e-05 1.7048192230e+00 -2.9528335119e+00 1.7048192230e+00 2.9528335119e+00 
63600 5.4626864067e+00 -4.2797861841e-05 1.7048192230e+00 -2.9528335119e+00 1.7048192230e+00 2.9528335119e+00 
63700 5.4626864068e+00 -4.2879657362e-05 1.7048192230e+00 -2.9528335119e+00 1.7048192230e+00 2.9528335119e+00 
63800 5.4626864069e+00 -4.2960577841e-05 1.7048192230e+00 -2.9528335119e+00 1.7048192230e+00 2.9528335119e+00 
63900 5.4626864070e+00 -4.3040641088e-05 1.7048192230e+00 -2.9528335119e+00 1.7048192230e+00 2.9528335119e+00 
64000 5.4626864071e+00 -4.3119864517e-05 1.7048192230e+00 -2.9528335119e+00 1.7048192230e+00 2.9528335119e+00 
64100 5.4626864072e+00 -4.3198265147e-05 1.7048192230e+00 -2.9528335119e+00 1.7048192230e+00 2.9528335119e+00 
64200 5.4626864073e+00 -4.3275859591e-05 1.7048192230e+00 -2.9528335119e+00 1.7048192230e+00 2.9528335119e+00 
64300 5.4626864074e+00 -4.3352664049e-05 1.7048192230e+00 -2.9528335119e+00 1.7048192230e+00 2.9528335119e+00 
64400 5.4626864075e+00 -4.3428694305e-05 1.7048192230e+00 -2.9528335119e+00 1.7048192230e+00 2.9528335119e+00 
64500 5.4626864075e+00 -4.3503965718e-05 1.7048192230e+00 -2.9528335119e+00 1.7048192230e+00 2.9528335119e+00 
64600 5.4626864076e+00 -4.3578493223e-05 1.7048192230e+00 -2.9528335119e+00 1.7048192230e+00 2.9528335119e+00 
64700 5.4626864077e+00 -4.3652291327e-05 1.7048192230e+00 -2.9528335119e+00 1.7048192230e+00 2.9528335119e+00 
64800 5.4626864078e+00 -4.3725374113e-05 1.7048192230e+00 -2.9528335119e+00 1.7048192230e+00 2.9528335119e+00 
64900 5.4626864079e+00 -4.3797755231e-05 1.7048192230e+00 -2.9528335119e+00 1.7048192230e+00 2.9528335119e+00 
65000 5.4626864080e+00 -4.3869447903e-05 1.7048192230e+00 -2.9528335119e+00 1.7048192230e+00 2.9528335119e+00 
65100 5.4626864080e+00 -4.3940464928e-05 1.7048192230e+00 -2.9528335119e+00 1.7048192230e+00 2.9528335119e+00 
65200 5.4626864081e+00 -4.4010818676e-05 1.7048192230e+00 -2.9528335119e+00 1.7048192230e+00 2.9528335119e+00 
65300 5.4626864082e+00 -4.4080521104e-05 1.7048192230e+00 -2.9528335119e+00 1.7048192230e+00 2.9528335119e+00 
65400 5.4626864083e+00 -4.4149583742e-05 1.7048192230e+00 -2.9528335119e+00 1.7048192230e+00 2.9528335119e+00 
65500 5.4626864083e+00 -4.4218017714e-05 1.7048192230e+00 -2.9528335119e+00 1.7048192230e+00 2.9528335119e+00 
65600 5.4626864084e+00 -4.4285833735e-05 1.7048192230e+00 -2.9528335119e+00 1.7048192230e+00 2.9528335119e+00 
65700 5.4626864085e+00 -4.4353042122e-05 1.7048192230e+00 -2.9528335119e+00 1.7048192230e+00 2.9528335119e+00 
65800 5.4626864085e+00 -4.4419652791e-05 1.7048192230e+00 -2.9528335119e+00 1.7048192230e+00 2.9528335119e+00 
65900 5.4626864086e+00 -4.4485675275e-05 1.7048192230e+00 -2.9528335119e+00 1.7048192230e+00 2.9528335119e+00 
66000 5.4626864087e+00 -4.4551118724e-05 1.7048192230e+00 -2.9528335119e+00 1.7048192230e+00 2.9528335119e+00 
66100 5.4626864087e+00 -4.4615991914e-05 1.7048192230e+00 -2.9528335119e+00 1.7048192230e+00 2.9528335119e+00 
66200 5.4626864088e+00 -4.4680303259e-05 1.7048192230e+00 -2.9528335119e+00 1.7048192230e+00 2.9528335119e+00 
66300 5.4626864089e+00 -4.4744060814e-05 1.7048192230e+00 -2.9528335119e+00 1.7048192230e+00 2.9528335119e+00 
66400 5.4626864089e+00 -4.4807272291e-05 1.7048192230e+00 -2.9528335119e+00 1.7048192230e+00 2.9528335119e+00 
66500 5.4626864090e+00 -4.4869945063e-05 1.7048192230e+00 -2.9528335119e+00 1.7048192230e+00 2.9528335119e+00 
66600 5.4626864091e+00 -4.4932086174e-05 1.7048192230e+00 -2.9528335119e+00 1.7048192230e+00 2.9528335119e+00 
66700 5.4626864091e+00 -4.4993702351e-05 1.7048192230e+00 -2.9528335119e+00 1.7048192230e+00 2.9528335119e+00 
66800 5.4626864092e+00 -4.5054800013e-05 1.7048192230e+00 -2.9528335119e+00 1.7048192230e+00 2.9528335119e+00 
66900 5.4626864092e+00 -4.5115385279e-05 1.7048192230e+00 -2.9528335119e+00 1.7048192230e+00 2.9528335119e+00 
67000 5.4626864093e+00 -4.5175463982e-05 1.7048192230e+00 -2.9528335119e+00 1.7048192230e+00 2.9528335119e+00 
67100 5.4626864094e+00 -4.5235041680e-05 1.7048192230e+00 -2.9528335119e+00 1.7048192230e+00 2.9528335119e+00 
67200 5.4626864094e+00 -4.5294123662e-05 1.7048192230e+00 -2.9528335119e+00 1.7048192230e+00 2.9528335119e+00 
67300 5.4626864095e+00 -4.5352714959e-05 1.7048192230e+00 -2.9528335119e+00 1.7048192230e+00 2.9528335119e+00 
67400 5.4626864095e+00 -4.5410820361e-05 1.7048192230e+00 -2.9528335119e+00 1.7048192230e+00 2.9528335119e+00 
67500 5.4626864096e+00 -4.5468444423e-05 1.7048192230e+00 -2.9528335119e+00 1.7048192230e+00 2.9528335119e+00 
67600 5.4626864096e+00 -4.5525591473e-05 1.7048192230e+00 -2.9528335119e+00 1.7048192230e+00 2.9528335119e+00 
67700 5.4626864097e+00 -4.5582265626e-05 1.7048192230e+00 -2.9528335119e+00 1.7048192230e+00 2.9528335119e+00 
67800 5.4626864097e+00 -4.5638470796e-05 1.7048192230e+00 -2.9528335119e+00 1.7048192230e+00 2.9528335119e+00 
67900 5.4626864098e+00 -4.5694210704e-05 1.7048192230e+00 -2.9528335119e+00 1.7048192230e+00 2.9528335119e+00 
68000 5.4626864098e+00 -4.5749488888e-05 1.7048192230e+00 -2.9528335119e+00 1.7048192230e+00 2.9528335119e+00 
68100 5.4626864099e+00 -4.5804308715e-05 1.7048192230e+00 -2.9528335119e+00 1.7048192230e+00 2.9528335119e+00 
68200 5.4626864099e+00 -4.5858673387e-05 1.7048192230e+00 -2.9528335119e+00 1.7048192230e+00 2.9528335119e+00 
68300 5.4626864100e+00 -4.5912585959e-05 1.7048192230e+00 -2.9528335119e+00 1.7048192230e+00 2.9528335119e+00 
68400 5.4626864100e+00 -4.5966049337e-05 1.7048192230e+00 -2.9528335119e+00 1.7048192230e+00 2.9528335119e+00 
68500 5.4626864101e+00 -4.6019066303e-05 1.7048192230e+00 -2.9528335119e+00 1.7048192230e+00 2.9528335119e+00 
68600 5.4626864101e+00 -4.6071639505e-05 1.7048192230e+00 -2.9528335119e+00 1.7048192230e+00 2.9528335119e+00 
68700 5.4626864102e+00 -4.6123771484e-05 1.7048192230e+00 -2.9528335119e+00 1.7048192230e+00 2.9528335119e+00 
68800 5.4626864102e+00 -4.6163098200e-05 1.7048192230e+00 -2.9528335119e+00 1.7048192230e+00 2.9528335119e+00 
68800 5.4626864102e+00 -4.6163098200e-05 1.7048192230e+00 -2.9528335119e+00 1.7048192230e+00 2.9528335119e+00 
