# step Hamiltonian StressXX CellTensor1 CellTensor2 CellTensor3 CellTensor4 
0 5.8632531791e+00 -1.5721584606e-01 1.7438352029e+00 -3.0204111715e+00 1.7438352029e+00 3.0204111715e+00 
100 5.8608638704e+00 -1.5535587651e-01 1.7438352029e+00 -3.0204111715e+00 1.7438352029e+00 3.0204111715e+00 
200 5.8580784980e+00 -1.5001517325e-01 1.7482915256e+00 -3.0281297488e+00 1.7482915256e+00 3.0281297488e+00 
300 5.8557273832e+00 -1.4497900062e-01 1.7525836124e+00 -3.0355638612e+00 1.7525836124e+00 3.0355638612e+00 
400 5.8537922687e+00 -1.4023322420e-01 1.7567213862e+00 -3.0427306957e+00 1.7567213862e+00 3.0427306957e+00 
500 5.8522527186e+00 -1.3576460106e-01 1.7607142279e+00 -3.0496465003e+00 1.7607142279e+00 3.0496465003e+00 
600 5.8510863472e+00 -1.3156072105e-01 1.7645710162e+00 -3.0563266535e+00 1.7645710162e+00 3.0563266535e+00 
700 5.8502690772e+00 -1.2760994285e-01 1.7683001646e+00 -3.0627857282e+00 1.7683001646e+00 3.0627857282e+00 
800 5.8497754196e+00 -1.2390132610e-01 1.7719096551e+00 -3.0690375491e+00 1.7719096551e+00 3.0690375491e+00 
900 5.8495787684e+00 -1.2042456125e-01 1.7754070680e+00 -3.0750952459e+00 1.7754070680e+00 3.0750952459e+00 
1000 5.8496517029e+00 -1.1716989841e-01 1.7787996091e+00 -3.0809712994e+00 1.7787996091e+00 3.0809712994e+00 
1100 5.8499662921e+00 -1.1412807689e-01 1.7820941339e+00 -3.0866775837e+00 1.7820941339e+00 3.0866775837e+00 
1200 5.8504943950e+00 -1.1129025661e-01 1.7852971688e+00 -3.0922254029e+00 1.7852971688e+00 3.0922254029e+00 
1300 5.8512079505e+00 -1.0864795269e-01 1.7884149293e+00 -3.0976255226e+00 1.7884149293e+00 3.0976255226e+00 
1400 5.8520792547e+00 -1.0619297415e-01 1.7914533365e+00 -3.1028881983e+00 1.7914533365e+00 3.1028881983e+00 
1500 5.8530812194e+00 -1.0391736765e-01 1.7944180302e+00 -3.1080231984e+00 1.7944180302e+00 3.1080231984e+00 
1600 5.8541876090e+00 -1.0181336685e-01 1.7973143807e+00 -3.1130398245e+00 1.7973143807e+00 3.1130398245e+00 
1700 5.8553732547e+00 -9.9873347931e-02 1.8001474985e+00 -3.1179469285e+00 1.8001474985e+00 3.1179469285e+00 
1800 5.8566142426e+00 -9.8089791511e-02 1.8029222422e+00 -3.1227529256e+00 1.8029222422e+00 3.1227529256e+00 
1900 5.8578880743e+00 -9.6455251027e-02 1.8056432253e+00 -3.1274658066e+00 1.8056432253e+00 3.1274658066e+00 
2000 5.8591738015e+00 -9.4962327667e-02 1.8083148216e+00 -3.1320931472e+00 1.8083148216e+00 3.1320931472e+00 
2100 5.8604521315e+00 -9.3603651578e-02 1.8109411695e+00 -3.1366421151e+00 1.8109411695e+00 3.1366421151e+00 
2200 5.8617055070e+00 -9.2371869100e-02 1.8135261757e+00 -3.1411194772e+00 1.8135261757e+00 3.1411194772e+00 
2300 5.8629181585e+00 -9.1259635644e-02 1.8160735186e+00 -3.1455316045e+00 1.8160735186e+00 3.1455316045e+00 
2400 5.8640761328e+00 -9.0259613729e-02 1.8185866506e+00 -3.1498844768e+00 1.8185866506e+00 3.1498844768e+00 
2500 5.8651672976e+00 -8.9364475674e-02 1.8210688010e+00 -3.1541836875e+00 1.8210688010e+00 3.1541836875e+00 
2600 5.8661813245e+00 -8.8566910368e-02 1.8235229784e+00 -3.1584344473e+00 1.8235229784e+00 3.1584344473e+00 
2700 5.8671096527e+00 -8.7859633532e-02 1.8259519728e+00 -3.1626415890e+00 1.8259519728e+00 3.1626415890e+00 
2800 5.8679454355e+00 -8.7235400883e-02 1.8283583587e+00 -3.1668095717e+00 1.8283583587e+00 3.1668095717e+00 
2900 5.8686834707e+00 -8.6687023601e-02 1.8307444978e+00 -3.1709424858e+00 1.8307444978e+00 3.1709424858e+00 
3000 5.8693201193e+00 -8.6207385545e-02 1.8331125421e+00 -3.1750440590e+00 1.8331125421e+00 3.1750440590e+00 
3100 5.8698532126e+00 -8.5789461658e-02 1.8354644379e+00 -3.1791176619e+00 1.8354644379e+00 3.1791176619e+00 
3200 5.8702819509e+00 -8.5426337071e-02 1.8378019292e+00 -3.1831663156e+00 1.8378019292e+00 3.1831663156e+00 
3300 5.8706067956e+00 -8.5111226452e-02 1.8401265627e+00 -3.1871926990e+00 1.8401265627e+00 3.1871926990e+00 
3400 5.8708293573e+00 -8.4837493169e-02 1.8424396925e+00 -3.1911991574e+00 1.8424396925e+00 3.1911991574e+00 
3500 5.8709522803e+00 -8.4598667934e-02 1.8447424854e+00 -3.1951877116e+00 1.8447424854e+00 3.1951877116e+00 
3600 5.8709791265e+00 -8.4388466605e-02 1.8470359267e+00 -3.1991600685e+00 1.8470359267e+00 3.1991600685e+00 
3700 5.8709142596e+00 -8.4200806897e-02 1.8493208265e+00 -3.2031176310e+00 1.8493208265e+00 3.2031176310e+00 
3800 5.8707627309e+00 -8.4029823797e-02 1.8515978263e+00 -3.2070615103e+00 1.8515978263e+00 3.2070615103e+00 
3900 5.8705301683e+00 -8.3869883535e-02 1.8538674057e+00 -3.2109925371e+00 1.8538674057e+00 3.2109925371e+00 
4000 5.8702226690e+00 -8.3715595983e-02 1.8561298900e+00 -3.2149112749e+00 1.8561298900e+00 3.2149112749e+00 
4100 5.8698466966e+00 -8.3561825432e-02 1.8583854575e+00 -3.2188180325e+00 1.8583854575e+00 3.2188180325e+00 
4200 5.8694089844e+00 -8.3403699702e-02 1.8606341475e+00 -3.2227128777e+00 1.8606341475e+00 3.2227128777e+00 
4300 5.8689164436e+00 -8.3236617582e-02 1.8628758677e+00 -3.2265956510e+00 1.8628758677e+00 3.2265956510e+00 
4400 5.8683760790e+00 -8.3056254634e-02 1.8651104029e+00 -3.2304659796e+00 1.8651104029e+00 3.2304659796e+00 
4500 5.8677949102e+00 -8.2858567406e-02 1.8673374228e+00 -3.2343232912e+00 1.8673374228e+00 3.2343232912e+00 
4600 5.8671799005e+00 -8.2639796118e-02 1.8695564903e+00 -3.2381668289e+00 1.8695564903e+00 3.2381668289e+00 
4700 5.8665378922e+00 -8.2396465909e-02 1.8717670697e+00 -3.2419956646e+00 1.8717670697e+00 3.2419956646e+00 
4800 5.8658755486e+00 -8.2125386742e-02 1.8739685347e+00 -3.2458087139e+00 1.8739685347e+00 3.2458087139e+00 
4900 5.8651993034e+00 -8.1823652052e-02 1.8761601770e+00 -3.2496047497e+00 1.8761601770e+00 3.2496047497e+00 
5000 5.8645153158e+00 -8.1488636264e-02 1.8783412137e+00 -3.2533824161e+00 1.8783412137e+00 3.2533824161e+00 
5100 5.8638294329e+00 -8.1117991272e-02 1.8805107956e+00 -3.2571402422e+00 1.8805107956e+00 3.2571402422e+00 
5200 5.8631471574e+00 -8.0709641992e-02 1.8826680148e+00 -3.2608766554e+00 1.8826680148e+00 3.2608766554e+00 
5300 5.8624736218e+00 -8.0261781097e-02 1.8848119121e+00 -3.2645899946e+00 1.8848119121e+00 3.2645899946e+00 
5400 5.8618135680e+00 -7.9772863026e-02 1.8869414847e+00 -3.2682785225e+00 1.8869414847e+00 3.2682785225e+00 
5500 5.8611713314e+00 -7.9241597377e-02 1.8890556929e+00 -3.2719404383e+00 1.8890556929e+00 3.2719404383e+00 
5600 5.8605508312e+00 -7.8666941756e-02 1.8911534670e+00 -3.2755738898e+00 1.8911534670e+00 3.2755738898e+00 
5700 5.8599555636e+00 -7.8048094184e-02 1.8932337145e+00 -3.2791769841e+00 1.8932337145e+00 3.2791769841e+00 
5800 5.8593886006e+00 -7.7384485123e-02 1.8952953258e+00 -3.2827477997e+00 1.8952953258e+00 3.2827477997e+00 
5900 5.8588525917e+00 -7.6675769202e-02 1.8973371808e+00 -3.2862843962e+00 1.8973371808e+00 3.2862843962e+00 
6000 5.8583497692e+00 -7.5921816697e-02 1.8993581543e+00 -3.2897848250e+00 1.8993581543e+00 3.2897848250e+00 
6100 5.8578819569e+00 -7.5122704822e-02 1.9013571222e+00 -3.2932471389e+00 1.9013571222e+00 3.2932471389e+00 
6200 5.8574505812e+00 -7.4278708884e-02 1.9033329661e+00 -3.2966694010e+00 1.9033329661e+00 3.2966694010e+00 
6300 5.8570566847e+00 -7.3390293327e-02 1.9052845791e+00 -3.3000496939e+00 1.9052845791e+00 3.3000496939e+00 
6400 5.8567009423e+00 -7.2458102731e-02 1.9072108700e+00 -3.3033861276e+00 1.9072108700e+00 3.3033861276e+00 
6500 5.8563836789e+00 -7.1482952753e-02 1.9091107679e+00 -3.3066768473e+00 1.9091107679e+00 3.3066768473e+00 
6600 5.8561048883e+00 -7.0465821076e-02 1.9109832267e+00 -3.3099200410e+00 1.9109832267e+00 3.3099200410e+00 
6700 5.8558642542e+00 -6.9407838352e-02 1.9128272288e+00 -3.3131139463e+00 1.9128272288e+00 3.3131139463e+00 
6800 5.8556611716e+00 -6.8310279178e-02 1.9146417889e+00 -3.3162568566e+00 1.9146417889e+00 3.3162568566e+00 
6900 5.8554947695e+00 -6.7174553100e-02 1.9164259575e+00 -3.3193471274e+00 1.9164259575e+00 3.3193471274e+00 
7000 5.8553639336e+00 -6.6002195666e-02 1.9181788242e+00 -3.3223831814e+00 1.9181788242e+00 3.3223831814e+00 
7100 5.8552673303e+00 -6.4794859524e-02 1.9198995202e+00 -3.3253635144e+00 1.9198995202e+00 3.3253635144e+00 
7200 5.8552034300e+00 -6.3554305578e-02 1.9215872216e+00 -3.3282866990e+00 1.9215872216e+00 3.3282866990e+00 
7300 5.8551705311e+00 -6.2282394203e-02 1.9232411515e+00 -3.3311513897e+00 1.9232411515e+00 3.3311513897e+00 
7400 5.8551667837e+00 -6.0981076511e-02 1.9248605825e+00 -3.3339563264e+00 1.9248605825e+00 3.3339563264e+00 
7500 5.8551902125e+00 -5.9652385692e-02 1.9264448384e+00 -3.3367003381e+00 1.9264448384e+00 3.3367003381e+00 
7600 5.8552387404e+00 -5.8298428410e-02 1.9279932962e+00 -3.3393823456e+00 1.9279932962e+00 3.3393823456e+00 
7700 5.8553102103e+00 -5.6921376268e-02 1.9295053876e+00 -3.3420013648e+00 1.9295053876e+00 3.3420013648e+00 
7800 5.8554024072e+00 -5.5523457341e-02 1.9309806004e+00 -3.3445565084e+00 1.9309806004e+00 3.3445565084e+00 
7900 5.8555130791e+00 -5.4106947788e-02 1.9324184798e+00 -3.3470469884e+00 1.9324184798e+00 3.3470469884e+00 
8000 5.8556399568e+00 -5.2674163537e-02 1.9338186288e+00 -3.3494721177e+00 1.9338186288e+00 3.3494721177e+00 
8100 5.8557807735e+00 -5.1227452063e-02 1.9351807095e+00 -3.3518313107e+00 1.9351807095e+00 3.3518313107e+00 
8200 5.8559332823e+00 -4.9769184256e-02 1.9365044434e+00 -3.3541240851e+00 1.9365044434e+00 3.3541240851e+00 
8300 5.8560952737e+00 -4.8301746400e-02 1.9377896118e+00 -3.3563500620e+00 1.9377896118e+00 3.3563500620e+00 
8400 5.8562645911e+00 -4.6827532263e-02 1.9390360557e+00 -3.3585089662e+00 1.9390360557e+00 3.3585089662e+00 
8500 5.8564391451e+00 -4.5348935326e-02 1.9402436761e+00 -3.3606006261e+00 1.9402436761e+00 3.3606006261e+00 
8600 5.8566169274e+00 -4.3868341152e-02 1.9414124335e+00 -3.3626249733e+00 1.9414124335e+00 3.3626249733e+00 
8700 5.8567960223e+00 -4.2388119925e-02 1.9425423478e+00 -3.3645820423e+00 1.9425423478e+00 3.3645820423e+00 
8800 5.8569746175e+00 -4.0910619163e-02 1.9436334974e+00 -3.3664719688e+00 1.9436334974e+00 3.3664719688e+00 
8900 5.8571510134e+00 -3.9438156636e-02 1.9446860186e+00 -3.3682949890e+00 1.9446860186e+00 3.3682949890e+00 
9000 5.8573236312e+00 -3.7973013503e-02 1.9457001048e+00 -3.3700514377e+00 1.9457001048e+00 3.3700514377e+00 
9100 5.8574910190e+00 -3.6517427689e-02 1.9466760050e+00 -3.3717417466e+00 1.9466760050e+00 3.3717417466e+00 
9200 5.8576518577e+00 -3.5073587523e-02 1.9476140235e+00 -3.3733664422e+00 1.9476140235e+00 3.3733664422e+00 
9300 5.8578049645e+00 -3.3643625653e-02 1.9485145173e+00 -3.3749261433e+00 1.9485145173e+00 3.3749261433e+00 
9400 5.8579492955e+00 -3.2229613271e-02 1.9493778958e+00 -3.3764215586e+00 1.9493778958e+00 3.3764215586e+00 
9500 5.8580839475e+00 -3.0833554645e-02 1.9502046182e+00 -3.3778534839e+00 1.9502046182e+00 3.3778534839e+00 
9600 5.8582081575e+00 -2.9457382005e-02 1.9509951926e+00 -3.3792227989e+00 1.9509951926e+00 3.3792227989e+00 
9700 5.8583213022e+00 -2.8102950769e-02 1.9517501735e+00 -3.3805304642e+00 1.9517501735e+00 3.3805304642e+00 
9800 5.8584228955e+00 -2.6772035149e-02 1.9524701601e+00 -3.3817775175e+00 1.9524701601e+00 3.3817775175e+00 
9900 5.8585125856e+00 -2.5466324141e-02 1.9531557941e+00 -3.3829650705e+00 1.9531557941e+00 3.3829650705e+00 
10000 5.8585901506e+00 -2.4187417902e-02 1.9538077580e+00 -3.3840943051e+00 1.9538077580e+00 3.3840943051e+00 
10100 5.8586554932e+00 -2.2936824543e-02 1.9544267722e+00 -3.3851664691e+00 1.9544267722e+00 3.3851664691e+00 
10200 5.8587086354e+00 -2.1715957329e-02 1.9550135932e+00 -3.3861828728e+00 1.9550135932e+00 3.3861828728e+00 
10300 5.8587497113e+00 -2.0526132291e-02 1.9555690109e+00 -3.3871448846e+00 1.9555690109e+00 3.3871448846e+00 
10400 5.8587789600e+00 -1.9368566268e-02 1.9560938467e+00 -3.3880539268e+00 1.9560938467e+00 3.3880539268e+00 
10500 5.8587967175e+00 -1.8244375355e-02 1.9565889503e+00 -3.3889114714e+00 1.9565889503e+00 3.3889114714e+00 
10600 5.8588034089e+00 -1.7154573773e-02 1.9570551979e+00 -3.3897190360e+00 1.9570551979e+00 3.3897190360e+00 
10700 5.8587995390e+00 -1.6100073154e-02 1.9574934894e+00 -3.3904781792e+00 1.9574934894e+00 3.3904781792e+00 
10800 5.8587856835e+00 -1.5081682219e-02 1.9579047459e+00 -3.3911904963e+00 1.9579047459e+00 3.3911904963e+00 
10900 5.8587624801e+00 -1.4100106850e-02 1.9582899070e+00 -3.3918576149e+00 1.9582899070e+00 3.3918576149e+00 
11000 5.8587306189e+00 -1.3155950556e-02 1.9586499288e+00 -3.3924811909e+00 1.9586499288e+00 3.3924811909e+00 
11100 5.8586908330e+00 -1.2249715285e-02 1.9589857807e+00 -3.3930629035e+00 1.9589857807e+00 3.3930629035e+00 
11200 5.8586438895e+00 -1.1381802603e-02 1.9592984435e+00 -3.3936044514e+00 1.9592984435e+00 3.3936044514e+00 
11300 5.8585905801e+00 -1.0552515202e-02 1.9595889068e+00 -3.3941075485e+00 1.9595889068e+00 3.3941075485e+00 
11400 5.8585317125e+00 -9.7620587141e-03 1.9598581662e+00 -3.3945739195e+00 1.9598581662e+00 3.3945739195e+00 
11500 5.8584681019e+00 -9.0105438344e-03 1.9601072216e+00 -3.3950052962e+00 1.9601072216e+00 3.3950052962e+00 
11600 5.8584005623e+00 -8.2979887029e-03 1.9603370744e+00 -3.3954034128e+00 1.9603370744e+00 3.3954034128e+00 
11700 5.8583298994e+00 -7.6243215451e-03 1.9605487252e+00 -3.3957700027e+00 1.9605487252e+00 3.3957700027e+00 
11800 5.8582569029e+00 -6.9893835368e-03 1.9607431719e+00 -3.3961067944e+00 1.9607431719e+00 3.3961067944e+00 
11900 5.8581823397e+00 -6.3929318753e-03 1.9609214077e+00 -3.3964155077e+00 1.9609214077e+00 3.3964155077e+00 
12000 5.8581069482e+00 -5.8346430304e-03 1.9610844183e+00 -3.3966978504e+00 1.9610844183e+00 3.3966978504e+00 
12100 5.8580314322e+00 -5.3141161552e-03 1.9612331808e+00 -3.3969555146e+00 1.9612331808e+00 3.3969555146e+00 
12200 5.8579564564e+00 -4.8308766298e-03 1.9613686613e+00 -3.3971901737e+00 1.9613686613e+00 3.3971901737e+00 
12300 5.8578826419e+00 -4.3843797192e-03 1.9614918132e+00 -3.3974034792e+00 1.9614918132e+00 3.3974034792e+00 
12400 5.8578105625e+00 -3.9740143198e-03 1.9616035757e+00 -3.3975970573e+00 1.9616035757e+00 3.3975970573e+00 
12500 5.8577407421e+00 -3.5991067760e-03 1.9617048716e+00 -3.3977725070e+00 1.9617048716e+00 3.3977725070e+00 
12600 5.8576736519e+00 -3.2589247440e-03 1.9617966064e+00 -3.3979313965e+00 1.9617966064e+00 3.3979313965e+00 
12700 5.8576097093e+00 -2.9526810860e-03 1.9618796667e+00 -3.3980752611e+00 1.9618796667e+00 3.3980752611e+00 
12800 5.8575492765e+00 -2.6795377736e-03 1.9619549185e+00 -3.3982056011e+00 1.9619549185e+00 3.3982056011e+00 
12900 5.8574926602e+00 -2.4386097859e-03 1.9620232064e+00 -3.3983238791e+00 1.9620232064e+00 3.3983238791e+00 
13000 5.8574401119e+00 -2.2289689855e-03 1.9620853520e+00 -3.3984315184e+00 1.9620853520e+00 3.3984315184e+00 
13100 5.8573918283e+00 -2.0496479571e-03 1.9621421533e+00 -3.3985299012e+00 1.9621421533e+00 3.3985299012e+00 
13200 5.8573479531e+00 -1.8996437977e-03 1.9621943834e+00 -3.3986203663e+00 1.9621943834e+00 3.3986203663e+00 
13300 5.8573085783e+00 -1.7779218445e-03 1.9622427897e+00 -3.3987042085e+00 1.9622427897e+00 3.3987042085e+00 
13400 5.8572737463e+00 -1.6834193317e-03 1.9622880932e+00 -3.3987826764e+00 1.9622880932e+00 3.3987826764e+00 
13500 5.8572434527e+00 -1.6150489673e-03 1.9623309876e+00 -3.3988569718e+00 1.9623309876e+00 3.3988569718e+00 
13600 5.8572176491e+00 -1.5717024204e-03 1.9623721390e+00 -3.3989282482e+00 1.9623721390e+00 3.3989282482e+00 
13700 5.8571962461e+00 -1.5522537150e-03 1.9624121852e+00 -3.3989976101e+00 1.9624121852e+00 3.3989976101e+00 
13800 5.8571791167e+00 -1.5555625231e-03 1.9624517349e+00 -3.3990661123e+00 1.9624517349e+00 3.3990661123e+00 
13900 5.8571661002e+00 -1.5804773545e-03 1.9624913682e+00 -3.3991347591e+00 1.9624913682e+00 3.3991347591e+00 
14000 5.8571570053e+00 -1.6258386379e-03 1.9625316355e+00 -3.3992045041e+00 1.9625316355e+00 3.3992045041e+00 
14100 5.8571516147e+00 -1.6904816938e-03 1.9625730576e+00 -3.3992762493e+00 1.9625730576e+00 3.3992762493e+00 
14200 5.8571496881e+00 -1.7732395953e-03 1.9626161257e+00 -3.3993508455e+00 1.9626161257e+00 3.3993508455e+00 
14300 5.8571509666e+00 -1.8729459171e-03 1.9626613013e+00 -3.3994290919e+00 1.9626613013e+00 3.3994290919e+00 
14400 5.8571551766e+00 -1.9884373725e-03 1.9627090159e+00 -3.3995117361e+00 1.9627090159e+00 3.3995117361e+00 
14500 5.8571620329e+00 -2.1185563388e-03 1.9627596716e+00 -3.3995994743e+00 1.9627596716e+00 3.3995994743e+00 
14600 5.8571712430e+00 -2.2621532706e-03 1.9628136407e+00 -3.3996929514e+00 1.9628136407e+00 3.3996929514e+00 
14700 5.8571825102e+00 -2.4180890044e-03 1.9628712662e+00 -3.3997927618e+00 1.9628712662e+00 3.3997927618e+00 
14800 5.8571955368e+00 -2.5852369536e-03 1.9629328622e+00 -3.3998994493e+00 1.9629328622e+00 3.3998994493e+00 
14900 5.8572100277e+00 -2.7624851961e-03 1.9629987140e+00 -3.4000135078e+00 1.9629987140e+00 3.4000135078e+00 
15000 5.8572256928e+00 -2.9487384575e-03 1.9630690783e+00 -3.4001353824e+00 1.9630690783e+00 3.4001353824e+00 
15100 5.8572422497e+00 -3.1429199887e-03 1.9631441841e+00 -3.4002654695e+00 1.9631441841e+00 3.4002654695e+00 
15200 5.8572594263e+00 -3.3439733428e-03 1.9632242328e+00 -3.4004041178e+00 1.9632242328e+00 3.4004041178e+00 
15300 5.8572769629e+00 -3.5508640501e-03 1.9633093987e+00 -3.4005516296e+00 1.9633093987e+00 3.4005516296e+00 
15400 5.8572946138e+00 -3.7625811954e-03 1.9633998300e+00 -3.4007082612e+00 1.9633998300e+00 3.4007082612e+00 
15500 5.8573121494e+00 -3.9781388965e-03 1.9634956488e+00 -3.4008742242e+00 1.9634956488e+00 3.4008742242e+00 
15600 5.8573293569e+00 -4.1965776879e-03 1.9635969521e+00 -3.4010496867e+00 1.9635969521e+00 3.4010496867e+00 
15700 5.8573460418e+00 -4.4169658092e-03 1.9637038125e+00 -3.4012347744e+00 1.9637038125e+00 3.4012347744e+00 
15800 5.8573620289e+00 -4.6384003997e-03 1.9638162788e+00 -3.4014295716e+00 1.9638162788e+00 3.4014295716e+00 
15900 5.8573771621e+00 -4.8600086014e-03 1.9639343766e+00 -3.4016341230e+00 1.9639343766e+00 3.4016341230e+00 
16000 5.8573913056e+00 -5.0809485704e-03 1.9640581093e+00 -3.4018484344e+00 1.9640581093e+00 3.4018484344e+00 
16100 5.8574043432e+00 -5.3004103976e-03 1.9641874590e+00 -3.4020724745e+00 1.9641874590e+00 3.4020724745e+00 
16200 5.8574161789e+00 -5.5176169405e-03 1.9643223868e+00 -3.4023061764e+00 1.9643223868e+00 3.4023061764e+00 
16300 5.8574267359e+00 -5.7318245656e-03 1.9644628343e+00 -3.4025494385e+00 1.9644628343e+00 3.4025494385e+00 
16400 5.8574359567e+00 -5.9423238039e-03 1.9646087239e+00 -3.4028021268e+00 1.9646087239e+00 3.4028021268e+00 
16500 5.8574438019e+00 -6.1484399186e-03 1.9647599601e+00 -3.4030640756e+00 1.9647599601e+00 3.4030640756e+00 
16600 5.8574502499e+00 -6.3495333870e-03 1.9649164302e+00 -3.4033350897e+00 1.9649164302e+00 3.4033350897e+00 
16700 5.8574552954e+00 -6.5450002967e-03 1.9650780050e+00 -3.4036149455e+00 1.9650780050e+00 3.4036149455e+00 
16800 5.8574589489e+00 -6.7342726576e-03 1.9652445402e+00 -3.4039033929e+00 1.9652445402e+00 3.4039033929e+00 
16900 5.8574612352e+00 -6.9168186301e-03 1.9654158769e+00 -3.4042001568e+00 1.9654158769e+00 3.4042001568e+00 
17000 5.8574621922e+00 -7.0921426709e-03 1.9655918428e+00 -3.4045049386e+00 1.9655918428e+00 3.4045049386e+00 
17100 5.8574618699e+00 -7.2597855975e-03 1.9657722528e+00 -3.4048174180e+00 1.9657722528e+00 3.4048174180e+00 
17200 5.8574603287e+00 -7.4193245725e-03 1.9659569105e+00 -3.4051372545e+00 1.9659569105e+00 3.4051372545e+00 
17300 5.8574576385e+00 -7.5703730090e-03 1.9661456085e+00 -3.4054640890e+00 1.9661456085e+00 3.4054640890e+00 
17400 5.8574538770e+00 -7.7125803991e-03 1.9663381298e+00 -3.4057975456e+00 1.9663381298e+00 3.4057975456e+00 
17500 5.8574491285e+00 -7.8456320666e-03 1.9665342484e+00 -3.4061372330e+00 1.9665342484e+00 3.4061372330e+00 
17600 5.8574434826e+00 -7.9692488458e-03 1.9667337304e+00 -3.4064827460e+00 1.9667337304e+00 3.4064827460e+00 
17700 5.8574370331e+00 -8.0831866887e-03 1.9669363350e+00 -3.4068336674e+00 1.9669363350e+00 3.4068336674e+00 
17800 5.8574298763e+00 -8.1872362020e-03 1.9671418151e+00 -3.4071895695e+00 1.9671418151e+00 3.4071895695e+00 
17900 5.8574221103e+00 -8.2812221172e-03 1.9673499186e+00 -3.4075500153e+00 1.9673499186e+00 3.4075500153e+00 
18000 5.8574138337e+00 -8.3650026946e-03 1.9675603888e+00 -3.4079145603e+00 1.9675603888e+00 3.4079145603e+00 
18100 5.8574051445e+00 -8.4384690658e-03 1.9677729656e+00 -3.4082827541e+00 1.9677729656e+00 3.4082827541e+00 
18200 5.8573961393e+00 -8.5015445147e-03 1.9679873862e+00 -3.4086541415e+00 1.9679873862e+00 3.4086541415e+00 
18300 5.8573869119e+00 -8.5541837030e-03 1.9682033860e+00 -3.4090282642e+00 1.9682033860e+00 3.4090282642e+00 
18400 5.8573775534e+00 -8.5963718396e-03 1.9684206995e+00 -3.4094046622e+00 1.9684206995e+00 3.4094046622e+00 
18500 5.8573681506e+00 -8.6281237999e-03 1.9686390606e+00 -3.4097828747e+00 1.9686390606e+00 3.4097828747e+00 
18600 5.8573587858e+00 -8.6494831964e-03 1.9688582040e+00 -3.4101624422e+00 1.9688582040e+00 3.4101624422e+00 
18700 5.8573495362e+00 -8.6605214040e-03 1.9690778654e+00 -3.4105429069e+00 1.9690778654e+00 3.4105429069e+00 
18800 5.8573404733e+00 -8.6613365440e-03 1.9692977826e+00 -3.4109238147e+00 1.9692977826e+00 3.4109238147e+00 
18900 5.8573316628e+00 -8.6520524292e-03 1.9695176960e+00 -3.4113047158e+00 1.9695176960e+00 3.4113047158e+00 
19000 5.8573231639e+00 -8.6328174744e-03 1.9697373491e+00 -3.4116851661e+00 1.9697373491e+00 3.4116851661e+00 
19100 5.8573150297e+00 -8.6038035747e-03 1.9699564894e+00 -3.4120647283e+00 1.9699564894e+00 3.4120647283e+00 
19200 5.8573073063e+00 -8.5652049565e-03 1.9701748689e+00 -3.4124429727e+00 1.9701748689e+00 3.4124429727e+00 
19300 5.8573000333e+00 -8.5172370027e-03 1.9703922446e+00 -3.4128194785e+00 1.9703922446e+00 3.4128194785e+00 
19400 5.8572932440e+00 -8.4601350580e-03 1.9706083790e+00 -3.4131938343e+00 1.9706083790e+00 3.4131938343e+00 
19500 5.8572869645e+00 -8.3941532156e-03 1.9708230409e+00 -3.4135656395e+00 1.9708230409e+00 3.4135656395e+00 
19600 5.8572812152e+00 -8.3195630905e-03 1.9710360053e+00 -3.4139345047e+00 1.9710360053e+00 3.4139345047e+00 
19700 5.8572760096e+00 -8.2366525813e-03 1.9712470545e+00 -3.4143000527e+00 1.9712470545e+00 3.4143000527e+00 
19800 5.8572713559e+00 -8.1457246256e-03 1.9714559780e+00 -3.4146619189e+00 1.9714559780e+00 3.4146619189e+00 
19900 5.8572672560e+00 -8.0470959513e-03 1.9716625732e+00 -3.4150197522e+00 1.9716625732e+00 3.4150197522e+00 
20000 5.8572637070e+00 -7.9410958267e-03 1.9718666456e+00 -3.4153732159e+00 1.9718666456e+00 3.4153732159e+00 
20100 5.8572607006e+00 -7.8280648143e-03 1.9720680088e+00 -3.4157219873e+00 1.9720680088e+00 3.4157219873e+00 
20200 5.8572582241e+00 -7.7083535304e-03 1.9722664857e+00 -3.4160657593e+00 1.9722664857e+00 3.4160657593e+00 
20300 5.8572562607e+00 -7.5823214131e-03 1.9724619076e+00 -3.4164042399e+00 1.9724619076e+00 3.4164042399e+00 
20400 5.8572547895e+00 -7.4503355031e-03 1.9726541152e+00 -3.4167371533e+00 1.9726541152e+00 3.4167371533e+00 
20500 5.8572537866e+00 -7.3127692394e-03 1.9728429586e+00 -3.4170642396e+00 1.9728429586e+00 3.4170642396e+00 
20600 5.8572532250e+00 -7.1700012723e-03 1.9730282973e+00 -3.4173852557e+00 1.9730282973e+00 3.4173852557e+00 
20700 5.8572530753e+00 -7.0224142979e-03 1.9732100005e+00 -3.4176999749e+00 1.9732100005e+00 3.4176999749e+00 
20800 5.8572533062e+00 -6.8703939152e-03 1.9733879471e+00 -3.4180081874e+00 1.9733879471e+00 3.4180081874e+00 
20900 5.8572538847e+00 -6.7143275086e-03 1.9735620258e+00 -3.4183097005e+00 1.9735620258e+00 3.4183097005e+00 
21000 5.8572547765e+00 -6.5546031590e-03 1.9737321350e+00 -3.4186043384e+00 1.9737321350e+00 3.4186043384e+00 
21100 5.8572559468e+00 -6.3916085845e-03 1.9738981833e+00 -3.4188919424e+00 1.9738981833e+00 3.4188919424e+00 
21200 5.8572573603e+00 -6.2257301136e-03 1.9740600887e+00 -3.4191723708e+00 1.9740600887e+00 3.4191723708e+00 
21300 5.8572589817e+00 -6.0573516927e-03 1.9742177793e+00 -3.4194454989e+00 1.9742177793e+00 3.4194454989e+00 
21400 5.8572607760e+00 -5.8868539293e-03 1.9743711927e+00 -3.4197112187e+00 1.9743711927e+00 3.4197112187e+00 
21500 5.8572627088e+00 -5.7146131727e-03 1.9745202763e+00 -3.4199694391e+00 1.9745202763e+00 3.4199694391e+00 
21600 5.8572647469e+00 -5.5410006339e-03 1.9746649870e+00 -3.4202200854e+00 1.9746649870e+00 3.4202200854e+00 
21700 5.8572668579e+00 -5.3663815458e-03 1.9748052909e+00 -3.4204630990e+00 1.9748052909e+00 3.4204630990e+00 
21800 5.8572690112e+00 -5.1911143650e-03 1.9749411636e+00 -3.4206984374e+00 1.9749411636e+00 3.4206984374e+00 
21900 5.8572711778e+00 -5.0155500158e-03 1.9750725896e+00 -3.4209260739e+00 1.9750725896e+00 3.4209260739e+00 
22000 5.8572733303e+00 -4.8400311785e-03 1.9751995623e+00 -3.4211459970e+00 1.9751995623e+00 3.4211459970e+00 
22100 5.8572754435e+00 -4.6648916201e-03 1.9753220836e+00 -3.4213582101e+00 1.9753220836e+00 3.4213582101e+00 
22200 5.8572774943e+00 -4.4904555718e-03 1.9754401640e+00 -3.4215627314e+00 1.9754401640e+00 3.4215627314e+00 
22300 5.8572794617e+00 -4.3170371500e-03 1.9755538222e+00 -3.4217595932e+00 1.9755538222e+00 3.4217595932e+00 
22400 5.8572813270e+00 -4.1449398228e-03 1.9756630847e+00 -3.4219488413e+00 1.9756630847e+00 3.4219488413e+00 
22500 5.8572830738e+00 -3.9744559231e-03 1.9757679856e+00 -3.4221305350e+00 1.9757679856e+00 3.4221305350e+00 
22600 5.8572846881e+00 -3.8058662054e-03 1.9758685664e+00 -3.4223047462e+00 1.9758685664e+00 3.4223047462e+00 
22700 5.8572861581e+00 -3.6394394496e-03 1.9759648759e+00 -3.4224715591e+00 1.9759648759e+00 3.4224715591e+00 
22800 5.8572874742e+00 -3.4754321082e-03 1.9760569693e+00 -3.4226310696e+00 1.9760569693e+00 3.4226310696e+00 
22900 5.8572886294e+00 -3.3140879991e-03 1.9761449086e+00 -3.4227833847e+00 1.9761449086e+00 3.4227833847e+00 
23000 5.8572896183e+00 -3.1556380419e-03 1.9762287615e+00 -3.4229286223e+00 1.9762287615e+00 3.4229286223e+00 
23100 5.8572904381e+00 -3.0003000381e-03 1.9763086019e+00 -3.4230669100e+00 1.9763086019e+00 3.4230669100e+00 
23200 5.8572910876e+00 -2.8482784926e-03 1.9763845091e+00 -3.4231983850e+00 1.9763845091e+00 3.4231983850e+00 
23300 5.8572915677e+00 -2.6997644788e-03 1.9764565673e+00 -3.4233231936e+00 1.9764565673e+00 3.4233231936e+00 
23400 5.8572918808e+00 -2.5549355424e-03 1.9765248658e+00 -3.4234414900e+00 1.9765248658e+00 3.4234414900e+00 
23500 5.8572920311e+00 -2.4139556464e-03 1.9765894982e+00 -3.4235534366e+00 1.9765894982e+00 3.4235534366e+00 
23600 5.8572920241e+00 -2.2769751537e-03 1.9766505622e+00 -3.4236592025e+00 1.9766505622e+00 3.4236592025e+00 
23700 5.8572918667e+00 -2.1441308471e-03 1.9767081592e+00 -3.4237589636e+00 1.9767081592e+00 3.4237589636e+00 
23800 5.8572915669e+00 -2.0155459858e-03 1.9767623944e+00 -3.4238529016e+00 1.9767623944e+00 3.4238529016e+00 
23900 5.8572911337e+00 -1.8913303959e-03 1.9768133756e+00 -3.4239412036e+00 1.9768133756e+00 3.4239412036e+00 
24000 5.8572905770e+00 -1.7715805940e-03 1.9768612136e+00 -3.4240240615e+00 1.9768612136e+00 3.4240240615e+00 
24100 5.8572899072e+00 -1.6563799431e-03 1.9769060217e+00 -3.4241016714e+00 1.9769060217e+00 3.4241016714e+00 
24200 5.8572891355e+00 -1.5457988382e-03 1.9769479151e+00 -3.4241742329e+00 1.9769479151e+00 3.4241742329e+00 
24300 5.8572882734e+00 -1.4398949207e-03 1.9769870108e+00 -3.4242419487e+00 1.9769870108e+00 3.4242419487e+00 
24400 5.8572873326e+00 -1.3387133195e-03 1.9770234273e+00 -3.4243050239e+00 1.9770234273e+00 3.4243050239e+00 
24500 5.8572863250e+00 -1.2422869185e-03 1.9770572842e+00 -3.4243636658e+00 1.9770572842e+00 3.4243636658e+00 
24600 5.8572852624e+00 -1.1506366467e-03 1.9770887019e+00 -3.4244180827e+00 1.9770887019e+00 3.4244180827e+00 
24700 5.8572841565e+00 -1.0637717913e-03 1.9771178012e+00 -3.4244684843e+00 1.9771178012e+00 3.4244684843e+00 
24800 5.8572830188e+00 -9.8169033103e-04 1.9771447034e+00 -3.4245150801e+00 1.9771447034e+00 3.4245150801e+00 
24900 5.8572818606e+00 -9.0437928873e-04 1.9771695294e+00 -3.4245580801e+00 1.9771695294e+00 3.4245580801e+00 
25000 5.8572806925e+00 -8.3181510071e-04 1.9771924000e+00 -3.4245976931e+00 1.9771924000e+00 3.4245976931e+00 
25100 5.8572795248e+00 -7.6396400224e-04 1.9772134353e+00 -3.4246341273e+00 1.9772134353e+00 3.4246341273e+00 
25200 5.8572783670e+00 -7.0078242691e-04 1.9772327545e+00 -3.4246675892e+00 1.9772327545e+00 3.4246675892e+00 
25300 5.8572772283e+00 -6.4221741849e-04 1.9772504758e+00 -3.4246982834e+00 1.9772504758e+00 3.4246982834e+00 
25400 5.8572761169e+00 -5.8820705386e-04 1.9772667160e+00 -3.4247264123e+00 1.9772667160e+00 3.4247264123e+00 
25500 5.8572750404e+00 -5.3868087517e-04 1.9772815903e+00 -3.4247521752e+00 1.9772815903e+00 3.4247521752e+00 
25600 5.8572740056e+00 -4.9356033013e-04 1.9772952121e+00 -3.4247757688e+00 1.9772952121e+00 3.4247757688e+00 
25700 5.8572730186e+00 -4.5275921860e-04 1.9773076928e+00 -3.4247973861e+00 1.9773076928e+00 3.4247973861e+00 
25800 5.8572720846e+00 -4.1618414434e-04 1.9773191417e+00 -3.4248172161e+00 1.9773191417e+00 3.4248172161e+00 
25900 5.8572712080e+00 -3.8373497041e-04 1.9773296656e+00 -3.4248354442e+00 1.9773296656e+00 3.4248354442e+00 
26000 5.8572703925e+00 -3.5530527687e-04 1.9773393690e+00 -3.4248522509e+00 1.9773393690e+00 3.4248522509e+00 
26100 5.8572696410e+00 -3.3078281963e-04 1.9773483534e+00 -3.4248678124e+00 1.9773483534e+00 3.4248678124e+00 
26200 5.8572689555e+00 -3.1004998900e-04 1.9773567177e+00 -3.4248822998e+00 1.9773567177e+00 3.4248822998e+00 
26300 5.8572683374e+00 -2.9298426695e-04 1.9773645577e+00 -3.4248958791e+00 1.9773645577e+00 3.4248958791e+00 
26400 5.8572677874e+00 -2.7945868182e-04 1.9773719662e+00 -3.4249087109e+00 1.9773719662e+00 3.4249087109e+00 
26500 5.8572673054e+00 -2.6934225947e-04 1.9773790326e+00 -3.4249209503e+00 1.9773790326e+00 3.4249209503e+00 
26600 5.8572668909e+00 -2.6250046966e-04 1.9773858432e+00 -3.4249327466e+00 1.9773858432e+00 3.4249327466e+00 
26700 5.8572665425e+00 -2.5879566696e-04 1.9773924808e+00 -3.4249442432e+00 1.9773924808e+00 3.4249442432e+00 
26800 5.8572662587e+00 -2.5808752501e-04 1.9773990247e+00 -3.4249555775e+00 1.9773990247e+00 3.4249555775e+00 
26900 5.8572660370e+00 -2.6023346332e-04 1.9774055506e+00 -3.4249668808e+00 1.9774055506e+00 3.4249668808e+00 
27000 5.8572658749e+00 -2.6508906583e-04 1.9774121308e+00 -3.4249782780e+00 1.9774121308e+00 3.4249782780e+00 
27100 5.8572657692e+00 -2.7250849047e-04 1.9774188337e+00 -3.4249898878e+00 1.9774188337e+00 3.4249898878e+00 
27200 5.8572657167e+00 -2.8234486883e-04 1.9774257242e+00 -3.4250018225e+00 1.9774257242e+00 3.4250018225e+00 
27300 5.8572657136e+00 -2.9445069554e-04 1.9774328634e+00 -3.4250141880e+00 1.9774328634e+00 3.4250141880e+00 
27400 5.8572657562e+00 -3.0867820645e-04 1.9774403087e+00 -3.4250270836e+00 1.9774403087e+00 3.4250270836e+00 
27500 5.8572658402e+00 -3.2487974531e-04 1.9774481137e+00 -3.4250406023e+00 1.9774481137e+00 3.4250406023e+00 
27600 5.8572659617e+00 -3.4290811821e-04 1.9774563283e+00 -3.4250548304e+00 1.9774563283e+00 3.4250548304e+00 
27700 5.8572661163e+00 -3.6261693547e-04 1.9774649988e+00 -3.4250698481e+00 1.9774649988e+00 3.4250698481e+00 
27800 5.8572662998e+00 -3.8386094043e-04 1.9774741675e+00 -3.4250857288e+00 1.9774741675e+00 3.4250857288e+00 
27900 5.8572665080e+00 -4.0649632494e-04 1.9774838734e+00 -3.4251025398e+00 1.9774838734e+00 3.4251025398e+00 
28000 5.8572667367e+00 -4.3038103095e-04 1.9774941515e+00 -3.4251203420e+00 1.9774941515e+00 3.4251203420e+00 
28100 5.8572669817e+00 -4.5537503828e-04 1.9775050335e+00 -3.4251391902e+00 1.9775050335e+00 3.4251391902e+00 
28200 5.8572672392e+00 -4.8134063792e-04 1.9775165474e+00 -3.4251591328e+00 1.9775165474e+00 3.4251591328e+00 
28300 5.8572675053e+00 -5.0814269104e-04 1.9775287177e+00 -3.4251802125e+00 1.9775287177e+00 3.4251802125e+00 
28400 5.8572677764e+00 -5.3564887328e-04 1.9775415656e+00 -3.4252024658e+00 1.9775415656e+00 3.4252024658e+00 
28500 5.8572680492e+00 -5.6372990438e-04 1.9775551090e+00 -3.4252259235e+00 1.9775551090e+00 3.4252259235e+00 
28600 5.8572683203e+00 -5.9225976298e-04 1.9775693622e+00 -3.4252506108e+00 1.9775693622e+00 3.4252506108e+00 
28700 5.8572685870e+00 -6.2111588654e-04 1.9775843366e+00 -3.4252765473e+00 1.9775843366e+00 3.4252765473e+00 
28800 5.8572688465e+00 -6.5017935648e-04 1.9776000406e+00 -3.4253037473e+00 1.9776000406e+00 3.4253037473e+00 
28900 5.8572690964e+00 -6.7933506845e-04 1.9776164792e+00 -3.4253322198e+00 1.9776164792e+00 3.4253322198e+00 
29000 5.8572693346e+00 -7.0847188788e-04 1.9776336548e+00 -3.4253619689e+00 1.9776336548e+00 3.4253619689e+00 
29100 5.8572695592e+00 -7.3748279088e-04 1.9776515669e+00 -3.4253929936e+00 1.9776515669e+00 3.4253929936e+00 
29200 5.8572697686e+00 -7.6626499061e-04 1.9776702124e+00 -3.4254252885e+00 1.9776702124e+00 3.4254252885e+00 
29300 5.8572699616e+00 -7.9472004928e-04 1.9776895853e+00 -3.4254588434e+00 1.9776895853e+00 3.4254588434e+00 
29400 5.8572701370e+00 -8.2275397598e-04 1.9777096775e+00 -3.4254936441e+00 1.9777096775e+00 3.4254936441e+00 
29500 5.8572702942e+00 -8.5027731059e-04 1.9777304782e+00 -3.4255296720e+00 1.9777304782e+00 3.4255296720e+00 
29600 5.8572704325e+00 -8.7720519390e-04 1.9777519746e+00 -3.4255669047e+00 1.9777519746e+00 3.4255669047e+00 
29700 5.8572705517e+00 -9.0345742432e-04 1.9777741514e+00 -3.4256053162e+00 1.9777741514e+00 3.4256053162e+00 
29800 5.8572706517e+00 -9.2895850141e-04 1.9777969917e+00 -3.4256448767e+00 1.9777969917e+00 3.4256448767e+00 
29900 5.8572707327e+00 -9.5363765658e-04 1.9778204764e+00 -3.4256855535e+00 1.9778204764e+00 3.4256855535e+00 
30000 5.8572707950e+00 -9.7742887120e-04 1.9778445848e+00 -3.4257273103e+00 1.9778445848e+00 3.4257273103e+00 
30100 5.8572708392e+00 -1.0002708826e-03 1.9778692943e+00 -3.4257701084e+00 1.9778692943e+00 3.4257701084e+00 
30200 5.8572708658e+00 -1.0221071780e-03 1.9778945809e+00 -3.4258139062e+00 1.9778945809e+00 3.4258139062e+00 
30300 5.8572708758e+00 -1.0428859778e-03 1.9779204192e+00 -3.4258586595e+00 1.9779204192e+00 3.4258586595e+00 
30400 5.8572708701e+00 -1.0625602066e-03 1.9779467825e+00 -3.4259043219e+00 1.9779467825e+00 3.4259043219e+00 
30500 5.8572708498e+00 -1.0810874546e-03 1.9779736427e+00 -3.4259508452e+00 1.9779736427e+00 3.4259508452e+00 
30600 5.8572708161e+00 -1.0984299283e-03 1.9780009710e+00 -3.4259981791e+00 1.9780009710e+00 3.4259981791e+00 
30700 5.8572707700e+00 -1.1145543920e-03 1.9780287372e+00 -3.4260462716e+00 1.9780287372e+00 3.4260462716e+00 
30800 5.8572707131e+00 -1.1294320989e-03 1.9780569106e+00 -3.4260950694e+00 1.9780569106e+00 3.4260950694e+00 
30900 5.8572706464e+00 -1.1430387147e-03 1.9780854597e+00 -3.4261445179e+00 1.9780854597e+00 3.4261445179e+00 
31000 5.8572705715e+00 -1.1553542317e-03 1.9781143523e+00 -3.4261945614e+00 1.9781143523e+00 3.4261945614e+00 
31100 5.8572704896e+00 -1.1663628755e-03 1.9781435558e+00 -3.4262451434e+00 1.9781435558e+00 3.4262451434e+00 
31200 5.8572704021e+00 -1.1760530041e-03 1.9781730371e+00 -3.4262962065e+00 1.9781730371e+00 3.4262962065e+00 
31300 5.8572703103e+00 -1.1844169998e-03 1.9782027630e+00 -3.4263476931e+00 1.9782027630e+00 3.4263476931e+00 
31400 5.8572702155e+00 -1.1914511556e-03 1.9782326997e+00 -3.4263995451e+00 1.9782326997e+00 3.4263995451e+00 
31500 5.8572701189e+00 -1.1971555536e-03 1.9782628138e+00 -3.4264517043e+00 1.9782628138e+00 3.4264517043e+00 
31600 5.8572700217e+00 -1.2015339401e-03 1.9782930717e+00 -3.4265041124e+00 1.9782930717e+00 3.4265041124e+00 
31700 5.8572699250e+00 -1.2045935940e-03 1.9783234397e+00 -3.4265567113e+00 1.9783234397e+00 3.4265567113e+00 
31800 5.8572698300e+00 -1.2063451914e-03 1.9783538846e+00 -3.4266094434e+00 1.9783538846e+00 3.4266094434e+00 
31900 5.8572697374e+00 -1.2068026657e-03 1.9783843733e+00 -3.4266622514e+00 1.9783843733e+00 3.4266622514e+00 
32000 5.8572696484e+00 -1.2059830645e-03 1.9784148730e+00 -3.4267150786e+00 1.9784148730e+00 3.4267150786e+00 
32100 5.8572695636e+00 -1.2039064026e-03 1.9784453516e+00 -3.4267678690e+00 1.9784453516e+00 3.4267678690e+00 
32200 5.8572694837e+00 -1.2005955133e-03 1.9784757773e+00 -3.4268205678e+00 1.9784757773e+00 3.4268205678e+00 
32300 5.8572694095e+00 -1.1960758964e-03 1.9785061188e+00 -3.4268731208e+00 1.9785061188e+00 3.4268731208e+00 
32400 5.8572693413e+00 -1.1903755651e-03 1.9785363456e+00 -3.4269254752e+00 1.9785363456e+00 3.4269254752e+00 
32500 5.8572692798e+00 -1.1835248909e-03 1.9785664279e+00 -3.4269775793e+00 1.9785664279e+00 3.4269775793e+00 
32600 5.8572692251e+00 -1.1755564483e-03 1.9785963366e+00 -3.4270293827e+00 1.9785963366e+00 3.4270293827e+00 
32700 5.8572691777e+00 -1.1665048585e-03 1.9786260435e+00 -3.4270808366e+00 1.9786260435e+00 3.4270808366e+00 
32800 5.8572691376e+00 -1.1564066328e-03 1.9786555213e+00 -3.4271318935e+00 1.9786555213e+00 3.4271318935e+00 
32900 5.8572691049e+00 -1.1453000163e-03 1.9786847434e+00 -3.4271825076e+00 1.9786847434e+00 3.4271825076e+00 
33000 5.8572690797e+00 -1.1332248332e-03 1.9787136844e+00 -3.4272326350e+00 1.9787136844e+00 3.4272326350e+00 
33100 5.8572690619e+00 -1.1202223315e-03 1.9787423198e+00 -3.4272822330e+00 1.9787423198e+00 3.4272822330e+00 
33200 5.8572690514e+00 -1.1063350301e-03 1.9787706263e+00 -3.4273312613e+00 1.9787706263e+00 3.4273312613e+00 
33300 5.8572690480e+00 -1.0916065676e-03 1.9787985815e+00 -3.4273796811e+00 1.9787985815e+00 3.4273796811e+00 
33400 5.8572690514e+00 -1.0760815529e-03 1.9788261641e+00 -3.4274274556e+00 1.9788261641e+00 3.4274274556e+00 
33500 5.8572690614e+00 -1.0598054179e-03 1.9788533541e+00 -3.4274745500e+00 1.9788533541e+00 3.4274745500e+00 
33600 5.8572690776e+00 -1.0428242731e-03 1.9788801324e+00 -3.4275209314e+00 1.9788801324e+00 3.4275209314e+00 
33700 5.8572690996e+00 -1.0251847667e-03 1.9789064813e+00 -3.4275665691e+00 1.9789064813e+00 3.4275665691e+00 
33800 5.8572691270e+00 -1.0069339456e-03 1.9789323842e+00 -3.4276114341e+00 1.9789323842e+00 3.4276114341e+00 
33900 5.8572691594e+00 -9.8811912073e-04 1.9789578256e+00 -3.4276554999e+00 1.9789578256e+00 3.4276554999e+00 
34000 5.8572691963e+00 -9.6878773623e-04 1.9789827913e+00 -3.4276987418e+00 1.9789827913e+00 3.4276987418e+00 
34100 5.8572692372e+00 -9.4898724170e-04 1.9790072682e+00 -3.4277411371e+00 1.9790072682e+00 3.4277411371e+00 
34200 5.8572692816e+00 -9.2876496923e-04 1.9790312446e+00 -3.4277826655e+00 1.9790312446e+00 3.4277826655e+00 
34300 5.8572693290e+00 -9.0816801437e-04 1.9790547098e+00 -3.4278233084e+00 1.9790547098e+00 3.4278233084e+00 
34400 5.8572693791e+00 -8.8724312160e-04 1.9790776544e+00 -3.4278630495e+00 1.9790776544e+00 3.4278630495e+00 
34500 5.8572694311e+00 -8.6603657447e-04 1.9791000700e+00 -3.4279018744e+00 1.9791000700e+00 3.4279018744e+00 
34600 5.8572694848e+00 -8.4459409034e-04 1.9791219496e+00 -3.4279397710e+00 1.9791219496e+00 3.4279397710e+00 
34700 5.8572695396e+00 -8.2296072004e-04 1.9791432872e+00 -3.4279767289e+00 1.9791432872e+00 3.4279767289e+00 
34800 5.8572695950e+00 -8.0118075243e-04 1.9791640781e+00 -3.4280127397e+00 1.9791640781e+00 3.4280127397e+00 
34900 5.8572696507e+00 -7.7929762400e-04 1.9791843185e+00 -3.4280477971e+00 1.9791843185e+00 3.4280477971e+00 
35000 5.8572697063e+00 -7.5735383358e-04 1.9792040059e+00 -3.4280818967e+00 1.9792040059e+00 3.4280818967e+00 
35100 5.8572697614e+00 -7.3539086220e-04 1.9792231387e+00 -3.4281150357e+00 1.9792231387e+00 3.4281150357e+00 
35200 5.8572698156e+00 -7.1344909812e-04 1.9792417165e+00 -3.4281472134e+00 1.9792417165e+00 3.4281472134e+00 
35300 5.8572698686e+00 -6.9156776709e-04 1.9792597398e+00 -3.4281784307e+00 1.9792597398e+00 3.4281784307e+00 
35400 5.8572699202e+00 -6.6978486788e-04 1.9792772102e+00 -3.4282086903e+00 1.9792772102e+00 3.4282086903e+00 
35500 5.8572699700e+00 -6.4813711297e-04 1.9792941301e+00 -3.4282379965e+00 1.9792941301e+00 3.4282379965e+00 
35600 5.8572700179e+00 -6.2665987450e-04 1.9793105031e+00 -3.4282663553e+00 1.9793105031e+00 3.4282663553e+00 
35700 5.8572700637e+00 -6.0538713540e-04 1.9793263334e+00 -3.4282937742e+00 1.9793263334e+00 3.4282937742e+00 
35800 5.8572701073e+00 -5.8435144564e-04 1.9793416262e+00 -3.4283202620e+00 1.9793416262e+00 3.4283202620e+00 
35900 5.8572701484e+00 -5.6358388359e-04 1.9793563874e+00 -3.4283458293e+00 1.9793563874e+00 3.4283458293e+00 
36000 5.8572701871e+00 -5.4311402240e-04 1.9793706240e+00 -3.4283704878e+00 1.9793706240e+00 3.4283704878e+00 
36100 5.8572702231e+00 -5.2296990131e-04 1.9793843434e+00 -3.4283942504e+00 1.9793843434e+00 3.4283942504e+00 
36200 5.8572702567e+00 -5.0317800187e-04 1.9793975538e+00 -3.4284171316e+00 1.9793975538e+00 3.4284171316e+00 
36300 5.8572702876e+00 -4.8376322886e-04 1.9794102642e+00 -3.4284391466e+00 1.9794102642e+00 3.4284391466e+00 
36400 5.8572703159e+00 -4.6474889593e-04 1.9794224841e+00 -3.4284603121e+00 1.9794224841e+00 3.4284603121e+00 
36500 5.8572703417e+00 -4.4615671577e-04 1.9794342236e+00 -3.4284806455e+00 1.9794342236e+00 3.4284806455e+00 
36600 5.8572703651e+00 -4.2800679466e-04 1.9794454934e+00 -3.4285001654e+00 1.9794454934e+00 3.4285001654e+00 
36700 5.8572703860e+00 -4.1031763141e-04 1.9794563047e+00 -3.4285188911e+00 1.9794563047e+00 3.4285188911e+00 
36800 5.8572704047e+00 -3.9310612038e-04 1.9794666691e+00 -3.4285368428e+00 1.9794666691e+00 3.4285368428e+00 
36900 5.8572704212e+00 -3.7638755854e-04 1.9794765987e+00 -3.4285540414e+00 1.9794765987e+00 3.4285540414e+00 
37000 5.8572704356e+00 -3.6017565643e-04 1.9794861060e+00 -3.4285705084e+00 1.9794861060e+00 3.4285705084e+00 
37100 5.8572704482e+00 -3.4448255276e-04 1.9794952037e+00 -3.4285862662e+00 1.9794952037e+00 3.4285862662e+00 
37200 5.8572704590e+00 -3.2931883266e-04 1.9795039050e+00 -3.4286013372e+00 1.9795039050e+00 3.4286013372e+00 
37300 5.8572704682e+00 -3.1469354926e-04 1.9795122232e+00 -3.4286157448e+00 1.9795122232e+00 3.4286157448e+00 
37400 5.8572704759e+00 -3.0061424850e-04 1.9795201720e+00 -3.4286295125e+00 1.9795201720e+00 3.4286295125e+00 
37500 5.8572704824e+00 -2.8708699703e-04 1.9795277651e+00 -3.4286426641e+00 1.9795277651e+00 3.4286426641e+00 
37600 5.8572704878e+00 -2.7411641300e-04 1.9795350165e+00 -3.4286552239e+00 1.9795350165e+00 3.4286552239e+00 
37700 5.8572704923e+00 -2.6170569952e-04 1.9795419403e+00 -3.4286672162e+00 1.9795419403e+00 3.4286672162e+00 
37800 5.8572704959e+00 -2.4985668069e-04 1.9795485505e+00 -3.4286786655e+00 1.9795485505e+00 3.4286786655e+00 
37900 5.8572704990e+00 -2.3856984003e-04 1.9795548615e+00 -3.4286895964e+00 1.9795548615e+00 3.4286895964e+00 
38000 5.8572705016e+00 -2.2784436101e-04 1.9795608873e+00 -3.4287000335e+00 1.9795608873e+00 3.4287000335e+00 
38100 5.8572705038e+00 -2.1767816969e-04 1.9795666422e+00 -3.4287100013e+00 1.9795666422e+00 3.4287100013e+00 
38200 5.8572705059e+00 -2.0806797913e-04 1.9795721404e+00 -3.4287195244e+00 1.9795721404e+00 3.4287195244e+00 
38300 5.8572705079e+00 -1.9900933553e-04 1.9795773958e+00 -3.4287286270e+00 1.9795773958e+00 3.4287286270e+00 
38400 5.8572705101e+00 -1.9049666578e-04 1.9795824223e+00 -3.4287373332e+00 1.9795824223e+00 3.4287373332e+00 
38500 5.8572705123e+00 -1.8252332641e-04 1.9795872339e+00 -3.4287456671e+00 1.9795872339e+00 3.4287456671e+00 
38600 5.8572705149e+00 -1.7508165367e-04 1.9795918440e+00 -3.4287536520e+00 1.9795918440e+00 3.4287536520e+00 
38700 5.8572705179e+00 -1.6816301456e-04 1.9795962662e+00 -3.4287613115e+00 1.9795962662e+00 3.4287613115e+00 
38800 5.8572705213e+00 -1.6175785873e-04 1.9796005136e+00 -3.4287686682e+00 1.9796005136e+00 3.4287686682e+00 
38900 5.8572705253e+00 -1.5585577105e-04 1.9796045992e+00 -3.4287757447e+00 1.9796045992e+00 3.4287757447e+00 
39000 5.8572705298e+00 -1.5044552468e-04 1.9796085357e+00 -3.4287825630e+00 1.9796085357e+00 3.4287825630e+00 
39100 5.8572705350e+00 -1.4551513444e-04 1.9796123356e+00 -3.4287891446e+00 1.9796123356e+00 3.4287891446e+00 
39200 5.8572705408e+00 -1.4105191049e-04 1.9796160110e+00 -3.4287955105e+00 1.9796160110e+00 3.4287955105e+00 
39300 5.8572705474e+00 -1.3704251200e-04 1.9796195736e+00 -3.4288016811e+00 1.9796195736e+00 3.4288016811e+00 
39400 5.8572705546e+00 -1.3347300082e-04 1.9796230349e+00 -3.4288076763e+00 1.9796230349e+00 3.4288076763e+00 
39500 5.8572705626e+00 -1.3032889482e-04 1.9796264061e+00 -3.4288135153e+00 1.9796264061e+00 3.4288135153e+00 
39600 5.8572705713e+00 -1.2759522103e-04 1.9796296978e+00 -3.4288192168e+00 1.9796296978e+00 3.4288192168e+00 
39700 5.8572705807e+00 -1.2525656823e-04 1.9796329205e+00 -3.4288247987e+00 1.9796329205e+00 3.4288247987e+00 
39800 5.8572705909e+00 -1.2329713901e-04 1.9796360842e+00 -3.4288302783e+00 1.9796360842e+00 3.4288302783e+00 
39900 5.8572706016e+00 -1.2170080108e-04 1.9796391983e+00 -3.4288356721e+00 1.9796391983e+00 3.4288356721e+00 
40000 5.8572706131e+00 -1.2045113784e-04 1.9796422721e+00 -3.4288409961e+00 1.9796422721e+00 3.4288409961e+00 
40100 5.8572706251e+00 -1.1953149800e-04 1.9796453144e+00 -3.4288462654e+00 1.9796453144e+00 3.4288462654e+00 
40200 5.8572706377e+00 -1.1892504422e-04 1.9796483334e+00 -3.4288514945e+00 1.9796483334e+00 3.4288514945e+00 
40300 5.8572706507e+00 -1.1861480066e-04 1.9796513371e+00 -3.4288566971e+00 1.9796513371e+00 3.4288566971e+00 
40400 5.8572706643e+00 -1.1858369932e-04 1.9796543329e+00 -3.4288618860e+00 1.9796543329e+00 3.4288618860e+00 
40500 5.8572706782e+00 -1.1881462517e-04 1.9796573280e+00 -3.4288670736e+00 1.9796573280e+00 3.4288670736e+00 
40600 5.8572706925e+00 -1.1929045993e-04 1.9796603289e+00 -3.4288722713e+00 1.9796603289e+00 3.4288722713e+00 
40700 5.8572707071e+00 -1.1999412440e-04 1.9796633418e+00 -3.4288774898e+00 1.9796633418e+00 3.4288774898e+00 
40800 5.8572707220e+00 -1.2090861944e-04 1.9796663724e+00 -3.4288827391e+00 1.9796663724e+00 3.4288827391e+00 
40900 5.8572707370e+00 -1.2201706530e-04 1.9796694262e+00 -3.4288880284e+00 1.9796694262e+00 3.4288880284e+00 
41000 5.8572707522e+00 -1.2330273949e-04 1.9796725080e+00 -3.4288933661e+00 1.9796725080e+00 3.4288933661e+00 
41100 5.8572707674e+00 -1.2474911300e-04 1.9796756222e+00 -3.4288987601e+00 1.9796756222e+00 3.4288987601e+00 
41200 5.8572707826e+00 -1.2633988481e-04 1.9796787729e+00 -3.4289042174e+00 1.9796787729e+00 3.4289042174e+00 
41300 5.8572707978e+00 -1.2805901480e-04 1.9796819639e+00 -3.4289097442e+00 1.9796819639e+00 3.4289097442e+00 
41400 5.8572708129e+00 -1.2989075491e-04 1.9796851982e+00 -3.4289153462e+00 1.9796851982e+00 3.4289153462e+00 
41500 5.8572708279e+00 -1.3181967852e-04 1.9796884788e+00 -3.4289210284e+00 1.9796884788e+00 3.4289210284e+00 
41600 5.8572708427e+00 -1.3383070817e-04 1.9796918081e+00 -3.4289267949e+00 1.9796918081e+00 3.4289267949e+00 
41700 5.8572708573e+00 -1.3590914137e-04 1.9796951882e+00 -3.4289326494e+00 1.9796951882e+00 3.4289326494e+00 
41800 5.8572708716e+00 -1.3804067476e-04 1.9796986208e+00 -3.4289385948e+00 1.9796986208e+00 3.4289385948e+00 
41900 5.8572708857e+00 -1.4021142642e-04 1.9797021072e+00 -3.4289446334e+00 1.9797021072e+00 3.4289446334e+00 
42000 5.8572708994e+00 -1.4240795641e-04 1.9797056484e+00 -3.4289507670e+00 1.9797056484e+00 3.4289507670e+00 
42100 5.8572709128e+00 -1.4461728552e-04 1.9797092451e+00 -3.4289569967e+00 1.9797092451e+00 3.4289569967e+00 
42200 5.8572709258e+00 -1.4682691232e-04 1.9797128976e+00 -3.4289633230e+00 1.9797128976e+00 3.4289633230e+00 
42300 5.8572709385e+00 -1.4902482833e-04 1.9797166059e+00 -3.4289697459e+00 1.9797166059e+00 3.4289697459e+00 
42400 5.8572709507e+00 -1.5119953161e-04 1.9797203697e+00 -3.4289762650e+00 1.9797203697e+00 3.4289762650e+00 
42500 5.8572709626e+00 -1.5334003849e-04 1.9797241884e+00 -3.4289828792e+00 1.9797241884e+00 3.4289828792e+00 
42600 5.8572709740e+00 -1.5543589372e-04 1.9797280611e+00 -3.4289895870e+00 1.9797280611e+00 3.4289895870e+00 
42700 5.8572709850e+00 -1.5747717891e-04 1.9797319868e+00 -3.4289963865e+00 1.9797319868e+00 3.4289963865e+00 
42800 5.8572709956e+00 -1.5945451936e-04 1.9797359641e+00 -3.4290032753e+00 1.9797359641e+00 3.4290032753e+00 
42900 5.8572710057e+00 -1.6135908929e-04 1.9797399912e+00 -3.4290102506e+00 1.9797399912e+00 3.4290102506e+00 
43000 5.8572710155e+00 -1.6318261552e-04 1.9797440665e+00 -3.4290173091e+00 1.9797440665e+00 3.4290173091e+00 
43100 5.8572710249e+00 -1.6491737963e-04 1.9797481878e+00 -3.4290244474e+00 1.9797481878e+00 3.4290244474e+00 
43200 5.8572710338e+00 -1.6655621866e-04 1.9797523529e+00 -3.4290316616e+00 1.9797523529e+00 3.4290316616e+00 
43300 5.8572710424e+00 -1.6809252438e-04 1.9797565594e+00 -3.4290389475e+00 1.9797565594e+00 3.4290389475e+00 
43400 5.8572710506e+00 -1.6952024122e-04 1.9797608047e+00 -3.4290463005e+00 1.9797608047e+00 3.4290463005e+00 
43500 5.8572710585e+00 -1.7083386278e-04 1.9797650860e+00 -3.4290537160e+00 1.9797650860e+00 3.4290537160e+00 
43600 5.8572710660e+00 -1.7202842717e-04 1.9797694005e+00 -3.4290611890e+00 1.9797694005e+00 3.4290611890e+00 
43700 5.8572710732e+00 -1.7309951105e-04 1.9797737452e+00 -3.4290687141e+00 1.9797737452e+00 3.4290687141e+00 
43800 5.8572710802e+00 -1.7404322257e-04 1.9797781169e+00 -3.4290762861e+00 1.9797781169e+00 3.4290762861e+00 
43900 5.8572710868e+00 -1.7485619314e-04 1.9797825124e+00 -3.4290838994e+00 1.9797825124e+00 3.4290838994e+00 
44000 5.8572710932e+00 -1.7553556814e-04 1.9797869284e+00 -3.4290915482e+00 1.9797869284e+00 3.4290915482e+00 
44100 5.8572710994e+00 -1.7607899671e-04 1.9797913616e+00 -3.4290992267e+00 1.9797913616e+00 3.4290992267e+00 
44200 5.8572711054e+00 -1.7648462050e-04 1.9797958085e+00 -3.4291069290e+00 1.9797958085e+00 3.4291069290e+00 
44300 5.8572711112e+00 -1.7675106161e-04 1.9798002657e+00 -3.4291146490e+00 1.9798002657e+00 3.4291146490e+00 
44400 5.8572711168e+00 -1.7687740965e-04 1.9798047296e+00 -3.4291223807e+00 1.9798047296e+00 3.4291223807e+00 
44500 5.8572711222e+00 -1.7686320813e-04 1.9798091966e+00 -3.4291301178e+00 1.9798091966e+00 3.4291301178e+00 
44600 5.8572711276e+00 -1.7670844000e-04 1.9798136633e+00 -3.4291378543e+00 1.9798136633e+00 3.4291378543e+00 
44700 5.8572711328e+00 -1.7641351270e-04 1.9798181260e+00 -3.4291455840e+00 1.9798181260e+00 3.4291455840e+00 
44800 5.8572711379e+00 -1.7597924250e-04 1.9798225813e+00 -3.4291533008e+00 1.9798225813e+00 3.4291533008e+00 
44900 5.8572711430e+00 -1.7540683839e-04 1.9798270256e+00 -3.4291609986e+00 1.9798270256e+00 3.4291609986e+00 
45000 5.8572711479e+00 -1.7469788547e-04 1.9798314555e+00 -3.4291686713e+00 1.9798314555e+00 3.4291686713e+00 
45100 5.8572711529e+00 -1.7385432792e-04 1.9798358674e+00 -3.4291763131e+00 1.9798358674e+00 3.4291763131e+00 
45200 5.8572711578e+00 -1.7287845163e-04 1.9798402581e+00 -3.4291839178e+00 1.9798402581e+00 3.4291839178e+00 
45300 5.8572711626e+00 -1.7177286654e-04 1.9798446240e+00 -3.4291914799e+00 1.9798446240e+00 3.4291914799e+00 
45400 5.8572711675e+00 -1.7054048866e-04 1.9798489621e+00 -3.4291989936e+00 1.9798489621e+00 3.4291989936e+00 
45500 5.8572711723e+00 -1.6918452203e-04 1.9798532690e+00 -3.4292064534e+00 1.9798532690e+00 3.4292064534e+00 
45600 5.8572711772e+00 -1.6770844041e-04 1.9798575416e+00 -3.4292138539e+00 1.9798575416e+00 3.4292138539e+00 
45700 5.8572711820e+00 -1.6611596893e-04 1.9798617770e+00 -3.4292211897e+00 1.9798617770e+00 3.4292211897e+00 
45800 5.8572711869e+00 -1.6441106575e-04 1.9798659721e+00 -3.4292284559e+00 1.9798659721e+00 3.4292284559e+00 
45900 5.8572711917e+00 -1.6259790363e-04 1.9798701242e+00 -3.4292356475e+00 1.9798701242e+00 3.4292356475e+00 
46000 5.8572711966e+00 -1.6068085163e-04 1.9798742305e+00 -3.4292427598e+00 1.9798742305e+00 3.4292427598e+00 
46100 5.8572712015e+00 -1.5866445688e-04 1.9798782884e+00 -3.4292497882e+00 1.9798782884e+00 3.4292497882e+00 
46200 5.8572712065e+00 -1.5655342648e-04 1.9798822953e+00 -3.4292567284e+00 1.9798822953e+00 3.4292567284e+00 
46300 5.8572712114e+00 -1.5435260966e-04 1.9798862489e+00 -3.4292635763e+00 1.9798862489e+00 3.4292635763e+00 
46400 5.8572712164e+00 -1.5206697999e-04 1.9798901469e+00 -3.4292703279e+00 1.9798901469e+00 3.4292703279e+00 
46500 5.8572712213e+00 -1.4970161806e-04 1.9798939872e+00 -3.4292769794e+00 1.9798939872e+00 3.4292769794e+00 
46600 5.8572712263e+00 -1.4726169435e-04 1.9798977677e+00 -3.4292835275e+00 1.9798977677e+00 3.4292835275e+00 
46700 5.8572712313e+00 -1.4475245238e-04 1.9799014867e+00 -3.4292899689e+00 1.9799014867e+00 3.4292899689e+00 
46800 5.8572712363e+00 -1.4217919235e-04 1.9799051422e+00 -3.4292963005e+00 1.9799051422e+00 3.4292963005e+00 
46900 5.8572712413e+00 -1.3954725507e-04 1.9799087328e+00 -3.4293025195e+00 1.9799087328e+00 3.4293025195e+00 
47000 5.8572712462e+00 -1.3686200637e-04 1.9799122569e+00 -3.4293086234e+00 1.9799122569e+00 3.4293086234e+00 
47100 5.8572712512e+00 -1.3412882191e-04 1.9799157131e+00 -3.4293146098e+00 1.9799157131e+00 3.4293146098e+00 
47200 5.8572712562e+00 -1.3135307250e-04 1.9799191004e+00 -3.4293204767e+00 1.9799191004e+00 3.4293204767e+00 
47300 5.8572712611e+00 -1.2854010991e-04 1.9799224175e+00 -3.4293262221e+00 1.9799224175e+00 3.4293262221e+00 
47400 5.8572712660e+00 -1.2569525318e-04 1.9799256636e+00 -3.4293318445e+00 1.9799256636e+00 3.4293318445e+00 
47500 5.8572712708e+00 -1.2282377544e-04 1.9799288378e+00 -3.4293373425e+00 1.9799288378e+00 3.4293373425e+00 
47600 5.8572712756e+00 -1.1993089136e-04 1.9799319396e+00 -3.4293427148e+00 1.9799319396e+00 3.4293427148e+00 
47700 5.8572712804e+00 -1.1702174504e-04 1.9799349682e+00 -3.4293479606e+00 1.9799349682e+00 3.4293479606e+00 
47800 5.8572712851e+00 -1.1410139862e-04 1.9799379234e+00 -3.4293530792e+00 1.9799379234e+00 3.4293530792e+00 
47900 5.8572712898e+00 -1.1117482132e-04 1.9799408048e+00 -3.4293580700e+00 1.9799408048e+00 3.4293580700e+00 
48000 5.8572712944e+00 -1.0824687921e-04 1.9799436124e+00 -3.4293629328e+00 1.9799436124e+00 3.4293629328e+00 
48100 5.8572712989e+00 -1.0532232553e-04 1.9799463460e+00 -3.4293676675e+00 1.9799463460e+00 3.4293676675e+00 
48200 5.8572713033e+00 -1.0240579158e-04 1.9799490057e+00 -3.4293722742e+00 1.9799490057e+00 3.4293722742e+00 
48300 5.8572713077e+00 -9.9501778256e-05 1.9799515918e+00 -3.4293767535e+00 1.9799515918e+00 3.4293767535e+00 
48400 5.8572713120e+00 -9.6614648234e-05 1.9799541045e+00 -3.4293811056e+00 1.9799541045e+00 3.4293811056e+00 
48500 5.8572713163e+00 -9.3748618706e-05 1.9799565443e+00 -3.4293853315e+00 1.9799565443e+00 3.4293853315e+00 
48600 5.8572713204e+00 -9.0907754751e-05 1.9799589118e+00 -3.4293894321e+00 1.9799589118e+00 3.4293894321e+00 
48700 5.8572713244e+00 -8.8095963318e-05 1.9799612075e+00 -3.4293934083e+00 1.9799612075e+00 3.4293934083e+00 
48800 5.8572713284e+00 -8.5316987817e-05 1.9799634321e+00 -3.4293972616e+00 1.9799634321e+00 3.4293972616e+00 
48900 5.8572713323e+00 -8.2574403299e-05 1.9799655867e+00 -3.4294009933e+00 1.9799655867e+00 3.4294009933e+00 
49000 5.8572713361e+00 -7.9871612227e-05 1.9799676719e+00 -3.4294046051e+00 1.9799676719e+00 3.4294046051e+00 
49100 5.8572713398e+00 -7.7211840841e-05 1.9799696889e+00 -3.4294080986e+00 1.9799696889e+00 3.4294080986e+00 
49200 5.8572713434e+00 -7.4598136092e-05 1.9799716387e+00 -3.4294114758e+00 1.9799716387e+00 3.4294114758e+00 
49300 5.8572713469e+00 -7.2033363128e-05 1.9799735225e+00 -3.4294147387e+00 1.9799735225e+00 3.4294147387e+00 
49400 5.8572713504e+00 -6.9520203347e-05 1.9799753416e+00 -3.4294178894e+00 1.9799753416e+00 3.4294178894e+00 
49500 5.8572713538e+00 -6.8097628194e-05 1.9799753416e+00 -3.4294178894e+00 1.9799753416e+00 3.4294178894e+00 
49600 5.8572713572e+00 -6.6701459924e-05 1.9799753416e+00 -3.4294178894e+00 1.9799753416e+00 3.4294178894e+00 
49700 5.8572713605e+00 -6.5334627118e-05 1.9799753416e+00 -3.4294178894e+00 1.9799753416e+00 3.4294178894e+00 
49800 5.8572713637e+00 -6.3999892077e-05 1.9799753416e+00 -3.4294178894e+00 1.9799753416e+00 3.4294178894e+00 
49900 5.8572713668e+00 -6.2699848210e-05 1.9799753416e+00 -3.4294178894e+00 1.9799753416e+00 3.4294178894e+00 
50000 5.8572713698e+00 -6.1436918063e-05 1.9799753416e+00 -3.4294178894e+00 1.9799753416e+00 3.4294178894e+00 
50100 5.8572713727e+00 -6.0213351955e-05 1.9799753416e+00 -3.4294178894e+00 1.9799753416e+00 3.4294178894e+00 
50200 5.8572713756e+00 -5.9031227179e-05 1.9799753416e+00 -3.4294178894e+00 1.9799753416e+00 3.4294178894e+00 
50300 5.8572713784e+00 -5.7892447773e-05 1.9799753416e+00 -3.4294178894e+00 1.9799753416e+00 3.4294178894e+00 
50400 5.8572713811e+00 -5.6798744806e-05 1.9799753416e+00 -3.4294178894e+00 1.9799753416e+00 3.4294178894e+00 
50500 5.8572713837e+00 -5.5751677181e-05 1.9799753416e+00 -3.4294178894e+00 1.9799753416e+00 3.4294178894e+00 
50600 5.8572713863e+00 -5.4752632905e-05 1.9799753416e+00 -3.4294178894e+00 1.9799753416e+00 3.4294178894e+00 
50700 5.8572713888e+00 -5.3802830823e-05 1.9799753416e+00 -3.4294178894e+00 1.9799753416e+00 3.4294178894e+00 
50800 5.8572713913e+00 -5.2903322772e-05 1.9799753416e+00 -3.4294178894e+00 1.9799753416e+00 3.4294178894e+00 
50900 5.8572713937e+00 -5.2054996146e-05 1.9799753416e+00 -3.4294178894e+00 1.9799753416e+00 3.4294178894e+00 
51000 5.8572713961e+00 -5.1258576834e-05 1.9799753416e+00 -3.4294178894e+00 1.9799753416e+00 3.4294178894e+00 
51100 5.8572713984e+00 -5.0514632522e-05 1.9799753416e+00 -3.4294178894e+00 1.9799753416e+00 3.4294178894e+00 
51200 5.8572714007e+00 -4.9823576313e-05 1.9799753416e+00 -3.4294178894e+00 1.9799753416e+00 3.4294178894e+00 
51300 5.8572714029e+00 -4.9185670663e-05 1.9799753416e+00 -3.4294178894e+00 1.9799753416e+00 3.4294178894e+00 
51400 5.8572714052e+00 -4.8601031601e-05 1.9799753416e+00 -3.4294178894e+00 1.9799753416e+00 3.4294178894e+00 
51500 5.8572714073e+00 -4.8069633198e-05 1.9799753416e+00 -3.4294178894e+00 1.9799753416e+00 3.4294178894e+00 
51600 5.8572714095e+00 -4.7591312283e-05 1.9799753416e+00 -3.4294178894e+00 1.9799753416e+00 3.4294178894e+00 
51700 5.8572714116e+00 -4.7165773370e-05 1.9799753416e+00 -3.4294178894e+00 1.9799753416e+00 3.4294178894e+00 
51800 5.8572714137e+00 -4.6792593772e-05 1.9799753416e+00 -3.4294178894e+00 1.9799753416e+00 3.4294178894e+00 
51900 5.8572714158e+00 -4.6471228892e-05 1.9799753416e+00 -3.4294178894e+00 1.9799753416e+00 3.4294178894e+00 
52000 5.8572714178e+00 -4.6201017658e-05 1.9799753416e+00 -3.4294178894e+00 1.9799753416e+00 3.4294178894e+00 
52100 5.8572714198e+00 -4.5981188083e-05 1.9799753416e+00 -3.4294178894e+00 1.9799753416e+00 3.4294178894e+00 
52200 5.8572714218e+00 -4.5810862945e-05 1.9799753416e+00 -3.4294178894e+00 1.9799753416e+00 3.4294178894e+00 
52300 5.8572714238e+00 -4.5689065538e-05 1.9799753416e+00 -3.4294178894e+00 1.9799753416e+00 3.4294178894e+00 
52400 5.8572714258e+00 -4.5614725502e-05 1.9799753416e+00 -3.4294178894e+00 1.9799753416e+00 3.4294178894e+00 
52500 5.8572714277e+00 -4.5586684705e-05 1.9799753416e+00 -3.4294178894e+00 1.9799753416e+00 3.4294178894e+00 
52600 5.8572714296e+00 -4.5603703146e-05 1.9799753416e+00 -3.4294178894e+00 1.9799753416e+00 3.4294178894e+00 
52700 5.8572714315e+00 -4.5664464893e-05 1.9799753416e+00 -3.4294178894e+00 1.9799753416e+00 3.4294178894e+00 
52800 5.8572714334e+00 -4.5767583987e-05 1.9799753416e+00 -3.4294178894e+00 1.9799753416e+00 3.4294178894e+00 
52900 5.8572714353e+00 -4.5911610369e-05 1.9799753416e+00 -3.4294178894e+00 1.9799753416e+00 3.4294178894e+00 
53000 5.8572714371e+00 -4.6095035741e-05 1.9799753416e+00 -3.4294178894e+00 1.9799753416e+00 3.4294178894e+00 
53100 5.8572714389e+00 -4.6316299390e-05 1.9799753416e+00 -3.4294178894e+00 1.9799753416e+00 3.4294178894e+00 
53200 5.8572714408e+00 -4.6573793961e-05 1.9799753416e+00 -3.4294178894e+00 1.9799753416e+00 3.4294178894e+00 
53300 5.8572714426e+00 -4.6865871136e-05 1.9799753416e+00 -3.4294178894e+00 1.9799753416e+00 3.4294178894e+00 
53400 5.8572714443e+00 -4.7190847248e-05 1.9799753416e+00 -3.4294178894e+00 1.9799753416e+00 3.4294178894e+00 
53500 5.8572714461e+00 -4.7547008771e-05 1.9799753416e+00 -3.4294178894e+00 1.9799753416e+00 3.4294178894e+00 
53600 5.8572714478e+00 -4.7932617721e-05 1.9799753416e+00 -3.4294178894e+00 1.9799753416e+00 3.4294178894e+00 
53700 5.8572714495e+00 -4.8345916926e-05 1.9799753416e+00 -3.4294178894e+00 1.9799753416e+00 3.4294178894e+00 
53800 5.8572714512e+00 -4.8785135171e-05 1.9799753416e+00 -3.4294178894e+00 1.9799753416e+00 3.4294178894e+00 
53900 5.8572714529e+00 -4.9248492193e-05 1.9799753416e+00 -3.4294178894e+00 1.9799753416e+00 3.4294178894e+00 
54000 5.8572714545e+00 -4.9734203545e-05 1.9799753416e+00 -3.4294178894e+00 1.9799753416e+00 3.4294178894e+00 
54100 5.8572714561e+00 -5.0240485290e-05 1.9799753416e+00 -3.4294178894e+00 1.9799753416e+00 3.4294178894e+00 
54200 5.8572714577e+00 -5.0765558543e-05 1.9799753416e+00 -3.4294178894e+00 1.9799753416e+00 3.4294178894e+00 
54300 5.8572714593e+00 -5.1307653840e-05 1.9799753416e+00 -3.4294178894e+00 1.9799753416e+00 3.4294178894e+00 
54400 5.8572714608e+00 -5.1865015331e-05 1.9799753416e+00 -3.4294178894e+00 1.9799753416e+00 3.4294178894e+00 
54500 5.8572714624e+00 -5.2435904804e-05 1.9799753416e+00 -3.4294178894e+00 1.9799753416e+00 3.4294178894e+00 
54600 5.8572714639e+00 -5.3018605515e-05 1.9799753416e+00 -3.4294178894e+00 1.9799753416e+00 3.4294178894e+00 
54700 5.8572714653e+00 -5.3611425836e-05 1.9799753416e+00 -3.4294178894e+00 1.9799753416e+00 3.4294178894e+00 
54800 5.8572714668e+00 -5.4212702719e-05 1.9799753416e+00 -3.4294178894e+00 1.9799753416e+00 3.4294178894e+00 
54900 5.8572714682e+00 -5.4820804956e-05 1.9799753416e+00 -3.4294178894e+00 1.9799753416e+00 3.4294178894e+00 
55000 5.8572714696e+00 -5.5434136260e-05 1.9799753416e+00 -3.4294178894e+00 1.9799753416e+00 3.4294178894e+00 
55100 5.8572714710e+00 -5.6051138136e-05 1.9799753416e+00 -3.4294178894e+00 1.9799753416e+00 3.4294178894e+00 
55200 5.8572714723e+00 -5.6670292570e-05 1.9799753416e+00 -3.4294178894e+00 1.9799753416e+00 3.4294178894e+00 
55300 5.8572714736e+00 -5.7290124515e-05 1.9799753416e+00 -3.4294178894e+00 1.9799753416e+00 3.4294178894e+00 
55400 5.8572714749e+00 -5.7909204183e-05 1.9799753416e+00 -3.4294178894e+00 1.9799753416e+00 3.4294178894e+00 
55500 5.8572714762e+00 -5.8526149141e-05 1.9799753416e+00 -3.4294178894e+00 1.9799753416e+00 3.4294178894e+00 
55600 5.8572714774e+00 -5.9139626219e-05 1.9799753416e+00 -3.4294178894e+00 1.9799753416e+00 3.4294178894e+00 
55700 5.8572714787e+00 -5.9748353220e-05 1.9799753416e+00 -3.4294178894e+00 1.9799753416e+00 3.4294178894e+00 
55800 5.8572714799e+00 -6.0351100451e-05 1.9799753416e+00 -3.4294178894e+00 1.9799753416e+00 3.4294178894e+00 
55900 5.8572714810e+00 -6.0946692052e-05 1.9799753416e+00 -3.4294178894e+00 1.9799753416e+00 3.4294178894e+00 
56000 5.8572714822e+00 -6.1534007158e-05 1.9799753416e+00 -3.4294178894e+00 1.9799753416e+00 3.4294178894e+00 
56100 5.8572714833e+00 -6.2111980875e-05 1.9799753416e+00 -3.4294178894e+00 1.9799753416e+00 3.4294178894e+00 
56200 5.8572714844e+00 -6.2679605072e-05 1.9799753416e+00 -3.4294178894e+00 1.9799753416e+00 3.4294178894e+00 
56300 5.8572714855e+00 -6.3235929009e-05 1.9799753416e+00 -3.4294178894e+00 1.9799753416e+00 3.4294178894e+00 
56400 5.8572714865e+00 -6.3780059806e-05 1.9799753416e+00 -3.4294178894e+00 1.9799753416e+00 3.4294178894e+00 
56500 5.8572714876e+00 -6.4311162727e-05 1.9799753416e+00 -3.4294178894e+00 1.9799753416e+00 3.4294178894e+00 
56600 5.8572714886e+00 -6.4828461323e-05 1.9799753416e+00 -3.4294178894e+00 1.9799753416e+00 3.4294178894e+00 
56700 5.8572714896e+00 -6.5331237417e-05 1.9799753416e+00 -3.4294178894e+00 1.9799753416e+00 3.4294178894e+00 
56800 5.8572714906e+00 -6.5818830939e-05 1.9799753416e+00 -3.4294178894e+00 1.9799753416e+00 3.4294178894e+00 
56900 5.8572714915e+00 -6.6290639624e-05 1.9799753416e+00 -3.4294178894e+00 1.9799753416e+00 3.4294178894e+00 
57000 5.8572714924e+00 -6.6746118569e-05 1.9799753416e+00 -3.4294178894e+00 1.9799753416e+00 3.4294178894e+00 
57100 5.8572714934e+00 -6.7184779660e-05 1.9799753416e+00 -3.4294178894e+00 1.9799753416e+00 3.4294178894e+00 
57200 5.8572714943e+00 -6.7606190877e-05 1.9799753416e+00 -3.4294178894e+00 1.9799753416e+00 3.4294178894e+00 
57300 5.8572714952e+00 -6.8009975480e-05 1.9799753416e+00 -3.4294178894e+00 1.9799753416e+00 3.4294178894e+00 
57400 5.8572714960e+00 -6.8395811083e-05 1.9799753416e+00 -3.4294178894e+00 1.9799753416e+00 3.4294178894e+00 
57500 5.8572714969e+00 -6.8763428617e-05 1.9799753416e+00 -3.4294178894e+00 1.9799753416e+00 3.4294178894e+00 
57600 5.8572714977e+00 -6.9112611199e-05 1.9799753416e+00 -3.4294178894e+00 1.9799753416e+00 3.4294178894e+00 
57700 5.8572714985e+00 -6.9443192914e-05 1.9799753416e+00 -3.4294178894e+00 1.9799753416e+00 3.4294178894e+00 
57800 5.8572714994e+00 -6.9755057484e-05 1.9799753416e+00 -3.4294178894e+00 1.9799753416e+00 3.4294178894e+00 
57900 5.8572715001e+00 -7.0048136902e-05 1.9799753416e+00 -3.4294178894e+00 1.9799753416e+00 3.4294178894e+00 
58000 5.8572715009e+00 -7.0322409936e-05 1.9799753416e+00 -3.4294178894e+00 1.9799753416e+00 3.4294178894e+00 
58100 5.8572715017e+00 -7.0577900614e-05 1.9799753416e+00 -3.4294178894e+00 1.9799753416e+00 3.4294178894e+00 
58200 5.8572715025e+00 -7.0814676622e-05 1.9799753416e+00 -3.4294178894e+00 1.9799753416e+00 3.4294178894e+00 
58300 5.8572715031e+00 -6.9976961056e-05 1.9799771299e+00 -3.4294209867e+00 1.9799771299e+00 3.4294209867e+00 
58400 5.8572715038e+00 -7.0169912485e-05 1.9799771299e+00 -3.4294209867e+00 1.9799771299e+00 3.4294209867e+00 
58500 5.8572715045e+00 -7.0344394541e-05 1.9799771299e+00 -3.4294209867e+00 1.9799771299e+00 3.4294209867e+00 
58600 5.8572715052e+00 -7.0500642711e-05 1.9799771299e+00 -3.4294209867e+00 1.9799771299e+00 3.4294209867e+00 
58700 5.8572715059e+00 -7.0638928603e-05 1.9799771299e+00 -3.4294209867e+00 1.9799771299e+00 3.4294209867e+00 
58800 5.8572715066e+00 -7.0759557971e-05 1.9799771299e+00 -3.4294209867e+00 1.9799771299e+00 3.4294209867e+00 
58900 5.8572715072e+00 -6.9807806574e-05 1.9799789167e+00 -3.4294240817e+00 1.9799789167e+00 3.4294240817e+00 
59000 5.8572715079e+00 -6.9887407201e-05 1.9799789167e+00 -3.4294240817e+00 1.9799789167e+00 3.4294240817e+00 
59100 5.8572715085e+00 -6.9950250695e-05 1.9799789167e+00 -3.4294240817e+00 1.9799789167e+00 3.4294240817e+00 
59200 5.8572715092e+00 -6.9996769561e-05 1.9799789167e+00 -3.4294240817e+00 1.9799789167e+00 3.4294240817e+00 
59300 5.8572715098e+00 -7.0027421620e-05 1.9799789167e+00 -3.4294240817e+00 1.9799789167e+00 3.4294240817e+00 
59400 5.8572715104e+00 -7.0042687891e-05 1.9799789167e+00 -3.4294240817e+00 1.9799789167e+00 3.4294240817e+00 
59500 5.8572715111e+00 -7.0043070487e-05 1.9799789167e+00 -3.4294240817e+00 1.9799789167e+00 3.4294240817e+00 
59600 5.8572715117e+00 -7.0029090547e-05 1.9799789167e+00 -3.4294240817e+00 1.9799789167e+00 3.4294240817e+00 
59700 5.8572715123e+00 -7.0001286198e-05 1.9799789167e+00 -3.4294240817e+00 1.9799789167e+00 3.4294240817e+00 
59800 5.8572715129e+00 -6.9960210550e-05 1.9799789167e+00 -3.4294240817e+00 1.9799789167e+00 3.4294240817e+00 
59900 5.8572715135e+00 -6.9906429731e-05 1.9799789167e+00 -3.4294240817e+00 1.9799789167e+00 3.4294240817e+00 
60000 5.8572715140e+00 -6.9840520962e-05 1.9799789167e+00 -3.4294240817e+00 1.9799789167e+00 3.4294240817e+00 
60100 5.8572715146e+00 -6.9763070675e-05 1.9799789167e+00 -3.4294240817e+00 1.9799789167e+00 3.4294240817e+00 
60200 5.8572715152e+00 -6.9674672685e-05 1.9799789167e+00 -3.4294240817e+00 1.9799789167e+00 3.4294240817e+00 
60300 5.8572715157e+00 -6.9575926405e-05 1.9799789167e+00 -3.4294240817e+00 1.9799789167e+00 3.4294240817e+00 
60400 5.8572715163e+00 -6.9467435112e-05 1.9799789167e+00 -3.4294240817e+00 1.9799789167e+00 3.4294240817e+00 
60500 5.8572715168e+00 -6.9349804278e-05 1.9799789167e+00 -3.4294240817e+00 1.9799789167e+00 3.4294240817e+00 
60600 5.8572715173e+00 -6.9223639945e-05 1.9799789167e+00 -3.4294240817e+00 1.9799789167e+00 3.4294240817e+00 
60700 5.8572715178e+00 -6.9089547167e-05 1.9799789167e+00 -3.4294240817e+00 1.9799789167e+00 3.4294240817e+00 
60800 5.8572715184e+00 -6.8948128506e-05 1.9799789167e+00 -3.4294240817e+00 1.9799789167e+00 3.4294240817e+00 
60900 5.8572715189e+00 -6.8799982599e-05 1.9799789167e+00 -3.4294240817e+00 1.9799789167e+00 3.4294240817e+00 
61000 5.8572715193e+00 -6.8645702776e-05 1.9799789167e+00 -3.4294240817e+00 1.9799789167e+00 3.4294240817e+00 
61100 5.8572715198e+00 -6.8485875752e-05 1.9799789167e+00 -3.4294240817e+00 1.9799789167e+00 3.4294240817e+00 
61200 5.8572715203e+00 -6.8321080376e-05 1.9799789167e+00 -3.4294240817e+00 1.9799789167e+00 3.4294240817e+00 
61300 5.8572715208e+00 -6.8151886450e-05 1.9799789167e+00 -3.4294240817e+00 1.9799789167e+00 3.4294240817e+00 
61400 5.8572715212e+00 -6.7978853617e-05 1.9799789167e+00 -3.4294240817e+00 1.9799789167e+00 3.4294240817e+00 
61500 5.8572715217e+00 -6.7802530310e-05 1.9799789167e+00 -3.4294240817e+00 1.9799789167e+00 3.4294240817e+00 
61600 5.8572715221e+00 -6.7623452766e-05 1.9799789167e+00 -3.4294240817e+00 1.9799789167e+00 3.4294240817e+00 
61700 5.8572715226e+00 -6.7442144116e-05 1.9799789167e+00 -3.4294240817e+00 1.9799789167e+00 3.4294240817e+00 
61800 5.8572715230e+00 -6.7259113533e-05 1.9799789167e+00 -3.4294240817e+00 1.9799789167e+00 3.4294240817e+00 
61900 5.8572715234e+00 -6.7074855449e-05 1.9799789167e+00 -3.4294240817e+00 1.9799789167e+00 3.4294240817e+00 
62000 5.8572715238e+00 -6.6889848840e-05 1.9799789167e+00 -3.4294240817e+00 1.9799789167e+00 3.4294240817e+00 
62100 5.8572715243e+00 -6.6704556573e-05 1.9799789167e+00 -3.4294240817e+00 1.9799789167e+00 3.4294240817e+00 
62200 5.8572715247e+00 -6.6519424818e-05 1.9799789167e+00 -3.4294240817e+00 1.9799789167e+00 3.4294240817e+00 
62300 5.8572715251e+00 -6.6334882531e-05 1.9799789167e+00 -3.4294240817e+00 1.9799789167e+00 3.4294240817e+00 
62400 5.8572715254e+00 -6.6151340983e-05 1.9799789167e+00 -3.4294240817e+00 1.9799789167e+00 3.4294240817e+00 
62500 5.8572715258e+00 -6.5969193371e-05 1.9799789167e+00 -3.4294240817e+00 1.9799789167e+00 3.4294240817e+00 
62600 5.8572715262e+00 -6.5788814475e-05 1.9799789167e+00 -3.4294240817e+00 1.9799789167e+00 3.4294240817e+00 
62700 5.8572715266e+00 -6.5610560374e-05 1.9799789167e+00 -3.4294240817e+00 1.9799789167e+00 3.4294240817e+00 
62800 5.8572715269e+00 -6.5434768234e-05 1.9799789167e+00 -3.4294240817e+00 1.9799789167e+00 3.4294240817e+00 
62900 5.8572715273e+00 -6.5261756135e-05 1.9799789167e+00 -3.4294240817e+00 1.9799789167e+00 3.4294240817e+00 
63000 5.8572715276e+00 -6.5091822966e-05 1.9799789167e+00 -3.4294240817e+00 1.9799789167e+00 3.4294240817e+00 
63100 5.8572715280e+00 -6.4925248356e-05 1.9799789167e+00 -3.4294240817e+00 1.9799789167e+00 3.4294240817e+00 
63200 5.8572715283e+00 -6.4762292679e-05 1.9799789167e+00 -3.4294240817e+00 1.9799789167e+00 3.4294240817e+00 
63300 5.8572715286e+00 -6.4603197089e-05 1.9799789167e+00 -3.4294240817e+00 1.9799789167e+00 3.4294240817e+00 
63400 5.8572715290e+00 -6.4448183614e-05 1.9799789167e+00 -3.4294240817e+00 1.9799789167e+00 3.4294240817e+00 
63500 5.8572715293e+00 -6.4297455283e-05 1.9799789167e+00 -3.4294240817e+00 1.9799789167e+00 3.4294240817e+00 
63600 5.8572715296e+00 -6.4151196316e-05 1.9799789167e+00 -3.4294240817e+00 1.9799789167e+00 3.4294240817e+00 
63700 5.8572715299e+00 -6.4009572332e-05 1.9799789167e+00 -3.4294240817e+00 1.9799789167e+00 3.4294240817e+00 
63800 5.8572715302e+00 -6.3872730620e-05 1.9799789167e+00 -3.4294240817e+00 1.9799789167e+00 3.4294240817e+00 
63900 5.8572715305e+00 -6.3740800424e-05 1.9799789167e+00 -3.4294240817e+00 1.9799789167e+00 3.4294240817e+00 
64000 5.8572715308e+00 -6.3613893288e-05 1.9799789167e+00 -3.4294240817e+00 1.9799789167e+00 3.4294240817e+00 
64100 5.8572715311e+00 -6.3492103408e-05 1.9799789167e+00 -3.4294240817e+00 1.9799789167e+00 3.4294240817e+00 
64200 5.8572715314e+00 -6.3375508038e-05 1.9799789167e+00 -3.4294240817e+00 1.9799789167e+00 3.4294240817e+00 
64300 5.8572715316e+00 -6.3264167912e-05 1.9799789167e+00 -3.4294240817e+00 1.9799789167e+00 3.4294240817e+00 
64400 5.8572715319e+00 -6.3158127694e-05 1.9799789167e+00 -3.4294240817e+00 1.9799789167e+00 3.4294240817e+00 
64500 5.8572715322e+00 -6.3057416458e-05 1.9799789167e+00 -3.4294240817e+00 1.9799789167e+00 3.4294240817e+00 
64600 5.8572715325e+00 -6.2962048187e-05 1.9799789167e+00 -3.4294240817e+00 1.9799789167e+00 3.4294240817e+00 
64700 5.8572715327e+00 -6.2872022289e-05 1.9799789167e+00 -3.4294240817e+00 1.9799789167e+00 3.4294240817e+00 
64800 5.8572715330e+00 -6.2787324139e-05 1.9799789167e+00 -3.4294240817e+00 1.9799789167e+00 3.4294240817e+00 
64900 5.8572715332e+00 -6.2707925636e-05 1.9799789167e+00 -3.4294240817e+00 1.9799789167e+00 3.4294240817e+00 
65000 5.8572715335e+00 -6.2633785762e-05 1.9799789167e+00 -3.4294240817e+00 1.9799789167e+00 3.4294240817e+00 
65100 5.8572715337e+00 -6.2564851178e-05 1.9799789167e+00 -3.4294240817e+00 1.9799789167e+00 3.4294240817e+00 
65200 5.8572715340e+00 -6.2501056805e-05 1.9799789167e+00 -3.4294240817e+00 1.9799789167e+00 3.4294240817e+00 
65300 5.8572715342e+00 -6.2442326428e-05 1.9799789167e+00 -3.4294240817e+00 1.9799789167e+00 3.4294240817e+00 
65400 5.8572715344e+00 -6.2388573307e-05 1.9799789167e+00 -3.4294240817e+00 1.9799789167e+00 3.4294240817e+00 
65500 5.8572715347e+00 -6.2339700784e-05 1.9799789167e+00 -3.4294240817e+00 1.9799789167e+00 3.4294240817e+00 
65600 5.8572715349e+00 -6.2295602903e-05 1.9799789167e+00 -3.4294240817e+00 1.9799789167e+00 3.4294240817e+00 
65700 5.8572715351e+00 -6.2256165025e-05 1.9799789167e+00 -3.4294240817e+00 1.9799789167e+00 3.4294240817e+00 
65800 5.8572715353e+00 -6.2221264449e-05 1.9799789167e+00 -3.4294240817e+00 1.9799789167e+00 3.4294240817e+00 
65900 5.8572715356e+00 -6.2190771026e-05 1.9799789167e+00 -3.4294240817e+00 1.9799789167e+00 3.4294240817e+00 
66000 5.8572715358e+00 -6.2164547766e-05 1.9799789167e+00 -3.4294240817e+00 1.9799789167e+00 3.4294240817e+00 
66100 5.8572715360e+00 -6.2142451455e-05 1.9799789167e+00 -3.4294240817e+00 1.9799789167e+00 3.4294240817e+00 
66200 5.8572715362e+00 -6.2124333256e-05 1.9799789167e+00 -3.4294240817e+00 1.9799789167e+00 3.4294240817e+00 
66300 5.8572715364e+00 -6.2110039294e-05 1.9799789167e+00 -3.4294240817e+00 1.9799789167e+00 3.4294240817e+00 
66400 5.8572715366e+00 -6.2099411256e-05 1.9799789167e+00 -3.4294240817e+00 1.9799789167e+00 3.4294240817e+00 
66500 5.8572715368e+00 -6.2092286958e-05 1.9799789167e+00 -3.4294240817e+00 1.9799789167e+00 3.4294240817e+00 
66600 5.8572715370e+00 -6.2088500914e-05 1.9799789167e+00 -3.4294240817e+00 1.9799789167e+00 3.4294240817e+00 
66700 5.8572715372e+00 -6.2087884889e-05 1.9799789167e+00 -3.4294240817e+00 1.9799789167e+00 3.4294240817e+00 
66800 5.8572715374e+00 -6.2090268440e-05 1.9799789167e+00 -3.4294240817e+00 1.9799789167e+00 3.4294240817e+00 
66900 5.8572715375e+00 -6.2095479443e-05 1.9799789167e+00 -3.4294240817e+00 1.9799789167e+00 3.4294240817e+00 
67000 5.8572715377e+00 -6.2103344604e-05 1.9799789167e+00 -3.4294240817e+00 1.9799789167e+00 3.4294240817e+00 
67100 5.8572715379e+00 -6.2113689959e-05 1.9799789167e+00 -3.4294240817e+00 1.9799789167e+00 3.4294240817e+00 
67200 5.8572715381e+00 -6.2126341351e-05 1.9799789167e+00 -3.4294240817e+00 1.9799789167e+00 3.4294240817e+00 
67300 5.8572715383e+00 -6.2141124895e-05 1.9799789167e+00 -3.4294240817e+00 1.9799789167e+00 3.4294240817e+00 
67400 5.8572715384e+00 -6.2157867425e-05 1.9799789167e+00 -3.4294240817e+00 1.9799789167e+00 3.4294240817e+00 
67500 5.8572715386e+00 -6.2176396922e-05 1.9799789167e+00 -3.4294240817e+00 1.9799789167e+00 3.4294240817e+00 
67600 5.8572715388e+00 -6.2196542921e-05 1.9799789167e+00 -3.4294240817e+00 1.9799789167e+00 3.4294240817e+00 
67700 5.8572715389e+00 -6.2218136908e-05 1.9799789167e+00 -3.4294240817e+00 1.9799789167e+00 3.4294240817e+00 
67800 5.8572715391e+00 -6.2241012684e-05 1.9799789167e+00 -3.4294240817e+00 1.9799789167e+00 3.4294240817e+00 
67900 5.8572715392e+00 -6.2265006730e-05 1.9799789167e+00 -3.4294240817e+00 1.9799789167e+00 3.4294240817e+00 
68000 5.8572715394e+00 -6.2289958522e-05 1.9799789167e+00 -3.4294240817e+00 1.9799789167e+00 3.4294240817e+00 
68100 5.8572715396e+00 -6.2315710862e-05 1.9799789167e+00 -3.4294240817e+00 1.9799789167e+00 3.4294240817e+00 
68200 5.8572715397e+00 -6.2342110161e-05 1.9799789167e+00 -3.4294240817e+00 1.9799789167e+00 3.4294240817e+00 
68300 5.8572715399e+00 -6.2369006712e-05 1.9799789167e+00 -3.4294240817e+00 1.9799789167e+00 3.4294240817e+00 
68400 5.8572715400e+00 -6.2396254955e-05 1.9799789167e+00 -3.4294240817e+00 1.9799789167e+00 3.4294240817e+00 
68500 5.8572715401e+00 -6.2423713693e-05 1.9799789167e+00 -3.4294240817e+00 1.9799789167e+00 3.4294240817e+00 
68600 5.8572715403e+00 -6.2451246318e-05 1.9799789167e+00 -3.4294240817e+00 1.9799789167e+00 3.4294240817e+00 
68700 5.8572715404e+00 -6.2478721007e-05 1.9799789167e+00 -3.4294240817e+00 1.9799789167e+00 3.4294240817e+00 
68800 5.8572715406e+00 -6.2506010886e-05 1.9799789167e+00 -3.4294240817e+00 1.9799789167e+00 3.4294240817e+00 
68900 5.8572715407e+00 -6.2532994199e-05 1.9799789167e+00 -3.4294240817e+00 1.9799789167e+00 3.4294240817e+00 
69000 5.8572715408e+00 -6.2559554435e-05 1.9799789167e+00 -3.4294240817e+00 1.9799789167e+00 3.4294240817e+00 
69100 5.8572715410e+00 -6.2585580451e-05 1.9799789167e+00 -3.4294240817e+00 1.9799789167e+00 3.4294240817e+00 
69200 5.8572715411e+00 -6.2610966571e-05 1.9799789167e+00 -3.4294240817e+00 1.9799789167e+00 3.4294240817e+00 
69300 5.8572715412e+00 -6.2635612675e-05 1.9799789167e+00 -3.4294240817e+00 1.9799789167e+00 3.4294240817e+00 
69400 5.8572715413e+00 -6.2659424251e-05 1.9799789167e+00 -3.4294240817e+00 1.9799789167e+00 3.4294240817e+00 
69500 5.8572715415e+00 -6.2682312453e-05 1.9799789167e+00 -3.4294240817e+00 1.9799789167e+00 3.4294240817e+00 
69600 5.8572715416e+00 -6.2704194135e-05 1.9799789167e+00 -3.4294240817e+00 1.9799789167e+00 3.4294240817e+00 
69700 5.8572715417e+00 -6.2724991860e-05 1.9799789167e+00 -3.4294240817e+00 1.9799789167e+00 3.4294240817e+00 
69800 5.8572715418e+00 -6.2744633905e-05 1.9799789167e+00 -3.4294240817e+00 1.9799789167e+00 3.4294240817e+00 
69900 5.8572715419e+00 -6.2763054243e-05 1.9799789167e+00 -3.4294240817e+00 1.9799789167e+00 3.4294240817e+00 
70000 5.8572715420e+00 -6.2780192522e-05 1.9799789167e+00 -3.4294240817e+00 1.9799789167e+00 3.4294240817e+00 
70100 5.8572715422e+00 -6.2795994014e-05 1.9799789167e+00 -3.4294240817e+00 1.9799789167e+00 3.4294240817e+00 
70200 5.8572715423e+00 -6.2810409565e-05 1.9799789167e+00 -3.4294240817e+00 1.9799789167e+00 3.4294240817e+00 
70300 5.8572715424e+00 -6.2823395531e-05 1.9799789167e+00 -3.4294240817e+00 1.9799789167e+00 3.4294240817e+00 
70400 5.8572715425e+00 -6.2834913685e-05 1.9799789167e+00 -3.4294240817e+00 1.9799789167e+00 3.4294240817e+00 
70500 5.8572715426e+00 -6.2844931140e-05 1.9799789167e+00 -3.4294240817e+00 1.9799789167e+00 3.4294240817e+00 
70600 5.8572715427e+00 -6.2853420243e-05 1.9799789167e+00 -3.4294240817e+00 1.9799789167e+00 3.4294240817e+00 
70700 5.8572715428e+00 -6.2860358459e-05 1.9799789167e+00 -3.4294240817e+00 1.9799789167e+00 3.4294240817e+00 
70800 5.8572715429e+00 -6.2865728261e-05 1.9799789167e+00 -3.4294240817e+00 1.9799789167e+00 3.4294240817e+00 
70900 5.8572715430e+00 -6.2869516987e-05 1.9799789167e+00 -3.4294240817e+00 1.9799789167e+00 3.4294240817e+00 
71000 5.8572715431e+00 -6.2871716712e-05 1.9799789167e+00 -3.4294240817e+00 1.9799789167e+00 3.4294240817e+00 
71100 5.8572715432e+00 -6.2872324103e-05 1.9799789167e+00 -3.4294240817e+00 1.9799789167e+00 3.4294240817e+00 
71200 5.8572715433e+00 -6.2871340263e-05 1.9799789167e+00 -3.4294240817e+00 1.9799789167e+00 3.4294240817e+00 
71300 5.8572715434e+00 -6.2868770574e-05 1.9799789167e+00 -3.4294240817e+00 1.9799789167e+00 3.4294240817e+00 
71400 5.8572715435e+00 -6.2864624541e-05 1.9799789167e+00 -3.4294240817e+00 1.9799789167e+00 3.4294240817e+00 
71500 5.8572715435e+00 -6.2858915609e-05 1.9799789167e+00 -3.4294240817e+00 1.9799789167e+00 3.4294240817e+00 
71600 5.8572715436e+00 -6.2851661008e-05 1.9799789167e+00 -3.4294240817e+00 1.9799789167e+00 3.4294240817e+00 
71700 5.8572715437e+00 -6.2842881563e-05 1.9799789167e+00 -3.4294240817e+00 1.9799789167e+00 3.4294240817e+00 
71800 5.8572715438e+00 -6.2832601524e-05 1.9799789167e+00 -3.4294240817e+00 1.9799789167e+00 3.4294240817e+00 
71900 5.8572715439e+00 -6.2820848381e-05 1.9799789167e+00 -3.4294240817e+00 1.9799789167e+00 3.4294240817e+00 
72000 5.8572715440e+00 -6.2807652677e-05 1.9799789167e+00 -3.4294240817e+00 1.9799789167e+00 3.4294240817e+00 
72100 5.8572715440e+00 -6.2793047827e-05 1.9799789167e+00 -3.4294240817e+00 1.9799789167e+00 3.4294240817e+00 
72200 5.8572715441e+00 -6.2777069934e-05 1.9799789167e+00 -3.4294240817e+00 1.9799789167e+00 3.4294240817e+00 
72300 5.8572715442e+00 -6.2759757594e-05 1.9799789167e+00 -3.4294240817e+00 1.9799789167e+00 3.4294240817e+00 
72400 5.8572715443e+00 -6.2741151719e-05 1.9799789167e+00 -3.4294240817e+00 1.9799789167e+00 3.4294240817e+00 
72500 5.8572715444e+00 -6.2721295348e-05 1.9799789167e+00 -3.4294240817e+00 1.9799789167e+00 3.4294240817e+00 
72600 5.8572715444e+00 -6.2700233460e-05 1.9799789167e+00 -3.4294240817e+00 1.9799789167e+00 3.4294240817e+00 
72700 5.8572715445e+00 -6.2678012795e-05 1.9799789167e+00 -3.4294240817e+00 1.9799789167e+00 3.4294240817e+00 
72800 5.8572715446e+00 -6.2654681667e-05 1.9799789167e+00 -3.4294240817e+00 1.9799789167e+00 3.4294240817e+00 
72900 5.8572715447e+00 -6.2630289790e-05 1.9799789167e+00 -3.4294240817e+00 1.9799789167e+00 3.4294240817e+00 
73000 5.8572715447e+00 -6.2604888102e-05 1.9799789167e+00 -3.4294240817e+00 1.9799789167e+00 3.4294240817e+00 
73100 5.8572715448e+00 -6.2578528587e-05 1.9799789167e+00 -3.4294240817e+00 1.9799789167e+00 3.4294240817e+00 
73200 5.8572715449e+00 -6.2551264107e-05 1.9799789167e+00 -3.4294240817e+00 1.9799789167e+00 3.4294240817e+00 
73300 5.8572715449e+00 -6.2523148241e-05 1.9799789167e+00 -3.4294240817e+00 1.9799789167e+00 3.4294240817e+00 
73400 5.8572715450e+00 -6.2494235115e-05 1.9799789167e+00 -3.4294240817e+00 1.9799789167e+00 3.4294240817e+00 
73500 5.8572715451e+00 -6.2464579249e-05 1.9799789167e+00 -3.4294240817e+00 1.9799789167e+00 3.4294240817e+00 
73600 5.8572715451e+00 -6.2434235400e-05 1.9799789167e+00 -3.4294240817e+00 1.9799789167e+00 3.4294240817e+00 
73700 5.8572715452e+00 -6.2403258417e-05 1.9799789167e+00 -3.4294240817e+00 1.9799789167e+00 3.4294240817e+00 
73800 5.8572715453e+00 -6.2371703094e-05 1.9799789167e+00 -3.4294240817e+00 1.9799789167e+00 3.4294240817e+00 
73900 5.8572715453e+00 -6.2339624038e-05 1.9799789167e+00 -3.4294240817e+00 1.9799789167e+00 3.4294240817e+00 
74000 5.8572715454e+00 -6.2307075523e-05 1.9799789167e+00 -3.4294240817e+00 1.9799789167e+00 3.4294240817e+00 
74100 5.8572715454e+00 -6.2274111377e-05 1.9799789167e+00 -3.4294240817e+00 1.9799789167e+00 3.4294240817e+00 
74200 5.8572715455e+00 -6.2240784849e-05 1.9799789167e+00 -3.4294240817e+00 1.9799789167e+00 3.4294240817e+00 
74300 5.8572715456e+00 -6.2207148499e-05 1.9799789167e+00 -3.4294240817e+00 1.9799789167e+00 3.4294240817e+00 
74400 5.8572715456e+00 -6.2173254084e-05 1.9799789167e+00 -3.4294240817e+00 1.9799789167e+00 3.4294240817e+00 
74500 5.8572715457e+00 -6.2139152455e-05 1.9799789167e+00 -3.4294240817e+00 1.9799789167e+00 3.4294240817e+00 
74600 5.8572715457e+00 -6.2104893458e-05 1.9799789167e+00 -3.4294240817e+00 1.9799789167e+00 3.4294240817e+00 
74700 5.8572715458e+00 -6.2070525842e-05 1.9799789167e+00 -3.4294240817e+00 1.9799789167e+00 3.4294240817e+00 
74800 5.8572715458e+00 -6.2036097173e-05 1.9799789167e+00 -3.4294240817e+00 1.9799789167e+00 3.4294240817e+00 
74900 5.8572715459e+00 -6.2001653750e-05 1.9799789167e+00 -3.4294240817e+00 1.9799789167e+00 3.4294240817e+00 
75000 5.8572715459e+00 -6.1967240536e-05 1.9799789167e+00 -3.4294240817e+00 1.9799789167e+00 3.4294240817e+00 
75100 5.8572715460e+00 -6.1932901085e-05 1.9799789167e+00 -3.4294240817e+00 1.9799789167e+00 3.4294240817e+00 
75200 5.8572715460e+00 -6.1898677481e-05 1.9799789167e+00 -3.4294240817e+00 1.9799789167e+00 3.4294240817e+00 
75300 5.8572715461e+00 -6.1864610284e-05 1.9799789167e+00 -3.4294240817e+00 1.9799789167e+00 3.4294240817e+00 
75400 5.8572715461e+00 -6.1830738477e-05 1.9799789167e+00 -3.4294240817e+00 1.9799789167e+00 3.4294240817e+00 
75500 5.8572715462e+00 -6.1810899392e-05 1.9799789167e+00 -3.4294240817e+00 1.9799789167e+00 3.4294240817e+00 
75500 5.8572715462e+00 -6.1810899392e-05 1.9799789167e+00 -3.4294240817e+00 1.9799789167e+00 3.4294240817e+00 
