# step Hamiltonian StressXX CellTensor1 CellTensor2 CellTensor3 CellTensor4 
0 6.2727212691e+00 -1.7961490388e-01 1.7865676565e+00 -3.0944259522e+00 1.7865676565e+00 3.0944259522e+00 
100 6.2612768724e+00 -1.7837170440e-01 1.7865676565e+00 -3.0944259522e+00 1.7865676565e+00 3.0944259522e+00 
200 6.2494731265e+00 -1.7459359581e-01 1.7915619969e+00 -3.1030764035e+00 1.7915619969e+00 3.1030764035e+00 
300 6.2384585055e+00 -1.7122860109e-01 1.7964368638e+00 -3.1115199206e+00 1.7964368638e+00 3.1115199206e+00 
400 6.2283094861e+00 -1.6820426108e-01 1.8012047494e+00 -3.1197781407e+00 1.8012047494e+00 3.1197781407e+00 
500 6.2190777805e+00 -1.6546543589e-01 1.8058759769e+00 -3.1278689442e+00 1.8058759769e+00 3.1278689442e+00 
600 6.2107940458e+00 -1.6297002468e-01 1.8104592158e+00 -3.1358073468e+00 1.8104592158e+00 3.1358073468e+00 
700 6.2034705951e+00 -1.6068605221e-01 1.8149618685e+00 -3.1436061700e+00 1.8149618685e+00 3.1436061700e+00 
800 6.1971035467e+00 -1.5858959319e-01 1.8193903696e+00 -3.1512765589e+00 1.8193903696e+00 3.1512765589e+00 
900 6.1916746703e+00 -1.5666321782e-01 1.8237504223e+00 -3.1588283917e+00 1.8237504223e+00 3.1588283917e+00 
1000 6.1871530779e+00 -1.5489476844e-01 1.8280471880e+00 -3.1662706083e+00 1.8280471880e+00 3.1662706083e+00 
1100 6.1834968425e+00 -1.5327635372e-01 1.8322854391e+00 -3.1736114745e+00 1.8322854391e+00 3.1736114745e+00 
1200 6.1806545831e+00 -1.5180349274e-01 1.8364696817e+00 -3.1808587953e+00 1.8364696817e+00 3.1808587953e+00 
1300 6.1785670276e+00 -1.5047436983e-01 1.8406042532e+00 -3.1880200832e+00 1.8406042532e+00 3.1880200832e+00 
1400 6.1771685535e+00 -1.4928917726e-01 1.8446933979e+00 -3.1951026896e+00 1.8446933979e+00 3.1951026896e+00 
1500 6.1763886925e+00 -1.4824953312e-01 1.8487413236e+00 -3.2021139026e+00 1.8487413236e+00 3.2021139026e+00 
1600 6.1761535857e+00 -1.4735796711e-01 1.8527522418e+00 -3.2090610166e+00 1.8527522418e+00 3.2090610166e+00 
1700 6.1763873708e+00 -1.4661746981e-01 1.8567303929e+00 -3.2159513765e+00 1.8567303929e+00 3.2159513765e+00 
1800 6.1770134862e+00 -1.4603110267e-01 1.8606800596e+00 -3.2227923999e+00 1.8606800596e+00 3.2227923999e+00 
1900 6.1779558771e+00 -1.4560166619e-01 1.8646055685e+00 -3.2295915808e+00 1.8646055685e+00 3.2295915808e+00 
2000 6.1791400917e+00 -1.4533142405e-01 1.8685112839e+00 -3.2363564783e+00 1.8685112839e+00 3.2363564783e+00 
2100 6.1804942580e+00 -1.4522188036e-01 1.8724015931e+00 -3.2430946915e+00 1.8724015931e+00 3.2430946915e+00 
2200 6.1819499357e+00 -1.4527360717e-01 1.8762808866e+00 -3.2498138248e+00 1.8762808866e+00 3.2498138248e+00 
2300 6.1834428390e+00 -1.4548611879e-01 1.8801535333e+00 -3.2565214458e+00 1.8801535333e+00 3.2565214458e+00 
2400 6.1849134304e+00 -1.4585778922e-01 1.8840238533e+00 -3.2632250365e+00 1.8840238533e+00 3.2632250365e+00 
2500 6.1863073875e+00 -1.4638580854e-01 1.8878960875e+00 -3.2699319429e+00 1.8878960875e+00 3.2699319429e+00 
2600 6.1875759474e+00 -1.4706617417e-01 1.8917743679e+00 -3.2766493217e+00 1.8917743679e+00 3.2766493217e+00 
2700 6.1886761336e+00 -1.4789371243e-01 1.8956626866e+00 -3.2833840872e+00 1.8956626866e+00 3.2833840872e+00 
2800 6.1895708760e+00 -1.4886212603e-01 1.8995648663e+00 -3.2901428608e+00 1.8995648663e+00 3.2901428608e+00 
2900 6.1902290297e+00 -1.4996406315e-01 1.9034845324e+00 -3.2969319215e+00 1.9034845324e+00 3.2969319215e+00 
3000 6.1906253055e+00 -1.5119120373e-01 1.9074250866e+00 -3.3037571617e+00 1.9074250866e+00 3.3037571617e+00 
3100 6.1907401217e+00 -1.5253435890e-01 1.9113896841e+00 -3.3106240459e+00 1.9113896841e+00 3.3106240459e+00 
3200 6.1905593868e+00 -1.5398357980e-01 1.9153812123e+00 -3.3175375756e+00 1.9153812123e+00 3.3175375756e+00 
3300 6.1900742266e+00 -1.5552827225e-01 1.9194022742e+00 -3.3245022590e+00 1.9194022742e+00 3.3245022590e+00 
3400 6.1892806637e+00 -1.5715731410e-01 1.9234551732e+00 -3.3315220860e+00 1.9234551732e+00 3.3315220860e+00 
3500 6.1881792614e+00 -1.5885917252e-01 1.9275419029e+00 -3.3386005095e+00 1.9275419029e+00 3.3386005095e+00 
3600 6.1867747404e+00 -1.6062201888e-01 1.9316641389e+00 -3.3457404318e+00 1.9316641389e+00 3.3457404318e+00 
3700 6.1850755774e+00 -1.6243383921e-01 1.9358232345e+00 -3.3529441966e+00 1.9358232345e+00 3.3529441966e+00 
3800 6.1830935947e+00 -1.6428253862e-01 1.9400202185e+00 -3.3602135862e+00 1.9400202185e+00 3.3602135862e+00 
3900 6.1808435457e+00 -1.6615603860e-01 1.9442557972e+00 -3.3675498237e+00 1.9442557972e+00 3.3675498237e+00 
4000 6.1783427047e+00 -1.6804236614e-01 1.9485303574e+00 -3.3749535791e+00 1.9485303574e+00 3.3749535791e+00 
4100 6.1756104650e+00 -1.6992973420e-01 1.9528439727e+00 -3.3824249800e+00 1.9528439727e+00 3.3824249800e+00 
4200 6.1726679500e+00 -1.7180661325e-01 1.9571964119e+00 -3.3899636258e+00 1.9571964119e+00 3.3899636258e+00 
4300 6.1695376420e+00 -1.7366179376e-01 1.9615871486e+00 -3.3975686049e+00 1.9615871486e+00 3.3975686049e+00 
4400 6.1662430294e+00 -1.7548443983e-01 1.9660153730e+00 -3.4052385145e+00 1.9660153730e+00 3.4052385145e+00 
4500 6.1628082767e+00 -1.7726413426e-01 1.9704800045e+00 -3.4129714831e+00 1.9704800045e+00 3.4129714831e+00 
4600 6.1592579176e+00 -1.7899091543e-01 1.9749797056e+00 -3.4207651940e+00 1.9749797056e+00 3.4207651940e+00 
4700 6.1556165718e+00 -1.8065530668e-01 1.9795128966e+00 -3.4286169112e+00 1.9795128966e+00 3.4286169112e+00 
4800 6.1519086876e+00 -1.8224833859e-01 1.9840777710e+00 -3.4365235055e+00 1.9840777710e+00 3.4365235055e+00 
4900 6.1481583086e+00 -1.8376156503e-01 1.9886723109e+00 -3.4444814820e+00 1.9886723109e+00 3.4444814820e+00 
5000 6.1443888648e+00 -1.8518707340e-01 1.9932943030e+00 -3.4524870072e+00 1.9932943030e+00 3.4524870072e+00 
5100 6.1406229883e+00 -1.8651748999e-01 1.9979413547e+00 -3.4605359368e+00 1.9979413547e+00 3.4605359368e+00 
5200 6.1368823513e+00 -1.8774598095e-01 2.0026109098e+00 -3.4686238436e+00 2.0026109098e+00 3.4686238436e+00 
5300 6.1331875266e+00 -1.8886624953e-01 2.0073002644e+00 -3.4767460440e+00 2.0073002644e+00 3.4767460440e+00 
5400 6.1295578688e+00 -1.8987253031e-01 2.0120065820e+00 -3.4848976252e+00 2.0120065820e+00 3.4848976252e+00 
5500 6.1260114159e+00 -1.9075958087e-01 2.0167269088e+00 -3.4930734710e+00 2.0167269088e+00 3.4930734710e+00 
5600 6.1225648085e+00 -1.9152267148e-01 2.0214581880e+00 -3.5012682871e+00 2.0214581880e+00 3.5012682871e+00 
5700 6.1192332266e+00 -1.9215757330e-01 2.0261972745e+00 -3.5094766255e+00 2.0261972745e+00 3.5094766255e+00 
5800 6.1160303425e+00 -1.9266054555e-01 2.0309409475e+00 -3.5176929083e+00 2.0309409475e+00 3.5176929083e+00 
5900 6.1129682880e+00 -1.9302832193e-01 2.0356859245e+00 -3.5259114495e+00 2.0356859245e+00 3.5259114495e+00 
6000 6.1100576355e+00 -1.9325809685e-01 2.0404288731e+00 -3.5341264775e+00 2.0404288731e+00 3.5341264775e+00 
6100 6.1073073911e+00 -1.9334751152e-01 2.0451664233e+00 -3.5423321550e+00 2.0451664233e+00 3.5423321550e+00 
6200 6.1047249988e+00 -1.9329464038e-01 2.0498951783e+00 -3.5505225990e+00 2.0498951783e+00 3.5505225990e+00 
6300 6.1023163552e+00 -1.9309797789e-01 2.0546117259e+00 -3.5586918991e+00 2.0546117259e+00 3.5586918991e+00 
6400 6.1000858336e+00 -1.9275642608e-01 2.0593126486e+00 -3.5668341360e+00 2.0593126486e+00 3.5668341360e+00 
6500 6.0980363159e+00 -1.9226928280e-01 2.0639945329e+00 -3.5749433975e+00 2.0639945329e+00 3.5749433975e+00 
6600 6.0961692326e+00 -1.9163623089e-01 2.0686539792e+00 -3.5830137953e+00 2.0686539792e+00 3.5830137953e+00 
6700 6.0944846095e+00 -1.9085732828e-01 2.0732876103e+00 -3.5910394797e+00 2.0732876103e+00 3.5910394797e+00 
6800 6.0929811210e+00 -1.8993299916e-01 2.0778920797e+00 -3.5990146547e+00 2.0778920797e+00 3.5990146547e+00 
6900 6.0916561482e+00 -1.8886402611e-01 2.0824640802e+00 -3.6069335919e+00 2.0824640802e+00 3.6069335919e+00 
7000 6.0905058434e+00 -1.8765154322e-01 2.0870003510e+00 -3.6147906434e+00 2.0870003510e+00 3.6147906434e+00 
7100 6.0895251983e+00 -1.8629703024e-01 2.0914976855e+00 -3.6225802551e+00 2.0914976855e+00 3.6225802551e+00 
7200 6.0887081171e+00 -1.8480230745e-01 2.0959529380e+00 -3.6302969789e+00 2.0959529380e+00 3.6302969789e+00 
7300 6.0880474931e+00 -1.8316953150e-01 2.1003630312e+00 -3.6379354844e+00 2.1003630312e+00 3.6379354844e+00 
7400 6.0875352899e+00 -1.8140119165e-01 2.1047249623e+00 -3.6454905707e+00 2.1047249623e+00 3.6454905707e+00 
7500 6.0871626247e+00 -1.7950010674e-01 2.1090358098e+00 -3.6529571776e+00 2.1090358098e+00 3.6529571776e+00 
7600 6.0869198554e+00 -1.7746942227e-01 2.1132927397e+00 -3.6603303964e+00 2.1132927397e+00 3.6603303964e+00 
7700 6.0867966707e+00 -1.7531260774e-01 2.1174930114e+00 -3.6676054804e+00 2.1174930114e+00 3.6676054804e+00 
7800 6.0867821820e+00 -1.7303345377e-01 2.1216339842e+00 -3.6747778556e+00 2.1216339842e+00 3.6747778556e+00 
7900 6.0868650185e+00 -1.7063606901e-01 2.1257131226e+00 -3.6818431307e+00 2.1257131226e+00 3.6818431307e+00 
8000 6.0870334231e+00 -1.6812487640e-01 2.1297280027e+00 -3.6887971070e+00 2.1297280027e+00 3.6887971070e+00 
8100 6.0872753509e+00 -1.6550460865e-01 2.1336763171e+00 -3.6956357880e+00 2.1336763171e+00 3.6956357880e+00 
8200 6.0875785680e+00 -1.6278030268e-01 2.1375558806e+00 -3.7023553892e+00 2.1375558806e+00 3.7023553892e+00 
8300 6.0879307519e+00 -1.5995729280e-01 2.1413646358e+00 -3.7089523468e+00 2.1413646358e+00 3.7089523468e+00 
8400 6.0883195914e+00 -1.5704120239e-01 2.1451006579e+00 -3.7154233269e+00 2.1451006579e+00 3.7154233269e+00 
8500 6.0887328864e+00 -1.5403793385e-01 2.1487621595e+00 -3.7217652337e+00 2.1487621595e+00 3.7217652337e+00 
8600 6.0891586470e+00 -1.5095365681e-01 2.1523474955e+00 -3.7279752178e+00 2.1523474955e+00 3.7279752178e+00 
8700 6.0895851902e+00 -1.4779479437e-01 2.1558551675e+00 -3.7340506839e+00 2.1558551675e+00 3.7340506839e+00 
8800 6.0900012348e+00 -1.4456800726e-01 2.1592838278e+00 -3.7399892976e+00 2.1592838278e+00 3.7399892976e+00 
8900 6.0903959930e+00 -1.4128017605e-01 2.1626322830e+00 -3.7457889922e+00 2.1626322830e+00 3.7457889922e+00 
9000 6.0907592571e+00 -1.3793838138e-01 2.1658994978e+00 -3.7514479743e+00 2.1658994978e+00 3.7514479743e+00 
9100 6.0910814824e+00 -1.3454988229e-01 2.1690845979e+00 -3.7569647294e+00 2.1690845979e+00 3.7569647294e+00 
9200 6.0913538625e+00 -1.3112209287e-01 2.1721868720e+00 -3.7623380259e+00 2.1721868720e+00 3.7623380259e+00 
9300 6.0915683996e+00 -1.2766255735e-01 2.1752057747e+00 -3.7675669187e+00 2.1752057747e+00 3.7675669187e+00 
9400 6.0917179653e+00 -1.2417892408e-01 2.1781409274e+00 -3.7726507524e+00 2.1781409274e+00 3.7726507524e+00 
9500 6.0917963540e+00 -1.2067891838e-01 2.1809921198e+00 -3.7775891624e+00 2.1809921198e+00 3.7775891624e+00 
9600 6.0917983266e+00 -1.1717031494e-01 2.1837593100e+00 -3.7823820763e+00 2.1837593100e+00 3.7823820763e+00 
9700 6.0917196441e+00 -1.1366090971e-01 2.1864426248e+00 -3.7870297140e+00 2.1864426248e+00 3.7870297140e+00 
9800 6.0915570909e+00 -1.1015849193e-01 2.1890423592e+00 -3.7915325861e+00 2.1890423592e+00 3.7915325861e+00 
9900 6.0913084871e+00 -1.0667081622e-01 2.1915589750e+00 -3.7958914925e+00 2.1915589750e+00 3.7958914925e+00 
10000 6.0909726902e+00 -1.0320557532e-01 2.1939930993e+00 -3.8001075194e+00 2.1939930993e+00 3.8001075194e+00 
10100 6.0905495847e+00 -9.9770373332e-02 2.1963455222e+00 -3.8041820355e+00 2.1963455222e+00 3.8041820355e+00 
10200 6.0900400617e+00 -9.6372699867e-02 2.1986171947e+00 -3.8081166876e+00 2.1986171947e+00 3.8081166876e+00 
10300 6.0894459874e+00 -9.3019904956e-02 2.2008092246e+00 -3.8119133948e+00 2.2008092246e+00 3.8119133948e+00 
10400 6.0887701604e+00 -8.9719174879e-02 2.2029228739e+00 -3.8155743428e+00 2.2029228739e+00 3.8155743428e+00 
10500 6.0880162606e+00 -8.6477508829e-02 2.2049595541e+00 -3.8191019763e+00 2.2049595541e+00 3.8191019763e+00 
10600 6.0871887881e+00 -8.3301696366e-02 2.2069208217e+00 -3.8224989914e+00 2.2069208217e+00 3.8224989914e+00 
10700 6.0862929938e+00 -8.0198295599e-02 2.2088083737e+00 -3.8257683275e+00 2.2088083737e+00 3.8257683275e+00 
10800 6.0853348028e+00 -7.7173612018e-02 2.2106240422e+00 -3.8289131575e+00 2.2106240422e+00 3.8289131575e+00 
10900 6.0843207312e+00 -7.4233677920e-02 2.2123697881e+00 -3.8319368782e+00 2.2123697881e+00 3.8319368782e+00 
11000 6.0832577974e+00 -7.1384232423e-02 2.2140476960e+00 -3.8348430998e+00 2.2140476960e+00 3.8348430998e+00 
11100 6.0821534292e+00 -6.8630702074e-02 2.2156599668e+00 -3.8376356348e+00 2.2156599668e+00 3.8376356348e+00 
11200 6.0810153672e+00 -6.5978182119e-02 2.2172089114e+00 -3.8403184855e+00 2.2172089114e+00 3.8403184855e+00 
11300 6.0798515665e+00 -6.3431418552e-02 2.2186969434e+00 -3.8428958326e+00 2.2186969434e+00 3.8428958326e+00 
11400 6.0786700973e+00 -6.0994791111e-02 2.2201265714e+00 -3.8453720209e+00 2.2201265714e+00 3.8453720209e+00 
11500 6.0774790452e+00 -5.8672297400e-02 2.2215003912e+00 -3.8477515466e+00 2.2215003912e+00 3.8477515466e+00 
11600 6.0762864139e+00 -5.6467538381e-02 2.2228210776e+00 -3.8500390426e+00 2.2228210776e+00 3.8500390426e+00 
11700 6.0751000295e+00 -5.4383705449e-02 2.2240913758e+00 -3.8522392636e+00 2.2240913758e+00 3.8522392636e+00 
11800 6.0739274490e+00 -5.2423569339e-02 2.2253140928e+00 -3.8543570715e+00 2.2253140928e+00 3.8543570715e+00 
11900 6.0727758740e+00 -5.0589471064e-02 2.2264920881e+00 -3.8563974193e+00 2.2264920881e+00 3.8563974193e+00 
12000 6.0716520697e+00 -4.8883315072e-02 2.2276282649e+00 -3.8583653351e+00 2.2276282649e+00 3.8583653351e+00 
12100 6.0705622920e+00 -4.7306564754e-02 2.2287255603e+00 -3.8602659066e+00 2.2287255603e+00 3.8602659066e+00 
12200 6.0695122214e+00 -4.5860240405e-02 2.2297869363e+00 -3.8621042638e+00 2.2297869363e+00 3.8621042638e+00 
12300 6.0685069074e+00 -4.4544919657e-02 2.2308153701e+00 -3.8638855633e+00 2.2308153701e+00 3.8638855633e+00 
12400 6.0675507213e+00 -4.3360740378e-02 2.2318138445e+00 -3.8656149717e+00 2.2318138445e+00 3.8656149717e+00 
12500 6.0666473197e+00 -4.2307405960e-02 2.2327853387e+00 -3.8672976490e+00 2.2327853387e+00 3.8672976490e+00 
12600 6.0657996196e+00 -4.1384192891e-02 2.2337328189e+00 -3.8689387328e+00 2.2337328189e+00 3.8689387328e+00 
12700 6.0650097827e+00 -4.0589960441e-02 2.2346592290e+00 -3.8705433222e+00 2.2346592290e+00 3.8705433222e+00 
12800 6.0642792129e+00 -3.9923162299e-02 2.2355674817e+00 -3.8721164621e+00 2.2355674817e+00 3.8721164621e+00 
12900 6.0636085627e+00 -3.9381859948e-02 2.2364604500e+00 -3.8736631286e+00 2.2364604500e+00 3.8736631286e+00 
13000 6.0629977522e+00 -3.8963737569e-02 2.2373409584e+00 -3.8751882138e+00 2.2373409584e+00 3.8751882138e+00 
13100 6.0624459960e+00 -3.8666118274e-02 2.2382117748e+00 -3.8766965121e+00 2.2382117748e+00 3.8766965121e+00 
13200 6.0619518418e+00 -3.8485981440e-02 2.2390756029e+00 -3.8781927062e+00 2.2390756029e+00 3.8781927062e+00 
13300 6.0615132153e+00 -3.8419980989e-02 2.2399350746e+00 -3.8796813549e+00 2.2399350746e+00 3.8796813549e+00 
13400 6.0611274745e+00 -3.8464464396e-02 2.2407927430e+00 -3.8811668802e+00 2.2407927430e+00 3.8811668802e+00 
13500 6.0607914693e+00 -3.8615492312e-02 2.2416510759e+00 -3.8826535562e+00 2.2416510759e+00 3.8826535562e+00 
13600 6.0605016063e+00 -3.8868858641e-02 2.2425124491e+00 -3.8841454984e+00 2.2425124491e+00 3.8841454984e+00 
13700 6.0602539181e+00 -3.9220110972e-02 2.2433791413e+00 -3.8856466533e+00 2.2433791413e+00 3.8856466533e+00 
13800 6.0600441350e+00 -3.9664571264e-02 2.2442533283e+00 -3.8871607896e+00 2.2442533283e+00 3.8871607896e+00 
13900 6.0598677577e+00 -4.0197356721e-02 2.2451370782e+00 -3.8886914894e+00 2.2451370782e+00 3.8886914894e+00 
14000 6.0597201308e+00 -4.0813400772e-02 2.2460323471e+00 -3.8902421405e+00 2.2460323471e+00 3.8902421405e+00 
14100 6.0595965142e+00 -4.1507474125e-02 2.2469409749e+00 -3.8918159302e+00 2.2469409749e+00 3.8918159302e+00 
14200 6.0594921535e+00 -4.2274205832e-02 2.2478646822e+00 -3.8934158382e+00 2.2478646822e+00 3.8934158382e+00 
14300 6.0594023460e+00 -4.3108104336e-02 2.2488050670e+00 -3.8950446323e+00 2.2488050670e+00 3.8950446323e+00 
14400 6.0593225031e+00 -4.4003578447e-02 2.2497636019e+00 -3.8967048635e+00 2.2497636019e+00 3.8967048635e+00 
14500 6.0592482080e+00 -4.4954958207e-02 2.2507416328e+00 -3.8983988627e+00 2.2507416328e+00 3.8983988627e+00 
14600 6.0591752669e+00 -4.5956515607e-02 2.2517403765e+00 -3.9001287375e+00 2.2517403765e+00 3.9001287375e+00 
14700 6.0590997551e+00 -4.7002485091e-02 2.2527609201e+00 -3.9018963709e+00 2.2527609201e+00 3.9018963709e+00 
14800 6.0590180561e+00 -4.8087083804e-02 2.2538042201e+00 -3.9037034196e+00 2.2538042201e+00 3.9037034196e+00 
14900 6.0589268937e+00 -4.9204531517e-02 2.2548711024e+00 -3.9055513139e+00 2.2548711024e+00 3.9055513139e+00 
15000 6.0588233584e+00 -5.0349070171e-02 2.2559622623e+00 -3.9074412583e+00 2.2559622623e+00 3.9074412583e+00 
15100 6.0587049255e+00 -5.1514982960e-02 2.2570782654e+00 -3.9093742324e+00 2.2570782654e+00 3.9093742324e+00 
15200 6.0585694679e+00 -5.2696612900e-02 2.2582195489e+00 -3.9113509933e+00 2.2582195489e+00 3.9113509933e+00 
15300 6.0584152619e+00 -5.3888380801e-02 2.2593864228e+00 -3.9133720782e+00 2.2593864228e+00 3.9133720782e+00 
15400 6.0582409866e+00 -5.5084802572e-02 2.2605790722e+00 -3.9154378076e+00 2.2605790722e+00 3.9154378076e+00 
15500 6.0580457186e+00 -5.6280505798e-02 2.2617975597e+00 -3.9175482899e+00 2.2617975597e+00 3.9175482899e+00 
15600 6.0578289206e+00 -5.7470245519e-02 2.2630418281e+00 -3.9197034259e+00 2.2630418281e+00 3.9197034259e+00 
15700 6.0575904257e+00 -5.8648919147e-02 2.2643117034e+00 -3.9219029144e+00 2.2643117034e+00 3.9219029144e+00 
15800 6.0573304177e+00 -5.9811580484e-02 2.2656068984e+00 -3.9241462581e+00 2.2656068984e+00 3.9241462581e+00 
15900 6.0570494077e+00 -6.0953452775e-02 2.2669270168e+00 -3.9264327701e+00 2.2669270168e+00 3.9264327701e+00 
16000 6.0567482075e+00 -6.2069940770e-02 2.2682715566e+00 -3.9287615814e+00 2.2682715566e+00 3.9287615814e+00 
16100 6.0564279011e+00 -6.3156641763e-02 2.2696399152e+00 -3.9311316480e+00 2.2696399152e+00 3.9311316480e+00 
16200 6.0560898139e+00 -6.4209355589e-02 2.2710313934e+00 -3.9335417590e+00 2.2710313934e+00 3.9335417590e+00 
16300 6.0557354811e+00 -6.5224093562e-02 2.2724452007e+00 -3.9359905450e+00 2.2724452007e+00 3.9359905450e+00 
16400 6.0553666149e+00 -6.6197086354e-02 2.2738804598e+00 -3.9384764867e+00 2.2738804598e+00 3.9384764867e+00 
16500 6.0549850717e+00 -6.7124790822e-02 2.2753362123e+00 -3.9409979241e+00 2.2753362123e+00 3.9409979241e+00 
16600 6.0545928193e+00 -6.8003895798e-02 2.2768114237e+00 -3.9435530652e+00 2.2768114237e+00 3.9435530652e+00 
16700 6.0541919052e+00 -6.8831326844e-02 2.2783049889e+00 -3.9461399959e+00 2.2783049889e+00 3.9461399959e+00 
16800 6.0537844253e+00 -6.9604250033e-02 2.2798157377e+00 -3.9487566895e+00 2.2798157377e+00 3.9487566895e+00 
16900 6.0533724942e+00 -7.0320074746e-02 2.2813424403e+00 -3.9514010160e+00 2.2813424403e+00 3.9514010160e+00 
17000 6.0529582173e+00 -7.0976455556e-02 2.2828838131e+00 -3.9540707521e+00 2.2828838131e+00 3.9540707521e+00 
17100 6.0525436643e+00 -7.1571293223e-02 2.2844385244e+00 -3.9567635911e+00 2.2844385244e+00 3.9567635911e+00 
17200 6.0521308452e+00 -7.2102734838e-02 2.2860051997e+00 -3.9594771523e+00 2.2860051997e+00 3.9594771523e+00 
17300 6.0517216880e+00 -7.2569173170e-02 2.2875824275e+00 -3.9622089910e+00 2.2875824275e+00 3.9622089910e+00 
17400 6.0513180197e+00 -7.2969245267e-02 2.2891687650e+00 -3.9649566081e+00 2.2891687650e+00 3.9649566081e+00 
17500 6.0509215484e+00 -7.3301830329e-02 2.2907627433e+00 -3.9677174595e+00 2.2907627433e+00 3.9677174595e+00 
17600 6.0505338488e+00 -7.3566046939e-02 2.2923628731e+00 -3.9704889657e+00 2.2923628731e+00 3.9704889657e+00 
17700 6.0501563500e+00 -7.3761249658e-02 2.2939676501e+00 -3.9732685209e+00 2.2939676501e+00 3.9732685209e+00 
17800 6.0497903255e+00 -7.3887025053e-02 2.2955755599e+00 -3.9760535023e+00 2.2955755599e+00 3.9760535023e+00 
17900 6.0494368860e+00 -7.3943187188e-02 2.2971850833e+00 -3.9788412787e+00 2.2971850833e+00 3.9788412787e+00 
18000 6.0490969741e+00 -7.3929772616e-02 2.2987947014e+00 -3.9816292190e+00 2.2987947014e+00 3.9816292190e+00 
18100 6.0487713615e+00 -7.3847034917e-02 2.3004029004e+00 -3.9844147014e+00 2.3004029004e+00 3.9844147014e+00 
18200 6.0484606486e+00 -7.3695438804e-02 2.3020081761e+00 -3.9871951204e+00 2.3020081761e+00 3.9871951204e+00 
18300 6.0481652657e+00 -7.3475653847e-02 2.3036090386e+00 -3.9899678957e+00 2.3036090386e+00 3.9899678957e+00 
18400 6.0478854762e+00 -7.3188547821e-02 2.3052040169e+00 -3.9927304790e+00 2.3052040169e+00 3.9927304790e+00 
18500 6.0476213821e+00 -7.2835179725e-02 2.3067916625e+00 -3.9954803619e+00 2.3067916625e+00 3.9954803619e+00 
18600 6.0473729301e+00 -7.2416792485e-02 2.3083705542e+00 -3.9982150825e+00 2.3083705542e+00 3.9982150825e+00 
18700 6.0471399198e+00 -7.1934805373e-02 2.3099393012e+00 -4.0009322320e+00 2.3099393012e+00 4.0009322320e+00 
18800 6.0469220135e+00 -7.1390806154e-02 2.3114965473e+00 -4.0036294615e+00 2.3114965473e+00 4.0036294615e+00 
18900 6.0467187461e+00 -7.0786542982e-02 2.3130409742e+00 -4.0063044874e+00 2.3130409742e+00 4.0063044874e+00 
19000 6.0465295368e+00 -7.0123916077e-02 2.3145713047e+00 -4.0089550975e+00 2.3145713047e+00 4.0089550975e+00 
19100 6.0463537008e+00 -6.9404969176e-02 2.3160863058e+00 -4.0115791564e+00 2.3160863058e+00 4.0115791564e+00 
19200 6.0461904629e+00 -6.8631880798e-02 2.3175847916e+00 -4.0141746099e+00 2.3175847916e+00 4.0141746099e+00 
19300 6.0460389695e+00 -6.7806955329e-02 2.3190656259e+00 -4.0167394902e+00 2.3190656259e+00 4.0167394902e+00 
19400 6.0458983028e+00 -6.6932613946e-02 2.3205277250e+00 -4.0192719201e+00 2.3205277250e+00 4.0192719201e+00 
19500 6.0457674939e+00 -6.6011385390e-02 2.3219700595e+00 -4.0217701167e+00 2.3219700595e+00 4.0217701167e+00 
19600 6.0456455365e+00 -6.5045896620e-02 2.3233916566e+00 -4.0242323951e+00 2.3233916566e+00 4.0242323951e+00 
19700 6.0455313997e+00 -6.4038863356e-02 2.3247916019e+00 -4.0266571714e+00 2.3247916019e+00 4.0266571714e+00 
19800 6.0454240411e+00 -6.2993080525e-02 2.3261690411e+00 -4.0290429662e+00 2.3261690411e+00 4.0290429662e+00 
19900 6.0453224195e+00 -6.1911412647e-02 2.3275231815e+00 -4.0313884061e+00 2.3275231815e+00 4.0313884061e+00 
20000 6.0452255061e+00 -6.0796784162e-02 2.3288532929e+00 -4.0336922267e+00 2.3288532929e+00 4.0336922267e+00 
20100 6.0451322962e+00 -5.9652169737e-02 2.3301587092e+00 -4.0359532741e+00 2.3301587092e+00 4.0359532741e+00 
20200 6.0450418194e+00 -5.8480584558e-02 2.3314388286e+00 -4.0381705059e+00 2.3314388286e+00 4.0381705059e+00 
20300 6.0449531490e+00 -5.7285074652e-02 2.3326931147e+00 -4.0403429931e+00 2.3326931147e+00 4.0403429931e+00 
20400 6.0448654108e+00 -5.6068707240e-02 2.3339210966e+00 -4.0424699201e+00 2.3339210966e+00 4.0424699201e+00 
20500 6.0447777905e+00 -5.4834561169e-02 2.3351223693e+00 -4.0445505855e+00 2.3351223693e+00 4.0445505855e+00 
20600 6.0446895403e+00 -5.3585717427e-02 2.3362965937e+00 -4.0465844018e+00 2.3362965937e+00 4.0465844018e+00 
20700 6.0445999847e+00 -5.2325249788e-02 2.3374434964e+00 -4.0485708957e+00 2.3374434964e+00 4.0485708957e+00 
20800 6.0445085244e+00 -5.1056215591e-02 2.3385628695e+00 -4.0505097066e+00 2.3385628695e+00 4.0505097066e+00 
20900 6.0444146403e+00 -4.9781646708e-02 2.3396545695e+00 -4.0524005866e+00 2.3396545695e+00 4.0524005866e+00 
21000 6.0443178951e+00 -4.8504540692e-02 2.3407185176e+00 -4.0542433987e+00 2.3407185176e+00 4.0542433987e+00 
21100 6.0442179350e+00 -4.7227852161e-02 2.3417546977e+00 -4.0560381152e+00 2.3417546977e+00 4.0560381152e+00 
21200 6.0441144896e+00 -4.5954484433e-02 2.3427631560e+00 -4.0577848162e+00 2.3427631560e+00 4.0577848162e+00 
21300 6.0440073712e+00 -4.4687281425e-02 2.3437439997e+00 -4.0594836874e+00 2.3437439997e+00 4.0594836874e+00 
21400 6.0438964728e+00 -4.3429019860e-02 2.3446973954e+00 -4.0611350172e+00 2.3446973954e+00 4.0611350172e+00 
21500 6.0437817659e+00 -4.2182401788e-02 2.3456235677e+00 -4.0627391947e+00 2.3456235677e+00 4.0627391947e+00 
21600 6.0436632964e+00 -4.0950047453e-02 2.3465227976e+00 -4.0642967066e+00 2.3465227976e+00 4.0642967066e+00 
21700 6.0435411811e+00 -3.9734488523e-02 2.3473954204e+00 -4.0658081335e+00 2.3473954204e+00 4.0658081335e+00 
21800 6.0434156021e+00 -3.8538161692e-02 2.3482418239e+00 -4.0672741475e+00 2.3482418239e+00 4.0672741475e+00 
21900 6.0432868017e+00 -3.7363402699e-02 2.3490624465e+00 -4.0686955075e+00 2.3490624465e+00 4.0686955075e+00 
22000 6.0431550765e+00 -3.6212440738e-02 2.3498577746e+00 -4.0700730562e+00 2.3498577746e+00 4.0700730562e+00 
22100 6.0430207708e+00 -3.5087393321e-02 2.3506283408e+00 -4.0714077160e+00 2.3506283408e+00 4.0714077160e+00 
22200 6.0428842699e+00 -3.3990261564e-02 2.3513747210e+00 -4.0727004845e+00 2.3513747210e+00 4.0727004845e+00 
22300 6.0427459936e+00 -3.2922925935e-02 2.3520975323e+00 -4.0739524303e+00 2.3520975323e+00 4.0739524303e+00 
22400 6.0426063887e+00 -3.1887142462e-02 2.3527974301e+00 -4.0751646889e+00 2.3527974301e+00 4.0751646889e+00 
22500 6.0424659223e+00 -3.0884539413e-02 2.3534751058e+00 -4.0763384576e+00 2.3534751058e+00 4.0763384576e+00 
22600 6.0423250743e+00 -2.9916614446e-02 2.3541312839e+00 -4.0774749913e+00 2.3541312839e+00 4.0774749913e+00 
22700 6.0421843313e+00 -2.8984732244e-02 2.3547667191e+00 -4.0785755975e+00 2.3547667191e+00 4.0785755975e+00 
22800 6.0420441793e+00 -2.8090122628e-02 2.3553821940e+00 -4.0796416312e+00 2.3553821940e+00 4.0796416312e+00 
22900 6.0419050975e+00 -2.7233879155e-02 2.3559785156e+00 -4.0806744906e+00 2.3559785156e+00 4.0806744906e+00 
23000 6.0417675524e+00 -2.6416958193e-02 2.3565565131e+00 -4.0816756116e+00 2.3565565131e+00 4.0816756116e+00 
23100 6.0416319923e+00 -2.5640178477e-02 2.3571170344e+00 -4.0826464630e+00 2.3571170344e+00 4.0826464630e+00 
23200 6.0414988417e+00 -2.4904221131e-02 2.3576609439e+00 -4.0835885418e+00 2.3576609439e+00 4.0835885418e+00 
23300 6.0413684974e+00 -2.4209630162e-02 2.3581891189e+00 -4.0845033677e+00 2.3581891189e+00 4.0845033677e+00 
23400 6.0412413239e+00 -2.3556813402e-02 2.3587024473e+00 -4.0853924786e+00 2.3587024473e+00 4.0853924786e+00 
23500 6.0411176498e+00 -2.2946043898e-02 2.3592018244e+00 -4.0862574253e+00 2.3592018244e+00 4.0862574253e+00 
23600 6.0409977657e+00 -2.2377461740e-02 2.3596881506e+00 -4.0870997669e+00 2.3596881506e+00 4.0870997669e+00 
23700 6.0408819210e+00 -2.1851076295e-02 2.3601623279e+00 -4.0879210661e+00 2.3601623279e+00 4.0879210661e+00 
23800 6.0407703230e+00 -2.1366768856e-02 2.3606252577e+00 -4.0887228840e+00 2.3606252577e+00 4.0887228840e+00 
23900 6.0406631353e+00 -2.0924295669e-02 2.3610778381e+00 -4.0895067762e+00 2.3610778381e+00 4.0895067762e+00 
24000 6.0405604777e+00 -2.0523291328e-02 2.3615209609e+00 -4.0902742874e+00 2.3615209609e+00 4.0902742874e+00 
24100 6.0404624261e+00 -2.0163272522e-02 2.3619555097e+00 -4.0910269480e+00 2.3619555097e+00 4.0910269480e+00 
24200 6.0403690136e+00 -1.9843642099e-02 2.3623823568e+00 -4.0917662689e+00 2.3623823568e+00 4.0917662689e+00 
24300 6.0402802311e+00 -1.9563693444e-02 2.3628023615e+00 -4.0924937383e+00 2.3628023615e+00 4.0924937383e+00 
24400 6.0401960294e+00 -1.9322615129e-02 2.3632163670e+00 -4.0932108169e+00 2.3632163670e+00 4.0932108169e+00 
24500 6.0401163212e+00 -1.9119495831e-02 2.3636251990e+00 -4.0939189348e+00 2.3636251990e+00 4.0939189348e+00 
24600 6.0400409839e+00 -1.8953329472e-02 2.3640296634e+00 -4.0946194875e+00 2.3640296634e+00 4.0946194875e+00 
24700 6.0399698620e+00 -1.8823020579e-02 2.3644305438e+00 -4.0953138328e+00 2.3644305438e+00 4.0953138328e+00 
24800 6.0399027706e+00 -1.8727389821e-02 2.3648286005e+00 -4.0960032873e+00 2.3648286005e+00 4.0960032873e+00 
24900 6.0398394985e+00 -1.8665179708e-02 2.3652245681e+00 -4.0966891233e+00 2.3652245681e+00 4.0966891233e+00 
25000 6.0397798123e+00 -1.8635060424e-02 2.3656191543e+00 -4.0973725667e+00 2.3656191543e+00 4.0973725667e+00 
25100 6.0397234596e+00 -1.8635635767e-02 2.3660130380e+00 -4.0980547933e+00 2.3660130380e+00 4.0980547933e+00 
25200 6.0396701730e+00 -1.8665449180e-02 2.3664068684e+00 -4.0987369274e+00 2.3664068684e+00 4.0987369274e+00 
25300 6.0396196740e+00 -1.8722989835e-02 2.3668012631e+00 -4.0994200391e+00 2.3668012631e+00 4.0994200391e+00 
25400 6.0395716764e+00 -1.8806698761e-02 2.3671968077e+00 -4.1001051425e+00 2.3671968077e+00 4.1001051425e+00 
25500 6.0395258907e+00 -1.8914974978e-02 2.3675940545e+00 -4.1007931940e+00 2.3675940545e+00 4.1007931940e+00 
25600 6.0394820269e+00 -1.9046181628e-02 2.3679935213e+00 -4.1014850909e+00 2.3679935213e+00 4.1014850909e+00 
25700 6.0394397985e+00 -1.9198652074e-02 2.3683956913e+00 -4.1021816698e+00 2.3683956913e+00 4.1021816698e+00 
25800 6.0393989254e+00 -1.9370695948e-02 2.3688010121e+00 -4.1028837060e+00 2.3688010121e+00 4.1028837060e+00 
25900 6.0393591370e+00 -1.9560605123e-02 2.3692098952e+00 -4.1035919123e+00 2.3692098952e+00 4.1035919123e+00 
26000 6.0393201751e+00 -1.9766659601e-02 2.3696227158e+00 -4.1043069385e+00 2.3696227158e+00 4.1043069385e+00 
26100 6.0392817961e+00 -1.9987133288e-02 2.3700398126e+00 -4.1050293713e+00 2.3700398126e+00 4.1050293713e+00 
26200 6.0392437731e+00 -2.0220299645e-02 2.3704614875e+00 -4.1057597337e+00 2.3704614875e+00 4.1057597337e+00 
26300 6.0392058980e+00 -2.0464437194e-02 2.3708880058e+00 -4.1064984851e+00 2.3708880058e+00 4.1064984851e+00 
26400 6.0391679830e+00 -2.0717834873e-02 2.3713195964e+00 -4.1072460219e+00 2.3713195964e+00 4.1072460219e+00 
26500 6.0391298616e+00 -2.0978797217e-02 2.3717564517e+00 -4.1080026775e+00 2.3717564517e+00 4.1080026775e+00 
26600 6.0390913894e+00 -2.1245649352e-02 2.3721987283e+00 -4.1087687231e+00 2.3721987283e+00 4.1087687231e+00 
26700 6.0390524449e+00 -2.1516741802e-02 2.3726465474e+00 -4.1095443685e+00 2.3726465474e+00 4.1095443685e+00 
26800 6.0390129297e+00 -2.1790455089e-02 2.3730999952e+00 -4.1103297631e+00 2.3730999952e+00 4.1103297631e+00 
26900 6.0389727683e+00 -2.2065204111e-02 2.3735591237e+00 -4.1111249970e+00 2.3735591237e+00 4.1111249970e+00 
27000 6.0389319076e+00 -2.2339442304e-02 2.3740239515e+00 -4.1119301024e+00 2.3740239515e+00 4.1119301024e+00 
27100 6.0388903168e+00 -2.2611665578e-02 2.3744944644e+00 -4.1127450547e+00 2.3744944644e+00 4.1127450547e+00 
27200 6.0388479860e+00 -2.2880416004e-02 2.3749706168e+00 -4.1135697747e+00 2.3749706168e+00 4.1135697747e+00 
27300 6.0388049253e+00 -2.3144285272e-02 2.3754523320e+00 -4.1144041299e+00 2.3754523320e+00 4.1144041299e+00 
27400 6.0387611637e+00 -2.3401917898e-02 2.3759395039e+00 -4.1152479365e+00 2.3759395039e+00 4.1152479365e+00 
27500 6.0387167474e+00 -2.3652014185e-02 2.3764319981e+00 -4.1161009614e+00 2.3764319981e+00 4.1161009614e+00 
27600 6.0386717384e+00 -2.3893332929e-02 2.3769296525e+00 -4.1169629242e+00 2.3769296525e+00 4.1169629242e+00 
27700 6.0386262125e+00 -2.4124693880e-02 2.3774322794e+00 -4.1178334995e+00 2.3774322794e+00 4.1178334995e+00 
27800 6.0385802581e+00 -2.4344979946e-02 2.3779396662e+00 -4.1187123191e+00 2.3779396662e+00 4.1187123191e+00 
27900 6.0385339735e+00 -2.4553139148e-02 2.3784515768e+00 -4.1195989744e+00 2.3784515768e+00 4.1195989744e+00 
28000 6.0384874657e+00 -2.4748186320e-02 2.3789677535e+00 -4.1204930187e+00 2.3789677535e+00 4.1204930187e+00 
28100 6.0384408483e+00 -2.4929204567e-02 2.3794879180e+00 -4.1213939699e+00 2.3794879180e+00 4.1213939699e+00 
28200 6.0383942394e+00 -2.5095346472e-02 2.3800117727e+00 -4.1223013129e+00 2.3800117727e+00 4.1223013129e+00 
28300 6.0383477601e+00 -2.5245835059e-02 2.3805390027e+00 -4.1232145021e+00 2.3805390027e+00 4.1232145021e+00 
28400 6.0383015324e+00 -2.5379964524e-02 2.3810692770e+00 -4.1241329641e+00 2.3810692770e+00 4.1241329641e+00 
28500 6.0382556776e+00 -2.5497100725e-02 2.3816022499e+00 -4.1250561003e+00 2.3816022499e+00 4.1250561003e+00 
28600 6.0382103148e+00 -2.5596681442e-02 2.3821375630e+00 -4.1259832897e+00 2.3821375630e+00 4.1259832897e+00 
28700 6.0381655593e+00 -2.5678216419e-02 2.3826748461e+00 -4.1269138913e+00 2.3826748461e+00 4.1269138913e+00 
28800 6.0381215210e+00 -2.5741287178e-02 2.3832137191e+00 -4.1278472468e+00 2.3832137191e+00 4.1278472468e+00 
28900 6.0380783037e+00 -2.5785546630e-02 2.3837537936e+00 -4.1287826832e+00 2.3837537936e+00 4.1287826832e+00 
29000 6.0380360034e+00 -2.5810718477e-02 2.3842946741e+00 -4.1297195158e+00 2.3842946741e+00 4.1297195158e+00 
29100 6.0379947076e+00 -2.5816596410e-02 2.3848359599e+00 -4.1306570503e+00 2.3848359599e+00 4.1306570503e+00 
29200 6.0379544946e+00 -2.5803043121e-02 2.3853772460e+00 -4.1315945853e+00 2.3853772460e+00 4.1315945853e+00 
29300 6.0379154328e+00 -2.5769989134e-02 2.3859181252e+00 -4.1325314156e+00 2.3859181252e+00 4.1325314156e+00 
29400 6.0378775799e+00 -2.5717431448e-02 2.3864581890e+00 -4.1334668335e+00 2.3864581890e+00 4.1334668335e+00 
29500 6.0378409830e+00 -2.5645432024e-02 2.3869970294e+00 -4.1344001324e+00 2.3869970294e+00 4.1344001324e+00 
29600 6.0378056784e+00 -2.5554116106e-02 2.3875342398e+00 -4.1353306081e+00 2.3875342398e+00 4.1353306081e+00 
29700 6.0377716911e+00 -2.5443670387e-02 2.3880694168e+00 -4.1362575620e+00 2.3880694168e+00 4.1362575620e+00 
29800 6.0377390354e+00 -2.5314341038e-02 2.3886021613e+00 -4.1371803025e+00 2.3886021613e+00 4.1371803025e+00 
29900 6.0377077148e+00 -2.5166431601e-02 2.3891320796e+00 -4.1380981478e+00 2.3891320796e+00 4.1380981478e+00 
30000 6.0376777226e+00 -2.5000300751e-02 2.3896587846e+00 -4.1390104276e+00 2.3896587846e+00 4.1390104276e+00 
30100 6.0376490423e+00 -2.4816359947e-02 2.3901818972e+00 -4.1399164852e+00 2.3901818972e+00 4.1399164852e+00 
30200 6.0376216479e+00 -2.4615070973e-02 2.3907010472e+00 -4.1408156794e+00 2.3907010472e+00 4.1408156794e+00 
30300 6.0375955051e+00 -2.4396943379e-02 2.3912158743e+00 -4.1417073861e+00 2.3912158743e+00 4.1417073861e+00 
30400 6.0375705715e+00 -2.4162531834e-02 2.3917260292e+00 -4.1425910003e+00 2.3917260292e+00 4.1425910003e+00 
30500 6.0375467977e+00 -2.3912433400e-02 2.3922311745e+00 -4.1434659376e+00 2.3922311745e+00 4.1434659376e+00 
30600 6.0375241280e+00 -2.3647284732e-02 2.3927309854e+00 -4.1443316355e+00 2.3927309854e+00 4.1443316355e+00 
30700 6.0375025014e+00 -2.3367759215e-02 2.3932251508e+00 -4.1451875552e+00 2.3932251508e+00 4.1451875552e+00 
30800 6.0374818525e+00 -2.3074564059e-02 2.3937133739e+00 -4.1460331823e+00 2.3937133739e+00 4.1460331823e+00 
30900 6.0374621122e+00 -2.2768437335e-02 2.3941953726e+00 -4.1468680287e+00 2.3941953726e+00 4.1468680287e+00 
31000 6.0374432091e+00 -2.2450144994e-02 2.3946708808e+00 -4.1476916330e+00 2.3946708808e+00 4.1476916330e+00 
31100 6.0374250699e+00 -2.2120477850e-02 2.3951396483e+00 -4.1485035621e+00 2.3951396483e+00 4.1485035621e+00 
31200 6.0374076206e+00 -2.1780248551e-02 2.3956014416e+00 -4.1493034116e+00 2.3956014416e+00 4.1493034116e+00 
31300 6.0373907873e+00 -2.1430288551e-02 2.3960560443e+00 -4.1500908065e+00 2.3960560443e+00 4.1500908065e+00 
31400 6.0373744970e+00 -2.1071445075e-02 2.3965032575e+00 -4.1508654024e+00 2.3965032575e+00 4.1508654024e+00 
31500 6.0373586785e+00 -2.0704578105e-02 2.3969428999e+00 -4.1516268854e+00 2.3969428999e+00 4.1516268854e+00 
31600 6.0373432627e+00 -2.0330557381e-02 2.3973748084e+00 -4.1523749729e+00 2.3973748084e+00 4.1523749729e+00 
31700 6.0373281838e+00 -1.9950259437e-02 2.3977988379e+00 -4.1531094136e+00 2.3977988379e+00 4.1531094136e+00 
31800 6.0373133796e+00 -1.9564564673e-02 2.3982148619e+00 -4.1538299883e+00 2.3982148619e+00 4.1538299883e+00 
31900 6.0372987921e+00 -1.9174354473e-02 2.3986227720e+00 -4.1545365092e+00 2.3986227720e+00 4.1545365092e+00 
32000 6.0372843679e+00 -1.8780508383e-02 2.3990224782e+00 -4.1552288207e+00 2.3990224782e+00 4.1552288207e+00 
32100 6.0372700585e+00 -1.8383901342e-02 2.3994139088e+00 -4.1559067984e+00 2.3994139088e+00 4.1559067984e+00 
32200 6.0372558207e+00 -1.7985400995e-02 2.3997970105e+00 -4.1565703500e+00 2.3997970105e+00 4.1565703500e+00 
32300 6.0372416168e+00 -1.7585865074e-02 2.4001717478e+00 -4.1572194141e+00 2.4001717478e+00 4.1572194141e+00 
32400 6.0372274147e+00 -1.7186138870e-02 2.4005381031e+00 -4.1578539601e+00 2.4005381031e+00 4.1578539601e+00 
32500 6.0372131879e+00 -1.6787052792e-02 2.4008960763e+00 -4.1584739878e+00 2.4008960763e+00 4.1584739878e+00 
32600 6.0371989156e+00 -1.6389420025e-02 2.4012456845e+00 -4.1590795270e+00 2.4012456845e+00 4.1590795270e+00 
32700 6.0371845826e+00 -1.5994034291e-02 2.4015869617e+00 -4.1596706365e+00 2.4015869617e+00 4.1596706365e+00 
32800 6.0371701789e+00 -1.5601667718e-02 2.4019199583e+00 -4.1602474034e+00 2.4019199583e+00 4.1602474034e+00 
32900 6.0371557001e+00 -1.5213068825e-02 2.4022447405e+00 -4.1608099428e+00 2.4022447405e+00 4.1608099428e+00 
33000 6.0371411463e+00 -1.4828960619e-02 2.4025613902e+00 -4.1613583962e+00 2.4025613902e+00 4.1613583962e+00 
33100 6.0371265226e+00 -1.4450038819e-02 2.4028700042e+00 -4.1618929312e+00 2.4028700042e+00 4.1618929312e+00 
33200 6.0371118381e+00 -1.4076970210e-02 2.4031706933e+00 -4.1624137401e+00 2.4031706933e+00 4.1624137401e+00 
33300 6.0370971059e+00 -1.3710391112e-02 2.4034635826e+00 -4.1629210392e+00 2.4034635826e+00 4.1629210392e+00 
33400 6.0370823426e+00 -1.3350905997e-02 2.4037488097e+00 -4.1634150671e+00 2.4037488097e+00 4.1634150671e+00 
33500 6.0370675678e+00 -1.2999086227e-02 2.4040265252e+00 -4.1638960844e+00 2.4040265252e+00 4.1638960844e+00 
33600 6.0370528035e+00 -1.2655468934e-02 2.4042968910e+00 -4.1643643716e+00 2.4042968910e+00 4.1643643716e+00 
33700 6.0370380741e+00 -1.2320556034e-02 2.4045600802e+00 -4.1648202287e+00 2.4045600802e+00 4.1648202287e+00 
33800 6.0370234054e+00 -1.1994813382e-02 2.4048162762e+00 -4.1652639732e+00 2.4048162762e+00 4.1652639732e+00 
33900 6.0370088243e+00 -1.1678670055e-02 2.4050656720e+00 -4.1656959394e+00 2.4050656720e+00 4.1656959394e+00 
34000 6.0369943586e+00 -1.1372517785e-02 2.4053084692e+00 -4.1661164766e+00 2.4053084692e+00 4.1661164766e+00 
34100 6.0369800361e+00 -1.1076710515e-02 2.4055448777e+00 -4.1665259480e+00 2.4055448777e+00 4.1665259480e+00 
34200 6.0369658846e+00 -1.0791564102e-02 2.4057751142e+00 -4.1669247294e+00 2.4057751142e+00 4.1669247294e+00 
34300 6.0369519313e+00 -1.0517356144e-02 2.4059994022e+00 -4.1673132077e+00 2.4059994022e+00 4.1673132077e+00 
34400 6.0369382023e+00 -1.0254325940e-02 2.4062179708e+00 -4.1676917795e+00 2.4062179708e+00 4.1676917795e+00 
34500 6.0369247225e+00 -1.0002674583e-02 2.4064310537e+00 -4.1680608499e+00 2.4064310537e+00 4.1680608499e+00 
34600 6.0369115151e+00 -9.7625651693e-03 2.4066388888e+00 -4.1684208309e+00 2.4066388888e+00 4.1684208309e+00 
34700 6.0368986014e+00 -9.5341231406e-03 2.4068417174e+00 -4.1687721403e+00 2.4068417174e+00 4.1687721403e+00 
34800 6.0368860007e+00 -9.3174367329e-03 2.4070397830e+00 -4.1691152000e+00 2.4070397830e+00 4.1691152000e+00 
34900 6.0368737298e+00 -9.1125575460e-03 2.4072333312e+00 -4.1694504353e+00 2.4072333312e+00 4.1694504353e+00 
35000 6.0368618032e+00 -8.9195012196e-03 2.4074226081e+00 -4.1697782726e+00 2.4074226081e+00 4.1697782726e+00 
35100 6.0368502325e+00 -8.7382482141e-03 2.4076078605e+00 -4.1700991391e+00 2.4076078605e+00 4.1700991391e+00 
35200 6.0368390269e+00 -8.5687446902e-03 2.4077893344e+00 -4.1704134611e+00 2.4077893344e+00 4.1704134611e+00 
35300 6.0368281928e+00 -8.4109034822e-03 2.4079672746e+00 -4.1707216626e+00 2.4079672746e+00 4.1707216626e+00 
35400 6.0368177339e+00 -8.2646051598e-03 2.4081419241e+00 -4.1710241643e+00 2.4081419241e+00 4.1710241643e+00 
35500 6.0368076510e+00 -8.1296991720e-03 2.4083135233e+00 -4.1713213828e+00 2.4083135233e+00 4.1713213828e+00 
35600 6.0367979427e+00 -8.0060050669e-03 2.4084823093e+00 -4.1716137288e+00 2.4084823093e+00 4.1716137288e+00 
35700 6.0367886048e+00 -7.8933137826e-03 2.4086485156e+00 -4.1719016065e+00 2.4086485156e+00 4.1719016065e+00 
35800 6.0367796307e+00 -7.7913890017e-03 2.4088123710e+00 -4.1721854125e+00 2.4088123710e+00 4.1721854125e+00 
35900 6.0367710118e+00 -7.6999685631e-03 2.4089740996e+00 -4.1724655346e+00 2.4089740996e+00 4.1724655346e+00 
36000 6.0367627373e+00 -7.6187659262e-03 2.4091339198e+00 -4.1727423513e+00 2.4091339198e+00 4.1727423513e+00 
36100 6.0367547946e+00 -7.5474716796e-03 2.4092920440e+00 -4.1730162305e+00 2.4092920440e+00 4.1730162305e+00 
36200 6.0367471693e+00 -7.4857550881e-03 2.4094486783e+00 -4.1732875290e+00 2.4094486783e+00 4.1732875290e+00 
36300 6.0367398459e+00 -7.4332656730e-03 2.4096040216e+00 -4.1735565915e+00 2.4096040216e+00 4.1735565915e+00 
36400 6.0367328073e+00 -7.3896348178e-03 2.4097582657e+00 -4.1738237502e+00 2.4097582657e+00 4.1738237502e+00 
36500 6.0367260359e+00 -7.3544773938e-03 2.4099115946e+00 -4.1740893237e+00 2.4099115946e+00 4.1740893237e+00 
36600 6.0367195131e+00 -7.3273933998e-03 2.4100641844e+00 -4.1743536168e+00 2.4100641844e+00 4.1743536168e+00 
36700 6.0367132198e+00 -7.3079696095e-03 2.4102162025e+00 -4.1746169200e+00 2.4102162025e+00 4.1746169200e+00 
36800 6.0367071369e+00 -7.2957812207e-03 2.4103678081e+00 -4.1748795086e+00 2.4103678081e+00 4.1748795086e+00 
36900 6.0367012450e+00 -7.2903935005e-03 2.4105191514e+00 -4.1751416428e+00 2.4105191514e+00 4.1751416428e+00 
37000 6.0366955250e+00 -7.2913634226e-03 2.4106703734e+00 -4.1754035670e+00 2.4106703734e+00 4.1754035670e+00 
37100 6.0366899583e+00 -7.2982412881e-03 2.4108216060e+00 -4.1756655096e+00 2.4108216060e+00 4.1756655096e+00 
37200 6.0366845268e+00 -7.3105723284e-03 2.4109729718e+00 -4.1759276828e+00 2.4109729718e+00 4.1759276828e+00 
37300 6.0366792130e+00 -7.3278982826e-03 2.4111245838e+00 -4.1761902825e+00 2.4111245838e+00 4.1761902825e+00 
37400 6.0366740006e+00 -7.3497589463e-03 2.4112765455e+00 -4.1764534880e+00 2.4112765455e+00 4.1764534880e+00 
37500 6.0366688741e+00 -7.3756936866e-03 2.4114289510e+00 -4.1767174621e+00 2.4114289510e+00 4.1767174621e+00 
37600 6.0366638194e+00 -7.4052429192e-03 2.4115818847e+00 -4.1769823509e+00 2.4115818847e+00 4.1769823509e+00 
37700 6.0366588234e+00 -7.4379495448e-03 2.4117354213e+00 -4.1772482841e+00 2.4117354213e+00 4.1772482841e+00 
37800 6.0366538744e+00 -7.4733603390e-03 2.4118896262e+00 -4.1775153748e+00 2.4118896262e+00 4.1775153748e+00 
37900 6.0366489623e+00 -7.5110272948e-03 2.4120445553e+00 -4.1777837200e+00 2.4120445553e+00 4.1777837200e+00 
38000 6.0366440782e+00 -7.5505089126e-03 2.4122002554e+00 -4.1780534003e+00 2.4122002554e+00 4.1780534003e+00 
38100 6.0366392148e+00 -7.5913714364e-03 2.4123567637e+00 -4.1783244808e+00 2.4123567637e+00 4.1783244808e+00 
38200 6.0366343660e+00 -7.6331900321e-03 2.4125141089e+00 -4.1785970106e+00 2.4125141089e+00 4.1785970106e+00 
38300 6.0366295274e+00 -7.6755499072e-03 2.4126723105e+00 -4.1788710239e+00 2.4126723105e+00 4.1788710239e+00 
38400 6.0366246958e+00 -7.7180473688e-03 2.4128313797e+00 -4.1791465397e+00 2.4128313797e+00 4.1791465397e+00 
38500 6.0366198696e+00 -7.7602908187e-03 2.4129913190e+00 -4.1794235627e+00 2.4129913190e+00 4.1794235627e+00 
38600 6.0366150480e+00 -7.8019016834e-03 2.4131521231e+00 -4.1797020836e+00 2.4131521231e+00 4.1797020836e+00 
38700 6.0366102319e+00 -7.8425152789e-03 2.4133137786e+00 -4.1799820792e+00 2.4133137786e+00 4.1799820792e+00 
38800 6.0366054229e+00 -7.8817816084e-03 2.4134762648e+00 -4.1802635135e+00 2.4134762648e+00 4.1802635135e+00 
38900 6.0366006239e+00 -7.9193660921e-03 2.4136395536e+00 -4.1805463380e+00 2.4136395536e+00 4.1805463380e+00 
39000 6.0365958385e+00 -7.9549502297e-03 2.4138036099e+00 -4.1808304918e+00 2.4138036099e+00 4.1808304918e+00 
39100 6.0365910712e+00 -7.9882321939e-03 2.4139683922e+00 -4.1811159031e+00 2.4139683922e+00 4.1811159031e+00 
39200 6.0365863270e+00 -8.0189273558e-03 2.4141338526e+00 -4.1814024889e+00 2.4141338526e+00 4.1814024889e+00 
39300 6.0365816117e+00 -8.0467687424e-03 2.4142999374e+00 -4.1816901562e+00 2.4142999374e+00 4.1816901562e+00 
39400 6.0365769314e+00 -8.0715074258e-03 2.4144665874e+00 -4.1819788025e+00 2.4144665874e+00 4.1819788025e+00 
39500 6.0365722925e+00 -8.0929128453e-03 2.4146337382e+00 -4.1822683162e+00 2.4146337382e+00 4.1822683162e+00 
39600 6.0365677015e+00 -8.1107730637e-03 2.4148013206e+00 -4.1825585775e+00 2.4148013206e+00 4.1825585775e+00 
39700 6.0365631653e+00 -8.1248949571e-03 2.4149692613e+00 -4.1828494593e+00 2.4149692613e+00 4.1828494593e+00 
39800 6.0365586904e+00 -8.1351043414e-03 2.4151374827e+00 -4.1831408273e+00 2.4151374827e+00 4.1831408273e+00 
39900 6.0365542834e+00 -8.1412460348e-03 2.4153059037e+00 -4.1834325411e+00 2.4153059037e+00 4.1834325411e+00 
40000 6.0365499506e+00 -8.1431838595e-03 2.4154744402e+00 -4.1837244547e+00 2.4154744402e+00 4.1837244547e+00 
40100 6.0365456980e+00 -8.1408005831e-03 2.4156430049e+00 -4.1840164175e+00 2.4156430049e+00 4.1840164175e+00 
40200 6.0365415313e+00 -8.1339978015e-03 2.4158115086e+00 -4.1843082745e+00 2.4158115086e+00 4.1843082745e+00 
40300 6.0365374556e+00 -8.1226957661e-03 2.4159798598e+00 -4.1845998672e+00 2.4159798598e+00 4.1845998672e+00 
40400 6.0365334755e+00 -8.1068331559e-03 2.4161479653e+00 -4.1848910345e+00 2.4161479653e+00 4.1848910345e+00 
40500 6.0365295951e+00 -8.0863667973e-03 2.4163157308e+00 -4.1851816129e+00 2.4163157308e+00 4.1851816129e+00 
40600 6.0365258180e+00 -8.0612713348e-03 2.4164830612e+00 -4.1854714376e+00 2.4164830612e+00 4.1854714376e+00 
40700 6.0365221468e+00 -8.0315388523e-03 2.4166498607e+00 -4.1857603428e+00 2.4166498607e+00 4.1857603428e+00 
40800 6.0365185837e+00 -7.9971784503e-03 2.4168160335e+00 -4.1860481626e+00 2.4168160335e+00 4.1860481626e+00 
40900 6.0365151303e+00 -7.9582157789e-03 2.4169814840e+00 -4.1863347313e+00 2.4169814840e+00 4.1863347313e+00 
41000 6.0365117874e+00 -7.9146925314e-03 2.4171461172e+00 -4.1866198843e+00 2.4171461172e+00 4.1866198843e+00 
41100 6.0365085550e+00 -7.8666658993e-03 2.4173098388e+00 -4.1869034585e+00 2.4173098388e+00 4.1869034585e+00 
41200 6.0365054326e+00 -7.8142079916e-03 2.4174725560e+00 -4.1871852928e+00 2.4174725560e+00 4.1871852928e+00 
41300 6.0365024192e+00 -7.7574052220e-03 2.4176341771e+00 -4.1874652289e+00 2.4176341771e+00 4.1874652289e+00 
41400 6.0364995129e+00 -7.6963576661e-03 2.4177946127e+00 -4.1877431115e+00 2.4177946127e+00 4.1877431115e+00 
41500 6.0364967115e+00 -7.6311783907e-03 2.4179537752e+00 -4.1880187889e+00 2.4179537752e+00 4.1880187889e+00 
41600 6.0364940121e+00 -7.5619927588e-03 2.4181115793e+00 -4.1882921137e+00 2.4181115793e+00 4.1882921137e+00 
41700 6.0364914114e+00 -7.4889377129e-03 2.4182679425e+00 -4.1885629427e+00 2.4182679425e+00 4.1885629427e+00 
41800 6.0364889057e+00 -7.4121610389e-03 2.4184227851e+00 -4.1888311380e+00 2.4184227851e+00 4.1888311380e+00 
41900 6.0364864909e+00 -7.3318206134e-03 2.4185760304e+00 -4.1890965666e+00 2.4185760304e+00 4.1890965666e+00 
42000 6.0364841626e+00 -7.2480836380e-03 2.4187276051e+00 -4.1893591017e+00 2.4187276051e+00 4.1893591017e+00 
42100 6.0364819162e+00 -7.1611258617e-03 2.4188774392e+00 -4.1896186220e+00 2.4188774392e+00 4.1896186220e+00 
42200 6.0364797467e+00 -7.0711307954e-03 2.4190254665e+00 -4.1898750128e+00 2.4190254665e+00 4.1898750128e+00 
42300 6.0364776492e+00 -6.9782889209e-03 2.4191716246e+00 -4.1901281660e+00 2.4191716246e+00 4.1901281660e+00 
42400 6.0364756187e+00 -6.8827968961e-03 2.4193158549e+00 -4.1903779803e+00 2.4193158549e+00 4.1903779803e+00 
42500 6.0364736499e+00 -6.7848567604e-03 2.4194581031e+00 -4.1906243613e+00 2.4194581031e+00 4.1906243613e+00 
42600 6.0364717380e+00 -6.6846751411e-03 2.4195983188e+00 -4.1908672221e+00 2.4195983188e+00 4.1908672221e+00 
42700 6.0364698778e+00 -6.5824624650e-03 2.4197364562e+00 -4.1911064830e+00 2.4197364562e+00 4.1911064830e+00 
42800 6.0364680645e+00 -6.4784321764e-03 2.4198724736e+00 -4.1913420720e+00 2.4198724736e+00 4.1913420720e+00 
42900 6.0364662936e+00 -6.3727999634e-03 2.4200063338e+00 -4.1915739247e+00 2.4200063338e+00 4.1915739247e+00 
43000 6.0364645604e+00 -6.2657829968e-03 2.4201380040e+00 -4.1918019843e+00 2.4201380040e+00 4.1918019843e+00 
43100 6.0364628609e+00 -6.1575991809e-03 2.4202674561e+00 -4.1920262019e+00 2.4202674561e+00 4.1920262019e+00 
43200 6.0364611911e+00 -6.0484664207e-03 2.4203946663e+00 -4.1922465364e+00 2.4203946663e+00 4.1922465364e+00 
43300 6.0364595473e+00 -5.9386019062e-03 2.4205196153e+00 -4.1924629544e+00 2.4205196153e+00 4.1924629544e+00 
43400 6.0364579263e+00 -5.8282214154e-03 2.4206422884e+00 -4.1926754304e+00 2.4206422884e+00 4.1926754304e+00 
43500 6.0364563252e+00 -5.7175386395e-03 2.4207626752e+00 -4.1928839466e+00 2.4207626752e+00 4.1928839466e+00 
43600 6.0364547413e+00 -5.6067645294e-03 2.4208807699e+00 -4.1930884926e+00 2.4208807699e+00 4.1930884926e+00 
43700 6.0364531725e+00 -5.4961066672e-03 2.4209965710e+00 -4.1932890659e+00 2.4209965710e+00 4.1932890659e+00 
43800 6.0364516169e+00 -5.3857686637e-03 2.4211100810e+00 -4.1934856711e+00 2.4211100810e+00 4.1934856711e+00 
43900 6.0364500731e+00 -5.2759495819e-03 2.4212213071e+00 -4.1936783202e+00 2.4212213071e+00 4.1936783202e+00 
44000 6.0364485398e+00 -5.1668433899e-03 2.4213302601e+00 -4.1938670324e+00 2.4213302601e+00 4.1938670324e+00 
44100 6.0364470163e+00 -5.0586384423e-03 2.4214369552e+00 -4.1940518338e+00 2.4214369552e+00 4.1940518338e+00 
44200 6.0364455021e+00 -4.9515169925e-03 2.4215414113e+00 -4.1942327570e+00 2.4215414113e+00 4.1942327570e+00 
44300 6.0364439971e+00 -4.8456547361e-03 2.4216436509e+00 -4.1944098413e+00 2.4216436509e+00 4.1944098413e+00 
44400 6.0364425015e+00 -4.7412203862e-03 2.4217437005e+00 -4.1945831322e+00 2.4217437005e+00 4.1945831322e+00 
44500 6.0364410156e+00 -4.6383752817e-03 2.4218415897e+00 -4.1947526813e+00 2.4218415897e+00 4.1947526813e+00 
44600 6.0364395401e+00 -4.5372730285e-03 2.4219373517e+00 -4.1949185459e+00 2.4219373517e+00 4.1949185459e+00 
44700 6.0364380759e+00 -4.4380591744e-03 2.4220310226e+00 -4.1950807887e+00 2.4220310226e+00 4.1950807887e+00 
44800 6.0364366241e+00 -4.3408709177e-03 2.4221226417e+00 -4.1952394777e+00 2.4221226417e+00 4.1952394777e+00 
44900 6.0364351857e+00 -4.2458368506e-03 2.4222122511e+00 -4.1953946856e+00 2.4222122511e+00 4.1953946856e+00 
45000 6.0364337622e+00 -4.1530767354e-03 2.4222998954e+00 -4.1955464900e+00 2.4222998954e+00 4.1955464900e+00 
45100 6.0364323551e+00 -4.0627013163e-03 2.4223856218e+00 -4.1956949725e+00 2.4223856218e+00 4.1956949725e+00 
45200 6.0364309657e+00 -3.9748121637e-03 2.4224694798e+00 -4.1958402187e+00 2.4224694798e+00 4.1958402187e+00 
45300 6.0364295957e+00 -3.8895015534e-03 2.4225515207e+00 -4.1959823178e+00 2.4225515207e+00 4.1959823178e+00 
45400 6.0364282465e+00 -3.8068523779e-03 2.4226317981e+00 -4.1961213624e+00 2.4226317981e+00 4.1961213624e+00 
45500 6.0364269198e+00 -3.7269380913e-03 2.4227103671e+00 -4.1962574478e+00 2.4227103671e+00 4.1962574478e+00 
45600 6.0364256170e+00 -3.6498226859e-03 2.4227872842e+00 -4.1963906722e+00 2.4227872842e+00 4.1963906722e+00 
45700 6.0364243395e+00 -3.5755607008e-03 2.4228626074e+00 -4.1965211358e+00 2.4228626074e+00 4.1965211358e+00 
45800 6.0364230886e+00 -3.5041972607e-03 2.4229363957e+00 -4.1966489409e+00 2.4229363957e+00 4.1966489409e+00 
45900 6.0364218656e+00 -3.4357681449e-03 2.4230087091e+00 -4.1967741913e+00 2.4230087091e+00 4.1967741913e+00 
46000 6.0364206717e+00 -3.3702998856e-03 2.4230796082e+00 -4.1968969922e+00 2.4230796082e+00 4.1968969922e+00 
46100 6.0364195077e+00 -3.3078098935e-03 2.4231491544e+00 -4.1970174497e+00 2.4231491544e+00 4.1970174497e+00 
46200 6.0364183745e+00 -3.2483066109e-03 2.4232174090e+00 -4.1971356702e+00 2.4232174090e+00 4.1971356702e+00 
46300 6.0364172728e+00 -3.1917896902e-03 2.4232844340e+00 -4.1972517609e+00 2.4232844340e+00 4.1972517609e+00 
46400 6.0364162030e+00 -3.1382501972e-03 2.4233502910e+00 -4.1973658285e+00 2.4233502910e+00 4.1973658285e+00 
46500 6.0364151656e+00 -3.0876708377e-03 2.4234150415e+00 -4.1974779798e+00 2.4234150415e+00 4.1974779798e+00 
46600 6.0364141606e+00 -3.0400262058e-03 2.4234787468e+00 -4.1975883204e+00 2.4234787468e+00 4.1975883204e+00 
46700 6.0364131881e+00 -2.9952830535e-03 2.4235414673e+00 -4.1976969557e+00 2.4235414673e+00 4.1976969557e+00 
46800 6.0364122479e+00 -2.9534005788e-03 2.4236032632e+00 -4.1978039892e+00 2.4236032632e+00 4.1978039892e+00 
46900 6.0364113397e+00 -2.9143307323e-03 2.4236641934e+00 -4.1979095234e+00 2.4236641934e+00 4.1979095234e+00 
47000 6.0364104630e+00 -2.8780185400e-03 2.4237243160e+00 -4.1980136589e+00 2.4237243160e+00 4.1980136589e+00 
47100 6.0364096172e+00 -2.8444024411e-03 2.4237836881e+00 -4.1981164943e+00 2.4237836881e+00 4.1981164943e+00 
47200 6.0364088015e+00 -2.8134146389e-03 2.4238423652e+00 -4.1982181261e+00 2.4238423652e+00 4.1982181261e+00 
47300 6.0364080151e+00 -2.7849814643e-03 2.4239004017e+00 -4.1983186483e+00 2.4239004017e+00 4.1983186483e+00 
47400 6.0364072570e+00 -2.7590237497e-03 2.4239578503e+00 -4.1984181521e+00 2.4239578503e+00 4.1984181521e+00 
47500 6.0364065260e+00 -2.7354572113e-03 2.4240147621e+00 -4.1985167262e+00 2.4240147621e+00 4.1985167262e+00 
47600 6.0364058210e+00 -2.7141928398e-03 2.4240711864e+00 -4.1986144560e+00 2.4240711864e+00 4.1986144560e+00 
47700 6.0364051407e+00 -2.6951372964e-03 2.4241271708e+00 -4.1987114238e+00 2.4241271708e+00 4.1987114238e+00 
47800 6.0364044839e+00 -2.6781933140e-03 2.4241827609e+00 -4.1988077086e+00 2.4241827609e+00 4.1988077086e+00 
47900 6.0364038492e+00 -2.6632601010e-03 2.4242380002e+00 -4.1989033859e+00 2.4242380002e+00 4.1989033859e+00 
48000 6.0364032353e+00 -2.6502337473e-03 2.4242929302e+00 -4.1989985275e+00 2.4242929302e+00 4.1989985275e+00 
48100 6.0364026408e+00 -2.6390076306e-03 2.4243475903e+00 -4.1990932017e+00 2.4243475903e+00 4.1990932017e+00 
48200 6.0364020643e+00 -2.6294728213e-03 2.4244020177e+00 -4.1991874727e+00 2.4244020177e+00 4.1991874727e+00 
48300 6.0364015045e+00 -2.6215184858e-03 2.4244562472e+00 -4.1992814009e+00 2.4244562472e+00 4.1992814009e+00 
48400 6.0364009601e+00 -2.6150322854e-03 2.4245103115e+00 -4.1993750430e+00 2.4245103115e+00 4.1993750430e+00 
48500 6.0364004297e+00 -2.6099007713e-03 2.4245642408e+00 -4.1994684512e+00 2.4245642408e+00 4.1994684512e+00 
48600 6.0363999122e+00 -2.6060097731e-03 2.4246180630e+00 -4.1995616741e+00 2.4246180630e+00 4.1995616741e+00 
48700 6.0363994064e+00 -2.6032447801e-03 2.4246718038e+00 -4.1996547559e+00 2.4246718038e+00 4.1996547559e+00 
48800 6.0363989112e+00 -2.6014913148e-03 2.4247254865e+00 -4.1997477369e+00 2.4247254865e+00 4.1997477369e+00 
48900 6.0363984255e+00 -2.6006352970e-03 2.4247791317e+00 -4.1998406533e+00 2.4247791317e+00 4.1998406533e+00 
49000 6.0363979486e+00 -2.6005633976e-03 2.4248327582e+00 -4.1999335370e+00 2.4248327582e+00 4.1999335370e+00 
49100 6.0363974794e+00 -2.6011633820e-03 2.4248863819e+00 -4.2000264160e+00 2.4248863819e+00 4.2000264160e+00 
49200 6.0363970172e+00 -2.6023244404e-03 2.4249400169e+00 -4.2001193145e+00 2.4249400169e+00 4.2001193145e+00 
49300 6.0363965615e+00 -2.6039375065e-03 2.4249936746e+00 -4.2002122524e+00 2.4249936746e+00 4.2002122524e+00 
49400 6.0363961115e+00 -2.6058955624e-03 2.4250473643e+00 -4.2003052458e+00 2.4250473643e+00 4.2003052458e+00 
49500 6.0363956669e+00 -2.6080939290e-03 2.4251010933e+00 -4.2003983071e+00 2.4251010933e+00 4.2003983071e+00 
49600 6.0363952273e+00 -2.6104305423e-03 2.4251548664e+00 -4.2004914448e+00 2.4251548664e+00 4.2004914448e+00 
49700 6.0363947923e+00 -2.6128062145e-03 2.4252086864e+00 -4.2005846639e+00 2.4252086864e+00 4.2005846639e+00 
49800 6.0363943617e+00 -2.6151248785e-03 2.4252625543e+00 -4.2006779657e+00 2.4252625543e+00 4.2006779657e+00 
49900 6.0363939354e+00 -2.6172938175e-03 2.4253164688e+00 -4.2007713483e+00 2.4253164688e+00 4.2007713483e+00 
50000 6.0363935134e+00 -2.6192238777e-03 2.4253704267e+00 -4.2008648063e+00 2.4253704267e+00 4.2008648063e+00 
50100 6.0363930957e+00 -2.6208296636e-03 2.4254244233e+00 -4.2009583311e+00 2.4254244233e+00 4.2009583311e+00 
50200 6.0363926823e+00 -2.6220297173e-03 2.4254784518e+00 -4.2010519111e+00 2.4254784518e+00 4.2010519111e+00 
50300 6.0363922734e+00 -2.6227466805e-03 2.4255325038e+00 -4.2011455320e+00 2.4255325038e+00 4.2011455320e+00 
50400 6.0363918692e+00 -2.6229074388e-03 2.4255865694e+00 -4.2012391763e+00 2.4255865694e+00 4.2012391763e+00 
50500 6.0363914699e+00 -2.6224432493e-03 2.4256406371e+00 -4.2013328243e+00 2.4256406371e+00 4.2013328243e+00 
50600 6.0363910758e+00 -2.6212898505e-03 2.4256946940e+00 -4.2014264536e+00 2.4256946940e+00 4.2014264536e+00 
50700 6.0363906872e+00 -2.6193875557e-03 2.4257487259e+00 -4.2015200397e+00 2.4257487259e+00 4.2015200397e+00 
50800 6.0363903044e+00 -2.6166813285e-03 2.4258027174e+00 -4.2016135557e+00 2.4258027174e+00 4.2016135557e+00 
50900 6.0363899277e+00 -2.6131208420e-03 2.4258566520e+00 -4.2017069731e+00 2.4258566520e+00 4.2017069731e+00 
51000 6.0363895574e+00 -2.6086605216e-03 2.4259105119e+00 -4.2018002613e+00 2.4259105119e+00 4.2018002613e+00 
51100 6.0363891940e+00 -2.6032595705e-03 2.4259642787e+00 -4.2018933881e+00 2.4259642787e+00 4.2018933881e+00 
51200 6.0363888377e+00 -2.5968819805e-03 2.4260179331e+00 -4.2019863201e+00 2.4260179331e+00 4.2019863201e+00 
51300 6.0363884889e+00 -2.5894965254e-03 2.4260714547e+00 -4.2020790224e+00 2.4260714547e+00 4.2020790224e+00 
51400 6.0363881478e+00 -2.5810767410e-03 2.4261248230e+00 -4.2021714590e+00 2.4261248230e+00 4.2021714590e+00 
51500 6.0363878148e+00 -2.5716008888e-03 2.4261780166e+00 -4.2022635930e+00 2.4261780166e+00 4.2022635930e+00 
51600 6.0363874900e+00 -2.5610519063e-03 2.4262310138e+00 -4.2023553868e+00 2.4262310138e+00 4.2023553868e+00 
51700 6.0363871736e+00 -2.5494173425e-03 2.4262837924e+00 -4.2024468020e+00 2.4262837924e+00 4.2024468020e+00 
51800 6.0363868660e+00 -2.5366892813e-03 2.4263363301e+00 -4.2025377999e+00 2.4263363301e+00 4.2025377999e+00 
51900 6.0363865672e+00 -2.5228642510e-03 2.4263886043e+00 -4.2026283416e+00 2.4263886043e+00 4.2026283416e+00 
52000 6.0363862773e+00 -2.5079431227e-03 2.4264405926e+00 -4.2027183879e+00 2.4264405926e+00 4.2027183879e+00 
52100 6.0363859963e+00 -2.4919309964e-03 2.4264922722e+00 -4.2028078996e+00 2.4264922722e+00 4.2028078996e+00 
52200 6.0363857244e+00 -2.4748370764e-03 2.4265436208e+00 -4.2028968380e+00 2.4265436208e+00 4.2028968380e+00 
52300 6.0363854614e+00 -2.4566745372e-03 2.4265946161e+00 -4.2029851644e+00 2.4265946161e+00 4.2029851644e+00 
52400 6.0363852074e+00 -2.4374603790e-03 2.4266452361e+00 -4.2030728408e+00 2.4266452361e+00 4.2030728408e+00 
52500 6.0363849622e+00 -2.4172152746e-03 2.4266954591e+00 -4.2031598296e+00 2.4266954591e+00 4.2031598296e+00 
52600 6.0363847258e+00 -2.3959634086e-03 2.4267452639e+00 -4.2032460941e+00 2.4267452639e+00 4.2032460941e+00 
52700 6.0363844978e+00 -2.3737323088e-03 2.4267946299e+00 -4.2033315985e+00 2.4267946299e+00 4.2033315985e+00 
52800 6.0363842782e+00 -2.3505526711e-03 2.4268435368e+00 -4.2034163077e+00 2.4268435368e+00 4.2034163077e+00 
52900 6.0363840667e+00 -2.3264581783e-03 2.4268919651e+00 -4.2035001881e+00 2.4268919651e+00 4.2035001881e+00 
53000 6.0363838631e+00 -2.3014853136e-03 2.4269398961e+00 -4.2035832069e+00 2.4269398961e+00 4.2035832069e+00 
53100 6.0363836670e+00 -2.2756731701e-03 2.4269873116e+00 -4.2036653331e+00 2.4269873116e+00 4.2036653331e+00 
53200 6.0363834781e+00 -2.2490632556e-03 2.4270341944e+00 -4.2037465365e+00 2.4270341944e+00 4.2037465365e+00 
53300 6.0363832962e+00 -2.2216992956e-03 2.4270805282e+00 -4.2038267888e+00 2.4270805282e+00 4.2038267888e+00 
53400 6.0363831208e+00 -2.1936270325e-03 2.4271262973e+00 -4.2039060633e+00 2.4271262973e+00 4.2039060633e+00 
53500 6.0363829517e+00 -2.1648940240e-03 2.4271714872e+00 -4.2039843345e+00 2.4271714872e+00 4.2039843345e+00 
53600 6.0363827885e+00 -2.1355494407e-03 2.4272160844e+00 -4.2040615791e+00 2.4272160844e+00 4.2040615791e+00 
53700 6.0363826308e+00 -2.1056438626e-03 2.4272600763e+00 -4.2041377753e+00 2.4272600763e+00 4.2041377753e+00 
53800 6.0363824783e+00 -2.0752290766e-03 2.4273034513e+00 -4.2042129031e+00 2.4273034513e+00 4.2042129031e+00 
53900 6.0363823306e+00 -2.0443578749e-03 2.4273461991e+00 -4.2042869444e+00 2.4273461991e+00 4.2042869444e+00 
54000 6.0363821874e+00 -2.0130838547e-03 2.4273883102e+00 -4.2043598829e+00 2.4273883102e+00 4.2043598829e+00 
54100 6.0363820483e+00 -1.9814612204e-03 2.4274297763e+00 -4.2044317044e+00 2.4274297763e+00 4.2044317044e+00 
54200 6.0363819131e+00 -1.9495445885e-03 2.4274705904e+00 -4.2045023965e+00 2.4274705904e+00 4.2045023965e+00 
54300 6.0363817814e+00 -1.9173887962e-03 2.4275107464e+00 -4.2045719487e+00 2.4275107464e+00 4.2045719487e+00 
54400 6.0363816529e+00 -1.8850487133e-03 2.4275502394e+00 -4.2046403526e+00 2.4275502394e+00 4.2046403526e+00 
54500 6.0363815273e+00 -1.8525790588e-03 2.4275890657e+00 -4.2047076017e+00 2.4275890657e+00 4.2047076017e+00 
54600 6.0363814045e+00 -1.8200342226e-03 2.4276272225e+00 -4.2047736913e+00 2.4276272225e+00 4.2047736913e+00 
54700 6.0363812841e+00 -1.7874680926e-03 2.4276647085e+00 -4.2048386189e+00 2.4276647085e+00 4.2048386189e+00 
54800 6.0363811660e+00 -1.7549338868e-03 2.4277015232e+00 -4.2049023837e+00 2.4277015232e+00 4.2049023837e+00 
54900 6.0363810500e+00 -1.7224839928e-03 2.4277376672e+00 -4.2049649870e+00 2.4277376672e+00 4.2049649870e+00 
55000 6.0363809359e+00 -1.6901698125e-03 2.4277731424e+00 -4.2050264318e+00 2.4277731424e+00 4.2050264318e+00 
55100 6.0363808236e+00 -1.6580416153e-03 2.4278079515e+00 -4.2050867230e+00 2.4278079515e+00 4.2050867230e+00 
55200 6.0363807130e+00 -1.6261483968e-03 2.4278420985e+00 -4.2051458673e+00 2.4278420985e+00 4.2051458673e+00 
55300 6.0363806039e+00 -1.5945377466e-03 2.4278755881e+00 -4.2052038731e+00 2.4278755881e+00 4.2052038731e+00 
55400 6.0363804964e+00 -1.5632557225e-03 2.4279084263e+00 -4.2052607505e+00 2.4279084263e+00 4.2052607505e+00 
55500 6.0363803903e+00 -1.5323467335e-03 2.4279406199e+00 -4.2053165114e+00 2.4279406199e+00 4.2053165114e+00 
55600 6.0363802857e+00 -1.5018534308e-03 2.4279721764e+00 -4.2053711690e+00 2.4279721764e+00 4.2053711690e+00 
55700 6.0363801825e+00 -1.4718166067e-03 2.4280031047e+00 -4.2054247382e+00 2.4280031047e+00 4.2054247382e+00 
55800 6.0363800807e+00 -1.4422751026e-03 2.4280334139e+00 -4.2054772354e+00 2.4280334139e+00 4.2054772354e+00 
55900 6.0363799804e+00 -1.4132657254e-03 2.4280631145e+00 -4.2055286782e+00 2.4280631145e+00 4.2055286782e+00 
56000 6.0363798816e+00 -1.3848231714e-03 2.4280922173e+00 -4.2055790857e+00 2.4280922173e+00 4.2055790857e+00 
56100 6.0363797843e+00 -1.3569799610e-03 2.4281207340e+00 -4.2056284782e+00 2.4281207340e+00 4.2056284782e+00 
56200 6.0363796885e+00 -1.3297663799e-03 2.4281486771e+00 -4.2056768770e+00 2.4281486771e+00 4.2056768770e+00 
56300 6.0363795945e+00 -1.3032104301e-03 2.4281760594e+00 -4.2057243046e+00 2.4281760594e+00 4.2057243046e+00 
56400 6.0363795022e+00 -1.2773377895e-03 2.4282028946e+00 -4.2057707846e+00 2.4282028946e+00 4.2057707846e+00 
56500 6.0363794116e+00 -1.2521717794e-03 2.4282291968e+00 -4.2058163413e+00 2.4282291968e+00 4.2058163413e+00 
56600 6.0363793230e+00 -1.2277333411e-03 2.4282549805e+00 -4.2058610000e+00 2.4282549805e+00 4.2058610000e+00 
56700 6.0363792362e+00 -1.2040410203e-03 2.4282802607e+00 -4.2059047865e+00 2.4282802607e+00 4.2059047865e+00 
56800 6.0363791515e+00 -1.1811109598e-03 2.4283050528e+00 -4.2059477277e+00 2.4283050528e+00 4.2059477277e+00 
56900 6.0363790689e+00 -1.1589569004e-03 2.4283293725e+00 -4.2059898507e+00 2.4283293725e+00 4.2059898507e+00 
57000 6.0363789884e+00 -1.1375901889e-03 2.4283532358e+00 -4.2060311831e+00 2.4283532358e+00 4.2060311831e+00 
57100 6.0363789102e+00 -1.1170197950e-03 2.4283766589e+00 -4.2060717531e+00 2.4283766589e+00 4.2060717531e+00 
57200 6.0363788342e+00 -1.0972523337e-03 2.4283996583e+00 -4.2061115892e+00 2.4283996583e+00 4.2061115892e+00 
57300 6.0363787606e+00 -1.0782920966e-03 2.4284222504e+00 -4.2061507199e+00 2.4284222504e+00 4.2061507199e+00 
57400 6.0363786893e+00 -1.0601410887e-03 2.4284444519e+00 -4.2061891741e+00 2.4284444519e+00 4.2061891741e+00 
57500 6.0363786204e+00 -1.0427990722e-03 2.4284662795e+00 -4.2062269806e+00 2.4284662795e+00 4.2062269806e+00 
57600 6.0363785539e+00 -1.0262636171e-03 2.4284877499e+00 -4.2062641683e+00 2.4284877499e+00 4.2062641683e+00 
57700 6.0363784898e+00 -1.0105301564e-03 2.4285088796e+00 -4.2063007661e+00 2.4285088796e+00 4.2063007661e+00 
57800 6.0363784282e+00 -9.9559204835e-04 2.4285296852e+00 -4.2063368024e+00 2.4285296852e+00 4.2063368024e+00 
57900 6.0363783689e+00 -9.8144064289e-04 2.4285501830e+00 -4.2063723058e+00 2.4285501830e+00 4.2063723058e+00 
58000 6.0363783121e+00 -9.6806535357e-04 2.4285703894e+00 -4.2064073042e+00 2.4285703894e+00 4.2064073042e+00 
58100 6.0363782576e+00 -9.5545373387e-04 2.4285903202e+00 -4.2064418253e+00 2.4285903202e+00 4.2064418253e+00 
58200 6.0363782055e+00 -9.4359155772e-04 2.4286099912e+00 -4.2064758964e+00 2.4286099912e+00 4.2064758964e+00 
58300 6.0363781556e+00 -9.3246290390e-04 2.4286294178e+00 -4.2065095443e+00 2.4286294178e+00 4.2065095443e+00 
58400 6.0363781080e+00 -9.2205024395e-04 2.4286486151e+00 -4.2065427951e+00 2.4286486151e+00 4.2065427951e+00 
58500 6.0363780625e+00 -9.1233453316e-04 2.4286675979e+00 -4.2065756743e+00 2.4286675979e+00 4.2065756743e+00 
58600 6.0363780191e+00 -9.0329530432e-04 2.4286863805e+00 -4.2066082067e+00 2.4286863805e+00 4.2066082067e+00 
58700 6.0363779777e+00 -8.9491076382e-04 2.4287049769e+00 -4.2066404166e+00 2.4287049769e+00 4.2066404166e+00 
58800 6.0363779382e+00 -8.8715788981e-04 2.4287234006e+00 -4.2066723273e+00 2.4287234006e+00 4.2066723273e+00 
58900 6.0363779006e+00 -8.8001253197e-04 2.4287416645e+00 -4.2067039613e+00 2.4287416645e+00 4.2067039613e+00 
59000 6.0363778647e+00 -8.7344951254e-04 2.4287597811e+00 -4.2067353403e+00 2.4287597811e+00 4.2067353403e+00 
59100 6.0363778305e+00 -8.6744272830e-04 2.4287777625e+00 -4.2067664850e+00 2.4287777625e+00 4.2067664850e+00 
59200 6.0363777978e+00 -8.6196525313e-04 2.4287956202e+00 -4.2067974153e+00 2.4287956202e+00 4.2067974153e+00 
59300 6.0363777666e+00 -8.5698944074e-04 2.4288133649e+00 -4.2068281501e+00 2.4288133649e+00 4.2068281501e+00 
59400 6.0363777368e+00 -8.5248702734e-04 2.4288310071e+00 -4.2068587072e+00 2.4288310071e+00 4.2068587072e+00 
59500 6.0363777083e+00 -8.4842923385e-04 2.4288485564e+00 -4.2068891036e+00 2.4288485564e+00 4.2068891036e+00 
59600 6.0363776810e+00 -8.4478686730e-04 2.4288660221e+00 -4.2069193550e+00 2.4288660221e+00 4.2069193550e+00 
59700 6.0363776547e+00 -8.4153042123e-04 2.4288834127e+00 -4.2069494764e+00 2.4288834127e+00 4.2069494764e+00 
59800 6.0363776295e+00 -8.3863017466e-04 2.4289007361e+00 -4.2069794815e+00 2.4289007361e+00 4.2069794815e+00 
59900 6.0363776051e+00 -8.3605628944e-04 2.4289179997e+00 -4.2070093829e+00 2.4289179997e+00 4.2070093829e+00 
60000 6.0363775816e+00 -8.3377890563e-04 2.4289352102e+00 -4.2070391923e+00 2.4289352102e+00 4.2070391923e+00 
60100 6.0363775589e+00 -8.3176823472e-04 2.4289523737e+00 -4.2070689203e+00 2.4289523737e+00 4.2070689203e+00 
60200 6.0363775369e+00 -8.2999465036e-04 2.4289694956e+00 -4.2070985765e+00 2.4289694956e+00 4.2070985765e+00 
60300 6.0363775156e+00 -8.2842877648e-04 2.4289865810e+00 -4.2071281692e+00 2.4289865810e+00 4.2071281692e+00 
60400 6.0363774948e+00 -8.2704157245e-04 2.4290036340e+00 -4.2071577058e+00 2.4290036340e+00 4.2071577058e+00 
60500 6.0363774745e+00 -8.2580441518e-04 2.4290206583e+00 -4.2071871928e+00 2.4290206583e+00 4.2071871928e+00 
60600 6.0363774547e+00 -8.2468917789e-04 2.4290376570e+00 -4.2072166355e+00 2.4290376570e+00 4.2072166355e+00 
60700 6.0363774354e+00 -8.2366830546e-04 2.4290546327e+00 -4.2072460382e+00 2.4290546327e+00 4.2072460382e+00 
60800 6.0363774165e+00 -8.2271488615e-04 2.4290715872e+00 -4.2072754043e+00 2.4290715872e+00 4.2072754043e+00 
60900 6.0363773979e+00 -8.2180271948e-04 2.4290885220e+00 -4.2073047361e+00 2.4290885220e+00 4.2073047361e+00 
61000 6.0363773797e+00 -8.2090638031e-04 2.4291054379e+00 -4.2073340353e+00 2.4291054379e+00 4.2073340353e+00 
61100 6.0363773619e+00 -8.2000127889e-04 2.4291223352e+00 -4.2073633023e+00 2.4291223352e+00 4.2073633023e+00 
61200 6.0363773443e+00 -8.1906371673e-04 2.4291392138e+00 -4.2073925369e+00 2.4291392138e+00 4.2073925369e+00 
61300 6.0363773271e+00 -8.1807093840e-04 2.4291560729e+00 -4.2074217378e+00 2.4291560729e+00 4.2074217378e+00 
61400 6.0363773103e+00 -8.1700117899e-04 2.4291729115e+00 -4.2074509031e+00 2.4291729115e+00 4.2074509031e+00 
61500 6.0363772937e+00 -8.1583370733e-04 2.4291897280e+00 -4.2074800301e+00 2.4291897280e+00 4.2074800301e+00 
61600 6.0363772775e+00 -8.1454886483e-04 2.4292065203e+00 -4.2075091152e+00 2.4292065203e+00 4.2075091152e+00 
61700 6.0363772616e+00 -8.1312810000e-04 2.4292232861e+00 -4.2075381544e+00 2.4292232861e+00 4.2075381544e+00 
61800 6.0363772461e+00 -8.1155399856e-04 2.4292400225e+00 -4.2075671427e+00 2.4292400225e+00 4.2075671427e+00 
61900 6.0363772309e+00 -8.0981030930e-04 2.4292567263e+00 -4.2075960747e+00 2.4292567263e+00 4.2075960747e+00 
62000 6.0363772161e+00 -8.0788196547e-04 2.4292733942e+00 -4.2076249443e+00 2.4292733942e+00 4.2076249443e+00 
62100 6.0363772017e+00 -8.0575510201e-04 2.4292900223e+00 -4.2076537449e+00 2.4292900223e+00 4.2076537449e+00 
62200 6.0363771877e+00 -8.0341706844e-04 2.4293066065e+00 -4.2076824696e+00 2.4293066065e+00 4.2076824696e+00 
62300 6.0363771741e+00 -8.0085643761e-04 2.4293231424e+00 -4.2077111107e+00 2.4293231424e+00 4.2077111107e+00 
62400 6.0363771610e+00 -7.9806301034e-04 2.4293396256e+00 -4.2077396603e+00 2.4293396256e+00 4.2077396603e+00 
62500 6.0363771483e+00 -7.9502781601e-04 2.4293560511e+00 -4.2077681102e+00 2.4293560511e+00 4.2077681102e+00 
62600 6.0363771362e+00 -7.9174310927e-04 2.4293724141e+00 -4.2077964517e+00 2.4293724141e+00 4.2077964517e+00 
62700 6.0363771245e+00 -7.8820236284e-04 2.4293887093e+00 -4.2078246758e+00 2.4293887093e+00 4.2078246758e+00 
62800 6.0363771133e+00 -7.8440025668e-04 2.4294049316e+00 -4.2078527736e+00 2.4294049316e+00 4.2078527736e+00 
62900 6.0363771026e+00 -7.8033266355e-04 2.4294210754e+00 -4.2078807356e+00 2.4294210754e+00 4.2078807356e+00 
63000 6.0363770925e+00 -7.7599663111e-04 2.4294371355e+00 -4.2079085525e+00 2.4294371355e+00 4.2079085525e+00 
63100 6.0363770829e+00 -7.7139036067e-04 2.4294531062e+00 -4.2079362146e+00 2.4294531062e+00 4.2079362146e+00 
63200 6.0363770738e+00 -7.6651318291e-04 2.4294689821e+00 -4.2079637123e+00 2.4294689821e+00 4.2079637123e+00 
63300 6.0363770653e+00 -7.6136553040e-04 2.4294847574e+00 -4.2079910360e+00 2.4294847574e+00 4.2079910360e+00 
63400 6.0363770573e+00 -7.5594890743e-04 2.4295004267e+00 -4.2080181761e+00 2.4295004267e+00 4.2080181761e+00 
63500 6.0363770499e+00 -7.5026585711e-04 2.4295159844e+00 -4.2080451228e+00 2.4295159844e+00 4.2080451228e+00 
63600 6.0363770430e+00 -7.4431992588e-04 2.4295314251e+00 -4.2080718668e+00 2.4295314251e+00 4.2080718668e+00 
63700 6.0363770366e+00 -7.3811562583e-04 2.4295467433e+00 -4.2080983987e+00 2.4295467433e+00 4.2080983987e+00 
63800 6.0363770308e+00 -7.3165839474e-04 2.4295619337e+00 -4.2081247093e+00 2.4295619337e+00 4.2081247093e+00 
63900 6.0363770255e+00 -7.2495455415e-04 2.4295769911e+00 -4.2081507895e+00 2.4295769911e+00 4.2081507895e+00 
64000 6.0363770206e+00 -7.1801126571e-04 2.4295919105e+00 -4.2081766306e+00 2.4295919105e+00 4.2081766306e+00 
64100 6.0363770163e+00 -7.1083648584e-04 2.4296066869e+00 -4.2082022241e+00 2.4296066869e+00 4.2082022241e+00 
64200 6.0363770124e+00 -7.0343891900e-04 2.4296213155e+00 -4.2082275616e+00 2.4296213155e+00 4.2082275616e+00 
64300 6.0363770090e+00 -6.9582796966e-04 2.4296357919e+00 -4.2082526354e+00 2.4296357919e+00 4.2082526354e+00 
64400 6.0363770059e+00 -6.8801369328e-04 2.4296501115e+00 -4.2082774377e+00 2.4296501115e+00 4.2082774377e+00 
64500 6.0363770033e+00 -6.8000674638e-04 2.4296642702e+00 -4.2083019613e+00 2.4296642702e+00 4.2083019613e+00 
64600 6.0363770011e+00 -6.7181833588e-04 2.4296782640e+00 -4.2083261993e+00 2.4296782640e+00 4.2083261993e+00 
64700 6.0363769993e+00 -6.6346016795e-04 2.4296920893e+00 -4.2083501454e+00 2.4296920893e+00 4.2083501454e+00 
64800 6.0363769977e+00 -6.5494439656e-04 2.4297057425e+00 -4.2083737934e+00 2.4297057425e+00 4.2083737934e+00 
64900 6.0363769965e+00 -6.4628357176e-04 2.4297192203e+00 -4.2083971378e+00 2.4297192203e+00 4.2083971378e+00 
65000 6.0363769956e+00 -6.3749058805e-04 2.4297325199e+00 -4.2084201733e+00 2.4297325199e+00 4.2084201733e+00 
65100 6.0363769949e+00 -6.2857863285e-04 2.4297456385e+00 -4.2084428953e+00 2.4297456385e+00 4.2084428953e+00 
65200 6.0363769945e+00 -6.1956113538e-04 2.4297585735e+00 -4.2084652995e+00 2.4297585735e+00 4.2084652995e+00 
65300 6.0363769943e+00 -6.1045171592e-04 2.4297713230e+00 -4.2084873822e+00 2.4297713230e+00 4.2084873822e+00 
65400 6.0363769943e+00 -6.0126413580e-04 2.4297838849e+00 -4.2085091401e+00 2.4297838849e+00 4.2085091401e+00 
65500 6.0363769945e+00 -5.9201224810e-04 2.4297962577e+00 -4.2085305704e+00 2.4297962577e+00 4.2085305704e+00 
65600 6.0363769949e+00 -5.8270994928e-04 2.4298084401e+00 -4.2085516709e+00 2.4298084401e+00 4.2085516709e+00 
65700 6.0363769954e+00 -5.7337113192e-04 2.4298204309e+00 -4.2085724397e+00 2.4298204309e+00 4.2085724397e+00 
65800 6.0363769960e+00 -5.6400963855e-04 2.4298322296e+00 -4.2085928755e+00 2.4298322296e+00 4.2085928755e+00 
65900 6.0363769967e+00 -5.5463921685e-04 2.4298438355e+00 -4.2086129776e+00 2.4298438355e+00 4.2086129776e+00 
66000 6.0363769975e+00 -5.4527347621e-04 2.4298552486e+00 -4.2086327456e+00 2.4298552486e+00 4.2086327456e+00 
66100 6.0363769983e+00 -5.3592584582e-04 2.4298664689e+00 -4.2086521797e+00 2.4298664689e+00 4.2086521797e+00 
66200 6.0363769993e+00 -5.2660953441e-04 2.4298774968e+00 -4.2086712806e+00 2.4298774968e+00 4.2086712806e+00 
66300 6.0363770003e+00 -5.1733749160e-04 2.4298883329e+00 -4.2086900494e+00 2.4298883329e+00 4.2086900494e+00 
66400 6.0363770013e+00 -5.0812237116e-04 2.4298989782e+00 -4.2087084876e+00 2.4298989782e+00 4.2087084876e+00 
66500 6.0363770024e+00 -4.9897649601e-04 2.4299094339e+00 -4.2087265973e+00 2.4299094339e+00 4.2087265973e+00 
66600 6.0363770035e+00 -4.8991182525e-04 2.4299197013e+00 -4.2087443809e+00 2.4299197013e+00 4.2087443809e+00 
66700 6.0363770047e+00 -4.8093992308e-04 2.4299297821e+00 -4.2087618414e+00 2.4299297821e+00 4.2087618414e+00 
66800 6.0363770059e+00 -4.7207192986e-04 2.4299396783e+00 -4.2087789821e+00 2.4299396783e+00 4.2087789821e+00 
66900 6.0363770071e+00 -4.6331853513e-04 2.4299493919e+00 -4.2087958067e+00 2.4299493919e+00 4.2087958067e+00 
67000 6.0363770083e+00 -4.5468995288e-04 2.4299589254e+00 -4.2088123192e+00 2.4299589254e+00 4.2088123192e+00 
67100 6.0363770096e+00 -4.4619589889e-04 2.4299682814e+00 -4.2088285241e+00 2.4299682814e+00 4.2088285241e+00 
67200 6.0363770108e+00 -4.3784557022e-04 2.4299774625e+00 -4.2088444263e+00 2.4299774625e+00 4.2088444263e+00 
67300 6.0363770122e+00 -4.2964762692e-04 2.4299864717e+00 -4.2088600308e+00 2.4299864717e+00 4.2088600308e+00 
67400 6.0363770135e+00 -4.2161017593e-04 2.4299953123e+00 -4.2088753430e+00 2.4299953123e+00 4.2088753430e+00 
67500 6.0363770149e+00 -4.1374075714e-04 2.4300039874e+00 -4.2088903688e+00 2.4300039874e+00 4.2088903688e+00 
67600 6.0363770163e+00 -4.0604633164e-04 2.4300125006e+00 -4.2089051140e+00 2.4300125006e+00 4.2089051140e+00 
67700 6.0363770178e+00 -3.9853327210e-04 2.4300208554e+00 -4.2089195850e+00 2.4300208554e+00 4.2089195850e+00 
67800 6.0363770193e+00 -3.9120735535e-04 2.4300290556e+00 -4.2089337882e+00 2.4300290556e+00 4.2089337882e+00 
67900 6.0363770208e+00 -3.8407375700e-04 2.4300371051e+00 -4.2089477302e+00 2.4300371051e+00 4.2089477302e+00 
68000 6.0363770225e+00 -3.7713704822e-04 2.4300450077e+00 -4.2089614180e+00 2.4300450077e+00 4.2089614180e+00 
68100 6.0363770241e+00 -3.7040119445e-04 2.4300527676e+00 -4.2089748585e+00 2.4300527676e+00 4.2089748585e+00 
68200 6.0363770259e+00 -3.6386955620e-04 2.4300603888e+00 -4.2089880589e+00 2.4300603888e+00 4.2089880589e+00 
68300 6.0363770277e+00 -3.5754489175e-04 2.4300678757e+00 -4.2090010265e+00 2.4300678757e+00 4.2090010265e+00 
68400 6.0363770296e+00 -3.5142936169e-04 2.4300752324e+00 -4.2090137687e+00 2.4300752324e+00 4.2090137687e+00 
68500 6.0363770316e+00 -3.4552453540e-04 2.4300824632e+00 -4.2090262929e+00 2.4300824632e+00 4.2090262929e+00 
68600 6.0363770336e+00 -3.3983139912e-04 2.4300895725e+00 -4.2090386066e+00 2.4300895725e+00 4.2090386066e+00 
68700 6.0363770357e+00 -3.3435036590e-04 2.4300965647e+00 -4.2090507173e+00 2.4300965647e+00 4.2090507173e+00 
68800 6.0363770379e+00 -3.2908128699e-04 2.4301034441e+00 -4.2090626328e+00 2.4301034441e+00 4.2090626328e+00 
68900 6.0363770402e+00 -3.2402346489e-04 2.4301102150e+00 -4.2090743604e+00 2.4301102150e+00 4.2090743604e+00 
69000 6.0363770426e+00 -3.1917566779e-04 2.4301168818e+00 -4.2090859077e+00 2.4301168818e+00 4.2090859077e+00 
69100 6.0363770451e+00 -3.1453614546e-04 2.4301234489e+00 -4.2090972822e+00 2.4301234489e+00 4.2090972822e+00 
69200 6.0363770477e+00 -3.1010264634e-04 2.4301299205e+00 -4.2091084914e+00 2.4301299205e+00 4.2091084914e+00 
69300 6.0363770503e+00 -3.0587243588e-04 2.4301363009e+00 -4.2091195425e+00 2.4301363009e+00 4.2091195425e+00 
69400 6.0363770530e+00 -3.0184231604e-04 2.4301425942e+00 -4.2091304429e+00 2.4301425942e+00 4.2091304429e+00 
69500 6.0363770558e+00 -2.9800864574e-04 2.4301488046e+00 -4.2091411996e+00 2.4301488046e+00 4.2091411996e+00 
69600 6.0363770587e+00 -2.9436736231e-04 2.4301549361e+00 -4.2091518196e+00 2.4301549361e+00 4.2091518196e+00 
69700 6.0363770616e+00 -2.9091400371e-04 2.4301609927e+00 -4.2091623099e+00 2.4301609927e+00 4.2091623099e+00 
69800 6.0363770647e+00 -2.8764373160e-04 2.4301669782e+00 -4.2091726771e+00 2.4301669782e+00 4.2091726771e+00 
69900 6.0363770677e+00 -2.8455135499e-04 2.4301728964e+00 -4.2091829277e+00 2.4301728964e+00 4.2091829277e+00 
70000 6.0363770709e+00 -2.8163135446e-04 2.4301787509e+00 -4.2091930680e+00 2.4301787509e+00 4.2091930680e+00 
70100 6.0363770741e+00 -2.7887790692e-04 2.4301845454e+00 -4.2092031043e+00 2.4301845454e+00 4.2092031043e+00 
70200 6.0363770773e+00 -2.7628491066e-04 2.4301902832e+00 -4.2092130425e+00 2.4301902832e+00 4.2092130425e+00 
70300 6.0363770806e+00 -2.7384601078e-04 2.4301959676e+00 -4.2092228882e+00 2.4301959676e+00 4.2092228882e+00 
70400 6.0363770840e+00 -2.7155462474e-04 2.4302016018e+00 -4.2092326470e+00 2.4302016018e+00 4.2092326470e+00 
70500 6.0363770873e+00 -2.6940396811e-04 2.4302071889e+00 -4.2092423241e+00 2.4302071889e+00 4.2092423241e+00 
70600 6.0363770907e+00 -2.6738708028e-04 2.4302127317e+00 -4.2092519246e+00 2.4302127317e+00 4.2092519246e+00 
70700 6.0363770942e+00 -2.6549685014e-04 2.4302182330e+00 -4.2092614531e+00 2.4302182330e+00 4.2092614531e+00 
70800 6.0363770976e+00 -2.6372604166e-04 2.4302236955e+00 -4.2092709143e+00 2.4302236955e+00 4.2092709143e+00 
70900 6.0363771010e+00 -2.6206731917e-04 2.4302291214e+00 -4.2092803123e+00 2.4302291214e+00 4.2092803123e+00 
71000 6.0363771045e+00 -2.6051327247e-04 2.4302345132e+00 -4.2092896512e+00 2.4302345132e+00 4.2092896512e+00 
71100 6.0363771080e+00 -2.5905644141e-04 2.4302398731e+00 -4.2092989348e+00 2.4302398731e+00 4.2092989348e+00 
71200 6.0363771114e+00 -2.5768934026e-04 2.4302452029e+00 -4.2093081663e+00 2.4302452029e+00 4.2093081663e+00 
71300 6.0363771149e+00 -2.5640448130e-04 2.4302505047e+00 -4.2093173492e+00 2.4302505047e+00 4.2093173492e+00 
71400 6.0363771183e+00 -2.5519439810e-04 2.4302557799e+00 -4.2093264862e+00 2.4302557799e+00 4.2093264862e+00 
71500 6.0363771217e+00 -2.5405166805e-04 2.4302610303e+00 -4.2093355801e+00 2.4302610303e+00 4.2093355801e+00 
71600 6.0363771251e+00 -2.5296893412e-04 2.4302662571e+00 -4.2093446333e+00 2.4302662571e+00 4.2093446333e+00 
71700 6.0363771285e+00 -2.5193892612e-04 2.4302714617e+00 -4.2093536478e+00 2.4302714617e+00 4.2093536478e+00 
71800 6.0363771319e+00 -2.5095448089e-04 2.4302766450e+00 -4.2093626257e+00 2.4302766450e+00 4.2093626257e+00 
71900 6.0363771352e+00 -2.5000856189e-04 2.4302818081e+00 -4.2093715684e+00 2.4302818081e+00 4.2093715684e+00 
72000 6.0363771385e+00 -2.4909427774e-04 2.4302869517e+00 -4.2093804774e+00 2.4302869517e+00 4.2093804774e+00 
72100 6.0363771418e+00 -2.4820489999e-04 2.4302920765e+00 -4.2093893538e+00 2.4302920765e+00 4.2093893538e+00 
72200 6.0363771450e+00 -2.4733387980e-04 2.4302971830e+00 -4.2093981985e+00 2.4302971830e+00 4.2093981985e+00 
72300 6.0363771483e+00 -2.4647486371e-04 2.4303022716e+00 -4.2094070121e+00 2.4303022716e+00 4.2094070121e+00 
72400 6.0363771514e+00 -2.4562170842e-04 2.4303073424e+00 -4.2094157951e+00 2.4303073424e+00 4.2094157951e+00 
72500 6.0363771546e+00 -2.4476849451e-04 2.4303123957e+00 -4.2094245477e+00 2.4303123957e+00 4.2094245477e+00 
72600 6.0363771577e+00 -2.4390953907e-04 2.4303174315e+00 -4.2094332699e+00 2.4303174315e+00 4.2094332699e+00 
72700 6.0363771608e+00 -2.4303940736e-04 2.4303224496e+00 -4.2094419614e+00 2.4303224496e+00 4.2094419614e+00 
72800 6.0363771639e+00 -2.4215292330e-04 2.4303274497e+00 -4.2094506219e+00 2.4303274497e+00 4.2094506219e+00 
72900 6.0363771669e+00 -2.4124517890e-04 2.4303324316e+00 -4.2094592508e+00 2.4303324316e+00 4.2094592508e+00 
73000 6.0363771699e+00 -2.4031154267e-04 2.4303373948e+00 -4.2094678474e+00 2.4303373948e+00 4.2094678474e+00 
73100 6.0363771729e+00 -2.3934766683e-04 2.4303423388e+00 -4.2094764106e+00 2.4303423388e+00 4.2094764106e+00 
73200 6.0363771758e+00 -2.3834949349e-04 2.4303472630e+00 -4.2094849395e+00 2.4303472630e+00 4.2094849395e+00 
73300 6.0363771787e+00 -2.3731325979e-04 2.4303521666e+00 -4.2094934328e+00 2.4303521666e+00 4.2094934328e+00 
73400 6.0363771816e+00 -2.3623550191e-04 2.4303570489e+00 -4.2095018892e+00 2.4303570489e+00 4.2095018892e+00 
73500 6.0363771845e+00 -2.3511305801e-04 2.4303619090e+00 -4.2095103071e+00 2.4303619090e+00 4.2095103071e+00 
73600 6.0363771873e+00 -2.3394307022e-04 2.4303667460e+00 -4.2095186850e+00 2.4303667460e+00 4.2095186850e+00 
73700 6.0363771902e+00 -2.3272298551e-04 2.4303715589e+00 -4.2095270213e+00 2.4303715589e+00 4.2095270213e+00 
73800 6.0363771930e+00 -2.3145055564e-04 2.4303763467e+00 -4.2095353140e+00 2.4303763467e+00 4.2095353140e+00 
73900 6.0363771958e+00 -2.3012383606e-04 2.4303811083e+00 -4.2095435614e+00 2.4303811083e+00 4.2095435614e+00 
74000 6.0363771986e+00 -2.2874118394e-04 2.4303858426e+00 -4.2095517614e+00 2.4303858426e+00 4.2095517614e+00 
74100 6.0363772014e+00 -2.2730125523e-04 2.4303905485e+00 -4.2095599122e+00 2.4303905485e+00 4.2095599122e+00 
74200 6.0363772041e+00 -2.2580300085e-04 2.4303952247e+00 -4.2095680117e+00 2.4303952247e+00 4.2095680117e+00 
74300 6.0363772069e+00 -2.2424566204e-04 2.4303998701e+00 -4.2095760578e+00 2.4303998701e+00 4.2095760578e+00 
74400 6.0363772096e+00 -2.2262876487e-04 2.4304044835e+00 -4.2095840483e+00 2.4304044835e+00 4.2095840483e+00 
74500 6.0363772123e+00 -2.2095211403e-04 2.4304090635e+00 -4.2095919812e+00 2.4304090635e+00 4.2095919812e+00 
74600 6.0363772151e+00 -2.1921578576e-04 2.4304136091e+00 -4.2095998544e+00 2.4304136091e+00 4.2095998544e+00 
74700 6.0363772178e+00 -2.1742012024e-04 2.4304181190e+00 -4.2096076657e+00 2.4304181190e+00 4.2096076657e+00 
74800 6.0363772205e+00 -2.1556571319e-04 2.4304225919e+00 -4.2096154130e+00 2.4304225919e+00 4.2096154130e+00 
74900 6.0363772232e+00 -2.1365340695e-04 2.4304270266e+00 -4.2096230942e+00 2.4304270266e+00 4.2096230942e+00 
75000 6.0363772259e+00 -2.1168428093e-04 2.4304314220e+00 -4.2096307072e+00 2.4304314220e+00 4.2096307072e+00 
75100 6.0363772286e+00 -2.0965964155e-04 2.4304357769e+00 -4.2096382501e+00 2.4304357769e+00 4.2096382501e+00 
75200 6.0363772312e+00 -2.0758101171e-04 2.4304400901e+00 -4.2096457208e+00 2.4304400901e+00 4.2096457208e+00 
75300 6.0363772339e+00 -2.0545011985e-04 2.4304443605e+00 -4.2096531174e+00 2.4304443605e+00 4.2096531174e+00 
75400 6.0363772365e+00 -2.0326888856e-04 2.4304485871e+00 -4.2096604381e+00 2.4304485871e+00 4.2096604381e+00 
75500 6.0363772392e+00 -2.0103942291e-04 2.4304527688e+00 -4.2096676810e+00 2.4304527688e+00 4.2096676810e+00 
75600 6.0363772418e+00 -1.9876399843e-04 2.4304569047e+00 -4.2096748445e+00 2.4304569047e+00 4.2096748445e+00 
75700 6.0363772444e+00 -1.9644504891e-04 2.4304609937e+00 -4.2096819269e+00 2.4304609937e+00 4.2096819269e+00 
75800 6.0363772471e+00 -1.9408515391e-04 2.4304650350e+00 -4.2096889267e+00 2.4304650350e+00 4.2096889267e+00 
75900 6.0363772496e+00 -1.9168702616e-04 2.4304690278e+00 -4.2096958423e+00 2.4304690278e+00 4.2096958423e+00 
76000 6.0363772522e+00 -1.8925349888e-04 2.4304729712e+00 -4.2097026725e+00 2.4304729712e+00 4.2097026725e+00 
76100 6.0363772548e+00 -1.8678751294e-04 2.4304768645e+00 -4.2097094160e+00 2.4304768645e+00 4.2097094160e+00 
76200 6.0363772573e+00 -1.8429210407e-04 2.4304807072e+00 -4.2097160716e+00 2.4304807072e+00 4.2097160716e+00 
76300 6.0363772599e+00 -1.8177039005e-04 2.4304844984e+00 -4.2097226383e+00 2.4304844984e+00 4.2097226383e+00 
76400 6.0363772624e+00 -1.7922555795e-04 2.4304882378e+00 -4.2097291151e+00 2.4304882378e+00 4.2097291151e+00 
76500 6.0363772649e+00 -1.7666085148e-04 2.4304919248e+00 -4.2097355012e+00 2.4304919248e+00 4.2097355012e+00 
76600 6.0363772673e+00 -1.7407955848e-04 2.4304955591e+00 -4.2097417959e+00 2.4304955591e+00 4.2097417959e+00 
76700 6.0363772698e+00 -1.7148499855e-04 2.4304991403e+00 -4.2097479987e+00 2.4304991403e+00 4.2097479987e+00 
76800 6.0363772722e+00 -1.6888051092e-04 2.4305026680e+00 -4.2097541090e+00 2.4305026680e+00 4.2097541090e+00 
76900 6.0363772746e+00 -1.6626944254e-04 2.4305061422e+00 -4.2097601264e+00 2.4305061422e+00 4.2097601264e+00 
77000 6.0363772770e+00 -1.6365513646e-04 2.4305095627e+00 -4.2097660509e+00 2.4305095627e+00 4.2097660509e+00 
77100 6.0363772793e+00 -1.6104092046e-04 2.4305129294e+00 -4.2097718821e+00 2.4305129294e+00 4.2097718821e+00 
77200 6.0363772816e+00 -1.5843009611e-04 2.4305162423e+00 -4.2097776202e+00 2.4305162423e+00 4.2097776202e+00 
77300 6.0363772839e+00 -1.5582592812e-04 2.4305195015e+00 -4.2097832653e+00 2.4305195015e+00 4.2097832653e+00 
77400 6.0363772862e+00 -1.5323163404e-04 2.4305227071e+00 -4.2097888176e+00 2.4305227071e+00 4.2097888176e+00 
77500 6.0363772884e+00 -1.5065037450e-04 2.4305258593e+00 -4.2097942774e+00 2.4305258593e+00 4.2097942774e+00 
77600 6.0363772906e+00 -1.4808524374e-04 2.4305289584e+00 -4.2097996453e+00 2.4305289584e+00 4.2097996453e+00 
77700 6.0363772928e+00 -1.4553926068e-04 2.4305320048e+00 -4.2098049217e+00 2.4305320048e+00 4.2098049217e+00 
77800 6.0363772950e+00 -1.4301536043e-04 2.4305349988e+00 -4.2098101075e+00 2.4305349988e+00 4.2098101075e+00 
77900 6.0363772971e+00 -1.4051638626e-04 2.4305379408e+00 -4.2098152033e+00 2.4305379408e+00 4.2098152033e+00 
78000 6.0363772992e+00 -1.3804508211e-04 2.4305408315e+00 -4.2098202100e+00 2.4305408315e+00 4.2098202100e+00 
78100 6.0363773013e+00 -1.3560408562e-04 2.4305436713e+00 -4.2098251287e+00 2.4305436713e+00 4.2098251287e+00 
78200 6.0363773034e+00 -1.3319592161e-04 2.4305464609e+00 -4.2098299604e+00 2.4305464609e+00 4.2098299604e+00 
78300 6.0363773054e+00 -1.3082299617e-04 2.4305492009e+00 -4.2098347063e+00 2.4305492009e+00 4.2098347063e+00 
78400 6.0363773074e+00 -1.2848759121e-04 2.4305518921e+00 -4.2098393676e+00 2.4305518921e+00 4.2098393676e+00 
78500 6.0363773094e+00 -1.2619185964e-04 2.4305545353e+00 -4.2098439457e+00 2.4305545353e+00 4.2098439457e+00 
78600 6.0363773113e+00 -1.2393782099e-04 2.4305571313e+00 -4.2098484420e+00 2.4305571313e+00 4.2098484420e+00 
78700 6.0363773132e+00 -1.2172735767e-04 2.4305596808e+00 -4.2098528580e+00 2.4305596808e+00 4.2098528580e+00 
78800 6.0363773151e+00 -1.1956221167e-04 2.4305621849e+00 -4.2098571953e+00 2.4305621849e+00 4.2098571953e+00 
78900 6.0363773170e+00 -1.1744398190e-04 2.4305646445e+00 -4.2098614554e+00 2.4305646445e+00 4.2098614554e+00 
79000 6.0363773189e+00 -1.1537412202e-04 2.4305670605e+00 -4.2098656400e+00 2.4305670605e+00 4.2098656400e+00 
79100 6.0363773207e+00 -1.1335393877e-04 2.4305694339e+00 -4.2098697508e+00 2.4305694339e+00 4.2098697508e+00 
79200 6.0363773225e+00 -1.1138459083e-04 2.4305717657e+00 -4.2098737897e+00 2.4305717657e+00 4.2098737897e+00 
79300 6.0363773243e+00 -1.0946708829e-04 2.4305740570e+00 -4.2098777584e+00 2.4305740570e+00 4.2098777584e+00 
79400 6.0363773261e+00 -1.0760229243e-04 2.4305763089e+00 -4.2098816587e+00 2.4305763089e+00 4.2098816587e+00 
79500 6.0363773278e+00 -1.0579091622e-04 2.4305785224e+00 -4.2098854926e+00 2.4305785224e+00 4.2098854926e+00 
79600 6.0363773295e+00 -1.0403352505e-04 2.4305806987e+00 -4.2098892620e+00 2.4305806987e+00 4.2098892620e+00 
79700 6.0363773313e+00 -1.0233053814e-04 2.4305828388e+00 -4.2098929688e+00 2.4305828388e+00 4.2098929688e+00 
79800 6.0363773329e+00 -1.0068223029e-04 2.4305849438e+00 -4.2098966149e+00 2.4305849438e+00 4.2098966149e+00 
79900 6.0363773346e+00 -9.9088734011e-05 2.4305870150e+00 -4.2099002022e+00 2.4305870150e+00 4.2099002022e+00 
80000 6.0363773363e+00 -9.7550042197e-05 2.4305890534e+00 -4.2099037328e+00 2.4305890534e+00 4.2099037328e+00 
80100 6.0363773379e+00 -9.6066011097e-05 2.4305910601e+00 -4.2099072085e+00 2.4305910601e+00 4.2099072085e+00 
80200 6.0363773396e+00 -9.4636363675e-05 2.4305930363e+00 -4.2099106313e+00 2.4305930363e+00 4.2099106313e+00 
80300 6.0363773412e+00 -9.3260693347e-05 2.4305949830e+00 -4.2099140033e+00 2.4305949830e+00 4.2099140033e+00 
80400 6.0363773428e+00 -9.1938468031e-05 2.4305969015e+00 -4.2099173262e+00 2.4305969015e+00 4.2099173262e+00 
80500 6.0363773443e+00 -9.0669034531e-05 2.4305987928e+00 -4.2099206019e+00 2.4305987928e+00 4.2099206019e+00 
80600 6.0363773459e+00 -8.9451623172e-05 2.4306006580e+00 -4.2099238325e+00 2.4306006580e+00 4.2099238325e+00 
80700 6.0363773475e+00 -8.8285352747e-05 2.4306024981e+00 -4.2099270197e+00 2.4306024981e+00 4.2099270197e+00 
80800 6.0363773490e+00 -8.7169235681e-05 2.4306043142e+00 -4.2099301653e+00 2.4306043142e+00 4.2099301653e+00 
80900 6.0363773505e+00 -8.6102183423e-05 2.4306061073e+00 -4.2099332711e+00 2.4306061073e+00 4.2099332711e+00 
81000 6.0363773520e+00 -8.5083012042e-05 2.4306078786e+00 -4.2099363389e+00 2.4306078786e+00 4.2099363389e+00 
81100 6.0363773535e+00 -8.4110448003e-05 2.4306096288e+00 -4.2099393704e+00 2.4306096288e+00 4.2099393704e+00 
81200 6.0363773550e+00 -8.3183134081e-05 2.4306113590e+00 -4.2099423673e+00 2.4306113590e+00 4.2099423673e+00 
81300 6.0363773564e+00 -8.2299635427e-05 2.4306130702e+00 -4.2099453311e+00 2.4306130702e+00 4.2099453311e+00 
81400 6.0363773579e+00 -8.1458445721e-05 2.4306147632e+00 -4.2099482634e+00 2.4306147632e+00 4.2099482634e+00 
81500 6.0363773593e+00 -8.0657993418e-05 2.4306164388e+00 -4.2099511658e+00 2.4306164388e+00 4.2099511658e+00 
81600 6.0363773607e+00 -7.9896648072e-05 2.4306180981e+00 -4.2099540396e+00 2.4306180981e+00 4.2099540396e+00 
81700 6.0363773621e+00 -7.9172726677e-05 2.4306197416e+00 -4.2099568863e+00 2.4306197416e+00 4.2099568863e+00 
81800 6.0363773635e+00 -7.8484500033e-05 2.4306213703e+00 -4.2099597072e+00 2.4306213703e+00 4.2099597072e+00 
81900 6.0363773649e+00 -7.7830199125e-05 2.4306229847e+00 -4.2099625036e+00 2.4306229847e+00 4.2099625036e+00 
82000 6.0363773662e+00 -7.7208021466e-05 2.4306245858e+00 -4.2099652767e+00 2.4306245858e+00 4.2099652767e+00 
82100 6.0363773675e+00 -7.6616137391e-05 2.4306261740e+00 -4.2099680276e+00 2.4306261740e+00 4.2099680276e+00 
82200 6.0363773689e+00 -7.6052696318e-05 2.4306277501e+00 -4.2099707574e+00 2.4306277501e+00 4.2099707574e+00 
82300 6.0363773702e+00 -7.5515832891e-05 2.4306293145e+00 -4.2099734672e+00 2.4306293145e+00 4.2099734672e+00 
82400 6.0363773714e+00 -7.5003673052e-05 2.4306308680e+00 -4.2099761578e+00 2.4306308680e+00 4.2099761578e+00 
82500 6.0363773727e+00 -7.4514339989e-05 2.4306324108e+00 -4.2099788301e+00 2.4306324108e+00 4.2099788301e+00 
82600 6.0363773740e+00 -7.4045959945e-05 2.4306339437e+00 -4.2099814850e+00 2.4306339437e+00 4.2099814850e+00 
82700 6.0363773752e+00 -7.3596667889e-05 2.4306354668e+00 -4.2099841233e+00 2.4306354668e+00 4.2099841233e+00 
82800 6.0363773764e+00 -7.3164613014e-05 2.4306369808e+00 -4.2099867455e+00 2.4306369808e+00 4.2099867455e+00 
82900 6.0363773776e+00 -7.2747964071e-05 2.4306384858e+00 -4.2099893523e+00 2.4306384858e+00 4.2099893523e+00 
83000 6.0363773788e+00 -7.2344914506e-05 2.4306399823e+00 -4.2099919443e+00 2.4306399823e+00 4.2099919443e+00 
83100 6.0363773800e+00 -7.1953687395e-05 2.4306414705e+00 -4.2099945219e+00 2.4306414705e+00 4.2099945219e+00 
83200 6.0363773811e+00 -7.1572540159e-05 2.4306429506e+00 -4.2099970856e+00 2.4306429506e+00 4.2099970856e+00 
83300 6.0363773823e+00 -7.1199769086e-05 2.4306444229e+00 -4.2099996357e+00 2.4306444229e+00 4.2099996357e+00 
83400 6.0363773834e+00 -7.0833713576e-05 2.4306458876e+00 -4.2100021725e+00 2.4306458876e+00 4.2100021725e+00 
83500 6.0363773845e+00 -7.0472760193e-05 2.4306473447e+00 -4.2100046962e+00 2.4306473447e+00 4.2100046962e+00 
83600 6.0363773857e+00 -7.0652722271e-05 2.4306473447e+00 -4.2100046962e+00 2.4306473447e+00 4.2100046962e+00 
83700 6.0363773869e+00 -7.0837779792e-05 2.4306473447e+00 -4.2100046962e+00 2.4306473447e+00 4.2100046962e+00 
83800 6.0363773879e+00 -7.0486940995e-05 2.4306488018e+00 -4.2100072201e+00 2.4306488018e+00 4.2100072201e+00 
83900 6.0363773890e+00 -7.0673933449e-05 2.4306488018e+00 -4.2100072201e+00 2.4306488018e+00 4.2100072201e+00 
84000 6.0363773902e+00 -7.0863057382e-05 2.4306488018e+00 -4.2100072201e+00 2.4306488018e+00 4.2100072201e+00 
84100 6.0363773912e+00 -7.0513274742e-05 2.4306502595e+00 -4.2100097450e+00 2.4306502595e+00 4.2100097450e+00 
84200 6.0363773923e+00 -7.0698841502e-05 2.4306502595e+00 -4.2100097450e+00 2.4306502595e+00 4.2100097450e+00 
84300 6.0363773933e+00 -7.0884005903e-05 2.4306502595e+00 -4.2100097450e+00 2.4306502595e+00 4.2100097450e+00 
84400 6.0363773943e+00 -7.0527706385e-05 2.4306517177e+00 -4.2100122705e+00 2.4306517177e+00 4.2100122705e+00 
84500 6.0363773953e+00 -7.0704652618e-05 2.4306517177e+00 -4.2100122705e+00 2.4306517177e+00 4.2100122705e+00 
84600 6.0363773964e+00 -7.0879066087e-05 2.4306517177e+00 -4.2100122705e+00 2.4306517177e+00 4.2100122705e+00 
84700 6.0363773973e+00 -7.0510052589e-05 2.4306531757e+00 -4.2100147959e+00 2.4306531757e+00 4.2100147959e+00 
84800 6.0363773983e+00 -7.0672376742e-05 2.4306531757e+00 -4.2100147959e+00 2.4306531757e+00 4.2100147959e+00 
84900 6.0363773993e+00 -7.0830423524e-05 2.4306531757e+00 -4.2100147959e+00 2.4306531757e+00 4.2100147959e+00 
85000 6.0363774002e+00 -7.0443794382e-05 2.4306546327e+00 -4.2100173195e+00 2.4306546327e+00 4.2100173195e+00 
85100 6.0363774011e+00 -7.0586641023e-05 2.4306546327e+00 -4.2100173195e+00 2.4306546327e+00 4.2100173195e+00 
85200 6.0363774021e+00 -7.0723837278e-05 2.4306546327e+00 -4.2100173195e+00 2.4306546327e+00 4.2100173195e+00 
85300 6.0363774029e+00 -7.0315917342e-05 2.4306560876e+00 -4.2100198394e+00 2.4306560876e+00 4.2100198394e+00 
85400 6.0363774038e+00 -7.0435536047e-05 2.4306560876e+00 -4.2100198394e+00 2.4306560876e+00 4.2100198394e+00 
85500 6.0363774047e+00 -7.0548488554e-05 2.4306560876e+00 -4.2100198394e+00 2.4306560876e+00 4.2100198394e+00 
85600 6.0363774056e+00 -7.0654719374e-05 2.4306560876e+00 -4.2100198394e+00 2.4306560876e+00 4.2100198394e+00 
85700 6.0363774065e+00 -7.0754215873e-05 2.4306560876e+00 -4.2100198394e+00 2.4306560876e+00 4.2100198394e+00 
85800 6.0363774073e+00 -7.0307476039e-05 2.4306575430e+00 -4.2100223603e+00 2.4306575430e+00 4.2100223603e+00 
85900 6.0363774082e+00 -7.0387807656e-05 2.4306575430e+00 -4.2100223603e+00 2.4306575430e+00 4.2100223603e+00 
86000 6.0363774090e+00 -7.0460954338e-05 2.4306575430e+00 -4.2100223603e+00 2.4306575430e+00 4.2100223603e+00 
86100 6.0363774098e+00 -7.0527032030e-05 2.4306575430e+00 -4.2100223603e+00 2.4306575430e+00 4.2100223603e+00 
86200 6.0363774107e+00 -7.0586191344e-05 2.4306575430e+00 -4.2100223603e+00 2.4306575430e+00 4.2100223603e+00 
86300 6.0363774115e+00 -7.0638614214e-05 2.4306575430e+00 -4.2100223603e+00 2.4306575430e+00 4.2100223603e+00 
86400 6.0363774123e+00 -7.0684510727e-05 2.4306575430e+00 -4.2100223603e+00 2.4306575430e+00 4.2100223603e+00 
86500 6.0363774131e+00 -7.0724116131e-05 2.4306575430e+00 -4.2100223603e+00 2.4306575430e+00 4.2100223603e+00 
86600 6.0363774137e+00 -7.0218385171e-05 2.4306589978e+00 -4.2100248801e+00 2.4306589978e+00 4.2100248801e+00 
86700 6.0363774145e+00 -7.0240390858e-05 2.4306589978e+00 -4.2100248801e+00 2.4306589978e+00 4.2100248801e+00 
86800 6.0363774153e+00 -7.0256298847e-05 2.4306589978e+00 -4.2100248801e+00 2.4306589978e+00 4.2100248801e+00 
86900 6.0363774160e+00 -7.0266408199e-05 2.4306589978e+00 -4.2100248801e+00 2.4306589978e+00 4.2100248801e+00 
87000 6.0363774168e+00 -7.0271037696e-05 2.4306589978e+00 -4.2100248801e+00 2.4306589978e+00 4.2100248801e+00 
87100 6.0363774175e+00 -7.0270522922e-05 2.4306589978e+00 -4.2100248801e+00 2.4306589978e+00 4.2100248801e+00 
87200 6.0363774182e+00 -7.0265213498e-05 2.4306589978e+00 -4.2100248801e+00 2.4306589978e+00 4.2100248801e+00 
87300 6.0363774189e+00 -7.0255470493e-05 2.4306589978e+00 -4.2100248801e+00 2.4306589978e+00 4.2100248801e+00 
87400 6.0363774196e+00 -7.0241663933e-05 2.4306589978e+00 -4.2100248801e+00 2.4306589978e+00 4.2100248801e+00 
87500 6.0363774203e+00 -7.0224170516e-05 2.4306589978e+00 -4.2100248801e+00 2.4306589978e+00 4.2100248801e+00 
87600 6.0363774209e+00 -7.0203371404e-05 2.4306589978e+00 -4.2100248801e+00 2.4306589978e+00 4.2100248801e+00 
87700 6.0363774216e+00 -7.0179650159e-05 2.4306589978e+00 -4.2100248801e+00 2.4306589978e+00 4.2100248801e+00 
87800 6.0363774223e+00 -7.0153390807e-05 2.4306589978e+00 -4.2100248801e+00 2.4306589978e+00 4.2100248801e+00 
87900 6.0363774229e+00 -7.0124976009e-05 2.4306589978e+00 -4.2100248801e+00 2.4306589978e+00 4.2100248801e+00 
88000 6.0363774236e+00 -7.0094785341e-05 2.4306589978e+00 -4.2100248801e+00 2.4306589978e+00 4.2100248801e+00 
88100 6.0363774242e+00 -7.0063193697e-05 2.4306589978e+00 -4.2100248801e+00 2.4306589978e+00 4.2100248801e+00 
88200 6.0363774248e+00 -7.0030569785e-05 2.4306589978e+00 -4.2100248801e+00 2.4306589978e+00 4.2100248801e+00 
88300 6.0363774254e+00 -6.9997274734e-05 2.4306589978e+00 -4.2100248801e+00 2.4306589978e+00 4.2100248801e+00 
88400 6.0363774260e+00 -6.9963660791e-05 2.4306589978e+00 -4.2100248801e+00 2.4306589978e+00 4.2100248801e+00 
88500 6.0363774266e+00 -6.9930070142e-05 2.4306589978e+00 -4.2100248801e+00 2.4306589978e+00 4.2100248801e+00 
88600 6.0363774272e+00 -6.9896833803e-05 2.4306589978e+00 -4.2100248801e+00 2.4306589978e+00 4.2100248801e+00 
88700 6.0363774278e+00 -6.9864270605e-05 2.4306589978e+00 -4.2100248801e+00 2.4306589978e+00 4.2100248801e+00 
88800 6.0363774283e+00 -6.9832686305e-05 2.4306589978e+00 -4.2100248801e+00 2.4306589978e+00 4.2100248801e+00 
88900 6.0363774289e+00 -6.9802372742e-05 2.4306589978e+00 -4.2100248801e+00 2.4306589978e+00 4.2100248801e+00 
89000 6.0363774294e+00 -6.9773607122e-05 2.4306589978e+00 -4.2100248801e+00 2.4306589978e+00 4.2100248801e+00 
89100 6.0363774300e+00 -6.9746651356e-05 2.4306589978e+00 -4.2100248801e+00 2.4306589978e+00 4.2100248801e+00 
89200 6.0363774305e+00 -6.9721751510e-05 2.4306589978e+00 -4.2100248801e+00 2.4306589978e+00 4.2100248801e+00 
89300 6.0363774310e+00 -6.9699137319e-05 2.4306589978e+00 -4.2100248801e+00 2.4306589978e+00 4.2100248801e+00 
89400 6.0363774316e+00 -6.9679021796e-05 2.4306589978e+00 -4.2100248801e+00 2.4306589978e+00 4.2100248801e+00 
89500 6.0363774321e+00 -6.9661600901e-05 2.4306589978e+00 -4.2100248801e+00 2.4306589978e+00 4.2100248801e+00 
89600 6.0363774326e+00 -6.9647053301e-05 2.4306589978e+00 -4.2100248801e+00 2.4306589978e+00 4.2100248801e+00 
89700 6.0363774331e+00 -6.9635540204e-05 2.4306589978e+00 -4.2100248801e+00 2.4306589978e+00 4.2100248801e+00 
89800 6.0363774335e+00 -6.9627205252e-05 2.4306589978e+00 -4.2100248801e+00 2.4306589978e+00 4.2100248801e+00 
89900 6.0363774340e+00 -6.9622174498e-05 2.4306589978e+00 -4.2100248801e+00 2.4306589978e+00 4.2100248801e+00 
90000 6.0363774345e+00 -6.9620556435e-05 2.4306589978e+00 -4.2100248801e+00 2.4306589978e+00 4.2100248801e+00 
90100 6.0363774350e+00 -6.9622442100e-05 2.4306589978e+00 -4.2100248801e+00 2.4306589978e+00 4.2100248801e+00 
90200 6.0363774354e+00 -6.9627905233e-05 2.4306589978e+00 -4.2100248801e+00 2.4306589978e+00 4.2100248801e+00 
90300 6.0363774359e+00 -6.9637002490e-05 2.4306589978e+00 -4.2100248801e+00 2.4306589978e+00 4.2100248801e+00 
90400 6.0363774363e+00 -6.9649773725e-05 2.4306589978e+00 -4.2100248801e+00 2.4306589978e+00 4.2100248801e+00 
90500 6.0363774368e+00 -6.9666242315e-05 2.4306589978e+00 -4.2100248801e+00 2.4306589978e+00 4.2100248801e+00 
90600 6.0363774372e+00 -6.9686415532e-05 2.4306589978e+00 -4.2100248801e+00 2.4306589978e+00 4.2100248801e+00 
90700 6.0363774376e+00 -6.9710284957e-05 2.4306589978e+00 -4.2100248801e+00 2.4306589978e+00 4.2100248801e+00 
90800 6.0363774381e+00 -6.9737826969e-05 2.4306589978e+00 -4.2100248801e+00 2.4306589978e+00 4.2100248801e+00 
90900 6.0363774385e+00 -6.9769003224e-05 2.4306589978e+00 -4.2100248801e+00 2.4306589978e+00 4.2100248801e+00 
91000 6.0363774389e+00 -6.9803761219e-05 2.4306589978e+00 -4.2100248801e+00 2.4306589978e+00 4.2100248801e+00 
91100 6.0363774393e+00 -6.9842034852e-05 2.4306589978e+00 -4.2100248801e+00 2.4306589978e+00 4.2100248801e+00 
91200 6.0363774397e+00 -6.9883745044e-05 2.4306589978e+00 -4.2100248801e+00 2.4306589978e+00 4.2100248801e+00 
91300 6.0363774401e+00 -6.9928800368e-05 2.4306589978e+00 -4.2100248801e+00 2.4306589978e+00 4.2100248801e+00 
91400 6.0363774405e+00 -6.9977097710e-05 2.4306589978e+00 -4.2100248801e+00 2.4306589978e+00 4.2100248801e+00 
91500 6.0363774408e+00 -7.0028522958e-05 2.4306589978e+00 -4.2100248801e+00 2.4306589978e+00 4.2100248801e+00 
91600 6.0363774412e+00 -7.0082951696e-05 2.4306589978e+00 -4.2100248801e+00 2.4306589978e+00 4.2100248801e+00 
91700 6.0363774416e+00 -7.0140249926e-05 2.4306589978e+00 -4.2100248801e+00 2.4306589978e+00 4.2100248801e+00 
91800 6.0363774419e+00 -7.0200274798e-05 2.4306589978e+00 -4.2100248801e+00 2.4306589978e+00 4.2100248801e+00 
91900 6.0363774423e+00 -7.0262875355e-05 2.4306589978e+00 -4.2100248801e+00 2.4306589978e+00 4.2100248801e+00 
92000 6.0363774426e+00 -7.0327893272e-05 2.4306589978e+00 -4.2100248801e+00 2.4306589978e+00 4.2100248801e+00 
92100 6.0363774430e+00 -7.0395163608e-05 2.4306589978e+00 -4.2100248801e+00 2.4306589978e+00 4.2100248801e+00 
92200 6.0363774433e+00 -7.0464515573e-05 2.4306589978e+00 -4.2100248801e+00 2.4306589978e+00 4.2100248801e+00 
92300 6.0363774437e+00 -7.0535773264e-05 2.4306589978e+00 -4.2100248801e+00 2.4306589978e+00 4.2100248801e+00 
92400 6.0363774440e+00 -7.0608756427e-05 2.4306589978e+00 -4.2100248801e+00 2.4306589978e+00 4.2100248801e+00 
92500 6.0363774443e+00 -7.0683281188e-05 2.4306589978e+00 -4.2100248801e+00 2.4306589978e+00 4.2100248801e+00 
92600 6.0363774446e+00 -7.0759160798e-05 2.4306589978e+00 -4.2100248801e+00 2.4306589978e+00 4.2100248801e+00 
92700 6.0363774449e+00 -7.0296614904e-05 2.4306604534e+00 -4.2100274012e+00 2.4306604534e+00 4.2100274012e+00 
92800 6.0363774452e+00 -7.0368824169e-05 2.4306604534e+00 -4.2100274012e+00 2.4306604534e+00 4.2100274012e+00 
92900 6.0363774455e+00 -7.0441181837e-05 2.4306604534e+00 -4.2100274012e+00 2.4306604534e+00 4.2100274012e+00 
93000 6.0363774458e+00 -7.0513486852e-05 2.4306604534e+00 -4.2100274012e+00 2.4306604534e+00 4.2100274012e+00 
93100 6.0363774461e+00 -7.0585546119e-05 2.4306604534e+00 -4.2100274012e+00 2.4306604534e+00 4.2100274012e+00 
93200 6.0363774464e+00 -7.0657174417e-05 2.4306604534e+00 -4.2100274012e+00 2.4306604534e+00 4.2100274012e+00 
93300 6.0363774467e+00 -7.0728194347e-05 2.4306604534e+00 -4.2100274012e+00 2.4306604534e+00 4.2100274012e+00 
93400 6.0363774469e+00 -7.0259081569e-05 2.4306619083e+00 -4.2100299212e+00 2.4306619083e+00 4.2100299212e+00 
93500 6.0363774472e+00 -7.0322574362e-05 2.4306619083e+00 -4.2100299212e+00 2.4306619083e+00 4.2100299212e+00 
93600 6.0363774474e+00 -7.0384337472e-05 2.4306619083e+00 -4.2100299212e+00 2.4306619083e+00 4.2100299212e+00 
93700 6.0363774477e+00 -7.0444214778e-05 2.4306619083e+00 -4.2100299212e+00 2.4306619083e+00 4.2100299212e+00 
93800 6.0363774480e+00 -7.0502065359e-05 2.4306619083e+00 -4.2100299212e+00 2.4306619083e+00 4.2100299212e+00 
93900 6.0363774482e+00 -7.0557762792e-05 2.4306619083e+00 -4.2100299212e+00 2.4306619083e+00 4.2100299212e+00 
94000 6.0363774485e+00 -7.0611194512e-05 2.4306619083e+00 -4.2100299212e+00 2.4306619083e+00 4.2100299212e+00 
94100 6.0363774487e+00 -7.0662261198e-05 2.4306619083e+00 -4.2100299212e+00 2.4306619083e+00 4.2100299212e+00 
94200 6.0363774490e+00 -7.0710876215e-05 2.4306619083e+00 -4.2100299212e+00 2.4306619083e+00 4.2100299212e+00 
94300 6.0363774492e+00 -7.0217742733e-05 2.4306633629e+00 -4.2100324406e+00 2.4306633629e+00 4.2100324406e+00 
94400 6.0363774494e+00 -7.0255434767e-05 2.4306633629e+00 -4.2100324406e+00 2.4306633629e+00 4.2100324406e+00 
94500 6.0363774496e+00 -7.0289850557e-05 2.4306633629e+00 -4.2100324406e+00 2.4306633629e+00 4.2100324406e+00 
94600 6.0363774499e+00 -7.0320939326e-05 2.4306633629e+00 -4.2100324406e+00 2.4306633629e+00 4.2100324406e+00 
94700 6.0363774501e+00 -7.0348667930e-05 2.4306633629e+00 -4.2100324406e+00 2.4306633629e+00 4.2100324406e+00 
94800 6.0363774503e+00 -7.0373019718e-05 2.4306633629e+00 -4.2100324406e+00 2.4306633629e+00 4.2100324406e+00 
94900 6.0363774506e+00 -7.0393993419e-05 2.4306633629e+00 -4.2100324406e+00 2.4306633629e+00 4.2100324406e+00 
95000 6.0363774508e+00 -7.0411602116e-05 2.4306633629e+00 -4.2100324406e+00 2.4306633629e+00 4.2100324406e+00 
95100 6.0363774510e+00 -7.0425872245e-05 2.4306633629e+00 -4.2100324406e+00 2.4306633629e+00 4.2100324406e+00 
95200 6.0363774512e+00 -7.0436842666e-05 2.4306633629e+00 -4.2100324406e+00 2.4306633629e+00 4.2100324406e+00 
95300 6.0363774514e+00 -7.0444563751e-05 2.4306633629e+00 -4.2100324406e+00 2.4306633629e+00 4.2100324406e+00 
95400 6.0363774516e+00 -7.0449096529e-05 2.4306633629e+00 -4.2100324406e+00 2.4306633629e+00 4.2100324406e+00 
95500 6.0363774518e+00 -7.0450511852e-05 2.4306633629e+00 -4.2100324406e+00 2.4306633629e+00 4.2100324406e+00 
95600 6.0363774520e+00 -7.0448889592e-05 2.4306633629e+00 -4.2100324406e+00 2.4306633629e+00 4.2100324406e+00 
95700 6.0363774522e+00 -7.0444317869e-05 2.4306633629e+00 -4.2100324406e+00 2.4306633629e+00 4.2100324406e+00 
95800 6.0363774524e+00 -7.0436892306e-05 2.4306633629e+00 -4.2100324406e+00 2.4306633629e+00 4.2100324406e+00 
95900 6.0363774526e+00 -7.0426715306e-05 2.4306633629e+00 -4.2100324406e+00 2.4306633629e+00 4.2100324406e+00 
96000 6.0363774528e+00 -7.0413895346e-05 2.4306633629e+00 -4.2100324406e+00 2.4306633629e+00 4.2100324406e+00 
96100 6.0363774530e+00 -7.0398546304e-05 2.4306633629e+00 -4.2100324406e+00 2.4306633629e+00 4.2100324406e+00 
96200 6.0363774532e+00 -7.0380786804e-05 2.4306633629e+00 -4.2100324406e+00 2.4306633629e+00 4.2100324406e+00 
96300 6.0363774534e+00 -7.0360739568e-05 2.4306633629e+00 -4.2100324406e+00 2.4306633629e+00 4.2100324406e+00 
96400 6.0363774536e+00 -7.0338530814e-05 2.4306633629e+00 -4.2100324406e+00 2.4306633629e+00 4.2100324406e+00 
96500 6.0363774537e+00 -7.0314289649e-05 2.4306633629e+00 -4.2100324406e+00 2.4306633629e+00 4.2100324406e+00 
96600 6.0363774539e+00 -7.0288147499e-05 2.4306633629e+00 -4.2100324406e+00 2.4306633629e+00 4.2100324406e+00 
96700 6.0363774541e+00 -7.0260237546e-05 2.4306633629e+00 -4.2100324406e+00 2.4306633629e+00 4.2100324406e+00 
96800 6.0363774542e+00 -7.0230694189e-05 2.4306633629e+00 -4.2100324406e+00 2.4306633629e+00 4.2100324406e+00 
96900 6.0363774544e+00 -7.0199652533e-05 2.4306633629e+00 -4.2100324406e+00 2.4306633629e+00 4.2100324406e+00 
97000 6.0363774546e+00 -7.0167247899e-05 2.4306633629e+00 -4.2100324406e+00 2.4306633629e+00 4.2100324406e+00 
97100 6.0363774547e+00 -7.0133615323e-05 2.4306633629e+00 -4.2100324406e+00 2.4306633629e+00 4.2100324406e+00 
97200 6.0363774549e+00 -7.0098889124e-05 2.4306633629e+00 -4.2100324406e+00 2.4306633629e+00 4.2100324406e+00 
97300 6.0363774550e+00 -7.0063202461e-05 2.4306633629e+00 -4.2100324406e+00 2.4306633629e+00 4.2100324406e+00 
97400 6.0363774552e+00 -7.0026686912e-05 2.4306633629e+00 -4.2100324406e+00 2.4306633629e+00 4.2100324406e+00 
97500 6.0363774553e+00 -6.9989472088e-05 2.4306633629e+00 -4.2100324406e+00 2.4306633629e+00 4.2100324406e+00 
97600 6.0363774555e+00 -6.9951685266e-05 2.4306633629e+00 -4.2100324406e+00 2.4306633629e+00 4.2100324406e+00 
97700 6.0363774556e+00 -6.9913451028e-05 2.4306633629e+00 -4.2100324406e+00 2.4306633629e+00 4.2100324406e+00 
97800 6.0363774558e+00 -6.9874890940e-05 2.4306633629e+00 -4.2100324406e+00 2.4306633629e+00 4.2100324406e+00 
97900 6.0363774559e+00 -6.9836123249e-05 2.4306633629e+00 -4.2100324406e+00 2.4306633629e+00 4.2100324406e+00 
98000 6.0363774561e+00 -6.9797262586e-05 2.4306633629e+00 -4.2100324406e+00 2.4306633629e+00 4.2100324406e+00 
98100 6.0363774562e+00 -6.9758419721e-05 2.4306633629e+00 -4.2100324406e+00 2.4306633629e+00 4.2100324406e+00 
98200 6.0363774563e+00 -6.9719701308e-05 2.4306633629e+00 -4.2100324406e+00 2.4306633629e+00 4.2100324406e+00 
98300 6.0363774565e+00 -6.9681209681e-05 2.4306633629e+00 -4.2100324406e+00 2.4306633629e+00 4.2100324406e+00 
98400 6.0363774566e+00 -6.9643042643e-05 2.4306633629e+00 -4.2100324406e+00 2.4306633629e+00 4.2100324406e+00 
98500 6.0363774567e+00 -6.9605293302e-05 2.4306633629e+00 -4.2100324406e+00 2.4306633629e+00 4.2100324406e+00 
98600 6.0363774569e+00 -6.9568049916e-05 2.4306633629e+00 -4.2100324406e+00 2.4306633629e+00 4.2100324406e+00 
98700 6.0363774570e+00 -6.9531395751e-05 2.4306633629e+00 -4.2100324406e+00 2.4306633629e+00 4.2100324406e+00 
98800 6.0363774571e+00 -6.9495408983e-05 2.4306633629e+00 -4.2100324406e+00 2.4306633629e+00 4.2100324406e+00 
98900 6.0363774572e+00 -6.9460162608e-05 2.4306633629e+00 -4.2100324406e+00 2.4306633629e+00 4.2100324406e+00 
99000 6.0363774573e+00 -6.9425724352e-05 2.4306633629e+00 -4.2100324406e+00 2.4306633629e+00 4.2100324406e+00 
99100 6.0363774575e+00 -6.9392156642e-05 2.4306633629e+00 -4.2100324406e+00 2.4306633629e+00 4.2100324406e+00 
99200 6.0363774576e+00 -6.9359516559e-05 2.4306633629e+00 -4.2100324406e+00 2.4306633629e+00 4.2100324406e+00 
99300 6.0363774577e+00 -6.9327855838e-05 2.4306633629e+00 -4.2100324406e+00 2.4306633629e+00 4.2100324406e+00 
99400 6.0363774578e+00 -6.9297220859e-05 2.4306633629e+00 -4.2100324406e+00 2.4306633629e+00 4.2100324406e+00 
99500 6.0363774579e+00 -6.9267652682e-05 2.4306633629e+00 -4.2100324406e+00 2.4306633629e+00 4.2100324406e+00 
99600 6.0363774580e+00 -6.9239187078e-05 2.4306633629e+00 -4.2100324406e+00 2.4306633629e+00 4.2100324406e+00 
99700 6.0363774581e+00 -6.9211854585e-05 2.4306633629e+00 -4.2100324406e+00 2.4306633629e+00 4.2100324406e+00 
99800 6.0363774582e+00 -6.9185680584e-05 2.4306633629e+00 -4.2100324406e+00 2.4306633629e+00 4.2100324406e+00 
99900 6.0363774583e+00 -6.9160685378e-05 2.4306633629e+00 -4.2100324406e+00 2.4306633629e+00 4.2100324406e+00 
100000 6.0363774584e+00 -6.9136884299e-05 2.4306633629e+00 -4.2100324406e+00 2.4306633629e+00 4.2100324406e+00 
100100 6.0363774585e+00 -6.9114287817e-05 2.4306633629e+00 -4.2100324406e+00 2.4306633629e+00 4.2100324406e+00 
100200 6.0363774586e+00 -6.9092901664e-05 2.4306633629e+00 -4.2100324406e+00 2.4306633629e+00 4.2100324406e+00 
100300 6.0363774587e+00 -6.9072726972e-05 2.4306633629e+00 -4.2100324406e+00 2.4306633629e+00 4.2100324406e+00 
100400 6.0363774588e+00 -6.9053760428e-05 2.4306633629e+00 -4.2100324406e+00 2.4306633629e+00 4.2100324406e+00 
100500 6.0363774589e+00 -6.9035994420e-05 2.4306633629e+00 -4.2100324406e+00 2.4306633629e+00 4.2100324406e+00 
100600 6.0363774590e+00 -6.9019417209e-05 2.4306633629e+00 -4.2100324406e+00 2.4306633629e+00 4.2100324406e+00 
100700 6.0363774591e+00 -6.9004013111e-05 2.4306633629e+00 -4.2100324406e+00 2.4306633629e+00 4.2100324406e+00 
100800 6.0363774592e+00 -6.8989762675e-05 2.4306633629e+00 -4.2100324406e+00 2.4306633629e+00 4.2100324406e+00 
100900 6.0363774593e+00 -6.8976642867e-05 2.4306633629e+00 -4.2100324406e+00 2.4306633629e+00 4.2100324406e+00 
101000 6.0363774594e+00 -6.8964627281e-05 2.4306633629e+00 -4.2100324406e+00 2.4306633629e+00 4.2100324406e+00 
101100 6.0363774595e+00 -6.8953686321e-05 2.4306633629e+00 -4.2100324406e+00 2.4306633629e+00 4.2100324406e+00 
101200 6.0363774595e+00 -6.8943787420e-05 2.4306633629e+00 -4.2100324406e+00 2.4306633629e+00 4.2100324406e+00 
101300 6.0363774596e+00 -6.8934895247e-05 2.4306633629e+00 -4.2100324406e+00 2.4306633629e+00 4.2100324406e+00 
101400 6.0363774597e+00 -6.8926971906e-05 2.4306633629e+00 -4.2100324406e+00 2.4306633629e+00 4.2100324406e+00 
101500 6.0363774598e+00 -6.8919977167e-05 2.4306633629e+00 -4.2100324406e+00 2.4306633629e+00 4.2100324406e+00 
101600 6.0363774599e+00 -6.8913868669e-05 2.4306633629e+00 -4.2100324406e+00 2.4306633629e+00 4.2100324406e+00 
101700 6.0363774599e+00 -6.8908602134e-05 2.4306633629e+00 -4.2100324406e+00 2.4306633629e+00 4.2100324406e+00 
101800 6.0363774600e+00 -6.8904131585e-05 2.4306633629e+00 -4.2100324406e+00 2.4306633629e+00 4.2100324406e+00 
101900 6.0363774601e+00 -6.8900409563e-05 2.4306633629e+00 -4.2100324406e+00 2.4306633629e+00 4.2100324406e+00 
102000 6.0363774602e+00 -6.8897387323e-05 2.4306633629e+00 -4.2100324406e+00 2.4306633629e+00 4.2100324406e+00 
102100 6.0363774602e+00 -6.8895015061e-05 2.4306633629e+00 -4.2100324406e+00 2.4306633629e+00 4.2100324406e+00 
102200 6.0363774603e+00 -6.8893242107e-05 2.4306633629e+00 -4.2100324406e+00 2.4306633629e+00 4.2100324406e+00 
102300 6.0363774604e+00 -6.8892017140e-05 2.4306633629e+00 -4.2100324406e+00 2.4306633629e+00 4.2100324406e+00 
102400 6.0363774605e+00 -6.8891288368e-05 2.4306633629e+00 -4.2100324406e+00 2.4306633629e+00 4.2100324406e+00 
102500 6.0363774605e+00 -6.8891003741e-05 2.4306633629e+00 -4.2100324406e+00 2.4306633629e+00 4.2100324406e+00 
102600 6.0363774606e+00 -6.8891111129e-05 2.4306633629e+00 -4.2100324406e+00 2.4306633629e+00 4.2100324406e+00 
102700 6.0363774607e+00 -6.8891558507e-05 2.4306633629e+00 -4.2100324406e+00 2.4306633629e+00 4.2100324406e+00 
102800 6.0363774607e+00 -6.8892294129e-05 2.4306633629e+00 -4.2100324406e+00 2.4306633629e+00 4.2100324406e+00 
102900 6.0363774608e+00 -6.8893266702e-05 2.4306633629e+00 -4.2100324406e+00 2.4306633629e+00 4.2100324406e+00 
103000 6.0363774608e+00 -6.8894425547e-05 2.4306633629e+00 -4.2100324406e+00 2.4306633629e+00 4.2100324406e+00 
103100 6.0363774609e+00 -6.8895720761e-05 2.4306633629e+00 -4.2100324406e+00 2.4306633629e+00 4.2100324406e+00 
103200 6.0363774610e+00 -6.8897103358e-05 2.4306633629e+00 -4.2100324406e+00 2.4306633629e+00 4.2100324406e+00 
103300 6.0363774610e+00 -6.8898525413e-05 2.4306633629e+00 -4.2100324406e+00 2.4306633629e+00 4.2100324406e+00 
103400 6.0363774611e+00 -6.8899940201e-05 2.4306633629e+00 -4.2100324406e+00 2.4306633629e+00 4.2100324406e+00 
103500 6.0363774611e+00 -6.8901302314e-05 2.4306633629e+00 -4.2100324406e+00 2.4306633629e+00 4.2100324406e+00 
103600 6.0363774612e+00 -6.8902567782e-05 2.4306633629e+00 -4.2100324406e+00 2.4306633629e+00 4.2100324406e+00 
103700 6.0363774613e+00 -6.8903694175e-05 2.4306633629e+00 -4.2100324406e+00 2.4306633629e+00 4.2100324406e+00 
103800 6.0363774613e+00 -6.8904640717e-05 2.4306633629e+00 -4.2100324406e+00 2.4306633629e+00 4.2100324406e+00 
103900 6.0363774614e+00 -6.8905368359e-05 2.4306633629e+00 -4.2100324406e+00 2.4306633629e+00 4.2100324406e+00 
104000 6.0363774614e+00 -6.8905839879e-05 2.4306633629e+00 -4.2100324406e+00 2.4306633629e+00 4.2100324406e+00 
104100 6.0363774615e+00 -6.8906019942e-05 2.4306633629e+00 -4.2100324406e+00 2.4306633629e+00 4.2100324406e+00 
104200 6.0363774615e+00 -6.8905875166e-05 2.4306633629e+00 -4.2100324406e+00 2.4306633629e+00 4.2100324406e+00 
104300 6.0363774616e+00 -6.8905374194e-05 2.4306633629e+00 -4.2100324406e+00 2.4306633629e+00 4.2100324406e+00 
104400 6.0363774616e+00 -6.8904487719e-05 2.4306633629e+00 -4.2100324406e+00 2.4306633629e+00 4.2100324406e+00 
104500 6.0363774617e+00 -6.8903188543e-05 2.4306633629e+00 -4.2100324406e+00 2.4306633629e+00 4.2100324406e+00 
104600 6.0363774617e+00 -6.8901451600e-05 2.4306633629e+00 -4.2100324406e+00 2.4306633629e+00 4.2100324406e+00 
104700 6.0363774618e+00 -6.8899253976e-05 2.4306633629e+00 -4.2100324406e+00 2.4306633629e+00 4.2100324406e+00 
104800 6.0363774618e+00 -6.8899008059e-05 2.4306633629e+00 -4.2100324406e+00 2.4306633629e+00 4.2100324406e+00 
104800 6.0363774618e+00 -6.8899008059e-05 2.4306633629e+00 -4.2100324406e+00 2.4306633629e+00 4.2100324406e+00 
