# step Hamiltonian StressXX CellTensor1 CellTensor2 CellTensor3 CellTensor4 
0 6.3608045635e+00 3.0821937777e-02 1.6736668749e+00 -2.8988760623e+00 1.6736668749e+00 2.8988760623e+00 
100 6.3585528611e+00 3.4757556495e-02 1.6736668749e+00 -2.8988760623e+00 1.6736668749e+00 2.8988760623e+00 
200 6.3563046732e+00 3.7841038304e-02 1.6726286169e+00 -2.8970777467e+00 1.6726286169e+00 2.8970777467e+00 
300 6.3540981233e+00 4.0644788174e-02 1.6714975598e+00 -2.8951186983e+00 1.6714975598e+00 2.8951186983e+00 
400 6.3519361361e+00 4.3184189704e-02 1.6702818877e+00 -2.8930130925e+00 1.6702818877e+00 2.8930130925e+00 
500 6.3498212413e+00 4.5473559009e-02 1.6689893330e+00 -2.8907743221e+00 1.6689893330e+00 2.8907743221e+00 
600 6.3477556093e+00 4.7526269687e-02 1.6676272102e+00 -2.8884150562e+00 1.6676272102e+00 2.8884150562e+00 
700 6.3457410825e+00 4.9354859586e-02 1.6662024465e+00 -2.8859472931e+00 1.6662024465e+00 2.8859472931e+00 
800 6.3437792026e+00 5.0971122265e-02 1.6647216078e+00 -2.8833824052e+00 1.6647216078e+00 2.8833824052e+00 
900 6.3418712337e+00 5.2386185581e-02 1.6631909224e+00 -2.8807311802e+00 1.6631909224e+00 2.8807311802e+00 
1000 6.3400181841e+00 5.3610579395e-02 1.6616163013e+00 -2.8780038565e+00 1.6616163013e+00 2.8780038565e+00 
1100 6.3382208251e+00 5.4654294049e-02 1.6600033568e+00 -2.8752101547e+00 1.6600033568e+00 2.8752101547e+00 
1200 6.3364797078e+00 5.5526831005e-02 1.6583574188e+00 -2.8723593065e+00 1.6583574188e+00 2.8723593065e+00 
1300 6.3347951790e+00 5.6237246767e-02 1.6566835493e+00 -2.8694600794e+00 1.6566835493e+00 2.8694600794e+00 
1400 6.3331673955e+00 5.6794191049e-02 1.6549865555e+00 -2.8665207999e+00 1.6549865555e+00 2.8665207999e+00 
1500 6.3315963372e+00 5.7205939979e-02 1.6532710018e+00 -2.8635493737e+00 1.6532710018e+00 2.8635493737e+00 
1600 6.3300818193e+00 5.7480425014e-02 1.6515412202e+00 -2.8605533043e+00 1.6515412202e+00 2.8605533043e+00 
1700 6.3286235042e+00 5.7625258132e-02 1.6498013206e+00 -2.8575397097e+00 1.6498013206e+00 2.8575397097e+00 
1800 6.3272209119e+00 5.7647753783e-02 1.6480551988e+00 -2.8545153380e+00 1.6480551988e+00 2.8545153380e+00 
1900 6.3258734309e+00 5.7554948017e-02 1.6463065454e+00 -2.8514865815e+00 1.6463065454e+00 2.8514865815e+00 
2000 6.3245803271e+00 5.7353615162e-02 1.6445588529e+00 -2.8484594893e+00 1.6445588529e+00 2.8484594893e+00 
2100 6.3233407544e+00 5.7050282340e-02 1.6428154228e+00 -2.8454397797e+00 1.6428154228e+00 2.8454397797e+00 
2200 6.3221537625e+00 5.6651242130e-02 1.6410793719e+00 -2.8424328514e+00 1.6410793719e+00 2.8424328514e+00 
2300 6.3210183065e+00 5.6162563594e-02 1.6393536388e+00 -2.8394437940e+00 1.6393536388e+00 2.8394437940e+00 
2400 6.3199332551e+00 5.5590101902e-02 1.6376409890e+00 -2.8364773975e+00 1.6376409890e+00 2.8364773975e+00 
2500 6.3188973989e+00 5.4939506731e-02 1.6359440209e+00 -2.8335381626e+00 1.6359440209e+00 2.8335381626e+00 
2600 6.3179094582e+00 5.4216229626e-02 1.6342651708e+00 -2.8306303088e+00 1.6342651708e+00 2.8306303088e+00 
2700 6.3169680912e+00 5.3425530464e-02 1.6326067175e+00 -2.8277577834e+00 1.6326067175e+00 2.8277577834e+00 
2800 6.3160719015e+00 5.2572483152e-02 1.6309707877e+00 -2.8249242700e+00 1.6309707877e+00 2.8249242700e+00 
2900 6.3152194454e+00 5.1661980701e-02 1.6293593605e+00 -2.8221331961e+00 1.6293593605e+00 2.8221331961e+00 
3000 6.3144092396e+00 5.0698739757e-02 1.6277742714e+00 -2.8193877413e+00 1.6277742714e+00 2.8193877413e+00 
3100 6.3136397680e+00 4.9687304700e-02 1.6262172174e+00 -2.8166908447e+00 1.6262172174e+00 2.8166908447e+00 
3200 6.3129094890e+00 4.8632051392e-02 1.6246897610e+00 -2.8140452126e+00 1.6246897610e+00 2.8140452126e+00 
3300 6.3122168419e+00 4.7537190641e-02 1.6231933344e+00 -2.8114533258e+00 1.6231933344e+00 2.8114533258e+00 
3400 6.3115602537e+00 4.6406771446e-02 1.6217292440e+00 -2.8089174467e+00 1.6217292440e+00 2.8089174467e+00 
3500 6.3109381455e+00 4.5244684081e-02 1.6202986741e+00 -2.8064396269e+00 1.6202986741e+00 2.8064396269e+00 
3600 6.3103489383e+00 4.4054663060e-02 1.6189026913e+00 -2.8040217138e+00 1.6189026913e+00 2.8040217138e+00 
3700 6.3097910591e+00 4.2840290025e-02 1.6175422486e+00 -2.8016653580e+00 1.6175422486e+00 2.8016653580e+00 
3800 6.3092629464e+00 4.1604996580e-02 1.6162181892e+00 -2.7993720199e+00 1.6162181892e+00 2.7993720199e+00 
3900 6.3087630555e+00 4.0352067114e-02 1.6149312507e+00 -2.7971429769e+00 1.6149312507e+00 2.7971429769e+00 
4000 6.3082898636e+00 3.9084641612e-02 1.6136820687e+00 -2.7949793302e+00 1.6136820687e+00 2.7949793302e+00 
4100 6.3078418743e+00 3.7805718494e-02 1.6124711812e+00 -2.7928820116e+00 1.6124711812e+00 2.7928820116e+00 
4200 6.3074176223e+00 3.6518157466e-02 1.6112990320e+00 -2.7908517897e+00 1.6112990320e+00 2.7908517897e+00 
4300 6.3070156768e+00 3.5224682418e-02 1.6101659750e+00 -2.7888892773e+00 1.6101659750e+00 2.7888892773e+00 
4400 6.3066346459e+00 3.3927884355e-02 1.6090722775e+00 -2.7869949376e+00 1.6090722775e+00 2.7869949376e+00 
4500 6.3062731795e+00 3.2630224371e-02 1.6080181242e+00 -2.7851690905e+00 1.6080181242e+00 2.7851690905e+00 
4600 6.3059299725e+00 3.1334036659e-02 1.6070036210e+00 -2.7834119194e+00 1.6070036210e+00 2.7834119194e+00 
4700 6.3056037671e+00 3.0041531569e-02 1.6060287984e+00 -2.7817234773e+00 1.6060287984e+00 2.7817234773e+00 
4800 6.3052933556e+00 2.8754798694e-02 1.6050936155e+00 -2.7801036930e+00 1.6050936155e+00 2.7801036930e+00 
4900 6.3049975817e+00 2.7475809983e-02 1.6041979630e+00 -2.7785523773e+00 1.6041979630e+00 2.7785523773e+00 
5000 6.3047153427e+00 2.6206422885e-02 1.6033416671e+00 -2.7770692292e+00 1.6033416671e+00 2.7770692292e+00 
5100 6.3044455900e+00 2.4948383510e-02 1.6025244926e+00 -2.7756538416e+00 1.6025244926e+00 2.7756538416e+00 
5200 6.3041873308e+00 2.3703329790e-02 1.6017461469e+00 -2.7743057072e+00 1.6017461469e+00 2.7743057072e+00 
5300 6.3039396278e+00 2.2472794660e-02 1.6010062823e+00 -2.7730242242e+00 1.6010062823e+00 2.7730242242e+00 
5400 6.3037016004e+00 2.1258209220e-02 1.6003045002e+00 -2.7718087019e+00 1.6003045002e+00 2.7718087019e+00 
5500 6.3034724237e+00 2.0060905895e-02 1.5996403535e+00 -2.7706583662e+00 1.5996403535e+00 2.7706583662e+00 
5600 6.3032513289e+00 1.8882121573e-02 1.5990133503e+00 -2.7695723646e+00 1.5990133503e+00 2.7695723646e+00 
5700 6.3030376023e+00 1.7723000725e-02 1.5984229562e+00 -2.7685497722e+00 1.5984229562e+00 2.7685497722e+00 
5800 6.3028305847e+00 1.6584598489e-02 1.5978685981e+00 -2.7675895957e+00 1.5978685981e+00 2.7675895957e+00 
5900 6.3026296700e+00 1.5467883717e-02 1.5973496661e+00 -2.7666907792e+00 1.5973496661e+00 2.7666907792e+00 
6000 6.3024343044e+00 1.4373741990e-02 1.5968655172e+00 -2.7658522087e+00 1.5968655172e+00 2.7658522087e+00 
6100 6.3022439844e+00 1.3302978580e-02 1.5964154773e+00 -2.7650727166e+00 1.5964154773e+00 2.7650727166e+00 
6200 6.3020582553e+00 1.2256321365e-02 1.5959988439e+00 -2.7643510864e+00 1.5959988439e+00 2.7643510864e+00 
6300 6.3018767097e+00 1.1234423695e-02 1.5956148890e+00 -2.7636860571e+00 1.5956148890e+00 2.7636860571e+00 
6400 6.3016989852e+00 1.0237867196e-02 1.5952628614e+00 -2.7630763274e+00 1.5952628614e+00 2.7630763274e+00 
6500 6.3015247622e+00 9.2671645215e-03 1.5949419888e+00 -2.7625205596e+00 1.5949419888e+00 2.7625205596e+00 
6600 6.3013537623e+00 8.3227620454e-03 1.5946514803e+00 -2.7620173842e+00 1.5946514803e+00 2.7620173842e+00 
6700 6.3011857454e+00 7.4050424893e-03 1.5943905288e+00 -2.7615654029e+00 1.5943905288e+00 2.7615654029e+00 
6800 6.3010205079e+00 6.5143274923e-03 1.5941583127e+00 -2.7611631928e+00 1.5941583127e+00 2.7611631928e+00 
6900 6.3008578798e+00 5.6508801172e-03 1.5939539983e+00 -2.7608093100e+00 1.5939539983e+00 2.7608093100e+00 
7000 6.3006977231e+00 4.8149072949e-03 1.5937767418e+00 -2.7605022927e+00 1.5937767418e+00 2.7605022927e+00 
7100 6.3005399285e+00 4.0065622073e-03 1.5936256908e+00 -2.7602406647e+00 1.5936256908e+00 2.7602406647e+00 
7200 6.3003844137e+00 3.2259466088e-03 1.5934999866e+00 -2.7600229386e+00 1.5934999866e+00 2.7600229386e+00 
7300 6.3002311207e+00 2.4731130870e-03 1.5933987656e+00 -2.7598476187e+00 1.5933987656e+00 2.7598476187e+00 
7400 6.3000800134e+00 1.7480672656e-03 1.5933211612e+00 -2.7597132041e+00 1.5933211612e+00 2.7597132041e+00 
7500 6.2999310757e+00 1.0507699475e-03 1.5932663055e+00 -2.7596181911e+00 1.5932663055e+00 2.7596181911e+00 
7600 6.2997843085e+00 3.8113920312e-04 1.5932333303e+00 -2.7595610763e+00 1.5932333303e+00 2.7595610763e+00 
7700 6.2996397284e+00 -2.6094759717e-04 1.5932213691e+00 -2.7595403590e+00 1.5932213691e+00 2.7595403590e+00 
7800 6.2994973648e+00 -8.7565180383e-04 1.5932295584e+00 -2.7595545433e+00 1.5932295584e+00 2.7595545433e+00 
7900 6.2993572584e+00 -1.4631715601e-03 1.5932570389e+00 -2.7596021409e+00 1.5932570389e+00 2.7596021409e+00 
8000 6.2992194591e+00 -2.0237399242e-03 1.5933029567e+00 -2.7596816729e+00 1.5933029567e+00 2.7596816729e+00 
8100 6.2990840239e+00 -2.5576230389e-03 1.5933664648e+00 -2.7597916722e+00 1.5933664648e+00 2.7597916722e+00 
8200 6.2989510155e+00 -3.0651183483e-03 1.5934467240e+00 -2.7599306851e+00 1.5934467240e+00 2.7599306851e+00 
8300 6.2988205005e+00 -3.5465528585e-03 1.5935429038e+00 -2.7600972735e+00 1.5935429038e+00 2.7600972735e+00 
8400 6.2986925476e+00 -4.0022814412e-03 1.5936541840e+00 -2.7602900164e+00 1.5936541840e+00 2.7602900164e+00 
8500 6.2985672268e+00 -4.4326851791e-03 1.5937797550e+00 -2.7605075117e+00 1.5937797550e+00 2.7605075117e+00 
8600 6.2984446075e+00 -4.8381697502e-03 1.5939188190e+00 -2.7607483777e+00 1.5939188190e+00 2.7607483777e+00 
8700 6.2983247574e+00 -5.2191638517e-03 1.5940705911e+00 -2.7610112546e+00 1.5940705911e+00 2.7610112546e+00 
8800 6.2982077416e+00 -5.5761176594e-03 1.5942342994e+00 -2.7612948057e+00 1.5942342994e+00 2.7612948057e+00 
8900 6.2980936214e+00 -5.9095013244e-03 1.5944091865e+00 -2.7615977190e+00 1.5944091865e+00 2.7615977190e+00 
9000 6.2979824537e+00 -6.2198035031e-03 1.5945945095e+00 -2.7619187080e+00 1.5945945095e+00 2.7619187080e+00 
9100 6.2978742898e+00 -6.5075299219e-03 1.5947895413e+00 -2.7622565129e+00 1.5947895413e+00 2.7622565129e+00 
9200 6.2977691752e+00 -6.7732019739e-03 1.5949935703e+00 -2.7626099016e+00 1.5949935703e+00 2.7626099016e+00 
9300 6.2976671486e+00 -7.0173553484e-03 1.5952059020e+00 -2.7629776708e+00 1.5952059020e+00 2.7629776708e+00 
9400 6.2975682420e+00 -7.2405386908e-03 1.5954258584e+00 -2.7633586465e+00 1.5954258584e+00 2.7633586465e+00 
9500 6.2974724797e+00 -7.4433122942e-03 1.5956527794e+00 -2.7637516851e+00 1.5956527794e+00 2.7637516851e+00 
9600 6.2973798784e+00 -7.6262468208e-03 1.5958860223e+00 -2.7641556737e+00 1.5958860223e+00 2.7641556737e+00 
9700 6.2972904470e+00 -7.7899220537e-03 1.5961249628e+00 -2.7645695308e+00 1.5961249628e+00 2.7645695308e+00 
9800 6.2972041865e+00 -7.9349256782e-03 1.5963689951e+00 -2.7649922071e+00 1.5963689951e+00 2.7649922071e+00 
9900 6.2971210897e+00 -8.0618520934e-03 1.5966175320e+00 -2.7654226856e+00 1.5966175320e+00 2.7654226856e+00 
10000 6.2970411417e+00 -8.1713012529e-03 1.5968700052e+00 -2.7658599821e+00 1.5968700052e+00 2.7658599821e+00 
10100 6.2969643197e+00 -8.2638775353e-03 1.5971258657e+00 -2.7663031455e+00 1.5971258657e+00 2.7663031455e+00 
10200 6.2968905932e+00 -8.3401886451e-03 1.5973845836e+00 -2.7667512581e+00 1.5973845836e+00 2.7667512581e+00 
10300 6.2968199244e+00 -8.4008445432e-03 1.5976456484e+00 -2.7672034354e+00 1.5976456484e+00 2.7672034354e+00 
10400 6.2967522682e+00 -8.4464564074e-03 1.5979085688e+00 -2.7676588271e+00 1.5979085688e+00 2.7676588271e+00 
10500 6.2966875729e+00 -8.4776356245e-03 1.5981728734e+00 -2.7681166159e+00 1.5981728734e+00 2.7681166159e+00 
10600 6.2966257802e+00 -8.4949928119e-03 1.5984381097e+00 -2.7685760187e+00 1.5984381097e+00 2.7685760187e+00 
10700 6.2965668258e+00 -8.4991368718e-03 1.5987038450e+00 -2.7690362857e+00 1.5987038450e+00 2.7690362857e+00 
10800 6.2965106400e+00 -8.4906740764e-03 1.5989696657e+00 -2.7694967007e+00 1.5989696657e+00 2.7694967007e+00 
10900 6.2964571477e+00 -8.4702071848e-03 1.5992351776e+00 -2.7699565808e+00 1.5992351776e+00 2.7699565808e+00 
11000 6.2964062693e+00 -8.4383345936e-03 1.5995000054e+00 -2.7704152761e+00 1.5995000054e+00 2.7704152761e+00 
11100 6.2963579209e+00 -8.3956495187e-03 1.5997637931e+00 -2.7708721697e+00 1.5997637931e+00 2.7708721697e+00 
11200 6.2963120150e+00 -8.3427392118e-03 1.6000262030e+00 -2.7713266771e+00 1.6000262030e+00 2.7713266771e+00 
11300 6.2962684609e+00 -8.2801842098e-03 1.6002869164e+00 -2.7717782460e+00 1.6002869164e+00 2.7717782460e+00 
11400 6.2962271653e+00 -8.2085576179e-03 1.6005456328e+00 -2.7722263558e+00 1.6005456328e+00 2.7722263558e+00 
11500 6.2961880327e+00 -8.1284244279e-03 1.6008020696e+00 -2.7726705174e+00 1.6008020696e+00 2.7726705174e+00 
11600 6.2961509660e+00 -8.0403408698e-03 1.6010559623e+00 -2.7731102725e+00 1.6010559623e+00 2.7731102725e+00 
11700 6.2961158668e+00 -7.9448537994e-03 1.6013070638e+00 -2.7735451930e+00 1.6013070638e+00 2.7735451930e+00 
11800 6.2960826361e+00 -7.8425001197e-03 1.6015551442e+00 -2.7739748809e+00 1.6015551442e+00 2.7739748809e+00 
11900 6.2960511747e+00 -7.7338062381e-03 1.6017999906e+00 -2.7743989673e+00 1.6017999906e+00 2.7743989673e+00 
12000 6.2960213837e+00 -7.6192875584e-03 1.6020414065e+00 -2.7748171120e+00 1.6020414065e+00 2.7748171120e+00 
12100 6.2959931646e+00 -7.4994480079e-03 1.6022792118e+00 -2.7752290027e+00 1.6022792118e+00 2.7752290027e+00 
12200 6.2959664203e+00 -7.3747795994e-03 1.6025132418e+00 -2.7756343547e+00 1.6025132418e+00 2.7756343547e+00 
12300 6.2959410547e+00 -7.2457620284e-03 1.6027433478e+00 -2.7760329098e+00 1.6027433478e+00 2.7760329098e+00 
12400 6.2959169740e+00 -7.1128623048e-03 1.6029693956e+00 -2.7764244361e+00 1.6029693956e+00 2.7764244361e+00 
12500 6.2958940862e+00 -6.9765344189e-03 1.6031912659e+00 -2.7768087268e+00 1.6031912659e+00 2.7768087268e+00 
12600 6.2958723018e+00 -6.8372190419e-03 1.6034088535e+00 -2.7771855996e+00 1.6034088535e+00 2.7771855996e+00 
12700 6.2958515340e+00 -6.6953432592e-03 1.6036220671e+00 -2.7775548964e+00 1.6036220671e+00 2.7775548964e+00 
12800 6.2958316990e+00 -6.5513203381e-03 1.6038308285e+00 -2.7779164818e+00 1.6038308285e+00 2.7779164818e+00 
12900 6.2958127163e+00 -6.4055495272e-03 1.6040350726e+00 -2.7782702429e+00 1.6040350726e+00 2.7782702429e+00 
13000 6.2957945085e+00 -6.2584158884e-03 1.6042347466e+00 -2.7786160884e+00 1.6042347466e+00 2.7786160884e+00 
13100 6.2957770020e+00 -6.1102901597e-03 1.6044298098e+00 -2.7789539478e+00 1.6044298098e+00 2.7789539478e+00 
13200 6.2957601268e+00 -5.9615286496e-03 1.6046202329e+00 -2.7792837703e+00 1.6046202329e+00 2.7792837703e+00 
13300 6.2957438166e+00 -5.8124731605e-03 1.6048059979e+00 -2.7796055246e+00 1.6048059979e+00 2.7796055246e+00 
13400 6.2957280090e+00 -5.6634509418e-03 1.6049870971e+00 -2.7799191977e+00 1.6049870971e+00 2.7799191977e+00 
13500 6.2957126457e+00 -5.5147746709e-03 1.6051635333e+00 -2.7802247941e+00 1.6051635333e+00 2.7802247941e+00 
13600 6.2956976722e+00 -5.3667424616e-03 1.6053353187e+00 -2.7805223351e+00 1.6053353187e+00 2.7805223351e+00 
13700 6.2956830380e+00 -5.2196378990e-03 1.6055024749e+00 -2.7808118582e+00 1.6055024749e+00 2.7808118582e+00 
13800 6.2956686967e+00 -5.0737300993e-03 1.6056650323e+00 -2.7810934158e+00 1.6056650323e+00 2.7810934158e+00 
13900 6.2956546056e+00 -4.9292737951e-03 1.6058230295e+00 -2.7813670751e+00 1.6058230295e+00 2.7813670751e+00 
14000 6.2956407262e+00 -4.7865094421e-03 1.6059765132e+00 -2.7816329166e+00 1.6059765132e+00 2.7816329166e+00 
14100 6.2956270235e+00 -4.6456633504e-03 1.6061255373e+00 -2.7818910339e+00 1.6061255373e+00 2.7818910339e+00 
14200 6.2956134664e+00 -4.5069478349e-03 1.6062701627e+00 -2.7821415325e+00 1.6062701627e+00 2.7821415325e+00 
14300 6.2956000273e+00 -4.3705613873e-03 1.6064104571e+00 -2.7823845295e+00 1.6064104571e+00 2.7823845295e+00 
14400 6.2955866823e+00 -4.2366888663e-03 1.6065464940e+00 -2.7826201524e+00 1.6065464940e+00 2.7826201524e+00 
14500 6.2955734108e+00 -4.1055017062e-03 1.6066783529e+00 -2.7828485386e+00 1.6066783529e+00 2.7828485386e+00 
14600 6.2955601952e+00 -3.9771581417e-03 1.6068061182e+00 -2.7830698347e+00 1.6068061182e+00 2.7830698347e+00 
14700 6.2955470214e+00 -3.8518034495e-03 1.6069298795e+00 -2.7832841956e+00 1.6069298795e+00 2.7832841956e+00 
14800 6.2955338778e+00 -3.7295702035e-03 1.6070497308e+00 -2.7834917840e+00 1.6070497308e+00 2.7834917840e+00 
14900 6.2955207557e+00 -3.6105785440e-03 1.6071657700e+00 -2.7836927698e+00 1.6071657700e+00 2.7836927698e+00 
15000 6.2955076493e+00 -3.4949364597e-03 1.6072780988e+00 -2.7838873290e+00 1.6072780988e+00 2.7838873290e+00 
15100 6.2954945546e+00 -3.3827400806e-03 1.6073868222e+00 -2.7840756435e+00 1.6073868222e+00 2.7840756435e+00 
15200 6.2954814705e+00 -3.2740739820e-03 1.6074920482e+00 -2.7842579003e+00 1.6074920482e+00 2.7842579003e+00 
15300 6.2954683973e+00 -3.1690114973e-03 1.6075938872e+00 -2.7844342907e+00 1.6075938872e+00 2.7844342907e+00 
15400 6.2954553376e+00 -3.0676150400e-03 1.6076924521e+00 -2.7846050099e+00 1.6076924521e+00 2.7846050099e+00 
15500 6.2954422956e+00 -2.9699364322e-03 1.6077878573e+00 -2.7847702566e+00 1.6077878573e+00 2.7847702566e+00 
15600 6.2954292770e+00 -2.8760172411e-03 1.6078802191e+00 -2.7849302320e+00 1.6078802191e+00 2.7849302320e+00 
15700 6.2954162887e+00 -2.7858891194e-03 1.6079696550e+00 -2.7850851395e+00 1.6079696550e+00 2.7850851395e+00 
15800 6.2954033389e+00 -2.6995741524e-03 1.6080562833e+00 -2.7852351842e+00 1.6080562833e+00 2.7852351842e+00 
15900 6.2953904369e+00 -2.6170852075e-03 1.6081402231e+00 -2.7853805721e+00 1.6081402231e+00 2.7853805721e+00 
16000 6.2953775925e+00 -2.5384262875e-03 1.6082215937e+00 -2.7855215102e+00 1.6082215937e+00 2.7855215102e+00 
16100 6.2953648164e+00 -2.4635928865e-03 1.6083005147e+00 -2.7856582052e+00 1.6083005147e+00 2.7856582052e+00 
16200 6.2953521200e+00 -2.3925723468e-03 1.6083771052e+00 -2.7857908640e+00 1.6083771052e+00 2.7857908640e+00 
16300 6.2953395147e+00 -2.3253442170e-03 1.6084514843e+00 -2.7859196922e+00 1.6084514843e+00 2.7859196922e+00 
16400 6.2953270123e+00 -2.2618806104e-03 1.6085237700e+00 -2.7860448948e+00 1.6085237700e+00 2.7860448948e+00 
16500 6.2953146250e+00 -2.2021465625e-03 1.6085940797e+00 -2.7861666748e+00 1.6085940797e+00 2.7861666748e+00 
16600 6.2953023646e+00 -2.1461003879e-03 1.6086625296e+00 -2.7862852335e+00 1.6086625296e+00 2.7862852335e+00 
16700 6.2952902429e+00 -2.0936940347e-03 1.6087292346e+00 -2.7864007699e+00 1.6087292346e+00 2.7864007699e+00 
16800 6.2952782717e+00 -2.0448734375e-03 1.6087943079e+00 -2.7865134802e+00 1.6087943079e+00 2.7865134802e+00 
16900 6.2952664622e+00 -1.9995788670e-03 1.6088578613e+00 -2.7866235579e+00 1.6088578613e+00 2.7866235579e+00 
17000 6.2952548254e+00 -1.9577452765e-03 1.6089200045e+00 -2.7867311931e+00 1.6089200045e+00 2.7867311931e+00 
17100 6.2952433719e+00 -1.9193026443e-03 1.6089808453e+00 -2.7868365724e+00 1.6089808453e+00 2.7868365724e+00 
17200 6.2952321115e+00 -1.8841763117e-03 1.6090404890e+00 -2.7869398785e+00 1.6090404890e+00 2.7869398785e+00 
17300 6.2952210535e+00 -1.8522873171e-03 1.6090990391e+00 -2.7870412901e+00 1.6090990391e+00 2.7870412901e+00 
17400 6.2952102068e+00 -1.8235527240e-03 1.6091565961e+00 -2.7871409818e+00 1.6091565961e+00 2.7871409818e+00 
17500 6.2951995793e+00 -1.7978859439e-03 1.6092132582e+00 -2.7872391234e+00 1.6092132582e+00 2.7872391234e+00 
17600 6.2951891783e+00 -1.7751970534e-03 1.6092691208e+00 -2.7873358802e+00 1.6092691208e+00 2.7873358802e+00 
17700 6.2951790104e+00 -1.7553931053e-03 1.6093242765e+00 -2.7874314127e+00 1.6093242765e+00 2.7874314127e+00 
17800 6.2951690813e+00 -1.7383784325e-03 1.6093788150e+00 -2.7875258762e+00 1.6093788150e+00 2.7875258762e+00 
17900 6.2951593961e+00 -1.7240549459e-03 1.6094328230e+00 -2.7876194208e+00 1.6094328230e+00 2.7876194208e+00 
18000 6.2951499588e+00 -1.7123224250e-03 1.6094863843e+00 -2.7877121916e+00 1.6094863843e+00 2.7877121916e+00 
18100 6.2951407729e+00 -1.7030788012e-03 1.6095395792e+00 -2.7878043281e+00 1.6095395792e+00 2.7878043281e+00 
18200 6.2951318410e+00 -1.6962204341e-03 1.6095924853e+00 -2.7878959640e+00 1.6095924853e+00 2.7878959640e+00 
18300 6.2951231649e+00 -1.6916423790e-03 1.6096451766e+00 -2.7879872280e+00 1.6096451766e+00 2.7879872280e+00 
18400 6.2951147457e+00 -1.6892386482e-03 1.6096977239e+00 -2.7880782427e+00 1.6096977239e+00 2.7880782427e+00 
18500 6.2951065837e+00 -1.6889024631e-03 1.6097501949e+00 -2.7881691251e+00 1.6097501949e+00 2.7881691251e+00 
18600 6.2950986784e+00 -1.6905264985e-03 1.6098026537e+00 -2.7882599864e+00 1.6098026537e+00 2.7882599864e+00 
18700 6.2950910289e+00 -1.6940031193e-03 1.6098551613e+00 -2.7883509321e+00 1.6098551613e+00 2.7883509321e+00 
18800 6.2950836332e+00 -1.6992246079e-03 1.6099077751e+00 -2.7884420619e+00 1.6099077751e+00 2.7884420619e+00 
18900 6.2950764890e+00 -1.7060833844e-03 1.6099605493e+00 -2.7885334696e+00 1.6099605493e+00 2.7885334696e+00 
19000 6.2950695933e+00 -1.7144722171e-03 1.6100135349e+00 -2.7886252433e+00 1.6100135349e+00 2.7886252433e+00 
19100 6.2950629426e+00 -1.7242844253e-03 1.6100667792e+00 -2.7887174652e+00 1.6100667792e+00 2.7887174652e+00 
19200 6.2950565328e+00 -1.7354140739e-03 1.6101203265e+00 -2.7888102118e+00 1.6101203265e+00 2.7888102118e+00 
19300 6.2950503593e+00 -1.7477561583e-03 1.6101742176e+00 -2.7889035539e+00 1.6101742176e+00 2.7889035539e+00 
19400 6.2950444172e+00 -1.7612067820e-03 1.6102284902e+00 -2.7889975568e+00 1.6102284902e+00 2.7889975568e+00 
19500 6.2950387010e+00 -1.7756633252e-03 1.6102831786e+00 -2.7890922799e+00 1.6102831786e+00 2.7890922799e+00 
19600 6.2950332051e+00 -1.7910246043e-03 1.6103383140e+00 -2.7891877773e+00 1.6103383140e+00 2.7891877773e+00 
19700 6.2950279235e+00 -1.8071910242e-03 1.6103939245e+00 -2.7892840975e+00 1.6103939245e+00 2.7892840975e+00 
19800 6.2950228497e+00 -1.8240647210e-03 1.6104500351e+00 -2.7893812838e+00 1.6104500351e+00 2.7893812838e+00 
19900 6.2950179774e+00 -1.8415496972e-03 1.6105066676e+00 -2.7894793741e+00 1.6105066676e+00 2.7894793741e+00 
20000 6.2950132998e+00 -1.8595519480e-03 1.6105638409e+00 -2.7895784013e+00 1.6105638409e+00 2.7895784013e+00 
20100 6.2950088100e+00 -1.8779795799e-03 1.6106215711e+00 -2.7896783929e+00 1.6106215711e+00 2.7896783929e+00 
20200 6.2950045011e+00 -1.8967429207e-03 1.6106798713e+00 -2.7897793718e+00 1.6106798713e+00 2.7897793718e+00 
20300 6.2950003660e+00 -1.9157546221e-03 1.6107387518e+00 -2.7898813559e+00 1.6107387518e+00 2.7898813559e+00 
20400 6.2949963978e+00 -1.9349297536e-03 1.6107982204e+00 -2.7899843585e+00 1.6107982204e+00 2.7899843585e+00 
20500 6.2949925892e+00 -1.9541858894e-03 1.6108582820e+00 -2.7900883882e+00 1.6108582820e+00 2.7900883882e+00 
20600 6.2949889334e+00 -1.9734431871e-03 1.6109189390e+00 -2.7901934493e+00 1.6109189390e+00 2.7901934493e+00 
20700 6.2949854232e+00 -1.9926244591e-03 1.6109801915e+00 -2.7902995417e+00 1.6109801915e+00 2.7902995417e+00 
20800 6.2949820519e+00 -2.0116552366e-03 1.6110420370e+00 -2.7904066612e+00 1.6110420370e+00 2.7904066612e+00 
20900 6.2949788126e+00 -2.0304638262e-03 1.6111044707e+00 -2.7905147996e+00 1.6111044707e+00 2.7905147996e+00 
21000 6.2949756987e+00 -2.0489813594e-03 1.6111674858e+00 -2.7906239449e+00 1.6111674858e+00 2.7906239449e+00 
21100 6.2949727038e+00 -2.0671418356e-03 1.6112310731e+00 -2.7907340813e+00 1.6112310731e+00 2.7907340813e+00 
21200 6.2949698214e+00 -2.0848821573e-03 1.6112952214e+00 -2.7908451895e+00 1.6112952214e+00 2.7908451895e+00 
21300 6.2949670455e+00 -2.1021421602e-03 1.6113599177e+00 -2.7909572467e+00 1.6113599177e+00 2.7909572467e+00 
21400 6.2949643702e+00 -2.1188646353e-03 1.6114251470e+00 -2.7910702271e+00 1.6114251470e+00 2.7910702271e+00 
21500 6.2949617897e+00 -2.1349953454e-03 1.6114908925e+00 -2.7911841017e+00 1.6114908925e+00 2.7911841017e+00 
21600 6.2949592987e+00 -2.1504830362e-03 1.6115571358e+00 -2.7912988384e+00 1.6115571358e+00 2.7912988384e+00 
21700 6.2949568919e+00 -2.1652794402e-03 1.6116238569e+00 -2.7914144028e+00 1.6116238569e+00 2.7914144028e+00 
21800 6.2949545643e+00 -2.1793392754e-03 1.6116910343e+00 -2.7915307575e+00 1.6116910343e+00 2.7915307575e+00 
21900 6.2949523111e+00 -2.1926202391e-03 1.6117586451e+00 -2.7916478629e+00 1.6117586451e+00 2.7916478629e+00 
22000 6.2949501280e+00 -2.2050829955e-03 1.6118266651e+00 -2.7917656769e+00 1.6118266651e+00 2.7917656769e+00 
22100 6.2949480106e+00 -2.2166911583e-03 1.6118950688e+00 -2.7918841556e+00 1.6118950688e+00 2.7918841556e+00 
22200 6.2949459551e+00 -2.2274112691e-03 1.6119638297e+00 -2.7920032530e+00 1.6119638297e+00 2.7920032530e+00 
22300 6.2949439576e+00 -2.2372127696e-03 1.6120329202e+00 -2.7921229212e+00 1.6120329202e+00 2.7921229212e+00 
22400 6.2949420148e+00 -2.2460679709e-03 1.6121023117e+00 -2.7922431109e+00 1.6121023117e+00 2.7922431109e+00 
22500 6.2949401234e+00 -2.2539520173e-03 1.6121719749e+00 -2.7923637711e+00 1.6121719749e+00 2.7923637711e+00 
22600 6.2949382804e+00 -2.2608428465e-03 1.6122418796e+00 -2.7924848496e+00 1.6122418796e+00 2.7924848496e+00 
22700 6.2949364831e+00 -2.2667211453e-03 1.6123119950e+00 -2.7926062930e+00 1.6123119950e+00 2.7926062930e+00 
22800 6.2949347290e+00 -2.2715703023e-03 1.6123822896e+00 -2.7927280469e+00 1.6123822896e+00 2.7927280469e+00 
22900 6.2949330157e+00 -2.2753763568e-03 1.6124527316e+00 -2.7928500559e+00 1.6124527316e+00 2.7928500559e+00 
23000 6.2949313411e+00 -2.2781279438e-03 1.6125232885e+00 -2.7929722640e+00 1.6125232885e+00 2.7929722640e+00 
23100 6.2949297034e+00 -2.2798162364e-03 1.6125939276e+00 -2.7930946146e+00 1.6125939276e+00 2.7930946146e+00 
23200 6.2949281008e+00 -2.2804348857e-03 1.6126646160e+00 -2.7932170504e+00 1.6126646160e+00 2.7932170504e+00 
23300 6.2949265318e+00 -2.2799799568e-03 1.6127353204e+00 -2.7933395141e+00 1.6127353204e+00 2.7933395141e+00 
23400 6.2949249951e+00 -2.2784498632e-03 1.6128060077e+00 -2.7934619480e+00 1.6128060077e+00 2.7934619480e+00 
23500 6.2949234895e+00 -2.2758452987e-03 1.6128766444e+00 -2.7935842944e+00 1.6128766444e+00 2.7935842944e+00 
23600 6.2949220138e+00 -2.2721691666e-03 1.6129471973e+00 -2.7937064956e+00 1.6129471973e+00 2.7937064956e+00 
23700 6.2949205672e+00 -2.2674265079e-03 1.6130176331e+00 -2.7938284941e+00 1.6130176331e+00 2.7938284941e+00 
23800 6.2949191489e+00 -2.2616244268e-03 1.6130879189e+00 -2.7939502325e+00 1.6130879189e+00 2.7939502325e+00 
23900 6.2949177581e+00 -2.2547720153e-03 1.6131580217e+00 -2.7940716542e+00 1.6131580217e+00 2.7940716542e+00 
24000 6.2949163944e+00 -2.2468802760e-03 1.6132279091e+00 -2.7941927027e+00 1.6132279091e+00 2.7941927027e+00 
24100 6.2949150572e+00 -2.2379620440e-03 1.6132975489e+00 -2.7943133224e+00 1.6132975489e+00 2.7943133224e+00 
24200 6.2949137460e+00 -2.2280319076e-03 1.6133669092e+00 -2.7944334580e+00 1.6133669092e+00 2.7944334580e+00 
24300 6.2949124607e+00 -2.2171061281e-03 1.6134359589e+00 -2.7945530555e+00 1.6134359589e+00 2.7945530555e+00 
24400 6.2949112009e+00 -2.2052025589e-03 1.6135046669e+00 -2.7946720614e+00 1.6135046669e+00 2.7946720614e+00 
24500 6.2949099664e+00 -2.1923405648e-03 1.6135730032e+00 -2.7947904233e+00 1.6135730032e+00 2.7947904233e+00 
24600 6.2949087570e+00 -2.1785409397e-03 1.6136409380e+00 -2.7949080899e+00 1.6136409380e+00 2.7949080899e+00 
24700 6.2949075726e+00 -2.1638258251e-03 1.6137084424e+00 -2.7950250109e+00 1.6137084424e+00 2.7950250109e+00 
24800 6.2949064130e+00 -2.1482186282e-03 1.6137754880e+00 -2.7951411372e+00 1.6137754880e+00 2.7951411372e+00 
24900 6.2949052782e+00 -2.1317439404e-03 1.6138420472e+00 -2.7952564212e+00 1.6138420472e+00 2.7952564212e+00 
25000 6.2949041682e+00 -2.1144274557e-03 1.6139080933e+00 -2.7953708164e+00 1.6139080933e+00 2.7953708164e+00 
25100 6.2949030828e+00 -2.0962958895e-03 1.6139736002e+00 -2.7954842776e+00 1.6139736002e+00 2.7954842776e+00 
25200 6.2949020221e+00 -2.0773768986e-03 1.6140385427e+00 -2.7955967613e+00 1.6140385427e+00 2.7955967613e+00 
25300 6.2949009858e+00 -2.0576990013e-03 1.6141028965e+00 -2.7957082254e+00 1.6141028965e+00 2.7957082254e+00 
25400 6.2948999741e+00 -2.0372914981e-03 1.6141666382e+00 -2.7958186292e+00 1.6141666382e+00 2.7958186292e+00 
25500 6.2948989867e+00 -2.0161843943e-03 1.6142297452e+00 -2.7959279338e+00 1.6142297452e+00 2.7959279338e+00 
25600 6.2948980236e+00 -1.9944083225e-03 1.6142921960e+00 -2.7960361017e+00 1.6142921960e+00 2.7960361017e+00 
25700 6.2948970848e+00 -1.9719944672e-03 1.6143539698e+00 -2.7961430971e+00 1.6143539698e+00 2.7961430971e+00 
25800 6.2948961700e+00 -1.9489744901e-03 1.6144150471e+00 -2.7962488861e+00 1.6144150471e+00 2.7962488861e+00 
25900 6.2948952791e+00 -1.9253804571e-03 1.6144754091e+00 -2.7963534361e+00 1.6144754091e+00 2.7963534361e+00 
26000 6.2948944121e+00 -1.9012447666e-03 1.6145350381e+00 -2.7964567167e+00 1.6145350381e+00 2.7964567167e+00 
26100 6.2948935685e+00 -1.8766000791e-03 1.6145939175e+00 -2.7965586987e+00 1.6145939175e+00 2.7965586987e+00 
26200 6.2948927483e+00 -1.8514792494e-03 1.6146520316e+00 -2.7966593552e+00 1.6146520316e+00 2.7966593552e+00 
26300 6.2948919512e+00 -1.8259152591e-03 1.6147093656e+00 -2.7967586607e+00 1.6147093656e+00 2.7967586607e+00 
26400 6.2948911769e+00 -1.7999411523e-03 1.6147659060e+00 -2.7968565915e+00 1.6147659060e+00 2.7968565915e+00 
26500 6.2948904251e+00 -1.7735899719e-03 1.6148216401e+00 -2.7969531258e+00 1.6148216401e+00 2.7969531258e+00 
26600 6.2948896955e+00 -1.7468946990e-03 1.6148765564e+00 -2.7970482436e+00 1.6148765564e+00 2.7970482436e+00 
26700 6.2948889877e+00 -1.7198881932e-03 1.6149306443e+00 -2.7971419266e+00 1.6149306443e+00 2.7971419266e+00 
26800 6.2948883015e+00 -1.6926031361e-03 1.6149838941e+00 -2.7972341581e+00 1.6149838941e+00 2.7972341581e+00 
26900 6.2948876362e+00 -1.6650719752e-03 1.6150362975e+00 -2.7973249234e+00 1.6150362975e+00 2.7973249234e+00 
27000 6.2948869917e+00 -1.6373268718e-03 1.6150878469e+00 -2.7974142094e+00 1.6150878469e+00 2.7974142094e+00 
27100 6.2948863673e+00 -1.6093996498e-03 1.6151385356e+00 -2.7975020049e+00 1.6151385356e+00 2.7975020049e+00 
27200 6.2948857627e+00 -1.5813217471e-03 1.6151883582e+00 -2.7975883002e+00 1.6151883582e+00 2.7975883002e+00 
27300 6.2948851774e+00 -1.5531241691e-03 1.6152373101e+00 -2.7976730873e+00 1.6152373101e+00 2.7976730873e+00 
27400 6.2948846109e+00 -1.5248374442e-03 1.6152853876e+00 -2.7977563600e+00 1.6152853876e+00 2.7977563600e+00 
27500 6.2948840628e+00 -1.4964915824e-03 1.6153325881e+00 -2.7978381136e+00 1.6153325881e+00 2.7978381136e+00 
27600 6.2948835324e+00 -1.4681160350e-03 1.6153789097e+00 -2.7979183452e+00 1.6153789097e+00 2.7979183452e+00 
27700 6.2948830193e+00 -1.4397396570e-03 1.6154243518e+00 -2.7979970531e+00 1.6154243518e+00 2.7979970531e+00 
27800 6.2948825229e+00 -1.4113906723e-03 1.6154689143e+00 -2.7980742376e+00 1.6154689143e+00 2.7980742376e+00 
27900 6.2948820428e+00 -1.3830966404e-03 1.6155125981e+00 -2.7981499002e+00 1.6155125981e+00 2.7981499002e+00 
28000 6.2948815784e+00 -1.3548844253e-03 1.6155554050e+00 -2.7982240440e+00 1.6155554050e+00 2.7982240440e+00 
28100 6.2948811292e+00 -1.3267801676e-03 1.6155973377e+00 -2.7982966734e+00 1.6155973377e+00 2.7982966734e+00 
28200 6.2948806946e+00 -1.2988092574e-03 1.6156383995e+00 -2.7983677945e+00 1.6156383995e+00 2.7983677945e+00 
28300 6.2948802741e+00 -1.2709963105e-03 1.6156785945e+00 -2.7984374145e+00 1.6156785945e+00 2.7984374145e+00 
28400 6.2948798672e+00 -1.2433651464e-03 1.6157179279e+00 -2.7985055418e+00 1.6157179279e+00 2.7985055418e+00 
28500 6.2948794733e+00 -1.2159387681e-03 1.6157564052e+00 -2.7985721865e+00 1.6157564052e+00 2.7985721865e+00 
28600 6.2948790921e+00 -1.1887393449e-03 1.6157940329e+00 -2.7986373596e+00 1.6157940329e+00 2.7986373596e+00 
28700 6.2948787229e+00 -1.1617881958e-03 1.6158308181e+00 -2.7987010733e+00 1.6158308181e+00 2.7987010733e+00 
28800 6.2948783652e+00 -1.1351057768e-03 1.6158667684e+00 -2.7987633411e+00 1.6158667684e+00 2.7987633411e+00 
28900 6.2948780187e+00 -1.1087116684e-03 1.6159018922e+00 -2.7988241774e+00 1.6159018922e+00 2.7988241774e+00 
29000 6.2948776828e+00 -1.0826245663e-03 1.6159361986e+00 -2.7988835978e+00 1.6159361986e+00 2.7988835978e+00 
29100 6.2948773571e+00 -1.0568622737e-03 1.6159696971e+00 -2.7989416189e+00 1.6159696971e+00 2.7989416189e+00 
29200 6.2948770412e+00 -1.0314416950e-03 1.6160023978e+00 -2.7989982581e+00 1.6160023978e+00 2.7989982581e+00 
29300 6.2948767345e+00 -1.0063788318e-03 1.6160343113e+00 -2.7990535339e+00 1.6160343113e+00 2.7990535339e+00 
29400 6.2948764368e+00 -9.8168878062e-04 1.6160654487e+00 -2.7991074654e+00 1.6160654487e+00 2.7991074654e+00 
29500 6.2948761477e+00 -9.5738573226e-04 1.6160958216e+00 -2.7991600729e+00 1.6160958216e+00 2.7991600729e+00 
29600 6.2948758667e+00 -9.3348297271e-04 1.6161254420e+00 -2.7992113769e+00 1.6161254420e+00 2.7992113769e+00 
29700 6.2948755935e+00 -9.0999288583e-04 1.6161543223e+00 -2.7992613992e+00 1.6161543223e+00 2.7992613992e+00 
29800 6.2948753277e+00 -8.8692695752e-04 1.6161824755e+00 -2.7993101618e+00 1.6161824755e+00 2.7993101618e+00 
29900 6.2948750691e+00 -8.6429578138e-04 1.6162099145e+00 -2.7993576876e+00 1.6162099145e+00 2.7993576876e+00 
30000 6.2948748174e+00 -8.4210906582e-04 1.6162366529e+00 -2.7994039999e+00 1.6162366529e+00 2.7994039999e+00 
30100 6.2948745723e+00 -8.2037564255e-04 1.6162627045e+00 -2.7994491226e+00 1.6162627045e+00 2.7994491226e+00 
30200 6.2948743334e+00 -7.9910347632e-04 1.6162880834e+00 -2.7994930801e+00 1.6162880834e+00 2.7994930801e+00 
30300 6.2948741005e+00 -7.7829967605e-04 1.6163128038e+00 -2.7995358970e+00 1.6163128038e+00 2.7995358970e+00 
30400 6.2948738735e+00 -7.5797050699e-04 1.6163368802e+00 -2.7995775987e+00 1.6163368802e+00 2.7995775987e+00 
30500 6.2948736521e+00 -7.3812140418e-04 1.6163603274e+00 -2.7996182105e+00 1.6163603274e+00 2.7996182105e+00 
30600 6.2948734360e+00 -7.1875698684e-04 1.6163831603e+00 -2.7996577582e+00 1.6163831603e+00 2.7996577582e+00 
30700 6.2948732251e+00 -6.9988107386e-04 1.6164053939e+00 -2.7996962678e+00 1.6164053939e+00 2.7996962678e+00 
30800 6.2948730193e+00 -6.8149670022e-04 1.6164270432e+00 -2.7997337656e+00 1.6164270432e+00 2.7997337656e+00 
30900 6.2948728183e+00 -6.6360613430e-04 1.6164481236e+00 -2.7997702779e+00 1.6164481236e+00 2.7997702779e+00 
31000 6.2948726220e+00 -6.4621089599e-04 1.6164686503e+00 -2.7998058312e+00 1.6164686503e+00 2.7998058312e+00 
31100 6.2948724302e+00 -6.2931177564e-04 1.6164886387e+00 -2.7998404521e+00 1.6164886387e+00 2.7998404521e+00 
31200 6.2948722429e+00 -6.1290885365e-04 1.6165081042e+00 -2.7998741672e+00 1.6165081042e+00 2.7998741672e+00 
31300 6.2948720600e+00 -5.9700152073e-04 1.6165270620e+00 -2.7999070032e+00 1.6165270620e+00 2.7999070032e+00 
31400 6.2948718812e+00 -5.8158849881e-04 1.6165455276e+00 -2.7999389865e+00 1.6165455276e+00 2.7999389865e+00 
31500 6.2948717066e+00 -5.6666786240e-04 1.6165635162e+00 -2.7999701438e+00 1.6165635162e+00 2.7999701438e+00 
31600 6.2948715360e+00 -5.5223706051e-04 1.6165810432e+00 -2.8000005014e+00 1.6165810432e+00 2.8000005014e+00 
31700 6.2948713694e+00 -5.3829293894e-04 1.6165981236e+00 -2.8000300856e+00 1.6165981236e+00 2.8000300856e+00 
31800 6.2948712067e+00 -5.2483176298e-04 1.6166147726e+00 -2.8000589224e+00 1.6166147726e+00 2.8000589224e+00 
31900 6.2948710478e+00 -5.1184924037e-04 1.6166310051e+00 -2.8000870379e+00 1.6166310051e+00 2.8000870379e+00 
32000 6.2948708926e+00 -4.9934054465e-04 1.6166468358e+00 -2.8001144576e+00 1.6166468358e+00 2.8001144576e+00 
32100 6.2948707412e+00 -4.8730033857e-04 1.6166622796e+00 -2.8001412069e+00 1.6166622796e+00 2.8001412069e+00 
32200 6.2948705934e+00 -4.7572279779e-04 1.6166773508e+00 -2.8001673110e+00 1.6166773508e+00 2.8001673110e+00 
32300 6.2948704493e+00 -4.6460163461e-04 1.6166920638e+00 -2.8001927947e+00 1.6166920638e+00 2.8001927947e+00 
32400 6.2948703087e+00 -4.5393012189e-04 1.6167064327e+00 -2.8002176823e+00 1.6167064327e+00 2.8002176823e+00 
32500 6.2948701717e+00 -4.4370111684e-04 1.6167204714e+00 -2.8002419982e+00 1.6167204714e+00 2.8002419982e+00 
32600 6.2948700382e+00 -4.3390708494e-04 1.6167341937e+00 -2.8002657659e+00 1.6167341937e+00 2.8002657659e+00 
32700 6.2948699081e+00 -4.2454012371e-04 1.6167476130e+00 -2.8002890087e+00 1.6167476130e+00 2.8002890087e+00 
32800 6.2948697815e+00 -4.1559198643e-04 1.6167607425e+00 -2.8003117496e+00 1.6167607425e+00 2.8003117496e+00 
32900 6.2948696582e+00 -4.0705410567e-04 1.6167735951e+00 -2.8003340110e+00 1.6167735951e+00 2.8003340110e+00 
33000 6.2948695383e+00 -3.9891761672e-04 1.6167861836e+00 -2.8003558149e+00 1.6167861836e+00 2.8003558149e+00 
33100 6.2948694218e+00 -3.9117338075e-04 1.6167985203e+00 -2.8003771828e+00 1.6167985203e+00 2.8003771828e+00 
33200 6.2948693085e+00 -3.8381200772e-04 1.6168106175e+00 -2.8003981357e+00 1.6168106175e+00 2.8003981357e+00 
33300 6.2948691984e+00 -3.7682387907e-04 1.6168224869e+00 -2.8004186942e+00 1.6168224869e+00 2.8004186942e+00 
33400 6.2948690916e+00 -3.7019917003e-04 1.6168341402e+00 -2.8004388782e+00 1.6168341402e+00 2.8004388782e+00 
33500 6.2948689880e+00 -3.6392787164e-04 1.6168455885e+00 -2.8004587072e+00 1.6168455885e+00 2.8004587072e+00 
33600 6.2948688875e+00 -3.5799981236e-04 1.6168568427e+00 -2.8004782002e+00 1.6168568427e+00 2.8004782002e+00 
33700 6.2948687901e+00 -3.5240467934e-04 1.6168679136e+00 -2.8004973755e+00 1.6168679136e+00 2.8004973755e+00 
33800 6.2948686958e+00 -3.4713203924e-04 1.6168788114e+00 -2.8005162510e+00 1.6168788114e+00 2.8005162510e+00 
33900 6.2948686045e+00 -3.4217135858e-04 1.6168895460e+00 -2.8005348439e+00 1.6168895460e+00 2.8005348439e+00 
34000 6.2948685162e+00 -3.3751202367e-04 1.6169001272e+00 -2.8005531711e+00 1.6169001272e+00 2.8005531711e+00 
34100 6.2948684308e+00 -3.3314336006e-04 1.6169105642e+00 -2.8005712485e+00 1.6169105642e+00 2.8005712485e+00 
34200 6.2948683482e+00 -3.2905465144e-04 1.6169208661e+00 -2.8005890918e+00 1.6169208661e+00 2.8005890918e+00 
34300 6.2948682685e+00 -3.2523515805e-04 1.6169310414e+00 -2.8006067161e+00 1.6169310414e+00 2.8006067161e+00 
34400 6.2948681916e+00 -3.2167413456e-04 1.6169410986e+00 -2.8006241356e+00 1.6169410986e+00 2.8006241356e+00 
34500 6.2948681174e+00 -3.1836084741e-04 1.6169510456e+00 -2.8006413644e+00 1.6169510456e+00 2.8006413644e+00 
34600 6.2948680458e+00 -3.1528459154e-04 1.6169608901e+00 -2.8006584155e+00 1.6169608901e+00 2.8006584155e+00 
34700 6.2948679769e+00 -3.1243470658e-04 1.6169706394e+00 -2.8006753018e+00 1.6169706394e+00 2.8006753018e+00 
34800 6.2948679105e+00 -3.0980059248e-04 1.6169803005e+00 -2.8006920354e+00 1.6169803005e+00 2.8006920354e+00 
34900 6.2948678466e+00 -3.0737172447e-04 1.6169898801e+00 -2.8007086277e+00 1.6169898801e+00 2.8007086277e+00 
35000 6.2948677851e+00 -3.0513766753e-04 1.6169993846e+00 -2.8007250899e+00 1.6169993846e+00 2.8007250899e+00 
35100 6.2948677260e+00 -3.0308809016e-04 1.6170088199e+00 -2.8007414324e+00 1.6170088199e+00 2.8007414324e+00 
35200 6.2948676691e+00 -3.0121277756e-04 1.6170181918e+00 -2.8007576650e+00 1.6170181918e+00 2.8007576650e+00 
35300 6.2948676146e+00 -2.9950164426e-04 1.6170275056e+00 -2.8007737970e+00 1.6170275056e+00 2.8007737970e+00 
35400 6.2948675622e+00 -2.9794474604e-04 1.6170367665e+00 -2.8007898373e+00 1.6170367665e+00 2.8007898373e+00 
35500 6.2948675119e+00 -2.9653229131e-04 1.6170459792e+00 -2.8008057942e+00 1.6170459792e+00 2.8008057942e+00 
35600 6.2948674636e+00 -2.9525465182e-04 1.6170551482e+00 -2.8008216753e+00 1.6170551482e+00 2.8008216753e+00 
35700 6.2948674173e+00 -2.9410237280e-04 1.6170642776e+00 -2.8008374879e+00 1.6170642776e+00 2.8008374879e+00 
35800 6.2948673729e+00 -2.9306618243e-04 1.6170733713e+00 -2.8008532386e+00 1.6170733713e+00 2.8008532386e+00 
35900 6.2948673304e+00 -2.9213700078e-04 1.6170824329e+00 -2.8008689338e+00 1.6170824329e+00 2.8008689338e+00 
36000 6.2948672897e+00 -2.9130594804e-04 1.6170914658e+00 -2.8008845792e+00 1.6170914658e+00 2.8008845792e+00 
36100 6.2948672506e+00 -2.9056435225e-04 1.6171004729e+00 -2.8009001800e+00 1.6171004729e+00 2.8009001800e+00 
36200 6.2948672133e+00 -2.8990375638e-04 1.6171094570e+00 -2.8009157409e+00 1.6171094570e+00 2.8009157409e+00 
36300 6.2948671775e+00 -2.8931592483e-04 1.6171184206e+00 -2.8009312664e+00 1.6171184206e+00 2.8009312664e+00 
36400 6.2948671432e+00 -2.8879284933e-04 1.6171273661e+00 -2.8009467603e+00 1.6171273661e+00 2.8009467603e+00 
36500 6.2948671104e+00 -2.8832675432e-04 1.6171362953e+00 -2.8009622262e+00 1.6171362953e+00 2.8009622262e+00 
36600 6.2948670791e+00 -2.8791010172e-04 1.6171452100e+00 -2.8009776670e+00 1.6171452100e+00 2.8009776670e+00 
36700 6.2948670490e+00 -2.8753559518e-04 1.6171541118e+00 -2.8009930853e+00 1.6171541118e+00 2.8009930853e+00 
36800 6.2948670203e+00 -2.8719618372e-04 1.6171630020e+00 -2.8010084836e+00 1.6171630020e+00 2.8010084836e+00 
36900 6.2948669928e+00 -2.8688506495e-04 1.6171718816e+00 -2.8010238636e+00 1.6171718816e+00 2.8010238636e+00 
37000 6.2948669664e+00 -2.8659568768e-04 1.6171807516e+00 -2.8010392268e+00 1.6171807516e+00 2.8010392268e+00 
37100 6.2948669412e+00 -2.8632175401e-04 1.6171896126e+00 -2.8010545745e+00 1.6171896126e+00 2.8010545745e+00 
37200 6.2948669171e+00 -2.8605722105e-04 1.6171984650e+00 -2.8010699074e+00 1.6171984650e+00 2.8010699074e+00 
37300 6.2948668940e+00 -2.8579630198e-04 1.6172073093e+00 -2.8010852260e+00 1.6172073093e+00 2.8010852260e+00 
37400 6.2948668718e+00 -2.8553346679e-04 1.6172161454e+00 -2.8011005306e+00 1.6172161454e+00 2.8011005306e+00 
37500 6.2948668506e+00 -2.8526344246e-04 1.6172249733e+00 -2.8011158211e+00 1.6172249733e+00 2.8011158211e+00 
37600 6.2948668303e+00 -2.8498121281e-04 1.6172337929e+00 -2.8011310970e+00 1.6172337929e+00 2.8011310970e+00 
37700 6.2948668108e+00 -2.8468201779e-04 1.6172426036e+00 -2.8011463577e+00 1.6172426036e+00 2.8011463577e+00 
37800 6.2948667921e+00 -2.8436135247e-04 1.6172514051e+00 -2.8011616023e+00 1.6172514051e+00 2.8011616023e+00 
37900 6.2948667742e+00 -2.8401496558e-04 1.6172601966e+00 -2.8011768296e+00 1.6172601966e+00 2.8011768296e+00 
38000 6.2948667570e+00 -2.8363885767e-04 1.6172689774e+00 -2.8011920383e+00 1.6172689774e+00 2.8011920383e+00 
38100 6.2948667405e+00 -2.8322927892e-04 1.6172777464e+00 -2.8012072268e+00 1.6172777464e+00 2.8012072268e+00 
38200 6.2948667246e+00 -2.8278272661e-04 1.6172865028e+00 -2.8012223933e+00 1.6172865028e+00 2.8012223933e+00 
38300 6.2948667094e+00 -2.8229594222e-04 1.6172952453e+00 -2.8012375357e+00 1.6172952453e+00 2.8012375357e+00 
38400 6.2948666947e+00 -2.8176590822e-04 1.6173039727e+00 -2.8012526521e+00 1.6173039727e+00 2.8012526521e+00 
38500 6.2948666806e+00 -2.8118984460e-04 1.6173126837e+00 -2.8012677399e+00 1.6173126837e+00 2.8012677399e+00 
38600 6.2948666671e+00 -2.8056520507e-04 1.6173213769e+00 -2.8012827969e+00 1.6173213769e+00 2.8012827969e+00 
38700 6.2948666540e+00 -2.7988967296e-04 1.6173300506e+00 -2.8012978203e+00 1.6173300506e+00 2.8012978203e+00 
38800 6.2948666415e+00 -2.7916115696e-04 1.6173387035e+00 -2.8013128074e+00 1.6173387035e+00 2.8013128074e+00 
38900 6.2948666294e+00 -2.7837778653e-04 1.6173473337e+00 -2.8013277555e+00 1.6173473337e+00 2.8013277555e+00 
39000 6.2948666177e+00 -2.7753790713e-04 1.6173559397e+00 -2.8013426616e+00 1.6173559397e+00 2.8013426616e+00 
39100 6.2948666064e+00 -2.7664007522e-04 1.6173645197e+00 -2.8013575225e+00 1.6173645197e+00 2.8013575225e+00 
39200 6.2948665956e+00 -2.7568305310e-04 1.6173730719e+00 -2.8013723354e+00 1.6173730719e+00 2.8013723354e+00 
39300 6.2948665851e+00 -2.7466580350e-04 1.6173815945e+00 -2.8013870969e+00 1.6173815945e+00 2.8013870969e+00 
39400 6.2948665750e+00 -2.7358748413e-04 1.6173900856e+00 -2.8014018039e+00 1.6173900856e+00 2.8014018039e+00 
39500 6.2948665653e+00 -2.7244744193e-04 1.6173985433e+00 -2.8014164530e+00 1.6173985433e+00 2.8014164530e+00 
39600 6.2948665559e+00 -2.7124520731e-04 1.6174069657e+00 -2.8014310410e+00 1.6174069657e+00 2.8014310410e+00 
39700 6.2948665468e+00 -2.6998048822e-04 1.6174153509e+00 -2.8014455646e+00 1.6174153509e+00 2.8014455646e+00 
39800 6.2948665380e+00 -2.6865316408e-04 1.6174236969e+00 -2.8014600204e+00 1.6174236969e+00 2.8014600204e+00 
39900 6.2948665295e+00 -2.6726327972e-04 1.6174320019e+00 -2.8014744051e+00 1.6174320019e+00 2.8014744051e+00 
40000 6.2948665213e+00 -2.6581103913e-04 1.6174402639e+00 -2.8014887152e+00 1.6174402639e+00 2.8014887152e+00 
40100 6.2948665134e+00 -2.6429679921e-04 1.6174484809e+00 -2.8015029475e+00 1.6174484809e+00 2.8015029475e+00 
40200 6.2948665058e+00 -2.6272106345e-04 1.6174566511e+00 -2.8015170987e+00 1.6174566511e+00 2.8015170987e+00 
40300 6.2948664984e+00 -2.6108447558e-04 1.6174647725e+00 -2.8015311654e+00 1.6174647725e+00 2.8015311654e+00 
40400 6.2948664913e+00 -2.5938781319e-04 1.6174728433e+00 -2.8015451445e+00 1.6174728433e+00 2.8015451445e+00 
40500 6.2948664844e+00 -2.5763198130e-04 1.6174808616e+00 -2.8015590326e+00 1.6174808616e+00 2.8015590326e+00 
40600 6.2948664777e+00 -2.5581800601e-04 1.6174888256e+00 -2.8015728266e+00 1.6174888256e+00 2.8015728266e+00 
40700 6.2948664713e+00 -2.5394702807e-04 1.6174967335e+00 -2.8015865235e+00 1.6174967335e+00 2.8015865235e+00 
40800 6.2948664651e+00 -2.5202029651e-04 1.6175045835e+00 -2.8016001201e+00 1.6175045835e+00 2.8016001201e+00 
40900 6.2948664592e+00 -2.5003916229e-04 1.6175123739e+00 -2.8016136135e+00 1.6175123739e+00 2.8016136135e+00 
41000 6.2948664534e+00 -2.4800507202e-04 1.6175201030e+00 -2.8016270007e+00 1.6175201030e+00 2.8016270007e+00 
41100 6.2948664479e+00 -2.4591956168e-04 1.6175277693e+00 -2.8016402790e+00 1.6175277693e+00 2.8016402790e+00 
41200 6.2948664425e+00 -2.4378425039e-04 1.6175353710e+00 -2.8016534456e+00 1.6175353710e+00 2.8016534456e+00 
41300 6.2948664374e+00 -2.4160083436e-04 1.6175429067e+00 -2.8016664978e+00 1.6175429067e+00 2.8016664978e+00 
41400 6.2948664325e+00 -2.3937108075e-04 1.6175503748e+00 -2.8016794330e+00 1.6175503748e+00 2.8016794330e+00 
41500 6.2948664277e+00 -2.3709682172e-04 1.6175577740e+00 -2.8016922487e+00 1.6175577740e+00 2.8016922487e+00 
41600 6.2948664231e+00 -2.3477994858e-04 1.6175651029e+00 -2.8017049427e+00 1.6175651029e+00 2.8017049427e+00 
41700 6.2948664187e+00 -2.3242240595e-04 1.6175723601e+00 -2.8017175125e+00 1.6175723601e+00 2.8017175125e+00 
41800 6.2948664145e+00 -2.3002618613e-04 1.6175795444e+00 -2.8017299561e+00 1.6175795444e+00 2.8017299561e+00 
41900 6.2948664105e+00 -2.2759332350e-04 1.6175866546e+00 -2.8017422714e+00 1.6175866546e+00 2.8017422714e+00 
42000 6.2948664066e+00 -2.2512588906e-04 1.6175936895e+00 -2.8017544563e+00 1.6175936895e+00 2.8017544563e+00 
42100 6.2948664029e+00 -2.2262598514e-04 1.6176006482e+00 -2.8017665091e+00 1.6176006482e+00 2.8017665091e+00 
42200 6.2948663994e+00 -2.2009574017e-04 1.6176075296e+00 -2.8017784279e+00 1.6176075296e+00 2.8017784279e+00 
42300 6.2948663960e+00 -2.1753730362e-04 1.6176143327e+00 -2.8017902113e+00 1.6176143327e+00 2.8017902113e+00 
42400 6.2948663927e+00 -2.1495284106e-04 1.6176210567e+00 -2.8018018577e+00 1.6176210567e+00 2.8018018577e+00 
42500 6.2948663897e+00 -2.1234452941e-04 1.6176277008e+00 -2.8018133656e+00 1.6176277008e+00 2.8018133656e+00 
42600 6.2948663867e+00 -2.0971455223e-04 1.6176342643e+00 -2.8018247338e+00 1.6176342643e+00 2.8018247338e+00 
42700 6.2948663839e+00 -2.0706509531e-04 1.6176407464e+00 -2.8018359612e+00 1.6176407464e+00 2.8018359612e+00 
42800 6.2948663812e+00 -2.0439834223e-04 1.6176471467e+00 -2.8018470467e+00 1.6176471467e+00 2.8018470467e+00 
42900 6.2948663787e+00 -2.0171647028e-04 1.6176534644e+00 -2.8018579894e+00 1.6176534644e+00 2.8018579894e+00 
43000 6.2948663763e+00 -1.9902164631e-04 1.6176596993e+00 -2.8018687885e+00 1.6176596993e+00 2.8018687885e+00 
43100 6.2948663740e+00 -1.9631602296e-04 1.6176658508e+00 -2.8018794433e+00 1.6176658508e+00 2.8018794433e+00 
43200 6.2948663718e+00 -1.9360173488e-04 1.6176719187e+00 -2.8018899532e+00 1.6176719187e+00 2.8018899532e+00 
43300 6.2948663698e+00 -1.9088089519e-04 1.6176779027e+00 -2.8019003177e+00 1.6176779027e+00 2.8019003177e+00 
43400 6.2948663679e+00 -1.8815559208e-04 1.6176838025e+00 -2.8019105365e+00 1.6176838025e+00 2.8019105365e+00 
43500 6.2948663660e+00 -1.8542788562e-04 1.6176896181e+00 -2.8019206094e+00 1.6176896181e+00 2.8019206094e+00 
43600 6.2948663643e+00 -1.8269980463e-04 1.6176953494e+00 -2.8019305363e+00 1.6176953494e+00 2.8019305363e+00 
43700 6.2948663627e+00 -1.7997334382e-04 1.6177009963e+00 -2.8019403170e+00 1.6177009963e+00 2.8019403170e+00 
43800 6.2948663611e+00 -1.7725046100e-04 1.6177065589e+00 -2.8019499518e+00 1.6177065589e+00 2.8019499518e+00 
43900 6.2948663597e+00 -1.7453307455e-04 1.6177120374e+00 -2.8019594407e+00 1.6177120374e+00 2.8019594407e+00 
44000 6.2948663583e+00 -1.7182306096e-04 1.6177174318e+00 -2.8019687842e+00 1.6177174318e+00 2.8019687842e+00 
44100 6.2948663571e+00 -1.6912225257e-04 1.6177227425e+00 -2.8019779825e+00 1.6177227425e+00 2.8019779825e+00 
44200 6.2948663559e+00 -1.6643243548e-04 1.6177279697e+00 -2.8019870363e+00 1.6177279697e+00 2.8019870363e+00 
44300 6.2948663548e+00 -1.6375534758e-04 1.6177331137e+00 -2.8019959460e+00 1.6177331137e+00 2.8019959460e+00 
44400 6.2948663537e+00 -1.6109267678e-04 1.6177381749e+00 -2.8020047123e+00 1.6177381749e+00 2.8020047123e+00 
44500 6.2948663527e+00 -1.5844605933e-04 1.6177431539e+00 -2.8020133361e+00 1.6177431539e+00 2.8020133361e+00 
44600 6.2948663518e+00 -1.5581707836e-04 1.6177480510e+00 -2.8020218182e+00 1.6177480510e+00 2.8020218182e+00 
44700 6.2948663510e+00 -1.5320726254e-04 1.6177528669e+00 -2.8020301595e+00 1.6177528669e+00 2.8020301595e+00 
44800 6.2948663502e+00 -1.5061808485e-04 1.6177576021e+00 -2.8020383611e+00 1.6177576021e+00 2.8020383611e+00 
44900 6.2948663495e+00 -1.4805096154e-04 1.6177622572e+00 -2.8020464241e+00 1.6177622572e+00 2.8020464241e+00 
45000 6.2948663488e+00 -1.4550725121e-04 1.6177668330e+00 -2.8020543496e+00 1.6177668330e+00 2.8020543496e+00 
45100 6.2948663482e+00 -1.4298825403e-04 1.6177713302e+00 -2.8020621389e+00 1.6177713302e+00 2.8020621389e+00 
45200 6.2948663476e+00 -1.4049521110e-04 1.6177757495e+00 -2.8020697934e+00 1.6177757495e+00 2.8020697934e+00 
45300 6.2948663471e+00 -1.3802930392e-04 1.6177800917e+00 -2.8020773143e+00 1.6177800917e+00 2.8020773143e+00 
45400 6.2948663466e+00 -1.3559165400e-04 1.6177843577e+00 -2.8020847033e+00 1.6177843577e+00 2.8020847033e+00 
45500 6.2948663461e+00 -1.3318332259e-04 1.6177885484e+00 -2.8020919617e+00 1.6177885484e+00 2.8020919617e+00 
45600 6.2948663457e+00 -1.3080531055e-04 1.6177926646e+00 -2.8020990912e+00 1.6177926646e+00 2.8020990912e+00 
45700 6.2948663453e+00 -1.2845855827e-04 1.6177967073e+00 -2.8021060934e+00 1.6177967073e+00 2.8021060934e+00 
45800 6.2948663450e+00 -1.2614394580e-04 1.6178006775e+00 -2.8021129699e+00 1.6178006775e+00 2.8021129699e+00 
45900 6.2948663446e+00 -1.2386229299e-04 1.6178045761e+00 -2.8021197226e+00 1.6178045761e+00 2.8021197226e+00 
46000 6.2948663444e+00 -1.2161435982e-04 1.6178084042e+00 -2.8021263530e+00 1.6178084042e+00 2.8021263530e+00 
46100 6.2948663441e+00 -1.1940084675e-04 1.6178121628e+00 -2.8021328631e+00 1.6178121628e+00 2.8021328631e+00 
46200 6.2948663438e+00 -1.1722239522e-04 1.6178158530e+00 -2.8021392547e+00 1.6178158530e+00 2.8021392547e+00 
46300 6.2948663436e+00 -1.1507958821e-04 1.6178194759e+00 -2.8021455297e+00 1.6178194759e+00 2.8021455297e+00 
46400 6.2948663434e+00 -1.1297295093e-04 1.6178230325e+00 -2.8021516900e+00 1.6178230325e+00 2.8021516900e+00 
46500 6.2948663432e+00 -1.1090295155e-04 1.6178265240e+00 -2.8021577375e+00 1.6178265240e+00 2.8021577375e+00 
46600 6.2948663431e+00 -1.0887000201e-04 1.6178299516e+00 -2.8021636741e+00 1.6178299516e+00 2.8021636741e+00 
46700 6.2948663429e+00 -1.0687445893e-04 1.6178333163e+00 -2.8021695019e+00 1.6178333163e+00 2.8021695019e+00 
46800 6.2948663428e+00 -1.0491662459e-04 1.6178366193e+00 -2.8021752229e+00 1.6178366193e+00 2.8021752229e+00 
46900 6.2948663427e+00 -1.0299674795e-04 1.6178398618e+00 -2.8021808391e+00 1.6178398618e+00 2.8021808391e+00 
47000 6.2948663426e+00 -1.0111502574e-04 1.6178430449e+00 -2.8021863525e+00 1.6178430449e+00 2.8021863525e+00 
47100 6.2948663425e+00 -9.9271603652e-05 1.6178461699e+00 -2.8021917651e+00 1.6178461699e+00 2.8021917651e+00 
47200 6.2948663424e+00 -9.7466577512e-05 1.6178492379e+00 -2.8021970791e+00 1.6178492379e+00 2.8021970791e+00 
47300 6.2948663423e+00 -9.5699994568e-05 1.6178522502e+00 -2.8022022964e+00 1.6178522502e+00 2.8022022964e+00 
47400 6.2948663423e+00 -9.3971854779e-05 1.6178552078e+00 -2.8022074192e+00 1.6178552078e+00 2.8022074192e+00 
47500 6.2948663422e+00 -9.2282112175e-05 1.6178581120e+00 -2.8022124494e+00 1.6178581120e+00 2.8022124494e+00 
47600 6.2948663422e+00 -9.0630676245e-05 1.6178609640e+00 -2.8022173892e+00 1.6178609640e+00 2.8022173892e+00 
47700 6.2948663422e+00 -8.9017413355e-05 1.6178637649e+00 -2.8022222406e+00 1.6178637649e+00 2.8022222406e+00 
47800 6.2948663421e+00 -8.7442148210e-05 1.6178665160e+00 -2.8022270056e+00 1.6178665160e+00 2.8022270056e+00 
47900 6.2948663421e+00 -8.5904665325e-05 1.6178692184e+00 -2.8022316863e+00 1.6178692184e+00 2.8022316863e+00 
48000 6.2948663421e+00 -8.4404710546e-05 1.6178718733e+00 -2.8022362847e+00 1.6178718733e+00 2.8022362847e+00 
48100 6.2948663421e+00 -8.2941992554e-05 1.6178744818e+00 -2.8022408027e+00 1.6178744818e+00 2.8022408027e+00 
48200 6.2948663421e+00 -8.1516184429e-05 1.6178770451e+00 -2.8022452425e+00 1.6178770451e+00 2.8022452425e+00 
48300 6.2948663421e+00 -8.0126925194e-05 1.6178795643e+00 -2.8022496059e+00 1.6178795643e+00 2.8022496059e+00 
48400 6.2948663421e+00 -7.8773821386e-05 1.6178820406e+00 -2.8022538950e+00 1.6178820406e+00 2.8022538950e+00 
48500 6.2948663421e+00 -7.7456448624e-05 1.6178844751e+00 -2.8022581116e+00 1.6178844751e+00 2.8022581116e+00 
48600 6.2948663421e+00 -7.6174353195e-05 1.6178868689e+00 -2.8022622578e+00 1.6178868689e+00 2.8022622578e+00 
48700 6.2948663421e+00 -7.4927053626e-05 1.6178892230e+00 -2.8022663352e+00 1.6178892230e+00 2.8022663352e+00 
48800 6.2948663422e+00 -7.3714042264e-05 1.6178915386e+00 -2.8022703459e+00 1.6178915386e+00 2.8022703459e+00 
48900 6.2948663422e+00 -7.2534786846e-05 1.6178938167e+00 -2.8022742917e+00 1.6178938167e+00 2.8022742917e+00 
49000 6.2948663422e+00 -7.1388732066e-05 1.6178960583e+00 -2.8022781743e+00 1.6178960583e+00 2.8022781743e+00 
49100 6.2948663422e+00 -7.0275301133e-05 1.6178982645e+00 -2.8022819956e+00 1.6178982645e+00 2.8022819956e+00 
49200 6.2948663425e+00 -7.1333523350e-05 1.6178982645e+00 -2.8022819956e+00 1.6178982645e+00 2.8022819956e+00 
49300 6.2948663425e+00 -7.0226902115e-05 1.6179004690e+00 -2.8022858140e+00 1.6179004690e+00 2.8022858140e+00 
49400 6.2948663427e+00 -7.1290992865e-05 1.6179004690e+00 -2.8022858140e+00 1.6179004690e+00 2.8022858140e+00 
49500 6.2948663428e+00 -7.0192150971e-05 1.6179026722e+00 -2.8022896300e+00 1.6179026722e+00 2.8022896300e+00 
49600 6.2948663430e+00 -7.1263278194e-05 1.6179026722e+00 -2.8022896300e+00 1.6179026722e+00 2.8022896300e+00 
49700 6.2948663430e+00 -7.0172753578e-05 1.6179048746e+00 -2.8022934446e+00 1.6179048746e+00 2.8022934446e+00 
49800 6.2948663433e+00 -7.1251730339e-05 1.6179048746e+00 -2.8022934446e+00 1.6179048746e+00 2.8022934446e+00 
49900 6.2948663433e+00 -7.0169677071e-05 1.6179070765e+00 -2.8022972585e+00 1.6179070765e+00 2.8022972585e+00 
50000 6.2948663435e+00 -7.1256985862e-05 1.6179070765e+00 -2.8022972585e+00 1.6179070765e+00 2.8022972585e+00 
50100 6.2948663436e+00 -7.0183220452e-05 1.6179092787e+00 -2.8023010727e+00 1.6179092787e+00 2.8023010727e+00 
50200 6.2948663438e+00 -7.1279038018e-05 1.6179092787e+00 -2.8023010727e+00 1.6179092787e+00 2.8023010727e+00 
50300 6.2948663438e+00 -7.0213083969e-05 1.6179114815e+00 -2.8023048881e+00 1.6179114815e+00 2.8023048881e+00 
50400 6.2948663441e+00 -7.1317306460e-05 1.6179114815e+00 -2.8023048881e+00 1.6179114815e+00 2.8023048881e+00 
50500 6.2948663441e+00 -7.0258436930e-05 1.6179136855e+00 -2.8023087055e+00 1.6179136855e+00 2.8023087055e+00 
50600 6.2948663443e+00 -7.1370705159e-05 1.6179136855e+00 -2.8023087055e+00 1.6179136855e+00 2.8023087055e+00 
50700 6.2948663444e+00 -7.0317983571e-05 1.6179158911e+00 -2.8023125258e+00 1.6179158911e+00 2.8023125258e+00 
50800 6.2948663446e+00 -7.1437708194e-05 1.6179158911e+00 -2.8023125258e+00 1.6179158911e+00 2.8023125258e+00 
50900 6.2948663446e+00 -7.0390026693e-05 1.6179180988e+00 -2.8023163497e+00 1.6179180988e+00 2.8023163497e+00 
51000 6.2948663449e+00 -7.1516413163e-05 1.6179180988e+00 -2.8023163497e+00 1.6179180988e+00 2.8023163497e+00 
51100 6.2948663449e+00 -7.0472528806e-05 1.6179203090e+00 -2.8023201777e+00 1.6179203090e+00 2.8023201777e+00 
51200 6.2948663451e+00 -7.1604601905e-05 1.6179203090e+00 -2.8023201777e+00 1.6179203090e+00 2.8023201777e+00 
51300 6.2948663452e+00 -7.0563170556e-05 1.6179225218e+00 -2.8023240105e+00 1.6179225218e+00 2.8023240105e+00 
51400 6.2948663454e+00 -7.1699798403e-05 1.6179225218e+00 -2.8023240105e+00 1.6179225218e+00 2.8023240105e+00 
51500 6.2948663454e+00 -7.0659406232e-05 1.6179247376e+00 -2.8023278484e+00 1.6179247376e+00 2.8023278484e+00 
51600 6.2948663456e+00 -7.1799323594e-05 1.6179247376e+00 -2.8023278484e+00 1.6179247376e+00 2.8023278484e+00 
51700 6.2948663457e+00 -7.0758516199e-05 1.6179269565e+00 -2.8023316916e+00 1.6179269565e+00 2.8023316916e+00 
51800 6.2948663457e+00 -6.9745908505e-05 1.6179291432e+00 -2.8023354791e+00 1.6179291432e+00 2.8023354791e+00 
51900 6.2948663459e+00 -7.0883849080e-05 1.6179291432e+00 -2.8023354791e+00 1.6179291432e+00 2.8023354791e+00 
52000 6.2948663459e+00 -6.9867702431e-05 1.6179313338e+00 -2.8023392733e+00 1.6179313338e+00 2.8023392733e+00 
52100 6.2948663462e+00 -7.1005182902e-05 1.6179313338e+00 -2.8023392733e+00 1.6179313338e+00 2.8023392733e+00 
52200 6.2948663462e+00 -6.9984136332e-05 1.6179335281e+00 -2.8023430739e+00 1.6179335281e+00 2.8023430739e+00 
52300 6.2948663464e+00 -7.1119645786e-05 1.6179335281e+00 -2.8023430739e+00 1.6179335281e+00 2.8023430739e+00 
52400 6.2948663464e+00 -7.0092374416e-05 1.6179357259e+00 -2.8023468807e+00 1.6179357259e+00 2.8023468807e+00 
52500 6.2948663466e+00 -7.1224360050e-05 1.6179357259e+00 -2.8023468807e+00 1.6179357259e+00 2.8023468807e+00 
52600 6.2948663466e+00 -7.0189593544e-05 1.6179379270e+00 -2.8023506931e+00 1.6179379270e+00 2.8023506931e+00 
52700 6.2948663468e+00 -7.1316478383e-05 1.6179379270e+00 -2.8023506931e+00 1.6179379270e+00 2.8023506931e+00 
52800 6.2948663468e+00 -7.0273017175e-05 1.6179401310e+00 -2.8023545104e+00 1.6179401310e+00 2.8023545104e+00 
52900 6.2948663470e+00 -7.1393216653e-05 1.6179401310e+00 -2.8023545104e+00 1.6179401310e+00 2.8023545104e+00 
53000 6.2948663470e+00 -7.0339946019e-05 1.6179423373e+00 -2.8023583319e+00 1.6179423373e+00 2.8023583319e+00 
53100 6.2948663472e+00 -7.1451883369e-05 1.6179423373e+00 -2.8023583319e+00 1.6179423373e+00 2.8023583319e+00 
53200 6.2948663472e+00 -7.0387785406e-05 1.6179445454e+00 -2.8023621564e+00 1.6179445454e+00 2.8023621564e+00 
53300 6.2948663473e+00 -7.1489905862e-05 1.6179445454e+00 -2.8023621564e+00 1.6179445454e+00 2.8023621564e+00 
53400 6.2948663473e+00 -7.0414069460e-05 1.6179467547e+00 -2.8023659830e+00 1.6179467547e+00 2.8023659830e+00 
53500 6.2948663475e+00 -7.1504853227e-05 1.6179467547e+00 -2.8023659830e+00 1.6179467547e+00 2.8023659830e+00 
53600 6.2948663475e+00 -7.0416482134e-05 1.6179489644e+00 -2.8023698104e+00 1.6179489644e+00 2.8023698104e+00 
53700 6.2948663476e+00 -7.1494456149e-05 1.6179489644e+00 -2.8023698104e+00 1.6179489644e+00 2.8023698104e+00 
53800 6.2948663476e+00 -7.0392875209e-05 1.6179511738e+00 -2.8023736372e+00 1.6179511738e+00 2.8023736372e+00 
53900 6.2948663477e+00 -7.1456623673e-05 1.6179511738e+00 -2.8023736372e+00 1.6179511738e+00 2.8023736372e+00 
54000 6.2948663477e+00 -7.0341283324e-05 1.6179533821e+00 -2.8023774620e+00 1.6179533821e+00 2.8023774620e+00 
54100 6.2948663478e+00 -7.1389457051e-05 1.6179533821e+00 -2.8023774620e+00 1.6179533821e+00 2.8023774620e+00 
54200 6.2948663478e+00 -7.0259936244e-05 1.6179555882e+00 -2.8023812832e+00 1.6179555882e+00 2.8023812832e+00 
54300 6.2948663479e+00 -7.1291260797e-05 1.6179555882e+00 -2.8023812832e+00 1.6179555882e+00 2.8023812832e+00 
54400 6.2948663478e+00 -7.0147268381e-05 1.6179577914e+00 -2.8023850991e+00 1.6179577914e+00 2.8023850991e+00 
54500 6.2948663480e+00 -7.1160551080e-05 1.6179577914e+00 -2.8023850991e+00 1.6179577914e+00 2.8023850991e+00 
54600 6.2948663479e+00 -7.0001925799e-05 1.6179599904e+00 -2.8023889081e+00 1.6179599904e+00 2.8023889081e+00 
54700 6.2948663480e+00 -7.0996061590e-05 1.6179599904e+00 -2.8023889081e+00 1.6179599904e+00 2.8023889081e+00 
54800 6.2948663479e+00 -6.9822770796e-05 1.6179621844e+00 -2.8023927082e+00 1.6179621844e+00 2.8023927082e+00 
54900 6.2948663480e+00 -7.0796747040e-05 1.6179621844e+00 -2.8023927082e+00 1.6179621844e+00 2.8023927082e+00 
55000 6.2948663479e+00 -6.9608884246e-05 1.6179643723e+00 -2.8023964976e+00 1.6179643723e+00 2.8023964976e+00 
55100 6.2948663480e+00 -7.0561784460e-05 1.6179643723e+00 -2.8023964976e+00 1.6179643723e+00 2.8023964976e+00 
55200 6.2948663481e+00 -7.1508036187e-05 1.6179643723e+00 -2.8023964976e+00 1.6179643723e+00 2.8023964976e+00 
55300 6.2948663480e+00 -7.0270312842e-05 1.6179665821e+00 -2.8024003251e+00 1.6179665821e+00 2.8024003251e+00 
55400 6.2948663481e+00 -7.1194474130e-05 1.6179665821e+00 -2.8024003251e+00 1.6179665821e+00 2.8024003251e+00 
55500 6.2948663480e+00 -6.9943819369e-05 1.6179687822e+00 -2.8024041359e+00 1.6179687822e+00 2.8024041359e+00 
55600 6.2948663481e+00 -7.0845173460e-05 1.6179687822e+00 -2.8024041359e+00 1.6179687822e+00 2.8024041359e+00 
55700 6.2948663479e+00 -6.9582008673e-05 1.6179709715e+00 -2.8024079279e+00 1.6179709715e+00 2.8024079279e+00 
55800 6.2948663480e+00 -7.0459942866e-05 1.6179709715e+00 -2.8024079279e+00 1.6179709715e+00 2.8024079279e+00 
55900 6.2948663481e+00 -7.1330168422e-05 1.6179709715e+00 -2.8024079279e+00 1.6179709715e+00 2.8024079279e+00 
56000 6.2948663479e+00 -7.0020848248e-05 1.6179731759e+00 -2.8024117459e+00 1.6179731759e+00 2.8024117459e+00 
56100 6.2948663480e+00 -7.0867103693e-05 1.6179731759e+00 -2.8024117459e+00 1.6179731759e+00 2.8024117459e+00 
56200 6.2948663479e+00 -6.9547671895e-05 1.6179753659e+00 -2.8024155390e+00 1.6179753659e+00 2.8024155390e+00 
56300 6.2948663479e+00 -7.0369552014e-05 1.6179753659e+00 -2.8024155390e+00 1.6179753659e+00 2.8024155390e+00 
56400 6.2948663480e+00 -7.1183319545e-05 1.6179753659e+00 -2.8024155390e+00 1.6179753659e+00 2.8024155390e+00 
56500 6.2948663478e+00 -6.9821657034e-05 1.6179775656e+00 -2.8024193492e+00 1.6179775656e+00 2.8024193492e+00 
56600 6.2948663479e+00 -7.0610807353e-05 1.6179775656e+00 -2.8024193492e+00 1.6179775656e+00 2.8024193492e+00 
56700 6.2948663479e+00 -7.1391776847e-05 1.6179775656e+00 -2.8024193492e+00 1.6179775656e+00 2.8024193492e+00 
56800 6.2948663477e+00 -6.9990923029e-05 1.6179797718e+00 -2.8024231704e+00 1.6179797718e+00 2.8024231704e+00 
56900 6.2948663478e+00 -7.0747181755e-05 1.6179797718e+00 -2.8024231704e+00 1.6179797718e+00 2.8024231704e+00 
57000 6.2948663476e+00 -6.9341141896e-05 1.6179819581e+00 -2.8024269572e+00 1.6179819581e+00 2.8024269572e+00 
57100 6.2948663476e+00 -7.0072581551e-05 1.6179819581e+00 -2.8024269572e+00 1.6179819581e+00 2.8024269572e+00 
57200 6.2948663477e+00 -7.0795780649e-05 1.6179819581e+00 -2.8024269572e+00 1.6179819581e+00 2.8024269572e+00 
57300 6.2948663475e+00 -6.9355287954e-05 1.6179841459e+00 -2.8024307465e+00 1.6179841459e+00 2.8024307465e+00 
57400 6.2948663475e+00 -7.0053855723e-05 1.6179841459e+00 -2.8024307465e+00 1.6179841459e+00 2.8024307465e+00 
57500 6.2948663475e+00 -7.0744308631e-05 1.6179841459e+00 -2.8024307465e+00 1.6179841459e+00 2.8024307465e+00 
57600 6.2948663473e+00 -6.9272781122e-05 1.6179863321e+00 -2.8024345331e+00 1.6179863321e+00 2.8024345331e+00 
57700 6.2948663474e+00 -6.9938915539e-05 1.6179863321e+00 -2.8024345331e+00 1.6179863321e+00 2.8024345331e+00 
57800 6.2948663474e+00 -7.0597115032e-05 1.6179863321e+00 -2.8024345331e+00 1.6179863321e+00 2.8024345331e+00 
57900 6.2948663474e+00 -7.1247559896e-05 1.6179863321e+00 -2.8024345331e+00 1.6179863321e+00 2.8024345331e+00 
58000 6.2948663472e+00 -6.9721073565e-05 1.6179885338e+00 -2.8024383466e+00 1.6179885338e+00 2.8024383466e+00 
58100 6.2948663472e+00 -7.0347901725e-05 1.6179885338e+00 -2.8024383466e+00 1.6179885338e+00 2.8024383466e+00 
58200 6.2948663472e+00 -7.0967193771e-05 1.6179885338e+00 -2.8024383466e+00 1.6179885338e+00 2.8024383466e+00 
58300 6.2948663470e+00 -6.9418324719e-05 1.6179907269e+00 -2.8024421451e+00 1.6179907269e+00 2.8024421451e+00 
58400 6.2948663470e+00 -7.0014513980e-05 1.6179907269e+00 -2.8024421451e+00 1.6179907269e+00 2.8024421451e+00 
58500 6.2948663470e+00 -7.0603428552e-05 1.6179907269e+00 -2.8024421451e+00 1.6179907269e+00 2.8024421451e+00 
58600 6.2948663470e+00 -7.1185273442e-05 1.6179907269e+00 -2.8024421451e+00 1.6179907269e+00 2.8024421451e+00 
58700 6.2948663468e+00 -6.9592790693e-05 1.6179929267e+00 -2.8024459553e+00 1.6179929267e+00 2.8024459553e+00 
58800 6.2948663468e+00 -7.0152464766e-05 1.6179929267e+00 -2.8024459553e+00 1.6179929267e+00 2.8024459553e+00 
58900 6.2948663467e+00 -7.0705353642e-05 1.6179929267e+00 -2.8024459553e+00 1.6179929267e+00 2.8024459553e+00 
59000 6.2948663467e+00 -7.1251668861e-05 1.6179929267e+00 -2.8024459553e+00 1.6179929267e+00 2.8024459553e+00 
59100 6.2948663465e+00 -6.9622135388e-05 1.6179951285e+00 -2.8024497690e+00 1.6179951285e+00 2.8024497690e+00 
59200 6.2948663465e+00 -7.0147280383e-05 1.6179951285e+00 -2.8024497690e+00 1.6179951285e+00 2.8024497690e+00 
59300 6.2948663465e+00 -7.0666151095e-05 1.6179951285e+00 -2.8024497690e+00 1.6179951285e+00 2.8024497690e+00 
59400 6.2948663465e+00 -7.1178962721e-05 1.6179951285e+00 -2.8024497690e+00 1.6179951285e+00 2.8024497690e+00 
59500 6.2948663463e+00 -6.9518656107e-05 1.6179973281e+00 -2.8024535788e+00 1.6179973281e+00 2.8024535788e+00 
59600 6.2948663462e+00 -7.0011343737e-05 1.6179973281e+00 -2.8024535788e+00 1.6179973281e+00 2.8024535788e+00 
59700 6.2948663462e+00 -7.0498278950e-05 1.6179973281e+00 -2.8024535788e+00 1.6179973281e+00 2.8024535788e+00 
59800 6.2948663462e+00 -7.0979677973e-05 1.6179973281e+00 -2.8024535788e+00 1.6179973281e+00 2.8024535788e+00 
59900 6.2948663460e+00 -6.9294549385e-05 1.6179995216e+00 -2.8024573780e+00 1.6179995216e+00 2.8024573780e+00 
60000 6.2948663459e+00 -6.9756895015e-05 1.6179995216e+00 -2.8024573780e+00 1.6179995216e+00 2.8024573780e+00 
60100 6.2948663459e+00 -7.0214011505e-05 1.6179995216e+00 -2.8024573780e+00 1.6179995216e+00 2.8024573780e+00 
60200 6.2948663459e+00 -7.0666113740e-05 1.6179995216e+00 -2.8024573780e+00 1.6179995216e+00 2.8024573780e+00 
60300 6.2948663458e+00 -7.1113410259e-05 1.6179995216e+00 -2.8024573780e+00 1.6179995216e+00 2.8024573780e+00 
60400 6.2948663456e+00 -6.9390827309e-05 1.6180017192e+00 -2.8024611843e+00 1.6180017192e+00 2.8024611843e+00 
60500 6.2948663456e+00 -6.9820489675e-05 1.6180017192e+00 -2.8024611843e+00 1.6180017192e+00 2.8024611843e+00 
60600 6.2948663455e+00 -7.0245626190e-05 1.6180017192e+00 -2.8024611843e+00 1.6180017192e+00 2.8024611843e+00 
60700 6.2948663455e+00 -7.0666441838e-05 1.6180017192e+00 -2.8024611843e+00 1.6180017192e+00 2.8024611843e+00 
60800 6.2948663455e+00 -7.1083134786e-05 1.6180017192e+00 -2.8024611843e+00 1.6180017192e+00 2.8024611843e+00 
60900 6.2948663452e+00 -6.9331540728e-05 1.6180039158e+00 -2.8024649890e+00 1.6180039158e+00 2.8024649890e+00 
61000 6.2948663452e+00 -6.9731936367e-05 1.6180039158e+00 -2.8024649890e+00 1.6180039158e+00 2.8024649890e+00 
61100 6.2948663452e+00 -7.0128455667e-05 1.6180039158e+00 -2.8024649890e+00 1.6180039158e+00 2.8024649890e+00 
61200 6.2948663451e+00 -7.0521291654e-05 1.6180039158e+00 -2.8024649890e+00 1.6180039158e+00 2.8024649890e+00 
61300 6.2948663451e+00 -7.0910630230e-05 1.6180039158e+00 -2.8024649890e+00 1.6180039158e+00 2.8024649890e+00 
61400 6.2948663449e+00 -6.9137545923e-05 1.6180061071e+00 -2.8024687844e+00 1.6180061071e+00 2.8024687844e+00 
61500 6.2948663448e+00 -6.9511820770e-05 1.6180061071e+00 -2.8024687844e+00 1.6180061071e+00 2.8024687844e+00 
61600 6.2948663448e+00 -6.9882806936e-05 1.6180061071e+00 -2.8024687844e+00 1.6180061071e+00 2.8024687844e+00 
61700 6.2948663447e+00 -7.0250684175e-05 1.6180061071e+00 -2.8024687844e+00 1.6180061071e+00 2.8024687844e+00 
61800 6.2948663447e+00 -7.0615624947e-05 1.6180061071e+00 -2.8024687844e+00 1.6180061071e+00 2.8024687844e+00 
61900 6.2948663446e+00 -7.0977794419e-05 1.6180061071e+00 -2.8024687844e+00 1.6180061071e+00 2.8024687844e+00 
62000 6.2948663444e+00 -6.9176199071e-05 1.6180083005e+00 -2.8024725835e+00 1.6180083005e+00 2.8024725835e+00 
62100 6.2948663443e+00 -6.9524686246e-05 1.6180083005e+00 -2.8024725835e+00 1.6180083005e+00 2.8024725835e+00 
62200 6.2948663443e+00 -6.9870547782e-05 1.6180083005e+00 -2.8024725835e+00 1.6180083005e+00 2.8024725835e+00 
62300 6.2948663442e+00 -7.0213942459e-05 1.6180083005e+00 -2.8024725835e+00 1.6180083005e+00 2.8024725835e+00 
62400 6.2948663442e+00 -7.0555021788e-05 1.6180083005e+00 -2.8024725835e+00 1.6180083005e+00 2.8024725835e+00 
62500 6.2948663442e+00 -7.0893930042e-05 1.6180083005e+00 -2.8024725835e+00 1.6180083005e+00 2.8024725835e+00 
62600 6.2948663439e+00 -6.9072204999e-05 1.6180104912e+00 -2.8024763780e+00 1.6180104912e+00 2.8024763780e+00 
62700 6.2948663439e+00 -6.9398579312e-05 1.6180104912e+00 -2.8024763780e+00 1.6180104912e+00 2.8024763780e+00 
62800 6.2948663438e+00 -6.9722866576e-05 1.6180104912e+00 -2.8024763780e+00 1.6180104912e+00 2.8024763780e+00 
62900 6.2948663438e+00 -7.0045205198e-05 1.6180104912e+00 -2.8024763780e+00 1.6180104912e+00 2.8024763780e+00 
63000 6.2948663437e+00 -7.0365726522e-05 1.6180104912e+00 -2.8024763780e+00 1.6180104912e+00 2.8024763780e+00 
63100 6.2948663437e+00 -7.0684554882e-05 1.6180104912e+00 -2.8024763780e+00 1.6180104912e+00 2.8024763780e+00 
63200 6.2948663436e+00 -7.1001807689e-05 1.6180104912e+00 -2.8024763780e+00 1.6180104912e+00 2.8024763780e+00 
63300 6.2948663434e+00 -6.9155709418e-05 1.6180126853e+00 -2.8024801783e+00 1.6180126853e+00 2.8024801783e+00 
63400 6.2948663433e+00 -6.9461527026e-05 1.6180126853e+00 -2.8024801783e+00 1.6180126853e+00 2.8024801783e+00 
63500 6.2948663433e+00 -6.9765774178e-05 1.6180126853e+00 -2.8024801783e+00 1.6180126853e+00 2.8024801783e+00 
63600 6.2948663432e+00 -7.0068563978e-05 1.6180126853e+00 -2.8024801783e+00 1.6180126853e+00 2.8024801783e+00 
63700 6.2948663431e+00 -7.0370002917e-05 1.6180126853e+00 -2.8024801783e+00 1.6180126853e+00 2.8024801783e+00 
63800 6.2948663431e+00 -7.0670190957e-05 1.6180126853e+00 -2.8024801783e+00 1.6180126853e+00 2.8024801783e+00 
63900 6.2948663430e+00 -7.0969221629e-05 1.6180126853e+00 -2.8024801783e+00 1.6180126853e+00 2.8024801783e+00 
64000 6.2948663428e+00 -6.9106287093e-05 1.6180148784e+00 -2.8024839769e+00 1.6180148784e+00 2.8024839769e+00 
64100 6.2948663427e+00 -6.9394653386e-05 1.6180148784e+00 -2.8024839769e+00 1.6180148784e+00 2.8024839769e+00 
64200 6.2948663427e+00 -6.9681799133e-05 1.6180148784e+00 -2.8024839769e+00 1.6180148784e+00 2.8024839769e+00 
64300 6.2948663426e+00 -6.9967815746e-05 1.6180148784e+00 -2.8024839769e+00 1.6180148784e+00 2.8024839769e+00 
64400 6.2948663426e+00 -7.0252788608e-05 1.6180148784e+00 -2.8024839769e+00 1.6180148784e+00 2.8024839769e+00 
64500 6.2948663425e+00 -7.0536797177e-05 1.6180148784e+00 -2.8024839769e+00 1.6180148784e+00 2.8024839769e+00 
64600 6.2948663425e+00 -7.0819915092e-05 1.6180148784e+00 -2.8024839769e+00 1.6180148784e+00 2.8024839769e+00 
64700 6.2948663422e+00 -6.8945861036e-05 1.6180170669e+00 -2.8024877674e+00 1.6180170669e+00 2.8024877674e+00 
64800 6.2948663422e+00 -6.9218808917e-05 1.6180170669e+00 -2.8024877674e+00 1.6180170669e+00 2.8024877674e+00 
64900 6.2948663421e+00 -6.9490747690e-05 1.6180170669e+00 -2.8024877674e+00 1.6180170669e+00 2.8024877674e+00 
65000 6.2948663421e+00 -6.9761751354e-05 1.6180170669e+00 -2.8024877674e+00 1.6180170669e+00 2.8024877674e+00 
65100 6.2948663420e+00 -7.0031888525e-05 1.6180170669e+00 -2.8024877674e+00 1.6180170669e+00 2.8024877674e+00 
65200 6.2948663420e+00 -7.0301222542e-05 1.6180170669e+00 -2.8024877674e+00 1.6180170669e+00 2.8024877674e+00 
65300 6.2948663419e+00 -7.0569811572e-05 1.6180170669e+00 -2.8024877674e+00 1.6180170669e+00 2.8024877674e+00 
65400 6.2948663418e+00 -7.0837708726e-05 1.6180170669e+00 -2.8024877674e+00 1.6180170669e+00 2.8024877674e+00 
65500 6.2948663416e+00 -6.8948070593e-05 1.6180192560e+00 -2.8024915589e+00 1.6180192560e+00 2.8024915589e+00 
65600 6.2948663415e+00 -6.9206134623e-05 1.6180192560e+00 -2.8024915589e+00 1.6180192560e+00 2.8024915589e+00 
65700 6.2948663415e+00 -6.9463331297e-05 1.6180192560e+00 -2.8024915589e+00 1.6180192560e+00 2.8024915589e+00 
65800 6.2948663414e+00 -6.9719717178e-05 1.6180192560e+00 -2.8024915589e+00 1.6180192560e+00 2.8024915589e+00 
65900 6.2948663414e+00 -6.9975344229e-05 1.6180192560e+00 -2.8024915589e+00 1.6180192560e+00 2.8024915589e+00 
66000 6.2948663413e+00 -7.0230259905e-05 1.6180192560e+00 -2.8024915589e+00 1.6180192560e+00 2.8024915589e+00 
66100 6.2948663413e+00 -7.0484507262e-05 1.6180192560e+00 -2.8024915589e+00 1.6180192560e+00 2.8024915589e+00 
66200 6.2948663412e+00 -7.0738125065e-05 1.6180192560e+00 -2.8024915589e+00 1.6180192560e+00 2.8024915589e+00 
66300 6.2948663410e+00 -6.8837288821e-05 1.6180214419e+00 -2.8024953451e+00 1.6180214419e+00 2.8024953451e+00 
66400 6.2948663409e+00 -6.9081170211e-05 1.6180214419e+00 -2.8024953451e+00 1.6180214419e+00 2.8024953451e+00 
66500 6.2948663409e+00 -6.9324208492e-05 1.6180214419e+00 -2.8024953451e+00 1.6180214419e+00 2.8024953451e+00 
66600 6.2948663408e+00 -6.9566448845e-05 1.6180214419e+00 -2.8024953451e+00 1.6180214419e+00 2.8024953451e+00 
66700 6.2948663408e+00 -6.9807932577e-05 1.6180214419e+00 -2.8024953451e+00 1.6180214419e+00 2.8024953451e+00 
66800 6.2948663407e+00 -7.0048697204e-05 1.6180214419e+00 -2.8024953451e+00 1.6180214419e+00 2.8024953451e+00 
66900 6.2948663407e+00 -7.0288776548e-05 1.6180214419e+00 -2.8024953451e+00 1.6180214419e+00 2.8024953451e+00 
67000 6.2948663406e+00 -7.0528200832e-05 1.6180214419e+00 -2.8024953451e+00 1.6180214419e+00 2.8024953451e+00 
67100 6.2948663406e+00 -7.0766996775e-05 1.6180214419e+00 -2.8024953451e+00 1.6180214419e+00 2.8024953451e+00 
67200 6.2948663403e+00 -6.8850449911e-05 1.6180236287e+00 -2.8024991328e+00 1.6180236287e+00 2.8024991328e+00 
67300 6.2948663403e+00 -6.9079475368e-05 1.6180236287e+00 -2.8024991328e+00 1.6180236287e+00 2.8024991328e+00 
67400 6.2948663402e+00 -6.9307627328e-05 1.6180236287e+00 -2.8024991328e+00 1.6180236287e+00 2.8024991328e+00 
67500 6.2948663402e+00 -6.9534941996e-05 1.6180236287e+00 -2.8024991328e+00 1.6180236287e+00 2.8024991328e+00 
67600 6.2948663401e+00 -6.9761452428e-05 1.6180236287e+00 -2.8024991328e+00 1.6180236287e+00 2.8024991328e+00 
67700 6.2948663401e+00 -6.9987188613e-05 1.6180236287e+00 -2.8024991328e+00 1.6180236287e+00 2.8024991328e+00 
67800 6.2948663400e+00 -7.0212177542e-05 1.6180236287e+00 -2.8024991328e+00 1.6180236287e+00 2.8024991328e+00 
67900 6.2948663400e+00 -7.0436443291e-05 1.6180236287e+00 -2.8024991328e+00 1.6180236287e+00 2.8024991328e+00 
68000 6.2948663399e+00 -7.0660007106e-05 1.6180236287e+00 -2.8024991328e+00 1.6180236287e+00 2.8024991328e+00 
68100 6.2948663399e+00 -7.0882887480e-05 1.6180236287e+00 -2.8024991328e+00 1.6180236287e+00 2.8024991328e+00 
68200 6.2948663396e+00 -6.8946834382e-05 1.6180258192e+00 -2.8025029267e+00 1.6180258192e+00 2.8025029267e+00 
68300 6.2948663396e+00 -6.9159798283e-05 1.6180258192e+00 -2.8025029267e+00 1.6180258192e+00 2.8025029267e+00 
68400 6.2948663395e+00 -6.9371812777e-05 1.6180258192e+00 -2.8025029267e+00 1.6180258192e+00 2.8025029267e+00 
68500 6.2948663395e+00 -6.9582908729e-05 1.6180258192e+00 -2.8025029267e+00 1.6180258192e+00 2.8025029267e+00 
68600 6.2948663394e+00 -6.9793114527e-05 1.6180258192e+00 -2.8025029267e+00 1.6180258192e+00 2.8025029267e+00 
68700 6.2948663394e+00 -7.0002456141e-05 1.6180258192e+00 -2.8025029267e+00 1.6180258192e+00 2.8025029267e+00 
68800 6.2948663393e+00 -7.0210957175e-05 1.6180258192e+00 -2.8025029267e+00 1.6180258192e+00 2.8025029267e+00 
68900 6.2948663393e+00 -7.0418638931e-05 1.6180258192e+00 -2.8025029267e+00 1.6180258192e+00 2.8025029267e+00 
69000 6.2948663392e+00 -7.0625520470e-05 1.6180258192e+00 -2.8025029267e+00 1.6180258192e+00 2.8025029267e+00 
69100 6.2948663392e+00 -7.0831618677e-05 1.6180258192e+00 -2.8025029267e+00 1.6180258192e+00 2.8025029267e+00 
69200 6.2948663390e+00 -6.8880244994e-05 1.6180280080e+00 -2.8025067179e+00 1.6180280080e+00 2.8025067179e+00 
69300 6.2948663389e+00 -6.9076230511e-05 1.6180280080e+00 -2.8025067179e+00 1.6180280080e+00 2.8025067179e+00 
69400 6.2948663389e+00 -6.9271165347e-05 1.6180280080e+00 -2.8025067179e+00 1.6180280080e+00 2.8025067179e+00 
69500 6.2948663388e+00 -6.9465080826e-05 1.6180280080e+00 -2.8025067179e+00 1.6180280080e+00 2.8025067179e+00 
69600 6.2948663388e+00 -6.9658006262e-05 1.6180280080e+00 -2.8025067179e+00 1.6180280080e+00 2.8025067179e+00 
69700 6.2948663387e+00 -6.9849968995e-05 1.6180280080e+00 -2.8025067179e+00 1.6180280080e+00 2.8025067179e+00 
69800 6.2948663387e+00 -7.0040994428e-05 1.6180280080e+00 -2.8025067179e+00 1.6180280080e+00 2.8025067179e+00 
69900 6.2948663386e+00 -7.0231106066e-05 1.6180280080e+00 -2.8025067179e+00 1.6180280080e+00 2.8025067179e+00 
70000 6.2948663386e+00 -7.0420325559e-05 1.6180280080e+00 -2.8025067179e+00 1.6180280080e+00 2.8025067179e+00 
70100 6.2948663386e+00 -7.0608672743e-05 1.6180280080e+00 -2.8025067179e+00 1.6180280080e+00 2.8025067179e+00 
70200 6.2948663385e+00 -7.0796165689e-05 1.6180280080e+00 -2.8025067179e+00 1.6180280080e+00 2.8025067179e+00 
70300 6.2948663383e+00 -6.8827198553e-05 1.6180301957e+00 -2.8025105072e+00 1.6180301957e+00 2.8025105072e+00 
70400 6.2948663382e+00 -6.9004446384e-05 1.6180301957e+00 -2.8025105072e+00 1.6180301957e+00 2.8025105072e+00 
70500 6.2948663382e+00 -6.9180578610e-05 1.6180301957e+00 -2.8025105072e+00 1.6180301957e+00 2.8025105072e+00 
70600 6.2948663382e+00 -6.9355629171e-05 1.6180301957e+00 -2.8025105072e+00 1.6180301957e+00 2.8025105072e+00 
70700 6.2948663381e+00 -6.9529630318e-05 1.6180301957e+00 -2.8025105072e+00 1.6180301957e+00 2.8025105072e+00 
70800 6.2948663381e+00 -6.9702612621e-05 1.6180301957e+00 -2.8025105072e+00 1.6180301957e+00 2.8025105072e+00 
70900 6.2948663380e+00 -6.9874604993e-05 1.6180301957e+00 -2.8025105072e+00 1.6180301957e+00 2.8025105072e+00 
71000 6.2948663380e+00 -7.0045634710e-05 1.6180301957e+00 -2.8025105072e+00 1.6180301957e+00 2.8025105072e+00 
71100 6.2948663380e+00 -7.0215727430e-05 1.6180301957e+00 -2.8025105072e+00 1.6180301957e+00 2.8025105072e+00 
71200 6.2948663379e+00 -7.0384907221e-05 1.6180301957e+00 -2.8025105072e+00 1.6180301957e+00 2.8025105072e+00 
71300 6.2948663379e+00 -7.0553196594e-05 1.6180301957e+00 -2.8025105072e+00 1.6180301957e+00 2.8025105072e+00 
71400 6.2948663378e+00 -7.0720616525e-05 1.6180301957e+00 -2.8025105072e+00 1.6180301957e+00 2.8025105072e+00 
71500 6.2948663376e+00 -6.8733866481e-05 1.6180323811e+00 -2.8025142924e+00 1.6180323811e+00 2.8025142924e+00 
71600 6.2948663376e+00 -6.8891029633e-05 1.6180323811e+00 -2.8025142924e+00 1.6180323811e+00 2.8025142924e+00 
71700 6.2948663375e+00 -6.9047072288e-05 1.6180323811e+00 -2.8025142924e+00 1.6180323811e+00 2.8025142924e+00 
71800 6.2948663375e+00 -6.9202032065e-05 1.6180323811e+00 -2.8025142924e+00 1.6180323811e+00 2.8025142924e+00 
71900 6.2948663375e+00 -6.9355945042e-05 1.6180323811e+00 -2.8025142924e+00 1.6180323811e+00 2.8025142924e+00 
72000 6.2948663374e+00 -6.9508845773e-05 1.6180323811e+00 -2.8025142924e+00 1.6180323811e+00 2.8025142924e+00 
72100 6.2948663374e+00 -6.9660767280e-05 1.6180323811e+00 -2.8025142924e+00 1.6180323811e+00 2.8025142924e+00 
72200 6.2948663374e+00 -6.9811741067e-05 1.6180323811e+00 -2.8025142924e+00 1.6180323811e+00 2.8025142924e+00 
72300 6.2948663373e+00 -6.9961797124e-05 1.6180323811e+00 -2.8025142924e+00 1.6180323811e+00 2.8025142924e+00 
72400 6.2948663373e+00 -7.0110963947e-05 1.6180323811e+00 -2.8025142924e+00 1.6180323811e+00 2.8025142924e+00 
72500 6.2948663372e+00 -7.0259268544e-05 1.6180323811e+00 -2.8025142924e+00 1.6180323811e+00 2.8025142924e+00 
72600 6.2948663372e+00 -7.0406736461e-05 1.6180323811e+00 -2.8025142924e+00 1.6180323811e+00 2.8025142924e+00 
72700 6.2948663372e+00 -7.0553391798e-05 1.6180323811e+00 -2.8025142924e+00 1.6180323811e+00 2.8025142924e+00 
72800 6.2948663371e+00 -7.0699257225e-05 1.6180323811e+00 -2.8025142924e+00 1.6180323811e+00 2.8025142924e+00 
72900 6.2948663371e+00 -7.0844354017e-05 1.6180323811e+00 -2.8025142924e+00 1.6180323811e+00 2.8025142924e+00 
73000 6.2948663369e+00 -6.8831615723e-05 1.6180345703e+00 -2.8025180842e+00 1.6180345703e+00 2.8025180842e+00 
73100 6.2948663369e+00 -6.8966643721e-05 1.6180345703e+00 -2.8025180842e+00 1.6180345703e+00 2.8025180842e+00 
73200 6.2948663368e+00 -6.9100653095e-05 1.6180345703e+00 -2.8025180842e+00 1.6180345703e+00 2.8025180842e+00 
73300 6.2948663368e+00 -6.9233682250e-05 1.6180345703e+00 -2.8025180842e+00 1.6180345703e+00 2.8025180842e+00 
73400 6.2948663368e+00 -6.9365768153e-05 1.6180345703e+00 -2.8025180842e+00 1.6180345703e+00 2.8025180842e+00 
73500 6.2948663367e+00 -6.9496946327e-05 1.6180345703e+00 -2.8025180842e+00 1.6180345703e+00 2.8025180842e+00 
73600 6.2948663367e+00 -6.9627250853e-05 1.6180345703e+00 -2.8025180842e+00 1.6180345703e+00 2.8025180842e+00 
73700 6.2948663367e+00 -6.9756714367e-05 1.6180345703e+00 -2.8025180842e+00 1.6180345703e+00 2.8025180842e+00 
73800 6.2948663366e+00 -6.9885368066e-05 1.6180345703e+00 -2.8025180842e+00 1.6180345703e+00 2.8025180842e+00 
73900 6.2948663366e+00 -7.0013241711e-05 1.6180345703e+00 -2.8025180842e+00 1.6180345703e+00 2.8025180842e+00 
74000 6.2948663366e+00 -7.0140363640e-05 1.6180345703e+00 -2.8025180842e+00 1.6180345703e+00 2.8025180842e+00 
74100 6.2948663365e+00 -7.0266760772e-05 1.6180345703e+00 -2.8025180842e+00 1.6180345703e+00 2.8025180842e+00 
74200 6.2948663365e+00 -7.0392458629e-05 1.6180345703e+00 -2.8025180842e+00 1.6180345703e+00 2.8025180842e+00 
74300 6.2948663365e+00 -7.0517481347e-05 1.6180345703e+00 -2.8025180842e+00 1.6180345703e+00 2.8025180842e+00 
74400 6.2948663365e+00 -7.0641851691e-05 1.6180345703e+00 -2.8025180842e+00 1.6180345703e+00 2.8025180842e+00 
74500 6.2948663364e+00 -7.0765591078e-05 1.6180345703e+00 -2.8025180842e+00 1.6180345703e+00 2.8025180842e+00 
74600 6.2948663362e+00 -6.8734033115e-05 1.6180367571e+00 -2.8025218718e+00 1.6180367571e+00 2.8025218718e+00 
74700 6.2948663362e+00 -6.8847989256e-05 1.6180367571e+00 -2.8025218718e+00 1.6180367571e+00 2.8025218718e+00 
74800 6.2948663361e+00 -6.8961065519e-05 1.6180367571e+00 -2.8025218718e+00 1.6180367571e+00 2.8025218718e+00 
74900 6.2948663361e+00 -6.9073300599e-05 1.6180367571e+00 -2.8025218718e+00 1.6180367571e+00 2.8025218718e+00 
75000 6.2948663361e+00 -6.9184731790e-05 1.6180367571e+00 -2.8025218718e+00 1.6180367571e+00 2.8025218718e+00 
75100 6.2948663361e+00 -6.9295394976e-05 1.6180367571e+00 -2.8025218718e+00 1.6180367571e+00 2.8025218718e+00 
75200 6.2948663360e+00 -6.9405324621e-05 1.6180367571e+00 -2.8025218718e+00 1.6180367571e+00 2.8025218718e+00 
75300 6.2948663360e+00 -6.9514553767e-05 1.6180367571e+00 -2.8025218718e+00 1.6180367571e+00 2.8025218718e+00 
75400 6.2948663360e+00 -6.9623114035e-05 1.6180367571e+00 -2.8025218718e+00 1.6180367571e+00 2.8025218718e+00 
75500 6.2948663360e+00 -6.9731035630e-05 1.6180367571e+00 -2.8025218718e+00 1.6180367571e+00 2.8025218718e+00 
75600 6.2948663359e+00 -6.9838347342e-05 1.6180367571e+00 -2.8025218718e+00 1.6180367571e+00 2.8025218718e+00 
75700 6.2948663359e+00 -6.9945076558e-05 1.6180367571e+00 -2.8025218718e+00 1.6180367571e+00 2.8025218718e+00 
75800 6.2948663359e+00 -7.0051249267e-05 1.6180367571e+00 -2.8025218718e+00 1.6180367571e+00 2.8025218718e+00 
75900 6.2948663359e+00 -7.0156890076e-05 1.6180367571e+00 -2.8025218718e+00 1.6180367571e+00 2.8025218718e+00 
76000 6.2948663358e+00 -7.0262022226e-05 1.6180367571e+00 -2.8025218718e+00 1.6180367571e+00 2.8025218718e+00 
76100 6.2948663358e+00 -7.0366667605e-05 1.6180367571e+00 -2.8025218718e+00 1.6180367571e+00 2.8025218718e+00 
76200 6.2948663358e+00 -7.0470846770e-05 1.6180367571e+00 -2.8025218718e+00 1.6180367571e+00 2.8025218718e+00 
76300 6.2948663358e+00 -7.0574578962e-05 1.6180367571e+00 -2.8025218718e+00 1.6180367571e+00 2.8025218718e+00 
76400 6.2948663357e+00 -7.0677882137e-05 1.6180367571e+00 -2.8025218718e+00 1.6180367571e+00 2.8025218718e+00 
76500 6.2948663357e+00 -7.0780772979e-05 1.6180367571e+00 -2.8025218718e+00 1.6180367571e+00 2.8025218718e+00 
76600 6.2948663355e+00 -6.8728119307e-05 1.6180389443e+00 -2.8025256602e+00 1.6180389443e+00 2.8025256602e+00 
76700 6.2948663355e+00 -6.8821648474e-05 1.6180389443e+00 -2.8025256602e+00 1.6180389443e+00 2.8025256602e+00 
76800 6.2948663355e+00 -6.8914502656e-05 1.6180389443e+00 -2.8025256602e+00 1.6180389443e+00 2.8025256602e+00 
76900 6.2948663354e+00 -6.9006716181e-05 1.6180389443e+00 -2.8025256602e+00 1.6180389443e+00 2.8025256602e+00 
77000 6.2948663354e+00 -6.9098322075e-05 1.6180389443e+00 -2.8025256602e+00 1.6180389443e+00 2.8025256602e+00 
77100 6.2948663354e+00 -6.9189352046e-05 1.6180389443e+00 -2.8025256602e+00 1.6180389443e+00 2.8025256602e+00 
77200 6.2948663354e+00 -6.9279836490e-05 1.6180389443e+00 -2.8025256602e+00 1.6180389443e+00 2.8025256602e+00 
77300 6.2948663354e+00 -6.9369804482e-05 1.6180389443e+00 -2.8025256602e+00 1.6180389443e+00 2.8025256602e+00 
77400 6.2948663353e+00 -6.9459283780e-05 1.6180389443e+00 -2.8025256602e+00 1.6180389443e+00 2.8025256602e+00 
77500 6.2948663353e+00 -6.9548300826e-05 1.6180389443e+00 -2.8025256602e+00 1.6180389443e+00 2.8025256602e+00 
77600 6.2948663353e+00 -6.9636880758e-05 1.6180389443e+00 -2.8025256602e+00 1.6180389443e+00 2.8025256602e+00 
77700 6.2948663353e+00 -6.9725047411e-05 1.6180389443e+00 -2.8025256602e+00 1.6180389443e+00 2.8025256602e+00 
77800 6.2948663353e+00 -6.9812823335e-05 1.6180389443e+00 -2.8025256602e+00 1.6180389443e+00 2.8025256602e+00 
77900 6.2948663352e+00 -6.9900229800e-05 1.6180389443e+00 -2.8025256602e+00 1.6180389443e+00 2.8025256602e+00 
78000 6.2948663352e+00 -6.9987286817e-05 1.6180389443e+00 -2.8025256602e+00 1.6180389443e+00 2.8025256602e+00 
78100 6.2948663352e+00 -7.0074013149e-05 1.6180389443e+00 -2.8025256602e+00 1.6180389443e+00 2.8025256602e+00 
78200 6.2948663352e+00 -7.0160426334e-05 1.6180389443e+00 -2.8025256602e+00 1.6180389443e+00 2.8025256602e+00 
78300 6.2948663352e+00 -7.0246542702e-05 1.6180389443e+00 -2.8025256602e+00 1.6180389443e+00 2.8025256602e+00 
78400 6.2948663351e+00 -7.0332377395e-05 1.6180389443e+00 -2.8025256602e+00 1.6180389443e+00 2.8025256602e+00 
78500 6.2948663351e+00 -7.0417944392e-05 1.6180389443e+00 -2.8025256602e+00 1.6180389443e+00 2.8025256602e+00 
78600 6.2948663351e+00 -7.0503256533e-05 1.6180389443e+00 -2.8025256602e+00 1.6180389443e+00 2.8025256602e+00 
78700 6.2948663351e+00 -7.0588325538e-05 1.6180389443e+00 -2.8025256602e+00 1.6180389443e+00 2.8025256602e+00 
78800 6.2948663351e+00 -7.0673162047e-05 1.6180389443e+00 -2.8025256602e+00 1.6180389443e+00 2.8025256602e+00 
78900 6.2948663351e+00 -7.0757775629e-05 1.6180389443e+00 -2.8025256602e+00 1.6180389443e+00 2.8025256602e+00 
79000 6.2948663348e+00 -6.8687728463e-05 1.6180411309e+00 -2.8025294474e+00 1.6180411309e+00 2.8025294474e+00 
79100 6.2948663348e+00 -6.8763341504e-05 1.6180411309e+00 -2.8025294474e+00 1.6180411309e+00 2.8025294474e+00 
79200 6.2948663348e+00 -6.8838448994e-05 1.6180411309e+00 -2.8025294474e+00 1.6180411309e+00 2.8025294474e+00 
79300 6.2948663348e+00 -6.8913078989e-05 1.6180411309e+00 -2.8025294474e+00 1.6180411309e+00 2.8025294474e+00 
79400 6.2948663348e+00 -6.8987258454e-05 1.6180411309e+00 -2.8025294474e+00 1.6180411309e+00 2.8025294474e+00 
79500 6.2948663348e+00 -6.9061013260e-05 1.6180411309e+00 -2.8025294474e+00 1.6180411309e+00 2.8025294474e+00 
79600 6.2948663348e+00 -6.9134368176e-05 1.6180411309e+00 -2.8025294474e+00 1.6180411309e+00 2.8025294474e+00 
79700 6.2948663347e+00 -6.9207346867e-05 1.6180411309e+00 -2.8025294474e+00 1.6180411309e+00 2.8025294474e+00 
79800 6.2948663347e+00 -6.9279971901e-05 1.6180411309e+00 -2.8025294474e+00 1.6180411309e+00 2.8025294474e+00 
79900 6.2948663347e+00 -6.9352264746e-05 1.6180411309e+00 -2.8025294474e+00 1.6180411309e+00 2.8025294474e+00 
80000 6.2948663347e+00 -6.9424245772e-05 1.6180411309e+00 -2.8025294474e+00 1.6180411309e+00 2.8025294474e+00 
80100 6.2948663347e+00 -6.9495934268e-05 1.6180411309e+00 -2.8025294474e+00 1.6180411309e+00 2.8025294474e+00 
80200 6.2948663347e+00 -6.9567348442e-05 1.6180411309e+00 -2.8025294474e+00 1.6180411309e+00 2.8025294474e+00 
80300 6.2948663347e+00 -6.9585873332e-05 1.6180411309e+00 -2.8025294474e+00 1.6180411309e+00 2.8025294474e+00 
80300 6.2948663347e+00 -6.9585873332e-05 1.6180411309e+00 -2.8025294474e+00 1.6180411309e+00 2.8025294474e+00 
