# step Hamiltonian StressXX CellTensor1 CellTensor2 CellTensor3 CellTensor4 
0 4.6726800906e+00 -5.8756369670e-03 1.6387017056e+00 -2.8383146126e+00 1.6387017056e+00 2.8383146126e+00 
100 4.6646265947e+00 -8.7656283337e-03 1.6387017056e+00 -2.8383146126e+00 1.6387017056e+00 2.8383146126e+00 
200 4.6567067434e+00 -1.1170322645e-02 1.6389691694e+00 -2.8387778734e+00 1.6389691694e+00 2.8387778734e+00 
300 4.6489329991e+00 -1.3302331517e-02 1.6393099540e+00 -2.8393681297e+00 1.6393099540e+00 2.8393681297e+00 
400 4.6413174606e+00 -1.5176877886e-02 1.6397157003e+00 -2.8400709030e+00 1.6397157003e+00 2.8400709030e+00 
500 4.6338726620e+00 -1.6807892100e-02 1.6401785120e+00 -2.8408725163e+00 1.6401785120e+00 2.8408725163e+00 
600 4.6266111003e+00 -1.8208182359e-02 1.6406909187e+00 -2.8417600306e+00 1.6406909187e+00 2.8417600306e+00 
700 4.6195448377e+00 -1.9389592227e-02 1.6412458437e+00 -2.8427211889e+00 1.6412458437e+00 2.8427211889e+00 
800 4.6126851738e+00 -2.0363144554e-02 1.6418365765e+00 -2.8437443681e+00 1.6418365765e+00 2.8437443681e+00 
900 4.6060423835e+00 -2.1139171488e-02 1.6424567486e+00 -2.8448185378e+00 1.6424567486e+00 2.8448185378e+00 
1000 4.5996255148e+00 -2.1727430560e-02 1.6431003135e+00 -2.8459332250e+00 1.6431003135e+00 2.8459332250e+00 
1100 4.5934422415e+00 -2.2137207051e-02 1.6437615296e+00 -2.8470784848e+00 1.6437615296e+00 2.8470784848e+00 
1200 4.5874987661e+00 -2.2377403088e-02 1.6444349460e+00 -2.8482448762e+00 1.6444349460e+00 2.8482448762e+00 
1300 4.5817997648e+00 -2.2456614062e-02 1.6451153908e+00 -2.8494234412e+00 1.6451153908e+00 2.8494234412e+00 
1400 4.5763483722e+00 -2.2383193094e-02 1.6457979620e+00 -2.8506056891e+00 1.6457979620e+00 2.8506056891e+00 
1500 4.5711461978e+00 -2.2165304351e-02 1.6464780191e+00 -2.8517835827e+00 1.6464780191e+00 2.8517835827e+00 
1600 4.5661933704e+00 -2.1810966102e-02 1.6471511776e+00 -2.8529495274e+00 1.6471511776e+00 2.8529495274e+00 
1700 4.5614886057e+00 -2.1328084381e-02 1.6478133035e+00 -2.8540963630e+00 1.6478133035e+00 2.8540963630e+00 
1800 4.5570292912e+00 -2.0724478195e-02 1.6484605091e+00 -2.8552173560e+00 1.6484605091e+00 2.8552173560e+00 
1900 4.5528115868e+00 -2.0007897139e-02 1.6490891500e+00 -2.8563061940e+00 1.6490891500e+00 2.8563061940e+00 
2000 4.5488305341e+00 -1.9186032305e-02 1.6496958220e+00 -2.8573569807e+00 1.6496958220e+00 2.8573569807e+00 
2100 4.5450801746e+00 -1.8266521297e-02 1.6502773582e+00 -2.8583642310e+00 1.6502773582e+00 2.8583642310e+00 
2200 4.5415536705e+00 -1.7256948165e-02 1.6508308271e+00 -2.8593228672e+00 1.6508308271e+00 2.8593228672e+00 
2300 4.5382434279e+00 -1.6164838963e-02 1.6513535293e+00 -2.8602282140e+00 1.6513535293e+00 2.8602282140e+00 
2400 4.5351412192e+00 -1.4997653657e-02 1.6518429956e+00 -2.8610759944e+00 1.6518429956e+00 2.8610759944e+00 
2500 4.5322383027e+00 -1.3762775000e-02 1.6522969836e+00 -2.8618623249e+00 1.6522969836e+00 2.8618623249e+00 
2600 4.5295255383e+00 -1.2467494980e-02 1.6527134751e+00 -2.8625837093e+00 1.6527134751e+00 2.8625837093e+00 
2700 4.5269934974e+00 -1.1118999385e-02 1.6530906721e+00 -2.8632370335e+00 1.6530906721e+00 2.8632370335e+00 
2800 4.5246325667e+00 -9.7243509841e-03 1.6534269929e+00 -2.8638195583e+00 1.6534269929e+00 2.8638195583e+00 
2900 4.5224330443e+00 -8.2904717966e-03 1.6537210681e+00 -2.8643289116e+00 1.6537210681e+00 2.8643289116e+00 
3000 4.5203852281e+00 -6.8241248541e-03 1.6539717356e+00 -2.8647630804e+00 1.6539717356e+00 2.8647630804e+00 
3100 4.5184794963e+00 -5.3318958547e-03 1.6541780350e+00 -2.8651204014e+00 1.6541780350e+00 2.8651204014e+00 
3200 4.5167063790e+00 -3.8201750496e-03 1.6543392021e+00 -2.8653995510e+00 1.6543392021e+00 2.8653995510e+00 
3300 4.5150566213e+00 -2.2951396777e-03 1.6544546627e+00 -2.8655995346e+00 1.6544546627e+00 2.8655995346e+00 
3400 4.5135212383e+00 -7.6273723030e-04 1.6545240256e+00 -2.8657196747e+00 1.6545240256e+00 2.8657196747e+00 
3500 4.5120915613e+00 7.7133020581e-04 1.6545470757e+00 -2.8657595986e+00 1.6545470757e+00 2.8657595986e+00 
3600 4.5107592771e+00 2.3016203097e-03 1.6545237664e+00 -2.8657192257e+00 1.6545237664e+00 2.8657192257e+00 
3700 4.5095164580e+00 3.8229634070e-03 1.6544542115e+00 -2.8655987531e+00 1.6544542115e+00 2.8655987531e+00 
3800 4.5083555862e+00 5.3304737153e-03 1.6543386773e+00 -2.8653986421e+00 1.6543386773e+00 2.8653986421e+00 
3900 4.5072695706e+00 6.8195588318e-03 1.6541775741e+00 -2.8651196030e+00 1.6541775741e+00 2.8651196030e+00 
4000 4.5062517576e+00 8.2859273713e-03 1.6539714469e+00 -2.8647625804e+00 1.6539714469e+00 2.8647625804e+00 
4100 4.5052959362e+00 9.7255946931e-03 1.6537209675e+00 -2.8643287372e+00 1.6537209675e+00 2.8643287372e+00 
4200 4.5043963381e+00 1.1134886686e-02 1.6534269243e+00 -2.8638194395e+00 1.6534269243e+00 2.8638194395e+00 
4300 4.5035476330e+00 1.2510441606e-02 1.6530902143e+00 -2.8632362406e+00 1.6530902143e+00 2.8632362406e+00 
4400 4.5027449203e+00 1.3849210000e-02 1.6527118331e+00 -2.8625808652e+00 1.6527118331e+00 2.8625808652e+00 
4500 4.5019837169e+00 1.5148452754e-02 1.6522928664e+00 -2.8618551936e+00 1.6522928664e+00 2.8618551936e+00 
4600 4.5012599423e+00 1.6405737350e-02 1.6518344806e+00 -2.8610612461e+00 1.6518344806e+00 2.8610612461e+00 
4700 4.5005699018e+00 1.7618932426e-02 1.6513379140e+00 -2.8602011676e+00 1.6513379140e+00 2.8602011676e+00 
4800 4.4999102667e+00 1.8786200753e-02 1.6508044683e+00 -2.8592772125e+00 1.6508044683e+00 2.8592772125e+00 
4900 4.4992780541e+00 1.9905990762e-02 1.6502354996e+00 -2.8582917298e+00 1.6502354996e+00 2.8582917298e+00 
5000 4.4986706053e+00 2.0977026752e-02 1.6496324106e+00 -2.8572471490e+00 1.6496324106e+00 2.8572471490e+00 
5100 4.4980855636e+00 2.1998297958e-02 1.6489966423e+00 -2.8561459660e+00 1.6489966423e+00 2.8561459660e+00 
5200 4.4975208516e+00 2.2969046613e-02 1.6483296666e+00 -2.8549907302e+00 1.6483296666e+00 2.8549907302e+00 
5300 4.4969746489e+00 2.3888755175e-02 1.6476329787e+00 -2.8537840313e+00 1.6476329787e+00 2.8537840313e+00 
5400 4.4964453698e+00 2.4757132886e-02 1.6469080902e+00 -2.8525284877e+00 1.6469080902e+00 2.8525284877e+00 
5500 4.4959316418e+00 2.5574101825e-02 1.6461565228e+00 -2.8512267347e+00 1.6461565228e+00 2.8512267347e+00 
5600 4.4954322846e+00 2.6339782595e-02 1.6453798017e+00 -2.8498814144e+00 1.6453798017e+00 2.8498814144e+00 
5700 4.4949462902e+00 2.7054479807e-02 1.6445794502e+00 -2.8484951648e+00 1.6445794502e+00 2.8484951648e+00 
5800 4.4944728035e+00 2.7718667502e-02 1.6437569839e+00 -2.8470706114e+00 1.6437569839e+00 2.8470706114e+00 
5900 4.4940111049e+00 2.8332974621e-02 1.6429139062e+00 -2.8456103580e+00 1.6429139062e+00 2.8456103580e+00 
6000 4.4935605930e+00 2.8898170663e-02 1.6420517035e+00 -2.8441169792e+00 1.6420517035e+00 2.8441169792e+00 
6100 4.4931207696e+00 2.9415151620e-02 1.6411718412e+00 -2.8425930129e+00 1.6411718412e+00 2.8425930129e+00 
6200 4.4926912248e+00 2.9884926286e-02 1.6402757598e+00 -2.8410409543e+00 1.6402757598e+00 2.8410409543e+00 
6300 4.4922716244e+00 3.0308603020e-02 1.6393648715e+00 -2.8394632496e+00 1.6393648715e+00 2.8394632496e+00 
6400 4.4918616976e+00 3.0687377030e-02 1.6384405577e+00 -2.8378622910e+00 1.6384405577e+00 2.8378622910e+00 
6500 4.4914612264e+00 3.1022518229e-02 1.6375041657e+00 -2.8362404125e+00 1.6375041657e+00 2.8362404125e+00 
6600 4.4910700361e+00 3.1315359710e-02 1.6365570070e+00 -2.8345998856e+00 1.6365570070e+00 2.8345998856e+00 
6700 4.4906879867e+00 3.1567286861e-02 1.6356003551e+00 -2.8329429159e+00 1.6356003551e+00 2.8329429159e+00 
6800 4.4903149651e+00 3.1779727157e-02 1.6346354439e+00 -2.8312716408e+00 1.6346354439e+00 2.8312716408e+00 
6900 4.4899508791e+00 3.1954140629e-02 1.6336634665e+00 -2.8295881265e+00 1.6336634665e+00 2.8295881265e+00 
7000 4.4895956510e+00 3.2092011010e-02 1.6326855738e+00 -2.8278943667e+00 1.6326855738e+00 2.8278943667e+00 
7100 4.4892492133e+00 3.2194837575e-02 1.6317028742e+00 -2.8261922810e+00 1.6317028742e+00 2.8261922810e+00 
7200 4.4889115045e+00 3.2264127637e-02 1.6307164326e+00 -2.8244837141e+00 1.6307164326e+00 2.8244837141e+00 
7300 4.4885824651e+00 3.2301389701e-02 1.6297272704e+00 -2.8227704348e+00 1.6297272704e+00 2.8227704348e+00 
7400 4.4882620355e+00 3.2308127259e-02 1.6287363649e+00 -2.8210541361e+00 1.6287363649e+00 2.8210541361e+00 
7500 4.4879501531e+00 3.2285833183e-02 1.6277446499e+00 -2.8193364353e+00 1.6277446499e+00 2.8193364353e+00 
7600 4.4876467509e+00 3.2235984713e-02 1.6267530154e+00 -2.8176188741e+00 1.6267530154e+00 2.8176188741e+00 
7700 4.4873517558e+00 3.2160038992e-02 1.6257623085e+00 -2.8159029193e+00 1.6257623085e+00 2.8159029193e+00 
7800 4.4870650878e+00 3.2059429132e-02 1.6247733332e+00 -2.8141899638e+00 1.6247733332e+00 2.8141899638e+00 
7900 4.4867866591e+00 3.1935560769e-02 1.6237868515e+00 -2.8124813274e+00 1.6237868515e+00 2.8124813274e+00 
8000 4.4865163742e+00 3.1789809084e-02 1.6228035840e+00 -2.8107782582e+00 1.6228035840e+00 2.8107782582e+00 
8100 4.4862541289e+00 3.1623516254e-02 1.6218242107e+00 -2.8090819339e+00 1.6218242107e+00 2.8090819339e+00 
8200 4.4859998112e+00 3.1437989300e-02 1.6208493719e+00 -2.8073934635e+00 1.6208493719e+00 2.8073934635e+00 
8300 4.4857533008e+00 3.1234498304e-02 1.6198796688e+00 -2.8057138885e+00 1.6198796688e+00 2.8057138885e+00 
8400 4.4855144699e+00 3.1014274974e-02 1.6189156651e+00 -2.8040441852e+00 1.6189156651e+00 2.8040441852e+00 
8500 4.4852831834e+00 3.0778511506e-02 1.6179578878e+00 -2.8023852662e+00 1.6179578878e+00 2.8023852662e+00 
8600 4.4850592995e+00 3.0528359737e-02 1.6170068280e+00 -2.8007379823e+00 1.6170068280e+00 2.8007379823e+00 
8700 4.4848426704e+00 3.0264930557e-02 1.6160629424e+00 -2.7991031245e+00 1.6160629424e+00 2.7991031245e+00 
8800 4.4846331427e+00 2.9989293545e-02 1.6151266545e+00 -2.7974814262e+00 1.6151266545e+00 2.7974814262e+00 
8900 4.4844305582e+00 2.9702476821e-02 1.6141983552e+00 -2.7958735646e+00 1.6141983552e+00 2.7958735646e+00 
9000 4.4842347545e+00 2.9405467083e-02 1.6132784046e+00 -2.7942801635e+00 1.6132784046e+00 2.7942801635e+00 
9100 4.4840455659e+00 2.9099209806e-02 1.6123671330e+00 -2.7927017948e+00 1.6123671330e+00 2.7927017948e+00 
9200 4.4838628238e+00 2.8784609594e-02 1.6114648417e+00 -2.7911389805e+00 1.6114648417e+00 2.7911389805e+00 
9300 4.4836863575e+00 2.8462530658e-02 1.6105718049e+00 -2.7895921954e+00 1.6105718049e+00 2.7895921954e+00 
9400 4.4835159947e+00 2.8133797408e-02 1.6096882701e+00 -2.7880618681e+00 1.6096882701e+00 2.7880618681e+00 
9500 4.4833515623e+00 2.7799195144e-02 1.6088144596e+00 -2.7865483839e+00 1.6088144596e+00 2.7865483839e+00 
9600 4.4831928868e+00 2.7459470830e-02 1.6079505717e+00 -2.7850520862e+00 1.6079505717e+00 2.7850520862e+00 
9700 4.4830397950e+00 2.7115333936e-02 1.6070967818e+00 -2.7835732787e+00 1.6070967818e+00 2.7835732787e+00 
9800 4.4828921144e+00 2.6767457349e-02 1.6062532433e+00 -2.7821122272e+00 1.6062532433e+00 2.7821122272e+00 
9900 4.4827496737e+00 2.6416478327e-02 1.6054200888e+00 -2.7806691613e+00 1.6054200888e+00 2.7806691613e+00 
10000 4.4826123032e+00 2.6062999488e-02 1.6045974312e+00 -2.7792442765e+00 1.6045974312e+00 2.7792442765e+00 
10100 4.4824798353e+00 2.5707589846e-02 1.6037853646e+00 -2.7778377359e+00 1.6037853646e+00 2.7778377359e+00 
10200 4.4823521046e+00 2.5350785852e-02 1.6029839653e+00 -2.7764496717e+00 1.6029839653e+00 2.7764496717e+00 
10300 4.4822289487e+00 2.4993092467e-02 1.6021932930e+00 -2.7750801871e+00 1.6021932930e+00 2.7750801871e+00 
10400 4.4821102078e+00 2.4634984232e-02 1.6014133914e+00 -2.7737293578e+00 1.6014133914e+00 2.7737293578e+00 
10500 4.4819957256e+00 2.4276906359e-02 1.6006442892e+00 -2.7723972337e+00 1.6006442892e+00 2.7723972337e+00 
10600 4.4818853491e+00 2.3919275804e-02 1.5998860011e+00 -2.7710838403e+00 1.5998860011e+00 2.7710838403e+00 
10700 4.4817789290e+00 2.3562482347e-02 1.5991385288e+00 -2.7697891801e+00 1.5991385288e+00 2.7697891801e+00 
10800 4.4816763196e+00 2.3206889663e-02 1.5984018611e+00 -2.7685132343e+00 1.5984018611e+00 2.7685132343e+00 
10900 4.4815773793e+00 2.2852836379e-02 1.5976759757e+00 -2.7672559639e+00 1.5976759757e+00 2.7672559639e+00 
11000 4.4814819703e+00 2.2500637112e-02 1.5969608391e+00 -2.7660173110e+00 1.5969608391e+00 2.7660173110e+00 
11100 4.4813899589e+00 2.2150583503e-02 1.5962564079e+00 -2.7647972003e+00 1.5962564079e+00 2.7647972003e+00 
11200 4.4813012156e+00 2.1802945216e-02 1.5955626290e+00 -2.7635955401e+00 1.5955626290e+00 2.7635955401e+00 
11300 4.4812156148e+00 2.1457970929e-02 1.5948794409e+00 -2.7624122236e+00 1.5948794409e+00 2.7624122236e+00 
11400 4.4811330352e+00 2.1115889295e-02 1.5942067737e+00 -2.7612471298e+00 1.5942067737e+00 2.7612471298e+00 
11500 4.4810533597e+00 2.0776909885e-02 1.5935445501e+00 -2.7601001249e+00 1.5935445501e+00 2.7601001249e+00 
11600 4.4809764750e+00 2.0441224096e-02 1.5928926859e+00 -2.7589710630e+00 1.5928926859e+00 2.7589710630e+00 
11700 4.4809022721e+00 2.0109006050e-02 1.5922510906e+00 -2.7578597873e+00 1.5922510906e+00 2.7578597873e+00 
11800 4.4808306459e+00 1.9780413450e-02 1.5916196677e+00 -2.7567661307e+00 1.5916196677e+00 2.7567661307e+00 
11900 4.4807614953e+00 1.9455588419e-02 1.5909983155e+00 -2.7556899172e+00 1.5909983155e+00 2.7556899172e+00 
12000 4.4806947230e+00 1.9134658314e-02 1.5903869276e+00 -2.7546309623e+00 1.5903869276e+00 2.7546309623e+00 
12100 4.4806302355e+00 1.8817736504e-02 1.5897853931e+00 -2.7535890741e+00 1.5897853931e+00 2.7535890741e+00 
12200 4.4805679432e+00 1.8504923128e-02 1.5891935973e+00 -2.7525640536e+00 1.5891935973e+00 2.7525640536e+00 
12300 4.4805077597e+00 1.8196305827e-02 1.5886114217e+00 -2.7515556959e+00 1.5886114217e+00 2.7515556959e+00 
12400 4.4804496024e+00 1.7891960445e-02 1.5880387451e+00 -2.7505637910e+00 1.5880387451e+00 2.7505637910e+00 
12500 4.4803933922e+00 1.7591951704e-02 1.5874754433e+00 -2.7495881236e+00 1.5874754433e+00 2.7495881236e+00 
12600 4.4803390530e+00 1.7296333857e-02 1.5869213898e+00 -2.7486284747e+00 1.5869213898e+00 2.7486284747e+00 
12700 4.4802865121e+00 1.7005151314e-02 1.5863764559e+00 -2.7476846216e+00 1.5863764559e+00 2.7476846216e+00 
12800 4.4802356998e+00 1.6718439235e-02 1.5858405115e+00 -2.7467563385e+00 1.5858405115e+00 2.7467563385e+00 
12900 4.4801865494e+00 1.6436224115e-02 1.5853134246e+00 -2.7458433974e+00 1.5853134246e+00 2.7458433974e+00 
13000 4.4801389972e+00 1.6158524325e-02 1.5847950625e+00 -2.7449455679e+00 1.5847950625e+00 2.7449455679e+00 
13100 4.4800929820e+00 1.5885350646e-02 1.5842852913e+00 -2.7440626183e+00 1.5842852913e+00 2.7440626183e+00 
13200 4.4800484455e+00 1.5616706768e-02 1.5837839765e+00 -2.7431943156e+00 1.5837839765e+00 2.7431943156e+00 
13300 4.4800053319e+00 1.5352589777e-02 1.5832909833e+00 -2.7423404262e+00 1.5832909833e+00 2.7423404262e+00 
13400 4.4799635877e+00 1.5092990609e-02 1.5828061765e+00 -2.7415007162e+00 1.5828061765e+00 2.7415007162e+00 
13500 4.4799231618e+00 1.4837894494e-02 1.5823294209e+00 -2.7406749513e+00 1.5823294209e+00 2.7406749513e+00 
13600 4.4798840054e+00 1.4587281370e-02 1.5818605817e+00 -2.7398628980e+00 1.5818605817e+00 2.7398628980e+00 
13700 4.4798460719e+00 1.4341126282e-02 1.5813995242e+00 -2.7390643230e+00 1.5813995242e+00 2.7390643230e+00 
13800 4.4798093166e+00 1.4099399763e-02 1.5809461144e+00 -2.7382789942e+00 1.5809461144e+00 2.7382789942e+00 
13900 4.4797736968e+00 1.3862068192e-02 1.5805002189e+00 -2.7375066805e+00 1.5805002189e+00 2.7375066805e+00 
14000 4.4797391717e+00 1.3629094136e-02 1.5800617050e+00 -2.7367471521e+00 1.5800617050e+00 2.7367471521e+00 
14100 4.4797057023e+00 1.3400436675e-02 1.5796304410e+00 -2.7360001810e+00 1.5796304410e+00 2.7360001810e+00 
14200 4.4796732511e+00 1.3176051712e-02 1.5792062963e+00 -2.7352655408e+00 1.5792062963e+00 2.7352655408e+00 
14300 4.4796417826e+00 1.2955892262e-02 1.5787891415e+00 -2.7345430074e+00 1.5787891415e+00 2.7345430074e+00 
14400 4.4796112623e+00 1.2739908729e-02 1.5783788482e+00 -2.7338323587e+00 1.5783788482e+00 2.7338323587e+00 
14500 4.4795816578e+00 1.2528049169e-02 1.5779752896e+00 -2.7331333747e+00 1.5779752896e+00 2.7331333747e+00 
14600 4.4795529374e+00 1.2320259534e-02 1.5775783403e+00 -2.7324458384e+00 1.5775783403e+00 2.7324458384e+00 
14700 4.4795250714e+00 1.2116483909e-02 1.5771878763e+00 -2.7317695349e+00 1.5771878763e+00 2.7317695349e+00 
14800 4.4794980308e+00 1.1916664728e-02 1.5768037752e+00 -2.7311042523e+00 1.5768037752e+00 2.7311042523e+00 
14900 4.4794717881e+00 1.1720742983e-02 1.5764259163e+00 -2.7304497814e+00 1.5764259163e+00 2.7304497814e+00 
15000 4.4794463168e+00 1.1528658418e-02 1.5760541804e+00 -2.7298059159e+00 1.5760541804e+00 2.7298059159e+00 
15100 4.4794215917e+00 1.1340349715e-02 1.5756884502e+00 -2.7291724526e+00 1.5756884502e+00 2.7291724526e+00 
15200 4.4793975884e+00 1.1155754664e-02 1.5753286101e+00 -2.7285491912e+00 1.5753286101e+00 2.7285491912e+00 
15300 4.4793742834e+00 1.0974810322e-02 1.5749745463e+00 -2.7279359347e+00 1.5749745463e+00 2.7279359347e+00 
15400 4.4793516544e+00 1.0797453171e-02 1.5746261468e+00 -2.7273324892e+00 1.5746261468e+00 2.7273324892e+00 
15500 4.4793296799e+00 1.0623619251e-02 1.5742833016e+00 -2.7267386638e+00 1.5742833016e+00 2.7267386638e+00 
15600 4.4793083391e+00 1.0453244300e-02 1.5739459023e+00 -2.7261542712e+00 1.5739459023e+00 2.7261542712e+00 
15700 4.4792876121e+00 1.0286263874e-02 1.5736138427e+00 -2.7255791271e+00 1.5736138427e+00 2.7255791271e+00 
15800 4.4792674797e+00 1.0122613459e-02 1.5732870184e+00 -2.7250130507e+00 1.5732870184e+00 2.7250130507e+00 
15900 4.4792479235e+00 9.9622285833e-03 1.5729653266e+00 -2.7244558643e+00 1.5729653266e+00 2.7244558643e+00 
16000 4.4792289258e+00 9.8050449133e-03 1.5726486669e+00 -2.7239073936e+00 1.5726486669e+00 2.7239073936e+00 
16100 4.4792104694e+00 9.6509983457e-03 1.5723369406e+00 -2.7233674677e+00 1.5723369406e+00 2.7233674677e+00 
16200 4.4791925379e+00 9.5000250929e-03 1.5720300507e+00 -2.7228359189e+00 1.5720300507e+00 2.7228359189e+00 
16300 4.4791751153e+00 9.3520617611e-03 1.5717279026e+00 -2.7223125829e+00 1.5717279026e+00 2.7223125829e+00 
16400 4.4791581864e+00 9.2070454224e-03 1.5714304030e+00 -2.7217972986e+00 1.5714304030e+00 2.7217972986e+00 
16500 4.4791417364e+00 9.0649136807e-03 1.5711374610e+00 -2.7212899081e+00 1.5711374610e+00 2.7212899081e+00 
16600 4.4791257510e+00 8.9256047325e-03 1.5708489873e+00 -2.7207902571e+00 1.5708489873e+00 2.7207902571e+00 
16700 4.4791102164e+00 8.7890574218e-03 1.5705648946e+00 -2.7202981940e+00 1.5705648946e+00 2.7202981940e+00 
16800 4.4790951192e+00 8.6552112900e-03 1.5702850973e+00 -2.7198135709e+00 1.5702850973e+00 2.7198135709e+00 
16900 4.4790804468e+00 8.5240066219e-03 1.5700095117e+00 -2.7193362427e+00 1.5700095117e+00 2.7193362427e+00 
17000 4.4790661865e+00 8.3953844858e-03 1.5697380560e+00 -2.7188660676e+00 1.5697380560e+00 2.7188660676e+00 
17100 4.4790523263e+00 8.2692867704e-03 1.5694706501e+00 -2.7184029069e+00 1.5694706501e+00 2.7184029069e+00 
17200 4.4790388547e+00 8.1456562172e-03 1.5692072155e+00 -2.7179466249e+00 1.5692072155e+00 2.7179466249e+00 
17300 4.4790257604e+00 8.0244364495e-03 1.5689476758e+00 -2.7174970889e+00 1.5689476758e+00 2.7174970889e+00 
17400 4.4790130325e+00 7.9055719973e-03 1.5686919561e+00 -2.7170541693e+00 1.5686919561e+00 2.7170541693e+00 
17500 4.4790006603e+00 7.7890083193e-03 1.5684399831e+00 -2.7166177393e+00 1.5684399831e+00 2.7166177393e+00 
17600 4.4789886338e+00 7.6746918216e-03 1.5681916853e+00 -2.7161876749e+00 1.5681916853e+00 2.7161876749e+00 
17700 4.4789769429e+00 7.5625698734e-03 1.5679469929e+00 -2.7157638553e+00 1.5679469929e+00 2.7157638553e+00 
17800 4.4789655781e+00 7.4525908200e-03 1.5677058375e+00 -2.7153461619e+00 1.5677058375e+00 2.7153461619e+00 
17900 4.4789545302e+00 7.3447039932e-03 1.5674681526e+00 -2.7149344795e+00 1.5674681526e+00 2.7149344795e+00 
18000 4.4789437900e+00 7.2388597191e-03 1.5672338728e+00 -2.7145286951e+00 1.5672338728e+00 2.7145286951e+00 
18100 4.4789333488e+00 7.1350093243e-03 1.5670029347e+00 -2.7141286984e+00 1.5670029347e+00 2.7141286984e+00 
18200 4.4789231981e+00 7.0331051387e-03 1.5667752760e+00 -2.7137343820e+00 1.5667752760e+00 2.7137343820e+00 
18300 4.4789133297e+00 6.9331004981e-03 1.5665508361e+00 -2.7133456408e+00 1.5665508361e+00 2.7133456408e+00 
18400 4.4789037357e+00 6.8349497429e-03 1.5663295558e+00 -2.7129623720e+00 1.5663295558e+00 2.7129623720e+00 
18500 4.4788944082e+00 6.7386082173e-03 1.5661113772e+00 -2.7125844756e+00 1.5661113772e+00 2.7125844756e+00 
18600 4.4788853398e+00 6.6440322651e-03 1.5658962439e+00 -2.7122118538e+00 1.5658962439e+00 2.7122118538e+00 
18700 4.4788765232e+00 6.5511792252e-03 1.5656841008e+00 -2.7118444112e+00 1.5656841008e+00 2.7118444112e+00 
18800 4.4788679512e+00 6.4600074250e-03 1.5654748941e+00 -2.7114820545e+00 1.5654748941e+00 2.7114820545e+00 
18900 4.4788596170e+00 6.3704761734e-03 1.5652685712e+00 -2.7111246928e+00 1.5652685712e+00 2.7111246928e+00 
19000 4.4788515138e+00 6.2825457519e-03 1.5650650809e+00 -2.7107722373e+00 1.5650650809e+00 2.7107722373e+00 
19100 4.4788436353e+00 6.1961774051e-03 1.5648643732e+00 -2.7104246014e+00 1.5648643732e+00 2.7104246014e+00 
19200 4.4788359751e+00 6.1113333301e-03 1.5646663993e+00 -2.7100817005e+00 1.5646663993e+00 2.7100817005e+00 
19300 4.4788285270e+00 6.0279766652e-03 1.5644711115e+00 -2.7097434521e+00 1.5644711115e+00 2.7097434521e+00 
19400 4.4788212852e+00 5.9460714777e-03 1.5642784632e+00 -2.7094097755e+00 1.5642784632e+00 2.7094097755e+00 
19500 4.4788142439e+00 5.8655827510e-03 1.5640884091e+00 -2.7090805921e+00 1.5640884091e+00 2.7090805921e+00 
19600 4.4788073973e+00 5.7864763711e-03 1.5639009048e+00 -2.7087558252e+00 1.5639009048e+00 2.7087558252e+00 
19700 4.4788007402e+00 5.7087191126e-03 1.5637159071e+00 -2.7084353997e+00 1.5637159071e+00 2.7084353997e+00 
19800 4.4787942672e+00 5.6322786243e-03 1.5635333737e+00 -2.7081192426e+00 1.5635333737e+00 2.7081192426e+00 
19900 4.4787879731e+00 5.5571234141e-03 1.5633532634e+00 -2.7078072823e+00 1.5633532634e+00 2.7078072823e+00 
20000 4.4787818529e+00 5.4832228340e-03 1.5631755358e+00 -2.7074994492e+00 1.5631755358e+00 2.7074994492e+00 
20100 4.4787759018e+00 5.4105470639e-03 1.5630001518e+00 -2.7071956752e+00 1.5630001518e+00 2.7071956752e+00 
20200 4.4787701150e+00 5.3390670963e-03 1.5628270729e+00 -2.7068958937e+00 1.5628270729e+00 2.7068958937e+00 
20300 4.4787644880e+00 5.2687547200e-03 1.5626562616e+00 -2.7066000399e+00 1.5626562616e+00 2.7066000399e+00 
20400 4.4787590163e+00 5.1995825036e-03 1.5624876814e+00 -2.7063080503e+00 1.5624876814e+00 2.7063080503e+00 
20500 4.4787536956e+00 5.1315237795e-03 1.5623212964e+00 -2.7060198630e+00 1.5623212964e+00 2.7060198630e+00 
20600 4.4787485216e+00 5.0645526271e-03 1.5621570717e+00 -2.7057354176e+00 1.5621570717e+00 2.7057354176e+00 
20700 4.4787434903e+00 4.9986438563e-03 1.5619949732e+00 -2.7054546548e+00 1.5619949732e+00 2.7054546548e+00 
20800 4.4787385976e+00 4.9337729911e-03 1.5618349676e+00 -2.7051775170e+00 1.5618349676e+00 2.7051775170e+00 
20900 4.4787338397e+00 4.8699162527e-03 1.5616770224e+00 -2.7049039477e+00 1.5616770224e+00 2.7049039477e+00 
21000 4.4787292129e+00 4.8070505432e-03 1.5615211055e+00 -2.7046338918e+00 1.5615211055e+00 2.7046338918e+00 
21100 4.4787247135e+00 4.7451534292e-03 1.5613671860e+00 -2.7043672954e+00 1.5613671860e+00 2.7043672954e+00 
21200 4.4787203379e+00 4.6842031252e-03 1.5612152334e+00 -2.7041041057e+00 1.5612152334e+00 2.7041041057e+00 
21300 4.4787160827e+00 4.6241784772e-03 1.5610652179e+00 -2.7038442714e+00 1.5610652179e+00 2.7038442714e+00 
21400 4.4787119446e+00 4.5650589470e-03 1.5609171105e+00 -2.7035877419e+00 1.5609171105e+00 2.7035877419e+00 
21500 4.4787079203e+00 4.5068245958e-03 1.5607708828e+00 -2.7033344680e+00 1.5607708828e+00 2.7033344680e+00 
21600 4.4787040065e+00 4.4494560685e-03 1.5606265069e+00 -2.7030844015e+00 1.5606265069e+00 2.7030844015e+00 
21700 4.4787002003e+00 4.3929345779e-03 1.5604839555e+00 -2.7028374954e+00 1.5604839555e+00 2.7028374954e+00 
21800 4.4786964987e+00 4.3372418897e-03 1.5603432021e+00 -2.7025937033e+00 1.5603432021e+00 2.7025937033e+00 
21900 4.4786928987e+00 4.2823603064e-03 1.5602042206e+00 -2.7023529803e+00 1.5602042206e+00 2.7023529803e+00 
22000 4.4786893975e+00 4.2282726533e-03 1.5600669854e+00 -2.7021152820e+00 1.5600669854e+00 2.7021152820e+00 
22100 4.4786859923e+00 4.1749622627e-03 1.5599314717e+00 -2.7018805652e+00 1.5599314717e+00 2.7018805652e+00 
22200 4.4786826806e+00 4.1224129600e-03 1.5597976548e+00 -2.7016487876e+00 1.5597976548e+00 2.7016487876e+00 
22300 4.4786794597e+00 4.0706090493e-03 1.5596655109e+00 -2.7014199077e+00 1.5596655109e+00 2.7014199077e+00 
22400 4.4786763271e+00 4.0195352988e-03 1.5595350165e+00 -2.7011938848e+00 1.5595350165e+00 2.7011938848e+00 
22500 4.4786732803e+00 3.9691769279e-03 1.5594061486e+00 -2.7009706790e+00 1.5594061486e+00 2.7009706790e+00 
22600 4.4786703169e+00 3.9195195928e-03 1.5592788847e+00 -2.7007502514e+00 1.5592788847e+00 2.7007502514e+00 
22700 4.4786674348e+00 3.8705493736e-03 1.5591532026e+00 -2.7005325638e+00 1.5591532026e+00 2.7005325638e+00 
22800 4.4786646315e+00 3.8222527615e-03 1.5590290808e+00 -2.7003175785e+00 1.5590290808e+00 2.7003175785e+00 
22900 4.4786619049e+00 3.7746166458e-03 1.5589064981e+00 -2.7001052589e+00 1.5589064981e+00 2.7001052589e+00 
23000 4.4786592529e+00 3.7276283014e-03 1.5587854335e+00 -2.6998955689e+00 1.5587854335e+00 2.6998955689e+00 
23100 4.4786566735e+00 3.6812753770e-03 1.5586658666e+00 -2.6996884730e+00 1.5586658666e+00 2.6996884730e+00 
23200 4.4786541646e+00 3.6355458828e-03 1.5585477775e+00 -2.6994839367e+00 1.5585477775e+00 2.6994839367e+00 
23300 4.4786517242e+00 3.5904281792e-03 1.5584311465e+00 -2.6992819258e+00 1.5584311465e+00 2.6992819258e+00 
23400 4.4786493505e+00 3.5459109653e-03 1.5583159543e+00 -2.6990824070e+00 1.5583159543e+00 2.6990824070e+00 
23500 4.4786470417e+00 3.5019832682e-03 1.5582021818e+00 -2.6988853474e+00 1.5582021818e+00 2.6988853474e+00 
23600 4.4786447959e+00 3.4586344318e-03 1.5580898106e+00 -2.6986907147e+00 1.5580898106e+00 2.6986907147e+00 
23700 4.4786426114e+00 3.4158541064e-03 1.5579788224e+00 -2.6984984775e+00 1.5579788224e+00 2.6984984775e+00 
23800 4.4786404865e+00 3.3736322388e-03 1.5578691991e+00 -2.6983086044e+00 1.5578691991e+00 2.6983086044e+00 
23900 4.4786384197e+00 3.3319590622e-03 1.5577609232e+00 -2.6981210651e+00 1.5577609232e+00 2.6981210651e+00 
24000 4.4786364091e+00 3.2908250865e-03 1.5576539774e+00 -2.6979358295e+00 1.5576539774e+00 2.6979358295e+00 
24100 4.4786344535e+00 3.2502210888e-03 1.5575483446e+00 -2.6977528680e+00 1.5575483446e+00 2.6977528680e+00 
24200 4.4786325511e+00 3.2101381045e-03 1.5574440080e+00 -2.6975721518e+00 1.5574440080e+00 2.6975721518e+00 
24300 4.4786307006e+00 3.1705674184e-03 1.5573409512e+00 -2.6973936523e+00 1.5573409512e+00 2.6973936523e+00 
24400 4.4786289006e+00 3.1315005561e-03 1.5572391581e+00 -2.6972173414e+00 1.5572391581e+00 2.6972173414e+00 
24500 4.4786271495e+00 3.0929292753e-03 1.5571386126e+00 -2.6970431915e+00 1.5571386126e+00 2.6970431915e+00 
24600 4.4786254462e+00 3.0548455583e-03 1.5570392992e+00 -2.6968711755e+00 1.5570392992e+00 2.6968711755e+00 
24700 4.4786237893e+00 3.0172416037e-03 1.5569412023e+00 -2.6967012668e+00 1.5569412023e+00 2.6967012668e+00 
24800 4.4786221775e+00 2.9801098188e-03 1.5568443069e+00 -2.6965334389e+00 1.5568443069e+00 2.6965334389e+00 
24900 4.4786206095e+00 2.9434428126e-03 1.5567485979e+00 -2.6963676661e+00 1.5567485979e+00 2.6963676661e+00 
25000 4.4786190843e+00 2.9072333882e-03 1.5566540607e+00 -2.6962039229e+00 1.5566540607e+00 2.6962039229e+00 
25100 4.4786176006e+00 2.8714745360e-03 1.5565606808e+00 -2.6960421842e+00 1.5565606808e+00 2.6960421842e+00 
25200 4.4786161572e+00 2.8361594273e-03 1.5564684439e+00 -2.6958824252e+00 1.5564684439e+00 2.6958824252e+00 
25300 4.4786147531e+00 2.8012814076e-03 1.5563773360e+00 -2.6957246217e+00 1.5563773360e+00 2.6957246217e+00 
25400 4.4786133872e+00 2.7668339901e-03 1.5562873432e+00 -2.6955687496e+00 1.5562873432e+00 2.6955687496e+00 
25500 4.4786120585e+00 2.7328108501e-03 1.5561984519e+00 -2.6954147854e+00 1.5561984519e+00 2.6954147854e+00 
25600 4.4786107659e+00 2.6992058189e-03 1.5561106487e+00 -2.6952627057e+00 1.5561106487e+00 2.6952627057e+00 
25700 4.4786095085e+00 2.6660128783e-03 1.5560239202e+00 -2.6951124877e+00 1.5560239202e+00 2.6951124877e+00 
25800 4.4786082852e+00 2.6332261549e-03 1.5559382536e+00 -2.6949641086e+00 1.5559382536e+00 2.6949641086e+00 
25900 4.4786070953e+00 2.6008399151e-03 1.5558536357e+00 -2.6948175462e+00 1.5558536357e+00 2.6948175462e+00 
26000 4.4786059377e+00 2.5688485598e-03 1.5557700541e+00 -2.6946727785e+00 1.5557700541e+00 2.6946727785e+00 
26100 4.4786048115e+00 2.5372466198e-03 1.5556874961e+00 -2.6945297839e+00 1.5556874961e+00 2.6945297839e+00 
26200 4.4786037160e+00 2.5060287508e-03 1.5556059493e+00 -2.6943885408e+00 1.5556059493e+00 2.6943885408e+00 
26300 4.4786026503e+00 2.4751897289e-03 1.5555254017e+00 -2.6942490282e+00 1.5555254017e+00 2.6942490282e+00 
26400 4.4786016135e+00 2.4447244463e-03 1.5554458412e+00 -2.6941112253e+00 1.5554458412e+00 2.6941112253e+00 
26500 4.4786006050e+00 2.4146279072e-03 1.5553672559e+00 -2.6939751116e+00 1.5553672559e+00 2.6939751116e+00 
26600 4.4785996238e+00 2.3848952234e-03 1.5552896341e+00 -2.6938406667e+00 1.5552896341e+00 2.6938406667e+00 
26700 4.4785986694e+00 2.3555216107e-03 1.5552129642e+00 -2.6937078707e+00 1.5552129642e+00 2.6937078707e+00 
26800 4.4785977409e+00 2.3265023849e-03 1.5551372350e+00 -2.6935767037e+00 1.5551372350e+00 2.6935767037e+00 
26900 4.4785968376e+00 2.2978329584e-03 1.5550624350e+00 -2.6934471464e+00 1.5550624350e+00 2.6934471464e+00 
27000 4.4785959589e+00 2.2695088366e-03 1.5549885533e+00 -2.6933191795e+00 1.5549885533e+00 2.6933191795e+00 
27100 4.4785951041e+00 2.2415256145e-03 1.5549155788e+00 -2.6931927839e+00 1.5549155788e+00 2.6931927839e+00 
27200 4.4785942726e+00 2.2138789737e-03 1.5548435006e+00 -2.6930679409e+00 1.5548435006e+00 2.6930679409e+00 
27300 4.4785934636e+00 2.1865646791e-03 1.5547723082e+00 -2.6929446320e+00 1.5547723082e+00 2.6929446320e+00 
27400 4.4785926767e+00 2.1595785759e-03 1.5547019909e+00 -2.6928228388e+00 1.5547019909e+00 2.6928228388e+00 
27500 4.4785919112e+00 2.1329165872e-03 1.5546325383e+00 -2.6927025434e+00 1.5546325383e+00 2.6927025434e+00 
27600 4.4785911665e+00 2.1065747105e-03 1.5545639400e+00 -2.6925837277e+00 1.5545639400e+00 2.6925837277e+00 
27700 4.4785904421e+00 2.0805490158e-03 1.5544961860e+00 -2.6924663743e+00 1.5544961860e+00 2.6924663743e+00 
27800 4.4785897374e+00 2.0548356428e-03 1.5544292661e+00 -2.6923504657e+00 1.5544292661e+00 2.6923504657e+00 
27900 4.4785890519e+00 2.0294307985e-03 1.5543631704e+00 -2.6922359846e+00 1.5543631704e+00 2.6922359846e+00 
28000 4.4785883851e+00 2.0043307547e-03 1.5542978891e+00 -2.6921229141e+00 1.5542978891e+00 2.6921229141e+00 
28100 4.4785877364e+00 1.9795318463e-03 1.5542334125e+00 -2.6920112373e+00 1.5542334125e+00 2.6920112373e+00 
28200 4.4785871053e+00 1.9550304687e-03 1.5541697310e+00 -2.6919009377e+00 1.5541697310e+00 2.6919009377e+00 
28300 4.4785864915e+00 1.9308230758e-03 1.5541068352e+00 -2.6917919989e+00 1.5541068352e+00 2.6917919989e+00 
28400 4.4785858944e+00 1.9069061785e-03 1.5540447156e+00 -2.6916844046e+00 1.5540447156e+00 2.6916844046e+00 
28500 4.4785853136e+00 1.8832763423e-03 1.5539833630e+00 -2.6915781388e+00 1.5539833630e+00 2.6915781388e+00 
28600 4.4785847486e+00 1.8599301860e-03 1.5539227682e+00 -2.6914731856e+00 1.5539227682e+00 2.6914731856e+00 
28700 4.4785841991e+00 1.8368643795e-03 1.5538629223e+00 -2.6913695295e+00 1.5538629223e+00 2.6913695295e+00 
28800 4.4785836645e+00 1.8140756426e-03 1.5538038163e+00 -2.6912671548e+00 1.5538038163e+00 2.6912671548e+00 
28900 4.4785831445e+00 1.7915607433e-03 1.5537454414e+00 -2.6911660465e+00 1.5537454414e+00 2.6911660465e+00 
29000 4.4785826387e+00 1.7693164962e-03 1.5536877888e+00 -2.6910661892e+00 1.5536877888e+00 2.6910661892e+00 
29100 4.4785821467e+00 1.7473397614e-03 1.5536308498e+00 -2.6909675681e+00 1.5536308498e+00 2.6909675681e+00 
29200 4.4785816681e+00 1.7256274427e-03 1.5535746161e+00 -2.6908701685e+00 1.5535746161e+00 2.6908701685e+00 
29300 4.4785812026e+00 1.7041764866e-03 1.5535190791e+00 -2.6907739756e+00 1.5535190791e+00 2.6907739756e+00 
29400 4.4785807499e+00 1.6829838811e-03 1.5534642305e+00 -2.6906789750e+00 1.5534642305e+00 2.6906789750e+00 
29500 4.4785803095e+00 1.6620466544e-03 1.5534100621e+00 -2.6905851526e+00 1.5534100621e+00 2.6905851526e+00 
29600 4.4785798812e+00 1.6413618737e-03 1.5533565657e+00 -2.6904924941e+00 1.5533565657e+00 2.6904924941e+00 
29700 4.4785794646e+00 1.6209266442e-03 1.5533037333e+00 -2.6904009856e+00 1.5533037333e+00 2.6904009856e+00 
29800 4.4785790593e+00 1.6007381084e-03 1.5532515568e+00 -2.6903106133e+00 1.5532515568e+00 2.6903106133e+00 
29900 4.4785786652e+00 1.5807934445e-03 1.5532000285e+00 -2.6902213636e+00 1.5532000285e+00 2.6902213636e+00 
30000 4.4785782819e+00 1.5610898660e-03 1.5531491405e+00 -2.6901332230e+00 1.5531491405e+00 2.6901332230e+00 
30100 4.4785779091e+00 1.5416246204e-03 1.5530988851e+00 -2.6900461782e+00 1.5530988851e+00 2.6900461782e+00 
30200 4.4785775465e+00 1.5223949888e-03 1.5530492548e+00 -2.6899602159e+00 1.5530492548e+00 2.6899602159e+00 
30300 4.4785771939e+00 1.5033982848e-03 1.5530002419e+00 -2.6898753232e+00 1.5530002419e+00 2.6898753232e+00 
30400 4.4785768509e+00 1.4846318536e-03 1.5529518392e+00 -2.6897914872e+00 1.5529518392e+00 2.6897914872e+00 
30500 4.4785765174e+00 1.4660930717e-03 1.5529040391e+00 -2.6897086950e+00 1.5529040391e+00 2.6897086950e+00 
30600 4.4785761930e+00 1.4477793458e-03 1.5528568345e+00 -2.6896269342e+00 1.5528568345e+00 2.6896269342e+00 
30700 4.4785758775e+00 1.4296881124e-03 1.5528102180e+00 -2.6895461922e+00 1.5528102180e+00 2.6895461922e+00 
30800 4.4785755707e+00 1.4118168370e-03 1.5527641828e+00 -2.6894664567e+00 1.5527641828e+00 2.6894664567e+00 
30900 4.4785752723e+00 1.3941630135e-03 1.5527187216e+00 -2.6893877156e+00 1.5527187216e+00 2.6893877156e+00 
31000 4.4785749822e+00 1.3767241639e-03 1.5526738275e+00 -2.6893099569e+00 1.5526738275e+00 2.6893099569e+00 
31100 4.4785747000e+00 1.3594978373e-03 1.5526294938e+00 -2.6892331686e+00 1.5526294938e+00 2.6892331686e+00 
31200 4.4785744257e+00 1.3424816097e-03 1.5525857135e+00 -2.6891573389e+00 1.5525857135e+00 2.6891573389e+00 
31300 4.4785741589e+00 1.3256730834e-03 1.5525424800e+00 -2.6890824562e+00 1.5525424800e+00 2.6890824562e+00 
31400 4.4785738994e+00 1.3090698866e-03 1.5524997865e+00 -2.6890085090e+00 1.5524997865e+00 2.6890085090e+00 
31500 4.4785736471e+00 1.2926696728e-03 1.5524576267e+00 -2.6889354860e+00 1.5524576267e+00 2.6889354860e+00 
31600 4.4785734018e+00 1.2764701206e-03 1.5524159938e+00 -2.6888633758e+00 1.5524159938e+00 2.6888633758e+00 
31700 4.4785731633e+00 1.2604689329e-03 1.5523748816e+00 -2.6887921674e+00 1.5523748816e+00 2.6887921674e+00 
31800 4.4785729313e+00 1.2446638371e-03 1.5523342837e+00 -2.6887218498e+00 1.5523342837e+00 2.6887218498e+00 
31900 4.4785727058e+00 1.2290525840e-03 1.5522941938e+00 -2.6886524120e+00 1.5522941938e+00 2.6886524120e+00 
32000 4.4785724865e+00 1.2136329482e-03 1.5522546057e+00 -2.6885838434e+00 1.5522546057e+00 2.6885838434e+00 
32100 4.4785722733e+00 1.1984027270e-03 1.5522155133e+00 -2.6885161334e+00 1.5522155133e+00 2.6885161334e+00 
32200 4.4785720660e+00 1.1833597408e-03 1.5521769105e+00 -2.6884492713e+00 1.5521769105e+00 2.6884492713e+00 
32300 4.4785718645e+00 1.1685018323e-03 1.5521387913e+00 -2.6883832469e+00 1.5521387913e+00 2.6883832469e+00 
32400 4.4785716686e+00 1.1538268664e-03 1.5521011498e+00 -2.6883180499e+00 1.5521011498e+00 2.6883180499e+00 
32500 4.4785714781e+00 1.1393327297e-03 1.5520639801e+00 -2.6882536701e+00 1.5520639801e+00 2.6882536701e+00 
32600 4.4785712929e+00 1.1250173306e-03 1.5520272764e+00 -2.6881900975e+00 1.5520272764e+00 2.6881900975e+00 
32700 4.4785711128e+00 1.1108785986e-03 1.5519910331e+00 -2.6881273222e+00 1.5519910331e+00 2.6881273222e+00 
32800 4.4785709378e+00 1.0969144846e-03 1.5519552444e+00 -2.6880653344e+00 1.5519552444e+00 2.6880653344e+00 
32900 4.4785707677e+00 1.0831229601e-03 1.5519199048e+00 -2.6880041244e+00 1.5519199048e+00 2.6880041244e+00 
33000 4.4785706023e+00 1.0695020173e-03 1.5518850087e+00 -2.6879436826e+00 1.5518850087e+00 2.6879436826e+00 
33100 4.4785704415e+00 1.0560496687e-03 1.5518505507e+00 -2.6878839995e+00 1.5518505507e+00 2.6878839995e+00 
33200 4.4785702852e+00 1.0427639470e-03 1.5518165253e+00 -2.6878250659e+00 1.5518165253e+00 2.6878250659e+00 
33300 4.4785701333e+00 1.0296429049e-03 1.5517829273e+00 -2.6877668723e+00 1.5517829273e+00 2.6877668723e+00 
33400 4.4785699856e+00 1.0166846148e-03 1.5517497512e+00 -2.6877094098e+00 1.5517497512e+00 2.6877094098e+00 
33500 4.4785698421e+00 1.0038871688e-03 1.5517169921e+00 -2.6876526692e+00 1.5517169921e+00 2.6876526692e+00 
33600 4.4785697026e+00 9.9124867830e-04 1.5516846446e+00 -2.6875966417e+00 1.5516846446e+00 2.6875966417e+00 
33700 4.4785695670e+00 9.7876727387e-04 1.5516527036e+00 -2.6875413184e+00 1.5516527036e+00 2.6875413184e+00 
33800 4.4785694353e+00 9.6644110515e-04 1.5516211642e+00 -2.6874866905e+00 1.5516211642e+00 2.6874866905e+00 
33900 4.4785693072e+00 9.5426834066e-04 1.5515900214e+00 -2.6874327495e+00 1.5515900214e+00 2.6874327495e+00 
34000 4.4785691827e+00 9.4224716758e-04 1.5515592702e+00 -2.6873794869e+00 1.5515592702e+00 2.6873794869e+00 
34100 4.4785690618e+00 9.3037579166e-04 1.5515289057e+00 -2.6873268942e+00 1.5515289057e+00 2.6873268942e+00 
34200 4.4785689442e+00 9.1865243701e-04 1.5514989233e+00 -2.6872749630e+00 1.5514989233e+00 2.6872749630e+00 
34300 4.4785688300e+00 9.0707534597e-04 1.5514693181e+00 -2.6872236853e+00 1.5514693181e+00 2.6872236853e+00 
34400 4.4785687190e+00 8.9564277897e-04 1.5514400854e+00 -2.6871730528e+00 1.5514400854e+00 2.6871730528e+00 
34500 4.4785686111e+00 8.8435301438e-04 1.5514112206e+00 -2.6871230575e+00 1.5514112206e+00 2.6871230575e+00 
34600 4.4785685063e+00 8.7320434833e-04 1.5513827191e+00 -2.6870736915e+00 1.5513827191e+00 2.6870736915e+00 
34700 4.4785684045e+00 8.6219509465e-04 1.5513545764e+00 -2.6870249469e+00 1.5513545764e+00 2.6870249469e+00 
34800 4.4785683056e+00 8.5132358464e-04 1.5513267880e+00 -2.6869768160e+00 1.5513267880e+00 2.6869768160e+00 
34900 4.4785682094e+00 8.4058816702e-04 1.5512993495e+00 -2.6869292912e+00 1.5512993495e+00 2.6869292912e+00 
35000 4.4785681160e+00 8.2998720772e-04 1.5512722566e+00 -2.6868823648e+00 1.5512722566e+00 2.6868823648e+00 
35100 4.4785680253e+00 8.1951908982e-04 1.5512455048e+00 -2.6868360294e+00 1.5512455048e+00 2.6868360294e+00 
35200 4.4785679371e+00 8.0918221338e-04 1.5512190900e+00 -2.6867902776e+00 1.5512190900e+00 2.6867902776e+00 
35300 4.4785678515e+00 7.9897499530e-04 1.5511930080e+00 -2.6867451022e+00 1.5511930080e+00 2.6867451022e+00 
35400 4.4785677683e+00 7.8889586924e-04 1.5511672545e+00 -2.6867004958e+00 1.5511672545e+00 2.6867004958e+00 
35500 4.4785676875e+00 7.7894328546e-04 1.5511418255e+00 -2.6866564514e+00 1.5511418255e+00 2.6866564514e+00 
35600 4.4785676090e+00 7.6911571071e-04 1.5511167168e+00 -2.6866129620e+00 1.5511167168e+00 2.6866129620e+00 
35700 4.4785675328e+00 7.5941162809e-04 1.5510919246e+00 -2.6865700205e+00 1.5510919246e+00 2.6865700205e+00 
35800 4.4785674587e+00 7.4982953697e-04 1.5510674447e+00 -2.6865276202e+00 1.5510674447e+00 2.6865276202e+00 
35900 4.4785673868e+00 7.4036795282e-04 1.5510432734e+00 -2.6864857542e+00 1.5510432734e+00 2.6864857542e+00 
36000 4.4785673170e+00 7.3102540711e-04 1.5510194067e+00 -2.6864444159e+00 1.5510194067e+00 2.6864444159e+00 
36100 4.4785672491e+00 7.2180044720e-04 1.5509958408e+00 -2.6864035985e+00 1.5509958408e+00 2.6864035985e+00 
36200 4.4785671833e+00 7.1269163622e-04 1.5509725719e+00 -2.6863632956e+00 1.5509725719e+00 2.6863632956e+00 
36300 4.4785671193e+00 7.0369755293e-04 1.5509495963e+00 -2.6863235008e+00 1.5509495963e+00 2.6863235008e+00 
36400 4.4785670572e+00 6.9481679163e-04 1.5509269103e+00 -2.6862842075e+00 1.5509269103e+00 2.6862842075e+00 
36500 4.4785669969e+00 6.8604796202e-04 1.5509045103e+00 -2.6862454096e+00 1.5509045103e+00 2.6862454096e+00 
36600 4.4785669383e+00 6.7738968909e-04 1.5508823927e+00 -2.6862071008e+00 1.5508823927e+00 2.6862071008e+00 
36700 4.4785668814e+00 6.6884061302e-04 1.5508605539e+00 -2.6861692749e+00 1.5508605539e+00 2.6861692749e+00 
36800 4.4785668262e+00 6.6039938903e-04 1.5508389904e+00 -2.6861319258e+00 1.5508389904e+00 2.6861319258e+00 
36900 4.4785667727e+00 6.5206468729e-04 1.5508176988e+00 -2.6860950476e+00 1.5508176988e+00 2.6860950476e+00 
37000 4.4785667206e+00 6.4383519280e-04 1.5507966756e+00 -2.6860586344e+00 1.5507966756e+00 2.6860586344e+00 
37100 4.4785666701e+00 6.3570960526e-04 1.5507759174e+00 -2.6860226802e+00 1.5507759174e+00 2.6860226802e+00 
37200 4.4785666211e+00 6.2768663897e-04 1.5507554210e+00 -2.6859871793e+00 1.5507554210e+00 2.6859871793e+00 
37300 4.4785665735e+00 6.1976502270e-04 1.5507351829e+00 -2.6859521259e+00 1.5507351829e+00 2.6859521259e+00 
37400 4.4785665273e+00 6.1194349958e-04 1.5507152000e+00 -2.6859175145e+00 1.5507152000e+00 2.6859175145e+00 
37500 4.4785664825e+00 6.0422082698e-04 1.5506954691e+00 -2.6858833395e+00 1.5506954691e+00 2.6858833395e+00 
37600 4.4785664390e+00 5.9659577640e-04 1.5506759869e+00 -2.6858495953e+00 1.5506759869e+00 2.6858495953e+00 
37700 4.4785663968e+00 5.8906713336e-04 1.5506567503e+00 -2.6858162766e+00 1.5506567503e+00 2.6858162766e+00 
37800 4.4785663559e+00 5.8163369726e-04 1.5506377562e+00 -2.6857833778e+00 1.5506377562e+00 2.6857833778e+00 
37900 4.4785663161e+00 5.7429428130e-04 1.5506190016e+00 -2.6857508939e+00 1.5506190016e+00 2.6857508939e+00 
38000 4.4785662775e+00 5.6704771232e-04 1.5506004834e+00 -2.6857188194e+00 1.5506004834e+00 2.6857188194e+00 
38100 4.4785662401e+00 5.5989283071e-04 1.5505821986e+00 -2.6856871493e+00 1.5505821986e+00 2.6856871493e+00 
38200 4.4785662038e+00 5.5282849030e-04 1.5505641444e+00 -2.6856558785e+00 1.5505641444e+00 2.6856558785e+00 
38300 4.4785661686e+00 5.4585355823e-04 1.5505463177e+00 -2.6856250018e+00 1.5505463177e+00 2.6856250018e+00 
38400 4.4785661345e+00 5.3896691483e-04 1.5505287158e+00 -2.6855945143e+00 1.5505287158e+00 2.6855945143e+00 
38500 4.4785661013e+00 5.3216745354e-04 1.5505113357e+00 -2.6855644112e+00 1.5505113357e+00 2.6855644112e+00 
38600 4.4785660692e+00 5.2545408072e-04 1.5504941747e+00 -2.6855346875e+00 1.5504941747e+00 2.6855346875e+00 
38700 4.4785660380e+00 5.1882571562e-04 1.5504772300e+00 -2.6855053384e+00 1.5504772300e+00 2.6855053384e+00 
38800 4.4785660078e+00 5.1228129020e-04 1.5504604989e+00 -2.6854763592e+00 1.5504604989e+00 2.6854763592e+00 
38900 4.4785659785e+00 5.0581974906e-04 1.5504439786e+00 -2.6854477453e+00 1.5504439786e+00 2.6854477453e+00 
39000 4.4785659501e+00 4.9944004928e-04 1.5504276666e+00 -2.6854194919e+00 1.5504276666e+00 2.6854194919e+00 
39100 4.4785659225e+00 4.9314116034e-04 1.5504115601e+00 -2.6853915947e+00 1.5504115601e+00 2.6853915947e+00 
39200 4.4785658958e+00 4.8692206398e-04 1.5503956565e+00 -2.6853640490e+00 1.5503956565e+00 2.6853640490e+00 
39300 4.4785658699e+00 4.8078175411e-04 1.5503799534e+00 -2.6853368503e+00 1.5503799534e+00 2.6853368503e+00 
39400 4.4785658448e+00 4.7471923668e-04 1.5503644481e+00 -2.6853099944e+00 1.5503644481e+00 2.6853099944e+00 
39500 4.4785658205e+00 4.6873352955e-04 1.5503491382e+00 -2.6852834769e+00 1.5503491382e+00 2.6852834769e+00 
39600 4.4785657969e+00 4.6282366240e-04 1.5503340212e+00 -2.6852572935e+00 1.5503340212e+00 2.6852572935e+00 
39700 4.4785657741e+00 4.5698867662e-04 1.5503190947e+00 -2.6852314399e+00 1.5503190947e+00 2.6852314399e+00 
39800 4.4785657519e+00 4.5122762517e-04 1.5503043562e+00 -2.6852059121e+00 1.5503043562e+00 2.6852059121e+00 
39900 4.4785657305e+00 4.4553957246e-04 1.5502898033e+00 -2.6851807058e+00 1.5502898033e+00 2.6851807058e+00 
40000 4.4785657097e+00 4.3992359429e-04 1.5502754338e+00 -2.6851558170e+00 1.5502754338e+00 2.6851558170e+00 
40100 4.4785656895e+00 4.3437877768e-04 1.5502612452e+00 -2.6851312418e+00 1.5502612452e+00 2.6851312418e+00 
40200 4.4785656700e+00 4.2890422078e-04 1.5502472354e+00 -2.6851069760e+00 1.5502472354e+00 2.6851069760e+00 
40300 4.4785656511e+00 4.2349903276e-04 1.5502334020e+00 -2.6850830159e+00 1.5502334020e+00 2.6850830159e+00 
40400 4.4785656328e+00 4.1816233369e-04 1.5502197428e+00 -2.6850593575e+00 1.5502197428e+00 2.6850593575e+00 
40500 4.4785656151e+00 4.1289325442e-04 1.5502062557e+00 -2.6850359970e+00 1.5502062557e+00 2.6850359970e+00 
40600 4.4785655979e+00 4.0769093649e-04 1.5501929383e+00 -2.6850129307e+00 1.5501929383e+00 2.6850129307e+00 
40700 4.4785655813e+00 4.0255453202e-04 1.5501797886e+00 -2.6849901548e+00 1.5501797886e+00 2.6849901548e+00 
40800 4.4785655652e+00 3.9748320357e-04 1.5501668045e+00 -2.6849676657e+00 1.5501668045e+00 2.6849676657e+00 
40900 4.4785655496e+00 3.9247612404e-04 1.5501539839e+00 -2.6849454597e+00 1.5501539839e+00 2.6849454597e+00 
41000 4.4785655345e+00 3.8753247658e-04 1.5501413247e+00 -2.6849235332e+00 1.5501413247e+00 2.6849235332e+00 
41100 4.4785655199e+00 3.8265145447e-04 1.5501288248e+00 -2.6849018828e+00 1.5501288248e+00 2.6849018828e+00 
41200 4.4785655058e+00 3.7783226101e-04 1.5501164822e+00 -2.6848805048e+00 1.5501164822e+00 2.6848805048e+00 
41300 4.4785654921e+00 3.7307410938e-04 1.5501042950e+00 -2.6848593960e+00 1.5501042950e+00 2.6848593960e+00 
41400 4.4785654789e+00 3.6837622261e-04 1.5500922612e+00 -2.6848385528e+00 1.5500922612e+00 2.6848385528e+00 
41500 4.4785654661e+00 3.6373783340e-04 1.5500803788e+00 -2.6848179719e+00 1.5500803788e+00 2.6848179719e+00 
41600 4.4785654537e+00 3.5915818402e-04 1.5500686459e+00 -2.6847976500e+00 1.5500686459e+00 2.6847976500e+00 
41700 4.4785654418e+00 3.5463652626e-04 1.5500570607e+00 -2.6847775838e+00 1.5500570607e+00 2.6847775838e+00 
41800 4.4785654302e+00 3.5017212127e-04 1.5500456213e+00 -2.6847577701e+00 1.5500456213e+00 2.6847577701e+00 
41900 4.4785654190e+00 3.4576423947e-04 1.5500343257e+00 -2.6847382057e+00 1.5500343257e+00 2.6847382057e+00 
42000 4.4785654082e+00 3.4141216045e-04 1.5500231723e+00 -2.6847188874e+00 1.5500231723e+00 2.6847188874e+00 
42100 4.4785653977e+00 3.3711517287e-04 1.5500121592e+00 -2.6846998121e+00 1.5500121592e+00 2.6846998121e+00 
42200 4.4785653876e+00 3.3287257434e-04 1.5500012846e+00 -2.6846809768e+00 1.5500012846e+00 2.6846809768e+00 
42300 4.4785653779e+00 3.2868367135e-04 1.5499905468e+00 -2.6846623783e+00 1.5499905468e+00 2.6846623783e+00 
42400 4.4785653684e+00 3.2454777913e-04 1.5499799441e+00 -2.6846440138e+00 1.5499799441e+00 2.6846440138e+00 
42500 4.4785653593e+00 3.2046422158e-04 1.5499694747e+00 -2.6846258803e+00 1.5499694747e+00 2.6846258803e+00 
42600 4.4785653505e+00 3.1643233115e-04 1.5499591369e+00 -2.6846079748e+00 1.5499591369e+00 2.6846079748e+00 
42700 4.4785653420e+00 3.1245144874e-04 1.5499489292e+00 -2.6845902944e+00 1.5499489292e+00 2.6845902944e+00 
42800 4.4785653338e+00 3.0852092364e-04 1.5499388498e+00 -2.6845728364e+00 1.5499388498e+00 2.6845728364e+00 
42900 4.4785653259e+00 3.0464011336e-04 1.5499288971e+00 -2.6845555979e+00 1.5499288971e+00 2.6845555979e+00 
43000 4.4785653182e+00 3.0080838362e-04 1.5499190695e+00 -2.6845385761e+00 1.5499190695e+00 2.6845385761e+00 
43100 4.4785653108e+00 2.9702510816e-04 1.5499093656e+00 -2.6845217683e+00 1.5499093656e+00 2.6845217683e+00 
43200 4.4785653037e+00 2.9328966874e-04 1.5498997835e+00 -2.6845051717e+00 1.5498997835e+00 2.6845051717e+00 
43300 4.4785652968e+00 2.8960145497e-04 1.5498903220e+00 -2.6844887838e+00 1.5498903220e+00 2.6844887838e+00 
43400 4.4785652902e+00 2.8595986424e-04 1.5498809794e+00 -2.6844726019e+00 1.5498809794e+00 2.6844726019e+00 
43500 4.4785652838e+00 2.8236430165e-04 1.5498717541e+00 -2.6844566234e+00 1.5498717541e+00 2.6844566234e+00 
43600 4.4785652776e+00 2.7881417988e-04 1.5498626449e+00 -2.6844408457e+00 1.5498626449e+00 2.6844408457e+00 
43700 4.4785652717e+00 2.7530891914e-04 1.5498536501e+00 -2.6844252662e+00 1.5498536501e+00 2.6844252662e+00 
43800 4.4785652660e+00 2.7184794703e-04 1.5498447683e+00 -2.6844098826e+00 1.5498447683e+00 2.6844098826e+00 
43900 4.4785652605e+00 2.6843069849e-04 1.5498359982e+00 -2.6843946922e+00 1.5498359982e+00 2.6843946922e+00 
44000 4.4785652551e+00 2.6505661569e-04 1.5498273382e+00 -2.6843796927e+00 1.5498273382e+00 2.6843796927e+00 
44100 4.4785652500e+00 2.6172514795e-04 1.5498187870e+00 -2.6843648817e+00 1.5498187870e+00 2.6843648817e+00 
44200 4.4785652451e+00 2.5843575166e-04 1.5498103433e+00 -2.6843502567e+00 1.5498103433e+00 2.6843502567e+00 
44300 4.4785652404e+00 2.5518789017e-04 1.5498020057e+00 -2.6843358155e+00 1.5498020057e+00 2.6843358155e+00 
44400 4.4785652358e+00 2.5198103372e-04 1.5497937727e+00 -2.6843215556e+00 1.5497937727e+00 2.6843215556e+00 
44500 4.4785652314e+00 2.4881465936e-04 1.5497856433e+00 -2.6843074750e+00 1.5497856433e+00 2.6843074750e+00 
44600 4.4785652272e+00 2.4568825085e-04 1.5497776159e+00 -2.6842935711e+00 1.5497776159e+00 2.6842935711e+00 
44700 4.4785652231e+00 2.4260129860e-04 1.5497696893e+00 -2.6842798419e+00 1.5497696893e+00 2.6842798419e+00 
44800 4.4785652192e+00 2.3955329955e-04 1.5497618623e+00 -2.6842662851e+00 1.5497618623e+00 2.6842662851e+00 
44900 4.4785652155e+00 2.3654375712e-04 1.5497541336e+00 -2.6842528986e+00 1.5497541336e+00 2.6842528986e+00 
45000 4.4785652119e+00 2.3357218113e-04 1.5497465020e+00 -2.6842396802e+00 1.5497465020e+00 2.6842396802e+00 
45100 4.4785652085e+00 2.3063808769e-04 1.5497389661e+00 -2.6842266278e+00 1.5497389661e+00 2.6842266278e+00 
45200 4.4785652051e+00 2.2774099915e-04 1.5497315250e+00 -2.6842137393e+00 1.5497315250e+00 2.6842137393e+00 
45300 4.4785652020e+00 2.2488044403e-04 1.5497241772e+00 -2.6842010126e+00 1.5497241772e+00 2.6842010126e+00 
45400 4.4785651989e+00 2.2205595688e-04 1.5497169217e+00 -2.6841884457e+00 1.5497169217e+00 2.6841884457e+00 
45500 4.4785651960e+00 2.1926707829e-04 1.5497097573e+00 -2.6841760366e+00 1.5497097573e+00 2.6841760366e+00 
45600 4.4785651932e+00 2.1651335475e-04 1.5497026829e+00 -2.6841637833e+00 1.5497026829e+00 2.6841637833e+00 
45700 4.4785651905e+00 2.1379433859e-04 1.5496956972e+00 -2.6841516839e+00 1.5496956972e+00 2.6841516839e+00 
45800 4.4785651880e+00 2.1110958793e-04 1.5496887993e+00 -2.6841397363e+00 1.5496887993e+00 2.6841397363e+00 
45900 4.4785651855e+00 2.0845866658e-04 1.5496819879e+00 -2.6841279387e+00 1.5496819879e+00 2.6841279387e+00 
46000 4.4785651831e+00 2.0584114397e-04 1.5496752621e+00 -2.6841162892e+00 1.5496752621e+00 2.6841162892e+00 
46100 4.4785651809e+00 2.0325659509e-04 1.5496686207e+00 -2.6841047859e+00 1.5496686207e+00 2.6841047859e+00 
46200 4.4785651788e+00 2.0070460040e-04 1.5496620626e+00 -2.6840934270e+00 1.5496620626e+00 2.6840934270e+00 
46300 4.4785651767e+00 1.9818474579e-04 1.5496555868e+00 -2.6840822107e+00 1.5496555868e+00 2.6840822107e+00 
46400 4.4785651748e+00 1.9569662249e-04 1.5496491924e+00 -2.6840711351e+00 1.5496491924e+00 2.6840711351e+00 
46500 4.4785651729e+00 1.9323982698e-04 1.5496428782e+00 -2.6840601986e+00 1.5496428782e+00 2.6840601986e+00 
46600 4.4785651711e+00 1.9081396097e-04 1.5496366432e+00 -2.6840493993e+00 1.5496366432e+00 2.6840493993e+00 
46700 4.4785651695e+00 1.8841863131e-04 1.5496304865e+00 -2.6840387355e+00 1.5496304865e+00 2.6840387355e+00 
46800 4.4785651679e+00 1.8605344991e-04 1.5496244070e+00 -2.6840282056e+00 1.5496244070e+00 2.6840282056e+00 
46900 4.4785651663e+00 1.8371803369e-04 1.5496184038e+00 -2.6840178077e+00 1.5496184038e+00 2.6840178077e+00 
47000 4.4785651649e+00 1.8141200451e-04 1.5496124760e+00 -2.6840075404e+00 1.5496124760e+00 2.6840075404e+00 
47100 4.4785651635e+00 1.7913498912e-04 1.5496066225e+00 -2.6839974019e+00 1.5496066225e+00 2.6839974019e+00 
47200 4.4785651622e+00 1.7688661907e-04 1.5496008425e+00 -2.6839873907e+00 1.5496008425e+00 2.6839873907e+00 
47300 4.4785651610e+00 1.7466653066e-04 1.5495951350e+00 -2.6839775050e+00 1.5495951350e+00 2.6839775050e+00 
47400 4.4785651598e+00 1.7247436490e-04 1.5495894991e+00 -2.6839677434e+00 1.5495894991e+00 2.6839677434e+00 
47500 4.4785651587e+00 1.7030976742e-04 1.5495839340e+00 -2.6839581042e+00 1.5495839340e+00 2.6839581042e+00 
47600 4.4785651577e+00 1.6817238842e-04 1.5495784386e+00 -2.6839485860e+00 1.5495784386e+00 2.6839485860e+00 
47700 4.4785651567e+00 1.6606188259e-04 1.5495730123e+00 -2.6839391873e+00 1.5495730123e+00 2.6839391873e+00 
47800 4.4785651558e+00 1.6397790910e-04 1.5495676539e+00 -2.6839299064e+00 1.5495676539e+00 2.6839299064e+00 
47900 4.4785651549e+00 1.6192013151e-04 1.5495623629e+00 -2.6839207420e+00 1.5495623629e+00 2.6839207420e+00 
48000 4.4785651541e+00 1.5988821770e-04 1.5495571382e+00 -2.6839116925e+00 1.5495571382e+00 2.6839116925e+00 
48100 4.4785651534e+00 1.5788183984e-04 1.5495519790e+00 -2.6839027566e+00 1.5495519790e+00 2.6839027566e+00 
48200 4.4785651527e+00 1.5590067431e-04 1.5495468846e+00 -2.6838939328e+00 1.5495468846e+00 2.6838939328e+00 
48300 4.4785651520e+00 1.5394440168e-04 1.5495418541e+00 -2.6838852197e+00 1.5495418541e+00 2.6838852197e+00 
48400 4.4785651514e+00 1.5201270662e-04 1.5495368866e+00 -2.6838766159e+00 1.5495368866e+00 2.6838766159e+00 
48500 4.4785651509e+00 1.5010527786e-04 1.5495319815e+00 -2.6838681200e+00 1.5495319815e+00 2.6838681200e+00 
48600 4.4785651503e+00 1.4822180814e-04 1.5495271380e+00 -2.6838597307e+00 1.5495271380e+00 2.6838597307e+00 
48700 4.4785651499e+00 1.4636199415e-04 1.5495223552e+00 -2.6838514466e+00 1.5495223552e+00 2.6838514466e+00 
48800 4.4785651494e+00 1.4452553649e-04 1.5495176324e+00 -2.6838432665e+00 1.5495176324e+00 2.6838432665e+00 
48900 4.4785651490e+00 1.4271213960e-04 1.5495129688e+00 -2.6838351889e+00 1.5495129688e+00 2.6838351889e+00 
49000 4.4785651487e+00 1.4092151173e-04 1.5495083637e+00 -2.6838272127e+00 1.5495083637e+00 2.6838272127e+00 
49100 4.4785651484e+00 1.3915336487e-04 1.5495038164e+00 -2.6838193366e+00 1.5495038164e+00 2.6838193366e+00 
49200 4.4785651481e+00 1.3740741474e-04 1.5494993262e+00 -2.6838115593e+00 1.5494993262e+00 2.6838115593e+00 
49300 4.4785651478e+00 1.3568338068e-04 1.5494948923e+00 -2.6838038795e+00 1.5494948923e+00 2.6838038795e+00 
49400 4.4785651476e+00 1.3398098564e-04 1.5494905140e+00 -2.6837962960e+00 1.5494905140e+00 2.6837962960e+00 
49500 4.4785651474e+00 1.3229995616e-04 1.5494861906e+00 -2.6837888077e+00 1.5494861906e+00 2.6837888077e+00 
49600 4.4785651473e+00 1.3064002225e-04 1.5494819214e+00 -2.6837814133e+00 1.5494819214e+00 2.6837814133e+00 
49700 4.4785651471e+00 1.2900091740e-04 1.5494777058e+00 -2.6837741117e+00 1.5494777058e+00 2.6837741117e+00 
49800 4.4785651470e+00 1.2738237854e-04 1.5494735431e+00 -2.6837669016e+00 1.5494735431e+00 2.6837669016e+00 
49900 4.4785651470e+00 1.2578414595e-04 1.5494694326e+00 -2.6837597820e+00 1.5494694326e+00 2.6837597820e+00 
50000 4.4785651469e+00 1.2420596325e-04 1.5494653736e+00 -2.6837527517e+00 1.5494653736e+00 2.6837527517e+00 
50100 4.4785651469e+00 1.2264757735e-04 1.5494613656e+00 -2.6837458096e+00 1.5494613656e+00 2.6837458096e+00 
50200 4.4785651469e+00 1.2110873839e-04 1.5494574079e+00 -2.6837389546e+00 1.5494574079e+00 2.6837389546e+00 
50300 4.4785651469e+00 1.1958919972e-04 1.5494534998e+00 -2.6837321856e+00 1.5494534998e+00 2.6837321856e+00 
50400 4.4785651470e+00 1.1808871787e-04 1.5494496407e+00 -2.6837255015e+00 1.5494496407e+00 2.6837255015e+00 
50500 4.4785651470e+00 1.1660705245e-04 1.5494458300e+00 -2.6837189012e+00 1.5494458300e+00 2.6837189012e+00 
50600 4.4785651471e+00 1.1514396618e-04 1.5494420672e+00 -2.6837123837e+00 1.5494420672e+00 2.6837123837e+00 
50700 4.4785651472e+00 1.1369922479e-04 1.5494383515e+00 -2.6837059480e+00 1.5494383515e+00 2.6837059480e+00 
50800 4.4785651473e+00 1.1227259702e-04 1.5494346825e+00 -2.6836995930e+00 1.5494346825e+00 2.6836995930e+00 
50900 4.4785651475e+00 1.1086385458e-04 1.5494310595e+00 -2.6836933178e+00 1.5494310595e+00 2.6836933178e+00 
51000 4.4785651476e+00 1.0947277208e-04 1.5494274819e+00 -2.6836871213e+00 1.5494274819e+00 2.6836871213e+00 
51100 4.4785651478e+00 1.0809912701e-04 1.5494239492e+00 -2.6836810025e+00 1.5494239492e+00 2.6836810025e+00 
51200 4.4785651480e+00 1.0674269971e-04 1.5494204608e+00 -2.6836749605e+00 1.5494204608e+00 2.6836749605e+00 
51300 4.4785651482e+00 1.0540327333e-04 1.5494170162e+00 -2.6836689942e+00 1.5494170162e+00 2.6836689942e+00 
51400 4.4785651484e+00 1.0408063379e-04 1.5494136149e+00 -2.6836631029e+00 1.5494136149e+00 2.6836631029e+00 
51500 4.4785651486e+00 1.0277456973e-04 1.5494102561e+00 -2.6836572854e+00 1.5494102561e+00 2.6836572854e+00 
51600 4.4785651488e+00 1.0148487249e-04 1.5494069396e+00 -2.6836515410e+00 1.5494069396e+00 2.6836515410e+00 
51700 4.4785651491e+00 1.0021133608e-04 1.5494036646e+00 -2.6836458686e+00 1.5494036646e+00 2.6836458686e+00 
51800 4.4785651494e+00 9.8953757135e-05 1.5494004308e+00 -2.6836402673e+00 1.5494004308e+00 2.6836402673e+00 
51900 4.4785651496e+00 9.7711934877e-05 1.5493972375e+00 -2.6836347364e+00 1.5493972375e+00 2.6836347364e+00 
52000 4.4785651499e+00 9.6485671088e-05 1.5493940842e+00 -2.6836292749e+00 1.5493940842e+00 2.6836292749e+00 
52100 4.4785651502e+00 9.5274770082e-05 1.5493909706e+00 -2.6836238818e+00 1.5493909706e+00 2.6836238818e+00 
52200 4.4785651505e+00 9.4079038656e-05 1.5493878960e+00 -2.6836185565e+00 1.5493878960e+00 2.6836185565e+00 
52300 4.4785651508e+00 9.2898286073e-05 1.5493848600e+00 -2.6836132980e+00 1.5493848600e+00 2.6836132980e+00 
52400 4.4785651511e+00 9.1732324020e-05 1.5493818621e+00 -2.6836081055e+00 1.5493818621e+00 2.6836081055e+00 
52500 4.4785651515e+00 9.0580966585e-05 1.5493789018e+00 -2.6836029781e+00 1.5493789018e+00 2.6836029781e+00 
52600 4.4785651518e+00 8.9444030214e-05 1.5493759787e+00 -2.6835979151e+00 1.5493759787e+00 2.6835979151e+00 
52700 4.4785651521e+00 8.8321333694e-05 1.5493730922e+00 -2.6835929156e+00 1.5493730922e+00 2.6835929156e+00 
52800 4.4785651525e+00 8.7212698109e-05 1.5493702420e+00 -2.6835879788e+00 1.5493702420e+00 2.6835879788e+00 
52900 4.4785651528e+00 8.6117946823e-05 1.5493674275e+00 -2.6835831041e+00 1.5493674275e+00 2.6835831041e+00 
53000 4.4785651532e+00 8.5036905437e-05 1.5493646484e+00 -2.6835782905e+00 1.5493646484e+00 2.6835782905e+00 
53100 4.4785651536e+00 8.3969401774e-05 1.5493619041e+00 -2.6835735373e+00 1.5493619041e+00 2.6835735373e+00 
53200 4.4785651539e+00 8.2915265838e-05 1.5493591943e+00 -2.6835688438e+00 1.5493591943e+00 2.6835688438e+00 
53300 4.4785651543e+00 8.1874329792e-05 1.5493565185e+00 -2.6835642092e+00 1.5493565185e+00 2.6835642092e+00 
53400 4.4785651547e+00 8.0846427930e-05 1.5493538763e+00 -2.6835596327e+00 1.5493538763e+00 2.6835596327e+00 
53500 4.4785651551e+00 7.9831396646e-05 1.5493512673e+00 -2.6835551137e+00 1.5493512673e+00 2.6835551137e+00 
53600 4.4785651554e+00 7.8829074409e-05 1.5493486910e+00 -2.6835506515e+00 1.5493486910e+00 2.6835506515e+00 
53700 4.4785651558e+00 7.7839301737e-05 1.5493461471e+00 -2.6835462453e+00 1.5493461471e+00 2.6835462453e+00 
53800 4.4785651562e+00 7.6861921168e-05 1.5493436351e+00 -2.6835418943e+00 1.5493436351e+00 2.6835418943e+00 
53900 4.4785651566e+00 7.5896777236e-05 1.5493411546e+00 -2.6835375980e+00 1.5493411546e+00 2.6835375980e+00 
54000 4.4785651570e+00 7.4943716444e-05 1.5493387053e+00 -2.6835333557e+00 1.5493387053e+00 2.6835333557e+00 
54100 4.4785651574e+00 7.4002587236e-05 1.5493362867e+00 -2.6835291666e+00 1.5493362867e+00 2.6835291666e+00 
54200 4.4785651578e+00 7.3073239978e-05 1.5493338985e+00 -2.6835250301e+00 1.5493338985e+00 2.6835250301e+00 
54300 4.4785651582e+00 7.2155526930e-05 1.5493315403e+00 -2.6835209456e+00 1.5493315403e+00 2.6835209456e+00 
54400 4.4785651586e+00 7.1249302218e-05 1.5493292117e+00 -2.6835169123e+00 1.5493292117e+00 2.6835169123e+00 
54500 4.4785651590e+00 7.0354421815e-05 1.5493269123e+00 -2.6835129297e+00 1.5493269123e+00 2.6835129297e+00 
54600 4.4785651596e+00 7.0721619375e-05 1.5493269123e+00 -2.6835129297e+00 1.5493269123e+00 2.6835129297e+00 
54700 4.4785651600e+00 6.9836897305e-05 1.5493246300e+00 -2.6835089766e+00 1.5493246300e+00 2.6835089766e+00 
54800 4.4785651606e+00 7.0204311351e-05 1.5493246300e+00 -2.6835089766e+00 1.5493246300e+00 2.6835089766e+00 
54900 4.4785651612e+00 7.0576614706e-05 1.5493246300e+00 -2.6835089766e+00 1.5493246300e+00 2.6835089766e+00 
55000 4.4785651618e+00 7.0953293417e-05 1.5493246300e+00 -2.6835089766e+00 1.5493246300e+00 2.6835089766e+00 
55100 4.4785651622e+00 7.0072383921e-05 1.5493223402e+00 -2.6835050105e+00 1.5493223402e+00 2.6835050105e+00 
55200 4.4785651628e+00 7.0446167396e-05 1.5493223402e+00 -2.6835050105e+00 1.5493223402e+00 2.6835050105e+00 
55300 4.4785651634e+00 7.0823434128e-05 1.5493223402e+00 -2.6835050105e+00 1.5493223402e+00 2.6835050105e+00 
55400 4.4785651638e+00 6.9944604958e-05 1.5493200546e+00 -2.6835010517e+00 1.5493200546e+00 2.6835010517e+00 
55500 4.4785651644e+00 7.0317364000e-05 1.5493200546e+00 -2.6835010517e+00 1.5493200546e+00 2.6835010517e+00 
55600 4.4785651650e+00 7.0692860856e-05 1.5493200546e+00 -2.6835010517e+00 1.5493200546e+00 2.6835010517e+00 
55700 4.4785651655e+00 7.1070706100e-05 1.5493200546e+00 -2.6835010517e+00 1.5493200546e+00 2.6835010517e+00 
55800 4.4785651659e+00 7.0187020869e-05 1.5493177610e+00 -2.6834970790e+00 1.5493177610e+00 2.6834970790e+00 
55900 4.4785651665e+00 7.0558245448e-05 1.5493177610e+00 -2.6834970790e+00 1.5493177610e+00 2.6834970790e+00 
56000 4.4785651670e+00 7.0931260295e-05 1.5493177610e+00 -2.6834970790e+00 1.5493177610e+00 2.6834970790e+00 
56100 4.4785651674e+00 7.0044719972e-05 1.5493154718e+00 -2.6834931142e+00 1.5493154718e+00 2.6834931142e+00 
56200 4.4785651679e+00 7.0410116935e-05 1.5493154718e+00 -2.6834931142e+00 1.5493154718e+00 2.6834931142e+00 
56300 4.4785651685e+00 7.0776840859e-05 1.5493154718e+00 -2.6834931142e+00 1.5493154718e+00 2.6834931142e+00 
56400 4.4785651688e+00 6.9886339949e-05 1.5493131877e+00 -2.6834891580e+00 1.5493131877e+00 2.6834891580e+00 
56500 4.4785651694e+00 7.0244626475e-05 1.5493131877e+00 -2.6834891580e+00 1.5493131877e+00 2.6834891580e+00 
56600 4.4785651699e+00 7.0603857825e-05 1.5493131877e+00 -2.6834891580e+00 1.5493131877e+00 2.6834891580e+00 
56700 4.4785651704e+00 7.0963753365e-05 1.5493131877e+00 -2.6834891580e+00 1.5493131877e+00 2.6834891580e+00 
56800 4.4785651708e+00 7.0062505251e-05 1.5493108975e+00 -2.6834851913e+00 1.5493108975e+00 2.6834851913e+00 
56900 4.4785651713e+00 7.0412731122e-05 1.5493108975e+00 -2.6834851913e+00 1.5493108975e+00 2.6834851913e+00 
57000 4.4785651718e+00 7.0763356651e-05 1.5493108975e+00 -2.6834851913e+00 1.5493108975e+00 2.6834851913e+00 
57100 4.4785651721e+00 6.9856172519e-05 1.5493086138e+00 -2.6834812358e+00 1.5493086138e+00 2.6834812358e+00 
57200 4.4785651726e+00 7.0196683794e-05 1.5493086138e+00 -2.6834812358e+00 1.5493086138e+00 2.6834812358e+00 
57300 4.4785651731e+00 7.0537382899e-05 1.5493086138e+00 -2.6834812358e+00 1.5493086138e+00 2.6834812358e+00 
57400 4.4785651737e+00 7.0878040558e-05 1.5493086138e+00 -2.6834812358e+00 1.5493086138e+00 2.6834812358e+00 
57500 4.4785651739e+00 6.9958461685e-05 1.5493063264e+00 -2.6834772739e+00 1.5493063264e+00 2.6834772739e+00 
57600 4.4785651744e+00 7.0288194850e-05 1.5493063264e+00 -2.6834772739e+00 1.5493063264e+00 2.6834772739e+00 
57700 4.4785651749e+00 7.0617761255e-05 1.5493063264e+00 -2.6834772739e+00 1.5493063264e+00 2.6834772739e+00 
57800 4.4785651754e+00 7.0946957393e-05 1.5493063264e+00 -2.6834772739e+00 1.5493063264e+00 2.6834772739e+00 
57900 4.4785651757e+00 7.0014408917e-05 1.5493040368e+00 -2.6834733081e+00 1.5493040368e+00 2.6834733081e+00 
58000 4.4785651762e+00 7.0332085204e-05 1.5493040368e+00 -2.6834733081e+00 1.5493040368e+00 2.6834733081e+00 
58100 4.4785651766e+00 7.0649336417e-05 1.5493040368e+00 -2.6834733081e+00 1.5493040368e+00 2.6834733081e+00 
58200 4.4785651771e+00 7.0965980147e-05 1.5493040368e+00 -2.6834733081e+00 1.5493040368e+00 2.6834733081e+00 
58300 4.4785651774e+00 7.0020343843e-05 1.5493017465e+00 -2.6834693413e+00 1.5493017465e+00 2.6834693413e+00 
58400 4.4785651778e+00 7.0325049764e-05 1.5493017465e+00 -2.6834693413e+00 1.5493017465e+00 2.6834693413e+00 
58500 4.4785651783e+00 7.0629150974e-05 1.5493017465e+00 -2.6834693413e+00 1.5493017465e+00 2.6834693413e+00 
58600 4.4785651787e+00 7.0932482408e-05 1.5493017465e+00 -2.6834693413e+00 1.5493017465e+00 2.6834693413e+00 
58700 4.4785651789e+00 6.9974001946e-05 1.5492994574e+00 -2.6834653763e+00 1.5492994574e+00 2.6834653763e+00 
58800 4.4785651794e+00 7.0265124476e-05 1.5492994574e+00 -2.6834653763e+00 1.5492994574e+00 2.6834653763e+00 
58900 4.4785651798e+00 7.0555527002e-05 1.5492994574e+00 -2.6834653763e+00 1.5492994574e+00 2.6834653763e+00 
59000 4.4785651803e+00 7.0845058731e-05 1.5492994574e+00 -2.6834653763e+00 1.5492994574e+00 2.6834653763e+00 
59100 4.4785651805e+00 6.9874262297e-05 1.5492971710e+00 -2.6834614162e+00 1.5492971710e+00 2.6834614162e+00 
59200 4.4785651809e+00 7.0151435699e-05 1.5492971710e+00 -2.6834614162e+00 1.5492971710e+00 2.6834614162e+00 
59300 4.4785651813e+00 7.0427826317e-05 1.5492971710e+00 -2.6834614162e+00 1.5492971710e+00 2.6834614162e+00 
59400 4.4785651817e+00 7.0703295097e-05 1.5492971710e+00 -2.6834614162e+00 1.5492971710e+00 2.6834614162e+00 
59500 4.4785651821e+00 7.0977712168e-05 1.5492971710e+00 -2.6834614162e+00 1.5492971710e+00 2.6834614162e+00 
59600 4.4785651823e+00 6.9989302818e-05 1.5492948804e+00 -2.6834574487e+00 1.5492948804e+00 2.6834574487e+00 
59700 4.4785651827e+00 7.0251038890e-05 1.5492948804e+00 -2.6834574487e+00 1.5492948804e+00 2.6834574487e+00 
59800 4.4785651831e+00 7.0511868485e-05 1.5492948804e+00 -2.6834574487e+00 1.5492948804e+00 2.6834574487e+00 
59900 4.4785651835e+00 7.0771669309e-05 1.5492948804e+00 -2.6834574487e+00 1.5492948804e+00 2.6834574487e+00 
60000 4.4785651837e+00 6.9772350827e-05 1.5492925964e+00 -2.6834534927e+00 1.5492925964e+00 2.6834534927e+00 
60100 4.4785651840e+00 7.0019567505e-05 1.5492925964e+00 -2.6834534927e+00 1.5492925964e+00 2.6834534927e+00 
60200 4.4785651844e+00 7.0265919933e-05 1.5492925964e+00 -2.6834534927e+00 1.5492925964e+00 2.6834534927e+00 
60300 4.4785651848e+00 7.0511292135e-05 1.5492925964e+00 -2.6834534927e+00 1.5492925964e+00 2.6834534927e+00 
60400 4.4785651852e+00 7.0755576112e-05 1.5492925964e+00 -2.6834534927e+00 1.5492925964e+00 2.6834534927e+00 
60500 4.4785651853e+00 6.9740998602e-05 1.5492903129e+00 -2.6834495376e+00 1.5492903129e+00 2.6834495376e+00 
60600 4.4785651857e+00 6.9972621496e-05 1.5492903129e+00 -2.6834495376e+00 1.5492903129e+00 2.6834495376e+00 
60700 4.4785651860e+00 7.0203358836e-05 1.5492903129e+00 -2.6834495376e+00 1.5492903129e+00 2.6834495376e+00 
60800 4.4785651864e+00 7.0433105989e-05 1.5492903129e+00 -2.6834495376e+00 1.5492903129e+00 2.6834495376e+00 
60900 4.4785651867e+00 7.0661765654e-05 1.5492903129e+00 -2.6834495376e+00 1.5492903129e+00 2.6834495376e+00 
61000 4.4785651871e+00 7.0889247414e-05 1.5492903129e+00 -2.6834495376e+00 1.5492903129e+00 2.6834495376e+00 
61100 4.4785651872e+00 6.9855438693e-05 1.5492880251e+00 -2.6834455750e+00 1.5492880251e+00 2.6834455750e+00 
61200 4.4785651875e+00 7.0070109324e-05 1.5492880251e+00 -2.6834455750e+00 1.5492880251e+00 2.6834455750e+00 
61300 4.4785651878e+00 7.0283852411e-05 1.5492880251e+00 -2.6834455750e+00 1.5492880251e+00 2.6834455750e+00 
61400 4.4785651882e+00 7.0496577064e-05 1.5492880251e+00 -2.6834455750e+00 1.5492880251e+00 2.6834455750e+00 
61500 4.4785651885e+00 7.0708198921e-05 1.5492880251e+00 -2.6834455750e+00 1.5492880251e+00 2.6834455750e+00 
61600 4.4785651888e+00 7.0918639727e-05 1.5492880251e+00 -2.6834455750e+00 1.5492880251e+00 2.6834455750e+00 
61700 4.4785651889e+00 6.9867294004e-05 1.5492857364e+00 -2.6834416108e+00 1.5492857364e+00 2.6834416108e+00 
61800 4.4785651892e+00 7.0064946750e-05 1.5492857364e+00 -2.6834416108e+00 1.5492857364e+00 2.6834416108e+00 
61900 4.4785651895e+00 7.0261701345e-05 1.5492857364e+00 -2.6834416108e+00 1.5492857364e+00 2.6834416108e+00 
62000 4.4785651898e+00 7.0457476398e-05 1.5492857364e+00 -2.6834416108e+00 1.5492857364e+00 2.6834416108e+00 
62100 4.4785651901e+00 7.0652196466e-05 1.5492857364e+00 -2.6834416108e+00 1.5492857364e+00 2.6834416108e+00 
62200 4.4785651904e+00 7.0845791672e-05 1.5492857364e+00 -2.6834416108e+00 1.5492857364e+00 2.6834416108e+00 
62300 4.4785651905e+00 6.9778975431e-05 1.5492834500e+00 -2.6834376506e+00 1.5492834500e+00 2.6834376506e+00 
62400 4.4785651908e+00 6.9959928468e-05 1.5492834500e+00 -2.6834376506e+00 1.5492834500e+00 2.6834376506e+00 
62500 4.4785651911e+00 7.0140061179e-05 1.5492834500e+00 -2.6834376506e+00 1.5492834500e+00 2.6834376506e+00 
62600 4.4785651913e+00 7.0319298655e-05 1.5492834500e+00 -2.6834376506e+00 1.5492834500e+00 2.6834376506e+00 
62700 4.4785651916e+00 7.0497571518e-05 1.5492834500e+00 -2.6834376506e+00 1.5492834500e+00 2.6834376506e+00 
62800 4.4785651919e+00 7.0674815560e-05 1.5492834500e+00 -2.6834376506e+00 1.5492834500e+00 2.6834376506e+00 
62900 4.4785651921e+00 7.0850971408e-05 1.5492834500e+00 -2.6834376506e+00 1.5492834500e+00 2.6834376506e+00 
63000 4.4785651922e+00 6.9766687748e-05 1.5492811634e+00 -2.6834336902e+00 1.5492811634e+00 2.6834336902e+00 
63100 4.4785651925e+00 6.9930302757e-05 1.5492811634e+00 -2.6834336902e+00 1.5492811634e+00 2.6834336902e+00 
63200 4.4785651927e+00 7.0093161699e-05 1.5492811634e+00 -2.6834336902e+00 1.5492811634e+00 2.6834336902e+00 
63300 4.4785651930e+00 7.0255197656e-05 1.5492811634e+00 -2.6834336902e+00 1.5492811634e+00 2.6834336902e+00 
63400 4.4785651932e+00 7.0416348699e-05 1.5492811634e+00 -2.6834336902e+00 1.5492811634e+00 2.6834336902e+00 
63500 4.4785651935e+00 7.0576557561e-05 1.5492811634e+00 -2.6834336902e+00 1.5492811634e+00 2.6834336902e+00 
63600 4.4785651937e+00 7.0735771335e-05 1.5492811634e+00 -2.6834336902e+00 1.5492811634e+00 2.6834336902e+00 
63700 4.4785651937e+00 6.9636707687e-05 1.5492788805e+00 -2.6834297362e+00 1.5492788805e+00 2.6834297362e+00 
63800 4.4785651940e+00 6.9783600991e-05 1.5492788805e+00 -2.6834297362e+00 1.5492788805e+00 2.6834297362e+00 
63900 4.4785651942e+00 6.9929847337e-05 1.5492788805e+00 -2.6834297362e+00 1.5492788805e+00 2.6834297362e+00 
64000 4.4785651944e+00 7.0075384650e-05 1.5492788805e+00 -2.6834297362e+00 1.5492788805e+00 2.6834297362e+00 
64100 4.4785651947e+00 7.0220155483e-05 1.5492788805e+00 -2.6834297362e+00 1.5492788805e+00 2.6834297362e+00 
64200 4.4785651949e+00 7.0364106709e-05 1.5492788805e+00 -2.6834297362e+00 1.5492788805e+00 2.6834297362e+00 
64300 4.4785651951e+00 7.0507189240e-05 1.5492788805e+00 -2.6834297362e+00 1.5492788805e+00 2.6834297362e+00 
64400 4.4785651953e+00 7.0649357759e-05 1.5492788805e+00 -2.6834297362e+00 1.5492788805e+00 2.6834297362e+00 
64500 4.4785651956e+00 7.0790570476e-05 1.5492788805e+00 -2.6834297362e+00 1.5492788805e+00 2.6834297362e+00 
64600 4.4785651956e+00 6.9672599768e-05 1.5492765959e+00 -2.6834257791e+00 1.5492765959e+00 2.6834257791e+00 
64700 4.4785651958e+00 6.9801592933e-05 1.5492765959e+00 -2.6834257791e+00 1.5492765959e+00 2.6834257791e+00 
64800 4.4785651960e+00 6.9930007707e-05 1.5492765959e+00 -2.6834257791e+00 1.5492765959e+00 2.6834257791e+00 
64900 4.4785651962e+00 7.0057790297e-05 1.5492765959e+00 -2.6834257791e+00 1.5492765959e+00 2.6834257791e+00 
65000 4.4785651964e+00 7.0184890947e-05 1.5492765959e+00 -2.6834257791e+00 1.5492765959e+00 2.6834257791e+00 
65100 4.4785651966e+00 7.0311263666e-05 1.5492765959e+00 -2.6834257791e+00 1.5492765959e+00 2.6834257791e+00 
65200 4.4785651968e+00 7.0436865977e-05 1.5492765959e+00 -2.6834257791e+00 1.5492765959e+00 2.6834257791e+00 
65300 4.4785651970e+00 7.0561658687e-05 1.5492765959e+00 -2.6834257791e+00 1.5492765959e+00 2.6834257791e+00 
65400 4.4785651972e+00 7.0685605673e-05 1.5492765959e+00 -2.6834257791e+00 1.5492765959e+00 2.6834257791e+00 
65500 4.4785651973e+00 7.0808673685e-05 1.5492765959e+00 -2.6834257791e+00 1.5492765959e+00 2.6834257791e+00 
65600 4.4785651973e+00 6.9672338912e-05 1.5492743107e+00 -2.6834218210e+00 1.5492743107e+00 2.6834218210e+00 
65700 4.4785651975e+00 6.9783361543e-05 1.5492743107e+00 -2.6834218210e+00 1.5492743107e+00 2.6834218210e+00 
65800 4.4785651977e+00 6.9893904813e-05 1.5492743107e+00 -2.6834218210e+00 1.5492743107e+00 2.6834218210e+00 
65900 4.4785651979e+00 7.0003921225e-05 1.5492743107e+00 -2.6834218210e+00 1.5492743107e+00 2.6834218210e+00 
66000 4.4785651980e+00 7.0113366843e-05 1.5492743107e+00 -2.6834218210e+00 1.5492743107e+00 2.6834218210e+00 
66100 4.4785651982e+00 7.0222201054e-05 1.5492743107e+00 -2.6834218210e+00 1.5492743107e+00 2.6834218210e+00 
66200 4.4785651984e+00 7.0330386345e-05 1.5492743107e+00 -2.6834218210e+00 1.5492743107e+00 2.6834218210e+00 
66300 4.4785651986e+00 7.0437888094e-05 1.5492743107e+00 -2.6834218210e+00 1.5492743107e+00 2.6834218210e+00 
66400 4.4785651987e+00 7.0544674382e-05 1.5492743107e+00 -2.6834218210e+00 1.5492743107e+00 2.6834218210e+00 
66500 4.4785651989e+00 7.0650715816e-05 1.5492743107e+00 -2.6834218210e+00 1.5492743107e+00 2.6834218210e+00 
66600 4.4785651990e+00 7.0755985368e-05 1.5492743107e+00 -2.6834218210e+00 1.5492743107e+00 2.6834218210e+00 
66700 4.4785651990e+00 6.9602917866e-05 1.5492720272e+00 -2.6834178658e+00 1.5492720272e+00 2.6834178658e+00 
66800 4.4785651992e+00 6.9696380551e-05 1.5492720272e+00 -2.6834178658e+00 1.5492720272e+00 2.6834178658e+00 
66900 4.4785651993e+00 6.9789486538e-05 1.5492720272e+00 -2.6834178658e+00 1.5492720272e+00 2.6834178658e+00 
67000 4.4785651995e+00 6.9882192837e-05 1.5492720272e+00 -2.6834178658e+00 1.5492720272e+00 2.6834178658e+00 
67100 4.4785651996e+00 6.9974459652e-05 1.5492720272e+00 -2.6834178658e+00 1.5492720272e+00 2.6834178658e+00 
67200 4.4785651998e+00 7.0066250162e-05 1.5492720272e+00 -2.6834178658e+00 1.5492720272e+00 2.6834178658e+00 
67300 4.4785651999e+00 7.0157530321e-05 1.5492720272e+00 -2.6834178658e+00 1.5492720272e+00 2.6834178658e+00 
67400 4.4785652000e+00 7.0248268672e-05 1.5492720272e+00 -2.6834178658e+00 1.5492720272e+00 2.6834178658e+00 
67500 4.4785652002e+00 7.0338436172e-05 1.5492720272e+00 -2.6834178658e+00 1.5492720272e+00 2.6834178658e+00 
67600 4.4785652003e+00 7.0428006037e-05 1.5492720272e+00 -2.6834178658e+00 1.5492720272e+00 2.6834178658e+00 
67700 4.4785652005e+00 7.0516953591e-05 1.5492720272e+00 -2.6834178658e+00 1.5492720272e+00 2.6834178658e+00 
67800 4.4785652006e+00 7.0605256130e-05 1.5492720272e+00 -2.6834178658e+00 1.5492720272e+00 2.6834178658e+00 
67900 4.4785652007e+00 7.0692892798e-05 1.5492720272e+00 -2.6834178658e+00 1.5492720272e+00 2.6834178658e+00 
68000 4.4785652009e+00 7.0779844466e-05 1.5492720272e+00 -2.6834178658e+00 1.5492720272e+00 2.6834178658e+00 
68100 4.4785652008e+00 6.9608147020e-05 1.5492697429e+00 -2.6834139093e+00 1.5492697429e+00 2.6834139093e+00 
68200 4.4785652009e+00 6.9683483472e-05 1.5492697429e+00 -2.6834139093e+00 1.5492697429e+00 2.6834139093e+00 
68300 4.4785652010e+00 6.9758570589e-05 1.5492697429e+00 -2.6834139093e+00 1.5492697429e+00 2.6834139093e+00 
68400 4.4785652012e+00 6.9833371136e-05 1.5492697429e+00 -2.6834139093e+00 1.5492697429e+00 2.6834139093e+00 
68500 4.4785652013e+00 6.9907850616e-05 1.5492697429e+00 -2.6834139093e+00 1.5492697429e+00 2.6834139093e+00 
68600 4.4785652014e+00 6.9981977093e-05 1.5492697429e+00 -2.6834139093e+00 1.5492697429e+00 2.6834139093e+00 
68700 4.4785652015e+00 7.0055721009e-05 1.5492697429e+00 -2.6834139093e+00 1.5492697429e+00 2.6834139093e+00 
68800 4.4785652016e+00 7.0129055029e-05 1.5492697429e+00 -2.6834139093e+00 1.5492697429e+00 2.6834139093e+00 
68900 4.4785652018e+00 7.0201953886e-05 1.5492697429e+00 -2.6834139093e+00 1.5492697429e+00 2.6834139093e+00 
69000 4.4785652019e+00 7.0274394246e-05 1.5492697429e+00 -2.6834139093e+00 1.5492697429e+00 2.6834139093e+00 
69100 4.4785652020e+00 7.0346354583e-05 1.5492697429e+00 -2.6834139093e+00 1.5492697429e+00 2.6834139093e+00 
69200 4.4785652021e+00 7.0417815057e-05 1.5492697429e+00 -2.6834139093e+00 1.5492697429e+00 2.6834139093e+00 
69300 4.4785652022e+00 7.0488757406e-05 1.5492697429e+00 -2.6834139093e+00 1.5492697429e+00 2.6834139093e+00 
69400 4.4785652023e+00 7.0559164849e-05 1.5492697429e+00 -2.6834139093e+00 1.5492697429e+00 2.6834139093e+00 
69500 4.4785652024e+00 7.0629021984e-05 1.5492697429e+00 -2.6834139093e+00 1.5492697429e+00 2.6834139093e+00 
69600 4.4785652025e+00 7.0698314707e-05 1.5492697429e+00 -2.6834139093e+00 1.5492697429e+00 2.6834139093e+00 
69700 4.4785652026e+00 7.0767030133e-05 1.5492697429e+00 -2.6834139093e+00 1.5492697429e+00 2.6834139093e+00 
69800 4.4785652025e+00 6.9577454783e-05 1.5492674590e+00 -2.6834099535e+00 1.5492674590e+00 2.6834099535e+00 
69900 4.4785652026e+00 6.9634789026e-05 1.5492674590e+00 -2.6834099535e+00 1.5492674590e+00 2.6834099535e+00 
70000 4.4785652027e+00 6.9691997526e-05 1.5492674590e+00 -2.6834099535e+00 1.5492674590e+00 2.6834099535e+00 
70100 4.4785652028e+00 6.9749047550e-05 1.5492674590e+00 -2.6834099535e+00 1.5492674590e+00 2.6834099535e+00 
70200 4.4785652029e+00 6.9805908747e-05 1.5492674590e+00 -2.6834099535e+00 1.5492674590e+00 2.6834099535e+00 
70300 4.4785652030e+00 6.9862552974e-05 1.5492674590e+00 -2.6834099535e+00 1.5492674590e+00 2.6834099535e+00 
70400 4.4785652031e+00 6.9918954149e-05 1.5492674590e+00 -2.6834099535e+00 1.5492674590e+00 2.6834099535e+00 
70500 4.4785652032e+00 6.9975088109e-05 1.5492674590e+00 -2.6834099535e+00 1.5492674590e+00 2.6834099535e+00 
70600 4.4785652033e+00 7.0030932476e-05 1.5492674590e+00 -2.6834099535e+00 1.5492674590e+00 2.6834099535e+00 
70700 4.4785652034e+00 7.0086466541e-05 1.5492674590e+00 -2.6834099535e+00 1.5492674590e+00 2.6834099535e+00 
70800 4.4785652035e+00 7.0141671150e-05 1.5492674590e+00 -2.6834099535e+00 1.5492674590e+00 2.6834099535e+00 
70900 4.4785652036e+00 7.0196528603e-05 1.5492674590e+00 -2.6834099535e+00 1.5492674590e+00 2.6834099535e+00 
71000 4.4785652036e+00 7.0251022557e-05 1.5492674590e+00 -2.6834099535e+00 1.5492674590e+00 2.6834099535e+00 
71100 4.4785652037e+00 7.0305137939e-05 1.5492674590e+00 -2.6834099535e+00 1.5492674590e+00 2.6834099535e+00 
71200 4.4785652038e+00 7.0358860862e-05 1.5492674590e+00 -2.6834099535e+00 1.5492674590e+00 2.6834099535e+00 
71300 4.4785652039e+00 7.0412178555e-05 1.5492674590e+00 -2.6834099535e+00 1.5492674590e+00 2.6834099535e+00 
71400 4.4785652040e+00 7.0465079288e-05 1.5492674590e+00 -2.6834099535e+00 1.5492674590e+00 2.6834099535e+00 
71500 4.4785652041e+00 7.0517552307e-05 1.5492674590e+00 -2.6834099535e+00 1.5492674590e+00 2.6834099535e+00 
71600 4.4785652041e+00 7.0569587778e-05 1.5492674590e+00 -2.6834099535e+00 1.5492674590e+00 2.6834099535e+00 
71700 4.4785652042e+00 7.0621176725e-05 1.5492674590e+00 -2.6834099535e+00 1.5492674590e+00 2.6834099535e+00 
71800 4.4785652043e+00 7.0672310983e-05 1.5492674590e+00 -2.6834099535e+00 1.5492674590e+00 2.6834099535e+00 
71900 4.4785652044e+00 7.0722983145e-05 1.5492674590e+00 -2.6834099535e+00 1.5492674590e+00 2.6834099535e+00 
72000 4.4785652042e+00 6.9516284198e-05 1.5492651765e+00 -2.6834060001e+00 1.5492651765e+00 2.6834060001e+00 
72100 4.4785652043e+00 6.9555826649e-05 1.5492651765e+00 -2.6834060001e+00 1.5492651765e+00 2.6834060001e+00 
72200 4.4785652044e+00 6.9595372262e-05 1.5492651765e+00 -2.6834060001e+00 1.5492651765e+00 2.6834060001e+00 
72300 4.4785652044e+00 6.9634892255e-05 1.5492651765e+00 -2.6834060001e+00 1.5492651765e+00 2.6834060001e+00 
72400 4.4785652045e+00 6.9674359896e-05 1.5492651765e+00 -2.6834060001e+00 1.5492651765e+00 2.6834060001e+00 
72500 4.4785652046e+00 6.9713750360e-05 1.5492651765e+00 -2.6834060001e+00 1.5492651765e+00 2.6834060001e+00 
72600 4.4785652046e+00 6.9753040592e-05 1.5492651765e+00 -2.6834060001e+00 1.5492651765e+00 2.6834060001e+00 
72700 4.4785652047e+00 6.9792209184e-05 1.5492651765e+00 -2.6834060001e+00 1.5492651765e+00 2.6834060001e+00 
72800 4.4785652048e+00 6.9831236263e-05 1.5492651765e+00 -2.6834060001e+00 1.5492651765e+00 2.6834060001e+00 
72900 4.4785652048e+00 6.9870103384e-05 1.5492651765e+00 -2.6834060001e+00 1.5492651765e+00 2.6834060001e+00 
73000 4.4785652049e+00 6.9908793433e-05 1.5492651765e+00 -2.6834060001e+00 1.5492651765e+00 2.6834060001e+00 
73100 4.4785652050e+00 6.9947290538e-05 1.5492651765e+00 -2.6834060001e+00 1.5492651765e+00 2.6834060001e+00 
73200 4.4785652050e+00 6.9985579988e-05 1.5492651765e+00 -2.6834060001e+00 1.5492651765e+00 2.6834060001e+00 
73300 4.4785652051e+00 7.0023648152e-05 1.5492651765e+00 -2.6834060001e+00 1.5492651765e+00 2.6834060001e+00 
73400 4.4785652052e+00 7.0061482412e-05 1.5492651765e+00 -2.6834060001e+00 1.5492651765e+00 2.6834060001e+00 
73500 4.4785652052e+00 7.0099071099e-05 1.5492651765e+00 -2.6834060001e+00 1.5492651765e+00 2.6834060001e+00 
73600 4.4785652053e+00 7.0136403427e-05 1.5492651765e+00 -2.6834060001e+00 1.5492651765e+00 2.6834060001e+00 
73700 4.4785652053e+00 7.0173469441e-05 1.5492651765e+00 -2.6834060001e+00 1.5492651765e+00 2.6834060001e+00 
73800 4.4785652054e+00 7.0210259963e-05 1.5492651765e+00 -2.6834060001e+00 1.5492651765e+00 2.6834060001e+00 
73900 4.4785652054e+00 7.0246766548e-05 1.5492651765e+00 -2.6834060001e+00 1.5492651765e+00 2.6834060001e+00 
74000 4.4785652055e+00 7.0282981431e-05 1.5492651765e+00 -2.6834060001e+00 1.5492651765e+00 2.6834060001e+00 
74100 4.4785652056e+00 7.0318897494e-05 1.5492651765e+00 -2.6834060001e+00 1.5492651765e+00 2.6834060001e+00 
74200 4.4785652056e+00 7.0354508221e-05 1.5492651765e+00 -2.6834060001e+00 1.5492651765e+00 2.6834060001e+00 
74300 4.4785652057e+00 7.0389807665e-05 1.5492651765e+00 -2.6834060001e+00 1.5492651765e+00 2.6834060001e+00 
74400 4.4785652057e+00 7.0424790416e-05 1.5492651765e+00 -2.6834060001e+00 1.5492651765e+00 2.6834060001e+00 
74500 4.4785652058e+00 7.0459451565e-05 1.5492651765e+00 -2.6834060001e+00 1.5492651765e+00 2.6834060001e+00 
74600 4.4785652058e+00 7.0493786679e-05 1.5492651765e+00 -2.6834060001e+00 1.5492651765e+00 2.6834060001e+00 
74700 4.4785652059e+00 7.0527791772e-05 1.5492651765e+00 -2.6834060001e+00 1.5492651765e+00 2.6834060001e+00 
74800 4.4785652059e+00 7.0561463278e-05 1.5492651765e+00 -2.6834060001e+00 1.5492651765e+00 2.6834060001e+00 
74900 4.4785652060e+00 7.0594798033e-05 1.5492651765e+00 -2.6834060001e+00 1.5492651765e+00 2.6834060001e+00 
75000 4.4785652060e+00 7.0627793244e-05 1.5492651765e+00 -2.6834060001e+00 1.5492651765e+00 2.6834060001e+00 
75100 4.4785652061e+00 7.0655895693e-05 1.5492651765e+00 -2.6834060001e+00 1.5492651765e+00 2.6834060001e+00 
75100 4.4785652061e+00 7.0655895693e-05 1.5492651765e+00 -2.6834060001e+00 1.5492651765e+00 2.6834060001e+00 
