# step Hamiltonian StressXX CellTensor1 CellTensor2 CellTensor3 CellTensor4 
0 5.4890060993e+00 1.9081798938e-01 2.8378601290e+00 -4.9153179282e+00 2.8378601290e+00 4.9153179282e+00 
100 5.4938372123e+00 2.2229060360e-01 2.8378601290e+00 -4.9153179282e+00 2.8378601290e+00 4.9153179282e+00 
200 5.5007130753e+00 2.5158475938e-01 2.8339445131e+00 -4.9085358826e+00 2.8339445131e+00 4.9085358826e+00 
300 5.5099711294e+00 2.7905262514e-01 2.8295069001e+00 -4.9008497114e+00 2.8295069001e+00 4.9008497114e+00 
400 5.5214831669e+00 3.0490838809e-01 2.8245772173e+00 -4.8923112503e+00 2.8245772173e+00 4.8923112503e+00 
500 5.5350841452e+00 3.2934095723e-01 2.8191815232e+00 -4.8829656339e+00 2.8191815232e+00 4.8829656339e+00 
600 5.5505438560e+00 3.5246262145e-01 2.8133424704e+00 -4.8728520978e+00 2.8133424704e+00 4.8728520978e+00 
700 5.5675179283e+00 3.7420796867e-01 2.8070806744e+00 -4.8620063490e+00 2.8070806744e+00 4.8620063490e+00 
800 5.5854588043e+00 3.9413875407e-01 2.8004178890e+00 -4.8504660662e+00 2.8004178890e+00 4.8504660662e+00 
900 5.6034633567e+00 4.1110275725e-01 2.7933837019e+00 -4.8382824967e+00 2.7933837019e+00 4.8382824967e+00 
1000 5.6200671039e+00 4.2279556270e-01 2.7860284326e+00 -4.8255427966e+00 2.7860284326e+00 4.8255427966e+00 
1100 5.6331519282e+00 4.2573136331e-01 2.7784441036e+00 -4.8124063534e+00 2.7784441036e+00 4.8124063534e+00 
1200 5.6404344347e+00 4.1690229397e-01 2.7707863075e+00 -4.7991426615e+00 2.7707863075e+00 4.7991426615e+00 
1300 5.6408236920e+00 3.9737039451e-01 2.7632665446e+00 -4.7861180502e+00 2.7632665446e+00 4.7861180502e+00 
1400 5.6354271606e+00 3.7333918396e-01 2.7560794418e+00 -4.7736696230e+00 2.7560794418e+00 4.7736696230e+00 
1500 5.6265931362e+00 3.5134772342e-01 2.7493092107e+00 -4.7619432387e+00 2.7493092107e+00 4.7619432387e+00 
1600 5.6162432871e+00 3.3400111722e-01 2.7429219461e+00 -4.7508801718e+00 2.7429219461e+00 4.7508801718e+00 
1700 5.6053730401e+00 3.2073225057e-01 2.7368357853e+00 -4.7403386321e+00 2.7368357853e+00 4.7403386321e+00 
1800 5.5943810636e+00 3.1008777195e-01 2.7309783356e+00 -4.7301932317e+00 2.7309783356e+00 4.7301932317e+00 
1900 5.5834117110e+00 3.0087253417e-01 2.7253030780e+00 -4.7203633972e+00 2.7253030780e+00 4.7203633972e+00 
2000 5.5725204725e+00 2.9234337931e-01 2.7197849622e+00 -4.7108057402e+00 2.7197849622e+00 4.7108057402e+00 
2100 5.5617342169e+00 2.8409553055e-01 2.7144123516e+00 -4.7015001057e+00 2.7144123516e+00 4.7015001057e+00 
2200 5.5510705199e+00 2.7592795549e-01 2.7091809418e+00 -4.6924390381e+00 2.7091809418e+00 4.6924390381e+00 
2300 5.5405435249e+00 2.6775135788e-01 2.7040900794e+00 -4.6836214057e+00 2.7040900794e+00 4.6836214057e+00 
2400 5.5301656527e+00 2.5953465627e-01 2.6991407342e+00 -4.6750488884e+00 2.6991407342e+00 4.6750488884e+00 
2500 5.5199480586e+00 2.5127587170e-01 2.6943344366e+00 -4.6667241368e+00 2.6943344366e+00 4.6667241368e+00 
2600 5.5099007211e+00 2.4298679156e-01 2.6896727424e+00 -4.6586498455e+00 2.6896727424e+00 4.6586498455e+00 
2700 5.5000324366e+00 2.3468503897e-01 2.6851569762e+00 -4.6508283090e+00 2.6851569762e+00 4.6508283090e+00 
2800 5.4903508064e+00 2.2639003936e-01 2.6807881203e+00 -4.6432612286e+00 2.6807881203e+00 4.6432612286e+00 
2900 5.4808622416e+00 2.1812101916e-01 2.6765667774e+00 -4.6359496484e+00 2.6765667774e+00 4.6359496484e+00 
3000 5.4715719921e+00 2.0989605971e-01 2.6724931710e+00 -4.6288939551e+00 2.6724931710e+00 4.6288939551e+00 
3100 5.4624841970e+00 2.0173169697e-01 2.6685671632e+00 -4.6220939101e+00 2.6685671632e+00 4.6220939101e+00 
3200 5.4536019516e+00 1.9364280130e-01 2.6647882812e+00 -4.6155486945e+00 2.6647882812e+00 4.6155486945e+00 
3300 5.4449273884e+00 1.8564259809e-01 2.6611557462e+00 -4.6092569592e+00 2.6611557462e+00 4.6092569592e+00 
3400 5.4364617631e+00 1.7774275611e-01 2.6576685021e+00 -4.6032168754e+00 2.6576685021e+00 4.6032168754e+00 
3500 5.4282055467e+00 1.6995350524e-01 2.6543252440e+00 -4.5974261824e+00 2.6543252440e+00 4.5974261824e+00 
3600 5.4201585159e+00 1.6228376309e-01 2.6511244437e+00 -4.5918822337e+00 2.6511244437e+00 4.5918822337e+00 
3700 5.4123198421e+00 1.5474126013e-01 2.6480643742e+00 -4.5865820379e+00 2.6480643742e+00 4.5865820379e+00 
3800 5.4046881756e+00 1.4733265796e-01 2.6451431316e+00 -4.5815222971e+00 2.6451431316e+00 4.5815222971e+00 
3900 5.3972617250e+00 1.4006365836e-01 2.6423586551e+00 -4.5766994424e+00 2.6423586551e+00 4.5766994424e+00 
4000 5.3900383290e+00 1.3293910213e-01 2.6397087457e+00 -4.5721096647e+00 2.6397087457e+00 4.5721096647e+00 
4100 5.3830155219e+00 1.2596305777e-01 2.6371910826e+00 -4.5677489443e+00 2.6371910826e+00 4.5677489443e+00 
4200 5.3761905923e+00 1.1913890037e-01 2.6348032384e+00 -4.5636130768e+00 2.6348032384e+00 4.5636130768e+00 
4300 5.3695606335e+00 1.1246938147e-01 2.6325426930e+00 -4.5596976973e+00 2.6325426930e+00 4.5596976973e+00 
4400 5.3631225883e+00 1.0595669055e-01 2.6304068461e+00 -4.5559983021e+00 2.6304068461e+00 4.5559983021e+00 
4500 5.3568732866e+00 9.9602509103e-02 2.6283930292e+00 -4.5525102688e+00 2.6283930292e+00 4.5525102688e+00 
4600 5.3508094770e+00 9.3408058009e-02 2.6264985154e+00 -4.5492288747e+00 2.6264985154e+00 4.5492288747e+00 
4700 5.3449278527e+00 8.7374138997e-02 2.6247205302e+00 -4.5461493140e+00 2.6247205302e+00 4.5461493140e+00 
4800 5.3392250727e+00 8.1501170998e-02 2.6230562597e+00 -4.5432667130e+00 2.6230562597e+00 4.5432667130e+00 
4900 5.3336977778e+00 7.5789221999e-02 2.6215028595e+00 -4.5405761449e+00 2.6215028595e+00 4.5405761449e+00 
5000 5.3283426037e+00 7.0238037061e-02 2.6200574624e+00 -4.5380726437e+00 2.6200574624e+00 4.5380726437e+00 
5100 5.3231561891e+00 6.4847063053e-02 2.6187171856e+00 -4.5357512162e+00 2.6187171856e+00 4.5357512162e+00 
5200 5.3181351821e+00 5.9615470627e-02 2.6174791376e+00 -4.5336068542e+00 2.6174791376e+00 4.5336068542e+00 
5300 5.3132762437e+00 5.4542173882e-02 2.6163404247e+00 -4.5316345455e+00 2.6163404247e+00 4.5316345455e+00 
5400 5.3085760489e+00 4.9625848120e-02 2.6152981569e+00 -4.5298292846e+00 2.6152981569e+00 4.5298292846e+00 
5500 5.3040312868e+00 4.4864946069e-02 2.6143494534e+00 -4.5281860821e+00 2.6143494534e+00 4.5281860821e+00 
5600 5.2996386587e+00 4.0257712863e-02 2.6134914486e+00 -4.5266999741e+00 2.6134914486e+00 4.5266999741e+00 
5700 5.2953948763e+00 3.5802200057e-02 2.6127212962e+00 -4.5253660310e+00 2.6127212962e+00 4.5253660310e+00 
5800 5.2912966582e+00 3.1496278898e-02 2.6120361746e+00 -4.5241793656e+00 2.6120361746e+00 4.5241793656e+00 
5900 5.2873407274e+00 2.7337653056e-02 2.6114332911e+00 -4.5231351408e+00 2.6114332911e+00 4.5231351408e+00 
6000 5.2835238070e+00 2.3323870937e-02 2.6109098862e+00 -4.5222285770e+00 2.6109098862e+00 4.5222285770e+00 
6100 5.2798426183e+00 1.9452337739e-02 2.6104632372e+00 -4.5214549582e+00 2.6104632372e+00 4.5214549582e+00 
6200 5.2762938769e+00 1.5720327306e-02 2.6100906621e+00 -4.5208096391e+00 2.6100906621e+00 4.5208096391e+00 
6300 5.2728742912e+00 1.2124993880e-02 2.6097895226e+00 -4.5202880503e+00 2.6097895226e+00 4.5202880503e+00 
6400 5.2695805603e+00 8.6633837628e-03 2.6095572278e+00 -4.5198857038e+00 2.6095572278e+00 4.5198857038e+00 
6500 5.2664093731e+00 5.3324469335e-03 2.6093912362e+00 -4.5195981979e+00 2.6093912362e+00 4.5195981979e+00 
6600 5.2633574076e+00 2.1290486098e-03 2.6092890589e+00 -4.5194212216e+00 2.6092890589e+00 4.5194212216e+00 
6700 5.2604213319e+00 -9.5001924854e-04 2.6092482615e+00 -4.5193505584e+00 2.6092482615e+00 4.5193505584e+00 
6800 5.2575978050e+00 -3.9080265221e-03 2.6092664663e+00 -4.5193820902e+00 2.6092664663e+00 4.5193820902e+00 
6900 5.2548834787e+00 -6.7482936314e-03 2.6093413542e+00 -4.5195117997e+00 2.6093413542e+00 4.5195117997e+00 
7000 5.2522750001e+00 -9.4741803955e-03 2.6094706655e+00 -4.5197357735e+00 2.6094706655e+00 4.5197357735e+00 
7100 5.2497690153e+00 -1.2089075094e-02 2.6096522021e+00 -4.5200502042e+00 2.6096522021e+00 4.5200502042e+00 
7200 5.2473621727e+00 -1.4596383784e-02 2.6098838279e+00 -4.5204513918e+00 2.6098838279e+00 4.5204513918e+00 
7300 5.2450511279e+00 -1.6999519914e-02 2.6101634696e+00 -4.5209357453e+00 2.6101634696e+00 4.5209357453e+00 
7400 5.2428325481e+00 -1.9301894298e-02 2.6104891172e+00 -4.5214997837e+00 2.6104891172e+00 4.5214997837e+00 
7500 5.2407031174e+00 -2.1506905484e-02 2.6108588248e+00 -4.5221401359e+00 2.6108588248e+00 4.5221401359e+00 
7600 5.2386595426e+00 -2.3617930562e-02 2.6112707098e+00 -4.5228535416e+00 2.6112707098e+00 4.5228535416e+00 
7700 5.2366985585e+00 -2.5638316465e-02 2.6117229534e+00 -4.5236368506e+00 2.6117229534e+00 4.5236368506e+00 
7800 5.2348169338e+00 -2.7571371781e-02 2.6122138002e+00 -4.5244870223e+00 2.6122138002e+00 4.5244870223e+00 
7900 5.2330114770e+00 -2.9420359115e-02 2.6127415576e+00 -4.5254011248e+00 2.6127415576e+00 4.5254011248e+00 
8000 5.2312790419e+00 -3.1188488025e-02 2.6133045948e+00 -4.5263763339e+00 2.6133045948e+00 4.5263763339e+00 
8100 5.2296165337e+00 -3.2878908540e-02 2.6139013426e+00 -4.5274099314e+00 2.6139013426e+00 4.5274099314e+00 
8200 5.2280209140e+00 -3.4494705291e-02 2.6145302919e+00 -4.5284993035e+00 2.6145302919e+00 4.5284993035e+00 
8300 5.2264892061e+00 -3.6038892236e-02 2.6151899927e+00 -4.5296419388e+00 2.6151899927e+00 4.5296419388e+00 
8400 5.2250185002e+00 -3.7514408002e-02 2.6158790530e+00 -4.5308354263e+00 2.6158790530e+00 4.5308354263e+00 
8500 5.2236059574e+00 -3.8924111824e-02 2.6165961374e+00 -4.5320774529e+00 2.6165961374e+00 4.5320774529e+00 
8600 5.2222488144e+00 -4.0270780072e-02 2.6173399656e+00 -4.5333658010e+00 2.6173399656e+00 4.5333658010e+00 
8700 5.2209443868e+00 -4.1557103364e-02 2.6181093106e+00 -4.5346983458e+00 2.6181093106e+00 4.5346983458e+00 
8800 5.2196900725e+00 -4.2785684230e-02 2.6189029979e+00 -4.5360730525e+00 2.6189029979e+00 4.5360730525e+00 
8900 5.2184833550e+00 -4.3959035313e-02 2.6197199031e+00 -4.5374879738e+00 2.6197199031e+00 4.5374879738e+00 
9000 5.2173218048e+00 -4.5079578082e-02 2.6205589504e+00 -4.5389412464e+00 2.6205589504e+00 4.5389412464e+00 
9100 5.2162030823e+00 -4.6149642032e-02 2.6214191113e+00 -4.5404310887e+00 2.6214191113e+00 4.5404310887e+00 
9200 5.2151249386e+00 -4.7171464331e-02 2.6222994021e+00 -4.5419557971e+00 2.6222994021e+00 4.5419557971e+00 
9300 5.2140852167e+00 -4.8147189897e-02 2.6231988829e+00 -4.5435137436e+00 2.6231988829e+00 4.5435137436e+00 
9400 5.2130818520e+00 -4.9078871866e-02 2.6241166554e+00 -4.5451033722e+00 2.6241166554e+00 4.5451033722e+00 
9500 5.2121128727e+00 -4.9968472418e-02 2.6250518613e+00 -4.5467231963e+00 2.6250518613e+00 4.5467231963e+00 
9600 5.2111763989e+00 -5.0817863936e-02 2.6260036804e+00 -4.5483717953e+00 2.6260036804e+00 4.5483717953e+00 
9700 5.2102706424e+00 -5.1628830452e-02 2.6269713292e+00 -4.5500478121e+00 2.6269713292e+00 4.5500478121e+00 
9800 5.2093939056e+00 -5.2403069367e-02 2.6279540587e+00 -4.5517499497e+00 2.6279540587e+00 4.5517499497e+00 
9900 5.2085445801e+00 -5.3142193400e-02 2.6289511534e+00 -4.5534769684e+00 2.6289511534e+00 4.5534769684e+00 
10000 5.2077211450e+00 -5.3847732741e-02 2.6299619291e+00 -4.5552276832e+00 2.6299619291e+00 4.5552276832e+00 
10100 5.2069221652e+00 -5.4521137379e-02 2.6309857315e+00 -4.5570009609e+00 2.6309857315e+00 4.5570009609e+00 
10200 5.2061462887e+00 -5.5163779585e-02 2.6320219346e+00 -4.5587957174e+00 2.6320219346e+00 4.5587957174e+00 
10300 5.2053922451e+00 -5.5776956503e-02 2.6330699395e+00 -4.5606109152e+00 2.6330699395e+00 4.5606109152e+00 
10400 5.2046588420e+00 -5.6361892859e-02 2.6341291726e+00 -4.5624455607e+00 2.6341291726e+00 4.5624455607e+00 
10500 5.2039449633e+00 -5.6919743728e-02 2.6351990842e+00 -4.5642987019e+00 2.6351990842e+00 4.5642987019e+00 
10600 5.2032495656e+00 -5.7451597362e-02 2.6362791474e+00 -4.5661694262e+00 2.6362791474e+00 4.5661694262e+00 
10700 5.2025716757e+00 -5.7958478063e-02 2.6373688566e+00 -4.5680568579e+00 2.6373688566e+00 4.5680568579e+00 
10800 5.2019103873e+00 -5.8441349053e-02 2.6384677264e+00 -4.5699601563e+00 2.6384677264e+00 4.5699601563e+00 
10900 5.2012648584e+00 -5.8901115366e-02 2.6395752904e+00 -4.5718785133e+00 2.6395752904e+00 4.5718785133e+00 
11000 5.2006343075e+00 -5.9338626713e-02 2.6406910999e+00 -4.5738111521e+00 2.6406910999e+00 4.5738111521e+00 
11100 5.2000180112e+00 -5.9754680324e-02 2.6418147230e+00 -4.5757573244e+00 2.6418147230e+00 4.5757573244e+00 
11200 5.1994153006e+00 -6.0150023757e-02 2.6429457437e+00 -4.5777163097e+00 2.6429457437e+00 4.5777163097e+00 
11300 5.1988255584e+00 -6.0525357651e-02 2.6440837606e+00 -4.5796874128e+00 2.6440837606e+00 4.5796874128e+00 
11400 5.1982482161e+00 -6.0881338425e-02 2.6452283862e+00 -4.5816699626e+00 2.6452283862e+00 4.5816699626e+00 
11500 5.1976827505e+00 -6.1218580912e-02 2.6463792462e+00 -4.5836633106e+00 2.6463792462e+00 4.5836633106e+00 
11600 5.1971286812e+00 -6.1537660919e-02 2.6475359784e+00 -4.5856668294e+00 2.6475359784e+00 4.5856668294e+00 
11700 5.1965855678e+00 -6.1839117712e-02 2.6486982319e+00 -4.5876799116e+00 2.6486982319e+00 4.5876799116e+00 
11800 5.1960530068e+00 -6.2123456418e-02 2.6498656669e+00 -4.5897019683e+00 2.6498656669e+00 4.5897019683e+00 
11900 5.1955306290e+00 -6.2391150337e-02 2.6510379534e+00 -4.5917324280e+00 2.6510379534e+00 4.5917324280e+00 
12000 5.1950180974e+00 -6.2642643173e-02 2.6522147710e+00 -4.5937707360e+00 2.6522147710e+00 4.5937707360e+00 
12100 5.1945151040e+00 -6.2878351169e-02 2.6533958083e+00 -4.5958163525e+00 2.6533958083e+00 4.5958163525e+00 
12200 5.1940213680e+00 -6.3098665151e-02 2.6545807621e+00 -4.5978687527e+00 2.6545807621e+00 4.5978687527e+00 
12300 5.1935366334e+00 -6.3303952480e-02 2.6557693372e+00 -4.5999274251e+00 2.6557693372e+00 4.5999274251e+00 
12400 5.1930606667e+00 -6.3494558910e-02 2.6569612457e+00 -4.6019918714e+00 2.6569612457e+00 4.6019918714e+00 
12500 5.1925932551e+00 -6.3670810357e-02 2.6581562070e+00 -4.6040616050e+00 2.6581562070e+00 4.6040616050e+00 
12600 5.1921342044e+00 -6.3833014569e-02 2.6593539468e+00 -4.6061361512e+00 2.6593539468e+00 4.6061361512e+00 
12700 5.1916833372e+00 -6.3981462713e-02 2.6605541972e+00 -4.6082150459e+00 2.6605541972e+00 4.6082150459e+00 
12800 5.1912404915e+00 -6.4116430867e-02 2.6617566963e+00 -4.6102978354e+00 2.6617566963e+00 4.6102978354e+00 
12900 5.1908055185e+00 -6.4238181433e-02 2.6629611878e+00 -4.6123840758e+00 2.6629611878e+00 4.6123840758e+00 
13000 5.1903782819e+00 -6.4346964451e-02 2.6641674207e+00 -4.6144733325e+00 2.6641674207e+00 4.6144733325e+00 
13100 5.1899586557e+00 -6.4443018845e-02 2.6653751493e+00 -4.6165651798e+00 2.6653751493e+00 4.6165651798e+00 
13200 5.1895465238e+00 -6.4526573578e-02 2.6665841327e+00 -4.6186592005e+00 2.6665841327e+00 4.6186592005e+00 
13300 5.1891417779e+00 -6.4597848736e-02 2.6677941349e+00 -4.6207549857e+00 2.6677941349e+00 4.6207549857e+00 
13400 5.1887443170e+00 -6.4657056530e-02 2.6690049242e+00 -4.6228521343e+00 2.6690049242e+00 4.6228521343e+00 
13500 5.1883540463e+00 -6.4704402228e-02 2.6702162735e+00 -4.6249502528e+00 2.6702162735e+00 4.6249502528e+00 
13600 5.1879708762e+00 -6.4740085024e-02 2.6714279598e+00 -4.6270489552e+00 2.6714279598e+00 4.6270489552e+00 
13700 5.1875947215e+00 -6.4764298829e-02 2.6726397645e+00 -4.6291478624e+00 2.6726397645e+00 4.6291478624e+00 
13800 5.1872255006e+00 -6.4777233007e-02 2.6738514727e+00 -4.6312466026e+00 2.6738514727e+00 4.6312466026e+00 
13900 5.1868631349e+00 -6.4779073042e-02 2.6750628736e+00 -4.6333448105e+00 2.6750628736e+00 4.6333448105e+00 
14000 5.1865075480e+00 -6.4770001156e-02 2.6762737602e+00 -4.6354421277e+00 2.6762737602e+00 4.6354421277e+00 
14100 5.1861586655e+00 -6.4750196866e-02 2.6774839294e+00 -4.6375382022e+00 2.6774839294e+00 4.6375382022e+00 
14200 5.1858164140e+00 -6.4719837484e-02 2.6786931816e+00 -4.6396326885e+00 2.6786931816e+00 4.6396326885e+00 
14300 5.1854807214e+00 -6.4679098581e-02 2.6799013211e+00 -4.6417252474e+00 2.6799013211e+00 4.6417252474e+00 
14400 5.1851515156e+00 -6.4628154389e-02 2.6811081557e+00 -4.6438155462e+00 2.6811081557e+00 4.6438155462e+00 
14500 5.1848287249e+00 -6.4567178167e-02 2.6823134967e+00 -4.6459032581e+00 2.6823134967e+00 4.6459032581e+00 
14600 5.1845122777e+00 -6.4496342524e-02 2.6835171592e+00 -4.6479880628e+00 2.6835171592e+00 4.6479880628e+00 
14700 5.1842021016e+00 -6.4415819701e-02 2.6847189618e+00 -4.6500696458e+00 2.6847189618e+00 4.6500696458e+00 
14800 5.1838981239e+00 -6.4325781815e-02 2.6859187264e+00 -4.6521476990e+00 2.6859187264e+00 4.6521476990e+00 
14900 5.1836002712e+00 -6.4226401074e-02 2.6871162786e+00 -4.6542219204e+00 2.6871162786e+00 4.6542219204e+00 
15000 5.1833084692e+00 -6.4117849952e-02 2.6883114476e+00 -4.6562920137e+00 2.6883114476e+00 4.6562920137e+00 
15100 5.1830226427e+00 -6.4000301339e-02 2.6895040658e+00 -4.6583576892e+00 2.6895040658e+00 4.6583576892e+00 
15200 5.1827427154e+00 -6.3873928663e-02 2.6906939696e+00 -4.6604186629e+00 2.6906939696e+00 4.6604186629e+00 
15300 5.1824686101e+00 -6.3738905982e-02 2.6918809983e+00 -4.6624746570e+00 2.6918809983e+00 4.6624746570e+00 
15400 5.1822002484e+00 -6.3595408053e-02 2.6930649953e+00 -4.6645253999e+00 2.6930649953e+00 4.6645253999e+00 
15500 5.1819375508e+00 -6.3443610385e-02 2.6942458070e+00 -4.6665706257e+00 2.6942458070e+00 4.6665706257e+00 
15600 5.1816804369e+00 -6.3283689262e-02 2.6954232836e+00 -4.6686100751e+00 2.6954232836e+00 4.6686100751e+00 
15700 5.1814288251e+00 -6.3115821753e-02 2.6965972788e+00 -4.6706434944e+00 2.6965972788e+00 4.6706434944e+00 
15800 5.1811826329e+00 -6.2940185703e-02 2.6977676498e+00 -4.6726706365e+00 2.6977676498e+00 4.6726706365e+00 
15900 5.1809417769e+00 -6.2756959707e-02 2.6989342573e+00 -4.6746912599e+00 2.6989342573e+00 4.6746912599e+00 
16000 5.1807061729e+00 -6.2566323074e-02 2.7000969656e+00 -4.6767051297e+00 2.7000969656e+00 4.6767051297e+00 
16100 5.1804757357e+00 -6.2368455775e-02 2.7012556424e+00 -4.6787120168e+00 2.7012556424e+00 4.6787120168e+00 
16200 5.1802503795e+00 -6.2163538375e-02 2.7024101591e+00 -4.6807116985e+00 2.7024101591e+00 4.6807116985e+00 
16300 5.1800300181e+00 -6.1951751967e-02 2.7035603906e+00 -4.6827039579e+00 2.7035603906e+00 4.6827039579e+00 
16400 5.1798145645e+00 -6.1733278083e-02 2.7047062153e+00 -4.6846885845e+00 2.7047062153e+00 4.6846885845e+00 
16500 5.1796039314e+00 -6.1508298605e-02 2.7058475152e+00 -4.6866653739e+00 2.7058475152e+00 4.6866653739e+00 
16600 5.1793980312e+00 -6.1276995667e-02 2.7069841758e+00 -4.6886341277e+00 2.7069841758e+00 4.6886341277e+00 
16700 5.1791967761e+00 -6.1039551552e-02 2.7081160860e+00 -4.6905946538e+00 2.7081160860e+00 4.6905946538e+00 
16800 5.1790000781e+00 -6.0796148583e-02 2.7092431386e+00 -4.6925467661e+00 2.7092431386e+00 4.6925467661e+00 
16900 5.1788078494e+00 -6.0546969005e-02 2.7103652295e+00 -4.6944902846e+00 2.7103652295e+00 4.6944902846e+00 
17000 5.1786200020e+00 -6.0292194876e-02 2.7114822584e+00 -4.6964250354e+00 2.7114822584e+00 4.6964250354e+00 
17100 5.1784364483e+00 -6.0032007942e-02 2.7125941284e+00 -4.6983508507e+00 2.7125941284e+00 4.6983508507e+00 
17200 5.1782571010e+00 -5.9766589515e-02 2.7137007460e+00 -4.7002675686e+00 2.7137007460e+00 4.7002675686e+00 
17300 5.1780818730e+00 -5.9496120356e-02 2.7148020212e+00 -4.7021750333e+00 2.7148020212e+00 4.7021750333e+00 
17400 5.1779106779e+00 -5.9220780544e-02 2.7158978677e+00 -4.7040730950e+00 2.7158978677e+00 4.7040730950e+00 
17500 5.1777434297e+00 -5.8940749359e-02 2.7169882021e+00 -4.7059616096e+00 2.7169882021e+00 4.7059616096e+00 
17600 5.1775800432e+00 -5.8656205156e-02 2.7180729450e+00 -4.7078404393e+00 2.7180729450e+00 4.7078404393e+00 
17700 5.1774204338e+00 -5.8367325242e-02 2.7191520198e+00 -4.7097094519e+00 2.7191520198e+00 4.7097094519e+00 
17800 5.1772645177e+00 -5.8074285759e-02 2.7202253538e+00 -4.7115685208e+00 2.7202253538e+00 4.7115685208e+00 
17900 5.1771122123e+00 -5.7777261561e-02 2.7212928771e+00 -4.7134175255e+00 2.7212928771e+00 4.7134175255e+00 
18000 5.1769634354e+00 -5.7476426099e-02 2.7223545236e+00 -4.7152563510e+00 2.7223545236e+00 4.7152563510e+00 
18100 5.1768181063e+00 -5.7171951308e-02 2.7234102299e+00 -4.7170848881e+00 2.7234102299e+00 4.7170848881e+00 
18200 5.1766761452e+00 -5.6864007496e-02 2.7244599363e+00 -4.7189030329e+00 2.7244599363e+00 4.7189030329e+00 
18300 5.1765374734e+00 -5.6552763233e-02 2.7255035860e+00 -4.7207106872e+00 2.7255035860e+00 4.7207106872e+00 
18400 5.1764020134e+00 -5.6238385250e-02 2.7265411255e+00 -4.7225077582e+00 2.7265411255e+00 4.7225077582e+00 
18500 5.1762696889e+00 -5.5921038334e-02 2.7275725042e+00 -4.7242941585e+00 2.7275725042e+00 4.7242941585e+00 
18600 5.1761404250e+00 -5.5600885236e-02 2.7285976747e+00 -4.7260698060e+00 2.7285976747e+00 4.7260698060e+00 
18700 5.1760141479e+00 -5.5278086574e-02 2.7296165927e+00 -4.7278346237e+00 2.7296165927e+00 4.7278346237e+00 
18800 5.1758907854e+00 -5.4952800745e-02 2.7306292166e+00 -4.7295885398e+00 2.7306292166e+00 4.7295885398e+00 
18900 5.1757702664e+00 -5.4625183844e-02 2.7316355080e+00 -4.7313314877e+00 2.7316355080e+00 4.7313314877e+00 
19000 5.1756525213e+00 -5.4295389577e-02 2.7326354313e+00 -4.7330634055e+00 2.7326354313e+00 4.7330634055e+00 
19100 5.1755374819e+00 -5.3963569193e-02 2.7336289534e+00 -4.7347842364e+00 2.7336289534e+00 4.7347842364e+00 
19200 5.1754250815e+00 -5.3629871407e-02 2.7346160445e+00 -4.7364939283e+00 2.7346160445e+00 4.7364939283e+00 
19300 5.1753152546e+00 -5.3294442338e-02 2.7355966772e+00 -4.7381924339e+00 2.7355966772e+00 4.7381924339e+00 
19400 5.1752079375e+00 -5.2957425445e-02 2.7365708267e+00 -4.7398797103e+00 2.7365708267e+00 4.7398797103e+00 
19500 5.1751030676e+00 -5.2618961473e-02 2.7375384710e+00 -4.7415557195e+00 2.7375384710e+00 4.7415557195e+00 
19600 5.1750005840e+00 -5.2279188396e-02 2.7384995907e+00 -4.7432204275e+00 2.7384995907e+00 4.7432204275e+00 
19700 5.1749004270e+00 -5.1938241376e-02 2.7394541686e+00 -4.7448738050e+00 2.7394541686e+00 4.7448738050e+00 
19800 5.1748025386e+00 -5.1596252716e-02 2.7404021902e+00 -4.7465158266e+00 2.7404021902e+00 4.7465158266e+00 
19900 5.1747068621e+00 -5.1253351821e-02 2.7413436433e+00 -4.7481464713e+00 2.7413436433e+00 4.7481464713e+00 
20000 5.1746133422e+00 -5.0909665170e-02 2.7422785182e+00 -4.7497657220e+00 2.7422785182e+00 4.7497657220e+00 
20100 5.1745219250e+00 -5.0565316281e-02 2.7432068071e+00 -4.7513735656e+00 2.7432068071e+00 4.7513735656e+00 
20200 5.1744325582e+00 -5.0220425691e-02 2.7441285048e+00 -4.7529699928e+00 2.7441285048e+00 4.7529699928e+00 
20300 5.1743451905e+00 -4.9875110934e-02 2.7450436080e+00 -4.7545549981e+00 2.7450436080e+00 4.7545549981e+00 
20400 5.1742597724e+00 -4.9529486526e-02 2.7459521156e+00 -4.7561285794e+00 2.7459521156e+00 4.7561285794e+00 
20500 5.1741762555e+00 -4.9183663953e-02 2.7468540286e+00 -4.7576907385e+00 2.7468540286e+00 4.7576907385e+00 
20600 5.1740945926e+00 -4.8837751665e-02 2.7477493498e+00 -4.7592414804e+00 2.7477493498e+00 4.7592414804e+00 
20700 5.1740147381e+00 -4.8491855070e-02 2.7486380842e+00 -4.7607808134e+00 2.7486380842e+00 4.7607808134e+00 
20800 5.1739366473e+00 -4.8146076538e-02 2.7495202383e+00 -4.7623087491e+00 2.7495202383e+00 4.7623087491e+00 
20900 5.1738602773e+00 -4.7800515402e-02 2.7503958207e+00 -4.7638253024e+00 2.7503958207e+00 4.7638253024e+00 
21000 5.1737855857e+00 -4.7455267969e-02 2.7512648416e+00 -4.7653304908e+00 2.7512648416e+00 4.7653304908e+00 
21100 5.1737125320e+00 -4.7110427530e-02 2.7521273131e+00 -4.7668243351e+00 2.7521273131e+00 4.7668243351e+00 
21200 5.1736410763e+00 -4.6766084373e-02 2.7529832486e+00 -4.7683068589e+00 2.7529832486e+00 4.7683068589e+00 
21300 5.1735711802e+00 -4.6422325806e-02 2.7538326632e+00 -4.7697780883e+00 2.7538326632e+00 4.7697780883e+00 
21400 5.1735028062e+00 -4.6079236173e-02 2.7546755738e+00 -4.7712380522e+00 2.7546755738e+00 4.7712380522e+00 
21500 5.1734359180e+00 -4.5736896882e-02 2.7555119984e+00 -4.7726867821e+00 2.7555119984e+00 4.7726867821e+00 
21600 5.1733704804e+00 -4.5395386429e-02 2.7563419565e+00 -4.7741243117e+00 2.7563419565e+00 4.7741243117e+00 
21700 5.1733064589e+00 -4.5054780431e-02 2.7571654691e+00 -4.7755506774e+00 2.7571654691e+00 4.7755506774e+00 
21800 5.1732438204e+00 -4.4715151655e-02 2.7579825584e+00 -4.7769659175e+00 2.7579825584e+00 4.7769659175e+00 
21900 5.1731825325e+00 -4.4376570056e-02 2.7587932477e+00 -4.7783700726e+00 2.7587932477e+00 4.7783700726e+00 
22000 5.1731225638e+00 -4.4039102811e-02 2.7595975618e+00 -4.7797631855e+00 2.7595975618e+00 4.7797631855e+00 
22100 5.1730638839e+00 -4.3702814360e-02 2.7603955264e+00 -4.7811453008e+00 2.7603955264e+00 4.7811453008e+00 
22200 5.1730064631e+00 -4.3367766446e-02 2.7611871685e+00 -4.7825164650e+00 2.7611871685e+00 4.7825164650e+00 
22300 5.1729502726e+00 -4.3034018158e-02 2.7619725158e+00 -4.7838767265e+00 2.7619725158e+00 4.7838767265e+00 
22400 5.1728952845e+00 -4.2701625975e-02 2.7627515975e+00 -4.7852261355e+00 2.7627515975e+00 4.7852261355e+00 
22500 5.1728414715e+00 -4.2370643815e-02 2.7635244432e+00 -4.7865647436e+00 2.7635244432e+00 4.7865647436e+00 
22600 5.1727888074e+00 -4.2041123080e-02 2.7642910838e+00 -4.7878926041e+00 2.7642910838e+00 4.7878926041e+00 
22700 5.1727372665e+00 -4.1713112704e-02 2.7650515509e+00 -4.7892097718e+00 2.7650515509e+00 4.7892097718e+00 
22800 5.1726868237e+00 -4.1386659205e-02 2.7658058770e+00 -4.7905163028e+00 2.7658058770e+00 4.7905163028e+00 
22900 5.1726374549e+00 -4.1061806737e-02 2.7665540952e+00 -4.7918122547e+00 2.7665540952e+00 4.7918122547e+00 
23000 5.1725891363e+00 -4.0738597139e-02 2.7672962394e+00 -4.7930976862e+00 2.7672962394e+00 4.7930976862e+00 
23100 5.1725418451e+00 -4.0417069991e-02 2.7680323442e+00 -4.7943726572e+00 2.7680323442e+00 4.7943726572e+00 
23200 5.1724955588e+00 -4.0097262664e-02 2.7687624449e+00 -4.7956372287e+00 2.7687624449e+00 4.7956372287e+00 
23300 5.1724502558e+00 -3.9779210378e-02 2.7694865773e+00 -4.7968914627e+00 2.7694865773e+00 4.7968914627e+00 
23400 5.1724059148e+00 -3.9462946254e-02 2.7702047777e+00 -4.7981354224e+00 2.7702047777e+00 4.7981354224e+00 
23500 5.1723625151e+00 -3.9148501368e-02 2.7709170831e+00 -4.7993691715e+00 2.7709170831e+00 4.7993691715e+00 
23600 5.1723200367e+00 -3.8835904811e-02 2.7716235309e+00 -4.8005927750e+00 2.7716235309e+00 4.8005927750e+00 
23700 5.1722784600e+00 -3.8525183738e-02 2.7723241589e+00 -4.8018062982e+00 2.7723241589e+00 4.8018062982e+00 
23800 5.1722377658e+00 -3.8216363427e-02 2.7730190053e+00 -4.8030098076e+00 2.7730190053e+00 4.8030098076e+00 
23900 5.1721979354e+00 -3.7909467337e-02 2.7737081089e+00 -4.8042033700e+00 2.7737081089e+00 4.8042033700e+00 
24000 5.1721589508e+00 -3.7604517155e-02 2.7743915086e+00 -4.8053870529e+00 2.7743915086e+00 4.8053870529e+00 
24100 5.1721207942e+00 -3.7301532861e-02 2.7750692436e+00 -4.8065609245e+00 2.7750692436e+00 4.8065609245e+00 
24200 5.1720834481e+00 -3.7000532774e-02 2.7757413537e+00 -4.8077250532e+00 2.7757413537e+00 4.8077250532e+00 
24300 5.1720468958e+00 -3.6701533613e-02 2.7764078785e+00 -4.8088795082e+00 2.7764078785e+00 4.8088795082e+00 
24400 5.1720111207e+00 -3.6404550547e-02 2.7770688583e+00 -4.8100243587e+00 2.7770688583e+00 4.8100243587e+00 
24500 5.1719761066e+00 -3.6109597252e-02 2.7777243333e+00 -4.8111596747e+00 2.7777243333e+00 4.8111596747e+00 
24600 5.1719418378e+00 -3.5816685960e-02 2.7783743439e+00 -4.8122855261e+00 2.7783743439e+00 4.8122855261e+00 
24700 5.1719082989e+00 -3.5525827513e-02 2.7790189307e+00 -4.8134019832e+00 2.7790189307e+00 4.8134019832e+00 
24800 5.1718754747e+00 -3.5237031417e-02 2.7796581345e+00 -4.8145091167e+00 2.7796581345e+00 4.8145091167e+00 
24900 5.1718433505e+00 -3.4950305889e-02 2.7802919961e+00 -4.8156069971e+00 2.7802919961e+00 4.8156069971e+00 
25000 5.1718119118e+00 -3.4665657911e-02 2.7809205564e+00 -4.8166956955e+00 2.7809205564e+00 4.8166956955e+00 
25100 5.1717811446e+00 -3.4383093277e-02 2.7815438563e+00 -4.8177752827e+00 2.7815438563e+00 4.8177752827e+00 
25200 5.1717510350e+00 -3.4102616643e-02 2.7821619369e+00 -4.8188458297e+00 2.7821619369e+00 4.8188458297e+00 
25300 5.1717215695e+00 -3.3824231572e-02 2.7827748392e+00 -4.8199074076e+00 2.7827748392e+00 4.8199074076e+00 
25400 5.1716927347e+00 -3.3547940586e-02 2.7833826042e+00 -4.8209600874e+00 2.7833826042e+00 4.8209600874e+00 
25500 5.1716645178e+00 -3.3273745205e-02 2.7839852729e+00 -4.8220039402e+00 2.7839852729e+00 4.8220039402e+00 
25600 5.1716369059e+00 -3.3001645999e-02 2.7845828863e+00 -4.8230390369e+00 2.7845828863e+00 4.8230390369e+00 
25700 5.1716098866e+00 -3.2731642626e-02 2.7851754852e+00 -4.8240654483e+00 2.7851754852e+00 4.8240654483e+00 
25800 5.1715834477e+00 -3.2463733879e-02 2.7857631105e+00 -4.8250832453e+00 2.7857631105e+00 4.8250832453e+00 
25900 5.1715575771e+00 -3.2197917724e-02 2.7863458030e+00 -4.8260924983e+00 2.7863458030e+00 4.8260924983e+00 
26000 5.1715322632e+00 -3.1934191345e-02 2.7869236033e+00 -4.8270932778e+00 2.7869236033e+00 4.8270932778e+00 
26100 5.1715074944e+00 -3.1672551180e-02 2.7874965520e+00 -4.8280856541e+00 2.7874965520e+00 4.8280856541e+00 
26200 5.1714832593e+00 -3.1412992962e-02 2.7880646896e+00 -4.8290696971e+00 2.7880646896e+00 4.8290696971e+00 
26300 5.1714595470e+00 -3.1155511754e-02 2.7886280562e+00 -4.8300454767e+00 2.7886280562e+00 4.8300454767e+00 
26400 5.1714363465e+00 -3.0900101989e-02 2.7891866920e+00 -4.8310130623e+00 2.7891866920e+00 4.8310130623e+00 
26500 5.1714136472e+00 -3.0646757502e-02 2.7897406371e+00 -4.8319725233e+00 2.7897406371e+00 4.8319725233e+00 
26600 5.1713914386e+00 -3.0395471567e-02 2.7902899312e+00 -4.8329239287e+00 2.7902899312e+00 4.8329239287e+00 
26700 5.1713697103e+00 -3.0146236929e-02 2.7908346140e+00 -4.8338673470e+00 2.7908346140e+00 4.8338673470e+00 
26800 5.1713484525e+00 -2.9899045833e-02 2.7913747250e+00 -4.8348028467e+00 2.7913747250e+00 4.8348028467e+00 
26900 5.1713276550e+00 -2.9653890060e-02 2.7919103034e+00 -4.8357304957e+00 2.7919103034e+00 4.8357304957e+00 
27000 5.1713073083e+00 -2.9410760956e-02 2.7924413884e+00 -4.8366503618e+00 2.7924413884e+00 4.8366503618e+00 
27100 5.1712874028e+00 -2.9169649457e-02 2.7929680187e+00 -4.8375625123e+00 2.7929680187e+00 4.8375625123e+00 
27200 5.1712679292e+00 -2.8930546121e-02 2.7934902330e+00 -4.8384670140e+00 2.7934902330e+00 4.8384670140e+00 
27300 5.1712488783e+00 -2.8693441152e-02 2.7940080698e+00 -4.8393639336e+00 2.7940080698e+00 4.8393639336e+00 
27400 5.1712302410e+00 -2.8458324428e-02 2.7945215672e+00 -4.8402533373e+00 2.7945215672e+00 4.8402533373e+00 
27500 5.1712120085e+00 -2.8225185524e-02 2.7950307633e+00 -4.8411352908e+00 2.7950307633e+00 4.8411352908e+00 
27600 5.1711941722e+00 -2.7994013736e-02 2.7955356958e+00 -4.8420098594e+00 2.7955356958e+00 4.8420098594e+00 
27700 5.1711767236e+00 -2.7764798104e-02 2.7960364021e+00 -4.8428771083e+00 2.7960364021e+00 4.8428771083e+00 
27800 5.1711596542e+00 -2.7537527433e-02 2.7965329196e+00 -4.8437371018e+00 2.7965329196e+00 4.8437371018e+00 
27900 5.1711429559e+00 -2.7312190316e-02 2.7970252853e+00 -4.8445899041e+00 2.7970252853e+00 4.8445899041e+00 
28000 5.1711266206e+00 -2.7088775149e-02 2.7975135359e+00 -4.8454355790e+00 2.7975135359e+00 4.8454355790e+00 
28100 5.1711106404e+00 -2.6867270157e-02 2.7979977079e+00 -4.8462741895e+00 2.7979977079e+00 4.8462741895e+00 
28200 5.1710950076e+00 -2.6647663405e-02 2.7984778376e+00 -4.8471057986e+00 2.7984778376e+00 4.8471057986e+00 
28300 5.1710797145e+00 -2.6429942819e-02 2.7989539611e+00 -4.8479304686e+00 2.7989539611e+00 4.8479304686e+00 
28400 5.1710647538e+00 -2.6214096202e-02 2.7994261140e+00 -4.8487482615e+00 2.7994261140e+00 4.8487482615e+00 
28500 5.1710501180e+00 -2.6000111250e-02 2.7998943319e+00 -4.8495592386e+00 2.7998943319e+00 4.8495592386e+00 
28600 5.1710357999e+00 -2.5787975563e-02 2.8003586499e+00 -4.8503634611e+00 2.8003586499e+00 4.8503634611e+00 
28700 5.1710217927e+00 -2.5577676663e-02 2.8008191031e+00 -4.8511609894e+00 2.8008191031e+00 4.8511609894e+00 
28800 5.1710080892e+00 -2.5369202006e-02 2.8012757262e+00 -4.8519518838e+00 2.8012757262e+00 4.8519518838e+00 
28900 5.1709946827e+00 -2.5162538993e-02 2.8017285535e+00 -4.8527362038e+00 2.8017285535e+00 4.8527362038e+00 
29000 5.1709815667e+00 -2.4957674984e-02 2.8021776194e+00 -4.8535140086e+00 2.8021776194e+00 4.8535140086e+00 
29100 5.1709687344e+00 -2.4754597306e-02 2.8026229576e+00 -4.8542853570e+00 2.8026229576e+00 4.8542853570e+00 
29200 5.1709561797e+00 -2.4553293265e-02 2.8030646019e+00 -4.8550503073e+00 2.8030646019e+00 4.8550503073e+00 
29300 5.1709438961e+00 -2.4353750157e-02 2.8035025856e+00 -4.8558089174e+00 2.8035025856e+00 4.8558089174e+00 
29400 5.1709318775e+00 -2.4155955275e-02 2.8039369418e+00 -4.8565612445e+00 2.8039369418e+00 4.8565612445e+00 
29500 5.1709201180e+00 -2.3959895917e-02 2.8043677036e+00 -4.8573073457e+00 2.8043677036e+00 4.8573073457e+00 
29600 5.1709086115e+00 -2.3765559396e-02 2.8047949033e+00 -4.8580472774e+00 2.8047949033e+00 4.8580472774e+00 
29700 5.1708973523e+00 -2.3572933045e-02 2.8052185735e+00 -4.8587810956e+00 2.8052185735e+00 4.8587810956e+00 
29800 5.1708863347e+00 -2.3382004225e-02 2.8056387461e+00 -4.8595088559e+00 2.8056387461e+00 4.8595088559e+00 
29900 5.1708755532e+00 -2.3192760333e-02 2.8060554530e+00 -4.8602306135e+00 2.8060554530e+00 4.8602306135e+00 
30000 5.1708650023e+00 -2.3005188804e-02 2.8064687259e+00 -4.8609464231e+00 2.8064687259e+00 4.8609464231e+00 
30100 5.1708546766e+00 -2.2819277118e-02 2.8068785959e+00 -4.8616563388e+00 2.8068785959e+00 4.8616563388e+00 
30200 5.1708445709e+00 -2.2635012807e-02 2.8072850942e+00 -4.8623604145e+00 2.8072850942e+00 4.8623604145e+00 
30300 5.1708346801e+00 -2.2452383454e-02 2.8076882516e+00 -4.8630587036e+00 2.8076882516e+00 4.8630587036e+00 
30400 5.1708249991e+00 -2.2271376704e-02 2.8080880986e+00 -4.8637512590e+00 2.8080880986e+00 4.8637512590e+00 
30500 5.1708155231e+00 -2.2091980262e-02 2.8084846656e+00 -4.8644381331e+00 2.8084846656e+00 4.8644381331e+00 
30600 5.1708062472e+00 -2.1914181898e-02 2.8088779826e+00 -4.8651193782e+00 2.8088779826e+00 4.8651193782e+00 
30700 5.1707971667e+00 -2.1737969453e-02 2.8092680795e+00 -4.8657950457e+00 2.8092680795e+00 4.8657950457e+00 
30800 5.1707882769e+00 -2.1563330835e-02 2.8096549857e+00 -4.8664651871e+00 2.8096549857e+00 4.8664651871e+00 
30900 5.1707795735e+00 -2.1390254029e-02 2.8100387308e+00 -4.8671298529e+00 2.8100387308e+00 4.8671298529e+00 
31000 5.1707710518e+00 -2.1218727090e-02 2.8104193436e+00 -4.8677890937e+00 2.8104193436e+00 4.8677890937e+00 
31100 5.1707627076e+00 -2.1048738155e-02 2.8107968531e+00 -4.8684429594e+00 2.8107968531e+00 4.8684429594e+00 
31200 5.1707545367e+00 -2.0880275437e-02 2.8111712880e+00 -4.8690914996e+00 2.8111712880e+00 4.8690914996e+00 
31300 5.1707465349e+00 -2.0713327227e-02 2.8115426765e+00 -4.8697347634e+00 2.8115426765e+00 4.8697347634e+00 
31400 5.1707386981e+00 -2.0547881898e-02 2.8119110469e+00 -4.8703727995e+00 2.8119110469e+00 4.8703727995e+00 
31500 5.1707310224e+00 -2.0383927905e-02 2.8122764270e+00 -4.8710056564e+00 2.8122764270e+00 4.8710056564e+00 
31600 5.1707235039e+00 -2.0221453782e-02 2.8126388445e+00 -4.8716333820e+00 2.8126388445e+00 4.8716333820e+00 
31700 5.1707161387e+00 -2.0060448147e-02 2.8129983269e+00 -4.8722560238e+00 2.8129983269e+00 4.8722560238e+00 
31800 5.1707089232e+00 -1.9900899700e-02 2.8133549015e+00 -4.8728736290e+00 2.8133549015e+00 4.8728736290e+00 
31900 5.1707018537e+00 -1.9742797223e-02 2.8137085951e+00 -4.8734862445e+00 2.8137085951e+00 4.8734862445e+00 
32000 5.1706949266e+00 -1.9586129579e-02 2.8140594347e+00 -4.8740939165e+00 2.8140594347e+00 4.8740939165e+00 
32100 5.1706881386e+00 -1.9430885716e-02 2.8144074468e+00 -4.8746966911e+00 2.8144074468e+00 4.8746966911e+00 
32200 5.1706814861e+00 -1.9277054660e-02 2.8147526577e+00 -4.8752946139e+00 2.8147526577e+00 4.8752946139e+00 
32300 5.1706749658e+00 -1.9124625522e-02 2.8150950936e+00 -4.8758877302e+00 2.8150950936e+00 4.8758877302e+00 
32400 5.1706685746e+00 -1.8973587489e-02 2.8154347803e+00 -4.8764760849e+00 2.8154347803e+00 4.8764760849e+00 
32500 5.1706623092e+00 -1.8823929831e-02 2.8157717437e+00 -4.8770597225e+00 2.8157717437e+00 4.8770597225e+00 
32600 5.1706561665e+00 -1.8675641897e-02 2.8161060091e+00 -4.8776386872e+00 2.8161060091e+00 4.8776386872e+00 
32700 5.1706501434e+00 -1.8528713112e-02 2.8164376019e+00 -4.8782130228e+00 2.8164376019e+00 4.8782130228e+00 
32800 5.1706442371e+00 -1.8383132982e-02 2.8167665471e+00 -4.8787827726e+00 2.8167665471e+00 4.8787827726e+00 
32900 5.1706384447e+00 -1.8238891085e-02 2.8170928696e+00 -4.8793479798e+00 2.8170928696e+00 4.8793479798e+00 
33000 5.1706327632e+00 -1.8095977079e-02 2.8174165941e+00 -4.8799086871e+00 2.8174165941e+00 4.8799086871e+00 
33100 5.1706271899e+00 -1.7954380693e-02 2.8177377451e+00 -4.8804649369e+00 2.8177377451e+00 4.8804649369e+00 
33200 5.1706217222e+00 -1.7814091731e-02 2.8180563467e+00 -4.8810167712e+00 2.8180563467e+00 4.8810167712e+00 
33300 5.1706163573e+00 -1.7675100069e-02 2.8183724232e+00 -4.8815642316e+00 2.8183724232e+00 4.8815642316e+00 
33400 5.1706110928e+00 -1.7537395653e-02 2.8186859983e+00 -4.8821073596e+00 2.8186859983e+00 4.8821073596e+00 
33500 5.1706059260e+00 -1.7400968501e-02 2.8189970957e+00 -4.8826461961e+00 2.8189970957e+00 4.8826461961e+00 
33600 5.1706008546e+00 -1.7265808698e-02 2.8193057389e+00 -4.8831807818e+00 2.8193057389e+00 4.8831807818e+00 
33700 5.1705958762e+00 -1.7131906397e-02 2.8196119512e+00 -4.8837111571e+00 2.8196119512e+00 4.8837111571e+00 
33800 5.1705909883e+00 -1.6999251818e-02 2.8199157557e+00 -4.8842373619e+00 2.8199157557e+00 4.8842373619e+00 
33900 5.1705861888e+00 -1.6867835247e-02 2.8202171752e+00 -4.8847594358e+00 2.8202171752e+00 4.8847594358e+00 
34000 5.1705814753e+00 -1.6737647032e-02 2.8205162325e+00 -4.8852774183e+00 2.8205162325e+00 4.8852774183e+00 
34100 5.1705768457e+00 -1.6608677587e-02 2.8208129502e+00 -4.8857913484e+00 2.8208129502e+00 4.8857913484e+00 
34200 5.1705722979e+00 -1.6480917385e-02 2.8211073506e+00 -4.8863012648e+00 2.8211073506e+00 4.8863012648e+00 
34300 5.1705678298e+00 -1.6354356961e-02 2.8213994558e+00 -4.8868072058e+00 2.8213994558e+00 4.8868072058e+00 
34400 5.1705634394e+00 -1.6228986910e-02 2.8216892878e+00 -4.8873092096e+00 2.8216892878e+00 4.8873092096e+00 
34500 5.1705591247e+00 -1.6104797886e-02 2.8219768684e+00 -4.8878073138e+00 2.8219768684e+00 4.8878073138e+00 
34600 5.1705548838e+00 -1.5981780599e-02 2.8222622192e+00 -4.8883015559e+00 2.8222622192e+00 4.8883015559e+00 
34700 5.1705507148e+00 -1.5859925817e-02 2.8225453617e+00 -4.8887919731e+00 2.8225453617e+00 4.8887919731e+00 
34800 5.1705466158e+00 -1.5739224363e-02 2.8228263171e+00 -4.8892786022e+00 2.8228263171e+00 4.8892786022e+00 
34900 5.1705425852e+00 -1.5619667114e-02 2.8231051066e+00 -4.8897614797e+00 2.8231051066e+00 4.8897614797e+00 
35000 5.1705386210e+00 -1.5501245001e-02 2.8233817509e+00 -4.8902406418e+00 2.8233817509e+00 4.8902406418e+00 
35100 5.1705347217e+00 -1.5383949008e-02 2.8236562710e+00 -4.8907161244e+00 2.8236562710e+00 4.8907161244e+00 
35200 5.1705308855e+00 -1.5267770171e-02 2.8239286872e+00 -4.8911879632e+00 2.8239286872e+00 4.8911879632e+00 
35300 5.1705271109e+00 -1.5152699577e-02 2.8241990200e+00 -4.8916561934e+00 2.8241990200e+00 4.8916561934e+00 
35400 5.1705233963e+00 -1.5038728361e-02 2.8244672897e+00 -4.8921208501e+00 2.8244672897e+00 4.8921208501e+00 
35500 5.1705197401e+00 -1.4925847711e-02 2.8247335163e+00 -4.8925819681e+00 2.8247335163e+00 4.8925819681e+00 
35600 5.1705161409e+00 -1.4814048861e-02 2.8249977196e+00 -4.8930395817e+00 2.8249977196e+00 4.8930395817e+00 
35700 5.1705125971e+00 -1.4703323094e-02 2.8252599195e+00 -4.8934937251e+00 2.8252599195e+00 4.8934937251e+00 
35800 5.1705091074e+00 -1.4593661739e-02 2.8255201353e+00 -4.8939444322e+00 2.8255201353e+00 4.8939444322e+00 
35900 5.1705056703e+00 -1.4485056174e-02 2.8257783866e+00 -4.8943917365e+00 2.8257783866e+00 4.8943917365e+00 
36000 5.1705022845e+00 -1.4377497821e-02 2.8260346925e+00 -4.8948356714e+00 2.8260346925e+00 4.8948356714e+00 
36100 5.1704989487e+00 -1.4270978148e-02 2.8262890722e+00 -4.8952762699e+00 2.8262890722e+00 4.8952762699e+00 
36200 5.1704956616e+00 -1.4165488668e-02 2.8265415444e+00 -4.8957135646e+00 2.8265415444e+00 4.8957135646e+00 
36300 5.1704924220e+00 -1.4061020938e-02 2.8267921280e+00 -4.8961475881e+00 2.8267921280e+00 4.8961475881e+00 
36400 5.1704892286e+00 -1.3957566560e-02 2.8270408415e+00 -4.8965783725e+00 2.8270408415e+00 4.8965783725e+00 
36500 5.1704860802e+00 -1.3855117178e-02 2.8272877033e+00 -4.8970059497e+00 2.8272877033e+00 4.8970059497e+00 
36600 5.1704829756e+00 -1.3753664480e-02 2.8275327317e+00 -4.8974303514e+00 2.8275327317e+00 4.8974303514e+00 
36700 5.1704799139e+00 -1.3653200197e-02 2.8277759449e+00 -4.8978516089e+00 2.8277759449e+00 4.8978516089e+00 
36800 5.1704768937e+00 -1.3553716102e-02 2.8280173606e+00 -4.8982697533e+00 2.8280173606e+00 4.8982697533e+00 
36900 5.1704739141e+00 -1.3455204009e-02 2.8282569969e+00 -4.8986848154e+00 2.8282569969e+00 4.8986848154e+00 
37000 5.1704709741e+00 -1.3357655775e-02 2.8284948711e+00 -4.8990968258e+00 2.8284948711e+00 4.8990968258e+00 
37100 5.1704680725e+00 -1.3261063299e-02 2.8287310010e+00 -4.8995058147e+00 2.8287310010e+00 4.8995058147e+00 
37200 5.1704652085e+00 -1.3165418519e-02 2.8289654037e+00 -4.8999118121e+00 2.8289654037e+00 4.8999118121e+00 
37300 5.1704623810e+00 -1.3070713417e-02 2.8291980966e+00 -4.9003148479e+00 2.8291980966e+00 4.9003148479e+00 
37400 5.1704595891e+00 -1.2976940014e-02 2.8294290965e+00 -4.9007149516e+00 2.8294290965e+00 4.9007149516e+00 
37500 5.1704568319e+00 -1.2884090372e-02 2.8296584204e+00 -4.9011121522e+00 2.8296584204e+00 4.9011121522e+00 
37600 5.1704541085e+00 -1.2792156593e-02 2.8298860851e+00 -4.9015064790e+00 2.8298860851e+00 4.9015064790e+00 
37700 5.1704514180e+00 -1.2701130821e-02 2.8301121070e+00 -4.9018979604e+00 2.8301121070e+00 4.9018979604e+00 
37800 5.1704487596e+00 -1.2611005240e-02 2.8303365027e+00 -4.9022866252e+00 2.8303365027e+00 4.9022866252e+00 
37900 5.1704461325e+00 -1.2521772072e-02 2.8305592884e+00 -4.9026725013e+00 2.8305592884e+00 4.9026725013e+00 
38000 5.1704435358e+00 -1.2433423583e-02 2.8307804803e+00 -4.9030556169e+00 2.8307804803e+00 4.9030556169e+00 
38100 5.1704409689e+00 -1.2345952077e-02 2.8310000943e+00 -4.9034359996e+00 2.8310000943e+00 4.9034359996e+00 
38200 5.1704384308e+00 -1.2259349898e-02 2.8312181465e+00 -4.9038136770e+00 2.8312181465e+00 4.9038136770e+00 
38300 5.1704359209e+00 -1.2173609430e-02 2.8314346523e+00 -4.9041886761e+00 2.8314346523e+00 4.9041886761e+00 
38400 5.1704334384e+00 -1.2088723100e-02 2.8316496275e+00 -4.9045610240e+00 2.8316496275e+00 4.9045610240e+00 
38500 5.1704309827e+00 -1.2004683371e-02 2.8318630874e+00 -4.9049307475e+00 2.8318630874e+00 4.9049307475e+00 
38600 5.1704285531e+00 -1.1921482750e-02 2.8320750474e+00 -4.9052978730e+00 2.8320750474e+00 4.9052978730e+00 
38700 5.1704261489e+00 -1.1839113781e-02 2.8322855226e+00 -4.9056624267e+00 2.8322855226e+00 4.9056624267e+00 
38800 5.1704237695e+00 -1.1757569052e-02 2.8324945280e+00 -4.9060244346e+00 2.8324945280e+00 4.9060244346e+00 
38900 5.1704214142e+00 -1.1676841189e-02 2.8327020785e+00 -4.9063839226e+00 2.8327020785e+00 4.9063839226e+00 
39000 5.1704190824e+00 -1.1596922858e-02 2.8329081888e+00 -4.9067409162e+00 2.8329081888e+00 4.9067409162e+00 
39100 5.1704167735e+00 -1.1517806768e-02 2.8331128736e+00 -4.9070954406e+00 2.8331128736e+00 4.9070954406e+00 
39200 5.1704144870e+00 -1.1439485666e-02 2.8333161472e+00 -4.9074475209e+00 2.8333161472e+00 4.9074475209e+00 
39300 5.1704122222e+00 -1.1361952343e-02 2.8335180241e+00 -4.9077971819e+00 2.8335180241e+00 4.9077971819e+00 
39400 5.1704099787e+00 -1.1285199628e-02 2.8337185185e+00 -4.9081444483e+00 2.8337185185e+00 4.9081444483e+00 
39500 5.1704077559e+00 -1.1209220393e-02 2.8339176443e+00 -4.9084893444e+00 2.8339176443e+00 4.9084893444e+00 
39600 5.1704055532e+00 -1.1134007549e-02 2.8341154156e+00 -4.9088318943e+00 2.8341154156e+00 4.9088318943e+00 
39700 5.1704033702e+00 -1.1059554051e-02 2.8343118461e+00 -4.9091721220e+00 2.8343118461e+00 4.9091721220e+00 
39800 5.1704012064e+00 -1.0985852893e-02 2.8345069496e+00 -4.9095100511e+00 2.8345069496e+00 4.9095100511e+00 
39900 5.1703990613e+00 -1.0912897112e-02 2.8347007395e+00 -4.9098457051e+00 2.8347007395e+00 4.9098457051e+00 
40000 5.1703969345e+00 -1.0840679786e-02 2.8348932293e+00 -4.9101791072e+00 2.8348932293e+00 4.9101791072e+00 
40100 5.1703948254e+00 -1.0769194035e-02 2.8350844323e+00 -4.9105102805e+00 2.8350844323e+00 4.9105102805e+00 
40200 5.1703927336e+00 -1.0698433020e-02 2.8352743617e+00 -4.9108392478e+00 2.8352743617e+00 4.9108392478e+00 
40300 5.1703906588e+00 -1.0628389945e-02 2.8354630304e+00 -4.9111660316e+00 2.8354630304e+00 4.9111660316e+00 
40400 5.1703886004e+00 -1.0559058057e-02 2.8356504514e+00 -4.9114906543e+00 2.8356504514e+00 4.9114906543e+00 
40500 5.1703865581e+00 -1.0490430644e-02 2.8358366375e+00 -4.9118131381e+00 2.8358366375e+00 4.9118131381e+00 
40600 5.1703845316e+00 -1.0422501035e-02 2.8360216013e+00 -4.9121335049e+00 2.8360216013e+00 4.9121335049e+00 
40700 5.1703825203e+00 -1.0355262604e-02 2.8362053555e+00 -4.9124517764e+00 2.8362053555e+00 4.9124517764e+00 
40800 5.1703805240e+00 -1.0288708768e-02 2.8363879123e+00 -4.9127679741e+00 2.8363879123e+00 4.9127679741e+00 
40900 5.1703785422e+00 -1.0222832983e-02 2.8365692842e+00 -4.9130821193e+00 2.8365692842e+00 4.9130821193e+00 
41000 5.1703765746e+00 -1.0157628752e-02 2.8367494832e+00 -4.9133942332e+00 2.8367494832e+00 4.9133942332e+00 
41100 5.1703746210e+00 -1.0093089618e-02 2.8369285215e+00 -4.9137043366e+00 2.8369285215e+00 4.9137043366e+00 
41200 5.1703726808e+00 -1.0029209169e-02 2.8371064110e+00 -4.9140124503e+00 2.8371064110e+00 4.9140124503e+00 
41300 5.1703707539e+00 -9.9659810349e-03 2.8372831635e+00 -4.9143185946e+00 2.8372831635e+00 4.9143185946e+00 
41400 5.1703688399e+00 -9.9033988895e-03 2.8374587907e+00 -4.9146227899e+00 2.8374587907e+00 4.9146227899e+00 
41500 5.1703669385e+00 -9.8414564495e-03 2.8376333043e+00 -4.9149250562e+00 2.8376333043e+00 4.9149250562e+00 
41600 5.1703650494e+00 -9.7801474752e-03 2.8378067156e+00 -4.9152254135e+00 2.8378067156e+00 4.9152254135e+00 
41700 5.1703631723e+00 -9.7194657701e-03 2.8379790361e+00 -4.9155238814e+00 2.8379790361e+00 4.9155238814e+00 
41800 5.1703613069e+00 -9.6594051814e-03 2.8381502771e+00 -4.9158204794e+00 2.8381502771e+00 4.9158204794e+00 
41900 5.1703594529e+00 -9.5999595998e-03 2.8383204495e+00 -4.9161152268e+00 2.8383204495e+00 4.9161152268e+00 
42000 5.1703576102e+00 -9.5411229598e-03 2.8384895646e+00 -4.9164081427e+00 2.8384895646e+00 4.9164081427e+00 
42100 5.1703557784e+00 -9.4828892393e-03 2.8386576332e+00 -4.9166992459e+00 2.8386576332e+00 4.9166992459e+00 
42200 5.1703539572e+00 -9.4252524601e-03 2.8388246660e+00 -4.9169885554e+00 2.8388246660e+00 4.9169885554e+00 
42300 5.1703521465e+00 -9.3682066875e-03 2.8389906739e+00 -4.9172760894e+00 2.8389906739e+00 4.9172760894e+00 
42400 5.1703503459e+00 -9.3117460309e-03 2.8391556674e+00 -4.9175618664e+00 2.8391556674e+00 4.9175618664e+00 
42500 5.1703485554e+00 -9.2558646433e-03 2.8393196569e+00 -4.9178459046e+00 2.8393196569e+00 4.9178459046e+00 
42600 5.1703467745e+00 -9.2005567214e-03 2.8394826528e+00 -4.9181282219e+00 2.8394826528e+00 4.9181282219e+00 
42700 5.1703450032e+00 -9.1458165058e-03 2.8396446655e+00 -4.9184088361e+00 2.8396446655e+00 4.9184088361e+00 
42800 5.1703432412e+00 -9.0916382809e-03 2.8398057051e+00 -4.9186877649e+00 2.8398057051e+00 4.9186877649e+00 
42900 5.1703414883e+00 -9.0380163749e-03 2.8399657816e+00 -4.9189650255e+00 2.8399657816e+00 4.9189650255e+00 
43000 5.1703397442e+00 -8.9849451597e-03 2.8401249050e+00 -4.9192406353e+00 2.8401249050e+00 4.9192406353e+00 
43100 5.1703380089e+00 -8.9324190509e-03 2.8402830852e+00 -4.9195146114e+00 2.8402830852e+00 4.9195146114e+00 
43200 5.1703362821e+00 -8.8804325079e-03 2.8404403319e+00 -4.9197869706e+00 2.8404403319e+00 4.9197869706e+00 
43300 5.1703345637e+00 -8.8289800338e-03 2.8405966547e+00 -4.9200577297e+00 2.8405966547e+00 4.9200577297e+00 
43400 5.1703328533e+00 -8.7780561750e-03 2.8407520633e+00 -4.9203269053e+00 2.8407520633e+00 4.9203269053e+00 
43500 5.1703311510e+00 -8.7276555219e-03 2.8409065670e+00 -4.9205945136e+00 2.8409065670e+00 4.9205945136e+00 
43600 5.1703294565e+00 -8.6777727080e-03 2.8410601752e+00 -4.9208605709e+00 2.8410601752e+00 4.9208605709e+00 
43700 5.1703277696e+00 -8.6284024105e-03 2.8412128973e+00 -4.9211250932e+00 2.8412128973e+00 4.9211250932e+00 
43800 5.1703260902e+00 -8.5795393499e-03 2.8413647423e+00 -4.9213880965e+00 2.8413647423e+00 4.9213880965e+00 
43900 5.1703244182e+00 -8.5311782898e-03 2.8415157193e+00 -4.9216495963e+00 2.8415157193e+00 4.9216495963e+00 
44000 5.1703227533e+00 -8.4833140372e-03 2.8416658373e+00 -4.9219096083e+00 2.8416658373e+00 4.9219096083e+00 
44100 5.1703210955e+00 -8.4359414420e-03 2.8418151052e+00 -4.9221681479e+00 2.8418151052e+00 4.9221681479e+00 
44200 5.1703194446e+00 -8.3890553973e-03 2.8419635317e+00 -4.9224252302e+00 2.8419635317e+00 4.9224252302e+00 
44300 5.1703178004e+00 -8.3426508387e-03 2.8421111256e+00 -4.9226808702e+00 2.8421111256e+00 4.9226808702e+00 
44400 5.1703161629e+00 -8.2967227450e-03 2.8422578954e+00 -4.9229350830e+00 2.8422578954e+00 4.9229350830e+00 
44500 5.1703145318e+00 -8.2512661374e-03 2.8424038497e+00 -4.9231878832e+00 2.8424038497e+00 4.9231878832e+00 
44600 5.1703129072e+00 -8.2062760795e-03 2.8425489968e+00 -4.9234392855e+00 2.8425489968e+00 4.9234392855e+00 
44700 5.1703112888e+00 -8.1617476774e-03 2.8426933452e+00 -4.9236893042e+00 2.8426933452e+00 4.9236893042e+00 
44800 5.1703096765e+00 -8.1176760795e-03 2.8428369030e+00 -4.9239379536e+00 2.8428369030e+00 4.9239379536e+00 
44900 5.1703080702e+00 -8.0740564762e-03 2.8429796784e+00 -4.9241852478e+00 2.8429796784e+00 4.9241852478e+00 
45000 5.1703064699e+00 -8.0308840998e-03 2.8431216795e+00 -4.9244312009e+00 2.8431216795e+00 4.9244312009e+00 
45100 5.1703048753e+00 -7.9881542245e-03 2.8432629142e+00 -4.9246758267e+00 2.8432629142e+00 4.9246758267e+00 
45200 5.1703032865e+00 -7.9458621659e-03 2.8434033905e+00 -4.9249191387e+00 2.8434033905e+00 4.9249191387e+00 
45300 5.1703017032e+00 -7.9040032814e-03 2.8435431161e+00 -4.9251611506e+00 2.8435431161e+00 4.9251611506e+00 
45400 5.1703001254e+00 -7.8625729692e-03 2.8436820988e+00 -4.9254018758e+00 2.8436820988e+00 4.9254018758e+00 
45500 5.1702985531e+00 -7.8215666690e-03 2.8438203463e+00 -4.9256413274e+00 2.8438203463e+00 4.9256413274e+00 
45600 5.1702969860e+00 -7.7809798614e-03 2.8439578661e+00 -4.9258795186e+00 2.8439578661e+00 4.9258795186e+00 
45700 5.1702954241e+00 -7.7408080674e-03 2.8440946656e+00 -4.9261164624e+00 2.8440946656e+00 4.9261164624e+00 
45800 5.1702938674e+00 -7.7010468488e-03 2.8442307523e+00 -4.9263521715e+00 2.8442307523e+00 4.9263521715e+00 
45900 5.1702923157e+00 -7.6616918079e-03 2.8443661335e+00 -4.9265866586e+00 2.8443661335e+00 4.9265866586e+00 
46000 5.1702907689e+00 -7.6227385867e-03 2.8445008165e+00 -4.9268199363e+00 2.8445008165e+00 4.9268199363e+00 
46100 5.1702892271e+00 -7.5841828676e-03 2.8446348083e+00 -4.9270520170e+00 2.8446348083e+00 4.9270520170e+00 
46200 5.1702876900e+00 -7.5460203725e-03 2.8447681162e+00 -4.9272829129e+00 2.8447681162e+00 4.9272829129e+00 
46300 5.1702861577e+00 -7.5082468629e-03 2.8449007470e+00 -4.9275126363e+00 2.8449007470e+00 4.9275126363e+00 
46400 5.1702846300e+00 -7.4708581395e-03 2.8450327077e+00 -4.9277411990e+00 2.8450327077e+00 4.9277411990e+00 
46500 5.1702831069e+00 -7.4338500424e-03 2.8451640053e+00 -4.9279686130e+00 2.8451640053e+00 4.9279686130e+00 
46600 5.1702815883e+00 -7.3972184502e-03 2.8452946464e+00 -4.9281948900e+00 2.8452946464e+00 4.9281948900e+00 
46700 5.1702800742e+00 -7.3609592805e-03 2.8454246377e+00 -4.9284200417e+00 2.8454246377e+00 4.9284200417e+00 
46800 5.1702785644e+00 -7.3250684891e-03 2.8455539860e+00 -4.9286440794e+00 2.8455539860e+00 4.9286440794e+00 
46900 5.1702770589e+00 -7.2895420701e-03 2.8456826977e+00 -4.9288670147e+00 2.8456826977e+00 4.9288670147e+00 
47000 5.1702755578e+00 -7.2543760556e-03 2.8458107794e+00 -4.9290888587e+00 2.8458107794e+00 4.9290888587e+00 
47100 5.1702740608e+00 -7.2195665154e-03 2.8459382375e+00 -4.9293096225e+00 2.8459382375e+00 4.9293096225e+00 
47200 5.1702725679e+00 -7.1851095569e-03 2.8460650782e+00 -4.9295293172e+00 2.8460650782e+00 4.9295293172e+00 
47300 5.1702710792e+00 -7.1510013245e-03 2.8461913080e+00 -4.9297479535e+00 2.8461913080e+00 4.9297479535e+00 
47400 5.1702695944e+00 -7.1172380001e-03 2.8463169330e+00 -4.9299655424e+00 2.8463169330e+00 4.9299655424e+00 
47500 5.1702681137e+00 -7.0838158019e-03 2.8464419593e+00 -4.9301820943e+00 2.8464419593e+00 4.9301820943e+00 
47600 5.1702666369e+00 -7.0507309849e-03 2.8465663930e+00 -4.9303976198e+00 2.8465663930e+00 4.9303976198e+00 
47700 5.1702651639e+00 -7.0179798404e-03 2.8466902402e+00 -4.9306121294e+00 2.8466902402e+00 4.9306121294e+00 
47800 5.1702636948e+00 -6.9855586957e-03 2.8468135067e+00 -4.9308256332e+00 2.8468135067e+00 4.9308256332e+00 
47900 5.1702622295e+00 -6.9534639139e-03 2.8469361984e+00 -4.9310381415e+00 2.8469361984e+00 4.9310381415e+00 
48000 5.1702607680e+00 -6.9216918936e-03 2.8470583211e+00 -4.9312496643e+00 2.8470583211e+00 4.9312496643e+00 
48100 5.1702593101e+00 -6.8902390689e-03 2.8471798806e+00 -4.9314602116e+00 2.8471798806e+00 4.9314602116e+00 
48200 5.1702578559e+00 -6.8591019088e-03 2.8473008826e+00 -4.9316697931e+00 2.8473008826e+00 4.9316697931e+00 
48300 5.1702564053e+00 -6.8282769171e-03 2.8474213327e+00 -4.9318784187e+00 2.8474213327e+00 4.9318784187e+00 
48400 5.1702549583e+00 -6.7977606322e-03 2.8475412363e+00 -4.9320860980e+00 2.8475412363e+00 4.9320860980e+00 
48500 5.1702535149e+00 -6.7675496267e-03 2.8476605991e+00 -4.9322928403e+00 2.8476605991e+00 4.9322928403e+00 
48600 5.1702520749e+00 -6.7376405074e-03 2.8477794264e+00 -4.9324986553e+00 2.8477794264e+00 4.9324986553e+00 
48700 5.1702506385e+00 -6.7080299147e-03 2.8478977236e+00 -4.9327035521e+00 2.8478977236e+00 4.9327035521e+00 
48800 5.1702492054e+00 -6.6787145227e-03 2.8480154960e+00 -4.9329075399e+00 2.8480154960e+00 4.9329075399e+00 
48900 5.1702477758e+00 -6.6496910387e-03 2.8481327489e+00 -4.9331106278e+00 2.8481327489e+00 4.9331106278e+00 
49000 5.1702463495e+00 -6.6209562029e-03 2.8482494874e+00 -4.9333128249e+00 2.8482494874e+00 4.9333128249e+00 
49100 5.1702449266e+00 -6.5925067885e-03 2.8483657167e+00 -4.9335141399e+00 2.8483657167e+00 4.9335141399e+00 
49200 5.1702435070e+00 -6.5643396009e-03 2.8484814419e+00 -4.9337145818e+00 2.8484814419e+00 4.9337145818e+00 
49300 5.1702420907e+00 -6.5364514780e-03 2.8485966679e+00 -4.9339141591e+00 2.8485966679e+00 4.9339141591e+00 
49400 5.1702406776e+00 -6.5088392896e-03 2.8487113998e+00 -4.9341128805e+00 2.8487113998e+00 4.9341128805e+00 
49500 5.1702392678e+00 -6.4814999371e-03 2.8488256424e+00 -4.9343107545e+00 2.8488256424e+00 4.9343107545e+00 
49600 5.1702378612e+00 -6.4544303537e-03 2.8489394005e+00 -4.9345077894e+00 2.8489394005e+00 4.9345077894e+00 
49700 5.1702364577e+00 -6.4276275035e-03 2.8490526790e+00 -4.9347039935e+00 2.8490526790e+00 4.9347039935e+00 
49800 5.1702350574e+00 -6.4010883816e-03 2.8491654827e+00 -4.9348993752e+00 2.8491654827e+00 4.9348993752e+00 
49900 5.1702336602e+00 -6.3748100140e-03 2.8492778161e+00 -4.9350939424e+00 2.8492778161e+00 4.9350939424e+00 
50000 5.1702322662e+00 -6.3487894570e-03 2.8493896840e+00 -4.9352877032e+00 2.8493896840e+00 4.9352877032e+00 
50100 5.1702308752e+00 -6.3230237971e-03 2.8495010908e+00 -4.9354806655e+00 2.8495010908e+00 4.9354806655e+00 
50200 5.1702294873e+00 -6.2975101508e-03 2.8496120412e+00 -4.9356728372e+00 2.8496120412e+00 4.9356728372e+00 
50300 5.1702281024e+00 -6.2722456642e-03 2.8497225396e+00 -4.9358642260e+00 2.8497225396e+00 4.9358642260e+00 
50400 5.1702267205e+00 -6.2472275130e-03 2.8498325904e+00 -4.9360548396e+00 2.8498325904e+00 4.9360548396e+00 
50500 5.1702253417e+00 -6.2224529020e-03 2.8499421980e+00 -4.9362446856e+00 2.8499421980e+00 4.9362446856e+00 
50600 5.1702239658e+00 -6.1979190648e-03 2.8500513668e+00 -4.9364337714e+00 2.8500513668e+00 4.9364337714e+00 
50700 5.1702225929e+00 -6.1736232639e-03 2.8501601009e+00 -4.9366221045e+00 2.8501601009e+00 4.9366221045e+00 
50800 5.1702212230e+00 -6.1495627902e-03 2.8502684047e+00 -4.9368096922e+00 2.8502684047e+00 4.9368096922e+00 
50900 5.1702198559e+00 -6.1257349626e-03 2.8503762823e+00 -4.9369965416e+00 2.8503762823e+00 4.9369965416e+00 
51000 5.1702184918e+00 -6.1021371282e-03 2.8504837378e+00 -4.9371826601e+00 2.8504837378e+00 4.9371826601e+00 
51100 5.1702171306e+00 -6.0787666615e-03 2.8505907754e+00 -4.9373680545e+00 2.8505907754e+00 4.9373680545e+00 
51200 5.1702157723e+00 -6.0556209649e-03 2.8506973990e+00 -4.9375527320e+00 2.8506973990e+00 4.9375527320e+00 
51300 5.1702144169e+00 -6.0326974675e-03 2.8508036126e+00 -4.9377366994e+00 2.8508036126e+00 4.9377366994e+00 
51400 5.1702130643e+00 -6.0099936257e-03 2.8509094202e+00 -4.9379199636e+00 2.8509094202e+00 4.9379199636e+00 
51500 5.1702117146e+00 -5.9875069225e-03 2.8510148257e+00 -4.9381025313e+00 2.8510148257e+00 4.9381025313e+00 
51600 5.1702103676e+00 -5.9652348674e-03 2.8511198329e+00 -4.9382844091e+00 2.8511198329e+00 4.9382844091e+00 
51700 5.1702090235e+00 -5.9431749962e-03 2.8512244457e+00 -4.9384656038e+00 2.8512244457e+00 4.9384656038e+00 
51800 5.1702076823e+00 -5.9213248706e-03 2.8513286678e+00 -4.9386461217e+00 2.8513286678e+00 4.9386461217e+00 
51900 5.1702063438e+00 -5.8996820782e-03 2.8514325029e+00 -4.9388259694e+00 2.8514325029e+00 4.9388259694e+00 
52000 5.1702050081e+00 -5.8782442319e-03 2.8515359547e+00 -4.9390051532e+00 2.8515359547e+00 4.9390051532e+00 
52100 5.1702036751e+00 -5.8570089702e-03 2.8516390269e+00 -4.9391836794e+00 2.8516390269e+00 4.9391836794e+00 
52200 5.1702023450e+00 -5.8359739565e-03 2.8517417230e+00 -4.9393615543e+00 2.8517417230e+00 4.9393615543e+00 
52300 5.1702010175e+00 -5.8151368791e-03 2.8518440466e+00 -4.9395387840e+00 2.8518440466e+00 4.9395387840e+00 
52400 5.1701996929e+00 -5.7944954508e-03 2.8519460012e+00 -4.9397153745e+00 2.8519460012e+00 4.9397153745e+00 
52500 5.1701983709e+00 -5.7740474089e-03 2.8520475902e+00 -4.9398913319e+00 2.8520475902e+00 4.9398913319e+00 
52600 5.1701970517e+00 -5.7537905149e-03 2.8521488172e+00 -4.9400666621e+00 2.8521488172e+00 4.9400666621e+00 
52700 5.1701957352e+00 -5.7337225540e-03 2.8522496854e+00 -4.9402413710e+00 2.8522496854e+00 4.9402413710e+00 
52800 5.1701944214e+00 -5.7138413352e-03 2.8523501983e+00 -4.9404154644e+00 2.8523501983e+00 4.9404154644e+00 
52900 5.1701931103e+00 -5.6941446912e-03 2.8524503591e+00 -4.9405889480e+00 2.8524503591e+00 4.9405889480e+00 
53000 5.1701918019e+00 -5.6746304778e-03 2.8525501712e+00 -4.9407618276e+00 2.8525501712e+00 4.9407618276e+00 
53100 5.1701904962e+00 -5.6552965736e-03 2.8526496376e+00 -4.9409341086e+00 2.8526496376e+00 4.9409341086e+00 
53200 5.1701891932e+00 -5.6361408804e-03 2.8527487618e+00 -4.9411057967e+00 2.8527487618e+00 4.9411057967e+00 
53300 5.1701878928e+00 -5.6171613225e-03 2.8528475468e+00 -4.9412768972e+00 2.8528475468e+00 4.9412768972e+00 
53400 5.1701865951e+00 -5.5983558465e-03 2.8529459956e+00 -4.9414474157e+00 2.8529459956e+00 4.9414474157e+00 
53500 5.1701853001e+00 -5.5797224213e-03 2.8530441116e+00 -4.9416173575e+00 2.8530441116e+00 4.9416173575e+00 
53600 5.1701840077e+00 -5.5612590375e-03 2.8531418975e+00 -4.9417867277e+00 2.8531418975e+00 4.9417867277e+00 
53700 5.1701827180e+00 -5.5429637079e-03 2.8532393566e+00 -4.9419555318e+00 2.8532393566e+00 4.9419555318e+00 
53800 5.1701814309e+00 -5.5248344665e-03 2.8533364917e+00 -4.9421237748e+00 2.8533364917e+00 4.9421237748e+00 
53900 5.1701801464e+00 -5.5068693687e-03 2.8534333059e+00 -4.9422914618e+00 2.8534333059e+00 4.9422914618e+00 
54000 5.1701788646e+00 -5.4890664912e-03 2.8535298019e+00 -4.9424585978e+00 2.8535298019e+00 4.9424585978e+00 
54100 5.1701775853e+00 -5.4714239315e-03 2.8536259827e+00 -4.9426251879e+00 2.8536259827e+00 4.9426251879e+00 
54200 5.1701763088e+00 -5.4539398077e-03 2.8537218512e+00 -4.9427912369e+00 2.8537218512e+00 4.9427912369e+00 
54300 5.1701750348e+00 -5.4366122588e-03 2.8538174101e+00 -4.9429567498e+00 2.8538174101e+00 4.9429567498e+00 
54400 5.1701737634e+00 -5.4194394438e-03 2.8539126622e+00 -4.9431217313e+00 2.8539126622e+00 4.9431217313e+00 
54500 5.1701724947e+00 -5.4024195419e-03 2.8540076103e+00 -4.9432861861e+00 2.8540076103e+00 4.9432861861e+00 
54600 5.1701712285e+00 -5.3855507524e-03 2.8541022570e+00 -4.9434501191e+00 2.8541022570e+00 4.9434501191e+00 
54700 5.1701699650e+00 -5.3688312941e-03 2.8541966050e+00 -4.9436135347e+00 2.8541966050e+00 4.9436135347e+00 
54800 5.1701687041e+00 -5.3522594055e-03 2.8542906571e+00 -4.9437764377e+00 2.8542906571e+00 4.9437764377e+00 
54900 5.1701674457e+00 -5.3358333445e-03 2.8543844157e+00 -4.9439388324e+00 2.8543844157e+00 4.9439388324e+00 
55000 5.1701661899e+00 -5.3195513881e-03 2.8544778836e+00 -4.9441007234e+00 2.8544778836e+00 4.9441007234e+00 
55100 5.1701649368e+00 -5.3034118321e-03 2.8545710631e+00 -4.9442621152e+00 2.8545710631e+00 4.9442621152e+00 
55200 5.1701636862e+00 -5.2874129915e-03 2.8546639570e+00 -4.9444230120e+00 2.8546639570e+00 4.9444230120e+00 
55300 5.1701624382e+00 -5.2715531995e-03 2.8547565675e+00 -4.9445834182e+00 2.8547565675e+00 4.9445834182e+00 
55400 5.1701611927e+00 -5.2558308080e-03 2.8548488973e+00 -4.9447433381e+00 2.8548488973e+00 4.9447433381e+00 
55500 5.1701599499e+00 -5.2402441870e-03 2.8549409488e+00 -4.9449027759e+00 2.8549409488e+00 4.9449027759e+00 
55600 5.1701587096e+00 -5.2247917246e-03 2.8550327243e+00 -4.9450617357e+00 2.8550327243e+00 4.9450617357e+00 
55700 5.1701574719e+00 -5.2094718268e-03 2.8551242262e+00 -4.9452202217e+00 2.8551242262e+00 4.9452202217e+00 
55800 5.1701562367e+00 -5.1942829172e-03 2.8552154569e+00 -4.9453782379e+00 2.8552154569e+00 4.9453782379e+00 
55900 5.1701550041e+00 -5.1792234371e-03 2.8553064187e+00 -4.9455357883e+00 2.8553064187e+00 4.9455357883e+00 
56000 5.1701537741e+00 -5.1642918450e-03 2.8553971139e+00 -4.9456928770e+00 2.8553971139e+00 4.9456928770e+00 
56100 5.1701525467e+00 -5.1494866167e-03 2.8554875447e+00 -4.9458495078e+00 2.8554875447e+00 4.9458495078e+00 
56200 5.1701513218e+00 -5.1348062449e-03 2.8555777134e+00 -4.9460056846e+00 2.8555777134e+00 4.9460056846e+00 
56300 5.1701500994e+00 -5.1202492391e-03 2.8556676223e+00 -4.9461614113e+00 2.8556676223e+00 4.9461614113e+00 
56400 5.1701488796e+00 -5.1058141258e-03 2.8557572734e+00 -4.9463166916e+00 2.8557572734e+00 4.9463166916e+00 
56500 5.1701476624e+00 -5.0914994475e-03 2.8558466690e+00 -4.9464715293e+00 2.8558466690e+00 4.9464715293e+00 
56600 5.1701464477e+00 -5.0773037634e-03 2.8559358111e+00 -4.9466259280e+00 2.8559358111e+00 4.9466259280e+00 
56700 5.1701452356e+00 -5.0632256488e-03 2.8560247019e+00 -4.9467798914e+00 2.8560247019e+00 4.9467798914e+00 
56800 5.1701440260e+00 -5.0492636948e-03 2.8561133435e+00 -4.9469334232e+00 2.8561133435e+00 4.9469334232e+00 
56900 5.1701428190e+00 -5.0354165087e-03 2.8562017380e+00 -4.9470865268e+00 2.8562017380e+00 4.9470865268e+00 
57000 5.1701416145e+00 -5.0216827132e-03 2.8562898872e+00 -4.9472392058e+00 2.8562898872e+00 4.9472392058e+00 
57100 5.1701404125e+00 -5.0080609466e-03 2.8563777934e+00 -4.9473914637e+00 2.8563777934e+00 4.9473914637e+00 
57200 5.1701392131e+00 -4.9945498627e-03 2.8564654584e+00 -4.9475433039e+00 2.8564654584e+00 4.9475433039e+00 
57300 5.1701380163e+00 -4.9811481303e-03 2.8565528842e+00 -4.9476947299e+00 2.8565528842e+00 4.9476947299e+00 
57400 5.1701368219e+00 -4.9678544333e-03 2.8566400727e+00 -4.9478457448e+00 2.8566400727e+00 4.9478457448e+00 
57500 5.1701356301e+00 -4.9546674708e-03 2.8567270259e+00 -4.9479963522e+00 2.8567270259e+00 4.9479963522e+00 
57600 5.1701344409e+00 -4.9415859562e-03 2.8568137456e+00 -4.9481465552e+00 2.8568137456e+00 4.9481465552e+00 
57700 5.1701332542e+00 -4.9286086178e-03 2.8569002338e+00 -4.9482963571e+00 2.8569002338e+00 4.9482963571e+00 
57800 5.1701320700e+00 -4.9157341983e-03 2.8569864922e+00 -4.9484457610e+00 2.8569864922e+00 4.9484457610e+00 
57900 5.1701308884e+00 -4.9029614547e-03 2.8570725227e+00 -4.9485947702e+00 2.8570725227e+00 4.9485947702e+00 
58000 5.1701297093e+00 -4.8902891581e-03 2.8571583271e+00 -4.9487433877e+00 2.8571583271e+00 4.9487433877e+00 
58100 5.1701285327e+00 -4.8777160937e-03 2.8572439071e+00 -4.9488916167e+00 2.8572439071e+00 4.9488916167e+00 
58200 5.1701273587e+00 -4.8652410605e-03 2.8573292645e+00 -4.9490394601e+00 2.8573292645e+00 4.9490394601e+00 
58300 5.1701261872e+00 -4.8528628712e-03 2.8574144011e+00 -4.9491869210e+00 2.8574144011e+00 4.9491869210e+00 
58400 5.1701250182e+00 -4.8405803523e-03 2.8574993186e+00 -4.9493340023e+00 2.8574993186e+00 4.9493340023e+00 
58500 5.1701238518e+00 -4.8283923435e-03 2.8575840186e+00 -4.9494807070e+00 2.8575840186e+00 4.9494807070e+00 
58600 5.1701226878e+00 -4.8162976979e-03 2.8576685028e+00 -4.9496270380e+00 2.8576685028e+00 4.9496270380e+00 
58700 5.1701215265e+00 -4.8042952817e-03 2.8577527729e+00 -4.9497729982e+00 2.8577527729e+00 4.9497729982e+00 
58800 5.1701203676e+00 -4.7923839744e-03 2.8578368306e+00 -4.9499185903e+00 2.8578368306e+00 4.9499185903e+00 
58900 5.1701192113e+00 -4.7805626680e-03 2.8579206773e+00 -4.9500638171e+00 2.8579206773e+00 4.9500638171e+00 
59000 5.1701180574e+00 -4.7688302675e-03 2.8580043148e+00 -4.9502086815e+00 2.8580043148e+00 4.9502086815e+00 
59100 5.1701169062e+00 -4.7571856907e-03 2.8580877446e+00 -4.9503531861e+00 2.8580877446e+00 4.9503531861e+00 
59200 5.1701157574e+00 -4.7456278675e-03 2.8581709682e+00 -4.9504973337e+00 2.8581709682e+00 4.9504973337e+00 
59300 5.1701146112e+00 -4.7341557404e-03 2.8582539872e+00 -4.9506411268e+00 2.8582539872e+00 4.9506411268e+00 
59400 5.1701134674e+00 -4.7227682642e-03 2.8583368031e+00 -4.9507845682e+00 2.8583368031e+00 4.9507845682e+00 
59500 5.1701123262e+00 -4.7114644057e-03 2.8584194175e+00 -4.9509276604e+00 2.8584194175e+00 4.9509276604e+00 
59600 5.1701111876e+00 -4.7002431438e-03 2.8585018317e+00 -4.9510704060e+00 2.8585018317e+00 4.9510704060e+00 
59700 5.1701100514e+00 -4.6891034690e-03 2.8585840472e+00 -4.9512128075e+00 2.8585840472e+00 4.9512128075e+00 
59800 5.1701089178e+00 -4.6780443839e-03 2.8586660655e+00 -4.9513548674e+00 2.8586660655e+00 4.9513548674e+00 
59900 5.1701077867e+00 -4.6670649025e-03 2.8587478881e+00 -4.9514965882e+00 2.8587478881e+00 4.9514965882e+00 
60000 5.1701066581e+00 -4.6561640504e-03 2.8588295163e+00 -4.9516379723e+00 2.8588295163e+00 4.9516379723e+00 
60100 5.1701055320e+00 -4.6453408644e-03 2.8589109514e+00 -4.9517790222e+00 2.8589109514e+00 4.9517790222e+00 
60200 5.1701044084e+00 -4.6345943927e-03 2.8589921950e+00 -4.9519197402e+00 2.8589921950e+00 4.9519197402e+00 
60300 5.1701032874e+00 -4.6239236946e-03 2.8590732483e+00 -4.9520601287e+00 2.8590732483e+00 4.9520601287e+00 
60400 5.1701021688e+00 -4.6133278406e-03 2.8591541127e+00 -4.9522001900e+00 2.8591541127e+00 4.9522001900e+00 
60500 5.1701010528e+00 -4.6028059116e-03 2.8592347896e+00 -4.9523399263e+00 2.8592347896e+00 4.9523399263e+00 
60600 5.1700999393e+00 -4.5923569999e-03 2.8593152801e+00 -4.9524793400e+00 2.8593152801e+00 4.9524793400e+00 
60700 5.1700988283e+00 -4.5819802081e-03 2.8593955857e+00 -4.9526184333e+00 2.8593955857e+00 4.9526184333e+00 
60800 5.1700977198e+00 -4.5716746494e-03 2.8594757075e+00 -4.9527572085e+00 2.8594757075e+00 4.9527572085e+00 
60900 5.1700966138e+00 -4.5614394476e-03 2.8595556470e+00 -4.9528956676e+00 2.8595556470e+00 4.9528956676e+00 
61000 5.1700955104e+00 -4.5512737366e-03 2.8596354052e+00 -4.9530338129e+00 2.8596354052e+00 4.9530338129e+00 
61100 5.1700944094e+00 -4.5411766607e-03 2.8597149834e+00 -4.9531716464e+00 2.8597149834e+00 4.9531716464e+00 
61200 5.1700933110e+00 -4.5311473744e-03 2.8597943829e+00 -4.9533091703e+00 2.8597943829e+00 4.9533091703e+00 
61300 5.1700922150e+00 -4.5211850420e-03 2.8598736048e+00 -4.9534463867e+00 2.8598736048e+00 4.9534463867e+00 
61400 5.1700911216e+00 -4.5112888378e-03 2.8599526504e+00 -4.9535832977e+00 2.8599526504e+00 4.9535832977e+00 
61500 5.1700900307e+00 -4.5014579459e-03 2.8600315207e+00 -4.9537199051e+00 2.8600315207e+00 4.9537199051e+00 
61600 5.1700889422e+00 -4.4916915600e-03 2.8601102170e+00 -4.9538562111e+00 2.8601102170e+00 4.9538562111e+00 
61700 5.1700878563e+00 -4.4819888837e-03 2.8601887404e+00 -4.9539922177e+00 2.8601887404e+00 4.9539922177e+00 
61800 5.1700867729e+00 -4.4723491297e-03 2.8602670921e+00 -4.9541279267e+00 2.8602670921e+00 4.9541279267e+00 
61900 5.1700856920e+00 -4.4627715203e-03 2.8603452730e+00 -4.9542633401e+00 2.8603452730e+00 4.9542633401e+00 
62000 5.1700846136e+00 -4.4532552870e-03 2.8604232845e+00 -4.9543984598e+00 2.8604232845e+00 4.9543984598e+00 
62100 5.1700835377e+00 -4.4437996706e-03 2.8605011274e+00 -4.9545332878e+00 2.8605011274e+00 4.9545332878e+00 
62200 5.1700824643e+00 -4.4344039209e-03 2.8605788030e+00 -4.9546678258e+00 2.8605788030e+00 4.9546678258e+00 
62300 5.1700813934e+00 -4.4250672967e-03 2.8606563122e+00 -4.9548020757e+00 2.8606563122e+00 4.9548020757e+00 
62400 5.1700803249e+00 -4.4157890656e-03 2.8607336561e+00 -4.9549360392e+00 2.8607336561e+00 4.9549360392e+00 
62500 5.1700792590e+00 -4.4065685042e-03 2.8608108357e+00 -4.9550697183e+00 2.8608108357e+00 4.9550697183e+00 
62600 5.1700781956e+00 -4.3974048977e-03 2.8608878522e+00 -4.9552031147e+00 2.8608878522e+00 4.9552031147e+00 
62700 5.1700771347e+00 -4.3882975398e-03 2.8609647063e+00 -4.9553362301e+00 2.8609647063e+00 4.9553362301e+00 
62800 5.1700760762e+00 -4.3792457328e-03 2.8610413993e+00 -4.9554690662e+00 2.8610413993e+00 4.9554690662e+00 
62900 5.1700750203e+00 -4.3702487876e-03 2.8611179320e+00 -4.9556016247e+00 2.8611179320e+00 4.9556016247e+00 
63000 5.1700739668e+00 -4.3613060230e-03 2.8611943055e+00 -4.9557339074e+00 2.8611943055e+00 4.9557339074e+00 
63100 5.1700729159e+00 -4.3524167666e-03 2.8612705206e+00 -4.9558659158e+00 2.8612705206e+00 4.9558659158e+00 
63200 5.1700718674e+00 -4.3435803536e-03 2.8613465783e+00 -4.9559976517e+00 2.8613465783e+00 4.9559976517e+00 
63300 5.1700708214e+00 -4.3347961277e-03 2.8614224797e+00 -4.9561291167e+00 2.8614224797e+00 4.9561291167e+00 
63400 5.1700697779e+00 -4.3260634402e-03 2.8614982255e+00 -4.9562603123e+00 2.8614982255e+00 4.9562603123e+00 
63500 5.1700687369e+00 -4.3173816506e-03 2.8615738167e+00 -4.9563912401e+00 2.8615738167e+00 4.9563912401e+00 
63600 5.1700676983e+00 -4.3087501260e-03 2.8616492542e+00 -4.9565219017e+00 2.8616492542e+00 4.9565219017e+00 
63700 5.1700666623e+00 -4.3001682413e-03 2.8617245389e+00 -4.9566522987e+00 2.8617245389e+00 4.9566522987e+00 
63800 5.1700656287e+00 -4.2916353790e-03 2.8617996717e+00 -4.9567824325e+00 2.8617996717e+00 4.9567824325e+00 
63900 5.1700645976e+00 -4.2831509292e-03 2.8618746534e+00 -4.9569123046e+00 2.8618746534e+00 4.9569123046e+00 
64000 5.1700635690e+00 -4.2747142894e-03 2.8619494850e+00 -4.9570419167e+00 2.8619494850e+00 4.9570419167e+00 
64100 5.1700625429e+00 -4.2663248644e-03 2.8620241672e+00 -4.9571712700e+00 2.8620241672e+00 4.9571712700e+00 
64200 5.1700615192e+00 -4.2579820666e-03 2.8620987008e+00 -4.9573003661e+00 2.8620987008e+00 4.9573003661e+00 
64300 5.1700604980e+00 -4.2496853153e-03 2.8621730868e+00 -4.9574292064e+00 2.8621730868e+00 4.9574292064e+00 
64400 5.1700594793e+00 -4.2414340370e-03 2.8622473259e+00 -4.9575577923e+00 2.8622473259e+00 4.9575577923e+00 
64500 5.1700584630e+00 -4.2332276654e-03 2.8623214190e+00 -4.9576861253e+00 2.8623214190e+00 4.9576861253e+00 
64600 5.1700574493e+00 -4.2250656411e-03 2.8623953667e+00 -4.9578142066e+00 2.8623953667e+00 4.9578142066e+00 
64700 5.1700564380e+00 -4.2169474116e-03 2.8624691700e+00 -4.9579420376e+00 2.8624691700e+00 4.9579420376e+00 
64800 5.1700554291e+00 -4.2088724312e-03 2.8625428296e+00 -4.9580696197e+00 2.8625428296e+00 4.9580696197e+00 
64900 5.1700544227e+00 -4.2008401610e-03 2.8626163462e+00 -4.9581969543e+00 2.8626163462e+00 4.9581969543e+00 
65000 5.1700534188e+00 -4.1928500688e-03 2.8626897207e+00 -4.9583240426e+00 2.8626897207e+00 4.9583240426e+00 
65100 5.1700524174e+00 -4.1849016289e-03 2.8627629537e+00 -4.9584508859e+00 2.8627629537e+00 4.9584508859e+00 
65200 5.1700514184e+00 -4.1769943223e-03 2.8628360460e+00 -4.9585774855e+00 2.8628360460e+00 4.9585774855e+00 
65300 5.1700504218e+00 -4.1691276363e-03 2.8629089984e+00 -4.9587038426e+00 2.8629089984e+00 4.9587038426e+00 
65400 5.1700494278e+00 -4.1613010646e-03 2.8629818115e+00 -4.9588299586e+00 2.8629818115e+00 4.9588299586e+00 
65500 5.1700484361e+00 -4.1535141073e-03 2.8630544860e+00 -4.9589558346e+00 2.8630544860e+00 4.9589558346e+00 
65600 5.1700474470e+00 -4.1457662707e-03 2.8631270227e+00 -4.9590814719e+00 2.8631270227e+00 4.9590814719e+00 
65700 5.1700464602e+00 -4.1380570672e-03 2.8631994223e+00 -4.9592068717e+00 2.8631994223e+00 4.9592068717e+00 
65800 5.1700454760e+00 -4.1303860155e-03 2.8632716854e+00 -4.9593320351e+00 2.8632716854e+00 4.9593320351e+00 
65900 5.1700444941e+00 -4.1227526402e-03 2.8633438128e+00 -4.9594569633e+00 2.8633438128e+00 4.9594569633e+00 
66000 5.1700435148e+00 -4.1151564718e-03 2.8634158050e+00 -4.9595816575e+00 2.8634158050e+00 4.9595816575e+00 
66100 5.1700425378e+00 -4.1075970467e-03 2.8634876628e+00 -4.9597061188e+00 2.8634876628e+00 4.9597061188e+00 
66200 5.1700415633e+00 -4.1000739074e-03 2.8635593868e+00 -4.9598303484e+00 2.8635593868e+00 4.9598303484e+00 
66300 5.1700405913e+00 -4.0925866019e-03 2.8636309776e+00 -4.9599543473e+00 2.8636309776e+00 4.9599543473e+00 
66400 5.1700396217e+00 -4.0851346839e-03 2.8637024359e+00 -4.9600781167e+00 2.8637024359e+00 4.9600781167e+00 
66500 5.1700386545e+00 -4.0777177130e-03 2.8637737623e+00 -4.9602016576e+00 2.8637737623e+00 4.9602016576e+00 
66600 5.1700376898e+00 -4.0703352541e-03 2.8638449574e+00 -4.9603249712e+00 2.8638449574e+00 4.9603249712e+00 
66700 5.1700367275e+00 -4.0629868776e-03 2.8639160218e+00 -4.9604480585e+00 2.8639160218e+00 4.9604480585e+00 
66800 5.1700357676e+00 -4.0556721596e-03 2.8639869563e+00 -4.9605709204e+00 2.8639869563e+00 4.9605709204e+00 
66900 5.1700348101e+00 -4.0483906815e-03 2.8640577612e+00 -4.9606935582e+00 2.8640577612e+00 4.9606935582e+00 
67000 5.1700338551e+00 -4.0411420298e-03 2.8641284373e+00 -4.9608159728e+00 2.8641284373e+00 4.9608159728e+00 
67100 5.1700329025e+00 -4.0339257965e-03 2.8641989851e+00 -4.9609381651e+00 2.8641989851e+00 4.9609381651e+00 
67200 5.1700319523e+00 -4.0267415788e-03 2.8642694051e+00 -4.9610601363e+00 2.8642694051e+00 4.9610601363e+00 
67300 5.1700310045e+00 -4.0195889789e-03 2.8643396981e+00 -4.9611818872e+00 2.8643396981e+00 4.9611818872e+00 
67400 5.1700300592e+00 -4.0124676043e-03 2.8644098644e+00 -4.9613034189e+00 2.8644098644e+00 4.9613034189e+00 
67500 5.1700291163e+00 -4.0053770672e-03 2.8644799048e+00 -4.9614247323e+00 2.8644799048e+00 4.9614247323e+00 
67600 5.1700281758e+00 -3.9983169852e-03 2.8645498196e+00 -4.9615458284e+00 2.8645498196e+00 4.9615458284e+00 
67700 5.1700272377e+00 -3.9912869805e-03 2.8646196095e+00 -4.9616667080e+00 2.8646196095e+00 4.9616667080e+00 
67800 5.1700263020e+00 -3.9842866802e-03 2.8646892750e+00 -4.9617873722e+00 2.8646892750e+00 4.9617873722e+00 
67900 5.1700253687e+00 -3.9773157163e-03 2.8647588166e+00 -4.9619078218e+00 2.8647588166e+00 4.9619078218e+00 
68000 5.1700244378e+00 -3.9703737255e-03 2.8648282349e+00 -4.9620280578e+00 2.8648282349e+00 4.9620280578e+00 
68100 5.1700235093e+00 -3.9634603491e-03 2.8648975303e+00 -4.9621480810e+00 2.8648975303e+00 4.9621480810e+00 
68200 5.1700225832e+00 -3.9565752333e-03 2.8649667034e+00 -4.9622678923e+00 2.8649667034e+00 4.9622678923e+00 
68300 5.1700216595e+00 -3.9497180286e-03 2.8650357547e+00 -4.9623874926e+00 2.8650357547e+00 4.9623874926e+00 
68400 5.1700207382e+00 -3.9428883901e-03 2.8651046846e+00 -4.9625068827e+00 2.8651046846e+00 4.9625068827e+00 
68500 5.1700198193e+00 -3.9360859776e-03 2.8651734937e+00 -4.9626260635e+00 2.8651734937e+00 4.9626260635e+00 
68600 5.1700189028e+00 -3.9293104549e-03 2.8652421824e+00 -4.9627450359e+00 2.8652421824e+00 4.9627450359e+00 
68700 5.1700179887e+00 -3.9225614907e-03 2.8653107512e+00 -4.9628638006e+00 2.8653107512e+00 4.9628638006e+00 
68800 5.1700170769e+00 -3.9158387576e-03 2.8653792006e+00 -4.9629823585e+00 2.8653792006e+00 4.9629823585e+00 
68900 5.1700161676e+00 -3.9091419327e-03 2.8654475311e+00 -4.9631007103e+00 2.8654475311e+00 4.9631007103e+00 
69000 5.1700152606e+00 -3.9024706971e-03 2.8655157431e+00 -4.9632188569e+00 2.8655157431e+00 4.9632188569e+00 
69100 5.1700143560e+00 -3.8958247365e-03 2.8655838371e+00 -4.9633367991e+00 2.8655838371e+00 4.9633367991e+00 
69200 5.1700134537e+00 -3.8892037402e-03 2.8656518134e+00 -4.9634545377e+00 2.8656518134e+00 4.9634545377e+00 
69300 5.1700125539e+00 -3.8826074020e-03 2.8657196727e+00 -4.9635720733e+00 2.8657196727e+00 4.9635720733e+00 
69400 5.1700116564e+00 -3.8760354195e-03 2.8657874152e+00 -4.9636894068e+00 2.8657874152e+00 4.9636894068e+00 
69500 5.1700107613e+00 -3.8694874944e-03 2.8658550415e+00 -4.9638065390e+00 2.8658550415e+00 4.9638065390e+00 
69600 5.1700098685e+00 -3.8629633322e-03 2.8659225519e+00 -4.9639234705e+00 2.8659225519e+00 4.9639234705e+00 
69700 5.1700089781e+00 -3.8564626425e-03 2.8659899470e+00 -4.9640402021e+00 2.8659899470e+00 4.9640402021e+00 
69800 5.1700080901e+00 -3.8499851386e-03 2.8660572270e+00 -4.9641567345e+00 2.8660572270e+00 4.9641567345e+00 
69900 5.1700072044e+00 -3.8435305377e-03 2.8661243924e+00 -4.9642730685e+00 2.8661243924e+00 4.9642730685e+00 
70000 5.1700063210e+00 -3.8370985605e-03 2.8661914437e+00 -4.9643892047e+00 2.8661914437e+00 4.9643892047e+00 
70100 5.1700054400e+00 -3.8306889318e-03 2.8662583812e+00 -4.9645051438e+00 2.8662583812e+00 4.9645051438e+00 
70200 5.1700045614e+00 -3.8243013797e-03 2.8663252053e+00 -4.9646208866e+00 2.8663252053e+00 4.9646208866e+00 
70300 5.1700036851e+00 -3.8179356363e-03 2.8663919164e+00 -4.9647364337e+00 2.8663919164e+00 4.9647364337e+00 
70400 5.1700028112e+00 -3.8115914369e-03 2.8664585150e+00 -4.9648517857e+00 2.8664585150e+00 4.9648517857e+00 
70500 5.1700019395e+00 -3.8052685206e-03 2.8665250013e+00 -4.9649669435e+00 2.8665250013e+00 4.9649669435e+00 
70600 5.1700010703e+00 -3.7989666298e-03 2.8665913758e+00 -4.9650819075e+00 2.8665913758e+00 4.9650819075e+00 
70700 5.1700002033e+00 -3.7926855107e-03 2.8666576389e+00 -4.9651966784e+00 2.8666576389e+00 4.9651966784e+00 
70800 5.1699993387e+00 -3.7864249124e-03 2.8667237908e+00 -4.9653112570e+00 2.8667237908e+00 4.9653112570e+00 
70900 5.1699984764e+00 -3.7801845879e-03 2.8667898320e+00 -4.9654256437e+00 2.8667898320e+00 4.9654256437e+00 
71000 5.1699976164e+00 -3.7739642932e-03 2.8668557629e+00 -4.9655398393e+00 2.8668557629e+00 4.9655398393e+00 
71100 5.1699967588e+00 -3.7677637877e-03 2.8669215838e+00 -4.9656538444e+00 2.8669215838e+00 4.9656538444e+00 
71200 5.1699959035e+00 -3.7615828341e-03 2.8669872950e+00 -4.9657676596e+00 2.8669872950e+00 4.9657676596e+00 
71300 5.1699950505e+00 -3.7554211981e-03 2.8670528969e+00 -4.9658812855e+00 2.8670528969e+00 4.9658812855e+00 
71400 5.1699941998e+00 -3.7492786489e-03 2.8671183899e+00 -4.9659947226e+00 2.8671183899e+00 4.9659947226e+00 
71500 5.1699933514e+00 -3.7431549586e-03 2.8671837742e+00 -4.9661079716e+00 2.8671837742e+00 4.9661079716e+00 
71600 5.1699925053e+00 -3.7370499026e-03 2.8672490503e+00 -4.9662210330e+00 2.8672490503e+00 4.9662210330e+00 
71700 5.1699916615e+00 -3.7309632590e-03 2.8673142184e+00 -4.9663339075e+00 2.8673142184e+00 4.9663339075e+00 
71800 5.1699908200e+00 -3.7248948095e-03 2.8673792789e+00 -4.9664465956e+00 2.8673792789e+00 4.9664465956e+00 
71900 5.1699899808e+00 -3.7188443382e-03 2.8674442321e+00 -4.9665590978e+00 2.8674442321e+00 4.9665590978e+00 
72000 5.1699891439e+00 -3.7128116325e-03 2.8675090783e+00 -4.9666714148e+00 2.8675090783e+00 4.9666714148e+00 
72100 5.1699883093e+00 -3.7067964828e-03 2.8675738179e+00 -4.9667835470e+00 2.8675738179e+00 4.9667835470e+00 
72200 5.1699874770e+00 -3.7007986820e-03 2.8676384511e+00 -4.9668954950e+00 2.8676384511e+00 4.9668954950e+00 
72300 5.1699866470e+00 -3.6948180262e-03 2.8677029783e+00 -4.9670072593e+00 2.8677029783e+00 4.9670072593e+00 
72400 5.1699858192e+00 -3.6888543142e-03 2.8677673997e+00 -4.9671188406e+00 2.8677673997e+00 4.9671188406e+00 
72500 5.1699849937e+00 -3.6829073475e-03 2.8678317157e+00 -4.9672302392e+00 2.8678317157e+00 4.9672302392e+00 
72600 5.1699841705e+00 -3.6769769305e-03 2.8678959266e+00 -4.9673414557e+00 2.8678959266e+00 4.9673414557e+00 
72700 5.1699833496e+00 -3.6710628702e-03 2.8679600327e+00 -4.9674524907e+00 2.8679600327e+00 4.9674524907e+00 
72800 5.1699825309e+00 -3.6651649764e-03 2.8680240342e+00 -4.9675633446e+00 2.8680240342e+00 4.9675633446e+00 
72900 5.1699817145e+00 -3.6592830614e-03 2.8680879315e+00 -4.9676740179e+00 2.8680879315e+00 4.9676740179e+00 
73000 5.1699809004e+00 -3.6534169401e-03 2.8681517248e+00 -4.9677845112e+00 2.8681517248e+00 4.9677845112e+00 
73100 5.1699800885e+00 -3.6475664303e-03 2.8682154145e+00 -4.9678948249e+00 2.8682154145e+00 4.9678948249e+00 
73200 5.1699792789e+00 -3.6417313519e-03 2.8682790007e+00 -4.9680049595e+00 2.8682790007e+00 4.9680049595e+00 
73300 5.1699784715e+00 -3.6359115276e-03 2.8683424838e+00 -4.9681149154e+00 2.8683424838e+00 4.9681149154e+00 
73400 5.1699776664e+00 -3.6301067826e-03 2.8684058640e+00 -4.9682246932e+00 2.8684058640e+00 4.9682246932e+00 
73500 5.1699768635e+00 -3.6243169445e-03 2.8684691417e+00 -4.9683342933e+00 2.8684691417e+00 4.9683342933e+00 
73600 5.1699760629e+00 -3.6185418433e-03 2.8685323170e+00 -4.9684437162e+00 2.8685323170e+00 4.9684437162e+00 
73700 5.1699752645e+00 -3.6127813114e-03 2.8685953903e+00 -4.9685529624e+00 2.8685953903e+00 4.9685529624e+00 
73800 5.1699744683e+00 -3.6070351836e-03 2.8686583618e+00 -4.9686620322e+00 2.8686583618e+00 4.9686620322e+00 
73900 5.1699736744e+00 -3.6013032970e-03 2.8687212317e+00 -4.9687709261e+00 2.8687212317e+00 4.9687709261e+00 
74000 5.1699728827e+00 -3.5955854912e-03 2.8687840004e+00 -4.9688796447e+00 2.8687840004e+00 4.9688796447e+00 
74100 5.1699720932e+00 -3.5898816078e-03 2.8688466681e+00 -4.9689881882e+00 2.8688466681e+00 4.9689881882e+00 
74200 5.1699713059e+00 -3.5841914909e-03 2.8689092349e+00 -4.9690965572e+00 2.8689092349e+00 4.9690965572e+00 
74300 5.1699705209e+00 -3.5785149865e-03 2.8689717012e+00 -4.9692047520e+00 2.8689717012e+00 4.9692047520e+00 
74400 5.1699697380e+00 -3.5728519433e-03 2.8690340673e+00 -4.9693127732e+00 2.8690340673e+00 4.9693127732e+00 
74500 5.1699689574e+00 -3.5672022117e-03 2.8690963333e+00 -4.9694206210e+00 2.8690963333e+00 4.9694206210e+00 
74600 5.1699681790e+00 -3.5615656446e-03 2.8691584995e+00 -4.9695282960e+00 2.8691584995e+00 4.9695282960e+00 
74700 5.1699674028e+00 -3.5559420967e-03 2.8692205661e+00 -4.9696357985e+00 2.8692205661e+00 4.9696357985e+00 
74800 5.1699666287e+00 -3.5503314250e-03 2.8692825333e+00 -4.9697431290e+00 2.8692825333e+00 4.9697431290e+00 
74900 5.1699658569e+00 -3.5447334885e-03 2.8693444015e+00 -4.9698502878e+00 2.8693444015e+00 4.9698502878e+00 
75000 5.1699650873e+00 -3.5391481484e-03 2.8694061707e+00 -4.9699572753e+00 2.8694061707e+00 4.9699572753e+00 
75100 5.1699643198e+00 -3.5335752675e-03 2.8694678414e+00 -4.9700640919e+00 2.8694678414e+00 4.9700640919e+00 
75200 5.1699635546e+00 -3.5280147111e-03 2.8695294135e+00 -4.9701707381e+00 2.8695294135e+00 4.9701707381e+00 
75300 5.1699627915e+00 -3.5224663462e-03 2.8695908875e+00 -4.9702772141e+00 2.8695908875e+00 4.9702772141e+00 
75400 5.1699620306e+00 -3.5169300417e-03 2.8696522635e+00 -4.9703835204e+00 2.8696522635e+00 4.9703835204e+00 
75500 5.1699612719e+00 -3.5114056685e-03 2.8697135417e+00 -4.9704896574e+00 2.8697135417e+00 4.9704896574e+00 
75600 5.1699605153e+00 -3.5058930994e-03 2.8697747223e+00 -4.9705956253e+00 2.8697747223e+00 4.9705956253e+00 
75700 5.1699597609e+00 -3.5003922090e-03 2.8698358056e+00 -4.9707014247e+00 2.8698358056e+00 4.9707014247e+00 
75800 5.1699590087e+00 -3.4949028738e-03 2.8698967918e+00 -4.9708070558e+00 2.8698967918e+00 4.9708070558e+00 
75900 5.1699582587e+00 -3.4894249721e-03 2.8699576810e+00 -4.9709125190e+00 2.8699576810e+00 4.9709125190e+00 
76000 5.1699575107e+00 -3.4839583841e-03 2.8700184735e+00 -4.9710178147e+00 2.8700184735e+00 4.9710178147e+00 
76100 5.1699567650e+00 -3.4785029916e-03 2.8700791694e+00 -4.9711229432e+00 2.8700791694e+00 4.9711229432e+00 
76200 5.1699560214e+00 -3.4730586783e-03 2.8701397691e+00 -4.9712279048e+00 2.8701397691e+00 4.9712279048e+00 
76300 5.1699552799e+00 -3.4676253295e-03 2.8702002726e+00 -4.9713327000e+00 2.8702002726e+00 4.9713327000e+00 
76400 5.1699545406e+00 -3.4622028323e-03 2.8702606802e+00 -4.9714373290e+00 2.8702606802e+00 4.9714373290e+00 
76500 5.1699538034e+00 -3.4567910754e-03 2.8703209920e+00 -4.9715417922e+00 2.8703209920e+00 4.9715417922e+00 
76600 5.1699530684e+00 -3.4513899494e-03 2.8703812083e+00 -4.9716460899e+00 2.8703812083e+00 4.9716460899e+00 
76700 5.1699523354e+00 -3.4459993462e-03 2.8704413293e+00 -4.9717502225e+00 2.8704413293e+00 4.9717502225e+00 
76800 5.1699516046e+00 -3.4406191596e-03 2.8705013551e+00 -4.9718541903e+00 2.8705013551e+00 4.9718541903e+00 
76900 5.1699508760e+00 -3.4352492848e-03 2.8705612860e+00 -4.9719579935e+00 2.8705612860e+00 4.9719579935e+00 
77000 5.1699501494e+00 -3.4298896188e-03 2.8706211220e+00 -4.9720616326e+00 2.8706211220e+00 4.9720616326e+00 
77100 5.1699494250e+00 -3.4245400600e-03 2.8706808635e+00 -4.9721651078e+00 2.8706808635e+00 4.9721651078e+00 
77200 5.1699487026e+00 -3.4192005083e-03 2.8707405105e+00 -4.9722684195e+00 2.8707405105e+00 4.9722684195e+00 
77300 5.1699479824e+00 -3.4138708652e-03 2.8708000633e+00 -4.9723715680e+00 2.8708000633e+00 4.9723715680e+00 
77400 5.1699472643e+00 -3.4085510338e-03 2.8708595220e+00 -4.9724745535e+00 2.8708595220e+00 4.9724745535e+00 
77500 5.1699465482e+00 -3.4032409186e-03 2.8709188869e+00 -4.9725773765e+00 2.8709188869e+00 4.9725773765e+00 
77600 5.1699458343e+00 -3.3979404255e-03 2.8709781580e+00 -4.9726800371e+00 2.8709781580e+00 4.9726800371e+00 
77700 5.1699451225e+00 -3.3926494618e-03 2.8710373356e+00 -4.9727825357e+00 2.8710373356e+00 4.9727825357e+00 
77800 5.1699444127e+00 -3.3873679365e-03 2.8710964199e+00 -4.9728848726e+00 2.8710964199e+00 4.9728848726e+00 
77900 5.1699437051e+00 -3.3820957597e-03 2.8711554109e+00 -4.9729870481e+00 2.8711554109e+00 4.9729870481e+00 
78000 5.1699429995e+00 -3.3768328430e-03 2.8712143089e+00 -4.9730890625e+00 2.8712143089e+00 4.9730890625e+00 
78100 5.1699422960e+00 -3.3715790995e-03 2.8712731141e+00 -4.9731909160e+00 2.8712731141e+00 4.9731909160e+00 
78200 5.1699415945e+00 -3.3663344435e-03 2.8713318265e+00 -4.9732926090e+00 2.8713318265e+00 4.9732926090e+00 
78300 5.1699408952e+00 -3.3610987906e-03 2.8713904465e+00 -4.9733941417e+00 2.8713904465e+00 4.9733941417e+00 
78400 5.1699401979e+00 -3.3558720578e-03 2.8714489741e+00 -4.9734955144e+00 2.8714489741e+00 4.9734955144e+00 
78500 5.1699395026e+00 -3.3506541634e-03 2.8715074094e+00 -4.9735967274e+00 2.8715074094e+00 4.9735967274e+00 
78600 5.1699388094e+00 -3.3454450271e-03 2.8715657527e+00 -4.9736977810e+00 2.8715657527e+00 4.9736977810e+00 
78700 5.1699381183e+00 -3.3402445696e-03 2.8716240042e+00 -4.9737986755e+00 2.8716240042e+00 4.9737986755e+00 
78800 5.1699374292e+00 -3.3350527130e-03 2.8716821639e+00 -4.9738994110e+00 2.8716821639e+00 4.9738994110e+00 
78900 5.1699367421e+00 -3.3298693806e-03 2.8717402320e+00 -4.9739999880e+00 2.8717402320e+00 4.9739999880e+00 
79000 5.1699360571e+00 -3.3246944970e-03 2.8717982087e+00 -4.9741004066e+00 2.8717982087e+00 4.9741004066e+00 
79100 5.1699353742e+00 -3.3195279880e-03 2.8718560941e+00 -4.9742006671e+00 2.8718560941e+00 4.9742006671e+00 
79200 5.1699346932e+00 -3.3143697804e-03 2.8719138884e+00 -4.9743007698e+00 2.8719138884e+00 4.9743007698e+00 
79300 5.1699340143e+00 -3.3092198023e-03 2.8719715918e+00 -4.9744007149e+00 2.8719715918e+00 4.9744007149e+00 
79400 5.1699333375e+00 -3.3040779831e-03 2.8720292043e+00 -4.9745005027e+00 2.8720292043e+00 4.9745005027e+00 
79500 5.1699326626e+00 -3.2989442529e-03 2.8720867262e+00 -4.9746001335e+00 2.8720867262e+00 4.9746001335e+00 
79600 5.1699319898e+00 -3.2938185435e-03 2.8721441575e+00 -4.9746996075e+00 2.8721441575e+00 4.9746996075e+00 
79700 5.1699313189e+00 -3.2887007874e-03 2.8722014985e+00 -4.9747989249e+00 2.8722014985e+00 4.9747989249e+00 
79800 5.1699306501e+00 -3.2835909182e-03 2.8722587492e+00 -4.9748980861e+00 2.8722587492e+00 4.9748980861e+00 
79900 5.1699299833e+00 -3.2784888709e-03 2.8723159098e+00 -4.9749970912e+00 2.8723159098e+00 4.9749970912e+00 
80000 5.1699293185e+00 -3.2733945812e-03 2.8723729805e+00 -4.9750959404e+00 2.8723729805e+00 4.9750959404e+00 
80100 5.1699286556e+00 -3.2683079860e-03 2.8724299613e+00 -4.9751946342e+00 2.8724299613e+00 4.9751946342e+00 
80200 5.1699279948e+00 -3.2632290234e-03 2.8724868525e+00 -4.9752931726e+00 2.8724868525e+00 4.9752931726e+00 
80300 5.1699273360e+00 -3.2581576321e-03 2.8725436541e+00 -4.9753915559e+00 2.8725436541e+00 4.9753915559e+00 
80400 5.1699266791e+00 -3.2530937523e-03 2.8726003664e+00 -4.9754897844e+00 2.8726003664e+00 4.9754897844e+00 
80500 5.1699260242e+00 -3.2480373248e-03 2.8726569894e+00 -4.9755878583e+00 2.8726569894e+00 4.9755878583e+00 
80600 5.1699253713e+00 -3.2429882917e-03 2.8727135233e+00 -4.9756857779e+00 2.8727135233e+00 4.9756857779e+00 
80700 5.1699247204e+00 -3.2379465957e-03 2.8727699681e+00 -4.9757835433e+00 2.8727699681e+00 4.9757835433e+00 
80800 5.1699240715e+00 -3.2329121809e-03 2.8728263241e+00 -4.9758811547e+00 2.8728263241e+00 4.9758811547e+00 
80900 5.1699234245e+00 -3.2278849919e-03 2.8728825914e+00 -4.9759786125e+00 2.8728825914e+00 4.9759786125e+00 
81000 5.1699227794e+00 -3.2228649745e-03 2.8729387701e+00 -4.9760759169e+00 2.8729387701e+00 4.9760759169e+00 
81100 5.1699221364e+00 -3.2178520754e-03 2.8729948603e+00 -4.9761730680e+00 2.8729948603e+00 4.9761730680e+00 
81200 5.1699214952e+00 -3.2128462422e-03 2.8730508622e+00 -4.9762700661e+00 2.8730508622e+00 4.9762700661e+00 
81300 5.1699208561e+00 -3.2078474232e-03 2.8731067759e+00 -4.9763669114e+00 2.8731067759e+00 4.9763669114e+00 
81400 5.1699202188e+00 -3.2028555677e-03 2.8731626015e+00 -4.9764636042e+00 2.8731626015e+00 4.9764636042e+00 
81500 5.1699195835e+00 -3.1978706261e-03 2.8732183391e+00 -4.9765601446e+00 2.8732183391e+00 4.9765601446e+00 
81600 5.1699189502e+00 -3.1928925492e-03 2.8732739889e+00 -4.9766565329e+00 2.8732739889e+00 4.9766565329e+00 
81700 5.1699183188e+00 -3.1879212891e-03 2.8733295510e+00 -4.9767527693e+00 2.8733295510e+00 4.9767527693e+00 
81800 5.1699176893e+00 -3.1829567984e-03 2.8733850256e+00 -4.9768488540e+00 2.8733850256e+00 4.9768488540e+00 
81900 5.1699170617e+00 -3.1779990306e-03 2.8734404126e+00 -4.9769447872e+00 2.8734404126e+00 4.9769447872e+00 
82000 5.1699164360e+00 -3.1730479401e-03 2.8734957123e+00 -4.9770405691e+00 2.8734957123e+00 4.9770405691e+00 
82100 5.1699158123e+00 -3.1681034820e-03 2.8735509248e+00 -4.9771362000e+00 2.8735509248e+00 4.9771362000e+00 
82200 5.1699151905e+00 -3.1631656123e-03 2.8736060503e+00 -4.9772316800e+00 2.8736060503e+00 4.9772316800e+00 
82300 5.1699145705e+00 -3.1582342877e-03 2.8736610887e+00 -4.9773270094e+00 2.8736610887e+00 4.9773270094e+00 
82400 5.1699139525e+00 -3.1533094656e-03 2.8737160403e+00 -4.9774221883e+00 2.8737160403e+00 4.9774221883e+00 
82500 5.1699133364e+00 -3.1483911043e-03 2.8737709051e+00 -4.9775172170e+00 2.8737709051e+00 4.9775172170e+00 
82600 5.1699127222e+00 -3.1434791626e-03 2.8738256833e+00 -4.9776120956e+00 2.8738256833e+00 4.9776120956e+00 
82700 5.1699121098e+00 -3.1385736004e-03 2.8738803751e+00 -4.9777068245e+00 2.8738803751e+00 4.9777068245e+00 
82800 5.1699114994e+00 -3.1336743780e-03 2.8739349804e+00 -4.9778014037e+00 2.8739349804e+00 4.9778014037e+00 
82900 5.1699108908e+00 -3.1287814565e-03 2.8739894994e+00 -4.9778958334e+00 2.8739894994e+00 4.9778958334e+00 
83000 5.1699102841e+00 -3.1238947978e-03 2.8740439323e+00 -4.9779901140e+00 2.8740439323e+00 4.9779901140e+00 
83100 5.1699096793e+00 -3.1190143644e-03 2.8740982792e+00 -4.9780842455e+00 2.8740982792e+00 4.9780842455e+00 
83200 5.1699090764e+00 -3.1141401195e-03 2.8741525401e+00 -4.9781782281e+00 2.8741525401e+00 4.9781782281e+00 
83300 5.1699084753e+00 -3.1092720270e-03 2.8742067152e+00 -4.9782720622e+00 2.8742067152e+00 4.9782720622e+00 
83400 5.1699078761e+00 -3.1044100514e-03 2.8742608046e+00 -4.9783657477e+00 2.8742608046e+00 4.9783657477e+00 
83500 5.1699072787e+00 -3.0995541578e-03 2.8743148084e+00 -4.9784592851e+00 2.8743148084e+00 4.9784592851e+00 
83600 5.1699066832e+00 -3.0947043122e-03 2.8743687267e+00 -4.9785526743e+00 2.8743687267e+00 4.9785526743e+00 
83700 5.1699060896e+00 -3.0898604810e-03 2.8744225596e+00 -4.9786459157e+00 2.8744225596e+00 4.9786459157e+00 
83800 5.1699054978e+00 -3.0850226313e-03 2.8744763073e+00 -4.9787390094e+00 2.8744763073e+00 4.9787390094e+00 
83900 5.1699049078e+00 -3.0801907308e-03 2.8745299698e+00 -4.9788319556e+00 2.8745299698e+00 4.9788319556e+00 
84000 5.1699043197e+00 -3.0753647478e-03 2.8745835473e+00 -4.9789247544e+00 2.8745835473e+00 4.9789247544e+00 
84100 5.1699037334e+00 -3.0705446513e-03 2.8746370398e+00 -4.9790174062e+00 2.8746370398e+00 4.9790174062e+00 
84200 5.1699031489e+00 -3.0657304106e-03 2.8746904475e+00 -4.9791099110e+00 2.8746904475e+00 4.9791099110e+00 
84300 5.1699025662e+00 -3.0609219961e-03 2.8747437704e+00 -4.9792022691e+00 2.8747437704e+00 4.9792022691e+00 
84400 5.1699019854e+00 -3.0561193781e-03 2.8747970087e+00 -4.9792944806e+00 2.8747970087e+00 4.9792944806e+00 
84500 5.1699014064e+00 -3.0513225281e-03 2.8748501626e+00 -4.9793865457e+00 2.8748501626e+00 4.9793865457e+00 
84600 5.1699008292e+00 -3.0465314178e-03 2.8749032320e+00 -4.9794784646e+00 2.8749032320e+00 4.9794784646e+00 
84700 5.1699002538e+00 -3.0417460195e-03 2.8749562171e+00 -4.9795702375e+00 2.8749562171e+00 4.9795702375e+00 
84800 5.1698996802e+00 -3.0369663060e-03 2.8750091180e+00 -4.9796618646e+00 2.8750091180e+00 4.9796618646e+00 
84900 5.1698991084e+00 -3.0321922509e-03 2.8750619348e+00 -4.9797533459e+00 2.8750619348e+00 4.9797533459e+00 
85000 5.1698985384e+00 -3.0274238279e-03 2.8751146676e+00 -4.9798446818e+00 2.8751146676e+00 4.9798446818e+00 
85100 5.1698979702e+00 -3.0226610116e-03 2.8751673165e+00 -4.9799358724e+00 2.8751673165e+00 4.9799358724e+00 
85200 5.1698974038e+00 -3.0179037769e-03 2.8752198816e+00 -4.9800269179e+00 2.8752198816e+00 4.9800269179e+00 
85300 5.1698968392e+00 -3.0131520992e-03 2.8752723630e+00 -4.9801178184e+00 2.8752723630e+00 4.9801178184e+00 
85400 5.1698962763e+00 -3.0084059544e-03 2.8753247609e+00 -4.9802085741e+00 2.8753247609e+00 4.9802085741e+00 
85500 5.1698957153e+00 -3.0036653191e-03 2.8753770752e+00 -4.9802991852e+00 2.8753770752e+00 4.9802991852e+00 
85600 5.1698951559e+00 -2.9989301701e-03 2.8754293062e+00 -4.9803896519e+00 2.8754293062e+00 4.9803896519e+00 
85700 5.1698945984e+00 -2.9942004847e-03 2.8754814539e+00 -4.9804799743e+00 2.8754814539e+00 4.9804799743e+00 
85800 5.1698940426e+00 -2.9894762409e-03 2.8755335184e+00 -4.9805701527e+00 2.8755335184e+00 4.9805701527e+00 
85900 5.1698934886e+00 -2.9847574170e-03 2.8755854998e+00 -4.9806601871e+00 2.8755854998e+00 4.9806601871e+00 
86000 5.1698929363e+00 -2.9800439916e-03 2.8756373982e+00 -4.9807500778e+00 2.8756373982e+00 4.9807500778e+00 
86100 5.1698923858e+00 -2.9753359440e-03 2.8756892137e+00 -4.9808398249e+00 2.8756892137e+00 4.9808398249e+00 
86200 5.1698918370e+00 -2.9706332538e-03 2.8757409464e+00 -4.9809294286e+00 2.8757409464e+00 4.9809294286e+00 
86300 5.1698912900e+00 -2.9659359010e-03 2.8757925965e+00 -4.9810188891e+00 2.8757925965e+00 4.9810188891e+00 
86400 5.1698907447e+00 -2.9612438662e-03 2.8758441639e+00 -4.9811082065e+00 2.8758441639e+00 4.9811082065e+00 
86500 5.1698902011e+00 -2.9565571303e-03 2.8758956488e+00 -4.9811973810e+00 2.8758956488e+00 4.9811973810e+00 
86600 5.1698896593e+00 -2.9518756745e-03 2.8759470513e+00 -4.9812864128e+00 2.8759470513e+00 4.9812864128e+00 
86700 5.1698891192e+00 -2.9471994806e-03 2.8759983716e+00 -4.9813753020e+00 2.8759983716e+00 4.9813753020e+00 
86800 5.1698885808e+00 -2.9425285307e-03 2.8760496096e+00 -4.9814640488e+00 2.8760496096e+00 4.9814640488e+00 
86900 5.1698880441e+00 -2.9378628073e-03 2.8761007654e+00 -4.9815526534e+00 2.8761007654e+00 4.9815526534e+00 
87000 5.1698875092e+00 -2.9332022932e-03 2.8761518393e+00 -4.9816411160e+00 2.8761518393e+00 4.9816411160e+00 
87100 5.1698869759e+00 -2.9285469719e-03 2.8762028312e+00 -4.9817294366e+00 2.8762028312e+00 4.9817294366e+00 
87200 5.1698864444e+00 -2.9238968268e-03 2.8762537413e+00 -4.9818176155e+00 2.8762537413e+00 4.9818176155e+00 
87300 5.1698859145e+00 -2.9192518421e-03 2.8763045697e+00 -4.9819056528e+00 2.8763045697e+00 4.9819056528e+00 
87400 5.1698853864e+00 -2.9146120020e-03 2.8763553164e+00 -4.9819935487e+00 2.8763553164e+00 4.9819935487e+00 
87500 5.1698848599e+00 -2.9099772914e-03 2.8764059816e+00 -4.9820813033e+00 2.8764059816e+00 4.9820813033e+00 
87600 5.1698843351e+00 -2.9053476953e-03 2.8764565653e+00 -4.9821689169e+00 2.8764565653e+00 4.9821689169e+00 
87700 5.1698838120e+00 -2.9007231991e-03 2.8765070677e+00 -4.9822563895e+00 2.8765070677e+00 4.9822563895e+00 
87800 5.1698832906e+00 -2.8961037887e-03 2.8765574887e+00 -4.9823437214e+00 2.8765574887e+00 4.9823437214e+00 
87900 5.1698827709e+00 -2.8914894500e-03 2.8766078286e+00 -4.9824309126e+00 2.8766078286e+00 4.9824309126e+00 
88000 5.1698822528e+00 -2.8868801695e-03 2.8766580874e+00 -4.9825179635e+00 2.8766580874e+00 4.9825179635e+00 
88100 5.1698817364e+00 -2.8822759340e-03 2.8767082653e+00 -4.9826048740e+00 2.8767082653e+00 4.9826048740e+00 
88200 5.1698812217e+00 -2.8776767306e-03 2.8767583622e+00 -4.9826916444e+00 2.8767583622e+00 4.9826916444e+00 
88300 5.1698807086e+00 -2.8730825466e-03 2.8768083783e+00 -4.9827782748e+00 2.8768083783e+00 4.9827782748e+00 
88400 5.1698801972e+00 -2.8684933697e-03 2.8768583137e+00 -4.9828647655e+00 2.8768583137e+00 4.9828647655e+00 
88500 5.1698796874e+00 -2.8639091879e-03 2.8769081684e+00 -4.9829511164e+00 2.8769081684e+00 4.9829511164e+00 
88600 5.1698791793e+00 -2.8593299895e-03 2.8769579427e+00 -4.9830373279e+00 2.8769579427e+00 4.9830373279e+00 
88700 5.1698786728e+00 -2.8547557631e-03 2.8770076364e+00 -4.9831234001e+00 2.8770076364e+00 4.9831234001e+00 
88800 5.1698781679e+00 -2.8501864976e-03 2.8770572499e+00 -4.9832093330e+00 2.8770572499e+00 4.9832093330e+00 
88900 5.1698776647e+00 -2.8456221820e-03 2.8771067830e+00 -4.9832951270e+00 2.8771067830e+00 4.9832951270e+00 
89000 5.1698771631e+00 -2.8410628060e-03 2.8771562360e+00 -4.9833807821e+00 2.8771562360e+00 4.9833807821e+00 
89100 5.1698766632e+00 -2.8365083590e-03 2.8772056089e+00 -4.9834662984e+00 2.8772056089e+00 4.9834662984e+00 
89200 5.1698761648e+00 -2.8319588312e-03 2.8772549018e+00 -4.9835516763e+00 2.8772549018e+00 4.9835516763e+00 
89300 5.1698756681e+00 -2.8274142128e-03 2.8773041148e+00 -4.9836369157e+00 2.8773041148e+00 4.9836369157e+00 
89400 5.1698751730e+00 -2.8228744942e-03 2.8773532480e+00 -4.9837220168e+00 2.8773532480e+00 4.9837220168e+00 
89500 5.1698746795e+00 -2.8183396663e-03 2.8774023014e+00 -4.9838069799e+00 2.8774023014e+00 4.9838069799e+00 
89600 5.1698741876e+00 -2.8138097200e-03 2.8774512753e+00 -4.9838918051e+00 2.8774512753e+00 4.9838918051e+00 
89700 5.1698736973e+00 -2.8092846466e-03 2.8775001695e+00 -4.9839764924e+00 2.8775001695e+00 4.9839764924e+00 
89800 5.1698732086e+00 -2.8047644376e-03 2.8775489844e+00 -4.9840610422e+00 2.8775489844e+00 4.9840610422e+00 
89900 5.1698727215e+00 -2.8002490847e-03 2.8775977198e+00 -4.9841454544e+00 2.8775977198e+00 4.9841454544e+00 
90000 5.1698722360e+00 -2.7957385800e-03 2.8776463760e+00 -4.9842297294e+00 2.8776463760e+00 4.9842297294e+00 
90100 5.1698717520e+00 -2.7912329155e-03 2.8776949529e+00 -4.9843138671e+00 2.8776949529e+00 4.9843138671e+00 
90200 5.1698712697e+00 -2.7867320837e-03 2.8777434508e+00 -4.9843978679e+00 2.8777434508e+00 4.9843978679e+00 
90300 5.1698707889e+00 -2.7822360774e-03 2.8777918696e+00 -4.9844817318e+00 2.8777918696e+00 4.9844817318e+00 
90400 5.1698703097e+00 -2.7777448893e-03 2.8778402095e+00 -4.9845654589e+00 2.8778402095e+00 4.9845654589e+00 
90500 5.1698698321e+00 -2.7732585126e-03 2.8778884706e+00 -4.9846490496e+00 2.8778884706e+00 4.9846490496e+00 
90600 5.1698693560e+00 -2.7687769404e-03 2.8779366529e+00 -4.9847325038e+00 2.8779366529e+00 4.9847325038e+00 
90700 5.1698688815e+00 -2.7643001665e-03 2.8779847565e+00 -4.9848158217e+00 2.8779847565e+00 4.9848158217e+00 
90800 5.1698684085e+00 -2.7598281843e-03 2.8780327816e+00 -4.9848990036e+00 2.8780327816e+00 4.9848990036e+00 
90900 5.1698679371e+00 -2.7553609879e-03 2.8780807282e+00 -4.9849820495e+00 2.8780807282e+00 4.9849820495e+00 
91000 5.1698674673e+00 -2.7508985714e-03 2.8781285963e+00 -4.9850649595e+00 2.8781285963e+00 4.9850649595e+00 
91100 5.1698669990e+00 -2.7464409290e-03 2.8781763862e+00 -4.9851477340e+00 2.8781763862e+00 4.9851477340e+00 
91200 5.1698665322e+00 -2.7419880553e-03 2.8782240978e+00 -4.9852303729e+00 2.8782240978e+00 4.9852303729e+00 
91300 5.1698660669e+00 -2.7375399449e-03 2.8782717312e+00 -4.9853128765e+00 2.8782717312e+00 4.9853128765e+00 
91400 5.1698656032e+00 -2.7330965926e-03 2.8783192866e+00 -4.9853952449e+00 2.8783192866e+00 4.9853952449e+00 
91500 5.1698651411e+00 -2.7286579935e-03 2.8783667641e+00 -4.9854774782e+00 2.8783667641e+00 4.9854774782e+00 
91600 5.1698646804e+00 -2.7242241427e-03 2.8784141636e+00 -4.9855595766e+00 2.8784141636e+00 4.9855595766e+00 
91700 5.1698642213e+00 -2.7197950358e-03 2.8784614854e+00 -4.9856415403e+00 2.8784614854e+00 4.9856415403e+00 
91800 5.1698637637e+00 -2.7153706682e-03 2.8785087294e+00 -4.9857233693e+00 2.8785087294e+00 4.9857233693e+00 
91900 5.1698633076e+00 -2.7109510355e-03 2.8785558958e+00 -4.9858050639e+00 2.8785558958e+00 4.9858050639e+00 
92000 5.1698628530e+00 -2.7065361338e-03 2.8786029847e+00 -4.9858866242e+00 2.8786029847e+00 4.9858866242e+00 
92100 5.1698623999e+00 -2.7021259591e-03 2.8786499961e+00 -4.9859680504e+00 2.8786499961e+00 4.9859680504e+00 
92200 5.1698619483e+00 -2.6977205074e-03 2.8786969301e+00 -4.9860493425e+00 2.8786969301e+00 4.9860493425e+00 
92300 5.1698614982e+00 -2.6933197752e-03 2.8787437869e+00 -4.9861305008e+00 2.8787437869e+00 4.9861305008e+00 
92400 5.1698610496e+00 -2.6889237590e-03 2.8787905664e+00 -4.9862115254e+00 2.8787905664e+00 4.9862115254e+00 
92500 5.1698606024e+00 -2.6845324554e-03 2.8788372688e+00 -4.9862924164e+00 2.8788372688e+00 4.9862924164e+00 
92600 5.1698601568e+00 -2.6801458612e-03 2.8788838943e+00 -4.9863731740e+00 2.8788838943e+00 4.9863731740e+00 
92700 5.1698597126e+00 -2.6757639733e-03 2.8789304427e+00 -4.9864537983e+00 2.8789304427e+00 4.9864537983e+00 
92800 5.1698592700e+00 -2.6713867887e-03 2.8789769144e+00 -4.9865342895e+00 2.8789769144e+00 4.9865342895e+00 
92900 5.1698588288e+00 -2.6670143048e-03 2.8790233092e+00 -4.9866146477e+00 2.8790233092e+00 4.9866146477e+00 
93000 5.1698583890e+00 -2.6626465188e-03 2.8790696274e+00 -4.9866948731e+00 2.8790696274e+00 4.9866948731e+00 
93100 5.1698579507e+00 -2.6582834282e-03 2.8791158689e+00 -4.9867749659e+00 2.8791158689e+00 4.9867749659e+00 
93200 5.1698575139e+00 -2.6539250305e-03 2.8791620340e+00 -4.9868549261e+00 2.8791620340e+00 4.9868549261e+00 
93300 5.1698570785e+00 -2.6495713236e-03 2.8792081226e+00 -4.9869347539e+00 2.8792081226e+00 4.9869347539e+00 
93400 5.1698566446e+00 -2.6452223052e-03 2.8792541349e+00 -4.9870144495e+00 2.8792541349e+00 4.9870144495e+00 
93500 5.1698562122e+00 -2.6408779733e-03 2.8793000709e+00 -4.9870940130e+00 2.8793000709e+00 4.9870940130e+00 
93600 5.1698557812e+00 -2.6365383260e-03 2.8793459307e+00 -4.9871734446e+00 2.8793459307e+00 4.9871734446e+00 
93700 5.1698553516e+00 -2.6322033615e-03 2.8793917145e+00 -4.9872527444e+00 2.8793917145e+00 4.9872527444e+00 
93800 5.1698549234e+00 -2.6278730780e-03 2.8794374222e+00 -4.9873319125e+00 2.8794374222e+00 4.9873319125e+00 
93900 5.1698544967e+00 -2.6235474741e-03 2.8794830541e+00 -4.9874109492e+00 2.8794830541e+00 4.9874109492e+00 
94000 5.1698540714e+00 -2.6192265482e-03 2.8795286101e+00 -4.9874898545e+00 2.8795286101e+00 4.9874898545e+00 
94100 5.1698536476e+00 -2.6149102990e-03 2.8795740903e+00 -4.9875686286e+00 2.8795740903e+00 4.9875686286e+00 
94200 5.1698532251e+00 -2.6105987251e-03 2.8796194949e+00 -4.9876472716e+00 2.8796194949e+00 4.9876472716e+00 
94300 5.1698528041e+00 -2.6062918255e-03 2.8796648239e+00 -4.9877257838e+00 2.8796648239e+00 4.9877257838e+00 
94400 5.1698523845e+00 -2.6019895990e-03 2.8797100774e+00 -4.9878041651e+00 2.8797100774e+00 4.9878041651e+00 
94500 5.1698519663e+00 -2.5976920447e-03 2.8797552555e+00 -4.9878824159e+00 2.8797552555e+00 4.9878824159e+00 
94600 5.1698515495e+00 -2.5933991617e-03 2.8798003583e+00 -4.9879605362e+00 2.8798003583e+00 4.9879605362e+00 
94700 5.1698511341e+00 -2.5891109493e-03 2.8798453858e+00 -4.9880385262e+00 2.8798453858e+00 4.9880385262e+00 
94800 5.1698507201e+00 -2.5848274067e-03 2.8798903382e+00 -4.9881163860e+00 2.8798903382e+00 4.9881163860e+00 
94900 5.1698503075e+00 -2.5805485333e-03 2.8799352155e+00 -4.9881941157e+00 2.8799352155e+00 4.9881941157e+00 
95000 5.1698498963e+00 -2.5762743286e-03 2.8799800178e+00 -4.9882717156e+00 2.8799800178e+00 4.9882717156e+00 
95100 5.1698494865e+00 -2.5720047922e-03 2.8800247452e+00 -4.9883491858e+00 2.8800247452e+00 4.9883491858e+00 
95200 5.1698490780e+00 -2.5677399237e-03 2.8800693978e+00 -4.9884265263e+00 2.8800693978e+00 4.9884265263e+00 
95300 5.1698486710e+00 -2.5634797228e-03 2.8801139757e+00 -4.9885037374e+00 2.8801139757e+00 4.9885037374e+00 
95400 5.1698482653e+00 -2.5592241893e-03 2.8801584789e+00 -4.9885808192e+00 2.8801584789e+00 4.9885808192e+00 
95500 5.1698478610e+00 -2.5549733232e-03 2.8802029075e+00 -4.9886577719e+00 2.8802029075e+00 4.9886577719e+00 
95600 5.1698474580e+00 -2.5507271243e-03 2.8802472617e+00 -4.9887345956e+00 2.8802472617e+00 4.9887345956e+00 
95700 5.1698470564e+00 -2.5464855927e-03 2.8802915414e+00 -4.9888112904e+00 2.8802915414e+00 4.9888112904e+00 
95800 5.1698466562e+00 -2.5422487285e-03 2.8803357469e+00 -4.9888878565e+00 2.8803357469e+00 4.9888878565e+00 
95900 5.1698462573e+00 -2.5380165318e-03 2.8803798781e+00 -4.9889642940e+00 2.8803798781e+00 4.9889642940e+00 
96000 5.1698458597e+00 -2.5337890028e-03 2.8804239352e+00 -4.9890406031e+00 2.8804239352e+00 4.9890406031e+00 
96100 5.1698454636e+00 -2.5295661420e-03 2.8804679183e+00 -4.9891167840e+00 2.8804679183e+00 4.9891167840e+00 
96200 5.1698450687e+00 -2.5253479495e-03 2.8805118273e+00 -4.9891928367e+00 2.8805118273e+00 4.9891928367e+00 
96300 5.1698446752e+00 -2.5211344259e-03 2.8805556625e+00 -4.9892687614e+00 2.8805556625e+00 4.9892687614e+00 
96400 5.1698442830e+00 -2.5169255716e-03 2.8805994238e+00 -4.9893445583e+00 2.8805994238e+00 4.9893445583e+00 
96500 5.1698438922e+00 -2.5127213871e-03 2.8806431115e+00 -4.9894202276e+00 2.8806431115e+00 4.9894202276e+00 
96600 5.1698435027e+00 -2.5085218730e-03 2.8806867255e+00 -4.9894957692e+00 2.8806867255e+00 4.9894957692e+00 
96700 5.1698431145e+00 -2.5043270301e-03 2.8807302659e+00 -4.9895711835e+00 2.8807302659e+00 4.9895711835e+00 
96800 5.1698427277e+00 -2.5001368589e-03 2.8807737329e+00 -4.9896464705e+00 2.8807737329e+00 4.9896464705e+00 
96900 5.1698423421e+00 -2.4959513602e-03 2.8808171265e+00 -4.9897216305e+00 2.8808171265e+00 4.9897216305e+00 
97000 5.1698419579e+00 -2.4917705349e-03 2.8808604468e+00 -4.9897966634e+00 2.8808604468e+00 4.9897966634e+00 
97100 5.1698415750e+00 -2.4875943837e-03 2.8809036939e+00 -4.9898715696e+00 2.8809036939e+00 4.9898715696e+00 
97200 5.1698411934e+00 -2.4834229076e-03 2.8809468679e+00 -4.9899463491e+00 2.8809468679e+00 4.9899463491e+00 
97300 5.1698408130e+00 -2.4792561076e-03 2.8809899688e+00 -4.9900210021e+00 2.8809899688e+00 4.9900210021e+00 
97400 5.1698404340e+00 -2.4750939845e-03 2.8810329968e+00 -4.9900955287e+00 2.8810329968e+00 4.9900955287e+00 
97500 5.1698400563e+00 -2.4709365395e-03 2.8810759519e+00 -4.9901699291e+00 2.8810759519e+00 4.9901699291e+00 
97600 5.1698396799e+00 -2.4667837736e-03 2.8811188341e+00 -4.9902442034e+00 2.8811188341e+00 4.9902442034e+00 
97700 5.1698393047e+00 -2.4626356879e-03 2.8811616437e+00 -4.9903183518e+00 2.8811616437e+00 4.9903183518e+00 
97800 5.1698389309e+00 -2.4584922836e-03 2.8812043807e+00 -4.9903923743e+00 2.8812043807e+00 4.9903923743e+00 
97900 5.1698385583e+00 -2.4543535618e-03 2.8812470451e+00 -4.9904662713e+00 2.8812470451e+00 4.9904662713e+00 
98000 5.1698381870e+00 -2.4502195238e-03 2.8812896371e+00 -4.9905400427e+00 2.8812896371e+00 4.9905400427e+00 
98100 5.1698378169e+00 -2.4460901708e-03 2.8813321567e+00 -4.9906136888e+00 2.8813321567e+00 4.9906136888e+00 
98200 5.1698374482e+00 -2.4419655042e-03 2.8813746040e+00 -4.9906872097e+00 2.8813746040e+00 4.9906872097e+00 
98300 5.1698370807e+00 -2.4378455251e-03 2.8814169791e+00 -4.9907606056e+00 2.8814169791e+00 4.9907606056e+00 
98400 5.1698367144e+00 -2.4337302351e-03 2.8814592821e+00 -4.9908338765e+00 2.8814592821e+00 4.9908338765e+00 
98500 5.1698363495e+00 -2.4296196355e-03 2.8815015131e+00 -4.9909070227e+00 2.8815015131e+00 4.9909070227e+00 
98600 5.1698359857e+00 -2.4255137277e-03 2.8815436721e+00 -4.9909800443e+00 2.8815436721e+00 4.9909800443e+00 
98700 5.1698356233e+00 -2.4214125131e-03 2.8815857592e+00 -4.9910529414e+00 2.8815857592e+00 4.9910529414e+00 
98800 5.1698352620e+00 -2.4173159932e-03 2.8816277746e+00 -4.9911257141e+00 2.8816277746e+00 4.9911257141e+00 
98900 5.1698349020e+00 -2.4132241696e-03 2.8816697183e+00 -4.9911983627e+00 2.8816697183e+00 4.9911983627e+00 
99000 5.1698345433e+00 -2.4091370436e-03 2.8817115904e+00 -4.9912708873e+00 2.8817115904e+00 4.9912708873e+00 
99100 5.1698341858e+00 -2.4050546168e-03 2.8817533909e+00 -4.9913432880e+00 2.8817533909e+00 4.9913432880e+00 
99200 5.1698338295e+00 -2.4009768909e-03 2.8817951201e+00 -4.9914155649e+00 2.8817951201e+00 4.9914155649e+00 
99300 5.1698334744e+00 -2.3969038674e-03 2.8818367778e+00 -4.9914877183e+00 2.8818367778e+00 4.9914877183e+00 
99400 5.1698331206e+00 -2.3928355478e-03 2.8818783643e+00 -4.9915597482e+00 2.8818783643e+00 4.9915597482e+00 
99500 5.1698327680e+00 -2.3887719338e-03 2.8819198796e+00 -4.9916316548e+00 2.8819198796e+00 4.9916316548e+00 
99600 5.1698324166e+00 -2.3847130271e-03 2.8819613238e+00 -4.9917034383e+00 2.8819613238e+00 4.9917034383e+00 
99700 5.1698320664e+00 -2.3806588293e-03 2.8820026970e+00 -4.9917750988e+00 2.8820026970e+00 4.9917750988e+00 
99800 5.1698317175e+00 -2.3766093420e-03 2.8820439993e+00 -4.9918466364e+00 2.8820439993e+00 4.9918466364e+00 
99900 5.1698313697e+00 -2.3725645670e-03 2.8820852307e+00 -4.9919180513e+00 2.8820852307e+00 4.9919180513e+00 
100000 5.1698310232e+00 -2.3685245059e-03 2.8821263913e+00 -4.9919893436e+00 2.8821263913e+00 4.9919893436e+00 
100100 5.1698306778e+00 -2.3644891605e-03 2.8821674813e+00 -4.9920605136e+00 2.8821674813e+00 4.9920605136e+00 
100200 5.1698303336e+00 -2.3604585324e-03 2.8822085007e+00 -4.9921315612e+00 2.8822085007e+00 4.9921315612e+00 
100300 5.1698299907e+00 -2.3564326234e-03 2.8822494496e+00 -4.9922024868e+00 2.8822494496e+00 4.9922024868e+00 
100400 5.1698296489e+00 -2.3524114353e-03 2.8822903280e+00 -4.9922732903e+00 2.8822903280e+00 4.9922732903e+00 
100500 5.1698293083e+00 -2.3483949697e-03 2.8823311362e+00 -4.9923439721e+00 2.8823311362e+00 4.9923439721e+00 
100600 5.1698289689e+00 -2.3443832285e-03 2.8823718740e+00 -4.9924145321e+00 2.8823718740e+00 4.9924145321e+00 
100700 5.1698286307e+00 -2.3403762134e-03 2.8824125417e+00 -4.9924849706e+00 2.8824125417e+00 4.9924849706e+00 
100800 5.1698282936e+00 -2.3363739262e-03 2.8824531393e+00 -4.9925552878e+00 2.8824531393e+00 4.9925552878e+00 
100900 5.1698279577e+00 -2.3323763687e-03 2.8824936670e+00 -4.9926254837e+00 2.8824936670e+00 4.9926254837e+00 
101000 5.1698276230e+00 -2.3283835427e-03 2.8825341247e+00 -4.9926955585e+00 2.8825341247e+00 4.9926955585e+00 
101100 5.1698272895e+00 -2.3243954498e-03 2.8825745126e+00 -4.9927655124e+00 2.8825745126e+00 4.9927655124e+00 
101200 5.1698269571e+00 -2.3204120920e-03 2.8826148307e+00 -4.9928353454e+00 2.8826148307e+00 4.9928353454e+00 
101300 5.1698266258e+00 -2.3164334711e-03 2.8826550792e+00 -4.9929050578e+00 2.8826550792e+00 4.9929050578e+00 
101400 5.1698262957e+00 -2.3124595887e-03 2.8826952581e+00 -4.9929746498e+00 2.8826952581e+00 4.9929746498e+00 
101500 5.1698259668e+00 -2.3084904468e-03 2.8827353675e+00 -4.9930441213e+00 2.8827353675e+00 4.9930441213e+00 
101600 5.1698256390e+00 -2.3045260471e-03 2.8827754075e+00 -4.9931134727e+00 2.8827754075e+00 4.9931134727e+00 
101700 5.1698253124e+00 -2.3005663914e-03 2.8828153782e+00 -4.9931827040e+00 2.8828153782e+00 4.9931827040e+00 
101800 5.1698249869e+00 -2.2966114815e-03 2.8828552797e+00 -4.9932518153e+00 2.8828552797e+00 4.9932518153e+00 
101900 5.1698246625e+00 -2.2926613192e-03 2.8828951120e+00 -4.9933208070e+00 2.8828951120e+00 4.9933208070e+00 
102000 5.1698243393e+00 -2.2887159064e-03 2.8829348753e+00 -4.9933896790e+00 2.8829348753e+00 4.9933896790e+00 
102100 5.1698240172e+00 -2.2847752447e-03 2.8829745696e+00 -4.9934584315e+00 2.8829745696e+00 4.9934584315e+00 
102200 5.1698236962e+00 -2.2808393360e-03 2.8830141950e+00 -4.9935270647e+00 2.8830141950e+00 4.9935270647e+00 
102300 5.1698233764e+00 -2.2769081820e-03 2.8830537516e+00 -4.9935955787e+00 2.8830537516e+00 4.9935955787e+00 
102400 5.1698230576e+00 -2.2729817846e-03 2.8830932395e+00 -4.9936639737e+00 2.8830932395e+00 4.9936639737e+00 
102500 5.1698227400e+00 -2.2690601455e-03 2.8831326587e+00 -4.9937322499e+00 2.8831326587e+00 4.9937322499e+00 
102600 5.1698224235e+00 -2.2651432664e-03 2.8831720094e+00 -4.9938004073e+00 2.8831720094e+00 4.9938004073e+00 
102700 5.1698221081e+00 -2.2612311492e-03 2.8832112916e+00 -4.9938684461e+00 2.8832112916e+00 4.9938684461e+00 
102800 5.1698217938e+00 -2.2573237956e-03 2.8832505055e+00 -4.9939363665e+00 2.8832505055e+00 4.9939363665e+00 
102900 5.1698214807e+00 -2.2534212073e-03 2.8832896510e+00 -4.9940041686e+00 2.8832896510e+00 4.9940041686e+00 
103000 5.1698211686e+00 -2.2495233860e-03 2.8833287284e+00 -4.9940718525e+00 2.8833287284e+00 4.9940718525e+00 
103100 5.1698208576e+00 -2.2456303336e-03 2.8833677376e+00 -4.9941394185e+00 2.8833677376e+00 4.9941394185e+00 
103200 5.1698205477e+00 -2.2417420516e-03 2.8834066788e+00 -4.9942068666e+00 2.8834066788e+00 4.9942068666e+00 
103300 5.1698202389e+00 -2.2378585419e-03 2.8834455521e+00 -4.9942741970e+00 2.8834455521e+00 4.9942741970e+00 
103400 5.1698199311e+00 -2.2339798060e-03 2.8834843574e+00 -4.9943414099e+00 2.8834843574e+00 4.9943414099e+00 
103500 5.1698196245e+00 -2.2301058458e-03 2.8835230950e+00 -4.9944085054e+00 2.8835230950e+00 4.9944085054e+00 
103600 5.1698193189e+00 -2.2262366628e-03 2.8835617649e+00 -4.9944754836e+00 2.8835617649e+00 4.9944754836e+00 
103700 5.1698190145e+00 -2.2223722587e-03 2.8836003672e+00 -4.9945423447e+00 2.8836003672e+00 4.9945423447e+00 
103800 5.1698187111e+00 -2.2185126352e-03 2.8836389020e+00 -4.9946090889e+00 2.8836389020e+00 4.9946090889e+00 
103900 5.1698184087e+00 -2.2146577940e-03 2.8836773693e+00 -4.9946757162e+00 2.8836773693e+00 4.9946757162e+00 
104000 5.1698181074e+00 -2.2108077365e-03 2.8837157693e+00 -4.9947422270e+00 2.8837157693e+00 4.9947422270e+00 
104100 5.1698178072e+00 -2.2069624646e-03 2.8837541020e+00 -4.9948086211e+00 2.8837541020e+00 4.9948086211e+00 
104200 5.1698175081e+00 -2.2031219796e-03 2.8837923675e+00 -4.9948748990e+00 2.8837923675e+00 4.9948748990e+00 
104300 5.1698172100e+00 -2.1992862833e-03 2.8838305659e+00 -4.9949410606e+00 2.8838305659e+00 4.9949410606e+00 
104400 5.1698169129e+00 -2.1954553772e-03 2.8838686973e+00 -4.9950071062e+00 2.8838686973e+00 4.9950071062e+00 
104500 5.1698166169e+00 -2.1916292628e-03 2.8839067618e+00 -4.9950730358e+00 2.8839067618e+00 4.9950730358e+00 
104600 5.1698163220e+00 -2.1878079417e-03 2.8839447595e+00 -4.9951388497e+00 2.8839447595e+00 4.9951388497e+00 
104700 5.1698160281e+00 -2.1839914154e-03 2.8839826904e+00 -4.9952045479e+00 2.8839826904e+00 4.9952045479e+00 
104800 5.1698157352e+00 -2.1801796853e-03 2.8840205546e+00 -4.9952701307e+00 2.8840205546e+00 4.9952701307e+00 
104900 5.1698154434e+00 -2.1763727531e-03 2.8840583523e+00 -4.9953355982e+00 2.8840583523e+00 4.9953355982e+00 
105000 5.1698151526e+00 -2.1725706201e-03 2.8840960835e+00 -4.9954009505e+00 2.8840960835e+00 4.9954009505e+00 
105100 5.1698148628e+00 -2.1687732878e-03 2.8841337482e+00 -4.9954661877e+00 2.8841337482e+00 4.9954661877e+00 
105200 5.1698145741e+00 -2.1649807576e-03 2.8841713467e+00 -4.9955313101e+00 2.8841713467e+00 4.9955313101e+00 
105300 5.1698142863e+00 -2.1611930309e-03 2.8842088788e+00 -4.9955963178e+00 2.8842088788e+00 4.9955963178e+00 
105400 5.1698139996e+00 -2.1574101092e-03 2.8842463449e+00 -4.9956612109e+00 2.8842463449e+00 4.9956612109e+00 
105500 5.1698137140e+00 -2.1536319937e-03 2.8842837449e+00 -4.9957259895e+00 2.8842837449e+00 4.9957259895e+00 
105600 5.1698134293e+00 -2.1498586859e-03 2.8843210789e+00 -4.9957906539e+00 2.8843210789e+00 4.9957906539e+00 
105700 5.1698131456e+00 -2.1460901872e-03 2.8843583470e+00 -4.9958552042e+00 2.8843583470e+00 4.9958552042e+00 
105800 5.1698128630e+00 -2.1423264987e-03 2.8843955492e+00 -4.9959196404e+00 2.8843955492e+00 4.9959196404e+00 
105900 5.1698125814e+00 -2.1385676218e-03 2.8844326858e+00 -4.9959839628e+00 2.8844326858e+00 4.9959839628e+00 
106000 5.1698123007e+00 -2.1348135578e-03 2.8844697567e+00 -4.9960481716e+00 2.8844697567e+00 4.9960481716e+00 
106100 5.1698120211e+00 -2.1310643079e-03 2.8845067621e+00 -4.9961122668e+00 2.8845067621e+00 4.9961122668e+00 
106200 5.1698117424e+00 -2.1273198734e-03 2.8845437020e+00 -4.9961762486e+00 2.8845437020e+00 4.9961762486e+00 
106300 5.1698114648e+00 -2.1235802554e-03 2.8845805766e+00 -4.9962401172e+00 2.8845805766e+00 4.9962401172e+00 
106400 5.1698111881e+00 -2.1198454552e-03 2.8846173858e+00 -4.9963038727e+00 2.8846173858e+00 4.9963038727e+00 
106500 5.1698109124e+00 -2.1161154740e-03 2.8846541299e+00 -4.9963675152e+00 2.8846541299e+00 4.9963675152e+00 
106600 5.1698106377e+00 -2.1123903128e-03 2.8846908088e+00 -4.9964310450e+00 2.8846908088e+00 4.9964310450e+00 
106700 5.1698103640e+00 -2.1086699727e-03 2.8847274227e+00 -4.9964944621e+00 2.8847274227e+00 4.9964944621e+00 
106800 5.1698100913e+00 -2.1049544550e-03 2.8847639716e+00 -4.9965577667e+00 2.8847639716e+00 4.9965577667e+00 
106900 5.1698098195e+00 -2.1012437606e-03 2.8848004557e+00 -4.9966209590e+00 2.8848004557e+00 4.9966209590e+00 
107000 5.1698095487e+00 -2.0975378907e-03 2.8848368750e+00 -4.9966840390e+00 2.8848368750e+00 4.9966840390e+00 
107100 5.1698092789e+00 -2.0938368462e-03 2.8848732296e+00 -4.9967470071e+00 2.8848732296e+00 4.9967470071e+00 
107200 5.1698090100e+00 -2.0901406281e-03 2.8849095196e+00 -4.9968098632e+00 2.8849095196e+00 4.9968098632e+00 
107300 5.1698087421e+00 -2.0864492374e-03 2.8849457451e+00 -4.9968726076e+00 2.8849457451e+00 4.9968726076e+00 
107400 5.1698084752e+00 -2.0827626752e-03 2.8849819061e+00 -4.9969352404e+00 2.8849819061e+00 4.9969352404e+00 
107500 5.1698082092e+00 -2.0790809422e-03 2.8850180028e+00 -4.9969977617e+00 2.8850180028e+00 4.9969977617e+00 
107600 5.1698079441e+00 -2.0754040395e-03 2.8850540353e+00 -4.9970601717e+00 2.8850540353e+00 4.9970601717e+00 
107700 5.1698076800e+00 -2.0717319679e-03 2.8850900036e+00 -4.9971224706e+00 2.8850900036e+00 4.9971224706e+00 
107800 5.1698074169e+00 -2.0680647283e-03 2.8851259078e+00 -4.9971846585e+00 2.8851259078e+00 4.9971846585e+00 
107900 5.1698071547e+00 -2.0644023215e-03 2.8851617479e+00 -4.9972467355e+00 2.8851617479e+00 4.9972467355e+00 
108000 5.1698068934e+00 -2.0607447482e-03 2.8851975242e+00 -4.9973087018e+00 2.8851975242e+00 4.9973087018e+00 
108100 5.1698066331e+00 -2.0570920094e-03 2.8852332367e+00 -4.9973705576e+00 2.8852332367e+00 4.9973705576e+00 
108200 5.1698063737e+00 -2.0534441057e-03 2.8852688854e+00 -4.9974323029e+00 2.8852688854e+00 4.9974323029e+00 
108300 5.1698061153e+00 -2.0498010379e-03 2.8853044704e+00 -4.9974939380e+00 2.8853044704e+00 4.9974939380e+00 
108400 5.1698058577e+00 -2.0461628067e-03 2.8853399919e+00 -4.9975554630e+00 2.8853399919e+00 4.9975554630e+00 
108500 5.1698056011e+00 -2.0425294128e-03 2.8853754499e+00 -4.9976168781e+00 2.8853754499e+00 4.9976168781e+00 
108600 5.1698053454e+00 -2.0389008567e-03 2.8854108445e+00 -4.9976781833e+00 2.8854108445e+00 4.9976781833e+00 
108700 5.1698050907e+00 -2.0352771393e-03 2.8854461757e+00 -4.9977393789e+00 2.8854461757e+00 4.9977393789e+00 
108800 5.1698048368e+00 -2.0316582609e-03 2.8854814438e+00 -4.9978004649e+00 2.8854814438e+00 4.9978004649e+00 
108900 5.1698045839e+00 -2.0280442223e-03 2.8855166487e+00 -4.9978614416e+00 2.8855166487e+00 4.9978614416e+00 
109000 5.1698043318e+00 -2.0244350240e-03 2.8855517906e+00 -4.9979223091e+00 2.8855517906e+00 4.9979223091e+00 
109100 5.1698040807e+00 -2.0208306665e-03 2.8855868694e+00 -4.9979830675e+00 2.8855868694e+00 4.9979830675e+00 
109200 5.1698038305e+00 -2.0172311503e-03 2.8856218855e+00 -4.9980437170e+00 2.8856218855e+00 4.9980437170e+00 
109300 5.1698035812e+00 -2.0136364758e-03 2.8856568387e+00 -4.9981042578e+00 2.8856568387e+00 4.9981042578e+00 
109400 5.1698033328e+00 -2.0100466435e-03 2.8856917292e+00 -4.9981646899e+00 2.8856917292e+00 4.9981646899e+00 
109500 5.1698030853e+00 -2.0064616538e-03 2.8857265571e+00 -4.9982250136e+00 2.8857265571e+00 4.9982250136e+00 
109600 5.1698028386e+00 -2.0028815072e-03 2.8857613224e+00 -4.9982852289e+00 2.8857613224e+00 4.9982852289e+00 
109700 5.1698025929e+00 -1.9993062038e-03 2.8857960253e+00 -4.9983453361e+00 2.8857960253e+00 4.9983453361e+00 
109800 5.1698023480e+00 -1.9957357442e-03 2.8858306658e+00 -4.9984053353e+00 2.8858306658e+00 4.9984053353e+00 
109900 5.1698021041e+00 -1.9921701286e-03 2.8858652441e+00 -4.9984652266e+00 2.8858652441e+00 4.9984652266e+00 
110000 5.1698018610e+00 -1.9886093572e-03 2.8858997601e+00 -4.9985250101e+00 2.8858997601e+00 4.9985250101e+00 
110100 5.1698016188e+00 -1.9850534303e-03 2.8859342141e+00 -4.9985846861e+00 2.8859342141e+00 4.9985846861e+00 
110200 5.1698013774e+00 -1.9815023482e-03 2.8859686060e+00 -4.9986442547e+00 2.8859686060e+00 4.9986442547e+00 
110300 5.1698011370e+00 -1.9779561110e-03 2.8860029360e+00 -4.9987037160e+00 2.8860029360e+00 4.9987037160e+00 
110400 5.1698008974e+00 -1.9744147189e-03 2.8860372042e+00 -4.9987630702e+00 2.8860372042e+00 4.9987630702e+00 
110500 5.1698006587e+00 -1.9708781720e-03 2.8860714106e+00 -4.9988223174e+00 2.8860714106e+00 4.9988223174e+00 
110600 5.1698004208e+00 -1.9673464705e-03 2.8861055553e+00 -4.9988814578e+00 2.8861055553e+00 4.9988814578e+00 
110700 5.1698001838e+00 -1.9638196143e-03 2.8861396385e+00 -4.9989404915e+00 2.8861396385e+00 4.9989404915e+00 
110800 5.1697999477e+00 -1.9602976037e-03 2.8861736601e+00 -4.9989994187e+00 2.8861736601e+00 4.9989994187e+00 
110900 5.1697997124e+00 -1.9567804385e-03 2.8862076203e+00 -4.9990582395e+00 2.8862076203e+00 4.9990582395e+00 
111000 5.1697994779e+00 -1.9532681189e-03 2.8862415192e+00 -4.9991169541e+00 2.8862415192e+00 4.9991169541e+00 
111100 5.1697992444e+00 -1.9497606447e-03 2.8862753568e+00 -4.9991755626e+00 2.8862753568e+00 4.9991755626e+00 
111200 5.1697990116e+00 -1.9462580159e-03 2.8863091333e+00 -4.9992340652e+00 2.8863091333e+00 4.9992340652e+00 
111300 5.1697987797e+00 -1.9427602324e-03 2.8863428487e+00 -4.9992924620e+00 2.8863428487e+00 4.9992924620e+00 
111400 5.1697985487e+00 -1.9392672941e-03 2.8863765031e+00 -4.9993507532e+00 2.8863765031e+00 4.9993507532e+00 
111500 5.1697983185e+00 -1.9357792009e-03 2.8864100966e+00 -4.9994089389e+00 2.8864100966e+00 4.9994089389e+00 
111600 5.1697980891e+00 -1.9322959525e-03 2.8864436294e+00 -4.9994670192e+00 2.8864436294e+00 4.9994670192e+00 
111700 5.1697978606e+00 -1.9288175488e-03 2.8864771013e+00 -4.9995249944e+00 2.8864771013e+00 4.9995249944e+00 
111800 5.1697976329e+00 -1.9253439896e-03 2.8865105127e+00 -4.9995828645e+00 2.8865105127e+00 4.9995828645e+00 
111900 5.1697974060e+00 -1.9218752746e-03 2.8865438635e+00 -4.9996406298e+00 2.8865438635e+00 4.9996406298e+00 
112000 5.1697971799e+00 -1.9184114034e-03 2.8865771538e+00 -4.9996982903e+00 2.8865771538e+00 4.9996982903e+00 
112100 5.1697969547e+00 -1.9149523758e-03 2.8866103837e+00 -4.9997558462e+00 2.8866103837e+00 4.9997558462e+00 
112200 5.1697967303e+00 -1.9114981915e-03 2.8866435533e+00 -4.9998132977e+00 2.8866435533e+00 4.9998132977e+00 
112300 5.1697965067e+00 -1.9080488500e-03 2.8866766627e+00 -4.9998706449e+00 2.8866766627e+00 4.9998706449e+00 
112400 5.1697962839e+00 -1.9046043511e-03 2.8867097120e+00 -4.9999278880e+00 2.8867097120e+00 4.9999278880e+00 
112500 5.1697960619e+00 -1.9011646941e-03 2.8867427013e+00 -4.9999850270e+00 2.8867427013e+00 4.9999850270e+00 
112600 5.1697958408e+00 -1.8977298787e-03 2.8867756306e+00 -5.0000420622e+00 2.8867756306e+00 5.0000420622e+00 
112700 5.1697956204e+00 -1.8942999044e-03 2.8868085000e+00 -5.0000989938e+00 2.8868085000e+00 5.0000989938e+00 
112800 5.1697954009e+00 -1.8908747707e-03 2.8868413097e+00 -5.0001558218e+00 2.8868413097e+00 5.0001558218e+00 
112900 5.1697951821e+00 -1.8874544770e-03 2.8868740596e+00 -5.0002125463e+00 2.8868740596e+00 5.0002125463e+00 
113000 5.1697949642e+00 -1.8840390228e-03 2.8869067500e+00 -5.0002691677e+00 2.8869067500e+00 5.0002691677e+00 
113100 5.1697947470e+00 -1.8806284075e-03 2.8869393808e+00 -5.0003256859e+00 2.8869393808e+00 5.0003256859e+00 
113200 5.1697945307e+00 -1.8772226303e-03 2.8869719522e+00 -5.0003821012e+00 2.8869719522e+00 5.0003821012e+00 
113300 5.1697943151e+00 -1.8738216908e-03 2.8870044642e+00 -5.0004384137e+00 2.8870044642e+00 5.0004384137e+00 
113400 5.1697941003e+00 -1.8704255881e-03 2.8870369170e+00 -5.0004946235e+00 2.8870369170e+00 5.0004946235e+00 
113500 5.1697938863e+00 -1.8670343216e-03 2.8870693105e+00 -5.0005507308e+00 2.8870693105e+00 5.0005507308e+00 
113600 5.1697936731e+00 -1.8636478906e-03 2.8871016450e+00 -5.0006067358e+00 2.8871016450e+00 5.0006067358e+00 
113700 5.1697934606e+00 -1.8602662942e-03 2.8871339205e+00 -5.0006626385e+00 2.8871339205e+00 5.0006626385e+00 
113800 5.1697932490e+00 -1.8568895317e-03 2.8871661370e+00 -5.0007184392e+00 2.8871661370e+00 5.0007184392e+00 
113900 5.1697930381e+00 -1.8535176022e-03 2.8871982947e+00 -5.0007741380e+00 2.8871982947e+00 5.0007741380e+00 
114000 5.1697928280e+00 -1.8501505049e-03 2.8872303937e+00 -5.0008297350e+00 2.8872303937e+00 5.0008297350e+00 
114100 5.1697926187e+00 -1.8467882389e-03 2.8872624340e+00 -5.0008852305e+00 2.8872624340e+00 5.0008852305e+00 
114200 5.1697924101e+00 -1.8434308032e-03 2.8872944157e+00 -5.0009406244e+00 2.8872944157e+00 5.0009406244e+00 
114300 5.1697922023e+00 -1.8400781971e-03 2.8873263389e+00 -5.0009959170e+00 2.8873263389e+00 5.0009959170e+00 
114400 5.1697919952e+00 -1.8367304194e-03 2.8873582037e+00 -5.0010511085e+00 2.8873582037e+00 5.0010511085e+00 
114500 5.1697917889e+00 -1.8333874692e-03 2.8873900102e+00 -5.0011061989e+00 2.8873900102e+00 5.0011061989e+00 
114600 5.1697915834e+00 -1.8300493454e-03 2.8874217584e+00 -5.0011611885e+00 2.8874217584e+00 5.0011611885e+00 
114700 5.1697913786e+00 -1.8267160471e-03 2.8874534485e+00 -5.0012160773e+00 2.8874534485e+00 5.0012160773e+00 
114800 5.1697911746e+00 -1.8233875731e-03 2.8874850805e+00 -5.0012708656e+00 2.8874850805e+00 5.0012708656e+00 
114900 5.1697909713e+00 -1.8200639223e-03 2.8875166546e+00 -5.0013255534e+00 2.8875166546e+00 5.0013255534e+00 
115000 5.1697907688e+00 -1.8167450936e-03 2.8875481707e+00 -5.0013801409e+00 2.8875481707e+00 5.0013801409e+00 
115100 5.1697905670e+00 -1.8134310858e-03 2.8875796290e+00 -5.0014346283e+00 2.8875796290e+00 5.0014346283e+00 
115200 5.1697903660e+00 -1.8101218978e-03 2.8876110296e+00 -5.0014890158e+00 2.8876110296e+00 5.0014890158e+00 
115300 5.1697901657e+00 -1.8068175283e-03 2.8876423726e+00 -5.0015433034e+00 2.8876423726e+00 5.0015433034e+00 
115400 5.1697899661e+00 -1.8035179761e-03 2.8876736580e+00 -5.0015974913e+00 2.8876736580e+00 5.0015974913e+00 
115500 5.1697897673e+00 -1.8002232399e-03 2.8877048859e+00 -5.0016515796e+00 2.8877048859e+00 5.0016515796e+00 
115600 5.1697895691e+00 -1.7969333183e-03 2.8877360564e+00 -5.0017055686e+00 2.8877360564e+00 5.0017055686e+00 
115700 5.1697893718e+00 -1.7936482102e-03 2.8877671697e+00 -5.0017594583e+00 2.8877671697e+00 5.0017594583e+00 
115800 5.1697891751e+00 -1.7903679141e-03 2.8877982257e+00 -5.0018132489e+00 2.8877982257e+00 5.0018132489e+00 
115900 5.1697889792e+00 -1.7870924286e-03 2.8878292246e+00 -5.0018669406e+00 2.8878292246e+00 5.0018669406e+00 
116000 5.1697887840e+00 -1.7838217523e-03 2.8878601664e+00 -5.0019205334e+00 2.8878601664e+00 5.0019205334e+00 
116100 5.1697885895e+00 -1.7805558839e-03 2.8878910513e+00 -5.0019740276e+00 2.8878910513e+00 5.0019740276e+00 
116200 5.1697883958e+00 -1.7772948217e-03 2.8879218793e+00 -5.0020274233e+00 2.8879218793e+00 5.0020274233e+00 
116300 5.1697882027e+00 -1.7740385644e-03 2.8879526506e+00 -5.0020807206e+00 2.8879526506e+00 5.0020807206e+00 
116400 5.1697880104e+00 -1.7707871105e-03 2.8879833651e+00 -5.0021339197e+00 2.8879833651e+00 5.0021339197e+00 
116500 5.1697878188e+00 -1.7675404583e-03 2.8880140230e+00 -5.0021870208e+00 2.8880140230e+00 5.0021870208e+00 
116600 5.1697876278e+00 -1.7642986063e-03 2.8880446244e+00 -5.0022400239e+00 2.8880446244e+00 5.0022400239e+00 
116700 5.1697874376e+00 -1.7610615530e-03 2.8880751693e+00 -5.0022929293e+00 2.8880751693e+00 5.0022929293e+00 
116800 5.1697872481e+00 -1.7578292966e-03 2.8881056578e+00 -5.0023457370e+00 2.8881056578e+00 5.0023457370e+00 
116900 5.1697870593e+00 -1.7546018356e-03 2.8881360901e+00 -5.0023984472e+00 2.8881360901e+00 5.0023984472e+00 
117000 5.1697868712e+00 -1.7513791683e-03 2.8881664662e+00 -5.0024510601e+00 2.8881664662e+00 5.0024510601e+00 
117100 5.1697866838e+00 -1.7481612929e-03 2.8881967861e+00 -5.0025035759e+00 2.8881967861e+00 5.0025035759e+00 
117200 5.1697864970e+00 -1.7449482078e-03 2.8882270501e+00 -5.0025559945e+00 2.8882270501e+00 5.0025559945e+00 
117300 5.1697863110e+00 -1.7417399111e-03 2.8882572581e+00 -5.0026083163e+00 2.8882572581e+00 5.0026083163e+00 
117400 5.1697861257e+00 -1.7385364012e-03 2.8882874102e+00 -5.0026605414e+00 2.8882874102e+00 5.0026605414e+00 
117500 5.1697859410e+00 -1.7353376761e-03 2.8883175066e+00 -5.0027126698e+00 2.8883175066e+00 5.0027126698e+00 
117600 5.1697857570e+00 -1.7321437341e-03 2.8883475473e+00 -5.0027647018e+00 2.8883475473e+00 5.0027647018e+00 
117700 5.1697855737e+00 -1.7289545733e-03 2.8883775324e+00 -5.0028166375e+00 2.8883775324e+00 5.0028166375e+00 
117800 5.1697853911e+00 -1.7257701919e-03 2.8884074619e+00 -5.0028684770e+00 2.8884074619e+00 5.0028684770e+00 
117900 5.1697852092e+00 -1.7225905878e-03 2.8884373361e+00 -5.0029202205e+00 2.8884373361e+00 5.0029202205e+00 
118000 5.1697850279e+00 -1.7194157592e-03 2.8884671548e+00 -5.0029718682e+00 2.8884671548e+00 5.0029718682e+00 
118100 5.1697848473e+00 -1.7162457041e-03 2.8884969184e+00 -5.0030234201e+00 2.8884969184e+00 5.0030234201e+00 
118200 5.1697846674e+00 -1.7130804206e-03 2.8885266267e+00 -5.0030748764e+00 2.8885266267e+00 5.0030748764e+00 
118300 5.1697844882e+00 -1.7099199066e-03 2.8885562799e+00 -5.0031262374e+00 2.8885562799e+00 5.0031262374e+00 
118400 5.1697843096e+00 -1.7067641601e-03 2.8885858782e+00 -5.0031775030e+00 2.8885858782e+00 5.0031775030e+00 
118500 5.1697841316e+00 -1.7036131789e-03 2.8886154215e+00 -5.0032286735e+00 2.8886154215e+00 5.0032286735e+00 
118600 5.1697839544e+00 -1.7004669612e-03 2.8886449099e+00 -5.0032797490e+00 2.8886449099e+00 5.0032797490e+00 
118700 5.1697837778e+00 -1.6973255046e-03 2.8886743436e+00 -5.0033307296e+00 2.8886743436e+00 5.0033307296e+00 
118800 5.1697836018e+00 -1.6941888071e-03 2.8887037226e+00 -5.0033816156e+00 2.8887037226e+00 5.0033816156e+00 
118900 5.1697834265e+00 -1.6910568666e-03 2.8887330470e+00 -5.0034324070e+00 2.8887330470e+00 5.0034324070e+00 
119000 5.1697832519e+00 -1.6879296808e-03 2.8887623170e+00 -5.0034831040e+00 2.8887623170e+00 5.0034831040e+00 
119100 5.1697830779e+00 -1.6848072475e-03 2.8887915325e+00 -5.0035337067e+00 2.8887915325e+00 5.0035337067e+00 
119200 5.1697829045e+00 -1.6816895646e-03 2.8888206936e+00 -5.0035842153e+00 2.8888206936e+00 5.0035842153e+00 
119300 5.1697827318e+00 -1.6785766296e-03 2.8888498005e+00 -5.0036346299e+00 2.8888498005e+00 5.0036346299e+00 
119400 5.1697825598e+00 -1.6754684405e-03 2.8888788533e+00 -5.0036849507e+00 2.8888788533e+00 5.0036849507e+00 
119500 5.1697823884e+00 -1.6723649948e-03 2.8889078519e+00 -5.0037351779e+00 2.8889078519e+00 5.0037351779e+00 
119600 5.1697822176e+00 -1.6692662902e-03 2.8889367965e+00 -5.0037853115e+00 2.8889367965e+00 5.0037853115e+00 
119700 5.1697820474e+00 -1.6661723243e-03 2.8889656872e+00 -5.0038353516e+00 2.8889656872e+00 5.0038353516e+00 
119800 5.1697818779e+00 -1.6630830949e-03 2.8889945241e+00 -5.0038852986e+00 2.8889945241e+00 5.0038852986e+00 
119900 5.1697817090e+00 -1.6599985994e-03 2.8890233073e+00 -5.0039351524e+00 2.8890233073e+00 5.0039351524e+00 
120000 5.1697815408e+00 -1.6569188355e-03 2.8890520367e+00 -5.0039849133e+00 2.8890520367e+00 5.0039849133e+00 
120100 5.1697813732e+00 -1.6538438008e-03 2.8890807126e+00 -5.0040345814e+00 2.8890807126e+00 5.0040345814e+00 
120200 5.1697812062e+00 -1.6507734926e-03 2.8891093349e+00 -5.0040841567e+00 2.8891093349e+00 5.0040841567e+00 
120300 5.1697810398e+00 -1.6477079086e-03 2.8891379039e+00 -5.0041336396e+00 2.8891379039e+00 5.0041336396e+00 
120400 5.1697808740e+00 -1.6446470462e-03 2.8891664195e+00 -5.0041830301e+00 2.8891664195e+00 5.0041830301e+00 
120500 5.1697807089e+00 -1.6415909029e-03 2.8891948819e+00 -5.0042323284e+00 2.8891948819e+00 5.0042323284e+00 
120600 5.1697805444e+00 -1.6385394762e-03 2.8892232910e+00 -5.0042815345e+00 2.8892232910e+00 5.0042815345e+00 
120700 5.1697803805e+00 -1.6354927633e-03 2.8892516471e+00 -5.0043306487e+00 2.8892516471e+00 5.0043306487e+00 
120800 5.1697802172e+00 -1.6324507618e-03 2.8892799502e+00 -5.0043796711e+00 2.8892799502e+00 5.0043796711e+00 
120900 5.1697800545e+00 -1.6294134690e-03 2.8893082004e+00 -5.0044286019e+00 2.8893082004e+00 5.0044286019e+00 
121000 5.1697798924e+00 -1.6263808822e-03 2.8893363978e+00 -5.0044774411e+00 2.8893363978e+00 5.0044774411e+00 
121100 5.1697797310e+00 -1.6233529987e-03 2.8893645424e+00 -5.0045261889e+00 2.8893645424e+00 5.0045261889e+00 
121200 5.1697795701e+00 -1.6203298159e-03 2.8893926343e+00 -5.0045748456e+00 2.8893926343e+00 5.0045748456e+00 
121300 5.1697794098e+00 -1.6173113310e-03 2.8894206736e+00 -5.0046234111e+00 2.8894206736e+00 5.0046234111e+00 
121400 5.1697792502e+00 -1.6142975414e-03 2.8894486604e+00 -5.0046718857e+00 2.8894486604e+00 5.0046718857e+00 
121500 5.1697790911e+00 -1.6112884441e-03 2.8894765948e+00 -5.0047202695e+00 2.8894765948e+00 5.0047202695e+00 
121600 5.1697789326e+00 -1.6082840365e-03 2.8895044769e+00 -5.0047685626e+00 2.8895044769e+00 5.0047685626e+00 
121700 5.1697787748e+00 -1.6052843157e-03 2.8895323067e+00 -5.0048167653e+00 2.8895323067e+00 5.0048167653e+00 
121800 5.1697786175e+00 -1.6022892789e-03 2.8895600843e+00 -5.0048648775e+00 2.8895600843e+00 5.0048648775e+00 
121900 5.1697784608e+00 -1.5992989232e-03 2.8895878098e+00 -5.0049128995e+00 2.8895878098e+00 5.0049128995e+00 
122000 5.1697783047e+00 -1.5963132458e-03 2.8896154833e+00 -5.0049608315e+00 2.8896154833e+00 5.0049608315e+00 
122100 5.1697781491e+00 -1.5933322437e-03 2.8896431049e+00 -5.0050086735e+00 2.8896431049e+00 5.0050086735e+00 
122200 5.1697779942e+00 -1.5903559141e-03 2.8896706747e+00 -5.0050564257e+00 2.8896706747e+00 5.0050564257e+00 
122300 5.1697778398e+00 -1.5873842540e-03 2.8896981927e+00 -5.0051040883e+00 2.8896981927e+00 5.0051040883e+00 
122400 5.1697776861e+00 -1.5844172605e-03 2.8897256590e+00 -5.0051516613e+00 2.8897256590e+00 5.0051516613e+00 
122500 5.1697775329e+00 -1.5814549305e-03 2.8897530737e+00 -5.0051991450e+00 2.8897530737e+00 5.0051991450e+00 
122600 5.1697773802e+00 -1.5784972611e-03 2.8897804369e+00 -5.0052465394e+00 2.8897804369e+00 5.0052465394e+00 
122700 5.1697772282e+00 -1.5755442493e-03 2.8898077486e+00 -5.0052938448e+00 2.8898077486e+00 5.0052938448e+00 
122800 5.1697770767e+00 -1.5725958919e-03 2.8898350091e+00 -5.0053410612e+00 2.8898350091e+00 5.0053410612e+00 
122900 5.1697769258e+00 -1.5696521860e-03 2.8898622182e+00 -5.0053881888e+00 2.8898622182e+00 5.0053881888e+00 
123000 5.1697767754e+00 -1.5667131285e-03 2.8898893761e+00 -5.0054352277e+00 2.8898893761e+00 5.0054352277e+00 
123100 5.1697766256e+00 -1.5637787162e-03 2.8899164830e+00 -5.0054821782e+00 2.8899164830e+00 5.0054821782e+00 
123200 5.1697764764e+00 -1.5608489461e-03 2.8899435388e+00 -5.0055290402e+00 2.8899435388e+00 5.0055290402e+00 
123300 5.1697763278e+00 -1.5579238149e-03 2.8899705437e+00 -5.0055758140e+00 2.8899705437e+00 5.0055758140e+00 
123400 5.1697761797e+00 -1.5550033196e-03 2.8899974977e+00 -5.0056224998e+00 2.8899974977e+00 5.0056224998e+00 
123500 5.1697760321e+00 -1.5520874569e-03 2.8900244009e+00 -5.0056690975e+00 2.8900244009e+00 5.0056690975e+00 
123600 5.1697758851e+00 -1.5491762236e-03 2.8900512535e+00 -5.0057156075e+00 2.8900512535e+00 5.0057156075e+00 
123700 5.1697757387e+00 -1.5462696166e-03 2.8900780554e+00 -5.0057620298e+00 2.8900780554e+00 5.0057620298e+00 
123800 5.1697755928e+00 -1.5433676326e-03 2.8901048068e+00 -5.0058083645e+00 2.8901048068e+00 5.0058083645e+00 
123900 5.1697754475e+00 -1.5404702683e-03 2.8901315077e+00 -5.0058546119e+00 2.8901315077e+00 5.0058546119e+00 
124000 5.1697753027e+00 -1.5375775204e-03 2.8901581583e+00 -5.0059007721e+00 2.8901581583e+00 5.0059007721e+00 
124100 5.1697751585e+00 -1.5346893856e-03 2.8901847586e+00 -5.0059468451e+00 2.8901847586e+00 5.0059468451e+00 
124200 5.1697750148e+00 -1.5318058607e-03 2.8902113086e+00 -5.0059928311e+00 2.8902113086e+00 5.0059928311e+00 
124300 5.1697748716e+00 -1.5289269423e-03 2.8902378086e+00 -5.0060387304e+00 2.8902378086e+00 5.0060387304e+00 
124400 5.1697747290e+00 -1.5260526270e-03 2.8902642584e+00 -5.0060845429e+00 2.8902642584e+00 5.0060845429e+00 
124500 5.1697745869e+00 -1.5231829114e-03 2.8902906584e+00 -5.0061302689e+00 2.8902906584e+00 5.0061302689e+00 
124600 5.1697744454e+00 -1.5203177922e-03 2.8903170084e+00 -5.0061759085e+00 2.8903170084e+00 5.0061759085e+00 
124700 5.1697743044e+00 -1.5174572660e-03 2.8903433086e+00 -5.0062214619e+00 2.8903433086e+00 5.0062214619e+00 
124800 5.1697741639e+00 -1.5146013293e-03 2.8903695591e+00 -5.0062669291e+00 2.8903695591e+00 5.0062669291e+00 
124900 5.1697740239e+00 -1.5117499786e-03 2.8903957600e+00 -5.0063123103e+00 2.8903957600e+00 5.0063123103e+00 
125000 5.1697738845e+00 -1.5089032106e-03 2.8904219113e+00 -5.0063576057e+00 2.8904219113e+00 5.0063576057e+00 
125100 5.1697737456e+00 -1.5060610217e-03 2.8904480131e+00 -5.0064028154e+00 2.8904480131e+00 5.0064028154e+00 
125200 5.1697736073e+00 -1.5032234084e-03 2.8904740655e+00 -5.0064479395e+00 2.8904740655e+00 5.0064479395e+00 
125300 5.1697734694e+00 -1.5003903672e-03 2.8905000686e+00 -5.0064929782e+00 2.8905000686e+00 5.0064929782e+00 
125400 5.1697733321e+00 -1.4975618946e-03 2.8905260225e+00 -5.0065379316e+00 2.8905260225e+00 5.0065379316e+00 
125500 5.1697731953e+00 -1.4947379870e-03 2.8905519272e+00 -5.0065827998e+00 2.8905519272e+00 5.0065827998e+00 
125600 5.1697730590e+00 -1.4919186408e-03 2.8905777828e+00 -5.0066275831e+00 2.8905777828e+00 5.0066275831e+00 
125700 5.1697729232e+00 -1.4891038525e-03 2.8906035894e+00 -5.0066722814e+00 2.8906035894e+00 5.0066722814e+00 
125800 5.1697727880e+00 -1.4862936184e-03 2.8906293471e+00 -5.0067168951e+00 2.8906293471e+00 5.0067168951e+00 
125900 5.1697726532e+00 -1.4834879350e-03 2.8906550560e+00 -5.0067614241e+00 2.8906550560e+00 5.0067614241e+00 
126000 5.1697725190e+00 -1.4806867985e-03 2.8906807161e+00 -5.0068058687e+00 2.8906807161e+00 5.0068058687e+00 
126100 5.1697723853e+00 -1.4778902054e-03 2.8907063275e+00 -5.0068502290e+00 2.8907063275e+00 5.0068502290e+00 
126200 5.1697722520e+00 -1.4750981519e-03 2.8907318904e+00 -5.0068945051e+00 2.8907318904e+00 5.0068945051e+00 
126300 5.1697721193e+00 -1.4723106344e-03 2.8907574047e+00 -5.0069386972e+00 2.8907574047e+00 5.0069386972e+00 
126400 5.1697719871e+00 -1.4695276491e-03 2.8907828705e+00 -5.0069828054e+00 2.8907828705e+00 5.0069828054e+00 
126500 5.1697718554e+00 -1.4667491924e-03 2.8908082880e+00 -5.0070268298e+00 2.8908082880e+00 5.0070268298e+00 
126600 5.1697717242e+00 -1.4639752604e-03 2.8908336573e+00 -5.0070707706e+00 2.8908336573e+00 5.0070707706e+00 
126700 5.1697715934e+00 -1.4612058495e-03 2.8908589783e+00 -5.0071146279e+00 2.8908589783e+00 5.0071146279e+00 
126800 5.1697714632e+00 -1.4584409559e-03 2.8908842512e+00 -5.0071584018e+00 2.8908842512e+00 5.0071584018e+00 
126900 5.1697713335e+00 -1.4556805757e-03 2.8909094760e+00 -5.0072020926e+00 2.8909094760e+00 5.0072020926e+00 
127000 5.1697712043e+00 -1.4529247052e-03 2.8909346529e+00 -5.0072457003e+00 2.8909346529e+00 5.0072457003e+00 
127100 5.1697710755e+00 -1.4501733405e-03 2.8909597820e+00 -5.0072892250e+00 2.8909597820e+00 5.0072892250e+00 
127200 5.1697709473e+00 -1.4474264779e-03 2.8909848632e+00 -5.0073326669e+00 2.8909848632e+00 5.0073326669e+00 
127300 5.1697708195e+00 -1.4446841135e-03 2.8910098967e+00 -5.0073760262e+00 2.8910098967e+00 5.0073760262e+00 
127400 5.1697706922e+00 -1.4419462433e-03 2.8910348825e+00 -5.0074193029e+00 2.8910348825e+00 5.0074193029e+00 
127500 5.1697705654e+00 -1.4392128636e-03 2.8910598208e+00 -5.0074624973e+00 2.8910598208e+00 5.0074624973e+00 
127600 5.1697704391e+00 -1.4364839703e-03 2.8910847115e+00 -5.0075056094e+00 2.8910847115e+00 5.0075056094e+00 
127700 5.1697703132e+00 -1.4337595597e-03 2.8911095549e+00 -5.0075486394e+00 2.8911095549e+00 5.0075486394e+00 
127800 5.1697701879e+00 -1.4310396278e-03 2.8911343510e+00 -5.0075915874e+00 2.8911343510e+00 5.0075915874e+00 
127900 5.1697700630e+00 -1.4283241707e-03 2.8911590998e+00 -5.0076344535e+00 2.8911590998e+00 5.0076344535e+00 
128000 5.1697699386e+00 -1.4256131843e-03 2.8911838014e+00 -5.0076772380e+00 2.8911838014e+00 5.0076772380e+00 
128100 5.1697698146e+00 -1.4229066647e-03 2.8912084559e+00 -5.0077199409e+00 2.8912084559e+00 5.0077199409e+00 
128200 5.1697696912e+00 -1.4202046080e-03 2.8912330634e+00 -5.0077625623e+00 2.8912330634e+00 5.0077625623e+00 
128300 5.1697695682e+00 -1.4175070101e-03 2.8912576240e+00 -5.0078051025e+00 2.8912576240e+00 5.0078051025e+00 
128400 5.1697694456e+00 -1.4148138670e-03 2.8912821377e+00 -5.0078475615e+00 2.8912821377e+00 5.0078475615e+00 
128500 5.1697693236e+00 -1.4121251748e-03 2.8913066046e+00 -5.0078899395e+00 2.8913066046e+00 5.0078899395e+00 
128600 5.1697692020e+00 -1.4094409292e-03 2.8913310248e+00 -5.0079322365e+00 2.8913310248e+00 5.0079322365e+00 
128700 5.1697690808e+00 -1.4067611264e-03 2.8913553984e+00 -5.0079744528e+00 2.8913553984e+00 5.0079744528e+00 
128800 5.1697689601e+00 -1.4040857622e-03 2.8913797255e+00 -5.0080165885e+00 2.8913797255e+00 5.0080165885e+00 
128900 5.1697688399e+00 -1.4014148325e-03 2.8914040061e+00 -5.0080586437e+00 2.8914040061e+00 5.0080586437e+00 
129000 5.1697687202e+00 -1.3987483333e-03 2.8914282403e+00 -5.0081006186e+00 2.8914282403e+00 5.0081006186e+00 
129100 5.1697686009e+00 -1.3960862604e-03 2.8914524281e+00 -5.0081425132e+00 2.8914524281e+00 5.0081425132e+00 
129200 5.1697684820e+00 -1.3934286098e-03 2.8914765698e+00 -5.0081843278e+00 2.8914765698e+00 5.0081843278e+00 
129300 5.1697683636e+00 -1.3907753772e-03 2.8915006653e+00 -5.0082260624e+00 2.8915006653e+00 5.0082260624e+00 
129400 5.1697682457e+00 -1.3881265585e-03 2.8915247147e+00 -5.0082677172e+00 2.8915247147e+00 5.0082677172e+00 
129500 5.1697681282e+00 -1.3854821495e-03 2.8915487181e+00 -5.0083092923e+00 2.8915487181e+00 5.0083092923e+00 
129600 5.1697680111e+00 -1.3828421462e-03 2.8915726756e+00 -5.0083507878e+00 2.8915726756e+00 5.0083507878e+00 
129700 5.1697678945e+00 -1.3802065442e-03 2.8915965872e+00 -5.0083922040e+00 2.8915965872e+00 5.0083922040e+00 
129800 5.1697677784e+00 -1.3775753394e-03 2.8916204530e+00 -5.0084335409e+00 2.8916204530e+00 5.0084335409e+00 
129900 5.1697676627e+00 -1.3749485276e-03 2.8916442732e+00 -5.0084747986e+00 2.8916442732e+00 5.0084747986e+00 
130000 5.1697675474e+00 -1.3723261045e-03 2.8916680477e+00 -5.0085159773e+00 2.8916680477e+00 5.0085159773e+00 
130100 5.1697674326e+00 -1.3697080659e-03 2.8916917767e+00 -5.0085570771e+00 2.8916917767e+00 5.0085570771e+00 
130200 5.1697673182e+00 -1.3670944076e-03 2.8917154603e+00 -5.0085980982e+00 2.8917154603e+00 5.0085980982e+00 
130300 5.1697672042e+00 -1.3644851253e-03 2.8917390984e+00 -5.0086390407e+00 2.8917390984e+00 5.0086390407e+00 
130400 5.1697670907e+00 -1.3618802146e-03 2.8917626913e+00 -5.0086799047e+00 2.8917626913e+00 5.0086799047e+00 
130500 5.1697669776e+00 -1.3592796714e-03 2.8917862389e+00 -5.0087206904e+00 2.8917862389e+00 5.0087206904e+00 
130600 5.1697668650e+00 -1.3566834913e-03 2.8918097413e+00 -5.0087613978e+00 2.8918097413e+00 5.0087613978e+00 
130700 5.1697667527e+00 -1.3540916699e-03 2.8918331987e+00 -5.0088020272e+00 2.8918331987e+00 5.0088020272e+00 
130800 5.1697666410e+00 -1.3515042031e-03 2.8918566111e+00 -5.0088425786e+00 2.8918566111e+00 5.0088425786e+00 
130900 5.1697665296e+00 -1.3489210863e-03 2.8918799785e+00 -5.0088830522e+00 2.8918799785e+00 5.0088830522e+00 
131000 5.1697664186e+00 -1.3463423154e-03 2.8919033011e+00 -5.0089234481e+00 2.8919033011e+00 5.0089234481e+00 
131100 5.1697663081e+00 -1.3437678859e-03 2.8919265789e+00 -5.0089637665e+00 2.8919265789e+00 5.0089637665e+00 
131200 5.1697661980e+00 -1.3411977934e-03 2.8919498121e+00 -5.0090040074e+00 2.8919498121e+00 5.0090040074e+00 
131300 5.1697660884e+00 -1.3386320336e-03 2.8919730006e+00 -5.0090441711e+00 2.8919730006e+00 5.0090441711e+00 
131400 5.1697659791e+00 -1.3360706021e-03 2.8919961445e+00 -5.0090842576e+00 2.8919961445e+00 5.0090842576e+00 
131500 5.1697658703e+00 -1.3335134945e-03 2.8920192440e+00 -5.0091242671e+00 2.8920192440e+00 5.0091242671e+00 
131600 5.1697657619e+00 -1.3309607063e-03 2.8920422991e+00 -5.0091641997e+00 2.8920422991e+00 5.0091641997e+00 
131700 5.1697656539e+00 -1.3284122331e-03 2.8920653099e+00 -5.0092040555e+00 2.8920653099e+00 5.0092040555e+00 
131800 5.1697655463e+00 -1.3258680705e-03 2.8920882764e+00 -5.0092438347e+00 2.8920882764e+00 5.0092438347e+00 
131900 5.1697654391e+00 -1.3233282140e-03 2.8921111988e+00 -5.0092835374e+00 2.8921111988e+00 5.0092835374e+00 
132000 5.1697653323e+00 -1.3207926593e-03 2.8921340770e+00 -5.0093231637e+00 2.8921340770e+00 5.0093231637e+00 
132100 5.1697652260e+00 -1.3182614017e-03 2.8921569113e+00 -5.0093627138e+00 2.8921569113e+00 5.0093627138e+00 
132200 5.1697651200e+00 -1.3157344369e-03 2.8921797016e+00 -5.0094021878e+00 2.8921797016e+00 5.0094021878e+00 
132300 5.1697650145e+00 -1.3132117603e-03 2.8922024480e+00 -5.0094415858e+00 2.8922024480e+00 5.0094415858e+00 
132400 5.1697649093e+00 -1.3106933674e-03 2.8922251507e+00 -5.0094809079e+00 2.8922251507e+00 5.0094809079e+00 
132500 5.1697648046e+00 -1.3081792538e-03 2.8922478096e+00 -5.0095201544e+00 2.8922478096e+00 5.0095201544e+00 
132600 5.1697647003e+00 -1.3056694148e-03 2.8922704249e+00 -5.0095593252e+00 2.8922704249e+00 5.0095593252e+00 
132700 5.1697645963e+00 -1.3031638460e-03 2.8922929967e+00 -5.0095984206e+00 2.8922929967e+00 5.0095984206e+00 
132800 5.1697644928e+00 -1.3006625429e-03 2.8923155249e+00 -5.0096374407e+00 2.8923155249e+00 5.0096374407e+00 
132900 5.1697643897e+00 -1.2981655008e-03 2.8923380097e+00 -5.0096763855e+00 2.8923380097e+00 5.0096763855e+00 
133000 5.1697642869e+00 -1.2956727153e-03 2.8923604512e+00 -5.0097152553e+00 2.8923604512e+00 5.0097152553e+00 
133100 5.1697641846e+00 -1.2931841817e-03 2.8923828494e+00 -5.0097540502e+00 2.8923828494e+00 5.0097540502e+00 
133200 5.1697640826e+00 -1.2906998955e-03 2.8924052045e+00 -5.0097927702e+00 2.8924052045e+00 5.0097927702e+00 
133300 5.1697639811e+00 -1.2882198520e-03 2.8924275164e+00 -5.0098314156e+00 2.8924275164e+00 5.0098314156e+00 
133400 5.1697638799e+00 -1.2857440468e-03 2.8924497852e+00 -5.0098699864e+00 2.8924497852e+00 5.0098699864e+00 
133500 5.1697637791e+00 -1.2832724751e-03 2.8924720111e+00 -5.0099084827e+00 2.8924720111e+00 5.0099084827e+00 
133600 5.1697636787e+00 -1.2808051324e-03 2.8924941941e+00 -5.0099469048e+00 2.8924941941e+00 5.0099469048e+00 
133700 5.1697635787e+00 -1.2783420140e-03 2.8925163343e+00 -5.0099852527e+00 2.8925163343e+00 5.0099852527e+00 
133800 5.1697634791e+00 -1.2758831153e-03 2.8925384317e+00 -5.0100235266e+00 2.8925384317e+00 5.0100235266e+00 
133900 5.1697633799e+00 -1.2734284316e-03 2.8925604865e+00 -5.0100617266e+00 2.8925604865e+00 5.0100617266e+00 
134000 5.1697632810e+00 -1.2709779584e-03 2.8925824987e+00 -5.0100998528e+00 2.8925824987e+00 5.0100998528e+00 
134100 5.1697631825e+00 -1.2685316909e-03 2.8926044683e+00 -5.0101379053e+00 2.8926044683e+00 5.0101379053e+00 
134200 5.1697630844e+00 -1.2660896244e-03 2.8926263955e+00 -5.0101758843e+00 2.8926263955e+00 5.0101758843e+00 
134300 5.1697629867e+00 -1.2636517544e-03 2.8926482803e+00 -5.0102137899e+00 2.8926482803e+00 5.0102137899e+00 
134400 5.1697628894e+00 -1.2612180761e-03 2.8926701228e+00 -5.0102516222e+00 2.8926701228e+00 5.0102516222e+00 
134500 5.1697627924e+00 -1.2587885848e-03 2.8926919230e+00 -5.0102893813e+00 2.8926919230e+00 5.0102893813e+00 
134600 5.1697626958e+00 -1.2563632758e-03 2.8927136811e+00 -5.0103270675e+00 2.8927136811e+00 5.0103270675e+00 
134700 5.1697625996e+00 -1.2539421444e-03 2.8927353972e+00 -5.0103646808e+00 2.8927353972e+00 5.0103646808e+00 
134800 5.1697625037e+00 -1.2515251858e-03 2.8927570712e+00 -5.0104022213e+00 2.8927570712e+00 5.0104022213e+00 
134900 5.1697624082e+00 -1.2491123955e-03 2.8927787033e+00 -5.0104396891e+00 2.8927787033e+00 5.0104396891e+00 
135000 5.1697623131e+00 -1.2467037685e-03 2.8928002935e+00 -5.0104770844e+00 2.8928002935e+00 5.0104770844e+00 
135100 5.1697622183e+00 -1.2442993003e-03 2.8928218419e+00 -5.0105144074e+00 2.8928218419e+00 5.0105144074e+00 
135200 5.1697621240e+00 -1.2418989859e-03 2.8928433486e+00 -5.0105516581e+00 2.8928433486e+00 5.0105516581e+00 
135300 5.1697620299e+00 -1.2395028208e-03 2.8928648136e+00 -5.0105888366e+00 2.8928648136e+00 5.0105888366e+00 
135400 5.1697619363e+00 -1.2371108000e-03 2.8928862371e+00 -5.0106259432e+00 2.8928862371e+00 5.0106259432e+00 
135500 5.1697618430e+00 -1.2347229189e-03 2.8929076191e+00 -5.0106629779e+00 2.8929076191e+00 5.0106629779e+00 
135600 5.1697617500e+00 -1.2323391726e-03 2.8929289596e+00 -5.0106999408e+00 2.8929289596e+00 5.0106999408e+00 
135700 5.1697616575e+00 -1.2299595564e-03 2.8929502588e+00 -5.0107368320e+00 2.8929502588e+00 5.0107368320e+00 
135800 5.1697615652e+00 -1.2275840654e-03 2.8929715167e+00 -5.0107736518e+00 2.8929715167e+00 5.0107736518e+00 
135900 5.1697614734e+00 -1.2252126950e-03 2.8929927334e+00 -5.0108104002e+00 2.8929927334e+00 5.0108104002e+00 
136000 5.1697613819e+00 -1.2228454402e-03 2.8930139090e+00 -5.0108470773e+00 2.8930139090e+00 5.0108470773e+00 
136100 5.1697612907e+00 -1.2204822962e-03 2.8930350434e+00 -5.0108836833e+00 2.8930350434e+00 5.0108836833e+00 
136200 5.1697611999e+00 -1.2181232583e-03 2.8930561369e+00 -5.0109202183e+00 2.8930561369e+00 5.0109202183e+00 
136300 5.1697611094e+00 -1.2157683215e-03 2.8930771895e+00 -5.0109566824e+00 2.8930771895e+00 5.0109566824e+00 
136400 5.1697610193e+00 -1.2134174812e-03 2.8930982012e+00 -5.0109930757e+00 2.8930982012e+00 5.0109930757e+00 
136500 5.1697609296e+00 -1.2110707323e-03 2.8931191721e+00 -5.0110293984e+00 2.8931191721e+00 5.0110293984e+00 
136600 5.1697608402e+00 -1.2087280701e-03 2.8931401023e+00 -5.0110656506e+00 2.8931401023e+00 5.0110656506e+00 
136700 5.1697607511e+00 -1.2063894898e-03 2.8931609919e+00 -5.0111018325e+00 2.8931609919e+00 5.0111018325e+00 
136800 5.1697606624e+00 -1.2040549863e-03 2.8931818409e+00 -5.0111379440e+00 2.8931818409e+00 5.0111379440e+00 
136900 5.1697605740e+00 -1.2017245550e-03 2.8932026494e+00 -5.0111739854e+00 2.8932026494e+00 5.0111739854e+00 
137000 5.1697604860e+00 -1.1993981909e-03 2.8932234175e+00 -5.0112099568e+00 2.8932234175e+00 5.0112099568e+00 
137100 5.1697603983e+00 -1.1970758891e-03 2.8932441453e+00 -5.0112458583e+00 2.8932441453e+00 5.0112458583e+00 
137200 5.1697603109e+00 -1.1947576447e-03 2.8932648327e+00 -5.0112816900e+00 2.8932648327e+00 5.0112816900e+00 
137300 5.1697602239e+00 -1.1924434530e-03 2.8932854800e+00 -5.0113174521e+00 2.8932854800e+00 5.0113174521e+00 
137400 5.1697601372e+00 -1.1901333088e-03 2.8933060871e+00 -5.0113531447e+00 2.8933060871e+00 5.0113531447e+00 
137500 5.1697600508e+00 -1.1878272075e-03 2.8933266541e+00 -5.0113887678e+00 2.8933266541e+00 5.0113887678e+00 
137600 5.1697599648e+00 -1.1855251439e-03 2.8933471812e+00 -5.0114243217e+00 2.8933471812e+00 5.0114243217e+00 
137700 5.1697598792e+00 -1.1832271133e-03 2.8933676683e+00 -5.0114598064e+00 2.8933676683e+00 5.0114598064e+00 
137800 5.1697597938e+00 -1.1809331107e-03 2.8933881155e+00 -5.0114952221e+00 2.8933881155e+00 5.0114952221e+00 
137900 5.1697597088e+00 -1.1786431312e-03 2.8934085230e+00 -5.0115305689e+00 2.8934085230e+00 5.0115305689e+00 
138000 5.1697596241e+00 -1.1763571698e-03 2.8934288907e+00 -5.0115658468e+00 2.8934288907e+00 5.0115658468e+00 
138100 5.1697595397e+00 -1.1740752217e-03 2.8934492188e+00 -5.0116010562e+00 2.8934492188e+00 5.0116010562e+00 
138200 5.1697594557e+00 -1.1717972818e-03 2.8934695074e+00 -5.0116361969e+00 2.8934695074e+00 5.0116361969e+00 
138300 5.1697593720e+00 -1.1695233453e-03 2.8934897564e+00 -5.0116712693e+00 2.8934897564e+00 5.0116712693e+00 
138400 5.1697592886e+00 -1.1672534071e-03 2.8935099660e+00 -5.0117062733e+00 2.8935099660e+00 5.0117062733e+00 
138500 5.1697592055e+00 -1.1649874623e-03 2.8935301362e+00 -5.0117412091e+00 2.8935301362e+00 5.0117412091e+00 
138600 5.1697591228e+00 -1.1627255060e-03 2.8935502671e+00 -5.0117760769e+00 2.8935502671e+00 5.0117760769e+00 
138700 5.1697590404e+00 -1.1604675332e-03 2.8935703588e+00 -5.0118108768e+00 2.8935703588e+00 5.0118108768e+00 
138800 5.1697589583e+00 -1.1582135389e-03 2.8935904114e+00 -5.0118456088e+00 2.8935904114e+00 5.0118456088e+00 
138900 5.1697588765e+00 -1.1559635182e-03 2.8936104248e+00 -5.0118802731e+00 2.8936104248e+00 5.0118802731e+00 
139000 5.1697587950e+00 -1.1537174660e-03 2.8936303993e+00 -5.0119148699e+00 2.8936303993e+00 5.0119148699e+00 
139100 5.1697587139e+00 -1.1514753773e-03 2.8936503348e+00 -5.0119493991e+00 2.8936503348e+00 5.0119493991e+00 
139200 5.1697586331e+00 -1.1492372473e-03 2.8936702314e+00 -5.0119838611e+00 2.8936702314e+00 5.0119838611e+00 
139300 5.1697585525e+00 -1.1470030708e-03 2.8936900892e+00 -5.0120182558e+00 2.8936900892e+00 5.0120182558e+00 
139400 5.1697584723e+00 -1.1447728430e-03 2.8937099082e+00 -5.0120525834e+00 2.8937099082e+00 5.0120525834e+00 
139500 5.1697583924e+00 -1.1425465587e-03 2.8937296886e+00 -5.0120868441e+00 2.8937296886e+00 5.0120868441e+00 
139600 5.1697583129e+00 -1.1403242130e-03 2.8937494304e+00 -5.0121210378e+00 2.8937494304e+00 5.0121210378e+00 
139700 5.1697582336e+00 -1.1381058008e-03 2.8937691337e+00 -5.0121551649e+00 2.8937691337e+00 5.0121551649e+00 
139800 5.1697581546e+00 -1.1358913172e-03 2.8937887984e+00 -5.0121892253e+00 2.8937887984e+00 5.0121892253e+00 
139900 5.1697580760e+00 -1.1336807572e-03 2.8938084248e+00 -5.0122232192e+00 2.8938084248e+00 5.0122232192e+00 
140000 5.1697579976e+00 -1.1314741156e-03 2.8938280129e+00 -5.0122571467e+00 2.8938280129e+00 5.0122571467e+00 
140100 5.1697579196e+00 -1.1292713876e-03 2.8938475627e+00 -5.0122910080e+00 2.8938475627e+00 5.0122910080e+00 
140200 5.1697578418e+00 -1.1270725680e-03 2.8938670743e+00 -5.0123248031e+00 2.8938670743e+00 5.0123248031e+00 
140300 5.1697577644e+00 -1.1248776518e-03 2.8938865478e+00 -5.0123585321e+00 2.8938865478e+00 5.0123585321e+00 
140400 5.1697576872e+00 -1.1226866339e-03 2.8939059832e+00 -5.0123921953e+00 2.8939059832e+00 5.0123921953e+00 
140500 5.1697576104e+00 -1.1204995094e-03 2.8939253807e+00 -5.0124257927e+00 2.8939253807e+00 5.0124257927e+00 
140600 5.1697575338e+00 -1.1183162732e-03 2.8939447402e+00 -5.0124593244e+00 2.8939447402e+00 5.0124593244e+00 
140700 5.1697574576e+00 -1.1161369202e-03 2.8939640619e+00 -5.0124927905e+00 2.8939640619e+00 5.0124927905e+00 
140800 5.1697573816e+00 -1.1139614454e-03 2.8939833458e+00 -5.0125261912e+00 2.8939833458e+00 5.0125261912e+00 
140900 5.1697573060e+00 -1.1117898438e-03 2.8940025920e+00 -5.0125595266e+00 2.8940025920e+00 5.0125595266e+00 
141000 5.1697572306e+00 -1.1096221102e-03 2.8940218005e+00 -5.0125927967e+00 2.8940218005e+00 5.0125927967e+00 
141100 5.1697571556e+00 -1.1074582396e-03 2.8940409715e+00 -5.0126260018e+00 2.8940409715e+00 5.0126260018e+00 
141200 5.1697570808e+00 -1.1052982270e-03 2.8940601049e+00 -5.0126591419e+00 2.8940601049e+00 5.0126591419e+00 
141300 5.1697570063e+00 -1.1031420672e-03 2.8940792009e+00 -5.0126922171e+00 2.8940792009e+00 5.0126922171e+00 
141400 5.1697569321e+00 -1.1009897552e-03 2.8940982595e+00 -5.0127252276e+00 2.8940982595e+00 5.0127252276e+00 
141500 5.1697568582e+00 -1.0988412860e-03 2.8941172809e+00 -5.0127581735e+00 2.8941172809e+00 5.0127581735e+00 
141600 5.1697567846e+00 -1.0966966544e-03 2.8941362649e+00 -5.0127910549e+00 2.8941362649e+00 5.0127910549e+00 
141700 5.1697567112e+00 -1.0945558553e-03 2.8941552118e+00 -5.0128238719e+00 2.8941552118e+00 5.0128238719e+00 
141800 5.1697566382e+00 -1.0924188838e-03 2.8941741216e+00 -5.0128566246e+00 2.8941741216e+00 5.0128566246e+00 
141900 5.1697565654e+00 -1.0902857347e-03 2.8941929944e+00 -5.0128893131e+00 2.8941929944e+00 5.0128893131e+00 
142000 5.1697564930e+00 -1.0881564028e-03 2.8942118301e+00 -5.0129219376e+00 2.8942118301e+00 5.0129219376e+00 
142100 5.1697564208e+00 -1.0860308832e-03 2.8942306290e+00 -5.0129544982e+00 2.8942306290e+00 5.0129544982e+00 
142200 5.1697563489e+00 -1.0839091707e-03 2.8942493910e+00 -5.0129869950e+00 2.8942493910e+00 5.0129869950e+00 
142300 5.1697562772e+00 -1.0817912603e-03 2.8942681162e+00 -5.0130194280e+00 2.8942681162e+00 5.0130194280e+00 
142400 5.1697562059e+00 -1.0796771468e-03 2.8942868048e+00 -5.0130517975e+00 2.8942868048e+00 5.0130517975e+00 
142500 5.1697561348e+00 -1.0775668251e-03 2.8943054567e+00 -5.0130841035e+00 2.8943054567e+00 5.0130841035e+00 
142600 5.1697560640e+00 -1.0754602901e-03 2.8943240720e+00 -5.0131163462e+00 2.8943240720e+00 5.0131163462e+00 
142700 5.1697559935e+00 -1.0733575368e-03 2.8943426508e+00 -5.0131485256e+00 2.8943426508e+00 5.0131485256e+00 
142800 5.1697559232e+00 -1.0712585600e-03 2.8943611931e+00 -5.0131806419e+00 2.8943611931e+00 5.0131806419e+00 
142900 5.1697558533e+00 -1.0691633546e-03 2.8943796991e+00 -5.0132126952e+00 2.8943796991e+00 5.0132126952e+00 
143000 5.1697557836e+00 -1.0670719155e-03 2.8943981688e+00 -5.0132446856e+00 2.8943981688e+00 5.0132446856e+00 
143100 5.1697557141e+00 -1.0649842375e-03 2.8944166022e+00 -5.0132766133e+00 2.8944166022e+00 5.0132766133e+00 
143200 5.1697556450e+00 -1.0629003157e-03 2.8944349994e+00 -5.0133084782e+00 2.8944349994e+00 5.0133084782e+00 
143300 5.1697555761e+00 -1.0608201448e-03 2.8944533605e+00 -5.0133402806e+00 2.8944533605e+00 5.0133402806e+00 
143400 5.1697555075e+00 -1.0587437197e-03 2.8944716856e+00 -5.0133720206e+00 2.8944716856e+00 5.0133720206e+00 
143500 5.1697554391e+00 -1.0566710354e-03 2.8944899747e+00 -5.0134036982e+00 2.8944899747e+00 5.0134036982e+00 
143600 5.1697553710e+00 -1.0546020866e-03 2.8945082279e+00 -5.0134353136e+00 2.8945082279e+00 5.0134353136e+00 
143700 5.1697553032e+00 -1.0525368683e-03 2.8945264452e+00 -5.0134668669e+00 2.8945264452e+00 5.0134668669e+00 
143800 5.1697552357e+00 -1.0504753754e-03 2.8945446267e+00 -5.0134983582e+00 2.8945446267e+00 5.0134983582e+00 
143900 5.1697551684e+00 -1.0484176027e-03 2.8945627725e+00 -5.0135297877e+00 2.8945627725e+00 5.0135297877e+00 
144000 5.1697551014e+00 -1.0463635450e-03 2.8945808826e+00 -5.0135611554e+00 2.8945808826e+00 5.0135611554e+00 
144100 5.1697550346e+00 -1.0443131973e-03 2.8945989572e+00 -5.0135924614e+00 2.8945989572e+00 5.0135924614e+00 
144200 5.1697549681e+00 -1.0422665545e-03 2.8946169962e+00 -5.0136237059e+00 2.8946169962e+00 5.0136237059e+00 
144300 5.1697549019e+00 -1.0402236113e-03 2.8946349998e+00 -5.0136548889e+00 2.8946349998e+00 5.0136548889e+00 
144400 5.1697548359e+00 -1.0381843628e-03 2.8946529679e+00 -5.0136860107e+00 2.8946529679e+00 5.0136860107e+00 
144500 5.1697547702e+00 -1.0361488036e-03 2.8946709007e+00 -5.0137170712e+00 2.8946709007e+00 5.0137170712e+00 
144600 5.1697547047e+00 -1.0341169287e-03 2.8946887983e+00 -5.0137480707e+00 2.8946887983e+00 5.0137480707e+00 
144700 5.1697546395e+00 -1.0320887330e-03 2.8947066606e+00 -5.0137790091e+00 2.8947066606e+00 5.0137790091e+00 
144800 5.1697545745e+00 -1.0300642114e-03 2.8947244878e+00 -5.0138098868e+00 2.8947244878e+00 5.0138098868e+00 
144900 5.1697545098e+00 -1.0280433586e-03 2.8947422799e+00 -5.0138407036e+00 2.8947422799e+00 5.0138407036e+00 
145000 5.1697544454e+00 -1.0260261695e-03 2.8947600370e+00 -5.0138714598e+00 2.8947600370e+00 5.0138714598e+00 
145100 5.1697543812e+00 -1.0240126391e-03 2.8947777591e+00 -5.0139021554e+00 2.8947777591e+00 5.0139021554e+00 
145200 5.1697543172e+00 -1.0220027621e-03 2.8947954464e+00 -5.0139327907e+00 2.8947954464e+00 5.0139327907e+00 
145300 5.1697542535e+00 -1.0199965334e-03 2.8948130988e+00 -5.0139633656e+00 2.8948130988e+00 5.0139633656e+00 
145400 5.1697541901e+00 -1.0179939479e-03 2.8948307165e+00 -5.0139938803e+00 2.8948307165e+00 5.0139938803e+00 
145500 5.1697541269e+00 -1.0159950005e-03 2.8948482995e+00 -5.0140243349e+00 2.8948482995e+00 5.0140243349e+00 
145600 5.1697540639e+00 -1.0139996859e-03 2.8948658478e+00 -5.0140547295e+00 2.8948658478e+00 5.0140547295e+00 
145700 5.1697540012e+00 -1.0120079991e-03 2.8948833616e+00 -5.0140850643e+00 2.8948833616e+00 5.0140850643e+00 
145800 5.1697539388e+00 -1.0100199349e-03 2.8949008409e+00 -5.0141153393e+00 2.8949008409e+00 5.0141153393e+00 
145900 5.1697538766e+00 -1.0080354882e-03 2.8949182857e+00 -5.0141455546e+00 2.8949182857e+00 5.0141455546e+00 
146000 5.1697538146e+00 -1.0060546538e-03 2.8949356962e+00 -5.0141757104e+00 2.8949356962e+00 5.0141757104e+00 
146100 5.1697537529e+00 -1.0040774265e-03 2.8949530723e+00 -5.0142058067e+00 2.8949530723e+00 5.0142058067e+00 
146200 5.1697536914e+00 -1.0021038013e-03 2.8949704142e+00 -5.0142358437e+00 2.8949704142e+00 5.0142358437e+00 
146300 5.1697536301e+00 -1.0001337730e-03 2.8949877219e+00 -5.0142658215e+00 2.8949877219e+00 5.0142658215e+00 
146400 5.1697535691e+00 -9.9816733636e-04 2.8950049954e+00 -5.0142957402e+00 2.8950049954e+00 5.0142957402e+00 
146500 5.1697535084e+00 -9.9620448634e-04 2.8950222349e+00 -5.0143255999e+00 2.8950222349e+00 5.0143255999e+00 
146600 5.1697534479e+00 -9.9424521775e-04 2.8950394404e+00 -5.0143554007e+00 2.8950394404e+00 5.0143554007e+00 
146700 5.1697533876e+00 -9.9228952546e-04 2.8950566119e+00 -5.0143851427e+00 2.8950566119e+00 5.0143851427e+00 
146800 5.1697533275e+00 -9.9033740432e-04 2.8950737496e+00 -5.0144148260e+00 2.8950737496e+00 5.0144148260e+00 
146900 5.1697532677e+00 -9.8838884918e-04 2.8950908535e+00 -5.0144444507e+00 2.8950908535e+00 5.0144444507e+00 
147000 5.1697532081e+00 -9.8644385489e-04 2.8951079236e+00 -5.0144740170e+00 2.8951079236e+00 5.0144740170e+00 
147100 5.1697531488e+00 -9.8450241632e-04 2.8951249600e+00 -5.0145035249e+00 2.8951249600e+00 5.0145035249e+00 
147200 5.1697530897e+00 -9.8256452831e-04 2.8951419628e+00 -5.0145329746e+00 2.8951419628e+00 5.0145329746e+00 
147300 5.1697530308e+00 -9.8063018572e-04 2.8951589320e+00 -5.0145623661e+00 2.8951589320e+00 5.0145623661e+00 
147400 5.1697529721e+00 -9.7869938341e-04 2.8951758677e+00 -5.0145916996e+00 2.8951758677e+00 5.0145916996e+00 
147500 5.1697529137e+00 -9.7677211622e-04 2.8951927699e+00 -5.0146209752e+00 2.8951927699e+00 5.0146209752e+00 
147600 5.1697528555e+00 -9.7484837902e-04 2.8952096388e+00 -5.0146501930e+00 2.8952096388e+00 5.0146501930e+00 
147700 5.1697527976e+00 -9.7292816666e-04 2.8952264744e+00 -5.0146793530e+00 2.8952264744e+00 5.0146793530e+00 
147800 5.1697527398e+00 -9.7101147401e-04 2.8952432767e+00 -5.0147084554e+00 2.8952432767e+00 5.0147084554e+00 
147900 5.1697526823e+00 -9.6909829590e-04 2.8952600458e+00 -5.0147375004e+00 2.8952600458e+00 5.0147375004e+00 
148000 5.1697526250e+00 -9.6718862721e-04 2.8952767817e+00 -5.0147664879e+00 2.8952767817e+00 5.0147664879e+00 
148100 5.1697525680e+00 -9.6528246279e-04 2.8952934846e+00 -5.0147954182e+00 2.8952934846e+00 5.0147954182e+00 
148200 5.1697525111e+00 -9.6337979751e-04 2.8953101545e+00 -5.0148242912e+00 2.8953101545e+00 5.0148242912e+00 
148300 5.1697524545e+00 -9.6148062621e-04 2.8953267914e+00 -5.0148531072e+00 2.8953267914e+00 5.0148531072e+00 
148400 5.1697523981e+00 -9.5958494377e-04 2.8953433954e+00 -5.0148818662e+00 2.8953433954e+00 5.0148818662e+00 
148500 5.1697523420e+00 -9.5769274504e-04 2.8953599666e+00 -5.0149105684e+00 2.8953599666e+00 5.0149105684e+00 
148600 5.1697522860e+00 -9.5580402489e-04 2.8953765050e+00 -5.0149392138e+00 2.8953765050e+00 5.0149392138e+00 
148700 5.1697522303e+00 -9.5391877817e-04 2.8953930107e+00 -5.0149678025e+00 2.8953930107e+00 5.0149678025e+00 
148800 5.1697521748e+00 -9.5203699976e-04 2.8954094838e+00 -5.0149963347e+00 2.8954094838e+00 5.0149963347e+00 
148900 5.1697521195e+00 -9.5015868451e-04 2.8954259243e+00 -5.0150248104e+00 2.8954259243e+00 5.0150248104e+00 
149000 5.1697520644e+00 -9.4828382730e-04 2.8954423322e+00 -5.0150532298e+00 2.8954423322e+00 5.0150532298e+00 
149100 5.1697520096e+00 -9.4641242299e-04 2.8954587077e+00 -5.0150815929e+00 2.8954587077e+00 5.0150815929e+00 
149200 5.1697519550e+00 -9.4454446645e-04 2.8954750508e+00 -5.0151099000e+00 2.8954750508e+00 5.0151099000e+00 
149300 5.1697519005e+00 -9.4267995255e-04 2.8954913615e+00 -5.0151381509e+00 2.8954913615e+00 5.0151381509e+00 
149400 5.1697518463e+00 -9.4081887615e-04 2.8955076399e+00 -5.0151663460e+00 2.8955076399e+00 5.0151663460e+00 
149500 5.1697517923e+00 -9.3896123214e-04 2.8955238861e+00 -5.0151944852e+00 2.8955238861e+00 5.0151944852e+00 
149600 5.1697517385e+00 -9.3710701538e-04 2.8955401001e+00 -5.0152225688e+00 2.8955401001e+00 5.0152225688e+00 
149700 5.1697516850e+00 -9.3525622075e-04 2.8955562820e+00 -5.0152505967e+00 2.8955562820e+00 5.0152505967e+00 
149800 5.1697516316e+00 -9.3340884313e-04 2.8955724319e+00 -5.0152785691e+00 2.8955724319e+00 5.0152785691e+00 
149900 5.1697515785e+00 -9.3156487738e-04 2.8955885498e+00 -5.0153064860e+00 2.8955885498e+00 5.0153064860e+00 
150000 5.1697515255e+00 -9.2972431840e-04 2.8956046357e+00 -5.0153343477e+00 2.8956046357e+00 5.0153343477e+00 
150100 5.1697514728e+00 -9.2788716105e-04 2.8956206898e+00 -5.0153621542e+00 2.8956206898e+00 5.0153621542e+00 
150200 5.1697514203e+00 -9.2605340023e-04 2.8956367121e+00 -5.0153899056e+00 2.8956367121e+00 5.0153899056e+00 
150300 5.1697513680e+00 -9.2422303080e-04 2.8956527026e+00 -5.0154176020e+00 2.8956527026e+00 5.0154176020e+00 
150400 5.1697513158e+00 -9.2239604767e-04 2.8956686614e+00 -5.0154452434e+00 2.8956686614e+00 5.0154452434e+00 
150500 5.1697512639e+00 -9.2057244572e-04 2.8956845886e+00 -5.0154728301e+00 2.8956845886e+00 5.0154728301e+00 
150600 5.1697512122e+00 -9.1875221982e-04 2.8957004842e+00 -5.0155003621e+00 2.8957004842e+00 5.0155003621e+00 
150700 5.1697511607e+00 -9.1693536488e-04 2.8957163483e+00 -5.0155278395e+00 2.8957163483e+00 5.0155278395e+00 
150800 5.1697511094e+00 -9.1512187578e-04 2.8957321809e+00 -5.0155552625e+00 2.8957321809e+00 5.0155552625e+00 
150900 5.1697510584e+00 -9.1331174742e-04 2.8957479821e+00 -5.0155826310e+00 2.8957479821e+00 5.0155826310e+00 
151000 5.1697510075e+00 -9.1150497469e-04 2.8957637520e+00 -5.0156099452e+00 2.8957637520e+00 5.0156099452e+00 
151100 5.1697509568e+00 -9.0970155248e-04 2.8957794906e+00 -5.0156372053e+00 2.8957794906e+00 5.0156372053e+00 
151200 5.1697509063e+00 -9.0790147571e-04 2.8957951980e+00 -5.0156644113e+00 2.8957951980e+00 5.0156644113e+00 
151300 5.1697508560e+00 -9.0610473926e-04 2.8958108742e+00 -5.0156915633e+00 2.8958108742e+00 5.0156915633e+00 
151400 5.1697508059e+00 -9.0431133804e-04 2.8958265194e+00 -5.0157186614e+00 2.8958265194e+00 5.0157186614e+00 
151500 5.1697507560e+00 -9.0252126695e-04 2.8958421334e+00 -5.0157457058e+00 2.8958421334e+00 5.0157457058e+00 
151600 5.1697507063e+00 -9.0073452091e-04 2.8958577165e+00 -5.0157726964e+00 2.8958577165e+00 5.0157726964e+00 
151700 5.1697506568e+00 -8.9895109481e-04 2.8958732686e+00 -5.0157996335e+00 2.8958732686e+00 5.0157996335e+00 
151800 5.1697506075e+00 -8.9717098357e-04 2.8958887899e+00 -5.0158265171e+00 2.8958887899e+00 5.0158265171e+00 
151900 5.1697505584e+00 -8.9539418210e-04 2.8959042803e+00 -5.0158533474e+00 2.8959042803e+00 5.0158533474e+00 
152000 5.1697505095e+00 -8.9362068532e-04 2.8959197400e+00 -5.0158801243e+00 2.8959197400e+00 5.0158801243e+00 
152100 5.1697504607e+00 -8.9185048814e-04 2.8959351690e+00 -5.0159068481e+00 2.8959351690e+00 5.0159068481e+00 
152200 5.1697504122e+00 -8.9008358549e-04 2.8959505673e+00 -5.0159335188e+00 2.8959505673e+00 5.0159335188e+00 
152300 5.1697503639e+00 -8.8831997228e-04 2.8959659350e+00 -5.0159601365e+00 2.8959659350e+00 5.0159601365e+00 
152400 5.1697503157e+00 -8.8655964343e-04 2.8959812722e+00 -5.0159867013e+00 2.8959812722e+00 5.0159867013e+00 
152500 5.1697502678e+00 -8.8480259388e-04 2.8959965790e+00 -5.0160132133e+00 2.8959965790e+00 5.0160132133e+00 
152600 5.1697502200e+00 -8.8304881856e-04 2.8960118553e+00 -5.0160396727e+00 2.8960118553e+00 5.0160396727e+00 
152700 5.1697501724e+00 -8.8129831238e-04 2.8960271013e+00 -5.0160660795e+00 2.8960271013e+00 5.0160660795e+00 
152800 5.1697501250e+00 -8.7955107030e-04 2.8960423169e+00 -5.0160924338e+00 2.8960423169e+00 5.0160924338e+00 
152900 5.1697500778e+00 -8.7780708723e-04 2.8960575023e+00 -5.0161187357e+00 2.8960575023e+00 5.0161187357e+00 
153000 5.1697500308e+00 -8.7606635813e-04 2.8960726576e+00 -5.0161449853e+00 2.8960726576e+00 5.0161449853e+00 
153100 5.1697499840e+00 -8.7432887792e-04 2.8960877826e+00 -5.0161711827e+00 2.8960877826e+00 5.0161711827e+00 
153200 5.1697499373e+00 -8.7259464156e-04 2.8961028777e+00 -5.0161973280e+00 2.8961028777e+00 5.0161973280e+00 
153300 5.1697498908e+00 -8.7086364399e-04 2.8961179426e+00 -5.0162234214e+00 2.8961179426e+00 5.0162234214e+00 
153400 5.1697498446e+00 -8.6913588016e-04 2.8961329777e+00 -5.0162494628e+00 2.8961329777e+00 5.0162494628e+00 
153500 5.1697497985e+00 -8.6741134502e-04 2.8961479828e+00 -5.0162754524e+00 2.8961479828e+00 5.0162754524e+00 
153600 5.1697497526e+00 -8.6569003352e-04 2.8961629581e+00 -5.0163013904e+00 2.8961629581e+00 5.0163013904e+00 
153700 5.1697497068e+00 -8.6397194062e-04 2.8961779035e+00 -5.0163272767e+00 2.8961779035e+00 5.0163272767e+00 
153800 5.1697496613e+00 -8.6225706128e-04 2.8961928193e+00 -5.0163531115e+00 2.8961928193e+00 5.0163531115e+00 
153900 5.1697496159e+00 -8.6054539047e-04 2.8962077053e+00 -5.0163788949e+00 2.8962077053e+00 5.0163788949e+00 
154000 5.1697495707e+00 -8.5883692313e-04 2.8962225618e+00 -5.0164046270e+00 2.8962225618e+00 5.0164046270e+00 
154100 5.1697495257e+00 -8.5713165425e-04 2.8962373886e+00 -5.0164303079e+00 2.8962373886e+00 5.0164303079e+00 
154200 5.1697494808e+00 -8.5542957880e-04 2.8962521860e+00 -5.0164559376e+00 2.8962521860e+00 5.0164559376e+00 
154300 5.1697494362e+00 -8.5373069174e-04 2.8962669539e+00 -5.0164815164e+00 2.8962669539e+00 5.0164815164e+00 
154400 5.1697493917e+00 -8.5203498806e-04 2.8962816923e+00 -5.0165070442e+00 2.8962816923e+00 5.0165070442e+00 
154500 5.1697493474e+00 -8.5034246272e-04 2.8962964015e+00 -5.0165325211e+00 2.8962964015e+00 5.0165325211e+00 
154600 5.1697493033e+00 -8.4865311073e-04 2.8963110813e+00 -5.0165579473e+00 2.8963110813e+00 5.0165579473e+00 
154700 5.1697492593e+00 -8.4696692705e-04 2.8963257319e+00 -5.0165833229e+00 2.8963257319e+00 5.0165833229e+00 
154800 5.1697492155e+00 -8.4528390668e-04 2.8963403533e+00 -5.0166086480e+00 2.8963403533e+00 5.0166086480e+00 
154900 5.1697491719e+00 -8.4360404461e-04 2.8963549456e+00 -5.0166339225e+00 2.8963549456e+00 5.0166339225e+00 
155000 5.1697491285e+00 -8.4192733583e-04 2.8963695088e+00 -5.0166591468e+00 2.8963695088e+00 5.0166591468e+00 
155100 5.1697490852e+00 -8.4025377535e-04 2.8963840430e+00 -5.0166843207e+00 2.8963840430e+00 5.0166843207e+00 
155200 5.1697490421e+00 -8.3858335816e-04 2.8963985483e+00 -5.0167094445e+00 2.8963985483e+00 5.0167094445e+00 
155300 5.1697489992e+00 -8.3691607926e-04 2.8964130246e+00 -5.0167345183e+00 2.8964130246e+00 5.0167345183e+00 
155400 5.1697489565e+00 -8.3525193366e-04 2.8964274720e+00 -5.0167595420e+00 2.8964274720e+00 5.0167595420e+00 
155500 5.1697489139e+00 -8.3359091638e-04 2.8964418907e+00 -5.0167845159e+00 2.8964418907e+00 5.0167845159e+00 
155600 5.1697488715e+00 -8.3193302242e-04 2.8964562806e+00 -5.0168094400e+00 2.8964562806e+00 5.0168094400e+00 
155700 5.1697488292e+00 -8.3027824681e-04 2.8964706419e+00 -5.0168343144e+00 2.8964706419e+00 5.0168343144e+00 
155800 5.1697487871e+00 -8.2862658455e-04 2.8964849745e+00 -5.0168591391e+00 2.8964849745e+00 5.0168591391e+00 
155900 5.1697487452e+00 -8.2697803069e-04 2.8964992785e+00 -5.0168839144e+00 2.8964992785e+00 5.0168839144e+00 
156000 5.1697487035e+00 -8.2533258023e-04 2.8965135540e+00 -5.0169086403e+00 2.8965135540e+00 5.0169086403e+00 
156100 5.1697486619e+00 -8.2369022822e-04 2.8965278010e+00 -5.0169333168e+00 2.8965278010e+00 5.0169333168e+00 
156200 5.1697486205e+00 -8.2205096968e-04 2.8965420196e+00 -5.0169579442e+00 2.8965420196e+00 5.0169579442e+00 
156300 5.1697485792e+00 -8.2041479966e-04 2.8965562098e+00 -5.0169825224e+00 2.8965562098e+00 5.0169825224e+00 
156400 5.1697485381e+00 -8.1878171318e-04 2.8965703717e+00 -5.0170070515e+00 2.8965703717e+00 5.0170070515e+00 
156500 5.1697484972e+00 -8.1715170531e-04 2.8965845054e+00 -5.0170315317e+00 2.8965845054e+00 5.0170315317e+00 
156600 5.1697484565e+00 -8.1552477108e-04 2.8965986108e+00 -5.0170559631e+00 2.8965986108e+00 5.0170559631e+00 
156700 5.1697484159e+00 -8.1390090554e-04 2.8966126881e+00 -5.0170803456e+00 2.8966126881e+00 5.0170803456e+00 
156800 5.1697483754e+00 -8.1228010375e-04 2.8966267373e+00 -5.0171046796e+00 2.8966267373e+00 5.0171046796e+00 
156900 5.1697483351e+00 -8.1066236077e-04 2.8966407584e+00 -5.0171289649e+00 2.8966407584e+00 5.0171289649e+00 
157000 5.1697482950e+00 -8.0904767166e-04 2.8966547516e+00 -5.0171532018e+00 2.8966547516e+00 5.0171532018e+00 
157100 5.1697482551e+00 -8.0743603148e-04 2.8966687168e+00 -5.0171773902e+00 2.8966687168e+00 5.0171773902e+00 
157200 5.1697482153e+00 -8.0582743530e-04 2.8966826542e+00 -5.0172015304e+00 2.8966826542e+00 5.0172015304e+00 
157300 5.1697481756e+00 -8.0422187820e-04 2.8966965637e+00 -5.0172256224e+00 2.8966965637e+00 5.0172256224e+00 
157400 5.1697481361e+00 -8.0261935524e-04 2.8967104454e+00 -5.0172496662e+00 2.8967104454e+00 5.0172496662e+00 
157500 5.1697480968e+00 -8.0101986152e-04 2.8967242994e+00 -5.0172736620e+00 2.8967242994e+00 5.0172736620e+00 
157600 5.1697480576e+00 -7.9942339211e-04 2.8967381257e+00 -5.0172976099e+00 2.8967381257e+00 5.0172976099e+00 
157700 5.1697480186e+00 -7.9782994210e-04 2.8967519244e+00 -5.0173215099e+00 2.8967519244e+00 5.0173215099e+00 
157800 5.1697479798e+00 -7.9623950659e-04 2.8967656955e+00 -5.0173453622e+00 2.8967656955e+00 5.0173453622e+00 
157900 5.1697479411e+00 -7.9465208066e-04 2.8967794391e+00 -5.0173691668e+00 2.8967794391e+00 5.0173691668e+00 
158000 5.1697479025e+00 -7.9306765941e-04 2.8967931552e+00 -5.0173929239e+00 2.8967931552e+00 5.0173929239e+00 
158100 5.1697478641e+00 -7.9148623796e-04 2.8968068440e+00 -5.0174166335e+00 2.8968068440e+00 5.0174166335e+00 
158200 5.1697478258e+00 -7.8990781140e-04 2.8968205053e+00 -5.0174402957e+00 2.8968205053e+00 5.0174402957e+00 
158300 5.1697477878e+00 -7.8833237485e-04 2.8968341394e+00 -5.0174639105e+00 2.8968341394e+00 5.0174639105e+00 
158400 5.1697477498e+00 -7.8675992341e-04 2.8968477462e+00 -5.0174874782e+00 2.8968477462e+00 5.0174874782e+00 
158500 5.1697477120e+00 -7.8519045221e-04 2.8968613258e+00 -5.0175109988e+00 2.8968613258e+00 5.0175109988e+00 
158600 5.1697476744e+00 -7.8362395638e-04 2.8968748782e+00 -5.0175344723e+00 2.8968748782e+00 5.0175344723e+00 
158700 5.1697476369e+00 -7.8206043103e-04 2.8968884036e+00 -5.0175578989e+00 2.8968884036e+00 5.0175578989e+00 
158800 5.1697475995e+00 -7.8049987129e-04 2.8969019019e+00 -5.0175812786e+00 2.8969019019e+00 5.0175812786e+00 
158900 5.1697475623e+00 -7.7894227230e-04 2.8969153732e+00 -5.0176046116e+00 2.8969153732e+00 5.0176046116e+00 
159000 5.1697475253e+00 -7.7738762920e-04 2.8969288175e+00 -5.0176278979e+00 2.8969288175e+00 5.0176278979e+00 
159100 5.1697474884e+00 -7.7583593714e-04 2.8969422350e+00 -5.0176511376e+00 2.8969422350e+00 5.0176511376e+00 
159200 5.1697474516e+00 -7.7428719124e-04 2.8969556256e+00 -5.0176743308e+00 2.8969556256e+00 5.0176743308e+00 
159300 5.1697474150e+00 -7.7274138668e-04 2.8969689894e+00 -5.0176974776e+00 2.8969689894e+00 5.0176974776e+00 
159400 5.1697473786e+00 -7.7119851859e-04 2.8969823265e+00 -5.0177205781e+00 2.8969823265e+00 5.0177205781e+00 
159500 5.1697473422e+00 -7.6965858215e-04 2.8969956369e+00 -5.0177436324e+00 2.8969956369e+00 5.0177436324e+00 
159600 5.1697473061e+00 -7.6812157251e-04 2.8970089206e+00 -5.0177666405e+00 2.8970089206e+00 5.0177666405e+00 
159700 5.1697472700e+00 -7.6658748483e-04 2.8970221778e+00 -5.0177896026e+00 2.8970221778e+00 5.0177896026e+00 
159800 5.1697472342e+00 -7.6505631430e-04 2.8970354084e+00 -5.0178125187e+00 2.8970354084e+00 5.0178125187e+00 
159900 5.1697471984e+00 -7.6352805608e-04 2.8970486125e+00 -5.0178353889e+00 2.8970486125e+00 5.0178353889e+00 
160000 5.1697471628e+00 -7.6200270536e-04 2.8970617902e+00 -5.0178582134e+00 2.8970617902e+00 5.0178582134e+00 
160100 5.1697471273e+00 -7.6048025732e-04 2.8970749415e+00 -5.0178809921e+00 2.8970749415e+00 5.0178809921e+00 
160200 5.1697470920e+00 -7.5896070714e-04 2.8970880665e+00 -5.0179037252e+00 2.8970880665e+00 5.0179037252e+00 
160300 5.1697470569e+00 -7.5744405003e-04 2.8971011652e+00 -5.0179264128e+00 2.8971011652e+00 5.0179264128e+00 
160400 5.1697470218e+00 -7.5593028117e-04 2.8971142377e+00 -5.0179490550e+00 2.8971142377e+00 5.0179490550e+00 
160500 5.1697469869e+00 -7.5441939576e-04 2.8971272839e+00 -5.0179716518e+00 2.8971272839e+00 5.0179716518e+00 
160600 5.1697469522e+00 -7.5291138902e-04 2.8971403041e+00 -5.0179942033e+00 2.8971403041e+00 5.0179942033e+00 
160700 5.1697469175e+00 -7.5140625615e-04 2.8971532981e+00 -5.0180167097e+00 2.8971532981e+00 5.0180167097e+00 
160800 5.1697468831e+00 -7.4990399237e-04 2.8971662662e+00 -5.0180391710e+00 2.8971662662e+00 5.0180391710e+00 
160900 5.1697468487e+00 -7.4840459289e-04 2.8971792082e+00 -5.0180615872e+00 2.8971792082e+00 5.0180615872e+00 
161000 5.1697468145e+00 -7.4690805294e-04 2.8971921243e+00 -5.0180839586e+00 2.8971921243e+00 5.0180839586e+00 
161100 5.1697467804e+00 -7.4541436774e-04 2.8972050145e+00 -5.0181062851e+00 2.8972050145e+00 5.0181062851e+00 
161200 5.1697467465e+00 -7.4392353253e-04 2.8972178789e+00 -5.0181285668e+00 2.8972178789e+00 5.0181285668e+00 
161300 5.1697467127e+00 -7.4243554254e-04 2.8972307175e+00 -5.0181508039e+00 2.8972307175e+00 5.0181508039e+00 
161400 5.1697466790e+00 -7.4095039301e-04 2.8972435303e+00 -5.0181729965e+00 2.8972435303e+00 5.0181729965e+00 
161500 5.1697466455e+00 -7.3946807919e-04 2.8972563175e+00 -5.0181951445e+00 2.8972563175e+00 5.0181951445e+00 
161600 5.1697466121e+00 -7.3798859633e-04 2.8972690790e+00 -5.0182172481e+00 2.8972690790e+00 5.0182172481e+00 
161700 5.1697465788e+00 -7.3651193967e-04 2.8972818150e+00 -5.0182393074e+00 2.8972818150e+00 5.0182393074e+00 
161800 5.1697465457e+00 -7.3503810449e-04 2.8972945254e+00 -5.0182613225e+00 2.8972945254e+00 5.0182613225e+00 
161900 5.1697465127e+00 -7.3356708604e-04 2.8973072103e+00 -5.0182832934e+00 2.8973072103e+00 5.0182832934e+00 
162000 5.1697464798e+00 -7.3209887960e-04 2.8973198698e+00 -5.0183052202e+00 2.8973198698e+00 5.0183052202e+00 
162100 5.1697464471e+00 -7.3063348042e-04 2.8973325039e+00 -5.0183271031e+00 2.8973325039e+00 5.0183271031e+00 
162200 5.1697464145e+00 -7.2917088380e-04 2.8973451126e+00 -5.0183489421e+00 2.8973451126e+00 5.0183489421e+00 
162300 5.1697463820e+00 -7.2771108500e-04 2.8973576960e+00 -5.0183707372e+00 2.8973576960e+00 5.0183707372e+00 
162400 5.1697463496e+00 -7.2625407933e-04 2.8973702542e+00 -5.0183924887e+00 2.8973702542e+00 5.0183924887e+00 
162500 5.1697463174e+00 -7.2479986206e-04 2.8973827872e+00 -5.0184141965e+00 2.8973827872e+00 5.0184141965e+00 
162600 5.1697462853e+00 -7.2334842849e-04 2.8973952951e+00 -5.0184358607e+00 2.8973952951e+00 5.0184358607e+00 
162700 5.1697462534e+00 -7.2189977393e-04 2.8974077778e+00 -5.0184574814e+00 2.8974077778e+00 5.0184574814e+00 
162800 5.1697462215e+00 -7.2045389368e-04 2.8974202355e+00 -5.0184790588e+00 2.8974202355e+00 5.0184790588e+00 
162900 5.1697461898e+00 -7.1901078305e-04 2.8974326682e+00 -5.0185005928e+00 2.8974326682e+00 5.0185005928e+00 
163000 5.1697461582e+00 -7.1757043735e-04 2.8974450759e+00 -5.0185220837e+00 2.8974450759e+00 5.0185220837e+00 
163100 5.1697461268e+00 -7.1613285190e-04 2.8974574588e+00 -5.0185435313e+00 2.8974574588e+00 5.0185435313e+00 
163200 5.1697460955e+00 -7.1469802202e-04 2.8974698167e+00 -5.0185649359e+00 2.8974698167e+00 5.0185649359e+00 
163300 5.1697460643e+00 -7.1326594305e-04 2.8974821499e+00 -5.0185862976e+00 2.8974821499e+00 5.0185862976e+00 
163400 5.1697460332e+00 -7.1183661032e-04 2.8974944582e+00 -5.0186076163e+00 2.8974944582e+00 5.0186076163e+00 
163500 5.1697460022e+00 -7.1041001916e-04 2.8975067419e+00 -5.0186288923e+00 2.8975067419e+00 5.0186288923e+00 
163600 5.1697459714e+00 -7.0898616492e-04 2.8975190009e+00 -5.0186501255e+00 2.8975190009e+00 5.0186501255e+00 
163700 5.1697459407e+00 -7.0756504294e-04 2.8975312353e+00 -5.0186713160e+00 2.8975312353e+00 5.0186713160e+00 
163800 5.1697459101e+00 -7.0614664858e-04 2.8975434451e+00 -5.0186924640e+00 2.8975434451e+00 5.0186924640e+00 
163900 5.1697458796e+00 -7.0473097720e-04 2.8975556304e+00 -5.0187135695e+00 2.8975556304e+00 5.0187135695e+00 
164000 5.1697458493e+00 -7.0331802415e-04 2.8975677912e+00 -5.0187346326e+00 2.8975677912e+00 5.0187346326e+00 
164100 5.1697458190e+00 -7.0190778480e-04 2.8975799275e+00 -5.0187556534e+00 2.8975799275e+00 5.0187556534e+00 
164200 5.1697457889e+00 -7.0050025453e-04 2.8975920395e+00 -5.0187766320e+00 2.8975920395e+00 5.0187766320e+00 
164300 5.1697457590e+00 -6.9909542872e-04 2.8976041271e+00 -5.0187975684e+00 2.8976041271e+00 5.0187975684e+00 
164400 5.1697457291e+00 -6.9769330273e-04 2.8976161905e+00 -5.0188184627e+00 2.8976161905e+00 5.0188184627e+00 
164500 5.1697456994e+00 -6.9629387197e-04 2.8976282296e+00 -5.0188393151e+00 2.8976282296e+00 5.0188393151e+00 
164600 5.1697456697e+00 -6.9489713182e-04 2.8976402445e+00 -5.0188601255e+00 2.8976402445e+00 5.0188601255e+00 
164700 5.1697456402e+00 -6.9350307768e-04 2.8976522352e+00 -5.0188808941e+00 2.8976522352e+00 5.0188808941e+00 
164800 5.1697456108e+00 -6.9211170494e-04 2.8976642019e+00 -5.0189016209e+00 2.8976642019e+00 5.0189016209e+00 
164900 5.1697455816e+00 -6.9072300902e-04 2.8976761444e+00 -5.0189223061e+00 2.8976761444e+00 5.0189223061e+00 
165000 5.1697455524e+00 -6.8933698533e-04 2.8976880630e+00 -5.0189429496e+00 2.8976880630e+00 5.0189429496e+00 
165100 5.1697455234e+00 -6.8795362928e-04 2.8976999576e+00 -5.0189635517e+00 2.8976999576e+00 5.0189635517e+00 
165200 5.1697454945e+00 -6.8657293630e-04 2.8977118283e+00 -5.0189841124e+00 2.8977118283e+00 5.0189841124e+00 
165300 5.1697454657e+00 -6.8519490180e-04 2.8977236751e+00 -5.0190046317e+00 2.8977236751e+00 5.0190046317e+00 
165400 5.1697454370e+00 -6.8381952123e-04 2.8977354981e+00 -5.0190251097e+00 2.8977354981e+00 5.0190251097e+00 
165500 5.1697454084e+00 -6.8244679001e-04 2.8977472974e+00 -5.0190455465e+00 2.8977472974e+00 5.0190455465e+00 
165600 5.1697453799e+00 -6.8107670360e-04 2.8977590728e+00 -5.0190659422e+00 2.8977590728e+00 5.0190659422e+00 
165700 5.1697453516e+00 -6.7970925742e-04 2.8977708246e+00 -5.0190862969e+00 2.8977708246e+00 5.0190862969e+00 
165800 5.1697453234e+00 -6.7834444695e-04 2.8977825528e+00 -5.0191066107e+00 2.8977825528e+00 5.0191066107e+00 
165900 5.1697452952e+00 -6.7698226763e-04 2.8977942573e+00 -5.0191268836e+00 2.8977942573e+00 5.0191268836e+00 
166000 5.1697452672e+00 -6.7562271492e-04 2.8978059383e+00 -5.0191471157e+00 2.8978059383e+00 5.0191471157e+00 
166100 5.1697452393e+00 -6.7426578429e-04 2.8978175958e+00 -5.0191673070e+00 2.8978175958e+00 5.0191673070e+00 
166200 5.1697452115e+00 -6.7291147122e-04 2.8978292299e+00 -5.0191874578e+00 2.8978292299e+00 5.0191874578e+00 
166300 5.1697451839e+00 -6.7155977118e-04 2.8978408405e+00 -5.0192075680e+00 2.8978408405e+00 5.0192075680e+00 
166400 5.1697451563e+00 -6.7021067964e-04 2.8978524277e+00 -5.0192276377e+00 2.8978524277e+00 5.0192276377e+00 
166500 5.1697451289e+00 -6.6886419211e-04 2.8978639917e+00 -5.0192476670e+00 2.8978639917e+00 5.0192476670e+00 
166600 5.1697451015e+00 -6.6752030406e-04 2.8978755323e+00 -5.0192676560e+00 2.8978755323e+00 5.0192676560e+00 
166700 5.1697450743e+00 -6.6617901101e-04 2.8978870497e+00 -5.0192876047e+00 2.8978870497e+00 5.0192876047e+00 
166800 5.1697450472e+00 -6.6484030844e-04 2.8978985439e+00 -5.0193075133e+00 2.8978985439e+00 5.0193075133e+00 
166900 5.1697450201e+00 -6.6350419187e-04 2.8979100150e+00 -5.0193273818e+00 2.8979100150e+00 5.0193273818e+00 
167000 5.1697449932e+00 -6.6217065681e-04 2.8979214630e+00 -5.0193472103e+00 2.8979214630e+00 5.0193472103e+00 
167100 5.1697449664e+00 -6.6083969878e-04 2.8979328879e+00 -5.0193669989e+00 2.8979328879e+00 5.0193669989e+00 
167200 5.1697449397e+00 -6.5951131330e-04 2.8979442899e+00 -5.0193867476e+00 2.8979442899e+00 5.0193867476e+00 
167300 5.1697449132e+00 -6.5818549590e-04 2.8979556688e+00 -5.0194064565e+00 2.8979556688e+00 5.0194064565e+00 
167400 5.1697448867e+00 -6.5686224212e-04 2.8979670249e+00 -5.0194261257e+00 2.8979670249e+00 5.0194261257e+00 
167500 5.1697448603e+00 -6.5554154748e-04 2.8979783580e+00 -5.0194457553e+00 2.8979783580e+00 5.0194457553e+00 
167600 5.1697448340e+00 -6.5422340754e-04 2.8979896684e+00 -5.0194653454e+00 2.8979896684e+00 5.0194653454e+00 
167700 5.1697448079e+00 -6.5290781785e-04 2.8980009559e+00 -5.0194848960e+00 2.8980009559e+00 5.0194848960e+00 
167800 5.1697447818e+00 -6.5159477396e-04 2.8980122207e+00 -5.0195044072e+00 2.8980122207e+00 5.0195044072e+00 
167900 5.1697447559e+00 -6.5028427142e-04 2.8980234628e+00 -5.0195238791e+00 2.8980234628e+00 5.0195238791e+00 
168000 5.1697447300e+00 -6.4897630582e-04 2.8980346823e+00 -5.0195433118e+00 2.8980346823e+00 5.0195433118e+00 
168100 5.1697447043e+00 -6.4767087270e-04 2.8980458791e+00 -5.0195627053e+00 2.8980458791e+00 5.0195627053e+00 
168200 5.1697446786e+00 -6.4636796765e-04 2.8980570534e+00 -5.0195820597e+00 2.8980570534e+00 5.0195820597e+00 
168300 5.1697446531e+00 -6.4506758626e-04 2.8980682051e+00 -5.0196013751e+00 2.8980682051e+00 5.0196013751e+00 
168400 5.1697446276e+00 -6.4376972410e-04 2.8980793344e+00 -5.0196206516e+00 2.8980793344e+00 5.0196206516e+00 
168500 5.1697446023e+00 -6.4247437677e-04 2.8980904413e+00 -5.0196398892e+00 2.8980904413e+00 5.0196398892e+00 
168600 5.1697445771e+00 -6.4118153987e-04 2.8981015257e+00 -5.0196590880e+00 2.8981015257e+00 5.0196590880e+00 
168700 5.1697445519e+00 -6.3989120899e-04 2.8981125878e+00 -5.0196782481e+00 2.8981125878e+00 5.0196782481e+00 
168800 5.1697445269e+00 -6.3860337974e-04 2.8981236276e+00 -5.0196973696e+00 2.8981236276e+00 5.0196973696e+00 
168900 5.1697445020e+00 -6.3731804774e-04 2.8981346452e+00 -5.0197164526e+00 2.8981346452e+00 5.0197164526e+00 
169000 5.1697444772e+00 -6.3603520861e-04 2.8981456405e+00 -5.0197354970e+00 2.8981456405e+00 5.0197354970e+00 
169100 5.1697444524e+00 -6.3475485796e-04 2.8981566136e+00 -5.0197545031e+00 2.8981566136e+00 5.0197545031e+00 
169200 5.1697444278e+00 -6.3347699142e-04 2.8981675646e+00 -5.0197734708e+00 2.8981675646e+00 5.0197734708e+00 
169300 5.1697444033e+00 -6.3220160464e-04 2.8981784936e+00 -5.0197924003e+00 2.8981784936e+00 5.0197924003e+00 
169400 5.1697443788e+00 -6.3092869325e-04 2.8981894005e+00 -5.0198112915e+00 2.8981894005e+00 5.0198112915e+00 
169500 5.1697443545e+00 -6.2965825289e-04 2.8982002853e+00 -5.0198301447e+00 2.8982002853e+00 5.0198301447e+00 
169600 5.1697443302e+00 -6.2839027921e-04 2.8982111483e+00 -5.0198489599e+00 2.8982111483e+00 5.0198489599e+00 
169700 5.1697443061e+00 -6.2712476788e-04 2.8982219893e+00 -5.0198677370e+00 2.8982219893e+00 5.0198677370e+00 
169800 5.1697442821e+00 -6.2586171454e-04 2.8982328084e+00 -5.0198864763e+00 2.8982328084e+00 5.0198864763e+00 
169900 5.1697442581e+00 -6.2460111487e-04 2.8982436057e+00 -5.0199051778e+00 2.8982436057e+00 5.0199051778e+00 
170000 5.1697442342e+00 -6.2334296454e-04 2.8982543812e+00 -5.0199238415e+00 2.8982543812e+00 5.0199238415e+00 
170100 5.1697442105e+00 -6.2208725922e-04 2.8982651350e+00 -5.0199424676e+00 2.8982651350e+00 5.0199424676e+00 
170200 5.1697441868e+00 -6.2083399459e-04 2.8982758671e+00 -5.0199610561e+00 2.8982758671e+00 5.0199610561e+00 
170300 5.1697441633e+00 -6.1958316636e-04 2.8982865775e+00 -5.0199796071e+00 2.8982865775e+00 5.0199796071e+00 
170400 5.1697441398e+00 -6.1833477020e-04 2.8982972663e+00 -5.0199981206e+00 2.8982972663e+00 5.0199981206e+00 
170500 5.1697441164e+00 -6.1708880181e-04 2.8983079335e+00 -5.0200165968e+00 2.8983079335e+00 5.0200165968e+00 
170600 5.1697440931e+00 -6.1584525691e-04 2.8983185792e+00 -5.0200350356e+00 2.8983185792e+00 5.0200350356e+00 
170700 5.1697440699e+00 -6.1460413120e-04 2.8983292034e+00 -5.0200534373e+00 2.8983292034e+00 5.0200534373e+00 
170800 5.1697440468e+00 -6.1336542039e-04 2.8983398061e+00 -5.0200718017e+00 2.8983398061e+00 5.0200718017e+00 
170900 5.1697440238e+00 -6.1212912021e-04 2.8983503874e+00 -5.0200901291e+00 2.8983503874e+00 5.0200901291e+00 
171000 5.1697440009e+00 -6.1089522638e-04 2.8983609474e+00 -5.0201084195e+00 2.8983609474e+00 5.0201084195e+00 
171100 5.1697439781e+00 -6.0966373463e-04 2.8983714860e+00 -5.0201266730e+00 2.8983714860e+00 5.0201266730e+00 
171200 5.1697439554e+00 -6.0843464070e-04 2.8983820034e+00 -5.0201448896e+00 2.8983820034e+00 5.0201448896e+00 
171300 5.1697439327e+00 -6.0720794033e-04 2.8983924995e+00 -5.0201630694e+00 2.8983924995e+00 5.0201630694e+00 
171400 5.1697439102e+00 -6.0598362927e-04 2.8984029744e+00 -5.0201812125e+00 2.8984029744e+00 5.0201812125e+00 
171500 5.1697438877e+00 -6.0476170326e-04 2.8984134282e+00 -5.0201993189e+00 2.8984134282e+00 5.0201993189e+00 
171600 5.1697438654e+00 -6.0354215809e-04 2.8984238608e+00 -5.0202173888e+00 2.8984238608e+00 5.0202173888e+00 
171700 5.1697438431e+00 -6.0232498949e-04 2.8984342724e+00 -5.0202354221e+00 2.8984342724e+00 5.0202354221e+00 
171800 5.1697438209e+00 -6.0111019325e-04 2.8984446629e+00 -5.0202534191e+00 2.8984446629e+00 5.0202534191e+00 
171900 5.1697437988e+00 -5.9989776514e-04 2.8984550324e+00 -5.0202713796e+00 2.8984550324e+00 5.0202713796e+00 
172000 5.1697437768e+00 -5.9868770094e-04 2.8984653810e+00 -5.0202893039e+00 2.8984653810e+00 5.0202893039e+00 
172100 5.1697437549e+00 -5.9747999643e-04 2.8984757087e+00 -5.0203071920e+00 2.8984757087e+00 5.0203071920e+00 
172200 5.1697437330e+00 -5.9627464741e-04 2.8984860155e+00 -5.0203250439e+00 2.8984860155e+00 5.0203250439e+00 
172300 5.1697437113e+00 -5.9507164967e-04 2.8984963015e+00 -5.0203428597e+00 2.8984963015e+00 5.0203428597e+00 
172400 5.1697436896e+00 -5.9387099902e-04 2.8985065667e+00 -5.0203606395e+00 2.8985065667e+00 5.0203606395e+00 
172500 5.1697436681e+00 -5.9267269127e-04 2.8985168111e+00 -5.0203783834e+00 2.8985168111e+00 5.0203783834e+00 
172600 5.1697436466e+00 -5.9147672222e-04 2.8985270348e+00 -5.0203960914e+00 2.8985270348e+00 5.0203960914e+00 
172700 5.1697436252e+00 -5.9028308770e-04 2.8985372379e+00 -5.0204137636e+00 2.8985372379e+00 5.0204137636e+00 
172800 5.1697436039e+00 -5.8909178354e-04 2.8985474203e+00 -5.0204314001e+00 2.8985474203e+00 5.0204314001e+00 
172900 5.1697435826e+00 -5.8790280555e-04 2.8985575822e+00 -5.0204490010e+00 2.8985575822e+00 5.0204490010e+00 
173000 5.1697435615e+00 -5.8671614959e-04 2.8985677235e+00 -5.0204665662e+00 2.8985677235e+00 5.0204665662e+00 
173100 5.1697435404e+00 -5.8553181148e-04 2.8985778443e+00 -5.0204840960e+00 2.8985778443e+00 5.0204840960e+00 
173200 5.1697435195e+00 -5.8434978708e-04 2.8985879446e+00 -5.0205015903e+00 2.8985879446e+00 5.0205015903e+00 
173300 5.1697434986e+00 -5.8317007224e-04 2.8985980245e+00 -5.0205190492e+00 2.8985980245e+00 5.0205190492e+00 
173400 5.1697434778e+00 -5.8199266281e-04 2.8986080840e+00 -5.0205364728e+00 2.8986080840e+00 5.0205364728e+00 
173500 5.1697434571e+00 -5.8081755466e-04 2.8986181232e+00 -5.0205538612e+00 2.8986181232e+00 5.0205538612e+00 
173600 5.1697434364e+00 -5.7964474367e-04 2.8986281421e+00 -5.0205712144e+00 2.8986281421e+00 5.0205712144e+00 
173700 5.1697434159e+00 -5.7847422569e-04 2.8986381407e+00 -5.0205885325e+00 2.8986381407e+00 5.0205885325e+00 
173800 5.1697433954e+00 -5.7730599662e-04 2.8986481191e+00 -5.0206058155e+00 2.8986481191e+00 5.0206058155e+00 
173900 5.1697433750e+00 -5.7614005234e-04 2.8986580773e+00 -5.0206230637e+00 2.8986580773e+00 5.0206230637e+00 
174000 5.1697433547e+00 -5.7497638873e-04 2.8986680154e+00 -5.0206402769e+00 2.8986680154e+00 5.0206402769e+00 
174100 5.1697433345e+00 -5.7381500171e-04 2.8986779333e+00 -5.0206574553e+00 2.8986779333e+00 5.0206574553e+00 
174200 5.1697433143e+00 -5.7265588716e-04 2.8986878312e+00 -5.0206745989e+00 2.8986878312e+00 5.0206745989e+00 
174300 5.1697432943e+00 -5.7149904100e-04 2.8986977090e+00 -5.0206917078e+00 2.8986977090e+00 5.0206917078e+00 
174400 5.1697432743e+00 -5.7034445914e-04 2.8987075669e+00 -5.0207087821e+00 2.8987075669e+00 5.0207087821e+00 
174500 5.1697432544e+00 -5.6919213750e-04 2.8987174048e+00 -5.0207258219e+00 2.8987174048e+00 5.0207258219e+00 
174600 5.1697432346e+00 -5.6804207200e-04 2.8987272228e+00 -5.0207428272e+00 2.8987272228e+00 5.0207428272e+00 
174700 5.1697432148e+00 -5.6689425858e-04 2.8987370210e+00 -5.0207597981e+00 2.8987370210e+00 5.0207597981e+00 
174800 5.1697431952e+00 -5.6574869317e-04 2.8987467993e+00 -5.0207767346e+00 2.8987467993e+00 5.0207767346e+00 
174900 5.1697431756e+00 -5.6460537171e-04 2.8987565578e+00 -5.0207936368e+00 2.8987565578e+00 5.0207936368e+00 
175000 5.1697431561e+00 -5.6346429015e-04 2.8987662965e+00 -5.0208105048e+00 2.8987662965e+00 5.0208105048e+00 
175100 5.1697431367e+00 -5.6232544444e-04 2.8987760156e+00 -5.0208273387e+00 2.8987760156e+00 5.0208273387e+00 
175200 5.1697431173e+00 -5.6118883054e-04 2.8987857149e+00 -5.0208441385e+00 2.8987857149e+00 5.0208441385e+00 
175300 5.1697430980e+00 -5.6005444441e-04 2.8987953947e+00 -5.0208609043e+00 2.8987953947e+00 5.0208609043e+00 
175400 5.1697430788e+00 -5.5892228202e-04 2.8988050548e+00 -5.0208776361e+00 2.8988050548e+00 5.0208776361e+00 
175500 5.1697430597e+00 -5.5779233935e-04 2.8988146954e+00 -5.0208943341e+00 2.8988146954e+00 5.0208943341e+00 
175600 5.1697430407e+00 -5.5666461238e-04 2.8988243164e+00 -5.0209109982e+00 2.8988243164e+00 5.0209109982e+00 
175700 5.1697430217e+00 -5.5553909710e-04 2.8988339180e+00 -5.0209276286e+00 2.8988339180e+00 5.0209276286e+00 
175800 5.1697430029e+00 -5.5441578949e-04 2.8988435001e+00 -5.0209442253e+00 2.8988435001e+00 5.0209442253e+00 
175900 5.1697429840e+00 -5.5329468555e-04 2.8988530628e+00 -5.0209607884e+00 2.8988530628e+00 5.0209607884e+00 
176000 5.1697429653e+00 -5.5217578129e-04 2.8988626061e+00 -5.0209773180e+00 2.8988626061e+00 5.0209773180e+00 
176100 5.1697429467e+00 -5.5105907271e-04 2.8988721302e+00 -5.0209938141e+00 2.8988721302e+00 5.0209938141e+00 
176200 5.1697429281e+00 -5.4994455583e-04 2.8988816349e+00 -5.0210102767e+00 2.8988816349e+00 5.0210102767e+00 
176300 5.1697429096e+00 -5.4883222667e-04 2.8988911203e+00 -5.0210267060e+00 2.8988911203e+00 5.0210267060e+00 
176400 5.1697428911e+00 -5.4772208125e-04 2.8989005866e+00 -5.0210431021e+00 2.8989005866e+00 5.0210431021e+00 
176500 5.1697428728e+00 -5.4661411561e-04 2.8989100337e+00 -5.0210594649e+00 2.8989100337e+00 5.0210594649e+00 
176600 5.1697428545e+00 -5.4550832578e-04 2.8989194616e+00 -5.0210757945e+00 2.8989194616e+00 5.0210757945e+00 
176700 5.1697428363e+00 -5.4440470780e-04 2.8989288704e+00 -5.0210920911e+00 2.8989288704e+00 5.0210920911e+00 
176800 5.1697428181e+00 -5.4330325772e-04 2.8989382602e+00 -5.0211083546e+00 2.8989382602e+00 5.0211083546e+00 
176900 5.1697428001e+00 -5.4220397160e-04 2.8989476309e+00 -5.0211245852e+00 2.8989476309e+00 5.0211245852e+00 
177000 5.1697427821e+00 -5.4110684549e-04 2.8989569827e+00 -5.0211407829e+00 2.8989569827e+00 5.0211407829e+00 
177100 5.1697427642e+00 -5.4001187546e-04 2.8989663154e+00 -5.0211569478e+00 2.8989663154e+00 5.0211569478e+00 
177200 5.1697427463e+00 -5.3891905758e-04 2.8989756293e+00 -5.0211730799e+00 2.8989756293e+00 5.0211730799e+00 
177300 5.1697427285e+00 -5.3782838792e-04 2.8989849243e+00 -5.0211891793e+00 2.8989849243e+00 5.0211891793e+00 
177400 5.1697427108e+00 -5.3673986257e-04 2.8989942005e+00 -5.0212052461e+00 2.8989942005e+00 5.0212052461e+00 
177500 5.1697426932e+00 -5.3565347761e-04 2.8990034578e+00 -5.0212212803e+00 2.8990034578e+00 5.0212212803e+00 
177600 5.1697426757e+00 -5.3456922914e-04 2.8990126964e+00 -5.0212372820e+00 2.8990126964e+00 5.0212372820e+00 
177700 5.1697426582e+00 -5.3348711325e-04 2.8990219163e+00 -5.0212532512e+00 2.8990219163e+00 5.0212532512e+00 
177800 5.1697426407e+00 -5.3240712605e-04 2.8990311174e+00 -5.0212691881e+00 2.8990311174e+00 5.0212691881e+00 
177900 5.1697426234e+00 -5.3132926364e-04 2.8990402999e+00 -5.0212850927e+00 2.8990402999e+00 5.0212850927e+00 
178000 5.1697426061e+00 -5.3025352215e-04 2.8990494638e+00 -5.0213009650e+00 2.8990494638e+00 5.0213009650e+00 
178100 5.1697425889e+00 -5.2917989769e-04 2.8990586091e+00 -5.0213168051e+00 2.8990586091e+00 5.0213168051e+00 
178200 5.1697425718e+00 -5.2810838639e-04 2.8990677359e+00 -5.0213326131e+00 2.8990677359e+00 5.0213326131e+00 
178300 5.1697425547e+00 -5.2703898438e-04 2.8990768441e+00 -5.0213483891e+00 2.8990768441e+00 5.0213483891e+00 
178400 5.1697425377e+00 -5.2597168780e-04 2.8990859339e+00 -5.0213641330e+00 2.8990859339e+00 5.0213641330e+00 
178500 5.1697425208e+00 -5.2490649279e-04 2.8990950052e+00 -5.0213798451e+00 2.8990950052e+00 5.0213798451e+00 
178600 5.1697425039e+00 -5.2384339551e-04 2.8991040582e+00 -5.0213955252e+00 2.8991040582e+00 5.0213955252e+00 
178700 5.1697424871e+00 -5.2278239210e-04 2.8991130928e+00 -5.0214111736e+00 2.8991130928e+00 5.0214111736e+00 
178800 5.1697424704e+00 -5.2172347873e-04 2.8991221090e+00 -5.0214267902e+00 2.8991221090e+00 5.0214267902e+00 
178900 5.1697424537e+00 -5.2066665155e-04 2.8991311070e+00 -5.0214423751e+00 2.8991311070e+00 5.0214423751e+00 
179000 5.1697424371e+00 -5.1961190675e-04 2.8991400867e+00 -5.0214579284e+00 2.8991400867e+00 5.0214579284e+00 
179100 5.1697424206e+00 -5.1855924050e-04 2.8991490482e+00 -5.0214734501e+00 2.8991490482e+00 5.0214734501e+00 
179200 5.1697424041e+00 -5.1750864899e-04 2.8991579915e+00 -5.0214889404e+00 2.8991579915e+00 5.0214889404e+00 
179300 5.1697423877e+00 -5.1646012839e-04 2.8991669166e+00 -5.0215043992e+00 2.8991669166e+00 5.0215043992e+00 
179400 5.1697423714e+00 -5.1541367490e-04 2.8991758237e+00 -5.0215198267e+00 2.8991758237e+00 5.0215198267e+00 
179500 5.1697423551e+00 -5.1436928473e-04 2.8991847127e+00 -5.0215352228e+00 2.8991847127e+00 5.0215352228e+00 
179600 5.1697423389e+00 -5.1332695408e-04 2.8991935836e+00 -5.0215505878e+00 2.8991935836e+00 5.0215505878e+00 
179700 5.1697423228e+00 -5.1228667916e-04 2.8992024365e+00 -5.0215659215e+00 2.8992024365e+00 5.0215659215e+00 
179800 5.1697423067e+00 -5.1124845618e-04 2.8992112715e+00 -5.0215812241e+00 2.8992112715e+00 5.0215812241e+00 
179900 5.1697422907e+00 -5.1021228138e-04 2.8992200885e+00 -5.0215964956e+00 2.8992200885e+00 5.0215964956e+00 
180000 5.1697422748e+00 -5.0917815096e-04 2.8992288877e+00 -5.0216117362e+00 2.8992288877e+00 5.0216117362e+00 
180100 5.1697422589e+00 -5.0814606117e-04 2.8992376689e+00 -5.0216269458e+00 2.8992376689e+00 5.0216269458e+00 
180200 5.1697422431e+00 -5.0711600825e-04 2.8992464324e+00 -5.0216421245e+00 2.8992464324e+00 5.0216421245e+00 
180300 5.1697422274e+00 -5.0608798844e-04 2.8992551780e+00 -5.0216572724e+00 2.8992551780e+00 5.0216572724e+00 
180400 5.1697422117e+00 -5.0506199799e-04 2.8992639059e+00 -5.0216723896e+00 2.8992639059e+00 5.0216723896e+00 
180500 5.1697421961e+00 -5.0403803315e-04 2.8992726161e+00 -5.0216874761e+00 2.8992726161e+00 5.0216874761e+00 
180600 5.1697421805e+00 -5.0301609019e-04 2.8992813086e+00 -5.0217025319e+00 2.8992813086e+00 5.0217025319e+00 
180700 5.1697421650e+00 -5.0199616538e-04 2.8992899834e+00 -5.0217175572e+00 2.8992899834e+00 5.0217175572e+00 
180800 5.1697421496e+00 -5.0097825498e-04 2.8992986407e+00 -5.0217325520e+00 2.8992986407e+00 5.0217325520e+00 
180900 5.1697421342e+00 -4.9996235527e-04 2.8993072803e+00 -5.0217475163e+00 2.8993072803e+00 5.0217475163e+00 
181000 5.1697421189e+00 -4.9894846254e-04 2.8993159024e+00 -5.0217624502e+00 2.8993159024e+00 5.0217624502e+00 
181100 5.1697421037e+00 -4.9793657307e-04 2.8993245070e+00 -5.0217773538e+00 2.8993245070e+00 5.0217773538e+00 
181200 5.1697420885e+00 -4.9692668317e-04 2.8993330941e+00 -5.0217922271e+00 2.8993330941e+00 5.0217922271e+00 
181300 5.1697420734e+00 -4.9591878913e-04 2.8993416638e+00 -5.0218070702e+00 2.8993416638e+00 5.0218070702e+00 
181400 5.1697420583e+00 -4.9491288725e-04 2.8993502161e+00 -5.0218218832e+00 2.8993502161e+00 5.0218218832e+00 
181500 5.1697420433e+00 -4.9390897385e-04 2.8993587510e+00 -5.0218366661e+00 2.8993587510e+00 5.0218366661e+00 
181600 5.1697420284e+00 -4.9290704524e-04 2.8993672685e+00 -5.0218514189e+00 2.8993672685e+00 5.0218514189e+00 
181700 5.1697420135e+00 -4.9190709775e-04 2.8993757688e+00 -5.0218661418e+00 2.8993757688e+00 5.0218661418e+00 
181800 5.1697419987e+00 -4.9090912771e-04 2.8993842518e+00 -5.0218808348e+00 2.8993842518e+00 5.0218808348e+00 
181900 5.1697419840e+00 -4.8991313144e-04 2.8993927175e+00 -5.0218954979e+00 2.8993927175e+00 5.0218954979e+00 
182000 5.1697419693e+00 -4.8891910530e-04 2.8994011661e+00 -5.0219101312e+00 2.8994011661e+00 5.0219101312e+00 
182100 5.1697419546e+00 -4.8792704561e-04 2.8994095975e+00 -5.0219247348e+00 2.8994095975e+00 5.0219247348e+00 
182200 5.1697419400e+00 -4.8693694874e-04 2.8994180117e+00 -5.0219393087e+00 2.8994180117e+00 5.0219393087e+00 
182300 5.1697419255e+00 -4.8594881104e-04 2.8994264089e+00 -5.0219538530e+00 2.8994264089e+00 5.0219538530e+00 
182400 5.1697419111e+00 -4.8496262887e-04 2.8994347890e+00 -5.0219683677e+00 2.8994347890e+00 5.0219683677e+00 
182500 5.1697418967e+00 -4.8397839860e-04 2.8994431520e+00 -5.0219828530e+00 2.8994431520e+00 5.0219828530e+00 
182600 5.1697418823e+00 -4.8299611660e-04 2.8994514981e+00 -5.0219973088e+00 2.8994514981e+00 5.0219973088e+00 
182700 5.1697418680e+00 -4.8201577925e-04 2.8994598272e+00 -5.0220117352e+00 2.8994598272e+00 5.0220117352e+00 
182800 5.1697418538e+00 -4.8103738293e-04 2.8994681394e+00 -5.0220261323e+00 2.8994681394e+00 5.0220261323e+00 
182900 5.1697418396e+00 -4.8006092403e-04 2.8994764346e+00 -5.0220405001e+00 2.8994764346e+00 5.0220405001e+00 
183000 5.1697418255e+00 -4.7908639895e-04 2.8994847130e+00 -5.0220548388e+00 2.8994847130e+00 5.0220548388e+00 
183100 5.1697418115e+00 -4.7811380409e-04 2.8994929746e+00 -5.0220691482e+00 2.8994929746e+00 5.0220691482e+00 
183200 5.1697417975e+00 -4.7714313584e-04 2.8995012194e+00 -5.0220834286e+00 2.8995012194e+00 5.0220834286e+00 
183300 5.1697417835e+00 -4.7617439064e-04 2.8995094474e+00 -5.0220976800e+00 2.8995094474e+00 5.0220976800e+00 
183400 5.1697417696e+00 -4.7520756489e-04 2.8995176587e+00 -5.0221119024e+00 2.8995176587e+00 5.0221119024e+00 
183500 5.1697417558e+00 -4.7424265501e-04 2.8995258533e+00 -5.0221260958e+00 2.8995258533e+00 5.0221260958e+00 
183600 5.1697417420e+00 -4.7327965744e-04 2.8995340313e+00 -5.0221402604e+00 2.8995340313e+00 5.0221402604e+00 
183700 5.1697417283e+00 -4.7231856860e-04 2.8995421926e+00 -5.0221543962e+00 2.8995421926e+00 5.0221543962e+00 
183800 5.1697417146e+00 -4.7135938494e-04 2.8995503373e+00 -5.0221685033e+00 2.8995503373e+00 5.0221685033e+00 
183900 5.1697417010e+00 -4.7040210290e-04 2.8995584654e+00 -5.0221825817e+00 2.8995584654e+00 5.0221825817e+00 
184000 5.1697416875e+00 -4.6944671893e-04 2.8995665771e+00 -5.0221966314e+00 2.8995665771e+00 5.0221966314e+00 
184100 5.1697416740e+00 -4.6849322949e-04 2.8995746722e+00 -5.0222106526e+00 2.8995746722e+00 5.0222106526e+00 
184200 5.1697416605e+00 -4.6754163104e-04 2.8995827508e+00 -5.0222246452e+00 2.8995827508e+00 5.0222246452e+00 
184300 5.1697416471e+00 -4.6659192004e-04 2.8995908131e+00 -5.0222386094e+00 2.8995908131e+00 5.0222386094e+00 
184400 5.1697416338e+00 -4.6564409297e-04 2.8995988589e+00 -5.0222525452e+00 2.8995988589e+00 5.0222525452e+00 
184500 5.1697416205e+00 -4.6469814631e-04 2.8996068884e+00 -5.0222664526e+00 2.8996068884e+00 5.0222664526e+00 
184600 5.1697416073e+00 -4.6375407654e-04 2.8996149015e+00 -5.0222803318e+00 2.8996149015e+00 5.0222803318e+00 
184700 5.1697415941e+00 -4.6281188014e-04 2.8996228983e+00 -5.0222941827e+00 2.8996228983e+00 5.0222941827e+00 
184800 5.1697415810e+00 -4.6187155362e-04 2.8996308789e+00 -5.0223080054e+00 2.8996308789e+00 5.0223080054e+00 
184900 5.1697415679e+00 -4.6093309347e-04 2.8996388432e+00 -5.0223218000e+00 2.8996388432e+00 5.0223218000e+00 
185000 5.1697415549e+00 -4.5999649620e-04 2.8996467913e+00 -5.0223355666e+00 2.8996467913e+00 5.0223355666e+00 
185100 5.1697415420e+00 -4.5906175833e-04 2.8996547233e+00 -5.0223493051e+00 2.8996547233e+00 5.0223493051e+00 
185200 5.1697415290e+00 -4.5812887635e-04 2.8996626391e+00 -5.0223630157e+00 2.8996626391e+00 5.0223630157e+00 
185300 5.1697415162e+00 -4.5719784681e-04 2.8996705388e+00 -5.0223766983e+00 2.8996705388e+00 5.0223766983e+00 
185400 5.1697415034e+00 -4.5626866622e-04 2.8996784224e+00 -5.0223903532e+00 2.8996784224e+00 5.0223903532e+00 
185500 5.1697414906e+00 -4.5534133111e-04 2.8996862900e+00 -5.0224039802e+00 2.8996862900e+00 5.0224039802e+00 
185600 5.1697414779e+00 -4.5441583804e-04 2.8996941415e+00 -5.0224175795e+00 2.8996941415e+00 5.0224175795e+00 
185700 5.1697414653e+00 -4.5349218354e-04 2.8997019771e+00 -5.0224311511e+00 2.8997019771e+00 5.0224311511e+00 
185800 5.1697414527e+00 -4.5257036415e-04 2.8997097967e+00 -5.0224446952e+00 2.8997097967e+00 5.0224446952e+00 
185900 5.1697414401e+00 -4.5165037645e-04 2.8997176005e+00 -5.0224582116e+00 2.8997176005e+00 5.0224582116e+00 
186000 5.1697414276e+00 -4.5073221698e-04 2.8997253883e+00 -5.0224717005e+00 2.8997253883e+00 5.0224717005e+00 
186100 5.1697414152e+00 -4.4981588231e-04 2.8997331603e+00 -5.0224851620e+00 2.8997331603e+00 5.0224851620e+00 
186200 5.1697414028e+00 -4.4890136901e-04 2.8997409164e+00 -5.0224985961e+00 2.8997409164e+00 5.0224985961e+00 
186300 5.1697413904e+00 -4.4798867366e-04 2.8997486568e+00 -5.0225120028e+00 2.8997486568e+00 5.0225120028e+00 
186400 5.1697413781e+00 -4.4707779285e-04 2.8997563814e+00 -5.0225253822e+00 2.8997563814e+00 5.0225253822e+00 
186500 5.1697413659e+00 -4.4616872315e-04 2.8997640903e+00 -5.0225387344e+00 2.8997640903e+00 5.0225387344e+00 
186600 5.1697413537e+00 -4.4526146117e-04 2.8997717835e+00 -5.0225520594e+00 2.8997717835e+00 5.0225520594e+00 
186700 5.1697413416e+00 -4.4435600350e-04 2.8997794610e+00 -5.0225653573e+00 2.8997794610e+00 5.0225653573e+00 
186800 5.1697413295e+00 -4.4345234674e-04 2.8997871229e+00 -5.0225786281e+00 2.8997871229e+00 5.0225786281e+00 
186900 5.1697413174e+00 -4.4255048751e-04 2.8997947692e+00 -5.0225918718e+00 2.8997947692e+00 5.0225918718e+00 
187000 5.1697413054e+00 -4.4165042242e-04 2.8998024000e+00 -5.0226050886e+00 2.8998024000e+00 5.0226050886e+00 
187100 5.1697412935e+00 -4.4075214809e-04 2.8998100151e+00 -5.0226182785e+00 2.8998100151e+00 5.0226182785e+00 
187200 5.1697412816e+00 -4.3985566114e-04 2.8998176148e+00 -5.0226314416e+00 2.8998176148e+00 5.0226314416e+00 
187300 5.1697412697e+00 -4.3896095821e-04 2.8998251990e+00 -5.0226445778e+00 2.8998251990e+00 5.0226445778e+00 
187400 5.1697412579e+00 -4.3806803594e-04 2.8998327678e+00 -5.0226576872e+00 2.8998327678e+00 5.0226576872e+00 
187500 5.1697412461e+00 -4.3717689096e-04 2.8998403211e+00 -5.0226707700e+00 2.8998403211e+00 5.0226707700e+00 
187600 5.1697412344e+00 -4.3628751992e-04 2.8998478591e+00 -5.0226838261e+00 2.8998478591e+00 5.0226838261e+00 
187700 5.1697412228e+00 -4.3539991948e-04 2.8998553817e+00 -5.0226968556e+00 2.8998553817e+00 5.0226968556e+00 
187800 5.1697412111e+00 -4.3451408629e-04 2.8998628889e+00 -5.0227098586e+00 2.8998628889e+00 5.0227098586e+00 
187900 5.1697411996e+00 -4.3363001702e-04 2.8998703809e+00 -5.0227228351e+00 2.8998703809e+00 5.0227228351e+00 
188000 5.1697411880e+00 -4.3274770834e-04 2.8998778576e+00 -5.0227357852e+00 2.8998778576e+00 5.0227357852e+00 
188100 5.1697411766e+00 -4.3186715692e-04 2.8998853191e+00 -5.0227487088e+00 2.8998853191e+00 5.0227487088e+00 
188200 5.1697411651e+00 -4.3098835944e-04 2.8998927654e+00 -5.0227616062e+00 2.8998927654e+00 5.0227616062e+00 
188300 5.1697411538e+00 -4.3011131258e-04 2.8999001965e+00 -5.0227744772e+00 2.8999001965e+00 5.0227744772e+00 
188400 5.1697411424e+00 -4.2923601304e-04 2.8999076125e+00 -5.0227873221e+00 2.8999076125e+00 5.0227873221e+00 
188500 5.1697411311e+00 -4.2836245752e-04 2.8999150133e+00 -5.0228001407e+00 2.8999150133e+00 5.0228001407e+00 
188600 5.1697411199e+00 -4.2749064271e-04 2.8999223991e+00 -5.0228129333e+00 2.8999223991e+00 5.0228129333e+00 
188700 5.1697411087e+00 -4.2662056532e-04 2.8999297698e+00 -5.0228256998e+00 2.8999297698e+00 5.0228256998e+00 
188800 5.1697410975e+00 -4.2575222206e-04 2.8999371256e+00 -5.0228384402e+00 2.8999371256e+00 5.0228384402e+00 
188900 5.1697410864e+00 -4.2488560965e-04 2.8999444663e+00 -5.0228511547e+00 2.8999444663e+00 5.0228511547e+00 
189000 5.1697410754e+00 -4.2402072482e-04 2.8999517920e+00 -5.0228638433e+00 2.8999517920e+00 5.0228638433e+00 
189100 5.1697410643e+00 -4.2315756428e-04 2.8999591029e+00 -5.0228765060e+00 2.8999591029e+00 5.0228765060e+00 
189200 5.1697410534e+00 -4.2229612478e-04 2.8999663988e+00 -5.0228891429e+00 2.8999663988e+00 5.0228891429e+00 
189300 5.1697410424e+00 -4.2143640306e-04 2.8999736798e+00 -5.0229017541e+00 2.8999736798e+00 5.0229017541e+00 
189400 5.1697410315e+00 -4.2057839585e-04 2.8999809461e+00 -5.0229143395e+00 2.8999809461e+00 5.0229143395e+00 
189500 5.1697410207e+00 -4.1972209991e-04 2.8999881975e+00 -5.0229268993e+00 2.8999881975e+00 5.0229268993e+00 
189600 5.1697410099e+00 -4.1886751200e-04 2.8999954341e+00 -5.0229394335e+00 2.8999954341e+00 5.0229394335e+00 
189700 5.1697409992e+00 -4.1801462886e-04 2.9000026559e+00 -5.0229519422e+00 2.9000026559e+00 5.0229519422e+00 
189800 5.1697409884e+00 -4.1716344727e-04 2.9000098631e+00 -5.0229644253e+00 2.9000098631e+00 5.0229644253e+00 
189900 5.1697409778e+00 -4.1631396400e-04 2.9000170555e+00 -5.0229768830e+00 2.9000170555e+00 5.0229768830e+00 
190000 5.1697409672e+00 -4.1546617583e-04 2.9000242333e+00 -5.0229893153e+00 2.9000242333e+00 5.0229893153e+00 
190100 5.1697409566e+00 -4.1462007953e-04 2.9000313965e+00 -5.0230017222e+00 2.9000313965e+00 5.0230017222e+00 
190200 5.1697409460e+00 -4.1377567190e-04 2.9000385450e+00 -5.0230141039e+00 2.9000385450e+00 5.0230141039e+00 
190300 5.1697409355e+00 -4.1293294972e-04 2.9000456790e+00 -5.0230264603e+00 2.9000456790e+00 5.0230264603e+00 
190400 5.1697409251e+00 -4.1209190979e-04 2.9000527984e+00 -5.0230387915e+00 2.9000527984e+00 5.0230387915e+00 
190500 5.1697409147e+00 -4.1125254891e-04 2.9000599033e+00 -5.0230510976e+00 2.9000599033e+00 5.0230510976e+00 
190600 5.1697409043e+00 -4.1041486390e-04 2.9000669937e+00 -5.0230633785e+00 2.9000669937e+00 5.0230633785e+00 
190700 5.1697408940e+00 -4.0957885157e-04 2.9000740697e+00 -5.0230756344e+00 2.9000740697e+00 5.0230756344e+00 
190800 5.1697408837e+00 -4.0874450873e-04 2.9000811312e+00 -5.0230878654e+00 2.9000811312e+00 5.0230878654e+00 
190900 5.1697408735e+00 -4.0791183221e-04 2.9000881784e+00 -5.0231000713e+00 2.9000881784e+00 5.0231000713e+00 
191000 5.1697408633e+00 -4.0708081883e-04 2.9000952111e+00 -5.0231122524e+00 2.9000952111e+00 5.0231122524e+00 
191100 5.1697408531e+00 -4.0625146544e-04 2.9001022295e+00 -5.0231244087e+00 2.9001022295e+00 5.0231244087e+00 
191200 5.1697408430e+00 -4.0542376886e-04 2.9001092336e+00 -5.0231365401e+00 2.9001092336e+00 5.0231365401e+00 
191300 5.1697408329e+00 -4.0459772596e-04 2.9001162234e+00 -5.0231486468e+00 2.9001162234e+00 5.0231486468e+00 
191400 5.1697408229e+00 -4.0377333356e-04 2.9001231990e+00 -5.0231607288e+00 2.9001231990e+00 5.0231607288e+00 
191500 5.1697408129e+00 -4.0295058854e-04 2.9001301603e+00 -5.0231727862e+00 2.9001301603e+00 5.0231727862e+00 
191600 5.1697408029e+00 -4.0212948776e-04 2.9001371074e+00 -5.0231848189e+00 2.9001371074e+00 5.0231848189e+00 
191700 5.1697407930e+00 -4.0131002806e-04 2.9001440403e+00 -5.0231968271e+00 2.9001440403e+00 5.0231968271e+00 
191800 5.1697407831e+00 -4.0049220634e-04 2.9001509591e+00 -5.0232088108e+00 2.9001509591e+00 5.0232088108e+00 
191900 5.1697407733e+00 -3.9967601946e-04 2.9001578638e+00 -5.0232207701e+00 2.9001578638e+00 5.0232207701e+00 
192000 5.1697407635e+00 -3.9886146431e-04 2.9001647544e+00 -5.0232327049e+00 2.9001647544e+00 5.0232327049e+00 
192100 5.1697407538e+00 -3.9804853777e-04 2.9001716309e+00 -5.0232446155e+00 2.9001716309e+00 5.0232446155e+00 
192200 5.1697407440e+00 -3.9723723673e-04 2.9001784934e+00 -5.0232565017e+00 2.9001784934e+00 5.0232565017e+00 
192300 5.1697407344e+00 -3.9642755810e-04 2.9001853419e+00 -5.0232683636e+00 2.9001853419e+00 5.0232683636e+00 
192400 5.1697407247e+00 -3.9561949877e-04 2.9001921765e+00 -5.0232802013e+00 2.9001921765e+00 5.0232802013e+00 
192500 5.1697407151e+00 -3.9481305565e-04 2.9001989970e+00 -5.0232920149e+00 2.9001989970e+00 5.0232920149e+00 
192600 5.1697407056e+00 -3.9400822565e-04 2.9002058037e+00 -5.0233038044e+00 2.9002058037e+00 5.0233038044e+00 
192700 5.1697406961e+00 -3.9320500570e-04 2.9002125965e+00 -5.0233155698e+00 2.9002125965e+00 5.0233155698e+00 
192800 5.1697406866e+00 -3.9240339271e-04 2.9002193754e+00 -5.0233273112e+00 2.9002193754e+00 5.0233273112e+00 
192900 5.1697406771e+00 -3.9160338361e-04 2.9002261404e+00 -5.0233390287e+00 2.9002261404e+00 5.0233390287e+00 
193000 5.1697406677e+00 -3.9080497534e-04 2.9002328917e+00 -5.0233507222e+00 2.9002328917e+00 5.0233507222e+00 
193100 5.1697406584e+00 -3.9000816483e-04 2.9002396292e+00 -5.0233623918e+00 2.9002396292e+00 5.0233623918e+00 
193200 5.1697406490e+00 -3.8921294904e-04 2.9002463529e+00 -5.0233740377e+00 2.9002463529e+00 5.0233740377e+00 
193300 5.1697406398e+00 -3.8841932490e-04 2.9002530629e+00 -5.0233856597e+00 2.9002530629e+00 5.0233856597e+00 
193400 5.1697406305e+00 -3.8762728937e-04 2.9002597592e+00 -5.0233972581e+00 2.9002597592e+00 5.0233972581e+00 
193500 5.1697406213e+00 -3.8683683941e-04 2.9002664418e+00 -5.0234088327e+00 2.9002664418e+00 5.0234088327e+00 
193600 5.1697406121e+00 -3.8604797198e-04 2.9002731108e+00 -5.0234203838e+00 2.9002731108e+00 5.0234203838e+00 
193700 5.1697406030e+00 -3.8526068406e-04 2.9002797662e+00 -5.0234319112e+00 2.9002797662e+00 5.0234319112e+00 
193800 5.1697405939e+00 -3.8447497262e-04 2.9002864080e+00 -5.0234434151e+00 2.9002864080e+00 5.0234434151e+00 
193900 5.1697405848e+00 -3.8369083464e-04 2.9002930362e+00 -5.0234548956e+00 2.9002930362e+00 5.0234548956e+00 
194000 5.1697405758e+00 -3.8290826710e-04 2.9002996509e+00 -5.0234663525e+00 2.9002996509e+00 5.0234663525e+00 
194100 5.1697405668e+00 -3.8212726699e-04 2.9003062521e+00 -5.0234777861e+00 2.9003062521e+00 5.0234777861e+00 
194200 5.1697405578e+00 -3.8134783131e-04 2.9003128398e+00 -5.0234891964e+00 2.9003128398e+00 5.0234891964e+00 
194300 5.1697405489e+00 -3.8056995706e-04 2.9003194141e+00 -5.0235005833e+00 2.9003194141e+00 5.0235005833e+00 
194400 5.1697405400e+00 -3.7979364124e-04 2.9003259749e+00 -5.0235119470e+00 2.9003259749e+00 5.0235119470e+00 
194500 5.1697405312e+00 -3.7901888086e-04 2.9003325223e+00 -5.0235232875e+00 2.9003325223e+00 5.0235232875e+00 
194600 5.1697405224e+00 -3.7824567295e-04 2.9003390564e+00 -5.0235346048e+00 2.9003390564e+00 5.0235346048e+00 
194700 5.1697405136e+00 -3.7747401451e-04 2.9003455771e+00 -5.0235458990e+00 2.9003455771e+00 5.0235458990e+00 
194800 5.1697405049e+00 -3.7670390258e-04 2.9003520845e+00 -5.0235571702e+00 2.9003520845e+00 5.0235571702e+00 
194900 5.1697404962e+00 -3.7593533418e-04 2.9003585786e+00 -5.0235684183e+00 2.9003585786e+00 5.0235684183e+00 
195000 5.1697404875e+00 -3.7516830636e-04 2.9003650594e+00 -5.0235796435e+00 2.9003650594e+00 5.0235796435e+00 
195100 5.1697404789e+00 -3.7440281615e-04 2.9003715271e+00 -5.0235908457e+00 2.9003715271e+00 5.0235908457e+00 
195200 5.1697404703e+00 -3.7363886059e-04 2.9003779815e+00 -5.0236020250e+00 2.9003779815e+00 5.0236020250e+00 
195300 5.1697404617e+00 -3.7287643674e-04 2.9003844227e+00 -5.0236131815e+00 2.9003844227e+00 5.0236131815e+00 
195400 5.1697404532e+00 -3.7211554166e-04 2.9003908507e+00 -5.0236243153e+00 2.9003908507e+00 5.0236243153e+00 
195500 5.1697404447e+00 -3.7135617241e-04 2.9003972656e+00 -5.0236354262e+00 2.9003972656e+00 5.0236354262e+00 
195600 5.1697404362e+00 -3.7059832604e-04 2.9004036675e+00 -5.0236465145e+00 2.9004036675e+00 5.0236465145e+00 
195700 5.1697404278e+00 -3.6984199964e-04 2.9004100562e+00 -5.0236575801e+00 2.9004100562e+00 5.0236575801e+00 
195800 5.1697404194e+00 -3.6908719027e-04 2.9004164319e+00 -5.0236686231e+00 2.9004164319e+00 5.0236686231e+00 
195900 5.1697404111e+00 -3.6833389503e-04 2.9004227945e+00 -5.0236796436e+00 2.9004227945e+00 5.0236796436e+00 
196000 5.1697404027e+00 -3.6758211099e-04 2.9004291442e+00 -5.0236906415e+00 2.9004291442e+00 5.0236906415e+00 
196100 5.1697403945e+00 -3.6683183525e-04 2.9004354809e+00 -5.0237016170e+00 2.9004354809e+00 5.0237016170e+00 
196200 5.1697403862e+00 -3.6608306490e-04 2.9004418046e+00 -5.0237125700e+00 2.9004418046e+00 5.0237125700e+00 
196300 5.1697403780e+00 -3.6533579704e-04 2.9004481155e+00 -5.0237235007e+00 2.9004481155e+00 5.0237235007e+00 
196400 5.1697403698e+00 -3.6459002879e-04 2.9004544134e+00 -5.0237344090e+00 2.9004544134e+00 5.0237344090e+00 
196500 5.1697403616e+00 -3.6384575724e-04 2.9004606984e+00 -5.0237452950e+00 2.9004606984e+00 5.0237452950e+00 
196600 5.1697403535e+00 -3.6310297952e-04 2.9004669706e+00 -5.0237561588e+00 2.9004669706e+00 5.0237561588e+00 
196700 5.1697403454e+00 -3.6236169275e-04 2.9004732300e+00 -5.0237670004e+00 2.9004732300e+00 5.0237670004e+00 
196800 5.1697403374e+00 -3.6162189406e-04 2.9004794766e+00 -5.0237778198e+00 2.9004794766e+00 5.0237778198e+00 
196900 5.1697403294e+00 -3.6088358057e-04 2.9004857105e+00 -5.0237886171e+00 2.9004857105e+00 5.0237886171e+00 
197000 5.1697403214e+00 -3.6014674942e-04 2.9004919315e+00 -5.0237993924e+00 2.9004919315e+00 5.0237993924e+00 
197100 5.1697403134e+00 -3.5941139775e-04 2.9004981399e+00 -5.0238101456e+00 2.9004981399e+00 5.0238101456e+00 
197200 5.1697403055e+00 -3.5867752270e-04 2.9005043356e+00 -5.0238208769e+00 2.9005043356e+00 5.0238208769e+00 
197300 5.1697402976e+00 -3.5794512144e-04 2.9005105186e+00 -5.0238315862e+00 2.9005105186e+00 5.0238315862e+00 
197400 5.1697402897e+00 -3.5721419111e-04 2.9005166890e+00 -5.0238422736e+00 2.9005166890e+00 5.0238422736e+00 
197500 5.1697402819e+00 -3.5648472887e-04 2.9005228468e+00 -5.0238529391e+00 2.9005228468e+00 5.0238529391e+00 
197600 5.1697402741e+00 -3.5575673190e-04 2.9005289920e+00 -5.0238635829e+00 2.9005289920e+00 5.0238635829e+00 
197700 5.1697402663e+00 -3.5503019735e-04 2.9005351246e+00 -5.0238742049e+00 2.9005351246e+00 5.0238742049e+00 
197800 5.1697402586e+00 -3.5430512241e-04 2.9005412447e+00 -5.0238848052e+00 2.9005412447e+00 5.0238848052e+00 
197900 5.1697402509e+00 -3.5358150426e-04 2.9005473522e+00 -5.0238953838e+00 2.9005473522e+00 5.0238953838e+00 
198000 5.1697402432e+00 -3.5285934007e-04 2.9005534473e+00 -5.0239059408e+00 2.9005534473e+00 5.0239059408e+00 
198100 5.1697402356e+00 -3.5213862705e-04 2.9005595300e+00 -5.0239164763e+00 2.9005595300e+00 5.0239164763e+00 
198200 5.1697402280e+00 -3.5141936238e-04 2.9005656001e+00 -5.0239269901e+00 2.9005656001e+00 5.0239269901e+00 
198300 5.1697402204e+00 -3.5070154327e-04 2.9005716579e+00 -5.0239374825e+00 2.9005716579e+00 5.0239374825e+00 
198400 5.1697402129e+00 -3.4998516692e-04 2.9005777033e+00 -5.0239479534e+00 2.9005777033e+00 5.0239479534e+00 
198500 5.1697402054e+00 -3.4927023054e-04 2.9005837363e+00 -5.0239584029e+00 2.9005837363e+00 5.0239584029e+00 
198600 5.1697401979e+00 -3.4855673134e-04 2.9005897570e+00 -5.0239688311e+00 2.9005897570e+00 5.0239688311e+00 
198700 5.1697401904e+00 -3.4784466655e-04 2.9005957654e+00 -5.0239792379e+00 2.9005957654e+00 5.0239792379e+00 
198800 5.1697401830e+00 -3.4713403339e-04 2.9006017615e+00 -5.0239896234e+00 2.9006017615e+00 5.0239896234e+00 
198900 5.1697401756e+00 -3.4642482908e-04 2.9006077453e+00 -5.0239999877e+00 2.9006077453e+00 5.0239999877e+00 
199000 5.1697401682e+00 -3.4571705086e-04 2.9006137169e+00 -5.0240103308e+00 2.9006137169e+00 5.0240103308e+00 
199100 5.1697401609e+00 -3.4501069597e-04 2.9006196763e+00 -5.0240206528e+00 2.9006196763e+00 5.0240206528e+00 
199200 5.1697401536e+00 -3.4430576165e-04 2.9006256235e+00 -5.0240309536e+00 2.9006256235e+00 5.0240309536e+00 
199300 5.1697401463e+00 -3.4360224516e-04 2.9006315585e+00 -5.0240412334e+00 2.9006315585e+00 5.0240412334e+00 
199400 5.1697401391e+00 -3.4290014374e-04 2.9006374814e+00 -5.0240514921e+00 2.9006374814e+00 5.0240514921e+00 
199500 5.1697401319e+00 -3.4219945465e-04 2.9006433922e+00 -5.0240617299e+00 2.9006433922e+00 5.0240617299e+00 
199600 5.1697401247e+00 -3.4150017516e-04 2.9006492909e+00 -5.0240719467e+00 2.9006492909e+00 5.0240719467e+00 
199700 5.1697401175e+00 -3.4080230253e-04 2.9006551775e+00 -5.0240821426e+00 2.9006551775e+00 5.0240821426e+00 
199800 5.1697401104e+00 -3.4010583403e-04 2.9006610521e+00 -5.0240923177e+00 2.9006610521e+00 5.0240923177e+00 
199900 5.1697401033e+00 -3.3941076695e-04 2.9006669146e+00 -5.0241024719e+00 2.9006669146e+00 5.0241024719e+00 
200000 5.1697400962e+00 -3.3871709856e-04 2.9006727652e+00 -5.0241126054e+00 2.9006727652e+00 5.0241126054e+00 
200100 5.1697400892e+00 -3.3802482615e-04 2.9006786038e+00 -5.0241227182e+00 2.9006786038e+00 5.0241227182e+00 
200200 5.1697400822e+00 -3.3733394702e-04 2.9006844304e+00 -5.0241328102e+00 2.9006844304e+00 5.0241328102e+00 
200300 5.1697400752e+00 -3.3664445845e-04 2.9006902452e+00 -5.0241428816e+00 2.9006902452e+00 5.0241428816e+00 
200400 5.1697400683e+00 -3.3595635775e-04 2.9006960480e+00 -5.0241529324e+00 2.9006960480e+00 5.0241529324e+00 
200500 5.1697400613e+00 -3.3526964223e-04 2.9007018390e+00 -5.0241629627e+00 2.9007018390e+00 5.0241629627e+00 
200600 5.1697400544e+00 -3.3458430919e-04 2.9007076181e+00 -5.0241729724e+00 2.9007076181e+00 5.0241729724e+00 
200700 5.1697400476e+00 -3.3390035596e-04 2.9007133854e+00 -5.0241829616e+00 2.9007133854e+00 5.0241829616e+00 
200800 5.1697400407e+00 -3.3321777984e-04 2.9007191409e+00 -5.0241929304e+00 2.9007191409e+00 5.0241929304e+00 
200900 5.1697400339e+00 -3.3253657818e-04 2.9007248846e+00 -5.0242028788e+00 2.9007248846e+00 5.0242028788e+00 
201000 5.1697400271e+00 -3.3185674828e-04 2.9007306165e+00 -5.0242128069e+00 2.9007306165e+00 5.0242128069e+00 
201100 5.1697400204e+00 -3.3117828750e-04 2.9007363368e+00 -5.0242227146e+00 2.9007363368e+00 5.0242227146e+00 
201200 5.1697400136e+00 -3.3050119317e-04 2.9007420453e+00 -5.0242326021e+00 2.9007420453e+00 5.0242326021e+00 
201300 5.1697400069e+00 -3.2982546263e-04 2.9007477421e+00 -5.0242424693e+00 2.9007477421e+00 5.0242424693e+00 
201400 5.1697400002e+00 -3.2915109322e-04 2.9007534273e+00 -5.0242523163e+00 2.9007534273e+00 5.0242523163e+00 
201500 5.1697399936e+00 -3.2847808232e-04 2.9007591008e+00 -5.0242621432e+00 2.9007591008e+00 5.0242621432e+00 
201600 5.1697399870e+00 -3.2780642726e-04 2.9007647628e+00 -5.0242719499e+00 2.9007647628e+00 5.0242719499e+00 
201700 5.1697399804e+00 -3.2713612542e-04 2.9007704131e+00 -5.0242817366e+00 2.9007704131e+00 5.0242817366e+00 
201800 5.1697399738e+00 -3.2646717416e-04 2.9007760519e+00 -5.0242915033e+00 2.9007760519e+00 5.0242915033e+00 
201900 5.1697399673e+00 -3.2579957085e-04 2.9007816791e+00 -5.0243012499e+00 2.9007816791e+00 5.0243012499e+00 
202000 5.1697399608e+00 -3.2513331287e-04 2.9007872949e+00 -5.0243109767e+00 2.9007872949e+00 5.0243109767e+00 
202100 5.1697399543e+00 -3.2446839760e-04 2.9007928991e+00 -5.0243206835e+00 2.9007928991e+00 5.0243206835e+00 
202200 5.1697399478e+00 -3.2380482242e-04 2.9007984919e+00 -5.0243303704e+00 2.9007984919e+00 5.0243303704e+00 
202300 5.1697399414e+00 -3.2314258473e-04 2.9008040732e+00 -5.0243400375e+00 2.9008040732e+00 5.0243400375e+00 
202400 5.1697399350e+00 -3.2248168192e-04 2.9008096430e+00 -5.0243496848e+00 2.9008096430e+00 5.0243496848e+00 
202500 5.1697399286e+00 -3.2182211140e-04 2.9008152015e+00 -5.0243593124e+00 2.9008152015e+00 5.0243593124e+00 
202600 5.1697399222e+00 -3.2116387055e-04 2.9008207486e+00 -5.0243689203e+00 2.9008207486e+00 5.0243689203e+00 
202700 5.1697399159e+00 -3.2050695681e-04 2.9008262844e+00 -5.0243785084e+00 2.9008262844e+00 5.0243785084e+00 
202800 5.1697399096e+00 -3.1985136757e-04 2.9008318088e+00 -5.0243880770e+00 2.9008318088e+00 5.0243880770e+00 
202900 5.1697399033e+00 -3.1919710025e-04 2.9008373219e+00 -5.0243976260e+00 2.9008373219e+00 5.0243976260e+00 
203000 5.1697398971e+00 -3.1854415228e-04 2.9008428237e+00 -5.0244071554e+00 2.9008428237e+00 5.0244071554e+00 
203100 5.1697398908e+00 -3.1789252109e-04 2.9008483142e+00 -5.0244166653e+00 2.9008483142e+00 5.0244166653e+00 
203200 5.1697398846e+00 -3.1724220411e-04 2.9008537935e+00 -5.0244261557e+00 2.9008537935e+00 5.0244261557e+00 
203300 5.1697398784e+00 -3.1659319877e-04 2.9008592616e+00 -5.0244356267e+00 2.9008592616e+00 5.0244356267e+00 
203400 5.1697398723e+00 -3.1594550251e-04 2.9008647185e+00 -5.0244450783e+00 2.9008647185e+00 5.0244450783e+00 
203500 5.1697398662e+00 -3.1529911279e-04 2.9008701642e+00 -5.0244545106e+00 2.9008701642e+00 5.0244545106e+00 
203600 5.1697398601e+00 -3.1465402705e-04 2.9008755988e+00 -5.0244639235e+00 2.9008755988e+00 5.0244639235e+00 
203700 5.1697398540e+00 -3.1401024274e-04 2.9008810222e+00 -5.0244733172e+00 2.9008810222e+00 5.0244733172e+00 
203800 5.1697398479e+00 -3.1336775733e-04 2.9008864345e+00 -5.0244826916e+00 2.9008864345e+00 5.0244826916e+00 
203900 5.1697398419e+00 -3.1272656828e-04 2.9008918358e+00 -5.0244920468e+00 2.9008918358e+00 5.0244920468e+00 
204000 5.1697398359e+00 -3.1208667305e-04 2.9008972260e+00 -5.0245013829e+00 2.9008972260e+00 5.0245013829e+00 
204100 5.1697398299e+00 -3.1144806913e-04 2.9009026051e+00 -5.0245106999e+00 2.9009026051e+00 5.0245106999e+00 
204200 5.1697398240e+00 -3.1081075398e-04 2.9009079732e+00 -5.0245199977e+00 2.9009079732e+00 5.0245199977e+00 
204300 5.1697398180e+00 -3.1017472510e-04 2.9009133304e+00 -5.0245292765e+00 2.9009133304e+00 5.0245292765e+00 
204400 5.1697398121e+00 -3.0953997996e-04 2.9009186765e+00 -5.0245385364e+00 2.9009186765e+00 5.0245385364e+00 
204500 5.1697398062e+00 -3.0890651606e-04 2.9009240117e+00 -5.0245477772e+00 2.9009240117e+00 5.0245477772e+00 
204600 5.1697398004e+00 -3.0827433089e-04 2.9009293360e+00 -5.0245569991e+00 2.9009293360e+00 5.0245569991e+00 
204700 5.1697397946e+00 -3.0764342196e-04 2.9009346494e+00 -5.0245662022e+00 2.9009346494e+00 5.0245662022e+00 
204800 5.1697397887e+00 -3.0701378677e-04 2.9009399519e+00 -5.0245753864e+00 2.9009399519e+00 5.0245753864e+00 
204900 5.1697397830e+00 -3.0638542282e-04 2.9009452435e+00 -5.0245845517e+00 2.9009452435e+00 5.0245845517e+00 
205000 5.1697397772e+00 -3.0575832763e-04 2.9009505243e+00 -5.0245936983e+00 2.9009505243e+00 5.0245936983e+00 
205100 5.1697397715e+00 -3.0513249873e-04 2.9009557943e+00 -5.0246028262e+00 2.9009557943e+00 5.0246028262e+00 
205200 5.1697397657e+00 -3.0450793362e-04 2.9009610534e+00 -5.0246119353e+00 2.9009610534e+00 5.0246119353e+00 
205300 5.1697397600e+00 -3.0388462984e-04 2.9009663018e+00 -5.0246210258e+00 2.9009663018e+00 5.0246210258e+00 
205400 5.1697397544e+00 -3.0326258493e-04 2.9009715395e+00 -5.0246300977e+00 2.9009715395e+00 5.0246300977e+00 
205500 5.1697397487e+00 -3.0264179641e-04 2.9009767664e+00 -5.0246391510e+00 2.9009767664e+00 5.0246391510e+00 
205600 5.1697397431e+00 -3.0202226182e-04 2.9009819826e+00 -5.0246481857e+00 2.9009819826e+00 5.0246481857e+00 
205700 5.1697397375e+00 -3.0140397872e-04 2.9009871881e+00 -5.0246572019e+00 2.9009871881e+00 5.0246572019e+00 
205800 5.1697397319e+00 -3.0078694465e-04 2.9009923830e+00 -5.0246661997e+00 2.9009923830e+00 5.0246661997e+00 
205900 5.1697397264e+00 -3.0017115716e-04 2.9009975672e+00 -5.0246751790e+00 2.9009975672e+00 5.0246751790e+00 
206000 5.1697397208e+00 -2.9955661381e-04 2.9010027408e+00 -5.0246841399e+00 2.9010027408e+00 5.0246841399e+00 
206100 5.1697397153e+00 -2.9894331217e-04 2.9010079038e+00 -5.0246930825e+00 2.9010079038e+00 5.0246930825e+00 
206200 5.1697397098e+00 -2.9833124980e-04 2.9010130562e+00 -5.0247020067e+00 2.9010130562e+00 5.0247020067e+00 
206300 5.1697397044e+00 -2.9772042427e-04 2.9010181980e+00 -5.0247109126e+00 2.9010181980e+00 5.0247109126e+00 
206400 5.1697396989e+00 -2.9711083317e-04 2.9010233293e+00 -5.0247198003e+00 2.9010233293e+00 5.0247198003e+00 
206500 5.1697396935e+00 -2.9650247406e-04 2.9010284501e+00 -5.0247286698e+00 2.9010284501e+00 5.0247286698e+00 
206600 5.1697396881e+00 -2.9589534453e-04 2.9010335604e+00 -5.0247375211e+00 2.9010335604e+00 5.0247375211e+00 
206700 5.1697396827e+00 -2.9528944218e-04 2.9010386602e+00 -5.0247463543e+00 2.9010386602e+00 5.0247463543e+00 
206800 5.1697396774e+00 -2.9468476459e-04 2.9010437496e+00 -5.0247551693e+00 2.9010437496e+00 5.0247551693e+00 
206900 5.1697396721e+00 -2.9408130936e-04 2.9010488286e+00 -5.0247639663e+00 2.9010488286e+00 5.0247639663e+00 
207000 5.1697396667e+00 -2.9347907410e-04 2.9010538971e+00 -5.0247727453e+00 2.9010538971e+00 5.0247727453e+00 
207100 5.1697396615e+00 -2.9287805641e-04 2.9010589552e+00 -5.0247815062e+00 2.9010589552e+00 5.0247815062e+00 
207200 5.1697396562e+00 -2.9227825391e-04 2.9010640030e+00 -5.0247902493e+00 2.9010640030e+00 5.0247902493e+00 
207300 5.1697396509e+00 -2.9167966419e-04 2.9010690405e+00 -5.0247989743e+00 2.9010690405e+00 5.0247989743e+00 
207400 5.1697396457e+00 -2.9108228490e-04 2.9010740676e+00 -5.0248076816e+00 2.9010740676e+00 5.0248076816e+00 
207500 5.1697396405e+00 -2.9048611365e-04 2.9010790844e+00 -5.0248163709e+00 2.9010790844e+00 5.0248163709e+00 
207600 5.1697396353e+00 -2.8989114806e-04 2.9010840909e+00 -5.0248250425e+00 2.9010840909e+00 5.0248250425e+00 
207700 5.1697396302e+00 -2.8929738578e-04 2.9010890871e+00 -5.0248336962e+00 2.9010890871e+00 5.0248336962e+00 
207800 5.1697396250e+00 -2.8870482443e-04 2.9010940732e+00 -5.0248423323e+00 2.9010940732e+00 5.0248423323e+00 
207900 5.1697396199e+00 -2.8811346166e-04 2.9010990490e+00 -5.0248509506e+00 2.9010990490e+00 5.0248509506e+00 
208000 5.1697396148e+00 -2.8752329512e-04 2.9011040146e+00 -5.0248595512e+00 2.9011040146e+00 5.0248595512e+00 
208100 5.1697396097e+00 -2.8693432245e-04 2.9011089700e+00 -5.0248681343e+00 2.9011089700e+00 5.0248681343e+00 
208200 5.1697396047e+00 -2.8634654130e-04 2.9011139152e+00 -5.0248766997e+00 2.9011139152e+00 5.0248766997e+00 
208300 5.1697395997e+00 -2.8575994934e-04 2.9011188503e+00 -5.0248852476e+00 2.9011188503e+00 5.0248852476e+00 
208400 5.1697395946e+00 -2.8517454423e-04 2.9011237753e+00 -5.0248937779e+00 2.9011237753e+00 5.0248937779e+00 
208500 5.1697395896e+00 -2.8459032363e-04 2.9011286902e+00 -5.0249022908e+00 2.9011286902e+00 5.0249022908e+00 
208600 5.1697395847e+00 -2.8400728522e-04 2.9011335951e+00 -5.0249107862e+00 2.9011335951e+00 5.0249107862e+00 
208700 5.1697395797e+00 -2.8342542666e-04 2.9011384898e+00 -5.0249192642e+00 2.9011384898e+00 5.0249192642e+00 
208800 5.1697395748e+00 -2.8284474565e-04 2.9011433745e+00 -5.0249277248e+00 2.9011433745e+00 5.0249277248e+00 
208900 5.1697395699e+00 -2.8226523986e-04 2.9011482493e+00 -5.0249361680e+00 2.9011482493e+00 5.0249361680e+00 
209000 5.1697395650e+00 -2.8168690698e-04 2.9011531140e+00 -5.0249445939e+00 2.9011531140e+00 5.0249445939e+00 
209100 5.1697395601e+00 -2.8110974470e-04 2.9011579687e+00 -5.0249530026e+00 2.9011579687e+00 5.0249530026e+00 
209200 5.1697395552e+00 -2.8053375073e-04 2.9011628135e+00 -5.0249613940e+00 2.9011628135e+00 5.0249613940e+00 
209300 5.1697395504e+00 -2.7995892275e-04 2.9011676484e+00 -5.0249697682e+00 2.9011676484e+00 5.0249697682e+00 
209400 5.1697395456e+00 -2.7938525848e-04 2.9011724733e+00 -5.0249781253e+00 2.9011724733e+00 5.0249781253e+00 
209500 5.1697395408e+00 -2.7881275563e-04 2.9011772883e+00 -5.0249864652e+00 2.9011772883e+00 5.0249864652e+00 
209600 5.1697395360e+00 -2.7824141190e-04 2.9011820935e+00 -5.0249947880e+00 2.9011820935e+00 5.0249947880e+00 
209700 5.1697395313e+00 -2.7767122502e-04 2.9011868888e+00 -5.0250030937e+00 2.9011868888e+00 5.0250030937e+00 
209800 5.1697395265e+00 -2.7710219270e-04 2.9011916743e+00 -5.0250113824e+00 2.9011916743e+00 5.0250113824e+00 
209900 5.1697395218e+00 -2.7653431268e-04 2.9011964500e+00 -5.0250196541e+00 2.9011964500e+00 5.0250196541e+00 
210000 5.1697395171e+00 -2.7596758267e-04 2.9012012158e+00 -5.0250279088e+00 2.9012012158e+00 5.0250279088e+00 
210100 5.1697395124e+00 -2.7540200043e-04 2.9012059719e+00 -5.0250361466e+00 2.9012059719e+00 5.0250361466e+00 
210200 5.1697395078e+00 -2.7483756368e-04 2.9012107183e+00 -5.0250443675e+00 2.9012107183e+00 5.0250443675e+00 
210300 5.1697395032e+00 -2.7427427016e-04 2.9012154549e+00 -5.0250525715e+00 2.9012154549e+00 5.0250525715e+00 
210400 5.1697394985e+00 -2.7371211763e-04 2.9012201817e+00 -5.0250607587e+00 2.9012201817e+00 5.0250607587e+00 
210500 5.1697394939e+00 -2.7315110384e-04 2.9012248989e+00 -5.0250689291e+00 2.9012248989e+00 5.0250689291e+00 
210600 5.1697394893e+00 -2.7259122654e-04 2.9012296064e+00 -5.0250770828e+00 2.9012296064e+00 5.0250770828e+00 
210700 5.1697394848e+00 -2.7203248348e-04 2.9012343043e+00 -5.0250852197e+00 2.9012343043e+00 5.0250852197e+00 
210800 5.1697394802e+00 -2.7147487243e-04 2.9012389925e+00 -5.0250933400e+00 2.9012389925e+00 5.0250933400e+00 
210900 5.1697394757e+00 -2.7091839117e-04 2.9012436711e+00 -5.0251014435e+00 2.9012436711e+00 5.0251014435e+00 
211000 5.1697394712e+00 -2.7036303745e-04 2.9012483401e+00 -5.0251095305e+00 2.9012483401e+00 5.0251095305e+00 
211100 5.1697394667e+00 -2.6980880906e-04 2.9012529996e+00 -5.0251176009e+00 2.9012529996e+00 5.0251176009e+00 
211200 5.1697394622e+00 -2.6925570378e-04 2.9012576494e+00 -5.0251256547e+00 2.9012576494e+00 5.0251256547e+00 
211300 5.1697394578e+00 -2.6870371939e-04 2.9012622898e+00 -5.0251336919e+00 2.9012622898e+00 5.0251336919e+00 
211400 5.1697394533e+00 -2.6815285367e-04 2.9012669206e+00 -5.0251417127e+00 2.9012669206e+00 5.0251417127e+00 
211500 5.1697394489e+00 -2.6760310442e-04 2.9012715419e+00 -5.0251497171e+00 2.9012715419e+00 5.0251497171e+00 
211600 5.1697394445e+00 -2.6705446944e-04 2.9012761537e+00 -5.0251577050e+00 2.9012761537e+00 5.0251577050e+00 
211700 5.1697394402e+00 -2.6650694652e-04 2.9012807561e+00 -5.0251656765e+00 2.9012807561e+00 5.0251656765e+00 
211800 5.1697394358e+00 -2.6596053347e-04 2.9012853490e+00 -5.0251736317e+00 2.9012853490e+00 5.0251736317e+00 
211900 5.1697394314e+00 -2.6541522810e-04 2.9012899325e+00 -5.0251815705e+00 2.9012899325e+00 5.0251815705e+00 
212000 5.1697394271e+00 -2.6487102822e-04 2.9012945066e+00 -5.0251894931e+00 2.9012945066e+00 5.0251894931e+00 
212100 5.1697394228e+00 -2.6432793164e-04 2.9012990713e+00 -5.0251973994e+00 2.9012990713e+00 5.0251973994e+00 
212200 5.1697394185e+00 -2.6378593619e-04 2.9013036266e+00 -5.0252052895e+00 2.9013036266e+00 5.0252052895e+00 
212300 5.1697394142e+00 -2.6324503969e-04 2.9013081726e+00 -5.0252131634e+00 2.9013081726e+00 5.0252131634e+00 
212400 5.1697394100e+00 -2.6270523997e-04 2.9013127093e+00 -5.0252210211e+00 2.9013127093e+00 5.0252210211e+00 
212500 5.1697394057e+00 -2.6216653486e-04 2.9013172366e+00 -5.0252288627e+00 2.9013172366e+00 5.0252288627e+00 
212600 5.1697394015e+00 -2.6162892220e-04 2.9013217547e+00 -5.0252366882e+00 2.9013217547e+00 5.0252366882e+00 
212700 5.1697393973e+00 -2.6109239983e-04 2.9013262635e+00 -5.0252444977e+00 2.9013262635e+00 5.0252444977e+00 
212800 5.1697393931e+00 -2.6055696559e-04 2.9013307630e+00 -5.0252522911e+00 2.9013307630e+00 5.0252522911e+00 
212900 5.1697393890e+00 -2.6002261733e-04 2.9013352533e+00 -5.0252600685e+00 2.9013352533e+00 5.0252600685e+00 
213000 5.1697393848e+00 -2.5948935290e-04 2.9013397344e+00 -5.0252678300e+00 2.9013397344e+00 5.0252678300e+00 
213100 5.1697393807e+00 -2.5895717016e-04 2.9013442063e+00 -5.0252755755e+00 2.9013442063e+00 5.0252755755e+00 
213200 5.1697393765e+00 -2.5842606698e-04 2.9013486690e+00 -5.0252833052e+00 2.9013486690e+00 5.0252833052e+00 
213300 5.1697393724e+00 -2.5789604121e-04 2.9013531226e+00 -5.0252910190e+00 2.9013531226e+00 5.0252910190e+00 
213400 5.1697393684e+00 -2.5736709072e-04 2.9013575670e+00 -5.0252987169e+00 2.9013575670e+00 5.0252987169e+00 
213500 5.1697393643e+00 -2.5683921338e-04 2.9013620023e+00 -5.0253063990e+00 2.9013620023e+00 5.0253063990e+00 
213600 5.1697393602e+00 -2.5631240708e-04 2.9013664284e+00 -5.0253140654e+00 2.9013664284e+00 5.0253140654e+00 
213700 5.1697393562e+00 -2.5578666969e-04 2.9013708455e+00 -5.0253217161e+00 2.9013708455e+00 5.0253217161e+00 
213800 5.1697393522e+00 -2.5526199909e-04 2.9013752536e+00 -5.0253293510e+00 2.9013752536e+00 5.0253293510e+00 
213900 5.1697393482e+00 -2.5473839318e-04 2.9013796526e+00 -5.0253369703e+00 2.9013796526e+00 5.0253369703e+00 
214000 5.1697393442e+00 -2.5421584984e-04 2.9013840425e+00 -5.0253445739e+00 2.9013840425e+00 5.0253445739e+00 
214100 5.1697393402e+00 -2.5369436698e-04 2.9013884234e+00 -5.0253521619e+00 2.9013884234e+00 5.0253521619e+00 
214200 5.1697393363e+00 -2.5317394249e-04 2.9013927954e+00 -5.0253597343e+00 2.9013927954e+00 5.0253597343e+00 
214300 5.1697393323e+00 -2.5265457427e-04 2.9013971584e+00 -5.0253672912e+00 2.9013971584e+00 5.0253672912e+00 
214400 5.1697393284e+00 -2.5213626024e-04 2.9014015124e+00 -5.0253748326e+00 2.9014015124e+00 5.0253748326e+00 
214500 5.1697393245e+00 -2.5161899830e-04 2.9014058575e+00 -5.0253823585e+00 2.9014058575e+00 5.0253823585e+00 
214600 5.1697393206e+00 -2.5110278637e-04 2.9014101936e+00 -5.0253898690e+00 2.9014101936e+00 5.0253898690e+00 
214700 5.1697393167e+00 -2.5058762237e-04 2.9014145209e+00 -5.0253973640e+00 2.9014145209e+00 5.0253973640e+00 
214800 5.1697393129e+00 -2.5007350422e-04 2.9014188392e+00 -5.0254048436e+00 2.9014188392e+00 5.0254048436e+00 
214900 5.1697393090e+00 -2.4956042986e-04 2.9014231488e+00 -5.0254123079e+00 2.9014231488e+00 5.0254123079e+00 
215000 5.1697393052e+00 -2.4904839720e-04 2.9014274494e+00 -5.0254197569e+00 2.9014274494e+00 5.0254197569e+00 
215100 5.1697393014e+00 -2.4853740419e-04 2.9014317412e+00 -5.0254271905e+00 2.9014317412e+00 5.0254271905e+00 
215200 5.1697392976e+00 -2.4802744877e-04 2.9014360243e+00 -5.0254346089e+00 2.9014360243e+00 5.0254346089e+00 
215300 5.1697392938e+00 -2.4751852887e-04 2.9014402985e+00 -5.0254420121e+00 2.9014402985e+00 5.0254420121e+00 
215400 5.1697392900e+00 -2.4701064245e-04 2.9014445639e+00 -5.0254494000e+00 2.9014445639e+00 5.0254494000e+00 
215500 5.1697392863e+00 -2.4650378744e-04 2.9014488206e+00 -5.0254567728e+00 2.9014488206e+00 5.0254567728e+00 
215600 5.1697392826e+00 -2.4599796182e-04 2.9014530685e+00 -5.0254641305e+00 2.9014530685e+00 5.0254641305e+00 
215700 5.1697392788e+00 -2.4549316354e-04 2.9014573078e+00 -5.0254714730e+00 2.9014573078e+00 5.0254714730e+00 
215800 5.1697392751e+00 -2.4498939055e-04 2.9014615383e+00 -5.0254788005e+00 2.9014615383e+00 5.0254788005e+00 
215900 5.1697392715e+00 -2.4448664082e-04 2.9014657601e+00 -5.0254861129e+00 2.9014657601e+00 5.0254861129e+00 
216000 5.1697392678e+00 -2.4398491233e-04 2.9014699733e+00 -5.0254934103e+00 2.9014699733e+00 5.0254934103e+00 
216100 5.1697392641e+00 -2.4348420304e-04 2.9014741778e+00 -5.0255006928e+00 2.9014741778e+00 5.0255006928e+00 
216200 5.1697392605e+00 -2.4298451093e-04 2.9014783736e+00 -5.0255079602e+00 2.9014783736e+00 5.0255079602e+00 
216300 5.1697392568e+00 -2.4248583399e-04 2.9014825609e+00 -5.0255152128e+00 2.9014825609e+00 5.0255152128e+00 
216400 5.1697392532e+00 -2.4198817020e-04 2.9014867396e+00 -5.0255224504e+00 2.9014867396e+00 5.0255224504e+00 
216500 5.1697392496e+00 -2.4149151754e-04 2.9014909096e+00 -5.0255296732e+00 2.9014909096e+00 5.0255296732e+00 
216600 5.1697392461e+00 -2.4099587401e-04 2.9014950711e+00 -5.0255368811e+00 2.9014950711e+00 5.0255368811e+00 
216700 5.1697392425e+00 -2.4050123761e-04 2.9014992241e+00 -5.0255440743e+00 2.9014992241e+00 5.0255440743e+00 
216800 5.1697392389e+00 -2.4000760633e-04 2.9015033685e+00 -5.0255512526e+00 2.9015033685e+00 5.0255512526e+00 
216900 5.1697392354e+00 -2.3951497818e-04 2.9015075044e+00 -5.0255584162e+00 2.9015075044e+00 5.0255584162e+00 
217000 5.1697392319e+00 -2.3902335116e-04 2.9015116319e+00 -5.0255655652e+00 2.9015116319e+00 5.0255655652e+00 
217100 5.1697392283e+00 -2.3853272328e-04 2.9015157508e+00 -5.0255726994e+00 2.9015157508e+00 5.0255726994e+00 
217200 5.1697392249e+00 -2.3804309257e-04 2.9015198613e+00 -5.0255798189e+00 2.9015198613e+00 5.0255798189e+00 
217300 5.1697392214e+00 -2.3755445704e-04 2.9015239633e+00 -5.0255869239e+00 2.9015239633e+00 5.0255869239e+00 
217400 5.1697392179e+00 -2.3706681470e-04 2.9015280570e+00 -5.0255940142e+00 2.9015280570e+00 5.0255940142e+00 
217500 5.1697392144e+00 -2.3658016360e-04 2.9015321422e+00 -5.0256010900e+00 2.9015321422e+00 5.0256010900e+00 
217600 5.1697392110e+00 -2.3609450174e-04 2.9015362190e+00 -5.0256081513e+00 2.9015362190e+00 5.0256081513e+00 
217700 5.1697392076e+00 -2.3560982718e-04 2.9015402874e+00 -5.0256151980e+00 2.9015402874e+00 5.0256151980e+00 
217800 5.1697392042e+00 -2.3512613795e-04 2.9015443475e+00 -5.0256222303e+00 2.9015443475e+00 5.0256222303e+00 
217900 5.1697392008e+00 -2.3464343208e-04 2.9015483993e+00 -5.0256292481e+00 2.9015483993e+00 5.0256292481e+00 
218000 5.1697391974e+00 -2.3416170762e-04 2.9015524427e+00 -5.0256362515e+00 2.9015524427e+00 5.0256362515e+00 
218100 5.1697391940e+00 -2.3368096262e-04 2.9015564778e+00 -5.0256432405e+00 2.9015564778e+00 5.0256432405e+00 
218200 5.1697391907e+00 -2.3320119513e-04 2.9015605046e+00 -5.0256502152e+00 2.9015605046e+00 5.0256502152e+00 
218300 5.1697391873e+00 -2.3272240321e-04 2.9015645232e+00 -5.0256571755e+00 2.9015645232e+00 5.0256571755e+00 
218400 5.1697391840e+00 -2.3224458491e-04 2.9015685334e+00 -5.0256641216e+00 2.9015685334e+00 5.0256641216e+00 
218500 5.1697391807e+00 -2.3176773830e-04 2.9015725355e+00 -5.0256710533e+00 2.9015725355e+00 5.0256710533e+00 
218600 5.1697391774e+00 -2.3129186145e-04 2.9015765293e+00 -5.0256779708e+00 2.9015765293e+00 5.0256779708e+00 
218700 5.1697391741e+00 -2.3081695242e-04 2.9015805150e+00 -5.0256848742e+00 2.9015805150e+00 5.0256848742e+00 
218800 5.1697391708e+00 -2.3034300928e-04 2.9015844924e+00 -5.0256917633e+00 2.9015844924e+00 5.0256917633e+00 
218900 5.1697391675e+00 -2.2987003012e-04 2.9015884617e+00 -5.0256986382e+00 2.9015884617e+00 5.0256986382e+00 
219000 5.1697391643e+00 -2.2939801302e-04 2.9015924228e+00 -5.0257054991e+00 2.9015924228e+00 5.0257054991e+00 
219100 5.1697391611e+00 -2.2892695606e-04 2.9015963757e+00 -5.0257123458e+00 2.9015963757e+00 5.0257123458e+00 
219200 5.1697391578e+00 -2.2845685733e-04 2.9016003206e+00 -5.0257191785e+00 2.9016003206e+00 5.0257191785e+00 
219300 5.1697391546e+00 -2.2798771492e-04 2.9016042573e+00 -5.0257259971e+00 2.9016042573e+00 5.0257259971e+00 
219400 5.1697391514e+00 -2.2751952692e-04 2.9016081860e+00 -5.0257328017e+00 2.9016081860e+00 5.0257328017e+00 
219500 5.1697391483e+00 -2.2705229144e-04 2.9016121065e+00 -5.0257395924e+00 2.9016121065e+00 5.0257395924e+00 
219600 5.1697391451e+00 -2.2658600658e-04 2.9016160191e+00 -5.0257463691e+00 2.9016160191e+00 5.0257463691e+00 
219700 5.1697391419e+00 -2.2612067044e-04 2.9016199235e+00 -5.0257531318e+00 2.9016199235e+00 5.0257531318e+00 
219800 5.1697391388e+00 -2.2565628113e-04 2.9016238200e+00 -5.0257598807e+00 2.9016238200e+00 5.0257598807e+00 
219900 5.1697391357e+00 -2.2519283677e-04 2.9016277084e+00 -5.0257666157e+00 2.9016277084e+00 5.0257666157e+00 
220000 5.1697391325e+00 -2.2473033548e-04 2.9016315889e+00 -5.0257733368e+00 2.9016315889e+00 5.0257733368e+00 
220100 5.1697391294e+00 -2.2426877537e-04 2.9016354614e+00 -5.0257800442e+00 2.9016354614e+00 5.0257800442e+00 
220200 5.1697391263e+00 -2.2380815456e-04 2.9016393259e+00 -5.0257867377e+00 2.9016393259e+00 5.0257867377e+00 
220300 5.1697391233e+00 -2.2334847120e-04 2.9016431825e+00 -5.0257934175e+00 2.9016431825e+00 5.0257934175e+00 
220400 5.1697391202e+00 -2.2288972340e-04 2.9016470312e+00 -5.0258000836e+00 2.9016470312e+00 5.0258000836e+00 
220500 5.1697391171e+00 -2.2243190930e-04 2.9016508719e+00 -5.0258067360e+00 2.9016508719e+00 5.0258067360e+00 
220600 5.1697391141e+00 -2.2197502704e-04 2.9016547047e+00 -5.0258133746e+00 2.9016547047e+00 5.0258133746e+00 
220700 5.1697391111e+00 -2.2151907476e-04 2.9016585297e+00 -5.0258199997e+00 2.9016585297e+00 5.0258199997e+00 
220800 5.1697391081e+00 -2.2106405061e-04 2.9016623468e+00 -5.0258266111e+00 2.9016623468e+00 5.0258266111e+00 
220900 5.1697391051e+00 -2.2060995274e-04 2.9016661561e+00 -5.0258332090e+00 2.9016661561e+00 5.0258332090e+00 
221000 5.1697391021e+00 -2.2015677929e-04 2.9016699575e+00 -5.0258397933e+00 2.9016699575e+00 5.0258397933e+00 
221100 5.1697390991e+00 -2.1970452842e-04 2.9016737512e+00 -5.0258463640e+00 2.9016737512e+00 5.0258463640e+00 
221200 5.1697390961e+00 -2.1925319830e-04 2.9016775370e+00 -5.0258529212e+00 2.9016775370e+00 5.0258529212e+00 
221300 5.1697390932e+00 -2.1880278709e-04 2.9016813150e+00 -5.0258594650e+00 2.9016813150e+00 5.0258594650e+00 
221400 5.1697390902e+00 -2.1835329295e-04 2.9016850853e+00 -5.0258659953e+00 2.9016850853e+00 5.0258659953e+00 
221500 5.1697390873e+00 -2.1790471405e-04 2.9016888478e+00 -5.0258725122e+00 2.9016888478e+00 5.0258725122e+00 
221600 5.1697390844e+00 -2.1745704856e-04 2.9016926026e+00 -5.0258790157e+00 2.9016926026e+00 5.0258790157e+00 
221700 5.1697390815e+00 -2.1701029467e-04 2.9016963497e+00 -5.0258855058e+00 2.9016963497e+00 5.0258855058e+00 
221800 5.1697390786e+00 -2.1656445055e-04 2.9017000891e+00 -5.0258919826e+00 2.9017000891e+00 5.0258919826e+00 
221900 5.1697390757e+00 -2.1611951439e-04 2.9017038208e+00 -5.0258984461e+00 2.9017038208e+00 5.0258984461e+00 
222000 5.1697390728e+00 -2.1567548437e-04 2.9017075448e+00 -5.0259048962e+00 2.9017075448e+00 5.0259048962e+00 
222100 5.1697390699e+00 -2.1523235868e-04 2.9017112611e+00 -5.0259113332e+00 2.9017112611e+00 5.0259113332e+00 
222200 5.1697390671e+00 -2.1479013552e-04 2.9017149698e+00 -5.0259177568e+00 2.9017149698e+00 5.0259177568e+00 
222300 5.1697390643e+00 -2.1434881309e-04 2.9017186709e+00 -5.0259241673e+00 2.9017186709e+00 5.0259241673e+00 
222400 5.1697390614e+00 -2.1390838958e-04 2.9017223644e+00 -5.0259305646e+00 2.9017223644e+00 5.0259305646e+00 
222500 5.1697390586e+00 -2.1346886320e-04 2.9017260503e+00 -5.0259369488e+00 2.9017260503e+00 5.0259369488e+00 
222600 5.1697390558e+00 -2.1303023217e-04 2.9017297286e+00 -5.0259433198e+00 2.9017297286e+00 5.0259433198e+00 
222700 5.1697390530e+00 -2.1259249468e-04 2.9017333993e+00 -5.0259496777e+00 2.9017333993e+00 5.0259496777e+00 
222800 5.1697390503e+00 -2.1215564895e-04 2.9017370625e+00 -5.0259560225e+00 2.9017370625e+00 5.0259560225e+00 
222900 5.1697390475e+00 -2.1171969321e-04 2.9017407182e+00 -5.0259623543e+00 2.9017407182e+00 5.0259623543e+00 
223000 5.1697390447e+00 -2.1128462567e-04 2.9017443664e+00 -5.0259686731e+00 2.9017443664e+00 5.0259686731e+00 
223100 5.1697390420e+00 -2.1085044456e-04 2.9017480070e+00 -5.0259749789e+00 2.9017480070e+00 5.0259749789e+00 
223200 5.1697390392e+00 -2.1041714810e-04 2.9017516402e+00 -5.0259812717e+00 2.9017516402e+00 5.0259812717e+00 
223300 5.1697390365e+00 -2.0998473454e-04 2.9017552659e+00 -5.0259875516e+00 2.9017552659e+00 5.0259875516e+00 
223400 5.1697390338e+00 -2.0955320209e-04 2.9017588841e+00 -5.0259938186e+00 2.9017588841e+00 5.0259938186e+00 
223500 5.1697390311e+00 -2.0912254901e-04 2.9017624949e+00 -5.0260000727e+00 2.9017624949e+00 5.0260000727e+00 
223600 5.1697390284e+00 -2.0869277353e-04 2.9017660983e+00 -5.0260063139e+00 2.9017660983e+00 5.0260063139e+00 
223700 5.1697390257e+00 -2.0826387390e-04 2.9017696942e+00 -5.0260125423e+00 2.9017696942e+00 5.0260125423e+00 
223800 5.1697390231e+00 -2.0783584836e-04 2.9017732828e+00 -5.0260187579e+00 2.9017732828e+00 5.0260187579e+00 
223900 5.1697390204e+00 -2.0740869518e-04 2.9017768640e+00 -5.0260249607e+00 2.9017768640e+00 5.0260249607e+00 
224000 5.1697390178e+00 -2.0698241259e-04 2.9017804378e+00 -5.0260311507e+00 2.9017804378e+00 5.0260311507e+00 
224100 5.1697390151e+00 -2.0655699887e-04 2.9017840043e+00 -5.0260373280e+00 2.9017840043e+00 5.0260373280e+00 
224200 5.1697390125e+00 -2.0613245227e-04 2.9017875634e+00 -5.0260434926e+00 2.9017875634e+00 5.0260434926e+00 
224300 5.1697390099e+00 -2.0570877106e-04 2.9017911152e+00 -5.0260496446e+00 2.9017911152e+00 5.0260496446e+00 
224400 5.1697390073e+00 -2.0528595350e-04 2.9017946598e+00 -5.0260557838e+00 2.9017946598e+00 5.0260557838e+00 
224500 5.1697390047e+00 -2.0486399788e-04 2.9017981970e+00 -5.0260619105e+00 2.9017981970e+00 5.0260619105e+00 
224600 5.1697390021e+00 -2.0444290246e-04 2.9018017269e+00 -5.0260680245e+00 2.9018017269e+00 5.0260680245e+00 
224700 5.1697389996e+00 -2.0402266552e-04 2.9018052496e+00 -5.0260741260e+00 2.9018052496e+00 5.0260741260e+00 
224800 5.1697389970e+00 -2.0360328534e-04 2.9018087651e+00 -5.0260802149e+00 2.9018087651e+00 5.0260802149e+00 
224900 5.1697389945e+00 -2.0318476021e-04 2.9018122733e+00 -5.0260862914e+00 2.9018122733e+00 5.0260862914e+00 
225000 5.1697389919e+00 -2.0276708842e-04 2.9018157743e+00 -5.0260923553e+00 2.9018157743e+00 5.0260923553e+00 
225100 5.1697389894e+00 -2.0235026826e-04 2.9018192681e+00 -5.0260984067e+00 2.9018192681e+00 5.0260984067e+00 
225200 5.1697389869e+00 -2.0193429801e-04 2.9018227547e+00 -5.0261044457e+00 2.9018227547e+00 5.0261044457e+00 
225300 5.1697389844e+00 -2.0151917599e-04 2.9018262341e+00 -5.0261104722e+00 2.9018262341e+00 5.0261104722e+00 
225400 5.1697389819e+00 -2.0110490049e-04 2.9018297064e+00 -5.0261164864e+00 2.9018297064e+00 5.0261164864e+00 
225500 5.1697389794e+00 -2.0069146982e-04 2.9018331716e+00 -5.0261224882e+00 2.9018331716e+00 5.0261224882e+00 
225600 5.1697389769e+00 -2.0027888229e-04 2.9018366296e+00 -5.0261284777e+00 2.9018366296e+00 5.0261284777e+00 
225700 5.1697389744e+00 -1.9986713619e-04 2.9018400805e+00 -5.0261344548e+00 2.9018400805e+00 5.0261344548e+00 
225800 5.1697389720e+00 -1.9945622986e-04 2.9018435243e+00 -5.0261404196e+00 2.9018435243e+00 5.0261404196e+00 
225900 5.1697389695e+00 -1.9904616161e-04 2.9018469610e+00 -5.0261463722e+00 2.9018469610e+00 5.0261463722e+00 
226000 5.1697389671e+00 -1.9863692975e-04 2.9018503906e+00 -5.0261523125e+00 2.9018503906e+00 5.0261523125e+00 
226100 5.1697389647e+00 -1.9822853262e-04 2.9018538132e+00 -5.0261582406e+00 2.9018538132e+00 5.0261582406e+00 
226200 5.1697389622e+00 -1.9782096853e-04 2.9018572288e+00 -5.0261641565e+00 2.9018572288e+00 5.0261641565e+00 
226300 5.1697389598e+00 -1.9741423582e-04 2.9018606373e+00 -5.0261700603e+00 2.9018606373e+00 5.0261700603e+00 
226400 5.1697389574e+00 -1.9700833283e-04 2.9018640388e+00 -5.0261759519e+00 2.9018640388e+00 5.0261759519e+00 
226500 5.1697389551e+00 -1.9660325789e-04 2.9018674333e+00 -5.0261818313e+00 2.9018674333e+00 5.0261818313e+00 
226600 5.1697389527e+00 -1.9619900934e-04 2.9018708209e+00 -5.0261876987e+00 2.9018708209e+00 5.0261876987e+00 
226700 5.1697389503e+00 -1.9579558552e-04 2.9018742014e+00 -5.0261935540e+00 2.9018742014e+00 5.0261935540e+00 
226800 5.1697389480e+00 -1.9539298478e-04 2.9018775750e+00 -5.0261993973e+00 2.9018775750e+00 5.0261993973e+00 
226900 5.1697389456e+00 -1.9499120547e-04 2.9018809417e+00 -5.0262052285e+00 2.9018809417e+00 5.0262052285e+00 
227000 5.1697389433e+00 -1.9459024594e-04 2.9018843014e+00 -5.0262110478e+00 2.9018843014e+00 5.0262110478e+00 
227100 5.1697389409e+00 -1.9419010455e-04 2.9018876543e+00 -5.0262168550e+00 2.9018876543e+00 5.0262168550e+00 
227200 5.1697389386e+00 -1.9379077965e-04 2.9018910002e+00 -5.0262226503e+00 2.9018910002e+00 5.0262226503e+00 
227300 5.1697389363e+00 -1.9339226962e-04 2.9018943392e+00 -5.0262284337e+00 2.9018943392e+00 5.0262284337e+00 
227400 5.1697389340e+00 -1.9299457281e-04 2.9018976714e+00 -5.0262342052e+00 2.9018976714e+00 5.0262342052e+00 
227500 5.1697389317e+00 -1.9259768760e-04 2.9019009967e+00 -5.0262399648e+00 2.9019009967e+00 5.0262399648e+00 
227600 5.1697389294e+00 -1.9220161234e-04 2.9019043152e+00 -5.0262457126e+00 2.9019043152e+00 5.0262457126e+00 
227700 5.1697389272e+00 -1.9180634543e-04 2.9019076268e+00 -5.0262514485e+00 2.9019076268e+00 5.0262514485e+00 
227800 5.1697389249e+00 -1.9141188524e-04 2.9019109317e+00 -5.0262571727e+00 2.9019109317e+00 5.0262571727e+00 
227900 5.1697389226e+00 -1.9101823015e-04 2.9019142297e+00 -5.0262628850e+00 2.9019142297e+00 5.0262628850e+00 
228000 5.1697389204e+00 -1.9062537853e-04 2.9019175209e+00 -5.0262685857e+00 2.9019175209e+00 5.0262685857e+00 
228100 5.1697389182e+00 -1.9023332879e-04 2.9019208054e+00 -5.0262742745e+00 2.9019208054e+00 5.0262742745e+00 
228200 5.1697389159e+00 -1.8984207931e-04 2.9019240831e+00 -5.0262799517e+00 2.9019240831e+00 5.0262799517e+00 
228300 5.1697389137e+00 -1.8945162849e-04 2.9019273541e+00 -5.0262856172e+00 2.9019273541e+00 5.0262856172e+00 
228400 5.1697389115e+00 -1.8906197471e-04 2.9019306183e+00 -5.0262912710e+00 2.9019306183e+00 5.0262912710e+00 
228500 5.1697389093e+00 -1.8867311639e-04 2.9019338759e+00 -5.0262969132e+00 2.9019338759e+00 5.0262969132e+00 
228600 5.1697389071e+00 -1.8828505192e-04 2.9019371267e+00 -5.0263025438e+00 2.9019371267e+00 5.0263025438e+00 
228700 5.1697389049e+00 -1.8789777971e-04 2.9019403708e+00 -5.0263081628e+00 2.9019403708e+00 5.0263081628e+00 
228800 5.1697389028e+00 -1.8751129817e-04 2.9019436083e+00 -5.0263137702e+00 2.9019436083e+00 5.0263137702e+00 
228900 5.1697389006e+00 -1.8712560571e-04 2.9019468390e+00 -5.0263193661e+00 2.9019468390e+00 5.0263193661e+00 
229000 5.1697388985e+00 -1.8674070074e-04 2.9019500632e+00 -5.0263249505e+00 2.9019500632e+00 5.0263249505e+00 
229100 5.1697388963e+00 -1.8635658169e-04 2.9019532807e+00 -5.0263305233e+00 2.9019532807e+00 5.0263305233e+00 
229200 5.1697388942e+00 -1.8597324698e-04 2.9019564916e+00 -5.0263360848e+00 2.9019564916e+00 5.0263360848e+00 
229300 5.1697388920e+00 -1.8559069502e-04 2.9019596958e+00 -5.0263416347e+00 2.9019596958e+00 5.0263416347e+00 
229400 5.1697388899e+00 -1.8520892425e-04 2.9019628935e+00 -5.0263471733e+00 2.9019628935e+00 5.0263471733e+00 
229500 5.1697388878e+00 -1.8482793310e-04 2.9019660846e+00 -5.0263527004e+00 2.9019660846e+00 5.0263527004e+00 
229600 5.1697388857e+00 -1.8444772000e-04 2.9019692692e+00 -5.0263582162e+00 2.9019692692e+00 5.0263582162e+00 
229700 5.1697388836e+00 -1.8406828339e-04 2.9019724471e+00 -5.0263637206e+00 2.9019724471e+00 5.0263637206e+00 
229800 5.1697388815e+00 -1.8368962170e-04 2.9019756186e+00 -5.0263692137e+00 2.9019756186e+00 5.0263692137e+00 
229900 5.1697388795e+00 -1.8331173338e-04 2.9019787835e+00 -5.0263746955e+00 2.9019787835e+00 5.0263746955e+00 
230000 5.1697388774e+00 -1.8293461688e-04 2.9019819419e+00 -5.0263801660e+00 2.9019819419e+00 5.0263801660e+00 
230100 5.1697388753e+00 -1.8255827064e-04 2.9019850938e+00 -5.0263856252e+00 2.9019850938e+00 5.0263856252e+00 
230200 5.1697388733e+00 -1.8218269312e-04 2.9019882392e+00 -5.0263910732e+00 2.9019882392e+00 5.0263910732e+00 
230300 5.1697388712e+00 -1.8180788276e-04 2.9019913781e+00 -5.0263965100e+00 2.9019913781e+00 5.0263965100e+00 
230400 5.1697388692e+00 -1.8143383804e-04 2.9019945106e+00 -5.0264019356e+00 2.9019945106e+00 5.0264019356e+00 
230500 5.1697388672e+00 -1.8106055740e-04 2.9019976366e+00 -5.0264073500e+00 2.9019976366e+00 5.0264073500e+00 
230600 5.1697388652e+00 -1.8068803931e-04 2.9020007562e+00 -5.0264127533e+00 2.9020007562e+00 5.0264127533e+00 
230700 5.1697388632e+00 -1.8031628223e-04 2.9020038693e+00 -5.0264181454e+00 2.9020038693e+00 5.0264181454e+00 
230800 5.1697388612e+00 -1.7994528465e-04 2.9020069761e+00 -5.0264235265e+00 2.9020069761e+00 5.0264235265e+00 
230900 5.1697388592e+00 -1.7957504502e-04 2.9020100764e+00 -5.0264288965e+00 2.9020100764e+00 5.0264288965e+00 
231000 5.1697388572e+00 -1.7920556183e-04 2.9020131704e+00 -5.0264342554e+00 2.9020131704e+00 5.0264342554e+00 
231100 5.1697388552e+00 -1.7883683355e-04 2.9020162580e+00 -5.0264396033e+00 2.9020162580e+00 5.0264396033e+00 
231200 5.1697388532e+00 -1.7846885867e-04 2.9020193393e+00 -5.0264449402e+00 2.9020193393e+00 5.0264449402e+00 
231300 5.1697388513e+00 -1.7810163566e-04 2.9020224142e+00 -5.0264502661e+00 2.9020224142e+00 5.0264502661e+00 
231400 5.1697388493e+00 -1.7773516302e-04 2.9020254828e+00 -5.0264555810e+00 2.9020254828e+00 5.0264555810e+00 
231500 5.1697388474e+00 -1.7736943924e-04 2.9020285450e+00 -5.0264608850e+00 2.9020285450e+00 5.0264608850e+00 
231600 5.1697388455e+00 -1.7700446280e-04 2.9020316010e+00 -5.0264661781e+00 2.9020316010e+00 5.0264661781e+00 
231700 5.1697388435e+00 -1.7664023221e-04 2.9020346507e+00 -5.0264714603e+00 2.9020346507e+00 5.0264714603e+00 
231800 5.1697388416e+00 -1.7627674597e-04 2.9020376940e+00 -5.0264767316e+00 2.9020376940e+00 5.0264767316e+00 
231900 5.1697388397e+00 -1.7591400257e-04 2.9020407312e+00 -5.0264819920e+00 2.9020407312e+00 5.0264819920e+00 
232000 5.1697388378e+00 -1.7555200051e-04 2.9020437620e+00 -5.0264872416e+00 2.9020437620e+00 5.0264872416e+00 
232100 5.1697388359e+00 -1.7519073832e-04 2.9020467867e+00 -5.0264924804e+00 2.9020467867e+00 5.0264924804e+00 
232200 5.1697388340e+00 -1.7483021450e-04 2.9020498051e+00 -5.0264977084e+00 2.9020498051e+00 5.0264977084e+00 
232300 5.1697388321e+00 -1.7447042755e-04 2.9020528172e+00 -5.0265029257e+00 2.9020528172e+00 5.0265029257e+00 
232400 5.1697388303e+00 -1.7411137601e-04 2.9020558232e+00 -5.0265081322e+00 2.9020558232e+00 5.0265081322e+00 
232500 5.1697388284e+00 -1.7375305838e-04 2.9020588230e+00 -5.0265133280e+00 2.9020588230e+00 5.0265133280e+00 
232600 5.1697388265e+00 -1.7339547320e-04 2.9020618166e+00 -5.0265185131e+00 2.9020618166e+00 5.0265185131e+00 
232700 5.1697388247e+00 -1.7303861897e-04 2.9020648041e+00 -5.0265236875e+00 2.9020648041e+00 5.0265236875e+00 
232800 5.1697388228e+00 -1.7268249424e-04 2.9020677854e+00 -5.0265288513e+00 2.9020677854e+00 5.0265288513e+00 
232900 5.1697388210e+00 -1.7232709753e-04 2.9020707606e+00 -5.0265340044e+00 2.9020707606e+00 5.0265340044e+00 
233000 5.1697388192e+00 -1.7197242738e-04 2.9020737296e+00 -5.0265391470e+00 2.9020737296e+00 5.0265391470e+00 
233100 5.1697388174e+00 -1.7161848232e-04 2.9020766925e+00 -5.0265442789e+00 2.9020766925e+00 5.0265442789e+00 
233200 5.1697388155e+00 -1.7126526089e-04 2.9020796493e+00 -5.0265494003e+00 2.9020796493e+00 5.0265494003e+00 
233300 5.1697388137e+00 -1.7091276164e-04 2.9020826001e+00 -5.0265545111e+00 2.9020826001e+00 5.0265545111e+00 
233400 5.1697388119e+00 -1.7056098310e-04 2.9020855447e+00 -5.0265596114e+00 2.9020855447e+00 5.0265596114e+00 
233500 5.1697388101e+00 -1.7020992383e-04 2.9020884833e+00 -5.0265647012e+00 2.9020884833e+00 5.0265647012e+00 
233600 5.1697388084e+00 -1.6985958238e-04 2.9020914159e+00 -5.0265697805e+00 2.9020914159e+00 5.0265697805e+00 
233700 5.1697388066e+00 -1.6950995730e-04 2.9020943424e+00 -5.0265748493e+00 2.9020943424e+00 5.0265748493e+00 
233800 5.1697388048e+00 -1.6916104715e-04 2.9020972628e+00 -5.0265799078e+00 2.9020972628e+00 5.0265799078e+00 
233900 5.1697388031e+00 -1.6881285048e-04 2.9021001773e+00 -5.0265849558e+00 2.9021001773e+00 5.0265849558e+00 
234000 5.1697388013e+00 -1.6846536587e-04 2.9021030858e+00 -5.0265899934e+00 2.9021030858e+00 5.0265899934e+00 
234100 5.1697387996e+00 -1.6811859186e-04 2.9021059882e+00 -5.0265950206e+00 2.9021059882e+00 5.0265950206e+00 
234200 5.1697387978e+00 -1.6777252703e-04 2.9021088847e+00 -5.0266000375e+00 2.9021088847e+00 5.0266000375e+00 
234300 5.1697387961e+00 -1.6742716995e-04 2.9021117753e+00 -5.0266050440e+00 2.9021117753e+00 5.0266050440e+00 
234400 5.1697387944e+00 -1.6708251920e-04 2.9021146598e+00 -5.0266100402e+00 2.9021146598e+00 5.0266100402e+00 
234500 5.1697387926e+00 -1.6673857335e-04 2.9021175385e+00 -5.0266150262e+00 2.9021175385e+00 5.0266150262e+00 
234600 5.1697387909e+00 -1.6639533097e-04 2.9021204112e+00 -5.0266200018e+00 2.9021204112e+00 5.0266200018e+00 
234700 5.1697387892e+00 -1.6605279065e-04 2.9021232780e+00 -5.0266249673e+00 2.9021232780e+00 5.0266249673e+00 
234800 5.1697387875e+00 -1.6571095098e-04 2.9021261389e+00 -5.0266299225e+00 2.9021261389e+00 5.0266299225e+00 
234900 5.1697387858e+00 -1.6536981053e-04 2.9021289938e+00 -5.0266348675e+00 2.9021289938e+00 5.0266348675e+00 
235000 5.1697387842e+00 -1.6502936791e-04 2.9021318430e+00 -5.0266398023e+00 2.9021318430e+00 5.0266398023e+00 
235100 5.1697387825e+00 -1.6468962169e-04 2.9021346862e+00 -5.0266447269e+00 2.9021346862e+00 5.0266447269e+00 
235200 5.1697387808e+00 -1.6435057049e-04 2.9021375236e+00 -5.0266496414e+00 2.9021375236e+00 5.0266496414e+00 
235300 5.1697387792e+00 -1.6401221289e-04 2.9021403551e+00 -5.0266545458e+00 2.9021403551e+00 5.0266545458e+00 
235400 5.1697387775e+00 -1.6367454749e-04 2.9021431808e+00 -5.0266594401e+00 2.9021431808e+00 5.0266594401e+00 
235500 5.1697387759e+00 -1.6333757291e-04 2.9021460007e+00 -5.0266643243e+00 2.9021460007e+00 5.0266643243e+00 
235600 5.1697387742e+00 -1.6300128774e-04 2.9021488148e+00 -5.0266691984e+00 2.9021488148e+00 5.0266691984e+00 
235700 5.1697387726e+00 -1.6266569059e-04 2.9021516231e+00 -5.0266740625e+00 2.9021516231e+00 5.0266740625e+00 
235800 5.1697387709e+00 -1.6233078008e-04 2.9021544256e+00 -5.0266789166e+00 2.9021544256e+00 5.0266789166e+00 
235900 5.1697387693e+00 -1.6199655482e-04 2.9021572223e+00 -5.0266837606e+00 2.9021572223e+00 5.0266837606e+00 
236000 5.1697387677e+00 -1.6166301342e-04 2.9021600133e+00 -5.0266885947e+00 2.9021600133e+00 5.0266885947e+00 
236100 5.1697387661e+00 -1.6133015452e-04 2.9021627985e+00 -5.0266934189e+00 2.9021627985e+00 5.0266934189e+00 
236200 5.1697387645e+00 -1.6099797672e-04 2.9021655780e+00 -5.0266982331e+00 2.9021655780e+00 5.0266982331e+00 
236300 5.1697387629e+00 -1.6066647865e-04 2.9021683518e+00 -5.0267030374e+00 2.9021683518e+00 5.0267030374e+00 
236400 5.1697387613e+00 -1.6033565895e-04 2.9021711198e+00 -5.0267078318e+00 2.9021711198e+00 5.0267078318e+00 
236500 5.1697387597e+00 -1.6000551624e-04 2.9021738821e+00 -5.0267126163e+00 2.9021738821e+00 5.0267126163e+00 
236600 5.1697387582e+00 -1.5967604915e-04 2.9021766388e+00 -5.0267173909e+00 2.9021766388e+00 5.0267173909e+00 
236700 5.1697387566e+00 -1.5934725633e-04 2.9021793898e+00 -5.0267221558e+00 2.9021793898e+00 5.0267221558e+00 
236800 5.1697387550e+00 -1.5901913640e-04 2.9021821351e+00 -5.0267269108e+00 2.9021821351e+00 5.0267269108e+00 
236900 5.1697387535e+00 -1.5869168802e-04 2.9021848747e+00 -5.0267316560e+00 2.9021848747e+00 5.0267316560e+00 
237000 5.1697387519e+00 -1.5836490982e-04 2.9021876087e+00 -5.0267363914e+00 2.9021876087e+00 5.0267363914e+00 
237100 5.1697387504e+00 -1.5803880045e-04 2.9021903371e+00 -5.0267411171e+00 2.9021903371e+00 5.0267411171e+00 
237200 5.1697387488e+00 -1.5771335857e-04 2.9021930598e+00 -5.0267458330e+00 2.9021930598e+00 5.0267458330e+00 
237300 5.1697387473e+00 -1.5738858281e-04 2.9021957770e+00 -5.0267505393e+00 2.9021957770e+00 5.0267505393e+00 
237400 5.1697387458e+00 -1.5706447184e-04 2.9021984885e+00 -5.0267552358e+00 2.9021984885e+00 5.0267552358e+00 
237500 5.1697387443e+00 -1.5674102431e-04 2.9022011945e+00 -5.0267599226e+00 2.9022011945e+00 5.0267599226e+00 
237600 5.1697387428e+00 -1.5641823889e-04 2.9022038949e+00 -5.0267645998e+00 2.9022038949e+00 5.0267645998e+00 
237700 5.1697387412e+00 -1.5609611423e-04 2.9022065897e+00 -5.0267692674e+00 2.9022065897e+00 5.0267692674e+00 
237800 5.1697387397e+00 -1.5577464900e-04 2.9022092790e+00 -5.0267739253e+00 2.9022092790e+00 5.0267739253e+00 
237900 5.1697387383e+00 -1.5545384187e-04 2.9022119627e+00 -5.0267785737e+00 2.9022119627e+00 5.0267785737e+00 
238000 5.1697387368e+00 -1.5513369151e-04 2.9022146409e+00 -5.0267832125e+00 2.9022146409e+00 5.0267832125e+00 
238100 5.1697387353e+00 -1.5481419658e-04 2.9022173136e+00 -5.0267878417e+00 2.9022173136e+00 5.0267878417e+00 
238200 5.1697387338e+00 -1.5449535578e-04 2.9022199807e+00 -5.0267924614e+00 2.9022199807e+00 5.0267924614e+00 
238300 5.1697387323e+00 -1.5417716776e-04 2.9022226424e+00 -5.0267970715e+00 2.9022226424e+00 5.0267970715e+00 
238400 5.1697387309e+00 -1.5385963123e-04 2.9022252986e+00 -5.0268016722e+00 2.9022252986e+00 5.0268016722e+00 
238500 5.1697387294e+00 -1.5354274485e-04 2.9022279493e+00 -5.0268062634e+00 2.9022279493e+00 5.0268062634e+00 
238600 5.1697387280e+00 -1.5322650731e-04 2.9022305946e+00 -5.0268108451e+00 2.9022305946e+00 5.0268108451e+00 
238700 5.1697387265e+00 -1.5291091730e-04 2.9022332344e+00 -5.0268154174e+00 2.9022332344e+00 5.0268154174e+00 
238800 5.1697387251e+00 -1.5259597352e-04 2.9022358687e+00 -5.0268199802e+00 2.9022358687e+00 5.0268199802e+00 
238900 5.1697387237e+00 -1.5228167465e-04 2.9022384977e+00 -5.0268245337e+00 2.9022384977e+00 5.0268245337e+00 
239000 5.1697387222e+00 -1.5196801940e-04 2.9022411212e+00 -5.0268290777e+00 2.9022411212e+00 5.0268290777e+00 
239100 5.1697387208e+00 -1.5165500645e-04 2.9022437393e+00 -5.0268336124e+00 2.9022437393e+00 5.0268336124e+00 
239200 5.1697387194e+00 -1.5134263452e-04 2.9022463520e+00 -5.0268381378e+00 2.9022463520e+00 5.0268381378e+00 
239300 5.1697387180e+00 -1.5103090230e-04 2.9022489594e+00 -5.0268426539e+00 2.9022489594e+00 5.0268426539e+00 
239400 5.1697387166e+00 -1.5071980850e-04 2.9022515613e+00 -5.0268471606e+00 2.9022515613e+00 5.0268471606e+00 
239500 5.1697387152e+00 -1.5040935184e-04 2.9022541579e+00 -5.0268516580e+00 2.9022541579e+00 5.0268516580e+00 
239600 5.1697387138e+00 -1.5009953101e-04 2.9022567492e+00 -5.0268561462e+00 2.9022567492e+00 5.0268561462e+00 
239700 5.1697387124e+00 -1.4979034474e-04 2.9022593351e+00 -5.0268606251e+00 2.9022593351e+00 5.0268606251e+00 
239800 5.1697387110e+00 -1.4948179174e-04 2.9022619157e+00 -5.0268650948e+00 2.9022619157e+00 5.0268650948e+00 
239900 5.1697387096e+00 -1.4917387074e-04 2.9022644909e+00 -5.0268695553e+00 2.9022644909e+00 5.0268695553e+00 
240000 5.1697387083e+00 -1.4886658044e-04 2.9022670609e+00 -5.0268740066e+00 2.9022670609e+00 5.0268740066e+00 
240100 5.1697387069e+00 -1.4855991959e-04 2.9022696256e+00 -5.0268784487e+00 2.9022696256e+00 5.0268784487e+00 
240200 5.1697387055e+00 -1.4825388689e-04 2.9022721849e+00 -5.0268828817e+00 2.9022721849e+00 5.0268828817e+00 
240300 5.1697387042e+00 -1.4794848108e-04 2.9022747390e+00 -5.0268873055e+00 2.9022747390e+00 5.0268873055e+00 
240400 5.1697387028e+00 -1.4764370090e-04 2.9022772879e+00 -5.0268917203e+00 2.9022772879e+00 5.0268917203e+00 
240500 5.1697387015e+00 -1.4733954508e-04 2.9022798315e+00 -5.0268961259e+00 2.9022798315e+00 5.0268961259e+00 
240600 5.1697387002e+00 -1.4703601234e-04 2.9022823698e+00 -5.0269005224e+00 2.9022823698e+00 5.0269005224e+00 
240700 5.1697386988e+00 -1.4673310145e-04 2.9022849029e+00 -5.0269049099e+00 2.9022849029e+00 5.0269049099e+00 
240800 5.1697386975e+00 -1.4643081112e-04 2.9022874308e+00 -5.0269092883e+00 2.9022874308e+00 5.0269092883e+00 
240900 5.1697386962e+00 -1.4612914011e-04 2.9022899535e+00 -5.0269136577e+00 2.9022899535e+00 5.0269136577e+00 
241000 5.1697386949e+00 -1.4582808717e-04 2.9022924710e+00 -5.0269180181e+00 2.9022924710e+00 5.0269180181e+00 
241100 5.1697386936e+00 -1.4552765103e-04 2.9022949833e+00 -5.0269223696e+00 2.9022949833e+00 5.0269223696e+00 
241200 5.1697386923e+00 -1.4522783047e-04 2.9022974904e+00 -5.0269267120e+00 2.9022974904e+00 5.0269267120e+00 
241300 5.1697386910e+00 -1.4492862422e-04 2.9022999923e+00 -5.0269310455e+00 2.9022999923e+00 5.0269310455e+00 
241400 5.1697386897e+00 -1.4463003104e-04 2.9023024891e+00 -5.0269353701e+00 2.9023024891e+00 5.0269353701e+00 
241500 5.1697386884e+00 -1.4433204970e-04 2.9023049807e+00 -5.0269396857e+00 2.9023049807e+00 5.0269396857e+00 
241600 5.1697386871e+00 -1.4403467895e-04 2.9023074673e+00 -5.0269439925e+00 2.9023074673e+00 5.0269439925e+00 
241700 5.1697386858e+00 -1.4373791755e-04 2.9023099486e+00 -5.0269482904e+00 2.9023099486e+00 5.0269482904e+00 
241800 5.1697386846e+00 -1.4344176428e-04 2.9023124249e+00 -5.0269525794e+00 2.9023124249e+00 5.0269525794e+00 
241900 5.1697386833e+00 -1.4314621790e-04 2.9023148961e+00 -5.0269568596e+00 2.9023148961e+00 5.0269568596e+00 
242000 5.1697386820e+00 -1.4285127719e-04 2.9023173621e+00 -5.0269611309e+00 2.9023173621e+00 5.0269611309e+00 
242100 5.1697386808e+00 -1.4255694091e-04 2.9023198231e+00 -5.0269653935e+00 2.9023198231e+00 5.0269653935e+00 
242200 5.1697386795e+00 -1.4226320784e-04 2.9023222790e+00 -5.0269696472e+00 2.9023222790e+00 5.0269696472e+00 
242300 5.1697386783e+00 -1.4197007676e-04 2.9023247299e+00 -5.0269738922e+00 2.9023247299e+00 5.0269738922e+00 
242400 5.1697386770e+00 -1.4167754645e-04 2.9023271757e+00 -5.0269781285e+00 2.9023271757e+00 5.0269781285e+00 
242500 5.1697386758e+00 -1.4138561569e-04 2.9023296165e+00 -5.0269823560e+00 2.9023296165e+00 5.0269823560e+00 
242600 5.1697386746e+00 -1.4109428328e-04 2.9023320522e+00 -5.0269865748e+00 2.9023320522e+00 5.0269865748e+00 
242700 5.1697386733e+00 -1.4080354798e-04 2.9023344829e+00 -5.0269907849e+00 2.9023344829e+00 5.0269907849e+00 
242800 5.1697386721e+00 -1.4051340861e-04 2.9023369086e+00 -5.0269949863e+00 2.9023369086e+00 5.0269949863e+00 
242900 5.1697386709e+00 -1.4022386394e-04 2.9023393293e+00 -5.0269991791e+00 2.9023393293e+00 5.0269991791e+00 
243000 5.1697386697e+00 -1.3993491278e-04 2.9023417450e+00 -5.0270033632e+00 2.9023417450e+00 5.0270033632e+00 
243100 5.1697386685e+00 -1.3964655391e-04 2.9023441557e+00 -5.0270075387e+00 2.9023441557e+00 5.0270075387e+00 
243200 5.1697386673e+00 -1.3935878615e-04 2.9023465615e+00 -5.0270117056e+00 2.9023465615e+00 5.0270117056e+00 
243300 5.1697386661e+00 -1.3907160829e-04 2.9023489623e+00 -5.0270158639e+00 2.9023489623e+00 5.0270158639e+00 
243400 5.1697386649e+00 -1.3878501913e-04 2.9023513581e+00 -5.0270200136e+00 2.9023513581e+00 5.0270200136e+00 
243500 5.1697386637e+00 -1.3849901749e-04 2.9023537490e+00 -5.0270241548e+00 2.9023537490e+00 5.0270241548e+00 
243600 5.1697386625e+00 -1.3821360217e-04 2.9023561350e+00 -5.0270282875e+00 2.9023561350e+00 5.0270282875e+00 
243700 5.1697386614e+00 -1.3792877199e-04 2.9023585160e+00 -5.0270324116e+00 2.9023585160e+00 5.0270324116e+00 
243800 5.1697386602e+00 -1.3764452575e-04 2.9023608922e+00 -5.0270365272e+00 2.9023608922e+00 5.0270365272e+00 
243900 5.1697386590e+00 -1.3736086228e-04 2.9023632634e+00 -5.0270406343e+00 2.9023632634e+00 5.0270406343e+00 
244000 5.1697386579e+00 -1.3707778039e-04 2.9023656298e+00 -5.0270447330e+00 2.9023656298e+00 5.0270447330e+00 
244100 5.1697386567e+00 -1.3679527890e-04 2.9023679913e+00 -5.0270488232e+00 2.9023679913e+00 5.0270488232e+00 
244200 5.1697386555e+00 -1.3651335664e-04 2.9023703479e+00 -5.0270529050e+00 2.9023703479e+00 5.0270529050e+00 
244300 5.1697386544e+00 -1.3623201243e-04 2.9023726997e+00 -5.0270569783e+00 2.9023726997e+00 5.0270569783e+00 
244400 5.1697386533e+00 -1.3595124510e-04 2.9023750466e+00 -5.0270610433e+00 2.9023750466e+00 5.0270610433e+00 
244500 5.1697386521e+00 -1.3567105348e-04 2.9023773886e+00 -5.0270650999e+00 2.9023773886e+00 5.0270650999e+00 
244600 5.1697386510e+00 -1.3539143640e-04 2.9023797259e+00 -5.0270691481e+00 2.9023797259e+00 5.0270691481e+00 
244700 5.1697386499e+00 -1.3511239270e-04 2.9023820583e+00 -5.0270731880e+00 2.9023820583e+00 5.0270731880e+00 
244800 5.1697386487e+00 -1.3483392121e-04 2.9023843859e+00 -5.0270772195e+00 2.9023843859e+00 5.0270772195e+00 
244900 5.1697386476e+00 -1.3455602078e-04 2.9023867087e+00 -5.0270812427e+00 2.9023867087e+00 5.0270812427e+00 
245000 5.1697386465e+00 -1.3427869024e-04 2.9023890268e+00 -5.0270852577e+00 2.9023890268e+00 5.0270852577e+00 
245100 5.1697386454e+00 -1.3400192844e-04 2.9023913400e+00 -5.0270892643e+00 2.9023913400e+00 5.0270892643e+00 
245200 5.1697386443e+00 -1.3372573422e-04 2.9023936485e+00 -5.0270932627e+00 2.9023936485e+00 5.0270932627e+00 
245300 5.1697386432e+00 -1.3345010644e-04 2.9023959522e+00 -5.0270972529e+00 2.9023959522e+00 5.0270972529e+00 
245400 5.1697386421e+00 -1.3317504394e-04 2.9023982512e+00 -5.0271012348e+00 2.9023982512e+00 5.0271012348e+00 
245500 5.1697386410e+00 -1.3290054558e-04 2.9024005454e+00 -5.0271052085e+00 2.9024005454e+00 5.0271052085e+00 
245600 5.1697386399e+00 -1.3262661021e-04 2.9024028349e+00 -5.0271091740e+00 2.9024028349e+00 5.0271091740e+00 
245700 5.1697386388e+00 -1.3235323670e-04 2.9024051196e+00 -5.0271131314e+00 2.9024051196e+00 5.0271131314e+00 
245800 5.1697386377e+00 -1.3208042389e-04 2.9024073997e+00 -5.0271170805e+00 2.9024073997e+00 5.0271170805e+00 
245900 5.1697386367e+00 -1.3180817065e-04 2.9024096751e+00 -5.0271210216e+00 2.9024096751e+00 5.0271210216e+00 
246000 5.1697386356e+00 -1.3153647585e-04 2.9024119457e+00 -5.0271249545e+00 2.9024119457e+00 5.0271249545e+00 
246100 5.1697386345e+00 -1.3126533836e-04 2.9024142117e+00 -5.0271288793e+00 2.9024142117e+00 5.0271288793e+00 
246200 5.1697386335e+00 -1.3099475704e-04 2.9024164730e+00 -5.0271327960e+00 2.9024164730e+00 5.0271327960e+00 
246300 5.1697386324e+00 -1.3072473076e-04 2.9024187297e+00 -5.0271367046e+00 2.9024187297e+00 5.0271367046e+00 
246400 5.1697386314e+00 -1.3045525839e-04 2.9024209817e+00 -5.0271406052e+00 2.9024209817e+00 5.0271406052e+00 
246500 5.1697386303e+00 -1.3018633882e-04 2.9024232290e+00 -5.0271444977e+00 2.9024232290e+00 5.0271444977e+00 
246600 5.1697386293e+00 -1.2991797092e-04 2.9024254717e+00 -5.0271483823e+00 2.9024254717e+00 5.0271483823e+00 
246700 5.1697386282e+00 -1.2965015357e-04 2.9024277098e+00 -5.0271522587e+00 2.9024277098e+00 5.0271522587e+00 
246800 5.1697386272e+00 -1.2938288565e-04 2.9024299433e+00 -5.0271561272e+00 2.9024299433e+00 5.0271561272e+00 
246900 5.1697386262e+00 -1.2911616604e-04 2.9024321722e+00 -5.0271599878e+00 2.9024321722e+00 5.0271599878e+00 
247000 5.1697386251e+00 -1.2884999364e-04 2.9024343965e+00 -5.0271638403e+00 2.9024343965e+00 5.0271638403e+00 
247100 5.1697386241e+00 -1.2858436734e-04 2.9024366162e+00 -5.0271676849e+00 2.9024366162e+00 5.0271676849e+00 
247200 5.1697386231e+00 -1.2831928601e-04 2.9024388313e+00 -5.0271715216e+00 2.9024388313e+00 5.0271715216e+00 
247300 5.1697386221e+00 -1.2805474857e-04 2.9024410418e+00 -5.0271753504e+00 2.9024410418e+00 5.0271753504e+00 
247400 5.1697386211e+00 -1.2779075389e-04 2.9024432478e+00 -5.0271791713e+00 2.9024432478e+00 5.0271791713e+00 
247500 5.1697386201e+00 -1.2752730089e-04 2.9024454492e+00 -5.0271829843e+00 2.9024454492e+00 5.0271829843e+00 
247600 5.1697386191e+00 -1.2726438845e-04 2.9024476461e+00 -5.0271867894e+00 2.9024476461e+00 5.0271867894e+00 
247700 5.1697386181e+00 -1.2700201549e-04 2.9024498385e+00 -5.0271905867e+00 2.9024498385e+00 5.0271905867e+00 
247800 5.1697386171e+00 -1.2674018090e-04 2.9024520263e+00 -5.0271943761e+00 2.9024520263e+00 5.0271943761e+00 
247900 5.1697386161e+00 -1.2647888359e-04 2.9024542097e+00 -5.0271981578e+00 2.9024542097e+00 5.0271981578e+00 
248000 5.1697386151e+00 -1.2621812248e-04 2.9024563885e+00 -5.0272019316e+00 2.9024563885e+00 5.0272019316e+00 
248100 5.1697386141e+00 -1.2595789647e-04 2.9024585628e+00 -5.0272056977e+00 2.9024585628e+00 5.0272056977e+00 
248200 5.1697386131e+00 -1.2569820447e-04 2.9024607327e+00 -5.0272094560e+00 2.9024607327e+00 5.0272094560e+00 
248300 5.1697386122e+00 -1.2543904540e-04 2.9024628980e+00 -5.0272132065e+00 2.9024628980e+00 5.0272132065e+00 
248400 5.1697386112e+00 -1.2518041818e-04 2.9024650589e+00 -5.0272169493e+00 2.9024650589e+00 5.0272169493e+00 
248500 5.1697386102e+00 -1.2492232173e-04 2.9024672154e+00 -5.0272206844e+00 2.9024672154e+00 5.0272206844e+00 
248600 5.1697386093e+00 -1.2466475496e-04 2.9024693674e+00 -5.0272244117e+00 2.9024693674e+00 5.0272244117e+00 
248700 5.1697386083e+00 -1.2440771681e-04 2.9024715150e+00 -5.0272281314e+00 2.9024715150e+00 5.0272281314e+00 
248800 5.1697386074e+00 -1.2415120619e-04 2.9024736581e+00 -5.0272318435e+00 2.9024736581e+00 5.0272318435e+00 
248900 5.1697386064e+00 -1.2389522204e-04 2.9024757968e+00 -5.0272355478e+00 2.9024757968e+00 5.0272355478e+00 
249000 5.1697386055e+00 -1.2363976328e-04 2.9024779311e+00 -5.0272392445e+00 2.9024779311e+00 5.0272392445e+00 
249100 5.1697386045e+00 -1.2338482885e-04 2.9024800610e+00 -5.0272429336e+00 2.9024800610e+00 5.0272429336e+00 
249200 5.1697386036e+00 -1.2313041768e-04 2.9024821865e+00 -5.0272466151e+00 2.9024821865e+00 5.0272466151e+00 
249300 5.1697386027e+00 -1.2287652871e-04 2.9024843076e+00 -5.0272502890e+00 2.9024843076e+00 5.0272502890e+00 
249400 5.1697386017e+00 -1.2262316088e-04 2.9024864244e+00 -5.0272539553e+00 2.9024864244e+00 5.0272539553e+00 
249500 5.1697386008e+00 -1.2237031313e-04 2.9024885368e+00 -5.0272576141e+00 2.9024885368e+00 5.0272576141e+00 
249600 5.1697385999e+00 -1.2211798440e-04 2.9024906448e+00 -5.0272612653e+00 2.9024906448e+00 5.0272612653e+00 
249700 5.1697385990e+00 -1.2186617363e-04 2.9024927485e+00 -5.0272649090e+00 2.9024927485e+00 5.0272649090e+00 
249800 5.1697385980e+00 -1.2161487977e-04 2.9024948478e+00 -5.0272685451e+00 2.9024948478e+00 5.0272685451e+00 
249900 5.1697385971e+00 -1.2136410178e-04 2.9024969428e+00 -5.0272721738e+00 2.9024969428e+00 5.0272721738e+00 
250000 5.1697385962e+00 -1.2111383859e-04 2.9024990335e+00 -5.0272757949e+00 2.9024990335e+00 5.0272757949e+00 
250100 5.1697385953e+00 -1.2086408918e-04 2.9025011199e+00 -5.0272794086e+00 2.9025011199e+00 5.0272794086e+00 
250200 5.1697385944e+00 -1.2061485248e-04 2.9025032019e+00 -5.0272830149e+00 2.9025032019e+00 5.0272830149e+00 
250300 5.1697385935e+00 -1.2036612746e-04 2.9025052797e+00 -5.0272866137e+00 2.9025052797e+00 5.0272866137e+00 
250400 5.1697385926e+00 -1.2011791308e-04 2.9025073532e+00 -5.0272902051e+00 2.9025073532e+00 5.0272902051e+00 
250500 5.1697385918e+00 -1.1987020830e-04 2.9025094224e+00 -5.0272937891e+00 2.9025094224e+00 5.0272937891e+00 
250600 5.1697385909e+00 -1.1962301209e-04 2.9025114874e+00 -5.0272973656e+00 2.9025114874e+00 5.0272973656e+00 
250700 5.1697385900e+00 -1.1937632340e-04 2.9025135480e+00 -5.0273009349e+00 2.9025135480e+00 5.0273009349e+00 
250800 5.1697385891e+00 -1.1913014121e-04 2.9025156045e+00 -5.0273044967e+00 2.9025156045e+00 5.0273044967e+00 
250900 5.1697385882e+00 -1.1888446448e-04 2.9025176567e+00 -5.0273080512e+00 2.9025176567e+00 5.0273080512e+00 
251000 5.1697385874e+00 -1.1863929220e-04 2.9025197046e+00 -5.0273115984e+00 2.9025197046e+00 5.0273115984e+00 
251100 5.1697385865e+00 -1.1839462332e-04 2.9025217483e+00 -5.0273151382e+00 2.9025217483e+00 5.0273151382e+00 
251200 5.1697385856e+00 -1.1815045684e-04 2.9025237879e+00 -5.0273186707e+00 2.9025237879e+00 5.0273186707e+00 
251300 5.1697385848e+00 -1.1790679172e-04 2.9025258232e+00 -5.0273221960e+00 2.9025258232e+00 5.0273221960e+00 
251400 5.1697385839e+00 -1.1766362694e-04 2.9025278543e+00 -5.0273257140e+00 2.9025278543e+00 5.0273257140e+00 
251500 5.1697385831e+00 -1.1742096150e-04 2.9025298812e+00 -5.0273292247e+00 2.9025298812e+00 5.0273292247e+00 
251600 5.1697385822e+00 -1.1717879436e-04 2.9025319039e+00 -5.0273327282e+00 2.9025319039e+00 5.0273327282e+00 
251700 5.1697385814e+00 -1.1693712453e-04 2.9025339225e+00 -5.0273362244e+00 2.9025339225e+00 5.0273362244e+00 
251800 5.1697385805e+00 -1.1669595098e-04 2.9025359369e+00 -5.0273397135e+00 2.9025359369e+00 5.0273397135e+00 
251900 5.1697385797e+00 -1.1645527271e-04 2.9025379471e+00 -5.0273431953e+00 2.9025379471e+00 5.0273431953e+00 
252000 5.1697385789e+00 -1.1621508871e-04 2.9025399532e+00 -5.0273466700e+00 2.9025399532e+00 5.0273466700e+00 
252100 5.1697385780e+00 -1.1597539796e-04 2.9025419552e+00 -5.0273501374e+00 2.9025419552e+00 5.0273501374e+00 
252200 5.1697385772e+00 -1.1573619949e-04 2.9025439530e+00 -5.0273535978e+00 2.9025439530e+00 5.0273535978e+00 
252300 5.1697385764e+00 -1.1549749226e-04 2.9025459467e+00 -5.0273570510e+00 2.9025459467e+00 5.0273570510e+00 
252400 5.1697385755e+00 -1.1525927530e-04 2.9025479363e+00 -5.0273604970e+00 2.9025479363e+00 5.0273604970e+00 
252500 5.1697385747e+00 -1.1502154759e-04 2.9025499218e+00 -5.0273639360e+00 2.9025499218e+00 5.0273639360e+00 
252600 5.1697385739e+00 -1.1478430815e-04 2.9025519032e+00 -5.0273673679e+00 2.9025519032e+00 5.0273673679e+00 
252700 5.1697385731e+00 -1.1454755597e-04 2.9025538805e+00 -5.0273707927e+00 2.9025538805e+00 5.0273707927e+00 
252800 5.1697385723e+00 -1.1431129008e-04 2.9025558537e+00 -5.0273742104e+00 2.9025558537e+00 5.0273742104e+00 
252900 5.1697385715e+00 -1.1407550947e-04 2.9025578228e+00 -5.0273776210e+00 2.9025578228e+00 5.0273776210e+00 
253000 5.1697385707e+00 -1.1384021317e-04 2.9025597879e+00 -5.0273810247e+00 2.9025597879e+00 5.0273810247e+00 
253100 5.1697385699e+00 -1.1360540018e-04 2.9025617489e+00 -5.0273844213e+00 2.9025617489e+00 5.0273844213e+00 
253200 5.1697385691e+00 -1.1337106952e-04 2.9025637059e+00 -5.0273878109e+00 2.9025637059e+00 5.0273878109e+00 
253300 5.1697385683e+00 -1.1313722020e-04 2.9025656589e+00 -5.0273911935e+00 2.9025656589e+00 5.0273911935e+00 
253400 5.1697385675e+00 -1.1290385126e-04 2.9025676078e+00 -5.0273945691e+00 2.9025676078e+00 5.0273945691e+00 
253500 5.1697385667e+00 -1.1267096171e-04 2.9025695527e+00 -5.0273979378e+00 2.9025695527e+00 5.0273979378e+00 
253600 5.1697385659e+00 -1.1243855057e-04 2.9025714936e+00 -5.0274012995e+00 2.9025714936e+00 5.0274012995e+00 
253700 5.1697385652e+00 -1.1220661687e-04 2.9025734305e+00 -5.0274046542e+00 2.9025734305e+00 5.0274046542e+00 
253800 5.1697385644e+00 -1.1197515964e-04 2.9025753633e+00 -5.0274080021e+00 2.9025753633e+00 5.0274080021e+00 
253900 5.1697385636e+00 -1.1174417790e-04 2.9025772922e+00 -5.0274113430e+00 2.9025772922e+00 5.0274113430e+00 
254000 5.1697385628e+00 -1.1151367070e-04 2.9025792171e+00 -5.0274146771e+00 2.9025792171e+00 5.0274146771e+00 
254100 5.1697385621e+00 -1.1128363706e-04 2.9025811381e+00 -5.0274180042e+00 2.9025811381e+00 5.0274180042e+00 
254200 5.1697385613e+00 -1.1105407601e-04 2.9025830551e+00 -5.0274213245e+00 2.9025830551e+00 5.0274213245e+00 
254300 5.1697385606e+00 -1.1082498661e-04 2.9025849681e+00 -5.0274246380e+00 2.9025849681e+00 5.0274246380e+00 
254400 5.1697385598e+00 -1.1059636787e-04 2.9025868772e+00 -5.0274279446e+00 2.9025868772e+00 5.0274279446e+00 
254500 5.1697385591e+00 -1.1036821885e-04 2.9025887823e+00 -5.0274312444e+00 2.9025887823e+00 5.0274312444e+00 
254600 5.1697385583e+00 -1.1014053860e-04 2.9025906835e+00 -5.0274345374e+00 2.9025906835e+00 5.0274345374e+00 
254700 5.1697385576e+00 -1.0991332614e-04 2.9025925808e+00 -5.0274378236e+00 2.9025925808e+00 5.0274378236e+00 
254800 5.1697385568e+00 -1.0968658054e-04 2.9025944741e+00 -5.0274411030e+00 2.9025944741e+00 5.0274411030e+00 
254900 5.1697385561e+00 -1.0946030084e-04 2.9025963636e+00 -5.0274443756e+00 2.9025963636e+00 5.0274443756e+00 
255000 5.1697385553e+00 -1.0923448609e-04 2.9025982492e+00 -5.0274476415e+00 2.9025982492e+00 5.0274476415e+00 
255100 5.1697385546e+00 -1.0900913534e-04 2.9026001308e+00 -5.0274509006e+00 2.9026001308e+00 5.0274509006e+00 
255200 5.1697385539e+00 -1.0878424766e-04 2.9026020086e+00 -5.0274541531e+00 2.9026020086e+00 5.0274541531e+00 
255300 5.1697385531e+00 -1.0855982208e-04 2.9026038825e+00 -5.0274573988e+00 2.9026038825e+00 5.0274573988e+00 
255400 5.1697385524e+00 -1.0833585769e-04 2.9026057526e+00 -5.0274606378e+00 2.9026057526e+00 5.0274606378e+00 
255500 5.1697385517e+00 -1.0811235352e-04 2.9026076187e+00 -5.0274638701e+00 2.9026076187e+00 5.0274638701e+00 
255600 5.1697385510e+00 -1.0788930865e-04 2.9026094811e+00 -5.0274670957e+00 2.9026094811e+00 5.0274670957e+00 
255700 5.1697385502e+00 -1.0766672214e-04 2.9026113396e+00 -5.0274703147e+00 2.9026113396e+00 5.0274703147e+00 
255800 5.1697385495e+00 -1.0744459306e-04 2.9026131942e+00 -5.0274735271e+00 2.9026131942e+00 5.0274735271e+00 
255900 5.1697385488e+00 -1.0722292047e-04 2.9026150450e+00 -5.0274767328e+00 2.9026150450e+00 5.0274767328e+00 
256000 5.1697385481e+00 -1.0700170344e-04 2.9026168920e+00 -5.0274799319e+00 2.9026168920e+00 5.0274799319e+00 
256100 5.1697385474e+00 -1.0678094105e-04 2.9026187352e+00 -5.0274831244e+00 2.9026187352e+00 5.0274831244e+00 
256200 5.1697385467e+00 -1.0656063236e-04 2.9026205746e+00 -5.0274863104e+00 2.9026205746e+00 5.0274863104e+00 
256300 5.1697385460e+00 -1.0634077646e-04 2.9026224102e+00 -5.0274894897e+00 2.9026224102e+00 5.0274894897e+00 
256400 5.1697385453e+00 -1.0612137242e-04 2.9026242420e+00 -5.0274926625e+00 2.9026242420e+00 5.0274926625e+00 
256500 5.1697385446e+00 -1.0590241932e-04 2.9026260701e+00 -5.0274958287e+00 2.9026260701e+00 5.0274958287e+00 
256600 5.1697385439e+00 -1.0568391623e-04 2.9026278943e+00 -5.0274989884e+00 2.9026278943e+00 5.0274989884e+00 
256700 5.1697385432e+00 -1.0546586225e-04 2.9026297148e+00 -5.0275021416e+00 2.9026297148e+00 5.0275021416e+00 
256800 5.1697385426e+00 -1.0524825646e-04 2.9026315315e+00 -5.0275052882e+00 2.9026315315e+00 5.0275052882e+00 
256900 5.1697385419e+00 -1.0503109794e-04 2.9026333445e+00 -5.0275084284e+00 2.9026333445e+00 5.0275084284e+00 
257000 5.1697385412e+00 -1.0481438578e-04 2.9026351537e+00 -5.0275115621e+00 2.9026351537e+00 5.0275115621e+00 
257100 5.1697385405e+00 -1.0459811908e-04 2.9026369592e+00 -5.0275146893e+00 2.9026369592e+00 5.0275146893e+00 
257200 5.1697385398e+00 -1.0438229691e-04 2.9026387610e+00 -5.0275178101e+00 2.9026387610e+00 5.0275178101e+00 
257300 5.1697385392e+00 -1.0416691838e-04 2.9026405591e+00 -5.0275209244e+00 2.9026405591e+00 5.0275209244e+00 
257400 5.1697385385e+00 -1.0395198259e-04 2.9026423534e+00 -5.0275240323e+00 2.9026423534e+00 5.0275240323e+00 
257500 5.1697385378e+00 -1.0373748862e-04 2.9026441441e+00 -5.0275271338e+00 2.9026441441e+00 5.0275271338e+00 
257600 5.1697385372e+00 -1.0352343558e-04 2.9026459310e+00 -5.0275302289e+00 2.9026459310e+00 5.0275302289e+00 
257700 5.1697385365e+00 -1.0330982257e-04 2.9026477143e+00 -5.0275333176e+00 2.9026477143e+00 5.0275333176e+00 
257800 5.1697385359e+00 -1.0309664869e-04 2.9026494939e+00 -5.0275363999e+00 2.9026494939e+00 5.0275363999e+00 
257900 5.1697385352e+00 -1.0288391305e-04 2.9026512698e+00 -5.0275394759e+00 2.9026512698e+00 5.0275394759e+00 
258000 5.1697385345e+00 -1.0267161475e-04 2.9026530420e+00 -5.0275425455e+00 2.9026530420e+00 5.0275425455e+00 
258100 5.1697385339e+00 -1.0245975289e-04 2.9026548106e+00 -5.0275456088e+00 2.9026548106e+00 5.0275456088e+00 
258200 5.1697385332e+00 -1.0224832660e-04 2.9026565755e+00 -5.0275486657e+00 2.9026565755e+00 5.0275486657e+00 
258300 5.1697385326e+00 -1.0203733498e-04 2.9026583368e+00 -5.0275517164e+00 2.9026583368e+00 5.0275517164e+00 
258400 5.1697385320e+00 -1.0182677715e-04 2.9026600945e+00 -5.0275547607e+00 2.9026600945e+00 5.0275547607e+00 
258500 5.1697385313e+00 -1.0161665221e-04 2.9026618485e+00 -5.0275577988e+00 2.9026618485e+00 5.0275577988e+00 
258600 5.1697385307e+00 -1.0140695929e-04 2.9026635989e+00 -5.0275608306e+00 2.9026635989e+00 5.0275608306e+00 
258700 5.1697385301e+00 -1.0119769751e-04 2.9026653457e+00 -5.0275638561e+00 2.9026653457e+00 5.0275638561e+00 
258800 5.1697385294e+00 -1.0098886598e-04 2.9026670889e+00 -5.0275668754e+00 2.9026670889e+00 5.0275668754e+00 
258900 5.1697385288e+00 -1.0078046383e-04 2.9026688285e+00 -5.0275698884e+00 2.9026688285e+00 5.0275698884e+00 
259000 5.1697385282e+00 -1.0057249018e-04 2.9026705645e+00 -5.0275728953e+00 2.9026705645e+00 5.0275728953e+00 
259100 5.1697385275e+00 -1.0036494416e-04 2.9026722969e+00 -5.0275758959e+00 2.9026722969e+00 5.0275758959e+00 
259200 5.1697385269e+00 -1.0015782489e-04 2.9026740257e+00 -5.0275788903e+00 2.9026740257e+00 5.0275788903e+00 
259300 5.1697385263e+00 -9.9951131510e-05 2.9026757510e+00 -5.0275818786e+00 2.9026757510e+00 5.0275818786e+00 
259400 5.1697385257e+00 -9.9744863143e-05 2.9026774727e+00 -5.0275848607e+00 2.9026774727e+00 5.0275848607e+00 
259500 5.1697385251e+00 -9.9539018925e-05 2.9026791908e+00 -5.0275878366e+00 2.9026791908e+00 5.0275878366e+00 
259600 5.1697385245e+00 -9.9333597988e-05 2.9026809054e+00 -5.0275908064e+00 2.9026809054e+00 5.0275908064e+00 
259700 5.1697385239e+00 -9.9128599471e-05 2.9026826165e+00 -5.0275937700e+00 2.9026826165e+00 5.0275937700e+00 
259800 5.1697385233e+00 -9.8924022509e-05 2.9026843240e+00 -5.0275967276e+00 2.9026843240e+00 5.0275967276e+00 
259900 5.1697385227e+00 -9.8719866244e-05 2.9026860281e+00 -5.0275996790e+00 2.9026860281e+00 5.0275996790e+00 
260000 5.1697385221e+00 -9.8516129815e-05 2.9026877285e+00 -5.0276026243e+00 2.9026877285e+00 5.0276026243e+00 
260100 5.1697385215e+00 -9.8312812367e-05 2.9026894255e+00 -5.0276055636e+00 2.9026894255e+00 5.0276055636e+00 
260200 5.1697385209e+00 -9.8109913046e-05 2.9026911190e+00 -5.0276084968e+00 2.9026911190e+00 5.0276084968e+00 
260300 5.1697385203e+00 -9.7907430996e-05 2.9026928090e+00 -5.0276114239e+00 2.9026928090e+00 5.0276114239e+00 
260400 5.1697385197e+00 -9.7705365367e-05 2.9026944955e+00 -5.0276143450e+00 2.9026944955e+00 5.0276143450e+00 
260500 5.1697385191e+00 -9.7503715306e-05 2.9026961785e+00 -5.0276172601e+00 2.9026961785e+00 5.0276172601e+00 
260600 5.1697385185e+00 -9.7302479968e-05 2.9026978580e+00 -5.0276201691e+00 2.9026978580e+00 5.0276201691e+00 
260700 5.1697385179e+00 -9.7101658506e-05 2.9026995341e+00 -5.0276230722e+00 2.9026995341e+00 5.0276230722e+00 
260800 5.1697385173e+00 -9.6901250073e-05 2.9027012067e+00 -5.0276259692e+00 2.9027012067e+00 5.0276259692e+00 
260900 5.1697385168e+00 -9.6701253828e-05 2.9027028759e+00 -5.0276288603e+00 2.9027028759e+00 5.0276288603e+00 
261000 5.1697385162e+00 -9.6501668928e-05 2.9027045416e+00 -5.0276317454e+00 2.9027045416e+00 5.0276317454e+00 
261100 5.1697385156e+00 -9.6302494533e-05 2.9027062038e+00 -5.0276346245e+00 2.9027062038e+00 5.0276346245e+00 
261200 5.1697385150e+00 -9.6103729807e-05 2.9027078627e+00 -5.0276374977e+00 2.9027078627e+00 5.0276374977e+00 
261300 5.1697385145e+00 -9.5905373911e-05 2.9027095181e+00 -5.0276403650e+00 2.9027095181e+00 5.0276403650e+00 
261400 5.1697385139e+00 -9.5707426010e-05 2.9027111701e+00 -5.0276432263e+00 2.9027111701e+00 5.0276432263e+00 
261500 5.1697385133e+00 -9.5509885273e-05 2.9027128187e+00 -5.0276460817e+00 2.9027128187e+00 5.0276460817e+00 
261600 5.1697385128e+00 -9.5312750868e-05 2.9027144639e+00 -5.0276489313e+00 2.9027144639e+00 5.0276489313e+00 
261700 5.1697385122e+00 -9.5116021964e-05 2.9027161057e+00 -5.0276517749e+00 2.9027161057e+00 5.0276517749e+00 
261800 5.1697385117e+00 -9.4919697734e-05 2.9027177441e+00 -5.0276546127e+00 2.9027177441e+00 5.0276546127e+00 
261900 5.1697385111e+00 -9.4723777351e-05 2.9027193791e+00 -5.0276574447e+00 2.9027193791e+00 5.0276574447e+00 
262000 5.1697385105e+00 -9.4528259991e-05 2.9027210107e+00 -5.0276602707e+00 2.9027210107e+00 5.0276602707e+00 
262100 5.1697385100e+00 -9.4333144830e-05 2.9027226390e+00 -5.0276630910e+00 2.9027226390e+00 5.0276630910e+00 
262200 5.1697385094e+00 -9.4138431047e-05 2.9027242639e+00 -5.0276659054e+00 2.9027242639e+00 5.0276659054e+00 
262300 5.1697385089e+00 -9.3944117823e-05 2.9027258854e+00 -5.0276687140e+00 2.9027258854e+00 5.0276687140e+00 
262400 5.1697385084e+00 -9.3750204339e-05 2.9027275036e+00 -5.0276715168e+00 2.9027275036e+00 5.0276715168e+00 
262500 5.1697385078e+00 -9.3556689776e-05 2.9027291185e+00 -5.0276743139e+00 2.9027291185e+00 5.0276743139e+00 
262600 5.1697385073e+00 -9.3363573323e-05 2.9027307300e+00 -5.0276771051e+00 2.9027307300e+00 5.0276771051e+00 
262700 5.1697385067e+00 -9.3170854166e-05 2.9027323382e+00 -5.0276798906e+00 2.9027323382e+00 5.0276798906e+00 
262800 5.1697385062e+00 -9.2978531493e-05 2.9027339431e+00 -5.0276826703e+00 2.9027339431e+00 5.0276826703e+00 
262900 5.1697385057e+00 -9.2786604492e-05 2.9027355447e+00 -5.0276854443e+00 2.9027355447e+00 5.0276854443e+00 
263000 5.1697385051e+00 -9.2595072358e-05 2.9027371430e+00 -5.0276882126e+00 2.9027371430e+00 5.0276882126e+00 
263100 5.1697385046e+00 -9.2403934281e-05 2.9027387379e+00 -5.0276909752e+00 2.9027387379e+00 5.0276909752e+00 
263200 5.1697385041e+00 -9.2213189459e-05 2.9027403296e+00 -5.0276937320e+00 2.9027403296e+00 5.0276937320e+00 
263300 5.1697385036e+00 -9.2022837086e-05 2.9027419180e+00 -5.0276964832e+00 2.9027419180e+00 5.0276964832e+00 
263400 5.1697385030e+00 -9.1832876362e-05 2.9027435031e+00 -5.0276992286e+00 2.9027435031e+00 5.0276992286e+00 
263500 5.1697385025e+00 -9.1643306487e-05 2.9027450849e+00 -5.0277019685e+00 2.9027450849e+00 5.0277019685e+00 
263600 5.1697385020e+00 -9.1454126659e-05 2.9027466635e+00 -5.0277047026e+00 2.9027466635e+00 5.0277047026e+00 
263700 5.1697385015e+00 -9.1265336085e-05 2.9027482388e+00 -5.0277074311e+00 2.9027482388e+00 5.0277074311e+00 
263800 5.1697385010e+00 -9.1076933967e-05 2.9027498108e+00 -5.0277101540e+00 2.9027498108e+00 5.0277101540e+00 
263900 5.1697385005e+00 -9.0888919512e-05 2.9027513796e+00 -5.0277128712e+00 2.9027513796e+00 5.0277128712e+00 
264000 5.1697385000e+00 -9.0701291929e-05 2.9027529452e+00 -5.0277155829e+00 2.9027529452e+00 5.0277155829e+00 
264100 5.1697384994e+00 -9.0514050426e-05 2.9027545075e+00 -5.0277182889e+00 2.9027545075e+00 5.0277182889e+00 
264200 5.1697384989e+00 -9.0327194213e-05 2.9027560666e+00 -5.0277209894e+00 2.9027560666e+00 5.0277209894e+00 
264300 5.1697384984e+00 -9.0140722504e-05 2.9027576225e+00 -5.0277236842e+00 2.9027576225e+00 5.0277236842e+00 
264400 5.1697384979e+00 -8.9954634515e-05 2.9027591752e+00 -5.0277263735e+00 2.9027591752e+00 5.0277263735e+00 
264500 5.1697384974e+00 -8.9768929457e-05 2.9027607246e+00 -5.0277290573e+00 2.9027607246e+00 5.0277290573e+00 
264600 5.1697384969e+00 -8.9583606552e-05 2.9027622709e+00 -5.0277317355e+00 2.9027622709e+00 5.0277317355e+00 
264700 5.1697384965e+00 -8.9398665017e-05 2.9027638140e+00 -5.0277344082e+00 2.9027638140e+00 5.0277344082e+00 
264800 5.1697384960e+00 -8.9214104072e-05 2.9027653539e+00 -5.0277370754e+00 2.9027653539e+00 5.0277370754e+00 
264900 5.1697384955e+00 -8.9029922938e-05 2.9027668906e+00 -5.0277397370e+00 2.9027668906e+00 5.0277397370e+00 
265000 5.1697384950e+00 -8.8846120841e-05 2.9027684241e+00 -5.0277423932e+00 2.9027684241e+00 5.0277423932e+00 
265100 5.1697384945e+00 -8.8662697004e-05 2.9027699545e+00 -5.0277450439e+00 2.9027699545e+00 5.0277450439e+00 
265200 5.1697384940e+00 -8.8479650656e-05 2.9027714817e+00 -5.0277476891e+00 2.9027714817e+00 5.0277476891e+00 
265300 5.1697384935e+00 -8.8296981024e-05 2.9027730058e+00 -5.0277503288e+00 2.9027730058e+00 5.0277503288e+00 
265400 5.1697384930e+00 -8.8114687338e-05 2.9027745267e+00 -5.0277529631e+00 2.9027745267e+00 5.0277529631e+00 
265500 5.1697384926e+00 -8.7932768828e-05 2.9027760444e+00 -5.0277555919e+00 2.9027760444e+00 5.0277555919e+00 
265600 5.1697384921e+00 -8.7751224729e-05 2.9027775591e+00 -5.0277582154e+00 2.9027775591e+00 5.0277582154e+00 
265700 5.1697384916e+00 -8.7570054274e-05 2.9027790706e+00 -5.0277608334e+00 2.9027790706e+00 5.0277608334e+00 
265800 5.1697384911e+00 -8.7389256700e-05 2.9027805790e+00 -5.0277634460e+00 2.9027805790e+00 5.0277634460e+00 
265900 5.1697384907e+00 -8.7208831244e-05 2.9027820842e+00 -5.0277660532e+00 2.9027820842e+00 5.0277660532e+00 
266000 5.1697384902e+00 -8.7028777146e-05 2.9027835864e+00 -5.0277686550e+00 2.9027835864e+00 5.0277686550e+00 
266100 5.1697384897e+00 -8.6849093646e-05 2.9027850854e+00 -5.0277712514e+00 2.9027850854e+00 5.0277712514e+00 
266200 5.1697384893e+00 -8.6669779986e-05 2.9027865814e+00 -5.0277738425e+00 2.9027865814e+00 5.0277738425e+00 
266300 5.1697384888e+00 -8.6490835409e-05 2.9027880743e+00 -5.0277764282e+00 2.9027880743e+00 5.0277764282e+00 
266400 5.1697384883e+00 -8.6312259162e-05 2.9027895641e+00 -5.0277790086e+00 2.9027895641e+00 5.0277790086e+00 
266500 5.1697384879e+00 -8.6134050491e-05 2.9027910508e+00 -5.0277815837e+00 2.9027910508e+00 5.0277815837e+00 
266600 5.1697384874e+00 -8.5956208644e-05 2.9027925344e+00 -5.0277841534e+00 2.9027925344e+00 5.0277841534e+00 
266700 5.1697384870e+00 -8.5778732870e-05 2.9027940150e+00 -5.0277867179e+00 2.9027940150e+00 5.0277867179e+00 
266800 5.1697384865e+00 -8.5601622422e-05 2.9027954925e+00 -5.0277892770e+00 2.9027954925e+00 5.0277892770e+00 
266900 5.1697384861e+00 -8.5424876552e-05 2.9027969670e+00 -5.0277918309e+00 2.9027969670e+00 5.0277918309e+00 
267000 5.1697384856e+00 -8.5248494513e-05 2.9027984384e+00 -5.0277943794e+00 2.9027984384e+00 5.0277943794e+00 
267100 5.1697384852e+00 -8.5072475562e-05 2.9027999068e+00 -5.0277969228e+00 2.9027999068e+00 5.0277969228e+00 
267200 5.1697384847e+00 -8.4896818958e-05 2.9028013721e+00 -5.0277994608e+00 2.9028013721e+00 5.0277994608e+00 
267300 5.1697384843e+00 -8.4721523956e-05 2.9028028345e+00 -5.0278019937e+00 2.9028028345e+00 5.0278019937e+00 
267400 5.1697384838e+00 -8.4546589820e-05 2.9028042938e+00 -5.0278045212e+00 2.9028042938e+00 5.0278045212e+00 
267500 5.1697384834e+00 -8.4372015810e-05 2.9028057501e+00 -5.0278070436e+00 2.9028057501e+00 5.0278070436e+00 
267600 5.1697384830e+00 -8.4197801189e-05 2.9028072033e+00 -5.0278095608e+00 2.9028072033e+00 5.0278095608e+00 
267700 5.1697384825e+00 -8.4023945223e-05 2.9028086536e+00 -5.0278120727e+00 2.9028086536e+00 5.0278120727e+00 
267800 5.1697384821e+00 -8.3850447176e-05 2.9028101009e+00 -5.0278145795e+00 2.9028101009e+00 5.0278145795e+00 
267900 5.1697384817e+00 -8.3677306319e-05 2.9028115452e+00 -5.0278170811e+00 2.9028115452e+00 5.0278170811e+00 
268000 5.1697384812e+00 -8.3504521919e-05 2.9028129865e+00 -5.0278195775e+00 2.9028129865e+00 5.0278195775e+00 
268100 5.1697384808e+00 -8.3332093245e-05 2.9028144249e+00 -5.0278220688e+00 2.9028144249e+00 5.0278220688e+00 
268200 5.1697384804e+00 -8.3160019574e-05 2.9028158602e+00 -5.0278245549e+00 2.9028158602e+00 5.0278245549e+00 
268300 5.1697384799e+00 -8.2988300175e-05 2.9028172926e+00 -5.0278270359e+00 2.9028172926e+00 5.0278270359e+00 
268400 5.1697384795e+00 -8.2816934326e-05 2.9028187221e+00 -5.0278295118e+00 2.9028187221e+00 5.0278295118e+00 
268500 5.1697384791e+00 -8.2645921303e-05 2.9028201486e+00 -5.0278319826e+00 2.9028201486e+00 5.0278319826e+00 
268600 5.1697384787e+00 -8.2475260383e-05 2.9028215721e+00 -5.0278344482e+00 2.9028215721e+00 5.0278344482e+00 
268700 5.1697384783e+00 -8.2304950847e-05 2.9028229927e+00 -5.0278369088e+00 2.9028229927e+00 5.0278369088e+00 
268800 5.1697384778e+00 -8.2134991974e-05 2.9028244104e+00 -5.0278393643e+00 2.9028244104e+00 5.0278393643e+00 
268900 5.1697384774e+00 -8.1965383047e-05 2.9028258251e+00 -5.0278418147e+00 2.9028258251e+00 5.0278418147e+00 
269000 5.1697384770e+00 -8.1796123351e-05 2.9028272370e+00 -5.0278442600e+00 2.9028272370e+00 5.0278442600e+00 
269100 5.1697384766e+00 -8.1627212170e-05 2.9028286459e+00 -5.0278467003e+00 2.9028286459e+00 5.0278467003e+00 
269200 5.1697384762e+00 -8.1458648791e-05 2.9028300519e+00 -5.0278491356e+00 2.9028300519e+00 5.0278491356e+00 
269300 5.1697384758e+00 -8.1290432505e-05 2.9028314549e+00 -5.0278515658e+00 2.9028314549e+00 5.0278515658e+00 
269400 5.1697384754e+00 -8.1122562597e-05 2.9028328551e+00 -5.0278539910e+00 2.9028328551e+00 5.0278539910e+00 
269500 5.1697384750e+00 -8.0955038360e-05 2.9028342524e+00 -5.0278564112e+00 2.9028342524e+00 5.0278564112e+00 
269600 5.1697384746e+00 -8.0787859086e-05 2.9028356469e+00 -5.0278588264e+00 2.9028356469e+00 5.0278588264e+00 
269700 5.1697384742e+00 -8.0621024071e-05 2.9028370384e+00 -5.0278612366e+00 2.9028370384e+00 5.0278612366e+00 
269800 5.1697384738e+00 -8.0454532608e-05 2.9028384270e+00 -5.0278636418e+00 2.9028384270e+00 5.0278636418e+00 
269900 5.1697384734e+00 -8.0288383994e-05 2.9028398128e+00 -5.0278660421e+00 2.9028398128e+00 5.0278660421e+00 
270000 5.1697384730e+00 -8.0122577529e-05 2.9028411958e+00 -5.0278684374e+00 2.9028411958e+00 5.0278684374e+00 
270100 5.1697384726e+00 -7.9957112509e-05 2.9028425758e+00 -5.0278708277e+00 2.9028425758e+00 5.0278708277e+00 
270200 5.1697384722e+00 -7.9791988239e-05 2.9028439531e+00 -5.0278732131e+00 2.9028439531e+00 5.0278732131e+00 
270300 5.1697384718e+00 -7.9627204020e-05 2.9028453274e+00 -5.0278755936e+00 2.9028453274e+00 5.0278755936e+00 
270400 5.1697384714e+00 -7.9462759153e-05 2.9028466990e+00 -5.0278779692e+00 2.9028466990e+00 5.0278779692e+00 
270500 5.1697384710e+00 -7.9298652949e-05 2.9028480677e+00 -5.0278803399e+00 2.9028480677e+00 5.0278803399e+00 
270600 5.1697384706e+00 -7.9134884710e-05 2.9028494336e+00 -5.0278827056e+00 2.9028494336e+00 5.0278827056e+00 
270700 5.1697384702e+00 -7.8971453745e-05 2.9028507966e+00 -5.0278850665e+00 2.9028507966e+00 5.0278850665e+00 
270800 5.1697384698e+00 -7.8808359364e-05 2.9028521569e+00 -5.0278874225e+00 2.9028521569e+00 5.0278874225e+00 
270900 5.1697384695e+00 -7.8645600878e-05 2.9028535143e+00 -5.0278897737e+00 2.9028535143e+00 5.0278897737e+00 
271000 5.1697384691e+00 -7.8483177600e-05 2.9028548689e+00 -5.0278921199e+00 2.9028548689e+00 5.0278921199e+00 
271100 5.1697384687e+00 -7.8321088842e-05 2.9028562207e+00 -5.0278944614e+00 2.9028562207e+00 5.0278944614e+00 
271200 5.1697384683e+00 -7.8159333918e-05 2.9028575698e+00 -5.0278967980e+00 2.9028575698e+00 5.0278967980e+00 
271300 5.1697384679e+00 -7.7997912148e-05 2.9028589160e+00 -5.0278991297e+00 2.9028589160e+00 5.0278991297e+00 
271400 5.1697384676e+00 -7.7836822846e-05 2.9028602595e+00 -5.0279014567e+00 2.9028602595e+00 5.0279014567e+00 
271500 5.1697384672e+00 -7.7676065333e-05 2.9028616002e+00 -5.0279037788e+00 2.9028616002e+00 5.0279037788e+00 
271600 5.1697384668e+00 -7.7515638929e-05 2.9028629381e+00 -5.0279060962e+00 2.9028629381e+00 5.0279060962e+00 
271700 5.1697384664e+00 -7.7355542958e-05 2.9028642733e+00 -5.0279084088e+00 2.9028642733e+00 5.0279084088e+00 
271800 5.1697384661e+00 -7.7195776741e-05 2.9028656057e+00 -5.0279107165e+00 2.9028656057e+00 5.0279107165e+00 
271900 5.1697384657e+00 -7.7036339602e-05 2.9028669353e+00 -5.0279130196e+00 2.9028669353e+00 5.0279130196e+00 
272000 5.1697384653e+00 -7.6877230869e-05 2.9028682622e+00 -5.0279153178e+00 2.9028682622e+00 5.0279153178e+00 
272100 5.1697384650e+00 -7.6718449869e-05 2.9028695864e+00 -5.0279176113e+00 2.9028695864e+00 5.0279176113e+00 
272200 5.1697384646e+00 -7.6559995932e-05 2.9028709078e+00 -5.0279199001e+00 2.9028709078e+00 5.0279199001e+00 
272300 5.1697384643e+00 -7.6401868384e-05 2.9028722265e+00 -5.0279221842e+00 2.9028722265e+00 5.0279221842e+00 
272400 5.1697384639e+00 -7.6244066560e-05 2.9028735425e+00 -5.0279244635e+00 2.9028735425e+00 5.0279244635e+00 
272500 5.1697384635e+00 -7.6086589792e-05 2.9028748557e+00 -5.0279267381e+00 2.9028748557e+00 5.0279267381e+00 
272600 5.1697384632e+00 -7.5929437414e-05 2.9028761662e+00 -5.0279290080e+00 2.9028761662e+00 5.0279290080e+00 
272700 5.1697384628e+00 -7.5772608761e-05 2.9028774741e+00 -5.0279312732e+00 2.9028774741e+00 5.0279312732e+00 
272800 5.1697384625e+00 -7.5616103170e-05 2.9028787792e+00 -5.0279335338e+00 2.9028787792e+00 5.0279335338e+00 
272900 5.1697384621e+00 -7.5459919981e-05 2.9028800816e+00 -5.0279357897e+00 2.9028800816e+00 5.0279357897e+00 
273000 5.1697384618e+00 -7.5304058529e-05 2.9028813814e+00 -5.0279380409e+00 2.9028813814e+00 5.0279380409e+00 
273100 5.1697384614e+00 -7.5148518160e-05 2.9028826784e+00 -5.0279402875e+00 2.9028826784e+00 5.0279402875e+00 
273200 5.1697384611e+00 -7.4993298213e-05 2.9028839728e+00 -5.0279425294e+00 2.9028839728e+00 5.0279425294e+00 
273300 5.1697384607e+00 -7.4838398034e-05 2.9028852645e+00 -5.0279447667e+00 2.9028852645e+00 5.0279447667e+00 
273400 5.1697384604e+00 -7.4683816965e-05 2.9028865536e+00 -5.0279469994e+00 2.9028865536e+00 5.0279469994e+00 
273500 5.1697384600e+00 -7.4529554355e-05 2.9028878399e+00 -5.0279492274e+00 2.9028878399e+00 5.0279492274e+00 
273600 5.1697384597e+00 -7.4375609549e-05 2.9028891236e+00 -5.0279514509e+00 2.9028891236e+00 5.0279514509e+00 
273700 5.1697384594e+00 -7.4221981899e-05 2.9028904047e+00 -5.0279536697e+00 2.9028904047e+00 5.0279536697e+00 
273800 5.1697384590e+00 -7.4068670751e-05 2.9028916831e+00 -5.0279558840e+00 2.9028916831e+00 5.0279558840e+00 
273900 5.1697384587e+00 -7.3915675460e-05 2.9028929589e+00 -5.0279580937e+00 2.9028929589e+00 5.0279580937e+00 
274000 5.1697384583e+00 -7.3762995376e-05 2.9028942320e+00 -5.0279602989e+00 2.9028942320e+00 5.0279602989e+00 
274100 5.1697384580e+00 -7.3610629856e-05 2.9028955025e+00 -5.0279624995e+00 2.9028955025e+00 5.0279624995e+00 
274200 5.1697384577e+00 -7.3458578253e-05 2.9028967704e+00 -5.0279646955e+00 2.9028967704e+00 5.0279646955e+00 
274300 5.1697384573e+00 -7.3306839925e-05 2.9028980357e+00 -5.0279668870e+00 2.9028980357e+00 5.0279668870e+00 
274400 5.1697384570e+00 -7.3155414230e-05 2.9028992983e+00 -5.0279690740e+00 2.9028992983e+00 5.0279690740e+00 
274500 5.1697384567e+00 -7.3004300526e-05 2.9029005584e+00 -5.0279712564e+00 2.9029005584e+00 5.0279712564e+00 
274600 5.1697384563e+00 -7.2853498175e-05 2.9029018158e+00 -5.0279734344e+00 2.9029018158e+00 5.0279734344e+00 
274700 5.1697384560e+00 -7.2703006540e-05 2.9029030707e+00 -5.0279756078e+00 2.9029030707e+00 5.0279756078e+00 
274800 5.1697384557e+00 -7.2552824980e-05 2.9029043229e+00 -5.0279777768e+00 2.9029043229e+00 5.0279777768e+00 
274900 5.1697384554e+00 -7.2402952863e-05 2.9029055726e+00 -5.0279799412e+00 2.9029055726e+00 5.0279799412e+00 
275000 5.1697384550e+00 -7.2253389555e-05 2.9029068196e+00 -5.0279821012e+00 2.9029068196e+00 5.0279821012e+00 
275100 5.1697384547e+00 -7.2104134421e-05 2.9029080641e+00 -5.0279842568e+00 2.9029080641e+00 5.0279842568e+00 
275200 5.1697384544e+00 -7.1955186830e-05 2.9029093061e+00 -5.0279864079e+00 2.9029093061e+00 5.0279864079e+00 
275300 5.1697384541e+00 -7.1806546153e-05 2.9029105454e+00 -5.0279885545e+00 2.9029105454e+00 5.0279885545e+00 
275400 5.1697384538e+00 -7.1658211758e-05 2.9029117822e+00 -5.0279906967e+00 2.9029117822e+00 5.0279906967e+00 
275500 5.1697384535e+00 -7.1510183022e-05 2.9029130165e+00 -5.0279928345e+00 2.9029130165e+00 5.0279928345e+00 
275600 5.1697384531e+00 -7.1362459314e-05 2.9029142482e+00 -5.0279949679e+00 2.9029142482e+00 5.0279949679e+00 
275700 5.1697384528e+00 -7.1215040010e-05 2.9029154773e+00 -5.0279970968e+00 2.9029154773e+00 5.0279970968e+00 
275800 5.1697384525e+00 -7.1067924486e-05 2.9029167039e+00 -5.0279992214e+00 2.9029167039e+00 5.0279992214e+00 
275900 5.1697384522e+00 -7.0921112120e-05 2.9029179280e+00 -5.0280013415e+00 2.9029179280e+00 5.0280013415e+00 
276000 5.1697384519e+00 -7.0774602290e-05 2.9029191496e+00 -5.0280034573e+00 2.9029191496e+00 5.0280034573e+00 
276100 5.1697384516e+00 -7.0628394377e-05 2.9029203686e+00 -5.0280055687e+00 2.9029203686e+00 5.0280055687e+00 
276200 5.1697384513e+00 -7.1124397553e-05 2.9029203686e+00 -5.0280055687e+00 2.9029203686e+00 5.0280055687e+00 
276300 5.1697384510e+00 -7.0978554143e-05 2.9029215936e+00 -5.0280076906e+00 2.9029215936e+00 5.0280076906e+00 
276400 5.1697384507e+00 -7.0832461690e-05 2.9029228162e+00 -5.0280098081e+00 2.9029228162e+00 5.0280098081e+00 
276500 5.1697384504e+00 -7.0686205759e-05 2.9029240362e+00 -5.0280119212e+00 2.9029240362e+00 5.0280119212e+00 
276600 5.1697384502e+00 -7.1182291063e-05 2.9029240362e+00 -5.0280119212e+00 2.9029240362e+00 5.0280119212e+00 
276700 5.1697384499e+00 -7.1035667921e-05 2.9029252622e+00 -5.0280140448e+00 2.9029252622e+00 5.0280140448e+00 
276800 5.1697384496e+00 -7.0888506483e-05 2.9029264858e+00 -5.0280161640e+00 2.9029264858e+00 5.0280161640e+00 
276900 5.1697384493e+00 -7.0740931859e-05 2.9029277067e+00 -5.0280182788e+00 2.9029277067e+00 5.0280182788e+00 
277000 5.1697384490e+00 -7.0593046739e-05 2.9029289252e+00 -5.0280203892e+00 2.9029289252e+00 5.0280203892e+00 
277100 5.1697384487e+00 -7.1086522632e-05 2.9029289252e+00 -5.0280203892e+00 2.9029289252e+00 5.0280203892e+00 
277200 5.1697384484e+00 -7.0938017469e-05 2.9029301496e+00 -5.0280225099e+00 2.9029301496e+00 5.0280225099e+00 
277300 5.1697384481e+00 -7.0788864463e-05 2.9029313714e+00 -5.0280246262e+00 2.9029313714e+00 5.0280246262e+00 
277400 5.1697384479e+00 -7.0639197127e-05 2.9029325907e+00 -5.0280267380e+00 2.9029325907e+00 5.0280267380e+00 
277500 5.1697384476e+00 -7.1131131053e-05 2.9029325907e+00 -5.0280267380e+00 2.9029325907e+00 5.0280267380e+00 
277600 5.1697384473e+00 -7.0980507172e-05 2.9029338158e+00 -5.0280288600e+00 2.9029338158e+00 5.0280288600e+00 
277700 5.1697384470e+00 -7.0829094673e-05 2.9029350384e+00 -5.0280309776e+00 2.9029350384e+00 5.0280309776e+00 
277800 5.1697384467e+00 -7.0677041490e-05 2.9029362584e+00 -5.0280330906e+00 2.9029362584e+00 5.0280330906e+00 
277900 5.1697384465e+00 -7.1166818516e-05 2.9029362584e+00 -5.0280330906e+00 2.9029362584e+00 5.0280330906e+00 
278000 5.1697384462e+00 -7.1013590062e-05 2.9029374841e+00 -5.0280352137e+00 2.9029374841e+00 5.0280352137e+00 
278100 5.1697384459e+00 -7.0859477065e-05 2.9029387073e+00 -5.0280373322e+00 2.9029387073e+00 5.0280373322e+00 
278200 5.1697384457e+00 -7.0704634779e-05 2.9029399277e+00 -5.0280394462e+00 2.9029399277e+00 5.0280394462e+00 
278300 5.1697384454e+00 -7.1191790406e-05 2.9029399277e+00 -5.0280394462e+00 2.9029399277e+00 5.0280394462e+00 
278400 5.1697384452e+00 -7.1035613409e-05 2.9029411539e+00 -5.0280415700e+00 2.9029411539e+00 5.0280415700e+00 
278500 5.1697384449e+00 -7.0878479504e-05 2.9029423775e+00 -5.0280436892e+00 2.9029423775e+00 5.0280436892e+00 
278600 5.1697384446e+00 -7.0720548170e-05 2.9029435983e+00 -5.0280458037e+00 2.9029435983e+00 5.0280458037e+00 
278700 5.1697384443e+00 -7.0561951264e-05 2.9029448163e+00 -5.0280479135e+00 2.9029448163e+00 5.0280479135e+00 
278800 5.1697384441e+00 -7.1044099357e-05 2.9029448163e+00 -5.0280479135e+00 2.9029448163e+00 5.0280479135e+00 
278900 5.1697384438e+00 -7.0884243361e-05 2.9029460400e+00 -5.0280500329e+00 2.9029460400e+00 5.0280500329e+00 
279000 5.1697384435e+00 -7.0723449962e-05 2.9029472609e+00 -5.0280521476e+00 2.9029472609e+00 5.0280521476e+00 
279100 5.1697384433e+00 -7.0561869172e-05 2.9029484790e+00 -5.0280542574e+00 2.9029484790e+00 5.0280542574e+00 
279200 5.1697384431e+00 -7.1040925088e-05 2.9029484790e+00 -5.0280542574e+00 2.9029484790e+00 5.0280542574e+00 
279300 5.1697384428e+00 -7.0877884305e-05 2.9029497026e+00 -5.0280563768e+00 2.9029497026e+00 5.0280563768e+00 
279400 5.1697384425e+00 -7.0713822816e-05 2.9029509234e+00 -5.0280584913e+00 2.9029509234e+00 5.0280584913e+00 
279500 5.1697384422e+00 -7.0548899837e-05 2.9029521414e+00 -5.0280606008e+00 2.9029521414e+00 5.0280606008e+00 
279600 5.1697384420e+00 -7.1024428716e-05 2.9029521414e+00 -5.0280606008e+00 2.9029521414e+00 5.0280606008e+00 
279700 5.1697384418e+00 -7.0857920368e-05 2.9029533647e+00 -5.0280627197e+00 2.9029533647e+00 5.0280627197e+00 
279800 5.1697384415e+00 -7.0690338337e-05 2.9029545851e+00 -5.0280648335e+00 2.9029545851e+00 5.0280648335e+00 
279900 5.1697384413e+00 -7.1164313177e-05 2.9029545851e+00 -5.0280648335e+00 2.9029545851e+00 5.0280648335e+00 
280000 5.1697384410e+00 -7.0994811776e-05 2.9029558109e+00 -5.0280669566e+00 2.9029558109e+00 5.0280669566e+00 
280100 5.1697384408e+00 -7.0824104259e-05 2.9029570337e+00 -5.0280690745e+00 2.9029570337e+00 5.0280690745e+00 
280200 5.1697384405e+00 -7.0652373875e-05 2.9029582535e+00 -5.0280711874e+00 2.9029582535e+00 5.0280711874e+00 
280300 5.1697384403e+00 -7.1121893520e-05 2.9029582535e+00 -5.0280711874e+00 2.9029582535e+00 5.0280711874e+00 
280400 5.1697384400e+00 -7.0948312982e-05 2.9029594785e+00 -5.0280733091e+00 2.9029594785e+00 5.0280733091e+00 
280500 5.1697384398e+00 -7.0773549765e-05 2.9029607005e+00 -5.0280754257e+00 2.9029607005e+00 5.0280754257e+00 
280600 5.1697384395e+00 -7.0597781782e-05 2.9029619195e+00 -5.0280775370e+00 2.9029619195e+00 5.0280775370e+00 
280700 5.1697384393e+00 -7.1062780846e-05 2.9029619195e+00 -5.0280775370e+00 2.9029619195e+00 5.0280775370e+00 
280800 5.1697384391e+00 -7.0885188109e-05 2.9029631435e+00 -5.0280796570e+00 2.9029631435e+00 5.0280796570e+00 
280900 5.1697384388e+00 -7.0706422285e-05 2.9029643644e+00 -5.0280817717e+00 2.9029643644e+00 5.0280817717e+00 
281000 5.1697384386e+00 -7.1169269681e-05 2.9029643644e+00 -5.0280817717e+00 2.9029643644e+00 5.0280817717e+00 
281100 5.1697384384e+00 -7.0988420032e-05 2.9029655902e+00 -5.0280838948e+00 2.9029655902e+00 5.0280838948e+00 
281200 5.1697384381e+00 -7.0806297477e-05 2.9029668129e+00 -5.0280860126e+00 2.9029668129e+00 5.0280860126e+00 
281300 5.1697384378e+00 -7.0623094493e-05 2.9029680324e+00 -5.0280881249e+00 2.9029680324e+00 5.0280881249e+00 
281400 5.1697384377e+00 -7.1080824093e-05 2.9029680324e+00 -5.0280881249e+00 2.9029680324e+00 5.0280881249e+00 
281500 5.1697384374e+00 -7.0895681020e-05 2.9029692567e+00 -5.0280902454e+00 2.9029692567e+00 5.0280902454e+00 
281600 5.1697384372e+00 -7.0709322314e-05 2.9029704778e+00 -5.0280923604e+00 2.9029704778e+00 5.0280923604e+00 
281700 5.1697384370e+00 -7.1164567749e-05 2.9029704778e+00 -5.0280923604e+00 2.9029704778e+00 5.0280923604e+00 
281800 5.1697384367e+00 -7.0976064885e-05 2.9029717035e+00 -5.0280944834e+00 2.9029717035e+00 5.0280944834e+00 
281900 5.1697384365e+00 -7.0786269792e-05 2.9029729260e+00 -5.0280966008e+00 2.9029729260e+00 5.0280966008e+00 
282000 5.1697384362e+00 -7.0595381233e-05 2.9029741452e+00 -5.0280987125e+00 2.9029741452e+00 5.0280987125e+00 
282100 5.1697384360e+00 -7.1045164557e-05 2.9029741452e+00 -5.0280987125e+00 2.9029741452e+00 5.0280987125e+00 
282200 5.1697384358e+00 -7.0852326547e-05 2.9029753689e+00 -5.0281008320e+00 2.9029753689e+00 5.0281008320e+00 
282300 5.1697384356e+00 -7.0658276012e-05 2.9029765892e+00 -5.0281029457e+00 2.9029765892e+00 5.0281029457e+00 
282400 5.1697384354e+00 -7.1105371755e-05 2.9029765892e+00 -5.0281029457e+00 2.9029765892e+00 5.0281029457e+00 
282500 5.1697384351e+00 -7.0909196590e-05 2.9029778139e+00 -5.0281050669e+00 2.9029778139e+00 5.0281050669e+00 
282600 5.1697384349e+00 -7.0711745470e-05 2.9029790352e+00 -5.0281071823e+00 2.9029790352e+00 5.0281071823e+00 
282700 5.1697384346e+00 -7.0513220864e-05 2.9029802531e+00 -5.0281092918e+00 2.9029802531e+00 5.0281092918e+00 
282800 5.1697384345e+00 -7.0954643368e-05 2.9029802531e+00 -5.0281092918e+00 2.9029802531e+00 5.0281092918e+00 
282900 5.1697384342e+00 -7.0754219867e-05 2.9029814752e+00 -5.0281114085e+00 2.9029814752e+00 5.0281114085e+00 
283000 5.1697384340e+00 -7.0552614612e-05 2.9029826939e+00 -5.0281135193e+00 2.9029826939e+00 5.0281135193e+00 
283100 5.1697384338e+00 -7.0991227508e-05 2.9029826939e+00 -5.0281135193e+00 2.9029826939e+00 5.0281135193e+00 
283200 5.1697384336e+00 -7.0787568271e-05 2.9029839166e+00 -5.0281156371e+00 2.9029839166e+00 5.0281156371e+00 
283300 5.1697384333e+00 -7.0582673351e-05 2.9029851358e+00 -5.0281177489e+00 2.9029851358e+00 5.0281177489e+00 
283400 5.1697384332e+00 -7.1018227643e-05 2.9029851358e+00 -5.0281177489e+00 2.9029851358e+00 5.0281177489e+00 
283500 5.1697384329e+00 -7.0811205823e-05 2.9029863590e+00 -5.0281198675e+00 2.9029863590e+00 5.0281198675e+00 
283600 5.1697384327e+00 -7.0602925546e-05 2.9029875787e+00 -5.0281219800e+00 2.9029875787e+00 5.0281219800e+00 
283700 5.1697384325e+00 -7.1035262493e-05 2.9029875787e+00 -5.0281219800e+00 2.9029875787e+00 5.0281219800e+00 
283800 5.1697384323e+00 -7.0824830447e-05 2.9029888021e+00 -5.0281240991e+00 2.9029888021e+00 5.0281240991e+00 
283900 5.1697384321e+00 -7.0613135736e-05 2.9029900220e+00 -5.0281262120e+00 2.9029900220e+00 5.0281262120e+00 
284000 5.1697384319e+00 -7.1042150690e-05 2.9029900220e+00 -5.0281262120e+00 2.9029900220e+00 5.0281262120e+00 
284100 5.1697384317e+00 -7.0828308419e-05 2.9029912456e+00 -5.0281283313e+00 2.9029912456e+00 5.0281283313e+00 
284200 5.1697384315e+00 -7.0613210713e-05 2.9029924655e+00 -5.0281304443e+00 2.9029924655e+00 5.0281304443e+00 
284300 5.1697384313e+00 -7.1038832782e-05 2.9029924655e+00 -5.0281304443e+00 2.9029924655e+00 5.0281304443e+00 
284400 5.1697384311e+00 -7.0821609959e-05 2.9029936891e+00 -5.0281325635e+00 2.9029936891e+00 5.0281325635e+00 
284500 5.1697384308e+00 -7.0603146270e-05 2.9029949089e+00 -5.0281346763e+00 2.9029949089e+00 5.0281346763e+00 
284600 5.1697384307e+00 -7.1025326668e-05 2.9029949089e+00 -5.0281346763e+00 2.9029949089e+00 5.0281346763e+00 
284700 5.1697384305e+00 -7.0804772253e-05 2.9029961322e+00 -5.0281367951e+00 2.9029961322e+00 5.0281367951e+00 
284800 5.1697384302e+00 -7.0582996492e-05 2.9029973517e+00 -5.0281389074e+00 2.9029973517e+00 5.0281389074e+00 
284900 5.1697384301e+00 -7.1001701825e-05 2.9029973517e+00 -5.0281389074e+00 2.9029973517e+00 5.0281389074e+00 
285000 5.1697384299e+00 -7.0777877999e-05 2.9029985746e+00 -5.0281410255e+00 2.9029985746e+00 5.0281410255e+00 
285100 5.1697384296e+00 -7.0552855880e-05 2.9029997936e+00 -5.0281431370e+00 2.9029997936e+00 5.0281431370e+00 
285200 5.1697384295e+00 -7.0968064239e-05 2.9029997936e+00 -5.0281431370e+00 2.9029997936e+00 5.0281431370e+00 
285300 5.1697384293e+00 -7.0741042806e-05 2.9030010160e+00 -5.0281452541e+00 2.9030010160e+00 5.0281452541e+00 
285400 5.1697384290e+00 -7.0512848821e-05 2.9030022344e+00 -5.0281473644e+00 2.9030022344e+00 5.0281473644e+00 
285500 5.1697384289e+00 -7.0924547471e-05 2.9030022344e+00 -5.0281473644e+00 2.9030022344e+00 5.0281473644e+00 
285600 5.1697384287e+00 -7.0694407652e-05 2.9030034560e+00 -5.0281494803e+00 2.9030034560e+00 5.0281494803e+00 
285700 5.1697384285e+00 -7.1105614059e-05 2.9030034560e+00 -5.0281494803e+00 2.9030034560e+00 5.0281494803e+00 
285800 5.1697384283e+00 -7.0873169974e-05 2.9030046806e+00 -5.0281516015e+00 2.9030046806e+00 5.0281516015e+00 
285900 5.1697384281e+00 -7.0639446953e-05 2.9030059013e+00 -5.0281537158e+00 2.9030059013e+00 5.0281537158e+00 
286000 5.1697384279e+00 -7.1046684112e-05 2.9030059013e+00 -5.0281537158e+00 2.9030059013e+00 5.0281537158e+00 
286100 5.1697384277e+00 -7.0810870289e-05 2.9030071250e+00 -5.0281558352e+00 2.9030071250e+00 5.0281558352e+00 
286200 5.1697384275e+00 -7.0573865169e-05 2.9030083446e+00 -5.0281579477e+00 2.9030083446e+00 5.0281579477e+00 
286300 5.1697384274e+00 -7.0977301390e-05 2.9030083446e+00 -5.0281579477e+00 2.9030083446e+00 5.0281579477e+00 
286400 5.1697384271e+00 -7.0738353409e-05 2.9030095671e+00 -5.0281600651e+00 2.9030095671e+00 5.0281600651e+00 
286500 5.1697384269e+00 -7.0498278087e-05 2.9030107855e+00 -5.0281621753e+00 2.9030107855e+00 5.0281621753e+00 
286600 5.1697384268e+00 -7.0898015074e-05 2.9030107855e+00 -5.0281621753e+00 2.9030107855e+00 5.0281621753e+00 
286700 5.1697384266e+00 -7.0656109926e-05 2.9030120066e+00 -5.0281642904e+00 2.9030120066e+00 5.0281642904e+00 
286800 5.1697384264e+00 -7.1055269354e-05 2.9030120066e+00 -5.0281642904e+00 2.9030120066e+00 5.0281642904e+00 
286900 5.1697384262e+00 -7.0811202607e-05 2.9030132304e+00 -5.0281664101e+00 2.9030132304e+00 5.0281664101e+00 
287000 5.1697384260e+00 -7.0565936179e-05 2.9030144500e+00 -5.0281685225e+00 2.9030144500e+00 5.0281685225e+00 
287100 5.1697384259e+00 -7.0961042981e-05 2.9030144500e+00 -5.0281685225e+00 2.9030144500e+00 5.0281685225e+00 
287200 5.1697384257e+00 -7.0713856020e-05 2.9030156722e+00 -5.0281706394e+00 2.9030156722e+00 5.0281706394e+00 
287300 5.1697384255e+00 -7.0465568333e-05 2.9030168901e+00 -5.0281727490e+00 2.9030168901e+00 5.0281727490e+00 
287400 5.1697384253e+00 -7.0856828740e-05 2.9030168901e+00 -5.0281727490e+00 2.9030168901e+00 5.0281727490e+00 
287500 5.1697384251e+00 -7.0606787109e-05 2.9030181105e+00 -5.0281748627e+00 2.9030181105e+00 5.0281748627e+00 
287600 5.1697384250e+00 -7.0997407453e-05 2.9030181105e+00 -5.0281748627e+00 2.9030181105e+00 5.0281748627e+00 
287700 5.1697384248e+00 -7.0745303409e-05 2.9030193334e+00 -5.0281769807e+00 2.9030193334e+00 5.0281769807e+00 
287800 5.1697384246e+00 -7.0492056023e-05 2.9030205518e+00 -5.0281790912e+00 2.9030205518e+00 5.0281790912e+00 
287900 5.1697384244e+00 -7.0878568530e-05 2.9030205518e+00 -5.0281790912e+00 2.9030205518e+00 5.0281790912e+00 
288000 5.1697384242e+00 -7.0623522937e-05 2.9030217726e+00 -5.0281812056e+00 2.9030217726e+00 5.0281812056e+00 
288100 5.1697384241e+00 -7.1009284230e-05 2.9030217726e+00 -5.0281812056e+00 2.9030217726e+00 5.0281812056e+00 
288200 5.1697384239e+00 -7.0752171754e-05 2.9030229956e+00 -5.0281833240e+00 2.9030229956e+00 5.0281833240e+00 
288300 5.1697384237e+00 -7.0493924663e-05 2.9030242142e+00 -5.0281854346e+00 2.9030242142e+00 5.0281854346e+00 
288400 5.1697384236e+00 -7.0875468004e-05 2.9030242142e+00 -5.0281854346e+00 2.9030242142e+00 5.0281854346e+00 
288500 5.1697384234e+00 -7.0615456323e-05 2.9030254349e+00 -5.0281875490e+00 2.9030254349e+00 5.0281875490e+00 
288600 5.1697384232e+00 -7.0996200546e-05 2.9030254349e+00 -5.0281875490e+00 2.9030254349e+00 5.0281875490e+00 
288700 5.1697384231e+00 -7.0734171763e-05 2.9030266577e+00 -5.0281896669e+00 2.9030266577e+00 5.0281896669e+00 
288800 5.1697384229e+00 -7.0471037841e-05 2.9030278760e+00 -5.0281917771e+00 2.9030278760e+00 5.0281917771e+00 
288900 5.1697384227e+00 -7.0847517254e-05 2.9030278760e+00 -5.0281917771e+00 2.9030278760e+00 5.0281917771e+00 
289000 5.1697384225e+00 -7.0582684380e-05 2.9030290963e+00 -5.0281938906e+00 2.9030290963e+00 5.0281938906e+00 
289100 5.1697384224e+00 -7.0958344323e-05 2.9030290963e+00 -5.0281938906e+00 2.9030290963e+00 5.0281938906e+00 
289200 5.1697384222e+00 -7.0691567149e-05 2.9030303184e+00 -5.0281960074e+00 2.9030303184e+00 5.0281960074e+00 
289300 5.1697384221e+00 -7.1066181773e-05 2.9030303184e+00 -5.0281960074e+00 2.9030303184e+00 5.0281960074e+00 
289400 5.1697384219e+00 -7.0797296051e-05 2.9030315424e+00 -5.0281981274e+00 2.9030315424e+00 5.0281981274e+00 
289500 5.1697384217e+00 -7.0527283307e-05 2.9030327618e+00 -5.0282002394e+00 2.9030327618e+00 5.0282002394e+00 
289600 5.1697384216e+00 -7.0897384586e-05 2.9030327618e+00 -5.0282002394e+00 2.9030327618e+00 5.0282002394e+00 
289700 5.1697384214e+00 -7.0625664358e-05 2.9030339829e+00 -5.0282023544e+00 2.9030339829e+00 5.0282023544e+00 
289800 5.1697384213e+00 -7.0994835715e-05 2.9030339829e+00 -5.0282023544e+00 2.9030339829e+00 5.0282023544e+00 
289900 5.1697384211e+00 -7.0721196869e-05 2.9030352056e+00 -5.0282044723e+00 2.9030352056e+00 5.0282044723e+00 
290000 5.1697384209e+00 -7.0446513793e-05 2.9030364237e+00 -5.0282065821e+00 2.9030364237e+00 5.0282065821e+00 
290100 5.1697384208e+00 -7.0811286050e-05 2.9030364237e+00 -5.0282065821e+00 2.9030364237e+00 5.0282065821e+00 
290200 5.1697384206e+00 -7.0535043101e-05 2.9030376433e+00 -5.0282086945e+00 2.9030376433e+00 5.0282086945e+00 
290300 5.1697384205e+00 -7.0898934583e-05 2.9030376433e+00 -5.0282086945e+00 2.9030376433e+00 5.0282086945e+00 
290400 5.1697384203e+00 -7.0620904478e-05 2.9030388644e+00 -5.0282108095e+00 2.9030388644e+00 5.0282108095e+00 
290500 5.1697384202e+00 -7.0983705760e-05 2.9030388644e+00 -5.0282108095e+00 2.9030388644e+00 5.0282108095e+00 
290600 5.1697384200e+00 -7.0703737731e-05 2.9030400870e+00 -5.0282129271e+00 2.9030400870e+00 5.0282129271e+00 
290700 5.1697384199e+00 -7.1065298733e-05 2.9030400870e+00 -5.0282129271e+00 2.9030400870e+00 5.0282129271e+00 
290800 5.1697384197e+00 -7.0783293454e-05 2.9030413110e+00 -5.0282150471e+00 2.9030413110e+00 5.0282150471e+00 
290900 5.1697384195e+00 -7.0500214867e-05 2.9030425301e+00 -5.0282171587e+00 2.9030425301e+00 5.0282171587e+00 
291000 5.1697384194e+00 -7.0857064988e-05 2.9030425301e+00 -5.0282171587e+00 2.9030425301e+00 5.0282171587e+00 
291100 5.1697384192e+00 -7.0572412956e-05 2.9030437505e+00 -5.0282192724e+00 2.9030437505e+00 5.0282192724e+00 
291200 5.1697384191e+00 -7.0928244018e-05 2.9030437505e+00 -5.0282192724e+00 2.9030437505e+00 5.0282192724e+00 
291300 5.1697384189e+00 -7.0641834792e-05 2.9030449721e+00 -5.0282213883e+00 2.9030449721e+00 5.0282213883e+00 
291400 5.1697384188e+00 -7.0996472791e-05 2.9030449721e+00 -5.0282213883e+00 2.9030449721e+00 5.0282213883e+00 
291500 5.1697384186e+00 -7.0708186131e-05 2.9030461949e+00 -5.0282235063e+00 2.9030461949e+00 5.0282235063e+00 
291600 5.1697384185e+00 -7.1061506283e-05 2.9030461949e+00 -5.0282235063e+00 2.9030461949e+00 5.0282235063e+00 
291700 5.1697384183e+00 -7.0771264545e-05 2.9030474188e+00 -5.0282256262e+00 2.9030474188e+00 5.0282256262e+00 
291800 5.1697384181e+00 -7.0479996823e-05 2.9030486377e+00 -5.0282277374e+00 2.9030486377e+00 5.0282277374e+00 
291900 5.1697384180e+00 -7.0828523144e-05 2.9030486377e+00 -5.0282277374e+00 2.9030486377e+00 5.0282277374e+00 
292000 5.1697384179e+00 -7.0535785943e-05 2.9030498576e+00 -5.0282298503e+00 2.9030498576e+00 5.0282298503e+00 
292100 5.1697384177e+00 -7.0883253420e-05 2.9030498576e+00 -5.0282298503e+00 2.9030498576e+00 5.0282298503e+00 
292200 5.1697384176e+00 -7.0588873073e-05 2.9030510785e+00 -5.0282319649e+00 2.9030510785e+00 5.0282319649e+00 
292300 5.1697384175e+00 -7.0935117207e-05 2.9030510785e+00 -5.0282319649e+00 2.9030510785e+00 5.0282319649e+00 
292400 5.1697384173e+00 -7.0638981274e-05 2.9030523002e+00 -5.0282340810e+00 2.9030523002e+00 5.0282340810e+00 
292500 5.1697384172e+00 -7.0983885074e-05 2.9030523002e+00 -5.0282340810e+00 2.9030523002e+00 5.0282340810e+00 
292600 5.1697384170e+00 -7.0685922182e-05 2.9030535228e+00 -5.0282361985e+00 2.9030535228e+00 5.0282361985e+00 
292700 5.1697384169e+00 -7.1029400781e-05 2.9030535228e+00 -5.0282361985e+00 2.9030535228e+00 5.0282361985e+00 
292800 5.1697384167e+00 -7.0729567502e-05 2.9030547461e+00 -5.0282383175e+00 2.9030547461e+00 5.0282383175e+00 
292900 5.1697384166e+00 -7.0428760306e-05 2.9030559643e+00 -5.0282404274e+00 2.9030559643e+00 5.0282404274e+00 
293000 5.1697384164e+00 -7.0767336711e-05 2.9030559643e+00 -5.0282404274e+00 2.9030559643e+00 5.0282404274e+00 
293100 5.1697384163e+00 -7.0465178396e-05 2.9030571832e+00 -5.0282425385e+00 2.9030571832e+00 5.0282425385e+00 
293200 5.1697384162e+00 -7.0802646521e-05 2.9030571832e+00 -5.0282425385e+00 2.9030571832e+00 5.0282425385e+00 
293300 5.1697384160e+00 -7.0498978812e-05 2.9030584026e+00 -5.0282446507e+00 2.9030584026e+00 5.0282446507e+00 
293400 5.1697384159e+00 -7.0835188254e-05 2.9030584026e+00 -5.0282446507e+00 2.9030584026e+00 5.0282446507e+00 
293500 5.1697384157e+00 -7.0529910335e-05 2.9030596226e+00 -5.0282467638e+00 2.9030596226e+00 5.0282467638e+00 
293600 5.1697384156e+00 -7.0864755320e-05 2.9030596226e+00 -5.0282467638e+00 2.9030596226e+00 5.0282467638e+00 
293700 5.1697384155e+00 -7.0557804861e-05 2.9030608431e+00 -5.0282488778e+00 2.9030608431e+00 5.0282488778e+00 
293800 5.1697384154e+00 -7.0891209784e-05 2.9030608431e+00 -5.0282488778e+00 2.9030608431e+00 5.0282488778e+00 
293900 5.1697384152e+00 -7.0582550630e-05 2.9030620641e+00 -5.0282509926e+00 2.9030620641e+00 5.0282509926e+00 
294000 5.1697384151e+00 -7.0914460527e-05 2.9030620641e+00 -5.0282509926e+00 2.9030620641e+00 5.0282509926e+00 
294100 5.1697384149e+00 -7.0604074476e-05 2.9030632855e+00 -5.0282531081e+00 2.9030632855e+00 5.0282531081e+00 
294200 5.1697384148e+00 -7.0934448626e-05 2.9030632855e+00 -5.0282531081e+00 2.9030632855e+00 5.0282531081e+00 
294300 5.1697384147e+00 -7.0622329868e-05 2.9030645072e+00 -5.0282552241e+00 2.9030645072e+00 5.0282552241e+00 
294400 5.1697384146e+00 -7.0951137441e-05 2.9030645072e+00 -5.0282552241e+00 2.9030645072e+00 5.0282552241e+00 
294500 5.1697384144e+00 -7.0637288770e-05 2.9030657292e+00 -5.0282573407e+00 2.9030657292e+00 5.0282573407e+00 
294600 5.1697384143e+00 -7.0964505872e-05 2.9030657292e+00 -5.0282573407e+00 2.9030657292e+00 5.0282573407e+00 
294700 5.1697384141e+00 -7.0648936098e-05 2.9030669514e+00 -5.0282594577e+00 2.9030669514e+00 5.0282594577e+00 
294800 5.1697384140e+00 -7.0974543751e-05 2.9030669514e+00 -5.0282594577e+00 2.9030669514e+00 5.0282594577e+00 
294900 5.1697384139e+00 -7.0657265948e-05 2.9030681739e+00 -5.0282615750e+00 2.9030681739e+00 5.0282615750e+00 
295000 5.1697384138e+00 -7.0981248737e-05 2.9030681739e+00 -5.0282615750e+00 2.9030681739e+00 5.0282615750e+00 
295100 5.1697384136e+00 -7.0662279058e-05 2.9030693964e+00 -5.0282636924e+00 2.9030693964e+00 5.0282636924e+00 
295200 5.1697384135e+00 -7.0984624213e-05 2.9030693964e+00 -5.0282636924e+00 2.9030693964e+00 5.0282636924e+00 
295300 5.1697384134e+00 -7.0663981101e-05 2.9030706190e+00 -5.0282658100e+00 2.9030706190e+00 5.0282658100e+00 
295400 5.1697384133e+00 -7.0984677898e-05 2.9030706190e+00 -5.0282658100e+00 2.9030706190e+00 5.0282658100e+00 
295500 5.1697384131e+00 -7.0662381542e-05 2.9030718415e+00 -5.0282679276e+00 2.9030718415e+00 5.0282679276e+00 
295600 5.1697384130e+00 -7.0981420908e-05 2.9030718415e+00 -5.0282679276e+00 2.9030718415e+00 5.0282679276e+00 
295700 5.1697384129e+00 -7.0657492917e-05 2.9030730641e+00 -5.0282700450e+00 2.9030730641e+00 5.0282700450e+00 
295800 5.1697384128e+00 -7.0974867177e-05 2.9030730641e+00 -5.0282700450e+00 2.9030730641e+00 5.0282700450e+00 
295900 5.1697384126e+00 -7.0649330333e-05 2.9030742865e+00 -5.0282721623e+00 2.9030742865e+00 5.0282721623e+00 
296000 5.1697384125e+00 -7.0965033054e-05 2.9030742865e+00 -5.0282721623e+00 2.9030742865e+00 5.0282721623e+00 
296100 5.1697384124e+00 -7.0637911184e-05 2.9030755087e+00 -5.0282742793e+00 2.9030755087e+00 5.0282742793e+00 
296200 5.1697384123e+00 -7.0951937074e-05 2.9030755087e+00 -5.0282742793e+00 2.9030755087e+00 5.0282742793e+00 
296300 5.1697384121e+00 -7.0623254951e-05 2.9030767307e+00 -5.0282763959e+00 2.9030767307e+00 5.0282763959e+00 
296400 5.1697384120e+00 -7.0935599810e-05 2.9030767307e+00 -5.0282763959e+00 2.9030767307e+00 5.0282763959e+00 
296500 5.1697384119e+00 -7.0605383084e-05 2.9030779524e+00 -5.0282785120e+00 2.9030779524e+00 5.0282785120e+00 
296600 5.1697384118e+00 -7.0916043766e-05 2.9030779524e+00 -5.0282785120e+00 2.9030779524e+00 5.0282785120e+00 
296700 5.1697384117e+00 -7.0584318931e-05 2.9030791738e+00 -5.0282806275e+00 2.9030791738e+00 5.0282806275e+00 
296800 5.1697384116e+00 -7.0893293323e-05 2.9030791738e+00 -5.0282806275e+00 2.9030791738e+00 5.0282806275e+00 
296900 5.1697384114e+00 -7.0560087678e-05 2.9030803948e+00 -5.0282827423e+00 2.9030803948e+00 5.0282827423e+00 
297000 5.1697384113e+00 -7.0867374691e-05 2.9030803948e+00 -5.0282827423e+00 2.9030803948e+00 5.0282827423e+00 
297100 5.1697384112e+00 -7.0532716322e-05 2.9030816154e+00 -5.0282848564e+00 2.9030816154e+00 5.0282848564e+00 
297200 5.1697384111e+00 -7.0838315877e-05 2.9030816154e+00 -5.0282848564e+00 2.9030816154e+00 5.0282848564e+00 
297300 5.1697384109e+00 -7.0502233609e-05 2.9030828355e+00 -5.0282869696e+00 2.9030828355e+00 5.0282869696e+00 
297400 5.1697384109e+00 -7.0806146627e-05 2.9030828355e+00 -5.0282869696e+00 2.9030828355e+00 5.0282869696e+00 
297500 5.1697384107e+00 -7.0468670016e-05 2.9030840550e+00 -5.0282890818e+00 2.9030840550e+00 5.0282890818e+00 
297600 5.1697384106e+00 -7.0770898398e-05 2.9030840550e+00 -5.0282890818e+00 2.9030840550e+00 5.0282890818e+00 
297700 5.1697384105e+00 -7.0432057683e-05 2.9030852738e+00 -5.0282911930e+00 2.9030852738e+00 5.0282911930e+00 
297800 5.1697384104e+00 -7.0732604295e-05 2.9030852738e+00 -5.0282911930e+00 2.9030852738e+00 5.0282911930e+00 
297900 5.1697384102e+00 -7.0392430373e-05 2.9030864921e+00 -5.0282933030e+00 2.9030864921e+00 5.0282933030e+00 
298000 5.1697384102e+00 -7.0691299022e-05 2.9030864921e+00 -5.0282933030e+00 2.9030864921e+00 5.0282933030e+00 
298100 5.1697384101e+00 -7.0992265432e-05 2.9030864921e+00 -5.0282933030e+00 2.9030864921e+00 5.0282933030e+00 
298200 5.1697384099e+00 -7.0649881206e-05 2.9030877148e+00 -5.0282954208e+00 2.9030877148e+00 5.0282954208e+00 
298300 5.1697384099e+00 -7.0948651173e-05 2.9030877148e+00 -5.0282954208e+00 2.9030877148e+00 5.0282954208e+00 
298400 5.1697384097e+00 -7.0604547207e-05 2.9030889367e+00 -5.0282975373e+00 2.9030889367e+00 5.0282975373e+00 
298500 5.1697384096e+00 -7.0901270029e-05 2.9030889367e+00 -5.0282975373e+00 2.9030889367e+00 5.0282975373e+00 
298600 5.1697384095e+00 -7.0555603992e-05 2.9030901579e+00 -5.0282996524e+00 2.9030901579e+00 5.0282996524e+00 
298700 5.1697384094e+00 -7.0850382520e-05 2.9030901579e+00 -5.0282996524e+00 2.9030901579e+00 5.0282996524e+00 
298800 5.1697384093e+00 -7.0503272139e-05 2.9030913781e+00 -5.0283017659e+00 2.9030913781e+00 5.0283017659e+00 
298900 5.1697384092e+00 -7.0796178659e-05 2.9030913781e+00 -5.0283017659e+00 2.9030913781e+00 5.0283017659e+00 
299000 5.1697384090e+00 -7.0447715021e-05 2.9030925974e+00 -5.0283038779e+00 2.9030925974e+00 5.0283038779e+00 
299100 5.1697384090e+00 -7.0738801480e-05 2.9030925974e+00 -5.0283038779e+00 2.9030925974e+00 5.0283038779e+00 
299200 5.1697384088e+00 -7.0389057775e-05 2.9030938158e+00 -5.0283059881e+00 2.9030938158e+00 5.0283059881e+00 
299300 5.1697384087e+00 -7.0678362575e-05 2.9030938158e+00 -5.0283059881e+00 2.9030938158e+00 5.0283059881e+00 
299400 5.1697384087e+00 -7.0969722611e-05 2.9030938158e+00 -5.0283059881e+00 2.9030938158e+00 5.0283059881e+00 
299500 5.1697384085e+00 -7.0617901064e-05 2.9030950381e+00 -5.0283081052e+00 2.9030950381e+00 5.0283081052e+00 
299600 5.1697384084e+00 -7.0906995502e-05 2.9030950381e+00 -5.0283081052e+00 2.9030950381e+00 5.0283081052e+00 
299700 5.1697384083e+00 -7.0553566320e-05 2.9030962593e+00 -5.0283102204e+00 2.9030962593e+00 5.0283102204e+00 
299800 5.1697384082e+00 -7.0840560026e-05 2.9030962593e+00 -5.0283102204e+00 2.9030962593e+00 5.0283102204e+00 
299900 5.1697384081e+00 -7.0485693890e-05 2.9030974794e+00 -5.0283123337e+00 2.9030974794e+00 5.0283123337e+00 
300000 5.1697384080e+00 -7.0770701599e-05 2.9030974794e+00 -5.0283123337e+00 2.9030974794e+00 5.0283123337e+00 
300100 5.1697384079e+00 -7.0414526013e-05 2.9030986983e+00 -5.0283144448e+00 2.9030986983e+00 5.0283144448e+00 
300200 5.1697384078e+00 -7.0697629449e-05 2.9030986983e+00 -5.0283144448e+00 2.9030986983e+00 5.0283144448e+00 
300300 5.1697384077e+00 -7.0982739673e-05 2.9030986983e+00 -5.0283144448e+00 2.9030986983e+00 5.0283144448e+00 
300400 5.1697384076e+00 -7.0624508748e-05 2.9030999208e+00 -5.0283165623e+00 2.9030999208e+00 5.0283165623e+00 
300500 5.1697384075e+00 -7.0907272576e-05 2.9030999208e+00 -5.0283165623e+00 2.9030999208e+00 5.0283165623e+00 
300600 5.1697384074e+00 -7.0547478372e-05 2.9031011421e+00 -5.0283186776e+00 2.9031011421e+00 5.0283186776e+00 
300700 5.1697384073e+00 -7.0828078969e-05 2.9031011421e+00 -5.0283186776e+00 2.9031011421e+00 5.0283186776e+00 
300800 5.1697384072e+00 -7.0466907930e-05 2.9031023619e+00 -5.0283207904e+00 2.9031023619e+00 5.0283207904e+00 
300900 5.1697384071e+00 -7.0745473416e-05 2.9031023619e+00 -5.0283207904e+00 2.9031023619e+00 5.0283207904e+00 
301000 5.1697384070e+00 -7.0383064509e-05 2.9031035804e+00 -5.0283229009e+00 2.9031035804e+00 5.0283229009e+00 
301100 5.1697384069e+00 -7.0659686676e-05 2.9031035804e+00 -5.0283229009e+00 2.9031035804e+00 5.0283229009e+00 
301200 5.1697384068e+00 -7.0938297649e-05 2.9031035804e+00 -5.0283229009e+00 2.9031035804e+00 5.0283229009e+00 
301300 5.1697384067e+00 -7.0573956257e-05 2.9031048021e+00 -5.0283250170e+00 2.9031048021e+00 5.0283250170e+00 
301400 5.1697384066e+00 -7.0850193244e-05 2.9031048021e+00 -5.0283250170e+00 2.9031048021e+00 5.0283250170e+00 
301500 5.1697384065e+00 -7.0484378306e-05 2.9031060224e+00 -5.0283271305e+00 2.9031060224e+00 5.0283271305e+00 
301600 5.1697384064e+00 -7.0758430227e-05 2.9031060224e+00 -5.0283271305e+00 2.9031060224e+00 5.0283271305e+00 
301700 5.1697384063e+00 -7.0391332910e-05 2.9031072411e+00 -5.0283292413e+00 2.9031072411e+00 5.0283292413e+00 
301800 5.1697384062e+00 -7.0663332880e-05 2.9031072411e+00 -5.0283292413e+00 2.9031072411e+00 5.0283292413e+00 
301900 5.1697384062e+00 -7.0937278893e-05 2.9031072411e+00 -5.0283292413e+00 2.9031072411e+00 5.0283292413e+00 
302000 5.1697384060e+00 -7.0568245692e-05 2.9031084628e+00 -5.0283313575e+00 2.9031084628e+00 5.0283313575e+00 
302100 5.1697384060e+00 -7.0839748699e-05 2.9031084628e+00 -5.0283313575e+00 2.9031084628e+00 5.0283313575e+00 
302200 5.1697384058e+00 -7.0469267480e-05 2.9031096829e+00 -5.0283334707e+00 2.9031096829e+00 5.0283334707e+00 
302300 5.1697384058e+00 -7.0738533529e-05 2.9031096829e+00 -5.0283334707e+00 2.9031096829e+00 5.0283334707e+00 
302400 5.1697384056e+00 -7.0366810252e-05 2.9031109012e+00 -5.0283355809e+00 2.9031109012e+00 5.0283355809e+00 
302500 5.1697384056e+00 -7.0633984889e-05 2.9031109012e+00 -5.0283355809e+00 2.9031109012e+00 5.0283355809e+00 
302600 5.1697384055e+00 -7.0903088296e-05 2.9031109012e+00 -5.0283355809e+00 2.9031109012e+00 5.0283355809e+00 
302700 5.1697384054e+00 -7.0529508783e-05 2.9031121224e+00 -5.0283376960e+00 2.9031121224e+00 5.0283376960e+00 
302800 5.1697384053e+00 -7.0796142938e-05 2.9031121224e+00 -5.0283376960e+00 2.9031121224e+00 5.0283376960e+00 
302900 5.1697384052e+00 -7.0421177633e-05 2.9031133417e+00 -5.0283398079e+00 2.9031133417e+00 5.0283398079e+00 
303000 5.1697384051e+00 -7.0685554807e-05 2.9031133417e+00 -5.0283398079e+00 2.9031133417e+00 5.0283398079e+00 
303100 5.1697384050e+00 -7.0951798044e-05 2.9031133417e+00 -5.0283398079e+00 2.9031133417e+00 5.0283398079e+00 
303200 5.1697384049e+00 -7.0574862443e-05 2.9031145637e+00 -5.0283419245e+00 2.9031145637e+00 5.0283419245e+00 
303300 5.1697384049e+00 -7.0838532390e-05 2.9031145637e+00 -5.0283419245e+00 2.9031145637e+00 5.0283419245e+00 
303400 5.1697384047e+00 -7.0460178219e-05 2.9031157837e+00 -5.0283440376e+00 2.9031157837e+00 5.0283440376e+00 
303500 5.1697384047e+00 -7.0721512949e-05 2.9031157837e+00 -5.0283440376e+00 2.9031157837e+00 5.0283440376e+00 
303600 5.1697384045e+00 -7.0341973874e-05 2.9031170017e+00 -5.0283461473e+00 2.9031170017e+00 5.0283461473e+00 
303700 5.1697384045e+00 -7.0601141964e-05 2.9031170017e+00 -5.0283461473e+00 2.9031170017e+00 5.0283461473e+00 
303800 5.1697384044e+00 -7.0862206583e-05 2.9031170017e+00 -5.0283461473e+00 2.9031170017e+00 5.0283461473e+00 
303900 5.1697384043e+00 -7.0480932562e-05 2.9031182222e+00 -5.0283482612e+00 2.9031182222e+00 5.0283482612e+00 
304000 5.1697384042e+00 -7.0739476727e-05 2.9031182222e+00 -5.0283482612e+00 2.9031182222e+00 5.0283482612e+00 
304100 5.1697384041e+00 -7.0356914476e-05 2.9031194405e+00 -5.0283503714e+00 2.9031194405e+00 5.0283503714e+00 
304200 5.1697384040e+00 -7.0613161705e-05 2.9031194405e+00 -5.0283503714e+00 2.9031194405e+00 5.0283503714e+00 
304300 5.1697384040e+00 -7.0871255579e-05 2.9031194405e+00 -5.0283503714e+00 2.9031194405e+00 5.0283503714e+00 
304400 5.1697384039e+00 -7.0486886714e-05 2.9031206611e+00 -5.0283524856e+00 2.9031206611e+00 5.0283524856e+00 
304500 5.1697384038e+00 -7.0742380749e-05 2.9031206611e+00 -5.0283524856e+00 2.9031206611e+00 5.0283524856e+00 
304600 5.1697384037e+00 -7.0356711482e-05 2.9031218795e+00 -5.0283545959e+00 2.9031218795e+00 5.0283545959e+00 
304700 5.1697384036e+00 -7.0609850523e-05 2.9031218795e+00 -5.0283545959e+00 2.9031218795e+00 5.0283545959e+00 
304800 5.1697384036e+00 -7.0864813010e-05 2.9031218795e+00 -5.0283545959e+00 2.9031218795e+00 5.0283545959e+00 
304900 5.1697384034e+00 -7.0477351737e-05 2.9031231000e+00 -5.0283567098e+00 2.9031231000e+00 5.0283567098e+00 
305000 5.1697384034e+00 -7.0729677153e-05 2.9031231000e+00 -5.0283567098e+00 2.9031231000e+00 5.0283567098e+00 
305100 5.1697384033e+00 -7.0340939808e-05 2.9031243182e+00 -5.0283588198e+00 2.9031243182e+00 5.0283588198e+00 
305200 5.1697384032e+00 -7.0590882110e-05 2.9031243182e+00 -5.0283588198e+00 2.9031243182e+00 5.0283588198e+00 
305300 5.1697384031e+00 -7.0842635671e-05 2.9031243182e+00 -5.0283588198e+00 2.9031243182e+00 5.0283588198e+00 
305400 5.1697384030e+00 -7.0452156833e-05 2.9031255383e+00 -5.0283609331e+00 2.9031255383e+00 5.0283609331e+00 
305500 5.1697384030e+00 -7.0701254735e-05 2.9031255383e+00 -5.0283609331e+00 2.9031255383e+00 5.0283609331e+00 
305600 5.1697384029e+00 -7.0952062966e-05 2.9031255383e+00 -5.0283609331e+00 2.9031255383e+00 5.0283609331e+00 
305700 5.1697384028e+00 -7.0559558725e-05 2.9031267603e+00 -5.0283630496e+00 2.9031267603e+00 5.0283630496e+00 
305800 5.1697384027e+00 -7.0807543441e-05 2.9031267603e+00 -5.0283630496e+00 2.9031267603e+00 5.0283630496e+00 
305900 5.1697384026e+00 -7.0413687418e-05 2.9031279798e+00 -5.0283651619e+00 2.9031279798e+00 5.0283651619e+00 
306000 5.1697384025e+00 -7.0659149825e-05 2.9031279798e+00 -5.0283651619e+00 2.9031279798e+00 5.0283651619e+00 
306100 5.1697384025e+00 -7.0906369741e-05 2.9031279798e+00 -5.0283651619e+00 2.9031279798e+00 5.0283651619e+00 
306200 5.1697384024e+00 -7.0510731463e-05 2.9031292010e+00 -5.0283672771e+00 2.9031292010e+00 5.0283672771e+00 
306300 5.1697384023e+00 -7.0755201158e-05 2.9031292010e+00 -5.0283672771e+00 2.9031292010e+00 5.0283672771e+00 
306400 5.1697384022e+00 -7.0358331588e-05 2.9031304196e+00 -5.0283693877e+00 2.9031304196e+00 5.0283693877e+00 
306500 5.1697384021e+00 -7.0600328840e-05 2.9031304196e+00 -5.0283693877e+00 2.9031304196e+00 5.0283693877e+00 
306600 5.1697384021e+00 -7.0844100009e-05 2.9031304196e+00 -5.0283693877e+00 2.9031304196e+00 5.0283693877e+00 
306700 5.1697384020e+00 -7.0445593010e-05 2.9031316397e+00 -5.0283715011e+00 2.9031316397e+00 5.0283715011e+00 
306800 5.1697384019e+00 -7.0686643536e-05 2.9031316397e+00 -5.0283715011e+00 2.9031316397e+00 5.0283715011e+00 
306900 5.1697384019e+00 -7.0929375885e-05 2.9031316397e+00 -5.0283715011e+00 2.9031316397e+00 5.0283715011e+00 
307000 5.1697384018e+00 -7.0528977249e-05 2.9031328613e+00 -5.0283736169e+00 2.9031328613e+00 5.0283736169e+00 
307100 5.1697384017e+00 -7.0768837614e-05 2.9031328613e+00 -5.0283736169e+00 2.9031328613e+00 5.0283736169e+00 
307200 5.1697384016e+00 -7.0367188004e-05 2.9031340802e+00 -5.0283757280e+00 2.9031340802e+00 5.0283757280e+00 
307300 5.1697384015e+00 -7.0604485926e-05 2.9031340802e+00 -5.0283757280e+00 2.9031340802e+00 5.0283757280e+00 
307400 5.1697384015e+00 -7.0843521825e-05 2.9031340802e+00 -5.0283757280e+00 2.9031340802e+00 5.0283757280e+00 
307500 5.1697384014e+00 -7.0440254255e-05 2.9031353003e+00 -5.0283778413e+00 2.9031353003e+00 5.0283778413e+00 
307600 5.1697384013e+00 -7.0676510515e-05 2.9031353003e+00 -5.0283778413e+00 2.9031353003e+00 5.0283778413e+00 
307700 5.1697384013e+00 -7.0914424132e-05 2.9031353003e+00 -5.0283778413e+00 2.9031353003e+00 5.0283778413e+00 
307800 5.1697384012e+00 -7.0509321871e-05 2.9031365216e+00 -5.0283799568e+00 2.9031365216e+00 5.0283799568e+00 
307900 5.1697384011e+00 -7.0744323781e-05 2.9031365216e+00 -5.0283799568e+00 2.9031365216e+00 5.0283799568e+00 
308000 5.1697384010e+00 -7.0338022071e-05 2.9031377400e+00 -5.0283820671e+00 2.9031377400e+00 5.0283820671e+00 
308100 5.1697384009e+00 -7.0570430707e-05 2.9031377400e+00 -5.0283820671e+00 2.9031377400e+00 5.0283820671e+00 
308200 5.1697384009e+00 -7.0804563235e-05 2.9031377400e+00 -5.0283820671e+00 2.9031377400e+00 5.0283820671e+00 
308300 5.1697384008e+00 -7.0396734669e-05 2.9031389595e+00 -5.0283841793e+00 2.9031389595e+00 5.0283841793e+00 
308400 5.1697384007e+00 -7.0628066827e-05 2.9031389595e+00 -5.0283841793e+00 2.9031389595e+00 5.0283841793e+00 
308500 5.1697384007e+00 -7.0861045957e-05 2.9031389595e+00 -5.0283841793e+00 2.9031389595e+00 5.0283841793e+00 
308600 5.1697384006e+00 -7.0451486005e-05 2.9031401799e+00 -5.0283862931e+00 2.9031401799e+00 5.0283862931e+00 
308700 5.1697384005e+00 -7.0681540307e-05 2.9031401799e+00 -5.0283862931e+00 2.9031401799e+00 5.0283862931e+00 
308800 5.1697384005e+00 -7.0913194973e-05 2.9031401799e+00 -5.0283862931e+00 2.9031401799e+00 5.0283862931e+00 
308900 5.1697384004e+00 -7.0501796912e-05 2.9031414012e+00 -5.0283884085e+00 2.9031414012e+00 5.0283884085e+00 
309000 5.1697384003e+00 -7.0730448156e-05 2.9031414012e+00 -5.0283884085e+00 2.9031414012e+00 5.0283884085e+00 
309100 5.1697384002e+00 -7.0317885866e-05 2.9031426194e+00 -5.0283905184e+00 2.9031426194e+00 5.0283905184e+00 
309200 5.1697384001e+00 -7.0543875268e-05 2.9031426194e+00 -5.0283905184e+00 2.9031426194e+00 5.0283905184e+00 
309300 5.1697384001e+00 -7.0771559864e-05 2.9031426194e+00 -5.0283905184e+00 2.9031426194e+00 5.0283905184e+00 
309400 5.1697384000e+00 -7.0357559268e-05 2.9031438383e+00 -5.0283926296e+00 2.9031438383e+00 5.0283926296e+00 
309500 5.1697383999e+00 -7.0582398672e-05 2.9031438383e+00 -5.0283926296e+00 2.9031438383e+00 5.0283926296e+00 
309600 5.1697383999e+00 -7.0808865068e-05 2.9031438383e+00 -5.0283926296e+00 2.9031438383e+00 5.0283926296e+00 
309700 5.1697383998e+00 -7.0393250164e-05 2.9031450578e+00 -5.0283947419e+00 2.9031450578e+00 5.0283947419e+00 
309800 5.1697383997e+00 -7.0616762647e-05 2.9031450578e+00 -5.0283947419e+00 2.9031450578e+00 5.0283947419e+00 
309900 5.1697383997e+00 -7.0841861250e-05 2.9031450578e+00 -5.0283947419e+00 2.9031450578e+00 5.0283947419e+00 
310000 5.1697383996e+00 -7.0424544095e-05 2.9031462779e+00 -5.0283968551e+00 2.9031462779e+00 5.0283968551e+00 
310100 5.1697383995e+00 -7.0646621444e-05 2.9031462779e+00 -5.0283968551e+00 2.9031462779e+00 5.0283968551e+00 
310200 5.1697383995e+00 -7.0870259359e-05 2.9031462779e+00 -5.0283968551e+00 2.9031462779e+00 5.0283968551e+00 
310300 5.1697383994e+00 -7.0451201545e-05 2.9031474985e+00 -5.0283989692e+00 2.9031474985e+00 5.0283989692e+00 
310400 5.1697383993e+00 -7.0671774452e-05 2.9031474985e+00 -5.0283989692e+00 2.9031474985e+00 5.0283989692e+00 
310500 5.1697383993e+00 -7.0893891093e-05 2.9031474985e+00 -5.0283989692e+00 2.9031474985e+00 5.0283989692e+00 
310600 5.1697383992e+00 -7.0473082617e-05 2.9031487194e+00 -5.0284010840e+00 2.9031487194e+00 5.0284010840e+00 
310700 5.1697383991e+00 -7.0692104195e-05 2.9031487194e+00 -5.0284010840e+00 2.9031487194e+00 5.0284010840e+00 
310800 5.1697383991e+00 -7.0912657707e-05 2.9031487194e+00 -5.0284010840e+00 2.9031487194e+00 5.0284010840e+00 
310900 5.1697383990e+00 -7.0490105152e-05 2.9031499408e+00 -5.0284031994e+00 2.9031499408e+00 5.0284031994e+00 
311000 5.1697383990e+00 -7.0707541704e-05 2.9031499408e+00 -5.0284031994e+00 2.9031499408e+00 5.0284031994e+00 
311100 5.1697383989e+00 -7.0926501361e-05 2.9031499408e+00 -5.0284031994e+00 2.9031499408e+00 5.0284031994e+00 
311200 5.1697383988e+00 -7.0502221275e-05 2.9031511623e+00 -5.0284053152e+00 2.9031511623e+00 5.0284053152e+00 
311300 5.1697383988e+00 -7.0718047156e-05 2.9031511623e+00 -5.0284053152e+00 2.9031511623e+00 5.0284053152e+00 
311400 5.1697383987e+00 -7.0292720009e-05 2.9031523803e+00 -5.0284074247e+00 2.9031523803e+00 5.0284074247e+00 
311500 5.1697383986e+00 -7.0505781527e-05 2.9031523803e+00 -5.0284074247e+00 2.9031523803e+00 5.0284074247e+00 
311600 5.1697383986e+00 -7.0720493741e-05 2.9031523803e+00 -5.0284074247e+00 2.9031523803e+00 5.0284074247e+00 
311700 5.1697383985e+00 -7.0293947006e-05 2.9031535982e+00 -5.0284095343e+00 2.9031535982e+00 5.0284095343e+00 
311800 5.1697383984e+00 -7.0505741436e-05 2.9031535982e+00 -5.0284095343e+00 2.9031535982e+00 5.0284095343e+00 
311900 5.1697383984e+00 -7.0719129188e-05 2.9031535982e+00 -5.0284095343e+00 2.9031535982e+00 5.0284095343e+00 
312000 5.1697383983e+00 -7.0291223030e-05 2.9031548162e+00 -5.0284116439e+00 2.9031548162e+00 5.0284116439e+00 
312100 5.1697383982e+00 -7.0501605798e-05 2.9031548162e+00 -5.0284116439e+00 2.9031548162e+00 5.0284116439e+00 
312200 5.1697383982e+00 -7.0713548767e-05 2.9031548162e+00 -5.0284116439e+00 2.9031548162e+00 5.0284116439e+00 
312300 5.1697383981e+00 -7.0284221162e-05 2.9031560341e+00 -5.0284137533e+00 2.9031560341e+00 5.0284137533e+00 
312400 5.1697383981e+00 -7.0493108784e-05 2.9031560341e+00 -5.0284137533e+00 2.9031560341e+00 5.0284137533e+00 
312500 5.1697383980e+00 -7.0703537157e-05 2.9031560341e+00 -5.0284137533e+00 2.9031560341e+00 5.0284137533e+00 
312600 5.1697383980e+00 -7.0915306015e-05 2.9031560341e+00 -5.0284137533e+00 2.9031560341e+00 5.0284137533e+00 
312700 5.1697383979e+00 -7.0483785976e-05 2.9031572554e+00 -5.0284158688e+00 2.9031572554e+00 5.0284158688e+00 
312800 5.1697383978e+00 -7.0692142132e-05 2.9031572554e+00 -5.0284158688e+00 2.9031572554e+00 5.0284158688e+00 
312900 5.1697383978e+00 -7.0901907178e-05 2.9031572554e+00 -5.0284158688e+00 2.9031572554e+00 5.0284158688e+00 
313000 5.1697383977e+00 -7.0468560996e-05 2.9031584766e+00 -5.0284179838e+00 2.9031584766e+00 5.0284179838e+00 
313100 5.1697383976e+00 -7.0675015293e-05 2.9031584766e+00 -5.0284179838e+00 2.9031584766e+00 5.0284179838e+00 
313200 5.1697383976e+00 -7.0882915323e-05 2.9031584766e+00 -5.0284179838e+00 2.9031584766e+00 5.0284179838e+00 
313300 5.1697383975e+00 -7.0447907127e-05 2.9031596973e+00 -5.0284200983e+00 2.9031596973e+00 5.0284200983e+00 
313400 5.1697383975e+00 -7.0652552589e-05 2.9031596973e+00 -5.0284200983e+00 2.9031596973e+00 5.0284200983e+00 
313500 5.1697383974e+00 -7.0858663707e-05 2.9031596973e+00 -5.0284200983e+00 2.9031596973e+00 5.0284200983e+00 
313600 5.1697383973e+00 -7.0422103578e-05 2.9031609177e+00 -5.0284222120e+00 2.9031609177e+00 5.0284222120e+00 
313700 5.1697383973e+00 -7.0624991613e-05 2.9031609177e+00 -5.0284222120e+00 2.9031609177e+00 5.0284222120e+00 
313800 5.1697383973e+00 -7.0829355975e-05 2.9031609177e+00 -5.0284222120e+00 2.9031609177e+00 5.0284222120e+00 
313900 5.1697383972e+00 -7.0391324496e-05 2.9031621376e+00 -5.0284243249e+00 2.9031621376e+00 5.0284243249e+00 
314000 5.1697383971e+00 -7.0592484025e-05 2.9031621376e+00 -5.0284243249e+00 2.9031621376e+00 5.0284243249e+00 
314100 5.1697383971e+00 -7.0795125589e-05 2.9031621376e+00 -5.0284243249e+00 2.9031621376e+00 5.0284243249e+00 
314200 5.1697383970e+00 -7.0355687469e-05 2.9031633569e+00 -5.0284264368e+00 2.9031633569e+00 5.0284264368e+00 
314300 5.1697383969e+00 -7.0555135692e-05 2.9031633569e+00 -5.0284264368e+00 2.9031633569e+00 5.0284264368e+00 
314400 5.1697383969e+00 -7.0756069131e-05 2.9031633569e+00 -5.0284264368e+00 2.9031633569e+00 5.0284264368e+00 
314500 5.1697383968e+00 -7.0315280950e-05 2.9031645755e+00 -5.0284285474e+00 2.9031645755e+00 5.0284285474e+00 
314600 5.1697383968e+00 -7.0513029485e-05 2.9031645755e+00 -5.0284285474e+00 2.9031645755e+00 5.0284285474e+00 
314700 5.1697383967e+00 -7.0712265291e-05 2.9031645755e+00 -5.0284285474e+00 2.9031645755e+00 5.0284285474e+00 
314800 5.1697383966e+00 -7.0270179887e-05 2.9031657933e+00 -5.0284306568e+00 2.9031657933e+00 5.0284306568e+00 
314900 5.1697383966e+00 -7.0466238268e-05 2.9031657933e+00 -5.0284306568e+00 2.9031657933e+00 5.0284306568e+00 
315000 5.1697383966e+00 -7.0663785634e-05 2.9031657933e+00 -5.0284306568e+00 2.9031657933e+00 5.0284306568e+00 
315100 5.1697383965e+00 -7.0862626917e-05 2.9031657933e+00 -5.0284306568e+00 2.9031657933e+00 5.0284306568e+00 
315200 5.1697383964e+00 -7.0418618468e-05 2.9031670138e+00 -5.0284327707e+00 2.9031670138e+00 5.0284327707e+00 
315300 5.1697383964e+00 -7.0613971384e-05 2.9031670138e+00 -5.0284327707e+00 2.9031670138e+00 5.0284327707e+00 
315400 5.1697383964e+00 -7.0810698259e-05 2.9031670138e+00 -5.0284327707e+00 2.9031670138e+00 5.0284327707e+00 
315500 5.1697383963e+00 -7.0365113598e-05 2.9031682333e+00 -5.0284348830e+00 2.9031682333e+00 5.0284348830e+00 
315600 5.1697383962e+00 -7.0558476746e-05 2.9031682333e+00 -5.0284348830e+00 2.9031682333e+00 5.0284348830e+00 
315700 5.1697383962e+00 -7.0753258865e-05 2.9031682333e+00 -5.0284348830e+00 2.9031682333e+00 5.0284348830e+00 
315800 5.1697383961e+00 -7.0306289395e-05 2.9031694518e+00 -5.0284369936e+00 2.9031694518e+00 5.0284369936e+00 
315900 5.1697383961e+00 -7.0497781522e-05 2.9031694518e+00 -5.0284369936e+00 2.9031694518e+00 5.0284369936e+00 
316000 5.1697383960e+00 -7.0640427272e-05 2.9031694518e+00 -5.0284369936e+00 2.9031694518e+00 5.0284369936e+00 
316000 5.1697383960e+00 -7.0640427272e-05 2.9031694518e+00 -5.0284369936e+00 2.9031694518e+00 5.0284369936e+00 
