# step Hamiltonian StressXX CellTensor1 CellTensor2 CellTensor3 CellTensor4 
0 5.4014931283e+00 1.1067687063e-01 2.8237630504e+00 -4.8909010719e+00 2.8237630504e+00 4.8909010719e+00 
100 5.3376815524e+00 1.1651181556e-01 2.8237630504e+00 -4.8909010719e+00 2.8237630504e+00 4.8909010719e+00 
200 5.2815989760e+00 1.2344687942e-01 2.8217002425e+00 -4.8873281837e+00 2.8217002425e+00 4.8873281837e+00 
300 5.2325817111e+00 1.3129323129e-01 2.8195130697e+00 -4.8835398894e+00 2.8195130697e+00 4.8835398894e+00 
400 5.1898749391e+00 1.3994897507e-01 2.8171850942e+00 -4.8795077175e+00 2.8171850942e+00 4.8795077175e+00 
500 5.1527794855e+00 1.4932104035e-01 2.8147016154e+00 -4.8752062060e+00 2.8147016154e+00 4.8752062060e+00 
600 5.1206470627e+00 1.5932334248e-01 2.8120495125e+00 -4.8706126291e+00 2.8120495125e+00 4.8706126291e+00 
700 5.0928759678e+00 1.6987471843e-01 2.8092171199e+00 -4.8657067812e+00 2.8092171199e+00 4.8657067812e+00 
800 5.0689072231e+00 1.8089664646e-01 2.8061941387e+00 -4.8604708241e+00 2.8061941387e+00 4.8604708241e+00 
900 5.0482211536e+00 1.9231075508e-01 2.8029715894e+00 -4.8548892050e+00 2.8029715894e+00 4.8548892050e+00 
1000 5.0303344212e+00 2.0403614607e-01 2.7995418101e+00 -4.8489486530e+00 2.7995418101e+00 4.8489486530e+00 
1100 5.0147975694e+00 2.1598661276e-01 2.7958985027e+00 -4.8426382596e+00 2.7958985027e+00 4.8426382596e+00 
1200 5.0011931885e+00 2.2806793637e-01 2.7920368316e+00 -4.8359496489e+00 2.7920368316e+00 4.8359496489e+00 
1300 4.9891348628e+00 2.4017559652e-01 2.7879535715e+00 -4.8288772350e+00 2.7879535715e+00 4.8288772350e+00 
1400 4.9782671083e+00 2.5219341872e-01 2.7836473008e+00 -4.8214185553e+00 2.7836473008e+00 4.8214185553e+00 
1500 4.9682665037e+00 2.6399385483e-01 2.7791186217e+00 -4.8135746530e+00 2.7791186217e+00 4.8135746530e+00 
1600 4.9588441209e+00 2.7544065858e-01 2.7743703801e+00 -4.8053504574e+00 2.7743703801e+00 4.8053504574e+00 
1700 4.9497491451e+00 2.8639454965e-01 2.7694078421e+00 -4.7967550893e+00 2.7694078421e+00 4.7967550893e+00 
1800 4.9407732143e+00 2.9672194088e-01 2.7642387720e+00 -4.7878019974e+00 2.7642387720e+00 4.7878019974e+00 
1900 4.9317545760e+00 3.0630592429e-01 2.7588733576e+00 -4.7785088269e+00 2.7588733576e+00 4.7785088269e+00 
2000 4.9225808118e+00 3.1505767532e-01 2.7533239366e+00 -4.7688969478e+00 2.7533239366e+00 4.7688969478e+00 
2100 4.9131888174e+00 3.2292568049e-01 2.7476045163e+00 -4.7589906214e+00 2.7476045163e+00 4.7589906214e+00 
2200 4.9035611252e+00 3.2990022947e-01 2.7417301206e+00 -4.7488158695e+00 2.7417301206e+00 4.7488158695e+00 
2300 4.8937184980e+00 3.3601168346e-01 2.7357160474e+00 -4.7383991892e+00 2.7357160474e+00 4.7383991892e+00 
2400 4.8837097221e+00 3.4132282750e-01 2.7295771485e+00 -4.7277663044e+00 2.7295771485e+00 4.7277663044e+00 
2500 4.8736002808e+00 3.4591735088e-01 2.7233272386e+00 -4.7169411429e+00 2.7233272386e+00 4.7169411429e+00 
2600 4.8634617651e+00 3.4988737962e-01 2.7169787069e+00 -4.7059451635e+00 2.7169787069e+00 4.7059451635e+00 
2700 4.8533634576e+00 3.5332271593e-01 2.7105423508e+00 -4.6947970676e+00 2.7105423508e+00 4.6947970676e+00 
2800 4.8433667597e+00 3.5630335387e-01 2.7040274040e+00 -4.6835128489e+00 2.7040274040e+00 4.6835128489e+00 
2900 4.8335223858e+00 3.5889558151e-01 2.6974417032e+00 -4.6721060804e+00 2.6974417032e+00 4.6721060804e+00 
3000 4.8238697507e+00 3.6115106519e-01 2.6907919266e+00 -4.6605883294e+00 2.6907919266e+00 4.6605883294e+00 
3100 4.8144378015e+00 3.6310792027e-01 2.6840838536e+00 -4.6489696062e+00 2.6840838536e+00 4.6489696062e+00 
3200 4.8052466057e+00 3.6479280357e-01 2.6773226076e+00 -4.6372587846e+00 2.6773226076e+00 4.6372587846e+00 
3300 4.7963091829e+00 3.6622330956e-01 2.6705128623e+00 -4.6254639597e+00 2.6705128623e+00 4.6254639597e+00 
3400 4.7876332621e+00 3.6741023805e-01 2.6636590067e+00 -4.6135927337e+00 2.6636590067e+00 4.6135927337e+00 
3500 4.7792228023e+00 3.6835953325e-01 2.6567652700e+00 -4.6016524315e+00 2.6567652700e+00 4.6016524315e+00 
3600 4.7710792219e+00 3.6907384318e-01 2.6498358111e+00 -4.5896502565e+00 2.6498358111e+00 4.5896502565e+00 
3700 4.7632023429e+00 3.6955372784e-01 2.6428747806e+00 -4.5775933981e+00 2.6428747806e+00 4.5775933981e+00 
3800 4.7555910813e+00 3.6979857503e-01 2.6358863610e+00 -4.5654891003e+00 2.6358863610e+00 4.5654891003e+00 
3900 4.7482439302e+00 3.6980728684e-01 2.6288747895e+00 -4.5533447021e+00 2.6288747895e+00 4.5533447021e+00 
4000 4.7411592747e+00 3.6957879091e-01 2.6218443683e+00 -4.5411676554e+00 2.6218443683e+00 4.5411676554e+00 
4100 4.7343355771e+00 3.6911241874e-01 2.6147994657e+00 -4.5289655263e+00 2.6147994657e+00 4.5289655263e+00 
4200 4.7277714615e+00 3.6840818184e-01 2.6077445096e+00 -4.5167459838e+00 2.6077445096e+00 4.5167459838e+00 
4300 4.7214657241e+00 3.6746696739e-01 2.6006839749e+00 -4.5045167790e+00 2.6006839749e+00 4.5045167790e+00 
4400 4.7154172877e+00 3.6629066850e-01 2.5936223683e+00 -4.4922857176e+00 2.5936223683e+00 4.4922857176e+00 
4500 4.7096251175e+00 3.6488226038e-01 2.5865642089e+00 -4.4800606268e+00 2.5865642089e+00 4.4800606268e+00 
4600 4.7040881125e+00 3.6324583063e-01 2.5795140075e+00 -4.4678493198e+00 2.5795140075e+00 4.4678493198e+00 
4700 4.6988049823e+00 3.6138657089e-01 2.5724762452e+00 -4.4556595580e+00 2.5724762452e+00 4.4556595580e+00 
4800 4.6937741205e+00 3.5931073623e-01 2.5654553512e+00 -4.4434990129e+00 2.5654553512e+00 4.4434990129e+00 
4900 4.6889934815e+00 3.5702557834e-01 2.5584556811e+00 -4.4313752286e+00 2.5584556811e+00 4.4313752286e+00 
5000 4.6844604690e+00 3.5453925826e-01 2.5514814963e+00 -4.4192955862e+00 2.5514814963e+00 4.4192955862e+00 
5100 4.6801718392e+00 3.5186074426e-01 2.5445369443e+00 -4.4072672693e+00 2.5445369443e+00 4.4072672693e+00 
5200 4.6761236244e+00 3.4899969998e-01 2.5376260413e+00 -4.3952972341e+00 2.5376260413e+00 4.3952972341e+00 
5300 4.6723110791e+00 3.4596636747e-01 2.5307526556e+00 -4.3833921808e+00 2.5307526556e+00 4.3833921808e+00 
5400 4.6687286496e+00 3.4277144934e-01 2.5239204942e+00 -4.3715585302e+00 2.5239204942e+00 4.3715585302e+00 
5500 4.6653699677e+00 3.3942599319e-01 2.5171330907e+00 -4.3598024026e+00 2.5171330907e+00 4.3598024026e+00 
5600 4.6622278676e+00 3.3594128132e-01 2.5103937956e+00 -4.3481296010e+00 2.5103937956e+00 4.3481296010e+00 
5700 4.6592944248e+00 3.3232872752e-01 2.5037057682e+00 -4.3365455977e+00 2.5037057682e+00 4.3365455977e+00 
5800 4.6565610142e+00 3.2859978247e-01 2.4970719712e+00 -4.3250555242e+00 2.4970719712e+00 4.3250555242e+00 
5900 4.6540183849e+00 3.2476584869e-01 2.4904951665e+00 -4.3136641643e+00 2.4904951665e+00 4.3136641643e+00 
6000 4.6516567494e+00 3.2083820513e-01 2.4839779129e+00 -4.3023759500e+00 2.4839779129e+00 4.3023759500e+00 
6100 4.6494658822e+00 3.1682794172e-01 2.4775225653e+00 -4.2911949600e+00 2.4775225653e+00 4.2911949600e+00 
6200 4.6474352264e+00 3.1274590334e-01 2.4711312752e+00 -4.2801249208e+00 2.4711312752e+00 4.2801249208e+00 
6300 4.6455540041e+00 3.0860264280e-01 2.4648059924e+00 -4.2691692096e+00 2.4648059924e+00 4.2691692096e+00 
6400 4.6438113275e+00 3.0440838208e-01 2.4585484679e+00 -4.2583308593e+00 2.4585484679e+00 4.2583308593e+00 
6500 4.6421963086e+00 3.0017298113e-01 2.4523602575e+00 -4.2476125644e+00 2.4523602575e+00 4.2476125644e+00 
6600 4.6406981645e+00 2.9590591344e-01 2.4462427261e+00 -4.2370166892e+00 2.4462427261e+00 4.2370166892e+00 
6700 4.6393063162e+00 2.9161624750e-01 2.4401970530e+00 -4.2265452762e+00 2.4401970530e+00 4.2265452762e+00 
6800 4.6380104799e+00 2.8731263354e-01 2.4342242373e+00 -4.2162000560e+00 2.4342242373e+00 4.2162000560e+00 
6900 4.6368007482e+00 2.8300329468e-01 2.4283251042e+00 -4.2059824577e+00 2.4283251042e+00 4.2059824577e+00 
7000 4.6356676614e+00 2.7869602190e-01 2.4225003108e+00 -4.1958936197e+00 2.4225003108e+00 4.1958936197e+00 
7100 4.6346022678e+00 2.7439817232e-01 2.4167503536e+00 -4.1859344016e+00 2.4167503536e+00 4.1859344016e+00 
7200 4.6335961724e+00 2.7011667003e-01 2.4110755744e+00 -4.1761053957e+00 2.4110755744e+00 4.1761053957e+00 
7300 4.6326415743e+00 2.6585800936e-01 2.4054761681e+00 -4.1664069396e+00 2.4054761681e+00 4.1664069396e+00 
7400 4.6317312932e+00 2.6162825983e-01 2.3999521894e+00 -4.1568391278e+00 2.3999521894e+00 4.1568391278e+00 
7500 4.6308587853e+00 2.5743307277e-01 2.3945035600e+00 -4.1474018248e+00 2.3945035600e+00 4.1474018248e+00 
7600 4.6300181486e+00 2.5327768905e-01 2.3891300759e+00 -4.1380946774e+00 2.3891300759e+00 4.1380946774e+00 
7700 4.6292041201e+00 2.4916694793e-01 2.3838314145e+00 -4.1289171266e+00 2.3838314145e+00 4.1289171266e+00 
7800 4.6284120639e+00 2.4510529667e-01 2.3786071419e+00 -4.1198684210e+00 2.3786071419e+00 4.1198684210e+00 
7900 4.6276379517e+00 2.4109680080e-01 2.3734567198e+00 -4.1109476282e+00 2.3734567198e+00 4.1109476282e+00 
8000 4.6268783382e+00 2.3714515489e-01 2.3683795126e+00 -4.1021536474e+00 2.3683795126e+00 4.1021536474e+00 
8100 4.6261303300e+00 2.3325369383e-01 2.3633747947e+00 -4.0934852217e+00 2.3633747947e+00 4.0934852217e+00 
8200 4.6253915510e+00 2.2942540436e-01 2.3584417567e+00 -4.0849409493e+00 2.3584417567e+00 4.0849409493e+00 
8300 4.6246601043e+00 2.2566293686e-01 2.3535795128e+00 -4.0765192958e+00 2.3535795128e+00 4.0765192958e+00 
8400 4.6239345318e+00 2.2196861747e-01 2.3487871068e+00 -4.0682186051e+00 2.3487871068e+00 4.0682186051e+00 
8500 4.6232137720e+00 2.1834446017e-01 2.3440635190e+00 -4.0600371111e+00 2.3440635190e+00 4.0600371111e+00 
8600 4.6224971181e+00 2.1479217918e-01 2.3394076722e+00 -4.0519729479e+00 2.3394076722e+00 4.0519729479e+00 
8700 4.6217841751e+00 2.1131320131e-01 2.3348184381e+00 -4.0440241612e+00 2.3348184381e+00 4.0440241612e+00 
8800 4.6210748185e+00 2.0790867842e-01 2.3302946429e+00 -4.0361887180e+00 2.3302946429e+00 4.0361887180e+00 
8900 4.6203691536e+00 2.0457949985e-01 2.3258350734e+00 -4.0284645172e+00 2.3258350734e+00 4.0284645172e+00 
9000 4.6196674769e+00 2.0132630492e-01 2.3214384826e+00 -4.0208493984e+00 2.3214384826e+00 4.0208493984e+00 
9100 4.6189702397e+00 1.9814949533e-01 2.3171035947e+00 -4.0133411524e+00 2.3171035947e+00 4.0133411524e+00 
9200 4.6182780137e+00 1.9504924754e-01 2.3128291108e+00 -4.0059375291e+00 2.3128291108e+00 4.0059375291e+00 
9300 4.6175914599e+00 1.9202552507e-01 2.3086137135e+00 -3.9986362468e+00 2.3086137135e+00 3.9986362468e+00 
9400 4.6169112995e+00 1.8907809067e-01 2.3044560719e+00 -3.9914350004e+00 2.3044560719e+00 3.9914350004e+00 
9500 4.6162382880e+00 1.8620651845e-01 2.3003548462e+00 -3.9843314690e+00 2.3003548462e+00 3.9843314690e+00 
9600 4.6155731930e+00 1.8341020573e-01 2.2963086918e+00 -3.9773233240e+00 2.2963086918e+00 3.9773233240e+00 
9700 4.6149167733e+00 1.8068838491e-01 2.2923162636e+00 -3.9704082355e+00 2.2923162636e+00 3.9704082355e+00 
9800 4.6142697622e+00 1.7804013497e-01 2.2883762200e+00 -3.9635838799e+00 2.2883762200e+00 3.9635838799e+00 
9900 4.6136328532e+00 1.7546439296e-01 2.2844872265e+00 -3.9568479455e+00 2.2844872265e+00 3.9568479455e+00 
10000 4.6130066877e+00 1.7295996512e-01 2.2806479590e+00 -3.9501981392e+00 2.2806479590e+00 3.9501981392e+00 
10100 4.6123918460e+00 1.7052553789e-01 2.2768571075e+00 -3.9436321917e+00 2.2768571075e+00 3.9436321917e+00 
10200 4.6117888400e+00 1.6815968860e-01 2.2731133785e+00 -3.9371478630e+00 2.2731133785e+00 3.9371478630e+00 
10300 4.6111981084e+00 1.6586089596e-01 2.2694154986e+00 -3.9307429470e+00 2.2694154986e+00 3.9307429470e+00 
10400 4.6106200135e+00 1.6362755025e-01 2.2657622162e+00 -3.9244152763e+00 2.2657622162e+00 3.9244152763e+00 
10500 4.6100548399e+00 1.6145796327e-01 2.2621523047e+00 -3.9181627263e+00 2.2621523047e+00 3.9181627263e+00 
10600 4.6095027948e+00 1.5935037794e-01 2.2585845643e+00 -3.9119832186e+00 2.2585845643e+00 3.9119832186e+00 
10700 4.6089640092e+00 1.5730297765e-01 2.2550578238e+00 -3.9058747249e+00 2.2550578238e+00 3.9058747249e+00 
10800 4.6084385408e+00 1.5531389532e-01 2.2515709428e+00 -3.8998352698e+00 2.2515709428e+00 3.8998352698e+00 
10900 4.6079263774e+00 1.5338122208e-01 2.2481228129e+00 -3.8938629336e+00 2.2481228129e+00 3.8938629336e+00 
11000 4.6074274417e+00 1.5150301569e-01 2.2447123593e+00 -3.8879558547e+00 2.2447123593e+00 3.8879558547e+00 
11100 4.6069415955e+00 1.4967730858e-01 2.2413385418e+00 -3.8821122313e+00 2.2413385418e+00 3.8821122313e+00 
11200 4.6064686460e+00 1.4790211559e-01 2.2380003560e+00 -3.8763303239e+00 2.2380003560e+00 3.8763303239e+00 
11300 4.6060083507e+00 1.4617544139e-01 2.2346968340e+00 -3.8706084560e+00 2.2346968340e+00 3.8706084560e+00 
11400 4.6055604244e+00 1.4449528743e-01 2.2314270452e+00 -3.8649450157e+00 2.2314270452e+00 3.8649450157e+00 
11500 4.6051245443e+00 1.4285965872e-01 2.2281900966e+00 -3.8593384562e+00 2.2281900966e+00 3.8593384562e+00 
11600 4.6047003564e+00 1.4126657010e-01 2.2249851332e+00 -3.8537872968e+00 2.2249851332e+00 3.8537872968e+00 
11700 4.6042874815e+00 1.3971405223e-01 2.2218113383e+00 -3.8482901228e+00 2.2218113383e+00 3.8482901228e+00 
11800 4.6038855210e+00 1.3820015722e-01 2.2186679334e+00 -3.8428455858e+00 2.2186679334e+00 3.8428455858e+00 
11900 4.6034940618e+00 1.3672296384e-01 2.2155541782e+00 -3.8374524035e+00 2.2155541782e+00 3.8374524035e+00 
12000 4.6031126822e+00 1.3528058243e-01 2.2124693702e+00 -3.8321093593e+00 2.2124693702e+00 3.8321093593e+00 
12100 4.6027409563e+00 1.3387115941e-01 2.2094128446e+00 -3.8268153017e+00 2.2094128446e+00 3.8268153017e+00 
12200 4.6023784584e+00 1.3249288146e-01 2.2063839738e+00 -3.8215691435e+00 2.2063839738e+00 3.8215691435e+00 
12300 4.6020247672e+00 1.3114397931e-01 2.2033821664e+00 -3.8163698608e+00 2.2033821664e+00 3.8163698608e+00 
12400 4.6016794693e+00 1.2982273115e-01 2.2004068674e+00 -3.8112164916e+00 2.2004068674e+00 3.8112164916e+00 
12500 4.6013421624e+00 1.2852746579e-01 2.1974575564e+00 -3.8061081351e+00 2.1974575564e+00 3.8061081351e+00 
12600 4.6010124580e+00 1.2725656534e-01 2.1945337475e+00 -3.8010439495e+00 2.1945337475e+00 3.8010439495e+00 
12700 4.6006899839e+00 1.2600846767e-01 2.1916349881e+00 -3.7960231509e+00 2.1916349881e+00 3.7960231509e+00 
12800 4.6003743858e+00 1.2478166843e-01 2.1887608579e+00 -3.7910450115e+00 2.1887608579e+00 3.7910450115e+00 
12900 4.6000653288e+00 1.2357472284e-01 2.1859109680e+00 -3.7861088574e+00 2.1859109680e+00 3.7861088574e+00 
13000 4.5997624991e+00 1.2238624707e-01 2.1830849596e+00 -3.7812140673e+00 2.1830849596e+00 3.7812140673e+00 
13100 4.5994656039e+00 1.2121491943e-01 2.1802825029e+00 -3.7763600698e+00 2.1802825029e+00 3.7763600698e+00 
13200 4.5991743725e+00 1.2005948112e-01 2.1775032958e+00 -3.7715463420e+00 2.1775032958e+00 3.7715463420e+00 
13300 4.5988885562e+00 1.1891873684e-01 2.1747470631e+00 -3.7667724070e+00 2.1747470631e+00 3.7667724070e+00 
13400 4.5986079280e+00 1.1779155505e-01 2.1720135547e+00 -3.7620378315e+00 2.1720135547e+00 3.7620378315e+00 
13500 4.5983322826e+00 1.1667686795e-01 2.1693025446e+00 -3.7573422242e+00 2.1693025446e+00 3.7573422242e+00 
13600 4.5980614353e+00 1.1557367130e-01 2.1666138295e+00 -3.7526852330e+00 2.1666138295e+00 3.7526852330e+00 
13700 4.5977952216e+00 1.1448102395e-01 2.1639472276e+00 -3.7480665431e+00 2.1639472276e+00 3.7480665431e+00 
13800 4.5975334961e+00 1.1339804714e-01 2.1613025773e+00 -3.7434858745e+00 2.1613025773e+00 3.7434858745e+00 
13900 4.5972761314e+00 1.1232392367e-01 2.1586797359e+00 -3.7389429799e+00 2.1586797359e+00 3.7389429799e+00 
14000 4.5970230168e+00 1.1125789681e-01 2.1560785781e+00 -3.7344376423e+00 2.1560785781e+00 3.7344376423e+00 
14100 4.5967740571e+00 1.1019926909e-01 2.1534989949e+00 -3.7299696732e+00 2.1534989949e+00 3.7299696732e+00 
14200 4.5965291716e+00 1.0914740092e-01 2.1509408924e+00 -3.7255389098e+00 2.1509408924e+00 3.7255389098e+00 
14300 4.5962882922e+00 1.0810170904e-01 2.1484041905e+00 -3.7211452132e+00 2.1484041905e+00 3.7211452132e+00 
14400 4.5960513622e+00 1.0706166489e-01 2.1458888215e+00 -3.7167884663e+00 2.1458888215e+00 3.7167884663e+00 
14500 4.5958183351e+00 1.0602679286e-01 2.1433947292e+00 -3.7124685716e+00 2.1433947292e+00 3.7124685716e+00 
14600 4.5955891733e+00 1.0499666840e-01 2.1409218674e+00 -3.7081854494e+00 2.1409218674e+00 3.7081854494e+00 
14700 4.5953638463e+00 1.0397091612e-01 2.1384701992e+00 -3.7039390355e+00 2.1384701992e+00 3.7039390355e+00 
14800 4.5951423300e+00 1.0294920775e-01 2.1360396955e+00 -3.6997292795e+00 2.1360396955e+00 3.6997292795e+00 
14900 4.5949246053e+00 1.0193126008e-01 2.1336303342e+00 -3.6955561433e+00 2.1336303342e+00 3.6955561433e+00 
15000 4.5947106569e+00 1.0091683286e-01 2.1312420990e+00 -3.6914195987e+00 2.1312420990e+00 3.6914195987e+00 
15100 4.5945004722e+00 9.9905726651e-02 2.1288749787e+00 -3.6873196261e+00 2.1288749787e+00 3.6873196261e+00 
15200 4.5942940407e+00 9.8897780663e-02 2.1265289660e+00 -3.6832562130e+00 2.1265289660e+00 3.6832562130e+00 
15300 4.5940913525e+00 9.7892870581e-02 2.1242040568e+00 -3.6792293520e+00 2.1242040568e+00 3.6792293520e+00 
15400 4.5938923982e+00 9.6890906392e-02 2.1219002491e+00 -3.6752390400e+00 2.1219002491e+00 3.6752390400e+00 
15500 4.5936971676e+00 9.5891830219e-02 2.1196175425e+00 -3.6712852763e+00 2.1196175425e+00 3.6712852763e+00 
15600 4.5935056495e+00 9.4895614173e-02 2.1173559375e+00 -3.6673680614e+00 2.1173559375e+00 3.6673680614e+00 
15700 4.5933178308e+00 9.3902258230e-02 2.1151154342e+00 -3.6634873959e+00 2.1151154342e+00 3.6634873959e+00 
15800 4.5931336966e+00 9.2911788141e-02 2.1128960325e+00 -3.6596432794e+00 2.1128960325e+00 3.6596432794e+00 
15900 4.5929532292e+00 9.1924253380e-02 2.1106977308e+00 -3.6558357092e+00 2.1106977308e+00 3.6558357092e+00 
16000 4.5927764083e+00 9.0939725139e-02 2.1085205259e+00 -3.6520646796e+00 2.1085205259e+00 3.6520646796e+00 
16100 4.5926032105e+00 8.9958294373e-02 2.1063644120e+00 -3.6483301808e+00 2.1063644120e+00 3.6483301808e+00 
16200 4.5924336095e+00 8.8980069894e-02 2.1042293807e+00 -3.6446321981e+00 2.1042293807e+00 3.6446321981e+00 
16300 4.5922675756e+00 8.8005176533e-02 2.1021154202e+00 -3.6409707112e+00 2.1021154202e+00 3.6409707112e+00 
16400 4.5921050760e+00 8.7033753360e-02 2.1000225153e+00 -3.6373456935e+00 2.1000225153e+00 3.6373456935e+00 
16500 4.5919460746e+00 8.6065951966e-02 2.0979506464e+00 -3.6337571113e+00 2.0979506464e+00 3.6337571113e+00 
16600 4.5917905323e+00 8.5101934820e-02 2.0958997899e+00 -3.6302049237e+00 2.0958997899e+00 3.6302049237e+00 
16700 4.5916384071e+00 8.4141873692e-02 2.0938699175e+00 -3.6266890816e+00 2.0938699175e+00 3.6266890816e+00 
16800 4.5914896541e+00 8.3185948141e-02 2.0918609961e+00 -3.6232095275e+00 2.0918609961e+00 3.6232095275e+00 
16900 4.5913442257e+00 8.2234344091e-02 2.0898729873e+00 -3.6197661954e+00 2.0898729873e+00 3.6197661954e+00 
17000 4.5912020720e+00 8.1287252462e-02 2.0879058480e+00 -3.6163590101e+00 2.0879058480e+00 3.6163590101e+00 
17100 4.5910631409e+00 8.0344867885e-02 2.0859595291e+00 -3.6129878870e+00 2.0859595291e+00 3.6129878870e+00 
17200 4.5909273783e+00 7.9407387488e-02 2.0840339766e+00 -3.6096527321e+00 2.0840339766e+00 3.6096527321e+00 
17300 4.5907947284e+00 7.8475009755e-02 2.0821291305e+00 -3.6063534420e+00 2.0821291305e+00 3.6063534420e+00 
17400 4.5906651339e+00 7.7547933451e-02 2.0802449256e+00 -3.6030899033e+00 2.0802449256e+00 3.6030899033e+00 
17500 4.5905385364e+00 7.6626356629e-02 2.0783812906e+00 -3.5998619929e+00 2.0783812906e+00 3.5998619929e+00 
17600 4.5904148765e+00 7.5710475695e-02 2.0765381490e+00 -3.5966695780e+00 2.0765381490e+00 3.5966695780e+00 
17700 4.5902940940e+00 7.4800484552e-02 2.0747154185e+00 -3.5935125162e+00 2.0747154185e+00 3.5935125162e+00 
17800 4.5901761284e+00 7.3896573805e-02 2.0729130113e+00 -3.5903906552e+00 2.0729130113e+00 3.5903906552e+00 
17900 4.5900609190e+00 7.2998930030e-02 2.0711308339e+00 -3.5873038334e+00 2.0711308339e+00 3.5873038334e+00 
18000 4.5899484049e+00 7.2107735115e-02 2.0693687876e+00 -3.5842518797e+00 2.0693687876e+00 3.5842518797e+00 
18100 4.5898385254e+00 7.1223165649e-02 2.0676267682e+00 -3.5812346137e+00 2.0676267682e+00 3.5812346137e+00 
18200 4.5897312204e+00 7.0345392386e-02 2.0659046666e+00 -3.5782518461e+00 2.0659046666e+00 3.5782518461e+00 
18300 4.5896264301e+00 6.9474579753e-02 2.0642023682e+00 -3.5753033789e+00 2.0642023682e+00 3.5753033789e+00 
18400 4.5895240955e+00 6.8610885423e-02 2.0625197538e+00 -3.5723890053e+00 2.0625197538e+00 3.5723890053e+00 
18500 4.5894241584e+00 6.7754459935e-02 2.0608566993e+00 -3.5695085103e+00 2.0608566993e+00 3.5695085103e+00 
18600 4.5893265618e+00 6.6905446366e-02 2.0592130759e+00 -3.5666616711e+00 2.0592130759e+00 3.5666616711e+00 
18700 4.5892312493e+00 6.6063980056e-02 2.0575887505e+00 -3.5638482570e+00 2.0575887505e+00 3.5638482570e+00 
18800 4.5891381660e+00 6.5230188370e-02 2.0559835857e+00 -3.5610680299e+00 2.0559835857e+00 3.5610680299e+00 
18900 4.5890472583e+00 6.4404190517e-02 2.0543974399e+00 -3.5583207449e+00 2.0543974399e+00 3.5583207449e+00 
19000 4.5889584735e+00 6.3586097397e-02 2.0528301678e+00 -3.5556061500e+00 2.0528301678e+00 3.5556061500e+00 
19100 4.5888717607e+00 6.2776011493e-02 2.0512816204e+00 -3.5529239873e+00 2.0512816204e+00 3.5529239873e+00 
19200 4.5887870700e+00 6.1974026809e-02 2.0497516452e+00 -3.5502739924e+00 2.0497516452e+00 3.5502739924e+00 
19300 4.5887043531e+00 6.1180228827e-02 2.0482400864e+00 -3.5476558958e+00 2.0482400864e+00 3.5476558958e+00 
19400 4.5886235629e+00 6.0394694505e-02 2.0467467852e+00 -3.5450694222e+00 2.0467467852e+00 3.5450694222e+00 
19500 4.5885446539e+00 5.9617492309e-02 2.0452715799e+00 -3.5425142917e+00 2.0452715799e+00 3.5425142917e+00 
19600 4.5884675819e+00 5.8848682271e-02 2.0438143063e+00 -3.5399902197e+00 2.0438143063e+00 3.5399902197e+00 
19700 4.5883923039e+00 5.8088316065e-02 2.0423747976e+00 -3.5374969176e+00 2.0423747976e+00 3.5374969176e+00 
19800 4.5883187784e+00 5.7336437121e-02 2.0409528850e+00 -3.5350340926e+00 2.0409528850e+00 3.5350340926e+00 
19900 4.5882469653e+00 5.6593080755e-02 2.0395483975e+00 -3.5326014490e+00 2.0395483975e+00 3.5326014490e+00 
20000 4.5881768254e+00 5.5858274320e-02 2.0381611624e+00 -3.5301986874e+00 2.0381611624e+00 3.5301986874e+00 
20100 4.5881083210e+00 5.5132037372e-02 2.0367910056e+00 -3.5278255060e+00 2.0367910056e+00 3.5278255060e+00 
20200 4.5880414155e+00 5.4414381864e-02 2.0354377512e+00 -3.5254816007e+00 2.0354377512e+00 3.5254816007e+00 
20300 4.5879760734e+00 5.3705312344e-02 2.0341012224e+00 -3.5231666649e+00 2.0341012224e+00 3.5231666649e+00 
20400 4.5879122602e+00 5.3004826173e-02 2.0327812414e+00 -3.5208803908e+00 2.0327812414e+00 3.5208803908e+00 
20500 4.5878499426e+00 5.2312913755e-02 2.0314776295e+00 -3.5186224687e+00 2.0314776295e+00 3.5186224687e+00 
20600 4.5877890879e+00 5.1629558773e-02 2.0301902074e+00 -3.5163925882e+00 2.0301902074e+00 3.5163925882e+00 
20700 4.5877296648e+00 5.0954738443e-02 2.0289187953e+00 -3.5141904379e+00 2.0289187953e+00 3.5141904379e+00 
20800 4.5876716425e+00 5.0288423763e-02 2.0276632133e+00 -3.5120157061e+00 2.0276632133e+00 3.5120157061e+00 
20900 4.5876149910e+00 4.9630579784e-02 2.0264232812e+00 -3.5098680807e+00 2.0264232812e+00 3.5098680807e+00 
21000 4.5875596814e+00 4.8981165873e-02 2.0251988189e+00 -3.5077472498e+00 2.0251988189e+00 3.5077472498e+00 
21100 4.5875056852e+00 4.8340135989e-02 2.0239896465e+00 -3.5056529018e+00 2.0239896465e+00 3.5056529018e+00 
21200 4.5874529747e+00 4.7707438953e-02 2.0227955846e+00 -3.5035847259e+00 2.0227955846e+00 3.5035847259e+00 
21300 4.5874015228e+00 4.7083018730e-02 2.0216164541e+00 -3.5015424119e+00 2.0216164541e+00 3.5015424119e+00 
21400 4.5873513029e+00 4.6466814706e-02 2.0204520765e+00 -3.4995256508e+00 2.0204520765e+00 3.4995256508e+00 
21500 4.5873022892e+00 4.5858761964e-02 2.0193022743e+00 -3.4975341350e+00 2.0193022743e+00 3.4975341350e+00 
21600 4.5872544563e+00 4.5258791561e-02 2.0181668707e+00 -3.4955675583e+00 2.0181668707e+00 3.4955675583e+00 
21700 4.5872077792e+00 4.4666830803e-02 2.0170456900e+00 -3.4936256162e+00 2.0170456900e+00 3.4936256162e+00 
21800 4.5871622336e+00 4.4082803518e-02 2.0159385573e+00 -3.4917080062e+00 2.0159385573e+00 3.4917080062e+00 
21900 4.5871177953e+00 4.3506630324e-02 2.0148452994e+00 -3.4898144279e+00 2.0148452994e+00 3.4898144279e+00 
22000 4.5870744409e+00 4.2938228892e-02 2.0137657440e+00 -3.4879445831e+00 2.0137657440e+00 3.4879445831e+00 
22100 4.5870321472e+00 4.2377514208e-02 2.0126997203e+00 -3.4860981760e+00 2.0126997203e+00 3.4860981760e+00 
22200 4.5869908913e+00 4.1824398826e-02 2.0116470591e+00 -3.4842749133e+00 2.0116470591e+00 3.4842749133e+00 
22300 4.5869506510e+00 4.1278793119e-02 2.0106075926e+00 -3.4824745045e+00 2.0106075926e+00 3.4824745045e+00 
22400 4.5869114042e+00 4.0740605516e-02 2.0095811547e+00 -3.4806966618e+00 2.0095811547e+00 3.4806966618e+00 
22500 4.5868731291e+00 4.0209742745e-02 2.0085675808e+00 -3.4789411004e+00 2.0085675808e+00 3.4789411004e+00 
22600 4.5868358044e+00 3.9686110057e-02 2.0075667083e+00 -3.4772075384e+00 2.0075667083e+00 3.4772075384e+00 
22700 4.5867994092e+00 3.9169611446e-02 2.0065783762e+00 -3.4754956970e+00 2.0065783762e+00 3.4754956970e+00 
22800 4.5867639226e+00 3.8660149866e-02 2.0056024254e+00 -3.4738053006e+00 2.0056024254e+00 3.4738053006e+00 
22900 4.5867293245e+00 3.8157627438e-02 2.0046386987e+00 -3.4721360770e+00 2.0046386987e+00 3.4721360770e+00 
23000 4.5866955947e+00 3.7661945640e-02 2.0036870408e+00 -3.4704877571e+00 2.0036870408e+00 3.4704877571e+00 
23100 4.5866627134e+00 3.7173005504e-02 2.0027472982e+00 -3.4688600753e+00 2.0027472982e+00 3.4688600753e+00 
23200 4.5866306614e+00 3.6690707793e-02 2.0018193196e+00 -3.4672527692e+00 2.0018193196e+00 3.4672527692e+00 
23300 4.5865994195e+00 3.6214953174e-02 2.0009029555e+00 -3.4656655800e+00 2.0009029555e+00 3.4656655800e+00 
23400 4.5865689690e+00 3.5745642380e-02 1.9999980585e+00 -3.4640982524e+00 1.9999980585e+00 3.4640982524e+00 
23500 4.5865392914e+00 3.5282676368e-02 1.9991044832e+00 -3.4625505345e+00 1.9991044832e+00 3.4625505345e+00 
23600 4.5865103686e+00 3.4825956462e-02 1.9982220861e+00 -3.4610221779e+00 1.9982220861e+00 3.4610221779e+00 
23700 4.5864821828e+00 3.4375384496e-02 1.9973507259e+00 -3.4595129378e+00 1.9973507259e+00 3.4595129378e+00 
23800 4.5864547165e+00 3.3930862935e-02 1.9964902632e+00 -3.4580225727e+00 1.9964902632e+00 3.4580225727e+00 
23900 4.5864279525e+00 3.3492295005e-02 1.9956405607e+00 -3.4565508448e+00 1.9956405607e+00 3.4565508448e+00 
24000 4.5864018740e+00 3.3059584798e-02 1.9948014831e+00 -3.4550975197e+00 1.9948014831e+00 3.4550975197e+00 
24100 4.5863764644e+00 3.2632637380e-02 1.9939728970e+00 -3.4536623665e+00 1.9939728970e+00 3.4536623665e+00 
24200 4.5863517076e+00 3.2211358888e-02 1.9931546711e+00 -3.4522451577e+00 1.9931546711e+00 3.4522451577e+00 
24300 4.5863275877e+00 3.1795656614e-02 1.9923466761e+00 -3.4508456693e+00 1.9923466761e+00 3.4508456693e+00 
24400 4.5863040890e+00 3.1385439091e-02 1.9915487845e+00 -3.4494636805e+00 1.9915487845e+00 3.4494636805e+00 
24500 4.5862811965e+00 3.0980616161e-02 1.9907608709e+00 -3.4480989741e+00 1.9907608709e+00 3.4480989741e+00 
24600 4.5862588951e+00 3.0581099043e-02 1.9899828116e+00 -3.4467513359e+00 1.9899828116e+00 3.4467513359e+00 
24700 4.5862371703e+00 3.0186800392e-02 1.9892144851e+00 -3.4454205554e+00 1.9892144851e+00 3.4454205554e+00 
24800 4.5862160078e+00 2.9797634349e-02 1.9884557716e+00 -3.4441064250e+00 1.9884557716e+00 3.4441064250e+00 
24900 4.5861953936e+00 2.9413516586e-02 1.9877065529e+00 -3.4428087402e+00 1.9877065529e+00 3.4428087402e+00 
25000 4.5861753140e+00 2.9034364348e-02 1.9869667131e+00 -3.4415273000e+00 1.9869667131e+00 3.4415273000e+00 
25100 4.5861557558e+00 2.8660096479e-02 1.9862361376e+00 -3.4402619061e+00 1.9862361376e+00 3.4402619061e+00 
25200 4.5861367059e+00 2.8290633454e-02 1.9855147138e+00 -3.4390123634e+00 1.9855147138e+00 3.4390123634e+00 
25300 4.5861181515e+00 2.7925897397e-02 1.9848023307e+00 -3.4377784797e+00 1.9848023307e+00 3.4377784797e+00 
25400 4.5861000802e+00 2.7565812098e-02 1.9840988791e+00 -3.4365600658e+00 1.9840988791e+00 3.4365600658e+00 
25500 4.5860824799e+00 2.7210303023e-02 1.9834042513e+00 -3.4353569353e+00 1.9834042513e+00 3.4353569353e+00 
25600 4.5860653388e+00 2.6859297317e-02 1.9827183414e+00 -3.4341689044e+00 1.9827183414e+00 3.4341689044e+00 
25700 4.5860486452e+00 2.6512723809e-02 1.9820410448e+00 -3.4329957923e+00 1.9820410448e+00 3.4329957923e+00 
25800 4.5860323879e+00 2.6170513005e-02 1.9813722587e+00 -3.4318374207e+00 1.9813722587e+00 3.4318374207e+00 
25900 4.5860165559e+00 2.5832597083e-02 1.9807118815e+00 -3.4306936139e+00 1.9807118815e+00 3.4306936139e+00 
26000 4.5860011384e+00 2.5498909881e-02 1.9800598135e+00 -3.4295641989e+00 1.9800598135e+00 3.4295641989e+00 
26100 4.5859861249e+00 2.5169386881e-02 1.9794159559e+00 -3.4284490050e+00 1.9794159559e+00 3.4284490050e+00 
26200 4.5859715054e+00 2.4843965192e-02 1.9787802119e+00 -3.4273478640e+00 1.9787802119e+00 3.4273478640e+00 
26300 4.5859572697e+00 2.4522583531e-02 1.9781524855e+00 -3.4262606100e+00 1.9781524855e+00 3.4262606100e+00 
26400 4.5859434082e+00 2.4205182194e-02 1.9775326823e+00 -3.4251870795e+00 1.9775326823e+00 3.4251870795e+00 
26500 4.5859299114e+00 2.3891703034e-02 1.9769207093e+00 -3.4241271111e+00 1.9769207093e+00 3.4241271111e+00 
26600 4.5859167702e+00 2.3582089432e-02 1.9763164745e+00 -3.4230805457e+00 1.9763164745e+00 3.4230805457e+00 
26700 4.5859039754e+00 2.3276286263e-02 1.9757198873e+00 -3.4220472264e+00 1.9757198873e+00 3.4220472264e+00 
26800 4.5858915183e+00 2.2974239865e-02 1.9751308582e+00 -3.4210269981e+00 1.9751308582e+00 3.4210269981e+00 
26900 4.5858793903e+00 2.2675898008e-02 1.9745492990e+00 -3.4200197079e+00 1.9745492990e+00 3.4200197079e+00 
27000 4.5858675832e+00 2.2381209852e-02 1.9739751224e+00 -3.4190252049e+00 1.9739751224e+00 3.4190252049e+00 
27100 4.5858560887e+00 2.2090125916e-02 1.9734082425e+00 -3.4180433401e+00 1.9734082425e+00 3.4180433401e+00 
27200 4.5858448990e+00 2.1802598033e-02 1.9728485742e+00 -3.4170739661e+00 1.9728485742e+00 3.4170739661e+00 
27300 4.5858340063e+00 2.1518579319e-02 1.9722960335e+00 -3.4161169377e+00 1.9722960335e+00 3.4161169377e+00 
27400 4.5858234031e+00 2.1238024127e-02 1.9717505377e+00 -3.4151721111e+00 1.9717505377e+00 3.4151721111e+00 
27500 4.5858130820e+00 2.0960888010e-02 1.9712120046e+00 -3.4142393445e+00 1.9712120046e+00 3.4142393445e+00 
27600 4.5858030358e+00 2.0687127679e-02 1.9706803534e+00 -3.4133184975e+00 1.9706803534e+00 3.4133184975e+00 
27700 4.5857932576e+00 2.0416700961e-02 1.9701555039e+00 -3.4124094316e+00 1.9701555039e+00 3.4124094316e+00 
27800 4.5857837405e+00 2.0149566762e-02 1.9696373772e+00 -3.4115120098e+00 1.9696373772e+00 3.4115120098e+00 
27900 4.5857744779e+00 1.9885685022e-02 1.9691258949e+00 -3.4106260964e+00 1.9691258949e+00 3.4106260964e+00 
28000 4.5857654633e+00 1.9625016674e-02 1.9686209796e+00 -3.4097515575e+00 1.9686209796e+00 3.4097515575e+00 
28100 4.5857566903e+00 1.9367523608e-02 1.9681225548e+00 -3.4088882605e+00 1.9681225548e+00 3.4088882605e+00 
28200 4.5857481529e+00 1.9113168626e-02 1.9676305449e+00 -3.4080360743e+00 1.9676305449e+00 3.4080360743e+00 
28300 4.5857398449e+00 1.8861915404e-02 1.9671448749e+00 -3.4071948692e+00 1.9671448749e+00 3.4071948692e+00 
28400 4.5857317604e+00 1.8613728453e-02 1.9666654708e+00 -3.4063645168e+00 1.9666654708e+00 3.4063645168e+00 
28500 4.5857238939e+00 1.8368573080e-02 1.9661922591e+00 -3.4055448901e+00 1.9661922591e+00 3.4055448901e+00 
28600 4.5857162395e+00 1.8126415353e-02 1.9657251673e+00 -3.4047358634e+00 1.9657251673e+00 3.4047358634e+00 
28700 4.5857087920e+00 1.7887222058e-02 1.9652641235e+00 -3.4039373122e+00 1.9652641235e+00 3.4039373122e+00 
28800 4.5857015460e+00 1.7650960670e-02 1.9648090566e+00 -3.4031491133e+00 1.9648090566e+00 3.4031491133e+00 
28900 4.5856944962e+00 1.7417599310e-02 1.9643598962e+00 -3.4023711447e+00 1.9643598962e+00 3.4023711447e+00 
29000 4.5856876377e+00 1.7187106720e-02 1.9639165726e+00 -3.4016032856e+00 1.9639165726e+00 3.4016032856e+00 
29100 4.5856809655e+00 1.6959452222e-02 1.9634790166e+00 -3.4008454164e+00 1.9634790166e+00 3.4008454164e+00 
29200 4.5856744747e+00 1.6734605690e-02 1.9630471600e+00 -3.4000974187e+00 1.9630471600e+00 3.4000974187e+00 
29300 4.5856681606e+00 1.6512537516e-02 1.9626209348e+00 -3.3993591751e+00 1.9626209348e+00 3.3993591751e+00 
29400 4.5856620187e+00 1.6293218584e-02 1.9622002742e+00 -3.3986305695e+00 1.9622002742e+00 3.3986305695e+00 
29500 4.5856560445e+00 1.6076620238e-02 1.9617851116e+00 -3.3979114868e+00 1.9617851116e+00 3.3979114868e+00 
29600 4.5856502337e+00 1.5862714256e-02 1.9613753812e+00 -3.3972018129e+00 1.9613753812e+00 3.3972018129e+00 
29700 4.5856445818e+00 1.5651472822e-02 1.9609710178e+00 -3.3965014349e+00 1.9609710178e+00 3.3965014349e+00 
29800 4.5856390849e+00 1.5442868502e-02 1.9605719567e+00 -3.3958102410e+00 1.9605719567e+00 3.3958102410e+00 
29900 4.5856337388e+00 1.5236874222e-02 1.9601781341e+00 -3.3951281202e+00 1.9601781341e+00 3.3951281202e+00 
30000 4.5856285396e+00 1.5033463240e-02 1.9597894865e+00 -3.3944549628e+00 1.9597894865e+00 3.3944549628e+00 
30100 4.5856234834e+00 1.4832609128e-02 1.9594059511e+00 -3.3937906600e+00 1.9594059511e+00 3.3937906600e+00 
30200 4.5856185666e+00 1.4634285751e-02 1.9590274657e+00 -3.3931351040e+00 1.9590274657e+00 3.3931351040e+00 
30300 4.5856137853e+00 1.4438467246e-02 1.9586539686e+00 -3.3924881881e+00 1.9586539686e+00 3.3924881881e+00 
30400 4.5856091361e+00 1.4245128007e-02 1.9582853988e+00 -3.3918498065e+00 1.9582853988e+00 3.3918498065e+00 
30500 4.5856046154e+00 1.4054242664e-02 1.9579216958e+00 -3.3912198544e+00 1.9579216958e+00 3.3912198544e+00 
30600 4.5856002198e+00 1.3865786070e-02 1.9575627996e+00 -3.3905982279e+00 1.9575627996e+00 3.3905982279e+00 
30700 4.5855959462e+00 1.3679733286e-02 1.9572086509e+00 -3.3899848243e+00 1.9572086509e+00 3.3899848243e+00 
30800 4.5855917911e+00 1.3496059564e-02 1.9568591908e+00 -3.3893795417e+00 1.9568591908e+00 3.3893795417e+00 
30900 4.5855877515e+00 1.3314740338e-02 1.9565143611e+00 -3.3887822791e+00 1.9565143611e+00 3.3887822791e+00 
31000 4.5855838242e+00 1.3135751212e-02 1.9561741041e+00 -3.3881929367e+00 1.9561741041e+00 3.3881929367e+00 
31100 4.5855800064e+00 1.2959067947e-02 1.9558383626e+00 -3.3876114154e+00 1.9558383626e+00 3.3876114154e+00 
31200 4.5855762951e+00 1.2784666451e-02 1.9555070801e+00 -3.3870376172e+00 1.9555070801e+00 3.3870376172e+00 
31300 4.5855726874e+00 1.2612522775e-02 1.9551802004e+00 -3.3864714450e+00 1.9551802004e+00 3.3864714450e+00 
31400 4.5855691806e+00 1.2442613098e-02 1.9548576681e+00 -3.3859128027e+00 1.9548576681e+00 3.3859128027e+00 
31500 4.5855657720e+00 1.2274913728e-02 1.9545394281e+00 -3.3853615949e+00 1.9545394281e+00 3.3853615949e+00 
31600 4.5855624590e+00 1.2109401087e-02 1.9542254262e+00 -3.3848177275e+00 1.9542254262e+00 3.3848177275e+00 
31700 4.5855592390e+00 1.1946051713e-02 1.9539156082e+00 -3.3842811072e+00 1.9539156082e+00 3.3842811072e+00 
31800 4.5855561094e+00 1.1784842251e-02 1.9536099210e+00 -3.3837516414e+00 1.9536099210e+00 3.3837516414e+00 
31900 4.5855530680e+00 1.1625749450e-02 1.9533083117e+00 -3.3832292387e+00 1.9533083117e+00 3.3832292387e+00 
32000 4.5855501123e+00 1.1468750163e-02 1.9530107280e+00 -3.3827138087e+00 1.9530107280e+00 3.3827138087e+00 
32100 4.5855472399e+00 1.1313821337e-02 1.9527171182e+00 -3.3822052615e+00 1.9527171182e+00 3.3822052615e+00 
32200 4.5855444488e+00 1.1160940020e-02 1.9524274310e+00 -3.3817035086e+00 1.9524274310e+00 3.3817035086e+00 
32300 4.5855417366e+00 1.1010083353e-02 1.9521416159e+00 -3.3812084622e+00 1.9521416159e+00 3.3812084622e+00 
32400 4.5855391013e+00 1.0861228572e-02 1.9518596225e+00 -3.3807200355e+00 1.9518596225e+00 3.3807200355e+00 
32500 4.5855365407e+00 1.0714353006e-02 1.9515814014e+00 -3.3802381424e+00 1.9515814014e+00 3.3802381424e+00 
32600 4.5855340529e+00 1.0569434080e-02 1.9513069035e+00 -3.3797626980e+00 1.9513069035e+00 3.3797626980e+00 
32700 4.5855316359e+00 1.0426449314e-02 1.9510360801e+00 -3.3792936182e+00 1.9510360801e+00 3.3792936182e+00 
32800 4.5855292878e+00 1.0285376321e-02 1.9507688834e+00 -3.3788308198e+00 1.9507688834e+00 3.3788308198e+00 
32900 4.5855270067e+00 1.0146192815e-02 1.9505052656e+00 -3.3783742205e+00 1.9505052656e+00 3.3783742205e+00 
33000 4.5855247908e+00 1.0008876607e-02 1.9502451800e+00 -3.3779237390e+00 1.9502451800e+00 3.3779237390e+00 
33100 4.5855226384e+00 9.8734056105e-03 1.9499885801e+00 -3.3774792948e+00 1.9499885801e+00 3.3774792948e+00 
33200 4.5855205476e+00 9.7397578409e-03 1.9497354198e+00 -3.3770408084e+00 1.9497354198e+00 3.3770408084e+00 
33300 4.5855185169e+00 9.6079114210e-03 1.9494856539e+00 -3.3766082011e+00 1.9494856539e+00 3.3766082011e+00 
33400 4.5855165446e+00 9.4778445822e-03 1.9492392374e+00 -3.3761813952e+00 1.9492392374e+00 3.3761813952e+00 
33500 4.5855146291e+00 9.3495356682e-03 1.9489961259e+00 -3.3757603138e+00 1.9489961259e+00 3.3757603138e+00 
33600 4.5855127689e+00 9.2229631380e-03 1.9487562757e+00 -3.3753448810e+00 1.9487562757e+00 3.3753448810e+00 
33700 4.5855109624e+00 9.0981055690e-03 1.9485196433e+00 -3.3749350217e+00 1.9485196433e+00 3.3749350217e+00 
33800 4.5855092082e+00 8.9749416611e-03 1.9482861860e+00 -3.3745306618e+00 1.9482861860e+00 3.3745306618e+00 
33900 4.5855075049e+00 8.8534502400e-03 1.9480558614e+00 -3.3741317279e+00 1.9480558614e+00 3.3741317279e+00 
34000 4.5855058511e+00 8.7336102606e-03 1.9478286277e+00 -3.3737381476e+00 1.9478286277e+00 3.3737381476e+00 
34100 4.5855042454e+00 8.6154008114e-03 1.9476044436e+00 -3.3733498494e+00 1.9476044436e+00 3.3733498494e+00 
34200 4.5855026865e+00 8.4988011175e-03 1.9473832684e+00 -3.3729667626e+00 1.9473832684e+00 3.3729667626e+00 
34300 4.5855011732e+00 8.3837905451e-03 1.9471650617e+00 -3.3725888175e+00 1.9471650617e+00 3.3725888175e+00 
34400 4.5854997041e+00 8.2703486047e-03 1.9469497837e+00 -3.3722159451e+00 1.9469497837e+00 3.3722159451e+00 
34500 4.5854982781e+00 8.1584549553e-03 1.9467373951e+00 -3.3718480772e+00 1.9467373951e+00 3.3718480772e+00 
34600 4.5854968940e+00 8.0480894078e-03 1.9465278571e+00 -3.3714851468e+00 1.9465278571e+00 3.3714851468e+00 
34700 4.5854955506e+00 7.9392319290e-03 1.9463211314e+00 -3.3711270874e+00 1.9463211314e+00 3.3711270874e+00 
34800 4.5854942469e+00 7.8318626448e-03 1.9461171801e+00 -3.3707738334e+00 1.9461171801e+00 3.3707738334e+00 
34900 4.5854929816e+00 7.7259618442e-03 1.9459159659e+00 -3.3704253202e+00 1.9459159659e+00 3.3704253202e+00 
35000 4.5854917538e+00 7.6215099822e-03 1.9457174519e+00 -3.3700814839e+00 1.9457174519e+00 3.3700814839e+00 
35100 4.5854905625e+00 7.5184876838e-03 1.9455216018e+00 -3.3697422615e+00 1.9455216018e+00 3.3697422615e+00 
35200 4.5854894065e+00 7.4168757466e-03 1.9453283795e+00 -3.3694075906e+00 1.9453283795e+00 3.3694075906e+00 
35300 4.5854882850e+00 7.3166551442e-03 1.9451377496e+00 -3.3690774100e+00 1.9451377496e+00 3.3690774100e+00 
35400 4.5854871970e+00 7.2178070290e-03 1.9449496771e+00 -3.3687516589e+00 1.9449496771e+00 3.3687516589e+00 
35500 4.5854861415e+00 7.1203127353e-03 1.9447641275e+00 -3.3684302776e+00 1.9447641275e+00 3.3684302776e+00 
35600 4.5854851177e+00 7.0241537819e-03 1.9445810667e+00 -3.3681132070e+00 1.9445810667e+00 3.3681132070e+00 
35700 4.5854841246e+00 6.9293118743e-03 1.9444004611e+00 -3.3678003889e+00 1.9444004611e+00 3.3678003889e+00 
35800 4.5854831615e+00 6.8357689075e-03 1.9442222775e+00 -3.3674917658e+00 1.9442222775e+00 3.3674917658e+00 
35900 4.5854822275e+00 6.7435069680e-03 1.9440464832e+00 -3.3671872811e+00 1.9440464832e+00 3.3671872811e+00 
36000 4.5854813217e+00 6.6525083360e-03 1.9438730458e+00 -3.3668868787e+00 1.9438730458e+00 3.3668868787e+00 
36100 4.5854804434e+00 6.5627554868e-03 1.9437019335e+00 -3.3665905036e+00 1.9437019335e+00 3.3665905036e+00 
36200 4.5854795919e+00 6.4742310934e-03 1.9435331149e+00 -3.3662981012e+00 1.9435331149e+00 3.3662981012e+00 
36300 4.5854787663e+00 6.3869180272e-03 1.9433665590e+00 -3.3660096179e+00 1.9433665590e+00 3.3660096179e+00 
36400 4.5854779659e+00 6.3007993596e-03 1.9432022352e+00 -3.3657250007e+00 1.9432022352e+00 3.3657250007e+00 
36500 4.5854771901e+00 6.2158583636e-03 1.9430401133e+00 -3.3654441974e+00 1.9430401133e+00 3.3654441974e+00 
36600 4.5854764381e+00 6.1320785144e-03 1.9428801636e+00 -3.3651671564e+00 1.9428801636e+00 3.3651671564e+00 
36700 4.5854757093e+00 6.0494434902e-03 1.9427223568e+00 -3.3648938270e+00 1.9427223568e+00 3.3648938270e+00 
36800 4.5854750030e+00 5.9679371732e-03 1.9425666639e+00 -3.3646241589e+00 1.9425666639e+00 3.3646241589e+00 
36900 4.5854743186e+00 5.8875436500e-03 1.9424130563e+00 -3.3643581028e+00 1.9424130563e+00 3.3643581028e+00 
37000 4.5854736555e+00 5.8082472118e-03 1.9422615060e+00 -3.3640956099e+00 1.9422615060e+00 3.3640956099e+00 
37100 4.5854730130e+00 5.7300323548e-03 1.9421119851e+00 -3.3638366322e+00 1.9421119851e+00 3.3638366322e+00 
37200 4.5854723907e+00 5.6528837800e-03 1.9419644663e+00 -3.3635811221e+00 1.9419644663e+00 3.3635811221e+00 
37300 4.5854717878e+00 5.5767863933e-03 1.9418189226e+00 -3.3633290331e+00 1.9418189226e+00 3.3633290331e+00 
37400 4.5854712039e+00 5.5017253052e-03 1.9416753274e+00 -3.3630803189e+00 1.9416753274e+00 3.3630803189e+00 
37500 4.5854706384e+00 5.4276858302e-03 1.9415336544e+00 -3.3628349341e+00 1.9415336544e+00 3.3628349341e+00 
37600 4.5854700908e+00 5.3546534862e-03 1.9413938778e+00 -3.3625928339e+00 1.9413938778e+00 3.3625928339e+00 
37700 4.5854695606e+00 5.2826139939e-03 1.9412559720e+00 -3.3623539740e+00 1.9412559720e+00 3.3623539740e+00 
37800 4.5854690473e+00 5.2115532763e-03 1.9411199118e+00 -3.3621183109e+00 1.9411199118e+00 3.3621183109e+00 
37900 4.5854685505e+00 5.1414574568e-03 1.9409856725e+00 -3.3618858015e+00 1.9409856725e+00 3.3618858015e+00 
38000 4.5854680695e+00 5.0723128590e-03 1.9408532295e+00 -3.3616564035e+00 1.9408532295e+00 3.3616564035e+00 
38100 4.5854676040e+00 5.0041060051e-03 1.9407225587e+00 -3.3614300751e+00 1.9407225587e+00 3.3614300751e+00 
38200 4.5854671536e+00 4.9368236144e-03 1.9405936364e+00 -3.3612067750e+00 1.9405936364e+00 3.3612067750e+00 
38300 4.5854667178e+00 4.8704526022e-03 1.9404664390e+00 -3.3609864627e+00 1.9404664390e+00 3.3609864627e+00 
38400 4.5854662961e+00 4.8049800778e-03 1.9403409434e+00 -3.3607690979e+00 1.9403409434e+00 3.3607690979e+00 
38500 4.5854658883e+00 4.7403933433e-03 1.9402171267e+00 -3.3605546412e+00 1.9402171267e+00 3.3605546412e+00 
38600 4.5854654938e+00 4.6766798917e-03 1.9400949666e+00 -3.3603430537e+00 1.9400949666e+00 3.3603430537e+00 
38700 4.5854651123e+00 4.6138274046e-03 1.9399744408e+00 -3.3601342968e+00 1.9399744408e+00 3.3601342968e+00 
38800 4.5854647435e+00 4.5518237512e-03 1.9398555273e+00 -3.3599283327e+00 1.9398555273e+00 3.3599283327e+00 
38900 4.5854643869e+00 4.4906569852e-03 1.9397382047e+00 -3.3597251240e+00 1.9397382047e+00 3.3597251240e+00 
39000 4.5854640421e+00 4.4303153439e-03 1.9396224517e+00 -3.3595246338e+00 1.9396224517e+00 3.3595246338e+00 
39100 4.5854637090e+00 4.3707872449e-03 1.9395082472e+00 -3.3593268258e+00 1.9395082472e+00 3.3593268258e+00 
39200 4.5854633870e+00 4.3120612848e-03 1.9393955706e+00 -3.3591316642e+00 1.9393955706e+00 3.3591316642e+00 
39300 4.5854630760e+00 4.2541262364e-03 1.9392844014e+00 -3.3589391135e+00 1.9392844014e+00 3.3589391135e+00 
39400 4.5854627755e+00 4.1969710469e-03 1.9391747195e+00 -3.3587491390e+00 1.9391747195e+00 3.3587491390e+00 
39500 4.5854624853e+00 4.1405848348e-03 1.9390665052e+00 -3.3585617062e+00 1.9390665052e+00 3.3585617062e+00 
39600 4.5854622050e+00 4.0849568883e-03 1.9389597387e+00 -3.3583767812e+00 1.9389597387e+00 3.3583767812e+00 
39700 4.5854619344e+00 4.0300766625e-03 1.9388544007e+00 -3.3581943305e+00 1.9388544007e+00 3.3581943305e+00 
39800 4.5854616732e+00 3.9759337768e-03 1.9387504723e+00 -3.3580143213e+00 1.9387504723e+00 3.3580143213e+00 
39900 4.5854614211e+00 3.9225180127e-03 1.9386479347e+00 -3.3578367208e+00 1.9386479347e+00 3.3578367208e+00 
40000 4.5854611778e+00 3.8698193113e-03 1.9385467692e+00 -3.3576614971e+00 1.9385467692e+00 3.3576614971e+00 
40100 4.5854609431e+00 3.8178277705e-03 1.9384469577e+00 -3.3574886185e+00 1.9384469577e+00 3.3574886185e+00 
40200 4.5854607167e+00 3.7665336427e-03 1.9383484821e+00 -3.3573180537e+00 1.9383484821e+00 3.3573180537e+00 
40300 4.5854604984e+00 3.7159273323e-03 1.9382513246e+00 -3.3571497720e+00 1.9382513246e+00 3.3571497720e+00 
40400 4.5854602879e+00 3.6659993931e-03 1.9381554676e+00 -3.3569837429e+00 1.9381554676e+00 3.3569837429e+00 
40500 4.5854600851e+00 3.6167405255e-03 1.9380608940e+00 -3.3568199365e+00 1.9380608940e+00 3.3568199365e+00 
40600 4.5854598896e+00 3.5681415744e-03 1.9379675865e+00 -3.3566583232e+00 1.9379675865e+00 3.3566583232e+00 
40700 4.5854597013e+00 3.5201935263e-03 1.9378755284e+00 -3.3564988739e+00 1.9378755284e+00 3.3564988739e+00 
40800 4.5854595199e+00 3.4728875072e-03 1.9377847030e+00 -3.3563415597e+00 1.9377847030e+00 3.3563415597e+00 
40900 4.5854593452e+00 3.4262147794e-03 1.9376950939e+00 -3.3561863522e+00 1.9376950939e+00 3.3561863522e+00 
41000 4.5854591771e+00 3.3801667398e-03 1.9376066850e+00 -3.3560332236e+00 1.9376066850e+00 3.3560332236e+00 
41100 4.5854590153e+00 3.3347349168e-03 1.9375194604e+00 -3.3558821461e+00 1.9375194604e+00 3.3558821461e+00 
41200 4.5854588596e+00 3.2899109684e-03 1.9374334042e+00 -3.3557330924e+00 1.9374334042e+00 3.3557330924e+00 
41300 4.5854587099e+00 3.2456866791e-03 1.9373485010e+00 -3.3555860357e+00 1.9373485010e+00 3.3555860357e+00 
41400 4.5854585660e+00 3.2020539580e-03 1.9372647354e+00 -3.3554409494e+00 1.9372647354e+00 3.3554409494e+00 
41500 4.5854584276e+00 3.1590048366e-03 1.9371820923e+00 -3.3552978074e+00 1.9371820923e+00 3.3552978074e+00 
41600 4.5854582947e+00 3.1165314655e-03 1.9371005568e+00 -3.3551565837e+00 1.9371005568e+00 3.3551565837e+00 
41700 4.5854581671e+00 3.0746261134e-03 1.9370201141e+00 -3.3550172530e+00 1.9370201141e+00 3.3550172530e+00 
41800 4.5854580445e+00 3.0332811637e-03 1.9369407498e+00 -3.3548797900e+00 1.9369407498e+00 3.3548797900e+00 
41900 4.5854579269e+00 2.9924891128e-03 1.9368624495e+00 -3.3547441699e+00 1.9368624495e+00 3.3547441699e+00 
42000 4.5854578141e+00 2.9522425679e-03 1.9367851991e+00 -3.3546103682e+00 1.9367851991e+00 3.3546103682e+00 
42100 4.5854577059e+00 2.9125342447e-03 1.9367089846e+00 -3.3544783608e+00 1.9367089846e+00 3.3544783608e+00 
42200 4.5854576022e+00 2.8733569652e-03 1.9366337922e+00 -3.3543481237e+00 1.9366337922e+00 3.3543481237e+00 
42300 4.5854575029e+00 2.8347036557e-03 1.9365596084e+00 -3.3542196336e+00 1.9365596084e+00 3.3542196336e+00 
42400 4.5854574078e+00 2.7965673450e-03 1.9364864196e+00 -3.3540928670e+00 1.9364864196e+00 3.3540928670e+00 
42500 4.5854573168e+00 2.7589411618e-03 1.9364142128e+00 -3.3539678011e+00 1.9364142128e+00 3.3539678011e+00 
42600 4.5854572298e+00 2.7218183334e-03 1.9363429749e+00 -3.3538444134e+00 1.9363429749e+00 3.3538444134e+00 
42700 4.5854571466e+00 2.6851921831e-03 1.9362726929e+00 -3.3537226813e+00 1.9362726929e+00 3.3537226813e+00 
42800 4.5854570671e+00 2.6490561290e-03 1.9362033541e+00 -3.3536025830e+00 1.9362033541e+00 3.3536025830e+00 
42900 4.5854569912e+00 2.6134036817e-03 1.9361349459e+00 -3.3534840967e+00 1.9361349459e+00 3.3534840967e+00 
43000 4.5854569188e+00 2.5782284425e-03 1.9360674561e+00 -3.3533672009e+00 1.9360674561e+00 3.3533672009e+00 
43100 4.5854568497e+00 2.5435241022e-03 1.9360008723e+00 -3.3532518744e+00 1.9360008723e+00 3.3532518744e+00 
43200 4.5854567840e+00 2.5092844385e-03 1.9359351825e+00 -3.3531380963e+00 1.9359351825e+00 3.3531380963e+00 
43300 4.5854567214e+00 2.4755033150e-03 1.9358703748e+00 -3.3530258461e+00 1.9358703748e+00 3.3530258461e+00 
43400 4.5854566618e+00 2.4421746796e-03 1.9358064375e+00 -3.3529151033e+00 1.9358064375e+00 3.3529151033e+00 
43500 4.5854566052e+00 2.4092925625e-03 1.9357433588e+00 -3.3528058479e+00 1.9357433588e+00 3.3528058479e+00 
43600 4.5854565515e+00 2.3768510748e-03 1.9356811274e+00 -3.3526980599e+00 1.9356811274e+00 3.3526980599e+00 
43700 4.5854565006e+00 2.3448444074e-03 1.9356197320e+00 -3.3525917200e+00 1.9356197320e+00 3.3525917200e+00 
43800 4.5854564523e+00 2.3132668288e-03 1.9355591614e+00 -3.3524868087e+00 1.9355591614e+00 3.3524868087e+00 
43900 4.5854564066e+00 2.2821126845e-03 1.9354994047e+00 -3.3523833069e+00 1.9354994047e+00 3.3523833069e+00 
44000 4.5854563635e+00 2.2513763951e-03 1.9354404509e+00 -3.3522811959e+00 1.9354404509e+00 3.3522811959e+00 
44100 4.5854563227e+00 2.2210524550e-03 1.9353822893e+00 -3.3521804571e+00 1.9353822893e+00 3.3521804571e+00 
44200 4.5854562843e+00 2.1911354314e-03 1.9353249094e+00 -3.3520810722e+00 1.9353249094e+00 3.3520810722e+00 
44300 4.5854562482e+00 2.1616199627e-03 1.9352683007e+00 -3.3519830231e+00 1.9352683007e+00 3.3519830231e+00 
44400 4.5854562143e+00 2.1325007576e-03 1.9352124529e+00 -3.3518862918e+00 1.9352124529e+00 3.3518862918e+00 
44500 4.5854561825e+00 2.1037725936e-03 1.9351573558e+00 -3.3517908609e+00 1.9351573558e+00 3.3517908609e+00 
44600 4.5854561527e+00 2.0754303161e-03 1.9351029994e+00 -3.3516967129e+00 1.9351029994e+00 3.3516967129e+00 
44700 4.5854561249e+00 2.0474688371e-03 1.9350493738e+00 -3.3516038307e+00 1.9350493738e+00 3.3516038307e+00 
44800 4.5854560990e+00 2.0198831344e-03 1.9349964693e+00 -3.3515121972e+00 1.9349964693e+00 3.3515121972e+00 
44900 4.5854560749e+00 1.9926682503e-03 1.9349442760e+00 -3.3514217959e+00 1.9349442760e+00 3.3514217959e+00 
45000 4.5854560527e+00 1.9658192904e-03 1.9348927847e+00 -3.3513326102e+00 1.9348927847e+00 3.3513326102e+00 
45100 4.5854560321e+00 1.9393314233e-03 1.9348419857e+00 -3.3512446238e+00 1.9348419857e+00 3.3512446238e+00 
45200 4.5854560132e+00 1.9131998789e-03 1.9347918699e+00 -3.3511578207e+00 1.9347918699e+00 3.3511578207e+00 
45300 4.5854559960e+00 1.8874199478e-03 1.9347424281e+00 -3.3510721850e+00 1.9347424281e+00 3.3510721850e+00 
45400 4.5854559802e+00 1.8619869807e-03 1.9346936513e+00 -3.3509877011e+00 1.9346936513e+00 3.3509877011e+00 
45500 4.5854559660e+00 1.8368963868e-03 1.9346455305e+00 -3.3509043535e+00 1.9346455305e+00 3.3509043535e+00 
45600 4.5854559531e+00 1.8121436337e-03 1.9345980570e+00 -3.3508221269e+00 1.9345980570e+00 3.3508221269e+00 
45700 4.5854559417e+00 1.7877242462e-03 1.9345512220e+00 -3.3507410064e+00 1.9345512220e+00 3.3507410064e+00 
45800 4.5854559316e+00 1.7636338055e-03 1.9345050171e+00 -3.3506609770e+00 1.9345050171e+00 3.3506609770e+00 
45900 4.5854559228e+00 1.7398679485e-03 1.9344594336e+00 -3.3505820242e+00 1.9344594336e+00 3.3505820242e+00 
46000 4.5854559153e+00 1.7164223670e-03 1.9344144634e+00 -3.3505041335e+00 1.9344144634e+00 3.3505041335e+00 
46100 4.5854559089e+00 1.6932928073e-03 1.9343700982e+00 -3.3504272907e+00 1.9343700982e+00 3.3504272907e+00 
46200 4.5854559037e+00 1.6704750688e-03 1.9343263298e+00 -3.3503514815e+00 1.9343263298e+00 3.3503514815e+00 
46300 4.5854558995e+00 1.6479650040e-03 1.9342831501e+00 -3.3502766923e+00 1.9342831501e+00 3.3502766923e+00 
46400 4.5854558965e+00 1.6257585175e-03 1.9342405514e+00 -3.3502029092e+00 1.9342405514e+00 3.3502029092e+00 
46500 4.5854558945e+00 1.6038515654e-03 1.9341985258e+00 -3.3501301187e+00 1.9341985258e+00 3.3501301187e+00 
46600 4.5854558935e+00 1.5822401546e-03 1.9341570656e+00 -3.3500583075e+00 1.9341570656e+00 3.3500583075e+00 
46700 4.5854558934e+00 1.5609203424e-03 1.9341161632e+00 -3.3499874624e+00 1.9341161632e+00 3.3499874624e+00 
46800 4.5854558942e+00 1.5398882355e-03 1.9340758110e+00 -3.3499175704e+00 1.9340758110e+00 3.3499175704e+00 
46900 4.5854558959e+00 1.5191399899e-03 1.9340360018e+00 -3.3498486187e+00 1.9340360018e+00 3.3498486187e+00 
47000 4.5854558985e+00 1.4986718099e-03 1.9339967281e+00 -3.3497805947e+00 1.9339967281e+00 3.3497805947e+00 
47100 4.5854559018e+00 1.4784799478e-03 1.9339579827e+00 -3.3497134858e+00 1.9339579827e+00 3.3497134858e+00 
47200 4.5854559059e+00 1.4585607034e-03 1.9339197587e+00 -3.3496472798e+00 1.9339197587e+00 3.3496472798e+00 
47300 4.5854559108e+00 1.4389104230e-03 1.9338820488e+00 -3.3495819644e+00 1.9338820488e+00 3.3495819644e+00 
47400 4.5854559164e+00 1.4195254995e-03 1.9338448463e+00 -3.3495175278e+00 1.9338448463e+00 3.3495175278e+00 
47500 4.5854559227e+00 1.4004023713e-03 1.9338081443e+00 -3.3494539580e+00 1.9338081443e+00 3.3494539580e+00 
47600 4.5854559296e+00 1.3815375224e-03 1.9337719360e+00 -3.3493912434e+00 1.9337719360e+00 3.3493912434e+00 
47700 4.5854559372e+00 1.3629274813e-03 1.9337362148e+00 -3.3493293724e+00 1.9337362148e+00 3.3493293724e+00 
47800 4.5854559454e+00 1.3445688208e-03 1.9337009741e+00 -3.3492683338e+00 1.9337009741e+00 3.3492683338e+00 
47900 4.5854559541e+00 1.3264581577e-03 1.9336662075e+00 -3.3492081162e+00 1.9336662075e+00 3.3492081162e+00 
48000 4.5854559634e+00 1.3085921520e-03 1.9336319085e+00 -3.3491487087e+00 1.9336319085e+00 3.3491487087e+00 
48100 4.5854559732e+00 1.2909675064e-03 1.9335980710e+00 -3.3490901003e+00 1.9335980710e+00 3.3490901003e+00 
48200 4.5854559836e+00 1.2735809662e-03 1.9335646885e+00 -3.3490322803e+00 1.9335646885e+00 3.3490322803e+00 
48300 4.5854559944e+00 1.2564293186e-03 1.9335317551e+00 -3.3489752379e+00 1.9335317551e+00 3.3489752379e+00 
48400 4.5854560056e+00 1.2395093921e-03 1.9334992647e+00 -3.3489189628e+00 1.9334992647e+00 3.3489189628e+00 
48500 4.5854560173e+00 1.2228180565e-03 1.9334672113e+00 -3.3488634447e+00 1.9334672113e+00 3.3488634447e+00 
48600 4.5854560294e+00 1.2063522221e-03 1.9334355889e+00 -3.3488086732e+00 1.9334355889e+00 3.3488086732e+00 
48700 4.5854560420e+00 1.1901088392e-03 1.9334043919e+00 -3.3487546383e+00 1.9334043919e+00 3.3487546383e+00 
48800 4.5854560548e+00 1.1740848980e-03 1.9333736144e+00 -3.3487013302e+00 1.9333736144e+00 3.3487013302e+00 
48900 4.5854560681e+00 1.1582774280e-03 1.9333432509e+00 -3.3486487390e+00 1.9333432509e+00 3.3486487390e+00 
49000 4.5854560817e+00 1.1426834975e-03 1.9333132957e+00 -3.3485968550e+00 1.9333132957e+00 3.3485968550e+00 
49100 4.5854560956e+00 1.1273002134e-03 1.9332837433e+00 -3.3485456688e+00 1.9332837433e+00 3.3485456688e+00 
49200 4.5854561098e+00 1.1121247203e-03 1.9332545883e+00 -3.3484951709e+00 1.9332545883e+00 3.3484951709e+00 
49300 4.5854561243e+00 1.0971542009e-03 1.9332258253e+00 -3.3484453520e+00 1.9332258253e+00 3.3484453520e+00 
49400 4.5854561391e+00 1.0823858747e-03 1.9331974491e+00 -3.3483962030e+00 1.9331974491e+00 3.3483962030e+00 
49500 4.5854561541e+00 1.0678169983e-03 1.9331694545e+00 -3.3483477149e+00 1.9331694545e+00 3.3483477149e+00 
49600 4.5854561694e+00 1.0534448645e-03 1.9331418363e+00 -3.3482998787e+00 1.9331418363e+00 3.3482998787e+00 
49700 4.5854561849e+00 1.0392668021e-03 1.9331145894e+00 -3.3482526857e+00 1.9331145894e+00 3.3482526857e+00 
49800 4.5854562006e+00 1.0252801757e-03 1.9330877088e+00 -3.3482061271e+00 1.9330877088e+00 3.3482061271e+00 
49900 4.5854562165e+00 1.0114823848e-03 1.9330611896e+00 -3.3481601946e+00 1.9330611896e+00 3.3481601946e+00 
50000 4.5854562326e+00 9.9787086405e-04 1.9330350270e+00 -3.3481148795e+00 1.9330350270e+00 3.3481148795e+00 
50100 4.5854562489e+00 9.8444308215e-04 1.9330092161e+00 -3.3480701737e+00 1.9330092161e+00 3.3480701737e+00 
50200 4.5854562654e+00 9.7119654201e-04 1.9329837521e+00 -3.3480260689e+00 1.9329837521e+00 3.3480260689e+00 
50300 4.5854562820e+00 9.5812878011e-04 1.9329586305e+00 -3.3479825569e+00 1.9329586305e+00 3.3479825569e+00 
50400 4.5854562987e+00 9.4523736614e-04 1.9329338465e+00 -3.3479396298e+00 1.9329338465e+00 3.3479396298e+00 
50500 4.5854563156e+00 9.3251990267e-04 1.9329093957e+00 -3.3478972798e+00 1.9329093957e+00 3.3478972798e+00 
50600 4.5854563325e+00 9.1997402468e-04 1.9328852736e+00 -3.3478554991e+00 1.9328852736e+00 3.3478554991e+00 
50700 4.5854563496e+00 9.0759739924e-04 1.9328614757e+00 -3.3478142799e+00 1.9328614757e+00 3.3478142799e+00 
50800 4.5854563668e+00 8.9538772512e-04 1.9328379977e+00 -3.3477736148e+00 1.9328379977e+00 3.3477736148e+00 
50900 4.5854563841e+00 8.8334273238e-04 1.9328148352e+00 -3.3477334962e+00 1.9328148352e+00 3.3477334962e+00 
51000 4.5854564015e+00 8.7146018200e-04 1.9327919840e+00 -3.3476939168e+00 1.9327919840e+00 3.3476939168e+00 
51100 4.5854564189e+00 8.5973786553e-04 1.9327694400e+00 -3.3476548694e+00 1.9327694400e+00 3.3476548694e+00 
51200 4.5854564364e+00 8.4817360469e-04 1.9327471990e+00 -3.3476163468e+00 1.9327471990e+00 3.3476163468e+00 
51300 4.5854564540e+00 8.3676525101e-04 1.9327252568e+00 -3.3475783419e+00 1.9327252568e+00 3.3475783419e+00 
51400 4.5854564716e+00 8.2551068543e-04 1.9327036096e+00 -3.3475408478e+00 1.9327036096e+00 3.3475408478e+00 
51500 4.5854564892e+00 8.1440781797e-04 1.9326822533e+00 -3.3475038575e+00 1.9326822533e+00 3.3475038575e+00 
51600 4.5854565069e+00 8.0345458736e-04 1.9326611839e+00 -3.3474673644e+00 1.9326611839e+00 3.3474673644e+00 
51700 4.5854565246e+00 7.9264896064e-04 1.9326403977e+00 -3.3474313616e+00 1.9326403977e+00 3.3474313616e+00 
51800 4.5854565423e+00 7.8198893282e-04 1.9326198909e+00 -3.3473958427e+00 1.9326198909e+00 3.3473958427e+00 
51900 4.5854565600e+00 7.7147252653e-04 1.9325996596e+00 -3.3473608011e+00 1.9325996596e+00 3.3473608011e+00 
52000 4.5854565778e+00 7.6109779164e-04 1.9325797002e+00 -3.3473262304e+00 1.9325797002e+00 3.3473262304e+00 
52100 4.5854565955e+00 7.5086280493e-04 1.9325600090e+00 -3.3472921242e+00 1.9325600090e+00 3.3472921242e+00 
52200 4.5854566132e+00 7.4076566970e-04 1.9325405824e+00 -3.3472584764e+00 1.9325405824e+00 3.3472584764e+00 
52300 4.5854566310e+00 7.3080451547e-04 1.9325214168e+00 -3.3472252806e+00 1.9325214168e+00 3.3472252806e+00 
52400 4.5854566487e+00 7.2097749757e-04 1.9325025088e+00 -3.3471925310e+00 1.9325025088e+00 3.3471925310e+00 
52500 4.5854566663e+00 7.1128279685e-04 1.9324838548e+00 -3.3471602214e+00 1.9324838548e+00 3.3471602214e+00 
52600 4.5854566840e+00 7.0171861931e-04 1.9324654515e+00 -3.3471283459e+00 1.9324654515e+00 3.3471283459e+00 
52700 4.5854567016e+00 6.9228319576e-04 1.9324472955e+00 -3.3470968988e+00 1.9324472955e+00 3.3470968988e+00 
52800 4.5854567192e+00 6.8297478149e-04 1.9324293835e+00 -3.3470658742e+00 1.9324293835e+00 3.3470658742e+00 
52900 4.5854567368e+00 6.7379165593e-04 1.9324117121e+00 -3.3470352665e+00 1.9324117121e+00 3.3470352665e+00 
53000 4.5854567543e+00 6.6473212231e-04 1.9323942781e+00 -3.3470050700e+00 1.9323942781e+00 3.3470050700e+00 
53100 4.5854567717e+00 6.5579450738e-04 1.9323770785e+00 -3.3469752793e+00 1.9323770785e+00 3.3469752793e+00 
53200 4.5854567891e+00 6.4697716100e-04 1.9323601099e+00 -3.3469458889e+00 1.9323601099e+00 3.3469458889e+00 
53300 4.5854568065e+00 6.3827845590e-04 1.9323433693e+00 -3.3469168934e+00 1.9323433693e+00 3.3469168934e+00 
53400 4.5854568237e+00 6.2969678732e-04 1.9323268537e+00 -3.3468882874e+00 1.9323268537e+00 3.3468882874e+00 
53500 4.5854568410e+00 6.2123057267e-04 1.9323105600e+00 -3.3468600659e+00 1.9323105600e+00 3.3468600659e+00 
53600 4.5854568581e+00 6.1287825130e-04 1.9322944852e+00 -3.3468322235e+00 1.9322944852e+00 3.3468322235e+00 
53700 4.5854568752e+00 6.0463828409e-04 1.9322786264e+00 -3.3468047553e+00 1.9322786264e+00 3.3468047553e+00 
53800 4.5854568922e+00 5.9650915322e-04 1.9322629807e+00 -3.3467776561e+00 1.9322629807e+00 3.3467776561e+00 
53900 4.5854569092e+00 5.8848936183e-04 1.9322475452e+00 -3.3467509211e+00 1.9322475452e+00 3.3467509211e+00 
54000 4.5854569261e+00 5.8057743374e-04 1.9322323171e+00 -3.3467245453e+00 1.9322323171e+00 3.3467245453e+00 
54100 4.5854569429e+00 5.7277191313e-04 1.9322172936e+00 -3.3466985238e+00 1.9322172936e+00 3.3466985238e+00 
54200 4.5854569596e+00 5.6507136429e-04 1.9322024720e+00 -3.3466728521e+00 1.9322024720e+00 3.3466728521e+00 
54300 4.5854569762e+00 5.5747437127e-04 1.9321878496e+00 -3.3466475252e+00 1.9321878496e+00 3.3466475252e+00 
54400 4.5854569927e+00 5.4997953765e-04 1.9321734236e+00 -3.3466225387e+00 1.9321734236e+00 3.3466225387e+00 
54500 4.5854570092e+00 5.4258548625e-04 1.9321591915e+00 -3.3465978880e+00 1.9321591915e+00 3.3465978880e+00 
54600 4.5854570255e+00 5.3529085882e-04 1.9321451506e+00 -3.3465735684e+00 1.9321451506e+00 3.3465735684e+00 
54700 4.5854570418e+00 5.2809431580e-04 1.9321312984e+00 -3.3465495757e+00 1.9321312984e+00 3.3465495757e+00 
54800 4.5854570580e+00 5.2099453602e-04 1.9321176323e+00 -3.3465259053e+00 1.9321176323e+00 3.3465259053e+00 
54900 4.5854570740e+00 5.1399021648e-04 1.9321041498e+00 -3.3465025530e+00 1.9321041498e+00 3.3465025530e+00 
55000 4.5854570900e+00 5.0708007202e-04 1.9320908485e+00 -3.3464795145e+00 1.9320908485e+00 3.3464795145e+00 
55100 4.5854571059e+00 5.0026283512e-04 1.9320777260e+00 -3.3464567855e+00 1.9320777260e+00 3.3464567855e+00 
55200 4.5854571217e+00 4.9353725562e-04 1.9320647797e+00 -3.3464343620e+00 1.9320647797e+00 3.3464343620e+00 
55300 4.5854571374e+00 4.8690210046e-04 1.9320520075e+00 -3.3464122398e+00 1.9320520075e+00 3.3464122398e+00 
55400 4.5854571530e+00 4.8035615344e-04 1.9320394068e+00 -3.3463904149e+00 1.9320394068e+00 3.3463904149e+00 
55500 4.5854571684e+00 4.7389821498e-04 1.9320269755e+00 -3.3463688832e+00 1.9320269755e+00 3.3463688832e+00 
55600 4.5854571838e+00 4.6752710187e-04 1.9320147113e+00 -3.3463476409e+00 1.9320147113e+00 3.3463476409e+00 
55700 4.5854571991e+00 4.6124164703e-04 1.9320026118e+00 -3.3463266840e+00 1.9320026118e+00 3.3463266840e+00 
55800 4.5854572143e+00 4.5504069930e-04 1.9319906749e+00 -3.3463060088e+00 1.9319906749e+00 3.3463060088e+00 
55900 4.5854572293e+00 4.4892312317e-04 1.9319788985e+00 -3.3462856113e+00 1.9319788985e+00 3.3462856113e+00 
56000 4.5854572443e+00 4.4288779858e-04 1.9319672803e+00 -3.3462654880e+00 1.9319672803e+00 3.3462654880e+00 
56100 4.5854572591e+00 4.3693362069e-04 1.9319558182e+00 -3.3462456351e+00 1.9319558182e+00 3.3462456351e+00 
56200 4.5854572738e+00 4.3105949966e-04 1.9319445101e+00 -3.3462260490e+00 1.9319445101e+00 3.3462260490e+00 
56300 4.5854572885e+00 4.2526436043e-04 1.9319333540e+00 -3.3462067260e+00 1.9319333540e+00 3.3462067260e+00 
56400 4.5854573030e+00 4.1954714251e-04 1.9319223479e+00 -3.3461876628e+00 1.9319223479e+00 3.3461876628e+00 
56500 4.5854573174e+00 4.1390679977e-04 1.9319114896e+00 -3.3461688557e+00 1.9319114896e+00 3.3461688557e+00 
56600 4.5854573317e+00 4.0834230023e-04 1.9319007772e+00 -3.3461503014e+00 1.9319007772e+00 3.3461503014e+00 
56700 4.5854573458e+00 4.0285262586e-04 1.9318902088e+00 -3.3461319964e+00 1.9318902088e+00 3.3461319964e+00 
56800 4.5854573599e+00 3.9743677238e-04 1.9318797825e+00 -3.3461139374e+00 1.9318797825e+00 3.3461139374e+00 
56900 4.5854573739e+00 3.9209374905e-04 1.9318694962e+00 -3.3460961210e+00 1.9318694962e+00 3.3460961210e+00 
57000 4.5854573877e+00 3.8682257852e-04 1.9318593482e+00 -3.3460785441e+00 1.9318593482e+00 3.3460785441e+00 
57100 4.5854574015e+00 3.8162229658e-04 1.9318493365e+00 -3.3460612034e+00 1.9318493365e+00 3.3460612034e+00 
57200 4.5854574151e+00 3.7649195201e-04 1.9318394594e+00 -3.3460440958e+00 1.9318394594e+00 3.3460440958e+00 
57300 4.5854574286e+00 3.7143060639e-04 1.9318297150e+00 -3.3460272180e+00 1.9318297150e+00 3.3460272180e+00 
57400 4.5854574420e+00 3.6643733391e-04 1.9318201016e+00 -3.3460105670e+00 1.9318201016e+00 3.3460105670e+00 
57500 4.5854574553e+00 3.6151122119e-04 1.9318106173e+00 -3.3459941398e+00 1.9318106173e+00 3.3459941398e+00 
57600 4.5854574685e+00 3.5665136714e-04 1.9318012606e+00 -3.3459779334e+00 1.9318012606e+00 3.3459779334e+00 
57700 4.5854574815e+00 3.5185688273e-04 1.9317920295e+00 -3.3459619448e+00 1.9317920295e+00 3.3459619448e+00 
57800 4.5854574945e+00 3.4712689087e-04 1.9317829225e+00 -3.3459461710e+00 1.9317829225e+00 3.3459461710e+00 
57900 4.5854575073e+00 3.4246052621e-04 1.9317739379e+00 -3.3459306092e+00 1.9317739379e+00 3.3459306092e+00 
58000 4.5854575200e+00 3.3785693500e-04 1.9317650740e+00 -3.3459152565e+00 1.9317650740e+00 3.3459152565e+00 
58100 4.5854575327e+00 3.3331527492e-04 1.9317563292e+00 -3.3459001101e+00 1.9317563292e+00 3.3459001101e+00 
58200 4.5854575452e+00 3.2883471490e-04 1.9317477020e+00 -3.3458851672e+00 1.9317477020e+00 3.3458851672e+00 
58300 4.5854575576e+00 3.2441443500e-04 1.9317391907e+00 -3.3458704252e+00 1.9317391907e+00 3.3458704252e+00 
58400 4.5854575699e+00 3.2005362625e-04 1.9317307937e+00 -3.3458558813e+00 1.9317307937e+00 3.3458558813e+00 
58500 4.5854575820e+00 3.1575149047e-04 1.9317225096e+00 -3.3458415328e+00 1.9317225096e+00 3.3458415328e+00 
58600 4.5854575941e+00 3.1150724015e-04 1.9317143368e+00 -3.3458273771e+00 1.9317143368e+00 3.3458273771e+00 
58700 4.5854576061e+00 3.0732009830e-04 1.9317062739e+00 -3.3458134116e+00 1.9317062739e+00 3.3458134116e+00 
58800 4.5854576179e+00 3.0318929828e-04 1.9316983192e+00 -3.3457996338e+00 1.9316983192e+00 3.3457996338e+00 
58900 4.5854576296e+00 2.9911408371e-04 1.9316904715e+00 -3.3457860411e+00 1.9316904715e+00 3.3457860411e+00 
59000 4.5854576413e+00 2.9509370828e-04 1.9316827292e+00 -3.3457726311e+00 1.9316827292e+00 3.3457726311e+00 
59100 4.5854576528e+00 2.9112743564e-04 1.9316750910e+00 -3.3457594013e+00 1.9316750910e+00 3.3457594013e+00 
59200 4.5854576642e+00 2.8721453925e-04 1.9316675553e+00 -3.3457463492e+00 1.9316675553e+00 3.3457463492e+00 
59300 4.5854576755e+00 2.8335430228e-04 1.9316601210e+00 -3.3457334725e+00 1.9316601210e+00 3.3457334725e+00 
59400 4.5854576867e+00 2.7954601742e-04 1.9316527865e+00 -3.3457207688e+00 1.9316527865e+00 3.3457207688e+00 
59500 4.5854576978e+00 2.7578898683e-04 1.9316455506e+00 -3.3457082358e+00 1.9316455506e+00 3.3457082358e+00 
59600 4.5854577088e+00 2.7208252195e-04 1.9316384119e+00 -3.3456958712e+00 1.9316384119e+00 3.3456958712e+00 
59700 4.5854577197e+00 2.6842594337e-04 1.9316313691e+00 -3.3456836728e+00 1.9316313691e+00 3.3456836728e+00 
59800 4.5854577305e+00 2.6481858079e-04 1.9316244209e+00 -3.3456716382e+00 1.9316244209e+00 3.3456716382e+00 
59900 4.5854577411e+00 2.6125977280e-04 1.9316175661e+00 -3.3456597653e+00 1.9316175661e+00 3.3456597653e+00 
60000 4.5854577517e+00 2.5774886681e-04 1.9316108034e+00 -3.3456480520e+00 1.9316108034e+00 3.3456480520e+00 
60100 4.5854577622e+00 2.5428521895e-04 1.9316041316e+00 -3.3456364960e+00 1.9316041316e+00 3.3456364960e+00 
60200 4.5854577726e+00 2.5086819392e-04 1.9315975493e+00 -3.3456250952e+00 1.9315975493e+00 3.3456250952e+00 
60300 4.5854577828e+00 2.4749716487e-04 1.9315910555e+00 -3.3456138476e+00 1.9315910555e+00 3.3456138476e+00 
60400 4.5854577930e+00 2.4417151333e-04 1.9315846490e+00 -3.3456027511e+00 1.9315846490e+00 3.3456027511e+00 
60500 4.5854578031e+00 2.4089062907e-04 1.9315783285e+00 -3.3455918037e+00 1.9315783285e+00 3.3455918037e+00 
60600 4.5854578130e+00 2.3765391000e-04 1.9315720929e+00 -3.3455810034e+00 1.9315720929e+00 3.3455810034e+00 
60700 4.5854578229e+00 2.3446076205e-04 1.9315659411e+00 -3.3455703481e+00 1.9315659411e+00 3.3455703481e+00 
60800 4.5854578327e+00 2.3131059908e-04 1.9315598719e+00 -3.3455598360e+00 1.9315598719e+00 3.3455598360e+00 
60900 4.5854578424e+00 2.2820284278e-04 1.9315538842e+00 -3.3455494650e+00 1.9315538842e+00 3.3455494650e+00 
61000 4.5854578519e+00 2.2513692254e-04 1.9315479770e+00 -3.3455392334e+00 1.9315479770e+00 3.3455392334e+00 
61100 4.5854578614e+00 2.2211227538e-04 1.9315421491e+00 -3.3455291392e+00 1.9315421491e+00 3.3455291392e+00 
61200 4.5854578708e+00 2.1912834585e-04 1.9315363995e+00 -3.3455191806e+00 1.9315363995e+00 3.3455191806e+00 
61300 4.5854578801e+00 2.1618458587e-04 1.9315307271e+00 -3.3455093557e+00 1.9315307271e+00 3.3455093557e+00 
61400 4.5854578893e+00 2.1328045475e-04 1.9315251309e+00 -3.3454996628e+00 1.9315251309e+00 3.3454996628e+00 
61500 4.5854578984e+00 2.1041541896e-04 1.9315196099e+00 -3.3454901001e+00 1.9315196099e+00 3.3454901001e+00 
61600 4.5854579074e+00 2.0758895215e-04 1.9315141630e+00 -3.3454806659e+00 1.9315141630e+00 3.3454806659e+00 
61700 4.5854579163e+00 2.0480053498e-04 1.9315087893e+00 -3.3454713583e+00 1.9315087893e+00 3.3454713583e+00 
61800 4.5854579252e+00 2.0204965508e-04 1.9315034877e+00 -3.3454621757e+00 1.9315034877e+00 3.3454621757e+00 
61900 4.5854579339e+00 1.9933580691e-04 1.9314982573e+00 -3.3454531164e+00 1.9314982573e+00 3.3454531164e+00 
62000 4.5854579425e+00 1.9665849171e-04 1.9314930972e+00 -3.3454441788e+00 1.9314930972e+00 3.3454441788e+00 
62100 4.5854579511e+00 1.9401721740e-04 1.9314880064e+00 -3.3454353612e+00 1.9314880064e+00 3.3454353612e+00 
62200 4.5854579596e+00 1.9141149848e-04 1.9314829839e+00 -3.3454266620e+00 1.9314829839e+00 3.3454266620e+00 
62300 4.5854579679e+00 1.8884085597e-04 1.9314780288e+00 -3.3454180797e+00 1.9314780288e+00 3.3454180797e+00 
62400 4.5854579762e+00 1.8630481730e-04 1.9314731403e+00 -3.3454096125e+00 1.9314731403e+00 3.3454096125e+00 
62500 4.5854579844e+00 1.8380291624e-04 1.9314683175e+00 -3.3454012591e+00 1.9314683175e+00 3.3454012591e+00 
62600 4.5854579926e+00 1.8133469280e-04 1.9314635594e+00 -3.3453930178e+00 1.9314635594e+00 3.3453930178e+00 
62700 4.5854580006e+00 1.7889969318e-04 1.9314588651e+00 -3.3453848871e+00 1.9314588651e+00 3.3453848871e+00 
62800 4.5854580086e+00 1.7649746966e-04 1.9314542339e+00 -3.3453768657e+00 1.9314542339e+00 3.3453768657e+00 
62900 4.5854580164e+00 1.7412758053e-04 1.9314496649e+00 -3.3453689519e+00 1.9314496649e+00 3.3453689519e+00 
63000 4.5854580242e+00 1.7178959003e-04 1.9314451572e+00 -3.3453611443e+00 1.9314451572e+00 3.3453611443e+00 
63100 4.5854580319e+00 1.6948306822e-04 1.9314407100e+00 -3.3453534416e+00 1.9314407100e+00 3.3453534416e+00 
63200 4.5854580395e+00 1.6720759097e-04 1.9314363226e+00 -3.3453458423e+00 1.9314363226e+00 3.3453458423e+00 
63300 4.5854580471e+00 1.6496273984e-04 1.9314319940e+00 -3.3453383449e+00 1.9314319940e+00 3.3453383449e+00 
63400 4.5854580545e+00 1.6274810202e-04 1.9314277235e+00 -3.3453309482e+00 1.9314277235e+00 3.3453309482e+00 
63500 4.5854580619e+00 1.6056327024e-04 1.9314235103e+00 -3.3453236509e+00 1.9314235103e+00 3.3453236509e+00 
63600 4.5854580692e+00 1.5840784273e-04 1.9314193537e+00 -3.3453164514e+00 1.9314193537e+00 3.3453164514e+00 
63700 4.5854580764e+00 1.5628142311e-04 1.9314152529e+00 -3.3453093486e+00 1.9314152529e+00 3.3453093486e+00 
63800 4.5854580836e+00 1.5418362036e-04 1.9314112072e+00 -3.3453023411e+00 1.9314112072e+00 3.3453023411e+00 
63900 4.5854580907e+00 1.5211404871e-04 1.9314072157e+00 -3.3452954277e+00 1.9314072157e+00 3.3452954277e+00 
64000 4.5854580977e+00 1.5007232758e-04 1.9314032778e+00 -3.3452886070e+00 1.9314032778e+00 3.3452886070e+00 
64100 4.5854581046e+00 1.4805808153e-04 1.9313993927e+00 -3.3452818779e+00 1.9313993927e+00 3.3452818779e+00 
64200 4.5854581114e+00 1.4607094019e-04 1.9313955598e+00 -3.3452752391e+00 1.9313955598e+00 3.3452752391e+00 
64300 4.5854581182e+00 1.4411053816e-04 1.9313917783e+00 -3.3452686894e+00 1.9313917783e+00 3.3452686894e+00 
64400 4.5854581249e+00 1.4217651499e-04 1.9313880476e+00 -3.3452622275e+00 1.9313880476e+00 3.3452622275e+00 
64500 4.5854581315e+00 1.4026851508e-04 1.9313843669e+00 -3.3452558524e+00 1.9313843669e+00 3.3452558524e+00 
64600 4.5854581381e+00 1.3838618763e-04 1.9313807356e+00 -3.3452495628e+00 1.9313807356e+00 3.3452495628e+00 
64700 4.5854581446e+00 1.3652918657e-04 1.9313771530e+00 -3.3452433576e+00 1.9313771530e+00 3.3452433576e+00 
64800 4.5854581510e+00 1.3469717051e-04 1.9313736185e+00 -3.3452372357e+00 1.9313736185e+00 3.3452372357e+00 
64900 4.5854581573e+00 1.3288980266e-04 1.9313701314e+00 -3.3452311959e+00 1.9313701314e+00 3.3452311959e+00 
65000 4.5854581636e+00 1.3110675079e-04 1.9313666911e+00 -3.3452252371e+00 1.9313666911e+00 3.3452252371e+00 
65100 4.5854581698e+00 1.2934768713e-04 1.9313632970e+00 -3.3452193583e+00 1.9313632970e+00 3.3452193583e+00 
65200 4.5854581759e+00 1.2761228838e-04 1.9313599484e+00 -3.3452135583e+00 1.9313599484e+00 3.3452135583e+00 
65300 4.5854581820e+00 1.2590023556e-04 1.9313566447e+00 -3.3452078362e+00 1.9313566447e+00 3.3452078362e+00 
65400 4.5854581880e+00 1.2421121402e-04 1.9313533853e+00 -3.3452021908e+00 1.9313533853e+00 3.3452021908e+00 
65500 4.5854581939e+00 1.2254491338e-04 1.9313501697e+00 -3.3451966211e+00 1.9313501697e+00 3.3451966211e+00 
65600 4.5854581998e+00 1.2090102743e-04 1.9313469972e+00 -3.3451911261e+00 1.9313469972e+00 3.3451911261e+00 
65700 4.5854582056e+00 1.1927925410e-04 1.9313438672e+00 -3.3451857049e+00 1.9313438672e+00 3.3451857049e+00 
65800 4.5854582114e+00 1.1767929542e-04 1.9313407792e+00 -3.3451803563e+00 1.9313407792e+00 3.3451803563e+00 
65900 4.5854582171e+00 1.1610085741e-04 1.9313377326e+00 -3.3451750795e+00 1.9313377326e+00 3.3451750795e+00 
66000 4.5854582227e+00 1.1454365012e-04 1.9313347269e+00 -3.3451698735e+00 1.9313347269e+00 3.3451698735e+00 
66100 4.5854582282e+00 1.1300738746e-04 1.9313317615e+00 -3.3451647372e+00 1.9313317615e+00 3.3451647372e+00 
66200 4.5854582337e+00 1.1149178725e-04 1.9313288359e+00 -3.3451596699e+00 1.9313288359e+00 3.3451596699e+00 
66300 4.5854582392e+00 1.0999657111e-04 1.9313259495e+00 -3.3451546705e+00 1.9313259495e+00 3.3451546705e+00 
66400 4.5854582445e+00 1.0852146442e-04 1.9313231018e+00 -3.3451497382e+00 1.9313231018e+00 3.3451497382e+00 
66500 4.5854582499e+00 1.0706619628e-04 1.9313202923e+00 -3.3451448719e+00 1.9313202923e+00 3.3451448719e+00 
66600 4.5854582551e+00 1.0563049944e-04 1.9313175205e+00 -3.3451400710e+00 1.9313175205e+00 3.3451400710e+00 
66700 4.5854582603e+00 1.0421411028e-04 1.9313147858e+00 -3.3451353344e+00 1.9313147858e+00 3.3451353344e+00 
66800 4.5854582655e+00 1.0281676872e-04 1.9313120878e+00 -3.3451306613e+00 1.9313120878e+00 3.3451306613e+00 
66900 4.5854582705e+00 1.0143821823e-04 1.9313094259e+00 -3.3451260509e+00 1.9313094259e+00 3.3451260509e+00 
67000 4.5854582756e+00 1.0007820571e-04 1.9313067998e+00 -3.3451215022e+00 1.9313067998e+00 3.3451215022e+00 
67100 4.5854582805e+00 9.8736481512e-05 1.9313042088e+00 -3.3451170146e+00 1.9313042088e+00 3.3451170146e+00 
67200 4.5854582855e+00 9.7412799340e-05 1.9313016526e+00 -3.3451125871e+00 1.9313016526e+00 3.3451125871e+00 
67300 4.5854582903e+00 9.6106916237e-05 1.9312991307e+00 -3.3451082189e+00 1.9312991307e+00 3.3451082189e+00 
67400 4.5854582951e+00 9.4818592529e-05 1.9312966425e+00 -3.3451039094e+00 1.9312966425e+00 3.3451039094e+00 
67500 4.5854582999e+00 9.3547591779e-05 1.9312941877e+00 -3.3450996575e+00 1.9312941877e+00 3.3450996575e+00 
67600 4.5854583046e+00 9.2293680744e-05 1.9312917659e+00 -3.3450954627e+00 1.9312917659e+00 3.3450954627e+00 
67700 4.5854583092e+00 9.1056629334e-05 1.9312893764e+00 -3.3450913241e+00 1.9312893764e+00 3.3450913241e+00 
67800 4.5854583138e+00 8.9836210566e-05 1.9312870190e+00 -3.3450872410e+00 1.9312870190e+00 3.3450872410e+00 
67900 4.5854583184e+00 8.8632200524e-05 1.9312846932e+00 -3.3450832125e+00 1.9312846932e+00 3.3450832125e+00 
68000 4.5854583229e+00 8.7444378315e-05 1.9312823986e+00 -3.3450792381e+00 1.9312823986e+00 3.3450792381e+00 
68100 4.5854583273e+00 8.6272526029e-05 1.9312801347e+00 -3.3450753169e+00 1.9312801347e+00 3.3450753169e+00 
68200 4.5854583317e+00 8.5116428699e-05 1.9312779011e+00 -3.3450714483e+00 1.9312779011e+00 3.3450714483e+00 
68300 4.5854583360e+00 8.3975874262e-05 1.9312756975e+00 -3.3450676315e+00 1.9312756975e+00 3.3450676315e+00 
68400 4.5854583403e+00 8.2850653512e-05 1.9312735234e+00 -3.3450638658e+00 1.9312735234e+00 3.3450638658e+00 
68500 4.5854583446e+00 8.1740560075e-05 1.9312713784e+00 -3.3450601506e+00 1.9312713784e+00 3.3450601506e+00 
68600 4.5854583488e+00 8.0645390359e-05 1.9312692622e+00 -3.3450564852e+00 1.9312692622e+00 3.3450564852e+00 
68700 4.5854583529e+00 7.9564943514e-05 1.9312671743e+00 -3.3450528689e+00 1.9312671743e+00 3.3450528689e+00 
68800 4.5854583570e+00 7.8499021407e-05 1.9312651144e+00 -3.3450493010e+00 1.9312651144e+00 3.3450493010e+00 
68900 4.5854583611e+00 7.7447428574e-05 1.9312630821e+00 -3.3450457809e+00 1.9312630821e+00 3.3450457809e+00 
69000 4.5854583651e+00 7.6409972191e-05 1.9312610770e+00 -3.3450423080e+00 1.9312610770e+00 3.3450423080e+00 
69100 4.5854583691e+00 7.5386462033e-05 1.9312590987e+00 -3.3450388816e+00 1.9312590987e+00 3.3450388816e+00 
69200 4.5854583730e+00 7.4376710437e-05 1.9312571470e+00 -3.3450355010e+00 1.9312571470e+00 3.3450355010e+00 
69300 4.5854583769e+00 7.3380532273e-05 1.9312552214e+00 -3.3450321658e+00 1.9312552214e+00 3.3450321658e+00 
69400 4.5854583807e+00 7.2397744910e-05 1.9312533216e+00 -3.3450288752e+00 1.9312533216e+00 3.3450288752e+00 
69500 4.5854583845e+00 7.1428168171e-05 1.9312514472e+00 -3.3450256287e+00 1.9312514472e+00 3.3450256287e+00 
69600 4.5854583882e+00 7.0471624318e-05 1.9312495979e+00 -3.3450224257e+00 1.9312495979e+00 3.3450224257e+00 
69700 4.5854583921e+00 7.0354354262e-05 1.9312495979e+00 -3.3450224257e+00 1.9312495979e+00 3.3450224257e+00 
69800 4.5854583959e+00 7.0245580327e-05 1.9312495979e+00 -3.3450224257e+00 1.9312495979e+00 3.3450224257e+00 
69900 4.5854583996e+00 7.0145047628e-05 1.9312495979e+00 -3.3450224257e+00 1.9312495979e+00 3.3450224257e+00 
70000 4.5854584033e+00 7.0052500730e-05 1.9312495979e+00 -3.3450224257e+00 1.9312495979e+00 3.3450224257e+00 
70100 4.5854584070e+00 6.9967683797e-05 1.9312495979e+00 -3.3450224257e+00 1.9312495979e+00 3.3450224257e+00 
70200 4.5854584106e+00 6.9890340777e-05 1.9312495979e+00 -3.3450224257e+00 1.9312495979e+00 3.3450224257e+00 
70300 4.5854584141e+00 6.9820215612e-05 1.9312495979e+00 -3.3450224257e+00 1.9312495979e+00 3.3450224257e+00 
70400 4.5854584177e+00 6.9757052479e-05 1.9312495979e+00 -3.3450224257e+00 1.9312495979e+00 3.3450224257e+00 
70500 4.5854584212e+00 6.9700596036e-05 1.9312495979e+00 -3.3450224257e+00 1.9312495979e+00 3.3450224257e+00 
70600 4.5854584246e+00 6.9650591701e-05 1.9312495979e+00 -3.3450224257e+00 1.9312495979e+00 3.3450224257e+00 
70700 4.5854584280e+00 6.9606785923e-05 1.9312495979e+00 -3.3450224257e+00 1.9312495979e+00 3.3450224257e+00 
70800 4.5854584314e+00 6.9568926474e-05 1.9312495979e+00 -3.3450224257e+00 1.9312495979e+00 3.3450224257e+00 
70900 4.5854584347e+00 6.9536762745e-05 1.9312495979e+00 -3.3450224257e+00 1.9312495979e+00 3.3450224257e+00 
71000 4.5854584380e+00 6.9510046034e-05 1.9312495979e+00 -3.3450224257e+00 1.9312495979e+00 3.3450224257e+00 
71100 4.5854584412e+00 6.9488529848e-05 1.9312495979e+00 -3.3450224257e+00 1.9312495979e+00 3.3450224257e+00 
71200 4.5854584444e+00 6.9471970192e-05 1.9312495979e+00 -3.3450224257e+00 1.9312495979e+00 3.3450224257e+00 
71300 4.5854584476e+00 6.9460125858e-05 1.9312495979e+00 -3.3450224257e+00 1.9312495979e+00 3.3450224257e+00 
71400 4.5854584507e+00 6.9452758708e-05 1.9312495979e+00 -3.3450224257e+00 1.9312495979e+00 3.3450224257e+00 
71500 4.5854584538e+00 6.9449633948e-05 1.9312495979e+00 -3.3450224257e+00 1.9312495979e+00 3.3450224257e+00 
71600 4.5854584569e+00 6.9450520386e-05 1.9312495979e+00 -3.3450224257e+00 1.9312495979e+00 3.3450224257e+00 
71700 4.5854584599e+00 6.9455190699e-05 1.9312495979e+00 -3.3450224257e+00 1.9312495979e+00 3.3450224257e+00 
71800 4.5854584629e+00 6.9463421664e-05 1.9312495979e+00 -3.3450224257e+00 1.9312495979e+00 3.3450224257e+00 
71900 4.5854584659e+00 6.9474994394e-05 1.9312495979e+00 -3.3450224257e+00 1.9312495979e+00 3.3450224257e+00 
72000 4.5854584688e+00 6.9489694553e-05 1.9312495979e+00 -3.3450224257e+00 1.9312495979e+00 3.3450224257e+00 
72100 4.5854584717e+00 6.9507312558e-05 1.9312495979e+00 -3.3450224257e+00 1.9312495979e+00 3.3450224257e+00 
72200 4.5854584745e+00 6.9527643770e-05 1.9312495979e+00 -3.3450224257e+00 1.9312495979e+00 3.3450224257e+00 
72300 4.5854584773e+00 6.9550488666e-05 1.9312495979e+00 -3.3450224257e+00 1.9312495979e+00 3.3450224257e+00 
72400 4.5854584801e+00 6.9575652997e-05 1.9312495979e+00 -3.3450224257e+00 1.9312495979e+00 3.3450224257e+00 
72500 4.5854584829e+00 6.9602947932e-05 1.9312495979e+00 -3.3450224257e+00 1.9312495979e+00 3.3450224257e+00 
72600 4.5854584856e+00 6.9632190186e-05 1.9312495979e+00 -3.3450224257e+00 1.9312495979e+00 3.3450224257e+00 
72700 4.5854584883e+00 6.9663202129e-05 1.9312495979e+00 -3.3450224257e+00 1.9312495979e+00 3.3450224257e+00 
72800 4.5854584909e+00 6.9695811890e-05 1.9312495979e+00 -3.3450224257e+00 1.9312495979e+00 3.3450224257e+00 
72900 4.5854584936e+00 6.9729853429e-05 1.9312495979e+00 -3.3450224257e+00 1.9312495979e+00 3.3450224257e+00 
73000 4.5854584962e+00 6.9765166613e-05 1.9312495979e+00 -3.3450224257e+00 1.9312495979e+00 3.3450224257e+00 
73100 4.5854584987e+00 6.9801597261e-05 1.9312495979e+00 -3.3450224257e+00 1.9312495979e+00 3.3450224257e+00 
73200 4.5854585013e+00 6.9838997185e-05 1.9312495979e+00 -3.3450224257e+00 1.9312495979e+00 3.3450224257e+00 
73300 4.5854585038e+00 6.9877224214e-05 1.9312495979e+00 -3.3450224257e+00 1.9312495979e+00 3.3450224257e+00 
73400 4.5854585062e+00 6.9916142197e-05 1.9312495979e+00 -3.3450224257e+00 1.9312495979e+00 3.3450224257e+00 
73500 4.5854585087e+00 6.9955621006e-05 1.9312495979e+00 -3.3450224257e+00 1.9312495979e+00 3.3450224257e+00 
73600 4.5854585111e+00 6.9995536517e-05 1.9312495979e+00 -3.3450224257e+00 1.9312495979e+00 3.3450224257e+00 
73700 4.5854585135e+00 7.0035770581e-05 1.9312495979e+00 -3.3450224257e+00 1.9312495979e+00 3.3450224257e+00 
73800 4.5854585158e+00 7.0076210983e-05 1.9312495979e+00 -3.3450224257e+00 1.9312495979e+00 3.3450224257e+00 
73900 4.5854585182e+00 7.0116751390e-05 1.9312495979e+00 -3.3450224257e+00 1.9312495979e+00 3.3450224257e+00 
74000 4.5854585205e+00 7.0157291288e-05 1.9312495979e+00 -3.3450224257e+00 1.9312495979e+00 3.3450224257e+00 
74100 4.5854585228e+00 7.0197735908e-05 1.9312495979e+00 -3.3450224257e+00 1.9312495979e+00 3.3450224257e+00 
74200 4.5854585250e+00 7.0237996146e-05 1.9312495979e+00 -3.3450224257e+00 1.9312495979e+00 3.3450224257e+00 
74300 4.5854585272e+00 7.0277988470e-05 1.9312495979e+00 -3.3450224257e+00 1.9312495979e+00 3.3450224257e+00 
74400 4.5854585294e+00 7.0317634819e-05 1.9312495979e+00 -3.3450224257e+00 1.9312495979e+00 3.3450224257e+00 
74500 4.5854585316e+00 7.0356862497e-05 1.9312495979e+00 -3.3450224257e+00 1.9312495979e+00 3.3450224257e+00 
74600 4.5854585337e+00 7.0395604057e-05 1.9312495979e+00 -3.3450224257e+00 1.9312495979e+00 3.3450224257e+00 
74700 4.5854585359e+00 7.0433797181e-05 1.9312495979e+00 -3.3450224257e+00 1.9312495979e+00 3.3450224257e+00 
74800 4.5854585380e+00 7.0471384549e-05 1.9312495979e+00 -3.3450224257e+00 1.9312495979e+00 3.3450224257e+00 
74900 4.5854585400e+00 7.0508313710e-05 1.9312495979e+00 -3.3450224257e+00 1.9312495979e+00 3.3450224257e+00 
75000 4.5854585421e+00 7.0544536942e-05 1.9312495979e+00 -3.3450224257e+00 1.9312495979e+00 3.3450224257e+00 
75100 4.5854585441e+00 7.0580011109e-05 1.9312495979e+00 -3.3450224257e+00 1.9312495979e+00 3.3450224257e+00 
75200 4.5854585461e+00 7.0614697517e-05 1.9312495979e+00 -3.3450224257e+00 1.9312495979e+00 3.3450224257e+00 
75300 4.5854585481e+00 7.0648561761e-05 1.9312495979e+00 -3.3450224257e+00 1.9312495979e+00 3.3450224257e+00 
75400 4.5854585500e+00 7.0681573578e-05 1.9312495979e+00 -3.3450224257e+00 1.9312495979e+00 3.3450224257e+00 
75500 4.5854585520e+00 7.0713706689e-05 1.9312495979e+00 -3.3450224257e+00 1.9312495979e+00 3.3450224257e+00 
75600 4.5854585537e+00 6.9915699114e-05 1.9312477671e+00 -3.3450192547e+00 1.9312477671e+00 3.3450192547e+00 
75700 4.5854585556e+00 6.9939109977e-05 1.9312477671e+00 -3.3450192547e+00 1.9312477671e+00 3.3450192547e+00 
75800 4.5854585575e+00 6.9961727021e-05 1.9312477671e+00 -3.3450192547e+00 1.9312477671e+00 3.3450192547e+00 
75900 4.5854585593e+00 6.9983542320e-05 1.9312477671e+00 -3.3450192547e+00 1.9312477671e+00 3.3450192547e+00 
76000 4.5854585612e+00 7.0004550998e-05 1.9312477671e+00 -3.3450192547e+00 1.9312477671e+00 3.3450192547e+00 
76100 4.5854585630e+00 7.0024751041e-05 1.9312477671e+00 -3.3450192547e+00 1.9312477671e+00 3.3450192547e+00 
76200 4.5854585647e+00 7.0044143102e-05 1.9312477671e+00 -3.3450192547e+00 1.9312477671e+00 3.3450192547e+00 
76300 4.5854585665e+00 7.0062730322e-05 1.9312477671e+00 -3.3450192547e+00 1.9312477671e+00 3.3450192547e+00 
76400 4.5854585682e+00 7.0080518157e-05 1.9312477671e+00 -3.3450192547e+00 1.9312477671e+00 3.3450192547e+00 
76500 4.5854585699e+00 7.0097514200e-05 1.9312477671e+00 -3.3450192547e+00 1.9312477671e+00 3.3450192547e+00 
76600 4.5854585716e+00 7.0113728021e-05 1.9312477671e+00 -3.3450192547e+00 1.9312477671e+00 3.3450192547e+00 
76700 4.5854585733e+00 7.0129171003e-05 1.9312477671e+00 -3.3450192547e+00 1.9312477671e+00 3.3450192547e+00 
76800 4.5854585750e+00 7.0143856189e-05 1.9312477671e+00 -3.3450192547e+00 1.9312477671e+00 3.3450192547e+00 
76900 4.5854585766e+00 7.0157798133e-05 1.9312477671e+00 -3.3450192547e+00 1.9312477671e+00 3.3450192547e+00 
77000 4.5854585782e+00 7.0171012755e-05 1.9312477671e+00 -3.3450192547e+00 1.9312477671e+00 3.3450192547e+00 
77100 4.5854585798e+00 7.0183517204e-05 1.9312477671e+00 -3.3450192547e+00 1.9312477671e+00 3.3450192547e+00 
77200 4.5854585814e+00 7.0195329725e-05 1.9312477671e+00 -3.3450192547e+00 1.9312477671e+00 3.3450192547e+00 
77300 4.5854585830e+00 7.0206469533e-05 1.9312477671e+00 -3.3450192547e+00 1.9312477671e+00 3.3450192547e+00 
77400 4.5854585845e+00 7.0216956687e-05 1.9312477671e+00 -3.3450192547e+00 1.9312477671e+00 3.3450192547e+00 
77500 4.5854585860e+00 7.0226811979e-05 1.9312477671e+00 -3.3450192547e+00 1.9312477671e+00 3.3450192547e+00 
77600 4.5854585875e+00 7.0236056825e-05 1.9312477671e+00 -3.3450192547e+00 1.9312477671e+00 3.3450192547e+00 
77700 4.5854585890e+00 7.0244713148e-05 1.9312477671e+00 -3.3450192547e+00 1.9312477671e+00 3.3450192547e+00 
77800 4.5854585905e+00 7.0252803290e-05 1.9312477671e+00 -3.3450192547e+00 1.9312477671e+00 3.3450192547e+00 
77900 4.5854585920e+00 7.0260349912e-05 1.9312477671e+00 -3.3450192547e+00 1.9312477671e+00 3.3450192547e+00 
78000 4.5854585934e+00 7.0267375904e-05 1.9312477671e+00 -3.3450192547e+00 1.9312477671e+00 3.3450192547e+00 
78100 4.5854585948e+00 7.0273904299e-05 1.9312477671e+00 -3.3450192547e+00 1.9312477671e+00 3.3450192547e+00 
78200 4.5854585962e+00 7.0279958194e-05 1.9312477671e+00 -3.3450192547e+00 1.9312477671e+00 3.3450192547e+00 
78300 4.5854585976e+00 7.0285560677e-05 1.9312477671e+00 -3.3450192547e+00 1.9312477671e+00 3.3450192547e+00 
78400 4.5854585990e+00 7.0290734754e-05 1.9312477671e+00 -3.3450192547e+00 1.9312477671e+00 3.3450192547e+00 
78500 4.5854586003e+00 7.0295503281e-05 1.9312477671e+00 -3.3450192547e+00 1.9312477671e+00 3.3450192547e+00 
78600 4.5854586017e+00 7.0299888912e-05 1.9312477671e+00 -3.3450192547e+00 1.9312477671e+00 3.3450192547e+00 
78700 4.5854586030e+00 7.0303914030e-05 1.9312477671e+00 -3.3450192547e+00 1.9312477671e+00 3.3450192547e+00 
78800 4.5854586043e+00 7.0307600703e-05 1.9312477671e+00 -3.3450192547e+00 1.9312477671e+00 3.3450192547e+00 
78900 4.5854586056e+00 7.0310970634e-05 1.9312477671e+00 -3.3450192547e+00 1.9312477671e+00 3.3450192547e+00 
79000 4.5854586069e+00 7.0314045114e-05 1.9312477671e+00 -3.3450192547e+00 1.9312477671e+00 3.3450192547e+00 
79100 4.5854586082e+00 7.0316844987e-05 1.9312477671e+00 -3.3450192547e+00 1.9312477671e+00 3.3450192547e+00 
79200 4.5854586094e+00 7.0319390608e-05 1.9312477671e+00 -3.3450192547e+00 1.9312477671e+00 3.3450192547e+00 
79300 4.5854586106e+00 7.0321701814e-05 1.9312477671e+00 -3.3450192547e+00 1.9312477671e+00 3.3450192547e+00 
79400 4.5854586119e+00 7.0323797894e-05 1.9312477671e+00 -3.3450192547e+00 1.9312477671e+00 3.3450192547e+00 
79500 4.5854586131e+00 7.0325697563e-05 1.9312477671e+00 -3.3450192547e+00 1.9312477671e+00 3.3450192547e+00 
79600 4.5854586143e+00 7.0327418938e-05 1.9312477671e+00 -3.3450192547e+00 1.9312477671e+00 3.3450192547e+00 
79700 4.5854586154e+00 7.0328979522e-05 1.9312477671e+00 -3.3450192547e+00 1.9312477671e+00 3.3450192547e+00 
79800 4.5854586166e+00 7.0330396187e-05 1.9312477671e+00 -3.3450192547e+00 1.9312477671e+00 3.3450192547e+00 
79900 4.5854586178e+00 7.0331685157e-05 1.9312477671e+00 -3.3450192547e+00 1.9312477671e+00 3.3450192547e+00 
80000 4.5854586189e+00 7.0332862002e-05 1.9312477671e+00 -3.3450192547e+00 1.9312477671e+00 3.3450192547e+00 
80100 4.5854586200e+00 7.0333941627e-05 1.9312477671e+00 -3.3450192547e+00 1.9312477671e+00 3.3450192547e+00 
80200 4.5854586211e+00 7.0334938270e-05 1.9312477671e+00 -3.3450192547e+00 1.9312477671e+00 3.3450192547e+00 
80300 4.5854586222e+00 7.0335865492e-05 1.9312477671e+00 -3.3450192547e+00 1.9312477671e+00 3.3450192547e+00 
80400 4.5854586233e+00 7.0336736185e-05 1.9312477671e+00 -3.3450192547e+00 1.9312477671e+00 3.3450192547e+00 
80500 4.5854586244e+00 7.0337562566e-05 1.9312477671e+00 -3.3450192547e+00 1.9312477671e+00 3.3450192547e+00 
80600 4.5854586255e+00 7.0338356182e-05 1.9312477671e+00 -3.3450192547e+00 1.9312477671e+00 3.3450192547e+00 
80700 4.5854586265e+00 7.0339127918e-05 1.9312477671e+00 -3.3450192547e+00 1.9312477671e+00 3.3450192547e+00 
80800 4.5854586275e+00 7.0339887998e-05 1.9312477671e+00 -3.3450192547e+00 1.9312477671e+00 3.3450192547e+00 
80900 4.5854586286e+00 7.0340646001e-05 1.9312477671e+00 -3.3450192547e+00 1.9312477671e+00 3.3450192547e+00 
81000 4.5854586296e+00 7.0341410860e-05 1.9312477671e+00 -3.3450192547e+00 1.9312477671e+00 3.3450192547e+00 
81100 4.5854586306e+00 7.0342190883e-05 1.9312477671e+00 -3.3450192547e+00 1.9312477671e+00 3.3450192547e+00 
81200 4.5854586316e+00 7.0342993760e-05 1.9312477671e+00 -3.3450192547e+00 1.9312477671e+00 3.3450192547e+00 
81300 4.5854586325e+00 7.0343826578e-05 1.9312477671e+00 -3.3450192547e+00 1.9312477671e+00 3.3450192547e+00 
81400 4.5854586335e+00 7.0344695835e-05 1.9312477671e+00 -3.3450192547e+00 1.9312477671e+00 3.3450192547e+00 
81500 4.5854586345e+00 7.0345607456e-05 1.9312477671e+00 -3.3450192547e+00 1.9312477671e+00 3.3450192547e+00 
81600 4.5854586354e+00 7.0346566807e-05 1.9312477671e+00 -3.3450192547e+00 1.9312477671e+00 3.3450192547e+00 
81700 4.5854586363e+00 7.0347578715e-05 1.9312477671e+00 -3.3450192547e+00 1.9312477671e+00 3.3450192547e+00 
81800 4.5854586373e+00 7.0348647483e-05 1.9312477671e+00 -3.3450192547e+00 1.9312477671e+00 3.3450192547e+00 
81900 4.5854586382e+00 7.0349776911e-05 1.9312477671e+00 -3.3450192547e+00 1.9312477671e+00 3.3450192547e+00 
82000 4.5854586391e+00 7.0350970310e-05 1.9312477671e+00 -3.3450192547e+00 1.9312477671e+00 3.3450192547e+00 
82100 4.5854586400e+00 7.0352230524e-05 1.9312477671e+00 -3.3450192547e+00 1.9312477671e+00 3.3450192547e+00 
82200 4.5854586409e+00 7.0353559952e-05 1.9312477671e+00 -3.3450192547e+00 1.9312477671e+00 3.3450192547e+00 
82300 4.5854586417e+00 7.0354960560e-05 1.9312477671e+00 -3.3450192547e+00 1.9312477671e+00 3.3450192547e+00 
82400 4.5854586426e+00 7.0356433907e-05 1.9312477671e+00 -3.3450192547e+00 1.9312477671e+00 3.3450192547e+00 
82500 4.5854586434e+00 7.0357981163e-05 1.9312477671e+00 -3.3450192547e+00 1.9312477671e+00 3.3450192547e+00 
82600 4.5854586443e+00 7.0359603125e-05 1.9312477671e+00 -3.3450192547e+00 1.9312477671e+00 3.3450192547e+00 
82700 4.5854586451e+00 7.0361300244e-05 1.9312477671e+00 -3.3450192547e+00 1.9312477671e+00 3.3450192547e+00 
82800 4.5854586459e+00 7.0363072638e-05 1.9312477671e+00 -3.3450192547e+00 1.9312477671e+00 3.3450192547e+00 
82900 4.5854586467e+00 7.0364920115e-05 1.9312477671e+00 -3.3450192547e+00 1.9312477671e+00 3.3450192547e+00 
83000 4.5854586475e+00 7.0366842191e-05 1.9312477671e+00 -3.3450192547e+00 1.9312477671e+00 3.3450192547e+00 
83100 4.5854586483e+00 7.0368838108e-05 1.9312477671e+00 -3.3450192547e+00 1.9312477671e+00 3.3450192547e+00 
83200 4.5854586491e+00 7.0370906856e-05 1.9312477671e+00 -3.3450192547e+00 1.9312477671e+00 3.3450192547e+00 
83300 4.5854586499e+00 7.0373047187e-05 1.9312477671e+00 -3.3450192547e+00 1.9312477671e+00 3.3450192547e+00 
83400 4.5854586507e+00 7.0375257638e-05 1.9312477671e+00 -3.3450192547e+00 1.9312477671e+00 3.3450192547e+00 
83500 4.5854586514e+00 7.0377536544e-05 1.9312477671e+00 -3.3450192547e+00 1.9312477671e+00 3.3450192547e+00 
83600 4.5854586522e+00 7.0379882058e-05 1.9312477671e+00 -3.3450192547e+00 1.9312477671e+00 3.3450192547e+00 
83700 4.5854586529e+00 7.0382292167e-05 1.9312477671e+00 -3.3450192547e+00 1.9312477671e+00 3.3450192547e+00 
83800 4.5854586536e+00 7.0384764707e-05 1.9312477671e+00 -3.3450192547e+00 1.9312477671e+00 3.3450192547e+00 
83900 4.5854586544e+00 7.0387297385e-05 1.9312477671e+00 -3.3450192547e+00 1.9312477671e+00 3.3450192547e+00 
84000 4.5854586551e+00 7.0389887784e-05 1.9312477671e+00 -3.3450192547e+00 1.9312477671e+00 3.3450192547e+00 
84100 4.5854586558e+00 7.0392533385e-05 1.9312477671e+00 -3.3450192547e+00 1.9312477671e+00 3.3450192547e+00 
84200 4.5854586565e+00 7.0395231582e-05 1.9312477671e+00 -3.3450192547e+00 1.9312477671e+00 3.3450192547e+00 
84300 4.5854586572e+00 7.0397979690e-05 1.9312477671e+00 -3.3450192547e+00 1.9312477671e+00 3.3450192547e+00 
84400 4.5854586578e+00 7.0400774964e-05 1.9312477671e+00 -3.3450192547e+00 1.9312477671e+00 3.3450192547e+00 
84500 4.5854586585e+00 7.0403614608e-05 1.9312477671e+00 -3.3450192547e+00 1.9312477671e+00 3.3450192547e+00 
84600 4.5854586592e+00 7.0406495789e-05 1.9312477671e+00 -3.3450192547e+00 1.9312477671e+00 3.3450192547e+00 
84700 4.5854586598e+00 7.0409415644e-05 1.9312477671e+00 -3.3450192547e+00 1.9312477671e+00 3.3450192547e+00 
84800 4.5854586605e+00 7.0412371299e-05 1.9312477671e+00 -3.3450192547e+00 1.9312477671e+00 3.3450192547e+00 
84900 4.5854586611e+00 7.0415359872e-05 1.9312477671e+00 -3.3450192547e+00 1.9312477671e+00 3.3450192547e+00 
85000 4.5854586618e+00 7.0418378485e-05 1.9312477671e+00 -3.3450192547e+00 1.9312477671e+00 3.3450192547e+00 
85100 4.5854586624e+00 7.0421424275e-05 1.9312477671e+00 -3.3450192547e+00 1.9312477671e+00 3.3450192547e+00 
85200 4.5854586630e+00 7.0424494399e-05 1.9312477671e+00 -3.3450192547e+00 1.9312477671e+00 3.3450192547e+00 
85300 4.5854586636e+00 7.0427586045e-05 1.9312477671e+00 -3.3450192547e+00 1.9312477671e+00 3.3450192547e+00 
85400 4.5854586642e+00 7.0430696438e-05 1.9312477671e+00 -3.3450192547e+00 1.9312477671e+00 3.3450192547e+00 
85500 4.5854586648e+00 7.0433822848e-05 1.9312477671e+00 -3.3450192547e+00 1.9312477671e+00 3.3450192547e+00 
85600 4.5854586654e+00 7.0436962595e-05 1.9312477671e+00 -3.3450192547e+00 1.9312477671e+00 3.3450192547e+00 
85700 4.5854586660e+00 7.0440113056e-05 1.9312477671e+00 -3.3450192547e+00 1.9312477671e+00 3.3450192547e+00 
85800 4.5854586666e+00 7.0443271668e-05 1.9312477671e+00 -3.3450192547e+00 1.9312477671e+00 3.3450192547e+00 
85900 4.5854586672e+00 7.0446435939e-05 1.9312477671e+00 -3.3450192547e+00 1.9312477671e+00 3.3450192547e+00 
86000 4.5854586677e+00 7.0449603442e-05 1.9312477671e+00 -3.3450192547e+00 1.9312477671e+00 3.3450192547e+00 
86100 4.5854586683e+00 7.0452771830e-05 1.9312477671e+00 -3.3450192547e+00 1.9312477671e+00 3.3450192547e+00 
86200 4.5854586689e+00 7.0455938833e-05 1.9312477671e+00 -3.3450192547e+00 1.9312477671e+00 3.3450192547e+00 
86300 4.5854586694e+00 7.0459102261e-05 1.9312477671e+00 -3.3450192547e+00 1.9312477671e+00 3.3450192547e+00 
86400 4.5854586699e+00 7.0462260009e-05 1.9312477671e+00 -3.3450192547e+00 1.9312477671e+00 3.3450192547e+00 
86500 4.5854586705e+00 7.0465410060e-05 1.9312477671e+00 -3.3450192547e+00 1.9312477671e+00 3.3450192547e+00 
86600 4.5854586710e+00 7.0468550482e-05 1.9312477671e+00 -3.3450192547e+00 1.9312477671e+00 3.3450192547e+00 
86700 4.5854586715e+00 7.0471679434e-05 1.9312477671e+00 -3.3450192547e+00 1.9312477671e+00 3.3450192547e+00 
86800 4.5854586720e+00 7.0474795166e-05 1.9312477671e+00 -3.3450192547e+00 1.9312477671e+00 3.3450192547e+00 
86900 4.5854586726e+00 7.0477896016e-05 1.9312477671e+00 -3.3450192547e+00 1.9312477671e+00 3.3450192547e+00 
87000 4.5854586731e+00 7.0480980419e-05 1.9312477671e+00 -3.3450192547e+00 1.9312477671e+00 3.3450192547e+00 
87100 4.5854586736e+00 7.0484046899e-05 1.9312477671e+00 -3.3450192547e+00 1.9312477671e+00 3.3450192547e+00 
87200 4.5854586741e+00 7.0487094068e-05 1.9312477671e+00 -3.3450192547e+00 1.9312477671e+00 3.3450192547e+00 
87300 4.5854586745e+00 7.0490120637e-05 1.9312477671e+00 -3.3450192547e+00 1.9312477671e+00 3.3450192547e+00 
87400 4.5854586750e+00 7.0493125400e-05 1.9312477671e+00 -3.3450192547e+00 1.9312477671e+00 3.3450192547e+00 
87500 4.5854586755e+00 7.0496107245e-05 1.9312477671e+00 -3.3450192547e+00 1.9312477671e+00 3.3450192547e+00 
87600 4.5854586760e+00 7.0499065145e-05 1.9312477671e+00 -3.3450192547e+00 1.9312477671e+00 3.3450192547e+00 
87700 4.5854586764e+00 7.0501998164e-05 1.9312477671e+00 -3.3450192547e+00 1.9312477671e+00 3.3450192547e+00 
87800 4.5854586769e+00 7.0504905447e-05 1.9312477671e+00 -3.3450192547e+00 1.9312477671e+00 3.3450192547e+00 
87900 4.5854586773e+00 7.0507786226e-05 1.9312477671e+00 -3.3450192547e+00 1.9312477671e+00 3.3450192547e+00 
88000 4.5854586778e+00 7.0510639812e-05 1.9312477671e+00 -3.3450192547e+00 1.9312477671e+00 3.3450192547e+00 
88100 4.5854586782e+00 7.0513465598e-05 1.9312477671e+00 -3.3450192547e+00 1.9312477671e+00 3.3450192547e+00 
88200 4.5854586787e+00 7.0516263054e-05 1.9312477671e+00 -3.3450192547e+00 1.9312477671e+00 3.3450192547e+00 
88300 4.5854586791e+00 7.0519031723e-05 1.9312477671e+00 -3.3450192547e+00 1.9312477671e+00 3.3450192547e+00 
88400 4.5854586795e+00 7.0521771223e-05 1.9312477671e+00 -3.3450192547e+00 1.9312477671e+00 3.3450192547e+00 
88500 4.5854586800e+00 7.0524481242e-05 1.9312477671e+00 -3.3450192547e+00 1.9312477671e+00 3.3450192547e+00 
88600 4.5854586804e+00 7.0527161535e-05 1.9312477671e+00 -3.3450192547e+00 1.9312477671e+00 3.3450192547e+00 
88700 4.5854586808e+00 7.0529811925e-05 1.9312477671e+00 -3.3450192547e+00 1.9312477671e+00 3.3450192547e+00 
88800 4.5854586812e+00 7.0532432291e-05 1.9312477671e+00 -3.3450192547e+00 1.9312477671e+00 3.3450192547e+00 
88900 4.5854586816e+00 7.0535022578e-05 1.9312477671e+00 -3.3450192547e+00 1.9312477671e+00 3.3450192547e+00 
89000 4.5854586820e+00 7.0537582786e-05 1.9312477671e+00 -3.3450192547e+00 1.9312477671e+00 3.3450192547e+00 
89100 4.5854586824e+00 7.0540112967e-05 1.9312477671e+00 -3.3450192547e+00 1.9312477671e+00 3.3450192547e+00 
89200 4.5854586828e+00 7.0542613228e-05 1.9312477671e+00 -3.3450192547e+00 1.9312477671e+00 3.3450192547e+00 
89300 4.5854586832e+00 7.0545083722e-05 1.9312477671e+00 -3.3450192547e+00 1.9312477671e+00 3.3450192547e+00 
89400 4.5854586836e+00 7.0547524649e-05 1.9312477671e+00 -3.3450192547e+00 1.9312477671e+00 3.3450192547e+00 
89500 4.5854586840e+00 7.0549936249e-05 1.9312477671e+00 -3.3450192547e+00 1.9312477671e+00 3.3450192547e+00 
89600 4.5854586843e+00 7.0552318807e-05 1.9312477671e+00 -3.3450192547e+00 1.9312477671e+00 3.3450192547e+00 
89700 4.5854586847e+00 7.0554672641e-05 1.9312477671e+00 -3.3450192547e+00 1.9312477671e+00 3.3450192547e+00 
89800 4.5854586851e+00 7.0556998107e-05 1.9312477671e+00 -3.3450192547e+00 1.9312477671e+00 3.3450192547e+00 
89900 4.5854586854e+00 7.0559295591e-05 1.9312477671e+00 -3.3450192547e+00 1.9312477671e+00 3.3450192547e+00 
90000 4.5854586858e+00 7.0561565511e-05 1.9312477671e+00 -3.3450192547e+00 1.9312477671e+00 3.3450192547e+00 
90100 4.5854586861e+00 7.0563808307e-05 1.9312477671e+00 -3.3450192547e+00 1.9312477671e+00 3.3450192547e+00 
90200 4.5854586865e+00 7.0566024449e-05 1.9312477671e+00 -3.3450192547e+00 1.9312477671e+00 3.3450192547e+00 
90300 4.5854586868e+00 7.0568214424e-05 1.9312477671e+00 -3.3450192547e+00 1.9312477671e+00 3.3450192547e+00 
90400 4.5854586872e+00 7.0570378744e-05 1.9312477671e+00 -3.3450192547e+00 1.9312477671e+00 3.3450192547e+00 
90500 4.5854586875e+00 7.0572517933e-05 1.9312477671e+00 -3.3450192547e+00 1.9312477671e+00 3.3450192547e+00 
90600 4.5854586878e+00 7.0574632532e-05 1.9312477671e+00 -3.3450192547e+00 1.9312477671e+00 3.3450192547e+00 
90700 4.5854586882e+00 7.0576723096e-05 1.9312477671e+00 -3.3450192547e+00 1.9312477671e+00 3.3450192547e+00 
90800 4.5854586885e+00 7.0578790189e-05 1.9312477671e+00 -3.3450192547e+00 1.9312477671e+00 3.3450192547e+00 
90900 4.5854586888e+00 7.0580834384e-05 1.9312477671e+00 -3.3450192547e+00 1.9312477671e+00 3.3450192547e+00 
91000 4.5854586891e+00 7.0582856262e-05 1.9312477671e+00 -3.3450192547e+00 1.9312477671e+00 3.3450192547e+00 
91100 4.5854586894e+00 7.0584856406e-05 1.9312477671e+00 -3.3450192547e+00 1.9312477671e+00 3.3450192547e+00 
91200 4.5854586898e+00 7.0586835406e-05 1.9312477671e+00 -3.3450192547e+00 1.9312477671e+00 3.3450192547e+00 
91300 4.5854586901e+00 7.0588793850e-05 1.9312477671e+00 -3.3450192547e+00 1.9312477671e+00 3.3450192547e+00 
91400 4.5854586904e+00 7.0590732328e-05 1.9312477671e+00 -3.3450192547e+00 1.9312477671e+00 3.3450192547e+00 
91500 4.5854586907e+00 7.0592651428e-05 1.9312477671e+00 -3.3450192547e+00 1.9312477671e+00 3.3450192547e+00 
91600 4.5854586910e+00 7.0594551734e-05 1.9312477671e+00 -3.3450192547e+00 1.9312477671e+00 3.3450192547e+00 
91700 4.5854586913e+00 7.0596433825e-05 1.9312477671e+00 -3.3450192547e+00 1.9312477671e+00 3.3450192547e+00 
91800 4.5854586915e+00 7.0598298277e-05 1.9312477671e+00 -3.3450192547e+00 1.9312477671e+00 3.3450192547e+00 
91900 4.5854586918e+00 7.0600145656e-05 1.9312477671e+00 -3.3450192547e+00 1.9312477671e+00 3.3450192547e+00 
92000 4.5854586921e+00 7.0601976520e-05 1.9312477671e+00 -3.3450192547e+00 1.9312477671e+00 3.3450192547e+00 
92100 4.5854586924e+00 7.0603791421e-05 1.9312477671e+00 -3.3450192547e+00 1.9312477671e+00 3.3450192547e+00 
92200 4.5854586927e+00 7.0605590899e-05 1.9312477671e+00 -3.3450192547e+00 1.9312477671e+00 3.3450192547e+00 
92300 4.5854586929e+00 7.0607375482e-05 1.9312477671e+00 -3.3450192547e+00 1.9312477671e+00 3.3450192547e+00 
92400 4.5854586932e+00 7.0609145689e-05 1.9312477671e+00 -3.3450192547e+00 1.9312477671e+00 3.3450192547e+00 
92500 4.5854586935e+00 7.0610902023e-05 1.9312477671e+00 -3.3450192547e+00 1.9312477671e+00 3.3450192547e+00 
92600 4.5854586937e+00 7.0612644977e-05 1.9312477671e+00 -3.3450192547e+00 1.9312477671e+00 3.3450192547e+00 
92700 4.5854586940e+00 7.0614375030e-05 1.9312477671e+00 -3.3450192547e+00 1.9312477671e+00 3.3450192547e+00 
92800 4.5854586943e+00 7.0616092646e-05 1.9312477671e+00 -3.3450192547e+00 1.9312477671e+00 3.3450192547e+00 
92900 4.5854586945e+00 7.0617798273e-05 1.9312477671e+00 -3.3450192547e+00 1.9312477671e+00 3.3450192547e+00 
93000 4.5854586948e+00 7.0619492348e-05 1.9312477671e+00 -3.3450192547e+00 1.9312477671e+00 3.3450192547e+00 
93100 4.5854586950e+00 7.0621175290e-05 1.9312477671e+00 -3.3450192547e+00 1.9312477671e+00 3.3450192547e+00 
93200 4.5854586953e+00 7.0622847501e-05 1.9312477671e+00 -3.3450192547e+00 1.9312477671e+00 3.3450192547e+00 
93300 4.5854586955e+00 7.0624509371e-05 1.9312477671e+00 -3.3450192547e+00 1.9312477671e+00 3.3450192547e+00 
93400 4.5854586958e+00 7.0626161271e-05 1.9312477671e+00 -3.3450192547e+00 1.9312477671e+00 3.3450192547e+00 
93500 4.5854586960e+00 7.0627803559e-05 1.9312477671e+00 -3.3450192547e+00 1.9312477671e+00 3.3450192547e+00 
93600 4.5854586962e+00 7.0629436574e-05 1.9312477671e+00 -3.3450192547e+00 1.9312477671e+00 3.3450192547e+00 
93700 4.5854586965e+00 7.0631060641e-05 1.9312477671e+00 -3.3450192547e+00 1.9312477671e+00 3.3450192547e+00 
93800 4.5854586967e+00 7.0632676068e-05 1.9312477671e+00 -3.3450192547e+00 1.9312477671e+00 3.3450192547e+00 
93900 4.5854586969e+00 7.0634283147e-05 1.9312477671e+00 -3.3450192547e+00 1.9312477671e+00 3.3450192547e+00 
94000 4.5854586971e+00 7.0635882155e-05 1.9312477671e+00 -3.3450192547e+00 1.9312477671e+00 3.3450192547e+00 
94100 4.5854586974e+00 7.0637473355e-05 1.9312477671e+00 -3.3450192547e+00 1.9312477671e+00 3.3450192547e+00 
94200 4.5854586976e+00 7.0639056990e-05 1.9312477671e+00 -3.3450192547e+00 1.9312477671e+00 3.3450192547e+00 
94300 4.5854586978e+00 7.0640633294e-05 1.9312477671e+00 -3.3450192547e+00 1.9312477671e+00 3.3450192547e+00 
94400 4.5854586980e+00 7.0642202479e-05 1.9312477671e+00 -3.3450192547e+00 1.9312477671e+00 3.3450192547e+00 
94500 4.5854586982e+00 7.0643764749e-05 1.9312477671e+00 -3.3450192547e+00 1.9312477671e+00 3.3450192547e+00 
94600 4.5854586984e+00 7.0645320290e-05 1.9312477671e+00 -3.3450192547e+00 1.9312477671e+00 3.3450192547e+00 
94700 4.5854586987e+00 7.0646869275e-05 1.9312477671e+00 -3.3450192547e+00 1.9312477671e+00 3.3450192547e+00 
94800 4.5854586989e+00 7.0648411864e-05 1.9312477671e+00 -3.3450192547e+00 1.9312477671e+00 3.3450192547e+00 
94900 4.5854586991e+00 7.0649948204e-05 1.9312477671e+00 -3.3450192547e+00 1.9312477671e+00 3.3450192547e+00 
95000 4.5854586993e+00 7.0651478427e-05 1.9312477671e+00 -3.3450192547e+00 1.9312477671e+00 3.3450192547e+00 
95100 4.5854586995e+00 7.0653002654e-05 1.9312477671e+00 -3.3450192547e+00 1.9312477671e+00 3.3450192547e+00 
95200 4.5854586997e+00 7.0654520995e-05 1.9312477671e+00 -3.3450192547e+00 1.9312477671e+00 3.3450192547e+00 
95300 4.5854586999e+00 7.0656033548e-05 1.9312477671e+00 -3.3450192547e+00 1.9312477671e+00 3.3450192547e+00 
95400 4.5854587000e+00 7.0657540398e-05 1.9312477671e+00 -3.3450192547e+00 1.9312477671e+00 3.3450192547e+00 
95500 4.5854587002e+00 7.0659041623e-05 1.9312477671e+00 -3.3450192547e+00 1.9312477671e+00 3.3450192547e+00 
95600 4.5854587004e+00 7.0660537288e-05 1.9312477671e+00 -3.3450192547e+00 1.9312477671e+00 3.3450192547e+00 
95700 4.5854587006e+00 7.0662027448e-05 1.9312477671e+00 -3.3450192547e+00 1.9312477671e+00 3.3450192547e+00 
95800 4.5854587008e+00 7.0663512151e-05 1.9312477671e+00 -3.3450192547e+00 1.9312477671e+00 3.3450192547e+00 
95900 4.5854587010e+00 7.0664991434e-05 1.9312477671e+00 -3.3450192547e+00 1.9312477671e+00 3.3450192547e+00 
96000 4.5854587012e+00 7.0666465328e-05 1.9312477671e+00 -3.3450192547e+00 1.9312477671e+00 3.3450192547e+00 
96100 4.5854587013e+00 7.0667933852e-05 1.9312477671e+00 -3.3450192547e+00 1.9312477671e+00 3.3450192547e+00 
96200 4.5854587015e+00 7.0669397023e-05 1.9312477671e+00 -3.3450192547e+00 1.9312477671e+00 3.3450192547e+00 
96300 4.5854587017e+00 7.0670854848e-05 1.9312477671e+00 -3.3450192547e+00 1.9312477671e+00 3.3450192547e+00 
96400 4.5854587018e+00 7.0672307327e-05 1.9312477671e+00 -3.3450192547e+00 1.9312477671e+00 3.3450192547e+00 
96500 4.5854587020e+00 7.0673754455e-05 1.9312477671e+00 -3.3450192547e+00 1.9312477671e+00 3.3450192547e+00 
96600 4.5854587022e+00 7.0675196221e-05 1.9312477671e+00 -3.3450192547e+00 1.9312477671e+00 3.3450192547e+00 
96700 4.5854587023e+00 7.0676632609e-05 1.9312477671e+00 -3.3450192547e+00 1.9312477671e+00 3.3450192547e+00 
96800 4.5854587025e+00 7.0678063598e-05 1.9312477671e+00 -3.3450192547e+00 1.9312477671e+00 3.3450192547e+00 
96900 4.5854587027e+00 7.0679489164e-05 1.9312477671e+00 -3.3450192547e+00 1.9312477671e+00 3.3450192547e+00 
97000 4.5854587028e+00 7.0680909275e-05 1.9312477671e+00 -3.3450192547e+00 1.9312477671e+00 3.3450192547e+00 
97100 4.5854587030e+00 7.0682323901e-05 1.9312477671e+00 -3.3450192547e+00 1.9312477671e+00 3.3450192547e+00 
97200 4.5854587031e+00 7.0683733004e-05 1.9312477671e+00 -3.3450192547e+00 1.9312477671e+00 3.3450192547e+00 
97300 4.5854587033e+00 7.0685136547e-05 1.9312477671e+00 -3.3450192547e+00 1.9312477671e+00 3.3450192547e+00 
97400 4.5854587035e+00 7.0686534486e-05 1.9312477671e+00 -3.3450192547e+00 1.9312477671e+00 3.3450192547e+00 
97500 4.5854587036e+00 7.0687926779e-05 1.9312477671e+00 -3.3450192547e+00 1.9312477671e+00 3.3450192547e+00 
97600 4.5854587038e+00 7.0689313381e-05 1.9312477671e+00 -3.3450192547e+00 1.9312477671e+00 3.3450192547e+00 
97700 4.5854587039e+00 7.0690694244e-05 1.9312477671e+00 -3.3450192547e+00 1.9312477671e+00 3.3450192547e+00 
97800 4.5854587040e+00 7.0692069321e-05 1.9312477671e+00 -3.3450192547e+00 1.9312477671e+00 3.3450192547e+00 
97900 4.5854587042e+00 7.0693438563e-05 1.9312477671e+00 -3.3450192547e+00 1.9312477671e+00 3.3450192547e+00 
98000 4.5854587043e+00 7.0694801919e-05 1.9312477671e+00 -3.3450192547e+00 1.9312477671e+00 3.3450192547e+00 
98100 4.5854587045e+00 7.0696159341e-05 1.9312477671e+00 -3.3450192547e+00 1.9312477671e+00 3.3450192547e+00 
98200 4.5854587046e+00 7.0697510777e-05 1.9312477671e+00 -3.3450192547e+00 1.9312477671e+00 3.3450192547e+00 
98300 4.5854587048e+00 7.0698856178e-05 1.9312477671e+00 -3.3450192547e+00 1.9312477671e+00 3.3450192547e+00 
98400 4.5854587049e+00 7.0700195495e-05 1.9312477671e+00 -3.3450192547e+00 1.9312477671e+00 3.3450192547e+00 
98500 4.5854587050e+00 7.0701528678e-05 1.9312477671e+00 -3.3450192547e+00 1.9312477671e+00 3.3450192547e+00 
98600 4.5854587052e+00 7.0702855679e-05 1.9312477671e+00 -3.3450192547e+00 1.9312477671e+00 3.3450192547e+00 
98700 4.5854587053e+00 7.0704176450e-05 1.9312477671e+00 -3.3450192547e+00 1.9312477671e+00 3.3450192547e+00 
98800 4.5854587054e+00 7.0705490945e-05 1.9312477671e+00 -3.3450192547e+00 1.9312477671e+00 3.3450192547e+00 
98900 4.5854587055e+00 7.0706799120e-05 1.9312477671e+00 -3.3450192547e+00 1.9312477671e+00 3.3450192547e+00 
99000 4.5854587057e+00 7.0708100931e-05 1.9312477671e+00 -3.3450192547e+00 1.9312477671e+00 3.3450192547e+00 
99100 4.5854587058e+00 7.0709396335e-05 1.9312477671e+00 -3.3450192547e+00 1.9312477671e+00 3.3450192547e+00 
99200 4.5854587059e+00 7.0710685293e-05 1.9312477671e+00 -3.3450192547e+00 1.9312477671e+00 3.3450192547e+00 
99300 4.5854587059e+00 6.9882758982e-05 1.9312459364e+00 -3.3450160838e+00 1.9312459364e+00 3.3450160838e+00 
99400 4.5854587060e+00 6.9877134200e-05 1.9312459364e+00 -3.3450160838e+00 1.9312459364e+00 3.3450160838e+00 
99500 4.5854587062e+00 6.9871644223e-05 1.9312459364e+00 -3.3450160838e+00 1.9312459364e+00 3.3450160838e+00 
99600 4.5854587063e+00 6.9866293004e-05 1.9312459364e+00 -3.3450160838e+00 1.9312459364e+00 3.3450160838e+00 
99700 4.5854587064e+00 6.9861084352e-05 1.9312459364e+00 -3.3450160838e+00 1.9312459364e+00 3.3450160838e+00 
99800 4.5854587065e+00 6.9856021896e-05 1.9312459364e+00 -3.3450160838e+00 1.9312459364e+00 3.3450160838e+00 
99900 4.5854587066e+00 6.9851109061e-05 1.9312459364e+00 -3.3450160838e+00 1.9312459364e+00 3.3450160838e+00 
100000 4.5854587067e+00 6.9846349033e-05 1.9312459364e+00 -3.3450160838e+00 1.9312459364e+00 3.3450160838e+00 
100100 4.5854587068e+00 6.9841744747e-05 1.9312459364e+00 -3.3450160838e+00 1.9312459364e+00 3.3450160838e+00 
100200 4.5854587070e+00 6.9837298861e-05 1.9312459364e+00 -3.3450160838e+00 1.9312459364e+00 3.3450160838e+00 
100300 4.5854587071e+00 6.9833013743e-05 1.9312459364e+00 -3.3450160838e+00 1.9312459364e+00 3.3450160838e+00 
100400 4.5854587072e+00 6.9828891464e-05 1.9312459364e+00 -3.3450160838e+00 1.9312459364e+00 3.3450160838e+00 
100500 4.5854587073e+00 6.9824933781e-05 1.9312459364e+00 -3.3450160838e+00 1.9312459364e+00 3.3450160838e+00 
100600 4.5854587074e+00 6.9821142138e-05 1.9312459364e+00 -3.3450160838e+00 1.9312459364e+00 3.3450160838e+00 
100700 4.5854587075e+00 6.9817517658e-05 1.9312459364e+00 -3.3450160838e+00 1.9312459364e+00 3.3450160838e+00 
100800 4.5854587076e+00 6.9814061143e-05 1.9312459364e+00 -3.3450160838e+00 1.9312459364e+00 3.3450160838e+00 
100900 4.5854587077e+00 6.9810773074e-05 1.9312459364e+00 -3.3450160838e+00 1.9312459364e+00 3.3450160838e+00 
101000 4.5854587078e+00 6.9807653616e-05 1.9312459364e+00 -3.3450160838e+00 1.9312459364e+00 3.3450160838e+00 
101100 4.5854587079e+00 6.9804702617e-05 1.9312459364e+00 -3.3450160838e+00 1.9312459364e+00 3.3450160838e+00 
101200 4.5854587080e+00 6.9801919617e-05 1.9312459364e+00 -3.3450160838e+00 1.9312459364e+00 3.3450160838e+00 
101300 4.5854587081e+00 6.9799303855e-05 1.9312459364e+00 -3.3450160838e+00 1.9312459364e+00 3.3450160838e+00 
101400 4.5854587082e+00 6.9796854277e-05 1.9312459364e+00 -3.3450160838e+00 1.9312459364e+00 3.3450160838e+00 
101500 4.5854587083e+00 6.9794569545e-05 1.9312459364e+00 -3.3450160838e+00 1.9312459364e+00 3.3450160838e+00 
101600 4.5854587084e+00 6.9792448046e-05 1.9312459364e+00 -3.3450160838e+00 1.9312459364e+00 3.3450160838e+00 
101700 4.5854587085e+00 6.9790487903e-05 1.9312459364e+00 -3.3450160838e+00 1.9312459364e+00 3.3450160838e+00 
101800 4.5854587086e+00 6.9788686991e-05 1.9312459364e+00 -3.3450160838e+00 1.9312459364e+00 3.3450160838e+00 
101900 4.5854587087e+00 6.9787042944e-05 1.9312459364e+00 -3.3450160838e+00 1.9312459364e+00 3.3450160838e+00 
102000 4.5854587088e+00 6.9785553170e-05 1.9312459364e+00 -3.3450160838e+00 1.9312459364e+00 3.3450160838e+00 
102100 4.5854587088e+00 6.9784214864e-05 1.9312459364e+00 -3.3450160838e+00 1.9312459364e+00 3.3450160838e+00 
102200 4.5854587089e+00 6.9783025022e-05 1.9312459364e+00 -3.3450160838e+00 1.9312459364e+00 3.3450160838e+00 
102300 4.5854587090e+00 6.9781980453e-05 1.9312459364e+00 -3.3450160838e+00 1.9312459364e+00 3.3450160838e+00 
102400 4.5854587091e+00 6.9781077796e-05 1.9312459364e+00 -3.3450160838e+00 1.9312459364e+00 3.3450160838e+00 
102500 4.5854587092e+00 6.9780313530e-05 1.9312459364e+00 -3.3450160838e+00 1.9312459364e+00 3.3450160838e+00 
102600 4.5854587093e+00 6.9779683992e-05 1.9312459364e+00 -3.3450160838e+00 1.9312459364e+00 3.3450160838e+00 
102700 4.5854587094e+00 6.9779185387e-05 1.9312459364e+00 -3.3450160838e+00 1.9312459364e+00 3.3450160838e+00 
102800 4.5854587094e+00 6.9778813806e-05 1.9312459364e+00 -3.3450160838e+00 1.9312459364e+00 3.3450160838e+00 
102900 4.5854587095e+00 6.9778565234e-05 1.9312459364e+00 -3.3450160838e+00 1.9312459364e+00 3.3450160838e+00 
103000 4.5854587096e+00 6.9778435569e-05 1.9312459364e+00 -3.3450160838e+00 1.9312459364e+00 3.3450160838e+00 
103100 4.5854587097e+00 6.9778420633e-05 1.9312459364e+00 -3.3450160838e+00 1.9312459364e+00 3.3450160838e+00 
103200 4.5854587098e+00 6.9778516182e-05 1.9312459364e+00 -3.3450160838e+00 1.9312459364e+00 3.3450160838e+00 
103300 4.5854587098e+00 6.9778717926e-05 1.9312459364e+00 -3.3450160838e+00 1.9312459364e+00 3.3450160838e+00 
103400 4.5854587099e+00 6.9779021531e-05 1.9312459364e+00 -3.3450160838e+00 1.9312459364e+00 3.3450160838e+00 
103500 4.5854587100e+00 6.9779422640e-05 1.9312459364e+00 -3.3450160838e+00 1.9312459364e+00 3.3450160838e+00 
103600 4.5854587101e+00 6.9779916878e-05 1.9312459364e+00 -3.3450160838e+00 1.9312459364e+00 3.3450160838e+00 
103700 4.5854587101e+00 6.9780499870e-05 1.9312459364e+00 -3.3450160838e+00 1.9312459364e+00 3.3450160838e+00 
103800 4.5854587102e+00 6.9781167241e-05 1.9312459364e+00 -3.3450160838e+00 1.9312459364e+00 3.3450160838e+00 
103900 4.5854587103e+00 6.9781914636e-05 1.9312459364e+00 -3.3450160838e+00 1.9312459364e+00 3.3450160838e+00 
104000 4.5854587104e+00 6.9782737726e-05 1.9312459364e+00 -3.3450160838e+00 1.9312459364e+00 3.3450160838e+00 
104100 4.5854587104e+00 6.9783632215e-05 1.9312459364e+00 -3.3450160838e+00 1.9312459364e+00 3.3450160838e+00 
104200 4.5854587105e+00 6.9784593852e-05 1.9312459364e+00 -3.3450160838e+00 1.9312459364e+00 3.3450160838e+00 
104300 4.5854587106e+00 6.9785618437e-05 1.9312459364e+00 -3.3450160838e+00 1.9312459364e+00 3.3450160838e+00 
104400 4.5854587106e+00 6.9786701830e-05 1.9312459364e+00 -3.3450160838e+00 1.9312459364e+00 3.3450160838e+00 
104500 4.5854587107e+00 6.9787839956e-05 1.9312459364e+00 -3.3450160838e+00 1.9312459364e+00 3.3450160838e+00 
104600 4.5854587108e+00 6.9789028814e-05 1.9312459364e+00 -3.3450160838e+00 1.9312459364e+00 3.3450160838e+00 
104700 4.5854587108e+00 6.9790264484e-05 1.9312459364e+00 -3.3450160838e+00 1.9312459364e+00 3.3450160838e+00 
104800 4.5854587109e+00 6.9791543128e-05 1.9312459364e+00 -3.3450160838e+00 1.9312459364e+00 3.3450160838e+00 
104900 4.5854587110e+00 6.9792860999e-05 1.9312459364e+00 -3.3450160838e+00 1.9312459364e+00 3.3450160838e+00 
105000 4.5854587110e+00 6.9794214447e-05 1.9312459364e+00 -3.3450160838e+00 1.9312459364e+00 3.3450160838e+00 
105100 4.5854587111e+00 6.9795599918e-05 1.9312459364e+00 -3.3450160838e+00 1.9312459364e+00 3.3450160838e+00 
105200 4.5854587112e+00 6.9797013962e-05 1.9312459364e+00 -3.3450160838e+00 1.9312459364e+00 3.3450160838e+00 
105300 4.5854587112e+00 6.9798453238e-05 1.9312459364e+00 -3.3450160838e+00 1.9312459364e+00 3.3450160838e+00 
105400 4.5854587113e+00 6.9799914511e-05 1.9312459364e+00 -3.3450160838e+00 1.9312459364e+00 3.3450160838e+00 
105500 4.5854587113e+00 6.9801394658e-05 1.9312459364e+00 -3.3450160838e+00 1.9312459364e+00 3.3450160838e+00 
105600 4.5854587114e+00 6.9802890670e-05 1.9312459364e+00 -3.3450160838e+00 1.9312459364e+00 3.3450160838e+00 
105700 4.5854587115e+00 6.9804399655e-05 1.9312459364e+00 -3.3450160838e+00 1.9312459364e+00 3.3450160838e+00 
105800 4.5854587115e+00 6.9805918837e-05 1.9312459364e+00 -3.3450160838e+00 1.9312459364e+00 3.3450160838e+00 
105900 4.5854587116e+00 6.9807445556e-05 1.9312459364e+00 -3.3450160838e+00 1.9312459364e+00 3.3450160838e+00 
106000 4.5854587116e+00 6.9808977274e-05 1.9312459364e+00 -3.3450160838e+00 1.9312459364e+00 3.3450160838e+00 
106100 4.5854587117e+00 6.9810511567e-05 1.9312459364e+00 -3.3450160838e+00 1.9312459364e+00 3.3450160838e+00 
106200 4.5854587118e+00 6.9812046134e-05 1.9312459364e+00 -3.3450160838e+00 1.9312459364e+00 3.3450160838e+00 
106300 4.5854587118e+00 6.9813578788e-05 1.9312459364e+00 -3.3450160838e+00 1.9312459364e+00 3.3450160838e+00 
106400 4.5854587119e+00 6.9815107464e-05 1.9312459364e+00 -3.3450160838e+00 1.9312459364e+00 3.3450160838e+00 
106500 4.5854587119e+00 6.9816630210e-05 1.9312459364e+00 -3.3450160838e+00 1.9312459364e+00 3.3450160838e+00 
106600 4.5854587120e+00 6.9818145192e-05 1.9312459364e+00 -3.3450160838e+00 1.9312459364e+00 3.3450160838e+00 
106700 4.5854587120e+00 6.9819650688e-05 1.9312459364e+00 -3.3450160838e+00 1.9312459364e+00 3.3450160838e+00 
106800 4.5854587121e+00 6.9821145090e-05 1.9312459364e+00 -3.3450160838e+00 1.9312459364e+00 3.3450160838e+00 
106900 4.5854587121e+00 6.9822626898e-05 1.9312459364e+00 -3.3450160838e+00 1.9312459364e+00 3.3450160838e+00 
107000 4.5854587122e+00 6.9824094724e-05 1.9312459364e+00 -3.3450160838e+00 1.9312459364e+00 3.3450160838e+00 
107100 4.5854587122e+00 6.9825547284e-05 1.9312459364e+00 -3.3450160838e+00 1.9312459364e+00 3.3450160838e+00 
107200 4.5854587123e+00 6.9826783374e-05 1.9312459364e+00 -3.3450160838e+00 1.9312459364e+00 3.3450160838e+00 
107200 4.5854587123e+00 6.9826783374e-05 1.9312459364e+00 -3.3450160838e+00 1.9312459364e+00 3.3450160838e+00 
