# step Hamiltonian StressXX CellTensor1 CellTensor2 CellTensor3 CellTensor4 
0 5.6927208352e+00 -3.3605942357e-01 1.7438352029e+00 -3.0204111715e+00 1.7438352029e+00 3.0204111715e+00 
100 5.6859564922e+00 -3.3796213055e-01 1.7438352029e+00 -3.0204111715e+00 1.7438352029e+00 3.0204111715e+00 
200 5.6769757073e+00 -3.3102078089e-01 1.7535343247e+00 -3.0372105432e+00 1.7535343247e+00 3.0372105432e+00 
300 5.6696207323e+00 -3.2433663123e-01 1.7629814210e+00 -3.0535733939e+00 1.7629814210e+00 3.0535733939e+00 
400 5.6638157117e+00 -3.1791308945e-01 1.7721879051e+00 -3.0695194922e+00 1.7721879051e+00 3.0695194922e+00 
500 5.6594711480e+00 -3.1175621100e-01 1.7811649417e+00 -3.0850681756e+00 1.7811649417e+00 3.0850681756e+00 
600 5.6564856516e+00 -3.0587402324e-01 1.7899235425e+00 -3.1002385174e+00 1.7899235425e+00 3.1002385174e+00 
700 5.6547478652e+00 -3.0027587340e-01 1.7984746402e+00 -3.1150494529e+00 1.7984746402e+00 3.1150494529e+00 
800 5.6541385041e+00 -2.9497181194e-01 1.8068291394e+00 -3.1295198701e+00 1.8068291394e+00 3.1295198701e+00 
900 5.6545324528e+00 -2.8997201968e-01 1.8149979503e+00 -3.1436686656e+00 1.8149979503e+00 3.1436686656e+00 
1000 5.6558008651e+00 -2.8528628501e-01 1.8229920032e+00 -3.1575147714e+00 1.8229920032e+00 3.1575147714e+00 
1100 5.6578132207e+00 -2.8092353588e-01 1.8308222487e+00 -3.1710771543e+00 1.8308222487e+00 3.1710771543e+00 
1200 5.6604392956e+00 -2.7689143013e-01 1.8384996439e+00 -3.1843747929e+00 1.8384996439e+00 3.1843747929e+00 
1300 5.6635510096e+00 -2.7319600684e-01 1.8460351275e+00 -3.1974266334e+00 1.8460351275e+00 3.1974266334e+00 
1400 5.6670241215e+00 -2.6984140038e-01 1.8534395854e+00 -3.2102515307e+00 1.8534395854e+00 3.2102515307e+00 
1500 5.6707397461e+00 -2.6682961795e-01 1.8607238084e+00 -3.2228681751e+00 1.8607238084e+00 3.2228681751e+00 
1600 5.6745856766e+00 -2.6416038055e-01 1.8678984446e+00 -3.2352950094e+00 1.8678984446e+00 3.2352950094e+00 
1700 5.6784574996e+00 -2.6183102588e-01 1.8749739475e+00 -3.2475501399e+00 1.8749739475e+00 3.2475501399e+00 
1800 5.6822594967e+00 -2.5983647101e-01 1.8819605227e+00 -3.2596512431e+00 1.8819605227e+00 3.2596512431e+00 
1900 5.6859053323e+00 -2.5816923108e-01 1.8888680731e+00 -3.2716154714e+00 1.8888680731e+00 3.2716154714e+00 
2000 5.6893185317e+00 -2.5681948968e-01 1.8957061459e+00 -3.2834593609e+00 1.8957061459e+00 3.2834593609e+00 
2100 5.6924327590e+00 -2.5577521520e-01 1.9024838812e+00 -3.2951987427e+00 1.9024838812e+00 3.2951987427e+00 
2200 5.6951919078e+00 -2.5502231707e-01 1.9092099647e+00 -3.3068486611e+00 1.9092099647e+00 3.3068486611e+00 
2300 5.6975500189e+00 -2.5454483510e-01 1.9158925844e+00 -3.3184232980e+00 1.9158925844e+00 3.3184232980e+00 
2400 5.6994710451e+00 -2.5432515460e-01 1.9225393929e+00 -3.3299359081e+00 1.9225393929e+00 3.3299359081e+00 
2500 5.7009284819e+00 -2.5434424044e-01 1.9291574754e+00 -3.3413987632e+00 1.9291574754e+00 3.3413987632e+00 
2600 5.7019048849e+00 -2.5458188269e-01 1.9357533237e+00 -3.3528231075e+00 1.9357533237e+00 3.3528231075e+00 
2700 5.7023912939e+00 -2.5501694735e-01 1.9423328172e+00 -3.3642191247e+00 1.9423328172e+00 3.3642191247e+00 
2800 5.7023865860e+00 -2.5562762613e-01 1.9489012105e+00 -3.3755959155e+00 1.9489012105e+00 3.3755959155e+00 
2900 5.7018967751e+00 -2.5639167955e-01 1.9554631263e+00 -3.3869614871e+00 1.9554631263e+00 3.3869614871e+00 
3000 5.7009342776e+00 -2.5728666909e-01 1.9620225561e+00 -3.3983227527e+00 1.9620225561e+00 3.3983227527e+00 
3100 5.6995171600e+00 -2.5829017427e-01 1.9685828652e+00 -3.4096855415e+00 1.9685828652e+00 3.4096855415e+00 
3200 5.6976683843e+00 -2.5937999188e-01 1.9751468042e+00 -3.4210546173e+00 1.9751468042e+00 3.4210546173e+00 
3300 5.6954150627e+00 -2.6053431525e-01 1.9817165242e+00 -3.4324337061e+00 1.9817165242e+00 3.4324337061e+00 
3400 5.6927877345e+00 -2.6173189213e-01 1.9882935969e+00 -3.4438255302e+00 1.9882935969e+00 3.4438255302e+00 
3500 5.6898196720e+00 -2.6295216070e-01 1.9948790382e+00 -3.4552318492e+00 1.9948790382e+00 3.4552318492e+00 
3600 5.6865462242e+00 -2.6417536370e-01 2.0014733347e+00 -3.4666535056e+00 2.0014733347e+00 3.4666535056e+00 
3700 5.6830042036e+00 -2.6538264123e-01 2.0080764720e+00 -3.4780904749e+00 2.0080764720e+00 3.4780904749e+00 
3800 5.6792313186e+00 -2.6655610327e-01 2.0146879660e+00 -3.4895419185e+00 2.0146879660e+00 3.4895419185e+00 
3900 5.6752656556e+00 -2.6767888318e-01 2.0213068942e+00 -3.5010062384e+00 2.0213068942e+00 3.5010062384e+00 
4000 5.6711452102e+00 -2.6873517391e-01 2.0279319285e+00 -3.5124811344e+00 2.0279319285e+00 3.5124811344e+00 
4100 5.6669074697e+00 -2.6971024854e-01 2.0345613679e+00 -3.5239636603e+00 2.0345613679e+00 3.5239636603e+00 
4200 5.6625890436e+00 -2.7059046697e-01 2.0411931712e+00 -3.5354502806e+00 2.0411931712e+00 3.5354502806e+00 
4300 5.6582253426e+00 -2.7136327080e-01 2.0478249894e+00 -3.5469369266e+00 2.0478249894e+00 3.5469369266e+00 
4400 5.6538503027e+00 -2.7201716795e-01 2.0544541967e+00 -3.5584190505e+00 2.0544541967e+00 3.5584190505e+00 
4500 5.6494961534e+00 -2.7254170904e-01 2.0610779216e+00 -3.5698916786e+00 2.0610779216e+00 3.5698916786e+00 
4600 5.6451932248e+00 -2.7292745700e-01 2.0676930756e+00 -3.5813494613e+00 2.0676930756e+00 3.5813494613e+00 
4700 5.6409697938e+00 -2.7316595149e-01 2.0742963812e+00 -3.5927867222e+00 2.0742963812e+00 3.5927867222e+00 
4800 5.6368519629e+00 -2.7324966958e-01 2.0808843986e+00 -3.6041975031e+00 2.0808843986e+00 3.6041975031e+00 
4900 5.6328635722e+00 -2.7317198386e-01 2.0874535505e+00 -3.6155756079e+00 2.0874535505e+00 3.6155756079e+00 
5000 5.6290261379e+00 -2.7292711914e-01 2.0940001452e+00 -3.6269146426e+00 2.0940001452e+00 3.6269146426e+00 
5100 5.6253588174e+00 -2.7251010862e-01 2.1005203990e+00 -3.6382080534e+00 2.1005203990e+00 3.6382080534e+00 
5200 5.6218783966e+00 -2.7191675048e-01 2.1070104558e+00 -3.6494491615e+00 2.1070104558e+00 3.6494491615e+00 
5300 5.6185992975e+00 -2.7114356544e-01 2.1134664066e+00 -3.6606311963e+00 2.1134664066e+00 3.6606311963e+00 
5400 5.6155336029e+00 -2.7018775599e-01 2.1198843063e+00 -3.6717473248e+00 2.1198843063e+00 3.6717473248e+00 
5500 5.6126910970e+00 -2.6904716762e-01 2.1262601902e+00 -3.6827906795e+00 2.1262601902e+00 3.6827906795e+00 
5600 5.6100793192e+00 -2.6772025261e-01 2.1325900881e+00 -3.6937543843e+00 2.1325900881e+00 3.6937543843e+00 
5700 5.6077036299e+00 -2.6620603641e-01 2.1388700384e+00 -3.7046315774e+00 2.1388700384e+00 3.7046315774e+00 
5800 5.6055672851e+00 -2.6450408701e-01 2.1450961004e+00 -3.7154154331e+00 2.1450961004e+00 3.7154154331e+00 
5900 5.6036715212e+00 -2.6261448731e-01 2.1512643655e+00 -3.7260991816e+00 2.1512643655e+00 3.7260991816e+00 
6000 5.6020156455e+00 -2.6053781067e-01 2.1573709679e+00 -3.7366761271e+00 2.1573709679e+00 3.7366761271e+00 
6100 5.6005971339e+00 -2.5827509948e-01 2.1634120942e+00 -3.7471396648e+00 2.1634120942e+00 3.7471396648e+00 
6200 5.5994117335e+00 -2.5582784689e-01 2.1693839925e+00 -3.7574832962e+00 2.1693839925e+00 3.7574832962e+00 
6300 5.5984535698e+00 -2.5319798149e-01 2.1752829809e+00 -3.7677006438e+00 2.1752829809e+00 3.7677006438e+00 
6400 5.5977152573e+00 -2.5038785490e-01 2.1811054552e+00 -3.7777854651e+00 2.1811054552e+00 3.7777854651e+00 
6500 5.5971880143e+00 -2.4740023202e-01 2.1868478962e+00 -3.7877316647e+00 2.1868478962e+00 3.7877316647e+00 
6600 5.5968617793e+00 -2.4423828391e-01 2.1925068772e+00 -3.7975333073e+00 2.1925068772e+00 3.7975333073e+00 
6700 5.5967253308e+00 -2.4090558285e-01 2.1980790703e+00 -3.8071846287e+00 2.1980790703e+00 3.8071846287e+00 
6800 5.5967664086e+00 -2.3740609951e-01 2.2035612532e+00 -3.8166800482e+00 2.2035612532e+00 3.8166800482e+00 
6900 5.5969718376e+00 -2.3374420186e-01 2.2089503158e+00 -3.8260141784e+00 2.2089503158e+00 3.8260141784e+00 
7000 5.5973276523e+00 -2.2992465547e-01 2.2142432662e+00 -3.8351818374e+00 2.2142432662e+00 3.8351818374e+00 
7100 5.5978192235e+00 -2.2595262500e-01 2.2194372371e+00 -3.8441780588e+00 2.2194372371e+00 3.8441780588e+00 
7200 5.5984313858e+00 -2.2183367624e-01 2.2245294919e+00 -3.8529981029e+00 2.2245294919e+00 3.8529981029e+00 
7300 5.5991485661e+00 -2.1757377862e-01 2.2295174312e+00 -3.8616374671e+00 2.2295174312e+00 3.8616374671e+00 
7400 5.5999549125e+00 -2.1317930750e-01 2.2343985988e+00 -3.8700918975e+00 2.2343985988e+00 3.8700918975e+00 
7500 5.6008344239e+00 -2.0865704591e-01 2.2391706883e+00 -3.8783573989e+00 2.2391706883e+00 3.8783573989e+00 
7600 5.6017710791e+00 -2.0401418537e-01 2.2438315491e+00 -3.8864302466e+00 2.2438315491e+00 3.8864302466e+00 
7700 5.6027489658e+00 -1.9925832506e-01 2.2483791930e+00 -3.8943069969e+00 2.2483791930e+00 3.8943069969e+00 
7800 5.6037524080e+00 -1.9439746925e-01 2.2528118004e+00 -3.9019844982e+00 2.2528118004e+00 3.9019844982e+00 
7900 5.6047660920e+00 -1.8944002219e-01 2.2571277269e+00 -3.9094599021e+00 2.2571277269e+00 3.9094599021e+00 
8000 5.6057751897e+00 -1.8439478023e-01 2.2613255092e+00 -3.9167306743e+00 2.2613255092e+00 3.9167306743e+00 
8100 5.6067654789e+00 -1.7927092079e-01 2.2654038714e+00 -3.9237946049e+00 2.2654038714e+00 3.9237946049e+00 
8200 5.6077234585e+00 -1.7407798764e-01 2.2693617311e+00 -3.9306498190e+00 2.2693617311e+00 3.9306498190e+00 
8300 5.6086364594e+00 -1.6882587246e-01 2.2731982050e+00 -3.9372947867e+00 2.2731982050e+00 3.9372947867e+00 
8400 5.6094927477e+00 -1.6352479222e-01 2.2769126141e+00 -3.9437283319e+00 2.2769126141e+00 3.9437283319e+00 
8500 5.6102816217e+00 -1.5818526243e-01 2.2805044890e+00 -3.9499496418e+00 2.2805044890e+00 3.9499496418e+00 
8600 5.6109934986e+00 -1.5281806604e-01 2.2839735744e+00 -3.9559582740e+00 2.2839735744e+00 3.9559582740e+00 
8700 5.6116199917e+00 -1.4743421816e-01 2.2873198329e+00 -3.9617541637e+00 2.2873198329e+00 3.9617541637e+00 
8800 5.6121539766e+00 -1.4204492665e-01 2.2905434483e+00 -3.9673376295e+00 2.2905434483e+00 3.9673376295e+00 
8900 5.6125896439e+00 -1.3666154882e-01 2.2936448287e+00 -3.9727093779e+00 2.2936448287e+00 3.9727093779e+00 
9000 5.6129225392e+00 -1.3129554457e-01 2.2966246077e+00 -3.9778705065e+00 2.2966246077e+00 3.9778705065e+00 
9100 5.6131495878e+00 -1.2595842638e-01 2.2994836459e+00 -3.9828225058e+00 2.2994836459e+00 3.9828225058e+00 
9200 5.6132691047e+00 -1.2066170649e-01 2.3022230305e+00 -3.9875672591e+00 2.3022230305e+00 3.9875672591e+00 
9300 5.6132807881e+00 -1.1541684201e-01 2.3048440748e+00 -3.9921070410e+00 2.3048440748e+00 3.9921070410e+00 
9400 5.6131856969e+00 -1.1023517826e-01 2.3073483161e+00 -3.9964445142e+00 2.3073483161e+00 3.9964445142e+00 
9500 5.6129862114e+00 -1.0512789118e-01 2.3097375128e+00 -4.0005827243e+00 2.3097375128e+00 4.0005827243e+00 
9600 5.6126859783e+00 -1.0010592922e-01 2.3120136402e+00 -4.0045250926e+00 2.3120136402e+00 4.0045250926e+00 
9700 5.6122898396e+00 -9.5179955559e-02 2.3141788856e+00 -4.0082754077e+00 2.3141788856e+00 4.0082754077e+00 
9800 5.6118037464e+00 -9.0360291105e-02 2.3162356419e+00 -4.0118378141e+00 2.3162356419e+00 4.0118378141e+00 
9900 5.6112346587e+00 -8.5656858967e-02 2.3181865005e+00 -4.0152168002e+00 2.3181865005e+00 4.0152168002e+00 
10000 5.6105904324e+00 -8.1079131077e-02 2.3200342428e+00 -4.0184171838e+00 2.3200342428e+00 4.0184171838e+00 
10100 5.6098796954e+00 -7.6636077497e-02 2.3217818313e+00 -4.0214440958e+00 2.3217818313e+00 4.0214440958e+00 
10200 5.6091117143e+00 -7.2336119013e-02 2.3234323987e+00 -4.0243029625e+00 2.3234323987e+00 4.0243029625e+00 
10300 5.6082962531e+00 -6.8187083555e-02 2.3249892374e+00 -4.0269994863e+00 2.3249892374e+00 4.0269994863e+00 
10400 5.6074434271e+00 -6.4196166960e-02 2.3264557872e+00 -4.0295396249e+00 2.3264557872e+00 4.0295396249e+00 
10500 5.6065635544e+00 -6.0369898495e-02 2.3278356223e+00 -4.0319295695e+00 2.3278356223e+00 4.0319295695e+00 
10600 5.6056670057e+00 -5.6714111546e-02 2.3291324385e+00 -4.0341757211e+00 2.3291324385e+00 4.0341757211e+00 
10700 5.6047640568e+00 -5.3233919773e-02 2.3303500389e+00 -4.0362846668e+00 2.3303500389e+00 4.0362846668e+00 
10800 5.6038647447e+00 -4.9933698926e-02 2.3314923193e+00 -4.0382631546e+00 2.3314923193e+00 4.0382631546e+00 
10900 5.6029787315e+00 -4.6817074479e-02 2.3325632540e+00 -4.0401180678e+00 2.3325632540e+00 4.0401180678e+00 
11000 5.6021151752e+00 -4.3886915069e-02 2.3335668802e+00 -4.0418563993e+00 2.3335668802e+00 4.0418563993e+00 
11100 5.6012826134e+00 -4.1145331685e-02 2.3345072831e+00 -4.0434852249e+00 2.3345072831e+00 4.0434852249e+00 
11200 5.6004888585e+00 -3.8593682417e-02 2.3353885808e+00 -4.0450116774e+00 2.3353885808e+00 4.0450116774e+00 
11300 5.5997409074e+00 -3.6232582497e-02 2.3362149092e+00 -4.0464429201e+00 2.3362149092e+00 4.0464429201e+00 
11400 5.5990448678e+00 -3.4061919291e-02 2.3369904069e+00 -4.0477861216e+00 2.3369904069e+00 4.0477861216e+00 
11500 5.5984058995e+00 -3.2080871822e-02 2.3377192008e+00 -4.0490484297e+00 2.3377192008e+00 4.0490484297e+00 
11600 5.5978281743e+00 -3.0287934355e-02 2.3384053919e+00 -4.0502369475e+00 2.3384053919e+00 4.0502369475e+00 
11700 5.5973148528e+00 -2.8680943555e-02 2.3390530412e+00 -4.0513587090e+00 2.3390530412e+00 4.0513587090e+00 
11800 5.5968680788e+00 -2.7257108712e-02 2.3396661568e+00 -4.0524206563e+00 2.3396661568e+00 4.0524206563e+00 
11900 5.5964889901e+00 -2.6013044495e-02 2.3402486809e+00 -4.0534296176e+00 2.3402486809e+00 4.0534296176e+00 
12000 5.5961777460e+00 -2.4944805769e-02 2.3408044781e+00 -4.0543922867e+00 2.3408044781e+00 4.0543922867e+00 
12100 5.5959335693e+00 -2.4047923983e-02 2.3413373238e+00 -4.0553152025e+00 2.3413373238e+00 4.0553152025e+00 
12200 5.5957548023e+00 -2.3317444703e-02 2.3418508936e+00 -4.0562047315e+00 2.3418508936e+00 4.0562047315e+00 
12300 5.5956389744e+00 -2.2747965900e-02 2.3423487535e+00 -4.0570670500e+00 2.3423487535e+00 4.0570670500e+00 
12400 5.5955828797e+00 -2.2333676637e-02 2.3428343505e+00 -4.0579081287e+00 2.3428343505e+00 4.0579081287e+00 
12500 5.5955826637e+00 -2.2068395870e-02 2.3433110046e+00 -4.0587337179e+00 2.3433110046e+00 4.0587337179e+00 
12600 5.5956339154e+00 -2.1945611092e-02 2.3437819010e+00 -4.0595493344e+00 2.3437819010e+00 4.0595493344e+00 
12700 5.5957317637e+00 -2.1958516620e-02 2.3442500833e+00 -4.0603602499e+00 2.3442500833e+00 4.0603602499e+00 
12800 5.5958709767e+00 -2.2100051351e-02 2.3447184473e+00 -4.0611714801e+00 2.3447184473e+00 4.0611714801e+00 
12900 5.5960460605e+00 -2.2362935834e-02 2.3451897361e+00 -4.0619877763e+00 2.3451897361e+00 4.0619877763e+00 
13000 5.5962513574e+00 -2.2739708554e-02 2.3456665353e+00 -4.0628136168e+00 2.3456665353e+00 4.0628136168e+00 
13100 5.5964811399e+00 -2.3222761330e-02 2.3461512694e+00 -4.0636532009e+00 2.3461512694e+00 4.0636532009e+00 
13200 5.5967297008e+00 -2.3804373752e-02 2.3466461987e+00 -4.0645104435e+00 2.3466461987e+00 4.0645104435e+00 
13300 5.5969914374e+00 -2.4476746593e-02 2.3471534168e+00 -4.0653889711e+00 2.3471534168e+00 4.0653889711e+00 
13400 5.5972609283e+00 -2.5232034127e-02 2.3476748496e+00 -4.0662921191e+00 2.3476748496e+00 4.0662921191e+00 
13500 5.5975330024e+00 -2.6062375314e-02 2.3482122536e+00 -4.0672229301e+00 2.3482122536e+00 4.0672229301e+00 
13600 5.5978027997e+00 -2.6959923792e-02 2.3487672162e+00 -4.0681841536e+00 2.3487672162e+00 4.0681841536e+00 
13700 5.5980658226e+00 -2.7916876629e-02 2.3493411561e+00 -4.0691782466e+00 2.3493411561e+00 4.0691782466e+00 
13800 5.5983179784e+00 -2.8925501779e-02 2.3499353238e+00 -4.0702073753e+00 2.3499353238e+00 4.0702073753e+00 
13900 5.5985556127e+00 -2.9978164201e-02 2.3505508038e+00 -4.0712734179e+00 2.3505508038e+00 4.0712734179e+00 
14000 5.5987755330e+00 -3.1067350590e-02 2.3511885164e+00 -4.0723779686e+00 2.3511885164e+00 4.0723779686e+00 
14100 5.5989750245e+00 -3.2185692662e-02 2.3518492207e+00 -4.0735223419e+00 2.3518492207e+00 4.0735223419e+00 
14200 5.5991518564e+00 -3.3325988975e-02 2.3525335174e+00 -4.0747075786e+00 2.3525335174e+00 4.0747075786e+00 
14300 5.5993042816e+00 -3.4481225217e-02 2.3532418529e+00 -4.0759344517e+00 2.3532418529e+00 4.0759344517e+00 
14400 5.5994310281e+00 -3.5644592952e-02 2.3539745233e+00 -4.0772034741e+00 2.3539745233e+00 4.0772034741e+00 
14500 5.5995312844e+00 -3.6809506794e-02 2.3547316790e+00 -4.0785149061e+00 2.3547316790e+00 4.0785149061e+00 
14600 5.5996046795e+00 -3.7969619982e-02 2.3555133294e+00 -4.0798687645e+00 2.3555133294e+00 4.0798687645e+00 
14700 5.5996512573e+00 -3.9118838364e-02 2.3563193487e+00 -4.0812648309e+00 2.3563193487e+00 4.0812648309e+00 
14800 5.5996714473e+00 -4.0251332782e-02 2.3571494810e+00 -4.0827026621e+00 2.3571494810e+00 4.0827026621e+00 
14900 5.5996660316e+00 -4.1361549879e-02 2.3580033463e+00 -4.0841816002e+00 2.3580033463e+00 4.0841816002e+00 
15000 5.5996361094e+00 -4.2444221348e-02 2.3588804467e+00 -4.0857007826e+00 2.3588804467e+00 4.0857007826e+00 
15100 5.5995830603e+00 -4.3494371654e-02 2.3597801726e+00 -4.0872591536e+00 2.3597801726e+00 4.0872591536e+00 
15200 5.5995085049e+00 -4.4507324278e-02 2.3607018093e+00 -4.0888554753e+00 2.3607018093e+00 4.0888554753e+00 
15300 5.5994142668e+00 -4.5478706532e-02 2.3616445435e+00 -4.0904883388e+00 2.3616445435e+00 4.0904883388e+00 
15400 5.5993023332e+00 -4.6404453006e-02 2.3626074699e+00 -4.0921561761e+00 2.3626074699e+00 4.0921561761e+00 
15500 5.5991748166e+00 -4.7280807701e-02 2.3635895980e+00 -4.0938572720e+00 2.3635895980e+00 4.0938572720e+00 
15600 5.5990339181e+00 -4.8104324946e-02 2.3645898592e+00 -4.0955897753e+00 2.3645898592e+00 4.0955897753e+00 
15700 5.5988818917e+00 -4.8871869141e-02 2.3656071133e+00 -4.0973517110e+00 2.3656071133e+00 4.0973517110e+00 
15800 5.5987210104e+00 -4.9580613430e-02 2.3666401552e+00 -4.0991409920e+00 2.3666401552e+00 4.0991409920e+00 
15900 5.5985535350e+00 -5.0228037369e-02 2.3676877219e+00 -4.1009554308e+00 2.3676877219e+00 4.1009554308e+00 
16000 5.5983816847e+00 -5.0811923679e-02 2.3687484992e+00 -4.1027927509e+00 2.3687484992e+00 4.1027927509e+00 
16100 5.5982076110e+00 -5.1330354152e-02 2.3698211279e+00 -4.1046505985e+00 2.3698211279e+00 4.1046505985e+00 
16200 5.5980333740e+00 -5.1781704799e-02 2.3709042110e+00 -4.1065265533e+00 2.3709042110e+00 4.1065265533e+00 
16300 5.5978609211e+00 -5.2164640305e-02 2.3719963192e+00 -4.1084181402e+00 2.3719963192e+00 4.1084181402e+00 
16400 5.5976920696e+00 -5.2478107868e-02 2.3730959977e+00 -4.1103228393e+00 2.3730959977e+00 4.1103228393e+00 
16500 5.5975284911e+00 -5.2721330491e-02 2.3742017722e+00 -4.1122380969e+00 2.3742017722e+00 4.1122380969e+00 
16600 5.5973716995e+00 -5.2893799787e-02 2.3753121546e+00 -4.1141613357e+00 2.3753121546e+00 4.1141613357e+00 
16700 5.5972230415e+00 -5.2995268350e-02 2.3764256489e+00 -4.1160899643e+00 2.3764256489e+00 4.1160899643e+00 
16800 5.5970836898e+00 -5.3025741757e-02 2.3775407566e+00 -4.1180213875e+00 2.3775407566e+00 4.1180213875e+00 
16900 5.5969546386e+00 -5.2985470243e-02 2.3786559822e+00 -4.1199530149e+00 2.3786559822e+00 4.1199530149e+00 
17000 5.5968367023e+00 -5.2874940083e-02 2.3797698382e+00 -4.1218822700e+00 2.3797698382e+00 4.1218822700e+00 
17100 5.5967305159e+00 -5.2694864741e-02 2.3808808501e+00 -4.1238065991e+00 2.3808808501e+00 4.1238065991e+00 
17200 5.5966365373e+00 -5.2446175791e-02 2.3819875611e+00 -4.1257234789e+00 2.3819875611e+00 4.1257234789e+00 
17300 5.5965550523e+00 -5.2130013661e-02 2.3830885370e+00 -4.1276304249e+00 2.3830885370e+00 4.1276304249e+00 
17400 5.5964861809e+00 -5.1747718213e-02 2.3841823696e+00 -4.1295249986e+00 2.3841823696e+00 4.1295249986e+00 
17500 5.5964298851e+00 -5.1300819180e-02 2.3852676817e+00 -4.1314048144e+00 2.3852676817e+00 4.1314048144e+00 
17600 5.5963859785e+00 -5.0791026478e-02 2.3863431307e+00 -4.1332675466e+00 2.3863431307e+00 4.1332675466e+00 
17700 5.5963541365e+00 -5.0220220407e-02 2.3874074118e+00 -4.1351109356e+00 2.3874074118e+00 4.1351109356e+00 
17800 5.5963339083e+00 -4.9590441755e-02 2.3884592622e+00 -4.1369327939e+00 2.3884592622e+00 4.1369327939e+00 
17900 5.5963247292e+00 -4.8903881800e-02 2.3894974635e+00 -4.1387310114e+00 2.3894974635e+00 4.1387310114e+00 
18000 5.5963259335e+00 -4.8162872242e-02 2.3905208454e+00 -4.1405035609e+00 2.3905208454e+00 4.1405035609e+00 
18100 5.5963367679e+00 -4.7369875049e-02 2.3915282881e+00 -4.1422485027e+00 2.3915282881e+00 4.1422485027e+00 
18200 5.5963564057e+00 -4.6527472233e-02 2.3925187247e+00 -4.1439639893e+00 2.3925187247e+00 4.1439639893e+00 
18300 5.5963839603e+00 -4.5638355567e-02 2.3934911439e+00 -4.1456482687e+00 2.3934911439e+00 4.1456482687e+00 
18400 5.5964184995e+00 -4.4705316236e-02 2.3944445918e+00 -4.1472996890e+00 2.3944445918e+00 4.1472996890e+00 
18500 5.5964590588e+00 -4.3731234440e-02 2.3953781741e+00 -4.1489167009e+00 2.3953781741e+00 4.1489167009e+00 
18600 5.5965046546e+00 -4.2719068961e-02 2.3962910573e+00 -4.1504978610e+00 2.3962910573e+00 4.1504978610e+00 
18700 5.5965542979e+00 -4.1671846687e-02 2.3971824707e+00 -4.1520418342e+00 2.3971824707e+00 4.1520418342e+00 
18800 5.5966070056e+00 -4.0592652118e-02 2.3980517070e+00 -4.1535473958e+00 2.3980517070e+00 4.1535473958e+00 
18900 5.5966618127e+00 -3.9484616871e-02 2.3988981241e+00 -4.1550134332e+00 2.3988981241e+00 4.1550134332e+00 
19000 5.5967177832e+00 -3.8350909188e-02 2.3997211452e+00 -4.1564389475e+00 2.3997211452e+00 4.1564389475e+00 
19100 5.5967740194e+00 -3.7194723463e-02 2.4005202597e+00 -4.1578230543e+00 2.4005202597e+00 4.1578230543e+00 
19200 5.5968296718e+00 -3.6019269830e-02 2.4012950234e+00 -4.1591649846e+00 2.4012950234e+00 4.1591649846e+00 
19300 5.5968839464e+00 -3.4827763804e-02 2.4020450592e+00 -4.1604640847e+00 2.4020450592e+00 4.1604640847e+00 
19400 5.5969361117e+00 -3.3623416022e-02 2.4027700564e+00 -4.1617198165e+00 2.4027700564e+00 4.1617198165e+00 
19500 5.5969855049e+00 -3.2409422100e-02 2.4034697706e+00 -4.1629317571e+00 2.4034697706e+00 4.1629317571e+00 
19600 5.5970315365e+00 -3.1188952633e-02 2.4041440236e+00 -4.1640995976e+00 2.4041440236e+00 4.1640995976e+00 
19700 5.5970736939e+00 -2.9965143374e-02 2.4047927026e+00 -4.1652231426e+00 2.4047927026e+00 4.1652231426e+00 
19800 5.5971115437e+00 -2.8741085617e-02 2.4054157592e+00 -4.1663023082e+00 2.4054157592e+00 4.1663023082e+00 
19900 5.5971447337e+00 -2.7519816816e-02 2.4060132084e+00 -4.1673371206e+00 2.4060132084e+00 4.1673371206e+00 
20000 5.5971729925e+00 -2.6304311481e-02 2.4065851277e+00 -4.1683277139e+00 2.4065851277e+00 4.1683277139e+00 
20100 5.5971961297e+00 -2.5097472365e-02 2.4071316553e+00 -4.1692743275e+00 2.4071316553e+00 4.1692743275e+00 
20200 5.5972140336e+00 -2.3902121998e-02 2.4076529891e+00 -4.1701773040e+00 2.4076529891e+00 4.1701773040e+00 
20300 5.5972266688e+00 -2.2720994584e-02 2.4081493842e+00 -4.1710370856e+00 2.4081493842e+00 4.1710370856e+00 
20400 5.5972340731e+00 -2.1556728298e-02 2.4086211517e+00 -4.1718542110e+00 2.4086211517e+00 4.1718542110e+00 
20500 5.5972363531e+00 -2.0411858014e-02 2.4090686566e+00 -4.1726293122e+00 2.4090686566e+00 4.1726293122e+00 
20600 5.5972336793e+00 -1.9288808491e-02 2.4094923153e+00 -4.1733631106e+00 2.4094923153e+00 4.1733631106e+00 
20700 5.5972262810e+00 -1.8189888046e-02 2.4098925935e+00 -4.1740564127e+00 2.4098925935e+00 4.1740564127e+00 
20800 5.5972144400e+00 -1.7117282742e-02 2.4102700037e+00 -4.1747101064e+00 2.4102700037e+00 4.1747101064e+00 
20900 5.5971984843e+00 -1.6073051101e-02 2.4106251030e+00 -4.1753251564e+00 2.4106251030e+00 4.1753251564e+00 
21000 5.5971787818e+00 -1.5059119378e-02 2.4109584900e+00 -4.1759025996e+00 2.4109584900e+00 4.1759025996e+00 
21100 5.5971557332e+00 -1.4077277403e-02 2.4112708024e+00 -4.1764435405e+00 2.4112708024e+00 4.1764435405e+00 
21200 5.5971297649e+00 -1.3129175009e-02 2.4115627140e+00 -4.1769491464e+00 2.4115627140e+00 4.1769491464e+00 
21300 5.5971013223e+00 -1.2216319049e-02 2.4118349322e+00 -4.1774206420e+00 2.4118349322e+00 4.1774206420e+00 
21400 5.5970708627e+00 -1.1340071017e-02 2.4120881944e+00 -4.1778593050e+00 2.4120881944e+00 4.1778593050e+00 
21500 5.5970388489e+00 -1.0501645276e-02 2.4123232657e+00 -4.1782664605e+00 2.4123232657e+00 4.1782664605e+00 
21600 5.5970057422e+00 -9.7021078885e-03 2.4125409356e+00 -4.1786434758e+00 2.4125409356e+00 4.1786434758e+00 
21700 5.5969719967e+00 -8.9423760413e-03 2.4127420149e+00 -4.1789917554e+00 2.4127420149e+00 4.1789917554e+00 
21800 5.5969380534e+00 -8.2232180742e-03 2.4129273329e+00 -4.1793127356e+00 2.4129273329e+00 4.1793127356e+00 
21900 5.5969043347e+00 -7.5452540841e-03 2.4130977342e+00 -4.1796078792e+00 2.4130977342e+00 4.1796078792e+00 
22000 5.5968712399e+00 -6.9089571005e-03 2.4132540754e+00 -4.1798786702e+00 2.4132540754e+00 4.1798786702e+00 
22100 5.5968391409e+00 -6.3146548130e-03 2.4133972229e+00 -4.1801266089e+00 2.4133972229e+00 4.1801266089e+00 
22200 5.5968083783e+00 -5.7625318313e-03 2.4135280491e+00 -4.1803532066e+00 2.4135280491e+00 4.1803532066e+00 
22300 5.5967792585e+00 -5.2526324557e-03 2.4136474299e+00 -4.1805599802e+00 2.4136474299e+00 4.1805599802e+00 
22400 5.5967520514e+00 -4.7848639326e-03 2.4137562419e+00 -4.1807484480e+00 2.4137562419e+00 4.1807484480e+00 
22500 5.5967269883e+00 -4.3590001694e-03 2.4138553591e+00 -4.1809201241e+00 2.4138553591e+00 4.1809201241e+00 
22600 5.5967042609e+00 -3.9746858795e-03 2.4139456509e+00 -4.1810765141e+00 2.4139456509e+00 4.1810765141e+00 
22700 5.5966840206e+00 -3.6314411262e-03 2.4140279789e+00 -4.1812191104e+00 2.4140279789e+00 4.1812191104e+00 
22800 5.5966663784e+00 -3.3286662361e-03 2.4141031947e+00 -4.1813493880e+00 2.4141031947e+00 4.1813493880e+00 
22900 5.5966514058e+00 -3.0656470478e-03 2.4141721371e+00 -4.1814687997e+00 2.4141721371e+00 4.1814687997e+00 
23000 5.5966391355e+00 -2.8415604623e-03 2.4142356301e+00 -4.1815787728e+00 2.4142356301e+00 4.1815787728e+00 
23100 5.5966295632e+00 -2.6554802635e-03 2.4142944805e+00 -4.1816807046e+00 2.4142944805e+00 4.1816807046e+00 
23200 5.5966226493e+00 -2.5063831718e-03 2.4143494756e+00 -4.1817759590e+00 2.4143494756e+00 4.1817759590e+00 
23300 5.5966183216e+00 -2.3931550998e-03 2.4144013818e+00 -4.1818658632e+00 2.4144013818e+00 4.1818658632e+00 
23400 5.5966164778e+00 -2.3145975742e-03 2.4144509420e+00 -4.1819517039e+00 2.4144509420e+00 4.1819517039e+00 
23500 5.5966169884e+00 -2.2694342912e-03 2.4144988743e+00 -4.1820347251e+00 2.4144988743e+00 4.1820347251e+00 
23600 5.5966197000e+00 -2.2563177746e-03 2.4145458704e+00 -4.1821161248e+00 2.4145458704e+00 4.1821161248e+00 
23700 5.5966244389e+00 -2.2738361012e-03 2.4145925940e+00 -4.1821970524e+00 2.4145925940e+00 4.1821970524e+00 
23800 5.5966310139e+00 -2.3205196666e-03 2.4146396795e+00 -4.1822786068e+00 2.4146396795e+00 4.1822786068e+00 
23900 5.5966392205e+00 -2.3948479595e-03 2.4146877307e+00 -4.1823618340e+00 2.4146877307e+00 4.1823618340e+00 
24000 5.5966488440e+00 -2.4952563159e-03 2.4147373200e+00 -4.1824477252e+00 2.4147373200e+00 4.1824477252e+00 
24100 5.5966596630e+00 -2.6201426278e-03 2.4147889875e+00 -4.1825372159e+00 2.4147889875e+00 4.1825372159e+00 
24200 5.5966714528e+00 -2.7678739792e-03 2.4148432397e+00 -4.1826311834e+00 2.4148432397e+00 4.1826311834e+00 
24300 5.5966839888e+00 -2.9367931859e-03 2.4149005495e+00 -4.1827304470e+00 2.4149005495e+00 4.1827304470e+00 
24400 5.5966970491e+00 -3.1252252158e-03 2.4149613554e+00 -4.1828357659e+00 2.4149613554e+00 4.1828357659e+00 
24500 5.5967104179e+00 -3.3314834698e-03 2.4150260612e+00 -4.1829478396e+00 2.4150260612e+00 4.1829478396e+00 
24600 5.5967238874e+00 -3.5538759023e-03 2.4150950356e+00 -4.1830673068e+00 2.4150950356e+00 4.1830673068e+00 
24700 5.5967372608e+00 -3.7907109645e-03 2.4151686123e+00 -4.1831947453e+00 2.4151686123e+00 4.1831947453e+00 
24800 5.5967503541e+00 -4.0403033533e-03 2.4152470899e+00 -4.1833306725e+00 2.4152470899e+00 4.1833306725e+00 
24900 5.5967629974e+00 -4.3009795524e-03 2.4153307320e+00 -4.1834755449e+00 2.4153307320e+00 4.1834755449e+00 
25000 5.5967750373e+00 -4.5710831501e-03 2.4154197675e+00 -4.1836297589e+00 2.4154197675e+00 4.1836297589e+00 
25100 5.5967863373e+00 -4.8489799250e-03 2.4155143911e+00 -4.1837936518e+00 2.4155143911e+00 4.1837936518e+00 
25200 5.5967967788e+00 -5.1330626870e-03 2.4156147634e+00 -4.1839675017e+00 2.4156147634e+00 4.1839675017e+00 
25300 5.5968062620e+00 -5.4217558670e-03 2.4157210117e+00 -4.1841515292e+00 2.4157210117e+00 4.1841515292e+00 
25400 5.5968147058e+00 -5.7135198457e-03 2.4158332307e+00 -4.1843458982e+00 2.4158332307e+00 4.1843458982e+00 
25500 5.5968220480e+00 -6.0068550186e-03 2.4159514832e+00 -4.1845507176e+00 2.4159514832e+00 4.1845507176e+00 
25600 5.5968282450e+00 -6.3003055899e-03 2.4160758008e+00 -4.1847660420e+00 2.4160758008e+00 4.1847660420e+00 
25700 5.5968332714e+00 -6.5924630936e-03 2.4162061850e+00 -4.1849918741e+00 2.4162061850e+00 4.1849918741e+00 
25800 5.5968371190e+00 -6.8819696395e-03 2.4163426081e+00 -4.1852281657e+00 2.4163426081e+00 4.1852281657e+00 
25900 5.5968397964e+00 -7.1675208824e-03 2.4164850142e+00 -4.1854748203e+00 2.4164850142e+00 4.1854748203e+00 
26000 5.5968413276e+00 -7.4478687162e-03 2.4166333204e+00 -4.1857316942e+00 2.4166333204e+00 4.1857316942e+00 
26100 5.5968417507e+00 -7.7218236919e-03 2.4167874180e+00 -4.1859985990e+00 2.4167874180e+00 4.1859985990e+00 
26200 5.5968411168e+00 -7.9882571635e-03 2.4169471736e+00 -4.1862753039e+00 2.4169471736e+00 4.1862753039e+00 
26300 5.5968394885e+00 -8.2461031636e-03 2.4171124306e+00 -4.1865615374e+00 2.4171124306e+00 4.1865615374e+00 
26400 5.5968369385e+00 -8.4943600128e-03 2.4172830102e+00 -4.1868569899e+00 2.4172830102e+00 4.1868569899e+00 
26500 5.5968335477e+00 -8.7320916679e-03 2.4174587129e+00 -4.1871613159e+00 2.4174587129e+00 4.1871613159e+00 
26600 5.5968294041e+00 -8.9584288126e-03 2.4176393199e+00 -4.1874741365e+00 2.4176393199e+00 4.1874741365e+00 
26700 5.5968246008e+00 -9.1725696980e-03 2.4178245945e+00 -4.1877950415e+00 2.4178245945e+00 4.1877950415e+00 
26800 5.5968192349e+00 -9.3737807387e-03 2.4180142834e+00 -4.1881235923e+00 2.4180142834e+00 4.1881235923e+00 
26900 5.5968134055e+00 -9.5613968709e-03 2.4182081182e+00 -4.1884593240e+00 2.4182081182e+00 4.1884593240e+00 
27000 5.5968072127e+00 -9.7348216798e-03 2.4184058168e+00 -4.1888017480e+00 2.4184058168e+00 4.1888017480e+00 
27100 5.5968007560e+00 -9.8935273048e-03 2.4186070849e+00 -4.1891503545e+00 2.4186070849e+00 4.1891503545e+00 
27200 5.5967941328e+00 -1.0037054129e-02 2.4188116172e+00 -4.1895046149e+00 2.4188116172e+00 4.1895046149e+00 
27300 5.5967874378e+00 -1.0165010263e-02 2.4190190992e+00 -4.1898639843e+00 2.4190190992e+00 4.1898639843e+00 
27400 5.5967807613e+00 -1.0277070828e-02 2.4192292083e+00 -4.1902279039e+00 2.4192292083e+00 4.1902279039e+00 
27500 5.5967741886e+00 -1.0372977054e-02 2.4194416152e+00 -4.1905958035e+00 2.4194416152e+00 4.1905958035e+00 
27600 5.5967677989e+00 -1.0452535191e-02 2.4196559855e+00 -4.1909671038e+00 2.4196559855e+00 4.1909671038e+00 
27700 5.5967616650e+00 -1.0515615254e-02 2.4198719809e+00 -4.1913412188e+00 2.4198719809e+00 4.1913412188e+00 
27800 5.5967558523e+00 -1.0562149600e-02 2.4200892604e+00 -4.1917175579e+00 2.4200892604e+00 4.1917175579e+00 
27900 5.5967504185e+00 -1.0592131358e-02 2.4203074819e+00 -4.1920955286e+00 2.4203074819e+00 4.1920955286e+00 
28000 5.5967454131e+00 -1.0605612709e-02 2.4205263031e+00 -4.1924745380e+00 2.4205263031e+00 4.1924745380e+00 
28100 5.5967408777e+00 -1.0602703027e-02 2.4207453830e+00 -4.1928539955e+00 2.4207453830e+00 4.1928539955e+00 
28200 5.5967368451e+00 -1.0583566910e-02 2.4209643829e+00 -4.1932333146e+00 2.4209643829e+00 4.1932333146e+00 
28300 5.5967333402e+00 -1.0548422074e-02 2.4211829679e+00 -4.1936119148e+00 2.4211829679e+00 4.1936119148e+00 
28400 5.5967303795e+00 -1.0497537154e-02 2.4214008072e+00 -4.1939892236e+00 2.4214008072e+00 4.1939892236e+00 
28500 5.5967279715e+00 -1.0431229398e-02 2.4216175763e+00 -4.1943646786e+00 2.4216175763e+00 4.1943646786e+00 
28600 5.5967261172e+00 -1.0349862279e-02 2.4218329568e+00 -4.1947377286e+00 2.4218329568e+00 4.1947377286e+00 
28700 5.5967248103e+00 -1.0253843022e-02 2.4220466382e+00 -4.1951078357e+00 2.4220466382e+00 4.1951078357e+00 
28800 5.5967240377e+00 -1.0143620060e-02 2.4222583185e+00 -4.1954744767e+00 2.4222583185e+00 4.1954744767e+00 
28900 5.5967237803e+00 -1.0019680433e-02 2.4224677051e+00 -4.1958371449e+00 2.4224677051e+00 4.1958371449e+00 
29000 5.5967240132e+00 -9.8825471259e-03 2.4226745153e+00 -4.1961953507e+00 2.4226745153e+00 4.1961953507e+00 
29100 5.5967247064e+00 -9.7327763705e-03 2.4228784776e+00 -4.1965486238e+00 2.4228784776e+00 4.1965486238e+00 
29200 5.5967258259e+00 -9.5709549082e-03 2.4230793319e+00 -4.1968965137e+00 2.4230793319e+00 4.1968965137e+00 
29300 5.5967273337e+00 -9.3976972264e-03 2.4232768303e+00 -4.1972385909e+00 2.4232768303e+00 4.1972385909e+00 
29400 5.5967291890e+00 -9.2136427782e-03 2.4234707376e+00 -4.1975744482e+00 2.4234707376e+00 4.1975744482e+00 
29500 5.5967313488e+00 -9.0194531922e-03 2.4236608320e+00 -4.1979037013e+00 2.4236608320e+00 4.1979037013e+00 
29600 5.5967337685e+00 -8.8158094816e-03 2.4238469052e+00 -4.1982259897e+00 2.4238469052e+00 4.1982259897e+00 
29700 5.5967364024e+00 -8.6034092610e-03 2.4240287633e+00 -4.1985409770e+00 2.4240287633e+00 4.1985409770e+00 
29800 5.5967392048e+00 -8.3829639786e-03 2.4242062264e+00 -4.1988483521e+00 2.4242062264e+00 4.1988483521e+00 
29900 5.5967421302e+00 -8.1551961724e-03 2.4243791297e+00 -4.1991478294e+00 2.4243791297e+00 4.1991478294e+00 
30000 5.5967451340e+00 -7.9208367578e-03 2.4245473230e+00 -4.1994391488e+00 2.4245473230e+00 4.1994391488e+00 
30100 5.5967481732e+00 -7.6806223544e-03 2.4247106716e+00 -4.1997220768e+00 2.4247106716e+00 4.1997220768e+00 
30200 5.5967512066e+00 -7.4352926589e-03 2.4248690556e+00 -4.1999964059e+00 2.4248690556e+00 4.1999964059e+00 
30300 5.5967541954e+00 -7.1855878732e-03 2.4250223704e+00 -4.2002619551e+00 2.4250223704e+00 4.2002619551e+00 
30400 5.5967571037e+00 -6.9322461915e-03 2.4251705270e+00 -4.2005185699e+00 2.4251705270e+00 4.2005185699e+00 
30500 5.5967598984e+00 -6.6760013567e-03 2.4253134513e+00 -4.2007661219e+00 2.4253134513e+00 4.2007661219e+00 
30600 5.5967625500e+00 -6.4175802892e-03 2.4254510843e+00 -4.2010045093e+00 2.4254510843e+00 4.2010045093e+00 
30700 5.5967650324e+00 -6.1577007971e-03 2.4255833822e+00 -4.2012336559e+00 2.4255833822e+00 4.2012336559e+00 
30800 5.5967673233e+00 -5.8970693713e-03 2.4257103156e+00 -4.2014535111e+00 2.4257103156e+00 4.2014535111e+00 
30900 5.5967694042e+00 -5.6363790725e-03 2.4258318701e+00 -4.2016640496e+00 2.4258318701e+00 4.2016640496e+00 
31000 5.5967712602e+00 -5.3763075143e-03 2.4259480452e+00 -4.2018652708e+00 2.4259480452e+00 4.2018652708e+00 
31100 5.5967728806e+00 -5.1175149474e-03 2.4260588544e+00 -4.2020571980e+00 2.4260588544e+00 4.2020571980e+00 
31200 5.5967742582e+00 -4.8606424496e-03 2.4261643249e+00 -4.2022398782e+00 2.4261643249e+00 4.2022398782e+00 
31300 5.5967753895e+00 -4.6063102246e-03 2.4262644969e+00 -4.2024133813e+00 2.4262644969e+00 4.2024133813e+00 
31400 5.5967762744e+00 -4.3551160139e-03 2.4263594235e+00 -4.2025777989e+00 2.4263594235e+00 4.2025777989e+00 
31500 5.5967769163e+00 -4.1076336240e-03 2.4264491700e+00 -4.2027332444e+00 2.4264491700e+00 4.2027332444e+00 
31600 5.5967773216e+00 -3.8644115730e-03 2.4265338133e+00 -4.2028798510e+00 2.4265338133e+00 4.2028798510e+00 
31700 5.5967774994e+00 -3.6259718563e-03 2.4266134420e+00 -4.2030177719e+00 2.4266134420e+00 4.2030177719e+00 
31800 5.5967774615e+00 -3.3928088351e-03 2.4266881550e+00 -4.2031471786e+00 2.4266881550e+00 4.2031471786e+00 
31900 5.5967772218e+00 -3.1653882483e-03 2.4267580615e+00 -4.2032682602e+00 2.4267580615e+00 4.2032682602e+00 
32000 5.5967767964e+00 -2.9441463480e-03 2.4268232802e+00 -4.2033812223e+00 2.4268232802e+00 4.2033812223e+00 
32100 5.5967762027e+00 -2.7294891589e-03 2.4268839389e+00 -4.2034862863e+00 2.4268839389e+00 4.2034862863e+00 
32200 5.5967754597e+00 -2.5217918624e-03 2.4269401736e+00 -4.2035836876e+00 2.4269401736e+00 4.2035836876e+00 
32300 5.5967745871e+00 -2.3213983032e-03 2.4269921279e+00 -4.2036736751e+00 2.4269921279e+00 4.2036736751e+00 
32400 5.5967736055e+00 -2.1286206182e-03 2.4270399527e+00 -4.2037565100e+00 2.4270399527e+00 4.2037565100e+00 
32500 5.5967725356e+00 -1.9437389858e-03 2.4270838050e+00 -4.2038324645e+00 2.4270838050e+00 4.2038324645e+00 
32600 5.5967713984e+00 -1.7670014937e-03 2.4271238478e+00 -4.2039018206e+00 2.4271238478e+00 4.2039018206e+00 
32700 5.5967702144e+00 -1.5986241229e-03 2.4271602490e+00 -4.2039648694e+00 2.4271602490e+00 4.2039648694e+00 
32800 5.5967690039e+00 -1.4387908439e-03 2.4271931811e+00 -4.2040219094e+00 2.4271931811e+00 4.2040219094e+00 
32900 5.5967677861e+00 -1.2876538244e-03 2.4272228201e+00 -4.2040732457e+00 2.4272228201e+00 4.2040732457e+00 
33000 5.5967665796e+00 -1.1453337416e-03 2.4272493454e+00 -4.2041191889e+00 2.4272493454e+00 4.2041191889e+00 
33100 5.5967654016e+00 -1.0119201988e-03 2.4272729387e+00 -4.2041600537e+00 2.4272729387e+00 4.2041600537e+00 
33200 5.5967642679e+00 -8.8747223861e-04 2.4272937835e+00 -4.2041961580e+00 2.4272937835e+00 4.2041961580e+00 
33300 5.5967631930e+00 -7.7201895136e-04 2.4273120646e+00 -4.2042278218e+00 2.4273120646e+00 4.2042278218e+00 
33400 5.5967621899e+00 -6.6556017166e-04 2.4273279674e+00 -4.2042553662e+00 2.4273279674e+00 4.2042553662e+00 
33500 5.5967612696e+00 -5.6806725960e-04 2.4273416772e+00 -4.2042791122e+00 2.4273416772e+00 4.2042791122e+00 
33600 5.5967604416e+00 -4.7948396077e-04 2.4273533786e+00 -4.2042993797e+00 2.4273533786e+00 4.2042993797e+00 
33700 5.5967597136e+00 -3.9972733991e-04 2.4273632553e+00 -4.2043164866e+00 2.4273632553e+00 4.2043164866e+00 
33800 5.5967590914e+00 -3.2868878287e-04 2.4273714891e+00 -4.2043307479e+00 2.4273714891e+00 4.2043307479e+00 
33900 5.5967585793e+00 -2.6623506108e-04 2.4273782595e+00 -4.2043424747e+00 2.4273782595e+00 4.2043424747e+00 
34000 5.5967581796e+00 -2.1220945297e-04 2.4273837435e+00 -4.2043519733e+00 2.4273837435e+00 4.2043519733e+00 
34100 5.5967578932e+00 -1.6643291673e-04 2.4273881147e+00 -4.2043595444e+00 2.4273881147e+00 4.2043595444e+00 
34200 5.5967577191e+00 -1.2870530836e-04 2.4273915429e+00 -4.2043654822e+00 2.4273915429e+00 4.2043654822e+00 
34300 5.5967576551e+00 -9.8806639602e-05 2.4273941940e+00 -4.2043700741e+00 2.4273941940e+00 4.2043700741e+00 
34400 5.5967576975e+00 -7.6498369707e-05 2.4273962293e+00 -4.2043735992e+00 2.4273962293e+00 4.2043735992e+00 
34500 5.5967578414e+00 -6.1524725547e-05 2.4273978050e+00 -4.2043763285e+00 2.4273978050e+00 4.2043763285e+00 
34600 5.5967580810e+00 -5.4109283295e-05 2.4273978050e+00 -4.2043763285e+00 2.4273978050e+00 4.2043763285e+00 
34700 5.5967584090e+00 -5.3415014595e-05 2.4273978050e+00 -4.2043763285e+00 2.4273978050e+00 4.2043763285e+00 
34800 5.5967588178e+00 -5.9196514013e-05 2.4273978050e+00 -4.2043763285e+00 2.4273978050e+00 4.2043763285e+00 
34900 5.5967592990e+00 -7.1195012118e-05 2.4273978050e+00 -4.2043763285e+00 2.4273978050e+00 4.2043763285e+00 
35000 5.5967598434e+00 -8.8566615963e-05 2.4273992715e+00 -4.2043788685e+00 2.4273992715e+00 4.2043788685e+00 
35100 5.5967604417e+00 -1.1145361045e-04 2.4274010958e+00 -4.2043820283e+00 2.4274010958e+00 4.2043820283e+00 
35200 5.5967610845e+00 -1.3951770931e-04 2.4274033915e+00 -4.2043860046e+00 2.4274033915e+00 4.2043860046e+00 
35300 5.5967617618e+00 -1.7241430798e-04 2.4274062654e+00 -4.2043909822e+00 2.4274062654e+00 4.2043909822e+00 
35400 5.5967624642e+00 -2.0979382106e-04 2.4274098168e+00 -4.2043971334e+00 2.4274098168e+00 4.2043971334e+00 
35500 5.5967631822e+00 -2.5130299777e-04 2.4274141381e+00 -4.2044046182e+00 2.4274141381e+00 4.2044046182e+00 
35600 5.5967639066e+00 -2.9658621149e-04 2.4274193145e+00 -4.2044135839e+00 2.4274193145e+00 4.2044135839e+00 
35700 5.5967646287e+00 -3.4528671966e-04 2.4274254236e+00 -4.2044241652e+00 2.4274254236e+00 4.2044241652e+00 
35800 5.5967653401e+00 -3.9704789048e-04 2.4274325358e+00 -4.2044364839e+00 2.4274325358e+00 4.2044364839e+00 
35900 5.5967660334e+00 -4.5151439319e-04 2.4274407141e+00 -4.2044506492e+00 2.4274407141e+00 4.2044506492e+00 
36000 5.5967667013e+00 -5.0833334876e-04 2.4274500143e+00 -4.2044667577e+00 2.4274500143e+00 4.2044667577e+00 
36100 5.5967673376e+00 -5.6715543848e-04 2.4274604849e+00 -4.2044848932e+00 2.4274604849e+00 4.2044848932e+00 
36200 5.5967679368e+00 -6.2763596754e-04 2.4274721669e+00 -4.2045051271e+00 2.4274721669e+00 4.2045051271e+00 
36300 5.5967684941e+00 -6.8943588166e-04 2.4274850947e+00 -4.2045275187e+00 2.4274850947e+00 4.2045275187e+00 
36400 5.5967690055e+00 -7.5222273448e-04 2.4274992954e+00 -4.2045521149e+00 2.4274992954e+00 4.2045521149e+00 
36500 5.5967694678e+00 -8.1567160400e-04 2.4275147892e+00 -4.2045789509e+00 2.4275147892e+00 4.2045789509e+00 
36600 5.5967698789e+00 -8.7946595654e-04 2.4275315897e+00 -4.2046080504e+00 2.4275315897e+00 4.2046080504e+00 
36700 5.5967702370e+00 -9.4329845681e-04 2.4275497042e+00 -4.2046394255e+00 2.4275497042e+00 4.2046394255e+00 
36800 5.5967705415e+00 -1.0068717231e-03 2.4275691332e+00 -4.2046730776e+00 2.4275691332e+00 4.2046730776e+00 
36900 5.5967707923e+00 -1.0698990264e-03 2.4275898715e+00 -4.2047089974e+00 2.4275898715e+00 4.2047089974e+00 
37000 5.5967709902e+00 -1.1321049337e-03 2.4276119078e+00 -4.2047471653e+00 2.4276119078e+00 4.2047471653e+00 
37100 5.5967711365e+00 -1.1932258935e-03 2.4276352251e+00 -4.2047875521e+00 2.4276352251e+00 4.2047875521e+00 
37200 5.5967712331e+00 -1.2530107649e-03 2.4276598010e+00 -4.2048301188e+00 2.4276598010e+00 4.2048301188e+00 
37300 5.5967712825e+00 -1.3112212894e-03 2.4276856080e+00 -4.2048748179e+00 2.4276856080e+00 4.2048748179e+00 
37400 5.5967712878e+00 -1.3676325054e-03 2.4277126136e+00 -4.2049215930e+00 2.4277126136e+00 4.2049215930e+00 
37500 5.5967712521e+00 -1.4220331065e-03 2.4277407808e+00 -4.2049703800e+00 2.4277407808e+00 4.2049703800e+00 
37600 5.5967711794e+00 -1.4742257435e-03 2.4277700680e+00 -4.2050211069e+00 2.4277700680e+00 4.2050211069e+00 
37700 5.5967710735e+00 -1.5240272709e-03 2.4278004298e+00 -4.2050736951e+00 2.4278004298e+00 4.2050736951e+00 
37800 5.5967709387e+00 -1.5712689392e-03 2.4278318169e+00 -4.2051280591e+00 2.4278318169e+00 4.2051280591e+00 
37900 5.5967707793e+00 -1.6157965331e-03 2.4278641765e+00 -4.2051841075e+00 2.4278641765e+00 4.2051841075e+00 
38000 5.5967705997e+00 -1.6574704581e-03 2.4278974526e+00 -4.2052417435e+00 2.4278974526e+00 4.2052417435e+00 
38100 5.5967704044e+00 -1.6961657750e-03 2.4279315866e+00 -4.2053008653e+00 2.4279315866e+00 4.2053008653e+00 
38200 5.5967701977e+00 -1.7317721856e-03 2.4279665169e+00 -4.2053613664e+00 2.4279665169e+00 4.2053613664e+00 
38300 5.5967699838e+00 -1.7641939699e-03 2.4280021800e+00 -4.2054231367e+00 2.4280021800e+00 4.2054231367e+00 
38400 5.5967697670e+00 -1.7933498762e-03 2.4280385103e+00 -4.2054860625e+00 2.4280385103e+00 4.2054860625e+00 
38500 5.5967695511e+00 -1.8191729674e-03 2.4280754404e+00 -4.2055500273e+00 2.4280754404e+00 4.2055500273e+00 
38600 5.5967693398e+00 -1.8416104233e-03 2.4281129017e+00 -4.2056149122e+00 2.4281129017e+00 4.2056149122e+00 
38700 5.5967691365e+00 -1.8606233025e-03 2.4281508245e+00 -4.2056805964e+00 2.4281508245e+00 4.2056805964e+00 
38800 5.5967689443e+00 -1.8761862646e-03 2.4281891381e+00 -4.2057469577e+00 2.4281891381e+00 4.2057469577e+00 
38900 5.5967687660e+00 -1.8882872558e-03 2.4282277717e+00 -4.2058138729e+00 2.4282277717e+00 4.2058138729e+00 
39000 5.5967686038e+00 -1.8969271590e-03 2.4282666538e+00 -4.2058812187e+00 2.4282666538e+00 4.2058812187e+00 
39100 5.5967684600e+00 -1.9021194111e-03 2.4283057132e+00 -4.2059488716e+00 2.4283057132e+00 4.2059488716e+00 
39200 5.5967683361e+00 -1.9038895901e-03 2.4283448789e+00 -4.2060167085e+00 2.4283448789e+00 4.2060167085e+00 
39300 5.5967682336e+00 -1.9022749729e-03 2.4283840804e+00 -4.2060846075e+00 2.4283840804e+00 4.2060846075e+00 
39400 5.5967681532e+00 -1.8973240673e-03 2.4284232480e+00 -4.2061524478e+00 2.4284232480e+00 4.2061524478e+00 
39500 5.5967680956e+00 -1.8890961202e-03 2.4284623130e+00 -4.2062201104e+00 2.4284623130e+00 4.2062201104e+00 
39600 5.5967680611e+00 -1.8776606038e-03 2.4285012080e+00 -4.2062874785e+00 2.4285012080e+00 4.2062874785e+00 
39700 5.5967680495e+00 -1.8630966819e-03 2.4285398669e+00 -4.2063544378e+00 2.4285398669e+00 4.2063544378e+00 
39800 5.5967680603e+00 -1.8454926601e-03 2.4285782254e+00 -4.2064208766e+00 2.4285782254e+00 4.2064208766e+00 
39900 5.5967680930e+00 -1.8249454203e-03 2.4286162209e+00 -4.2064866866e+00 2.4286162209e+00 4.2064866866e+00 
40000 5.5967681466e+00 -1.8015598425e-03 2.4286537927e+00 -4.2065517629e+00 2.4286537927e+00 4.2065517629e+00 
40100 5.5967682198e+00 -1.7754482168e-03 2.4286908824e+00 -4.2066160043e+00 2.4286908824e+00 4.2066160043e+00 
40200 5.5967683112e+00 -1.7467296467e-03 2.4287274341e+00 -4.2066793136e+00 2.4287274341e+00 4.2066793136e+00 
40300 5.5967684193e+00 -1.7155294462e-03 2.4287633939e+00 -4.2067415979e+00 2.4287633939e+00 4.2067415979e+00 
40400 5.5967685423e+00 -1.6819785336e-03 2.4287987110e+00 -4.2068027687e+00 2.4287987110e+00 4.2068027687e+00 
40500 5.5967686784e+00 -1.6462128232e-03 2.4288333368e+00 -4.2068627424e+00 2.4288333368e+00 4.2068627424e+00 
40600 5.5967688256e+00 -1.6083726166e-03 2.4288672258e+00 -4.2069214399e+00 2.4288672258e+00 4.2069214399e+00 
40700 5.5967689820e+00 -1.5686019977e-03 2.4289003354e+00 -4.2069787874e+00 2.4289003354e+00 4.2069787874e+00 
40800 5.5967691456e+00 -1.5270482301e-03 2.4289326258e+00 -4.2070347161e+00 2.4289326258e+00 4.2070347161e+00 
40900 5.5967693143e+00 -1.4838611619e-03 2.4289640605e+00 -4.2070891625e+00 2.4289640605e+00 4.2070891625e+00 
41000 5.5967694862e+00 -1.4391926376e-03 2.4289946057e+00 -4.2071420683e+00 2.4289946057e+00 4.2071420683e+00 
41100 5.5967696594e+00 -1.3931959201e-03 2.4290242310e+00 -4.2071933809e+00 2.4290242310e+00 4.2071933809e+00 
41200 5.5967698320e+00 -1.3460251228e-03 2.4290529092e+00 -4.2072430529e+00 2.4290529092e+00 4.2072430529e+00 
41300 5.5967700024e+00 -1.2978346564e-03 2.4290806160e+00 -4.2072910426e+00 2.4290806160e+00 4.2072910426e+00 
41400 5.5967701688e+00 -1.2487786880e-03 2.4291073306e+00 -4.2073373136e+00 2.4291073306e+00 4.2073373136e+00 
41500 5.5967703298e+00 -1.1990106173e-03 2.4291330351e+00 -4.2073818351e+00 2.4291330351e+00 4.2073818351e+00 
41600 5.5967704841e+00 -1.1486825691e-03 2.4291577150e+00 -4.2074245819e+00 2.4291577150e+00 4.2074245819e+00 
41700 5.5967706304e+00 -1.0979449046e-03 2.4291813586e+00 -4.2074655339e+00 2.4291813586e+00 4.2074655339e+00 
41800 5.5967707678e+00 -1.0469457517e-03 2.4292039577e+00 -4.2075046767e+00 2.4292039577e+00 4.2075046767e+00 
41900 5.5967708953e+00 -9.9583055608e-04 2.4292255069e+00 -4.2075420010e+00 2.4292255069e+00 4.2075420010e+00 
42000 5.5967710123e+00 -9.4474165375e-04 2.4292460038e+00 -4.2075775027e+00 2.4292460038e+00 4.2075775027e+00 
42100 5.5967711182e+00 -8.9381786558e-04 2.4292654490e+00 -4.2076111828e+00 2.4292654490e+00 4.2076111828e+00 
42200 5.5967712127e+00 -8.4319411538e-04 2.4292838459e+00 -4.2076430471e+00 2.4292838459e+00 4.2076430471e+00 
42300 5.5967712957e+00 -7.9300107139e-04 2.4293012007e+00 -4.2076731065e+00 2.4293012007e+00 4.2076731065e+00 
42400 5.5967713670e+00 -7.4336481238e-04 2.4293175223e+00 -4.2077013764e+00 2.4293175223e+00 4.2077013764e+00 
42500 5.5967714268e+00 -6.9440651838e-04 2.4293328222e+00 -4.2077278766e+00 2.4293328222e+00 4.2077278766e+00 
42600 5.5967714754e+00 -6.4624218673e-04 2.4293471143e+00 -4.2077526313e+00 2.4293471143e+00 4.2077526313e+00 
42700 5.5967715131e+00 -5.9898237362e-04 2.4293604151e+00 -4.2077756688e+00 2.4293604151e+00 4.2077756688e+00 
42800 5.5967715404e+00 -5.5273196126e-04 2.4293727431e+00 -4.2077970216e+00 2.4293727431e+00 4.2077970216e+00 
42900 5.5967715579e+00 -5.0758995100e-04 2.4293841191e+00 -4.2078167254e+00 2.4293841191e+00 4.2078167254e+00 
43000 5.5967715664e+00 -4.6364928207e-04 2.4293945660e+00 -4.2078348200e+00 2.4293945660e+00 4.2078348200e+00 
43100 5.5967715666e+00 -4.2099667622e-04 2.4294041085e+00 -4.2078513481e+00 2.4294041085e+00 4.2078513481e+00 
43200 5.5967715592e+00 -3.7971250786e-04 2.4294127731e+00 -4.2078663556e+00 2.4294127731e+00 4.2078663556e+00 
43300 5.5967715453e+00 -3.3987069956e-04 2.4294205880e+00 -4.2078798914e+00 2.4294205880e+00 4.2078798914e+00 
43400 5.5967715257e+00 -3.0153864251e-04 2.4294275829e+00 -4.2078920069e+00 2.4294275829e+00 4.2078920069e+00 
43500 5.5967715014e+00 -2.6477714161e-04 2.4294337889e+00 -4.2079027560e+00 2.4294337889e+00 4.2079027560e+00 
43600 5.5967714732e+00 -2.2964038472e-04 2.4294392383e+00 -4.2079121946e+00 2.4294392383e+00 4.2079121946e+00 
43700 5.5967714422e+00 -1.9617593537e-04 2.4294439645e+00 -4.2079203806e+00 2.4294439645e+00 4.2079203806e+00 
43800 5.5967714092e+00 -1.6442474851e-04 2.4294480019e+00 -4.2079273737e+00 2.4294480019e+00 4.2079273737e+00 
43900 5.5967713750e+00 -1.3442120850e-04 2.4294513859e+00 -4.2079332349e+00 2.4294513859e+00 4.2079332349e+00 
44000 5.5967713407e+00 -1.0619318864e-04 2.4294541524e+00 -4.2079380266e+00 2.4294541524e+00 4.2079380266e+00 
44100 5.5967713069e+00 -7.9762131386e-05 2.4294563379e+00 -4.2079418121e+00 2.4294563379e+00 4.2079418121e+00 
44200 5.5967712743e+00 -5.5143148487e-05 2.4294579795e+00 -4.2079446554e+00 2.4294579795e+00 4.2079446554e+00 
44300 5.5967712438e+00 -3.2787153953e-05 2.4294579795e+00 -4.2079446554e+00 2.4294579795e+00 4.2079446554e+00 
44400 5.5967712157e+00 -1.2079492556e-05 2.4294579795e+00 -4.2079446554e+00 2.4294579795e+00 4.2079446554e+00 
44500 5.5967711907e+00 6.9709274702e-06 2.4294579795e+00 -4.2079446554e+00 2.4294579795e+00 4.2079446554e+00 
44600 5.5967711693e+00 2.4360899167e-05 2.4294579795e+00 -4.2079446554e+00 2.4294579795e+00 4.2079446554e+00 
44700 5.5967711518e+00 4.0092766642e-05 2.4294579795e+00 -4.2079446554e+00 2.4294579795e+00 4.2079446554e+00 
44800 5.5967711386e+00 5.4174258455e-05 2.4294579795e+00 -4.2079446554e+00 2.4294579795e+00 4.2079446554e+00 
44900 5.5967711299e+00 6.6618305929e-05 2.4294579795e+00 -4.2079446554e+00 2.4294579795e+00 4.2079446554e+00 
45000 5.5967711259e+00 7.7442847586e-05 2.4294579795e+00 -4.2079446554e+00 2.4294579795e+00 4.2079446554e+00 
45100 5.5967711264e+00 8.6049755942e-05 2.4294563857e+00 -4.2079418948e+00 2.4294563857e+00 4.2079418948e+00 
45200 5.5967711315e+00 9.3008004323e-05 2.4294546147e+00 -4.2079388274e+00 2.4294546147e+00 4.2079388274e+00 
45300 5.5967711413e+00 9.8360785594e-05 2.4294527005e+00 -4.2079355119e+00 2.4294527005e+00 4.2079355119e+00 
45400 5.5967711555e+00 1.0215522082e-04 2.4294506762e+00 -4.2079320057e+00 2.4294506762e+00 4.2079320057e+00 
45500 5.5967711740e+00 1.0444209360e-04 2.4294485738e+00 -4.2079283641e+00 2.4294485738e+00 4.2079283641e+00 
45600 5.5967711965e+00 1.0527557931e-04 2.4294464243e+00 -4.2079246411e+00 2.4294464243e+00 4.2079246411e+00 
45700 5.5967712227e+00 1.0471297010e-04 2.4294442576e+00 -4.2079208883e+00 2.4294442576e+00 4.2079208883e+00 
45800 5.5967712524e+00 1.0281439694e-04 2.4294421025e+00 -4.2079171556e+00 2.4294421025e+00 4.2079171556e+00 
45900 5.5967712852e+00 9.9642549612e-05 2.4294399865e+00 -4.2079134906e+00 2.4294399865e+00 4.2079134906e+00 
46000 5.5967713207e+00 9.5262395752e-05 2.4294379358e+00 -4.2079099386e+00 2.4294379358e+00 4.2079099386e+00 
46100 5.5967713585e+00 8.9740899886e-05 2.4294359752e+00 -4.2079065428e+00 2.4294359752e+00 4.2079065428e+00 
46200 5.5967713981e+00 8.3146743517e-05 2.4294341283e+00 -4.2079033438e+00 2.4294341283e+00 4.2079033438e+00 
46300 5.5967714392e+00 7.5550047077e-05 2.4294324170e+00 -4.2079003798e+00 2.4294324170e+00 4.2079003798e+00 
46400 5.5967714814e+00 6.7022094766e-05 2.4294308621e+00 -4.2078976867e+00 2.4294308621e+00 4.2078976867e+00 
46500 5.5967715243e+00 5.8172377847e-05 2.4294308621e+00 -4.2078976867e+00 2.4294308621e+00 4.2078976867e+00 
46600 5.5967715673e+00 4.8469936188e-05 2.4294308621e+00 -4.2078976867e+00 2.4294308621e+00 4.2078976867e+00 
46700 5.5967716102e+00 3.7980883231e-05 2.4294308621e+00 -4.2078976867e+00 2.4294308621e+00 4.2078976867e+00 
46800 5.5967716525e+00 2.6771850677e-05 2.4294308621e+00 -4.2078976867e+00 2.4294308621e+00 4.2078976867e+00 
46900 5.5967716939e+00 1.4909740880e-05 2.4294308621e+00 -4.2078976867e+00 2.4294308621e+00 4.2078976867e+00 
47000 5.5967717341e+00 2.4614863337e-06 2.4294308621e+00 -4.2078976867e+00 2.4294308621e+00 4.2078976867e+00 
47100 5.5967717728e+00 -1.0506183127e-05 2.4294308621e+00 -4.2078976867e+00 2.4294308621e+00 4.2078976867e+00 
47200 5.5967718098e+00 -2.3926964885e-05 2.4294308621e+00 -4.2078976867e+00 2.4294308621e+00 4.2078976867e+00 
47300 5.5967718449e+00 -3.7735199291e-05 2.4294308621e+00 -4.2078976867e+00 2.4294308621e+00 4.2078976867e+00 
47400 5.5967718779e+00 -5.1866076184e-05 2.4294308621e+00 -4.2078976867e+00 2.4294308621e+00 4.2078976867e+00 
47500 5.5967719086e+00 -6.6255831747e-05 2.4294308621e+00 -4.2078976867e+00 2.4294308621e+00 4.2078976867e+00 
47600 5.5967719370e+00 -8.0841935320e-05 2.4294308621e+00 -4.2078976867e+00 2.4294308621e+00 4.2078976867e+00 
47700 5.5967719629e+00 -9.4915315870e-05 2.4294325259e+00 -4.2079005685e+00 2.4294325259e+00 4.2079005685e+00 
47800 5.5967719862e+00 -1.0894096914e-04 2.4294344794e+00 -4.2079039519e+00 2.4294344794e+00 4.2079039519e+00 
47900 5.5967720070e+00 -1.2285903305e-04 2.4294367215e+00 -4.2079078354e+00 2.4294367215e+00 4.2079078354e+00 
48000 5.5967720253e+00 -1.3661191120e-04 2.4294392500e+00 -4.2079122150e+00 2.4294392500e+00 4.2079122150e+00 
48100 5.5967720412e+00 -1.5014440217e-04 2.4294420616e+00 -4.2079170848e+00 2.4294420616e+00 4.2079170848e+00 
48200 5.5967720546e+00 -1.6340381706e-04 2.4294451517e+00 -4.2079224370e+00 2.4294451517e+00 4.2079224370e+00 
48300 5.5967720657e+00 -1.7634008524e-04 2.4294485147e+00 -4.2079282619e+00 2.4294485147e+00 4.2079282619e+00 
48400 5.5967720747e+00 -1.8890584817e-04 2.4294521439e+00 -4.2079345479e+00 2.4294521439e+00 4.2079345479e+00 
48500 5.5967720817e+00 -2.0105654146e-04 2.4294560318e+00 -4.2079412818e+00 2.4294560318e+00 4.2079412818e+00 
48600 5.5967720868e+00 -2.1275046513e-04 2.4294601697e+00 -4.2079484488e+00 2.4294601697e+00 4.2079484488e+00 
48700 5.5967720902e+00 -2.2394884223e-04 2.4294645482e+00 -4.2079560327e+00 2.4294645482e+00 4.2079560327e+00 
48800 5.5967720921e+00 -2.3461586585e-04 2.4294691572e+00 -4.2079640157e+00 2.4294691572e+00 4.2079640157e+00 
48900 5.5967720927e+00 -2.4471873482e-04 2.4294739858e+00 -4.2079723790e+00 2.4294739858e+00 4.2079723790e+00 
49000 5.5967720922e+00 -2.5422767822e-04 2.4294790222e+00 -4.2079811024e+00 2.4294790222e+00 4.2079811024e+00 
49100 5.5967720908e+00 -2.6311596893e-04 2.4294842544e+00 -4.2079901648e+00 2.4294842544e+00 4.2079901648e+00 
49200 5.5967720886e+00 -2.7135992655e-04 2.4294896694e+00 -4.2079995439e+00 2.4294896694e+00 4.2079995439e+00 
49300 5.5967720859e+00 -2.7893890991e-04 2.4294952541e+00 -4.2080092169e+00 2.4294952541e+00 4.2080092169e+00 
49400 5.5967720828e+00 -2.8583529952e-04 2.4295009948e+00 -4.2080191601e+00 2.4295009948e+00 4.2080191601e+00 
49500 5.5967720795e+00 -2.9203447030e-04 2.4295068774e+00 -4.2080293490e+00 2.4295068774e+00 4.2080293490e+00 
49600 5.5967720763e+00 -2.9752475496e-04 2.4295128876e+00 -4.2080397589e+00 2.4295128876e+00 4.2080397589e+00 
49700 5.5967720732e+00 -3.0229739844e-04 2.4295190107e+00 -4.2080503645e+00 2.4295190107e+00 4.2080503645e+00 
49800 5.5967720704e+00 -3.0634650373e-04 2.4295252321e+00 -4.2080611402e+00 2.4295252321e+00 4.2080611402e+00 
49900 5.5967720681e+00 -3.0966896958e-04 2.4295315367e+00 -4.2080720602e+00 2.4295315367e+00 4.2080720602e+00 
50000 5.5967720663e+00 -3.1226442056e-04 2.4295379097e+00 -4.2080830986e+00 2.4295379097e+00 4.2080830986e+00 
50100 5.5967720651e+00 -3.1413512978e-04 2.4295443362e+00 -4.2080942295e+00 2.4295443362e+00 4.2080942295e+00 
50200 5.5967720647e+00 -3.1528593491e-04 2.4295508011e+00 -4.2081054270e+00 2.4295508011e+00 4.2081054270e+00 
50300 5.5967720651e+00 -3.1572414782e-04 2.4295572896e+00 -4.2081166655e+00 2.4295572896e+00 4.2081166655e+00 
50400 5.5967720663e+00 -3.1545945846e-04 2.4295637872e+00 -4.2081279197e+00 2.4295637872e+00 4.2081279197e+00 
50500 5.5967720684e+00 -3.1450383332e-04 2.4295702793e+00 -4.2081391643e+00 2.4295702793e+00 4.2081391643e+00 
50600 5.5967720714e+00 -3.1287140910e-04 2.4295767517e+00 -4.2081503749e+00 2.4295767517e+00 4.2081503749e+00 
50700 5.5967720754e+00 -3.1057838201e-04 2.4295831905e+00 -4.2081615272e+00 2.4295831905e+00 4.2081615272e+00 
50800 5.5967720802e+00 -3.0764289315e-04 2.4295895821e+00 -4.2081725978e+00 2.4295895821e+00 4.2081725978e+00 
50900 5.5967720859e+00 -3.0408491062e-04 2.4295959133e+00 -4.2081835637e+00 2.4295959133e+00 4.2081835637e+00 
51000 5.5967720924e+00 -2.9992610864e-04 2.4296021712e+00 -4.2081944028e+00 2.4296021712e+00 4.2081944028e+00 
51100 5.5967720998e+00 -2.9518974437e-04 2.4296083436e+00 -4.2082050936e+00 2.4296083436e+00 4.2082050936e+00 
51200 5.5967721079e+00 -2.8990053277e-04 2.4296144184e+00 -4.2082156155e+00 2.4296144184e+00 4.2082156155e+00 
51300 5.5967721166e+00 -2.8408452004e-04 2.4296203844e+00 -4.2082259489e+00 2.4296203844e+00 4.2082259489e+00 
51400 5.5967721260e+00 -2.7776895605e-04 2.4296262307e+00 -4.2082360749e+00 2.4296262307e+00 4.2082360749e+00 
51500 5.5967721359e+00 -2.7098216640e-04 2.4296319470e+00 -4.2082459758e+00 2.4296319470e+00 4.2082459758e+00 
51600 5.5967721462e+00 -2.6375342417e-04 2.4296375236e+00 -4.2082556348e+00 2.4296375236e+00 4.2082556348e+00 
51700 5.5967721569e+00 -2.5611282231e-04 2.4296429514e+00 -4.2082650361e+00 2.4296429514e+00 4.2082650361e+00 
51800 5.5967721679e+00 -2.4809114660e-04 2.4296482220e+00 -4.2082741650e+00 2.4296482220e+00 4.2082741650e+00 
51900 5.5967721790e+00 -2.3971974995e-04 2.4296533275e+00 -4.2082830080e+00 2.4296533275e+00 4.2082830080e+00 
52000 5.5967721903e+00 -2.3103042820e-04 2.4296582607e+00 -4.2082915526e+00 2.4296582607e+00 4.2082915526e+00 
52100 5.5967722016e+00 -2.2205529794e-04 2.4296630151e+00 -4.2082997874e+00 2.4296630151e+00 4.2082997874e+00 
52200 5.5967722128e+00 -2.1282667661e-04 2.4296675848e+00 -4.2083077023e+00 2.4296675848e+00 4.2083077023e+00 
52300 5.5967722239e+00 -2.0337696532e-04 2.4296719645e+00 -4.2083152883e+00 2.4296719645e+00 4.2083152883e+00 
52400 5.5967722348e+00 -1.9373853456e-04 2.4296761498e+00 -4.2083225374e+00 2.4296761498e+00 4.2083225374e+00 
52500 5.5967722454e+00 -1.8394361331e-04 2.4296801367e+00 -4.2083294429e+00 2.4296801367e+00 4.2083294429e+00 
52600 5.5967722557e+00 -1.7402418167e-04 2.4296839221e+00 -4.2083359994e+00 2.4296839221e+00 4.2083359994e+00 
52700 5.5967722656e+00 -1.6401186730e-04 2.4296875033e+00 -4.2083422022e+00 2.4296875033e+00 4.2083422022e+00 
52800 5.5967722750e+00 -1.5393784598e-04 2.4296908784e+00 -4.2083480481e+00 2.4296908784e+00 4.2083480481e+00 
52900 5.5967722840e+00 -1.4383274651e-04 2.4296940463e+00 -4.2083535350e+00 2.4296940463e+00 4.2083535350e+00 
53000 5.5967722925e+00 -1.3372656005e-04 2.4296970062e+00 -4.2083586617e+00 2.4296970062e+00 4.2083586617e+00 
53100 5.5967723005e+00 -1.2364855420e-04 2.4296997581e+00 -4.2083634282e+00 2.4296997581e+00 4.2083634282e+00 
53200 5.5967723079e+00 -1.1362719193e-04 2.4297023026e+00 -4.2083678354e+00 2.4297023026e+00 4.2083678354e+00 
53300 5.5967723147e+00 -1.0369005544e-04 2.4297046409e+00 -4.2083718855e+00 2.4297046409e+00 4.2083718855e+00 
53400 5.5967723210e+00 -9.3863775324e-05 2.4297067747e+00 -4.2083755813e+00 2.4297067747e+00 4.2083755813e+00 
53500 5.5967723267e+00 -8.4173964672e-05 2.4297087063e+00 -4.2083789269e+00 2.4297087063e+00 4.2083789269e+00 
53600 5.5967723319e+00 -7.4645158716e-05 2.4297104385e+00 -4.2083819271e+00 2.4297104385e+00 4.2083819271e+00 
53700 5.5967723365e+00 -6.5300759690e-05 2.4297119746e+00 -4.2083845877e+00 2.4297119746e+00 4.2083845877e+00 
53800 5.5967723407e+00 -5.6686131430e-05 2.4297119746e+00 -4.2083845877e+00 2.4297119746e+00 4.2083845877e+00 
53900 5.5967723444e+00 -4.8234527608e-05 2.4297119746e+00 -4.2083845877e+00 2.4297119746e+00 4.2083845877e+00 
54000 5.5967723476e+00 -3.9966764752e-05 2.4297119746e+00 -4.2083845877e+00 2.4297119746e+00 4.2083845877e+00 
54100 5.5967723503e+00 -3.1902476189e-05 2.4297119746e+00 -4.2083845877e+00 2.4297119746e+00 4.2083845877e+00 
54200 5.5967723526e+00 -2.4060074243e-05 2.4297119746e+00 -4.2083845877e+00 2.4297119746e+00 4.2083845877e+00 
54300 5.5967723546e+00 -1.6456718480e-05 2.4297119746e+00 -4.2083845877e+00 2.4297119746e+00 4.2083845877e+00 
54400 5.5967723563e+00 -9.1082899041e-06 2.4297119746e+00 -4.2083845877e+00 2.4297119746e+00 4.2083845877e+00 
54500 5.5967723577e+00 -2.0293708933e-06 2.4297119746e+00 -4.2083845877e+00 2.4297119746e+00 4.2083845877e+00 
54600 5.5967723589e+00 4.7667692200e-06 2.4297119746e+00 -4.2083845877e+00 2.4297119746e+00 4.2083845877e+00 
54700 5.5967723599e+00 1.1268183136e-05 2.4297119746e+00 -4.2083845877e+00 2.4297119746e+00 4.2083845877e+00 
54800 5.5967723608e+00 1.7464249306e-05 2.4297119746e+00 -4.2083845877e+00 2.4297119746e+00 4.2083845877e+00 
54900 5.5967723615e+00 2.3345670577e-05 2.4297119746e+00 -4.2083845877e+00 2.4297119746e+00 4.2083845877e+00 
55000 5.5967723623e+00 2.8904467953e-05 2.4297119746e+00 -4.2083845877e+00 2.4297119746e+00 4.2083845877e+00 
55100 5.5967723630e+00 3.4133969688e-05 2.4297119746e+00 -4.2083845877e+00 2.4297119746e+00 4.2083845877e+00 
55200 5.5967723638e+00 3.9028795914e-05 2.4297119746e+00 -4.2083845877e+00 2.4297119746e+00 4.2083845877e+00 
55300 5.5967723646e+00 4.3584839029e-05 2.4297119746e+00 -4.2083845877e+00 2.4297119746e+00 4.2083845877e+00 
55400 5.5967723654e+00 4.7799240079e-05 2.4297119746e+00 -4.2083845877e+00 2.4297119746e+00 4.2083845877e+00 
55500 5.5967723664e+00 5.1670361339e-05 2.4297119746e+00 -4.2083845877e+00 2.4297119746e+00 4.2083845877e+00 
55600 5.5967723675e+00 5.5197755353e-05 2.4297119746e+00 -4.2083845877e+00 2.4297119746e+00 4.2083845877e+00 
55700 5.5967723688e+00 5.8382130659e-05 2.4297119746e+00 -4.2083845877e+00 2.4297119746e+00 4.2083845877e+00 
55800 5.5967723702e+00 6.1225314439e-05 2.4297119746e+00 -4.2083845877e+00 2.4297119746e+00 4.2083845877e+00 
55900 5.5967723717e+00 6.3730212328e-05 2.4297119746e+00 -4.2083845877e+00 2.4297119746e+00 4.2083845877e+00 
56000 5.5967723735e+00 6.5900765650e-05 2.4297119746e+00 -4.2083845877e+00 2.4297119746e+00 4.2083845877e+00 
56100 5.5967723754e+00 6.7741906302e-05 2.4297119746e+00 -4.2083845877e+00 2.4297119746e+00 4.2083845877e+00 
56200 5.5967723774e+00 6.9259509525e-05 2.4297119746e+00 -4.2083845877e+00 2.4297119746e+00 4.2083845877e+00 
56300 5.5967723797e+00 7.0460344812e-05 2.4297119746e+00 -4.2083845877e+00 2.4297119746e+00 4.2083845877e+00 
56400 5.5967723820e+00 7.1352025219e-05 2.4297119746e+00 -4.2083845877e+00 2.4297119746e+00 4.2083845877e+00 
56500 5.5967723845e+00 7.1371225321e-05 2.4297105063e+00 -4.2083820445e+00 2.4297105063e+00 4.2083820445e+00 
56600 5.5967723871e+00 7.1089264149e-05 2.4297090375e+00 -4.2083795006e+00 2.4297090375e+00 4.2083795006e+00 
56700 5.5967723898e+00 7.0517863673e-05 2.4297075746e+00 -4.2083769668e+00 2.4297075746e+00 4.2083769668e+00 
56800 5.5967723928e+00 7.0234376273e-05 2.4297075746e+00 -4.2083769668e+00 2.4297075746e+00 4.2083769668e+00 
56900 5.5967723958e+00 6.9689071611e-05 2.4297075746e+00 -4.2083769668e+00 2.4297075746e+00 4.2083769668e+00 
57000 5.5967723989e+00 6.8893530464e-05 2.4297075746e+00 -4.2083769668e+00 2.4297075746e+00 4.2083769668e+00 
57100 5.5967724021e+00 6.7859808959e-05 2.4297075746e+00 -4.2083769668e+00 2.4297075746e+00 4.2083769668e+00 
57200 5.5967724053e+00 6.6600381717e-05 2.4297075746e+00 -4.2083769668e+00 2.4297075746e+00 4.2083769668e+00 
57300 5.5967724086e+00 6.5128085377e-05 2.4297075746e+00 -4.2083769668e+00 2.4297075746e+00 4.2083769668e+00 
57400 5.5967724119e+00 6.3456062704e-05 2.4297075746e+00 -4.2083769668e+00 2.4297075746e+00 4.2083769668e+00 
57500 5.5967724152e+00 6.1597707439e-05 2.4297075746e+00 -4.2083769668e+00 2.4297075746e+00 4.2083769668e+00 
57600 5.5967724184e+00 5.9566610074e-05 2.4297075746e+00 -4.2083769668e+00 2.4297075746e+00 4.2083769668e+00 
57700 5.5967724217e+00 5.7376504688e-05 2.4297075746e+00 -4.2083769668e+00 2.4297075746e+00 4.2083769668e+00 
57800 5.5967724249e+00 5.5041217020e-05 2.4297075746e+00 -4.2083769668e+00 2.4297075746e+00 4.2083769668e+00 
57900 5.5967724280e+00 5.2574613888e-05 2.4297075746e+00 -4.2083769668e+00 2.4297075746e+00 4.2083769668e+00 
58000 5.5967724310e+00 4.9990554096e-05 2.4297075746e+00 -4.2083769668e+00 2.4297075746e+00 4.2083769668e+00 
58100 5.5967724340e+00 4.7302840987e-05 2.4297075746e+00 -4.2083769668e+00 2.4297075746e+00 4.2083769668e+00 
58200 5.5967724369e+00 4.4525176671e-05 2.4297075746e+00 -4.2083769668e+00 2.4297075746e+00 4.2083769668e+00 
58300 5.5967724396e+00 4.1671118108e-05 2.4297075746e+00 -4.2083769668e+00 2.4297075746e+00 4.2083769668e+00 
58400 5.5967724423e+00 3.8754035121e-05 2.4297075746e+00 -4.2083769668e+00 2.4297075746e+00 4.2083769668e+00 
58500 5.5967724448e+00 3.5787070382e-05 2.4297075746e+00 -4.2083769668e+00 2.4297075746e+00 4.2083769668e+00 
58600 5.5967724472e+00 3.2783101496e-05 2.4297075746e+00 -4.2083769668e+00 2.4297075746e+00 4.2083769668e+00 
58700 5.5967724495e+00 2.9754705216e-05 2.4297075746e+00 -4.2083769668e+00 2.4297075746e+00 4.2083769668e+00 
58800 5.5967724517e+00 2.6714123854e-05 2.4297075746e+00 -4.2083769668e+00 2.4297075746e+00 4.2083769668e+00 
58900 5.5967724538e+00 2.3673233942e-05 2.4297075746e+00 -4.2083769668e+00 2.4297075746e+00 4.2083769668e+00 
59000 5.5967724557e+00 2.0643517151e-05 2.4297075746e+00 -4.2083769668e+00 2.4297075746e+00 4.2083769668e+00 
59100 5.5967724575e+00 1.7636033527e-05 2.4297075746e+00 -4.2083769668e+00 2.4297075746e+00 4.2083769668e+00 
59200 5.5967724593e+00 1.4661397045e-05 2.4297075746e+00 -4.2083769668e+00 2.4297075746e+00 4.2083769668e+00 
59300 5.5967724609e+00 1.1729753495e-05 2.4297075746e+00 -4.2083769668e+00 2.4297075746e+00 4.2083769668e+00 
59400 5.5967724624e+00 8.8507607014e-06 2.4297075746e+00 -4.2083769668e+00 2.4297075746e+00 4.2083769668e+00 
59500 5.5967724638e+00 6.0335710579e-06 2.4297075746e+00 -4.2083769668e+00 2.4297075746e+00 4.2083769668e+00 
59600 5.5967724651e+00 3.2868163895e-06 2.4297075746e+00 -4.2083769668e+00 2.4297075746e+00 4.2083769668e+00 
59700 5.5967724664e+00 6.1859509672e-07 2.4297075746e+00 -4.2083769668e+00 2.4297075746e+00 4.2083769668e+00 
59800 5.5967724675e+00 -1.9635384484e-06 2.4297075746e+00 -4.2083769668e+00 2.4297075746e+00 4.2083769668e+00 
59900 5.5967724687e+00 -4.4525822767e-06 2.4297075746e+00 -4.2083769668e+00 2.4297075746e+00 4.2083769668e+00 
60000 5.5967724697e+00 -6.8420930150e-06 2.4297075746e+00 -4.2083769668e+00 2.4297075746e+00 4.2083769668e+00 
60100 5.5967724707e+00 -9.1261899458e-06 2.4297075746e+00 -4.2083769668e+00 2.4297075746e+00 4.2083769668e+00 
60200 5.5967724717e+00 -1.1299556998e-05 2.4297075746e+00 -4.2083769668e+00 2.4297075746e+00 4.2083769668e+00 
60300 5.5967724726e+00 -1.3357442723e-05 2.4297075746e+00 -4.2083769668e+00 2.4297075746e+00 4.2083769668e+00 
60400 5.5967724735e+00 -1.5295658305e-05 2.4297075746e+00 -4.2083769668e+00 2.4297075746e+00 4.2083769668e+00 
60500 5.5967724744e+00 -1.7110573698e-05 2.4297075746e+00 -4.2083769668e+00 2.4297075746e+00 4.2083769668e+00 
60600 5.5967724753e+00 -1.8799111972e-05 2.4297075746e+00 -4.2083769668e+00 2.4297075746e+00 4.2083769668e+00 
60700 5.5967724761e+00 -2.0358741897e-05 2.4297075746e+00 -4.2083769668e+00 2.4297075746e+00 4.2083769668e+00 
60800 5.5967724770e+00 -2.1787468915e-05 2.4297075746e+00 -4.2083769668e+00 2.4297075746e+00 4.2083769668e+00 
60900 5.5967724779e+00 -2.3083824509e-05 2.4297075746e+00 -4.2083769668e+00 2.4297075746e+00 4.2083769668e+00 
61000 5.5967724787e+00 -2.4246854144e-05 2.4297075746e+00 -4.2083769668e+00 2.4297075746e+00 4.2083769668e+00 
61100 5.5967724796e+00 -2.5276103776e-05 2.4297075746e+00 -4.2083769668e+00 2.4297075746e+00 4.2083769668e+00 
61200 5.5967724805e+00 -2.6171605095e-05 2.4297075746e+00 -4.2083769668e+00 2.4297075746e+00 4.2083769668e+00 
61300 5.5967724814e+00 -2.6933859550e-05 2.4297075746e+00 -4.2083769668e+00 2.4297075746e+00 4.2083769668e+00 
61400 5.5967724823e+00 -2.7563821283e-05 2.4297075746e+00 -4.2083769668e+00 2.4297075746e+00 4.2083769668e+00 
61500 5.5967724833e+00 -2.8062879029e-05 2.4297075746e+00 -4.2083769668e+00 2.4297075746e+00 4.2083769668e+00 
61600 5.5967724843e+00 -2.8432837115e-05 2.4297075746e+00 -4.2083769668e+00 2.4297075746e+00 4.2083769668e+00 
61700 5.5967724852e+00 -2.8675895623e-05 2.4297075746e+00 -4.2083769668e+00 2.4297075746e+00 4.2083769668e+00 
61800 5.5967724862e+00 -2.8794629841e-05 2.4297075746e+00 -4.2083769668e+00 2.4297075746e+00 4.2083769668e+00 
61900 5.5967724873e+00 -2.8791969069e-05 2.4297075746e+00 -4.2083769668e+00 2.4297075746e+00 4.2083769668e+00 
62000 5.5967724883e+00 -2.8671174888e-05 2.4297075746e+00 -4.2083769668e+00 2.4297075746e+00 4.2083769668e+00 
62100 5.5967724893e+00 -2.8435818994e-05 2.4297075746e+00 -4.2083769668e+00 2.4297075746e+00 4.2083769668e+00 
62200 5.5967724904e+00 -2.8089760658e-05 2.4297075746e+00 -4.2083769668e+00 2.4297075746e+00 4.2083769668e+00 
62300 5.5967724915e+00 -2.7637123939e-05 2.4297075746e+00 -4.2083769668e+00 2.4297075746e+00 4.2083769668e+00 
62400 5.5967724926e+00 -2.7082274713e-05 2.4297075746e+00 -4.2083769668e+00 2.4297075746e+00 4.2083769668e+00 
62500 5.5967724936e+00 -2.6429797599e-05 2.4297075746e+00 -4.2083769668e+00 2.4297075746e+00 4.2083769668e+00 
62600 5.5967724947e+00 -2.5684472888e-05 2.4297075746e+00 -4.2083769668e+00 2.4297075746e+00 4.2083769668e+00 
62700 5.5967724958e+00 -2.4851253548e-05 2.4297075746e+00 -4.2083769668e+00 2.4297075746e+00 4.2083769668e+00 
62800 5.5967724969e+00 -2.3935242350e-05 2.4297075746e+00 -4.2083769668e+00 2.4297075746e+00 4.2083769668e+00 
62900 5.5967724980e+00 -2.2941669252e-05 2.4297075746e+00 -4.2083769668e+00 2.4297075746e+00 4.2083769668e+00 
63000 5.5967724991e+00 -2.1875869047e-05 2.4297075746e+00 -4.2083769668e+00 2.4297075746e+00 4.2083769668e+00 
63100 5.5967725001e+00 -2.0743259385e-05 2.4297075746e+00 -4.2083769668e+00 2.4297075746e+00 4.2083769668e+00 
63200 5.5967725012e+00 -1.9549319232e-05 2.4297075746e+00 -4.2083769668e+00 2.4297075746e+00 4.2083769668e+00 
63300 5.5967725022e+00 -1.8299567789e-05 2.4297075746e+00 -4.2083769668e+00 2.4297075746e+00 4.2083769668e+00 
63400 5.5967725032e+00 -1.6999543978e-05 2.4297075746e+00 -4.2083769668e+00 2.4297075746e+00 4.2083769668e+00 
63500 5.5967725042e+00 -1.5654786521e-05 2.4297075746e+00 -4.2083769668e+00 2.4297075746e+00 4.2083769668e+00 
63600 5.5967725052e+00 -1.4270814660e-05 2.4297075746e+00 -4.2083769668e+00 2.4297075746e+00 4.2083769668e+00 
63700 5.5967725062e+00 -1.2853109578e-05 2.4297075746e+00 -4.2083769668e+00 2.4297075746e+00 4.2083769668e+00 
63800 5.5967725071e+00 -1.1407096550e-05 2.4297075746e+00 -4.2083769668e+00 2.4297075746e+00 4.2083769668e+00 
63900 5.5967725080e+00 -9.9381278719e-06 2.4297075746e+00 -4.2083769668e+00 2.4297075746e+00 4.2083769668e+00 
64000 5.5967725089e+00 -8.4514665872e-06 2.4297075746e+00 -4.2083769668e+00 2.4297075746e+00 4.2083769668e+00 
64100 5.5967725097e+00 -6.9522710736e-06 2.4297075746e+00 -4.2083769668e+00 2.4297075746e+00 4.2083769668e+00 
64200 5.5967725105e+00 -5.4455804677e-06 2.4297075746e+00 -4.2083769668e+00 2.4297075746e+00 4.2083769668e+00 
64300 5.5967725113e+00 -3.9363009985e-06 2.4297075746e+00 -4.2083769668e+00 2.4297075746e+00 4.2083769668e+00 
64400 5.5967725121e+00 -2.4291932105e-06 2.4297075746e+00 -4.2083769668e+00 2.4297075746e+00 4.2083769668e+00 
64500 5.5967725129e+00 -9.2886011861e-07 2.4297075746e+00 -4.2083769668e+00 2.4297075746e+00 4.2083769668e+00 
64600 5.5967725136e+00 5.6026370483e-07 2.4297075746e+00 -4.2083769668e+00 2.4297075746e+00 4.2083769668e+00 
64700 5.5967725143e+00 2.0339221122e-06 2.4297075746e+00 -4.2083769668e+00 2.4297075746e+00 4.2083769668e+00 
64800 5.5967725150e+00 3.4880464129e-06 2.4297075746e+00 -4.2083769668e+00 2.4297075746e+00 4.2083769668e+00 
64900 5.5967725156e+00 4.9187634569e-06 2.4297075746e+00 -4.2083769668e+00 2.4297075746e+00 4.2083769668e+00 
65000 5.5967725162e+00 6.3224027849e-06 2.4297075746e+00 -4.2083769668e+00 2.4297075746e+00 4.2083769668e+00 
65100 5.5967725169e+00 7.6955028310e-06 2.4297075746e+00 -4.2083769668e+00 2.4297075746e+00 4.2083769668e+00 
65200 5.5967725175e+00 9.0348162082e-06 2.4297075746e+00 -4.2083769668e+00 2.4297075746e+00 4.2083769668e+00 
65300 5.5967725180e+00 1.0337314065e-05 2.4297075746e+00 -4.2083769668e+00 2.4297075746e+00 4.2083769668e+00 
65400 5.5967725186e+00 1.1600189557e-05 2.4297075746e+00 -4.2083769668e+00 2.4297075746e+00 4.2083769668e+00 
65500 5.5967725191e+00 1.2820860419e-05 2.4297075746e+00 -4.2083769668e+00 2.4297075746e+00 4.2083769668e+00 
65600 5.5967725197e+00 1.3996970673e-05 2.4297075746e+00 -4.2083769668e+00 2.4297075746e+00 4.2083769668e+00 
65700 5.5967725202e+00 1.5126391513e-05 2.4297075746e+00 -4.2083769668e+00 2.4297075746e+00 4.2083769668e+00 
65800 5.5967725207e+00 1.6207221339e-05 2.4297075746e+00 -4.2083769668e+00 2.4297075746e+00 4.2083769668e+00 
65900 5.5967725212e+00 1.7237785027e-05 2.4297075746e+00 -4.2083769668e+00 2.4297075746e+00 4.2083769668e+00 
66000 5.5967725217e+00 1.8216632418e-05 2.4297075746e+00 -4.2083769668e+00 2.4297075746e+00 4.2083769668e+00 
66100 5.5967725222e+00 1.9142536085e-05 2.4297075746e+00 -4.2083769668e+00 2.4297075746e+00 4.2083769668e+00 
66200 5.5967725227e+00 2.0014488388e-05 2.4297075746e+00 -4.2083769668e+00 2.4297075746e+00 4.2083769668e+00 
66300 5.5967725231e+00 2.0831697864e-05 2.4297075746e+00 -4.2083769668e+00 2.4297075746e+00 4.2083769668e+00 
66400 5.5967725236e+00 2.1593584981e-05 2.4297075746e+00 -4.2083769668e+00 2.4297075746e+00 4.2083769668e+00 
66500 5.5967725241e+00 2.2299777294e-05 2.4297075746e+00 -4.2083769668e+00 2.4297075746e+00 4.2083769668e+00 
66600 5.5967725245e+00 2.2950104029e-05 2.4297075746e+00 -4.2083769668e+00 2.4297075746e+00 4.2083769668e+00 
66700 5.5967725250e+00 2.3544590161e-05 2.4297075746e+00 -4.2083769668e+00 2.4297075746e+00 4.2083769668e+00 
66800 5.5967725255e+00 2.4083449973e-05 2.4297075746e+00 -4.2083769668e+00 2.4297075746e+00 4.2083769668e+00 
66900 5.5967725259e+00 2.4567080199e-05 2.4297075746e+00 -4.2083769668e+00 2.4297075746e+00 4.2083769668e+00 
67000 5.5967725264e+00 2.4996052723e-05 2.4297075746e+00 -4.2083769668e+00 2.4297075746e+00 4.2083769668e+00 
67100 5.5967725268e+00 2.5371106925e-05 2.4297075746e+00 -4.2083769668e+00 2.4297075746e+00 4.2083769668e+00 
67200 5.5967725273e+00 2.5693141686e-05 2.4297075746e+00 -4.2083769668e+00 2.4297075746e+00 4.2083769668e+00 
67300 5.5967725278e+00 2.5963207100e-05 2.4297075746e+00 -4.2083769668e+00 2.4297075746e+00 4.2083769668e+00 
67400 5.5967725282e+00 2.6182495922e-05 2.4297075746e+00 -4.2083769668e+00 2.4297075746e+00 4.2083769668e+00 
67500 5.5967725287e+00 2.6352334802e-05 2.4297075746e+00 -4.2083769668e+00 2.4297075746e+00 4.2083769668e+00 
67600 5.5967725291e+00 2.6474175344e-05 2.4297075746e+00 -4.2083769668e+00 2.4297075746e+00 4.2083769668e+00 
67700 5.5967725296e+00 2.6549584999e-05 2.4297075746e+00 -4.2083769668e+00 2.4297075746e+00 4.2083769668e+00 
67800 5.5967725300e+00 2.6580237879e-05 2.4297075746e+00 -4.2083769668e+00 2.4297075746e+00 4.2083769668e+00 
67900 5.5967725305e+00 2.6567905470e-05 2.4297075746e+00 -4.2083769668e+00 2.4297075746e+00 4.2083769668e+00 
68000 5.5967725309e+00 2.6514447325e-05 2.4297075746e+00 -4.2083769668e+00 2.4297075746e+00 4.2083769668e+00 
68100 5.5967725313e+00 2.6421801750e-05 2.4297075746e+00 -4.2083769668e+00 2.4297075746e+00 4.2083769668e+00 
68200 5.5967725318e+00 2.6291976513e-05 2.4297075746e+00 -4.2083769668e+00 2.4297075746e+00 4.2083769668e+00 
68300 5.5967725322e+00 2.6127039615e-05 2.4297075746e+00 -4.2083769668e+00 2.4297075746e+00 4.2083769668e+00 
68400 5.5967725326e+00 2.5929110150e-05 2.4297075746e+00 -4.2083769668e+00 2.4297075746e+00 4.2083769668e+00 
68500 5.5967725331e+00 2.5700349287e-05 2.4297075746e+00 -4.2083769668e+00 2.4297075746e+00 4.2083769668e+00 
68600 5.5967725335e+00 2.5442951394e-05 2.4297075746e+00 -4.2083769668e+00 2.4297075746e+00 4.2083769668e+00 
68700 5.5967725339e+00 2.5159135340e-05 2.4297075746e+00 -4.2083769668e+00 2.4297075746e+00 4.2083769668e+00 
68800 5.5967725343e+00 2.4851135983e-05 2.4297075746e+00 -4.2083769668e+00 2.4297075746e+00 4.2083769668e+00 
68900 5.5967725347e+00 2.4521195898e-05 2.4297075746e+00 -4.2083769668e+00 2.4297075746e+00 4.2083769668e+00 
69000 5.5967725351e+00 2.4171557320e-05 2.4297075746e+00 -4.2083769668e+00 2.4297075746e+00 4.2083769668e+00 
69100 5.5967725355e+00 2.3804454375e-05 2.4297075746e+00 -4.2083769668e+00 2.4297075746e+00 4.2083769668e+00 
69200 5.5967725359e+00 2.3422105578e-05 2.4297075746e+00 -4.2083769668e+00 2.4297075746e+00 4.2083769668e+00 
69300 5.5967725362e+00 2.3026706629e-05 2.4297075746e+00 -4.2083769668e+00 2.4297075746e+00 4.2083769668e+00 
69400 5.5967725366e+00 2.2620423529e-05 2.4297075746e+00 -4.2083769668e+00 2.4297075746e+00 4.2083769668e+00 
69500 5.5967725370e+00 2.2205386018e-05 2.4297075746e+00 -4.2083769668e+00 2.4297075746e+00 4.2083769668e+00 
69600 5.5967725373e+00 2.1783681354e-05 2.4297075746e+00 -4.2083769668e+00 2.4297075746e+00 4.2083769668e+00 
69700 5.5967725376e+00 2.1357348437e-05 2.4297075746e+00 -4.2083769668e+00 2.4297075746e+00 4.2083769668e+00 
69800 5.5967725380e+00 2.0928372300e-05 2.4297075746e+00 -4.2083769668e+00 2.4297075746e+00 4.2083769668e+00 
69900 5.5967725383e+00 2.0498678964e-05 2.4297075746e+00 -4.2083769668e+00 2.4297075746e+00 4.2083769668e+00 
70000 5.5967725386e+00 2.0070130661e-05 2.4297075746e+00 -4.2083769668e+00 2.4297075746e+00 4.2083769668e+00 
70100 5.5967725390e+00 1.9644521445e-05 2.4297075746e+00 -4.2083769668e+00 2.4297075746e+00 4.2083769668e+00 
70200 5.5967725393e+00 1.9223573166e-05 2.4297075746e+00 -4.2083769668e+00 2.4297075746e+00 4.2083769668e+00 
70300 5.5967725396e+00 1.8808931841e-05 2.4297075746e+00 -4.2083769668e+00 2.4297075746e+00 4.2083769668e+00 
70400 5.5967725399e+00 1.8402164407e-05 2.4297075746e+00 -4.2083769668e+00 2.4297075746e+00 4.2083769668e+00 
70500 5.5967725402e+00 1.8004755848e-05 2.4297075746e+00 -4.2083769668e+00 2.4297075746e+00 4.2083769668e+00 
70600 5.5967725404e+00 1.7618106699e-05 2.4297075746e+00 -4.2083769668e+00 2.4297075746e+00 4.2083769668e+00 
70700 5.5967725407e+00 1.7243530931e-05 2.4297075746e+00 -4.2083769668e+00 2.4297075746e+00 4.2083769668e+00 
70800 5.5967725410e+00 1.6882254210e-05 2.4297075746e+00 -4.2083769668e+00 2.4297075746e+00 4.2083769668e+00 
70900 5.5967725413e+00 1.6535412509e-05 2.4297075746e+00 -4.2083769668e+00 2.4297075746e+00 4.2083769668e+00 
71000 5.5967725415e+00 1.6204051092e-05 2.4297075746e+00 -4.2083769668e+00 2.4297075746e+00 4.2083769668e+00 
71100 5.5967725418e+00 1.5889123830e-05 2.4297075746e+00 -4.2083769668e+00 2.4297075746e+00 4.2083769668e+00 
71200 5.5967725420e+00 1.5591492871e-05 2.4297075746e+00 -4.2083769668e+00 2.4297075746e+00 4.2083769668e+00 
71300 5.5967725423e+00 1.5311928643e-05 2.4297075746e+00 -4.2083769668e+00 2.4297075746e+00 4.2083769668e+00 
71400 5.5967725425e+00 1.5051110158e-05 2.4297075746e+00 -4.2083769668e+00 2.4297075746e+00 4.2083769668e+00 
71500 5.5967725428e+00 1.4809625648e-05 2.4297075746e+00 -4.2083769668e+00 2.4297075746e+00 4.2083769668e+00 
71600 5.5967725430e+00 1.4587973478e-05 2.4297075746e+00 -4.2083769668e+00 2.4297075746e+00 4.2083769668e+00 
71700 5.5967725433e+00 1.4386563362e-05 2.4297075746e+00 -4.2083769668e+00 2.4297075746e+00 4.2083769668e+00 
71800 5.5967725435e+00 1.4205717824e-05 2.4297075746e+00 -4.2083769668e+00 2.4297075746e+00 4.2083769668e+00 
71900 5.5967725437e+00 1.4045673937e-05 2.4297075746e+00 -4.2083769668e+00 2.4297075746e+00 4.2083769668e+00 
72000 5.5967725440e+00 1.3906585292e-05 2.4297075746e+00 -4.2083769668e+00 2.4297075746e+00 4.2083769668e+00 
72100 5.5967725442e+00 1.3788524210e-05 2.4297075746e+00 -4.2083769668e+00 2.4297075746e+00 4.2083769668e+00 
72200 5.5967725444e+00 1.3691484133e-05 2.4297075746e+00 -4.2083769668e+00 2.4297075746e+00 4.2083769668e+00 
72300 5.5967725446e+00 1.3615382250e-05 2.4297075746e+00 -4.2083769668e+00 2.4297075746e+00 4.2083769668e+00 
72400 5.5967725448e+00 1.3560062285e-05 2.4297075746e+00 -4.2083769668e+00 2.4297075746e+00 4.2083769668e+00 
72500 5.5967725451e+00 1.3525297447e-05 2.4297075746e+00 -4.2083769668e+00 2.4297075746e+00 4.2083769668e+00 
72600 5.5967725453e+00 1.3510793540e-05 2.4297075746e+00 -4.2083769668e+00 2.4297075746e+00 4.2083769668e+00 
72700 5.5967725455e+00 1.3516192204e-05 2.4297075746e+00 -4.2083769668e+00 2.4297075746e+00 4.2083769668e+00 
72800 5.5967725457e+00 1.3541074275e-05 2.4297075746e+00 -4.2083769668e+00 2.4297075746e+00 4.2083769668e+00 
72900 5.5967725459e+00 1.3584963248e-05 2.4297075746e+00 -4.2083769668e+00 2.4297075746e+00 4.2083769668e+00 
73000 5.5967725461e+00 1.3647328829e-05 2.4297075746e+00 -4.2083769668e+00 2.4297075746e+00 4.2083769668e+00 
73100 5.5967725463e+00 1.3727590551e-05 2.4297075746e+00 -4.2083769668e+00 2.4297075746e+00 4.2083769668e+00 
73200 5.5967725465e+00 1.3825121462e-05 2.4297075746e+00 -4.2083769668e+00 2.4297075746e+00 4.2083769668e+00 
73300 5.5967725467e+00 1.3939251849e-05 2.4297075746e+00 -4.2083769668e+00 2.4297075746e+00 4.2083769668e+00 
73400 5.5967725469e+00 1.4069272990e-05 2.4297075746e+00 -4.2083769668e+00 2.4297075746e+00 4.2083769668e+00 
73500 5.5967725471e+00 1.4214440917e-05 2.4297075746e+00 -4.2083769668e+00 2.4297075746e+00 4.2083769668e+00 
73600 5.5967725473e+00 1.4373980184e-05 2.4297075746e+00 -4.2083769668e+00 2.4297075746e+00 4.2083769668e+00 
73700 5.5967725475e+00 1.4547087628e-05 2.4297075746e+00 -4.2083769668e+00 2.4297075746e+00 4.2083769668e+00 
73800 5.5967725477e+00 1.4732936099e-05 2.4297075746e+00 -4.2083769668e+00 2.4297075746e+00 4.2083769668e+00 
73900 5.5967725479e+00 1.4930678152e-05 2.4297075746e+00 -4.2083769668e+00 2.4297075746e+00 4.2083769668e+00 
74000 5.5967725481e+00 1.5139449688e-05 2.4297075746e+00 -4.2083769668e+00 2.4297075746e+00 4.2083769668e+00 
74100 5.5967725482e+00 1.5358373541e-05 2.4297075746e+00 -4.2083769668e+00 2.4297075746e+00 4.2083769668e+00 
74200 5.5967725484e+00 1.5586563002e-05 2.4297075746e+00 -4.2083769668e+00 2.4297075746e+00 4.2083769668e+00 
74300 5.5967725486e+00 1.5823125238e-05 2.4297075746e+00 -4.2083769668e+00 2.4297075746e+00 4.2083769668e+00 
74400 5.5967725488e+00 1.6067164647e-05 2.4297075746e+00 -4.2083769668e+00 2.4297075746e+00 4.2083769668e+00 
74500 5.5967725490e+00 1.6317786101e-05 2.4297075746e+00 -4.2083769668e+00 2.4297075746e+00 4.2083769668e+00 
74600 5.5967725491e+00 1.6574098082e-05 2.4297075746e+00 -4.2083769668e+00 2.4297075746e+00 4.2083769668e+00 
74700 5.5967725493e+00 1.6835215711e-05 2.4297075746e+00 -4.2083769668e+00 2.4297075746e+00 4.2083769668e+00 
74800 5.5967725495e+00 1.7100263646e-05 2.4297075746e+00 -4.2083769668e+00 2.4297075746e+00 4.2083769668e+00 
74900 5.5967725496e+00 1.7368378867e-05 2.4297075746e+00 -4.2083769668e+00 2.4297075746e+00 4.2083769668e+00 
75000 5.5967725498e+00 1.7638713310e-05 2.4297075746e+00 -4.2083769668e+00 2.4297075746e+00 4.2083769668e+00 
75100 5.5967725499e+00 1.7910436381e-05 2.4297075746e+00 -4.2083769668e+00 2.4297075746e+00 4.2083769668e+00 
75200 5.5967725501e+00 1.8182737313e-05 2.4297075746e+00 -4.2083769668e+00 2.4297075746e+00 4.2083769668e+00 
75300 5.5967725502e+00 1.8454827389e-05 2.4297075746e+00 -4.2083769668e+00 2.4297075746e+00 4.2083769668e+00 
75400 5.5967725504e+00 1.8725942012e-05 2.4297075746e+00 -4.2083769668e+00 2.4297075746e+00 4.2083769668e+00 
75500 5.5967725505e+00 1.8995342611e-05 2.4297075746e+00 -4.2083769668e+00 2.4297075746e+00 4.2083769668e+00 
75600 5.5967725507e+00 1.9262318425e-05 2.4297075746e+00 -4.2083769668e+00 2.4297075746e+00 4.2083769668e+00 
75700 5.5967725508e+00 1.9526188105e-05 2.4297075746e+00 -4.2083769668e+00 2.4297075746e+00 4.2083769668e+00 
75800 5.5967725510e+00 1.9786301155e-05 2.4297075746e+00 -4.2083769668e+00 2.4297075746e+00 4.2083769668e+00 
75900 5.5967725511e+00 2.0042039267e-05 2.4297075746e+00 -4.2083769668e+00 2.4297075746e+00 4.2083769668e+00 
76000 5.5967725512e+00 2.0292817437e-05 2.4297075746e+00 -4.2083769668e+00 2.4297075746e+00 4.2083769668e+00 
76100 5.5967725514e+00 2.0538084971e-05 2.4297075746e+00 -4.2083769668e+00 2.4297075746e+00 4.2083769668e+00 
76200 5.5967725515e+00 2.0777326330e-05 2.4297075746e+00 -4.2083769668e+00 2.4297075746e+00 4.2083769668e+00 
76300 5.5967725516e+00 2.1010061813e-05 2.4297075746e+00 -4.2083769668e+00 2.4297075746e+00 4.2083769668e+00 
76400 5.5967725518e+00 2.1235848108e-05 2.4297075746e+00 -4.2083769668e+00 2.4297075746e+00 4.2083769668e+00 
76500 5.5967725519e+00 2.1454278679e-05 2.4297075746e+00 -4.2083769668e+00 2.4297075746e+00 4.2083769668e+00 
76600 5.5967725520e+00 2.1664984041e-05 2.4297075746e+00 -4.2083769668e+00 2.4297075746e+00 4.2083769668e+00 
76700 5.5967725521e+00 2.1867631867e-05 2.4297075746e+00 -4.2083769668e+00 2.4297075746e+00 4.2083769668e+00 
76800 5.5967725523e+00 2.2061926980e-05 2.4297075746e+00 -4.2083769668e+00 2.4297075746e+00 4.2083769668e+00 
76900 5.5967725524e+00 2.2247611208e-05 2.4297075746e+00 -4.2083769668e+00 2.4297075746e+00 4.2083769668e+00 
77000 5.5967725525e+00 2.2424463114e-05 2.4297075746e+00 -4.2083769668e+00 2.4297075746e+00 4.2083769668e+00 
77100 5.5967725526e+00 2.2592297614e-05 2.4297075746e+00 -4.2083769668e+00 2.4297075746e+00 4.2083769668e+00 
77200 5.5967725527e+00 2.2750965469e-05 2.4297075746e+00 -4.2083769668e+00 2.4297075746e+00 4.2083769668e+00 
77300 5.5967725528e+00 2.2900352676e-05 2.4297075746e+00 -4.2083769668e+00 2.4297075746e+00 4.2083769668e+00 
77400 5.5967725529e+00 2.3040379754e-05 2.4297075746e+00 -4.2083769668e+00 2.4297075746e+00 4.2083769668e+00 
77500 5.5967725530e+00 2.3171000931e-05 2.4297075746e+00 -4.2083769668e+00 2.4297075746e+00 4.2083769668e+00 
77600 5.5967725532e+00 2.3292203240e-05 2.4297075746e+00 -4.2083769668e+00 2.4297075746e+00 4.2083769668e+00 
77700 5.5967725533e+00 2.3404005528e-05 2.4297075746e+00 -4.2083769668e+00 2.4297075746e+00 4.2083769668e+00 
77800 5.5967725534e+00 2.3506457391e-05 2.4297075746e+00 -4.2083769668e+00 2.4297075746e+00 4.2083769668e+00 
77900 5.5967725535e+00 2.3599638031e-05 2.4297075746e+00 -4.2083769668e+00 2.4297075746e+00 4.2083769668e+00 
78000 5.5967725536e+00 2.3683655038e-05 2.4297075746e+00 -4.2083769668e+00 2.4297075746e+00 4.2083769668e+00 
78100 5.5967725537e+00 2.3758643138e-05 2.4297075746e+00 -4.2083769668e+00 2.4297075746e+00 4.2083769668e+00 
78200 5.5967725538e+00 2.3824762855e-05 2.4297075746e+00 -4.2083769668e+00 2.4297075746e+00 4.2083769668e+00 
78300 5.5967725539e+00 2.3882199153e-05 2.4297075746e+00 -4.2083769668e+00 2.4297075746e+00 4.2083769668e+00 
78400 5.5967725540e+00 2.3931160012e-05 2.4297075746e+00 -4.2083769668e+00 2.4297075746e+00 4.2083769668e+00 
78500 5.5967725541e+00 2.3971874987e-05 2.4297075746e+00 -4.2083769668e+00 2.4297075746e+00 4.2083769668e+00 
78600 5.5967725542e+00 2.4004593735e-05 2.4297075746e+00 -4.2083769668e+00 2.4297075746e+00 4.2083769668e+00 
78700 5.5967725543e+00 2.4029584510e-05 2.4297075746e+00 -4.2083769668e+00 2.4297075746e+00 4.2083769668e+00 
78800 5.5967725544e+00 2.4047132653e-05 2.4297075746e+00 -4.2083769668e+00 2.4297075746e+00 4.2083769668e+00 
78900 5.5967725544e+00 2.4057539059e-05 2.4297075746e+00 -4.2083769668e+00 2.4297075746e+00 4.2083769668e+00 
79000 5.5967725545e+00 2.4061118655e-05 2.4297075746e+00 -4.2083769668e+00 2.4297075746e+00 4.2083769668e+00 
79100 5.5967725546e+00 2.4058198855e-05 2.4297075746e+00 -4.2083769668e+00 2.4297075746e+00 4.2083769668e+00 
79200 5.5967725547e+00 2.4049118046e-05 2.4297075746e+00 -4.2083769668e+00 2.4297075746e+00 4.2083769668e+00 
79300 5.5967725548e+00 2.4034224064e-05 2.4297075746e+00 -4.2083769668e+00 2.4297075746e+00 4.2083769668e+00 
79400 5.5967725549e+00 2.4013872698e-05 2.4297075746e+00 -4.2083769668e+00 2.4297075746e+00 4.2083769668e+00 
79500 5.5967725550e+00 2.3988426211e-05 2.4297075746e+00 -4.2083769668e+00 2.4297075746e+00 4.2083769668e+00 
79600 5.5967725551e+00 2.3958251879e-05 2.4297075746e+00 -4.2083769668e+00 2.4297075746e+00 4.2083769668e+00 
79700 5.5967725551e+00 2.3923720570e-05 2.4297075746e+00 -4.2083769668e+00 2.4297075746e+00 4.2083769668e+00 
79800 5.5967725552e+00 2.3885205351e-05 2.4297075746e+00 -4.2083769668e+00 2.4297075746e+00 4.2083769668e+00 
79900 5.5967725553e+00 2.3843080135e-05 2.4297075746e+00 -4.2083769668e+00 2.4297075746e+00 4.2083769668e+00 
80000 5.5967725554e+00 2.3797718353e-05 2.4297075746e+00 -4.2083769668e+00 2.4297075746e+00 4.2083769668e+00 
80100 5.5967725555e+00 2.3749491695e-05 2.4297075746e+00 -4.2083769668e+00 2.4297075746e+00 4.2083769668e+00 
80200 5.5967725555e+00 2.3698768883e-05 2.4297075746e+00 -4.2083769668e+00 2.4297075746e+00 4.2083769668e+00 
80300 5.5967725556e+00 2.3645914487e-05 2.4297075746e+00 -4.2083769668e+00 2.4297075746e+00 4.2083769668e+00 
80400 5.5967725557e+00 2.3591287808e-05 2.4297075746e+00 -4.2083769668e+00 2.4297075746e+00 4.2083769668e+00 
80500 5.5967725558e+00 2.3535241812e-05 2.4297075746e+00 -4.2083769668e+00 2.4297075746e+00 4.2083769668e+00 
80600 5.5967725558e+00 2.3478122108e-05 2.4297075746e+00 -4.2083769668e+00 2.4297075746e+00 4.2083769668e+00 
80700 5.5967725559e+00 2.3420265998e-05 2.4297075746e+00 -4.2083769668e+00 2.4297075746e+00 4.2083769668e+00 
80800 5.5967725560e+00 2.3362001582e-05 2.4297075746e+00 -4.2083769668e+00 2.4297075746e+00 4.2083769668e+00 
80900 5.5967725561e+00 2.3303646918e-05 2.4297075746e+00 -4.2083769668e+00 2.4297075746e+00 4.2083769668e+00 
81000 5.5967725561e+00 2.3245509253e-05 2.4297075746e+00 -4.2083769668e+00 2.4297075746e+00 4.2083769668e+00 
81100 5.5967725562e+00 2.3187884308e-05 2.4297075746e+00 -4.2083769668e+00 2.4297075746e+00 4.2083769668e+00 
81200 5.5967725563e+00 2.3131055633e-05 2.4297075746e+00 -4.2083769668e+00 2.4297075746e+00 4.2083769668e+00 
81300 5.5967725563e+00 2.3075294023e-05 2.4297075746e+00 -4.2083769668e+00 2.4297075746e+00 4.2083769668e+00 
81400 5.5967725564e+00 2.3020856986e-05 2.4297075746e+00 -4.2083769668e+00 2.4297075746e+00 4.2083769668e+00 
81500 5.5967725565e+00 2.2967988289e-05 2.4297075746e+00 -4.2083769668e+00 2.4297075746e+00 4.2083769668e+00 
81600 5.5967725565e+00 2.2916917564e-05 2.4297075746e+00 -4.2083769668e+00 2.4297075746e+00 4.2083769668e+00 
81700 5.5967725566e+00 2.2867859970e-05 2.4297075746e+00 -4.2083769668e+00 2.4297075746e+00 4.2083769668e+00 
81800 5.5967725566e+00 2.2821015919e-05 2.4297075746e+00 -4.2083769668e+00 2.4297075746e+00 4.2083769668e+00 
81900 5.5967725567e+00 2.2776570854e-05 2.4297075746e+00 -4.2083769668e+00 2.4297075746e+00 4.2083769668e+00 
82000 5.5967725568e+00 2.2734695099e-05 2.4297075746e+00 -4.2083769668e+00 2.4297075746e+00 4.2083769668e+00 
82100 5.5967725568e+00 2.2695543766e-05 2.4297075746e+00 -4.2083769668e+00 2.4297075746e+00 4.2083769668e+00 
82200 5.5967725569e+00 2.2659256707e-05 2.4297075746e+00 -4.2083769668e+00 2.4297075746e+00 4.2083769668e+00 
82300 5.5967725569e+00 2.2625958519e-05 2.4297075746e+00 -4.2083769668e+00 2.4297075746e+00 4.2083769668e+00 
82400 5.5967725570e+00 2.2595758621e-05 2.4297075746e+00 -4.2083769668e+00 2.4297075746e+00 4.2083769668e+00 
82500 5.5967725570e+00 2.2568751361e-05 2.4297075746e+00 -4.2083769668e+00 2.4297075746e+00 4.2083769668e+00 
82600 5.5967725571e+00 2.2545016182e-05 2.4297075746e+00 -4.2083769668e+00 2.4297075746e+00 4.2083769668e+00 
82700 5.5967725572e+00 2.2524617830e-05 2.4297075746e+00 -4.2083769668e+00 2.4297075746e+00 4.2083769668e+00 
82800 5.5967725572e+00 2.2507606609e-05 2.4297075746e+00 -4.2083769668e+00 2.4297075746e+00 4.2083769668e+00 
82900 5.5967725573e+00 2.2494018677e-05 2.4297075746e+00 -4.2083769668e+00 2.4297075746e+00 4.2083769668e+00 
83000 5.5967725573e+00 2.2483876383e-05 2.4297075746e+00 -4.2083769668e+00 2.4297075746e+00 4.2083769668e+00 
83100 5.5967725574e+00 2.2477188637e-05 2.4297075746e+00 -4.2083769668e+00 2.4297075746e+00 4.2083769668e+00 
83200 5.5967725574e+00 2.2473951322e-05 2.4297075746e+00 -4.2083769668e+00 2.4297075746e+00 4.2083769668e+00 
83300 5.5967725575e+00 2.2474147726e-05 2.4297075746e+00 -4.2083769668e+00 2.4297075746e+00 4.2083769668e+00 
83400 5.5967725575e+00 2.2477749014e-05 2.4297075746e+00 -4.2083769668e+00 2.4297075746e+00 4.2083769668e+00 
83500 5.5967725576e+00 2.2484714731e-05 2.4297075746e+00 -4.2083769668e+00 2.4297075746e+00 4.2083769668e+00 
83600 5.5967725576e+00 2.2493586918e-05 2.4297075746e+00 -4.2083769668e+00 2.4297075746e+00 4.2083769668e+00 
83600 5.5967725576e+00 2.2493586918e-05 2.4297075746e+00 -4.2083769668e+00 2.4297075746e+00 4.2083769668e+00 
