# step Hamiltonian StressXX CellTensor1 CellTensor2 CellTensor3 CellTensor4 
0 5.5162456679e+00 9.6090042603e-02 1.7438352029e+00 -3.0204111715e+00 1.7438352029e+00 3.0204111715e+00 
100 5.5161298310e+00 9.7419821176e-02 1.7438352029e+00 -3.0204111715e+00 1.7438352029e+00 3.0204111715e+00 
200 5.5156947666e+00 9.6347386454e-02 1.7410426864e+00 -3.0155743910e+00 1.7410426864e+00 3.0155743910e+00 
300 5.5152495782e+00 9.5175557510e-02 1.7382764755e+00 -3.0107831732e+00 1.7382764755e+00 3.0107831732e+00 
400 5.5147908894e+00 9.3913902489e-02 1.7355395537e+00 -3.0060426855e+00 1.7355395537e+00 3.0060426855e+00 
500 5.5143163175e+00 9.2571808844e-02 1.7328346466e+00 -3.0013576491e+00 1.7328346466e+00 3.0013576491e+00 
600 5.5138243332e+00 9.1158437076e-02 1.7301642248e+00 -2.9967323428e+00 1.7301642248e+00 2.9967323428e+00 
700 5.5133141332e+00 8.9682679797e-02 1.7275305075e+00 -2.9921706107e+00 1.7275305075e+00 2.9921706107e+00 
800 5.5127855260e+00 8.8153126090e-02 1.7249354683e+00 -2.9876758709e+00 1.7249354683e+00 2.9876758709e+00 
900 5.5122388288e+00 8.6578031090e-02 1.7223808415e+00 -2.9832511274e+00 1.7223808415e+00 2.9832511274e+00 
1000 5.5116747769e+00 8.4965290627e-02 1.7198681294e+00 -2.9788989824e+00 1.7198681294e+00 2.9788989824e+00 
1100 5.5110944419e+00 8.3322420732e-02 1.7173986109e+00 -2.9746216509e+00 1.7173986109e+00 2.9746216509e+00 
1200 5.5104991607e+00 8.1656541767e-02 1.7149733504e+00 -2.9704209766e+00 1.7149733504e+00 2.9704209766e+00 
1300 5.5098904721e+00 7.9974366895e-02 1.7125932078e+00 -2.9662984487e+00 1.7125932078e+00 2.9662984487e+00 
1400 5.5092700628e+00 7.8282194582e-02 1.7102588482e+00 -2.9622552191e+00 1.7102588482e+00 2.9622552191e+00 
1500 5.5086397191e+00 7.6585904809e-02 1.7079707527e+00 -2.9582921215e+00 1.7079707527e+00 2.9582921215e+00 
1600 5.5080012866e+00 7.4890958662e-02 1.7057292293e+00 -2.9544096891e+00 1.7057292293e+00 2.9544096891e+00 
1700 5.5073566350e+00 7.3202400956e-02 1.7035344239e+00 -2.9506081746e+00 1.7035344239e+00 2.9506081746e+00 
1800 5.5067076285e+00 7.1524865564e-02 1.7013863313e+00 -2.9468875691e+00 1.7013863313e+00 2.9468875691e+00 
1900 5.5060561010e+00 6.9862583115e-02 1.6992848062e+00 -2.9432476209e+00 1.6992848062e+00 2.9432476209e+00 
2000 5.5054038362e+00 6.8219390758e-02 1.6972295745e+00 -2.9396878552e+00 1.6972295745e+00 2.9396878552e+00 
2100 5.5047525501e+00 6.6598743667e-02 1.6952202438e+00 -2.9362075923e+00 1.6952202438e+00 2.9362075923e+00 
2200 5.5041038782e+00 6.5003728029e-02 1.6932563141e+00 -2.9328059663e+00 1.6932563141e+00 2.9328059663e+00 
2300 5.5034593654e+00 6.3437075232e-02 1.6913371885e+00 -2.9294819431e+00 1.6913371885e+00 2.9294819431e+00 
2400 5.5028204576e+00 6.1901177007e-02 1.6894621827e+00 -2.9262343379e+00 1.6894621827e+00 2.9262343379e+00 
2500 5.5021884969e+00 6.0398101310e-02 1.6876305354e+00 -2.9230618317e+00 1.6876305354e+00 2.9230618317e+00 
2600 5.5015647178e+00 5.8929608738e-02 1.6858414170e+00 -2.9199629877e+00 1.6858414170e+00 2.9199629877e+00 
2700 5.5009502455e+00 5.7497169285e-02 1.6840939390e+00 -2.9169362671e+00 1.6840939390e+00 2.9169362671e+00 
2800 5.5003460955e+00 5.6101979291e-02 1.6823871623e+00 -2.9139800431e+00 1.6823871623e+00 2.9139800431e+00 
2900 5.4997531745e+00 5.4744978427e-02 1.6807201054e+00 -2.9110926158e+00 1.6807201054e+00 2.9110926158e+00 
3000 5.4991722825e+00 5.3426866598e-02 1.6790917519e+00 -2.9082722248e+00 1.6790917519e+00 2.9082722248e+00 
3100 5.4986041153e+00 5.2148120659e-02 1.6775010579e+00 -2.9055170621e+00 1.6775010579e+00 2.9055170621e+00 
3200 5.4980492683e+00 5.0909010836e-02 1.6759469588e+00 -2.9028252834e+00 1.6759469588e+00 2.9028252834e+00 
3300 5.4975082406e+00 4.9709616790e-02 1.6744283751e+00 -2.9001950193e+00 1.6744283751e+00 2.9001950193e+00 
3400 5.4969814391e+00 4.8549843250e-02 1.6729442189e+00 -2.8976243853e+00 1.6729442189e+00 2.8976243853e+00 
3500 5.4964691840e+00 4.7429435162e-02 1.6714933989e+00 -2.8951114913e+00 1.6714933989e+00 2.8951114913e+00 
3600 5.4959717135e+00 4.6347992315e-02 1.6700748255e+00 -2.8926544502e+00 1.6700748255e+00 2.8926544502e+00 
3700 5.4954891892e+00 4.5304983406e-02 1.6686874156e+00 -2.8902513857e+00 1.6686874156e+00 2.8902513857e+00 
3800 5.4950217017e+00 4.4299759521e-02 1.6673300962e+00 -2.8879004395e+00 1.6673300962e+00 2.8879004395e+00 
3900 5.4945692758e+00 4.3331567011e-02 1.6660018087e+00 -2.8855997782e+00 1.6660018087e+00 2.8855997782e+00 
4000 5.4941318762e+00 4.2399559760e-02 1.6647015123e+00 -2.8833475987e+00 1.6647015123e+00 2.8833475987e+00 
4100 5.4937094125e+00 4.1502810825e-02 1.6634281864e+00 -2.8811421336e+00 1.6634281864e+00 2.8811421336e+00 
4200 5.4933017446e+00 4.0640323462e-02 1.6621808341e+00 -2.8789816561e+00 1.6621808341e+00 2.8789816561e+00 
4300 5.4929086881e+00 3.9811041529e-02 1.6609584840e+00 -2.8768644836e+00 1.6609584840e+00 2.8768644836e+00 
4400 5.4925300187e+00 3.9013859274e-02 1.6597601925e+00 -2.8747889817e+00 1.6597601925e+00 2.8747889817e+00 
4500 5.4921654776e+00 3.8247630526e-02 1.6585850452e+00 -2.8727535670e+00 1.6585850452e+00 2.8727535670e+00 
4600 5.4918147753e+00 3.7511177284e-02 1.6574321590e+00 -2.8707567096e+00 1.6574321590e+00 2.8707567096e+00 
4700 5.4914775965e+00 3.6803297735e-02 1.6563006827e+00 -2.8687969350e+00 1.6563006827e+00 2.8687969350e+00 
4800 5.4911536041e+00 3.6122773699e-02 1.6551897980e+00 -2.8668728264e+00 1.6551897980e+00 2.8668728264e+00 
4900 5.4908424426e+00 3.5468377534e-02 1.6540987207e+00 -2.8649830249e+00 1.6540987207e+00 2.8649830249e+00 
5000 5.4905437424e+00 3.4838878500e-02 1.6530267005e+00 -2.8631262316e+00 1.6530267005e+00 2.8631262316e+00 
5100 5.4902571223e+00 3.4233048618e-02 1.6519730220e+00 -2.8613012068e+00 1.6519730220e+00 2.8613012068e+00 
5200 5.4899821933e+00 3.3649668026e-02 1.6509370042e+00 -2.8595067714e+00 1.6509370042e+00 2.8595067714e+00 
5300 5.4897185611e+00 3.3087529863e-02 1.6499180010e+00 -2.8577418060e+00 1.6499180010e+00 2.8577418060e+00 
5400 5.4894658286e+00 3.2545444698e-02 1.6489154003e+00 -2.8560052508e+00 1.6489154003e+00 2.8560052508e+00 
5500 5.4892235985e+00 3.2022244514e-02 1.6479286245e+00 -2.8542961049e+00 1.6479286245e+00 2.8542961049e+00 
5600 5.4889914751e+00 3.1516786280e-02 1.6469571293e+00 -2.8526134258e+00 1.6469571293e+00 2.8526134258e+00 
5700 5.4887690665e+00 3.1027955124e-02 1.6460004033e+00 -2.8509563279e+00 1.6460004033e+00 2.8509563279e+00 
5800 5.4885559858e+00 3.0554667122e-02 1.6450579676e+00 -2.8493239813e+00 1.6450579676e+00 2.8493239813e+00 
5900 5.4883518532e+00 3.0095871734e-02 1.6441293745e+00 -2.8477156108e+00 1.6441293745e+00 2.8477156108e+00 
6000 5.4881562966e+00 2.9650553891e-02 1.6432142069e+00 -2.8461304941e+00 1.6432142069e+00 2.8461304941e+00 
6100 5.4879689531e+00 2.9217735767e-02 1.6423120774e+00 -2.8445679600e+00 1.6423120774e+00 2.8445679600e+00 
6200 5.4877894696e+00 2.8796478247e-02 1.6414226272e+00 -2.8430273870e+00 1.6414226272e+00 2.8430273870e+00 
6300 5.4876175039e+00 2.8385882101e-02 1.6405455249e+00 -2.8415082012e+00 1.6405455249e+00 2.8415082012e+00 
6400 5.4874527247e+00 2.7985088904e-02 1.6396804655e+00 -2.8400098744e+00 1.6396804655e+00 2.8400098744e+00 
6500 5.4872948125e+00 2.7593281697e-02 1.6388271694e+00 -2.8385319222e+00 1.6388271694e+00 2.8385319222e+00 
6600 5.4871434600e+00 2.7209685416e-02 1.6379853808e+00 -2.8370739017e+00 1.6379853808e+00 2.8370739017e+00 
6700 5.4869983716e+00 2.6833567110e-02 1.6371548672e+00 -2.8356354098e+00 1.6371548672e+00 2.8356354098e+00 
6800 5.4868592643e+00 2.6464235953e-02 1.6363354173e+00 -2.8342160810e+00 1.6363354173e+00 2.8342160810e+00 
6900 5.4867258673e+00 2.6101043079e-02 1.6355268406e+00 -2.8328155850e+00 1.6355268406e+00 2.8328155850e+00 
7000 5.4865979216e+00 2.5743381237e-02 1.6347289656e+00 -2.8314336249e+00 1.6347289656e+00 2.8314336249e+00 
7100 5.4864751805e+00 2.5390684307e-02 1.6339416389e+00 -2.8300699352e+00 1.6339416389e+00 2.8300699352e+00 
7200 5.4863574088e+00 2.5042426661e-02 1.6331647240e+00 -2.8287242792e+00 1.6331647240e+00 2.8287242792e+00 
7300 5.4862443829e+00 2.4698122409e-02 1.6323981000e+00 -2.8273964474e+00 1.6323981000e+00 2.8273964474e+00 
7400 5.4861358902e+00 2.4357324524e-02 1.6316416603e+00 -2.8260862554e+00 1.6316416603e+00 2.8260862554e+00 
7500 5.4860317289e+00 2.4019623871e-02 1.6308953118e+00 -2.8247935419e+00 1.6308953118e+00 2.8247935419e+00 
7600 5.4859317074e+00 2.3684648144e-02 1.6301589735e+00 -2.8235181664e+00 1.6301589735e+00 2.8235181664e+00 
7700 5.4858356442e+00 2.3352060727e-02 1.6294325753e+00 -2.8222600080e+00 1.6294325753e+00 2.8222600080e+00 
7800 5.4857433670e+00 2.3021559489e-02 1.6287160575e+00 -2.8210189628e+00 1.6287160575e+00 2.8210189628e+00 
7900 5.4856547128e+00 2.2692875522e-02 1.6280093692e+00 -2.8197949426e+00 1.6280093692e+00 2.8197949426e+00 
8000 5.4855695270e+00 2.2365771828e-02 1.6273124673e+00 -2.8185878732e+00 1.6273124673e+00 2.8185878732e+00 
8100 5.4854876632e+00 2.2040041977e-02 1.6266253160e+00 -2.8173976922e+00 1.6266253160e+00 2.8173976922e+00 
8200 5.4854089824e+00 2.1715508726e-02 1.6259478855e+00 -2.8162243482e+00 1.6259478855e+00 2.8162243482e+00 
8300 5.4853333533e+00 2.1392022623e-02 1.6252801513e+00 -2.8150677986e+00 1.6252801513e+00 2.8150677986e+00 
8400 5.4852606508e+00 2.1069460596e-02 1.6246220931e+00 -2.8139280084e+00 1.6246220931e+00 2.8139280084e+00 
8500 5.4851907566e+00 2.0747724532e-02 1.6239736944e+00 -2.8128049488e+00 1.6239736944e+00 2.8128049488e+00 
8600 5.4851235582e+00 2.0426739858e-02 1.6233349413e+00 -2.8116985960e+00 1.6233349413e+00 2.8116985960e+00 
8700 5.4850589485e+00 2.0106454128e-02 1.6227058222e+00 -2.8106089298e+00 1.6227058222e+00 2.8106089298e+00 
8800 5.4849968258e+00 1.9786835615e-02 1.6220863268e+00 -2.8095359324e+00 1.6220863268e+00 2.8095359324e+00 
8900 5.4849370932e+00 1.9467871927e-02 1.6214764458e+00 -2.8084795874e+00 1.6214764458e+00 2.8084795874e+00 
9000 5.4848796581e+00 1.9149568636e-02 1.6208761697e+00 -2.8074398787e+00 1.6208761697e+00 2.8074398787e+00 
9100 5.4848244324e+00 1.8831947929e-02 1.6202854890e+00 -2.8064167897e+00 1.6202854890e+00 2.8064167897e+00 
9200 5.4847713317e+00 1.8515047299e-02 1.6197043932e+00 -2.8054103023e+00 1.6197043932e+00 2.8054103023e+00 
9300 5.4847202753e+00 1.8198918249e-02 1.6191328705e+00 -2.8044203959e+00 1.6191328705e+00 2.8044203959e+00 
9400 5.4846711858e+00 1.7883625042e-02 1.6185709072e+00 -2.8034470469e+00 1.6185709072e+00 2.8034470469e+00 
9500 5.4846239890e+00 1.7569243485e-02 1.6180184875e+00 -2.8024902280e+00 1.6180184875e+00 2.8024902280e+00 
9600 5.4845786138e+00 1.7255859745e-02 1.6174755932e+00 -2.8015499074e+00 1.6174755932e+00 2.8015499074e+00 
9700 5.4845349915e+00 1.6943569211e-02 1.6169422031e+00 -2.8006260486e+00 1.6169422031e+00 2.8006260486e+00 
9800 5.4844930564e+00 1.6632475395e-02 1.6164182927e+00 -2.7997186093e+00 1.6164182927e+00 2.7997186093e+00 
9900 5.4844527450e+00 1.6322688872e-02 1.6159038346e+00 -2.7988275416e+00 1.6159038346e+00 2.7988275416e+00 
10000 5.4844139959e+00 1.6014326271e-02 1.6153987971e+00 -2.7979527911e+00 1.6153987971e+00 2.7979527911e+00 
10100 5.4843767502e+00 1.5707509304e-02 1.6149031453e+00 -2.7970942970e+00 1.6149031453e+00 2.7970942970e+00 
10200 5.4843409510e+00 1.5402363840e-02 1.6144168400e+00 -2.7962519914e+00 1.6144168400e+00 2.7962519914e+00 
10300 5.4843065431e+00 1.5099019023e-02 1.6139398378e+00 -2.7954257995e+00 1.6139398378e+00 2.7954257995e+00 
10400 5.4842734733e+00 1.4797606442e-02 1.6134720915e+00 -2.7946156390e+00 1.6134720915e+00 2.7946156390e+00 
10500 5.4842416903e+00 1.4498259337e-02 1.6130135491e+00 -2.7938214204e+00 1.6130135491e+00 2.7938214204e+00 
10600 5.4842111443e+00 1.4201111850e-02 1.6125641547e+00 -2.7930430464e+00 1.6125641547e+00 2.7930430464e+00 
10700 5.4841817874e+00 1.3906298330e-02 1.6121238477e+00 -2.7922804124e+00 1.6121238477e+00 2.7922804124e+00 
10800 5.4841535729e+00 1.3613952666e-02 1.6116925633e+00 -2.7915334058e+00 1.6116925633e+00 2.7915334058e+00 
10900 5.4841264562e+00 1.3324207677e-02 1.6112702322e+00 -2.7908019069e+00 1.6112702322e+00 2.7908019069e+00 
11000 5.4841003937e+00 1.3037194535e-02 1.6108567808e+00 -2.7900857881e+00 1.6108567808e+00 2.7900857881e+00 
11100 5.4840753435e+00 1.2753042232e-02 1.6104521313e+00 -2.7893849146e+00 1.6104521313e+00 2.7893849146e+00 
11200 5.4840512652e+00 1.2471877091e-02 1.6100562015e+00 -2.7886991441e+00 1.6100562015e+00 2.7886991441e+00 
11300 5.4840281198e+00 1.2193822307e-02 1.6096689052e+00 -2.7880283272e+00 1.6096689052e+00 2.7880283272e+00 
11400 5.4840058694e+00 1.1918997536e-02 1.6092901520e+00 -2.7873723074e+00 1.6092901520e+00 2.7873723074e+00 
11500 5.4839844779e+00 1.1647518514e-02 1.6089198478e+00 -2.7867309216e+00 1.6089198478e+00 2.7867309216e+00 
11600 5.4839639103e+00 1.1379496718e-02 1.6085578943e+00 -2.7861039999e+00 1.6085578943e+00 2.7861039999e+00 
11700 5.4839441328e+00 1.1115039052e-02 1.6082041899e+00 -2.7854913659e+00 1.6082041899e+00 2.7854913659e+00 
11800 5.4839251131e+00 1.0854247579e-02 1.6078586293e+00 -2.7848928374e+00 1.6078586293e+00 2.7848928374e+00 
11900 5.4839068201e+00 1.0597219274e-02 1.6075211037e+00 -2.7843082259e+00 1.6075211037e+00 2.7843082259e+00 
12000 5.4838892238e+00 1.0344045816e-02 1.6071915013e+00 -2.7837373378e+00 1.6071915013e+00 2.7837373378e+00 
12100 5.4838722956e+00 1.0094813403e-02 1.6068697070e+00 -2.7831799737e+00 1.6068697070e+00 2.7831799737e+00 
12200 5.4838560081e+00 9.8496025974e-03 1.6065556030e+00 -2.7826359296e+00 1.6065556030e+00 2.7826359296e+00 
12300 5.4838403349e+00 9.6084882045e-03 1.6062490687e+00 -2.7821049966e+00 1.6062490687e+00 2.7821049966e+00 
12400 5.4838252509e+00 9.3715391665e-03 1.6059499809e+00 -2.7815869613e+00 1.6059499809e+00 2.7815869613e+00 
12500 5.4838107320e+00 9.1388184881e-03 1.6056582142e+00 -2.7810816065e+00 1.6056582142e+00 2.7810816065e+00 
12600 5.4837967552e+00 8.9103831828e-03 1.6053736409e+00 -2.7805887111e+00 1.6053736409e+00 2.7805887111e+00 
12700 5.4837832986e+00 8.6862842418e-03 1.6050961315e+00 -2.7801080507e+00 1.6050961315e+00 2.7801080507e+00 
12800 5.4837703413e+00 8.4665666237e-03 1.6048255545e+00 -2.7796393977e+00 1.6048255545e+00 2.7796393977e+00 
12900 5.4837578634e+00 8.2512692629e-03 1.6045617771e+00 -2.7791825218e+00 1.6045617771e+00 2.7791825218e+00 
13000 5.4837458459e+00 8.0404250979e-03 1.6043046649e+00 -2.7787371904e+00 1.6043046649e+00 2.7787371904e+00 
13100 5.4837342709e+00 7.8340611154e-03 1.6040540823e+00 -2.7783031686e+00 1.6040540823e+00 2.7783031686e+00 
13200 5.4837231211e+00 7.6321984118e-03 1.6038098928e+00 -2.7778802201e+00 1.6038098928e+00 2.7778802201e+00 
13300 5.4837123804e+00 7.4348522686e-03 1.6035719591e+00 -2.7774681068e+00 1.6035719591e+00 2.7774681068e+00 
13400 5.4837020332e+00 7.2420322429e-03 1.6033401431e+00 -2.7770665896e+00 1.6033401431e+00 2.7770665896e+00 
13500 5.4836920648e+00 7.0537422696e-03 1.6031143064e+00 -2.7766754289e+00 1.6031143064e+00 2.7766754289e+00 
13600 5.4836824613e+00 6.8699807771e-03 1.6028943102e+00 -2.7762943844e+00 1.6028943102e+00 2.7762943844e+00 
13700 5.4836732096e+00 6.6907408124e-03 1.6026800157e+00 -2.7759232154e+00 1.6026800157e+00 2.7759232154e+00 
13800 5.4836642970e+00 6.5160101773e-03 1.6024712842e+00 -2.7755616819e+00 1.6024712842e+00 2.7755616819e+00 
13900 5.4836557117e+00 6.3457715734e-03 1.6022679772e+00 -2.7752095439e+00 1.6022679772e+00 2.7752095439e+00 
14000 5.4836474423e+00 6.1800027553e-03 1.6020699566e+00 -2.7748665622e+00 1.6020699566e+00 2.7748665622e+00 
14100 5.4836394781e+00 6.0186766909e-03 1.6018770849e+00 -2.7745324986e+00 1.6018770849e+00 2.7745324986e+00 
14200 5.4836318090e+00 5.8617617292e-03 1.6016892254e+00 -2.7742071163e+00 1.6016892254e+00 2.7742071163e+00 
14300 5.4836244253e+00 5.7092217728e-03 1.6015062420e+00 -2.7738901798e+00 1.6015062420e+00 2.7738901798e+00 
14400 5.4836173176e+00 5.5610164562e-03 1.6013279999e+00 -2.7735814554e+00 1.6013279999e+00 2.7735814554e+00 
14500 5.4836104774e+00 5.4171013279e-03 1.6011543654e+00 -2.7732807116e+00 1.6011543654e+00 2.7732807116e+00 
14600 5.4836038962e+00 5.2774280367e-03 1.6009852060e+00 -2.7729877190e+00 1.6009852060e+00 2.7729877190e+00 
14700 5.4835975660e+00 5.1419445202e-03 1.6008203907e+00 -2.7727022505e+00 1.6008203907e+00 2.7727022505e+00 
14800 5.4835914791e+00 5.0105951966e-03 1.6006597900e+00 -2.7724240819e+00 1.6006597900e+00 2.7724240819e+00 
14900 5.4835856284e+00 4.8833211572e-03 1.6005032760e+00 -2.7721529917e+00 1.6005032760e+00 2.7721529917e+00 
15000 5.4835800069e+00 4.7600603605e-03 1.6003507226e+00 -2.7718887615e+00 1.6003507226e+00 2.7718887615e+00 
15100 5.4835746076e+00 4.6407478274e-03 1.6002020056e+00 -2.7716311761e+00 1.6002020056e+00 2.7716311761e+00 
15200 5.4835694244e+00 4.5253158354e-03 1.6000570027e+00 -2.7713800237e+00 1.6000570027e+00 2.7713800237e+00 
15300 5.4835644508e+00 4.4136941132e-03 1.5999155937e+00 -2.7711350962e+00 1.5999155937e+00 2.7711350962e+00 
15400 5.4835596809e+00 4.3058100343e-03 1.5997776605e+00 -2.7708961888e+00 1.5997776605e+00 2.7708961888e+00 
15500 5.4835551088e+00 4.2015888089e-03 1.5996430871e+00 -2.7706631009e+00 1.5996430871e+00 2.7706631009e+00 
15600 5.4835507290e+00 4.1009536744e-03 1.5995117600e+00 -2.7704356356e+00 1.5995117600e+00 2.7704356356e+00 
15700 5.4835465359e+00 4.0038260836e-03 1.5993835678e+00 -2.7702136002e+00 1.5993835678e+00 2.7702136002e+00 
15800 5.4835425243e+00 3.9101258906e-03 1.5992584016e+00 -2.7699968060e+00 1.5992584016e+00 2.7699968060e+00 
15900 5.4835386889e+00 3.8197715336e-03 1.5991361551e+00 -2.7697850688e+00 1.5991361551e+00 2.7697850688e+00 
16000 5.4835350247e+00 3.7326802146e-03 1.5990167242e+00 -2.7695782085e+00 1.5990167242e+00 2.7695782085e+00 
16100 5.4835315267e+00 3.6487680756e-03 1.5989000076e+00 -2.7693760495e+00 1.5989000076e+00 2.7693760495e+00 
16200 5.4835281901e+00 3.5679503716e-03 1.5987859066e+00 -2.7691784206e+00 1.5987859066e+00 2.7691784206e+00 
16300 5.4835250101e+00 3.4901416386e-03 1.5986743247e+00 -2.7689851552e+00 1.5986743247e+00 2.7689851552e+00 
16400 5.4835219822e+00 3.4152558582e-03 1.5985651686e+00 -2.7687960912e+00 1.5985651686e+00 2.7687960912e+00 
16500 5.4835191017e+00 3.3432066175e-03 1.5984583473e+00 -2.7686110712e+00 1.5984583473e+00 2.7686110712e+00 
16600 5.4835163641e+00 3.2739072643e-03 1.5983537724e+00 -2.7684299423e+00 1.5983537724e+00 2.7684299423e+00 
16700 5.4835137651e+00 3.2072710577e-03 1.5982513585e+00 -2.7682525563e+00 1.5982513585e+00 2.7682525563e+00 
16800 5.4835113003e+00 3.1432113134e-03 1.5981510227e+00 -2.7680787695e+00 1.5981510227e+00 2.7680787695e+00 
16900 5.4835089655e+00 3.0816415443e-03 1.5980526847e+00 -2.7679084431e+00 1.5980526847e+00 2.7679084431e+00 
17000 5.4835067563e+00 3.0224755956e-03 1.5979562671e+00 -2.7677414428e+00 1.5979562671e+00 2.7677414428e+00 
17100 5.4835046688e+00 2.9656277747e-03 1.5978616948e+00 -2.7675776389e+00 1.5978616948e+00 2.7675776389e+00 
17200 5.4835026988e+00 2.9110129759e-03 1.5977688958e+00 -2.7674169063e+00 1.5977688958e+00 2.7674169063e+00 
17300 5.4835008423e+00 2.8585467992e-03 1.5976778005e+00 -2.7672591246e+00 1.5976778005e+00 2.7672591246e+00 
17400 5.4834990954e+00 2.8081456637e-03 1.5975883419e+00 -2.7671041778e+00 1.5975883419e+00 2.7671041778e+00 
17500 5.4834974542e+00 2.7597269161e-03 1.5975004557e+00 -2.7669519544e+00 1.5975004557e+00 2.7669519544e+00 
17600 5.4834959148e+00 2.7132089322e-03 1.5974140801e+00 -2.7668023474e+00 1.5974140801e+00 2.7668023474e+00 
17700 5.4834944737e+00 2.6685112146e-03 1.5973291558e+00 -2.7666552543e+00 1.5973291558e+00 2.7666552543e+00 
17800 5.4834931270e+00 2.6255544830e-03 1.5972456261e+00 -2.7665105766e+00 1.5972456261e+00 2.7665105766e+00 
17900 5.4834918712e+00 2.5842607604e-03 1.5971634368e+00 -2.7663682205e+00 1.5971634368e+00 2.7663682205e+00 
18000 5.4834907027e+00 2.5445534528e-03 1.5970825359e+00 -2.7662280960e+00 1.5970825359e+00 2.7662280960e+00 
18100 5.4834896181e+00 2.5063574238e-03 1.5970028740e+00 -2.7660901176e+00 1.5970028740e+00 2.7660901176e+00 
18200 5.4834886139e+00 2.4695990634e-03 1.5969244040e+00 -2.7659542035e+00 1.5969244040e+00 2.7659542035e+00 
18300 5.4834876870e+00 2.4342063519e-03 1.5968470810e+00 -2.7658202762e+00 1.5968470810e+00 2.7658202762e+00 
18400 5.4834868339e+00 2.4001089180e-03 1.5967708624e+00 -2.7656882618e+00 1.5967708624e+00 2.7656882618e+00 
18500 5.4834860516e+00 2.3672380917e-03 1.5966957079e+00 -2.7655580904e+00 1.5966957079e+00 2.7655580904e+00 
18600 5.4834853370e+00 2.3355269524e-03 1.5966215792e+00 -2.7654296957e+00 1.5966215792e+00 2.7654296957e+00 
18700 5.4834846871e+00 2.3049103710e-03 1.5965484401e+00 -2.7653030151e+00 1.5965484401e+00 2.7653030151e+00 
18800 5.4834840990e+00 2.2753250481e-03 1.5964762565e+00 -2.7651779894e+00 1.5964762565e+00 2.7651779894e+00 
18900 5.4834835698e+00 2.2467095468e-03 1.5964049962e+00 -2.7650545629e+00 1.5964049962e+00 2.7650545629e+00 
19000 5.4834830967e+00 2.2190043204e-03 1.5963346289e+00 -2.7649326832e+00 1.5963346289e+00 2.7649326832e+00 
19100 5.4834826772e+00 2.1921517361e-03 1.5962651263e+00 -2.7648123012e+00 1.5962651263e+00 2.7648123012e+00 
19200 5.4834823085e+00 2.1660960938e-03 1.5961964618e+00 -2.7646933707e+00 1.5961964618e+00 2.7646933707e+00 
19300 5.4834819883e+00 2.1407836403e-03 1.5961286105e+00 -2.7645758488e+00 1.5961286105e+00 2.7645758488e+00 
19400 5.4834817140e+00 2.1161625801e-03 1.5960615492e+00 -2.7644596952e+00 1.5960615492e+00 2.7644596952e+00 
19500 5.4834814835e+00 2.0921830810e-03 1.5959952564e+00 -2.7643448727e+00 1.5959952564e+00 2.7643448727e+00 
19600 5.4834812943e+00 2.0687972764e-03 1.5959297121e+00 -2.7642313466e+00 1.5959297121e+00 2.7642313466e+00 
19700 5.4834811443e+00 2.0459592637e-03 1.5958648977e+00 -2.7641190848e+00 1.5958648977e+00 2.7641190848e+00 
19800 5.4834810315e+00 2.0236250986e-03 1.5958007962e+00 -2.7640080578e+00 1.5958007962e+00 2.7640080578e+00 
19900 5.4834809538e+00 2.0017527868e-03 1.5957373920e+00 -2.7638982384e+00 1.5957373920e+00 2.7638982384e+00 
20000 5.4834809093e+00 1.9803022710e-03 1.5956746705e+00 -2.7637896017e+00 1.5956746705e+00 2.7637896017e+00 
20100 5.4834808962e+00 1.9592354159e-03 1.5956126187e+00 -2.7636821248e+00 1.5956126187e+00 2.7636821248e+00 
20200 5.4834809127e+00 1.9385159897e-03 1.5955512246e+00 -2.7635757872e+00 1.5955512246e+00 2.7635757872e+00 
20300 5.4834809571e+00 1.9181096422e-03 1.5954904775e+00 -2.7634705700e+00 1.5954904775e+00 2.7634705700e+00 
20400 5.4834810277e+00 1.8979838809e-03 1.5954303675e+00 -2.7633664565e+00 1.5954303675e+00 2.7633664565e+00 
20500 5.4834811231e+00 1.8781080441e-03 1.5953708860e+00 -2.7632634315e+00 1.5953708860e+00 2.7632634315e+00 
20600 5.4834812418e+00 1.8584532717e-03 1.5953120252e+00 -2.7631614816e+00 1.5953120252e+00 2.7631614816e+00 
20700 5.4834813823e+00 1.8389924736e-03 1.5952537782e+00 -2.7630605949e+00 1.5952537782e+00 2.7630605949e+00 
20800 5.4834815434e+00 1.8197002961e-03 1.5951961391e+00 -2.7629607609e+00 1.5951961391e+00 2.7629607609e+00 
20900 5.4834817236e+00 1.8005530860e-03 1.5951391025e+00 -2.7628619708e+00 1.5951391025e+00 2.7628619708e+00 
21000 5.4834819219e+00 1.7815288536e-03 1.5950826641e+00 -2.7627642166e+00 1.5950826641e+00 2.7627642166e+00 
21100 5.4834821371e+00 1.7626072329e-03 1.5950268201e+00 -2.7626674918e+00 1.5950268201e+00 2.7626674918e+00 
21200 5.4834823680e+00 1.7437694416e-03 1.5949715672e+00 -2.7625717909e+00 1.5949715672e+00 2.7625717909e+00 
21300 5.4834826137e+00 1.7249982385e-03 1.5949169029e+00 -2.7624771096e+00 1.5949169029e+00 2.7624771096e+00 
21400 5.4834828732e+00 1.7062778801e-03 1.5948628252e+00 -2.7623834443e+00 1.5948628252e+00 2.7623834443e+00 
21500 5.4834831455e+00 1.6875940768e-03 1.5948093325e+00 -2.7622907924e+00 1.5948093325e+00 2.7622907924e+00 
21600 5.4834834297e+00 1.6689339466e-03 1.5947564239e+00 -2.7621991519e+00 1.5947564239e+00 2.7621991519e+00 
21700 5.4834837250e+00 1.6502859695e-03 1.5947040985e+00 -2.7621085216e+00 1.5947040985e+00 2.7621085216e+00 
21800 5.4834840307e+00 1.6316399402e-03 1.5946523561e+00 -2.7620189011e+00 1.5946523561e+00 2.7620189011e+00 
21900 5.4834843459e+00 1.6129869204e-03 1.5946011966e+00 -2.7619302903e+00 1.5946011966e+00 2.7619302903e+00 
22000 5.4834846700e+00 1.5943191912e-03 1.5945506204e+00 -2.7618426897e+00 1.5945506204e+00 2.7618426897e+00 
22100 5.4834850023e+00 1.5756302041e-03 1.5945006279e+00 -2.7617561002e+00 1.5945006279e+00 2.7617561002e+00 
22200 5.4834853422e+00 1.5569145328e-03 1.5944512199e+00 -2.7616705230e+00 1.5944512199e+00 2.7616705230e+00 
22300 5.4834856890e+00 1.5381678243e-03 1.5944023972e+00 -2.7615859597e+00 1.5944023972e+00 2.7615859597e+00 
22400 5.4834860422e+00 1.5193867499e-03 1.5943541610e+00 -2.7615024121e+00 1.5943541610e+00 2.7615024121e+00 
22500 5.4834864013e+00 1.5005689565e-03 1.5943065122e+00 -2.7614198821e+00 1.5943065122e+00 2.7614198821e+00 
22600 5.4834867658e+00 1.4817130185e-03 1.5942594522e+00 -2.7613383717e+00 1.5942594522e+00 2.7613383717e+00 
22700 5.4834871351e+00 1.4628183887e-03 1.5942129822e+00 -2.7612578833e+00 1.5942129822e+00 2.7612578833e+00 
22800 5.4834875089e+00 1.4438853510e-03 1.5941671034e+00 -2.7611784189e+00 1.5941671034e+00 2.7611784189e+00 
22900 5.4834878867e+00 1.4249149727e-03 1.5941218171e+00 -2.7610999807e+00 1.5941218171e+00 2.7610999807e+00 
23000 5.4834882680e+00 1.4059090573e-03 1.5940771245e+00 -2.7610225709e+00 1.5940771245e+00 2.7610225709e+00 
23100 5.4834886526e+00 1.3868700982e-03 1.5940330268e+00 -2.7609461914e+00 1.5940330268e+00 2.7609461914e+00 
23200 5.4834890400e+00 1.3678012333e-03 1.5939895251e+00 -2.7608708442e+00 1.5939895251e+00 2.7608708442e+00 
23300 5.4834894300e+00 1.3487061992e-03 1.5939466203e+00 -2.7607965310e+00 1.5939466203e+00 2.7607965310e+00 
23400 5.4834898221e+00 1.3295892879e-03 1.5939043134e+00 -2.7607232532e+00 1.5939043134e+00 2.7607232532e+00 
23500 5.4834902161e+00 1.3104553025e-03 1.5938626050e+00 -2.7606510122e+00 1.5938626050e+00 2.7606510122e+00 
23600 5.4834906116e+00 1.2913095156e-03 1.5938214958e+00 -2.7605798089e+00 1.5938214958e+00 2.7605798089e+00 
23700 5.4834910085e+00 1.2721576269e-03 1.5937809861e+00 -2.7605096440e+00 1.5937809861e+00 2.7605096440e+00 
23800 5.4834914063e+00 1.2530057235e-03 1.5937410762e+00 -2.7604405181e+00 1.5937410762e+00 2.7604405181e+00 
23900 5.4834918050e+00 1.2338602398e-03 1.5937017662e+00 -2.7603724311e+00 1.5937017662e+00 2.7603724311e+00 
24000 5.4834922041e+00 1.2147279194e-03 1.5936630558e+00 -2.7603053828e+00 1.5936630558e+00 2.7603053828e+00 
24100 5.4834926036e+00 1.1956157775e-03 1.5936249448e+00 -2.7602393725e+00 1.5936249448e+00 2.7602393725e+00 
24200 5.4834930031e+00 1.1765310651e-03 1.5935874325e+00 -2.7601743993e+00 1.5935874325e+00 2.7601743993e+00 
24300 5.4834934025e+00 1.1574812339e-03 1.5935505181e+00 -2.7601104617e+00 1.5935505181e+00 2.7601104617e+00 
24400 5.4834938015e+00 1.1384739024e-03 1.5935142005e+00 -2.7600475579e+00 1.5935142005e+00 2.7600475579e+00 
24500 5.4834942000e+00 1.1195168234e-03 1.5934784785e+00 -2.7599856856e+00 1.5934784785e+00 2.7599856856e+00 
24600 5.4834945978e+00 1.1006178524e-03 1.5934433506e+00 -2.7599248422e+00 1.5934433506e+00 2.7599248422e+00 
24700 5.4834949947e+00 1.0817849180e-03 1.5934088149e+00 -2.7598650246e+00 1.5934088149e+00 2.7598650246e+00 
24800 5.4834953905e+00 1.0630259925e-03 1.5933748694e+00 -2.7598062293e+00 1.5933748694e+00 2.7598062293e+00 
24900 5.4834957851e+00 1.0443490647e-03 1.5933415118e+00 -2.7597484523e+00 1.5933415118e+00 2.7597484523e+00 
25000 5.4834961783e+00 1.0257621132e-03 1.5933087396e+00 -2.7596916892e+00 1.5933087396e+00 2.7596916892e+00 
25100 5.4834965700e+00 1.0072730818e-03 1.5932765500e+00 -2.7596359352e+00 1.5932765500e+00 2.7596359352e+00 
25200 5.4834969601e+00 9.8888985500e-04 1.5932449400e+00 -2.7595811850e+00 1.5932449400e+00 2.7595811850e+00 
25300 5.4834973483e+00 9.7062023606e-04 1.5932139063e+00 -2.7595274330e+00 1.5932139063e+00 2.7595274330e+00 
25400 5.4834977346e+00 9.5247192540e-04 1.5931834453e+00 -2.7594746731e+00 1.5931834453e+00 2.7594746731e+00 
25500 5.4834981189e+00 9.3445250055e-04 1.5931535533e+00 -2.7594228986e+00 1.5931535533e+00 2.7594228986e+00 
25600 5.4834985010e+00 9.1656939737e-04 1.5931242263e+00 -2.7593721027e+00 1.5931242263e+00 2.7593721027e+00 
25700 5.4834988808e+00 8.9882989237e-04 1.5930954600e+00 -2.7593222779e+00 1.5930954600e+00 2.7593222779e+00 
25800 5.4834992583e+00 8.8124108634e-04 1.5930672499e+00 -2.7592734166e+00 1.5930672499e+00 2.7592734166e+00 
25900 5.4834996332e+00 8.6380988908e-04 1.5930395913e+00 -2.7592255106e+00 1.5930395913e+00 2.7592255106e+00 
26000 5.4835000056e+00 8.4654300535e-04 1.5930124794e+00 -2.7591785514e+00 1.5930124794e+00 2.7591785514e+00 
26100 5.4835003753e+00 8.2944692193e-04 1.5929859090e+00 -2.7591325301e+00 1.5929859090e+00 2.7591325301e+00 
26200 5.4835007423e+00 8.1252789584e-04 1.5929598747e+00 -2.7590874374e+00 1.5929598747e+00 2.7590874374e+00 
26300 5.4835011064e+00 7.9579194363e-04 1.5929343710e+00 -2.7590432638e+00 1.5929343710e+00 2.7590432638e+00 
26400 5.4835014676e+00 7.7924483173e-04 1.5929093923e+00 -2.7589999993e+00 1.5929093923e+00 2.7589999993e+00 
26500 5.4835018258e+00 7.6289206792e-04 1.5928849326e+00 -2.7589576338e+00 1.5928849326e+00 2.7589576338e+00 
26600 5.4835021810e+00 7.4673889371e-04 1.5928609858e+00 -2.7589161567e+00 1.5928609858e+00 2.7589161567e+00 
26700 5.4835025331e+00 7.3079027785e-04 1.5928375456e+00 -2.7588755572e+00 1.5928375456e+00 2.7588755572e+00 
26800 5.4835028820e+00 7.1505091064e-04 1.5928146058e+00 -2.7588358243e+00 1.5928146058e+00 2.7588358243e+00 
26900 5.4835032277e+00 6.9952519935e-04 1.5927921597e+00 -2.7587969465e+00 1.5927921597e+00 2.7587969465e+00 
27000 5.4835035701e+00 6.8421726440e-04 1.5927702007e+00 -2.7587589124e+00 1.5927702007e+00 2.7587589124e+00 
27100 5.4835039092e+00 6.6913093648e-04 1.5927487219e+00 -2.7587217100e+00 1.5927487219e+00 2.7587217100e+00 
27200 5.4835042450e+00 6.5426975450e-04 1.5927277164e+00 -2.7586853274e+00 1.5927277164e+00 2.7586853274e+00 
27300 5.4835045773e+00 6.3963696437e-04 1.5927071771e+00 -2.7586497524e+00 1.5927071771e+00 2.7586497524e+00 
27400 5.4835049062e+00 6.2523551847e-04 1.5926870970e+00 -2.7586149726e+00 1.5926870970e+00 2.7586149726e+00 
27500 5.4835052317e+00 6.1106807599e-04 1.5926674687e+00 -2.7585809754e+00 1.5926674687e+00 2.7585809754e+00 
27600 5.4835055537e+00 5.9713700388e-04 1.5926482850e+00 -2.7585477482e+00 1.5926482850e+00 2.7585477482e+00 
27700 5.4835058722e+00 5.8344437848e-04 1.5926295383e+00 -2.7585152780e+00 1.5926295383e+00 2.7585152780e+00 
27800 5.4835061871e+00 5.6999198790e-04 1.5926112214e+00 -2.7584835521e+00 1.5926112214e+00 2.7584835521e+00 
27900 5.4835064985e+00 5.5678133486e-04 1.5925933265e+00 -2.7584525573e+00 1.5925933265e+00 2.7584525573e+00 
28000 5.4835068063e+00 5.4381364021e-04 1.5925758462e+00 -2.7584222805e+00 1.5925758462e+00 2.7584222805e+00 
28100 5.4835071106e+00 5.3108984695e-04 1.5925587728e+00 -2.7583927086e+00 1.5925587728e+00 2.7583927086e+00 
28200 5.4835074112e+00 5.1861062481e-04 1.5925420988e+00 -2.7583638282e+00 1.5925420988e+00 2.7583638282e+00 
28300 5.4835077083e+00 5.0637637523e-04 1.5925258163e+00 -2.7583356262e+00 1.5925258163e+00 2.7583356262e+00 
28400 5.4835080018e+00 4.9438723683e-04 1.5925099178e+00 -2.7583080892e+00 1.5925099178e+00 2.7583080892e+00 
28500 5.4835082917e+00 4.8264309136e-04 1.5924943956e+00 -2.7582812039e+00 1.5924943956e+00 2.7582812039e+00 
28600 5.4835085780e+00 4.7114356989e-04 1.5924792419e+00 -2.7582549570e+00 1.5924792419e+00 2.7582549570e+00 
28700 5.4835088608e+00 4.5988805951e-04 1.5924644492e+00 -2.7582293352e+00 1.5924644492e+00 2.7582293352e+00 
28800 5.4835091399e+00 4.4887571021e-04 1.5924500097e+00 -2.7582043253e+00 1.5924500097e+00 2.7582043253e+00 
28900 5.4835094155e+00 4.3810544218e-04 1.5924359158e+00 -2.7581799140e+00 1.5924359158e+00 2.7581799140e+00 
29000 5.4835096875e+00 4.2757595331e-04 1.5924221600e+00 -2.7581560882e+00 1.5924221600e+00 2.7581560882e+00 
29100 5.4835099560e+00 4.1728572689e-04 1.5924087347e+00 -2.7581328349e+00 1.5924087347e+00 2.7581328349e+00 
29200 5.4835102210e+00 4.0723303965e-04 1.5923956324e+00 -2.7581101410e+00 1.5923956324e+00 2.7581101410e+00 
29300 5.4835104824e+00 3.9741596981e-04 1.5923828456e+00 -2.7580879937e+00 1.5923828456e+00 2.7580879937e+00 
29400 5.4835107403e+00 3.8783240545e-04 1.5923703669e+00 -2.7580663800e+00 1.5923703669e+00 2.7580663800e+00 
29500 5.4835109948e+00 3.7848005289e-04 1.5923581891e+00 -2.7580452874e+00 1.5923581891e+00 2.7580452874e+00 
29600 5.4835112458e+00 3.6935644527e-04 1.5923463049e+00 -2.7580247033e+00 1.5923463049e+00 2.7580247033e+00 
29700 5.4835114933e+00 3.6045895110e-04 1.5923347070e+00 -2.7580046152e+00 1.5923347070e+00 2.7580046152e+00 
29800 5.4835117375e+00 3.5178478302e-04 1.5923233885e+00 -2.7579850109e+00 1.5923233885e+00 2.7579850109e+00 
29900 5.4835119782e+00 3.4333100646e-04 1.5923123422e+00 -2.7579658782e+00 1.5923123422e+00 2.7579658782e+00 
30000 5.4835122156e+00 3.3509454840e-04 1.5923015613e+00 -2.7579472052e+00 1.5923015613e+00 2.7579472052e+00 
30100 5.4835124496e+00 3.2707220608e-04 1.5922910390e+00 -2.7579289800e+00 1.5922910390e+00 2.7579289800e+00 
30200 5.4835126803e+00 3.1926065572e-04 1.5922807685e+00 -2.7579111910e+00 1.5922807685e+00 2.7579111910e+00 
30300 5.4835129077e+00 3.1165646122e-04 1.5922707433e+00 -2.7578938268e+00 1.5922707433e+00 2.7578938268e+00 
30400 5.4835131318e+00 3.0425608269e-04 1.5922609567e+00 -2.7578768760e+00 1.5922609567e+00 2.7578768760e+00 
30500 5.4835133527e+00 2.9705588505e-04 1.5922514025e+00 -2.7578603276e+00 1.5922514025e+00 2.7578603276e+00 
30600 5.4835135704e+00 2.9005214644e-04 1.5922420744e+00 -2.7578441708e+00 1.5922420744e+00 2.7578441708e+00 
30700 5.4835137849e+00 2.8324106654e-04 1.5922329661e+00 -2.7578283948e+00 1.5922329661e+00 2.7578283948e+00 
30800 5.4835139962e+00 2.7661877481e-04 1.5922240716e+00 -2.7578129891e+00 1.5922240716e+00 2.7578129891e+00 
30900 5.4835142045e+00 2.7018133855e-04 1.5922153851e+00 -2.7577979436e+00 1.5922153851e+00 2.7577979436e+00 
31000 5.4835144096e+00 2.6392477082e-04 1.5922069007e+00 -2.7577832481e+00 1.5922069007e+00 2.7577832481e+00 
31100 5.4835146117e+00 2.5784503821e-04 1.5921986126e+00 -2.7577688928e+00 1.5921986126e+00 2.7577688928e+00 
31200 5.4835148107e+00 2.5193806845e-04 1.5921905155e+00 -2.7577548682e+00 1.5921905155e+00 2.7577548682e+00 
31300 5.4835150068e+00 2.4619975781e-04 1.5921826038e+00 -2.7577411648e+00 1.5921826038e+00 2.7577411648e+00 
31400 5.4835151999e+00 2.4062597834e-04 1.5921748723e+00 -2.7577277734e+00 1.5921748723e+00 2.7577277734e+00 
31500 5.4835153900e+00 2.3521258492e-04 1.5921673158e+00 -2.7577146851e+00 1.5921673158e+00 2.7577146851e+00 
31600 5.4835155773e+00 2.2995542202e-04 1.5921599293e+00 -2.7577018913e+00 1.5921599293e+00 2.7577018913e+00 
31700 5.4835157616e+00 2.2485033039e-04 1.5921527078e+00 -2.7576893833e+00 1.5921527078e+00 2.7576893833e+00 
31800 5.4835159432e+00 2.1989315340e-04 1.5921456466e+00 -2.7576771529e+00 1.5921456466e+00 2.7576771529e+00 
31900 5.4835161219e+00 2.1507974322e-04 1.5921387410e+00 -2.7576651922e+00 1.5921387410e+00 2.7576651922e+00 
32000 5.4835162978e+00 2.1040596678e-04 1.5921319866e+00 -2.7576534932e+00 1.5921319866e+00 2.7576534932e+00 
32100 5.4835164711e+00 2.0586771148e-04 1.5921253789e+00 -2.7576420483e+00 1.5921253789e+00 2.7576420483e+00 
32200 5.4835166415e+00 2.0146089060e-04 1.5921189137e+00 -2.7576308503e+00 1.5921189137e+00 2.7576308503e+00 
32300 5.4835168093e+00 1.9718144864e-04 1.5921125869e+00 -2.7576198919e+00 1.5921125869e+00 2.7576198919e+00 
32400 5.4835169745e+00 1.9302536620e-04 1.5921063945e+00 -2.7576091663e+00 1.5921063945e+00 2.7576091663e+00 
32500 5.4835171370e+00 1.8898866481e-04 1.5921003325e+00 -2.7575986667e+00 1.5921003325e+00 2.7575986667e+00 
32600 5.4835172970e+00 1.8506741140e-04 1.5920943974e+00 -2.7575883867e+00 1.5920943974e+00 2.7575883867e+00 
32700 5.4835174544e+00 1.8125772259e-04 1.5920885853e+00 -2.7575783199e+00 1.5920885853e+00 2.7575783199e+00 
32800 5.4835176093e+00 1.7755576865e-04 1.5920828928e+00 -2.7575684602e+00 1.5920828928e+00 2.7575684602e+00 
32900 5.4835177616e+00 1.7395777737e-04 1.5920773166e+00 -2.7575588020e+00 1.5920773166e+00 2.7575588020e+00 
33000 5.4835179116e+00 1.7046003752e-04 1.5920718534e+00 -2.7575493394e+00 1.5920718534e+00 2.7575493394e+00 
33100 5.4835180591e+00 1.6705890216e-04 1.5920665000e+00 -2.7575400670e+00 1.5920665000e+00 2.7575400670e+00 
33200 5.4835182041e+00 1.6375079176e-04 1.5920612534e+00 -2.7575309796e+00 1.5920612534e+00 2.7575309796e+00 
33300 5.4835183469e+00 1.6053219692e-04 1.5920561107e+00 -2.7575220722e+00 1.5920561107e+00 2.7575220722e+00 
33400 5.4835184873e+00 1.5739968108e-04 1.5920510690e+00 -2.7575133398e+00 1.5920510690e+00 2.7575133398e+00 
33500 5.4835186253e+00 1.5434988278e-04 1.5920461257e+00 -2.7575047777e+00 1.5920461257e+00 2.7575047777e+00 
33600 5.4835187611e+00 1.5137951787e-04 1.5920412782e+00 -2.7574963816e+00 1.5920412782e+00 2.7574963816e+00 
33700 5.4835188947e+00 1.4848538142e-04 1.5920365239e+00 -2.7574881469e+00 1.5920365239e+00 2.7574881469e+00 
33800 5.4835190260e+00 1.4566434939e-04 1.5920318605e+00 -2.7574800697e+00 1.5920318605e+00 2.7574800697e+00 
33900 5.4835191552e+00 1.4291338016e-04 1.5920272858e+00 -2.7574721460e+00 1.5920272858e+00 2.7574721460e+00 
34000 5.4835192822e+00 1.4022951581e-04 1.5920227974e+00 -2.7574643718e+00 1.5920227974e+00 2.7574643718e+00 
34100 5.4835194070e+00 1.3760988318e-04 1.5920183932e+00 -2.7574567436e+00 1.5920183932e+00 2.7574567436e+00 
34200 5.4835195298e+00 1.3505169480e-04 1.5920140714e+00 -2.7574492580e+00 1.5920140714e+00 2.7574492580e+00 
34300 5.4835196505e+00 1.3255224956e-04 1.5920098298e+00 -2.7574419114e+00 1.5920098298e+00 2.7574419114e+00 
34400 5.4835197692e+00 1.3010893322e-04 1.5920056668e+00 -2.7574347008e+00 1.5920056668e+00 2.7574347008e+00 
34500 5.4835198858e+00 1.2771921880e-04 1.5920015805e+00 -2.7574276231e+00 1.5920015805e+00 2.7574276231e+00 
34600 5.4835200005e+00 1.2538066666e-04 1.5919975692e+00 -2.7574206753e+00 1.5919975692e+00 2.7574206753e+00 
34700 5.4835201132e+00 1.2309092459e-04 1.5919936313e+00 -2.7574138548e+00 1.5919936313e+00 2.7574138548e+00 
34800 5.4835202240e+00 1.2084772758e-04 1.5919897654e+00 -2.7574071588e+00 1.5919897654e+00 2.7574071588e+00 
34900 5.4835203329e+00 1.1864889754e-04 1.5919859699e+00 -2.7574005848e+00 1.5919859699e+00 2.7574005848e+00 
35000 5.4835204399e+00 1.1649234283e-04 1.5919822435e+00 -2.7573941304e+00 1.5919822435e+00 2.7573941304e+00 
35100 5.4835205451e+00 1.1437605765e-04 1.5919785848e+00 -2.7573877934e+00 1.5919785848e+00 2.7573877934e+00 
35200 5.4835206485e+00 1.1229812134e-04 1.5919749925e+00 -2.7573815714e+00 1.5919749925e+00 2.7573815714e+00 
35300 5.4835207501e+00 1.1025669747e-04 1.5919714655e+00 -2.7573754624e+00 1.5919714655e+00 2.7573754624e+00 
35400 5.4835208499e+00 1.0825003292e-04 1.5919680026e+00 -2.7573694645e+00 1.5919680026e+00 2.7573694645e+00 
35500 5.4835209480e+00 1.0627645671e-04 1.5919646027e+00 -2.7573635758e+00 1.5919646027e+00 2.7573635758e+00 
35600 5.4835210443e+00 1.0433437886e-04 1.5919612648e+00 -2.7573577943e+00 1.5919612648e+00 2.7573577943e+00 
35700 5.4835211390e+00 1.0242228907e-04 1.5919579879e+00 -2.7573521186e+00 1.5919579879e+00 2.7573521186e+00 
35800 5.4835212321e+00 1.0053875531e-04 1.5919547710e+00 -2.7573465468e+00 1.5919547710e+00 2.7573465468e+00 
35900 5.4835213235e+00 9.8682422346e-05 1.5919516133e+00 -2.7573410775e+00 1.5919516133e+00 2.7573410775e+00 
36000 5.4835214133e+00 9.6852010172e-05 1.5919485139e+00 -2.7573357091e+00 1.5919485139e+00 2.7573357091e+00 
36100 5.4835215015e+00 9.5046312378e-05 1.5919454720e+00 -2.7573304403e+00 1.5919454720e+00 2.7573304403e+00 
36200 5.4835215882e+00 9.3264194433e-05 1.5919424868e+00 -2.7573252698e+00 1.5919424868e+00 2.7573252698e+00 
36300 5.4835216733e+00 9.1504591910e-05 1.5919395575e+00 -2.7573201962e+00 1.5919395575e+00 2.7573201962e+00 
36400 5.4835217569e+00 8.9766508676e-05 1.5919366835e+00 -2.7573152183e+00 1.5919366835e+00 2.7573152183e+00 
36500 5.4835218391e+00 8.8049014990e-05 1.5919338641e+00 -2.7573103349e+00 1.5919338641e+00 2.7573103349e+00 
36600 5.4835219198e+00 8.6351245597e-05 1.5919310986e+00 -2.7573055449e+00 1.5919310986e+00 2.7573055449e+00 
36700 5.4835219990e+00 8.4672397761e-05 1.5919283865e+00 -2.7573008474e+00 1.5919283865e+00 2.7573008474e+00 
36800 5.4835220769e+00 8.3011729262e-05 1.5919257270e+00 -2.7572962411e+00 1.5919257270e+00 2.7572962411e+00 
36900 5.4835221533e+00 8.1368556377e-05 1.5919231198e+00 -2.7572917252e+00 1.5919231198e+00 2.7572917252e+00 
37000 5.4835222284e+00 7.9742251830e-05 1.5919205641e+00 -2.7572872986e+00 1.5919205641e+00 2.7572872986e+00 
37100 5.4835223022e+00 7.8132242724e-05 1.5919180595e+00 -2.7572829605e+00 1.5919180595e+00 2.7572829605e+00 
37200 5.4835223746e+00 7.6538008461e-05 1.5919156055e+00 -2.7572787100e+00 1.5919156055e+00 2.7572787100e+00 
37300 5.4835224458e+00 7.4959078653e-05 1.5919132015e+00 -2.7572745463e+00 1.5919132015e+00 2.7572745463e+00 
37400 5.4835225156e+00 7.3395031025e-05 1.5919108471e+00 -2.7572704684e+00 1.5919108471e+00 2.7572704684e+00 
37500 5.4835225842e+00 7.1845489335e-05 1.5919085419e+00 -2.7572664756e+00 1.5919085419e+00 2.7572664756e+00 
37600 5.4835226516e+00 7.0310121258e-05 1.5919062853e+00 -2.7572625670e+00 1.5919062853e+00 2.7572625670e+00 
37700 5.4835227179e+00 7.0824335608e-05 1.5919062853e+00 -2.7572625670e+00 1.5919062853e+00 2.7572625670e+00 
37800 5.4835227829e+00 6.9267757103e-05 1.5919040608e+00 -2.7572587141e+00 1.5919040608e+00 2.7572587141e+00 
37900 5.4835228469e+00 6.9731889827e-05 1.5919040608e+00 -2.7572587141e+00 1.5919040608e+00 2.7572587141e+00 
38000 5.4835229097e+00 7.0176344243e-05 1.5919040608e+00 -2.7572587141e+00 1.5919040608e+00 2.7572587141e+00 
38100 5.4835229713e+00 7.0601711209e-05 1.5919040608e+00 -2.7572587141e+00 1.5919040608e+00 2.7572587141e+00 
38200 5.4835230319e+00 7.1008545411e-05 1.5919040608e+00 -2.7572587141e+00 1.5919040608e+00 2.7572587141e+00 
38300 5.4835230911e+00 6.9341433852e-05 1.5919018305e+00 -2.7572548511e+00 1.5919018305e+00 2.7572548511e+00 
38400 5.4835231495e+00 6.9702422914e-05 1.5919018305e+00 -2.7572548511e+00 1.5919018305e+00 2.7572548511e+00 
38500 5.4835232068e+00 7.0045686157e-05 1.5919018305e+00 -2.7572548511e+00 1.5919018305e+00 2.7572548511e+00 
38600 5.4835232631e+00 7.0371705307e-05 1.5919018305e+00 -2.7572548511e+00 1.5919018305e+00 2.7572548511e+00 
38700 5.4835233183e+00 7.0680932269e-05 1.5919018305e+00 -2.7572548511e+00 1.5919018305e+00 2.7572548511e+00 
38800 5.4835233725e+00 7.0973790554e-05 1.5919018305e+00 -2.7572548511e+00 1.5919018305e+00 2.7572548511e+00 
38900 5.4835234256e+00 6.9195732934e-05 1.5918996013e+00 -2.7572509900e+00 1.5918996013e+00 2.7572509900e+00 
39000 5.4835234778e+00 6.9446717110e-05 1.5918996013e+00 -2.7572509900e+00 1.5918996013e+00 2.7572509900e+00 
39100 5.4835235291e+00 6.9681791269e-05 1.5918996013e+00 -2.7572509900e+00 1.5918996013e+00 2.7572509900e+00 
39200 5.4835235795e+00 6.9901335274e-05 1.5918996013e+00 -2.7572509900e+00 1.5918996013e+00 2.7572509900e+00 
39300 5.4835236289e+00 7.0105706034e-05 1.5918996013e+00 -2.7572509900e+00 1.5918996013e+00 2.7572509900e+00 
39400 5.4835236775e+00 7.0295238711e-05 1.5918996013e+00 -2.7572509900e+00 1.5918996013e+00 2.7572509900e+00 
39500 5.4835237251e+00 7.0470247924e-05 1.5918996013e+00 -2.7572509900e+00 1.5918996013e+00 2.7572509900e+00 
39600 5.4835237719e+00 7.0631028920e-05 1.5918996013e+00 -2.7572509900e+00 1.5918996013e+00 2.7572509900e+00 
39700 5.4835238178e+00 7.0777858716e-05 1.5918996013e+00 -2.7572509900e+00 1.5918996013e+00 2.7572509900e+00 
39800 5.4835238626e+00 6.8861697954e-05 1.5918973782e+00 -2.7572471395e+00 1.5918973782e+00 2.7572471395e+00 
39900 5.4835239069e+00 6.8971118371e-05 1.5918973782e+00 -2.7572471395e+00 1.5918973782e+00 2.7572471395e+00 
40000 5.4835239503e+00 6.9066666587e-05 1.5918973782e+00 -2.7572471395e+00 1.5918973782e+00 2.7572471395e+00 
40100 5.4835239929e+00 6.9148613525e-05 1.5918973782e+00 -2.7572471395e+00 1.5918973782e+00 2.7572471395e+00 
40200 5.4835240347e+00 6.9217215810e-05 1.5918973782e+00 -2.7572471395e+00 1.5918973782e+00 2.7572471395e+00 
40300 5.4835240758e+00 6.9272716680e-05 1.5918973782e+00 -2.7572471395e+00 1.5918973782e+00 2.7572471395e+00 
40400 5.4835241161e+00 6.9315346863e-05 1.5918973782e+00 -2.7572471395e+00 1.5918973782e+00 2.7572471395e+00 
40500 5.4835241556e+00 6.9345325427e-05 1.5918973782e+00 -2.7572471395e+00 1.5918973782e+00 2.7572471395e+00 
40600 5.4835241944e+00 6.9362860605e-05 1.5918973782e+00 -2.7572471395e+00 1.5918973782e+00 2.7572471395e+00 
40700 5.4835242325e+00 6.9368150594e-05 1.5918973782e+00 -2.7572471395e+00 1.5918973782e+00 2.7572471395e+00 
40800 5.4835242699e+00 6.9361384323e-05 1.5918973782e+00 -2.7572471395e+00 1.5918973782e+00 2.7572471395e+00 
40900 5.4835243066e+00 6.9342742191e-05 1.5918973782e+00 -2.7572471395e+00 1.5918973782e+00 2.7572471395e+00 
41000 5.4835243426e+00 6.9312396783e-05 1.5918973782e+00 -2.7572471395e+00 1.5918973782e+00 2.7572471395e+00 
41100 5.4835243780e+00 6.9270513546e-05 1.5918973782e+00 -2.7572471395e+00 1.5918973782e+00 2.7572471395e+00 
41200 5.4835244127e+00 6.9217251452e-05 1.5918973782e+00 -2.7572471395e+00 1.5918973782e+00 2.7572471395e+00 
41300 5.4835244468e+00 6.9152763612e-05 1.5918973782e+00 -2.7572471395e+00 1.5918973782e+00 2.7572471395e+00 
41400 5.4835244802e+00 6.9077197885e-05 1.5918973782e+00 -2.7572471395e+00 1.5918973782e+00 2.7572471395e+00 
41500 5.4835245130e+00 6.8990697440e-05 1.5918973782e+00 -2.7572471395e+00 1.5918973782e+00 2.7572471395e+00 
41600 5.4835245452e+00 6.8893401298e-05 1.5918973782e+00 -2.7572471395e+00 1.5918973782e+00 2.7572471395e+00 
41700 5.4835245768e+00 6.8785444845e-05 1.5918973782e+00 -2.7572471395e+00 1.5918973782e+00 2.7572471395e+00 
41800 5.4835246078e+00 6.8666960318e-05 1.5918973782e+00 -2.7572471395e+00 1.5918973782e+00 2.7572471395e+00 
41900 5.4835246383e+00 6.8538077263e-05 1.5918973782e+00 -2.7572471395e+00 1.5918973782e+00 2.7572471395e+00 
42000 5.4835246681e+00 6.8398922967e-05 1.5918973782e+00 -2.7572471395e+00 1.5918973782e+00 2.7572471395e+00 
42100 5.4835246975e+00 6.8249622864e-05 1.5918973782e+00 -2.7572471395e+00 1.5918973782e+00 2.7572471395e+00 
42200 5.4835247263e+00 6.8090300911e-05 1.5918973782e+00 -2.7572471395e+00 1.5918973782e+00 2.7572471395e+00 
42300 5.4835247545e+00 6.7921079953e-05 1.5918973782e+00 -2.7572471395e+00 1.5918973782e+00 2.7572471395e+00 
42400 5.4835247822e+00 6.7742082038e-05 1.5918973782e+00 -2.7572471395e+00 1.5918973782e+00 2.7572471395e+00 
42500 5.4835248094e+00 6.7553428736e-05 1.5918973782e+00 -2.7572471395e+00 1.5918973782e+00 2.7572471395e+00 
42600 5.4835248361e+00 6.7355241417e-05 1.5918973782e+00 -2.7572471395e+00 1.5918973782e+00 2.7572471395e+00 
42700 5.4835248623e+00 6.7147641513e-05 1.5918973782e+00 -2.7572471395e+00 1.5918973782e+00 2.7572471395e+00 
42800 5.4835248881e+00 6.6930750752e-05 1.5918973782e+00 -2.7572471395e+00 1.5918973782e+00 2.7572471395e+00 
42900 5.4835249133e+00 6.6704691376e-05 1.5918973782e+00 -2.7572471395e+00 1.5918973782e+00 2.7572471395e+00 
43000 5.4835249381e+00 6.6469586342e-05 1.5918973782e+00 -2.7572471395e+00 1.5918973782e+00 2.7572471395e+00 
43100 5.4835249624e+00 6.6225559491e-05 1.5918973782e+00 -2.7572471395e+00 1.5918973782e+00 2.7572471395e+00 
43200 5.4835249863e+00 6.5972735708e-05 1.5918973782e+00 -2.7572471395e+00 1.5918973782e+00 2.7572471395e+00 
43300 5.4835250097e+00 6.5711241059e-05 1.5918973782e+00 -2.7572471395e+00 1.5918973782e+00 2.7572471395e+00 
43400 5.4835250327e+00 6.5441202910e-05 1.5918973782e+00 -2.7572471395e+00 1.5918973782e+00 2.7572471395e+00 
43500 5.4835250553e+00 6.5162750033e-05 1.5918973782e+00 -2.7572471395e+00 1.5918973782e+00 2.7572471395e+00 
43600 5.4835250774e+00 6.4876012687e-05 1.5918973782e+00 -2.7572471395e+00 1.5918973782e+00 2.7572471395e+00 
43700 5.4835250992e+00 6.4581122694e-05 1.5918973782e+00 -2.7572471395e+00 1.5918973782e+00 2.7572471395e+00 
43800 5.4835251205e+00 6.4278213490e-05 1.5918973782e+00 -2.7572471395e+00 1.5918973782e+00 2.7572471395e+00 
43900 5.4835251414e+00 6.3967420171e-05 1.5918973782e+00 -2.7572471395e+00 1.5918973782e+00 2.7572471395e+00 
44000 5.4835251620e+00 6.3648879515e-05 1.5918973782e+00 -2.7572471395e+00 1.5918973782e+00 2.7572471395e+00 
44100 5.4835251822e+00 6.3322730000e-05 1.5918973782e+00 -2.7572471395e+00 1.5918973782e+00 2.7572471395e+00 
44200 5.4835252020e+00 6.2989111806e-05 1.5918973782e+00 -2.7572471395e+00 1.5918973782e+00 2.7572471395e+00 
44300 5.4835252214e+00 6.2648166810e-05 1.5918973782e+00 -2.7572471395e+00 1.5918973782e+00 2.7572471395e+00 
44400 5.4835252405e+00 6.2300038556e-05 1.5918973782e+00 -2.7572471395e+00 1.5918973782e+00 2.7572471395e+00 
44500 5.4835252592e+00 6.1944872235e-05 1.5918973782e+00 -2.7572471395e+00 1.5918973782e+00 2.7572471395e+00 
44600 5.4835252776e+00 6.1582814642e-05 1.5918973782e+00 -2.7572471395e+00 1.5918973782e+00 2.7572471395e+00 
44700 5.4835252956e+00 6.1214014128e-05 1.5918973782e+00 -2.7572471395e+00 1.5918973782e+00 2.7572471395e+00 
44800 5.4835253134e+00 6.0838620543e-05 1.5918973782e+00 -2.7572471395e+00 1.5918973782e+00 2.7572471395e+00 
44900 5.4835253307e+00 6.0456785170e-05 1.5918973782e+00 -2.7572471395e+00 1.5918973782e+00 2.7572471395e+00 
45000 5.4835253478e+00 6.0068660657e-05 1.5918973782e+00 -2.7572471395e+00 1.5918973782e+00 2.7572471395e+00 
45100 5.4835253646e+00 5.9674400943e-05 1.5918973782e+00 -2.7572471395e+00 1.5918973782e+00 2.7572471395e+00 
45200 5.4835253810e+00 5.9274161167e-05 1.5918973782e+00 -2.7572471395e+00 1.5918973782e+00 2.7572471395e+00 
45300 5.4835253971e+00 5.8868097582e-05 1.5918973782e+00 -2.7572471395e+00 1.5918973782e+00 2.7572471395e+00 
45400 5.4835254130e+00 5.8456367469e-05 1.5918973782e+00 -2.7572471395e+00 1.5918973782e+00 2.7572471395e+00 
45500 5.4835254285e+00 5.8039129028e-05 1.5918973782e+00 -2.7572471395e+00 1.5918973782e+00 2.7572471395e+00 
45600 5.4835254438e+00 5.7616541286e-05 1.5918973782e+00 -2.7572471395e+00 1.5918973782e+00 2.7572471395e+00 
45700 5.4835254588e+00 5.7188763989e-05 1.5918973782e+00 -2.7572471395e+00 1.5918973782e+00 2.7572471395e+00 
45800 5.4835254735e+00 5.6755957494e-05 1.5918973782e+00 -2.7572471395e+00 1.5918973782e+00 2.7572471395e+00 
45900 5.4835254879e+00 5.6318282665e-05 1.5918973782e+00 -2.7572471395e+00 1.5918973782e+00 2.7572471395e+00 
46000 5.4835255021e+00 5.5875900752e-05 1.5918973782e+00 -2.7572471395e+00 1.5918973782e+00 2.7572471395e+00 
46100 5.4835255161e+00 5.5428973293e-05 1.5918973782e+00 -2.7572471395e+00 1.5918973782e+00 2.7572471395e+00 
46200 5.4835255297e+00 5.4977661988e-05 1.5918973782e+00 -2.7572471395e+00 1.5918973782e+00 2.7572471395e+00 
46300 5.4835255431e+00 5.4522128591e-05 1.5918973782e+00 -2.7572471395e+00 1.5918973782e+00 2.7572471395e+00 
46400 5.4835255563e+00 5.4062534792e-05 1.5918973782e+00 -2.7572471395e+00 1.5918973782e+00 2.7572471395e+00 
46500 5.4835255692e+00 5.3599042107e-05 1.5918973782e+00 -2.7572471395e+00 1.5918973782e+00 2.7572471395e+00 
46600 5.4835255819e+00 5.3131811761e-05 1.5918973782e+00 -2.7572471395e+00 1.5918973782e+00 2.7572471395e+00 
46700 5.4835255944e+00 5.2661004578e-05 1.5918973782e+00 -2.7572471395e+00 1.5918973782e+00 2.7572471395e+00 
46800 5.4835256066e+00 5.2186780862e-05 1.5918973782e+00 -2.7572471395e+00 1.5918973782e+00 2.7572471395e+00 
46900 5.4835256187e+00 5.1709300297e-05 1.5918973782e+00 -2.7572471395e+00 1.5918973782e+00 2.7572471395e+00 
47000 5.4835256305e+00 5.1228721824e-05 1.5918973782e+00 -2.7572471395e+00 1.5918973782e+00 2.7572471395e+00 
47100 5.4835256421e+00 5.0745203549e-05 1.5918973782e+00 -2.7572471395e+00 1.5918973782e+00 2.7572471395e+00 
47200 5.4835256534e+00 5.0258902624e-05 1.5918973782e+00 -2.7572471395e+00 1.5918973782e+00 2.7572471395e+00 
47300 5.4835256646e+00 4.9769975150e-05 1.5918973782e+00 -2.7572471395e+00 1.5918973782e+00 2.7572471395e+00 
47400 5.4835256756e+00 4.9278576076e-05 1.5918973782e+00 -2.7572471395e+00 1.5918973782e+00 2.7572471395e+00 
47500 5.4835256863e+00 4.8784859099e-05 1.5918973782e+00 -2.7572471395e+00 1.5918973782e+00 2.7572471395e+00 
47600 5.4835256969e+00 4.8288976571e-05 1.5918973782e+00 -2.7572471395e+00 1.5918973782e+00 2.7572471395e+00 
47700 5.4835257073e+00 4.7791079401e-05 1.5918973782e+00 -2.7572471395e+00 1.5918973782e+00 2.7572471395e+00 
47800 5.4835257175e+00 4.7291316972e-05 1.5918973782e+00 -2.7572471395e+00 1.5918973782e+00 2.7572471395e+00 
47900 5.4835257275e+00 4.6789837049e-05 1.5918973782e+00 -2.7572471395e+00 1.5918973782e+00 2.7572471395e+00 
48000 5.4835257373e+00 4.6286785702e-05 1.5918973782e+00 -2.7572471395e+00 1.5918973782e+00 2.7572471395e+00 
48100 5.4835257470e+00 4.5782307218e-05 1.5918973782e+00 -2.7572471395e+00 1.5918973782e+00 2.7572471395e+00 
48200 5.4835257565e+00 4.5276544029e-05 1.5918973782e+00 -2.7572471395e+00 1.5918973782e+00 2.7572471395e+00 
48300 5.4835257658e+00 4.4769636641e-05 1.5918973782e+00 -2.7572471395e+00 1.5918973782e+00 2.7572471395e+00 
48400 5.4835257749e+00 4.4261723562e-05 1.5918973782e+00 -2.7572471395e+00 1.5918973782e+00 2.7572471395e+00 
48500 5.4835257839e+00 4.3752941235e-05 1.5918973782e+00 -2.7572471395e+00 1.5918973782e+00 2.7572471395e+00 
48600 5.4835257927e+00 4.3243423977e-05 1.5918973782e+00 -2.7572471395e+00 1.5918973782e+00 2.7572471395e+00 
48700 5.4835258014e+00 4.2733303923e-05 1.5918973782e+00 -2.7572471395e+00 1.5918973782e+00 2.7572471395e+00 
48800 5.4835258099e+00 4.2222710969e-05 1.5918973782e+00 -2.7572471395e+00 1.5918973782e+00 2.7572471395e+00 
48900 5.4835258183e+00 4.1711772721e-05 1.5918973782e+00 -2.7572471395e+00 1.5918973782e+00 2.7572471395e+00 
49000 5.4835258265e+00 4.1200614447e-05 1.5918973782e+00 -2.7572471395e+00 1.5918973782e+00 2.7572471395e+00 
49100 5.4835258345e+00 4.0689359032e-05 1.5918973782e+00 -2.7572471395e+00 1.5918973782e+00 2.7572471395e+00 
49200 5.4835258424e+00 4.0178126942e-05 1.5918973782e+00 -2.7572471395e+00 1.5918973782e+00 2.7572471395e+00 
49300 5.4835258502e+00 3.9667036185e-05 1.5918973782e+00 -2.7572471395e+00 1.5918973782e+00 2.7572471395e+00 
49400 5.4835258579e+00 3.9156202280e-05 1.5918973782e+00 -2.7572471395e+00 1.5918973782e+00 2.7572471395e+00 
49500 5.4835258654e+00 3.8645738224e-05 1.5918973782e+00 -2.7572471395e+00 1.5918973782e+00 2.7572471395e+00 
49600 5.4835258727e+00 3.8135754469e-05 1.5918973782e+00 -2.7572471395e+00 1.5918973782e+00 2.7572471395e+00 
49700 5.4835258800e+00 3.7626358898e-05 1.5918973782e+00 -2.7572471395e+00 1.5918973782e+00 2.7572471395e+00 
49800 5.4835258871e+00 3.7117656812e-05 1.5918973782e+00 -2.7572471395e+00 1.5918973782e+00 2.7572471395e+00 
49900 5.4835258941e+00 3.6609750903e-05 1.5918973782e+00 -2.7572471395e+00 1.5918973782e+00 2.7572471395e+00 
50000 5.4835259009e+00 3.6102741253e-05 1.5918973782e+00 -2.7572471395e+00 1.5918973782e+00 2.7572471395e+00 
50100 5.4835259077e+00 3.5596725317e-05 1.5918973782e+00 -2.7572471395e+00 1.5918973782e+00 2.7572471395e+00 
50200 5.4835259143e+00 3.5091797922e-05 1.5918973782e+00 -2.7572471395e+00 1.5918973782e+00 2.7572471395e+00 
50300 5.4835259208e+00 3.4588051263e-05 1.5918973782e+00 -2.7572471395e+00 1.5918973782e+00 2.7572471395e+00 
50400 5.4835259272e+00 3.4085574901e-05 1.5918973782e+00 -2.7572471395e+00 1.5918973782e+00 2.7572471395e+00 
50500 5.4835259335e+00 3.3584455764e-05 1.5918973782e+00 -2.7572471395e+00 1.5918973782e+00 2.7572471395e+00 
50600 5.4835259396e+00 3.3084778161e-05 1.5918973782e+00 -2.7572471395e+00 1.5918973782e+00 2.7572471395e+00 
50700 5.4835259457e+00 3.2586623779e-05 1.5918973782e+00 -2.7572471395e+00 1.5918973782e+00 2.7572471395e+00 
50800 5.4835259517e+00 3.2090071705e-05 1.5918973782e+00 -2.7572471395e+00 1.5918973782e+00 2.7572471395e+00 
50900 5.4835259575e+00 3.1595198431e-05 1.5918973782e+00 -2.7572471395e+00 1.5918973782e+00 2.7572471395e+00 
51000 5.4835259633e+00 3.1102077874e-05 1.5918973782e+00 -2.7572471395e+00 1.5918973782e+00 2.7572471395e+00 
51100 5.4835259689e+00 3.0610781393e-05 1.5918973782e+00 -2.7572471395e+00 1.5918973782e+00 2.7572471395e+00 
51200 5.4835259745e+00 3.0121377807e-05 1.5918973782e+00 -2.7572471395e+00 1.5918973782e+00 2.7572471395e+00 
51300 5.4835259799e+00 2.9633933422e-05 1.5918973782e+00 -2.7572471395e+00 1.5918973782e+00 2.7572471395e+00 
51400 5.4835259853e+00 2.9148512053e-05 1.5918973782e+00 -2.7572471395e+00 1.5918973782e+00 2.7572471395e+00 
51500 5.4835259905e+00 2.8665175048e-05 1.5918973782e+00 -2.7572471395e+00 1.5918973782e+00 2.7572471395e+00 
51600 5.4835259957e+00 2.8183981321e-05 1.5918973782e+00 -2.7572471395e+00 1.5918973782e+00 2.7572471395e+00 
51700 5.4835260008e+00 2.7704987377e-05 1.5918973782e+00 -2.7572471395e+00 1.5918973782e+00 2.7572471395e+00 
51800 5.4835260058e+00 2.7228247348e-05 1.5918973782e+00 -2.7572471395e+00 1.5918973782e+00 2.7572471395e+00 
51900 5.4835260107e+00 2.6753813020e-05 1.5918973782e+00 -2.7572471395e+00 1.5918973782e+00 2.7572471395e+00 
52000 5.4835260155e+00 2.6281733874e-05 1.5918973782e+00 -2.7572471395e+00 1.5918973782e+00 2.7572471395e+00 
52100 5.4835260203e+00 2.5812057117e-05 1.5918973782e+00 -2.7572471395e+00 1.5918973782e+00 2.7572471395e+00 
52200 5.4835260249e+00 2.5344827721e-05 1.5918973782e+00 -2.7572471395e+00 1.5918973782e+00 2.7572471395e+00 
52300 5.4835260295e+00 2.4880088456e-05 1.5918973782e+00 -2.7572471395e+00 1.5918973782e+00 2.7572471395e+00 
52400 5.4835260340e+00 2.4417879941e-05 1.5918973782e+00 -2.7572471395e+00 1.5918973782e+00 2.7572471395e+00 
52500 5.4835260384e+00 2.3958240670e-05 1.5918973782e+00 -2.7572471395e+00 1.5918973782e+00 2.7572471395e+00 
52600 5.4835260428e+00 2.3501207063e-05 1.5918973782e+00 -2.7572471395e+00 1.5918973782e+00 2.7572471395e+00 
52700 5.4835260471e+00 2.3046813500e-05 1.5918973782e+00 -2.7572471395e+00 1.5918973782e+00 2.7572471395e+00 
52800 5.4835260513e+00 2.2595092369e-05 1.5918973782e+00 -2.7572471395e+00 1.5918973782e+00 2.7572471395e+00 
52900 5.4835260554e+00 2.2146074108e-05 1.5918973782e+00 -2.7572471395e+00 1.5918973782e+00 2.7572471395e+00 
53000 5.4835260595e+00 2.1699787244e-05 1.5918973782e+00 -2.7572471395e+00 1.5918973782e+00 2.7572471395e+00 
53100 5.4835260634e+00 2.1256258443e-05 1.5918973782e+00 -2.7572471395e+00 1.5918973782e+00 2.7572471395e+00 
53200 5.4835260674e+00 2.0815512548e-05 1.5918973782e+00 -2.7572471395e+00 1.5918973782e+00 2.7572471395e+00 
53300 5.4835260712e+00 2.0377572632e-05 1.5918973782e+00 -2.7572471395e+00 1.5918973782e+00 2.7572471395e+00 
53400 5.4835260750e+00 1.9942460031e-05 1.5918973782e+00 -2.7572471395e+00 1.5918973782e+00 2.7572471395e+00 
53500 5.4835260787e+00 1.9510194401e-05 1.5918973782e+00 -2.7572471395e+00 1.5918973782e+00 2.7572471395e+00 
53600 5.4835260824e+00 1.9080793753e-05 1.5918973782e+00 -2.7572471395e+00 1.5918973782e+00 2.7572471395e+00 
53700 5.4835260860e+00 1.8654274504e-05 1.5918973782e+00 -2.7572471395e+00 1.5918973782e+00 2.7572471395e+00 
53800 5.4835260895e+00 1.8230651520e-05 1.5918973782e+00 -2.7572471395e+00 1.5918973782e+00 2.7572471395e+00 
53900 5.4835260930e+00 1.7809938162e-05 1.5918973782e+00 -2.7572471395e+00 1.5918973782e+00 2.7572471395e+00 
54000 5.4835260964e+00 1.7392146326e-05 1.5918973782e+00 -2.7572471395e+00 1.5918973782e+00 2.7572471395e+00 
54100 5.4835260998e+00 1.6977286497e-05 1.5918973782e+00 -2.7572471395e+00 1.5918973782e+00 2.7572471395e+00 
54200 5.4835261031e+00 1.6565367781e-05 1.5918973782e+00 -2.7572471395e+00 1.5918973782e+00 2.7572471395e+00 
54300 5.4835261064e+00 1.6156397960e-05 1.5918973782e+00 -2.7572471395e+00 1.5918973782e+00 2.7572471395e+00 
54400 5.4835261096e+00 1.5750383528e-05 1.5918973782e+00 -2.7572471395e+00 1.5918973782e+00 2.7572471395e+00 
54500 5.4835261127e+00 1.5347329735e-05 1.5918973782e+00 -2.7572471395e+00 1.5918973782e+00 2.7572471395e+00 
54600 5.4835261158e+00 1.4947240637e-05 1.5918973782e+00 -2.7572471395e+00 1.5918973782e+00 2.7572471395e+00 
54700 5.4835261188e+00 1.4550119126e-05 1.5918973782e+00 -2.7572471395e+00 1.5918973782e+00 2.7572471395e+00 
54800 5.4835261218e+00 1.4155966983e-05 1.5918973782e+00 -2.7572471395e+00 1.5918973782e+00 2.7572471395e+00 
54900 5.4835261248e+00 1.3764784912e-05 1.5918973782e+00 -2.7572471395e+00 1.5918973782e+00 2.7572471395e+00 
55000 5.4835261277e+00 1.3376572583e-05 1.5918973782e+00 -2.7572471395e+00 1.5918973782e+00 2.7572471395e+00 
55100 5.4835261305e+00 1.2991328670e-05 1.5918973782e+00 -2.7572471395e+00 1.5918973782e+00 2.7572471395e+00 
55200 5.4835261333e+00 1.2609050897e-05 1.5918973782e+00 -2.7572471395e+00 1.5918973782e+00 2.7572471395e+00 
55300 5.4835261360e+00 1.2229736064e-05 1.5918973782e+00 -2.7572471395e+00 1.5918973782e+00 2.7572471395e+00 
55400 5.4835261387e+00 1.1853380098e-05 1.5918973782e+00 -2.7572471395e+00 1.5918973782e+00 2.7572471395e+00 
55500 5.4835261414e+00 1.1479978083e-05 1.5918973782e+00 -2.7572471395e+00 1.5918973782e+00 2.7572471395e+00 
55600 5.4835261440e+00 1.1109524295e-05 1.5918973782e+00 -2.7572471395e+00 1.5918973782e+00 2.7572471395e+00 
55700 5.4835261466e+00 1.0742012244e-05 1.5918973782e+00 -2.7572471395e+00 1.5918973782e+00 2.7572471395e+00 
55800 5.4835261491e+00 1.0377434703e-05 1.5918973782e+00 -2.7572471395e+00 1.5918973782e+00 2.7572471395e+00 
55900 5.4835261516e+00 1.0015783744e-05 1.5918973782e+00 -2.7572471395e+00 1.5918973782e+00 2.7572471395e+00 
56000 5.4835261540e+00 9.6570507736e-06 1.5918973782e+00 -2.7572471395e+00 1.5918973782e+00 2.7572471395e+00 
56100 5.4835261564e+00 9.3012265602e-06 1.5918973782e+00 -2.7572471395e+00 1.5918973782e+00 2.7572471395e+00 
56200 5.4835261588e+00 8.9483012717e-06 1.5918973782e+00 -2.7572471395e+00 1.5918973782e+00 2.7572471395e+00 
56300 5.4835261611e+00 8.5982645026e-06 1.5918973782e+00 -2.7572471395e+00 1.5918973782e+00 2.7572471395e+00 
56400 5.4835261634e+00 8.2511053054e-06 1.5918973782e+00 -2.7572471395e+00 1.5918973782e+00 2.7572471395e+00 
56500 5.4835261657e+00 7.9068122170e-06 1.5918973782e+00 -2.7572471395e+00 1.5918973782e+00 2.7572471395e+00 
56600 5.4835261679e+00 7.5653732914e-06 1.5918973782e+00 -2.7572471395e+00 1.5918973782e+00 2.7572471395e+00 
56700 5.4835261701e+00 7.2267761264e-06 1.5918973782e+00 -2.7572471395e+00 1.5918973782e+00 2.7572471395e+00 
56800 5.4835261722e+00 6.8910078852e-06 1.5918973782e+00 -2.7572471395e+00 1.5918973782e+00 2.7572471395e+00 
56900 5.4835261743e+00 6.5580553288e-06 1.5918973782e+00 -2.7572471395e+00 1.5918973782e+00 2.7572471395e+00 
57000 5.4835261764e+00 6.2279048383e-06 1.5918973782e+00 -2.7572471395e+00 1.5918973782e+00 2.7572471395e+00 
57100 5.4835261784e+00 5.9005424374e-06 1.5918973782e+00 -2.7572471395e+00 1.5918973782e+00 2.7572471395e+00 
57200 5.4835261805e+00 5.5759538195e-06 1.5918973782e+00 -2.7572471395e+00 1.5918973782e+00 2.7572471395e+00 
57300 5.4835261824e+00 5.2541243681e-06 1.5918973782e+00 -2.7572471395e+00 1.5918973782e+00 2.7572471395e+00 
57400 5.4835261844e+00 4.9350391767e-06 1.5918973782e+00 -2.7572471395e+00 1.5918973782e+00 2.7572471395e+00 
57500 5.4835261863e+00 4.6186830740e-06 1.5918973782e+00 -2.7572471395e+00 1.5918973782e+00 2.7572471395e+00 
57600 5.4835261882e+00 4.3050406414e-06 1.5918973782e+00 -2.7572471395e+00 1.5918973782e+00 2.7572471395e+00 
57700 5.4835261900e+00 3.9940962333e-06 1.5918973782e+00 -2.7572471395e+00 1.5918973782e+00 2.7572471395e+00 
57800 5.4835261918e+00 3.6858339954e-06 1.5918973782e+00 -2.7572471395e+00 1.5918973782e+00 2.7572471395e+00 
57900 5.4835261936e+00 3.3802378829e-06 1.5918973782e+00 -2.7572471395e+00 1.5918973782e+00 2.7572471395e+00 
58000 5.4835261954e+00 3.0772916786e-06 1.5918973782e+00 -2.7572471395e+00 1.5918973782e+00 2.7572471395e+00 
58100 5.4835261971e+00 2.7769790048e-06 1.5918973782e+00 -2.7572471395e+00 1.5918973782e+00 2.7572471395e+00 
58200 5.4835261988e+00 2.4792833459e-06 1.5918973782e+00 -2.7572471395e+00 1.5918973782e+00 2.7572471395e+00 
58300 5.4835262005e+00 2.1841880605e-06 1.5918973782e+00 -2.7572471395e+00 1.5918973782e+00 2.7572471395e+00 
58400 5.4835262022e+00 1.8916763945e-06 1.5918973782e+00 -2.7572471395e+00 1.5918973782e+00 2.7572471395e+00 
58500 5.4835262038e+00 1.6017314958e-06 1.5918973782e+00 -2.7572471395e+00 1.5918973782e+00 2.7572471395e+00 
58600 5.4835262054e+00 1.3143364276e-06 1.5918973782e+00 -2.7572471395e+00 1.5918973782e+00 2.7572471395e+00 
58700 5.4835262070e+00 1.0294741823e-06 1.5918973782e+00 -2.7572471395e+00 1.5918973782e+00 2.7572471395e+00 
58800 5.4835262085e+00 7.4712768832e-07 1.5918973782e+00 -2.7572471395e+00 1.5918973782e+00 2.7572471395e+00 
58900 5.4835262100e+00 4.6727982884e-07 1.5918973782e+00 -2.7572471395e+00 1.5918973782e+00 2.7572471395e+00 
59000 5.4835262115e+00 1.8991344469e-07 1.5918973782e+00 -2.7572471395e+00 1.5918973782e+00 2.7572471395e+00 
59100 5.4835262130e+00 -8.4988648397e-08 1.5918973782e+00 -2.7572471395e+00 1.5918973782e+00 2.7572471395e+00 
59200 5.4835262145e+00 -3.5744365650e-07 1.5918973782e+00 -2.7572471395e+00 1.5918973782e+00 2.7572471395e+00 
59300 5.4835262159e+00 -6.2746879396e-07 1.5918973782e+00 -2.7572471395e+00 1.5918973782e+00 2.7572471395e+00 
59400 5.4835262173e+00 -8.9508127745e-07 1.5918973782e+00 -2.7572471395e+00 1.5918973782e+00 2.7572471395e+00 
59500 5.4835262187e+00 -1.1602983174e-06 1.5918973782e+00 -2.7572471395e+00 1.5918973782e+00 2.7572471395e+00 
59600 5.4835262201e+00 -1.4231371100e-06 1.5918973782e+00 -2.7572471395e+00 1.5918973782e+00 2.7572471395e+00 
59700 5.4835262214e+00 -1.6836148294e-06 1.5918973782e+00 -2.7572471395e+00 1.5918973782e+00 2.7572471395e+00 
59800 5.4835262227e+00 -1.9417486240e-06 1.5918973782e+00 -2.7572471395e+00 1.5918973782e+00 2.7572471395e+00 
59900 5.4835262240e+00 -2.1975556084e-06 1.5918973782e+00 -2.7572471395e+00 1.5918973782e+00 2.7572471395e+00 
60000 5.4835262253e+00 -2.4510528563e-06 1.5918973782e+00 -2.7572471395e+00 1.5918973782e+00 2.7572471395e+00 
60100 5.4835262266e+00 -2.7022573985e-06 1.5918973782e+00 -2.7572471395e+00 1.5918973782e+00 2.7572471395e+00 
60200 5.4835262278e+00 -2.9511862147e-06 1.5918973782e+00 -2.7572471395e+00 1.5918973782e+00 2.7572471395e+00 
60300 5.4835262290e+00 -3.1978562311e-06 1.5918973782e+00 -2.7572471395e+00 1.5918973782e+00 2.7572471395e+00 
60400 5.4835262302e+00 -3.4422843162e-06 1.5918973782e+00 -2.7572471395e+00 1.5918973782e+00 2.7572471395e+00 
60500 5.4835262314e+00 -3.6844872747e-06 1.5918973782e+00 -2.7572471395e+00 1.5918973782e+00 2.7572471395e+00 
60600 5.4835262326e+00 -3.9244818467e-06 1.5918973782e+00 -2.7572471395e+00 1.5918973782e+00 2.7572471395e+00 
60700 5.4835262337e+00 -4.1622847026e-06 1.5918973782e+00 -2.7572471395e+00 1.5918973782e+00 2.7572471395e+00 
60800 5.4835262348e+00 -4.3979124426e-06 1.5918973782e+00 -2.7572471395e+00 1.5918973782e+00 2.7572471395e+00 
60900 5.4835262360e+00 -4.6313815901e-06 1.5918973782e+00 -2.7572471395e+00 1.5918973782e+00 2.7572471395e+00 
61000 5.4835262370e+00 -4.8627085915e-06 1.5918973782e+00 -2.7572471395e+00 1.5918973782e+00 2.7572471395e+00 
61100 5.4835262381e+00 -5.0919098155e-06 1.5918973782e+00 -2.7572471395e+00 1.5918973782e+00 2.7572471395e+00 
61200 5.4835262392e+00 -5.3190015483e-06 1.5918973782e+00 -2.7572471395e+00 1.5918973782e+00 2.7572471395e+00 
61300 5.4835262402e+00 -5.5439999949e-06 1.5918973782e+00 -2.7572471395e+00 1.5918973782e+00 2.7572471395e+00 
61400 5.4835262413e+00 -5.7669212758e-06 1.5918973782e+00 -2.7572471395e+00 1.5918973782e+00 2.7572471395e+00 
61500 5.4835262423e+00 -5.9877814250e-06 1.5918973782e+00 -2.7572471395e+00 1.5918973782e+00 2.7572471395e+00 
61600 5.4835262433e+00 -6.2065963882e-06 1.5918973782e+00 -2.7572471395e+00 1.5918973782e+00 2.7572471395e+00 
61700 5.4835262442e+00 -6.4233820296e-06 1.5918973782e+00 -2.7572471395e+00 1.5918973782e+00 2.7572471395e+00 
61800 5.4835262452e+00 -6.6381541196e-06 1.5918973782e+00 -2.7572471395e+00 1.5918973782e+00 2.7572471395e+00 
61900 5.4835262462e+00 -6.8509283437e-06 1.5918973782e+00 -2.7572471395e+00 1.5918973782e+00 2.7572471395e+00 
62000 5.4835262471e+00 -7.0617202943e-06 1.5918973782e+00 -2.7572471395e+00 1.5918973782e+00 2.7572471395e+00 
62100 5.4835262480e+00 -7.2705454773e-06 1.5918973782e+00 -2.7572471395e+00 1.5918973782e+00 2.7572471395e+00 
62200 5.4835262489e+00 -7.4774193085e-06 1.5918973782e+00 -2.7572471395e+00 1.5918973782e+00 2.7572471395e+00 
62300 5.4835262498e+00 -7.6823571115e-06 1.5918973782e+00 -2.7572471395e+00 1.5918973782e+00 2.7572471395e+00 
62400 5.4835262507e+00 -7.8853741252e-06 1.5918973782e+00 -2.7572471395e+00 1.5918973782e+00 2.7572471395e+00 
62500 5.4835262516e+00 -8.0864854932e-06 1.5918973782e+00 -2.7572471395e+00 1.5918973782e+00 2.7572471395e+00 
62600 5.4835262524e+00 -8.2857062733e-06 1.5918973782e+00 -2.7572471395e+00 1.5918973782e+00 2.7572471395e+00 
62700 5.4835262533e+00 -8.4830514338e-06 1.5918973782e+00 -2.7572471395e+00 1.5918973782e+00 2.7572471395e+00 
62800 5.4835262541e+00 -8.6785358529e-06 1.5918973782e+00 -2.7572471395e+00 1.5918973782e+00 2.7572471395e+00 
62900 5.4835262549e+00 -8.8721743222e-06 1.5918973782e+00 -2.7572471395e+00 1.5918973782e+00 2.7572471395e+00 
63000 5.4835262557e+00 -9.0639815459e-06 1.5918973782e+00 -2.7572471395e+00 1.5918973782e+00 2.7572471395e+00 
63100 5.4835262565e+00 -9.2539721383e-06 1.5918973782e+00 -2.7572471395e+00 1.5918973782e+00 2.7572471395e+00 
63200 5.4835262573e+00 -9.4421606287e-06 1.5918973782e+00 -2.7572471395e+00 1.5918973782e+00 2.7572471395e+00 
63300 5.4835262580e+00 -9.6285614623e-06 1.5918973782e+00 -2.7572471395e+00 1.5918973782e+00 2.7572471395e+00 
63400 5.4835262588e+00 -9.8131889956e-06 1.5918973782e+00 -2.7572471395e+00 1.5918973782e+00 2.7572471395e+00 
63500 5.4835262595e+00 -9.9960575016e-06 1.5918973782e+00 -2.7572471395e+00 1.5918973782e+00 2.7572471395e+00 
63600 5.4835262603e+00 -1.0177181170e-05 1.5918973782e+00 -2.7572471395e+00 1.5918973782e+00 2.7572471395e+00 
63700 5.4835262610e+00 -1.0356574108e-05 1.5918973782e+00 -2.7572471395e+00 1.5918973782e+00 2.7572471395e+00 
63800 5.4835262617e+00 -1.0534250339e-05 1.5918973782e+00 -2.7572471395e+00 1.5918973782e+00 2.7572471395e+00 
63900 5.4835262624e+00 -1.0710223804e-05 1.5918973782e+00 -2.7572471395e+00 1.5918973782e+00 2.7572471395e+00 
64000 5.4835262631e+00 -1.0884508366e-05 1.5918973782e+00 -2.7572471395e+00 1.5918973782e+00 2.7572471395e+00 
64100 5.4835262638e+00 -1.1057117803e-05 1.5918973782e+00 -2.7572471395e+00 1.5918973782e+00 2.7572471395e+00 
64200 5.4835262645e+00 -1.1228065817e-05 1.5918973782e+00 -2.7572471395e+00 1.5918973782e+00 2.7572471395e+00 
64300 5.4835262651e+00 -1.1397366030e-05 1.5918973782e+00 -2.7572471395e+00 1.5918973782e+00 2.7572471395e+00 
64400 5.4835262658e+00 -1.1565031988e-05 1.5918973782e+00 -2.7572471395e+00 1.5918973782e+00 2.7572471395e+00 
64500 5.4835262664e+00 -1.1731077156e-05 1.5918973782e+00 -2.7572471395e+00 1.5918973782e+00 2.7572471395e+00 
64600 5.4835262670e+00 -1.1895514925e-05 1.5918973782e+00 -2.7572471395e+00 1.5918973782e+00 2.7572471395e+00 
64700 5.4835262677e+00 -1.2058358610e-05 1.5918973782e+00 -2.7572471395e+00 1.5918973782e+00 2.7572471395e+00 
64800 5.4835262683e+00 -1.2219621448e-05 1.5918973782e+00 -2.7572471395e+00 1.5918973782e+00 2.7572471395e+00 
64900 5.4835262689e+00 -1.2379316606e-05 1.5918973782e+00 -2.7572471395e+00 1.5918973782e+00 2.7572471395e+00 
65000 5.4835262695e+00 -1.2537457173e-05 1.5918973782e+00 -2.7572471395e+00 1.5918973782e+00 2.7572471395e+00 
65100 5.4835262700e+00 -1.2694056167e-05 1.5918973782e+00 -2.7572471395e+00 1.5918973782e+00 2.7572471395e+00 
65200 5.4835262706e+00 -1.2849126533e-05 1.5918973782e+00 -2.7572471395e+00 1.5918973782e+00 2.7572471395e+00 
65300 5.4835262712e+00 -1.3002681140e-05 1.5918973782e+00 -2.7572471395e+00 1.5918973782e+00 2.7572471395e+00 
65400 5.4835262717e+00 -1.3154732792e-05 1.5918973782e+00 -2.7572471395e+00 1.5918973782e+00 2.7572471395e+00 
65500 5.4835262723e+00 -1.3305294216e-05 1.5918973782e+00 -2.7572471395e+00 1.5918973782e+00 2.7572471395e+00 
65600 5.4835262728e+00 -1.3454378072e-05 1.5918973782e+00 -2.7572471395e+00 1.5918973782e+00 2.7572471395e+00 
65700 5.4835262734e+00 -1.3601996947e-05 1.5918973782e+00 -2.7572471395e+00 1.5918973782e+00 2.7572471395e+00 
65800 5.4835262739e+00 -1.3748163359e-05 1.5918973782e+00 -2.7572471395e+00 1.5918973782e+00 2.7572471395e+00 
65900 5.4835262744e+00 -1.3892889758e-05 1.5918973782e+00 -2.7572471395e+00 1.5918973782e+00 2.7572471395e+00 
66000 5.4835262749e+00 -1.4036188524e-05 1.5918973782e+00 -2.7572471395e+00 1.5918973782e+00 2.7572471395e+00 
66100 5.4835262754e+00 -1.4178071967e-05 1.5918973782e+00 -2.7572471395e+00 1.5918973782e+00 2.7572471395e+00 
66200 5.4835262759e+00 -1.4318552330e-05 1.5918973782e+00 -2.7572471395e+00 1.5918973782e+00 2.7572471395e+00 
66300 5.4835262764e+00 -1.4457641788e-05 1.5918973782e+00 -2.7572471395e+00 1.5918973782e+00 2.7572471395e+00 
66400 5.4835262769e+00 -1.4595352446e-05 1.5918973782e+00 -2.7572471395e+00 1.5918973782e+00 2.7572471395e+00 
66500 5.4835262774e+00 -1.4731696347e-05 1.5918973782e+00 -2.7572471395e+00 1.5918973782e+00 2.7572471395e+00 
66600 5.4835262778e+00 -1.4866685458e-05 1.5918973782e+00 -2.7572471395e+00 1.5918973782e+00 2.7572471395e+00 
66700 5.4835262783e+00 -1.5000331686e-05 1.5918973782e+00 -2.7572471395e+00 1.5918973782e+00 2.7572471395e+00 
66800 5.4835262788e+00 -1.5132646866e-05 1.5918973782e+00 -2.7572471395e+00 1.5918973782e+00 2.7572471395e+00 
66900 5.4835262792e+00 -1.5263642769e-05 1.5918973782e+00 -2.7572471395e+00 1.5918973782e+00 2.7572471395e+00 
67000 5.4835262796e+00 -1.5393331099e-05 1.5918973782e+00 -2.7572471395e+00 1.5918973782e+00 2.7572471395e+00 
67100 5.4835262801e+00 -1.5521723492e-05 1.5918973782e+00 -2.7572471395e+00 1.5918973782e+00 2.7572471395e+00 
67200 5.4835262805e+00 -1.5648831517e-05 1.5918973782e+00 -2.7572471395e+00 1.5918973782e+00 2.7572471395e+00 
67300 5.4835262809e+00 -1.5774666678e-05 1.5918973782e+00 -2.7572471395e+00 1.5918973782e+00 2.7572471395e+00 
67400 5.4835262813e+00 -1.5899240411e-05 1.5918973782e+00 -2.7572471395e+00 1.5918973782e+00 2.7572471395e+00 
67500 5.4835262818e+00 -1.6022564086e-05 1.5918973782e+00 -2.7572471395e+00 1.5918973782e+00 2.7572471395e+00 
67600 5.4835262822e+00 -1.6144649005e-05 1.5918973782e+00 -2.7572471395e+00 1.5918973782e+00 2.7572471395e+00 
67700 5.4835262826e+00 -1.6265506407e-05 1.5918973782e+00 -2.7572471395e+00 1.5918973782e+00 2.7572471395e+00 
67800 5.4835262829e+00 -1.6385147459e-05 1.5918973782e+00 -2.7572471395e+00 1.5918973782e+00 2.7572471395e+00 
67900 5.4835262833e+00 -1.6503583267e-05 1.5918973782e+00 -2.7572471395e+00 1.5918973782e+00 2.7572471395e+00 
68000 5.4835262837e+00 -1.6620824865e-05 1.5918973782e+00 -2.7572471395e+00 1.5918973782e+00 2.7572471395e+00 
68100 5.4835262841e+00 -1.6736883223e-05 1.5918973782e+00 -2.7572471395e+00 1.5918973782e+00 2.7572471395e+00 
68200 5.4835262845e+00 -1.6851769242e-05 1.5918973782e+00 -2.7572471395e+00 1.5918973782e+00 2.7572471395e+00 
68300 5.4835262848e+00 -1.6965493758e-05 1.5918973782e+00 -2.7572471395e+00 1.5918973782e+00 2.7572471395e+00 
68400 5.4835262852e+00 -1.7078067539e-05 1.5918973782e+00 -2.7572471395e+00 1.5918973782e+00 2.7572471395e+00 
68500 5.4835262855e+00 -1.7189501284e-05 1.5918973782e+00 -2.7572471395e+00 1.5918973782e+00 2.7572471395e+00 
68600 5.4835262859e+00 -1.7299805628e-05 1.5918973782e+00 -2.7572471395e+00 1.5918973782e+00 2.7572471395e+00 
68700 5.4835262862e+00 -1.7408991134e-05 1.5918973782e+00 -2.7572471395e+00 1.5918973782e+00 2.7572471395e+00 
68800 5.4835262866e+00 -1.7517068302e-05 1.5918973782e+00 -2.7572471395e+00 1.5918973782e+00 2.7572471395e+00 
68900 5.4835262869e+00 -1.7624047559e-05 1.5918973782e+00 -2.7572471395e+00 1.5918973782e+00 2.7572471395e+00 
69000 5.4835262872e+00 -1.7729939269e-05 1.5918973782e+00 -2.7572471395e+00 1.5918973782e+00 2.7572471395e+00 
69100 5.4835262876e+00 -1.7834753724e-05 1.5918973782e+00 -2.7572471395e+00 1.5918973782e+00 2.7572471395e+00 
69200 5.4835262879e+00 -1.7938501150e-05 1.5918973782e+00 -2.7572471395e+00 1.5918973782e+00 2.7572471395e+00 
69300 5.4835262882e+00 -1.8041191702e-05 1.5918973782e+00 -2.7572471395e+00 1.5918973782e+00 2.7572471395e+00 
69400 5.4835262885e+00 -1.8142835469e-05 1.5918973782e+00 -2.7572471395e+00 1.5918973782e+00 2.7572471395e+00 
69500 5.4835262888e+00 -1.8243442471e-05 1.5918973782e+00 -2.7572471395e+00 1.5918973782e+00 2.7572471395e+00 
69600 5.4835262891e+00 -1.8343022656e-05 1.5918973782e+00 -2.7572471395e+00 1.5918973782e+00 2.7572471395e+00 
69700 5.4835262894e+00 -1.8441585906e-05 1.5918973782e+00 -2.7572471395e+00 1.5918973782e+00 2.7572471395e+00 
69800 5.4835262897e+00 -1.8539142034e-05 1.5918973782e+00 -2.7572471395e+00 1.5918973782e+00 2.7572471395e+00 
69900 5.4835262900e+00 -1.8635700781e-05 1.5918973782e+00 -2.7572471395e+00 1.5918973782e+00 2.7572471395e+00 
70000 5.4835262903e+00 -1.8731271823e-05 1.5918973782e+00 -2.7572471395e+00 1.5918973782e+00 2.7572471395e+00 
70100 5.4835262906e+00 -1.8825864761e-05 1.5918973782e+00 -2.7572471395e+00 1.5918973782e+00 2.7572471395e+00 
70200 5.4835262908e+00 -1.8919489129e-05 1.5918973782e+00 -2.7572471395e+00 1.5918973782e+00 2.7572471395e+00 
70300 5.4835262911e+00 -1.9012154391e-05 1.5918973782e+00 -2.7572471395e+00 1.5918973782e+00 2.7572471395e+00 
70400 5.4835262914e+00 -1.9103869942e-05 1.5918973782e+00 -2.7572471395e+00 1.5918973782e+00 2.7572471395e+00 
70500 5.4835262916e+00 -1.9194645104e-05 1.5918973782e+00 -2.7572471395e+00 1.5918973782e+00 2.7572471395e+00 
70600 5.4835262919e+00 -1.9284489135e-05 1.5918973782e+00 -2.7572471395e+00 1.5918973782e+00 2.7572471395e+00 
70700 5.4835262922e+00 -1.9373411216e-05 1.5918973782e+00 -2.7572471395e+00 1.5918973782e+00 2.7572471395e+00 
70800 5.4835262924e+00 -1.9461420460e-05 1.5918973782e+00 -2.7572471395e+00 1.5918973782e+00 2.7572471395e+00 
70900 5.4835262927e+00 -1.9548525913e-05 1.5918973782e+00 -2.7572471395e+00 1.5918973782e+00 2.7572471395e+00 
71000 5.4835262929e+00 -1.9634736546e-05 1.5918973782e+00 -2.7572471395e+00 1.5918973782e+00 2.7572471395e+00 
71100 5.4835262932e+00 -1.9720061263e-05 1.5918973782e+00 -2.7572471395e+00 1.5918973782e+00 2.7572471395e+00 
71200 5.4835262934e+00 -1.9804508896e-05 1.5918973782e+00 -2.7572471395e+00 1.5918973782e+00 2.7572471395e+00 
71300 5.4835262936e+00 -1.9888088207e-05 1.5918973782e+00 -2.7572471395e+00 1.5918973782e+00 2.7572471395e+00 
71400 5.4835262939e+00 -1.9970807889e-05 1.5918973782e+00 -2.7572471395e+00 1.5918973782e+00 2.7572471395e+00 
71500 5.4835262941e+00 -2.0052676562e-05 1.5918973782e+00 -2.7572471395e+00 1.5918973782e+00 2.7572471395e+00 
71600 5.4835262943e+00 -2.0133702776e-05 1.5918973782e+00 -2.7572471395e+00 1.5918973782e+00 2.7572471395e+00 
71700 5.4835262945e+00 -2.0213895015e-05 1.5918973782e+00 -2.7572471395e+00 1.5918973782e+00 2.7572471395e+00 
71800 5.4835262948e+00 -2.0293261686e-05 1.5918973782e+00 -2.7572471395e+00 1.5918973782e+00 2.7572471395e+00 
71900 5.4835262950e+00 -2.0371811131e-05 1.5918973782e+00 -2.7572471395e+00 1.5918973782e+00 2.7572471395e+00 
72000 5.4835262952e+00 -2.0449551622e-05 1.5918973782e+00 -2.7572471395e+00 1.5918973782e+00 2.7572471395e+00 
72100 5.4835262954e+00 -2.0526491356e-05 1.5918973782e+00 -2.7572471395e+00 1.5918973782e+00 2.7572471395e+00 
72200 5.4835262956e+00 -2.0602638466e-05 1.5918973782e+00 -2.7572471395e+00 1.5918973782e+00 2.7572471395e+00 
72300 5.4835262958e+00 -2.0678001012e-05 1.5918973782e+00 -2.7572471395e+00 1.5918973782e+00 2.7572471395e+00 
72400 5.4835262960e+00 -2.0752586985e-05 1.5918973782e+00 -2.7572471395e+00 1.5918973782e+00 2.7572471395e+00 
72500 5.4835262962e+00 -2.0826404307e-05 1.5918973782e+00 -2.7572471395e+00 1.5918973782e+00 2.7572471395e+00 
72600 5.4835262964e+00 -2.0899460829e-05 1.5918973782e+00 -2.7572471395e+00 1.5918973782e+00 2.7572471395e+00 
72700 5.4835262966e+00 -2.0971764335e-05 1.5918973782e+00 -2.7572471395e+00 1.5918973782e+00 2.7572471395e+00 
72800 5.4835262968e+00 -2.1043322542e-05 1.5918973782e+00 -2.7572471395e+00 1.5918973782e+00 2.7572471395e+00 
72900 5.4835262970e+00 -2.1114143089e-05 1.5918973782e+00 -2.7572471395e+00 1.5918973782e+00 2.7572471395e+00 
73000 5.4835262972e+00 -2.1184233557e-05 1.5918973782e+00 -2.7572471395e+00 1.5918973782e+00 2.7572471395e+00 
73100 5.4835262974e+00 -2.1253601453e-05 1.5918973782e+00 -2.7572471395e+00 1.5918973782e+00 2.7572471395e+00 
73200 5.4835262975e+00 -2.1322254217e-05 1.5918973782e+00 -2.7572471395e+00 1.5918973782e+00 2.7572471395e+00 
73300 5.4835262977e+00 -2.1390199222e-05 1.5918973782e+00 -2.7572471395e+00 1.5918973782e+00 2.7572471395e+00 
73400 5.4835262979e+00 -2.1457443773e-05 1.5918973782e+00 -2.7572471395e+00 1.5918973782e+00 2.7572471395e+00 
73500 5.4835262981e+00 -2.1523995106e-05 1.5918973782e+00 -2.7572471395e+00 1.5918973782e+00 2.7572471395e+00 
73600 5.4835262982e+00 -2.1589860391e-05 1.5918973782e+00 -2.7572471395e+00 1.5918973782e+00 2.7572471395e+00 
73700 5.4835262984e+00 -2.1655046733e-05 1.5918973782e+00 -2.7572471395e+00 1.5918973782e+00 2.7572471395e+00 
73800 5.4835262986e+00 -2.1719561166e-05 1.5918973782e+00 -2.7572471395e+00 1.5918973782e+00 2.7572471395e+00 
73900 5.4835262987e+00 -2.1783410661e-05 1.5918973782e+00 -2.7572471395e+00 1.5918973782e+00 2.7572471395e+00 
74000 5.4835262989e+00 -2.1846602123e-05 1.5918973782e+00 -2.7572471395e+00 1.5918973782e+00 2.7572471395e+00 
74100 5.4835262991e+00 -2.1909142392e-05 1.5918973782e+00 -2.7572471395e+00 1.5918973782e+00 2.7572471395e+00 
74200 5.4835262992e+00 -2.1971038239e-05 1.5918973782e+00 -2.7572471395e+00 1.5918973782e+00 2.7572471395e+00 
74300 5.4835262994e+00 -2.2032296376e-05 1.5918973782e+00 -2.7572471395e+00 1.5918973782e+00 2.7572471395e+00 
74400 5.4835262995e+00 -2.2092923443e-05 1.5918973782e+00 -2.7572471395e+00 1.5918973782e+00 2.7572471395e+00 
74500 5.4835262997e+00 -2.2152926022e-05 1.5918973782e+00 -2.7572471395e+00 1.5918973782e+00 2.7572471395e+00 
74600 5.4835262998e+00 -2.2212310628e-05 1.5918973782e+00 -2.7572471395e+00 1.5918973782e+00 2.7572471395e+00 
74700 5.4835263000e+00 -2.2271083714e-05 1.5918973782e+00 -2.7572471395e+00 1.5918973782e+00 2.7572471395e+00 
74800 5.4835263001e+00 -2.2329251670e-05 1.5918973782e+00 -2.7572471395e+00 1.5918973782e+00 2.7572471395e+00 
74900 5.4835263003e+00 -2.2386820822e-05 1.5918973782e+00 -2.7572471395e+00 1.5918973782e+00 2.7572471395e+00 
75000 5.4835263004e+00 -2.2443797435e-05 1.5918973782e+00 -2.7572471395e+00 1.5918973782e+00 2.7572471395e+00 
75100 5.4835263005e+00 -2.2500187711e-05 1.5918973782e+00 -2.7572471395e+00 1.5918973782e+00 2.7572471395e+00 
75200 5.4835263007e+00 -2.2555997790e-05 1.5918973782e+00 -2.7572471395e+00 1.5918973782e+00 2.7572471395e+00 
75300 5.4835263008e+00 -2.2611233752e-05 1.5918973782e+00 -2.7572471395e+00 1.5918973782e+00 2.7572471395e+00 
75400 5.4835263010e+00 -2.2665901617e-05 1.5918973782e+00 -2.7572471395e+00 1.5918973782e+00 2.7572471395e+00 
75500 5.4835263011e+00 -2.2720007343e-05 1.5918973782e+00 -2.7572471395e+00 1.5918973782e+00 2.7572471395e+00 
75600 5.4835263012e+00 -2.2773556829e-05 1.5918973782e+00 -2.7572471395e+00 1.5918973782e+00 2.7572471395e+00 
75700 5.4835263013e+00 -2.2826555916e-05 1.5918973782e+00 -2.7572471395e+00 1.5918973782e+00 2.7572471395e+00 
75800 5.4835263015e+00 -2.2879010384e-05 1.5918973782e+00 -2.7572471395e+00 1.5918973782e+00 2.7572471395e+00 
75900 5.4835263016e+00 -2.2930925956e-05 1.5918973782e+00 -2.7572471395e+00 1.5918973782e+00 2.7572471395e+00 
76000 5.4835263017e+00 -2.2982308296e-05 1.5918973782e+00 -2.7572471395e+00 1.5918973782e+00 2.7572471395e+00 
76100 5.4835263018e+00 -2.3033163010e-05 1.5918973782e+00 -2.7572471395e+00 1.5918973782e+00 2.7572471395e+00 
76200 5.4835263020e+00 -2.3083495647e-05 1.5918973782e+00 -2.7572471395e+00 1.5918973782e+00 2.7572471395e+00 
76300 5.4835263021e+00 -2.3133311702e-05 1.5918973782e+00 -2.7572471395e+00 1.5918973782e+00 2.7572471395e+00 
76400 5.4835263022e+00 -2.3182616610e-05 1.5918973782e+00 -2.7572471395e+00 1.5918973782e+00 2.7572471395e+00 
76500 5.4835263023e+00 -2.3231415754e-05 1.5918973782e+00 -2.7572471395e+00 1.5918973782e+00 2.7572471395e+00 
76600 5.4835263024e+00 -2.3279714458e-05 1.5918973782e+00 -2.7572471395e+00 1.5918973782e+00 2.7572471395e+00 
76700 5.4835263025e+00 -2.3327517994e-05 1.5918973782e+00 -2.7572471395e+00 1.5918973782e+00 2.7572471395e+00 
76800 5.4835263026e+00 -2.3374831577e-05 1.5918973782e+00 -2.7572471395e+00 1.5918973782e+00 2.7572471395e+00 
76900 5.4835263027e+00 -2.3421660371e-05 1.5918973782e+00 -2.7572471395e+00 1.5918973782e+00 2.7572471395e+00 
77000 5.4835263029e+00 -2.3468009484e-05 1.5918973782e+00 -2.7572471395e+00 1.5918973782e+00 2.7572471395e+00 
77100 5.4835263030e+00 -2.3513883974e-05 1.5918973782e+00 -2.7572471395e+00 1.5918973782e+00 2.7572471395e+00 
77200 5.4835263031e+00 -2.3559288844e-05 1.5918973782e+00 -2.7572471395e+00 1.5918973782e+00 2.7572471395e+00 
77300 5.4835263032e+00 -2.3604229046e-05 1.5918973782e+00 -2.7572471395e+00 1.5918973782e+00 2.7572471395e+00 
77400 5.4835263033e+00 -2.3648709482e-05 1.5918973782e+00 -2.7572471395e+00 1.5918973782e+00 2.7572471395e+00 
77500 5.4835263034e+00 -2.3692734998e-05 1.5918973782e+00 -2.7572471395e+00 1.5918973782e+00 2.7572471395e+00 
77600 5.4835263035e+00 -2.3736310396e-05 1.5918973782e+00 -2.7572471395e+00 1.5918973782e+00 2.7572471395e+00 
77700 5.4835263036e+00 -2.3779440422e-05 1.5918973782e+00 -2.7572471395e+00 1.5918973782e+00 2.7572471395e+00 
77800 5.4835263037e+00 -2.3822129777e-05 1.5918973782e+00 -2.7572471395e+00 1.5918973782e+00 2.7572471395e+00 
77900 5.4835263038e+00 -2.3864383112e-05 1.5918973782e+00 -2.7572471395e+00 1.5918973782e+00 2.7572471395e+00 
78000 5.4835263038e+00 -2.3906205024e-05 1.5918973782e+00 -2.7572471395e+00 1.5918973782e+00 2.7572471395e+00 
78100 5.4835263039e+00 -2.3947600071e-05 1.5918973782e+00 -2.7572471395e+00 1.5918973782e+00 2.7572471395e+00 
78200 5.4835263040e+00 -2.3988572755e-05 1.5918973782e+00 -2.7572471395e+00 1.5918973782e+00 2.7572471395e+00 
78300 5.4835263041e+00 -2.4029127534e-05 1.5918973782e+00 -2.7572471395e+00 1.5918973782e+00 2.7572471395e+00 
78400 5.4835263042e+00 -2.4069268821e-05 1.5918973782e+00 -2.7572471395e+00 1.5918973782e+00 2.7572471395e+00 
78500 5.4835263043e+00 -2.4109000980e-05 1.5918973782e+00 -2.7572471395e+00 1.5918973782e+00 2.7572471395e+00 
78600 5.4835263044e+00 -2.4148328329e-05 1.5918973782e+00 -2.7572471395e+00 1.5918973782e+00 2.7572471395e+00 
78700 5.4835263045e+00 -2.4187255142e-05 1.5918973782e+00 -2.7572471395e+00 1.5918973782e+00 2.7572471395e+00 
78800 5.4835263045e+00 -2.4225785648e-05 1.5918973782e+00 -2.7572471395e+00 1.5918973782e+00 2.7572471395e+00 
78900 5.4835263046e+00 -2.4263924030e-05 1.5918973782e+00 -2.7572471395e+00 1.5918973782e+00 2.7572471395e+00 
79000 5.4835263047e+00 -2.4301674428e-05 1.5918973782e+00 -2.7572471395e+00 1.5918973782e+00 2.7572471395e+00 
79100 5.4835263048e+00 -2.4339040940e-05 1.5918973782e+00 -2.7572471395e+00 1.5918973782e+00 2.7572471395e+00 
79200 5.4835263049e+00 -2.4376027616e-05 1.5918973782e+00 -2.7572471395e+00 1.5918973782e+00 2.7572471395e+00 
79300 5.4835263049e+00 -2.4412638466e-05 1.5918973782e+00 -2.7572471395e+00 1.5918973782e+00 2.7572471395e+00 
79400 5.4835263050e+00 -2.4448877461e-05 1.5918973782e+00 -2.7572471395e+00 1.5918973782e+00 2.7572471395e+00 
79500 5.4835263051e+00 -2.4484748524e-05 1.5918973782e+00 -2.7572471395e+00 1.5918973782e+00 2.7572471395e+00 
79600 5.4835263052e+00 -2.4520255541e-05 1.5918973782e+00 -2.7572471395e+00 1.5918973782e+00 2.7572471395e+00 
79700 5.4835263053e+00 -2.4555402354e-05 1.5918973782e+00 -2.7572471395e+00 1.5918973782e+00 2.7572471395e+00 
79800 5.4835263053e+00 -2.4590192765e-05 1.5918973782e+00 -2.7572471395e+00 1.5918973782e+00 2.7572471395e+00 
79900 5.4835263054e+00 -2.4624630539e-05 1.5918973782e+00 -2.7572471395e+00 1.5918973782e+00 2.7572471395e+00 
80000 5.4835263055e+00 -2.4658719397e-05 1.5918973782e+00 -2.7572471395e+00 1.5918973782e+00 2.7572471395e+00 
80100 5.4835263055e+00 -2.4692463021e-05 1.5918973782e+00 -2.7572471395e+00 1.5918973782e+00 2.7572471395e+00 
80200 5.4835263056e+00 -2.4725865058e-05 1.5918973782e+00 -2.7572471395e+00 1.5918973782e+00 2.7572471395e+00 
80300 5.4835263057e+00 -2.4758929112e-05 1.5918973782e+00 -2.7572471395e+00 1.5918973782e+00 2.7572471395e+00 
80400 5.4835263057e+00 -2.4791658751e-05 1.5918973782e+00 -2.7572471395e+00 1.5918973782e+00 2.7572471395e+00 
80500 5.4835263058e+00 -2.4824057504e-05 1.5918973782e+00 -2.7572471395e+00 1.5918973782e+00 2.7572471395e+00 
80600 5.4835263059e+00 -2.4856128867e-05 1.5918973782e+00 -2.7572471395e+00 1.5918973782e+00 2.7572471395e+00 
80700 5.4835263059e+00 -2.4887876291e-05 1.5918973782e+00 -2.7572471395e+00 1.5918973782e+00 2.7572471395e+00 
80800 5.4835263060e+00 -2.4919303197e-05 1.5918973782e+00 -2.7572471395e+00 1.5918973782e+00 2.7572471395e+00 
80900 5.4835263061e+00 -2.4950412967e-05 1.5918973782e+00 -2.7572471395e+00 1.5918973782e+00 2.7572471395e+00 
81000 5.4835263061e+00 -2.4981208948e-05 1.5918973782e+00 -2.7572471395e+00 1.5918973782e+00 2.7572471395e+00 
81100 5.4835263062e+00 -2.5011694450e-05 1.5918973782e+00 -2.7572471395e+00 1.5918973782e+00 2.7572471395e+00 
81200 5.4835263063e+00 -2.5041872751e-05 1.5918973782e+00 -2.7572471395e+00 1.5918973782e+00 2.7572471395e+00 
81300 5.4835263063e+00 -2.5071747093e-05 1.5918973782e+00 -2.7572471395e+00 1.5918973782e+00 2.7572471395e+00 
81400 5.4835263064e+00 -2.5101320680e-05 1.5918973782e+00 -2.7572471395e+00 1.5918973782e+00 2.7572471395e+00 
81500 5.4835263064e+00 -2.5130596690e-05 1.5918973782e+00 -2.7572471395e+00 1.5918973782e+00 2.7572471395e+00 
81600 5.4835263065e+00 -2.5159578258e-05 1.5918973782e+00 -2.7572471395e+00 1.5918973782e+00 2.7572471395e+00 
81700 5.4835263065e+00 -2.5188268492e-05 1.5918973782e+00 -2.7572471395e+00 1.5918973782e+00 2.7572471395e+00 
81800 5.4835263066e+00 -2.5216670466e-05 1.5918973782e+00 -2.7572471395e+00 1.5918973782e+00 2.7572471395e+00 
81900 5.4835263067e+00 -2.5244787222e-05 1.5918973782e+00 -2.7572471395e+00 1.5918973782e+00 2.7572471395e+00 
82000 5.4835263067e+00 -2.5272621766e-05 1.5918973782e+00 -2.7572471395e+00 1.5918973782e+00 2.7572471395e+00 
82100 5.4835263068e+00 -2.5300177074e-05 1.5918973782e+00 -2.7572471395e+00 1.5918973782e+00 2.7572471395e+00 
82200 5.4835263068e+00 -2.5327456093e-05 1.5918973782e+00 -2.7572471395e+00 1.5918973782e+00 2.7572471395e+00 
82300 5.4835263069e+00 -2.5354461736e-05 1.5918973782e+00 -2.7572471395e+00 1.5918973782e+00 2.7572471395e+00 
82400 5.4835263069e+00 -2.5381196885e-05 1.5918973782e+00 -2.7572471395e+00 1.5918973782e+00 2.7572471395e+00 
82500 5.4835263070e+00 -2.5407664393e-05 1.5918973782e+00 -2.7572471395e+00 1.5918973782e+00 2.7572471395e+00 
82600 5.4835263070e+00 -2.5433867083e-05 1.5918973782e+00 -2.7572471395e+00 1.5918973782e+00 2.7572471395e+00 
82700 5.4835263071e+00 -2.5459807744e-05 1.5918973782e+00 -2.7572471395e+00 1.5918973782e+00 2.7572471395e+00 
82800 5.4835263071e+00 -2.5485489142e-05 1.5918973782e+00 -2.7572471395e+00 1.5918973782e+00 2.7572471395e+00 
82900 5.4835263071e+00 -2.5487532536e-05 1.5918973782e+00 -2.7572471395e+00 1.5918973782e+00 2.7572471395e+00 
82900 5.4835263071e+00 -2.5487532536e-05 1.5918973782e+00 -2.7572471395e+00 1.5918973782e+00 2.7572471395e+00 
