# step Hamiltonian StressXX CellTensor1 CellTensor2 CellTensor3 CellTensor4 
0 5.1770158262e+00 -1.6342226319e-01 1.7865676565e+00 -3.0944259522e+00 1.7865676565e+00 3.0944259522e+00 
100 5.1798111269e+00 -1.5825382400e-01 1.7865676565e+00 -3.0944259522e+00 1.7865676565e+00 3.0944259522e+00 
200 5.1816024361e+00 -1.5187150137e-01 1.7909984724e+00 -3.1021003505e+00 1.7909984724e+00 3.1021003505e+00 
300 5.1834466078e+00 -1.4632473073e-01 1.7952399970e+00 -3.1094468866e+00 1.7952399970e+00 3.1094468866e+00 
400 5.1854562016e+00 -1.4141709985e-01 1.7993168883e+00 -3.1165082695e+00 1.7993168883e+00 3.1165082695e+00 
500 5.1876864715e+00 -1.3701209645e-01 1.8032480598e+00 -3.1233172582e+00 1.8032480598e+00 3.1233172582e+00 
600 5.1901533398e+00 -1.3301342363e-01 1.8070484272e+00 -3.1298996877e+00 1.8070484272e+00 3.1298996877e+00 
700 5.1928455656e+00 -1.2935240634e-01 1.8107300796e+00 -3.1362764967e+00 1.8107300796e+00 3.1362764967e+00 
800 5.1957333103e+00 -1.2597967541e-01 1.8143030818e+00 -3.1424651179e+00 1.8143030818e+00 3.1424651179e+00 
900 5.1987743800e+00 -1.2285951263e-01 1.8177760345e+00 -3.1484804486e+00 1.8177760345e+00 3.1484804486e+00 
1000 5.2019189145e+00 -1.1996590171e-01 1.8211564705e+00 -3.1543355354e+00 1.8211564705e+00 3.1543355354e+00 
1100 5.2051129893e+00 -1.1727970543e-01 1.8244511351e+00 -3.1600420620e+00 1.8244511351e+00 3.1600420620e+00 
1200 5.2083014250e+00 -1.1478660908e-01 1.8276661864e+00 -3.1656106942e+00 1.8276661864e+00 3.1656106942e+00 
1300 5.2114299912e+00 -1.1247560071e-01 1.8308073351e+00 -3.1710513232e+00 1.8308073351e+00 3.1710513232e+00 
1400 5.2144471281e+00 -1.1033783901e-01 1.8338799413e+00 -3.1763732333e+00 1.8338799413e+00 3.1763732333e+00 
1500 5.2173052704e+00 -1.0836580865e-01 1.8368890793e+00 -3.1815852132e+00 1.8368890793e+00 3.1815852132e+00 
1600 5.2199618352e+00 -1.0655269418e-01 1.8398395777e+00 -3.1866956263e+00 1.8398395777e+00 3.1866956263e+00 
1700 5.2223799199e+00 -1.0489192355e-01 1.8427360422e+00 -3.1917124500e+00 1.8427360422e+00 3.1917124500e+00 
1800 5.2245287488e+00 -1.0337684508e-01 1.8455828656e+00 -3.1966432928e+00 1.8455828656e+00 3.1966432928e+00 
1900 5.2263839010e+00 -1.0200051047e-01 1.8483842286e+00 -3.2014953959e+00 1.8483842286e+00 3.2014953959e+00 
2000 5.2279273511e+00 -1.0075554227e-01 1.8511440944e+00 -3.2062756237e+00 1.8511440944e+00 3.2062756237e+00 
2100 5.2291473477e+00 -9.9634068109e-02 1.8538662000e+00 -3.2109904489e+00 1.8538662000e+00 3.2109904489e+00 
2200 5.2300381600e+00 -9.8627707453e-02 1.8565540451e+00 -3.2156459331e+00 1.8565540451e+00 3.2156459331e+00 
2300 5.2305997132e+00 -9.7727598456e-02 1.8592108811e+00 -3.2202477080e+00 1.8592108811e+00 3.2202477080e+00 
2400 5.2308371400e+00 -9.6924454791e-02 1.8618397004e+00 -3.2248009567e+00 1.8618397004e+00 3.2248009567e+00 
2500 5.2307602674e+00 -9.6208643655e-02 1.8644432277e+00 -3.2293103982e+00 1.8644432277e+00 3.2293103982e+00 
2600 5.2303830600e+00 -9.5570277641e-02 1.8670239124e+00 -3.2337802752e+00 1.8670239124e+00 3.2337802752e+00 
2700 5.2297230377e+00 -9.4999314370e-02 1.8695839247e+00 -3.2382143466e+00 1.8695839247e+00 3.2382143466e+00 
2800 5.2288006846e+00 -9.4485658881e-02 1.8721251532e+00 -3.2426158836e+00 1.8721251532e+00 3.2426158836e+00 
2900 5.2276388609e+00 -9.4019264787e-02 1.8746492061e+00 -3.2469876713e+00 1.8746492061e+00 3.2469876713e+00 
3000 5.2262622329e+00 -9.3590231073e-02 1.8771574140e+00 -3.2513320148e+00 1.8771574140e+00 3.2513320148e+00 
3100 5.2246967276e+00 -9.3188892230e-02 1.8796508361e+00 -3.2556507487e+00 1.8796508361e+00 3.2556507487e+00 
3200 5.2229690218e+00 -9.2805900086e-02 1.8821302687e+00 -3.2599452518e+00 1.8821302687e+00 3.2599452518e+00 
3300 5.2211060700e+00 -9.2432296285e-02 1.8845962546e+00 -3.2642164647e+00 1.8845962546e+00 3.2642164647e+00 
3400 5.2191346773e+00 -9.2059574865e-02 1.8870490960e+00 -3.2684649107e+00 1.8870490960e+00 3.2684649107e+00 
3500 5.2170811168e+00 -9.1679734782e-02 1.8894888678e+00 -3.2726907194e+00 1.8894888678e+00 3.2726907194e+00 
3600 5.2149707963e+00 -9.1285322533e-02 1.8919154322e+00 -3.2768936522e+00 1.8919154322e+00 3.2768936522e+00 
3700 5.2128279712e+00 -9.0869465305e-02 1.8943284549e+00 -3.2810731302e+00 1.8943284549e+00 3.2810731302e+00 
3800 5.2106755049e+00 -9.0425895197e-02 1.8967274216e+00 -3.2852282623e+00 1.8967274216e+00 3.2852282623e+00 
3900 5.2085346746e+00 -8.9948965241e-02 1.8991116549e+00 -3.2893578755e+00 1.8991116549e+00 3.2893578755e+00 
4000 5.2064250190e+00 -8.9433657962e-02 1.9014803317e+00 -3.2934605441e+00 1.9014803317e+00 3.2934605441e+00 
4100 5.2043642279e+00 -8.8875587268e-02 1.9038325009e+00 -3.2975346207e+00 1.9038325009e+00 3.2975346207e+00 
4200 5.2023680670e+00 -8.8270994467e-02 1.9061671004e+00 -3.3015782656e+00 1.9061671004e+00 3.3015782656e+00 
4300 5.2004503388e+00 -8.7616739150e-02 1.9084829740e+00 -3.3055894764e+00 1.9084829740e+00 3.3055894764e+00 
4400 5.1986228727e+00 -8.6910285657e-02 1.9107788887e+00 -3.3095661173e+00 1.9107788887e+00 3.3095661173e+00 
4500 5.1968955434e+00 -8.6149685773e-02 1.9130535502e+00 -3.3135059466e+00 1.9130535502e+00 3.3135059466e+00 
4600 5.1952763130e+00 -8.5333558243e-02 1.9153056191e+00 -3.3174066443e+00 1.9153056191e+00 3.3174066443e+00 
4700 5.1937712940e+00 -8.4461065617e-02 1.9175337251e+00 -3.3212658371e+00 1.9175337251e+00 3.3212658371e+00 
4800 5.1923848306e+00 -8.3531888875e-02 1.9197364821e+00 -3.3250811241e+00 1.9197364821e+00 3.3250811241e+00 
4900 5.1911195945e+00 -8.2546200229e-02 1.9219125007e+00 -3.3288500990e+00 1.9219125007e+00 3.3288500990e+00 
5000 5.1899766928e+00 -8.1504634407e-02 1.9240604017e+00 -3.3325703727e+00 1.9240604017e+00 3.3325703727e+00 
5100 5.1889557861e+00 -8.0408258714e-02 1.9261788272e+00 -3.3362395932e+00 1.9261788272e+00 3.3362395932e+00 
5200 5.1880552131e+00 -7.9258542090e-02 1.9282664518e+00 -3.3398554650e+00 1.9282664518e+00 3.3398554650e+00 
5300 5.1872721212e+00 -7.8057323360e-02 1.9303219926e+00 -3.3434157661e+00 1.9303219926e+00 3.3434157661e+00 
5400 5.1866025991e+00 -7.6806778854e-02 1.9323442183e+00 -3.3469183638e+00 1.9323442183e+00 3.3469183638e+00 
5500 5.1860418118e+00 -7.5509389530e-02 1.9343319576e+00 -3.3503612293e+00 1.9343319576e+00 3.3503612293e+00 
5600 5.1855841342e+00 -7.4167907763e-02 1.9362841064e+00 -3.3537424501e+00 1.9362841064e+00 3.3537424501e+00 
5700 5.1852232838e+00 -7.2785323921e-02 1.9381996342e+00 -3.3570602417e+00 1.9381996342e+00 3.3570602417e+00 
5800 5.1849524489e+00 -7.1364832883e-02 1.9400775900e+00 -3.3603129565e+00 1.9400775900e+00 3.3603129565e+00 
5900 5.1847644138e+00 -6.9909800653e-02 1.9419171066e+00 -3.3634990927e+00 1.9419171066e+00 3.3634990927e+00 
6000 5.1846516772e+00 -6.8423731231e-02 1.9437174046e+00 -3.3666173004e+00 1.9437174046e+00 3.3666173004e+00 
6100 5.1846065651e+00 -6.6910233943e-02 1.9454777955e+00 -3.3696663869e+00 1.9454777955e+00 3.3696663869e+00 
6200 5.1846213361e+00 -6.5372991416e-02 1.9471976836e+00 -3.3726453204e+00 1.9471976836e+00 3.3726453204e+00 
6300 5.1846882783e+00 -6.3815728433e-02 1.9488765675e+00 -3.3755532326e+00 1.9488765675e+00 3.3755532326e+00 
6400 5.1847997988e+00 -6.2242181898e-02 1.9505140405e+00 -3.3783894191e+00 1.9505140405e+00 3.3783894191e+00 
6500 5.1849485036e+00 -6.0656072141e-02 1.9521097907e+00 -3.3811533394e+00 1.9521097907e+00 3.3811533394e+00 
6600 5.1851272679e+00 -5.9061075836e-02 1.9536635996e+00 -3.3838446154e+00 1.9536635996e+00 3.3838446154e+00 
6700 5.1853292983e+00 -5.7460800748e-02 1.9551753411e+00 -3.3864630284e+00 1.9551753411e+00 3.3864630284e+00 
6800 5.1855481844e+00 -5.5858762541e-02 1.9566449789e+00 -3.3890085158e+00 1.9566449789e+00 3.3890085158e+00 
6900 5.1857779415e+00 -5.4258363873e-02 1.9580725641e+00 -3.3914811659e+00 1.9580725641e+00 3.3914811659e+00 
7000 5.1860130441e+00 -5.2662875933e-02 1.9594582318e+00 -3.3938812128e+00 1.9594582318e+00 3.3938812128e+00 
7100 5.1862484508e+00 -5.1075422561e-02 1.9608021975e+00 -3.3962090296e+00 1.9608021975e+00 3.3962090296e+00 
7200 5.1864796203e+00 -4.9498967069e-02 1.9621047529e+00 -3.3984651219e+00 1.9621047529e+00 3.3984651219e+00 
7300 5.1867025196e+00 -4.7936301782e-02 1.9633662622e+00 -3.4006501200e+00 1.9633662622e+00 3.4006501200e+00 
7400 5.1869136249e+00 -4.6390040300e-02 1.9645871569e+00 -3.4027647716e+00 1.9645871569e+00 3.4027647716e+00 
7500 5.1871099156e+00 -4.4862612434e-02 1.9657679312e+00 -3.4048099328e+00 1.9657679312e+00 3.4048099328e+00 
7600 5.1872888626e+00 -4.3356261688e-02 1.9669091379e+00 -3.4067865608e+00 1.9669091379e+00 3.4067865608e+00 
7700 5.1874484111e+00 -4.1873045127e-02 1.9680113828e+00 -3.4086957048e+00 1.9680113828e+00 3.4086957048e+00 
7800 5.1875869586e+00 -4.0414835435e-02 1.9690753201e+00 -3.4105384983e+00 1.9690753201e+00 3.4105384983e+00 
7900 5.1877033298e+00 -3.8983324921e-02 1.9701016481e+00 -3.4123161506e+00 1.9701016481e+00 3.4123161506e+00 
8000 5.1877967481e+00 -3.7580031193e-02 1.9710911043e+00 -3.4140299391e+00 1.9710911043e+00 3.4140299391e+00 
8100 5.1878668048e+00 -3.6206304228e-02 1.9720444611e+00 -3.4156812013e+00 1.9720444611e+00 3.4156812013e+00 
8200 5.1879134273e+00 -3.4863334545e-02 1.9729625213e+00 -3.4172713283e+00 1.9729625213e+00 3.4172713283e+00 
8300 5.1879368453e+00 -3.3552162174e-02 1.9738461147e+00 -3.4188017571e+00 1.9738461147e+00 3.4188017571e+00 
8400 5.1879375582e+00 -3.2273686153e-02 1.9746960941e+00 -3.4202739645e+00 1.9746960941e+00 3.4202739645e+00 
8500 5.1879163011e+00 -3.1028674283e-02 1.9755133315e+00 -3.4216894612e+00 1.9755133315e+00 3.4216894612e+00 
8600 5.1878740130e+00 -2.9817772908e-02 1.9762987155e+00 -3.4230497861e+00 1.9762987155e+00 3.4230497861e+00 
8700 5.1878118046e+00 -2.8641516496e-02 1.9770531477e+00 -3.4243565011e+00 1.9770531477e+00 3.4243565011e+00 
8800 5.1877309283e+00 -2.7500336864e-02 1.9777775406e+00 -3.4256111864e+00 1.9777775406e+00 3.4256111864e+00 
8900 5.1876327502e+00 -2.6394571888e-02 1.9784728146e+00 -3.4268154363e+00 1.9784728146e+00 3.4268154363e+00 
9000 5.1875187222e+00 -2.5324473603e-02 1.9791398962e+00 -3.4279708555e+00 1.9791398962e+00 3.4279708555e+00 
9100 5.1873903581e+00 -2.4290215612e-02 1.9797797155e+00 -3.4290790550e+00 1.9797797155e+00 3.4290790550e+00 
9200 5.1872492102e+00 -2.3291899763e-02 1.9803932047e+00 -3.4301416495e+00 1.9803932047e+00 3.4301416495e+00 
9300 5.1870968486e+00 -2.2329562088e-02 1.9809812963e+00 -3.4311602540e+00 1.9809812963e+00 3.4311602540e+00 
9400 5.1869348419e+00 -2.1403178002e-02 1.9815449215e+00 -3.4321364815e+00 1.9815449215e+00 3.4321364815e+00 
9500 5.1867647411e+00 -2.0512666802e-02 1.9820850089e+00 -3.4330719404e+00 1.9820850089e+00 3.4330719404e+00 
9600 5.1865880638e+00 -1.9657895515e-02 1.9826024832e+00 -3.4339682321e+00 1.9826024832e+00 3.4339682321e+00 
9700 5.1864062818e+00 -1.8838682142e-02 1.9830982637e+00 -3.4348269492e+00 1.9830982637e+00 3.4348269492e+00 
9800 5.1862208094e+00 -1.8054798390e-02 1.9835732637e+00 -3.4356496733e+00 1.9835732637e+00 3.4356496733e+00 
9900 5.1860329937e+00 -1.7305971928e-02 1.9840283891e+00 -3.4364379735e+00 1.9840283891e+00 3.4364379735e+00 
10000 5.1858441070e+00 -1.6591888282e-02 1.9844645372e+00 -3.4371934043e+00 1.9844645372e+00 3.4371934043e+00 
10100 5.1856553397e+00 -1.5912192408e-02 1.9848825963e+00 -3.4379175039e+00 1.9848825963e+00 3.4379175039e+00 
10200 5.1854677955e+00 -1.5266490030e-02 1.9852834444e+00 -3.4386117932e+00 1.9852834444e+00 3.4386117932e+00 
10300 5.1852824874e+00 -1.4654348806e-02 1.9856679483e+00 -3.4392777734e+00 1.9856679483e+00 3.4392777734e+00 
10400 5.1851003350e+00 -1.4075299373e-02 1.9860369627e+00 -3.4399169251e+00 1.9860369627e+00 3.4399169251e+00 
10500 5.1849221630e+00 -1.3528836331e-02 1.9863913297e+00 -3.4405307067e+00 1.9863913297e+00 3.4405307067e+00 
10600 5.1847487004e+00 -1.3014419206e-02 1.9867318775e+00 -3.4411205528e+00 1.9867318775e+00 3.4411205528e+00 
10700 5.1845805810e+00 -1.2531473424e-02 1.9870594198e+00 -3.4416878728e+00 1.9870594198e+00 3.4416878728e+00 
10800 5.1844183450e+00 -1.2079391344e-02 1.9873747552e+00 -3.4422340498e+00 1.9873747552e+00 3.4422340498e+00 
10900 5.1842624401e+00 -1.1657533344e-02 1.9876786662e+00 -3.4427604390e+00 1.9876786662e+00 3.4427604390e+00 
11000 5.1841132252e+00 -1.1265229011e-02 1.9879719183e+00 -3.4432683666e+00 1.9879719183e+00 3.4432683666e+00 
11100 5.1839709728e+00 -1.0901778411e-02 1.9882552598e+00 -3.4437591283e+00 1.9882552598e+00 3.4437591283e+00 
11200 5.1838358735e+00 -1.0566453475e-02 1.9885294205e+00 -3.4442339886e+00 1.9885294205e+00 3.4442339886e+00 
11300 5.1837080401e+00 -1.0258499486e-02 1.9887951115e+00 -3.4446941790e+00 1.9887951115e+00 3.4446941790e+00 
11400 5.1835875125e+00 -9.9771366670e-03 1.9890530245e+00 -3.4451408973e+00 1.9890530245e+00 3.4451408973e+00 
11500 5.1834742624e+00 -9.7215618723e-03 1.9893038309e+00 -3.4455753068e+00 1.9893038309e+00 3.4455753068e+00 
11600 5.1833681992e+00 -9.4909503673e-03 1.9895481817e+00 -3.4459985349e+00 1.9895481817e+00 3.4459985349e+00 
11700 5.1832691754e+00 -9.2844576924e-03 1.9897867068e+00 -3.4464116723e+00 1.9897867068e+00 3.4464116723e+00 
11800 5.1831769922e+00 -9.1012215991e-03 1.9900200141e+00 -3.4468157726e+00 1.9900200141e+00 3.4468157726e+00 
11900 5.1830914057e+00 -8.9403640483e-03 1.9902486901e+00 -3.4472118510e+00 1.9902486901e+00 3.4472118510e+00 
12000 5.1830121324e+00 -8.8009932593e-03 1.9904732986e+00 -3.4476008842e+00 1.9904732986e+00 3.4476008842e+00 
12100 5.1829388553e+00 -8.6822057976e-03 1.9906943806e+00 -3.4479838095e+00 1.9906943806e+00 3.4479838095e+00 
12200 5.1828712295e+00 -8.5830886902e-03 1.9909124543e+00 -3.4483615243e+00 1.9909124543e+00 3.4483615243e+00 
12300 5.1828088881e+00 -8.5027215579e-03 1.9911280149e+00 -3.4487348861e+00 1.9911280149e+00 3.4487348861e+00 
12400 5.1827514473e+00 -8.4401787528e-03 1.9913415339e+00 -3.4491047119e+00 1.9913415339e+00 3.4491047119e+00 
12500 5.1826985121e+00 -8.3945314920e-03 1.9915534596e+00 -3.4494717779e+00 1.9915534596e+00 3.4494717779e+00 
12600 5.1826496807e+00 -8.3648499770e-03 1.9917642166e+00 -3.4498368199e+00 1.9917642166e+00 3.4498368199e+00 
12700 5.1826045496e+00 -8.3502054906e-03 1.9919742063e+00 -3.4502005326e+00 1.9919742063e+00 3.4502005326e+00 
12800 5.1825627179e+00 -8.3496724614e-03 1.9921838062e+00 -3.4505635703e+00 1.9921838062e+00 3.4505635703e+00 
12900 5.1825237912e+00 -8.3623304909e-03 1.9923933706e+00 -3.4509265466e+00 1.9923933706e+00 3.4509265466e+00 
13000 5.1824873852e+00 -8.3872663328e-03 1.9926032307e+00 -3.4512900349e+00 1.9926032307e+00 3.4512900349e+00 
13100 5.1824531291e+00 -8.4235758201e-03 1.9928136945e+00 -3.4516545688e+00 1.9928136945e+00 3.4516545688e+00 
13200 5.1824206684e+00 -8.4703657332e-03 1.9930250470e+00 -3.4520206422e+00 1.9930250470e+00 3.4520206422e+00 
13300 5.1823896670e+00 -8.5267556030e-03 1.9932375510e+00 -3.4523887099e+00 1.9932375510e+00 3.4523887099e+00 
13400 5.1823598101e+00 -8.5918794447e-03 1.9934514469e+00 -3.4527591885e+00 1.9934514469e+00 3.4527591885e+00 
13500 5.1823308050e+00 -8.6648874164e-03 1.9936669534e+00 -3.4531324567e+00 1.9936669534e+00 3.4531324567e+00 
13600 5.1823023828e+00 -8.7449473997e-03 1.9938842677e+00 -3.4535088560e+00 1.9938842677e+00 3.4535088560e+00 
13700 5.1822742994e+00 -8.8312464963e-03 1.9941035659e+00 -3.4538886918e+00 1.9941035659e+00 3.4538886918e+00 
13800 5.1822463357e+00 -8.9229924391e-03 1.9943250040e+00 -3.4542722338e+00 1.9943250040e+00 3.4542722338e+00 
13900 5.1822182983e+00 -9.0194149135e-03 1.9945487178e+00 -3.4546597174e+00 1.9945487178e+00 3.4546597174e+00 
14000 5.1821900190e+00 -9.1197667857e-03 1.9947748237e+00 -3.4550513444e+00 1.9947748237e+00 3.4550513444e+00 
14100 5.1821613550e+00 -9.2233252366e-03 1.9950034195e+00 -3.4554472838e+00 1.9950034195e+00 3.4554472838e+00 
14200 5.1821321874e+00 -9.3293927982e-03 1.9952345846e+00 -3.4558476735e+00 1.9952345846e+00 3.4558476735e+00 
14300 5.1821024213e+00 -9.4372982914e-03 1.9954683810e+00 -3.4562526208e+00 1.9954683810e+00 3.4562526208e+00 
14400 5.1820719842e+00 -9.5463976630e-03 1.9957048539e+00 -3.4566622039e+00 1.9957048539e+00 3.4566622039e+00 
14500 5.1820408249e+00 -9.6560747225e-03 1.9959440323e+00 -3.4570764730e+00 1.9959440323e+00 3.4570764730e+00 
14600 5.1820089123e+00 -9.7657417763e-03 1.9961859296e+00 -3.4574954514e+00 1.9961859296e+00 3.4574954514e+00 
14700 5.1819762335e+00 -9.8748401598e-03 1.9964305446e+00 -3.4579191371e+00 1.9964305446e+00 3.4579191371e+00 
14800 5.1819427927e+00 -9.9828406687e-03 1.9966778621e+00 -3.4583475035e+00 1.9966778621e+00 3.4583475035e+00 
14900 5.1819086094e+00 -1.0089243889e-02 1.9969278536e+00 -3.4587805015e+00 1.9969278536e+00 3.4587805015e+00 
15000 5.1818737165e+00 -1.0193580424e-02 1.9971804781e+00 -3.4592180599e+00 1.9971804781e+00 3.4592180599e+00 
15100 5.1818381589e+00 -1.0295411032e-02 1.9974356828e+00 -3.4596600874e+00 1.9974356828e+00 3.4596600874e+00 
15200 5.1818019918e+00 -1.0394326654e-02 1.9976934040e+00 -3.4601064737e+00 1.9976934040e+00 3.4601064737e+00 
15300 5.1817652788e+00 -1.0489948358e-02 1.9979535679e+00 -3.4605570907e+00 1.9979535679e+00 3.4605570907e+00 
15400 5.1817280905e+00 -1.0581927187e-02 1.9982160909e+00 -3.4610117940e+00 1.9982160909e+00 3.4610117940e+00 
15500 5.1816905030e+00 -1.0669943918e-02 1.9984808812e+00 -3.4614704241e+00 1.9984808812e+00 3.4614704241e+00 
15600 5.1816525961e+00 -1.0753708742e-02 1.9987478385e+00 -3.4619328077e+00 1.9987478385e+00 3.4619328077e+00 
15700 5.1816144523e+00 -1.0832960851e-02 1.9990168556e+00 -3.4623987591e+00 1.9990168556e+00 3.4623987591e+00 
15800 5.1815761552e+00 -1.0907467957e-02 1.9992878190e+00 -3.4628680814e+00 1.9992878190e+00 3.4628680814e+00 
15900 5.1815377886e+00 -1.0977025736e-02 1.9995606090e+00 -3.4633405676e+00 1.9995606090e+00 3.4633405676e+00 
16000 5.1814994349e+00 -1.1041457201e-02 1.9998351012e+00 -3.4638160021e+00 1.9998351012e+00 3.4638160021e+00 
16100 5.1814611748e+00 -1.1100612010e-02 2.0001111668e+00 -3.4642941616e+00 2.0001111668e+00 3.4642941616e+00 
16200 5.1814230858e+00 -1.1154365717e-02 2.0003886731e+00 -3.4647748166e+00 2.0003886731e+00 3.4647748166e+00 
16300 5.1813852420e+00 -1.1202618972e-02 2.0006674845e+00 -3.4652577322e+00 2.0006674845e+00 3.4652577322e+00 
16400 5.1813477130e+00 -1.1245296660e-02 2.0009474631e+00 -3.4657426693e+00 2.0009474631e+00 3.4657426693e+00 
16500 5.1813105636e+00 -1.1282347010e-02 2.0012284689e+00 -3.4662293858e+00 2.0012284689e+00 3.4662293858e+00 
16600 5.1812738533e+00 -1.1313740656e-02 2.0015103611e+00 -3.4667176373e+00 2.0015103611e+00 3.4667176373e+00 
16700 5.1812376362e+00 -1.1339469665e-02 2.0017929978e+00 -3.4672071785e+00 2.0017929978e+00 3.4672071785e+00 
16800 5.1812019605e+00 -1.1359546538e-02 2.0020762373e+00 -3.4676977637e+00 2.0020762373e+00 3.4676977637e+00 
16900 5.1811668685e+00 -1.1374003189e-02 2.0023599382e+00 -3.4681891480e+00 2.0023599382e+00 3.4681891480e+00 
17000 5.1811323963e+00 -1.1382889900e-02 2.0026439598e+00 -3.4686810879e+00 2.0026439598e+00 3.4686810879e+00 
17100 5.1810985745e+00 -1.1386274264e-02 2.0029281631e+00 -3.4691733424e+00 2.0029281631e+00 3.4691733424e+00 
17200 5.1810654274e+00 -1.1384240124e-02 2.0032124105e+00 -3.4696656734e+00 2.0032124105e+00 3.4696656734e+00 
17300 5.1810329740e+00 -1.1376886494e-02 2.0034965668e+00 -3.4701578466e+00 2.0034965668e+00 3.4701578466e+00 
17400 5.1810012277e+00 -1.1364326498e-02 2.0037804993e+00 -3.4706496321e+00 2.0037804993e+00 3.4706496321e+00 
17500 5.1809701965e+00 -1.1346686292e-02 2.0040640782e+00 -3.4711408050e+00 2.0040640782e+00 3.4711408050e+00 
17600 5.1809398839e+00 -1.1324104013e-02 2.0043471767e+00 -3.4716311461e+00 2.0043471767e+00 3.4716311461e+00 
17700 5.1809102885e+00 -1.1296728720e-02 2.0046296719e+00 -3.4721204422e+00 2.0046296719e+00 3.4721204422e+00 
17800 5.1808814048e+00 -1.1264719370e-02 2.0049114445e+00 -3.4726084866e+00 2.0049114445e+00 3.4726084866e+00 
17900 5.1808532236e+00 -1.1228243790e-02 2.0051923792e+00 -3.4730950797e+00 2.0051923792e+00 3.4730950797e+00 
18000 5.1808257323e+00 -1.1187477691e-02 2.0054723649e+00 -3.4735800292e+00 2.0054723649e+00 3.4735800292e+00 
18100 5.1807989150e+00 -1.1142603686e-02 2.0057512951e+00 -3.4740631505e+00 2.0057512951e+00 3.4740631505e+00 
18200 5.1807727533e+00 -1.1093810349e-02 2.0060290679e+00 -3.4745442670e+00 2.0060290679e+00 3.4745442670e+00 
18300 5.1807472268e+00 -1.1041291290e-02 2.0063055859e+00 -3.4750232104e+00 2.0063055859e+00 3.4750232104e+00 
18400 5.1807223130e+00 -1.0985244271e-02 2.0065807570e+00 -3.4754998206e+00 2.0065807570e+00 3.4754998206e+00 
18500 5.1806979878e+00 -1.0925870344e-02 2.0068544936e+00 -3.4759739464e+00 2.0068544936e+00 3.4759739464e+00 
18600 5.1806742264e+00 -1.0863373026e-02 2.0071267136e+00 -3.4764454452e+00 2.0071267136e+00 3.4764454452e+00 
18700 5.1806510029e+00 -1.0797957509e-02 2.0073973397e+00 -3.4769141833e+00 2.0073973397e+00 3.4769141833e+00 
18800 5.1806282911e+00 -1.0729829902e-02 2.0076662999e+00 -3.4773800360e+00 2.0076662999e+00 3.4773800360e+00 
18900 5.1806060644e+00 -1.0659196514e-02 2.0079335272e+00 -3.4778428874e+00 2.0079335272e+00 3.4778428874e+00 
19000 5.1805842966e+00 -1.0586263168e-02 2.0081989601e+00 -3.4783026306e+00 2.0081989601e+00 3.4783026306e+00 
19100 5.1805629618e+00 -1.0511234551e-02 2.0084625419e+00 -3.4787591677e+00 2.0084625419e+00 3.4787591677e+00 
19200 5.1805420346e+00 -1.0434313610e-02 2.0087242213e+00 -3.4792124096e+00 2.0087242213e+00 3.4792124096e+00 
19300 5.1805214903e+00 -1.0355700976e-02 2.0089839517e+00 -3.4796622760e+00 2.0089839517e+00 3.4796622760e+00 
19400 5.1805013054e+00 -1.0275594426e-02 2.0092416920e+00 -3.4801086953e+00 2.0092416920e+00 3.4801086953e+00 
19500 5.1804814572e+00 -1.0194188387e-02 2.0094974057e+00 -3.4805516044e+00 2.0094974057e+00 3.4805516044e+00 
19600 5.1804619245e+00 -1.0111673471e-02 2.0097510613e+00 -3.4809909487e+00 2.0097510613e+00 3.4809909487e+00 
19700 5.1804426871e+00 -1.0028236048e-02 2.0100026318e+00 -3.4814266817e+00 2.0100026318e+00 3.4814266817e+00 
19800 5.1804237264e+00 -9.9440578540e-03 2.0102520953e+00 -3.4818587650e+00 2.0102520953e+00 3.4818587650e+00 
19900 5.1804050251e+00 -9.8593156325e-03 2.0104994340e+00 -3.4822871682e+00 2.0104994340e+00 3.4822871682e+00 
20000 5.1803865675e+00 -9.7741808117e-03 2.0107446346e+00 -3.4827118682e+00 2.0107446346e+00 3.4827118682e+00 
20100 5.1803683391e+00 -9.6888192126e-03 2.0109876883e+00 -3.4831328495e+00 2.0109876883e+00 3.4831328495e+00 
20200 5.1803503272e+00 -9.6033907900e-03 2.0112285901e+00 -3.4835501038e+00 2.0112285901e+00 3.4835501038e+00 
20300 5.1803325202e+00 -9.5180494044e-03 2.0114673392e+00 -3.4839636293e+00 2.0114673392e+00 3.4839636293e+00 
20400 5.1803149081e+00 -9.4329426235e-03 2.0117039386e+00 -3.4843734314e+00 2.0117039386e+00 3.4843734314e+00 
20500 5.1802974823e+00 -9.3482115534e-03 2.0119383947e+00 -3.4847795213e+00 2.0119383947e+00 3.4847795213e+00 
20600 5.1802802352e+00 -9.2639906969e-03 2.0121707177e+00 -3.4851819165e+00 2.0121707177e+00 3.4851819165e+00 
20700 5.1802631607e+00 -9.1804078395e-03 2.0124009210e+00 -3.4855806404e+00 2.0124009210e+00 3.4855806404e+00 
20800 5.1802462537e+00 -9.0975839598e-03 2.0126290212e+00 -3.4859757215e+00 2.0126290212e+00 3.4859757215e+00 
20900 5.1802295103e+00 -9.0156331661e-03 2.0128550379e+00 -3.4863671939e+00 2.0128550379e+00 3.4863671939e+00 
21000 5.1802129275e+00 -8.9346626554e-03 2.0130789934e+00 -3.4867550962e+00 2.0130789934e+00 3.4867550962e+00 
21100 5.1801965030e+00 -8.8547726953e-03 2.0133009128e+00 -3.4871394720e+00 2.0133009128e+00 3.4871394720e+00 
21200 5.1801802357e+00 -8.7760566270e-03 2.0135208237e+00 -3.4875203687e+00 2.0135208237e+00 3.4875203687e+00 
21300 5.1801641249e+00 -8.6986008883e-03 2.0137387557e+00 -3.4878978381e+00 2.0137387557e+00 3.4878978381e+00 
21400 5.1801481706e+00 -8.6224850566e-03 2.0139547410e+00 -3.4882719355e+00 2.0139547410e+00 3.4882719355e+00 
21500 5.1801323733e+00 -8.5477819087e-03 2.0141688132e+00 -3.4886427196e+00 2.0141688132e+00 3.4886427196e+00 
21600 5.1801167340e+00 -8.4745574984e-03 2.0143810083e+00 -3.4890102521e+00 2.0143810083e+00 3.4890102521e+00 
21700 5.1801012539e+00 -8.4028712499e-03 2.0145913633e+00 -3.4893745978e+00 2.0145913633e+00 3.4893745978e+00 
21800 5.1800859348e+00 -8.3327760662e-03 2.0147999172e+00 -3.4897358237e+00 2.0147999172e+00 3.4897358237e+00 
21900 5.1800707783e+00 -8.2643184508e-03 2.0150067099e+00 -3.4900939991e+00 2.0150067099e+00 3.4900939991e+00 
22000 5.1800557865e+00 -8.1975386429e-03 2.0152117826e+00 -3.4904491955e+00 2.0152117826e+00 3.4904491955e+00 
22100 5.1800409613e+00 -8.1324707646e-03 2.0154151775e+00 -3.4908014859e+00 2.0154151775e+00 3.4908014859e+00 
22200 5.1800263047e+00 -8.0691429784e-03 2.0156169376e+00 -3.4911509446e+00 2.0156169376e+00 3.4911509446e+00 
22300 5.1800118187e+00 -8.0075776555e-03 2.0158171065e+00 -3.4914976473e+00 2.0158171065e+00 3.4914976473e+00 
22400 5.1799975050e+00 -7.9477915531e-03 2.0160157284e+00 -3.4918416705e+00 2.0160157284e+00 3.4918416705e+00 
22500 5.1799833655e+00 -7.8897959992e-03 2.0162128480e+00 -3.4921830915e+00 2.0162128480e+00 3.4921830915e+00 
22600 5.1799694016e+00 -7.8335970860e-03 2.0164085099e+00 -3.4925219880e+00 2.0164085099e+00 3.4925219880e+00 
22700 5.1799556148e+00 -7.7791958690e-03 2.0166027593e+00 -3.4928584378e+00 2.0166027593e+00 3.4928584378e+00 
22800 5.1799420059e+00 -7.7265885718e-03 2.0167956411e+00 -3.4931925189e+00 2.0167956411e+00 3.4931925189e+00 
22900 5.1799285761e+00 -7.6757667967e-03 2.0169872002e+00 -3.4935243090e+00 2.0169872002e+00 3.4935243090e+00 
23000 5.1799153257e+00 -7.6267177384e-03 2.0171774813e+00 -3.4938538854e+00 2.0171774813e+00 3.4938538854e+00 
23100 5.1799022551e+00 -7.5794244016e-03 2.0173665285e+00 -3.4941813248e+00 2.0173665285e+00 3.4941813248e+00 
23200 5.1798893644e+00 -7.5338658217e-03 2.0175543858e+00 -3.4945067033e+00 2.0175543858e+00 3.4945067033e+00 
23300 5.1798766532e+00 -7.4900172865e-03 2.0177410966e+00 -3.4948300958e+00 2.0177410966e+00 3.4948300958e+00 
23400 5.1798641210e+00 -7.4478505602e-03 2.0179267035e+00 -3.4951515763e+00 2.0179267035e+00 3.4951515763e+00 
23500 5.1798517670e+00 -7.4073341071e-03 2.0181112484e+00 -3.4954712176e+00 2.0181112484e+00 3.4954712176e+00 
23600 5.1798395901e+00 -7.3684333164e-03 2.0182947726e+00 -3.4957890909e+00 2.0182947726e+00 3.4957890909e+00 
23700 5.1798275890e+00 -7.3311107253e-03 2.0184773165e+00 -3.4961052660e+00 2.0184773165e+00 3.4961052660e+00 
23800 5.1798157620e+00 -7.2953262419e-03 2.0186589192e+00 -3.4964198112e+00 2.0186589192e+00 3.4964198112e+00 
23900 5.1798041074e+00 -7.2610373653e-03 2.0188396193e+00 -3.4967327929e+00 2.0188396193e+00 3.4967327929e+00 
24000 5.1797926232e+00 -7.2281994046e-03 2.0190194539e+00 -3.4970442756e+00 2.0190194539e+00 3.4970442756e+00 
24100 5.1797813072e+00 -7.1967656946e-03 2.0191984592e+00 -3.4973543220e+00 2.0191984592e+00 3.4973543220e+00 
24200 5.1797701569e+00 -7.1666878075e-03 2.0193766703e+00 -3.4976629926e+00 2.0193766703e+00 3.4976629926e+00 
24300 5.1797591698e+00 -7.1379157625e-03 2.0195541210e+00 -3.4979703461e+00 2.0195541210e+00 3.4979703461e+00 
24400 5.1797483434e+00 -7.1103982299e-03 2.0197308436e+00 -3.4982764388e+00 2.0197308436e+00 3.4982764388e+00 
24500 5.1797376748e+00 -7.0840827311e-03 2.0199068696e+00 -3.4985813247e+00 2.0199068696e+00 3.4985813247e+00 
24600 5.1797271613e+00 -7.0589158340e-03 2.0200822288e+00 -3.4988850557e+00 2.0200822288e+00 3.4988850557e+00 
24700 5.1797167998e+00 -7.0348433428e-03 2.0202569498e+00 -3.4991876815e+00 2.0202569498e+00 3.4991876815e+00 
24800 5.1797065874e+00 -7.0118104824e-03 2.0204310600e+00 -3.4994892491e+00 2.0204310600e+00 3.4994892491e+00 
24900 5.1796965212e+00 -6.9897620764e-03 2.0206045851e+00 -3.4997898034e+00 2.0206045851e+00 3.4997898034e+00 
25000 5.1796865981e+00 -6.9686427200e-03 2.0207775497e+00 -3.5000893869e+00 2.0207775497e+00 3.5000893869e+00 
25100 5.1796768151e+00 -6.9483969456e-03 2.0209499769e+00 -3.5003880396e+00 2.0209499769e+00 3.5003880396e+00 
25200 5.1796671693e+00 -6.9289693819e-03 2.0211218886e+00 -3.5006857993e+00 2.0211218886e+00 3.5006857993e+00 
25300 5.1796576577e+00 -6.9103049071e-03 2.0212933049e+00 -3.5009827011e+00 2.0212933049e+00 3.5009827011e+00 
25400 5.1796482774e+00 -6.8923487936e-03 2.0214642450e+00 -3.5012787781e+00 2.0214642450e+00 3.5012787781e+00 
25500 5.1796390255e+00 -6.8750468472e-03 2.0216347266e+00 -3.5015740607e+00 2.0216347266e+00 3.5015740607e+00 
25600 5.1796298993e+00 -6.8583455379e-03 2.0218047658e+00 -3.5018685773e+00 2.0218047658e+00 3.5018685773e+00 
25700 5.1796208961e+00 -6.8421921242e-03 2.0219743776e+00 -3.5021623536e+00 2.0219743776e+00 3.5021623536e+00 
25800 5.1796120132e+00 -6.8265347695e-03 2.0221435758e+00 -3.5024554135e+00 2.0221435758e+00 3.5024554135e+00 
25900 5.1796032482e+00 -6.8113226512e-03 2.0223123727e+00 -3.5027477782e+00 2.0223123727e+00 3.5027477782e+00 
26000 5.1795945985e+00 -6.7965060630e-03 2.0224807793e+00 -3.5030394671e+00 2.0224807793e+00 3.5030394671e+00 
26100 5.1795860619e+00 -6.7820365086e-03 2.0226488056e+00 -3.5033304972e+00 2.0226488056e+00 3.5033304972e+00 
26200 5.1795776361e+00 -6.7678667892e-03 2.0228164603e+00 -3.5036208836e+00 2.0228164603e+00 3.5036208836e+00 
26300 5.1795693190e+00 -6.7539510827e-03 2.0229837508e+00 -3.5039106393e+00 2.0229837508e+00 3.5039106393e+00 
26400 5.1795611085e+00 -6.7402450163e-03 2.0231506835e+00 -3.5041997753e+00 2.0231506835e+00 3.5041997753e+00 
26500 5.1795530026e+00 -6.7267057317e-03 2.0233172638e+00 -3.5044883007e+00 2.0233172638e+00 3.5044883007e+00 
26600 5.1795449996e+00 -6.7132919427e-03 2.0234834957e+00 -3.5047762228e+00 2.0234834957e+00 3.5047762228e+00 
26700 5.1795370977e+00 -6.6999639866e-03 2.0236493825e+00 -3.5050635471e+00 2.0236493825e+00 3.5050635471e+00 
26800 5.1795292953e+00 -6.6866838684e-03 2.0238149263e+00 -3.5053502775e+00 2.0238149263e+00 3.5053502775e+00 
26900 5.1795215906e+00 -6.6734152980e-03 2.0239801286e+00 -3.5056364162e+00 2.0239801286e+00 3.5056364162e+00 
27000 5.1795139824e+00 -6.6601237213e-03 2.0241449895e+00 -3.5059219637e+00 2.0241449895e+00 3.5059219637e+00 
27100 5.1795064691e+00 -6.6467763450e-03 2.0243095087e+00 -3.5062069193e+00 2.0243095087e+00 3.5062069193e+00 
27200 5.1794990495e+00 -6.6333421544e-03 2.0244736848e+00 -3.5064912807e+00 2.0244736848e+00 3.5064912807e+00 
27300 5.1794917222e+00 -6.6197919268e-03 2.0246375159e+00 -3.5067750444e+00 2.0246375159e+00 3.5067750444e+00 
27400 5.1794844861e+00 -6.6060982371e-03 2.0248009990e+00 -3.5070582054e+00 2.0248009990e+00 3.5070582054e+00 
27500 5.1794773400e+00 -6.5922354599e-03 2.0249641307e+00 -3.5073407579e+00 2.0249641307e+00 3.5073407579e+00 
27600 5.1794702829e+00 -6.5781797647e-03 2.0251269070e+00 -3.5076226948e+00 2.0251269070e+00 3.5076226948e+00 
27700 5.1794633137e+00 -6.5639091069e-03 2.0252893232e+00 -3.5079040079e+00 2.0252893232e+00 3.5079040079e+00 
27800 5.1794564313e+00 -6.5494032136e-03 2.0254513741e+00 -3.5081846881e+00 2.0254513741e+00 3.5081846881e+00 
27900 5.1794496349e+00 -6.5346435652e-03 2.0256130538e+00 -3.5084647257e+00 2.0256130538e+00 3.5084647257e+00 
28000 5.1794429235e+00 -6.5196133719e-03 2.0257743564e+00 -3.5087441099e+00 2.0257743564e+00 3.5087441099e+00 
28100 5.1794362963e+00 -6.5042975472e-03 2.0259352751e+00 -3.5090228293e+00 2.0259352751e+00 3.5090228293e+00 
28200 5.1794297522e+00 -6.4886826763e-03 2.0260958030e+00 -3.5093008718e+00 2.0260958030e+00 3.5093008718e+00 
28300 5.1794232905e+00 -6.4727569820e-03 2.0262559328e+00 -3.5095782248e+00 2.0262559328e+00 3.5095782248e+00 
28400 5.1794169104e+00 -6.4565102866e-03 2.0264156570e+00 -3.5098548752e+00 2.0264156570e+00 3.5098548752e+00 
28500 5.1794106109e+00 -6.4399339712e-03 2.0265749678e+00 -3.5101308095e+00 2.0265749678e+00 3.5101308095e+00 
28600 5.1794043914e+00 -6.4230209317e-03 2.0267338570e+00 -3.5104060137e+00 2.0267338570e+00 3.5104060137e+00 
28700 5.1793982508e+00 -6.4057655327e-03 2.0268923165e+00 -3.5106804736e+00 2.0268923165e+00 3.5106804736e+00 
28800 5.1793921885e+00 -6.3881635588e-03 2.0270503379e+00 -3.5109541748e+00 2.0270503379e+00 3.5109541748e+00 
28900 5.1793862037e+00 -6.3702121638e-03 2.0272079128e+00 -3.5112271025e+00 2.0272079128e+00 3.5112271025e+00 
29000 5.1793802954e+00 -6.3519098182e-03 2.0273650327e+00 -3.5114992422e+00 2.0273650327e+00 3.5114992422e+00 
29100 5.1793744630e+00 -6.3332562553e-03 2.0275216891e+00 -3.5117705789e+00 2.0275216891e+00 3.5117705789e+00 
29200 5.1793687055e+00 -6.3142524156e-03 2.0276778733e+00 -3.5120410979e+00 2.0276778733e+00 3.5120410979e+00 
29300 5.1793630222e+00 -6.2949003899e-03 2.0278335769e+00 -3.5123107844e+00 2.0278335769e+00 3.5123107844e+00 
29400 5.1793574122e+00 -6.2752033623e-03 2.0279887913e+00 -3.5125796237e+00 2.0279887913e+00 3.5125796237e+00 
29500 5.1793518747e+00 -6.2551655517e-03 2.0281435082e+00 -3.5128476012e+00 2.0281435082e+00 3.5128476012e+00 
29600 5.1793464088e+00 -6.2347921531e-03 2.0282977193e+00 -3.5131147027e+00 2.0282977193e+00 3.5131147027e+00 
29700 5.1793410138e+00 -6.2140892785e-03 2.0284514164e+00 -3.5133809139e+00 2.0284514164e+00 3.5133809139e+00 
29800 5.1793356887e+00 -6.1930638981e-03 2.0286045916e+00 -3.5136462211e+00 2.0286045916e+00 3.5136462211e+00 
29900 5.1793304328e+00 -6.1717237809e-03 2.0287572370e+00 -3.5139106106e+00 2.0287572370e+00 3.5139106106e+00 
30000 5.1793252451e+00 -6.1500774362e-03 2.0289093449e+00 -3.5141740693e+00 2.0289093449e+00 3.5141740693e+00 
30100 5.1793201248e+00 -6.1281340549e-03 2.0290609079e+00 -3.5144365842e+00 2.0290609079e+00 3.5144365842e+00 
30200 5.1793150710e+00 -6.1059034521e-03 2.0292119189e+00 -3.5146981429e+00 2.0292119189e+00 3.5146981429e+00 
30300 5.1793100829e+00 -6.0833960098e-03 2.0293623709e+00 -3.5149587334e+00 2.0293623709e+00 3.5149587334e+00 
30400 5.1793051596e+00 -6.0606226207e-03 2.0295122572e+00 -3.5152183440e+00 2.0295122572e+00 3.5152183440e+00 
30500 5.1793003002e+00 -6.0375946330e-03 2.0296615713e+00 -3.5154769636e+00 2.0296615713e+00 3.5154769636e+00 
30600 5.1792955039e+00 -6.0143237962e-03 2.0298103071e+00 -3.5157345817e+00 2.0298103071e+00 3.5157345817e+00 
30700 5.1792907699e+00 -5.9908222085e-03 2.0299584588e+00 -3.5159911879e+00 2.0299584588e+00 3.5159911879e+00 
30800 5.1792860972e+00 -5.9671022648e-03 2.0301060208e+00 -3.5162467728e+00 2.0301060208e+00 3.5162467728e+00 
30900 5.1792814851e+00 -5.9431766071e-03 2.0302529879e+00 -3.5165013272e+00 2.0302529879e+00 3.5165013272e+00 
31000 5.1792769326e+00 -5.9190580753e-03 2.0303993551e+00 -3.5167548426e+00 2.0303993551e+00 3.5167548426e+00 
31100 5.1792724390e+00 -5.8947596608e-03 2.0305451177e+00 -3.5170073110e+00 2.0305451177e+00 3.5170073110e+00 
31200 5.1792680034e+00 -5.8702944607e-03 2.0306902716e+00 -3.5172587249e+00 2.0306902716e+00 3.5172587249e+00 
31300 5.1792636249e+00 -5.8456756343e-03 2.0308348127e+00 -3.5175090774e+00 2.0308348127e+00 3.5175090774e+00 
31400 5.1792593029e+00 -5.8209163611e-03 2.0309787374e+00 -3.5177583623e+00 2.0309787374e+00 3.5177583623e+00 
31500 5.1792550364e+00 -5.7960298012e-03 2.0311220423e+00 -3.5180065737e+00 2.0311220423e+00 3.5180065737e+00 
31600 5.1792508248e+00 -5.7710290565e-03 2.0312647245e+00 -3.5182537064e+00 2.0312647245e+00 3.5182537064e+00 
31700 5.1792466671e+00 -5.7459271348e-03 2.0314067812e+00 -3.5184997559e+00 2.0314067812e+00 3.5184997559e+00 
31800 5.1792425628e+00 -5.7207369155e-03 2.0315482101e+00 -3.5187447180e+00 2.0315482101e+00 3.5187447180e+00 
31900 5.1792385108e+00 -5.6954711167e-03 2.0316890092e+00 -3.5189885892e+00 2.0316890092e+00 3.5189885892e+00 
32000 5.1792345107e+00 -5.6701422654e-03 2.0318291768e+00 -3.5192313664e+00 2.0318291768e+00 3.5192313664e+00 
32100 5.1792305616e+00 -5.6447626681e-03 2.0319687113e+00 -3.5194730474e+00 2.0319687113e+00 3.5194730474e+00 
32200 5.1792266628e+00 -5.6193443850e-03 2.0321076117e+00 -3.5197136300e+00 2.0321076117e+00 3.5197136300e+00 
32300 5.1792228135e+00 -5.5938992047e-03 2.0322458773e+00 -3.5199531129e+00 2.0322458773e+00 3.5199531129e+00 
32400 5.1792190132e+00 -5.5684386218e-03 2.0323835073e+00 -3.5201914951e+00 2.0323835073e+00 3.5201914951e+00 
32500 5.1792152612e+00 -5.5429738159e-03 2.0325205017e+00 -3.5204287763e+00 2.0325205017e+00 3.5204287763e+00 
32600 5.1792115567e+00 -5.5175156328e-03 2.0326568603e+00 -3.5206649564e+00 2.0326568603e+00 3.5206649564e+00 
32700 5.1792078991e+00 -5.4920745671e-03 2.0327925836e+00 -3.5209000361e+00 2.0327925836e+00 3.5209000361e+00 
32800 5.1792042879e+00 -5.4666607472e-03 2.0329276720e+00 -3.5211340161e+00 2.0329276720e+00 3.5211340161e+00 
32900 5.1792007222e+00 -5.4412839217e-03 2.0330621264e+00 -3.5213668979e+00 2.0330621264e+00 3.5213668979e+00 
33000 5.1791972017e+00 -5.4159534473e-03 2.0331959478e+00 -3.5215986834e+00 2.0331959478e+00 3.5215986834e+00 
33100 5.1791937255e+00 -5.3906782794e-03 2.0333291374e+00 -3.5218293746e+00 2.0333291374e+00 3.5218293746e+00 
33200 5.1791902933e+00 -5.3654669632e-03 2.0334616968e+00 -3.5220589741e+00 2.0334616968e+00 3.5220589741e+00 
33300 5.1791869043e+00 -5.3403276270e-03 2.0335936276e+00 -3.5222874850e+00 2.0335936276e+00 3.5222874850e+00 
33400 5.1791835580e+00 -5.3152679769e-03 2.0337249318e+00 -3.5225149104e+00 2.0337249318e+00 3.5225149104e+00 
33500 5.1791802539e+00 -5.2902952932e-03 2.0338556113e+00 -3.5227412541e+00 2.0338556113e+00 3.5227412541e+00 
33600 5.1791769914e+00 -5.2654164281e-03 2.0339856685e+00 -3.5229665197e+00 2.0339856685e+00 3.5229665197e+00 
33700 5.1791737699e+00 -5.2406378047e-03 2.0341151058e+00 -3.5231907117e+00 2.0341151058e+00 3.5231907117e+00 
33800 5.1791705890e+00 -5.2159654172e-03 2.0342439258e+00 -3.5234138345e+00 2.0342439258e+00 3.5234138345e+00 
33900 5.1791674481e+00 -5.1914048331e-03 2.0343721312e+00 -3.5236358927e+00 2.0343721312e+00 3.5236358927e+00 
34000 5.1791643468e+00 -5.1669611955e-03 2.0344997248e+00 -3.5238568914e+00 2.0344997248e+00 3.5238568914e+00 
34100 5.1791612844e+00 -5.1426392274e-03 2.0346267097e+00 -3.5240768357e+00 2.0346267097e+00 3.5240768357e+00 
34200 5.1791582606e+00 -5.1184432370e-03 2.0347530890e+00 -3.5242957310e+00 2.0347530890e+00 3.5242957310e+00 
34300 5.1791552748e+00 -5.0943771234e-03 2.0348788658e+00 -3.5245135828e+00 2.0348788658e+00 3.5245135828e+00 
34400 5.1791523265e+00 -5.0704443838e-03 2.0350040435e+00 -3.5247303970e+00 2.0350040435e+00 3.5247303970e+00 
34500 5.1791494154e+00 -5.0466481215e-03 2.0351286255e+00 -3.5249461793e+00 2.0351286255e+00 3.5249461793e+00 
34600 5.1791465408e+00 -5.0229910548e-03 2.0352526152e+00 -3.5251609357e+00 2.0352526152e+00 3.5251609357e+00 
34700 5.1791437024e+00 -4.9994755263e-03 2.0353760161e+00 -3.5253746724e+00 2.0353760161e+00 3.5253746724e+00 
34800 5.1791408997e+00 -4.9761035132e-03 2.0354988319e+00 -3.5255873956e+00 2.0354988319e+00 3.5255873956e+00 
34900 5.1791381323e+00 -4.9528766381e-03 2.0356210661e+00 -3.5257991115e+00 2.0356210661e+00 3.5257991115e+00 
35000 5.1791353996e+00 -4.9297961806e-03 2.0357427225e+00 -3.5260098266e+00 2.0357427225e+00 3.5260098266e+00 
35100 5.1791327014e+00 -4.9068630893e-03 2.0358638048e+00 -3.5262195471e+00 2.0358638048e+00 3.5262195471e+00 
35200 5.1791300371e+00 -4.8840779937e-03 2.0359843165e+00 -3.5264282796e+00 2.0359843165e+00 3.5264282796e+00 
35300 5.1791274063e+00 -4.8614412177e-03 2.0361042616e+00 -3.5266360306e+00 2.0361042616e+00 3.5266360306e+00 
35400 5.1791248086e+00 -4.8389527923e-03 2.0362236437e+00 -3.5268428065e+00 2.0362236437e+00 3.5268428065e+00 
35500 5.1791222436e+00 -4.8166124692e-03 2.0363424666e+00 -3.5270486138e+00 2.0363424666e+00 3.5270486138e+00 
35600 5.1791197108e+00 -4.7944197344e-03 2.0364607340e+00 -3.5272534590e+00 2.0364607340e+00 3.5272534590e+00 
35700 5.1791172099e+00 -4.7723738222e-03 2.0365784497e+00 -3.5274573485e+00 2.0365784497e+00 3.5274573485e+00 
35800 5.1791147405e+00 -4.7504737289e-03 2.0366956173e+00 -3.5276602887e+00 2.0366956173e+00 3.5276602887e+00 
35900 5.1791123021e+00 -4.7287182271e-03 2.0368122405e+00 -3.5278622860e+00 2.0368122405e+00 3.5278622860e+00 
36000 5.1791098944e+00 -4.7071058798e-03 2.0369283229e+00 -3.5280633467e+00 2.0369283229e+00 3.5280633467e+00 
36100 5.1791075170e+00 -4.6856350545e-03 2.0370438682e+00 -3.5282634770e+00 2.0370438682e+00 3.5282634770e+00 
36200 5.1791051694e+00 -4.6643039370e-03 2.0371588800e+00 -3.5284626832e+00 2.0371588800e+00 3.5284626832e+00 
36300 5.1791028514e+00 -4.6431105460e-03 2.0372733617e+00 -3.5286609713e+00 2.0372733617e+00 3.5286609713e+00 
36400 5.1791005625e+00 -4.6220527461e-03 2.0373873168e+00 -3.5288583473e+00 2.0373873168e+00 3.5288583473e+00 
36500 5.1790983024e+00 -4.6011282621e-03 2.0375007487e+00 -3.5290548172e+00 2.0375007487e+00 3.5290548172e+00 
36600 5.1790960706e+00 -4.5803346924e-03 2.0376136608e+00 -3.5292503867e+00 2.0376136608e+00 3.5292503867e+00 
36700 5.1790938669e+00 -4.5596695220e-03 2.0377260564e+00 -3.5294450616e+00 2.0377260564e+00 3.5294450616e+00 
36800 5.1790916908e+00 -4.5391301358e-03 2.0378379388e+00 -3.5296388475e+00 2.0378379388e+00 3.5296388475e+00 
36900 5.1790895421e+00 -4.5187138312e-03 2.0379493110e+00 -3.5298317499e+00 2.0379493110e+00 3.5298317499e+00 
37000 5.1790874203e+00 -4.4984178304e-03 2.0380601762e+00 -3.5300237741e+00 2.0380601762e+00 3.5300237741e+00 
37100 5.1790853251e+00 -4.4782392926e-03 2.0381705375e+00 -3.5302149255e+00 2.0381705375e+00 3.5302149255e+00 
37200 5.1790832562e+00 -4.4581753257e-03 2.0382803978e+00 -3.5304052091e+00 2.0382803978e+00 3.5304052091e+00 
37300 5.1790812132e+00 -4.4382229978e-03 2.0383897600e+00 -3.5305946299e+00 2.0383897600e+00 3.5305946299e+00 
37400 5.1790791958e+00 -4.4183793478e-03 2.0384986268e+00 -3.5307831928e+00 2.0384986268e+00 3.5307831928e+00 
37500 5.1790772037e+00 -4.3986413961e-03 2.0386070012e+00 -3.5309709027e+00 2.0386070012e+00 3.5309709027e+00 
37600 5.1790752366e+00 -4.3790061550e-03 2.0387148856e+00 -3.5311577641e+00 2.0387148856e+00 3.5311577641e+00 
37700 5.1790732940e+00 -4.3594706379e-03 2.0388222828e+00 -3.5313437814e+00 2.0388222828e+00 3.5313437814e+00 
37800 5.1790713757e+00 -4.3400318689e-03 2.0389291952e+00 -3.5315289592e+00 2.0389291952e+00 3.5315289592e+00 
37900 5.1790694815e+00 -4.3206868915e-03 2.0390356254e+00 -3.5317133016e+00 2.0390356254e+00 3.5317133016e+00 
38000 5.1790676109e+00 -4.3014327769e-03 2.0391415755e+00 -3.5318968127e+00 2.0391415755e+00 3.5318968127e+00 
38100 5.1790657637e+00 -4.2822666319e-03 2.0392470481e+00 -3.5320794965e+00 2.0392470481e+00 3.5320794965e+00 
38200 5.1790639395e+00 -4.2631856061e-03 2.0393520453e+00 -3.5322613570e+00 2.0393520453e+00 3.5322613570e+00 
38300 5.1790621382e+00 -4.2441868995e-03 2.0394565692e+00 -3.5324423977e+00 2.0394565692e+00 3.5324423977e+00 
38400 5.1790603593e+00 -4.2252677679e-03 2.0395606220e+00 -3.5326226224e+00 2.0395606220e+00 3.5326226224e+00 
38500 5.1790586026e+00 -4.2064255301e-03 2.0396642057e+00 -3.5328020346e+00 2.0396642057e+00 3.5328020346e+00 
38600 5.1790568679e+00 -4.1876575724e-03 2.0397673222e+00 -3.5329806376e+00 2.0397673222e+00 3.5329806376e+00 
38700 5.1790551547e+00 -4.1689613544e-03 2.0398699734e+00 -3.5331584348e+00 2.0398699734e+00 3.5331584348e+00 
38800 5.1790534629e+00 -4.1503344132e-03 2.0399721612e+00 -3.5333354293e+00 2.0399721612e+00 3.5333354293e+00 
38900 5.1790517922e+00 -4.1317743678e-03 2.0400738873e+00 -3.5335116241e+00 2.0400738873e+00 3.5335116241e+00 
39000 5.1790501424e+00 -4.1132789227e-03 2.0401751535e+00 -3.5336870222e+00 2.0401751535e+00 3.5336870222e+00 
39100 5.1790485130e+00 -4.0948458714e-03 2.0402759613e+00 -3.5338616265e+00 2.0402759613e+00 3.5338616265e+00 
39200 5.1790469040e+00 -4.0764730990e-03 2.0403763124e+00 -3.5340354397e+00 2.0403763124e+00 3.5340354397e+00 
39300 5.1790453149e+00 -4.0581585849e-03 2.0404762084e+00 -3.5342084645e+00 2.0404762084e+00 3.5342084645e+00 
39400 5.1790437457e+00 -4.0399004047e-03 2.0405756506e+00 -3.5343807036e+00 2.0405756506e+00 3.5343807036e+00 
39500 5.1790421960e+00 -4.0216967319e-03 2.0406746407e+00 -3.5345521594e+00 2.0406746407e+00 3.5345521594e+00 
39600 5.1790406655e+00 -4.0035458395e-03 2.0407731799e+00 -3.5347228343e+00 2.0407731799e+00 3.5347228343e+00 
39700 5.1790391541e+00 -3.9854461003e-03 2.0408712696e+00 -3.5348927307e+00 2.0408712696e+00 3.5348927307e+00 
39800 5.1790376614e+00 -3.9673959881e-03 2.0409689112e+00 -3.5350618509e+00 2.0409689112e+00 3.5350618509e+00 
39900 5.1790361873e+00 -3.9493940775e-03 2.0410661059e+00 -3.5352301970e+00 2.0410661059e+00 3.5352301970e+00 
40000 5.1790347316e+00 -3.9314390441e-03 2.0411628550e+00 -3.5353977713e+00 2.0411628550e+00 3.5353977713e+00 
40100 5.1790332939e+00 -3.9135296640e-03 2.0412591596e+00 -3.5355645759e+00 2.0412591596e+00 3.5355645759e+00 
40200 5.1790318741e+00 -3.8956648130e-03 2.0413550211e+00 -3.5357306128e+00 2.0413550211e+00 3.5357306128e+00 
40300 5.1790304719e+00 -3.8778434657e-03 2.0414504404e+00 -3.5358958839e+00 2.0414504404e+00 3.5358958839e+00 
40400 5.1790290871e+00 -3.8600646946e-03 2.0415454188e+00 -3.5360603913e+00 2.0415454188e+00 3.5360603913e+00 
40500 5.1790277195e+00 -3.8423276679e-03 2.0416399573e+00 -3.5362241369e+00 2.0416399573e+00 3.5362241369e+00 
40600 5.1790263689e+00 -3.8246316485e-03 2.0417340571e+00 -3.5363871225e+00 2.0417340571e+00 3.5363871225e+00 
40700 5.1790250350e+00 -3.8069759916e-03 2.0418277192e+00 -3.5365493499e+00 2.0418277192e+00 3.5365493499e+00 
40800 5.1790237177e+00 -3.7893601430e-03 2.0419209446e+00 -3.5367108211e+00 2.0419209446e+00 3.5367108211e+00 
40900 5.1790224168e+00 -3.7717836362e-03 2.0420137344e+00 -3.5368715378e+00 2.0420137344e+00 3.5368715378e+00 
41000 5.1790211320e+00 -3.7542460905e-03 2.0421060896e+00 -3.5370315017e+00 2.0421060896e+00 3.5370315017e+00 
41100 5.1790198631e+00 -3.7367472080e-03 2.0421980112e+00 -3.5371907146e+00 2.0421980112e+00 3.5371907146e+00 
41200 5.1790186099e+00 -3.7192867709e-03 2.0422895003e+00 -3.5373491783e+00 2.0422895003e+00 3.5373491783e+00 
41300 5.1790173723e+00 -3.7018646387e-03 2.0423805578e+00 -3.5375068944e+00 2.0423805578e+00 3.5375068944e+00 
41400 5.1790161500e+00 -3.6844807450e-03 2.0424711847e+00 -3.5376638648e+00 2.0424711847e+00 3.5376638648e+00 
41500 5.1790149429e+00 -3.6671350945e-03 2.0425613820e+00 -3.5378200911e+00 2.0425613820e+00 3.5378200911e+00 
41600 5.1790137508e+00 -3.6498277599e-03 2.0426511507e+00 -3.5379755751e+00 2.0426511507e+00 3.5379755751e+00 
41700 5.1790125734e+00 -3.6325588783e-03 2.0427404918e+00 -3.5381303184e+00 2.0427404918e+00 3.5381303184e+00 
41800 5.1790114106e+00 -3.6153286482e-03 2.0428294063e+00 -3.5382843229e+00 2.0428294063e+00 3.5382843229e+00 
41900 5.1790102622e+00 -3.5981373261e-03 2.0429178952e+00 -3.5384375902e+00 2.0429178952e+00 3.5384375902e+00 
42000 5.1790091280e+00 -3.5809852229e-03 2.0430059595e+00 -3.5385901220e+00 2.0430059595e+00 3.5385901220e+00 
42100 5.1790080079e+00 -3.5638727006e-03 2.0430936002e+00 -3.5387419202e+00 2.0430936002e+00 3.5387419202e+00 
42200 5.1790069016e+00 -3.5468001690e-03 2.0431808184e+00 -3.5388929865e+00 2.0431808184e+00 3.5388929865e+00 
42300 5.1790058091e+00 -3.5297680819e-03 2.0432676151e+00 -3.5390433228e+00 2.0432676151e+00 3.5390433228e+00 
42400 5.1790047300e+00 -3.5127769342e-03 2.0433539912e+00 -3.5391929307e+00 2.0433539912e+00 3.5391929307e+00 
42500 5.1790036644e+00 -3.4958272580e-03 2.0434399480e+00 -3.5393418122e+00 2.0434399480e+00 3.5393418122e+00 
42600 5.1790026119e+00 -3.4789196196e-03 2.0435254864e+00 -3.5394899690e+00 2.0435254864e+00 3.5394899690e+00 
42700 5.1790015724e+00 -3.4620546160e-03 2.0436106075e+00 -3.5396374031e+00 2.0436106075e+00 3.5396374031e+00 
42800 5.1790005458e+00 -3.4452328717e-03 2.0436953125e+00 -3.5397841164e+00 2.0436953125e+00 3.5397841164e+00 
42900 5.1789995318e+00 -3.4284550355e-03 2.0437796024e+00 -3.5399301107e+00 2.0437796024e+00 3.5399301107e+00 
43000 5.1789985305e+00 -3.4117217772e-03 2.0438634783e+00 -3.5400753881e+00 2.0438634783e+00 3.5400753881e+00 
43100 5.1789975414e+00 -3.3950337849e-03 2.0439469414e+00 -3.5402199505e+00 2.0439469414e+00 3.5402199505e+00 
43200 5.1789965647e+00 -3.3783917613e-03 2.0440299929e+00 -3.5403637999e+00 2.0440299929e+00 3.5403637999e+00 
43300 5.1789956000e+00 -3.3617964217e-03 2.0441126339e+00 -3.5405069384e+00 2.0441126339e+00 3.5405069384e+00 
43400 5.1789946472e+00 -3.3452484902e-03 2.0441948657e+00 -3.5406493679e+00 2.0441948657e+00 3.5406493679e+00 
43500 5.1789937062e+00 -3.3287486978e-03 2.0442766894e+00 -3.5407910907e+00 2.0442766894e+00 3.5407910907e+00 
43600 5.1789927768e+00 -3.3122977792e-03 2.0443581062e+00 -3.5409321088e+00 2.0443581062e+00 3.5409321088e+00 
43700 5.1789918588e+00 -3.2958964705e-03 2.0444391174e+00 -3.5410724244e+00 2.0444391174e+00 3.5410724244e+00 
43800 5.1789909523e+00 -3.2795455067e-03 2.0445197243e+00 -3.5412120396e+00 2.0445197243e+00 3.5412120396e+00 
43900 5.1789900569e+00 -3.2632456195e-03 2.0445999282e+00 -3.5413509568e+00 2.0445999282e+00 3.5413509568e+00 
44000 5.1789891725e+00 -3.2469975347e-03 2.0446797303e+00 -3.5414891780e+00 2.0446797303e+00 3.5414891780e+00 
44100 5.1789882991e+00 -3.2308019705e-03 2.0447591319e+00 -3.5416267057e+00 2.0447591319e+00 3.5416267057e+00 
44200 5.1789874365e+00 -3.2146596354e-03 2.0448381344e+00 -3.5417635421e+00 2.0448381344e+00 3.5417635421e+00 
44300 5.1789865844e+00 -3.1985712260e-03 2.0449167392e+00 -3.5418996895e+00 2.0449167392e+00 3.5418996895e+00 
44400 5.1789857430e+00 -3.1825374257e-03 2.0449949476e+00 -3.5420351504e+00 2.0449949476e+00 3.5420351504e+00 
44500 5.1789849118e+00 -3.1665589027e-03 2.0450727609e+00 -3.5421699270e+00 2.0450727609e+00 3.5421699270e+00 
44600 5.1789840910e+00 -3.1506363086e-03 2.0451501806e+00 -3.5423040219e+00 2.0451501806e+00 3.5423040219e+00 
44700 5.1789832802e+00 -3.1347702770e-03 2.0452272081e+00 -3.5424374375e+00 2.0452272081e+00 3.5424374375e+00 
44800 5.1789824795e+00 -3.1189614221e-03 2.0453038448e+00 -3.5425701761e+00 2.0453038448e+00 3.5425701761e+00 
44900 5.1789816886e+00 -3.1032103373e-03 2.0453800922e+00 -3.5427022405e+00 2.0453800922e+00 3.5427022405e+00 
45000 5.1789809074e+00 -3.0875175947e-03 2.0454559517e+00 -3.5428336329e+00 2.0454559517e+00 3.5428336329e+00 
45100 5.1789801359e+00 -3.0718837434e-03 2.0455314247e+00 -3.5429643561e+00 2.0455314247e+00 3.5429643561e+00 
45200 5.1789793739e+00 -3.0563093091e-03 2.0456065129e+00 -3.5430944126e+00 2.0456065129e+00 3.5430944126e+00 
45300 5.1789786213e+00 -3.0407947932e-03 2.0456812175e+00 -3.5432238049e+00 2.0456812175e+00 3.5432238049e+00 
45400 5.1789778779e+00 -3.0253406721e-03 2.0457555403e+00 -3.5433525357e+00 2.0457555403e+00 3.5433525357e+00 
45500 5.1789771437e+00 -3.0099473966e-03 2.0458294826e+00 -3.5434806076e+00 2.0458294826e+00 3.5434806076e+00 
45600 5.1789764186e+00 -2.9946153916e-03 2.0459030461e+00 -3.5436080232e+00 2.0459030461e+00 3.5436080232e+00 
45700 5.1789757023e+00 -2.9793450554e-03 2.0459762322e+00 -3.5437347852e+00 2.0459762322e+00 3.5437347852e+00 
45800 5.1789749949e+00 -2.9641367597e-03 2.0460490425e+00 -3.5438608964e+00 2.0460490425e+00 3.5438608964e+00 
45900 5.1789742962e+00 -2.9489908495e-03 2.0461214785e+00 -3.5439863593e+00 2.0461214785e+00 3.5439863593e+00 
46000 5.1789736061e+00 -2.9339076426e-03 2.0461935419e+00 -3.5441111767e+00 2.0461935419e+00 3.5441111767e+00 
46100 5.1789729244e+00 -2.9188874299e-03 2.0462652342e+00 -3.5442353513e+00 2.0462652342e+00 3.5442353513e+00 
46200 5.1789722512e+00 -2.9039304752e-03 2.0463365569e+00 -3.5443588859e+00 2.0463365569e+00 3.5443588859e+00 
46300 5.1789715862e+00 -2.8890370156e-03 2.0464075117e+00 -3.5444817832e+00 2.0464075117e+00 3.5444817832e+00 
46400 5.1789709295e+00 -2.8742072614e-03 2.0464781001e+00 -3.5446040459e+00 2.0464781001e+00 3.5446040459e+00 
46500 5.1789702808e+00 -2.8594413968e-03 2.0465483238e+00 -3.5447256769e+00 2.0465483238e+00 3.5447256769e+00 
46600 5.1789696400e+00 -2.8447395796e-03 2.0466181843e+00 -3.5448466788e+00 2.0466181843e+00 3.5448466788e+00 
46700 5.1789690072e+00 -2.8301019423e-03 2.0466876832e+00 -3.5449670545e+00 2.0466876832e+00 3.5449670545e+00 
46800 5.1789683821e+00 -2.8155285918e-03 2.0467568222e+00 -3.5450868067e+00 2.0467568222e+00 3.5450868067e+00 
46900 5.1789677647e+00 -2.8010196105e-03 2.0468256028e+00 -3.5452059383e+00 2.0468256028e+00 3.5452059383e+00 
47000 5.1789671549e+00 -2.7865750566e-03 2.0468940267e+00 -3.5453244519e+00 2.0468940267e+00 3.5453244519e+00 
47100 5.1789665526e+00 -2.7721949647e-03 2.0469620954e+00 -3.5454423505e+00 2.0469620954e+00 3.5454423505e+00 
47200 5.1789659577e+00 -2.7578793464e-03 2.0470298107e+00 -3.5455596367e+00 2.0470298107e+00 3.5455596367e+00 
47300 5.1789653701e+00 -2.7436281910e-03 2.0470971740e+00 -3.5456763134e+00 2.0470971740e+00 3.5456763134e+00 
47400 5.1789647897e+00 -2.7294414662e-03 2.0471641870e+00 -3.5457923833e+00 2.0471641870e+00 3.5457923833e+00 
47500 5.1789642164e+00 -2.7153191189e-03 2.0472308513e+00 -3.5459078493e+00 2.0472308513e+00 3.5459078493e+00 
47600 5.1789636502e+00 -2.7012610757e-03 2.0472971686e+00 -3.5460227141e+00 2.0472971686e+00 3.5460227141e+00 
47700 5.1789630910e+00 -2.6872672442e-03 2.0473631403e+00 -3.5461369806e+00 2.0473631403e+00 3.5461369806e+00 
47800 5.1789625386e+00 -2.6733375132e-03 2.0474287682e+00 -3.5462506514e+00 2.0474287682e+00 3.5462506514e+00 
47900 5.1789619930e+00 -2.6594717538e-03 2.0474940538e+00 -3.5463637293e+00 2.0474940538e+00 3.5463637293e+00 
48000 5.1789614540e+00 -2.6456698203e-03 2.0475589987e+00 -3.5464762172e+00 2.0475589987e+00 3.5464762172e+00 
48100 5.1789609217e+00 -2.6319315510e-03 2.0476236045e+00 -3.5465881177e+00 2.0476236045e+00 3.5465881177e+00 
48200 5.1789603960e+00 -2.6182567688e-03 2.0476878728e+00 -3.5466994336e+00 2.0476878728e+00 3.5466994336e+00 
48300 5.1789598767e+00 -2.6046452825e-03 2.0477518051e+00 -3.5468101677e+00 2.0477518051e+00 3.5468101677e+00 
48400 5.1789593637e+00 -2.5910968871e-03 2.0478154031e+00 -3.5469203227e+00 2.0478154031e+00 3.5469203227e+00 
48500 5.1789588571e+00 -2.5776113654e-03 2.0478786684e+00 -3.5470299013e+00 2.0478786684e+00 3.5470299013e+00 
48600 5.1789583566e+00 -2.5641884879e-03 2.0479416024e+00 -3.5471389062e+00 2.0479416024e+00 3.5471389062e+00 
48700 5.1789578623e+00 -2.5508280145e-03 2.0480042067e+00 -3.5472473402e+00 2.0480042067e+00 3.5472473402e+00 
48800 5.1789573741e+00 -2.5375296949e-03 2.0480664830e+00 -3.5473552058e+00 2.0480664830e+00 3.5473552058e+00 
48900 5.1789568918e+00 -2.5242932695e-03 2.0481284327e+00 -3.5474625059e+00 2.0481284327e+00 3.5474625059e+00 
49000 5.1789564155e+00 -2.5111184701e-03 2.0481900574e+00 -3.5475692430e+00 2.0481900574e+00 3.5475692430e+00 
49100 5.1789559450e+00 -2.4980050210e-03 2.0482513586e+00 -3.5476754198e+00 2.0482513586e+00 3.5476754198e+00 
49200 5.1789554803e+00 -2.4849526395e-03 2.0483123379e+00 -3.5477810390e+00 2.0483123379e+00 3.5477810390e+00 
49300 5.1789550212e+00 -2.4719610369e-03 2.0483729967e+00 -3.5478861032e+00 2.0483729967e+00 3.5478861032e+00 
49400 5.1789545678e+00 -2.4590299188e-03 2.0484333366e+00 -3.5479906150e+00 2.0484333366e+00 3.5479906150e+00 
49500 5.1789541200e+00 -2.4461589866e-03 2.0484933591e+00 -3.5480945770e+00 2.0484933591e+00 3.5480945770e+00 
49600 5.1789536776e+00 -2.4333479374e-03 2.0485530657e+00 -3.5481979918e+00 2.0485530657e+00 3.5481979918e+00 
49700 5.1789532407e+00 -2.4205964652e-03 2.0486124579e+00 -3.5483008621e+00 2.0486124579e+00 3.5483008621e+00 
49800 5.1789528091e+00 -2.4079042612e-03 2.0486715371e+00 -3.5484031903e+00 2.0486715371e+00 3.5484031903e+00 
49900 5.1789523828e+00 -2.3952710149e-03 2.0487303048e+00 -3.5485049790e+00 2.0487303048e+00 3.5485049790e+00 
50000 5.1789519617e+00 -2.3826964142e-03 2.0487887626e+00 -3.5486062307e+00 2.0487887626e+00 3.5486062307e+00 
50100 5.1789515458e+00 -2.3701801463e-03 2.0488469117e+00 -3.5487069481e+00 2.0488469117e+00 3.5487069481e+00 
50200 5.1789511350e+00 -2.3577218982e-03 2.0489047538e+00 -3.5488071335e+00 2.0489047538e+00 3.5488071335e+00 
50300 5.1789507292e+00 -2.3453213572e-03 2.0489622902e+00 -3.5489067895e+00 2.0489622902e+00 3.5489067895e+00 
50400 5.1789503283e+00 -2.3329782114e-03 2.0490195224e+00 -3.5490059186e+00 2.0490195224e+00 3.5490059186e+00 
50500 5.1789499324e+00 -2.3206921501e-03 2.0490764518e+00 -3.5491045232e+00 2.0490764518e+00 3.5491045232e+00 
50600 5.1789495413e+00 -2.3084628645e-03 2.0491330799e+00 -3.5492026058e+00 2.0491330799e+00 3.5492026058e+00 
50700 5.1789491550e+00 -2.2962900478e-03 2.0491894079e+00 -3.5493001688e+00 2.0491894079e+00 3.5493001688e+00 
50800 5.1789487735e+00 -2.2841733957e-03 2.0492454374e+00 -3.5493972147e+00 2.0492454374e+00 3.5493972147e+00 
50900 5.1789483966e+00 -2.2721126070e-03 2.0493011697e+00 -3.5494937459e+00 2.0493011697e+00 3.5494937459e+00 
51000 5.1789480243e+00 -2.2601073835e-03 2.0493566062e+00 -3.5495897648e+00 2.0493566062e+00 3.5495897648e+00 
51100 5.1789476566e+00 -2.2481574309e-03 2.0494117484e+00 -3.5496852738e+00 2.0494117484e+00 3.5496852738e+00 
51200 5.1789472934e+00 -2.2362624583e-03 2.0494665974e+00 -3.5497802752e+00 2.0494665974e+00 3.5497802752e+00 
51300 5.1789469346e+00 -2.2244221791e-03 2.0495211549e+00 -3.5498747714e+00 2.0495211549e+00 3.5498747714e+00 
51400 5.1789465802e+00 -2.2126363112e-03 2.0495754220e+00 -3.5499687648e+00 2.0495754220e+00 3.5499687648e+00 
51500 5.1789462301e+00 -2.2009045767e-03 2.0496294001e+00 -3.5500622577e+00 2.0496294001e+00 3.5500622577e+00 
51600 5.1789458843e+00 -2.1892267025e-03 2.0496830907e+00 -3.5501552525e+00 2.0496830907e+00 3.5501552525e+00 
51700 5.1789455428e+00 -2.1776024206e-03 2.0497364949e+00 -3.5502477514e+00 2.0497364949e+00 3.5502477514e+00 
51800 5.1789452054e+00 -2.1660314676e-03 2.0497896143e+00 -3.5503397567e+00 2.0497896143e+00 3.5503397567e+00 
51900 5.1789448722e+00 -2.1545135855e-03 2.0498424499e+00 -3.5504312708e+00 2.0498424499e+00 3.5504312708e+00 
52000 5.1789445430e+00 -2.1430485213e-03 2.0498950033e+00 -3.5505222959e+00 2.0498950033e+00 3.5505222959e+00 
52100 5.1789442178e+00 -2.1316360273e-03 2.0499472757e+00 -3.5506128343e+00 2.0499472757e+00 3.5506128343e+00 
52200 5.1789438967e+00 -2.1202758612e-03 2.0499992684e+00 -3.5507028883e+00 2.0499992684e+00 3.5507028883e+00 
52300 5.1789435794e+00 -2.1089677860e-03 2.0500509827e+00 -3.5507924601e+00 2.0500509827e+00 3.5507924601e+00 
52400 5.1789432661e+00 -2.0977115699e-03 2.0501024198e+00 -3.5508815519e+00 2.0501024198e+00 3.5508815519e+00 
52500 5.1789429565e+00 -2.0865069864e-03 2.0501535812e+00 -3.5509701659e+00 2.0501535812e+00 3.5509701659e+00 
52600 5.1789426508e+00 -2.0753538145e-03 2.0502044680e+00 -3.5510583045e+00 2.0502044680e+00 3.5510583045e+00 
52700 5.1789423487e+00 -2.0642518382e-03 2.0502550815e+00 -3.5511459697e+00 2.0502550815e+00 3.5511459697e+00 
52800 5.1789420504e+00 -2.0532008469e-03 2.0503054231e+00 -3.5512331638e+00 2.0503054231e+00 3.5512331638e+00 
52900 5.1789417557e+00 -2.0422006349e-03 2.0503554939e+00 -3.5513198890e+00 2.0503554939e+00 3.5513198890e+00 
53000 5.1789414646e+00 -2.0312510017e-03 2.0504052952e+00 -3.5514061475e+00 2.0504052952e+00 3.5514061475e+00 
53100 5.1789411771e+00 -2.0203517515e-03 2.0504548284e+00 -3.5514919413e+00 2.0504548284e+00 3.5514919413e+00 
53200 5.1789408931e+00 -2.0095026935e-03 2.0505040945e+00 -3.5515772728e+00 2.0505040945e+00 3.5515772728e+00 
53300 5.1789406125e+00 -1.9987036415e-03 2.0505530949e+00 -3.5516621440e+00 2.0505530949e+00 3.5516621440e+00 
53400 5.1789403354e+00 -1.9879544138e-03 2.0506018308e+00 -3.5517465571e+00 2.0506018308e+00 3.5517465571e+00 
53500 5.1789400616e+00 -1.9772548332e-03 2.0506503035e+00 -3.5518305142e+00 2.0506503035e+00 3.5518305142e+00 
53600 5.1789397912e+00 -1.9666047267e-03 2.0506985141e+00 -3.5519140174e+00 2.0506985141e+00 3.5519140174e+00 
53700 5.1789395241e+00 -1.9560039254e-03 2.0507464639e+00 -3.5519970689e+00 2.0507464639e+00 3.5519970689e+00 
53800 5.1789392603e+00 -1.9454522643e-03 2.0507941541e+00 -3.5520796708e+00 2.0507941541e+00 3.5520796708e+00 
53900 5.1789389997e+00 -1.9349495821e-03 2.0508415860e+00 -3.5521618252e+00 2.0508415860e+00 3.5521618252e+00 
54000 5.1789387423e+00 -1.9244957213e-03 2.0508887607e+00 -3.5522435342e+00 2.0508887607e+00 3.5522435342e+00 
54100 5.1789384880e+00 -1.9140905277e-03 2.0509356795e+00 -3.5523247999e+00 2.0509356795e+00 3.5523247999e+00 
54200 5.1789382368e+00 -1.9037338502e-03 2.0509823435e+00 -3.5524056243e+00 2.0509823435e+00 3.5524056243e+00 
54300 5.1789379887e+00 -1.8934255410e-03 2.0510287539e+00 -3.5524860096e+00 2.0510287539e+00 3.5524860096e+00 
54400 5.1789377436e+00 -1.8831654548e-03 2.0510749121e+00 -3.5525659578e+00 2.0510749121e+00 3.5525659578e+00 
54500 5.1789375015e+00 -1.8729534494e-03 2.0511208190e+00 -3.5526454710e+00 2.0511208190e+00 3.5526454710e+00 
54600 5.1789372623e+00 -1.8627893848e-03 2.0511664760e+00 -3.5527245513e+00 2.0511664760e+00 3.5527245513e+00 
54700 5.1789370261e+00 -1.8526731233e-03 2.0512118842e+00 -3.5528032006e+00 2.0512118842e+00 3.5528032006e+00 
54800 5.1789367927e+00 -1.8426045294e-03 2.0512570449e+00 -3.5528814211e+00 2.0512570449e+00 3.5528814211e+00 
54900 5.1789365622e+00 -1.8325834696e-03 2.0513019591e+00 -3.5529592148e+00 2.0513019591e+00 3.5529592148e+00 
55000 5.1789363345e+00 -1.8226098120e-03 2.0513466280e+00 -3.5530365837e+00 2.0513466280e+00 3.5530365837e+00 
55100 5.1789361096e+00 -1.8126834263e-03 2.0513910529e+00 -3.5531135298e+00 2.0513910529e+00 3.5531135298e+00 
55200 5.1789358874e+00 -1.8028041837e-03 2.0514352349e+00 -3.5531900552e+00 2.0514352349e+00 3.5531900552e+00 
55300 5.1789356680e+00 -1.7929719563e-03 2.0514791751e+00 -3.5532661619e+00 2.0514791751e+00 3.5532661619e+00 
55400 5.1789354512e+00 -1.7831866177e-03 2.0515228747e+00 -3.5533418519e+00 2.0515228747e+00 3.5533418519e+00 
55500 5.1789352371e+00 -1.7734480420e-03 2.0515663350e+00 -3.5534171272e+00 2.0515663350e+00 3.5534171272e+00 
55600 5.1789350255e+00 -1.7637561042e-03 2.0516095569e+00 -3.5534919899e+00 2.0516095569e+00 3.5534919899e+00 
55700 5.1789348166e+00 -1.7541106799e-03 2.0516525418e+00 -3.5535664418e+00 2.0516525418e+00 3.5535664418e+00 
55800 5.1789346102e+00 -1.7445116448e-03 2.0516952906e+00 -3.5536404850e+00 2.0516952906e+00 3.5536404850e+00 
55900 5.1789344063e+00 -1.7349588753e-03 2.0517378047e+00 -3.5537141215e+00 2.0517378047e+00 3.5537141215e+00 
56000 5.1789342049e+00 -1.7254522476e-03 2.0517800851e+00 -3.5537873533e+00 2.0517800851e+00 3.5537873533e+00 
56100 5.1789340059e+00 -1.7159916379e-03 2.0518221329e+00 -3.5538601823e+00 2.0518221329e+00 3.5538601823e+00 
56200 5.1789338094e+00 -1.7065769226e-03 2.0518639493e+00 -3.5539326104e+00 2.0518639493e+00 3.5539326104e+00 
56300 5.1789336153e+00 -1.6972079773e-03 2.0519055355e+00 -3.5540046398e+00 2.0519055355e+00 3.5540046398e+00 
56400 5.1789334235e+00 -1.6878846776e-03 2.0519468925e+00 -3.5540762722e+00 2.0519468925e+00 3.5540762722e+00 
56500 5.1789332341e+00 -1.6786068986e-03 2.0519880215e+00 -3.5541475097e+00 2.0519880215e+00 3.5541475097e+00 
56600 5.1789330470e+00 -1.6693745145e-03 2.0520289236e+00 -3.5542183543e+00 2.0520289236e+00 3.5542183543e+00 
56700 5.1789328622e+00 -1.6601873991e-03 2.0520695999e+00 -3.5542888077e+00 2.0520695999e+00 3.5542888077e+00 
56800 5.1789326796e+00 -1.6510454254e-03 2.0521100516e+00 -3.5543588721e+00 2.0521100516e+00 3.5543588721e+00 
56900 5.1789324993e+00 -1.6419484653e-03 2.0521502797e+00 -3.5544285492e+00 2.0521502797e+00 3.5544285492e+00 
57000 5.1789323211e+00 -1.6328963900e-03 2.0521902854e+00 -3.5544978411e+00 2.0521902854e+00 3.5544978411e+00 
57100 5.1789321451e+00 -1.6238890696e-03 2.0522300698e+00 -3.5545667497e+00 2.0522300698e+00 3.5545667497e+00 
57200 5.1789319713e+00 -1.6149263730e-03 2.0522696339e+00 -3.5546352768e+00 2.0522696339e+00 3.5546352768e+00 
57300 5.1789317995e+00 -1.6060081682e-03 2.0523089789e+00 -3.5547034243e+00 2.0523089789e+00 3.5547034243e+00 
57400 5.1789316299e+00 -1.5971343218e-03 2.0523481059e+00 -3.5547711942e+00 2.0523481059e+00 3.5547711942e+00 
57500 5.1789314623e+00 -1.5883046992e-03 2.0523870160e+00 -3.5548385884e+00 2.0523870160e+00 3.5548385884e+00 
57600 5.1789312968e+00 -1.5795191646e-03 2.0524257102e+00 -3.5549056088e+00 2.0524257102e+00 3.5549056088e+00 
57700 5.1789311333e+00 -1.5707775808e-03 2.0524641896e+00 -3.5549722571e+00 2.0524641896e+00 3.5549722571e+00 
57800 5.1789309718e+00 -1.5620798094e-03 2.0525024554e+00 -3.5550385354e+00 2.0525024554e+00 3.5550385354e+00 
57900 5.1789308122e+00 -1.5534257105e-03 2.0525405086e+00 -3.5551044454e+00 2.0525405086e+00 3.5551044454e+00 
58000 5.1789306546e+00 -1.5448151428e-03 2.0525783502e+00 -3.5551699891e+00 2.0525783502e+00 3.5551699891e+00 
58100 5.1789304990e+00 -1.5362479637e-03 2.0526159814e+00 -3.5552351682e+00 2.0526159814e+00 3.5552351682e+00 
58200 5.1789303452e+00 -1.5277240292e-03 2.0526534032e+00 -3.5552999847e+00 2.0526534032e+00 3.5552999847e+00 
58300 5.1789301932e+00 -1.5192431940e-03 2.0526906167e+00 -3.5553644404e+00 2.0526906167e+00 3.5553644404e+00 
58400 5.1789300432e+00 -1.5108053111e-03 2.0527276230e+00 -3.5554285371e+00 2.0527276230e+00 3.5554285371e+00 
58500 5.1789298949e+00 -1.5024102325e-03 2.0527644230e+00 -3.5554922767e+00 2.0527644230e+00 3.5554922767e+00 
58600 5.1789297485e+00 -1.4940578084e-03 2.0528010180e+00 -3.5555556609e+00 2.0528010180e+00 3.5555556609e+00 
58700 5.1789296038e+00 -1.4857478881e-03 2.0528374088e+00 -3.5556186917e+00 2.0528374088e+00 3.5556186917e+00 
58800 5.1789294610e+00 -1.4774803193e-03 2.0528735965e+00 -3.5556813707e+00 2.0528735965e+00 3.5556813707e+00 
58900 5.1789293198e+00 -1.4692549483e-03 2.0529095823e+00 -3.5557436999e+00 2.0529095823e+00 3.5557436999e+00 
59000 5.1789291804e+00 -1.4610716204e-03 2.0529453671e+00 -3.5558056810e+00 2.0529453671e+00 3.5558056810e+00 
59100 5.1789290426e+00 -1.4529301795e-03 2.0529809520e+00 -3.5558673158e+00 2.0529809520e+00 3.5558673158e+00 
59200 5.1789289066e+00 -1.4448304682e-03 2.0530163380e+00 -3.5559286061e+00 2.0530163380e+00 3.5559286061e+00 
59300 5.1789287722e+00 -1.4367723281e-03 2.0530515260e+00 -3.5559895537e+00 2.0530515260e+00 3.5559895537e+00 
59400 5.1789286394e+00 -1.4287555995e-03 2.0530865173e+00 -3.5560501603e+00 2.0530865173e+00 3.5560501603e+00 
59500 5.1789285082e+00 -1.4207801217e-03 2.0531213127e+00 -3.5561104277e+00 2.0531213127e+00 3.5561104277e+00 
59600 5.1789283787e+00 -1.4128457328e-03 2.0531559133e+00 -3.5561703577e+00 2.0531559133e+00 3.5561703577e+00 
59700 5.1789282507e+00 -1.4049522702e-03 2.0531903201e+00 -3.5562299520e+00 2.0531903201e+00 3.5562299520e+00 
59800 5.1789281243e+00 -1.3970995700e-03 2.0532245340e+00 -3.5562892123e+00 2.0532245340e+00 3.5562892123e+00 
59900 5.1789279994e+00 -1.3892874675e-03 2.0532585562e+00 -3.5563481405e+00 2.0532585562e+00 3.5563481405e+00 
60000 5.1789278760e+00 -1.3815157973e-03 2.0532923876e+00 -3.5564067381e+00 2.0532923876e+00 3.5564067381e+00 
60100 5.1789277542e+00 -1.3737843930e-03 2.0533260292e+00 -3.5564650070e+00 2.0533260292e+00 3.5564650070e+00 
60200 5.1789276338e+00 -1.3660930875e-03 2.0533594819e+00 -3.5565229489e+00 2.0533594819e+00 3.5565229489e+00 
60300 5.1789275149e+00 -1.3584417129e-03 2.0533927468e+00 -3.5565805654e+00 2.0533927468e+00 3.5565805654e+00 
60400 5.1789273974e+00 -1.3508301009e-03 2.0534258249e+00 -3.5566378583e+00 2.0534258249e+00 3.5566378583e+00 
60500 5.1789272814e+00 -1.3432580824e-03 2.0534587171e+00 -3.5566948293e+00 2.0534587171e+00 3.5566948293e+00 
60600 5.1789271667e+00 -1.3357254878e-03 2.0534914244e+00 -3.5567514800e+00 2.0534914244e+00 3.5567514800e+00 
60700 5.1789270535e+00 -1.3282321470e-03 2.0535239478e+00 -3.5568078121e+00 2.0535239478e+00 3.5568078121e+00 
60800 5.1789269416e+00 -1.3207778895e-03 2.0535562882e+00 -3.5568638273e+00 2.0535562882e+00 3.5568638273e+00 
60900 5.1789268311e+00 -1.3133625445e-03 2.0535884466e+00 -3.5569195273e+00 2.0535884466e+00 3.5569195273e+00 
61000 5.1789267220e+00 -1.3059859407e-03 2.0536204239e+00 -3.5569749136e+00 2.0536204239e+00 3.5569749136e+00 
61100 5.1789266142e+00 -1.2986479067e-03 2.0536522211e+00 -3.5570299881e+00 2.0536522211e+00 3.5570299881e+00 
61200 5.1789265076e+00 -1.2913482708e-03 2.0536838392e+00 -3.5570847522e+00 2.0536838392e+00 3.5570847522e+00 
61300 5.1789264024e+00 -1.2840868612e-03 2.0537152791e+00 -3.5571392077e+00 2.0537152791e+00 3.5571392077e+00 
61400 5.1789262985e+00 -1.2768635058e-03 2.0537465417e+00 -3.5571933561e+00 2.0537465417e+00 3.5571933561e+00 
61500 5.1789261958e+00 -1.2696780327e-03 2.0537776280e+00 -3.5572471991e+00 2.0537776280e+00 3.5572471991e+00 
61600 5.1789260944e+00 -1.2625302698e-03 2.0538085389e+00 -3.5573007384e+00 2.0538085389e+00 3.5573007384e+00 
61700 5.1789259942e+00 -1.2554200452e-03 2.0538392753e+00 -3.5573539754e+00 2.0538392753e+00 3.5573539754e+00 
61800 5.1789258952e+00 -1.2483471869e-03 2.0538698381e+00 -3.5574069117e+00 2.0538698381e+00 3.5574069117e+00 
61900 5.1789257974e+00 -1.2413115231e-03 2.0539002283e+00 -3.5574595491e+00 2.0539002283e+00 3.5574595491e+00 
62000 5.1789257009e+00 -1.2343128822e-03 2.0539304468e+00 -3.5575118890e+00 2.0539304468e+00 3.5575118890e+00 
62100 5.1789256055e+00 -1.2273510929e-03 2.0539604944e+00 -3.5575639331e+00 2.0539604944e+00 3.5575639331e+00 
62200 5.1789255112e+00 -1.2204259839e-03 2.0539903722e+00 -3.5576156829e+00 2.0539903722e+00 3.5576156829e+00 
62300 5.1789254181e+00 -1.2135373845e-03 2.0540200809e+00 -3.5576671399e+00 2.0540200809e+00 3.5576671399e+00 
62400 5.1789253261e+00 -1.2066851240e-03 2.0540496215e+00 -3.5577183057e+00 2.0540496215e+00 3.5577183057e+00 
62500 5.1789252353e+00 -1.1998690325e-03 2.0540789949e+00 -3.5577691820e+00 2.0540789949e+00 3.5577691820e+00 
62600 5.1789251455e+00 -1.1930889401e-03 2.0541082020e+00 -3.5578197701e+00 2.0541082020e+00 3.5578197701e+00 
62700 5.1789250569e+00 -1.1863446776e-03 2.0541372436e+00 -3.5578700716e+00 2.0541372436e+00 3.5578700716e+00 
62800 5.1789249693e+00 -1.1796360760e-03 2.0541661206e+00 -3.5579200881e+00 2.0541661206e+00 3.5579200881e+00 
62900 5.1789248828e+00 -1.1729629672e-03 2.0541948339e+00 -3.5579698210e+00 2.0541948339e+00 3.5579698210e+00 
63000 5.1789247973e+00 -1.1663251834e-03 2.0542233844e+00 -3.5580192719e+00 2.0542233844e+00 3.5580192719e+00 
63100 5.1789247129e+00 -1.1597225572e-03 2.0542517730e+00 -3.5580684423e+00 2.0542517730e+00 3.5580684423e+00 
63200 5.1789246295e+00 -1.1531549220e-03 2.0542800004e+00 -3.5581173336e+00 2.0542800004e+00 3.5581173336e+00 
63300 5.1789245471e+00 -1.1466221118e-03 2.0543080676e+00 -3.5581659475e+00 2.0543080676e+00 3.5581659475e+00 
63400 5.1789244657e+00 -1.1401239611e-03 2.0543359754e+00 -3.5582142852e+00 2.0543359754e+00 3.5582142852e+00 
63500 5.1789243853e+00 -1.1336603052e-03 2.0543637247e+00 -3.5582623483e+00 2.0543637247e+00 3.5582623483e+00 
63600 5.1789243059e+00 -1.1272309800e-03 2.0543913162e+00 -3.5583101384e+00 2.0543913162e+00 3.5583101384e+00 
63700 5.1789242275e+00 -1.1208358219e-03 2.0544187510e+00 -3.5583576567e+00 2.0544187510e+00 3.5583576567e+00 
63800 5.1789241500e+00 -1.1144746683e-03 2.0544460297e+00 -3.5584049048e+00 2.0544460297e+00 3.5584049048e+00 
63900 5.1789240734e+00 -1.1081473571e-03 2.0544731532e+00 -3.5584518842e+00 2.0544731532e+00 3.5584518842e+00 
64000 5.1789239978e+00 -1.1018537271e-03 2.0545001224e+00 -3.5584985962e+00 2.0545001224e+00 3.5584985962e+00 
64100 5.1789239231e+00 -1.0955936175e-03 2.0545269381e+00 -3.5585450423e+00 2.0545269381e+00 3.5585450423e+00 
64200 5.1789238493e+00 -1.0893668686e-03 2.0545536011e+00 -3.5585912239e+00 2.0545536011e+00 3.5585912239e+00 
64300 5.1789237764e+00 -1.0831733213e-03 2.0545801122e+00 -3.5586371425e+00 2.0545801122e+00 3.5586371425e+00 
64400 5.1789237044e+00 -1.0770128172e-03 2.0546064722e+00 -3.5586827994e+00 2.0546064722e+00 3.5586827994e+00 
64500 5.1789236332e+00 -1.0708851988e-03 2.0546326820e+00 -3.5587281961e+00 2.0546326820e+00 3.5587281961e+00 
64600 5.1789235629e+00 -1.0647903091e-03 2.0546587423e+00 -3.5587733338e+00 2.0546587423e+00 3.5587733338e+00 
64700 5.1789234935e+00 -1.0587279922e-03 2.0546846539e+00 -3.5588182142e+00 2.0546846539e+00 3.5588182142e+00 
64800 5.1789234249e+00 -1.0526980928e-03 2.0547104178e+00 -3.5588628384e+00 2.0547104178e+00 3.5588628384e+00 
64900 5.1789233572e+00 -1.0467004563e-03 2.0547360345e+00 -3.5589072079e+00 2.0547360345e+00 3.5589072079e+00 
65000 5.1789232903e+00 -1.0407349290e-03 2.0547615050e+00 -3.5589513241e+00 2.0547615050e+00 3.5589513241e+00 
65100 5.1789232242e+00 -1.0348013579e-03 2.0547868300e+00 -3.5589951883e+00 2.0547868300e+00 3.5589951883e+00 
65200 5.1789231588e+00 -1.0288995908e-03 2.0548120103e+00 -3.5590388019e+00 2.0548120103e+00 3.5590388019e+00 
65300 5.1789230943e+00 -1.0230294761e-03 2.0548370467e+00 -3.5590821662e+00 2.0548370467e+00 3.5590821662e+00 
65400 5.1789230306e+00 -1.0171908632e-03 2.0548619400e+00 -3.5591252826e+00 2.0548619400e+00 3.5591252826e+00 
65500 5.1789229676e+00 -1.0113836021e-03 2.0548866908e+00 -3.5591681523e+00 2.0548866908e+00 3.5591681523e+00 
65600 5.1789229055e+00 -1.0056075436e-03 2.0549113001e+00 -3.5592107769e+00 2.0549113001e+00 3.5592107769e+00 
65700 5.1789228440e+00 -9.9986253923e-04 2.0549357686e+00 -3.5592531575e+00 2.0549357686e+00 3.5592531575e+00 
65800 5.1789227833e+00 -9.9414844119e-04 2.0549600969e+00 -3.5592952954e+00 2.0549600969e+00 3.5592952954e+00 
65900 5.1789227234e+00 -9.8846510248e-04 2.0549842860e+00 -3.5593371921e+00 2.0549842860e+00 3.5593371921e+00 
66000 5.1789226641e+00 -9.8281237678e-04 2.0550083365e+00 -3.5593788487e+00 2.0550083365e+00 3.5593788487e+00 
66100 5.1789226056e+00 -9.7719011851e-04 2.0550322491e+00 -3.5594202667e+00 2.0550322491e+00 3.5594202667e+00 
66200 5.1789225478e+00 -9.7159818274e-04 2.0550560247e+00 -3.5594614472e+00 2.0550560247e+00 3.5594614472e+00 
66300 5.1789224907e+00 -9.6603642528e-04 2.0550796640e+00 -3.5595023916e+00 2.0550796640e+00 3.5595023916e+00 
66400 5.1789224343e+00 -9.6050470258e-04 2.0551031676e+00 -3.5595431011e+00 2.0551031676e+00 3.5595431011e+00 
66500 5.1789223786e+00 -9.5500287179e-04 2.0551265364e+00 -3.5595835771e+00 2.0551265364e+00 3.5595835771e+00 
66600 5.1789223236e+00 -9.4953079070e-04 2.0551497711e+00 -3.5596238208e+00 2.0551497711e+00 3.5596238208e+00 
66700 5.1789222692e+00 -9.4408831777e-04 2.0551728724e+00 -3.5596638334e+00 2.0551728724e+00 3.5596638334e+00 
66800 5.1789222155e+00 -9.3867531208e-04 2.0551958411e+00 -3.5597036162e+00 2.0551958411e+00 3.5597036162e+00 
66900 5.1789221625e+00 -9.3329163336e-04 2.0552186777e+00 -3.5597431705e+00 2.0552186777e+00 3.5597431705e+00 
67000 5.1789221100e+00 -9.2793714195e-04 2.0552413832e+00 -3.5597824975e+00 2.0552413832e+00 3.5597824975e+00 
67100 5.1789220583e+00 -9.2261169880e-04 2.0552639581e+00 -3.5598215985e+00 2.0552639581e+00 3.5598215985e+00 
67200 5.1789220071e+00 -9.1731516547e-04 2.0552864033e+00 -3.5598604746e+00 2.0552864033e+00 3.5598604746e+00 
67300 5.1789219566e+00 -9.1204740409e-04 2.0553087193e+00 -3.5598991271e+00 2.0553087193e+00 3.5598991271e+00 
67400 5.1789219067e+00 -9.0680827739e-04 2.0553309069e+00 -3.5599375572e+00 2.0553309069e+00 3.5599375572e+00 
67500 5.1789218574e+00 -9.0159764866e-04 2.0553529669e+00 -3.5599757661e+00 2.0553529669e+00 3.5599757661e+00 
67600 5.1789218087e+00 -8.9641538175e-04 2.0553748998e+00 -3.5600137551e+00 2.0553748998e+00 3.5600137551e+00 
67700 5.1789217605e+00 -8.9126134106e-04 2.0553967065e+00 -3.5600515254e+00 2.0553967065e+00 3.5600515254e+00 
67800 5.1789217130e+00 -8.8613539152e-04 2.0554183875e+00 -3.5600890780e+00 2.0554183875e+00 3.5600890780e+00 
67900 5.1789216660e+00 -8.8103739862e-04 2.0554399437e+00 -3.5601264143e+00 2.0554399437e+00 3.5601264143e+00 
68000 5.1789216197e+00 -8.7596722834e-04 2.0554613755e+00 -3.5601635354e+00 2.0554613755e+00 3.5601635354e+00 
68100 5.1789215738e+00 -8.7092474719e-04 2.0554826839e+00 -3.5602004425e+00 2.0554826839e+00 3.5602004425e+00 
68200 5.1789215286e+00 -8.6590982217e-04 2.0555038693e+00 -3.5602371368e+00 2.0555038693e+00 3.5602371368e+00 
68300 5.1789214839e+00 -8.6092232081e-04 2.0555249325e+00 -3.5602736194e+00 2.0555249325e+00 3.5602736194e+00 
68400 5.1789214397e+00 -8.5596211109e-04 2.0555458743e+00 -3.5603098915e+00 2.0555458743e+00 3.5603098915e+00 
68500 5.1789213960e+00 -8.5102906148e-04 2.0555666951e+00 -3.5603459542e+00 2.0555666951e+00 3.5603459542e+00 
68600 5.1789213529e+00 -8.4612304095e-04 2.0555873957e+00 -3.5603818088e+00 2.0555873957e+00 3.5603818088e+00 
68700 5.1789213103e+00 -8.4124391890e-04 2.0556079768e+00 -3.5604174563e+00 2.0556079768e+00 3.5604174563e+00 
68800 5.1789212683e+00 -8.3639156521e-04 2.0556284390e+00 -3.5604528978e+00 2.0556284390e+00 3.5604528978e+00 
68900 5.1789212267e+00 -8.3156585020e-04 2.0556487830e+00 -3.5604881346e+00 2.0556487830e+00 3.5604881346e+00 
69000 5.1789211857e+00 -8.2676664466e-04 2.0556690094e+00 -3.5605231678e+00 2.0556690094e+00 3.5605231678e+00 
69100 5.1789211451e+00 -8.2199381980e-04 2.0556891188e+00 -3.5605579984e+00 2.0556891188e+00 3.5605579984e+00 
69200 5.1789211050e+00 -8.1724724727e-04 2.0557091120e+00 -3.5605926276e+00 2.0557091120e+00 3.5605926276e+00 
69300 5.1789210655e+00 -8.1252679917e-04 2.0557289895e+00 -3.5606270565e+00 2.0557289895e+00 3.5606270565e+00 
69400 5.1789210264e+00 -8.0783234799e-04 2.0557487521e+00 -3.5606612862e+00 2.0557487521e+00 3.5606612862e+00 
69500 5.1789209878e+00 -8.0316376668e-04 2.0557684002e+00 -3.5606953178e+00 2.0557684002e+00 3.5606953178e+00 
69600 5.1789209496e+00 -7.9852092858e-04 2.0557879347e+00 -3.5607291524e+00 2.0557879347e+00 3.5607291524e+00 
69700 5.1789209119e+00 -7.9390370747e-04 2.0558073560e+00 -3.5607627911e+00 2.0558073560e+00 3.5607627911e+00 
69800 5.1789208747e+00 -7.8931197753e-04 2.0558266648e+00 -3.5607962350e+00 2.0558266648e+00 3.5607962350e+00 
69900 5.1789208379e+00 -7.8474561335e-04 2.0558458618e+00 -3.5608294851e+00 2.0558458618e+00 3.5608294851e+00 
70000 5.1789208016e+00 -7.8020448991e-04 2.0558649475e+00 -3.5608625426e+00 2.0558649475e+00 3.5608625426e+00 
70100 5.1789207657e+00 -7.7568848262e-04 2.0558839226e+00 -3.5608954085e+00 2.0558839226e+00 3.5608954085e+00 
70200 5.1789207302e+00 -7.7119746729e-04 2.0559027878e+00 -3.5609280838e+00 2.0559027878e+00 3.5609280838e+00 
70300 5.1789206952e+00 -7.6673132011e-04 2.0559215435e+00 -3.5609605697e+00 2.0559215435e+00 3.5609605697e+00 
70400 5.1789206606e+00 -7.6228991768e-04 2.0559401904e+00 -3.5609928671e+00 2.0559401904e+00 3.5609928671e+00 
70500 5.1789206264e+00 -7.5787313701e-04 2.0559587292e+00 -3.5610249772e+00 2.0559587292e+00 3.5610249772e+00 
70600 5.1789205926e+00 -7.5348085550e-04 2.0559771603e+00 -3.5610569009e+00 2.0559771603e+00 3.5610569009e+00 
70700 5.1789205593e+00 -7.4911295092e-04 2.0559954845e+00 -3.5610886393e+00 2.0559954845e+00 3.5610886393e+00 
70800 5.1789205263e+00 -7.4476930149e-04 2.0560137023e+00 -3.5611201934e+00 2.0560137023e+00 3.5611201934e+00 
70900 5.1789204938e+00 -7.4044978577e-04 2.0560318143e+00 -3.5611515643e+00 2.0560318143e+00 3.5611515643e+00 
71000 5.1789204616e+00 -7.3615428277e-04 2.0560498211e+00 -3.5611827530e+00 2.0560498211e+00 3.5611827530e+00 
71100 5.1789204298e+00 -7.3188267185e-04 2.0560677233e+00 -3.5612137605e+00 2.0560677233e+00 3.5612137605e+00 
71200 5.1789203985e+00 -7.2763483279e-04 2.0560855214e+00 -3.5612445878e+00 2.0560855214e+00 3.5612445878e+00 
71300 5.1789203675e+00 -7.2341064578e-04 2.0561032161e+00 -3.5612752359e+00 2.0561032161e+00 3.5612752359e+00 
71400 5.1789203368e+00 -7.1920999139e-04 2.0561208079e+00 -3.5613057058e+00 2.0561208079e+00 3.5613057058e+00 
71500 5.1789203066e+00 -7.1503275058e-04 2.0561382974e+00 -3.5613359985e+00 2.0561382974e+00 3.5613359985e+00 
71600 5.1789202767e+00 -7.1087880476e-04 2.0561556852e+00 -3.5613661151e+00 2.0561556852e+00 3.5613661151e+00 
71700 5.1789202472e+00 -7.0674803569e-04 2.0561729718e+00 -3.5613960564e+00 2.0561729718e+00 3.5613960564e+00 
71800 5.1789202180e+00 -7.0264032555e-04 2.0561901579e+00 -3.5614258234e+00 2.0561901579e+00 3.5614258234e+00 
71900 5.1789201892e+00 -6.9855555695e-04 2.0562072439e+00 -3.5614554173e+00 2.0562072439e+00 3.5614554173e+00 
72000 5.1789201607e+00 -6.9449361289e-04 2.0562242304e+00 -3.5614848388e+00 2.0562242304e+00 3.5614848388e+00 
72100 5.1789201326e+00 -6.9045437677e-04 2.0562411180e+00 -3.5615140890e+00 2.0562411180e+00 3.5615140890e+00 
72200 5.1789201048e+00 -6.8643773241e-04 2.0562579073e+00 -3.5615431689e+00 2.0562579073e+00 3.5615431689e+00 
72300 5.1789200774e+00 -6.8244356406e-04 2.0562745987e+00 -3.5615720793e+00 2.0562745987e+00 3.5615720793e+00 
72400 5.1789200503e+00 -6.7847175636e-04 2.0562911929e+00 -3.5616008213e+00 2.0562911929e+00 3.5616008213e+00 
72500 5.1789200235e+00 -6.7452219439e-04 2.0563076904e+00 -3.5616293958e+00 2.0563076904e+00 3.5616293958e+00 
72600 5.1789199971e+00 -6.7059476364e-04 2.0563240917e+00 -3.5616578037e+00 2.0563240917e+00 3.5616578037e+00 
72700 5.1789199709e+00 -6.6668935001e-04 2.0563403974e+00 -3.5616860460e+00 2.0563403974e+00 3.5616860460e+00 
72800 5.1789199451e+00 -6.6280583985e-04 2.0563566080e+00 -3.5617141236e+00 2.0563566080e+00 3.5617141236e+00 
72900 5.1789199196e+00 -6.5894411993e-04 2.0563727241e+00 -3.5617420374e+00 2.0563727241e+00 3.5617420374e+00 
73000 5.1789198944e+00 -6.5510407742e-04 2.0563887461e+00 -3.5617697883e+00 2.0563887461e+00 3.5617697883e+00 
73100 5.1789198695e+00 -6.5128559997e-04 2.0564046746e+00 -3.5617973773e+00 2.0564046746e+00 3.5617973773e+00 
73200 5.1789198450e+00 -6.4748857562e-04 2.0564205102e+00 -3.5618248053e+00 2.0564205102e+00 3.5618248053e+00 
73300 5.1789198207e+00 -6.4371289286e-04 2.0564362533e+00 -3.5618520732e+00 2.0564362533e+00 3.5618520732e+00 
73400 5.1789197967e+00 -6.3995844064e-04 2.0564519045e+00 -3.5618791819e+00 2.0564519045e+00 3.5618791819e+00 
73500 5.1789197730e+00 -6.3622510831e-04 2.0564674643e+00 -3.5619061322e+00 2.0564674643e+00 3.5619061322e+00 
73600 5.1789197496e+00 -6.3251278569e-04 2.0564829332e+00 -3.5619329252e+00 2.0564829332e+00 3.5619329252e+00 
73700 5.1789197264e+00 -6.2882136303e-04 2.0564983117e+00 -3.5619595615e+00 2.0564983117e+00 3.5619595615e+00 
73800 5.1789197036e+00 -6.2515073103e-04 2.0565136004e+00 -3.5619860423e+00 2.0565136004e+00 3.5619860423e+00 
73900 5.1789196810e+00 -6.2150078083e-04 2.0565287997e+00 -3.5620123683e+00 2.0565287997e+00 3.5620123683e+00 
74000 5.1789196587e+00 -6.1787140404e-04 2.0565439101e+00 -3.5620385403e+00 2.0565439101e+00 3.5620385403e+00 
74100 5.1789196367e+00 -6.1426249269e-04 2.0565589322e+00 -3.5620645594e+00 2.0565589322e+00 3.5620645594e+00 
74200 5.1789196149e+00 -6.1067393928e-04 2.0565738665e+00 -3.5620904262e+00 2.0565738665e+00 3.5620904262e+00 
74300 5.1789195934e+00 -6.0710563677e-04 2.0565887134e+00 -3.5621161418e+00 2.0565887134e+00 3.5621161418e+00 
74400 5.1789195722e+00 -6.0355747855e-04 2.0566034734e+00 -3.5621417069e+00 2.0566034734e+00 3.5621417069e+00 
74500 5.1789195512e+00 -6.0002935849e-04 2.0566181471e+00 -3.5621671225e+00 2.0566181471e+00 3.5621671225e+00 
74600 5.1789195305e+00 -5.9652117091e-04 2.0566327348e+00 -3.5621923893e+00 2.0566327348e+00 3.5621923893e+00 
74700 5.1789195100e+00 -5.9303281058e-04 2.0566472372e+00 -3.5622175081e+00 2.0566472372e+00 3.5622175081e+00 
74800 5.1789194898e+00 -5.8956417273e-04 2.0566616547e+00 -3.5622424799e+00 2.0566616547e+00 3.5622424799e+00 
74900 5.1789194698e+00 -5.8611515307e-04 2.0566759878e+00 -3.5622673055e+00 2.0566759878e+00 3.5622673055e+00 
75000 5.1789194501e+00 -5.8268564775e-04 2.0566902369e+00 -3.5622919857e+00 2.0566902369e+00 3.5622919857e+00 
75100 5.1789194306e+00 -5.7927555339e-04 2.0567044025e+00 -3.5623165213e+00 2.0567044025e+00 3.5623165213e+00 
75200 5.1789194113e+00 -5.7588476706e-04 2.0567184851e+00 -3.5623409131e+00 2.0567184851e+00 3.5623409131e+00 
75300 5.1789193923e+00 -5.7251318632e-04 2.0567324852e+00 -3.5623651620e+00 2.0567324852e+00 3.5623651620e+00 
75400 5.1789193735e+00 -5.6916070917e-04 2.0567464033e+00 -3.5623892688e+00 2.0567464033e+00 3.5623892688e+00 
75500 5.1789193549e+00 -5.6582723407e-04 2.0567602397e+00 -3.5624132342e+00 2.0567602397e+00 3.5624132342e+00 
75600 5.1789193366e+00 -5.6251265996e-04 2.0567739951e+00 -3.5624370591e+00 2.0567739951e+00 3.5624370591e+00 
75700 5.1789193185e+00 -5.5921688624e-04 2.0567876697e+00 -3.5624607443e+00 2.0567876697e+00 3.5624607443e+00 
75800 5.1789193006e+00 -5.5593981277e-04 2.0568012641e+00 -3.5624842906e+00 2.0568012641e+00 3.5624842906e+00 
75900 5.1789192829e+00 -5.5268133986e-04 2.0568147788e+00 -3.5625076987e+00 2.0568147788e+00 3.5625076987e+00 
76000 5.1789192654e+00 -5.4944136831e-04 2.0568282142e+00 -3.5625309695e+00 2.0568282142e+00 3.5625309695e+00 
76100 5.1789192482e+00 -5.4621979937e-04 2.0568415707e+00 -3.5625541037e+00 2.0568415707e+00 3.5625541037e+00 
76200 5.1789192311e+00 -5.4301653475e-04 2.0568548489e+00 -3.5625771021e+00 2.0568548489e+00 3.5625771021e+00 
76300 5.1789192143e+00 -5.3983147661e-04 2.0568680491e+00 -3.5625999654e+00 2.0568680491e+00 3.5625999654e+00 
76400 5.1789191977e+00 -5.3666452760e-04 2.0568811717e+00 -3.5626226946e+00 2.0568811717e+00 3.5626226946e+00 
76500 5.1789191812e+00 -5.3351559080e-04 2.0568942173e+00 -3.5626452902e+00 2.0568942173e+00 3.5626452902e+00 
76600 5.1789191650e+00 -5.3038456978e-04 2.0569071863e+00 -3.5626677531e+00 2.0569071863e+00 3.5626677531e+00 
76700 5.1789191489e+00 -5.2727136855e-04 2.0569200791e+00 -3.5626900841e+00 2.0569200791e+00 3.5626900841e+00 
76800 5.1789191331e+00 -5.2417589158e-04 2.0569328961e+00 -3.5627122838e+00 2.0569328961e+00 3.5627122838e+00 
76900 5.1789191174e+00 -5.2109804379e-04 2.0569456378e+00 -3.5627343531e+00 2.0569456378e+00 3.5627343531e+00 
77000 5.1789191020e+00 -5.1803773057e-04 2.0569583046e+00 -3.5627562927e+00 2.0569583046e+00 3.5627562927e+00 
77100 5.1789190867e+00 -5.1499485776e-04 2.0569708970e+00 -3.5627781032e+00 2.0569708970e+00 3.5627781032e+00 
77200 5.1789190716e+00 -5.1196933165e-04 2.0569834153e+00 -3.5627997855e+00 2.0569834153e+00 3.5627997855e+00 
77300 5.1789190567e+00 -5.0896105898e-04 2.0569958599e+00 -3.5628213404e+00 2.0569958599e+00 3.5628213404e+00 
77400 5.1789190420e+00 -5.0596994695e-04 2.0570082314e+00 -3.5628427684e+00 2.0570082314e+00 3.5628427684e+00 
77500 5.1789190274e+00 -5.0299590320e-04 2.0570205301e+00 -3.5628640704e+00 2.0570205301e+00 3.5628640704e+00 
77600 5.1789190131e+00 -5.0003883582e-04 2.0570327564e+00 -3.5628852470e+00 2.0570327564e+00 3.5628852470e+00 
77700 5.1789189989e+00 -4.9709865335e-04 2.0570449108e+00 -3.5629062990e+00 2.0570449108e+00 3.5629062990e+00 
77800 5.1789189849e+00 -4.9417526477e-04 2.0570569937e+00 -3.5629272271e+00 2.0570569937e+00 3.5629272271e+00 
77900 5.1789189710e+00 -4.9126857950e-04 2.0570690054e+00 -3.5629480320e+00 2.0570690054e+00 3.5629480320e+00 
78000 5.1789189573e+00 -4.8837850741e-04 2.0570809464e+00 -3.5629687144e+00 2.0570809464e+00 3.5629687144e+00 
78100 5.1789189438e+00 -4.8550495880e-04 2.0570928171e+00 -3.5629892750e+00 2.0570928171e+00 3.5629892750e+00 
78200 5.1789189304e+00 -4.8264784443e-04 2.0571046178e+00 -3.5630097146e+00 2.0571046178e+00 3.5630097146e+00 
78300 5.1789189172e+00 -4.7980707545e-04 2.0571163491e+00 -3.5630300337e+00 2.0571163491e+00 3.5630300337e+00 
78400 5.1789189042e+00 -4.7698256350e-04 2.0571280112e+00 -3.5630502331e+00 2.0571280112e+00 3.5630502331e+00 
78500 5.1789188913e+00 -4.7417422061e-04 2.0571396046e+00 -3.5630703135e+00 2.0571396046e+00 3.5630703135e+00 
78600 5.1789188786e+00 -4.7138195926e-04 2.0571511297e+00 -3.5630902756e+00 2.0571511297e+00 3.5630902756e+00 
78700 5.1789188660e+00 -4.6860569236e-04 2.0571625869e+00 -3.5631101199e+00 2.0571625869e+00 3.5631101199e+00 
78800 5.1789188536e+00 -4.6584533323e-04 2.0571739765e+00 -3.5631298474e+00 2.0571739765e+00 3.5631298474e+00 
78900 5.1789188414e+00 -4.6310079564e-04 2.0571852990e+00 -3.5631494584e+00 2.0571852990e+00 3.5631494584e+00 
79000 5.1789188293e+00 -4.6037199375e-04 2.0571965547e+00 -3.5631689539e+00 2.0571965547e+00 3.5631689539e+00 
79100 5.1789188173e+00 -4.5765884218e-04 2.0572077440e+00 -3.5631883344e+00 2.0572077440e+00 3.5631883344e+00 
79200 5.1789188055e+00 -4.5496125593e-04 2.0572188673e+00 -3.5632076005e+00 2.0572188673e+00 3.5632076005e+00 
79300 5.1789187938e+00 -4.5227915045e-04 2.0572299250e+00 -3.5632267530e+00 2.0572299250e+00 3.5632267530e+00 
79400 5.1789187823e+00 -4.4961244158e-04 2.0572409175e+00 -3.5632457924e+00 2.0572409175e+00 3.5632457924e+00 
79500 5.1789187709e+00 -4.4696104560e-04 2.0572518450e+00 -3.5632647195e+00 2.0572518450e+00 3.5632647195e+00 
79600 5.1789187596e+00 -4.4432487916e-04 2.0572627081e+00 -3.5632835349e+00 2.0572627081e+00 3.5632835349e+00 
79700 5.1789187485e+00 -4.4170385936e-04 2.0572735070e+00 -3.5633022392e+00 2.0572735070e+00 3.5633022392e+00 
79800 5.1789187375e+00 -4.3909790370e-04 2.0572842422e+00 -3.5633208331e+00 2.0572842422e+00 3.5633208331e+00 
79900 5.1789187266e+00 -4.3650693005e-04 2.0572949140e+00 -3.5633393172e+00 2.0572949140e+00 3.5633393172e+00 
80000 5.1789187159e+00 -4.3393085673e-04 2.0573055228e+00 -3.5633576921e+00 2.0573055228e+00 3.5633576921e+00 
80100 5.1789187053e+00 -4.3136960244e-04 2.0573160689e+00 -3.5633759585e+00 2.0573160689e+00 3.5633759585e+00 
80200 5.1789186949e+00 -4.2882308627e-04 2.0573265527e+00 -3.5633941170e+00 2.0573265527e+00 3.5633941170e+00 
80300 5.1789186845e+00 -4.2629122772e-04 2.0573369746e+00 -3.5634121682e+00 2.0573369746e+00 3.5634121682e+00 
80400 5.1789186743e+00 -4.2377394670e-04 2.0573473348e+00 -3.5634301127e+00 2.0573473348e+00 3.5634301127e+00 
80500 5.1789186642e+00 -4.2127116347e-04 2.0573576339e+00 -3.5634479512e+00 2.0573576339e+00 3.5634479512e+00 
80600 5.1789186542e+00 -4.1878279874e-04 2.0573678720e+00 -3.5634656842e+00 2.0573678720e+00 3.5634656842e+00 
80700 5.1789186444e+00 -4.1630877355e-04 2.0573780497e+00 -3.5634833124e+00 2.0573780497e+00 3.5634833124e+00 
80800 5.1789186347e+00 -4.1384900938e-04 2.0573881672e+00 -3.5635008364e+00 2.0573881672e+00 3.5635008364e+00 
80900 5.1789186251e+00 -4.1140342807e-04 2.0573982248e+00 -3.5635182567e+00 2.0573982248e+00 3.5635182567e+00 
81000 5.1789186156e+00 -4.0897195184e-04 2.0574082230e+00 -3.5635355741e+00 2.0574082230e+00 3.5635355741e+00 
81100 5.1789186062e+00 -4.0655450330e-04 2.0574181620e+00 -3.5635527889e+00 2.0574181620e+00 3.5635527889e+00 
81200 5.1789185969e+00 -4.0415100545e-04 2.0574280422e+00 -3.5635699020e+00 2.0574280422e+00 3.5635699020e+00 
81300 5.1789185878e+00 -4.0176138167e-04 2.0574378639e+00 -3.5635869138e+00 2.0574378639e+00 3.5635869138e+00 
81400 5.1789185788e+00 -3.9938555569e-04 2.0574476276e+00 -3.5636038249e+00 2.0574476276e+00 3.5636038249e+00 
81500 5.1789185698e+00 -3.9702345165e-04 2.0574573334e+00 -3.5636206359e+00 2.0574573334e+00 3.5636206359e+00 
81600 5.1789185610e+00 -3.9467499405e-04 2.0574669819e+00 -3.5636373475e+00 2.0574669819e+00 3.5636373475e+00 
81700 5.1789185523e+00 -3.9234010776e-04 2.0574765731e+00 -3.5636539601e+00 2.0574765731e+00 3.5636539601e+00 
81800 5.1789185437e+00 -3.9001871801e-04 2.0574861076e+00 -3.5636704743e+00 2.0574861076e+00 3.5636704743e+00 
81900 5.1789185352e+00 -3.8771075043e-04 2.0574955857e+00 -3.5636868908e+00 2.0574955857e+00 3.5636868908e+00 
82000 5.1789185268e+00 -3.8541613100e-04 2.0575050076e+00 -3.5637032100e+00 2.0575050076e+00 3.5637032100e+00 
82100 5.1789185185e+00 -3.8313478605e-04 2.0575143737e+00 -3.5637194326e+00 2.0575143737e+00 3.5637194326e+00 
82200 5.1789185103e+00 -3.8086664231e-04 2.0575236844e+00 -3.5637355591e+00 2.0575236844e+00 3.5637355591e+00 
82300 5.1789185022e+00 -3.7861162684e-04 2.0575329398e+00 -3.5637515900e+00 2.0575329398e+00 3.5637515900e+00 
82400 5.1789184942e+00 -3.7636966709e-04 2.0575421405e+00 -3.5637675260e+00 2.0575421405e+00 3.5637675260e+00 
82500 5.1789184863e+00 -3.7414069084e-04 2.0575512866e+00 -3.5637833675e+00 2.0575512866e+00 3.5637833675e+00 
82600 5.1789184785e+00 -3.7192462625e-04 2.0575603785e+00 -3.5637991151e+00 2.0575603785e+00 3.5637991151e+00 
82700 5.1789184707e+00 -3.6972140184e-04 2.0575694165e+00 -3.5638147694e+00 2.0575694165e+00 3.5638147694e+00 
82800 5.1789184631e+00 -3.6753094647e-04 2.0575784009e+00 -3.5638303309e+00 2.0575784009e+00 3.5638303309e+00 
82900 5.1789184556e+00 -3.6535318936e-04 2.0575873320e+00 -3.5638458001e+00 2.0575873320e+00 3.5638458001e+00 
83000 5.1789184482e+00 -3.6318806008e-04 2.0575962102e+00 -3.5638611776e+00 2.0575962102e+00 3.5638611776e+00 
83100 5.1789184408e+00 -3.6103548857e-04 2.0576050358e+00 -3.5638764639e+00 2.0576050358e+00 3.5638764639e+00 
83200 5.1789184336e+00 -3.5889540509e-04 2.0576138090e+00 -3.5638916595e+00 2.0576138090e+00 3.5638916595e+00 
83300 5.1789184264e+00 -3.5676774027e-04 2.0576225302e+00 -3.5639067650e+00 2.0576225302e+00 3.5639067650e+00 
83400 5.1789184193e+00 -3.5465242509e-04 2.0576311996e+00 -3.5639217809e+00 2.0576311996e+00 3.5639217809e+00 
83500 5.1789184123e+00 -3.5254939085e-04 2.0576398176e+00 -3.5639367077e+00 2.0576398176e+00 3.5639367077e+00 
83600 5.1789184054e+00 -3.5045856923e-04 2.0576483844e+00 -3.5639515459e+00 2.0576483844e+00 3.5639515459e+00 
83700 5.1789183986e+00 -3.4837989222e-04 2.0576569004e+00 -3.5639662961e+00 2.0576569004e+00 3.5639662961e+00 
83800 5.1789183918e+00 -3.4631329217e-04 2.0576653659e+00 -3.5639809587e+00 2.0576653659e+00 3.5639809587e+00 
83900 5.1789183852e+00 -3.4425870178e-04 2.0576737811e+00 -3.5639955342e+00 2.0576737811e+00 3.5639955342e+00 
84000 5.1789183786e+00 -3.4221605406e-04 2.0576821463e+00 -3.5640100233e+00 2.0576821463e+00 3.5640100233e+00 
84100 5.1789183721e+00 -3.4018528239e-04 2.0576904619e+00 -3.5640244263e+00 2.0576904619e+00 3.5640244263e+00 
84200 5.1789183657e+00 -3.3816632046e-04 2.0576987281e+00 -3.5640387437e+00 2.0576987281e+00 3.5640387437e+00 
84300 5.1789183593e+00 -3.3615910232e-04 2.0577069452e+00 -3.5640529762e+00 2.0577069452e+00 3.5640529762e+00 
84400 5.1789183530e+00 -3.3416356234e-04 2.0577151135e+00 -3.5640671241e+00 2.0577151135e+00 3.5640671241e+00 
84500 5.1789183468e+00 -3.3217963521e-04 2.0577232333e+00 -3.5640811880e+00 2.0577232333e+00 3.5640811880e+00 
84600 5.1789183407e+00 -3.3020725599e-04 2.0577313048e+00 -3.5640951683e+00 2.0577313048e+00 3.5640951683e+00 
84700 5.1789183347e+00 -3.2824636003e-04 2.0577393284e+00 -3.5641090655e+00 2.0577393284e+00 3.5641090655e+00 
84800 5.1789183287e+00 -3.2629688304e-04 2.0577473043e+00 -3.5641228802e+00 2.0577473043e+00 3.5641228802e+00 
84900 5.1789183228e+00 -3.2435876104e-04 2.0577552328e+00 -3.5641366128e+00 2.0577552328e+00 3.5641366128e+00 
85000 5.1789183170e+00 -3.2243193039e-04 2.0577631142e+00 -3.5641502637e+00 2.0577631142e+00 3.5641502637e+00 
85100 5.1789183112e+00 -3.2051632775e-04 2.0577709487e+00 -3.5641638335e+00 2.0577709487e+00 3.5641638335e+00 
85200 5.1789183055e+00 -3.1861189014e-04 2.0577787367e+00 -3.5641773227e+00 2.0577787367e+00 3.5641773227e+00 
85300 5.1789182999e+00 -3.1671855488e-04 2.0577864783e+00 -3.5641907316e+00 2.0577864783e+00 3.5641907316e+00 
85400 5.1789182944e+00 -3.1483625962e-04 2.0577941739e+00 -3.5642040608e+00 2.0577941739e+00 3.5642040608e+00 
85500 5.1789182889e+00 -3.1296494233e-04 2.0578018238e+00 -3.5642173107e+00 2.0578018238e+00 3.5642173107e+00 
85600 5.1789182835e+00 -3.1110454129e-04 2.0578094281e+00 -3.5642304818e+00 2.0578094281e+00 3.5642304818e+00 
85700 5.1789182781e+00 -3.0925499512e-04 2.0578169873e+00 -3.5642435746e+00 2.0578169873e+00 3.5642435746e+00 
85800 5.1789182728e+00 -3.0741624274e-04 2.0578245014e+00 -3.5642565895e+00 2.0578245014e+00 3.5642565895e+00 
85900 5.1789182676e+00 -3.0558822340e-04 2.0578319709e+00 -3.5642695270e+00 2.0578319709e+00 3.5642695270e+00 
86000 5.1789182625e+00 -3.0377087664e-04 2.0578393959e+00 -3.5642823875e+00 2.0578393959e+00 3.5642823875e+00 
86100 5.1789182574e+00 -3.0196414234e-04 2.0578467767e+00 -3.5642951715e+00 2.0578467767e+00 3.5642951715e+00 
86200 5.1789182523e+00 -3.0016796068e-04 2.0578541136e+00 -3.5643078793e+00 2.0578541136e+00 3.5643078793e+00 
86300 5.1789182474e+00 -2.9838227215e-04 2.0578614068e+00 -3.5643205116e+00 2.0578614068e+00 3.5643205116e+00 
86400 5.1789182425e+00 -2.9660701756e-04 2.0578686567e+00 -3.5643330686e+00 2.0578686567e+00 3.5643330686e+00 
86500 5.1789182376e+00 -2.9484213802e-04 2.0578758633e+00 -3.5643455510e+00 2.0578758633e+00 3.5643455510e+00 
86600 5.1789182328e+00 -2.9308757496e-04 2.0578830271e+00 -3.5643579589e+00 2.0578830271e+00 3.5643579589e+00 
86700 5.1789182281e+00 -2.9134327009e-04 2.0578901482e+00 -3.5643702930e+00 2.0578901482e+00 3.5643702930e+00 
86800 5.1789182234e+00 -2.8960916545e-04 2.0578972269e+00 -3.5643825537e+00 2.0578972269e+00 3.5643825537e+00 
86900 5.1789182188e+00 -2.8788520338e-04 2.0579042634e+00 -3.5643947413e+00 2.0579042634e+00 3.5643947413e+00 
87000 5.1789182142e+00 -2.8617132652e-04 2.0579112580e+00 -3.5644068564e+00 2.0579112580e+00 3.5644068564e+00 
87100 5.1789182097e+00 -2.8446747781e-04 2.0579182110e+00 -3.5644188993e+00 2.0579182110e+00 3.5644188993e+00 
87200 5.1789182052e+00 -2.8277360048e-04 2.0579251225e+00 -3.5644308704e+00 2.0579251225e+00 3.5644308704e+00 
87300 5.1789182008e+00 -2.8108963808e-04 2.0579319929e+00 -3.5644427702e+00 2.0579319929e+00 3.5644427702e+00 
87400 5.1789181965e+00 -2.7941553444e-04 2.0579388223e+00 -3.5644545991e+00 2.0579388223e+00 3.5644545991e+00 
87500 5.1789181922e+00 -2.7775123371e-04 2.0579456110e+00 -3.5644663575e+00 2.0579456110e+00 3.5644663575e+00 
87600 5.1789181880e+00 -2.7609668032e-04 2.0579523593e+00 -3.5644780459e+00 2.0579523593e+00 3.5644780459e+00 
87700 5.1789181838e+00 -2.7445181898e-04 2.0579590674e+00 -3.5644896646e+00 2.0579590674e+00 3.5644896646e+00 
87800 5.1789181796e+00 -2.7281659471e-04 2.0579657354e+00 -3.5645012140e+00 2.0579657354e+00 3.5645012140e+00 
87900 5.1789181755e+00 -2.7119095283e-04 2.0579723637e+00 -3.5645126946e+00 2.0579723637e+00 3.5645126946e+00 
88000 5.1789181715e+00 -2.6957483894e-04 2.0579789525e+00 -3.5645241067e+00 2.0579789525e+00 3.5645241067e+00 
88100 5.1789181675e+00 -2.6796819892e-04 2.0579855020e+00 -3.5645354508e+00 2.0579855020e+00 3.5645354508e+00 
88200 5.1789181636e+00 -2.6637097896e-04 2.0579920125e+00 -3.5645467272e+00 2.0579920125e+00 3.5645467272e+00 
88300 5.1789181597e+00 -2.6478312551e-04 2.0579984841e+00 -3.5645579364e+00 2.0579984841e+00 3.5645579364e+00 
88400 5.1789181558e+00 -2.6320458533e-04 2.0580049171e+00 -3.5645690787e+00 2.0580049171e+00 3.5645690787e+00 
88500 5.1789181520e+00 -2.6163530545e-04 2.0580113118e+00 -3.5645801546e+00 2.0580113118e+00 3.5645801546e+00 
88600 5.1789181482e+00 -2.6007523319e-04 2.0580176683e+00 -3.5645911644e+00 2.0580176683e+00 3.5645911644e+00 
88700 5.1789181445e+00 -2.5852431615e-04 2.0580239869e+00 -3.5646021085e+00 2.0580239869e+00 3.5646021085e+00 
88800 5.1789181409e+00 -2.5698250220e-04 2.0580302678e+00 -3.5646129873e+00 2.0580302678e+00 3.5646129873e+00 
88900 5.1789181373e+00 -2.5544973951e-04 2.0580365112e+00 -3.5646238012e+00 2.0580365112e+00 3.5646238012e+00 
89000 5.1789181337e+00 -2.5392597651e-04 2.0580427174e+00 -3.5646345506e+00 2.0580427174e+00 3.5646345506e+00 
89100 5.1789181301e+00 -2.5241116192e-04 2.0580488865e+00 -3.5646452358e+00 2.0580488865e+00 3.5646452358e+00 
89200 5.1789181266e+00 -2.5090524473e-04 2.0580550188e+00 -3.5646558573e+00 2.0580550188e+00 3.5646558573e+00 
89300 5.1789181232e+00 -2.4940817419e-04 2.0580611145e+00 -3.5646664153e+00 2.0580611145e+00 3.5646664153e+00 
89400 5.1789181198e+00 -2.4791989985e-04 2.0580671738e+00 -3.5646769103e+00 2.0580671738e+00 3.5646769103e+00 
89500 5.1789181164e+00 -2.4644037151e-04 2.0580731969e+00 -3.5646873427e+00 2.0580731969e+00 3.5646873427e+00 
89600 5.1789181131e+00 -2.4496953926e-04 2.0580791841e+00 -3.5646977128e+00 2.0580791841e+00 3.5646977128e+00 
89700 5.1789181098e+00 -2.4350735343e-04 2.0580851355e+00 -3.5647080209e+00 2.0580851355e+00 3.5647080209e+00 
89800 5.1789181066e+00 -2.4205376465e-04 2.0580910513e+00 -3.5647182675e+00 2.0580910513e+00 3.5647182675e+00 
89900 5.1789181034e+00 -2.4060872380e-04 2.0580969319e+00 -3.5647284529e+00 2.0580969319e+00 3.5647284529e+00 
90000 5.1789181002e+00 -2.3917218202e-04 2.0581027773e+00 -3.5647385775e+00 2.0581027773e+00 3.5647385775e+00 
90100 5.1789180971e+00 -2.3774409073e-04 2.0581085878e+00 -3.5647486416e+00 2.0581085878e+00 3.5647486416e+00 
90200 5.1789180940e+00 -2.3632440160e-04 2.0581143636e+00 -3.5647586455e+00 2.0581143636e+00 3.5647586455e+00 
90300 5.1789180909e+00 -2.3491306656e-04 2.0581201049e+00 -3.5647685897e+00 2.0581201049e+00 3.5647685897e+00 
90400 5.1789180879e+00 -2.3351003783e-04 2.0581258119e+00 -3.5647784745e+00 2.0581258119e+00 3.5647784745e+00 
90500 5.1789180849e+00 -2.3211526784e-04 2.0581314848e+00 -3.5647883003e+00 2.0581314848e+00 3.5647883003e+00 
90600 5.1789180820e+00 -2.3072870931e-04 2.0581371237e+00 -3.5647980673e+00 2.0581371237e+00 3.5647980673e+00 
90700 5.1789180791e+00 -2.2935031522e-04 2.0581427290e+00 -3.5648077759e+00 2.0581427290e+00 3.5648077759e+00 
90800 5.1789180762e+00 -2.2798003879e-04 2.0581483008e+00 -3.5648174265e+00 2.0581483008e+00 3.5648174265e+00 
90900 5.1789180734e+00 -2.2661783350e-04 2.0581538393e+00 -3.5648270194e+00 2.0581538393e+00 3.5648270194e+00 
91000 5.1789180706e+00 -2.2526365309e-04 2.0581593447e+00 -3.5648365550e+00 2.0581593447e+00 3.5648365550e+00 
91100 5.1789180678e+00 -2.2391745152e-04 2.0581648171e+00 -3.5648460336e+00 2.0581648171e+00 3.5648460336e+00 
91200 5.1789180651e+00 -2.2257918306e-04 2.0581702568e+00 -3.5648554555e+00 2.0581702568e+00 3.5648554555e+00 
91300 5.1789180624e+00 -2.2124880216e-04 2.0581756641e+00 -3.5648648211e+00 2.0581756641e+00 3.5648648211e+00 
91400 5.1789180597e+00 -2.1992626358e-04 2.0581810389e+00 -3.5648741306e+00 2.0581810389e+00 3.5648741306e+00 
91500 5.1789180571e+00 -2.1861152228e-04 2.0581863817e+00 -3.5648833845e+00 2.0581863817e+00 3.5648833845e+00 
91600 5.1789180545e+00 -2.1730453349e-04 2.0581916925e+00 -3.5648925830e+00 2.0581916925e+00 3.5648925830e+00 
91700 5.1789180519e+00 -2.1600525269e-04 2.0581969715e+00 -3.5649017266e+00 2.0581969715e+00 3.5649017266e+00 
91800 5.1789180493e+00 -2.1471363557e-04 2.0582022189e+00 -3.5649108154e+00 2.0582022189e+00 3.5649108154e+00 
91900 5.1789180468e+00 -2.1342963810e-04 2.0582074350e+00 -3.5649198499e+00 2.0582074350e+00 3.5649198499e+00 
92000 5.1789180443e+00 -2.1215321647e-04 2.0582126198e+00 -3.5649288303e+00 2.0582126198e+00 3.5649288303e+00 
92100 5.1789180419e+00 -2.1088432711e-04 2.0582177736e+00 -3.5649377570e+00 2.0582177736e+00 3.5649377570e+00 
92200 5.1789180395e+00 -2.0962292670e-04 2.0582228966e+00 -3.5649466302e+00 2.0582228966e+00 3.5649466302e+00 
92300 5.1789180371e+00 -2.0836897214e-04 2.0582279890e+00 -3.5649554504e+00 2.0582279890e+00 3.5649554504e+00 
92400 5.1789180347e+00 -2.0712242059e-04 2.0582330508e+00 -3.5649642178e+00 2.0582330508e+00 3.5649642178e+00 
92500 5.1789180324e+00 -2.0588322941e-04 2.0582380824e+00 -3.5649729327e+00 2.0582380824e+00 3.5649729327e+00 
92600 5.1789180301e+00 -2.0465135622e-04 2.0582430838e+00 -3.5649815955e+00 2.0582430838e+00 3.5649815955e+00 
92700 5.1789180278e+00 -2.0342675888e-04 2.0582480553e+00 -3.5649902064e+00 2.0582480553e+00 3.5649902064e+00 
92800 5.1789180255e+00 -2.0220939544e-04 2.0582529971e+00 -3.5649987658e+00 2.0582529971e+00 3.5649987658e+00 
92900 5.1789180233e+00 -2.0099922424e-04 2.0582579092e+00 -3.5650072739e+00 2.0582579092e+00 3.5650072739e+00 
93000 5.1789180211e+00 -1.9979620379e-04 2.0582627920e+00 -3.5650157310e+00 2.0582627920e+00 3.5650157310e+00 
93100 5.1789180190e+00 -1.9860029287e-04 2.0582676455e+00 -3.5650241376e+00 2.0582676455e+00 3.5650241376e+00 
93200 5.1789180168e+00 -1.9741145045e-04 2.0582724700e+00 -3.5650324938e+00 2.0582724700e+00 3.5650324938e+00 
93300 5.1789180147e+00 -1.9622963577e-04 2.0582772655e+00 -3.5650407999e+00 2.0582772655e+00 3.5650407999e+00 
93400 5.1789180126e+00 -1.9505480826e-04 2.0582820324e+00 -3.5650490564e+00 2.0582820324e+00 3.5650490564e+00 
93500 5.1789180105e+00 -1.9388692757e-04 2.0582867707e+00 -3.5650572633e+00 2.0582867707e+00 3.5650572633e+00 
93600 5.1789180085e+00 -1.9272595361e-04 2.0582914806e+00 -3.5650654211e+00 2.0582914806e+00 3.5650654211e+00 
93700 5.1789180065e+00 -1.9157184647e-04 2.0582961623e+00 -3.5650735301e+00 2.0582961623e+00 3.5650735301e+00 
93800 5.1789180045e+00 -1.9042456649e-04 2.0583008159e+00 -3.5650815904e+00 2.0583008159e+00 3.5650815904e+00 
93900 5.1789180025e+00 -1.8928407419e-04 2.0583054417e+00 -3.5650896025e+00 2.0583054417e+00 3.5650896025e+00 
94000 5.1789180006e+00 -1.8815033036e-04 2.0583100398e+00 -3.5650975666e+00 2.0583100398e+00 3.5650975666e+00 
94100 5.1789179987e+00 -1.8702329596e-04 2.0583146103e+00 -3.5651054829e+00 2.0583146103e+00 3.5651054829e+00 
94200 5.1789179968e+00 -1.8590293220e-04 2.0583191534e+00 -3.5651133518e+00 2.0583191534e+00 3.5651133518e+00 
94300 5.1789179949e+00 -1.8478920047e-04 2.0583236693e+00 -3.5651211736e+00 2.0583236693e+00 3.5651211736e+00 
94400 5.1789179930e+00 -1.8368206241e-04 2.0583281581e+00 -3.5651289485e+00 2.0583281581e+00 3.5651289485e+00 
94500 5.1789179912e+00 -1.8258147985e-04 2.0583326200e+00 -3.5651366768e+00 2.0583326200e+00 3.5651366768e+00 
94600 5.1789179894e+00 -1.8148741483e-04 2.0583370552e+00 -3.5651443587e+00 2.0583370552e+00 3.5651443587e+00 
94700 5.1789179876e+00 -1.8039982961e-04 2.0583414638e+00 -3.5651519946e+00 2.0583414638e+00 3.5651519946e+00 
94800 5.1789179859e+00 -1.7931868665e-04 2.0583458460e+00 -3.5651595848e+00 2.0583458460e+00 3.5651595848e+00 
94900 5.1789179841e+00 -1.7824394862e-04 2.0583502019e+00 -3.5651671294e+00 2.0583502019e+00 3.5651671294e+00 
95000 5.1789179824e+00 -1.7717557841e-04 2.0583545316e+00 -3.5651746288e+00 2.0583545316e+00 3.5651746288e+00 
95100 5.1789179807e+00 -1.7611353909e-04 2.0583588355e+00 -3.5651820832e+00 2.0583588355e+00 3.5651820832e+00 
95200 5.1789179790e+00 -1.7505779397e-04 2.0583631135e+00 -3.5651894930e+00 2.0583631135e+00 3.5651894930e+00 
95300 5.1789179773e+00 -1.7400830652e-04 2.0583673658e+00 -3.5651968582e+00 2.0583673658e+00 3.5651968582e+00 
95400 5.1789179757e+00 -1.7296504046e-04 2.0583715927e+00 -3.5652041794e+00 2.0583715927e+00 3.5652041794e+00 
95500 5.1789179741e+00 -1.7192795967e-04 2.0583757942e+00 -3.5652114566e+00 2.0583757942e+00 3.5652114566e+00 
95600 5.1789179725e+00 -1.7089702825e-04 2.0583799705e+00 -3.5652186902e+00 2.0583799705e+00 3.5652186902e+00 
95700 5.1789179709e+00 -1.6987221051e-04 2.0583841217e+00 -3.5652258803e+00 2.0583841217e+00 3.5652258803e+00 
95800 5.1789179694e+00 -1.6885347094e-04 2.0583882481e+00 -3.5652330274e+00 2.0583882481e+00 3.5652330274e+00 
95900 5.1789179678e+00 -1.6784077422e-04 2.0583923497e+00 -3.5652401316e+00 2.0583923497e+00 3.5652401316e+00 
96000 5.1789179663e+00 -1.6683408527e-04 2.0583964267e+00 -3.5652471931e+00 2.0583964267e+00 3.5652471931e+00 
96100 5.1789179648e+00 -1.6583336915e-04 2.0584004792e+00 -3.5652542123e+00 2.0584004792e+00 3.5652542123e+00 
96200 5.1789179633e+00 -1.6483859116e-04 2.0584045074e+00 -3.5652611894e+00 2.0584045074e+00 3.5652611894e+00 
96300 5.1789179618e+00 -1.6384971676e-04 2.0584085114e+00 -3.5652681246e+00 2.0584085114e+00 3.5652681246e+00 
96400 5.1789179604e+00 -1.6286671162e-04 2.0584124915e+00 -3.5652750181e+00 2.0584124915e+00 3.5652750181e+00 
96500 5.1789179589e+00 -1.6188954161e-04 2.0584164476e+00 -3.5652818703e+00 2.0584164476e+00 3.5652818703e+00 
96600 5.1789179575e+00 -1.6091817277e-04 2.0584203800e+00 -3.5652886814e+00 2.0584203800e+00 3.5652886814e+00 
96700 5.1789179561e+00 -1.5995257134e-04 2.0584242887e+00 -3.5652954516e+00 2.0584242887e+00 3.5652954516e+00 
96800 5.1789179547e+00 -1.5899270375e-04 2.0584281741e+00 -3.5653021812e+00 2.0584281741e+00 3.5653021812e+00 
96900 5.1789179534e+00 -1.5803853662e-04 2.0584320361e+00 -3.5653088704e+00 2.0584320361e+00 3.5653088704e+00 
97000 5.1789179520e+00 -1.5709003674e-04 2.0584358749e+00 -3.5653155194e+00 2.0584358749e+00 3.5653155194e+00 
97100 5.1789179507e+00 -1.5614717111e-04 2.0584396906e+00 -3.5653221285e+00 2.0584396906e+00 3.5653221285e+00 
97200 5.1789179494e+00 -1.5520990690e-04 2.0584434835e+00 -3.5653286979e+00 2.0584434835e+00 3.5653286979e+00 
97300 5.1789179481e+00 -1.5427821147e-04 2.0584472536e+00 -3.5653352279e+00 2.0584472536e+00 3.5653352279e+00 
97400 5.1789179468e+00 -1.5335205235e-04 2.0584510010e+00 -3.5653417186e+00 2.0584510010e+00 3.5653417186e+00 
97500 5.1789179455e+00 -1.5243139727e-04 2.0584547259e+00 -3.5653481704e+00 2.0584547259e+00 3.5653481704e+00 
97600 5.1789179443e+00 -1.5151621414e-04 2.0584584285e+00 -3.5653545835e+00 2.0584584285e+00 3.5653545835e+00 
97700 5.1789179430e+00 -1.5060647103e-04 2.0584621088e+00 -3.5653609580e+00 2.0584621088e+00 3.5653609580e+00 
97800 5.1789179418e+00 -1.4970213622e-04 2.0584657671e+00 -3.5653672942e+00 2.0584657671e+00 3.5653672942e+00 
97900 5.1789179406e+00 -1.4880317813e-04 2.0584694033e+00 -3.5653735924e+00 2.0584694033e+00 3.5653735924e+00 
98000 5.1789179394e+00 -1.4790956540e-04 2.0584730177e+00 -3.5653798527e+00 2.0584730177e+00 3.5653798527e+00 
98100 5.1789179382e+00 -1.4702126681e-04 2.0584766104e+00 -3.5653860755e+00 2.0584766104e+00 3.5653860755e+00 
98200 5.1789179371e+00 -1.4613825133e-04 2.0584801816e+00 -3.5653922609e+00 2.0584801816e+00 3.5653922609e+00 
98300 5.1789179359e+00 -1.4526048812e-04 2.0584837312e+00 -3.5653984091e+00 2.0584837312e+00 3.5653984091e+00 
98400 5.1789179348e+00 -1.4438794649e-04 2.0584872596e+00 -3.5654045203e+00 2.0584872596e+00 3.5654045203e+00 
98500 5.1789179337e+00 -1.4352059593e-04 2.0584907667e+00 -3.5654105949e+00 2.0584907667e+00 3.5654105949e+00 
98600 5.1789179326e+00 -1.4265840611e-04 2.0584942528e+00 -3.5654166329e+00 2.0584942528e+00 3.5654166329e+00 
98700 5.1789179315e+00 -1.4180134686e-04 2.0584977179e+00 -3.5654226347e+00 2.0584977179e+00 3.5654226347e+00 
98800 5.1789179304e+00 -1.4094938820e-04 2.0585011622e+00 -3.5654286003e+00 2.0585011622e+00 3.5654286003e+00 
98900 5.1789179293e+00 -1.4010250028e-04 2.0585045858e+00 -3.5654345302e+00 2.0585045858e+00 3.5654345302e+00 
99000 5.1789179282e+00 -1.3926065346e-04 2.0585079888e+00 -3.5654404244e+00 2.0585079888e+00 3.5654404244e+00 
99100 5.1789179272e+00 -1.3842381826e-04 2.0585113714e+00 -3.5654462832e+00 2.0585113714e+00 3.5654462832e+00 
99200 5.1789179262e+00 -1.3759196533e-04 2.0585147336e+00 -3.5654521067e+00 2.0585147336e+00 3.5654521067e+00 
99300 5.1789179252e+00 -1.3676506554e-04 2.0585180756e+00 -3.5654578953e+00 2.0585180756e+00 3.5654578953e+00 
99400 5.1789179241e+00 -1.3594308988e-04 2.0585213975e+00 -3.5654636490e+00 2.0585213975e+00 3.5654636490e+00 
99500 5.1789179232e+00 -1.3512600953e-04 2.0585246995e+00 -3.5654693682e+00 2.0585246995e+00 3.5654693682e+00 
99600 5.1789179222e+00 -1.3431379583e-04 2.0585279816e+00 -3.5654750530e+00 2.0585279816e+00 3.5654750530e+00 
99700 5.1789179212e+00 -1.3350642028e-04 2.0585312440e+00 -3.5654807036e+00 2.0585312440e+00 3.5654807036e+00 
99800 5.1789179202e+00 -1.3270385453e-04 2.0585344867e+00 -3.5654863202e+00 2.0585344867e+00 3.5654863202e+00 
99900 5.1789179193e+00 -1.3190607040e-04 2.0585377100e+00 -3.5654919030e+00 2.0585377100e+00 3.5654919030e+00 
100000 5.1789179184e+00 -1.3111303988e-04 2.0585409139e+00 -3.5654974523e+00 2.0585409139e+00 3.5654974523e+00 
100100 5.1789179174e+00 -1.3032473510e-04 2.0585440985e+00 -3.5655029682e+00 2.0585440985e+00 3.5655029682e+00 
100200 5.1789179165e+00 -1.2954112836e-04 2.0585472640e+00 -3.5655084510e+00 2.0585472640e+00 3.5655084510e+00 
100300 5.1789179156e+00 -1.2876219212e-04 2.0585504104e+00 -3.5655139007e+00 2.0585504104e+00 3.5655139007e+00 
100400 5.1789179147e+00 -1.2798789898e-04 2.0585535379e+00 -3.5655193177e+00 2.0585535379e+00 3.5655193177e+00 
100500 5.1789179139e+00 -1.2721822172e-04 2.0585566466e+00 -3.5655247021e+00 2.0585566466e+00 3.5655247021e+00 
100600 5.1789179130e+00 -1.2645313325e-04 2.0585597366e+00 -3.5655300541e+00 2.0585597366e+00 3.5655300541e+00 
100700 5.1789179121e+00 -1.2569260666e-04 2.0585628080e+00 -3.5655353739e+00 2.0585628080e+00 3.5655353739e+00 
100800 5.1789179113e+00 -1.2493661517e-04 2.0585658609e+00 -3.5655406618e+00 2.0585658609e+00 3.5655406618e+00 
100900 5.1789179104e+00 -1.2418513215e-04 2.0585688954e+00 -3.5655459178e+00 2.0585688954e+00 3.5655459178e+00 
101000 5.1789179096e+00 -1.2343813115e-04 2.0585719117e+00 -3.5655511421e+00 2.0585719117e+00 3.5655511421e+00 
101100 5.1789179088e+00 -1.2269558585e-04 2.0585749099e+00 -3.5655563351e+00 2.0585749099e+00 3.5655563351e+00 
101200 5.1789179080e+00 -1.2195747008e-04 2.0585778900e+00 -3.5655614968e+00 2.0585778900e+00 3.5655614968e+00 
101300 5.1789179072e+00 -1.2122375783e-04 2.0585808522e+00 -3.5655666274e+00 2.0585808522e+00 3.5655666274e+00 
101400 5.1789179064e+00 -1.2049442322e-04 2.0585837965e+00 -3.5655717272e+00 2.0585837965e+00 3.5655717272e+00 
101500 5.1789179056e+00 -1.1976944053e-04 2.0585867232e+00 -3.5655767963e+00 2.0585867232e+00 3.5655767963e+00 
101600 5.1789179048e+00 -1.1904878419e-04 2.0585896322e+00 -3.5655818349e+00 2.0585896322e+00 3.5655818349e+00 
101700 5.1789179041e+00 -1.1833242878e-04 2.0585925237e+00 -3.5655868431e+00 2.0585925237e+00 3.5655868431e+00 
101800 5.1789179033e+00 -1.1762034900e-04 2.0585953978e+00 -3.5655918212e+00 2.0585953978e+00 3.5655918212e+00 
101900 5.1789179026e+00 -1.1691251971e-04 2.0585982546e+00 -3.5655967694e+00 2.0585982546e+00 3.5655967694e+00 
102000 5.1789179019e+00 -1.1620891593e-04 2.0586010942e+00 -3.5656016877e+00 2.0586010942e+00 3.5656016877e+00 
102100 5.1789179011e+00 -1.1550951280e-04 2.0586039167e+00 -3.5656065765e+00 2.0586039167e+00 3.5656065765e+00 
102200 5.1789179004e+00 -1.1481428561e-04 2.0586067223e+00 -3.5656114358e+00 2.0586067223e+00 3.5656114358e+00 
102300 5.1789178997e+00 -1.1412320979e-04 2.0586095109e+00 -3.5656162659e+00 2.0586095109e+00 3.5656162659e+00 
102400 5.1789178990e+00 -1.1343626092e-04 2.0586122828e+00 -3.5656210668e+00 2.0586122828e+00 3.5656210668e+00 
102500 5.1789178983e+00 -1.1275341469e-04 2.0586150379e+00 -3.5656258389e+00 2.0586150379e+00 3.5656258389e+00 
102600 5.1789178976e+00 -1.1207464697e-04 2.0586177765e+00 -3.5656305823e+00 2.0586177765e+00 3.5656305823e+00 
102700 5.1789178970e+00 -1.1139993375e-04 2.0586204986e+00 -3.5656352971e+00 2.0586204986e+00 3.5656352971e+00 
102800 5.1789178963e+00 -1.1072925114e-04 2.0586232043e+00 -3.5656399835e+00 2.0586232043e+00 3.5656399835e+00 
102900 5.1789178957e+00 -1.1006257541e-04 2.0586258937e+00 -3.5656446417e+00 2.0586258937e+00 3.5656446417e+00 
103000 5.1789178950e+00 -1.0939988296e-04 2.0586285669e+00 -3.5656492718e+00 2.0586285669e+00 3.5656492718e+00 
103100 5.1789178944e+00 -1.0874115033e-04 2.0586312240e+00 -3.5656538740e+00 2.0586312240e+00 3.5656538740e+00 
103200 5.1789178937e+00 -1.0808635419e-04 2.0586338651e+00 -3.5656584486e+00 2.0586338651e+00 3.5656584486e+00 
103300 5.1789178931e+00 -1.0743547133e-04 2.0586364903e+00 -3.5656629955e+00 2.0586364903e+00 3.5656629955e+00 
103400 5.1789178925e+00 -1.0678847869e-04 2.0586390997e+00 -3.5656675151e+00 2.0586390997e+00 3.5656675151e+00 
103500 5.1789178919e+00 -1.0614535335e-04 2.0586416934e+00 -3.5656720075e+00 2.0586416934e+00 3.5656720075e+00 
103600 5.1789178913e+00 -1.0550607250e-04 2.0586442714e+00 -3.5656764728e+00 2.0586442714e+00 3.5656764728e+00 
103700 5.1789178907e+00 -1.0487061347e-04 2.0586468339e+00 -3.5656809112e+00 2.0586468339e+00 3.5656809112e+00 
103800 5.1789178901e+00 -1.0423895372e-04 2.0586493810e+00 -3.5656853229e+00 2.0586493810e+00 3.5656853229e+00 
103900 5.1789178895e+00 -1.0361107085e-04 2.0586519127e+00 -3.5656897079e+00 2.0586519127e+00 3.5656897079e+00 
104000 5.1789178889e+00 -1.0298694258e-04 2.0586544292e+00 -3.5656940666e+00 2.0586544292e+00 3.5656940666e+00 
104100 5.1789178884e+00 -1.0236654675e-04 2.0586569305e+00 -3.5656983990e+00 2.0586569305e+00 3.5656983990e+00 
104200 5.1789178878e+00 -1.0174986133e-04 2.0586594168e+00 -3.5657027053e+00 2.0586594168e+00 3.5657027053e+00 
104300 5.1789178873e+00 -1.0113686444e-04 2.0586618880e+00 -3.5657069857e+00 2.0586618880e+00 3.5657069857e+00 
104400 5.1789178867e+00 -1.0052753430e-04 2.0586643444e+00 -3.5657112402e+00 2.0586643444e+00 3.5657112402e+00 
104500 5.1789178862e+00 -9.9921849251e-05 2.0586667860e+00 -3.5657154692e+00 2.0586667860e+00 3.5657154692e+00 
104600 5.1789178856e+00 -9.9319787786e-05 2.0586692128e+00 -3.5657196726e+00 2.0586692128e+00 3.5657196726e+00 
104700 5.1789178851e+00 -9.8721328504e-05 2.0586716251e+00 -3.5657238507e+00 2.0586716251e+00 3.5657238507e+00 
104800 5.1789178846e+00 -9.8126450129e-05 2.0586740228e+00 -3.5657280037e+00 2.0586740228e+00 3.5657280037e+00 
104900 5.1789178841e+00 -9.7535131507e-05 2.0586764060e+00 -3.5657321316e+00 2.0586764060e+00 3.5657321316e+00 
105000 5.1789178836e+00 -9.6947351610e-05 2.0586787749e+00 -3.5657362346e+00 2.0586787749e+00 3.5657362346e+00 
105100 5.1789178831e+00 -9.6363089530e-05 2.0586811295e+00 -3.5657403129e+00 2.0586811295e+00 3.5657403129e+00 
105200 5.1789178826e+00 -9.5782324475e-05 2.0586834699e+00 -3.5657443666e+00 2.0586834699e+00 3.5657443666e+00 
105300 5.1789178821e+00 -9.5205035781e-05 2.0586857962e+00 -3.5657483958e+00 2.0586857962e+00 3.5657483958e+00 
105400 5.1789178816e+00 -9.4631202897e-05 2.0586881085e+00 -3.5657524008e+00 2.0586881085e+00 3.5657524008e+00 
105500 5.1789178811e+00 -9.4060805391e-05 2.0586904068e+00 -3.5657563817e+00 2.0586904068e+00 3.5657563817e+00 
105600 5.1789178806e+00 -9.3493822954e-05 2.0586926913e+00 -3.5657603385e+00 2.0586926913e+00 3.5657603385e+00 
105700 5.1789178802e+00 -9.2930235387e-05 2.0586949620e+00 -3.5657642715e+00 2.0586949620e+00 3.5657642715e+00 
105800 5.1789178797e+00 -9.2370022614e-05 2.0586972190e+00 -3.5657681808e+00 2.0586972190e+00 3.5657681808e+00 
105900 5.1789178793e+00 -9.1813164672e-05 2.0586994624e+00 -3.5657720665e+00 2.0586994624e+00 3.5657720665e+00 
106000 5.1789178788e+00 -9.1259641713e-05 2.0587016923e+00 -3.5657759287e+00 2.0587016923e+00 3.5657759287e+00 
106100 5.1789178784e+00 -9.0709434007e-05 2.0587039088e+00 -3.5657797677e+00 2.0587039088e+00 3.5657797677e+00 
106200 5.1789178779e+00 -9.0162521933e-05 2.0587061118e+00 -3.5657835835e+00 2.0587061118e+00 3.5657835835e+00 
106300 5.1789178775e+00 -8.9618885988e-05 2.0587083016e+00 -3.5657873764e+00 2.0587083016e+00 3.5657873764e+00 
106400 5.1789178771e+00 -8.9078506778e-05 2.0587104782e+00 -3.5657911463e+00 2.0587104782e+00 3.5657911463e+00 
106500 5.1789178766e+00 -8.8541365025e-05 2.0587126417e+00 -3.5657948935e+00 2.0587126417e+00 3.5657948935e+00 
106600 5.1789178762e+00 -8.8007441562e-05 2.0587147921e+00 -3.5657986181e+00 2.0587147921e+00 3.5657986181e+00 
106700 5.1789178758e+00 -8.7476717329e-05 2.0587169295e+00 -3.5658023203e+00 2.0587169295e+00 3.5658023203e+00 
106800 5.1789178754e+00 -8.6949173381e-05 2.0587190540e+00 -3.5658060001e+00 2.0587190540e+00 3.5658060001e+00 
106900 5.1789178750e+00 -8.6424790881e-05 2.0587211658e+00 -3.5658096577e+00 2.0587211658e+00 3.5658096577e+00 
107000 5.1789178746e+00 -8.5903551101e-05 2.0587232648e+00 -3.5658132933e+00 2.0587232648e+00 3.5658132933e+00 
107100 5.1789178742e+00 -8.5385435421e-05 2.0587253511e+00 -3.5658169069e+00 2.0587253511e+00 3.5658169069e+00 
107200 5.1789178738e+00 -8.4870425331e-05 2.0587274248e+00 -3.5658204988e+00 2.0587274248e+00 3.5658204988e+00 
107300 5.1789178734e+00 -8.4358502425e-05 2.0587294861e+00 -3.5658240689e+00 2.0587294861e+00 3.5658240689e+00 
107400 5.1789178731e+00 -8.3849648406e-05 2.0587315349e+00 -3.5658276175e+00 2.0587315349e+00 3.5658276175e+00 
107500 5.1789178727e+00 -8.3343845084e-05 2.0587335713e+00 -3.5658311448e+00 2.0587335713e+00 3.5658311448e+00 
107600 5.1789178723e+00 -8.2841074373e-05 2.0587355955e+00 -3.5658346507e+00 2.0587355955e+00 3.5658346507e+00 
107700 5.1789178719e+00 -8.2341318293e-05 2.0587376074e+00 -3.5658381355e+00 2.0587376074e+00 3.5658381355e+00 
107800 5.1789178716e+00 -8.1844558966e-05 2.0587396072e+00 -3.5658415992e+00 2.0587396072e+00 3.5658415992e+00 
107900 5.1789178712e+00 -8.1350778622e-05 2.0587415949e+00 -3.5658450421e+00 2.0587415949e+00 3.5658450421e+00 
108000 5.1789178709e+00 -8.0859959589e-05 2.0587435707e+00 -3.5658484642e+00 2.0587435707e+00 3.5658484642e+00 
108100 5.1789178705e+00 -8.0372084301e-05 2.0587455345e+00 -3.5658518656e+00 2.0587455345e+00 3.5658518656e+00 
108200 5.1789178702e+00 -7.9887135295e-05 2.0587474865e+00 -3.5658552465e+00 2.0587474865e+00 3.5658552465e+00 
108300 5.1789178698e+00 -7.9405095209e-05 2.0587494267e+00 -3.5658586070e+00 2.0587494267e+00 3.5658586070e+00 
108400 5.1789178695e+00 -7.8925946776e-05 2.0587513551e+00 -3.5658619473e+00 2.0587513551e+00 3.5658619473e+00 
108500 5.1789178692e+00 -7.8449672840e-05 2.0587532720e+00 -3.5658652673e+00 2.0587532720e+00 3.5658652673e+00 
108600 5.1789178688e+00 -7.7976256335e-05 2.0587551773e+00 -3.5658685673e+00 2.0587551773e+00 3.5658685673e+00 
108700 5.1789178685e+00 -7.7505680300e-05 2.0587570710e+00 -3.5658718475e+00 2.0587570710e+00 3.5658718475e+00 
108800 5.1789178682e+00 -7.7037927871e-05 2.0587589534e+00 -3.5658751078e+00 2.0587589534e+00 3.5658751078e+00 
108900 5.1789178679e+00 -7.6572982283e-05 2.0587608243e+00 -3.5658783484e+00 2.0587608243e+00 3.5658783484e+00 
109000 5.1789178676e+00 -7.6110826867e-05 2.0587626840e+00 -3.5658815695e+00 2.0587626840e+00 3.5658815695e+00 
109100 5.1789178673e+00 -7.5651445051e-05 2.0587645325e+00 -3.5658847711e+00 2.0587645325e+00 3.5658847711e+00 
109200 5.1789178670e+00 -7.5194820363e-05 2.0587663698e+00 -3.5658879534e+00 2.0587663698e+00 3.5658879534e+00 
109300 5.1789178667e+00 -7.4740936422e-05 2.0587681960e+00 -3.5658911165e+00 2.0587681960e+00 3.5658911165e+00 
109400 5.1789178664e+00 -7.4289776946e-05 2.0587700112e+00 -3.5658942605e+00 2.0587700112e+00 3.5658942605e+00 
109500 5.1789178661e+00 -7.3841325744e-05 2.0587718154e+00 -3.5658973855e+00 2.0587718154e+00 3.5658973855e+00 
109600 5.1789178658e+00 -7.3395566727e-05 2.0587736088e+00 -3.5659004916e+00 2.0587736088e+00 3.5659004916e+00 
109700 5.1789178655e+00 -7.2952483890e-05 2.0587753913e+00 -3.5659035790e+00 2.0587753913e+00 3.5659035790e+00 
109800 5.1789178652e+00 -7.2512061329e-05 2.0587771630e+00 -3.5659066478e+00 2.0587771630e+00 3.5659066478e+00 
109900 5.1789178649e+00 -7.2074283231e-05 2.0587789241e+00 -3.5659096980e+00 2.0587789241e+00 3.5659096980e+00 
110000 5.1789178647e+00 -7.1639133871e-05 2.0587806745e+00 -3.5659127298e+00 2.0587806745e+00 3.5659127298e+00 
110100 5.1789178644e+00 -7.1206597621e-05 2.0587824143e+00 -3.5659157433e+00 2.0587824143e+00 3.5659157433e+00 
110200 5.1789178641e+00 -7.0776658942e-05 2.0587841437e+00 -3.5659187386e+00 2.0587841437e+00 3.5659187386e+00 
110300 5.1789178638e+00 -7.0349302385e-05 2.0587858625e+00 -3.5659217158e+00 2.0587858625e+00 3.5659217158e+00 
110400 5.1789178637e+00 -7.0493916219e-05 2.0587858625e+00 -3.5659217158e+00 2.0587858625e+00 3.5659217158e+00 
110500 5.1789178636e+00 -7.0639943741e-05 2.0587858625e+00 -3.5659217158e+00 2.0587858625e+00 3.5659217158e+00 
110600 5.1789178634e+00 -7.0787398580e-05 2.0587858625e+00 -3.5659217158e+00 2.0587858625e+00 3.5659217158e+00 
110700 5.1789178632e+00 -7.0363350353e-05 2.0587875817e+00 -3.5659246935e+00 2.0587875817e+00 3.5659246935e+00 
110800 5.1789178630e+00 -7.0511415876e-05 2.0587875817e+00 -3.5659246935e+00 2.0587875817e+00 3.5659246935e+00 
110900 5.1789178629e+00 -7.0660967623e-05 2.0587875817e+00 -3.5659246935e+00 2.0587875817e+00 3.5659246935e+00 
111000 5.1789178627e+00 -7.0812030908e-05 2.0587875817e+00 -3.5659246935e+00 2.0587875817e+00 3.5659246935e+00 
111100 5.1789178625e+00 -7.0391480523e-05 2.0587893015e+00 -3.5659276722e+00 2.0587893015e+00 3.5659276722e+00 
111200 5.1789178624e+00 -7.0543336305e-05 2.0587893015e+00 -3.5659276722e+00 2.0587893015e+00 3.5659276722e+00 
111300 5.1789178622e+00 -7.0696767738e-05 2.0587893015e+00 -3.5659276722e+00 2.0587893015e+00 3.5659276722e+00 
111400 5.1789178621e+00 -7.0851794026e-05 2.0587893015e+00 -3.5659276722e+00 2.0587893015e+00 3.5659276722e+00 
111500 5.1789178619e+00 -7.0434957525e-05 2.0587910222e+00 -3.5659306526e+00 2.0587910222e+00 3.5659306526e+00 
111600 5.1789178617e+00 -7.0590911858e-05 2.0587910222e+00 -3.5659306526e+00 2.0587910222e+00 3.5659306526e+00 
111700 5.1789178616e+00 -7.0748490593e-05 2.0587910222e+00 -3.5659306526e+00 2.0587910222e+00 3.5659306526e+00 
111800 5.1789178614e+00 -7.0335056426e-05 2.0587927404e+00 -3.5659336286e+00 2.0587927404e+00 3.5659336286e+00 
111900 5.1789178613e+00 -7.0493579773e-05 2.0587927404e+00 -3.5659336286e+00 2.0587927404e+00 3.5659336286e+00 
112000 5.1789178612e+00 -7.0653710835e-05 2.0587927404e+00 -3.5659336286e+00 2.0587927404e+00 3.5659336286e+00 
112100 5.1789178611e+00 -7.0815437871e-05 2.0587927404e+00 -3.5659336286e+00 2.0587927404e+00 3.5659336286e+00 
112200 5.1789178608e+00 -7.0405563766e-05 2.0587944602e+00 -3.5659366074e+00 2.0587944602e+00 3.5659366074e+00 
112300 5.1789178607e+00 -7.0568125363e-05 2.0587944602e+00 -3.5659366074e+00 2.0587944602e+00 3.5659366074e+00 
112400 5.1789178606e+00 -7.0732214306e-05 2.0587944602e+00 -3.5659366074e+00 2.0587944602e+00 3.5659366074e+00 
112500 5.1789178604e+00 -7.0325290484e-05 2.0587961780e+00 -3.5659395827e+00 2.0587961780e+00 3.5659395827e+00 
112600 5.1789178603e+00 -7.0490031283e-05 2.0587961780e+00 -3.5659395827e+00 2.0587961780e+00 3.5659395827e+00 
112700 5.1789178602e+00 -7.0656184273e-05 2.0587961780e+00 -3.5659395827e+00 2.0587961780e+00 3.5659395827e+00 
112800 5.1789178601e+00 -7.0823706188e-05 2.0587961780e+00 -3.5659395827e+00 2.0587961780e+00 3.5659395827e+00 
112900 5.1789178599e+00 -7.0419301521e-05 2.0587978980e+00 -3.5659425619e+00 2.0587978980e+00 3.5659425619e+00 
113000 5.1789178598e+00 -7.0587113488e-05 2.0587978980e+00 -3.5659425619e+00 2.0587978980e+00 3.5659425619e+00 
113100 5.1789178597e+00 -7.0756138029e-05 2.0587978980e+00 -3.5659425619e+00 2.0587978980e+00 3.5659425619e+00 
113200 5.1789178595e+00 -7.0353614264e-05 2.0587996164e+00 -3.5659455382e+00 2.0587996164e+00 3.5659455382e+00 
113300 5.1789178594e+00 -7.0522582827e-05 2.0587996164e+00 -3.5659455382e+00 2.0587996164e+00 3.5659455382e+00 
113400 5.1789178593e+00 -7.0692574473e-05 2.0587996164e+00 -3.5659455382e+00 2.0587996164e+00 3.5659455382e+00 
113500 5.1789178592e+00 -7.0863524626e-05 2.0587996164e+00 -3.5659455382e+00 2.0587996164e+00 3.5659455382e+00 
113600 5.1789178590e+00 -7.0461795633e-05 2.0588013374e+00 -3.5659485191e+00 2.0588013374e+00 3.5659485191e+00 
113700 5.1789178589e+00 -7.0632157307e-05 2.0588013374e+00 -3.5659485191e+00 2.0588013374e+00 3.5659485191e+00 
113800 5.1789178588e+00 -7.0803268394e-05 2.0588013374e+00 -3.5659485191e+00 2.0588013374e+00 3.5659485191e+00 
113900 5.1789178586e+00 -7.0401972639e-05 2.0588030569e+00 -3.5659514974e+00 2.0588030569e+00 3.5659514974e+00 
114000 5.1789178585e+00 -7.0572060706e-05 2.0588030569e+00 -3.5659514974e+00 2.0588030569e+00 3.5659514974e+00 
114100 5.1789178584e+00 -7.0742673226e-05 2.0588030569e+00 -3.5659514974e+00 2.0588030569e+00 3.5659514974e+00 
114200 5.1789178582e+00 -7.0341141804e-05 2.0588047750e+00 -3.5659544732e+00 2.0588047750e+00 3.5659544732e+00 
114300 5.1789178582e+00 -7.0510275788e-05 2.0588047750e+00 -3.5659544732e+00 2.0588047750e+00 3.5659544732e+00 
114400 5.1789178581e+00 -7.0679703790e-05 2.0588047750e+00 -3.5659544732e+00 2.0588047750e+00 3.5659544732e+00 
114500 5.1789178580e+00 -7.0849353456e-05 2.0588047750e+00 -3.5659544732e+00 2.0588047750e+00 3.5659544732e+00 
114600 5.1789178578e+00 -7.0445697350e-05 2.0588064956e+00 -3.5659574534e+00 2.0588064956e+00 3.5659574534e+00 
114700 5.1789178577e+00 -7.0613273207e-05 2.0588064956e+00 -3.5659574534e+00 2.0588064956e+00 3.5659574534e+00 
114800 5.1789178577e+00 -7.0780854694e-05 2.0588064956e+00 -3.5659574534e+00 2.0588064956e+00 3.5659574534e+00 
114900 5.1789178575e+00 -7.0375470540e-05 2.0588082146e+00 -3.5659604307e+00 2.0588082146e+00 3.5659604307e+00 
115000 5.1789178574e+00 -7.0540553202e-05 2.0588082146e+00 -3.5659604307e+00 2.0588082146e+00 3.5659604307e+00 
115100 5.1789178573e+00 -7.0705432104e-05 2.0588082146e+00 -3.5659604307e+00 2.0588082146e+00 3.5659604307e+00 
115200 5.1789178573e+00 -7.0870044360e-05 2.0588082146e+00 -3.5659604307e+00 2.0588082146e+00 3.5659604307e+00 
115300 5.1789178571e+00 -7.0460706270e-05 2.0588099358e+00 -3.5659634119e+00 2.0588099358e+00 3.5659634119e+00 
115400 5.1789178570e+00 -7.0622300357e-05 2.0588099358e+00 -3.5659634119e+00 2.0588099358e+00 3.5659634119e+00 
115500 5.1789178570e+00 -7.0783446655e-05 2.0588099358e+00 -3.5659634119e+00 2.0588099358e+00 3.5659634119e+00 
115600 5.1789178568e+00 -7.0371167209e-05 2.0588116548e+00 -3.5659663893e+00 2.0588116548e+00 3.5659663893e+00 
115700 5.1789178567e+00 -7.0528949401e-05 2.0588116548e+00 -3.5659663893e+00 2.0588116548e+00 3.5659663893e+00 
115800 5.1789178566e+00 -7.0686117606e-05 2.0588116548e+00 -3.5659663893e+00 2.0588116548e+00 3.5659663893e+00 
115900 5.1789178566e+00 -7.0842624851e-05 2.0588116548e+00 -3.5659663893e+00 2.0588116548e+00 3.5659663893e+00 
116000 5.1789178564e+00 -7.0425026759e-05 2.0588133753e+00 -3.5659693693e+00 2.0588133753e+00 3.5659693693e+00 
116100 5.1789178563e+00 -7.0577778372e-05 2.0588133753e+00 -3.5659693693e+00 2.0588133753e+00 3.5659693693e+00 
116200 5.1789178563e+00 -7.0729739145e-05 2.0588133753e+00 -3.5659693693e+00 2.0588133753e+00 3.5659693693e+00 
116300 5.1789178561e+00 -7.0308384775e-05 2.0588150930e+00 -3.5659723445e+00 2.0588150930e+00 3.5659723445e+00 
116400 5.1789178561e+00 -7.0456351589e-05 2.0588150930e+00 -3.5659723445e+00 2.0588150930e+00 3.5659723445e+00 
116500 5.1789178560e+00 -7.0603416441e-05 2.0588150930e+00 -3.5659723445e+00 2.0588150930e+00 3.5659723445e+00 
116600 5.1789178559e+00 -7.0749551242e-05 2.0588150930e+00 -3.5659723445e+00 2.0588150930e+00 3.5659723445e+00 
116700 5.1789178558e+00 -7.0322084978e-05 2.0588168112e+00 -3.5659753205e+00 2.0588168112e+00 3.5659753205e+00 
116800 5.1789178557e+00 -7.0463986248e-05 2.0588168112e+00 -3.5659753205e+00 2.0588168112e+00 3.5659753205e+00 
116900 5.1789178557e+00 -7.0604884910e-05 2.0588168112e+00 -3.5659753205e+00 2.0588168112e+00 3.5659753205e+00 
117000 5.1789178556e+00 -7.0744764862e-05 2.0588168112e+00 -3.5659753205e+00 2.0588168112e+00 3.5659753205e+00 
117100 5.1789178555e+00 -7.0311005785e-05 2.0588185293e+00 -3.5659782963e+00 2.0588185293e+00 3.5659782963e+00 
117200 5.1789178554e+00 -7.0446509392e-05 2.0588185293e+00 -3.5659782963e+00 2.0588185293e+00 3.5659782963e+00 
117300 5.1789178554e+00 -7.0580955239e-05 2.0588185293e+00 -3.5659782963e+00 2.0588185293e+00 3.5659782963e+00 
117400 5.1789178553e+00 -7.0714337594e-05 2.0588185293e+00 -3.5659782963e+00 2.0588185293e+00 3.5659782963e+00 
117500 5.1789178551e+00 -7.0274292799e-05 2.0588202467e+00 -3.5659812709e+00 2.0588202467e+00 3.5659812709e+00 
117600 5.1789178551e+00 -7.0403239822e-05 2.0588202467e+00 -3.5659812709e+00 2.0588202467e+00 3.5659812709e+00 
117700 5.1789178550e+00 -7.0531113089e-05 2.0588202467e+00 -3.5659812709e+00 2.0588202467e+00 3.5659812709e+00 
117800 5.1789178550e+00 -7.0657915697e-05 2.0588202467e+00 -3.5659812709e+00 2.0588202467e+00 3.5659812709e+00 
117900 5.1789178550e+00 -7.0783655726e-05 2.0588202467e+00 -3.5659812709e+00 2.0588202467e+00 3.5659812709e+00 
118000 5.1789178548e+00 -7.0335421247e-05 2.0588219657e+00 -3.5659842483e+00 2.0588219657e+00 3.5659842483e+00 
118100 5.1789178547e+00 -7.0456762463e-05 2.0588219657e+00 -3.5659842483e+00 2.0588219657e+00 3.5659842483e+00 
118200 5.1789178547e+00 -7.0577065658e-05 2.0588219657e+00 -3.5659842483e+00 2.0588219657e+00 3.5659842483e+00 
118300 5.1789178547e+00 -7.0658285244e-05 2.0588219657e+00 -3.5659842483e+00 2.0588219657e+00 3.5659842483e+00 
118300 5.1789178547e+00 -7.0658285244e-05 2.0588219657e+00 -3.5659842483e+00 2.0588219657e+00 3.5659842483e+00 
