# step Hamiltonian StressXX CellTensor1 CellTensor2 CellTensor3 CellTensor4 
0 5.8988131351e+00 2.2415774104e-01 2.5594246509e+00 -4.4330535334e+00 2.5594246509e+00 4.4330535334e+00 
100 5.9142549055e+00 2.4114991431e-01 2.5594246509e+00 -4.4330535334e+00 2.5594246509e+00 4.4330535334e+00 
200 5.9298866048e+00 2.5670269132e-01 2.5547150807e+00 -4.4248963186e+00 2.5547150807e+00 4.4248963186e+00 
300 5.9462114626e+00 2.7138728927e-01 2.5496926344e+00 -4.4161971864e+00 2.5496926344e+00 4.4161971864e+00 
400 5.9628769974e+00 2.8504981712e-01 2.5443725288e+00 -4.4069824932e+00 2.5443725288e+00 4.4069824932e+00 
500 5.9794343944e+00 2.9738212189e-01 2.5387730147e+00 -4.3972838504e+00 2.5387730147e+00 4.3972838504e+00 
600 5.9953405568e+00 3.0790814876e-01 2.5329184638e+00 -4.3871434708e+00 2.5329184638e+00 4.3871434708e+00 
700 6.0099807785e+00 3.1601027859e-01 2.5268427707e+00 -4.3766200616e+00 2.5268427707e+00 4.3766200616e+00 
800 6.0227290437e+00 3.2103226921e-01 2.5205922904e+00 -4.3657939121e+00 2.5205922904e+00 4.3657939121e+00 
900 6.0330543693e+00 3.2247749403e-01 2.5142267876e+00 -4.3547685378e+00 2.5142267876e+00 4.3547685378e+00 
1000 6.0406517092e+00 3.2025295133e-01 2.5078164658e+00 -4.3436655349e+00 2.5078164658e+00 4.3436655349e+00 
1100 6.0455361870e+00 3.1482001792e-01 2.5014340868e+00 -4.3326109300e+00 2.5014340868e+00 4.3326109300e+00 
1200 6.0480337950e+00 3.0711195197e-01 2.4951439412e+00 -4.3217160784e+00 2.4951439412e+00 4.3217160784e+00 
1300 6.0486612841e+00 2.9823282839e-01 2.4889922843e+00 -4.3110610960e+00 2.4889922843e+00 4.3110610960e+00 
1400 6.0479654447e+00 2.8912583706e-01 2.4830036579e+00 -4.3006884908e+00 2.4830036579e+00 4.3006884908e+00 
1500 6.0464058316e+00 2.8039402944e-01 2.4771838400e+00 -4.2906082705e+00 2.4771838400e+00 4.2906082705e+00 
1600 6.0443124970e+00 2.7230459417e-01 2.4715264678e+00 -4.2808094145e+00 2.4715264678e+00 4.2808094145e+00 
1700 6.0418981660e+00 2.6489231123e-01 2.4660196846e+00 -4.2712713862e+00 2.4660196846e+00 4.2712713862e+00 
1800 6.0392908996e+00 2.5807250821e-01 2.4606507909e+00 -4.2619721896e+00 2.4606507909e+00 4.2619721896e+00 
1900 6.0365653604e+00 2.5172108295e-01 2.4554086686e+00 -4.2528925674e+00 2.4554086686e+00 4.2528925674e+00 
2000 6.0337652068e+00 2.4571767999e-01 2.4502846068e+00 -4.2440174319e+00 2.4502846068e+00 4.2440174319e+00 
2100 6.0309169196e+00 2.3996310264e-01 2.4452722563e+00 -4.2353357862e+00 2.4452722563e+00 4.2353357862e+00 
2200 6.0280376259e+00 2.3438268808e-01 2.4403672260e+00 -4.2268400245e+00 2.4403672260e+00 4.2268400245e+00 
2300 6.0251393041e+00 2.2892355997e-01 2.4355666029e+00 -4.2185251014e+00 2.4355666029e+00 4.2185251014e+00 
2400 6.0222309824e+00 2.2355003605e-01 2.4308685216e+00 -4.2103877859e+00 2.4308685216e+00 4.2103877859e+00 
2500 6.0193198781e+00 2.1823912414e-01 2.4262718224e+00 -4.2024260694e+00 2.4262718224e+00 4.2024260694e+00 
2600 6.0164119937e+00 2.1297679208e-01 2.4217757974e+00 -4.1946387257e+00 2.4217757974e+00 4.1946387257e+00 
2700 6.0135124390e+00 2.0775512441e-01 2.4173800101e+00 -4.1870249987e+00 2.4173800101e+00 4.1870249987e+00 
2800 6.0106256146e+00 2.0257025734e-01 2.4130841720e+00 -4.1795843888e+00 2.4130841720e+00 4.1795843888e+00 
2900 6.0077553255e+00 1.9742092600e-01 2.4088880600e+00 -4.1723165096e+00 2.4088880600e+00 4.1723165096e+00 
3000 6.0049048576e+00 1.9230746616e-01 2.4047914632e+00 -4.1652209960e+00 2.4047914632e+00 4.1652209960e+00 
3100 6.0020770368e+00 1.8723114169e-01 2.4007941502e+00 -4.1582974467e+00 2.4007941502e+00 4.1582974467e+00 
3200 5.9992742748e+00 1.8219370022e-01 2.3968958490e+00 -4.1515453909e+00 2.3968958490e+00 4.1515453909e+00 
3300 5.9964986106e+00 1.7719708602e-01 2.3930962372e+00 -4.1449642702e+00 2.3930962372e+00 4.1449642702e+00 
3400 5.9937517462e+00 1.7224325986e-01 2.3893949375e+00 -4.1385534311e+00 2.3893949375e+00 4.1385534311e+00 
3500 5.9910350797e+00 1.6733409059e-01 2.3857915171e+00 -4.1323121238e+00 2.3857915171e+00 4.1323121238e+00 
3600 5.9883497353e+00 1.6247129447e-01 2.3822854891e+00 -4.1262395052e+00 2.3822854891e+00 4.1262395052e+00 
3700 5.9856965914e+00 1.5765640555e-01 2.3788763159e+00 -4.1203346440e+00 2.3788763159e+00 4.1203346440e+00 
3800 5.9830763065e+00 1.5289076602e-01 2.3755634124e+00 -4.1145965268e+00 2.3755634124e+00 4.1145965268e+00 
3900 5.9804893429e+00 1.4817552897e-01 2.3723461503e+00 -4.1090240655e+00 2.3723461503e+00 4.1090240655e+00 
4000 5.9779359886e+00 1.4351166843e-01 2.3692238619e+00 -4.1036161034e+00 2.3692238619e+00 4.1036161034e+00 
4100 5.9754163777e+00 1.3889999361e-01 2.3661958439e+00 -4.0983714222e+00 2.3661958439e+00 4.0983714222e+00 
4200 5.9729305089e+00 1.3434116498e-01 2.3632613606e+00 -4.0932887481e+00 2.3632613606e+00 4.0932887481e+00 
4300 5.9704782623e+00 1.2983571081e-01 2.3604196477e+00 -4.0883667570e+00 2.3604196477e+00 4.0883667570e+00 
4400 5.9680594149e+00 1.2538404353e-01 2.3576699149e+00 -4.0836040801e+00 2.3576699149e+00 4.0836040801e+00 
4500 5.9656736551e+00 1.2098647508e-01 2.3550113483e+00 -4.0789993077e+00 2.3550113483e+00 4.0789993077e+00 
4600 5.9633205947e+00 1.1664323127e-01 2.3524431132e+00 -4.0745509940e+00 2.3524431132e+00 4.0745509940e+00 
4700 5.9609997813e+00 1.1235446482e-01 2.3499643557e+00 -4.0702576600e+00 2.3499643557e+00 4.0702576600e+00 
4800 5.9587107082e+00 1.0812026711e-01 2.3475742046e+00 -4.0661177969e+00 2.3475742046e+00 4.0661177969e+00 
4900 5.9564528242e+00 1.0394067865e-01 2.3452717732e+00 -4.0621298687e+00 2.3452717732e+00 4.0621298687e+00 
5000 5.9542255417e+00 9.9815698419e-02 2.3430561601e+00 -4.0582923143e+00 2.3430561601e+00 4.0582923143e+00 
5100 5.9520282451e+00 9.5745291954e-02 2.3409264510e+00 -4.0546035499e+00 2.3409264510e+00 4.0546035499e+00 
5200 5.9498602966e+00 9.1729398467e-02 2.3388817191e+00 -4.0510619704e+00 2.3388817191e+00 4.0510619704e+00 
5300 5.9477210433e+00 8.7767936976e-02 2.3369210263e+00 -4.0476659509e+00 2.3369210263e+00 4.0476659509e+00 
5400 5.9456098221e+00 8.3860811575e-02 2.3350434239e+00 -4.0444138481e+00 2.3350434239e+00 4.0444138481e+00 
5500 5.9435259649e+00 8.0007915905e-02 2.3332479529e+00 -4.0413040011e+00 2.3332479529e+00 4.0413040011e+00 
5600 5.9414688027e+00 7.6209136927e-02 2.3315336449e+00 -4.0383347326e+00 2.3315336449e+00 4.0383347326e+00 
5700 5.9394376695e+00 7.2464358050e-02 2.3298995225e+00 -4.0355043496e+00 2.3298995225e+00 4.0355043496e+00 
5800 5.9374319059e+00 6.8773461694e-02 2.3283445994e+00 -4.0328111438e+00 2.3283445994e+00 4.0328111438e+00 
5900 5.9354508620e+00 6.5136331347e-02 2.3268678810e+00 -4.0302533925e+00 2.3268678810e+00 4.0302533925e+00 
6000 5.9334938998e+00 6.1552853167e-02 2.3254683646e+00 -4.0278293589e+00 2.3254683646e+00 4.0278293589e+00 
6100 5.9315603957e+00 5.8022917180e-02 2.3241450395e+00 -4.0255372926e+00 2.3241450395e+00 4.0255372926e+00 
6200 5.9296497428e+00 5.4546418124e-02 2.3228968876e+00 -4.0233754301e+00 2.3228968876e+00 4.0233754301e+00 
6300 5.9277613519e+00 5.1123255983e-02 2.3217228833e+00 -4.0213419950e+00 2.3217228833e+00 4.0213419950e+00 
6400 5.9258946535e+00 4.7753336231e-02 2.3206219936e+00 -4.0194351982e+00 2.3206219936e+00 4.0194351982e+00 
6500 5.9240490991e+00 4.4436569845e-02 2.3195931788e+00 -4.0176532386e+00 2.3195931788e+00 4.0176532386e+00 
6600 5.9222241618e+00 4.1172873095e-02 2.3186353921e+00 -4.0159943034e+00 2.3186353921e+00 4.0159943034e+00 
6700 5.9204193375e+00 3.7962167153e-02 2.3177475802e+00 -4.0144565680e+00 2.3177475802e+00 4.0144565680e+00 
6800 5.9186341454e+00 3.4804377539e-02 2.3169286832e+00 -4.0130381968e+00 2.3169286832e+00 4.0130381968e+00 
6900 5.9168681285e+00 3.1699433434e-02 2.3161776351e+00 -4.0117373433e+00 2.3161776351e+00 4.0117373433e+00 
7000 5.9151208541e+00 2.8647266867e-02 2.3154933639e+00 -4.0105521509e+00 2.3154933639e+00 4.0105521509e+00 
7100 5.9133919139e+00 2.5647811814e-02 2.3148747918e+00 -4.0094807526e+00 2.3148747918e+00 4.0094807526e+00 
7200 5.9116809241e+00 2.2701003209e-02 2.3143208356e+00 -4.0085212722e+00 2.3143208356e+00 4.0085212722e+00 
7300 5.9099875252e+00 1.9806775892e-02 2.3138304065e+00 -4.0076718242e+00 2.3138304065e+00 4.0076718242e+00 
7400 5.9083113823e+00 1.6965063513e-02 2.3134024114e+00 -4.0069305148e+00 2.3134024114e+00 4.0069305148e+00 
7500 5.9066521845e+00 1.4175797386e-02 2.3130357520e+00 -4.0062954421e+00 2.3130357520e+00 4.0062954421e+00 
7600 5.9050096445e+00 1.1438905333e-02 2.3127293260e+00 -4.0057646968e+00 2.3127293260e+00 4.0057646968e+00 
7700 5.9033834987e+00 8.7543105069e-03 2.3124820272e+00 -4.0053363628e+00 2.3124820272e+00 4.0053363628e+00 
7800 5.9017735060e+00 6.1219302101e-03 2.3122927460e+00 -4.0050085180e+00 2.3122927460e+00 4.0050085180e+00 
7900 5.9001794477e+00 3.5416747269e-03 2.3121603693e+00 -4.0047792349e+00 2.3121603693e+00 4.0047792349e+00 
8000 5.8986011269e+00 1.0134461666e-03 2.3120837817e+00 -4.0046465813e+00 2.3120837817e+00 4.0046465813e+00 
8100 5.8970383672e+00 -1.4628626678e-03 2.3120618655e+00 -4.0046086212e+00 2.3120618655e+00 4.0046086212e+00 
8200 5.8954910127e+00 -3.8873693800e-03 2.3120935010e+00 -4.0046634156e+00 2.3120935010e+00 4.0046634156e+00 
8300 5.8939589267e+00 -6.2602030413e-03 2.3121775675e+00 -4.0048090231e+00 2.3121775675e+00 4.0048090231e+00 
8400 5.8924419909e+00 -8.5815052084e-03 2.3123129435e+00 -4.0050435011e+00 2.3123129435e+00 4.0050435011e+00 
8500 5.8909401047e+00 -1.0851430890e-02 2.3124985070e+00 -4.0053649066e+00 2.3124985070e+00 4.0053649066e+00 
8600 5.8894531838e+00 -1.3070149458e-02 2.3127331367e+00 -4.0057712970e+00 2.3127331367e+00 4.0057712970e+00 
8700 5.8879811597e+00 -1.5237845499e-02 2.3130157117e+00 -4.0062607314e+00 2.3130157117e+00 4.0062607314e+00 
8800 5.8865239784e+00 -1.7354719605e-02 2.3133451130e+00 -4.0068312712e+00 2.3133451130e+00 4.0068312712e+00 
8900 5.8850815995e+00 -1.9420989089e-02 2.3137202233e+00 -4.0074809812e+00 2.3137202233e+00 4.0074809812e+00 
9000 5.8836539951e+00 -2.1436888638e-02 2.3141399278e+00 -4.0082079307e+00 2.3141399278e+00 4.0082079307e+00 
9100 5.8822411484e+00 -2.3402670890e-02 2.3146031151e+00 -4.0090101946e+00 2.3146031151e+00 4.0090101946e+00 
9200 5.8808430534e+00 -2.5318606934e-02 2.3151086774e+00 -4.0098858543e+00 2.3151086774e+00 4.0098858543e+00 
9300 5.8794597130e+00 -2.7184986737e-02 2.3156555114e+00 -4.0108329986e+00 2.3156555114e+00 4.0108329986e+00 
9400 5.8780911382e+00 -2.9002119491e-02 2.3162425187e+00 -4.0118497251e+00 2.3162425187e+00 4.0118497251e+00 
9500 5.8767373474e+00 -3.0770333882e-02 2.3168686066e+00 -4.0129341410e+00 2.3168686066e+00 4.0129341410e+00 
9600 5.8753983646e+00 -3.2489978281e-02 2.3175326883e+00 -4.0140843644e+00 2.3175326883e+00 4.0140843644e+00 
9700 5.8740742190e+00 -3.4161420856e-02 2.3182336842e+00 -4.0152985248e+00 2.3182336842e+00 4.0152985248e+00 
9800 5.8727649437e+00 -3.5785049605e-02 2.3189705216e+00 -4.0165747647e+00 2.3189705216e+00 4.0165747647e+00 
9900 5.8714705745e+00 -3.7361272316e-02 2.3197421363e+00 -4.0179112406e+00 2.3197421363e+00 4.0179112406e+00 
10000 5.8701911491e+00 -3.8890516446e-02 2.3205474722e+00 -4.0193061233e+00 2.3205474722e+00 4.0193061233e+00 
10100 5.8689267064e+00 -4.0373228932e-02 2.3213854826e+00 -4.0207575998e+00 2.3213854826e+00 4.0207575998e+00 
10200 5.8676772848e+00 -4.1809875923e-02 2.3222551302e+00 -4.0222638737e+00 2.3222551302e+00 4.0222638737e+00 
10300 5.8664429223e+00 -4.3200942452e-02 2.3231553883e+00 -4.0238231663e+00 2.3231553883e+00 4.0238231663e+00 
10400 5.8652236547e+00 -4.4546932034e-02 2.3240852405e+00 -4.0254337176e+00 2.3240852405e+00 4.0254337176e+00 
10500 5.8640195157e+00 -4.5848366200e-02 2.3250436819e+00 -4.0270937869e+00 2.3250436819e+00 4.0270937869e+00 
10600 5.8628305353e+00 -4.7105783977e-02 2.3260297194e+00 -4.0288016539e+00 2.3260297194e+00 4.0288016539e+00 
10700 5.8616567395e+00 -4.8319741304e-02 2.3270423720e+00 -4.0305556197e+00 2.3270423720e+00 4.0305556197e+00 
10800 5.8604981498e+00 -4.9490810400e-02 2.3280806714e+00 -4.0323540069e+00 2.3280806714e+00 4.0323540069e+00 
10900 5.8593547822e+00 -5.0619579072e-02 2.3291436623e+00 -4.0341951613e+00 2.3291436623e+00 4.0341951613e+00 
11000 5.8582266467e+00 -5.1706649995e-02 2.3302304032e+00 -4.0360774517e+00 2.3302304032e+00 4.0360774517e+00 
11100 5.8571137471e+00 -5.2752639930e-02 2.3313399663e+00 -4.0379992713e+00 2.3313399663e+00 4.0379992713e+00 
11200 5.8560160802e+00 -5.3758178919e-02 2.3324714380e+00 -4.0399590378e+00 2.3324714380e+00 4.0399590378e+00 
11300 5.8549336355e+00 -5.4723909438e-02 2.3336239195e+00 -4.0419551943e+00 2.3336239195e+00 4.0419551943e+00 
11400 5.8538663951e+00 -5.5650485528e-02 2.3347965268e+00 -4.0439862098e+00 2.3347965268e+00 4.0439862098e+00 
11500 5.8528143329e+00 -5.6538571889e-02 2.3359883912e+00 -4.0460505795e+00 2.3359883912e+00 4.0460505795e+00 
11600 5.8517774147e+00 -5.7388842969e-02 2.3371986594e+00 -4.0481468255e+00 2.3371986594e+00 4.0481468255e+00 
11700 5.8507555980e+00 -5.8201982023e-02 2.3384264940e+00 -4.0502734974e+00 2.3384264940e+00 4.0502734974e+00 
11800 5.8497488319e+00 -5.8978680166e-02 2.3396710732e+00 -4.0524291718e+00 2.3396710732e+00 4.0524291718e+00 
11900 5.8487570566e+00 -5.9719635413e-02 2.3409315917e+00 -4.0546124539e+00 2.3409315917e+00 4.0546124539e+00 
12000 5.8477802041e+00 -6.0425551725e-02 2.3422072603e+00 -4.0568219766e+00 2.3422072603e+00 4.0568219766e+00 
12100 5.8468181974e+00 -6.1097138035e-02 2.3434973061e+00 -4.0590564016e+00 2.3434973061e+00 4.0590564016e+00 
12200 5.8458709512e+00 -6.1735107299e-02 2.3448009730e+00 -4.0613144189e+00 2.3448009730e+00 4.0613144189e+00 
12300 5.8449383715e+00 -6.2340175538e-02 2.3461175215e+00 -4.0635947477e+00 2.3461175215e+00 4.0635947477e+00 
12400 5.8440203563e+00 -6.2913060896e-02 2.3474462285e+00 -4.0658961358e+00 2.3474462285e+00 4.0658961358e+00 
12500 5.8431167951e+00 -6.3454482709e-02 2.3487863879e+00 -4.0682173600e+00 2.3487863879e+00 4.0682173600e+00 
12600 5.8422275698e+00 -6.3965160595e-02 2.3501373103e+00 -4.0705572261e+00 2.3501373103e+00 4.0705572261e+00 
12700 5.8413525542e+00 -6.4445813555e-02 2.3514983229e+00 -4.0729145691e+00 2.3514983229e+00 4.0729145691e+00 
12800 5.8404916150e+00 -6.4897159103e-02 2.3528687697e+00 -4.0752882527e+00 2.3528687697e+00 4.0752882527e+00 
12900 5.8396446117e+00 -6.5319912417e-02 2.3542480114e+00 -4.0776771694e+00 2.3542480114e+00 4.0776771694e+00 
13000 5.8388113970e+00 -6.5714785516e-02 2.3556354252e+00 -4.0800802406e+00 2.3556354252e+00 4.0800802406e+00 
13100 5.8379918171e+00 -6.6082486465e-02 2.3570304048e+00 -4.0824964161e+00 2.3570304048e+00 4.0824964161e+00 
13200 5.8371857122e+00 -6.6423718614e-02 2.3584323603e+00 -4.0849246742e+00 2.3584323603e+00 4.0849246742e+00 
13300 5.8363929168e+00 -6.6739179861e-02 2.3598407179e+00 -4.0873640212e+00 2.3598407179e+00 4.0873640212e+00 
13400 5.8356132601e+00 -6.7029561960e-02 2.3612549202e+00 -4.0898134914e+00 2.3612549202e+00 4.0898134914e+00 
13500 5.8348465665e+00 -6.7295549848e-02 2.3626744254e+00 -4.0922721465e+00 2.3626744254e+00 4.0922721465e+00 
13600 5.8340926558e+00 -6.7537821024e-02 2.3640987077e+00 -4.0947390758e+00 2.3640987077e+00 4.0947390758e+00 
13700 5.8333513439e+00 -6.7757044947e-02 2.3655272567e+00 -4.0972133953e+00 2.3655272567e+00 4.0972133953e+00 
13800 5.8326224430e+00 -6.7953882485e-02 2.3669595775e+00 -4.0996942477e+00 2.3669595775e+00 4.0996942477e+00 
13900 5.8319057624e+00 -6.8128985395e-02 2.3683951902e+00 -4.1021808019e+00 2.3683951902e+00 4.1021808019e+00 
14000 5.8312011082e+00 -6.8282995836e-02 2.3698336300e+00 -4.1046722527e+00 2.3698336300e+00 4.1046722527e+00 
14100 5.8305082847e+00 -6.8416545928e-02 2.3712744466e+00 -4.1071678201e+00 2.3712744466e+00 4.1071678201e+00 
14200 5.8298270940e+00 -6.8530257340e-02 2.3727172040e+00 -4.1096667494e+00 2.3727172040e+00 4.1096667494e+00 
14300 5.8291573369e+00 -6.8624740924e-02 2.3741614808e+00 -4.1121683101e+00 2.3741614808e+00 4.1121683101e+00 
14400 5.8284988129e+00 -6.8700596373e-02 2.3756068690e+00 -4.1146717958e+00 2.3756068690e+00 4.1146717958e+00 
14500 5.8278513211e+00 -6.8758411927e-02 2.3770529744e+00 -4.1171765240e+00 2.3770529744e+00 4.1171765240e+00 
14600 5.8272146602e+00 -6.8798764109e-02 2.3784994163e+00 -4.1196818348e+00 2.3784994163e+00 4.1196818348e+00 
14700 5.8265886291e+00 -6.8822217493e-02 2.3799458269e+00 -4.1221870914e+00 2.3799458269e+00 4.1221870914e+00 
14800 5.8259730269e+00 -6.8829324514e-02 2.3813918510e+00 -4.1246916786e+00 2.3813918510e+00 4.1246916786e+00 
14900 5.8253676539e+00 -6.8820625299e-02 2.3828371461e+00 -4.1271950033e+00 2.3828371461e+00 4.1271950033e+00 
15000 5.8247723111e+00 -6.8796647541e-02 2.3842813819e+00 -4.1296964930e+00 2.3842813819e+00 4.1296964930e+00 
15100 5.8241868013e+00 -6.8757906397e-02 2.3857242397e+00 -4.1321955961e+00 2.3857242397e+00 4.1321955961e+00 
15200 5.8236109288e+00 -6.8704904417e-02 2.3871654127e+00 -4.1346917808e+00 2.3871654127e+00 4.1346917808e+00 
15300 5.8230445000e+00 -6.8638131503e-02 2.3886046050e+00 -4.1371845350e+00 2.3886046050e+00 4.1371845350e+00 
15400 5.8224873235e+00 -6.8558064894e-02 2.3900415320e+00 -4.1396733656e+00 2.3900415320e+00 4.1396733656e+00 
15500 5.8219392106e+00 -6.8465169174e-02 2.3914759196e+00 -4.1421577978e+00 2.3914759196e+00 4.1421577978e+00 
15600 5.8213999752e+00 -6.8359896310e-02 2.3929075040e+00 -4.1446373748e+00 2.3929075040e+00 4.1446373748e+00 
15700 5.8208694340e+00 -6.8242685708e-02 2.3943360317e+00 -4.1471116573e+00 2.3943360317e+00 4.1471116573e+00 
15800 5.8203474071e+00 -6.8113964296e-02 2.3957612588e+00 -4.1495802231e+00 2.3957612588e+00 4.1495802231e+00 
15900 5.8198337176e+00 -6.7974146621e-02 2.3971829509e+00 -4.1520426660e+00 2.3971829509e+00 4.1520426660e+00 
16000 5.8193281923e+00 -6.7823634971e-02 2.3986008828e+00 -4.1544985961e+00 2.3986008828e+00 4.1544985961e+00 
16100 5.8188306615e+00 -6.7662819512e-02 2.4000148382e+00 -4.1569476387e+00 2.4000148382e+00 4.1569476387e+00 
16200 5.8183409589e+00 -6.7492078441e-02 2.4014246095e+00 -4.1593894341e+00 2.4014246095e+00 4.1593894341e+00 
16300 5.8178589224e+00 -6.7311778160e-02 2.4028299973e+00 -4.1618236372e+00 2.4028299973e+00 4.1618236372e+00 
16400 5.8173843935e+00 -6.7122273452e-02 2.4042308103e+00 -4.1642499166e+00 2.4042308103e+00 4.1642499166e+00 
16500 5.8169172177e+00 -6.6923907684e-02 2.4056268653e+00 -4.1666679547e+00 2.4056268653e+00 4.1666679547e+00 
16600 5.8164572445e+00 -6.6717013009e-02 2.4070179861e+00 -4.1690774467e+00 2.4070179861e+00 4.1690774467e+00 
16700 5.8160043272e+00 -6.6501910590e-02 2.4084040042e+00 -4.1714781005e+00 2.4084040042e+00 4.1714781005e+00 
16800 5.8155583235e+00 -6.6278910822e-02 2.4097847581e+00 -4.1738696363e+00 2.4097847581e+00 4.1738696363e+00 
16900 5.8151190947e+00 -6.6048313569e-02 2.4111600927e+00 -4.1762517858e+00 2.4111600927e+00 4.1762517858e+00 
17000 5.8146865065e+00 -6.5810408407e-02 2.4125298600e+00 -4.1786242923e+00 2.4125298600e+00 4.1786242923e+00 
17100 5.8142604285e+00 -6.5565474871e-02 2.4138939179e+00 -4.1809869098e+00 2.4138939179e+00 4.1809869098e+00 
17200 5.8138407341e+00 -6.5313782709e-02 2.4152521304e+00 -4.1833394029e+00 2.4152521304e+00 4.1833394029e+00 
17300 5.8134273009e+00 -6.5055592142e-02 2.4166043675e+00 -4.1856815464e+00 2.4166043675e+00 4.1856815464e+00 
17400 5.8130200102e+00 -6.4791154118e-02 2.4179505049e+00 -4.1880131247e+00 2.4179505049e+00 4.1880131247e+00 
17500 5.8126187474e+00 -6.4520710581e-02 2.4192904234e+00 -4.1903339317e+00 2.4192904234e+00 4.1903339317e+00 
17600 5.8122234013e+00 -6.4244494733e-02 2.4206240094e+00 -4.1926437703e+00 2.4206240094e+00 4.1926437703e+00 
17700 5.8118338648e+00 -6.3962731301e-02 2.4219511540e+00 -4.1949424521e+00 2.4219511540e+00 4.1949424521e+00 
17800 5.8114500342e+00 -6.3675636797e-02 2.4232717533e+00 -4.1972297972e+00 2.4232717533e+00 4.1972297972e+00 
17900 5.8110718093e+00 -6.3383419792e-02 2.4245857080e+00 -4.1995056336e+00 2.4245857080e+00 4.1995056336e+00 
18000 5.8106990935e+00 -6.3086281169e-02 2.4258929233e+00 -4.2017697969e+00 2.4258929233e+00 4.2017697969e+00 
18100 5.8103317935e+00 -6.2784414393e-02 2.4271933087e+00 -4.2040221305e+00 2.4271933087e+00 4.2040221305e+00 
18200 5.8099698192e+00 -6.2478005766e-02 2.4284867777e+00 -4.2062624846e+00 2.4284867777e+00 4.2062624846e+00 
18300 5.8096130837e+00 -6.2167234684e-02 2.4297732480e+00 -4.2084907164e+00 2.4297732480e+00 4.2084907164e+00 
18400 5.8092615032e+00 -6.1852273895e-02 2.4310526407e+00 -4.2107066897e+00 2.4310526407e+00 4.2107066897e+00 
18500 5.8089149968e+00 -6.1533289738e-02 2.4323248811e+00 -4.2129102746e+00 2.4323248811e+00 4.2129102746e+00 
18600 5.8085734863e+00 -6.1210442402e-02 2.4335898976e+00 -4.2151013474e+00 2.4335898976e+00 4.2151013474e+00 
18700 5.8082368965e+00 -6.0883886154e-02 2.4348476220e+00 -4.2172797901e+00 2.4348476220e+00 4.2172797901e+00 
18800 5.8079051546e+00 -6.0553769586e-02 2.4360979897e+00 -4.2194454904e+00 2.4360979897e+00 4.2194454904e+00 
18900 5.8075781903e+00 -6.0220235841e-02 2.4373409388e+00 -4.2215983413e+00 2.4373409388e+00 4.2215983413e+00 
19000 5.8072559359e+00 -5.9883422838e-02 2.4385764106e+00 -4.2237382413e+00 2.4385764106e+00 4.2237382413e+00 
19100 5.8069383256e+00 -5.9543463497e-02 2.4398043493e+00 -4.2258650935e+00 2.4398043493e+00 4.2258650935e+00 
19200 5.8066252962e+00 -5.9200485950e-02 2.4410247017e+00 -4.2279788059e+00 2.4410247017e+00 4.2279788059e+00 
19300 5.8063167863e+00 -5.8854613754e-02 2.4422374175e+00 -4.2300792913e+00 2.4422374175e+00 4.2300792913e+00 
19400 5.8060127364e+00 -5.8505966092e-02 2.4434424488e+00 -4.2321664668e+00 2.4434424488e+00 4.2321664668e+00 
19500 5.8057130890e+00 -5.8154657968e-02 2.4446397502e+00 -4.2342402536e+00 2.4446397502e+00 4.2342402536e+00 
19600 5.8054177884e+00 -5.7800800405e-02 2.4458292787e+00 -4.2363005774e+00 2.4458292787e+00 4.2363005774e+00 
19700 5.8051267802e+00 -5.7444500625e-02 2.4470109935e+00 -4.2383473674e+00 2.4470109935e+00 4.2383473674e+00 
19800 5.8048400120e+00 -5.7085862228e-02 2.4481848560e+00 -4.2403805570e+00 2.4481848560e+00 4.2403805570e+00 
19900 5.8045574325e+00 -5.6724985367e-02 2.4493508299e+00 -4.2424000829e+00 2.4493508299e+00 4.2424000829e+00 
20000 5.8042789919e+00 -5.6361966913e-02 2.4505088807e+00 -4.2444058857e+00 2.4505088807e+00 4.2444058857e+00 
20100 5.8040046416e+00 -5.5996900618e-02 2.4516589759e+00 -4.2463979092e+00 2.4516589759e+00 4.2463979092e+00 
20200 5.8037343343e+00 -5.5629877265e-02 2.4528010851e+00 -4.2483761003e+00 2.4528010851e+00 4.2483761003e+00 
20300 5.8034680236e+00 -5.5260984819e-02 2.4539351796e+00 -4.2503404095e+00 2.4539351796e+00 4.2503404095e+00 
20400 5.8032056643e+00 -5.4890308570e-02 2.4550612323e+00 -4.2522907901e+00 2.4550612323e+00 4.2522907901e+00 
20500 5.8029472120e+00 -5.4517931266e-02 2.4561792181e+00 -4.2542271983e+00 2.4561792181e+00 4.2542271983e+00 
20600 5.8026926232e+00 -5.4143933248e-02 2.4572891134e+00 -4.2561495934e+00 2.4572891134e+00 4.2561495934e+00 
20700 5.8024418553e+00 -5.3768392568e-02 2.4583908962e+00 -4.2580579371e+00 2.4583908962e+00 4.2580579371e+00 
20800 5.8021948662e+00 -5.3391385114e-02 2.4594845461e+00 -4.2599521943e+00 2.4594845461e+00 4.2599521943e+00 
20900 5.8019516146e+00 -5.3012984723e-02 2.4605700441e+00 -4.2618323319e+00 2.4605700441e+00 4.2618323319e+00 
21000 5.8017120599e+00 -5.2633263282e-02 2.4616473727e+00 -4.2636983199e+00 2.4616473727e+00 4.2636983199e+00 
21100 5.8014761619e+00 -5.2252290839e-02 2.4627165159e+00 -4.2655501302e+00 2.4627165159e+00 4.2655501302e+00 
21200 5.8012438808e+00 -5.1870135696e-02 2.4637774590e+00 -4.2673877375e+00 2.4637774590e+00 4.2673877375e+00 
21300 5.8010151775e+00 -5.1486864502e-02 2.4648301886e+00 -4.2692111186e+00 2.4648301886e+00 4.2692111186e+00 
21400 5.8007900130e+00 -5.1102542340e-02 2.4658746925e+00 -4.2710202526e+00 2.4658746925e+00 4.2710202526e+00 
21500 5.8005683489e+00 -5.0717232810e-02 2.4669109601e+00 -4.2728151207e+00 2.4669109601e+00 4.2728151207e+00 
21600 5.8003501470e+00 -5.0330998107e-02 2.4679389817e+00 -4.2745957063e+00 2.4679389817e+00 4.2745957063e+00 
21700 5.8001353694e+00 -4.9943899096e-02 2.4689587489e+00 -4.2763619948e+00 2.4689587489e+00 4.2763619948e+00 
21800 5.7999239784e+00 -4.9555995376e-02 2.4699702544e+00 -4.2781139738e+00 2.4699702544e+00 4.2781139738e+00 
21900 5.7997159365e+00 -4.9167345350e-02 2.4709734921e+00 -4.2798516325e+00 2.4709734921e+00 4.2798516325e+00 
22000 5.7995112064e+00 -4.8778006285e-02 2.4719684571e+00 -4.2815749625e+00 2.4719684571e+00 4.2815749625e+00 
22100 5.7993097509e+00 -4.8388034365e-02 2.4729551455e+00 -4.2832839568e+00 2.4729551455e+00 4.2832839568e+00 
22200 5.7991115331e+00 -4.7997484750e-02 2.4739335543e+00 -4.2849786107e+00 2.4739335543e+00 4.2849786107e+00 
22300 5.7989165159e+00 -4.7606411620e-02 2.4749036819e+00 -4.2866589208e+00 2.4749036819e+00 4.2866589208e+00 
22400 5.7987246627e+00 -4.7214868225e-02 2.4758655272e+00 -4.2883248859e+00 2.4758655272e+00 4.2883248859e+00 
22500 5.7985359365e+00 -4.6822906925e-02 2.4768190907e+00 -4.2899765062e+00 2.4768190907e+00 4.2899765062e+00 
22600 5.7983503008e+00 -4.6430579232e-02 2.4777643734e+00 -4.2916137839e+00 2.4777643734e+00 4.2916137839e+00 
22700 5.7981677189e+00 -4.6037935843e-02 2.4787013774e+00 -4.2932367225e+00 2.4787013774e+00 4.2932367225e+00 
22800 5.7979881541e+00 -4.5645026678e-02 2.4796301059e+00 -4.2948453273e+00 2.4796301059e+00 4.2948453273e+00 
22900 5.7978115698e+00 -4.5251900905e-02 2.4805505627e+00 -4.2964396053e+00 2.4805505627e+00 4.2964396053e+00 
23000 5.7976379295e+00 -4.4858606975e-02 2.4814627528e+00 -4.2980195649e+00 2.4814627528e+00 4.2980195649e+00 
23100 5.7974671966e+00 -4.4465192642e-02 2.4823666819e+00 -4.2995852161e+00 2.4823666819e+00 4.2995852161e+00 
23200 5.7972993346e+00 -4.4071704988e-02 2.4832623567e+00 -4.3011365704e+00 2.4832623567e+00 4.3011365704e+00 
23300 5.7971343070e+00 -4.3678190446e-02 2.4841497847e+00 -4.3026736407e+00 2.4841497847e+00 4.3026736407e+00 
23400 5.7969720772e+00 -4.3284694816e-02 2.4850289741e+00 -4.3041964415e+00 2.4850289741e+00 4.3041964415e+00 
23500 5.7968126087e+00 -4.2891263281e-02 2.4858999342e+00 -4.3057049886e+00 2.4858999342e+00 4.3057049886e+00 
23600 5.7966558650e+00 -4.2497940428e-02 2.4867626750e+00 -4.3071992994e+00 2.4867626750e+00 4.3071992994e+00 
23700 5.7965018097e+00 -4.2104770253e-02 2.4876172071e+00 -4.3086793925e+00 2.4876172071e+00 4.3086793925e+00 
23800 5.7963504064e+00 -4.1711796180e-02 2.4884635423e+00 -4.3101452880e+00 2.4884635423e+00 4.3101452880e+00 
23900 5.7962016185e+00 -4.1319061063e-02 2.4893016927e+00 -4.3115970072e+00 2.4893016927e+00 4.3115970072e+00 
24000 5.7960554098e+00 -4.0926607204e-02 2.4901316716e+00 -4.3130345727e+00 2.4901316716e+00 4.3130345727e+00 
24100 5.7959117438e+00 -4.0534476350e-02 2.4909534927e+00 -4.3144580087e+00 2.4909534927e+00 4.3144580087e+00 
24200 5.7957705844e+00 -4.0142709706e-02 2.4917671708e+00 -4.3158673404e+00 2.4917671708e+00 4.3158673404e+00 
24300 5.7956318952e+00 -3.9751347938e-02 2.4925727210e+00 -4.3172625943e+00 2.4925727210e+00 4.3172625943e+00 
24400 5.7954956401e+00 -3.9360431174e-02 2.4933701594e+00 -4.3186437982e+00 2.4933701594e+00 4.3186437982e+00 
24500 5.7953617830e+00 -3.8969999010e-02 2.4941595029e+00 -4.3200109812e+00 2.4941595029e+00 4.3200109812e+00 
24600 5.7952302879e+00 -3.8580090508e-02 2.4949407687e+00 -4.3213641733e+00 2.4949407687e+00 4.3213641733e+00 
24700 5.7951011189e+00 -3.8190744200e-02 2.4957139751e+00 -4.3227034060e+00 2.4957139751e+00 4.3227034060e+00 
24800 5.7949742402e+00 -3.7801998086e-02 2.4964791408e+00 -4.3240287119e+00 2.4964791408e+00 4.3240287119e+00 
24900 5.7948496161e+00 -3.7413889635e-02 2.4972362853e+00 -4.3253401246e+00 2.4972362853e+00 4.3253401246e+00 
25000 5.7947272110e+00 -3.7026455781e-02 2.4979854287e+00 -4.3266376790e+00 2.4979854287e+00 4.3266376790e+00 
25100 5.7946069895e+00 -3.6639732924e-02 2.4987265916e+00 -4.3279214109e+00 2.4987265916e+00 4.3279214109e+00 
25200 5.7944889163e+00 -3.6253756927e-02 2.4994597956e+00 -4.3291913574e+00 2.4994597956e+00 4.3291913574e+00 
25300 5.7943729563e+00 -3.5868563110e-02 2.5001850625e+00 -4.3304475566e+00 2.5001850625e+00 4.3304475566e+00 
25400 5.7942590747e+00 -3.5484186252e-02 2.5009024149e+00 -4.3316900474e+00 2.5009024149e+00 4.3316900474e+00 
25500 5.7941472364e+00 -3.5100660583e-02 2.5016118761e+00 -4.3329188703e+00 2.5016118761e+00 4.3329188703e+00 
25600 5.7940374071e+00 -3.4718019785e-02 2.5023134698e+00 -4.3341340661e+00 2.5023134698e+00 4.3341340661e+00 
25700 5.7939295524e+00 -3.4336296981e-02 2.5030072203e+00 -4.3353356772e+00 2.5030072203e+00 4.3353356772e+00 
25800 5.7938236380e+00 -3.3955524739e-02 2.5036931525e+00 -4.3365237466e+00 2.5036931525e+00 4.3365237466e+00 
25900 5.7937196300e+00 -3.3575735061e-02 2.5043712918e+00 -4.3376983184e+00 2.5043712918e+00 4.3376983184e+00 
26000 5.7936174946e+00 -3.3196959382e-02 2.5050416643e+00 -4.3388594376e+00 2.5050416643e+00 4.3388594376e+00 
26100 5.7935171986e+00 -3.2819228566e-02 2.5057042964e+00 -4.3400071502e+00 2.5057042964e+00 4.3400071502e+00 
26200 5.7934187084e+00 -3.2442572900e-02 2.5063592153e+00 -4.3411415028e+00 2.5063592153e+00 4.3411415028e+00 
26300 5.7933219914e+00 -3.2067022089e-02 2.5070064483e+00 -4.3422625433e+00 2.5070064483e+00 4.3422625433e+00 
26400 5.7932270146e+00 -3.1692605254e-02 2.5076460235e+00 -4.3433703201e+00 2.5076460235e+00 4.3433703201e+00 
26500 5.7931337457e+00 -3.1319350926e-02 2.5082779695e+00 -4.3444648827e+00 2.5082779695e+00 4.3444648827e+00 
26600 5.7930421526e+00 -3.0947287042e-02 2.5089023152e+00 -4.3455462811e+00 2.5089023152e+00 4.3455462811e+00 
26700 5.7929522034e+00 -3.0576440942e-02 2.5095190900e+00 -4.3466145664e+00 2.5095190900e+00 4.3466145664e+00 
26800 5.7928638665e+00 -3.0206839364e-02 2.5101283238e+00 -4.3476697903e+00 2.5101283238e+00 4.3476697903e+00 
26900 5.7927771107e+00 -2.9838508441e-02 2.5107300469e+00 -4.3487120054e+00 2.5107300469e+00 4.3487120054e+00 
27000 5.7926919051e+00 -2.9471473697e-02 2.5113242901e+00 -4.3497412648e+00 2.5113242901e+00 4.3497412648e+00 
27100 5.7926082190e+00 -2.9105760045e-02 2.5119110845e+00 -4.3507576225e+00 2.5119110845e+00 4.3507576225e+00 
27200 5.7925260222e+00 -2.8741391781e-02 2.5124904617e+00 -4.3517611332e+00 2.5124904617e+00 4.3517611332e+00 
27300 5.7924452847e+00 -2.8378392586e-02 2.5130624536e+00 -4.3527518522e+00 2.5130624536e+00 4.3527518522e+00 
27400 5.7923659768e+00 -2.8016785518e-02 2.5136270924e+00 -4.3537298354e+00 2.5136270924e+00 4.3537298354e+00 
27500 5.7922880692e+00 -2.7656593016e-02 2.5141844110e+00 -4.3546951394e+00 2.5141844110e+00 4.3546951394e+00 
27600 5.7922115331e+00 -2.7297836892e-02 2.5147344423e+00 -4.3556478215e+00 2.5147344423e+00 4.3556478215e+00 
27700 5.7921363398e+00 -2.6940538333e-02 2.5152772196e+00 -4.3565879395e+00 2.5152772196e+00 4.3565879395e+00 
27800 5.7920624610e+00 -2.6584717899e-02 2.5158127768e+00 -4.3575155517e+00 2.5158127768e+00 4.3575155517e+00 
27900 5.7919898689e+00 -2.6230395520e-02 2.5163411477e+00 -4.3584307171e+00 2.5163411477e+00 4.3584307171e+00 
28000 5.7919185359e+00 -2.5877590501e-02 2.5168623668e+00 -4.3593334950e+00 2.5168623668e+00 4.3593334950e+00 
28100 5.7918484349e+00 -2.5526321514e-02 2.5173764687e+00 -4.3602239455e+00 2.5173764687e+00 4.3602239455e+00 
28200 5.7917795389e+00 -2.5176606604e-02 2.5178834881e+00 -4.3611021290e+00 2.5178834881e+00 4.3611021290e+00 
28300 5.7917118216e+00 -2.4828463186e-02 2.5183834604e+00 -4.3619681064e+00 2.5183834604e+00 4.3619681064e+00 
28400 5.7916452568e+00 -2.4481908045e-02 2.5188764210e+00 -4.3628219391e+00 2.5188764210e+00 4.3628219391e+00 
28500 5.7915798188e+00 -2.4136957343e-02 2.5193624054e+00 -4.3636636889e+00 2.5193624054e+00 4.3636636889e+00 
28600 5.7915154822e+00 -2.3793626612e-02 2.5198414497e+00 -4.3644934179e+00 2.5198414497e+00 4.3644934179e+00 
28700 5.7914522220e+00 -2.3451930762e-02 2.5203135899e+00 -4.3653111887e+00 2.5203135899e+00 4.3653111887e+00 
28800 5.7913900137e+00 -2.3111884077e-02 2.5207788624e+00 -4.3661170643e+00 2.5207788624e+00 4.3661170643e+00 
28900 5.7913288328e+00 -2.2773500225e-02 2.5212373037e+00 -4.3669111080e+00 2.5212373037e+00 4.3669111080e+00 
29000 5.7912686556e+00 -2.2436792253e-02 2.5216889506e+00 -4.3676933834e+00 2.5216889506e+00 4.3676933834e+00 
29100 5.7912094583e+00 -2.2101772594e-02 2.5221338400e+00 -4.3684639543e+00 2.5221338400e+00 4.3684639543e+00 
29200 5.7911512180e+00 -2.1768453071e-02 2.5225720089e+00 -4.3692228851e+00 2.5225720089e+00 4.3692228851e+00 
29300 5.7910939116e+00 -2.1436844897e-02 2.5230034946e+00 -4.3699702403e+00 2.5230034946e+00 4.3699702403e+00 
29400 5.7910375168e+00 -2.1106958681e-02 2.5234283344e+00 -4.3707060844e+00 2.5234283344e+00 4.3707060844e+00 
29500 5.7909820115e+00 -2.0778804431e-02 2.5238465658e+00 -4.3714304825e+00 2.5238465658e+00 4.3714304825e+00 
29600 5.7909273738e+00 -2.0452391561e-02 2.5242582265e+00 -4.3721434998e+00 2.5242582265e+00 4.3721434998e+00 
29700 5.7908735824e+00 -2.0127728893e-02 2.5246633542e+00 -4.3728452015e+00 2.5246633542e+00 4.3728452015e+00 
29800 5.7908206163e+00 -1.9804824661e-02 2.5250619867e+00 -4.3735356533e+00 2.5250619867e+00 4.3735356533e+00 
29900 5.7907684546e+00 -1.9483686520e-02 2.5254541620e+00 -4.3742149208e+00 2.5254541620e+00 4.3742149208e+00 
30000 5.7907170771e+00 -1.9164321549e-02 2.5258399180e+00 -4.3748830698e+00 2.5258399180e+00 4.3748830698e+00 
30100 5.7906664638e+00 -1.8846736257e-02 2.5262192928e+00 -4.3755401663e+00 2.5262192928e+00 4.3755401663e+00 
30200 5.7906165948e+00 -1.8530936587e-02 2.5265923246e+00 -4.3761862762e+00 2.5265923246e+00 4.3761862762e+00 
30300 5.7905674510e+00 -1.8216927926e-02 2.5269590514e+00 -4.3768214657e+00 2.5269590514e+00 4.3768214657e+00 
30400 5.7905190132e+00 -1.7904715110e-02 2.5273195116e+00 -4.3774458010e+00 2.5273195116e+00 4.3774458010e+00 
30500 5.7904712627e+00 -1.7594302429e-02 2.5276737433e+00 -4.3780593483e+00 2.5276737433e+00 4.3780593483e+00 
30600 5.7904241813e+00 -1.7285693634e-02 2.5280217848e+00 -4.3786621738e+00 2.5280217848e+00 4.3786621738e+00 
30700 5.7903777507e+00 -1.6978891946e-02 2.5283636743e+00 -4.3792543439e+00 2.5283636743e+00 4.3792543439e+00 
30800 5.7903319534e+00 -1.6673900062e-02 2.5286994501e+00 -4.3798359246e+00 2.5286994501e+00 4.3798359246e+00 
30900 5.7902867718e+00 -1.6370720162e-02 2.5290291505e+00 -4.3804069824e+00 2.5290291505e+00 4.3804069824e+00 
31000 5.7902421889e+00 -1.6069353918e-02 2.5293528136e+00 -4.3809675834e+00 2.5293528136e+00 4.3809675834e+00 
31100 5.7901981878e+00 -1.5769802498e-02 2.5296704777e+00 -4.3815177937e+00 2.5296704777e+00 4.3815177937e+00 
31200 5.7901547519e+00 -1.5472066578e-02 2.5299821808e+00 -4.3820576794e+00 2.5299821808e+00 4.3820576794e+00 
31300 5.7901118651e+00 -1.5176146349e-02 2.5302879612e+00 -4.3825873066e+00 2.5302879612e+00 4.3825873066e+00 
31400 5.7900695114e+00 -1.4882041522e-02 2.5305878568e+00 -4.3831067411e+00 2.5305878568e+00 4.3831067411e+00 
31500 5.7900276752e+00 -1.4589751341e-02 2.5308819057e+00 -4.3836160486e+00 2.5308819057e+00 4.3836160486e+00 
31600 5.7899863410e+00 -1.4299274587e-02 2.5311701457e+00 -4.3841152950e+00 2.5311701457e+00 4.3841152950e+00 
31700 5.7899454937e+00 -1.4010609590e-02 2.5314526147e+00 -4.3846045456e+00 2.5314526147e+00 4.3846045456e+00 
31800 5.7899051186e+00 -1.3723754233e-02 2.5317293503e+00 -4.3850838658e+00 2.5317293503e+00 4.3850838658e+00 
31900 5.7898652010e+00 -1.3438705966e-02 2.5320003904e+00 -4.3855533209e+00 2.5320003904e+00 4.3855533209e+00 
32000 5.7898257267e+00 -1.3155461811e-02 2.5322657722e+00 -4.3860129758e+00 2.5322657722e+00 4.3860129758e+00 
32100 5.7897866815e+00 -1.2874018371e-02 2.5325255334e+00 -4.3864628953e+00 2.5325255334e+00 4.3864628953e+00 
32200 5.7897480516e+00 -1.2594371841e-02 2.5327797112e+00 -4.3869031442e+00 2.5327797112e+00 4.3869031442e+00 
32300 5.7897098236e+00 -1.2316518014e-02 2.5330283427e+00 -4.3873337866e+00 2.5330283427e+00 4.3873337866e+00 
32400 5.7896719840e+00 -1.2040452292e-02 2.5332714650e+00 -4.3877548868e+00 2.5332714650e+00 4.3877548868e+00 
32500 5.7896345198e+00 -1.1766169693e-02 2.5335091151e+00 -4.3881665087e+00 2.5335091151e+00 4.3881665087e+00 
32600 5.7895974181e+00 -1.1493664862e-02 2.5337413295e+00 -4.3885687160e+00 2.5337413295e+00 4.3885687160e+00 
32700 5.7895606663e+00 -1.1222932078e-02 2.5339681450e+00 -4.3889615720e+00 2.5339681450e+00 4.3889615720e+00 
32800 5.7895242520e+00 -1.0953965264e-02 2.5341895980e+00 -4.3893451398e+00 2.5341895980e+00 4.3893451398e+00 
32900 5.7894881629e+00 -1.0686757998e-02 2.5344057247e+00 -4.3897194822e+00 2.5344057247e+00 4.3897194822e+00 
33000 5.7894523872e+00 -1.0421303517e-02 2.5346165612e+00 -4.3900846618e+00 2.5346165612e+00 4.3900846618e+00 
33100 5.7894169131e+00 -1.0157594730e-02 2.5348221435e+00 -4.3904407407e+00 2.5348221435e+00 4.3904407407e+00 
33200 5.7893817289e+00 -9.8956242252e-03 2.5350225072e+00 -4.3907877809e+00 2.5350225072e+00 4.3907877809e+00 
33300 5.7893468233e+00 -9.6353842802e-03 2.5352176880e+00 -4.3911258438e+00 2.5352176880e+00 4.3911258438e+00 
33400 5.7893121852e+00 -9.3768668696e-03 2.5354077211e+00 -4.3914549908e+00 2.5354077211e+00 4.3914549908e+00 
33500 5.7892778035e+00 -9.1200636741e-03 2.5355926416e+00 -4.3917752826e+00 2.5355926416e+00 4.3917752826e+00 
33600 5.7892436674e+00 -8.8649660900e-03 2.5357724846e+00 -4.3920867798e+00 2.5357724846e+00 4.3920867798e+00 
33700 5.7892097663e+00 -8.6115652373e-03 2.5359472848e+00 -4.3923895425e+00 2.5359472848e+00 4.3923895425e+00 
33800 5.7891760899e+00 -8.3598519685e-03 2.5361170766e+00 -4.3926836306e+00 2.5361170766e+00 4.3926836306e+00 
33900 5.7891426277e+00 -8.1098168775e-03 2.5362818943e+00 -4.3929691033e+00 2.5362818943e+00 4.3929691033e+00 
34000 5.7891093698e+00 -7.8614503082e-03 2.5364417721e+00 -4.3932460197e+00 2.5364417721e+00 4.3932460197e+00 
34100 5.7890763061e+00 -7.6147423626e-03 2.5365967437e+00 -4.3935144385e+00 2.5365967437e+00 4.3935144385e+00 
34200 5.7890434269e+00 -7.3696829098e-03 2.5367468428e+00 -4.3937744177e+00 2.5367468428e+00 4.3937744177e+00 
34300 5.7890107225e+00 -7.1262615941e-03 2.5368921028e+00 -4.3940260153e+00 2.5368921028e+00 4.3940260153e+00 
34400 5.7889781835e+00 -6.8844678434e-03 2.5370325567e+00 -4.3942692886e+00 2.5370325567e+00 4.3942692886e+00 
34500 5.7889458006e+00 -6.6442908772e-03 2.5371682374e+00 -4.3945042945e+00 2.5371682374e+00 4.3945042945e+00 
34600 5.7889135645e+00 -6.4057197153e-03 2.5372991776e+00 -4.3947310897e+00 2.5372991776e+00 4.3947310897e+00 
34700 5.7888814663e+00 -6.1687431853e-03 2.5374254097e+00 -4.3949497301e+00 2.5374254097e+00 4.3949497301e+00 
34800 5.7888494970e+00 -5.9333499308e-03 2.5375469659e+00 -4.3951602715e+00 2.5375469659e+00 4.3951602715e+00 
34900 5.7888176479e+00 -5.6995284192e-03 2.5376638779e+00 -4.3953627691e+00 2.5376638779e+00 4.3953627691e+00 
35000 5.7887859102e+00 -5.4672669497e-03 2.5377761775e+00 -4.3955572776e+00 2.5377761775e+00 4.3955572776e+00 
35100 5.7887542755e+00 -5.2365536607e-03 2.5378838959e+00 -4.3957438514e+00 2.5378838959e+00 4.3957438514e+00 
35200 5.7887227354e+00 -5.0073765377e-03 2.5379870643e+00 -4.3959225443e+00 2.5379870643e+00 4.3959225443e+00 
35300 5.7886912816e+00 -4.7797234203e-03 2.5380857135e+00 -4.3960934098e+00 2.5380857135e+00 4.3960934098e+00 
35400 5.7886599059e+00 -4.5535820100e-03 2.5381798741e+00 -4.3962565007e+00 2.5381798741e+00 4.3962565007e+00 
35500 5.7886286003e+00 -4.3289398773e-03 2.5382695764e+00 -4.3964118696e+00 2.5382695764e+00 4.3964118696e+00 
35600 5.7885973568e+00 -4.1057844691e-03 2.5383548503e+00 -4.3965595684e+00 2.5383548503e+00 4.3965595684e+00 
35700 5.7885661676e+00 -3.8841031151e-03 2.5384357256e+00 -4.3966996486e+00 2.5384357256e+00 4.3966996486e+00 
35800 5.7885350249e+00 -3.6638830356e-03 2.5385122319e+00 -4.3968321612e+00 2.5385122319e+00 4.3968321612e+00 
35900 5.7885039211e+00 -3.4451113475e-03 2.5385843982e+00 -4.3969571569e+00 2.5385843982e+00 4.3969571569e+00 
36000 5.7884728487e+00 -3.2277750718e-03 2.5386522534e+00 -4.3970746857e+00 2.5386522534e+00 4.3970746857e+00 
36100 5.7884418001e+00 -3.0118611395e-03 2.5387158263e+00 -4.3971847971e+00 2.5387158263e+00 4.3971847971e+00 
36200 5.7884107681e+00 -2.7973563984e-03 2.5387751451e+00 -4.3972875404e+00 2.5387751451e+00 4.3972875404e+00 
36300 5.7883797453e+00 -2.5842476195e-03 2.5388302380e+00 -4.3973829640e+00 2.5388302380e+00 4.3973829640e+00 
36400 5.7883487245e+00 -2.3725215034e-03 2.5388811326e+00 -4.3974711160e+00 2.5388811326e+00 4.3974711160e+00 
36500 5.7883176987e+00 -2.1621646859e-03 2.5389278565e+00 -4.3975520442e+00 2.5389278565e+00 4.3975520442e+00 
36600 5.7882866607e+00 -1.9531637445e-03 2.5389704369e+00 -4.3976257956e+00 2.5389704369e+00 4.3976257956e+00 
36700 5.7882556036e+00 -1.7455052041e-03 2.5390089007e+00 -4.3976924168e+00 2.5390089007e+00 4.3976924168e+00 
36800 5.7882245206e+00 -1.5391755429e-03 2.5390432745e+00 -4.3977519541e+00 2.5390432745e+00 4.3977519541e+00 
36900 5.7881934048e+00 -1.3341611980e-03 2.5390735847e+00 -4.3978044529e+00 2.5390735847e+00 4.3978044529e+00 
37000 5.7881622494e+00 -1.1304485709e-03 2.5390998574e+00 -4.3978499584e+00 2.5390998574e+00 4.3978499584e+00 
37100 5.7881310478e+00 -9.2802403297e-04 2.5391221182e+00 -4.3978885154e+00 2.5391221182e+00 4.3978885154e+00 
37200 5.7880997934e+00 -7.2687393094e-04 2.5391403927e+00 -4.3979201678e+00 2.5391403927e+00 4.3979201678e+00 
37300 5.7880684795e+00 -5.2698459186e-04 2.5391547061e+00 -4.3979449593e+00 2.5391547061e+00 4.3979449593e+00 
37400 5.7880370996e+00 -3.2834232831e-04 2.5391650833e+00 -4.3979629331e+00 2.5391650833e+00 4.3979629331e+00 
37500 5.7880056474e+00 -1.3093344341e-04 2.5391715489e+00 -4.3979741318e+00 2.5391715489e+00 4.3979741318e+00 
37600 5.7879741164e+00 6.5255764327e-05 2.5391741271e+00 -4.3979785975e+00 2.5391741271e+00 4.3979785975e+00 
37700 5.7879425007e+00 2.6097368685e-04 2.5391741271e+00 -4.3979785975e+00 2.5391741271e+00 4.3979785975e+00 
37800 5.7879107935e+00 4.5476431524e-04 2.5391689882e+00 -4.3979696966e+00 2.5391689882e+00 4.3979696966e+00 
37900 5.7878789886e+00 6.4737537975e-04 2.5391600332e+00 -4.3979541861e+00 2.5391600332e+00 4.3979541861e+00 
38000 5.7878470798e+00 8.3882070066e-04 2.5391472854e+00 -4.3979321062e+00 2.5391472854e+00 4.3979321062e+00 
38100 5.7878150609e+00 1.0291140535e-03 2.5391307677e+00 -4.3979034966e+00 2.5391307677e+00 4.3979034966e+00 
38200 5.7877829258e+00 1.2182691710e-03 2.5391105026e+00 -4.3978683965e+00 2.5391105026e+00 4.3978683965e+00 
38300 5.7877506684e+00 1.4062997431e-03 2.5390865126e+00 -4.3978268446e+00 2.5390865126e+00 4.3978268446e+00 
38400 5.7877182827e+00 1.5932194163e-03 2.5390588196e+00 -4.3977788789e+00 2.5390588196e+00 4.3977788789e+00 
38500 5.7876857626e+00 1.7790417924e-03 2.5390274454e+00 -4.3977245373e+00 2.5390274454e+00 4.3977245373e+00 
38600 5.7876531022e+00 1.9637804261e-03 2.5389924116e+00 -4.3976638569e+00 2.5389924116e+00 4.3976638569e+00 
38700 5.7876202955e+00 2.1474488231e-03 2.5389537393e+00 -4.3975968745e+00 2.5389537393e+00 4.3975968745e+00 
38800 5.7875873366e+00 2.3300604376e-03 2.5389114493e+00 -4.3975236262e+00 2.5389114493e+00 4.3975236262e+00 
38900 5.7875542195e+00 2.5116286694e-03 2.5388655625e+00 -4.3974441478e+00 2.5388655625e+00 4.3974441478e+00 
39000 5.7875209385e+00 2.6921668615e-03 2.5388160990e+00 -4.3973584746e+00 2.5388160990e+00 4.3973584746e+00 
39100 5.7874874876e+00 2.8716882972e-03 2.5387630791e+00 -4.3972666414e+00 2.5387630791e+00 4.3972666414e+00 
39200 5.7874538611e+00 3.0502061977e-03 2.5387065225e+00 -4.3971686824e+00 2.5387065225e+00 4.3971686824e+00 
39300 5.7874200531e+00 3.2277337187e-03 2.5386464487e+00 -4.3970646316e+00 2.5386464487e+00 4.3970646316e+00 
39400 5.7873860579e+00 3.4042839483e-03 2.5385828770e+00 -4.3969545222e+00 2.5385828770e+00 4.3969545222e+00 
39500 5.7873518696e+00 3.5798699041e-03 2.5385158264e+00 -4.3968383872e+00 2.5385158264e+00 4.3968383872e+00 
39600 5.7873174826e+00 3.7545045304e-03 2.5384453157e+00 -4.3967162590e+00 2.5384453157e+00 4.3967162590e+00 
39700 5.7872828910e+00 3.9282006956e-03 2.5383713632e+00 -4.3965881695e+00 2.5383713632e+00 4.3965881695e+00 
39800 5.7872480892e+00 4.1009711899e-03 2.5382939872e+00 -4.3964541504e+00 2.5382939872e+00 4.3964541504e+00 
39900 5.7872130714e+00 4.2728287224e-03 2.5382132056e+00 -4.3963142325e+00 2.5382132056e+00 4.3963142325e+00 
40000 5.7871778320e+00 4.4437859188e-03 2.5381290360e+00 -4.3961684466e+00 2.5381290360e+00 4.3961684466e+00 
40100 5.7871423652e+00 4.6138553190e-03 2.5380414960e+00 -4.3960168227e+00 2.5380414960e+00 4.3960168227e+00 
40200 5.7871066653e+00 4.7830493746e-03 2.5379506025e+00 -4.3958593906e+00 2.5379506025e+00 4.3958593906e+00 
40300 5.7870707267e+00 4.9513804466e-03 2.5378563725e+00 -4.3956961795e+00 2.5378563725e+00 4.3956961795e+00 
40400 5.7870345437e+00 5.1188608034e-03 2.5377588227e+00 -4.3955272183e+00 2.5377588227e+00 4.3955272183e+00 
40500 5.7869981105e+00 5.2855026180e-03 2.5376579694e+00 -4.3953525353e+00 2.5376579694e+00 4.3953525353e+00 
40600 5.7869614215e+00 5.4513179662e-03 2.5375538288e+00 -4.3951721584e+00 2.5375538288e+00 4.3951721584e+00 
40700 5.7869244711e+00 5.6163188246e-03 2.5374464167e+00 -4.3949861152e+00 2.5374464167e+00 4.3949861152e+00 
40800 5.7868872535e+00 5.7805170682e-03 2.5373357488e+00 -4.3947944327e+00 2.5373357488e+00 4.3947944327e+00 
40900 5.7868497631e+00 5.9439244686e-03 2.5372218404e+00 -4.3945971377e+00 2.5372218404e+00 4.3945971377e+00 
41000 5.7868119942e+00 6.1065526918e-03 2.5371047068e+00 -4.3943942563e+00 2.5371047068e+00 4.3943942563e+00 
41100 5.7867739410e+00 6.2684132965e-03 2.5369843629e+00 -4.3941858145e+00 2.5369843629e+00 4.3941858145e+00 
41200 5.7867355979e+00 6.4295177321e-03 2.5368608232e+00 -4.3939718376e+00 2.5368608232e+00 4.3939718376e+00 
41300 5.7866969592e+00 6.5898773368e-03 2.5367341024e+00 -4.3937523506e+00 2.5367341024e+00 4.3937523506e+00 
41400 5.7866580191e+00 6.7495033358e-03 2.5366042145e+00 -4.3935273781e+00 2.5366042145e+00 4.3935273781e+00 
41500 5.7866187720e+00 6.9084068398e-03 2.5364711735e+00 -4.3932969445e+00 2.5364711735e+00 4.3932969445e+00 
41600 5.7865792120e+00 7.0665988428e-03 2.5363349933e+00 -4.3930610734e+00 2.5363349933e+00 4.3930610734e+00 
41700 5.7865393335e+00 7.2240902209e-03 2.5361956873e+00 -4.3928197883e+00 2.5361956873e+00 4.3928197883e+00 
41800 5.7864991306e+00 7.3808917301e-03 2.5360532688e+00 -4.3925731123e+00 2.5360532688e+00 4.3925731123e+00 
41900 5.7864585976e+00 7.5370140053e-03 2.5359077509e+00 -4.3923210679e+00 2.5359077509e+00 4.3923210679e+00 
42000 5.7864177288e+00 7.6924675582e-03 2.5357591465e+00 -4.3920636776e+00 2.5357591465e+00 4.3920636776e+00 
42100 5.7863765182e+00 7.8472627759e-03 2.5356074683e+00 -4.3918009631e+00 2.5356074683e+00 4.3918009631e+00 
42200 5.7863349600e+00 8.0014099195e-03 2.5354527286e+00 -4.3915329461e+00 2.5354527286e+00 4.3915329461e+00 
42300 5.7862930485e+00 8.1549191225e-03 2.5352949397e+00 -4.3912596477e+00 2.5352949397e+00 4.3912596477e+00 
42400 5.7862507777e+00 8.3078003893e-03 2.5351341135e+00 -4.3909810887e+00 2.5351341135e+00 4.3909810887e+00 
42500 5.7862081418e+00 8.4600635935e-03 2.5349702620e+00 -4.3906972895e+00 2.5349702620e+00 4.3906972895e+00 
42600 5.7861651348e+00 8.6117184771e-03 2.5348033967e+00 -4.3904082704e+00 2.5348033967e+00 4.3904082704e+00 
42700 5.7861217508e+00 8.7627746483e-03 2.5346335291e+00 -4.3901140509e+00 2.5346335291e+00 4.3901140509e+00 
42800 5.7860779839e+00 8.9132415809e-03 2.5344606703e+00 -4.3898146507e+00 2.5344606703e+00 4.3898146507e+00 
42900 5.7860338280e+00 9.0631286121e-03 2.5342848313e+00 -4.3895100887e+00 2.5342848313e+00 4.3895100887e+00 
43000 5.7859892772e+00 9.2124449418e-03 2.5341060230e+00 -4.3892003837e+00 2.5341060230e+00 4.3892003837e+00 
43100 5.7859443255e+00 9.3611996308e-03 2.5339242561e+00 -4.3888855541e+00 2.5339242561e+00 4.3888855541e+00 
43200 5.7858989667e+00 9.5094015999e-03 2.5337395409e+00 -4.3885656180e+00 2.5337395409e+00 4.3885656180e+00 
43300 5.7858531948e+00 9.6570596280e-03 2.5335518877e+00 -4.3882405932e+00 2.5335518877e+00 4.3882405932e+00 
43400 5.7858070036e+00 9.8041823512e-03 2.5333613067e+00 -4.3879104972e+00 2.5333613067e+00 4.3879104972e+00 
43500 5.7857603871e+00 9.9507782615e-03 2.5331678077e+00 -4.3875753471e+00 2.5331678077e+00 4.3875753471e+00 
43600 5.7857133390e+00 1.0096855705e-02 2.5329714005e+00 -4.3872351597e+00 2.5329714005e+00 4.3872351597e+00 
43700 5.7856658532e+00 1.0242422881e-02 2.5327720946e+00 -4.3868899518e+00 2.5327720946e+00 4.3868899518e+00 
43800 5.7856179233e+00 1.0387487841e-02 2.5325698994e+00 -4.3865397395e+00 2.5325698994e+00 4.3865397395e+00 
43900 5.7855695431e+00 1.0532058487e-02 2.5323648241e+00 -4.3861845387e+00 2.5323648241e+00 4.3861845387e+00 
44000 5.7855207064e+00 1.0676142570e-02 2.5321568779e+00 -4.3858243653e+00 2.5321568779e+00 4.3858243653e+00 
44100 5.7854714067e+00 1.0819747688e-02 2.5319460696e+00 -4.3854592346e+00 2.5319460696e+00 4.3854592346e+00 
44200 5.7854216377e+00 1.0962881287e-02 2.5317324079e+00 -4.3850891617e+00 2.5317324079e+00 4.3850891617e+00 
44300 5.7853713930e+00 1.1105550658e-02 2.5315159016e+00 -4.3847141617e+00 2.5315159016e+00 4.3847141617e+00 
44400 5.7853206661e+00 1.1247762935e-02 2.5312965589e+00 -4.3843342490e+00 2.5312965589e+00 4.3843342490e+00 
44500 5.7852694505e+00 1.1389525095e-02 2.5310743882e+00 -4.3839494380e+00 2.5310743882e+00 4.3839494380e+00 
44600 5.7852177398e+00 1.1530843957e-02 2.5308493976e+00 -4.3835597430e+00 2.5308493976e+00 4.3835597430e+00 
44700 5.7851655273e+00 1.1671726180e-02 2.5306215952e+00 -4.3831651777e+00 2.5306215952e+00 4.3831651777e+00 
44800 5.7851128064e+00 1.1812178260e-02 2.5303909889e+00 -4.3827657557e+00 2.5303909889e+00 4.3827657557e+00 
44900 5.7850595706e+00 1.1952206531e-02 2.5301575863e+00 -4.3823614906e+00 2.5301575863e+00 4.3823614906e+00 
45000 5.7850058131e+00 1.2091817163e-02 2.5299213950e+00 -4.3819523954e+00 2.5299213950e+00 4.3819523954e+00 
45100 5.7849515272e+00 1.2231016161e-02 2.5296824227e+00 -4.3815384831e+00 2.5296824227e+00 4.3815384831e+00 
45200 5.7848967061e+00 1.2369809361e-02 2.5294406765e+00 -4.3811197664e+00 2.5294406765e+00 4.3811197664e+00 
45300 5.7848413431e+00 1.2508202432e-02 2.5291961637e+00 -4.3806962579e+00 2.5291961637e+00 4.3806962579e+00 
45400 5.7847854313e+00 1.2646200874e-02 2.5289488915e+00 -4.3802679698e+00 2.5289488915e+00 4.3802679698e+00 
45500 5.7847289638e+00 1.2783810013e-02 2.5286988668e+00 -4.3798349144e+00 2.5286988668e+00 4.3798349144e+00 
45600 5.7846719337e+00 1.2921035004e-02 2.5284460966e+00 -4.3793971035e+00 2.5284460966e+00 4.3793971035e+00 
45700 5.7846143340e+00 1.3057880827e-02 2.5281905875e+00 -4.3789545488e+00 2.5281905875e+00 4.3789545488e+00 
45800 5.7845561577e+00 1.3194352287e-02 2.5279323463e+00 -4.3785072620e+00 2.5279323463e+00 4.3785072620e+00 
45900 5.7844973977e+00 1.3330454009e-02 2.5276713796e+00 -4.3780552543e+00 2.5276713796e+00 4.3780552543e+00 
46000 5.7844380470e+00 1.3466190442e-02 2.5274076938e+00 -4.3775985371e+00 2.5274076938e+00 4.3775985371e+00 
46100 5.7843780983e+00 1.3601565852e-02 2.5271412953e+00 -4.3771371213e+00 2.5271412953e+00 4.3771371213e+00 
46200 5.7843175445e+00 1.3736584324e-02 2.5268721903e+00 -4.3766710178e+00 2.5268721903e+00 4.3766710178e+00 
46300 5.7842563784e+00 1.3871249759e-02 2.5266003851e+00 -4.3762002375e+00 2.5266003851e+00 4.3762002375e+00 
46400 5.7841945926e+00 1.4005565872e-02 2.5263258859e+00 -4.3757247908e+00 2.5263258859e+00 4.3757247908e+00 
46500 5.7841321799e+00 1.4139536190e-02 2.5260486986e+00 -4.3752446883e+00 2.5260486986e+00 4.3752446883e+00 
46600 5.7840691329e+00 1.4273164053e-02 2.5257688292e+00 -4.3747599403e+00 2.5257688292e+00 4.3747599403e+00 
46700 5.7840054442e+00 1.4406452608e-02 2.5254862836e+00 -4.3742705569e+00 2.5254862836e+00 4.3742705569e+00 
46800 5.7839411062e+00 1.4539404810e-02 2.5252010676e+00 -4.3737765484e+00 2.5252010676e+00 4.3737765484e+00 
46900 5.7838761116e+00 1.4672023421e-02 2.5249131870e+00 -4.3732779245e+00 2.5249131870e+00 4.3732779245e+00 
47000 5.7838104526e+00 1.4804311004e-02 2.5246226474e+00 -4.3727746953e+00 2.5246226474e+00 4.3727746953e+00 
47100 5.7837441219e+00 1.4936269927e-02 2.5243294546e+00 -4.3722668704e+00 2.5243294546e+00 4.3722668704e+00 
47200 5.7836771117e+00 1.5067902357e-02 2.5240336141e+00 -4.3717544596e+00 2.5240336141e+00 4.3717544596e+00 
47300 5.7836094142e+00 1.5199210257e-02 2.5237351314e+00 -4.3712374725e+00 2.5237351314e+00 4.3712374725e+00 
47400 5.7835410219e+00 1.5330195389e-02 2.5234340121e+00 -4.3707159185e+00 2.5234340121e+00 4.3707159185e+00 
47500 5.7834719270e+00 1.5460859308e-02 2.5231302616e+00 -4.3701898072e+00 2.5231302616e+00 4.3701898072e+00 
47600 5.7834021215e+00 1.5591203360e-02 2.5228238853e+00 -4.3696591479e+00 2.5228238853e+00 4.3696591479e+00 
47700 5.7833315977e+00 1.5721228684e-02 2.5225148886e+00 -4.3691239499e+00 2.5225148886e+00 4.3691239499e+00 
47800 5.7832603476e+00 1.5850936203e-02 2.5222032769e+00 -4.3685842226e+00 2.5222032769e+00 4.3685842226e+00 
47900 5.7831883634e+00 1.5980326630e-02 2.5218890554e+00 -4.3680399750e+00 2.5218890554e+00 4.3680399750e+00 
48000 5.7831156370e+00 1.6109400459e-02 2.5215722296e+00 -4.3674912166e+00 2.5215722296e+00 4.3674912166e+00 
48100 5.7830421604e+00 1.6238157968e-02 2.5212528047e+00 -4.3669379564e+00 2.5212528047e+00 4.3669379564e+00 
48200 5.7829679255e+00 1.6366599211e-02 2.5209307859e+00 -4.3663802036e+00 2.5209307859e+00 4.3663802036e+00 
48300 5.7828929243e+00 1.6494724023e-02 2.5206061787e+00 -4.3658179674e+00 2.5206061787e+00 4.3658179674e+00 
48400 5.7828171485e+00 1.6622532012e-02 2.5202789882e+00 -4.3652512568e+00 2.5202789882e+00 4.3652512568e+00 
48500 5.7827405900e+00 1.6750022560e-02 2.5199492198e+00 -4.3646800811e+00 2.5199492198e+00 4.3646800811e+00 
48600 5.7826632406e+00 1.6877194817e-02 2.5196168787e+00 -4.3641044495e+00 2.5196168787e+00 4.3641044495e+00 
48700 5.7825850920e+00 1.7004047705e-02 2.5192819702e+00 -4.3635243710e+00 2.5192819702e+00 4.3635243710e+00 
48800 5.7825061360e+00 1.7130579909e-02 2.5189444997e+00 -4.3629398549e+00 2.5189444997e+00 4.3629398549e+00 
48900 5.7824263641e+00 1.7256789878e-02 2.5186044724e+00 -4.3623509104e+00 2.5186044724e+00 4.3623509104e+00 
49000 5.7823457680e+00 1.7382675823e-02 2.5182618939e+00 -4.3617575469e+00 2.5182618939e+00 4.3617575469e+00 
49100 5.7822643394e+00 1.7508235713e-02 2.5179167693e+00 -4.3611597737e+00 2.5179167693e+00 4.3611597737e+00 
49200 5.7821820697e+00 1.7633467275e-02 2.5175691043e+00 -4.3605576002e+00 2.5175691043e+00 4.3605576002e+00 
49300 5.7820989506e+00 1.7758367986e-02 2.5172189042e+00 -4.3599510359e+00 2.5172189042e+00 4.3599510359e+00 
49400 5.7820149736e+00 1.7882935079e-02 2.5168661746e+00 -4.3593400903e+00 2.5168661746e+00 4.3593400903e+00 
49500 5.7819301301e+00 1.8007165533e-02 2.5165109210e+00 -4.3587247730e+00 2.5165109210e+00 4.3587247730e+00 
49600 5.7818444116e+00 1.8131056076e-02 2.5161531491e+00 -4.3581050939e+00 2.5161531491e+00 4.3581050939e+00 
49700 5.7817578095e+00 1.8254603176e-02 2.5157928645e+00 -4.3574810627e+00 2.5157928645e+00 4.3574810627e+00 
49800 5.7816703153e+00 1.8377803047e-02 2.5154300730e+00 -4.3568526894e+00 2.5154300730e+00 4.3568526894e+00 
49900 5.7815819203e+00 1.8500651639e-02 2.5150647805e+00 -4.3562199841e+00 2.5150647805e+00 4.3562199841e+00 
50000 5.7814926159e+00 1.8623144641e-02 2.5146969927e+00 -4.3555829570e+00 2.5146969927e+00 4.3555829570e+00 
50100 5.7814023935e+00 1.8745277473e-02 2.5143267158e+00 -4.3549416185e+00 2.5143267158e+00 4.3549416185e+00 
50200 5.7813112445e+00 1.8867045289e-02 2.5139539556e+00 -4.3542959791e+00 2.5139539556e+00 4.3542959791e+00 
50300 5.7812191600e+00 1.8988442970e-02 2.5135787185e+00 -4.3536460493e+00 2.5135787185e+00 4.3536460493e+00 
50400 5.7811261316e+00 1.9109465126e-02 2.5132010107e+00 -4.3529918402e+00 2.5132010107e+00 4.3529918402e+00 
50500 5.7810321504e+00 1.9230106088e-02 2.5128208385e+00 -4.3523333626e+00 2.5128208385e+00 4.3523333626e+00 
50600 5.7809372078e+00 1.9350359910e-02 2.5124382084e+00 -4.3516706278e+00 2.5124382084e+00 4.3516706278e+00 
50700 5.7808412951e+00 1.9470220364e-02 2.5120531270e+00 -4.3510036473e+00 2.5120531270e+00 4.3510036473e+00 
50800 5.7807444036e+00 1.9589680941e-02 2.5116656010e+00 -4.3503324325e+00 2.5116656010e+00 4.3503324325e+00 
50900 5.7806465246e+00 1.9708734843e-02 2.5112756371e+00 -4.3496569953e+00 2.5112756371e+00 4.3496569953e+00 
51000 5.7805476494e+00 1.9827374984e-02 2.5108832425e+00 -4.3489773479e+00 2.5108832425e+00 4.3489773479e+00 
51100 5.7804477693e+00 1.9945593989e-02 2.5104884242e+00 -4.3482935025e+00 2.5104884242e+00 4.3482935025e+00 
51200 5.7803468757e+00 2.0063384187e-02 2.5100911894e+00 -4.3476054716e+00 2.5100911894e+00 4.3476054716e+00 
51300 5.7802449598e+00 2.0180737614e-02 2.5096915455e+00 -4.3469132681e+00 2.5096915455e+00 4.3469132681e+00 
51400 5.7801420131e+00 2.0297646007e-02 2.5092895001e+00 -4.3462169050e+00 2.5092895001e+00 4.3462169050e+00 
51500 5.7800380269e+00 2.0414100802e-02 2.5088850609e+00 -4.3455163958e+00 2.5088850609e+00 4.3455163958e+00 
51600 5.7799329926e+00 2.0530093133e-02 2.5084782358e+00 -4.3448117540e+00 2.5084782358e+00 4.3448117540e+00 
51700 5.7798269017e+00 2.0645613829e-02 2.5080690328e+00 -4.3441029937e+00 2.5080690328e+00 4.3441029937e+00 
51800 5.7797197455e+00 2.0760653414e-02 2.5076574602e+00 -4.3433901291e+00 2.5076574602e+00 4.3433901291e+00 
51900 5.7796115157e+00 2.0875202101e-02 2.5072435264e+00 -4.3426731747e+00 2.5072435264e+00 4.3426731747e+00 
52000 5.7795022037e+00 2.0989249791e-02 2.5068272401e+00 -4.3419521457e+00 2.5068272401e+00 4.3419521457e+00 
52100 5.7793918011e+00 2.1102786076e-02 2.5064086100e+00 -4.3412270571e+00 2.5064086100e+00 4.3412270571e+00 
52200 5.7792802996e+00 2.1215800230e-02 2.5059876452e+00 -4.3404979247e+00 2.5059876452e+00 4.3404979247e+00 
52300 5.7791676907e+00 2.1328281210e-02 2.5055643550e+00 -4.3397647645e+00 2.5055643550e+00 4.3397647645e+00 
52400 5.7790539663e+00 2.1440217657e-02 2.5051387487e+00 -4.3390275928e+00 2.5051387487e+00 4.3390275928e+00 
52500 5.7789391181e+00 2.1551597890e-02 2.5047108362e+00 -4.3382864265e+00 2.5047108362e+00 4.3382864265e+00 
52600 5.7788231381e+00 2.1662409907e-02 2.5042806272e+00 -4.3375412827e+00 2.5042806272e+00 4.3375412827e+00 
52700 5.7787060180e+00 2.1772641383e-02 2.5038481320e+00 -4.3367921791e+00 2.5038481320e+00 4.3367921791e+00 
52800 5.7785877500e+00 2.1882279667e-02 2.5034133610e+00 -4.3360391336e+00 2.5034133610e+00 4.3360391336e+00 
52900 5.7784683260e+00 2.1991311785e-02 2.5029763249e+00 -4.3352821648e+00 2.5029763249e+00 4.3352821648e+00 
53000 5.7783477384e+00 2.2099724434e-02 2.5025370345e+00 -4.3345212916e+00 2.5025370345e+00 4.3345212916e+00 
53100 5.7782259792e+00 2.2207503984e-02 2.5020955011e+00 -4.3337565333e+00 2.5020955011e+00 4.3337565333e+00 
53200 5.7781030410e+00 2.2314636474e-02 2.5016517361e+00 -4.3329879098e+00 2.5016517361e+00 4.3329879098e+00 
53300 5.7779789161e+00 2.2421107617e-02 2.5012057513e+00 -4.3322154414e+00 2.5012057513e+00 4.3322154414e+00 
53400 5.7778535971e+00 2.2526902794e-02 2.5007575587e+00 -4.3314391491e+00 2.5007575587e+00 4.3314391491e+00 
53500 5.7777270766e+00 2.2632007053e-02 2.5003071706e+00 -4.3306590541e+00 2.5003071706e+00 4.3306590541e+00 
53600 5.7775993476e+00 2.2736405116e-02 2.4998545998e+00 -4.3298751783e+00 2.4998545998e+00 4.3298751783e+00 
53700 5.7774704029e+00 2.2840081368e-02 2.4993998590e+00 -4.3290875442e+00 2.4993998590e+00 4.3290875442e+00 
53800 5.7773402356e+00 2.2943019868e-02 2.4989429616e+00 -4.3282961747e+00 2.4989429616e+00 4.3282961747e+00 
53900 5.7772088389e+00 2.3045204342e-02 2.4984839212e+00 -4.3275010934e+00 2.4984839212e+00 4.3275010934e+00 
54000 5.7770762061e+00 2.3146618184e-02 2.4980227516e+00 -4.3267023243e+00 2.4980227516e+00 4.3267023243e+00 
54100 5.7769423307e+00 2.3247244459e-02 2.4975594671e+00 -4.3258998920e+00 2.4975594671e+00 4.3258998920e+00 
54200 5.7768072065e+00 2.3347065904e-02 2.4970940824e+00 -4.3250938220e+00 2.4970940824e+00 4.3250938220e+00 
54300 5.7766708271e+00 2.3446064927e-02 2.4966266123e+00 -4.3242841400e+00 2.4966266123e+00 4.3242841400e+00 
54400 5.7765331867e+00 2.3544223607e-02 2.4961570721e+00 -4.3234708725e+00 2.4961570721e+00 4.3234708725e+00 
54500 5.7763942794e+00 2.3641523701e-02 2.4956854775e+00 -4.3226540468e+00 2.4956854775e+00 4.3226540468e+00 
54600 5.7762540996e+00 2.3737946639e-02 2.4952118446e+00 -4.3218336905e+00 2.4952118446e+00 4.3218336905e+00 
54700 5.7761126418e+00 2.3833473530e-02 2.4947361898e+00 -4.3210098322e+00 2.4947361898e+00 4.3210098322e+00 
54800 5.7759699010e+00 2.3928085164e-02 2.4942585298e+00 -4.3201825008e+00 2.4942585298e+00 4.3201825008e+00 
54900 5.7758258719e+00 2.4021762012e-02 2.4937788819e+00 -4.3193517262e+00 2.4937788819e+00 4.3193517262e+00 
55000 5.7756805499e+00 2.4114484231e-02 2.4932972636e+00 -4.3185175390e+00 2.4932972636e+00 4.3185175390e+00 
55100 5.7755339305e+00 2.4206231666e-02 2.4928136930e+00 -4.3176799701e+00 2.4928136930e+00 4.3176799701e+00 
55200 5.7753860092e+00 2.4296983855e-02 2.4923281885e+00 -4.3168390516e+00 2.4923281885e+00 4.3168390516e+00 
55300 5.7752367820e+00 2.4386720027e-02 2.4918407689e+00 -4.3159948162e+00 2.4918407689e+00 4.3159948162e+00 
55400 5.7750862452e+00 2.4475419114e-02 2.4913514535e+00 -4.3151472970e+00 2.4913514535e+00 4.3151472970e+00 
55500 5.7749343952e+00 2.4563059750e-02 2.4908602620e+00 -4.3142965283e+00 2.4908602620e+00 4.3142965283e+00 
55600 5.7747812286e+00 2.4649620274e-02 2.4903672145e+00 -4.3134425450e+00 2.4903672145e+00 4.3134425450e+00 
55700 5.7746267426e+00 2.4735078740e-02 2.4898723316e+00 -4.3125853826e+00 2.4898723316e+00 4.3125853826e+00 
55800 5.7744709344e+00 2.4819412920e-02 2.4893756343e+00 -4.3117250777e+00 2.4893756343e+00 4.3117250777e+00 
55900 5.7743138017e+00 2.4902600306e-02 2.4888771441e+00 -4.3108616674e+00 2.4888771441e+00 4.3108616674e+00 
56000 5.7741553423e+00 2.4984618121e-02 2.4883768831e+00 -4.3099951899e+00 2.4883768831e+00 4.3099951899e+00 
56100 5.7739955545e+00 2.5065443322e-02 2.4878748736e+00 -4.3091256839e+00 2.4878748736e+00 4.3091256839e+00 
56200 5.7738344368e+00 2.5145052610e-02 2.4873711385e+00 -4.3082531891e+00 2.4873711385e+00 4.3082531891e+00 
56300 5.7736719883e+00 2.5223422431e-02 2.4868657012e+00 -4.3073777461e+00 2.4868657012e+00 4.3073777461e+00 
56400 5.7735082080e+00 2.5300528991e-02 2.4863585857e+00 -4.3064993962e+00 2.4863585857e+00 4.3064993962e+00 
56500 5.7733430957e+00 2.5376348255e-02 2.4858498162e+00 -4.3056181817e+00 2.4858498162e+00 4.3056181817e+00 
56600 5.7731766514e+00 2.5450855965e-02 2.4853394177e+00 -4.3047341456e+00 2.4853394177e+00 4.3047341456e+00 
56700 5.7730088753e+00 2.5524027640e-02 2.4848274156e+00 -4.3038473319e+00 2.4848274156e+00 4.3038473319e+00 
56800 5.7728397683e+00 2.5595838590e-02 2.4843138357e+00 -4.3029577854e+00 2.4843138357e+00 4.3029577854e+00 
56900 5.7726693315e+00 2.5666263923e-02 2.4837987045e+00 -4.3020655519e+00 2.4837987045e+00 4.3020655519e+00 
57000 5.7724975665e+00 2.5735278558e-02 2.4832820488e+00 -4.3011706780e+00 2.4832820488e+00 4.3011706780e+00 
57100 5.7723244752e+00 2.5802857230e-02 2.4827638961e+00 -4.3002732113e+00 2.4827638961e+00 4.3002732113e+00 
57200 5.7721500601e+00 2.5868974507e-02 2.4822442745e+00 -4.2993732002e+00 2.4822442745e+00 4.2993732002e+00 
57300 5.7719743240e+00 2.5933604795e-02 2.4817232124e+00 -4.2984706942e+00 2.4817232124e+00 4.2984706942e+00 
57400 5.7717972702e+00 2.5996722355e-02 2.4812007388e+00 -4.2975657434e+00 2.4812007388e+00 4.2975657434e+00 
57500 5.7716189025e+00 2.6058301311e-02 2.4806768834e+00 -4.2966583993e+00 2.4806768834e+00 4.2966583993e+00 
57600 5.7714392251e+00 2.6118315666e-02 2.4801516764e+00 -4.2957487139e+00 2.4801516764e+00 4.2957487139e+00 
57700 5.7712582427e+00 2.6176739312e-02 2.4796251482e+00 -4.2948367405e+00 2.4796251482e+00 4.2948367405e+00 
57800 5.7710759605e+00 2.6233546045e-02 2.4790973304e+00 -4.2939225331e+00 2.4790973304e+00 4.2939225331e+00 
57900 5.7708923842e+00 2.6288709580e-02 2.4785682545e+00 -4.2930061468e+00 2.4785682545e+00 4.2930061468e+00 
58000 5.7707075200e+00 2.6342203562e-02 2.4780379529e+00 -4.2920876375e+00 2.4780379529e+00 4.2920876375e+00 
58100 5.7705213746e+00 2.6394001584e-02 2.4775064586e+00 -4.2911670624e+00 2.4775064586e+00 4.2911670624e+00 
58200 5.7703339553e+00 2.6444077203e-02 2.4769738050e+00 -4.2902444792e+00 2.4769738050e+00 4.2902444792e+00 
58300 5.7701452698e+00 2.6492403952e-02 2.4764400261e+00 -4.2893199471e+00 2.4764400261e+00 4.2893199471e+00 
58400 5.7699553265e+00 2.6538955359e-02 2.4759051565e+00 -4.2883935257e+00 2.4759051565e+00 4.2883935257e+00 
58500 5.7697641343e+00 2.6583704964e-02 2.4753692313e+00 -4.2874652761e+00 2.4753692313e+00 4.2874652761e+00 
58600 5.7695717025e+00 2.6626626335e-02 2.4748322863e+00 -4.2865352600e+00 2.4748322863e+00 4.2865352600e+00 
58700 5.7693780412e+00 2.6667693086e-02 2.4742943577e+00 -4.2856035404e+00 2.4742943577e+00 4.2856035404e+00 
58800 5.7691831611e+00 2.6706878897e-02 2.4737554823e+00 -4.2846701809e+00 2.4737554823e+00 4.2846701809e+00 
58900 5.7689870732e+00 2.6744157529e-02 2.4732156976e+00 -4.2837352464e+00 2.4732156976e+00 4.2837352464e+00 
59000 5.7687897894e+00 2.6779502845e-02 2.4726750415e+00 -4.2827988025e+00 2.4726750415e+00 4.2827988025e+00 
59100 5.7685913220e+00 2.6812888832e-02 2.4721335526e+00 -4.2818609161e+00 2.4721335526e+00 4.2818609161e+00 
59200 5.7683916841e+00 2.6844289614e-02 2.4715912698e+00 -4.2809216548e+00 2.4715912698e+00 4.2809216548e+00 
59300 5.7681908892e+00 2.6873679481e-02 2.4710482329e+00 -4.2799810873e+00 2.4710482329e+00 4.2799810873e+00 
59400 5.7679889516e+00 2.6901032902e-02 2.4705044820e+00 -4.2790392831e+00 2.4705044820e+00 4.2790392831e+00 
59500 5.7677858861e+00 2.6926324553e-02 2.4699600579e+00 -4.2780963129e+00 2.4699600579e+00 4.2780963129e+00 
59600 5.7675817082e+00 2.6949529330e-02 2.4694150018e+00 -4.2771522481e+00 2.4694150018e+00 4.2771522481e+00 
59700 5.7673764341e+00 2.6970622381e-02 2.4688693556e+00 -4.2762071612e+00 2.4688693556e+00 4.2762071612e+00 
59800 5.7671700805e+00 2.6989579119e-02 2.4683231617e+00 -4.2752611256e+00 2.4683231617e+00 4.2752611256e+00 
59900 5.7669626649e+00 2.7006375252e-02 2.4677764630e+00 -4.2743142156e+00 2.4677764630e+00 4.2743142156e+00 
60000 5.7667542053e+00 2.7020986799e-02 2.4672293029e+00 -4.2733665065e+00 2.4672293029e+00 4.2733665065e+00 
60100 5.7665447205e+00 2.7033390118e-02 2.4666817253e+00 -4.2724180744e+00 2.4666817253e+00 4.2724180744e+00 
60200 5.7663342299e+00 2.7043561930e-02 2.4661337749e+00 -4.2714689963e+00 2.4661337749e+00 4.2714689963e+00 
60300 5.7661227535e+00 2.7051479337e-02 2.4655854964e+00 -4.2705193502e+00 2.4655854964e+00 4.2705193502e+00 
60400 5.7659103121e+00 2.7057119853e-02 2.4650369355e+00 -4.2695692149e+00 2.4650369355e+00 4.2695692149e+00 
60500 5.7656969271e+00 2.7060461422e-02 2.4644881382e+00 -4.2686186699e+00 2.4644881382e+00 4.2686186699e+00 
60600 5.7654826205e+00 2.7061482448e-02 2.4639391508e+00 -4.2676677959e+00 2.4639391508e+00 4.2676677959e+00 
60700 5.7652674151e+00 2.7060161813e-02 2.4633900204e+00 -4.2667166742e+00 2.4633900204e+00 4.2667166742e+00 
60800 5.7650513342e+00 2.7056478910e-02 2.4628407944e+00 -4.2657653869e+00 2.4628407944e+00 4.2657653869e+00 
60900 5.7648344020e+00 2.7050413658e-02 2.4622915207e+00 -4.2648140170e+00 2.4622915207e+00 4.2648140170e+00 
61000 5.7646166430e+00 2.7041946536e-02 2.4617422477e+00 -4.2638626481e+00 2.4617422477e+00 4.2638626481e+00 
61100 5.7643980828e+00 2.7031058601e-02 2.4611930241e+00 -4.2629113649e+00 2.4611930241e+00 4.2629113649e+00 
61200 5.7641787474e+00 2.7017731517e-02 2.4606438990e+00 -4.2619602525e+00 2.4606438990e+00 4.2619602525e+00 
61300 5.7639586635e+00 2.7001947579e-02 2.4600949223e+00 -4.2610093968e+00 2.4600949223e+00 4.2610093968e+00 
61400 5.7637378583e+00 2.6983689736e-02 2.4595461438e+00 -4.2600588846e+00 2.4595461438e+00 4.2600588846e+00 
61500 5.7635163600e+00 2.6962941618e-02 2.4589976140e+00 -4.2591088031e+00 2.4589976140e+00 4.2591088031e+00 
61600 5.7632941971e+00 2.6939687560e-02 2.4584493837e+00 -4.2581592404e+00 2.4584493837e+00 4.2581592404e+00 
61700 5.7630713989e+00 2.6913912625e-02 2.4579015041e+00 -4.2572102851e+00 2.4579015041e+00 4.2572102851e+00 
61800 5.7628479953e+00 2.6885602633e-02 2.4573540266e+00 -4.2562620263e+00 2.4573540266e+00 4.2562620263e+00 
61900 5.7626240168e+00 2.6854744177e-02 2.4568070032e+00 -4.2553145539e+00 2.4568070032e+00 4.2553145539e+00 
62000 5.7623994945e+00 2.6821324655e-02 2.4562604859e+00 -4.2543679583e+00 2.4562604859e+00 4.2543679583e+00 
62100 5.7621744601e+00 2.6785332289e-02 2.4557145273e+00 -4.2534223302e+00 2.4557145273e+00 4.2534223302e+00 
62200 5.7619489459e+00 2.6746756150e-02 2.4551691801e+00 -4.2524777612e+00 2.4551691801e+00 4.2524777612e+00 
62300 5.7617229848e+00 2.6705586180e-02 2.4546244974e+00 -4.2515343429e+00 2.4546244974e+00 4.2515343429e+00 
62400 5.7614966102e+00 2.6661813213e-02 2.4540805323e+00 -4.2505921678e+00 2.4540805323e+00 4.2505921678e+00 
62500 5.7612698560e+00 2.6615429001e-02 2.4535373384e+00 -4.2496513284e+00 2.4535373384e+00 4.2496513284e+00 
62600 5.7610427567e+00 2.6566426230e-02 2.4529949695e+00 -4.2487119179e+00 2.4529949695e+00 4.2487119179e+00 
62700 5.7608153475e+00 2.6514798547e-02 2.4524534794e+00 -4.2477740296e+00 2.4524534794e+00 4.2477740296e+00 
62800 5.7605876638e+00 2.6460540575e-02 2.4519129223e+00 -4.2468377572e+00 2.4519129223e+00 4.2468377572e+00 
62900 5.7603597417e+00 2.6403647936e-02 2.4513733524e+00 -4.2459031946e+00 2.4513733524e+00 4.2459031946e+00 
63000 5.7601316175e+00 2.6344117268e-02 2.4508348240e+00 -4.2449704362e+00 2.4508348240e+00 4.2449704362e+00 
63100 5.7599033283e+00 2.6281946244e-02 2.4502973918e+00 -4.2440395762e+00 2.4502973918e+00 4.2440395762e+00 
63200 5.7596749114e+00 2.6217133591e-02 2.4497611102e+00 -4.2431107092e+00 2.4497611102e+00 4.2431107092e+00 
63300 5.7594464046e+00 2.6149679106e-02 2.4492260339e+00 -4.2421839300e+00 2.4492260339e+00 4.2421839300e+00 
63400 5.7592178461e+00 2.6079583669e-02 2.4486922178e+00 -4.2412593333e+00 2.4486922178e+00 4.2412593333e+00 
63500 5.7589892743e+00 2.6006849264e-02 2.4481597164e+00 -4.2403370139e+00 2.4481597164e+00 4.2403370139e+00 
63600 5.7587607282e+00 2.5931478987e-02 2.4476285847e+00 -4.2394170667e+00 2.4476285847e+00 4.2394170667e+00 
63700 5.7585322470e+00 2.5853477065e-02 2.4470988772e+00 -4.2384995864e+00 2.4470988772e+00 4.2384995864e+00 
63800 5.7583038701e+00 2.5772848865e-02 2.4465706487e+00 -4.2375846678e+00 2.4465706487e+00 4.2375846678e+00 
63900 5.7580756374e+00 2.5689600903e-02 2.4460439538e+00 -4.2366724056e+00 2.4460439538e+00 4.2366724056e+00 
64000 5.7578475888e+00 2.5603740862e-02 2.4455188471e+00 -4.2357628941e+00 2.4455188471e+00 4.2357628941e+00 
64100 5.7576197646e+00 2.5515277593e-02 2.4449953830e+00 -4.2348562276e+00 2.4449953830e+00 4.2348562276e+00 
64200 5.7573922052e+00 2.5424221128e-02 2.4444736158e+00 -4.2339525003e+00 2.4444736158e+00 4.2339525003e+00 
64300 5.7571649513e+00 2.5330582686e-02 2.4439535995e+00 -4.2330518057e+00 2.4439535995e+00 4.2330518057e+00 
64400 5.7569380436e+00 2.5234374676e-02 2.4434353882e+00 -4.2321542374e+00 2.4434353882e+00 4.2321542374e+00 
64500 5.7567115230e+00 2.5135610707e-02 2.4429190356e+00 -4.2312598884e+00 2.4429190356e+00 4.2312598884e+00 
64600 5.7564854304e+00 2.5034305588e-02 2.4424045951e+00 -4.2303688514e+00 2.4424045951e+00 4.2303688514e+00 
64700 5.7562598069e+00 2.4930475330e-02 2.4418921200e+00 -4.2294812185e+00 2.4418921200e+00 4.2294812185e+00 
64800 5.7560346933e+00 2.4824137147e-02 2.4413816633e+00 -4.2285970815e+00 2.4413816633e+00 4.2285970815e+00 
64900 5.7558101309e+00 2.4715309458e-02 2.4408732775e+00 -4.2277165315e+00 2.4408732775e+00 4.2277165315e+00 
65000 5.7555861605e+00 2.4604011884e-02 2.4403670149e+00 -4.2268396590e+00 2.4403670149e+00 4.2268396590e+00 
65100 5.7553628231e+00 2.4490265243e-02 2.4398629276e+00 -4.2259665540e+00 2.4398629276e+00 4.2259665540e+00 
65200 5.7551401594e+00 2.4374091550e-02 2.4393610669e+00 -4.2250973058e+00 2.4393610669e+00 4.2250973058e+00 
65300 5.7549182103e+00 2.4255514009e-02 2.4388614840e+00 -4.2242320029e+00 2.4388614840e+00 4.2242320029e+00 
65400 5.7546970162e+00 2.4134557005e-02 2.4383642297e+00 -4.2233707331e+00 2.4383642297e+00 4.2233707331e+00 
65500 5.7544766175e+00 2.4011246100e-02 2.4378693540e+00 -4.2225135834e+00 2.4378693540e+00 4.2225135834e+00 
65600 5.7542570543e+00 2.3885608018e-02 2.4373769069e+00 -4.2216606399e+00 2.4373769069e+00 4.2216606399e+00 
65700 5.7540383664e+00 2.3757670640e-02 2.4368869373e+00 -4.2208119878e+00 2.4368869373e+00 4.2208119878e+00 
65800 5.7538205934e+00 2.3627462987e-02 2.4363994942e+00 -4.2199677114e+00 2.4363994942e+00 4.2199677114e+00 
65900 5.7536037746e+00 2.3495015211e-02 2.4359146254e+00 -4.2191278941e+00 2.4359146254e+00 4.2191278941e+00 
66000 5.7533879488e+00 2.3360358575e-02 2.4354323786e+00 -4.2182926182e+00 2.4354323786e+00 4.2182926182e+00 
66100 5.7531731546e+00 2.3223525441e-02 2.4349528007e+00 -4.2174619649e+00 2.4349528007e+00 4.2174619649e+00 
66200 5.7529594301e+00 2.3084549254e-02 2.4344759379e+00 -4.2166360143e+00 2.4344759379e+00 4.2166360143e+00 
66300 5.7527468129e+00 2.2943464518e-02 2.4340018359e+00 -4.2158148455e+00 2.4340018359e+00 4.2158148455e+00 
66400 5.7525353402e+00 2.2800306780e-02 2.4335305396e+00 -4.2149985363e+00 2.4335305396e+00 4.2149985363e+00 
66500 5.7523250486e+00 2.2655112609e-02 2.4330620931e+00 -4.2141871632e+00 2.4330620931e+00 4.2141871632e+00 
66600 5.7521159744e+00 2.2507919573e-02 2.4325965400e+00 -4.2133808017e+00 2.4325965400e+00 4.2133808017e+00 
66700 5.7519081531e+00 2.2358766215e-02 2.4321339231e+00 -4.2125795257e+00 2.4321339231e+00 4.2125795257e+00 
66800 5.7517016196e+00 2.2207692030e-02 2.4316742843e+00 -4.2117834079e+00 2.4316742843e+00 4.2117834079e+00 
66900 5.7514964083e+00 2.2054737436e-02 2.4312176649e+00 -4.2109925198e+00 2.4312176649e+00 4.2109925198e+00 
67000 5.7512925529e+00 2.1899943754e-02 2.4307641051e+00 -4.2102069312e+00 2.4307641051e+00 4.2102069312e+00 
67100 5.7510900864e+00 2.1743353173e-02 2.4303136445e+00 -4.2094267106e+00 2.4303136445e+00 4.2094267106e+00 
67200 5.7508890411e+00 2.1585008724e-02 2.4298663219e+00 -4.2086519251e+00 2.4298663219e+00 4.2086519251e+00 
67300 5.7506894486e+00 2.1424954252e-02 2.4294221750e+00 -4.2078826401e+00 2.4294221750e+00 4.2078826401e+00 
67400 5.7504913398e+00 2.1263234383e-02 2.4289812408e+00 -4.2071189197e+00 2.4289812408e+00 4.2071189197e+00 
67500 5.7502947446e+00 2.1099894495e-02 2.4285435553e+00 -4.2063608262e+00 2.4285435553e+00 4.2063608262e+00 
67600 5.7500996923e+00 2.0934980681e-02 2.4281091537e+00 -4.2056084206e+00 2.4281091537e+00 4.2056084206e+00 
67700 5.7499062114e+00 2.0768539722e-02 2.4276780701e+00 -4.2048617619e+00 2.4276780701e+00 4.2048617619e+00 
67800 5.7497143294e+00 2.0600619049e-02 2.4272503377e+00 -4.2041209077e+00 2.4272503377e+00 4.2041209077e+00 
67900 5.7495240731e+00 2.0431266709e-02 2.4268259889e+00 -4.2033859139e+00 2.4268259889e+00 4.2033859139e+00 
68000 5.7493354682e+00 2.0260531332e-02 2.4264050548e+00 -4.2026568346e+00 2.4264050548e+00 4.2026568346e+00 
68100 5.7491485397e+00 2.0088462092e-02 2.4259875657e+00 -4.2019337224e+00 2.4259875657e+00 4.2019337224e+00 
68200 5.7489633115e+00 1.9915108674e-02 2.4255735510e+00 -4.2012166279e+00 2.4255735510e+00 4.2012166279e+00 
68300 5.7487798068e+00 1.9740521235e-02 2.4251630389e+00 -4.2005056000e+00 2.4251630389e+00 4.2005056000e+00 
68400 5.7485980477e+00 1.9564750369e-02 2.4247560566e+00 -4.1998006860e+00 2.4247560566e+00 4.1998006860e+00 
68500 5.7484180553e+00 1.9387847066e-02 2.4243526303e+00 -4.1991019311e+00 2.4243526303e+00 4.1991019311e+00 
68600 5.7482398499e+00 1.9209862679e-02 2.4239527851e+00 -4.1984093790e+00 2.4239527851e+00 4.1984093790e+00 
68700 5.7480634505e+00 1.9030848881e-02 2.4235565452e+00 -4.1977230712e+00 2.4235565452e+00 4.1977230712e+00 
68800 5.7478888754e+00 1.8850857632e-02 2.4231639334e+00 -4.1970430478e+00 2.4231639334e+00 4.1970430478e+00 
68900 5.7477161419e+00 1.8669941135e-02 2.4227749718e+00 -4.1963693465e+00 2.4227749718e+00 4.1963693465e+00 
69000 5.7475452660e+00 1.8488151803e-02 2.4223896813e+00 -4.1957020037e+00 2.4223896813e+00 4.1957020037e+00 
69100 5.7473762630e+00 1.8305542216e-02 2.4220080815e+00 -4.1950410536e+00 2.4220080815e+00 4.1950410536e+00 
69200 5.7472091471e+00 1.8122165088e-02 2.4216301913e+00 -4.1943865284e+00 2.4216301913e+00 4.1943865284e+00 
69300 5.7470439312e+00 1.7938073221e-02 2.4212560281e+00 -4.1937384587e+00 2.4212560281e+00 4.1937384587e+00 
69400 5.7468806276e+00 1.7753319474e-02 2.4208856084e+00 -4.1930968731e+00 2.4208856084e+00 4.1930968731e+00 
69500 5.7467192473e+00 1.7567956722e-02 2.4205189477e+00 -4.1924617982e+00 2.4205189477e+00 4.1924617982e+00 
69600 5.7465598004e+00 1.7382037819e-02 2.4201560603e+00 -4.1918332587e+00 2.4201560603e+00 4.1918332587e+00 
69700 5.7464022959e+00 1.7195615558e-02 2.4197969593e+00 -4.1912112776e+00 2.4197969593e+00 4.1912112776e+00 
69800 5.7462467417e+00 1.7008742640e-02 2.4194416569e+00 -4.1905958757e+00 2.4194416569e+00 4.1905958757e+00 
69900 5.7460931449e+00 1.6821471630e-02 2.4190901640e+00 -4.1899870722e+00 2.4190901640e+00 4.1899870722e+00 
70000 5.7459415115e+00 1.6633854926e-02 2.4187424906e+00 -4.1893848841e+00 2.4187424906e+00 4.1893848841e+00 
70100 5.7457918463e+00 1.6445944721e-02 2.4183986454e+00 -4.1887893267e+00 2.4183986454e+00 4.1887893267e+00 
70200 5.7456441534e+00 1.6257792969e-02 2.4180586361e+00 -4.1882004134e+00 2.4180586361e+00 4.1882004134e+00 
70300 5.7454984358e+00 1.6069451350e-02 2.4177224694e+00 -4.1876181556e+00 2.4177224694e+00 4.1876181556e+00 
70400 5.7453546955e+00 1.5880971236e-02 2.4173901508e+00 -4.1870425628e+00 2.4173901508e+00 4.1870425628e+00 
70500 5.7452129334e+00 1.5692403656e-02 2.4170616847e+00 -4.1864736430e+00 2.4170616847e+00 4.1864736430e+00 
70600 5.7450731497e+00 1.5503799269e-02 2.4167370746e+00 -4.1859114018e+00 2.4167370746e+00 4.1859114018e+00 
70700 5.7449353436e+00 1.5315208323e-02 2.4164163228e+00 -4.1853558433e+00 2.4164163228e+00 4.1853558433e+00 
70800 5.7447995131e+00 1.5126680634e-02 2.4160994305e+00 -4.1848069698e+00 2.4160994305e+00 4.1848069698e+00 
70900 5.7446656558e+00 1.4938265549e-02 2.4157863980e+00 -4.1842647816e+00 2.4157863980e+00 4.1842647816e+00 
71000 5.7445337678e+00 1.4750011917e-02 2.4154772244e+00 -4.1837292772e+00 2.4154772244e+00 4.1837292772e+00 
71100 5.7444038449e+00 1.4561968064e-02 2.4151719079e+00 -4.1832004535e+00 2.4151719079e+00 4.1832004535e+00 
71200 5.7442758816e+00 1.4374181763e-02 2.4148704456e+00 -4.1826783055e+00 2.4148704456e+00 4.1826783055e+00 
71300 5.7441498718e+00 1.4186700206e-02 2.4145728337e+00 -4.1821628265e+00 2.4145728337e+00 4.1821628265e+00 
71400 5.7440258084e+00 1.3999569982e-02 2.4142790672e+00 -4.1816540080e+00 2.4142790672e+00 4.1816540080e+00 
71500 5.7439036837e+00 1.3812837046e-02 2.4139891403e+00 -4.1811518398e+00 2.4139891403e+00 4.1811518398e+00 
71600 5.7437834892e+00 1.3626546703e-02 2.4137030461e+00 -4.1806563102e+00 2.4137030461e+00 4.1806563102e+00 
71700 5.7436652153e+00 1.3440743576e-02 2.4134207769e+00 -4.1801674056e+00 2.4134207769e+00 4.1801674056e+00 
71800 5.7435488522e+00 1.3255471593e-02 2.4131423239e+00 -4.1796851108e+00 2.4131423239e+00 4.1796851108e+00 
71900 5.7434343889e+00 1.3070773959e-02 2.4128676774e+00 -4.1792094092e+00 2.4128676774e+00 4.1792094092e+00 
72000 5.7433218140e+00 1.2886693140e-02 2.4125968269e+00 -4.1787402824e+00 2.4125968269e+00 4.1787402824e+00 
72100 5.7432111153e+00 1.2703270842e-02 2.4123297608e+00 -4.1782777103e+00 2.4123297608e+00 4.1782777103e+00 
72200 5.7431022801e+00 1.2520547995e-02 2.4120664668e+00 -4.1778216717e+00 2.4120664668e+00 4.1778216717e+00 
72300 5.7429952948e+00 1.2338564733e-02 2.4118069316e+00 -4.1773721436e+00 2.4118069316e+00 4.1773721436e+00 
72400 5.7428901454e+00 1.2157360383e-02 2.4115511411e+00 -4.1769291014e+00 2.4115511411e+00 4.1769291014e+00 
72500 5.7427868174e+00 1.1976973445e-02 2.4112990803e+00 -4.1764925193e+00 2.4112990803e+00 4.1764925193e+00 
72600 5.7426852956e+00 1.1797441582e-02 2.4110507335e+00 -4.1760623701e+00 2.4110507335e+00 4.1760623701e+00 
72700 5.7425855642e+00 1.1618801604e-02 2.4108060841e+00 -4.1756386249e+00 2.4108060841e+00 4.1756386249e+00 
72800 5.7424876072e+00 1.1441089458e-02 2.4105651148e+00 -4.1752212537e+00 2.4105651148e+00 4.1752212537e+00 
72900 5.7423914078e+00 1.1264340219e-02 2.4103278073e+00 -4.1748102251e+00 2.4103278073e+00 4.1748102251e+00 
73000 5.7422969489e+00 1.1088588078e-02 2.4100941429e+00 -4.1744055065e+00 2.4100941429e+00 4.1744055065e+00 
73100 5.7422042130e+00 1.0913866331e-02 2.4098641018e+00 -4.1740070637e+00 2.4098641018e+00 4.1740070637e+00 
73200 5.7421131822e+00 1.0740207376e-02 2.4096376638e+00 -4.1736148616e+00 2.4096376638e+00 4.1736148616e+00 
73300 5.7420238381e+00 1.0567642703e-02 2.4094148079e+00 -4.1732288638e+00 2.4094148079e+00 4.1732288638e+00 
73400 5.7419361621e+00 1.0396202890e-02 2.4091955123e+00 -4.1728490326e+00 2.4091955123e+00 4.1728490326e+00 
73500 5.7418501352e+00 1.0225917597e-02 2.4089797546e+00 -4.1724753294e+00 2.4089797546e+00 4.1724753294e+00 
73600 5.7417657380e+00 1.0056815560e-02 2.4087675119e+00 -4.1721077142e+00 2.4087675119e+00 4.1721077142e+00 
73700 5.7416829510e+00 9.8889245913e-03 2.4085587605e+00 -4.1717461462e+00 2.4085587605e+00 4.1717461462e+00 
73800 5.7416017544e+00 9.7222715764e-03 2.4083534763e+00 -4.1713905835e+00 2.4083534763e+00 4.1713905835e+00 
73900 5.7415221280e+00 9.5568824712e-03 2.4081516343e+00 -4.1710409829e+00 2.4081516343e+00 4.1710409829e+00 
74000 5.7414440516e+00 9.3927823023e-03 2.4079532093e+00 -4.1706973007e+00 2.4079532093e+00 4.1706973007e+00 
74100 5.7413675047e+00 9.2299951674e-03 2.4077581753e+00 -4.1703594919e+00 2.4077581753e+00 4.1703594919e+00 
74200 5.7412924666e+00 9.0685442362e-03 2.4075665058e+00 -4.1700275107e+00 2.4075665058e+00 4.1700275107e+00 
74300 5.7412189166e+00 8.9084517522e-03 2.4073781740e+00 -4.1697013105e+00 2.4073781740e+00 4.1697013105e+00 
74400 5.7411468337e+00 8.7497390356e-03 2.4071931525e+00 -4.1693808437e+00 2.4071931525e+00 4.1693808437e+00 
74500 5.7410761970e+00 8.5924264864e-03 2.4070114132e+00 -4.1690660621e+00 2.4070114132e+00 4.1690660621e+00 
74600 5.7410069852e+00 8.4365335885e-03 2.4068329280e+00 -4.1687569166e+00 2.4068329280e+00 4.1687569166e+00 
74700 5.7409391774e+00 8.2820789147e-03 2.4066576680e+00 -4.1684533574e+00 2.4066576680e+00 4.1684533574e+00 
74800 5.7408727521e+00 8.1290801316e-03 2.4064856040e+00 -4.1681553339e+00 2.4064856040e+00 4.1681553339e+00 
74900 5.7408076882e+00 7.9775540065e-03 2.4063167066e+00 -4.1678627950e+00 2.4063167066e+00 4.1678627950e+00 
75000 5.7407439645e+00 7.8275164131e-03 2.4061509458e+00 -4.1675756887e+00 2.4061509458e+00 4.1675756887e+00 
75100 5.7406815596e+00 7.6789823397e-03 2.4059882912e+00 -4.1672939628e+00 2.4059882912e+00 4.1672939628e+00 
75200 5.7406204524e+00 7.5319658963e-03 2.4058287123e+00 -4.1670175641e+00 2.4058287123e+00 4.1670175641e+00 
75300 5.7405606217e+00 7.3864803237e-03 2.4056721782e+00 -4.1667464391e+00 2.4056721782e+00 4.1667464391e+00 
75400 5.7405020463e+00 7.2425380017e-03 2.4055186577e+00 -4.1664805337e+00 2.4055186577e+00 4.1664805337e+00 
75500 5.7404447053e+00 7.1001504591e-03 2.4053681192e+00 -4.1662197934e+00 2.4053681192e+00 4.1662197934e+00 
75600 5.7403885775e+00 6.9593283833e-03 2.4052205311e+00 -4.1659641632e+00 2.4052205311e+00 4.1659641632e+00 
75700 5.7403336422e+00 6.8200816306e-03 2.4050758612e+00 -4.1657135876e+00 2.4050758612e+00 4.1657135876e+00 
75800 5.7402798786e+00 6.6824192371e-03 2.4049340774e+00 -4.1654680109e+00 2.4049340774e+00 4.1654680109e+00 
75900 5.7402272661e+00 6.5463494299e-03 2.4047951473e+00 -4.1652273769e+00 2.4047951473e+00 4.1652273769e+00 
76000 5.7401757841e+00 6.4118796384e-03 2.4046590383e+00 -4.1649916291e+00 2.4046590383e+00 4.1649916291e+00 
76100 5.7401254123e+00 6.2790165065e-03 2.4045257175e+00 -4.1647607108e+00 2.4045257175e+00 4.1647607108e+00 
76200 5.7400761305e+00 6.1477659046e-03 2.4043951520e+00 -4.1645345648e+00 2.4043951520e+00 4.1645345648e+00 
76300 5.7400279187e+00 6.0181329421e-03 2.4042673088e+00 -4.1643131339e+00 2.4042673088e+00 4.1643131339e+00 
76400 5.7399807570e+00 5.8901219806e-03 2.4041421547e+00 -4.1640963605e+00 2.4041421547e+00 4.1640963605e+00 
76500 5.7399346259e+00 5.7637366465e-03 2.4040196563e+00 -4.1638841870e+00 2.4040196563e+00 4.1638841870e+00 
76600 5.7398895057e+00 5.6389798448e-03 2.4038997802e+00 -4.1636765556e+00 2.4038997802e+00 4.1636765556e+00 
76700 5.7398453773e+00 5.5158537722e-03 2.4037824930e+00 -4.1634734082e+00 2.4037824930e+00 4.1634734082e+00 
76800 5.7398022215e+00 5.3943599314e-03 2.4036677611e+00 -4.1632746867e+00 2.4036677611e+00 4.1632746867e+00 
76900 5.7397600196e+00 5.2744991445e-03 2.4035555510e+00 -4.1630803331e+00 2.4035555510e+00 4.1630803331e+00 
77000 5.7397187530e+00 5.1562715676e-03 2.4034458289e+00 -4.1628902890e+00 2.4034458289e+00 4.1628902890e+00 
77100 5.7396784032e+00 5.0396767050e-03 2.4033385614e+00 -4.1627044962e+00 2.4033385614e+00 4.1627044962e+00 
77200 5.7396389521e+00 4.9247134232e-03 2.4032337148e+00 -4.1625228965e+00 2.4032337148e+00 4.1625228965e+00 
77300 5.7396003818e+00 4.8113799659e-03 2.4031312554e+00 -4.1623454315e+00 2.4031312554e+00 4.1623454315e+00 
77400 5.7395626746e+00 4.6996739684e-03 2.4030311496e+00 -4.1621720432e+00 2.4030311496e+00 4.1621720432e+00 
77500 5.7395258131e+00 4.5895924723e-03 2.4029333639e+00 -4.1620026734e+00 2.4029333639e+00 4.1620026734e+00 
77600 5.7394897801e+00 4.4811319403e-03 2.4028378647e+00 -4.1618372640e+00 2.4028378647e+00 4.1618372640e+00 
77700 5.7394545587e+00 4.3742882711e-03 2.4027446187e+00 -4.1616757571e+00 2.4027446187e+00 4.1616757571e+00 
77800 5.7394201322e+00 4.2690568137e-03 2.4026535923e+00 -4.1615180949e+00 2.4026535923e+00 4.1615180949e+00 
77900 5.7393864842e+00 4.1654323832e-03 2.4025647524e+00 -4.1613642197e+00 2.4025647524e+00 4.1613642197e+00 
78000 5.7393535986e+00 4.0634092747e-03 2.4024780657e+00 -4.1612140739e+00 2.4024780657e+00 4.1612140739e+00 
78100 5.7393214595e+00 3.9629812787e-03 2.4023934992e+00 -4.1610676004e+00 2.4023934992e+00 4.1610676004e+00 
78200 5.7392900512e+00 3.8641416958e-03 2.4023110198e+00 -4.1609247419e+00 2.4023110198e+00 4.1609247419e+00 
78300 5.7392593584e+00 3.7668833514e-03 2.4022305948e+00 -4.1607854416e+00 2.4022305948e+00 4.1607854416e+00 
78400 5.7392293659e+00 3.6711986105e-03 2.4021521913e+00 -4.1606496429e+00 2.4021521913e+00 4.1606496429e+00 
78500 5.7392000589e+00 3.5770793923e-03 2.4020757769e+00 -4.1605172893e+00 2.4020757769e+00 4.1605172893e+00 
78600 5.7391714229e+00 3.4845171848e-03 2.4020013192e+00 -4.1603883248e+00 2.4020013192e+00 4.1603883248e+00 
78700 5.7391434434e+00 3.3935030596e-03 2.4019287860e+00 -4.1602626935e+00 2.4019287860e+00 4.1602626935e+00 
78800 5.7391161065e+00 3.3040276860e-03 2.4018581451e+00 -4.1601403399e+00 2.4018581451e+00 4.1601403399e+00 
78900 5.7390893983e+00 3.2160813451e-03 2.4017893648e+00 -4.1600212089e+00 2.4017893648e+00 4.1600212089e+00 
79000 5.7390633052e+00 3.1296539448e-03 2.4017224133e+00 -4.1599052455e+00 2.4017224133e+00 4.1599052455e+00 
79100 5.7390378140e+00 3.0447350332e-03 2.4016572592e+00 -4.1597923954e+00 2.4016572592e+00 4.1597923954e+00 
79200 5.7390129116e+00 2.9613138127e-03 2.4015938713e+00 -4.1596826043e+00 2.4015938713e+00 4.1596826043e+00 
79300 5.7389885853e+00 2.8793791541e-03 2.4015322185e+00 -4.1595758184e+00 2.4015322185e+00 4.1595758184e+00 
79400 5.7389648224e+00 2.7989196099e-03 2.4014722699e+00 -4.1594719845e+00 2.4014722699e+00 4.1594719845e+00 
79500 5.7389416107e+00 2.7199234283e-03 2.4014139951e+00 -4.1593710495e+00 2.4014139951e+00 4.1593710495e+00 
79600 5.7389189382e+00 2.6423785660e-03 2.4013573636e+00 -4.1592729609e+00 2.4013573636e+00 4.1592729609e+00 
79700 5.7388967929e+00 2.5662727020e-03 2.4013023454e+00 -4.1591776666e+00 2.4013023454e+00 4.1591776666e+00 
79800 5.7388751635e+00 2.4915932502e-03 2.4012489106e+00 -4.1590851147e+00 2.4012489106e+00 4.1590851147e+00 
79900 5.7388540384e+00 2.4183273724e-03 2.4011970296e+00 -4.1589952542e+00 2.4011970296e+00 4.1589952542e+00 
80000 5.7388334066e+00 2.3464619912e-03 2.4011466730e+00 -4.1589080341e+00 2.4011466730e+00 4.1589080341e+00 
80100 5.7388132573e+00 2.2759838022e-03 2.4010978119e+00 -4.1588234042e+00 2.4010978119e+00 4.1588234042e+00 
80200 5.7387935797e+00 2.2068792864e-03 2.4010504174e+00 -4.1587413145e+00 2.4010504174e+00 4.1587413145e+00 
80300 5.7387743635e+00 2.1391347225e-03 2.4010044610e+00 -4.1586617157e+00 2.4010044610e+00 4.1586617157e+00 
80400 5.7387555984e+00 2.0727361985e-03 2.4009599145e+00 -4.1585845589e+00 2.4009599145e+00 4.1585845589e+00 
80500 5.7387372744e+00 2.0076696239e-03 2.4009167499e+00 -4.1585097956e+00 2.4009167499e+00 4.1585097956e+00 
80600 5.7387193819e+00 1.9439207407e-03 2.4008749395e+00 -4.1584373779e+00 2.4008749395e+00 4.1584373779e+00 
80700 5.7387019111e+00 1.8814751350e-03 2.4008344561e+00 -4.1583672585e+00 2.4008344561e+00 4.1583672585e+00 
80800 5.7386848528e+00 1.8203182480e-03 2.4007952724e+00 -4.1582993904e+00 2.4007952724e+00 4.1582993904e+00 
80900 5.7386681977e+00 1.7604353871e-03 2.4007573618e+00 -4.1582337272e+00 2.4007573618e+00 4.1582337272e+00 
81000 5.7386519369e+00 1.7018117363e-03 2.4007206977e+00 -4.1581702232e+00 2.4007206977e+00 4.1581702232e+00 
81100 5.7386360617e+00 1.6444323667e-03 2.4006852540e+00 -4.1581088329e+00 2.4006852540e+00 4.1581088329e+00 
81200 5.7386205634e+00 1.5882822470e-03 2.4006510049e+00 -4.1580495117e+00 2.4006510049e+00 4.1580495117e+00 
81300 5.7386054336e+00 1.5333462534e-03 2.4006179247e+00 -4.1579922151e+00 2.4006179247e+00 4.1579922151e+00 
81400 5.7385906642e+00 1.4796091793e-03 2.4005859883e+00 -4.1579368996e+00 2.4005859883e+00 4.1579368996e+00 
81500 5.7385762471e+00 1.4270557450e-03 2.4005551707e+00 -4.1578835220e+00 2.4005551707e+00 4.1578835220e+00 
81600 5.7385621745e+00 1.3756706069e-03 2.4005254473e+00 -4.1578320396e+00 2.4005254473e+00 4.1578320396e+00 
81700 5.7385484386e+00 1.3254383671e-03 2.4004967938e+00 -4.1577824103e+00 2.4004967938e+00 4.1577824103e+00 
81800 5.7385350320e+00 1.2763435818e-03 2.4004691863e+00 -4.1577345926e+00 2.4004691863e+00 4.1577345926e+00 
81900 5.7385219473e+00 1.2283707704e-03 2.4004426010e+00 -4.1576885456e+00 2.4004426010e+00 4.1576885456e+00 
82000 5.7385091773e+00 1.1815044238e-03 2.4004170147e+00 -4.1576442289e+00 2.4004170147e+00 4.1576442289e+00 
82100 5.7384967150e+00 1.1357290126e-03 2.4003924044e+00 -4.1576016025e+00 2.4003924044e+00 4.1576016025e+00 
82200 5.7384845536e+00 1.0910289955e-03 2.4003687473e+00 -4.1575606272e+00 2.4003687473e+00 4.1575606272e+00 
82300 5.7384726862e+00 1.0473888268e-03 2.4003460210e+00 -4.1575212642e+00 2.4003460210e+00 4.1575212642e+00 
82400 5.7384611064e+00 1.0047929640e-03 2.4003242036e+00 -4.1574834753e+00 2.4003242036e+00 4.1574834753e+00 
82500 5.7384498077e+00 9.6322587568e-04 2.4003032733e+00 -4.1574472229e+00 2.4003032733e+00 4.1574472229e+00 
82600 5.7384387837e+00 9.2267204802e-04 2.4002832086e+00 -4.1574124699e+00 2.4002832086e+00 4.1574124699e+00 
82700 5.7384280285e+00 8.8311599226e-04 2.4002639886e+00 -4.1573791798e+00 2.4002639886e+00 4.1573791798e+00 
82800 5.7384175359e+00 8.4454225128e-04 2.4002455924e+00 -4.1573473167e+00 2.4002455924e+00 4.1573473167e+00 
82900 5.7384073001e+00 8.0693540620e-04 2.4002279996e+00 -4.1573168450e+00 2.4002279996e+00 4.1573168450e+00 
83000 5.7383973153e+00 7.7028008268e-04 2.4002111900e+00 -4.1572877301e+00 2.4002111900e+00 4.1572877301e+00 
83100 5.7383875759e+00 7.3456095710e-04 2.4001951440e+00 -4.1572599374e+00 2.4001951440e+00 4.1572599374e+00 
83200 5.7383780764e+00 6.9976276250e-04 2.4001798419e+00 -4.1572334334e+00 2.4001798419e+00 4.1572334334e+00 
83300 5.7383688114e+00 6.6587029426e-04 2.4001652646e+00 -4.1572081848e+00 2.4001652646e+00 4.1572081848e+00 
83400 5.7383597757e+00 6.3286841569e-04 2.4001513933e+00 -4.1571841590e+00 2.4001513933e+00 4.1571841590e+00 
83500 5.7383509640e+00 6.0074206333e-04 2.4001382094e+00 -4.1571613238e+00 2.4001382094e+00 4.1571613238e+00 
83600 5.7383423715e+00 5.6947625209e-04 2.4001256946e+00 -4.1571396476e+00 2.4001256946e+00 4.1571396476e+00 
83700 5.7383339931e+00 5.3905608022e-04 2.4001138312e+00 -4.1571190995e+00 2.4001138312e+00 4.1571190995e+00 
83800 5.7383258240e+00 5.0946673400e-04 2.4001026014e+00 -4.1570996490e+00 2.4001026014e+00 4.1570996490e+00 
83900 5.7383178595e+00 4.8069349239e-04 2.4000919879e+00 -4.1570812660e+00 2.4000919879e+00 4.1570812660e+00 
84000 5.7383100951e+00 4.5272173135e-04 2.4000819739e+00 -4.1570639211e+00 2.4000819739e+00 4.1570639211e+00 
84100 5.7383025261e+00 4.2553692804e-04 2.4000725425e+00 -4.1570475855e+00 2.4000725425e+00 4.1570475855e+00 
84200 5.7382951482e+00 3.9912466487e-04 2.4000636774e+00 -4.1570322307e+00 2.4000636774e+00 4.1570322307e+00 
84300 5.7382879570e+00 3.7347063329e-04 2.4000553626e+00 -4.1570178289e+00 2.4000553626e+00 4.1570178289e+00 
84400 5.7382809484e+00 3.4856063750e-04 2.4000475821e+00 -4.1570043528e+00 2.4000475821e+00 4.1570043528e+00 
84500 5.7382741182e+00 3.2438059792e-04 2.4000403206e+00 -4.1569917754e+00 2.4000403206e+00 4.1569917754e+00 
84600 5.7382674624e+00 3.0091655449e-04 2.4000335628e+00 -4.1569800706e+00 2.4000335628e+00 4.1569800706e+00 
84700 5.7382609769e+00 2.7815466988e-04 2.4000272938e+00 -4.1569692123e+00 2.4000272938e+00 4.1569692123e+00 
84800 5.7382546579e+00 2.5608123245e-04 2.4000214989e+00 -4.1569591754e+00 2.4000214989e+00 4.1569591754e+00 
84900 5.7382485017e+00 2.3468265909e-04 2.4000161640e+00 -4.1569499350e+00 2.4000161640e+00 4.1569499350e+00 
85000 5.7382425045e+00 2.1394549789e-04 2.4000112748e+00 -4.1569414666e+00 2.4000112748e+00 4.1569414666e+00 
85100 5.7382366627e+00 1.9385643069e-04 2.4000068176e+00 -4.1569337466e+00 2.4000068176e+00 4.1569337466e+00 
85200 5.7382309727e+00 1.7440227542e-04 2.4000027789e+00 -4.1569267514e+00 2.4000027789e+00 4.1569267514e+00 
85300 5.7382254310e+00 1.5556998837e-04 2.3999991456e+00 -4.1569204582e+00 2.3999991456e+00 4.1569204582e+00 
85400 5.7382200343e+00 1.3734666623e-04 2.3999959045e+00 -4.1569148446e+00 2.3999959045e+00 4.1569148446e+00 
85500 5.7382147792e+00 1.1971954804e-04 2.3999930431e+00 -4.1569098885e+00 2.3999930431e+00 4.1569098885e+00 
85600 5.7382096624e+00 1.0267601701e-04 2.3999905490e+00 -4.1569055685e+00 2.3999905490e+00 4.1569055685e+00 
85700 5.7382046808e+00 8.6203602194e-05 2.3999884099e+00 -4.1569018635e+00 2.3999884099e+00 4.1569018635e+00 
85800 5.7381998313e+00 7.0289979980e-05 2.3999866140e+00 -4.1568987528e+00 2.3999866140e+00 4.1568987528e+00 
85900 5.7381951107e+00 5.6045250051e-05 2.3999866140e+00 -4.1568987528e+00 2.3999866140e+00 4.1568987528e+00 
86000 5.7381905161e+00 4.2098773430e-05 2.3999866140e+00 -4.1568987528e+00 2.3999866140e+00 4.1568987528e+00 
86100 5.7381860445e+00 2.8445073823e-05 2.3999866140e+00 -4.1568987528e+00 2.3999866140e+00 4.1568987528e+00 
86200 5.7381816930e+00 1.5078742022e-05 2.3999866140e+00 -4.1568987528e+00 2.3999866140e+00 4.1568987528e+00 
86300 5.7381774588e+00 1.9944362568e-06 2.3999866140e+00 -4.1568987528e+00 2.3999866140e+00 4.1568987528e+00 
86400 5.7381733393e+00 -1.0813117336e-05 2.3999866140e+00 -4.1568987528e+00 2.3999866140e+00 4.1568987528e+00 
86500 5.7381693317e+00 -2.3349124191e-05 2.3999866140e+00 -4.1568987528e+00 2.3999866140e+00 4.1568987528e+00 
86600 5.7381654335e+00 -3.5618720804e-05 2.3999866140e+00 -4.1568987528e+00 2.3999866140e+00 4.1568987528e+00 
86700 5.7381616419e+00 -4.7626974229e-05 2.3999866140e+00 -4.1568987528e+00 2.3999866140e+00 4.1568987528e+00 
86800 5.7381579546e+00 -5.9378881637e-05 2.3999866140e+00 -4.1568987528e+00 2.3999866140e+00 4.1568987528e+00 
86900 5.7381543690e+00 -7.0879369923e-05 2.3999866140e+00 -4.1568987528e+00 2.3999866140e+00 4.1568987528e+00 
87000 5.7381508826e+00 -8.1001362333e-05 2.3999880906e+00 -4.1569013105e+00 2.3999880906e+00 4.1569013105e+00 
87100 5.7381474932e+00 -9.0710832072e-05 2.3999897781e+00 -4.1569042334e+00 2.3999897781e+00 4.1569042334e+00 
87200 5.7381441984e+00 -1.0001794167e-04 2.3999916680e+00 -4.1569075067e+00 2.3999916680e+00 4.1569075067e+00 
87300 5.7381409958e+00 -1.0893269673e-04 2.3999937517e+00 -4.1569111158e+00 2.3999937517e+00 4.1569111158e+00 
87400 5.7381378834e+00 -1.1746494620e-04 2.3999960211e+00 -4.1569150465e+00 2.3999960211e+00 4.1569150465e+00 
87500 5.7381348589e+00 -1.2562438276e-04 2.3999984683e+00 -4.1569192852e+00 2.3999984683e+00 4.1569192852e+00 
87600 5.7381319202e+00 -1.3342054317e-04 2.4000010855e+00 -4.1569238183e+00 2.4000010855e+00 4.1569238183e+00 
87700 5.7381290653e+00 -1.4086280872e-04 2.4000038651e+00 -4.1569286327e+00 2.4000038651e+00 4.1569286327e+00 
87800 5.7381262920e+00 -1.4796040576e-04 2.4000067997e+00 -4.1569337156e+00 2.4000067997e+00 4.1569337156e+00 
87900 5.7381235984e+00 -1.5472240617e-04 2.4000098822e+00 -4.1569390547e+00 2.4000098822e+00 4.1569390547e+00 
88000 5.7381209825e+00 -1.6115772807e-04 2.4000131056e+00 -4.1569446377e+00 2.4000131056e+00 4.1569446377e+00 
88100 5.7381184424e+00 -1.6727513643e-04 2.4000164630e+00 -4.1569504530e+00 2.4000164630e+00 4.1569504530e+00 
88200 5.7381159763e+00 -1.7308324381e-04 2.4000199479e+00 -4.1569564889e+00 2.4000199479e+00 4.1569564889e+00 
88300 5.7381135823e+00 -1.7859051116e-04 2.4000235538e+00 -4.1569627345e+00 2.4000235538e+00 4.1569627345e+00 
88400 5.7381112586e+00 -1.8380524869e-04 2.4000272744e+00 -4.1569691788e+00 2.4000272744e+00 4.1569691788e+00 
88500 5.7381090035e+00 -1.8873561670e-04 2.4000311036e+00 -4.1569758112e+00 2.4000311036e+00 4.1569758112e+00 
88600 5.7381068152e+00 -1.9338962661e-04 2.4000350355e+00 -4.1569826215e+00 2.4000350355e+00 4.1569826215e+00 
88700 5.7381046921e+00 -1.9777514190e-04 2.4000390644e+00 -4.1569895998e+00 2.4000390644e+00 4.1569895998e+00 
88800 5.7381026326e+00 -2.0189987920e-04 2.4000431847e+00 -4.1569967362e+00 2.4000431847e+00 4.1569967362e+00 
88900 5.7381006350e+00 -2.0577140935e-04 2.4000473909e+00 -4.1570040215e+00 2.4000473909e+00 4.1570040215e+00 
89000 5.7380986977e+00 -2.0939715857e-04 2.4000516777e+00 -4.1570114465e+00 2.4000516777e+00 4.1570114465e+00 
89100 5.7380968193e+00 -2.1278440961e-04 2.4000560400e+00 -4.1570190023e+00 2.4000560400e+00 4.1570190023e+00 
89200 5.7380949982e+00 -2.1594030298e-04 2.4000604729e+00 -4.1570266804e+00 2.4000604729e+00 4.1570266804e+00 
89300 5.7380932329e+00 -2.1887183822e-04 2.4000649716e+00 -4.1570344722e+00 2.4000649716e+00 4.1570344722e+00 
89400 5.7380915221e+00 -2.2158587516e-04 2.4000695313e+00 -4.1570423699e+00 2.4000695313e+00 4.1570423699e+00 
89500 5.7380898643e+00 -2.2408913527e-04 2.4000741475e+00 -4.1570503655e+00 2.4000741475e+00 4.1570503655e+00 
89600 5.7380882581e+00 -2.2638820301e-04 2.4000788159e+00 -4.1570584513e+00 2.4000788159e+00 4.1570584513e+00 
89700 5.7380867022e+00 -2.2848952719e-04 2.4000835322e+00 -4.1570666201e+00 2.4000835322e+00 4.1570666201e+00 
89800 5.7380851953e+00 -2.3039942243e-04 2.4000882922e+00 -4.1570748648e+00 2.4000882922e+00 4.1570748648e+00 
89900 5.7380837361e+00 -2.3212407055e-04 2.4000930920e+00 -4.1570831783e+00 2.4000930920e+00 4.1570831783e+00 
90000 5.7380823233e+00 -2.3366952208e-04 2.4000979278e+00 -4.1570915540e+00 2.4000979278e+00 4.1570915540e+00 
90100 5.7380809558e+00 -2.3504169768e-04 2.4001027957e+00 -4.1570999855e+00 2.4001027957e+00 4.1570999855e+00 
90200 5.7380796323e+00 -2.3624638973e-04 2.4001076922e+00 -4.1571084665e+00 2.4001076922e+00 4.1571084665e+00 
90300 5.7380783516e+00 -2.3728926376e-04 2.4001126138e+00 -4.1571169909e+00 2.4001126138e+00 4.1571169909e+00 
90400 5.7380771126e+00 -2.3817586009e-04 2.4001175570e+00 -4.1571255529e+00 2.4001175570e+00 4.1571255529e+00 
90500 5.7380759142e+00 -2.3891159530e-04 2.4001225188e+00 -4.1571341470e+00 2.4001225188e+00 4.1571341470e+00 
90600 5.7380747552e+00 -2.3950176386e-04 2.4001274959e+00 -4.1571427675e+00 2.4001274959e+00 4.1571427675e+00 
90700 5.7380736347e+00 -2.3995153970e-04 2.4001324852e+00 -4.1571514093e+00 2.4001324852e+00 4.1571514093e+00 
90800 5.7380725516e+00 -2.4026597779e-04 2.4001374839e+00 -4.1571600674e+00 2.4001374839e+00 4.1571600674e+00 
90900 5.7380715048e+00 -2.4045001577e-04 2.4001424892e+00 -4.1571687367e+00 2.4001424892e+00 4.1571687367e+00 
91000 5.7380704934e+00 -2.4050847556e-04 2.4001474983e+00 -4.1571774127e+00 2.4001474983e+00 4.1571774127e+00 
91100 5.7380695164e+00 -2.4044606497e-04 2.4001525086e+00 -4.1571860908e+00 2.4001525086e+00 4.1571860908e+00 
91200 5.7380685728e+00 -2.4026737936e-04 2.4001575175e+00 -4.1571947666e+00 2.4001575175e+00 4.1571947666e+00 
91300 5.7380676617e+00 -2.3997690324e-04 2.4001625228e+00 -4.1572034359e+00 2.4001625228e+00 4.1572034359e+00 
91400 5.7380667822e+00 -2.3957901194e-04 2.4001675220e+00 -4.1572120947e+00 2.4001675220e+00 4.1572120947e+00 
91500 5.7380659335e+00 -2.3907797322e-04 2.4001725129e+00 -4.1572207392e+00 2.4001725129e+00 4.1572207392e+00 
91600 5.7380651146e+00 -2.3847794895e-04 2.4001774933e+00 -4.1572293656e+00 2.4001774933e+00 4.1572293656e+00 
91700 5.7380643247e+00 -2.3778299673e-04 2.4001824612e+00 -4.1572379703e+00 2.4001824612e+00 4.1572379703e+00 
91800 5.7380635630e+00 -2.3699707153e-04 2.4001874147e+00 -4.1572465499e+00 2.4001874147e+00 4.1572465499e+00 
91900 5.7380628287e+00 -2.3612402737e-04 2.4001923517e+00 -4.1572551011e+00 2.4001923517e+00 4.1572551011e+00 
92000 5.7380621211e+00 -2.3516761891e-04 2.4001972706e+00 -4.1572636208e+00 2.4001972706e+00 4.1572636208e+00 
92100 5.7380614392e+00 -2.3413150312e-04 2.4002021695e+00 -4.1572721060e+00 2.4002021695e+00 4.1572721060e+00 
92200 5.7380607825e+00 -2.3301924091e-04 2.4002070468e+00 -4.1572805538e+00 2.4002070468e+00 4.1572805538e+00 
92300 5.7380601502e+00 -2.3183429874e-04 2.4002119010e+00 -4.1572889614e+00 2.4002119010e+00 4.1572889614e+00 
92400 5.7380595415e+00 -2.3058005026e-04 2.4002167304e+00 -4.1572973263e+00 2.4002167304e+00 4.1572973263e+00 
92500 5.7380589558e+00 -2.2925977794e-04 2.4002215337e+00 -4.1573056459e+00 2.4002215337e+00 4.1573056459e+00 
92600 5.7380583924e+00 -2.2787667464e-04 2.4002263096e+00 -4.1573139178e+00 2.4002263096e+00 4.1573139178e+00 
92700 5.7380578506e+00 -2.2643384523e-04 2.4002310565e+00 -4.1573221398e+00 2.4002310565e+00 4.1573221398e+00 
92800 5.7380573299e+00 -2.2493430821e-04 2.4002357735e+00 -4.1573303098e+00 2.4002357735e+00 4.1573303098e+00 
92900 5.7380568295e+00 -2.2338099724e-04 2.4002404591e+00 -4.1573384256e+00 2.4002404591e+00 4.1573384256e+00 
93000 5.7380563489e+00 -2.2177676275e-04 2.4002451124e+00 -4.1573464854e+00 2.4002451124e+00 4.1573464854e+00 
93100 5.7380558874e+00 -2.2012437350e-04 2.4002497323e+00 -4.1573544872e+00 2.4002497323e+00 4.1573544872e+00 
93200 5.7380554446e+00 -2.1842651811e-04 2.4002543178e+00 -4.1573624295e+00 2.4002543178e+00 4.1573624295e+00 
93300 5.7380550198e+00 -2.1668580664e-04 2.4002588678e+00 -4.1573703104e+00 2.4002588678e+00 4.1573703104e+00 
93400 5.7380546125e+00 -2.1490477206e-04 2.4002633816e+00 -4.1573781285e+00 2.4002633816e+00 4.1573781285e+00 
93500 5.7380542221e+00 -2.1308587182e-04 2.4002678583e+00 -4.1573858824e+00 2.4002678583e+00 4.1573858824e+00 
93600 5.7380538482e+00 -2.1123148932e-04 2.4002722971e+00 -4.1573935706e+00 2.4002722971e+00 4.1573935706e+00 
93700 5.7380534901e+00 -2.0934393542e-04 2.4002766973e+00 -4.1574011919e+00 2.4002766973e+00 4.1574011919e+00 
93800 5.7380531475e+00 -2.0742544989e-04 2.4002810581e+00 -4.1574087451e+00 2.4002810581e+00 4.1574087451e+00 
93900 5.7380528199e+00 -2.0547820289e-04 2.4002853790e+00 -4.1574162290e+00 2.4002853790e+00 4.1574162290e+00 
94000 5.7380525067e+00 -2.0350429641e-04 2.4002896593e+00 -4.1574236427e+00 2.4002896593e+00 4.1574236427e+00 
94100 5.7380522075e+00 -2.0150576571e-04 2.4002938984e+00 -4.1574309852e+00 2.4002938984e+00 4.1574309852e+00 
94200 5.7380519219e+00 -1.9948458070e-04 2.4002980959e+00 -4.1574382555e+00 2.4002980959e+00 4.1574382555e+00 
94300 5.7380516494e+00 -1.9744264740e-04 2.4003022514e+00 -4.1574454529e+00 2.4003022514e+00 4.1574454529e+00 
94400 5.7380513897e+00 -1.9538180926e-04 2.4003063642e+00 -4.1574525766e+00 2.4003063642e+00 4.1574525766e+00 
94500 5.7380511422e+00 -1.9330384858e-04 2.4003104342e+00 -4.1574596259e+00 2.4003104342e+00 4.1574596259e+00 
94600 5.7380509067e+00 -1.9121048783e-04 2.4003144608e+00 -4.1574666003e+00 2.4003144608e+00 4.1574666003e+00 
94700 5.7380506826e+00 -1.8910339101e-04 2.4003184438e+00 -4.1574734991e+00 2.4003184438e+00 4.1574734991e+00 
94800 5.7380504698e+00 -1.8698416493e-04 2.4003223830e+00 -4.1574803219e+00 2.4003223830e+00 4.1574803219e+00 
94900 5.7380502676e+00 -1.8485436057e-04 2.4003262780e+00 -4.1574870682e+00 2.4003262780e+00 4.1574870682e+00 
95000 5.7380500759e+00 -1.8271547429e-04 2.4003301286e+00 -4.1574937376e+00 2.4003301286e+00 4.1574937376e+00 
95100 5.7380498943e+00 -1.8056894917e-04 2.4003339346e+00 -4.1575003299e+00 2.4003339346e+00 4.1575003299e+00 
95200 5.7380497224e+00 -1.7841617621e-04 2.4003376959e+00 -4.1575068447e+00 2.4003376959e+00 4.1575068447e+00 
95300 5.7380495599e+00 -1.7625849560e-04 2.4003414124e+00 -4.1575132818e+00 2.4003414124e+00 4.1575132818e+00 
95400 5.7380494065e+00 -1.7409719790e-04 2.4003450840e+00 -4.1575196411e+00 2.4003450840e+00 4.1575196411e+00 
95500 5.7380492618e+00 -1.7193352526e-04 2.4003487105e+00 -4.1575259224e+00 2.4003487105e+00 4.1575259224e+00 
95600 5.7380491256e+00 -1.6976867258e-04 2.4003522919e+00 -4.1575321256e+00 2.4003522919e+00 4.1575321256e+00 
95700 5.7380489976e+00 -1.6760378871e-04 2.4003558282e+00 -4.1575382507e+00 2.4003558282e+00 4.1575382507e+00 
95800 5.7380488775e+00 -1.6543997755e-04 2.4003593195e+00 -4.1575442977e+00 2.4003593195e+00 4.1575442977e+00 
95900 5.7380487650e+00 -1.6327829920e-04 2.4003627656e+00 -4.1575502666e+00 2.4003627656e+00 4.1575502666e+00 
96000 5.7380486598e+00 -1.6111977107e-04 2.4003661667e+00 -4.1575561575e+00 2.4003661667e+00 4.1575561575e+00 
96100 5.7380485617e+00 -1.5896536897e-04 2.4003695229e+00 -4.1575619706e+00 2.4003695229e+00 4.1575619706e+00 
96200 5.7380484705e+00 -1.5681602817e-04 2.4003728341e+00 -4.1575677058e+00 2.4003728341e+00 4.1575677058e+00 
96300 5.7380483858e+00 -1.5467264446e-04 2.4003761006e+00 -4.1575733636e+00 2.4003761006e+00 4.1575733636e+00 
96400 5.7380483074e+00 -1.5253607522e-04 2.4003793225e+00 -4.1575789440e+00 2.4003793225e+00 4.1575789440e+00 
96500 5.7380482352e+00 -1.5040714038e-04 2.4003824998e+00 -4.1575844473e+00 2.4003824998e+00 4.1575844473e+00 
96600 5.7380481689e+00 -1.4828662349e-04 2.4003856328e+00 -4.1575898738e+00 2.4003856328e+00 4.1575898738e+00 
96700 5.7380481082e+00 -1.4617527263e-04 2.4003887216e+00 -4.1575952237e+00 2.4003887216e+00 4.1575952237e+00 
96800 5.7380480529e+00 -1.4407380145e-04 2.4003917664e+00 -4.1576004975e+00 2.4003917664e+00 4.1576004975e+00 
96900 5.7380480029e+00 -1.4198289008e-04 2.4003947675e+00 -4.1576056955e+00 2.4003947675e+00 4.1576056955e+00 
97000 5.7380479580e+00 -1.3990318607e-04 2.4003977250e+00 -4.1576108180e+00 2.4003977250e+00 4.1576108180e+00 
97100 5.7380479179e+00 -1.3783530532e-04 2.4004006391e+00 -4.1576158655e+00 2.4004006391e+00 4.1576158655e+00 
97200 5.7380478824e+00 -1.3577983294e-04 2.4004035102e+00 -4.1576208384e+00 2.4004035102e+00 4.1576208384e+00 
97300 5.7380478515e+00 -1.3373732417e-04 2.4004063385e+00 -4.1576257371e+00 2.4004063385e+00 4.1576257371e+00 
97400 5.7380478248e+00 -1.3170830525e-04 2.4004091242e+00 -4.1576305621e+00 2.4004091242e+00 4.1576305621e+00 
97500 5.7380478023e+00 -1.2969327422e-04 2.4004118677e+00 -4.1576353139e+00 2.4004118677e+00 4.1576353139e+00 
97600 5.7380477837e+00 -1.2769270180e-04 2.4004145692e+00 -4.1576399930e+00 2.4004145692e+00 4.1576399930e+00 
97700 5.7380477690e+00 -1.2570703219e-04 2.4004172290e+00 -4.1576445999e+00 2.4004172290e+00 4.1576445999e+00 
97800 5.7380477578e+00 -1.2373668386e-04 2.4004198474e+00 -4.1576491352e+00 2.4004198474e+00 4.1576491352e+00 
97900 5.7380477502e+00 -1.2178205033e-04 2.4004224248e+00 -4.1576535994e+00 2.4004224248e+00 4.1576535994e+00 
98000 5.7380477459e+00 -1.1984350095e-04 2.4004249615e+00 -4.1576579930e+00 2.4004249615e+00 4.1576579930e+00 
98100 5.7380477448e+00 -1.1792138166e-04 2.4004274578e+00 -4.1576623168e+00 2.4004274578e+00 4.1576623168e+00 
98200 5.7380477468e+00 -1.1601601568e-04 2.4004299140e+00 -4.1576665711e+00 2.4004299140e+00 4.1576665711e+00 
98300 5.7380477517e+00 -1.1412770428e-04 2.4004323306e+00 -4.1576707567e+00 2.4004323306e+00 4.1576707567e+00 
98400 5.7380477595e+00 -1.1225672746e-04 2.4004347078e+00 -4.1576748742e+00 2.4004347078e+00 4.1576748742e+00 
98500 5.7380477699e+00 -1.1040334463e-04 2.4004370461e+00 -4.1576789242e+00 2.4004370461e+00 4.1576789242e+00 
98600 5.7380477828e+00 -1.0856779532e-04 2.4004393457e+00 -4.1576829073e+00 2.4004393457e+00 4.1576829073e+00 
98700 5.7380477982e+00 -1.0675029979e-04 2.4004416072e+00 -4.1576868242e+00 2.4004416072e+00 4.1576868242e+00 
98800 5.7380478160e+00 -1.0495105970e-04 2.4004438307e+00 -4.1576906755e+00 2.4004438307e+00 4.1576906755e+00 
98900 5.7380478359e+00 -1.0317025876e-04 2.4004460168e+00 -4.1576944619e+00 2.4004460168e+00 4.1576944619e+00 
99000 5.7380478580e+00 -1.0140806329e-04 2.4004481658e+00 -4.1576981841e+00 2.4004481658e+00 4.1576981841e+00 
99100 5.7380478820e+00 -9.9664622869e-05 2.4004502781e+00 -4.1577018426e+00 2.4004502781e+00 4.1577018426e+00 
99200 5.7380479080e+00 -9.7940070921e-05 2.4004523540e+00 -4.1577054383e+00 2.4004523540e+00 4.1577054383e+00 
99300 5.7380479358e+00 -9.6234525256e-05 2.4004543940e+00 -4.1577089717e+00 2.4004543940e+00 4.1577089717e+00 
99400 5.7380479653e+00 -9.4548088653e-05 2.4004563985e+00 -4.1577124436e+00 2.4004563985e+00 4.1577124436e+00 
99500 5.7380479964e+00 -9.2880849405e-05 2.4004583679e+00 -4.1577158547e+00 2.4004583679e+00 4.1577158547e+00 
99600 5.7380480291e+00 -9.1232881847e-05 2.4004603026e+00 -4.1577192056e+00 2.4004603026e+00 4.1577192056e+00 
99700 5.7380480633e+00 -8.9604246878e-05 2.4004622029e+00 -4.1577224971e+00 2.4004622029e+00 4.1577224971e+00 
99800 5.7380480988e+00 -8.7994992471e-05 2.4004640693e+00 -4.1577257298e+00 2.4004640693e+00 4.1577257298e+00 
99900 5.7380481356e+00 -8.6405154162e-05 2.4004659022e+00 -4.1577289044e+00 2.4004659022e+00 4.1577289044e+00 
100000 5.7380481737e+00 -8.4834755541e-05 2.4004677019e+00 -4.1577320217e+00 2.4004677019e+00 4.1577320217e+00 
100100 5.7380482129e+00 -8.3283808716e-05 2.4004694690e+00 -4.1577350823e+00 2.4004694690e+00 4.1577350823e+00 
100200 5.7380482532e+00 -8.1752314773e-05 2.4004712037e+00 -4.1577380869e+00 2.4004712037e+00 4.1577380869e+00 
100300 5.7380482945e+00 -8.0240264220e-05 2.4004729066e+00 -4.1577410363e+00 2.4004729066e+00 4.1577410363e+00 
100400 5.7380483368e+00 -7.8747637429e-05 2.4004745779e+00 -4.1577439312e+00 2.4004745779e+00 4.1577439312e+00 
100500 5.7380483799e+00 -7.7274405052e-05 2.4004762181e+00 -4.1577467722e+00 2.4004762181e+00 4.1577467722e+00 
100600 5.7380484239e+00 -7.5820528436e-05 2.4004778277e+00 -4.1577495600e+00 2.4004778277e+00 4.1577495600e+00 
100700 5.7380484687e+00 -7.4385960024e-05 2.4004794070e+00 -4.1577522954e+00 2.4004794070e+00 4.1577522954e+00 
100800 5.7380485141e+00 -7.2970643747e-05 2.4004809564e+00 -4.1577549791e+00 2.4004809564e+00 4.1577549791e+00 
100900 5.7380485603e+00 -7.1574515402e-05 2.4004824763e+00 -4.1577576116e+00 2.4004824763e+00 4.1577576116e+00 
101000 5.7380486070e+00 -7.0197503018e-05 2.4004839671e+00 -4.1577601938e+00 2.4004839671e+00 4.1577601938e+00 
101100 5.7380486544e+00 -6.9960532450e-05 2.4004839671e+00 -4.1577601938e+00 2.4004839671e+00 4.1577601938e+00 
101200 5.7380487023e+00 -6.9729868160e-05 2.4004839671e+00 -4.1577601938e+00 2.4004839671e+00 4.1577601938e+00 
101300 5.7380487506e+00 -6.9505385247e-05 2.4004839671e+00 -4.1577601938e+00 2.4004839671e+00 4.1577601938e+00 
101400 5.7380487994e+00 -6.9286955239e-05 2.4004839671e+00 -4.1577601938e+00 2.4004839671e+00 4.1577601938e+00 
101500 5.7380488485e+00 -6.9074446504e-05 2.4004839671e+00 -4.1577601938e+00 2.4004839671e+00 4.1577601938e+00 
101600 5.7380488980e+00 -6.8867724635e-05 2.4004839671e+00 -4.1577601938e+00 2.4004839671e+00 4.1577601938e+00 
101700 5.7380489478e+00 -6.8666652833e-05 2.4004839671e+00 -4.1577601938e+00 2.4004839671e+00 4.1577601938e+00 
101800 5.7380489978e+00 -6.8471092256e-05 2.4004839671e+00 -4.1577601938e+00 2.4004839671e+00 4.1577601938e+00 
101900 5.7380490480e+00 -6.8280902362e-05 2.4004839671e+00 -4.1577601938e+00 2.4004839671e+00 4.1577601938e+00 
102000 5.7380490984e+00 -6.8095941229e-05 2.4004839671e+00 -4.1577601938e+00 2.4004839671e+00 4.1577601938e+00 
102100 5.7380491490e+00 -6.7916065861e-05 2.4004839671e+00 -4.1577601938e+00 2.4004839671e+00 4.1577601938e+00 
102200 5.7380491997e+00 -6.7741132476e-05 2.4004839671e+00 -4.1577601938e+00 2.4004839671e+00 4.1577601938e+00 
102300 5.7380492504e+00 -6.7570996780e-05 2.4004839671e+00 -4.1577601938e+00 2.4004839671e+00 4.1577601938e+00 
102400 5.7380493013e+00 -6.7405514220e-05 2.4004839671e+00 -4.1577601938e+00 2.4004839671e+00 4.1577601938e+00 
102500 5.7380493521e+00 -6.7244540235e-05 2.4004839671e+00 -4.1577601938e+00 2.4004839671e+00 4.1577601938e+00 
102600 5.7380494030e+00 -6.7087930474e-05 2.4004839671e+00 -4.1577601938e+00 2.4004839671e+00 4.1577601938e+00 
102700 5.7380494538e+00 -6.6935541021e-05 2.4004839671e+00 -4.1577601938e+00 2.4004839671e+00 4.1577601938e+00 
102800 5.7380495046e+00 -6.6787228589e-05 2.4004839671e+00 -4.1577601938e+00 2.4004839671e+00 4.1577601938e+00 
102900 5.7380495553e+00 -6.6642850714e-05 2.4004839671e+00 -4.1577601938e+00 2.4004839671e+00 4.1577601938e+00 
103000 5.7380496059e+00 -6.6502265927e-05 2.4004839671e+00 -4.1577601938e+00 2.4004839671e+00 4.1577601938e+00 
103100 5.7380496564e+00 -6.6365333921e-05 2.4004839671e+00 -4.1577601938e+00 2.4004839671e+00 4.1577601938e+00 
103200 5.7380497067e+00 -6.6231915706e-05 2.4004839671e+00 -4.1577601938e+00 2.4004839671e+00 4.1577601938e+00 
103300 5.7380497569e+00 -6.6101873750e-05 2.4004839671e+00 -4.1577601938e+00 2.4004839671e+00 4.1577601938e+00 
103400 5.7380498070e+00 -6.5975072110e-05 2.4004839671e+00 -4.1577601938e+00 2.4004839671e+00 4.1577601938e+00 
103500 5.7380498568e+00 -6.5851376559e-05 2.4004839671e+00 -4.1577601938e+00 2.4004839671e+00 4.1577601938e+00 
103600 5.7380499064e+00 -6.5730654694e-05 2.4004839671e+00 -4.1577601938e+00 2.4004839671e+00 4.1577601938e+00 
103700 5.7380499558e+00 -6.5612776040e-05 2.4004839671e+00 -4.1577601938e+00 2.4004839671e+00 4.1577601938e+00 
103800 5.7380500050e+00 -6.5497612150e-05 2.4004839671e+00 -4.1577601938e+00 2.4004839671e+00 4.1577601938e+00 
103900 5.7380500539e+00 -6.5385036687e-05 2.4004839671e+00 -4.1577601938e+00 2.4004839671e+00 4.1577601938e+00 
104000 5.7380501025e+00 -6.5274925503e-05 2.4004839671e+00 -4.1577601938e+00 2.4004839671e+00 4.1577601938e+00 
104100 5.7380501509e+00 -6.5167156714e-05 2.4004839671e+00 -4.1577601938e+00 2.4004839671e+00 4.1577601938e+00 
104200 5.7380501989e+00 -6.5061610759e-05 2.4004839671e+00 -4.1577601938e+00 2.4004839671e+00 4.1577601938e+00 
104300 5.7380502467e+00 -6.4958170459e-05 2.4004839671e+00 -4.1577601938e+00 2.4004839671e+00 4.1577601938e+00 
104400 5.7380502941e+00 -6.4856721068e-05 2.4004839671e+00 -4.1577601938e+00 2.4004839671e+00 4.1577601938e+00 
104500 5.7380503412e+00 -6.4757150317e-05 2.4004839671e+00 -4.1577601938e+00 2.4004839671e+00 4.1577601938e+00 
104600 5.7380503880e+00 -6.4659348451e-05 2.4004839671e+00 -4.1577601938e+00 2.4004839671e+00 4.1577601938e+00 
104700 5.7380504345e+00 -6.4563208261e-05 2.4004839671e+00 -4.1577601938e+00 2.4004839671e+00 4.1577601938e+00 
104800 5.7380504805e+00 -6.4468625112e-05 2.4004839671e+00 -4.1577601938e+00 2.4004839671e+00 4.1577601938e+00 
104900 5.7380505263e+00 -6.4375496968e-05 2.4004839671e+00 -4.1577601938e+00 2.4004839671e+00 4.1577601938e+00 
105000 5.7380505716e+00 -6.4283724400e-05 2.4004839671e+00 -4.1577601938e+00 2.4004839671e+00 4.1577601938e+00 
105100 5.7380506166e+00 -6.4193210610e-05 2.4004839671e+00 -4.1577601938e+00 2.4004839671e+00 4.1577601938e+00 
105200 5.7380506612e+00 -6.4103861429e-05 2.4004839671e+00 -4.1577601938e+00 2.4004839671e+00 4.1577601938e+00 
105300 5.7380507054e+00 -6.4015585326e-05 2.4004839671e+00 -4.1577601938e+00 2.4004839671e+00 4.1577601938e+00 
105400 5.7380507492e+00 -6.3928293410e-05 2.4004839671e+00 -4.1577601938e+00 2.4004839671e+00 4.1577601938e+00 
105500 5.7380507926e+00 -6.3841899420e-05 2.4004839671e+00 -4.1577601938e+00 2.4004839671e+00 4.1577601938e+00 
105600 5.7380508356e+00 -6.3756319723e-05 2.4004839671e+00 -4.1577601938e+00 2.4004839671e+00 4.1577601938e+00 
105700 5.7380508782e+00 -6.3671473303e-05 2.4004839671e+00 -4.1577601938e+00 2.4004839671e+00 4.1577601938e+00 
105800 5.7380509204e+00 -6.3587281746e-05 2.4004839671e+00 -4.1577601938e+00 2.4004839671e+00 4.1577601938e+00 
105900 5.7380509622e+00 -6.3503669226e-05 2.4004839671e+00 -4.1577601938e+00 2.4004839671e+00 4.1577601938e+00 
106000 5.7380510035e+00 -6.3420562482e-05 2.4004839671e+00 -4.1577601938e+00 2.4004839671e+00 4.1577601938e+00 
106100 5.7380510445e+00 -6.3337890804e-05 2.4004839671e+00 -4.1577601938e+00 2.4004839671e+00 4.1577601938e+00 
106200 5.7380510850e+00 -6.3255586001e-05 2.4004839671e+00 -4.1577601938e+00 2.4004839671e+00 4.1577601938e+00 
106300 5.7380511251e+00 -6.3173582381e-05 2.4004839671e+00 -4.1577601938e+00 2.4004839671e+00 4.1577601938e+00 
106400 5.7380511648e+00 -6.3091816721e-05 2.4004839671e+00 -4.1577601938e+00 2.4004839671e+00 4.1577601938e+00 
106500 5.7380512040e+00 -6.3010228237e-05 2.4004839671e+00 -4.1577601938e+00 2.4004839671e+00 4.1577601938e+00 
106600 5.7380512429e+00 -6.2928758554e-05 2.4004839671e+00 -4.1577601938e+00 2.4004839671e+00 4.1577601938e+00 
106700 5.7380512812e+00 -6.2847351671e-05 2.4004839671e+00 -4.1577601938e+00 2.4004839671e+00 4.1577601938e+00 
106800 5.7380513192e+00 -6.2765953929e-05 2.4004839671e+00 -4.1577601938e+00 2.4004839671e+00 4.1577601938e+00 
106900 5.7380513567e+00 -6.2684513972e-05 2.4004839671e+00 -4.1577601938e+00 2.4004839671e+00 4.1577601938e+00 
107000 5.7380513938e+00 -6.2602982714e-05 2.4004839671e+00 -4.1577601938e+00 2.4004839671e+00 4.1577601938e+00 
107100 5.7380514305e+00 -6.2521313297e-05 2.4004839671e+00 -4.1577601938e+00 2.4004839671e+00 4.1577601938e+00 
107200 5.7380514668e+00 -6.2439461057e-05 2.4004839671e+00 -4.1577601938e+00 2.4004839671e+00 4.1577601938e+00 
107300 5.7380515026e+00 -6.2357383477e-05 2.4004839671e+00 -4.1577601938e+00 2.4004839671e+00 4.1577601938e+00 
107400 5.7380515380e+00 -6.2275040152e-05 2.4004839671e+00 -4.1577601938e+00 2.4004839671e+00 4.1577601938e+00 
107500 5.7380515729e+00 -6.2192392747e-05 2.4004839671e+00 -4.1577601938e+00 2.4004839671e+00 4.1577601938e+00 
107600 5.7380516075e+00 -6.2109404954e-05 2.4004839671e+00 -4.1577601938e+00 2.4004839671e+00 4.1577601938e+00 
107700 5.7380516416e+00 -6.2026042445e-05 2.4004839671e+00 -4.1577601938e+00 2.4004839671e+00 4.1577601938e+00 
107800 5.7380516752e+00 -6.1942272841e-05 2.4004839671e+00 -4.1577601938e+00 2.4004839671e+00 4.1577601938e+00 
107900 5.7380517085e+00 -6.1858065657e-05 2.4004839671e+00 -4.1577601938e+00 2.4004839671e+00 4.1577601938e+00 
108000 5.7380517414e+00 -6.1773392264e-05 2.4004839671e+00 -4.1577601938e+00 2.4004839671e+00 4.1577601938e+00 
108100 5.7380517738e+00 -6.1688225844e-05 2.4004839671e+00 -4.1577601938e+00 2.4004839671e+00 4.1577601938e+00 
108200 5.7380518058e+00 -6.1602541347e-05 2.4004839671e+00 -4.1577601938e+00 2.4004839671e+00 4.1577601938e+00 
108300 5.7380518374e+00 -6.1516315447e-05 2.4004839671e+00 -4.1577601938e+00 2.4004839671e+00 4.1577601938e+00 
108400 5.7380518686e+00 -6.1429526498e-05 2.4004839671e+00 -4.1577601938e+00 2.4004839671e+00 4.1577601938e+00 
108500 5.7380518993e+00 -6.1342154489e-05 2.4004839671e+00 -4.1577601938e+00 2.4004839671e+00 4.1577601938e+00 
108600 5.7380519297e+00 -6.1254181003e-05 2.4004839671e+00 -4.1577601938e+00 2.4004839671e+00 4.1577601938e+00 
108700 5.7380519597e+00 -6.1165589170e-05 2.4004839671e+00 -4.1577601938e+00 2.4004839671e+00 4.1577601938e+00 
108800 5.7380519892e+00 -6.1076363627e-05 2.4004839671e+00 -4.1577601938e+00 2.4004839671e+00 4.1577601938e+00 
108900 5.7380520184e+00 -6.0986490472e-05 2.4004839671e+00 -4.1577601938e+00 2.4004839671e+00 4.1577601938e+00 
109000 5.7380520472e+00 -6.0895957223e-05 2.4004839671e+00 -4.1577601938e+00 2.4004839671e+00 4.1577601938e+00 
109100 5.7380520755e+00 -6.0804752776e-05 2.4004839671e+00 -4.1577601938e+00 2.4004839671e+00 4.1577601938e+00 
109200 5.7380521035e+00 -6.0712867359e-05 2.4004839671e+00 -4.1577601938e+00 2.4004839671e+00 4.1577601938e+00 
109300 5.7380521311e+00 -6.0620292496e-05 2.4004839671e+00 -4.1577601938e+00 2.4004839671e+00 4.1577601938e+00 
109400 5.7380521583e+00 -6.0527020959e-05 2.4004839671e+00 -4.1577601938e+00 2.4004839671e+00 4.1577601938e+00 
109500 5.7380521852e+00 -6.0433046735e-05 2.4004839671e+00 -4.1577601938e+00 2.4004839671e+00 4.1577601938e+00 
109600 5.7380522116e+00 -6.0338364978e-05 2.4004839671e+00 -4.1577601938e+00 2.4004839671e+00 4.1577601938e+00 
109700 5.7380522377e+00 -6.0242971973e-05 2.4004839671e+00 -4.1577601938e+00 2.4004839671e+00 4.1577601938e+00 
109800 5.7380522634e+00 -6.0146865097e-05 2.4004839671e+00 -4.1577601938e+00 2.4004839671e+00 4.1577601938e+00 
109900 5.7380522887e+00 -6.0050042778e-05 2.4004839671e+00 -4.1577601938e+00 2.4004839671e+00 4.1577601938e+00 
110000 5.7380523137e+00 -5.9952504457e-05 2.4004839671e+00 -4.1577601938e+00 2.4004839671e+00 4.1577601938e+00 
110100 5.7380523383e+00 -5.9854250553e-05 2.4004839671e+00 -4.1577601938e+00 2.4004839671e+00 4.1577601938e+00 
110200 5.7380523626e+00 -5.9755282422e-05 2.4004839671e+00 -4.1577601938e+00 2.4004839671e+00 4.1577601938e+00 
110300 5.7380523865e+00 -5.9655602324e-05 2.4004839671e+00 -4.1577601938e+00 2.4004839671e+00 4.1577601938e+00 
110400 5.7380524101e+00 -5.9555213385e-05 2.4004839671e+00 -4.1577601938e+00 2.4004839671e+00 4.1577601938e+00 
110500 5.7380524333e+00 -5.9454119561e-05 2.4004839671e+00 -4.1577601938e+00 2.4004839671e+00 4.1577601938e+00 
110600 5.7380524561e+00 -5.9352325606e-05 2.4004839671e+00 -4.1577601938e+00 2.4004839671e+00 4.1577601938e+00 
110700 5.7380524787e+00 -5.9249837036e-05 2.4004839671e+00 -4.1577601938e+00 2.4004839671e+00 4.1577601938e+00 
110800 5.7380525008e+00 -5.9146660097e-05 2.4004839671e+00 -4.1577601938e+00 2.4004839671e+00 4.1577601938e+00 
110900 5.7380525227e+00 -5.9042801732e-05 2.4004839671e+00 -4.1577601938e+00 2.4004839671e+00 4.1577601938e+00 
111000 5.7380525442e+00 -5.8938269548e-05 2.4004839671e+00 -4.1577601938e+00 2.4004839671e+00 4.1577601938e+00 
111100 5.7380525654e+00 -5.8833071786e-05 2.4004839671e+00 -4.1577601938e+00 2.4004839671e+00 4.1577601938e+00 
111200 5.7380525863e+00 -5.8727217291e-05 2.4004839671e+00 -4.1577601938e+00 2.4004839671e+00 4.1577601938e+00 
111300 5.7380526069e+00 -5.8620715479e-05 2.4004839671e+00 -4.1577601938e+00 2.4004839671e+00 4.1577601938e+00 
111400 5.7380526271e+00 -5.8513576311e-05 2.4004839671e+00 -4.1577601938e+00 2.4004839671e+00 4.1577601938e+00 
111500 5.7380526471e+00 -5.8405810264e-05 2.4004839671e+00 -4.1577601938e+00 2.4004839671e+00 4.1577601938e+00 
111600 5.7380526667e+00 -5.8297428302e-05 2.4004839671e+00 -4.1577601938e+00 2.4004839671e+00 4.1577601938e+00 
111700 5.7380526861e+00 -5.8188441847e-05 2.4004839671e+00 -4.1577601938e+00 2.4004839671e+00 4.1577601938e+00 
111800 5.7380527051e+00 -5.8078862758e-05 2.4004839671e+00 -4.1577601938e+00 2.4004839671e+00 4.1577601938e+00 
111900 5.7380527238e+00 -5.7968703300e-05 2.4004839671e+00 -4.1577601938e+00 2.4004839671e+00 4.1577601938e+00 
112000 5.7380527423e+00 -5.7857976121e-05 2.4004839671e+00 -4.1577601938e+00 2.4004839671e+00 4.1577601938e+00 
112100 5.7380527604e+00 -5.7746694229e-05 2.4004839671e+00 -4.1577601938e+00 2.4004839671e+00 4.1577601938e+00 
112200 5.7380527783e+00 -5.7634870964e-05 2.4004839671e+00 -4.1577601938e+00 2.4004839671e+00 4.1577601938e+00 
112300 5.7380527959e+00 -5.7522519976e-05 2.4004839671e+00 -4.1577601938e+00 2.4004839671e+00 4.1577601938e+00 
112400 5.7380528132e+00 -5.7409655209e-05 2.4004839671e+00 -4.1577601938e+00 2.4004839671e+00 4.1577601938e+00 
112500 5.7380528303e+00 -5.7296290868e-05 2.4004839671e+00 -4.1577601938e+00 2.4004839671e+00 4.1577601938e+00 
112600 5.7380528470e+00 -5.7182441406e-05 2.4004839671e+00 -4.1577601938e+00 2.4004839671e+00 4.1577601938e+00 
112700 5.7380528635e+00 -5.7068121503e-05 2.4004839671e+00 -4.1577601938e+00 2.4004839671e+00 4.1577601938e+00 
112800 5.7380528798e+00 -5.6953346039e-05 2.4004839671e+00 -4.1577601938e+00 2.4004839671e+00 4.1577601938e+00 
112900 5.7380528958e+00 -5.6838130083e-05 2.4004839671e+00 -4.1577601938e+00 2.4004839671e+00 4.1577601938e+00 
113000 5.7380529115e+00 -5.6722488871e-05 2.4004839671e+00 -4.1577601938e+00 2.4004839671e+00 4.1577601938e+00 
113100 5.7380529270e+00 -5.6606437784e-05 2.4004839671e+00 -4.1577601938e+00 2.4004839671e+00 4.1577601938e+00 
113200 5.7380529422e+00 -5.6489992337e-05 2.4004839671e+00 -4.1577601938e+00 2.4004839671e+00 4.1577601938e+00 
113300 5.7380529572e+00 -5.6373168160e-05 2.4004839671e+00 -4.1577601938e+00 2.4004839671e+00 4.1577601938e+00 
113400 5.7380529719e+00 -5.6255980977e-05 2.4004839671e+00 -4.1577601938e+00 2.4004839671e+00 4.1577601938e+00 
113500 5.7380529864e+00 -5.6138446595e-05 2.4004839671e+00 -4.1577601938e+00 2.4004839671e+00 4.1577601938e+00 
113600 5.7380530006e+00 -5.6020580889e-05 2.4004839671e+00 -4.1577601938e+00 2.4004839671e+00 4.1577601938e+00 
113700 5.7380530147e+00 -5.5902399783e-05 2.4004839671e+00 -4.1577601938e+00 2.4004839671e+00 4.1577601938e+00 
113800 5.7380530285e+00 -5.5783919239e-05 2.4004839671e+00 -4.1577601938e+00 2.4004839671e+00 4.1577601938e+00 
113900 5.7380530420e+00 -5.5665155244e-05 2.4004839671e+00 -4.1577601938e+00 2.4004839671e+00 4.1577601938e+00 
114000 5.7380530554e+00 -5.5546123794e-05 2.4004839671e+00 -4.1577601938e+00 2.4004839671e+00 4.1577601938e+00 
114100 5.7380530685e+00 -5.5426840881e-05 2.4004839671e+00 -4.1577601938e+00 2.4004839671e+00 4.1577601938e+00 
114200 5.7380530814e+00 -5.5307322488e-05 2.4004839671e+00 -4.1577601938e+00 2.4004839671e+00 4.1577601938e+00 
114300 5.7380530941e+00 -5.5187584565e-05 2.4004839671e+00 -4.1577601938e+00 2.4004839671e+00 4.1577601938e+00 
114400 5.7380531066e+00 -5.5067643029e-05 2.4004839671e+00 -4.1577601938e+00 2.4004839671e+00 4.1577601938e+00 
114500 5.7380531189e+00 -5.4947513747e-05 2.4004839671e+00 -4.1577601938e+00 2.4004839671e+00 4.1577601938e+00 
114600 5.7380531309e+00 -5.4827212528e-05 2.4004839671e+00 -4.1577601938e+00 2.4004839671e+00 4.1577601938e+00 
114700 5.7380531428e+00 -5.4706755112e-05 2.4004839671e+00 -4.1577601938e+00 2.4004839671e+00 4.1577601938e+00 
114800 5.7380531545e+00 -5.4586157160e-05 2.4004839671e+00 -4.1577601938e+00 2.4004839671e+00 4.1577601938e+00 
114900 5.7380531660e+00 -5.4465434250e-05 2.4004839671e+00 -4.1577601938e+00 2.4004839671e+00 4.1577601938e+00 
115000 5.7380531772e+00 -5.4344601859e-05 2.4004839671e+00 -4.1577601938e+00 2.4004839671e+00 4.1577601938e+00 
115100 5.7380531883e+00 -5.4223675365e-05 2.4004839671e+00 -4.1577601938e+00 2.4004839671e+00 4.1577601938e+00 
115200 5.7380531992e+00 -5.4102670031e-05 2.4004839671e+00 -4.1577601938e+00 2.4004839671e+00 4.1577601938e+00 
115300 5.7380532100e+00 -5.3981601004e-05 2.4004839671e+00 -4.1577601938e+00 2.4004839671e+00 4.1577601938e+00 
115400 5.7380532205e+00 -5.3860483301e-05 2.4004839671e+00 -4.1577601938e+00 2.4004839671e+00 4.1577601938e+00 
115500 5.7380532309e+00 -5.3739331812e-05 2.4004839671e+00 -4.1577601938e+00 2.4004839671e+00 4.1577601938e+00 
115600 5.7380532411e+00 -5.3618161282e-05 2.4004839671e+00 -4.1577601938e+00 2.4004839671e+00 4.1577601938e+00 
115700 5.7380532511e+00 -5.3496986314e-05 2.4004839671e+00 -4.1577601938e+00 2.4004839671e+00 4.1577601938e+00 
115800 5.7380532609e+00 -5.3375821360e-05 2.4004839671e+00 -4.1577601938e+00 2.4004839671e+00 4.1577601938e+00 
115900 5.7380532706e+00 -5.3254680716e-05 2.4004839671e+00 -4.1577601938e+00 2.4004839671e+00 4.1577601938e+00 
116000 5.7380532801e+00 -5.3133578518e-05 2.4004839671e+00 -4.1577601938e+00 2.4004839671e+00 4.1577601938e+00 
116100 5.7380532895e+00 -5.3012528732e-05 2.4004839671e+00 -4.1577601938e+00 2.4004839671e+00 4.1577601938e+00 
116200 5.7380532987e+00 -5.2891545161e-05 2.4004839671e+00 -4.1577601938e+00 2.4004839671e+00 4.1577601938e+00 
116300 5.7380533077e+00 -5.2770641427e-05 2.4004839671e+00 -4.1577601938e+00 2.4004839671e+00 4.1577601938e+00 
116400 5.7380533166e+00 -5.2649830979e-05 2.4004839671e+00 -4.1577601938e+00 2.4004839671e+00 4.1577601938e+00 
116500 5.7380533253e+00 -5.2529127082e-05 2.4004839671e+00 -4.1577601938e+00 2.4004839671e+00 4.1577601938e+00 
116600 5.7380533339e+00 -5.2408542815e-05 2.4004839671e+00 -4.1577601938e+00 2.4004839671e+00 4.1577601938e+00 
116700 5.7380533423e+00 -5.2288091072e-05 2.4004839671e+00 -4.1577601938e+00 2.4004839671e+00 4.1577601938e+00 
116800 5.7380533506e+00 -5.2167784556e-05 2.4004839671e+00 -4.1577601938e+00 2.4004839671e+00 4.1577601938e+00 
116900 5.7380533587e+00 -5.2047635774e-05 2.4004839671e+00 -4.1577601938e+00 2.4004839671e+00 4.1577601938e+00 
117000 5.7380533667e+00 -5.1927657039e-05 2.4004839671e+00 -4.1577601938e+00 2.4004839671e+00 4.1577601938e+00 
117100 5.7380533746e+00 -5.1807860469e-05 2.4004839671e+00 -4.1577601938e+00 2.4004839671e+00 4.1577601938e+00 
117200 5.7380533823e+00 -5.1688257980e-05 2.4004839671e+00 -4.1577601938e+00 2.4004839671e+00 4.1577601938e+00 
117300 5.7380533899e+00 -5.1568861287e-05 2.4004839671e+00 -4.1577601938e+00 2.4004839671e+00 4.1577601938e+00 
117400 5.7380533973e+00 -5.1449681904e-05 2.4004839671e+00 -4.1577601938e+00 2.4004839671e+00 4.1577601938e+00 
117500 5.7380534047e+00 -5.1330731140e-05 2.4004839671e+00 -4.1577601938e+00 2.4004839671e+00 4.1577601938e+00 
117600 5.7380534119e+00 -5.1212020098e-05 2.4004839671e+00 -4.1577601938e+00 2.4004839671e+00 4.1577601938e+00 
117700 5.7380534189e+00 -5.1093559679e-05 2.4004839671e+00 -4.1577601938e+00 2.4004839671e+00 4.1577601938e+00 
117800 5.7380534259e+00 -5.0975360574e-05 2.4004839671e+00 -4.1577601938e+00 2.4004839671e+00 4.1577601938e+00 
117900 5.7380534327e+00 -5.0857433270e-05 2.4004839671e+00 -4.1577601938e+00 2.4004839671e+00 4.1577601938e+00 
118000 5.7380534394e+00 -5.0739788044e-05 2.4004839671e+00 -4.1577601938e+00 2.4004839671e+00 4.1577601938e+00 
118100 5.7380534460e+00 -5.0622434968e-05 2.4004839671e+00 -4.1577601938e+00 2.4004839671e+00 4.1577601938e+00 
118200 5.7380534525e+00 -5.0505383904e-05 2.4004839671e+00 -4.1577601938e+00 2.4004839671e+00 4.1577601938e+00 
118300 5.7380534589e+00 -5.0388644509e-05 2.4004839671e+00 -4.1577601938e+00 2.4004839671e+00 4.1577601938e+00 
118400 5.7380534651e+00 -5.0272226230e-05 2.4004839671e+00 -4.1577601938e+00 2.4004839671e+00 4.1577601938e+00 
118500 5.7380534713e+00 -5.0156138310e-05 2.4004839671e+00 -4.1577601938e+00 2.4004839671e+00 4.1577601938e+00 
118600 5.7380534773e+00 -5.0040389783e-05 2.4004839671e+00 -4.1577601938e+00 2.4004839671e+00 4.1577601938e+00 
118700 5.7380534832e+00 -4.9924989478e-05 2.4004839671e+00 -4.1577601938e+00 2.4004839671e+00 4.1577601938e+00 
118800 5.7380534890e+00 -4.9809946021e-05 2.4004839671e+00 -4.1577601938e+00 2.4004839671e+00 4.1577601938e+00 
118900 5.7380534948e+00 -4.9695267828e-05 2.4004839671e+00 -4.1577601938e+00 2.4004839671e+00 4.1577601938e+00 
119000 5.7380535004e+00 -4.9580963119e-05 2.4004839671e+00 -4.1577601938e+00 2.4004839671e+00 4.1577601938e+00 
119100 5.7380535059e+00 -4.9467039905e-05 2.4004839671e+00 -4.1577601938e+00 2.4004839671e+00 4.1577601938e+00 
119200 5.7380535113e+00 -4.9353505998e-05 2.4004839671e+00 -4.1577601938e+00 2.4004839671e+00 4.1577601938e+00 
119300 5.7380535167e+00 -4.9240369011e-05 2.4004839671e+00 -4.1577601938e+00 2.4004839671e+00 4.1577601938e+00 
119400 5.7380535219e+00 -4.9127636357e-05 2.4004839671e+00 -4.1577601938e+00 2.4004839671e+00 4.1577601938e+00 
119500 5.7380535270e+00 -4.9015315253e-05 2.4004839671e+00 -4.1577601938e+00 2.4004839671e+00 4.1577601938e+00 
119600 5.7380535321e+00 -4.8903412716e-05 2.4004839671e+00 -4.1577601938e+00 2.4004839671e+00 4.1577601938e+00 
119700 5.7380535370e+00 -4.8791935574e-05 2.4004839671e+00 -4.1577601938e+00 2.4004839671e+00 4.1577601938e+00 
119800 5.7380535419e+00 -4.8680890458e-05 2.4004839671e+00 -4.1577601938e+00 2.4004839671e+00 4.1577601938e+00 
119900 5.7380535467e+00 -4.8570283809e-05 2.4004839671e+00 -4.1577601938e+00 2.4004839671e+00 4.1577601938e+00 
120000 5.7380535514e+00 -4.8460121879e-05 2.4004839671e+00 -4.1577601938e+00 2.4004839671e+00 4.1577601938e+00 
120100 5.7380535560e+00 -4.8350410730e-05 2.4004839671e+00 -4.1577601938e+00 2.4004839671e+00 4.1577601938e+00 
120200 5.7380535605e+00 -4.8241156241e-05 2.4004839671e+00 -4.1577601938e+00 2.4004839671e+00 4.1577601938e+00 
120300 5.7380535650e+00 -4.8132364104e-05 2.4004839671e+00 -4.1577601938e+00 2.4004839671e+00 4.1577601938e+00 
120400 5.7380535694e+00 -4.8024039833e-05 2.4004839671e+00 -4.1577601938e+00 2.4004839671e+00 4.1577601938e+00 
120500 5.7380535737e+00 -4.7916188755e-05 2.4004839671e+00 -4.1577601938e+00 2.4004839671e+00 4.1577601938e+00 
120600 5.7380535779e+00 -4.7808816027e-05 2.4004839671e+00 -4.1577601938e+00 2.4004839671e+00 4.1577601938e+00 
120700 5.7380535820e+00 -4.7701926625e-05 2.4004839671e+00 -4.1577601938e+00 2.4004839671e+00 4.1577601938e+00 
120800 5.7380535861e+00 -4.7595525350e-05 2.4004839671e+00 -4.1577601938e+00 2.4004839671e+00 4.1577601938e+00 
120900 5.7380535901e+00 -4.7489616833e-05 2.4004839671e+00 -4.1577601938e+00 2.4004839671e+00 4.1577601938e+00 
121000 5.7380535940e+00 -4.7384205534e-05 2.4004839671e+00 -4.1577601938e+00 2.4004839671e+00 4.1577601938e+00 
121100 5.7380535979e+00 -4.7279295748e-05 2.4004839671e+00 -4.1577601938e+00 2.4004839671e+00 4.1577601938e+00 
121200 5.7380536017e+00 -4.7174891602e-05 2.4004839671e+00 -4.1577601938e+00 2.4004839671e+00 4.1577601938e+00 
121300 5.7380536054e+00 -4.7070997060e-05 2.4004839671e+00 -4.1577601938e+00 2.4004839671e+00 4.1577601938e+00 
121400 5.7380536090e+00 -4.6967615925e-05 2.4004839671e+00 -4.1577601938e+00 2.4004839671e+00 4.1577601938e+00 
121500 5.7380536126e+00 -4.6864751841e-05 2.4004839671e+00 -4.1577601938e+00 2.4004839671e+00 4.1577601938e+00 
121600 5.7380536161e+00 -4.6762408298e-05 2.4004839671e+00 -4.1577601938e+00 2.4004839671e+00 4.1577601938e+00 
121700 5.7380536196e+00 -4.6660588628e-05 2.4004839671e+00 -4.1577601938e+00 2.4004839671e+00 4.1577601938e+00 
121800 5.7380536230e+00 -4.6559296014e-05 2.4004839671e+00 -4.1577601938e+00 2.4004839671e+00 4.1577601938e+00 
121900 5.7380536263e+00 -4.6458533486e-05 2.4004839671e+00 -4.1577601938e+00 2.4004839671e+00 4.1577601938e+00 
122000 5.7380536296e+00 -4.6358303931e-05 2.4004839671e+00 -4.1577601938e+00 2.4004839671e+00 4.1577601938e+00 
122100 5.7380536328e+00 -4.6258610087e-05 2.4004839671e+00 -4.1577601938e+00 2.4004839671e+00 4.1577601938e+00 
122200 5.7380536360e+00 -4.6159454552e-05 2.4004839671e+00 -4.1577601938e+00 2.4004839671e+00 4.1577601938e+00 
122300 5.7380536391e+00 -4.6060839780e-05 2.4004839671e+00 -4.1577601938e+00 2.4004839671e+00 4.1577601938e+00 
122400 5.7380536421e+00 -4.5962768093e-05 2.4004839671e+00 -4.1577601938e+00 2.4004839671e+00 4.1577601938e+00 
122500 5.7380536451e+00 -4.5865241670e-05 2.4004839671e+00 -4.1577601938e+00 2.4004839671e+00 4.1577601938e+00 
122600 5.7380536481e+00 -4.5768262562e-05 2.4004839671e+00 -4.1577601938e+00 2.4004839671e+00 4.1577601938e+00 
122700 5.7380536510e+00 -4.5671832686e-05 2.4004839671e+00 -4.1577601938e+00 2.4004839671e+00 4.1577601938e+00 
122800 5.7380536538e+00 -4.5575953830e-05 2.4004839671e+00 -4.1577601938e+00 2.4004839671e+00 4.1577601938e+00 
122900 5.7380536566e+00 -4.5480627657e-05 2.4004839671e+00 -4.1577601938e+00 2.4004839671e+00 4.1577601938e+00 
123000 5.7380536593e+00 -4.5385855704e-05 2.4004839671e+00 -4.1577601938e+00 2.4004839671e+00 4.1577601938e+00 
123100 5.7380536620e+00 -4.5291639387e-05 2.4004839671e+00 -4.1577601938e+00 2.4004839671e+00 4.1577601938e+00 
123200 5.7380536646e+00 -4.5197980002e-05 2.4004839671e+00 -4.1577601938e+00 2.4004839671e+00 4.1577601938e+00 
123300 5.7380536672e+00 -4.5104878727e-05 2.4004839671e+00 -4.1577601938e+00 2.4004839671e+00 4.1577601938e+00 
123400 5.7380536698e+00 -4.5012336625e-05 2.4004839671e+00 -4.1577601938e+00 2.4004839671e+00 4.1577601938e+00 
123500 5.7380536723e+00 -4.4920354646e-05 2.4004839671e+00 -4.1577601938e+00 2.4004839671e+00 4.1577601938e+00 
123600 5.7380536747e+00 -4.4828933628e-05 2.4004839671e+00 -4.1577601938e+00 2.4004839671e+00 4.1577601938e+00 
123700 5.7380536771e+00 -4.4738074302e-05 2.4004839671e+00 -4.1577601938e+00 2.4004839671e+00 4.1577601938e+00 
123800 5.7380536795e+00 -4.4647777290e-05 2.4004839671e+00 -4.1577601938e+00 2.4004839671e+00 4.1577601938e+00 
123900 5.7380536818e+00 -4.4558043113e-05 2.4004839671e+00 -4.1577601938e+00 2.4004839671e+00 4.1577601938e+00 
124000 5.7380536841e+00 -4.4468872189e-05 2.4004839671e+00 -4.1577601938e+00 2.4004839671e+00 4.1577601938e+00 
124100 5.7380536863e+00 -4.4380264833e-05 2.4004839671e+00 -4.1577601938e+00 2.4004839671e+00 4.1577601938e+00 
124200 5.7380536885e+00 -4.4292221264e-05 2.4004839671e+00 -4.1577601938e+00 2.4004839671e+00 4.1577601938e+00 
124300 5.7380536907e+00 -4.4204741605e-05 2.4004839671e+00 -4.1577601938e+00 2.4004839671e+00 4.1577601938e+00 
124400 5.7380536928e+00 -4.4117825887e-05 2.4004839671e+00 -4.1577601938e+00 2.4004839671e+00 4.1577601938e+00 
124500 5.7380536949e+00 -4.4031474045e-05 2.4004839671e+00 -4.1577601938e+00 2.4004839671e+00 4.1577601938e+00 
124600 5.7380536969e+00 -4.3945685929e-05 2.4004839671e+00 -4.1577601938e+00 2.4004839671e+00 4.1577601938e+00 
124700 5.7380536989e+00 -4.3860461297e-05 2.4004839671e+00 -4.1577601938e+00 2.4004839671e+00 4.1577601938e+00 
124800 5.7380537009e+00 -4.3775799826e-05 2.4004839671e+00 -4.1577601938e+00 2.4004839671e+00 4.1577601938e+00 
124900 5.7380537029e+00 -4.3691701104e-05 2.4004839671e+00 -4.1577601938e+00 2.4004839671e+00 4.1577601938e+00 
125000 5.7380537048e+00 -4.3608164641e-05 2.4004839671e+00 -4.1577601938e+00 2.4004839671e+00 4.1577601938e+00 
125100 5.7380537066e+00 -4.3525189866e-05 2.4004839671e+00 -4.1577601938e+00 2.4004839671e+00 4.1577601938e+00 
125200 5.7380537085e+00 -4.3442776128e-05 2.4004839671e+00 -4.1577601938e+00 2.4004839671e+00 4.1577601938e+00 
125300 5.7380537103e+00 -4.3360922704e-05 2.4004839671e+00 -4.1577601938e+00 2.4004839671e+00 4.1577601938e+00 
125400 5.7380537120e+00 -4.3279628792e-05 2.4004839671e+00 -4.1577601938e+00 2.4004839671e+00 4.1577601938e+00 
125500 5.7380537138e+00 -4.3198893522e-05 2.4004839671e+00 -4.1577601938e+00 2.4004839671e+00 4.1577601938e+00 
125600 5.7380537155e+00 -4.3118715951e-05 2.4004839671e+00 -4.1577601938e+00 2.4004839671e+00 4.1577601938e+00 
125700 5.7380537171e+00 -4.3039095066e-05 2.4004839671e+00 -4.1577601938e+00 2.4004839671e+00 4.1577601938e+00 
125800 5.7380537188e+00 -4.2960029790e-05 2.4004839671e+00 -4.1577601938e+00 2.4004839671e+00 4.1577601938e+00 
125900 5.7380537204e+00 -4.2881518978e-05 2.4004839671e+00 -4.1577601938e+00 2.4004839671e+00 4.1577601938e+00 
126000 5.7380537220e+00 -4.2803561423e-05 2.4004839671e+00 -4.1577601938e+00 2.4004839671e+00 4.1577601938e+00 
126100 5.7380537235e+00 -4.2726155855e-05 2.4004839671e+00 -4.1577601938e+00 2.4004839671e+00 4.1577601938e+00 
126200 5.7380537251e+00 -4.2649300945e-05 2.4004839671e+00 -4.1577601938e+00 2.4004839671e+00 4.1577601938e+00 
126300 5.7380537266e+00 -4.2572995302e-05 2.4004839671e+00 -4.1577601938e+00 2.4004839671e+00 4.1577601938e+00 
126400 5.7380537281e+00 -4.2497237484e-05 2.4004839671e+00 -4.1577601938e+00 2.4004839671e+00 4.1577601938e+00 
126500 5.7380537295e+00 -4.2422025987e-05 2.4004839671e+00 -4.1577601938e+00 2.4004839671e+00 4.1577601938e+00 
126600 5.7380537309e+00 -4.2347359258e-05 2.4004839671e+00 -4.1577601938e+00 2.4004839671e+00 4.1577601938e+00 
126700 5.7380537323e+00 -4.2273235689e-05 2.4004839671e+00 -4.1577601938e+00 2.4004839671e+00 4.1577601938e+00 
126800 5.7380537337e+00 -4.2199653621e-05 2.4004839671e+00 -4.1577601938e+00 2.4004839671e+00 4.1577601938e+00 
126900 5.7380537350e+00 -4.2126611348e-05 2.4004839671e+00 -4.1577601938e+00 2.4004839671e+00 4.1577601938e+00 
127000 5.7380537364e+00 -4.2054107114e-05 2.4004839671e+00 -4.1577601938e+00 2.4004839671e+00 4.1577601938e+00 
127100 5.7380537377e+00 -4.1982139119e-05 2.4004839671e+00 -4.1577601938e+00 2.4004839671e+00 4.1577601938e+00 
127200 5.7380537389e+00 -4.1910705515e-05 2.4004839671e+00 -4.1577601938e+00 2.4004839671e+00 4.1577601938e+00 
127300 5.7380537402e+00 -4.1839804411e-05 2.4004839671e+00 -4.1577601938e+00 2.4004839671e+00 4.1577601938e+00 
127400 5.7380537414e+00 -4.1769433876e-05 2.4004839671e+00 -4.1577601938e+00 2.4004839671e+00 4.1577601938e+00 
127500 5.7380537426e+00 -4.1699591938e-05 2.4004839671e+00 -4.1577601938e+00 2.4004839671e+00 4.1577601938e+00 
127600 5.7380537438e+00 -4.1630276583e-05 2.4004839671e+00 -4.1577601938e+00 2.4004839671e+00 4.1577601938e+00 
127700 5.7380537450e+00 -4.1561485759e-05 2.4004839671e+00 -4.1577601938e+00 2.4004839671e+00 4.1577601938e+00 
127800 5.7380537461e+00 -4.1493217379e-05 2.4004839671e+00 -4.1577601938e+00 2.4004839671e+00 4.1577601938e+00 
127900 5.7380537473e+00 -4.1425469321e-05 2.4004839671e+00 -4.1577601938e+00 2.4004839671e+00 4.1577601938e+00 
128000 5.7380537484e+00 -4.1358239426e-05 2.4004839671e+00 -4.1577601938e+00 2.4004839671e+00 4.1577601938e+00 
128100 5.7380537495e+00 -4.1291525503e-05 2.4004839671e+00 -4.1577601938e+00 2.4004839671e+00 4.1577601938e+00 
128200 5.7380537505e+00 -4.1225325328e-05 2.4004839671e+00 -4.1577601938e+00 2.4004839671e+00 4.1577601938e+00 
128300 5.7380537516e+00 -4.1159636648e-05 2.4004839671e+00 -4.1577601938e+00 2.4004839671e+00 4.1577601938e+00 
128400 5.7380537526e+00 -4.1094457180e-05 2.4004839671e+00 -4.1577601938e+00 2.4004839671e+00 4.1577601938e+00 
128500 5.7380537536e+00 -4.1029784611e-05 2.4004839671e+00 -4.1577601938e+00 2.4004839671e+00 4.1577601938e+00 
128600 5.7380537546e+00 -4.0965616603e-05 2.4004839671e+00 -4.1577601938e+00 2.4004839671e+00 4.1577601938e+00 
128700 5.7380537556e+00 -4.0901950789e-05 2.4004839671e+00 -4.1577601938e+00 2.4004839671e+00 4.1577601938e+00 
128800 5.7380537565e+00 -4.0838784778e-05 2.4004839671e+00 -4.1577601938e+00 2.4004839671e+00 4.1577601938e+00 
128900 5.7380537575e+00 -4.0776116154e-05 2.4004839671e+00 -4.1577601938e+00 2.4004839671e+00 4.1577601938e+00 
129000 5.7380537584e+00 -4.0713942480e-05 2.4004839671e+00 -4.1577601938e+00 2.4004839671e+00 4.1577601938e+00 
129100 5.7380537593e+00 -4.0652261294e-05 2.4004839671e+00 -4.1577601938e+00 2.4004839671e+00 4.1577601938e+00 
129200 5.7380537602e+00 -4.0591070113e-05 2.4004839671e+00 -4.1577601938e+00 2.4004839671e+00 4.1577601938e+00 
129300 5.7380537611e+00 -4.0530366438e-05 2.4004839671e+00 -4.1577601938e+00 2.4004839671e+00 4.1577601938e+00 
129400 5.7380537619e+00 -4.0470147746e-05 2.4004839671e+00 -4.1577601938e+00 2.4004839671e+00 4.1577601938e+00 
129500 5.7380537628e+00 -4.0410411497e-05 2.4004839671e+00 -4.1577601938e+00 2.4004839671e+00 4.1577601938e+00 
129600 5.7380537636e+00 -4.0351155132e-05 2.4004839671e+00 -4.1577601938e+00 2.4004839671e+00 4.1577601938e+00 
129700 5.7380537644e+00 -4.0292376080e-05 2.4004839671e+00 -4.1577601938e+00 2.4004839671e+00 4.1577601938e+00 
129800 5.7380537652e+00 -4.0234071751e-05 2.4004839671e+00 -4.1577601938e+00 2.4004839671e+00 4.1577601938e+00 
129900 5.7380537660e+00 -4.0176239538e-05 2.4004839671e+00 -4.1577601938e+00 2.4004839671e+00 4.1577601938e+00 
130000 5.7380537668e+00 -4.0118876827e-05 2.4004839671e+00 -4.1577601938e+00 2.4004839671e+00 4.1577601938e+00 
130100 5.7380537676e+00 -4.0061980982e-05 2.4004839671e+00 -4.1577601938e+00 2.4004839671e+00 4.1577601938e+00 
130200 5.7380537683e+00 -4.0005549361e-05 2.4004839671e+00 -4.1577601938e+00 2.4004839671e+00 4.1577601938e+00 
130300 5.7380537690e+00 -3.9949579309e-05 2.4004839671e+00 -4.1577601938e+00 2.4004839671e+00 4.1577601938e+00 
130400 5.7380537698e+00 -3.9894068157e-05 2.4004839671e+00 -4.1577601938e+00 2.4004839671e+00 4.1577601938e+00 
130500 5.7380537705e+00 -3.9839013231e-05 2.4004839671e+00 -4.1577601938e+00 2.4004839671e+00 4.1577601938e+00 
130600 5.7380537712e+00 -3.9784411844e-05 2.4004839671e+00 -4.1577601938e+00 2.4004839671e+00 4.1577601938e+00 
130700 5.7380537718e+00 -3.9730261301e-05 2.4004839671e+00 -4.1577601938e+00 2.4004839671e+00 4.1577601938e+00 
130800 5.7380537725e+00 -3.9676558901e-05 2.4004839671e+00 -4.1577601938e+00 2.4004839671e+00 4.1577601938e+00 
130900 5.7380537732e+00 -3.9623301932e-05 2.4004839671e+00 -4.1577601938e+00 2.4004839671e+00 4.1577601938e+00 
131000 5.7380537738e+00 -3.9570487679e-05 2.4004839671e+00 -4.1577601938e+00 2.4004839671e+00 4.1577601938e+00 
131100 5.7380537744e+00 -3.9518113419e-05 2.4004839671e+00 -4.1577601938e+00 2.4004839671e+00 4.1577601938e+00 
131200 5.7380537751e+00 -3.9466176424e-05 2.4004839671e+00 -4.1577601938e+00 2.4004839671e+00 4.1577601938e+00 
131300 5.7380537757e+00 -3.9414673963e-05 2.4004839671e+00 -4.1577601938e+00 2.4004839671e+00 4.1577601938e+00 
131400 5.7380537763e+00 -3.9363603298e-05 2.4004839671e+00 -4.1577601938e+00 2.4004839671e+00 4.1577601938e+00 
131500 5.7380537769e+00 -3.9312961689e-05 2.4004839671e+00 -4.1577601938e+00 2.4004839671e+00 4.1577601938e+00 
131600 5.7380537775e+00 -3.9262746394e-05 2.4004839671e+00 -4.1577601938e+00 2.4004839671e+00 4.1577601938e+00 
131700 5.7380537780e+00 -3.9212954667e-05 2.4004839671e+00 -4.1577601938e+00 2.4004839671e+00 4.1577601938e+00 
131800 5.7380537786e+00 -3.9163583762e-05 2.4004839671e+00 -4.1577601938e+00 2.4004839671e+00 4.1577601938e+00 
131900 5.7380537792e+00 -3.9114630929e-05 2.4004839671e+00 -4.1577601938e+00 2.4004839671e+00 4.1577601938e+00 
132000 5.7380537797e+00 -3.9066093419e-05 2.4004839671e+00 -4.1577601938e+00 2.4004839671e+00 4.1577601938e+00 
132100 5.7380537802e+00 -3.9017968484e-05 2.4004839671e+00 -4.1577601938e+00 2.4004839671e+00 4.1577601938e+00 
132200 5.7380537808e+00 -3.8970253373e-05 2.4004839671e+00 -4.1577601938e+00 2.4004839671e+00 4.1577601938e+00 
132300 5.7380537813e+00 -3.8922945340e-05 2.4004839671e+00 -4.1577601938e+00 2.4004839671e+00 4.1577601938e+00 
132400 5.7380537818e+00 -3.8876041636e-05 2.4004839671e+00 -4.1577601938e+00 2.4004839671e+00 4.1577601938e+00 
132500 5.7380537823e+00 -3.8829539516e-05 2.4004839671e+00 -4.1577601938e+00 2.4004839671e+00 4.1577601938e+00 
132600 5.7380537828e+00 -3.8783436236e-05 2.4004839671e+00 -4.1577601938e+00 2.4004839671e+00 4.1577601938e+00 
132700 5.7380537832e+00 -3.8737729055e-05 2.4004839671e+00 -4.1577601938e+00 2.4004839671e+00 4.1577601938e+00 
132800 5.7380537837e+00 -3.8692415237e-05 2.4004839671e+00 -4.1577601938e+00 2.4004839671e+00 4.1577601938e+00 
132900 5.7380537842e+00 -3.8647492047e-05 2.4004839671e+00 -4.1577601938e+00 2.4004839671e+00 4.1577601938e+00 
133000 5.7380537846e+00 -3.8602956753e-05 2.4004839671e+00 -4.1577601938e+00 2.4004839671e+00 4.1577601938e+00 
133100 5.7380537851e+00 -3.8558806630e-05 2.4004839671e+00 -4.1577601938e+00 2.4004839671e+00 4.1577601938e+00 
133200 5.7380537855e+00 -3.8515038954e-05 2.4004839671e+00 -4.1577601938e+00 2.4004839671e+00 4.1577601938e+00 
133300 5.7380537860e+00 -3.8471651011e-05 2.4004839671e+00 -4.1577601938e+00 2.4004839671e+00 4.1577601938e+00 
133400 5.7380537864e+00 -3.8428640086e-05 2.4004839671e+00 -4.1577601938e+00 2.4004839671e+00 4.1577601938e+00 
133500 5.7380537868e+00 -3.8386003476e-05 2.4004839671e+00 -4.1577601938e+00 2.4004839671e+00 4.1577601938e+00 
133600 5.7380537872e+00 -3.8343738478e-05 2.4004839671e+00 -4.1577601938e+00 2.4004839671e+00 4.1577601938e+00 
133700 5.7380537876e+00 -3.8301842401e-05 2.4004839671e+00 -4.1577601938e+00 2.4004839671e+00 4.1577601938e+00 
133800 5.7380537880e+00 -3.8260312557e-05 2.4004839671e+00 -4.1577601938e+00 2.4004839671e+00 4.1577601938e+00 
133900 5.7380537884e+00 -3.8219146266e-05 2.4004839671e+00 -4.1577601938e+00 2.4004839671e+00 4.1577601938e+00 
134000 5.7380537888e+00 -3.8178340853e-05 2.4004839671e+00 -4.1577601938e+00 2.4004839671e+00 4.1577601938e+00 
134100 5.7380537892e+00 -3.8137893654e-05 2.4004839671e+00 -4.1577601938e+00 2.4004839671e+00 4.1577601938e+00 
134200 5.7380537895e+00 -3.8097802012e-05 2.4004839671e+00 -4.1577601938e+00 2.4004839671e+00 4.1577601938e+00 
134300 5.7380537899e+00 -3.8058063277e-05 2.4004839671e+00 -4.1577601938e+00 2.4004839671e+00 4.1577601938e+00 
134400 5.7380537903e+00 -3.8018674808e-05 2.4004839671e+00 -4.1577601938e+00 2.4004839671e+00 4.1577601938e+00 
134500 5.7380537906e+00 -3.7979633971e-05 2.4004839671e+00 -4.1577601938e+00 2.4004839671e+00 4.1577601938e+00 
134600 5.7380537909e+00 -3.7940938144e-05 2.4004839671e+00 -4.1577601938e+00 2.4004839671e+00 4.1577601938e+00 
134700 5.7380537913e+00 -3.7902584711e-05 2.4004839671e+00 -4.1577601938e+00 2.4004839671e+00 4.1577601938e+00 
134800 5.7380537916e+00 -3.7864571068e-05 2.4004839671e+00 -4.1577601938e+00 2.4004839671e+00 4.1577601938e+00 
134900 5.7380537920e+00 -3.7826894618e-05 2.4004839671e+00 -4.1577601938e+00 2.4004839671e+00 4.1577601938e+00 
135000 5.7380537923e+00 -3.7789552775e-05 2.4004839671e+00 -4.1577601938e+00 2.4004839671e+00 4.1577601938e+00 
135100 5.7380537926e+00 -3.7752542963e-05 2.4004839671e+00 -4.1577601938e+00 2.4004839671e+00 4.1577601938e+00 
135200 5.7380537929e+00 -3.7715862617e-05 2.4004839671e+00 -4.1577601938e+00 2.4004839671e+00 4.1577601938e+00 
135300 5.7380537932e+00 -3.7679509181e-05 2.4004839671e+00 -4.1577601938e+00 2.4004839671e+00 4.1577601938e+00 
135400 5.7380537935e+00 -3.7643480110e-05 2.4004839671e+00 -4.1577601938e+00 2.4004839671e+00 4.1577601938e+00 
135500 5.7380537938e+00 -3.7607772869e-05 2.4004839671e+00 -4.1577601938e+00 2.4004839671e+00 4.1577601938e+00 
135600 5.7380537941e+00 -3.7572384937e-05 2.4004839671e+00 -4.1577601938e+00 2.4004839671e+00 4.1577601938e+00 
135700 5.7380537944e+00 -3.7537313799e-05 2.4004839671e+00 -4.1577601938e+00 2.4004839671e+00 4.1577601938e+00 
135800 5.7380537947e+00 -3.7502556955e-05 2.4004839671e+00 -4.1577601938e+00 2.4004839671e+00 4.1577601938e+00 
135900 5.7380537949e+00 -3.7468111916e-05 2.4004839671e+00 -4.1577601938e+00 2.4004839671e+00 4.1577601938e+00 
136000 5.7380537952e+00 -3.7433976203e-05 2.4004839671e+00 -4.1577601938e+00 2.4004839671e+00 4.1577601938e+00 
136100 5.7380537955e+00 -3.7400147351e-05 2.4004839671e+00 -4.1577601938e+00 2.4004839671e+00 4.1577601938e+00 
136200 5.7380537958e+00 -3.7366622905e-05 2.4004839671e+00 -4.1577601938e+00 2.4004839671e+00 4.1577601938e+00 
136300 5.7380537960e+00 -3.7333400420e-05 2.4004839671e+00 -4.1577601938e+00 2.4004839671e+00 4.1577601938e+00 
136400 5.7380537963e+00 -3.7300477469e-05 2.4004839671e+00 -4.1577601938e+00 2.4004839671e+00 4.1577601938e+00 
136500 5.7380537965e+00 -3.7267851631e-05 2.4004839671e+00 -4.1577601938e+00 2.4004839671e+00 4.1577601938e+00 
136600 5.7380537968e+00 -3.7235520503e-05 2.4004839671e+00 -4.1577601938e+00 2.4004839671e+00 4.1577601938e+00 
136700 5.7380537970e+00 -3.7203481688e-05 2.4004839671e+00 -4.1577601938e+00 2.4004839671e+00 4.1577601938e+00 
136800 5.7380537972e+00 -3.7171732807e-05 2.4004839671e+00 -4.1577601938e+00 2.4004839671e+00 4.1577601938e+00 
136900 5.7380537975e+00 -3.7140271491e-05 2.4004839671e+00 -4.1577601938e+00 2.4004839671e+00 4.1577601938e+00 
137000 5.7380537977e+00 -3.7109095385e-05 2.4004839671e+00 -4.1577601938e+00 2.4004839671e+00 4.1577601938e+00 
137100 5.7380537979e+00 -3.7078202145e-05 2.4004839671e+00 -4.1577601938e+00 2.4004839671e+00 4.1577601938e+00 
137200 5.7380537982e+00 -3.7047589442e-05 2.4004839671e+00 -4.1577601938e+00 2.4004839671e+00 4.1577601938e+00 
137300 5.7380537984e+00 -3.7017254958e-05 2.4004839671e+00 -4.1577601938e+00 2.4004839671e+00 4.1577601938e+00 
137400 5.7380537986e+00 -3.6987196389e-05 2.4004839671e+00 -4.1577601938e+00 2.4004839671e+00 4.1577601938e+00 
137500 5.7380537988e+00 -3.6957411445e-05 2.4004839671e+00 -4.1577601938e+00 2.4004839671e+00 4.1577601938e+00 
137600 5.7380537990e+00 -3.6927897848e-05 2.4004839671e+00 -4.1577601938e+00 2.4004839671e+00 4.1577601938e+00 
137700 5.7380537992e+00 -3.6898653333e-05 2.4004839671e+00 -4.1577601938e+00 2.4004839671e+00 4.1577601938e+00 
137800 5.7380537994e+00 -3.6869675649e-05 2.4004839671e+00 -4.1577601938e+00 2.4004839671e+00 4.1577601938e+00 
137900 5.7380537996e+00 -3.6840962559e-05 2.4004839671e+00 -4.1577601938e+00 2.4004839671e+00 4.1577601938e+00 
138000 5.7380537998e+00 -3.6812511838e-05 2.4004839671e+00 -4.1577601938e+00 2.4004839671e+00 4.1577601938e+00 
138100 5.7380538000e+00 -3.6784321275e-05 2.4004839671e+00 -4.1577601938e+00 2.4004839671e+00 4.1577601938e+00 
138200 5.7380538002e+00 -3.6756388673e-05 2.4004839671e+00 -4.1577601938e+00 2.4004839671e+00 4.1577601938e+00 
138300 5.7380538004e+00 -3.6728711848e-05 2.4004839671e+00 -4.1577601938e+00 2.4004839671e+00 4.1577601938e+00 
138400 5.7380538006e+00 -3.6701288630e-05 2.4004839671e+00 -4.1577601938e+00 2.4004839671e+00 4.1577601938e+00 
138500 5.7380538007e+00 -3.6674116861e-05 2.4004839671e+00 -4.1577601938e+00 2.4004839671e+00 4.1577601938e+00 
138600 5.7380538009e+00 -3.6647194400e-05 2.4004839671e+00 -4.1577601938e+00 2.4004839671e+00 4.1577601938e+00 
138700 5.7380538011e+00 -3.6620519116e-05 2.4004839671e+00 -4.1577601938e+00 2.4004839671e+00 4.1577601938e+00 
138800 5.7380538013e+00 -3.6594088893e-05 2.4004839671e+00 -4.1577601938e+00 2.4004839671e+00 4.1577601938e+00 
138900 5.7380538014e+00 -3.6567901629e-05 2.4004839671e+00 -4.1577601938e+00 2.4004839671e+00 4.1577601938e+00 
139000 5.7380538016e+00 -3.6541955238e-05 2.4004839671e+00 -4.1577601938e+00 2.4004839671e+00 4.1577601938e+00 
139100 5.7380538018e+00 -3.6516247642e-05 2.4004839671e+00 -4.1577601938e+00 2.4004839671e+00 4.1577601938e+00 
139200 5.7380538019e+00 -3.6490776784e-05 2.4004839671e+00 -4.1577601938e+00 2.4004839671e+00 4.1577601938e+00 
139300 5.7380538021e+00 -3.6465540613e-05 2.4004839671e+00 -4.1577601938e+00 2.4004839671e+00 4.1577601938e+00 
139400 5.7380538022e+00 -3.6440537097e-05 2.4004839671e+00 -4.1577601938e+00 2.4004839671e+00 4.1577601938e+00 
139500 5.7380538024e+00 -3.6415764217e-05 2.4004839671e+00 -4.1577601938e+00 2.4004839671e+00 4.1577601938e+00 
139600 5.7380538025e+00 -3.6391219968e-05 2.4004839671e+00 -4.1577601938e+00 2.4004839671e+00 4.1577601938e+00 
139700 5.7380538027e+00 -3.6366902355e-05 2.4004839671e+00 -4.1577601938e+00 2.4004839671e+00 4.1577601938e+00 
139800 5.7380538028e+00 -3.6342809402e-05 2.4004839671e+00 -4.1577601938e+00 2.4004839671e+00 4.1577601938e+00 
139900 5.7380538030e+00 -3.6318939144e-05 2.4004839671e+00 -4.1577601938e+00 2.4004839671e+00 4.1577601938e+00 
140000 5.7380538031e+00 -3.6295289630e-05 2.4004839671e+00 -4.1577601938e+00 2.4004839671e+00 4.1577601938e+00 
140100 5.7380538032e+00 -3.6271858922e-05 2.4004839671e+00 -4.1577601938e+00 2.4004839671e+00 4.1577601938e+00 
140200 5.7380538034e+00 -3.6248645097e-05 2.4004839671e+00 -4.1577601938e+00 2.4004839671e+00 4.1577601938e+00 
140300 5.7380538035e+00 -3.6225646246e-05 2.4004839671e+00 -4.1577601938e+00 2.4004839671e+00 4.1577601938e+00 
140400 5.7380538036e+00 -3.6202860471e-05 2.4004839671e+00 -4.1577601938e+00 2.4004839671e+00 4.1577601938e+00 
140500 5.7380538038e+00 -3.6180285890e-05 2.4004839671e+00 -4.1577601938e+00 2.4004839671e+00 4.1577601938e+00 
140600 5.7380538039e+00 -3.6157920636e-05 2.4004839671e+00 -4.1577601938e+00 2.4004839671e+00 4.1577601938e+00 
140700 5.7380538040e+00 -3.6135762850e-05 2.4004839671e+00 -4.1577601938e+00 2.4004839671e+00 4.1577601938e+00 
140800 5.7380538041e+00 -3.6113810694e-05 2.4004839671e+00 -4.1577601938e+00 2.4004839671e+00 4.1577601938e+00 
140900 5.7380538043e+00 -3.6092062338e-05 2.4004839671e+00 -4.1577601938e+00 2.4004839671e+00 4.1577601938e+00 
141000 5.7380538044e+00 -3.6070515966e-05 2.4004839671e+00 -4.1577601938e+00 2.4004839671e+00 4.1577601938e+00 
141100 5.7380538045e+00 -3.6049169779e-05 2.4004839671e+00 -4.1577601938e+00 2.4004839671e+00 4.1577601938e+00 
141200 5.7380538046e+00 -3.6028021989e-05 2.4004839671e+00 -4.1577601938e+00 2.4004839671e+00 4.1577601938e+00 
141300 5.7380538047e+00 -3.6007070819e-05 2.4004839671e+00 -4.1577601938e+00 2.4004839671e+00 4.1577601938e+00 
141400 5.7380538048e+00 -3.5986314510e-05 2.4004839671e+00 -4.1577601938e+00 2.4004839671e+00 4.1577601938e+00 
141500 5.7380538050e+00 -3.5965751314e-05 2.4004839671e+00 -4.1577601938e+00 2.4004839671e+00 4.1577601938e+00 
141600 5.7380538051e+00 -3.5945379496e-05 2.4004839671e+00 -4.1577601938e+00 2.4004839671e+00 4.1577601938e+00 
141700 5.7380538052e+00 -3.5925197335e-05 2.4004839671e+00 -4.1577601938e+00 2.4004839671e+00 4.1577601938e+00 
141800 5.7380538053e+00 -3.5905203122e-05 2.4004839671e+00 -4.1577601938e+00 2.4004839671e+00 4.1577601938e+00 
141900 5.7380538054e+00 -3.5885395164e-05 2.4004839671e+00 -4.1577601938e+00 2.4004839671e+00 4.1577601938e+00 
142000 5.7380538055e+00 -3.5865771778e-05 2.4004839671e+00 -4.1577601938e+00 2.4004839671e+00 4.1577601938e+00 
142100 5.7380538056e+00 -3.5846331295e-05 2.4004839671e+00 -4.1577601938e+00 2.4004839671e+00 4.1577601938e+00 
142200 5.7380538057e+00 -3.5827072059e-05 2.4004839671e+00 -4.1577601938e+00 2.4004839671e+00 4.1577601938e+00 
142300 5.7380538058e+00 -3.5807992428e-05 2.4004839671e+00 -4.1577601938e+00 2.4004839671e+00 4.1577601938e+00 
142400 5.7380538059e+00 -3.5789090773e-05 2.4004839671e+00 -4.1577601938e+00 2.4004839671e+00 4.1577601938e+00 
142500 5.7380538060e+00 -3.5770365474e-05 2.4004839671e+00 -4.1577601938e+00 2.4004839671e+00 4.1577601938e+00 
142600 5.7380538061e+00 -3.5751814929e-05 2.4004839671e+00 -4.1577601938e+00 2.4004839671e+00 4.1577601938e+00 
142700 5.7380538062e+00 -3.5733437547e-05 2.4004839671e+00 -4.1577601938e+00 2.4004839671e+00 4.1577601938e+00 
142800 5.7380538062e+00 -3.5715231747e-05 2.4004839671e+00 -4.1577601938e+00 2.4004839671e+00 4.1577601938e+00 
142900 5.7380538063e+00 -3.5697195965e-05 2.4004839671e+00 -4.1577601938e+00 2.4004839671e+00 4.1577601938e+00 
143000 5.7380538064e+00 -3.5679328646e-05 2.4004839671e+00 -4.1577601938e+00 2.4004839671e+00 4.1577601938e+00 
143100 5.7380538065e+00 -3.5661628250e-05 2.4004839671e+00 -4.1577601938e+00 2.4004839671e+00 4.1577601938e+00 
143200 5.7380538066e+00 -3.5644093248e-05 2.4004839671e+00 -4.1577601938e+00 2.4004839671e+00 4.1577601938e+00 
143300 5.7380538067e+00 -3.5626722125e-05 2.4004839671e+00 -4.1577601938e+00 2.4004839671e+00 4.1577601938e+00 
143400 5.7380538068e+00 -3.5609513374e-05 2.4004839671e+00 -4.1577601938e+00 2.4004839671e+00 4.1577601938e+00 
143500 5.7380538068e+00 -3.5592465507e-05 2.4004839671e+00 -4.1577601938e+00 2.4004839671e+00 4.1577601938e+00 
143600 5.7380538069e+00 -3.5575577043e-05 2.4004839671e+00 -4.1577601938e+00 2.4004839671e+00 4.1577601938e+00 
143700 5.7380538070e+00 -3.5558846515e-05 2.4004839671e+00 -4.1577601938e+00 2.4004839671e+00 4.1577601938e+00 
143800 5.7380538071e+00 -3.5542272468e-05 2.4004839671e+00 -4.1577601938e+00 2.4004839671e+00 4.1577601938e+00 
143900 5.7380538071e+00 -3.5525853460e-05 2.4004839671e+00 -4.1577601938e+00 2.4004839671e+00 4.1577601938e+00 
144000 5.7380538072e+00 -3.5509588059e-05 2.4004839671e+00 -4.1577601938e+00 2.4004839671e+00 4.1577601938e+00 
144100 5.7380538073e+00 -3.5493474846e-05 2.4004839671e+00 -4.1577601938e+00 2.4004839671e+00 4.1577601938e+00 
144200 5.7380538074e+00 -3.5477512415e-05 2.4004839671e+00 -4.1577601938e+00 2.4004839671e+00 4.1577601938e+00 
144300 5.7380538074e+00 -3.5461699369e-05 2.4004839671e+00 -4.1577601938e+00 2.4004839671e+00 4.1577601938e+00 
144400 5.7380538075e+00 -3.5446034325e-05 2.4004839671e+00 -4.1577601938e+00 2.4004839671e+00 4.1577601938e+00 
144500 5.7380538076e+00 -3.5430515911e-05 2.4004839671e+00 -4.1577601938e+00 2.4004839671e+00 4.1577601938e+00 
144600 5.7380538076e+00 -3.5415142767e-05 2.4004839671e+00 -4.1577601938e+00 2.4004839671e+00 4.1577601938e+00 
144700 5.7380538077e+00 -3.5399913543e-05 2.4004839671e+00 -4.1577601938e+00 2.4004839671e+00 4.1577601938e+00 
144800 5.7380538078e+00 -3.5384826901e-05 2.4004839671e+00 -4.1577601938e+00 2.4004839671e+00 4.1577601938e+00 
144900 5.7380538078e+00 -3.5369881518e-05 2.4004839671e+00 -4.1577601938e+00 2.4004839671e+00 4.1577601938e+00 
145000 5.7380538079e+00 -3.5355076076e-05 2.4004839671e+00 -4.1577601938e+00 2.4004839671e+00 4.1577601938e+00 
145100 5.7380538080e+00 -3.5340409273e-05 2.4004839671e+00 -4.1577601938e+00 2.4004839671e+00 4.1577601938e+00 
145200 5.7380538080e+00 -3.5325879817e-05 2.4004839671e+00 -4.1577601938e+00 2.4004839671e+00 4.1577601938e+00 
145300 5.7380538081e+00 -3.5311486425e-05 2.4004839671e+00 -4.1577601938e+00 2.4004839671e+00 4.1577601938e+00 
145400 5.7380538081e+00 -3.5297227829e-05 2.4004839671e+00 -4.1577601938e+00 2.4004839671e+00 4.1577601938e+00 
145500 5.7380538082e+00 -3.5283102768e-05 2.4004839671e+00 -4.1577601938e+00 2.4004839671e+00 4.1577601938e+00 
145600 5.7380538083e+00 -3.5269109995e-05 2.4004839671e+00 -4.1577601938e+00 2.4004839671e+00 4.1577601938e+00 
145700 5.7380538083e+00 -3.5255248272e-05 2.4004839671e+00 -4.1577601938e+00 2.4004839671e+00 4.1577601938e+00 
145800 5.7380538084e+00 -3.5241516372e-05 2.4004839671e+00 -4.1577601938e+00 2.4004839671e+00 4.1577601938e+00 
145900 5.7380538084e+00 -3.5227913080e-05 2.4004839671e+00 -4.1577601938e+00 2.4004839671e+00 4.1577601938e+00 
146000 5.7380538085e+00 -3.5214437190e-05 2.4004839671e+00 -4.1577601938e+00 2.4004839671e+00 4.1577601938e+00 
146100 5.7380538085e+00 -3.5201087506e-05 2.4004839671e+00 -4.1577601938e+00 2.4004839671e+00 4.1577601938e+00 
146200 5.7380538086e+00 -3.5187862846e-05 2.4004839671e+00 -4.1577601938e+00 2.4004839671e+00 4.1577601938e+00 
146300 5.7380538086e+00 -3.5174762034e-05 2.4004839671e+00 -4.1577601938e+00 2.4004839671e+00 4.1577601938e+00 
146400 5.7380538087e+00 -3.5161783907e-05 2.4004839671e+00 -4.1577601938e+00 2.4004839671e+00 4.1577601938e+00 
146500 5.7380538087e+00 -3.5148927313e-05 2.4004839671e+00 -4.1577601938e+00 2.4004839671e+00 4.1577601938e+00 
146600 5.7380538088e+00 -3.5136191109e-05 2.4004839671e+00 -4.1577601938e+00 2.4004839671e+00 4.1577601938e+00 
146700 5.7380538088e+00 -3.5123574159e-05 2.4004839671e+00 -4.1577601938e+00 2.4004839671e+00 4.1577601938e+00 
146800 5.7380538089e+00 -3.5111075343e-05 2.4004839671e+00 -4.1577601938e+00 2.4004839671e+00 4.1577601938e+00 
146900 5.7380538089e+00 -3.5098693548e-05 2.4004839671e+00 -4.1577601938e+00 2.4004839671e+00 4.1577601938e+00 
147000 5.7380538090e+00 -3.5086427669e-05 2.4004839671e+00 -4.1577601938e+00 2.4004839671e+00 4.1577601938e+00 
147100 5.7380538090e+00 -3.5074276615e-05 2.4004839671e+00 -4.1577601938e+00 2.4004839671e+00 4.1577601938e+00 
147200 5.7380538091e+00 -3.5062239302e-05 2.4004839671e+00 -4.1577601938e+00 2.4004839671e+00 4.1577601938e+00 
147300 5.7380538091e+00 -3.5050314655e-05 2.4004839671e+00 -4.1577601938e+00 2.4004839671e+00 4.1577601938e+00 
147400 5.7380538092e+00 -3.5038501612e-05 2.4004839671e+00 -4.1577601938e+00 2.4004839671e+00 4.1577601938e+00 
147500 5.7380538092e+00 -3.5026799118e-05 2.4004839671e+00 -4.1577601938e+00 2.4004839671e+00 4.1577601938e+00 
147600 5.7380538092e+00 -3.5021220881e-05 2.4004839671e+00 -4.1577601938e+00 2.4004839671e+00 4.1577601938e+00 
147600 5.7380538092e+00 -3.5021220881e-05 2.4004839671e+00 -4.1577601938e+00 2.4004839671e+00 4.1577601938e+00 
