# step Hamiltonian StressXX CellTensor1 CellTensor2 CellTensor3 CellTensor4 
0 6.3069524676e+00 1.9288975023e-02 2.8378601290e+00 -4.9153179282e+00 2.8378601290e+00 4.9153179282e+00 
100 6.3068073482e+00 3.2393043964e-02 2.8378601290e+00 -4.9153179282e+00 2.8378601290e+00 4.9153179282e+00 
200 6.3061978949e+00 4.4924851106e-02 2.8372894180e+00 -4.9143294278e+00 2.8372894180e+00 4.9143294278e+00 
300 6.3051557660e+00 5.6969425409e-02 2.8364977688e+00 -4.9129582511e+00 2.8364977688e+00 4.9129582511e+00 
400 6.3037054496e+00 6.8552198074e-02 2.8354936068e+00 -4.9112189916e+00 2.8354936068e+00 4.9112189916e+00 
500 6.3018695448e+00 7.9693184308e-02 2.8342848697e+00 -4.9091253975e+00 2.8342848697e+00 4.9091253975e+00 
600 6.2996693683e+00 9.0407771107e-02 2.8328791079e+00 -4.9066905465e+00 2.8328791079e+00 4.9066905465e+00 
700 6.2971254475e+00 1.0070741281e-01 2.8312835707e+00 -4.9039269951e+00 2.8312835707e+00 4.9039269951e+00 
800 6.2942579164e+00 1.1060024707e-01 2.8295052807e+00 -4.9008469065e+00 2.8295052807e+00 4.9008469065e+00 
900 6.2910868283e+00 1.2009164183e-01 2.8275510962e+00 -4.8974621597e+00 2.8275510962e+00 4.8974621597e+00 
1000 6.2876323931e+00 1.2918468201e-01 2.8254277642e+00 -4.8937844407e+00 2.8254277642e+00 4.8937844407e+00 
1100 6.2839151521e+00 1.3788060339e-01 2.8231419643e+00 -4.8898253192e+00 2.8231419643e+00 4.8898253192e+00 
1200 6.2799560942e+00 1.4617917998e-01 2.8207003459e+00 -4.8855963120e+00 2.8207003459e+00 4.8855963120e+00 
1300 6.2757767237e+00 1.5407906998e-01 2.8181095571e+00 -4.8811089342e+00 2.8181095571e+00 4.8811089342e+00 
1400 6.2713990830e+00 1.6157812501e-01 2.8153762685e+00 -4.8763747394e+00 2.8153762685e+00 4.8763747394e+00 
1500 6.2668457380e+00 1.6867366627e-01 2.8125071911e+00 -4.8714053516e+00 2.8125071911e+00 4.8714053516e+00 
1600 6.2621397288e+00 1.7536273082e-01 2.8095090892e+00 -4.8662124868e+00 2.8095090892e+00 4.8662124868e+00 
1700 6.2573044928e+00 1.8164229057e-01 2.8063887891e+00 -4.8608079685e+00 2.8063887891e+00 4.8608079685e+00 
1800 6.2523637622e+00 1.8750944620e-01 2.8031531836e+00 -4.8552037354e+00 2.8031531836e+00 4.8552037354e+00 
1900 6.2473414417e+00 1.9296159767e-01 2.7998092331e+00 -4.8494118432e+00 2.7998092331e+00 4.8494118432e+00 
2000 6.2422614697e+00 1.9799659282e-01 2.7963639632e+00 -4.8434444607e+00 2.7963639632e+00 4.8434444607e+00 
2100 6.2371476663e+00 2.0261285511e-01 2.7928244604e+00 -4.8373138621e+00 2.7928244604e+00 4.8373138621e+00 
2200 6.2320235727e+00 2.0680949154e-01 2.7891978641e+00 -4.8310324130e+00 2.7891978641e+00 4.8310324130e+00 
2300 6.2269122852e+00 2.1058638170e-01 2.7854913573e+00 -4.8246125549e+00 2.7854913573e+00 4.8246125549e+00 
2400 6.2218362874e+00 2.1394424854e-01 2.7817121553e+00 -4.8180667851e+00 2.7817121553e+00 4.8180667851e+00 
2500 6.2168172833e+00 2.1688471193e-01 2.7778674929e+00 -4.8114076344e+00 2.7778674929e+00 4.8114076344e+00 
2600 6.2118760360e+00 2.1941032588e-01 2.7739646098e+00 -4.8046476426e+00 2.7739646098e+00 4.8046476426e+00 
2700 6.2070322138e+00 2.2152460025e-01 2.7700107361e+00 -4.7977993324e+00 2.7700107361e+00 4.7977993324e+00 
2800 6.2023042472e+00 2.2323200831e-01 2.7660130760e+00 -4.7908751820e+00 2.7660130760e+00 4.7908751820e+00 
2900 6.1977091984e+00 2.2453798113e-01 2.7619787919e+00 -4.7838875970e+00 2.7619787919e+00 4.7838875970e+00 
3000 6.1932626477e+00 2.2544889019e-01 2.7579149876e+00 -4.7768488815e+00 2.7579149876e+00 4.7768488815e+00 
3100 6.1889785955e+00 2.2597201956e-01 2.7538286920e+00 -4.7697712098e+00 2.7538286920e+00 4.7697712098e+00 
3200 6.1848693845e+00 2.2611552907e-01 2.7497268423e+00 -4.7626665978e+00 2.7497268423e+00 4.7626665978e+00 
3300 6.1809456407e+00 2.2588840973e-01 2.7456162687e+00 -4.7555468754e+00 2.7456162687e+00 4.7555468754e+00 
3400 6.1772162357e+00 2.2530043302e-01 2.7415036780e+00 -4.7484236594e+00 2.7415036780e+00 4.7484236594e+00 
3500 6.1736882692e+00 2.2436209508e-01 2.7373956392e+00 -4.7413083275e+00 2.7373956392e+00 4.7413083275e+00 
3600 6.1703670721e+00 2.2308455731e-01 2.7332985692e+00 -4.7342119942e+00 2.7332985692e+00 4.7342119942e+00 
3700 6.1672562296e+00 2.2147958443e-01 2.7292187192e+00 -4.7271454867e+00 2.7292187192e+00 4.7271454867e+00 
3800 6.1643576230e+00 2.1955948102e-01 2.7251621623e+00 -4.7201193240e+00 2.7251621623e+00 4.7201193240e+00 
3900 6.1616714902e+00 2.1733702752e-01 2.7211347816e+00 -4.7131436960e+00 2.7211347816e+00 4.7131436960e+00 
4000 6.1591965010e+00 2.1482541656e-01 2.7171422600e+00 -4.7062284457e+00 2.7171422600e+00 4.7062284457e+00 
4100 6.1569298486e+00 2.1203819020e-01 2.7131900700e+00 -4.6993830518e+00 2.7131900700e+00 4.6993830518e+00 
4200 6.1548673524e+00 2.0898917879e-01 2.7092834653e+00 -4.6926166140e+00 2.7092834653e+00 4.6926166140e+00 
4300 6.1530035724e+00 2.0569244180e-01 2.7054274730e+00 -4.6859378395e+00 2.7054274730e+00 4.6859378395e+00 
4400 6.1513319318e+00 2.0216221110e-01 2.7016268869e+00 -4.6793550312e+00 2.7016268869e+00 4.6793550312e+00 
4500 6.1498448459e+00 1.9841283692e-01 2.6978862615e+00 -4.6728760779e+00 2.6978862615e+00 4.6728760779e+00 
4600 6.1485338560e+00 1.9445873662e-01 2.6942099074e+00 -4.6665084459e+00 2.6942099074e+00 4.6665084459e+00 
4700 6.1473897650e+00 1.9031434647e-01 2.6906018874e+00 -4.6602591719e+00 2.6906018874e+00 4.6602591719e+00 
4800 6.1464027736e+00 1.8599407655e-01 2.6870660131e+00 -4.6541348580e+00 2.6870660131e+00 4.6541348580e+00 
4900 6.1455626153e+00 1.8151226853e-01 2.6836058432e+00 -4.6481416680e+00 2.6836058432e+00 4.6481416680e+00 
5000 6.1448586876e+00 1.7688315665e-01 2.6802246817e+00 -4.6422853244e+00 2.6802246817e+00 4.6422853244e+00 
5100 6.1442801791e+00 1.7212083145e-01 2.6769255774e+00 -4.6365711081e+00 2.6769255774e+00 4.6365711081e+00 
5200 6.1438161903e+00 1.6723920649e-01 2.6737113241e+00 -4.6310038581e+00 2.6737113241e+00 4.6310038581e+00 
5300 6.1434558471e+00 1.6225198770e-01 2.6705844614e+00 -4.6255879730e+00 2.6705844614e+00 4.6255879730e+00 
5400 6.1431884061e+00 1.5717264539e-01 2.6675472761e+00 -4.6203274139e+00 2.6675472761e+00 4.6203274139e+00 
5500 6.1430033513e+00 1.5201438874e-01 2.6646018048e+00 -4.6152257078e+00 2.6646018048e+00 4.6152257078e+00 
5600 6.1428904804e+00 1.4679014257e-01 2.6617498357e+00 -4.6102859525e+00 2.6617498357e+00 4.6102859525e+00 
5700 6.1428399818e+00 1.4151252643e-01 2.6589929130e+00 -4.6055108223e+00 2.6589929130e+00 4.6055108223e+00 
5800 6.1428425013e+00 1.3619383573e-01 2.6563323399e+00 -4.6009025745e+00 2.6563323399e+00 4.6009025745e+00 
5900 6.1428891982e+00 1.3084602489e-01 2.6537691834e+00 -4.5964630573e+00 2.6537691834e+00 4.5964630573e+00 
6000 6.1429717916e+00 1.2548069237e-01 2.6513042790e+00 -4.5921937176e+00 2.6513042790e+00 4.5921937176e+00 
6100 6.1430825965e+00 1.2010906746e-01 2.6489382358e+00 -4.5880956106e+00 2.6489382358e+00 4.5880956106e+00 
6200 6.1432145505e+00 1.1474199881e-01 2.6466714423e+00 -4.5841694090e+00 2.6466714423e+00 4.5841694090e+00 
6300 6.1433612311e+00 1.0938994452e-01 2.6445040724e+00 -4.5804154141e+00 2.6445040724e+00 4.5804154141e+00 
6400 6.1435168646e+00 1.0406296386e-01 2.6424360915e+00 -4.5768335663e+00 2.6424360915e+00 4.5768335663e+00 
6500 6.1436763267e+00 9.8770710318e-02 2.6404672638e+00 -4.5734234566e+00 2.6404672638e+00 4.5734234566e+00 
6600 6.1438351365e+00 9.3522426162e-02 2.6385971584e+00 -4.5701843390e+00 2.6385971584e+00 4.5701843390e+00 
6700 6.1439894427e+00 8.8326938293e-02 2.6368251571e+00 -4.5671151428e+00 2.6368251571e+00 4.5671151428e+00 
6800 6.1441360051e+00 8.3192655361e-02 2.6351504617e+00 -4.5642144852e+00 2.6351504617e+00 4.5642144852e+00 
6900 6.1442721697e+00 7.8127566107e-02 2.6335721012e+00 -4.5614806847e+00 2.6335721012e+00 4.5614806847e+00 
7000 6.1443958403e+00 7.3139238849e-02 2.6320889402e+00 -4.5589117745e+00 2.6320889402e+00 4.5589117745e+00 
7100 6.1445054461e+00 6.8234822056e-02 2.6306996863e+00 -4.5565055160e+00 2.6306996863e+00 4.5565055160e+00 
7200 6.1445999057e+00 6.3421045945e-02 2.6294028979e+00 -4.5542594128e+00 2.6294028979e+00 4.5542594128e+00 
7300 6.1446785894e+00 5.8704225045e-02 2.6281969931e+00 -4.5521707243e+00 2.6281969931e+00 4.5521707243e+00 
7400 6.1447412796e+00 5.4090261648e-02 2.6270802566e+00 -4.5502364801e+00 2.6270802566e+00 4.5502364801e+00 
7500 6.1447881295e+00 4.9584650091e-02 2.6260508490e+00 -4.5484534938e+00 2.6260508490e+00 4.5484534938e+00 
7600 6.1448196222e+00 4.5192481802e-02 2.6251068140e+00 -4.5468183772e+00 2.6251068140e+00 4.5468183772e+00 
7700 6.1448365286e+00 4.0918451021e-02 2.6242460869e+00 -4.5453275542e+00 2.6242460869e+00 4.5453275542e+00 
7800 6.1448398662e+00 3.6766861155e-02 2.6234665026e+00 -4.5439772744e+00 2.6234665026e+00 4.5439772744e+00 
7900 6.1448308592e+00 3.2741631666e-02 2.6227658033e+00 -4.5427636276e+00 2.6227658033e+00 4.5427636276e+00 
8000 6.1448108982e+00 2.8846305444e-02 2.6221416466e+00 -4.5416825566e+00 2.6221416466e+00 4.5416825566e+00 
8100 6.1447815033e+00 2.5084056583e-02 2.6215916135e+00 -4.5407298713e+00 2.6215916135e+00 4.5407298713e+00 
8200 6.1447442872e+00 2.1457698490e-02 2.6211132153e+00 -4.5399012613e+00 2.6211132153e+00 4.5399012613e+00 
8300 6.1447009215e+00 1.7969692270e-02 2.6207039018e+00 -4.5391923095e+00 2.6207039018e+00 4.5391923095e+00 
8400 6.1446531043e+00 1.4622155320e-02 2.6203610683e+00 -4.5385985045e+00 2.6203610683e+00 4.5385985045e+00 
8500 6.1446025307e+00 1.1416870059e-02 2.6200820630e+00 -4.5381152531e+00 2.6200820630e+00 4.5381152531e+00 
8600 6.1445508653e+00 8.3552927548e-03 2.6198641936e+00 -4.5377378923e+00 2.6198641936e+00 4.5377378923e+00 
8700 6.1444997175e+00 5.4385623883e-03 2.6197047348e+00 -4.5374617015e+00 2.6197047348e+00 4.5374617015e+00 
8800 6.1444506193e+00 2.6675094989e-03 2.6196009345e+00 -4.5372819140e+00 2.6196009345e+00 4.5372819140e+00 
8900 6.1444050057e+00 4.2664979912e-05 2.6195500202e+00 -4.5371937279e+00 2.6195500202e+00 4.5371937279e+00 
9000 6.1443641945e+00 -2.4354577867e-03 2.6195500202e+00 -4.5371937279e+00 2.6195500202e+00 4.5371937279e+00 
9100 6.1443293813e+00 -4.7674430996e-03 2.6195965065e+00 -4.5372742446e+00 2.6195965065e+00 4.5372742446e+00 
9200 6.1443016181e+00 -6.9533386406e-03 2.6196875028e+00 -4.5374318548e+00 2.6196875028e+00 4.5374318548e+00 
9300 6.1442818067e+00 -8.9937264713e-03 2.6198202170e+00 -4.5376617226e+00 2.6198202170e+00 4.5376617226e+00 
9400 6.1442706925e+00 -1.0889446279e-02 2.6199918667e+00 -4.5379590285e+00 2.6199918667e+00 4.5379590285e+00 
9500 6.1442688593e+00 -1.2641587502e-02 2.6201996840e+00 -4.5383189786e+00 2.6201996840e+00 4.5383189786e+00 
9600 6.1442767269e+00 -1.4251481657e-02 2.6204409209e+00 -4.5387368133e+00 2.6204409209e+00 4.5387368133e+00 
9700 6.1442945513e+00 -1.5720694850e-02 2.6207128547e+00 -4.5392078164e+00 2.6207128547e+00 4.5392078164e+00 
9800 6.1443224260e+00 -1.7051020482e-02 2.6210127921e+00 -4.5397273232e+00 2.6210127921e+00 4.5397273232e+00 
9900 6.1443602862e+00 -1.8244472114e-02 2.6213380742e+00 -4.5402907284e+00 2.6213380742e+00 4.5402907284e+00 
10000 6.1444079135e+00 -1.9303276488e-02 2.6216860812e+00 -4.5408934941e+00 2.6216860812e+00 4.5408934941e+00 
10100 6.1444649436e+00 -2.0229866668e-02 2.6220542360e+00 -4.5415311569e+00 2.6220542360e+00 4.5415311569e+00 
10200 6.1445308747e+00 -2.1026875276e-02 2.6224400091e+00 -4.5421993356e+00 2.6224400091e+00 4.5421993356e+00 
10300 6.1446050772e+00 -2.1697127793e-02 2.6228409222e+00 -4.5428937375e+00 2.6228409222e+00 4.5428937375e+00 
10400 6.1446868049e+00 -2.2243635880e-02 2.6232545519e+00 -4.5436101651e+00 2.6232545519e+00 4.5436101651e+00 
10500 6.1447752070e+00 -2.2669590687e-02 2.6236785336e+00 -4.5443445229e+00 2.6236785336e+00 4.5443445229e+00 
10600 6.1448693414e+00 -2.2978356106e-02 2.6241105646e+00 -4.5450928226e+00 2.6241105646e+00 4.5450928226e+00 
10700 6.1449681881e+00 -2.3173461920e-02 2.6245484081e+00 -4.5458511898e+00 2.6245484081e+00 4.5458511898e+00 
10800 6.1450706634e+00 -2.3258596808e-02 2.6249898957e+00 -4.5466158688e+00 2.6249898957e+00 4.5466158688e+00 
10900 6.1451756347e+00 -2.3237601164e-02 2.6254329308e+00 -4.5473832280e+00 2.6254329308e+00 4.5473832280e+00 
11000 6.1452819355e+00 -2.3114459677e-02 2.6258754912e+00 -4.5481497651e+00 2.6258754912e+00 4.5481497651e+00 
11100 6.1453883802e+00 -2.2893293636e-02 2.6263156321e+00 -4.5489121116e+00 2.6263156321e+00 4.5489121116e+00 
11200 6.1454937787e+00 -2.2578352918e-02 2.6267514885e+00 -4.5496670369e+00 2.6267514885e+00 4.5496670369e+00 
11300 6.1455969515e+00 -2.2174007624e-02 2.6271812773e+00 -4.5504114530e+00 2.6271812773e+00 4.5504114530e+00 
11400 6.1456967439e+00 -2.1684739323e-02 2.6276033000e+00 -4.5511424177e+00 2.6276033000e+00 4.5511424177e+00 
11500 6.1457920394e+00 -2.1115131877e-02 2.6280159442e+00 -4.5518571385e+00 2.6280159442e+00 4.5518571385e+00 
11600 6.1458817727e+00 -2.0469861836e-02 2.6284176859e+00 -4.5525529754e+00 2.6284176859e+00 4.5525529754e+00 
11700 6.1459649425e+00 -1.9753688362e-02 2.6288070906e+00 -4.5532274443e+00 2.6288070906e+00 4.5532274443e+00 
11800 6.1460406222e+00 -1.8971442695e-02 2.6291828154e+00 -4.5538782187e+00 2.6291828154e+00 4.5538782187e+00 
11900 6.1461079702e+00 -1.8128017144e-02 2.6295436096e+00 -4.5545031325e+00 2.6295436096e+00 4.5545031325e+00 
12000 6.1461662395e+00 -1.7228353611e-02 2.6298883160e+00 -4.5551001816e+00 2.6298883160e+00 4.5551001816e+00 
12100 6.1462147847e+00 -1.6277431664e-02 2.6302158720e+00 -4.5556675251e+00 2.6302158720e+00 4.5556675251e+00 
12200 6.1462530695e+00 -1.5280256180e-02 2.6305253095e+00 -4.5562034867e+00 2.6305253095e+00 4.5562034867e+00 
12300 6.1462806710e+00 -1.4241844581e-02 2.6308157560e+00 -4.5567065548e+00 2.6308157560e+00 4.5567065548e+00 
12400 6.1462972839e+00 -1.3167213718e-02 2.6310864342e+00 -4.5571753831e+00 2.6310864342e+00 4.5571753831e+00 
12500 6.1463027226e+00 -1.2061366429e-02 2.6313366621e+00 -4.5576087905e+00 2.6313366621e+00 4.5576087905e+00 
12600 6.1462969219e+00 -1.0929277846e-02 2.6315658524e+00 -4.5580057599e+00 2.6315658524e+00 4.5580057599e+00 
12700 6.1462799368e+00 -9.7758815029e-03 2.6317735125e+00 -4.5583654376e+00 2.6317735125e+00 4.5583654376e+00 
12800 6.1462519395e+00 -8.6060553148e-03 2.6319592427e+00 -4.5586871318e+00 2.6319592427e+00 4.5586871318e+00 
12900 6.1462132166e+00 -7.4246075119e-03 2.6321227358e+00 -4.5589703102e+00 2.6321227358e+00 4.5589703102e+00 
13000 6.1461641642e+00 -6.2362626006e-03 2.6322637755e+00 -4.5592145980e+00 2.6322637755e+00 4.5592145980e+00 
13100 6.1461052811e+00 -5.0456474433e-03 2.6323822345e+00 -4.5594197751e+00 2.6323822345e+00 4.5594197751e+00 
13200 6.1460371623e+00 -3.8572775440e-03 2.6324780731e+00 -4.5595857725e+00 2.6324780731e+00 4.5595857725e+00 
13300 6.1459604902e+00 -2.6755436297e-03 2.6325513367e+00 -4.5597126687e+00 2.6325513367e+00 4.5597126687e+00 
13400 6.1458760251e+00 -1.5046986208e-03 2.6326021534e+00 -4.5598006859e+00 2.6326021534e+00 4.5598006859e+00 
13500 6.1457845955e+00 -3.4884507952e-04 2.6326307317e+00 -4.5598501848e+00 2.6326307317e+00 4.5598501848e+00 
13600 6.1456870870e+00 7.8807677376e-04 2.6326373571e+00 -4.5598616603e+00 2.6326373571e+00 4.5598616603e+00 
13700 6.1455844312e+00 1.9023003903e-03 2.6326223896e+00 -4.5598357360e+00 2.6326223896e+00 4.5598357360e+00 
13800 6.1454775936e+00 2.9902434884e-03 2.6325862603e+00 -4.5597731582e+00 2.6325862603e+00 4.5597731582e+00 
13900 6.1453675624e+00 4.0485178376e-03 2.6325294677e+00 -4.5596747904e+00 2.6325294677e+00 4.5596747904e+00 
14000 6.1452553359e+00 5.0739381638e-03 2.6324525740e+00 -4.5595416066e+00 2.6324525740e+00 4.5595416066e+00 
14100 6.1451419111e+00 6.0635301108e-03 2.6323562017e+00 -4.5593746850e+00 2.6323562017e+00 4.5593746850e+00 
14200 6.1450282725e+00 7.0145372087e-03 2.6322410295e+00 -4.5591752009e+00 2.6322410295e+00 4.5591752009e+00 
14300 6.1449153803e+00 7.9244268004e-03 2.6321077879e+00 -4.5589444197e+00 2.6321077879e+00 4.5589444197e+00 
14400 6.1448041607e+00 8.7908948943e-03 2.6319572555e+00 -4.5586836899e+00 2.6319572555e+00 4.5586836899e+00 
14500 6.1446954955e+00 9.6118699160e-03 2.6317902543e+00 -4.5583944353e+00 2.6317902543e+00 4.5583944353e+00 
14600 6.1445902137e+00 1.0385515344e-02 2.6316076455e+00 -4.5580781477e+00 2.6316076455e+00 4.5580781477e+00 
14700 6.1444890832e+00 1.1110231226e-02 2.6314103254e+00 -4.5577363791e+00 2.6314103254e+00 4.5577363791e+00 
14800 6.1443928035e+00 1.1784654572e-02 2.6311992203e+00 -4.5573707343e+00 2.6311992203e+00 4.5573707343e+00 
14900 6.1443020007e+00 1.2407658655e-02 2.6309752827e+00 -4.5569828631e+00 2.6309752827e+00 4.5569828631e+00 
15000 6.1442172214e+00 1.2978351217e-02 2.6307394866e+00 -4.5565744523e+00 2.6307394866e+00 4.5565744523e+00 
15100 6.1441389303e+00 1.3496071641e-02 2.6304928231e+00 -4.5561472186e+00 2.6304928231e+00 4.5561472186e+00 
15200 6.1440675067e+00 1.3960387102e-02 2.6302362960e+00 -4.5557029007e+00 2.6302362960e+00 4.5557029007e+00 
15300 6.1440032438e+00 1.4371087760e-02 2.6299709178e+00 -4.5552432520e+00 2.6299709178e+00 4.5552432520e+00 
15400 6.1439463485e+00 1.4728181042e-02 2.6296977049e+00 -4.5547700334e+00 2.6296977049e+00 4.5547700334e+00 
15500 6.1438969418e+00 1.5031885076e-02 2.6294176742e+00 -4.5542850060e+00 2.6294176742e+00 4.5542850060e+00 
15600 6.1438550614e+00 1.5282621327e-02 2.6291318388e+00 -4.5537899246e+00 2.6291318388e+00 4.5537899246e+00 
15700 6.1438206644e+00 1.5481006527e-02 2.6288412041e+00 -4.5532865305e+00 2.6288412041e+00 4.5532865305e+00 
15800 6.1437936309e+00 1.5627843939e-02 2.6285467641e+00 -4.5527765456e+00 2.6285467641e+00 4.5527765456e+00 
15900 6.1437737693e+00 1.5724114056e-02 2.6282494982e+00 -4.5522616658e+00 2.6282494982e+00 4.5522616658e+00 
16000 6.1437608208e+00 1.5770964784e-02 2.6279503672e+00 -4.5517435558e+00 2.6279503672e+00 4.5517435558e+00 
16100 6.1437544665e+00 1.5769701199e-02 2.6276503109e+00 -4.5512238429e+00 2.6276503109e+00 4.5512238429e+00 
16200 6.1437543328e+00 1.5721774953e-02 2.6273502443e+00 -4.5507041124e+00 2.6273502443e+00 4.5507041124e+00 
16300 6.1437599989e+00 1.5628773382e-02 2.6270510555e+00 -4.5501859021e+00 2.6270510555e+00 4.5501859021e+00 
16400 6.1437710041e+00 1.5492408415e-02 2.6267536026e+00 -4.5496706986e+00 2.6267536026e+00 4.5496706986e+00 
16500 6.1437868545e+00 1.5314505336e-02 2.6264587116e+00 -4.5491599325e+00 2.6264587116e+00 4.5491599325e+00 
16600 6.1438070311e+00 1.5096991463e-02 2.6261671741e+00 -4.5486549748e+00 2.6261671741e+00 4.5486549748e+00 
16700 6.1438309964e+00 1.4841884826e-02 2.6258797454e+00 -4.5481571337e+00 2.6258797454e+00 4.5481571337e+00 
16800 6.1438582025e+00 1.4551282884e-02 2.6255971427e+00 -4.5476676513e+00 2.6255971427e+00 4.5476676513e+00 
16900 6.1438880973e+00 1.4227351350e-02 2.6253200433e+00 -4.5471877011e+00 2.6253200433e+00 4.5471877011e+00 
17000 6.1439201316e+00 1.3872313176e-02 2.6250490838e+00 -4.5467183855e+00 2.6250490838e+00 4.5467183855e+00 
17100 6.1439537653e+00 1.3488437742e-02 2.6247848586e+00 -4.5462607341e+00 2.6247848586e+00 4.5462607341e+00 
17200 6.1439884730e+00 1.3078030294e-02 2.6245279192e+00 -4.5458157019e+00 2.6245279192e+00 4.5458157019e+00 
17300 6.1440237501e+00 1.2643421684e-02 2.6242787730e+00 -4.5453841680e+00 2.6242787730e+00 4.5453841680e+00 
17400 6.1440591167e+00 1.2186958421e-02 2.6240378834e+00 -4.5449669350e+00 2.6240378834e+00 4.5449669350e+00 
17500 6.1440941224e+00 1.1710993100e-02 2.6238056691e+00 -4.5445647281e+00 2.6238056691e+00 4.5445647281e+00 
17600 6.1441283499e+00 1.1217875206e-02 2.6235825042e+00 -4.5441781952e+00 2.6235825042e+00 4.5441781952e+00 
17700 6.1441614179e+00 1.0709942331e-02 2.6233687179e+00 -4.5438079064e+00 2.6233687179e+00 4.5438079064e+00 
17800 6.1441929839e+00 1.0189511829e-02 2.6231645948e+00 -4.5434543548e+00 2.6231645948e+00 4.5434543548e+00 
17900 6.1442227453e+00 9.6588729070e-03 2.6229703754e+00 -4.5431179570e+00 2.6229703754e+00 4.5431179570e+00 
18000 6.1442504415e+00 9.1202791836e-03 2.6227862567e+00 -4.5427990540e+00 2.6227862567e+00 4.5427990540e+00 
18100 6.1442758541e+00 8.5759417080e-03 2.6226123924e+00 -4.5424979122e+00 2.6226123924e+00 4.5424979122e+00 
18200 6.1442988070e+00 8.0280224560e-03 2.6224488941e+00 -4.5422147248e+00 2.6224488941e+00 4.5422147248e+00 
18300 6.1443191661e+00 7.4786282995e-03 2.6222958321e+00 -4.5419496137e+00 2.6222958321e+00 4.5419496137e+00 
18400 6.1443368385e+00 6.9298054503e-03 2.6221532365e+00 -4.5417026308e+00 2.6221532365e+00 4.5417026308e+00 
18500 6.1443517711e+00 6.3835343762e-03 2.6220210980e+00 -4.5414737602e+00 2.6220210980e+00 4.5414737602e+00 
18600 6.1443639488e+00 5.8417251827e-03 2.6218993696e+00 -4.5412629205e+00 2.6218993696e+00 4.5412629205e+00 
18700 6.1443733925e+00 5.3062134536e-03 2.6217879679e+00 -4.5410699670e+00 2.6217879679e+00 4.5410699670e+00 
18800 6.1443801568e+00 4.7787565415e-03 2.6216867740e+00 -4.5408946941e+00 2.6216867740e+00 4.5408946941e+00 
18900 6.1443843272e+00 4.2610302958e-03 2.6215956355e+00 -4.5407368376e+00 2.6215956355e+00 4.5407368376e+00 
19000 6.1443860173e+00 3.7546262176e-03 2.6215143681e+00 -4.5405960783e+00 2.6215143681e+00 4.5405960783e+00 
19100 6.1443853658e+00 3.2610490264e-03 2.6214427566e+00 -4.5404720436e+00 2.6214427566e+00 4.5404720436e+00 
19200 6.1443825336e+00 2.7817146250e-03 2.6213805574e+00 -4.5403643113e+00 2.6213805574e+00 4.5403643113e+00 
19300 6.1443777000e+00 2.3179484466e-03 2.6213274993e+00 -4.5402724121e+00 2.6213274993e+00 4.5402724121e+00 
19400 6.1443710600e+00 1.8709841682e-03 2.6212832862e+00 -4.5401958327e+00 2.6212832862e+00 4.5401958327e+00 
19500 6.1443628209e+00 1.4419627745e-03 2.6212475980e+00 -4.5401340189e+00 2.6212475980e+00 4.5401340189e+00 
19600 6.1443531989e+00 1.0319319540e-03 2.6212200927e+00 -4.5400863784e+00 2.6212200927e+00 4.5400863784e+00 
19700 6.1443424163e+00 6.4184581260e-04 2.6212004086e+00 -4.5400522845e+00 2.6212004086e+00 4.5400522845e+00 
19800 6.1443306984e+00 2.7256488570e-04 2.6211881652e+00 -4.5400310784e+00 2.6211881652e+00 4.5400310784e+00 
19900 6.1443182704e+00 -7.5143566403e-05 2.6211829660e+00 -4.5400220730e+00 2.6211829660e+00 4.5400220730e+00 
20000 6.1443053551e+00 -4.0060499714e-04 2.6211843994e+00 -4.5400245557e+00 2.6211843994e+00 4.5400245557e+00 
20100 6.1442921698e+00 -7.0323676220e-04 2.6211920410e+00 -4.5400377915e+00 2.6211920410e+00 4.5400377915e+00 
20200 6.1442789248e+00 -9.8254707397e-04 2.6212054555e+00 -4.5400610260e+00 2.6212054555e+00 4.5400610260e+00 
20300 6.1442658205e+00 -1.2381337369e-03 2.6212241978e+00 -4.5400934886e+00 2.6212241978e+00 4.5400934886e+00 
20400 6.1442530459e+00 -1.4696826788e-03 2.6212478153e+00 -4.5401343953e+00 2.6212478153e+00 4.5401343953e+00 
20500 6.1442407768e+00 -1.6769662925e-03 2.6212758494e+00 -4.5401829518e+00 2.6212758494e+00 4.5401829518e+00 
20600 6.1442291746e+00 -1.8598416013e-03 2.6213078370e+00 -4.5402383560e+00 2.6213078370e+00 4.5402383560e+00 
20700 6.1442183851e+00 -2.0182482607e-03 2.6213433126e+00 -4.5402998015e+00 2.6213433126e+00 4.5402998015e+00 
20800 6.1442085373e+00 -2.1522064101e-03 2.6213818091e+00 -4.5403664794e+00 2.6213818091e+00 4.5403664794e+00 
20900 6.1441997428e+00 -2.2618143850e-03 2.6214228602e+00 -4.5404375820e+00 2.6214228602e+00 4.5404375820e+00 
21000 6.1441920957e+00 -2.3472463017e-03 2.6214660013e+00 -4.5405123046e+00 2.6214660013e+00 4.5405123046e+00 
21100 6.1441856719e+00 -2.4087495244e-03 2.6215107712e+00 -4.5405898482e+00 2.6215107712e+00 4.5405898482e+00 
21200 6.1441805294e+00 -2.4466420251e-03 2.6215567133e+00 -4.5406694224e+00 2.6215567133e+00 4.5406694224e+00 
21300 6.1441767081e+00 -2.4613096454e-03 2.6216033774e+00 -4.5407502469e+00 2.6216033774e+00 4.5407502469e+00 
21400 6.1441742308e+00 -2.4532032699e-03 2.6216503203e+00 -4.5408315545e+00 2.6216503203e+00 4.5408315545e+00 
21500 6.1441731031e+00 -2.4228359178e-03 2.6216971078e+00 -4.5409125928e+00 2.6216971078e+00 4.5409125928e+00 
21600 6.1441733145e+00 -2.3707797625e-03 2.6217433154e+00 -4.5409926266e+00 2.6217433154e+00 4.5409926266e+00 
21700 6.1441748390e+00 -2.2976630861e-03 2.6217885293e+00 -4.5410709395e+00 2.6217885293e+00 4.5410709395e+00 
21800 6.1441776365e+00 -2.2041671752e-03 2.6218323481e+00 -4.5411468358e+00 2.6218323481e+00 4.5411468358e+00 
21900 6.1441816534e+00 -2.0910231658e-03 2.6218743830e+00 -4.5412196425e+00 2.6218743830e+00 4.5412196425e+00 
22000 6.1441868242e+00 -1.9590088435e-03 2.6219142596e+00 -4.5412887108e+00 2.6219142596e+00 4.5412887108e+00 
22100 6.1441930726e+00 -1.8089454053e-03 2.6219516181e+00 -4.5413534175e+00 2.6219516181e+00 4.5413534175e+00 
22200 6.1442003126e+00 -1.6416941892e-03 2.6219861143e+00 -4.5414131667e+00 2.6219861143e+00 4.5414131667e+00 
22300 6.1442084505e+00 -1.4581533771e-03 2.6220174207e+00 -4.5414673910e+00 2.6220174207e+00 4.5414673910e+00 
22400 6.1442173857e+00 -1.2592546782e-03 2.6220452267e+00 -4.5415155524e+00 2.6220452267e+00 4.5415155524e+00 
22500 6.1442270124e+00 -1.0459599967e-03 2.6220692396e+00 -4.5415571439e+00 2.6220692396e+00 4.5415571439e+00 
22600 6.1442372209e+00 -8.1925809179e-04 2.6220891849e+00 -4.5415916902e+00 2.6220891849e+00 4.5415916902e+00 
22700 6.1442478992e+00 -5.8016123403e-04 2.6221048071e+00 -4.5416187488e+00 2.6221048071e+00 4.5416187488e+00 
22800 6.1442589341e+00 -3.2970186448e-04 2.6221158700e+00 -4.5416379103e+00 2.6221158700e+00 4.5416379103e+00 
22900 6.1442702125e+00 -6.8929262834e-05 2.6221221570e+00 -4.5416487996e+00 2.6221221570e+00 4.5416487996e+00 
23000 6.1442816226e+00 2.0065766622e-04 2.6221221570e+00 -4.5416487996e+00 2.6221221570e+00 4.5416487996e+00 
23100 6.1442930558e+00 4.7884818900e-04 2.6221183307e+00 -4.5416421723e+00 2.6221183307e+00 4.5416421723e+00 
23200 6.1443044071e+00 7.6413574150e-04 2.6221091998e+00 -4.5416263571e+00 2.6221091998e+00 4.5416263571e+00 
23300 6.1443155762e+00 1.0554366469e-03 2.6220946288e+00 -4.5416011194e+00 2.6220946288e+00 4.5416011194e+00 
23400 6.1443264684e+00 1.3516667134e-03 2.6220745030e+00 -4.5415662604e+00 2.6220745030e+00 4.5415662604e+00 
23500 6.1443369956e+00 1.6517443865e-03 2.6220487283e+00 -4.5415216173e+00 2.6220487283e+00 4.5415216173e+00 
23600 6.1443470767e+00 1.9545938497e-03 2.6220172311e+00 -4.5414670627e+00 2.6220172311e+00 4.5414670627e+00 
23700 6.1443566388e+00 2.2591480658e-03 2.6219799585e+00 -4.5414025046e+00 2.6219799585e+00 4.5414025046e+00 
23800 6.1443656169e+00 2.5643517538e-03 2.6219368777e+00 -4.5413278864e+00 2.6219368777e+00 4.5413278864e+00 
23900 6.1443739548e+00 2.8691642938e-03 2.6218879760e+00 -4.5412431861e+00 2.6218879760e+00 4.5412431861e+00 
24000 6.1443816052e+00 3.1725625535e-03 2.6218332606e+00 -4.5411484162e+00 2.6218332606e+00 4.5411484162e+00 
24100 6.1443885301e+00 3.4735436299e-03 2.6217727580e+00 -4.5410436228e+00 2.6217727580e+00 4.5410436228e+00 
24200 6.1443947005e+00 3.7711274993e-03 2.6217065141e+00 -4.5409288850e+00 2.6217065141e+00 4.5409288850e+00 
24300 6.1444000962e+00 4.0643595693e-03 2.6216345932e+00 -4.5408043143e+00 2.6216345932e+00 4.5408043143e+00 
24400 6.1444047064e+00 4.3523131268e-03 2.6215570779e+00 -4.5406700538e+00 2.6215570779e+00 4.5406700538e+00 
24500 6.1444085286e+00 4.6340916757e-03 2.6214740682e+00 -4.5405262769e+00 2.6214740682e+00 4.5405262769e+00 
24600 6.1444115687e+00 4.9088311574e-03 2.6213856816e+00 -4.5403731867e+00 2.6213856816e+00 4.5403731867e+00 
24700 6.1444138407e+00 5.1757020504e-03 2.6212920517e+00 -4.5402110150e+00 2.6212920517e+00 4.5402110150e+00 
24800 6.1444153658e+00 5.4339113418e-03 2.6211933280e+00 -4.5400400206e+00 2.6211933280e+00 4.5400400206e+00 
24900 6.1444161721e+00 5.6827043662e-03 2.6210896753e+00 -4.5398604889e+00 2.6210896753e+00 4.5398604889e+00 
25000 6.1444162939e+00 5.9213665076e-03 2.6209812726e+00 -4.5396727298e+00 2.6209812726e+00 4.5396727298e+00 
25100 6.1444157712e+00 6.1492247597e-03 2.6208683125e+00 -4.5394770773e+00 2.6208683125e+00 4.5394770773e+00 
25200 6.1444146490e+00 6.3656491407e-03 2.6207510007e+00 -4.5392738872e+00 2.6207510007e+00 4.5392738872e+00 
25300 6.1444129760e+00 6.5700539592e-03 2.6206295546e+00 -4.5390635364e+00 2.6206295546e+00 4.5390635364e+00 
25400 6.1444108050e+00 6.7618989283e-03 2.6205042030e+00 -4.5388464210e+00 2.6205042030e+00 4.5388464210e+00 
25500 6.1444081909e+00 6.9406901256e-03 2.6203751850e+00 -4.5386229553e+00 2.6203751850e+00 4.5386229553e+00 
25600 6.1444051908e+00 7.1059807973e-03 2.6202427492e+00 -4.5383935697e+00 2.6202427492e+00 4.5383935697e+00 
25700 6.1444018632e+00 7.2573720046e-03 2.6201071526e+00 -4.5381587095e+00 2.6201071526e+00 4.5381587095e+00 
25800 6.1443982667e+00 7.3945131125e-03 2.6199686600e+00 -4.5379188334e+00 2.6199686600e+00 4.5379188334e+00 
25900 6.1443944599e+00 7.5171021202e-03 2.6198275429e+00 -4.5376744114e+00 2.6198275429e+00 4.5376744114e+00 
26000 6.1443905005e+00 7.6248858341e-03 2.6196840786e+00 -4.5374259240e+00 2.6196840786e+00 4.5374259240e+00 
26100 6.1443864447e+00 7.7176598836e-03 2.6195385493e+00 -4.5371738599e+00 2.6195385493e+00 4.5371738599e+00 
26200 6.1443823466e+00 7.7952685832e-03 2.6193912412e+00 -4.5369187147e+00 2.6193912412e+00 4.5369187147e+00 
26300 6.1443782578e+00 7.8576046405e-03 2.6192424434e+00 -4.5366609892e+00 2.6192424434e+00 4.5366609892e+00 
26400 6.1443742267e+00 7.9046087156e-03 2.6190924471e+00 -4.5364011882e+00 2.6190924471e+00 4.5364011882e+00 
26500 6.1443702982e+00 7.9362688333e-03 2.6189415450e+00 -4.5361398180e+00 2.6189415450e+00 4.5361398180e+00 
26600 6.1443665135e+00 7.9526196536e-03 2.6187900297e+00 -4.5358773859e+00 2.6187900297e+00 4.5358773859e+00 
26700 6.1443629093e+00 7.9537416033e-03 2.6186381935e+00 -4.5356143978e+00 2.6186381935e+00 4.5356143978e+00 
26800 6.1443595183e+00 7.9397598751e-03 2.6184863271e+00 -4.5353513575e+00 2.6184863271e+00 4.5353513575e+00 
26900 6.1443563684e+00 7.9108432994e-03 2.6183347188e+00 -4.5350887643e+00 2.6183347188e+00 4.5350887643e+00 
27000 6.1443534830e+00 7.8672030938e-03 2.6181836540e+00 -4.5348271123e+00 2.6181836540e+00 4.5348271123e+00 
27100 6.1443508807e+00 7.8090914971e-03 2.6180334138e+00 -4.5345668886e+00 2.6180334138e+00 4.5345668886e+00 
27200 6.1443485754e+00 7.7368002951e-03 2.6178842748e+00 -4.5343085723e+00 2.6178842748e+00 4.5343085723e+00 
27300 6.1443465763e+00 7.6506592439e-03 2.6177365080e+00 -4.5340526327e+00 2.6177365080e+00 4.5340526327e+00 
27400 6.1443448882e+00 7.5510343988e-03 2.6175903782e+00 -4.5337995284e+00 2.6175903782e+00 4.5337995284e+00 
27500 6.1443435116e+00 7.4383263561e-03 2.6174461431e+00 -4.5335497060e+00 2.6174461431e+00 4.5335497060e+00 
27600 6.1443424429e+00 7.3129684153e-03 2.6173040531e+00 -4.5333035989e+00 2.6173040531e+00 4.5333035989e+00 
27700 6.1443416744e+00 7.1754246699e-03 2.6171643501e+00 -4.5330616262e+00 2.6171643501e+00 4.5330616262e+00 
27800 6.1443411952e+00 7.0261880344e-03 2.6170272674e+00 -4.5328241919e+00 2.6170272674e+00 4.5328241919e+00 
27900 6.1443409909e+00 6.8657782160e-03 2.6168930287e+00 -4.5325916836e+00 2.6168930287e+00 4.5325916836e+00 
28000 6.1443410442e+00 6.6947396391e-03 2.6167618479e+00 -4.5323644719e+00 2.6167618479e+00 4.5323644719e+00 
28100 6.1443413356e+00 6.5136393298e-03 2.6166339286e+00 -4.5321429092e+00 2.6166339286e+00 4.5321429092e+00 
28200 6.1443418430e+00 6.3230647704e-03 2.6165094636e+00 -4.5319273295e+00 2.6165094636e+00 4.5319273295e+00 
28300 6.1443425429e+00 6.1236217295e-03 2.6163886344e+00 -4.5317180471e+00 2.6163886344e+00 4.5317180471e+00 
28400 6.1443434104e+00 5.9159320778e-03 2.6162716110e+00 -4.5315153566e+00 2.6162716110e+00 4.5315153566e+00 
28500 6.1443444196e+00 5.7006315965e-03 2.6161585514e+00 -4.5313195317e+00 2.6161585514e+00 4.5313195317e+00 
28600 6.1443455439e+00 5.4783677852e-03 2.6160496017e+00 -4.5311308253e+00 2.6160496017e+00 4.5311308253e+00 
28700 6.1443467567e+00 5.2497976784e-03 2.6159448956e+00 -4.5309494689e+00 2.6159448956e+00 4.5309494689e+00 
28800 6.1443480316e+00 5.0155856757e-03 2.6158445539e+00 -4.5307756721e+00 2.6158445539e+00 4.5307756721e+00 
28900 6.1443493425e+00 4.7764013954e-03 2.6157486852e+00 -4.5306096225e+00 2.6157486852e+00 4.5306096225e+00 
29000 6.1443506643e+00 4.5329175546e-03 2.6156573849e+00 -4.5304514858e+00 2.6156573849e+00 4.5304514858e+00 
29100 6.1443519730e+00 4.2858078864e-03 2.6155707357e+00 -4.5303014049e+00 2.6155707357e+00 4.5303014049e+00 
29200 6.1443532460e+00 4.0357450960e-03 2.6154888073e+00 -4.5301595010e+00 2.6154888073e+00 4.5301595010e+00 
29300 6.1443544622e+00 3.7833988651e-03 2.6154116569e+00 -4.5300258724e+00 2.6154116569e+00 4.5300258724e+00 
29400 6.1443556025e+00 3.5294339079e-03 2.6153393282e+00 -4.5299005956e+00 2.6153393282e+00 4.5299005956e+00 
29500 6.1443566497e+00 3.2745080843e-03 2.6152718529e+00 -4.5297837248e+00 2.6152718529e+00 4.5297837248e+00 
29600 6.1443575889e+00 3.0192705754e-03 2.6152092496e+00 -4.5296752927e+00 2.6152092496e+00 4.5296752927e+00 
29700 6.1443584072e+00 2.7643601251e-03 2.6151515246e+00 -4.5295753100e+00 2.6151515246e+00 4.5295753100e+00 
29800 6.1443590942e+00 2.5104033527e-03 2.6150986720e+00 -4.5294837666e+00 2.6150986720e+00 4.5294837666e+00 
29900 6.1443596418e+00 2.2580131389e-03 2.6150506739e+00 -4.5294006315e+00 2.6150506739e+00 4.5294006315e+00 
30000 6.1443600442e+00 2.0077870896e-03 2.6150075006e+00 -4.5293258531e+00 2.6150075006e+00 4.5293258531e+00 
30100 6.1443602981e+00 1.7603060799e-03 2.6149691110e+00 -4.5292593604e+00 2.6149691110e+00 4.5292593604e+00 
30200 6.1443604024e+00 1.5161328809e-03 2.6149354528e+00 -4.5292010627e+00 2.6149354528e+00 4.5292010627e+00 
30300 6.1443603581e+00 1.2758108718e-03 2.6149064629e+00 -4.5291508509e+00 2.6149064629e+00 4.5291508509e+00 
30400 6.1443601684e+00 1.0398628387e-03 2.6148820680e+00 -4.5291085976e+00 2.6148820680e+00 4.5291085976e+00 
30500 6.1443598385e+00 8.0878986175e-04 2.6148621845e+00 -4.5290741583e+00 2.6148621845e+00 4.5290741583e+00 
30600 6.1443593754e+00 5.8307029223e-04 2.6148467193e+00 -4.5290473718e+00 2.6148467193e+00 4.5290473718e+00 
30700 6.1443587878e+00 3.6315882009e-04 2.6148355700e+00 -4.5290280608e+00 2.6148355700e+00 4.5290280608e+00 
30800 6.1443580858e+00 1.4948563233e-04 2.6148286259e+00 -4.5290160331e+00 2.6148286259e+00 4.5290160331e+00 
30900 6.1443572808e+00 -5.7544337112e-05 2.6148257674e+00 -4.5290110821e+00 2.6148257674e+00 4.5290110821e+00 
31000 6.1443563858e+00 -2.5791846864e-04 2.6148257674e+00 -4.5290110821e+00 2.6148257674e+00 4.5290110821e+00 
31100 6.1443554139e+00 -4.5055968838e-04 2.6148306993e+00 -4.5290196243e+00 2.6148306993e+00 4.5290196243e+00 
31200 6.1443543790e+00 -6.3550086934e-04 2.6148393148e+00 -4.5290345468e+00 2.6148393148e+00 4.5290345468e+00 
31300 6.1443532960e+00 -8.1244375715e-04 2.6148514666e+00 -4.5290555944e+00 2.6148514666e+00 4.5290555944e+00 
31400 6.1443521797e+00 -9.8111774009e-04 2.6148670018e+00 -4.5290825021e+00 2.6148670018e+00 4.5290825021e+00 
31500 6.1443510451e+00 -1.1412800619e-03 2.6148857622e+00 -4.5291149961e+00 2.6148857622e+00 4.5291149961e+00 
31600 6.1443499070e+00 -1.2927159492e-03 2.6149075850e+00 -4.5291527942e+00 2.6149075850e+00 4.5291527942e+00 
31700 6.1443487802e+00 -1.4352386542e-03 2.6149323032e+00 -4.5291956075e+00 2.6149323032e+00 4.5291956075e+00 
31800 6.1443476786e+00 -1.5686894169e-03 2.6149597464e+00 -4.5292431405e+00 2.6149597464e+00 4.5292431405e+00 
31900 6.1443466159e+00 -1.6929373456e-03 2.6149897409e+00 -4.5292950926e+00 2.6149897409e+00 4.5292950926e+00 
32000 6.1443456047e+00 -1.8078792211e-03 2.6150221109e+00 -4.5293511590e+00 2.6150221109e+00 4.5293511590e+00 
32100 6.1443446569e+00 -1.9134392248e-03 2.6150566781e+00 -4.5294110312e+00 2.6150566781e+00 4.5294110312e+00 
32200 6.1443437833e+00 -2.0095685948e-03 2.6150932633e+00 -4.5294743985e+00 2.6150932633e+00 4.5294743985e+00 
32300 6.1443429937e+00 -2.0962452106e-03 2.6151316859e+00 -4.5295409484e+00 2.6151316859e+00 4.5295409484e+00 
32400 6.1443422964e+00 -2.1734731123e-03 2.6151717651e+00 -4.5296103677e+00 2.6151717651e+00 4.5296103677e+00 
32500 6.1443416988e+00 -2.2412819536e-03 2.6152133203e+00 -4.5296823434e+00 2.6152133203e+00 4.5296823434e+00 
32600 6.1443412068e+00 -2.2997263945e-03 2.6152561713e+00 -4.5297565634e+00 2.6152561713e+00 4.5297565634e+00 
32700 6.1443408250e+00 -2.3488854354e-03 2.6153001389e+00 -4.5298327176e+00 2.6153001389e+00 4.5298327176e+00 
32800 6.1443405567e+00 -2.3888616951e-03 2.6153450456e+00 -4.5299104984e+00 2.6153450456e+00 4.5299104984e+00 
32900 6.1443404037e+00 -2.4197806383e-03 2.6153907159e+00 -4.5299896016e+00 2.6153907159e+00 4.5299896016e+00 
33000 6.1443403667e+00 -2.4417897529e-03 2.6154369764e+00 -4.5300697272e+00 2.6154369764e+00 4.5300697272e+00 
33100 6.1443404450e+00 -2.4550576825e-03 2.6154836569e+00 -4.5301505801e+00 2.6154836569e+00 4.5301505801e+00 
33200 6.1443406366e+00 -2.4597733171e-03 2.6155305902e+00 -4.5302318710e+00 2.6155305902e+00 4.5302318710e+00 
33300 6.1443409385e+00 -2.4561448443e-03 2.6155776128e+00 -4.5303133165e+00 2.6155776128e+00 4.5303133165e+00 
33400 6.1443413463e+00 -2.4443987661e-03 2.6156245652e+00 -4.5303946404e+00 2.6156245652e+00 4.5303946404e+00 
33500 6.1443418550e+00 -2.4247788832e-03 2.6156712922e+00 -4.5304755740e+00 2.6156712922e+00 4.5304755740e+00 
33600 6.1443424583e+00 -2.3975452516e-03 2.6157176433e+00 -4.5305558565e+00 2.6157176433e+00 4.5305558565e+00 
33700 6.1443431492e+00 -2.3629731134e-03 2.6157634730e+00 -4.5306352359e+00 2.6157634730e+00 4.5306352359e+00 
33800 6.1443439201e+00 -2.3213518073e-03 2.6158086411e+00 -4.5307134693e+00 2.6158086411e+00 4.5307134693e+00 
33900 6.1443447626e+00 -2.2729836601e-03 2.6158530128e+00 -4.5307903233e+00 2.6158530128e+00 4.5307903233e+00 
34000 6.1443456678e+00 -2.2181828643e-03 2.6158964593e+00 -4.5308655748e+00 2.6158964593e+00 4.5308655748e+00 
34100 6.1443466266e+00 -2.1572743442e-03 2.6159388575e+00 -4.5309390107e+00 2.6159388575e+00 4.5309390107e+00 
34200 6.1443476294e+00 -2.0905926147e-03 2.6159800909e+00 -4.5310104290e+00 2.6159800909e+00 4.5310104290e+00 
34300 6.1443486667e+00 -2.0184806346e-03 2.6160200491e+00 -4.5310796387e+00 2.6160200491e+00 4.5310796387e+00 
34400 6.1443497286e+00 -1.9412886604e-03 2.6160586284e+00 -4.5311464600e+00 2.6160586284e+00 4.5311464600e+00 
34500 6.1443508056e+00 -1.8593731010e-03 2.6160957318e+00 -4.5312107250e+00 2.6160957318e+00 4.5312107250e+00 
34600 6.1443518882e+00 -1.7730953780e-03 2.6161312691e+00 -4.5312722773e+00 2.6161312691e+00 4.5312722773e+00 
34700 6.1443529672e+00 -1.6828207945e-03 2.6161651569e+00 -4.5313309727e+00 2.6161651569e+00 4.5313309727e+00 
34800 6.1443540336e+00 -1.5889174159e-03 2.6161973189e+00 -4.5313866790e+00 2.6161973189e+00 4.5313866790e+00 
34900 6.1443550790e+00 -1.4917549642e-03 2.6162276859e+00 -4.5314392762e+00 2.6162276859e+00 4.5314392762e+00 
35000 6.1443560955e+00 -1.3917037303e-03 2.6162561956e+00 -4.5314886564e+00 2.6162561956e+00 4.5314886564e+00 
35100 6.1443570757e+00 -1.2891335066e-03 2.6162827929e+00 -4.5315347243e+00 2.6162827929e+00 4.5315347243e+00 
35200 6.1443580129e+00 -1.1844125420e-03 2.6163074297e+00 -4.5315773964e+00 2.6163074297e+00 4.5315773964e+00 
35300 6.1443589008e+00 -1.0779065228e-03 2.6163300649e+00 -4.5316166018e+00 2.6163300649e+00 4.5316166018e+00 
35400 6.1443597343e+00 -9.6997758092e-04 2.6163506645e+00 -4.5316522814e+00 2.6163506645e+00 4.5316522814e+00 
35500 6.1443605087e+00 -8.6098333332e-04 2.6163692014e+00 -4.5316843882e+00 2.6163692014e+00 4.5316843882e+00 
35600 6.1443612201e+00 -7.5127595326e-04 2.6163856552e+00 -4.5317128870e+00 2.6163856552e+00 4.5317128870e+00 
35700 6.1443618654e+00 -6.4120127657e-04 2.6164000123e+00 -4.5317377543e+00 2.6164000123e+00 4.5317377543e+00 
35800 6.1443624423e+00 -5.3109794452e-04 2.6164122658e+00 -4.5317589780e+00 2.6164122658e+00 4.5317589780e+00 
35900 6.1443629493e+00 -4.2129658513e-04 2.6164224152e+00 -4.5317765572e+00 2.6164224152e+00 4.5317765572e+00 
36000 6.1443633855e+00 -3.1211903483e-04 2.6164304662e+00 -4.5317905020e+00 2.6164304662e+00 4.5317905020e+00 
36100 6.1443637510e+00 -2.0387760176e-04 2.6164364308e+00 -4.5318008330e+00 2.6164364308e+00 4.5318008330e+00 
36200 6.1443640462e+00 -9.6874372320e-05 2.6164403269e+00 -4.5318075812e+00 2.6164403269e+00 4.5318075812e+00 
36300 6.1443642726e+00 8.5994378711e-06 2.6164421782e+00 -4.5318107877e+00 2.6164421782e+00 4.5318107877e+00 
36400 6.1443644321e+00 1.1231874553e-04 2.6164421782e+00 -4.5318107877e+00 2.6164421782e+00 4.5318107877e+00 
36500 6.1443645270e+00 2.1390777957e-04 2.6164400318e+00 -4.5318070700e+00 2.6164400318e+00 4.5318070700e+00 
36600 6.1443645605e+00 3.1316482356e-04 2.6164359440e+00 -4.5317999898e+00 2.6164359440e+00 4.5317999898e+00 
36700 6.1443645359e+00 4.0984770929e-04 2.6164299594e+00 -4.5317896242e+00 2.6164299594e+00 4.5317896242e+00 
36800 6.1443644571e+00 5.0372768477e-04 2.6164221273e+00 -4.5317760585e+00 2.6164221273e+00 4.5317760585e+00 
36900 6.1443643283e+00 5.9458977923e-04 2.6164125010e+00 -4.5317593853e+00 2.6164125010e+00 4.5317593853e+00 
37000 6.1443641541e+00 6.8223311934e-04 2.6164011383e+00 -4.5317397045e+00 2.6164011383e+00 4.5317397045e+00 
37100 6.1443639391e+00 7.6647119667e-04 2.6163881007e+00 -4.5317171227e+00 2.6163881007e+00 4.5317171227e+00 
37200 6.1443636882e+00 8.4713208651e-04 2.6163734532e+00 -4.5316917525e+00 2.6163734532e+00 4.5316917525e+00 
37300 6.1443634064e+00 9.2405861849e-04 2.6163572642e+00 -4.5316637123e+00 2.6163572642e+00 4.5316637123e+00 
37400 6.1443630986e+00 9.9710849932e-04 2.6163396049e+00 -4.5316331256e+00 2.6163396049e+00 4.5316331256e+00 
37500 6.1443627700e+00 1.0661543884e-03 2.6163205495e+00 -4.5316001207e+00 2.6163205495e+00 4.5316001207e+00 
37600 6.1443624254e+00 1.1310839268e-03 2.6163001745e+00 -4.5315648301e+00 2.6163001745e+00 4.5315648301e+00 
37700 6.1443620697e+00 1.1917997211e-03 2.6162785584e+00 -4.5315273900e+00 2.6162785584e+00 4.5315273900e+00 
37800 6.1443617074e+00 1.2482192823e-03 2.6162557818e+00 -4.5314879397e+00 2.6162557818e+00 4.5314879397e+00 
37900 6.1443613431e+00 1.3002749214e-03 2.6162319268e+00 -4.5314466216e+00 2.6162319268e+00 4.5314466216e+00 
38000 6.1443609809e+00 1.3479136030e-03 2.6162070767e+00 -4.5314035800e+00 2.6162070767e+00 4.5314035800e+00 
38100 6.1443606248e+00 1.3910967582e-03 2.6161813159e+00 -4.5313589610e+00 2.6161813159e+00 4.5313589610e+00 
38200 6.1443602783e+00 1.4298000579e-03 2.6161547296e+00 -4.5313129120e+00 2.6161547296e+00 4.5313129120e+00 
38300 6.1443599447e+00 1.4640131487e-03 2.6161274032e+00 -4.5312655815e+00 2.6161274032e+00 4.5312655815e+00 
38400 6.1443596270e+00 1.4937393528e-03 2.6160994227e+00 -4.5312171178e+00 2.6160994227e+00 4.5312171178e+00 
38500 6.1443593277e+00 1.5189953331e-03 2.6160708738e+00 -4.5311676697e+00 2.6160708738e+00 4.5311676697e+00 
38600 6.1443590489e+00 1.5398107264e-03 2.6160418419e+00 -4.5311173848e+00 2.6160418419e+00 4.5311173848e+00 
38700 6.1443587926e+00 1.5562277459e-03 2.6160124118e+00 -4.5310664104e+00 2.6160124118e+00 4.5310664104e+00 
38800 6.1443585600e+00 1.5683007544e-03 2.6159826675e+00 -4.5310148919e+00 2.6159826675e+00 4.5310148919e+00 
38900 6.1443583523e+00 1.5760958119e-03 2.6159526922e+00 -4.5309629732e+00 2.6159526922e+00 4.5309629732e+00 
39000 6.1443581702e+00 1.5796901974e-03 2.6159225676e+00 -4.5309107957e+00 2.6159225676e+00 4.5309107957e+00 
39100 6.1443580140e+00 1.5791719094e-03 2.6158923739e+00 -4.5308584987e+00 2.6158923739e+00 4.5308584987e+00 
39200 6.1443578836e+00 1.5746391441e-03 2.6158621898e+00 -4.5308062183e+00 2.6158621898e+00 4.5308062183e+00 
39300 6.1443577788e+00 1.5661997572e-03 2.6158320919e+00 -4.5307540873e+00 2.6158320919e+00 4.5307540873e+00 
39400 6.1443576990e+00 1.5539707081e-03 2.6158021551e+00 -4.5307022351e+00 2.6158021551e+00 4.5307022351e+00 
39500 6.1443576433e+00 1.5380774898e-03 2.6157724516e+00 -4.5306507872e+00 2.6157724516e+00 4.5306507872e+00 
39600 6.1443576106e+00 1.5186535478e-03 2.6157430516e+00 -4.5305998649e+00 2.6157430516e+00 4.5305998649e+00 
39700 6.1443575995e+00 1.4958396881e-03 2.6157140225e+00 -4.5305495851e+00 2.6157140225e+00 4.5305495851e+00 
39800 6.1443576084e+00 1.4697834771e-03 2.6156854293e+00 -4.5305000601e+00 2.6156854293e+00 4.5305000601e+00 
39900 6.1443576358e+00 1.4406386366e-03 2.6156573337e+00 -4.5304513972e+00 2.6156573337e+00 4.5304513972e+00 
40000 6.1443576798e+00 1.4085644338e-03 2.6156297950e+00 -4.5304036988e+00 2.6156297950e+00 4.5304036988e+00 
40100 6.1443577384e+00 1.3737250701e-03 2.6156028692e+00 -4.5303570618e+00 2.6156028692e+00 4.5303570618e+00 
40200 6.1443578098e+00 1.3362890695e-03 2.6155766090e+00 -4.5303115779e+00 2.6155766090e+00 4.5303115779e+00 
40300 6.1443578918e+00 1.2964286690e-03 2.6155510642e+00 -4.5302673330e+00 2.6155510642e+00 4.5302673330e+00 
40400 6.1443579825e+00 1.2543192128e-03 2.6155262812e+00 -4.5302244075e+00 2.6155262812e+00 4.5302244075e+00 
40500 6.1443580798e+00 1.2101385518e-03 2.6155023029e+00 -4.5301828759e+00 2.6155023029e+00 4.5301828759e+00 
40600 6.1443581817e+00 1.1640664500e-03 2.6154791689e+00 -4.5301428068e+00 2.6154791689e+00 4.5301428068e+00 
40700 6.1443582865e+00 1.1162840000e-03 2.6154569156e+00 -4.5301042628e+00 2.6154569156e+00 4.5301042628e+00 
40800 6.1443583921e+00 1.0669730489e-03 2.6154355755e+00 -4.5300673006e+00 2.6154355755e+00 4.5300673006e+00 
40900 6.1443584969e+00 1.0163156352e-03 2.6154151779e+00 -4.5300319710e+00 2.6154151779e+00 4.5300319710e+00 
41000 6.1443585992e+00 9.6449344005e-04 2.6153957486e+00 -4.5299983184e+00 2.6153957486e+00 4.5299983184e+00 
41100 6.1443586977e+00 9.1168725203e-04 2.6153773098e+00 -4.5299663816e+00 2.6153773098e+00 4.5299663816e+00 
41200 6.1443587909e+00 8.5807644809e-04 2.6153598805e+00 -4.5299361931e+00 2.6153598805e+00 4.5299361931e+00 
41300 6.1443588778e+00 8.0383849142e-04 2.6153434759e+00 -4.5299077796e+00 2.6153434759e+00 4.5299077796e+00 
41400 6.1443589572e+00 7.4914844721e-04 2.6153281082e+00 -4.5298811619e+00 2.6153281082e+00 4.5298811619e+00 
41500 6.1443590284e+00 6.9417851746e-04 2.6153137860e+00 -4.5298563550e+00 2.6153137860e+00 4.5298563550e+00 
41600 6.1443590906e+00 6.3909759567e-04 2.6153005145e+00 -4.5298333683e+00 2.6153005145e+00 4.5298333683e+00 
41700 6.1443591434e+00 5.8407084226e-04 2.6152882961e+00 -4.5298122053e+00 2.6152882961e+00 4.5298122053e+00 
41800 6.1443591864e+00 5.2925928143e-04 2.6152771297e+00 -4.5297928644e+00 2.6152771297e+00 4.5297928644e+00 
41900 6.1443592195e+00 4.7481942024e-04 2.6152670111e+00 -4.5297753385e+00 2.6152670111e+00 4.5297753385e+00 
42000 6.1443592426e+00 4.2090289026e-04 2.6152579332e+00 -4.5297596152e+00 2.6152579332e+00 4.5297596152e+00 
42100 6.1443592558e+00 3.6765611253e-04 2.6152498862e+00 -4.5297456773e+00 2.6152498862e+00 4.5297456773e+00 
42200 6.1443592596e+00 3.1521998602e-04 2.6152428571e+00 -4.5297335026e+00 2.6152428571e+00 4.5297335026e+00 
42300 6.1443592541e+00 2.6372960012e-04 2.6152368305e+00 -4.5297230642e+00 2.6152368305e+00 4.5297230642e+00 
42400 6.1443592401e+00 2.1331397126e-04 2.6152317883e+00 -4.5297143309e+00 2.6152317883e+00 4.5297143309e+00 
42500 6.1443592180e+00 1.6409580387e-04 2.6152277100e+00 -4.5297072671e+00 2.6152277100e+00 4.5297072671e+00 
42600 6.1443591887e+00 1.1619127583e-04 2.6152245727e+00 -4.5297018331e+00 2.6152245727e+00 4.5297018331e+00 
42700 6.1443591529e+00 6.9709848386e-05 2.6152223513e+00 -4.5296979855e+00 2.6152223513e+00 4.5296979855e+00 
42800 6.1443591115e+00 2.5198627155e-05 2.6152223513e+00 -4.5296979855e+00 2.6152223513e+00 4.5296979855e+00 
42900 6.1443590653e+00 -1.7965128142e-05 2.6152223513e+00 -4.5296979855e+00 2.6152223513e+00 4.5296979855e+00 
43000 6.1443590154e+00 -5.9690427097e-05 2.6152223513e+00 -4.5296979855e+00 2.6152223513e+00 4.5296979855e+00 
43100 6.1443589629e+00 -9.9893012239e-05 2.6152223513e+00 -4.5296979855e+00 2.6152223513e+00 4.5296979855e+00 
43200 6.1443589085e+00 -1.3785854899e-04 2.6152242611e+00 -4.5297012934e+00 2.6152242611e+00 4.5297012934e+00 
43300 6.1443588533e+00 -1.7389283480e-04 2.6152268968e+00 -4.5297058586e+00 2.6152268968e+00 4.5297058586e+00 
43400 6.1443587982e+00 -2.0793673355e-04 2.6152302214e+00 -4.5297116170e+00 2.6152302214e+00 4.5297116170e+00 
43500 6.1443587443e+00 -2.3993848444e-04 2.6152341969e+00 -4.5297185028e+00 2.6152341969e+00 4.5297185028e+00 
43600 6.1443586923e+00 -2.6985368166e-04 2.6152387842e+00 -4.5297264482e+00 2.6152387842e+00 4.5297264482e+00 
43700 6.1443586431e+00 -2.9764523276e-04 2.6152439435e+00 -4.5297353843e+00 2.6152439435e+00 4.5297353843e+00 
43800 6.1443585974e+00 -3.2328329657e-04 2.6152496341e+00 -4.5297452407e+00 2.6152496341e+00 4.5297452407e+00 
43900 6.1443585561e+00 -3.4674520110e-04 2.6152558148e+00 -4.5297559461e+00 2.6152558148e+00 4.5297559461e+00 
44000 6.1443585196e+00 -3.6801534234e-04 2.6152624441e+00 -4.5297674283e+00 2.6152624441e+00 4.5297674283e+00 
44100 6.1443584886e+00 -3.8708506456e-04 2.6152694800e+00 -4.5297796149e+00 2.6152694800e+00 4.5297796149e+00 
44200 6.1443584635e+00 -4.0395252289e-04 2.6152768805e+00 -4.5297924329e+00 2.6152768805e+00 4.5297924329e+00 
44300 6.1443584447e+00 -4.1862252914e-04 2.6152846035e+00 -4.5298058094e+00 2.6152846035e+00 4.5298058094e+00 
44400 6.1443584326e+00 -4.3110638147e-04 2.6152926068e+00 -4.5298196717e+00 2.6152926068e+00 4.5298196717e+00 
44500 6.1443584272e+00 -4.4142167898e-04 2.6153008489e+00 -4.5298339473e+00 2.6153008489e+00 4.5298339473e+00 
44600 6.1443584287e+00 -4.4959212193e-04 2.6153092881e+00 -4.5298485645e+00 2.6153092881e+00 4.5298485645e+00 
44700 6.1443584372e+00 -4.5564729871e-04 2.6153178835e+00 -4.5298634522e+00 2.6153178835e+00 4.5298634522e+00 
44800 6.1443584525e+00 -4.5962246017e-04 2.6153265946e+00 -4.5298785403e+00 2.6153265946e+00 4.5298785403e+00 
44900 6.1443584746e+00 -4.6155828260e-04 2.6153353817e+00 -4.5298937600e+00 2.6153353817e+00 4.5298937600e+00 
45000 6.1443585032e+00 -4.6150062005e-04 2.6153442058e+00 -4.5299090437e+00 2.6153442058e+00 4.5299090437e+00 
45100 6.1443585381e+00 -4.5950024701e-04 2.6153530288e+00 -4.5299243255e+00 2.6153530288e+00 4.5299243255e+00 
45200 6.1443585788e+00 -4.5561259253e-04 2.6153618134e+00 -4.5299395410e+00 2.6153618134e+00 4.5299395410e+00 
45300 6.1443586250e+00 -4.4989746653e-04 2.6153705237e+00 -4.5299546277e+00 2.6153705237e+00 4.5299546277e+00 
45400 6.1443586763e+00 -4.4241877947e-04 2.6153791248e+00 -4.5299695252e+00 2.6153791248e+00 4.5299695252e+00 
45500 6.1443587320e+00 -4.3324425625e-04 2.6153875828e+00 -4.5299841749e+00 2.6153875828e+00 4.5299841749e+00 
45600 6.1443587917e+00 -4.2244514529e-04 2.6153958654e+00 -4.5299985208e+00 2.6153958654e+00 4.5299985208e+00 
45700 6.1443588548e+00 -4.1009592376e-04 2.6154039415e+00 -4.5300125091e+00 2.6154039415e+00 4.5300125091e+00 
45800 6.1443589206e+00 -3.9627399998e-04 2.6154117816e+00 -4.5300260884e+00 2.6154117816e+00 4.5300260884e+00 
45900 6.1443589887e+00 -3.8105941373e-04 2.6154193573e+00 -4.5300392100e+00 2.6154193573e+00 4.5300392100e+00 
46000 6.1443590582e+00 -3.6453453564e-04 2.6154266422e+00 -4.5300518277e+00 2.6154266422e+00 4.5300518277e+00 
46100 6.1443591287e+00 -3.4678376637e-04 2.6154336111e+00 -4.5300638983e+00 2.6154336111e+00 4.5300638983e+00 
46200 6.1443591996e+00 -3.2789323652e-04 2.6154402407e+00 -4.5300753810e+00 2.6154402407e+00 4.5300753810e+00 
46300 6.1443592701e+00 -3.0795050824e-04 2.6154465091e+00 -4.5300862382e+00 2.6154465091e+00 4.5300862382e+00 
46400 6.1443593398e+00 -2.8704427913e-04 2.6154523962e+00 -4.5300964351e+00 2.6154523962e+00 4.5300964351e+00 
46500 6.1443594081e+00 -2.6526408960e-04 2.6154578837e+00 -4.5301059397e+00 2.6154578837e+00 4.5301059397e+00 
46600 6.1443594745e+00 -2.4270003413e-04 2.6154629548e+00 -4.5301147230e+00 2.6154629548e+00 4.5301147230e+00 
46700 6.1443595385e+00 -2.1944247742e-04 2.6154675945e+00 -4.5301227593e+00 2.6154675945e+00 4.5301227593e+00 
46800 6.1443595996e+00 -1.9558177617e-04 2.6154717896e+00 -4.5301300254e+00 2.6154717896e+00 4.5301300254e+00 
46900 6.1443596575e+00 -1.7120800698e-04 2.6154755285e+00 -4.5301365014e+00 2.6154755285e+00 4.5301365014e+00 
47000 6.1443597118e+00 -1.4641070131e-04 2.6154788015e+00 -4.5301421704e+00 2.6154788015e+00 4.5301421704e+00 
47100 6.1443597622e+00 -1.2127858795e-04 2.6154816005e+00 -4.5301470183e+00 2.6154816005e+00 4.5301470183e+00 
47200 6.1443598085e+00 -9.5899343716e-05 2.6154839189e+00 -4.5301510340e+00 2.6154839189e+00 4.5301510340e+00 
47300 6.1443598504e+00 -7.0359352840e-05 2.6154857522e+00 -4.5301542093e+00 2.6154857522e+00 4.5301542093e+00 
47400 6.1443598879e+00 -4.5191860388e-05 2.6154857522e+00 -4.5301542093e+00 2.6154857522e+00 4.5301542093e+00 
47500 6.1443599207e+00 -1.9881417237e-05 2.6154857522e+00 -4.5301542093e+00 2.6154857522e+00 4.5301542093e+00 
47600 6.1443599488e+00 5.4949864265e-06 2.6154857522e+00 -4.5301542093e+00 2.6154857522e+00 4.5301542093e+00 
47700 6.1443599723e+00 3.0862210739e-05 2.6154857522e+00 -4.5301542093e+00 2.6154857522e+00 4.5301542093e+00 
47800 6.1443599913e+00 5.6147153723e-05 2.6154857522e+00 -4.5301542093e+00 2.6154857522e+00 4.5301542093e+00 
47900 6.1443600059e+00 8.1278926902e-05 2.6154857522e+00 -4.5301542093e+00 2.6154857522e+00 4.5301542093e+00 
48000 6.1443600161e+00 1.0567096972e-04 2.6154841984e+00 -4.5301515181e+00 2.6154841984e+00 4.5301515181e+00 
48100 6.1443600221e+00 1.2960477661e-04 2.6154821783e+00 -4.5301480192e+00 2.6154821783e+00 4.5301480192e+00 
48200 6.1443600242e+00 1.5301478359e-04 2.6154797007e+00 -4.5301437277e+00 2.6154797007e+00 4.5301437277e+00 
48300 6.1443600225e+00 1.7583854669e-04 2.6154767755e+00 -4.5301386612e+00 2.6154767755e+00 4.5301386612e+00 
48400 6.1443600174e+00 1.9801685995e-04 2.6154734140e+00 -4.5301328389e+00 2.6154734140e+00 4.5301328389e+00 
48500 6.1443600092e+00 2.1949386093e-04 2.6154696285e+00 -4.5301262822e+00 2.6154696285e+00 4.5301262822e+00 
48600 6.1443599982e+00 2.4021712376e-04 2.6154654325e+00 -4.5301190144e+00 2.6154654325e+00 4.5301190144e+00 
48700 6.1443599846e+00 2.6013773961e-04 2.6154608402e+00 -4.5301110604e+00 2.6154608402e+00 4.5301110604e+00 
48800 6.1443599688e+00 2.7921038474e-04 2.6154558671e+00 -4.5301024468e+00 2.6154558671e+00 4.5301024468e+00 
48900 6.1443599512e+00 2.9739337602e-04 2.6154505294e+00 -4.5300932017e+00 2.6154505294e+00 4.5300932017e+00 
49000 6.1443599322e+00 3.1464871422e-04 2.6154448441e+00 -4.5300833544e+00 2.6154448441e+00 4.5300833544e+00 
49100 6.1443599119e+00 3.3094211506e-04 2.6154388289e+00 -4.5300729358e+00 2.6154388289e+00 4.5300729358e+00 
49200 6.1443598909e+00 3.4624302831e-04 2.6154325022e+00 -4.5300619776e+00 2.6154325022e+00 4.5300619776e+00 
49300 6.1443598694e+00 3.6052464497e-04 2.6154258830e+00 -4.5300505128e+00 2.6154258830e+00 4.5300505128e+00 
49400 6.1443598477e+00 3.7376389307e-04 2.6154189907e+00 -4.5300385750e+00 2.6154189907e+00 4.5300385750e+00 
49500 6.1443598262e+00 3.8594142199e-04 2.6154118453e+00 -4.5300261988e+00 2.6154118453e+00 4.5300261988e+00 
49600 6.1443598050e+00 3.9704157592e-04 2.6154044671e+00 -4.5300134194e+00 2.6154044671e+00 4.5300134194e+00 
49700 6.1443597846e+00 4.0705235661e-04 2.6153968767e+00 -4.5300002724e+00 2.6153968767e+00 4.5300002724e+00 
49800 6.1443597651e+00 4.1596537578e-04 2.6153890948e+00 -4.5299867938e+00 2.6153890948e+00 4.5299867938e+00 
49900 6.1443597467e+00 4.2377579767e-04 2.6153811426e+00 -4.5299730201e+00 2.6153811426e+00 4.5299730201e+00 
50000 6.1443597296e+00 4.3048227196e-04 2.6153730410e+00 -4.5299589877e+00 2.6153730410e+00 4.5299589877e+00 
50100 6.1443597140e+00 4.3608685766e-04 2.6153648111e+00 -4.5299447332e+00 2.6153648111e+00 4.5299447332e+00 
50200 6.1443597001e+00 4.4059493824e-04 2.6153564741e+00 -4.5299302931e+00 2.6153564741e+00 4.5299302931e+00 
50300 6.1443596879e+00 4.4401512867e-04 2.6153480509e+00 -4.5299157036e+00 2.6153480509e+00 4.5299157036e+00 
50400 6.1443596776e+00 4.4635917455e-04 2.6153395623e+00 -4.5299010009e+00 2.6153395623e+00 4.5299010009e+00 
50500 6.1443596691e+00 4.4764184413e-04 2.6153310288e+00 -4.5298862204e+00 2.6153310288e+00 4.5298862204e+00 
50600 6.1443596625e+00 4.4788081346e-04 2.6153224707e+00 -4.5298713975e+00 2.6153224707e+00 4.5298713975e+00 
50700 6.1443596579e+00 4.4709654536e-04 2.6153139081e+00 -4.5298565666e+00 2.6153139081e+00 4.5298565666e+00 
50800 6.1443596552e+00 4.4531216260e-04 2.6153053605e+00 -4.5298417616e+00 2.6153053605e+00 4.5298417616e+00 
50900 6.1443596543e+00 4.4255331588e-04 2.6152968469e+00 -4.5298270157e+00 2.6152968469e+00 4.5298270157e+00 
51000 6.1443596553e+00 4.3884804712e-04 2.6152883860e+00 -4.5298123610e+00 2.6152883860e+00 4.5298123610e+00 
51100 6.1443596580e+00 4.3422664858e-04 2.6152799960e+00 -4.5297978291e+00 2.6152799960e+00 4.5297978291e+00 
51200 6.1443596623e+00 4.2872151835e-04 2.6152716943e+00 -4.5297834501e+00 2.6152716943e+00 4.5297834501e+00 
51300 6.1443596681e+00 4.2236701273e-04 2.6152634978e+00 -4.5297692533e+00 2.6152634978e+00 4.5297692533e+00 
51400 6.1443596753e+00 4.1519929605e-04 2.6152554227e+00 -4.5297552669e+00 2.6152554227e+00 4.5297552669e+00 
51500 6.1443596838e+00 4.0725618835e-04 2.6152474847e+00 -4.5297415179e+00 2.6152474847e+00 4.5297415179e+00 
51600 6.1443596934e+00 3.9857701163e-04 2.6152396985e+00 -4.5297280318e+00 2.6152396985e+00 4.5297280318e+00 
51700 6.1443597039e+00 3.8920243498e-04 2.6152320782e+00 -4.5297148331e+00 2.6152320782e+00 4.5297148331e+00 
51800 6.1443597152e+00 3.7917431921e-04 2.6152246372e+00 -4.5297019448e+00 2.6152246372e+00 4.5297019448e+00 
51900 6.1443597272e+00 3.6853556142e-04 2.6152173878e+00 -4.5296893885e+00 2.6152173878e+00 4.5296893885e+00 
52000 6.1443597397e+00 3.5732993999e-04 2.6152103418e+00 -4.5296771846e+00 2.6152103418e+00 4.5296771846e+00 
52100 6.1443597525e+00 3.4560196051e-04 2.6152035101e+00 -4.5296653516e+00 2.6152035101e+00 4.5296653516e+00 
52200 6.1443597654e+00 3.3339670300e-04 2.6151969025e+00 -4.5296539070e+00 2.6151969025e+00 4.5296539070e+00 
52300 6.1443597784e+00 3.2075967097e-04 2.6151905283e+00 -4.5296428665e+00 2.6151905283e+00 4.5296428665e+00 
52400 6.1443597913e+00 3.0773664263e-04 2.6151843957e+00 -4.5296322445e+00 2.6151843957e+00 4.5296322445e+00 
52500 6.1443598039e+00 2.9437352478e-04 2.6151785120e+00 -4.5296220537e+00 2.6151785120e+00 4.5296220537e+00 
52600 6.1443598161e+00 2.8071620961e-04 2.6151728839e+00 -4.5296123054e+00 2.6151728839e+00 4.5296123054e+00 
52700 6.1443598279e+00 2.6681043494e-04 2.6151675168e+00 -4.5296030094e+00 2.6151675168e+00 4.5296030094e+00 
52800 6.1443598390e+00 2.5270164816e-04 2.6151624156e+00 -4.5295941739e+00 2.6151624156e+00 4.5295941739e+00 
52900 6.1443598495e+00 2.3843487413e-04 2.6151575841e+00 -4.5295858055e+00 2.6151575841e+00 4.5295858055e+00 
53000 6.1443598592e+00 2.2405458760e-04 2.6151530254e+00 -4.5295779096e+00 2.6151530254e+00 4.5295779096e+00 
53100 6.1443598680e+00 2.0960459006e-04 2.6151487416e+00 -4.5295704899e+00 2.6151487416e+00 4.5295704899e+00 
53200 6.1443598760e+00 1.9512789168e-04 2.6151447341e+00 -4.5295635487e+00 2.6151447341e+00 4.5295635487e+00 
53300 6.1443598831e+00 1.8066659830e-04 2.6151410034e+00 -4.5295570869e+00 2.6151410034e+00 4.5295570869e+00 
53400 6.1443598892e+00 1.6626180381e-04 2.6151375492e+00 -4.5295511039e+00 2.6151375492e+00 4.5295511039e+00 
53500 6.1443598943e+00 1.5195348815e-04 2.6151343703e+00 -4.5295455980e+00 2.6151343703e+00 4.5295455980e+00 
53600 6.1443598985e+00 1.3778042100e-04 2.6151314651e+00 -4.5295405660e+00 2.6151314651e+00 4.5295405660e+00 
53700 6.1443599018e+00 1.2378007145e-04 2.6151288308e+00 -4.5295360032e+00 2.6151288308e+00 4.5295360032e+00 
53800 6.1443599041e+00 1.0998852368e-04 2.6151264642e+00 -4.5295319041e+00 2.6151264642e+00 4.5295319041e+00 
53900 6.1443599056e+00 9.6440398860e-05 2.6151243612e+00 -4.5295282618e+00 2.6151243612e+00 4.5295282618e+00 
54000 6.1443599062e+00 8.3168783229e-05 2.6151225173e+00 -4.5295250680e+00 2.6151225173e+00 4.5295250680e+00 
54100 6.1443599060e+00 7.0205162580e-05 2.6151209272e+00 -4.5295223138e+00 2.6151209272e+00 4.5295223138e+00 
54200 6.1443599051e+00 5.8027151180e-05 2.6151209272e+00 -4.5295223138e+00 2.6151209272e+00 4.5295223138e+00 
54300 6.1443599034e+00 4.6147561844e-05 2.6151209272e+00 -4.5295223138e+00 2.6151209272e+00 4.5295223138e+00 
54400 6.1443599012e+00 3.4593289541e-05 2.6151209272e+00 -4.5295223138e+00 2.6151209272e+00 4.5295223138e+00 
54500 6.1443598984e+00 2.3389556504e-05 2.6151209272e+00 -4.5295223138e+00 2.6151209272e+00 4.5295223138e+00 
54600 6.1443598952e+00 1.2559873541e-05 2.6151209272e+00 -4.5295223138e+00 2.6151209272e+00 4.5295223138e+00 
54700 6.1443598915e+00 2.1260082052e-06 2.6151209272e+00 -4.5295223138e+00 2.6151209272e+00 4.5295223138e+00 
54800 6.1443598876e+00 -7.8920402397e-06 2.6151209272e+00 -4.5295223138e+00 2.6151209272e+00 4.5295223138e+00 
54900 6.1443598835e+00 -1.7476059303e-05 2.6151209272e+00 -4.5295223138e+00 2.6151209272e+00 4.5295223138e+00 
55000 6.1443598793e+00 -2.6609635272e-05 2.6151209272e+00 -4.5295223138e+00 2.6151209272e+00 4.5295223138e+00 
55100 6.1443598751e+00 -3.5278158956e-05 2.6151209272e+00 -4.5295223138e+00 2.6151209272e+00 4.5295223138e+00 
55200 6.1443598709e+00 -4.3468825341e-05 2.6151209272e+00 -4.5295223138e+00 2.6151209272e+00 4.5295223138e+00 
55300 6.1443598668e+00 -5.1170627341e-05 2.6151209272e+00 -4.5295223138e+00 2.6151209272e+00 4.5295223138e+00 
55400 6.1443598630e+00 -5.8374343881e-05 2.6151209272e+00 -4.5295223138e+00 2.6151209272e+00 4.5295223138e+00 
55500 6.1443598594e+00 -6.5072522490e-05 2.6151209272e+00 -4.5295223138e+00 2.6151209272e+00 4.5295223138e+00 
55600 6.1443598561e+00 -7.1259456658e-05 2.6151209272e+00 -4.5295223138e+00 2.6151209272e+00 4.5295223138e+00 
55700 6.1443598530e+00 -7.6476686819e-05 2.6151222896e+00 -4.5295246737e+00 2.6151222896e+00 4.5295246737e+00 
55800 6.1443598504e+00 -8.1129891381e-05 2.6151237518e+00 -4.5295272063e+00 2.6151237518e+00 4.5295272063e+00 
55900 6.1443598482e+00 -8.5220492050e-05 2.6151253030e+00 -4.5295298930e+00 2.6151253030e+00 4.5295298930e+00 
56000 6.1443598464e+00 -8.8751585097e-05 2.6151269324e+00 -4.5295327151e+00 2.6151269324e+00 4.5295327151e+00 
56100 6.1443598451e+00 -9.1727894052e-05 2.6151286293e+00 -4.5295356542e+00 2.6151286293e+00 4.5295356542e+00 
56200 6.1443598443e+00 -9.4155718557e-05 2.6151303831e+00 -4.5295386919e+00 2.6151303831e+00 4.5295386919e+00 
56300 6.1443598440e+00 -9.6042879493e-05 2.6151321833e+00 -4.5295418099e+00 2.6151321833e+00 4.5295418099e+00 
56400 6.1443598443e+00 -9.7398660764e-05 2.6151340196e+00 -4.5295449905e+00 2.6151340196e+00 4.5295449905e+00 
56500 6.1443598450e+00 -9.8233747894e-05 2.6151358818e+00 -4.5295482159e+00 2.6151358818e+00 4.5295482159e+00 
56600 6.1443598463e+00 -9.8560163753e-05 2.6151377600e+00 -4.5295514690e+00 2.6151377600e+00 4.5295514690e+00 
56700 6.1443598480e+00 -9.8391201662e-05 2.6151396444e+00 -4.5295547329e+00 2.6151396444e+00 4.5295547329e+00 
56800 6.1443598502e+00 -9.7741356089e-05 2.6151415256e+00 -4.5295579912e+00 2.6151415256e+00 4.5295579912e+00 
56900 6.1443598529e+00 -9.6626251303e-05 2.6151433943e+00 -4.5295612280e+00 2.6151433943e+00 4.5295612280e+00 
57000 6.1443598560e+00 -9.5062568142e-05 2.6151452417e+00 -4.5295644279e+00 2.6151452417e+00 4.5295644279e+00 
57100 6.1443598595e+00 -9.3067969207e-05 2.6151470593e+00 -4.5295675760e+00 2.6151470593e+00 4.5295675760e+00 
57200 6.1443598633e+00 -9.0661022801e-05 2.6151488387e+00 -4.5295706580e+00 2.6151488387e+00 4.5295706580e+00 
57300 6.1443598675e+00 -8.7861125740e-05 2.6151505721e+00 -4.5295736603e+00 2.6151505721e+00 4.5295736603e+00 
57400 6.1443598719e+00 -8.4688425430e-05 2.6151522519e+00 -4.5295765699e+00 2.6151522519e+00 4.5295765699e+00 
57500 6.1443598766e+00 -8.1163741352e-05 2.6151538711e+00 -4.5295793744e+00 2.6151538711e+00 4.5295793744e+00 
57600 6.1443598815e+00 -7.7308486306e-05 2.6151554229e+00 -4.5295820622e+00 2.6151554229e+00 4.5295820622e+00 
57700 6.1443598865e+00 -7.3144587588e-05 2.6151569010e+00 -4.5295846223e+00 2.6151569010e+00 4.5295846223e+00 
57800 6.1443598917e+00 -6.8694408328e-05 2.6151582995e+00 -4.5295870445e+00 2.6151582995e+00 4.5295870445e+00 
57900 6.1443598969e+00 -6.4418776539e-05 2.6151582995e+00 -4.5295870445e+00 2.6151582995e+00 4.5295870445e+00 
58000 6.1443599022e+00 -5.9885271729e-05 2.6151582995e+00 -4.5295870445e+00 2.6151582995e+00 4.5295870445e+00 
58100 6.1443599074e+00 -5.5115223372e-05 2.6151582995e+00 -4.5295870445e+00 2.6151582995e+00 4.5295870445e+00 
58200 6.1443599126e+00 -5.0130143920e-05 2.6151582995e+00 -4.5295870445e+00 2.6151582995e+00 4.5295870445e+00 
58300 6.1443599176e+00 -4.4951655061e-05 2.6151582995e+00 -4.5295870445e+00 2.6151582995e+00 4.5295870445e+00 
58400 6.1443599225e+00 -3.9601415762e-05 2.6151582995e+00 -4.5295870445e+00 2.6151582995e+00 4.5295870445e+00 
58500 6.1443599273e+00 -3.4101052272e-05 2.6151582995e+00 -4.5295870445e+00 2.6151582995e+00 4.5295870445e+00 
58600 6.1443599318e+00 -2.8472090229e-05 2.6151582995e+00 -4.5295870445e+00 2.6151582995e+00 4.5295870445e+00 
58700 6.1443599361e+00 -2.2735889025e-05 2.6151582995e+00 -4.5295870445e+00 2.6151582995e+00 4.5295870445e+00 
58800 6.1443599402e+00 -1.6913578560e-05 2.6151582995e+00 -4.5295870445e+00 2.6151582995e+00 4.5295870445e+00 
58900 6.1443599440e+00 -1.1025998482e-05 2.6151582995e+00 -4.5295870445e+00 2.6151582995e+00 4.5295870445e+00 
59000 6.1443599476e+00 -5.0936400835e-06 2.6151582995e+00 -4.5295870445e+00 2.6151582995e+00 4.5295870445e+00 
59100 6.1443599509e+00 8.6340908965e-07 2.6151582995e+00 -4.5295870445e+00 2.6151582995e+00 4.5295870445e+00 
59200 6.1443599539e+00 6.8255178434e-06 2.6151582995e+00 -4.5295870445e+00 2.6151582995e+00 4.5295870445e+00 
59300 6.1443599566e+00 1.2773560973e-05 2.6151582995e+00 -4.5295870445e+00 2.6151582995e+00 4.5295870445e+00 
59400 6.1443599590e+00 1.8688966020e-05 2.6151582995e+00 -4.5295870445e+00 2.6151582995e+00 4.5295870445e+00 
59500 6.1443599612e+00 2.4553756919e-05 2.6151582995e+00 -4.5295870445e+00 2.6151582995e+00 4.5295870445e+00 
59600 6.1443599631e+00 3.0350594624e-05 2.6151582995e+00 -4.5295870445e+00 2.6151582995e+00 4.5295870445e+00 
59700 6.1443599647e+00 3.6062814594e-05 2.6151582995e+00 -4.5295870445e+00 2.6151582995e+00 4.5295870445e+00 
59800 6.1443599661e+00 4.1674461134e-05 2.6151582995e+00 -4.5295870445e+00 2.6151582995e+00 4.5295870445e+00 
59900 6.1443599673e+00 4.7170318586e-05 2.6151582995e+00 -4.5295870445e+00 2.6151582995e+00 4.5295870445e+00 
60000 6.1443599683e+00 5.2535939328e-05 2.6151582995e+00 -4.5295870445e+00 2.6151582995e+00 4.5295870445e+00 
60100 6.1443599690e+00 5.7757668631e-05 2.6151582995e+00 -4.5295870445e+00 2.6151582995e+00 4.5295870445e+00 
60200 6.1443599696e+00 6.2822666336e-05 2.6151582995e+00 -4.5295870445e+00 2.6151582995e+00 4.5295870445e+00 
60300 6.1443599700e+00 6.7718925398e-05 2.6151582995e+00 -4.5295870445e+00 2.6151582995e+00 4.5295870445e+00 
60400 6.1443599703e+00 7.2435287321e-05 2.6151582995e+00 -4.5295870445e+00 2.6151582995e+00 4.5295870445e+00 
60500 6.1443599704e+00 7.6499419566e-05 2.6151569146e+00 -4.5295846458e+00 2.6151569146e+00 4.5295846458e+00 
60600 6.1443599703e+00 8.0324562769e-05 2.6151554519e+00 -4.5295821124e+00 2.6151554519e+00 4.5295821124e+00 
60700 6.1443599702e+00 8.3902373232e-05 2.6151539162e+00 -4.5295794524e+00 2.6151539162e+00 4.5295794524e+00 
60800 6.1443599699e+00 8.7225465547e-05 2.6151523120e+00 -4.5295766740e+00 2.6151523120e+00 4.5295766740e+00 
60900 6.1443599697e+00 9.0287414860e-05 2.6151506443e+00 -4.5295737854e+00 2.6151506443e+00 4.5295737854e+00 
61000 6.1443599694e+00 9.3082756175e-05 2.6151489181e+00 -4.5295707955e+00 2.6151489181e+00 4.5295707955e+00 
61100 6.1443599690e+00 9.5606980611e-05 2.6151471384e+00 -4.5295677130e+00 2.6151471384e+00 4.5295677130e+00 
61200 6.1443599687e+00 9.7856528878e-05 2.6151453105e+00 -4.5295645469e+00 2.6151453105e+00 4.5295645469e+00 
61300 6.1443599684e+00 9.9828781869e-05 2.6151434395e+00 -4.5295613063e+00 2.6151434395e+00 4.5295613063e+00 
61400 6.1443599681e+00 1.0152204863e-04 2.6151415308e+00 -4.5295580004e+00 2.6151415308e+00 4.5295580004e+00 
61500 6.1443599679e+00 1.0293555167e-04 2.6151395898e+00 -4.5295546384e+00 2.6151395898e+00 4.5295546384e+00 
61600 6.1443599677e+00 1.0406940983e-04 2.6151376217e+00 -4.5295512296e+00 2.6151376217e+00 4.5295512296e+00 
61700 6.1443599677e+00 1.0492461873e-04 2.6151356320e+00 -4.5295477833e+00 2.6151356320e+00 4.5295477833e+00 
61800 6.1443599677e+00 1.0550302893e-04 2.6151336259e+00 -4.5295443086e+00 2.6151336259e+00 4.5295443086e+00 
61900 6.1443599677e+00 1.0580732202e-04 2.6151316087e+00 -4.5295408148e+00 2.6151316087e+00 4.5295408148e+00 
62000 6.1443599679e+00 1.0584098458e-04 2.6151295857e+00 -4.5295373109e+00 2.6151295857e+00 4.5295373109e+00 
62100 6.1443599682e+00 1.0560828026e-04 2.6151275621e+00 -4.5295338058e+00 2.6151275621e+00 4.5295338058e+00 
62200 6.1443599686e+00 1.0511422017e-04 2.6151255429e+00 -4.5295303085e+00 2.6151255429e+00 4.5295303085e+00 
62300 6.1443599691e+00 1.0436453150e-04 2.6151235332e+00 -4.5295268276e+00 2.6151235332e+00 4.5295268276e+00 
62400 6.1443599697e+00 1.0336562469e-04 2.6151215378e+00 -4.5295233714e+00 2.6151215378e+00 4.5295233714e+00 
62500 6.1443599704e+00 1.0212455923e-04 2.6151195615e+00 -4.5295199484e+00 2.6151195615e+00 4.5295199484e+00 
62600 6.1443599712e+00 1.0064900821e-04 2.6151176089e+00 -4.5295165664e+00 2.6151176089e+00 4.5295165664e+00 
62700 6.1443599721e+00 9.8947221703e-05 2.6151156845e+00 -4.5295132333e+00 2.6151156845e+00 4.5295132333e+00 
62800 6.1443599731e+00 9.7027989306e-05 2.6151137927e+00 -4.5295099565e+00 2.6151137927e+00 4.5295099565e+00 
62900 6.1443599741e+00 9.4900601714e-05 2.6151119376e+00 -4.5295067433e+00 2.6151119376e+00 4.5295067433e+00 
63000 6.1443599753e+00 9.2574811652e-05 2.6151101231e+00 -4.5295036006e+00 2.6151101231e+00 4.5295036006e+00 
63100 6.1443599765e+00 9.0060794270e-05 2.6151083531e+00 -4.5295005349e+00 2.6151083531e+00 4.5295005349e+00 
63200 6.1443599777e+00 8.7369107079e-05 2.6151066312e+00 -4.5294975524e+00 2.6151066312e+00 4.5294975524e+00 
63300 6.1443599790e+00 8.4510649549e-05 2.6151049607e+00 -4.5294946591e+00 2.6151049607e+00 4.5294946591e+00 
63400 6.1443599804e+00 8.1496622629e-05 2.6151033449e+00 -4.5294918604e+00 2.6151033449e+00 4.5294918604e+00 
63500 6.1443599817e+00 7.8338488137e-05 2.6151017867e+00 -4.5294891615e+00 2.6151017867e+00 4.5294891615e+00 
63600 6.1443599831e+00 7.5047928293e-05 2.6151002889e+00 -4.5294865672e+00 2.6151002889e+00 4.5294865672e+00 
63700 6.1443599845e+00 7.1636805414e-05 2.6150988540e+00 -4.5294840819e+00 2.6150988540e+00 4.5294840819e+00 
63800 6.1443599859e+00 6.8117121954e-05 2.6150974843e+00 -4.5294817096e+00 2.6150974843e+00 4.5294817096e+00 
63900 6.1443599873e+00 6.4935506475e-05 2.6150974843e+00 -4.5294817096e+00 2.6150974843e+00 4.5294817096e+00 
64000 6.1443599887e+00 6.1659166288e-05 2.6150974843e+00 -4.5294817096e+00 2.6150974843e+00 4.5294817096e+00 
64100 6.1443599901e+00 5.8299610438e-05 2.6150974843e+00 -4.5294817096e+00 2.6150974843e+00 4.5294817096e+00 
64200 6.1443599914e+00 5.4868356264e-05 2.6150974843e+00 -4.5294817096e+00 2.6150974843e+00 4.5294817096e+00 
64300 6.1443599926e+00 5.1376891311e-05 2.6150974843e+00 -4.5294817096e+00 2.6150974843e+00 4.5294817096e+00 
64400 6.1443599938e+00 4.7836636563e-05 2.6150974843e+00 -4.5294817096e+00 2.6150974843e+00 4.5294817096e+00 
64500 6.1443599949e+00 4.4258910996e-05 2.6150974843e+00 -4.5294817096e+00 2.6150974843e+00 4.5294817096e+00 
64600 6.1443599959e+00 4.0654897559e-05 2.6150974843e+00 -4.5294817096e+00 2.6150974843e+00 4.5294817096e+00 
64700 6.1443599969e+00 3.7035610632e-05 2.6150974843e+00 -4.5294817096e+00 2.6150974843e+00 4.5294817096e+00 
64800 6.1443599978e+00 3.3411864975e-05 2.6150974843e+00 -4.5294817096e+00 2.6150974843e+00 4.5294817096e+00 
64900 6.1443599986e+00 2.9794246257e-05 2.6150974843e+00 -4.5294817096e+00 2.6150974843e+00 4.5294817096e+00 
65000 6.1443599993e+00 2.6193083184e-05 2.6150974843e+00 -4.5294817096e+00 2.6150974843e+00 4.5294817096e+00 
65100 6.1443599999e+00 2.2618421254e-05 2.6150974843e+00 -4.5294817096e+00 2.6150974843e+00 4.5294817096e+00 
65200 6.1443600005e+00 1.9079998169e-05 2.6150974843e+00 -4.5294817096e+00 2.6150974843e+00 4.5294817096e+00 
65300 6.1443600010e+00 1.5587220949e-05 2.6150974843e+00 -4.5294817096e+00 2.6150974843e+00 4.5294817096e+00 
65400 6.1443600014e+00 1.2149144737e-05 2.6150974843e+00 -4.5294817096e+00 2.6150974843e+00 4.5294817096e+00 
65500 6.1443600017e+00 8.7744533227e-06 2.6150974843e+00 -4.5294817096e+00 2.6150974843e+00 4.5294817096e+00 
65600 6.1443600020e+00 5.4714413876e-06 2.6150974843e+00 -4.5294817096e+00 2.6150974843e+00 4.5294817096e+00 
65700 6.1443600023e+00 2.2479984791e-06 2.6150974843e+00 -4.5294817096e+00 2.6150974843e+00 4.5294817096e+00 
65800 6.1443600025e+00 -8.8840528941e-07 2.6150974843e+00 -4.5294817096e+00 2.6150974843e+00 4.5294817096e+00 
65900 6.1443600026e+00 -3.9307318273e-06 2.6150974843e+00 -4.5294817096e+00 2.6150974843e+00 4.5294817096e+00 
66000 6.1443600027e+00 -6.8723859475e-06 2.6150974843e+00 -4.5294817096e+00 2.6150974843e+00 4.5294817096e+00 
66100 6.1443600028e+00 -9.7072245545e-06 2.6150974843e+00 -4.5294817096e+00 2.6150974843e+00 4.5294817096e+00 
66200 6.1443600028e+00 -1.2429564179e-05 2.6150974843e+00 -4.5294817096e+00 2.6150974843e+00 4.5294817096e+00 
66300 6.1443600028e+00 -1.5034186843e-05 2.6150974843e+00 -4.5294817096e+00 2.6150974843e+00 4.5294817096e+00 
66400 6.1443600028e+00 -1.7516344360e-05 2.6150974843e+00 -4.5294817096e+00 2.6150974843e+00 4.5294817096e+00 
66500 6.1443600028e+00 -1.9871760984e-05 2.6150974843e+00 -4.5294817096e+00 2.6150974843e+00 4.5294817096e+00 
66600 6.1443600027e+00 -2.2096634597e-05 2.6150974843e+00 -4.5294817096e+00 2.6150974843e+00 4.5294817096e+00 
66700 6.1443600027e+00 -2.4187636315e-05 2.6150974843e+00 -4.5294817096e+00 2.6150974843e+00 4.5294817096e+00 
66800 6.1443600027e+00 -2.6141908708e-05 2.6150974843e+00 -4.5294817096e+00 2.6150974843e+00 4.5294817096e+00 
66900 6.1443600026e+00 -2.7957062553e-05 2.6150974843e+00 -4.5294817096e+00 2.6150974843e+00 4.5294817096e+00 
67000 6.1443600026e+00 -2.9631172249e-05 2.6150974843e+00 -4.5294817096e+00 2.6150974843e+00 4.5294817096e+00 
67100 6.1443600027e+00 -3.1162769929e-05 2.6150974843e+00 -4.5294817096e+00 2.6150974843e+00 4.5294817096e+00 
67200 6.1443600027e+00 -3.2550838298e-05 2.6150974843e+00 -4.5294817096e+00 2.6150974843e+00 4.5294817096e+00 
67300 6.1443600027e+00 -3.3794802269e-05 2.6150974843e+00 -4.5294817096e+00 2.6150974843e+00 4.5294817096e+00 
67400 6.1443600028e+00 -3.4894519510e-05 2.6150974843e+00 -4.5294817096e+00 2.6150974843e+00 4.5294817096e+00 
67500 6.1443600029e+00 -3.5850269847e-05 2.6150974843e+00 -4.5294817096e+00 2.6150974843e+00 4.5294817096e+00 
67600 6.1443600031e+00 -3.6662743681e-05 2.6150974843e+00 -4.5294817096e+00 2.6150974843e+00 4.5294817096e+00 
67700 6.1443600032e+00 -3.7333029464e-05 2.6150974843e+00 -4.5294817096e+00 2.6150974843e+00 4.5294817096e+00 
67800 6.1443600034e+00 -3.7862600294e-05 2.6150974843e+00 -4.5294817096e+00 2.6150974843e+00 4.5294817096e+00 
67900 6.1443600037e+00 -3.8253299635e-05 2.6150974843e+00 -4.5294817096e+00 2.6150974843e+00 4.5294817096e+00 
68000 6.1443600039e+00 -3.8507326353e-05 2.6150974843e+00 -4.5294817096e+00 2.6150974843e+00 4.5294817096e+00 
68100 6.1443600042e+00 -3.8627219017e-05 2.6150974843e+00 -4.5294817096e+00 2.6150974843e+00 4.5294817096e+00 
68200 6.1443600045e+00 -3.8615839601e-05 2.6150974843e+00 -4.5294817096e+00 2.6150974843e+00 4.5294817096e+00 
68300 6.1443600049e+00 -3.8476356612e-05 2.6150974843e+00 -4.5294817096e+00 2.6150974843e+00 4.5294817096e+00 
68400 6.1443600053e+00 -3.8212227763e-05 2.6150974843e+00 -4.5294817096e+00 2.6150974843e+00 4.5294817096e+00 
68500 6.1443600057e+00 -3.7827182191e-05 2.6150974843e+00 -4.5294817096e+00 2.6150974843e+00 4.5294817096e+00 
68600 6.1443600061e+00 -3.7325202351e-05 2.6150974843e+00 -4.5294817096e+00 2.6150974843e+00 4.5294817096e+00 
68700 6.1443600066e+00 -3.6710505596e-05 2.6150974843e+00 -4.5294817096e+00 2.6150974843e+00 4.5294817096e+00 
68800 6.1443600070e+00 -3.5987525537e-05 2.6150974843e+00 -4.5294817096e+00 2.6150974843e+00 4.5294817096e+00 
68900 6.1443600075e+00 -3.5160893266e-05 2.6150974843e+00 -4.5294817096e+00 2.6150974843e+00 4.5294817096e+00 
69000 6.1443600080e+00 -3.4235418454e-05 2.6150974843e+00 -4.5294817096e+00 2.6150974843e+00 4.5294817096e+00 
69100 6.1443600085e+00 -3.3216070405e-05 2.6150974843e+00 -4.5294817096e+00 2.6150974843e+00 4.5294817096e+00 
69200 6.1443600090e+00 -3.2107959154e-05 2.6150974843e+00 -4.5294817096e+00 2.6150974843e+00 4.5294817096e+00 
69300 6.1443600096e+00 -3.0916316623e-05 2.6150974843e+00 -4.5294817096e+00 2.6150974843e+00 4.5294817096e+00 
69400 6.1443600101e+00 -2.9646477928e-05 2.6150974843e+00 -4.5294817096e+00 2.6150974843e+00 4.5294817096e+00 
69500 6.1443600106e+00 -2.8303862845e-05 2.6150974843e+00 -4.5294817096e+00 2.6150974843e+00 4.5294817096e+00 
69600 6.1443600112e+00 -2.6893957533e-05 2.6150974843e+00 -4.5294817096e+00 2.6150974843e+00 4.5294817096e+00 
69700 6.1443600117e+00 -2.5422296556e-05 2.6150974843e+00 -4.5294817096e+00 2.6150974843e+00 4.5294817096e+00 
69800 6.1443600122e+00 -2.3894445215e-05 2.6150974843e+00 -4.5294817096e+00 2.6150974843e+00 4.5294817096e+00 
69900 6.1443600127e+00 -2.2315982255e-05 2.6150974843e+00 -4.5294817096e+00 2.6150974843e+00 4.5294817096e+00 
70000 6.1443600132e+00 -2.0692483038e-05 2.6150974843e+00 -4.5294817096e+00 2.6150974843e+00 4.5294817096e+00 
70100 6.1443600137e+00 -1.9029503121e-05 2.6150974843e+00 -4.5294817096e+00 2.6150974843e+00 4.5294817096e+00 
70200 6.1443600142e+00 -1.7332562376e-05 2.6150974843e+00 -4.5294817096e+00 2.6150974843e+00 4.5294817096e+00 
70300 6.1443600146e+00 -1.5607129618e-05 2.6150974843e+00 -4.5294817096e+00 2.6150974843e+00 4.5294817096e+00 
70400 6.1443600151e+00 -1.3858607814e-05 2.6150974843e+00 -4.5294817096e+00 2.6150974843e+00 4.5294817096e+00 
70500 6.1443600155e+00 -1.2092319893e-05 2.6150974843e+00 -4.5294817096e+00 2.6150974843e+00 4.5294817096e+00 
70600 6.1443600159e+00 -1.0313495165e-05 2.6150974843e+00 -4.5294817096e+00 2.6150974843e+00 4.5294817096e+00 
70700 6.1443600163e+00 -8.5272563771e-06 2.6150974843e+00 -4.5294817096e+00 2.6150974843e+00 4.5294817096e+00 
70800 6.1443600167e+00 -6.7386074917e-06 2.6150974843e+00 -4.5294817096e+00 2.6150974843e+00 4.5294817096e+00 
70900 6.1443600171e+00 -4.9524220882e-06 2.6150974843e+00 -4.5294817096e+00 2.6150974843e+00 4.5294817096e+00 
71000 6.1443600174e+00 -3.1734325122e-06 2.6150974843e+00 -4.5294817096e+00 2.6150974843e+00 4.5294817096e+00 
71100 6.1443600178e+00 -1.4062197295e-06 2.6150974843e+00 -4.5294817096e+00 2.6150974843e+00 4.5294817096e+00 
71200 6.1443600181e+00 3.4479608640e-07 2.6150974843e+00 -4.5294817096e+00 2.6150974843e+00 4.5294817096e+00 
71300 6.1443600184e+00 2.0753642189e-06 2.6150974843e+00 -4.5294817096e+00 2.6150974843e+00 4.5294817096e+00 
71400 6.1443600186e+00 3.7814113456e-06 2.6150974843e+00 -4.5294817096e+00 2.6150974843e+00 4.5294817096e+00 
71500 6.1443600189e+00 5.4590487234e-06 2.6150974843e+00 -4.5294817096e+00 2.6150974843e+00 4.5294817096e+00 
71600 6.1443600192e+00 7.1045785842e-06 2.6150974843e+00 -4.5294817096e+00 2.6150974843e+00 4.5294817096e+00 
71700 6.1443600194e+00 8.7144998475e-06 2.6150974843e+00 -4.5294817096e+00 2.6150974843e+00 4.5294817096e+00 
71800 6.1443600196e+00 1.0285513025e-05 2.6150974843e+00 -4.5294817096e+00 2.6150974843e+00 4.5294817096e+00 
71900 6.1443600198e+00 1.1814524428e-05 2.6150974843e+00 -4.5294817096e+00 2.6150974843e+00 4.5294817096e+00 
72000 6.1443600201e+00 1.3298649602e-05 2.6150974843e+00 -4.5294817096e+00 2.6150974843e+00 4.5294817096e+00 
72100 6.1443600203e+00 1.4735216062e-05 2.6150974843e+00 -4.5294817096e+00 2.6150974843e+00 4.5294817096e+00 
72200 6.1443600204e+00 1.6121765316e-05 2.6150974843e+00 -4.5294817096e+00 2.6150974843e+00 4.5294817096e+00 
72300 6.1443600206e+00 1.7456054174e-05 2.6150974843e+00 -4.5294817096e+00 2.6150974843e+00 4.5294817096e+00 
72400 6.1443600208e+00 1.8736055383e-05 2.6150974843e+00 -4.5294817096e+00 2.6150974843e+00 4.5294817096e+00 
72500 6.1443600210e+00 1.9959957596e-05 2.6150974843e+00 -4.5294817096e+00 2.6150974843e+00 4.5294817096e+00 
72600 6.1443600211e+00 2.1126164675e-05 2.6150974843e+00 -4.5294817096e+00 2.6150974843e+00 4.5294817096e+00 
72700 6.1443600213e+00 2.2233294383e-05 2.6150974843e+00 -4.5294817096e+00 2.6150974843e+00 4.5294817096e+00 
72800 6.1443600215e+00 2.3280176463e-05 2.6150974843e+00 -4.5294817096e+00 2.6150974843e+00 4.5294817096e+00 
72900 6.1443600216e+00 2.4265850133e-05 2.6150974843e+00 -4.5294817096e+00 2.6150974843e+00 4.5294817096e+00 
73000 6.1443600218e+00 2.5189561006e-05 2.6150974843e+00 -4.5294817096e+00 2.6150974843e+00 4.5294817096e+00 
73100 6.1443600220e+00 2.6050757496e-05 2.6150974843e+00 -4.5294817096e+00 2.6150974843e+00 4.5294817096e+00 
73200 6.1443600221e+00 2.6849086691e-05 2.6150974843e+00 -4.5294817096e+00 2.6150974843e+00 4.5294817096e+00 
73300 6.1443600223e+00 2.7584389757e-05 2.6150974843e+00 -4.5294817096e+00 2.6150974843e+00 4.5294817096e+00 
73400 6.1443600225e+00 2.8256696876e-05 2.6150974843e+00 -4.5294817096e+00 2.6150974843e+00 4.5294817096e+00 
73500 6.1443600226e+00 2.8866221750e-05 2.6150974843e+00 -4.5294817096e+00 2.6150974843e+00 4.5294817096e+00 
73600 6.1443600228e+00 2.9413355727e-05 2.6150974843e+00 -4.5294817096e+00 2.6150974843e+00 4.5294817096e+00 
73700 6.1443600230e+00 2.9898661529e-05 2.6150974843e+00 -4.5294817096e+00 2.6150974843e+00 4.5294817096e+00 
73800 6.1443600232e+00 3.0322866643e-05 2.6150974843e+00 -4.5294817096e+00 2.6150974843e+00 4.5294817096e+00 
73900 6.1443600233e+00 3.0686856433e-05 2.6150974843e+00 -4.5294817096e+00 2.6150974843e+00 4.5294817096e+00 
74000 6.1443600235e+00 3.0991666900e-05 2.6150974843e+00 -4.5294817096e+00 2.6150974843e+00 4.5294817096e+00 
74100 6.1443600237e+00 3.1238477275e-05 2.6150974843e+00 -4.5294817096e+00 2.6150974843e+00 4.5294817096e+00 
74200 6.1443600239e+00 3.1428602307e-05 2.6150974843e+00 -4.5294817096e+00 2.6150974843e+00 4.5294817096e+00 
74300 6.1443600241e+00 3.1563484415e-05 2.6150974843e+00 -4.5294817096e+00 2.6150974843e+00 4.5294817096e+00 
74400 6.1443600243e+00 3.1644685643e-05 2.6150974843e+00 -4.5294817096e+00 2.6150974843e+00 4.5294817096e+00 
74500 6.1443600244e+00 3.1673879503e-05 2.6150974843e+00 -4.5294817096e+00 2.6150974843e+00 4.5294817096e+00 
74600 6.1443600246e+00 3.1652842696e-05 2.6150974843e+00 -4.5294817096e+00 2.6150974843e+00 4.5294817096e+00 
74700 6.1443600248e+00 3.1583446745e-05 2.6150974843e+00 -4.5294817096e+00 2.6150974843e+00 4.5294817096e+00 
74800 6.1443600250e+00 3.1467649606e-05 2.6150974843e+00 -4.5294817096e+00 2.6150974843e+00 4.5294817096e+00 
74900 6.1443600252e+00 3.1307487242e-05 2.6150974843e+00 -4.5294817096e+00 2.6150974843e+00 4.5294817096e+00 
75000 6.1443600254e+00 3.1105065180e-05 2.6150974843e+00 -4.5294817096e+00 2.6150974843e+00 4.5294817096e+00 
75100 6.1443600256e+00 3.0862550128e-05 2.6150974843e+00 -4.5294817096e+00 2.6150974843e+00 4.5294817096e+00 
75200 6.1443600258e+00 3.0582161620e-05 2.6150974843e+00 -4.5294817096e+00 2.6150974843e+00 4.5294817096e+00 
75300 6.1443600259e+00 3.0266163766e-05 2.6150974843e+00 -4.5294817096e+00 2.6150974843e+00 4.5294817096e+00 
75400 6.1443600261e+00 2.9916857064e-05 2.6150974843e+00 -4.5294817096e+00 2.6150974843e+00 4.5294817096e+00 
75500 6.1443600263e+00 2.9536570370e-05 2.6150974843e+00 -4.5294817096e+00 2.6150974843e+00 4.5294817096e+00 
75600 6.1443600265e+00 2.9127652986e-05 2.6150974843e+00 -4.5294817096e+00 2.6150974843e+00 4.5294817096e+00 
75700 6.1443600266e+00 2.8692466927e-05 2.6150974843e+00 -4.5294817096e+00 2.6150974843e+00 4.5294817096e+00 
75800 6.1443600268e+00 2.8233379385e-05 2.6150974843e+00 -4.5294817096e+00 2.6150974843e+00 4.5294817096e+00 
75900 6.1443600270e+00 2.7752755326e-05 2.6150974843e+00 -4.5294817096e+00 2.6150974843e+00 4.5294817096e+00 
76000 6.1443600271e+00 2.7252950407e-05 2.6150974843e+00 -4.5294817096e+00 2.6150974843e+00 4.5294817096e+00 
76100 6.1443600273e+00 2.6736304032e-05 2.6150974843e+00 -4.5294817096e+00 2.6150974843e+00 4.5294817096e+00 
76200 6.1443600274e+00 2.6205132730e-05 2.6150974843e+00 -4.5294817096e+00 2.6150974843e+00 4.5294817096e+00 
76300 6.1443600276e+00 2.5661723722e-05 2.6150974843e+00 -4.5294817096e+00 2.6150974843e+00 4.5294817096e+00 
76400 6.1443600277e+00 2.5108328844e-05 2.6150974843e+00 -4.5294817096e+00 2.6150974843e+00 4.5294817096e+00 
76500 6.1443600278e+00 2.4547158659e-05 2.6150974843e+00 -4.5294817096e+00 2.6150974843e+00 4.5294817096e+00 
76600 6.1443600280e+00 2.3980376969e-05 2.6150974843e+00 -4.5294817096e+00 2.6150974843e+00 4.5294817096e+00 
76700 6.1443600281e+00 2.3410095529e-05 2.6150974843e+00 -4.5294817096e+00 2.6150974843e+00 4.5294817096e+00 
76800 6.1443600282e+00 2.2838369146e-05 2.6150974843e+00 -4.5294817096e+00 2.6150974843e+00 4.5294817096e+00 
76900 6.1443600283e+00 2.2267191051e-05 2.6150974843e+00 -4.5294817096e+00 2.6150974843e+00 4.5294817096e+00 
77000 6.1443600285e+00 2.1698488621e-05 2.6150974843e+00 -4.5294817096e+00 2.6150974843e+00 4.5294817096e+00 
77100 6.1443600286e+00 2.1134119411e-05 2.6150974843e+00 -4.5294817096e+00 2.6150974843e+00 4.5294817096e+00 
77200 6.1443600287e+00 2.0575867509e-05 2.6150974843e+00 -4.5294817096e+00 2.6150974843e+00 4.5294817096e+00 
77300 6.1443600288e+00 2.0025440246e-05 2.6150974843e+00 -4.5294817096e+00 2.6150974843e+00 4.5294817096e+00 
77400 6.1443600289e+00 1.9484465221e-05 2.6150974843e+00 -4.5294817096e+00 2.6150974843e+00 4.5294817096e+00 
77500 6.1443600290e+00 1.8954487644e-05 2.6150974843e+00 -4.5294817096e+00 2.6150974843e+00 4.5294817096e+00 
77600 6.1443600291e+00 1.8436968049e-05 2.6150974843e+00 -4.5294817096e+00 2.6150974843e+00 4.5294817096e+00 
77700 6.1443600292e+00 1.7933280293e-05 2.6150974843e+00 -4.5294817096e+00 2.6150974843e+00 4.5294817096e+00 
77800 6.1443600293e+00 1.7444709917e-05 2.6150974843e+00 -4.5294817096e+00 2.6150974843e+00 4.5294817096e+00 
77900 6.1443600294e+00 1.6972452782e-05 2.6150974843e+00 -4.5294817096e+00 2.6150974843e+00 4.5294817096e+00 
78000 6.1443600294e+00 1.6517614069e-05 2.6150974843e+00 -4.5294817096e+00 2.6150974843e+00 4.5294817096e+00 
78100 6.1443600295e+00 1.6081207560e-05 2.6150974843e+00 -4.5294817096e+00 2.6150974843e+00 4.5294817096e+00 
78200 6.1443600296e+00 1.5664155228e-05 2.6150974843e+00 -4.5294817096e+00 2.6150974843e+00 4.5294817096e+00 
78300 6.1443600297e+00 1.5267287129e-05 2.6150974843e+00 -4.5294817096e+00 2.6150974843e+00 4.5294817096e+00 
78400 6.1443600298e+00 1.4891341566e-05 2.6150974843e+00 -4.5294817096e+00 2.6150974843e+00 4.5294817096e+00 
78500 6.1443600299e+00 1.4536965566e-05 2.6150974843e+00 -4.5294817096e+00 2.6150974843e+00 4.5294817096e+00 
78600 6.1443600299e+00 1.4204715582e-05 2.6150974843e+00 -4.5294817096e+00 2.6150974843e+00 4.5294817096e+00 
78700 6.1443600300e+00 1.3895058481e-05 2.6150974843e+00 -4.5294817096e+00 2.6150974843e+00 4.5294817096e+00 
78800 6.1443600301e+00 1.3608372796e-05 2.6150974843e+00 -4.5294817096e+00 2.6150974843e+00 4.5294817096e+00 
78900 6.1443600302e+00 1.3344950170e-05 2.6150974843e+00 -4.5294817096e+00 2.6150974843e+00 4.5294817096e+00 
79000 6.1443600303e+00 1.3104997084e-05 2.6150974843e+00 -4.5294817096e+00 2.6150974843e+00 4.5294817096e+00 
79100 6.1443600304e+00 1.2888636754e-05 2.6150974843e+00 -4.5294817096e+00 2.6150974843e+00 4.5294817096e+00 
79200 6.1443600304e+00 1.2695911257e-05 2.6150974843e+00 -4.5294817096e+00 2.6150974843e+00 4.5294817096e+00 
79300 6.1443600305e+00 1.2526783837e-05 2.6150974843e+00 -4.5294817096e+00 2.6150974843e+00 4.5294817096e+00 
79400 6.1443600306e+00 1.2381141405e-05 2.6150974843e+00 -4.5294817096e+00 2.6150974843e+00 4.5294817096e+00 
79500 6.1443600307e+00 1.2258797182e-05 2.6150974843e+00 -4.5294817096e+00 2.6150974843e+00 4.5294817096e+00 
79600 6.1443600308e+00 1.2159493511e-05 2.6150974843e+00 -4.5294817096e+00 2.6150974843e+00 4.5294817096e+00 
79700 6.1443600309e+00 1.2082904813e-05 2.6150974843e+00 -4.5294817096e+00 2.6150974843e+00 4.5294817096e+00 
79800 6.1443600309e+00 1.2028640645e-05 2.6150974843e+00 -4.5294817096e+00 2.6150974843e+00 4.5294817096e+00 
79900 6.1443600310e+00 1.1996248905e-05 2.6150974843e+00 -4.5294817096e+00 2.6150974843e+00 4.5294817096e+00 
80000 6.1443600311e+00 1.1985219105e-05 2.6150974843e+00 -4.5294817096e+00 2.6150974843e+00 4.5294817096e+00 
80100 6.1443600312e+00 1.1994985762e-05 2.6150974843e+00 -4.5294817096e+00 2.6150974843e+00 4.5294817096e+00 
80200 6.1443600313e+00 1.2024931841e-05 2.6150974843e+00 -4.5294817096e+00 2.6150974843e+00 4.5294817096e+00 
80300 6.1443600314e+00 1.2074392270e-05 2.6150974843e+00 -4.5294817096e+00 2.6150974843e+00 4.5294817096e+00 
80400 6.1443600315e+00 1.2142657499e-05 2.6150974843e+00 -4.5294817096e+00 2.6150974843e+00 4.5294817096e+00 
80500 6.1443600315e+00 1.2228977106e-05 2.6150974843e+00 -4.5294817096e+00 2.6150974843e+00 4.5294817096e+00 
80600 6.1443600316e+00 1.2332563404e-05 2.6150974843e+00 -4.5294817096e+00 2.6150974843e+00 4.5294817096e+00 
80700 6.1443600317e+00 1.2452595096e-05 2.6150974843e+00 -4.5294817096e+00 2.6150974843e+00 4.5294817096e+00 
80800 6.1443600318e+00 1.2588220894e-05 2.6150974843e+00 -4.5294817096e+00 2.6150974843e+00 4.5294817096e+00 
80900 6.1443600319e+00 1.2738563150e-05 2.6150974843e+00 -4.5294817096e+00 2.6150974843e+00 4.5294817096e+00 
81000 6.1443600320e+00 1.2902721463e-05 2.6150974843e+00 -4.5294817096e+00 2.6150974843e+00 4.5294817096e+00 
81100 6.1443600320e+00 1.3079776240e-05 2.6150974843e+00 -4.5294817096e+00 2.6150974843e+00 4.5294817096e+00 
81200 6.1443600321e+00 1.3268792250e-05 2.6150974843e+00 -4.5294817096e+00 2.6150974843e+00 4.5294817096e+00 
81300 6.1443600322e+00 1.3468822060e-05 2.6150974843e+00 -4.5294817096e+00 2.6150974843e+00 4.5294817096e+00 
81400 6.1443600323e+00 1.3678909487e-05 2.6150974843e+00 -4.5294817096e+00 2.6150974843e+00 4.5294817096e+00 
81500 6.1443600324e+00 1.3898092919e-05 2.6150974843e+00 -4.5294817096e+00 2.6150974843e+00 4.5294817096e+00 
81600 6.1443600324e+00 1.4125408594e-05 2.6150974843e+00 -4.5294817096e+00 2.6150974843e+00 4.5294817096e+00 
81700 6.1443600325e+00 1.4359893779e-05 2.6150974843e+00 -4.5294817096e+00 2.6150974843e+00 4.5294817096e+00 
81800 6.1443600326e+00 1.4600589841e-05 2.6150974843e+00 -4.5294817096e+00 2.6150974843e+00 4.5294817096e+00 
81900 6.1443600327e+00 1.4846545235e-05 2.6150974843e+00 -4.5294817096e+00 2.6150974843e+00 4.5294817096e+00 
82000 6.1443600328e+00 1.5096818392e-05 2.6150974843e+00 -4.5294817096e+00 2.6150974843e+00 4.5294817096e+00 
82100 6.1443600328e+00 1.5350480464e-05 2.6150974843e+00 -4.5294817096e+00 2.6150974843e+00 4.5294817096e+00 
82200 6.1443600329e+00 1.5606617974e-05 2.6150974843e+00 -4.5294817096e+00 2.6150974843e+00 4.5294817096e+00 
82300 6.1443600330e+00 1.5864335333e-05 2.6150974843e+00 -4.5294817096e+00 2.6150974843e+00 4.5294817096e+00 
82400 6.1443600330e+00 1.6122757228e-05 2.6150974843e+00 -4.5294817096e+00 2.6150974843e+00 4.5294817096e+00 
82500 6.1443600331e+00 1.6381030881e-05 2.6150974843e+00 -4.5294817096e+00 2.6150974843e+00 4.5294817096e+00 
82600 6.1443600332e+00 1.6638328166e-05 2.6150974843e+00 -4.5294817096e+00 2.6150974843e+00 4.5294817096e+00 
82700 6.1443600332e+00 1.6893847605e-05 2.6150974843e+00 -4.5294817096e+00 2.6150974843e+00 4.5294817096e+00 
82800 6.1443600333e+00 1.7146816192e-05 2.6150974843e+00 -4.5294817096e+00 2.6150974843e+00 4.5294817096e+00 
82900 6.1443600334e+00 1.7396491104e-05 2.6150974843e+00 -4.5294817096e+00 2.6150974843e+00 4.5294817096e+00 
83000 6.1443600334e+00 1.7642161256e-05 2.6150974843e+00 -4.5294817096e+00 2.6150974843e+00 4.5294817096e+00 
83100 6.1443600335e+00 1.7883148706e-05 2.6150974843e+00 -4.5294817096e+00 2.6150974843e+00 4.5294817096e+00 
83200 6.1443600335e+00 1.8118809927e-05 2.6150974843e+00 -4.5294817096e+00 2.6150974843e+00 4.5294817096e+00 
83300 6.1443600336e+00 1.8348536935e-05 2.6150974843e+00 -4.5294817096e+00 2.6150974843e+00 4.5294817096e+00 
83400 6.1443600336e+00 1.8571758238e-05 2.6150974843e+00 -4.5294817096e+00 2.6150974843e+00 4.5294817096e+00 
83500 6.1443600337e+00 1.8787939702e-05 2.6150974843e+00 -4.5294817096e+00 2.6150974843e+00 4.5294817096e+00 
83600 6.1443600337e+00 1.8996585219e-05 2.6150974843e+00 -4.5294817096e+00 2.6150974843e+00 4.5294817096e+00 
83700 6.1443600338e+00 1.9197237261e-05 2.6150974843e+00 -4.5294817096e+00 2.6150974843e+00 4.5294817096e+00 
83800 6.1443600339e+00 1.9389477301e-05 2.6150974843e+00 -4.5294817096e+00 2.6150974843e+00 4.5294817096e+00 
83900 6.1443600339e+00 1.9572926078e-05 2.6150974843e+00 -4.5294817096e+00 2.6150974843e+00 4.5294817096e+00 
84000 6.1443600340e+00 1.9747243757e-05 2.6150974843e+00 -4.5294817096e+00 2.6150974843e+00 4.5294817096e+00 
84100 6.1443600340e+00 1.9912129926e-05 2.6150974843e+00 -4.5294817096e+00 2.6150974843e+00 4.5294817096e+00 
84200 6.1443600341e+00 2.0067323489e-05 2.6150974843e+00 -4.5294817096e+00 2.6150974843e+00 4.5294817096e+00 
84300 6.1443600341e+00 2.0212602446e-05 2.6150974843e+00 -4.5294817096e+00 2.6150974843e+00 4.5294817096e+00 
84400 6.1443600341e+00 2.0347783520e-05 2.6150974843e+00 -4.5294817096e+00 2.6150974843e+00 4.5294817096e+00 
84500 6.1443600342e+00 2.0472721708e-05 2.6150974843e+00 -4.5294817096e+00 2.6150974843e+00 4.5294817096e+00 
84600 6.1443600342e+00 2.0587309710e-05 2.6150974843e+00 -4.5294817096e+00 2.6150974843e+00 4.5294817096e+00 
84700 6.1443600343e+00 2.0691477226e-05 2.6150974843e+00 -4.5294817096e+00 2.6150974843e+00 4.5294817096e+00 
84800 6.1443600343e+00 2.0785190220e-05 2.6150974843e+00 -4.5294817096e+00 2.6150974843e+00 4.5294817096e+00 
84900 6.1443600344e+00 2.0868450013e-05 2.6150974843e+00 -4.5294817096e+00 2.6150974843e+00 4.5294817096e+00 
85000 6.1443600344e+00 2.0941292338e-05 2.6150974843e+00 -4.5294817096e+00 2.6150974843e+00 4.5294817096e+00 
85100 6.1443600345e+00 2.1003786308e-05 2.6150974843e+00 -4.5294817096e+00 2.6150974843e+00 4.5294817096e+00 
85200 6.1443600345e+00 2.1056033275e-05 2.6150974843e+00 -4.5294817096e+00 2.6150974843e+00 4.5294817096e+00 
85300 6.1443600345e+00 2.1057911787e-05 2.6150974843e+00 -4.5294817096e+00 2.6150974843e+00 4.5294817096e+00 
85300 6.1443600345e+00 2.1057911787e-05 2.6150974843e+00 -4.5294817096e+00 2.6150974843e+00 4.5294817096e+00 
