# step Hamiltonian StressXX CellTensor1 CellTensor2 CellTensor3 CellTensor4 
0 5.8239695675e+00 1.2577490890e-01 2.0436807272e+00 -3.5397588540e+00 2.0436807272e+00 3.5397588540e+00 
100 5.8301483023e+00 1.3255118929e-01 2.0436807272e+00 -3.5397588540e+00 2.0436807272e+00 3.5397588540e+00 
200 5.8346154742e+00 1.3750757473e-01 2.0404386338e+00 -3.5341433834e+00 2.0404386338e+00 3.5341433834e+00 
300 5.8377748698e+00 1.4132407044e-01 2.0370700035e+00 -3.5283087447e+00 2.0370700035e+00 3.5283087447e+00 
400 5.8396898774e+00 1.4399966363e-01 2.0336021823e+00 -3.5223023021e+00 2.0336021823e+00 3.5223023021e+00 
500 5.8404612708e+00 1.4558493254e-01 2.0300627042e+00 -3.5161717462e+00 2.0300627042e+00 3.5161717462e+00 
600 5.8402204133e+00 1.4617936213e-01 2.0264780366e+00 -3.5099629199e+00 2.0264780366e+00 3.5099629199e+00 
700 5.8391187326e+00 1.4592086934e-01 2.0228723740e+00 -3.5037177290e+00 2.0228723740e+00 3.5037177290e+00 
800 5.8373154035e+00 1.4496993515e-01 2.0192666737e+00 -3.4974724729e+00 2.0192666737e+00 3.4974724729e+00 
900 5.8349655147e+00 1.4349208798e-01 2.0156780713e+00 -3.4912568312e+00 2.0156780713e+00 3.4912568312e+00 
1000 5.8322106239e+00 1.4164245374e-01 2.0121197208e+00 -3.4850935873e+00 2.0121197208e+00 3.4850935873e+00 
1100 5.8291727332e+00 1.3955487337e-01 2.0086010165e+00 -3.4789990126e+00 2.0086010165e+00 3.4789990126e+00 
1200 5.8259517570e+00 1.3733639649e-01 2.0051280874e+00 -3.4729837231e+00 2.0051280874e+00 3.4729837231e+00 
1300 5.8226258404e+00 1.3506652390e-01 2.0017044349e+00 -3.4670537830e+00 2.0017044349e+00 3.4670537830e+00 
1400 5.8192535691e+00 1.3279978493e-01 1.9983315963e+00 -3.4612118552e+00 1.9983315963e+00 3.4612118552e+00 
1500 5.8158771224e+00 1.3057009758e-01 1.9950097522e+00 -3.4554582524e+00 1.9950097522e+00 3.4554582524e+00 
1600 5.8125256416e+00 1.2839564053e-01 1.9917382308e+00 -3.4497918111e+00 1.9917382308e+00 3.4497918111e+00 
1700 5.8092183485e+00 1.2628340301e-01 1.9885158958e+00 -3.4442105633e+00 1.9885158958e+00 3.4442105633e+00 
1800 5.8059671875e+00 1.2423298814e-01 1.9853414243e+00 -3.4387122173e+00 1.9853414243e+00 3.4387122173e+00 
1900 5.8027789288e+00 1.2223954482e-01 1.9822134912e+00 -3.4332944782e+00 1.9822134912e+00 3.4332944782e+00 
2000 5.7996567672e+00 1.2029588147e-01 1.9791308816e+00 -3.4279552418e+00 1.9791308816e+00 3.4279552418e+00 
2100 5.7966014946e+00 1.1839389836e-01 1.9760925518e+00 -3.4226927002e+00 1.9760925518e+00 3.4226927002e+00 
2200 5.7936123372e+00 1.1652549631e-01 1.9730976531e+00 -3.4175053835e+00 1.9730976531e+00 3.4175053835e+00 
2300 5.7906875380e+00 1.1468310698e-01 1.9701455340e+00 -3.4123921632e+00 1.9701455340e+00 3.4123921632e+00 
2400 5.7878247563e+00 1.1285996443e-01 1.9672357279e+00 -3.4073522312e+00 1.9672357279e+00 3.4073522312e+00 
2500 5.7850213354e+00 1.1105020838e-01 1.9643679349e+00 -3.4023850680e+00 1.9643679349e+00 3.4023850680e+00 
2600 5.7822744803e+00 1.0924888482e-01 1.9615419995e+00 -3.3974904044e+00 1.9615419995e+00 3.3974904044e+00 
2700 5.7795813724e+00 1.0745188839e-01 1.9587578889e+00 -3.3926681833e+00 1.9587578889e+00 3.3926681833e+00 
2800 5.7769392428e+00 1.0565587622e-01 1.9560156721e+00 -3.3879185245e+00 1.9560156721e+00 3.3879185245e+00 
2900 5.7743454175e+00 1.0385817157e-01 1.9533155013e+00 -3.3832416915e+00 1.9533155013e+00 3.3832416915e+00 
3000 5.7717973439e+00 1.0205666822e-01 1.9506575953e+00 -3.3786380632e+00 1.9506575953e+00 3.3786380632e+00 
3100 5.7692926051e+00 1.0024974160e-01 1.9480422253e+00 -3.3741081095e+00 1.9480422253e+00 3.3741081095e+00 
3200 5.7668289263e+00 9.8436169488e-02 1.9454697029e+00 -3.3696523701e+00 1.9454697029e+00 3.3696523701e+00 
3300 5.7644041761e+00 9.6615063149e-02 1.9429403701e+00 -3.3652714371e+00 1.9429403701e+00 3.3652714371e+00 
3400 5.7620163645e+00 9.4785808702e-02 1.9404545905e+00 -3.3609659406e+00 1.9404545905e+00 3.3609659406e+00 
3500 5.7596636389e+00 9.2948017901e-02 1.9380127426e+00 -3.3567365359e+00 1.9380127426e+00 3.3567365359e+00 
3600 5.7573442789e+00 9.1101487243e-02 1.9356152138e+00 -3.3525838943e+00 1.9356152138e+00 3.3525838943e+00 
3700 5.7550566903e+00 8.9246164266e-02 1.9332623959e+00 -3.3485086940e+00 1.9332623959e+00 3.3485086940e+00 
3800 5.7527993991e+00 8.7382119928e-02 1.9309546806e+00 -3.3445116139e+00 1.9309546806e+00 3.3445116139e+00 
3900 5.7505710448e+00 8.5509526057e-02 1.9286924567e+00 -3.3405933273e+00 1.9286924567e+00 3.3405933273e+00 
4000 5.7483703740e+00 8.3628636985e-02 1.9264761074e+00 -3.3367544975e+00 1.9264761074e+00 3.3367544975e+00 
4100 5.7461962346e+00 8.1739774609e-02 1.9243060074e+00 -3.3329957741e+00 1.9243060074e+00 3.3329957741e+00 
4200 5.7440475692e+00 7.9843316225e-02 1.9221825218e+00 -3.3293177891e+00 1.9221825218e+00 3.3293177891e+00 
4300 5.7419234092e+00 7.7939684613e-02 1.9201060040e+00 -3.3257211549e+00 1.9201060040e+00 3.3257211549e+00 
4400 5.7398228698e+00 7.6029339915e-02 1.9180767947e+00 -3.3222064613e+00 1.9180767947e+00 3.3222064613e+00 
4500 5.7377451435e+00 7.4112772957e-02 1.9160952204e+00 -3.3187742739e+00 1.9160952204e+00 3.3187742739e+00 
4600 5.7356894960e+00 7.2190499720e-02 1.9141615928e+00 -3.3154251326e+00 1.9141615928e+00 3.3154251326e+00 
4700 5.7336552604e+00 7.0263056725e-02 1.9122762077e+00 -3.3121595498e+00 1.9122762077e+00 3.3121595498e+00 
4800 5.7316418329e+00 6.8330997130e-02 1.9104393445e+00 -3.3089780095e+00 1.9104393445e+00 3.3089780095e+00 
4900 5.7296486683e+00 6.6394887409e-02 1.9086512656e+00 -3.3058809659e+00 1.9086512656e+00 3.3058809659e+00 
5000 5.7276752757e+00 6.4455304478e-02 1.9069122157e+00 -3.3028688432e+00 1.9069122157e+00 3.3028688432e+00 
5100 5.7257212141e+00 6.2512833176e-02 1.9052224218e+00 -3.2999420342e+00 1.9052224218e+00 3.2999420342e+00 
5200 5.7237860893e+00 6.0568064030e-02 1.9035820922e+00 -3.2971009000e+00 1.9035820922e+00 3.2971009000e+00 
5300 5.7218695495e+00 5.8621591244e-02 1.9019914169e+00 -3.2943457696e+00 1.9019914169e+00 3.2943457696e+00 
5400 5.7199712825e+00 5.6674010866e-02 1.9004505669e+00 -3.2916769391e+00 1.9004505669e+00 3.2916769391e+00 
5500 5.7180910121e+00 5.4725919100e-02 1.8989596943e+00 -3.2890946720e+00 1.8989596943e+00 3.2890946720e+00 
5600 5.7162284948e+00 5.2777910741e-02 1.8975189319e+00 -3.2865991984e+00 1.8975189319e+00 3.2865991984e+00 
5700 5.7143835177e+00 5.0830577700e-02 1.8961283935e+00 -3.2841907153e+00 1.8961283935e+00 3.2841907153e+00 
5800 5.7125558950e+00 4.8884507620e-02 1.8947881735e+00 -3.2818693861e+00 1.8947881735e+00 3.2818693861e+00 
5900 5.7107454657e+00 4.6940282563e-02 1.8934983471e+00 -3.2796353412e+00 1.8934983471e+00 3.2796353412e+00 
6000 5.7089520914e+00 4.4998477764e-02 1.8922589703e+00 -3.2774886776e+00 1.8922589703e+00 3.2774886776e+00 
6100 5.7071756535e+00 4.3059660446e-02 1.8910700801e+00 -3.2754294594e+00 1.8910700801e+00 3.2754294594e+00 
6200 5.7054160516e+00 4.1124388691e-02 1.8899316946e+00 -3.2734577178e+00 1.8899316946e+00 3.2734577178e+00 
6300 5.7036732012e+00 3.9193210367e-02 1.8888438129e+00 -3.2715734515e+00 1.8888438129e+00 3.2715734515e+00 
6400 5.7019470318e+00 3.7266662118e-02 1.8878064158e+00 -3.2697766271e+00 1.8878064158e+00 3.2697766271e+00 
6500 5.7002374855e+00 3.5345268391e-02 1.8868194658e+00 -3.2680671794e+00 1.8868194658e+00 3.2680671794e+00 
6600 5.6985445146e+00 3.3429540539e-02 1.8858829071e+00 -3.2664450122e+00 1.8858829071e+00 3.2664450122e+00 
6700 5.6968680809e+00 3.1519975966e-02 1.8849966665e+00 -3.2649099984e+00 1.8849966665e+00 3.2649099984e+00 
6800 5.6952081536e+00 2.9617057331e-02 1.8841606532e+00 -3.2634619810e+00 1.8841606532e+00 3.2634619810e+00 
6900 5.6935647083e+00 2.7721251811e-02 1.8833747596e+00 -3.2621007733e+00 1.8833747596e+00 3.2621007733e+00 
7000 5.6919377255e+00 2.5833010425e-02 1.8826388613e+00 -3.2608261600e+00 1.8826388613e+00 3.2608261600e+00 
7100 5.6903271898e+00 2.3952767409e-02 1.8819528178e+00 -3.2596378979e+00 1.8819528178e+00 3.2596378979e+00 
7200 5.6887330883e+00 2.2080939657e-02 1.8813164730e+00 -3.2585357164e+00 1.8813164730e+00 3.2585357164e+00 
7300 5.6871554100e+00 2.0217926221e-02 1.8807296555e+00 -3.2575193186e+00 1.8807296555e+00 3.2575193186e+00 
7400 5.6855941445e+00 1.8364107866e-02 1.8801921789e+00 -3.2565883818e+00 1.8801921789e+00 3.2565883818e+00 
7500 5.6840492816e+00 1.6519846693e-02 1.8797038428e+00 -3.2557425590e+00 1.8797038428e+00 3.2557425590e+00 
7600 5.6825208100e+00 1.4685485812e-02 1.8792644331e+00 -3.2549814790e+00 1.8792644331e+00 3.2549814790e+00 
7700 5.6810087166e+00 1.2861349087e-02 1.8788737223e+00 -3.2543047481e+00 1.8788737223e+00 3.2543047481e+00 
7800 5.6795129863e+00 1.1047740927e-02 1.8785314705e+00 -3.2537119506e+00 1.8785314705e+00 3.2537119506e+00 
7900 5.6780336006e+00 9.2449461426e-03 1.8782374256e+00 -3.2532026498e+00 1.8782374256e+00 3.2532026498e+00 
8000 5.6765705376e+00 7.4532298575e-03 1.8779913240e+00 -3.2527763894e+00 1.8779913240e+00 3.2527763894e+00 
8100 5.6751237714e+00 5.6728374768e-03 1.8777928913e+00 -3.2524326938e+00 1.8777928913e+00 3.2524326938e+00 
8200 5.6736932713e+00 3.9039947082e-03 1.8776418427e+00 -3.2521710699e+00 1.8776418427e+00 3.2521710699e+00 
8300 5.6722790013e+00 2.1469076368e-03 1.8775378836e+00 -3.2519910075e+00 1.8775378836e+00 3.2519910075e+00 
8400 5.6708809204e+00 4.0176285125e-04 1.8774807104e+00 -3.2518919806e+00 1.8774807104e+00 3.2518919806e+00 
8500 5.6694989812e+00 -1.3312723807e-03 1.8774700109e+00 -3.2518734485e+00 1.8774700109e+00 3.2518734485e+00 
8600 5.6681331304e+00 -3.0520498892e-03 1.8775054649e+00 -3.2519348567e+00 1.8775054649e+00 3.2519348567e+00 
8700 5.6667833081e+00 -4.7604403341e-03 1.8775867449e+00 -3.2520756377e+00 1.8775867449e+00 3.2520756377e+00 
8800 5.6654494476e+00 -6.4563328924e-03 1.8777135165e+00 -3.2522952126e+00 1.8777135165e+00 3.2522952126e+00 
8900 5.6641314749e+00 -8.1396349057e-03 1.8778854392e+00 -3.2525929914e+00 1.8778854392e+00 3.2525929914e+00 
9000 5.6628293091e+00 -9.8102714874e-03 1.8781021667e+00 -3.2529683746e+00 1.8781021667e+00 3.2529683746e+00 
9100 5.6615428616e+00 -1.1468185094e-02 1.8783633479e+00 -3.2534207537e+00 1.8783633479e+00 3.2534207537e+00 
9200 5.6602720362e+00 -1.3113335062e-02 1.8786686269e+00 -3.2539495123e+00 1.8786686269e+00 3.2539495123e+00 
9300 5.6590167290e+00 -1.4745697111e-02 1.8790176437e+00 -3.2545540273e+00 1.8790176437e+00 3.2545540273e+00 
9400 5.6577768280e+00 -1.6365262821e-02 1.8794100352e+00 -3.2552336693e+00 1.8794100352e+00 3.2552336693e+00 
9500 5.6565522135e+00 -1.7972039074e-02 1.8798454350e+00 -3.2559878038e+00 1.8798454350e+00 3.2559878038e+00 
9600 5.6553427575e+00 -1.9566047483e-02 1.8803234743e+00 -3.2568157922e+00 1.8803234743e+00 3.2568157922e+00 
9700 5.6541483240e+00 -2.1147323786e-02 1.8808437824e+00 -3.2577169922e+00 1.8808437824e+00 3.2577169922e+00 
9800 5.6529687685e+00 -2.2715917224e-02 1.8814059869e+00 -3.2586907590e+00 1.8814059869e+00 3.2586907590e+00 
9900 5.6518039388e+00 -2.4271889904e-02 1.8820097144e+00 -3.2597364457e+00 1.8820097144e+00 3.2597364457e+00 
10000 5.6506536740e+00 -2.5815316139e-02 1.8826545909e+00 -3.2608534045e+00 1.8826545909e+00 3.2608534045e+00 
10100 5.6495178052e+00 -2.7346281782e-02 1.8833402420e+00 -3.2620409870e+00 1.8833402420e+00 3.2620409870e+00 
10200 5.6483961553e+00 -2.8864883535e-02 1.8840662934e+00 -3.2632985450e+00 1.8840662934e+00 3.2632985450e+00 
10300 5.6472885390e+00 -3.0371228264e-02 1.8848323715e+00 -3.2646254312e+00 1.8848323715e+00 3.2646254312e+00 
10400 5.6461947627e+00 -3.1865432296e-02 1.8856381034e+00 -3.2660209998e+00 1.8856381034e+00 3.2660209998e+00 
10500 5.6451146251e+00 -3.3347620705e-02 1.8864831174e+00 -3.2674846069e+00 1.8864831174e+00 3.2674846069e+00 
10600 5.6440479165e+00 -3.4817926611e-02 1.8873670432e+00 -3.2690156114e+00 1.8873670432e+00 3.2690156114e+00 
10700 5.6429944195e+00 -3.6276490454e-02 1.8882895125e+00 -3.2706133750e+00 1.8882895125e+00 3.2706133750e+00 
10800 5.6419539087e+00 -3.7723459284e-02 1.8892501587e+00 -3.2722772631e+00 1.8892501587e+00 3.2722772631e+00 
10900 5.6409261512e+00 -3.9158986045e-02 1.8902486178e+00 -3.2740066450e+00 1.8902486178e+00 3.2740066450e+00 
11000 5.6399109060e+00 -4.0583228859e-02 1.8912845281e+00 -3.2758008942e+00 1.8912845281e+00 3.2758008942e+00 
11100 5.6389079251e+00 -4.1996350316e-02 1.8923575307e+00 -3.2776593892e+00 1.8923575307e+00 3.2776593892e+00 
11200 5.6379169528e+00 -4.3398516768e-02 1.8934672695e+00 -3.2795815133e+00 1.8934672695e+00 3.2795815133e+00 
11300 5.6369377261e+00 -4.4789897630e-02 1.8946133916e+00 -3.2815666549e+00 1.8946133916e+00 3.2815666549e+00 
11400 5.6359699749e+00 -4.6170664687e-02 1.8957955470e+00 -3.2836142082e+00 1.8957955470e+00 3.2836142082e+00 
11500 5.6350134222e+00 -4.7540991406e-02 1.8970133894e+00 -3.2857235732e+00 1.8970133894e+00 3.2857235732e+00 
11600 5.6340677841e+00 -4.8901052266e-02 1.8982665757e+00 -3.2878941554e+00 1.8982665757e+00 3.2878941554e+00 
11700 5.6331327699e+00 -5.0251022091e-02 1.8995547662e+00 -3.2901253668e+00 1.8995547662e+00 3.2901253668e+00 
11800 5.6322080826e+00 -5.1591075396e-02 1.9008776248e+00 -3.2924166252e+00 1.9008776248e+00 3.2924166252e+00 
11900 5.6312934186e+00 -5.2921385747e-02 1.9022348192e+00 -3.2947673549e+00 1.9022348192e+00 3.2947673549e+00 
12000 5.6303884684e+00 -5.4242125132e-02 1.9036260205e+00 -3.2971769862e+00 1.9036260205e+00 3.2971769862e+00 
12100 5.6294929161e+00 -5.5553463350e-02 1.9050509035e+00 -3.2996449559e+00 1.9050509035e+00 3.2996449559e+00 
12200 5.6286064405e+00 -5.6855567409e-02 1.9065091466e+00 -3.3021707069e+00 1.9065091466e+00 3.3021707069e+00 
12300 5.6277287143e+00 -5.8148600943e-02 1.9080004316e+00 -3.3047536885e+00 1.9080004316e+00 3.3047536885e+00 
12400 5.6268594051e+00 -5.9432723646e-02 1.9095244443e+00 -3.3073933557e+00 1.9095244443e+00 3.3073933557e+00 
12500 5.6259981751e+00 -6.0708090723e-02 1.9110808734e+00 -3.3100891701e+00 1.9110808734e+00 3.3100891701e+00 
12600 5.6251446815e+00 -6.1974852352e-02 1.9126694114e+00 -3.3128405987e+00 1.9126694114e+00 3.3128405987e+00 
12700 5.6242985767e+00 -6.3233153173e-02 1.9142897540e+00 -3.3156471144e+00 1.9142897540e+00 3.3156471144e+00 
12800 5.6234595085e+00 -6.4483131792e-02 1.9159416000e+00 -3.3185081956e+00 1.9159416000e+00 3.3185081956e+00 
12900 5.6226271202e+00 -6.5724920302e-02 1.9176246514e+00 -3.3214233261e+00 1.9176246514e+00 3.3214233261e+00 
13000 5.6218010511e+00 -6.6958643825e-02 1.9193386130e+00 -3.3243919947e+00 1.9193386130e+00 3.3243919947e+00 
13100 5.6209809365e+00 -6.8184420080e-02 1.9210831925e+00 -3.3274136950e+00 1.9210831925e+00 3.3274136950e+00 
13200 5.6201664077e+00 -6.9402358959e-02 1.9228581003e+00 -3.3304879254e+00 1.9228581003e+00 3.3304879254e+00 
13300 5.6193570930e+00 -7.0612562139e-02 1.9246630490e+00 -3.3336141883e+00 1.9246630490e+00 3.3336141883e+00 
13400 5.6185526169e+00 -7.1815122701e-02 1.9264977537e+00 -3.3367919901e+00 1.9264977537e+00 3.3367919901e+00 
13500 5.6177526013e+00 -7.3010124786e-02 1.9283619316e+00 -3.3400208410e+00 1.9283619316e+00 3.3400208410e+00 
13600 5.6169566650e+00 -7.4197643259e-02 1.9302553018e+00 -3.3433002543e+00 1.9302553018e+00 3.3433002543e+00 
13700 5.6161644244e+00 -7.5377743406e-02 1.9321775849e+00 -3.3466297463e+00 1.9321775849e+00 3.3466297463e+00 
13800 5.6153754936e+00 -7.6550480653e-02 1.9341285033e+00 -3.3500088360e+00 1.9341285033e+00 3.3500088360e+00 
13900 5.6145894845e+00 -7.7715900300e-02 1.9361077803e+00 -3.3534370443e+00 1.9361077803e+00 3.3534370443e+00 
14000 5.6138060075e+00 -7.8874037292e-02 1.9381151404e+00 -3.3569138942e+00 1.9381151404e+00 3.3569138942e+00 
14100 5.6130246711e+00 -8.0024916001e-02 1.9401503091e+00 -3.3604389097e+00 1.9401503091e+00 3.3604389097e+00 
14200 5.6122450828e+00 -8.1168550047e-02 1.9422130121e+00 -3.3640116162e+00 1.9422130121e+00 3.3640116162e+00 
14300 5.6114668488e+00 -8.2304942128e-02 1.9443029757e+00 -3.3676315393e+00 1.9443029757e+00 3.3676315393e+00 
14400 5.6106895748e+00 -8.3434083890e-02 1.9464199261e+00 -3.3712982049e+00 1.9464199261e+00 3.3712982049e+00 
14500 5.6099128659e+00 -8.4555955810e-02 1.9485635894e+00 -3.3750111386e+00 1.9485635894e+00 3.3750111386e+00 
14600 5.6091363270e+00 -8.5670527115e-02 1.9507336913e+00 -3.3787698654e+00 1.9507336913e+00 3.3787698654e+00 
14700 5.6083595630e+00 -8.6777755715e-02 1.9529299568e+00 -3.3825739088e+00 1.9529299568e+00 3.3825739088e+00 
14800 5.6075821792e+00 -8.7877588176e-02 1.9551521100e+00 -3.3864227910e+00 1.9551521100e+00 3.3864227910e+00 
14900 5.6068037814e+00 -8.8969959708e-02 1.9573998738e+00 -3.3903160321e+00 1.9573998738e+00 3.3903160321e+00 
15000 5.6060239766e+00 -9.0054794182e-02 1.9596729698e+00 -3.3942531499e+00 1.9596729698e+00 3.3942531499e+00 
15100 5.6052423727e+00 -9.1132004173e-02 1.9619711178e+00 -3.3982336591e+00 1.9619711178e+00 3.3982336591e+00 
15200 5.6044585792e+00 -9.2201491032e-02 1.9642940359e+00 -3.4022570711e+00 1.9642940359e+00 3.4022570711e+00 
15300 5.6036722074e+00 -9.3263144979e-02 1.9666414398e+00 -3.4063228940e+00 1.9666414398e+00 3.4063228940e+00 
15400 5.6028828707e+00 -9.4316845225e-02 1.9690130430e+00 -3.4104306312e+00 1.9690130430e+00 3.4104306312e+00 
15500 5.6020901847e+00 -9.5362460118e-02 1.9714085564e+00 -3.4145797821e+00 1.9714085564e+00 3.4145797821e+00 
15600 5.6012937680e+00 -9.6399847315e-02 1.9738276880e+00 -3.4187698410e+00 1.9738276880e+00 3.4187698410e+00 
15700 5.6004932418e+00 -9.7428853978e-02 1.9762701428e+00 -3.4230002969e+00 1.9762701428e+00 3.4230002969e+00 
15800 5.5996882310e+00 -9.8449316994e-02 1.9787356226e+00 -3.4272706332e+00 1.9787356226e+00 3.4272706332e+00 
15900 5.5988783638e+00 -9.9461063222e-02 1.9812238257e+00 -3.4315803272e+00 1.9812238257e+00 3.4315803272e+00 
16000 5.5980632725e+00 -1.0046390976e-01 1.9837344466e+00 -3.4359288502e+00 1.9837344466e+00 3.4359288502e+00 
16100 5.5972425936e+00 -1.0145766424e-01 1.9862671761e+00 -3.4403156664e+00 1.9862671761e+00 3.4403156664e+00 
16200 5.5964159682e+00 -1.0244212513e-01 1.9888217010e+00 -3.4447402333e+00 1.9888217010e+00 3.4447402333e+00 
16300 5.5955830421e+00 -1.0341708208e-01 1.9913977038e+00 -3.4492020011e+00 1.9913977038e+00 3.4492020011e+00 
16400 5.5947434666e+00 -1.0438231629e-01 1.9939948628e+00 -3.4537004123e+00 1.9939948628e+00 3.4537004123e+00 
16500 5.5938968982e+00 -1.0533760084e-01 1.9966128515e+00 -3.4582349019e+00 1.9966128515e+00 3.4582349019e+00 
16600 5.5930429996e+00 -1.0628270114e-01 1.9992513391e+00 -3.4628048965e+00 1.9992513391e+00 3.4628048965e+00 
16700 5.5921814393e+00 -1.0721737529e-01 2.0019099899e+00 -3.4674098146e+00 2.0019099899e+00 3.4674098146e+00 
16800 5.5913118926e+00 -1.0814137457e-01 2.0045884631e+00 -3.4720490663e+00 2.0045884631e+00 3.4720490663e+00 
16900 5.5904340415e+00 -1.0905444381e-01 2.0072864132e+00 -3.4767220531e+00 2.0072864132e+00 3.4767220531e+00 
17000 5.5895475752e+00 -1.0995632190e-01 2.0100034896e+00 -3.4814281673e+00 2.0100034896e+00 3.4814281673e+00 
17100 5.5886521904e+00 -1.1084674225e-01 2.0127393362e+00 -3.4861667927e+00 2.0127393362e+00 3.4861667927e+00 
17200 5.5877475916e+00 -1.1172543328e-01 2.0154935921e+00 -3.4909373038e+00 2.0154935921e+00 3.4909373038e+00 
17300 5.5868334913e+00 -1.1259211888e-01 2.0182658908e+00 -3.4957390660e+00 2.0182658908e+00 3.4957390660e+00 
17400 5.5859096108e+00 -1.1344651895e-01 2.0210558606e+00 -3.5005714354e+00 2.0210558606e+00 3.5005714354e+00 
17500 5.5849756798e+00 -1.1428834991e-01 2.0238631244e+00 -3.5054337590e+00 2.0238631244e+00 3.5054337590e+00 
17600 5.5840314374e+00 -1.1511732517e-01 2.0266872997e+00 -3.5103253742e+00 2.0266872997e+00 3.5103253742e+00 
17700 5.5830766320e+00 -1.1593315571e-01 2.0295279988e+00 -3.5152456093e+00 2.0295279988e+00 3.5152456093e+00 
17800 5.5821110219e+00 -1.1673555058e-01 2.0323848283e+00 -3.5201937831e+00 2.0323848283e+00 3.5201937831e+00 
17900 5.5811343753e+00 -1.1752421742e-01 2.0352573897e+00 -3.5251692054e+00 2.0352573897e+00 3.5251692054e+00 
18000 5.5801464709e+00 -1.1829886300e-01 2.0381452791e+00 -3.5301711766e+00 2.0381452791e+00 3.5301711766e+00 
18100 5.5791470980e+00 -1.1905919373e-01 2.0410480873e+00 -3.5351989879e+00 2.0410480873e+00 3.5351989879e+00 
18200 5.5781360572e+00 -1.1980491621e-01 2.0439654000e+00 -3.5402519217e+00 2.0439654000e+00 3.5402519217e+00 
18300 5.5771131601e+00 -1.2053573772e-01 2.0468967976e+00 -3.5453292512e+00 2.0468967976e+00 3.5453292512e+00 
18400 5.5760782299e+00 -1.2125136677e-01 2.0498418555e+00 -3.5504302412e+00 2.0498418555e+00 3.5504302412e+00 
18500 5.5750311021e+00 -1.2195151357e-01 2.0528001443e+00 -3.5555541477e+00 2.0528001443e+00 3.5555541477e+00 
18600 5.5739716239e+00 -1.2263589058e-01 2.0557712294e+00 -3.5607002181e+00 2.0557712294e+00 3.5607002181e+00 
18700 5.5728996554e+00 -1.2330421294e-01 2.0587546719e+00 -3.5658676920e+00 2.0587546719e+00 3.5658676920e+00 
18800 5.5718150692e+00 -1.2395619902e-01 2.0617500279e+00 -3.5710558008e+00 2.0617500279e+00 3.5710558008e+00 
18900 5.5707177511e+00 -1.2459157085e-01 2.0647568492e+00 -3.5762637680e+00 2.0647568492e+00 3.5762637680e+00 
19000 5.5696076001e+00 -1.2521005458e-01 2.0677746832e+00 -3.5814908099e+00 2.0677746832e+00 3.5814908099e+00 
19100 5.5684845289e+00 -1.2581138097e-01 2.0708030732e+00 -3.5867361353e+00 2.0708030732e+00 3.5867361353e+00 
19200 5.5673484639e+00 -1.2639528576e-01 2.0738415586e+00 -3.5919989463e+00 2.0738415586e+00 3.5919989463e+00 
19300 5.5661993455e+00 -1.2696151016e-01 2.0768896746e+00 -3.5972784382e+00 2.0768896746e+00 3.5972784382e+00 
19400 5.5650371286e+00 -1.2750980119e-01 2.0799469532e+00 -3.6025738000e+00 2.0799469532e+00 3.6025738000e+00 
19500 5.5638617824e+00 -1.2803991211e-01 2.0830129226e+00 -3.6078842147e+00 2.0830129226e+00 3.6078842147e+00 
19600 5.5626732909e+00 -1.2855160280e-01 2.0860871078e+00 -3.6132088598e+00 2.0860871078e+00 3.6132088598e+00 
19700 5.5614716530e+00 -1.2904464010e-01 2.0891690309e+00 -3.6185469072e+00 2.0891690309e+00 3.6185469072e+00 
19800 5.5602568829e+00 -1.2951879814e-01 2.0922582110e+00 -3.6238975241e+00 2.0922582110e+00 3.6238975241e+00 
19900 5.5590290098e+00 -1.2997385869e-01 2.0953541646e+00 -3.6292598729e+00 2.0953541646e+00 3.6292598729e+00 
20000 5.5577880785e+00 -1.3040961146e-01 2.0984564057e+00 -3.6346331121e+00 2.0984564057e+00 3.6346331121e+00 
20100 5.5565341495e+00 -1.3082585441e-01 2.1015644461e+00 -3.6400163961e+00 2.1015644461e+00 3.6400163961e+00 
20200 5.5552672989e+00 -1.3122239398e-01 2.1046777958e+00 -3.6454088759e+00 2.1046777958e+00 3.6454088759e+00 
20300 5.5539876187e+00 -1.3159904540e-01 2.1077959629e+00 -3.6508096997e+00 2.1077959629e+00 3.6508096997e+00 
20400 5.5526952169e+00 -1.3195563291e-01 2.1109184539e+00 -3.6562180129e+00 2.1109184539e+00 3.6562180129e+00 
20500 5.5513902175e+00 -1.3229198999e-01 2.1140447743e+00 -3.6616329586e+00 2.1140447743e+00 3.6616329586e+00 
20600 5.5500727608e+00 -1.3260795957e-01 2.1171744284e+00 -3.6670536784e+00 2.1171744284e+00 3.6670536784e+00 
20700 5.5487430030e+00 -1.3290339424e-01 2.1203069195e+00 -3.6724793123e+00 2.1203069195e+00 3.6724793123e+00 
20800 5.5474011168e+00 -1.3317815643e-01 2.1234417508e+00 -3.6779089992e+00 2.1234417508e+00 3.6779089992e+00 
20900 5.5460472908e+00 -1.3343211855e-01 2.1265784247e+00 -3.6833418778e+00 2.1265784247e+00 3.6833418778e+00 
21000 5.5446817303e+00 -1.3366516322e-01 2.1297164439e+00 -3.6887770865e+00 2.1297164439e+00 3.6887770865e+00 
21100 5.5433046561e+00 -1.3387718332e-01 2.1328553110e+00 -3.6942137639e+00 2.1328553110e+00 3.6942137639e+00 
21200 5.5419163058e+00 -1.3406808222e-01 2.1359945293e+00 -3.6996510495e+00 2.1359945293e+00 3.6996510495e+00 
21300 5.5405169326e+00 -1.3423777382e-01 2.1391336025e+00 -3.7050880838e+00 2.1391336025e+00 3.7050880838e+00 
21400 5.5391068058e+00 -1.3438618271e-01 2.1422720354e+00 -3.7105240089e+00 2.1422720354e+00 3.7105240089e+00 
21500 5.5376862104e+00 -1.3451324424e-01 2.1454093336e+00 -3.7159579689e+00 2.1454093336e+00 3.7159579689e+00 
21600 5.5362554472e+00 -1.3461890464e-01 2.1485450046e+00 -3.7213891103e+00 2.1485450046e+00 3.7213891103e+00 
21700 5.5348148324e+00 -1.3470312107e-01 2.1516785571e+00 -3.7268165825e+00 2.1516785571e+00 3.7268165825e+00 
21800 5.5333646973e+00 -1.3476586175e-01 2.1548095019e+00 -3.7322395379e+00 2.1548095019e+00 3.7322395379e+00 
21900 5.5319053885e+00 -1.3480710594e-01 2.1579373517e+00 -3.7376571327e+00 2.1579373517e+00 3.7376571327e+00 
22000 5.5304372670e+00 -1.3482684409e-01 2.1610616217e+00 -3.7430685271e+00 2.1610616217e+00 3.7430685271e+00 
22100 5.5289607085e+00 -1.3482507782e-01 2.1641818297e+00 -3.7484728859e+00 2.1641818297e+00 3.7484728859e+00 
22200 5.5274761027e+00 -1.3480182001e-01 2.1672974961e+00 -3.7538693784e+00 2.1672974961e+00 3.7538693784e+00 
22300 5.5259838529e+00 -1.3475709481e-01 2.1704081446e+00 -3.7592571796e+00 2.1704081446e+00 3.7592571796e+00 
22400 5.5244843759e+00 -1.3469093772e-01 2.1735133019e+00 -3.7646354698e+00 2.1735133019e+00 3.7646354698e+00 
22500 5.5229781014e+00 -1.3460339555e-01 2.1766124983e+00 -3.7700034355e+00 2.1766124983e+00 3.7700034355e+00 
22600 5.5214654713e+00 -1.3449452649e-01 2.1797052679e+00 -3.7753602696e+00 2.1797052679e+00 3.7753602696e+00 
22700 5.5199469399e+00 -1.3436440011e-01 2.1827911486e+00 -3.7807051718e+00 2.1827911486e+00 3.7807051718e+00 
22800 5.5184229725e+00 -1.3421309739e-01 2.1858696826e+00 -3.7860373489e+00 2.1858696826e+00 3.7860373489e+00 
22900 5.5168940455e+00 -1.3404071068e-01 2.1889404162e+00 -3.7913560156e+00 2.1889404162e+00 3.7913560156e+00 
23000 5.5153606455e+00 -1.3384734375e-01 2.1920029005e+00 -3.7966603940e+00 2.1920029005e+00 3.7966603940e+00 
23100 5.5138232689e+00 -1.3363311173e-01 2.1950566915e+00 -3.8019497151e+00 2.1950566915e+00 3.8019497151e+00 
23200 5.5122824209e+00 -1.3339814115e-01 2.1981013498e+00 -3.8072232181e+00 2.1981013498e+00 3.8072232181e+00 
23300 5.5107386154e+00 -1.3314256988e-01 2.2011364417e+00 -3.8124801514e+00 2.2011364417e+00 3.8124801514e+00 
23400 5.5091923736e+00 -1.3286654710e-01 2.2041615385e+00 -3.8177197728e+00 2.2041615385e+00 3.8177197728e+00 
23500 5.5076442237e+00 -1.3257023328e-01 2.2071762175e+00 -3.8229413499e+00 2.2071762175e+00 3.8229413499e+00 
23600 5.5060947004e+00 -1.3225380014e-01 2.2101800613e+00 -3.8281441601e+00 2.2101800613e+00 3.8281441601e+00 
23700 5.5045443434e+00 -1.3191743055e-01 2.2131726591e+00 -3.8333274915e+00 2.2131726591e+00 3.8333274915e+00 
23800 5.5029936972e+00 -1.3156131853e-01 2.2161536059e+00 -3.8384906427e+00 2.2161536059e+00 3.8384906427e+00 
23900 5.5014433099e+00 -1.3118566912e-01 2.2191225031e+00 -3.8436329236e+00 2.2191225031e+00 3.8436329236e+00 
24000 5.4998937329e+00 -1.3079069832e-01 2.2220789590e+00 -3.8487536553e+00 2.2220789590e+00 3.8487536553e+00 
24100 5.4983455193e+00 -1.3037663297e-01 2.2250225882e+00 -3.8538521707e+00 2.2250225882e+00 3.8538521707e+00 
24200 5.4967992237e+00 -1.2994371067e-01 2.2279530125e+00 -3.8589278145e+00 2.2279530125e+00 3.8589278145e+00 
24300 5.4952554008e+00 -1.2949217963e-01 2.2308698609e+00 -3.8639799441e+00 2.2308698609e+00 3.8639799441e+00 
24400 5.4937146051e+00 -1.2902229853e-01 2.2337727693e+00 -3.8690079291e+00 2.2337727693e+00 3.8690079291e+00 
24500 5.4921773895e+00 -1.2853433639e-01 2.2366613815e+00 -3.8740111521e+00 2.2366613815e+00 3.8740111521e+00 
24600 5.4906443044e+00 -1.2802857239e-01 2.2395353485e+00 -3.8789890090e+00 2.2395353485e+00 3.8789890090e+00 
24700 5.4891158973e+00 -1.2750529566e-01 2.2423943294e+00 -3.8839409091e+00 2.2423943294e+00 3.8839409091e+00 
24800 5.4875927114e+00 -1.2696480513e-01 2.2452379908e+00 -3.8888662751e+00 2.2452379908e+00 3.8888662751e+00 
24900 5.4860752850e+00 -1.2640740928e-01 2.2480660077e+00 -3.8937645441e+00 2.2480660077e+00 3.8937645441e+00 
25000 5.4845641505e+00 -1.2583342590e-01 2.2508780631e+00 -3.8986351669e+00 2.2508780631e+00 3.8986351669e+00 
25100 5.4830598336e+00 -1.2524318189e-01 2.2536738484e+00 -3.9034776092e+00 2.2536738484e+00 3.9034776092e+00 
25200 5.4815628522e+00 -1.2463701292e-01 2.2564530635e+00 -3.9082913509e+00 2.2564530635e+00 3.9082913509e+00 
25300 5.4800737160e+00 -1.2401526322e-01 2.2592154167e+00 -3.9130758870e+00 2.2592154167e+00 3.9130758870e+00 
25400 5.4785929255e+00 -1.2337828521e-01 2.2619606251e+00 -3.9178307274e+00 2.2619606251e+00 3.9178307274e+00 
25500 5.4771209708e+00 -1.2272643924e-01 2.2646884146e+00 -3.9225553974e+00 2.2646884146e+00 3.9225553974e+00 
25600 5.4756583317e+00 -1.2206009323e-01 2.2673985199e+00 -3.9272494375e+00 2.2673985199e+00 3.9272494375e+00 
25700 5.4742054760e+00 -1.2137962228e-01 2.2700906848e+00 -3.9319124039e+00 2.2700906848e+00 3.9319124039e+00 
25800 5.4727628594e+00 -1.2068540840e-01 2.2727646621e+00 -3.9365438684e+00 2.2727646621e+00 3.9365438684e+00 
25900 5.4713309248e+00 -1.1997784002e-01 2.2754202137e+00 -3.9411434188e+00 2.2754202137e+00 3.9411434188e+00 
26000 5.4699101014e+00 -1.1925731165e-01 2.2780571109e+00 -3.9457106586e+00 2.2780571109e+00 3.9457106586e+00 
26100 5.4685008042e+00 -1.1852422347e-01 2.2806751340e+00 -3.9502452077e+00 2.2806751340e+00 3.9502452077e+00 
26200 5.4671034334e+00 -1.1777898088e-01 2.2832740729e+00 -3.9547467018e+00 2.2832740729e+00 3.9547467018e+00 
26300 5.4657183740e+00 -1.1702199408e-01 2.2858537266e+00 -3.9592147931e+00 2.2858537266e+00 3.9592147931e+00 
26400 5.4643459954e+00 -1.1625367761e-01 2.2884139038e+00 -3.9636491500e+00 2.2884139038e+00 3.9636491500e+00 
26500 5.4629866505e+00 -1.1547444989e-01 2.2909544223e+00 -3.9680494573e+00 2.2909544223e+00 3.9680494573e+00 
26600 5.4616406759e+00 -1.1468473276e-01 2.2934751097e+00 -3.9724154159e+00 2.2934751097e+00 3.9724154159e+00 
26700 5.4603083912e+00 -1.1388495102e-01 2.2959758028e+00 -3.9767467434e+00 2.2959758028e+00 3.9767467434e+00 
26800 5.4589900986e+00 -1.1307553190e-01 2.2984563479e+00 -3.9810431736e+00 2.2984563479e+00 3.9810431736e+00 
26900 5.4576860829e+00 -1.1225690462e-01 2.3009166009e+00 -3.9853044567e+00 2.3009166009e+00 3.9853044567e+00 
27000 5.4563966115e+00 -1.1142949987e-01 2.3033564268e+00 -3.9895303591e+00 2.3033564268e+00 3.9895303591e+00 
27100 5.4551219336e+00 -1.1059374932e-01 2.3057757002e+00 -3.9937206637e+00 2.3057757002e+00 3.9937206637e+00 
27200 5.4538622806e+00 -1.0975008515e-01 2.3081743052e+00 -3.9978751693e+00 2.3081743052e+00 3.9978751693e+00 
27300 5.4526178660e+00 -1.0889893952e-01 2.3105521349e+00 -4.0019936911e+00 2.3105521349e+00 4.0019936911e+00 
27400 5.4513888849e+00 -1.0804074410e-01 2.3129090917e+00 -4.0060760601e+00 2.3129090917e+00 4.0060760601e+00 
27500 5.4501755149e+00 -1.0717592958e-01 2.3152450873e+00 -4.0101221231e+00 2.3152450873e+00 4.0101221231e+00 
27600 5.4489779152e+00 -1.0630492516e-01 2.3175600424e+00 -4.0141317430e+00 2.3175600424e+00 4.0141317430e+00 
27700 5.4477962277e+00 -1.0542815812e-01 2.3198538868e+00 -4.0181047980e+00 2.3198538868e+00 4.0181047980e+00 
27800 5.4466305762e+00 -1.0454605331e-01 2.3221265590e+00 -4.0220411819e+00 2.3221265590e+00 4.0220411819e+00 
27900 5.4454810673e+00 -1.0365903269e-01 2.3243780067e+00 -4.0259408036e+00 2.3243780067e+00 4.0259408036e+00 
28000 5.4443477903e+00 -1.0276751491e-01 2.3266081859e+00 -4.0298035873e+00 2.3266081859e+00 4.0298035873e+00 
28100 5.4432308176e+00 -1.0187191485e-01 2.3288170615e+00 -4.0336294720e+00 2.3288170615e+00 4.0336294720e+00 
28200 5.4421302050e+00 -1.0097264316e-01 2.3310046065e+00 -4.0374184112e+00 2.3310046065e+00 4.0374184112e+00 
28300 5.4410459920e+00 -1.0007010591e-01 2.3331708027e+00 -4.0411703730e+00 2.3331708027e+00 4.0411703730e+00 
28400 5.4399782022e+00 -9.9164704139e-02 2.3353156397e+00 -4.0448853397e+00 2.3353156397e+00 4.0448853397e+00 
28500 5.4389268438e+00 -9.8256833503e-02 2.3374391153e+00 -4.0485633074e+00 2.3374391153e+00 4.0485633074e+00 
28600 5.4378919096e+00 -9.7346883882e-02 2.3395412352e+00 -4.0522042858e+00 2.3395412352e+00 4.0522042858e+00 
28700 5.4368733782e+00 -9.6435239045e-02 2.3416220128e+00 -4.0558082983e+00 2.3416220128e+00 4.0558082983e+00 
28800 5.4358712139e+00 -9.5522276311e-02 2.3436814690e+00 -4.0593753811e+00 2.3436814690e+00 4.0593753811e+00 
28900 5.4348853674e+00 -9.4608366237e-02 2.3457196322e+00 -4.0629055834e+00 2.3457196322e+00 4.0629055834e+00 
29000 5.4339157760e+00 -9.3693872318e-02 2.3477365380e+00 -4.0663989667e+00 2.3477365380e+00 4.0663989667e+00 
29100 5.4329623649e+00 -9.2779150712e-02 2.3497322290e+00 -4.0698556049e+00 2.3497322290e+00 4.0698556049e+00 
29200 5.4320250469e+00 -9.1864549987e-02 2.3517067547e+00 -4.0732755836e+00 2.3517067547e+00 4.0732755836e+00 
29300 5.4311037234e+00 -9.0950410874e-02 2.3536601712e+00 -4.0766590003e+00 2.3536601712e+00 4.0766590003e+00 
29400 5.4301982849e+00 -9.0037066057e-02 2.3555925412e+00 -4.0800059632e+00 2.3555925412e+00 4.0800059632e+00 
29500 5.4293086113e+00 -8.9124839975e-02 2.3575039335e+00 -4.0833165919e+00 2.3575039335e+00 4.0833165919e+00 
29600 5.4284345731e+00 -8.8214048640e-02 2.3593944232e+00 -4.0865910162e+00 2.3593944232e+00 4.0865910162e+00 
29700 5.4275760313e+00 -8.7304999481e-02 2.3612640913e+00 -4.0898293763e+00 2.3612640913e+00 4.0898293763e+00 
29800 5.4267328382e+00 -8.6397991208e-02 2.3631130243e+00 -4.0930318222e+00 2.3631130243e+00 4.0930318222e+00 
29900 5.4259048383e+00 -8.5493313691e-02 2.3649413144e+00 -4.0961985135e+00 2.3649413144e+00 4.0961985135e+00 
30000 5.4250918682e+00 -8.4591247862e-02 2.3667490590e+00 -4.0993296189e+00 2.3667490590e+00 4.0993296189e+00 
30100 5.4242937578e+00 -8.3692065635e-02 2.3685363605e+00 -4.1024253160e+00 2.3685363605e+00 4.1024253160e+00 
30200 5.4235103306e+00 -8.2796029841e-02 2.3703033265e+00 -4.1054857908e+00 2.3703033265e+00 4.1054857908e+00 
30300 5.4227414041e+00 -8.1903394187e-02 2.3720500690e+00 -4.1085112375e+00 2.3720500690e+00 4.1085112375e+00 
30400 5.4219867905e+00 -8.1014403230e-02 2.3737767046e+00 -4.1115018581e+00 2.3737767046e+00 4.1115018581e+00 
30500 5.4212462974e+00 -8.0129292363e-02 2.3754833542e+00 -4.1144578620e+00 2.3754833542e+00 4.1144578620e+00 
30600 5.4205197280e+00 -7.9248287828e-02 2.3771701429e+00 -4.1173794657e+00 2.3771701429e+00 4.1173794657e+00 
30700 5.4198068815e+00 -7.8371606733e-02 2.3788371994e+00 -4.1202668924e+00 2.3788371994e+00 4.1202668924e+00 
30800 5.4191075541e+00 -7.7499457092e-02 2.3804846566e+00 -4.1231203718e+00 2.3804846566e+00 4.1231203718e+00 
30900 5.4184215390e+00 -7.6632037878e-02 2.3821126503e+00 -4.1259401397e+00 2.3821126503e+00 4.1259401397e+00 
31000 5.4177486271e+00 -7.5769539087e-02 2.3837213202e+00 -4.1287264376e+00 2.3837213202e+00 4.1287264376e+00 
31100 5.4170886074e+00 -7.4912141815e-02 2.3853108087e+00 -4.1314795125e+00 2.3853108087e+00 4.1314795125e+00 
31200 5.4164412673e+00 -7.4060018354e-02 2.3868812614e+00 -4.1341996164e+00 2.3868812614e+00 4.1341996164e+00 
31300 5.4158063931e+00 -7.3213332290e-02 2.3884328265e+00 -4.1368870060e+00 2.3884328265e+00 4.1368870060e+00 
31400 5.4151837703e+00 -7.2372238620e-02 2.3899656550e+00 -4.1395419429e+00 2.3899656550e+00 4.1395419429e+00 
31500 5.4145731842e+00 -7.1536883870e-02 2.3914799001e+00 -4.1421646923e+00 2.3914799001e+00 4.1421646923e+00 
31600 5.4139744199e+00 -7.0707406234e-02 2.3929757173e+00 -4.1447555237e+00 2.3929757173e+00 4.1447555237e+00 
31700 5.4133872631e+00 -6.9883935712e-02 2.3944532642e+00 -4.1473147100e+00 2.3944532642e+00 4.1473147100e+00 
31800 5.4128114997e+00 -6.9066594259e-02 2.3959127003e+00 -4.1498425275e+00 2.3959127003e+00 4.1498425275e+00 
31900 5.4122469169e+00 -6.8255495944e-02 2.3973541868e+00 -4.1523392553e+00 2.3973541868e+00 4.1523392553e+00 
32000 5.4116933030e+00 -6.7450747109e-02 2.3987778865e+00 -4.1548051754e+00 2.3987778865e+00 4.1548051754e+00 
32100 5.4111504476e+00 -6.6652446544e-02 2.4001839635e+00 -4.1572405724e+00 2.4001839635e+00 4.1572405724e+00 
32200 5.4106181422e+00 -6.5860685654e-02 2.4015725835e+00 -4.1596457328e+00 2.4015725835e+00 4.1596457328e+00 
32300 5.4100961801e+00 -6.5075548643e-02 2.4029439131e+00 -4.1620209452e+00 2.4029439131e+00 4.1620209452e+00 
32400 5.4095843568e+00 -6.4297112695e-02 2.4042981198e+00 -4.1643665001e+00 2.4042981198e+00 4.1643665001e+00 
32500 5.4090824701e+00 -6.3525448157e-02 2.4056353722e+00 -4.1666826892e+00 2.4056353722e+00 4.1666826892e+00 
32600 5.4085903201e+00 -6.2760618732e-02 2.4069558395e+00 -4.1689698056e+00 2.4069558395e+00 4.1689698056e+00 
32700 5.4081077099e+00 -6.2002681667e-02 2.4082596915e+00 -4.1712281435e+00 2.4082596915e+00 4.1712281435e+00 
32800 5.4076344452e+00 -6.1251687946e-02 2.4095470984e+00 -4.1734579976e+00 2.4095470984e+00 4.1734579976e+00 
32900 5.4071703345e+00 -6.0507682485e-02 2.4108182308e+00 -4.1756596636e+00 2.4108182308e+00 4.1756596636e+00 
33000 5.4067151895e+00 -5.9770704322e-02 2.4120732597e+00 -4.1778334374e+00 2.4120732597e+00 4.1778334374e+00 
33100 5.4062688249e+00 -5.9040786817e-02 2.4133123559e+00 -4.1799796150e+00 2.4133123559e+00 4.1799796150e+00 
33200 5.4058310589e+00 -5.8317957844e-02 2.4145356906e+00 -4.1820984928e+00 2.4145356906e+00 4.1820984928e+00 
33300 5.4054017125e+00 -5.7602239981e-02 2.4157434345e+00 -4.1841903666e+00 2.4157434345e+00 4.1841903666e+00 
33400 5.4049806105e+00 -5.6893650709e-02 2.4169357585e+00 -4.1862555323e+00 2.4169357585e+00 4.1862555323e+00 
33500 5.4045675808e+00 -5.6192202601e-02 2.4181128329e+00 -4.1882942850e+00 2.4181128329e+00 4.1882942850e+00 
33600 5.4041624550e+00 -5.5497903508e-02 2.4192748279e+00 -4.1903069194e+00 2.4192748279e+00 4.1903069194e+00 
33700 5.4037650679e+00 -5.4810756752e-02 2.4204219131e+00 -4.1922937293e+00 2.4204219131e+00 4.1922937293e+00 
33800 5.4033752579e+00 -5.4130761310e-02 2.4215542576e+00 -4.1942550074e+00 2.4215542576e+00 4.1942550074e+00 
33900 5.4029928670e+00 -5.3457911993e-02 2.4226720299e+00 -4.1961910458e+00 2.4226720299e+00 4.1961910458e+00 
34000 5.4026177405e+00 -5.2792199635e-02 2.4237753977e+00 -4.1981021349e+00 2.4237753977e+00 4.1981021349e+00 
34100 5.4022497274e+00 -5.2133611259e-02 2.4248645281e+00 -4.1999885642e+00 2.4248645281e+00 4.1999885642e+00 
34200 5.4018886799e+00 -5.1482130263e-02 2.4259395874e+00 -4.2018506214e+00 2.4259395874e+00 4.2018506214e+00 
34300 5.4015344539e+00 -5.0837736581e-02 2.4270007408e+00 -4.2036885931e+00 2.4270007408e+00 4.2036885931e+00 
34400 5.4011869087e+00 -5.0200406856e-02 2.4280481527e+00 -4.2055027638e+00 2.4280481527e+00 4.2055027638e+00 
34500 5.4008459069e+00 -4.9570114604e-02 2.4290819866e+00 -4.2072934165e+00 2.4290819866e+00 4.2072934165e+00 
34600 5.4005113144e+00 -4.8946830372e-02 2.4301024047e+00 -4.2090608325e+00 2.4301024047e+00 4.2090608325e+00 
34700 5.4001830007e+00 -4.8330521894e-02 2.4311095682e+00 -4.2108052909e+00 2.4311095682e+00 4.2108052909e+00 
34800 5.3998608383e+00 -4.7721154247e-02 2.4321036372e+00 -4.2125270689e+00 2.4321036372e+00 4.2125270689e+00 
34900 5.3995447029e+00 -4.7118689996e-02 2.4330847706e+00 -4.2142264418e+00 2.4330847706e+00 4.2142264418e+00 
35000 5.3992344735e+00 -4.6523089341e-02 2.4340531260e+00 -4.2159036825e+00 2.4340531260e+00 4.2159036825e+00 
35100 5.3989300322e+00 -4.5934310255e-02 2.4350088597e+00 -4.2175590618e+00 2.4350088597e+00 4.2175590618e+00 
35200 5.3986312641e+00 -4.5352308626e-02 2.4359521268e+00 -4.2191928484e+00 2.4359521268e+00 4.2191928484e+00 
35300 5.3983380572e+00 -4.4777038381e-02 2.4368830809e+00 -4.2208053083e+00 2.4368830809e+00 4.2208053083e+00 
35400 5.3980503025e+00 -4.4208451623e-02 2.4378018745e+00 -4.2223967055e+00 2.4378018745e+00 4.2223967055e+00 
35500 5.3977678937e+00 -4.3646498750e-02 2.4387086585e+00 -4.2239673013e+00 2.4387086585e+00 4.2239673013e+00 
35600 5.3974907276e+00 -4.3091128576e-02 2.4396035822e+00 -4.2255173547e+00 2.4396035822e+00 4.2255173547e+00 
35700 5.3972187033e+00 -4.2542288449e-02 2.4404867939e+00 -4.2270471222e+00 2.4404867939e+00 4.2270471222e+00 
35800 5.3969517227e+00 -4.1999924362e-02 2.4413584401e+00 -4.2285568577e+00 2.4413584401e+00 4.2285568577e+00 
35900 5.3966896904e+00 -4.1463981062e-02 2.4422186659e+00 -4.2300468125e+00 2.4422186659e+00 4.2300468125e+00 
36000 5.3964325133e+00 -4.0934402154e-02 2.4430676149e+00 -4.2315172353e+00 2.4430676149e+00 4.2315172353e+00 
36100 5.3961801008e+00 -4.0411130200e-02 2.4439054292e+00 -4.2329683723e+00 2.4439054292e+00 4.2329683723e+00 
36200 5.3959323645e+00 -3.9894106819e-02 2.4447322494e+00 -4.2344004669e+00 2.4447322494e+00 4.2344004669e+00 
36300 5.3956892185e+00 -3.9383272778e-02 2.4455482145e+00 -4.2358137600e+00 2.4455482145e+00 4.2358137600e+00 
36400 5.3954505790e+00 -3.8878568080e-02 2.4463534621e+00 -4.2372084896e+00 2.4463534621e+00 4.2372084896e+00 
36500 5.3952163641e+00 -3.8379932052e-02 2.4471481279e+00 -4.2385848913e+00 2.4471481279e+00 4.2385848913e+00 
36600 5.3949864944e+00 -3.7887303427e-02 2.4479323465e+00 -4.2399431977e+00 2.4479323465e+00 4.2399431977e+00 
36700 5.3947608922e+00 -3.7400620421e-02 2.4487062507e+00 -4.2412836390e+00 2.4487062507e+00 4.2412836390e+00 
36800 5.3945394817e+00 -3.6919820811e-02 2.4494699716e+00 -4.2426064424e+00 2.4494699716e+00 4.2426064424e+00 
36900 5.3943221891e+00 -3.6444842004e-02 2.4502236390e+00 -4.2439118326e+00 2.4502236390e+00 4.2439118326e+00 
37000 5.3941089422e+00 -3.5975621107e-02 2.4509673810e+00 -4.2452000316e+00 2.4509673810e+00 4.2452000316e+00 
37100 5.3938996708e+00 -3.5512094994e-02 2.4517013242e+00 -4.2464712585e+00 2.4517013242e+00 4.2464712585e+00 
37200 5.3936943061e+00 -3.5054200366e-02 2.4524255935e+00 -4.2477257298e+00 2.4524255935e+00 4.2477257298e+00 
37300 5.3934927810e+00 -3.4601873814e-02 2.4531403125e+00 -4.2489636594e+00 2.4531403125e+00 4.2489636594e+00 
37400 5.3932950300e+00 -3.4155051873e-02 2.4538456030e+00 -4.2501852584e+00 2.4538456030e+00 4.2501852584e+00 
37500 5.3931009889e+00 -3.3713671076e-02 2.4545415854e+00 -4.2513907352e+00 2.4545415854e+00 4.2513907352e+00 
37600 5.3929105952e+00 -3.3277668008e-02 2.4552283785e+00 -4.2525802957e+00 2.4552283785e+00 4.2525802957e+00 
37700 5.3927237876e+00 -3.2846979350e-02 2.4559060995e+00 -4.2537541430e+00 2.4559060995e+00 4.2537541430e+00 
37800 5.3925405060e+00 -3.2421541930e-02 2.4565748643e+00 -4.2549124775e+00 2.4565748643e+00 4.2549124775e+00 
37900 5.3923606919e+00 -3.2001292763e-02 2.4572347870e+00 -4.2560554973e+00 2.4572347870e+00 4.2560554973e+00 
38000 5.3921842876e+00 -3.1586169094e-02 2.4578859805e+00 -4.2571833975e+00 2.4578859805e+00 4.2571833975e+00 
38100 5.3920112369e+00 -3.1176108437e-02 2.4585285560e+00 -4.2582963708e+00 2.4585285560e+00 4.2582963708e+00 
38200 5.3918414846e+00 -3.0771048609e-02 2.4591626232e+00 -4.2593946075e+00 2.4591626232e+00 4.2593946075e+00 
38300 5.3916749766e+00 -3.0370927767e-02 2.4597882905e+00 -4.2604782951e+00 2.4597882905e+00 4.2604782951e+00 
38400 5.3915116598e+00 -2.9975684441e-02 2.4604056648e+00 -4.2615476186e+00 2.4604056648e+00 4.2615476186e+00 
38500 5.3913514820e+00 -2.9585257561e-02 2.4610148513e+00 -4.2626027607e+00 2.4610148513e+00 4.2626027607e+00 
38600 5.3911943923e+00 -2.9199586491e-02 2.4616159542e+00 -4.2636439014e+00 2.4616159542e+00 4.2636439014e+00 
38700 5.3910403404e+00 -2.8818611048e-02 2.4622090759e+00 -4.2646712184e+00 2.4622090759e+00 4.2646712184e+00 
38800 5.3908892769e+00 -2.8442271533e-02 2.4627943177e+00 -4.2656848868e+00 2.4627943177e+00 4.2656848868e+00 
38900 5.3907411533e+00 -2.8070508753e-02 2.4633717793e+00 -4.2666850797e+00 2.4633717793e+00 4.2666850797e+00 
39000 5.3905959221e+00 -2.7703264040e-02 2.4639415591e+00 -4.2676719673e+00 2.4639415591e+00 4.2676719673e+00 
39100 5.3904535363e+00 -2.7340479272e-02 2.4645037542e+00 -4.2686457177e+00 2.4645037542e+00 4.2686457177e+00 
39200 5.3903139498e+00 -2.6982096891e-02 2.4650584603e+00 -4.2696064969e+00 2.4650584603e+00 4.2696064969e+00 
39300 5.3901771171e+00 -2.6628059923e-02 2.4656057718e+00 -4.2705544681e+00 2.4656057718e+00 4.2705544681e+00 
39400 5.3900429937e+00 -2.6278311988e-02 2.4661457817e+00 -4.2714897928e+00 2.4661457817e+00 4.2714897928e+00 
39500 5.3899115355e+00 -2.5932797318e-02 2.4666785819e+00 -4.2724126297e+00 2.4666785819e+00 4.2724126297e+00 
39600 5.3897826991e+00 -2.5591460767e-02 2.4672042628e+00 -4.2733231358e+00 2.4672042628e+00 4.2733231358e+00 
39700 5.3896564418e+00 -2.5254247826e-02 2.4677229138e+00 -4.2742214656e+00 2.4677229138e+00 4.2742214656e+00 
39800 5.3895327214e+00 -2.4921104630e-02 2.4682346228e+00 -4.2751077716e+00 2.4682346228e+00 4.2751077716e+00 
39900 5.3894114964e+00 -2.4591977967e-02 2.4687394766e+00 -4.2759822041e+00 2.4687394766e+00 4.2759822041e+00 
40000 5.3892927259e+00 -2.4266815290e-02 2.4692375608e+00 -4.2768449113e+00 2.4692375608e+00 4.2768449113e+00 
40100 5.3891763694e+00 -2.3945564721e-02 2.4697289599e+00 -4.2776960394e+00 2.4697289599e+00 4.2776960394e+00 
40200 5.3890623872e+00 -2.3628175055e-02 2.4702137570e+00 -4.2785357326e+00 2.4702137570e+00 4.2785357326e+00 
40300 5.3889507397e+00 -2.3314595770e-02 2.4706920341e+00 -4.2793641330e+00 2.4706920341e+00 4.2793641330e+00 
40400 5.3888413882e+00 -2.3004777027e-02 2.4711638723e+00 -4.2801813807e+00 2.4711638723e+00 4.2801813807e+00 
40500 5.3887342943e+00 -2.2698669678e-02 2.4716293514e+00 -4.2809876141e+00 2.4716293514e+00 4.2809876141e+00 
40600 5.3886294202e+00 -2.2396225260e-02 2.4720885499e+00 -4.2817829693e+00 2.4720885499e+00 4.2817829693e+00 
40700 5.3885267285e+00 -2.2097396008e-02 2.4725415456e+00 -4.2825675808e+00 2.4725415456e+00 4.2825675808e+00 
40800 5.3884261822e+00 -2.1802134845e-02 2.4729884150e+00 -4.2833415813e+00 2.4729884150e+00 4.2833415813e+00 
40900 5.3883277449e+00 -2.1510395390e-02 2.4734292335e+00 -4.2841051014e+00 2.4734292335e+00 4.2841051014e+00 
41000 5.3882313806e+00 -2.1222131954e-02 2.4738640757e+00 -4.2848582701e+00 2.4738640757e+00 4.2848582701e+00 
41100 5.3881370535e+00 -2.0937299539e-02 2.4742930148e+00 -4.2856012145e+00 2.4742930148e+00 4.2856012145e+00 
41200 5.3880447287e+00 -2.0655853837e-02 2.4747161235e+00 -4.2863340602e+00 2.4747161235e+00 4.2863340602e+00 
41300 5.3879543713e+00 -2.0377751227e-02 2.4751334731e+00 -4.2870569309e+00 2.4751334731e+00 4.2870569309e+00 
41400 5.3878659469e+00 -2.0102948773e-02 2.4755451340e+00 -4.2877699486e+00 2.4755451340e+00 4.2877699486e+00 
41500 5.3877794217e+00 -1.9831404219e-02 2.4759511759e+00 -4.2884732337e+00 2.4759511759e+00 4.2884732337e+00 
41600 5.3876947622e+00 -1.9563075987e-02 2.4763516672e+00 -4.2891669050e+00 2.4763516672e+00 4.2891669050e+00 
41700 5.3876119352e+00 -1.9297923173e-02 2.4767466756e+00 -4.2898510797e+00 2.4767466756e+00 4.2898510797e+00 
41800 5.3875309079e+00 -1.9035905538e-02 2.4771362679e+00 -4.2905258733e+00 2.4771362679e+00 4.2905258733e+00 
41900 5.3874516481e+00 -1.8776983506e-02 2.4775205100e+00 -4.2911914001e+00 2.4775205100e+00 4.2911914001e+00 
42000 5.3873741238e+00 -1.8521118161e-02 2.4778994667e+00 -4.2918477724e+00 2.4778994667e+00 4.2918477724e+00 
42100 5.3872983034e+00 -1.8268271235e-02 2.4782732023e+00 -4.2924951014e+00 2.4782732023e+00 4.2924951014e+00 
42200 5.3872241558e+00 -1.8018405105e-02 2.4786417800e+00 -4.2931334967e+00 2.4786417800e+00 4.2931334967e+00 
42300 5.3871516501e+00 -1.7771482786e-02 2.4790052622e+00 -4.2937630664e+00 2.4790052622e+00 4.2937630664e+00 
42400 5.3870807560e+00 -1.7527467925e-02 2.4793637106e+00 -4.2943839173e+00 2.4793637106e+00 4.2943839173e+00 
42500 5.3870114433e+00 -1.7286324790e-02 2.4797171861e+00 -4.2949961547e+00 2.4797171861e+00 4.2949961547e+00 
42600 5.3869436824e+00 -1.7048018269e-02 2.4800657486e+00 -4.2955998827e+00 2.4800657486e+00 4.2955998827e+00 
42700 5.3868774440e+00 -1.6812513854e-02 2.4804094575e+00 -4.2961952040e+00 2.4804094575e+00 4.2961952040e+00 
42800 5.3868126992e+00 -1.6579777640e-02 2.4807483712e+00 -4.2967822198e+00 2.4807483712e+00 4.2967822198e+00 
42900 5.3867494193e+00 -1.6349776312e-02 2.4810825476e+00 -4.2973610302e+00 2.4810825476e+00 4.2973610302e+00 
43000 5.3866875762e+00 -1.6122477141e-02 2.4814120437e+00 -4.2979317341e+00 2.4814120437e+00 4.2979317341e+00 
43100 5.3866271421e+00 -1.5897847970e-02 2.4817369157e+00 -4.2984944290e+00 2.4817369157e+00 4.2984944290e+00 
43200 5.3865680896e+00 -1.5675857212e-02 2.4820572194e+00 -4.2990492113e+00 2.4820572194e+00 4.2990492113e+00 
43300 5.3865103914e+00 -1.5456473833e-02 2.4823730097e+00 -4.2995961761e+00 2.4823730097e+00 4.2995961761e+00 
43400 5.3864540209e+00 -1.5239667350e-02 2.4826843407e+00 -4.3001354173e+00 2.4826843407e+00 4.3001354173e+00 
43500 5.3863989517e+00 -1.5025407819e-02 2.4829912662e+00 -4.3006670278e+00 2.4829912662e+00 4.3006670278e+00 
43600 5.3863451578e+00 -1.4813665825e-02 2.4832938390e+00 -4.3011910993e+00 2.4832938390e+00 4.3011910993e+00 
43700 5.3862926135e+00 -1.4604412474e-02 2.4835921115e+00 -4.3017077223e+00 2.4835921115e+00 4.3017077223e+00 
43800 5.3862412937e+00 -1.4397619383e-02 2.4838861352e+00 -4.3022169864e+00 2.4838861352e+00 4.3022169864e+00 
43900 5.3861911733e+00 -1.4193258672e-02 2.4841759613e+00 -4.3027189799e+00 2.4841759613e+00 4.3027189799e+00 
44000 5.3861422278e+00 -1.3991302950e-02 2.4844616401e+00 -4.3032137901e+00 2.4844616401e+00 4.3032137901e+00 
44100 5.3860944330e+00 -1.3791725312e-02 2.4847432216e+00 -4.3037015035e+00 2.4847432216e+00 4.3037015035e+00 
44200 5.3860477651e+00 -1.3594499324e-02 2.4850207549e+00 -4.3041822054e+00 2.4850207549e+00 4.3041822054e+00 
44300 5.3860022006e+00 -1.3399599016e-02 2.4852942888e+00 -4.3046559800e+00 2.4852942888e+00 4.3046559800e+00 
44400 5.3859577164e+00 -1.3206998872e-02 2.4855638714e+00 -4.3051229108e+00 2.4855638714e+00 4.3051229108e+00 
44500 5.3859142896e+00 -1.3016673820e-02 2.4858295503e+00 -4.3055830800e+00 2.4858295503e+00 4.3055830800e+00 
44600 5.3858718980e+00 -1.2828599222e-02 2.4860913724e+00 -4.3060365692e+00 2.4860913724e+00 4.3060365692e+00 
44700 5.3858305193e+00 -1.2642750866e-02 2.4863493842e+00 -4.3064834588e+00 2.4863493842e+00 4.3064834588e+00 
44800 5.3857901319e+00 -1.2459104955e-02 2.4866036318e+00 -4.3069238286e+00 2.4866036318e+00 4.3069238286e+00 
44900 5.3857507145e+00 -1.2277638098e-02 2.4868541605e+00 -4.3073577571e+00 2.4868541605e+00 4.3073577571e+00 
45000 5.3857122460e+00 -1.2098327300e-02 2.4871010154e+00 -4.3077853223e+00 2.4871010154e+00 4.3077853223e+00 
45100 5.3856747058e+00 -1.1921149953e-02 2.4873442409e+00 -4.3082066011e+00 2.4873442409e+00 4.3082066011e+00 
45200 5.3856380735e+00 -1.1746083828e-02 2.4875838808e+00 -4.3086216697e+00 2.4875838808e+00 4.3086216697e+00 
45300 5.3856023291e+00 -1.1573107062e-02 2.4878199788e+00 -4.3090306033e+00 2.4878199788e+00 4.3090306033e+00 
45400 5.3855674531e+00 -1.1402198155e-02 2.4880525777e+00 -4.3094334766e+00 2.4880525777e+00 4.3094334766e+00 
45500 5.3855334261e+00 -1.1233335953e-02 2.4882817203e+00 -4.3098303631e+00 2.4882817203e+00 4.3098303631e+00 
45600 5.3855002292e+00 -1.1066499645e-02 2.4885074484e+00 -4.3102213357e+00 2.4885074484e+00 4.3102213357e+00 
45700 5.3854678438e+00 -1.0901668752e-02 2.4887298039e+00 -4.3106064667e+00 2.4887298039e+00 4.3106064667e+00 
45800 5.3854362515e+00 -1.0738823118e-02 2.4889488279e+00 -4.3109858273e+00 2.4889488279e+00 4.3109858273e+00 
45900 5.3854054344e+00 -1.0577942902e-02 2.4891645611e+00 -4.3113594882e+00 2.4891645611e+00 4.3113594882e+00 
46000 5.3853753749e+00 -1.0419008567e-02 2.4893770439e+00 -4.3117275192e+00 2.4893770439e+00 4.3117275192e+00 
46100 5.3853460556e+00 -1.0262000876e-02 2.4895863162e+00 -4.3120899895e+00 2.4895863162e+00 4.3120899895e+00 
46200 5.3853174596e+00 -1.0106900878e-02 2.4897924176e+00 -4.3124469675e+00 2.4897924176e+00 4.3124469675e+00 
46300 5.3852895703e+00 -9.9536899054e-03 2.4899953870e+00 -4.3127985210e+00 2.4899953870e+00 4.3127985210e+00 
46400 5.3852623712e+00 -9.8023495603e-03 2.4901952634e+00 -4.3131447169e+00 2.4901952634e+00 4.3131447169e+00 
46500 5.3852358463e+00 -9.6528617109e-03 2.4903920849e+00 -4.3134856218e+00 2.4903920849e+00 4.3134856218e+00 
46600 5.3852099799e+00 -9.5052084813e-03 2.4905858894e+00 -4.3138213011e+00 2.4905858894e+00 4.3138213011e+00 
46700 5.3851847567e+00 -9.3593722443e-03 2.4907767146e+00 -4.3141518200e+00 2.4907767146e+00 4.3141518200e+00 
46800 5.3851601614e+00 -9.2153356137e-03 2.4909645976e+00 -4.3144772428e+00 2.4909645976e+00 4.3144772428e+00 
46900 5.3851361793e+00 -9.0730814370e-03 2.4911495751e+00 -4.3147976333e+00 2.4911495751e+00 4.3147976333e+00 
47000 5.3851127958e+00 -8.9325927878e-03 2.4913316836e+00 -4.3151130546e+00 2.4913316836e+00 4.3151130546e+00 
47100 5.3850899968e+00 -8.7938529584e-03 2.4915109592e+00 -4.3154235690e+00 2.4915109592e+00 4.3154235690e+00 
47200 5.3850677683e+00 -8.6568454535e-03 2.4916874376e+00 -4.3157292385e+00 2.4916874376e+00 4.3157292385e+00 
47300 5.3850460967e+00 -8.5215539825e-03 2.4918611542e+00 -4.3160301244e+00 2.4918611542e+00 4.3160301244e+00 
47400 5.3850249686e+00 -8.3879624532e-03 2.4920321438e+00 -4.3163262872e+00 2.4920321438e+00 4.3163262872e+00 
47500 5.3850043710e+00 -8.2560549648e-03 2.4922004414e+00 -4.3166177871e+00 2.4922004414e+00 4.3166177871e+00 
47600 5.3849842910e+00 -8.1258158020e-03 2.4923660811e+00 -4.3169046835e+00 2.4923660811e+00 4.3169046835e+00 
47700 5.3849647161e+00 -7.9972294282e-03 2.4925290969e+00 -4.3171870352e+00 2.4925290969e+00 4.3171870352e+00 
47800 5.3849456341e+00 -7.8702804796e-03 2.4926895227e+00 -4.3174649007e+00 2.4926895227e+00 4.3174649007e+00 
47900 5.3849270330e+00 -7.7449537592e-03 2.4928473916e+00 -4.3177383377e+00 2.4928473916e+00 4.3177383377e+00 
48000 5.3849089009e+00 -7.6212342308e-03 2.4930027367e+00 -4.3180074034e+00 2.4930027367e+00 4.3180074034e+00 
48100 5.3848912266e+00 -7.4991070137e-03 2.4931555908e+00 -4.3182721544e+00 2.4931555908e+00 4.3182721544e+00 
48200 5.3848739987e+00 -7.3785573766e-03 2.4933059862e+00 -4.3185326468e+00 2.4933059862e+00 4.3185326468e+00 
48300 5.3848572062e+00 -7.2595707329e-03 2.4934539550e+00 -4.3187889363e+00 2.4934539550e+00 4.3187889363e+00 
48400 5.3848408385e+00 -7.1421326349e-03 2.4935995290e+00 -4.3190410779e+00 2.4935995290e+00 4.3190410779e+00 
48500 5.3848248850e+00 -7.0262287693e-03 2.4937427396e+00 -4.3192891260e+00 2.4937427396e+00 4.3192891260e+00 
48600 5.3848093356e+00 -6.9118449518e-03 2.4938836181e+00 -4.3195331348e+00 2.4938836181e+00 4.3195331348e+00 
48700 5.3847941801e+00 -6.7989671228e-03 2.4940221954e+00 -4.3197731576e+00 2.4940221954e+00 4.3197731576e+00 
48800 5.3847794088e+00 -6.6875813425e-03 2.4941585019e+00 -4.3200092473e+00 2.4941585019e+00 4.3200092473e+00 
48900 5.3847650122e+00 -6.5776737866e-03 2.4942925679e+00 -4.3202414566e+00 2.4942925679e+00 4.3202414566e+00 
49000 5.3847509809e+00 -6.4692307422e-03 2.4944244236e+00 -4.3204698373e+00 2.4944244236e+00 4.3204698373e+00 
49100 5.3847373057e+00 -6.3622386033e-03 2.4945540985e+00 -4.3206944409e+00 2.4945540985e+00 4.3206944409e+00 
49200 5.3847239779e+00 -6.2566838672e-03 2.4946816222e+00 -4.3209153183e+00 2.4946816222e+00 4.3209153183e+00 
49300 5.3847109886e+00 -6.1525531305e-03 2.4948070237e+00 -4.3211325201e+00 2.4948070237e+00 4.3211325201e+00 
49400 5.3846983294e+00 -6.0498330854e-03 2.4949303319e+00 -4.3213460962e+00 2.4949303319e+00 4.3213460962e+00 
49500 5.3846859921e+00 -5.9485105162e-03 2.4950515754e+00 -4.3215560961e+00 2.4950515754e+00 4.3215560961e+00 
49600 5.3846739684e+00 -5.8485722961e-03 2.4951707825e+00 -4.3217625689e+00 2.4951707825e+00 4.3217625689e+00 
49700 5.3846622505e+00 -5.7500053838e-03 2.4952879813e+00 -4.3219655631e+00 2.4952879813e+00 4.3219655631e+00 
49800 5.3846508308e+00 -5.6527968203e-03 2.4954031994e+00 -4.3221651268e+00 2.4954031994e+00 4.3221651268e+00 
49900 5.3846397017e+00 -5.5569337263e-03 2.4955164645e+00 -4.3223613076e+00 2.4955164645e+00 4.3223613076e+00 
50000 5.3846288558e+00 -5.4624032989e-03 2.4956278037e+00 -4.3225541527e+00 2.4956278037e+00 4.3225541527e+00 
50100 5.3846182860e+00 -5.3691928095e-03 2.4957372439e+00 -4.3227437088e+00 2.4957372439e+00 4.3227437088e+00 
50200 5.3846079853e+00 -5.2772896007e-03 2.4958448120e+00 -4.3229300221e+00 2.4958448120e+00 4.3229300221e+00 
50300 5.3845979469e+00 -5.1866810842e-03 2.4959505342e+00 -4.3231131384e+00 2.4959505342e+00 4.3231131384e+00 
50400 5.3845881642e+00 -5.0973547384e-03 2.4960544369e+00 -4.3232931031e+00 2.4960544369e+00 4.3232931031e+00 
50500 5.3845786307e+00 -5.0092981066e-03 2.4961565458e+00 -4.3234699610e+00 2.4961565458e+00 4.3234699610e+00 
50600 5.3845693400e+00 -4.9224987942e-03 2.4962568867e+00 -4.3236437565e+00 2.4962568867e+00 4.3236437565e+00 
50700 5.3845602860e+00 -4.8369444676e-03 2.4963554849e+00 -4.3238145337e+00 2.4963554849e+00 4.3238145337e+00 
50800 5.3845514628e+00 -4.7526228518e-03 2.4964523657e+00 -4.3239823361e+00 2.4964523657e+00 4.3239823361e+00 
50900 5.3845428644e+00 -4.6695217293e-03 2.4965475538e+00 -4.3241472068e+00 2.4965475538e+00 4.3241472068e+00 
51000 5.3845344851e+00 -4.5876289380e-03 2.4966410740e+00 -4.3243091884e+00 2.4966410740e+00 4.3243091884e+00 
51100 5.3845263194e+00 -4.5069323701e-03 2.4967329506e+00 -4.3244683233e+00 2.4967329506e+00 4.3244683233e+00 
51200 5.3845183619e+00 -4.4274199705e-03 2.4968232077e+00 -4.3246246533e+00 2.4968232077e+00 4.3246246533e+00 
51300 5.3845106072e+00 -4.3490797359e-03 2.4969118693e+00 -4.3247782197e+00 2.4969118693e+00 4.3247782197e+00 
51400 5.3845030503e+00 -4.2718997135e-03 2.4969989590e+00 -4.3249290634e+00 2.4969989590e+00 4.3249290634e+00 
51500 5.3844956860e+00 -4.1958679999e-03 2.4970845002e+00 -4.3250772251e+00 2.4970845002e+00 4.3250772251e+00 
51600 5.3844885096e+00 -4.1209727403e-03 2.4971685160e+00 -4.3252227447e+00 2.4971685160e+00 4.3252227447e+00 
51700 5.3844815162e+00 -4.0472021276e-03 2.4972510293e+00 -4.3253656621e+00 2.4972510293e+00 4.3253656621e+00 
51800 5.3844747011e+00 -3.9745444017e-03 2.4973320629e+00 -4.3255060163e+00 2.4973320629e+00 4.3255060163e+00 
51900 5.3844680600e+00 -3.9029878490e-03 2.4974116391e+00 -4.3256438464e+00 2.4974116391e+00 4.3256438464e+00 
52000 5.3844615883e+00 -3.8325208014e-03 2.4974897802e+00 -4.3257791907e+00 2.4974897802e+00 4.3257791907e+00 
52100 5.3844552817e+00 -3.7631316363e-03 2.4975665081e+00 -4.3259120872e+00 2.4975665081e+00 4.3259120872e+00 
52200 5.3844491361e+00 -3.6948087763e-03 2.4976418444e+00 -4.3260425736e+00 2.4976418444e+00 4.3260425736e+00 
52300 5.3844431475e+00 -3.6275406882e-03 2.4977158107e+00 -4.3261706870e+00 2.4977158107e+00 4.3261706870e+00 
52400 5.3844373117e+00 -3.5613158834e-03 2.4977884282e+00 -4.3262964643e+00 2.4977884282e+00 4.3262964643e+00 
52500 5.3844316250e+00 -3.4961229177e-03 2.4978597180e+00 -4.3264199417e+00 2.4978597180e+00 4.3264199417e+00 
52600 5.3844260835e+00 -3.4319503907e-03 2.4979297006e+00 -4.3265411553e+00 2.4979297006e+00 4.3265411553e+00 
52700 5.3844206837e+00 -3.3687869466e-03 2.4979983969e+00 -4.3266601406e+00 2.4979983969e+00 4.3266601406e+00 
52800 5.3844154219e+00 -3.3066212734e-03 2.4980658269e+00 -4.3267769328e+00 2.4980658269e+00 4.3267769328e+00 
52900 5.3844102946e+00 -3.2454421036e-03 2.4981320108e+00 -4.3268915667e+00 2.4981320108e+00 4.3268915667e+00 
53000 5.3844052985e+00 -3.1852382143e-03 2.4981969685e+00 -4.3270040767e+00 2.4981969685e+00 4.3270040767e+00 
53100 5.3844004302e+00 -3.1259984270e-03 2.4982607195e+00 -4.3271144967e+00 2.4982607195e+00 4.3271144967e+00 
53200 5.3843956865e+00 -3.0677116086e-03 2.4983232832e+00 -4.3272228603e+00 2.4983232832e+00 4.3272228603e+00 
53300 5.3843910643e+00 -3.0103666709e-03 2.4983846789e+00 -4.3273292007e+00 2.4983846789e+00 4.3273292007e+00 
53400 5.3843865606e+00 -2.9539525718e-03 2.4984449254e+00 -4.3274335507e+00 2.4984449254e+00 4.3274335507e+00 
53500 5.3843821722e+00 -2.8984583152e-03 2.4985040415e+00 -4.3275359427e+00 2.4985040415e+00 4.3275359427e+00 
53600 5.3843778964e+00 -2.8438729516e-03 2.4985620456e+00 -4.3276364088e+00 2.4985620456e+00 4.3276364088e+00 
53700 5.3843737303e+00 -2.7901855788e-03 2.4986189560e+00 -4.3277349805e+00 2.4986189560e+00 4.3277349805e+00 
53800 5.3843696712e+00 -2.7373853422e-03 2.4986747907e+00 -4.3278316891e+00 2.4986747907e+00 4.3278316891e+00 
53900 5.3843657164e+00 -2.6854614358e-03 2.4987295677e+00 -4.3279265656e+00 2.4987295677e+00 4.3279265656e+00 
54000 5.3843618632e+00 -2.6344031021e-03 2.4987833044e+00 -4.3280196403e+00 2.4987833044e+00 4.3280196403e+00 
54100 5.3843581092e+00 -2.5841996336e-03 2.4988360183e+00 -4.3281109435e+00 2.4988360183e+00 4.3281109435e+00 
54200 5.3843544518e+00 -2.5348403731e-03 2.4988877266e+00 -4.3282005048e+00 2.4988877266e+00 4.3282005048e+00 
54300 5.3843508886e+00 -2.4863147143e-03 2.4989384461e+00 -4.3282883536e+00 2.4989384461e+00 4.3282883536e+00 
54400 5.3843474173e+00 -2.4386121028e-03 2.4989881937e+00 -4.3283745190e+00 2.4989881937e+00 4.3283745190e+00 
54500 5.3843440356e+00 -2.3917220367e-03 2.4990369858e+00 -4.3284590294e+00 2.4990369858e+00 4.3284590294e+00 
54600 5.3843407413e+00 -2.3456340678e-03 2.4990848389e+00 -4.3285419133e+00 2.4990848389e+00 4.3285419133e+00 
54700 5.3843375321e+00 -2.3003378016e-03 2.4991317689e+00 -4.3286231985e+00 2.4991317689e+00 4.3286231985e+00 
54800 5.3843344060e+00 -2.2558228989e-03 2.4991777917e+00 -4.3287029124e+00 2.4991777917e+00 4.3287029124e+00 
54900 5.3843313609e+00 -2.2120790764e-03 2.4992229232e+00 -4.3287810824e+00 2.4992229232e+00 4.3287810824e+00 
55000 5.3843283947e+00 -2.1690961075e-03 2.4992671786e+00 -4.3288577351e+00 2.4992671786e+00 4.3288577351e+00 
55100 5.3843255056e+00 -2.1268638230e-03 2.4993105734e+00 -4.3289328970e+00 2.4993105734e+00 4.3289328970e+00 
55200 5.3843226916e+00 -2.0853721125e-03 2.4993531225e+00 -4.3290065943e+00 2.4993531225e+00 4.3290065943e+00 
55300 5.3843199508e+00 -2.0446109247e-03 2.4993948409e+00 -4.3290788526e+00 2.4993948409e+00 4.3290788526e+00 
55400 5.3843172814e+00 -2.0045702686e-03 2.4994357431e+00 -4.3291496974e+00 2.4994357431e+00 4.3291496974e+00 
55500 5.3843146818e+00 -1.9652402146e-03 2.4994758437e+00 -4.3292191536e+00 2.4994758437e+00 4.3292191536e+00 
55600 5.3843121500e+00 -1.9266108947e-03 2.4995151568e+00 -4.3292872459e+00 2.4995151568e+00 4.3292872459e+00 
55700 5.3843096845e+00 -1.8886725043e-03 2.4995536966e+00 -4.3293539988e+00 2.4995536966e+00 4.3293539988e+00 
55800 5.3843072836e+00 -1.8514153023e-03 2.4995914769e+00 -4.3294194362e+00 2.4995914769e+00 4.3294194362e+00 
55900 5.3843049458e+00 -1.8148296126e-03 2.4996285114e+00 -4.3294835817e+00 2.4996285114e+00 4.3294835817e+00 
56000 5.3843026694e+00 -1.7789058245e-03 2.4996648134e+00 -4.3295464588e+00 2.4996648134e+00 4.3295464588e+00 
56100 5.3843004530e+00 -1.7436343938e-03 2.4997003964e+00 -4.3296080903e+00 2.4997003964e+00 4.3296080903e+00 
56200 5.3842982950e+00 -1.7090058439e-03 2.4997352734e+00 -4.3296684989e+00 2.4997352734e+00 4.3296684989e+00 
56300 5.3842961941e+00 -1.6750107663e-03 2.4997694572e+00 -4.3297277070e+00 2.4997694572e+00 4.3297277070e+00 
56400 5.3842941488e+00 -1.6416398216e-03 2.4998029606e+00 -4.3297857366e+00 2.4998029606e+00 4.3297857366e+00 
56500 5.3842921577e+00 -1.6088837403e-03 2.4998357960e+00 -4.3298426093e+00 2.4998357960e+00 4.3298426093e+00 
56600 5.3842902196e+00 -1.5767333237e-03 2.4998679759e+00 -4.3298983464e+00 2.4998679759e+00 4.3298983464e+00 
56700 5.3842883330e+00 -1.5451794448e-03 2.4998995123e+00 -4.3299529691e+00 2.4998995123e+00 4.3299529691e+00 
56800 5.3842864969e+00 -1.5142130489e-03 2.4999304172e+00 -4.3300064979e+00 2.4999304172e+00 4.3300064979e+00 
56900 5.3842847098e+00 -1.4838251544e-03 2.4999607023e+00 -4.3300589534e+00 2.4999607023e+00 4.3300589534e+00 
57000 5.3842829706e+00 -1.4540068539e-03 2.4999903794e+00 -4.3301103555e+00 2.4999903794e+00 4.3301103555e+00 
57100 5.3842812781e+00 -1.4247493144e-03 2.5000194597e+00 -4.3301607241e+00 2.5000194597e+00 4.3301607241e+00 
57200 5.3842796313e+00 -1.3960437785e-03 2.5000479545e+00 -4.3302100785e+00 2.5000479545e+00 4.3302100785e+00 
57300 5.3842780288e+00 -1.3678815651e-03 2.5000758749e+00 -4.3302584381e+00 2.5000758749e+00 4.3302584381e+00 
57400 5.3842764697e+00 -1.3402540695e-03 2.5001032317e+00 -4.3303058215e+00 2.5001032317e+00 4.3303058215e+00 
57500 5.3842749529e+00 -1.3131527649e-03 2.5001300358e+00 -4.3303522474e+00 2.5001300358e+00 4.3303522474e+00 
57600 5.3842734774e+00 -1.2865692026e-03 2.5001562975e+00 -4.3303977341e+00 2.5001562975e+00 4.3303977341e+00 
57700 5.3842720421e+00 -1.2604950126e-03 2.5001820273e+00 -4.3304422995e+00 2.5001820273e+00 4.3304422995e+00 
57800 5.3842706460e+00 -1.2349219042e-03 2.5002072354e+00 -4.3304859612e+00 2.5002072354e+00 4.3304859612e+00 
57900 5.3842692882e+00 -1.2098416668e-03 2.5002319318e+00 -4.3305287367e+00 2.5002319318e+00 4.3305287367e+00 
58000 5.3842679677e+00 -1.1852461704e-03 2.5002561265e+00 -4.3305706430e+00 2.5002561265e+00 4.3305706430e+00 
58100 5.3842666837e+00 -1.1611273658e-03 2.5002798290e+00 -4.3306116970e+00 2.5002798290e+00 4.3306116970e+00 
58200 5.3842654351e+00 -1.1374772855e-03 2.5003030490e+00 -4.3306519152e+00 2.5003030490e+00 4.3306519152e+00 
58300 5.3842642212e+00 -1.1142880440e-03 2.5003257958e+00 -4.3306913138e+00 2.5003257958e+00 4.3306913138e+00 
58400 5.3842630411e+00 -1.0915518383e-03 2.5003480787e+00 -4.3307299089e+00 2.5003480787e+00 4.3307299089e+00 
58500 5.3842618940e+00 -1.0692609482e-03 2.5003699067e+00 -4.3307677162e+00 2.5003699067e+00 4.3307677162e+00 
58600 5.3842607790e+00 -1.0474077368e-03 2.5003912888e+00 -4.3308047510e+00 2.5003912888e+00 4.3308047510e+00 
58700 5.3842596953e+00 -1.0259846510e-03 2.5004122337e+00 -4.3308410287e+00 2.5004122337e+00 4.3308410287e+00 
58800 5.3842586422e+00 -1.0049842214e-03 2.5004327501e+00 -4.3308765640e+00 2.5004327501e+00 4.3308765640e+00 
58900 5.3842576189e+00 -9.8439906323e-04 2.5004528463e+00 -4.3309113717e+00 2.5004528463e+00 4.3309113717e+00 
59000 5.3842566247e+00 -9.6422187605e-04 2.5004725307e+00 -4.3309454662e+00 2.5004725307e+00 4.3309454662e+00 
59100 5.3842556589e+00 -9.4444544437e-04 2.5004918116e+00 -4.3309788615e+00 2.5004918116e+00 4.3309788615e+00 
59200 5.3842547207e+00 -9.2506263774e-04 2.5005106968e+00 -4.3310115717e+00 2.5005106968e+00 4.3310115717e+00 
59300 5.3842538094e+00 -9.0606641098e-04 2.5005291943e+00 -4.3310436103e+00 2.5005291943e+00 4.3310436103e+00 
59400 5.3842529245e+00 -8.8744980432e-04 2.5005473118e+00 -4.3310749907e+00 2.5005473118e+00 4.3310749907e+00 
59500 5.3842520652e+00 -8.6920594356e-04 2.5005650569e+00 -4.3311057262e+00 2.5005650569e+00 4.3311057262e+00 
59600 5.3842512309e+00 -8.5132804019e-04 2.5005824371e+00 -4.3311358296e+00 2.5005824371e+00 4.3311358296e+00 
59700 5.3842504210e+00 -8.3380939144e-04 2.5005994597e+00 -4.3311653136e+00 2.5005994597e+00 4.3311653136e+00 
59800 5.3842496348e+00 -8.1664338037e-04 2.5006161319e+00 -4.3311941908e+00 2.5006161319e+00 4.3311941908e+00 
59900 5.3842488719e+00 -7.9982347589e-04 2.5006324608e+00 -4.3312224732e+00 2.5006324608e+00 4.3312224732e+00 
60000 5.3842481315e+00 -7.8334323273e-04 2.5006484532e+00 -4.3312501729e+00 2.5006484532e+00 4.3312501729e+00 
60100 5.3842474131e+00 -7.6719629143e-04 2.5006641161e+00 -4.3312773017e+00 2.5006641161e+00 4.3312773017e+00 
60200 5.3842467163e+00 -7.5137637829e-04 2.5006794559e+00 -4.3313038711e+00 2.5006794559e+00 4.3313038711e+00 
60300 5.3842460403e+00 -7.3587730528e-04 2.5006944794e+00 -4.3313298925e+00 2.5006944794e+00 4.3313298925e+00 
60400 5.3842453848e+00 -7.2069296992e-04 2.5007091929e+00 -4.3313553770e+00 2.5007091929e+00 4.3313553770e+00 
60500 5.3842447492e+00 -7.0581735513e-04 2.5007236027e+00 -4.3313803355e+00 2.5007236027e+00 4.3313803355e+00 
60600 5.3842441329e+00 -6.9124452908e-04 2.5007377149e+00 -4.3314047787e+00 2.5007377149e+00 4.3314047787e+00 
60700 5.3842435356e+00 -6.7696864501e-04 2.5007515358e+00 -4.3314287170e+00 2.5007515358e+00 4.3314287170e+00 
60800 5.3842429567e+00 -6.6298394098e-04 2.5007650711e+00 -4.3314521609e+00 2.5007650711e+00 4.3314521609e+00 
60900 5.3842423958e+00 -6.4928473965e-04 2.5007783267e+00 -4.3314751203e+00 2.5007783267e+00 4.3314751203e+00 
61000 5.3842418523e+00 -6.3586544799e-04 2.5007913084e+00 -4.3314976052e+00 2.5007913084e+00 4.3314976052e+00 
61100 5.3842413259e+00 -6.2272055699e-04 2.5008040217e+00 -4.3315196253e+00 2.5008040217e+00 4.3315196253e+00 
61200 5.3842408161e+00 -6.0984464136e-04 2.5008164721e+00 -4.3315411900e+00 2.5008164721e+00 4.3315411900e+00 
61300 5.3842403225e+00 -5.9723235916e-04 2.5008286650e+00 -4.3315623088e+00 2.5008286650e+00 4.3315623088e+00 
61400 5.3842398447e+00 -5.8487845145e-04 2.5008406057e+00 -4.3315829907e+00 2.5008406057e+00 4.3315829907e+00 
61500 5.3842393823e+00 -5.7277774189e-04 2.5008522993e+00 -4.3316032447e+00 2.5008522993e+00 4.3316032447e+00 
61600 5.3842389348e+00 -5.6092513634e-04 2.5008637510e+00 -4.3316230796e+00 2.5008637510e+00 4.3316230796e+00 
61700 5.3842385020e+00 -5.4931562239e-04 2.5008749656e+00 -4.3316425039e+00 2.5008749656e+00 4.3316425039e+00 
61800 5.3842380833e+00 -5.3794426895e-04 2.5008859481e+00 -4.3316615261e+00 2.5008859481e+00 4.3316615261e+00 
61900 5.3842376785e+00 -5.2680622574e-04 2.5008967032e+00 -4.3316801544e+00 2.5008967032e+00 4.3316801544e+00 
62000 5.3842372872e+00 -5.1589672278e-04 2.5009072356e+00 -4.3316983970e+00 2.5009072356e+00 4.3316983970e+00 
62100 5.3842369091e+00 -5.0521106993e-04 2.5009175498e+00 -4.3317162617e+00 2.5009175498e+00 4.3317162617e+00 
62200 5.3842365437e+00 -4.9474465628e-04 2.5009276503e+00 -4.3317337563e+00 2.5009276503e+00 4.3317337563e+00 
62300 5.3842361908e+00 -4.8449294961e-04 2.5009375415e+00 -4.3317508884e+00 2.5009375415e+00 4.3317508884e+00 
62400 5.3842358500e+00 -4.7445149586e-04 2.5009472277e+00 -4.3317676655e+00 2.5009472277e+00 4.3317676655e+00 
62500 5.3842355210e+00 -4.6461591847e-04 2.5009567132e+00 -4.3317840948e+00 2.5009567132e+00 4.3317840948e+00 
62600 5.3842352035e+00 -4.5498191780e-04 2.5009660019e+00 -4.3318001834e+00 2.5009660019e+00 4.3318001834e+00 
62700 5.3842348973e+00 -4.4554527051e-04 2.5009750981e+00 -4.3318159383e+00 2.5009750981e+00 4.3318159383e+00 
62800 5.3842346019e+00 -4.3630182889e-04 2.5009840055e+00 -4.3318313665e+00 2.5009840055e+00 4.3318313665e+00 
62900 5.3842343172e+00 -4.2724752022e-04 2.5009927281e+00 -4.3318464745e+00 2.5009927281e+00 4.3318464745e+00 
63000 5.3842340427e+00 -4.1837834607e-04 2.5010012697e+00 -4.3318612689e+00 2.5010012697e+00 4.3318612689e+00 
63100 5.3842337784e+00 -4.0969038163e-04 2.5010096339e+00 -4.3318757561e+00 2.5010096339e+00 4.3318757561e+00 
63200 5.3842335238e+00 -4.0117977499e-04 2.5010178244e+00 -4.3318899425e+00 2.5010178244e+00 4.3318899425e+00 
63300 5.3842332787e+00 -3.9284274645e-04 2.5010258447e+00 -4.3319038341e+00 2.5010258447e+00 4.3319038341e+00 
63400 5.3842330429e+00 -3.8467558775e-04 2.5010336984e+00 -4.3319174370e+00 2.5010336984e+00 4.3319174370e+00 
63500 5.3842328162e+00 -3.7667466135e-04 2.5010413887e+00 -4.3319307571e+00 2.5010413887e+00 4.3319307571e+00 
63600 5.3842325982e+00 -3.6883639966e-04 2.5010489191e+00 -4.3319438001e+00 2.5010489191e+00 4.3319438001e+00 
63700 5.3842323887e+00 -3.6115730430e-04 2.5010562927e+00 -4.3319565716e+00 2.5010562927e+00 4.3319565716e+00 
63800 5.3842321875e+00 -3.5363394530e-04 2.5010635128e+00 -4.3319690772e+00 2.5010635128e+00 4.3319690772e+00 
63900 5.3842319944e+00 -3.4626296033e-04 2.5010705825e+00 -4.3319813222e+00 2.5010705825e+00 4.3319813222e+00 
64000 5.3842318091e+00 -3.3904105387e-04 2.5010775048e+00 -4.3319933120e+00 2.5010775048e+00 4.3319933120e+00 
64100 5.3842316315e+00 -3.3196499648e-04 2.5010842827e+00 -4.3320050516e+00 2.5010842827e+00 4.3320050516e+00 
64200 5.3842314613e+00 -3.2503162389e-04 2.5010909191e+00 -4.3320165463e+00 2.5010909191e+00 4.3320165463e+00 
64300 5.3842312983e+00 -3.1823783627e-04 2.5010974169e+00 -4.3320278008e+00 2.5010974169e+00 4.3320278008e+00 
64400 5.3842311423e+00 -3.1158059734e-04 2.5011037789e+00 -4.3320388200e+00 2.5011037789e+00 4.3320388200e+00 
64500 5.3842309932e+00 -3.0505693357e-04 2.5011100077e+00 -4.3320496087e+00 2.5011100077e+00 4.3320496087e+00 
64600 5.3842308507e+00 -2.9866393335e-04 2.5011161062e+00 -4.3320601715e+00 2.5011161062e+00 4.3320601715e+00 
64700 5.3842307146e+00 -2.9239874610e-04 2.5011220768e+00 -4.3320705129e+00 2.5011220768e+00 4.3320705129e+00 
64800 5.3842305847e+00 -2.8625858148e-04 2.5011279221e+00 -4.3320806374e+00 2.5011279221e+00 4.3320806374e+00 
64900 5.3842304610e+00 -2.8024070849e-04 2.5011336447e+00 -4.3320905492e+00 2.5011336447e+00 4.3320905492e+00 
65000 5.3842303431e+00 -2.7434245464e-04 2.5011392470e+00 -4.3321002526e+00 2.5011392470e+00 4.3321002526e+00 
65100 5.3842302310e+00 -2.6856120509e-04 2.5011447314e+00 -4.3321097518e+00 2.5011447314e+00 4.3321097518e+00 
65200 5.3842301244e+00 -2.6289440176e-04 2.5011501001e+00 -4.3321190508e+00 2.5011501001e+00 4.3321190508e+00 
65300 5.3842300233e+00 -2.5733954251e-04 2.5011553556e+00 -4.3321281535e+00 2.5011553556e+00 4.3321281535e+00 
65400 5.3842299274e+00 -2.5189418025e-04 2.5011605000e+00 -4.3321370639e+00 2.5011605000e+00 4.3321370639e+00 
65500 5.3842298366e+00 -2.4655592207e-04 2.5011655356e+00 -4.3321457858e+00 2.5011655356e+00 4.3321457858e+00 
65600 5.3842297508e+00 -2.4132242837e-04 2.5011704644e+00 -4.3321543227e+00 2.5011704644e+00 4.3321543227e+00 
65700 5.3842296697e+00 -2.3619141203e-04 2.5011752886e+00 -4.3321626785e+00 2.5011752886e+00 4.3321626785e+00 
65800 5.3842295933e+00 -2.3116063748e-04 2.5011800102e+00 -4.3321708565e+00 2.5011800102e+00 4.3321708565e+00 
65900 5.3842295214e+00 -2.2622791989e-04 2.5011846312e+00 -4.3321788604e+00 2.5011846312e+00 4.3321788604e+00 
66000 5.3842294540e+00 -2.2139112429e-04 2.5011891536e+00 -4.3321866935e+00 2.5011891536e+00 4.3321866935e+00 
66100 5.3842293907e+00 -2.1664816469e-04 2.5011935794e+00 -4.3321943590e+00 2.5011935794e+00 4.3321943590e+00 
66200 5.3842293316e+00 -2.1199700323e-04 2.5011979103e+00 -4.3322018604e+00 2.5011979103e+00 4.3322018604e+00 
66300 5.3842292765e+00 -2.0743564932e-04 2.5012021482e+00 -4.3322092006e+00 2.5012021482e+00 4.3322092006e+00 
66400 5.3842292253e+00 -2.0296215880e-04 2.5012062949e+00 -4.3322163830e+00 2.5012062949e+00 4.3322163830e+00 
66500 5.3842291778e+00 -1.9857463308e-04 2.5012103522e+00 -4.3322234104e+00 2.5012103522e+00 4.3322234104e+00 
66600 5.3842291339e+00 -1.9427121826e-04 2.5012143218e+00 -4.3322302859e+00 2.5012143218e+00 4.3322302859e+00 
66700 5.3842290936e+00 -1.9005010434e-04 2.5012182053e+00 -4.3322370124e+00 2.5012182053e+00 4.3322370124e+00 
66800 5.3842290567e+00 -1.8590952435e-04 2.5012220044e+00 -4.3322435927e+00 2.5012220044e+00 4.3322435927e+00 
66900 5.3842290231e+00 -1.8184775351e-04 2.5012257208e+00 -4.3322500297e+00 2.5012257208e+00 4.3322500297e+00 
67000 5.3842289927e+00 -1.7786310843e-04 2.5012293560e+00 -4.3322563260e+00 2.5012293560e+00 4.3322563260e+00 
67100 5.3842289654e+00 -1.7395394624e-04 2.5012329115e+00 -4.3322624843e+00 2.5012329115e+00 4.3322624843e+00 
67200 5.3842289411e+00 -1.7011866383e-04 2.5012363889e+00 -4.3322685073e+00 2.5012363889e+00 4.3322685073e+00 
67300 5.3842289197e+00 -1.6635569698e-04 2.5012397896e+00 -4.3322743974e+00 2.5012397896e+00 4.3322743974e+00 
67400 5.3842289011e+00 -1.6266351961e-04 2.5012431150e+00 -4.3322801573e+00 2.5012431150e+00 4.3322801573e+00 
67500 5.3842288852e+00 -1.5904064293e-04 2.5012463667e+00 -4.3322857893e+00 2.5012463667e+00 4.3322857893e+00 
67600 5.3842288720e+00 -1.5548561470e-04 2.5012495459e+00 -4.3322912959e+00 2.5012495459e+00 4.3322912959e+00 
67700 5.3842288612e+00 -1.5199701839e-04 2.5012526541e+00 -4.3322966794e+00 2.5012526541e+00 4.3322966794e+00 
67800 5.3842288530e+00 -1.4857347245e-04 2.5012556925e+00 -4.3323019421e+00 2.5012556925e+00 4.3323019421e+00 
67900 5.3842288471e+00 -1.4521362953e-04 2.5012586625e+00 -4.3323070863e+00 2.5012586625e+00 4.3323070863e+00 
68000 5.3842288435e+00 -1.4191617570e-04 2.5012615653e+00 -4.3323121141e+00 2.5012615653e+00 4.3323121141e+00 
68100 5.3842288420e+00 -1.3867982972e-04 2.5012644022e+00 -4.3323170277e+00 2.5012644022e+00 4.3323170277e+00 
68200 5.3842288428e+00 -1.3550334229e-04 2.5012671744e+00 -4.3323218293e+00 2.5012671744e+00 4.3323218293e+00 
68300 5.3842288455e+00 -1.3238549532e-04 2.5012698831e+00 -4.3323265209e+00 2.5012698831e+00 4.3323265209e+00 
68400 5.3842288503e+00 -1.2932510116e-04 2.5012725294e+00 -4.3323311045e+00 2.5012725294e+00 4.3323311045e+00 
68500 5.3842288569e+00 -1.2632100197e-04 2.5012751146e+00 -4.3323355822e+00 2.5012751146e+00 4.3323355822e+00 
68600 5.3842288654e+00 -1.2337206894e-04 2.5012776397e+00 -4.3323399559e+00 2.5012776397e+00 4.3323399559e+00 
68700 5.3842288757e+00 -1.2047720160e-04 2.5012801059e+00 -4.3323442274e+00 2.5012801059e+00 4.3323442274e+00 
68800 5.3842288877e+00 -1.1763532717e-04 2.5012825142e+00 -4.3323483987e+00 2.5012825142e+00 4.3323483987e+00 
68900 5.3842289013e+00 -1.1484539983e-04 2.5012848657e+00 -4.3323524717e+00 2.5012848657e+00 4.3323524717e+00 
69000 5.3842289165e+00 -1.1210640011e-04 2.5012871615e+00 -4.3323564480e+00 2.5012871615e+00 4.3323564480e+00 
69100 5.3842289332e+00 -1.0941733417e-04 2.5012894024e+00 -4.3323603295e+00 2.5012894024e+00 4.3323603295e+00 
69200 5.3842289514e+00 -1.0677723318e-04 2.5012915897e+00 -4.3323641178e+00 2.5012915897e+00 4.3323641178e+00 
69300 5.3842289710e+00 -1.0418515268e-04 2.5012937241e+00 -4.3323678148e+00 2.5012937241e+00 4.3323678148e+00 
69400 5.3842289919e+00 -1.0164017195e-04 2.5012958067e+00 -4.3323714220e+00 2.5012958067e+00 4.3323714220e+00 
69500 5.3842290142e+00 -9.9141393397e-05 2.5012978385e+00 -4.3323749411e+00 2.5012978385e+00 4.3323749411e+00 
69600 5.3842290376e+00 -9.6687941929e-05 2.5012998203e+00 -4.3323783737e+00 2.5012998203e+00 4.3323783737e+00 
69700 5.3842290623e+00 -9.4278964366e-05 2.5013017530e+00 -4.3323817213e+00 2.5013017530e+00 4.3323817213e+00 
69800 5.3842290881e+00 -9.1913628858e-05 2.5013036376e+00 -4.3323849855e+00 2.5013036376e+00 4.3323849855e+00 
69900 5.3842291150e+00 -8.9591124303e-05 2.5013054749e+00 -4.3323881679e+00 2.5013054749e+00 4.3323881679e+00 
70000 5.3842291429e+00 -8.7310659779e-05 2.5013072658e+00 -4.3323912698e+00 2.5013072658e+00 4.3323912698e+00 
70100 5.3842291718e+00 -8.5071463987e-05 2.5013090111e+00 -4.3323942927e+00 2.5013090111e+00 4.3323942927e+00 
70200 5.3842292017e+00 -8.2872784714e-05 2.5013107117e+00 -4.3323972381e+00 2.5013107117e+00 4.3323972381e+00 
70300 5.3842292325e+00 -8.0713888286e-05 2.5013123683e+00 -4.3324001074e+00 2.5013123683e+00 4.3324001074e+00 
70400 5.3842292641e+00 -7.8594059053e-05 2.5013139817e+00 -4.3324029020e+00 2.5013139817e+00 4.3324029020e+00 
70500 5.3842292966e+00 -7.6512598866e-05 2.5013155527e+00 -4.3324056231e+00 2.5013155527e+00 4.3324056231e+00 
70600 5.3842293299e+00 -7.4468826589e-05 2.5013170822e+00 -4.3324082722e+00 2.5013170822e+00 4.3324082722e+00 
70700 5.3842293639e+00 -7.2462077590e-05 2.5013185708e+00 -4.3324108505e+00 2.5013185708e+00 4.3324108505e+00 
70800 5.3842293986e+00 -7.0491703266e-05 2.5013200193e+00 -4.3324133594e+00 2.5013200193e+00 4.3324133594e+00 
70900 5.3842294341e+00 -6.9779070073e-05 2.5013200193e+00 -4.3324133594e+00 2.5013200193e+00 4.3324133594e+00 
71000 5.3842294701e+00 -6.9078043703e-05 2.5013200193e+00 -4.3324133594e+00 2.5013200193e+00 4.3324133594e+00 
71100 5.3842295068e+00 -6.8388270561e-05 2.5013200193e+00 -4.3324133594e+00 2.5013200193e+00 4.3324133594e+00 
71200 5.3842295441e+00 -6.7709402875e-05 2.5013200193e+00 -4.3324133594e+00 2.5013200193e+00 4.3324133594e+00 
71300 5.3842295819e+00 -6.7041098771e-05 2.5013200193e+00 -4.3324133594e+00 2.5013200193e+00 4.3324133594e+00 
71400 5.3842296202e+00 -6.6383022361e-05 2.5013200193e+00 -4.3324133594e+00 2.5013200193e+00 4.3324133594e+00 
71500 5.3842296589e+00 -6.5734843811e-05 2.5013200193e+00 -4.3324133594e+00 2.5013200193e+00 4.3324133594e+00 
71600 5.3842296981e+00 -6.5096239425e-05 2.5013200193e+00 -4.3324133594e+00 2.5013200193e+00 4.3324133594e+00 
71700 5.3842297377e+00 -6.4466891712e-05 2.5013200193e+00 -4.3324133594e+00 2.5013200193e+00 4.3324133594e+00 
71800 5.3842297777e+00 -6.3846489454e-05 2.5013200193e+00 -4.3324133594e+00 2.5013200193e+00 4.3324133594e+00 
71900 5.3842298181e+00 -6.3234727754e-05 2.5013200193e+00 -4.3324133594e+00 2.5013200193e+00 4.3324133594e+00 
72000 5.3842298588e+00 -6.2631308090e-05 2.5013200193e+00 -4.3324133594e+00 2.5013200193e+00 4.3324133594e+00 
72100 5.3842298997e+00 -6.2035938352e-05 2.5013200193e+00 -4.3324133594e+00 2.5013200193e+00 4.3324133594e+00 
72200 5.3842299410e+00 -6.1448332872e-05 2.5013200193e+00 -4.3324133594e+00 2.5013200193e+00 4.3324133594e+00 
72300 5.3842299825e+00 -6.0868212453e-05 2.5013200193e+00 -4.3324133594e+00 2.5013200193e+00 4.3324133594e+00 
72400 5.3842300243e+00 -6.0295304370e-05 2.5013200193e+00 -4.3324133594e+00 2.5013200193e+00 4.3324133594e+00 
72500 5.3842300663e+00 -5.9729342396e-05 2.5013200193e+00 -4.3324133594e+00 2.5013200193e+00 4.3324133594e+00 
72600 5.3842301084e+00 -5.9170066788e-05 2.5013200193e+00 -4.3324133594e+00 2.5013200193e+00 4.3324133594e+00 
72700 5.3842301507e+00 -5.8617224283e-05 2.5013200193e+00 -4.3324133594e+00 2.5013200193e+00 4.3324133594e+00 
72800 5.3842301932e+00 -5.8070568088e-05 2.5013200193e+00 -4.3324133594e+00 2.5013200193e+00 4.3324133594e+00 
72900 5.3842302358e+00 -5.7529857853e-05 2.5013200193e+00 -4.3324133594e+00 2.5013200193e+00 4.3324133594e+00 
73000 5.3842302785e+00 -5.6994859650e-05 2.5013200193e+00 -4.3324133594e+00 2.5013200193e+00 4.3324133594e+00 
73100 5.3842303213e+00 -5.6465345936e-05 2.5013200193e+00 -4.3324133594e+00 2.5013200193e+00 4.3324133594e+00 
73200 5.3842303642e+00 -5.5941095517e-05 2.5013200193e+00 -4.3324133594e+00 2.5013200193e+00 4.3324133594e+00 
73300 5.3842304072e+00 -5.5421893506e-05 2.5013200193e+00 -4.3324133594e+00 2.5013200193e+00 4.3324133594e+00 
73400 5.3842304501e+00 -5.4907531271e-05 2.5013200193e+00 -4.3324133594e+00 2.5013200193e+00 4.3324133594e+00 
73500 5.3842304932e+00 -5.4397806382e-05 2.5013200193e+00 -4.3324133594e+00 2.5013200193e+00 4.3324133594e+00 
73600 5.3842305362e+00 -5.3892522561e-05 2.5013200193e+00 -4.3324133594e+00 2.5013200193e+00 4.3324133594e+00 
73700 5.3842305792e+00 -5.3391489610e-05 2.5013200193e+00 -4.3324133594e+00 2.5013200193e+00 4.3324133594e+00 
73800 5.3842306222e+00 -5.2894523352e-05 2.5013200193e+00 -4.3324133594e+00 2.5013200193e+00 4.3324133594e+00 
73900 5.3842306651e+00 -5.2401445563e-05 2.5013200193e+00 -4.3324133594e+00 2.5013200193e+00 4.3324133594e+00 
74000 5.3842307080e+00 -5.1912083894e-05 2.5013200193e+00 -4.3324133594e+00 2.5013200193e+00 4.3324133594e+00 
74100 5.3842307509e+00 -5.1426271802e-05 2.5013200193e+00 -4.3324133594e+00 2.5013200193e+00 4.3324133594e+00 
74200 5.3842307937e+00 -5.0943848469e-05 2.5013200193e+00 -4.3324133594e+00 2.5013200193e+00 4.3324133594e+00 
74300 5.3842308364e+00 -5.0464658719e-05 2.5013200193e+00 -4.3324133594e+00 2.5013200193e+00 4.3324133594e+00 
74400 5.3842308790e+00 -4.9988552939e-05 2.5013200193e+00 -4.3324133594e+00 2.5013200193e+00 4.3324133594e+00 
74500 5.3842309215e+00 -4.9515386994e-05 2.5013200193e+00 -4.3324133594e+00 2.5013200193e+00 4.3324133594e+00 
74600 5.3842309638e+00 -4.9045022135e-05 2.5013200193e+00 -4.3324133594e+00 2.5013200193e+00 4.3324133594e+00 
74700 5.3842310061e+00 -4.8577324911e-05 2.5013200193e+00 -4.3324133594e+00 2.5013200193e+00 4.3324133594e+00 
74800 5.3842310482e+00 -4.8112167082e-05 2.5013200193e+00 -4.3324133594e+00 2.5013200193e+00 4.3324133594e+00 
74900 5.3842310902e+00 -4.7649425523e-05 2.5013200193e+00 -4.3324133594e+00 2.5013200193e+00 4.3324133594e+00 
75000 5.3842311320e+00 -4.7188982130e-05 2.5013200193e+00 -4.3324133594e+00 2.5013200193e+00 4.3324133594e+00 
75100 5.3842311736e+00 -4.6730723728e-05 2.5013200193e+00 -4.3324133594e+00 2.5013200193e+00 4.3324133594e+00 
75200 5.3842312151e+00 -4.6274541974e-05 2.5013200193e+00 -4.3324133594e+00 2.5013200193e+00 4.3324133594e+00 
75300 5.3842312564e+00 -4.5820333261e-05 2.5013200193e+00 -4.3324133594e+00 2.5013200193e+00 4.3324133594e+00 
75400 5.3842312975e+00 -4.5367998616e-05 2.5013200193e+00 -4.3324133594e+00 2.5013200193e+00 4.3324133594e+00 
75500 5.3842313384e+00 -4.4917443610e-05 2.5013200193e+00 -4.3324133594e+00 2.5013200193e+00 4.3324133594e+00 
75600 5.3842313791e+00 -4.4468578255e-05 2.5013200193e+00 -4.3324133594e+00 2.5013200193e+00 4.3324133594e+00 
75700 5.3842314196e+00 -4.4021316904e-05 2.5013200193e+00 -4.3324133594e+00 2.5013200193e+00 4.3324133594e+00 
75800 5.3842314599e+00 -4.3575578156e-05 2.5013200193e+00 -4.3324133594e+00 2.5013200193e+00 4.3324133594e+00 
75900 5.3842315000e+00 -4.3131284758e-05 2.5013200193e+00 -4.3324133594e+00 2.5013200193e+00 4.3324133594e+00 
76000 5.3842315398e+00 -4.2688363498e-05 2.5013200193e+00 -4.3324133594e+00 2.5013200193e+00 4.3324133594e+00 
76100 5.3842315794e+00 -4.2246745119e-05 2.5013200193e+00 -4.3324133594e+00 2.5013200193e+00 4.3324133594e+00 
76200 5.3842316188e+00 -4.1806364207e-05 2.5013200193e+00 -4.3324133594e+00 2.5013200193e+00 4.3324133594e+00 
76300 5.3842316579e+00 -4.1367159106e-05 2.5013200193e+00 -4.3324133594e+00 2.5013200193e+00 4.3324133594e+00 
76400 5.3842316968e+00 -4.0929071810e-05 2.5013200193e+00 -4.3324133594e+00 2.5013200193e+00 4.3324133594e+00 
76500 5.3842317355e+00 -4.0492047871e-05 2.5013200193e+00 -4.3324133594e+00 2.5013200193e+00 4.3324133594e+00 
76600 5.3842317738e+00 -4.0056036302e-05 2.5013200193e+00 -4.3324133594e+00 2.5013200193e+00 4.3324133594e+00 
76700 5.3842318119e+00 -3.9620989477e-05 2.5013200193e+00 -4.3324133594e+00 2.5013200193e+00 4.3324133594e+00 
76800 5.3842318498e+00 -3.9186863041e-05 2.5013200193e+00 -4.3324133594e+00 2.5013200193e+00 4.3324133594e+00 
76900 5.3842318874e+00 -3.8753615815e-05 2.5013200193e+00 -4.3324133594e+00 2.5013200193e+00 4.3324133594e+00 
77000 5.3842319247e+00 -3.8321209699e-05 2.5013200193e+00 -4.3324133594e+00 2.5013200193e+00 4.3324133594e+00 
77100 5.3842319617e+00 -3.7889609583e-05 2.5013200193e+00 -4.3324133594e+00 2.5013200193e+00 4.3324133594e+00 
77200 5.3842319985e+00 -3.7458783251e-05 2.5013200193e+00 -4.3324133594e+00 2.5013200193e+00 4.3324133594e+00 
77300 5.3842320350e+00 -3.7028701293e-05 2.5013200193e+00 -4.3324133594e+00 2.5013200193e+00 4.3324133594e+00 
77400 5.3842320712e+00 -3.6599337016e-05 2.5013200193e+00 -4.3324133594e+00 2.5013200193e+00 4.3324133594e+00 
77500 5.3842321071e+00 -3.6170666354e-05 2.5013200193e+00 -4.3324133594e+00 2.5013200193e+00 4.3324133594e+00 
77600 5.3842321428e+00 -3.5742667779e-05 2.5013200193e+00 -4.3324133594e+00 2.5013200193e+00 4.3324133594e+00 
77700 5.3842321781e+00 -3.5315322219e-05 2.5013200193e+00 -4.3324133594e+00 2.5013200193e+00 4.3324133594e+00 
77800 5.3842322132e+00 -3.4888612968e-05 2.5013200193e+00 -4.3324133594e+00 2.5013200193e+00 4.3324133594e+00 
77900 5.3842322479e+00 -3.4462525607e-05 2.5013200193e+00 -4.3324133594e+00 2.5013200193e+00 4.3324133594e+00 
78000 5.3842322824e+00 -3.4037047915e-05 2.5013200193e+00 -4.3324133594e+00 2.5013200193e+00 4.3324133594e+00 
78100 5.3842323166e+00 -3.3612169796e-05 2.5013200193e+00 -4.3324133594e+00 2.5013200193e+00 4.3324133594e+00 
78200 5.3842323505e+00 -3.3187883192e-05 2.5013200193e+00 -4.3324133594e+00 2.5013200193e+00 4.3324133594e+00 
78300 5.3842323841e+00 -3.2764182006e-05 2.5013200193e+00 -4.3324133594e+00 2.5013200193e+00 4.3324133594e+00 
78400 5.3842324174e+00 -3.2341062026e-05 2.5013200193e+00 -4.3324133594e+00 2.5013200193e+00 4.3324133594e+00 
78500 5.3842324504e+00 -3.1918520850e-05 2.5013200193e+00 -4.3324133594e+00 2.5013200193e+00 4.3324133594e+00 
78600 5.3842324831e+00 -3.1496557810e-05 2.5013200193e+00 -4.3324133594e+00 2.5013200193e+00 4.3324133594e+00 
78700 5.3842325155e+00 -3.1075173896e-05 2.5013200193e+00 -4.3324133594e+00 2.5013200193e+00 4.3324133594e+00 
78800 5.3842325476e+00 -3.0654371689e-05 2.5013200193e+00 -4.3324133594e+00 2.5013200193e+00 4.3324133594e+00 
78900 5.3842325794e+00 -3.0234155290e-05 2.5013200193e+00 -4.3324133594e+00 2.5013200193e+00 4.3324133594e+00 
79000 5.3842326109e+00 -2.9814530248e-05 2.5013200193e+00 -4.3324133594e+00 2.5013200193e+00 4.3324133594e+00 
79100 5.3842326421e+00 -2.9395503492e-05 2.5013200193e+00 -4.3324133594e+00 2.5013200193e+00 4.3324133594e+00 
79200 5.3842326730e+00 -2.8977083273e-05 2.5013200193e+00 -4.3324133594e+00 2.5013200193e+00 4.3324133594e+00 
79300 5.3842327036e+00 -2.8559279090e-05 2.5013200193e+00 -4.3324133594e+00 2.5013200193e+00 4.3324133594e+00 
79400 5.3842327339e+00 -2.8142101631e-05 2.5013200193e+00 -4.3324133594e+00 2.5013200193e+00 4.3324133594e+00 
79500 5.3842327640e+00 -2.7725562710e-05 2.5013200193e+00 -4.3324133594e+00 2.5013200193e+00 4.3324133594e+00 
79600 5.3842327937e+00 -2.7309675207e-05 2.5013200193e+00 -4.3324133594e+00 2.5013200193e+00 4.3324133594e+00 
79700 5.3842328231e+00 -2.6894453013e-05 2.5013200193e+00 -4.3324133594e+00 2.5013200193e+00 4.3324133594e+00 
79800 5.3842328522e+00 -2.6479910963e-05 2.5013200193e+00 -4.3324133594e+00 2.5013200193e+00 4.3324133594e+00 
79900 5.3842328810e+00 -2.6066064792e-05 2.5013200193e+00 -4.3324133594e+00 2.5013200193e+00 4.3324133594e+00 
80000 5.3842329096e+00 -2.5652931070e-05 2.5013200193e+00 -4.3324133594e+00 2.5013200193e+00 4.3324133594e+00 
80100 5.3842329378e+00 -2.5240527155e-05 2.5013200193e+00 -4.3324133594e+00 2.5013200193e+00 4.3324133594e+00 
80200 5.3842329657e+00 -2.4828871137e-05 2.5013200193e+00 -4.3324133594e+00 2.5013200193e+00 4.3324133594e+00 
80300 5.3842329934e+00 -2.4417981792e-05 2.5013200193e+00 -4.3324133594e+00 2.5013200193e+00 4.3324133594e+00 
80400 5.3842330207e+00 -2.4007878528e-05 2.5013200193e+00 -4.3324133594e+00 2.5013200193e+00 4.3324133594e+00 
80500 5.3842330478e+00 -2.3598581341e-05 2.5013200193e+00 -4.3324133594e+00 2.5013200193e+00 4.3324133594e+00 
80600 5.3842330746e+00 -2.3190110768e-05 2.5013200193e+00 -4.3324133594e+00 2.5013200193e+00 4.3324133594e+00 
80700 5.3842331011e+00 -2.2782487839e-05 2.5013200193e+00 -4.3324133594e+00 2.5013200193e+00 4.3324133594e+00 
80800 5.3842331273e+00 -2.2375734035e-05 2.5013200193e+00 -4.3324133594e+00 2.5013200193e+00 4.3324133594e+00 
80900 5.3842331532e+00 -2.1969871248e-05 2.5013200193e+00 -4.3324133594e+00 2.5013200193e+00 4.3324133594e+00 
81000 5.3842331788e+00 -2.1564921735e-05 2.5013200193e+00 -4.3324133594e+00 2.5013200193e+00 4.3324133594e+00 
81100 5.3842332042e+00 -2.1160908083e-05 2.5013200193e+00 -4.3324133594e+00 2.5013200193e+00 4.3324133594e+00 
81200 5.3842332292e+00 -2.0757853166e-05 2.5013200193e+00 -4.3324133594e+00 2.5013200193e+00 4.3324133594e+00 
81300 5.3842332540e+00 -2.0355780109e-05 2.5013200193e+00 -4.3324133594e+00 2.5013200193e+00 4.3324133594e+00 
81400 5.3842332785e+00 -1.9954712253e-05 2.5013200193e+00 -4.3324133594e+00 2.5013200193e+00 4.3324133594e+00 
81500 5.3842333028e+00 -1.9554673119e-05 2.5013200193e+00 -4.3324133594e+00 2.5013200193e+00 4.3324133594e+00 
81600 5.3842333267e+00 -1.9155686375e-05 2.5013200193e+00 -4.3324133594e+00 2.5013200193e+00 4.3324133594e+00 
81700 5.3842333504e+00 -1.8757775799e-05 2.5013200193e+00 -4.3324133594e+00 2.5013200193e+00 4.3324133594e+00 
81800 5.3842333738e+00 -1.8360965256e-05 2.5013200193e+00 -4.3324133594e+00 2.5013200193e+00 4.3324133594e+00 
81900 5.3842333970e+00 -1.7965278659e-05 2.5013200193e+00 -4.3324133594e+00 2.5013200193e+00 4.3324133594e+00 
82000 5.3842334199e+00 -1.7570739942e-05 2.5013200193e+00 -4.3324133594e+00 2.5013200193e+00 4.3324133594e+00 
82100 5.3842334425e+00 -1.7177373038e-05 2.5013200193e+00 -4.3324133594e+00 2.5013200193e+00 4.3324133594e+00 
82200 5.3842334648e+00 -1.6785201839e-05 2.5013200193e+00 -4.3324133594e+00 2.5013200193e+00 4.3324133594e+00 
82300 5.3842334869e+00 -1.6394250187e-05 2.5013200193e+00 -4.3324133594e+00 2.5013200193e+00 4.3324133594e+00 
82400 5.3842335087e+00 -1.6004541832e-05 2.5013200193e+00 -4.3324133594e+00 2.5013200193e+00 4.3324133594e+00 
82500 5.3842335303e+00 -1.5616100418e-05 2.5013200193e+00 -4.3324133594e+00 2.5013200193e+00 4.3324133594e+00 
82600 5.3842335516e+00 -1.5228949457e-05 2.5013200193e+00 -4.3324133594e+00 2.5013200193e+00 4.3324133594e+00 
82700 5.3842335727e+00 -1.4843112309e-05 2.5013200193e+00 -4.3324133594e+00 2.5013200193e+00 4.3324133594e+00 
82800 5.3842335935e+00 -1.4458612155e-05 2.5013200193e+00 -4.3324133594e+00 2.5013200193e+00 4.3324133594e+00 
82900 5.3842336140e+00 -1.4075471986e-05 2.5013200193e+00 -4.3324133594e+00 2.5013200193e+00 4.3324133594e+00 
83000 5.3842336343e+00 -1.3693714574e-05 2.5013200193e+00 -4.3324133594e+00 2.5013200193e+00 4.3324133594e+00 
83100 5.3842336544e+00 -1.3313362461e-05 2.5013200193e+00 -4.3324133594e+00 2.5013200193e+00 4.3324133594e+00 
83200 5.3842336742e+00 -1.2934437936e-05 2.5013200193e+00 -4.3324133594e+00 2.5013200193e+00 4.3324133594e+00 
83300 5.3842336938e+00 -1.2556963024e-05 2.5013200193e+00 -4.3324133594e+00 2.5013200193e+00 4.3324133594e+00 
83400 5.3842337131e+00 -1.2180959464e-05 2.5013200193e+00 -4.3324133594e+00 2.5013200193e+00 4.3324133594e+00 
83500 5.3842337322e+00 -1.1806448697e-05 2.5013200193e+00 -4.3324133594e+00 2.5013200193e+00 4.3324133594e+00 
83600 5.3842337510e+00 -1.1433451855e-05 2.5013200193e+00 -4.3324133594e+00 2.5013200193e+00 4.3324133594e+00 
83700 5.3842337696e+00 -1.1061989740e-05 2.5013200193e+00 -4.3324133594e+00 2.5013200193e+00 4.3324133594e+00 
83800 5.3842337880e+00 -1.0692082817e-05 2.5013200193e+00 -4.3324133594e+00 2.5013200193e+00 4.3324133594e+00 
83900 5.3842338062e+00 -1.0323751200e-05 2.5013200193e+00 -4.3324133594e+00 2.5013200193e+00 4.3324133594e+00 
84000 5.3842338241e+00 -9.9570146437e-06 2.5013200193e+00 -4.3324133594e+00 2.5013200193e+00 4.3324133594e+00 
84100 5.3842338418e+00 -9.5918925261e-06 2.5013200193e+00 -4.3324133594e+00 2.5013200193e+00 4.3324133594e+00 
84200 5.3842338593e+00 -9.2284038467e-06 2.5013200193e+00 -4.3324133594e+00 2.5013200193e+00 4.3324133594e+00 
84300 5.3842338765e+00 -8.8665672095e-06 2.5013200193e+00 -4.3324133594e+00 2.5013200193e+00 4.3324133594e+00 
84400 5.3842338936e+00 -8.5064008223e-06 2.5013200193e+00 -4.3324133594e+00 2.5013200193e+00 4.3324133594e+00 
84500 5.3842339104e+00 -8.1479224827e-06 2.5013200193e+00 -4.3324133594e+00 2.5013200193e+00 4.3324133594e+00 
84600 5.3842339270e+00 -7.7911495739e-06 2.5013200193e+00 -4.3324133594e+00 2.5013200193e+00 4.3324133594e+00 
84700 5.3842339434e+00 -7.4360990548e-06 2.5013200193e+00 -4.3324133594e+00 2.5013200193e+00 4.3324133594e+00 
84800 5.3842339596e+00 -7.0827874578e-06 2.5013200193e+00 -4.3324133594e+00 2.5013200193e+00 4.3324133594e+00 
84900 5.3842339755e+00 -6.7312308823e-06 2.5013200193e+00 -4.3324133594e+00 2.5013200193e+00 4.3324133594e+00 
85000 5.3842339913e+00 -6.3814449857e-06 2.5013200193e+00 -4.3324133594e+00 2.5013200193e+00 4.3324133594e+00 
85100 5.3842340068e+00 -6.0334449853e-06 2.5013200193e+00 -4.3324133594e+00 2.5013200193e+00 4.3324133594e+00 
85200 5.3842340222e+00 -5.6872456478e-06 2.5013200193e+00 -4.3324133594e+00 2.5013200193e+00 4.3324133594e+00 
85300 5.3842340374e+00 -5.3428612906e-06 2.5013200193e+00 -4.3324133594e+00 2.5013200193e+00 4.3324133594e+00 
85400 5.3842340523e+00 -5.0003057770e-06 2.5013200193e+00 -4.3324133594e+00 2.5013200193e+00 4.3324133594e+00 
85500 5.3842340671e+00 -4.6595925118e-06 2.5013200193e+00 -4.3324133594e+00 2.5013200193e+00 4.3324133594e+00 
85600 5.3842340816e+00 -4.3207344425e-06 2.5013200193e+00 -4.3324133594e+00 2.5013200193e+00 4.3324133594e+00 
85700 5.3842340960e+00 -3.9837440565e-06 2.5013200193e+00 -4.3324133594e+00 2.5013200193e+00 4.3324133594e+00 
85800 5.3842341102e+00 -3.6486333783e-06 2.5013200193e+00 -4.3324133594e+00 2.5013200193e+00 4.3324133594e+00 
85900 5.3842341241e+00 -3.3154139693e-06 2.5013200193e+00 -4.3324133594e+00 2.5013200193e+00 4.3324133594e+00 
86000 5.3842341379e+00 -2.9840969289e-06 2.5013200193e+00 -4.3324133594e+00 2.5013200193e+00 4.3324133594e+00 
86100 5.3842341516e+00 -2.6546928921e-06 2.5013200193e+00 -4.3324133594e+00 2.5013200193e+00 4.3324133594e+00 
86200 5.3842341650e+00 -2.3272120304e-06 2.5013200193e+00 -4.3324133594e+00 2.5013200193e+00 4.3324133594e+00 
86300 5.3842341782e+00 -2.0016640545e-06 2.5013200193e+00 -4.3324133594e+00 2.5013200193e+00 4.3324133594e+00 
86400 5.3842341913e+00 -1.6780582119e-06 2.5013200193e+00 -4.3324133594e+00 2.5013200193e+00 4.3324133594e+00 
86500 5.3842342042e+00 -1.3564032904e-06 2.5013200193e+00 -4.3324133594e+00 2.5013200193e+00 4.3324133594e+00 
86600 5.3842342169e+00 -1.0367076201e-06 2.5013200193e+00 -4.3324133594e+00 2.5013200193e+00 4.3324133594e+00 
86700 5.3842342295e+00 -7.1897907084e-07 2.5013200193e+00 -4.3324133594e+00 2.5013200193e+00 4.3324133594e+00 
86800 5.3842342419e+00 -4.0322506276e-07 2.5013200193e+00 -4.3324133594e+00 2.5013200193e+00 4.3324133594e+00 
86900 5.3842342541e+00 -8.9452558118e-08 2.5013200193e+00 -4.3324133594e+00 2.5013200193e+00 4.3324133594e+00 
87000 5.3842342661e+00 2.2233192516e-07 2.5013200193e+00 -4.3324133594e+00 2.5013200193e+00 4.3324133594e+00 
87100 5.3842342780e+00 5.3212232017e-07 2.5013200193e+00 -4.3324133594e+00 2.5013200193e+00 4.3324133594e+00 
87200 5.3842342897e+00 8.3991300014e-07 2.5013200193e+00 -4.3324133594e+00 2.5013200193e+00 4.3324133594e+00 
87300 5.3842343013e+00 1.1456987810e-06 2.5013200193e+00 -4.3324133594e+00 2.5013200193e+00 4.3324133594e+00 
87400 5.3842343127e+00 1.4494749142e-06 2.5013200193e+00 -4.3324133594e+00 2.5013200193e+00 4.3324133594e+00 
87500 5.3842343239e+00 1.7512370821e-06 2.5013200193e+00 -4.3324133594e+00 2.5013200193e+00 4.3324133594e+00 
87600 5.3842343350e+00 2.0509813988e-06 2.5013200193e+00 -4.3324133594e+00 2.5013200193e+00 4.3324133594e+00 
87700 5.3842343459e+00 2.3487044014e-06 2.5013200193e+00 -4.3324133594e+00 2.5013200193e+00 4.3324133594e+00 
87800 5.3842343567e+00 2.6444030454e-06 2.5013200193e+00 -4.3324133594e+00 2.5013200193e+00 4.3324133594e+00 
87900 5.3842343673e+00 2.9380747033e-06 2.5013200193e+00 -4.3324133594e+00 2.5013200193e+00 4.3324133594e+00 
88000 5.3842343778e+00 3.2297171591e-06 2.5013200193e+00 -4.3324133594e+00 2.5013200193e+00 4.3324133594e+00 
88100 5.3842343881e+00 3.5193285997e-06 2.5013200193e+00 -4.3324133594e+00 2.5013200193e+00 4.3324133594e+00 
88200 5.3842343983e+00 3.8069076151e-06 2.5013200193e+00 -4.3324133594e+00 2.5013200193e+00 4.3324133594e+00 
88300 5.3842344083e+00 4.0924531900e-06 2.5013200193e+00 -4.3324133594e+00 2.5013200193e+00 4.3324133594e+00 
88400 5.3842344182e+00 4.3759646994e-06 2.5013200193e+00 -4.3324133594e+00 2.5013200193e+00 4.3324133594e+00 
88500 5.3842344280e+00 4.6574419035e-06 2.5013200193e+00 -4.3324133594e+00 2.5013200193e+00 4.3324133594e+00 
88600 5.3842344376e+00 4.9368849410e-06 2.5013200193e+00 -4.3324133594e+00 2.5013200193e+00 4.3324133594e+00 
88700 5.3842344471e+00 5.2142943248e-06 2.5013200193e+00 -4.3324133594e+00 2.5013200193e+00 4.3324133594e+00 
88800 5.3842344565e+00 5.4896709355e-06 2.5013200193e+00 -4.3324133594e+00 2.5013200193e+00 4.3324133594e+00 
88900 5.3842344657e+00 5.7630160166e-06 2.5013200193e+00 -4.3324133594e+00 2.5013200193e+00 4.3324133594e+00 
89000 5.3842344748e+00 6.0343311670e-06 2.5013200193e+00 -4.3324133594e+00 2.5013200193e+00 4.3324133594e+00 
89100 5.3842344837e+00 6.3036183360e-06 2.5013200193e+00 -4.3324133594e+00 2.5013200193e+00 4.3324133594e+00 
89200 5.3842344926e+00 6.5708798174e-06 2.5013200193e+00 -4.3324133594e+00 2.5013200193e+00 4.3324133594e+00 
89300 5.3842345013e+00 6.8361182432e-06 2.5013200193e+00 -4.3324133594e+00 2.5013200193e+00 4.3324133594e+00 
89400 5.3842345098e+00 7.0993365768e-06 2.5013200193e+00 -4.3324133594e+00 2.5013200193e+00 4.3324133594e+00 
89500 5.3842345183e+00 7.3605381083e-06 2.5013200193e+00 -4.3324133594e+00 2.5013200193e+00 4.3324133594e+00 
89600 5.3842345266e+00 7.6197264466e-06 2.5013200193e+00 -4.3324133594e+00 2.5013200193e+00 4.3324133594e+00 
89700 5.3842345348e+00 7.8769055142e-06 2.5013200193e+00 -4.3324133594e+00 2.5013200193e+00 4.3324133594e+00 
89800 5.3842345429e+00 8.1320795412e-06 2.5013200193e+00 -4.3324133594e+00 2.5013200193e+00 4.3324133594e+00 
89900 5.3842345509e+00 8.3852530559e-06 2.5013200193e+00 -4.3324133594e+00 2.5013200193e+00 4.3324133594e+00 
90000 5.3842345588e+00 8.6364308842e-06 2.5013200193e+00 -4.3324133594e+00 2.5013200193e+00 4.3324133594e+00 
90100 5.3842345665e+00 8.8856181371e-06 2.5013200193e+00 -4.3324133594e+00 2.5013200193e+00 4.3324133594e+00 
90200 5.3842345742e+00 9.1328202102e-06 2.5013200193e+00 -4.3324133594e+00 2.5013200193e+00 4.3324133594e+00 
90300 5.3842345817e+00 9.3780427701e-06 2.5013200193e+00 -4.3324133594e+00 2.5013200193e+00 4.3324133594e+00 
90400 5.3842345891e+00 9.6212917547e-06 2.5013200193e+00 -4.3324133594e+00 2.5013200193e+00 4.3324133594e+00 
90500 5.3842345964e+00 9.8625733630e-06 2.5013200193e+00 -4.3324133594e+00 2.5013200193e+00 4.3324133594e+00 
90600 5.3842346036e+00 1.0101894052e-05 2.5013200193e+00 -4.3324133594e+00 2.5013200193e+00 4.3324133594e+00 
90700 5.3842346107e+00 1.0339260524e-05 2.5013200193e+00 -4.3324133594e+00 2.5013200193e+00 4.3324133594e+00 
90800 5.3842346177e+00 1.0574679730e-05 2.5013200193e+00 -4.3324133594e+00 2.5013200193e+00 4.3324133594e+00 
90900 5.3842346246e+00 1.0808158852e-05 2.5013200193e+00 -4.3324133594e+00 2.5013200193e+00 4.3324133594e+00 
91000 5.3842346314e+00 1.1039705305e-05 2.5013200193e+00 -4.3324133594e+00 2.5013200193e+00 4.3324133594e+00 
91100 5.3842346381e+00 1.1269326730e-05 2.5013200193e+00 -4.3324133594e+00 2.5013200193e+00 4.3324133594e+00 
91200 5.3842346447e+00 1.1497030983e-05 2.5013200193e+00 -4.3324133594e+00 2.5013200193e+00 4.3324133594e+00 
91300 5.3842346512e+00 1.1722826132e-05 2.5013200193e+00 -4.3324133594e+00 2.5013200193e+00 4.3324133594e+00 
91400 5.3842346576e+00 1.1946720450e-05 2.5013200193e+00 -4.3324133594e+00 2.5013200193e+00 4.3324133594e+00 
91500 5.3842346639e+00 1.2168722413e-05 2.5013200193e+00 -4.3324133594e+00 2.5013200193e+00 4.3324133594e+00 
91600 5.3842346701e+00 1.2388840682e-05 2.5013200193e+00 -4.3324133594e+00 2.5013200193e+00 4.3324133594e+00 
91700 5.3842346762e+00 1.2607084113e-05 2.5013200193e+00 -4.3324133594e+00 2.5013200193e+00 4.3324133594e+00 
91800 5.3842346823e+00 1.2823461738e-05 2.5013200193e+00 -4.3324133594e+00 2.5013200193e+00 4.3324133594e+00 
91900 5.3842346882e+00 1.3037982765e-05 2.5013200193e+00 -4.3324133594e+00 2.5013200193e+00 4.3324133594e+00 
92000 5.3842346941e+00 1.3250656572e-05 2.5013200193e+00 -4.3324133594e+00 2.5013200193e+00 4.3324133594e+00 
92100 5.3842346998e+00 1.3461492698e-05 2.5013200193e+00 -4.3324133594e+00 2.5013200193e+00 4.3324133594e+00 
92200 5.3842347055e+00 1.3670500839e-05 2.5013200193e+00 -4.3324133594e+00 2.5013200193e+00 4.3324133594e+00 
92300 5.3842347111e+00 1.3877690844e-05 2.5013200193e+00 -4.3324133594e+00 2.5013200193e+00 4.3324133594e+00 
92400 5.3842347166e+00 1.4083072706e-05 2.5013200193e+00 -4.3324133594e+00 2.5013200193e+00 4.3324133594e+00 
92500 5.3842347220e+00 1.4286656559e-05 2.5013200193e+00 -4.3324133594e+00 2.5013200193e+00 4.3324133594e+00 
92600 5.3842347274e+00 1.4488452669e-05 2.5013200193e+00 -4.3324133594e+00 2.5013200193e+00 4.3324133594e+00 
92700 5.3842347327e+00 1.4688471434e-05 2.5013200193e+00 -4.3324133594e+00 2.5013200193e+00 4.3324133594e+00 
92800 5.3842347379e+00 1.4886723372e-05 2.5013200193e+00 -4.3324133594e+00 2.5013200193e+00 4.3324133594e+00 
92900 5.3842347430e+00 1.5083219119e-05 2.5013200193e+00 -4.3324133594e+00 2.5013200193e+00 4.3324133594e+00 
93000 5.3842347480e+00 1.5277969425e-05 2.5013200193e+00 -4.3324133594e+00 2.5013200193e+00 4.3324133594e+00 
93100 5.3842347530e+00 1.5470985145e-05 2.5013200193e+00 -4.3324133594e+00 2.5013200193e+00 4.3324133594e+00 
93200 5.3842347578e+00 1.5662277238e-05 2.5013200193e+00 -4.3324133594e+00 2.5013200193e+00 4.3324133594e+00 
93300 5.3842347627e+00 1.5851856757e-05 2.5013200193e+00 -4.3324133594e+00 2.5013200193e+00 4.3324133594e+00 
93400 5.3842347674e+00 1.6039734849e-05 2.5013200193e+00 -4.3324133594e+00 2.5013200193e+00 4.3324133594e+00 
93500 5.3842347721e+00 1.6225922746e-05 2.5013200193e+00 -4.3324133594e+00 2.5013200193e+00 4.3324133594e+00 
93600 5.3842347767e+00 1.6410431762e-05 2.5013200193e+00 -4.3324133594e+00 2.5013200193e+00 4.3324133594e+00 
93700 5.3842347812e+00 1.6593273288e-05 2.5013200193e+00 -4.3324133594e+00 2.5013200193e+00 4.3324133594e+00 
93800 5.3842347856e+00 1.6774458784e-05 2.5013200193e+00 -4.3324133594e+00 2.5013200193e+00 4.3324133594e+00 
93900 5.3842347900e+00 1.6953999783e-05 2.5013200193e+00 -4.3324133594e+00 2.5013200193e+00 4.3324133594e+00 
94000 5.3842347944e+00 1.7131907876e-05 2.5013200193e+00 -4.3324133594e+00 2.5013200193e+00 4.3324133594e+00 
94100 5.3842347986e+00 1.7308194712e-05 2.5013200193e+00 -4.3324133594e+00 2.5013200193e+00 4.3324133594e+00 
94200 5.3842348028e+00 1.7482871996e-05 2.5013200193e+00 -4.3324133594e+00 2.5013200193e+00 4.3324133594e+00 
94300 5.3842348069e+00 1.7655951480e-05 2.5013200193e+00 -4.3324133594e+00 2.5013200193e+00 4.3324133594e+00 
94400 5.3842348110e+00 1.7827444961e-05 2.5013200193e+00 -4.3324133594e+00 2.5013200193e+00 4.3324133594e+00 
94500 5.3842348150e+00 1.7997364278e-05 2.5013200193e+00 -4.3324133594e+00 2.5013200193e+00 4.3324133594e+00 
94600 5.3842348190e+00 1.8165721306e-05 2.5013200193e+00 -4.3324133594e+00 2.5013200193e+00 4.3324133594e+00 
94700 5.3842348229e+00 1.8332527950e-05 2.5013200193e+00 -4.3324133594e+00 2.5013200193e+00 4.3324133594e+00 
94800 5.3842348267e+00 1.8497796146e-05 2.5013200193e+00 -4.3324133594e+00 2.5013200193e+00 4.3324133594e+00 
94900 5.3842348304e+00 1.8661537853e-05 2.5013200193e+00 -4.3324133594e+00 2.5013200193e+00 4.3324133594e+00 
95000 5.3842348342e+00 1.8823765051e-05 2.5013200193e+00 -4.3324133594e+00 2.5013200193e+00 4.3324133594e+00 
95100 5.3842348378e+00 1.8984489736e-05 2.5013200193e+00 -4.3324133594e+00 2.5013200193e+00 4.3324133594e+00 
95200 5.3842348414e+00 1.9143723917e-05 2.5013200193e+00 -4.3324133594e+00 2.5013200193e+00 4.3324133594e+00 
95300 5.3842348450e+00 1.9301479612e-05 2.5013200193e+00 -4.3324133594e+00 2.5013200193e+00 4.3324133594e+00 
95400 5.3842348484e+00 1.9457768847e-05 2.5013200193e+00 -4.3324133594e+00 2.5013200193e+00 4.3324133594e+00 
95500 5.3842348519e+00 1.9612603650e-05 2.5013200193e+00 -4.3324133594e+00 2.5013200193e+00 4.3324133594e+00 
95600 5.3842348553e+00 1.9765996043e-05 2.5013200193e+00 -4.3324133594e+00 2.5013200193e+00 4.3324133594e+00 
95700 5.3842348586e+00 1.9917958051e-05 2.5013200193e+00 -4.3324133594e+00 2.5013200193e+00 4.3324133594e+00 
95800 5.3842348619e+00 2.0068501687e-05 2.5013200193e+00 -4.3324133594e+00 2.5013200193e+00 4.3324133594e+00 
95900 5.3842348651e+00 2.0217638955e-05 2.5013200193e+00 -4.3324133594e+00 2.5013200193e+00 4.3324133594e+00 
96000 5.3842348683e+00 2.0365381843e-05 2.5013200193e+00 -4.3324133594e+00 2.5013200193e+00 4.3324133594e+00 
96100 5.3842348714e+00 2.0511742326e-05 2.5013200193e+00 -4.3324133594e+00 2.5013200193e+00 4.3324133594e+00 
96200 5.3842348745e+00 2.0656732356e-05 2.5013200193e+00 -4.3324133594e+00 2.5013200193e+00 4.3324133594e+00 
96300 5.3842348775e+00 2.0800363863e-05 2.5013200193e+00 -4.3324133594e+00 2.5013200193e+00 4.3324133594e+00 
96400 5.3842348805e+00 2.0942648756e-05 2.5013200193e+00 -4.3324133594e+00 2.5013200193e+00 4.3324133594e+00 
96500 5.3842348834e+00 2.1083598909e-05 2.5013200193e+00 -4.3324133594e+00 2.5013200193e+00 4.3324133594e+00 
96600 5.3842348863e+00 2.1223226173e-05 2.5013200193e+00 -4.3324133594e+00 2.5013200193e+00 4.3324133594e+00 
96700 5.3842348892e+00 2.1361542357e-05 2.5013200193e+00 -4.3324133594e+00 2.5013200193e+00 4.3324133594e+00 
96800 5.3842348920e+00 2.1498559243e-05 2.5013200193e+00 -4.3324133594e+00 2.5013200193e+00 4.3324133594e+00 
96900 5.3842348948e+00 2.1634288572e-05 2.5013200193e+00 -4.3324133594e+00 2.5013200193e+00 4.3324133594e+00 
97000 5.3842348975e+00 2.1768742044e-05 2.5013200193e+00 -4.3324133594e+00 2.5013200193e+00 4.3324133594e+00 
97100 5.3842349002e+00 2.1901931314e-05 2.5013200193e+00 -4.3324133594e+00 2.5013200193e+00 4.3324133594e+00 
97200 5.3842349028e+00 2.2033867999e-05 2.5013200193e+00 -4.3324133594e+00 2.5013200193e+00 4.3324133594e+00 
97300 5.3842349054e+00 2.2164563663e-05 2.5013200193e+00 -4.3324133594e+00 2.5013200193e+00 4.3324133594e+00 
97400 5.3842349080e+00 2.2294029825e-05 2.5013200193e+00 -4.3324133594e+00 2.5013200193e+00 4.3324133594e+00 
97500 5.3842349105e+00 2.2422277950e-05 2.5013200193e+00 -4.3324133594e+00 2.5013200193e+00 4.3324133594e+00 
97600 5.3842349129e+00 2.2549319455e-05 2.5013200193e+00 -4.3324133594e+00 2.5013200193e+00 4.3324133594e+00 
97700 5.3842349154e+00 2.2675165696e-05 2.5013200193e+00 -4.3324133594e+00 2.5013200193e+00 4.3324133594e+00 
97800 5.3842349178e+00 2.2799827978e-05 2.5013200193e+00 -4.3324133594e+00 2.5013200193e+00 4.3324133594e+00 
97900 5.3842349202e+00 2.2923317547e-05 2.5013200193e+00 -4.3324133594e+00 2.5013200193e+00 4.3324133594e+00 
98000 5.3842349225e+00 2.3045645587e-05 2.5013200193e+00 -4.3324133594e+00 2.5013200193e+00 4.3324133594e+00 
98100 5.3842349248e+00 2.3166823222e-05 2.5013200193e+00 -4.3324133594e+00 2.5013200193e+00 4.3324133594e+00 
98200 5.3842349270e+00 2.3286861516e-05 2.5013200193e+00 -4.3324133594e+00 2.5013200193e+00 4.3324133594e+00 
98300 5.3842349292e+00 2.3405771463e-05 2.5013200193e+00 -4.3324133594e+00 2.5013200193e+00 4.3324133594e+00 
98400 5.3842349314e+00 2.3523563997e-05 2.5013200193e+00 -4.3324133594e+00 2.5013200193e+00 4.3324133594e+00 
98500 5.3842349336e+00 2.3640249983e-05 2.5013200193e+00 -4.3324133594e+00 2.5013200193e+00 4.3324133594e+00 
98600 5.3842349357e+00 2.3755840217e-05 2.5013200193e+00 -4.3324133594e+00 2.5013200193e+00 4.3324133594e+00 
98700 5.3842349378e+00 2.3870345427e-05 2.5013200193e+00 -4.3324133594e+00 2.5013200193e+00 4.3324133594e+00 
98800 5.3842349398e+00 2.3983776267e-05 2.5013200193e+00 -4.3324133594e+00 2.5013200193e+00 4.3324133594e+00 
98900 5.3842349419e+00 2.4096143325e-05 2.5013200193e+00 -4.3324133594e+00 2.5013200193e+00 4.3324133594e+00 
99000 5.3842349438e+00 2.4207457112e-05 2.5013200193e+00 -4.3324133594e+00 2.5013200193e+00 4.3324133594e+00 
99100 5.3842349458e+00 2.4317728067e-05 2.5013200193e+00 -4.3324133594e+00 2.5013200193e+00 4.3324133594e+00 
99200 5.3842349477e+00 2.4426966554e-05 2.5013200193e+00 -4.3324133594e+00 2.5013200193e+00 4.3324133594e+00 
99300 5.3842349496e+00 2.4535182862e-05 2.5013200193e+00 -4.3324133594e+00 2.5013200193e+00 4.3324133594e+00 
99400 5.3842349515e+00 2.4642387201e-05 2.5013200193e+00 -4.3324133594e+00 2.5013200193e+00 4.3324133594e+00 
99500 5.3842349533e+00 2.4748589707e-05 2.5013200193e+00 -4.3324133594e+00 2.5013200193e+00 4.3324133594e+00 
99600 5.3842349551e+00 2.4853800439e-05 2.5013200193e+00 -4.3324133594e+00 2.5013200193e+00 4.3324133594e+00 
99700 5.3842349569e+00 2.4958029373e-05 2.5013200193e+00 -4.3324133594e+00 2.5013200193e+00 4.3324133594e+00 
99800 5.3842349587e+00 2.5061286410e-05 2.5013200193e+00 -4.3324133594e+00 2.5013200193e+00 4.3324133594e+00 
99900 5.3842349604e+00 2.5163581369e-05 2.5013200193e+00 -4.3324133594e+00 2.5013200193e+00 4.3324133594e+00 
100000 5.3842349621e+00 2.5264923989e-05 2.5013200193e+00 -4.3324133594e+00 2.5013200193e+00 4.3324133594e+00 
100100 5.3842349638e+00 2.5365323930e-05 2.5013200193e+00 -4.3324133594e+00 2.5013200193e+00 4.3324133594e+00 
100200 5.3842349654e+00 2.5464790767e-05 2.5013200193e+00 -4.3324133594e+00 2.5013200193e+00 4.3324133594e+00 
100300 5.3842349670e+00 2.5563333996e-05 2.5013200193e+00 -4.3324133594e+00 2.5013200193e+00 4.3324133594e+00 
100400 5.3842349686e+00 2.5660963032e-05 2.5013200193e+00 -4.3324133594e+00 2.5013200193e+00 4.3324133594e+00 
100500 5.3842349702e+00 2.5757687205e-05 2.5013200193e+00 -4.3324133594e+00 2.5013200193e+00 4.3324133594e+00 
100600 5.3842349717e+00 2.5853515765e-05 2.5013200193e+00 -4.3324133594e+00 2.5013200193e+00 4.3324133594e+00 
100700 5.3842349733e+00 2.5948457875e-05 2.5013200193e+00 -4.3324133594e+00 2.5013200193e+00 4.3324133594e+00 
100800 5.3842349748e+00 2.6042522620e-05 2.5013200193e+00 -4.3324133594e+00 2.5013200193e+00 4.3324133594e+00 
100900 5.3842349762e+00 2.6135718998e-05 2.5013200193e+00 -4.3324133594e+00 2.5013200193e+00 4.3324133594e+00 
101000 5.3842349777e+00 2.6228055925e-05 2.5013200193e+00 -4.3324133594e+00 2.5013200193e+00 4.3324133594e+00 
101100 5.3842349791e+00 2.6319542234e-05 2.5013200193e+00 -4.3324133594e+00 2.5013200193e+00 4.3324133594e+00 
101200 5.3842349805e+00 2.6410186674e-05 2.5013200193e+00 -4.3324133594e+00 2.5013200193e+00 4.3324133594e+00 
101300 5.3842349819e+00 2.6499997909e-05 2.5013200193e+00 -4.3324133594e+00 2.5013200193e+00 4.3324133594e+00 
101400 5.3842349833e+00 2.6588984522e-05 2.5013200193e+00 -4.3324133594e+00 2.5013200193e+00 4.3324133594e+00 
101500 5.3842349846e+00 2.6677155010e-05 2.5013200193e+00 -4.3324133594e+00 2.5013200193e+00 4.3324133594e+00 
101600 5.3842349859e+00 2.6764517789e-05 2.5013200193e+00 -4.3324133594e+00 2.5013200193e+00 4.3324133594e+00 
101700 5.3842349872e+00 2.6851081188e-05 2.5013200193e+00 -4.3324133594e+00 2.5013200193e+00 4.3324133594e+00 
101800 5.3842349885e+00 2.6936853458e-05 2.5013200193e+00 -4.3324133594e+00 2.5013200193e+00 4.3324133594e+00 
101900 5.3842349898e+00 2.7021842763e-05 2.5013200193e+00 -4.3324133594e+00 2.5013200193e+00 4.3324133594e+00 
102000 5.3842349910e+00 2.7106057183e-05 2.5013200193e+00 -4.3324133594e+00 2.5013200193e+00 4.3324133594e+00 
102100 5.3842349922e+00 2.7189504719e-05 2.5013200193e+00 -4.3324133594e+00 2.5013200193e+00 4.3324133594e+00 
102200 5.3842349934e+00 2.7272193288e-05 2.5013200193e+00 -4.3324133594e+00 2.5013200193e+00 4.3324133594e+00 
102300 5.3842349946e+00 2.7354130725e-05 2.5013200193e+00 -4.3324133594e+00 2.5013200193e+00 4.3324133594e+00 
102400 5.3842349958e+00 2.7435324781e-05 2.5013200193e+00 -4.3324133594e+00 2.5013200193e+00 4.3324133594e+00 
102500 5.3842349969e+00 2.7515783128e-05 2.5013200193e+00 -4.3324133594e+00 2.5013200193e+00 4.3324133594e+00 
102600 5.3842349980e+00 2.7595513357e-05 2.5013200193e+00 -4.3324133594e+00 2.5013200193e+00 4.3324133594e+00 
102700 5.3842349991e+00 2.7674522974e-05 2.5013200193e+00 -4.3324133594e+00 2.5013200193e+00 4.3324133594e+00 
102800 5.3842350002e+00 2.7752819410e-05 2.5013200193e+00 -4.3324133594e+00 2.5013200193e+00 4.3324133594e+00 
102900 5.3842350013e+00 2.7830410012e-05 2.5013200193e+00 -4.3324133594e+00 2.5013200193e+00 4.3324133594e+00 
103000 5.3842350023e+00 2.7907302049e-05 2.5013200193e+00 -4.3324133594e+00 2.5013200193e+00 4.3324133594e+00 
103100 5.3842350034e+00 2.7983502711e-05 2.5013200193e+00 -4.3324133594e+00 2.5013200193e+00 4.3324133594e+00 
103200 5.3842350044e+00 2.8059019107e-05 2.5013200193e+00 -4.3324133594e+00 2.5013200193e+00 4.3324133594e+00 
103300 5.3842350054e+00 2.8133858267e-05 2.5013200193e+00 -4.3324133594e+00 2.5013200193e+00 4.3324133594e+00 
103400 5.3842350064e+00 2.8208027149e-05 2.5013200193e+00 -4.3324133594e+00 2.5013200193e+00 4.3324133594e+00 
103500 5.3842350074e+00 2.8281532626e-05 2.5013200193e+00 -4.3324133594e+00 2.5013200193e+00 4.3324133594e+00 
103600 5.3842350083e+00 2.8354381500e-05 2.5013200193e+00 -4.3324133594e+00 2.5013200193e+00 4.3324133594e+00 
103700 5.3842350093e+00 2.8426580493e-05 2.5013200193e+00 -4.3324133594e+00 2.5013200193e+00 4.3324133594e+00 
103800 5.3842350102e+00 2.8498136253e-05 2.5013200193e+00 -4.3324133594e+00 2.5013200193e+00 4.3324133594e+00 
103900 5.3842350111e+00 2.8569055353e-05 2.5013200193e+00 -4.3324133594e+00 2.5013200193e+00 4.3324133594e+00 
104000 5.3842350120e+00 2.8639344289e-05 2.5013200193e+00 -4.3324133594e+00 2.5013200193e+00 4.3324133594e+00 
104100 5.3842350129e+00 2.8709009485e-05 2.5013200193e+00 -4.3324133594e+00 2.5013200193e+00 4.3324133594e+00 
104200 5.3842350138e+00 2.8778057293e-05 2.5013200193e+00 -4.3324133594e+00 2.5013200193e+00 4.3324133594e+00 
104300 5.3842350147e+00 2.8846493986e-05 2.5013200193e+00 -4.3324133594e+00 2.5013200193e+00 4.3324133594e+00 
104400 5.3842350155e+00 2.8914325773e-05 2.5013200193e+00 -4.3324133594e+00 2.5013200193e+00 4.3324133594e+00 
104500 5.3842350163e+00 2.8981558783e-05 2.5013200193e+00 -4.3324133594e+00 2.5013200193e+00 4.3324133594e+00 
104600 5.3842350172e+00 2.9048199081e-05 2.5013200193e+00 -4.3324133594e+00 2.5013200193e+00 4.3324133594e+00 
104700 5.3842350180e+00 2.9114252657e-05 2.5013200193e+00 -4.3324133594e+00 2.5013200193e+00 4.3324133594e+00 
104800 5.3842350188e+00 2.9179725433e-05 2.5013200193e+00 -4.3324133594e+00 2.5013200193e+00 4.3324133594e+00 
104900 5.3842350195e+00 2.9244623263e-05 2.5013200193e+00 -4.3324133594e+00 2.5013200193e+00 4.3324133594e+00 
105000 5.3842350203e+00 2.9308951930e-05 2.5013200193e+00 -4.3324133594e+00 2.5013200193e+00 4.3324133594e+00 
105100 5.3842350211e+00 2.9372717150e-05 2.5013200193e+00 -4.3324133594e+00 2.5013200193e+00 4.3324133594e+00 
105200 5.3842350218e+00 2.9435924574e-05 2.5013200193e+00 -4.3324133594e+00 2.5013200193e+00 4.3324133594e+00 
105300 5.3842350225e+00 2.9498579783e-05 2.5013200193e+00 -4.3324133594e+00 2.5013200193e+00 4.3324133594e+00 
105400 5.3842350233e+00 2.9560688295e-05 2.5013200193e+00 -4.3324133594e+00 2.5013200193e+00 4.3324133594e+00 
105500 5.3842350240e+00 2.9622255563e-05 2.5013200193e+00 -4.3324133594e+00 2.5013200193e+00 4.3324133594e+00 
105600 5.3842350247e+00 2.9683286974e-05 2.5013200193e+00 -4.3324133594e+00 2.5013200193e+00 4.3324133594e+00 
105700 5.3842350254e+00 2.9743787852e-05 2.5013200193e+00 -4.3324133594e+00 2.5013200193e+00 4.3324133594e+00 
105800 5.3842350260e+00 2.9803763457e-05 2.5013200193e+00 -4.3324133594e+00 2.5013200193e+00 4.3324133594e+00 
105900 5.3842350267e+00 2.9863218989e-05 2.5013200193e+00 -4.3324133594e+00 2.5013200193e+00 4.3324133594e+00 
106000 5.3842350274e+00 2.9922159584e-05 2.5013200193e+00 -4.3324133594e+00 2.5013200193e+00 4.3324133594e+00 
106100 5.3842350280e+00 2.9980590319e-05 2.5013200193e+00 -4.3324133594e+00 2.5013200193e+00 4.3324133594e+00 
106200 5.3842350286e+00 3.0038516209e-05 2.5013200193e+00 -4.3324133594e+00 2.5013200193e+00 4.3324133594e+00 
106300 5.3842350293e+00 3.0095942212e-05 2.5013200193e+00 -4.3324133594e+00 2.5013200193e+00 4.3324133594e+00 
106400 5.3842350299e+00 3.0152873223e-05 2.5013200193e+00 -4.3324133594e+00 2.5013200193e+00 4.3324133594e+00 
106500 5.3842350305e+00 3.0209314084e-05 2.5013200193e+00 -4.3324133594e+00 2.5013200193e+00 4.3324133594e+00 
106600 5.3842350311e+00 3.0265269575e-05 2.5013200193e+00 -4.3324133594e+00 2.5013200193e+00 4.3324133594e+00 
106700 5.3842350317e+00 3.0320744424e-05 2.5013200193e+00 -4.3324133594e+00 2.5013200193e+00 4.3324133594e+00 
106800 5.3842350323e+00 3.0375743298e-05 2.5013200193e+00 -4.3324133594e+00 2.5013200193e+00 4.3324133594e+00 
106900 5.3842350328e+00 3.0430270810e-05 2.5013200193e+00 -4.3324133594e+00 2.5013200193e+00 4.3324133594e+00 
107000 5.3842350334e+00 3.0484331523e-05 2.5013200193e+00 -4.3324133594e+00 2.5013200193e+00 4.3324133594e+00 
107100 5.3842350339e+00 3.0537929938e-05 2.5013200193e+00 -4.3324133594e+00 2.5013200193e+00 4.3324133594e+00 
107200 5.3842350345e+00 3.0591070510e-05 2.5013200193e+00 -4.3324133594e+00 2.5013200193e+00 4.3324133594e+00 
107300 5.3842350350e+00 3.0643757637e-05 2.5013200193e+00 -4.3324133594e+00 2.5013200193e+00 4.3324133594e+00 
107400 5.3842350355e+00 3.0695995668e-05 2.5013200193e+00 -4.3324133594e+00 2.5013200193e+00 4.3324133594e+00 
107500 5.3842350361e+00 3.0747788898e-05 2.5013200193e+00 -4.3324133594e+00 2.5013200193e+00 4.3324133594e+00 
107600 5.3842350366e+00 3.0799141574e-05 2.5013200193e+00 -4.3324133594e+00 2.5013200193e+00 4.3324133594e+00 
107700 5.3842350371e+00 3.0850057891e-05 2.5013200193e+00 -4.3324133594e+00 2.5013200193e+00 4.3324133594e+00 
107800 5.3842350376e+00 3.0900541997e-05 2.5013200193e+00 -4.3324133594e+00 2.5013200193e+00 4.3324133594e+00 
107900 5.3842350381e+00 3.0950597988e-05 2.5013200193e+00 -4.3324133594e+00 2.5013200193e+00 4.3324133594e+00 
108000 5.3842350385e+00 3.1000229915e-05 2.5013200193e+00 -4.3324133594e+00 2.5013200193e+00 4.3324133594e+00 
108100 5.3842350390e+00 3.1049441782e-05 2.5013200193e+00 -4.3324133594e+00 2.5013200193e+00 4.3324133594e+00 
108200 5.3842350395e+00 3.1098237544e-05 2.5013200193e+00 -4.3324133594e+00 2.5013200193e+00 4.3324133594e+00 
108300 5.3842350399e+00 3.1146621113e-05 2.5013200193e+00 -4.3324133594e+00 2.5013200193e+00 4.3324133594e+00 
108400 5.3842350404e+00 3.1194596353e-05 2.5013200193e+00 -4.3324133594e+00 2.5013200193e+00 4.3324133594e+00 
108500 5.3842350408e+00 3.1242167085e-05 2.5013200193e+00 -4.3324133594e+00 2.5013200193e+00 4.3324133594e+00 
108600 5.3842350413e+00 3.1289337085e-05 2.5013200193e+00 -4.3324133594e+00 2.5013200193e+00 4.3324133594e+00 
108700 5.3842350417e+00 3.1336110086e-05 2.5013200193e+00 -4.3324133594e+00 2.5013200193e+00 4.3324133594e+00 
108800 5.3842350421e+00 3.1382489779e-05 2.5013200193e+00 -4.3324133594e+00 2.5013200193e+00 4.3324133594e+00 
108900 5.3842350425e+00 3.1428479811e-05 2.5013200193e+00 -4.3324133594e+00 2.5013200193e+00 4.3324133594e+00 
109000 5.3842350429e+00 3.1474083788e-05 2.5013200193e+00 -4.3324133594e+00 2.5013200193e+00 4.3324133594e+00 
109100 5.3842350433e+00 3.1519305276e-05 2.5013200193e+00 -4.3324133594e+00 2.5013200193e+00 4.3324133594e+00 
109200 5.3842350437e+00 3.1564147801e-05 2.5013200193e+00 -4.3324133594e+00 2.5013200193e+00 4.3324133594e+00 
109300 5.3842350441e+00 3.1608614845e-05 2.5013200193e+00 -4.3324133594e+00 2.5013200193e+00 4.3324133594e+00 
109400 5.3842350445e+00 3.1652709857e-05 2.5013200193e+00 -4.3324133594e+00 2.5013200193e+00 4.3324133594e+00 
109500 5.3842350449e+00 3.1696436243e-05 2.5013200193e+00 -4.3324133594e+00 2.5013200193e+00 4.3324133594e+00 
109600 5.3842350453e+00 3.1739797370e-05 2.5013200193e+00 -4.3324133594e+00 2.5013200193e+00 4.3324133594e+00 
109700 5.3842350456e+00 3.1782796572e-05 2.5013200193e+00 -4.3324133594e+00 2.5013200193e+00 4.3324133594e+00 
109800 5.3842350460e+00 3.1825437142e-05 2.5013200193e+00 -4.3324133594e+00 2.5013200193e+00 4.3324133594e+00 
109900 5.3842350463e+00 3.1867722338e-05 2.5013200193e+00 -4.3324133594e+00 2.5013200193e+00 4.3324133594e+00 
110000 5.3842350467e+00 3.1909655383e-05 2.5013200193e+00 -4.3324133594e+00 2.5013200193e+00 4.3324133594e+00 
110100 5.3842350470e+00 3.1951239462e-05 2.5013200193e+00 -4.3324133594e+00 2.5013200193e+00 4.3324133594e+00 
110200 5.3842350474e+00 3.1992477727e-05 2.5013200193e+00 -4.3324133594e+00 2.5013200193e+00 4.3324133594e+00 
110300 5.3842350477e+00 3.2033373295e-05 2.5013200193e+00 -4.3324133594e+00 2.5013200193e+00 4.3324133594e+00 
110400 5.3842350480e+00 3.2073929250e-05 2.5013200193e+00 -4.3324133594e+00 2.5013200193e+00 4.3324133594e+00 
110500 5.3842350484e+00 3.2114148641e-05 2.5013200193e+00 -4.3324133594e+00 2.5013200193e+00 4.3324133594e+00 
110600 5.3842350487e+00 3.2154034486e-05 2.5013200193e+00 -4.3324133594e+00 2.5013200193e+00 4.3324133594e+00 
110700 5.3842350490e+00 3.2193589770e-05 2.5013200193e+00 -4.3324133594e+00 2.5013200193e+00 4.3324133594e+00 
110800 5.3842350493e+00 3.2232817444e-05 2.5013200193e+00 -4.3324133594e+00 2.5013200193e+00 4.3324133594e+00 
110900 5.3842350496e+00 3.2271720431e-05 2.5013200193e+00 -4.3324133594e+00 2.5013200193e+00 4.3324133594e+00 
111000 5.3842350499e+00 3.2310301621e-05 2.5013200193e+00 -4.3324133594e+00 2.5013200193e+00 4.3324133594e+00 
111100 5.3842350502e+00 3.2348563873e-05 2.5013200193e+00 -4.3324133594e+00 2.5013200193e+00 4.3324133594e+00 
111200 5.3842350505e+00 3.2386510017e-05 2.5013200193e+00 -4.3324133594e+00 2.5013200193e+00 4.3324133594e+00 
111300 5.3842350508e+00 3.2424142852e-05 2.5013200193e+00 -4.3324133594e+00 2.5013200193e+00 4.3324133594e+00 
111400 5.3842350511e+00 3.2461465150e-05 2.5013200193e+00 -4.3324133594e+00 2.5013200193e+00 4.3324133594e+00 
111500 5.3842350513e+00 3.2498479654e-05 2.5013200193e+00 -4.3324133594e+00 2.5013200193e+00 4.3324133594e+00 
111600 5.3842350516e+00 3.2535189077e-05 2.5013200193e+00 -4.3324133594e+00 2.5013200193e+00 4.3324133594e+00 
111700 5.3842350519e+00 3.2571596105e-05 2.5013200193e+00 -4.3324133594e+00 2.5013200193e+00 4.3324133594e+00 
111800 5.3842350521e+00 3.2607703394e-05 2.5013200193e+00 -4.3324133594e+00 2.5013200193e+00 4.3324133594e+00 
111900 5.3842350524e+00 3.2643513578e-05 2.5013200193e+00 -4.3324133594e+00 2.5013200193e+00 4.3324133594e+00 
112000 5.3842350527e+00 3.2679029260e-05 2.5013200193e+00 -4.3324133594e+00 2.5013200193e+00 4.3324133594e+00 
112100 5.3842350529e+00 3.2714253019e-05 2.5013200193e+00 -4.3324133594e+00 2.5013200193e+00 4.3324133594e+00 
112200 5.3842350532e+00 3.2749187406e-05 2.5013200193e+00 -4.3324133594e+00 2.5013200193e+00 4.3324133594e+00 
112300 5.3842350534e+00 3.2783834948e-05 2.5013200193e+00 -4.3324133594e+00 2.5013200193e+00 4.3324133594e+00 
112400 5.3842350536e+00 3.2818198147e-05 2.5013200193e+00 -4.3324133594e+00 2.5013200193e+00 4.3324133594e+00 
112500 5.3842350539e+00 3.2852279479e-05 2.5013200193e+00 -4.3324133594e+00 2.5013200193e+00 4.3324133594e+00 
112600 5.3842350541e+00 3.2886081394e-05 2.5013200193e+00 -4.3324133594e+00 2.5013200193e+00 4.3324133594e+00 
112700 5.3842350543e+00 3.2919606322e-05 2.5013200193e+00 -4.3324133594e+00 2.5013200193e+00 4.3324133594e+00 
112800 5.3842350546e+00 3.2952856667e-05 2.5013200193e+00 -4.3324133594e+00 2.5013200193e+00 4.3324133594e+00 
112900 5.3842350548e+00 3.2985834806e-05 2.5013200193e+00 -4.3324133594e+00 2.5013200193e+00 4.3324133594e+00 
113000 5.3842350550e+00 3.3018543100e-05 2.5013200193e+00 -4.3324133594e+00 2.5013200193e+00 4.3324133594e+00 
113100 5.3842350552e+00 3.3050983883e-05 2.5013200193e+00 -4.3324133594e+00 2.5013200193e+00 4.3324133594e+00 
113200 5.3842350554e+00 3.3083159465e-05 2.5013200193e+00 -4.3324133594e+00 2.5013200193e+00 4.3324133594e+00 
113300 5.3842350557e+00 3.3115072137e-05 2.5013200193e+00 -4.3324133594e+00 2.5013200193e+00 4.3324133594e+00 
113400 5.3842350559e+00 3.3146724166e-05 2.5013200193e+00 -4.3324133594e+00 2.5013200193e+00 4.3324133594e+00 
113500 5.3842350561e+00 3.3178117798e-05 2.5013200193e+00 -4.3324133594e+00 2.5013200193e+00 4.3324133594e+00 
113600 5.3842350563e+00 3.3209255259e-05 2.5013200193e+00 -4.3324133594e+00 2.5013200193e+00 4.3324133594e+00 
113700 5.3842350565e+00 3.3240138751e-05 2.5013200193e+00 -4.3324133594e+00 2.5013200193e+00 4.3324133594e+00 
113800 5.3842350567e+00 3.3270770456e-05 2.5013200193e+00 -4.3324133594e+00 2.5013200193e+00 4.3324133594e+00 
113900 5.3842350569e+00 3.3301152540e-05 2.5013200193e+00 -4.3324133594e+00 2.5013200193e+00 4.3324133594e+00 
114000 5.3842350570e+00 3.3331287143e-05 2.5013200193e+00 -4.3324133594e+00 2.5013200193e+00 4.3324133594e+00 
114100 5.3842350572e+00 3.3361176387e-05 2.5013200193e+00 -4.3324133594e+00 2.5013200193e+00 4.3324133594e+00 
114200 5.3842350574e+00 3.3390822376e-05 2.5013200193e+00 -4.3324133594e+00 2.5013200193e+00 4.3324133594e+00 
114300 5.3842350576e+00 3.3420227191e-05 2.5013200193e+00 -4.3324133594e+00 2.5013200193e+00 4.3324133594e+00 
114400 5.3842350578e+00 3.3449392898e-05 2.5013200193e+00 -4.3324133594e+00 2.5013200193e+00 4.3324133594e+00 
114500 5.3842350579e+00 3.3478321540e-05 2.5013200193e+00 -4.3324133594e+00 2.5013200193e+00 4.3324133594e+00 
114600 5.3842350581e+00 3.3507015146e-05 2.5013200193e+00 -4.3324133594e+00 2.5013200193e+00 4.3324133594e+00 
114700 5.3842350583e+00 3.3535475721e-05 2.5013200193e+00 -4.3324133594e+00 2.5013200193e+00 4.3324133594e+00 
114800 5.3842350585e+00 3.3563705255e-05 2.5013200193e+00 -4.3324133594e+00 2.5013200193e+00 4.3324133594e+00 
114900 5.3842350586e+00 3.3591705720e-05 2.5013200193e+00 -4.3324133594e+00 2.5013200193e+00 4.3324133594e+00 
115000 5.3842350588e+00 3.3619479070e-05 2.5013200193e+00 -4.3324133594e+00 2.5013200193e+00 4.3324133594e+00 
115100 5.3842350589e+00 3.3647027240e-05 2.5013200193e+00 -4.3324133594e+00 2.5013200193e+00 4.3324133594e+00 
115200 5.3842350591e+00 3.3674352150e-05 2.5013200193e+00 -4.3324133594e+00 2.5013200193e+00 4.3324133594e+00 
115300 5.3842350593e+00 3.3701455700e-05 2.5013200193e+00 -4.3324133594e+00 2.5013200193e+00 4.3324133594e+00 
115400 5.3842350594e+00 3.3728339775e-05 2.5013200193e+00 -4.3324133594e+00 2.5013200193e+00 4.3324133594e+00 
115500 5.3842350596e+00 3.3755006244e-05 2.5013200193e+00 -4.3324133594e+00 2.5013200193e+00 4.3324133594e+00 
115600 5.3842350597e+00 3.3781456956e-05 2.5013200193e+00 -4.3324133594e+00 2.5013200193e+00 4.3324133594e+00 
115700 5.3842350598e+00 3.3807693746e-05 2.5013200193e+00 -4.3324133594e+00 2.5013200193e+00 4.3324133594e+00 
115800 5.3842350600e+00 3.3833718433e-05 2.5013200193e+00 -4.3324133594e+00 2.5013200193e+00 4.3324133594e+00 
115900 5.3842350601e+00 3.3859532820e-05 2.5013200193e+00 -4.3324133594e+00 2.5013200193e+00 4.3324133594e+00 
116000 5.3842350603e+00 3.3885138693e-05 2.5013200193e+00 -4.3324133594e+00 2.5013200193e+00 4.3324133594e+00 
116100 5.3842350604e+00 3.3910537822e-05 2.5013200193e+00 -4.3324133594e+00 2.5013200193e+00 4.3324133594e+00 
116200 5.3842350605e+00 3.3935731964e-05 2.5013200193e+00 -4.3324133594e+00 2.5013200193e+00 4.3324133594e+00 
116300 5.3842350607e+00 3.3960722858e-05 2.5013200193e+00 -4.3324133594e+00 2.5013200193e+00 4.3324133594e+00 
116400 5.3842350608e+00 3.3985512227e-05 2.5013200193e+00 -4.3324133594e+00 2.5013200193e+00 4.3324133594e+00 
116500 5.3842350609e+00 3.4010101784e-05 2.5013200193e+00 -4.3324133594e+00 2.5013200193e+00 4.3324133594e+00 
116600 5.3842350611e+00 3.4034493222e-05 2.5013200193e+00 -4.3324133594e+00 2.5013200193e+00 4.3324133594e+00 
116700 5.3842350612e+00 3.4058688222e-05 2.5013200193e+00 -4.3324133594e+00 2.5013200193e+00 4.3324133594e+00 
116800 5.3842350613e+00 3.4082688448e-05 2.5013200193e+00 -4.3324133594e+00 2.5013200193e+00 4.3324133594e+00 
116900 5.3842350614e+00 3.4106495553e-05 2.5013200193e+00 -4.3324133594e+00 2.5013200193e+00 4.3324133594e+00 
117000 5.3842350616e+00 3.4130111172e-05 2.5013200193e+00 -4.3324133594e+00 2.5013200193e+00 4.3324133594e+00 
117100 5.3842350617e+00 3.4153536929e-05 2.5013200193e+00 -4.3324133594e+00 2.5013200193e+00 4.3324133594e+00 
117200 5.3842350618e+00 3.4176774434e-05 2.5013200193e+00 -4.3324133594e+00 2.5013200193e+00 4.3324133594e+00 
117300 5.3842350619e+00 3.4199825279e-05 2.5013200193e+00 -4.3324133594e+00 2.5013200193e+00 4.3324133594e+00 
117400 5.3842350620e+00 3.4222691046e-05 2.5013200193e+00 -4.3324133594e+00 2.5013200193e+00 4.3324133594e+00 
117500 5.3842350621e+00 3.4245373304e-05 2.5013200193e+00 -4.3324133594e+00 2.5013200193e+00 4.3324133594e+00 
117600 5.3842350622e+00 3.4267873606e-05 2.5013200193e+00 -4.3324133594e+00 2.5013200193e+00 4.3324133594e+00 
117700 5.3842350623e+00 3.4290193493e-05 2.5013200193e+00 -4.3324133594e+00 2.5013200193e+00 4.3324133594e+00 
117800 5.3842350625e+00 3.4312334492e-05 2.5013200193e+00 -4.3324133594e+00 2.5013200193e+00 4.3324133594e+00 
117900 5.3842350626e+00 3.4334298117e-05 2.5013200193e+00 -4.3324133594e+00 2.5013200193e+00 4.3324133594e+00 
118000 5.3842350627e+00 3.4356085872e-05 2.5013200193e+00 -4.3324133594e+00 2.5013200193e+00 4.3324133594e+00 
118100 5.3842350628e+00 3.4377699244e-05 2.5013200193e+00 -4.3324133594e+00 2.5013200193e+00 4.3324133594e+00 
118200 5.3842350629e+00 3.4399139708e-05 2.5013200193e+00 -4.3324133594e+00 2.5013200193e+00 4.3324133594e+00 
118300 5.3842350630e+00 3.4420408728e-05 2.5013200193e+00 -4.3324133594e+00 2.5013200193e+00 4.3324133594e+00 
118400 5.3842350631e+00 3.4441507755e-05 2.5013200193e+00 -4.3324133594e+00 2.5013200193e+00 4.3324133594e+00 
118500 5.3842350632e+00 3.4462438226e-05 2.5013200193e+00 -4.3324133594e+00 2.5013200193e+00 4.3324133594e+00 
118600 5.3842350632e+00 3.4483201568e-05 2.5013200193e+00 -4.3324133594e+00 2.5013200193e+00 4.3324133594e+00 
118700 5.3842350633e+00 3.4503799195e-05 2.5013200193e+00 -4.3324133594e+00 2.5013200193e+00 4.3324133594e+00 
118800 5.3842350634e+00 3.4524232509e-05 2.5013200193e+00 -4.3324133594e+00 2.5013200193e+00 4.3324133594e+00 
118900 5.3842350635e+00 3.4544502899e-05 2.5013200193e+00 -4.3324133594e+00 2.5013200193e+00 4.3324133594e+00 
119000 5.3842350636e+00 3.4564611743e-05 2.5013200193e+00 -4.3324133594e+00 2.5013200193e+00 4.3324133594e+00 
119100 5.3842350637e+00 3.4584560406e-05 2.5013200193e+00 -4.3324133594e+00 2.5013200193e+00 4.3324133594e+00 
119200 5.3842350638e+00 3.4604350245e-05 2.5013200193e+00 -4.3324133594e+00 2.5013200193e+00 4.3324133594e+00 
119300 5.3842350639e+00 3.4623982600e-05 2.5013200193e+00 -4.3324133594e+00 2.5013200193e+00 4.3324133594e+00 
119400 5.3842350640e+00 3.4643458804e-05 2.5013200193e+00 -4.3324133594e+00 2.5013200193e+00 4.3324133594e+00 
119500 5.3842350640e+00 3.4662780177e-05 2.5013200193e+00 -4.3324133594e+00 2.5013200193e+00 4.3324133594e+00 
119600 5.3842350641e+00 3.4681948025e-05 2.5013200193e+00 -4.3324133594e+00 2.5013200193e+00 4.3324133594e+00 
119700 5.3842350642e+00 3.4700963649e-05 2.5013200193e+00 -4.3324133594e+00 2.5013200193e+00 4.3324133594e+00 
119800 5.3842350643e+00 3.4719828334e-05 2.5013200193e+00 -4.3324133594e+00 2.5013200193e+00 4.3324133594e+00 
119900 5.3842350644e+00 3.4738543353e-05 2.5013200193e+00 -4.3324133594e+00 2.5013200193e+00 4.3324133594e+00 
120000 5.3842350644e+00 3.4757109973e-05 2.5013200193e+00 -4.3324133594e+00 2.5013200193e+00 4.3324133594e+00 
120100 5.3842350645e+00 3.4775529447e-05 2.5013200193e+00 -4.3324133594e+00 2.5013200193e+00 4.3324133594e+00 
120200 5.3842350646e+00 3.4793803017e-05 2.5013200193e+00 -4.3324133594e+00 2.5013200193e+00 4.3324133594e+00 
120300 5.3842350647e+00 3.4811931915e-05 2.5013200193e+00 -4.3324133594e+00 2.5013200193e+00 4.3324133594e+00 
120400 5.3842350647e+00 3.4829917362e-05 2.5013200193e+00 -4.3324133594e+00 2.5013200193e+00 4.3324133594e+00 
120500 5.3842350648e+00 3.4847760569e-05 2.5013200193e+00 -4.3324133594e+00 2.5013200193e+00 4.3324133594e+00 
120600 5.3842350649e+00 3.4865462737e-05 2.5013200193e+00 -4.3324133594e+00 2.5013200193e+00 4.3324133594e+00 
120700 5.3842350649e+00 3.4883025055e-05 2.5013200193e+00 -4.3324133594e+00 2.5013200193e+00 4.3324133594e+00 
120800 5.3842350650e+00 3.4900448704e-05 2.5013200193e+00 -4.3324133594e+00 2.5013200193e+00 4.3324133594e+00 
120900 5.3842350651e+00 3.4917734851e-05 2.5013200193e+00 -4.3324133594e+00 2.5013200193e+00 4.3324133594e+00 
121000 5.3842350651e+00 3.4934884659e-05 2.5013200193e+00 -4.3324133594e+00 2.5013200193e+00 4.3324133594e+00 
121100 5.3842350652e+00 3.4951899275e-05 2.5013200193e+00 -4.3324133594e+00 2.5013200193e+00 4.3324133594e+00 
121200 5.3842350653e+00 3.4968779839e-05 2.5013200193e+00 -4.3324133594e+00 2.5013200193e+00 4.3324133594e+00 
121300 5.3842350653e+00 3.4985527480e-05 2.5013200193e+00 -4.3324133594e+00 2.5013200193e+00 4.3324133594e+00 
121400 5.3842350654e+00 3.5002143318e-05 2.5013200193e+00 -4.3324133594e+00 2.5013200193e+00 4.3324133594e+00 
121500 5.3842350655e+00 3.5018628464e-05 2.5013200193e+00 -4.3324133594e+00 2.5013200193e+00 4.3324133594e+00 
121600 5.3842350655e+00 3.5034984017e-05 2.5013200193e+00 -4.3324133594e+00 2.5013200193e+00 4.3324133594e+00 
121700 5.3842350656e+00 3.5051211068e-05 2.5013200193e+00 -4.3324133594e+00 2.5013200193e+00 4.3324133594e+00 
121800 5.3842350656e+00 3.5067310698e-05 2.5013200193e+00 -4.3324133594e+00 2.5013200193e+00 4.3324133594e+00 
121900 5.3842350657e+00 3.5083283980e-05 2.5013200193e+00 -4.3324133594e+00 2.5013200193e+00 4.3324133594e+00 
122000 5.3842350658e+00 3.5099131976e-05 2.5013200193e+00 -4.3324133594e+00 2.5013200193e+00 4.3324133594e+00 
122100 5.3842350658e+00 3.5114855738e-05 2.5013200193e+00 -4.3324133594e+00 2.5013200193e+00 4.3324133594e+00 
122200 5.3842350659e+00 3.5130456311e-05 2.5013200193e+00 -4.3324133594e+00 2.5013200193e+00 4.3324133594e+00 
122300 5.3842350659e+00 3.5145934731e-05 2.5013200193e+00 -4.3324133594e+00 2.5013200193e+00 4.3324133594e+00 
122400 5.3842350660e+00 3.5161292021e-05 2.5013200193e+00 -4.3324133594e+00 2.5013200193e+00 4.3324133594e+00 
122500 5.3842350660e+00 3.5176529199e-05 2.5013200193e+00 -4.3324133594e+00 2.5013200193e+00 4.3324133594e+00 
122600 5.3842350661e+00 3.5191647272e-05 2.5013200193e+00 -4.3324133594e+00 2.5013200193e+00 4.3324133594e+00 
122700 5.3842350661e+00 3.5206647240e-05 2.5013200193e+00 -4.3324133594e+00 2.5013200193e+00 4.3324133594e+00 
122800 5.3842350662e+00 3.5221530093e-05 2.5013200193e+00 -4.3324133594e+00 2.5013200193e+00 4.3324133594e+00 
122900 5.3842350662e+00 3.5236296812e-05 2.5013200193e+00 -4.3324133594e+00 2.5013200193e+00 4.3324133594e+00 
123000 5.3842350663e+00 3.5250948368e-05 2.5013200193e+00 -4.3324133594e+00 2.5013200193e+00 4.3324133594e+00 
123100 5.3842350663e+00 3.5265485728e-05 2.5013200193e+00 -4.3324133594e+00 2.5013200193e+00 4.3324133594e+00 
123200 5.3842350664e+00 3.5279909847e-05 2.5013200193e+00 -4.3324133594e+00 2.5013200193e+00 4.3324133594e+00 
123300 5.3842350664e+00 3.5294221670e-05 2.5013200193e+00 -4.3324133594e+00 2.5013200193e+00 4.3324133594e+00 
123400 5.3842350665e+00 3.5308422138e-05 2.5013200193e+00 -4.3324133594e+00 2.5013200193e+00 4.3324133594e+00 
123500 5.3842350665e+00 3.5322512180e-05 2.5013200193e+00 -4.3324133594e+00 2.5013200193e+00 4.3324133594e+00 
123600 5.3842350666e+00 3.5336492720e-05 2.5013200193e+00 -4.3324133594e+00 2.5013200193e+00 4.3324133594e+00 
123700 5.3842350666e+00 3.5350364669e-05 2.5013200193e+00 -4.3324133594e+00 2.5013200193e+00 4.3324133594e+00 
123800 5.3842350667e+00 3.5364128936e-05 2.5013200193e+00 -4.3324133594e+00 2.5013200193e+00 4.3324133594e+00 
123900 5.3842350667e+00 3.5377786417e-05 2.5013200193e+00 -4.3324133594e+00 2.5013200193e+00 4.3324133594e+00 
124000 5.3842350667e+00 3.5378330508e-05 2.5013200193e+00 -4.3324133594e+00 2.5013200193e+00 4.3324133594e+00 
124000 5.3842350667e+00 3.5378330508e-05 2.5013200193e+00 -4.3324133594e+00 2.5013200193e+00 4.3324133594e+00 
