# step Hamiltonian StressXX CellTensor1 CellTensor2 CellTensor3 CellTensor4 
0 5.6972499773e+00 2.1311343622e-01 2.8378601290e+00 -4.9153179282e+00 2.8378601290e+00 4.9153179282e+00 
100 5.7011084701e+00 2.4233751859e-01 2.8378601290e+00 -4.9153179282e+00 2.8378601290e+00 4.9153179282e+00 
200 5.7076074903e+00 2.6960910014e-01 2.8335914785e+00 -4.9079244087e+00 2.8335914785e+00 4.9079244087e+00 
300 5.7170935994e+00 2.9535083181e-01 2.8288354378e+00 -4.8996867045e+00 2.8288354378e+00 4.8996867045e+00 
400 5.7293095177e+00 3.1981251117e-01 2.8236166856e+00 -4.8906475605e+00 2.8236166856e+00 4.8906475605e+00 
500 5.7439394842e+00 3.4318195067e-01 2.8179554109e+00 -4.8808419452e+00 2.8179554109e+00 4.8808419452e+00 
600 5.7605847490e+00 3.6553585071e-01 2.8118684074e+00 -4.8702989459e+00 2.8118684074e+00 4.8702989459e+00 
700 5.7787193738e+00 3.8675021993e-01 2.8053710426e+00 -4.8590451799e+00 2.8053710426e+00 4.8590451799e+00 
800 5.7976150003e+00 4.0634557553e-01 2.7984808409e+00 -4.8471110004e+00 2.7984808409e+00 4.8471110004e+00 
900 5.8162302670e+00 4.2325674646e-01 2.7912238782e+00 -4.8345415723e+00 2.7912238782e+00 4.8345415723e+00 
1000 5.8331001820e+00 4.3561265513e-01 2.7836453996e+00 -4.8214152624e+00 2.7836453996e+00 4.8214152624e+00 
1100 5.8463664636e+00 4.4087371839e-01 2.7758245758e+00 -4.8078691982e+00 2.7758245758e+00 4.8078691982e+00 
1200 5.8542094411e+00 4.3693724340e-01 2.7678870623e+00 -4.7941210215e+00 2.7678870623e+00 4.7941210215e+00 
1300 5.8557377366e+00 4.2413350489e-01 2.7599978498e+00 -4.7804565046e+00 2.7599978498e+00 4.7804565046e+00 
1400 5.8516311740e+00 4.0602750497e-01 2.7523178408e+00 -4.7671543389e+00 2.7523178408e+00 4.7671543389e+00 
1500 5.8436650557e+00 3.8725281935e-01 2.7449450430e+00 -4.7543842784e+00 2.7449450430e+00 4.7543842784e+00 
1600 5.8335992068e+00 3.7071783732e-01 2.7378941453e+00 -4.7421717654e+00 2.7378941453e+00 4.7421717654e+00 
1700 5.8225746919e+00 3.5707456754e-01 2.7311268151e+00 -4.7304504056e+00 2.7311268151e+00 4.7304504056e+00 
1800 5.8111687506e+00 3.4577171204e-01 2.7245923001e+00 -4.7191322937e+00 2.7245923001e+00 4.7191322937e+00 
1900 5.7996409844e+00 3.3601408039e-01 2.7182493844e+00 -4.7081460415e+00 2.7182493844e+00 4.7081460415e+00 
2000 5.7881091183e+00 3.2716399857e-01 2.7120710246e+00 -4.6974448084e+00 2.7120710246e+00 4.6974448084e+00 
2100 5.7766341595e+00 3.1880505086e-01 2.7060416387e+00 -4.6870016056e+00 2.7060416387e+00 4.6870016056e+00 
2200 5.7652549272e+00 3.1069387734e-01 2.7001531644e+00 -4.6768024689e+00 2.7001531644e+00 4.6768024689e+00 
2300 5.7540008371e+00 3.0269981609e-01 2.6944019479e+00 -4.6668410697e+00 2.6944019479e+00 4.6668410697e+00 
2400 5.7428963996e+00 2.9475947066e-01 2.6887867051e+00 -4.6571151840e+00 2.6887867051e+00 4.6571151840e+00 
2500 5.7319627486e+00 2.8684751346e-01 2.6833072984e+00 -4.6476245732e+00 2.6833072984e+00 4.6476245732e+00 
2600 5.7212181554e+00 2.7895920747e-01 2.6779640399e+00 -4.6383697779e+00 2.6779640399e+00 4.6383697779e+00 
2700 5.7106782258e+00 2.7110032991e-01 2.6727573119e+00 -4.6293514605e+00 2.6727573119e+00 4.6293514605e+00 
2800 5.7003560229e+00 2.6328150562e-01 2.6676873710e+00 -4.6205700653e+00 2.6676873710e+00 4.6205700653e+00 
2900 5.6902621941e+00 2.5551509320e-01 2.6627542557e+00 -4.6120256590e+00 2.6627542557e+00 4.6120256590e+00 
3000 5.6804051226e+00 2.4781352632e-01 2.6579577519e+00 -4.6037178706e+00 2.6579577519e+00 4.6037178706e+00 
3100 5.6707911030e+00 2.4018847592e-01 2.6532973889e+00 -4.5956458851e+00 2.6532973889e+00 4.5956458851e+00 
3200 5.6614245333e+00 2.3265047039e-01 2.6487724519e+00 -4.5878084644e+00 2.6487724519e+00 4.5878084644e+00 
3300 5.6523081141e+00 2.2520876740e-01 2.6443820016e+00 -4.5802039814e+00 2.6443820016e+00 4.5802039814e+00 
3400 5.6434430495e+00 2.1787135968e-01 2.6401248968e+00 -4.5728304596e+00 2.6401248968e+00 4.5728304596e+00 
3500 5.6348292408e+00 2.1064504852e-01 2.6359998169e+00 -4.5656856117e+00 2.6359998169e+00 4.5656856117e+00 
3600 5.6264654714e+00 2.0353554751e-01 2.6320052842e+00 -4.5587668780e+00 2.6320052842e+00 4.5587668780e+00 
3700 5.6183495778e+00 1.9654759585e-01 2.6281396833e+00 -4.5520714608e+00 2.6281396833e+00 4.5520714608e+00 
3800 5.6104786067e+00 1.8968506998e-01 2.6244012799e+00 -4.5455963563e+00 2.6244012799e+00 4.5455963563e+00 
3900 5.6028489555e+00 1.8295108801e-01 2.6207882373e+00 -4.5393383828e+00 2.6207882373e+00 4.5393383828e+00 
4000 5.5954564982e+00 1.7634810439e-01 2.6172986302e+00 -4.5332942060e+00 2.6172986302e+00 4.5332942060e+00 
4100 5.5882966957e+00 1.6987799396e-01 2.6139304585e+00 -4.5274603615e+00 2.6139304585e+00 4.5274603615e+00 
4200 5.5813646917e+00 1.6354212580e-01 2.6106816583e+00 -4.5218332746e+00 2.6106816583e+00 4.5218332746e+00 
4300 5.5746553957e+00 1.5734142731e-01 2.6075501125e+00 -4.5164092781e+00 2.6075501125e+00 4.5164092781e+00 
4400 5.5681635527e+00 1.5127643977e-01 2.6045336594e+00 -4.5111846282e+00 2.6045336594e+00 4.5111846282e+00 
4500 5.5618838036e+00 1.4534736606e-01 2.6016301013e+00 -4.5061555180e+00 2.6016301013e+00 4.5061555180e+00 
4600 5.5558107340e+00 1.3955411177e-01 2.5988372115e+00 -4.5013180908e+00 2.5988372115e+00 4.5013180908e+00 
4700 5.5499389153e+00 1.3389632049e-01 2.5961527406e+00 -4.4966684508e+00 2.5961527406e+00 4.4966684508e+00 
4800 5.5442629382e+00 1.2837340421e-01 2.5935744228e+00 -4.4922026736e+00 2.5935744228e+00 4.4922026736e+00 
4900 5.5387774389e+00 1.2298456939e-01 2.5910999812e+00 -4.4879168150e+00 2.5910999812e+00 4.4879168150e+00 
5000 5.5334771204e+00 1.1772883962e-01 2.5887271323e+00 -4.4838069200e+00 2.5887271323e+00 4.4838069200e+00 
5100 5.5283567684e+00 1.1260507518e-01 2.5864535904e+00 -4.4798690300e+00 2.5864535904e+00 4.4798690300e+00 
5200 5.5234112632e+00 1.0761199013e-01 2.5842770722e+00 -4.4760991899e+00 2.5842770722e+00 4.4760991899e+00 
5300 5.5186355880e+00 1.0274816731e-01 2.5821952999e+00 -4.4724934545e+00 2.5821952999e+00 4.4724934545e+00 
5400 5.5140248351e+00 9.8012071572e-02 2.5802060049e+00 -4.4690478945e+00 2.5802060049e+00 4.4690478945e+00 
5500 5.5095742085e+00 9.3402061550e-02 2.5783069310e+00 -4.4657586020e+00 2.5783069310e+00 4.4657586020e+00 
5600 5.5052790255e+00 8.8916400243e-02 2.5764958371e+00 -4.4626216954e+00 2.5764958371e+00 4.4626216954e+00 
5700 5.5011347168e+00 8.4553264583e-02 2.5747705002e+00 -4.4596333242e+00 2.5747705002e+00 4.4596333242e+00 
5800 5.4971368247e+00 8.0310754165e-02 2.5731287175e+00 -4.4567896732e+00 2.5731287175e+00 4.4567896732e+00 
5900 5.4932810011e+00 7.6186899297e-02 2.5715683092e+00 -4.4540869666e+00 2.5715683092e+00 4.4540869666e+00 
6000 5.4895630045e+00 7.2179668464e-02 2.5700871200e+00 -4.4515214718e+00 2.5700871200e+00 4.4515214718e+00 
6100 5.4859786967e+00 6.8286975310e-02 2.5686830219e+00 -4.4490895024e+00 2.5686830219e+00 4.4490895024e+00 
6200 5.4825240395e+00 6.4506685216e-02 2.5673539151e+00 -4.4467874219e+00 2.5673539151e+00 4.4467874219e+00 
6300 5.4791950903e+00 6.0836621526e-02 2.5660977302e+00 -4.4446116459e+00 2.5660977302e+00 4.4446116459e+00 
6400 5.4759879989e+00 5.7274571476e-02 2.5649124298e+00 -4.4425586453e+00 2.5649124298e+00 4.4425586453e+00 
6500 5.4728990038e+00 5.3818291855e-02 2.5637960093e+00 -4.4406249483e+00 2.5637960093e+00 4.4406249483e+00 
6600 5.4699244281e+00 5.0465514435e-02 2.5627464988e+00 -4.4388071428e+00 2.5627464988e+00 4.4388071428e+00 
6700 5.4670606771e+00 4.7213951178e-02 2.5617619636e+00 -4.4371018778e+00 2.5617619636e+00 4.4371018778e+00 
6800 5.4643042345e+00 4.4061299251e-02 2.5608405056e+00 -4.4355058658e+00 2.5608405056e+00 4.4355058658e+00 
6900 5.4616516598e+00 4.1005245837e-02 2.5599802640e+00 -4.4340158836e+00 2.5599802640e+00 4.4340158836e+00 
7000 5.4590995860e+00 3.8043472774e-02 2.5591794159e+00 -4.4326287740e+00 2.5591794159e+00 4.4326287740e+00 
7100 5.4566447172e+00 3.5173660994e-02 2.5584361771e+00 -4.4313414466e+00 2.5584361771e+00 4.4313414466e+00 
7200 5.4542838267e+00 3.2393494796e-02 2.5577488024e+00 -4.4301508787e+00 2.5577488024e+00 4.4301508787e+00 
7300 5.4520137555e+00 2.9700665921e-02 2.5571155862e+00 -4.4290541161e+00 2.5571155862e+00 4.4290541161e+00 
7400 5.4498314110e+00 2.7092877450e-02 2.5565348627e+00 -4.4280482735e+00 2.5565348627e+00 4.4280482735e+00 
7500 5.4477337655e+00 2.4567847506e-02 2.5560050060e+00 -4.4271305349e+00 2.5560050060e+00 4.4271305349e+00 
7600 5.4457178560e+00 2.2123312767e-02 2.5555244303e+00 -4.4262981533e+00 2.5555244303e+00 4.4262981533e+00 
7700 5.4437807831e+00 1.9757031782e-02 2.5550915899e+00 -4.4255484516e+00 2.5550915899e+00 4.4255484516e+00 
7800 5.4419197108e+00 1.7466788087e-02 2.5547049788e+00 -4.4248788216e+00 2.5547049788e+00 4.4248788216e+00 
7900 5.4401318661e+00 1.5250393123e-02 2.5543631311e+00 -4.4242867241e+00 2.5543631311e+00 4.4242867241e+00 
8000 5.4384145390e+00 1.3105688943e-02 2.5540646204e+00 -4.4237696884e+00 2.5540646204e+00 4.4237696884e+00 
8100 5.4367650823e+00 1.1030550720e-02 2.5538080594e+00 -4.4233253116e+00 2.5538080594e+00 4.4233253116e+00 
8200 5.4351809121e+00 9.0228890474e-03 2.5535920996e+00 -4.4229512584e+00 2.5535920996e+00 4.4229512584e+00 
8300 5.4336595075e+00 7.0806520341e-03 2.5534154311e+00 -4.4226452596e+00 2.5534154311e+00 4.4226452596e+00 
8400 5.4321984108e+00 5.2018271942e-03 2.5532767818e+00 -4.4224051118e+00 2.5532767818e+00 4.4224051118e+00 
8500 5.4307952282e+00 3.3844431365e-03 2.5531749167e+00 -4.4222286764e+00 2.5531749167e+00 4.4222286764e+00 
8600 5.4294476293e+00 1.6265710533e-03 2.5531086379e+00 -4.4221138781e+00 2.5531086379e+00 4.4221138781e+00 
8700 5.4281533480e+00 -7.3673985787e-05 2.5530767833e+00 -4.4220587043e+00 2.5530767833e+00 4.4220587043e+00 
8800 5.4269101823e+00 -1.7181319303e-03 2.5530782261e+00 -4.4220612033e+00 2.5530782261e+00 4.4220612033e+00 
8900 5.4257159941e+00 -3.3085968318e-03 2.5531118744e+00 -4.4221194839e+00 2.5531118744e+00 4.4221194839e+00 
9000 5.4245687100e+00 -4.8468161057e-03 2.5531766701e+00 -4.4222317133e+00 2.5531766701e+00 4.4222317133e+00 
9100 5.4234663206e+00 -6.3344899664e-03 2.5532715880e+00 -4.4223961160e+00 2.5532715880e+00 4.4223961160e+00 
9200 5.4224068807e+00 -7.7732710273e-03 2.5533956356e+00 -4.4226109727e+00 2.5533956356e+00 4.4226109727e+00 
9300 5.4213885092e+00 -9.1647640603e-03 2.5535478515e+00 -4.4228746183e+00 2.5535478515e+00 4.4228746183e+00 
9400 5.4204093884e+00 -1.0510525904e-02 2.5537273052e+00 -4.4231854412e+00 2.5537273052e+00 4.4231854412e+00 
9500 5.4194677641e+00 -1.1812065514e-02 2.5539330959e+00 -4.4235418812e+00 2.5539330959e+00 4.4235418812e+00 
9600 5.4185619447e+00 -1.3070844149e-02 2.5541643518e+00 -4.4239424282e+00 2.5541643518e+00 4.4239424282e+00 
9700 5.4176903010e+00 -1.4288275674e-02 2.5544202293e+00 -4.4243856210e+00 2.5544202293e+00 4.4243856210e+00 
9800 5.4168512653e+00 -1.5465726991e-02 2.5546999119e+00 -4.4248700454e+00 2.5546999119e+00 4.4248700454e+00 
9900 5.4160433304e+00 -1.6604518562e-02 2.5550026095e+00 -4.4253943331e+00 2.5550026095e+00 4.4253943331e+00 
10000 5.4152650493e+00 -1.7705925045e-02 2.5553275577e+00 -4.4259571599e+00 2.5553275577e+00 4.4259571599e+00 
10100 5.4145150336e+00 -1.8771176006e-02 2.5556740167e+00 -4.4265572445e+00 2.5556740167e+00 4.4265572445e+00 
10200 5.4137919530e+00 -1.9801456720e-02 2.5560412706e+00 -4.4271933470e+00 2.5560412706e+00 4.4271933470e+00 
10300 5.4130945336e+00 -2.0797909043e-02 2.5564286266e+00 -4.4278642672e+00 2.5564286266e+00 4.4278642672e+00 
10400 5.4124215574e+00 -2.1761632342e-02 2.5568354140e+00 -4.4285688437e+00 2.5568354140e+00 4.4285688437e+00 
10500 5.4117718603e+00 -2.2693684490e-02 2.5572609838e+00 -4.4293059521e+00 2.5572609838e+00 4.4293059521e+00 
10600 5.4111443313e+00 -2.3595082904e-02 2.5577047074e+00 -4.4300745039e+00 2.5577047074e+00 4.4300745039e+00 
10700 5.4105379108e+00 -2.4466805623e-02 2.5581659762e+00 -4.4308734450e+00 2.5581659762e+00 4.4308734450e+00 
10800 5.4099515893e+00 -2.5309792426e-02 2.5586442010e+00 -4.4317017547e+00 2.5586442010e+00 4.4317017547e+00 
10900 5.4093844060e+00 -2.6124945970e-02 2.5591388108e+00 -4.4325584439e+00 2.5591388108e+00 4.4325584439e+00 
11000 5.4088354470e+00 -2.6913132956e-02 2.5596492523e+00 -4.4334425545e+00 2.5596492523e+00 4.4334425545e+00 
11100 5.4083038441e+00 -2.7675185307e-02 2.5601749895e+00 -4.4343531580e+00 2.5601749895e+00 4.4343531580e+00 
11200 5.4077887730e+00 -2.8411901354e-02 2.5607155025e+00 -4.4352893540e+00 2.5607155025e+00 4.4352893540e+00 
11300 5.4072894518e+00 -2.9124047031e-02 2.5612702874e+00 -4.4362502697e+00 2.5612702874e+00 4.4362502697e+00 
11400 5.4068051396e+00 -2.9812357069e-02 2.5618388554e+00 -4.4372350583e+00 2.5618388554e+00 4.4372350583e+00 
11500 5.4063351344e+00 -3.0477536183e-02 2.5624207320e+00 -4.4382428983e+00 2.5624207320e+00 4.4382428983e+00 
11600 5.4058787723e+00 -3.1120260249e-02 2.5630154571e+00 -4.4392729922e+00 2.5630154571e+00 4.4392729922e+00 
11700 5.4054354253e+00 -3.1741177481e-02 2.5636225835e+00 -4.4403245660e+00 2.5636225835e+00 4.4403245660e+00 
11800 5.4050044999e+00 -3.2340909572e-02 2.5642416773e+00 -4.4413968679e+00 2.5642416773e+00 4.4413968679e+00 
11900 5.4045854357e+00 -3.2920052839e-02 2.5648723166e+00 -4.4424891673e+00 2.5648723166e+00 4.4424891673e+00 
12000 5.4041777038e+00 -3.3479179331e-02 2.5655140917e+00 -4.4436007544e+00 2.5655140917e+00 4.4436007544e+00 
12100 5.4037808054e+00 -3.4018837918e-02 2.5661666042e+00 -4.4447309392e+00 2.5661666042e+00 4.4447309392e+00 
12200 5.4033942702e+00 -3.4539555360e-02 2.5668294665e+00 -4.4458790504e+00 2.5668294665e+00 4.4458790504e+00 
12300 5.4030176549e+00 -3.5041837342e-02 2.5675023017e+00 -4.4470444351e+00 2.5675023017e+00 4.4470444351e+00 
12400 5.4026505423e+00 -3.5526169483e-02 2.5681847429e+00 -4.4482264580e+00 2.5681847429e+00 4.4482264580e+00 
12500 5.4022925394e+00 -3.5993018316e-02 2.5688764331e+00 -4.4494245005e+00 2.5688764331e+00 4.4494245005e+00 
12600 5.4019432763e+00 -3.6442832237e-02 2.5695770245e+00 -4.4506379604e+00 2.5695770245e+00 4.4506379604e+00 
12700 5.4016024049e+00 -3.6876042421e-02 2.5702861783e+00 -4.4518662509e+00 2.5702861783e+00 4.4518662509e+00 
12800 5.4012695979e+00 -3.7293063707e-02 2.5710035646e+00 -4.4531088002e+00 2.5710035646e+00 4.4531088002e+00 
12900 5.4009445473e+00 -3.7694295448e-02 2.5717288614e+00 -4.4543650513e+00 2.5717288614e+00 4.4543650513e+00 
13000 5.4006269635e+00 -3.8080122333e-02 2.5724617553e+00 -4.4556344606e+00 2.5724617553e+00 4.4556344606e+00 
13100 5.4003165739e+00 -3.8450915173e-02 2.5732019402e+00 -4.4569164985e+00 2.5732019402e+00 4.4569164985e+00 
13200 5.4000131223e+00 -3.8807031650e-02 2.5739491178e+00 -4.4582106480e+00 2.5739491178e+00 4.4582106480e+00 
13300 5.3997163675e+00 -3.9148817042e-02 2.5747029968e+00 -4.4595164048e+00 2.5747029968e+00 4.4595164048e+00 
13400 5.3994260827e+00 -3.9476604910e-02 2.5754632931e+00 -4.4608332766e+00 2.5754632931e+00 4.4608332766e+00 
13500 5.3991420540e+00 -3.9790717752e-02 2.5762297292e+00 -4.4621607830e+00 2.5762297292e+00 4.4621607830e+00 
13600 5.3988640804e+00 -4.0091467628e-02 2.5770020343e+00 -4.4634984546e+00 2.5770020343e+00 4.4634984546e+00 
13700 5.3985919723e+00 -4.0379156757e-02 2.5777799437e+00 -4.4648458332e+00 2.5777799437e+00 4.4648458332e+00 
13800 5.3983255508e+00 -4.0654078075e-02 2.5785631991e+00 -4.4662024714e+00 2.5785631991e+00 4.4662024714e+00 
13900 5.3980646473e+00 -4.0916515773e-02 2.5793515480e+00 -4.4675679317e+00 2.5793515480e+00 4.4675679317e+00 
14000 5.3978091023e+00 -4.1166745800e-02 2.5801447437e+00 -4.4689417870e+00 2.5801447437e+00 4.4689417870e+00 
14100 5.3975587654e+00 -4.1405036339e-02 2.5809425452e+00 -4.4703236197e+00 2.5809425452e+00 4.4703236197e+00 
14200 5.3973134941e+00 -4.1631648258e-02 2.5817447169e+00 -4.4717130218e+00 2.5817447169e+00 4.4717130218e+00 
14300 5.3970731533e+00 -4.1846835535e-02 2.5825510285e+00 -4.4731095945e+00 2.5825510285e+00 4.4731095945e+00 
14400 5.3968376150e+00 -4.2050845654e-02 2.5833612549e+00 -4.4745129478e+00 2.5833612549e+00 4.4745129478e+00 
14500 5.3966067577e+00 -4.2243919977e-02 2.5841751762e+00 -4.4759227008e+00 2.5841751762e+00 4.4759227008e+00 
14600 5.3963804658e+00 -4.2426294101e-02 2.5849925772e+00 -4.4773384808e+00 2.5849925772e+00 4.4773384808e+00 
14700 5.3961586293e+00 -4.2598198176e-02 2.5858132476e+00 -4.4787599237e+00 2.5858132476e+00 4.4787599237e+00 
14800 5.3959411431e+00 -4.2759857219e-02 2.5866369818e+00 -4.4801866733e+00 2.5866369818e+00 4.4801866733e+00 
14900 5.3957279071e+00 -4.2911491397e-02 2.5874635790e+00 -4.4816183815e+00 2.5874635790e+00 4.4816183815e+00 
15000 5.3955188253e+00 -4.3053316290e-02 2.5882928425e+00 -4.4830547080e+00 2.5882928425e+00 4.4830547080e+00 
15100 5.3953138059e+00 -4.3185543140e-02 2.5891245803e+00 -4.4844953202e+00 2.5891245803e+00 4.4844953202e+00 
15200 5.3951127607e+00 -4.3308379081e-02 2.5899586047e+00 -4.4859398928e+00 2.5899586047e+00 4.4859398928e+00 
15300 5.3949156049e+00 -4.3422027346e-02 2.5907947321e+00 -4.4873881080e+00 2.5907947321e+00 4.4873881080e+00 
15400 5.3947222569e+00 -4.3526687467e-02 2.5916327832e+00 -4.4888396551e+00 2.5916327832e+00 4.4888396551e+00 
15500 5.3945326380e+00 -4.3622555453e-02 2.5924725827e+00 -4.4902942304e+00 2.5924725827e+00 4.4902942304e+00 
15600 5.3943466721e+00 -4.3709823957e-02 2.5933139593e+00 -4.4917515374e+00 2.5933139593e+00 4.4917515374e+00 
15700 5.3941642857e+00 -4.3788682426e-02 2.5941567456e+00 -4.4932112861e+00 2.5941567456e+00 4.4932112861e+00 
15800 5.3939854075e+00 -4.3859317241e-02 2.5950007782e+00 -4.4946731934e+00 2.5950007782e+00 4.4946731934e+00 
15900 5.3938099683e+00 -4.3921911847e-02 2.5958458973e+00 -4.4961369828e+00 2.5958458973e+00 4.4961369828e+00 
16000 5.3936379009e+00 -4.3976646862e-02 2.5966919471e+00 -4.4976023840e+00 2.5966919471e+00 4.4976023840e+00 
16100 5.3934691398e+00 -4.4023700188e-02 2.5975387752e+00 -4.4990691333e+00 2.5975387752e+00 4.4990691333e+00 
16200 5.3933036213e+00 -4.4063247105e-02 2.5983862331e+00 -4.5005369734e+00 2.5983862331e+00 4.5005369734e+00 
16300 5.3931412832e+00 -4.4095460353e-02 2.5992341756e+00 -4.5020056529e+00 2.5992341756e+00 4.5020056529e+00 
16400 5.3929820647e+00 -4.4120510214e-02 2.6000824612e+00 -4.5034749266e+00 2.6000824612e+00 4.5034749266e+00 
16500 5.3928259065e+00 -4.4138564579e-02 2.6009309518e+00 -4.5049445554e+00 2.6009309518e+00 4.5049445554e+00 
16600 5.3926727504e+00 -4.4149789010e-02 2.6017795126e+00 -4.5064143059e+00 2.6017795126e+00 4.5064143059e+00 
16700 5.3925225395e+00 -4.4154346792e-02 2.6026280124e+00 -4.5078839507e+00 2.6026280124e+00 4.5078839507e+00 
16800 5.3923752180e+00 -4.4152398987e-02 2.6034763231e+00 -4.5093532679e+00 2.6034763231e+00 4.5093532679e+00 
16900 5.3922307311e+00 -4.4144104473e-02 2.6043243200e+00 -4.5108220416e+00 2.6043243200e+00 4.5108220416e+00 
17000 5.3920890251e+00 -4.4129619981e-02 2.6051718814e+00 -4.5122900611e+00 2.6051718814e+00 4.5122900611e+00 
17100 5.3919500471e+00 -4.4109100130e-02 2.6060188891e+00 -4.5137571214e+00 2.6060188891e+00 4.5137571214e+00 
17200 5.3918137454e+00 -4.4082697451e-02 2.6068652277e+00 -4.5152230228e+00 2.6068652277e+00 4.5152230228e+00 
17300 5.3916800688e+00 -4.4050562417e-02 2.6077107850e+00 -4.5166875710e+00 2.6077107850e+00 4.5166875710e+00 
17400 5.3915489673e+00 -4.4012843458e-02 2.6085554519e+00 -4.5181505770e+00 2.6085554519e+00 4.5181505770e+00 
17500 5.3914203915e+00 -4.3969686980e-02 2.6093991222e+00 -4.5196118568e+00 2.6093991222e+00 4.5196118568e+00 
17600 5.3912942927e+00 -4.3921237380e-02 2.6102416926e+00 -4.5210712317e+00 2.6102416926e+00 4.5210712317e+00 
17700 5.3911706233e+00 -4.3867637057e-02 2.6110830629e+00 -4.5225285278e+00 2.6110830629e+00 4.5225285278e+00 
17800 5.3910493362e+00 -4.3809026422e-02 2.6119231356e+00 -4.5239835763e+00 2.6119231356e+00 4.5239835763e+00 
17900 5.3909303850e+00 -4.3745543905e-02 2.6127618159e+00 -4.5254362132e+00 2.6127618159e+00 4.5254362132e+00 
18000 5.3908137242e+00 -4.3677325959e-02 2.6135990120e+00 -4.5268862793e+00 2.6135990120e+00 4.5268862793e+00 
18100 5.3906993089e+00 -4.3604507069e-02 2.6144346346e+00 -4.5283336203e+00 2.6144346346e+00 4.5283336203e+00 
18200 5.3905870948e+00 -4.3527219750e-02 2.6152685974e+00 -4.5297780862e+00 2.6152685974e+00 4.5297780862e+00 
18300 5.3904770386e+00 -4.3445594554e-02 2.6161008165e+00 -4.5312195319e+00 2.6161008165e+00 4.5312195319e+00 
18400 5.3903690973e+00 -4.3359760066e-02 2.6169312106e+00 -4.5326578166e+00 2.6169312106e+00 4.5326578166e+00 
18500 5.3902632288e+00 -4.3269842909e-02 2.6177597009e+00 -4.5340928041e+00 2.6177597009e+00 4.5340928041e+00 
18600 5.3901593917e+00 -4.3175967743e-02 2.6185862115e+00 -4.5355243623e+00 2.6185862115e+00 4.5355243623e+00 
18700 5.3900575452e+00 -4.3078257266e-02 2.6194106684e+00 -4.5369523636e+00 2.6194106684e+00 4.5369523636e+00 
18800 5.3899576490e+00 -4.2976832211e-02 2.6202330006e+00 -4.5383766846e+00 2.6202330006e+00 4.5383766846e+00 
18900 5.3898596638e+00 -4.2871811349e-02 2.6210531389e+00 -4.5397972060e+00 2.6210531389e+00 4.5397972060e+00 
19000 5.3897635507e+00 -4.2763311488e-02 2.6218710171e+00 -4.5412138124e+00 2.6218710171e+00 4.5412138124e+00 
19100 5.3896692716e+00 -4.2651447474e-02 2.6226865707e+00 -4.5426263927e+00 2.6226865707e+00 4.5426263927e+00 
19200 5.3895767889e+00 -4.2536332190e-02 2.6234997378e+00 -4.5440348395e+00 2.6234997378e+00 4.5440348395e+00 
19300 5.3894860658e+00 -4.2418076560e-02 2.6243104587e+00 -4.5454390494e+00 2.6243104587e+00 4.5454390494e+00 
19400 5.3893970660e+00 -4.2296789546e-02 2.6251186759e+00 -4.5468389225e+00 2.6251186759e+00 4.5468389225e+00 
19500 5.3893097540e+00 -4.2172578157e-02 2.6259243338e+00 -4.5482343629e+00 2.6259243338e+00 4.5482343629e+00 
19600 5.3892240948e+00 -4.2045547444e-02 2.6267273791e+00 -4.5496252783e+00 2.6267273791e+00 4.5496252783e+00 
19700 5.3891400542e+00 -4.1915800511e-02 2.6275277607e+00 -4.5510115797e+00 2.6275277607e+00 4.5510115797e+00 
19800 5.3890575985e+00 -4.1783438512e-02 2.6283254291e+00 -4.5523931821e+00 2.6283254291e+00 4.5523931821e+00 
19900 5.3889766947e+00 -4.1648560664e-02 2.6291203372e+00 -4.5537700033e+00 2.6291203372e+00 4.5537700033e+00 
20000 5.3888973103e+00 -4.1511264245e-02 2.6299124396e+00 -4.5551419649e+00 2.6299124396e+00 4.5551419649e+00 
20100 5.3888194136e+00 -4.1371644605e-02 2.6307016929e+00 -4.5565089917e+00 2.6307016929e+00 4.5565089917e+00 
20200 5.3887429735e+00 -4.1229795175e-02 2.6314880554e+00 -4.5578710115e+00 2.6314880554e+00 4.5578710115e+00 
20300 5.3886679595e+00 -4.1085807470e-02 2.6322714875e+00 -4.5592279556e+00 2.6322714875e+00 4.5592279556e+00 
20400 5.3885943414e+00 -4.0939771103e-02 2.6330519510e+00 -4.5605797581e+00 2.6330519510e+00 4.5605797581e+00 
20500 5.3885220902e+00 -4.0791773793e-02 2.6338294097e+00 -4.5619263561e+00 2.6338294097e+00 4.5619263561e+00 
20600 5.3884511770e+00 -4.0641901376e-02 2.6346038291e+00 -4.5632676899e+00 2.6346038291e+00 4.5632676899e+00 
20700 5.3883815737e+00 -4.0490237817e-02 2.6353751763e+00 -4.5646037023e+00 2.6353751763e+00 4.5646037023e+00 
20800 5.3883132528e+00 -4.0336865223e-02 2.6361434199e+00 -4.5659343394e+00 2.6361434199e+00 4.5659343394e+00 
20900 5.3882461873e+00 -4.0181863855e-02 2.6369085303e+00 -4.5672595495e+00 2.6369085303e+00 4.5672595495e+00 
21000 5.3881803507e+00 -4.0025312145e-02 2.6376704794e+00 -4.5685792839e+00 2.6376704794e+00 4.5685792839e+00 
21100 5.3881157174e+00 -3.9867286708e-02 2.6384292404e+00 -4.5698934965e+00 2.6384292404e+00 4.5698934965e+00 
21200 5.3880522620e+00 -3.9707862359e-02 2.6391847882e+00 -4.5712021437e+00 2.6391847882e+00 4.5712021437e+00 
21300 5.3879899597e+00 -3.9547112133e-02 2.6399370991e+00 -4.5725051844e+00 2.6399370991e+00 4.5725051844e+00 
21400 5.3879287865e+00 -3.9385107294e-02 2.6406861507e+00 -4.5738025798e+00 2.6406861507e+00 4.5738025798e+00 
21500 5.3878687187e+00 -3.9221917364e-02 2.6414319220e+00 -4.5750942936e+00 2.6414319220e+00 4.5750942936e+00 
21600 5.3878097331e+00 -3.9057610130e-02 2.6421743934e+00 -4.5763802919e+00 2.6421743934e+00 4.5763802919e+00 
21700 5.3877518072e+00 -3.8892251675e-02 2.6429135466e+00 -4.5776605427e+00 2.6429135466e+00 4.5776605427e+00 
21800 5.3876949189e+00 -3.8725906389e-02 2.6436493644e+00 -4.5789350165e+00 2.6436493644e+00 4.5789350165e+00 
21900 5.3876390465e+00 -3.8558636992e-02 2.6443818309e+00 -4.5802036857e+00 2.6443818309e+00 4.5802036857e+00 
22000 5.3875841690e+00 -3.8390504560e-02 2.6451109315e+00 -4.5814665250e+00 2.6451109315e+00 4.5814665250e+00 
22100 5.3875302658e+00 -3.8221568538e-02 2.6458366527e+00 -4.5827235110e+00 2.6458366527e+00 4.5827235110e+00 
22200 5.3874773168e+00 -3.8051886771e-02 2.6465589820e+00 -4.5839746220e+00 2.6465589820e+00 4.5839746220e+00 
22300 5.3874253022e+00 -3.7881515518e-02 2.6472779081e+00 -4.5852198386e+00 2.6472779081e+00 4.5852198386e+00 
22400 5.3873742028e+00 -3.7710509483e-02 2.6479934209e+00 -4.5864591430e+00 2.6479934209e+00 4.5864591430e+00 
22500 5.3873239998e+00 -3.7538921833e-02 2.6487055110e+00 -4.5876925193e+00 2.6487055110e+00 4.5876925193e+00 
22600 5.3872746750e+00 -3.7366804223e-02 2.6494141703e+00 -4.5889199532e+00 2.6494141703e+00 4.5889199532e+00 
22700 5.3872262103e+00 -3.7194206822e-02 2.6501193915e+00 -4.5901414322e+00 2.6501193915e+00 4.5901414322e+00 
22800 5.3871785883e+00 -3.7021178335e-02 2.6508211683e+00 -4.5913569453e+00 2.6508211683e+00 4.5913569453e+00 
22900 5.3871317919e+00 -3.6847766029e-02 2.6515194954e+00 -4.5925664833e+00 2.6515194954e+00 4.5925664833e+00 
23000 5.3870858043e+00 -3.6674015755e-02 2.6522143682e+00 -4.5937700382e+00 2.6522143682e+00 4.5937700382e+00 
23100 5.3870406094e+00 -3.6499971979e-02 2.6529057830e+00 -4.5949676039e+00 2.6529057830e+00 4.5949676039e+00 
23200 5.3869961911e+00 -3.6325677801e-02 2.6535937372e+00 -4.5961591754e+00 2.6535937372e+00 4.5961591754e+00 
23300 5.3869525340e+00 -3.6151174982e-02 2.6542782285e+00 -4.5973447492e+00 2.6542782285e+00 4.5973447492e+00 
23400 5.3869096228e+00 -3.5976503974e-02 2.6549592558e+00 -4.5985243231e+00 2.6549592558e+00 4.5985243231e+00 
23500 5.3868674426e+00 -3.5801703937e-02 2.6556368187e+00 -4.5996978964e+00 2.6556368187e+00 4.5996978964e+00 
23600 5.3868259791e+00 -3.5626812772e-02 2.6563109172e+00 -4.6008654693e+00 2.6563109172e+00 4.6008654693e+00 
23700 5.3867852181e+00 -3.5451867144e-02 2.6569815524e+00 -4.6020270435e+00 2.6569815524e+00 4.6020270435e+00 
23800 5.3867451457e+00 -3.5276902506e-02 2.6576487258e+00 -4.6031826218e+00 2.6576487258e+00 4.6031826218e+00 
23900 5.3867057484e+00 -3.5101953126e-02 2.6583124398e+00 -4.6043322081e+00 2.6583124398e+00 4.6043322081e+00 
24000 5.3866670130e+00 -3.4927052113e-02 2.6589726971e+00 -4.6054758073e+00 2.6589726971e+00 4.6054758073e+00 
24100 5.3866289268e+00 -3.4752231441e-02 2.6596295013e+00 -4.6066134256e+00 2.6596295013e+00 4.6066134256e+00 
24200 5.3865914770e+00 -3.4577521974e-02 2.6602828565e+00 -4.6077450700e+00 2.6602828565e+00 4.6077450700e+00 
24300 5.3865546514e+00 -3.4402953495e-02 2.6609327673e+00 -4.6088707484e+00 2.6609327673e+00 4.6088707484e+00 
24400 5.3865184379e+00 -3.4228554724e-02 2.6615792388e+00 -4.6099904700e+00 2.6615792388e+00 4.6099904700e+00 
24500 5.3864828249e+00 -3.4054353350e-02 2.6622222768e+00 -4.6111042445e+00 2.6622222768e+00 4.6111042445e+00 
24600 5.3864478008e+00 -3.3880376051e-02 2.6628618875e+00 -4.6122120827e+00 2.6628618875e+00 4.6122120827e+00 
24700 5.3864133545e+00 -3.3706648520e-02 2.6634980776e+00 -4.6133139962e+00 2.6634980776e+00 4.6133139962e+00 
24800 5.3863794749e+00 -3.3533195489e-02 2.6641308541e+00 -4.6144099973e+00 2.6641308541e+00 4.6144099973e+00 
24900 5.3863461513e+00 -3.3360040754e-02 2.6647602248e+00 -4.6155000993e+00 2.6647602248e+00 4.6155000993e+00 
25000 5.3863133733e+00 -3.3187207197e-02 2.6653861975e+00 -4.6165843159e+00 2.6653861975e+00 4.6165843159e+00 
25100 5.3862811306e+00 -3.3014716810e-02 2.6660087808e+00 -4.6176626618e+00 2.6660087808e+00 4.6176626618e+00 
25200 5.3862494131e+00 -3.2842590720e-02 2.6666279835e+00 -4.6187351523e+00 2.6666279835e+00 4.6187351523e+00 
25300 5.3862182112e+00 -3.2670849209e-02 2.6672438147e+00 -4.6198018032e+00 2.6672438147e+00 4.6198018032e+00 
25400 5.3861875152e+00 -3.2499511738e-02 2.6678562840e+00 -4.6208626312e+00 2.6678562840e+00 4.6208626312e+00 
25500 5.3861573157e+00 -3.2328596970e-02 2.6684654013e+00 -4.6219176533e+00 2.6684654013e+00 4.6219176533e+00 
25600 5.3861276036e+00 -3.2158122792e-02 2.6690711768e+00 -4.6229668872e+00 2.6690711768e+00 4.6229668872e+00 
25700 5.3860983698e+00 -3.1988106333e-02 2.6696736211e+00 -4.6240103513e+00 2.6696736211e+00 4.6240103513e+00 
25800 5.3860696056e+00 -3.1818563992e-02 2.6702727449e+00 -4.6250480643e+00 2.6702727449e+00 4.6250480643e+00 
25900 5.3860413025e+00 -3.1649511453e-02 2.6708685595e+00 -4.6260800453e+00 2.6708685595e+00 4.6260800453e+00 
26000 5.3860134519e+00 -3.1480963708e-02 2.6714610761e+00 -4.6271063142e+00 2.6714610761e+00 4.6271063142e+00 
26100 5.3859860456e+00 -3.1312935077e-02 2.6720503065e+00 -4.6281268912e+00 2.6720503065e+00 4.6281268912e+00 
26200 5.3859590756e+00 -3.1145439230e-02 2.6726362625e+00 -4.6291417968e+00 2.6726362625e+00 4.6291417968e+00 
26300 5.3859325341e+00 -3.0978489202e-02 2.6732189563e+00 -4.6301510520e+00 2.6732189563e+00 4.6301510520e+00 
26400 5.3859064131e+00 -3.0812097416e-02 2.6737984002e+00 -4.6311546783e+00 2.6737984002e+00 4.6311546783e+00 
26500 5.3858807053e+00 -3.0646275700e-02 2.6743746067e+00 -4.6321526974e+00 2.6743746067e+00 4.6321526974e+00 
26600 5.3858554030e+00 -3.0481035307e-02 2.6749475887e+00 -4.6331451313e+00 2.6749475887e+00 4.6331451313e+00 
26700 5.3858304992e+00 -3.0316386930e-02 2.6755173591e+00 -4.6341320025e+00 2.6755173591e+00 4.6341320025e+00 
26800 5.3858059867e+00 -3.0152340724e-02 2.6760839310e+00 -4.6351133337e+00 2.6760839310e+00 4.6351133337e+00 
26900 5.3857818584e+00 -2.9988906320e-02 2.6766473176e+00 -4.6360891480e+00 2.6766473176e+00 4.6360891480e+00 
27000 5.3857581077e+00 -2.9826092843e-02 2.6772075324e+00 -4.6370594686e+00 2.6772075324e+00 4.6370594686e+00 
27100 5.3857347276e+00 -2.9663908928e-02 2.6777645891e+00 -4.6380243191e+00 2.6777645891e+00 4.6380243191e+00 
27200 5.3857117118e+00 -2.9502362737e-02 2.6783185014e+00 -4.6389837232e+00 2.6783185014e+00 4.6389837232e+00 
27300 5.3856890537e+00 -2.9341461974e-02 2.6788692830e+00 -4.6399377050e+00 2.6788692830e+00 4.6399377050e+00 
27400 5.3856667470e+00 -2.9181213903e-02 2.6794169481e+00 -4.6408862887e+00 2.6794169481e+00 4.6408862887e+00 
27500 5.3856447856e+00 -2.9021625357e-02 2.6799615106e+00 -4.6418294987e+00 2.6799615106e+00 4.6418294987e+00 
27600 5.3856231634e+00 -2.8862702759e-02 2.6805029848e+00 -4.6427673596e+00 2.6805029848e+00 4.6427673596e+00 
27700 5.3856018744e+00 -2.8704452135e-02 2.6810413851e+00 -4.6436998962e+00 2.6810413851e+00 4.6436998962e+00 
27800 5.3855809128e+00 -2.8546879124e-02 2.6815767257e+00 -4.6446271333e+00 2.6815767257e+00 4.6446271333e+00 
27900 5.3855602729e+00 -2.8389988996e-02 2.6821090212e+00 -4.6455490961e+00 2.6821090212e+00 4.6455490961e+00 
28000 5.3855399490e+00 -2.8233786664e-02 2.6826382861e+00 -4.6464658098e+00 2.6826382861e+00 4.6464658098e+00 
28100 5.3855199357e+00 -2.8078276696e-02 2.6831645350e+00 -4.6473772997e+00 2.6831645350e+00 4.6473772997e+00 
28200 5.3855002275e+00 -2.7923463327e-02 2.6836877826e+00 -4.6482835911e+00 2.6836877826e+00 4.6482835911e+00 
28300 5.3854808192e+00 -2.7769350474e-02 2.6842080437e+00 -4.6491847097e+00 2.6842080437e+00 4.6491847097e+00 
28400 5.3854617055e+00 -2.7615941745e-02 2.6847253330e+00 -4.6500806811e+00 2.6847253330e+00 4.6500806811e+00 
28500 5.3854428813e+00 -2.7463240451e-02 2.6852396653e+00 -4.6509715309e+00 2.6852396653e+00 4.6509715309e+00 
28600 5.3854243416e+00 -2.7311249620e-02 2.6857510557e+00 -4.6518572849e+00 2.6857510557e+00 4.6518572849e+00 
28700 5.3854060816e+00 -2.7159972003e-02 2.6862595189e+00 -4.6527379690e+00 2.6862595189e+00 4.6527379690e+00 
28800 5.3853880963e+00 -2.7009410089e-02 2.6867650699e+00 -4.6536136090e+00 2.6867650699e+00 4.6536136090e+00 
28900 5.3853703810e+00 -2.6859566112e-02 2.6872677236e+00 -4.6544842309e+00 2.6872677236e+00 4.6544842309e+00 
29000 5.3853529311e+00 -2.6710442064e-02 2.6877674952e+00 -4.6553498606e+00 2.6877674952e+00 4.6553498606e+00 
29100 5.3853357420e+00 -2.6562039700e-02 2.6882643995e+00 -4.6562105241e+00 2.6882643995e+00 4.6562105241e+00 
29200 5.3853188093e+00 -2.6414360553e-02 2.6887584516e+00 -4.6570662474e+00 2.6887584516e+00 4.6570662474e+00 
29300 5.3853021285e+00 -2.6267405940e-02 2.6892496665e+00 -4.6579170566e+00 2.6892496665e+00 4.6579170566e+00 
29400 5.3852856952e+00 -2.6121176969e-02 2.6897380592e+00 -4.6587629777e+00 2.6897380592e+00 4.6587629777e+00 
29500 5.3852695054e+00 -2.5975674550e-02 2.6902236449e+00 -4.6596040366e+00 2.6902236449e+00 4.6596040366e+00 
29600 5.3852535548e+00 -2.5830899404e-02 2.6907064384e+00 -4.6604402596e+00 2.6907064384e+00 4.6604402596e+00 
29700 5.3852378392e+00 -2.5686852067e-02 2.6911864549e+00 -4.6612716724e+00 2.6911864549e+00 4.6612716724e+00 
29800 5.3852223548e+00 -2.5543532904e-02 2.6916637092e+00 -4.6620983013e+00 2.6916637092e+00 4.6620983013e+00 
29900 5.3852070975e+00 -2.5400942108e-02 2.6921382166e+00 -4.6629201721e+00 2.6921382166e+00 4.6629201721e+00 
30000 5.3851920634e+00 -2.5259079715e-02 2.6926099918e+00 -4.6637373108e+00 2.6926099918e+00 4.6637373108e+00 
30100 5.3851772489e+00 -2.5117945606e-02 2.6930790500e+00 -4.6645497434e+00 2.6930790500e+00 4.6645497434e+00 
30200 5.3851626500e+00 -2.4977539514e-02 2.6935454060e+00 -4.6653574956e+00 2.6935454060e+00 4.6653574956e+00 
30300 5.3851482632e+00 -2.4837861035e-02 2.6940090747e+00 -4.6661605934e+00 2.6940090747e+00 4.6661605934e+00 
30400 5.3851340849e+00 -2.4698909628e-02 2.6944700711e+00 -4.6669590626e+00 2.6944700711e+00 4.6669590626e+00 
30500 5.3851201115e+00 -2.4560684624e-02 2.6949284100e+00 -4.6677529289e+00 2.6949284100e+00 4.6677529289e+00 
30600 5.3851063395e+00 -2.4423185233e-02 2.6953841063e+00 -4.6685422180e+00 2.6953841063e+00 4.6685422180e+00 
30700 5.3850927655e+00 -2.4286410548e-02 2.6958371747e+00 -4.6693269555e+00 2.6958371747e+00 4.6693269555e+00 
30800 5.3850793863e+00 -2.4150359548e-02 2.6962876301e+00 -4.6701071671e+00 2.6962876301e+00 4.6701071671e+00 
30900 5.3850661983e+00 -2.4015031108e-02 2.6967354871e+00 -4.6708828783e+00 2.6967354871e+00 4.6708828783e+00 
31000 5.3850531986e+00 -2.3880424001e-02 2.6971807605e+00 -4.6716541144e+00 2.6971807605e+00 4.6716541144e+00 
31100 5.3850403837e+00 -2.3746536904e-02 2.6976234650e+00 -4.6724209010e+00 2.6976234650e+00 4.6724209010e+00 
31200 5.3850277507e+00 -2.3613368399e-02 2.6980636150e+00 -4.6731832632e+00 2.6980636150e+00 4.6731832632e+00 
31300 5.3850152965e+00 -2.3480916985e-02 2.6985012253e+00 -4.6739412265e+00 2.6985012253e+00 4.6739412265e+00 
31400 5.3850030180e+00 -2.3349181073e-02 2.6989363103e+00 -4.6746948158e+00 2.6989363103e+00 4.6746948158e+00 
31500 5.3849909124e+00 -2.3218158997e-02 2.6993688845e+00 -4.6754440563e+00 2.6993688845e+00 4.6754440563e+00 
31600 5.3849789766e+00 -2.3087849015e-02 2.6997989623e+00 -4.6761889730e+00 2.6997989623e+00 4.6761889730e+00 
31700 5.3849672078e+00 -2.2958249314e-02 2.7002265582e+00 -4.6769295908e+00 2.7002265582e+00 4.6769295908e+00 
31800 5.3849556033e+00 -2.2829358013e-02 2.7006516865e+00 -4.6776659345e+00 2.7006516865e+00 4.6776659345e+00 
31900 5.3849441602e+00 -2.2701173164e-02 2.7010743614e+00 -4.6783980289e+00 2.7010743614e+00 4.6783980289e+00 
32000 5.3849328760e+00 -2.2573692761e-02 2.7014945971e+00 -4.6791258986e+00 2.7014945971e+00 4.6791258986e+00 
32100 5.3849217478e+00 -2.2446914738e-02 2.7019124080e+00 -4.6798495682e+00 2.7019124080e+00 4.6798495682e+00 
32200 5.3849107731e+00 -2.2320836973e-02 2.7023278080e+00 -4.6805690622e+00 2.7023278080e+00 4.6805690622e+00 
32300 5.3848999494e+00 -2.2195457295e-02 2.7027408113e+00 -4.6812844048e+00 2.7027408113e+00 4.6812844048e+00 
32400 5.3848892741e+00 -2.2070773481e-02 2.7031514319e+00 -4.6819956205e+00 2.7031514319e+00 4.6819956205e+00 
32500 5.3848787447e+00 -2.1946783262e-02 2.7035596837e+00 -4.6827027334e+00 2.7035596837e+00 4.6827027334e+00 
32600 5.3848683588e+00 -2.1823484326e-02 2.7039655806e+00 -4.6834057675e+00 2.7039655806e+00 4.6834057675e+00 
32700 5.3848581141e+00 -2.1700874317e-02 2.7043691365e+00 -4.6841047469e+00 2.7043691365e+00 4.6841047469e+00 
32800 5.3848480082e+00 -2.1578950843e-02 2.7047703652e+00 -4.6847996954e+00 2.7047703652e+00 4.6847996954e+00 
32900 5.3848380387e+00 -2.1457711472e-02 2.7051692805e+00 -4.6854906368e+00 2.7051692805e+00 4.6854906368e+00 
33000 5.3848282034e+00 -2.1337153740e-02 2.7055658959e+00 -4.6861775948e+00 2.7055658959e+00 4.6861775948e+00 
33100 5.3848185002e+00 -2.1217275146e-02 2.7059602250e+00 -4.6868605930e+00 2.7059602250e+00 4.6868605930e+00 
33200 5.3848089267e+00 -2.1098073163e-02 2.7063522816e+00 -4.6875396549e+00 2.7063522816e+00 4.6875396549e+00 
33300 5.3847994809e+00 -2.0979545232e-02 2.7067420789e+00 -4.6882148037e+00 2.7067420789e+00 4.6882148037e+00 
33400 5.3847901607e+00 -2.0861688767e-02 2.7071296306e+00 -4.6888860628e+00 2.7071296306e+00 4.6888860628e+00 
33500 5.3847809640e+00 -2.0744501159e-02 2.7075149498e+00 -4.6895534553e+00 2.7075149498e+00 4.6895534553e+00 
33600 5.3847718887e+00 -2.0627979772e-02 2.7078980500e+00 -4.6902170043e+00 2.7078980500e+00 4.6902170043e+00 
33700 5.3847629330e+00 -2.0512121949e-02 2.7082789444e+00 -4.6908767328e+00 2.7082789444e+00 4.6908767328e+00 
33800 5.3847540947e+00 -2.0396925013e-02 2.7086576462e+00 -4.6915326635e+00 2.7086576462e+00 4.6915326635e+00 
33900 5.3847453720e+00 -2.0282386266e-02 2.7090341684e+00 -4.6921848191e+00 2.7090341684e+00 4.6921848191e+00 
34000 5.3847367631e+00 -2.0168502994e-02 2.7094085242e+00 -4.6928332224e+00 2.7094085242e+00 4.6928332224e+00 
34100 5.3847282660e+00 -2.0055272465e-02 2.7097807266e+00 -4.6934778958e+00 2.7097807266e+00 4.6934778958e+00 
34200 5.3847198789e+00 -1.9942691931e-02 2.7101507884e+00 -4.6941188617e+00 2.7101507884e+00 4.6941188617e+00 
34300 5.3847116000e+00 -1.9830758631e-02 2.7105187226e+00 -4.6947561424e+00 2.7105187226e+00 4.6947561424e+00 
34400 5.3847034277e+00 -1.9719469790e-02 2.7108845420e+00 -4.6953897601e+00 2.7108845420e+00 4.6953897601e+00 
34500 5.3846953600e+00 -1.9608822621e-02 2.7112482592e+00 -4.6960197369e+00 2.7112482592e+00 4.6960197369e+00 
34600 5.3846873955e+00 -1.9498814325e-02 2.7116098871e+00 -4.6966460948e+00 2.7116098871e+00 4.6966460948e+00 
34700 5.3846795323e+00 -1.9389442095e-02 2.7119694382e+00 -4.6972688555e+00 2.7119694382e+00 4.6972688555e+00 
34800 5.3846717689e+00 -1.9280703112e-02 2.7123269250e+00 -4.6978880409e+00 2.7123269250e+00 4.6978880409e+00 
34900 5.3846641037e+00 -1.9172594550e-02 2.7126823601e+00 -4.6985036726e+00 2.7126823601e+00 4.6985036726e+00 
35000 5.3846565350e+00 -1.9065113576e-02 2.7130357559e+00 -4.6991157720e+00 2.7130357559e+00 4.6991157720e+00 
35100 5.3846490613e+00 -1.8958257349e-02 2.7133871248e+00 -4.6997243607e+00 2.7133871248e+00 4.6997243607e+00 
35200 5.3846416812e+00 -1.8852023021e-02 2.7137364790e+00 -4.7003294600e+00 2.7137364790e+00 4.7003294600e+00 
35300 5.3846343931e+00 -1.8746407742e-02 2.7140838308e+00 -4.7009310909e+00 2.7140838308e+00 4.7009310909e+00 
35400 5.3846271955e+00 -1.8641408653e-02 2.7144291924e+00 -4.7015292747e+00 2.7144291924e+00 4.7015292747e+00 
35500 5.3846200871e+00 -1.8537022895e-02 2.7147725758e+00 -4.7021240323e+00 2.7147725758e+00 4.7021240323e+00 
35600 5.3846130663e+00 -1.8433247602e-02 2.7151139932e+00 -4.7027153846e+00 2.7151139932e+00 4.7027153846e+00 
35700 5.3846061319e+00 -1.8330079908e-02 2.7154534565e+00 -4.7033033523e+00 2.7154534565e+00 4.7033033523e+00 
35800 5.3845992824e+00 -1.8227516943e-02 2.7157909777e+00 -4.7038879561e+00 2.7157909777e+00 4.7038879561e+00 
35900 5.3845925165e+00 -1.8125555834e-02 2.7161265685e+00 -4.7044692165e+00 2.7161265685e+00 4.7044692165e+00 
36000 5.3845858329e+00 -1.8024193710e-02 2.7164602409e+00 -4.7050471539e+00 2.7164602409e+00 4.7050471539e+00 
36100 5.3845792303e+00 -1.7923427697e-02 2.7167920065e+00 -4.7056217888e+00 2.7167920065e+00 4.7056217888e+00 
36200 5.3845727075e+00 -1.7823254920e-02 2.7171218770e+00 -4.7061931413e+00 2.7171218770e+00 4.7061931413e+00 
36300 5.3845662631e+00 -1.7723672505e-02 2.7174498640e+00 -4.7067612314e+00 2.7174498640e+00 4.7067612314e+00 
36400 5.3845598960e+00 -1.7624677578e-02 2.7177759790e+00 -4.7073260793e+00 2.7177759790e+00 4.7073260793e+00 
36500 5.3845536050e+00 -1.7526267267e-02 2.7181002336e+00 -4.7078877047e+00 2.7181002336e+00 4.7078877047e+00 
36600 5.3845473888e+00 -1.7428438698e-02 2.7184226392e+00 -4.7084461276e+00 2.7184226392e+00 4.7084461276e+00 
36700 5.3845412464e+00 -1.7331189003e-02 2.7187432071e+00 -4.7090013675e+00 2.7187432071e+00 4.7090013675e+00 
36800 5.3845351766e+00 -1.7234515311e-02 2.7190619487e+00 -4.7095534440e+00 2.7190619487e+00 4.7095534440e+00 
36900 5.3845291782e+00 -1.7138414757e-02 2.7193788751e+00 -4.7101023766e+00 2.7193788751e+00 4.7101023766e+00 
37000 5.3845232503e+00 -1.7042884475e-02 2.7196939975e+00 -4.7106481847e+00 2.7196939975e+00 4.7106481847e+00 
37100 5.3845173916e+00 -1.6947921605e-02 2.7200073271e+00 -4.7111908875e+00 2.7200073271e+00 4.7111908875e+00 
37200 5.3845116011e+00 -1.6853523288e-02 2.7203188749e+00 -4.7117305041e+00 2.7203188749e+00 4.7117305041e+00 
37300 5.3845058779e+00 -1.6759686668e-02 2.7206286518e+00 -4.7122670535e+00 2.7206286518e+00 4.7122670535e+00 
37400 5.3845002209e+00 -1.6666408894e-02 2.7209366689e+00 -4.7128005548e+00 2.7209366689e+00 4.7128005548e+00 
37500 5.3844946290e+00 -1.6573687116e-02 2.7212429370e+00 -4.7133310267e+00 2.7212429370e+00 4.7133310267e+00 
37600 5.3844891014e+00 -1.6481518491e-02 2.7215474669e+00 -4.7138584879e+00 2.7215474669e+00 4.7138584879e+00 
37700 5.3844836369e+00 -1.6389900177e-02 2.7218502694e+00 -4.7143829571e+00 2.7218502694e+00 4.7143829571e+00 
37800 5.3844782348e+00 -1.6298829339e-02 2.7221513550e+00 -4.7149044528e+00 2.7221513550e+00 4.7149044528e+00 
37900 5.3844728940e+00 -1.6208303145e-02 2.7224507346e+00 -4.7154229934e+00 2.7224507346e+00 4.7154229934e+00 
38000 5.3844676137e+00 -1.6118318767e-02 2.7227484185e+00 -4.7159385971e+00 2.7227484185e+00 4.7159385971e+00 
38100 5.3844623929e+00 -1.6028873384e-02 2.7230444174e+00 -4.7164512822e+00 2.7230444174e+00 4.7164512822e+00 
38200 5.3844572307e+00 -1.5939964179e-02 2.7233387417e+00 -4.7169610669e+00 2.7233387417e+00 4.7169610669e+00 
38300 5.3844521263e+00 -1.5851588339e-02 2.7236314018e+00 -4.7174679690e+00 2.7236314018e+00 4.7174679690e+00 
38400 5.3844470789e+00 -1.5763743056e-02 2.7239224079e+00 -4.7179720064e+00 2.7239224079e+00 4.7179720064e+00 
38500 5.3844420876e+00 -1.5676425531e-02 2.7242117705e+00 -4.7184731970e+00 2.7242117705e+00 4.7184731970e+00 
38600 5.3844371515e+00 -1.5589632967e-02 2.7244994996e+00 -4.7189715585e+00 2.7244994996e+00 4.7189715585e+00 
38700 5.3844322699e+00 -1.5503362574e-02 2.7247856055e+00 -4.7194671084e+00 2.7247856055e+00 4.7194671084e+00 
38800 5.3844274420e+00 -1.5417611568e-02 2.7250700982e+00 -4.7199598642e+00 2.7250700982e+00 4.7199598642e+00 
38900 5.3844226670e+00 -1.5332377170e-02 2.7253529877e+00 -4.7204498433e+00 2.7253529877e+00 4.7204498433e+00 
39000 5.3844179441e+00 -1.5247656609e-02 2.7256342842e+00 -4.7209370630e+00 2.7256342842e+00 4.7209370630e+00 
39100 5.3844132726e+00 -1.5163447117e-02 2.7259139974e+00 -4.7214215405e+00 2.7259139974e+00 4.7214215405e+00 
39200 5.3844086517e+00 -1.5079745937e-02 2.7261921372e+00 -4.7219032928e+00 2.7261921372e+00 4.7219032928e+00 
39300 5.3844040808e+00 -1.4996550314e-02 2.7264687135e+00 -4.7223823369e+00 2.7264687135e+00 4.7223823369e+00 
39400 5.3843995591e+00 -1.4913857502e-02 2.7267437359e+00 -4.7228586898e+00 2.7267437359e+00 4.7228586898e+00 
39500 5.3843950858e+00 -1.4831664761e-02 2.7270172142e+00 -4.7233323682e+00 2.7270172142e+00 4.7233323682e+00 
39600 5.3843906604e+00 -1.4749969357e-02 2.7272891581e+00 -4.7238033888e+00 2.7272891581e+00 4.7238033888e+00 
39700 5.3843862821e+00 -1.4668768564e-02 2.7275595770e+00 -4.7242717681e+00 2.7275595770e+00 4.7242717681e+00 
39800 5.3843819503e+00 -1.4588059663e-02 2.7278284806e+00 -4.7247375227e+00 2.7278284806e+00 4.7247375227e+00 
39900 5.3843776643e+00 -1.4507839940e-02 2.7280958782e+00 -4.7252006690e+00 2.7280958782e+00 4.7252006690e+00 
40000 5.3843734235e+00 -1.4428106691e-02 2.7283617794e+00 -4.7256612233e+00 2.7283617794e+00 4.7256612233e+00 
40100 5.3843692273e+00 -1.4348857218e-02 2.7286261933e+00 -4.7261192017e+00 2.7286261933e+00 4.7261192017e+00 
40200 5.3843650750e+00 -1.4270088828e-02 2.7288891295e+00 -4.7265746205e+00 2.7288891295e+00 4.7265746205e+00 
40300 5.3843609660e+00 -1.4191798840e-02 2.7291505970e+00 -4.7270274955e+00 2.7291505970e+00 4.7270274955e+00 
40400 5.3843568997e+00 -1.4113984577e-02 2.7294106050e+00 -4.7274778427e+00 2.7294106050e+00 4.7274778427e+00 
40500 5.3843528756e+00 -1.4036643369e-02 2.7296691628e+00 -4.7279256779e+00 2.7296691628e+00 4.7279256779e+00 
40600 5.3843488930e+00 -1.3959772557e-02 2.7299262794e+00 -4.7283710169e+00 2.7299262794e+00 4.7283710169e+00 
40700 5.3843449514e+00 -1.3883369487e-02 2.7301819638e+00 -4.7288138752e+00 2.7301819638e+00 4.7288138752e+00 
40800 5.3843410503e+00 -1.3807431513e-02 2.7304362250e+00 -4.7292542685e+00 2.7304362250e+00 4.7292542685e+00 
40900 5.3843371891e+00 -1.3731955998e-02 2.7306890718e+00 -4.7296922121e+00 2.7306890718e+00 4.7296922121e+00 
41000 5.3843333672e+00 -1.3656940311e-02 2.7309405132e+00 -4.7301277214e+00 2.7309405132e+00 4.7301277214e+00 
41100 5.3843295841e+00 -1.3582381832e-02 2.7311905580e+00 -4.7305608117e+00 2.7311905580e+00 4.7305608117e+00 
41200 5.3843258393e+00 -1.3508277946e-02 2.7314392149e+00 -4.7309914981e+00 2.7314392149e+00 4.7309914981e+00 
41300 5.3843221323e+00 -1.3434626047e-02 2.7316864927e+00 -4.7314197956e+00 2.7316864927e+00 4.7314197956e+00 
41400 5.3843184626e+00 -1.3361423539e-02 2.7319323999e+00 -4.7318457194e+00 2.7319323999e+00 4.7318457194e+00 
41500 5.3843148297e+00 -1.3288667831e-02 2.7321769451e+00 -4.7322692842e+00 2.7321769451e+00 4.7322692842e+00 
41600 5.3843112331e+00 -1.3216356344e-02 2.7324201370e+00 -4.7326905049e+00 2.7324201370e+00 4.7326905049e+00 
41700 5.3843076723e+00 -1.3144486504e-02 2.7326619840e+00 -4.7331093962e+00 2.7326619840e+00 4.7331093962e+00 
41800 5.3843041469e+00 -1.3073055747e-02 2.7329024945e+00 -4.7335259726e+00 2.7329024945e+00 4.7335259726e+00 
41900 5.3843006564e+00 -1.3002061518e-02 2.7331416770e+00 -4.7339402488e+00 2.7331416770e+00 4.7339402488e+00 
42000 5.3842972003e+00 -1.2931501270e-02 2.7333795397e+00 -4.7343522391e+00 2.7333795397e+00 4.7343522391e+00 
42100 5.3842937782e+00 -1.2861372465e-02 2.7336160910e+00 -4.7347619579e+00 2.7336160910e+00 4.7347619579e+00 
42200 5.3842903897e+00 -1.2791672572e-02 2.7338513390e+00 -4.7351694195e+00 2.7338513390e+00 4.7351694195e+00 
42300 5.3842870342e+00 -1.2722399071e-02 2.7340852920e+00 -4.7355746380e+00 2.7340852920e+00 4.7355746380e+00 
42400 5.3842837115e+00 -1.2653549451e-02 2.7343179581e+00 -4.7359776275e+00 2.7343179581e+00 4.7359776275e+00 
42500 5.3842804211e+00 -1.2585121206e-02 2.7345493454e+00 -4.7363784020e+00 2.7345493454e+00 4.7363784020e+00 
42600 5.3842771625e+00 -1.2517111844e-02 2.7347794619e+00 -4.7367769755e+00 2.7347794619e+00 4.7367769755e+00 
42700 5.3842739354e+00 -1.2449518879e-02 2.7350083156e+00 -4.7371733617e+00 2.7350083156e+00 4.7371733617e+00 
42800 5.3842707393e+00 -1.2382339835e-02 2.7352359143e+00 -4.7375675743e+00 2.7352359143e+00 4.7375675743e+00 
42900 5.3842675740e+00 -1.2315572245e-02 2.7354622661e+00 -4.7379596271e+00 2.7354622661e+00 4.7379596271e+00 
43000 5.3842644389e+00 -1.2249213650e-02 2.7356873787e+00 -4.7383495336e+00 2.7356873787e+00 4.7383495336e+00 
43100 5.3842613337e+00 -1.2183261601e-02 2.7359112600e+00 -4.7387373073e+00 2.7359112600e+00 4.7387373073e+00 
43200 5.3842582581e+00 -1.2117713660e-02 2.7361339175e+00 -4.7391229615e+00 2.7361339175e+00 4.7391229615e+00 
43300 5.3842552116e+00 -1.2052567396e-02 2.7363553591e+00 -4.7395065096e+00 2.7363553591e+00 4.7395065096e+00 
43400 5.3842521940e+00 -1.1987820388e-02 2.7365755924e+00 -4.7398879647e+00 2.7365755924e+00 4.7398879647e+00 
43500 5.3842492048e+00 -1.1923470224e-02 2.7367946249e+00 -4.7402673402e+00 2.7367946249e+00 4.7402673402e+00 
43600 5.3842462437e+00 -1.1859514503e-02 2.7370124642e+00 -4.7406446489e+00 2.7370124642e+00 4.7406446489e+00 
43700 5.3842433104e+00 -1.1795950832e-02 2.7372291178e+00 -4.7410199039e+00 2.7372291178e+00 4.7410199039e+00 
43800 5.3842404046e+00 -1.1732776828e-02 2.7374445931e+00 -4.7413931181e+00 2.7374445931e+00 4.7413931181e+00 
43900 5.3842375258e+00 -1.1669990117e-02 2.7376588975e+00 -4.7417643043e+00 2.7376588975e+00 4.7417643043e+00 
44000 5.3842346738e+00 -1.1607588336e-02 2.7378720384e+00 -4.7421334751e+00 2.7378720384e+00 4.7421334751e+00 
44100 5.3842318482e+00 -1.1545569131e-02 2.7380840231e+00 -4.7425006433e+00 2.7380840231e+00 4.7425006433e+00 
44200 5.3842290488e+00 -1.1483930157e-02 2.7382948588e+00 -4.7428658215e+00 2.7382948588e+00 4.7428658215e+00 
44300 5.3842262752e+00 -1.1422669080e-02 2.7385045527e+00 -4.7432290220e+00 2.7385045527e+00 4.7432290220e+00 
44400 5.3842235271e+00 -1.1361783575e-02 2.7387131120e+00 -4.7435902574e+00 2.7387131120e+00 4.7435902574e+00 
44500 5.3842208042e+00 -1.1301271327e-02 2.7389205439e+00 -4.7439495399e+00 2.7389205439e+00 4.7439495399e+00 
44600 5.3842181062e+00 -1.1241130032e-02 2.7391268553e+00 -4.7443068818e+00 2.7391268553e+00 4.7443068818e+00 
44700 5.3842154329e+00 -1.1181357393e-02 2.7393320534e+00 -4.7446622953e+00 2.7393320534e+00 4.7446622953e+00 
44800 5.3842127838e+00 -1.1121951125e-02 2.7395361451e+00 -4.7450157924e+00 2.7395361451e+00 4.7450157924e+00 
44900 5.3842101589e+00 -1.1062908954e-02 2.7397391372e+00 -4.7453673852e+00 2.7397391372e+00 4.7453673852e+00 
45000 5.3842075576e+00 -1.1004228615e-02 2.7399410368e+00 -4.7457170856e+00 2.7399410368e+00 4.7457170856e+00 
45100 5.3842049799e+00 -1.0945907852e-02 2.7401418507e+00 -4.7460649054e+00 2.7401418507e+00 4.7460649054e+00 
45200 5.3842024254e+00 -1.0887944420e-02 2.7403415856e+00 -4.7464108564e+00 2.7403415856e+00 4.7464108564e+00 
45300 5.3841998939e+00 -1.0830336085e-02 2.7405402484e+00 -4.7467549504e+00 2.7405402484e+00 4.7467549504e+00 
45400 5.3841973850e+00 -1.0773080622e-02 2.7407378457e+00 -4.7470971989e+00 2.7407378457e+00 4.7470971989e+00 
45500 5.3841948986e+00 -1.0716175816e-02 2.7409343842e+00 -4.7474376136e+00 2.7409343842e+00 4.7474376136e+00 
45600 5.3841924344e+00 -1.0659619463e-02 2.7411298705e+00 -4.7477762058e+00 2.7411298705e+00 4.7477762058e+00 
45700 5.3841899920e+00 -1.0603409368e-02 2.7413243112e+00 -4.7481129870e+00 2.7413243112e+00 4.7481129870e+00 
45800 5.3841875714e+00 -1.0547543349e-02 2.7415177129e+00 -4.7484479685e+00 2.7415177129e+00 4.7484479685e+00 
45900 5.3841851722e+00 -1.0492019232e-02 2.7417100820e+00 -4.7487811616e+00 2.7417100820e+00 4.7487811616e+00 
46000 5.3841827942e+00 -1.0436834853e-02 2.7419014250e+00 -4.7491125774e+00 2.7419014250e+00 4.7491125774e+00 
46100 5.3841804371e+00 -1.0381988060e-02 2.7420917483e+00 -4.7494422271e+00 2.7420917483e+00 4.7494422271e+00 
46200 5.3841781008e+00 -1.0327476711e-02 2.7422810583e+00 -4.7497701216e+00 2.7422810583e+00 4.7497701216e+00 
46300 5.3841757850e+00 -1.0273298672e-02 2.7424693613e+00 -4.7500962720e+00 2.7424693613e+00 4.7500962720e+00 
46400 5.3841734894e+00 -1.0219451823e-02 2.7426566636e+00 -4.7504206891e+00 2.7426566636e+00 4.7504206891e+00 
46500 5.3841712139e+00 -1.0165934051e-02 2.7428429714e+00 -4.7507433837e+00 2.7428429714e+00 4.7507433837e+00 
46600 5.3841689582e+00 -1.0112743258e-02 2.7430282910e+00 -4.7510643666e+00 2.7430282910e+00 4.7510643666e+00 
46700 5.3841667221e+00 -1.0059877351e-02 2.7432126284e+00 -4.7513836484e+00 2.7432126284e+00 4.7513836484e+00 
46800 5.3841645055e+00 -1.0007334251e-02 2.7433959899e+00 -4.7517012397e+00 2.7433959899e+00 4.7517012397e+00 
46900 5.3841623080e+00 -9.9551118888e-03 2.7435783814e+00 -4.7520171512e+00 2.7435783814e+00 4.7520171512e+00 
47000 5.3841601295e+00 -9.9032082052e-03 2.7437598091e+00 -4.7523313931e+00 2.7437598091e+00 4.7523313931e+00 
47100 5.3841579697e+00 -9.8516211518e-03 2.7439402789e+00 -4.7526439760e+00 2.7439402789e+00 4.7526439760e+00 
47200 5.3841558286e+00 -9.8003486907e-03 2.7441197968e+00 -4.7529549102e+00 2.7441197968e+00 4.7529549102e+00 
47300 5.3841537058e+00 -9.7493887945e-03 2.7442983688e+00 -4.7532642058e+00 2.7442983688e+00 4.7532642058e+00 
47400 5.3841516012e+00 -9.6987394463e-03 2.7444760006e+00 -4.7535718732e+00 2.7444760006e+00 4.7535718732e+00 
47500 5.3841495145e+00 -9.6483986397e-03 2.7446526981e+00 -4.7538779223e+00 2.7446526981e+00 4.7538779223e+00 
47600 5.3841474457e+00 -9.5983643789e-03 2.7448284672e+00 -4.7541823633e+00 2.7448284672e+00 4.7541823633e+00 
47700 5.3841453945e+00 -9.5486346788e-03 2.7450033136e+00 -4.7544852061e+00 2.7450033136e+00 4.7544852061e+00 
47800 5.3841433607e+00 -9.4992075646e-03 2.7451772430e+00 -4.7547864606e+00 2.7451772430e+00 4.7547864606e+00 
47900 5.3841413441e+00 -9.4500810722e-03 2.7453502611e+00 -4.7550861368e+00 2.7453502611e+00 4.7550861368e+00 
48000 5.3841393447e+00 -9.4012532480e-03 2.7455223735e+00 -4.7553842443e+00 2.7455223735e+00 4.7553842443e+00 
48100 5.3841373621e+00 -9.3527221489e-03 2.7456935860e+00 -4.7556807929e+00 2.7456935860e+00 4.7556807929e+00 
48200 5.3841353962e+00 -9.3044858425e-03 2.7458639039e+00 -4.7559757923e+00 2.7458639039e+00 4.7559757923e+00 
48300 5.3841334468e+00 -9.2565424068e-03 2.7460333330e+00 -4.7562692520e+00 2.7460333330e+00 4.7562692520e+00 
48400 5.3841315138e+00 -9.2088899306e-03 2.7462018786e+00 -4.7565611815e+00 2.7462018786e+00 4.7565611815e+00 
48500 5.3841295970e+00 -9.1615265129e-03 2.7463695462e+00 -4.7568515904e+00 2.7463695462e+00 4.7568515904e+00 
48600 5.3841276963e+00 -9.1144502635e-03 2.7465363413e+00 -4.7571404880e+00 2.7465363413e+00 4.7571404880e+00 
48700 5.3841258114e+00 -9.0676593027e-03 2.7467022692e+00 -4.7574278836e+00 2.7467022692e+00 4.7574278836e+00 
48800 5.3841239422e+00 -9.0211517612e-03 2.7468673354e+00 -4.7577137865e+00 2.7468673354e+00 4.7577137865e+00 
48900 5.3841220886e+00 -8.9749257803e-03 2.7470315450e+00 -4.7579982059e+00 2.7470315450e+00 4.7579982059e+00 
49000 5.3841202503e+00 -8.9289795118e-03 2.7471949034e+00 -4.7582811510e+00 2.7471949034e+00 4.7582811510e+00 
49100 5.3841184273e+00 -8.8833111182e-03 2.7473574159e+00 -4.7585626309e+00 2.7473574159e+00 4.7585626309e+00 
49200 5.3841166194e+00 -8.8379187721e-03 2.7475190876e+00 -4.7588426544e+00 2.7475190876e+00 4.7588426544e+00 
49300 5.3841148264e+00 -8.7928006569e-03 2.7476799237e+00 -4.7591212307e+00 2.7476799237e+00 4.7591212307e+00 
49400 5.3841130483e+00 -8.7479549663e-03 2.7478399293e+00 -4.7593983686e+00 2.7478399293e+00 4.7593983686e+00 
49500 5.3841112847e+00 -8.7033799046e-03 2.7479991096e+00 -4.7596740770e+00 2.7479991096e+00 4.7596740770e+00 
49600 5.3841095356e+00 -8.6590736864e-03 2.7481574696e+00 -4.7599483646e+00 2.7481574696e+00 4.7599483646e+00 
49700 5.3841078009e+00 -8.6150345368e-03 2.7483150144e+00 -4.7602212401e+00 2.7483150144e+00 4.7602212401e+00 
49800 5.3841060804e+00 -8.5712606912e-03 2.7484717489e+00 -4.7604927123e+00 2.7484717489e+00 4.7604927123e+00 
49900 5.3841043740e+00 -8.5277503956e-03 2.7486276781e+00 -4.7607627896e+00 2.7486276781e+00 4.7607627896e+00 
50000 5.3841026815e+00 -8.4845019062e-03 2.7487828070e+00 -4.7610314807e+00 2.7487828070e+00 4.7610314807e+00 
50100 5.3841010028e+00 -8.4415134896e-03 2.7489371404e+00 -4.7612987940e+00 2.7489371404e+00 4.7612987940e+00 
50200 5.3840993378e+00 -8.3987834228e-03 2.7490906833e+00 -4.7615647380e+00 2.7490906833e+00 4.7615647380e+00 
50300 5.3840976863e+00 -8.3563099929e-03 2.7492434403e+00 -4.7618293211e+00 2.7492434403e+00 4.7618293211e+00 
50400 5.3840960482e+00 -8.3140914976e-03 2.7493954165e+00 -4.7620925514e+00 2.7493954165e+00 4.7620925514e+00 
50500 5.3840944234e+00 -8.2721262446e-03 2.7495466164e+00 -4.7623544374e+00 2.7495466164e+00 4.7623544374e+00 
50600 5.3840928117e+00 -8.2304125520e-03 2.7496970449e+00 -4.7626149871e+00 2.7496970449e+00 4.7626149871e+00 
50700 5.3840912131e+00 -8.1889487482e-03 2.7498467066e+00 -4.7628742088e+00 2.7498467066e+00 4.7628742088e+00 
50800 5.3840896273e+00 -8.1477331714e-03 2.7499956062e+00 -4.7631321105e+00 2.7499956062e+00 4.7631321105e+00 
50900 5.3840880543e+00 -8.1067641706e-03 2.7501437484e+00 -4.7633887003e+00 2.7501437484e+00 4.7633887003e+00 
51000 5.3840864940e+00 -8.0660401043e-03 2.7502911377e+00 -4.7636439861e+00 2.7502911377e+00 4.7636439861e+00 
51100 5.3840849462e+00 -8.0255593416e-03 2.7504377787e+00 -4.7638979758e+00 2.7504377787e+00 4.7638979758e+00 
51200 5.3840834108e+00 -7.9853202615e-03 2.7505836761e+00 -4.7641506774e+00 2.7505836761e+00 4.7641506774e+00 
51300 5.3840818877e+00 -7.9453212530e-03 2.7507288342e+00 -4.7644020986e+00 2.7507288342e+00 4.7644020986e+00 
51400 5.3840803767e+00 -7.9055607153e-03 2.7508732575e+00 -4.7646522473e+00 2.7508732575e+00 4.7646522473e+00 
51500 5.3840788779e+00 -7.8660370575e-03 2.7510169506e+00 -4.7649011310e+00 2.7510169506e+00 4.7649011310e+00 
51600 5.3840773910e+00 -7.8267486988e-03 2.7511599179e+00 -4.7651487575e+00 2.7511599179e+00 4.7651487575e+00 
51700 5.3840759159e+00 -7.7876940681e-03 2.7513021636e+00 -4.7653951343e+00 2.7513021636e+00 4.7653951343e+00 
51800 5.3840744526e+00 -7.7488716044e-03 2.7514436922e+00 -4.7656402691e+00 2.7514436922e+00 4.7656402691e+00 
51900 5.3840730009e+00 -7.7102797566e-03 2.7515845081e+00 -4.7658841693e+00 2.7515845081e+00 4.7658841693e+00 
52000 5.3840715607e+00 -7.6719169834e-03 2.7517246155e+00 -4.7661268424e+00 2.7517246155e+00 4.7661268424e+00 
52100 5.3840701320e+00 -7.6337817534e-03 2.7518640186e+00 -4.7663682958e+00 2.7518640186e+00 4.7663682958e+00 
52200 5.3840687145e+00 -7.5958725447e-03 2.7520027218e+00 -4.7666085367e+00 2.7520027218e+00 4.7666085367e+00 
52300 5.3840673083e+00 -7.5581878456e-03 2.7521407292e+00 -4.7668475726e+00 2.7521407292e+00 4.7668475726e+00 
52400 5.3840659131e+00 -7.5207261537e-03 2.7522780451e+00 -4.7670854106e+00 2.7522780451e+00 4.7670854106e+00 
52500 5.3840645289e+00 -7.4834859766e-03 2.7524146735e+00 -4.7673220580e+00 2.7524146735e+00 4.7673220580e+00 
52600 5.3840631557e+00 -7.4464658313e-03 2.7525506186e+00 -4.7675575219e+00 2.7525506186e+00 4.7675575219e+00 
52700 5.3840617932e+00 -7.4096642445e-03 2.7526858846e+00 -4.7677918093e+00 2.7526858846e+00 4.7677918093e+00 
52800 5.3840604415e+00 -7.3730797526e-03 2.7528204754e+00 -4.7680249275e+00 2.7528204754e+00 4.7680249275e+00 
52900 5.3840591004e+00 -7.3367109014e-03 2.7529543951e+00 -4.7682568832e+00 2.7529543951e+00 4.7682568832e+00 
53000 5.3840577697e+00 -7.3005562461e-03 2.7530876478e+00 -4.7684876836e+00 2.7530876478e+00 4.7684876836e+00 
53100 5.3840564495e+00 -7.2646143517e-03 2.7532202374e+00 -4.7687173355e+00 2.7532202374e+00 4.7687173355e+00 
53200 5.3840551396e+00 -7.2288837922e-03 2.7533521678e+00 -4.7689458458e+00 2.7533521678e+00 4.7689458458e+00 
53300 5.3840538400e+00 -7.1933631513e-03 2.7534834431e+00 -4.7691732212e+00 2.7534834431e+00 4.7691732212e+00 
53400 5.3840525505e+00 -7.1580510219e-03 2.7536140671e+00 -4.7693994686e+00 2.7536140671e+00 4.7693994686e+00 
53500 5.3840512710e+00 -7.1229460063e-03 2.7537440437e+00 -4.7696245947e+00 2.7537440437e+00 4.7696245947e+00 
53600 5.3840500015e+00 -7.0880467160e-03 2.7538733767e+00 -4.7698486061e+00 2.7538733767e+00 4.7698486061e+00 
53700 5.3840487419e+00 -7.0533517717e-03 2.7540020700e+00 -4.7700715094e+00 2.7540020700e+00 4.7700715094e+00 
53800 5.3840474921e+00 -7.0188598033e-03 2.7541301274e+00 -4.7702933113e+00 2.7541301274e+00 4.7702933113e+00 
53900 5.3840462519e+00 -6.9845694499e-03 2.7542575527e+00 -4.7705140183e+00 2.7542575527e+00 4.7705140183e+00 
54000 5.3840450214e+00 -6.9504793598e-03 2.7543843495e+00 -4.7707336369e+00 2.7543843495e+00 4.7707336369e+00 
54100 5.3840438004e+00 -6.9165881900e-03 2.7545105217e+00 -4.7709521735e+00 2.7545105217e+00 4.7709521735e+00 
54200 5.3840425889e+00 -6.8828946069e-03 2.7546360728e+00 -4.7711696345e+00 2.7546360728e+00 4.7711696345e+00 
54300 5.3840413867e+00 -6.8493972857e-03 2.7547610067e+00 -4.7713860263e+00 2.7547610067e+00 4.7713860263e+00 
54400 5.3840401939e+00 -6.8160949105e-03 2.7548853269e+00 -4.7716013552e+00 2.7548853269e+00 4.7716013552e+00 
54500 5.3840390102e+00 -6.7829861745e-03 2.7550090371e+00 -4.7718156275e+00 2.7550090371e+00 4.7718156275e+00 
54600 5.3840378356e+00 -6.7500697795e-03 2.7551321408e+00 -4.7720288494e+00 2.7551321408e+00 4.7720288494e+00 
54700 5.3840366701e+00 -6.7173444363e-03 2.7552546416e+00 -4.7722410271e+00 2.7552546416e+00 4.7722410271e+00 
54800 5.3840355136e+00 -6.6848088643e-03 2.7553765431e+00 -4.7724521667e+00 2.7553765431e+00 4.7724521667e+00 
54900 5.3840343659e+00 -6.6524617917e-03 2.7554978488e+00 -4.7726622743e+00 2.7554978488e+00 4.7726622743e+00 
55000 5.3840332271e+00 -6.6203019555e-03 2.7556185622e+00 -4.7728713560e+00 2.7556185622e+00 4.7728713560e+00 
55100 5.3840320970e+00 -6.5883281011e-03 2.7557386868e+00 -4.7730794179e+00 2.7557386868e+00 4.7730794179e+00 
55200 5.3840309756e+00 -6.5565389827e-03 2.7558582260e+00 -4.7732864659e+00 2.7558582260e+00 4.7732864659e+00 
55300 5.3840298627e+00 -6.5249333628e-03 2.7559771832e+00 -4.7734925059e+00 2.7559771832e+00 4.7734925059e+00 
55400 5.3840287584e+00 -6.4935100127e-03 2.7560955619e+00 -4.7736975438e+00 2.7560955619e+00 4.7736975438e+00 
55500 5.3840276625e+00 -6.4622677120e-03 2.7562133655e+00 -4.7739015855e+00 2.7562133655e+00 4.7739015855e+00 
55600 5.3840265750e+00 -6.4312052487e-03 2.7563305972e+00 -4.7741046368e+00 2.7563305972e+00 4.7741046368e+00 
55700 5.3840254958e+00 -6.4003214191e-03 2.7564472605e+00 -4.7743067035e+00 2.7564472605e+00 4.7743067035e+00 
55800 5.3840244248e+00 -6.3696150280e-03 2.7565633586e+00 -4.7745077914e+00 2.7565633586e+00 4.7745077914e+00 
55900 5.3840233620e+00 -6.3390848884e-03 2.7566788948e+00 -4.7747079060e+00 2.7566788948e+00 4.7747079060e+00 
56000 5.3840223073e+00 -6.3087298215e-03 2.7567938725e+00 -4.7749070531e+00 2.7567938725e+00 4.7749070531e+00 
56100 5.3840212606e+00 -6.2785486567e-03 2.7569082948e+00 -4.7751052384e+00 2.7569082948e+00 4.7751052384e+00 
56200 5.3840202219e+00 -6.2485402316e-03 2.7570221649e+00 -4.7753024673e+00 2.7570221649e+00 4.7753024673e+00 
56300 5.3840191910e+00 -6.2187033917e-03 2.7571354862e+00 -4.7754987454e+00 2.7571354862e+00 4.7754987454e+00 
56400 5.3840181680e+00 -6.1890369909e-03 2.7572482617e+00 -4.7756940783e+00 2.7572482617e+00 4.7756940783e+00 
56500 5.3840171528e+00 -6.1595398908e-03 2.7573604945e+00 -4.7758884713e+00 2.7573604945e+00 4.7758884713e+00 
56600 5.3840161452e+00 -6.1302109610e-03 2.7574721880e+00 -4.7760819300e+00 2.7574721880e+00 4.7760819300e+00 
56700 5.3840151453e+00 -6.1010490792e-03 2.7575833451e+00 -4.7762744598e+00 2.7575833451e+00 4.7762744598e+00 
56800 5.3840141529e+00 -6.0720531308e-03 2.7576939689e+00 -4.7764660659e+00 2.7576939689e+00 4.7764660659e+00 
56900 5.3840131681e+00 -6.0432220091e-03 2.7578040626e+00 -4.7766567538e+00 2.7578040626e+00 4.7766567538e+00 
57000 5.3840121907e+00 -6.0145546151e-03 2.7579136292e+00 -4.7768465286e+00 2.7579136292e+00 4.7768465286e+00 
57100 5.3840112207e+00 -5.9860498577e-03 2.7580226716e+00 -4.7770353957e+00 2.7580226716e+00 4.7770353957e+00 
57200 5.3840102580e+00 -5.9577066532e-03 2.7581311930e+00 -4.7772233603e+00 2.7581311930e+00 4.7772233603e+00 
57300 5.3840093025e+00 -5.9295239259e-03 2.7582391963e+00 -4.7774104275e+00 2.7582391963e+00 4.7774104275e+00 
57400 5.3840083543e+00 -5.9015006073e-03 2.7583466845e+00 -4.7775966025e+00 2.7583466845e+00 4.7775966025e+00 
57500 5.3840074132e+00 -5.8736356369e-03 2.7584536605e+00 -4.7777818904e+00 2.7584536605e+00 4.7777818904e+00 
57600 5.3840064792e+00 -5.8459279613e-03 2.7585601273e+00 -4.7779662962e+00 2.7585601273e+00 4.7779662962e+00 
57700 5.3840055522e+00 -5.8183765347e-03 2.7586660878e+00 -4.7781498251e+00 2.7586660878e+00 4.7781498251e+00 
57800 5.3840046322e+00 -5.7909803189e-03 2.7587715448e+00 -4.7783324820e+00 2.7587715448e+00 4.7783324820e+00 
57900 5.3840037191e+00 -5.7637382828e-03 2.7588765012e+00 -4.7785142719e+00 2.7588765012e+00 4.7785142719e+00 
58000 5.3840028128e+00 -5.7366494027e-03 2.7589809599e+00 -4.7786951997e+00 2.7589809599e+00 4.7786951997e+00 
58100 5.3840019134e+00 -5.7097126623e-03 2.7590849238e+00 -4.7788752704e+00 2.7590849238e+00 4.7788752704e+00 
58200 5.3840010207e+00 -5.6829270523e-03 2.7591883956e+00 -4.7790544888e+00 2.7591883956e+00 4.7790544888e+00 
58300 5.3840001347e+00 -5.6562915709e-03 2.7592913781e+00 -4.7792328597e+00 2.7592913781e+00 4.7792328597e+00 
58400 5.3839992553e+00 -5.6298052232e-03 2.7593938741e+00 -4.7794103880e+00 2.7593938741e+00 4.7794103880e+00 
58500 5.3839983825e+00 -5.6034670214e-03 2.7594958863e+00 -4.7795870784e+00 2.7594958863e+00 4.7795870784e+00 
58600 5.3839975163e+00 -5.5772759850e-03 2.7595974176e+00 -4.7797629357e+00 2.7595974176e+00 4.7797629357e+00 
58700 5.3839966565e+00 -5.5512311401e-03 2.7596984705e+00 -4.7799379645e+00 2.7596984705e+00 4.7799379645e+00 
58800 5.3839958032e+00 -5.5253315201e-03 2.7597990479e+00 -4.7801121697e+00 2.7597990479e+00 4.7801121697e+00 
58900 5.3839949562e+00 -5.4995761651e-03 2.7598991524e+00 -4.7802855557e+00 2.7598991524e+00 4.7802855557e+00 
59000 5.3839941155e+00 -5.4739641224e-03 2.7599987866e+00 -4.7804581273e+00 2.7599987866e+00 4.7804581273e+00 
59100 5.3839932811e+00 -5.4484944457e-03 2.7600979533e+00 -4.7806298890e+00 2.7600979533e+00 4.7806298890e+00 
59200 5.3839924530e+00 -5.4231661959e-03 2.7601966550e+00 -4.7808008453e+00 2.7601966550e+00 4.7808008453e+00 
59300 5.3839916310e+00 -5.3979784402e-03 2.7602948943e+00 -4.7809710009e+00 2.7602948943e+00 4.7809710009e+00 
59400 5.3839908151e+00 -5.3729302528e-03 2.7603926739e+00 -4.7811403601e+00 2.7603926739e+00 4.7811403601e+00 
59500 5.3839900053e+00 -5.3480207146e-03 2.7604899964e+00 -4.7813089275e+00 2.7604899964e+00 4.7813089275e+00 
59600 5.3839892016e+00 -5.3232489128e-03 2.7605868642e+00 -4.7814767074e+00 2.7605868642e+00 4.7814767074e+00 
59700 5.3839884038e+00 -5.2986139415e-03 2.7606832799e+00 -4.7816437044e+00 2.7606832799e+00 4.7816437044e+00 
59800 5.3839876119e+00 -5.2741149012e-03 2.7607792461e+00 -4.7818099227e+00 2.7607792461e+00 4.7818099227e+00 
59900 5.3839868260e+00 -5.2497508987e-03 2.7608747652e+00 -4.7819753667e+00 2.7608747652e+00 4.7819753667e+00 
60000 5.3839860459e+00 -5.2255210474e-03 2.7609698398e+00 -4.7821400407e+00 2.7609698398e+00 4.7821400407e+00 
60100 5.3839852715e+00 -5.2014244672e-03 2.7610644723e+00 -4.7823039490e+00 2.7610644723e+00 4.7823039490e+00 
60200 5.3839845029e+00 -5.1774602841e-03 2.7611586652e+00 -4.7824670959e+00 2.7611586652e+00 4.7824670959e+00 
60300 5.3839837400e+00 -5.1536276307e-03 2.7612524210e+00 -4.7826294857e+00 2.7612524210e+00 4.7826294857e+00 
60400 5.3839829828e+00 -5.1299256454e-03 2.7613457420e+00 -4.7827911224e+00 2.7613457420e+00 4.7827911224e+00 
60500 5.3839822312e+00 -5.1063534734e-03 2.7614386306e+00 -4.7829520103e+00 2.7614386306e+00 4.7829520103e+00 
60600 5.3839814851e+00 -5.0829102656e-03 2.7615310894e+00 -4.7831121535e+00 2.7615310894e+00 4.7831121535e+00 
60700 5.3839807446e+00 -5.0595951793e-03 2.7616231205e+00 -4.7832715561e+00 2.7616231205e+00 4.7832715561e+00 
60800 5.3839800095e+00 -5.0364073778e-03 2.7617147265e+00 -4.7834302223e+00 2.7617147265e+00 4.7834302223e+00 
60900 5.3839792799e+00 -5.0133460304e-03 2.7618059096e+00 -4.7835881561e+00 2.7618059096e+00 4.7835881561e+00 
61000 5.3839785557e+00 -4.9904103125e-03 2.7618966722e+00 -4.7837453615e+00 2.7618966722e+00 4.7837453615e+00 
61100 5.3839778369e+00 -4.9675994056e-03 2.7619870166e+00 -4.7839018426e+00 2.7619870166e+00 4.7839018426e+00 
61200 5.3839771233e+00 -4.9449124967e-03 2.7620769451e+00 -4.7840576033e+00 2.7620769451e+00 4.7840576033e+00 
61300 5.3839764150e+00 -4.9223487791e-03 2.7621664600e+00 -4.7842126476e+00 2.7621664600e+00 4.7842126476e+00 
61400 5.3839757120e+00 -4.8999074518e-03 2.7622555635e+00 -4.7843669795e+00 2.7622555635e+00 4.7843669795e+00 
61500 5.3839750141e+00 -4.8775877196e-03 2.7623442579e+00 -4.7845206027e+00 2.7623442579e+00 4.7845206027e+00 
61600 5.3839743214e+00 -4.8553887930e-03 2.7624325455e+00 -4.7846735213e+00 2.7624325455e+00 4.7846735213e+00 
61700 5.3839736338e+00 -4.8333098883e-03 2.7625204284e+00 -4.7848257390e+00 2.7625204284e+00 4.7848257390e+00 
61800 5.3839729512e+00 -4.8113502275e-03 2.7626079090e+00 -4.7849772598e+00 2.7626079090e+00 4.7849772598e+00 
61900 5.3839722737e+00 -4.7895090381e-03 2.7626949893e+00 -4.7851280873e+00 2.7626949893e+00 4.7851280873e+00 
62000 5.3839716012e+00 -4.7677855535e-03 2.7627816716e+00 -4.7852782254e+00 2.7627816716e+00 4.7852782254e+00 
62100 5.3839709336e+00 -4.7461790123e-03 2.7628679580e+00 -4.7854276779e+00 2.7628679580e+00 4.7854276779e+00 
62200 5.3839702710e+00 -4.7246886588e-03 2.7629538507e+00 -4.7855764484e+00 2.7629538507e+00 4.7855764484e+00 
62300 5.3839696132e+00 -4.7033137428e-03 2.7630393518e+00 -4.7857245407e+00 2.7630393518e+00 4.7857245407e+00 
62400 5.3839689603e+00 -4.6820535196e-03 2.7631244635e+00 -4.7858719584e+00 2.7631244635e+00 4.7858719584e+00 
62500 5.3839683121e+00 -4.6609072497e-03 2.7632091878e+00 -4.7860187052e+00 2.7632091878e+00 4.7860187052e+00 
62600 5.3839676688e+00 -4.6398741992e-03 2.7632935269e+00 -4.7861647848e+00 2.7632935269e+00 4.7861647848e+00 
62700 5.3839670301e+00 -4.6189536393e-03 2.7633774828e+00 -4.7863102008e+00 2.7633774828e+00 4.7863102008e+00 
62800 5.3839663962e+00 -4.5981448467e-03 2.7634610577e+00 -4.7864549566e+00 2.7634610577e+00 4.7864549566e+00 
62900 5.3839657669e+00 -4.5774471031e-03 2.7635442535e+00 -4.7865990560e+00 2.7635442535e+00 4.7865990560e+00 
63000 5.3839651422e+00 -4.5568596958e-03 2.7636270723e+00 -4.7867425024e+00 2.7636270723e+00 4.7867425024e+00 
63100 5.3839645221e+00 -4.5363819169e-03 2.7637095162e+00 -4.7868852994e+00 2.7637095162e+00 4.7868852994e+00 
63200 5.3839639065e+00 -4.5160130637e-03 2.7637915871e+00 -4.7870274504e+00 2.7637915871e+00 4.7870274504e+00 
63300 5.3839632955e+00 -4.4957524389e-03 2.7638732871e+00 -4.7871689590e+00 2.7638732871e+00 4.7871689590e+00 
63400 5.3839626890e+00 -4.4755993499e-03 2.7639546182e+00 -4.7873098285e+00 2.7639546182e+00 4.7873098285e+00 
63500 5.3839620868e+00 -4.4555531093e-03 2.7640355823e+00 -4.7874500624e+00 2.7640355823e+00 4.7874500624e+00 
63600 5.3839614892e+00 -4.4356130347e-03 2.7641161814e+00 -4.7875896641e+00 2.7641161814e+00 4.7875896641e+00 
63700 5.3839608958e+00 -4.4157784485e-03 2.7641964174e+00 -4.7877286370e+00 2.7641964174e+00 4.7877286370e+00 
63800 5.3839603069e+00 -4.3960486783e-03 2.7642762923e+00 -4.7878669845e+00 2.7642762923e+00 4.7878669845e+00 
63900 5.3839597222e+00 -4.3764230563e-03 2.7643558081e+00 -4.7880047098e+00 2.7643558081e+00 4.7880047098e+00 
64000 5.3839591418e+00 -4.3569009197e-03 2.7644349665e+00 -4.7881418163e+00 2.7644349665e+00 4.7881418163e+00 
64100 5.3839585657e+00 -4.3374816105e-03 2.7645137697e+00 -4.7882783073e+00 2.7645137697e+00 4.7882783073e+00 
64200 5.3839579938e+00 -4.3181644753e-03 2.7645922193e+00 -4.7884141860e+00 2.7645922193e+00 4.7884141860e+00 
64300 5.3839574261e+00 -4.2989488658e-03 2.7646703173e+00 -4.7885494558e+00 2.7646703173e+00 4.7885494558e+00 
64400 5.3839568625e+00 -4.2798341380e-03 2.7647480656e+00 -4.7886841198e+00 2.7647480656e+00 4.7886841198e+00 
64500 5.3839563030e+00 -4.2608196529e-03 2.7648254661e+00 -4.7888181813e+00 2.7648254661e+00 4.7888181813e+00 
64600 5.3839557476e+00 -4.2419047758e-03 2.7649025205e+00 -4.7889516435e+00 2.7649025205e+00 4.7889516435e+00 
64700 5.3839551963e+00 -4.2230888770e-03 2.7649792307e+00 -4.7890845094e+00 2.7649792307e+00 4.7890845094e+00 
64800 5.3839546490e+00 -4.2043713311e-03 2.7650555985e+00 -4.7892167823e+00 2.7650555985e+00 4.7892167823e+00 
64900 5.3839541057e+00 -4.1857515172e-03 2.7651316257e+00 -4.7893484654e+00 2.7651316257e+00 4.7893484654e+00 
65000 5.3839535664e+00 -4.1672288190e-03 2.7652073142e+00 -4.7894795616e+00 2.7652073142e+00 4.7894795616e+00 
65100 5.3839530310e+00 -4.1488026247e-03 2.7652826656e+00 -4.7896100742e+00 2.7652826656e+00 4.7896100742e+00 
65200 5.3839524995e+00 -4.1304723269e-03 2.7653576819e+00 -4.7897400061e+00 2.7653576819e+00 4.7897400061e+00 
65300 5.3839519719e+00 -4.1122373226e-03 2.7654323646e+00 -4.7898693604e+00 2.7654323646e+00 4.7898693604e+00 
65400 5.3839514482e+00 -4.0940970131e-03 2.7655067157e+00 -4.7899981402e+00 2.7655067157e+00 4.7899981402e+00 
65500 5.3839509282e+00 -4.0760508040e-03 2.7655807367e+00 -4.7901263485e+00 2.7655807367e+00 4.7901263485e+00 
65600 5.3839504121e+00 -4.0580981054e-03 2.7656544296e+00 -4.7902539882e+00 2.7656544296e+00 4.7902539882e+00 
65700 5.3839498997e+00 -4.0402383315e-03 2.7657277958e+00 -4.7903810623e+00 2.7657277958e+00 4.7903810623e+00 
65800 5.3839493910e+00 -4.0224709008e-03 2.7658008373e+00 -4.7905075738e+00 2.7658008373e+00 4.7905075738e+00 
65900 5.3839488861e+00 -4.0047952359e-03 2.7658735556e+00 -4.7906335257e+00 2.7658735556e+00 4.7906335257e+00 
66000 5.3839483848e+00 -3.9872107638e-03 2.7659459525e+00 -4.7907589208e+00 2.7659459525e+00 4.7907589208e+00 
66100 5.3839478872e+00 -3.9697169154e-03 2.7660180296e+00 -4.7908837620e+00 2.7660180296e+00 4.7908837620e+00 
66200 5.3839473932e+00 -3.9523131259e-03 2.7660897886e+00 -4.7910080522e+00 2.7660897886e+00 4.7910080522e+00 
66300 5.3839469028e+00 -3.9349988344e-03 2.7661612312e+00 -4.7911317944e+00 2.7661612312e+00 4.7911317944e+00 
66400 5.3839464160e+00 -3.9177734842e-03 2.7662323589e+00 -4.7912549912e+00 2.7662323589e+00 4.7912549912e+00 
66500 5.3839459327e+00 -3.9006365224e-03 2.7663031735e+00 -4.7913776456e+00 2.7663031735e+00 4.7913776456e+00 
66600 5.3839454529e+00 -3.8835874005e-03 2.7663736765e+00 -4.7914997604e+00 2.7663736765e+00 4.7914997604e+00 
66700 5.3839449767e+00 -3.8666255735e-03 2.7664438695e+00 -4.7916213383e+00 2.7664438695e+00 4.7916213383e+00 
66800 5.3839445038e+00 -3.8497505005e-03 2.7665137542e+00 -4.7917423821e+00 2.7665137542e+00 4.7917423821e+00 
66900 5.3839440345e+00 -3.8329616447e-03 2.7665833322e+00 -4.7918628947e+00 2.7665833322e+00 4.7918628947e+00 
67000 5.3839435685e+00 -3.8162584729e-03 2.7666526049e+00 -4.7919828786e+00 2.7666526049e+00 4.7919828786e+00 
67100 5.3839431059e+00 -3.7996404557e-03 2.7667215741e+00 -4.7921023367e+00 2.7667215741e+00 4.7921023367e+00 
67200 5.3839426467e+00 -3.7831070678e-03 2.7667902412e+00 -4.7922212717e+00 2.7667902412e+00 4.7922212717e+00 
67300 5.3839421908e+00 -3.7666577875e-03 2.7668586078e+00 -4.7923396862e+00 2.7668586078e+00 4.7923396862e+00 
67400 5.3839417383e+00 -3.7502920967e-03 2.7669266755e+00 -4.7924575828e+00 2.7669266755e+00 4.7924575828e+00 
67500 5.3839412890e+00 -3.7340094814e-03 2.7669944458e+00 -4.7925749644e+00 2.7669944458e+00 4.7925749644e+00 
67600 5.3839408430e+00 -3.7178094309e-03 2.7670619202e+00 -4.7926918334e+00 2.7670619202e+00 4.7926918334e+00 
67700 5.3839404002e+00 -3.7016914385e-03 2.7671291002e+00 -4.7928081926e+00 2.7671291002e+00 4.7928081926e+00 
67800 5.3839399606e+00 -3.6856550009e-03 2.7671959873e+00 -4.7929240445e+00 2.7671959873e+00 4.7929240445e+00 
67900 5.3839395243e+00 -3.6696996184e-03 2.7672625831e+00 -4.7930393917e+00 2.7672625831e+00 4.7930393917e+00 
68000 5.3839390911e+00 -3.6538247952e-03 2.7673288889e+00 -4.7931542369e+00 2.7673288889e+00 4.7931542369e+00 
68100 5.3839386610e+00 -3.6380300386e-03 2.7673949064e+00 -4.7932685824e+00 2.7673949064e+00 4.7932685824e+00 
68200 5.3839382341e+00 -3.6223148598e-03 2.7674606368e+00 -4.7933824310e+00 2.7674606368e+00 4.7933824310e+00 
68300 5.3839378102e+00 -3.6066787733e-03 2.7675260818e+00 -4.7934957850e+00 2.7675260818e+00 4.7934957850e+00 
68400 5.3839373895e+00 -3.5911212972e-03 2.7675912428e+00 -4.7936086471e+00 2.7675912428e+00 4.7936086471e+00 
68500 5.3839369718e+00 -3.5756419528e-03 2.7676561212e+00 -4.7937210197e+00 2.7676561212e+00 4.7937210197e+00 
68600 5.3839365571e+00 -3.5602402652e-03 2.7677207183e+00 -4.7938329053e+00 2.7677207183e+00 4.7938329053e+00 
68700 5.3839361454e+00 -3.5449157626e-03 2.7677850358e+00 -4.7939443064e+00 2.7677850358e+00 4.7939443064e+00 
68800 5.3839357367e+00 -3.5296679767e-03 2.7678490749e+00 -4.7940552254e+00 2.7678490749e+00 4.7940552254e+00 
68900 5.3839353310e+00 -3.5144964424e-03 2.7679128371e+00 -4.7941656647e+00 2.7679128371e+00 4.7941656647e+00 
69000 5.3839349282e+00 -3.4994006982e-03 2.7679763237e+00 -4.7942756268e+00 2.7679763237e+00 4.7942756268e+00 
69100 5.3839345283e+00 -3.4843802855e-03 2.7680395362e+00 -4.7943851141e+00 2.7680395362e+00 4.7943851141e+00 
69200 5.3839341314e+00 -3.4694347493e-03 2.7681024759e+00 -4.7944941289e+00 2.7681024759e+00 4.7944941289e+00 
69300 5.3839337373e+00 -3.4545636378e-03 2.7681651443e+00 -4.7946026736e+00 2.7681651443e+00 4.7946026736e+00 
69400 5.3839333460e+00 -3.4397665021e-03 2.7682275426e+00 -4.7947107507e+00 2.7682275426e+00 4.7947107507e+00 
69500 5.3839329576e+00 -3.4250428970e-03 2.7682896722e+00 -4.7948183624e+00 2.7682896722e+00 4.7948183624e+00 
69600 5.3839325720e+00 -3.4103923799e-03 2.7683515345e+00 -4.7949255110e+00 2.7683515345e+00 4.7949255110e+00 
69700 5.3839321892e+00 -3.3958145119e-03 2.7684131308e+00 -4.7950321990e+00 2.7684131308e+00 4.7950321990e+00 
69800 5.3839318092e+00 -3.3813088568e-03 2.7684744625e+00 -4.7951384285e+00 2.7684744625e+00 4.7951384285e+00 
69900 5.3839314319e+00 -3.3668749817e-03 2.7685355308e+00 -4.7952442019e+00 2.7685355308e+00 4.7952442019e+00 
70000 5.3839310574e+00 -3.3525124566e-03 2.7685963371e+00 -4.7953495215e+00 2.7685963371e+00 4.7953495215e+00 
70100 5.3839306855e+00 -3.3382208549e-03 2.7686568827e+00 -4.7954543895e+00 2.7686568827e+00 4.7954543895e+00 
70200 5.3839303164e+00 -3.3239997525e-03 2.7687171688e+00 -4.7955588082e+00 2.7687171688e+00 4.7955588082e+00 
70300 5.3839299499e+00 -3.3098487288e-03 2.7687771968e+00 -4.7956627797e+00 2.7687771968e+00 4.7956627797e+00 
70400 5.3839295861e+00 -3.2957673659e-03 2.7688369680e+00 -4.7957663064e+00 2.7688369680e+00 4.7957663064e+00 
70500 5.3839292249e+00 -3.2817552489e-03 2.7688964836e+00 -4.7958693904e+00 2.7688964836e+00 4.7958693904e+00 
70600 5.3839288663e+00 -3.2678119659e-03 2.7689557448e+00 -4.7959720340e+00 2.7689557448e+00 4.7959720340e+00 
70700 5.3839285104e+00 -3.2539371077e-03 2.7690147531e+00 -4.7960742392e+00 2.7690147531e+00 4.7960742392e+00 
70800 5.3839281570e+00 -3.2401302683e-03 2.7690735095e+00 -4.7961760084e+00 2.7690735095e+00 4.7961760084e+00 
70900 5.3839278061e+00 -3.2263910443e-03 2.7691320154e+00 -4.7962773435e+00 2.7691320154e+00 4.7962773435e+00 
71000 5.3839274578e+00 -3.2127190352e-03 2.7691902720e+00 -4.7963782468e+00 2.7691902720e+00 4.7963782468e+00 
71100 5.3839271120e+00 -3.1991138436e-03 2.7692482804e+00 -4.7964787205e+00 2.7692482804e+00 4.7964787205e+00 
71200 5.3839267687e+00 -3.1855750744e-03 2.7693060420e+00 -4.7965787665e+00 2.7693060420e+00 4.7965787665e+00 
71300 5.3839264279e+00 -3.1721023356e-03 2.7693635580e+00 -4.7966783871e+00 2.7693635580e+00 4.7966783871e+00 
71400 5.3839260896e+00 -3.1586952380e-03 2.7694208295e+00 -4.7967775843e+00 2.7694208295e+00 4.7967775843e+00 
71500 5.3839257537e+00 -3.1453533949e-03 2.7694778578e+00 -4.7968763602e+00 2.7694778578e+00 4.7968763602e+00 
71600 5.3839254202e+00 -3.1320764224e-03 2.7695346440e+00 -4.7969747168e+00 2.7695346440e+00 4.7969747168e+00 
71700 5.3839250891e+00 -3.1188639395e-03 2.7695911894e+00 -4.7970726562e+00 2.7695911894e+00 4.7970726562e+00 
71800 5.3839247605e+00 -3.1057155675e-03 2.7696474951e+00 -4.7971701806e+00 2.7696474951e+00 4.7971701806e+00 
71900 5.3839244342e+00 -3.0926309307e-03 2.7697035623e+00 -4.7972672917e+00 2.7697035623e+00 4.7972672917e+00 
72000 5.3839241102e+00 -3.0796096558e-03 2.7697593921e+00 -4.7973639918e+00 2.7697593921e+00 4.7973639918e+00 
72100 5.3839237886e+00 -3.0666513722e-03 2.7698149857e+00 -4.7974602828e+00 2.7698149857e+00 4.7974602828e+00 
72200 5.3839234694e+00 -3.0537557118e-03 2.7698703443e+00 -4.7975561667e+00 2.7698703443e+00 4.7975561667e+00 
72300 5.3839231524e+00 -3.0409223092e-03 2.7699254690e+00 -4.7976516455e+00 2.7699254690e+00 4.7976516455e+00 
72400 5.3839228377e+00 -3.0281508014e-03 2.7699803610e+00 -4.7977467212e+00 2.7699803610e+00 4.7977467212e+00 
72500 5.3839225253e+00 -3.0154408282e-03 2.7700350213e+00 -4.7978413957e+00 2.7700350213e+00 4.7978413957e+00 
72600 5.3839222152e+00 -3.0027920315e-03 2.7700894511e+00 -4.7979356709e+00 2.7700894511e+00 4.7979356709e+00 
72700 5.3839219073e+00 -2.9902040561e-03 2.7701436516e+00 -4.7980295488e+00 2.7701436516e+00 4.7980295488e+00 
72800 5.3839216016e+00 -2.9776765489e-03 2.7701976238e+00 -4.7981230314e+00 2.7701976238e+00 4.7981230314e+00 
72900 5.3839212981e+00 -2.9652091596e-03 2.7702513688e+00 -4.7982161205e+00 2.7702513688e+00 4.7982161205e+00 
73000 5.3839209968e+00 -2.9528015401e-03 2.7703048877e+00 -4.7983088180e+00 2.7703048877e+00 4.7983088180e+00 
73100 5.3839206977e+00 -2.9404533448e-03 2.7703581817e+00 -4.7984011259e+00 2.7703581817e+00 4.7984011259e+00 
73200 5.3839204008e+00 -2.9281642304e-03 2.7704112518e+00 -4.7984930460e+00 2.7704112518e+00 4.7984930460e+00 
73300 5.3839201059e+00 -2.9159338561e-03 2.7704640991e+00 -4.7985845801e+00 2.7704640991e+00 4.7985845801e+00 
73400 5.3839198133e+00 -2.9037618834e-03 2.7705167246e+00 -4.7986757302e+00 2.7705167246e+00 4.7986757302e+00 
73500 5.3839195227e+00 -2.8916479762e-03 2.7705691295e+00 -4.7987664981e+00 2.7705691295e+00 4.7987664981e+00 
73600 5.3839192342e+00 -2.8795918007e-03 2.7706213147e+00 -4.7988568856e+00 2.7706213147e+00 4.7988568856e+00 
73700 5.3839189478e+00 -2.8675930252e-03 2.7706732814e+00 -4.7989468946e+00 2.7706732814e+00 4.7989468946e+00 
73800 5.3839186635e+00 -2.8556513206e-03 2.7707250306e+00 -4.7990365268e+00 2.7707250306e+00 4.7990365268e+00 
73900 5.3839183813e+00 -2.8437663599e-03 2.7707765633e+00 -4.7991257841e+00 2.7707765633e+00 4.7991257841e+00 
74000 5.3839181010e+00 -2.8319378183e-03 2.7708278806e+00 -4.7992146683e+00 2.7708278806e+00 4.7992146683e+00 
74100 5.3839178228e+00 -2.8201653734e-03 2.7708789835e+00 -4.7993031811e+00 2.7708789835e+00 4.7993031811e+00 
74200 5.3839175466e+00 -2.8084487050e-03 2.7709298730e+00 -4.7993913243e+00 2.7709298730e+00 4.7993913243e+00 
74300 5.3839172724e+00 -2.7967874948e-03 2.7709805502e+00 -4.7994790997e+00 2.7709805502e+00 4.7994790997e+00 
74400 5.3839170002e+00 -2.7851814272e-03 2.7710310160e+00 -4.7995665091e+00 2.7710310160e+00 4.7995665091e+00 
74500 5.3839167299e+00 -2.7736301882e-03 2.7710812715e+00 -4.7996535541e+00 2.7710812715e+00 4.7996535541e+00 
74600 5.3839164616e+00 -2.7621334664e-03 2.7711313176e+00 -4.7997402366e+00 2.7711313176e+00 4.7997402366e+00 
74700 5.3839161952e+00 -2.7506909522e-03 2.7711811554e+00 -4.7998265582e+00 2.7711811554e+00 4.7998265582e+00 
74800 5.3839159307e+00 -2.7393023384e-03 2.7712307859e+00 -4.7999125206e+00 2.7712307859e+00 4.7999125206e+00 
74900 5.3839156682e+00 -2.7279673198e-03 2.7712802100e+00 -4.7999981256e+00 2.7712802100e+00 4.7999981256e+00 
75000 5.3839154075e+00 -2.7166855931e-03 2.7713294286e+00 -4.8000833749e+00 2.7713294286e+00 4.8000833749e+00 
75100 5.3839151488e+00 -2.7054568573e-03 2.7713784429e+00 -4.8001682701e+00 2.7713784429e+00 4.8001682701e+00 
75200 5.3839148918e+00 -2.6942808134e-03 2.7714272537e+00 -4.8002528129e+00 2.7714272537e+00 4.8002528129e+00 
75300 5.3839146368e+00 -2.6831571644e-03 2.7714758620e+00 -4.8003370050e+00 2.7714758620e+00 4.8003370050e+00 
75400 5.3839143836e+00 -2.6720856152e-03 2.7715242688e+00 -4.8004208480e+00 2.7715242688e+00 4.8004208480e+00 
75500 5.3839141322e+00 -2.6610658730e-03 2.7715724750e+00 -4.8005043436e+00 2.7715724750e+00 4.8005043436e+00 
75600 5.3839138826e+00 -2.6500976467e-03 2.7716204816e+00 -4.8005874934e+00 2.7716204816e+00 4.8005874934e+00 
75700 5.3839136348e+00 -2.6391806473e-03 2.7716682895e+00 -4.8006702991e+00 2.7716682895e+00 4.8006702991e+00 
75800 5.3839133888e+00 -2.6283145878e-03 2.7717158996e+00 -4.8007527622e+00 2.7717158996e+00 4.8007527622e+00 
75900 5.3839131446e+00 -2.6174991830e-03 2.7717633128e+00 -4.8008348844e+00 2.7717633128e+00 4.8008348844e+00 
76000 5.3839129021e+00 -2.6067341498e-03 2.7718105302e+00 -4.8009166673e+00 2.7718105302e+00 4.8009166673e+00 
76100 5.3839126614e+00 -2.5960192068e-03 2.7718575526e+00 -4.8009981124e+00 2.7718575526e+00 4.8009981124e+00 
76200 5.3839124224e+00 -2.5853540748e-03 2.7719043808e+00 -4.8010792213e+00 2.7719043808e+00 4.8010792213e+00 
76300 5.3839121852e+00 -2.5747384763e-03 2.7719510159e+00 -4.8011599957e+00 2.7719510159e+00 4.8011599957e+00 
76400 5.3839119496e+00 -2.5641721355e-03 2.7719974588e+00 -4.8012404371e+00 2.7719974588e+00 4.8012404371e+00 
76500 5.3839117158e+00 -2.5536547788e-03 2.7720437103e+00 -4.8013205470e+00 2.7720437103e+00 4.8013205470e+00 
76600 5.3839114836e+00 -2.5431861342e-03 2.7720897713e+00 -4.8014003270e+00 2.7720897713e+00 4.8014003270e+00 
76700 5.3839112531e+00 -2.5327659316e-03 2.7721356427e+00 -4.8014797786e+00 2.7721356427e+00 4.8014797786e+00 
76800 5.3839110243e+00 -2.5223939027e-03 2.7721813254e+00 -4.8015589033e+00 2.7721813254e+00 4.8015589033e+00 
76900 5.3839107971e+00 -2.5120697811e-03 2.7722268202e+00 -4.8016377028e+00 2.7722268202e+00 4.8016377028e+00 
77000 5.3839105716e+00 -2.5017933021e-03 2.7722721282e+00 -4.8017161784e+00 2.7722721282e+00 4.8017161784e+00 
77100 5.3839103476e+00 -2.4915642026e-03 2.7723172500e+00 -4.8017943317e+00 2.7723172500e+00 4.8017943317e+00 
77200 5.3839101253e+00 -2.4813822216e-03 2.7723621866e+00 -4.8018721642e+00 2.7723621866e+00 4.8018721642e+00 
77300 5.3839099046e+00 -2.4712470996e-03 2.7724069389e+00 -4.8019496774e+00 2.7724069389e+00 4.8019496774e+00 
77400 5.3839096855e+00 -2.4611585788e-03 2.7724515076e+00 -4.8020268727e+00 2.7724515076e+00 4.8020268727e+00 
77500 5.3839094680e+00 -2.4511164034e-03 2.7724958937e+00 -4.8021037516e+00 2.7724958937e+00 4.8021037516e+00 
77600 5.3839092520e+00 -2.4411203191e-03 2.7725400979e+00 -4.8021803157e+00 2.7725400979e+00 4.8021803157e+00 
77700 5.3839090376e+00 -2.4311700732e-03 2.7725841212e+00 -4.8022565662e+00 2.7725841212e+00 4.8022565662e+00 
77800 5.3839088248e+00 -2.4212654148e-03 2.7726279644e+00 -4.8023325048e+00 2.7726279644e+00 4.8023325048e+00 
77900 5.3839086134e+00 -2.4114060947e-03 2.7726716282e+00 -4.8024081328e+00 2.7726716282e+00 4.8024081328e+00 
78000 5.3839084036e+00 -2.4015918654e-03 2.7727151136e+00 -4.8024834516e+00 2.7727151136e+00 4.8024834516e+00 
78100 5.3839081953e+00 -2.3918224808e-03 2.7727584213e+00 -4.8025584628e+00 2.7727584213e+00 4.8025584628e+00 
78200 5.3839079885e+00 -2.3820976966e-03 2.7728015521e+00 -4.8026331676e+00 2.7728015521e+00 4.8026331676e+00 
78300 5.3839077832e+00 -2.3724172702e-03 2.7728445070e+00 -4.8027075675e+00 2.7728445070e+00 4.8027075675e+00 
78400 5.3839075794e+00 -2.3627809604e-03 2.7728872866e+00 -4.8027816640e+00 2.7728872866e+00 4.8027816640e+00 
78500 5.3839073771e+00 -2.3531885277e-03 2.7729298917e+00 -4.8028554583e+00 2.7729298917e+00 4.8028554583e+00 
78600 5.3839071762e+00 -2.3436397341e-03 2.7729723233e+00 -4.8029289519e+00 2.7729723233e+00 4.8029289519e+00 
78700 5.3839069767e+00 -2.3341343434e-03 2.7730145820e+00 -4.8030021462e+00 2.7730145820e+00 4.8030021462e+00 
78800 5.3839067787e+00 -2.3246721206e-03 2.7730566687e+00 -4.8030750425e+00 2.7730566687e+00 4.8030750425e+00 
78900 5.3839065821e+00 -2.3152528325e-03 2.7730985841e+00 -4.8031476421e+00 2.7730985841e+00 4.8031476421e+00 
79000 5.3839063869e+00 -2.3058762474e-03 2.7731403291e+00 -4.8032199466e+00 2.7731403291e+00 4.8032199466e+00 
79100 5.3839061932e+00 -2.2965421351e-03 2.7731819044e+00 -4.8032919571e+00 2.7731819044e+00 4.8032919571e+00 
79200 5.3839060008e+00 -2.2872502668e-03 2.7732233108e+00 -4.8033636750e+00 2.7732233108e+00 4.8033636750e+00 
79300 5.3839058098e+00 -2.2780004153e-03 2.7732645490e+00 -4.8034351017e+00 2.7732645490e+00 4.8034351017e+00 
79400 5.3839056202e+00 -2.2687923549e-03 2.7733056198e+00 -4.8035062385e+00 2.7733056198e+00 4.8035062385e+00 
79500 5.3839054319e+00 -2.2596258612e-03 2.7733465241e+00 -4.8035770867e+00 2.7733465241e+00 4.8035770867e+00 
79600 5.3839052451e+00 -2.2505007117e-03 2.7733872624e+00 -4.8036476476e+00 2.7733872624e+00 4.8036476476e+00 
79700 5.3839050595e+00 -2.2414166847e-03 2.7734278356e+00 -4.8037179225e+00 2.7734278356e+00 4.8037179225e+00 
79800 5.3839048753e+00 -2.2323735606e-03 2.7734682445e+00 -4.8037879127e+00 2.7734682445e+00 4.8037879127e+00 
79900 5.3839046924e+00 -2.2233711208e-03 2.7735084898e+00 -4.8038576195e+00 2.7735084898e+00 4.8038576195e+00 
80000 5.3839045109e+00 -2.2144091482e-03 2.7735485722e+00 -4.8039270443e+00 2.7735485722e+00 4.8039270443e+00 
80100 5.3839043306e+00 -2.2054874272e-03 2.7735884924e+00 -4.8039961881e+00 2.7735884924e+00 4.8039961881e+00 
80200 5.3839041517e+00 -2.1966057435e-03 2.7736282512e+00 -4.8040650525e+00 2.7736282512e+00 4.8040650525e+00 
80300 5.3839039740e+00 -2.1877638843e-03 2.7736678494e+00 -4.8041336385e+00 2.7736678494e+00 4.8041336385e+00 
80400 5.3839037976e+00 -2.1789616381e-03 2.7737072876e+00 -4.8042019474e+00 2.7737072876e+00 4.8042019474e+00 
80500 5.3839036225e+00 -2.1701987947e-03 2.7737465665e+00 -4.8042699806e+00 2.7737465665e+00 4.8042699806e+00 
80600 5.3839034486e+00 -2.1614751455e-03 2.7737856870e+00 -4.8043377392e+00 2.7737856870e+00 4.8043377392e+00 
80700 5.3839032760e+00 -2.1527904829e-03 2.7738246496e+00 -4.8044052244e+00 2.7738246496e+00 4.8044052244e+00 
80800 5.3839031047e+00 -2.1441446009e-03 2.7738634552e+00 -4.8044724376e+00 2.7738634552e+00 4.8044724376e+00 
80900 5.3839029345e+00 -2.1355372948e-03 2.7739021043e+00 -4.8045393799e+00 2.7739021043e+00 4.8045393799e+00 
81000 5.3839027656e+00 -2.1269683610e-03 2.7739405978e+00 -4.8046060526e+00 2.7739405978e+00 4.8046060526e+00 
81100 5.3839025980e+00 -2.1184375975e-03 2.7739789363e+00 -4.8046724567e+00 2.7739789363e+00 4.8046724567e+00 
81200 5.3839024315e+00 -2.1099448034e-03 2.7740171205e+00 -4.8047385937e+00 2.7740171205e+00 4.8047385937e+00 
81300 5.3839022662e+00 -2.1014897792e-03 2.7740551510e+00 -4.8048044646e+00 2.7740551510e+00 4.8048044646e+00 
81400 5.3839021021e+00 -2.0930723265e-03 2.7740930287e+00 -4.8048700706e+00 2.7740930287e+00 4.8048700706e+00 
81500 5.3839019392e+00 -2.0846922484e-03 2.7741307541e+00 -4.8049354130e+00 2.7741307541e+00 4.8049354130e+00 
81600 5.3839017775e+00 -2.0763493490e-03 2.7741683280e+00 -4.8050004929e+00 2.7741683280e+00 4.8050004929e+00 
81700 5.3839016169e+00 -2.0680434340e-03 2.7742057510e+00 -4.8050653114e+00 2.7742057510e+00 4.8050653114e+00 
81800 5.3839014575e+00 -2.0597743099e-03 2.7742430238e+00 -4.8051298698e+00 2.7742430238e+00 4.8051298698e+00 
81900 5.3839012992e+00 -2.0515417848e-03 2.7742801471e+00 -4.8051941691e+00 2.7742801471e+00 4.8051941691e+00 
82000 5.3839011421e+00 -2.0433456679e-03 2.7743171215e+00 -4.8052582107e+00 2.7743171215e+00 4.8052582107e+00 
82100 5.3839009861e+00 -2.0351857695e-03 2.7743539476e+00 -4.8053219955e+00 2.7743539476e+00 4.8053219955e+00 
82200 5.3839008312e+00 -2.0270619013e-03 2.7743906263e+00 -4.8053855247e+00 2.7743906263e+00 4.8053855247e+00 
82300 5.3839006775e+00 -2.0189738759e-03 2.7744271580e+00 -4.8054487996e+00 2.7744271580e+00 4.8054487996e+00 
82400 5.3839005248e+00 -2.0109215074e-03 2.7744635435e+00 -4.8055118211e+00 2.7744635435e+00 4.8055118211e+00 
82500 5.3839003733e+00 -2.0029046110e-03 2.7744997834e+00 -4.8055745905e+00 2.7744997834e+00 4.8055745905e+00 
82600 5.3839002228e+00 -1.9949230029e-03 2.7745358784e+00 -4.8056371088e+00 2.7745358784e+00 4.8056371088e+00 
82700 5.3839000734e+00 -1.9869765005e-03 2.7745718290e+00 -4.8056993771e+00 2.7745718290e+00 4.8056993771e+00 
82800 5.3838999251e+00 -1.9790649226e-03 2.7746076360e+00 -4.8057613966e+00 2.7746076360e+00 4.8057613966e+00 
82900 5.3838997779e+00 -1.9711880889e-03 2.7746432999e+00 -4.8058231684e+00 2.7746432999e+00 4.8058231684e+00 
83000 5.3838996317e+00 -1.9633458202e-03 2.7746788215e+00 -4.8058846935e+00 2.7746788215e+00 4.8058846935e+00 
83100 5.3838994866e+00 -1.9555379386e-03 2.7747142013e+00 -4.8059459731e+00 2.7747142013e+00 4.8059459731e+00 
83200 5.3838993426e+00 -1.9477642672e-03 2.7747494399e+00 -4.8060070081e+00 2.7747494399e+00 4.8060070081e+00 
83300 5.3838991995e+00 -1.9400246302e-03 2.7747845380e+00 -4.8060677998e+00 2.7747845380e+00 4.8060677998e+00 
83400 5.3838990575e+00 -1.9323188530e-03 2.7748194962e+00 -4.8061283492e+00 2.7748194962e+00 4.8061283492e+00 
83500 5.3838989165e+00 -1.9246467620e-03 2.7748543151e+00 -4.8061886573e+00 2.7748543151e+00 4.8061886573e+00 
83600 5.3838987766e+00 -1.9170081847e-03 2.7748889953e+00 -4.8062487252e+00 2.7748889953e+00 4.8062487252e+00 
83700 5.3838986376e+00 -1.9094029497e-03 2.7749235374e+00 -4.8063085539e+00 2.7749235374e+00 4.8063085539e+00 
83800 5.3838984996e+00 -1.9018308866e-03 2.7749579421e+00 -4.8063681446e+00 2.7749579421e+00 4.8063681446e+00 
83900 5.3838983627e+00 -1.8942918262e-03 2.7749922099e+00 -4.8064274982e+00 2.7749922099e+00 4.8064274982e+00 
84000 5.3838982267e+00 -1.8867856001e-03 2.7750263414e+00 -4.8064866157e+00 2.7750263414e+00 4.8064866157e+00 
84100 5.3838980917e+00 -1.8793120413e-03 2.7750603373e+00 -4.8065454983e+00 2.7750603373e+00 4.8065454983e+00 
84200 5.3838979577e+00 -1.8718709835e-03 2.7750941981e+00 -4.8066041470e+00 2.7750941981e+00 4.8066041470e+00 
84300 5.3838978246e+00 -1.8644622616e-03 2.7751279245e+00 -4.8066625627e+00 2.7751279245e+00 4.8066625627e+00 
84400 5.3838976925e+00 -1.8570857115e-03 2.7751615169e+00 -4.8067207465e+00 2.7751615169e+00 4.8067207465e+00 
84500 5.3838975613e+00 -1.8497411701e-03 2.7751949760e+00 -4.8067786994e+00 2.7751949760e+00 4.8067786994e+00 
84600 5.3838974311e+00 -1.8424284754e-03 2.7752283024e+00 -4.8068364224e+00 2.7752283024e+00 4.8068364224e+00 
84700 5.3838973019e+00 -1.8351474661e-03 2.7752614967e+00 -4.8068939165e+00 2.7752614967e+00 4.8068939165e+00 
84800 5.3838971735e+00 -1.8278979822e-03 2.7752945593e+00 -4.8069511827e+00 2.7752945593e+00 4.8069511827e+00 
84900 5.3838970461e+00 -1.8206798646e-03 2.7753274910e+00 -4.8070082221e+00 2.7753274910e+00 4.8070082221e+00 
85000 5.3838969196e+00 -1.8134929552e-03 2.7753602922e+00 -4.8070650355e+00 2.7753602922e+00 4.8070650355e+00 
85100 5.3838967940e+00 -1.8063370967e-03 2.7753929636e+00 -4.8071216239e+00 2.7753929636e+00 4.8071216239e+00 
85200 5.3838966693e+00 -1.7992121329e-03 2.7754255057e+00 -4.8071779885e+00 2.7754255057e+00 4.8071779885e+00 
85300 5.3838965455e+00 -1.7921179087e-03 2.7754579190e+00 -4.8072341300e+00 2.7754579190e+00 4.8072341300e+00 
85400 5.3838964226e+00 -1.7850542696e-03 2.7754902042e+00 -4.8072900495e+00 2.7754902042e+00 4.8072900495e+00 
85500 5.3838963006e+00 -1.7780210624e-03 2.7755223617e+00 -4.8073457480e+00 2.7755223617e+00 4.8073457480e+00 
85600 5.3838961795e+00 -1.7710181345e-03 2.7755543921e+00 -4.8074012263e+00 2.7755543921e+00 4.8074012263e+00 
85700 5.3838960592e+00 -1.7640453345e-03 2.7755862961e+00 -4.8074564856e+00 2.7755862961e+00 4.8074564856e+00 
85800 5.3838959399e+00 -1.7571025118e-03 2.7756180740e+00 -4.8075115266e+00 2.7756180740e+00 4.8075115266e+00 
85900 5.3838958213e+00 -1.7501895168e-03 2.7756497265e+00 -4.8075663503e+00 2.7756497265e+00 4.8075663503e+00 
86000 5.3838957036e+00 -1.7433062006e-03 2.7756812541e+00 -4.8076209578e+00 2.7756812541e+00 4.8076209578e+00 
86100 5.3838955868e+00 -1.7364524154e-03 2.7757126574e+00 -4.8076753499e+00 2.7757126574e+00 4.8076753499e+00 
86200 5.3838954708e+00 -1.7296280142e-03 2.7757439369e+00 -4.8077295275e+00 2.7757439369e+00 4.8077295275e+00 
86300 5.3838953557e+00 -1.7228328510e-03 2.7757750930e+00 -4.8077834915e+00 2.7757750930e+00 4.8077834915e+00 
86400 5.3838952413e+00 -1.7160667805e-03 2.7758061265e+00 -4.8078372430e+00 2.7758061265e+00 4.8078372430e+00 
86500 5.3838951278e+00 -1.7093296585e-03 2.7758370377e+00 -4.8078907828e+00 2.7758370377e+00 4.8078907828e+00 
86600 5.3838950151e+00 -1.7026213415e-03 2.7758678272e+00 -4.8079441118e+00 2.7758678272e+00 4.8079441118e+00 
86700 5.3838949033e+00 -1.6959416869e-03 2.7758984955e+00 -4.8079972309e+00 2.7758984955e+00 4.8079972309e+00 
86800 5.3838947922e+00 -1.6892905529e-03 2.7759290432e+00 -4.8080501410e+00 2.7759290432e+00 4.8080501410e+00 
86900 5.3838946819e+00 -1.6826677987e-03 2.7759594707e+00 -4.8081028430e+00 2.7759594707e+00 4.8081028430e+00 
87000 5.3838945725e+00 -1.6760732843e-03 2.7759897786e+00 -4.8081553379e+00 2.7759897786e+00 4.8081553379e+00 
87100 5.3838944638e+00 -1.6695068704e-03 2.7760199674e+00 -4.8082076264e+00 2.7760199674e+00 4.8082076264e+00 
87200 5.3838943559e+00 -1.6629684187e-03 2.7760500376e+00 -4.8082597095e+00 2.7760500376e+00 4.8082597095e+00 
87300 5.3838942487e+00 -1.6564577916e-03 2.7760799897e+00 -4.8083115881e+00 2.7760799897e+00 4.8083115881e+00 
87400 5.3838941424e+00 -1.6499748525e-03 2.7761098243e+00 -4.8083632630e+00 2.7761098243e+00 4.8083632630e+00 
87500 5.3838940368e+00 -1.6435194653e-03 2.7761395417e+00 -4.8084147352e+00 2.7761395417e+00 4.8084147352e+00 
87600 5.3838939320e+00 -1.6370914951e-03 2.7761691426e+00 -4.8084660054e+00 2.7761691426e+00 4.8084660054e+00 
87700 5.3838938279e+00 -1.6306908074e-03 2.7761986274e+00 -4.8085170745e+00 2.7761986274e+00 4.8085170745e+00 
87800 5.3838937246e+00 -1.6243172689e-03 2.7762279965e+00 -4.8085679434e+00 2.7762279965e+00 4.8085679434e+00 
87900 5.3838936220e+00 -1.6179707468e-03 2.7762572506e+00 -4.8086186130e+00 2.7762572506e+00 4.8086186130e+00 
88000 5.3838935201e+00 -1.6116511092e-03 2.7762863901e+00 -4.8086690840e+00 2.7762863901e+00 4.8086690840e+00 
88100 5.3838934190e+00 -1.6053582249e-03 2.7763154155e+00 -4.8087193574e+00 2.7763154155e+00 4.8087193574e+00 
88200 5.3838933186e+00 -1.5990919636e-03 2.7763443272e+00 -4.8087694340e+00 2.7763443272e+00 4.8087694340e+00 
88300 5.3838932190e+00 -1.5928521957e-03 2.7763731257e+00 -4.8088193145e+00 2.7763731257e+00 4.8088193145e+00 
88400 5.3838931200e+00 -1.5866387924e-03 2.7764018116e+00 -4.8088690000e+00 2.7764018116e+00 4.8088690000e+00 
88500 5.3838930218e+00 -1.5804516255e-03 2.7764303853e+00 -4.8089184911e+00 2.7764303853e+00 4.8089184911e+00 
88600 5.3838929243e+00 -1.5742905678e-03 2.7764588473e+00 -4.8089677887e+00 2.7764588473e+00 4.8089677887e+00 
88700 5.3838928275e+00 -1.5681554927e-03 2.7764871981e+00 -4.8090168936e+00 2.7764871981e+00 4.8090168936e+00 
88800 5.3838927314e+00 -1.5620462743e-03 2.7765154380e+00 -4.8090658067e+00 2.7765154380e+00 4.8090658067e+00 
88900 5.3838926359e+00 -1.5559627875e-03 2.7765435677e+00 -4.8091145287e+00 2.7765435677e+00 4.8091145287e+00 
89000 5.3838925412e+00 -1.5499049081e-03 2.7765715875e+00 -4.8091630604e+00 2.7765715875e+00 4.8091630604e+00 
89100 5.3838924471e+00 -1.5438725123e-03 2.7765994980e+00 -4.8092114028e+00 2.7765994980e+00 4.8092114028e+00 
89200 5.3838923538e+00 -1.5378654773e-03 2.7766272995e+00 -4.8092595564e+00 2.7766272995e+00 4.8092595564e+00 
89300 5.3838922611e+00 -1.5318836808e-03 2.7766549926e+00 -4.8093075223e+00 2.7766549926e+00 4.8093075223e+00 
89400 5.3838921690e+00 -1.5259270013e-03 2.7766825777e+00 -4.8093553011e+00 2.7766825777e+00 4.8093553011e+00 
89500 5.3838920776e+00 -1.5199953181e-03 2.7767100553e+00 -4.8094028936e+00 2.7767100553e+00 4.8094028936e+00 
89600 5.3838919869e+00 -1.5140885111e-03 2.7767374258e+00 -4.8094503007e+00 2.7767374258e+00 4.8094503007e+00 
89700 5.3838918968e+00 -1.5082064609e-03 2.7767646896e+00 -4.8094975231e+00 2.7767646896e+00 4.8094975231e+00 
89800 5.3838918074e+00 -1.5023490488e-03 2.7767918473e+00 -4.8095445615e+00 2.7767918473e+00 4.8095445615e+00 
89900 5.3838917187e+00 -1.4965161569e-03 2.7768188992e+00 -4.8095914168e+00 2.7768188992e+00 4.8095914168e+00 
90000 5.3838916305e+00 -1.4907076677e-03 2.7768458458e+00 -4.8096380898e+00 2.7768458458e+00 4.8096380898e+00 
90100 5.3838915430e+00 -1.4849234647e-03 2.7768726876e+00 -4.8096845811e+00 2.7768726876e+00 4.8096845811e+00 
90200 5.3838914562e+00 -1.4791634319e-03 2.7768994250e+00 -4.8097308916e+00 2.7768994250e+00 4.8097308916e+00 
90300 5.3838913699e+00 -1.4734274539e-03 2.7769260584e+00 -4.8097770220e+00 2.7769260584e+00 4.8097770220e+00 
90400 5.3838912843e+00 -1.4677154161e-03 2.7769525883e+00 -4.8098229731e+00 2.7769525883e+00 4.8098229731e+00 
90500 5.3838911993e+00 -1.4620272046e-03 2.7769790150e+00 -4.8098687456e+00 2.7769790150e+00 4.8098687456e+00 
90600 5.3838911149e+00 -1.4563627060e-03 2.7770053391e+00 -4.8099143403e+00 2.7770053391e+00 4.8099143403e+00 
90700 5.3838910311e+00 -1.4507218077e-03 2.7770315610e+00 -4.8099597579e+00 2.7770315610e+00 4.8099597579e+00 
90800 5.3838909479e+00 -1.4451043975e-03 2.7770576811e+00 -4.8100049991e+00 2.7770576811e+00 4.8100049991e+00 
90900 5.3838908654e+00 -1.4395103642e-03 2.7770836997e+00 -4.8100500648e+00 2.7770836997e+00 4.8100500648e+00 
91000 5.3838907834e+00 -1.4339395969e-03 2.7771096174e+00 -4.8100949556e+00 2.7771096174e+00 4.8100949556e+00 
91100 5.3838907020e+00 -1.4283919855e-03 2.7771354346e+00 -4.8101396722e+00 2.7771354346e+00 4.8101396722e+00 
91200 5.3838906212e+00 -1.4228674205e-03 2.7771611516e+00 -4.8101842154e+00 2.7771611516e+00 4.8101842154e+00 
91300 5.3838905409e+00 -1.4173657931e-03 2.7771867690e+00 -4.8102285860e+00 2.7771867690e+00 4.8102285860e+00 
91400 5.3838904613e+00 -1.4118869950e-03 2.7772122870e+00 -4.8102727845e+00 2.7772122870e+00 4.8102727845e+00 
91500 5.3838903822e+00 -1.4064309185e-03 2.7772377062e+00 -4.8103168118e+00 2.7772377062e+00 4.8103168118e+00 
91600 5.3838903037e+00 -1.4009974567e-03 2.7772630269e+00 -4.8103606686e+00 2.7772630269e+00 4.8103606686e+00 
91700 5.3838902258e+00 -1.3955865030e-03 2.7772882496e+00 -4.8104043555e+00 2.7772882496e+00 4.8104043555e+00 
91800 5.3838901484e+00 -1.3901979517e-03 2.7773133746e+00 -4.8104478734e+00 2.7773133746e+00 4.8104478734e+00 
91900 5.3838900716e+00 -1.3848316975e-03 2.7773384024e+00 -4.8104912228e+00 2.7773384024e+00 4.8104912228e+00 
92000 5.3838899953e+00 -1.3794876359e-03 2.7773633333e+00 -4.8105344044e+00 2.7773633333e+00 4.8105344044e+00 
92100 5.3838899196e+00 -1.3741656627e-03 2.7773881679e+00 -4.8105774191e+00 2.7773881679e+00 4.8105774191e+00 
92200 5.3838898444e+00 -1.3688656745e-03 2.7774129064e+00 -4.8106202674e+00 2.7774129064e+00 4.8106202674e+00 
92300 5.3838897698e+00 -1.3635875684e-03 2.7774375492e+00 -4.8106629501e+00 2.7774375492e+00 4.8106629501e+00 
92400 5.3838896957e+00 -1.3583312421e-03 2.7774620968e+00 -4.8107054678e+00 2.7774620968e+00 4.8107054678e+00 
92500 5.3838896221e+00 -1.3530965940e-03 2.7774865496e+00 -4.8107478213e+00 2.7774865496e+00 4.8107478213e+00 
92600 5.3838895491e+00 -1.3478835227e-03 2.7775109079e+00 -4.8107900111e+00 2.7775109079e+00 4.8107900111e+00 
92700 5.3838894766e+00 -1.3426919279e-03 2.7775351722e+00 -4.8108320381e+00 2.7775351722e+00 4.8108320381e+00 
92800 5.3838894046e+00 -1.3375217093e-03 2.7775593428e+00 -4.8108739028e+00 2.7775593428e+00 4.8108739028e+00 
92900 5.3838893331e+00 -1.3323727676e-03 2.7775834201e+00 -4.8109156059e+00 2.7775834201e+00 4.8109156059e+00 
93000 5.3838892622e+00 -1.3272450039e-03 2.7776074045e+00 -4.8109571482e+00 2.7776074045e+00 4.8109571482e+00 
93100 5.3838891917e+00 -1.3221383197e-03 2.7776312965e+00 -4.8109985302e+00 2.7776312965e+00 4.8109985302e+00 
93200 5.3838891218e+00 -1.3170526173e-03 2.7776550962e+00 -4.8110397526e+00 2.7776550962e+00 4.8110397526e+00 
93300 5.3838890524e+00 -1.3119877993e-03 2.7776788043e+00 -4.8110808161e+00 2.7776788043e+00 4.8110808161e+00 
93400 5.3838889835e+00 -1.3069437691e-03 2.7777024209e+00 -4.8111217213e+00 2.7777024209e+00 4.8111217213e+00 
93500 5.3838889150e+00 -1.3019204305e-03 2.7777259466e+00 -4.8111624690e+00 2.7777259466e+00 4.8111624690e+00 
93600 5.3838888471e+00 -1.2969176877e-03 2.7777493816e+00 -4.8112030597e+00 2.7777493816e+00 4.8112030597e+00 
93700 5.3838887797e+00 -1.2919354456e-03 2.7777727264e+00 -4.8112434940e+00 2.7777727264e+00 4.8112434940e+00 
93800 5.3838887127e+00 -1.2869736097e-03 2.7777959813e+00 -4.8112837727e+00 2.7777959813e+00 4.8112837727e+00 
93900 5.3838886462e+00 -1.2820320859e-03 2.7778191467e+00 -4.8113238964e+00 2.7778191467e+00 4.8113238964e+00 
94000 5.3838885802e+00 -1.2771107804e-03 2.7778422230e+00 -4.8113638656e+00 2.7778422230e+00 4.8113638656e+00 
94100 5.3838885147e+00 -1.2722096004e-03 2.7778652105e+00 -4.8114036811e+00 2.7778652105e+00 4.8114036811e+00 
94200 5.3838884496e+00 -1.2673284533e-03 2.7778881096e+00 -4.8114433435e+00 2.7778881096e+00 4.8114433435e+00 
94300 5.3838883851e+00 -1.2624672469e-03 2.7779109206e+00 -4.8114828534e+00 2.7779109206e+00 4.8114828534e+00 
94400 5.3838883210e+00 -1.2576258899e-03 2.7779336440e+00 -4.8115222114e+00 2.7779336440e+00 4.8115222114e+00 
94500 5.3838882573e+00 -1.2528042911e-03 2.7779562800e+00 -4.8115614181e+00 2.7779562800e+00 4.8115614181e+00 
94600 5.3838881941e+00 -1.2480023600e-03 2.7779788290e+00 -4.8116004742e+00 2.7779788290e+00 4.8116004742e+00 
94700 5.3838881314e+00 -1.2432200066e-03 2.7780012915e+00 -4.8116393803e+00 2.7780012915e+00 4.8116393803e+00 
94800 5.3838880691e+00 -1.2384571413e-03 2.7780236677e+00 -4.8116781370e+00 2.7780236677e+00 4.8116781370e+00 
94900 5.3838880072e+00 -1.2337136750e-03 2.7780459580e+00 -4.8117167450e+00 2.7780459580e+00 4.8117167450e+00 
95000 5.3838879458e+00 -1.2289895193e-03 2.7780681627e+00 -4.8117552047e+00 2.7780681627e+00 4.8117552047e+00 
95100 5.3838878849e+00 -1.2242845859e-03 2.7780902822e+00 -4.8117935168e+00 2.7780902822e+00 4.8117935168e+00 
95200 5.3838878244e+00 -1.2195987873e-03 2.7781123169e+00 -4.8118316820e+00 2.7781123169e+00 4.8118316820e+00 
95300 5.3838877643e+00 -1.2149320363e-03 2.7781342671e+00 -4.8118697008e+00 2.7781342671e+00 4.8118697008e+00 
95400 5.3838877047e+00 -1.2102842462e-03 2.7781561331e+00 -4.8119075738e+00 2.7781561331e+00 4.8119075738e+00 
95500 5.3838876454e+00 -1.2056553309e-03 2.7781779152e+00 -4.8119453017e+00 2.7781779152e+00 4.8119453017e+00 
95600 5.3838875867e+00 -1.2010452046e-03 2.7781996139e+00 -4.8119828849e+00 2.7781996139e+00 4.8119828849e+00 
95700 5.3838875283e+00 -1.1964537821e-03 2.7782212295e+00 -4.8120203241e+00 2.7782212295e+00 4.8120203241e+00 
95800 5.3838874704e+00 -1.1918809784e-03 2.7782427623e+00 -4.8120576200e+00 2.7782427623e+00 4.8120576200e+00 
95900 5.3838874128e+00 -1.1873267094e-03 2.7782642125e+00 -4.8120947730e+00 2.7782642125e+00 4.8120947730e+00 
96000 5.3838873557e+00 -1.1827908910e-03 2.7782855807e+00 -4.8121317837e+00 2.7782855807e+00 4.8121317837e+00 
96100 5.3838872990e+00 -1.1782734398e-03 2.7783068671e+00 -4.8121686528e+00 2.7783068671e+00 4.8121686528e+00 
96200 5.3838872427e+00 -1.1737742728e-03 2.7783280720e+00 -4.8122053808e+00 2.7783280720e+00 4.8122053808e+00 
96300 5.3838871869e+00 -1.1692933074e-03 2.7783491958e+00 -4.8122419682e+00 2.7783491958e+00 4.8122419682e+00 
96400 5.3838871314e+00 -1.1648304616e-03 2.7783702388e+00 -4.8122784158e+00 2.7783702388e+00 4.8122784158e+00 
96500 5.3838870763e+00 -1.1603856536e-03 2.7783912013e+00 -4.8123147239e+00 2.7783912013e+00 4.8123147239e+00 
96600 5.3838870216e+00 -1.1559588022e-03 2.7784120836e+00 -4.8123508932e+00 2.7784120836e+00 4.8123508932e+00 
96700 5.3838869673e+00 -1.1515498266e-03 2.7784328861e+00 -4.8123869242e+00 2.7784328861e+00 4.8123869242e+00 
96800 5.3838869134e+00 -1.1471586464e-03 2.7784536092e+00 -4.8124228176e+00 2.7784536092e+00 4.8124228176e+00 
96900 5.3838868599e+00 -1.1427851817e-03 2.7784742530e+00 -4.8124585738e+00 2.7784742530e+00 4.8124585738e+00 
97000 5.3838868068e+00 -1.1384293529e-03 2.7784948180e+00 -4.8124941934e+00 2.7784948180e+00 4.8124941934e+00 
97100 5.3838867540e+00 -1.1340910809e-03 2.7785153045e+00 -4.8125296770e+00 2.7785153045e+00 4.8125296770e+00 
97200 5.3838867017e+00 -1.1297702870e-03 2.7785357128e+00 -4.8125650251e+00 2.7785357128e+00 4.8125650251e+00 
97300 5.3838866497e+00 -1.1254668931e-03 2.7785560431e+00 -4.8126002383e+00 2.7785560431e+00 4.8126002383e+00 
97400 5.3838865981e+00 -1.1211808211e-03 2.7785762958e+00 -4.8126353171e+00 2.7785762958e+00 4.8126353171e+00 
97500 5.3838865469e+00 -1.1169119937e-03 2.7785964713e+00 -4.8126702621e+00 2.7785964713e+00 4.8126702621e+00 
97600 5.3838864960e+00 -1.1126603339e-03 2.7786165698e+00 -4.8127050737e+00 2.7786165698e+00 4.8127050737e+00 
97700 5.3838864455e+00 -1.1084257649e-03 2.7786365917e+00 -4.8127397526e+00 2.7786365917e+00 4.8127397526e+00 
97800 5.3838863954e+00 -1.1042082107e-03 2.7786565372e+00 -4.8127742993e+00 2.7786565372e+00 4.8127742993e+00 
97900 5.3838863456e+00 -1.1000075953e-03 2.7786764067e+00 -4.8128087142e+00 2.7786764067e+00 4.8128087142e+00 
98000 5.3838862962e+00 -1.0958238433e-03 2.7786962005e+00 -4.8128429980e+00 2.7786962005e+00 4.8128429980e+00 
98100 5.3838862471e+00 -1.0916568798e-03 2.7787159188e+00 -4.8128771512e+00 2.7787159188e+00 4.8128771512e+00 
98200 5.3838861984e+00 -1.0875066300e-03 2.7787355620e+00 -4.8129111742e+00 2.7787355620e+00 4.8129111742e+00 
98300 5.3838861500e+00 -1.0833730197e-03 2.7787551304e+00 -4.8129450677e+00 2.7787551304e+00 4.8129450677e+00 
98400 5.3838861020e+00 -1.0792559751e-03 2.7787746243e+00 -4.8129788321e+00 2.7787746243e+00 4.8129788321e+00 
98500 5.3838860544e+00 -1.0751554227e-03 2.7787940440e+00 -4.8130124679e+00 2.7787940440e+00 4.8130124679e+00 
98600 5.3838860071e+00 -1.0710712894e-03 2.7788133897e+00 -4.8130459757e+00 2.7788133897e+00 4.8130459757e+00 
98700 5.3838859601e+00 -1.0670035025e-03 2.7788326618e+00 -4.8130793560e+00 2.7788326618e+00 4.8130793560e+00 
98800 5.3838859134e+00 -1.0629519897e-03 2.7788518606e+00 -4.8131126093e+00 2.7788518606e+00 4.8131126093e+00 
98900 5.3838858671e+00 -1.0589166790e-03 2.7788709864e+00 -4.8131457361e+00 2.7788709864e+00 4.8131457361e+00 
99000 5.3838858212e+00 -1.0548974988e-03 2.7788900394e+00 -4.8131787369e+00 2.7788900394e+00 4.8131787369e+00 
99100 5.3838857755e+00 -1.0508943780e-03 2.7789090200e+00 -4.8132116122e+00 2.7789090200e+00 4.8132116122e+00 
99200 5.3838857302e+00 -1.0469072457e-03 2.7789279284e+00 -4.8132443625e+00 2.7789279284e+00 4.8132443625e+00 
99300 5.3838856853e+00 -1.0429360313e-03 2.7789467649e+00 -4.8132769884e+00 2.7789467649e+00 4.8132769884e+00 
99400 5.3838856406e+00 -1.0389806649e-03 2.7789655299e+00 -4.8133094903e+00 2.7789655299e+00 4.8133094903e+00 
99500 5.3838855963e+00 -1.0350410767e-03 2.7789842236e+00 -4.8133418687e+00 2.7789842236e+00 4.8133418687e+00 
99600 5.3838855523e+00 -1.0311171972e-03 2.7790028463e+00 -4.8133741241e+00 2.7790028463e+00 4.8133741241e+00 
99700 5.3838855086e+00 -1.0272089575e-03 2.7790213982e+00 -4.8134062570e+00 2.7790213982e+00 4.8134062570e+00 
99800 5.3838854652e+00 -1.0233162889e-03 2.7790398797e+00 -4.8134382679e+00 2.7790398797e+00 4.8134382679e+00 
99900 5.3838854221e+00 -1.0194391230e-03 2.7790582911e+00 -4.8134701573e+00 2.7790582911e+00 4.8134701573e+00 
100000 5.3838853794e+00 -1.0155773920e-03 2.7790766325e+00 -4.8135019257e+00 2.7790766325e+00 4.8135019257e+00 
100100 5.3838853369e+00 -1.0117310281e-03 2.7790949044e+00 -4.8135335735e+00 2.7790949044e+00 4.8135335735e+00 
100200 5.3838852948e+00 -1.0078999641e-03 2.7791131070e+00 -4.8135651012e+00 2.7791131070e+00 4.8135651012e+00 
100300 5.3838852529e+00 -1.0040841331e-03 2.7791312405e+00 -4.8135965094e+00 2.7791312405e+00 4.8135965094e+00 
100400 5.3838852114e+00 -1.0002834684e-03 2.7791493052e+00 -4.8136277984e+00 2.7791493052e+00 4.8136277984e+00 
100500 5.3838851701e+00 -9.9649790393e-04 2.7791673014e+00 -4.8136589688e+00 2.7791673014e+00 4.8136589688e+00 
100600 5.3838851292e+00 -9.9272737366e-04 2.7791852294e+00 -4.8136900210e+00 2.7791852294e+00 4.8136900210e+00 
100700 5.3838850886e+00 -9.8897181204e-04 2.7792030895e+00 -4.8137209556e+00 2.7792030895e+00 4.8137209556e+00 
100800 5.3838850482e+00 -9.8523115384e-04 2.7792208819e+00 -4.8137517729e+00 2.7792208819e+00 4.8137517729e+00 
100900 5.3838850081e+00 -9.8150533414e-04 2.7792386069e+00 -4.8137824734e+00 2.7792386069e+00 4.8137824734e+00 
101000 5.3838849684e+00 -9.7779428838e-04 2.7792562647e+00 -4.8138130577e+00 2.7792562647e+00 4.8138130577e+00 
101100 5.3838849289e+00 -9.7409795230e-04 2.7792738556e+00 -4.8138435261e+00 2.7792738556e+00 4.8138435261e+00 
101200 5.3838848897e+00 -9.7041626197e-04 2.7792913800e+00 -4.8138738792e+00 2.7792913800e+00 4.8138738792e+00 
101300 5.3838848508e+00 -9.6674915380e-04 2.7793088380e+00 -4.8139041173e+00 2.7793088380e+00 4.8139041173e+00 
101400 5.3838848121e+00 -9.6309656450e-04 2.7793262299e+00 -4.8139342410e+00 2.7793262299e+00 4.8139342410e+00 
101500 5.3838847738e+00 -9.5945843112e-04 2.7793435560e+00 -4.8139642507e+00 2.7793435560e+00 4.8139642507e+00 
101600 5.3838847357e+00 -9.5583469101e-04 2.7793608165e+00 -4.8139941468e+00 2.7793608165e+00 4.8139941468e+00 
101700 5.3838846979e+00 -9.5222528186e-04 2.7793780118e+00 -4.8140239298e+00 2.7793780118e+00 4.8140239298e+00 
101800 5.3838846603e+00 -9.4863014163e-04 2.7793951420e+00 -4.8140536002e+00 2.7793951420e+00 4.8140536002e+00 
101900 5.3838846231e+00 -9.4504920864e-04 2.7794122074e+00 -4.8140831584e+00 2.7794122074e+00 4.8140831584e+00 
102000 5.3838845861e+00 -9.4148242150e-04 2.7794292083e+00 -4.8141126048e+00 2.7794292083e+00 4.8141126048e+00 
102100 5.3838845494e+00 -9.3792971912e-04 2.7794461449e+00 -4.8141419399e+00 2.7794461449e+00 4.8141419399e+00 
102200 5.3838845129e+00 -9.3439104072e-04 2.7794630176e+00 -4.8141711642e+00 2.7794630176e+00 4.8141711642e+00 
102300 5.3838844767e+00 -9.3086632583e-04 2.7794798264e+00 -4.8142002780e+00 2.7794798264e+00 4.8142002780e+00 
102400 5.3838844408e+00 -9.2735551430e-04 2.7794965718e+00 -4.8142292818e+00 2.7794965718e+00 4.8142292818e+00 
102500 5.3838844051e+00 -9.2385854623e-04 2.7795132539e+00 -4.8142581760e+00 2.7795132539e+00 4.8142581760e+00 
102600 5.3838843697e+00 -9.2037536207e-04 2.7795298729e+00 -4.8142869611e+00 2.7795298729e+00 4.8142869611e+00 
102700 5.3838843345e+00 -9.1690590255e-04 2.7795464293e+00 -4.8143156375e+00 2.7795464293e+00 4.8143156375e+00 
102800 5.3838842996e+00 -9.1345010868e-04 2.7795629231e+00 -4.8143442056e+00 2.7795629231e+00 4.8143442056e+00 
102900 5.3838842649e+00 -9.1000792178e-04 2.7795793547e+00 -4.8143726659e+00 2.7795793547e+00 4.8143726659e+00 
103000 5.3838842305e+00 -9.0657928346e-04 2.7795957242e+00 -4.8144010188e+00 2.7795957242e+00 4.8144010188e+00 
103100 5.3838841963e+00 -9.0316413562e-04 2.7796120320e+00 -4.8144292647e+00 2.7796120320e+00 4.8144292647e+00 
103200 5.3838841624e+00 -8.9976242044e-04 2.7796282782e+00 -4.8144574040e+00 2.7796282782e+00 4.8144574040e+00 
103300 5.3838841287e+00 -8.9637408039e-04 2.7796444632e+00 -4.8144854372e+00 2.7796444632e+00 4.8144854372e+00 
103400 5.3838840953e+00 -8.9299905824e-04 2.7796605871e+00 -4.8145133646e+00 2.7796605871e+00 4.8145133646e+00 
103500 5.3838840621e+00 -8.8963729701e-04 2.7796766502e+00 -4.8145411867e+00 2.7796766502e+00 4.8145411867e+00 
103600 5.3838840292e+00 -8.8628874004e-04 2.7796926527e+00 -4.8145689040e+00 2.7796926527e+00 4.8145689040e+00 
103700 5.3838839965e+00 -8.8295333092e-04 2.7797085950e+00 -4.8145965167e+00 2.7797085950e+00 4.8145965167e+00 
103800 5.3838839640e+00 -8.7963101354e-04 2.7797244771e+00 -4.8146240254e+00 2.7797244771e+00 4.8146240254e+00 
103900 5.3838839318e+00 -8.7632173204e-04 2.7797402994e+00 -4.8146514304e+00 2.7797402994e+00 4.8146514304e+00 
104000 5.3838838997e+00 -8.7302543086e-04 2.7797560621e+00 -4.8146787321e+00 2.7797560621e+00 4.8146787321e+00 
104100 5.3838838680e+00 -8.6974205470e-04 2.7797717653e+00 -4.8147059310e+00 2.7797717653e+00 4.8147059310e+00 
104200 5.3838838364e+00 -8.6647154854e-04 2.7797874095e+00 -4.8147330275e+00 2.7797874095e+00 4.8147330275e+00 
104300 5.3838838051e+00 -8.6321385761e-04 2.7798029947e+00 -4.8147600219e+00 2.7798029947e+00 4.8147600219e+00 
104400 5.3838837740e+00 -8.5996892744e-04 2.7798185213e+00 -4.8147869146e+00 2.7798185213e+00 4.8147869146e+00 
104500 5.3838837431e+00 -8.5673670380e-04 2.7798339893e+00 -4.8148137062e+00 2.7798339893e+00 4.8148137062e+00 
104600 5.3838837125e+00 -8.5351713273e-04 2.7798493992e+00 -4.8148403968e+00 2.7798493992e+00 4.8148403968e+00 
104700 5.3838836821e+00 -8.5031016054e-04 2.7798647511e+00 -4.8148669870e+00 2.7798647511e+00 4.8148669870e+00 
104800 5.3838836519e+00 -8.4711573380e-04 2.7798800452e+00 -4.8148934772e+00 2.7798800452e+00 4.8148934772e+00 
104900 5.3838836219e+00 -8.4393379935e-04 2.7798952818e+00 -4.8149198677e+00 2.7798952818e+00 4.8149198677e+00 
105000 5.3838835921e+00 -8.4076430427e-04 2.7799104610e+00 -4.8149461590e+00 2.7799104610e+00 4.8149461590e+00 
105100 5.3838835625e+00 -8.3760719590e-04 2.7799255832e+00 -4.8149723513e+00 2.7799255832e+00 4.8149723513e+00 
105200 5.3838835332e+00 -8.3446242185e-04 2.7799406485e+00 -4.8149984452e+00 2.7799406485e+00 4.8149984452e+00 
105300 5.3838835041e+00 -8.3132992998e-04 2.7799556571e+00 -4.8150244409e+00 2.7799556571e+00 4.8150244409e+00 
105400 5.3838834751e+00 -8.2820966839e-04 2.7799706093e+00 -4.8150503389e+00 2.7799706093e+00 4.8150503389e+00 
105500 5.3838834464e+00 -8.2510158544e-04 2.7799855054e+00 -4.8150761396e+00 2.7799855054e+00 4.8150761396e+00 
105600 5.3838834179e+00 -8.2200562974e-04 2.7800003454e+00 -4.8151018433e+00 2.7800003454e+00 4.8151018433e+00 
105700 5.3838833896e+00 -8.1892175016e-04 2.7800151297e+00 -4.8151274505e+00 2.7800151297e+00 4.8151274505e+00 
105800 5.3838833615e+00 -8.1584989579e-04 2.7800298584e+00 -4.8151529614e+00 2.7800298584e+00 4.8151529614e+00 
105900 5.3838833336e+00 -8.1279001600e-04 2.7800445319e+00 -4.8151783765e+00 2.7800445319e+00 4.8151783765e+00 
106000 5.3838833059e+00 -8.0974206037e-04 2.7800591502e+00 -4.8152036961e+00 2.7800591502e+00 4.8152036961e+00 
106100 5.3838832784e+00 -8.0670597874e-04 2.7800737136e+00 -4.8152289207e+00 2.7800737136e+00 4.8152289207e+00 
106200 5.3838832511e+00 -8.0368172119e-04 2.7800882223e+00 -4.8152540506e+00 2.7800882223e+00 4.8152540506e+00 
106300 5.3838832241e+00 -8.0066923804e-04 2.7801026766e+00 -4.8152790861e+00 2.7801026766e+00 4.8152790861e+00 
106400 5.3838831971e+00 -7.9766847985e-04 2.7801170766e+00 -4.8153040276e+00 2.7801170766e+00 4.8153040276e+00 
106500 5.3838831704e+00 -7.9467939741e-04 2.7801314225e+00 -4.8153288755e+00 2.7801314225e+00 4.8153288755e+00 
106600 5.3838831439e+00 -7.9170194175e-04 2.7801457147e+00 -4.8153536302e+00 2.7801457147e+00 4.8153536302e+00 
106700 5.3838831176e+00 -7.8873606414e-04 2.7801599532e+00 -4.8153782921e+00 2.7801599532e+00 4.8153782921e+00 
106800 5.3838830915e+00 -7.8578171608e-04 2.7801741383e+00 -4.8154028614e+00 2.7801741383e+00 4.8154028614e+00 
106900 5.3838830655e+00 -7.8283884929e-04 2.7801882702e+00 -4.8154273385e+00 2.7801882702e+00 4.8154273385e+00 
107000 5.3838830398e+00 -7.7990741573e-04 2.7802023491e+00 -4.8154517239e+00 2.7802023491e+00 4.8154517239e+00 
107100 5.3838830142e+00 -7.7698736760e-04 2.7802163752e+00 -4.8154760178e+00 2.7802163752e+00 4.8154760178e+00 
107200 5.3838829888e+00 -7.7407865731e-04 2.7802303487e+00 -4.8155002206e+00 2.7802303487e+00 4.8155002206e+00 
107300 5.3838829636e+00 -7.7118123750e-04 2.7802442698e+00 -4.8155243328e+00 2.7802442698e+00 4.8155243328e+00 
107400 5.3838829386e+00 -7.6829506104e-04 2.7802581388e+00 -4.8155483545e+00 2.7802581388e+00 4.8155483545e+00 
107500 5.3838829137e+00 -7.6542008103e-04 2.7802719558e+00 -4.8155722862e+00 2.7802719558e+00 4.8155722862e+00 
107600 5.3838828891e+00 -7.6255625077e-04 2.7802857210e+00 -4.8155961283e+00 2.7802857210e+00 4.8155961283e+00 
107700 5.3838828646e+00 -7.5970352380e-04 2.7802994346e+00 -4.8156198810e+00 2.7802994346e+00 4.8156198810e+00 
107800 5.3838828403e+00 -7.5686185389e-04 2.7803130969e+00 -4.8156435447e+00 2.7803130969e+00 4.8156435447e+00 
107900 5.3838828162e+00 -7.5403119500e-04 2.7803267080e+00 -4.8156671199e+00 2.7803267080e+00 4.8156671199e+00 
108000 5.3838827922e+00 -7.5121150133e-04 2.7803402681e+00 -4.8156906067e+00 2.7803402681e+00 4.8156906067e+00 
108100 5.3838827684e+00 -7.4840272728e-04 2.7803537775e+00 -4.8157140056e+00 2.7803537775e+00 4.8157140056e+00 
108200 5.3838827448e+00 -7.4560482748e-04 2.7803672362e+00 -4.8157373169e+00 2.7803672362e+00 4.8157373169e+00 
108300 5.3838827214e+00 -7.4281775676e-04 2.7803806446e+00 -4.8157605409e+00 2.7803806446e+00 4.8157605409e+00 
108400 5.3838826981e+00 -7.4004147018e-04 2.7803940029e+00 -4.8157836780e+00 2.7803940029e+00 4.8157836780e+00 
108500 5.3838826750e+00 -7.3727592300e-04 2.7804073111e+00 -4.8158067285e+00 2.7804073111e+00 4.8158067285e+00 
108600 5.3838826520e+00 -7.3452107069e-04 2.7804205695e+00 -4.8158296928e+00 2.7804205695e+00 4.8158296928e+00 
108700 5.3838826293e+00 -7.3177686894e-04 2.7804337783e+00 -4.8158525712e+00 2.7804337783e+00 4.8158525712e+00 
108800 5.3838826066e+00 -7.2904327362e-04 2.7804469377e+00 -4.8158753639e+00 2.7804469377e+00 4.8158753639e+00 
108900 5.3838825842e+00 -7.2632024083e-04 2.7804600479e+00 -4.8158980714e+00 2.7804600479e+00 4.8158980714e+00 
109000 5.3838825619e+00 -7.2360772688e-04 2.7804731091e+00 -4.8159206940e+00 2.7804731091e+00 4.8159206940e+00 
109100 5.3838825398e+00 -7.2090568828e-04 2.7804861214e+00 -4.8159432320e+00 2.7804861214e+00 4.8159432320e+00 
109200 5.3838825178e+00 -7.1821408173e-04 2.7804990851e+00 -4.8159656858e+00 2.7804990851e+00 4.8159656858e+00 
109300 5.3838824960e+00 -7.1553286414e-04 2.7805120003e+00 -4.8159880556e+00 2.7805120003e+00 4.8159880556e+00 
109400 5.3838824744e+00 -7.1286199262e-04 2.7805248672e+00 -4.8160103418e+00 2.7805248672e+00 4.8160103418e+00 
109500 5.3838824529e+00 -7.1020142449e-04 2.7805376861e+00 -4.8160325447e+00 2.7805376861e+00 4.8160325447e+00 
109600 5.3838824316e+00 -7.0755111726e-04 2.7805504570e+00 -4.8160546646e+00 2.7805504570e+00 4.8160546646e+00 
109700 5.3838824104e+00 -7.0491102863e-04 2.7805631803e+00 -4.8160767019e+00 2.7805631803e+00 4.8160767019e+00 
109800 5.3838823893e+00 -7.0228111652e-04 2.7805758560e+00 -4.8160986568e+00 2.7805758560e+00 4.8160986568e+00 
109900 5.3838823685e+00 -6.9966133901e-04 2.7805884843e+00 -4.8161205298e+00 2.7805884843e+00 4.8161205298e+00 
110000 5.3838823477e+00 -6.9705165442e-04 2.7806010655e+00 -4.8161423210e+00 2.7806010655e+00 4.8161423210e+00 
110100 5.3838823272e+00 -6.9445202122e-04 2.7806135997e+00 -4.8161640309e+00 2.7806135997e+00 4.8161640309e+00 
110200 5.3838823067e+00 -6.9186239810e-04 2.7806260871e+00 -4.8161856597e+00 2.7806260871e+00 4.8161856597e+00 
110300 5.3838822865e+00 -6.8928274392e-04 2.7806385279e+00 -4.8162072078e+00 2.7806385279e+00 4.8162072078e+00 
110400 5.3838822663e+00 -6.8671301775e-04 2.7806509222e+00 -4.8162286754e+00 2.7806509222e+00 4.8162286754e+00 
110500 5.3838822463e+00 -6.8415317885e-04 2.7806632703e+00 -4.8162500629e+00 2.7806632703e+00 4.8162500629e+00 
110600 5.3838822265e+00 -6.8160318665e-04 2.7806755723e+00 -4.8162713705e+00 2.7806755723e+00 4.8162713705e+00 
110700 5.3838822068e+00 -6.7906300077e-04 2.7806878283e+00 -4.8162925987e+00 2.7806878283e+00 4.8162925987e+00 
110800 5.3838821872e+00 -6.7653258103e-04 2.7807000387e+00 -4.8163137476e+00 2.7807000387e+00 4.8163137476e+00 
110900 5.3838821678e+00 -6.7401188743e-04 2.7807122035e+00 -4.8163348177e+00 2.7807122035e+00 4.8163348177e+00 
111000 5.3838821485e+00 -6.7150088015e-04 2.7807243229e+00 -4.8163558091e+00 2.7807243229e+00 4.8163558091e+00 
111100 5.3838821294e+00 -6.6899951954e-04 2.7807363971e+00 -4.8163767223e+00 2.7807363971e+00 4.8163767223e+00 
111200 5.3838821104e+00 -6.6650776617e-04 2.7807484263e+00 -4.8163975574e+00 2.7807484263e+00 4.8163975574e+00 
111300 5.3838820915e+00 -6.6402558075e-04 2.7807604106e+00 -4.8164183149e+00 2.7807604106e+00 4.8164183149e+00 
111400 5.3838820728e+00 -6.6155292419e-04 2.7807723503e+00 -4.8164389950e+00 2.7807723503e+00 4.8164389950e+00 
111500 5.3838820542e+00 -6.5908975758e-04 2.7807842454e+00 -4.8164595980e+00 2.7807842454e+00 4.8164595980e+00 
111600 5.3838820357e+00 -6.5663604219e-04 2.7807960962e+00 -4.8164801242e+00 2.7807960962e+00 4.8164801242e+00 
111700 5.3838820174e+00 -6.5419173944e-04 2.7808079029e+00 -4.8165005738e+00 2.7808079029e+00 4.8165005738e+00 
111800 5.3838819992e+00 -6.5175681097e-04 2.7808196655e+00 -4.8165209473e+00 2.7808196655e+00 4.8165209473e+00 
111900 5.3838819812e+00 -6.4933121856e-04 2.7808313843e+00 -4.8165412449e+00 2.7808313843e+00 4.8165412449e+00 
112000 5.3838819632e+00 -6.4691492418e-04 2.7808430594e+00 -4.8165614668e+00 2.7808430594e+00 4.8165614668e+00 
112100 5.3838819454e+00 -6.4450788997e-04 2.7808546911e+00 -4.8165816134e+00 2.7808546911e+00 4.8165816134e+00 
112200 5.3838819278e+00 -6.4211007825e-04 2.7808662794e+00 -4.8166016849e+00 2.7808662794e+00 4.8166016849e+00 
112300 5.3838819102e+00 -6.3972145149e-04 2.7808778245e+00 -4.8166216817e+00 2.7808778245e+00 4.8166216817e+00 
112400 5.3838818928e+00 -6.3734197235e-04 2.7808893267e+00 -4.8166416040e+00 2.7808893267e+00 4.8166416040e+00 
112500 5.3838818755e+00 -6.3497160365e-04 2.7809007860e+00 -4.8166614522e+00 2.7809007860e+00 4.8166614522e+00 
112600 5.3838818583e+00 -6.3261030839e-04 2.7809122027e+00 -4.8166812264e+00 2.7809122027e+00 4.8166812264e+00 
112700 5.3838818413e+00 -6.3025804973e-04 2.7809235768e+00 -4.8167009270e+00 2.7809235768e+00 4.8167009270e+00 
112800 5.3838818244e+00 -6.2791479099e-04 2.7809349087e+00 -4.8167205543e+00 2.7809349087e+00 4.8167205543e+00 
112900 5.3838818076e+00 -6.2558049567e-04 2.7809461983e+00 -4.8167401086e+00 2.7809461983e+00 4.8167401086e+00 
113000 5.3838817909e+00 -6.2325512742e-04 2.7809574459e+00 -4.8167595900e+00 2.7809574459e+00 4.8167595900e+00 
113100 5.3838817743e+00 -6.2093865007e-04 2.7809686517e+00 -4.8167789990e+00 2.7809686517e+00 4.8167789990e+00 
113200 5.3838817579e+00 -6.1863102760e-04 2.7809798158e+00 -4.8167983357e+00 2.7809798158e+00 4.8167983357e+00 
113300 5.3838817416e+00 -6.1633222416e-04 2.7809909383e+00 -4.8168176006e+00 2.7809909383e+00 4.8168176006e+00 
113400 5.3838817254e+00 -6.1404220406e-04 2.7810020195e+00 -4.8168367937e+00 2.7810020195e+00 4.8168367937e+00 
113500 5.3838817093e+00 -6.1176093177e-04 2.7810130594e+00 -4.8168559155e+00 2.7810130594e+00 4.8168559155e+00 
113600 5.3838816933e+00 -6.0948837191e-04 2.7810240583e+00 -4.8168749661e+00 2.7810240583e+00 4.8168749661e+00 
113700 5.3838816775e+00 -6.0722448929e-04 2.7810350163e+00 -4.8168939459e+00 2.7810350163e+00 4.8168939459e+00 
113800 5.3838816617e+00 -6.0496924885e-04 2.7810459336e+00 -4.8169128551e+00 2.7810459336e+00 4.8169128551e+00 
113900 5.3838816461e+00 -6.0272261568e-04 2.7810568102e+00 -4.8169316941e+00 2.7810568102e+00 4.8169316941e+00 
114000 5.3838816306e+00 -6.0048455505e-04 2.7810676465e+00 -4.8169504629e+00 2.7810676465e+00 4.8169504629e+00 
114100 5.3838816152e+00 -5.9825503239e-04 2.7810784424e+00 -4.8169691621e+00 2.7810784424e+00 4.8169691621e+00 
114200 5.3838815999e+00 -5.9603401325e-04 2.7810891982e+00 -4.8169877917e+00 2.7810891982e+00 4.8169877917e+00 
114300 5.3838815847e+00 -5.9382146337e-04 2.7810999141e+00 -4.8170063521e+00 2.7810999141e+00 4.8170063521e+00 
114400 5.3838815697e+00 -5.9161734862e-04 2.7811105901e+00 -4.8170248435e+00 2.7811105901e+00 4.8170248435e+00 
114500 5.3838815547e+00 -5.8942163504e-04 2.7811212264e+00 -4.8170432662e+00 2.7811212264e+00 4.8170432662e+00 
114600 5.3838815399e+00 -5.8723428880e-04 2.7811318233e+00 -4.8170616205e+00 2.7811318233e+00 4.8170616205e+00 
114700 5.3838815251e+00 -5.8505527625e-04 2.7811423808e+00 -4.8170799066e+00 2.7811423808e+00 4.8170799066e+00 
114800 5.3838815105e+00 -5.8288456386e-04 2.7811528990e+00 -4.8170981247e+00 2.7811528990e+00 4.8170981247e+00 
114900 5.3838814960e+00 -5.8072211827e-04 2.7811633782e+00 -4.8171162752e+00 2.7811633782e+00 4.8171162752e+00 
115000 5.3838814815e+00 -5.7856790626e-04 2.7811738185e+00 -4.8171343583e+00 2.7811738185e+00 4.8171343583e+00 
115100 5.3838814672e+00 -5.7642189476e-04 2.7811842200e+00 -4.8171523743e+00 2.7811842200e+00 4.8171523743e+00 
115200 5.3838814530e+00 -5.7428405084e-04 2.7811945829e+00 -4.8171703233e+00 2.7811945829e+00 4.8171703233e+00 
115300 5.3838814389e+00 -5.7215434173e-04 2.7812049073e+00 -4.8171882057e+00 2.7812049073e+00 4.8171882057e+00 
115400 5.3838814249e+00 -5.7003273480e-04 2.7812151934e+00 -4.8172060218e+00 2.7812151934e+00 4.8172060218e+00 
115500 5.3838814109e+00 -5.6791919755e-04 2.7812254413e+00 -4.8172237717e+00 2.7812254413e+00 4.8172237717e+00 
115600 5.3838813971e+00 -5.6581369764e-04 2.7812356512e+00 -4.8172414557e+00 2.7812356512e+00 4.8172414557e+00 
115700 5.3838813834e+00 -5.6371620287e-04 2.7812458232e+00 -4.8172590741e+00 2.7812458232e+00 4.8172590741e+00 
115800 5.3838813698e+00 -5.6162668119e-04 2.7812559574e+00 -4.8172766271e+00 2.7812559574e+00 4.8172766271e+00 
115900 5.3838813563e+00 -5.5954510067e-04 2.7812660541e+00 -4.8172941150e+00 2.7812660541e+00 4.8172941150e+00 
116000 5.3838813429e+00 -5.5747142954e-04 2.7812761133e+00 -4.8173115381e+00 2.7812761133e+00 4.8173115381e+00 
116100 5.3838813295e+00 -5.5540563617e-04 2.7812861351e+00 -4.8173288965e+00 2.7812861351e+00 4.8173288965e+00 
116200 5.3838813163e+00 -5.5334768906e-04 2.7812961198e+00 -4.8173461905e+00 2.7812961198e+00 4.8173461905e+00 
116300 5.3838813032e+00 -5.5129755685e-04 2.7813060675e+00 -4.8173634203e+00 2.7813060675e+00 4.8173634203e+00 
116400 5.3838812902e+00 -5.4925520831e-04 2.7813159783e+00 -4.8173805863e+00 2.7813159783e+00 4.8173805863e+00 
116500 5.3838812772e+00 -5.4722061238e-04 2.7813258523e+00 -4.8173976886e+00 2.7813258523e+00 4.8173976886e+00 
116600 5.3838812644e+00 -5.4519373810e-04 2.7813356897e+00 -4.8174147275e+00 2.7813356897e+00 4.8174147275e+00 
116700 5.3838812516e+00 -5.4317455467e-04 2.7813454906e+00 -4.8174317032e+00 2.7813454906e+00 4.8174317032e+00 
116800 5.3838812389e+00 -5.4116303141e-04 2.7813552553e+00 -4.8174486160e+00 2.7813552553e+00 4.8174486160e+00 
116900 5.3838812264e+00 -5.3915913778e-04 2.7813649837e+00 -4.8174654661e+00 2.7813649837e+00 4.8174654661e+00 
117000 5.3838812139e+00 -5.3716284337e-04 2.7813746760e+00 -4.8174822538e+00 2.7813746760e+00 4.8174822538e+00 
117100 5.3838812015e+00 -5.3517411791e-04 2.7813843325e+00 -4.8174989792e+00 2.7813843325e+00 4.8174989792e+00 
117200 5.3838811892e+00 -5.3319293127e-04 2.7813939531e+00 -4.8175156426e+00 2.7813939531e+00 4.8175156426e+00 
117300 5.3838811770e+00 -5.3121925342e-04 2.7814035381e+00 -4.8175322443e+00 2.7814035381e+00 4.8175322443e+00 
117400 5.3838811649e+00 -5.2925305451e-04 2.7814130876e+00 -4.8175487845e+00 2.7814130876e+00 4.8175487845e+00 
117500 5.3838811528e+00 -5.2729430477e-04 2.7814226017e+00 -4.8175652635e+00 2.7814226017e+00 4.8175652635e+00 
117600 5.3838811409e+00 -5.2534297459e-04 2.7814320806e+00 -4.8175816813e+00 2.7814320806e+00 4.8175816813e+00 
117700 5.3838811290e+00 -5.2339903449e-04 2.7814415243e+00 -4.8175980384e+00 2.7814415243e+00 4.8175980384e+00 
117800 5.3838811173e+00 -5.2146245510e-04 2.7814509331e+00 -4.8176143349e+00 2.7814509331e+00 4.8176143349e+00 
117900 5.3838811056e+00 -5.1953320719e-04 2.7814603070e+00 -4.8176305710e+00 2.7814603070e+00 4.8176305710e+00 
118000 5.3838810940e+00 -5.1761126167e-04 2.7814696463e+00 -4.8176467470e+00 2.7814696463e+00 4.8176467470e+00 
118100 5.3838810824e+00 -5.1569658954e-04 2.7814789509e+00 -4.8176628631e+00 2.7814789509e+00 4.8176628631e+00 
118200 5.3838810710e+00 -5.1378916196e-04 2.7814882211e+00 -4.8176789196e+00 2.7814882211e+00 4.8176789196e+00 
118300 5.3838810596e+00 -5.1188895020e-04 2.7814974570e+00 -4.8176949166e+00 2.7814974570e+00 4.8176949166e+00 
118400 5.3838810484e+00 -5.0999592567e-04 2.7815066586e+00 -4.8177108544e+00 2.7815066586e+00 4.8177108544e+00 
118500 5.3838810372e+00 -5.0811005987e-04 2.7815158263e+00 -4.8177267332e+00 2.7815158263e+00 4.8177267332e+00 
118600 5.3838810260e+00 -5.0623132447e-04 2.7815249600e+00 -4.8177425532e+00 2.7815249600e+00 4.8177425532e+00 
118700 5.3838810150e+00 -5.0435969121e-04 2.7815340599e+00 -4.8177583147e+00 2.7815340599e+00 4.8177583147e+00 
118800 5.3838810041e+00 -5.0249513201e-04 2.7815431261e+00 -4.8177740178e+00 2.7815431261e+00 4.8177740178e+00 
118900 5.3838809932e+00 -5.0063761886e-04 2.7815521587e+00 -4.8177896629e+00 2.7815521587e+00 4.8177896629e+00 
119000 5.3838809824e+00 -4.9878712390e-04 2.7815611580e+00 -4.8178052500e+00 2.7815611580e+00 4.8178052500e+00 
119100 5.3838809717e+00 -4.9694361939e-04 2.7815701240e+00 -4.8178207795e+00 2.7815701240e+00 4.8178207795e+00 
119200 5.3838809610e+00 -4.9510707769e-04 2.7815790568e+00 -4.8178362516e+00 2.7815790568e+00 4.8178362516e+00 
119300 5.3838809505e+00 -4.9327747131e-04 2.7815879565e+00 -4.8178516664e+00 2.7815879565e+00 4.8178516664e+00 
119400 5.3838809400e+00 -4.9145477284e-04 2.7815968233e+00 -4.8178670242e+00 2.7815968233e+00 4.8178670242e+00 
119500 5.3838809296e+00 -4.8963895502e-04 2.7816056574e+00 -4.8178823252e+00 2.7816056574e+00 4.8178823252e+00 
119600 5.3838809192e+00 -4.8782999069e-04 2.7816144588e+00 -4.8178975697e+00 2.7816144588e+00 4.8178975697e+00 
119700 5.3838809090e+00 -4.8602785282e-04 2.7816232276e+00 -4.8179127577e+00 2.7816232276e+00 4.8179127577e+00 
119800 5.3838808988e+00 -4.8423251448e-04 2.7816319640e+00 -4.8179278896e+00 2.7816319640e+00 4.8179278896e+00 
119900 5.3838808887e+00 -4.8244394888e-04 2.7816406681e+00 -4.8179429656e+00 2.7816406681e+00 4.8179429656e+00 
120000 5.3838808786e+00 -4.8066212931e-04 2.7816493401e+00 -4.8179579858e+00 2.7816493401e+00 4.8179579858e+00 
120100 5.3838808687e+00 -4.7888702921e-04 2.7816579799e+00 -4.8179729505e+00 2.7816579799e+00 4.8179729505e+00 
120200 5.3838808588e+00 -4.7711862211e-04 2.7816665879e+00 -4.8179878599e+00 2.7816665879e+00 4.8179878599e+00 
120300 5.3838808490e+00 -4.7535688166e-04 2.7816751640e+00 -4.8180027142e+00 2.7816751640e+00 4.8180027142e+00 
120400 5.3838808392e+00 -4.7360178163e-04 2.7816837085e+00 -4.8180175136e+00 2.7816837085e+00 4.8180175136e+00 
120500 5.3838808295e+00 -4.7185329590e-04 2.7816922213e+00 -4.8180322584e+00 2.7816922213e+00 4.8180322584e+00 
120600 5.3838808199e+00 -4.7011139844e-04 2.7817007027e+00 -4.8180469486e+00 2.7817007027e+00 4.8180469486e+00 
120700 5.3838808104e+00 -4.6837606336e-04 2.7817091528e+00 -4.8180615846e+00 2.7817091528e+00 4.8180615846e+00 
120800 5.3838808009e+00 -4.6664726488e-04 2.7817175717e+00 -4.8180761665e+00 2.7817175717e+00 4.8180761665e+00 
120900 5.3838807915e+00 -4.6492497731e-04 2.7817259594e+00 -4.8180906945e+00 2.7817259594e+00 4.8180906945e+00 
121000 5.3838807821e+00 -4.6320917507e-04 2.7817343162e+00 -4.8181051688e+00 2.7817343162e+00 4.8181051688e+00 
121100 5.3838807729e+00 -4.6149983271e-04 2.7817426421e+00 -4.8181195897e+00 2.7817426421e+00 4.8181195897e+00 
121200 5.3838807637e+00 -4.5979692488e-04 2.7817509373e+00 -4.8181339574e+00 2.7817509373e+00 4.8181339574e+00 
121300 5.3838807545e+00 -4.5810042633e-04 2.7817592018e+00 -4.8181482720e+00 2.7817592018e+00 4.8181482720e+00 
121400 5.3838807455e+00 -4.5641031191e-04 2.7817674358e+00 -4.8181625337e+00 2.7817674358e+00 4.8181625337e+00 
121500 5.3838807365e+00 -4.5472655661e-04 2.7817756394e+00 -4.8181767427e+00 2.7817756394e+00 4.8181767427e+00 
121600 5.3838807275e+00 -4.5304913550e-04 2.7817838127e+00 -4.8181908993e+00 2.7817838127e+00 4.8181908993e+00 
121700 5.3838807186e+00 -4.5137802375e-04 2.7817919559e+00 -4.8182050037e+00 2.7817919559e+00 4.8182050037e+00 
121800 5.3838807098e+00 -4.4971319665e-04 2.7818000690e+00 -4.8182190560e+00 2.7818000690e+00 4.8182190560e+00 
121900 5.3838807011e+00 -4.4805462960e-04 2.7818081521e+00 -4.8182330564e+00 2.7818081521e+00 4.8182330564e+00 
122000 5.3838806924e+00 -4.4640229808e-04 2.7818162054e+00 -4.8182470051e+00 2.7818162054e+00 4.8182470051e+00 
122100 5.3838806838e+00 -4.4475617771e-04 2.7818242290e+00 -4.8182609023e+00 2.7818242290e+00 4.8182609023e+00 
122200 5.3838806752e+00 -4.4311624417e-04 2.7818322230e+00 -4.8182747483e+00 2.7818322230e+00 4.8182747483e+00 
122300 5.3838806667e+00 -4.4148247328e-04 2.7818401874e+00 -4.8182885432e+00 2.7818401874e+00 4.8182885432e+00 
122400 5.3838806583e+00 -4.3985484095e-04 2.7818481225e+00 -4.8183022871e+00 2.7818481225e+00 4.8183022871e+00 
122500 5.3838806499e+00 -4.3823332318e-04 2.7818560283e+00 -4.8183159804e+00 2.7818560283e+00 4.8183159804e+00 
122600 5.3838806416e+00 -4.3661789608e-04 2.7818639050e+00 -4.8183296231e+00 2.7818639050e+00 4.8183296231e+00 
122700 5.3838806333e+00 -4.3500853587e-04 2.7818717525e+00 -4.8183432156e+00 2.7818717525e+00 4.8183432156e+00 
122800 5.3838806251e+00 -4.3340521886e-04 2.7818795712e+00 -4.8183567578e+00 2.7818795712e+00 4.8183567578e+00 
122900 5.3838806170e+00 -4.3180792145e-04 2.7818873610e+00 -4.8183702501e+00 2.7818873610e+00 4.8183702501e+00 
123000 5.3838806089e+00 -4.3021662017e-04 2.7818951220e+00 -4.8183836927e+00 2.7818951220e+00 4.8183836927e+00 
123100 5.3838806009e+00 -4.2863129161e-04 2.7819028545e+00 -4.8183970857e+00 2.7819028545e+00 4.8183970857e+00 
123200 5.3838805929e+00 -4.2705191249e-04 2.7819105584e+00 -4.8184104293e+00 2.7819105584e+00 4.8184104293e+00 
123300 5.3838805850e+00 -4.2547845962e-04 2.7819182339e+00 -4.8184237237e+00 2.7819182339e+00 4.8184237237e+00 
123400 5.3838805772e+00 -4.2391090989e-04 2.7819258811e+00 -4.8184369690e+00 2.7819258811e+00 4.8184369690e+00 
123500 5.3838805694e+00 -4.2234924031e-04 2.7819335002e+00 -4.8184501656e+00 2.7819335002e+00 4.8184501656e+00 
123600 5.3838805617e+00 -4.2079342797e-04 2.7819410911e+00 -4.8184633134e+00 2.7819410911e+00 4.8184633134e+00 
123700 5.3838805540e+00 -4.1924345008e-04 2.7819486540e+00 -4.8184764129e+00 2.7819486540e+00 4.8184764129e+00 
123800 5.3838805464e+00 -4.1769928391e-04 2.7819561891e+00 -4.8184894640e+00 2.7819561891e+00 4.8184894640e+00 
123900 5.3838805388e+00 -4.1616090685e-04 2.7819636964e+00 -4.8185024670e+00 2.7819636964e+00 4.8185024670e+00 
124000 5.3838805313e+00 -4.1462829638e-04 2.7819711760e+00 -4.8185154221e+00 2.7819711760e+00 4.8185154221e+00 
124100 5.3838805238e+00 -4.1310143007e-04 2.7819786281e+00 -4.8185283295e+00 2.7819786281e+00 4.8185283295e+00 
124200 5.3838805164e+00 -4.1158028560e-04 2.7819860527e+00 -4.8185411892e+00 2.7819860527e+00 4.8185411892e+00 
124300 5.3838805091e+00 -4.1006484071e-04 2.7819934500e+00 -4.8185540016e+00 2.7819934500e+00 4.8185540016e+00 
124400 5.3838805018e+00 -4.0855507327e-04 2.7820008199e+00 -4.8185667668e+00 2.7820008199e+00 4.8185667668e+00 
124500 5.3838804945e+00 -4.0705096121e-04 2.7820081628e+00 -4.8185794850e+00 2.7820081628e+00 4.8185794850e+00 
124600 5.3838804873e+00 -4.0555248258e-04 2.7820154785e+00 -4.8185921563e+00 2.7820154785e+00 4.8185921563e+00 
124700 5.3838804802e+00 -4.0405961551e-04 2.7820227674e+00 -4.8186047809e+00 2.7820227674e+00 4.8186047809e+00 
124800 5.3838804731e+00 -4.0257233820e-04 2.7820300294e+00 -4.8186173590e+00 2.7820300294e+00 4.8186173590e+00 
124900 5.3838804661e+00 -4.0109062899e-04 2.7820372646e+00 -4.8186298908e+00 2.7820372646e+00 4.8186298908e+00 
125000 5.3838804591e+00 -3.9961446626e-04 2.7820444732e+00 -4.8186423764e+00 2.7820444732e+00 4.8186423764e+00 
125100 5.3838804522e+00 -3.9814382851e-04 2.7820516552e+00 -4.8186548161e+00 2.7820516552e+00 4.8186548161e+00 
125200 5.3838804453e+00 -3.9667869433e-04 2.7820588108e+00 -4.8186672099e+00 2.7820588108e+00 4.8186672099e+00 
125300 5.3838804384e+00 -3.9521904237e-04 2.7820659400e+00 -4.8186795581e+00 2.7820659400e+00 4.8186795581e+00 
125400 5.3838804316e+00 -3.9376485139e-04 2.7820730430e+00 -4.8186918608e+00 2.7820730430e+00 4.8186918608e+00 
125500 5.3838804249e+00 -3.9231610026e-04 2.7820801198e+00 -4.8187041183e+00 2.7820801198e+00 4.8187041183e+00 
125600 5.3838804182e+00 -3.9087276789e-04 2.7820871706e+00 -4.8187163305e+00 2.7820871706e+00 4.8187163305e+00 
125700 5.3838804116e+00 -3.8943483331e-04 2.7820941954e+00 -4.8187284979e+00 2.7820941954e+00 4.8187284979e+00 
125800 5.3838804050e+00 -3.8800227563e-04 2.7821011944e+00 -4.8187406204e+00 2.7821011944e+00 4.8187406204e+00 
125900 5.3838803984e+00 -3.8657507404e-04 2.7821081675e+00 -4.8187526983e+00 2.7821081675e+00 4.8187526983e+00 
126000 5.3838803919e+00 -3.8515320783e-04 2.7821151151e+00 -4.8187647318e+00 2.7821151151e+00 4.8187647318e+00 
126100 5.3838803855e+00 -3.8373665636e-04 2.7821220370e+00 -4.8187767210e+00 2.7821220370e+00 4.8187767210e+00 
126200 5.3838803791e+00 -3.8232539909e-04 2.7821289335e+00 -4.8187886660e+00 2.7821289335e+00 4.8187886660e+00 
126300 5.3838803727e+00 -3.8091941556e-04 2.7821358046e+00 -4.8188005671e+00 2.7821358046e+00 4.8188005671e+00 
126400 5.3838803664e+00 -3.7951868537e-04 2.7821426504e+00 -4.8188124244e+00 2.7821426504e+00 4.8188124244e+00 
126500 5.3838803601e+00 -3.7812318825e-04 2.7821494710e+00 -4.8188242381e+00 2.7821494710e+00 4.8188242381e+00 
126600 5.3838803539e+00 -3.7673290398e-04 2.7821562666e+00 -4.8188360083e+00 2.7821562666e+00 4.8188360083e+00 
126700 5.3838803478e+00 -3.7534781244e-04 2.7821630371e+00 -4.8188477352e+00 2.7821630371e+00 4.8188477352e+00 
126800 5.3838803416e+00 -3.7396789357e-04 2.7821697827e+00 -4.8188594189e+00 2.7821697827e+00 4.8188594189e+00 
126900 5.3838803355e+00 -3.7259312743e-04 2.7821765035e+00 -4.8188710597e+00 2.7821765035e+00 4.8188710597e+00 
127000 5.3838803295e+00 -3.7122349413e-04 2.7821831996e+00 -4.8188826576e+00 2.7821831996e+00 4.8188826576e+00 
127100 5.3838803235e+00 -3.6985897387e-04 2.7821898710e+00 -4.8188942129e+00 2.7821898710e+00 4.8188942129e+00 
127200 5.3838803175e+00 -3.6849954694e-04 2.7821965179e+00 -4.8189057257e+00 2.7821965179e+00 4.8189057257e+00 
127300 5.3838803116e+00 -3.6714519371e-04 2.7822031404e+00 -4.8189171961e+00 2.7822031404e+00 4.8189171961e+00 
127400 5.3838803058e+00 -3.6579589462e-04 2.7822097385e+00 -4.8189286244e+00 2.7822097385e+00 4.8189286244e+00 
127500 5.3838802999e+00 -3.6445163020e-04 2.7822163123e+00 -4.8189400106e+00 2.7822163123e+00 4.8189400106e+00 
127600 5.3838802941e+00 -3.6311238105e-04 2.7822228620e+00 -4.8189513549e+00 2.7822228620e+00 4.8189513549e+00 
127700 5.3838802884e+00 -3.6177812786e-04 2.7822293876e+00 -4.8189626576e+00 2.7822293876e+00 4.8189626576e+00 
127800 5.3838802827e+00 -3.6044885140e-04 2.7822358892e+00 -4.8189739187e+00 2.7822358892e+00 4.8189739187e+00 
127900 5.3838802770e+00 -3.5912453251e-04 2.7822423668e+00 -4.8189851384e+00 2.7822423668e+00 4.8189851384e+00 
128000 5.3838802714e+00 -3.5780515212e-04 2.7822488207e+00 -4.8189963168e+00 2.7822488207e+00 4.8189963168e+00 
128100 5.3838802658e+00 -3.5649069122e-04 2.7822552509e+00 -4.8190074541e+00 2.7822552509e+00 4.8190074541e+00 
128200 5.3838802603e+00 -3.5518113090e-04 2.7822616574e+00 -4.8190185505e+00 2.7822616574e+00 4.8190185505e+00 
128300 5.3838802548e+00 -3.5387645231e-04 2.7822680403e+00 -4.8190296061e+00 2.7822680403e+00 4.8190296061e+00 
128400 5.3838802493e+00 -3.5257663668e-04 2.7822743998e+00 -4.8190406211e+00 2.7822743998e+00 4.8190406211e+00 
128500 5.3838802439e+00 -3.5128166533e-04 2.7822807360e+00 -4.8190515956e+00 2.7822807360e+00 4.8190515956e+00 
128600 5.3838802385e+00 -3.4999151964e-04 2.7822870488e+00 -4.8190625298e+00 2.7822870488e+00 4.8190625298e+00 
128700 5.3838802332e+00 -3.4870618107e-04 2.7822933384e+00 -4.8190734237e+00 2.7822933384e+00 4.8190734237e+00 
128800 5.3838802279e+00 -3.4742563116e-04 2.7822996050e+00 -4.8190842777e+00 2.7822996050e+00 4.8190842777e+00 
128900 5.3838802226e+00 -3.4614985154e-04 2.7823058485e+00 -4.8190950917e+00 2.7823058485e+00 4.8190950917e+00 
129000 5.3838802174e+00 -3.4487882387e-04 2.7823120690e+00 -4.8191058661e+00 2.7823120690e+00 4.8191058661e+00 
129100 5.3838802122e+00 -3.4361252994e-04 2.7823182667e+00 -4.8191166008e+00 2.7823182667e+00 4.8191166008e+00 
129200 5.3838802071e+00 -3.4235095157e-04 2.7823244417e+00 -4.8191272961e+00 2.7823244417e+00 4.8191272961e+00 
129300 5.3838802019e+00 -3.4109407067e-04 2.7823305939e+00 -4.8191379521e+00 2.7823305939e+00 4.8191379521e+00 
129400 5.3838801969e+00 -3.3984186924e-04 2.7823367236e+00 -4.8191485690e+00 2.7823367236e+00 4.8191485690e+00 
129500 5.3838801918e+00 -3.3859432934e-04 2.7823428307e+00 -4.8191591468e+00 2.7823428307e+00 4.8191591468e+00 
129600 5.3838801868e+00 -3.3735143308e-04 2.7823489154e+00 -4.8191696858e+00 2.7823489154e+00 4.8191696858e+00 
129700 5.3838801818e+00 -3.3611316268e-04 2.7823549777e+00 -4.8191801861e+00 2.7823549777e+00 4.8191801861e+00 
129800 5.3838801769e+00 -3.3487950042e-04 2.7823610178e+00 -4.8191906479e+00 2.7823610178e+00 4.8191906479e+00 
129900 5.3838801720e+00 -3.3365042864e-04 2.7823670357e+00 -4.8192010712e+00 2.7823670357e+00 4.8192010712e+00 
130000 5.3838801672e+00 -3.3242592975e-04 2.7823730315e+00 -4.8192114562e+00 2.7823730315e+00 4.8192114562e+00 
130100 5.3838801623e+00 -3.3120598627e-04 2.7823790053e+00 -4.8192218031e+00 2.7823790053e+00 4.8192218031e+00 
130200 5.3838801575e+00 -3.2999058074e-04 2.7823849572e+00 -4.8192321120e+00 2.7823849572e+00 4.8192321120e+00 
130300 5.3838801528e+00 -3.2877969580e-04 2.7823908872e+00 -4.8192423831e+00 2.7823908872e+00 4.8192423831e+00 
130400 5.3838801481e+00 -3.2757331415e-04 2.7823967954e+00 -4.8192526164e+00 2.7823967954e+00 4.8192526164e+00 
130500 5.3838801434e+00 -3.2637141857e-04 2.7824026819e+00 -4.8192628122e+00 2.7824026819e+00 4.8192628122e+00 
130600 5.3838801387e+00 -3.2517399190e-04 2.7824085469e+00 -4.8192729706e+00 2.7824085469e+00 4.8192729706e+00 
130700 5.3838801341e+00 -3.2398101706e-04 2.7824143902e+00 -4.8192830916e+00 2.7824143902e+00 4.8192830916e+00 
130800 5.3838801295e+00 -3.2279247702e-04 2.7824202122e+00 -4.8192931755e+00 2.7824202122e+00 4.8192931755e+00 
130900 5.3838801250e+00 -3.2160835484e-04 2.7824260128e+00 -4.8193032224e+00 2.7824260128e+00 4.8193032224e+00 
131000 5.3838801204e+00 -3.2042863363e-04 2.7824317920e+00 -4.8193132324e+00 2.7824317920e+00 4.8193132324e+00 
131100 5.3838801159e+00 -3.1925329659e-04 2.7824375501e+00 -4.8193232057e+00 2.7824375501e+00 4.8193232057e+00 
131200 5.3838801115e+00 -3.1808232696e-04 2.7824432871e+00 -4.8193331424e+00 2.7824432871e+00 4.8193331424e+00 
131300 5.3838801071e+00 -3.1691570808e-04 2.7824490029e+00 -4.8193430426e+00 2.7824490029e+00 4.8193430426e+00 
131400 5.3838801027e+00 -3.1575342333e-04 2.7824546978e+00 -4.8193529064e+00 2.7824546978e+00 4.8193529064e+00 
131500 5.3838800983e+00 -3.1459545616e-04 2.7824603719e+00 -4.8193627341e+00 2.7824603719e+00 4.8193627341e+00 
131600 5.3838800940e+00 -3.1344179012e-04 2.7824660250e+00 -4.8193725257e+00 2.7824660250e+00 4.8193725257e+00 
131700 5.3838800897e+00 -3.1229240877e-04 2.7824716575e+00 -4.8193822814e+00 2.7824716575e+00 4.8193822814e+00 
131800 5.3838800854e+00 -3.1114729579e-04 2.7824772693e+00 -4.8193920013e+00 2.7824772693e+00 4.8193920013e+00 
131900 5.3838800812e+00 -3.1000643488e-04 2.7824828605e+00 -4.8194016855e+00 2.7824828605e+00 4.8194016855e+00 
132000 5.3838800770e+00 -3.0886980985e-04 2.7824884311e+00 -4.8194113342e+00 2.7824884311e+00 4.8194113342e+00 
132100 5.3838800728e+00 -3.0773740454e-04 2.7824939814e+00 -4.8194209475e+00 2.7824939814e+00 4.8194209475e+00 
132200 5.3838800687e+00 -3.0660920288e-04 2.7824995113e+00 -4.8194305256e+00 2.7824995113e+00 4.8194305256e+00 
132300 5.3838800646e+00 -3.0548518883e-04 2.7825050209e+00 -4.8194400685e+00 2.7825050209e+00 4.8194400685e+00 
132400 5.3838800605e+00 -3.0436534646e-04 2.7825105103e+00 -4.8194495764e+00 2.7825105103e+00 4.8194495764e+00 
132500 5.3838800564e+00 -3.0324965987e-04 2.7825159795e+00 -4.8194590494e+00 2.7825159795e+00 4.8194590494e+00 
132600 5.3838800524e+00 -3.0213811324e-04 2.7825214287e+00 -4.8194684877e+00 2.7825214287e+00 4.8194684877e+00 
132700 5.3838800484e+00 -3.0103069080e-04 2.7825268580e+00 -4.8194778914e+00 2.7825268580e+00 4.8194778914e+00 
132800 5.3838800444e+00 -2.9992737685e-04 2.7825322673e+00 -4.8194872606e+00 2.7825322673e+00 4.8194872606e+00 
132900 5.3838800405e+00 -2.9882815577e-04 2.7825376567e+00 -4.8194965954e+00 2.7825376567e+00 4.8194965954e+00 
133000 5.3838800366e+00 -2.9773301198e-04 2.7825430264e+00 -4.8195058960e+00 2.7825430264e+00 4.8195058960e+00 
133100 5.3838800327e+00 -2.9664192996e-04 2.7825483765e+00 -4.8195151625e+00 2.7825483765e+00 4.8195151625e+00 
133200 5.3838800288e+00 -2.9555489427e-04 2.7825537069e+00 -4.8195243951e+00 2.7825537069e+00 4.8195243951e+00 
133300 5.3838800250e+00 -2.9447188952e-04 2.7825590177e+00 -4.8195335937e+00 2.7825590177e+00 4.8195335937e+00 
133400 5.3838800212e+00 -2.9339290039e-04 2.7825643091e+00 -4.8195427587e+00 2.7825643091e+00 4.8195427587e+00 
133500 5.3838800174e+00 -2.9231791162e-04 2.7825695811e+00 -4.8195518900e+00 2.7825695811e+00 4.8195518900e+00 
133600 5.3838800137e+00 -2.9124690799e-04 2.7825748338e+00 -4.8195609879e+00 2.7825748338e+00 4.8195609879e+00 
133700 5.3838800100e+00 -2.9017987438e-04 2.7825800672e+00 -4.8195700525e+00 2.7825800672e+00 4.8195700525e+00 
133800 5.3838800063e+00 -2.8911679569e-04 2.7825852814e+00 -4.8195790838e+00 2.7825852814e+00 4.8195790838e+00 
133900 5.3838800026e+00 -2.8805765691e-04 2.7825904765e+00 -4.8195880820e+00 2.7825904765e+00 4.8195880820e+00 
134000 5.3838799990e+00 -2.8700244307e-04 2.7825956526e+00 -4.8195970472e+00 2.7825956526e+00 4.8195970472e+00 
134100 5.3838799954e+00 -2.8595113928e-04 2.7826008097e+00 -4.8196059795e+00 2.7826008097e+00 4.8196059795e+00 
134200 5.3838799918e+00 -2.8490373068e-04 2.7826059479e+00 -4.8196148792e+00 2.7826059479e+00 4.8196148792e+00 
134300 5.3838799882e+00 -2.8386020251e-04 2.7826110672e+00 -4.8196237462e+00 2.7826110672e+00 4.8196237462e+00 
134400 5.3838799847e+00 -2.8282054003e-04 2.7826161679e+00 -4.8196325807e+00 2.7826161679e+00 4.8196325807e+00 
134500 5.3838799812e+00 -2.8178472858e-04 2.7826212498e+00 -4.8196413828e+00 2.7826212498e+00 4.8196413828e+00 
134600 5.3838799777e+00 -2.8075275355e-04 2.7826263131e+00 -4.8196501527e+00 2.7826263131e+00 4.8196501527e+00 
134700 5.3838799743e+00 -2.7972460040e-04 2.7826313578e+00 -4.8196588905e+00 2.7826313578e+00 4.8196588905e+00 
134800 5.3838799708e+00 -2.7870025462e-04 2.7826363841e+00 -4.8196675962e+00 2.7826363841e+00 4.8196675962e+00 
134900 5.3838799674e+00 -2.7767970180e-04 2.7826413919e+00 -4.8196762701e+00 2.7826413919e+00 4.8196762701e+00 
135000 5.3838799640e+00 -2.7666292755e-04 2.7826463814e+00 -4.8196849121e+00 2.7826463814e+00 4.8196849121e+00 
135100 5.3838799607e+00 -2.7564991755e-04 2.7826513526e+00 -4.8196935225e+00 2.7826513526e+00 4.8196935225e+00 
135200 5.3838799574e+00 -2.7464065755e-04 2.7826563057e+00 -4.8197021014e+00 2.7826563057e+00 4.8197021014e+00 
135300 5.3838799540e+00 -2.7363513333e-04 2.7826612405e+00 -4.8197106488e+00 2.7826612405e+00 4.8197106488e+00 
135400 5.3838799508e+00 -2.7263333075e-04 2.7826661573e+00 -4.8197191650e+00 2.7826661573e+00 4.8197191650e+00 
135500 5.3838799475e+00 -2.7163523571e-04 2.7826710561e+00 -4.8197276499e+00 2.7826710561e+00 4.8197276499e+00 
135600 5.3838799443e+00 -2.7064083419e-04 2.7826759369e+00 -4.8197361038e+00 2.7826759369e+00 4.8197361038e+00 
135700 5.3838799410e+00 -2.6965011219e-04 2.7826807999e+00 -4.8197445267e+00 2.7826807999e+00 4.8197445267e+00 
135800 5.3838799379e+00 -2.6866305580e-04 2.7826856450e+00 -4.8197529187e+00 2.7826856450e+00 4.8197529187e+00 
135900 5.3838799347e+00 -2.6767965113e-04 2.7826904725e+00 -4.8197612800e+00 2.7826904725e+00 4.8197612800e+00 
136000 5.3838799315e+00 -2.6669988439e-04 2.7826952822e+00 -4.8197696107e+00 2.7826952822e+00 4.8197696107e+00 
136100 5.3838799284e+00 -2.6572374180e-04 2.7827000743e+00 -4.8197779109e+00 2.7827000743e+00 4.8197779109e+00 
136200 5.3838799253e+00 -2.6475120965e-04 2.7827048489e+00 -4.8197861807e+00 2.7827048489e+00 4.8197861807e+00 
136300 5.3838799222e+00 -2.6378227431e-04 2.7827096059e+00 -4.8197944202e+00 2.7827096059e+00 4.8197944202e+00 
136400 5.3838799192e+00 -2.6281692216e-04 2.7827143456e+00 -4.8198026296e+00 2.7827143456e+00 4.8198026296e+00 
136500 5.3838799162e+00 -2.6185513967e-04 2.7827190679e+00 -4.8198108088e+00 2.7827190679e+00 4.8198108088e+00 
136600 5.3838799131e+00 -2.6089691334e-04 2.7827237730e+00 -4.8198189582e+00 2.7827237730e+00 4.8198189582e+00 
136700 5.3838799102e+00 -2.5994222974e-04 2.7827284608e+00 -4.8198270777e+00 2.7827284608e+00 4.8198270777e+00 
136800 5.3838799072e+00 -2.5899107548e-04 2.7827331314e+00 -4.8198351675e+00 2.7827331314e+00 4.8198351675e+00 
136900 5.3838799042e+00 -2.5804343723e-04 2.7827377849e+00 -4.8198432276e+00 2.7827377849e+00 4.8198432276e+00 
137000 5.3838799013e+00 -2.5709930171e-04 2.7827424214e+00 -4.8198512583e+00 2.7827424214e+00 4.8198512583e+00 
137100 5.3838798984e+00 -2.5615865570e-04 2.7827470410e+00 -4.8198592596e+00 2.7827470410e+00 4.8198592596e+00 
137200 5.3838798955e+00 -2.5522148602e-04 2.7827516436e+00 -4.8198672315e+00 2.7827516436e+00 4.8198672315e+00 
137300 5.3838798927e+00 -2.5428777955e-04 2.7827562294e+00 -4.8198751743e+00 2.7827562294e+00 4.8198751743e+00 
137400 5.3838798898e+00 -2.5335752321e-04 2.7827607984e+00 -4.8198830881e+00 2.7827607984e+00 4.8198830881e+00 
137500 5.3838798870e+00 -2.5243070399e-04 2.7827653506e+00 -4.8198909728e+00 2.7827653506e+00 4.8198909728e+00 
137600 5.3838798842e+00 -2.5150730893e-04 2.7827698862e+00 -4.8198988287e+00 2.7827698862e+00 4.8198988287e+00 
137700 5.3838798814e+00 -2.5058732509e-04 2.7827744053e+00 -4.8199066559e+00 2.7827744053e+00 4.8199066559e+00 
137800 5.3838798787e+00 -2.4967073963e-04 2.7827789077e+00 -4.8199144544e+00 2.7827789077e+00 4.8199144544e+00 
137900 5.3838798759e+00 -2.4875753972e-04 2.7827833937e+00 -4.8199222244e+00 2.7827833937e+00 4.8199222244e+00 
138000 5.3838798732e+00 -2.4784771260e-04 2.7827878633e+00 -4.8199299659e+00 2.7827878633e+00 4.8199299659e+00 
138100 5.3838798705e+00 -2.4694124555e-04 2.7827923165e+00 -4.8199376791e+00 2.7827923165e+00 4.8199376791e+00 
138200 5.3838798678e+00 -2.4603812591e-04 2.7827967535e+00 -4.8199453641e+00 2.7827967535e+00 4.8199453641e+00 
138300 5.3838798652e+00 -2.4513834106e-04 2.7828011742e+00 -4.8199530210e+00 2.7828011742e+00 4.8199530210e+00 
138400 5.3838798625e+00 -2.4424187844e-04 2.7828055787e+00 -4.8199606499e+00 2.7828055787e+00 4.8199606499e+00 
138500 5.3838798599e+00 -2.4334872553e-04 2.7828099671e+00 -4.8199682508e+00 2.7828099671e+00 4.8199682508e+00 
138600 5.3838798573e+00 -2.4245886987e-04 2.7828143395e+00 -4.8199758240e+00 2.7828143395e+00 4.8199758240e+00 
138700 5.3838798547e+00 -2.4157229904e-04 2.7828186958e+00 -4.8199833694e+00 2.7828186958e+00 4.8199833694e+00 
138800 5.3838798521e+00 -2.4068900067e-04 2.7828230363e+00 -4.8199908873e+00 2.7828230363e+00 4.8199908873e+00 
138900 5.3838798496e+00 -2.3980896243e-04 2.7828273608e+00 -4.8199983776e+00 2.7828273608e+00 4.8199983776e+00 
139000 5.3838798471e+00 -2.3893217206e-04 2.7828316695e+00 -4.8200058405e+00 2.7828316695e+00 4.8200058405e+00 
139100 5.3838798445e+00 -2.3805861733e-04 2.7828359625e+00 -4.8200132762e+00 2.7828359625e+00 4.8200132762e+00 
139200 5.3838798420e+00 -2.3718828606e-04 2.7828402398e+00 -4.8200206846e+00 2.7828402398e+00 4.8200206846e+00 
139300 5.3838798396e+00 -2.3632116613e-04 2.7828445014e+00 -4.8200280660e+00 2.7828445014e+00 4.8200280660e+00 
139400 5.3838798371e+00 -2.3545724546e-04 2.7828487474e+00 -4.8200354203e+00 2.7828487474e+00 4.8200354203e+00 
139500 5.3838798347e+00 -2.3459651201e-04 2.7828529779e+00 -4.8200427478e+00 2.7828529779e+00 4.8200427478e+00 
139600 5.3838798323e+00 -2.3373895379e-04 2.7828571930e+00 -4.8200500484e+00 2.7828571930e+00 4.8200500484e+00 
139700 5.3838798298e+00 -2.3288455887e-04 2.7828613926e+00 -4.8200573224e+00 2.7828613926e+00 4.8200573224e+00 
139800 5.3838798275e+00 -2.3203331535e-04 2.7828655769e+00 -4.8200645698e+00 2.7828655769e+00 4.8200645698e+00 
139900 5.3838798251e+00 -2.3118521138e-04 2.7828697458e+00 -4.8200717906e+00 2.7828697458e+00 4.8200717906e+00 
140000 5.3838798227e+00 -2.3034023517e-04 2.7828738995e+00 -4.8200789851e+00 2.7828738995e+00 4.8200789851e+00 
140100 5.3838798204e+00 -2.2949837496e-04 2.7828780381e+00 -4.8200861532e+00 2.7828780381e+00 4.8200861532e+00 
140200 5.3838798181e+00 -2.2865961904e-04 2.7828821615e+00 -4.8200932952e+00 2.7828821615e+00 4.8200932952e+00 
140300 5.3838798158e+00 -2.2782395575e-04 2.7828862698e+00 -4.8201004110e+00 2.7828862698e+00 4.8201004110e+00 
140400 5.3838798135e+00 -2.2699137347e-04 2.7828903631e+00 -4.8201075008e+00 2.7828903631e+00 4.8201075008e+00 
140500 5.3838798112e+00 -2.2616186063e-04 2.7828944414e+00 -4.8201145647e+00 2.7828944414e+00 4.8201145647e+00 
140600 5.3838798090e+00 -2.2533540571e-04 2.7828985049e+00 -4.8201216028e+00 2.7828985049e+00 4.8201216028e+00 
140700 5.3838798067e+00 -2.2451199722e-04 2.7829025535e+00 -4.8201286151e+00 2.7829025535e+00 4.8201286151e+00 
140800 5.3838798045e+00 -2.2369162373e-04 2.7829065872e+00 -4.8201356018e+00 2.7829065872e+00 4.8201356018e+00 
140900 5.3838798023e+00 -2.2287427383e-04 2.7829106063e+00 -4.8201425630e+00 2.7829106063e+00 4.8201425630e+00 
141000 5.3838798001e+00 -2.2205993620e-04 2.7829146106e+00 -4.8201494987e+00 2.7829146106e+00 4.8201494987e+00 
141100 5.3838797980e+00 -2.2124859951e-04 2.7829186003e+00 -4.8201564090e+00 2.7829186003e+00 4.8201564090e+00 
141200 5.3838797958e+00 -2.2044025252e-04 2.7829225754e+00 -4.8201632942e+00 2.7829225754e+00 4.8201632942e+00 
141300 5.3838797937e+00 -2.1963488401e-04 2.7829265360e+00 -4.8201701541e+00 2.7829265360e+00 4.8201701541e+00 
141400 5.3838797915e+00 -2.1883248280e-04 2.7829304821e+00 -4.8201769890e+00 2.7829304821e+00 4.8201769890e+00 
141500 5.3838797894e+00 -2.1803303776e-04 2.7829344138e+00 -4.8201837989e+00 2.7829344138e+00 4.8201837989e+00 
141600 5.3838797873e+00 -2.1723653782e-04 2.7829383311e+00 -4.8201905839e+00 2.7829383311e+00 4.8201905839e+00 
141700 5.3838797852e+00 -2.1644297192e-04 2.7829422341e+00 -4.8201973441e+00 2.7829422341e+00 4.8201973441e+00 
141800 5.3838797832e+00 -2.1565232908e-04 2.7829461229e+00 -4.8202040796e+00 2.7829461229e+00 4.8202040796e+00 
141900 5.3838797811e+00 -2.1486459832e-04 2.7829499974e+00 -4.8202107905e+00 2.7829499974e+00 4.8202107905e+00 
142000 5.3838797791e+00 -2.1407976875e-04 2.7829538578e+00 -4.8202174768e+00 2.7829538578e+00 4.8202174768e+00 
142100 5.3838797771e+00 -2.1329782948e-04 2.7829577041e+00 -4.8202241388e+00 2.7829577041e+00 4.8202241388e+00 
142200 5.3838797751e+00 -2.1251876969e-04 2.7829615363e+00 -4.8202307764e+00 2.7829615363e+00 4.8202307764e+00 
142300 5.3838797731e+00 -2.1174257859e-04 2.7829653545e+00 -4.8202373897e+00 2.7829653545e+00 4.8202373897e+00 
142400 5.3838797711e+00 -2.1096924543e-04 2.7829691588e+00 -4.8202439789e+00 2.7829691588e+00 4.8202439789e+00 
142500 5.3838797691e+00 -2.1019875951e-04 2.7829729491e+00 -4.8202505440e+00 2.7829729491e+00 4.8202505440e+00 
142600 5.3838797672e+00 -2.0943111018e-04 2.7829767256e+00 -4.8202570851e+00 2.7829767256e+00 4.8202570851e+00 
142700 5.3838797653e+00 -2.0866628680e-04 2.7829804884e+00 -4.8202636023e+00 2.7829804884e+00 4.8202636023e+00 
142800 5.3838797633e+00 -2.0790427880e-04 2.7829842373e+00 -4.8202700957e+00 2.7829842373e+00 4.8202700957e+00 
142900 5.3838797614e+00 -2.0714507564e-04 2.7829879726e+00 -4.8202765654e+00 2.7829879726e+00 4.8202765654e+00 
143000 5.3838797595e+00 -2.0638866682e-04 2.7829916942e+00 -4.8202830115e+00 2.7829916942e+00 4.8202830115e+00 
143100 5.3838797577e+00 -2.0563504188e-04 2.7829954023e+00 -4.8202894340e+00 2.7829954023e+00 4.8202894340e+00 
143200 5.3838797558e+00 -2.0488419042e-04 2.7829990968e+00 -4.8202958330e+00 2.7829990968e+00 4.8202958330e+00 
143300 5.3838797539e+00 -2.0413610204e-04 2.7830027778e+00 -4.8203022087e+00 2.7830027778e+00 4.8203022087e+00 
143400 5.3838797521e+00 -2.0339076642e-04 2.7830064453e+00 -4.8203085611e+00 2.7830064453e+00 4.8203085611e+00 
143500 5.3838797503e+00 -2.0264817326e-04 2.7830100995e+00 -4.8203148903e+00 2.7830100995e+00 4.8203148903e+00 
143600 5.3838797485e+00 -2.0190831231e-04 2.7830137403e+00 -4.8203211963e+00 2.7830137403e+00 4.8203211963e+00 
143700 5.3838797467e+00 -2.0117117333e-04 2.7830173678e+00 -4.8203274794e+00 2.7830173678e+00 4.8203274794e+00 
143800 5.3838797449e+00 -2.0043674617e-04 2.7830209821e+00 -4.8203337395e+00 2.7830209821e+00 4.8203337395e+00 
143900 5.3838797431e+00 -1.9970502068e-04 2.7830245831e+00 -4.8203399767e+00 2.7830245831e+00 4.8203399767e+00 
144000 5.3838797414e+00 -1.9897598676e-04 2.7830281710e+00 -4.8203461911e+00 2.7830281710e+00 4.8203461911e+00 
144100 5.3838797396e+00 -1.9824963436e-04 2.7830317459e+00 -4.8203523829e+00 2.7830317459e+00 4.8203523829e+00 
144200 5.3838797379e+00 -1.9752595344e-04 2.7830353076e+00 -4.8203585520e+00 2.7830353076e+00 4.8203585520e+00 
144300 5.3838797361e+00 -1.9680493404e-04 2.7830388564e+00 -4.8203646987e+00 2.7830388564e+00 4.8203646987e+00 
144400 5.3838797344e+00 -1.9608656620e-04 2.7830423922e+00 -4.8203708228e+00 2.7830423922e+00 4.8203708228e+00 
144500 5.3838797327e+00 -1.9537084002e-04 2.7830459150e+00 -4.8203769246e+00 2.7830459150e+00 4.8203769246e+00 
144600 5.3838797311e+00 -1.9465774564e-04 2.7830494251e+00 -4.8203830042e+00 2.7830494251e+00 4.8203830042e+00 
144700 5.3838797294e+00 -1.9394727323e-04 2.7830529223e+00 -4.8203890615e+00 2.7830529223e+00 4.8203890615e+00 
144800 5.3838797277e+00 -1.9323941298e-04 2.7830564067e+00 -4.8203950967e+00 2.7830564067e+00 4.8203950967e+00 
144900 5.3838797261e+00 -1.9253415516e-04 2.7830598784e+00 -4.8204011099e+00 2.7830598784e+00 4.8204011099e+00 
145000 5.3838797244e+00 -1.9183149005e-04 2.7830633374e+00 -4.8204071011e+00 2.7830633374e+00 4.8204071011e+00 
145100 5.3838797228e+00 -1.9113140796e-04 2.7830667839e+00 -4.8204130705e+00 2.7830667839e+00 4.8204130705e+00 
145200 5.3838797212e+00 -1.9043389926e-04 2.7830702177e+00 -4.8204190181e+00 2.7830702177e+00 4.8204190181e+00 
145300 5.3838797196e+00 -1.8973895434e-04 2.7830736390e+00 -4.8204249439e+00 2.7830736390e+00 4.8204249439e+00 
145400 5.3838797180e+00 -1.8904656364e-04 2.7830770478e+00 -4.8204308481e+00 2.7830770478e+00 4.8204308481e+00 
145500 5.3838797164e+00 -1.8835671762e-04 2.7830804441e+00 -4.8204367308e+00 2.7830804441e+00 4.8204367308e+00 
145600 5.3838797149e+00 -1.8766940680e-04 2.7830838281e+00 -4.8204425920e+00 2.7830838281e+00 4.8204425920e+00 
145700 5.3838797133e+00 -1.8698462171e-04 2.7830871997e+00 -4.8204484318e+00 2.7830871997e+00 4.8204484318e+00 
145800 5.3838797118e+00 -1.8630235294e-04 2.7830905590e+00 -4.8204542503e+00 2.7830905590e+00 4.8204542503e+00 
145900 5.3838797102e+00 -1.8562259109e-04 2.7830939060e+00 -4.8204600475e+00 2.7830939060e+00 4.8204600475e+00 
146000 5.3838797087e+00 -1.8494532684e-04 2.7830972409e+00 -4.8204658236e+00 2.7830972409e+00 4.8204658236e+00 
146100 5.3838797072e+00 -1.8427055085e-04 2.7831005635e+00 -4.8204715786e+00 2.7831005635e+00 4.8204715786e+00 
146200 5.3838797057e+00 -1.8359825386e-04 2.7831038741e+00 -4.8204773126e+00 2.7831038741e+00 4.8204773126e+00 
146300 5.3838797042e+00 -1.8292842662e-04 2.7831071725e+00 -4.8204830257e+00 2.7831071725e+00 4.8204830257e+00 
146400 5.3838797027e+00 -1.8226105993e-04 2.7831104589e+00 -4.8204887179e+00 2.7831104589e+00 4.8204887179e+00 
146500 5.3838797013e+00 -1.8159614463e-04 2.7831137333e+00 -4.8204943894e+00 2.7831137333e+00 4.8204943894e+00 
146600 5.3838796998e+00 -1.8093367156e-04 2.7831169958e+00 -4.8205000401e+00 2.7831169958e+00 4.8205000401e+00 
146700 5.3838796984e+00 -1.8027363164e-04 2.7831202463e+00 -4.8205056702e+00 2.7831202463e+00 4.8205056702e+00 
146800 5.3838796969e+00 -1.7961601580e-04 2.7831234850e+00 -4.8205112798e+00 2.7831234850e+00 4.8205112798e+00 
146900 5.3838796955e+00 -1.7896081502e-04 2.7831267119e+00 -4.8205168689e+00 2.7831267119e+00 4.8205168689e+00 
147000 5.3838796941e+00 -1.7830802029e-04 2.7831299270e+00 -4.8205224377e+00 2.7831299270e+00 4.8205224377e+00 
147100 5.3838796927e+00 -1.7765762265e-04 2.7831331304e+00 -4.8205279861e+00 2.7831331304e+00 4.8205279861e+00 
147200 5.3838796913e+00 -1.7700961318e-04 2.7831363221e+00 -4.8205335142e+00 2.7831363221e+00 4.8205335142e+00 
147300 5.3838796899e+00 -1.7636398299e-04 2.7831395021e+00 -4.8205390222e+00 2.7831395021e+00 4.8205390222e+00 
147400 5.3838796885e+00 -1.7572072321e-04 2.7831426706e+00 -4.8205445101e+00 2.7831426706e+00 4.8205445101e+00 
147500 5.3838796872e+00 -1.7507982503e-04 2.7831458274e+00 -4.8205499780e+00 2.7831458274e+00 4.8205499780e+00 
147600 5.3838796858e+00 -1.7444127966e-04 2.7831489728e+00 -4.8205554259e+00 2.7831489728e+00 4.8205554259e+00 
147700 5.3838796845e+00 -1.7380507833e-04 2.7831521067e+00 -4.8205608540e+00 2.7831521067e+00 4.8205608540e+00 
147800 5.3838796831e+00 -1.7317121232e-04 2.7831552291e+00 -4.8205662622e+00 2.7831552291e+00 4.8205662622e+00 
147900 5.3838796818e+00 -1.7253967295e-04 2.7831583402e+00 -4.8205716507e+00 2.7831583402e+00 4.8205716507e+00 
148000 5.3838796805e+00 -1.7191045156e-04 2.7831614399e+00 -4.8205770196e+00 2.7831614399e+00 4.8205770196e+00 
148100 5.3838796792e+00 -1.7128353952e-04 2.7831645283e+00 -4.8205823688e+00 2.7831645283e+00 4.8205823688e+00 
148200 5.3838796779e+00 -1.7065892825e-04 2.7831676054e+00 -4.8205876986e+00 2.7831676054e+00 4.8205876986e+00 
148300 5.3838796766e+00 -1.7003660918e-04 2.7831706713e+00 -4.8205930089e+00 2.7831706713e+00 4.8205930089e+00 
148400 5.3838796753e+00 -1.6941657380e-04 2.7831737261e+00 -4.8205982999e+00 2.7831737261e+00 4.8205982999e+00 
148500 5.3838796740e+00 -1.6879881360e-04 2.7831767697e+00 -4.8206035715e+00 2.7831767697e+00 4.8206035715e+00 
148600 5.3838796728e+00 -1.6818332014e-04 2.7831798022e+00 -4.8206088239e+00 2.7831798022e+00 4.8206088239e+00 
148700 5.3838796715e+00 -1.6757008498e-04 2.7831828236e+00 -4.8206140572e+00 2.7831828236e+00 4.8206140572e+00 
148800 5.3838796703e+00 -1.6695909972e-04 2.7831858340e+00 -4.8206192714e+00 2.7831858340e+00 4.8206192714e+00 
148900 5.3838796691e+00 -1.6635035601e-04 2.7831888334e+00 -4.8206244665e+00 2.7831888334e+00 4.8206244665e+00 
149000 5.3838796678e+00 -1.6574384552e-04 2.7831918219e+00 -4.8206296427e+00 2.7831918219e+00 4.8206296427e+00 
149100 5.3838796666e+00 -1.6513955994e-04 2.7831947995e+00 -4.8206348001e+00 2.7831947995e+00 4.8206348001e+00 
149200 5.3838796654e+00 -1.6453749100e-04 2.7831977662e+00 -4.8206399386e+00 2.7831977662e+00 4.8206399386e+00 
149300 5.3838796642e+00 -1.6393763048e-04 2.7832007221e+00 -4.8206450584e+00 2.7832007221e+00 4.8206450584e+00 
149400 5.3838796630e+00 -1.6333997016e-04 2.7832036672e+00 -4.8206501595e+00 2.7832036672e+00 4.8206501595e+00 
149500 5.3838796618e+00 -1.6274450187e-04 2.7832066016e+00 -4.8206552420e+00 2.7832066016e+00 4.8206552420e+00 
149600 5.3838796607e+00 -1.6215121747e-04 2.7832095253e+00 -4.8206603060e+00 2.7832095253e+00 4.8206603060e+00 
149700 5.3838796595e+00 -1.6156010885e-04 2.7832124383e+00 -4.8206653515e+00 2.7832124383e+00 4.8206653515e+00 
149800 5.3838796583e+00 -1.6097116794e-04 2.7832153407e+00 -4.8206703786e+00 2.7832153407e+00 4.8206703786e+00 
149900 5.3838796572e+00 -1.6038438666e-04 2.7832182326e+00 -4.8206753874e+00 2.7832182326e+00 4.8206753874e+00 
150000 5.3838796561e+00 -1.5979975703e-04 2.7832211138e+00 -4.8206803779e+00 2.7832211138e+00 4.8206803779e+00 
150100 5.3838796549e+00 -1.5921727103e-04 2.7832239846e+00 -4.8206853502e+00 2.7832239846e+00 4.8206853502e+00 
150200 5.3838796538e+00 -1.5863692071e-04 2.7832268449e+00 -4.8206903044e+00 2.7832268449e+00 4.8206903044e+00 
150300 5.3838796527e+00 -1.5805869816e-04 2.7832296948e+00 -4.8206952405e+00 2.7832296948e+00 4.8206952405e+00 
150400 5.3838796516e+00 -1.5748259546e-04 2.7832325343e+00 -4.8207001586e+00 2.7832325343e+00 4.8207001586e+00 
150500 5.3838796505e+00 -1.5690860476e-04 2.7832353634e+00 -4.8207050588e+00 2.7832353634e+00 4.8207050588e+00 
150600 5.3838796494e+00 -1.5633671821e-04 2.7832381822e+00 -4.8207099412e+00 2.7832381822e+00 4.8207099412e+00 
150700 5.3838796483e+00 -1.5576692801e-04 2.7832409908e+00 -4.8207148057e+00 2.7832409908e+00 4.8207148057e+00 
150800 5.3838796472e+00 -1.5519922638e-04 2.7832437891e+00 -4.8207196525e+00 2.7832437891e+00 4.8207196525e+00 
150900 5.3838796462e+00 -1.5463360557e-04 2.7832465772e+00 -4.8207244816e+00 2.7832465772e+00 4.8207244816e+00 
151000 5.3838796451e+00 -1.5407005786e-04 2.7832493551e+00 -4.8207292932e+00 2.7832493551e+00 4.8207292932e+00 
151100 5.3838796441e+00 -1.5350857558e-04 2.7832521229e+00 -4.8207340872e+00 2.7832521229e+00 4.8207340872e+00 
151200 5.3838796430e+00 -1.5294915104e-04 2.7832548806e+00 -4.8207388637e+00 2.7832548806e+00 4.8207388637e+00 
151300 5.3838796420e+00 -1.5239177662e-04 2.7832576283e+00 -4.8207436228e+00 2.7832576283e+00 4.8207436228e+00 
151400 5.3838796410e+00 -1.5183644473e-04 2.7832603660e+00 -4.8207483645e+00 2.7832603660e+00 4.8207483645e+00 
151500 5.3838796399e+00 -1.5128314779e-04 2.7832630936e+00 -4.8207530890e+00 2.7832630936e+00 4.8207530890e+00 
151600 5.3838796389e+00 -1.5073187824e-04 2.7832658114e+00 -4.8207577962e+00 2.7832658114e+00 4.8207577962e+00 
151700 5.3838796379e+00 -1.5018262859e-04 2.7832685192e+00 -4.8207624863e+00 2.7832685192e+00 4.8207624863e+00 
151800 5.3838796369e+00 -1.4963539134e-04 2.7832712171e+00 -4.8207671593e+00 2.7832712171e+00 4.8207671593e+00 
151900 5.3838796359e+00 -1.4909015903e-04 2.7832739053e+00 -4.8207718153e+00 2.7832739053e+00 4.8207718153e+00 
152000 5.3838796349e+00 -1.4854692423e-04 2.7832765836e+00 -4.8207764543e+00 2.7832765836e+00 4.8207764543e+00 
152100 5.3838796340e+00 -1.4800567955e-04 2.7832792521e+00 -4.8207810764e+00 2.7832792521e+00 4.8207810764e+00 
152200 5.3838796330e+00 -1.4746641759e-04 2.7832819110e+00 -4.8207856816e+00 2.7832819110e+00 4.8207856816e+00 
152300 5.3838796320e+00 -1.4692913103e-04 2.7832845601e+00 -4.8207902701e+00 2.7832845601e+00 4.8207902701e+00 
152400 5.3838796311e+00 -1.4639381254e-04 2.7832871996e+00 -4.8207948418e+00 2.7832871996e+00 4.8207948418e+00 
152500 5.3838796301e+00 -1.4586045483e-04 2.7832898295e+00 -4.8207993969e+00 2.7832898295e+00 4.8207993969e+00 
152600 5.3838796292e+00 -1.4532905064e-04 2.7832924498e+00 -4.8208039353e+00 2.7832924498e+00 4.8208039353e+00 
152700 5.3838796282e+00 -1.4479959273e-04 2.7832950605e+00 -4.8208084573e+00 2.7832950605e+00 4.8208084573e+00 
152800 5.3838796273e+00 -1.4427207390e-04 2.7832976617e+00 -4.8208129627e+00 2.7832976617e+00 4.8208129627e+00 
152900 5.3838796264e+00 -1.4374648696e-04 2.7833002535e+00 -4.8208174518e+00 2.7833002535e+00 4.8208174518e+00 
153000 5.3838796255e+00 -1.4322282476e-04 2.7833028358e+00 -4.8208219244e+00 2.7833028358e+00 4.8208219244e+00 
153100 5.3838796246e+00 -1.4270108017e-04 2.7833054087e+00 -4.8208263808e+00 2.7833054087e+00 4.8208263808e+00 
153200 5.3838796237e+00 -1.4218124611e-04 2.7833079722e+00 -4.8208308210e+00 2.7833079722e+00 4.8208308210e+00 
153300 5.3838796228e+00 -1.4166331548e-04 2.7833105264e+00 -4.8208352449e+00 2.7833105264e+00 4.8208352449e+00 
153400 5.3838796219e+00 -1.4114728125e-04 2.7833130713e+00 -4.8208396528e+00 2.7833130713e+00 4.8208396528e+00 
153500 5.3838796210e+00 -1.4063313641e-04 2.7833156069e+00 -4.8208440446e+00 2.7833156069e+00 4.8208440446e+00 
153600 5.3838796201e+00 -1.4012087394e-04 2.7833181332e+00 -4.8208484204e+00 2.7833181332e+00 4.8208484204e+00 
153700 5.3838796193e+00 -1.3961048690e-04 2.7833206504e+00 -4.8208527802e+00 2.7833206504e+00 4.8208527802e+00 
153800 5.3838796184e+00 -1.3910196835e-04 2.7833231584e+00 -4.8208571242e+00 2.7833231584e+00 4.8208571242e+00 
153900 5.3838796175e+00 -1.3859531135e-04 2.7833256572e+00 -4.8208614523e+00 2.7833256572e+00 4.8208614523e+00 
154000 5.3838796167e+00 -1.3809050904e-04 2.7833281469e+00 -4.8208657646e+00 2.7833281469e+00 4.8208657646e+00 
154100 5.3838796158e+00 -1.3758755455e-04 2.7833306276e+00 -4.8208700613e+00 2.7833306276e+00 4.8208700613e+00 
154200 5.3838796150e+00 -1.3708644104e-04 2.7833330993e+00 -4.8208743423e+00 2.7833330993e+00 4.8208743423e+00 
154300 5.3838796142e+00 -1.3658716171e-04 2.7833355619e+00 -4.8208786077e+00 2.7833355619e+00 4.8208786077e+00 
154400 5.3838796133e+00 -1.3608970977e-04 2.7833380155e+00 -4.8208828576e+00 2.7833380155e+00 4.8208828576e+00 
154500 5.3838796125e+00 -1.3559407847e-04 2.7833404603e+00 -4.8208870919e+00 2.7833404603e+00 4.8208870919e+00 
154600 5.3838796117e+00 -1.3510026106e-04 2.7833428961e+00 -4.8208913109e+00 2.7833428961e+00 4.8208913109e+00 
154700 5.3838796109e+00 -1.3460825085e-04 2.7833453230e+00 -4.8208955145e+00 2.7833453230e+00 4.8208955145e+00 
154800 5.3838796101e+00 -1.3411804115e-04 2.7833477411e+00 -4.8208997028e+00 2.7833477411e+00 4.8208997028e+00 
154900 5.3838796093e+00 -1.3362962531e-04 2.7833501504e+00 -4.8209038758e+00 2.7833501504e+00 4.8209038758e+00 
155000 5.3838796085e+00 -1.3314299670e-04 2.7833525509e+00 -4.8209080336e+00 2.7833525509e+00 4.8209080336e+00 
155100 5.3838796077e+00 -1.3265814870e-04 2.7833549427e+00 -4.8209121763e+00 2.7833549427e+00 4.8209121763e+00 
155200 5.3838796069e+00 -1.3217507474e-04 2.7833573258e+00 -4.8209163039e+00 2.7833573258e+00 4.8209163039e+00 
155300 5.3838796062e+00 -1.3169376826e-04 2.7833597002e+00 -4.8209204164e+00 2.7833597002e+00 4.8209204164e+00 
155400 5.3838796054e+00 -1.3121422274e-04 2.7833620659e+00 -4.8209245140e+00 2.7833620659e+00 4.8209245140e+00 
155500 5.3838796046e+00 -1.3073643165e-04 2.7833644230e+00 -4.8209285966e+00 2.7833644230e+00 4.8209285966e+00 
155600 5.3838796039e+00 -1.3026038853e-04 2.7833667715e+00 -4.8209326644e+00 2.7833667715e+00 4.8209326644e+00 
155700 5.3838796031e+00 -1.2978608691e-04 2.7833691115e+00 -4.8209367174e+00 2.7833691115e+00 4.8209367174e+00 
155800 5.3838796024e+00 -1.2931352035e-04 2.7833714430e+00 -4.8209407556e+00 2.7833714430e+00 4.8209407556e+00 
155900 5.3838796016e+00 -1.2884268246e-04 2.7833737659e+00 -4.8209447791e+00 2.7833737659e+00 4.8209447791e+00 
156000 5.3838796009e+00 -1.2837356684e-04 2.7833760805e+00 -4.8209487879e+00 2.7833760805e+00 4.8209487879e+00 
156100 5.3838796002e+00 -1.2790616713e-04 2.7833783865e+00 -4.8209527822e+00 2.7833783865e+00 4.8209527822e+00 
156200 5.3838795994e+00 -1.2744047700e-04 2.7833806842e+00 -4.8209567619e+00 2.7833806842e+00 4.8209567619e+00 
156300 5.3838795987e+00 -1.2697649013e-04 2.7833829735e+00 -4.8209607271e+00 2.7833829735e+00 4.8209607271e+00 
156400 5.3838795980e+00 -1.2651420023e-04 2.7833852545e+00 -4.8209646778e+00 2.7833852545e+00 4.8209646778e+00 
156500 5.3838795973e+00 -1.2605360104e-04 2.7833875272e+00 -4.8209686142e+00 2.7833875272e+00 4.8209686142e+00 
156600 5.3838795966e+00 -1.2559468631e-04 2.7833897916e+00 -4.8209725362e+00 2.7833897916e+00 4.8209725362e+00 
156700 5.3838795959e+00 -1.2513744983e-04 2.7833920477e+00 -4.8209764440e+00 2.7833920477e+00 4.8209764440e+00 
156800 5.3838795952e+00 -1.2468188540e-04 2.7833942956e+00 -4.8209803375e+00 2.7833942956e+00 4.8209803375e+00 
156900 5.3838795945e+00 -1.2422798685e-04 2.7833965354e+00 -4.8209842169e+00 2.7833965354e+00 4.8209842169e+00 
157000 5.3838795938e+00 -1.2377574802e-04 2.7833987670e+00 -4.8209880821e+00 2.7833987670e+00 4.8209880821e+00 
157100 5.3838795931e+00 -1.2332516281e-04 2.7834009904e+00 -4.8209919333e+00 2.7834009904e+00 4.8209919333e+00 
157200 5.3838795925e+00 -1.2287622509e-04 2.7834032058e+00 -4.8209957704e+00 2.7834032058e+00 4.8209957704e+00 
157300 5.3838795918e+00 -1.2242892879e-04 2.7834054131e+00 -4.8209995936e+00 2.7834054131e+00 4.8209995936e+00 
157400 5.3838795911e+00 -1.2198326786e-04 2.7834076124e+00 -4.8210034028e+00 2.7834076124e+00 4.8210034028e+00 
157500 5.3838795905e+00 -1.2153923626e-04 2.7834098036e+00 -4.8210071982e+00 2.7834098036e+00 4.8210071982e+00 
157600 5.3838795898e+00 -1.2109682798e-04 2.7834119869e+00 -4.8210109797e+00 2.7834119869e+00 4.8210109797e+00 
157700 5.3838795892e+00 -1.2065603703e-04 2.7834141622e+00 -4.8210147475e+00 2.7834141622e+00 4.8210147475e+00 
157800 5.3838795885e+00 -1.2021685744e-04 2.7834163296e+00 -4.8210185016e+00 2.7834163296e+00 4.8210185016e+00 
157900 5.3838795879e+00 -1.1977928328e-04 2.7834184892e+00 -4.8210222420e+00 2.7834184892e+00 4.8210222420e+00 
158000 5.3838795872e+00 -1.1934330862e-04 2.7834206408e+00 -4.8210259687e+00 2.7834206408e+00 4.8210259687e+00 
158100 5.3838795866e+00 -1.1890892755e-04 2.7834227847e+00 -4.8210296820e+00 2.7834227847e+00 4.8210296820e+00 
158200 5.3838795860e+00 -1.1847613421e-04 2.7834249207e+00 -4.8210333817e+00 2.7834249207e+00 4.8210333817e+00 
158300 5.3838795853e+00 -1.1804492274e-04 2.7834270489e+00 -4.8210370679e+00 2.7834270489e+00 4.8210370679e+00 
158400 5.3838795847e+00 -1.1761528730e-04 2.7834291694e+00 -4.8210407407e+00 2.7834291694e+00 4.8210407407e+00 
158500 5.3838795841e+00 -1.1718722209e-04 2.7834312822e+00 -4.8210444001e+00 2.7834312822e+00 4.8210444001e+00 
158600 5.3838795835e+00 -1.1676072132e-04 2.7834333873e+00 -4.8210480462e+00 2.7834333873e+00 4.8210480462e+00 
158700 5.3838795829e+00 -1.1633577921e-04 2.7834354847e+00 -4.8210516791e+00 2.7834354847e+00 4.8210516791e+00 
158800 5.3838795823e+00 -1.1591239002e-04 2.7834375745e+00 -4.8210552987e+00 2.7834375745e+00 4.8210552987e+00 
158900 5.3838795817e+00 -1.1549054803e-04 2.7834396567e+00 -4.8210589051e+00 2.7834396567e+00 4.8210589051e+00 
159000 5.3838795811e+00 -1.1507024754e-04 2.7834417313e+00 -4.8210624985e+00 2.7834417313e+00 4.8210624985e+00 
159100 5.3838795805e+00 -1.1465148286e-04 2.7834437983e+00 -4.8210660787e+00 2.7834437983e+00 4.8210660787e+00 
159200 5.3838795799e+00 -1.1423424834e-04 2.7834458578e+00 -4.8210696459e+00 2.7834458578e+00 4.8210696459e+00 
159300 5.3838795794e+00 -1.1381853832e-04 2.7834479099e+00 -4.8210732001e+00 2.7834479099e+00 4.8210732001e+00 
159400 5.3838795788e+00 -1.1340434721e-04 2.7834499544e+00 -4.8210767414e+00 2.7834499544e+00 4.8210767414e+00 
159500 5.3838795782e+00 -1.1299166940e-04 2.7834519916e+00 -4.8210802698e+00 2.7834519916e+00 4.8210802698e+00 
159600 5.3838795776e+00 -1.1258049931e-04 2.7834540213e+00 -4.8210837853e+00 2.7834540213e+00 4.8210837853e+00 
159700 5.3838795771e+00 -1.1217083139e-04 2.7834560436e+00 -4.8210872881e+00 2.7834560436e+00 4.8210872881e+00 
159800 5.3838795765e+00 -1.1176266011e-04 2.7834580585e+00 -4.8210907781e+00 2.7834580585e+00 4.8210907781e+00 
159900 5.3838795760e+00 -1.1135597996e-04 2.7834600662e+00 -4.8210942554e+00 2.7834600662e+00 4.8210942554e+00 
160000 5.3838795754e+00 -1.1095078543e-04 2.7834620665e+00 -4.8210977201e+00 2.7834620665e+00 4.8210977201e+00 
160100 5.3838795749e+00 -1.1054707107e-04 2.7834640595e+00 -4.8211011721e+00 2.7834640595e+00 4.8211011721e+00 
160200 5.3838795743e+00 -1.1014483141e-04 2.7834660453e+00 -4.8211046116e+00 2.7834660453e+00 4.8211046116e+00 
160300 5.3838795738e+00 -1.0974406102e-04 2.7834680238e+00 -4.8211080385e+00 2.7834680238e+00 4.8211080385e+00 
160400 5.3838795733e+00 -1.0934475451e-04 2.7834699952e+00 -4.8211114530e+00 2.7834699952e+00 4.8211114530e+00 
160500 5.3838795727e+00 -1.0894690647e-04 2.7834719594e+00 -4.8211148551e+00 2.7834719594e+00 4.8211148551e+00 
160600 5.3838795722e+00 -1.0855051153e-04 2.7834739164e+00 -4.8211182448e+00 2.7834739164e+00 4.8211182448e+00 
160700 5.3838795717e+00 -1.0815556435e-04 2.7834758663e+00 -4.8211216221e+00 2.7834758663e+00 4.8211216221e+00 
160800 5.3838795712e+00 -1.0776205960e-04 2.7834778091e+00 -4.8211249872e+00 2.7834778091e+00 4.8211249872e+00 
160900 5.3838795706e+00 -1.0736999196e-04 2.7834797449e+00 -4.8211283400e+00 2.7834797449e+00 4.8211283400e+00 
161000 5.3838795701e+00 -1.0697935615e-04 2.7834816736e+00 -4.8211316806e+00 2.7834816736e+00 4.8211316806e+00 
161100 5.3838795696e+00 -1.0659014689e-04 2.7834835953e+00 -4.8211350090e+00 2.7834835953e+00 4.8211350090e+00 
161200 5.3838795691e+00 -1.0620235894e-04 2.7834855100e+00 -4.8211383254e+00 2.7834855100e+00 4.8211383254e+00 
161300 5.3838795686e+00 -1.0581598706e-04 2.7834874177e+00 -4.8211416296e+00 2.7834874177e+00 4.8211416296e+00 
161400 5.3838795681e+00 -1.0543102604e-04 2.7834893185e+00 -4.8211449219e+00 2.7834893185e+00 4.8211449219e+00 
161500 5.3838795676e+00 -1.0504747069e-04 2.7834912123e+00 -4.8211482022e+00 2.7834912123e+00 4.8211482022e+00 
161600 5.3838795671e+00 -1.0466531584e-04 2.7834930993e+00 -4.8211514705e+00 2.7834930993e+00 4.8211514705e+00 
161700 5.3838795666e+00 -1.0428455633e-04 2.7834949794e+00 -4.8211547269e+00 2.7834949794e+00 4.8211547269e+00 
161800 5.3838795662e+00 -1.0390518703e-04 2.7834968527e+00 -4.8211579715e+00 2.7834968527e+00 4.8211579715e+00 
161900 5.3838795657e+00 -1.0352720283e-04 2.7834987191e+00 -4.8211612043e+00 2.7834987191e+00 4.8211612043e+00 
162000 5.3838795652e+00 -1.0315059863e-04 2.7835005788e+00 -4.8211644253e+00 2.7835005788e+00 4.8211644253e+00 
162100 5.3838795647e+00 -1.0277536935e-04 2.7835024317e+00 -4.8211676347e+00 2.7835024317e+00 4.8211676347e+00 
162200 5.3838795643e+00 -1.0240150993e-04 2.7835042778e+00 -4.8211708323e+00 2.7835042778e+00 4.8211708323e+00 
162300 5.3838795638e+00 -1.0202901535e-04 2.7835061173e+00 -4.8211740183e+00 2.7835061173e+00 4.8211740183e+00 
162400 5.3838795633e+00 -1.0165788057e-04 2.7835079500e+00 -4.8211771927e+00 2.7835079500e+00 4.8211771927e+00 
162500 5.3838795629e+00 -1.0128810059e-04 2.7835097761e+00 -4.8211803555e+00 2.7835097761e+00 4.8211803555e+00 
162600 5.3838795624e+00 -1.0091967044e-04 2.7835115955e+00 -4.8211835069e+00 2.7835115955e+00 4.8211835069e+00 
162700 5.3838795620e+00 -1.0055258515e-04 2.7835134083e+00 -4.8211866468e+00 2.7835134083e+00 4.8211866468e+00 
162800 5.3838795615e+00 -1.0018683977e-04 2.7835152145e+00 -4.8211897752e+00 2.7835152145e+00 4.8211897752e+00 
162900 5.3838795611e+00 -9.9822429376e-05 2.7835170142e+00 -4.8211928923e+00 2.7835170142e+00 4.8211928923e+00 
163000 5.3838795606e+00 -9.9459349064e-05 2.7835188073e+00 -4.8211959980e+00 2.7835188073e+00 4.8211959980e+00 
163100 5.3838795602e+00 -9.9097593940e-05 2.7835205939e+00 -4.8211990925e+00 2.7835205939e+00 4.8211990925e+00 
163200 5.3838795597e+00 -9.8737159133e-05 2.7835223739e+00 -4.8212021757e+00 2.7835223739e+00 4.8212021757e+00 
163300 5.3838795593e+00 -9.8378039790e-05 2.7835241475e+00 -4.8212052476e+00 2.7835241475e+00 4.8212052476e+00 
163400 5.3838795589e+00 -9.8020231074e-05 2.7835259147e+00 -4.8212083084e+00 2.7835259147e+00 4.8212083084e+00 
163500 5.3838795585e+00 -9.7663728167e-05 2.7835276754e+00 -4.8212113581e+00 2.7835276754e+00 4.8212113581e+00 
163600 5.3838795580e+00 -9.7308526273e-05 2.7835294297e+00 -4.8212143967e+00 2.7835294297e+00 4.8212143967e+00 
163700 5.3838795576e+00 -9.6954620606e-05 2.7835311777e+00 -4.8212174242e+00 2.7835311777e+00 4.8212174242e+00 
163800 5.3838795572e+00 -9.6602006405e-05 2.7835329192e+00 -4.8212204407e+00 2.7835329192e+00 4.8212204407e+00 
163900 5.3838795568e+00 -9.6250678922e-05 2.7835346545e+00 -4.8212234462e+00 2.7835346545e+00 4.8212234462e+00 
164000 5.3838795564e+00 -9.5900633431e-05 2.7835363834e+00 -4.8212264408e+00 2.7835363834e+00 4.8212264408e+00 
164100 5.3838795560e+00 -9.5551865219e-05 2.7835381060e+00 -4.8212294245e+00 2.7835381060e+00 4.8212294245e+00 
164200 5.3838795555e+00 -9.5204369594e-05 2.7835398224e+00 -4.8212323973e+00 2.7835398224e+00 4.8212323973e+00 
164300 5.3838795551e+00 -9.4858141880e-05 2.7835415326e+00 -4.8212353594e+00 2.7835415326e+00 4.8212353594e+00 
164400 5.3838795547e+00 -9.4513177419e-05 2.7835432365e+00 -4.8212383106e+00 2.7835432365e+00 4.8212383106e+00 
164500 5.3838795543e+00 -9.4169471570e-05 2.7835449342e+00 -4.8212412511e+00 2.7835449342e+00 4.8212412511e+00 
164600 5.3838795540e+00 -9.3827019710e-05 2.7835466257e+00 -4.8212441810e+00 2.7835466257e+00 4.8212441810e+00 
164700 5.3838795536e+00 -9.3485817231e-05 2.7835483111e+00 -4.8212471002e+00 2.7835483111e+00 4.8212471002e+00 
164800 5.3838795532e+00 -9.3145859546e-05 2.7835499904e+00 -4.8212500087e+00 2.7835499904e+00 4.8212500087e+00 
164900 5.3838795528e+00 -9.2807142081e-05 2.7835516635e+00 -4.8212529067e+00 2.7835516635e+00 4.8212529067e+00 
165000 5.3838795524e+00 -9.2469660283e-05 2.7835533306e+00 -4.8212557941e+00 2.7835533306e+00 4.8212557941e+00 
165100 5.3838795520e+00 -9.2133409612e-05 2.7835549916e+00 -4.8212586711e+00 2.7835549916e+00 4.8212586711e+00 
165200 5.3838795516e+00 -9.1798385548e-05 2.7835566465e+00 -4.8212615375e+00 2.7835566465e+00 4.8212615375e+00 
165300 5.3838795513e+00 -9.1464583585e-05 2.7835582955e+00 -4.8212643936e+00 2.7835582955e+00 4.8212643936e+00 
165400 5.3838795509e+00 -9.1131999238e-05 2.7835599384e+00 -4.8212672393e+00 2.7835599384e+00 4.8212672393e+00 
165500 5.3838795505e+00 -9.0800628034e-05 2.7835615754e+00 -4.8212700746e+00 2.7835615754e+00 4.8212700746e+00 
165600 5.3838795502e+00 -9.0470465519e-05 2.7835632064e+00 -4.8212728996e+00 2.7835632064e+00 4.8212728996e+00 
165700 5.3838795498e+00 -9.0141507257e-05 2.7835648315e+00 -4.8212757143e+00 2.7835648315e+00 4.8212757143e+00 
165800 5.3838795494e+00 -8.9813748826e-05 2.7835664507e+00 -4.8212785188e+00 2.7835664507e+00 4.8212785188e+00 
165900 5.3838795491e+00 -8.9487185820e-05 2.7835680639e+00 -4.8212813131e+00 2.7835680639e+00 4.8212813131e+00 
166000 5.3838795487e+00 -8.9161813853e-05 2.7835696714e+00 -4.8212840972e+00 2.7835696714e+00 4.8212840972e+00 
166100 5.3838795484e+00 -8.8837628551e-05 2.7835712729e+00 -4.8212868712e+00 2.7835712729e+00 4.8212868712e+00 
166200 5.3838795480e+00 -8.8514625559e-05 2.7835728687e+00 -4.8212896351e+00 2.7835728687e+00 4.8212896351e+00 
166300 5.3838795477e+00 -8.8192800538e-05 2.7835744586e+00 -4.8212923890e+00 2.7835744586e+00 4.8212923890e+00 
166400 5.3838795473e+00 -8.7872149164e-05 2.7835760428e+00 -4.8212951329e+00 2.7835760428e+00 4.8212951329e+00 
166500 5.3838795470e+00 -8.7552667130e-05 2.7835776212e+00 -4.8212978667e+00 2.7835776212e+00 4.8212978667e+00 
166600 5.3838795466e+00 -8.7234350145e-05 2.7835791939e+00 -4.8213005907e+00 2.7835791939e+00 4.8213005907e+00 
166700 5.3838795463e+00 -8.6917193933e-05 2.7835807608e+00 -4.8213033047e+00 2.7835807608e+00 4.8213033047e+00 
166800 5.3838795460e+00 -8.6601194236e-05 2.7835823221e+00 -4.8213060089e+00 2.7835823221e+00 4.8213060089e+00 
166900 5.3838795456e+00 -8.6286346808e-05 2.7835838776e+00 -4.8213087032e+00 2.7835838776e+00 4.8213087032e+00 
167000 5.3838795453e+00 -8.5972647425e-05 2.7835854275e+00 -4.8213113877e+00 2.7835854275e+00 4.8213113877e+00 
167100 5.3838795450e+00 -8.5660091871e-05 2.7835869718e+00 -4.8213140625e+00 2.7835869718e+00 4.8213140625e+00 
167200 5.3838795446e+00 -8.5348675952e-05 2.7835885105e+00 -4.8213167275e+00 2.7835885105e+00 4.8213167275e+00 
167300 5.3838795443e+00 -8.5038395485e-05 2.7835900436e+00 -4.8213193829e+00 2.7835900436e+00 4.8213193829e+00 
167400 5.3838795440e+00 -8.4729246307e-05 2.7835915711e+00 -4.8213220286e+00 2.7835915711e+00 4.8213220286e+00 
167500 5.3838795437e+00 -8.4421224268e-05 2.7835930930e+00 -4.8213246647e+00 2.7835930930e+00 4.8213246647e+00 
167600 5.3838795434e+00 -8.4114325231e-05 2.7835946094e+00 -4.8213272912e+00 2.7835946094e+00 4.8213272912e+00 
167700 5.3838795430e+00 -8.3808545081e-05 2.7835961203e+00 -4.8213299081e+00 2.7835961203e+00 4.8213299081e+00 
167800 5.3838795427e+00 -8.3503879710e-05 2.7835976257e+00 -4.8213325155e+00 2.7835976257e+00 4.8213325155e+00 
167900 5.3838795424e+00 -8.3200325033e-05 2.7835991256e+00 -4.8213351135e+00 2.7835991256e+00 4.8213351135e+00 
168000 5.3838795421e+00 -8.2897876973e-05 2.7836006201e+00 -4.8213377020e+00 2.7836006201e+00 4.8213377020e+00 
168100 5.3838795418e+00 -8.2596531477e-05 2.7836021091e+00 -4.8213402811e+00 2.7836021091e+00 4.8213402811e+00 
168200 5.3838795415e+00 -8.2296284497e-05 2.7836035928e+00 -4.8213428508e+00 2.7836035928e+00 4.8213428508e+00 
168300 5.3838795412e+00 -8.1997132006e-05 2.7836050710e+00 -4.8213454112e+00 2.7836050710e+00 4.8213454112e+00 
168400 5.3838795409e+00 -8.1699069993e-05 2.7836065439e+00 -4.8213479622e+00 2.7836065439e+00 4.8213479622e+00 
168500 5.3838795406e+00 -8.1402094458e-05 2.7836080114e+00 -4.8213505040e+00 2.7836080114e+00 4.8213505040e+00 
168600 5.3838795403e+00 -8.1106201418e-05 2.7836094735e+00 -4.8213530366e+00 2.7836094735e+00 4.8213530366e+00 
168700 5.3838795400e+00 -8.0811386904e-05 2.7836109304e+00 -4.8213555599e+00 2.7836109304e+00 4.8213555599e+00 
168800 5.3838795397e+00 -8.0517646962e-05 2.7836123819e+00 -4.8213580741e+00 2.7836123819e+00 4.8213580741e+00 
168900 5.3838795394e+00 -8.0224977654e-05 2.7836138282e+00 -4.8213605791e+00 2.7836138282e+00 4.8213605791e+00 
169000 5.3838795392e+00 -7.9933375054e-05 2.7836152692e+00 -4.8213630751e+00 2.7836152692e+00 4.8213630751e+00 
169100 5.3838795389e+00 -7.9642835252e-05 2.7836167050e+00 -4.8213655619e+00 2.7836167050e+00 4.8213655619e+00 
169200 5.3838795386e+00 -7.9353354353e-05 2.7836181356e+00 -4.8213680397e+00 2.7836181356e+00 4.8213680397e+00 
169300 5.3838795383e+00 -7.9064928475e-05 2.7836195610e+00 -4.8213705085e+00 2.7836195610e+00 4.8213705085e+00 
169400 5.3838795380e+00 -7.8777553752e-05 2.7836209811e+00 -4.8213729683e+00 2.7836209811e+00 4.8213729683e+00 
169500 5.3838795378e+00 -7.8491226332e-05 2.7836223962e+00 -4.8213754192e+00 2.7836223962e+00 4.8213754192e+00 
169600 5.3838795375e+00 -7.8205942376e-05 2.7836238060e+00 -4.8213778612e+00 2.7836238060e+00 4.8213778612e+00 
169700 5.3838795372e+00 -7.7921698061e-05 2.7836252108e+00 -4.8213802943e+00 2.7836252108e+00 4.8213802943e+00 
169800 5.3838795369e+00 -7.7638489576e-05 2.7836266104e+00 -4.8213827186e+00 2.7836266104e+00 4.8213827186e+00 
169900 5.3838795367e+00 -7.7356313127e-05 2.7836280050e+00 -4.8213851340e+00 2.7836280050e+00 4.8213851340e+00 
170000 5.3838795364e+00 -7.7075164931e-05 2.7836293945e+00 -4.8213875407e+00 2.7836293945e+00 4.8213875407e+00 
170100 5.3838795361e+00 -7.6795041222e-05 2.7836307789e+00 -4.8213899386e+00 2.7836307789e+00 4.8213899386e+00 
170200 5.3838795359e+00 -7.6515938245e-05 2.7836321583e+00 -4.8213923278e+00 2.7836321583e+00 4.8213923278e+00 
170300 5.3838795356e+00 -7.6237852260e-05 2.7836335327e+00 -4.8213947083e+00 2.7836335327e+00 4.8213947083e+00 
170400 5.3838795354e+00 -7.5960779545e-05 2.7836349021e+00 -4.8213970802e+00 2.7836349021e+00 4.8213970802e+00 
170500 5.3838795351e+00 -7.5684716383e-05 2.7836362665e+00 -4.8213994434e+00 2.7836362665e+00 4.8213994434e+00 
170600 5.3838795348e+00 -7.5409659079e-05 2.7836376260e+00 -4.8214017980e+00 2.7836376260e+00 4.8214017980e+00 
170700 5.3838795346e+00 -7.5135603946e-05 2.7836389805e+00 -4.8214041441e+00 2.7836389805e+00 4.8214041441e+00 
170800 5.3838795343e+00 -7.4862547318e-05 2.7836403301e+00 -4.8214064817e+00 2.7836403301e+00 4.8214064817e+00 
170900 5.3838795341e+00 -7.4590485532e-05 2.7836416748e+00 -4.8214088108e+00 2.7836416748e+00 4.8214088108e+00 
171000 5.3838795338e+00 -7.4319414947e-05 2.7836430146e+00 -4.8214111314e+00 2.7836430146e+00 4.8214111314e+00 
171100 5.3838795336e+00 -7.4049331932e-05 2.7836443495e+00 -4.8214134435e+00 2.7836443495e+00 4.8214134435e+00 
171200 5.3838795334e+00 -7.3780232872e-05 2.7836456796e+00 -4.8214157473e+00 2.7836456796e+00 4.8214157473e+00 
171300 5.3838795331e+00 -7.3512114162e-05 2.7836470048e+00 -4.8214180427e+00 2.7836470048e+00 4.8214180427e+00 
171400 5.3838795329e+00 -7.3244972211e-05 2.7836483253e+00 -4.8214203297e+00 2.7836483253e+00 4.8214203297e+00 
171500 5.3838795326e+00 -7.2978803445e-05 2.7836496409e+00 -4.8214226085e+00 2.7836496409e+00 4.8214226085e+00 
171600 5.3838795324e+00 -7.2713604298e-05 2.7836509517e+00 -4.8214248789e+00 2.7836509517e+00 4.8214248789e+00 
171700 5.3838795322e+00 -7.2449371220e-05 2.7836522578e+00 -4.8214271411e+00 2.7836522578e+00 4.8214271411e+00 
171800 5.3838795319e+00 -7.2186100676e-05 2.7836535591e+00 -4.8214293951e+00 2.7836535591e+00 4.8214293951e+00 
171900 5.3838795317e+00 -7.1923789138e-05 2.7836548558e+00 -4.8214316409e+00 2.7836548558e+00 4.8214316409e+00 
172000 5.3838795315e+00 -7.1662433100e-05 2.7836561477e+00 -4.8214338785e+00 2.7836561477e+00 4.8214338785e+00 
172100 5.3838795312e+00 -7.1402029059e-05 2.7836574349e+00 -4.8214361080e+00 2.7836574349e+00 4.8214361080e+00 
172200 5.3838795310e+00 -7.1142573532e-05 2.7836587174e+00 -4.8214383294e+00 2.7836587174e+00 4.8214383294e+00 
172300 5.3838795308e+00 -7.0884063047e-05 2.7836599952e+00 -4.8214405427e+00 2.7836599952e+00 4.8214405427e+00 
172400 5.3838795306e+00 -7.0626494144e-05 2.7836612685e+00 -4.8214427480e+00 2.7836612685e+00 4.8214427480e+00 
172500 5.3838795304e+00 -7.0936551721e-05 2.7836612685e+00 -4.8214427480e+00 2.7836612685e+00 4.8214427480e+00 
172600 5.3838795302e+00 -7.0679041188e-05 2.7836625426e+00 -4.8214449549e+00 2.7836625426e+00 4.8214449549e+00 
172700 5.3838795300e+00 -7.0989321773e-05 2.7836625426e+00 -4.8214449549e+00 2.7836625426e+00 4.8214449549e+00 
172800 5.3838795298e+00 -7.0731389497e-05 2.7836638177e+00 -4.8214471635e+00 2.7836638177e+00 4.8214471635e+00 
172900 5.3838795296e+00 -7.0473945931e-05 2.7836650882e+00 -4.8214493640e+00 2.7836650882e+00 4.8214493640e+00 
173000 5.3838795294e+00 -7.0782511603e-05 2.7836650882e+00 -4.8214493640e+00 2.7836650882e+00 4.8214493640e+00 
173100 5.3838795292e+00 -7.0524394967e-05 2.7836663596e+00 -4.8214515661e+00 2.7836663596e+00 4.8214515661e+00 
173200 5.3838795291e+00 -7.0832528660e-05 2.7836663596e+00 -4.8214515661e+00 2.7836663596e+00 4.8214515661e+00 
173300 5.3838795289e+00 -7.0573430933e-05 2.7836676319e+00 -4.8214537698e+00 2.7836676319e+00 4.8214537698e+00 
173400 5.3838795287e+00 -7.0880851139e-05 2.7836676319e+00 -4.8214537698e+00 2.7836676319e+00 4.8214537698e+00 
173500 5.3838795285e+00 -7.0620534171e-05 2.7836689050e+00 -4.8214559750e+00 2.7836689050e+00 4.8214559750e+00 
173600 5.3838795284e+00 -7.0927014318e-05 2.7836689050e+00 -4.8214559750e+00 2.7836689050e+00 4.8214559750e+00 
173700 5.3838795282e+00 -7.0665290192e-05 2.7836701790e+00 -4.8214581816e+00 2.7836701790e+00 4.8214581816e+00 
173800 5.3838795280e+00 -7.0970643263e-05 2.7836701790e+00 -4.8214581816e+00 2.7836701790e+00 4.8214581816e+00 
173900 5.3838795278e+00 -7.0707360845e-05 2.7836714538e+00 -4.8214603895e+00 2.7836714538e+00 4.8214603895e+00 
174000 5.3838795277e+00 -7.1011428809e-05 2.7836714538e+00 -4.8214603895e+00 2.7836714538e+00 4.8214603895e+00 
174100 5.3838795275e+00 -7.0746464432e-05 2.7836727293e+00 -4.8214625988e+00 2.7836727293e+00 4.8214625988e+00 
174200 5.3838795273e+00 -7.0481460808e-05 2.7836740000e+00 -4.8214647997e+00 2.7836740000e+00 4.8214647997e+00 
174300 5.3838795271e+00 -7.0782052942e-05 2.7836740000e+00 -4.8214647997e+00 2.7836740000e+00 4.8214647997e+00 
174400 5.3838795269e+00 -7.0515477513e-05 2.7836752714e+00 -4.8214670018e+00 2.7836752714e+00 4.8214670018e+00 
174500 5.3838795268e+00 -7.0814695520e-05 2.7836752714e+00 -4.8214670018e+00 2.7836752714e+00 4.8214670018e+00 
174600 5.3838795266e+00 -7.0546406092e-05 2.7836765434e+00 -4.8214692049e+00 2.7836765434e+00 4.8214692049e+00 
174700 5.3838795265e+00 -7.0844099505e-05 2.7836765434e+00 -4.8214692049e+00 2.7836765434e+00 4.8214692049e+00 
174800 5.3838795263e+00 -7.0573984598e-05 2.7836778159e+00 -4.8214714090e+00 2.7836778159e+00 4.8214714090e+00 
174900 5.3838795262e+00 -7.0870027216e-05 2.7836778159e+00 -4.8214714090e+00 2.7836778159e+00 4.8214714090e+00 
175000 5.3838795260e+00 -7.0597998173e-05 2.7836790888e+00 -4.8214736138e+00 2.7836790888e+00 4.8214736138e+00 
175100 5.3838795259e+00 -7.0892281975e-05 2.7836790888e+00 -4.8214736138e+00 2.7836790888e+00 4.8214736138e+00 
175200 5.3838795257e+00 -7.0618267643e-05 2.7836803622e+00 -4.8214758193e+00 2.7836803622e+00 4.8214758193e+00 
175300 5.3838795255e+00 -7.0910698674e-05 2.7836803622e+00 -4.8214758193e+00 2.7836803622e+00 4.8214758193e+00 
175400 5.3838795254e+00 -7.0634641731e-05 2.7836816359e+00 -4.8214780254e+00 2.7836816359e+00 4.8214780254e+00 
175500 5.3838795252e+00 -7.0925137255e-05 2.7836816359e+00 -4.8214780254e+00 2.7836816359e+00 4.8214780254e+00 
175600 5.3838795250e+00 -7.0646991638e-05 2.7836829098e+00 -4.8214802319e+00 2.7836829098e+00 4.8214802319e+00 
175700 5.3838795249e+00 -7.0935478149e-05 2.7836829098e+00 -4.8214802319e+00 2.7836829098e+00 4.8214802319e+00 
175800 5.3838795247e+00 -7.0655207218e-05 2.7836841839e+00 -4.8214824388e+00 2.7836841839e+00 4.8214824388e+00 
175900 5.3838795246e+00 -7.0941619031e-05 2.7836841839e+00 -4.8214824388e+00 2.7836841839e+00 4.8214824388e+00 
176000 5.3838795245e+00 -7.0659194239e-05 2.7836854582e+00 -4.8214846458e+00 2.7836854582e+00 4.8214846458e+00 
176100 5.3838795243e+00 -7.0943472483e-05 2.7836854582e+00 -4.8214846458e+00 2.7836854582e+00 4.8214846458e+00 
176200 5.3838795242e+00 -7.0658872400e-05 2.7836867324e+00 -4.8214868529e+00 2.7836867324e+00 4.8214868529e+00 
176300 5.3838795240e+00 -7.0940964276e-05 2.7836867324e+00 -4.8214868529e+00 2.7836867324e+00 4.8214868529e+00 
176400 5.3838795239e+00 -7.0654173843e-05 2.7836880067e+00 -4.8214890600e+00 2.7836880067e+00 4.8214890600e+00 
176500 5.3838795238e+00 -7.0934032078e-05 2.7836880067e+00 -4.8214890600e+00 2.7836880067e+00 4.8214890600e+00 
176600 5.3838795236e+00 -7.0645042037e-05 2.7836892808e+00 -4.8214912668e+00 2.7836892808e+00 4.8214912668e+00 
176700 5.3838795235e+00 -7.0922624460e-05 2.7836892808e+00 -4.8214912668e+00 2.7836892808e+00 4.8214912668e+00 
176800 5.3838795233e+00 -7.0631430891e-05 2.7836905547e+00 -4.8214934732e+00 2.7836905547e+00 4.8214934732e+00 
176900 5.3838795232e+00 -7.0906700101e-05 2.7836905547e+00 -4.8214934732e+00 2.7836905547e+00 4.8214934732e+00 
177000 5.3838795230e+00 -7.0613304036e-05 2.7836918283e+00 -4.8214956792e+00 2.7836918283e+00 4.8214956792e+00 
177100 5.3838795229e+00 -7.0886227123e-05 2.7836918283e+00 -4.8214956792e+00 2.7836918283e+00 4.8214956792e+00 
177200 5.3838795228e+00 -7.0590634221e-05 2.7836931015e+00 -4.8214978845e+00 2.7836931015e+00 4.8214978845e+00 
177300 5.3838795227e+00 -7.0861182531e-05 2.7836931015e+00 -4.8214978845e+00 2.7836931015e+00 4.8214978845e+00 
177400 5.3838795225e+00 -7.0563402781e-05 2.7836943743e+00 -4.8215000890e+00 2.7836943743e+00 4.8215000890e+00 
177500 5.3838795224e+00 -7.0831551704e-05 2.7836943743e+00 -4.8215000890e+00 2.7836943743e+00 4.8215000890e+00 
177600 5.3838795222e+00 -7.0531599156e-05 2.7836956466e+00 -4.8215022927e+00 2.7836956466e+00 4.8215022927e+00 
177700 5.3838795221e+00 -7.0797327933e-05 2.7836956466e+00 -4.8215022927e+00 2.7836956466e+00 4.8215022927e+00 
177800 5.3838795220e+00 -7.0495220450e-05 2.7836969182e+00 -4.8215044952e+00 2.7836969182e+00 4.8215044952e+00 
177900 5.3838795219e+00 -7.0758511989e-05 2.7836969182e+00 -4.8215044952e+00 2.7836969182e+00 4.8215044952e+00 
178000 5.3838795217e+00 -7.0454271008e-05 2.7836981892e+00 -4.8215066965e+00 2.7836981892e+00 4.8215066965e+00 
178100 5.3838795216e+00 -7.0715111711e-05 2.7836981892e+00 -4.8215066965e+00 2.7836981892e+00 4.8215066965e+00 
178200 5.3838795215e+00 -7.0408762014e-05 2.7836994593e+00 -4.8215088965e+00 2.7836994593e+00 4.8215088965e+00 
178300 5.3838795214e+00 -7.0667141607e-05 2.7836994593e+00 -4.8215088965e+00 2.7836994593e+00 4.8215088965e+00 
178400 5.3838795213e+00 -7.0925720087e-05 2.7836994593e+00 -4.8215088965e+00 2.7836994593e+00 4.8215088965e+00 
178500 5.3838795211e+00 -7.0615281589e-05 2.7837007333e+00 -4.8215111031e+00 2.7837007333e+00 4.8215111031e+00 
178600 5.3838795210e+00 -7.0871135535e-05 2.7837007333e+00 -4.8215111031e+00 2.7837007333e+00 4.8215111031e+00 
178700 5.3838795209e+00 -7.0558440199e-05 2.7837020062e+00 -4.8215133079e+00 2.7837020062e+00 4.8215133079e+00 
178800 5.3838795208e+00 -7.0811625937e-05 2.7837020062e+00 -4.8215133079e+00 2.7837020062e+00 4.8215133079e+00 
178900 5.3838795206e+00 -7.0496761138e-05 2.7837032781e+00 -4.8215155109e+00 2.7837032781e+00 4.8215155109e+00 
179000 5.3838795205e+00 -7.0747319975e-05 2.7837032781e+00 -4.8215155109e+00 2.7837032781e+00 4.8215155109e+00 
179100 5.3838795204e+00 -7.0430360128e-05 2.7837045489e+00 -4.8215177119e+00 2.7837045489e+00 4.8215177119e+00 
179200 5.3838795203e+00 -7.0678323915e-05 2.7837045489e+00 -4.8215177119e+00 2.7837045489e+00 4.8215177119e+00 
179300 5.3838795202e+00 -7.0926432790e-05 2.7837045489e+00 -4.8215177119e+00 2.7837045489e+00 4.8215177119e+00 
179400 5.3838795201e+00 -7.0605473391e-05 2.7837058228e+00 -4.8215199185e+00 2.7837058228e+00 4.8215199185e+00 
179500 5.3838795200e+00 -7.0850770917e-05 2.7837058228e+00 -4.8215199185e+00 2.7837058228e+00 4.8215199185e+00 
179600 5.3838795198e+00 -7.0527649264e-05 2.7837070954e+00 -4.8215221227e+00 2.7837070954e+00 4.8215221227e+00 
179700 5.3838795197e+00 -7.0770215976e-05 2.7837070954e+00 -4.8215221227e+00 2.7837070954e+00 4.8215221227e+00 
179800 5.3838795196e+00 -7.0445041248e-05 2.7837083666e+00 -4.8215243244e+00 2.7837083666e+00 4.8215243244e+00 
179900 5.3838795195e+00 -7.0684938666e-05 2.7837083666e+00 -4.8215243244e+00 2.7837083666e+00 4.8215243244e+00 
180000 5.3838795194e+00 -7.0924953217e-05 2.7837083666e+00 -4.8215243244e+00 2.7837083666e+00 4.8215243244e+00 
180100 5.3838795193e+00 -7.0595889178e-05 2.7837096405e+00 -4.8215265309e+00 2.7837096405e+00 4.8215265309e+00 
180200 5.3838795192e+00 -7.0833050882e-05 2.7837096405e+00 -4.8215265309e+00 2.7837096405e+00 4.8215265309e+00 
180300 5.3838795191e+00 -7.0501921814e-05 2.7837109128e+00 -4.8215287345e+00 2.7837109128e+00 4.8215287345e+00 
180400 5.3838795190e+00 -7.0736327830e-05 2.7837109128e+00 -4.8215287345e+00 2.7837109128e+00 4.8215287345e+00 
180500 5.3838795189e+00 -7.0403257408e-05 2.7837121833e+00 -4.8215309352e+00 2.7837121833e+00 4.8215309352e+00 
180600 5.3838795188e+00 -7.0634983008e-05 2.7837121833e+00 -4.8215309352e+00 2.7837121833e+00 4.8215309352e+00 
180700 5.3838795187e+00 -7.0866823693e-05 2.7837121833e+00 -4.8215309352e+00 2.7837121833e+00 4.8215309352e+00 
180800 5.3838795186e+00 -7.0530053656e-05 2.7837134562e+00 -4.8215331399e+00 2.7837134562e+00 4.8215331399e+00 
180900 5.3838795185e+00 -7.0759047367e-05 2.7837134562e+00 -4.8215331399e+00 2.7837134562e+00 4.8215331399e+00 
181000 5.3838795184e+00 -7.0420350054e-05 2.7837147272e+00 -4.8215353412e+00 2.7837147272e+00 4.8215353412e+00 
181100 5.3838795183e+00 -7.0646603278e-05 2.7837147272e+00 -4.8215353412e+00 2.7837147272e+00 4.8215353412e+00 
181200 5.3838795182e+00 -7.0872950777e-05 2.7837147272e+00 -4.8215353412e+00 2.7837147272e+00 4.8215353412e+00 
181300 5.3838795181e+00 -7.0530622891e-05 2.7837160001e+00 -4.8215375461e+00 2.7837160001e+00 4.8215375461e+00 
181400 5.3838795180e+00 -7.0754095204e-05 2.7837160001e+00 -4.8215375461e+00 2.7837160001e+00 4.8215375461e+00 
181500 5.3838795179e+00 -7.0409908451e-05 2.7837172710e+00 -4.8215397473e+00 2.7837172710e+00 4.8215397473e+00 
181600 5.3838795178e+00 -7.0630626956e-05 2.7837172710e+00 -4.8215397473e+00 2.7837172710e+00 4.8215397473e+00 
181700 5.3838795177e+00 -7.0851437280e-05 2.7837172710e+00 -4.8215397473e+00 2.7837172710e+00 4.8215397473e+00 
181800 5.3838795176e+00 -7.0503745429e-05 2.7837185436e+00 -4.8215419515e+00 2.7837185436e+00 4.8215419515e+00 
181900 5.3838795175e+00 -7.0721683644e-05 2.7837185436e+00 -4.8215419515e+00 2.7837185436e+00 4.8215419515e+00 
182000 5.3838795174e+00 -7.0372227536e-05 2.7837198139e+00 -4.8215441517e+00 2.7837198139e+00 4.8215441517e+00 
182100 5.3838795173e+00 -7.0587423195e-05 2.7837198139e+00 -4.8215441517e+00 2.7837198139e+00 4.8215441517e+00 
182200 5.3838795173e+00 -7.0802718043e-05 2.7837198139e+00 -4.8215441517e+00 2.7837198139e+00 4.8215441517e+00 
182300 5.3838795171e+00 -7.0449911094e-05 2.7837210856e+00 -4.8215463544e+00 2.7837210856e+00 4.8215463544e+00 
182400 5.3838795171e+00 -7.0662354834e-05 2.7837210856e+00 -4.8215463544e+00 2.7837210856e+00 4.8215463544e+00 
182500 5.3838795170e+00 -7.0874858061e-05 2.7837210856e+00 -4.8215463544e+00 2.7837210856e+00 4.8215463544e+00 
182600 5.3838795169e+00 -7.0518647838e-05 2.7837223586e+00 -4.8215485593e+00 2.7837223586e+00 4.8215485593e+00 
182700 5.3838795168e+00 -7.0728236684e-05 2.7837223586e+00 -4.8215485593e+00 2.7837223586e+00 4.8215485593e+00 
182800 5.3838795167e+00 -7.0370368315e-05 2.7837236290e+00 -4.8215507597e+00 2.7837236290e+00 4.8215507597e+00 
182900 5.3838795166e+00 -7.0577197247e-05 2.7837236290e+00 -4.8215507597e+00 2.7837236290e+00 4.8215507597e+00 
183000 5.3838795166e+00 -7.0784123884e-05 2.7837236290e+00 -4.8215507597e+00 2.7837236290e+00 4.8215507597e+00 
183100 5.3838795164e+00 -7.0423101244e-05 2.7837249004e+00 -4.8215529618e+00 2.7837249004e+00 4.8215529618e+00 
183200 5.3838795164e+00 -7.0627185905e-05 2.7837249004e+00 -4.8215529618e+00 2.7837249004e+00 4.8215529618e+00 
183300 5.3838795163e+00 -7.0831338940e-05 2.7837249004e+00 -4.8215529618e+00 2.7837249004e+00 4.8215529618e+00 
183400 5.3838795162e+00 -7.0467140222e-05 2.7837261727e+00 -4.8215551654e+00 2.7837261727e+00 4.8215551654e+00 
183500 5.3838795161e+00 -7.0668406274e-05 2.7837261727e+00 -4.8215551654e+00 2.7837261727e+00 4.8215551654e+00 
183600 5.3838795161e+00 -7.0869725417e-05 2.7837261727e+00 -4.8215551654e+00 2.7837261727e+00 4.8215551654e+00 
183700 5.3838795159e+00 -7.0502373051e-05 2.7837274456e+00 -4.8215573702e+00 2.7837274456e+00 4.8215573702e+00 
183800 5.3838795159e+00 -7.0700782503e-05 2.7837274456e+00 -4.8215573702e+00 2.7837274456e+00 4.8215573702e+00 
183900 5.3838795158e+00 -7.0899238329e-05 2.7837274456e+00 -4.8215573702e+00 2.7837274456e+00 4.8215573702e+00 
184000 5.3838795157e+00 -7.0528781437e-05 2.7837287190e+00 -4.8215595759e+00 2.7837287190e+00 4.8215595759e+00 
184100 5.3838795157e+00 -7.0724318851e-05 2.7837287190e+00 -4.8215595759e+00 2.7837287190e+00 4.8215595759e+00 
184200 5.3838795155e+00 -7.0352439998e-05 2.7837299894e+00 -4.8215617761e+00 2.7837299894e+00 4.8215617761e+00 
184300 5.3838795155e+00 -7.0545239212e-05 2.7837299894e+00 -4.8215617761e+00 2.7837299894e+00 4.8215617761e+00 
184400 5.3838795154e+00 -7.0738154227e-05 2.7837299894e+00 -4.8215617761e+00 2.7837299894e+00 4.8215617761e+00 
184500 5.3838795153e+00 -7.0363512602e-05 2.7837312599e+00 -4.8215639768e+00 2.7837312599e+00 4.8215639768e+00 
184600 5.3838795153e+00 -7.0553635860e-05 2.7837312599e+00 -4.8215639768e+00 2.7837312599e+00 4.8215639768e+00 
184700 5.3838795152e+00 -7.0743856729e-05 2.7837312599e+00 -4.8215639768e+00 2.7837312599e+00 4.8215639768e+00 
184800 5.3838795151e+00 -7.0366461596e-05 2.7837325306e+00 -4.8215661777e+00 2.7837325306e+00 4.8215661777e+00 
184900 5.3838795150e+00 -7.0553866336e-05 2.7837325306e+00 -4.8215661777e+00 2.7837325306e+00 4.8215661777e+00 
185000 5.3838795150e+00 -7.0741361458e-05 2.7837325306e+00 -4.8215661777e+00 2.7837325306e+00 4.8215661777e+00 
185100 5.3838795149e+00 -7.0361256232e-05 2.7837338012e+00 -4.8215683784e+00 2.7837338012e+00 4.8215683784e+00 
185200 5.3838795148e+00 -7.0545928203e-05 2.7837338012e+00 -4.8215683784e+00 2.7837338012e+00 4.8215683784e+00 
185300 5.3838795148e+00 -7.0730689923e-05 2.7837338012e+00 -4.8215683784e+00 2.7837338012e+00 4.8215683784e+00 
185400 5.3838795147e+00 -7.0347938178e-05 2.7837350716e+00 -4.8215705789e+00 2.7837350716e+00 4.8215705789e+00 
185500 5.3838795146e+00 -7.0529880470e-05 2.7837350716e+00 -4.8215705789e+00 2.7837350716e+00 4.8215705789e+00 
185600 5.3838795146e+00 -7.0711915982e-05 2.7837350716e+00 -4.8215705789e+00 2.7837350716e+00 4.8215705789e+00 
185700 5.3838795144e+00 -7.0326593466e-05 2.7837363417e+00 -4.8215727788e+00 2.7837363417e+00 4.8215727788e+00 
185800 5.3838795144e+00 -7.0505820184e-05 2.7837363417e+00 -4.8215727788e+00 2.7837363417e+00 4.8215727788e+00 
185900 5.3838795143e+00 -7.0685146227e-05 2.7837363417e+00 -4.8215727788e+00 2.7837363417e+00 4.8215727788e+00 
186000 5.3838795143e+00 -7.0864481412e-05 2.7837363417e+00 -4.8215727788e+00 2.7837363417e+00 4.8215727788e+00 
186100 5.3838795142e+00 -7.0475163811e-05 2.7837376146e+00 -4.8215749834e+00 2.7837376146e+00 4.8215749834e+00 
186200 5.3838795141e+00 -7.0651553777e-05 2.7837376146e+00 -4.8215749834e+00 2.7837376146e+00 4.8215749834e+00 
186300 5.3838795141e+00 -7.0827993075e-05 2.7837376146e+00 -4.8215749834e+00 2.7837376146e+00 4.8215749834e+00 
186400 5.3838795140e+00 -7.0436107979e-05 2.7837388867e+00 -4.8215771868e+00 2.7837388867e+00 4.8215771868e+00 
186500 5.3838795139e+00 -7.0609670123e-05 2.7837388867e+00 -4.8215771868e+00 2.7837388867e+00 4.8215771868e+00 
186600 5.3838795139e+00 -7.0783309585e-05 2.7837388867e+00 -4.8215771868e+00 2.7837388867e+00 4.8215771868e+00 
186700 5.3838795138e+00 -7.0389008878e-05 2.7837401581e+00 -4.8215793889e+00 2.7837401581e+00 4.8215793889e+00 
186800 5.3838795137e+00 -7.0559821539e-05 2.7837401581e+00 -4.8215793889e+00 2.7837401581e+00 4.8215793889e+00 
186900 5.3838795137e+00 -7.0730732848e-05 2.7837401581e+00 -4.8215793889e+00 2.7837401581e+00 4.8215793889e+00 
187000 5.3838795136e+00 -7.0334146105e-05 2.7837414285e+00 -4.8215815894e+00 2.7837414285e+00 4.8215815894e+00 
187100 5.3838795136e+00 -7.0502271366e-05 2.7837414285e+00 -4.8215815894e+00 2.7837414285e+00 4.8215815894e+00 
187200 5.3838795135e+00 -7.0670512935e-05 2.7837414285e+00 -4.8215815894e+00 2.7837414285e+00 4.8215815894e+00 
187300 5.3838795135e+00 -7.0838783567e-05 2.7837414285e+00 -4.8215815894e+00 2.7837414285e+00 4.8215815894e+00 
187400 5.3838795134e+00 -7.0438631323e-05 2.7837427009e+00 -4.8215837932e+00 2.7837427009e+00 4.8215837932e+00 
187500 5.3838795133e+00 -7.0604005175e-05 2.7837427009e+00 -4.8215837932e+00 2.7837427009e+00 4.8215837932e+00 
187600 5.3838795133e+00 -7.0769455182e-05 2.7837427009e+00 -4.8215837932e+00 2.7837427009e+00 4.8215837932e+00 
187700 5.3838795132e+00 -7.0367080422e-05 2.7837439720e+00 -4.8215859948e+00 2.7837439720e+00 4.8215859948e+00 
187800 5.3838795131e+00 -7.0529714768e-05 2.7837439720e+00 -4.8215859948e+00 2.7837439720e+00 4.8215859948e+00 
187900 5.3838795131e+00 -7.0692458217e-05 2.7837439720e+00 -4.8215859948e+00 2.7837439720e+00 4.8215859948e+00 
188000 5.3838795131e+00 -7.0751056077e-05 2.7837439720e+00 -4.8215859948e+00 2.7837439720e+00 4.8215859948e+00 
188100 5.3838795130e+00 -7.0333355063e-05 2.7837452428e+00 -4.8215881959e+00 2.7837452428e+00 4.8215881959e+00 
188100 5.3838795130e+00 -7.0333355063e-05 2.7837452428e+00 -4.8215881959e+00 2.7837452428e+00 4.8215881959e+00 
