# step Hamiltonian StressXX CellTensor1 CellTensor2 CellTensor3 CellTensor4 
0 6.6046207666e+00 -6.7559361699e-02 1.6087831444e+00 -2.7864941444e+00 1.6087831444e+00 2.7864941444e+00 
100 6.6005337072e+00 -6.7114880891e-02 1.6087831444e+00 -2.7864941444e+00 1.6087831444e+00 2.7864941444e+00 
200 6.5964364818e+00 -6.4622577805e-02 1.6108694841e+00 -2.7901077909e+00 1.6108694841e+00 2.7901077909e+00 
300 6.5925133609e+00 -6.2290602484e-02 1.6128757290e+00 -2.7935827089e+00 1.6128757290e+00 2.7935827089e+00 
400 6.5887625991e+00 -6.0113439893e-02 1.6148071554e+00 -2.7969280377e+00 1.6148071554e+00 2.7969280377e+00 
500 6.5851818947e+00 -5.8085598330e-02 1.6166688321e+00 -2.8001525562e+00 1.6166688321e+00 2.8001525562e+00 
600 6.5817684246e+00 -5.6201616572e-02 1.6184656238e+00 -2.8032646907e+00 1.6184656238e+00 2.8032646907e+00 
700 6.5785188793e+00 -5.4456070623e-02 1.6202021962e+00 -2.8062725224e+00 1.6202021962e+00 2.8062725224e+00 
800 6.5754295023e+00 -5.2843580070e-02 1.6218830196e+00 -2.8091837939e+00 1.6218830196e+00 2.8091837939e+00 
900 6.5724961287e+00 -5.1358814045e-02 1.6235123732e+00 -2.8120059170e+00 1.6235123732e+00 2.8120059170e+00 
1000 6.5697142260e+00 -4.9996496798e-02 1.6250943489e+00 -2.8147459795e+00 1.6250943489e+00 2.8147459795e+00 
1100 6.5670789353e+00 -4.8751412895e-02 1.6266328558e+00 -2.8174107516e+00 1.6266328558e+00 2.8174107516e+00 
1200 6.5645851126e+00 -4.7618412048e-02 1.6281316234e+00 -2.8200066931e+00 1.6281316234e+00 2.8200066931e+00 
1300 6.5622273698e+00 -4.6592413569e-02 1.6295942058e+00 -2.8225399602e+00 1.6295942058e+00 2.8225399602e+00 
1400 6.5600001153e+00 -4.5668410484e-02 1.6310239857e+00 -2.8250164116e+00 1.6310239857e+00 2.8250164116e+00 
1500 6.5578975941e+00 -4.4841473294e-02 1.6324241778e+00 -2.8274416155e+00 1.6324241778e+00 2.8274416155e+00 
1600 6.5559139267e+00 -4.4106753410e-02 1.6337978329e+00 -2.8298208559e+00 1.6337978329e+00 2.8298208559e+00 
1700 6.5540431462e+00 -4.3459486269e-02 1.6351478415e+00 -2.8321591393e+00 1.6351478415e+00 2.8321591393e+00 
1800 6.5522792350e+00 -4.2894994144e-02 1.6364769375e+00 -2.8344612011e+00 1.6364769375e+00 2.8344612011e+00 
1900 6.5506161591e+00 -4.2408688670e-02 1.6377877019e+00 -2.8367315117e+00 1.6377877019e+00 2.8367315117e+00 
2000 6.5490479005e+00 -4.1996073090e-02 1.6390825666e+00 -2.8389742832e+00 1.6390825666e+00 2.8389742832e+00 
2100 6.5475684883e+00 -4.1652744250e-02 1.6403638181e+00 -2.8411934759e+00 1.6403638181e+00 2.8411934759e+00 
2200 6.5461720270e+00 -4.1374394341e-02 1.6416336009e+00 -2.8433928041e+00 1.6416336009e+00 2.8433928041e+00 
2300 6.5448527235e+00 -4.1156812427e-02 1.6428939212e+00 -2.8455757429e+00 1.6428939212e+00 2.8455757429e+00 
2400 6.5436049111e+00 -4.0995885754e-02 1.6441466508e+00 -2.8477455343e+00 1.6441466508e+00 2.8477455343e+00 
2500 6.5424230721e+00 -4.0887600868e-02 1.6453935306e+00 -2.8499051934e+00 1.6453935306e+00 2.8499051934e+00 
2600 6.5413018573e+00 -4.0828044549e-02 1.6466361738e+00 -2.8520575146e+00 1.6466361738e+00 2.8520575146e+00 
2700 6.5402361042e+00 -4.0813404586e-02 1.6478760702e+00 -2.8542050781e+00 1.6478760702e+00 2.8542050781e+00 
2800 6.5392208522e+00 -4.0839970392e-02 1.6491145890e+00 -2.8563502557e+00 1.6491145890e+00 2.8563502557e+00 
2900 6.5382513562e+00 -4.0904133487e-02 1.6503529832e+00 -2.8584952173e+00 1.6503529832e+00 2.8584952173e+00 
3000 6.5373230978e+00 -4.1002387851e-02 1.6515923923e+00 -2.8606419368e+00 1.6515923923e+00 2.8606419368e+00 
3100 6.5364317944e+00 -4.1131330164e-02 1.6528338463e+00 -2.8627921982e+00 1.6528338463e+00 2.8627921982e+00 
3200 6.5355734068e+00 -4.1287659934e-02 1.6540782692e+00 -2.8649476020e+00 1.6540782692e+00 2.8649476020e+00 
3300 6.5347441438e+00 -4.1468179539e-02 1.6553264824e+00 -2.8671095707e+00 1.6553264824e+00 2.8671095707e+00 
3400 6.5339404663e+00 -4.1669794174e-02 1.6565792083e+00 -2.8692793555e+00 1.6565792083e+00 2.8692793555e+00 
3500 6.5331590889e+00 -4.1889511722e-02 1.6578370734e+00 -2.8714580418e+00 1.6578370734e+00 2.8714580418e+00 
3600 6.5323969798e+00 -4.2124442547e-02 1.6591006121e+00 -2.8736465551e+00 1.6591006121e+00 2.8736465551e+00 
3700 6.5316513597e+00 -4.2371799224e-02 1.6603702702e+00 -2.8758456674e+00 1.6603702702e+00 2.8758456674e+00 
3800 6.5309196989e+00 -4.2628896199e-02 1.6616464079e+00 -2.8780560028e+00 1.6616464079e+00 2.8780560028e+00 
3900 6.5301997131e+00 -4.2893149400e-02 1.6629293035e+00 -2.8802780431e+00 1.6629293035e+00 2.8802780431e+00 
4000 6.5294893583e+00 -4.3162075778e-02 1.6642191566e+00 -2.8825121342e+00 1.6642191566e+00 2.8825121342e+00 
4100 6.5287868243e+00 -4.3433292807e-02 1.6655160915e+00 -2.8847584912e+00 1.6655160915e+00 2.8847584912e+00 
4200 6.5280905274e+00 -4.3704517923e-02 1.6668201604e+00 -2.8870172049e+00 1.6668201604e+00 2.8870172049e+00 
4300 6.5273991020e+00 -4.3973567918e-02 1.6681313469e+00 -2.8892882465e+00 1.6681313469e+00 2.8892882465e+00 
4400 6.5267113923e+00 -4.4238358284e-02 1.6694495691e+00 -2.8915714743e+00 1.6694495691e+00 2.8915714743e+00 
4500 6.5260264417e+00 -4.4496902507e-02 1.6707746826e+00 -2.8938666383e+00 1.6707746826e+00 2.8938666383e+00 
4600 6.5253434835e+00 -4.4747311312e-02 1.6721064842e+00 -2.8961733864e+00 1.6721064842e+00 2.8961733864e+00 
4700 6.5246619302e+00 -4.4987791862e-02 1.6734447146e+00 -2.8984912694e+00 1.6734447146e+00 2.8984912694e+00 
4800 6.5239813620e+00 -4.5216646909e-02 1.6747890617e+00 -2.9008197468e+00 1.6747890617e+00 2.9008197468e+00 
4900 6.5233015162e+00 -4.5432273893e-02 1.6761391635e+00 -2.9031581918e+00 1.6761391635e+00 2.9031581918e+00 
5000 6.5226222755e+00 -4.5633163993e-02 1.6774946116e+00 -2.9055058967e+00 1.6774946116e+00 2.9055058967e+00 
5100 6.5219436567e+00 -4.5817901133e-02 1.6788549536e+00 -2.9078620781e+00 1.6788549536e+00 2.9078620781e+00 
5200 6.5212657991e+00 -4.5985160931e-02 1.6802196963e+00 -2.9102258819e+00 1.6802196963e+00 2.9102258819e+00 
5300 6.5205889528e+00 -4.6133709605e-02 1.6815883089e+00 -2.9125963885e+00 1.6815883089e+00 2.9125963885e+00 
5400 6.5199134679e+00 -4.6262402821e-02 1.6829602255e+00 -2.9149726177e+00 1.6829602255e+00 2.9149726177e+00 
5500 6.5192397826e+00 -4.6370184500e-02 1.6843348478e+00 -2.9173535334e+00 1.6843348478e+00 2.9173535334e+00 
5600 6.5185684130e+00 -4.6456085563e-02 1.6857115484e+00 -2.9197380488e+00 1.6857115484e+00 2.9197380488e+00 
5700 6.5178999416e+00 -4.6519222637e-02 1.6870896730e+00 -2.9221250305e+00 1.6870896730e+00 2.9221250305e+00 
5800 6.5172350078e+00 -4.6558796702e-02 1.6884685432e+00 -2.9245133037e+00 1.6884685432e+00 2.9245133037e+00 
5900 6.5165742969e+00 -4.6574091689e-02 1.6898474592e+00 -2.9269016564e+00 1.6898474592e+00 2.9269016564e+00 
6000 6.5159185314e+00 -4.6564473035e-02 1.6912257025e+00 -2.9292888437e+00 1.6912257025e+00 2.9292888437e+00 
6100 6.5152684610e+00 -4.6529386182e-02 1.6926025378e+00 -2.9316735924e+00 1.6926025378e+00 2.9316735924e+00 
6200 6.5146248546e+00 -4.6468355030e-02 1.6939772160e+00 -2.9340546050e+00 1.6939772160e+00 2.9340546050e+00 
6300 6.5139884913e+00 -4.6380980347e-02 1.6953489765e+00 -2.9364305639e+00 1.6953489765e+00 2.9364305639e+00 
6400 6.5133601528e+00 -4.6266938124e-02 1.6967170492e+00 -2.9388001353e+00 1.6967170492e+00 2.9388001353e+00 
6500 6.5127406164e+00 -4.6125977894e-02 1.6980806569e+00 -2.9411619732e+00 1.6980806569e+00 2.9411619732e+00 
6600 6.5121306479e+00 -4.5957921005e-02 1.6994390177e+00 -2.9435147230e+00 1.6994390177e+00 2.9435147230e+00 
6700 6.5115309952e+00 -4.5762658849e-02 1.7007913466e+00 -2.9458570254e+00 1.7007913466e+00 2.9458570254e+00 
6800 6.5109423828e+00 -4.5540151051e-02 1.7021368581e+00 -2.9481875197e+00 1.7021368581e+00 2.9481875197e+00 
6900 6.5103655063e+00 -4.5290423620e-02 1.7034747679e+00 -2.9505048474e+00 1.7034747679e+00 2.9505048474e+00 
7000 6.5098010278e+00 -4.5013567064e-02 1.7048042948e+00 -2.9528076555e+00 1.7048042948e+00 2.9528076555e+00 
7100 6.5092495718e+00 -4.4709734469e-02 1.7061246625e+00 -2.9550945996e+00 1.7061246625e+00 2.9550945996e+00 
7200 6.5087117211e+00 -4.4379139540e-02 1.7074351017e+00 -2.9573643468e+00 1.7074351017e+00 2.9573643468e+00 
7300 6.5081880137e+00 -4.4022054619e-02 1.7087348514e+00 -2.9596155793e+00 1.7087348514e+00 2.9596155793e+00 
7400 6.5076789403e+00 -4.3638808664e-02 1.7100231608e+00 -2.9618469966e+00 1.7100231608e+00 2.9618469966e+00 
7500 6.5071849418e+00 -4.3229785208e-02 1.7112992906e+00 -2.9640573183e+00 1.7112992906e+00 2.9640573183e+00 
7600 6.5067064072e+00 -4.2795420285e-02 1.7125625150e+00 -2.9662452871e+00 1.7125625150e+00 2.9662452871e+00 
7700 6.5062436730e+00 -4.2336200334e-02 1.7138121225e+00 -2.9684096708e+00 1.7138121225e+00 2.9684096708e+00 
7800 6.5057970211e+00 -4.1852660089e-02 1.7150474178e+00 -2.9705492651e+00 1.7150474178e+00 2.9705492651e+00 
7900 6.5053666794e+00 -4.1345380433e-02 1.7162677228e+00 -2.9726628954e+00 1.7162677228e+00 2.9726628954e+00 
8000 6.5049528208e+00 -4.0814986248e-02 1.7174723779e+00 -2.9747494192e+00 1.7174723779e+00 2.9747494192e+00 
8100 6.5045555636e+00 -4.0262144240e-02 1.7186607432e+00 -2.9768077282e+00 1.7186607432e+00 2.9768077282e+00 
8200 6.5041749722e+00 -3.9687560755e-02 1.7198321993e+00 -2.9788367498e+00 1.7198321993e+00 2.9788367498e+00 
8300 6.5038110576e+00 -3.9091979576e-02 1.7209861490e+00 -2.9808354492e+00 1.7209861490e+00 2.9808354492e+00 
8400 6.5034637788e+00 -3.8476179719e-02 1.7221220174e+00 -2.9828028310e+00 1.7221220174e+00 2.9828028310e+00 
8500 6.5031330442e+00 -3.7840973211e-02 1.7232392535e+00 -2.9847379406e+00 1.7232392535e+00 2.9847379406e+00 
8600 6.5028187131e+00 -3.7187202867e-02 1.7243373305e+00 -2.9866398659e+00 1.7243373305e+00 2.9866398659e+00 
8700 6.5025205978e+00 -3.6515740059e-02 1.7254157470e+00 -2.9885077380e+00 1.7254157470e+00 2.9885077380e+00 
8800 6.5022384654e+00 -3.5827482487e-02 1.7264740273e+00 -2.9903407333e+00 1.7264740273e+00 2.9903407333e+00 
8900 6.5019720404e+00 -3.5123351945e-02 1.7275117223e+00 -2.9921380737e+00 1.7275117223e+00 2.9921380737e+00 
9000 6.5017210070e+00 -3.4404292090e-02 1.7285284099e+00 -2.9938990283e+00 1.7285284099e+00 2.9938990283e+00 
9100 6.5014850117e+00 -3.3671266216e-02 1.7295236956e+00 -2.9956229137e+00 1.7295236956e+00 2.9956229137e+00 
9200 6.5012636661e+00 -3.2925255033e-02 1.7304972128e+00 -2.9973090950e+00 1.7304972128e+00 2.9973090950e+00 
9300 6.5010565497e+00 -3.2167254455e-02 1.7314486235e+00 -2.9989569866e+00 1.7314486235e+00 2.9989569866e+00 
9400 6.5008632127e+00 -3.1398273397e-02 1.7323776181e+00 -3.0005660525e+00 1.7323776181e+00 3.0005660525e+00 
9500 6.5006831790e+00 -3.0619331585e-02 1.7332839162e+00 -3.0021358068e+00 1.7332839162e+00 3.0021358068e+00 
9600 6.5005159492e+00 -2.9831457385e-02 1.7341672663e+00 -3.0036658141e+00 1.7341672663e+00 3.0036658141e+00 
9700 6.5003610037e+00 -2.9035685644e-02 1.7350274464e+00 -3.0051556896e+00 1.7350274464e+00 3.0051556896e+00 
9800 6.5002178057e+00 -2.8233055560e-02 1.7358642636e+00 -3.0066050996e+00 1.7358642636e+00 3.0066050996e+00 
9900 6.5000858042e+00 -2.7424608565e-02 1.7366775547e+00 -3.0080137611e+00 1.7366775547e+00 3.0080137611e+00 
10000 6.4999644367e+00 -2.6611386240e-02 1.7374671856e+00 -3.0093814420e+00 1.7374671856e+00 3.0093814420e+00 
10100 6.4998531326e+00 -2.5794428262e-02 1.7382330516e+00 -3.0107079608e+00 1.7382330516e+00 3.0107079608e+00 
10200 6.4997513160e+00 -2.4974770376e-02 1.7389750770e+00 -3.0119931865e+00 1.7389750770e+00 3.0119931865e+00 
10300 6.4996584080e+00 -2.4153442404e-02 1.7396932152e+00 -3.0132370384e+00 1.7396932152e+00 3.0132370384e+00 
10400 6.4995738301e+00 -2.3331466296e-02 1.7403874482e+00 -3.0144394852e+00 1.7403874482e+00 3.0144394852e+00 
10500 6.4994970062e+00 -2.2509854215e-02 1.7410577864e+00 -3.0156005450e+00 1.7410577864e+00 3.0156005450e+00 
10600 6.4994273657e+00 -2.1689606671e-02 1.7417042683e+00 -3.0167202845e+00 1.7417042683e+00 3.0167202845e+00 
10700 6.4993643454e+00 -2.0871710702e-02 1.7423269601e+00 -3.0177988183e+00 1.7423269601e+00 3.0177988183e+00 
10800 6.4993073919e+00 -2.0057138102e-02 1.7429259552e+00 -3.0188363082e+00 1.7429259552e+00 3.0188363082e+00 
10900 6.4992559638e+00 -1.9246843703e-02 1.7435013738e+00 -3.0198329625e+00 1.7435013738e+00 3.0198329625e+00 
11000 6.4992095337e+00 -1.8441763719e-02 1.7440533624e+00 -3.0207890349e+00 1.7440533624e+00 3.0207890349e+00 
11100 6.4991675899e+00 -1.7642814141e-02 1.7445820933e+00 -3.0217048235e+00 1.7445820933e+00 3.0217048235e+00 
11200 6.4991296381e+00 -1.6850889200e-02 1.7450877635e+00 -3.0225806701e+00 1.7450877635e+00 3.0225806701e+00 
11300 6.4990952030e+00 -1.6066859896e-02 1.7455705950e+00 -3.0234169588e+00 1.7455705950e+00 3.0234169588e+00 
11400 6.4990638296e+00 -1.5291572590e-02 1.7460308332e+00 -3.0242141147e+00 1.7460308332e+00 3.0242141147e+00 
11500 6.4990350842e+00 -1.4525847677e-02 1.7464687468e+00 -3.0249726033e+00 1.7464687468e+00 3.0249726033e+00 
11600 6.4990085559e+00 -1.3770478317e-02 1.7468846267e+00 -3.0256929283e+00 1.7468846267e+00 3.0256929283e+00 
11700 6.4989838571e+00 -1.3026229261e-02 1.7472787854e+00 -3.0263756313e+00 1.7472787854e+00 3.0263756313e+00 
11800 6.4989606242e+00 -1.2293835738e-02 1.7476515562e+00 -3.0270212893e+00 1.7476515562e+00 3.0270212893e+00 
11900 6.4989385183e+00 -1.1574002436e-02 1.7480032925e+00 -3.0276305144e+00 1.7480032925e+00 3.0276305144e+00 
12000 6.4989172255e+00 -1.0867402556e-02 1.7483343664e+00 -3.0282039513e+00 1.7483343664e+00 3.0282039513e+00 
12100 6.4988964573e+00 -1.0174676953e-02 1.7486451687e+00 -3.0287422766e+00 1.7486451687e+00 3.0287422766e+00 
12200 6.4988759504e+00 -9.4964333659e-03 1.7489361070e+00 -3.0292461966e+00 1.7489361070e+00 3.0292461966e+00 
12300 6.4988554668e+00 -8.8332457288e-03 1.7492076058e+00 -3.0297164462e+00 1.7492076058e+00 3.0297164462e+00 
12400 6.4988347936e+00 -8.1856535720e-03 1.7494601046e+00 -3.0301537870e+00 1.7494601046e+00 3.0301537870e+00 
12500 6.4988137429e+00 -7.5541615110e-03 1.7496940578e+00 -3.0305590059e+00 1.7496940578e+00 3.0305590059e+00 
12600 6.4987921509e+00 -6.9392388241e-03 1.7499099332e+00 -3.0309329130e+00 1.7499099332e+00 3.0309329130e+00 
12700 6.4987698776e+00 -6.3413191180e-03 1.7501082111e+00 -3.0312763404e+00 1.7501082111e+00 3.0312763404e+00 
12800 6.4987468062e+00 -5.7608000820e-03 1.7502893836e+00 -3.0315901403e+00 1.7502893836e+00 3.0315901403e+00 
12900 6.4987228420e+00 -5.1980433294e-03 1.7504539532e+00 -3.0318751833e+00 1.7504539532e+00 3.0318751833e+00 
13000 6.4986979121e+00 -4.6533743270e-03 1.7506024323e+00 -3.0321323567e+00 1.7506024323e+00 3.0321323567e+00 
13100 6.4986719639e+00 -4.1270824091e-03 1.7507353418e+00 -3.0323625626e+00 1.7507353418e+00 3.0323625626e+00 
13200 6.4986449642e+00 -3.6194208765e-03 1.7508532103e+00 -3.0325667168e+00 1.7508532103e+00 3.0325667168e+00 
13300 6.4986168985e+00 -3.1306071786e-03 1.7509565729e+00 -3.0327457461e+00 1.7509565729e+00 3.0327457461e+00 
13400 6.4985877693e+00 -2.6608231753e-03 1.7510459707e+00 -3.0329005877e+00 1.7510459707e+00 3.0329005877e+00 
13500 6.4985575952e+00 -2.2102154788e-03 1.7511219494e+00 -3.0330321866e+00 1.7511219494e+00 3.0330321866e+00 
13600 6.4985264099e+00 -1.7788958706e-03 1.7511850583e+00 -3.0331414945e+00 1.7511850583e+00 3.0331414945e+00 
13700 6.4984942604e+00 -1.3669417918e-03 1.7512358498e+00 -3.0332294678e+00 1.7512358498e+00 3.0332294678e+00 
13800 6.4984612063e+00 -9.7439690495e-04 1.7512748778e+00 -3.0332970664e+00 1.7512748778e+00 3.0332970664e+00 
13900 6.4984273180e+00 -6.0127172247e-04 1.7513026975e+00 -3.0333452516e+00 1.7513026975e+00 3.0333452516e+00 
14000 6.4983926759e+00 -2.4754429931e-04 1.7513198640e+00 -3.0333749847e+00 1.7513198640e+00 3.0333749847e+00 
14100 6.4983573688e+00 8.6839013385e-05 1.7513269314e+00 -3.0333872258e+00 1.7513269314e+00 3.0333872258e+00 
14200 6.4983214928e+00 4.0196275789e-04 1.7513244521e+00 -3.0333829316e+00 1.7513244521e+00 3.0333829316e+00 
14300 6.4982851499e+00 6.9794150601e-04 1.7513129762e+00 -3.0333630547e+00 1.7513129762e+00 3.0333630547e+00 
14400 6.4982484471e+00 9.7491894570e-04 1.7512930500e+00 -3.0333285415e+00 1.7512930500e+00 3.0333285415e+00 
14500 6.4982114947e+00 1.2330669222e-03 1.7512652158e+00 -3.0332803313e+00 1.7512652158e+00 3.0332803313e+00 
14600 6.4981744058e+00 1.4725844376e-03 1.7512300109e+00 -3.0332193546e+00 1.7512300109e+00 3.0332193546e+00 
14700 6.4981372948e+00 1.6936966124e-03 1.7511879667e+00 -3.0331465320e+00 1.7511879667e+00 3.0331465320e+00 
14800 6.4981002762e+00 1.8966536145e-03 1.7511396085e+00 -3.0330627730e+00 1.7511396085e+00 3.0330627730e+00 
14900 6.4980634644e+00 2.0817295572e-03 1.7510854539e+00 -3.0329689746e+00 1.7510854539e+00 3.0329689746e+00 
15000 6.4980269717e+00 2.2492213735e-03 1.7510260131e+00 -3.0328660201e+00 1.7510260131e+00 3.0328660201e+00 
15100 6.4979909084e+00 2.3994476672e-03 1.7509617877e+00 -3.0327547784e+00 1.7509617877e+00 3.0327547784e+00 
15200 6.4979553813e+00 2.5327475474e-03 1.7508932702e+00 -3.0326361025e+00 1.7508932702e+00 3.0326361025e+00 
15300 6.4979204934e+00 2.6494794491e-03 1.7508209434e+00 -3.0325108289e+00 1.7508209434e+00 3.0325108289e+00 
15400 6.4978863431e+00 2.7500199435e-03 1.7507452800e+00 -3.0323797760e+00 1.7507452800e+00 3.0323797760e+00 
15500 6.4978530235e+00 2.8347625421e-03 1.7506667420e+00 -3.0322437443e+00 1.7506667420e+00 3.0322437443e+00 
15600 6.4978206221e+00 2.9041164981e-03 1.7505857803e+00 -3.0321035144e+00 1.7505857803e+00 3.0321035144e+00 
15700 6.4977892201e+00 2.9585056083e-03 1.7505028339e+00 -3.0319598472e+00 1.7505028339e+00 3.0319598472e+00 
15800 6.4977588922e+00 2.9983670186e-03 1.7504183302e+00 -3.0318134824e+00 1.7504183302e+00 3.0318134824e+00 
15900 6.4977297062e+00 3.0241500365e-03 1.7503326837e+00 -3.0316651383e+00 1.7503326837e+00 3.0316651383e+00 
16000 6.4977017227e+00 3.0363149543e-03 1.7502462966e+00 -3.0315155114e+00 1.7502462966e+00 3.0315155114e+00 
16100 6.4976749950e+00 3.0353318835e-03 1.7501595576e+00 -3.0313652752e+00 1.7501595576e+00 3.0313652752e+00 
16200 6.4976495691e+00 3.0216796057e-03 1.7500728425e+00 -3.0312150801e+00 1.7500728425e+00 3.0312150801e+00 
16300 6.4976254832e+00 2.9958444409e-03 1.7499865131e+00 -3.0310655532e+00 1.7499865131e+00 3.0310655532e+00 
16400 6.4976027684e+00 2.9583191359e-03 1.7499009176e+00 -3.0309172974e+00 1.7499009176e+00 3.0309172974e+00 
16500 6.4975814478e+00 2.9096017743e-03 1.7498163901e+00 -3.0307708915e+00 1.7498163901e+00 3.0307708915e+00 
16600 6.4975615376e+00 2.8501947116e-03 1.7497332505e+00 -3.0306268896e+00 1.7497332505e+00 3.0306268896e+00 
16700 6.4975430466e+00 2.7806035351e-03 1.7496518046e+00 -3.0304858211e+00 1.7496518046e+00 3.0304858211e+00 
16800 6.4975259766e+00 2.7013360520e-03 1.7495723436e+00 -3.0303481906e+00 1.7495723436e+00 3.0303481906e+00 
16900 6.4975103224e+00 2.6129013056e-03 1.7494951442e+00 -3.0302144774e+00 1.7494951442e+00 3.0302144774e+00 
17000 6.4974960728e+00 2.5158086219e-03 1.7494204689e+00 -3.0300851359e+00 1.7494204689e+00 3.0300851359e+00 
17100 6.4974832099e+00 2.4105666879e-03 1.7493485653e+00 -3.0299605953e+00 1.7493485653e+00 3.0299605953e+00 
17200 6.4974717101e+00 2.2976826607e-03 1.7492796668e+00 -3.0298412596e+00 1.7492796668e+00 3.0298412596e+00 
17300 6.4974615444e+00 2.1776613106e-03 1.7492139921e+00 -3.0297275077e+00 1.7492139921e+00 3.0297275077e+00 
17400 6.4974526785e+00 2.0510041972e-03 1.7491517456e+00 -3.0296196936e+00 1.7491517456e+00 3.0296196936e+00 
17500 6.4974450735e+00 1.9182088796e-03 1.7490931174e+00 -3.0295181465e+00 1.7490931174e+00 3.0295181465e+00 
17600 6.4974386861e+00 1.7797681608e-03 1.7490382833e+00 -3.0294231711e+00 1.7490382833e+00 3.0294231711e+00 
17700 6.4974334691e+00 1.6361693674e-03 1.7489874051e+00 -3.0293350474e+00 1.7489874051e+00 3.0293350474e+00 
17800 6.4974293720e+00 1.4878936629e-03 1.7489406305e+00 -3.0292540315e+00 1.7489406305e+00 3.0292540315e+00 
17900 6.4974263411e+00 1.3354153969e-03 1.7488980937e+00 -3.0291803556e+00 1.7488980937e+00 3.0291803556e+00 
18000 6.4974243201e+00 1.1792014886e-03 1.7488599151e+00 -3.0291142283e+00 1.7488599151e+00 3.0291142283e+00 
18100 6.4974232507e+00 1.0197108450e-03 1.7488262018e+00 -3.0290558351e+00 1.7488262018e+00 3.0290558351e+00 
18200 6.4974230727e+00 8.5739381301e-04 1.7487970477e+00 -3.0290053387e+00 1.7487970477e+00 3.0290053387e+00 
18300 6.4974237248e+00 6.9269166629e-04 1.7487725339e+00 -3.0289628796e+00 1.7487725339e+00 3.0289628796e+00 
18400 6.4974251445e+00 5.2603612524e-04 1.7487527289e+00 -3.0289285763e+00 1.7487527289e+00 3.0289285763e+00 
18500 6.4974272691e+00 3.5784891034e-04 1.7487376886e+00 -3.0289025257e+00 1.7487376886e+00 3.0289025257e+00 
18600 6.4974300355e+00 1.8854132813e-04 1.7487274570e+00 -3.0288848040e+00 1.7487274570e+00 3.0288848040e+00 
18700 6.4974333811e+00 1.8513889399e-05 1.7487220661e+00 -3.0288754669e+00 1.7487220661e+00 3.0288754669e+00 
18800 6.4974372433e+00 -1.5124387014e-04 1.7487220661e+00 -3.0288754669e+00 1.7487220661e+00 3.0288754669e+00 
18900 6.4974415613e+00 -3.2157047409e-04 1.7487263906e+00 -3.0288829570e+00 1.7487263906e+00 3.0288829570e+00 
19000 6.4974462748e+00 -4.9148297994e-04 1.7487355850e+00 -3.0288988822e+00 1.7487355850e+00 3.0288988822e+00 
19100 6.4974513254e+00 -6.6062728481e-04 1.7487496375e+00 -3.0289232219e+00 1.7487496375e+00 3.0289232219e+00 
19200 6.4974566561e+00 -8.2866153006e-04 1.7487685261e+00 -3.0289559379e+00 1.7487685261e+00 3.0289559379e+00 
19300 6.4974622122e+00 -9.9525630423e-04 1.7487922189e+00 -3.0289969750e+00 1.7487922189e+00 3.0289969750e+00 
19400 6.4974679409e+00 -1.1600948186e-03 1.7488206745e+00 -3.0290462616e+00 1.7488206745e+00 3.0290462616e+00 
19500 6.4974737919e+00 -1.3228730563e-03 1.7488538425e+00 -3.0291037103e+00 1.7488538425e+00 3.0291037103e+00 
19600 6.4974797175e+00 -1.4832998955e-03 1.7488916638e+00 -3.0291692187e+00 1.7488916638e+00 3.0291692187e+00 
19700 6.4974856726e+00 -1.6410972080e-03 1.7489340708e+00 -3.0292426698e+00 1.7489340708e+00 3.0292426698e+00 
19800 6.4974916149e+00 -1.7959999332e-03 1.7489809881e+00 -3.0293239329e+00 1.7489809881e+00 3.0293239329e+00 
19900 6.4974975050e+00 -1.9477561290e-03 1.7490323325e+00 -3.0294128641e+00 1.7490323325e+00 3.0294128641e+00 
20000 6.4975033065e+00 -2.0961269995e-03 1.7490880138e+00 -3.0295093068e+00 1.7490880138e+00 3.0295093068e+00 
20100 6.4975089858e+00 -2.2408869019e-03 1.7491479347e+00 -3.0296130929e+00 1.7491479347e+00 3.0296130929e+00 
20200 6.4975145125e+00 -2.3818233312e-03 1.7492119916e+00 -3.0297240427e+00 1.7492119916e+00 3.0297240427e+00 
20300 6.4975198594e+00 -2.5187368856e-03 1.7492800748e+00 -3.0298419663e+00 1.7492800748e+00 3.0298419663e+00 
20400 6.4975250020e+00 -2.6514412111e-03 1.7493520689e+00 -3.0299666636e+00 1.7493520689e+00 3.0299666636e+00 
20500 6.4975299189e+00 -2.7797629290e-03 1.7494278529e+00 -3.0300979254e+00 1.7494278529e+00 3.0300979254e+00 
20600 6.4975345918e+00 -2.9035415437e-03 1.7495073013e+00 -3.0302355341e+00 1.7495073013e+00 3.0302355341e+00 
20700 6.4975390051e+00 -3.0226293343e-03 1.7495902836e+00 -3.0303792637e+00 1.7495902836e+00 3.0303792637e+00 
20800 6.4975431462e+00 -3.1368912293e-03 1.7496766654e+00 -3.0305288813e+00 1.7496766654e+00 3.0305288813e+00 
20900 6.4975470049e+00 -3.2462046649e-03 1.7497663082e+00 -3.0306841472e+00 1.7497663082e+00 3.0306841472e+00 
21000 6.4975505741e+00 -3.3504594292e-03 1.7498590701e+00 -3.0308448155e+00 1.7498590701e+00 3.0308448155e+00 
21100 6.4975538488e+00 -3.4495574910e-03 1.7499548061e+00 -3.0310106351e+00 1.7499548061e+00 3.0310106351e+00 
21200 6.4975568265e+00 -3.5434128151e-03 1.7500533684e+00 -3.0311813500e+00 1.7500533684e+00 3.0311813500e+00 
21300 6.4975595070e+00 -3.6319511649e-03 1.7501546066e+00 -3.0313566998e+00 1.7501546066e+00 3.0313566998e+00 
21400 6.4975618922e+00 -3.7151098917e-03 1.7502583685e+00 -3.0315364206e+00 1.7502583685e+00 3.0315364206e+00 
21500 6.4975639860e+00 -3.7928377131e-03 1.7503644999e+00 -3.0317202456e+00 1.7503644999e+00 3.0317202456e+00 
21600 6.4975657941e+00 -3.8650944797e-03 1.7504728453e+00 -3.0319079053e+00 1.7504728453e+00 3.0319079053e+00 
21700 6.4975673239e+00 -3.9318509314e-03 1.7505832479e+00 -3.0320991282e+00 1.7505832479e+00 3.0320991282e+00 
21800 6.4975685843e+00 -3.9930884441e-03 1.7506955502e+00 -3.0322936416e+00 1.7506955502e+00 3.0322936416e+00 
21900 6.4975695856e+00 -4.0487987663e-03 1.7508095944e+00 -3.0324911719e+00 1.7508095944e+00 3.0324911719e+00 
22000 6.4975703393e+00 -4.0989837483e-03 1.7509252221e+00 -3.0326914450e+00 1.7509252221e+00 3.0326914450e+00 
22100 6.4975708581e+00 -4.1436550624e-03 1.7510422754e+00 -3.0328941871e+00 1.7510422754e+00 3.0328941871e+00 
22200 6.4975711553e+00 -4.1828339157e-03 1.7511605964e+00 -3.0330991251e+00 1.7511605964e+00 3.0330991251e+00 
22300 6.4975712454e+00 -4.2165507563e-03 1.7512800281e+00 -3.0333059869e+00 1.7512800281e+00 3.0333059869e+00 
22400 6.4975711432e+00 -4.2448449733e-03 1.7514004143e+00 -3.0335145019e+00 1.7514004143e+00 3.0335145019e+00 
22500 6.4975708642e+00 -4.2677645904e-03 1.7515216000e+00 -3.0337244017e+00 1.7515216000e+00 3.0337244017e+00 
22600 6.4975704241e+00 -4.2853659555e-03 1.7516434316e+00 -3.0339354203e+00 1.7516434316e+00 3.0339354203e+00 
22700 6.4975698388e+00 -4.2977134238e-03 1.7517657572e+00 -3.0341472944e+00 1.7517657572e+00 3.0341472944e+00 
22800 6.4975691246e+00 -4.3048790391e-03 1.7518884266e+00 -3.0343597641e+00 1.7518884266e+00 3.0343597641e+00 
22900 6.4975682975e+00 -4.3069422094e-03 1.7520112920e+00 -3.0345725732e+00 1.7520112920e+00 3.0345725732e+00 
23000 6.4975673735e+00 -4.3039893812e-03 1.7521342077e+00 -3.0347854694e+00 1.7521342077e+00 3.0347854694e+00 
23100 6.4975663682e+00 -4.2961137100e-03 1.7522570305e+00 -3.0349982047e+00 1.7522570305e+00 3.0349982047e+00 
23200 6.4975652972e+00 -4.2834147297e-03 1.7523796199e+00 -3.0352105358e+00 1.7523796199e+00 3.0352105358e+00 
23300 6.4975641755e+00 -4.2659980198e-03 1.7525018384e+00 -3.0354222245e+00 1.7525018384e+00 3.0354222245e+00 
23400 6.4975630176e+00 -4.2439748724e-03 1.7526235515e+00 -3.0356330377e+00 1.7526235515e+00 3.0356330377e+00 
23500 6.4975618374e+00 -4.2174619581e-03 1.7527446278e+00 -3.0358427480e+00 1.7527446278e+00 3.0358427480e+00 
23600 6.4975606483e+00 -4.1865809920e-03 1.7528649394e+00 -3.0360511338e+00 1.7528649394e+00 3.0360511338e+00 
23700 6.4975594630e+00 -4.1514584000e-03 1.7529843618e+00 -3.0362579796e+00 1.7529843618e+00 3.0362579796e+00 
23800 6.4975582934e+00 -4.1122249868e-03 1.7531027743e+00 -3.0364630760e+00 1.7531027743e+00 3.0364630760e+00 
23900 6.4975571507e+00 -4.0690156044e-03 1.7532200598e+00 -3.0366662205e+00 1.7532200598e+00 3.0366662205e+00 
24000 6.4975560452e+00 -4.0219688225e-03 1.7533361052e+00 -3.0368672169e+00 1.7533361052e+00 3.0368672169e+00 
24100 6.4975549865e+00 -3.9712266019e-03 1.7534508012e+00 -3.0370658762e+00 1.7534508012e+00 3.0370658762e+00 
24200 6.4975539832e+00 -3.9169339694e-03 1.7535640427e+00 -3.0372620163e+00 1.7535640427e+00 3.0372620163e+00 
24300 6.4975530433e+00 -3.8592386973e-03 1.7536757288e+00 -3.0374554624e+00 1.7536757288e+00 3.0374554624e+00 
24400 6.4975521735e+00 -3.7982909846e-03 1.7537857628e+00 -3.0376460468e+00 1.7537857628e+00 3.0376460468e+00 
24500 6.4975513801e+00 -3.7342431438e-03 1.7538940523e+00 -3.0378336097e+00 1.7538940523e+00 3.0378336097e+00 
24600 6.4975506682e+00 -3.6672492910e-03 1.7540005092e+00 -3.0380179984e+00 1.7540005092e+00 3.0380179984e+00 
24700 6.4975500422e+00 -3.5974650406e-03 1.7541050498e+00 -3.0381990680e+00 1.7541050498e+00 3.0381990680e+00 
24800 6.4975495055e+00 -3.5250472055e-03 1.7542075949e+00 -3.0383766815e+00 1.7542075949e+00 3.0383766815e+00 
24900 6.4975490611e+00 -3.4501535026e-03 1.7543080700e+00 -3.0385507093e+00 1.7543080700e+00 3.0385507093e+00 
25000 6.4975487106e+00 -3.3729422633e-03 1.7544064046e+00 -3.0387210299e+00 1.7544064046e+00 3.0387210299e+00 
25100 6.4975484554e+00 -3.2935721509e-03 1.7545025332e+00 -3.0388875296e+00 1.7545025332e+00 3.0388875296e+00 
25200 6.4975482958e+00 -3.2122018836e-03 1.7545963946e+00 -3.0390501023e+00 1.7545963946e+00 3.0390501023e+00 
25300 6.4975482316e+00 -3.1289899649e-03 1.7546879322e+00 -3.0392086500e+00 1.7546879322e+00 3.0392086500e+00 
25400 6.4975482618e+00 -3.0440944195e-03 1.7547770938e+00 -3.0393630825e+00 1.7547770938e+00 3.0393630825e+00 
25500 6.4975483850e+00 -2.9576725382e-03 1.7548638319e+00 -3.0395133172e+00 1.7548638319e+00 3.0395133172e+00 
25600 6.4975485989e+00 -2.8698806282e-03 1.7549481033e+00 -3.0396592795e+00 1.7549481033e+00 3.0396592795e+00 
25700 6.4975489010e+00 -2.7808737730e-03 1.7550298693e+00 -3.0398009025e+00 1.7550298693e+00 3.0398009025e+00 
25800 6.4975492882e+00 -2.6908055984e-03 1.7551090957e+00 -3.0399381266e+00 1.7551090957e+00 3.0399381266e+00 
25900 6.4975497569e+00 -2.5998280474e-03 1.7551857527e+00 -3.0400709003e+00 1.7551857527e+00 3.0400709003e+00 
26000 6.4975503032e+00 -2.5080911636e-03 1.7552598145e+00 -3.0401991792e+00 1.7552598145e+00 3.0401991792e+00 
26100 6.4975509227e+00 -2.4157428823e-03 1.7553312600e+00 -3.0403229265e+00 1.7553312600e+00 3.0403229265e+00 
26200 6.4975516109e+00 -2.3229288305e-03 1.7554000721e+00 -3.0404421124e+00 1.7554000721e+00 3.0404421124e+00 
26300 6.4975523629e+00 -2.2297921356e-03 1.7554662377e+00 -3.0405567147e+00 1.7554662377e+00 3.0405567147e+00 
26400 6.4975531737e+00 -2.1364732430e-03 1.7555297480e+00 -3.0406667178e+00 1.7555297480e+00 3.0406667178e+00 
26500 6.4975540381e+00 -2.0431097421e-03 1.7555905982e+00 -3.0407721134e+00 1.7555905982e+00 3.0407721134e+00 
26600 6.4975549507e+00 -1.9498362023e-03 1.7556487872e+00 -3.0408728997e+00 1.7556487872e+00 3.0408728997e+00 
26700 6.4975559062e+00 -1.8567840168e-03 1.7557043179e+00 -3.0409690816e+00 1.7557043179e+00 3.0409690816e+00 
26800 6.4975568990e+00 -1.7640812571e-03 1.7557571967e+00 -3.0410606705e+00 1.7557571967e+00 3.0410606705e+00 
26900 6.4975579237e+00 -1.6718525350e-03 1.7558074340e+00 -3.0411476840e+00 1.7558074340e+00 3.0411476840e+00 
27000 6.4975589750e+00 -1.5802188749e-03 1.7558550435e+00 -3.0412301460e+00 1.7558550435e+00 3.0412301460e+00 
27100 6.4975600474e+00 -1.4892975953e-03 1.7559000422e+00 -3.0413080861e+00 1.7559000422e+00 3.0413080861e+00 
27200 6.4975611357e+00 -1.3992021990e-03 1.7559424508e+00 -3.0413815399e+00 1.7559424508e+00 3.0413815399e+00 
27300 6.4975622347e+00 -1.3100422729e-03 1.7559822928e+00 -3.0414505484e+00 1.7559822928e+00 3.0414505484e+00 
27400 6.4975633396e+00 -1.2219233964e-03 1.7560195952e+00 -3.0415151580e+00 1.7560195952e+00 3.0415151580e+00 
27500 6.4975644456e+00 -1.1349470599e-03 1.7560543878e+00 -3.0415754205e+00 1.7560543878e+00 3.0415754205e+00 
27600 6.4975655479e+00 -1.0492105912e-03 1.7560867031e+00 -3.0416313923e+00 1.7560867031e+00 3.0416313923e+00 
27700 6.4975666424e+00 -9.6480709143e-04 1.7561165767e+00 -3.0416831349e+00 1.7561165767e+00 3.0416831349e+00 
27800 6.4975677249e+00 -8.8182538011e-04 1.7561440467e+00 -3.0417307143e+00 1.7561440467e+00 3.0417307143e+00 
27900 6.4975687914e+00 -8.0034994818e-04 1.7561691536e+00 -3.0417742008e+00 1.7561691536e+00 3.0417742008e+00 
28000 6.4975698385e+00 -7.2046092020e-04 1.7561919405e+00 -3.0418136688e+00 1.7561919405e+00 3.0418136688e+00 
28100 6.4975708627e+00 -6.4223402488e-04 1.7562124526e+00 -3.0418491967e+00 1.7562124526e+00 3.0418491967e+00 
28200 6.4975718611e+00 -5.6574057391e-04 1.7562307372e+00 -3.0418808667e+00 1.7562307372e+00 3.0418808667e+00 
28300 6.4975728310e+00 -4.9104744895e-04 1.7562468439e+00 -3.0419087643e+00 1.7562468439e+00 3.0419087643e+00 
28400 6.4975737697e+00 -4.1821709668e-04 1.7562608240e+00 -3.0419329785e+00 1.7562608240e+00 3.0419329785e+00 
28500 6.4975746753e+00 -3.4730753153e-04 1.7562727304e+00 -3.0419536011e+00 1.7562727304e+00 3.0419536011e+00 
28600 6.4975755458e+00 -2.7837234615e-04 1.7562826181e+00 -3.0419707270e+00 1.7562826181e+00 3.0419707270e+00 
28700 6.4975763796e+00 -2.1146072922e-04 1.7562905431e+00 -3.0419844536e+00 1.7562905431e+00 3.0419844536e+00 
28800 6.4975771755e+00 -1.4661749047e-04 1.7562965632e+00 -3.0419948807e+00 1.7562965632e+00 3.0419948807e+00 
28900 6.4975779324e+00 -8.3883092637e-05 1.7563007373e+00 -3.0420021104e+00 1.7563007373e+00 3.0420021104e+00 
29000 6.4975786496e+00 -2.3293690242e-05 1.7563031254e+00 -3.0420062466e+00 1.7563031254e+00 3.0420062466e+00 
29100 6.4975793266e+00 3.4375512467e-05 1.7563031254e+00 -3.0420062466e+00 1.7563031254e+00 3.0420062466e+00 
29200 6.4975799633e+00 9.1699725447e-05 1.7563031254e+00 -3.0420062466e+00 1.7563031254e+00 3.0420062466e+00 
29300 6.4975805596e+00 1.4566976315e-04 1.7563005148e+00 -3.0420017249e+00 1.7563005148e+00 3.0420017249e+00 
29400 6.4975811158e+00 1.9739261576e-04 1.7562963677e+00 -3.0419945420e+00 1.7562963677e+00 3.0419945420e+00 
29500 6.4975816323e+00 2.4685285223e-04 1.7562907481e+00 -3.0419848086e+00 1.7562907481e+00 3.0419848086e+00 
29600 6.4975821097e+00 2.9403899026e-04 1.7562837205e+00 -3.0419726364e+00 1.7562837205e+00 3.0419726364e+00 
29700 6.4975825491e+00 3.3894341728e-04 1.7562753494e+00 -3.0419581373e+00 1.7562753494e+00 3.0419581373e+00 
29800 6.4975829513e+00 3.8156230678e-04 1.7562656999e+00 -3.0419414239e+00 1.7562656999e+00 3.0419414239e+00 
29900 6.4975833175e+00 4.2189553014e-04 1.7562548371e+00 -3.0419226088e+00 1.7562548371e+00 3.0419226088e+00 
30000 6.4975836492e+00 4.5994656438e-04 1.7562428258e+00 -3.0419018048e+00 1.7562428258e+00 3.0419018048e+00 
30100 6.4975839477e+00 4.9572239603e-04 1.7562297312e+00 -3.0418791243e+00 1.7562297312e+00 3.0418791243e+00 
30200 6.4975842146e+00 5.2923342135e-04 1.7562156180e+00 -3.0418546794e+00 1.7562156180e+00 3.0418546794e+00 
30300 6.4975844515e+00 5.6049334328e-04 1.7562005506e+00 -3.0418285819e+00 1.7562005506e+00 3.0418285819e+00 
30400 6.4975846603e+00 5.8951906526e-04 1.7561845931e+00 -3.0418009426e+00 1.7561845931e+00 3.0418009426e+00 
30500 6.4975848427e+00 6.1633058235e-04 1.7561678090e+00 -3.0417718718e+00 1.7561678090e+00 3.0417718718e+00 
30600 6.4975850005e+00 6.4095086979e-04 1.7561502614e+00 -3.0417414785e+00 1.7561502614e+00 3.0417414785e+00 
30700 6.4975851357e+00 6.6340576936e-04 1.7561320127e+00 -3.0417098708e+00 1.7561320127e+00 3.0417098708e+00 
30800 6.4975852501e+00 6.8372387364e-04 1.7561131245e+00 -3.0416771554e+00 1.7561131245e+00 3.0416771554e+00 
30900 6.4975853458e+00 7.0193640875e-04 1.7560936575e+00 -3.0416434377e+00 1.7560936575e+00 3.0416434377e+00 
31000 6.4975854245e+00 7.1807711542e-04 1.7560736719e+00 -3.0416088215e+00 1.7560736719e+00 3.0416088215e+00 
31100 6.4975854882e+00 7.3218212901e-04 1.7560532264e+00 -3.0415734089e+00 1.7560532264e+00 3.0415734089e+00 
31200 6.4975855388e+00 7.4428985847e-04 1.7560323790e+00 -3.0415373002e+00 1.7560323790e+00 3.0415373002e+00 
31300 6.4975855781e+00 7.5444086466e-04 1.7560111867e+00 -3.0415005940e+00 1.7560111867e+00 3.0415005940e+00 
31400 6.4975856079e+00 7.6267773810e-04 1.7559897051e+00 -3.0414633868e+00 1.7559897051e+00 3.0414633868e+00 
31500 6.4975856299e+00 7.6904497654e-04 1.7559679887e+00 -3.0414257728e+00 1.7559679887e+00 3.0414257728e+00 
31600 6.4975856459e+00 7.7358886251e-04 1.7559460907e+00 -3.0413878444e+00 1.7559460907e+00 3.0413878444e+00 
31700 6.4975856573e+00 7.7635734100e-04 1.7559240630e+00 -3.0413496914e+00 1.7559240630e+00 3.0413496914e+00 
31800 6.4975856657e+00 7.7739989761e-04 1.7559019563e+00 -3.0413114014e+00 1.7559019563e+00 3.0413114014e+00 
31900 6.4975856726e+00 7.7676743727e-04 1.7558798195e+00 -3.0412730594e+00 1.7558798195e+00 3.0412730594e+00 
32000 6.4975856793e+00 7.7451216384e-04 1.7558577005e+00 -3.0412347482e+00 1.7558577005e+00 3.0412347482e+00 
32100 6.4975856871e+00 7.7068746060e-04 1.7558356455e+00 -3.0411965477e+00 1.7558356455e+00 3.0411965477e+00 
32200 6.4975856971e+00 7.6534777201e-04 1.7558136991e+00 -3.0411585354e+00 1.7558136991e+00 3.0411585354e+00 
32300 6.4975857104e+00 7.5854848680e-04 1.7557919045e+00 -3.0411207860e+00 1.7557919045e+00 3.0411207860e+00 
32400 6.4975857279e+00 7.5034582262e-04 1.7557703032e+00 -3.0410833715e+00 1.7557703032e+00 3.0410833715e+00 
32500 6.4975857506e+00 7.4079671230e-04 1.7557489352e+00 -3.0410463612e+00 1.7557489352e+00 3.0410463612e+00 
32600 6.4975857791e+00 7.2995869204e-04 1.7557278390e+00 -3.0410098213e+00 1.7557278390e+00 3.0410098213e+00 
32700 6.4975858142e+00 7.1788979152e-04 1.7557070511e+00 -3.0409738157e+00 1.7557070511e+00 3.0409738157e+00 
32800 6.4975858565e+00 7.0464842615e-04 1.7556866066e+00 -3.0409384049e+00 1.7556866066e+00 3.0409384049e+00 
32900 6.4975859063e+00 6.9029329157e-04 1.7556665391e+00 -3.0409036468e+00 1.7556665391e+00 3.0409036468e+00 
33000 6.4975859642e+00 6.7488326053e-04 1.7556468801e+00 -3.0408695965e+00 1.7556468801e+00 3.0408695965e+00 
33100 6.4975860303e+00 6.5847728220e-04 1.7556276598e+00 -3.0408363059e+00 1.7556276598e+00 3.0408363059e+00 
33200 6.4975861049e+00 6.4113428414e-04 1.7556089065e+00 -3.0408038243e+00 1.7556089065e+00 3.0408038243e+00 
33300 6.4975861881e+00 6.2291307688e-04 1.7555906469e+00 -3.0407721978e+00 1.7555906469e+00 3.0407721978e+00 
33400 6.4975862800e+00 6.0387226129e-04 1.7555729061e+00 -3.0407414698e+00 1.7555729061e+00 3.0407414698e+00 
33500 6.4975863804e+00 5.8407013882e-04 1.7555557074e+00 -3.0407116808e+00 1.7555557074e+00 3.0407116808e+00 
33600 6.4975864893e+00 5.6356462467e-04 1.7555390725e+00 -3.0406828683e+00 1.7555390725e+00 3.0406828683e+00 
33700 6.4975866065e+00 5.4241316387e-04 1.7555230215e+00 -3.0406550671e+00 1.7555230215e+00 3.0406550671e+00 
33800 6.4975867318e+00 5.2067265050e-04 1.7555075728e+00 -3.0406283091e+00 1.7555075728e+00 3.0406283091e+00 
33900 6.4975868648e+00 4.9839934998e-04 1.7554927431e+00 -3.0406026234e+00 1.7554927431e+00 3.0406026234e+00 
34000 6.4975870052e+00 4.7564882447e-04 1.7554785477e+00 -3.0405780362e+00 1.7554785477e+00 3.0405780362e+00 
34100 6.4975871527e+00 4.5247586151e-04 1.7554650002e+00 -3.0405545712e+00 1.7554650002e+00 3.0405545712e+00 
34200 6.4975873067e+00 4.2893440577e-04 1.7554521125e+00 -3.0405322492e+00 1.7554521125e+00 3.0405322492e+00 
34300 6.4975874669e+00 4.0507749419e-04 1.7554398954e+00 -3.0405110884e+00 1.7554398954e+00 3.0405110884e+00 
34400 6.4975876326e+00 3.8095719423e-04 1.7554283576e+00 -3.0404911044e+00 1.7554283576e+00 3.0404911044e+00 
34500 6.4975878034e+00 3.5662454544e-04 1.7554175068e+00 -3.0404723102e+00 1.7554175068e+00 3.0404723102e+00 
34600 6.4975879787e+00 3.3212950433e-04 1.7554073490e+00 -3.0404547164e+00 1.7554073490e+00 3.0404547164e+00 
34700 6.4975881580e+00 3.0752089248e-04 1.7553978888e+00 -3.0404383309e+00 1.7553978888e+00 3.0404383309e+00 
34800 6.4975883406e+00 2.8284634787e-04 1.7553891295e+00 -3.0404231593e+00 1.7553891295e+00 3.0404231593e+00 
34900 6.4975885261e+00 2.5815227961e-04 1.7553810730e+00 -3.0404092051e+00 1.7553810730e+00 3.0404092051e+00 
35000 6.4975887137e+00 2.3348382571e-04 1.7553737198e+00 -3.0403964690e+00 1.7553737198e+00 3.0403964690e+00 
35100 6.4975889029e+00 2.0888481425e-04 1.7553670693e+00 -3.0403849499e+00 1.7553670693e+00 3.0403849499e+00 
35200 6.4975890932e+00 1.8439772761e-04 1.7553611194e+00 -3.0403746444e+00 1.7553611194e+00 3.0403746444e+00 
35300 6.4975892840e+00 1.6006366995e-04 1.7553558670e+00 -3.0403655470e+00 1.7553558670e+00 3.0403655470e+00 
35400 6.4975894746e+00 1.3592233777e-04 1.7553513077e+00 -3.0403576500e+00 1.7553513077e+00 3.0403576500e+00 
35500 6.4975896647e+00 1.1201199357e-04 1.7553474360e+00 -3.0403509441e+00 1.7553474360e+00 3.0403509441e+00 
35600 6.4975898536e+00 8.8369442535e-05 1.7553442454e+00 -3.0403454179e+00 1.7553442454e+00 3.0403454179e+00 
35700 6.4975900408e+00 6.5030012282e-05 1.7553417283e+00 -3.0403410580e+00 1.7553417283e+00 3.0403410580e+00 
35800 6.4975902260e+00 4.4107491069e-05 1.7553417283e+00 -3.0403410580e+00 1.7553417283e+00 3.0403410580e+00 
35900 6.4975904085e+00 2.2830839386e-05 1.7553417283e+00 -3.0403410580e+00 1.7553417283e+00 3.0403410580e+00 
36000 6.4975905879e+00 1.2388233151e-06 1.7553417283e+00 -3.0403410580e+00 1.7553417283e+00 3.0403410580e+00 
36100 6.4975907639e+00 -2.0630466592e-05 1.7553417283e+00 -3.0403410580e+00 1.7553417283e+00 3.0403410580e+00 
36200 6.4975909363e+00 -4.2739651338e-05 1.7553417283e+00 -3.0403410580e+00 1.7553417283e+00 3.0403410580e+00 
36300 6.4975911046e+00 -6.5052097357e-05 1.7553417283e+00 -3.0403410580e+00 1.7553417283e+00 3.0403410580e+00 
36400 6.4975912689e+00 -8.7531948274e-05 1.7553417283e+00 -3.0403410580e+00 1.7553417283e+00 3.0403410580e+00 
36500 6.4975914283e+00 -1.0734495525e-04 1.7553442216e+00 -3.0403453766e+00 1.7553442216e+00 3.0403453766e+00 
36600 6.4975915829e+00 -1.2660597909e-04 1.7553472793e+00 -3.0403506726e+00 1.7553472793e+00 3.0403506726e+00 
36700 6.4975917324e+00 -1.4529493323e-04 1.7553508855e+00 -3.0403569189e+00 1.7553508855e+00 3.0403569189e+00 
36800 6.4975918767e+00 -1.6339325146e-04 1.7553550242e+00 -3.0403640872e+00 1.7553550242e+00 3.0403640872e+00 
36900 6.4975920157e+00 -1.8088387693e-04 1.7553596783e+00 -3.0403721484e+00 1.7553596783e+00 3.0403721484e+00 
37000 6.4975921492e+00 -1.9775124896e-04 1.7553648306e+00 -3.0403810725e+00 1.7553648306e+00 3.0403810725e+00 
37100 6.4975922772e+00 -2.1398128795e-04 1.7553704634e+00 -3.0403908287e+00 1.7553704634e+00 3.0403908287e+00 
37200 6.4975923996e+00 -2.2956137807e-04 1.7553765585e+00 -3.0404013857e+00 1.7553765585e+00 3.0404013857e+00 
37300 6.4975925165e+00 -2.4448034831e-04 1.7553830973e+00 -3.0404127112e+00 1.7553830973e+00 3.0404127112e+00 
37400 6.4975926278e+00 -2.5872845148e-04 1.7553900610e+00 -3.0404247728e+00 1.7553900610e+00 3.0404247728e+00 
37500 6.4975927335e+00 -2.7229734166e-04 1.7553974306e+00 -3.0404375372e+00 1.7553974306e+00 3.0404375372e+00 
37600 6.4975928338e+00 -2.8518004984e-04 1.7554051866e+00 -3.0404509710e+00 1.7554051866e+00 3.0404509710e+00 
37700 6.4975929287e+00 -2.9737095811e-04 1.7554133095e+00 -3.0404650403e+00 1.7554133095e+00 3.0404650403e+00 
37800 6.4975930184e+00 -3.0886577232e-04 1.7554217796e+00 -3.0404797110e+00 1.7554217796e+00 3.0404797110e+00 
37900 6.4975931029e+00 -3.1966149327e-04 1.7554305771e+00 -3.0404949487e+00 1.7554305771e+00 3.0404949487e+00 
38000 6.4975931825e+00 -3.2975638671e-04 1.7554396820e+00 -3.0405107189e+00 1.7554396820e+00 3.0405107189e+00 
38100 6.4975932572e+00 -3.3914995197e-04 1.7554490745e+00 -3.0405269871e+00 1.7554490745e+00 3.0405269871e+00 
38200 6.4975933273e+00 -3.4784288954e-04 1.7554587344e+00 -3.0405437186e+00 1.7554587344e+00 3.0405437186e+00 
38300 6.4975933929e+00 -3.5583706751e-04 1.7554686419e+00 -3.0405608788e+00 1.7554686419e+00 3.0405608788e+00 
38400 6.4975934543e+00 -3.6313548703e-04 1.7554787770e+00 -3.0405784333e+00 1.7554787770e+00 3.0405784333e+00 
38500 6.4975935116e+00 -3.6974224690e-04 1.7554891199e+00 -3.0405963478e+00 1.7554891199e+00 3.0405963478e+00 
38600 6.4975935651e+00 -3.7566250726e-04 1.7554996509e+00 -3.0406145881e+00 1.7554996509e+00 3.0406145881e+00 
38700 6.4975936150e+00 -3.8090245262e-04 1.7555103505e+00 -3.0406331204e+00 1.7555103505e+00 3.0406331204e+00 
38800 6.4975936616e+00 -3.8546925410e-04 1.7555211993e+00 -3.0406519110e+00 1.7555211993e+00 3.0406519110e+00 
38900 6.4975937050e+00 -3.8937103123e-04 1.7555321781e+00 -3.0406709268e+00 1.7555321781e+00 3.0406709268e+00 
39000 6.4975937455e+00 -3.9261681307e-04 1.7555432679e+00 -3.0406901350e+00 1.7555432679e+00 3.0406901350e+00 
39100 6.4975937834e+00 -3.9521649900e-04 1.7555544502e+00 -3.0407095031e+00 1.7555544502e+00 3.0407095031e+00 
39200 6.4975938188e+00 -3.9718081913e-04 1.7555657063e+00 -3.0407289994e+00 1.7555657063e+00 3.0407289994e+00 
39300 6.4975938520e+00 -3.9852129433e-04 1.7555770184e+00 -3.0407485925e+00 1.7555770184e+00 3.0407485925e+00 
39400 6.4975938832e+00 -3.9925019617e-04 1.7555883686e+00 -3.0407682515e+00 1.7555883686e+00 3.0407682515e+00 
39500 6.4975939127e+00 -3.9938050656e-04 1.7555997394e+00 -3.0407879464e+00 1.7555997394e+00 3.0407879464e+00 
39600 6.4975939406e+00 -3.9892587747e-04 1.7556111139e+00 -3.0408076476e+00 1.7556111139e+00 3.0408076476e+00 
39700 6.4975939672e+00 -3.9790059046e-04 1.7556224754e+00 -3.0408273263e+00 1.7556224754e+00 3.0408273263e+00 
39800 6.4975939926e+00 -3.9631951636e-04 1.7556338076e+00 -3.0408469542e+00 1.7556338076e+00 3.0408469542e+00 
39900 6.4975940171e+00 -3.9419807505e-04 1.7556450947e+00 -3.0408665040e+00 1.7556450947e+00 3.0408665040e+00 
40000 6.4975940408e+00 -3.9155219540e-04 1.7556563213e+00 -3.0408859490e+00 1.7556563213e+00 3.0408859490e+00 
40100 6.4975940638e+00 -3.8839827542e-04 1.7556674724e+00 -3.0409052634e+00 1.7556674724e+00 3.0409052634e+00 
40200 6.4975940865e+00 -3.8475314270e-04 1.7556785337e+00 -3.0409244221e+00 1.7556785337e+00 3.0409244221e+00 
40300 6.4975941088e+00 -3.8063401527e-04 1.7556894911e+00 -3.0409434009e+00 1.7556894911e+00 3.0409434009e+00 
40400 6.4975941310e+00 -3.7605846271e-04 1.7557003311e+00 -3.0409621764e+00 1.7557003311e+00 3.0409621764e+00 
40500 6.4975941531e+00 -3.7104436789e-04 1.7557110408e+00 -3.0409807261e+00 1.7557110408e+00 3.0409807261e+00 
40600 6.4975941753e+00 -3.6560988906e-04 1.7557216076e+00 -3.0409990283e+00 1.7557216076e+00 3.0409990283e+00 
40700 6.4975941977e+00 -3.5977342253e-04 1.7557320196e+00 -3.0410170623e+00 1.7557320196e+00 3.0410170623e+00 
40800 6.4975942204e+00 -3.5355356605e-04 1.7557422652e+00 -3.0410348084e+00 1.7557422652e+00 3.0410348084e+00 
40900 6.4975942435e+00 -3.4696908262e-04 1.7557523337e+00 -3.0410522476e+00 1.7557523337e+00 3.0410522476e+00 
41000 6.4975942669e+00 -3.4003886517e-04 1.7557622147e+00 -3.0410693618e+00 1.7557622147e+00 3.0410693618e+00 
41100 6.4975942909e+00 -3.3278190189e-04 1.7557718982e+00 -3.0410861342e+00 1.7557718982e+00 3.0410861342e+00 
41200 6.4975943153e+00 -3.2521724225e-04 1.7557813750e+00 -3.0411025485e+00 1.7557813750e+00 3.0411025485e+00 
41300 6.4975943404e+00 -3.1736396394e-04 1.7557906363e+00 -3.0411185896e+00 1.7557906363e+00 3.0411185896e+00 
41400 6.4975943660e+00 -3.0924114051e-04 1.7557996740e+00 -3.0411342433e+00 1.7557996740e+00 3.0411342433e+00 
41500 6.4975943923e+00 -3.0086780998e-04 1.7558084803e+00 -3.0411494962e+00 1.7558084803e+00 3.0411494962e+00 
41600 6.4975944192e+00 -2.9226294421e-04 1.7558170481e+00 -3.0411643360e+00 1.7558170481e+00 3.0411643360e+00 
41700 6.4975944467e+00 -2.8344541931e-04 1.7558253708e+00 -3.0411787514e+00 1.7558253708e+00 3.0411787514e+00 
41800 6.4975944749e+00 -2.7443398685e-04 1.7558334424e+00 -3.0411927318e+00 1.7558334424e+00 3.0411927318e+00 
41900 6.4975945036e+00 -2.6524724619e-04 1.7558412573e+00 -3.0412062676e+00 1.7558412573e+00 3.0412062676e+00 
42000 6.4975945330e+00 -2.5590361762e-04 1.7558488106e+00 -3.0412193503e+00 1.7558488106e+00 3.0412193503e+00 
42100 6.4975945629e+00 -2.4642131660e-04 1.7558560977e+00 -3.0412319721e+00 1.7558560977e+00 3.0412319721e+00 
42200 6.4975945933e+00 -2.3681832901e-04 1.7558631149e+00 -3.0412441261e+00 1.7558631149e+00 3.0412441261e+00 
42300 6.4975946242e+00 -2.2711238738e-04 1.7558698585e+00 -3.0412558064e+00 1.7558698585e+00 3.0412558064e+00 
42400 6.4975946556e+00 -2.1732094817e-04 1.7558763258e+00 -3.0412670080e+00 1.7558763258e+00 3.0412670080e+00 
42500 6.4975946873e+00 -2.0746117015e-04 1.7558825142e+00 -3.0412777266e+00 1.7558825142e+00 3.0412777266e+00 
42600 6.4975947194e+00 -1.9754989378e-04 1.7558884218e+00 -3.0412879589e+00 1.7558884218e+00 3.0412879589e+00 
42700 6.4975947518e+00 -1.8760362164e-04 1.7558940471e+00 -3.0412977023e+00 1.7558940471e+00 3.0412977023e+00 
42800 6.4975947844e+00 -1.7763850004e-04 1.7558993892e+00 -3.0413069551e+00 1.7558993892e+00 3.0413069551e+00 
42900 6.4975948172e+00 -1.6767030155e-04 1.7559044476e+00 -3.0413157164e+00 1.7559044476e+00 3.0413157164e+00 
43000 6.4975948501e+00 -1.5771440869e-04 1.7559092220e+00 -3.0413239861e+00 1.7559092220e+00 3.0413239861e+00 
43100 6.4975948831e+00 -1.4778579872e-04 1.7559137130e+00 -3.0413317646e+00 1.7559137130e+00 3.0413317646e+00 
43200 6.4975949160e+00 -1.3789902936e-04 1.7559179212e+00 -3.0413390535e+00 1.7559179212e+00 3.0413390535e+00 
43300 6.4975949489e+00 -1.2806822577e-04 1.7559218479e+00 -3.0413458547e+00 1.7559218479e+00 3.0413458547e+00 
43400 6.4975949817e+00 -1.1830706840e-04 1.7559254947e+00 -3.0413521711e+00 1.7559254947e+00 3.0413521711e+00 
43500 6.4975950144e+00 -1.0862878201e-04 1.7559288635e+00 -3.0413580060e+00 1.7559288635e+00 3.0413580060e+00 
43600 6.4975950468e+00 -9.9046125682e-05 1.7559319567e+00 -3.0413633636e+00 1.7559319567e+00 3.0413633636e+00 
43700 6.4975950789e+00 -8.9571383882e-05 1.7559347770e+00 -3.0413682486e+00 1.7559347770e+00 3.0413682486e+00 
43800 6.4975951106e+00 -8.0216358514e-05 1.7559373275e+00 -3.0413726662e+00 1.7559373275e+00 3.0413726662e+00 
43900 6.4975951420e+00 -7.0992361996e-05 1.7559396117e+00 -3.0413766225e+00 1.7559396117e+00 3.0413766225e+00 
44000 6.4975951730e+00 -6.1910211333e-05 1.7559416332e+00 -3.0413801238e+00 1.7559416332e+00 3.0413801238e+00 
44100 6.4975952036e+00 -5.4956680919e-05 1.7559416332e+00 -3.0413801238e+00 1.7559416332e+00 3.0413801238e+00 
44200 6.4975952335e+00 -4.7891873248e-05 1.7559416332e+00 -3.0413801238e+00 1.7559416332e+00 3.0413801238e+00 
44300 6.4975952629e+00 -4.0729023698e-05 1.7559416332e+00 -3.0413801238e+00 1.7559416332e+00 3.0413801238e+00 
44400 6.4975952917e+00 -3.3481090049e-05 1.7559416332e+00 -3.0413801238e+00 1.7559416332e+00 3.0413801238e+00 
44500 6.4975953198e+00 -2.6160742401e-05 1.7559416332e+00 -3.0413801238e+00 1.7559416332e+00 3.0413801238e+00 
44600 6.4975953472e+00 -1.8780353793e-05 1.7559416332e+00 -3.0413801238e+00 1.7559416332e+00 3.0413801238e+00 
44700 6.4975953740e+00 -1.1351991530e-05 1.7559416332e+00 -3.0413801238e+00 1.7559416332e+00 3.0413801238e+00 
44800 6.4975954000e+00 -3.8874092299e-06 1.7559416332e+00 -3.0413801238e+00 1.7559416332e+00 3.0413801238e+00 
44900 6.4975954254e+00 3.6019604669e-06 1.7559416332e+00 -3.0413801238e+00 1.7559416332e+00 3.0413801238e+00 
45000 6.4975954500e+00 1.1105012469e-05 1.7559416332e+00 -3.0413801238e+00 1.7559416332e+00 3.0413801238e+00 
45100 6.4975954739e+00 1.8610975162e-05 1.7559416332e+00 -3.0413801238e+00 1.7559416332e+00 3.0413801238e+00 
45200 6.4975954971e+00 2.6109415655e-05 1.7559416332e+00 -3.0413801238e+00 1.7559416332e+00 3.0413801238e+00 
45300 6.4975955196e+00 3.3590244385e-05 1.7559416332e+00 -3.0413801238e+00 1.7559416332e+00 3.0413801238e+00 
45400 6.4975955413e+00 4.1043719075e-05 1.7559416332e+00 -3.0413801238e+00 1.7559416332e+00 3.0413801238e+00 
45500 6.4975955624e+00 4.8460448070e-05 1.7559416332e+00 -3.0413801238e+00 1.7559416332e+00 3.0413801238e+00 
45600 6.4975955828e+00 5.5831393062e-05 1.7559416332e+00 -3.0413801238e+00 1.7559416332e+00 3.0413801238e+00 
45700 6.4975956025e+00 6.3147871207e-05 1.7559416332e+00 -3.0413801238e+00 1.7559416332e+00 3.0413801238e+00 
45800 6.4975956215e+00 7.0401556662e-05 1.7559416332e+00 -3.0413801238e+00 1.7559416332e+00 3.0413801238e+00 
45900 6.4975956398e+00 7.7584481565e-05 1.7559416332e+00 -3.0413801238e+00 1.7559416332e+00 3.0413801238e+00 
46000 6.4975956573e+00 8.2211947244e-05 1.7559394240e+00 -3.0413762974e+00 1.7559394240e+00 3.0413762974e+00 
46100 6.4975956741e+00 8.6591195027e-05 1.7559370830e+00 -3.0413722427e+00 1.7559370830e+00 3.0413722427e+00 
46200 6.4975956903e+00 9.0721785573e-05 1.7559346174e+00 -3.0413679720e+00 1.7559346174e+00 3.0413679720e+00 
46300 6.4975957058e+00 9.4603698254e-05 1.7559320341e+00 -3.0413634976e+00 1.7559320341e+00 3.0413634976e+00 
46400 6.4975957207e+00 9.8237319836e-05 1.7559293402e+00 -3.0413588318e+00 1.7559293402e+00 3.0413588318e+00 
46500 6.4975957350e+00 1.0162343282e-04 1.7559265429e+00 -3.0413539867e+00 1.7559265429e+00 3.0413539867e+00 
46600 6.4975957487e+00 1.0476320341e-04 1.7559236492e+00 -3.0413489746e+00 1.7559236492e+00 3.0413489746e+00 
46700 6.4975957619e+00 1.0765816927e-04 1.7559206661e+00 -3.0413438077e+00 1.7559206661e+00 3.0413438077e+00 
46800 6.4975957746e+00 1.1031022687e-04 1.7559176005e+00 -3.0413384980e+00 1.7559176005e+00 3.0413384980e+00 
46900 6.4975957868e+00 1.1272161874e-04 1.7559144594e+00 -3.0413330574e+00 1.7559144594e+00 3.0413330574e+00 
47000 6.4975957985e+00 1.1489492041e-04 1.7559112496e+00 -3.0413274979e+00 1.7559112496e+00 3.0413274979e+00 
47100 6.4975958098e+00 1.1683302717e-04 1.7559079780e+00 -3.0413218313e+00 1.7559079780e+00 3.0413218313e+00 
47200 6.4975958206e+00 1.1853914068e-04 1.7559046511e+00 -3.0413160690e+00 1.7559046511e+00 3.0413160690e+00 
47300 6.4975958311e+00 1.2001675547e-04 1.7559012757e+00 -3.0413102225e+00 1.7559012757e+00 3.0413102225e+00 
47400 6.4975958412e+00 1.2126964528e-04 1.7558978581e+00 -3.0413043032e+00 1.7558978581e+00 3.0413043032e+00 
47500 6.4975958510e+00 1.2230184932e-04 1.7558944049e+00 -3.0412983221e+00 1.7558944049e+00 3.0412983221e+00 
47600 6.4975958605e+00 1.2311765847e-04 1.7558909223e+00 -3.0412922900e+00 1.7558909223e+00 3.0412922900e+00 
47700 6.4975958698e+00 1.2372160150e-04 1.7558874165e+00 -3.0412862177e+00 1.7558874165e+00 3.0412862177e+00 
47800 6.4975958787e+00 1.2411843117e-04 1.7558838934e+00 -3.0412801156e+00 1.7558838934e+00 3.0412801156e+00 
47900 6.4975958875e+00 1.2431311041e-04 1.7558803591e+00 -3.0412739939e+00 1.7558803591e+00 3.0412739939e+00 
48000 6.4975958960e+00 1.2431079851e-04 1.7558768192e+00 -3.0412678626e+00 1.7558768192e+00 3.0412678626e+00 
48100 6.4975959044e+00 1.2411683736e-04 1.7558732793e+00 -3.0412617314e+00 1.7558732793e+00 3.0412617314e+00 
48200 6.4975959125e+00 1.2373673777e-04 1.7558697450e+00 -3.0412556098e+00 1.7558697450e+00 3.0412556098e+00 
48300 6.4975959206e+00 1.2317616586e-04 1.7558662215e+00 -3.0412495069e+00 1.7558662215e+00 3.0412495069e+00 
48400 6.4975959285e+00 1.2244092962e-04 1.7558627139e+00 -3.0412434316e+00 1.7558627139e+00 3.0412434316e+00 
48500 6.4975959363e+00 1.2153696551e-04 1.7558592273e+00 -3.0412373926e+00 1.7558592273e+00 3.0412373926e+00 
48600 6.4975959440e+00 1.2047032529e-04 1.7558557664e+00 -3.0412313982e+00 1.7558557664e+00 3.0412313982e+00 
48700 6.4975959517e+00 1.1924716300e-04 1.7558523359e+00 -3.0412254563e+00 1.7558523359e+00 3.0412254563e+00 
48800 6.4975959592e+00 1.1787372207e-04 1.7558489402e+00 -3.0412195748e+00 1.7558489402e+00 3.0412195748e+00 
48900 6.4975959668e+00 1.1635632274e-04 1.7558455836e+00 -3.0412137610e+00 1.7558455836e+00 3.0412137610e+00 
49000 6.4975959743e+00 1.1470134955e-04 1.7558422702e+00 -3.0412080220e+00 1.7558422702e+00 3.0412080220e+00 
49100 6.4975959817e+00 1.1291523921e-04 1.7558390039e+00 -3.0412023646e+00 1.7558390039e+00 3.0412023646e+00 
49200 6.4975959891e+00 1.1100446859e-04 1.7558357885e+00 -3.0411967954e+00 1.7558357885e+00 3.0411967954e+00 
49300 6.4975959966e+00 1.0897554306e-04 1.7558326274e+00 -3.0411913203e+00 1.7558326274e+00 3.0411913203e+00 
49400 6.4975960040e+00 1.0683498503e-04 1.7558295242e+00 -3.0411859454e+00 1.7558295242e+00 3.0411859454e+00 
49500 6.4975960114e+00 1.0458932281e-04 1.7558264819e+00 -3.0411806759e+00 1.7558264819e+00 3.0411806759e+00 
49600 6.4975960188e+00 1.0224507974e-04 1.7558235036e+00 -3.0411755173e+00 1.7558235036e+00 3.0411755173e+00 
49700 6.4975960262e+00 9.9808763670e-05 1.7558205920e+00 -3.0411704743e+00 1.7558205920e+00 3.0411704743e+00 
49800 6.4975960336e+00 9.7286856649e-05 1.7558177497e+00 -3.0411655514e+00 1.7558177497e+00 3.0411655514e+00 
49900 6.4975960410e+00 9.4685805050e-05 1.7558149793e+00 -3.0411607529e+00 1.7558149793e+00 3.0411607529e+00 
50000 6.4975960484e+00 9.2012009940e-05 1.7558122830e+00 -3.0411560827e+00 1.7558122830e+00 3.0411560827e+00 
50100 6.4975960558e+00 8.9271817816e-05 1.7558096628e+00 -3.0411515443e+00 1.7558096628e+00 3.0411515443e+00 
50200 6.4975960632e+00 8.6471511681e-05 1.7558071206e+00 -3.0411471411e+00 1.7558071206e+00 3.0411471411e+00 
50300 6.4975960706e+00 8.3617302451e-05 1.7558046581e+00 -3.0411428761e+00 1.7558046581e+00 3.0411428761e+00 
50400 6.4975960780e+00 8.0715320715e-05 1.7558022770e+00 -3.0411387518e+00 1.7558022770e+00 3.0411387518e+00 
50500 6.4975960854e+00 7.7771608875e-05 1.7557999784e+00 -3.0411347706e+00 1.7557999784e+00 3.0411347706e+00 
50600 6.4975960928e+00 7.4792113595e-05 1.7557977637e+00 -3.0411309346e+00 1.7557977637e+00 3.0411309346e+00 
50700 6.4975961002e+00 7.1782678654e-05 1.7557956339e+00 -3.0411272456e+00 1.7557956339e+00 3.0411272456e+00 
50800 6.4975961076e+00 6.8749038136e-05 1.7557935897e+00 -3.0411237050e+00 1.7557935897e+00 3.0411237050e+00 
50900 6.4975961150e+00 6.7892495446e-05 1.7557935897e+00 -3.0411237050e+00 1.7557935897e+00 3.0411237050e+00 
51000 6.4975961224e+00 6.6938514321e-05 1.7557935897e+00 -3.0411237050e+00 1.7557935897e+00 3.0411237050e+00 
51100 6.4975961298e+00 6.5891976981e-05 1.7557935897e+00 -3.0411237050e+00 1.7557935897e+00 3.0411237050e+00 
51200 6.4975961371e+00 6.4757747233e-05 1.7557935897e+00 -3.0411237050e+00 1.7557935897e+00 3.0411237050e+00 
51300 6.4975961443e+00 6.3540663875e-05 1.7557935897e+00 -3.0411237050e+00 1.7557935897e+00 3.0411237050e+00 
51400 6.4975961515e+00 6.2245534346e-05 1.7557935897e+00 -3.0411237050e+00 1.7557935897e+00 3.0411237050e+00 
51500 6.4975961586e+00 6.0877128609e-05 1.7557935897e+00 -3.0411237050e+00 1.7557935897e+00 3.0411237050e+00 
51600 6.4975961656e+00 5.9440173262e-05 1.7557935897e+00 -3.0411237050e+00 1.7557935897e+00 3.0411237050e+00 
51700 6.4975961725e+00 5.7939345901e-05 1.7557935897e+00 -3.0411237050e+00 1.7557935897e+00 3.0411237050e+00 
51800 6.4975961793e+00 5.6379269727e-05 1.7557935897e+00 -3.0411237050e+00 1.7557935897e+00 3.0411237050e+00 
51900 6.4975961860e+00 5.4764508376e-05 1.7557935897e+00 -3.0411237050e+00 1.7557935897e+00 3.0411237050e+00 
52000 6.4975961926e+00 5.3099561010e-05 1.7557935897e+00 -3.0411237050e+00 1.7557935897e+00 3.0411237050e+00 
52100 6.4975961991e+00 5.1388857654e-05 1.7557935897e+00 -3.0411237050e+00 1.7557935897e+00 3.0411237050e+00 
52200 6.4975962055e+00 4.9636754758e-05 1.7557935897e+00 -3.0411237050e+00 1.7557935897e+00 3.0411237050e+00 
52300 6.4975962118e+00 4.7847531017e-05 1.7557935897e+00 -3.0411237050e+00 1.7557935897e+00 3.0411237050e+00 
52400 6.4975962180e+00 4.6025383433e-05 1.7557935897e+00 -3.0411237050e+00 1.7557935897e+00 3.0411237050e+00 
52500 6.4975962241e+00 4.4174423610e-05 1.7557935897e+00 -3.0411237050e+00 1.7557935897e+00 3.0411237050e+00 
52600 6.4975962300e+00 4.2298674293e-05 1.7557935897e+00 -3.0411237050e+00 1.7557935897e+00 3.0411237050e+00 
52700 6.4975962358e+00 4.0402066147e-05 1.7557935897e+00 -3.0411237050e+00 1.7557935897e+00 3.0411237050e+00 
52800 6.4975962416e+00 3.8488434761e-05 1.7557935897e+00 -3.0411237050e+00 1.7557935897e+00 3.0411237050e+00 
52900 6.4975962471e+00 3.6561517904e-05 1.7557935897e+00 -3.0411237050e+00 1.7557935897e+00 3.0411237050e+00 
53000 6.4975962526e+00 3.4624952992e-05 1.7557935897e+00 -3.0411237050e+00 1.7557935897e+00 3.0411237050e+00 
53100 6.4975962580e+00 3.2682274786e-05 1.7557935897e+00 -3.0411237050e+00 1.7557935897e+00 3.0411237050e+00 
53200 6.4975962632e+00 3.0736913329e-05 1.7557935897e+00 -3.0411237050e+00 1.7557935897e+00 3.0411237050e+00 
53300 6.4975962683e+00 2.8792192076e-05 1.7557935897e+00 -3.0411237050e+00 1.7557935897e+00 3.0411237050e+00 
53400 6.4975962733e+00 2.6851326273e-05 1.7557935897e+00 -3.0411237050e+00 1.7557935897e+00 3.0411237050e+00 
53500 6.4975962782e+00 2.4917421517e-05 1.7557935897e+00 -3.0411237050e+00 1.7557935897e+00 3.0411237050e+00 
53600 6.4975962830e+00 2.2993472546e-05 1.7557935897e+00 -3.0411237050e+00 1.7557935897e+00 3.0411237050e+00 
53700 6.4975962877e+00 2.1082362219e-05 1.7557935897e+00 -3.0411237050e+00 1.7557935897e+00 3.0411237050e+00 
53800 6.4975962922e+00 1.9186860710e-05 1.7557935897e+00 -3.0411237050e+00 1.7557935897e+00 3.0411237050e+00 
53900 6.4975962966e+00 1.7309624876e-05 1.7557935897e+00 -3.0411237050e+00 1.7557935897e+00 3.0411237050e+00 
54000 6.4975963010e+00 1.5453197835e-05 1.7557935897e+00 -3.0411237050e+00 1.7557935897e+00 3.0411237050e+00 
54100 6.4975963052e+00 1.3620008713e-05 1.7557935897e+00 -3.0411237050e+00 1.7557935897e+00 3.0411237050e+00 
54200 6.4975963093e+00 1.1812372582e-05 1.7557935897e+00 -3.0411237050e+00 1.7557935897e+00 3.0411237050e+00 
54300 6.4975963133e+00 1.0032490557e-05 1.7557935897e+00 -3.0411237050e+00 1.7557935897e+00 3.0411237050e+00 
54400 6.4975963173e+00 8.2824500779e-06 1.7557935897e+00 -3.0411237050e+00 1.7557935897e+00 3.0411237050e+00 
54500 6.4975963211e+00 6.5642253444e-06 1.7557935897e+00 -3.0411237050e+00 1.7557935897e+00 3.0411237050e+00 
54600 6.4975963249e+00 4.8796779049e-06 1.7557935897e+00 -3.0411237050e+00 1.7557935897e+00 3.0411237050e+00 
54700 6.4975963285e+00 3.2305574102e-06 1.7557935897e+00 -3.0411237050e+00 1.7557935897e+00 3.0411237050e+00 
54800 6.4975963321e+00 1.6185024958e-06 1.7557935897e+00 -3.0411237050e+00 1.7557935897e+00 3.0411237050e+00 
54900 6.4975963356e+00 4.5041821259e-08 1.7557935897e+00 -3.0411237050e+00 1.7557935897e+00 3.0411237050e+00 
55000 6.4975963390e+00 -1.4884047738e-06 1.7557935897e+00 -3.0411237050e+00 1.7557935897e+00 3.0411237050e+00 
55100 6.4975963423e+00 -2.9805249671e-06 1.7557935897e+00 -3.0411237050e+00 1.7557935897e+00 3.0411237050e+00 
55200 6.4975963456e+00 -4.4301125462e-06 1.7557935897e+00 -3.0411237050e+00 1.7557935897e+00 3.0411237050e+00 
55300 6.4975963488e+00 -5.8360658704e-06 1.7557935897e+00 -3.0411237050e+00 1.7557935897e+00 3.0411237050e+00 
55400 6.4975963519e+00 -7.1973862352e-06 1.7557935897e+00 -3.0411237050e+00 1.7557935897e+00 3.0411237050e+00 
55500 6.4975963549e+00 -8.5131761199e-06 1.7557935897e+00 -3.0411237050e+00 1.7557935897e+00 3.0411237050e+00 
55600 6.4975963579e+00 -9.7826373435e-06 1.7557935897e+00 -3.0411237050e+00 1.7557935897e+00 3.0411237050e+00 
55700 6.4975963609e+00 -1.1005069127e-05 1.7557935897e+00 -3.0411237050e+00 1.7557935897e+00 3.0411237050e+00 
55800 6.4975963638e+00 -1.2179866068e-05 1.7557935897e+00 -3.0411237050e+00 1.7557935897e+00 3.0411237050e+00 
55900 6.4975963666e+00 -1.3306516031e-05 1.7557935897e+00 -3.0411237050e+00 1.7557935897e+00 3.0411237050e+00 
56000 6.4975963694e+00 -1.4384597973e-05 1.7557935897e+00 -3.0411237050e+00 1.7557935897e+00 3.0411237050e+00 
56100 6.4975963721e+00 -1.5413779677e-05 1.7557935897e+00 -3.0411237050e+00 1.7557935897e+00 3.0411237050e+00 
56200 6.4975963748e+00 -1.6393815451e-05 1.7557935897e+00 -3.0411237050e+00 1.7557935897e+00 3.0411237050e+00 
56300 6.4975963774e+00 -1.7324543741e-05 1.7557935897e+00 -3.0411237050e+00 1.7557935897e+00 3.0411237050e+00 
56400 6.4975963800e+00 -1.8205884707e-05 1.7557935897e+00 -3.0411237050e+00 1.7557935897e+00 3.0411237050e+00 
56500 6.4975963825e+00 -1.9037837745e-05 1.7557935897e+00 -3.0411237050e+00 1.7557935897e+00 3.0411237050e+00 
56600 6.4975963851e+00 -1.9820478970e-05 1.7557935897e+00 -3.0411237050e+00 1.7557935897e+00 3.0411237050e+00 
56700 6.4975963875e+00 -2.0553958652e-05 1.7557935897e+00 -3.0411237050e+00 1.7557935897e+00 3.0411237050e+00 
56800 6.4975963900e+00 -2.1238498635e-05 1.7557935897e+00 -3.0411237050e+00 1.7557935897e+00 3.0411237050e+00 
56900 6.4975963924e+00 -2.1874389710e-05 1.7557935897e+00 -3.0411237050e+00 1.7557935897e+00 3.0411237050e+00 
57000 6.4975963947e+00 -2.2461988985e-05 1.7557935897e+00 -3.0411237050e+00 1.7557935897e+00 3.0411237050e+00 
57100 6.4975963971e+00 -2.3001717217e-05 1.7557935897e+00 -3.0411237050e+00 1.7557935897e+00 3.0411237050e+00 
57200 6.4975963994e+00 -2.3494056145e-05 1.7557935897e+00 -3.0411237050e+00 1.7557935897e+00 3.0411237050e+00 
57300 6.4975964017e+00 -2.3939545817e-05 1.7557935897e+00 -3.0411237050e+00 1.7557935897e+00 3.0411237050e+00 
57400 6.4975964039e+00 -2.4338781888e-05 1.7557935897e+00 -3.0411237050e+00 1.7557935897e+00 3.0411237050e+00 
57500 6.4975964062e+00 -2.4692412948e-05 1.7557935897e+00 -3.0411237050e+00 1.7557935897e+00 3.0411237050e+00 
57600 6.4975964084e+00 -2.5001137843e-05 1.7557935897e+00 -3.0411237050e+00 1.7557935897e+00 3.0411237050e+00 
57700 6.4975964105e+00 -2.5265702989e-05 1.7557935897e+00 -3.0411237050e+00 1.7557935897e+00 3.0411237050e+00 
57800 6.4975964127e+00 -2.5486899719e-05 1.7557935897e+00 -3.0411237050e+00 1.7557935897e+00 3.0411237050e+00 
57900 6.4975964148e+00 -2.5665561638e-05 1.7557935897e+00 -3.0411237050e+00 1.7557935897e+00 3.0411237050e+00 
58000 6.4975964169e+00 -2.5802561984e-05 1.7557935897e+00 -3.0411237050e+00 1.7557935897e+00 3.0411237050e+00 
58100 6.4975964190e+00 -2.5898811045e-05 1.7557935897e+00 -3.0411237050e+00 1.7557935897e+00 3.0411237050e+00 
58200 6.4975964210e+00 -2.5955253551e-05 1.7557935897e+00 -3.0411237050e+00 1.7557935897e+00 3.0411237050e+00 
58300 6.4975964230e+00 -2.5972866147e-05 1.7557935897e+00 -3.0411237050e+00 1.7557935897e+00 3.0411237050e+00 
58400 6.4975964251e+00 -2.5952654864e-05 1.7557935897e+00 -3.0411237050e+00 1.7557935897e+00 3.0411237050e+00 
58500 6.4975964270e+00 -2.5895652636e-05 1.7557935897e+00 -3.0411237050e+00 1.7557935897e+00 3.0411237050e+00 
58600 6.4975964290e+00 -2.5802916852e-05 1.7557935897e+00 -3.0411237050e+00 1.7557935897e+00 3.0411237050e+00 
58700 6.4975964309e+00 -2.5675526951e-05 1.7557935897e+00 -3.0411237050e+00 1.7557935897e+00 3.0411237050e+00 
58800 6.4975964328e+00 -2.5514582060e-05 1.7557935897e+00 -3.0411237050e+00 1.7557935897e+00 3.0411237050e+00 
58900 6.4975964347e+00 -2.5321198673e-05 1.7557935897e+00 -3.0411237050e+00 1.7557935897e+00 3.0411237050e+00 
59000 6.4975964366e+00 -2.5096508372e-05 1.7557935897e+00 -3.0411237050e+00 1.7557935897e+00 3.0411237050e+00 
59100 6.4975964385e+00 -2.4841655613e-05 1.7557935897e+00 -3.0411237050e+00 1.7557935897e+00 3.0411237050e+00 
59200 6.4975964403e+00 -2.4557795543e-05 1.7557935897e+00 -3.0411237050e+00 1.7557935897e+00 3.0411237050e+00 
59300 6.4975964421e+00 -2.4246091891e-05 1.7557935897e+00 -3.0411237050e+00 1.7557935897e+00 3.0411237050e+00 
59400 6.4975964439e+00 -2.3907714889e-05 1.7557935897e+00 -3.0411237050e+00 1.7557935897e+00 3.0411237050e+00 
59500 6.4975964456e+00 -2.3543839272e-05 1.7557935897e+00 -3.0411237050e+00 1.7557935897e+00 3.0411237050e+00 
59600 6.4975964474e+00 -2.3155642317e-05 1.7557935897e+00 -3.0411237050e+00 1.7557935897e+00 3.0411237050e+00 
59700 6.4975964491e+00 -2.2744301946e-05 1.7557935897e+00 -3.0411237050e+00 1.7557935897e+00 3.0411237050e+00 
59800 6.4975964508e+00 -2.2310994895e-05 1.7557935897e+00 -3.0411237050e+00 1.7557935897e+00 3.0411237050e+00 
59900 6.4975964524e+00 -2.1856894937e-05 1.7557935897e+00 -3.0411237050e+00 1.7557935897e+00 3.0411237050e+00 
60000 6.4975964541e+00 -2.1383171160e-05 1.7557935897e+00 -3.0411237050e+00 1.7557935897e+00 3.0411237050e+00 
60100 6.4975964557e+00 -2.0890986317e-05 1.7557935897e+00 -3.0411237050e+00 1.7557935897e+00 3.0411237050e+00 
60200 6.4975964573e+00 -2.0381495236e-05 1.7557935897e+00 -3.0411237050e+00 1.7557935897e+00 3.0411237050e+00 
60300 6.4975964589e+00 -1.9855843291e-05 1.7557935897e+00 -3.0411237050e+00 1.7557935897e+00 3.0411237050e+00 
60400 6.4975964604e+00 -1.9315164933e-05 1.7557935897e+00 -3.0411237050e+00 1.7557935897e+00 3.0411237050e+00 
60500 6.4975964619e+00 -1.8760582289e-05 1.7557935897e+00 -3.0411237050e+00 1.7557935897e+00 3.0411237050e+00 
60600 6.4975964634e+00 -1.8193203828e-05 1.7557935897e+00 -3.0411237050e+00 1.7557935897e+00 3.0411237050e+00 
60700 6.4975964649e+00 -1.7614123079e-05 1.7557935897e+00 -3.0411237050e+00 1.7557935897e+00 3.0411237050e+00 
60800 6.4975964664e+00 -1.7024417423e-05 1.7557935897e+00 -3.0411237050e+00 1.7557935897e+00 3.0411237050e+00 
60900 6.4975964678e+00 -1.6425146948e-05 1.7557935897e+00 -3.0411237050e+00 1.7557935897e+00 3.0411237050e+00 
61000 6.4975964692e+00 -1.5817353354e-05 1.7557935897e+00 -3.0411237050e+00 1.7557935897e+00 3.0411237050e+00 
61100 6.4975964706e+00 -1.5202058944e-05 1.7557935897e+00 -3.0411237050e+00 1.7557935897e+00 3.0411237050e+00 
61200 6.4975964720e+00 -1.4580265658e-05 1.7557935897e+00 -3.0411237050e+00 1.7557935897e+00 3.0411237050e+00 
61300 6.4975964733e+00 -1.3952954176e-05 1.7557935897e+00 -3.0411237050e+00 1.7557935897e+00 3.0411237050e+00 
61400 6.4975964747e+00 -1.3321083082e-05 1.7557935897e+00 -3.0411237050e+00 1.7557935897e+00 3.0411237050e+00 
61500 6.4975964760e+00 -1.2685588086e-05 1.7557935897e+00 -3.0411237050e+00 1.7557935897e+00 3.0411237050e+00 
61600 6.4975964773e+00 -1.2047381319e-05 1.7557935897e+00 -3.0411237050e+00 1.7557935897e+00 3.0411237050e+00 
61700 6.4975964785e+00 -1.1407350658e-05 1.7557935897e+00 -3.0411237050e+00 1.7557935897e+00 3.0411237050e+00 
61800 6.4975964798e+00 -1.0766359149e-05 1.7557935897e+00 -3.0411237050e+00 1.7557935897e+00 3.0411237050e+00 
61900 6.4975964810e+00 -1.0125244454e-05 1.7557935897e+00 -3.0411237050e+00 1.7557935897e+00 3.0411237050e+00 
62000 6.4975964822e+00 -9.4848183709e-06 1.7557935897e+00 -3.0411237050e+00 1.7557935897e+00 3.0411237050e+00 
62100 6.4975964833e+00 -8.8458664056e-06 1.7557935897e+00 -3.0411237050e+00 1.7557935897e+00 3.0411237050e+00 
62200 6.4975964845e+00 -8.2091473900e-06 1.7557935897e+00 -3.0411237050e+00 1.7557935897e+00 3.0411237050e+00 
62300 6.4975964856e+00 -7.5753931769e-06 1.7557935897e+00 -3.0411237050e+00 1.7557935897e+00 3.0411237050e+00 
62400 6.4975964868e+00 -6.9453083535e-06 1.7557935897e+00 -3.0411237050e+00 1.7557935897e+00 3.0411237050e+00 
62500 6.4975964879e+00 -6.3195700370e-06 1.7557935897e+00 -3.0411237050e+00 1.7557935897e+00 3.0411237050e+00 
62600 6.4975964889e+00 -5.6988276978e-06 1.7557935897e+00 -3.0411237050e+00 1.7557935897e+00 3.0411237050e+00 
62700 6.4975964900e+00 -5.0837030379e-06 1.7557935897e+00 -3.0411237050e+00 1.7557935897e+00 3.0411237050e+00 
62800 6.4975964910e+00 -4.4747899243e-06 1.7557935897e+00 -3.0411237050e+00 1.7557935897e+00 3.0411237050e+00 
62900 6.4975964921e+00 -3.8726543529e-06 1.7557935897e+00 -3.0411237050e+00 1.7557935897e+00 3.0411237050e+00 
63000 6.4975964931e+00 -3.2778344676e-06 1.7557935897e+00 -3.0411237050e+00 1.7557935897e+00 3.0411237050e+00 
63100 6.4975964941e+00 -2.6908406198e-06 1.7557935897e+00 -3.0411237050e+00 1.7557935897e+00 3.0411237050e+00 
63200 6.4975964950e+00 -2.1121554635e-06 1.7557935897e+00 -3.0411237050e+00 1.7557935897e+00 3.0411237050e+00 
63300 6.4975964960e+00 -1.5422340959e-06 1.7557935897e+00 -3.0411237050e+00 1.7557935897e+00 3.0411237050e+00 
63400 6.4975964969e+00 -9.8150424068e-07 1.7557935897e+00 -3.0411237050e+00 1.7557935897e+00 3.0411237050e+00 
63500 6.4975964978e+00 -4.3036645111e-07 1.7557935897e+00 -3.0411237050e+00 1.7557935897e+00 3.0411237050e+00 
63600 6.4975964988e+00 1.1080563339e-07 1.7557935897e+00 -3.0411237050e+00 1.7557935897e+00 3.0411237050e+00 
63700 6.4975964997e+00 6.4166500237e-07 1.7557935897e+00 -3.0411237050e+00 1.7557935897e+00 3.0411237050e+00 
63800 6.4975965005e+00 1.1618909670e-06 1.7557935897e+00 -3.0411237050e+00 1.7557935897e+00 3.0411237050e+00 
63900 6.4975965014e+00 1.6711888060e-06 1.7557935897e+00 -3.0411237050e+00 1.7557935897e+00 3.0411237050e+00 
64000 6.4975965022e+00 2.1692893982e-06 1.7557935897e+00 -3.0411237050e+00 1.7557935897e+00 3.0411237050e+00 
64100 6.4975965031e+00 2.6559488135e-06 1.7557935897e+00 -3.0411237050e+00 1.7557935897e+00 3.0411237050e+00 
64200 6.4975965039e+00 3.1309478829e-06 1.7557935897e+00 -3.0411237050e+00 1.7557935897e+00 3.0411237050e+00 
64300 6.4975965047e+00 3.5940917547e-06 1.7557935897e+00 -3.0411237050e+00 1.7557935897e+00 3.0411237050e+00 
64400 6.4975965055e+00 4.0452094048e-06 1.7557935897e+00 -3.0411237050e+00 1.7557935897e+00 3.0411237050e+00 
64500 6.4975965063e+00 4.4841531449e-06 1.7557935897e+00 -3.0411237050e+00 1.7557935897e+00 3.0411237050e+00 
64600 6.4975965071e+00 4.9107981042e-06 1.7557935897e+00 -3.0411237050e+00 1.7557935897e+00 3.0411237050e+00 
64700 6.4975965078e+00 5.3250416923e-06 1.7557935897e+00 -3.0411237050e+00 1.7557935897e+00 3.0411237050e+00 
64800 6.4975965086e+00 5.7268030341e-06 1.7557935897e+00 -3.0411237050e+00 1.7557935897e+00 3.0411237050e+00 
64900 6.4975965093e+00 6.1160224164e-06 1.7557935897e+00 -3.0411237050e+00 1.7557935897e+00 3.0411237050e+00 
65000 6.4975965100e+00 6.4926606868e-06 1.7557935897e+00 -3.0411237050e+00 1.7557935897e+00 3.0411237050e+00 
65100 6.4975965108e+00 6.8566986601e-06 1.7557935897e+00 -3.0411237050e+00 1.7557935897e+00 3.0411237050e+00 
65200 6.4975965115e+00 7.2081365108e-06 1.7557935897e+00 -3.0411237050e+00 1.7557935897e+00 3.0411237050e+00 
65300 6.4975965122e+00 7.5469931486e-06 1.7557935897e+00 -3.0411237050e+00 1.7557935897e+00 3.0411237050e+00 
65400 6.4975965128e+00 7.8733055848e-06 1.7557935897e+00 -3.0411237050e+00 1.7557935897e+00 3.0411237050e+00 
65500 6.4975965135e+00 8.1871283058e-06 1.7557935897e+00 -3.0411237050e+00 1.7557935897e+00 3.0411237050e+00 
65600 6.4975965142e+00 8.4885326105e-06 1.7557935897e+00 -3.0411237050e+00 1.7557935897e+00 3.0411237050e+00 
65700 6.4975965148e+00 8.7776059756e-06 1.7557935897e+00 -3.0411237050e+00 1.7557935897e+00 3.0411237050e+00 
65800 6.4975965155e+00 9.0544513933e-06 1.7557935897e+00 -3.0411237050e+00 1.7557935897e+00 3.0411237050e+00 
65900 6.4975965161e+00 9.3191867130e-06 1.7557935897e+00 -3.0411237050e+00 1.7557935897e+00 3.0411237050e+00 
66000 6.4975965167e+00 9.5719439820e-06 1.7557935897e+00 -3.0411237050e+00 1.7557935897e+00 3.0411237050e+00 
66100 6.4975965174e+00 9.8128687897e-06 1.7557935897e+00 -3.0411237050e+00 1.7557935897e+00 3.0411237050e+00 
66200 6.4975965180e+00 1.0042119597e-05 1.7557935897e+00 -3.0411237050e+00 1.7557935897e+00 3.0411237050e+00 
66300 6.4975965186e+00 1.0259867082e-05 1.7557935897e+00 -3.0411237050e+00 1.7557935897e+00 3.0411237050e+00 
66400 6.4975965192e+00 1.0466293487e-05 1.7557935897e+00 -3.0411237050e+00 1.7557935897e+00 3.0411237050e+00 
66500 6.4975965198e+00 1.0661591956e-05 1.7557935897e+00 -3.0411237050e+00 1.7557935897e+00 3.0411237050e+00 
66600 6.4975965203e+00 1.0845965887e-05 1.7557935897e+00 -3.0411237050e+00 1.7557935897e+00 3.0411237050e+00 
66700 6.4975965209e+00 1.1019628289e-05 1.7557935897e+00 -3.0411237050e+00 1.7557935897e+00 3.0411237050e+00 
66800 6.4975965215e+00 1.1182801136e-05 1.7557935897e+00 -3.0411237050e+00 1.7557935897e+00 3.0411237050e+00 
66900 6.4975965220e+00 1.1335714745e-05 1.7557935897e+00 -3.0411237050e+00 1.7557935897e+00 3.0411237050e+00 
67000 6.4975965226e+00 1.1478607133e-05 1.7557935897e+00 -3.0411237050e+00 1.7557935897e+00 3.0411237050e+00 
67100 6.4975965231e+00 1.1611723417e-05 1.7557935897e+00 -3.0411237050e+00 1.7557935897e+00 3.0411237050e+00 
67200 6.4975965236e+00 1.1735315194e-05 1.7557935897e+00 -3.0411237050e+00 1.7557935897e+00 3.0411237050e+00 
67300 6.4975965242e+00 1.1849639941e-05 1.7557935897e+00 -3.0411237050e+00 1.7557935897e+00 3.0411237050e+00 
67400 6.4975965247e+00 1.1954960436e-05 1.7557935897e+00 -3.0411237050e+00 1.7557935897e+00 3.0411237050e+00 
67500 6.4975965252e+00 1.2051544164e-05 1.7557935897e+00 -3.0411237050e+00 1.7557935897e+00 3.0411237050e+00 
67600 6.4975965257e+00 1.2139662756e-05 1.7557935897e+00 -3.0411237050e+00 1.7557935897e+00 3.0411237050e+00 
67700 6.4975965262e+00 1.2219591441e-05 1.7557935897e+00 -3.0411237050e+00 1.7557935897e+00 3.0411237050e+00 
67800 6.4975965267e+00 1.2291608486e-05 1.7557935897e+00 -3.0411237050e+00 1.7557935897e+00 3.0411237050e+00 
67900 6.4975965271e+00 1.2355994683e-05 1.7557935897e+00 -3.0411237050e+00 1.7557935897e+00 3.0411237050e+00 
68000 6.4975965276e+00 1.2413032812e-05 1.7557935897e+00 -3.0411237050e+00 1.7557935897e+00 3.0411237050e+00 
68100 6.4975965281e+00 1.2463007157e-05 1.7557935897e+00 -3.0411237050e+00 1.7557935897e+00 3.0411237050e+00 
68200 6.4975965285e+00 1.2506202995e-05 1.7557935897e+00 -3.0411237050e+00 1.7557935897e+00 3.0411237050e+00 
68300 6.4975965290e+00 1.2542906136e-05 1.7557935897e+00 -3.0411237050e+00 1.7557935897e+00 3.0411237050e+00 
68400 6.4975965294e+00 1.2573402450e-05 1.7557935897e+00 -3.0411237050e+00 1.7557935897e+00 3.0411237050e+00 
68500 6.4975965299e+00 1.2597977428e-05 1.7557935897e+00 -3.0411237050e+00 1.7557935897e+00 3.0411237050e+00 
68600 6.4975965303e+00 1.2616915743e-05 1.7557935897e+00 -3.0411237050e+00 1.7557935897e+00 3.0411237050e+00 
68700 6.4975965307e+00 1.2630500842e-05 1.7557935897e+00 -3.0411237050e+00 1.7557935897e+00 3.0411237050e+00 
68800 6.4975965312e+00 1.2639014530e-05 1.7557935897e+00 -3.0411237050e+00 1.7557935897e+00 3.0411237050e+00 
68900 6.4975965316e+00 1.2642736598e-05 1.7557935897e+00 -3.0411237050e+00 1.7557935897e+00 3.0411237050e+00 
69000 6.4975965320e+00 1.2641944443e-05 1.7557935897e+00 -3.0411237050e+00 1.7557935897e+00 3.0411237050e+00 
69100 6.4975965324e+00 1.2636912716e-05 1.7557935897e+00 -3.0411237050e+00 1.7557935897e+00 3.0411237050e+00 
69200 6.4975965328e+00 1.2627912989e-05 1.7557935897e+00 -3.0411237050e+00 1.7557935897e+00 3.0411237050e+00 
69300 6.4975965332e+00 1.2615213416e-05 1.7557935897e+00 -3.0411237050e+00 1.7557935897e+00 3.0411237050e+00 
69400 6.4975965336e+00 1.2599078439e-05 1.7557935897e+00 -3.0411237050e+00 1.7557935897e+00 3.0411237050e+00 
69500 6.4975965340e+00 1.2579768492e-05 1.7557935897e+00 -3.0411237050e+00 1.7557935897e+00 3.0411237050e+00 
69600 6.4975965343e+00 1.2557539722e-05 1.7557935897e+00 -3.0411237050e+00 1.7557935897e+00 3.0411237050e+00 
69700 6.4975965347e+00 1.2532643729e-05 1.7557935897e+00 -3.0411237050e+00 1.7557935897e+00 3.0411237050e+00 
69800 6.4975965351e+00 1.2505327321e-05 1.7557935897e+00 -3.0411237050e+00 1.7557935897e+00 3.0411237050e+00 
69900 6.4975965354e+00 1.2475832284e-05 1.7557935897e+00 -3.0411237050e+00 1.7557935897e+00 3.0411237050e+00 
70000 6.4975965358e+00 1.2444395168e-05 1.7557935897e+00 -3.0411237050e+00 1.7557935897e+00 3.0411237050e+00 
70100 6.4975965361e+00 1.2411247087e-05 1.7557935897e+00 -3.0411237050e+00 1.7557935897e+00 3.0411237050e+00 
70200 6.4975965365e+00 1.2376613531e-05 1.7557935897e+00 -3.0411237050e+00 1.7557935897e+00 3.0411237050e+00 
70300 6.4975965368e+00 1.2340714199e-05 1.7557935897e+00 -3.0411237050e+00 1.7557935897e+00 3.0411237050e+00 
70400 6.4975965372e+00 1.2303762843e-05 1.7557935897e+00 -3.0411237050e+00 1.7557935897e+00 3.0411237050e+00 
70500 6.4975965375e+00 1.2265967131e-05 1.7557935897e+00 -3.0411237050e+00 1.7557935897e+00 3.0411237050e+00 
70600 6.4975965378e+00 1.2227528511e-05 1.7557935897e+00 -3.0411237050e+00 1.7557935897e+00 3.0411237050e+00 
70700 6.4975965381e+00 1.2188642104e-05 1.7557935897e+00 -3.0411237050e+00 1.7557935897e+00 3.0411237050e+00 
70800 6.4975965384e+00 1.2149496603e-05 1.7557935897e+00 -3.0411237050e+00 1.7557935897e+00 3.0411237050e+00 
70900 6.4975965387e+00 1.2110274187e-05 1.7557935897e+00 -3.0411237050e+00 1.7557935897e+00 3.0411237050e+00 
71000 6.4975965391e+00 1.2071150443e-05 1.7557935897e+00 -3.0411237050e+00 1.7557935897e+00 3.0411237050e+00 
71100 6.4975965394e+00 1.2032294316e-05 1.7557935897e+00 -3.0411237050e+00 1.7557935897e+00 3.0411237050e+00 
71200 6.4975965396e+00 1.1993868049e-05 1.7557935897e+00 -3.0411237050e+00 1.7557935897e+00 3.0411237050e+00 
71300 6.4975965399e+00 1.1956027154e-05 1.7557935897e+00 -3.0411237050e+00 1.7557935897e+00 3.0411237050e+00 
71400 6.4975965402e+00 1.1918920380e-05 1.7557935897e+00 -3.0411237050e+00 1.7557935897e+00 3.0411237050e+00 
71500 6.4975965405e+00 1.1882689712e-05 1.7557935897e+00 -3.0411237050e+00 1.7557935897e+00 3.0411237050e+00 
71600 6.4975965408e+00 1.1847470357e-05 1.7557935897e+00 -3.0411237050e+00 1.7557935897e+00 3.0411237050e+00 
71700 6.4975965411e+00 1.1813390762e-05 1.7557935897e+00 -3.0411237050e+00 1.7557935897e+00 3.0411237050e+00 
71800 6.4975965413e+00 1.1780572623e-05 1.7557935897e+00 -3.0411237050e+00 1.7557935897e+00 3.0411237050e+00 
71900 6.4975965416e+00 1.1749130922e-05 1.7557935897e+00 -3.0411237050e+00 1.7557935897e+00 3.0411237050e+00 
72000 6.4975965419e+00 1.1719173962e-05 1.7557935897e+00 -3.0411237050e+00 1.7557935897e+00 3.0411237050e+00 
72100 6.4975965421e+00 1.1690803417e-05 1.7557935897e+00 -3.0411237050e+00 1.7557935897e+00 3.0411237050e+00 
72200 6.4975965424e+00 1.1664114388e-05 1.7557935897e+00 -3.0411237050e+00 1.7557935897e+00 3.0411237050e+00 
72300 6.4975965426e+00 1.1639195462e-05 1.7557935897e+00 -3.0411237050e+00 1.7557935897e+00 3.0411237050e+00 
72400 6.4975965429e+00 1.1616128801e-05 1.7557935897e+00 -3.0411237050e+00 1.7557935897e+00 3.0411237050e+00 
72500 6.4975965431e+00 1.1594990204e-05 1.7557935897e+00 -3.0411237050e+00 1.7557935897e+00 3.0411237050e+00 
72600 6.4975965434e+00 1.1575849210e-05 1.7557935897e+00 -3.0411237050e+00 1.7557935897e+00 3.0411237050e+00 
72700 6.4975965436e+00 1.1558769187e-05 1.7557935897e+00 -3.0411237050e+00 1.7557935897e+00 3.0411237050e+00 
72800 6.4975965438e+00 1.1543807431e-05 1.7557935897e+00 -3.0411237050e+00 1.7557935897e+00 3.0411237050e+00 
72900 6.4975965441e+00 1.1531015286e-05 1.7557935897e+00 -3.0411237050e+00 1.7557935897e+00 3.0411237050e+00 
73000 6.4975965443e+00 1.1520438248e-05 1.7557935897e+00 -3.0411237050e+00 1.7557935897e+00 3.0411237050e+00 
73100 6.4975965445e+00 1.1512116084e-05 1.7557935897e+00 -3.0411237050e+00 1.7557935897e+00 3.0411237050e+00 
73200 6.4975965447e+00 1.1506082967e-05 1.7557935897e+00 -3.0411237050e+00 1.7557935897e+00 3.0411237050e+00 
73300 6.4975965449e+00 1.1502367596e-05 1.7557935897e+00 -3.0411237050e+00 1.7557935897e+00 3.0411237050e+00 
73400 6.4975965452e+00 1.1500993336e-05 1.7557935897e+00 -3.0411237050e+00 1.7557935897e+00 3.0411237050e+00 
73500 6.4975965454e+00 1.1501978352e-05 1.7557935897e+00 -3.0411237050e+00 1.7557935897e+00 3.0411237050e+00 
73600 6.4975965456e+00 1.1505335757e-05 1.7557935897e+00 -3.0411237050e+00 1.7557935897e+00 3.0411237050e+00 
73700 6.4975965458e+00 1.1511073750e-05 1.7557935897e+00 -3.0411237050e+00 1.7557935897e+00 3.0411237050e+00 
73800 6.4975965460e+00 1.1519195771e-05 1.7557935897e+00 -3.0411237050e+00 1.7557935897e+00 3.0411237050e+00 
73900 6.4975965462e+00 1.1529700651e-05 1.7557935897e+00 -3.0411237050e+00 1.7557935897e+00 3.0411237050e+00 
74000 6.4975965464e+00 1.1542582760e-05 1.7557935897e+00 -3.0411237050e+00 1.7557935897e+00 3.0411237050e+00 
74100 6.4975965466e+00 1.1557832173e-05 1.7557935897e+00 -3.0411237050e+00 1.7557935897e+00 3.0411237050e+00 
74200 6.4975965468e+00 1.1575434815e-05 1.7557935897e+00 -3.0411237050e+00 1.7557935897e+00 3.0411237050e+00 
74300 6.4975965469e+00 1.1595372637e-05 1.7557935897e+00 -3.0411237050e+00 1.7557935897e+00 3.0411237050e+00 
74400 6.4975965471e+00 1.1617623756e-05 1.7557935897e+00 -3.0411237050e+00 1.7557935897e+00 3.0411237050e+00 
74500 6.4975965473e+00 1.1642162633e-05 1.7557935897e+00 -3.0411237050e+00 1.7557935897e+00 3.0411237050e+00 
74600 6.4975965475e+00 1.1668960222e-05 1.7557935897e+00 -3.0411237050e+00 1.7557935897e+00 3.0411237050e+00 
74700 6.4975965477e+00 1.1697984144e-05 1.7557935897e+00 -3.0411237050e+00 1.7557935897e+00 3.0411237050e+00 
74800 6.4975965478e+00 1.1729198845e-05 1.7557935897e+00 -3.0411237050e+00 1.7557935897e+00 3.0411237050e+00 
74900 6.4975965480e+00 1.1762565747e-05 1.7557935897e+00 -3.0411237050e+00 1.7557935897e+00 3.0411237050e+00 
75000 6.4975965482e+00 1.1798043427e-05 1.7557935897e+00 -3.0411237050e+00 1.7557935897e+00 3.0411237050e+00 
75100 6.4975965484e+00 1.1835587766e-05 1.7557935897e+00 -3.0411237050e+00 1.7557935897e+00 3.0411237050e+00 
75200 6.4975965485e+00 1.1875152117e-05 1.7557935897e+00 -3.0411237050e+00 1.7557935897e+00 3.0411237050e+00 
75300 6.4975965487e+00 1.1916687451e-05 1.7557935897e+00 -3.0411237050e+00 1.7557935897e+00 3.0411237050e+00 
75400 6.4975965488e+00 1.1960142532e-05 1.7557935897e+00 -3.0411237050e+00 1.7557935897e+00 3.0411237050e+00 
75500 6.4975965490e+00 1.2005464058e-05 1.7557935897e+00 -3.0411237050e+00 1.7557935897e+00 3.0411237050e+00 
75600 6.4975965492e+00 1.2052596823e-05 1.7557935897e+00 -3.0411237050e+00 1.7557935897e+00 3.0411237050e+00 
75700 6.4975965493e+00 1.2101483868e-05 1.7557935897e+00 -3.0411237050e+00 1.7557935897e+00 3.0411237050e+00 
75800 6.4975965495e+00 1.2152066629e-05 1.7557935897e+00 -3.0411237050e+00 1.7557935897e+00 3.0411237050e+00 
75900 6.4975965496e+00 1.2204285086e-05 1.7557935897e+00 -3.0411237050e+00 1.7557935897e+00 3.0411237050e+00 
76000 6.4975965498e+00 1.2258077912e-05 1.7557935897e+00 -3.0411237050e+00 1.7557935897e+00 3.0411237050e+00 
76100 6.4975965499e+00 1.2313382609e-05 1.7557935897e+00 -3.0411237050e+00 1.7557935897e+00 3.0411237050e+00 
76200 6.4975965500e+00 1.2370135653e-05 1.7557935897e+00 -3.0411237050e+00 1.7557935897e+00 3.0411237050e+00 
76300 6.4975965502e+00 1.2428272632e-05 1.7557935897e+00 -3.0411237050e+00 1.7557935897e+00 3.0411237050e+00 
76400 6.4975965503e+00 1.2487728373e-05 1.7557935897e+00 -3.0411237050e+00 1.7557935897e+00 3.0411237050e+00 
76500 6.4975965505e+00 1.2548437086e-05 1.7557935897e+00 -3.0411237050e+00 1.7557935897e+00 3.0411237050e+00 
76600 6.4975965506e+00 1.2610332478e-05 1.7557935897e+00 -3.0411237050e+00 1.7557935897e+00 3.0411237050e+00 
76700 6.4975965507e+00 1.2673347889e-05 1.7557935897e+00 -3.0411237050e+00 1.7557935897e+00 3.0411237050e+00 
76800 6.4975965509e+00 1.2737416405e-05 1.7557935897e+00 -3.0411237050e+00 1.7557935897e+00 3.0411237050e+00 
76900 6.4975965510e+00 1.2802470980e-05 1.7557935897e+00 -3.0411237050e+00 1.7557935897e+00 3.0411237050e+00 
77000 6.4975965511e+00 1.2868444554e-05 1.7557935897e+00 -3.0411237050e+00 1.7557935897e+00 3.0411237050e+00 
77100 6.4975965513e+00 1.2935270151e-05 1.7557935897e+00 -3.0411237050e+00 1.7557935897e+00 3.0411237050e+00 
77200 6.4975965514e+00 1.3002881003e-05 1.7557935897e+00 -3.0411237050e+00 1.7557935897e+00 3.0411237050e+00 
77300 6.4975965515e+00 1.3071210636e-05 1.7557935897e+00 -3.0411237050e+00 1.7557935897e+00 3.0411237050e+00 
77400 6.4975965516e+00 1.3140192984e-05 1.7557935897e+00 -3.0411237050e+00 1.7557935897e+00 3.0411237050e+00 
77500 6.4975965517e+00 1.3209762476e-05 1.7557935897e+00 -3.0411237050e+00 1.7557935897e+00 3.0411237050e+00 
77600 6.4975965519e+00 1.3279854128e-05 1.7557935897e+00 -3.0411237050e+00 1.7557935897e+00 3.0411237050e+00 
77700 6.4975965520e+00 1.3350403640e-05 1.7557935897e+00 -3.0411237050e+00 1.7557935897e+00 3.0411237050e+00 
77800 6.4975965521e+00 1.3421347464e-05 1.7557935897e+00 -3.0411237050e+00 1.7557935897e+00 3.0411237050e+00 
77900 6.4975965522e+00 1.3492622902e-05 1.7557935897e+00 -3.0411237050e+00 1.7557935897e+00 3.0411237050e+00 
78000 6.4975965523e+00 1.3564168168e-05 1.7557935897e+00 -3.0411237050e+00 1.7557935897e+00 3.0411237050e+00 
78100 6.4975965524e+00 1.3635922468e-05 1.7557935897e+00 -3.0411237050e+00 1.7557935897e+00 3.0411237050e+00 
78200 6.4975965525e+00 1.3707826067e-05 1.7557935897e+00 -3.0411237050e+00 1.7557935897e+00 3.0411237050e+00 
78300 6.4975965526e+00 1.3779820354e-05 1.7557935897e+00 -3.0411237050e+00 1.7557935897e+00 3.0411237050e+00 
78400 6.4975965527e+00 1.3851847900e-05 1.7557935897e+00 -3.0411237050e+00 1.7557935897e+00 3.0411237050e+00 
78500 6.4975965529e+00 1.3923852519e-05 1.7557935897e+00 -3.0411237050e+00 1.7557935897e+00 3.0411237050e+00 
78600 6.4975965530e+00 1.3995779318e-05 1.7557935897e+00 -3.0411237050e+00 1.7557935897e+00 3.0411237050e+00 
78700 6.4975965531e+00 1.4067574749e-05 1.7557935897e+00 -3.0411237050e+00 1.7557935897e+00 3.0411237050e+00 
78800 6.4975965532e+00 1.4139186652e-05 1.7557935897e+00 -3.0411237050e+00 1.7557935897e+00 3.0411237050e+00 
78900 6.4975965533e+00 1.4210564302e-05 1.7557935897e+00 -3.0411237050e+00 1.7557935897e+00 3.0411237050e+00 
79000 6.4975965534e+00 1.4281658442e-05 1.7557935897e+00 -3.0411237050e+00 1.7557935897e+00 3.0411237050e+00 
79100 6.4975965534e+00 1.4352421321e-05 1.7557935897e+00 -3.0411237050e+00 1.7557935897e+00 3.0411237050e+00 
79200 6.4975965535e+00 1.4422806723e-05 1.7557935897e+00 -3.0411237050e+00 1.7557935897e+00 3.0411237050e+00 
79300 6.4975965536e+00 1.4492770001e-05 1.7557935897e+00 -3.0411237050e+00 1.7557935897e+00 3.0411237050e+00 
79400 6.4975965537e+00 1.4562268097e-05 1.7557935897e+00 -3.0411237050e+00 1.7557935897e+00 3.0411237050e+00 
79500 6.4975965538e+00 1.4631259558e-05 1.7557935897e+00 -3.0411237050e+00 1.7557935897e+00 3.0411237050e+00 
79600 6.4975965539e+00 1.4699704569e-05 1.7557935897e+00 -3.0411237050e+00 1.7557935897e+00 3.0411237050e+00 
79700 6.4975965540e+00 1.4767564952e-05 1.7557935897e+00 -3.0411237050e+00 1.7557935897e+00 3.0411237050e+00 
79800 6.4975965541e+00 1.4834804190e-05 1.7557935897e+00 -3.0411237050e+00 1.7557935897e+00 3.0411237050e+00 
79900 6.4975965542e+00 1.4901387426e-05 1.7557935897e+00 -3.0411237050e+00 1.7557935897e+00 3.0411237050e+00 
80000 6.4975965542e+00 1.4967281480e-05 1.7557935897e+00 -3.0411237050e+00 1.7557935897e+00 3.0411237050e+00 
80100 6.4975965543e+00 1.5032454842e-05 1.7557935897e+00 -3.0411237050e+00 1.7557935897e+00 3.0411237050e+00 
80200 6.4975965544e+00 1.5096877678e-05 1.7557935897e+00 -3.0411237050e+00 1.7557935897e+00 3.0411237050e+00 
80300 6.4975965545e+00 1.5160521828e-05 1.7557935897e+00 -3.0411237050e+00 1.7557935897e+00 3.0411237050e+00 
80400 6.4975965546e+00 1.5223360794e-05 1.7557935897e+00 -3.0411237050e+00 1.7557935897e+00 3.0411237050e+00 
80500 6.4975965547e+00 1.5285369747e-05 1.7557935897e+00 -3.0411237050e+00 1.7557935897e+00 3.0411237050e+00 
80600 6.4975965547e+00 1.5346525502e-05 1.7557935897e+00 -3.0411237050e+00 1.7557935897e+00 3.0411237050e+00 
80700 6.4975965548e+00 1.5406806511e-05 1.7557935897e+00 -3.0411237050e+00 1.7557935897e+00 3.0411237050e+00 
80800 6.4975965549e+00 1.5466192860e-05 1.7557935897e+00 -3.0411237050e+00 1.7557935897e+00 3.0411237050e+00 
80900 6.4975965550e+00 1.5524666233e-05 1.7557935897e+00 -3.0411237050e+00 1.7557935897e+00 3.0411237050e+00 
81000 6.4975965550e+00 1.5582209908e-05 1.7557935897e+00 -3.0411237050e+00 1.7557935897e+00 3.0411237050e+00 
81100 6.4975965551e+00 1.5638808733e-05 1.7557935897e+00 -3.0411237050e+00 1.7557935897e+00 3.0411237050e+00 
81200 6.4975965552e+00 1.5694449101e-05 1.7557935897e+00 -3.0411237050e+00 1.7557935897e+00 3.0411237050e+00 
81300 6.4975965552e+00 1.5749118930e-05 1.7557935897e+00 -3.0411237050e+00 1.7557935897e+00 3.0411237050e+00 
81400 6.4975965553e+00 1.5802807635e-05 1.7557935897e+00 -3.0411237050e+00 1.7557935897e+00 3.0411237050e+00 
81500 6.4975965554e+00 1.5855506101e-05 1.7557935897e+00 -3.0411237050e+00 1.7557935897e+00 3.0411237050e+00 
81600 6.4975965554e+00 1.5907206659e-05 1.7557935897e+00 -3.0411237050e+00 1.7557935897e+00 3.0411237050e+00 
81700 6.4975965555e+00 1.5957903045e-05 1.7557935897e+00 -3.0411237050e+00 1.7557935897e+00 3.0411237050e+00 
81800 6.4975965556e+00 1.6007590382e-05 1.7557935897e+00 -3.0411237050e+00 1.7557935897e+00 3.0411237050e+00 
81900 6.4975965556e+00 1.6056265141e-05 1.7557935897e+00 -3.0411237050e+00 1.7557935897e+00 3.0411237050e+00 
82000 6.4975965557e+00 1.6103925102e-05 1.7557935897e+00 -3.0411237050e+00 1.7557935897e+00 3.0411237050e+00 
82100 6.4975965558e+00 1.6150569332e-05 1.7557935897e+00 -3.0411237050e+00 1.7557935897e+00 3.0411237050e+00 
82200 6.4975965558e+00 1.6196198140e-05 1.7557935897e+00 -3.0411237050e+00 1.7557935897e+00 3.0411237050e+00 
82300 6.4975965559e+00 1.6240813043e-05 1.7557935897e+00 -3.0411237050e+00 1.7557935897e+00 3.0411237050e+00 
82400 6.4975965560e+00 1.6284416730e-05 1.7557935897e+00 -3.0411237050e+00 1.7557935897e+00 3.0411237050e+00 
82500 6.4975965560e+00 1.6327013024e-05 1.7557935897e+00 -3.0411237050e+00 1.7557935897e+00 3.0411237050e+00 
82600 6.4975965561e+00 1.6368606840e-05 1.7557935897e+00 -3.0411237050e+00 1.7557935897e+00 3.0411237050e+00 
82700 6.4975965561e+00 1.6409204153e-05 1.7557935897e+00 -3.0411237050e+00 1.7557935897e+00 3.0411237050e+00 
82800 6.4975965562e+00 1.6448811951e-05 1.7557935897e+00 -3.0411237050e+00 1.7557935897e+00 3.0411237050e+00 
82900 6.4975965562e+00 1.6487438199e-05 1.7557935897e+00 -3.0411237050e+00 1.7557935897e+00 3.0411237050e+00 
83000 6.4975965563e+00 1.6525091801e-05 1.7557935897e+00 -3.0411237050e+00 1.7557935897e+00 3.0411237050e+00 
83100 6.4975965564e+00 1.6561782559e-05 1.7557935897e+00 -3.0411237050e+00 1.7557935897e+00 3.0411237050e+00 
83200 6.4975965564e+00 1.6597521127e-05 1.7557935897e+00 -3.0411237050e+00 1.7557935897e+00 3.0411237050e+00 
83300 6.4975965565e+00 1.6632318975e-05 1.7557935897e+00 -3.0411237050e+00 1.7557935897e+00 3.0411237050e+00 
83400 6.4975965565e+00 1.6666188349e-05 1.7557935897e+00 -3.0411237050e+00 1.7557935897e+00 3.0411237050e+00 
83500 6.4975965566e+00 1.6699142231e-05 1.7557935897e+00 -3.0411237050e+00 1.7557935897e+00 3.0411237050e+00 
83600 6.4975965566e+00 1.6731194295e-05 1.7557935897e+00 -3.0411237050e+00 1.7557935897e+00 3.0411237050e+00 
83700 6.4975965567e+00 1.6762358867e-05 1.7557935897e+00 -3.0411237050e+00 1.7557935897e+00 3.0411237050e+00 
83800 6.4975965567e+00 1.6792650887e-05 1.7557935897e+00 -3.0411237050e+00 1.7557935897e+00 3.0411237050e+00 
83900 6.4975965568e+00 1.6822085875e-05 1.7557935897e+00 -3.0411237050e+00 1.7557935897e+00 3.0411237050e+00 
84000 6.4975965568e+00 1.6850679880e-05 1.7557935897e+00 -3.0411237050e+00 1.7557935897e+00 3.0411237050e+00 
84100 6.4975965568e+00 1.6860771022e-05 1.7557935897e+00 -3.0411237050e+00 1.7557935897e+00 3.0411237050e+00 
84100 6.4975965568e+00 1.6860771021e-05 1.7557935897e+00 -3.0411237050e+00 1.7557935897e+00 3.0411237050e+00 
