# step Hamiltonian StressXX CellTensor1 CellTensor2 CellTensor3 CellTensor4 
0 6.2321877066e+00 9.1328010404e-02 2.0436807272e+00 -3.5397588540e+00 2.0436807272e+00 3.5397588540e+00 
100 6.2371861818e+00 9.4727702091e-02 2.0436807272e+00 -3.5397588540e+00 2.0436807272e+00 3.5397588540e+00 
200 6.2405517641e+00 9.6943854675e-02 2.0413635899e+00 -3.5357454544e+00 2.0413635899e+00 3.5357454544e+00 
300 6.2426665061e+00 9.8421038116e-02 2.0389895631e+00 -3.5316335193e+00 2.0389895631e+00 3.5316335193e+00 
400 6.2437201713e+00 9.9271205979e-02 2.0365765640e+00 -3.5274540823e+00 2.0365765640e+00 3.5274540823e+00 
500 6.2439004320e+00 9.9611713856e-02 2.0341398429e+00 -3.5232335575e+00 2.0341398429e+00 3.5232335575e+00 
600 6.2433843161e+00 9.9557349201e-02 2.0316918375e+00 -3.5189934878e+00 2.0316918375e+00 3.5189934878e+00 
700 6.2423318175e+00 9.9213723383e-02 2.0292422210e+00 -3.5147506277e+00 2.0292422210e+00 3.5147506277e+00 
800 6.2408820250e+00 9.8672728815e-02 2.0267981121e+00 -3.5105173069e+00 2.0267981121e+00 3.5105173069e+00 
900 6.2391516482e+00 9.8010227436e-02 2.0243643978e+00 -3.5063019899e+00 2.0243643978e+00 3.5063019899e+00 
1000 6.2372354913e+00 9.7285707943e-02 2.0219441154e+00 -3.5021099379e+00 2.0219441154e+00 3.5021099379e+00 
1100 6.2352082817e+00 9.6543405549e-02 2.0195388463e+00 -3.4979438896e+00 2.0195388463e+00 3.4979438896e+00 
1200 6.2331272645e+00 9.5814315433e-02 2.0171490844e+00 -3.4938047006e+00 2.0171490844e+00 3.4938047006e+00 
1300 6.2310350788e+00 9.5118596273e-02 2.0147745576e+00 -3.4896918996e+00 2.0147745576e+00 3.4896918996e+00 
1400 6.2289625708e+00 9.4467988382e-02 2.0124144920e+00 -3.4856041461e+00 2.0124144920e+00 3.4856041461e+00 
1500 6.2269313363e+00 9.3868009638e-02 2.0100678183e+00 -3.4815395880e+00 2.0100678183e+00 3.4815395880e+00 
1600 6.2249558914e+00 9.3319810535e-02 2.0077333246e+00 -3.4774961262e+00 2.0077333246e+00 3.4774961262e+00 
1700 6.2230454513e+00 9.2821655201e-02 2.0054097644e+00 -3.4734716018e+00 2.0054097644e+00 3.4734716018e+00 
1800 6.2212053405e+00 9.2370048526e-02 2.0030959285e+00 -3.4694639205e+00 2.0030959285e+00 3.4694639205e+00 
1900 6.2194380822e+00 9.1960557059e-02 2.0007906892e+00 -3.4654711290e+00 2.0007906892e+00 3.4654711290e+00 
2000 6.2177442212e+00 9.1588380992e-02 1.9984930243e+00 -3.4614914566e+00 1.9984930243e+00 3.4614914566e+00 
2100 6.2161229368e+00 9.1248733387e-02 1.9962020266e+00 -3.4575233322e+00 1.9962020266e+00 3.4575233322e+00 
2200 6.2145724897e+00 9.0937076100e-02 1.9939169046e+00 -3.4535653849e+00 1.9939169046e+00 3.4535653849e+00 
2300 6.2130905463e+00 9.0649253045e-02 1.9916369770e+00 -3.4496164345e+00 1.9916369770e+00 3.4496164345e+00 
2400 6.2116744089e+00 9.0381552620e-02 1.9893616635e+00 -3.4456754759e+00 1.9893616635e+00 3.4456754759e+00 
2500 6.2103211786e+00 9.0130723211e-02 1.9870904744e+00 -3.4417416609e+00 1.9870904744e+00 3.4417416609e+00 
2600 6.2090278689e+00 8.9893959209e-02 1.9848229994e+00 -3.4378142790e+00 1.9848229994e+00 3.4378142790e+00 
2700 6.2077914829e+00 8.9668869807e-02 1.9825588971e+00 -3.4338927388e+00 1.9825588971e+00 3.4338927388e+00 
2800 6.2066090662e+00 8.9453439006e-02 1.9802978848e+00 -3.4299765505e+00 1.9802978848e+00 3.4299765505e+00 
2900 6.2054777407e+00 8.9245982365e-02 1.9780397292e+00 -3.4260653103e+00 1.9780397292e+00 3.4260653103e+00 
3000 6.2043947269e+00 8.9045104033e-02 1.9757842386e+00 -3.4221586860e+00 1.9757842386e+00 3.4221586860e+00 
3100 6.2033573565e+00 8.8849656126e-02 1.9735312558e+00 -3.4182564053e+00 1.9735312558e+00 3.4182564053e+00 
3200 6.2023630796e+00 8.8658701605e-02 1.9712806518e+00 -3.4143582449e+00 1.9712806518e+00 3.4143582449e+00 
3300 6.2014094668e+00 8.8471481135e-02 1.9690323208e+00 -3.4104640214e+00 1.9690323208e+00 3.4104640214e+00 
3400 6.2004942094e+00 8.8287384001e-02 1.9667861759e+00 -3.4065735844e+00 1.9667861759e+00 3.4065735844e+00 
3500 6.1996151172e+00 8.8105922946e-02 1.9645421452e+00 -3.4026868091e+00 1.9645421452e+00 3.4026868091e+00 
3600 6.1987701151e+00 8.7926712610e-02 1.9623001688e+00 -3.3988035921e+00 1.9623001688e+00 3.3988035921e+00 
3700 6.1979572390e+00 8.7749451231e-02 1.9600601965e+00 -3.3949238462e+00 1.9600601965e+00 3.3949238462e+00 
3800 6.1971746313e+00 8.7573905212e-02 1.9578221853e+00 -3.3910474972e+00 1.9578221853e+00 3.3910474972e+00 
3900 6.1964205361e+00 8.7399896193e-02 1.9555860984e+00 -3.3871744810e+00 1.9555860984e+00 3.3871744810e+00 
4000 6.1956932941e+00 8.7227290272e-02 1.9533519029e+00 -3.3833047409e+00 1.9533519029e+00 3.3833047409e+00 
4100 6.1949913382e+00 8.7055989065e-02 1.9511195695e+00 -3.3794382260e+00 1.9511195695e+00 3.3794382260e+00 
4200 6.1943131883e+00 8.6885922320e-02 1.9488890712e+00 -3.3755748896e+00 1.9488890712e+00 3.3755748896e+00 
4300 6.1936574470e+00 8.6717041837e-02 1.9466603825e+00 -3.3717146875e+00 1.9466603825e+00 3.3717146875e+00 
4400 6.1930227949e+00 8.6549316490e-02 1.9444334792e+00 -3.3678575780e+00 1.9444334792e+00 3.3678575780e+00 
4500 6.1924079867e+00 8.6382728161e-02 1.9422083379e+00 -3.3640035201e+00 1.9422083379e+00 3.3640035201e+00 
4600 6.1918118467e+00 8.6217268432e-02 1.9399849352e+00 -3.3601524737e+00 1.9399849352e+00 3.3601524737e+00 
4700 6.1912332651e+00 8.6052935910e-02 1.9377632481e+00 -3.3563043987e+00 1.9377632481e+00 3.3563043987e+00 
4800 6.1906711945e+00 8.5889734066e-02 1.9355432534e+00 -3.3524592551e+00 1.9355432534e+00 3.3524592551e+00 
4900 6.1901246459e+00 8.5727669504e-02 1.9333249277e+00 -3.3486170023e+00 1.9333249277e+00 3.3486170023e+00 
5000 6.1895926861e+00 8.5566750578e-02 1.9311082474e+00 -3.3447775995e+00 1.9311082474e+00 3.3447775995e+00 
5100 6.1890744338e+00 8.5406986299e-02 1.9288931885e+00 -3.3409410049e+00 1.9288931885e+00 3.3409410049e+00 
5200 6.1885690574e+00 8.5248385468e-02 1.9266797267e+00 -3.3371071765e+00 1.9266797267e+00 3.3371071765e+00 
5300 6.1880757715e+00 8.5090956001e-02 1.9244678372e+00 -3.3332760715e+00 1.9244678372e+00 3.3332760715e+00 
5400 6.1875938346e+00 8.4934704413e-02 1.9222574951e+00 -3.3294476467e+00 1.9222574951e+00 3.3294476467e+00 
5500 6.1871225466e+00 8.4779635414e-02 1.9200486751e+00 -3.3256218582e+00 1.9200486751e+00 3.3256218582e+00 
5600 6.1866612465e+00 8.4625751612e-02 1.9178413516e+00 -3.3217986618e+00 1.9178413516e+00 3.3217986618e+00 
5700 6.1862093099e+00 8.4473053292e-02 1.9156354990e+00 -3.3179780130e+00 1.9156354990e+00 3.3179780130e+00 
5800 6.1857661471e+00 8.4321538255e-02 1.9134310914e+00 -3.3141598670e+00 1.9134310914e+00 3.3141598670e+00 
5900 6.1853312012e+00 8.4171201710e-02 1.9112281028e+00 -3.3103441789e+00 1.9112281028e+00 3.3103441789e+00 
6000 6.1849039461e+00 8.4022036204e-02 1.9090265074e+00 -3.3065309038e+00 1.9090265074e+00 3.3065309038e+00 
6100 6.1844838847e+00 8.3874031575e-02 1.9068262793e+00 -3.3027199970e+00 1.9068262793e+00 3.3027199970e+00 
6200 6.1840705475e+00 8.3727174934e-02 1.9046273928e+00 -3.2989114139e+00 1.9046273928e+00 3.2989114139e+00 
6300 6.1836634908e+00 8.3581450662e-02 1.9024298225e+00 -3.2951051105e+00 1.9024298225e+00 3.2951051105e+00 
6400 6.1832622951e+00 8.3436840417e-02 1.9002335432e+00 -3.2913010430e+00 1.9002335432e+00 3.2913010430e+00 
6500 6.1828665643e+00 8.3293323152e-02 1.8980385299e+00 -3.2874991686e+00 1.8980385299e+00 3.2874991686e+00 
6600 6.1824759238e+00 8.3150875133e-02 1.8958447585e+00 -3.2836994449e+00 1.8958447585e+00 3.2836994449e+00 
6700 6.1820900195e+00 8.3009469972e-02 1.8936522048e+00 -3.2799018306e+00 1.8936522048e+00 3.2799018306e+00 
6800 6.1817085168e+00 8.2869078645e-02 1.8914608458e+00 -3.2761062854e+00 1.8914608458e+00 3.2761062854e+00 
6900 6.1813310993e+00 8.2729669527e-02 1.8892706586e+00 -3.2723127700e+00 1.8892706586e+00 3.2723127700e+00 
7000 6.1809574679e+00 8.2591208414e-02 1.8870816215e+00 -3.2685212465e+00 1.8870816215e+00 3.2685212465e+00 
7100 6.1805873398e+00 8.2453658551e-02 1.8848937133e+00 -3.2647316783e+00 1.8848937133e+00 3.2647316783e+00 
7200 6.1802204476e+00 8.2316980653e-02 1.8827069138e+00 -3.2609440304e+00 1.8827069138e+00 3.2609440304e+00 
7300 6.1798565386e+00 8.2181132929e-02 1.8805212036e+00 -3.2571582694e+00 1.8805212036e+00 3.2571582694e+00 
7400 6.1794953737e+00 8.2046071100e-02 1.8783365646e+00 -3.2533743637e+00 1.8783365646e+00 3.2533743637e+00 
7500 6.1791367271e+00 8.1911748413e-02 1.8761529796e+00 -3.2495922834e+00 1.8761529796e+00 3.2495922834e+00 
7600 6.1787803851e+00 8.1778115663e-02 1.8739704325e+00 -3.2458120009e+00 1.8739704325e+00 3.2458120009e+00 
7700 6.1784261459e+00 8.1645121195e-02 1.8717889085e+00 -3.2420334906e+00 1.8717889085e+00 3.2420334906e+00 
7800 6.1780738187e+00 8.1512710923e-02 1.8696083943e+00 -3.2382567292e+00 1.8696083943e+00 3.2382567292e+00 
7900 6.1777232233e+00 8.1380828333e-02 1.8674288776e+00 -3.2344816956e+00 1.8674288776e+00 3.2344816956e+00 
8000 6.1773741893e+00 8.1249414494e-02 1.8652503480e+00 -3.2307083716e+00 1.8652503480e+00 3.2307083716e+00 
8100 6.1770265562e+00 8.1118408059e-02 1.8630727962e+00 -3.2269367412e+00 1.8630727962e+00 3.2269367412e+00 
8200 6.1766801721e+00 8.0987745272e-02 1.8608962148e+00 -3.2231667917e+00 1.8608962148e+00 3.2231667917e+00 
8300 6.1763348938e+00 8.0857359973e-02 1.8587205980e+00 -3.2193985128e+00 1.8587205980e+00 3.2193985128e+00 
8400 6.1759905865e+00 8.0727183596e-02 1.8565459416e+00 -3.2156318975e+00 1.8565459416e+00 3.2156318975e+00 
8500 6.1756471229e+00 8.0597145180e-02 1.8543722435e+00 -3.2118669419e+00 1.8543722435e+00 3.2118669419e+00 
8600 6.1753043833e+00 8.0467171365e-02 1.8521995032e+00 -3.2081036453e+00 1.8521995032e+00 3.2081036453e+00 
8700 6.1749622551e+00 8.0337186399e-02 1.8500277225e+00 -3.2043420107e+00 1.8500277225e+00 3.2043420107e+00 
8800 6.1746206324e+00 8.0207112143e-02 1.8478569049e+00 -3.2005820444e+00 1.8478569049e+00 3.2005820444e+00 
8900 6.1742794160e+00 8.0076868074e-02 1.8456870563e+00 -3.1968237564e+00 1.8456870563e+00 3.1968237564e+00 
9000 6.1739385128e+00 7.9946371297e-02 1.8435181848e+00 -3.1930671607e+00 1.8435181848e+00 3.1930671607e+00 
9100 6.1735978358e+00 7.9815536547e-02 1.8413503005e+00 -3.1893122750e+00 1.8413503005e+00 3.1893122750e+00 
9200 6.1732573037e+00 7.9684276207e-02 1.8391834162e+00 -3.1855591213e+00 1.8391834162e+00 3.1855591213e+00 
9300 6.1729168409e+00 7.9552500315e-02 1.8370175470e+00 -3.1818077258e+00 1.8370175470e+00 3.1818077258e+00 
9400 6.1725763770e+00 7.9420116583e-02 1.8348527105e+00 -3.1780581189e+00 1.8348527105e+00 3.1780581189e+00 
9500 6.1722358468e+00 7.9287030417e-02 1.8326889268e+00 -3.1743103357e+00 1.8326889268e+00 3.1743103357e+00 
9600 6.1718951904e+00 7.9153144936e-02 1.8305262190e+00 -3.1705644158e+00 1.8305262190e+00 3.1705644158e+00 
9700 6.1715543524e+00 7.9018360999e-02 1.8283646125e+00 -3.1668204037e+00 1.8283646125e+00 3.1668204037e+00 
9800 6.1712132823e+00 7.8882577235e-02 1.8262041360e+00 -3.1630783485e+00 1.8262041360e+00 3.1630783485e+00 
9900 6.1708719343e+00 7.8745690073e-02 1.8240448207e+00 -3.1593383047e+00 1.8240448207e+00 3.1593383047e+00 
10000 6.1705302669e+00 7.8607593785e-02 1.8218867010e+00 -3.1556003318e+00 1.8218867010e+00 3.1556003318e+00 
10100 6.1701882432e+00 7.8468180525e-02 1.8197298143e+00 -3.1518644945e+00 1.8197298143e+00 3.1518644945e+00 
10200 6.1698458303e+00 7.8327340375e-02 1.8175742013e+00 -3.1481308632e+00 1.8175742013e+00 3.1481308632e+00 
10300 6.1695029997e+00 7.8184961401e-02 1.8154199056e+00 -3.1443995135e+00 1.8154199056e+00 3.1443995135e+00 
10400 6.1691597269e+00 7.8040929705e-02 1.8132669743e+00 -3.1406705271e+00 1.8132669743e+00 3.1406705271e+00 
10500 6.1688159915e+00 7.7895129494e-02 1.8111154578e+00 -3.1369439913e+00 1.8111154578e+00 3.1369439913e+00 
10600 6.1684717771e+00 7.7747443145e-02 1.8089654100e+00 -3.1332199993e+00 1.8089654100e+00 3.1332199993e+00 
10700 6.1681270709e+00 7.7597751280e-02 1.8068168882e+00 -3.1294986504e+00 1.8068168882e+00 3.1294986504e+00 
10800 6.1677818644e+00 7.7445932847e-02 1.8046699534e+00 -3.1257800502e+00 1.8046699534e+00 3.1257800502e+00 
10900 6.1674361524e+00 7.7291865208e-02 1.8025246701e+00 -3.1220643104e+00 1.8025246701e+00 3.1220643104e+00 
11000 6.1670899339e+00 7.7135424231e-02 1.8003811065e+00 -3.1183515494e+00 1.8003811065e+00 3.1183515494e+00 
11100 6.1667432113e+00 7.6976484391e-02 1.7982393347e+00 -3.1146418919e+00 1.7982393347e+00 3.1146418919e+00 
11200 6.1663959906e+00 7.6814918874e-02 1.7960994305e+00 -3.1109354692e+00 1.7960994305e+00 3.1109354692e+00 
11300 6.1660482817e+00 7.6650599694e-02 1.7939614738e+00 -3.1072324194e+00 1.7939614738e+00 3.1072324194e+00 
11400 6.1657000978e+00 7.6483397813e-02 1.7918255481e+00 -3.1035328876e+00 1.7918255481e+00 3.1035328876e+00 
11500 6.1653514558e+00 7.6313183265e-02 1.7896917411e+00 -3.0998370255e+00 1.7896917411e+00 3.0998370255e+00 
11600 6.1650023760e+00 7.6139825291e-02 1.7875601446e+00 -3.0961449921e+00 1.7875601446e+00 3.0961449921e+00 
11700 6.1646528821e+00 7.5963192482e-02 1.7854308543e+00 -3.0924569531e+00 1.7854308543e+00 3.0924569531e+00 
11800 6.1643030015e+00 7.5783152925e-02 1.7833039703e+00 -3.0887730818e+00 1.7833039703e+00 3.0887730818e+00 
11900 6.1639527646e+00 7.5599574359e-02 1.7811795964e+00 -3.0850935584e+00 1.7811795964e+00 3.0850935584e+00 
12000 6.1636022056e+00 7.5412324335e-02 1.7790578411e+00 -3.0814185705e+00 1.7790578411e+00 3.0814185705e+00 
12100 6.1632513617e+00 7.5221270386e-02 1.7769388169e+00 -3.0777483128e+00 1.7769388169e+00 3.0777483128e+00 
12200 6.1629002734e+00 7.5026280200e-02 1.7748226405e+00 -3.0740829878e+00 1.7748226405e+00 3.0740829878e+00 
12300 6.1625489846e+00 7.4827221802e-02 1.7727094330e+00 -3.0704228050e+00 1.7727094330e+00 3.0704228050e+00 
12400 6.1621975423e+00 7.4623963742e-02 1.7705993197e+00 -3.0667679815e+00 1.7705993197e+00 3.0667679815e+00 
12500 6.1618459965e+00 7.4416375286e-02 1.7684924301e+00 -3.0631187418e+00 1.7684924301e+00 3.0631187418e+00 
12600 6.1614944006e+00 7.4204326621e-02 1.7663888983e+00 -3.0594753178e+00 1.7663888983e+00 3.0594753178e+00 
12700 6.1611428108e+00 7.3987689051e-02 1.7642888624e+00 -3.0558379489e+00 1.7642888624e+00 3.0558379489e+00 
12800 6.1607912863e+00 7.3766335213e-02 1.7621924649e+00 -3.0522068819e+00 1.7621924649e+00 3.0522068819e+00 
12900 6.1604398893e+00 7.3540139290e-02 1.7600998525e+00 -3.0485823709e+00 1.7600998525e+00 3.0485823709e+00 
13000 6.1600886849e+00 7.3308977229e-02 1.7580111763e+00 -3.0449646775e+00 1.7580111763e+00 3.0449646775e+00 
13100 6.1597377408e+00 7.3072726964e-02 1.7559265914e+00 -3.0413540707e+00 1.7559265914e+00 3.0413540707e+00 
13200 6.1593871274e+00 7.2831268640e-02 1.7538462573e+00 -3.0377508264e+00 1.7538462573e+00 3.0377508264e+00 
13300 6.1590369180e+00 7.2584484848e-02 1.7517703376e+00 -3.0341552279e+00 1.7517703376e+00 3.0341552279e+00 
13400 6.1586871880e+00 7.2332260851e-02 1.7496989998e+00 -3.0305675657e+00 1.7496989998e+00 3.0305675657e+00 
13500 6.1583380156e+00 7.2074484819e-02 1.7476324158e+00 -3.0269881370e+00 1.7476324158e+00 3.0269881370e+00 
13600 6.1579894810e+00 7.1811048066e-02 1.7455707610e+00 -3.0234172462e+00 1.7455707610e+00 3.0234172462e+00 
13700 6.1576416669e+00 7.1541845283e-02 1.7435142151e+00 -3.0198552042e+00 1.7435142151e+00 3.0198552042e+00 
13800 6.1572946580e+00 7.1266774774e-02 1.7414629614e+00 -3.0163023287e+00 1.7414629614e+00 3.0163023287e+00 
13900 6.1569485410e+00 7.0985738694e-02 1.7394171872e+00 -3.0127589437e+00 1.7394171872e+00 3.0127589437e+00 
14000 6.1566034043e+00 7.0698643278e-02 1.7373770830e+00 -3.0092253797e+00 1.7373770830e+00 3.0092253797e+00 
14100 6.1562593382e+00 7.0405399080e-02 1.7353428434e+00 -3.0057019732e+00 1.7353428434e+00 3.0057019732e+00 
14200 6.1559164347e+00 7.0105921194e-02 1.7333146659e+00 -3.0021890668e+00 1.7333146659e+00 3.0021890668e+00 
14300 6.1555747869e+00 6.9800129486e-02 1.7312927516e+00 -2.9986870085e+00 1.7312927516e+00 2.9986870085e+00 
14400 6.1552344895e+00 6.9487948815e-02 1.7292773048e+00 -2.9951961523e+00 1.7292773048e+00 2.9951961523e+00 
14500 6.1548956383e+00 6.9169309246e-02 1.7272685328e+00 -2.9917168571e+00 1.7272685328e+00 2.9917168571e+00 
14600 6.1545583299e+00 6.8844146269e-02 1.7252666457e+00 -2.9882494870e+00 1.7252666457e+00 2.9882494870e+00 
14700 6.1542226618e+00 6.8512400995e-02 1.7232718566e+00 -2.9847944110e+00 1.7232718566e+00 2.9847944110e+00 
14800 6.1538887324e+00 6.8174020362e-02 1.7212843811e+00 -2.9813520023e+00 1.7212843811e+00 2.9813520023e+00 
14900 6.1535566402e+00 6.7828957319e-02 1.7193044371e+00 -2.9779226387e+00 1.7193044371e+00 2.9779226387e+00 
15000 6.1532264841e+00 6.7477171014e-02 1.7173322450e+00 -2.9745067018e+00 1.7173322450e+00 2.9745067018e+00 
15100 6.1528983633e+00 6.7118626959e-02 1.7153680272e+00 -2.9711045768e+00 1.7153680272e+00 2.9711045768e+00 
15200 6.1525723767e+00 6.6753297198e-02 1.7134120081e+00 -2.9677166523e+00 1.7134120081e+00 2.9677166523e+00 
15300 6.1522486229e+00 6.6381160458e-02 1.7114644136e+00 -2.9643433198e+00 1.7114644136e+00 2.9643433198e+00 
15400 6.1519272004e+00 6.6002202286e-02 1.7095254715e+00 -2.9609849734e+00 1.7095254715e+00 2.9609849734e+00 
15500 6.1516082066e+00 6.5616415183e-02 1.7075954105e+00 -2.9576420098e+00 1.7075954105e+00 2.9576420098e+00 
15600 6.1512917384e+00 6.5223798715e-02 1.7056744609e+00 -2.9543148274e+00 1.7056744609e+00 2.9543148274e+00 
15700 6.1509778914e+00 6.4824359622e-02 1.7037628535e+00 -2.9510038262e+00 1.7037628535e+00 2.9510038262e+00 
15800 6.1506667601e+00 6.4418111900e-02 1.7018608199e+00 -2.9477094075e+00 1.7018608199e+00 2.9477094075e+00 
15900 6.1503584376e+00 6.4005076886e-02 1.6999685923e+00 -2.9444319732e+00 1.6999685923e+00 2.9444319732e+00 
16000 6.1500530153e+00 6.3585283311e-02 1.6980864031e+00 -2.9411719258e+00 1.6980864031e+00 2.9411719258e+00 
16100 6.1497505829e+00 6.3158767353e-02 1.6962144847e+00 -2.9379296680e+00 1.6962144847e+00 2.9379296680e+00 
16200 6.1494512280e+00 6.2725572664e-02 1.6943530691e+00 -2.9347056016e+00 1.6943530691e+00 2.9347056016e+00 
16300 6.1491550360e+00 6.2285750391e-02 1.6925023881e+00 -2.9315001282e+00 1.6925023881e+00 2.9315001282e+00 
16400 6.1488620900e+00 6.1839359173e-02 1.6906626728e+00 -2.9283136477e+00 1.6906626728e+00 2.9283136477e+00 
16500 6.1485724705e+00 6.1386465128e-02 1.6888341531e+00 -2.9251465588e+00 1.6888341531e+00 2.9251465588e+00 
16600 6.1482862554e+00 6.0927141823e-02 1.6870170581e+00 -2.9219992579e+00 1.6870170581e+00 2.9219992579e+00 
16700 6.1480035195e+00 6.0461470226e-02 1.6852116152e+00 -2.9188721390e+00 1.6852116152e+00 2.9188721390e+00 
16800 6.1477243349e+00 5.9989538648e-02 1.6834180501e+00 -2.9157655932e+00 1.6834180501e+00 2.9157655932e+00 
16900 6.1474487701e+00 5.9511442662e-02 1.6816365870e+00 -2.9126800085e+00 1.6816365870e+00 2.9126800085e+00 
17000 6.1471768907e+00 5.9027285010e-02 1.6798674475e+00 -2.9096157690e+00 1.6798674475e+00 2.9096157690e+00 
17100 6.1469087584e+00 5.8537175498e-02 1.6781108510e+00 -2.9065732546e+00 1.6781108510e+00 2.9065732546e+00 
17200 6.1466444317e+00 5.8041230870e-02 1.6763670143e+00 -2.9035528409e+00 1.6763670143e+00 2.9035528409e+00 
17300 6.1463839651e+00 5.7539574674e-02 1.6746361513e+00 -2.9005548983e+00 1.6746361513e+00 2.9005548983e+00 
17400 6.1461274094e+00 5.7032337104e-02 1.6729184730e+00 -2.8975797921e+00 1.6729184730e+00 2.8975797921e+00 
17500 6.1458748115e+00 5.6519654842e-02 1.6712141866e+00 -2.8946278816e+00 1.6712141866e+00 2.8946278816e+00 
17600 6.1456262144e+00 5.6001670871e-02 1.6695234963e+00 -2.8916995200e+00 1.6695234963e+00 2.8916995200e+00 
17700 6.1453816566e+00 5.5478534290e-02 1.6678466021e+00 -2.8887950540e+00 1.6678466021e+00 2.8887950540e+00 
17800 6.1451411731e+00 5.4950400104e-02 1.6661837002e+00 -2.8859148235e+00 1.6661837002e+00 2.8859148235e+00 
17900 6.1449047941e+00 5.4417429016e-02 1.6645349826e+00 -2.8830591609e+00 1.6645349826e+00 2.8830591609e+00 
18000 6.1446725460e+00 5.3879787190e-02 1.6629006369e+00 -2.8802283910e+00 1.6629006369e+00 2.8802283910e+00 
18100 6.1444444507e+00 5.3337646024e-02 1.6612808459e+00 -2.8774228307e+00 1.6612808459e+00 2.8774228307e+00 
18200 6.1442205259e+00 5.2791181896e-02 1.6596757877e+00 -2.8746427884e+00 1.6596757877e+00 2.8746427884e+00 
18300 6.1440007850e+00 5.2240575914e-02 1.6580856355e+00 -2.8718885640e+00 1.6580856355e+00 2.8718885640e+00 
18400 6.1437852372e+00 5.1686013650e-02 1.6565105571e+00 -2.8691604482e+00 1.6565105571e+00 2.8691604482e+00 
18500 6.1435738873e+00 5.1127684870e-02 1.6549507152e+00 -2.8664587227e+00 1.6549507152e+00 2.8664587227e+00 
18600 6.1433667359e+00 5.0565783255e-02 1.6534062667e+00 -2.8637836594e+00 1.6534062667e+00 2.8637836594e+00 
18700 6.1431637796e+00 5.0000506123e-02 1.6518773629e+00 -2.8611355204e+00 1.6518773629e+00 2.8611355204e+00 
18800 6.1429650107e+00 4.9432054137e-02 1.6503641493e+00 -2.8585145576e+00 1.6503641493e+00 2.8585145576e+00 
18900 6.1427704175e+00 4.8860631016e-02 1.6488667655e+00 -2.8559210128e+00 1.6488667655e+00 2.8559210128e+00 
19000 6.1425799842e+00 4.8286443238e-02 1.6473853448e+00 -2.8533551169e+00 1.6473853448e+00 2.8533551169e+00 
19100 6.1423936911e+00 4.7709699747e-02 1.6459200144e+00 -2.8508170901e+00 1.6459200144e+00 2.8508170901e+00 
19200 6.1422115150e+00 4.7130611648e-02 1.6444708950e+00 -2.8483071418e+00 1.6444708950e+00 2.8483071418e+00 
19300 6.1420334285e+00 4.6549391914e-02 1.6430381010e+00 -2.8458254698e+00 1.6430381010e+00 2.8458254698e+00 
19400 6.1418594011e+00 4.5966255083e-02 1.6416217402e+00 -2.8433722608e+00 1.6416217402e+00 2.8433722608e+00 
19500 6.1416893984e+00 4.5381416960e-02 1.6402219136e+00 -2.8409476900e+00 1.6402219136e+00 2.8409476900e+00 
19600 6.1415233829e+00 4.4795094320e-02 1.6388387156e+00 -2.8385519208e+00 1.6388387156e+00 2.8385519208e+00 
19700 6.1413613140e+00 4.4207504615e-02 1.6374722339e+00 -2.8361851050e+00 1.6374722339e+00 2.8361851050e+00 
19800 6.1412031477e+00 4.3618865676e-02 1.6361225491e+00 -2.8338473825e+00 1.6361225491e+00 2.8338473825e+00 
19900 6.1410488373e+00 4.3029395432e-02 1.6347897352e+00 -2.8315388811e+00 1.6347897352e+00 2.8315388811e+00 
20000 6.1408983334e+00 4.2439311622e-02 1.6334738590e+00 -2.8292597167e+00 1.6334738590e+00 2.8292597167e+00 
20100 6.1407515839e+00 4.1848831514e-02 1.6321749805e+00 -2.8270099931e+00 1.6321749805e+00 2.8270099931e+00 
20200 6.1406085342e+00 4.1258171635e-02 1.6308931526e+00 -2.8247898020e+00 1.6308931526e+00 2.8247898020e+00 
20300 6.1404691275e+00 4.0667547500e-02 1.6296284212e+00 -2.8225992231e+00 1.6296284212e+00 2.8225992231e+00 
20400 6.1403333051e+00 4.0077173350e-02 1.6283808254e+00 -2.8204383236e+00 1.6283808254e+00 2.8204383236e+00 
20500 6.1402010059e+00 3.9487261900e-02 1.6271503969e+00 -2.8183071590e+00 1.6271503969e+00 2.8183071590e+00 
20600 6.1400721675e+00 3.8898024089e-02 1.6259371609e+00 -2.8162057725e+00 1.6259371609e+00 2.8162057725e+00 
20700 6.1399467256e+00 3.8309668838e-02 1.6247411352e+00 -2.8141341953e+00 1.6247411352e+00 2.8141341953e+00 
20800 6.1398246146e+00 3.7722402825e-02 1.6235623310e+00 -2.8120924466e+00 1.6235623310e+00 2.8120924466e+00 
20900 6.1397057676e+00 3.7136430254e-02 1.6224007526e+00 -2.8100805337e+00 1.6224007526e+00 2.8100805337e+00 
21000 6.1395901168e+00 3.6551952644e-02 1.6212563972e+00 -2.8080984520e+00 1.6212563972e+00 2.8080984520e+00 
21100 6.1394775932e+00 3.5969168623e-02 1.6201292555e+00 -2.8061461853e+00 1.6201292555e+00 2.8061461853e+00 
21200 6.1393681272e+00 3.5388273731e-02 1.6190193114e+00 -2.8042237057e+00 1.6190193114e+00 2.8042237057e+00 
21300 6.1392616487e+00 3.4809460229e-02 1.6179265422e+00 -2.8023309739e+00 1.6179265422e+00 2.8023309739e+00 
21400 6.1391580869e+00 3.4232916925e-02 1.6168509185e+00 -2.8004679392e+00 1.6168509185e+00 2.8004679392e+00 
21500 6.1390573709e+00 3.3658829005e-02 1.6157924048e+00 -2.7986345395e+00 1.6157924048e+00 2.7986345395e+00 
21600 6.1389594297e+00 3.3087377870e-02 1.6147509588e+00 -2.7968307022e+00 1.6147509588e+00 2.7968307022e+00 
21700 6.1388641923e+00 3.2518740990e-02 1.6137265322e+00 -2.7950563432e+00 1.6137265322e+00 2.7950563432e+00 
21800 6.1387715877e+00 3.1953091763e-02 1.6127190704e+00 -2.7933113683e+00 1.6127190704e+00 2.7933113683e+00 
21900 6.1386815452e+00 3.1390599386e-02 1.6117285130e+00 -2.7915956725e+00 1.6117285130e+00 2.7915956725e+00 
22000 6.1385939948e+00 3.0831428731e-02 1.6107547933e+00 -2.7899091404e+00 1.6107547933e+00 2.7899091404e+00 
22100 6.1385088667e+00 3.0275740239e-02 1.6097978390e+00 -2.7882516470e+00 1.6097978390e+00 2.7882516470e+00 
22200 6.1384260918e+00 2.9723689814e-02 1.6088575721e+00 -2.7866230571e+00 1.6088575721e+00 2.7866230571e+00 
22300 6.1383456019e+00 2.9175428733e-02 1.6079339091e+00 -2.7850232258e+00 1.6079339091e+00 2.7850232258e+00 
22400 6.1382673295e+00 2.8631103564e-02 1.6070267610e+00 -2.7834519992e+00 1.6070267610e+00 2.7834519992e+00 
22500 6.1381912081e+00 2.8090856091e-02 1.6061360336e+00 -2.7819092141e+00 1.6061360336e+00 2.7819092141e+00 
22600 6.1381171722e+00 2.7554823248e-02 1.6052616274e+00 -2.7803946981e+00 1.6052616274e+00 2.7803946981e+00 
22700 6.1380451575e+00 2.7023137067e-02 1.6044034381e+00 -2.7789082707e+00 1.6044034381e+00 2.7789082707e+00 
22800 6.1379751008e+00 2.6495924628e-02 1.6035613565e+00 -2.7774497426e+00 1.6035613565e+00 2.7774497426e+00 
22900 6.1379069401e+00 2.5973308019e-02 1.6027352688e+00 -2.7760189166e+00 1.6027352688e+00 2.7760189166e+00 
23000 6.1378406148e+00 2.5455404311e-02 1.6019250564e+00 -2.7746155876e+00 1.6019250564e+00 2.7746155876e+00 
23100 6.1377760658e+00 2.4942325528e-02 1.6011305967e+00 -2.7732395430e+00 1.6011305967e+00 2.7732395430e+00 
23200 6.1377132350e+00 2.4434178639e-02 1.6003517626e+00 -2.7718905628e+00 1.6003517626e+00 2.7718905628e+00 
23300 6.1376520661e+00 2.3931065545e-02 1.5995884231e+00 -2.7705684199e+00 1.5995884231e+00 2.7705684199e+00 
23400 6.1375925041e+00 2.3433083084e-02 1.5988404432e+00 -2.7692728808e+00 1.5988404432e+00 2.7692728808e+00 
23500 6.1375344957e+00 2.2940323037e-02 1.5981076842e+00 -2.7680037051e+00 1.5981076842e+00 2.7680037051e+00 
23600 6.1374779890e+00 2.2452872139e-02 1.5973900040e+00 -2.7667606465e+00 1.5973900040e+00 2.7667606465e+00 
23700 6.1374229334e+00 2.1970812103e-02 1.5966872569e+00 -2.7655434527e+00 1.5966872569e+00 2.7655434527e+00 
23800 6.1373692804e+00 2.1494219646e-02 1.5959992939e+00 -2.7643518660e+00 1.5959992939e+00 2.7643518660e+00 
23900 6.1373169825e+00 2.1023166523e-02 1.5953259632e+00 -2.7631856229e+00 1.5953259632e+00 2.7631856229e+00 
24000 6.1372659941e+00 2.0557719561e-02 1.5946671098e+00 -2.7620444553e+00 1.5946671098e+00 2.7620444553e+00 
24100 6.1372162711e+00 2.0097940711e-02 1.5940225761e+00 -2.7609280902e+00 1.5940225761e+00 2.7609280902e+00 
24200 6.1371677707e+00 1.9643887091e-02 1.5933922019e+00 -2.7598362500e+00 1.5933922019e+00 2.7598362500e+00 
24300 6.1371204520e+00 1.9195611044e-02 1.5927758244e+00 -2.7587686530e+00 1.5927758244e+00 2.7587686530e+00 
24400 6.1370742754e+00 1.8753160195e-02 1.5921732789e+00 -2.7577250134e+00 1.5921732789e+00 2.7577250134e+00 
24500 6.1370292026e+00 1.8316577518e-02 1.5915843981e+00 -2.7567050421e+00 1.5915843981e+00 2.7567050421e+00 
24600 6.1369851972e+00 1.7885901400e-02 1.5910090132e+00 -2.7557084461e+00 1.5910090132e+00 2.7557084461e+00 
24700 6.1369422239e+00 1.7461165718e-02 1.5904469533e+00 -2.7547349298e+00 1.5904469533e+00 2.7547349298e+00 
24800 6.1369002488e+00 1.7042399908e-02 1.5898980459e+00 -2.7537841944e+00 1.5898980459e+00 2.7537841944e+00 
24900 6.1368592395e+00 1.6629629053e-02 1.5893621171e+00 -2.7528559385e+00 1.5893621171e+00 2.7528559385e+00 
25000 6.1368191650e+00 1.6222873957e-02 1.5888389917e+00 -2.7519498586e+00 1.5888389917e+00 2.7519498586e+00 
25100 6.1367799954e+00 1.5822151235e-02 1.5883284929e+00 -2.7510656489e+00 1.5883284929e+00 2.7510656489e+00 
25200 6.1367417021e+00 1.5427473402e-02 1.5878304435e+00 -2.7502030019e+00 1.5878304435e+00 2.7502030019e+00 
25300 6.1367042579e+00 1.5038848963e-02 1.5873446647e+00 -2.7493616084e+00 1.5873446647e+00 2.7493616084e+00 
25400 6.1366676365e+00 1.4656282502e-02 1.5868709774e+00 -2.7485411579e+00 1.5868709774e+00 2.7485411579e+00 
25500 6.1366318129e+00 1.4279774784e-02 1.5864092016e+00 -2.7477413388e+00 1.5864092016e+00 2.7477413388e+00 
25600 6.1365967632e+00 1.3909322850e-02 1.5859591569e+00 -2.7469618386e+00 1.5859591569e+00 2.7469618386e+00 
25700 6.1365624646e+00 1.3544920112e-02 1.5855206626e+00 -2.7462023441e+00 1.5855206626e+00 2.7462023441e+00 
25800 6.1365288950e+00 1.3186556458e-02 1.5850935376e+00 -2.7454625418e+00 1.5850935376e+00 2.7454625418e+00 
25900 6.1364960336e+00 1.2834218354e-02 1.5846776006e+00 -2.7447421179e+00 1.5846776006e+00 2.7447421179e+00 
26000 6.1364638604e+00 1.2487888942e-02 1.5842726706e+00 -2.7440407585e+00 1.5842726706e+00 2.7440407585e+00 
26100 6.1364323563e+00 1.2147548148e-02 1.5838785663e+00 -2.7433581499e+00 1.5838785663e+00 2.7433581499e+00 
26200 6.1364015029e+00 1.1813172785e-02 1.5834951071e+00 -2.7426939790e+00 1.5834951071e+00 2.7426939790e+00 
26300 6.1363712827e+00 1.1484736658e-02 1.5831221123e+00 -2.7420479331e+00 1.5831221123e+00 2.7420479331e+00 
26400 6.1363416791e+00 1.1162210669e-02 1.5827594019e+00 -2.7414197002e+00 1.5827594019e+00 2.7414197002e+00 
26500 6.1363126759e+00 1.0845562925e-02 1.5824067963e+00 -2.7408089694e+00 1.5824067963e+00 2.7408089694e+00 
26600 6.1362842578e+00 1.0534758838e-02 1.5820641166e+00 -2.7402154309e+00 1.5820641166e+00 2.7402154309e+00 
26700 6.1362564101e+00 1.0229761237e-02 1.5817311848e+00 -2.7396387761e+00 1.5817311848e+00 2.7396387761e+00 
26800 6.1362291185e+00 9.9305304691e-03 1.5814078236e+00 -2.7390786979e+00 1.5814078236e+00 2.7390786979e+00 
26900 6.1362023696e+00 9.6370245076e-03 1.5810938564e+00 -2.7385348909e+00 1.5810938564e+00 2.7385348909e+00 
27000 6.1361761502e+00 9.3491990530e-03 1.5807891081e+00 -2.7380070512e+00 1.5807891081e+00 2.7380070512e+00 
27100 6.1361504478e+00 9.0670076394e-03 1.5804934043e+00 -2.7374948772e+00 1.5804934043e+00 2.7374948772e+00 
27200 6.1361252504e+00 8.7904017363e-03 1.5802065719e+00 -2.7369980690e+00 1.5802065719e+00 2.7369980690e+00 
27300 6.1361005462e+00 8.5193308516e-03 1.5799284391e+00 -2.7365163289e+00 1.5799284391e+00 2.7365163289e+00 
27400 6.1360763240e+00 8.2537426319e-03 1.5796588355e+00 -2.7360493617e+00 1.5796588355e+00 2.7360493617e+00 
27500 6.1360525730e+00 7.9935829637e-03 1.5793975919e+00 -2.7355968746e+00 1.5793975919e+00 2.7355968746e+00 
27600 6.1360292825e+00 7.7387960710e-03 1.5791445407e+00 -2.7351585770e+00 1.5791445407e+00 2.7351585770e+00 
27700 6.1360064424e+00 7.4893246141e-03 1.5788995158e+00 -2.7347341814e+00 1.5788995158e+00 2.7347341814e+00 
27800 6.1359840429e+00 7.2451097850e-03 1.5786623526e+00 -2.7343234027e+00 1.5786623526e+00 2.7343234027e+00 
27900 6.1359620742e+00 7.0060914026e-03 1.5784328882e+00 -2.7339259588e+00 1.5784328882e+00 2.7339259588e+00 
28000 6.1359405271e+00 6.7722080058e-03 1.5782109616e+00 -2.7335415705e+00 1.5782109616e+00 2.7335415705e+00 
28100 6.1359193924e+00 6.5433969450e-03 1.5779964131e+00 -2.7331699617e+00 1.5779964131e+00 2.7331699617e+00 
28200 6.1358986614e+00 6.3195944722e-03 1.5777890852e+00 -2.7328108592e+00 1.5777890852e+00 2.7328108592e+00 
28300 6.1358783252e+00 6.1007358292e-03 1.5775888220e+00 -2.7324639932e+00 1.5775888220e+00 2.7324639932e+00 
28400 6.1358583756e+00 5.8867553335e-03 1.5773954697e+00 -2.7321290971e+00 1.5773954697e+00 2.7321290971e+00 
28500 6.1358388042e+00 5.6775864636e-03 1.5772088760e+00 -2.7318059074e+00 1.5772088760e+00 2.7318059074e+00 
28600 6.1358196029e+00 5.4731619407e-03 1.5770288910e+00 -2.7314941643e+00 1.5770288910e+00 2.7314941643e+00 
28700 6.1358007639e+00 5.2734138103e-03 1.5768553666e+00 -2.7311936111e+00 1.5768553666e+00 2.7311936111e+00 
28800 6.1357822793e+00 5.0782735199e-03 1.5766881565e+00 -2.7309039948e+00 1.5766881565e+00 2.7309039948e+00 
28900 6.1357641415e+00 4.8876719965e-03 1.5765271169e+00 -2.7306250659e+00 1.5765271169e+00 2.7306250659e+00 
29000 6.1357463430e+00 4.7015397204e-03 1.5763721055e+00 -2.7303565784e+00 1.5763721055e+00 2.7303565784e+00 
29100 6.1357288765e+00 4.5198067984e-03 1.5762229826e+00 -2.7300982898e+00 1.5762229826e+00 2.7300982898e+00 
29200 6.1357117347e+00 4.3424030336e-03 1.5760796101e+00 -2.7298499615e+00 1.5760796101e+00 2.7298499615e+00 
29300 6.1356949106e+00 4.1692579943e-03 1.5759418525e+00 -2.7296113583e+00 1.5759418525e+00 2.7296113583e+00 
29400 6.1356783971e+00 4.0003010795e-03 1.5758095761e+00 -2.7293822488e+00 1.5758095761e+00 2.7293822488e+00 
29500 6.1356621874e+00 3.8354615834e-03 1.5756826493e+00 -2.7291624052e+00 1.5756826493e+00 2.7291624052e+00 
29600 6.1356462746e+00 3.6746687569e-03 1.5755609430e+00 -2.7289516036e+00 1.5755609430e+00 2.7289516036e+00 
29700 6.1356306522e+00 3.5178518676e-03 1.5754443298e+00 -2.7287496237e+00 1.5754443298e+00 2.7287496237e+00 
29800 6.1356153136e+00 3.3649402574e-03 1.5753326848e+00 -2.7285562488e+00 1.5753326848e+00 2.7285562488e+00 
29900 6.1356002523e+00 3.2158633976e-03 1.5752258850e+00 -2.7283712663e+00 1.5752258850e+00 2.7283712663e+00 
30000 6.1355854620e+00 3.0705509424e-03 1.5751238099e+00 -2.7281944669e+00 1.5751238099e+00 2.7281944669e+00 
30100 6.1355709363e+00 2.9289327801e-03 1.5750263407e+00 -2.7280256454e+00 1.5750263407e+00 2.7280256454e+00 
30200 6.1355566693e+00 2.7909390820e-03 1.5749333612e+00 -2.7278646001e+00 1.5749333612e+00 2.7278646001e+00 
30300 6.1355426547e+00 2.6565003496e-03 1.5748447570e+00 -2.7277111332e+00 1.5748447570e+00 2.7277111332e+00 
30400 6.1355288868e+00 2.5255474592e-03 1.5747604161e+00 -2.7275650505e+00 1.5747604161e+00 2.7275650505e+00 
30500 6.1355153595e+00 2.3980117050e-03 1.5746802285e+00 -2.7274261614e+00 1.5746802285e+00 2.7274261614e+00 
30600 6.1355020673e+00 2.2738248397e-03 1.5746040863e+00 -2.7272942793e+00 1.5746040863e+00 2.7272942793e+00 
30700 6.1354890044e+00 2.1529191134e-03 1.5745318838e+00 -2.7271692209e+00 1.5745318838e+00 2.7271692209e+00 
30800 6.1354761654e+00 2.0352273104e-03 1.5744635173e+00 -2.7270508067e+00 1.5744635173e+00 2.7270508067e+00 
30900 6.1354635448e+00 1.9206827841e-03 1.5743988854e+00 -2.7269388608e+00 1.5743988854e+00 2.7269388608e+00 
31000 6.1354511372e+00 1.8092194899e-03 1.5743378884e+00 -2.7268332110e+00 1.5743378884e+00 2.7268332110e+00 
31100 6.1354389376e+00 1.7007720165e-03 1.5742804291e+00 -2.7267336885e+00 1.5742804291e+00 2.7267336885e+00 
31200 6.1354269407e+00 1.5952756148e-03 1.5742264119e+00 -2.7266401281e+00 1.5742264119e+00 2.7266401281e+00 
31300 6.1354151416e+00 1.4926662256e-03 1.5741757437e+00 -2.7265523681e+00 1.5741757437e+00 2.7265523681e+00 
31400 6.1354035353e+00 1.3928805052e-03 1.5741283329e+00 -2.7264702501e+00 1.5741283329e+00 2.7264702501e+00 
31500 6.1353921172e+00 1.2958558491e-03 1.5740840901e+00 -2.7263936195e+00 1.5740840901e+00 2.7263936195e+00 
31600 6.1353808825e+00 1.2015304148e-03 1.5740429281e+00 -2.7263223248e+00 1.5740429281e+00 2.7263223248e+00 
31700 6.1353698266e+00 1.1098431417e-03 1.5740047612e+00 -2.7262562178e+00 1.5740047612e+00 2.7262562178e+00 
31800 6.1353589452e+00 1.0207337706e-03 1.5739695060e+00 -2.7261951539e+00 1.5739695060e+00 2.7261951539e+00 
31900 6.1353482339e+00 9.3414286069e-04 1.5739370806e+00 -2.7261389916e+00 1.5739370806e+00 2.7261389916e+00 
32000 6.1353376885e+00 8.5001180583e-04 1.5739074054e+00 -2.7260875925e+00 1.5739074054e+00 2.7260875925e+00 
32100 6.1353273048e+00 7.6828284863e-04 1.5738804022e+00 -2.7260408217e+00 1.5738804022e+00 2.7260408217e+00 
32200 6.1353170789e+00 6.8889909354e-04 1.5738559950e+00 -2.7259985471e+00 1.5738559950e+00 2.7259985471e+00 
32300 6.1353070068e+00 6.1180451837e-04 1.5738341093e+00 -2.7259606401e+00 1.5738341093e+00 2.7259606401e+00 
32400 6.1352970848e+00 5.3694398449e-04 1.5738146726e+00 -2.7259269747e+00 1.5738146726e+00 2.7259269747e+00 
32500 6.1352873093e+00 4.6426324572e-04 1.5737976140e+00 -2.7258974282e+00 1.5737976140e+00 2.7258974282e+00 
32600 6.1352776765e+00 3.9370895598e-04 1.5737828642e+00 -2.7258718809e+00 1.5737828642e+00 2.7258718809e+00 
32700 6.1352681832e+00 3.2522867564e-04 1.5737703559e+00 -2.7258502158e+00 1.5737703559e+00 2.7258502158e+00 
32800 6.1352588259e+00 2.5877087679e-04 1.5737600231e+00 -2.7258323189e+00 1.5737600231e+00 2.7258323189e+00 
32900 6.1352496014e+00 1.9428494731e-04 1.5737518017e+00 -2.7258180790e+00 1.5737518017e+00 2.7258180790e+00 
33000 6.1352405065e+00 1.3172119385e-04 1.5737456290e+00 -2.7258073877e+00 1.5737456290e+00 2.7258073877e+00 
33100 6.1352315383e+00 7.1030843826e-05 1.5737414441e+00 -2.7258001391e+00 1.5737414441e+00 2.7258001391e+00 
33200 6.1352226937e+00 1.2166046284e-05 1.5737391873e+00 -2.7257962303e+00 1.5737391873e+00 2.7257962303e+00 
33300 6.1352139699e+00 -4.4681082246e-05 1.5737391873e+00 -2.7257962303e+00 1.5737391873e+00 2.7257962303e+00 
33400 6.1352053644e+00 -1.0091743111e-04 1.5737391873e+00 -2.7257962303e+00 1.5737391873e+00 2.7257962303e+00 
33500 6.1351968744e+00 -1.5457161860e-04 1.5737423936e+00 -2.7258017838e+00 1.5737423936e+00 2.7258017838e+00 
33600 6.1351884972e+00 -2.0658267779e-04 1.5737473046e+00 -2.7258102898e+00 1.5737473046e+00 2.7258102898e+00 
33700 6.1351802304e+00 -2.5699386445e-04 1.5737538680e+00 -2.7258216579e+00 1.5737538680e+00 2.7258216579e+00 
33800 6.1351720716e+00 -3.0584752606e-04 1.5737620330e+00 -2.7258358001e+00 1.5737620330e+00 2.7258358001e+00 
33900 6.1351640186e+00 -3.5318510673e-04 1.5737717501e+00 -2.7258526306e+00 1.5737717501e+00 2.7258526306e+00 
34000 6.1351560691e+00 -3.9904715294e-04 1.5737829711e+00 -2.7258720660e+00 1.5737829711e+00 2.7258720660e+00 
34100 6.1351482211e+00 -4.4347331981e-04 1.5737956490e+00 -2.7258940249e+00 1.5737956490e+00 2.7258940249e+00 
34200 6.1351404724e+00 -4.8650237806e-04 1.5738097384e+00 -2.7259184283e+00 1.5738097384e+00 2.7259184283e+00 
34300 6.1351328211e+00 -5.2817222155e-04 1.5738251946e+00 -2.7259451992e+00 1.5738251946e+00 2.7259451992e+00 
34400 6.1351252654e+00 -5.6851987531e-04 1.5738419745e+00 -2.7259742629e+00 1.5738419745e+00 2.7259742629e+00 
34500 6.1351178033e+00 -6.0758150418e-04 1.5738600361e+00 -2.7260055465e+00 1.5738600361e+00 2.7260055465e+00 
34600 6.1351104331e+00 -6.4539242183e-04 1.5738793384e+00 -2.7260389790e+00 1.5738793384e+00 2.7260389790e+00 
34700 6.1351031532e+00 -6.8198710033e-04 1.5738998417e+00 -2.7260744918e+00 1.5738998417e+00 2.7260744918e+00 
34800 6.1350959619e+00 -7.1739918007e-04 1.5739215072e+00 -2.7261120176e+00 1.5739215072e+00 2.7261120176e+00 
34900 6.1350888577e+00 -7.5166148010e-04 1.5739442975e+00 -2.7261514915e+00 1.5739442975e+00 2.7261514915e+00 
35000 6.1350818390e+00 -7.8480600883e-04 1.5739681758e+00 -2.7261928500e+00 1.5739681758e+00 2.7261928500e+00 
35100 6.1350749044e+00 -8.1686397507e-04 1.5739931067e+00 -2.7262360315e+00 1.5739931067e+00 2.7262360315e+00 
35200 6.1350680526e+00 -8.4786579938e-04 1.5740190555e+00 -2.7262809762e+00 1.5740190555e+00 2.7262809762e+00 
35300 6.1350612820e+00 -8.7784112564e-04 1.5740459887e+00 -2.7263276260e+00 1.5740459887e+00 2.7263276260e+00 
35400 6.1350545916e+00 -9.0681883301e-04 1.5740738737e+00 -2.7263759241e+00 1.5740738737e+00 2.7263759241e+00 
35500 6.1350479800e+00 -9.3482704795e-04 1.5741026786e+00 -2.7264258157e+00 1.5741026786e+00 2.7264258157e+00 
35600 6.1350414460e+00 -9.6189315660e-04 1.5741323727e+00 -2.7264772473e+00 1.5741323727e+00 2.7264772473e+00 
35700 6.1350349885e+00 -9.8804381724e-04 1.5741629259e+00 -2.7265301670e+00 1.5741629259e+00 2.7265301670e+00 
35800 6.1350286063e+00 -1.0133049730e-03 1.5741943091e+00 -2.7265845244e+00 1.5741943091e+00 2.7265845244e+00 
35900 6.1350222983e+00 -1.0377018644e-03 1.5742264941e+00 -2.7266402705e+00 1.5742264941e+00 2.7266402705e+00 
36000 6.1350160636e+00 -1.0612590429e-03 1.5742594534e+00 -2.7266973575e+00 1.5742594534e+00 2.7266973575e+00 
36100 6.1350099011e+00 -1.0840003832e-03 1.5742931601e+00 -2.7267557393e+00 1.5742931601e+00 2.7267557393e+00 
36200 6.1350038098e+00 -1.1059490966e-03 1.5743275884e+00 -2.7268153708e+00 1.5743275884e+00 2.7268153708e+00 
36300 6.1349977887e+00 -1.1271277443e-03 1.5743627130e+00 -2.7268762084e+00 1.5743627130e+00 2.7268762084e+00 
36400 6.1349918370e+00 -1.1475582506e-03 1.5743985094e+00 -2.7269382097e+00 1.5743985094e+00 2.7269382097e+00 
36500 6.1349859538e+00 -1.1672619158e-03 1.5744349539e+00 -2.7270013334e+00 1.5744349539e+00 2.7270013334e+00 
36600 6.1349801381e+00 -1.1862594300e-03 1.5744720233e+00 -2.7270655395e+00 1.5744720233e+00 2.7270655395e+00 
36700 6.1349743892e+00 -1.2045708856e-03 1.5745096951e+00 -2.7271307889e+00 1.5745096951e+00 2.7271307889e+00 
36800 6.1349687061e+00 -1.2222157914e-03 1.5745479475e+00 -2.7271970441e+00 1.5745479475e+00 2.7271970441e+00 
36900 6.1349630882e+00 -1.2392130850e-03 1.5745867593e+00 -2.7272642681e+00 1.5745867593e+00 2.7272642681e+00 
37000 6.1349575345e+00 -1.2555811463e-03 1.5746261099e+00 -2.7273324253e+00 1.5746261099e+00 2.7273324253e+00 
37100 6.1349520444e+00 -1.2713378109e-03 1.5746659793e+00 -2.7274014810e+00 1.5746659793e+00 2.7274014810e+00 
37200 6.1349466171e+00 -1.2865003824e-03 1.5747063479e+00 -2.7274714016e+00 1.5747063479e+00 2.7274714016e+00 
37300 6.1349412518e+00 -1.3010856459e-03 1.5747471970e+00 -2.7275421543e+00 1.5747471970e+00 2.7275421543e+00 
37400 6.1349359479e+00 -1.3151098806e-03 1.5747885081e+00 -2.7276137072e+00 1.5747885081e+00 2.7276137072e+00 
37500 6.1349307046e+00 -1.3285888729e-03 1.5748302634e+00 -2.7276860296e+00 1.5748302634e+00 2.7276860296e+00 
37600 6.1349255212e+00 -1.3415379283e-03 1.5748724456e+00 -2.7277590912e+00 1.5748724456e+00 2.7277590912e+00 
37700 6.1349203971e+00 -1.3539718847e-03 1.5749150377e+00 -2.7278328630e+00 1.5749150377e+00 2.7278328630e+00 
37800 6.1349153315e+00 -1.3659051244e-03 1.5749580235e+00 -2.7279073165e+00 1.5749580235e+00 2.7279073165e+00 
37900 6.1349103239e+00 -1.3773515862e-03 1.5750013869e+00 -2.7279824241e+00 1.5750013869e+00 2.7279824241e+00 
38000 6.1349053735e+00 -1.3883247779e-03 1.5750451125e+00 -2.7280581591e+00 1.5750451125e+00 2.7280581591e+00 
38100 6.1349004796e+00 -1.3988377880e-03 1.5750891853e+00 -2.7281344953e+00 1.5750891853e+00 2.7281344953e+00 
38200 6.1348956418e+00 -1.4089032974e-03 1.5751335905e+00 -2.7282114075e+00 1.5751335905e+00 2.7282114075e+00 
38300 6.1348908593e+00 -1.4185335913e-03 1.5751783140e+00 -2.7282888708e+00 1.5751783140e+00 2.7282888708e+00 
38400 6.1348861315e+00 -1.4277405705e-03 1.5752233419e+00 -2.7283668615e+00 1.5752233419e+00 2.7283668615e+00 
38500 6.1348814578e+00 -1.4365357625e-03 1.5752686608e+00 -2.7284453561e+00 1.5752686608e+00 2.7284453561e+00 
38600 6.1348768376e+00 -1.4449303332e-03 1.5753142576e+00 -2.7285243320e+00 1.5753142576e+00 2.7285243320e+00 
38700 6.1348722702e+00 -1.4529350971e-03 1.5753601195e+00 -2.7286037671e+00 1.5753601195e+00 2.7286037671e+00 
38800 6.1348677552e+00 -1.4605605283e-03 1.5754062341e+00 -2.7286836400e+00 1.5754062341e+00 2.7286836400e+00 
38900 6.1348632918e+00 -1.4678167713e-03 1.5754525893e+00 -2.7287639296e+00 1.5754525893e+00 2.7287639296e+00 
39000 6.1348588796e+00 -1.4747136510e-03 1.5754991735e+00 -2.7288446158e+00 1.5754991735e+00 2.7288446158e+00 
39100 6.1348545179e+00 -1.4812606830e-03 1.5755459752e+00 -2.7289256788e+00 1.5755459752e+00 2.7289256788e+00 
39200 6.1348502061e+00 -1.4874670837e-03 1.5755929833e+00 -2.7290070992e+00 1.5755929833e+00 2.7290070992e+00 
39300 6.1348459437e+00 -1.4933417794e-03 1.5756401870e+00 -2.7290888583e+00 1.5756401870e+00 2.7290888583e+00 
39400 6.1348417300e+00 -1.4988934169e-03 1.5756875756e+00 -2.7291709378e+00 1.5756875756e+00 2.7291709378e+00 
39500 6.1348375647e+00 -1.5041303719e-03 1.5757351390e+00 -2.7292533200e+00 1.5757351390e+00 2.7292533200e+00 
39600 6.1348334469e+00 -1.5090607584e-03 1.5757828671e+00 -2.7293359876e+00 1.5757828671e+00 2.7293359876e+00 
39700 6.1348293764e+00 -1.5136924380e-03 1.5758307503e+00 -2.7294189236e+00 1.5758307503e+00 2.7294189236e+00 
39800 6.1348253523e+00 -1.5180330281e-03 1.5758787789e+00 -2.7295021117e+00 1.5758787789e+00 2.7295021117e+00 
39900 6.1348213743e+00 -1.5220899108e-03 1.5759269438e+00 -2.7295855357e+00 1.5759269438e+00 2.7295855357e+00 
40000 6.1348174418e+00 -1.5258702408e-03 1.5759752360e+00 -2.7296691801e+00 1.5759752360e+00 2.7296691801e+00 
40100 6.1348135542e+00 -1.5293809539e-03 1.5760236466e+00 -2.7297530298e+00 1.5760236466e+00 2.7297530298e+00 
40200 6.1348097110e+00 -1.5326287746e-03 1.5760721670e+00 -2.7298370697e+00 1.5760721670e+00 2.7298370697e+00 
40300 6.1348059117e+00 -1.5356202240e-03 1.5761207891e+00 -2.7299212855e+00 1.5761207891e+00 2.7299212855e+00 
40400 6.1348021557e+00 -1.5383616271e-03 1.5761695045e+00 -2.7300056631e+00 1.5761695045e+00 2.7300056631e+00 
40500 6.1347984426e+00 -1.5408591200e-03 1.5762183054e+00 -2.7300901888e+00 1.5762183054e+00 2.7300901888e+00 
40600 6.1347947718e+00 -1.5431186573e-03 1.5762671840e+00 -2.7301748490e+00 1.5762671840e+00 2.7301748490e+00 
40700 6.1347911427e+00 -1.5451460187e-03 1.5763161328e+00 -2.7302596308e+00 1.5763161328e+00 2.7302596308e+00 
40800 6.1347875549e+00 -1.5469468155e-03 1.5763651443e+00 -2.7303445212e+00 1.5763651443e+00 2.7303445212e+00 
40900 6.1347840080e+00 -1.5485264975e-03 1.5764142115e+00 -2.7304295080e+00 1.5764142115e+00 2.7304295080e+00 
41000 6.1347805013e+00 -1.5498903589e-03 1.5764633272e+00 -2.7305145790e+00 1.5764633272e+00 2.7305145790e+00 
41100 6.1347770343e+00 -1.5510435446e-03 1.5765124846e+00 -2.7305997222e+00 1.5765124846e+00 2.7305997222e+00 
41200 6.1347736067e+00 -1.5519910560e-03 1.5765616771e+00 -2.7306849261e+00 1.5765616771e+00 2.7306849261e+00 
41300 6.1347702179e+00 -1.5527377564e-03 1.5766108982e+00 -2.7307701794e+00 1.5766108982e+00 2.7307701794e+00 
41400 6.1347668675e+00 -1.5532883772e-03 1.5766601413e+00 -2.7308554710e+00 1.5766601413e+00 2.7308554710e+00 
41500 6.1347635548e+00 -1.5536475223e-03 1.5767094004e+00 -2.7309407902e+00 1.5767094004e+00 2.7309407902e+00 
41600 6.1347602796e+00 -1.5538196742e-03 1.5767586693e+00 -2.7310261265e+00 1.5767586693e+00 2.7310261265e+00 
41700 6.1347570413e+00 -1.5538091980e-03 1.5768079422e+00 -2.7311114696e+00 1.5768079422e+00 2.7311114696e+00 
41800 6.1347538395e+00 -1.5536203470e-03 1.5768572131e+00 -2.7311968094e+00 1.5768572131e+00 2.7311968094e+00 
41900 6.1347506737e+00 -1.5532572667e-03 1.5769064766e+00 -2.7312821362e+00 1.5769064766e+00 2.7312821362e+00 
42000 6.1347475434e+00 -1.5527239997e-03 1.5769557270e+00 -2.7313674404e+00 1.5769557270e+00 2.7313674404e+00 
42100 6.1347444483e+00 -1.5520244895e-03 1.5770049589e+00 -2.7314527126e+00 1.5770049589e+00 2.7314527126e+00 
42200 6.1347413879e+00 -1.5511625849e-03 1.5770541672e+00 -2.7315379438e+00 1.5770541672e+00 2.7315379438e+00 
42300 6.1347383617e+00 -1.5501420440e-03 1.5771033465e+00 -2.7316231250e+00 1.5771033465e+00 2.7316231250e+00 
42400 6.1347353693e+00 -1.5489665377e-03 1.5771524920e+00 -2.7317082474e+00 1.5771524920e+00 2.7317082474e+00 
42500 6.1347324103e+00 -1.5476396536e-03 1.5772015987e+00 -2.7317933027e+00 1.5772015987e+00 2.7317933027e+00 
42600 6.1347294843e+00 -1.5461648992e-03 1.5772506618e+00 -2.7318782825e+00 1.5772506618e+00 2.7318782825e+00 
42700 6.1347265909e+00 -1.5445457056e-03 1.5772996766e+00 -2.7319631786e+00 1.5772996766e+00 2.7319631786e+00 
42800 6.1347237297e+00 -1.5427854302e-03 1.5773486386e+00 -2.7320479832e+00 1.5773486386e+00 2.7320479832e+00 
42900 6.1347209002e+00 -1.5408873603e-03 1.5773975432e+00 -2.7321326886e+00 1.5773975432e+00 2.7321326886e+00 
43000 6.1347181021e+00 -1.5388547155e-03 1.5774463862e+00 -2.7322172870e+00 1.5774463862e+00 2.7322172870e+00 
43100 6.1347153350e+00 -1.5366906507e-03 1.5774951632e+00 -2.7323017713e+00 1.5774951632e+00 2.7323017713e+00 
43200 6.1347125984e+00 -1.5343982590e-03 1.5775438701e+00 -2.7323861342e+00 1.5775438701e+00 2.7323861342e+00 
43300 6.1347098921e+00 -1.5319805737e-03 1.5775925029e+00 -2.7324703686e+00 1.5775925029e+00 2.7324703686e+00 
43400 6.1347072157e+00 -1.5294405710e-03 1.5776410575e+00 -2.7325544677e+00 1.5776410575e+00 2.7325544677e+00 
43500 6.1347045687e+00 -1.5267811722e-03 1.5776895301e+00 -2.7326384247e+00 1.5776895301e+00 2.7326384247e+00 
43600 6.1347019508e+00 -1.5240052461e-03 1.5777379170e+00 -2.7327222332e+00 1.5777379170e+00 2.7327222332e+00 
43700 6.1346993618e+00 -1.5211156106e-03 1.5777862144e+00 -2.7328058868e+00 1.5777862144e+00 2.7328058868e+00 
43800 6.1346968011e+00 -1.5181150351e-03 1.5778344187e+00 -2.7328893792e+00 1.5778344187e+00 2.7328893792e+00 
43900 6.1346942684e+00 -1.5150062419e-03 1.5778825265e+00 -2.7329727043e+00 1.5778825265e+00 2.7329727043e+00 
44000 6.1346917635e+00 -1.5117919083e-03 1.5779305344e+00 -2.7330558563e+00 1.5779305344e+00 2.7330558563e+00 
44100 6.1346892860e+00 -1.5084746682e-03 1.5779784389e+00 -2.7331388294e+00 1.5779784389e+00 2.7331388294e+00 
44200 6.1346868355e+00 -1.5050571134e-03 1.5780262368e+00 -2.7332216178e+00 1.5780262368e+00 2.7332216178e+00 
44300 6.1346844118e+00 -1.5015417951e-03 1.5780739250e+00 -2.7333042162e+00 1.5780739250e+00 2.7333042162e+00 
44400 6.1346820144e+00 -1.4979312257e-03 1.5781215004e+00 -2.7333866192e+00 1.5781215004e+00 2.7333866192e+00 
44500 6.1346796432e+00 -1.4942278794e-03 1.5781689599e+00 -2.7334688215e+00 1.5781689599e+00 2.7334688215e+00 
44600 6.1346772977e+00 -1.4904341939e-03 1.5782163007e+00 -2.7335508182e+00 1.5782163007e+00 2.7335508182e+00 
44700 6.1346749777e+00 -1.4865525715e-03 1.5782635199e+00 -2.7336326042e+00 1.5782635199e+00 2.7336326042e+00 
44800 6.1346726828e+00 -1.4825853798e-03 1.5783106147e+00 -2.7337141748e+00 1.5783106147e+00 2.7337141748e+00 
44900 6.1346704128e+00 -1.4785349530e-03 1.5783575824e+00 -2.7337955252e+00 1.5783575824e+00 2.7337955252e+00 
45000 6.1346681673e+00 -1.4744035926e-03 1.5784044204e+00 -2.7338766510e+00 1.5784044204e+00 2.7338766510e+00 
45100 6.1346659462e+00 -1.4701935687e-03 1.5784511262e+00 -2.7339575478e+00 1.5784511262e+00 2.7339575478e+00 
45200 6.1346637490e+00 -1.4659071199e-03 1.5784976971e+00 -2.7340382111e+00 1.5784976971e+00 2.7340382111e+00 
45300 6.1346615755e+00 -1.4615464550e-03 1.5785441310e+00 -2.7341186369e+00 1.5785441310e+00 2.7341186369e+00 
45400 6.1346594255e+00 -1.4571137530e-03 1.5785904253e+00 -2.7341988210e+00 1.5785904253e+00 2.7341988210e+00 
45500 6.1346572986e+00 -1.4526111640e-03 1.5786365779e+00 -2.7342787597e+00 1.5786365779e+00 2.7342787597e+00 
45600 6.1346551946e+00 -1.4480408098e-03 1.5786825866e+00 -2.7343584490e+00 1.5786825866e+00 2.7343584490e+00 
45700 6.1346531133e+00 -1.4434047840e-03 1.5787284491e+00 -2.7344378852e+00 1.5787284491e+00 2.7344378852e+00 
45800 6.1346510543e+00 -1.4387051530e-03 1.5787741635e+00 -2.7345170648e+00 1.5787741635e+00 2.7345170648e+00 
45900 6.1346490174e+00 -1.4339439562e-03 1.5788197277e+00 -2.7345959844e+00 1.5788197277e+00 2.7345959844e+00 
46000 6.1346470023e+00 -1.4291232064e-03 1.5788651398e+00 -2.7346746405e+00 1.5788651398e+00 2.7346746405e+00 
46100 6.1346450089e+00 -1.4242448900e-03 1.5789103980e+00 -2.7347530299e+00 1.5789103980e+00 2.7347530299e+00 
46200 6.1346430368e+00 -1.4193109676e-03 1.5789555003e+00 -2.7348311494e+00 1.5789555003e+00 2.7348311494e+00 
46300 6.1346410858e+00 -1.4143233739e-03 1.5790004451e+00 -2.7349089962e+00 1.5790004451e+00 2.7349089962e+00 
46400 6.1346391557e+00 -1.4092840183e-03 1.5790452308e+00 -2.7349865671e+00 1.5790452308e+00 2.7349865671e+00 
46500 6.1346372462e+00 -1.4041947850e-03 1.5790898555e+00 -2.7350638595e+00 1.5790898555e+00 2.7350638595e+00 
46600 6.1346353572e+00 -1.3990575331e-03 1.5791343179e+00 -2.7351408706e+00 1.5791343179e+00 2.7351408706e+00 
46700 6.1346334883e+00 -1.3938740968e-03 1.5791786163e+00 -2.7352175977e+00 1.5791786163e+00 2.7352175977e+00 
46800 6.1346316393e+00 -1.3886462857e-03 1.5792227494e+00 -2.7352940385e+00 1.5792227494e+00 2.7352940385e+00 
46900 6.1346298101e+00 -1.3833758846e-03 1.5792667158e+00 -2.7353701904e+00 1.5792667158e+00 2.7353701904e+00 
47000 6.1346280003e+00 -1.3780646539e-03 1.5793105140e+00 -2.7354460512e+00 1.5793105140e+00 2.7354460512e+00 
47100 6.1346262098e+00 -1.3727143296e-03 1.5793541429e+00 -2.7355216186e+00 1.5793541429e+00 2.7355216186e+00 
47200 6.1346244384e+00 -1.3673266232e-03 1.5793976012e+00 -2.7355968906e+00 1.5793976012e+00 2.7355968906e+00 
47300 6.1346226859e+00 -1.3619032221e-03 1.5794408877e+00 -2.7356718651e+00 1.5794408877e+00 2.7356718651e+00 
47400 6.1346209520e+00 -1.3564457891e-03 1.5794840014e+00 -2.7357465401e+00 1.5794840014e+00 2.7357465401e+00 
47500 6.1346192365e+00 -1.3509559631e-03 1.5795269411e+00 -2.7358209139e+00 1.5795269411e+00 2.7358209139e+00 
47600 6.1346175393e+00 -1.3454353585e-03 1.5795697059e+00 -2.7358949846e+00 1.5795697059e+00 2.7358949846e+00 
47700 6.1346158601e+00 -1.3398855658e-03 1.5796122947e+00 -2.7359687507e+00 1.5796122947e+00 2.7359687507e+00 
47800 6.1346141987e+00 -1.3343081509e-03 1.5796547068e+00 -2.7360422105e+00 1.5796547068e+00 2.7360422105e+00 
47900 6.1346125549e+00 -1.3287046558e-03 1.5796969411e+00 -2.7361153626e+00 1.5796969411e+00 2.7361153626e+00 
48000 6.1346109286e+00 -1.3230765981e-03 1.5797389970e+00 -2.7361882055e+00 1.5797389970e+00 2.7361882055e+00 
48100 6.1346093196e+00 -1.3174254712e-03 1.5797808736e+00 -2.7362607379e+00 1.5797808736e+00 2.7362607379e+00 
48200 6.1346077276e+00 -1.3117527443e-03 1.5798225702e+00 -2.7363329586e+00 1.5798225702e+00 2.7363329586e+00 
48300 6.1346061525e+00 -1.3060598623e-03 1.5798640862e+00 -2.7364048664e+00 1.5798640862e+00 2.7364048664e+00 
48400 6.1346045941e+00 -1.3003482459e-03 1.5799054210e+00 -2.7364764603e+00 1.5799054210e+00 2.7364764603e+00 
48500 6.1346030522e+00 -1.2946192913e-03 1.5799465739e+00 -2.7365477392e+00 1.5799465739e+00 2.7365477392e+00 
48600 6.1346015266e+00 -1.2888743706e-03 1.5799875444e+00 -2.7366187023e+00 1.5799875444e+00 2.7366187023e+00 
48700 6.1346000171e+00 -1.2831148315e-03 1.5800283321e+00 -2.7366893486e+00 1.5800283321e+00 2.7366893486e+00 
48800 6.1345985237e+00 -1.2773419973e-03 1.5800689364e+00 -2.7367596774e+00 1.5800689364e+00 2.7367596774e+00 
48900 6.1345970460e+00 -1.2715571672e-03 1.5801093571e+00 -2.7368296879e+00 1.5801093571e+00 2.7368296879e+00 
49000 6.1345955840e+00 -1.2657616158e-03 1.5801495936e+00 -2.7368993797e+00 1.5801495936e+00 2.7368993797e+00 
49100 6.1345941374e+00 -1.2599565935e-03 1.5801896457e+00 -2.7369687520e+00 1.5801896457e+00 2.7369687520e+00 
49200 6.1345927061e+00 -1.2541433263e-03 1.5802295131e+00 -2.7370378044e+00 1.5802295131e+00 2.7370378044e+00 
49300 6.1345912900e+00 -1.2483230160e-03 1.5802691956e+00 -2.7371065365e+00 1.5802691956e+00 2.7371065365e+00 
49400 6.1345898888e+00 -1.2424968400e-03 1.5803086930e+00 -2.7371749478e+00 1.5803086930e+00 2.7371749478e+00 
49500 6.1345885024e+00 -1.2366659516e-03 1.5803480050e+00 -2.7372430382e+00 1.5803480050e+00 2.7372430382e+00 
49600 6.1345871306e+00 -1.2308314796e-03 1.5803871315e+00 -2.7373108074e+00 1.5803871315e+00 2.7373108074e+00 
49700 6.1345857733e+00 -1.2249945288e-03 1.5804260725e+00 -2.7373782551e+00 1.5804260725e+00 2.7373782551e+00 
49800 6.1345844304e+00 -1.2191561800e-03 1.5804648278e+00 -2.7374453814e+00 1.5804648278e+00 2.7374453814e+00 
49900 6.1345831016e+00 -1.2133174896e-03 1.5805033975e+00 -2.7375121861e+00 1.5805033975e+00 2.7375121861e+00 
50000 6.1345817869e+00 -1.2074794901e-03 1.5805417816e+00 -2.7375786692e+00 1.5805417816e+00 2.7375786692e+00 
50100 6.1345804860e+00 -1.2016431903e-03 1.5805799800e+00 -2.7376448308e+00 1.5805799800e+00 2.7376448308e+00 
50200 6.1345791988e+00 -1.1958095747e-03 1.5806179929e+00 -2.7377106711e+00 1.5806179929e+00 2.7377106711e+00 
50300 6.1345779252e+00 -1.1899796045e-03 1.5806558203e+00 -2.7377761901e+00 1.5806558203e+00 2.7377761901e+00 
50400 6.1345766650e+00 -1.1841542169e-03 1.5806934624e+00 -2.7378413881e+00 1.5806934624e+00 2.7378413881e+00 
50500 6.1345754181e+00 -1.1783343257e-03 1.5807309194e+00 -2.7379062655e+00 1.5807309194e+00 2.7379062655e+00 
50600 6.1345741843e+00 -1.1725208211e-03 1.5807681913e+00 -2.7379708224e+00 1.5807681913e+00 2.7379708224e+00 
50700 6.1345729636e+00 -1.1667145703e-03 1.5808052785e+00 -2.7380350593e+00 1.5808052785e+00 2.7380350593e+00 
50800 6.1345717557e+00 -1.1609164170e-03 1.5808421812e+00 -2.7380989766e+00 1.5808421812e+00 2.7380989766e+00 
50900 6.1345705605e+00 -1.1551271819e-03 1.5808788997e+00 -2.7381625748e+00 1.5808788997e+00 2.7381625748e+00 
51000 6.1345693778e+00 -1.1493476631e-03 1.5809154341e+00 -2.7382258544e+00 1.5809154341e+00 2.7382258544e+00 
51100 6.1345682077e+00 -1.1435786357e-03 1.5809517850e+00 -2.7382888159e+00 1.5809517850e+00 2.7382888159e+00 
51200 6.1345670498e+00 -1.1378208524e-03 1.5809879525e+00 -2.7383514599e+00 1.5809879525e+00 2.7383514599e+00 
51300 6.1345659041e+00 -1.1320750434e-03 1.5810239372e+00 -2.7384137871e+00 1.5810239372e+00 2.7384137871e+00 
51400 6.1345647705e+00 -1.1263419169e-03 1.5810597392e+00 -2.7384757982e+00 1.5810597392e+00 2.7384757982e+00 
51500 6.1345636488e+00 -1.1206221589e-03 1.5810953592e+00 -2.7385374938e+00 1.5810953592e+00 2.7385374938e+00 
51600 6.1345625389e+00 -1.1149164337e-03 1.5811307975e+00 -2.7385988747e+00 1.5811307975e+00 2.7385988747e+00 
51700 6.1345614406e+00 -1.1092253843e-03 1.5811660546e+00 -2.7386599417e+00 1.5811660546e+00 2.7386599417e+00 
51800 6.1345603539e+00 -1.1035496319e-03 1.5812011309e+00 -2.7387206957e+00 1.5812011309e+00 2.7387206957e+00 
51900 6.1345592786e+00 -1.0978897769e-03 1.5812360269e+00 -2.7387811374e+00 1.5812360269e+00 2.7387811374e+00 
52000 6.1345582147e+00 -1.0922463986e-03 1.5812707433e+00 -2.7388412678e+00 1.5812707433e+00 2.7388412678e+00 
52100 6.1345571618e+00 -1.0866200559e-03 1.5813052804e+00 -2.7389010879e+00 1.5813052804e+00 2.7389010879e+00 
52200 6.1345561201e+00 -1.0810112872e-03 1.5813396388e+00 -2.7389605985e+00 1.5813396388e+00 2.7389605985e+00 
52300 6.1345550892e+00 -1.0754206106e-03 1.5813738192e+00 -2.7390198006e+00 1.5813738192e+00 2.7390198006e+00 
52400 6.1345540692e+00 -1.0698485245e-03 1.5814078220e+00 -2.7390786952e+00 1.5814078220e+00 2.7390786952e+00 
52500 6.1345530599e+00 -1.0642955076e-03 1.5814416480e+00 -2.7391372835e+00 1.5814416480e+00 2.7391372835e+00 
52600 6.1345520612e+00 -1.0587620194e-03 1.5814752976e+00 -2.7391955664e+00 1.5814752976e+00 2.7391955664e+00 
52700 6.1345510730e+00 -1.0532485001e-03 1.5815087716e+00 -2.7392535451e+00 1.5815087716e+00 2.7392535451e+00 
52800 6.1345500951e+00 -1.0477553714e-03 1.5815420706e+00 -2.7393112206e+00 1.5815420706e+00 2.7393112206e+00 
52900 6.1345491275e+00 -1.0422830363e-03 1.5815751952e+00 -2.7393685941e+00 1.5815751952e+00 2.7393685941e+00 
53000 6.1345481700e+00 -1.0368318797e-03 1.5816081461e+00 -2.7394256667e+00 1.5816081461e+00 2.7394256667e+00 
53100 6.1345472226e+00 -1.0314022686e-03 1.5816409240e+00 -2.7394824397e+00 1.5816409240e+00 2.7394824397e+00 
53200 6.1345462850e+00 -1.0259945524e-03 1.5816735295e+00 -2.7395389142e+00 1.5816735295e+00 2.7395389142e+00 
53300 6.1345453573e+00 -1.0206090631e-03 1.5817059635e+00 -2.7395950914e+00 1.5817059635e+00 2.7395950914e+00 
53400 6.1345444394e+00 -1.0152461160e-03 1.5817382265e+00 -2.7396509726e+00 1.5817382265e+00 2.7396509726e+00 
53500 6.1345435310e+00 -1.0099060094e-03 1.5817703194e+00 -2.7397065590e+00 1.5817703194e+00 2.7397065590e+00 
53600 6.1345426322e+00 -1.0045890254e-03 1.5818022427e+00 -2.7397618520e+00 1.5818022427e+00 2.7397618520e+00 
53700 6.1345417427e+00 -9.9929543027e-04 1.5818339974e+00 -2.7398168527e+00 1.5818339974e+00 2.7398168527e+00 
53800 6.1345408626e+00 -9.9402547420e-04 1.5818655841e+00 -2.7398715625e+00 1.5818655841e+00 2.7398715625e+00 
53900 6.1345399917e+00 -9.8877939221e-04 1.5818970036e+00 -2.7399259827e+00 1.5818970036e+00 2.7399259827e+00 
54000 6.1345391299e+00 -9.8355740422e-04 1.5819282567e+00 -2.7399801146e+00 1.5819282567e+00 2.7399801146e+00 
54100 6.1345382771e+00 -9.7835971539e-04 1.5819593441e+00 -2.7400339595e+00 1.5819593441e+00 2.7400339595e+00 
54200 6.1345374332e+00 -9.7318651647e-04 1.5819902666e+00 -2.7400875189e+00 1.5819902666e+00 2.7400875189e+00 
54300 6.1345365982e+00 -9.6803798414e-04 1.5820210250e+00 -2.7401407940e+00 1.5820210250e+00 2.7401407940e+00 
54400 6.1345357719e+00 -9.6291428130e-04 1.5820516201e+00 -2.7401937862e+00 1.5820516201e+00 2.7401937862e+00 
54500 6.1345349542e+00 -9.5781555743e-04 1.5820820526e+00 -2.7402464969e+00 1.5820820526e+00 2.7402464969e+00 
54600 6.1345341451e+00 -9.5274194892e-04 1.5821123235e+00 -2.7402989275e+00 1.5821123235e+00 2.7402989275e+00 
54700 6.1345333444e+00 -9.4769357936e-04 1.5821424334e+00 -2.7403510794e+00 1.5821424334e+00 2.7403510794e+00 
54800 6.1345325521e+00 -9.4267055994e-04 1.5821723832e+00 -2.7404029540e+00 1.5821723832e+00 2.7404029540e+00 
54900 6.1345317681e+00 -9.3767298968e-04 1.5822021736e+00 -2.7404545526e+00 1.5822021736e+00 2.7404545526e+00 
55000 6.1345309922e+00 -9.3270095585e-04 1.5822318056e+00 -2.7405058767e+00 1.5822318056e+00 2.7405058767e+00 
55100 6.1345302245e+00 -9.2775453424e-04 1.5822612799e+00 -2.7405569277e+00 1.5822612799e+00 2.7405569277e+00 
55200 6.1345294648e+00 -9.2283378949e-04 1.5822905974e+00 -2.7406077070e+00 1.5822905974e+00 2.7406077070e+00 
55300 6.1345287130e+00 -9.1793877543e-04 1.5823197588e+00 -2.7406582161e+00 1.5823197588e+00 2.7406582161e+00 
55400 6.1345279690e+00 -9.1306953540e-04 1.5823487650e+00 -2.7407084563e+00 1.5823487650e+00 2.7407084563e+00 
55500 6.1345272328e+00 -9.0822610253e-04 1.5823776168e+00 -2.7407584291e+00 1.5823776168e+00 2.7407584291e+00 
55600 6.1345265043e+00 -9.0340850011e-04 1.5824063150e+00 -2.7408081359e+00 1.5824063150e+00 2.7408081359e+00 
55700 6.1345257834e+00 -8.9861674187e-04 1.5824348605e+00 -2.7408575781e+00 1.5824348605e+00 2.7408575781e+00 
55800 6.1345250701e+00 -8.9385083230e-04 1.5824632541e+00 -2.7409067572e+00 1.5824632541e+00 2.7409067572e+00 
55900 6.1345243641e+00 -8.8911076695e-04 1.5824914966e+00 -2.7409556746e+00 1.5824914966e+00 2.7409556746e+00 
56000 6.1345236655e+00 -8.8439653276e-04 1.5825195888e+00 -2.7410043317e+00 1.5825195888e+00 2.7410043317e+00 
56100 6.1345229742e+00 -8.7970810831e-04 1.5825475315e+00 -2.7410527300e+00 1.5825475315e+00 2.7410527300e+00 
56200 6.1345222902e+00 -8.7504546418e-04 1.5825753257e+00 -2.7411008708e+00 1.5825753257e+00 2.7411008708e+00 
56300 6.1345216132e+00 -8.7040856321e-04 1.5826029720e+00 -2.7411487557e+00 1.5826029720e+00 2.7411487557e+00 
56400 6.1345209433e+00 -8.6579736080e-04 1.5826304713e+00 -2.7411963860e+00 1.5826304713e+00 2.7411963860e+00 
56500 6.1345202804e+00 -8.6121180519e-04 1.5826578245e+00 -2.7412437631e+00 1.5826578245e+00 2.7412437631e+00 
56600 6.1345196244e+00 -8.5665183774e-04 1.5826850324e+00 -2.7412908884e+00 1.5826850324e+00 2.7412908884e+00 
56700 6.1345189752e+00 -8.5211739325e-04 1.5827120957e+00 -2.7413377635e+00 1.5827120957e+00 2.7413377635e+00 
56800 6.1345183328e+00 -8.4760840017e-04 1.5827390153e+00 -2.7413843896e+00 1.5827390153e+00 2.7413843896e+00 
56900 6.1345176970e+00 -8.4312478091e-04 1.5827657920e+00 -2.7414307682e+00 1.5827657920e+00 2.7414307682e+00 
57000 6.1345170679e+00 -8.3866645211e-04 1.5827924266e+00 -2.7414769007e+00 1.5827924266e+00 2.7414769007e+00 
57100 6.1345164454e+00 -8.3423332491e-04 1.5828189200e+00 -2.7415227885e+00 1.5828189200e+00 2.7415227885e+00 
57200 6.1345158293e+00 -8.2982530515e-04 1.5828452728e+00 -2.7415684330e+00 1.5828452728e+00 2.7415684330e+00 
57300 6.1345152196e+00 -8.2544229369e-04 1.5828714860e+00 -2.7416138355e+00 1.5828714860e+00 2.7416138355e+00 
57400 6.1345146163e+00 -8.2108418663e-04 1.5828975602e+00 -2.7416589975e+00 1.5828975602e+00 2.7416589975e+00 
57500 6.1345140193e+00 -8.1675087555e-04 1.5829234964e+00 -2.7417039203e+00 1.5829234964e+00 2.7417039203e+00 
57600 6.1345134284e+00 -8.1244224775e-04 1.5829492953e+00 -2.7417486053e+00 1.5829492953e+00 2.7417486053e+00 
57700 6.1345128437e+00 -8.0815818650e-04 1.5829749577e+00 -2.7417930538e+00 1.5829749577e+00 2.7417930538e+00 
57800 6.1345122651e+00 -8.0389857124e-04 1.5830004843e+00 -2.7418372672e+00 1.5830004843e+00 2.7418372672e+00 
57900 6.1345116926e+00 -7.9966327782e-04 1.5830258760e+00 -2.7418812469e+00 1.5830258760e+00 2.7418812469e+00 
58000 6.1345111259e+00 -7.9545217874e-04 1.5830511335e+00 -2.7419249941e+00 1.5830511335e+00 2.7419249941e+00 
58100 6.1345105652e+00 -7.9126514331e-04 1.5830762576e+00 -2.7419685103e+00 1.5830762576e+00 2.7419685103e+00 
58200 6.1345100103e+00 -7.8710203791e-04 1.5831012490e+00 -2.7420117968e+00 1.5831012490e+00 2.7420117968e+00 
58300 6.1345094611e+00 -7.8296272615e-04 1.5831261086e+00 -2.7420548548e+00 1.5831261086e+00 2.7420548548e+00 
58400 6.1345089177e+00 -7.7884706912e-04 1.5831508370e+00 -2.7420976857e+00 1.5831508370e+00 2.7420976857e+00 
58500 6.1345083799e+00 -7.7475492553e-04 1.5831754351e+00 -2.7421402908e+00 1.5831754351e+00 2.7421402908e+00 
58600 6.1345078477e+00 -7.7068615192e-04 1.5831999035e+00 -2.7421826714e+00 1.5831999035e+00 2.7421826714e+00 
58700 6.1345073211e+00 -7.6664060286e-04 1.5832242431e+00 -2.7422248288e+00 1.5832242431e+00 2.7422248288e+00 
58800 6.1345067999e+00 -7.6261813109e-04 1.5832484545e+00 -2.7422667642e+00 1.5832484545e+00 2.7422667642e+00 
58900 6.1345062841e+00 -7.5861858773e-04 1.5832725386e+00 -2.7423084790e+00 1.5832725386e+00 2.7423084790e+00 
59000 6.1345057737e+00 -7.5464182242e-04 1.5832964959e+00 -2.7423499744e+00 1.5832964959e+00 2.7423499744e+00 
59100 6.1345052686e+00 -7.5068768348e-04 1.5833203273e+00 -2.7423912516e+00 1.5833203273e+00 2.7423912516e+00 
59200 6.1345047687e+00 -7.4675601811e-04 1.5833440335e+00 -2.7424323119e+00 1.5833440335e+00 2.7424323119e+00 
59300 6.1345042741e+00 -7.4284667247e-04 1.5833676152e+00 -2.7424731565e+00 1.5833676152e+00 2.7424731565e+00 
59400 6.1345037845e+00 -7.3895949190e-04 1.5833910730e+00 -2.7425137867e+00 1.5833910730e+00 2.7425137867e+00 
59500 6.1345033001e+00 -7.3509432101e-04 1.5834144078e+00 -2.7425542038e+00 1.5834144078e+00 2.7425542038e+00 
59600 6.1345028206e+00 -7.3125100384e-04 1.5834376202e+00 -2.7425944088e+00 1.5834376202e+00 2.7425944088e+00 
59700 6.1345023462e+00 -7.2742938398e-04 1.5834607108e+00 -2.7426344030e+00 1.5834607108e+00 2.7426344030e+00 
59800 6.1345018767e+00 -7.2362930473e-04 1.5834836805e+00 -2.7426741876e+00 1.5834836805e+00 2.7426741876e+00 
59900 6.1345014120e+00 -7.1985060917e-04 1.5835065298e+00 -2.7427137638e+00 1.5835065298e+00 2.7427137638e+00 
60000 6.1345009522e+00 -7.1609314032e-04 1.5835292595e+00 -2.7427531328e+00 1.5835292595e+00 2.7427531328e+00 
60100 6.1345004972e+00 -7.1235674121e-04 1.5835518703e+00 -2.7427922957e+00 1.5835518703e+00 2.7427922957e+00 
60200 6.1345000469e+00 -7.0864125506e-04 1.5835743627e+00 -2.7428312537e+00 1.5835743627e+00 2.7428312537e+00 
60300 6.1344996012e+00 -7.0494652531e-04 1.5835967375e+00 -2.7428700080e+00 1.5835967375e+00 2.7428700080e+00 
60400 6.1344991602e+00 -7.0127239576e-04 1.5836189953e+00 -2.7429085597e+00 1.5836189953e+00 2.7429085597e+00 
60500 6.1344987237e+00 -6.9761871064e-04 1.5836411368e+00 -2.7429469099e+00 1.5836411368e+00 2.7429469099e+00 
60600 6.1344982918e+00 -6.9398531472e-04 1.5836631626e+00 -2.7429850598e+00 1.5836631626e+00 2.7429850598e+00 
60700 6.1344978644e+00 -6.9037205341e-04 1.5836850734e+00 -2.7430230104e+00 1.5836850734e+00 2.7430230104e+00 
60800 6.1344974414e+00 -6.8677877280e-04 1.5837068699e+00 -2.7430607629e+00 1.5837068699e+00 2.7430607629e+00 
60900 6.1344970227e+00 -6.8320531977e-04 1.5837285526e+00 -2.7430983184e+00 1.5837285526e+00 2.7430983184e+00 
61000 6.1344966085e+00 -6.7965154205e-04 1.5837501221e+00 -2.7431356780e+00 1.5837501221e+00 2.7431356780e+00 
61100 6.1344961985e+00 -6.7611728830e-04 1.5837715792e+00 -2.7431728428e+00 1.5837715792e+00 2.7431728428e+00 
61200 6.1344957928e+00 -6.7260240817e-04 1.5837929244e+00 -2.7432098138e+00 1.5837929244e+00 2.7432098138e+00 
61300 6.1344953913e+00 -6.6910675235e-04 1.5838141584e+00 -2.7432465921e+00 1.5838141584e+00 2.7432465921e+00 
61400 6.1344949939e+00 -6.6563017267e-04 1.5838352817e+00 -2.7432831787e+00 1.5838352817e+00 2.7432831787e+00 
61500 6.1344946007e+00 -6.6217252210e-04 1.5838562950e+00 -2.7433195748e+00 1.5838562950e+00 2.7433195748e+00 
61600 6.1344942115e+00 -6.5873365483e-04 1.5838771988e+00 -2.7433557813e+00 1.5838771988e+00 2.7433557813e+00 
61700 6.1344938264e+00 -6.5531342634e-04 1.5838979939e+00 -2.7433917994e+00 1.5838979939e+00 2.7433917994e+00 
61800 6.1344934453e+00 -6.5191169339e-04 1.5839186806e+00 -2.7434276299e+00 1.5839186806e+00 2.7434276299e+00 
61900 6.1344930681e+00 -6.4852831410e-04 1.5839392598e+00 -2.7434632740e+00 1.5839392598e+00 2.7434632740e+00 
62000 6.1344926949e+00 -6.4516314800e-04 1.5839597318e+00 -2.7434987326e+00 1.5839597318e+00 2.7434987326e+00 
62100 6.1344923255e+00 -6.4181605601e-04 1.5839800974e+00 -2.7435340068e+00 1.5839800974e+00 2.7435340068e+00 
62200 6.1344919599e+00 -6.3848690054e-04 1.5840003570e+00 -2.7435690975e+00 1.5840003570e+00 2.7435690975e+00 
62300 6.1344915982e+00 -6.3517554546e-04 1.5840205113e+00 -2.7436040058e+00 1.5840205113e+00 2.7436040058e+00 
62400 6.1344912401e+00 -6.3188185617e-04 1.5840405608e+00 -2.7436387326e+00 1.5840405608e+00 2.7436387326e+00 
62500 6.1344908858e+00 -6.2860569958e-04 1.5840605061e+00 -2.7436732789e+00 1.5840605061e+00 2.7436732789e+00 
62600 6.1344905352e+00 -6.2534694418e-04 1.5840803478e+00 -2.7437076456e+00 1.5840803478e+00 2.7437076456e+00 
62700 6.1344901882e+00 -6.2210546002e-04 1.5841000863e+00 -2.7437418337e+00 1.5841000863e+00 2.7437418337e+00 
62800 6.1344898448e+00 -6.1888111874e-04 1.5841197222e+00 -2.7437758442e+00 1.5841197222e+00 2.7437758442e+00 
62900 6.1344895050e+00 -6.1567379360e-04 1.5841392562e+00 -2.7438096780e+00 1.5841392562e+00 2.7438096780e+00 
63000 6.1344891687e+00 -6.1248335943e-04 1.5841586887e+00 -2.7438433360e+00 1.5841586887e+00 2.7438433360e+00 
63100 6.1344888358e+00 -6.0930969274e-04 1.5841780202e+00 -2.7438768193e+00 1.5841780202e+00 2.7438768193e+00 
63200 6.1344885065e+00 -6.0615267160e-04 1.5841972514e+00 -2.7439101286e+00 1.5841972514e+00 2.7439101286e+00 
63300 6.1344881805e+00 -6.0301217578e-04 1.5842163826e+00 -2.7439432649e+00 1.5842163826e+00 2.7439432649e+00 
63400 6.1344878579e+00 -5.9988808662e-04 1.5842354145e+00 -2.7439762291e+00 1.5842354145e+00 2.7439762291e+00 
63500 6.1344875387e+00 -5.9678028715e-04 1.5842543476e+00 -2.7440090222e+00 1.5842543476e+00 2.7440090222e+00 
63600 6.1344872227e+00 -5.9368866199e-04 1.5842731824e+00 -2.7440416450e+00 1.5842731824e+00 2.7440416450e+00 
63700 6.1344869101e+00 -5.9061309742e-04 1.5842919194e+00 -2.7440740984e+00 1.5842919194e+00 2.7440740984e+00 
63800 6.1344866007e+00 -5.8755348133e-04 1.5843105591e+00 -2.7441063833e+00 1.5843105591e+00 2.7441063833e+00 
63900 6.1344862945e+00 -5.8450970322e-04 1.5843291020e+00 -2.7441385005e+00 1.5843291020e+00 2.7441385005e+00 
64000 6.1344859914e+00 -5.8148165421e-04 1.5843475486e+00 -2.7441704510e+00 1.5843475486e+00 2.7441704510e+00 
64100 6.1344856915e+00 -5.7846922703e-04 1.5843658995e+00 -2.7442022357e+00 1.5843658995e+00 2.7442022357e+00 
64200 6.1344853948e+00 -5.7547231598e-04 1.5843841550e+00 -2.7442338553e+00 1.5843841550e+00 2.7442338553e+00 
64300 6.1344851011e+00 -5.7249081695e-04 1.5844023158e+00 -2.7442653107e+00 1.5844023158e+00 2.7442653107e+00 
64400 6.1344848104e+00 -5.6952462739e-04 1.5844203823e+00 -2.7442966028e+00 1.5844203823e+00 2.7442966028e+00 
64500 6.1344845228e+00 -5.6657364629e-04 1.5844383550e+00 -2.7443277324e+00 1.5844383550e+00 2.7443277324e+00 
64600 6.1344842381e+00 -5.6363777418e-04 1.5844562344e+00 -2.7443587003e+00 1.5844562344e+00 2.7443587003e+00 
64700 6.1344839564e+00 -5.6071691312e-04 1.5844740209e+00 -2.7443895074e+00 1.5844740209e+00 2.7443895074e+00 
64800 6.1344836776e+00 -5.5781096665e-04 1.5844917150e+00 -2.7444201546e+00 1.5844917150e+00 2.7444201546e+00 
64900 6.1344834017e+00 -5.5491983978e-04 1.5845093173e+00 -2.7444506425e+00 1.5845093173e+00 2.7444506425e+00 
65000 6.1344831286e+00 -5.5204343902e-04 1.5845268281e+00 -2.7444809722e+00 1.5845268281e+00 2.7444809722e+00 
65100 6.1344828584e+00 -5.4918167228e-04 1.5845442479e+00 -2.7445111442e+00 1.5845442479e+00 2.7445111442e+00 
65200 6.1344825910e+00 -5.4633444890e-04 1.5845615773e+00 -2.7445411596e+00 1.5845615773e+00 2.7445411596e+00 
65300 6.1344823264e+00 -5.4350167963e-04 1.5845788166e+00 -2.7445710189e+00 1.5845788166e+00 2.7445710189e+00 
65400 6.1344820645e+00 -5.4068327657e-04 1.5845959664e+00 -2.7446007232e+00 1.5845959664e+00 2.7446007232e+00 
65500 6.1344818053e+00 -5.3787915321e-04 1.5846130270e+00 -2.7446302731e+00 1.5846130270e+00 2.7446302731e+00 
65600 6.1344815488e+00 -5.3508922432e-04 1.5846299990e+00 -2.7446596694e+00 1.5846299990e+00 2.7446596694e+00 
65700 6.1344812950e+00 -5.3231340601e-04 1.5846468827e+00 -2.7446889129e+00 1.5846468827e+00 2.7446889129e+00 
65800 6.1344810438e+00 -5.2955161566e-04 1.5846636787e+00 -2.7447180044e+00 1.5846636787e+00 2.7447180044e+00 
65900 6.1344807952e+00 -5.2680377190e-04 1.5846803874e+00 -2.7447469447e+00 1.5846803874e+00 2.7447469447e+00 
66000 6.1344805491e+00 -5.2406979459e-04 1.5846970092e+00 -2.7447757345e+00 1.5846970092e+00 2.7447757345e+00 
66100 6.1344803057e+00 -5.2134960481e-04 1.5847135445e+00 -2.7448043746e+00 1.5847135445e+00 2.7448043746e+00 
66200 6.1344800647e+00 -5.1864312480e-04 1.5847299939e+00 -2.7448328657e+00 1.5847299939e+00 2.7448328657e+00 
66300 6.1344798263e+00 -5.1595027796e-04 1.5847463577e+00 -2.7448612086e+00 1.5847463577e+00 2.7448612086e+00 
66400 6.1344795903e+00 -5.1327098884e-04 1.5847626364e+00 -2.7448894041e+00 1.5847626364e+00 2.7448894041e+00 
66500 6.1344793568e+00 -5.1060518305e-04 1.5847788303e+00 -2.7449174529e+00 1.5847788303e+00 2.7449174529e+00 
66600 6.1344791257e+00 -5.0795278731e-04 1.5847949400e+00 -2.7449453557e+00 1.5847949400e+00 2.7449453557e+00 
66700 6.1344788970e+00 -5.0531372939e-04 1.5848109659e+00 -2.7449731133e+00 1.5848109659e+00 2.7449731133e+00 
66800 6.1344786706e+00 -5.0268793805e-04 1.5848269083e+00 -2.7450007264e+00 1.5848269083e+00 2.7450007264e+00 
66900 6.1344784467e+00 -5.0007534310e-04 1.5848427677e+00 -2.7450281957e+00 1.5848427677e+00 2.7450281957e+00 
67000 6.1344782250e+00 -4.9747587528e-04 1.5848585446e+00 -2.7450555220e+00 1.5848585446e+00 2.7450555220e+00 
67100 6.1344780056e+00 -4.9488946631e-04 1.5848742392e+00 -2.7450827059e+00 1.5848742392e+00 2.7450827059e+00 
67200 6.1344777885e+00 -4.9231604879e-04 1.5848898521e+00 -2.7451097483e+00 1.5848898521e+00 2.7451097483e+00 
67300 6.1344775737e+00 -4.8975555626e-04 1.5849053837e+00 -2.7451366498e+00 1.5849053837e+00 2.7451366498e+00 
67400 6.1344773611e+00 -4.8720792310e-04 1.5849208344e+00 -2.7451634111e+00 1.5849208344e+00 2.7451634111e+00 
67500 6.1344771507e+00 -4.8467308455e-04 1.5849362045e+00 -2.7451900330e+00 1.5849362045e+00 2.7451900330e+00 
67600 6.1344769425e+00 -4.8215097668e-04 1.5849514945e+00 -2.7452165160e+00 1.5849514945e+00 2.7452165160e+00 
67700 6.1344767364e+00 -4.7964153632e-04 1.5849667048e+00 -2.7452428610e+00 1.5849667048e+00 2.7452428610e+00 
67800 6.1344765325e+00 -4.7714470112e-04 1.5849818358e+00 -2.7452690687e+00 1.5849818358e+00 2.7452690687e+00 
67900 6.1344763307e+00 -4.7466040944e-04 1.5849968879e+00 -2.7452951397e+00 1.5849968879e+00 2.7452951397e+00 
68000 6.1344761310e+00 -4.7218860039e-04 1.5850118614e+00 -2.7453210746e+00 1.5850118614e+00 2.7453210746e+00 
68100 6.1344759333e+00 -4.6972921376e-04 1.5850267569e+00 -2.7453468743e+00 1.5850267569e+00 2.7453468743e+00 
68200 6.1344757377e+00 -4.6728219002e-04 1.5850415746e+00 -2.7453725394e+00 1.5850415746e+00 2.7453725394e+00 
68300 6.1344755442e+00 -4.6484747033e-04 1.5850563150e+00 -2.7453980705e+00 1.5850563150e+00 2.7453980705e+00 
68400 6.1344753526e+00 -4.6242499643e-04 1.5850709785e+00 -2.7454234683e+00 1.5850709785e+00 2.7454234683e+00 
68500 6.1344751631e+00 -4.6001471071e-04 1.5850855654e+00 -2.7454487336e+00 1.5850855654e+00 2.7454487336e+00 
68600 6.1344749755e+00 -4.5761655615e-04 1.5851000761e+00 -2.7454738670e+00 1.5851000761e+00 2.7454738670e+00 
68700 6.1344747898e+00 -4.5523047626e-04 1.5851145111e+00 -2.7454988690e+00 1.5851145111e+00 2.7454988690e+00 
68800 6.1344746061e+00 -4.5285641514e-04 1.5851288707e+00 -2.7455237405e+00 1.5851288707e+00 2.7455237405e+00 
68900 6.1344744243e+00 -4.5049431741e-04 1.5851431552e+00 -2.7455484821e+00 1.5851431552e+00 2.7455484821e+00 
69000 6.1344742443e+00 -4.4814412818e-04 1.5851573651e+00 -2.7455730944e+00 1.5851573651e+00 2.7455730944e+00 
69100 6.1344740663e+00 -4.4580579308e-04 1.5851715008e+00 -2.7455975781e+00 1.5851715008e+00 2.7455975781e+00 
69200 6.1344738901e+00 -4.4347925817e-04 1.5851855626e+00 -2.7456219338e+00 1.5851855626e+00 2.7456219338e+00 
69300 6.1344737157e+00 -4.4116446999e-04 1.5851995508e+00 -2.7456461622e+00 1.5851995508e+00 2.7456461622e+00 
69400 6.1344735431e+00 -4.3886137552e-04 1.5852134660e+00 -2.7456702639e+00 1.5852134660e+00 2.7456702639e+00 
69500 6.1344733723e+00 -4.3656992214e-04 1.5852273083e+00 -2.7456942396e+00 1.5852273083e+00 2.7456942396e+00 
69600 6.1344732033e+00 -4.3429005763e-04 1.5852410783e+00 -2.7457180898e+00 1.5852410783e+00 2.7457180898e+00 
69700 6.1344730361e+00 -4.3202173016e-04 1.5852547762e+00 -2.7457418154e+00 1.5852547762e+00 2.7457418154e+00 
69800 6.1344728706e+00 -4.2976488828e-04 1.5852684025e+00 -2.7457654168e+00 1.5852684025e+00 2.7457654168e+00 
69900 6.1344727068e+00 -4.2751948085e-04 1.5852819575e+00 -2.7457888947e+00 1.5852819575e+00 2.7457888947e+00 
70000 6.1344725447e+00 -4.2528545713e-04 1.5852954415e+00 -2.7458122497e+00 1.5852954415e+00 2.7458122497e+00 
70100 6.1344723842e+00 -4.2306276664e-04 1.5853088550e+00 -2.7458354825e+00 1.5853088550e+00 2.7458354825e+00 
70200 6.1344722255e+00 -4.2085135925e-04 1.5853221982e+00 -2.7458585937e+00 1.5853221982e+00 2.7458585937e+00 
70300 6.1344720684e+00 -4.1865118510e-04 1.5853354716e+00 -2.7458815839e+00 1.5853354716e+00 2.7458815839e+00 
70400 6.1344719129e+00 -4.1646219463e-04 1.5853486755e+00 -2.7459044537e+00 1.5853486755e+00 2.7459044537e+00 
70500 6.1344717591e+00 -4.1428433854e-04 1.5853618102e+00 -2.7459272037e+00 1.5853618102e+00 2.7459272037e+00 
70600 6.1344716068e+00 -4.1211756779e-04 1.5853748762e+00 -2.7459498346e+00 1.5853748762e+00 2.7459498346e+00 
70700 6.1344714562e+00 -4.0996183359e-04 1.5853878737e+00 -2.7459723469e+00 1.5853878737e+00 2.7459723469e+00 
70800 6.1344713070e+00 -4.0781708735e-04 1.5854008031e+00 -2.7459947413e+00 1.5854008031e+00 2.7459947413e+00 
70900 6.1344711595e+00 -4.0568328076e-04 1.5854136647e+00 -2.7460170184e+00 1.5854136647e+00 2.7460170184e+00 
71000 6.1344710135e+00 -4.0356036567e-04 1.5854264590e+00 -2.7460391787e+00 1.5854264590e+00 2.7460391787e+00 
71100 6.1344708690e+00 -4.0144829416e-04 1.5854391862e+00 -2.7460612228e+00 1.5854391862e+00 2.7460612228e+00 
71200 6.1344707260e+00 -3.9934701850e-04 1.5854518467e+00 -2.7460831514e+00 1.5854518467e+00 2.7460831514e+00 
71300 6.1344705844e+00 -3.9725649114e-04 1.5854644408e+00 -2.7461049651e+00 1.5854644408e+00 2.7461049651e+00 
71400 6.1344704444e+00 -3.9517666471e-04 1.5854769689e+00 -2.7461266644e+00 1.5854769689e+00 2.7461266644e+00 
71500 6.1344703058e+00 -3.9310749200e-04 1.5854894313e+00 -2.7461482499e+00 1.5854894313e+00 2.7461482499e+00 
71600 6.1344701686e+00 -3.9104892596e-04 1.5855018284e+00 -2.7461697222e+00 1.5855018284e+00 2.7461697222e+00 
71700 6.1344700329e+00 -3.8900091970e-04 1.5855141604e+00 -2.7461910820e+00 1.5855141604e+00 2.7461910820e+00 
71800 6.1344698986e+00 -3.8696342646e-04 1.5855264278e+00 -2.7462123297e+00 1.5855264278e+00 2.7462123297e+00 
71900 6.1344697657e+00 -3.8493639964e-04 1.5855386308e+00 -2.7462334659e+00 1.5855386308e+00 2.7462334659e+00 
72000 6.1344696341e+00 -3.8291979275e-04 1.5855507698e+00 -2.7462544912e+00 1.5855507698e+00 2.7462544912e+00 
72100 6.1344695040e+00 -3.8091355944e-04 1.5855628451e+00 -2.7462754063e+00 1.5855628451e+00 2.7462754063e+00 
72200 6.1344693751e+00 -3.7891765347e-04 1.5855748570e+00 -2.7462962116e+00 1.5855748570e+00 2.7462962116e+00 
72300 6.1344692477e+00 -3.7693202873e-04 1.5855868060e+00 -2.7463169077e+00 1.5855868060e+00 2.7463169077e+00 
72400 6.1344691215e+00 -3.7495663920e-04 1.5855986922e+00 -2.7463374953e+00 1.5855986922e+00 2.7463374953e+00 
72500 6.1344689967e+00 -3.7299143899e-04 1.5856105160e+00 -2.7463579747e+00 1.5856105160e+00 2.7463579747e+00 
72600 6.1344688731e+00 -3.7103638229e-04 1.5856222778e+00 -2.7463783467e+00 1.5856222778e+00 2.7463783467e+00 
72700 6.1344687509e+00 -3.6909142339e-04 1.5856339778e+00 -2.7463986118e+00 1.5856339778e+00 2.7463986118e+00 
72800 6.1344686299e+00 -3.6715651670e-04 1.5856456164e+00 -2.7464187705e+00 1.5856456164e+00 2.7464187705e+00 
72900 6.1344685102e+00 -3.6523161669e-04 1.5856571940e+00 -2.7464388233e+00 1.5856571940e+00 2.7464388233e+00 
73000 6.1344683917e+00 -3.6331667794e-04 1.5856687107e+00 -2.7464587709e+00 1.5856687107e+00 2.7464587709e+00 
73100 6.1344682744e+00 -3.6141165509e-04 1.5856801670e+00 -2.7464786138e+00 1.5856801670e+00 2.7464786138e+00 
73200 6.1344681584e+00 -3.5951650290e-04 1.5856915631e+00 -2.7464983524e+00 1.5856915631e+00 2.7464983524e+00 
73300 6.1344680436e+00 -3.5763117617e-04 1.5857028994e+00 -2.7465179874e+00 1.5857028994e+00 2.7465179874e+00 
73400 6.1344679299e+00 -3.5575562981e-04 1.5857141761e+00 -2.7465375194e+00 1.5857141761e+00 2.7465375194e+00 
73500 6.1344678175e+00 -3.5388981881e-04 1.5857253937e+00 -2.7465569487e+00 1.5857253937e+00 2.7465569487e+00 
73600 6.1344677062e+00 -3.5203369820e-04 1.5857365523e+00 -2.7465762760e+00 1.5857365523e+00 2.7465762760e+00 
73700 6.1344675961e+00 -3.5018722313e-04 1.5857476523e+00 -2.7465955018e+00 1.5857476523e+00 2.7465955018e+00 
73800 6.1344674871e+00 -3.4835034879e-04 1.5857586940e+00 -2.7466146266e+00 1.5857586940e+00 2.7466146266e+00 
73900 6.1344673793e+00 -3.4652303046e-04 1.5857696778e+00 -2.7466336510e+00 1.5857696778e+00 2.7466336510e+00 
74000 6.1344672726e+00 -3.4470522350e-04 1.5857806038e+00 -2.7466525754e+00 1.5857806038e+00 2.7466525754e+00 
74100 6.1344671670e+00 -3.4289688331e-04 1.5857914724e+00 -2.7466714005e+00 1.5857914724e+00 2.7466714005e+00 
74200 6.1344670624e+00 -3.4109796541e-04 1.5858022840e+00 -2.7466901266e+00 1.5858022840e+00 2.7466901266e+00 
74300 6.1344669590e+00 -3.3930842534e-04 1.5858130387e+00 -2.7467087544e+00 1.5858130387e+00 2.7467087544e+00 
74400 6.1344668567e+00 -3.3752821877e-04 1.5858237370e+00 -2.7467272843e+00 1.5858237370e+00 2.7467272843e+00 
74500 6.1344667554e+00 -3.3575730140e-04 1.5858343791e+00 -2.7467457169e+00 1.5858343791e+00 2.7467457169e+00 
74600 6.1344666552e+00 -3.3399562901e-04 1.5858449652e+00 -2.7467640527e+00 1.5858449652e+00 2.7467640527e+00 
74700 6.1344665560e+00 -3.3224315748e-04 1.5858554958e+00 -2.7467822921e+00 1.5858554958e+00 2.7467822921e+00 
74800 6.1344664578e+00 -3.3049984273e-04 1.5858659710e+00 -2.7468004357e+00 1.5858659710e+00 2.7468004357e+00 
74900 6.1344663607e+00 -3.2876564079e-04 1.5858763911e+00 -2.7468184840e+00 1.5858763911e+00 2.7468184840e+00 
75000 6.1344662646e+00 -3.2704050774e-04 1.5858867566e+00 -2.7468364375e+00 1.5858867566e+00 2.7468364375e+00 
75100 6.1344661695e+00 -3.2532439975e-04 1.5858970676e+00 -2.7468542966e+00 1.5858970676e+00 2.7468542966e+00 
75200 6.1344660754e+00 -3.2361727308e-04 1.5859073244e+00 -2.7468720619e+00 1.5859073244e+00 2.7468720619e+00 
75300 6.1344659822e+00 -3.2191908405e-04 1.5859175273e+00 -2.7468897339e+00 1.5859175273e+00 2.7468897339e+00 
75400 6.1344658901e+00 -3.2022978908e-04 1.5859276766e+00 -2.7469073130e+00 1.5859276766e+00 2.7469073130e+00 
75500 6.1344657988e+00 -3.1854934466e-04 1.5859377726e+00 -2.7469247998e+00 1.5859377726e+00 2.7469247998e+00 
75600 6.1344657086e+00 -3.1687770739e-04 1.5859478155e+00 -2.7469421946e+00 1.5859478155e+00 2.7469421946e+00 
75700 6.1344656193e+00 -3.1521483393e-04 1.5859578057e+00 -2.7469594981e+00 1.5859578057e+00 2.7469594981e+00 
75800 6.1344655309e+00 -3.1356068106e-04 1.5859677434e+00 -2.7469767107e+00 1.5859677434e+00 2.7469767107e+00 
75900 6.1344654434e+00 -3.1191520560e-04 1.5859776289e+00 -2.7469938329e+00 1.5859776289e+00 2.7469938329e+00 
76000 6.1344653568e+00 -3.1027836453e-04 1.5859874624e+00 -2.7470108651e+00 1.5859874624e+00 2.7470108651e+00 
76100 6.1344652712e+00 -3.0865011488e-04 1.5859972443e+00 -2.7470278078e+00 1.5859972443e+00 2.7470278078e+00 
76200 6.1344651864e+00 -3.0703041379e-04 1.5860069748e+00 -2.7470446615e+00 1.5860069748e+00 2.7470446615e+00 
76300 6.1344651025e+00 -3.0541921850e-04 1.5860166541e+00 -2.7470614266e+00 1.5860166541e+00 2.7470614266e+00 
76400 6.1344650195e+00 -3.0381648636e-04 1.5860262826e+00 -2.7470781037e+00 1.5860262826e+00 2.7470781037e+00 
76500 6.1344649374e+00 -3.0222217480e-04 1.5860358606e+00 -2.7470946931e+00 1.5860358606e+00 2.7470946931e+00 
76600 6.1344648561e+00 -3.0063624138e-04 1.5860453882e+00 -2.7471111954e+00 1.5860453882e+00 2.7471111954e+00 
76700 6.1344647757e+00 -2.9905864376e-04 1.5860548657e+00 -2.7471276110e+00 1.5860548657e+00 2.7471276110e+00 
76800 6.1344646961e+00 -2.9748933972e-04 1.5860642935e+00 -2.7471439404e+00 1.5860642935e+00 2.7471439404e+00 
76900 6.1344646173e+00 -2.9592828713e-04 1.5860736717e+00 -2.7471601840e+00 1.5860736717e+00 2.7471601840e+00 
77000 6.1344645393e+00 -2.9437544398e-04 1.5860830007e+00 -2.7471763422e+00 1.5860830007e+00 2.7471763422e+00 
77100 6.1344644622e+00 -2.9283076841e-04 1.5860922807e+00 -2.7471924156e+00 1.5860922807e+00 2.7471924156e+00 
77200 6.1344643859e+00 -2.9129421863e-04 1.5861015119e+00 -2.7472084045e+00 1.5861015119e+00 2.7472084045e+00 
77300 6.1344643103e+00 -2.8976575301e-04 1.5861106946e+00 -2.7472243094e+00 1.5861106946e+00 2.7472243094e+00 
77400 6.1344642356e+00 -2.8824533003e-04 1.5861198291e+00 -2.7472401308e+00 1.5861198291e+00 2.7472401308e+00 
77500 6.1344641616e+00 -2.8673290828e-04 1.5861289156e+00 -2.7472558691e+00 1.5861289156e+00 2.7472558691e+00 
77600 6.1344640884e+00 -2.8522844651e-04 1.5861379543e+00 -2.7472715247e+00 1.5861379543e+00 2.7472715247e+00 
77700 6.1344640160e+00 -2.8373190358e-04 1.5861469456e+00 -2.7472870981e+00 1.5861469456e+00 2.7472870981e+00 
77800 6.1344639443e+00 -2.8224323848e-04 1.5861558897e+00 -2.7473025897e+00 1.5861558897e+00 2.7473025897e+00 
77900 6.1344638734e+00 -2.8076241034e-04 1.5861647868e+00 -2.7473179999e+00 1.5861647868e+00 2.7473179999e+00 
78000 6.1344638032e+00 -2.7928937843e-04 1.5861736372e+00 -2.7473333292e+00 1.5861736372e+00 2.7473333292e+00 
78100 6.1344637337e+00 -2.7782410216e-04 1.5861824410e+00 -2.7473485780e+00 1.5861824410e+00 2.7473485780e+00 
78200 6.1344636650e+00 -2.7636654107e-04 1.5861911987e+00 -2.7473637466e+00 1.5861911987e+00 2.7473637466e+00 
78300 6.1344635969e+00 -2.7491665484e-04 1.5861999103e+00 -2.7473788357e+00 1.5861999103e+00 2.7473788357e+00 
78400 6.1344635296e+00 -2.7347440332e-04 1.5862085762e+00 -2.7473938454e+00 1.5862085762e+00 2.7473938454e+00 
78500 6.1344634630e+00 -2.7203974648e-04 1.5862171966e+00 -2.7474087764e+00 1.5862171966e+00 2.7474087764e+00 
78600 6.1344633971e+00 -2.7061264445e-04 1.5862257717e+00 -2.7474236289e+00 1.5862257717e+00 2.7474236289e+00 
78700 6.1344633319e+00 -2.6919305750e-04 1.5862343018e+00 -2.7474384035e+00 1.5862343018e+00 2.7474384035e+00 
78800 6.1344632673e+00 -2.6778094607e-04 1.5862427871e+00 -2.7474531004e+00 1.5862427871e+00 2.7474531004e+00 
78900 6.1344632035e+00 -2.6637627074e-04 1.5862512279e+00 -2.7474677202e+00 1.5862512279e+00 2.7474677202e+00 
79000 6.1344631403e+00 -2.6497899225e-04 1.5862596243e+00 -2.7474822632e+00 1.5862596243e+00 2.7474822632e+00 
79100 6.1344630777e+00 -2.6358907149e-04 1.5862679766e+00 -2.7474967299e+00 1.5862679766e+00 2.7474967299e+00 
79200 6.1344630158e+00 -2.6220646952e-04 1.5862762851e+00 -2.7475111206e+00 1.5862762851e+00 2.7475111206e+00 
79300 6.1344629546e+00 -2.6083114755e-04 1.5862845499e+00 -2.7475254357e+00 1.5862845499e+00 2.7475254357e+00 
79400 6.1344628940e+00 -2.5946306696e-04 1.5862927714e+00 -2.7475396757e+00 1.5862927714e+00 2.7475396757e+00 
79500 6.1344628340e+00 -2.5810218928e-04 1.5863009497e+00 -2.7475538409e+00 1.5863009497e+00 2.7475538409e+00 
79600 6.1344627747e+00 -2.5674847622e-04 1.5863090850e+00 -2.7475679318e+00 1.5863090850e+00 2.7475679318e+00 
79700 6.1344627159e+00 -2.5540188965e-04 1.5863171777e+00 -2.7475819486e+00 1.5863171777e+00 2.7475819486e+00 
79800 6.1344626578e+00 -2.5406239161e-04 1.5863252278e+00 -2.7475958919e+00 1.5863252278e+00 2.7475958919e+00 
79900 6.1344626003e+00 -2.5272994428e-04 1.5863332357e+00 -2.7476097620e+00 1.5863332357e+00 2.7476097620e+00 
80000 6.1344625434e+00 -2.5140451006e-04 1.5863412016e+00 -2.7476235593e+00 1.5863412016e+00 2.7476235593e+00 
80100 6.1344624871e+00 -2.5008605148e-04 1.5863491256e+00 -2.7476372841e+00 1.5863491256e+00 2.7476372841e+00 
80200 6.1344624314e+00 -2.4877453127e-04 1.5863570081e+00 -2.7476509369e+00 1.5863570081e+00 2.7476509369e+00 
80300 6.1344623762e+00 -2.4746991230e-04 1.5863648491e+00 -2.7476645181e+00 1.5863648491e+00 2.7476645181e+00 
80400 6.1344623217e+00 -2.4617215763e-04 1.5863726491e+00 -2.7476780279e+00 1.5863726491e+00 2.7476780279e+00 
80500 6.1344622677e+00 -2.4488123051e-04 1.5863804080e+00 -2.7476914668e+00 1.5863804080e+00 2.7476914668e+00 
80600 6.1344622142e+00 -2.4359709435e-04 1.5863881263e+00 -2.7477048352e+00 1.5863881263e+00 2.7477048352e+00 
80700 6.1344621614e+00 -2.4231971273e-04 1.5863958040e+00 -2.7477181334e+00 1.5863958040e+00 2.7477181334e+00 
80800 6.1344621090e+00 -2.4104904941e-04 1.5864034414e+00 -2.7477313619e+00 1.5864034414e+00 2.7477313619e+00 
80900 6.1344620573e+00 -2.3978506834e-04 1.5864110388e+00 -2.7477445209e+00 1.5864110388e+00 2.7477445209e+00 
81000 6.1344620060e+00 -2.3852773364e-04 1.5864185963e+00 -2.7477576108e+00 1.5864185963e+00 2.7477576108e+00 
81100 6.1344619553e+00 -2.3727700960e-04 1.5864261141e+00 -2.7477706320e+00 1.5864261141e+00 2.7477706320e+00 
81200 6.1344619052e+00 -2.3603286070e-04 1.5864335924e+00 -2.7477835849e+00 1.5864335924e+00 2.7477835849e+00 
81300 6.1344618555e+00 -2.3479525160e-04 1.5864410315e+00 -2.7477964698e+00 1.5864410315e+00 2.7477964698e+00 
81400 6.1344618064e+00 -2.3356414714e-04 1.5864484316e+00 -2.7478092871e+00 1.5864484316e+00 2.7478092871e+00 
81500 6.1344617578e+00 -2.3233951232e-04 1.5864557928e+00 -2.7478220372e+00 1.5864557928e+00 2.7478220372e+00 
81600 6.1344617097e+00 -2.3112131236e-04 1.5864631154e+00 -2.7478347203e+00 1.5864631154e+00 2.7478347203e+00 
81700 6.1344616621e+00 -2.2990951263e-04 1.5864703996e+00 -2.7478473368e+00 1.5864703996e+00 2.7478473368e+00 
81800 6.1344616150e+00 -2.2870407868e-04 1.5864776456e+00 -2.7478598872e+00 1.5864776456e+00 2.7478598872e+00 
81900 6.1344615684e+00 -2.2750497626e-04 1.5864848535e+00 -2.7478723717e+00 1.5864848535e+00 2.7478723717e+00 
82000 6.1344615222e+00 -2.2631217129e-04 1.5864920236e+00 -2.7478847907e+00 1.5864920236e+00 2.7478847907e+00 
82100 6.1344614766e+00 -2.2512562988e-04 1.5864991561e+00 -2.7478971445e+00 1.5864991561e+00 2.7478971445e+00 
82200 6.1344614314e+00 -2.2394531831e-04 1.5865062511e+00 -2.7479094335e+00 1.5865062511e+00 2.7479094335e+00 
82300 6.1344613867e+00 -2.2277120305e-04 1.5865133089e+00 -2.7479216580e+00 1.5865133089e+00 2.7479216580e+00 
82400 6.1344613425e+00 -2.2160325074e-04 1.5865203297e+00 -2.7479338183e+00 1.5865203297e+00 2.7479338183e+00 
82500 6.1344612988e+00 -2.2044142823e-04 1.5865273137e+00 -2.7479459149e+00 1.5865273137e+00 2.7479459149e+00 
82600 6.1344612554e+00 -2.1928570251e-04 1.5865342610e+00 -2.7479579479e+00 1.5865342610e+00 2.7479579479e+00 
82700 6.1344612126e+00 -2.1813604079e-04 1.5865411718e+00 -2.7479699179e+00 1.5865411718e+00 2.7479699179e+00 
82800 6.1344611702e+00 -2.1699241043e-04 1.5865480464e+00 -2.7479818250e+00 1.5865480464e+00 2.7479818250e+00 
82900 6.1344611282e+00 -2.1585477899e-04 1.5865548849e+00 -2.7479936697e+00 1.5865548849e+00 2.7479936697e+00 
83000 6.1344610867e+00 -2.1472311421e-04 1.5865616875e+00 -2.7480054522e+00 1.5865616875e+00 2.7480054522e+00 
83100 6.1344610456e+00 -2.1359738399e-04 1.5865684545e+00 -2.7480171728e+00 1.5865684545e+00 2.7480171728e+00 
83200 6.1344610050e+00 -2.1247755643e-04 1.5865751859e+00 -2.7480288320e+00 1.5865751859e+00 2.7480288320e+00 
83300 6.1344609647e+00 -2.1136359981e-04 1.5865818820e+00 -2.7480404300e+00 1.5865818820e+00 2.7480404300e+00 
83400 6.1344609249e+00 -2.1025548257e-04 1.5865885430e+00 -2.7480519672e+00 1.5865885430e+00 2.7480519672e+00 
83500 6.1344608855e+00 -2.0915317335e-04 1.5865951690e+00 -2.7480634438e+00 1.5865951690e+00 2.7480634438e+00 
83600 6.1344608465e+00 -2.0805664096e-04 1.5866017603e+00 -2.7480748602e+00 1.5866017603e+00 2.7480748602e+00 
83700 6.1344608080e+00 -2.0696585437e-04 1.5866083170e+00 -2.7480862167e+00 1.5866083170e+00 2.7480862167e+00 
83800 6.1344607698e+00 -2.0588078275e-04 1.5866148392e+00 -2.7480975136e+00 1.5866148392e+00 2.7480975136e+00 
83900 6.1344607320e+00 -2.0480139544e-04 1.5866213273e+00 -2.7481087513e+00 1.5866213273e+00 2.7481087513e+00 
84000 6.1344606947e+00 -2.0372766196e-04 1.5866277813e+00 -2.7481199299e+00 1.5866277813e+00 2.7481199299e+00 
84100 6.1344606577e+00 -2.0265955198e-04 1.5866342015e+00 -2.7481310500e+00 1.5866342015e+00 2.7481310500e+00 
84200 6.1344606211e+00 -2.0159703537e-04 1.5866405879e+00 -2.7481421117e+00 1.5866405879e+00 2.7481421117e+00 
84300 6.1344605849e+00 -2.0054008217e-04 1.5866469409e+00 -2.7481531153e+00 1.5866469409e+00 2.7481531153e+00 
84400 6.1344605490e+00 -1.9948866258e-04 1.5866532605e+00 -2.7481640612e+00 1.5866532605e+00 2.7481640612e+00 
84500 6.1344605136e+00 -1.9844274699e-04 1.5866595470e+00 -2.7481749497e+00 1.5866595470e+00 2.7481749497e+00 
84600 6.1344604785e+00 -1.9740230594e-04 1.5866658005e+00 -2.7481857810e+00 1.5866658005e+00 2.7481857810e+00 
84700 6.1344604437e+00 -1.9636731017e-04 1.5866720211e+00 -2.7481965555e+00 1.5866720211e+00 2.7481965555e+00 
84800 6.1344604094e+00 -1.9533773055e-04 1.5866782092e+00 -2.7482072735e+00 1.5866782092e+00 2.7482072735e+00 
84900 6.1344603754e+00 -1.9431353815e-04 1.5866843647e+00 -2.7482179353e+00 1.5866843647e+00 2.7482179353e+00 
85000 6.1344603417e+00 -1.9329470420e-04 1.5866904880e+00 -2.7482285411e+00 1.5866904880e+00 2.7482285411e+00 
85100 6.1344603085e+00 -1.9228120010e-04 1.5866965791e+00 -2.7482390912e+00 1.5866965791e+00 2.7482390912e+00 
85200 6.1344602755e+00 -1.9127299740e-04 1.5867026383e+00 -2.7482495860e+00 1.5867026383e+00 2.7482495860e+00 
85300 6.1344602429e+00 -1.9027006784e-04 1.5867086657e+00 -2.7482600257e+00 1.5867086657e+00 2.7482600257e+00 
85400 6.1344602107e+00 -1.8927238330e-04 1.5867146614e+00 -2.7482704107e+00 1.5867146614e+00 2.7482704107e+00 
85500 6.1344601787e+00 -1.8827991584e-04 1.5867206257e+00 -2.7482807411e+00 1.5867206257e+00 2.7482807411e+00 
85600 6.1344601472e+00 -1.8729263768e-04 1.5867265587e+00 -2.7482910174e+00 1.5867265587e+00 2.7482910174e+00 
85700 6.1344601159e+00 -1.8631052120e-04 1.5867324605e+00 -2.7483012397e+00 1.5867324605e+00 2.7483012397e+00 
85800 6.1344600850e+00 -1.8533353894e-04 1.5867383314e+00 -2.7483114084e+00 1.5867383314e+00 2.7483114084e+00 
85900 6.1344600544e+00 -1.8436166359e-04 1.5867441715e+00 -2.7483215237e+00 1.5867441715e+00 2.7483215237e+00 
86000 6.1344600241e+00 -1.8339486803e-04 1.5867499810e+00 -2.7483315859e+00 1.5867499810e+00 2.7483315859e+00 
86100 6.1344599941e+00 -1.8243312527e-04 1.5867557599e+00 -2.7483415954e+00 1.5867557599e+00 2.7483415954e+00 
86200 6.1344599645e+00 -1.8147640847e-04 1.5867615085e+00 -2.7483515523e+00 1.5867615085e+00 2.7483515523e+00 
86300 6.1344599351e+00 -1.8052469098e-04 1.5867672270e+00 -2.7483614569e+00 1.5867672270e+00 2.7483614569e+00 
86400 6.1344599061e+00 -1.7957794628e-04 1.5867729154e+00 -2.7483713096e+00 1.5867729154e+00 2.7483713096e+00 
86500 6.1344598774e+00 -1.7863614800e-04 1.5867785740e+00 -2.7483811106e+00 1.5867785740e+00 2.7483811106e+00 
86600 6.1344598490e+00 -1.7769926994e-04 1.5867842029e+00 -2.7483908601e+00 1.5867842029e+00 2.7483908601e+00 
86700 6.1344598208e+00 -1.7676728605e-04 1.5867898023e+00 -2.7484005585e+00 1.5867898023e+00 2.7484005585e+00 
86800 6.1344597930e+00 -1.7584017042e-04 1.5867953722e+00 -2.7484102059e+00 1.5867953722e+00 2.7484102059e+00 
86900 6.1344597655e+00 -1.7491789729e-04 1.5868009130e+00 -2.7484198028e+00 1.5868009130e+00 2.7484198028e+00 
87000 6.1344597382e+00 -1.7400044106e-04 1.5868064246e+00 -2.7484293492e+00 1.5868064246e+00 2.7484293492e+00 
87100 6.1344597112e+00 -1.7308777628e-04 1.5868119074e+00 -2.7484388456e+00 1.5868119074e+00 2.7484388456e+00 
87200 6.1344596846e+00 -1.7217987763e-04 1.5868173613e+00 -2.7484482921e+00 1.5868173613e+00 2.7484482921e+00 
87300 6.1344596582e+00 -1.7127671995e-04 1.5868227866e+00 -2.7484576891e+00 1.5868227866e+00 2.7484576891e+00 
87400 6.1344596320e+00 -1.7037827822e-04 1.5868281835e+00 -2.7484670367e+00 1.5868281835e+00 2.7484670367e+00 
87500 6.1344596062e+00 -1.6948452756e-04 1.5868335520e+00 -2.7484763352e+00 1.5868335520e+00 2.7484763352e+00 
87600 6.1344595806e+00 -1.6859544325e-04 1.5868388923e+00 -2.7484855850e+00 1.5868388923e+00 2.7484855850e+00 
87700 6.1344595553e+00 -1.6771100069e-04 1.5868442047e+00 -2.7484947862e+00 1.5868442047e+00 2.7484947862e+00 
87800 6.1344595302e+00 -1.6683117543e-04 1.5868494891e+00 -2.7485039390e+00 1.5868494891e+00 2.7485039390e+00 
87900 6.1344595054e+00 -1.6595594317e-04 1.5868547458e+00 -2.7485130439e+00 1.5868547458e+00 2.7485130439e+00 
88000 6.1344594809e+00 -1.6508527973e-04 1.5868599748e+00 -2.7485221009e+00 1.5868599748e+00 2.7485221009e+00 
88100 6.1344594566e+00 -1.6421916108e-04 1.5868651765e+00 -2.7485311104e+00 1.5868651765e+00 2.7485311104e+00 
88200 6.1344594326e+00 -1.6335756334e-04 1.5868703508e+00 -2.7485400726e+00 1.5868703508e+00 2.7485400726e+00 
88300 6.1344594089e+00 -1.6250046273e-04 1.5868754980e+00 -2.7485489878e+00 1.5868754980e+00 2.7485489878e+00 
88400 6.1344593853e+00 -1.6164783563e-04 1.5868806181e+00 -2.7485578561e+00 1.5868806181e+00 2.7485578561e+00 
88500 6.1344593621e+00 -1.6079965856e-04 1.5868857114e+00 -2.7485666779e+00 1.5868857114e+00 2.7485666779e+00 
88600 6.1344593391e+00 -1.5995590815e-04 1.5868907779e+00 -2.7485754534e+00 1.5868907779e+00 2.7485754534e+00 
88700 6.1344593163e+00 -1.5911656119e-04 1.5868958178e+00 -2.7485841828e+00 1.5868958178e+00 2.7485841828e+00 
88800 6.1344592937e+00 -1.5828159458e-04 1.5869008313e+00 -2.7485928663e+00 1.5869008313e+00 2.7485928663e+00 
88900 6.1344592714e+00 -1.5745098536e-04 1.5869058184e+00 -2.7486015043e+00 1.5869058184e+00 2.7486015043e+00 
89000 6.1344592494e+00 -1.5662471069e-04 1.5869107794e+00 -2.7486100969e+00 1.5869107794e+00 2.7486100969e+00 
89100 6.1344592275e+00 -1.5580274787e-04 1.5869157142e+00 -2.7486186444e+00 1.5869157142e+00 2.7486186444e+00 
89200 6.1344592059e+00 -1.5498507432e-04 1.5869206232e+00 -2.7486271470e+00 1.5869206232e+00 2.7486271470e+00 
89300 6.1344591845e+00 -1.5417166759e-04 1.5869255064e+00 -2.7486356050e+00 1.5869255064e+00 2.7486356050e+00 
89400 6.1344591634e+00 -1.5336250535e-04 1.5869303640e+00 -2.7486440185e+00 1.5869303640e+00 2.7486440185e+00 
89500 6.1344591424e+00 -1.5255756541e-04 1.5869351960e+00 -2.7486523879e+00 1.5869351960e+00 2.7486523879e+00 
89600 6.1344591217e+00 -1.5175682567e-04 1.5869400027e+00 -2.7486607133e+00 1.5869400027e+00 2.7486607133e+00 
89700 6.1344591012e+00 -1.5096026420e-04 1.5869447842e+00 -2.7486689950e+00 1.5869447842e+00 2.7486689950e+00 
89800 6.1344590809e+00 -1.5016785916e-04 1.5869495405e+00 -2.7486772331e+00 1.5869495405e+00 2.7486772331e+00 
89900 6.1344590608e+00 -1.4937958883e-04 1.5869542718e+00 -2.7486854281e+00 1.5869542718e+00 2.7486854281e+00 
90000 6.1344590410e+00 -1.4859543163e-04 1.5869589783e+00 -2.7486935799e+00 1.5869589783e+00 2.7486935799e+00 
90100 6.1344590213e+00 -1.4781536608e-04 1.5869636601e+00 -2.7487016890e+00 1.5869636601e+00 2.7487016890e+00 
90200 6.1344590019e+00 -1.4703937083e-04 1.5869683172e+00 -2.7487097555e+00 1.5869683172e+00 2.7487097555e+00 
90300 6.1344589826e+00 -1.4626742465e-04 1.5869729500e+00 -2.7487177796e+00 1.5869729500e+00 2.7487177796e+00 
90400 6.1344589636e+00 -1.4549950641e-04 1.5869775583e+00 -2.7487257615e+00 1.5869775583e+00 2.7487257615e+00 
90500 6.1344589447e+00 -1.4473559512e-04 1.5869821425e+00 -2.7487337015e+00 1.5869821425e+00 2.7487337015e+00 
90600 6.1344589261e+00 -1.4397566988e-04 1.5869867026e+00 -2.7487415999e+00 1.5869867026e+00 2.7487415999e+00 
90700 6.1344589077e+00 -1.4321970993e-04 1.5869912387e+00 -2.7487494567e+00 1.5869912387e+00 2.7487494567e+00 
90800 6.1344588894e+00 -1.4246769460e-04 1.5869957510e+00 -2.7487572722e+00 1.5869957510e+00 2.7487572722e+00 
90900 6.1344588713e+00 -1.4171960334e-04 1.5870002396e+00 -2.7487650467e+00 1.5870002396e+00 2.7487650467e+00 
91000 6.1344588535e+00 -1.4097541573e-04 1.5870047047e+00 -2.7487727803e+00 1.5870047047e+00 2.7487727803e+00 
91100 6.1344588358e+00 -1.4023511143e-04 1.5870091462e+00 -2.7487804733e+00 1.5870091462e+00 2.7487804733e+00 
91200 6.1344588183e+00 -1.3949867024e-04 1.5870135644e+00 -2.7487881259e+00 1.5870135644e+00 2.7487881259e+00 
91300 6.1344588010e+00 -1.3876607205e-04 1.5870179595e+00 -2.7487957383e+00 1.5870179595e+00 2.7487957383e+00 
91400 6.1344587838e+00 -1.3803729686e-04 1.5870223314e+00 -2.7488033107e+00 1.5870223314e+00 2.7488033107e+00 
91500 6.1344587669e+00 -1.3731232479e-04 1.5870266803e+00 -2.7488108433e+00 1.5870266803e+00 2.7488108433e+00 
91600 6.1344587501e+00 -1.3659113606e-04 1.5870310064e+00 -2.7488183363e+00 1.5870310064e+00 2.7488183363e+00 
91700 6.1344587335e+00 -1.3587371100e-04 1.5870353098e+00 -2.7488257899e+00 1.5870353098e+00 2.7488257899e+00 
91800 6.1344587171e+00 -1.3516003003e-04 1.5870395905e+00 -2.7488332044e+00 1.5870395905e+00 2.7488332044e+00 
91900 6.1344587008e+00 -1.3445007370e-04 1.5870438487e+00 -2.7488405799e+00 1.5870438487e+00 2.7488405799e+00 
92000 6.1344586847e+00 -1.3374382265e-04 1.5870480846e+00 -2.7488479166e+00 1.5870480846e+00 2.7488479166e+00 
92100 6.1344586688e+00 -1.3304125763e-04 1.5870522982e+00 -2.7488552148e+00 1.5870522982e+00 2.7488552148e+00 
92200 6.1344586531e+00 -1.3234235948e-04 1.5870564897e+00 -2.7488624746e+00 1.5870564897e+00 2.7488624746e+00 
92300 6.1344586375e+00 -1.3164710916e-04 1.5870606591e+00 -2.7488696963e+00 1.5870606591e+00 2.7488696963e+00 
92400 6.1344586221e+00 -1.3095548772e-04 1.5870648066e+00 -2.7488768800e+00 1.5870648066e+00 2.7488768800e+00 
92500 6.1344586068e+00 -1.3026747632e-04 1.5870689323e+00 -2.7488840259e+00 1.5870689323e+00 2.7488840259e+00 
92600 6.1344585917e+00 -1.2958305621e-04 1.5870730364e+00 -2.7488911343e+00 1.5870730364e+00 2.7488911343e+00 
92700 6.1344585768e+00 -1.2890220874e-04 1.5870771188e+00 -2.7488982053e+00 1.5870771188e+00 2.7488982053e+00 
92800 6.1344585620e+00 -1.2822491537e-04 1.5870811798e+00 -2.7489052392e+00 1.5870811798e+00 2.7489052392e+00 
92900 6.1344585474e+00 -1.2755115766e-04 1.5870852195e+00 -2.7489122360e+00 1.5870852195e+00 2.7489122360e+00 
93000 6.1344585329e+00 -1.2688091725e-04 1.5870892379e+00 -2.7489191961e+00 1.5870892379e+00 2.7489191961e+00 
93100 6.1344585186e+00 -1.2621417588e-04 1.5870932352e+00 -2.7489261196e+00 1.5870932352e+00 2.7489261196e+00 
93200 6.1344585044e+00 -1.2555091541e-04 1.5870972114e+00 -2.7489330067e+00 1.5870972114e+00 2.7489330067e+00 
93300 6.1344584904e+00 -1.2489111778e-04 1.5871011668e+00 -2.7489398576e+00 1.5871011668e+00 2.7489398576e+00 
93400 6.1344584766e+00 -1.2423476501e-04 1.5871051014e+00 -2.7489466725e+00 1.5871051014e+00 2.7489466725e+00 
93500 6.1344584628e+00 -1.2358183924e-04 1.5871090152e+00 -2.7489534516e+00 1.5871090152e+00 2.7489534516e+00 
93600 6.1344584493e+00 -1.2293232269e-04 1.5871129085e+00 -2.7489601949e+00 1.5871129085e+00 2.7489601949e+00 
93700 6.1344584358e+00 -1.2228619768e-04 1.5871167814e+00 -2.7489669029e+00 1.5871167814e+00 2.7489669029e+00 
93800 6.1344584225e+00 -1.2164344662e-04 1.5871206338e+00 -2.7489735756e+00 1.5871206338e+00 2.7489735756e+00 
93900 6.1344584094e+00 -1.2100405201e-04 1.5871244660e+00 -2.7489802131e+00 1.5871244660e+00 2.7489802131e+00 
94000 6.1344583963e+00 -1.2036799645e-04 1.5871282781e+00 -2.7489868158e+00 1.5871282781e+00 2.7489868158e+00 
94100 6.1344583835e+00 -1.1973526263e-04 1.5871320701e+00 -2.7489933838e+00 1.5871320701e+00 2.7489933838e+00 
94200 6.1344583707e+00 -1.1910583332e-04 1.5871358422e+00 -2.7489999172e+00 1.5871358422e+00 2.7489999172e+00 
94300 6.1344583581e+00 -1.1847969138e-04 1.5871395944e+00 -2.7490064162e+00 1.5871395944e+00 2.7490064162e+00 
94400 6.1344583456e+00 -1.1785681978e-04 1.5871433269e+00 -2.7490128811e+00 1.5871433269e+00 2.7490128811e+00 
94500 6.1344583333e+00 -1.1723720156e-04 1.5871470398e+00 -2.7490193119e+00 1.5871470398e+00 2.7490193119e+00 
94600 6.1344583211e+00 -1.1662081985e-04 1.5871507331e+00 -2.7490257090e+00 1.5871507331e+00 2.7490257090e+00 
94700 6.1344583090e+00 -1.1600765788e-04 1.5871544070e+00 -2.7490320724e+00 1.5871544070e+00 2.7490320724e+00 
94800 6.1344582970e+00 -1.1539769896e-04 1.5871580616e+00 -2.7490384023e+00 1.5871580616e+00 2.7490384023e+00 
94900 6.1344582852e+00 -1.1479092648e-04 1.5871616969e+00 -2.7490446989e+00 1.5871616969e+00 2.7490446989e+00 
95000 6.1344582735e+00 -1.1418732393e-04 1.5871653132e+00 -2.7490509624e+00 1.5871653132e+00 2.7490509624e+00 
95100 6.1344582619e+00 -1.1358687487e-04 1.5871689104e+00 -2.7490571930e+00 1.5871689104e+00 2.7490571930e+00 
95200 6.1344582504e+00 -1.1298956297e-04 1.5871724887e+00 -2.7490633907e+00 1.5871724887e+00 2.7490633907e+00 
95300 6.1344582390e+00 -1.1239537196e-04 1.5871760481e+00 -2.7490695559e+00 1.5871760481e+00 2.7490695559e+00 
95400 6.1344582278e+00 -1.1180428567e-04 1.5871795889e+00 -2.7490756886e+00 1.5871795889e+00 2.7490756886e+00 
95500 6.1344582167e+00 -1.1121628800e-04 1.5871831110e+00 -2.7490817891e+00 1.5871831110e+00 2.7490817891e+00 
95600 6.1344582057e+00 -1.1063136294e-04 1.5871866145e+00 -2.7490878575e+00 1.5871866145e+00 2.7490878575e+00 
95700 6.1344581948e+00 -1.1004949458e-04 1.5871900997e+00 -2.7490938939e+00 1.5871900997e+00 2.7490938939e+00 
95800 6.1344581841e+00 -1.0947066707e-04 1.5871935665e+00 -2.7490998986e+00 1.5871935665e+00 2.7490998986e+00 
95900 6.1344581734e+00 -1.0889486465e-04 1.5871970151e+00 -2.7491058717e+00 1.5871970151e+00 2.7491058717e+00 
96000 6.1344581629e+00 -1.0832207164e-04 1.5872004455e+00 -2.7491118133e+00 1.5872004455e+00 2.7491118133e+00 
96100 6.1344581525e+00 -1.0775227245e-04 1.5872038578e+00 -2.7491177237e+00 1.5872038578e+00 2.7491177237e+00 
96200 6.1344581421e+00 -1.0718545155e-04 1.5872072522e+00 -2.7491236030e+00 1.5872072522e+00 2.7491236030e+00 
96300 6.1344581319e+00 -1.0662159351e-04 1.5872106288e+00 -2.7491294514e+00 1.5872106288e+00 2.7491294514e+00 
96400 6.1344581218e+00 -1.0606068299e-04 1.5872139876e+00 -2.7491352689e+00 1.5872139876e+00 2.7491352689e+00 
96500 6.1344581118e+00 -1.0550270469e-04 1.5872173287e+00 -2.7491410559e+00 1.5872173287e+00 2.7491410559e+00 
96600 6.1344581020e+00 -1.0494764342e-04 1.5872206522e+00 -2.7491468124e+00 1.5872206522e+00 2.7491468124e+00 
96700 6.1344580922e+00 -1.0439548407e-04 1.5872239582e+00 -2.7491525386e+00 1.5872239582e+00 2.7491525386e+00 
96800 6.1344580825e+00 -1.0384621159e-04 1.5872272468e+00 -2.7491582346e+00 1.5872272468e+00 2.7491582346e+00 
96900 6.1344580729e+00 -1.0329981101e-04 1.5872305181e+00 -2.7491639007e+00 1.5872305181e+00 2.7491639007e+00 
97000 6.1344580634e+00 -1.0275626746e-04 1.5872337722e+00 -2.7491695370e+00 1.5872337722e+00 2.7491695370e+00 
97100 6.1344580540e+00 -1.0221556613e-04 1.5872370092e+00 -2.7491751435e+00 1.5872370092e+00 2.7491751435e+00 
97200 6.1344580448e+00 -1.0167769227e-04 1.5872402291e+00 -2.7491807206e+00 1.5872402291e+00 2.7491807206e+00 
97300 6.1344580356e+00 -1.0114263124e-04 1.5872434321e+00 -2.7491862683e+00 1.5872434321e+00 2.7491862683e+00 
97400 6.1344580265e+00 -1.0061036846e-04 1.5872466182e+00 -2.7491917868e+00 1.5872466182e+00 2.7491917868e+00 
97500 6.1344580175e+00 -1.0008088941e-04 1.5872497875e+00 -2.7491972763e+00 1.5872497875e+00 2.7491972763e+00 
97600 6.1344580086e+00 -9.9554179670e-05 1.5872529402e+00 -2.7492027368e+00 1.5872529402e+00 2.7492027368e+00 
97700 6.1344579998e+00 -9.9030224881e-05 1.5872560762e+00 -2.7492081686e+00 1.5872560762e+00 2.7492081686e+00 
97800 6.1344579911e+00 -9.8509010762e-05 1.5872591958e+00 -2.7492135718e+00 1.5872591958e+00 2.7492135718e+00 
97900 6.1344579825e+00 -9.7990523103e-05 1.5872622989e+00 -2.7492189466e+00 1.5872622989e+00 2.7492189466e+00 
98000 6.1344579740e+00 -9.7474747769e-05 1.5872653857e+00 -2.7492242931e+00 1.5872653857e+00 2.7492242931e+00 
98100 6.1344579655e+00 -9.6961670697e-05 1.5872684562e+00 -2.7492296114e+00 1.5872684562e+00 2.7492296114e+00 
98200 6.1344579572e+00 -9.6451277898e-05 1.5872715105e+00 -2.7492349017e+00 1.5872715105e+00 2.7492349017e+00 
98300 6.1344579489e+00 -9.5943555453e-05 1.5872745488e+00 -2.7492401641e+00 1.5872745488e+00 2.7492401641e+00 
98400 6.1344579407e+00 -9.5438489516e-05 1.5872775711e+00 -2.7492453988e+00 1.5872775711e+00 2.7492453988e+00 
98500 6.1344579326e+00 -9.4936066312e-05 1.5872805774e+00 -2.7492506060e+00 1.5872805774e+00 2.7492506060e+00 
98600 6.1344579246e+00 -9.4436272136e-05 1.5872835680e+00 -2.7492557858e+00 1.5872835680e+00 2.7492557858e+00 
98700 6.1344579167e+00 -9.3939093357e-05 1.5872865428e+00 -2.7492609382e+00 1.5872865428e+00 2.7492609382e+00 
98800 6.1344579089e+00 -9.3444516409e-05 1.5872895019e+00 -2.7492660635e+00 1.5872895019e+00 2.7492660635e+00 
98900 6.1344579011e+00 -9.2952527800e-05 1.5872924454e+00 -2.7492711619e+00 1.5872924454e+00 2.7492711619e+00 
99000 6.1344578935e+00 -9.2463114107e-05 1.5872953734e+00 -2.7492762334e+00 1.5872953734e+00 2.7492762334e+00 
99100 6.1344578859e+00 -9.1976261973e-05 1.5872982860e+00 -2.7492812781e+00 1.5872982860e+00 2.7492812781e+00 
99200 6.1344578784e+00 -9.1491958114e-05 1.5873011833e+00 -2.7492862963e+00 1.5873011833e+00 2.7492862963e+00 
99300 6.1344578709e+00 -9.1010189312e-05 1.5873040653e+00 -2.7492912881e+00 1.5873040653e+00 2.7492912881e+00 
99400 6.1344578636e+00 -9.0530942416e-05 1.5873069321e+00 -2.7492962536e+00 1.5873069321e+00 2.7492962536e+00 
99500 6.1344578563e+00 -9.0054204344e-05 1.5873097838e+00 -2.7493011929e+00 1.5873097838e+00 2.7493011929e+00 
99600 6.1344578491e+00 -8.9579962083e-05 1.5873126205e+00 -2.7493061062e+00 1.5873126205e+00 2.7493061062e+00 
99700 6.1344578420e+00 -8.9108202685e-05 1.5873154422e+00 -2.7493109936e+00 1.5873154422e+00 2.7493109936e+00 
99800 6.1344578349e+00 -8.8638913267e-05 1.5873182491e+00 -2.7493158553e+00 1.5873182491e+00 2.7493158553e+00 
99900 6.1344578280e+00 -8.8172081017e-05 1.5873210412e+00 -2.7493206913e+00 1.5873210412e+00 2.7493206913e+00 
100000 6.1344578211e+00 -8.7707693185e-05 1.5873238186e+00 -2.7493255019e+00 1.5873238186e+00 2.7493255019e+00 
100100 6.1344578142e+00 -8.7245737087e-05 1.5873265814e+00 -2.7493302871e+00 1.5873265814e+00 2.7493302871e+00 
100200 6.1344578075e+00 -8.6786200107e-05 1.5873293296e+00 -2.7493350472e+00 1.5873293296e+00 2.7493350472e+00 
100300 6.1344578008e+00 -8.6329069690e-05 1.5873320633e+00 -2.7493397821e+00 1.5873320633e+00 2.7493397821e+00 
100400 6.1344577942e+00 -8.5874333349e-05 1.5873347826e+00 -2.7493444921e+00 1.5873347826e+00 2.7493444921e+00 
100500 6.1344577876e+00 -8.5421978660e-05 1.5873374876e+00 -2.7493491773e+00 1.5873374876e+00 2.7493491773e+00 
100600 6.1344577812e+00 -8.4971993259e-05 1.5873401783e+00 -2.7493538377e+00 1.5873401783e+00 2.7493538377e+00 
100700 6.1344577748e+00 -8.4524364854e-05 1.5873428549e+00 -2.7493584737e+00 1.5873428549e+00 2.7493584737e+00 
100800 6.1344577684e+00 -8.4079081209e-05 1.5873455173e+00 -2.7493630852e+00 1.5873455173e+00 2.7493630852e+00 
100900 6.1344577621e+00 -8.3636130154e-05 1.5873481657e+00 -2.7493676724e+00 1.5873481657e+00 2.7493676724e+00 
101000 6.1344577559e+00 -8.3195499581e-05 1.5873508002e+00 -2.7493722354e+00 1.5873508002e+00 2.7493722354e+00 
101100 6.1344577498e+00 -8.2757177444e-05 1.5873534208e+00 -2.7493767744e+00 1.5873534208e+00 2.7493767744e+00 
101200 6.1344577437e+00 -8.2321151761e-05 1.5873560275e+00 -2.7493812894e+00 1.5873560275e+00 2.7493812894e+00 
101300 6.1344577377e+00 -8.1887410607e-05 1.5873586206e+00 -2.7493857807e+00 1.5873586206e+00 2.7493857807e+00 
101400 6.1344577318e+00 -8.1455942123e-05 1.5873611999e+00 -2.7493902482e+00 1.5873611999e+00 2.7493902482e+00 
101500 6.1344577259e+00 -8.1026734510e-05 1.5873637657e+00 -2.7493946923e+00 1.5873637657e+00 2.7493946923e+00 
101600 6.1344577200e+00 -8.0599776027e-05 1.5873663179e+00 -2.7493991129e+00 1.5873663179e+00 2.7493991129e+00 
101700 6.1344577143e+00 -8.0175054995e-05 1.5873688567e+00 -2.7494035102e+00 1.5873688567e+00 2.7494035102e+00 
101800 6.1344577086e+00 -7.9752559798e-05 1.5873713821e+00 -2.7494078843e+00 1.5873713821e+00 2.7494078843e+00 
101900 6.1344577029e+00 -7.9332278873e-05 1.5873738942e+00 -2.7494122354e+00 1.5873738942e+00 2.7494122354e+00 
102000 6.1344576974e+00 -7.8914200723e-05 1.5873763931e+00 -2.7494165636e+00 1.5873763931e+00 2.7494165636e+00 
102100 6.1344576918e+00 -7.8498313909e-05 1.5873788788e+00 -2.7494208689e+00 1.5873788788e+00 2.7494208689e+00 
102200 6.1344576864e+00 -7.8084607045e-05 1.5873813513e+00 -2.7494251515e+00 1.5873813513e+00 2.7494251515e+00 
102300 6.1344576810e+00 -7.7673068812e-05 1.5873838109e+00 -2.7494294116e+00 1.5873838109e+00 2.7494294116e+00 
102400 6.1344576756e+00 -7.7263687943e-05 1.5873862575e+00 -2.7494336492e+00 1.5873862575e+00 2.7494336492e+00 
102500 6.1344576703e+00 -7.6856453231e-05 1.5873886911e+00 -2.7494378644e+00 1.5873886911e+00 2.7494378644e+00 
102600 6.1344576651e+00 -7.6451353527e-05 1.5873911120e+00 -2.7494420574e+00 1.5873911120e+00 2.7494420574e+00 
102700 6.1344576599e+00 -7.6048377740e-05 1.5873935201e+00 -2.7494462284e+00 1.5873935201e+00 2.7494462284e+00 
102800 6.1344576548e+00 -7.5647514834e-05 1.5873959155e+00 -2.7494503773e+00 1.5873959155e+00 2.7494503773e+00 
102900 6.1344576497e+00 -7.5248753830e-05 1.5873982982e+00 -2.7494545044e+00 1.5873982982e+00 2.7494545044e+00 
103000 6.1344576447e+00 -7.4852083807e-05 1.5874006684e+00 -2.7494586096e+00 1.5874006684e+00 2.7494586096e+00 
103100 6.1344576397e+00 -7.4457493899e-05 1.5874030261e+00 -2.7494626933e+00 1.5874030261e+00 2.7494626933e+00 
103200 6.1344576348e+00 -7.4064973297e-05 1.5874053714e+00 -2.7494667554e+00 1.5874053714e+00 2.7494667554e+00 
103300 6.1344576299e+00 -7.3674511244e-05 1.5874077043e+00 -2.7494707961e+00 1.5874077043e+00 2.7494707961e+00 
103400 6.1344576251e+00 -7.3286097043e-05 1.5874100248e+00 -2.7494748155e+00 1.5874100248e+00 2.7494748155e+00 
103500 6.1344576203e+00 -7.2899720051e-05 1.5874123332e+00 -2.7494788137e+00 1.5874123332e+00 2.7494788137e+00 
103600 6.1344576156e+00 -7.2515369676e-05 1.5874146294e+00 -2.7494827908e+00 1.5874146294e+00 2.7494827908e+00 
103700 6.1344576110e+00 -7.2133035385e-05 1.5874169135e+00 -2.7494867469e+00 1.5874169135e+00 2.7494867469e+00 
103800 6.1344576064e+00 -7.1752706695e-05 1.5874191855e+00 -2.7494906822e+00 1.5874191855e+00 2.7494906822e+00 
103900 6.1344576018e+00 -7.1374373181e-05 1.5874214455e+00 -2.7494945967e+00 1.5874214455e+00 2.7494945967e+00 
104000 6.1344575973e+00 -7.0998024469e-05 1.5874236936e+00 -2.7494984905e+00 1.5874236936e+00 2.7494984905e+00 
104100 6.1344575928e+00 -7.0623650240e-05 1.5874259299e+00 -2.7495023639e+00 1.5874259299e+00 2.7495023639e+00 
104200 6.1344575886e+00 -7.1726765515e-05 1.5874259299e+00 -2.7495023639e+00 1.5874259299e+00 2.7495023639e+00 
104300 6.1344575842e+00 -7.1326683052e-05 1.5874281891e+00 -2.7495062769e+00 1.5874281891e+00 2.7495062769e+00 
104400 6.1344575799e+00 -7.0929176305e-05 1.5874304357e+00 -2.7495101682e+00 1.5874304357e+00 2.7495101682e+00 
104500 6.1344575756e+00 -7.0534218693e-05 1.5874326698e+00 -2.7495140377e+00 1.5874326698e+00 2.7495140377e+00 
104600 6.1344575716e+00 -7.1615473803e-05 1.5874326698e+00 -2.7495140377e+00 1.5874326698e+00 2.7495140377e+00 
104700 6.1344575674e+00 -7.1195946113e-05 1.5874349255e+00 -2.7495179447e+00 1.5874349255e+00 2.7495179447e+00 
104800 6.1344575632e+00 -7.0779522006e-05 1.5874371680e+00 -2.7495218288e+00 1.5874371680e+00 2.7495218288e+00 
104900 6.1344575591e+00 -7.0366160447e-05 1.5874393974e+00 -2.7495256902e+00 1.5874393974e+00 2.7495256902e+00 
105000 6.1344575552e+00 -7.1426031432e-05 1.5874393974e+00 -2.7495256902e+00 1.5874393974e+00 2.7495256902e+00 
105100 6.1344575512e+00 -7.0989153807e-05 1.5874416471e+00 -2.7495295868e+00 1.5874416471e+00 2.7495295868e+00 
105200 6.1344575472e+00 -7.0555850891e-05 1.5874438831e+00 -2.7495334596e+00 1.5874438831e+00 2.7495334596e+00 
105300 6.1344575435e+00 -7.1600266772e-05 1.5874438831e+00 -2.7495334596e+00 1.5874438831e+00 2.7495334596e+00 
105400 6.1344575396e+00 -7.1144350505e-05 1.5874461383e+00 -2.7495373658e+00 1.5874461383e+00 2.7495373658e+00 
105500 6.1344575357e+00 -7.0692482922e-05 1.5874483791e+00 -2.7495412470e+00 1.5874483791e+00 2.7495412470e+00 
105600 6.1344575321e+00 -7.1721674231e-05 1.5874483791e+00 -2.7495412470e+00 1.5874483791e+00 2.7495412470e+00 
105700 6.1344575283e+00 -7.1248045320e-05 1.5874506381e+00 -2.7495451598e+00 1.5874506381e+00 2.7495451598e+00 
105800 6.1344575246e+00 -7.0778903746e-05 1.5874528822e+00 -2.7495490467e+00 1.5874528822e+00 2.7495490467e+00 
105900 6.1344575209e+00 -7.0314171620e-05 1.5874551116e+00 -2.7495529080e+00 1.5874551116e+00 2.7495529080e+00 
106000 6.1344575174e+00 -7.1322974204e-05 1.5874551116e+00 -2.7495529080e+00 1.5874551116e+00 2.7495529080e+00 
106100 6.1344575138e+00 -7.0837331488e-05 1.5874573580e+00 -2.7495567990e+00 1.5874573580e+00 2.7495567990e+00 
106200 6.1344575102e+00 -7.0356506124e-05 1.5874595892e+00 -2.7495606634e+00 1.5874595892e+00 2.7495606634e+00 
106300 6.1344575068e+00 -7.1350519918e-05 1.5874595892e+00 -2.7495606634e+00 1.5874595892e+00 2.7495606634e+00 
106400 6.1344575033e+00 -7.0849549582e-05 1.5874618365e+00 -2.7495645559e+00 1.5874618365e+00 2.7495645559e+00 
106500 6.1344574998e+00 -7.0353774321e-05 1.5874640680e+00 -2.7495684210e+00 1.5874640680e+00 2.7495684210e+00 
106600 6.1344574966e+00 -7.1333171208e-05 1.5874640680e+00 -2.7495684210e+00 1.5874640680e+00 2.7495684210e+00 
106700 6.1344574932e+00 -7.0817977955e-05 1.5874663148e+00 -2.7495723125e+00 1.5874663148e+00 2.7495723125e+00 
106800 6.1344574898e+00 -7.0308329640e-05 1.5874685453e+00 -2.7495761759e+00 1.5874685453e+00 2.7495761759e+00 
106900 6.1344574867e+00 -7.1273266412e-05 1.5874685453e+00 -2.7495761759e+00 1.5874685453e+00 2.7495761759e+00 
107000 6.1344574834e+00 -7.0744891907e-05 1.5874707902e+00 -2.7495800642e+00 1.5874707902e+00 2.7495800642e+00 
107100 6.1344574801e+00 -7.0222386497e-05 1.5874730184e+00 -2.7495839236e+00 1.5874730184e+00 2.7495839236e+00 
107200 6.1344574771e+00 -7.1173007396e-05 1.5874730184e+00 -2.7495839236e+00 1.5874730184e+00 2.7495839236e+00 
107300 6.1344574739e+00 -7.0632435606e-05 1.5874752601e+00 -2.7495878063e+00 1.5874752601e+00 2.7495878063e+00 
107400 6.1344574709e+00 -7.1573986936e-05 1.5874752601e+00 -2.7495878063e+00 1.5874752601e+00 2.7495878063e+00 
107500 6.1344574678e+00 -7.1015991560e-05 1.5874775145e+00 -2.7495917110e+00 1.5874775145e+00 2.7495917110e+00 
107600 6.1344574647e+00 -7.0464562097e-05 1.5874797512e+00 -2.7495955851e+00 1.5874797512e+00 2.7495955851e+00 
107700 6.1344574618e+00 -7.1392034612e-05 1.5874797512e+00 -2.7495955851e+00 1.5874797512e+00 2.7495955851e+00 
107800 6.1344574587e+00 -7.0823778486e-05 1.5874819998e+00 -2.7495994798e+00 1.5874819998e+00 2.7495994798e+00 
107900 6.1344574557e+00 -7.0262341551e-05 1.5874842305e+00 -2.7496033435e+00 1.5874842305e+00 2.7496033435e+00 
108000 6.1344574529e+00 -7.1175847878e-05 1.5874842305e+00 -2.7496033435e+00 1.5874842305e+00 2.7496033435e+00 
108100 6.1344574500e+00 -7.0598157766e-05 1.5874864723e+00 -2.7496072264e+00 1.5874864723e+00 2.7496072264e+00 
108200 6.1344574473e+00 -7.1502813070e-05 1.5874864723e+00 -2.7496072264e+00 1.5874864723e+00 2.7496072264e+00 
108300 6.1344574444e+00 -7.0909459475e-05 1.5874887244e+00 -2.7496111271e+00 1.5874887244e+00 2.7496111271e+00 
108400 6.1344574415e+00 -7.0323515521e-05 1.5874909578e+00 -2.7496149954e+00 1.5874909578e+00 2.7496149954e+00 
108500 6.1344574389e+00 -7.1214402938e-05 1.5874909578e+00 -2.7496149954e+00 1.5874909578e+00 2.7496149954e+00 
108600 6.1344574361e+00 -7.0613318707e-05 1.5874932008e+00 -2.7496188804e+00 1.5874932008e+00 2.7496188804e+00 
108700 6.1344574335e+00 -7.1495480562e-05 1.5874932008e+00 -2.7496188804e+00 1.5874932008e+00 2.7496188804e+00 
108800 6.1344574308e+00 -7.0879814875e-05 1.5874954526e+00 -2.7496227807e+00 1.5874954526e+00 2.7496227807e+00 
108900 6.1344574280e+00 -7.0272085738e-05 1.5874976850e+00 -2.7496266474e+00 1.5874976850e+00 2.7496266474e+00 
109000 6.1344574256e+00 -7.1140659993e-05 1.5874976850e+00 -2.7496266474e+00 1.5874976850e+00 2.7496266474e+00 
109100 6.1344574229e+00 -7.0518829480e-05 1.5874999257e+00 -2.7496305283e+00 1.5874999257e+00 2.7496305283e+00 
109200 6.1344574204e+00 -7.1378793992e-05 1.5874999257e+00 -2.7496305283e+00 1.5874999257e+00 2.7496305283e+00 
109300 6.1344574178e+00 -7.0743394074e-05 1.5875021738e+00 -2.7496344222e+00 1.5875021738e+00 2.7496344222e+00 
109400 6.1344574153e+00 -7.0116401207e-05 1.5875044020e+00 -2.7496382815e+00 1.5875044020e+00 2.7496382815e+00 
109500 6.1344574129e+00 -7.0962948954e-05 1.5875044020e+00 -2.7496382815e+00 1.5875044020e+00 2.7496382815e+00 
109600 6.1344574104e+00 -7.0322829650e-05 1.5875066370e+00 -2.7496421527e+00 1.5875066370e+00 2.7496421527e+00 
109700 6.1344574081e+00 -7.1160879100e-05 1.5875066370e+00 -2.7496421527e+00 1.5875066370e+00 2.7496421527e+00 
109800 6.1344574056e+00 -7.0508141802e-05 1.5875088783e+00 -2.7496460347e+00 1.5875088783e+00 2.7496460347e+00 
109900 6.1344574033e+00 -7.1337748177e-05 1.5875088783e+00 -2.7496460347e+00 1.5875088783e+00 2.7496460347e+00 
110000 6.1344574009e+00 -7.0672886988e-05 1.5875111252e+00 -2.7496499264e+00 1.5875111252e+00 2.7496499264e+00 
110100 6.1344573987e+00 -7.1494103115e-05 1.5875111252e+00 -2.7496499264e+00 1.5875111252e+00 2.7496499264e+00 
110200 6.1344573963e+00 -7.0817598501e-05 1.5875133769e+00 -2.7496538265e+00 1.5875133769e+00 2.7496538265e+00 
110300 6.1344573939e+00 -7.0150466825e-05 1.5875156074e+00 -2.7496576898e+00 1.5875156074e+00 2.7496576898e+00 
110400 6.1344573918e+00 -7.0958586021e-05 1.5875156074e+00 -2.7496576898e+00 1.5875156074e+00 2.7496576898e+00 
110500 6.1344573895e+00 -7.0280180810e-05 1.5875178423e+00 -2.7496615607e+00 1.5875178423e+00 2.7496615607e+00 
110600 6.1344573874e+00 -7.1080011190e-05 1.5875178423e+00 -2.7496615607e+00 1.5875178423e+00 2.7496615607e+00 
110700 6.1344573851e+00 -7.0390795410e-05 1.5875200810e+00 -2.7496654383e+00 1.5875200810e+00 2.7496654383e+00 
110800 6.1344573831e+00 -7.1182390345e-05 1.5875200810e+00 -2.7496654383e+00 1.5875200810e+00 2.7496654383e+00 
110900 6.1344573809e+00 -7.0482814727e-05 1.5875223229e+00 -2.7496693215e+00 1.5875223229e+00 2.7496693215e+00 
111000 6.1344573789e+00 -7.1266226267e-05 1.5875223229e+00 -2.7496693215e+00 1.5875223229e+00 2.7496693215e+00 
111100 6.1344573767e+00 -7.0556729856e-05 1.5875245675e+00 -2.7496732092e+00 1.5875245675e+00 2.7496732092e+00 
111200 6.1344573747e+00 -7.1332008989e-05 1.5875245675e+00 -2.7496732092e+00 1.5875245675e+00 2.7496732092e+00 
111300 6.1344573726e+00 -7.0613019660e-05 1.5875268141e+00 -2.7496771005e+00 1.5875268141e+00 2.7496771005e+00 
111400 6.1344573707e+00 -7.1380216548e-05 1.5875268141e+00 -2.7496771005e+00 1.5875268141e+00 2.7496771005e+00 
111500 6.1344573686e+00 -7.0652151479e-05 1.5875290623e+00 -2.7496809944e+00 1.5875290623e+00 2.7496809944e+00 
111600 6.1344573667e+00 -7.1411315689e-05 1.5875290623e+00 -2.7496809944e+00 1.5875290623e+00 2.7496809944e+00 
111700 6.1344573647e+00 -7.0674581825e-05 1.5875313114e+00 -2.7496848900e+00 1.5875313114e+00 2.7496848900e+00 
111800 6.1344573628e+00 -7.1425762532e-05 1.5875313114e+00 -2.7496848900e+00 1.5875313114e+00 2.7496848900e+00 
111900 6.1344573608e+00 -7.0680756999e-05 1.5875335610e+00 -2.7496887864e+00 1.5875335610e+00 2.7496887864e+00 
112000 6.1344573590e+00 -7.1424003180e-05 1.5875335610e+00 -2.7496887864e+00 1.5875335610e+00 2.7496887864e+00 
112100 6.1344573571e+00 -7.0671113680e-05 1.5875358106e+00 -2.7496926827e+00 1.5875358106e+00 2.7496926827e+00 
112200 6.1344573553e+00 -7.1406474290e-05 1.5875358106e+00 -2.7496926827e+00 1.5875358106e+00 2.7496926827e+00 
112300 6.1344573534e+00 -7.0646079466e-05 1.5875380595e+00 -2.7496965780e+00 1.5875380595e+00 2.7496965780e+00 
112400 6.1344573517e+00 -7.1373603597e-05 1.5875380595e+00 -2.7496965780e+00 1.5875380595e+00 2.7496965780e+00 
112500 6.1344573498e+00 -7.0606073370e-05 1.5875403075e+00 -2.7497004716e+00 1.5875403075e+00 2.7497004716e+00 
112600 6.1344573481e+00 -7.1325810394e-05 1.5875403075e+00 -2.7497004716e+00 1.5875403075e+00 2.7497004716e+00 
112700 6.1344573462e+00 -7.0551506276e-05 1.5875425539e+00 -2.7497043625e+00 1.5875425539e+00 2.7497043625e+00 
112800 6.1344573446e+00 -7.1263505977e-05 1.5875425539e+00 -2.7497043625e+00 1.5875425539e+00 2.7497043625e+00 
112900 6.1344573428e+00 -7.0482781354e-05 1.5875447983e+00 -2.7497082500e+00 1.5875447983e+00 2.7497082500e+00 
113000 6.1344573412e+00 -7.1187094037e-05 1.5875447983e+00 -2.7497082500e+00 1.5875447983e+00 2.7497082500e+00 
113100 6.1344573394e+00 -7.0400294440e-05 1.5875470404e+00 -2.7497121334e+00 1.5875470404e+00 2.7497121334e+00 
113200 6.1344573378e+00 -7.1096971033e-05 1.5875470404e+00 -2.7497121334e+00 1.5875470404e+00 2.7497121334e+00 
113300 6.1344573361e+00 -7.0304434375e-05 1.5875492796e+00 -2.7497160118e+00 1.5875492796e+00 2.7497160118e+00 
113400 6.1344573345e+00 -7.0993526506e-05 1.5875492796e+00 -2.7497160118e+00 1.5875492796e+00 2.7497160118e+00 
113500 6.1344573328e+00 -7.0195583307e-05 1.5875515156e+00 -2.7497198846e+00 1.5875515156e+00 2.7497198846e+00 
113600 6.1344573313e+00 -7.0877143387e-05 1.5875515156e+00 -2.7497198846e+00 1.5875515156e+00 2.7497198846e+00 
113700 6.1344573296e+00 -7.0074116975e-05 1.5875537478e+00 -2.7497237510e+00 1.5875537478e+00 2.7497237510e+00 
113800 6.1344573281e+00 -7.0748198245e-05 1.5875537478e+00 -2.7497237510e+00 1.5875537478e+00 2.7497237510e+00 
113900 6.1344573265e+00 -6.9940404937e-05 1.5875559760e+00 -2.7497276104e+00 1.5875559760e+00 2.7497276104e+00 
114000 6.1344573251e+00 -7.0607061520e-05 1.5875559760e+00 -2.7497276104e+00 1.5875559760e+00 2.7497276104e+00 
114100 6.1344573236e+00 -7.1270616697e-05 1.5875559760e+00 -2.7497276104e+00 1.5875559760e+00 2.7497276104e+00 
114200 6.1344573220e+00 -7.0441421199e-05 1.5875582207e+00 -2.7497314982e+00 1.5875582207e+00 2.7497314982e+00 
114300 6.1344573206e+00 -7.1097660288e-05 1.5875582207e+00 -2.7497314982e+00 1.5875582207e+00 2.7497314982e+00 
114400 6.1344573191e+00 -7.0264778478e-05 1.5875604599e+00 -2.7497353767e+00 1.5875604599e+00 2.7497353767e+00 
114500 6.1344573177e+00 -7.0913751470e-05 1.5875604599e+00 -2.7497353767e+00 1.5875604599e+00 2.7497353767e+00 
114600 6.1344573162e+00 -7.0077463006e-05 1.5875626933e+00 -2.7497392451e+00 1.5875626933e+00 2.7497392451e+00 
114700 6.1344573148e+00 -7.0719221194e-05 1.5875626933e+00 -2.7497392451e+00 1.5875626933e+00 2.7497392451e+00 
114800 6.1344573133e+00 -6.9879800126e-05 1.5875649206e+00 -2.7497431029e+00 1.5875649206e+00 2.7497431029e+00 
114900 6.1344573120e+00 -7.0514396118e-05 1.5875649206e+00 -2.7497431029e+00 1.5875649206e+00 2.7497431029e+00 
115000 6.1344573107e+00 -7.1146020642e-05 1.5875649206e+00 -2.7497431029e+00 1.5875649206e+00 2.7497431029e+00 
115100 6.1344573093e+00 -7.0287587570e-05 1.5875671614e+00 -2.7497469839e+00 1.5875671614e+00 2.7497469839e+00 
115200 6.1344573080e+00 -7.0912156948e-05 1.5875671614e+00 -2.7497469839e+00 1.5875671614e+00 2.7497469839e+00 
115300 6.1344573065e+00 -7.0051571563e-05 1.5875693947e+00 -2.7497508522e+00 1.5875693947e+00 2.7497508522e+00 
115400 6.1344573053e+00 -7.0669135210e-05 1.5875693947e+00 -2.7497508522e+00 1.5875693947e+00 2.7497508522e+00 
115500 6.1344573041e+00 -7.1283805772e-05 1.5875693947e+00 -2.7497508522e+00 1.5875693947e+00 2.7497508522e+00 
115600 6.1344573027e+00 -7.0405593826e-05 1.5875716398e+00 -2.7497547408e+00 1.5875716398e+00 2.7497547408e+00 
115700 6.1344573015e+00 -7.1013361547e-05 1.5875716398e+00 -2.7497547408e+00 1.5875716398e+00 2.7497547408e+00 
115800 6.1344573001e+00 -7.0133913085e-05 1.5875738763e+00 -2.7497586146e+00 1.5875738763e+00 2.7497586146e+00 
115900 6.1344572990e+00 -7.0734824908e-05 1.5875738763e+00 -2.7497586146e+00 1.5875738763e+00 2.7497586146e+00 
116000 6.1344572976e+00 -6.9854357081e-05 1.5875761041e+00 -2.7497624732e+00 1.5875761041e+00 2.7497624732e+00 
116100 6.1344572965e+00 -7.0448461829e-05 1.5875761041e+00 -2.7497624732e+00 1.5875761041e+00 2.7497624732e+00 
116200 6.1344572953e+00 -7.1039770768e-05 1.5875761041e+00 -2.7497624732e+00 1.5875761041e+00 2.7497624732e+00 
116300 6.1344572940e+00 -7.0143366362e-05 1.5875783415e+00 -2.7497663484e+00 1.5875783415e+00 2.7497663484e+00 
116400 6.1344572929e+00 -7.0727970604e-05 1.5875783415e+00 -2.7497663484e+00 1.5875783415e+00 2.7497663484e+00 
116500 6.1344572916e+00 -6.9831392519e-05 1.5875805690e+00 -2.7497702066e+00 1.5875805690e+00 2.7497702066e+00 
116600 6.1344572905e+00 -7.0409338978e-05 1.5875805690e+00 -2.7497702066e+00 1.5875805690e+00 2.7497702066e+00 
116700 6.1344572895e+00 -7.0984563249e-05 1.5875805690e+00 -2.7497702066e+00 1.5875805690e+00 2.7497702066e+00 
116800 6.1344572882e+00 -7.0073280983e-05 1.5875828046e+00 -2.7497740788e+00 1.5875828046e+00 2.7497740788e+00 
116900 6.1344572872e+00 -7.0641947355e-05 1.5875828046e+00 -2.7497740788e+00 1.5875828046e+00 2.7497740788e+00 
117000 6.1344572861e+00 -7.1207942090e-05 1.5875828046e+00 -2.7497740788e+00 1.5875828046e+00 2.7497740788e+00 
117100 6.1344572849e+00 -7.0282797761e-05 1.5875850473e+00 -2.7497779632e+00 1.5875850473e+00 2.7497779632e+00 
117200 6.1344572839e+00 -7.0842329452e-05 1.5875850473e+00 -2.7497779632e+00 1.5875850473e+00 2.7497779632e+00 
117300 6.1344572827e+00 -6.9918375874e-05 1.5875872784e+00 -2.7497818277e+00 1.5875872784e+00 2.7497818277e+00 
117400 6.1344572817e+00 -7.0471486879e-05 1.5875872784e+00 -2.7497818277e+00 1.5875872784e+00 2.7497818277e+00 
117500 6.1344572807e+00 -7.1021993120e-05 1.5875872784e+00 -2.7497818277e+00 1.5875872784e+00 2.7497818277e+00 
117600 6.1344572796e+00 -7.0085294924e-05 1.5875895152e+00 -2.7497857019e+00 1.5875895152e+00 2.7497857019e+00 
117700 6.1344572786e+00 -7.0629474330e-05 1.5875895152e+00 -2.7497857019e+00 1.5875895152e+00 2.7497857019e+00 
117800 6.1344572777e+00 -7.1171096099e-05 1.5875895152e+00 -2.7497857019e+00 1.5875895152e+00 2.7497857019e+00 
117900 6.1344572765e+00 -7.0222430955e-05 1.5875917567e+00 -2.7497895843e+00 1.5875917567e+00 2.7497895843e+00 
118000 6.1344572756e+00 -7.0757815542e-05 1.5875917567e+00 -2.7497895843e+00 1.5875917567e+00 2.7497895843e+00 
118100 6.1344572745e+00 -6.9811562178e-05 1.5875939852e+00 -2.7497934441e+00 1.5875939852e+00 2.7497934441e+00 
118200 6.1344572736e+00 -7.0340748910e-05 1.5875939852e+00 -2.7497934441e+00 1.5875939852e+00 2.7497934441e+00 
118300 6.1344572727e+00 -7.0867440107e-05 1.5875939852e+00 -2.7497934441e+00 1.5875939852e+00 2.7497934441e+00 
118400 6.1344572716e+00 -6.9910236371e-05 1.5875962171e+00 -2.7497973099e+00 1.5875962171e+00 2.7497973099e+00 
118500 6.1344572707e+00 -7.0430819618e-05 1.5875962171e+00 -2.7497973099e+00 1.5875962171e+00 2.7497973099e+00 
118600 6.1344572699e+00 -7.0948952098e-05 1.5875962171e+00 -2.7497973099e+00 1.5875962171e+00 2.7497973099e+00 
118700 6.1344572688e+00 -6.9981518555e-05 1.5875984515e+00 -2.7498011801e+00 1.5875984515e+00 2.7498011801e+00 
118800 6.1344572680e+00 -7.0493629464e-05 1.5875984515e+00 -2.7498011801e+00 1.5875984515e+00 2.7498011801e+00 
118900 6.1344572671e+00 -7.1003332474e-05 1.5875984515e+00 -2.7498011801e+00 1.5875984515e+00 2.7498011801e+00 
119000 6.1344572661e+00 -7.0026363962e-05 1.5876006877e+00 -2.7498050533e+00 1.5876006877e+00 2.7498050533e+00 
119100 6.1344572653e+00 -7.0530128621e-05 1.5876006877e+00 -2.7498050533e+00 1.5876006877e+00 2.7498050533e+00 
119200 6.1344572645e+00 -7.1031526544e-05 1.5876006877e+00 -2.7498050533e+00 1.5876006877e+00 2.7498050533e+00 
119300 6.1344572635e+00 -7.0045693471e-05 1.5876029248e+00 -2.7498089280e+00 1.5876029248e+00 2.7498089280e+00 
119400 6.1344572627e+00 -7.0541233466e-05 1.5876029248e+00 -2.7498089280e+00 1.5876029248e+00 2.7498089280e+00 
119500 6.1344572619e+00 -7.1034446366e-05 1.5876029248e+00 -2.7498089280e+00 1.5876029248e+00 2.7498089280e+00 
119600 6.1344572609e+00 -7.0040395941e-05 1.5876051620e+00 -2.7498128029e+00 1.5876051620e+00 2.7498128029e+00 
119700 6.1344572602e+00 -7.0527828881e-05 1.5876051620e+00 -2.7498128029e+00 1.5876051620e+00 2.7498128029e+00 
119800 6.1344572594e+00 -7.1012973025e-05 1.5876051620e+00 -2.7498128029e+00 1.5876051620e+00 2.7498128029e+00 
119900 6.1344572584e+00 -7.0011330419e-05 1.5876073984e+00 -2.7498166766e+00 1.5876073984e+00 2.7498166766e+00 
120000 6.1344572577e+00 -7.0490770448e-05 1.5876073984e+00 -2.7498166766e+00 1.5876073984e+00 2.7498166766e+00 
120100 6.1344572570e+00 -7.0967958799e-05 1.5876073984e+00 -2.7498166766e+00 1.5876073984e+00 2.7498166766e+00 
120200 6.1344572560e+00 -6.9959328227e-05 1.5876096335e+00 -2.7498205478e+00 1.5876096335e+00 2.7498205478e+00 
120300 6.1344572553e+00 -7.0430886493e-05 1.5876096335e+00 -2.7498205478e+00 1.5876096335e+00 2.7498205478e+00 
120400 6.1344572546e+00 -7.0900229176e-05 1.5876096335e+00 -2.7498205478e+00 1.5876096335e+00 2.7498205478e+00 
120500 6.1344572537e+00 -6.9885194916e-05 1.5876118664e+00 -2.7498244154e+00 1.5876118664e+00 2.7498244154e+00 
120600 6.1344572530e+00 -7.0348980014e-05 1.5876118664e+00 -2.7498244154e+00 1.5876118664e+00 2.7498244154e+00 
120700 6.1344572523e+00 -7.0810584745e-05 1.5876118664e+00 -2.7498244154e+00 1.5876118664e+00 2.7498244154e+00 
120800 6.1344572515e+00 -6.9789712068e-05 1.5876140965e+00 -2.7498282780e+00 1.5876140965e+00 2.7498282780e+00 
120900 6.1344572508e+00 -7.0245830444e-05 1.5876140965e+00 -2.7498282780e+00 1.5876140965e+00 2.7498282780e+00 
121000 6.1344572501e+00 -7.0699802922e-05 1.5876140965e+00 -2.7498282780e+00 1.5876140965e+00 2.7498282780e+00 
121100 6.1344572495e+00 -7.1151654637e-05 1.5876140965e+00 -2.7498282780e+00 1.5876140965e+00 2.7498282780e+00 
121200 6.1344572486e+00 -7.0113942990e-05 1.5876163374e+00 -2.7498321592e+00 1.5876163374e+00 2.7498321592e+00 
121300 6.1344572480e+00 -7.0560417954e-05 1.5876163374e+00 -2.7498321592e+00 1.5876163374e+00 2.7498321592e+00 
121400 6.1344572473e+00 -7.1004802543e-05 1.5876163374e+00 -2.7498321592e+00 1.5876163374e+00 2.7498321592e+00 
121500 6.1344572465e+00 -6.9962715178e-05 1.5876185736e+00 -2.7498360325e+00 1.5876185736e+00 2.7498360325e+00 
121600 6.1344572459e+00 -7.0401786009e-05 1.5876185736e+00 -2.7498360325e+00 1.5876185736e+00 2.7498360325e+00 
121700 6.1344572453e+00 -7.0838796590e-05 1.5876185736e+00 -2.7498360325e+00 1.5876185736e+00 2.7498360325e+00 
121800 6.1344572445e+00 -6.9792827075e-05 1.5876208045e+00 -2.7498398966e+00 1.5876208045e+00 2.7498398966e+00 
121900 6.1344572439e+00 -7.0224586786e-05 1.5876208045e+00 -2.7498398966e+00 1.5876208045e+00 2.7498398966e+00 
122000 6.1344572433e+00 -7.0654316215e-05 1.5876208045e+00 -2.7498398966e+00 1.5876208045e+00 2.7498398966e+00 
122100 6.1344572427e+00 -7.1082039120e-05 1.5876208045e+00 -2.7498398966e+00 1.5876208045e+00 2.7498398966e+00 
122200 6.1344572419e+00 -7.0021736397e-05 1.5876230432e+00 -2.7498437741e+00 1.5876230432e+00 2.7498437741e+00 
122300 6.1344572413e+00 -7.0444308629e-05 1.5876230432e+00 -2.7498437741e+00 1.5876230432e+00 2.7498437741e+00 
122400 6.1344572407e+00 -7.0864900964e-05 1.5876230432e+00 -2.7498437741e+00 1.5876230432e+00 2.7498437741e+00 
122500 6.1344572400e+00 -6.9802025714e-05 1.5876252750e+00 -2.7498476396e+00 1.5876252750e+00 2.7498476396e+00 
122600 6.1344572394e+00 -7.0217524511e-05 1.5876252750e+00 -2.7498476396e+00 1.5876252750e+00 2.7498476396e+00 
122700 6.1344572389e+00 -7.0631070286e-05 1.5876252750e+00 -2.7498476396e+00 1.5876252750e+00 2.7498476396e+00 
122800 6.1344572383e+00 -7.1042685855e-05 1.5876252750e+00 -2.7498476396e+00 1.5876252750e+00 2.7498476396e+00 
122900 6.1344572376e+00 -6.9967153526e-05 1.5876275124e+00 -2.7498515149e+00 1.5876275124e+00 2.7498515149e+00 
123000 6.1344572370e+00 -7.0373769262e-05 1.5876275124e+00 -2.7498515149e+00 1.5876275124e+00 2.7498515149e+00 
123100 6.1344572365e+00 -7.0778478836e-05 1.5876275124e+00 -2.7498515149e+00 1.5876275124e+00 2.7498515149e+00 
123200 6.1344572358e+00 -6.9701580694e-05 1.5876297414e+00 -2.7498553758e+00 1.5876297414e+00 2.7498553758e+00 
123300 6.1344572353e+00 -7.0101343525e-05 1.5876297414e+00 -2.7498553758e+00 1.5876297414e+00 2.7498553758e+00 
123400 6.1344572348e+00 -7.0499224836e-05 1.5876297414e+00 -2.7498553758e+00 1.5876297414e+00 2.7498553758e+00 
123500 6.1344572343e+00 -7.0895246751e-05 1.5876297414e+00 -2.7498553758e+00 1.5876297414e+00 2.7498553758e+00 
123600 6.1344572336e+00 -6.9807254130e-05 1.5876319742e+00 -2.7498592430e+00 1.5876319742e+00 2.7498592430e+00 
123700 6.1344572331e+00 -7.0198418599e-05 1.5876319742e+00 -2.7498592430e+00 1.5876319742e+00 2.7498592430e+00 
123800 6.1344572326e+00 -7.0587745916e-05 1.5876319742e+00 -2.7498592430e+00 1.5876319742e+00 2.7498592430e+00 
123900 6.1344572321e+00 -7.0975257483e-05 1.5876319742e+00 -2.7498592430e+00 1.5876319742e+00 2.7498592430e+00 
124000 6.1344572314e+00 -6.9877113485e-05 1.5876342094e+00 -2.7498631146e+00 1.5876342094e+00 2.7498631146e+00 
124100 6.1344572310e+00 -7.0259851579e-05 1.5876342094e+00 -2.7498631146e+00 1.5876342094e+00 2.7498631146e+00 
124200 6.1344572305e+00 -7.0640794090e-05 1.5876342094e+00 -2.7498631146e+00 1.5876342094e+00 2.7498631146e+00 
124300 6.1344572300e+00 -7.1019961796e-05 1.5876342094e+00 -2.7498631146e+00 1.5876342094e+00 2.7498631146e+00 
124400 6.1344572294e+00 -6.9912568801e-05 1.5876364461e+00 -2.7498669886e+00 1.5876364461e+00 2.7498669886e+00 
124500 6.1344572289e+00 -7.0287042499e-05 1.5876364461e+00 -2.7498669886e+00 1.5876364461e+00 2.7498669886e+00 
124600 6.1344572285e+00 -7.0659759797e-05 1.5876364461e+00 -2.7498669886e+00 1.5876364461e+00 2.7498669886e+00 
124700 6.1344572280e+00 -7.1030740942e-05 1.5876364461e+00 -2.7498669886e+00 1.5876364461e+00 2.7498669886e+00 
124800 6.1344572274e+00 -6.9914963668e-05 1.5876386831e+00 -2.7498708632e+00 1.5876386831e+00 2.7498708632e+00 
124900 6.1344572270e+00 -7.0281326531e-05 1.5876386831e+00 -2.7498708632e+00 1.5876386831e+00 2.7498708632e+00 
125000 6.1344572265e+00 -7.0645970179e-05 1.5876386831e+00 -2.7498708632e+00 1.5876386831e+00 2.7498708632e+00 
125100 6.1344572261e+00 -7.1008914413e-05 1.5876386831e+00 -2.7498708632e+00 1.5876386831e+00 2.7498708632e+00 
125200 6.1344572255e+00 -6.9885582717e-05 1.5876409194e+00 -2.7498747366e+00 1.5876409194e+00 2.7498747366e+00 
125300 6.1344572251e+00 -7.0243981377e-05 1.5876409194e+00 -2.7498747366e+00 1.5876409194e+00 2.7498747366e+00 
125400 6.1344572247e+00 -7.0600696362e-05 1.5876409194e+00 -2.7498747366e+00 1.5876409194e+00 2.7498747366e+00 
125500 6.1344572243e+00 -7.0955747109e-05 1.5876409194e+00 -2.7498747366e+00 1.5876409194e+00 2.7498747366e+00 
125600 6.1344572237e+00 -6.9825658527e-05 1.5876431540e+00 -2.7498786070e+00 1.5876431540e+00 2.7498786070e+00 
125700 6.1344572233e+00 -7.0176234040e-05 1.5876431540e+00 -2.7498786070e+00 1.5876431540e+00 2.7498786070e+00 
125800 6.1344572229e+00 -7.0525160102e-05 1.5876431540e+00 -2.7498786070e+00 1.5876431540e+00 2.7498786070e+00 
125900 6.1344572225e+00 -7.0872455855e-05 1.5876431540e+00 -2.7498786070e+00 1.5876431540e+00 2.7498786070e+00 
126000 6.1344572219e+00 -6.9736377852e-05 1.5876453860e+00 -2.7498824730e+00 1.5876453860e+00 2.7498824730e+00 
126100 6.1344572215e+00 -7.0079266929e-05 1.5876453860e+00 -2.7498824730e+00 1.5876453860e+00 2.7498824730e+00 
126200 6.1344572212e+00 -7.0420539745e-05 1.5876453860e+00 -2.7498824730e+00 1.5876453860e+00 2.7498824730e+00 
126300 6.1344572208e+00 -7.0760215212e-05 1.5876453860e+00 -2.7498824730e+00 1.5876453860e+00 2.7498824730e+00 
126400 6.1344572202e+00 -6.9618887185e-05 1.5876476145e+00 -2.7498863328e+00 1.5876476145e+00 2.7498863328e+00 
126500 6.1344572199e+00 -6.9954223258e-05 1.5876476145e+00 -2.7498863328e+00 1.5876476145e+00 2.7498863328e+00 
126600 6.1344572195e+00 -7.0287975482e-05 1.5876476145e+00 -2.7498863328e+00 1.5876476145e+00 2.7498863328e+00 
126700 6.1344572191e+00 -7.0620162589e-05 1.5876476145e+00 -2.7498863328e+00 1.5876476145e+00 2.7498863328e+00 
126800 6.1344572188e+00 -7.0950802506e-05 1.5876476145e+00 -2.7498863328e+00 1.5876476145e+00 2.7498863328e+00 
126900 6.1344572182e+00 -6.9796491076e-05 1.5876498489e+00 -2.7498902030e+00 1.5876498489e+00 2.7498902030e+00 
127000 6.1344572179e+00 -7.0122885977e-05 1.5876498489e+00 -2.7498902030e+00 1.5876498489e+00 2.7498902030e+00 
127100 6.1344572176e+00 -7.0447744295e-05 1.5876498489e+00 -2.7498902030e+00 1.5876498489e+00 2.7498902030e+00 
127200 6.1344572172e+00 -7.0771083900e-05 1.5876498489e+00 -2.7498902030e+00 1.5876498489e+00 2.7498902030e+00 
127300 6.1344572167e+00 -6.9613249657e-05 1.5876520777e+00 -2.7498940634e+00 1.5876520777e+00 2.7498940634e+00 
127400 6.1344572164e+00 -6.9932404207e-05 1.5876520777e+00 -2.7498940634e+00 1.5876520777e+00 2.7498940634e+00 
127500 6.1344572160e+00 -7.0250050645e-05 1.5876520777e+00 -2.7498940634e+00 1.5876520777e+00 2.7498940634e+00 
127600 6.1344572157e+00 -7.0566206823e-05 1.5876520777e+00 -2.7498940634e+00 1.5876520777e+00 2.7498940634e+00 
127700 6.1344572154e+00 -7.0880889825e-05 1.5876520777e+00 -2.7498940634e+00 1.5876520777e+00 2.7498940634e+00 
127800 6.1344572149e+00 -6.9712136474e-05 1.5876543100e+00 -2.7498979298e+00 1.5876543100e+00 2.7498979298e+00 
127900 6.1344572146e+00 -7.0022721500e-05 1.5876543100e+00 -2.7498979298e+00 1.5876543100e+00 2.7498979298e+00 
128000 6.1344572143e+00 -7.0331841684e-05 1.5876543100e+00 -2.7498979298e+00 1.5876543100e+00 2.7498979298e+00 
128100 6.1344572140e+00 -7.0639514196e-05 1.5876543100e+00 -2.7498979298e+00 1.5876543100e+00 2.7498979298e+00 
128200 6.1344572137e+00 -7.0945755462e-05 1.5876543100e+00 -2.7498979298e+00 1.5876543100e+00 2.7498979298e+00 
128300 6.1344572132e+00 -6.9767234446e-05 1.5876565443e+00 -2.7499017997e+00 1.5876565443e+00 2.7499017997e+00 
128400 6.1344572129e+00 -7.0069458739e-05 1.5876565443e+00 -2.7499017997e+00 1.5876565443e+00 2.7499017997e+00 
128500 6.1344572126e+00 -7.0370258254e-05 1.5876565443e+00 -2.7499017997e+00 1.5876565443e+00 2.7499017997e+00 
128600 6.1344572123e+00 -7.0669649601e-05 1.5876565443e+00 -2.7499017997e+00 1.5876565443e+00 2.7499017997e+00 
128700 6.1344572120e+00 -7.0967648668e-05 1.5876565443e+00 -2.7499017997e+00 1.5876565443e+00 2.7499017997e+00 
128800 6.1344572115e+00 -6.9780455591e-05 1.5876587793e+00 -2.7499056708e+00 1.5876587793e+00 2.7499056708e+00 
128900 6.1344572113e+00 -7.0074513840e-05 1.5876587793e+00 -2.7499056708e+00 1.5876587793e+00 2.7499056708e+00 
129000 6.1344572110e+00 -7.0367184787e-05 1.5876587793e+00 -2.7499056708e+00 1.5876587793e+00 2.7499056708e+00 
129100 6.1344572107e+00 -7.0658484592e-05 1.5876587793e+00 -2.7499056708e+00 1.5876587793e+00 2.7499056708e+00 
129200 6.1344572104e+00 -7.0948428720e-05 1.5876587793e+00 -2.7499056708e+00 1.5876587793e+00 2.7499056708e+00 
129300 6.1344572100e+00 -6.9753608623e-05 1.5876610137e+00 -2.7499095408e+00 1.5876610137e+00 2.7499095408e+00 
129400 6.1344572097e+00 -7.0039684363e-05 1.5876610137e+00 -2.7499095408e+00 1.5876610137e+00 2.7499095408e+00 
129500 6.1344572095e+00 -7.0324408252e-05 1.5876610137e+00 -2.7499095408e+00 1.5876610137e+00 2.7499095408e+00 
129600 6.1344572092e+00 -7.0607796098e-05 1.5876610137e+00 -2.7499095408e+00 1.5876610137e+00 2.7499095408e+00 
129700 6.1344572089e+00 -7.0889863038e-05 1.5876610137e+00 -2.7499095408e+00 1.5876610137e+00 2.7499095408e+00 
129800 6.1344572085e+00 -6.9688415022e-05 1.5876632462e+00 -2.7499134077e+00 1.5876632462e+00 2.7499134077e+00 
129900 6.1344572082e+00 -6.9966683291e-05 1.5876632462e+00 -2.7499134077e+00 1.5876632462e+00 2.7499134077e+00 
130000 6.1344572080e+00 -7.0243633625e-05 1.5876632462e+00 -2.7499134077e+00 1.5876632462e+00 2.7499134077e+00 
130100 6.1344572077e+00 -7.0519281573e-05 1.5876632462e+00 -2.7499134077e+00 1.5876632462e+00 2.7499134077e+00 
130200 6.1344572075e+00 -7.0793642022e-05 1.5876632462e+00 -2.7499134077e+00 1.5876632462e+00 2.7499134077e+00 
130300 6.1344572071e+00 -6.9586523251e-05 1.5876654757e+00 -2.7499172693e+00 1.5876654757e+00 2.7499172693e+00 
130400 6.1344572068e+00 -6.9857152898e-05 1.5876654757e+00 -2.7499172693e+00 1.5876654757e+00 2.7499172693e+00 
130500 6.1344572066e+00 -7.0126497422e-05 1.5876654757e+00 -2.7499172693e+00 1.5876654757e+00 2.7499172693e+00 
130600 6.1344572064e+00 -7.0394572181e-05 1.5876654757e+00 -2.7499172693e+00 1.5876654757e+00 2.7499172693e+00 
130700 6.1344572061e+00 -7.0661391883e-05 1.5876654757e+00 -2.7499172693e+00 1.5876654757e+00 2.7499172693e+00 
130800 6.1344572059e+00 -7.0926970601e-05 1.5876654757e+00 -2.7499172693e+00 1.5876654757e+00 2.7499172693e+00 
130900 6.1344572055e+00 -6.9708316386e-05 1.5876677094e+00 -2.7499211382e+00 1.5876677094e+00 2.7499211382e+00 
131000 6.1344572053e+00 -6.9970252852e-05 1.5876677094e+00 -2.7499211382e+00 1.5876677094e+00 2.7499211382e+00 
131100 6.1344572051e+00 -7.0230948340e-05 1.5876677094e+00 -2.7499211382e+00 1.5876677094e+00 2.7499211382e+00 
131200 6.1344572048e+00 -7.0490417499e-05 1.5876677094e+00 -2.7499211382e+00 1.5876677094e+00 2.7499211382e+00 
131300 6.1344572046e+00 -7.0748674354e-05 1.5876677094e+00 -2.7499211382e+00 1.5876677094e+00 2.7499211382e+00 
131400 6.1344572042e+00 -6.9526446477e-05 1.5876699374e+00 -2.7499249973e+00 1.5876699374e+00 2.7499249973e+00 
131500 6.1344572040e+00 -6.9781121464e-05 1.5876699374e+00 -2.7499249973e+00 1.5876699374e+00 2.7499249973e+00 
131600 6.1344572038e+00 -7.0034584184e-05 1.5876699374e+00 -2.7499249973e+00 1.5876699374e+00 2.7499249973e+00 
131700 6.1344572036e+00 -7.0286849279e-05 1.5876699374e+00 -2.7499249973e+00 1.5876699374e+00 2.7499249973e+00 
131800 6.1344572034e+00 -7.0537930778e-05 1.5876699374e+00 -2.7499249973e+00 1.5876699374e+00 2.7499249973e+00 
131900 6.1344572032e+00 -7.0787842103e-05 1.5876699374e+00 -2.7499249973e+00 1.5876699374e+00 2.7499249973e+00 
132000 6.1344572028e+00 -6.9556480595e-05 1.5876721667e+00 -2.7499288585e+00 1.5876721667e+00 2.7499288585e+00 
132100 6.1344572026e+00 -6.9802892040e-05 1.5876721667e+00 -2.7499288585e+00 1.5876721667e+00 2.7499288585e+00 
132200 6.1344572024e+00 -7.0048131643e-05 1.5876721667e+00 -2.7499288585e+00 1.5876721667e+00 2.7499288585e+00 
132300 6.1344572022e+00 -7.0292213527e-05 1.5876721667e+00 -2.7499288585e+00 1.5876721667e+00 2.7499288585e+00 
132400 6.1344572020e+00 -7.0535151221e-05 1.5876721667e+00 -2.7499288585e+00 1.5876721667e+00 2.7499288585e+00 
132500 6.1344572018e+00 -7.0776957670e-05 1.5876721667e+00 -2.7499288585e+00 1.5876721667e+00 2.7499288585e+00 
132600 6.1344572015e+00 -6.9537747171e-05 1.5876743957e+00 -2.7499327192e+00 1.5876743957e+00 2.7499327192e+00 
132700 6.1344572013e+00 -6.9776130526e-05 1.5876743957e+00 -2.7499327192e+00 1.5876743957e+00 2.7499327192e+00 
132800 6.1344572011e+00 -7.0013379644e-05 1.5876743957e+00 -2.7499327192e+00 1.5876743957e+00 2.7499327192e+00 
132900 6.1344572009e+00 -7.0249508246e-05 1.5876743957e+00 -2.7499327192e+00 1.5876743957e+00 2.7499327192e+00 
133000 6.1344572007e+00 -7.0484529473e-05 1.5876743957e+00 -2.7499327192e+00 1.5876743957e+00 2.7499327192e+00 
133100 6.1344572006e+00 -7.0718455899e-05 1.5876743957e+00 -2.7499327192e+00 1.5876743957e+00 2.7499327192e+00 
133200 6.1344572002e+00 -6.9472615044e-05 1.5876766228e+00 -2.7499365767e+00 1.5876766228e+00 2.7499365767e+00 
133300 6.1344572000e+00 -6.9703191320e-05 1.5876766228e+00 -2.7499365767e+00 1.5876766228e+00 2.7499365767e+00 
133400 6.1344571999e+00 -6.9932668827e-05 1.5876766228e+00 -2.7499365767e+00 1.5876766228e+00 2.7499365767e+00 
133500 6.1344571997e+00 -7.0161060981e-05 1.5876766228e+00 -2.7499365767e+00 1.5876766228e+00 2.7499365767e+00 
133600 6.1344571995e+00 -7.0388380633e-05 1.5876766228e+00 -2.7499365767e+00 1.5876766228e+00 2.7499365767e+00 
133700 6.1344571994e+00 -7.0614640083e-05 1.5876766228e+00 -2.7499365767e+00 1.5876766228e+00 2.7499365767e+00 
133800 6.1344571992e+00 -7.0839851089e-05 1.5876766228e+00 -2.7499365767e+00 1.5876766228e+00 2.7499365767e+00 
133900 6.1344571988e+00 -6.9582790521e-05 1.5876788537e+00 -2.7499404408e+00 1.5876788537e+00 2.7499404408e+00 
134000 6.1344571987e+00 -6.9804739807e-05 1.5876788537e+00 -2.7499404408e+00 1.5876788537e+00 2.7499404408e+00 
134100 6.1344571985e+00 -7.0025634315e-05 1.5876788537e+00 -2.7499404408e+00 1.5876788537e+00 2.7499404408e+00 
134200 6.1344571984e+00 -7.0245486749e-05 1.5876788537e+00 -2.7499404408e+00 1.5876788537e+00 2.7499404408e+00 
134300 6.1344571982e+00 -7.0464309275e-05 1.5876788537e+00 -2.7499404408e+00 1.5876788537e+00 2.7499404408e+00 
134400 6.1344571981e+00 -7.0682113533e-05 1.5876788537e+00 -2.7499404408e+00 1.5876788537e+00 2.7499404408e+00 
134500 6.1344571979e+00 -7.0898910646e-05 1.5876788537e+00 -2.7499404408e+00 1.5876788537e+00 2.7499404408e+00 
134600 6.1344571976e+00 -6.9632231049e-05 1.5876810865e+00 -2.7499443080e+00 1.5876810865e+00 2.7499443080e+00 
134700 6.1344571974e+00 -6.9845846340e-05 1.5876810865e+00 -2.7499443080e+00 1.5876810865e+00 2.7499443080e+00 
134800 6.1344571973e+00 -7.0058446355e-05 1.5876810865e+00 -2.7499443080e+00 1.5876810865e+00 2.7499443080e+00 
134900 6.1344571971e+00 -7.0270043256e-05 1.5876810865e+00 -2.7499443080e+00 1.5876810865e+00 2.7499443080e+00 
135000 6.1344571970e+00 -7.0480648697e-05 1.5876810865e+00 -2.7499443080e+00 1.5876810865e+00 2.7499443080e+00 
135100 6.1344571968e+00 -7.0690273824e-05 1.5876810865e+00 -2.7499443080e+00 1.5876810865e+00 2.7499443080e+00 
135200 6.1344571967e+00 -7.0898929290e-05 1.5876810865e+00 -2.7499443080e+00 1.5876810865e+00 2.7499443080e+00 
135300 6.1344571964e+00 -6.9624134401e-05 1.5876833193e+00 -2.7499481753e+00 1.5876833193e+00 2.7499481753e+00 
135400 6.1344571962e+00 -6.9829681797e-05 1.5876833193e+00 -2.7499481753e+00 1.5876833193e+00 2.7499481753e+00 
135500 6.1344571961e+00 -7.0034250114e-05 1.5876833193e+00 -2.7499481753e+00 1.5876833193e+00 2.7499481753e+00 
135600 6.1344571960e+00 -7.0237851132e-05 1.5876833193e+00 -2.7499481753e+00 1.5876833193e+00 2.7499481753e+00 
135700 6.1344571958e+00 -7.0440496134e-05 1.5876833193e+00 -2.7499481753e+00 1.5876833193e+00 2.7499481753e+00 
135800 6.1344571957e+00 -7.0642195923e-05 1.5876833193e+00 -2.7499481753e+00 1.5876833193e+00 2.7499481753e+00 
135900 6.1344571956e+00 -7.0842960820e-05 1.5876833193e+00 -2.7499481753e+00 1.5876833193e+00 2.7499481753e+00 
136000 6.1344571953e+00 -6.9561470429e-05 1.5876855503e+00 -2.7499520396e+00 1.5876855503e+00 2.7499520396e+00 
136100 6.1344571951e+00 -6.9759196938e-05 1.5876855503e+00 -2.7499520396e+00 1.5876855503e+00 2.7499520396e+00 
136200 6.1344571950e+00 -6.9955978293e-05 1.5876855503e+00 -2.7499520396e+00 1.5876855503e+00 2.7499520396e+00 
136300 6.1344571949e+00 -7.0151826010e-05 1.5876855503e+00 -2.7499520396e+00 1.5876855503e+00 2.7499520396e+00 
136400 6.1344571948e+00 -7.0346751132e-05 1.5876855503e+00 -2.7499520396e+00 1.5876855503e+00 2.7499520396e+00 
136500 6.1344571946e+00 -7.0540764231e-05 1.5876855503e+00 -2.7499520396e+00 1.5876855503e+00 2.7499520396e+00 
136600 6.1344571945e+00 -7.0733875419e-05 1.5876855503e+00 -2.7499520396e+00 1.5876855503e+00 2.7499520396e+00 
136700 6.1344571942e+00 -6.9447035959e-05 1.5876877779e+00 -2.7499558979e+00 1.5876877779e+00 2.7499558979e+00 
136800 6.1344571941e+00 -6.9637176078e-05 1.5876877779e+00 -2.7499558979e+00 1.5876877779e+00 2.7499558979e+00 
136900 6.1344571940e+00 -6.9826403525e-05 1.5876877779e+00 -2.7499558979e+00 1.5876877779e+00 2.7499558979e+00 
137000 6.1344571939e+00 -7.0014729658e-05 1.5876877779e+00 -2.7499558979e+00 1.5876877779e+00 2.7499558979e+00 
137100 6.1344571937e+00 -7.0202165369e-05 1.5876877779e+00 -2.7499558979e+00 1.5876877779e+00 2.7499558979e+00 
137200 6.1344571936e+00 -7.0388721093e-05 1.5876877779e+00 -2.7499558979e+00 1.5876877779e+00 2.7499558979e+00 
137300 6.1344571935e+00 -7.0574406815e-05 1.5876877779e+00 -2.7499558979e+00 1.5876877779e+00 2.7499558979e+00 
137400 6.1344571934e+00 -7.0759232080e-05 1.5876877779e+00 -2.7499558979e+00 1.5876877779e+00 2.7499558979e+00 
137500 6.1344571931e+00 -6.9463606877e-05 1.5876900063e+00 -2.7499597575e+00 1.5876900063e+00 2.7499597575e+00 
137600 6.1344571930e+00 -6.9645542045e-05 1.5876900063e+00 -2.7499597575e+00 1.5876900063e+00 2.7499597575e+00 
137700 6.1344571929e+00 -6.9826604399e-05 1.5876900063e+00 -2.7499597575e+00 1.5876900063e+00 2.7499597575e+00 
137800 6.1344571928e+00 -7.0006804809e-05 1.5876900063e+00 -2.7499597575e+00 1.5876900063e+00 2.7499597575e+00 
137900 6.1344571927e+00 -7.0186153700e-05 1.5876900063e+00 -2.7499597575e+00 1.5876900063e+00 2.7499597575e+00 
138000 6.1344571926e+00 -7.0364661056e-05 1.5876900063e+00 -2.7499597575e+00 1.5876900063e+00 2.7499597575e+00 
138100 6.1344571925e+00 -7.0542336432e-05 1.5876900063e+00 -2.7499597575e+00 1.5876900063e+00 2.7499597575e+00 
138200 6.1344571924e+00 -7.0719188960e-05 1.5876900063e+00 -2.7499597575e+00 1.5876900063e+00 2.7499597575e+00 
138300 6.1344571921e+00 -6.9416455713e-05 1.5876922334e+00 -2.7499636150e+00 1.5876922334e+00 2.7499636150e+00 
138400 6.1344571920e+00 -6.9590492974e-05 1.5876922334e+00 -2.7499636150e+00 1.5876922334e+00 2.7499636150e+00 
138500 6.1344571919e+00 -6.9763693915e-05 1.5876922334e+00 -2.7499636150e+00 1.5876922334e+00 2.7499636150e+00 
138600 6.1344571918e+00 -6.9936069061e-05 1.5876922334e+00 -2.7499636150e+00 1.5876922334e+00 2.7499636150e+00 
138700 6.1344571917e+00 -7.0107628505e-05 1.5876922334e+00 -2.7499636150e+00 1.5876922334e+00 2.7499636150e+00 
138800 6.1344571916e+00 -7.0278381921e-05 1.5876922334e+00 -2.7499636150e+00 1.5876922334e+00 2.7499636150e+00 
138900 6.1344571915e+00 -7.0448338566e-05 1.5876922334e+00 -2.7499636150e+00 1.5876922334e+00 2.7499636150e+00 
139000 6.1344571914e+00 -7.0617507287e-05 1.5876922334e+00 -2.7499636150e+00 1.5876922334e+00 2.7499636150e+00 
139100 6.1344571913e+00 -7.0785896533e-05 1.5876922334e+00 -2.7499636150e+00 1.5876922334e+00 2.7499636150e+00 
139200 6.1344571910e+00 -6.9473336881e-05 1.5876944626e+00 -2.7499674761e+00 1.5876944626e+00 2.7499674761e+00 
139300 6.1344571910e+00 -6.9638994640e-05 1.5876944626e+00 -2.7499674761e+00 1.5876944626e+00 2.7499674761e+00 
139400 6.1344571909e+00 -6.9803857503e-05 1.5876944626e+00 -2.7499674761e+00 1.5876944626e+00 2.7499674761e+00 
139500 6.1344571908e+00 -6.9967935407e-05 1.5876944626e+00 -2.7499674761e+00 1.5876944626e+00 2.7499674761e+00 
139600 6.1344571907e+00 -7.0131237879e-05 1.5876944626e+00 -2.7499674761e+00 1.5876944626e+00 2.7499674761e+00 
139700 6.1344571906e+00 -7.0293774049e-05 1.5876944626e+00 -2.7499674761e+00 1.5876944626e+00 2.7499674761e+00 
139800 6.1344571905e+00 -7.0455552650e-05 1.5876944626e+00 -2.7499674761e+00 1.5876944626e+00 2.7499674761e+00 
139900 6.1344571905e+00 -7.0616582028e-05 1.5876944626e+00 -2.7499674761e+00 1.5876944626e+00 2.7499674761e+00 
140000 6.1344571904e+00 -7.0776870152e-05 1.5876944626e+00 -2.7499674761e+00 1.5876944626e+00 2.7499674761e+00 
140100 6.1344571901e+00 -6.9456425730e-05 1.5876966915e+00 -2.7499713367e+00 1.5876966915e+00 2.7499713367e+00 
140200 6.1344571900e+00 -6.9614057710e-05 1.5876966915e+00 -2.7499713367e+00 1.5876966915e+00 2.7499713367e+00 
140300 6.1344571899e+00 -6.9770931699e-05 1.5876966915e+00 -2.7499713367e+00 1.5876966915e+00 2.7499713367e+00 
140400 6.1344571899e+00 -6.9927057234e-05 1.5876966915e+00 -2.7499713367e+00 1.5876966915e+00 2.7499713367e+00 
140500 6.1344571898e+00 -7.0082443461e-05 1.5876966915e+00 -2.7499713367e+00 1.5876966915e+00 2.7499713367e+00 
140600 6.1344571897e+00 -7.0237099145e-05 1.5876966915e+00 -2.7499713367e+00 1.5876966915e+00 2.7499713367e+00 
140700 6.1344571896e+00 -7.0391032676e-05 1.5876966915e+00 -2.7499713367e+00 1.5876966915e+00 2.7499713367e+00 
140800 6.1344571895e+00 -7.0544252075e-05 1.5876966915e+00 -2.7499713367e+00 1.5876966915e+00 2.7499713367e+00 
140900 6.1344571895e+00 -7.0696765000e-05 1.5876966915e+00 -2.7499713367e+00 1.5876966915e+00 2.7499713367e+00 
141000 6.1344571894e+00 -7.0848578757e-05 1.5876966915e+00 -2.7499713367e+00 1.5876966915e+00 2.7499713367e+00 
141100 6.1344571891e+00 -6.9518190924e-05 1.5876989227e+00 -2.7499752012e+00 1.5876989227e+00 2.7499752012e+00 
141200 6.1344571891e+00 -6.9667429716e-05 1.5876989227e+00 -2.7499752012e+00 1.5876989227e+00 2.7499752012e+00 
141300 6.1344571890e+00 -6.9815950715e-05 1.5876989227e+00 -2.7499752012e+00 1.5876989227e+00 2.7499752012e+00 
141400 6.1344571889e+00 -6.9963762895e-05 1.5876989227e+00 -2.7499752012e+00 1.5876989227e+00 2.7499752012e+00 
141500 6.1344571888e+00 -7.0110874861e-05 1.5876989227e+00 -2.7499752012e+00 1.5876989227e+00 2.7499752012e+00 
141600 6.1344571888e+00 -7.0257294861e-05 1.5876989227e+00 -2.7499752012e+00 1.5876989227e+00 2.7499752012e+00 
141700 6.1344571887e+00 -7.0403030789e-05 1.5876989227e+00 -2.7499752012e+00 1.5876989227e+00 2.7499752012e+00 
141800 6.1344571886e+00 -7.0548090195e-05 1.5876989227e+00 -2.7499752012e+00 1.5876989227e+00 2.7499752012e+00 
141900 6.1344571886e+00 -7.0692480284e-05 1.5876989227e+00 -2.7499752012e+00 1.5876989227e+00 2.7499752012e+00 
142000 6.1344571885e+00 -7.0836207932e-05 1.5876989227e+00 -2.7499752012e+00 1.5876989227e+00 2.7499752012e+00 
142100 6.1344571883e+00 -6.9498018874e-05 1.5877011535e+00 -2.7499790650e+00 1.5877011535e+00 2.7499790650e+00 
142200 6.1344571882e+00 -6.9639244123e-05 1.5877011535e+00 -2.7499790650e+00 1.5877011535e+00 2.7499790650e+00 
142300 6.1344571881e+00 -6.9779787145e-05 1.5877011535e+00 -2.7499790650e+00 1.5877011535e+00 2.7499790650e+00 
142400 6.1344571881e+00 -6.9919656564e-05 1.5877011535e+00 -2.7499790650e+00 1.5877011535e+00 2.7499790650e+00 
142500 6.1344571880e+00 -7.0058860656e-05 1.5877011535e+00 -2.7499790650e+00 1.5877011535e+00 2.7499790650e+00 
142600 6.1344571879e+00 -7.0197407355e-05 1.5877011535e+00 -2.7499790650e+00 1.5877011535e+00 2.7499790650e+00 
142700 6.1344571879e+00 -7.0335304262e-05 1.5877011535e+00 -2.7499790650e+00 1.5877011535e+00 2.7499790650e+00 
142800 6.1344571878e+00 -7.0472558646e-05 1.5877011535e+00 -2.7499790650e+00 1.5877011535e+00 2.7499790650e+00 
142900 6.1344571878e+00 -7.0609177456e-05 1.5877011535e+00 -2.7499790650e+00 1.5877011535e+00 2.7499790650e+00 
143000 6.1344571877e+00 -7.0745167323e-05 1.5877011535e+00 -2.7499790650e+00 1.5877011535e+00 2.7499790650e+00 
143100 6.1344571874e+00 -6.9401168223e-05 1.5877033814e+00 -2.7499829239e+00 1.5877033814e+00 2.7499829239e+00 
143200 6.1344571874e+00 -6.9534723656e-05 1.5877033814e+00 -2.7499829239e+00 1.5877033814e+00 2.7499829239e+00 
143300 6.1344571873e+00 -6.9667629769e-05 1.5877033814e+00 -2.7499829239e+00 1.5877033814e+00 2.7499829239e+00 
143400 6.1344571873e+00 -6.9799894996e-05 1.5877033814e+00 -2.7499829239e+00 1.5877033814e+00 2.7499829239e+00 
143500 6.1344571872e+00 -6.9931527440e-05 1.5877033814e+00 -2.7499829239e+00 1.5877033814e+00 2.7499829239e+00 
143600 6.1344571872e+00 -7.0062534875e-05 1.5877033814e+00 -2.7499829239e+00 1.5877033814e+00 2.7499829239e+00 
143700 6.1344571871e+00 -7.0192924753e-05 1.5877033814e+00 -2.7499829239e+00 1.5877033814e+00 2.7499829239e+00 
143800 6.1344571871e+00 -7.0322704207e-05 1.5877033814e+00 -2.7499829239e+00 1.5877033814e+00 2.7499829239e+00 
143900 6.1344571870e+00 -7.0451880063e-05 1.5877033814e+00 -2.7499829239e+00 1.5877033814e+00 2.7499829239e+00 
144000 6.1344571869e+00 -7.0580458837e-05 1.5877033814e+00 -2.7499829239e+00 1.5877033814e+00 2.7499829239e+00 
144100 6.1344571869e+00 -7.0708446747e-05 1.5877033814e+00 -2.7499829239e+00 1.5877033814e+00 2.7499829239e+00 
144200 6.1344571868e+00 -7.0835849720e-05 1.5877033814e+00 -2.7499829239e+00 1.5877033814e+00 2.7499829239e+00 
144300 6.1344571866e+00 -6.9481399589e-05 1.5877056121e+00 -2.7499867877e+00 1.5877056121e+00 2.7499867877e+00 
144400 6.1344571865e+00 -6.9606452704e-05 1.5877056121e+00 -2.7499867877e+00 1.5877056121e+00 2.7499867877e+00 
144500 6.1344571865e+00 -6.9730898480e-05 1.5877056121e+00 -2.7499867877e+00 1.5877056121e+00 2.7499867877e+00 
144600 6.1344571864e+00 -6.9854744745e-05 1.5877056121e+00 -2.7499867877e+00 1.5877056121e+00 2.7499867877e+00 
144700 6.1344571864e+00 -6.9977999015e-05 1.5877056121e+00 -2.7499867877e+00 1.5877056121e+00 2.7499867877e+00 
144800 6.1344571863e+00 -7.0100668503e-05 1.5877056121e+00 -2.7499867877e+00 1.5877056121e+00 2.7499867877e+00 
144900 6.1344571863e+00 -7.0222760122e-05 1.5877056121e+00 -2.7499867877e+00 1.5877056121e+00 2.7499867877e+00 
145000 6.1344571863e+00 -7.0344280489e-05 1.5877056121e+00 -2.7499867877e+00 1.5877056121e+00 2.7499867877e+00 
145100 6.1344571862e+00 -7.0465235932e-05 1.5877056121e+00 -2.7499867877e+00 1.5877056121e+00 2.7499867877e+00 
145200 6.1344571862e+00 -7.0585632493e-05 1.5877056121e+00 -2.7499867877e+00 1.5877056121e+00 2.7499867877e+00 
145300 6.1344571861e+00 -7.0705475939e-05 1.5877056121e+00 -2.7499867877e+00 1.5877056121e+00 2.7499867877e+00 
145400 6.1344571861e+00 -7.0824771762e-05 1.5877056121e+00 -2.7499867877e+00 1.5877056121e+00 2.7499867877e+00 
145500 6.1344571858e+00 -6.9462472918e-05 1.5877078425e+00 -2.7499906509e+00 1.5877078425e+00 2.7499906509e+00 
145600 6.1344571858e+00 -6.9579492591e-05 1.5877078425e+00 -2.7499906509e+00 1.5877078425e+00 2.7499906509e+00 
145700 6.1344571857e+00 -6.9695941065e-05 1.5877078425e+00 -2.7499906509e+00 1.5877078425e+00 2.7499906509e+00 
145800 6.1344571857e+00 -6.9811825812e-05 1.5877078425e+00 -2.7499906509e+00 1.5877078425e+00 2.7499906509e+00 
145900 6.1344571857e+00 -6.9927154013e-05 1.5877078425e+00 -2.7499906509e+00 1.5877078425e+00 2.7499906509e+00 
146000 6.1344571856e+00 -7.0041932562e-05 1.5877078425e+00 -2.7499906509e+00 1.5877078425e+00 2.7499906509e+00 
146100 6.1344571856e+00 -7.0156168070e-05 1.5877078425e+00 -2.7499906509e+00 1.5877078425e+00 2.7499906509e+00 
146200 6.1344571855e+00 -7.0269866870e-05 1.5877078425e+00 -2.7499906509e+00 1.5877078425e+00 2.7499906509e+00 
146300 6.1344571855e+00 -7.0326516909e-05 1.5877078425e+00 -2.7499906509e+00 1.5877078425e+00 2.7499906509e+00 
146300 6.1344571855e+00 -7.0326516909e-05 1.5877078425e+00 -2.7499906509e+00 1.5877078425e+00 2.7499906509e+00 
