# step Hamiltonian StressXX CellTensor1 CellTensor2 CellTensor3 CellTensor4 
0 4.4243254171e+00 -5.1600864052e-01 1.6087831444e+00 -2.7864941444e+00 1.6087831444e+00 2.7864941444e+00 
100 4.4319909301e+00 -5.1500487612e-01 1.6087831444e+00 -2.7864941444e+00 1.6087831444e+00 2.7864941444e+00 
200 4.4304030218e+00 -4.9699514274e-01 1.6248154616e+00 -2.8142629324e+00 1.6248154616e+00 2.8142629324e+00 
300 4.4302448535e+00 -4.8035043237e-01 1.6401331255e+00 -2.8407939046e+00 1.6401331255e+00 2.8407939046e+00 
400 4.4311910522e+00 -4.6496128923e-01 1.6547983646e+00 -2.8661948438e+00 1.6547983646e+00 2.8661948438e+00 
500 4.4329458123e+00 -4.5073168421e-01 1.6688669563e+00 -2.8905623594e+00 1.6688669563e+00 2.8905623594e+00 
600 4.4352419956e+00 -4.3757662706e-01 1.6823891449e+00 -2.9139834770e+00 1.6823891449e+00 2.9139834770e+00 
700 4.4378406027e+00 -4.2542008435e-01 1.6954103901e+00 -2.9365369354e+00 1.6954103901e+00 2.9365369354e+00 
800 4.4405304094e+00 -4.1419318654e-01 1.7079719777e+00 -2.9582942432e+00 1.7079719777e+00 2.9582942432e+00 
900 4.4431276113e+00 -4.0383270929e-01 1.7201115154e+00 -2.9793205394e+00 1.7201115154e+00 2.9793205394e+00 
1000 4.4454753617e+00 -3.9427981412e-01 1.7318633380e+00 -2.9996752932e+00 1.7318633380e+00 2.9996752932e+00 
1100 4.4474431274e+00 -3.8547903244e-01 1.7432588362e+00 -3.0194128750e+00 1.7432588362e+00 3.0194128750e+00 
1200 4.4489258156e+00 -3.7737747448e-01 1.7543267260e+00 -3.0385830224e+00 1.7543267260e+00 3.0385830224e+00 
1300 4.4498426519e+00 -3.6992424238e-01 1.7650932705e+00 -3.0572312245e+00 1.7650932705e+00 3.0572312245e+00 
1400 4.4501358103e+00 -3.6307002395e-01 1.7755824642e+00 -3.0753990410e+00 1.7755824642e+00 3.0753990410e+00 
1500 4.4497688151e+00 -3.5676684197e-01 1.7858161894e+00 -3.0931243730e+00 1.7858161894e+00 3.0931243730e+00 
1600 4.4487247453e+00 -3.5096793228e-01 1.7958143512e+00 -3.1104416972e+00 1.7958143512e+00 3.1104416972e+00 
1700 4.4470042838e+00 -3.4562772429e-01 1.8055949976e+00 -3.1273822738e+00 1.8055949976e+00 3.1273822738e+00 
1800 4.4446236565e+00 -3.4070189770e-01 1.8151744288e+00 -3.1439743353e+00 1.8151744288e+00 3.1439743353e+00 
1900 4.4416125109e+00 -3.3614749155e-01 1.8245672994e+00 -3.1602432644e+00 1.8245672994e+00 3.1602432644e+00 
2000 4.4380117820e+00 -3.3192304381e-01 1.8337867160e+00 -3.1762117624e+00 1.8337867160e+00 3.1762117624e+00 
2100 4.4338715900e+00 -3.2798874306e-01 1.8428443322e+00 -3.1919000138e+00 1.8428443322e+00 3.1919000138e+00 
2200 4.4292492107e+00 -3.2430657718e-01 1.8517504411e+00 -3.2073258469e+00 1.8517504411e+00 3.2073258469e+00 
2300 4.4242071522e+00 -3.2084046751e-01 1.8605140674e+00 -3.2225048929e+00 1.8605140674e+00 3.2225048929e+00 
2400 4.4188113662e+00 -3.1755638033e-01 1.8691430573e+00 -3.2374507418e+00 1.8691430573e+00 3.2374507418e+00 
2500 4.4131296145e+00 -3.1442241063e-01 1.8776441675e+00 -3.2521750967e+00 1.8776441675e+00 3.2521750967e+00 
2600 4.4072300043e+00 -3.1140883589e-01 1.8860231527e+00 -3.2666879247e+00 1.8860231527e+00 3.2666879247e+00 
2700 4.4011797012e+00 -3.0848813981e-01 1.8942848496e+00 -3.2809976035e+00 1.8942848496e+00 3.2809976035e+00 
2800 4.3950438216e+00 -3.0563500758e-01 1.9024332598e+00 -3.2951110640e+00 1.9024332598e+00 3.2951110640e+00 
2900 4.3888845019e+00 -3.0282629565e-01 1.9104716282e+00 -3.3090339264e+00 1.9104716282e+00 3.3090339264e+00 
3000 4.3827601384e+00 -3.0004097958e-01 1.9184025181e+00 -3.3227706308e+00 1.9184025181e+00 3.3227706308e+00 
3100 4.3767247889e+00 -2.9726008406e-01 1.9262278831e+00 -3.3363245605e+00 1.9262278831e+00 3.3363245605e+00 
3200 4.3708277232e+00 -2.9446659923e-01 1.9339491334e+00 -3.3496981583e+00 1.9339491334e+00 3.3496981583e+00 
3300 4.3651131105e+00 -2.9164538724e-01 1.9415671993e+00 -3.3628930355e+00 1.9415671993e+00 3.3628930355e+00 
3400 4.3596198288e+00 -2.8878308281e-01 1.9490825892e+00 -3.3759100727e+00 1.9490825892e+00 3.3759100727e+00 
3500 4.3543813824e+00 -2.8586799082e-01 1.9564954441e+00 -3.3887495139e+00 1.9564954441e+00 3.3887495139e+00 
3600 4.3494259127e+00 -2.8288998378e-01 1.9638055872e+00 -3.4014110533e+00 1.9638055872e+00 3.4014110533e+00 
3700 4.3447762902e+00 -2.7984040131e-01 1.9710125704e+00 -3.4138939143e+00 1.9710125704e+00 3.4138939143e+00 
3800 4.3404502721e+00 -2.7671195338e-01 1.9781157159e+00 -3.4261969231e+00 1.9781157159e+00 3.4261969231e+00 
3900 4.3364607157e+00 -2.7349862857e-01 1.9851141550e+00 -3.4383185752e+00 1.9851141550e+00 3.4383185752e+00 
4000 4.3328158362e+00 -2.7019560806e-01 1.9920068635e+00 -3.4502570965e+00 1.9920068635e+00 3.4502570965e+00 
4100 4.3295194977e+00 -2.6679918607e-01 1.9987926936e+00 -3.4620104992e+00 1.9987926936e+00 3.4620104992e+00 
4200 4.3265715305e+00 -2.6330669662e-01 2.0054704038e+00 -3.4735766325e+00 2.0054704038e+00 3.4735766325e+00 
4300 4.3239680658e+00 -2.5971644686e-01 2.0120386852e+00 -3.4849532296e+00 2.0120386852e+00 3.4849532296e+00 
4400 4.3217018813e+00 -2.5602765641e-01 2.0184961866e+00 -3.4961379501e+00 2.0184961866e+00 3.4961379501e+00 
4500 4.3197627529e+00 -2.5224040253e-01 2.0248415369e+00 -3.5071284192e+00 2.0248415369e+00 3.5071284192e+00 
4600 4.3181378067e+00 -2.4835557038e-01 2.0310733660e+00 -3.5179222638e+00 2.0310733660e+00 3.5179222638e+00 
4700 4.3168118679e+00 -2.4437480792e-01 2.0371903236e+00 -3.5285171452e+00 2.0371903236e+00 3.5285171452e+00 
4800 4.3157678029e+00 -2.4030048463e-01 2.0431910975e+00 -3.5389107905e+00 2.0431910975e+00 3.5389107905e+00 
4900 4.3149868530e+00 -2.3613565345e-01 2.0490744293e+00 -3.5491010200e+00 2.0490744293e+00 3.5491010200e+00 
5000 4.3144489564e+00 -2.3188401506e-01 2.0548391299e+00 -3.5590857744e+00 2.0548391299e+00 3.5590857744e+00 
5100 4.3141330573e+00 -2.2754988402e-01 2.0604840936e+00 -3.5688631383e+00 2.0604840936e+00 3.5688631383e+00 
5200 4.3140174009e+00 -2.2313815574e-01 2.0660083111e+00 -3.5784313637e+00 2.0660083111e+00 3.5784313637e+00 
5300 4.3140798135e+00 -2.1865427392e-01 2.0714108816e+00 -3.5877888902e+00 2.0714108816e+00 3.5877888902e+00 
5400 4.3142979655e+00 -2.1410419757e-01 2.0766910241e+00 -3.5969343653e+00 2.0766910241e+00 3.5969343653e+00 
5500 4.3146496195e+00 -2.0949436717e-01 2.0818480877e+00 -3.6058666616e+00 2.0818480877e+00 3.6058666616e+00 
5600 4.3151128591e+00 -2.0483166944e-01 2.0868815613e+00 -3.6145848936e+00 2.0868815613e+00 3.6145848936e+00 
5700 4.3156663020e+00 -2.0012340020e-01 2.0917910820e+00 -3.6230884328e+00 2.0917910820e+00 3.6230884328e+00 
5800 4.3162892932e+00 -1.9537722514e-01 2.0965764428e+00 -3.6313769208e+00 2.0965764428e+00 3.6313769208e+00 
5900 4.3169620813e+00 -1.9060113809e-01 2.1012375996e+00 -3.6394502813e+00 2.1012375996e+00 3.6394502813e+00 
6000 4.3176659752e+00 -1.8580341678e-01 2.1057746771e+00 -3.6473087301e+00 2.1057746771e+00 3.6473087301e+00 
6100 4.3183834818e+00 -1.8099257602e-01 2.1101879736e+00 -3.6549527839e+00 2.1101879736e+00 3.6549527839e+00 
6200 4.3190984241e+00 -1.7617731850e-01 2.1144779648e+00 -3.6623832666e+00 2.1144779648e+00 3.6623832666e+00 
6300 4.3197960403e+00 -1.7136648327e-01 2.1186453068e+00 -3.6696013146e+00 2.1186453068e+00 3.6696013146e+00 
6400 4.3204630622e+00 -1.6656899253e-01 2.1226908377e+00 -3.6766083796e+00 2.1226908377e+00 3.6766083796e+00 
6500 4.3210877742e+00 -1.6179379683e-01 2.1266155781e+00 -3.6834062295e+00 2.1266155781e+00 3.6834062295e+00 
6600 4.3216600524e+00 -1.5704981964e-01 2.1304207310e+00 -3.6899969475e+00 2.1304207310e+00 3.6899969475e+00 
6700 4.3221713832e+00 -1.5234590148e-01 2.1341076794e+00 -3.6963829295e+00 2.1341076794e+00 3.6963829295e+00 
6800 4.3226148634e+00 -1.4769074468e-01 2.1376779842e+00 -3.7025668788e+00 2.1376779842e+00 3.7025668788e+00 
6900 4.3229851807e+00 -1.4309285919e-01 2.1411333797e+00 -3.7085517994e+00 2.1411333797e+00 3.7085517994e+00 
7000 4.3232785764e+00 -1.3856051023e-01 2.1444757689e+00 -3.7143409873e+00 2.1444757689e+00 3.7143409873e+00 
7100 4.3234927904e+00 -1.3410166857e-01 2.1477072171e+00 -3.7199380198e+00 2.1477072171e+00 3.7199380198e+00 
7200 4.3236269907e+00 -1.2972396377e-01 2.1508299451e+00 -3.7253467434e+00 2.1508299451e+00 3.7253467434e+00 
7300 4.3236816877e+00 -1.2543464130e-01 2.1538463211e+00 -3.7305712598e+00 2.1538463211e+00 3.7305712598e+00 
7400 4.3236586354e+00 -1.2124052366e-01 2.1567588517e+00 -3.7356159108e+00 2.1567588517e+00 3.7356159108e+00 
7500 4.3235607215e+00 -1.1714797612e-01 2.1595701725e+00 -3.7404852614e+00 2.1595701725e+00 3.7404852614e+00 
7600 4.3233918476e+00 -1.1316287721e-01 2.1622830380e+00 -3.7451840822e+00 2.1622830380e+00 3.7451840822e+00 
7700 4.3231568023e+00 -1.0929059421e-01 2.1649003104e+00 -3.7497173310e+00 2.1649003104e+00 3.7497173310e+00 
7800 4.3228611284e+00 -1.0553596361e-01 2.1674249488e+00 -3.7540901329e+00 2.1674249488e+00 3.7540901329e+00 
7900 4.3225109872e+00 -1.0190327667e-01 2.1698599973e+00 -3.7583077606e+00 2.1698599973e+00 3.7583077606e+00 
8000 4.3221130213e+00 -9.8396269803e-02 2.1722085736e+00 -3.7623756142e+00 2.1722085736e+00 3.7623756142e+00 
8100 4.3216742185e+00 -9.5018119789e-02 2.1744738568e+00 -3.7662991997e+00 2.1744738568e+00 3.7662991997e+00 
8200 4.3212017782e+00 -9.1771443477e-02 2.1766590754e+00 -3.7700841094e+00 2.1766590754e+00 3.7700841094e+00 
8300 4.3207029827e+00 -8.8658301766e-02 2.1787674957e+00 -3.7737360005e+00 2.1787674957e+00 3.7737360005e+00 
8400 4.3201850753e+00 -8.5680207536e-02 2.1808024097e+00 -3.7772605748e+00 2.1808024097e+00 3.7772605748e+00 
8500 4.3196551457e+00 -8.2838137211e-02 2.1827671236e+00 -3.7806635592e+00 2.1827671236e+00 3.7806635592e+00 
8600 4.3191200259e+00 -8.0132545602e-02 2.1846649470e+00 -3.7839506857e+00 2.1846649470e+00 3.7839506857e+00 
8700 4.3185861954e+00 -7.7563383654e-02 2.1864991813e+00 -3.7871276727e+00 2.1864991813e+00 3.7871276727e+00 
8800 4.3180596994e+00 -7.5130118726e-02 2.1882731098e+00 -3.7902002069e+00 2.1882731098e+00 3.7902002069e+00 
8900 4.3175460782e+00 -7.2831757035e-02 2.1899899872e+00 -3.7931739259e+00 2.1899899872e+00 3.7931739259e+00 
9000 4.3170503104e+00 -7.0666867879e-02 2.1916530306e+00 -3.7960544015e+00 2.1916530306e+00 3.7960544015e+00 
9100 4.3165767685e+00 -6.8633609276e-02 2.1932654100e+00 -3.7988471246e+00 2.1932654100e+00 3.7988471246e+00 
9200 4.3161291881e+00 -6.6729754666e-02 2.1948302403e+00 -3.8015574902e+00 2.1948302403e+00 3.8015574902e+00 
9300 4.3157106496e+00 -6.4952720336e-02 2.1963505732e+00 -3.8041907840e+00 2.1963505732e+00 3.8041907840e+00 
9400 4.3153235728e+00 -6.3299593255e-02 2.1978293900e+00 -3.8067521699e+00 2.1978293900e+00 3.8067521699e+00 
9500 4.3149697233e+00 -6.1767159040e-02 2.1992695951e+00 -3.8092466782e+00 2.1992695951e+00 3.8092466782e+00 
9600 4.3146502293e+00 -6.0351929785e-02 2.2006740097e+00 -3.8116791957e+00 2.2006740097e+00 3.8116791957e+00 
9700 4.3143656093e+00 -5.9050171538e-02 2.2020453667e+00 -3.8140544557e+00 2.2020453667e+00 3.8140544557e+00 
9800 4.3141158078e+00 -5.7857931242e-02 2.2033863055e+00 -3.8163770298e+00 2.2033863055e+00 3.8163770298e+00 
9900 4.3139002393e+00 -5.6771062972e-02 2.2046993679e+00 -3.8186513206e+00 2.2046993679e+00 3.8186513206e+00 
10000 4.3137178378e+00 -5.5785253371e-02 2.2059869943e+00 -3.8208815550e+00 2.2059869943e+00 3.8208815550e+00 
10100 4.3135671123e+00 -5.4896046177e-02 2.2072515208e+00 -3.8230717791e+00 2.2072515208e+00 3.8230717791e+00 
10200 4.3134462044e+00 -5.4098865799e-02 2.2084951761e+00 -3.8252258532e+00 2.2084951761e+00 3.8252258532e+00 
10300 4.3133529493e+00 -5.3389039904e-02 2.2097200794e+00 -3.8273474481e+00 2.2097200794e+00 3.8273474481e+00 
10400 4.3132849370e+00 -5.2761820998e-02 2.2109282393e+00 -3.8294400423e+00 2.2109282393e+00 3.8294400423e+00 
10500 4.3132395732e+00 -5.2212407027e-02 2.2121215517e+00 -3.8315069201e+00 2.2121215517e+00 3.8315069201e+00 
10600 4.3132141388e+00 -5.1735960993e-02 2.2133017999e+00 -3.8335511699e+00 2.2133017999e+00 3.8335511699e+00 
10700 4.3132058469e+00 -5.1327629634e-02 2.2144706534e+00 -3.8355756835e+00 2.2144706534e+00 3.8355756835e+00 
10800 4.3132118959e+00 -5.0982561192e-02 2.2156296686e+00 -3.8375831568e+00 2.2156296686e+00 3.8375831568e+00 
10900 4.3132295190e+00 -5.0695922294e-02 2.2167802890e+00 -3.8395760897e+00 2.2167802890e+00 3.8395760897e+00 
11000 4.3132560287e+00 -5.0462914002e-02 2.2179238456e+00 -3.8415567880e+00 2.2179238456e+00 3.8415567880e+00 
11100 4.3132888559e+00 -5.0278787035e-02 2.2190615589e+00 -3.8435273651e+00 2.2190615589e+00 3.8435273651e+00 
11200 4.3133255839e+00 -5.0138856208e-02 2.2201945392e+00 -3.8454897446e+00 2.2201945392e+00 3.8454897446e+00 
11300 4.3133639761e+00 -5.0038514092e-02 2.2213237894e+00 -3.8474456634e+00 2.2213237894e+00 3.8474456634e+00 
11400 4.3134019984e+00 -4.9973243914e-02 2.2224502065e+00 -3.8493966750e+00 2.2224502065e+00 3.8493966750e+00 
11500 4.3134378362e+00 -4.9938631703e-02 2.2235745839e+00 -3.8513441537e+00 2.2235745839e+00 3.8513441537e+00 
11600 4.3134699052e+00 -4.9930377676e-02 2.2246976142e+00 -3.8532892993e+00 2.2246976142e+00 3.8532892993e+00 
11700 4.3134968579e+00 -4.9944306869e-02 2.2258198920e+00 -3.8552331414e+00 2.2258198920e+00 3.8552331414e+00 
11800 4.3135175846e+00 -4.9976378997e-02 2.2269419167e+00 -3.8571765453e+00 2.2269419167e+00 3.8571765453e+00 
11900 4.3135312104e+00 -5.0022697535e-02 2.2280640963e+00 -3.8591202173e+00 2.2280640963e+00 3.8591202173e+00 
12000 4.3135370886e+00 -5.0079518007e-02 2.2291867502e+00 -3.8610647108e+00 2.2291867502e+00 3.8610647108e+00 
12100 4.3135347898e+00 -5.0143255481e-02 2.2303101132e+00 -3.8630104328e+00 2.2303101132e+00 3.8630104328e+00 
12200 4.3135240894e+00 -5.0210491243e-02 2.2314343395e+00 -3.8649576498e+00 2.2314343395e+00 3.8649576498e+00 
12300 4.3135049513e+00 -5.0277978651e-02 2.2325595061e+00 -3.8669064956e+00 2.2325595061e+00 3.8669064956e+00 
12400 4.3134775111e+00 -5.0342648173e-02 2.2336856173e+00 -3.8688569773e+00 2.2336856173e+00 3.8688569773e+00 
12500 4.3134420569e+00 -5.0401611585e-02 2.2348126085e+00 -3.8708089832e+00 2.2348126085e+00 3.8708089832e+00 
12600 4.3133990100e+00 -5.0452165349e-02 2.2359403506e+00 -3.8727622900e+00 2.2359403506e+00 3.8727622900e+00 
12700 4.3133489048e+00 -5.0491793175e-02 2.2370686546e+00 -3.8747165697e+00 2.2370686546e+00 3.8747165697e+00 
12800 4.3132923683e+00 -5.0518167771e-02 2.2381972752e+00 -3.8766713980e+00 2.2381972752e+00 3.8766713980e+00 
12900 4.3132301010e+00 -5.0529151804e-02 2.2393259159e+00 -3.8786262610e+00 2.2393259159e+00 3.8786262610e+00 
13000 4.3131628572e+00 -5.0522798088e-02 2.2404542329e+00 -3.8805805635e+00 2.2404542329e+00 3.8805805635e+00 
13100 4.3130914268e+00 -5.0497349024e-02 2.2415818399e+00 -3.8825336360e+00 2.2415818399e+00 3.8825336360e+00 
13200 4.3130166185e+00 -5.0451235318e-02 2.2427083117e+00 -3.8844847424e+00 2.2427083117e+00 3.8844847424e+00 
13300 4.3129392437e+00 -5.0383074015e-02 2.2438331894e+00 -3.8864330877e+00 2.2438331894e+00 3.8864330877e+00 
13400 4.3128601026e+00 -5.0291665866e-02 2.2449559839e+00 -3.8883778249e+00 2.2449559839e+00 3.8883778249e+00 
13500 4.3127799707e+00 -5.0175992082e-02 2.2460761806e+00 -3.8903180625e+00 2.2460761806e+00 3.8903180625e+00 
13600 4.3126995883e+00 -5.0035210504e-02 2.2471932431e+00 -3.8922528715e+00 2.2471932431e+00 3.8922528715e+00 
13700 4.3126196508e+00 -4.9868651224e-02 2.2483066173e+00 -3.8941812922e+00 2.2483066173e+00 3.8941812922e+00 
13800 4.3125408007e+00 -4.9675811708e-02 2.2494157354e+00 -3.8961023410e+00 2.2494157354e+00 3.8961023410e+00 
13900 4.3124636214e+00 -4.9456351446e-02 2.2505200193e+00 -3.8980150169e+00 2.2505200193e+00 3.8980150169e+00 
14000 4.3123886328e+00 -4.9210086186e-02 2.2516188848e+00 -3.8999183077e+00 2.2516188848e+00 3.8999183077e+00 
14100 4.3123162876e+00 -4.8936981780e-02 2.2527117443e+00 -3.9018111960e+00 2.2527117443e+00 3.9018111960e+00 
14200 4.3122469699e+00 -4.8637147689e-02 2.2537980110e+00 -3.9036926650e+00 2.2537980110e+00 3.9036926650e+00 
14300 4.3121809947e+00 -4.8310830182e-02 2.2548771012e+00 -3.9055617040e+00 2.2548771012e+00 3.9055617040e+00 
14400 4.3121186084e+00 -4.7958405270e-02 2.2559484379e+00 -3.9074173137e+00 2.2559484379e+00 3.9074173137e+00 
14500 4.3120599904e+00 -4.7580371416e-02 2.2570114535e+00 -3.9092585108e+00 2.2570114535e+00 3.9092585108e+00 
14600 4.3120052562e+00 -4.7177342049e-02 2.2580655925e+00 -3.9110843330e+00 2.2580655925e+00 3.9110843330e+00 
14700 4.3119544606e+00 -4.6750037930e-02 2.2591103136e+00 -3.9128938431e+00 2.2591103136e+00 3.9128938431e+00 
14800 4.3119076018e+00 -4.6299279392e-02 2.2601450928e+00 -3.9146861332e+00 2.2601450928e+00 3.9146861332e+00 
14900 4.3118646264e+00 -4.5825978499e-02 2.2611694247e+00 -3.9164603281e+00 2.2611694247e+00 3.9164603281e+00 
15000 4.3118254339e+00 -4.5331131149e-02 2.2621828251e+00 -3.9182155891e+00 2.2621828251e+00 3.9182155891e+00 
15100 4.3117898827e+00 -4.4815809156e-02 2.2631848324e+00 -3.9199511167e+00 2.2631848324e+00 3.9199511167e+00 
15200 4.3117577957e+00 -4.4281152341e-02 2.2641750095e+00 -3.9216661537e+00 2.2641750095e+00 3.9216661537e+00 
15300 4.3117289654e+00 -4.3728360661e-02 2.2651529449e+00 -3.9233599875e+00 2.2651529449e+00 3.9233599875e+00 
15400 4.3117031602e+00 -4.3158686403e-02 2.2661182542e+00 -3.9250319523e+00 2.2661182542e+00 3.9250319523e+00 
15500 4.3116801297e+00 -4.2573426473e-02 2.2670705812e+00 -3.9266814309e+00 2.2670705812e+00 3.9266814309e+00 
15600 4.3116596101e+00 -4.1973914805e-02 2.2680095983e+00 -3.9283078564e+00 2.2680095983e+00 3.9283078564e+00 
15700 4.3116413294e+00 -4.1361514909e-02 2.2689350082e+00 -3.9299107132e+00 2.2689350082e+00 3.9299107132e+00 
15800 4.3116250123e+00 -4.0737612597e-02 2.2698465434e+00 -3.9314895385e+00 2.2698465434e+00 3.9314895385e+00 
15900 4.3116103846e+00 -4.0103608891e-02 2.2707439674e+00 -3.9330439225e+00 2.2707439674e+00 3.9330439225e+00 
16000 4.3115971773e+00 -3.9460913145e-02 2.2716270746e+00 -3.9345735090e+00 2.2716270746e+00 3.9345735090e+00 
16100 4.3115851305e+00 -3.8810936401e-02 2.2724956905e+00 -3.9360779959e+00 2.2724956905e+00 3.9360779959e+00 
16200 4.3115739962e+00 -3.8155084998e-02 2.2733496715e+00 -3.9375571345e+00 2.2733496715e+00 3.9375571345e+00 
16300 4.3115635415e+00 -3.7494754442e-02 2.2741889052e+00 -3.9390107298e+00 2.2741889052e+00 3.9390107298e+00 
16400 4.3115535507e+00 -3.6831323568e-02 2.2750133094e+00 -3.9404386398e+00 2.2750133094e+00 3.9404386398e+00 
16500 4.3115438270e+00 -3.6166148996e-02 2.2758228323e+00 -3.9418407746e+00 2.2758228323e+00 3.9418407746e+00 
16600 4.3115341941e+00 -3.5500559901e-02 2.2766174516e+00 -3.9432170955e+00 2.2766174516e+00 3.9432170955e+00 
16700 4.3115244972e+00 -3.4835853102e-02 2.2773971738e+00 -3.9445676141e+00 2.2773971738e+00 3.9445676141e+00 
16800 4.3115146034e+00 -3.4173288493e-02 2.2781620339e+00 -3.9458923905e+00 2.2781620339e+00 3.9458923905e+00 
16900 4.3115044017e+00 -3.3514084801e-02 2.2789120938e+00 -3.9471915325e+00 2.2789120938e+00 3.9471915325e+00 
17000 4.3114938030e+00 -3.2859415706e-02 2.2796474422e+00 -3.9484651933e+00 2.2796474422e+00 3.9484651933e+00 
17100 4.3114827396e+00 -3.2210406300e-02 2.2803681929e+00 -3.9497135700e+00 2.2803681929e+00 3.9497135700e+00 
17200 4.3114711641e+00 -3.1568129907e-02 2.2810744838e+00 -3.9509369018e+00 2.2810744838e+00 3.9509369018e+00 
17300 4.3114590484e+00 -3.0933605263e-02 2.2817664762e+00 -3.9521354678e+00 2.2817664762e+00 3.9521354678e+00 
17400 4.3114463824e+00 -3.0307794037e-02 2.2824443531e+00 -3.9533095851e+00 2.2824443531e+00 3.9533095851e+00 
17500 4.3114331726e+00 -2.9691598725e-02 2.2831083181e+00 -3.9544596062e+00 2.2831083181e+00 3.9544596062e+00 
17600 4.3114194404e+00 -2.9085860878e-02 2.2837585941e+00 -3.9555859171e+00 2.2837585941e+00 3.9555859171e+00 
17700 4.3114052200e+00 -2.8491359680e-02 2.2843954217e+00 -3.9566889350e+00 2.2843954217e+00 3.9566889350e+00 
17800 4.3113905572e+00 -2.7908810867e-02 2.2850190584e+00 -3.9577691054e+00 2.2850190584e+00 3.9577691054e+00 
17900 4.3113755070e+00 -2.7338865971e-02 2.2856297766e+00 -3.9588269003e+00 2.2856297766e+00 3.9588269003e+00 
18000 4.3113601323e+00 -2.6782111883e-02 2.2862278625e+00 -3.9598628155e+00 2.2862278625e+00 3.9598628155e+00 
18100 4.3113445014e+00 -2.6239070734e-02 2.2868136146e+00 -3.9608773678e+00 2.2868136146e+00 3.9608773678e+00 
18200 4.3113286869e+00 -2.5710200063e-02 2.2873873423e+00 -3.9618710934e+00 2.2873873423e+00 3.9618710934e+00 
18300 4.3113127635e+00 -2.5195893278e-02 2.2879493646e+00 -3.9628445445e+00 2.2879493646e+00 3.9628445445e+00 
18400 4.3112968070e+00 -2.4696480382e-02 2.2885000084e+00 -3.9637982876e+00 2.2885000084e+00 3.9637982876e+00 
18500 4.3112808921e+00 -2.4212228961e-02 2.2890396075e+00 -3.9647329007e+00 2.2890396075e+00 3.9647329007e+00 
18600 4.3112650918e+00 -2.3743345409e-02 2.2895685009e+00 -3.9656489710e+00 2.2895685009e+00 3.9656489710e+00 
18700 4.3112494756e+00 -2.3289976382e-02 2.2900870318e+00 -3.9665470929e+00 2.2900870318e+00 3.9665470929e+00 
18800 4.3112341091e+00 -2.2852210459e-02 2.2905955461e+00 -3.9674278654e+00 2.2905955461e+00 3.9674278654e+00 
18900 4.3112190527e+00 -2.2430079993e-02 2.2910943910e+00 -3.9682918902e+00 2.2910943910e+00 3.9682918902e+00 
19000 4.3112043608e+00 -2.2023563148e-02 2.2915839143e+00 -3.9691397693e+00 2.2915839143e+00 3.9691397693e+00 
19100 4.3111900817e+00 -2.1632586079e-02 2.2920644625e+00 -3.9699721033e+00 2.2920644625e+00 3.9699721033e+00 
19200 4.3111762571e+00 -2.1257025272e-02 2.2925363805e+00 -3.9707894892e+00 2.2925363805e+00 3.9707894892e+00 
19300 4.3111629213e+00 -2.0896709990e-02 2.2930000098e+00 -3.9715925187e+00 2.2930000098e+00 3.9715925187e+00 
19400 4.3111501018e+00 -2.0551424842e-02 2.2934556880e+00 -3.9723817765e+00 2.2934556880e+00 3.9723817765e+00 
19500 4.3111378192e+00 -2.0220912440e-02 2.2939037475e+00 -3.9731578384e+00 2.2939037475e+00 3.9731578384e+00 
19600 4.3111260868e+00 -1.9904876121e-02 2.2943445149e+00 -3.9739212699e+00 2.2943445149e+00 3.9739212699e+00 
19700 4.3111149116e+00 -1.9602982746e-02 2.2947783099e+00 -3.9746726249e+00 2.2947783099e+00 3.9746726249e+00 
19800 4.3111042940e+00 -1.9314865527e-02 2.2952054447e+00 -3.9754124440e+00 2.2952054447e+00 3.9754124440e+00 
19900 4.3110942289e+00 -1.9040126892e-02 2.2956262230e+00 -3.9761412535e+00 2.2956262230e+00 3.9761412535e+00 
20000 4.3110847054e+00 -1.8778341364e-02 2.2960409399e+00 -3.9768595642e+00 2.2960409399e+00 3.9768595642e+00 
20100 4.3110757081e+00 -1.8529058438e-02 2.2964498808e+00 -3.9775678705e+00 2.2964498808e+00 3.9775678705e+00 
20200 4.3110672171e+00 -1.8291805450e-02 2.2968533209e+00 -3.9782666493e+00 2.2968533209e+00 3.9782666493e+00 
20300 4.3110592090e+00 -1.8066090417e-02 2.2972515251e+00 -3.9789563593e+00 2.2972515251e+00 3.9789563593e+00 
20400 4.3110516574e+00 -1.7851404846e-02 2.2976447473e+00 -3.9796374401e+00 2.2976447473e+00 3.9796374401e+00 
20500 4.3110445335e+00 -1.7647226491e-02 2.2980332301e+00 -3.9803103120e+00 2.2980332301e+00 3.9803103120e+00 
20600 4.3110378065e+00 -1.7453022060e-02 2.2984172045e+00 -3.9809753751e+00 2.2984172045e+00 3.9809753751e+00 
20700 4.3110314447e+00 -1.7268249844e-02 2.2987968897e+00 -3.9816330093e+00 2.2987968897e+00 3.9816330093e+00 
20800 4.3110254157e+00 -1.7092362286e-02 2.2991724932e+00 -3.9822835735e+00 2.2991724932e+00 3.9822835735e+00 
20900 4.3110196869e+00 -1.6924808449e-02 2.2995442100e+00 -3.9829274060e+00 2.2995442100e+00 3.9829274060e+00 
21000 4.3110142261e+00 -1.6765036409e-02 2.2999122234e+00 -3.9835648238e+00 2.2999122234e+00 3.9835648238e+00 
21100 4.3110090022e+00 -1.6612495540e-02 2.3002767042e+00 -3.9841961232e+00 2.3002767042e+00 3.9841961232e+00 
21200 4.3110039850e+00 -1.6466638703e-02 2.3006378114e+00 -3.9848215792e+00 2.3006378114e+00 3.9848215792e+00 
21300 4.3109991461e+00 -1.6326924323e-02 2.3009956919e+00 -3.9854414463e+00 2.3009956919e+00 3.9854414463e+00 
21400 4.3109944588e+00 -1.6192818355e-02 2.3013504805e+00 -3.9860559583e+00 2.3013504805e+00 3.9860559583e+00 
21500 4.3109898986e+00 -1.6063796134e-02 2.3017023007e+00 -3.9866653287e+00 2.3017023007e+00 3.9866653287e+00 
21600 4.3109854432e+00 -1.5939344107e-02 2.3020512642e+00 -3.9872697512e+00 2.3020512642e+00 3.9872697512e+00 
21700 4.3109810727e+00 -1.5818961443e-02 2.3023974716e+00 -3.9878694001e+00 2.3023974716e+00 3.9878694001e+00 
21800 4.3109767697e+00 -1.5702161518e-02 2.3027410125e+00 -3.9884644304e+00 2.3027410125e+00 3.9884644304e+00 
21900 4.3109725193e+00 -1.5588473285e-02 2.3030819660e+00 -3.9890549790e+00 2.3030819660e+00 3.9890549790e+00 
22000 4.3109683090e+00 -1.5477442503e-02 2.3034204006e+00 -3.9896411651e+00 2.3034204006e+00 3.9896411651e+00 
22100 4.3109641289e+00 -1.5368632863e-02 2.3037563753e+00 -3.9902230903e+00 2.3037563753e+00 3.9902230903e+00 
22200 4.3109599711e+00 -1.5261626968e-02 2.3040899393e+00 -3.9908008401e+00 2.3040899393e+00 3.9908008401e+00 
22300 4.3109558302e+00 -1.5156027212e-02 2.3044211328e+00 -3.9913744840e+00 2.3044211328e+00 3.9913744840e+00 
22400 4.3109517029e+00 -1.5051456519e-02 2.3047499874e+00 -3.9919440768e+00 2.3047499874e+00 3.9919440768e+00 
22500 4.3109475875e+00 -1.4947558976e-02 2.3050765263e+00 -3.9925096589e+00 2.3050765263e+00 3.9925096589e+00 
22600 4.3109434843e+00 -1.4844000344e-02 2.3054007652e+00 -3.9930712571e+00 2.3054007652e+00 3.9930712571e+00 
22700 4.3109393950e+00 -1.4740468456e-02 2.3057227124e+00 -3.9936288860e+00 2.3057227124e+00 3.9936288860e+00 
22800 4.3109353225e+00 -1.4636673503e-02 2.3060423694e+00 -3.9941825482e+00 2.3060423694e+00 3.9941825482e+00 
22900 4.3109312710e+00 -1.4532348220e-02 2.3063597315e+00 -3.9947322355e+00 2.3063597315e+00 3.9947322355e+00 
23000 4.3109272456e+00 -1.4427247957e-02 2.3066747881e+00 -3.9952779296e+00 2.3066747881e+00 3.9952779296e+00 
23100 4.3109232518e+00 -1.4321150661e-02 2.3069875235e+00 -3.9958196031e+00 2.3069875235e+00 3.9958196031e+00 
23200 4.3109192960e+00 -1.4213856758e-02 2.3072979168e+00 -3.9963572201e+00 2.3072979168e+00 3.9963572201e+00 
23300 4.3109153846e+00 -1.4105188949e-02 2.3076059432e+00 -3.9968907375e+00 2.3076059432e+00 3.9968907375e+00 
23400 4.3109115243e+00 -1.3994991915e-02 2.3079115738e+00 -3.9974201052e+00 2.3079115738e+00 3.9974201052e+00 
23500 4.3109077217e+00 -1.3883131942e-02 2.3082147765e+00 -3.9979452676e+00 2.3082147765e+00 3.9979452676e+00 
23600 4.3109039833e+00 -1.3769496480e-02 2.3085155161e+00 -3.9984661639e+00 2.3085155161e+00 3.9984661639e+00 
23700 4.3109003151e+00 -1.3653993615e-02 2.3088137552e+00 -3.9989827293e+00 2.3088137552e+00 3.9989827293e+00 
23800 4.3108967229e+00 -1.3536551492e-02 2.3091094544e+00 -3.9994948952e+00 2.3091094544e+00 3.9994948952e+00 
23900 4.3108932120e+00 -1.3417117663e-02 2.3094025725e+00 -4.0000025907e+00 2.3094025725e+00 4.0000025907e+00 
24000 4.3108897869e+00 -1.3295658396e-02 2.3096930675e+00 -4.0005057429e+00 2.3096930675e+00 4.0005057429e+00 
24100 4.3108864516e+00 -1.3172157918e-02 2.3099808966e+00 -4.0010042774e+00 2.3099808966e+00 4.0010042774e+00 
24200 4.3108832095e+00 -1.3046617628e-02 2.3102660164e+00 -4.0014981195e+00 2.3102660164e+00 4.0014981195e+00 
24300 4.3108800630e+00 -1.2919055260e-02 2.3105483840e+00 -4.0019871944e+00 2.3105483840e+00 4.0019871944e+00 
24400 4.3108770141e+00 -1.2789504022e-02 2.3108279565e+00 -4.0024714282e+00 2.3108279565e+00 4.0024714282e+00 
24500 4.3108740639e+00 -1.2658011696e-02 2.3111046919e+00 -4.0029507480e+00 2.3111046919e+00 4.0029507480e+00 
24600 4.3108712129e+00 -1.2524639724e-02 2.3113785493e+00 -4.0034250829e+00 2.3113785493e+00 4.0034250829e+00 
24700 4.3108684606e+00 -1.2389462265e-02 2.3116494890e+00 -4.0038943642e+00 2.3116494890e+00 4.0038943642e+00 
24800 4.3108658063e+00 -1.2252565253e-02 2.3119174730e+00 -4.0043585262e+00 2.3119174730e+00 4.0043585262e+00 
24900 4.3108632484e+00 -1.2114045426e-02 2.3121824651e+00 -4.0048175060e+00 2.3121824651e+00 4.0048175060e+00 
25000 4.3108607849e+00 -1.1974009369e-02 2.3124444314e+00 -4.0052712448e+00 2.3124444314e+00 4.0052712448e+00 
25100 4.3108584132e+00 -1.1832572541e-02 2.3127033399e+00 -4.0057196876e+00 2.3127033399e+00 4.0057196876e+00 
25200 4.3108561305e+00 -1.1689858319e-02 2.3129591616e+00 -4.0061627836e+00 2.3129591616e+00 4.0061627836e+00 
25300 4.3108539333e+00 -1.1545997039e-02 2.3132118697e+00 -4.0066004869e+00 2.3132118697e+00 4.0066004869e+00 
25400 4.3108518180e+00 -1.1401125055e-02 2.3134614405e+00 -4.0070327563e+00 2.3134614405e+00 4.0070327563e+00 
25500 4.3108497807e+00 -1.1255383810e-02 2.3137078533e+00 -4.0074595557e+00 2.3137078533e+00 4.0074595557e+00 
25600 4.3108478176e+00 -1.1108918925e-02 2.3139510901e+00 -4.0078808543e+00 2.3139510901e+00 4.0078808543e+00 
25700 4.3108459243e+00 -1.0961879313e-02 2.3141911365e+00 -4.0082966268e+00 2.3141911365e+00 4.0082966268e+00 
25800 4.3108440967e+00 -1.0814416310e-02 2.3144279809e+00 -4.0087068534e+00 2.3144279809e+00 4.0087068534e+00 
25900 4.3108423307e+00 -1.0666682846e-02 2.3146616153e+00 -4.0091115200e+00 2.3146616153e+00 4.0091115200e+00 
26000 4.3108406222e+00 -1.0518832629e-02 2.3148920347e+00 -4.0095106182e+00 2.3148920347e+00 4.0095106182e+00 
26100 4.3108389671e+00 -1.0371019376e-02 2.3151192376e+00 -4.0099041452e+00 2.3151192376e+00 4.0099041452e+00 
26200 4.3108373615e+00 -1.0223396067e-02 2.3153432258e+00 -4.0102921041e+00 2.3153432258e+00 4.0102921041e+00 
26300 4.3108358019e+00 -1.0076114243e-02 2.3155640043e+00 -4.0106745036e+00 2.3155640043e+00 4.0106745036e+00 
26400 4.3108342847e+00 -9.9293233321e-03 2.3157815813e+00 -4.0110513581e+00 2.3157815813e+00 4.0110513581e+00 
26500 4.3108328067e+00 -9.7831700239e-03 2.3159959685e+00 -4.0114226875e+00 2.3159959685e+00 4.0114226875e+00 
26600 4.3108313649e+00 -9.6377976759e-03 2.3162071804e+00 -4.0117885173e+00 2.3162071804e+00 4.0117885173e+00 
26700 4.3108299567e+00 -9.4933457644e-03 2.3164152348e+00 -4.0121488781e+00 2.3164152348e+00 4.0121488781e+00 
26800 4.3108285795e+00 -9.3499493756e-03 2.3166201524e+00 -4.0125038058e+00 2.3166201524e+00 4.0125038058e+00 
26900 4.3108272312e+00 -9.2077387380e-03 2.3168219569e+00 -4.0128533414e+00 2.3168219569e+00 4.0128533414e+00 
27000 4.3108259100e+00 -9.0668387970e-03 2.3170206746e+00 -4.0131975305e+00 2.3170206746e+00 4.0131975305e+00 
27100 4.3108246142e+00 -8.9273688323e-03 2.3172163346e+00 -4.0135364236e+00 2.3172163346e+00 4.0135364236e+00 
27200 4.3108233425e+00 -8.7894421158e-03 2.3174089686e+00 -4.0138700755e+00 2.3174089686e+00 4.0138700755e+00 
27300 4.3108220937e+00 -8.6531656119e-03 2.3175986106e+00 -4.0141985451e+00 2.3175986106e+00 4.0141985451e+00 
27400 4.3108208669e+00 -8.5186397193e-03 2.3177852970e+00 -4.0145218954e+00 2.3177852970e+00 4.0145218954e+00 
27500 4.3108196616e+00 -8.3859580527e-03 2.3179690662e+00 -4.0148401930e+00 2.3179690662e+00 4.0148401930e+00 
27600 4.3108184772e+00 -8.2552072644e-03 2.3181499587e+00 -4.0151535081e+00 2.3181499587e+00 4.0151535081e+00 
27700 4.3108173134e+00 -8.1264669046e-03 2.3183280170e+00 -4.0154619140e+00 2.3183280170e+00 4.0154619140e+00 
27800 4.3108161702e+00 -7.9998093202e-03 2.3185032849e+00 -4.0157654869e+00 2.3185032849e+00 4.0157654869e+00 
27900 4.3108150473e+00 -7.8752995892e-03 2.3186758080e+00 -4.0160643057e+00 2.3186758080e+00 4.0160643057e+00 
28000 4.3108139451e+00 -7.7529954909e-03 2.3188456333e+00 -4.0163584517e+00 2.3188456333e+00 4.0163584517e+00 
28100 4.3108128635e+00 -7.6329475103e-03 2.3190128089e+00 -4.0166480084e+00 2.3190128089e+00 4.0166480084e+00 
28200 4.3108118028e+00 -7.5151988740e-03 2.3191773840e+00 -4.0169330609e+00 2.3191773840e+00 4.0169330609e+00 
28300 4.3108107634e+00 -7.3997856185e-03 2.3193394089e+00 -4.0172136961e+00 2.3193394089e+00 4.0172136961e+00 
28400 4.3108097455e+00 -7.2867366857e-03 2.3194989342e+00 -4.0174900022e+00 2.3194989342e+00 4.0174900022e+00 
28500 4.3108087494e+00 -7.1760740482e-03 2.3196560117e+00 -4.0177620683e+00 2.3196560117e+00 4.0177620683e+00 
28600 4.3108077754e+00 -7.0678128585e-03 2.3198106931e+00 -4.0180299844e+00 2.3198106931e+00 4.0180299844e+00 
28700 4.3108068238e+00 -6.9619616233e-03 2.3199630308e+00 -4.0182938409e+00 2.3199630308e+00 4.0182938409e+00 
28800 4.3108058947e+00 -6.8585223999e-03 2.3201130770e+00 -4.0185537287e+00 2.3201130770e+00 4.0185537287e+00 
28900 4.3108049885e+00 -6.7574910123e-03 2.3202608844e+00 -4.0188097386e+00 2.3202608844e+00 4.0188097386e+00 
29000 4.3108041052e+00 -6.6588572872e-03 2.3204065051e+00 -4.0190619611e+00 2.3204065051e+00 4.0190619611e+00 
29100 4.3108032449e+00 -6.5626053050e-03 2.3205499913e+00 -4.0193104865e+00 2.3205499913e+00 4.0193104865e+00 
29200 4.3108024077e+00 -6.4687136672e-03 2.3206913947e+00 -4.0195554043e+00 2.3206913947e+00 4.0195554043e+00 
29300 4.3108015934e+00 -6.3771557758e-03 2.3208307665e+00 -4.0197968033e+00 2.3208307665e+00 4.0197968033e+00 
29400 4.3108008019e+00 -6.2879001245e-03 2.3209681573e+00 -4.0200347713e+00 2.3209681573e+00 4.0200347713e+00 
29500 4.3108000330e+00 -6.2009105988e-03 2.3211036172e+00 -4.0202693946e+00 2.3211036172e+00 4.0202693946e+00 
29600 4.3107992865e+00 -6.1161467850e-03 2.3212371953e+00 -4.0205007586e+00 2.3212371953e+00 4.0205007586e+00 
29700 4.3107985620e+00 -6.0335642834e-03 2.3213689398e+00 -4.0207289468e+00 2.3213689398e+00 4.0207289468e+00 
29800 4.3107978591e+00 -5.9531150277e-03 2.3214988980e+00 -4.0209540411e+00 2.3214988980e+00 4.0209540411e+00 
29900 4.3107971774e+00 -5.8747476057e-03 2.3216271162e+00 -4.0211761216e+00 2.3216271162e+00 4.0211761216e+00 
30000 4.3107965164e+00 -5.7984075827e-03 2.3217536396e+00 -4.0213952664e+00 2.3217536396e+00 4.0213952664e+00 
30100 4.3107958755e+00 -5.7240378232e-03 2.3218785120e+00 -4.0216115518e+00 2.3218785120e+00 4.0216115518e+00 
30200 4.3107952541e+00 -5.6515788116e-03 2.3220017762e+00 -4.0218250516e+00 2.3220017762e+00 4.0218250516e+00 
30300 4.3107946516e+00 -5.5809689705e-03 2.3221234735e+00 -4.0220358376e+00 2.3221234735e+00 4.0220358376e+00 
30400 4.3107940673e+00 -5.5121449737e-03 2.3222436441e+00 -4.0222439791e+00 2.3222436441e+00 4.0222439791e+00 
30500 4.3107935007e+00 -5.4450420544e-03 2.3223623265e+00 -4.0224495431e+00 2.3223623265e+00 4.0224495431e+00 
30600 4.3107929510e+00 -5.3795943066e-03 2.3224795582e+00 -4.0226525943e+00 2.3224795582e+00 4.0226525943e+00 
30700 4.3107924175e+00 -5.3157349786e-03 2.3225953749e+00 -4.0228531947e+00 2.3225953749e+00 4.0228531947e+00 
30800 4.3107918995e+00 -5.2533967591e-03 2.3227098111e+00 -4.0230514040e+00 2.3227098111e+00 4.0230514040e+00 
30900 4.3107913964e+00 -5.1925120518e-03 2.3228228997e+00 -4.0232472792e+00 2.3228228997e+00 4.0232472792e+00 
31000 4.3107909076e+00 -5.1330132422e-03 2.3229346721e+00 -4.0234408748e+00 2.3229346721e+00 4.0234408748e+00 
31100 4.3107904323e+00 -5.0748329511e-03 2.3230451585e+00 -4.0236322429e+00 2.3230451585e+00 4.0236322429e+00 
31200 4.3107899700e+00 -5.0179042782e-03 2.3231543874e+00 -4.0238214329e+00 2.3231543874e+00 4.0238214329e+00 
31300 4.3107895201e+00 -4.9621610324e-03 2.3232623859e+00 -4.0240084917e+00 2.3232623859e+00 4.0240084917e+00 
31400 4.3107890819e+00 -4.9075379503e-03 2.3233691797e+00 -4.0241934640e+00 2.3233691797e+00 4.0241934640e+00 
31500 4.3107886550e+00 -4.8539709011e-03 2.3234747930e+00 -4.0243763916e+00 2.3234747930e+00 4.0243763916e+00 
31600 4.3107882388e+00 -4.8013970779e-03 2.3235792488e+00 -4.0245573143e+00 2.3235792488e+00 4.0245573143e+00 
31700 4.3107878330e+00 -4.7497551762e-03 2.3236825685e+00 -4.0247362694e+00 2.3236825685e+00 4.0247362694e+00 
31800 4.3107874370e+00 -4.6989855575e-03 2.3237847725e+00 -4.0249132918e+00 2.3237847725e+00 4.0249132918e+00 
31900 4.3107870504e+00 -4.6490304000e-03 2.3238858795e+00 -4.0250884143e+00 2.3238858795e+00 4.0250884143e+00 
32000 4.3107866729e+00 -4.5998338342e-03 2.3239859073e+00 -4.0252616675e+00 2.3239859073e+00 4.0252616675e+00 
32100 4.3107863041e+00 -4.5513420654e-03 2.3240848723e+00 -4.0254330800e+00 2.3240848723e+00 4.0254330800e+00 
32200 4.3107859438e+00 -4.5035034818e-03 2.3241827899e+00 -4.0256026782e+00 2.3241827899e+00 4.0256026782e+00 
32300 4.3107855917e+00 -4.4562687486e-03 2.3242796742e+00 -4.0257704866e+00 2.3242796742e+00 4.0257704866e+00 
32400 4.3107852475e+00 -4.4095908896e-03 2.3243755382e+00 -4.0259365281e+00 2.3243755382e+00 4.0259365281e+00 
32500 4.3107849110e+00 -4.3634253535e-03 2.3244703943e+00 -4.0261008236e+00 2.3244703943e+00 4.0261008236e+00 
32600 4.3107845820e+00 -4.3177300692e-03 2.3245642534e+00 -4.0262633923e+00 2.3245642534e+00 4.0262633923e+00 
32700 4.3107842604e+00 -4.2724654868e-03 2.3246571258e+00 -4.0264242521e+00 2.3246571258e+00 4.0264242521e+00 
32800 4.3107839460e+00 -4.2275946068e-03 2.3247490210e+00 -4.0265834192e+00 2.3247490210e+00 4.0265834192e+00 
32900 4.3107836387e+00 -4.1830829973e-03 2.3248399474e+00 -4.0267409083e+00 2.3248399474e+00 4.0267409083e+00 
33000 4.3107833383e+00 -4.1388987997e-03 2.3249299129e+00 -4.0268967332e+00 2.3249299129e+00 4.0268967332e+00 
33100 4.3107830448e+00 -4.0950127231e-03 2.3250189248e+00 -4.0270509062e+00 2.3250189248e+00 4.0270509062e+00 
33200 4.3107827581e+00 -4.0513980284e-03 2.3251069894e+00 -4.0272034387e+00 2.3251069894e+00 4.0272034387e+00 
33300 4.3107824780e+00 -4.0080305019e-03 2.3251941128e+00 -4.0273543408e+00 2.3251941128e+00 4.0273543408e+00 
33400 4.3107822045e+00 -3.9648884202e-03 2.3252803003e+00 -4.0275036220e+00 2.3252803003e+00 4.0275036220e+00 
33500 4.3107819376e+00 -3.9219525052e-03 2.3253655570e+00 -4.0276512908e+00 2.3253655570e+00 4.0276512908e+00 
33600 4.3107816771e+00 -3.8792058716e-03 2.3254498873e+00 -4.0277973552e+00 2.3254498873e+00 4.0277973552e+00 
33700 4.3107814229e+00 -3.8366339658e-03 2.3255332954e+00 -4.0279418224e+00 2.3255332954e+00 4.0279418224e+00 
33800 4.3107811751e+00 -3.7942244986e-03 2.3256157852e+00 -4.0280846989e+00 2.3256157852e+00 4.0280846989e+00 
33900 4.3107809334e+00 -3.7519673705e-03 2.3256973603e+00 -4.0282259911e+00 2.3256973603e+00 4.0282259911e+00 
34000 4.3107806979e+00 -3.7098545912e-03 2.3257780241e+00 -4.0283657048e+00 2.3257780241e+00 4.0283657048e+00 
34100 4.3107804685e+00 -3.6678801943e-03 2.3258577797e+00 -4.0285038456e+00 2.3258577797e+00 4.0285038456e+00 
34200 4.3107802450e+00 -3.6260401466e-03 2.3259366302e+00 -4.0286404186e+00 2.3259366302e+00 4.0286404186e+00 
34300 4.3107800273e+00 -3.5843322533e-03 2.3260145786e+00 -4.0287754292e+00 2.3260145786e+00 4.0287754292e+00 
34400 4.3107798154e+00 -3.5427560601e-03 2.3260916278e+00 -4.0289088824e+00 2.3260916278e+00 4.0289088824e+00 
34500 4.3107796092e+00 -3.5013127521e-03 2.3261677807e+00 -4.0290407832e+00 2.3261677807e+00 4.0290407832e+00 
34600 4.3107794084e+00 -3.4600050498e-03 2.3262430404e+00 -4.0291711367e+00 2.3262430404e+00 4.0291711367e+00 
34700 4.3107792132e+00 -3.4188371038e-03 2.3263174097e+00 -4.0292999482e+00 2.3263174097e+00 4.0292999482e+00 
34800 4.3107790232e+00 -3.3778143882e-03 2.3263908919e+00 -4.0294272230e+00 2.3263908919e+00 4.0294272230e+00 
34900 4.3107788384e+00 -3.3369435927e-03 2.3264634900e+00 -4.0295529666e+00 2.3264634900e+00 4.0295529666e+00 
35000 4.3107786586e+00 -3.2962325149e-03 2.3265352074e+00 -4.0296771849e+00 2.3265352074e+00 4.0296771849e+00 
35100 4.3107784838e+00 -3.2556899525e-03 2.3266060477e+00 -4.0297998839e+00 2.3266060477e+00 4.0297998839e+00 
35200 4.3107783137e+00 -3.2153255959e-03 2.3266760146e+00 -4.0299210700e+00 2.3266760146e+00 4.0299210700e+00 
35300 4.3107781484e+00 -3.1751499226e-03 2.3267451119e+00 -4.0300407501e+00 2.3267451119e+00 4.0300407501e+00 
35400 4.3107779875e+00 -3.1351740923e-03 2.3268133438e+00 -4.0301589313e+00 2.3268133438e+00 4.0301589313e+00 
35500 4.3107778310e+00 -3.0954098442e-03 2.3268807147e+00 -4.0302756210e+00 2.3268807147e+00 4.0302756210e+00 
35600 4.3107776788e+00 -3.0558693968e-03 2.3269472292e+00 -4.0303908275e+00 2.3269472292e+00 4.0303908275e+00 
35700 4.3107775307e+00 -3.0165653498e-03 2.3270128921e+00 -4.0305045590e+00 2.3270128921e+00 4.0305045590e+00 
35800 4.3107773865e+00 -2.9775105890e-03 2.3270777087e+00 -4.0306168246e+00 2.3270777087e+00 4.0306168246e+00 
35900 4.3107772462e+00 -2.9387181946e-03 2.3271416843e+00 -4.0307276336e+00 2.3271416843e+00 4.0307276336e+00 
36000 4.3107771097e+00 -2.9002013528e-03 2.3272048247e+00 -4.0308369959e+00 2.3272048247e+00 4.0308369959e+00 
36100 4.3107769767e+00 -2.8619732708e-03 2.3272671358e+00 -4.0309449219e+00 2.3272671358e+00 4.0309449219e+00 
36200 4.3107768473e+00 -2.8240470964e-03 2.3273286239e+00 -4.0310514225e+00 2.3273286239e+00 4.0310514225e+00 
36300 4.3107767212e+00 -2.7864358407e-03 2.3273892956e+00 -4.0311565089e+00 2.3273892956e+00 4.0311565089e+00 
36400 4.3107765983e+00 -2.7491523057e-03 2.3274491577e+00 -4.0312601931e+00 2.3274491577e+00 4.0312601931e+00 
36500 4.3107764786e+00 -2.7122090161e-03 2.3275082173e+00 -4.0313624873e+00 2.3275082173e+00 4.0313624873e+00 
36600 4.3107763620e+00 -2.6756181554e-03 2.3275664817e+00 -4.0314634043e+00 2.3275664817e+00 4.0314634043e+00 
36700 4.3107762483e+00 -2.6393915064e-03 2.3276239587e+00 -4.0315629574e+00 2.3276239587e+00 4.0315629574e+00 
36800 4.3107761374e+00 -2.6035403970e-03 2.3276806560e+00 -4.0316611601e+00 2.3276806560e+00 4.0316611601e+00 
36900 4.3107760294e+00 -2.5680756497e-03 2.3277365819e+00 -4.0317580265e+00 2.3277365819e+00 4.0317580265e+00 
37000 4.3107759240e+00 -2.5330075364e-03 2.3277917446e+00 -4.0318535711e+00 2.3277917446e+00 4.0318535711e+00 
37100 4.3107758213e+00 -2.4983457375e-03 2.3278461528e+00 -4.0319478088e+00 2.3278461528e+00 4.0319478088e+00 
37200 4.3107757210e+00 -2.4640993058e-03 2.3278998152e+00 -4.0320407548e+00 2.3278998152e+00 4.0320407548e+00 
37300 4.3107756233e+00 -2.4302766347e-03 2.3279527407e+00 -4.0321324246e+00 2.3279527407e+00 4.0321324246e+00 
37400 4.3107755279e+00 -2.3968854316e-03 2.3280049387e+00 -4.0322228340e+00 2.3280049387e+00 4.0322228340e+00 
37500 4.3107754349e+00 -2.3639326945e-03 2.3280564182e+00 -4.0323119993e+00 2.3280564182e+00 4.0323119993e+00 
37600 4.3107753442e+00 -2.3314246941e-03 2.3281071889e+00 -4.0323999367e+00 2.3281071889e+00 4.0323999367e+00 
37700 4.3107752557e+00 -2.2993669597e-03 2.3281572604e+00 -4.0324866630e+00 2.3281572604e+00 4.0324866630e+00 
37800 4.3107751694e+00 -2.2677642689e-03 2.3282066422e+00 -4.0325721949e+00 2.3282066422e+00 4.0325721949e+00 
37900 4.3107750852e+00 -2.2366206415e-03 2.3282553444e+00 -4.0326565494e+00 2.3282553444e+00 4.0326565494e+00 
38000 4.3107750031e+00 -2.2059393374e-03 2.3283033766e+00 -4.0327397438e+00 2.3283033766e+00 4.0327397438e+00 
38100 4.3107749230e+00 -2.1757228578e-03 2.3283507491e+00 -4.0328217952e+00 2.3283507491e+00 4.0328217952e+00 
38200 4.3107748449e+00 -2.1459729502e-03 2.3283974716e+00 -4.0329027210e+00 2.3283974716e+00 4.0329027210e+00 
38300 4.3107747688e+00 -2.1166906161e-03 2.3284435544e+00 -4.0329825387e+00 2.3284435544e+00 4.0329825387e+00 
38400 4.3107746946e+00 -2.0878761230e-03 2.3284890074e+00 -4.0330612657e+00 2.3284890074e+00 4.0330612657e+00 
38500 4.3107746222e+00 -2.0595290176e-03 2.3285338409e+00 -4.0331389195e+00 2.3285338409e+00 4.0331389195e+00 
38600 4.3107745517e+00 -2.0316481438e-03 2.3285780647e+00 -4.0332155175e+00 2.3285780647e+00 4.0332155175e+00 
38700 4.3107744830e+00 -2.0042316613e-03 2.3286216891e+00 -4.0332910771e+00 2.3286216891e+00 4.0332910771e+00 
38800 4.3107744160e+00 -1.9772770678e-03 2.3286647239e+00 -4.0333656157e+00 2.3286647239e+00 4.0333656157e+00 
38900 4.3107743508e+00 -1.9507812231e-03 2.3287071792e+00 -4.0334391504e+00 2.3287071792e+00 4.0334391504e+00 
39000 4.3107742873e+00 -1.9247403746e-03 2.3287490649e+00 -4.0335116984e+00 2.3287490649e+00 4.0335116984e+00 
39100 4.3107742254e+00 -1.8991501853e-03 2.3287903906e+00 -4.0335832767e+00 2.3287903906e+00 4.0335832767e+00 
39200 4.3107741651e+00 -1.8740057628e-03 2.3288311662e+00 -4.0336539021e+00 2.3288311662e+00 4.0336539021e+00 
39300 4.3107741064e+00 -1.8493016900e-03 2.3288714012e+00 -4.0337235912e+00 2.3288714012e+00 4.0337235912e+00 
39400 4.3107740492e+00 -1.8250320565e-03 2.3289111051e+00 -4.0337923604e+00 2.3289111051e+00 4.0337923604e+00 
39500 4.3107739936e+00 -1.8011904916e-03 2.3289502873e+00 -4.0338602260e+00 2.3289502873e+00 4.0338602260e+00 
39600 4.3107739394e+00 -1.7777701975e-03 2.3289889570e+00 -4.0339272038e+00 2.3289889570e+00 4.0339272038e+00 
39700 4.3107738867e+00 -1.7547639834e-03 2.3290271233e+00 -4.0339933097e+00 2.3290271233e+00 4.0339933097e+00 
39800 4.3107738354e+00 -1.7321642997e-03 2.3290647950e+00 -4.0340585590e+00 2.3290647950e+00 4.0340585590e+00 
39900 4.3107737854e+00 -1.7099632731e-03 2.3291019809e+00 -4.0341229670e+00 2.3291019809e+00 4.0341229670e+00 
40000 4.3107737368e+00 -1.6881527409e-03 2.3291386896e+00 -4.0341865483e+00 2.3291386896e+00 4.0341865483e+00 
40100 4.3107736895e+00 -1.6667242859e-03 2.3291749296e+00 -4.0342493178e+00 2.3291749296e+00 4.0342493178e+00 
40200 4.3107736434e+00 -1.6456692707e-03 2.3292107090e+00 -4.0343112895e+00 2.3292107090e+00 4.0343112895e+00 
40300 4.3107735986e+00 -1.6249788719e-03 2.3292460358e+00 -4.0343724774e+00 2.3292460358e+00 4.0343724774e+00 
40400 4.3107735550e+00 -1.6046441135e-03 2.3292809180e+00 -4.0344328950e+00 2.3292809180e+00 4.0344328950e+00 
40500 4.3107735125e+00 -1.5846558998e-03 2.3293153631e+00 -4.0344925558e+00 2.3293153631e+00 4.0344925558e+00 
40600 4.3107734711e+00 -1.5650050477e-03 2.3293493787e+00 -4.0345514725e+00 2.3293493787e+00 4.0345514725e+00 
40700 4.3107734309e+00 -1.5456823178e-03 2.3293829720e+00 -4.0346096577e+00 2.3293829720e+00 4.0346096577e+00 
40800 4.3107733917e+00 -1.5266784449e-03 2.3294161500e+00 -4.0346671237e+00 2.3294161500e+00 4.0346671237e+00 
40900 4.3107733536e+00 -1.5079841672e-03 2.3294489196e+00 -4.0347238824e+00 2.3294489196e+00 4.0347238824e+00 
41000 4.3107733164e+00 -1.4895902542e-03 2.3294812875e+00 -4.0347799452e+00 2.3294812875e+00 4.0347799452e+00 
41100 4.3107732803e+00 -1.4714875339e-03 2.3295132601e+00 -4.0348353235e+00 2.3295132601e+00 4.0348353235e+00 
41200 4.3107732451e+00 -1.4536669184e-03 2.3295448438e+00 -4.0348900280e+00 2.3295448438e+00 4.0348900280e+00 
41300 4.3107732108e+00 -1.4361194279e-03 2.3295760445e+00 -4.0349440692e+00 2.3295760445e+00 4.0349440692e+00 
41400 4.3107731774e+00 -1.4188362139e-03 2.3296068682e+00 -4.0349974574e+00 2.3296068682e+00 4.0349974574e+00 
41500 4.3107731449e+00 -1.4018085805e-03 2.3296373206e+00 -4.0350502024e+00 2.3296373206e+00 4.0350502024e+00 
41600 4.3107731132e+00 -1.3850280043e-03 2.3296674070e+00 -4.0351023137e+00 2.3296674070e+00 4.0351023137e+00 
41700 4.3107730823e+00 -1.3684861531e-03 2.3296971330e+00 -4.0351538006e+00 2.3296971330e+00 4.0351538006e+00 
41800 4.3107730522e+00 -1.3521749027e-03 2.3297265035e+00 -4.0352046718e+00 2.3297265035e+00 4.0352046718e+00 
41900 4.3107730230e+00 -1.3360863525e-03 2.3297555236e+00 -4.0352549361e+00 2.3297555236e+00 4.0352549361e+00 
42000 4.3107729944e+00 -1.3202128393e-03 2.3297841981e+00 -4.0353046017e+00 2.3297841981e+00 4.0353046017e+00 
42100 4.3107729666e+00 -1.3045469500e-03 2.3298125315e+00 -4.0353536766e+00 2.3298125315e+00 4.0353536766e+00 
42200 4.3107729395e+00 -1.2890815321e-03 2.3298405284e+00 -4.0354021686e+00 2.3298405284e+00 4.0354021686e+00 
42300 4.3107729131e+00 -1.2738097035e-03 2.3298681930e+00 -4.0354500852e+00 2.3298681930e+00 4.0354500852e+00 
42400 4.3107728874e+00 -1.2587248603e-03 2.3298955296e+00 -4.0354974335e+00 2.3298955296e+00 4.0354974335e+00 
42500 4.3107728623e+00 -1.2438206833e-03 2.3299225421e+00 -4.0355442206e+00 2.3299225421e+00 4.0355442206e+00 
42600 4.3107728379e+00 -1.2290911433e-03 2.3299492345e+00 -4.0355904532e+00 2.3299492345e+00 4.0355904532e+00 
42700 4.3107728141e+00 -1.2145305044e-03 2.3299756104e+00 -4.0356361377e+00 2.3299756104e+00 4.0356361377e+00 
42800 4.3107727909e+00 -1.2001333269e-03 2.3300016736e+00 -4.0356812805e+00 2.3300016736e+00 4.0356812805e+00 
42900 4.3107727683e+00 -1.1858944683e-03 2.3300274276e+00 -4.0357258876e+00 2.3300274276e+00 4.0357258876e+00 
43000 4.3107727463e+00 -1.1718090828e-03 2.3300528757e+00 -4.0357699651e+00 2.3300528757e+00 4.0357699651e+00 
43100 4.3107727249e+00 -1.1578726208e-03 2.3300780213e+00 -4.0358135185e+00 2.3300780213e+00 4.0358135185e+00 
43200 4.3107727040e+00 -1.1440808257e-03 2.3301028676e+00 -4.0358565535e+00 2.3301028676e+00 4.0358565535e+00 
43300 4.3107726836e+00 -1.1304297308e-03 2.3301274176e+00 -4.0358990755e+00 2.3301274176e+00 4.0358990755e+00 
43400 4.3107726638e+00 -1.1169156548e-03 2.3301516745e+00 -4.0359410896e+00 2.3301516745e+00 4.0359410896e+00 
43500 4.3107726445e+00 -1.1035351966e-03 2.3301756411e+00 -4.0359826010e+00 2.3301756411e+00 4.0359826010e+00 
43600 4.3107726257e+00 -1.0902852283e-03 2.3301993204e+00 -4.0360236147e+00 2.3301993204e+00 4.0360236147e+00 
43700 4.3107726073e+00 -1.0771628890e-03 2.3302227151e+00 -4.0360641355e+00 2.3302227151e+00 4.0360641355e+00 
43800 4.3107725895e+00 -1.0641655762e-03 2.3302458280e+00 -4.0361041683e+00 2.3302458280e+00 4.0361041683e+00 
43900 4.3107725721e+00 -1.0512909377e-03 2.3302686618e+00 -4.0361437176e+00 2.3302686618e+00 4.0361437176e+00 
44000 4.3107725552e+00 -1.0385368621e-03 2.3302912192e+00 -4.0361827880e+00 2.3302912192e+00 4.0361827880e+00 
44100 4.3107725387e+00 -1.0259014696e-03 2.3303135026e+00 -4.0362213841e+00 2.3303135026e+00 4.0362213841e+00 
44200 4.3107725227e+00 -1.0133831010e-03 2.3303355147e+00 -4.0362595102e+00 2.3303355147e+00 4.0362595102e+00 
44300 4.3107725070e+00 -1.0009803079e-03 2.3303572581e+00 -4.0362971707e+00 2.3303572581e+00 4.0362971707e+00 
44400 4.3107724918e+00 -9.8869184133e-04 2.3303787351e+00 -4.0363343700e+00 2.3303787351e+00 4.0363343700e+00 
44500 4.3107724770e+00 -9.7651664032e-04 2.3303999482e+00 -4.0363711122e+00 2.3303999482e+00 4.0363711122e+00 
44600 4.3107724626e+00 -9.6445382076e-04 2.3304208999e+00 -4.0364074017e+00 2.3304208999e+00 4.0364074017e+00 
44700 4.3107724486e+00 -9.5250266348e-04 2.3304415927e+00 -4.0364432426e+00 2.3304415927e+00 4.0364432426e+00 
44800 4.3107724349e+00 -9.4066260254e-04 2.3304620288e+00 -4.0364786390e+00 2.3304620288e+00 4.0364786390e+00 
44900 4.3107724216e+00 -9.2893321336e-04 2.3304822107e+00 -4.0365135951e+00 2.3304822107e+00 4.0365135951e+00 
45000 4.3107724087e+00 -9.1731420085e-04 2.3305021408e+00 -4.0365481150e+00 2.3305021408e+00 4.0365481150e+00 
45100 4.3107723961e+00 -9.0580538758e-04 2.3305218214e+00 -4.0365822029e+00 2.3305218214e+00 4.0365822029e+00 
45200 4.3107723838e+00 -8.9440670208e-04 2.3305412550e+00 -4.0366158628e+00 2.3305412550e+00 4.0366158628e+00 
45300 4.3107723719e+00 -8.8311816723e-04 2.3305604438e+00 -4.0366490988e+00 2.3305604438e+00 4.0366490988e+00 
45400 4.3107723603e+00 -8.7193988887e-04 2.3305793903e+00 -4.0366819152e+00 2.3305793903e+00 4.0366819152e+00 
45500 4.3107723489e+00 -8.6087204460e-04 2.3305980969e+00 -4.0367143158e+00 2.3305980969e+00 4.0367143158e+00 
45600 4.3107723379e+00 -8.4991487289e-04 2.3306165658e+00 -4.0367463049e+00 2.3306165658e+00 4.0367463049e+00 
45700 4.3107723272e+00 -8.3906866244e-04 2.3306347995e+00 -4.0367778867e+00 2.3306347995e+00 4.0367778867e+00 
45800 4.3107723168e+00 -8.2833374187e-04 2.3306528004e+00 -4.0368090651e+00 2.3306528004e+00 4.0368090651e+00 
45900 4.3107723066e+00 -8.1771046982e-04 2.3306705709e+00 -4.0368398444e+00 2.3306705709e+00 4.0368398444e+00 
46000 4.3107722968e+00 -8.0719922539e-04 2.3306881133e+00 -4.0368702288e+00 2.3306881133e+00 4.0368702288e+00 
46100 4.3107722871e+00 -7.9680039900e-04 2.3307054300e+00 -4.0369002223e+00 2.3307054300e+00 4.0369002223e+00 
46200 4.3107722778e+00 -7.8651438369e-04 2.3307225236e+00 -4.0369298292e+00 2.3307225236e+00 4.0369298292e+00 
46300 4.3107722687e+00 -7.7634156688e-04 2.3307393964e+00 -4.0369590537e+00 2.3307393964e+00 4.0369590537e+00 
46400 4.3107722598e+00 -7.6628232254e-04 2.3307560508e+00 -4.0369879001e+00 2.3307560508e+00 4.0369879001e+00 
46500 4.3107722512e+00 -7.5633700393e-04 2.3307724893e+00 -4.0370163724e+00 2.3307724893e+00 4.0370163724e+00 
46600 4.3107722428e+00 -7.4650593675e-04 2.3307887144e+00 -4.0370444750e+00 2.3307887144e+00 4.0370444750e+00 
46700 4.3107722346e+00 -7.3678941281e-04 2.3308047284e+00 -4.0370722121e+00 2.3308047284e+00 4.0370722121e+00 
46800 4.3107722266e+00 -7.2718768421e-04 2.3308205339e+00 -4.0370995880e+00 2.3308205339e+00 4.0370995880e+00 
46900 4.3107722188e+00 -7.1770095802e-04 2.3308361333e+00 -4.0371266070e+00 2.3308361333e+00 4.0371266070e+00 
47000 4.3107722113e+00 -7.0832939149e-04 2.3308515291e+00 -4.0371532733e+00 2.3308515291e+00 4.0371532733e+00 
47100 4.3107722039e+00 -6.9907308767e-04 2.3308667238e+00 -4.0371795913e+00 2.3308667238e+00 4.0371795913e+00 
47200 4.3107721968e+00 -6.8993209166e-04 2.3308817198e+00 -4.0372055651e+00 2.3308817198e+00 4.0372055651e+00 
47300 4.3107721898e+00 -6.8090638726e-04 2.3308965196e+00 -4.0372311991e+00 2.3308965196e+00 4.0372311991e+00 
47400 4.3107721831e+00 -6.7199589413e-04 2.3309111257e+00 -4.0372564977e+00 2.3309111257e+00 4.0372564977e+00 
47500 4.3107721765e+00 -6.6320046541e-04 2.3309255406e+00 -4.0372814650e+00 2.3309255406e+00 4.0372814650e+00 
47600 4.3107721700e+00 -6.5451988588e-04 2.3309397668e+00 -4.0373061054e+00 2.3309397668e+00 4.0373061054e+00 
47700 4.3107721638e+00 -6.4595387043e-04 2.3309538066e+00 -4.0373304231e+00 2.3309538066e+00 4.0373304231e+00 
47800 4.3107721577e+00 -6.3750206311e-04 2.3309676626e+00 -4.0373544224e+00 2.3309676626e+00 4.0373544224e+00 
47900 4.3107721518e+00 -6.2916403653e-04 2.3309813372e+00 -4.0373781076e+00 2.3309813372e+00 4.0373781076e+00 
48000 4.3107721460e+00 -6.2093929165e-04 2.3309948329e+00 -4.0374014828e+00 2.3309948329e+00 4.0374014828e+00 
48100 4.3107721404e+00 -6.1282725800e-04 2.3310081521e+00 -4.0374245524e+00 2.3310081521e+00 4.0374245524e+00 
48200 4.3107721349e+00 -6.0482729424e-04 2.3310212973e+00 -4.0374473204e+00 2.3310212973e+00 4.0374473204e+00 
48300 4.3107721296e+00 -5.9693868911e-04 2.3310342707e+00 -4.0374697911e+00 2.3310342707e+00 4.0374697911e+00 
48400 4.3107721244e+00 -5.8916066264e-04 2.3310470749e+00 -4.0374919686e+00 2.3310470749e+00 4.0374919686e+00 
48500 4.3107721194e+00 -5.8149236771e-04 2.3310597122e+00 -4.0375138569e+00 2.3310597122e+00 4.0375138569e+00 
48600 4.3107721145e+00 -5.7393289192e-04 2.3310721849e+00 -4.0375354603e+00 2.3310721849e+00 4.0375354603e+00 
48700 4.3107721097e+00 -5.6648125970e-04 2.3310844954e+00 -4.0375567827e+00 2.3310844954e+00 4.0375567827e+00 
48800 4.3107721051e+00 -5.5913643461e-04 2.3310966460e+00 -4.0375778282e+00 2.3310966460e+00 4.0375778282e+00 
48900 4.3107721006e+00 -5.5189732199e-04 2.3311086390e+00 -4.0375986007e+00 2.3311086390e+00 4.0375986007e+00 
49000 4.3107720962e+00 -5.4476277168e-04 2.3311204767e+00 -4.0376191041e+00 2.3311204767e+00 4.0376191041e+00 
49100 4.3107720919e+00 -5.3773158102e-04 2.3311321612e+00 -4.0376393424e+00 2.3311321612e+00 4.0376393424e+00 
49200 4.3107720878e+00 -5.3080249793e-04 2.3311436949e+00 -4.0376593194e+00 2.3311436949e+00 4.0376593194e+00 
49300 4.3107720837e+00 -5.2397422416e-04 2.3311550800e+00 -4.0376790388e+00 2.3311550800e+00 4.0376790388e+00 
49400 4.3107720798e+00 -5.1724541870e-04 2.3311663185e+00 -4.0376985045e+00 2.3311663185e+00 4.0376985045e+00 
49500 4.3107720760e+00 -5.1061470118e-04 2.3311774126e+00 -4.0377177201e+00 2.3311774126e+00 4.0377177201e+00 
49600 4.3107720722e+00 -5.0408065544e-04 2.3311883645e+00 -4.0377366893e+00 2.3311883645e+00 4.0377366893e+00 
49700 4.3107720686e+00 -4.9764183311e-04 2.3311991762e+00 -4.0377554157e+00 2.3311991762e+00 4.0377554157e+00 
49800 4.3107720651e+00 -4.9129675726e-04 2.3312098497e+00 -4.0377739028e+00 2.3312098497e+00 4.0377739028e+00 
49900 4.3107720617e+00 -4.8504392600e-04 2.3312203871e+00 -4.0377921541e+00 2.3312203871e+00 4.0377921541e+00 
50000 4.3107720583e+00 -4.7888181616e-04 2.3312307903e+00 -4.0378101730e+00 2.3312307903e+00 4.0378101730e+00 
50100 4.3107720551e+00 -4.7280888692e-04 2.3312410613e+00 -4.0378279629e+00 2.3312410613e+00 4.0378279629e+00 
50200 4.3107720519e+00 -4.6682358339e-04 2.3312512021e+00 -4.0378455272e+00 2.3312512021e+00 4.0378455272e+00 
50300 4.3107720489e+00 -4.6092434018e-04 2.3312612144e+00 -4.0378628690e+00 2.3312612144e+00 4.0378628690e+00 
50400 4.3107720459e+00 -4.5510958489e-04 2.3312711001e+00 -4.0378799916e+00 2.3312711001e+00 4.0378799916e+00 
50500 4.3107720430e+00 -4.4937774152e-04 2.3312808611e+00 -4.0378968981e+00 2.3312808611e+00 4.0378968981e+00 
50600 4.3107720402e+00 -4.4372723379e-04 2.3312904991e+00 -4.0379135916e+00 2.3312904991e+00 4.0379135916e+00 
50700 4.3107720374e+00 -4.3815648841e-04 2.3313000159e+00 -4.0379300752e+00 2.3313000159e+00 4.0379300752e+00 
50800 4.3107720348e+00 -4.3266393817e-04 2.3313094131e+00 -4.0379463517e+00 2.3313094131e+00 4.0379463517e+00 
50900 4.3107720322e+00 -4.2724802495e-04 2.3313186926e+00 -4.0379624241e+00 2.3313186926e+00 4.0379624241e+00 
51000 4.3107720297e+00 -4.2190720264e-04 2.3313278558e+00 -4.0379782953e+00 2.3313278558e+00 4.0379782953e+00 
51100 4.3107720272e+00 -4.1663993984e-04 2.3313369044e+00 -4.0379939680e+00 2.3313369044e+00 4.0379939680e+00 
51200 4.3107720248e+00 -4.1144472247e-04 2.3313458401e+00 -4.0380094450e+00 2.3313458401e+00 4.0380094450e+00 
51300 4.3107720225e+00 -4.0632005626e-04 2.3313546643e+00 -4.0380247290e+00 2.3313546643e+00 4.0380247290e+00 
51400 4.3107720203e+00 -4.0126446903e-04 2.3313633785e+00 -4.0380398225e+00 2.3313633785e+00 4.0380398225e+00 
51500 4.3107720181e+00 -3.9627651287e-04 2.3313719843e+00 -4.0380547282e+00 2.3313719843e+00 4.0380547282e+00 
51600 4.3107720160e+00 -3.9135476608e-04 2.3313804831e+00 -4.0380694485e+00 2.3313804831e+00 4.0380694485e+00 
51700 4.3107720139e+00 -3.8649783507e-04 2.3313888763e+00 -4.0380839860e+00 2.3313888763e+00 4.0380839860e+00 
51800 4.3107720119e+00 -3.8170435599e-04 2.3313971653e+00 -4.0380983430e+00 2.3313971653e+00 4.0380983430e+00 
51900 4.3107720099e+00 -3.7697299621e-04 2.3314053515e+00 -4.0381125218e+00 2.3314053515e+00 4.0381125218e+00 
52000 4.3107720080e+00 -3.7230245574e-04 2.3314134362e+00 -4.0381265249e+00 2.3314134362e+00 4.0381265249e+00 
52100 4.3107720062e+00 -3.6769146832e-04 2.3314214207e+00 -4.0381403545e+00 2.3314214207e+00 4.0381403545e+00 
52200 4.3107720044e+00 -3.6313880254e-04 2.3314293062e+00 -4.0381540127e+00 2.3314293062e+00 4.0381540127e+00 
52300 4.3107720026e+00 -3.5864326258e-04 2.3314370941e+00 -4.0381675017e+00 2.3314370941e+00 4.0381675017e+00 
52400 4.3107720009e+00 -3.5420368903e-04 2.3314447856e+00 -4.0381808237e+00 2.3314447856e+00 4.0381808237e+00 
52500 4.3107719993e+00 -3.4981895936e-04 2.3314523818e+00 -4.0381939808e+00 2.3314523818e+00 4.0381939808e+00 
52600 4.3107719976e+00 -3.4548798836e-04 2.3314598840e+00 -4.0382069749e+00 2.3314598840e+00 4.0382069749e+00 
52700 4.3107719961e+00 -3.4120972838e-04 2.3314672933e+00 -4.0382198081e+00 2.3314672933e+00 4.0382198081e+00 
52800 4.3107719946e+00 -3.3698316946e-04 2.3314746108e+00 -4.0382324824e+00 2.3314746108e+00 4.0382324824e+00 
52900 4.3107719931e+00 -3.3280733932e-04 2.3314818376e+00 -4.0382449997e+00 2.3314818376e+00 4.0382449997e+00 
53000 4.3107719917e+00 -3.2868130317e-04 2.3314889749e+00 -4.0382573617e+00 2.3314889749e+00 4.0382573617e+00 
53100 4.3107719903e+00 -3.2460416348e-04 2.3314960236e+00 -4.0382695705e+00 2.3314960236e+00 4.0382695705e+00 
53200 4.3107719889e+00 -3.2057505958e-04 2.3315029849e+00 -4.0382816278e+00 2.3315029849e+00 4.0382816278e+00 
53300 4.3107719876e+00 -3.1659316715e-04 2.3315098598e+00 -4.0382935354e+00 2.3315098598e+00 4.0382935354e+00 
53400 4.3107719863e+00 -3.1265769765e-04 2.3315166492e+00 -4.0383052951e+00 2.3315166492e+00 4.0383052951e+00 
53500 4.3107719851e+00 -3.0876789755e-04 2.3315233542e+00 -4.0383169086e+00 2.3315233542e+00 4.0383169086e+00 
53600 4.3107719839e+00 -3.0492304762e-04 2.3315299758e+00 -4.0383283775e+00 2.3315299758e+00 4.0383283775e+00 
53700 4.3107719827e+00 -3.0112246198e-04 2.3315365149e+00 -4.0383397036e+00 2.3315365149e+00 4.0383397036e+00 
53800 4.3107719816e+00 -2.9736548723e-04 2.3315429725e+00 -4.0383508885e+00 2.3315429725e+00 4.0383508885e+00 
53900 4.3107719804e+00 -2.9365150133e-04 2.3315493496e+00 -4.0383619338e+00 2.3315493496e+00 4.0383619338e+00 
54000 4.3107719794e+00 -2.8997991260e-04 2.3315556469e+00 -4.0383728411e+00 2.3315556469e+00 4.0383728411e+00 
54100 4.3107719783e+00 -2.8635015854e-04 2.3315618655e+00 -4.0383836120e+00 2.3315618655e+00 4.0383836120e+00 
54200 4.3107719773e+00 -2.8276170466e-04 2.3315680062e+00 -4.0383942481e+00 2.3315680062e+00 4.0383942481e+00 
54300 4.3107719763e+00 -2.7921404323e-04 2.3315740700e+00 -4.0384047509e+00 2.3315740700e+00 4.0384047509e+00 
54400 4.3107719754e+00 -2.7570669203e-04 2.3315800577e+00 -4.0384151218e+00 2.3315800577e+00 4.0384151218e+00 
54500 4.3107719744e+00 -2.7223919308e-04 2.3315859701e+00 -4.0384253625e+00 2.3315859701e+00 4.0384253625e+00 
54600 4.3107719735e+00 -2.6881111129e-04 2.3315918082e+00 -4.0384354743e+00 2.3315918082e+00 4.0384354743e+00 
54700 4.3107719727e+00 -2.6542203318e-04 2.3315975728e+00 -4.0384454588e+00 2.3315975728e+00 4.0384454588e+00 
54800 4.3107719718e+00 -2.6207156549e-04 2.3316032646e+00 -4.0384553174e+00 2.3316032646e+00 4.0384553174e+00 
54900 4.3107719710e+00 -2.5875933388e-04 2.3316088846e+00 -4.0384650515e+00 2.3316088846e+00 4.0384650515e+00 
55000 4.3107719702e+00 -2.5548498161e-04 2.3316144335e+00 -4.0384746625e+00 2.3316144335e+00 4.0384746625e+00 
55100 4.3107719694e+00 -2.5224816815e-04 2.3316199123e+00 -4.0384841520e+00 2.3316199123e+00 4.0384841520e+00 
55200 4.3107719686e+00 -2.4904856794e-04 2.3316253215e+00 -4.0384935211e+00 2.3316253215e+00 4.0384935211e+00 
55300 4.3107719679e+00 -2.4588586904e-04 2.3316306622e+00 -4.0385027714e+00 2.3316306622e+00 4.0385027714e+00 
55400 4.3107719672e+00 -2.4275977189e-04 2.3316359350e+00 -4.0385119043e+00 2.3316359350e+00 4.0385119043e+00 
55500 4.3107719665e+00 -2.3966998806e-04 2.3316411408e+00 -4.0385209209e+00 2.3316411408e+00 4.0385209209e+00 
55600 4.3107719658e+00 -2.3661623901e-04 2.3316462803e+00 -4.0385298228e+00 2.3316462803e+00 4.0385298228e+00 
55700 4.3107719652e+00 -2.3359825495e-04 2.3316513544e+00 -4.0385386113e+00 2.3316513544e+00 4.0385386113e+00 
55800 4.3107719645e+00 -2.3061577365e-04 2.3316563637e+00 -4.0385472876e+00 2.3316563637e+00 4.0385472876e+00 
55900 4.3107719639e+00 -2.2766853940e-04 2.3316613090e+00 -4.0385558532e+00 2.3316613090e+00 4.0385558532e+00 
56000 4.3107719633e+00 -2.2475630189e-04 2.3316661911e+00 -4.0385643093e+00 2.3316661911e+00 4.0385643093e+00 
56100 4.3107719628e+00 -2.2187881525e-04 2.3316710107e+00 -4.0385726571e+00 2.3316710107e+00 4.0385726571e+00 
56200 4.3107719622e+00 -2.1903583705e-04 2.3316757687e+00 -4.0385808981e+00 2.3316757687e+00 4.0385808981e+00 
56300 4.3107719617e+00 -2.1622712742e-04 2.3316804656e+00 -4.0385890335e+00 2.3316804656e+00 4.0385890335e+00 
56400 4.3107719611e+00 -2.1345244814e-04 2.3316851024e+00 -4.0385970645e+00 2.3316851024e+00 4.0385970645e+00 
56500 4.3107719606e+00 -2.1071156191e-04 2.3316896796e+00 -4.0386049925e+00 2.3316896796e+00 4.0386049925e+00 
56600 4.3107719601e+00 -2.0800423151e-04 2.3316941980e+00 -4.0386128187e+00 2.3316941980e+00 4.0386128187e+00 
56700 4.3107719596e+00 -2.0533021917e-04 2.3316986584e+00 -4.0386205443e+00 2.3316986584e+00 4.0386205443e+00 
56800 4.3107719592e+00 -2.0268928586e-04 2.3317030614e+00 -4.0386281705e+00 2.3317030614e+00 4.0386281705e+00 
56900 4.3107719587e+00 -2.0008119077e-04 2.3317074078e+00 -4.0386356987e+00 2.3317074078e+00 4.0386356987e+00 
57000 4.3107719583e+00 -1.9750569072e-04 2.3317116982e+00 -4.0386431299e+00 2.3317116982e+00 4.0386431299e+00 
57100 4.3107719578e+00 -1.9496253971e-04 2.3317159334e+00 -4.0386504655e+00 2.3317159334e+00 4.0386504655e+00 
57200 4.3107719574e+00 -1.9245148847e-04 2.3317201141e+00 -4.0386577067e+00 2.3317201141e+00 4.0386577067e+00 
57300 4.3107719570e+00 -1.8997228412e-04 2.3317242409e+00 -4.0386648545e+00 2.3317242409e+00 4.0386648545e+00 
57400 4.3107719566e+00 -1.8752466982e-04 2.3317283146e+00 -4.0386719103e+00 2.3317283146e+00 4.0386719103e+00 
57500 4.3107719563e+00 -1.8510838450e-04 2.3317323357e+00 -4.0386788751e+00 2.3317323357e+00 4.0386788751e+00 
57600 4.3107719559e+00 -1.8272316268e-04 2.3317363050e+00 -4.0386857502e+00 2.3317363050e+00 4.0386857502e+00 
57700 4.3107719556e+00 -1.8036873425e-04 2.3317402232e+00 -4.0386925367e+00 2.3317402232e+00 4.0386925367e+00 
57800 4.3107719552e+00 -1.7804482437e-04 2.3317440909e+00 -4.0386992357e+00 2.3317440909e+00 4.0386992357e+00 
57900 4.3107719549e+00 -1.7575115338e-04 2.3317479088e+00 -4.0387058484e+00 2.3317479088e+00 4.0387058484e+00 
58000 4.3107719546e+00 -1.7348743681e-04 2.3317516774e+00 -4.0387123759e+00 2.3317516774e+00 4.0387123759e+00 
58100 4.3107719542e+00 -1.7125338530e-04 2.3317553975e+00 -4.0387188193e+00 2.3317553975e+00 4.0387188193e+00 
58200 4.3107719539e+00 -1.6904870472e-04 2.3317590697e+00 -4.0387251798e+00 2.3317590697e+00 4.0387251798e+00 
58300 4.3107719537e+00 -1.6687309622e-04 2.3317626946e+00 -4.0387314583e+00 2.3317626946e+00 4.0387314583e+00 
58400 4.3107719534e+00 -1.6472625637e-04 2.3317662729e+00 -4.0387376561e+00 2.3317662729e+00 4.0387376561e+00 
58500 4.3107719531e+00 -1.6260787725e-04 2.3317698051e+00 -4.0387437740e+00 2.3317698051e+00 4.0387437740e+00 
58600 4.3107719528e+00 -1.6051764671e-04 2.3317732919e+00 -4.0387498133e+00 2.3317732919e+00 4.0387498133e+00 
58700 4.3107719526e+00 -1.5845524851e-04 2.3317767339e+00 -4.0387557750e+00 2.3317767339e+00 4.0387557750e+00 
58800 4.3107719523e+00 -1.5642036262e-04 2.3317801316e+00 -4.0387616601e+00 2.3317801316e+00 4.0387616601e+00 
58900 4.3107719521e+00 -1.5441266540e-04 2.3317834857e+00 -4.0387674695e+00 2.3317834857e+00 4.0387674695e+00 
59000 4.3107719519e+00 -1.5243182993e-04 2.3317867968e+00 -4.0387732044e+00 2.3317867968e+00 4.0387732044e+00 
59100 4.3107719516e+00 -1.5047752630e-04 2.3317900653e+00 -4.0387788657e+00 2.3317900653e+00 4.0387788657e+00 
59200 4.3107719514e+00 -1.4854942192e-04 2.3317932920e+00 -4.0387844545e+00 2.3317932920e+00 4.0387844545e+00 
59300 4.3107719512e+00 -1.4664718180e-04 2.3317964773e+00 -4.0387899716e+00 2.3317964773e+00 4.0387899716e+00 
59400 4.3107719510e+00 -1.4477046899e-04 2.3317996218e+00 -4.0387954180e+00 2.3317996218e+00 4.0387954180e+00 
59500 4.3107719508e+00 -1.4291894482e-04 2.3318027261e+00 -4.0388007948e+00 2.3318027261e+00 4.0388007948e+00 
59600 4.3107719506e+00 -1.4109226932e-04 2.3318057906e+00 -4.0388061027e+00 2.3318057906e+00 4.0388061027e+00 
59700 4.3107719504e+00 -1.3929010157e-04 2.3318088160e+00 -4.0388113429e+00 2.3318088160e+00 4.0388113429e+00 
59800 4.3107719502e+00 -1.3751210002e-04 2.3318118028e+00 -4.0388165161e+00 2.3318118028e+00 4.0388165161e+00 
59900 4.3107719501e+00 -1.3575792295e-04 2.3318147514e+00 -4.0388216232e+00 2.3318147514e+00 4.0388216232e+00 
60000 4.3107719499e+00 -1.3402722871e-04 2.3318176624e+00 -4.0388266652e+00 2.3318176624e+00 4.0388266652e+00 
60100 4.3107719497e+00 -1.3231967619e-04 2.3318205362e+00 -4.0388316429e+00 2.3318205362e+00 4.0388316429e+00 
60200 4.3107719496e+00 -1.3063492513e-04 2.3318233735e+00 -4.0388365572e+00 2.3318233735e+00 4.0388365572e+00 
60300 4.3107719494e+00 -1.2897263648e-04 2.3318261746e+00 -4.0388414089e+00 2.3318261746e+00 4.0388414089e+00 
60400 4.3107719493e+00 -1.2733247272e-04 2.3318289401e+00 -4.0388461988e+00 2.3318289401e+00 4.0388461988e+00 
60500 4.3107719492e+00 -1.2571409826e-04 2.3318316704e+00 -4.0388509279e+00 2.3318316704e+00 4.0388509279e+00 
60600 4.3107719490e+00 -1.2411717971e-04 2.3318343660e+00 -4.0388555968e+00 2.3318343660e+00 4.0388555968e+00 
60700 4.3107719489e+00 -1.2254138622e-04 2.3318370274e+00 -4.0388602064e+00 2.3318370274e+00 4.0388602064e+00 
60800 4.3107719488e+00 -1.2098638980e-04 2.3318396550e+00 -4.0388647575e+00 2.3318396550e+00 4.0388647575e+00 
60900 4.3107719486e+00 -1.1945186557e-04 2.3318422492e+00 -4.0388692509e+00 2.3318422492e+00 4.0388692509e+00 
61000 4.3107719485e+00 -1.1793749209e-04 2.3318448105e+00 -4.0388736872e+00 2.3318448105e+00 4.0388736872e+00 
61100 4.3107719484e+00 -1.1644295160e-04 2.3318473394e+00 -4.0388780673e+00 2.3318473394e+00 4.0388780673e+00 
61200 4.3107719483e+00 -1.1496793025e-04 2.3318498362e+00 -4.0388823919e+00 2.3318498362e+00 4.0388823919e+00 
61300 4.3107719482e+00 -1.1351211836e-04 2.3318523013e+00 -4.0388866617e+00 2.3318523013e+00 4.0388866617e+00 
61400 4.3107719481e+00 -1.1207521065e-04 2.3318547353e+00 -4.0388908774e+00 2.3318547353e+00 4.0388908774e+00 
61500 4.3107719480e+00 -1.1065690640e-04 2.3318571384e+00 -4.0388950397e+00 2.3318571384e+00 4.0388950397e+00 
61600 4.3107719479e+00 -1.0925690965e-04 2.3318595111e+00 -4.0388991494e+00 2.3318595111e+00 4.0388991494e+00 
61700 4.3107719478e+00 -1.0787492938e-04 2.3318618538e+00 -4.0389032071e+00 2.3318618538e+00 4.0389032071e+00 
61800 4.3107719477e+00 -1.0651067966e-04 2.3318641669e+00 -4.0389072134e+00 2.3318641669e+00 4.0389072134e+00 
61900 4.3107719476e+00 -1.0516387974e-04 2.3318664507e+00 -4.0389111691e+00 2.3318664507e+00 4.0389111691e+00 
62000 4.3107719476e+00 -1.0383425422e-04 2.3318687056e+00 -4.0389150747e+00 2.3318687056e+00 4.0389150747e+00 
62100 4.3107719475e+00 -1.0252153311e-04 2.3318709321e+00 -4.0389189310e+00 2.3318709321e+00 4.0389189310e+00 
62200 4.3107719474e+00 -1.0122545193e-04 2.3318731303e+00 -4.0389227385e+00 2.3318731303e+00 4.0389227385e+00 
62300 4.3107719473e+00 -9.9945751762e-05 2.3318753008e+00 -4.0389264979e+00 2.3318753008e+00 4.0389264979e+00 
62400 4.3107719473e+00 -9.8682179292e-05 2.3318774438e+00 -4.0389302097e+00 2.3318774438e+00 4.0389302097e+00 
62500 4.3107719472e+00 -9.7434486857e-05 2.3318795598e+00 -4.0389338747e+00 2.3318795598e+00 4.0389338747e+00 
62600 4.3107719471e+00 -9.6202432449e-05 2.3318816490e+00 -4.0389374932e+00 2.3318816490e+00 4.0389374932e+00 
62700 4.3107719471e+00 -9.4985779716e-05 2.3318837117e+00 -4.0389410660e+00 2.3318837117e+00 4.0389410660e+00 
62800 4.3107719470e+00 -9.3784297956e-05 2.3318857484e+00 -4.0389445937e+00 2.3318857484e+00 4.0389445937e+00 
62900 4.3107719470e+00 -9.2597762075e-05 2.3318877593e+00 -4.0389480767e+00 2.3318877593e+00 4.0389480767e+00 
63000 4.3107719469e+00 -9.1425952555e-05 2.3318897448e+00 -4.0389515156e+00 2.3318897448e+00 4.0389515156e+00 
63100 4.3107719469e+00 -9.0268655394e-05 2.3318917051e+00 -4.0389549110e+00 2.3318917051e+00 4.0389549110e+00 
63200 4.3107719468e+00 -8.9125662042e-05 2.3318936406e+00 -4.0389582634e+00 2.3318936406e+00 4.0389582634e+00 
63300 4.3107719468e+00 -8.7996769326e-05 2.3318955517e+00 -4.0389615734e+00 2.3318955517e+00 4.0389615734e+00 
63400 4.3107719467e+00 -8.6881779353e-05 2.3318974385e+00 -4.0389648415e+00 2.3318974385e+00 4.0389648415e+00 
63500 4.3107719467e+00 -8.5780499413e-05 2.3318993014e+00 -4.0389680681e+00 2.3318993014e+00 4.0389680681e+00 
63600 4.3107719466e+00 -8.4692741880e-05 2.3319011406e+00 -4.0389712538e+00 2.3319011406e+00 4.0389712538e+00 
63700 4.3107719466e+00 -8.3618324082e-05 2.3319029566e+00 -4.0389743992e+00 2.3319029566e+00 4.0389743992e+00 
63800 4.3107719466e+00 -8.2557068190e-05 2.3319047495e+00 -4.0389775046e+00 2.3319047495e+00 4.0389775046e+00 
63900 4.3107719465e+00 -8.1508801081e-05 2.3319065197e+00 -4.0389805706e+00 2.3319065197e+00 4.0389805706e+00 
64000 4.3107719465e+00 -8.0473354194e-05 2.3319082674e+00 -4.0389835977e+00 2.3319082674e+00 4.0389835977e+00 
64100 4.3107719465e+00 -7.9450563403e-05 2.3319099929e+00 -4.0389865863e+00 2.3319099929e+00 4.0389865863e+00 
64200 4.3107719464e+00 -7.8440268860e-05 2.3319116964e+00 -4.0389895369e+00 2.3319116964e+00 4.0389895369e+00 
64300 4.3107719464e+00 -7.7442314839e-05 2.3319133783e+00 -4.0389924501e+00 2.3319133783e+00 4.0389924501e+00 
64400 4.3107719464e+00 -7.6456549597e-05 2.3319150388e+00 -4.0389953261e+00 2.3319150388e+00 4.0389953261e+00 
64500 4.3107719463e+00 -7.5482825210e-05 2.3319166781e+00 -4.0389981656e+00 2.3319166781e+00 4.0389981656e+00 
64600 4.3107719463e+00 -7.4520997403e-05 2.3319182966e+00 -4.0390009688e+00 2.3319182966e+00 4.0390009688e+00 
64700 4.3107719463e+00 -7.3570925417e-05 2.3319198945e+00 -4.0390037364e+00 2.3319198945e+00 4.0390037364e+00 
64800 4.3107719463e+00 -7.2632471820e-05 2.3319214719e+00 -4.0390064687e+00 2.3319214719e+00 4.0390064687e+00 
64900 4.3107719463e+00 -7.1705502371e-05 2.3319230293e+00 -4.0390091661e+00 2.3319230293e+00 4.0390091661e+00 
65000 4.3107719462e+00 -7.0789885852e-05 2.3319245668e+00 -4.0390118291e+00 2.3319245668e+00 4.0390118291e+00 
65100 4.3107719462e+00 -6.9885493902e-05 2.3319260846e+00 -4.0390144580e+00 2.3319260846e+00 4.0390144580e+00 
65200 4.3107719463e+00 -6.9578376119e-05 2.3319260846e+00 -4.0390144580e+00 2.3319260846e+00 4.0390144580e+00 
65300 4.3107719464e+00 -6.9284203057e-05 2.3319260846e+00 -4.0390144580e+00 2.3319260846e+00 4.0390144580e+00 
65400 4.3107719464e+00 -6.9003043200e-05 2.3319260846e+00 -4.0390144580e+00 2.3319260846e+00 4.0390144580e+00 
65500 4.3107719465e+00 -6.8734943624e-05 2.3319260846e+00 -4.0390144580e+00 2.3319260846e+00 4.0390144580e+00 
65600 4.3107719465e+00 -6.8479928557e-05 2.3319260846e+00 -4.0390144580e+00 2.3319260846e+00 4.0390144580e+00 
65700 4.3107719466e+00 -6.8237998205e-05 2.3319260846e+00 -4.0390144580e+00 2.3319260846e+00 4.0390144580e+00 
65800 4.3107719467e+00 -6.8009127864e-05 2.3319260846e+00 -4.0390144580e+00 2.3319260846e+00 4.0390144580e+00 
65900 4.3107719467e+00 -6.7793267257e-05 2.3319260846e+00 -4.0390144580e+00 2.3319260846e+00 4.0390144580e+00 
66000 4.3107719468e+00 -6.7590340145e-05 2.3319260846e+00 -4.0390144580e+00 2.3319260846e+00 4.0390144580e+00 
66100 4.3107719468e+00 -6.7400244137e-05 2.3319260846e+00 -4.0390144580e+00 2.3319260846e+00 4.0390144580e+00 
66200 4.3107719469e+00 -6.7222850725e-05 2.3319260846e+00 -4.0390144580e+00 2.3319260846e+00 4.0390144580e+00 
66300 4.3107719470e+00 -6.7058005522e-05 2.3319260846e+00 -4.0390144580e+00 2.3319260846e+00 4.0390144580e+00 
66400 4.3107719470e+00 -6.6905528668e-05 2.3319260846e+00 -4.0390144580e+00 2.3319260846e+00 4.0390144580e+00 
66500 4.3107719471e+00 -6.6765215425e-05 2.3319260846e+00 -4.0390144580e+00 2.3319260846e+00 4.0390144580e+00 
66600 4.3107719471e+00 -6.6636836920e-05 2.3319260846e+00 -4.0390144580e+00 2.3319260846e+00 4.0390144580e+00 
66700 4.3107719472e+00 -6.6520141026e-05 2.3319260846e+00 -4.0390144580e+00 2.3319260846e+00 4.0390144580e+00 
66800 4.3107719472e+00 -6.6414853379e-05 2.3319260846e+00 -4.0390144580e+00 2.3319260846e+00 4.0390144580e+00 
66900 4.3107719473e+00 -6.6320678508e-05 2.3319260846e+00 -4.0390144580e+00 2.3319260846e+00 4.0390144580e+00 
67000 4.3107719473e+00 -6.6237301071e-05 2.3319260846e+00 -4.0390144580e+00 2.3319260846e+00 4.0390144580e+00 
67100 4.3107719474e+00 -6.6164387161e-05 2.3319260846e+00 -4.0390144580e+00 2.3319260846e+00 4.0390144580e+00 
67200 4.3107719474e+00 -6.6101585715e-05 2.3319260846e+00 -4.0390144580e+00 2.3319260846e+00 4.0390144580e+00 
67300 4.3107719475e+00 -6.6048529973e-05 2.3319260846e+00 -4.0390144580e+00 2.3319260846e+00 4.0390144580e+00 
67400 4.3107719475e+00 -6.6004838981e-05 2.3319260846e+00 -4.0390144580e+00 2.3319260846e+00 4.0390144580e+00 
67500 4.3107719475e+00 -6.5994964966e-05 2.3319260846e+00 -4.0390144580e+00 2.3319260846e+00 4.0390144580e+00 
67500 4.3107719475e+00 -6.5994964966e-05 2.3319260846e+00 -4.0390144580e+00 2.3319260846e+00 4.0390144580e+00 
