# step Hamiltonian StressXX CellTensor1 CellTensor2 CellTensor3 CellTensor4 
0 6.5922649740e+00 7.3296949899e-02 1.7865676565e+00 -3.0944259522e+00 1.7865676565e+00 3.0944259522e+00 
100 6.5896357665e+00 7.9924486459e-02 1.7865676565e+00 -3.0944259522e+00 1.7865676565e+00 3.0944259522e+00 
200 6.5867678914e+00 8.5093372671e-02 1.7843313072e+00 -3.0905524815e+00 1.7843313072e+00 3.0905524815e+00 
300 6.5838464622e+00 8.9812058221e-02 1.7819473778e+00 -3.0864233948e+00 1.7819473778e+00 3.0864233948e+00 
400 6.5808839427e+00 9.4105912087e-02 1.7794279190e+00 -3.0820595642e+00 1.7794279190e+00 3.0820595642e+00 
500 6.5778915026e+00 9.7997904442e-02 1.7767843006e+00 -3.0774806827e+00 1.7767843006e+00 3.0774806827e+00 
600 6.5748792018e+00 1.0150901012e-01 1.7740272829e+00 -3.0727053880e+00 1.7740272829e+00 3.0727053880e+00 
700 6.5718561367e+00 1.0465853227e-01 1.7711670765e+00 -3.0677513653e+00 1.7711670765e+00 3.0677513653e+00 
800 6.5688305593e+00 1.0746436235e-01 1.7682133917e+00 -3.0626354331e+00 1.7682133917e+00 3.0626354331e+00 
900 6.5658099726e+00 1.0994318960e-01 1.7651754798e+00 -3.0573736154e+00 1.7651754798e+00 3.0573736154e+00 
1000 6.5628012104e+00 1.1211067039e-01 1.7620621689e+00 -3.0519812026e+00 1.7620621689e+00 3.0519812026e+00 
1100 6.5598105030e+00 1.1398156602e-01 1.7588818930e+00 -3.0464728032e+00 1.7588818930e+00 3.0464728032e+00 
1200 6.5568435329e+00 1.1556985547e-01 1.7556427186e+00 -3.0408623885e+00 1.7556427186e+00 3.0408623885e+00 
1300 6.5539054826e+00 1.1688882838e-01 1.7523523658e+00 -3.0351633303e+00 1.7523523658e+00 3.0351633303e+00 
1400 6.5510010757e+00 1.1795116237e-01 1.7490182282e+00 -3.0293884346e+00 1.7490182282e+00 3.0293884346e+00 
1500 6.5481346126e+00 1.1876898788e-01 1.7456473888e+00 -3.0235499695e+00 1.7456473888e+00 3.0235499695e+00 
1600 6.5453100023e+00 1.1935394296e-01 1.7422466351e+00 -3.0176596913e+00 1.7422466351e+00 3.0176596913e+00 
1700 6.5425307902e+00 1.1971721999e-01 1.7388224713e+00 -3.0117288656e+00 1.7388224713e+00 3.0117288656e+00 
1800 6.5398001830e+00 1.1986960572e-01 1.7353811298e+00 -3.0057682873e+00 1.7353811298e+00 3.0057682873e+00 
1900 6.5371210705e+00 1.1982151578e-01 1.7319285808e+00 -2.9997882970e+00 1.7319285808e+00 2.9997882970e+00 
2000 6.5344960457e+00 1.1958302458e-01 1.7284705413e+00 -2.9937987969e+00 1.7284705413e+00 2.9937987969e+00 
2100 6.5319274224e+00 1.1916389117e-01 1.7250124824e+00 -2.9878092633e+00 1.7250124824e+00 2.9878092633e+00 
2200 6.5294172504e+00 1.1857358169e-01 1.7215596366e+00 -2.9818287588e+00 1.7215596366e+00 2.9818287588e+00 
2300 6.5269673303e+00 1.1782128870e-01 1.7181170033e+00 -2.9758659430e+00 1.7181170033e+00 2.9758659430e+00 
2400 6.5245792255e+00 1.1691594783e-01 1.7146893548e+00 -2.9699290818e+00 1.7146893548e+00 2.9699290818e+00 
2500 6.5222542740e+00 1.1586625202e-01 1.7112812411e+00 -2.9640260556e+00 1.7112812411e+00 2.9640260556e+00 
2600 6.5199935982e+00 1.1468066345e-01 1.7078969939e+00 -2.9581643676e+00 1.7078969939e+00 2.9581643676e+00 
2700 6.5177981143e+00 1.1336742353e-01 1.7045407313e+00 -2.9523511502e+00 1.7045407313e+00 2.9523511502e+00 
2800 6.5156685410e+00 1.1193456111e-01 1.7012163611e+00 -2.9465931720e+00 1.7012163611e+00 2.9465931720e+00 
2900 6.5136054069e+00 1.1038989896e-01 1.6979275844e+00 -2.9408968437e+00 1.6979275844e+00 2.9408968437e+00 
3000 6.5116090579e+00 1.0874105885e-01 1.6946778990e+00 -2.9352682236e+00 1.6946778990e+00 2.9352682236e+00 
3100 6.5096796644e+00 1.0699546532e-01 1.6914706027e+00 -2.9297130235e+00 1.6914706027e+00 2.9297130235e+00 
3200 6.5078172272e+00 1.0516034828e-01 1.6883087961e+00 -2.9242366138e+00 1.6883087961e+00 2.9242366138e+00 
3300 6.5060215850e+00 1.0324274466e-01 1.6851953859e+00 -2.9188440291e+00 1.6851953859e+00 2.9188440291e+00 
3400 6.5042924198e+00 1.0124949923e-01 1.6821330879e+00 -2.9135399733e+00 1.6821330879e+00 2.9135399733e+00 
3500 6.5026292638e+00 9.9187264669e-02 1.6791244302e+00 -2.9083288253e+00 1.6791244302e+00 2.9083288253e+00 
3600 6.5010315060e+00 9.7062501202e-02 1.6761717563e+00 -2.9032146442e+00 1.6761717563e+00 2.9032146442e+00 
3700 6.4994983984e+00 9.4881475743e-02 1.6732772287e+00 -2.8982011753e+00 1.6732772287e+00 2.8982011753e+00 
3800 6.4980290631e+00 9.2650260809e-02 1.6704428318e+00 -2.8932918558e+00 1.6704428318e+00 2.8932918558e+00 
3900 6.4966224991e+00 9.0374733258e-02 1.6676703759e+00 -2.8884898213e+00 1.6676703759e+00 2.8884898213e+00 
4000 6.4952775898e+00 8.8060572990e-02 1.6649615007e+00 -2.8837979118e+00 1.6649615007e+00 2.8837979118e+00 
4100 6.4939931100e+00 8.5713261694e-02 1.6623176790e+00 -2.8792186784e+00 1.6623176790e+00 2.8792186784e+00 
4200 6.4927677338e+00 8.3338081736e-02 1.6597402213e+00 -2.8747543906e+00 1.6597402213e+00 2.8747543906e+00 
4300 6.4916000427e+00 8.0940115265e-02 1.6572302791e+00 -2.8704070432e+00 1.6572302791e+00 2.8704070432e+00 
4400 6.4904885332e+00 7.8524243598e-02 1.6547888499e+00 -2.8661783638e+00 1.6547888499e+00 2.8661783638e+00 
4500 6.4894316251e+00 7.6095146946e-02 1.6524167814e+00 -2.8620698206e+00 1.6524167814e+00 2.8620698206e+00 
4600 6.4884276702e+00 7.3657304507e-02 1.6501147759e+00 -2.8580826301e+00 1.6501147759e+00 2.8580826301e+00 
4700 6.4874749602e+00 7.1214994984e-02 1.6478833954e+00 -2.8542177658e+00 1.6478833954e+00 2.8542177658e+00 
4800 6.4865717357e+00 6.8772297517e-02 1.6457230662e+00 -2.8504759659e+00 1.6457230662e+00 2.8504759659e+00 
4900 6.4857161942e+00 6.6333093071e-02 1.6436340840e+00 -2.8468577425e+00 1.6436340840e+00 2.8468577425e+00 
5000 6.4849064987e+00 6.3901066265e-02 1.6416166184e+00 -2.8433633896e+00 1.6416166184e+00 2.8433633896e+00 
5100 6.4841407861e+00 6.1479707638e-02 1.6396707187e+00 -2.8399929925e+00 1.6396707187e+00 2.8399929925e+00 
5200 6.4834171754e+00 5.9072316353e-02 1.6377963186e+00 -2.8367464363e+00 1.6377963186e+00 2.8367464363e+00 
5300 6.4827337753e+00 5.6682003306e-02 1.6359932415e+00 -2.8336234150e+00 1.6359932415e+00 2.8336234150e+00 
5400 6.4820886927e+00 5.4311694623e-02 1.6342612053e+00 -2.8306234404e+00 1.6342612053e+00 2.8306234404e+00 
5500 6.4814800395e+00 5.1964135521e-02 1.6325998282e+00 -2.8277458509e+00 1.6325998282e+00 2.8277458509e+00 
5600 6.4809059402e+00 4.9641894496e-02 1.6310086335e+00 -2.8249898208e+00 1.6310086335e+00 2.8249898208e+00 
5700 6.4803645385e+00 4.7347367804e-02 1.6294870546e+00 -2.8223543688e+00 1.6294870546e+00 2.8223543688e+00 
5800 6.4798540042e+00 4.5082784207e-02 1.6280344402e+00 -2.8198383669e+00 1.6280344402e+00 2.8198383669e+00 
5900 6.4793725387e+00 4.2850209944e-02 1.6266500595e+00 -2.8174405492e+00 1.6266500595e+00 2.8174405492e+00 
6000 6.4789183814e+00 4.0651553881e-02 1.6253331069e+00 -2.8151595203e+00 1.6253331069e+00 2.8151595203e+00 
6100 6.4784898142e+00 3.8488572817e-02 1.6240827067e+00 -2.8129937636e+00 1.6240827067e+00 2.8129937636e+00 
6200 6.4780851667e+00 3.6362876907e-02 1.6228979182e+00 -2.8109416498e+00 1.6228979182e+00 2.8109416498e+00 
6300 6.4777028205e+00 3.4275935155e-02 1.6217777402e+00 -2.8090014446e+00 1.6217777402e+00 2.8090014446e+00 
6400 6.4773412128e+00 3.2229080965e-02 1.6207211154e+00 -2.8071713168e+00 1.6207211154e+00 2.8071713168e+00 
6500 6.4769988401e+00 3.0223517693e-02 1.6197269350e+00 -2.8054493459e+00 1.6197269350e+00 2.8054493459e+00 
6600 6.4766742608e+00 2.8260324198e-02 1.6187940428e+00 -2.8038335291e+00 1.6187940428e+00 2.8038335291e+00 
6700 6.4763660979e+00 2.6340460340e-02 1.6179212392e+00 -2.8023217890e+00 1.6179212392e+00 2.8023217890e+00 
6800 6.4760730405e+00 2.4464772417e-02 1.6171072858e+00 -2.8009119803e+00 1.6171072858e+00 2.8009119803e+00 
6900 6.4757938458e+00 2.2633998513e-02 1.6163509085e+00 -2.7996018965e+00 1.6163509085e+00 2.7996018965e+00 
7000 6.4755273401e+00 2.0848773734e-02 1.6156508018e+00 -2.7983892760e+00 1.6156508018e+00 2.7983892760e+00 
7100 6.4752724192e+00 1.9109635326e-02 1.6150056319e+00 -2.7972718089e+00 1.6150056319e+00 2.7972718089e+00 
7200 6.4750280487e+00 1.7417027641e-02 1.6144140405e+00 -2.7962471426e+00 1.6144140405e+00 2.7962471426e+00 
7300 6.4747932640e+00 1.5771306963e-02 1.6138746480e+00 -2.7953128873e+00 1.6138746480e+00 2.7953128873e+00 
7400 6.4745671696e+00 1.4172746163e-02 1.6133860564e+00 -2.7944666219e+00 1.6133860564e+00 2.7944666219e+00 
7500 6.4743489386e+00 1.2621539189e-02 1.6129468527e+00 -2.7937058988e+00 1.6129468527e+00 2.7937058988e+00 
7600 6.4741378111e+00 1.1117805376e-02 1.6125556114e+00 -2.7930282490e+00 1.6125556114e+00 2.7930282490e+00 
7700 6.4739330929e+00 9.6615935845e-03 1.6122108974e+00 -2.7924311868e+00 1.6122108974e+00 2.7924311868e+00 
7800 6.4737341538e+00 8.2528861445e-03 1.6119112687e+00 -2.7919122146e+00 1.6119112687e+00 2.7919122146e+00 
7900 6.4735404255e+00 6.8916026325e-03 1.6116552785e+00 -2.7914688267e+00 1.6116552785e+00 2.7914688267e+00 
8000 6.4733513996e+00 5.5776034588e-03 1.6114414782e+00 -2.7910985136e+00 1.6114414782e+00 2.7910985136e+00 
8100 6.4731666251e+00 4.3106932807e-03 1.6112684187e+00 -2.7907987658e+00 1.6112684187e+00 2.7907987658e+00 
8200 6.4729857057e+00 3.0906242398e-03 1.6111346535e+00 -2.7905670777e+00 1.6111346535e+00 2.7905670777e+00 
8300 6.4728082972e+00 1.9170990314e-03 1.6110387399e+00 -2.7904009505e+00 1.6110387399e+00 2.7904009505e+00 
8400 6.4726341048e+00 7.8977380861e-04 1.6109792414e+00 -2.7902978961e+00 1.6109792414e+00 2.7902978961e+00 
8500 6.4724628799e+00 -2.9173907104e-04 1.6109547293e+00 -2.7902554398e+00 1.6109547293e+00 2.7902554398e+00 
8600 6.4722944174e+00 -1.3278684498e-03 1.6109637841e+00 -2.7902711232e+00 1.6109637841e+00 2.7902711232e+00 
8700 6.4721285525e+00 -2.3190819181e-03 1.6110049978e+00 -2.7903425074e+00 1.6110049978e+00 2.7903425074e+00 
8800 6.4719651576e+00 -3.2658834988e-03 1.6110769746e+00 -2.7904671748e+00 1.6110769746e+00 2.7904671748e+00 
8900 6.4718041391e+00 -4.1688114602e-03 1.6111783328e+00 -2.7906427324e+00 1.6111783328e+00 2.7906427324e+00 
9000 6.4716454349e+00 -5.0284362491e-03 1.6113077060e+00 -2.7908668134e+00 1.6113077060e+00 2.7908668134e+00 
9100 6.4714890106e+00 -5.8453585368e-03 1.6114637444e+00 -2.7911370799e+00 1.6114637444e+00 2.7911370799e+00 
9200 6.4713348570e+00 -6.6202073687e-03 1.6116451158e+00 -2.7914512243e+00 1.6116451158e+00 2.7914512243e+00 
9300 6.4711829871e+00 -7.3536384114e-03 1.6118505068e+00 -2.7918069720e+00 1.6118505068e+00 2.7918069720e+00 
9400 6.4710334331e+00 -8.0463322878e-03 1.6120786238e+00 -2.7922020823e+00 1.6120786238e+00 2.7922020823e+00 
9500 6.4708862438e+00 -8.6989929938e-03 1.6123281942e+00 -2.7926343508e+00 1.6123281942e+00 2.7926343508e+00 
9600 6.4707414817e+00 -9.3123463888e-03 1.6125979667e+00 -2.7931016104e+00 1.6125979667e+00 2.7931016104e+00 
9700 6.4705992209e+00 -9.8871387536e-03 1.6128867127e+00 -2.7936017332e+00 1.6128867127e+00 2.7936017332e+00 
9800 6.4704595439e+00 -1.0424135408e-02 1.6131932268e+00 -2.7941326312e+00 1.6131932268e+00 2.7941326312e+00 
9900 6.4703225403e+00 -1.0924119385e-02 1.6135163277e+00 -2.7946922584e+00 1.6135163277e+00 2.7946922584e+00 
10000 6.4701883036e+00 -1.1387890147e-02 1.6138548585e+00 -2.7952786110e+00 1.6138548585e+00 2.7952786110e+00 
10100 6.4700569299e+00 -1.1816262353e-02 1.6142076878e+00 -2.7958897293e+00 1.6142076878e+00 2.7958897293e+00 
10200 6.4699285158e+00 -1.2210064657e-02 1.6145737098e+00 -2.7965236979e+00 1.6145737098e+00 2.7965236979e+00 
10300 6.4698031565e+00 -1.2570138545e-02 1.6149518449e+00 -2.7971786472e+00 1.6149518449e+00 2.7971786472e+00 
10400 6.4696809443e+00 -1.2897337194e-02 1.6153410405e+00 -2.7978527537e+00 1.6153410405e+00 2.7978527537e+00 
10500 6.4695619672e+00 -1.3192524359e-02 1.6157402710e+00 -2.7985442412e+00 1.6157402710e+00 2.7985442412e+00 
10600 6.4694463077e+00 -1.3456573287e-02 1.6161485384e+00 -2.7992513810e+00 1.6161485384e+00 2.7992513810e+00 
10700 6.4693340413e+00 -1.3690365638e-02 1.6165648723e+00 -2.7999724926e+00 1.6165648723e+00 2.7999724926e+00 
10800 6.4692252359e+00 -1.3894790435e-02 1.6169883309e+00 -2.8007059443e+00 1.6169883309e+00 2.8007059443e+00 
10900 6.4691199507e+00 -1.4070743015e-02 1.6174180002e+00 -2.8014501534e+00 1.6174180002e+00 2.8014501534e+00 
11000 6.4690182355e+00 -1.4219124000e-02 1.6178529951e+00 -2.8022035868e+00 1.6178529951e+00 2.8022035868e+00 
11100 6.4689201302e+00 -1.4340838277e-02 1.6182924593e+00 -2.8029647610e+00 1.6182924593e+00 2.8029647610e+00 
11200 6.4688256643e+00 -1.4436793987e-02 1.6187355650e+00 -2.8037322426e+00 1.6187355650e+00 2.8037322426e+00 
11300 6.4687348567e+00 -1.4507901518e-02 1.6191815136e+00 -2.8045046482e+00 1.6191815136e+00 2.8045046482e+00 
11400 6.4686477151e+00 -1.4555072514e-02 1.6196295353e+00 -2.8052806446e+00 1.6196295353e+00 2.8052806446e+00 
11500 6.4685642365e+00 -1.4579218883e-02 1.6200788895e+00 -2.8060589488e+00 1.6200788895e+00 2.8060589488e+00 
11600 6.4684844067e+00 -1.4581251821e-02 1.6205288643e+00 -2.8068383280e+00 1.6205288643e+00 2.8068383280e+00 
11700 6.4684082006e+00 -1.4562080837e-02 1.6209787768e+00 -2.8076175995e+00 1.6209787768e+00 2.8076175995e+00 
11800 6.4683355825e+00 -1.4522612791e-02 1.6214279731e+00 -2.8083956303e+00 1.6214279731e+00 2.8083956303e+00 
11900 6.4682665064e+00 -1.4463750942e-02 1.6218758278e+00 -2.8091713373e+00 1.6218758278e+00 2.8091713373e+00 
12000 6.4682009162e+00 -1.4386394000e-02 1.6223217440e+00 -2.8099436868e+00 1.6223217440e+00 2.8099436868e+00 
12100 6.4681387461e+00 -1.4291435199e-02 1.6227651532e+00 -2.8107116941e+00 1.6227651532e+00 2.8107116941e+00 
12200 6.4680799215e+00 -1.4179761373e-02 1.6232055152e+00 -2.8114744234e+00 1.6232055152e+00 2.8114744234e+00 
12300 6.4680243590e+00 -1.4052252053e-02 1.6236423175e+00 -2.8122309872e+00 1.6236423175e+00 2.8122309872e+00 
12400 6.4679719677e+00 -1.3909778578e-02 1.6240750752e+00 -2.8129805456e+00 1.6240750752e+00 2.8129805456e+00 
12500 6.4679226490e+00 -1.3753203222e-02 1.6245033310e+00 -2.8137223063e+00 1.6245033310e+00 2.8137223063e+00 
12600 6.4678762981e+00 -1.3583378337e-02 1.6249266542e+00 -2.8144555237e+00 1.6249266542e+00 2.8144555237e+00 
12700 6.4678328042e+00 -1.3401145524e-02 1.6253446411e+00 -2.8151794982e+00 1.6253446411e+00 2.8151794982e+00 
12800 6.4677920512e+00 -1.3207334819e-02 1.6257569140e+00 -2.8158935758e+00 1.6257569140e+00 2.8158935758e+00 
12900 6.4677539189e+00 -1.3002763905e-02 1.6261631213e+00 -2.8165971474e+00 1.6261631213e+00 2.8165971474e+00 
13000 6.4677182832e+00 -1.2788237352e-02 1.6265629365e+00 -2.8172896478e+00 1.6265629365e+00 2.8172896478e+00 
13100 6.4676850172e+00 -1.2564545879e-02 1.6269560585e+00 -2.8179705550e+00 1.6269560585e+00 2.8179705550e+00 
13200 6.4676539917e+00 -1.2332465649e-02 1.6273422104e+00 -2.8186393896e+00 1.6273422104e+00 2.8186393896e+00 
13300 6.4676250763e+00 -1.2092757592e-02 1.6277211394e+00 -2.8192957140e+00 1.6277211394e+00 2.8192957140e+00 
13400 6.4675981395e+00 -1.1846166762e-02 1.6280926163e+00 -2.8199391309e+00 1.6280926163e+00 2.8199391309e+00 
13500 6.4675730500e+00 -1.1593421720e-02 1.6284564349e+00 -2.8205692832e+00 1.6284564349e+00 2.8205692832e+00 
13600 6.4675496770e+00 -1.1335233962e-02 1.6288124114e+00 -2.8211858526e+00 1.6288124114e+00 2.8211858526e+00 
13700 6.4675278908e+00 -1.1072297371e-02 1.6291603839e+00 -2.8217885586e+00 1.6291603839e+00 2.8217885586e+00 
13800 6.4675075637e+00 -1.0805287716e-02 1.6295002118e+00 -2.8223771577e+00 1.6295002118e+00 2.8223771577e+00 
13900 6.4674885703e+00 -1.0534862177e-02 1.6298317752e+00 -2.8229514425e+00 1.6298317752e+00 2.8229514425e+00 
14000 6.4674707882e+00 -1.0261658918e-02 1.6301549745e+00 -2.8235112401e+00 1.6301549745e+00 2.8235112401e+00 
14100 6.4674540984e+00 -9.9862966909e-03 1.6304697295e+00 -2.8240564118e+00 1.6304697295e+00 2.8240564118e+00 
14200 6.4674383856e+00 -9.7093744845e-03 1.6307759790e+00 -2.8245868514e+00 1.6307759790e+00 2.8245868514e+00 
14300 6.4674235389e+00 -9.4314712072e-03 1.6310736799e+00 -2.8251024845e+00 1.6310736799e+00 2.8251024845e+00 
14400 6.4674094520e+00 -9.1531454124e-03 1.6313628069e+00 -2.8256032672e+00 1.6313628069e+00 2.8256032672e+00 
14500 6.4673960236e+00 -8.8749350628e-03 1.6316433518e+00 -2.8260891851e+00 1.6316433518e+00 2.8260891851e+00 
14600 6.4673831575e+00 -8.5973573337e-03 1.6319153224e+00 -2.8265602520e+00 1.6319153224e+00 2.8265602520e+00 
14700 6.4673707630e+00 -8.3209084553e-03 1.6321787426e+00 -2.8270165092e+00 1.6321787426e+00 2.8270165092e+00 
14800 6.4673587549e+00 -8.0460635941e-03 1.6324336511e+00 -2.8274580237e+00 1.6324336511e+00 2.8274580237e+00 
14900 6.4673470541e+00 -7.7732767723e-03 1.6326801011e+00 -2.8278848876e+00 1.6326801011e+00 2.8278848876e+00 
15000 6.4673355870e+00 -7.5029808247e-03 1.6329181595e+00 -2.8282972169e+00 1.6329181595e+00 2.8282972169e+00 
15100 6.4673242862e+00 -7.2355873932e-03 1.6331479064e+00 -2.8286951502e+00 1.6331479064e+00 2.8286951502e+00 
15200 6.4673130902e+00 -6.9714869560e-03 1.6333694341e+00 -2.8290788475e+00 1.6333694341e+00 2.8290788475e+00 
15300 6.4673019435e+00 -6.7110488934e-03 1.6335828469e+00 -2.8294484893e+00 1.6335828469e+00 2.8294484893e+00 
15400 6.4672907962e+00 -6.4546215869e-03 1.6337882601e+00 -2.8298042754e+00 1.6337882601e+00 2.8298042754e+00 
15500 6.4672796047e+00 -6.2025325509e-03 1.6339857996e+00 -2.8301464237e+00 1.6339857996e+00 2.8301464237e+00 
15600 6.4672683308e+00 -5.9550885977e-03 1.6341756009e+00 -2.8304751692e+00 1.6341756009e+00 2.8304751692e+00 
15700 6.4672569419e+00 -5.7125760313e-03 1.6343578089e+00 -2.8307907628e+00 1.6343578089e+00 2.8307907628e+00 
15800 6.4672454109e+00 -5.4752608722e-03 1.6345325772e+00 -2.8310934703e+00 1.6345325772e+00 2.8310934703e+00 
15900 6.4672337158e+00 -5.2433891088e-03 1.6347000671e+00 -2.8313835713e+00 1.6347000671e+00 2.8313835713e+00 
16000 6.4672218397e+00 -5.0171869764e-03 1.6348604474e+00 -2.8316613582e+00 1.6348604474e+00 2.8316613582e+00 
16100 6.4672097703e+00 -4.7968612615e-03 1.6350138937e+00 -2.8319271350e+00 1.6350138937e+00 2.8319271350e+00 
16200 6.4671975001e+00 -4.5825996290e-03 1.6351605877e+00 -2.8321812164e+00 1.6351605877e+00 2.8321812164e+00 
16300 6.4671850256e+00 -4.3745709730e-03 1.6353007166e+00 -2.8324239268e+00 1.6353007166e+00 2.8324239268e+00 
16400 6.4671723474e+00 -4.1729257879e-03 1.6354344727e+00 -2.8326555992e+00 1.6354344727e+00 2.8326555992e+00 
16500 6.4671594697e+00 -3.9777965595e-03 1.6355620529e+00 -2.8328765745e+00 1.6355620529e+00 2.8328765745e+00 
16600 6.4671464001e+00 -3.7892981740e-03 1.6356836577e+00 -2.8330872003e+00 1.6356836577e+00 2.8330872003e+00 
16700 6.4671331496e+00 -3.6075283443e-03 1.6357994914e+00 -2.8332878300e+00 1.6357994914e+00 2.8332878300e+00 
16800 6.4671197316e+00 -3.4325680509e-03 1.6359097606e+00 -2.8334788220e+00 1.6359097606e+00 2.8334788220e+00 
16900 6.4671061622e+00 -3.2644819978e-03 1.6360146749e+00 -2.8336605388e+00 1.6360146749e+00 2.8336605388e+00 
17000 6.4670924598e+00 -3.1033190803e-03 1.6361144452e+00 -2.8338333462e+00 1.6361144452e+00 2.8338333462e+00 
17100 6.4670786445e+00 -2.9491128650e-03 1.6362092842e+00 -2.8339976121e+00 1.6362092842e+00 2.8339976121e+00 
17200 6.4670647383e+00 -2.8018820792e-03 1.6362994053e+00 -2.8341537065e+00 1.6362994053e+00 2.8341537065e+00 
17300 6.4670507644e+00 -2.6616311096e-03 1.6363850225e+00 -2.8343019997e+00 1.6363850225e+00 2.8343019997e+00 
17400 6.4670367469e+00 -2.5283505088e-03 1.6364663497e+00 -2.8344428626e+00 1.6364663497e+00 2.8344428626e+00 
17500 6.4670227111e+00 -2.4020175081e-03 1.6365436007e+00 -2.8345766651e+00 1.6365436007e+00 2.8345766651e+00 
17600 6.4670086825e+00 -2.2825965355e-03 1.6366169881e+00 -2.8347037759e+00 1.6366169881e+00 2.8347037759e+00 
17700 6.4669946871e+00 -2.1700397382e-03 1.6366867238e+00 -2.8348245617e+00 1.6366867238e+00 2.8348245617e+00 
17800 6.4669807510e+00 -2.0642875087e-03 1.6367530179e+00 -2.8349393865e+00 1.6367530179e+00 2.8349393865e+00 
17900 6.4669668999e+00 -1.9652690124e-03 1.6368160788e+00 -2.8350486111e+00 1.6368160788e+00 2.8350486111e+00 
18000 6.4669531595e+00 -1.8729027165e-03 1.6368761125e+00 -2.8351525925e+00 1.6368761125e+00 2.8351525925e+00 
18100 6.4669395547e+00 -1.7870969198e-03 1.6369333225e+00 -2.8352516831e+00 1.6369333225e+00 2.8352516831e+00 
18200 6.4669261099e+00 -1.7077502814e-03 1.6369879095e+00 -2.8353462306e+00 1.6369879095e+00 2.8353462306e+00 
18300 6.4669128485e+00 -1.6347523476e-03 1.6370400711e+00 -2.8354365772e+00 1.6370400711e+00 2.8354365772e+00 
18400 6.4668997929e+00 -1.5679840772e-03 1.6370900015e+00 -2.8355230592e+00 1.6370900015e+00 2.8355230592e+00 
18500 6.4668869644e+00 -1.5073183627e-03 1.6371378911e+00 -2.8356060064e+00 1.6371378911e+00 2.8356060064e+00 
18600 6.4668743830e+00 -1.4526205489e-03 1.6371839265e+00 -2.8356857420e+00 1.6371839265e+00 2.8356857420e+00 
18700 6.4668620675e+00 -1.4037489457e-03 1.6372282901e+00 -2.8357625820e+00 1.6372282901e+00 2.8357625820e+00 
18800 6.4668500350e+00 -1.3605553357e-03 1.6372711599e+00 -2.8358368348e+00 1.6372711599e+00 2.8358368348e+00 
18900 6.4668383014e+00 -1.3228854770e-03 1.6373127096e+00 -2.8359088009e+00 1.6373127096e+00 2.8359088009e+00 
19000 6.4668268808e+00 -1.2905795978e-03 1.6373531078e+00 -2.8359787727e+00 1.6373531078e+00 2.8359787727e+00 
19100 6.4668157859e+00 -1.2634728850e-03 1.6373925185e+00 -2.8360470340e+00 1.6373925185e+00 2.8360470340e+00 
19200 6.4668050277e+00 -1.2413959645e-03 1.6374311006e+00 -2.8361138600e+00 1.6374311006e+00 2.8361138600e+00 
19300 6.4667946155e+00 -1.2241753733e-03 1.6374690075e+00 -2.8361795168e+00 1.6374690075e+00 2.8361795168e+00 
19400 6.4667845571e+00 -1.2116340232e-03 1.6375063878e+00 -2.8362442613e+00 1.6375063878e+00 2.8362442613e+00 
19500 6.4667748587e+00 -1.2035916549e-03 1.6375433842e+00 -2.8363083411e+00 1.6375433842e+00 2.8363083411e+00 
19600 6.4667655246e+00 -1.1998652823e-03 1.6375801343e+00 -2.8363719940e+00 1.6375801343e+00 2.8363719940e+00 
19700 6.4667565580e+00 -1.2002696272e-03 1.6376167697e+00 -2.8364354485e+00 1.6376167697e+00 2.8364354485e+00 
19800 6.4667479602e+00 -1.2046175435e-03 1.6376534167e+00 -2.8364989229e+00 1.6376534167e+00 2.8364989229e+00 
19900 6.4667397313e+00 -1.2127204300e-03 1.6376901956e+00 -2.8365626258e+00 1.6376901956e+00 2.8365626258e+00 
20000 6.4667318696e+00 -1.2243886330e-03 1.6377272211e+00 -2.8366267558e+00 1.6377272211e+00 2.8366267558e+00 
20100 6.4667243726e+00 -1.2394318366e-03 1.6377646019e+00 -2.8366915014e+00 1.6377646019e+00 2.8366915014e+00 
20200 6.4667172359e+00 -1.2576594422e-03 1.6378024412e+00 -2.8367570410e+00 1.6378024412e+00 2.8367570410e+00 
20300 6.4667104543e+00 -1.2788809352e-03 1.6378408361e+00 -2.8368235428e+00 1.6378408361e+00 2.8368235428e+00 
20400 6.4667040214e+00 -1.3029062403e-03 1.6378798779e+00 -2.8368911653e+00 1.6378798779e+00 2.8368911653e+00 
20500 6.4666979297e+00 -1.3295460638e-03 1.6379196523e+00 -2.8369600564e+00 1.6379196523e+00 2.8369600564e+00 
20600 6.4666921707e+00 -1.3586122244e-03 1.6379602388e+00 -2.8370303545e+00 1.6379602388e+00 2.8370303545e+00 
20700 6.4666867351e+00 -1.3899179700e-03 1.6380017117e+00 -2.8371021876e+00 1.6380017117e+00 2.8371021876e+00 
20800 6.4666816127e+00 -1.4232782833e-03 1.6380441391e+00 -2.8371756740e+00 1.6380441391e+00 2.8371756740e+00 
20900 6.4666767927e+00 -1.4585101729e-03 1.6380875838e+00 -2.8372509223e+00 1.6380875838e+00 2.8372509223e+00 
21000 6.4666722638e+00 -1.4954329530e-03 1.6381321027e+00 -2.8373280313e+00 1.6381321027e+00 2.8373280313e+00 
21100 6.4666680139e+00 -1.5338685089e-03 1.6381777473e+00 -2.8374070902e+00 1.6381777473e+00 2.8374070902e+00 
21200 6.4666640307e+00 -1.5736415507e-03 1.6382245639e+00 -2.8374881788e+00 1.6382245639e+00 2.8374881788e+00 
21300 6.4666603015e+00 -1.6145798527e-03 1.6382725930e+00 -2.8375713677e+00 1.6382725930e+00 2.8375713677e+00 
21400 6.4666568133e+00 -1.6565144807e-03 1.6383218701e+00 -2.8376567182e+00 1.6383218701e+00 2.8376567182e+00 
21500 6.4666535529e+00 -1.6992800060e-03 1.6383724256e+00 -2.8377442828e+00 1.6383724256e+00 2.8377442828e+00 
21600 6.4666505071e+00 -1.7427147066e-03 1.6384242846e+00 -2.8378341054e+00 1.6384242846e+00 2.8378341054e+00 
21700 6.4666476627e+00 -1.7866607554e-03 1.6384774676e+00 -2.8379262209e+00 1.6384774676e+00 2.8379262209e+00 
21800 6.4666450063e+00 -1.8309643954e-03 1.6385319899e+00 -2.8380206563e+00 1.6385319899e+00 2.8380206563e+00 
21900 6.4666425249e+00 -1.8754761031e-03 1.6385878623e+00 -2.8381174301e+00 1.6385878623e+00 2.8381174301e+00 
22000 6.4666402057e+00 -1.9200507383e-03 1.6386450910e+00 -2.8382165532e+00 1.6386450910e+00 2.8382165532e+00 
22100 6.4666380358e+00 -1.9645476817e-03 1.6387036779e+00 -2.8383180287e+00 1.6387036779e+00 2.8383180287e+00 
22200 6.4666360029e+00 -2.0088309611e-03 1.6387636204e+00 -2.8384218521e+00 1.6387636204e+00 2.8384218521e+00 
22300 6.4666340949e+00 -2.0527693641e-03 1.6388249118e+00 -2.8385280120e+00 1.6388249118e+00 2.8385280120e+00 
22400 6.4666323003e+00 -2.0962365399e-03 1.6388875416e+00 -2.8386364899e+00 1.6388875416e+00 2.8386364899e+00 
22500 6.4666306078e+00 -2.1391110890e-03 1.6389514950e+00 -2.8387472605e+00 1.6389514950e+00 2.8387472605e+00 
22600 6.4666290065e+00 -2.1812766413e-03 1.6390167540e+00 -2.8388602923e+00 1.6390167540e+00 2.8388602923e+00 
22700 6.4666274864e+00 -2.2226219225e-03 1.6390832966e+00 -2.8389755476e+00 1.6390832966e+00 2.8389755476e+00 
22800 6.4666260375e+00 -2.2630408103e-03 1.6391510979e+00 -2.8390929828e+00 1.6391510979e+00 2.8390929828e+00 
22900 6.4666246508e+00 -2.3024323789e-03 1.6392201292e+00 -2.8392125486e+00 1.6392201292e+00 2.8392125486e+00 
23000 6.4666233175e+00 -2.3407009329e-03 1.6392903592e+00 -2.8393341906e+00 1.6392903592e+00 2.8393341906e+00 
23100 6.4666220296e+00 -2.3777560315e-03 1.6393617535e+00 -2.8394578490e+00 1.6393617535e+00 2.8394578490e+00 
23200 6.4666207796e+00 -2.4135125014e-03 1.6394342748e+00 -2.8395834596e+00 1.6394342748e+00 2.8395834596e+00 
23300 6.4666195607e+00 -2.4478904412e-03 1.6395078834e+00 -2.8397109535e+00 1.6395078834e+00 2.8397109535e+00 
23400 6.4666183664e+00 -2.4808152147e-03 1.6395825372e+00 -2.8398402577e+00 1.6395825372e+00 2.8398402577e+00 
23500 6.4666171911e+00 -2.5122174367e-03 1.6396581917e+00 -2.8399712950e+00 1.6396581917e+00 2.8399712950e+00 
23600 6.4666160295e+00 -2.5420329478e-03 1.6397348002e+00 -2.8401039849e+00 1.6397348002e+00 2.8401039849e+00 
23700 6.4666148772e+00 -2.5702027820e-03 1.6398123144e+00 -2.8402382434e+00 1.6398123144e+00 2.8402382434e+00 
23800 6.4666137299e+00 -2.5966731255e-03 1.6398906838e+00 -2.8403739832e+00 1.6398906838e+00 2.8403739832e+00 
23900 6.4666125843e+00 -2.6213952667e-03 1.6399698566e+00 -2.8405111145e+00 1.6399698566e+00 2.8405111145e+00 
24000 6.4666114373e+00 -2.6443255394e-03 1.6400497793e+00 -2.8406495447e+00 1.6400497793e+00 2.8406495447e+00 
24100 6.4666102865e+00 -2.6654252579e-03 1.6401303972e+00 -2.8407891790e+00 1.6401303972e+00 2.8407891790e+00 
24200 6.4666091297e+00 -2.6846606452e-03 1.6402116544e+00 -2.8409299205e+00 1.6402116544e+00 2.8409299205e+00 
24300 6.4666079654e+00 -2.7020027543e-03 1.6402934939e+00 -2.8410716707e+00 1.6402934939e+00 2.8410716707e+00 
24400 6.4666067926e+00 -2.7174273826e-03 1.6403758580e+00 -2.8412143295e+00 1.6403758580e+00 2.8412143295e+00 
24500 6.4666056103e+00 -2.7309149813e-03 1.6404586881e+00 -2.8413577955e+00 1.6404586881e+00 2.8413577955e+00 
24600 6.4666044183e+00 -2.7424505574e-03 1.6405419251e+00 -2.8415019662e+00 1.6405419251e+00 2.8415019662e+00 
24700 6.4666032165e+00 -2.7520235711e-03 1.6406255095e+00 -2.8416467386e+00 1.6406255095e+00 2.8416467386e+00 
24800 6.4666020053e+00 -2.7596278281e-03 1.6407093814e+00 -2.8417920090e+00 1.6407093814e+00 2.8417920090e+00 
24900 6.4666007851e+00 -2.7652613666e-03 1.6407934807e+00 -2.8419376733e+00 1.6407934807e+00 2.8419376733e+00 
25000 6.4665995569e+00 -2.7689263398e-03 1.6408777474e+00 -2.8420836275e+00 1.6408777474e+00 2.8420836275e+00 
25100 6.4665983217e+00 -2.7706288946e-03 1.6409621215e+00 -2.8422297677e+00 1.6409621215e+00 2.8422297677e+00 
25200 6.4665970807e+00 -2.7703790462e-03 1.6410465431e+00 -2.8423759902e+00 1.6410465431e+00 2.8423759902e+00 
25300 6.4665958354e+00 -2.7681905487e-03 1.6411309527e+00 -2.8425221919e+00 1.6411309527e+00 2.8425221919e+00 
25400 6.4665945874e+00 -2.7640807636e-03 1.6412152913e+00 -2.8426682707e+00 1.6412152913e+00 2.8426682707e+00 
25500 6.4665933385e+00 -2.7580705242e-03 1.6412995004e+00 -2.8428141251e+00 1.6412995004e+00 2.8428141251e+00 
25600 6.4665920903e+00 -2.7501839981e-03 1.6413835220e+00 -2.8429596549e+00 1.6413835220e+00 2.8429596549e+00 
25700 6.4665908449e+00 -2.7404485474e-03 1.6414672991e+00 -2.8431047611e+00 1.6414672991e+00 2.8431047611e+00 
25800 6.4665896041e+00 -2.7288945867e-03 1.6415507754e+00 -2.8432493462e+00 1.6415507754e+00 2.8432493462e+00 
25900 6.4665883699e+00 -2.7155554397e-03 1.6416338955e+00 -2.8433933145e+00 1.6416338955e+00 2.8433933145e+00 
26000 6.4665871443e+00 -2.7004671945e-03 1.6417166052e+00 -2.8435365718e+00 1.6417166052e+00 2.8435365718e+00 
26100 6.4665859293e+00 -2.6836685572e-03 1.6417988511e+00 -2.8436790259e+00 1.6417988511e+00 2.8436790259e+00 
26200 6.4665847267e+00 -2.6652007061e-03 1.6418805813e+00 -2.8438205867e+00 1.6418805813e+00 2.8438205867e+00 
26300 6.4665835384e+00 -2.6451071438e-03 1.6419617450e+00 -2.8439611664e+00 1.6419617450e+00 2.8439611664e+00 
26400 6.4665823663e+00 -2.6234335507e-03 1.6420422928e+00 -2.8441006793e+00 1.6420422928e+00 2.8441006793e+00 
26500 6.4665812121e+00 -2.6002276371e-03 1.6421221767e+00 -2.8442390423e+00 1.6421221767e+00 2.8442390423e+00 
26600 6.4665800776e+00 -2.5755389969e-03 1.6422013501e+00 -2.8443761747e+00 1.6422013501e+00 2.8443761747e+00 
26700 6.4665789641e+00 -2.5494189614e-03 1.6422797680e+00 -2.8445119985e+00 1.6422797680e+00 2.8445119985e+00 
26800 6.4665778732e+00 -2.5219204535e-03 1.6423573869e+00 -2.8446464383e+00 1.6423573869e+00 2.8446464383e+00 
26900 6.4665768063e+00 -2.4930978443e-03 1.6424341650e+00 -2.8447794218e+00 1.6424341650e+00 2.8447794218e+00 
27000 6.4665757646e+00 -2.4630068092e-03 1.6425100620e+00 -2.8449108793e+00 1.6425100620e+00 2.8449108793e+00 
27100 6.4665747492e+00 -2.4317041877e-03 1.6425850395e+00 -2.8450407441e+00 1.6425850395e+00 2.8450407441e+00 
27200 6.4665737610e+00 -2.3992478431e-03 1.6426590607e+00 -2.8451689526e+00 1.6426590607e+00 2.8451689526e+00 
27300 6.4665728008e+00 -2.3656965253e-03 1.6427320906e+00 -2.8452954442e+00 1.6427320906e+00 2.8452954442e+00 
27400 6.4665718695e+00 -2.3311097355e-03 1.6428040961e+00 -2.8454201613e+00 1.6428040961e+00 2.8454201613e+00 
27500 6.4665709676e+00 -2.2955475934e-03 1.6428750457e+00 -2.8455430496e+00 1.6428750457e+00 2.8455430496e+00 
27600 6.4665700956e+00 -2.2590707067e-03 1.6429449099e+00 -2.8456640580e+00 1.6429449099e+00 2.8456640580e+00 
27700 6.4665692537e+00 -2.2217400434e-03 1.6430136611e+00 -2.8457831385e+00 1.6430136611e+00 2.8457831385e+00 
27800 6.4665684421e+00 -2.1836168077e-03 1.6430812733e+00 -2.8459002463e+00 1.6430812733e+00 2.8459002463e+00 
27900 6.4665676610e+00 -2.1447623175e-03 1.6431477225e+00 -2.8460153398e+00 1.6431477225e+00 2.8460153398e+00 
28000 6.4665669102e+00 -2.1052378868e-03 1.6432129868e+00 -2.8461283808e+00 1.6432129868e+00 2.8461283808e+00 
28100 6.4665661897e+00 -2.0651047102e-03 1.6432770458e+00 -2.8462393343e+00 1.6432770458e+00 2.8462393343e+00 
28200 6.4665654991e+00 -2.0244237514e-03 1.6433398812e+00 -2.8463481683e+00 1.6433398812e+00 2.8463481683e+00 
28300 6.4665648381e+00 -1.9832556349e-03 1.6434014763e+00 -2.8464548543e+00 1.6434014763e+00 2.8464548543e+00 
28400 6.4665642063e+00 -1.9416605421e-03 1.6434618167e+00 -2.8465593668e+00 1.6434618167e+00 2.8465593668e+00 
28500 6.4665636030e+00 -1.8996981102e-03 1.6435208893e+00 -2.8466616836e+00 1.6435208893e+00 2.8466616836e+00 
28600 6.4665630276e+00 -1.8574273356e-03 1.6435786832e+00 -2.8467617855e+00 1.6435786832e+00 2.8467617855e+00 
28700 6.4665624794e+00 -1.8149064813e-03 1.6436351891e+00 -2.8468596566e+00 1.6436351891e+00 2.8468596566e+00 
28800 6.4665619577e+00 -1.7721929875e-03 1.6436903995e+00 -2.8469552839e+00 1.6436903995e+00 2.8469552839e+00 
28900 6.4665614616e+00 -1.7293433874e-03 1.6437443088e+00 -2.8470486575e+00 1.6437443088e+00 2.8470486575e+00 
29000 6.4665609902e+00 -1.6864132258e-03 1.6437969129e+00 -2.8471397704e+00 1.6437969129e+00 2.8471397704e+00 
29100 6.4665605427e+00 -1.6434569832e-03 1.6438482094e+00 -2.8472286186e+00 1.6438482094e+00 2.8472286186e+00 
29200 6.4665601179e+00 -1.6005280025e-03 1.6438981978e+00 -2.8473152010e+00 1.6438981978e+00 2.8473152010e+00 
29300 6.4665597149e+00 -1.5576784216e-03 1.6439468789e+00 -2.8473995192e+00 1.6439468789e+00 2.8473995192e+00 
29400 6.4665593328e+00 -1.5149591084e-03 1.6439942553e+00 -2.8474815775e+00 1.6439942553e+00 2.8474815775e+00 
29500 6.4665589704e+00 -1.4724196015e-03 1.6440403311e+00 -2.8475613831e+00 1.6440403311e+00 2.8475613831e+00 
29600 6.4665586267e+00 -1.4301080539e-03 1.6440851118e+00 -2.8476389456e+00 1.6440851118e+00 2.8476389456e+00 
29700 6.4665583007e+00 -1.3880711820e-03 1.6441286045e+00 -2.8477142772e+00 1.6441286045e+00 2.8477142772e+00 
29800 6.4665579913e+00 -1.3463542172e-03 1.6441708176e+00 -2.8477873925e+00 1.6441708176e+00 2.8477873925e+00 
29900 6.4665576976e+00 -1.3050008633e-03 1.6442117611e+00 -2.8478583086e+00 1.6442117611e+00 2.8478583086e+00 
30000 6.4665574183e+00 -1.2640532568e-03 1.6442514459e+00 -2.8479270448e+00 1.6442514459e+00 2.8479270448e+00 
30100 6.4665571527e+00 -1.2235519316e-03 1.6442898846e+00 -2.8479936226e+00 1.6442898846e+00 2.8479936226e+00 
30200 6.4665568996e+00 -1.1835357875e-03 1.6443270909e+00 -2.8480580657e+00 1.6443270909e+00 2.8480580657e+00 
30300 6.4665566581e+00 -1.1440420631e-03 1.6443630795e+00 -2.8481203997e+00 1.6443630795e+00 2.8481203997e+00 
30400 6.4665564274e+00 -1.1051063118e-03 1.6443978664e+00 -2.8481806524e+00 1.6443978664e+00 2.8481806524e+00 
30500 6.4665562065e+00 -1.0667623824e-03 1.6444314686e+00 -2.8482388532e+00 1.6444314686e+00 2.8482388532e+00 
30600 6.4665559946e+00 -1.0290424026e-03 1.6444639043e+00 -2.8482950335e+00 1.6444639043e+00 2.8482950335e+00 
30700 6.4665557908e+00 -9.9197676671e-04 1.6444951925e+00 -2.8483492262e+00 1.6444951925e+00 2.8483492262e+00 
30800 6.4665555945e+00 -9.5559412668e-04 1.6445253531e+00 -2.8484014660e+00 1.6445253531e+00 2.8484014660e+00 
30900 6.4665554048e+00 -9.1992138664e-04 1.6445544070e+00 -2.8484517888e+00 1.6445544070e+00 2.8484517888e+00 
31000 6.4665552211e+00 -8.8498370076e-04 1.6445823758e+00 -2.8485002321e+00 1.6445823758e+00 2.8485002321e+00 
31100 6.4665550429e+00 -8.5080447439e-04 1.6446092819e+00 -2.8485468349e+00 1.6446092819e+00 2.8485468349e+00 
31200 6.4665548694e+00 -8.1740536842e-04 1.6446351484e+00 -2.8485916370e+00 1.6446351484e+00 2.8485916370e+00 
31300 6.4665547001e+00 -7.8480630665e-04 1.6446599992e+00 -2.8486346797e+00 1.6446599992e+00 2.8486346797e+00 
31400 6.4665545347e+00 -7.5302548619e-04 1.6446838585e+00 -2.8486760052e+00 1.6446838585e+00 2.8486760052e+00 
31500 6.4665543725e+00 -7.2207939065e-04 1.6447067512e+00 -2.8487156567e+00 1.6447067512e+00 2.8487156567e+00 
31600 6.4665542133e+00 -6.9198280614e-04 1.6447287029e+00 -2.8487536781e+00 1.6447287029e+00 2.8487536781e+00 
31700 6.4665540567e+00 -6.6274883985e-04 1.6447497393e+00 -2.8487901142e+00 1.6447497393e+00 2.8487901142e+00 
31800 6.4665539023e+00 -6.3438894124e-04 1.6447698868e+00 -2.8488250106e+00 1.6447698868e+00 2.8488250106e+00 
31900 6.4665537499e+00 -6.0691292555e-04 1.6447891718e+00 -2.8488584133e+00 1.6447891718e+00 2.8488584133e+00 
32000 6.4665535993e+00 -5.8032899967e-04 1.6448076214e+00 -2.8488903690e+00 1.6448076214e+00 2.8488903690e+00 
32100 6.4665534502e+00 -5.5464379016e-04 1.6448252627e+00 -2.8489209246e+00 1.6448252627e+00 2.8489209246e+00 
32200 6.4665533026e+00 -5.2986237336e-04 1.6448421230e+00 -2.8489501275e+00 1.6448421230e+00 2.8489501275e+00 
32300 6.4665531563e+00 -5.0598830743e-04 1.6448582298e+00 -2.8489780253e+00 1.6448582298e+00 2.8489780253e+00 
32400 6.4665530112e+00 -4.8302366623e-04 1.6448736107e+00 -2.8490046658e+00 1.6448736107e+00 2.8490046658e+00 
32500 6.4665528672e+00 -4.6096907489e-04 1.6448882935e+00 -2.8490300971e+00 1.6448882935e+00 2.8490300971e+00 
32600 6.4665527244e+00 -4.3982374705e-04 1.6449023057e+00 -2.8490543669e+00 1.6449023057e+00 2.8490543669e+00 
32700 6.4665525828e+00 -4.1958552348e-04 1.6449156750e+00 -2.8490775232e+00 1.6449156750e+00 2.8490775232e+00 
32800 6.4665524423e+00 -4.0025091219e-04 1.6449284290e+00 -2.8490996138e+00 1.6449284290e+00 2.8490996138e+00 
32900 6.4665523030e+00 -3.8181512965e-04 1.6449405952e+00 -2.8491206864e+00 1.6449405952e+00 2.8491206864e+00 
33000 6.4665521649e+00 -3.6427214330e-04 1.6449522010e+00 -2.8491407881e+00 1.6449522010e+00 2.8491407881e+00 
33100 6.4665520283e+00 -3.4761471502e-04 1.6449632734e+00 -2.8491599661e+00 1.6449632734e+00 2.8491599661e+00 
33200 6.4665518930e+00 -3.3183444547e-04 1.6449738395e+00 -2.8491782671e+00 1.6449738395e+00 2.8491782671e+00 
33300 6.4665517593e+00 -3.1692181937e-04 1.6449839258e+00 -2.8491957371e+00 1.6449839258e+00 2.8491957371e+00 
33400 6.4665516272e+00 -3.0286625139e-04 1.6449935588e+00 -2.8492124219e+00 1.6449935588e+00 2.8492124219e+00 
33500 6.4665514969e+00 -2.8965613268e-04 1.6450027645e+00 -2.8492283667e+00 1.6450027645e+00 2.8492283667e+00 
33600 6.4665513685e+00 -2.7727887789e-04 1.6450115686e+00 -2.8492436159e+00 1.6450115686e+00 2.8492436159e+00 
33700 6.4665512421e+00 -2.6572097259e-04 1.6450199965e+00 -2.8492582134e+00 1.6450199965e+00 2.8492582134e+00 
33800 6.4665511179e+00 -2.5496802107e-04 1.6450280730e+00 -2.8492722023e+00 1.6450280730e+00 2.8492722023e+00 
33900 6.4665509959e+00 -2.4500479417e-04 1.6450358227e+00 -2.8492856251e+00 1.6450358227e+00 2.8492856251e+00 
34000 6.4665508764e+00 -2.3581527748e-04 1.6450432695e+00 -2.8492985234e+00 1.6450432695e+00 2.8492985234e+00 
34100 6.4665507594e+00 -2.2738271934e-04 1.6450504369e+00 -2.8493109378e+00 1.6450504369e+00 2.8493109378e+00 
34200 6.4665506451e+00 -2.1968967888e-04 1.6450573481e+00 -2.8493229082e+00 1.6450573481e+00 2.8493229082e+00 
34300 6.4665505335e+00 -2.1271807397e-04 1.6450640253e+00 -2.8493344736e+00 1.6450640253e+00 2.8493344736e+00 
34400 6.4665504248e+00 -2.0644922884e-04 1.6450704907e+00 -2.8493456719e+00 1.6450704907e+00 2.8493456719e+00 
34500 6.4665503191e+00 -2.0086392145e-04 1.6450767655e+00 -2.8493565401e+00 1.6450767655e+00 2.8493565401e+00 
34600 6.4665502164e+00 -1.9594243051e-04 1.6450828705e+00 -2.8493671143e+00 1.6450828705e+00 2.8493671143e+00 
34700 6.4665501169e+00 -1.9166458197e-04 1.6450888259e+00 -2.8493774294e+00 1.6450888259e+00 2.8493774294e+00 
34800 6.4665500206e+00 -1.8800979511e-04 1.6450946512e+00 -2.8493875192e+00 1.6450946512e+00 2.8493875192e+00 
34900 6.4665499276e+00 -1.8495712789e-04 1.6451003655e+00 -2.8493974166e+00 1.6451003655e+00 2.8493974166e+00 
35000 6.4665498379e+00 -1.8248532178e-04 1.6451059869e+00 -2.8494071532e+00 1.6451059869e+00 2.8494071532e+00 
35100 6.4665497516e+00 -1.8057284584e-04 1.6451115332e+00 -2.8494167597e+00 1.6451115332e+00 2.8494167597e+00 
35200 6.4665496687e+00 -1.7919794001e-04 1.6451170214e+00 -2.8494262655e+00 1.6451170214e+00 2.8494262655e+00 
35300 6.4665495892e+00 -1.7833865759e-04 1.6451224678e+00 -2.8494356989e+00 1.6451224678e+00 2.8494356989e+00 
35400 6.4665495131e+00 -1.7797290687e-04 1.6451278880e+00 -2.8494450870e+00 1.6451278880e+00 2.8494450870e+00 
35500 6.4665494404e+00 -1.7807849180e-04 1.6451332971e+00 -2.8494544558e+00 1.6451332971e+00 2.8494544558e+00 
35600 6.4665493710e+00 -1.7863315176e-04 1.6451387094e+00 -2.8494638302e+00 1.6451387094e+00 2.8494638302e+00 
35700 6.4665493051e+00 -1.7961460024e-04 1.6451441385e+00 -2.8494732337e+00 1.6451441385e+00 2.8494732337e+00 
35800 6.4665492424e+00 -1.8100056254e-04 1.6451495974e+00 -2.8494826888e+00 1.6451495974e+00 2.8494826888e+00 
35900 6.4665491831e+00 -1.8276881238e-04 1.6451550985e+00 -2.8494922169e+00 1.6451550985e+00 2.8494922169e+00 
36000 6.4665491269e+00 -1.8489720733e-04 1.6451606532e+00 -2.8495018380e+00 1.6451606532e+00 2.8495018380e+00 
36100 6.4665490739e+00 -1.8736372321e-04 1.6451662727e+00 -2.8495115712e+00 1.6451662727e+00 2.8495115712e+00 
36200 6.4665490239e+00 -1.9014648723e-04 1.6451719670e+00 -2.8495214341e+00 1.6451719670e+00 2.8495214341e+00 
36300 6.4665489770e+00 -1.9322380997e-04 1.6451777460e+00 -2.8495314435e+00 1.6451777460e+00 2.8495314435e+00 
36400 6.4665489329e+00 -1.9657421612e-04 1.6451836184e+00 -2.8495416149e+00 1.6451836184e+00 2.8495416149e+00 
36500 6.4665488916e+00 -2.0017647404e-04 1.6451895926e+00 -2.8495519625e+00 1.6451895926e+00 2.8495519625e+00 
36600 6.4665488530e+00 -2.0400962400e-04 1.6451956763e+00 -2.8495624998e+00 1.6451956763e+00 2.8495624998e+00 
36700 6.4665488170e+00 -2.0805300522e-04 1.6452018765e+00 -2.8495732388e+00 1.6452018765e+00 2.8495732388e+00 
36800 6.4665487835e+00 -2.1228628159e-04 1.6452081995e+00 -2.8495841906e+00 1.6452081995e+00 2.8495841906e+00 
36900 6.4665487523e+00 -2.1668946612e-04 1.6452146512e+00 -2.8495953652e+00 1.6452146512e+00 2.8495953652e+00 
37000 6.4665487234e+00 -2.2124294411e-04 1.6452212366e+00 -2.8496067716e+00 1.6452212366e+00 2.8496067716e+00 
37100 6.4665486966e+00 -2.2592749503e-04 1.6452279605e+00 -2.8496184175e+00 1.6452279605e+00 2.8496184175e+00 
37200 6.4665486719e+00 -2.3072431312e-04 1.6452348266e+00 -2.8496303101e+00 1.6452348266e+00 2.8496303101e+00 
37300 6.4665486490e+00 -2.3561502666e-04 1.6452418385e+00 -2.8496424550e+00 1.6452418385e+00 2.8496424550e+00 
37400 6.4665486278e+00 -2.4058171597e-04 1.6452489990e+00 -2.8496548574e+00 1.6452489990e+00 2.8496548574e+00 
37500 6.4665486083e+00 -2.4560693015e-04 1.6452563104e+00 -2.8496675211e+00 1.6452563104e+00 2.8496675211e+00 
37600 6.4665485903e+00 -2.5067370256e-04 1.6452637745e+00 -2.8496804493e+00 1.6452637745e+00 2.8496804493e+00 
37700 6.4665485737e+00 -2.5576556496e-04 1.6452713926e+00 -2.8496936442e+00 1.6452713926e+00 2.8496936442e+00 
37800 6.4665485584e+00 -2.6086656046e-04 1.6452791653e+00 -2.8497071070e+00 1.6452791653e+00 2.8497071070e+00 
37900 6.4665485443e+00 -2.6596125525e-04 1.6452870931e+00 -2.8497208382e+00 1.6452870931e+00 2.8497208382e+00 
38000 6.4665485312e+00 -2.7103474902e-04 1.6452951756e+00 -2.8497348376e+00 1.6452951756e+00 2.8497348376e+00 
38100 6.4665485191e+00 -2.7607268428e-04 1.6453034122e+00 -2.8497491039e+00 1.6453034122e+00 2.8497491039e+00 
38200 6.4665485078e+00 -2.8106125440e-04 1.6453118020e+00 -2.8497636353e+00 1.6453118020e+00 2.8497636353e+00 
38300 6.4665484973e+00 -2.8598721056e-04 1.6453203433e+00 -2.8497784292e+00 1.6453203433e+00 2.8497784292e+00 
38400 6.4665484874e+00 -2.9083786746e-04 1.6453290342e+00 -2.8497934824e+00 1.6453290342e+00 2.8497934824e+00 
38500 6.4665484781e+00 -2.9560110802e-04 1.6453378725e+00 -2.8498087908e+00 1.6453378725e+00 2.8498087908e+00 
38600 6.4665484692e+00 -3.0026538689e-04 1.6453468555e+00 -2.8498243498e+00 1.6453468555e+00 2.8498243498e+00 
38700 6.4665484607e+00 -3.0481973290e-04 1.6453559802e+00 -2.8498401542e+00 1.6453559802e+00 2.8498401542e+00 
38800 6.4665484526e+00 -3.0925375052e-04 1.6453652432e+00 -2.8498561983e+00 1.6453652432e+00 2.8498561983e+00 
38900 6.4665484447e+00 -3.1355762021e-04 1.6453746410e+00 -2.8498724756e+00 1.6453746410e+00 2.8498724756e+00 
39000 6.4665484370e+00 -3.1772209784e-04 1.6453841694e+00 -2.8498889794e+00 1.6453841694e+00 2.8498889794e+00 
39100 6.4665484294e+00 -3.2173851317e-04 1.6453938244e+00 -2.8499057023e+00 1.6453938244e+00 2.8499057023e+00 
39200 6.4665484218e+00 -3.2559876728e-04 1.6454036013e+00 -2.8499226365e+00 1.6454036013e+00 2.8499226365e+00 
39300 6.4665484143e+00 -3.2929532924e-04 1.6454134955e+00 -2.8499397737e+00 1.6454134955e+00 2.8499397737e+00 
39400 6.4665484067e+00 -3.3282123180e-04 1.6454235020e+00 -2.8499571055e+00 1.6454235020e+00 2.8499571055e+00 
39500 6.4665483991e+00 -3.3617006632e-04 1.6454336156e+00 -2.8499746226e+00 1.6454336156e+00 2.8499746226e+00 
39600 6.4665483914e+00 -3.3933597682e-04 1.6454438308e+00 -2.8499923160e+00 1.6454438308e+00 2.8499923160e+00 
39700 6.4665483835e+00 -3.4231365333e-04 1.6454541422e+00 -2.8500101758e+00 1.6454541422e+00 2.8500101758e+00 
39800 6.4665483755e+00 -3.4509832445e-04 1.6454645440e+00 -2.8500281923e+00 1.6454645440e+00 2.8500281923e+00 
39900 6.4665483673e+00 -3.4768574922e-04 1.6454750304e+00 -2.8500463552e+00 1.6454750304e+00 2.8500463552e+00 
40000 6.4665483589e+00 -3.5007220831e-04 1.6454855953e+00 -2.8500646542e+00 1.6454855953e+00 2.8500646542e+00 
40100 6.4665483503e+00 -3.5225449461e-04 1.6454962327e+00 -2.8500830786e+00 1.6454962327e+00 2.8500830786e+00 
40200 6.4665483415e+00 -3.5422990314e-04 1.6455069363e+00 -2.8501016178e+00 1.6455069363e+00 2.8501016178e+00 
40300 6.4665483325e+00 -3.5599622049e-04 1.6455176998e+00 -2.8501202609e+00 1.6455176998e+00 2.8501202609e+00 
40400 6.4665483233e+00 -3.5755171366e-04 1.6455285170e+00 -2.8501389967e+00 1.6455285170e+00 2.8501389967e+00 
40500 6.4665483138e+00 -3.5889511839e-04 1.6455393813e+00 -2.8501578143e+00 1.6455393813e+00 2.8501578143e+00 
40600 6.4665483041e+00 -3.6002562708e-04 1.6455502864e+00 -2.8501767025e+00 1.6455502864e+00 2.8501767025e+00 
40700 6.4665482943e+00 -3.6094287624e-04 1.6455612258e+00 -2.8501956501e+00 1.6455612258e+00 2.8501956501e+00 
40800 6.4665482842e+00 -3.6164693356e-04 1.6455721930e+00 -2.8502146458e+00 1.6455721930e+00 2.8502146458e+00 
40900 6.4665482739e+00 -3.6213828460e-04 1.6455831815e+00 -2.8502336784e+00 1.6455831815e+00 2.8502336784e+00 
41000 6.4665482635e+00 -3.6241781916e-04 1.6455941849e+00 -2.8502527368e+00 1.6455941849e+00 2.8502527368e+00 
41100 6.4665482529e+00 -3.6248681735e-04 1.6456051966e+00 -2.8502718098e+00 1.6456051966e+00 2.8502718098e+00 
41200 6.4665482422e+00 -3.6234693541e-04 1.6456162104e+00 -2.8502908862e+00 1.6456162104e+00 2.8502908862e+00 
41300 6.4665482314e+00 -3.6200019127e-04 1.6456272199e+00 -2.8503099552e+00 1.6456272199e+00 2.8503099552e+00 
41400 6.4665482205e+00 -3.6144894992e-04 1.6456382188e+00 -2.8503290058e+00 1.6456382188e+00 2.8503290058e+00 
41500 6.4665482095e+00 -3.6069590864e-04 1.6456492008e+00 -2.8503480272e+00 1.6456492008e+00 2.8503480272e+00 
41600 6.4665481984e+00 -3.5974408204e-04 1.6456601599e+00 -2.8503670089e+00 1.6456601599e+00 2.8503670089e+00 
41700 6.4665481873e+00 -3.5859678700e-04 1.6456710900e+00 -2.8503859404e+00 1.6456710900e+00 2.8503859404e+00 
41800 6.4665481762e+00 -3.5725762759e-04 1.6456819852e+00 -2.8504048114e+00 1.6456819852e+00 2.8504048114e+00 
41900 6.4665481650e+00 -3.5573047985e-04 1.6456928396e+00 -2.8504236118e+00 1.6456928396e+00 2.8504236118e+00 
42000 6.4665481539e+00 -3.5401947661e-04 1.6457036475e+00 -2.8504423317e+00 1.6457036475e+00 2.8504423317e+00 
42100 6.4665481429e+00 -3.5212899226e-04 1.6457144034e+00 -2.8504609614e+00 1.6457144034e+00 2.8504609614e+00 
42200 6.4665481319e+00 -3.5006362763e-04 1.6457251018e+00 -2.8504794915e+00 1.6457251018e+00 2.8504794915e+00 
42300 6.4665481209e+00 -3.4782819481e-04 1.6457357373e+00 -2.8504979129e+00 1.6457357373e+00 2.8504979129e+00 
42400 6.4665481101e+00 -3.4542770217e-04 1.6457463049e+00 -2.8505162164e+00 1.6457463049e+00 2.8505162164e+00 
42500 6.4665480994e+00 -3.4286733940e-04 1.6457567995e+00 -2.8505343936e+00 1.6457567995e+00 2.8505343936e+00 
42600 6.4665480888e+00 -3.4015246266e-04 1.6457672162e+00 -2.8505524358e+00 1.6457672162e+00 2.8505524358e+00 
42700 6.4665480783e+00 -3.3728858000e-04 1.6457775503e+00 -2.8505703352e+00 1.6457775503e+00 2.8505703352e+00 
42800 6.4665480680e+00 -3.3428133682e-04 1.6457877974e+00 -2.8505880836e+00 1.6457877974e+00 2.8505880836e+00 
42900 6.4665480579e+00 -3.3113650155e-04 1.6457979531e+00 -2.8506056738e+00 1.6457979531e+00 2.8506056738e+00 
43000 6.4665480480e+00 -3.2785995158e-04 1.6458080132e+00 -2.8506230983e+00 1.6458080132e+00 2.8506230983e+00 
43100 6.4665480382e+00 -3.2445765942e-04 1.6458179737e+00 -2.8506403504e+00 1.6458179737e+00 2.8506403504e+00 
43200 6.4665480286e+00 -3.2093567901e-04 1.6458278307e+00 -2.8506574233e+00 1.6458278307e+00 2.8506574233e+00 
43300 6.4665480193e+00 -3.1730013241e-04 1.6458375807e+00 -2.8506743107e+00 1.6458375807e+00 2.8506743107e+00 
43400 6.4665480102e+00 -3.1355719672e-04 1.6458472202e+00 -2.8506910068e+00 1.6458472202e+00 2.8506910068e+00 
43500 6.4665480012e+00 -3.0971309123e-04 1.6458567459e+00 -2.8507075058e+00 1.6458567459e+00 2.8507075058e+00 
43600 6.4665479925e+00 -3.0577406500e-04 1.6458661548e+00 -2.8507238025e+00 1.6458661548e+00 2.8507238025e+00 
43700 6.4665479840e+00 -3.0174638465e-04 1.6458754439e+00 -2.8507398918e+00 1.6458754439e+00 2.8507398918e+00 
43800 6.4665479758e+00 -2.9763632253e-04 1.6458846107e+00 -2.8507557691e+00 1.6458846107e+00 2.8507557691e+00 
43900 6.4665479678e+00 -2.9345014525e-04 1.6458936525e+00 -2.8507714300e+00 1.6458936525e+00 2.8507714300e+00 
44000 6.4665479600e+00 -2.8919410248e-04 1.6459025671e+00 -2.8507868706e+00 1.6459025671e+00 2.8507868706e+00 
44100 6.4665479524e+00 -2.8487441621e-04 1.6459113524e+00 -2.8508020872e+00 1.6459113524e+00 2.8508020872e+00 
44200 6.4665479451e+00 -2.8049727032e-04 1.6459200064e+00 -2.8508170763e+00 1.6459200064e+00 2.8508170763e+00 
44300 6.4665479379e+00 -2.7606880055e-04 1.6459285274e+00 -2.8508318351e+00 1.6459285274e+00 2.8508318351e+00 
44400 6.4665479310e+00 -2.7159508481e-04 1.6459369139e+00 -2.8508463608e+00 1.6459369139e+00 2.8508463608e+00 
44500 6.4665479243e+00 -2.6708213397e-04 1.6459451643e+00 -2.8508606511e+00 1.6459451643e+00 2.8508606511e+00 
44600 6.4665479178e+00 -2.6253588292e-04 1.6459532777e+00 -2.8508747038e+00 1.6459532777e+00 2.8508747038e+00 
44700 6.4665479115e+00 -2.5796218215e-04 1.6459612529e+00 -2.8508885173e+00 1.6459612529e+00 2.8508885173e+00 
44800 6.4665479054e+00 -2.5336678963e-04 1.6459690891e+00 -2.8509020900e+00 1.6459690891e+00 2.8509020900e+00 
44900 6.4665478995e+00 -2.4875536318e-04 1.6459767857e+00 -2.8509154209e+00 1.6459767857e+00 2.8509154209e+00 
45000 6.4665478938e+00 -2.4413345315e-04 1.6459843422e+00 -2.8509285091e+00 1.6459843422e+00 2.8509285091e+00 
45100 6.4665478882e+00 -2.3950649561e-04 1.6459917582e+00 -2.8509413540e+00 1.6459917582e+00 2.8509413540e+00 
45200 6.4665478828e+00 -2.3487980585e-04 1.6459990336e+00 -2.8509539555e+00 1.6459990336e+00 2.8509539555e+00 
45300 6.4665478776e+00 -2.3025857237e-04 1.6460061685e+00 -2.8509663134e+00 1.6460061685e+00 2.8509663134e+00 
45400 6.4665478725e+00 -2.2564785118e-04 1.6460131630e+00 -2.8509784282e+00 1.6460131630e+00 2.8509784282e+00 
45500 6.4665478676e+00 -2.2105256061e-04 1.6460200174e+00 -2.8509903004e+00 1.6460200174e+00 2.8509903004e+00 
45600 6.4665478627e+00 -2.1647747642e-04 1.6460267321e+00 -2.8510019307e+00 1.6460267321e+00 2.8510019307e+00 
45700 6.4665478580e+00 -2.1192722736e-04 1.6460333079e+00 -2.8510133202e+00 1.6460333079e+00 2.8510133202e+00 
45800 6.4665478534e+00 -2.0740629113e-04 1.6460397454e+00 -2.8510244703e+00 1.6460397454e+00 2.8510244703e+00 
45900 6.4665478490e+00 -2.0291899068e-04 1.6460460456e+00 -2.8510353825e+00 1.6460460456e+00 2.8510353825e+00 
46000 6.4665478446e+00 -1.9846949094e-04 1.6460522094e+00 -2.8510460586e+00 1.6460522094e+00 2.8510460586e+00 
46100 6.4665478403e+00 -1.9406179589e-04 1.6460582381e+00 -2.8510565005e+00 1.6460582381e+00 2.8510565005e+00 
46200 6.4665478361e+00 -1.8969974606e-04 1.6460641328e+00 -2.8510667105e+00 1.6460641328e+00 2.8510667105e+00 
46300 6.4665478320e+00 -1.8538701630e-04 1.6460698950e+00 -2.8510766910e+00 1.6460698950e+00 2.8510766910e+00 
46400 6.4665478279e+00 -1.8112711400e-04 1.6460755262e+00 -2.8510864445e+00 1.6460755262e+00 2.8510864445e+00 
46500 6.4665478239e+00 -1.7692337760e-04 1.6460810280e+00 -2.8510959739e+00 1.6460810280e+00 2.8510959739e+00 
46600 6.4665478200e+00 -1.7277897549e-04 1.6460864021e+00 -2.8511052821e+00 1.6460864021e+00 2.8511052821e+00 
46700 6.4665478161e+00 -1.6869690519e-04 1.6460916503e+00 -2.8511143722e+00 1.6460916503e+00 2.8511143722e+00 
46800 6.4665478122e+00 -1.6467999290e-04 1.6460967745e+00 -2.8511232475e+00 1.6460967745e+00 2.8511232475e+00 
46900 6.4665478084e+00 -1.6073089337e-04 1.6461017766e+00 -2.8511319115e+00 1.6461017766e+00 2.8511319115e+00 
47000 6.4665478046e+00 -1.5685209000e-04 1.6461066588e+00 -2.8511403677e+00 1.6461066588e+00 2.8511403677e+00 
47100 6.4665478009e+00 -1.5304589537e-04 1.6461114231e+00 -2.8511486197e+00 1.6461114231e+00 2.8511486197e+00 
47200 6.4665477971e+00 -1.4931445196e-04 1.6461160718e+00 -2.8511566715e+00 1.6461160718e+00 2.8511566715e+00 
47300 6.4665477934e+00 -1.4565973313e-04 1.6461206072e+00 -2.8511645270e+00 1.6461206072e+00 2.8511645270e+00 
47400 6.4665477898e+00 -1.4208354452e-04 1.6461250315e+00 -2.8511721902e+00 1.6461250315e+00 2.8511721902e+00 
47500 6.4665477861e+00 -1.3858752548e-04 1.6461293472e+00 -2.8511796652e+00 1.6461293472e+00 2.8511796652e+00 
47600 6.4665477824e+00 -1.3517315097e-04 1.6461335567e+00 -2.8511869563e+00 1.6461335567e+00 2.8511869563e+00 
47700 6.4665477788e+00 -1.3184173355e-04 1.6461376625e+00 -2.8511940677e+00 1.6461376625e+00 2.8511940677e+00 
47800 6.4665477752e+00 -1.2859442566e-04 1.6461416671e+00 -2.8512010038e+00 1.6461416671e+00 2.8512010038e+00 
47900 6.4665477715e+00 -1.2543222210e-04 1.6461455730e+00 -2.8512077691e+00 1.6461455730e+00 2.8512077691e+00 
48000 6.4665477679e+00 -1.2235596272e-04 1.6461493829e+00 -2.8512143680e+00 1.6461493829e+00 2.8512143680e+00 
48100 6.4665477643e+00 -1.1936633532e-04 1.6461530993e+00 -2.8512208050e+00 1.6461530993e+00 2.8512208050e+00 
48200 6.4665477607e+00 -1.1646387868e-04 1.6461567249e+00 -2.8512270848e+00 1.6461567249e+00 2.8512270848e+00 
48300 6.4665477571e+00 -1.1364898582e-04 1.6461602624e+00 -2.8512332118e+00 1.6461602624e+00 2.8512332118e+00 
48400 6.4665477535e+00 -1.1092190744e-04 1.6461637143e+00 -2.8512391908e+00 1.6461637143e+00 2.8512391908e+00 
48500 6.4665477500e+00 -1.0828275538e-04 1.6461670834e+00 -2.8512450262e+00 1.6461670834e+00 2.8512450262e+00 
48600 6.4665477464e+00 -1.0573150642e-04 1.6461703724e+00 -2.8512507228e+00 1.6461703724e+00 2.8512507228e+00 
48700 6.4665477428e+00 -1.0326800604e-04 1.6461735838e+00 -2.8512562852e+00 1.6461735838e+00 2.8512562852e+00 
48800 6.4665477393e+00 -1.0089197237e-04 1.6461767204e+00 -2.8512617180e+00 1.6461767204e+00 2.8512617180e+00 
48900 6.4665477357e+00 -9.8603000256e-05 1.6461797848e+00 -2.8512670257e+00 1.6461797848e+00 2.8512670257e+00 
49000 6.4665477322e+00 -9.6400565402e-05 1.6461827797e+00 -2.8512722131e+00 1.6461827797e+00 2.8512722131e+00 
49100 6.4665477287e+00 -9.4284028615e-05 1.6461857078e+00 -2.8512772845e+00 1.6461857078e+00 2.8512772845e+00 
49200 6.4665477252e+00 -9.2252640118e-05 1.6461885715e+00 -2.8512822446e+00 1.6461885715e+00 2.8512822446e+00 
49300 6.4665477217e+00 -9.0305543930e-05 1.6461913735e+00 -2.8512870978e+00 1.6461913735e+00 2.8512870978e+00 
49400 6.4665477182e+00 -8.8441782312e-05 1.6461941163e+00 -2.8512918486e+00 1.6461941163e+00 2.8512918486e+00 
49500 6.4665477148e+00 -8.6660300267e-05 1.6461968026e+00 -2.8512965013e+00 1.6461968026e+00 2.8512965013e+00 
49600 6.4665477114e+00 -8.4959950058e-05 1.6461994347e+00 -2.8513010603e+00 1.6461994347e+00 2.8513010603e+00 
49700 6.4665477080e+00 -8.3339495772e-05 1.6462020152e+00 -2.8513055299e+00 1.6462020152e+00 2.8513055299e+00 
49800 6.4665477046e+00 -8.1797617918e-05 1.6462045465e+00 -2.8513099142e+00 1.6462045465e+00 2.8513099142e+00 
49900 6.4665477012e+00 -8.0332918001e-05 1.6462070309e+00 -2.8513142173e+00 1.6462070309e+00 2.8513142173e+00 
50000 6.4665476979e+00 -7.8943923132e-05 1.6462094709e+00 -2.8513184434e+00 1.6462094709e+00 2.8513184434e+00 
50100 6.4665476946e+00 -7.7629090623e-05 1.6462118686e+00 -2.8513225964e+00 1.6462118686e+00 2.8513225964e+00 
50200 6.4665476914e+00 -7.6386812572e-05 1.6462142264e+00 -2.8513266803e+00 1.6462142264e+00 2.8513266803e+00 
50300 6.4665476881e+00 -7.5215420423e-05 1.6462165465e+00 -2.8513306988e+00 1.6462165465e+00 2.8513306988e+00 
50400 6.4665476849e+00 -7.4113189501e-05 1.6462188310e+00 -2.8513346556e+00 1.6462188310e+00 2.8513346556e+00 
50500 6.4665476818e+00 -7.3078343520e-05 1.6462210820e+00 -2.8513385545e+00 1.6462210820e+00 2.8513385545e+00 
50600 6.4665476786e+00 -7.2109059039e-05 1.6462233016e+00 -2.8513423989e+00 1.6462233016e+00 2.8513423989e+00 
50700 6.4665476755e+00 -7.1203469873e-05 1.6462254917e+00 -2.8513461924e+00 1.6462254917e+00 2.8513461924e+00 
50800 6.4665476725e+00 -7.0359671454e-05 1.6462276543e+00 -2.8513499381e+00 1.6462276543e+00 2.8513499381e+00 
50900 6.4665476696e+00 -7.1875166266e-05 1.6462276543e+00 -2.8513499381e+00 1.6462276543e+00 2.8513499381e+00 
51000 6.4665476667e+00 -7.1082331269e-05 1.6462298374e+00 -2.8513537193e+00 1.6462298374e+00 2.8513537193e+00 
51100 6.4665476637e+00 -7.0347840922e-05 1.6462319963e+00 -2.8513574587e+00 1.6462319963e+00 2.8513574587e+00 
51200 6.4665476610e+00 -7.1968618974e-05 1.6462319963e+00 -2.8513574587e+00 1.6462319963e+00 2.8513574587e+00 
51300 6.4665476582e+00 -7.1277635118e-05 1.6462341822e+00 -2.8513612447e+00 1.6462341822e+00 2.8513612447e+00 
51400 6.4665476553e+00 -7.0641008789e-05 1.6462363470e+00 -2.8513649943e+00 1.6462363470e+00 2.8513649943e+00 
51500 6.4665476527e+00 -7.2365101988e-05 1.6462363470e+00 -2.8513649943e+00 1.6462363470e+00 2.8513649943e+00 
51600 6.4665476500e+00 -7.1763306080e-05 1.6462385449e+00 -2.8513688012e+00 1.6462385449e+00 2.8513688012e+00 
51700 6.4665476473e+00 -7.1211499933e-05 1.6462407245e+00 -2.8513725764e+00 1.6462407245e+00 2.8513725764e+00 
51800 6.4665476447e+00 -7.0707301426e-05 1.6462428874e+00 -2.8513763226e+00 1.6462428874e+00 2.8513763226e+00 
51900 6.4665476422e+00 -7.2559157382e-05 1.6462428874e+00 -2.8513763226e+00 1.6462428874e+00 2.8513763226e+00 
52000 6.4665476397e+00 -7.2076001648e-05 1.6462450912e+00 -2.8513801396e+00 1.6462450912e+00 2.8513801396e+00 
52100 6.4665476371e+00 -7.1635898577e-05 1.6462472803e+00 -2.8513839313e+00 1.6462472803e+00 2.8513839313e+00 
52200 6.4665476346e+00 -7.1236436860e-05 1.6462494560e+00 -2.8513876998e+00 1.6462494560e+00 2.8513876998e+00 
52300 6.4665476322e+00 -7.0875240028e-05 1.6462516196e+00 -2.8513914472e+00 1.6462516196e+00 2.8513914472e+00 
52400 6.4665476298e+00 -7.0549968752e-05 1.6462537722e+00 -2.8513951757e+00 1.6462537722e+00 2.8513951757e+00 
52500 6.4665476276e+00 -7.2563980561e-05 1.6462537722e+00 -2.8513951757e+00 1.6462537722e+00 2.8513951757e+00 
52600 6.4665476252e+00 -7.2236747400e-05 1.6462559762e+00 -2.8513989930e+00 1.6462559762e+00 2.8513989930e+00 
52700 6.4665476229e+00 -7.1941128028e-05 1.6462581701e+00 -2.8514027930e+00 1.6462581701e+00 2.8514027930e+00 
52800 6.4665476207e+00 -7.1674831730e-05 1.6462603551e+00 -2.8514065775e+00 1.6462603551e+00 2.8514065775e+00 
52900 6.4665476184e+00 -7.1435619974e-05 1.6462625320e+00 -2.8514103480e+00 1.6462625320e+00 2.8514103480e+00 
53000 6.4665476162e+00 -7.1221307885e-05 1.6462647016e+00 -2.8514141060e+00 1.6462647016e+00 2.8514141060e+00 
53100 6.4665476141e+00 -7.1029765614e-05 1.6462668648e+00 -2.8514178526e+00 1.6462668648e+00 2.8514178526e+00 
53200 6.4665476119e+00 -7.0858919585e-05 1.6462690221e+00 -2.8514215891e+00 1.6462690221e+00 2.8514215891e+00 
53300 6.4665476098e+00 -7.0706753641e-05 1.6462711742e+00 -2.8514253167e+00 1.6462711742e+00 2.8514253167e+00 
53400 6.4665476080e+00 -7.2882061077e-05 1.6462711742e+00 -2.8514253167e+00 1.6462711742e+00 2.8514253167e+00 
53500 6.4665476059e+00 -7.2694340018e-05 1.6462733877e+00 -2.8514291507e+00 1.6462733877e+00 2.8514291507e+00 
53600 6.4665476039e+00 -7.2522072363e-05 1.6462755956e+00 -2.8514329748e+00 1.6462755956e+00 2.8514329748e+00 
53700 6.4665476019e+00 -7.2363359883e-05 1.6462777982e+00 -2.8514367898e+00 1.6462777982e+00 2.8514367898e+00 
53800 6.4665475999e+00 -7.2216371077e-05 1.6462799960e+00 -2.8514405965e+00 1.6462799960e+00 2.8514405965e+00 
53900 6.4665475980e+00 -7.2079341509e-05 1.6462821893e+00 -2.8514443954e+00 1.6462821893e+00 2.8514443954e+00 
54000 6.4665475961e+00 -7.1950574055e-05 1.6462843784e+00 -2.8514481872e+00 1.6462843784e+00 2.8514481872e+00 
54100 6.4665475942e+00 -7.1828439031e-05 1.6462865637e+00 -2.8514519721e+00 1.6462865637e+00 2.8514519721e+00 
54200 6.4665475923e+00 -7.1711374252e-05 1.6462887452e+00 -2.8514557506e+00 1.6462887452e+00 2.8514557506e+00 
54300 6.4665475905e+00 -7.1597884969e-05 1.6462909232e+00 -2.8514595230e+00 1.6462909232e+00 2.8514595230e+00 
54400 6.4665475887e+00 -7.1486543736e-05 1.6462930977e+00 -2.8514632894e+00 1.6462930977e+00 2.8514632894e+00 
54500 6.4665475869e+00 -7.1375990158e-05 1.6462952688e+00 -2.8514670499e+00 1.6462952688e+00 2.8514670499e+00 
54600 6.4665475851e+00 -7.1264930589e-05 1.6462974366e+00 -2.8514708046e+00 1.6462974366e+00 2.8514708046e+00 
54700 6.4665475833e+00 -7.1152137695e-05 1.6462996010e+00 -2.8514745534e+00 1.6462996010e+00 2.8514745534e+00 
54800 6.4665475816e+00 -7.1036449989e-05 1.6463017620e+00 -2.8514782964e+00 1.6463017620e+00 2.8514782964e+00 
54900 6.4665475798e+00 -7.0916771232e-05 1.6463039194e+00 -2.8514820332e+00 1.6463039194e+00 2.8514820332e+00 
55000 6.4665475781e+00 -7.0792069802e-05 1.6463060733e+00 -2.8514857637e+00 1.6463060733e+00 2.8514857637e+00 
55100 6.4665475764e+00 -7.0661377939e-05 1.6463082233e+00 -2.8514894877e+00 1.6463082233e+00 2.8514894877e+00 
55200 6.4665475749e+00 -7.2832965137e-05 1.6463082233e+00 -2.8514894877e+00 1.6463082233e+00 2.8514894877e+00 
55300 6.4665475733e+00 -7.2620588455e-05 1.6463104353e+00 -2.8514933190e+00 1.6463104353e+00 2.8514933190e+00 
55400 6.4665475716e+00 -7.2402158650e-05 1.6463126409e+00 -2.8514971391e+00 1.6463126409e+00 2.8514971391e+00 
55500 6.4665475700e+00 -7.2176833896e-05 1.6463148398e+00 -2.8515009477e+00 1.6463148398e+00 2.8515009477e+00 
55600 6.4665475684e+00 -7.1943836803e-05 1.6463170319e+00 -2.8515047445e+00 1.6463170319e+00 2.8515047445e+00 
55700 6.4665475668e+00 -7.1702453140e-05 1.6463192168e+00 -2.8515085291e+00 1.6463192168e+00 2.8515085291e+00 
55800 6.4665475652e+00 -7.1452030516e-05 1.6463213945e+00 -2.8515123009e+00 1.6463213945e+00 2.8515123009e+00 
55900 6.4665475636e+00 -7.1191977008e-05 1.6463235646e+00 -2.8515160595e+00 1.6463235646e+00 2.8515160595e+00 
56000 6.4665475621e+00 -7.0921759736e-05 1.6463257267e+00 -2.8515198045e+00 1.6463257267e+00 2.8515198045e+00 
56100 6.4665475605e+00 -7.0640903415e-05 1.6463278806e+00 -2.8515235352e+00 1.6463278806e+00 2.8515235352e+00 
56200 6.4665475592e+00 -7.2657437614e-05 1.6463278806e+00 -2.8515235352e+00 1.6463278806e+00 2.8515235352e+00 
56300 6.4665475577e+00 -7.2287071460e-05 1.6463300873e+00 -2.8515273572e+00 1.6463300873e+00 2.8515273572e+00 
56400 6.4665475562e+00 -7.1907435543e-05 1.6463322827e+00 -2.8515311598e+00 1.6463322827e+00 2.8515311598e+00 
56500 6.4665475547e+00 -7.1518148764e-05 1.6463344666e+00 -2.8515349423e+00 1.6463344666e+00 2.8515349423e+00 
56600 6.4665475532e+00 -7.1118885030e-05 1.6463366386e+00 -2.8515387044e+00 1.6463366386e+00 2.8515387044e+00 
56700 6.4665475518e+00 -7.0709371441e-05 1.6463387985e+00 -2.8515424455e+00 1.6463387985e+00 2.8515424455e+00 
56800 6.4665475505e+00 -7.2600041068e-05 1.6463387985e+00 -2.8515424455e+00 1.6463387985e+00 2.8515424455e+00 
56900 6.4665475491e+00 -7.2102321381e-05 1.6463410034e+00 -2.8515462645e+00 1.6463410034e+00 2.8515462645e+00 
57000 6.4665475477e+00 -7.1596301190e-05 1.6463431932e+00 -2.8515500573e+00 1.6463431932e+00 2.8515500573e+00 
57100 6.4665475463e+00 -7.1081781145e-05 1.6463453676e+00 -2.8515538235e+00 1.6463453676e+00 2.8515538235e+00 
57200 6.4665475449e+00 -7.0558611140e-05 1.6463475264e+00 -2.8515575626e+00 1.6463475264e+00 2.8515575626e+00 
57300 6.4665475438e+00 -7.2332391035e-05 1.6463475264e+00 -2.8515575626e+00 1.6463475264e+00 2.8515575626e+00 
57400 6.4665475424e+00 -7.1724711089e-05 1.6463497231e+00 -2.8515613675e+00 1.6463497231e+00 2.8515613675e+00 
57500 6.4665475411e+00 -7.1110667839e-05 1.6463519014e+00 -2.8515651404e+00 1.6463519014e+00 2.8515651404e+00 
57600 6.4665475397e+00 -7.0490167299e-05 1.6463540611e+00 -2.8515688810e+00 1.6463540611e+00 2.8515688810e+00 
57700 6.4665475386e+00 -7.2166607477e-05 1.6463540611e+00 -2.8515688810e+00 1.6463540611e+00 2.8515688810e+00 
57800 6.4665475373e+00 -7.1466205726e-05 1.6463562528e+00 -2.8515726772e+00 1.6463562528e+00 2.8515726772e+00 
57900 6.4665475360e+00 -7.0761782091e-05 1.6463584232e+00 -2.8515764365e+00 1.6463584232e+00 2.8515764365e+00 
58000 6.4665475348e+00 -7.0053287020e-05 1.6463605723e+00 -2.8515801587e+00 1.6463605723e+00 2.8515801587e+00 
58100 6.4665475337e+00 -7.1629865121e-05 1.6463605723e+00 -2.8515801587e+00 1.6463605723e+00 2.8515801587e+00 
58200 6.4665475325e+00 -7.0846776876e-05 1.6463627477e+00 -2.8515839266e+00 1.6463627477e+00 2.8515839266e+00 
58300 6.4665475313e+00 -7.0062151152e-05 1.6463648993e+00 -2.8515876533e+00 1.6463648993e+00 2.8515876533e+00 
58400 6.4665475303e+00 -7.1565401256e-05 1.6463648993e+00 -2.8515876533e+00 1.6463648993e+00 2.8515876533e+00 
58500 6.4665475291e+00 -7.0711213802e-05 1.6463670727e+00 -2.8515914178e+00 1.6463670727e+00 2.8515914178e+00 
58600 6.4665475279e+00 -6.9857991685e-05 1.6463692202e+00 -2.8515951374e+00 1.6463692202e+00 2.8515951374e+00 
58700 6.4665475269e+00 -7.1288452042e-05 1.6463692202e+00 -2.8515951374e+00 1.6463692202e+00 2.8515951374e+00 
58800 6.4665475258e+00 -7.0370827666e-05 1.6463713852e+00 -2.8515988873e+00 1.6463713852e+00 2.8515988873e+00 
58900 6.4665475248e+00 -7.1756121315e-05 1.6463713852e+00 -2.8515988873e+00 1.6463713852e+00 2.8515988873e+00 
59000 6.4665475237e+00 -7.0778520536e-05 1.6463735644e+00 -2.8516026619e+00 1.6463735644e+00 2.8516026619e+00 
59100 6.4665475226e+00 -6.9806731864e-05 1.6463757140e+00 -2.8516063849e+00 1.6463757140e+00 2.8516063849e+00 
59200 6.4665475217e+00 -7.1121710743e-05 1.6463757140e+00 -2.8516063849e+00 1.6463757140e+00 2.8516063849e+00 
59300 6.4665475206e+00 -7.0095053073e-05 1.6463778739e+00 -2.8516101261e+00 1.6463778739e+00 2.8516101261e+00 
59400 6.4665475197e+00 -7.1366918242e-05 1.6463778739e+00 -2.8516101261e+00 1.6463778739e+00 2.8516101261e+00 
59500 6.4665475187e+00 -7.0289741392e-05 1.6463800413e+00 -2.8516138801e+00 1.6463800413e+00 2.8516138801e+00 
59600 6.4665475178e+00 -7.1519683664e-05 1.6463800413e+00 -2.8516138801e+00 1.6463800413e+00 2.8516138801e+00 
59700 6.4665475168e+00 -7.0396228558e-05 1.6463822133e+00 -2.8516176422e+00 1.6463822133e+00 2.8516176422e+00 
59800 6.4665475160e+00 -7.1585505755e-05 1.6463822133e+00 -2.8516176422e+00 1.6463822133e+00 2.8516176422e+00 
59900 6.4665475150e+00 -7.0419896098e-05 1.6463843874e+00 -2.8516214077e+00 1.6463843874e+00 2.8516214077e+00 
60000 6.4665475142e+00 -7.1569823430e-05 1.6463843874e+00 -2.8516214077e+00 1.6463843874e+00 2.8516214077e+00 
60100 6.4665475132e+00 -7.0366058118e-05 1.6463865609e+00 -2.8516251724e+00 1.6463865609e+00 2.8516251724e+00 
60200 6.4665475124e+00 -7.1477998710e-05 1.6463865609e+00 -2.8516251724e+00 1.6463865609e+00 2.8516251724e+00 
60300 6.4665475115e+00 -7.0239944962e-05 1.6463887317e+00 -2.8516289323e+00 1.6463887317e+00 2.8516289323e+00 
60400 6.4665475107e+00 -7.1315300594e-05 1.6463887317e+00 -2.8516289323e+00 1.6463887317e+00 2.8516289323e+00 
60500 6.4665475098e+00 -7.0046687870e-05 1.6463908975e+00 -2.8516326835e+00 1.6463908975e+00 2.8516326835e+00 
60600 6.4665475091e+00 -7.1086889998e-05 1.6463908975e+00 -2.8516326835e+00 1.6463908975e+00 2.8516326835e+00 
60700 6.4665475082e+00 -6.9791304664e-05 1.6463930563e+00 -2.8516364228e+00 1.6463930563e+00 2.8516364228e+00 
60800 6.4665475075e+00 -7.0797805714e-05 1.6463930563e+00 -2.8516364228e+00 1.6463930563e+00 2.8516364228e+00 
60900 6.4665475066e+00 -6.9478686526e-05 1.6463952064e+00 -2.8516401469e+00 1.6463952064e+00 2.8516401469e+00 
61000 6.4665475059e+00 -7.0452951558e-05 1.6463952064e+00 -2.8516401469e+00 1.6463952064e+00 2.8516401469e+00 
61100 6.4665475052e+00 -7.1415711633e-05 1.6463952064e+00 -2.8516401469e+00 1.6463952064e+00 2.8516401469e+00 
61200 6.4665475044e+00 -7.0034018602e-05 1.6463973753e+00 -2.8516439034e+00 1.6463973753e+00 2.8516439034e+00 
61300 6.4665475037e+00 -7.0967156936e-05 1.6463973753e+00 -2.8516439034e+00 1.6463973753e+00 2.8516439034e+00 
61400 6.4665475029e+00 -6.9571174603e-05 1.6463995305e+00 -2.8516476364e+00 1.6463995305e+00 2.8516476364e+00 
61500 6.4665475023e+00 -7.0476079355e-05 1.6463995305e+00 -2.8516476364e+00 1.6463995305e+00 2.8516476364e+00 
61600 6.4665475016e+00 -7.1371449896e-05 1.6463995305e+00 -2.8516476364e+00 1.6463995305e+00 2.8516476364e+00 
61700 6.4665475008e+00 -6.9925765628e-05 1.6464016980e+00 -2.8516513906e+00 1.6464016980e+00 2.8516513906e+00 
61800 6.4665475002e+00 -7.0795373379e-05 1.6464016980e+00 -2.8516513906e+00 1.6464016980e+00 2.8516513906e+00 
61900 6.4665474995e+00 -6.9343363364e-05 1.6464038480e+00 -2.8516551145e+00 1.6464038480e+00 2.8516551145e+00 
62000 6.4665474989e+00 -7.0188483670e-05 1.6464038480e+00 -2.8516551145e+00 1.6464038480e+00 2.8516551145e+00 
62100 6.4665474983e+00 -7.1025881719e-05 1.6464038480e+00 -2.8516551145e+00 1.6464038480e+00 2.8516551145e+00 
62200 6.4665474975e+00 -6.9535302156e-05 1.6464060050e+00 -2.8516588506e+00 1.6464060050e+00 2.8516588506e+00 
62300 6.4665474970e+00 -7.0350491097e-05 1.6464060050e+00 -2.8516588506e+00 1.6464060050e+00 2.8516588506e+00 
62400 6.4665474964e+00 -7.1159063592e-05 1.6464060050e+00 -2.8516588506e+00 1.6464060050e+00 2.8516588506e+00 
62500 6.4665474957e+00 -6.9636386264e-05 1.6464081661e+00 -2.8516625936e+00 1.6464081661e+00 2.8516625936e+00 
62600 6.4665474952e+00 -7.0424852385e-05 1.6464081661e+00 -2.8516625936e+00 1.6464081661e+00 2.8516625936e+00 
62700 6.4665474947e+00 -7.1207712851e-05 1.6464081661e+00 -2.8516625936e+00 1.6464081661e+00 2.8516625936e+00 
62800 6.4665474940e+00 -6.9658717399e-05 1.6464103286e+00 -2.8516663392e+00 1.6464103286e+00 2.8516663392e+00 
62900 6.4665474934e+00 -7.0423390807e-05 1.6464103286e+00 -2.8516663392e+00 1.6464103286e+00 2.8516663392e+00 
63000 6.4665474929e+00 -7.1183371944e-05 1.6464103286e+00 -2.8516663392e+00 1.6464103286e+00 2.8516663392e+00 
63100 6.4665474923e+00 -6.9613178186e-05 1.6464124904e+00 -2.8516700835e+00 1.6464124904e+00 2.8516700835e+00 
63200 6.4665474918e+00 -7.0356703687e-05 1.6464124904e+00 -2.8516700835e+00 1.6464124904e+00 2.8516700835e+00 
63300 6.4665474913e+00 -7.1096352057e-05 1.6464124904e+00 -2.8516700835e+00 1.6464124904e+00 2.8516700835e+00 
63400 6.4665474907e+00 -6.9509456390e-05 1.6464146495e+00 -2.8516738232e+00 1.6464146495e+00 2.8516738232e+00 
63500 6.4665474902e+00 -7.0234191261e-05 1.6464146495e+00 -2.8516738232e+00 1.6464146495e+00 2.8516738232e+00 
63600 6.4665474897e+00 -7.0955766463e-05 1.6464146495e+00 -2.8516738232e+00 1.6464146495e+00 2.8516738232e+00 
63700 6.4665474891e+00 -6.9356081556e-05 1.6464168043e+00 -2.8516775556e+00 1.6464168043e+00 2.8516775556e+00 
63800 6.4665474887e+00 -7.0064097537e-05 1.6464168043e+00 -2.8516775556e+00 1.6464168043e+00 2.8516775556e+00 
63900 6.4665474882e+00 -7.0769575463e-05 1.6464168043e+00 -2.8516775556e+00 1.6464168043e+00 2.8516775556e+00 
64000 6.4665474876e+00 -6.9160472389e-05 1.6464189535e+00 -2.8516812781e+00 1.6464189535e+00 2.8516812781e+00 
64100 6.4665474872e+00 -6.9853561458e-05 1.6464189535e+00 -2.8516812781e+00 1.6464189535e+00 2.8516812781e+00 
64200 6.4665474868e+00 -7.0544641203e-05 1.6464189535e+00 -2.8516812781e+00 1.6464189535e+00 2.8516812781e+00 
64300 6.4665474864e+00 -7.1234060781e-05 1.6464189535e+00 -2.8516812781e+00 1.6464189535e+00 2.8516812781e+00 
64400 6.4665474858e+00 -6.9594554013e-05 1.6464211168e+00 -2.8516850250e+00 1.6464211168e+00 2.8516850250e+00 
64500 6.4665474854e+00 -7.0273133618e-05 1.6464211168e+00 -2.8516850250e+00 1.6464211168e+00 2.8516850250e+00 
64600 6.4665474850e+00 -7.0950427899e-05 1.6464211168e+00 -2.8516850250e+00 1.6464211168e+00 2.8516850250e+00 
64700 6.4665474845e+00 -6.9308415963e-05 1.6464232715e+00 -2.8516887571e+00 1.6464232715e+00 2.8516887571e+00 
64800 6.4665474841e+00 -6.9975569254e-05 1.6464232715e+00 -2.8516887571e+00 1.6464232715e+00 2.8516887571e+00 
64900 6.4665474837e+00 -7.0641731074e-05 1.6464232715e+00 -2.8516887571e+00 1.6464232715e+00 2.8516887571e+00 
65000 6.4665474833e+00 -7.1307175641e-05 1.6464232715e+00 -2.8516887571e+00 1.6464232715e+00 2.8516887571e+00 
65100 6.4665474828e+00 -6.9642185543e-05 1.6464254370e+00 -2.8516925078e+00 1.6464254370e+00 2.8516925078e+00 
65200 6.4665474825e+00 -7.0298448736e-05 1.6464254370e+00 -2.8516925078e+00 1.6464254370e+00 2.8516925078e+00 
65300 6.4665474821e+00 -7.0954153629e-05 1.6464254370e+00 -2.8516925078e+00 1.6464254370e+00 2.8516925078e+00 
65400 6.4665474816e+00 -6.9291100770e-05 1.6464275918e+00 -2.8516962401e+00 1.6464275918e+00 2.8516962401e+00 
65500 6.4665474813e+00 -6.9937915038e-05 1.6464275918e+00 -2.8516962401e+00 1.6464275918e+00 2.8516962401e+00 
65600 6.4665474809e+00 -7.0584265139e-05 1.6464275918e+00 -2.8516962401e+00 1.6464275918e+00 2.8516962401e+00 
65700 6.4665474806e+00 -7.1230362424e-05 1.6464275918e+00 -2.8516962401e+00 1.6464275918e+00 2.8516962401e+00 
65800 6.4665474801e+00 -6.9548950476e-05 1.6464297550e+00 -2.8516999868e+00 1.6464297550e+00 2.8516999868e+00 
65900 6.4665474798e+00 -7.0186623585e-05 1.6464297550e+00 -2.8516999868e+00 1.6464297550e+00 2.8516999868e+00 
66000 6.4665474795e+00 -7.0824026482e-05 1.6464297550e+00 -2.8516999868e+00 1.6464297550e+00 2.8516999868e+00 
66100 6.4665474790e+00 -6.9147168915e-05 1.6464319059e+00 -2.8517037122e+00 1.6464319059e+00 2.8517037122e+00 
66200 6.4665474787e+00 -6.9776109872e-05 1.6464319059e+00 -2.8517037122e+00 1.6464319059e+00 2.8517037122e+00 
66300 6.4665474784e+00 -7.0404716802e-05 1.6464319059e+00 -2.8517037122e+00 1.6464319059e+00 2.8517037122e+00 
66400 6.4665474781e+00 -7.1033152125e-05 1.6464319059e+00 -2.8517037122e+00 1.6464319059e+00 2.8517037122e+00 
66500 6.4665474777e+00 -6.9340569142e-05 1.6464340630e+00 -2.8517074485e+00 1.6464340630e+00 2.8517074485e+00 
66600 6.4665474774e+00 -6.9960627748e-05 1.6464340630e+00 -2.8517074485e+00 1.6464340630e+00 2.8517074485e+00 
66700 6.4665474771e+00 -7.0580364564e-05 1.6464340630e+00 -2.8517074485e+00 1.6464340630e+00 2.8517074485e+00 
66800 6.4665474769e+00 -7.1199916223e-05 1.6464340630e+00 -2.8517074485e+00 1.6464340630e+00 2.8517074485e+00 
66900 6.4665474764e+00 -6.9492968854e-05 1.6464362253e+00 -2.8517111936e+00 1.6464362253e+00 2.8517111936e+00 
67000 6.4665474762e+00 -7.0104024263e-05 1.6464362253e+00 -2.8517111936e+00 1.6464362253e+00 2.8517111936e+00 
67100 6.4665474759e+00 -7.0714672821e-05 1.6464362253e+00 -2.8517111936e+00 1.6464362253e+00 2.8517111936e+00 
67200 6.4665474755e+00 -6.9014455212e-05 1.6464383728e+00 -2.8517149132e+00 1.6464383728e+00 2.8517149132e+00 
67300 6.4665474752e+00 -6.9616199934e-05 1.6464383728e+00 -2.8517149132e+00 1.6464383728e+00 2.8517149132e+00 
67400 6.4665474750e+00 -7.0217299642e-05 1.6464383728e+00 -2.8517149132e+00 1.6464383728e+00 2.8517149132e+00 
67500 6.4665474748e+00 -7.0817864767e-05 1.6464383728e+00 -2.8517149132e+00 1.6464383728e+00 2.8517149132e+00 
67600 6.4665474743e+00 -6.9104054288e-05 1.6464405234e+00 -2.8517186382e+00 1.6464405234e+00 2.8517186382e+00 
67700 6.4665474741e+00 -6.9695399226e-05 1.6464405234e+00 -2.8517186382e+00 1.6464405234e+00 2.8517186382e+00 
67800 6.4665474739e+00 -7.0285924163e-05 1.6464405234e+00 -2.8517186382e+00 1.6464405234e+00 2.8517186382e+00 
67900 6.4665474737e+00 -7.0875726226e-05 1.6464405234e+00 -2.8517186382e+00 1.6464405234e+00 2.8517186382e+00 
68000 6.4665474733e+00 -6.9149068340e-05 1.6464426758e+00 -2.8517223663e+00 1.6464426758e+00 2.8517223663e+00 
68100 6.4665474731e+00 -6.9729231016e-05 1.6464426758e+00 -2.8517223663e+00 1.6464426758e+00 2.8517223663e+00 
68200 6.4665474729e+00 -7.0308351251e-05 1.6464426758e+00 -2.8517223663e+00 1.6464426758e+00 2.8517223663e+00 
68300 6.4665474727e+00 -7.0886516974e-05 1.6464426758e+00 -2.8517223663e+00 1.6464426758e+00 2.8517223663e+00 
68400 6.4665474723e+00 -6.9147637244e-05 1.6464448286e+00 -2.8517260949e+00 1.6464448286e+00 2.8517260949e+00 
68500 6.4665474721e+00 -6.9715675307e-05 1.6464448286e+00 -2.8517260949e+00 1.6464448286e+00 2.8517260949e+00 
68600 6.4665474719e+00 -7.0282417373e-05 1.6464448286e+00 -2.8517260949e+00 1.6464448286e+00 2.8517260949e+00 
68700 6.4665474717e+00 -7.0847945950e-05 1.6464448286e+00 -2.8517260949e+00 1.6464448286e+00 2.8517260949e+00 
68800 6.4665474713e+00 -6.9097432880e-05 1.6464469801e+00 -2.8517298215e+00 1.6464469801e+00 2.8517298215e+00 
68900 6.4665474712e+00 -6.9652307676e-05 1.6464469801e+00 -2.8517298215e+00 1.6464469801e+00 2.8517298215e+00 
69000 6.4665474710e+00 -7.0205616747e-05 1.6464469801e+00 -2.8517298215e+00 1.6464469801e+00 2.8517298215e+00 
69100 6.4665474708e+00 -7.0757440555e-05 1.6464469801e+00 -2.8517298215e+00 1.6464469801e+00 2.8517298215e+00 
69200 6.4665474705e+00 -6.8995914006e-05 1.6464491289e+00 -2.8517335433e+00 1.6464491289e+00 2.8517335433e+00 
69300 6.4665474703e+00 -6.9536548276e-05 1.6464491289e+00 -2.8517335433e+00 1.6464491289e+00 2.8517335433e+00 
69400 6.4665474701e+00 -7.0075344250e-05 1.6464491289e+00 -2.8517335433e+00 1.6464491289e+00 2.8517335433e+00 
69500 6.4665474700e+00 -7.0612383306e-05 1.6464491289e+00 -2.8517335433e+00 1.6464491289e+00 2.8517335433e+00 
69600 6.4665474698e+00 -7.1147739868e-05 1.6464491289e+00 -2.8517335433e+00 1.6464491289e+00 2.8517335433e+00 
69700 6.4665474695e+00 -6.9356797912e-05 1.6464512895e+00 -2.8517372857e+00 1.6464512895e+00 2.8517372857e+00 
69800 6.4665474693e+00 -6.9880509173e-05 1.6464512895e+00 -2.8517372857e+00 1.6464512895e+00 2.8517372857e+00 
69900 6.4665474692e+00 -7.0402168656e-05 1.6464512895e+00 -2.8517372857e+00 1.6464512895e+00 2.8517372857e+00 
70000 6.4665474690e+00 -7.0921855055e-05 1.6464512895e+00 -2.8517372857e+00 1.6464512895e+00 2.8517372857e+00 
70100 6.4665474687e+00 -6.9122345120e-05 1.6464534433e+00 -2.8517410161e+00 1.6464534433e+00 2.8517410161e+00 
70200 6.4665474685e+00 -6.9629847110e-05 1.6464534433e+00 -2.8517410161e+00 1.6464534433e+00 2.8517410161e+00 
70300 6.4665474684e+00 -7.0135024764e-05 1.6464534433e+00 -2.8517410161e+00 1.6464534433e+00 2.8517410161e+00 
70400 6.4665474683e+00 -7.0637963159e-05 1.6464534433e+00 -2.8517410161e+00 1.6464534433e+00 2.8517410161e+00 
70500 6.4665474681e+00 -7.1138741635e-05 1.6464534433e+00 -2.8517410161e+00 1.6464534433e+00 2.8517410161e+00 
70600 6.4665474678e+00 -6.9313058762e-05 1.6464556037e+00 -2.8517447580e+00 1.6464556037e+00 2.8517447580e+00 
70700 6.4665474677e+00 -6.9801257542e-05 1.6464556037e+00 -2.8517447580e+00 1.6464556037e+00 2.8517447580e+00 
70800 6.4665474676e+00 -7.0286948755e-05 1.6464556037e+00 -2.8517447580e+00 1.6464556037e+00 2.8517447580e+00 
70900 6.4665474675e+00 -7.0770220372e-05 1.6464556037e+00 -2.8517447580e+00 1.6464556037e+00 2.8517447580e+00 
71000 6.4665474672e+00 -6.8938828363e-05 1.6464577528e+00 -2.8517484804e+00 1.6464577528e+00 2.8517484804e+00 
71100 6.4665474670e+00 -6.9409072202e-05 1.6464577528e+00 -2.8517484804e+00 1.6464577528e+00 2.8517484804e+00 
71200 6.4665474669e+00 -6.9876579736e-05 1.6464577528e+00 -2.8517484804e+00 1.6464577528e+00 2.8517484804e+00 
71300 6.4665474668e+00 -7.0341448766e-05 1.6464577528e+00 -2.8517484804e+00 1.6464577528e+00 2.8517484804e+00 
71400 6.4665474667e+00 -7.0803772114e-05 1.6464577528e+00 -2.8517484804e+00 1.6464577528e+00 2.8517484804e+00 
71500 6.4665474664e+00 -6.8950221778e-05 1.6464599030e+00 -2.8517522047e+00 1.6464599030e+00 2.8517522047e+00 
71600 6.4665474663e+00 -6.9399276974e-05 1.6464599030e+00 -2.8517522047e+00 1.6464599030e+00 2.8517522047e+00 
71700 6.4665474662e+00 -6.9845485880e-05 1.6464599030e+00 -2.8517522047e+00 1.6464599030e+00 2.8517522047e+00 
71800 6.4665474661e+00 -7.0288952299e-05 1.6464599030e+00 -2.8517522047e+00 1.6464599030e+00 2.8517522047e+00 
71900 6.4665474660e+00 -7.0729775286e-05 1.6464599030e+00 -2.8517522047e+00 1.6464599030e+00 2.8517522047e+00 
72000 6.4665474657e+00 -6.8857058158e-05 1.6464620510e+00 -2.8517559250e+00 1.6464620510e+00 2.8517559250e+00 
72100 6.4665474656e+00 -6.9284445850e-05 1.6464620510e+00 -2.8517559250e+00 1.6464620510e+00 2.8517559250e+00 
72200 6.4665474655e+00 -6.9708909988e-05 1.6464620510e+00 -2.8517559250e+00 1.6464620510e+00 2.8517559250e+00 
72300 6.4665474654e+00 -7.0130561321e-05 1.6464620510e+00 -2.8517559250e+00 1.6464620510e+00 2.8517559250e+00 
72400 6.4665474653e+00 -7.0549505984e-05 1.6464620510e+00 -2.8517559250e+00 1.6464620510e+00 2.8517559250e+00 
72500 6.4665474653e+00 -7.0965845511e-05 1.6464620510e+00 -2.8517559250e+00 1.6464620510e+00 2.8517559250e+00 
72600 6.4665474650e+00 -6.9060979522e-05 1.6464642061e+00 -2.8517596577e+00 1.6464642061e+00 2.8517596577e+00 
72700 6.4665474649e+00 -6.9463940211e-05 1.6464642061e+00 -2.8517596577e+00 1.6464642061e+00 2.8517596577e+00 
72800 6.4665474648e+00 -6.9864022026e-05 1.6464642061e+00 -2.8517596577e+00 1.6464642061e+00 2.8517596577e+00 
72900 6.4665474647e+00 -7.0261338779e-05 1.6464642061e+00 -2.8517596577e+00 1.6464642061e+00 2.8517596577e+00 
73000 6.4665474647e+00 -7.0655999769e-05 1.6464642061e+00 -2.8517596577e+00 1.6464642061e+00 2.8517596577e+00 
73100 6.4665474646e+00 -7.1048109774e-05 1.6464642061e+00 -2.8517596577e+00 1.6464642061e+00 2.8517596577e+00 
73200 6.4665474643e+00 -6.9116390879e-05 1.6464663637e+00 -2.8517633948e+00 1.6464663637e+00 2.8517633948e+00 
73300 6.4665474643e+00 -6.9495230604e-05 1.6464663637e+00 -2.8517633948e+00 1.6464663637e+00 2.8517633948e+00 
73400 6.4665474642e+00 -6.9871255141e-05 1.6464663637e+00 -2.8517633948e+00 1.6464663637e+00 2.8517633948e+00 
73500 6.4665474641e+00 -7.0244581838e-05 1.6464663637e+00 -2.8517633948e+00 1.6464663637e+00 2.8517633948e+00 
73600 6.4665474640e+00 -7.0615323568e-05 1.6464663637e+00 -2.8517633948e+00 1.6464663637e+00 2.8517633948e+00 
73700 6.4665474640e+00 -7.0983588718e-05 1.6464663637e+00 -2.8517633948e+00 1.6464663637e+00 2.8517633948e+00 
73800 6.4665474637e+00 -6.9030218117e-05 1.6464685193e+00 -2.8517671285e+00 1.6464685193e+00 2.8517671285e+00 
73900 6.4665474637e+00 -6.9385380404e-05 1.6464685193e+00 -2.8517671285e+00 1.6464685193e+00 2.8517671285e+00 
74000 6.4665474636e+00 -6.9737813349e-05 1.6464685193e+00 -2.8517671285e+00 1.6464685193e+00 2.8517671285e+00 
74100 6.4665474635e+00 -7.0087637928e-05 1.6464685193e+00 -2.8517671285e+00 1.6464685193e+00 2.8517671285e+00 
74200 6.4665474635e+00 -7.0434970631e-05 1.6464685193e+00 -2.8517671285e+00 1.6464685193e+00 2.8517671285e+00 
74300 6.4665474634e+00 -7.0779923451e-05 1.6464685193e+00 -2.8517671285e+00 1.6464685193e+00 2.8517671285e+00 
74400 6.4665474632e+00 -6.8810002150e-05 1.6464706687e+00 -2.8517708514e+00 1.6464706687e+00 2.8517708514e+00 
74500 6.4665474631e+00 -6.9142080491e-05 1.6464706687e+00 -2.8517708514e+00 1.6464706687e+00 2.8517708514e+00 
74600 6.4665474631e+00 -6.9471538433e-05 1.6464706687e+00 -2.8517708514e+00 1.6464706687e+00 2.8517708514e+00 
74700 6.4665474630e+00 -6.9798500342e-05 1.6464706687e+00 -2.8517708514e+00 1.6464706687e+00 2.8517708514e+00 
74800 6.4665474630e+00 -7.0123086057e-05 1.6464706687e+00 -2.8517708514e+00 1.6464706687e+00 2.8517708514e+00 
74900 6.4665474629e+00 -7.0445410864e-05 1.6464706687e+00 -2.8517708514e+00 1.6464706687e+00 2.8517708514e+00 
75000 6.4665474629e+00 -7.0765585486e-05 1.6464706687e+00 -2.8517708514e+00 1.6464706687e+00 2.8517708514e+00 
75100 6.4665474626e+00 -6.8771589498e-05 1.6464728178e+00 -2.8517745736e+00 1.6464728178e+00 2.8517745736e+00 
75200 6.4665474626e+00 -6.9079346696e-05 1.6464728178e+00 -2.8517745736e+00 1.6464728178e+00 2.8517745736e+00 
75300 6.4665474625e+00 -6.9384709122e-05 1.6464728178e+00 -2.8517745736e+00 1.6464728178e+00 2.8517745736e+00 
75400 6.4665474625e+00 -6.9687799632e-05 1.6464728178e+00 -2.8517745736e+00 1.6464728178e+00 2.8517745736e+00 
75500 6.4665474625e+00 -6.9988736495e-05 1.6464728178e+00 -2.8517745736e+00 1.6464728178e+00 2.8517745736e+00 
75600 6.4665474624e+00 -7.0287633386e-05 1.6464728178e+00 -2.8517745736e+00 1.6464728178e+00 2.8517745736e+00 
75700 6.4665474624e+00 -7.0584599370e-05 1.6464728178e+00 -2.8517745736e+00 1.6464728178e+00 2.8517745736e+00 
75800 6.4665474623e+00 -7.0879738895e-05 1.6464728178e+00 -2.8517745736e+00 1.6464728178e+00 2.8517745736e+00 
75900 6.4665474621e+00 -6.8857301991e-05 1.6464749702e+00 -2.8517783018e+00 1.6464749702e+00 2.8517783018e+00 
76000 6.4665474621e+00 -6.9140639023e-05 1.6464749702e+00 -2.8517783018e+00 1.6464749702e+00 2.8517783018e+00 
76100 6.4665474620e+00 -6.9421885126e-05 1.6464749702e+00 -2.8517783018e+00 1.6464749702e+00 2.8517783018e+00 
76200 6.4665474620e+00 -6.9701156840e-05 1.6464749702e+00 -2.8517783018e+00 1.6464749702e+00 2.8517783018e+00 
76300 6.4665474620e+00 -6.9978566130e-05 1.6464749702e+00 -2.8517783018e+00 1.6464749702e+00 2.8517783018e+00 
76400 6.4665474619e+00 -7.0254220370e-05 1.6464749702e+00 -2.8517783018e+00 1.6464749702e+00 2.8517783018e+00 
76500 6.4665474619e+00 -7.0528222344e-05 1.6464749702e+00 -2.8517783018e+00 1.6464749702e+00 2.8517783018e+00 
76600 6.4665474619e+00 -7.0800670252e-05 1.6464749702e+00 -2.8517783018e+00 1.6464749702e+00 2.8517783018e+00 
76700 6.4665474616e+00 -6.8758397873e-05 1.6464771203e+00 -2.8517820258e+00 1.6464771203e+00 2.8517820258e+00 
76800 6.4665474616e+00 -6.9019578927e-05 1.6464771203e+00 -2.8517820258e+00 1.6464771203e+00 2.8517820258e+00 
76900 6.4665474616e+00 -6.9278923566e-05 1.6464771203e+00 -2.8517820258e+00 1.6464771203e+00 2.8517820258e+00 
77000 6.4665474616e+00 -6.9536542241e-05 1.6464771203e+00 -2.8517820258e+00 1.6464771203e+00 2.8517820258e+00 
77100 6.4665474615e+00 -6.9792540888e-05 1.6464771203e+00 -2.8517820258e+00 1.6464771203e+00 2.8517820258e+00 
77200 6.4665474615e+00 -7.0047020928e-05 1.6464771203e+00 -2.8517820258e+00 1.6464771203e+00 2.8517820258e+00 
77300 6.4665474615e+00 -7.0300079271e-05 1.6464771203e+00 -2.8517820258e+00 1.6464771203e+00 2.8517820258e+00 
77400 6.4665474614e+00 -7.0551808322e-05 1.6464771203e+00 -2.8517820258e+00 1.6464771203e+00 2.8517820258e+00 
77500 6.4665474614e+00 -7.0802296007e-05 1.6464771203e+00 -2.8517820258e+00 1.6464771203e+00 2.8517820258e+00 
77600 6.4665474612e+00 -6.8738319231e-05 1.6464792704e+00 -2.8517857500e+00 1.6464792704e+00 2.8517857500e+00 
77700 6.4665474612e+00 -6.8978134928e-05 1.6464792704e+00 -2.8517857500e+00 1.6464792704e+00 2.8517857500e+00 
77800 6.4665474612e+00 -6.9216396798e-05 1.6464792704e+00 -2.8517857500e+00 1.6464792704e+00 2.8517857500e+00 
77900 6.4665474611e+00 -6.9453205531e-05 1.6464792704e+00 -2.8517857500e+00 1.6464792704e+00 2.8517857500e+00 
78000 6.4665474611e+00 -6.9688657468e-05 1.6464792704e+00 -2.8517857500e+00 1.6464792704e+00 2.8517857500e+00 
78100 6.4665474611e+00 -6.9922844597e-05 1.6464792704e+00 -2.8517857500e+00 1.6464792704e+00 2.8517857500e+00 
78200 6.4665474611e+00 -7.0155854567e-05 1.6464792704e+00 -2.8517857500e+00 1.6464792704e+00 2.8517857500e+00 
78300 6.4665474611e+00 -7.0387770707e-05 1.6464792704e+00 -2.8517857500e+00 1.6464792704e+00 2.8517857500e+00 
78400 6.4665474610e+00 -7.0618672054e-05 1.6464792704e+00 -2.8517857500e+00 1.6464792704e+00 2.8517857500e+00 
78500 6.4665474610e+00 -7.0848633376e-05 1.6464792704e+00 -2.8517857500e+00 1.6464792704e+00 2.8517857500e+00 
78600 6.4665474608e+00 -6.8762911047e-05 1.6464814219e+00 -2.8517894765e+00 1.6464814219e+00 2.8517894765e+00 
78700 6.4665474608e+00 -6.8982759094e-05 1.6464814219e+00 -2.8517894765e+00 1.6464814219e+00 2.8517894765e+00 
78800 6.4665474608e+00 -6.9201316304e-05 1.6464814219e+00 -2.8517894765e+00 1.6464814219e+00 2.8517894765e+00 
78900 6.4665474608e+00 -6.9418671241e-05 1.6464814219e+00 -2.8517894765e+00 1.6464814219e+00 2.8517894765e+00 
79000 6.4665474607e+00 -6.9634908395e-05 1.6464814219e+00 -2.8517894765e+00 1.6464814219e+00 2.8517894765e+00 
79100 6.4665474607e+00 -6.9850108196e-05 1.6464814219e+00 -2.8517894765e+00 1.6464814219e+00 2.8517894765e+00 
79200 6.4665474607e+00 -7.0064347021e-05 1.6464814219e+00 -2.8517894765e+00 1.6464814219e+00 2.8517894765e+00 
79300 6.4665474607e+00 -7.0277697235e-05 1.6464814219e+00 -2.8517894765e+00 1.6464814219e+00 2.8517894765e+00 
79400 6.4665474607e+00 -7.0490227212e-05 1.6464814219e+00 -2.8517894765e+00 1.6464814219e+00 2.8517894765e+00 
79500 6.4665474607e+00 -7.0702001375e-05 1.6464814219e+00 -2.8517894765e+00 1.6464814219e+00 2.8517894765e+00 
79600 6.4665474607e+00 -7.0913080240e-05 1.6464814219e+00 -2.8517894765e+00 1.6464814219e+00 2.8517894765e+00 
79700 6.4665474605e+00 -6.8806607003e-05 1.6464835754e+00 -2.8517932064e+00 1.6464835754e+00 2.8517932064e+00 
79800 6.4665474605e+00 -6.9008013123e-05 1.6464835754e+00 -2.8517932064e+00 1.6464835754e+00 2.8517932064e+00 
79900 6.4665474604e+00 -6.9208332103e-05 1.6464835754e+00 -2.8517932064e+00 1.6464835754e+00 2.8517932064e+00 
80000 6.4665474604e+00 -6.9407639798e-05 1.6464835754e+00 -2.8517932064e+00 1.6464835754e+00 2.8517932064e+00 
80100 6.4665474604e+00 -6.9606008382e-05 1.6464835754e+00 -2.8517932064e+00 1.6464835754e+00 2.8517932064e+00 
80200 6.4665474604e+00 -6.9803506368e-05 1.6464835754e+00 -2.8517932064e+00 1.6464835754e+00 2.8517932064e+00 
80300 6.4665474604e+00 -7.0000198630e-05 1.6464835754e+00 -2.8517932064e+00 1.6464835754e+00 2.8517932064e+00 
80400 6.4665474604e+00 -7.0196146434e-05 1.6464835754e+00 -2.8517932064e+00 1.6464835754e+00 2.8517932064e+00 
80500 6.4665474604e+00 -7.0391407471e-05 1.6464835754e+00 -2.8517932064e+00 1.6464835754e+00 2.8517932064e+00 
80600 6.4665474604e+00 -7.0586035897e-05 1.6464835754e+00 -2.8517932064e+00 1.6464835754e+00 2.8517932064e+00 
80700 6.4665474604e+00 -7.0780082373e-05 1.6464835754e+00 -2.8517932064e+00 1.6464835754e+00 2.8517932064e+00 
80800 6.4665474602e+00 -6.8661032601e-05 1.6464857248e+00 -2.8517969293e+00 1.6464857248e+00 2.8517969293e+00 
80900 6.4665474602e+00 -6.8845621018e-05 1.6464857248e+00 -2.8517969293e+00 1.6464857248e+00 2.8517969293e+00 
81000 6.4665474602e+00 -6.9029209627e-05 1.6464857248e+00 -2.8517969293e+00 1.6464857248e+00 2.8517969293e+00 
81100 6.4665474602e+00 -6.9211866035e-05 1.6464857248e+00 -2.8517969293e+00 1.6464857248e+00 2.8517969293e+00 
81200 6.4665474601e+00 -6.9393654585e-05 1.6464857248e+00 -2.8517969293e+00 1.6464857248e+00 2.8517969293e+00 
81300 6.4665474601e+00 -6.9574636363e-05 1.6464857248e+00 -2.8517969293e+00 1.6464857248e+00 2.8517969293e+00 
81400 6.4665474601e+00 -6.9754869229e-05 1.6464857248e+00 -2.8517969293e+00 1.6464857248e+00 2.8517969293e+00 
81500 6.4665474601e+00 -6.9934407831e-05 1.6464857248e+00 -2.8517969293e+00 1.6464857248e+00 2.8517969293e+00 
81600 6.4665474601e+00 -7.0113303643e-05 1.6464857248e+00 -2.8517969293e+00 1.6464857248e+00 2.8517969293e+00 
81700 6.4665474601e+00 -7.0291604997e-05 1.6464857248e+00 -2.8517969293e+00 1.6464857248e+00 2.8517969293e+00 
81800 6.4665474601e+00 -7.0469357117e-05 1.6464857248e+00 -2.8517969293e+00 1.6464857248e+00 2.8517969293e+00 
81900 6.4665474601e+00 -7.0646602171e-05 1.6464857248e+00 -2.8517969293e+00 1.6464857248e+00 2.8517969293e+00 
82000 6.4665474601e+00 -7.0823379305e-05 1.6464857248e+00 -2.8517969293e+00 1.6464857248e+00 2.8517969293e+00 
82100 6.4665474599e+00 -6.8685755012e-05 1.6464878756e+00 -2.8518006545e+00 1.6464878756e+00 2.8518006545e+00 
82200 6.4665474599e+00 -6.8853264394e-05 1.6464878756e+00 -2.8518006545e+00 1.6464878756e+00 2.8518006545e+00 
82300 6.4665474599e+00 -6.9019855991e-05 1.6464878756e+00 -2.8518006545e+00 1.6464878756e+00 2.8518006545e+00 
82400 6.4665474599e+00 -6.9185587823e-05 1.6464878756e+00 -2.8518006545e+00 1.6464878756e+00 2.8518006545e+00 
82500 6.4665474599e+00 -6.9350515119e-05 1.6464878756e+00 -2.8518006545e+00 1.6464878756e+00 2.8518006545e+00 
82600 6.4665474599e+00 -6.9514690330e-05 1.6464878756e+00 -2.8518006545e+00 1.6464878756e+00 2.8518006545e+00 
82700 6.4665474599e+00 -6.9678163141e-05 1.6464878756e+00 -2.8518006545e+00 1.6464878756e+00 2.8518006545e+00 
82800 6.4665474599e+00 -6.9840980496e-05 1.6464878756e+00 -2.8518006545e+00 1.6464878756e+00 2.8518006545e+00 
82900 6.4665474599e+00 -7.0003186623e-05 1.6464878756e+00 -2.8518006545e+00 1.6464878756e+00 2.8518006545e+00 
83000 6.4665474599e+00 -7.0164823062e-05 1.6464878756e+00 -2.8518006545e+00 1.6464878756e+00 2.8518006545e+00 
83100 6.4665474599e+00 -7.0325928698e-05 1.6464878756e+00 -2.8518006545e+00 1.6464878756e+00 2.8518006545e+00 
83200 6.4665474599e+00 -7.0486539800e-05 1.6464878756e+00 -2.8518006545e+00 1.6464878756e+00 2.8518006545e+00 
83300 6.4665474599e+00 -7.0646690051e-05 1.6464878756e+00 -2.8518006545e+00 1.6464878756e+00 2.8518006545e+00 
83400 6.4665474599e+00 -7.0806410598e-05 1.6464878756e+00 -2.8518006545e+00 1.6464878756e+00 2.8518006545e+00 
83500 6.4665474597e+00 -6.8652321387e-05 1.6464900258e+00 -2.8518043788e+00 1.6464900258e+00 2.8518043788e+00 
83600 6.4665474597e+00 -6.8802830559e-05 1.6464900258e+00 -2.8518043788e+00 1.6464900258e+00 2.8518043788e+00 
83700 6.4665474597e+00 -6.8952439113e-05 1.6464900258e+00 -2.8518043788e+00 1.6464900258e+00 2.8518043788e+00 
83800 6.4665474597e+00 -6.9101198927e-05 1.6464900258e+00 -2.8518043788e+00 1.6464900258e+00 2.8518043788e+00 
83900 6.4665474597e+00 -6.9249159530e-05 1.6464900258e+00 -2.8518043788e+00 1.6464900258e+00 2.8518043788e+00 
84000 6.4665474597e+00 -6.9396368116e-05 1.6464900258e+00 -2.8518043788e+00 1.6464900258e+00 2.8518043788e+00 
84100 6.4665474597e+00 -6.9542869546e-05 1.6464900258e+00 -2.8518043788e+00 1.6464900258e+00 2.8518043788e+00 
84200 6.4665474597e+00 -6.9688706370e-05 1.6464900258e+00 -2.8518043788e+00 1.6464900258e+00 2.8518043788e+00 
84300 6.4665474597e+00 -6.9833918836e-05 1.6464900258e+00 -2.8518043788e+00 1.6464900258e+00 2.8518043788e+00 
84400 6.4665474597e+00 -6.9978544909e-05 1.6464900258e+00 -2.8518043788e+00 1.6464900258e+00 2.8518043788e+00 
84500 6.4665474597e+00 -7.0122620304e-05 1.6464900258e+00 -2.8518043788e+00 1.6464900258e+00 2.8518043788e+00 
84600 6.4665474597e+00 -7.0266178496e-05 1.6464900258e+00 -2.8518043788e+00 1.6464900258e+00 2.8518043788e+00 
84700 6.4665474597e+00 -7.0409250766e-05 1.6464900258e+00 -2.8518043788e+00 1.6464900258e+00 2.8518043788e+00 
84800 6.4665474597e+00 -7.0551866222e-05 1.6464900258e+00 -2.8518043788e+00 1.6464900258e+00 2.8518043788e+00 
84900 6.4665474597e+00 -7.0694051836e-05 1.6464900258e+00 -2.8518043788e+00 1.6464900258e+00 2.8518043788e+00 
85000 6.4665474597e+00 -7.0835832485e-05 1.6464900258e+00 -2.8518043788e+00 1.6464900258e+00 2.8518043788e+00 
85100 6.4665474595e+00 -6.8662867583e-05 1.6464921769e+00 -2.8518081047e+00 1.6464921769e+00 2.8518081047e+00 
85200 6.4665474595e+00 -6.8795465760e-05 1.6464921769e+00 -2.8518081047e+00 1.6464921769e+00 2.8518081047e+00 
85300 6.4665474595e+00 -6.8927171578e-05 1.6464921769e+00 -2.8518081047e+00 1.6464921769e+00 2.8518081047e+00 
85400 6.4665474595e+00 -6.9058032345e-05 1.6464921769e+00 -2.8518081047e+00 1.6464921769e+00 2.8518081047e+00 
85500 6.4665474595e+00 -6.9188093425e-05 1.6464921769e+00 -2.8518081047e+00 1.6464921769e+00 2.8518081047e+00 
85600 6.4665474595e+00 -6.9317398240e-05 1.6464921769e+00 -2.8518081047e+00 1.6464921769e+00 2.8518081047e+00 
85700 6.4665474595e+00 -6.9445988271e-05 1.6464921769e+00 -2.8518081047e+00 1.6464921769e+00 2.8518081047e+00 
85800 6.4665474595e+00 -6.9573903062e-05 1.6464921769e+00 -2.8518081047e+00 1.6464921769e+00 2.8518081047e+00 
85900 6.4665474595e+00 -6.9701180221e-05 1.6464921769e+00 -2.8518081047e+00 1.6464921769e+00 2.8518081047e+00 
86000 6.4665474595e+00 -6.9827855441e-05 1.6464921769e+00 -2.8518081047e+00 1.6464921769e+00 2.8518081047e+00 
86100 6.4665474595e+00 -6.9953962505e-05 1.6464921769e+00 -2.8518081047e+00 1.6464921769e+00 2.8518081047e+00 
86200 6.4665474595e+00 -7.0079533303e-05 1.6464921769e+00 -2.8518081047e+00 1.6464921769e+00 2.8518081047e+00 
86300 6.4665474596e+00 -7.0204597855e-05 1.6464921769e+00 -2.8518081047e+00 1.6464921769e+00 2.8518081047e+00 
86400 6.4665474596e+00 -7.0329184327e-05 1.6464921769e+00 -2.8518081047e+00 1.6464921769e+00 2.8518081047e+00 
86500 6.4665474596e+00 -7.0453319059e-05 1.6464921769e+00 -2.8518081047e+00 1.6464921769e+00 2.8518081047e+00 
86600 6.4665474596e+00 -7.0577026588e-05 1.6464921769e+00 -2.8518081047e+00 1.6464921769e+00 2.8518081047e+00 
86700 6.4665474596e+00 -7.0700329678e-05 1.6464921769e+00 -2.8518081047e+00 1.6464921769e+00 2.8518081047e+00 
86800 6.4665474596e+00 -7.0823249348e-05 1.6464921769e+00 -2.8518081047e+00 1.6464921769e+00 2.8518081047e+00 
86900 6.4665474594e+00 -6.8631859269e-05 1.6464943277e+00 -2.8518118299e+00 1.6464943277e+00 2.8518118299e+00 
87000 6.4665474594e+00 -6.8745630911e-05 1.6464943277e+00 -2.8518118299e+00 1.6464943277e+00 2.8518118299e+00 
87100 6.4665474594e+00 -6.8858522341e-05 1.6464943277e+00 -2.8518118299e+00 1.6464943277e+00 2.8518118299e+00 
87200 6.4665474594e+00 -6.8970578350e-05 1.6464943277e+00 -2.8518118299e+00 1.6464943277e+00 2.8518118299e+00 
87300 6.4665474594e+00 -6.9081842108e-05 1.6464943277e+00 -2.8518118299e+00 1.6464943277e+00 2.8518118299e+00 
87400 6.4665474594e+00 -6.9192355151e-05 1.6464943277e+00 -2.8518118299e+00 1.6464943277e+00 2.8518118299e+00 
87500 6.4665474594e+00 -6.9302157367e-05 1.6464943277e+00 -2.8518118299e+00 1.6464943277e+00 2.8518118299e+00 
87600 6.4665474594e+00 -6.9411287005e-05 1.6464943277e+00 -2.8518118299e+00 1.6464943277e+00 2.8518118299e+00 
87700 6.4665474594e+00 -6.9519780661e-05 1.6464943277e+00 -2.8518118299e+00 1.6464943277e+00 2.8518118299e+00 
87800 6.4665474594e+00 -6.9627673282e-05 1.6464943277e+00 -2.8518118299e+00 1.6464943277e+00 2.8518118299e+00 
87900 6.4665474594e+00 -6.9734998172e-05 1.6464943277e+00 -2.8518118299e+00 1.6464943277e+00 2.8518118299e+00 
88000 6.4665474594e+00 -6.9841786994e-05 1.6464943277e+00 -2.8518118299e+00 1.6464943277e+00 2.8518118299e+00 
88100 6.4665474594e+00 -6.9948069787e-05 1.6464943277e+00 -2.8518118299e+00 1.6464943277e+00 2.8518118299e+00 
88200 6.4665474594e+00 -7.0053874968e-05 1.6464943277e+00 -2.8518118299e+00 1.6464943277e+00 2.8518118299e+00 
88300 6.4665474594e+00 -7.0159229357e-05 1.6464943277e+00 -2.8518118299e+00 1.6464943277e+00 2.8518118299e+00 
88400 6.4665474594e+00 -7.0264158177e-05 1.6464943277e+00 -2.8518118299e+00 1.6464943277e+00 2.8518118299e+00 
88500 6.4665474594e+00 -7.0368685091e-05 1.6464943277e+00 -2.8518118299e+00 1.6464943277e+00 2.8518118299e+00 
88600 6.4665474594e+00 -7.0424970359e-05 1.6464943277e+00 -2.8518118299e+00 1.6464943277e+00 2.8518118299e+00 
88600 6.4665474594e+00 -7.0424970359e-05 1.6464943277e+00 -2.8518118299e+00 1.6464943277e+00 2.8518118299e+00 
