# step Hamiltonian StressXX CellTensor1 CellTensor2 CellTensor3 CellTensor4 
0 5.8967211662e+00 2.3882145530e-01 2.8237630504e+00 -4.8909010719e+00 2.8237630504e+00 4.8909010719e+00 
100 5.9219468100e+00 2.8795581746e-01 2.8237630504e+00 -4.8909010719e+00 2.8237630504e+00 4.8909010719e+00 
200 5.9453946610e+00 3.3311984719e-01 2.8186657920e+00 -4.8820723613e+00 2.8186657920e+00 4.8820723613e+00 
300 5.9679403154e+00 3.7426734319e-01 2.8127586850e+00 -4.8718409518e+00 2.8127586850e+00 4.8718409518e+00 
400 5.9897544006e+00 4.1178728793e-01 2.8061082842e+00 -4.8603221198e+00 2.8061082842e+00 4.8603221198e+00 
500 6.0109913841e+00 4.4608659670e-01 2.7987741524e+00 -4.8476190308e+00 2.7987741524e+00 4.8476190308e+00 
600 6.0317757251e+00 4.7757250231e-01 2.7908086241e+00 -4.8338223312e+00 2.7908086241e+00 4.8338223312e+00 
700 6.0521913758e+00 5.0663398692e-01 2.7822568424e+00 -4.8190102107e+00 2.7822568424e+00 4.8190102107e+00 
800 6.0722735465e+00 5.3362125677e-01 2.7731570937e+00 -4.8032489836e+00 2.7731570937e+00 4.8032489836e+00 
900 6.0920004216e+00 5.5881912881e-01 2.7635414894e+00 -4.7865942684e+00 2.7635414894e+00 4.7865942684e+00 
1000 6.1112810418e+00 5.8240539583e-01 2.7534371154e+00 -4.7690929794e+00 2.7534371154e+00 4.7690929794e+00 
1100 6.1299337845e+00 6.0437840323e-01 2.7428679414e+00 -4.7507866329e+00 2.7428679414e+00 4.7507866329e+00 
1200 6.1476484878e+00 6.2443117157e-01 2.7318580754e+00 -4.7317169856e+00 2.7318580754e+00 4.7317169856e+00 
1300 6.1639276344e+00 6.4175395870e-01 2.7204373876e+00 -4.7119357742e+00 2.7204373876e+00 4.7119357742e+00 
1400 6.1780181474e+00 6.5480082341e-01 2.7086508970e+00 -4.6915209736e+00 2.7086508970e+00 4.6915209736e+00 
1500 6.1888935324e+00 6.6123149536e-01 2.6965727137e+00 -4.6706009465e+00 2.6965727137e+00 4.6706009465e+00 
1600 6.1954240462e+00 6.5852788953e-01 2.6843214562e+00 -4.6493811460e+00 2.6843214562e+00 4.6493811460e+00 
1700 6.1968566167e+00 6.4566786907e-01 2.6720646519e+00 -4.6281517382e+00 2.6720646519e+00 4.6281517382e+00 
1800 6.1933832733e+00 6.2481468477e-01 2.6599919820e+00 -4.6072412605e+00 2.6599919820e+00 4.6072412605e+00 
1900 6.1861776478e+00 6.0066621525e-01 2.6482559907e+00 -4.5869139273e+00 2.6482559907e+00 4.5869139273e+00 
2000 6.1767369903e+00 5.7755071375e-01 2.6369233313e+00 -4.5672851855e+00 2.6369233313e+00 4.5672851855e+00 
2100 6.1662248583e+00 5.5748436457e-01 2.6259797199e+00 -4.5483302946e+00 2.6259797199e+00 4.5483302946e+00 
2200 6.1553088423e+00 5.4051140812e-01 2.6153721121e+00 -4.5299573788e+00 2.6153721121e+00 4.5299573788e+00 
2300 6.1443094522e+00 5.2585796756e-01 2.6050455879e+00 -4.5120713142e+00 2.6050455879e+00 4.5120713142e+00 
2400 6.1333708023e+00 5.1269353995e-01 2.5949590642e+00 -4.4946009427e+00 2.5949590642e+00 4.4946009427e+00 
2500 6.1225608311e+00 5.0039408534e-01 2.5850867118e+00 -4.4775015268e+00 2.5850867118e+00 4.4775015268e+00 
2600 6.1119165254e+00 4.8855662682e-01 2.5754142960e+00 -4.4607484113e+00 2.5754142960e+00 4.4607484113e+00 
2700 6.1014618718e+00 4.7694247938e-01 2.5659351292e+00 -4.4443300128e+00 2.5659351292e+00 4.4443300128e+00 
2800 6.0912146019e+00 4.6541936813e-01 2.5566470238e+00 -4.4282425422e+00 2.5566470238e+00 4.4282425422e+00 
2900 6.0811887264e+00 4.5391942865e-01 2.5475503004e+00 -4.4124865550e+00 2.5475503004e+00 4.4124865550e+00 
3000 6.0713955508e+00 4.4241227889e-01 2.5386465716e+00 -4.3970648445e+00 2.5386465716e+00 4.3970648445e+00 
3100 6.0618441469e+00 4.3088872551e-01 2.5299380273e+00 -4.3819812034e+00 2.5299380273e+00 4.3819812034e+00 
3200 6.0525416295e+00 4.1935119936e-01 2.5214270248e+00 -4.3672397145e+00 2.5214270248e+00 4.3672397145e+00 
3300 6.0434933562e+00 4.0780824014e-01 2.5131158596e+00 -4.3528443541e+00 2.5131158596e+00 4.3528443541e+00 
3400 6.0347030972e+00 3.9627135697e-01 2.5050066414e+00 -4.3387987763e+00 2.5050066414e+00 4.3387987763e+00 
3500 6.0261731881e+00 3.8475326470e-01 2.4971012301e+00 -4.3251062022e+00 2.4971012301e+00 4.3251062022e+00 
3600 6.0179046720e+00 3.7326691064e-01 2.4894012056e+00 -4.3117693685e+00 2.4894012056e+00 4.3117693685e+00 
3700 6.0098974332e+00 3.6182495281e-01 2.4819078576e+00 -4.2987905091e+00 2.4819078576e+00 4.2987905091e+00 
3800 6.0021503223e+00 3.5043949450e-01 2.4746221858e+00 -4.2861713554e+00 2.4746221858e+00 4.2861713554e+00 
3900 5.9946612734e+00 3.3912196300e-01 2.4675449056e+00 -4.2739131464e+00 2.4675449056e+00 4.2739131464e+00 
4000 5.9874274133e+00 3.2788306789e-01 2.4606764566e+00 -4.2620166438e+00 2.4606764566e+00 4.2620166438e+00 
4100 5.9804451638e+00 3.1673280239e-01 2.4540170133e+00 -4.2504821497e+00 2.4540170133e+00 4.2504821497e+00 
4200 5.9737103346e+00 3.0568046639e-01 2.4475664954e+00 -4.2393095249e+00 2.4475664954e+00 4.2393095249e+00 
4300 5.9672182111e+00 2.9473469970e-01 2.4413245781e+00 -4.2284982070e+00 2.4413245781e+00 4.2284982070e+00 
4400 5.9609636331e+00 2.8390351860e-01 2.4352907032e+00 -4.2180472292e+00 2.4352907032e+00 4.2180472292e+00 
4500 5.9549410681e+00 2.7319435244e-01 2.4294640890e+00 -4.2079552373e+00 2.4294640890e+00 4.2079552373e+00 
4600 5.9491446776e+00 2.6261407831e-01 2.4238437397e+00 -4.1982205068e+00 2.4238437397e+00 4.1982205068e+00 
4700 5.9435683773e+00 2.5216905293e-01 2.4184284559e+00 -4.1888409602e+00 2.4184284559e+00 4.1888409602e+00 
4800 5.9382058919e+00 2.4186514176e-01 2.4132168431e+00 -4.1798141819e+00 2.4132168431e+00 4.1798141819e+00 
4900 5.9330508042e+00 2.3170774499e-01 2.4082073211e+00 -4.1711374353e+00 2.4082073211e+00 4.1711374353e+00 
5000 5.9280965998e+00 2.2170182096e-01 2.4033981329e+00 -4.1628076770e+00 2.4033981329e+00 4.1628076770e+00 
5100 5.9233367065e+00 2.1185190702e-01 2.3987873534e+00 -4.1548215727e+00 2.3987873534e+00 4.1548215727e+00 
5200 5.9187645299e+00 2.0216213819e-01 2.3943728981e+00 -4.1471755119e+00 2.3943728981e+00 4.1471755119e+00 
5300 5.9143734848e+00 1.9263626399e-01 2.3901525316e+00 -4.1398656225e+00 2.3901525316e+00 4.1398656225e+00 
5400 5.9101570229e+00 1.8327766356e-01 2.3861238757e+00 -4.1328877858e+00 2.3861238757e+00 4.1328877858e+00 
5500 5.9061086572e+00 1.7408935935e-01 2.3822844183e+00 -4.1262376505e+00 2.3822844183e+00 4.1262376505e+00 
5600 5.9022219833e+00 1.6507402974e-01 2.3786315213e+00 -4.1199106474e+00 2.3786315213e+00 4.1199106474e+00 
5700 5.8984906976e+00 1.5623402050e-01 2.3751624292e+00 -4.1139020037e+00 2.3751624292e+00 4.1139020037e+00 
5800 5.8949086130e+00 1.4757135559e-01 2.3718742770e+00 -4.1082067569e+00 2.3718742770e+00 4.1082067569e+00 
5900 5.8914696724e+00 1.3908774715e-01 2.3687640983e+00 -4.1028197694e+00 2.3687640983e+00 4.1028197694e+00 
6000 5.8881679590e+00 1.3078460505e-01 2.3658288339e+00 -4.0977357423e+00 2.3658288339e+00 4.0977357423e+00 
6100 5.8849977062e+00 1.2266304597e-01 2.3630653392e+00 -4.0929492291e+00 2.3630653392e+00 4.0929492291e+00 
6200 5.8819533039e+00 1.1472390218e-01 2.3604703926e+00 -4.0884546497e+00 2.3604703926e+00 4.0884546497e+00 
6300 5.8790293043e+00 1.0696773007e-01 2.3580407032e+00 -4.0842463043e+00 2.3580407032e+00 4.0842463043e+00 
6400 5.8762204256e+00 9.9394818537e-02 2.3557729187e+00 -4.0803183862e+00 2.3557729187e+00 4.0803183862e+00 
6500 5.8735215547e+00 9.2005197336e-02 2.3536636328e+00 -4.0766649959e+00 2.3536636328e+00 4.0766649959e+00 
6600 5.8709277483e+00 8.4798645334e-02 2.3517093932e+00 -4.0732801537e+00 2.3517093932e+00 4.0732801537e+00 
6700 5.8684342331e+00 7.7774698849e-02 2.3499067087e+00 -4.0701578125e+00 2.3499067087e+00 4.0701578125e+00 
6800 5.8660364052e+00 7.0932660044e-02 2.3482520565e+00 -4.0672918709e+00 2.3482520565e+00 4.0672918709e+00 
6900 5.8637298281e+00 6.4271605431e-02 2.3467418896e+00 -4.0646761851e+00 2.3467418896e+00 4.0646761851e+00 
7000 5.8615102309e+00 5.7790394508e-02 2.3453726433e+00 -4.0623045810e+00 2.3453726433e+00 4.0623045810e+00 
7100 5.8593735047e+00 5.1487678561e-02 2.3441407425e+00 -4.0601708661e+00 2.3441407425e+00 4.0601708661e+00 
7200 5.8573156997e+00 4.5361909631e-02 2.3430426075e+00 -4.0582688406e+00 2.3430426075e+00 4.0582688406e+00 
7300 5.8553330207e+00 3.9411349663e-02 2.3420746613e+00 -4.0565923085e+00 2.3420746613e+00 4.0565923085e+00 
7400 5.8534218233e+00 3.3634079843e-02 2.3412333348e+00 -4.0551350883e+00 2.3412333348e+00 4.0551350883e+00 
7500 5.8515786093e+00 2.8028010102e-02 2.3405150732e+00 -4.0538910227e+00 2.3405150732e+00 4.0538910227e+00 
7600 5.8498000215e+00 2.2590888803e-02 2.3399163415e+00 -4.0528539889e+00 2.3399163415e+00 4.0528539889e+00 
7700 5.8480828397e+00 1.7320312570e-02 2.3394336295e+00 -4.0520179073e+00 2.3394336295e+00 4.0520179073e+00 
7800 5.8464239750e+00 1.2213736264e-02 2.3390634575e+00 -4.0513767506e+00 2.3390634575e+00 4.0513767506e+00 
7900 5.8448204653e+00 7.2684830614e-03 2.3388023806e+00 -4.0509245521e+00 2.3388023806e+00 4.0509245521e+00 
8000 5.8432694704e+00 2.4817546280e-03 2.3386469934e+00 -4.0506554135e+00 2.3386469934e+00 4.0506554135e+00 
8100 5.8417682670e+00 -2.1493586571e-03 2.3385939339e+00 -4.0505635118e+00 2.3385939339e+00 4.0505635118e+00 
8200 5.8403142441e+00 -6.6278674526e-03 2.3386398882e+00 -4.0506431069e+00 2.3386398882e+00 4.0506431069e+00 
8300 5.8389048984e+00 -1.0956873216e-02 2.3387815931e+00 -4.0508885470e+00 2.3387815931e+00 4.0508885470e+00 
8400 5.8375378300e+00 -1.5139558013e-02 2.3390158402e+00 -4.0512942749e+00 2.3390158402e+00 4.0512942749e+00 
8500 5.8362107382e+00 -1.9179174410e-02 2.3393394786e+00 -4.0518548330e+00 2.3393394786e+00 4.0518548330e+00 
8600 5.8349214171e+00 -2.3079035487e-02 2.3397494177e+00 -4.0525648684e+00 2.3397494177e+00 4.0525648684e+00 
8700 5.8336677521e+00 -2.6842505007e-02 2.3402426296e+00 -4.0534191365e+00 2.3402426296e+00 4.0534191365e+00 
8800 5.8324477163e+00 -3.0472987783e-02 2.3408161513e+00 -4.0544125053e+00 2.3408161513e+00 4.0544125053e+00 
8900 5.8312593669e+00 -3.3973920265e-02 2.3414670867e+00 -4.0555399584e+00 2.3414670867e+00 4.0555399584e+00 
9000 5.8301008421e+00 -3.7348761397e-02 2.3421926078e+00 -4.0567965977e+00 2.3421926078e+00 4.0567965977e+00 
9100 5.8289703578e+00 -4.0600983759e-02 2.3429899563e+00 -4.0581776460e+00 2.3429899563e+00 4.0581776460e+00 
9200 5.8278662055e+00 -4.3734065030e-02 2.3438564450e+00 -4.0596784484e+00 2.3438564450e+00 4.0596784484e+00 
9300 5.8267867487e+00 -4.6751479798e-02 2.3447894579e+00 -4.0612944741e+00 2.3447894579e+00 4.0612944741e+00 
9400 5.8257304214e+00 -4.9656691738e-02 2.3457864513e+00 -4.0630213173e+00 2.3457864513e+00 4.0630213173e+00 
9500 5.8246957250e+00 -5.2453146178e-02 2.3468449539e+00 -4.0648546977e+00 2.3468449539e+00 4.0648546977e+00 
9600 5.8236812269e+00 -5.5144263070e-02 2.3479625673e+00 -4.0667904609e+00 2.3479625673e+00 4.0667904609e+00 
9700 5.8226855579e+00 -5.7733430378e-02 2.3491369655e+00 -4.0688245781e+00 2.3491369655e+00 4.0688245781e+00 
9800 5.8217074108e+00 -6.0223997891e-02 2.3503658947e+00 -4.0709531460e+00 2.3503658947e+00 4.0709531460e+00 
9900 5.8207455383e+00 -6.2619271482e-02 2.3516471732e+00 -4.0731723855e+00 2.3516471732e+00 4.0731723855e+00 
10000 5.8197987516e+00 -6.4922507792e-02 2.3529786905e+00 -4.0754786410e+00 2.3529786905e+00 4.0754786410e+00 
10100 5.8188659190e+00 -6.7136909364e-02 2.3543584065e+00 -4.0778683793e+00 2.3543584065e+00 4.0778683793e+00 
10200 5.8179459639e+00 -6.9265620210e-02 2.3557843509e+00 -4.0803381874e+00 2.3557843509e+00 4.0803381874e+00 
10300 5.8170378639e+00 -7.1311721817e-02 2.3572546217e+00 -4.0828847711e+00 2.3572546217e+00 4.0828847711e+00 
10400 5.8161406493e+00 -7.3278229573e-02 2.3587673845e+00 -4.0855049532e+00 2.3587673845e+00 4.0855049532e+00 
10500 5.8152534014e+00 -7.5168089616e-02 2.3603208710e+00 -4.0881956708e+00 2.3603208710e+00 4.0881956708e+00 
10600 5.8143752521e+00 -7.6984176092e-02 2.3619133777e+00 -4.0909539733e+00 2.3619133777e+00 4.0909539733e+00 
10700 5.8135053818e+00 -7.8729288800e-02 2.3635432644e+00 -4.0937770199e+00 2.3635432644e+00 4.0937770199e+00 
10800 5.8126430185e+00 -8.0406151223e-02 2.3652089527e+00 -4.0966620767e+00 2.3652089527e+00 4.0966620767e+00 
10900 5.8117874367e+00 -8.2017408923e-02 2.3669089246e+00 -4.0996065144e+00 2.3669089246e+00 4.0996065144e+00 
11000 5.8109379561e+00 -8.3565628283e-02 2.3686417207e+00 -4.1026078051e+00 2.3686417207e+00 4.1026078051e+00 
11100 5.8100939402e+00 -8.5053295576e-02 2.3704059384e+00 -4.1056635198e+00 2.3704059384e+00 4.1056635198e+00 
11200 5.8092547955e+00 -8.6482816357e-02 2.3722002305e+00 -4.1087713250e+00 2.3722002305e+00 4.1087713250e+00 
11300 5.8084199700e+00 -8.7856515136e-02 2.3740233035e+00 -4.1119289801e+00 2.3740233035e+00 4.1119289801e+00 
11400 5.8075889519e+00 -8.9176635335e-02 2.3758739155e+00 -4.1151343340e+00 2.3758739155e+00 4.1151343340e+00 
11500 5.8067612686e+00 -9.0445339501e-02 2.3777508747e+00 -4.1183853227e+00 2.3777508747e+00 4.1183853227e+00 
11600 5.8059364855e+00 -9.1664709750e-02 2.3796530375e+00 -4.1216799654e+00 2.3796530375e+00 4.1216799654e+00 
11700 5.8051142046e+00 -9.2836748441e-02 2.3815793071e+00 -4.1250163621e+00 2.3815793071e+00 4.1250163621e+00 
11800 5.8042940631e+00 -9.3963379035e-02 2.3835286312e+00 -4.1283926906e+00 2.3835286312e+00 4.1283926906e+00 
11900 5.8034757327e+00 -9.5046447153e-02 2.3855000009e+00 -4.1318072030e+00 2.3855000009e+00 4.1318072030e+00 
12000 5.8026589176e+00 -9.6087721787e-02 2.3874924483e+00 -4.1352582231e+00 2.3874924483e+00 4.1352582231e+00 
12100 5.8018433540e+00 -9.7088896666e-02 2.3895050454e+00 -4.1387441435e+00 2.3895050454e+00 4.1387441435e+00 
12200 5.8010288082e+00 -9.8051591746e-02 2.3915369022e+00 -4.1422634228e+00 2.3915369022e+00 4.1422634228e+00 
12300 5.8002150756e+00 -9.8977354829e-02 2.3935871651e+00 -4.1458145823e+00 2.3935871651e+00 4.1458145823e+00 
12400 5.7994019796e+00 -9.9867663269e-02 2.3956550153e+00 -4.1493962038e+00 2.3956550153e+00 4.1493962038e+00 
12500 5.7985893700e+00 -1.0072392577e-01 2.3977396671e+00 -4.1530069267e+00 2.3977396671e+00 4.1530069267e+00 
12600 5.7977771218e+00 -1.0154748428e-01 2.3998403668e+00 -4.1566454453e+00 2.3998403668e+00 4.1566454453e+00 
12700 5.7969651344e+00 -1.0233961588e-01 2.4019563907e+00 -4.1603105062e+00 2.4019563907e+00 4.1603105062e+00 
12800 5.7961533297e+00 -1.0310153482e-01 2.4040870440e+00 -4.1640009061e+00 2.4040870440e+00 4.1640009061e+00 
12900 5.7953416514e+00 -1.0383439450e-01 2.4062316596e+00 -4.1677154892e+00 2.4062316596e+00 4.1677154892e+00 
13000 5.7945300634e+00 -1.0453928955e-01 2.4083895960e+00 -4.1714531447e+00 2.4083895960e+00 4.1714531447e+00 
13100 5.7937185489e+00 -1.0521725788e-01 2.4105602368e+00 -4.1752128049e+00 2.4105602368e+00 4.1752128049e+00 
13200 5.7929071094e+00 -1.0586928276e-01 2.4127429892e+00 -4.1789934428e+00 2.4127429892e+00 4.1789934428e+00 
13300 5.7920957628e+00 -1.0649629491e-01 2.4149372824e+00 -4.1827940702e+00 2.4149372824e+00 4.1827940702e+00 
13400 5.7912845432e+00 -1.0709917455e-01 2.4171425671e+00 -4.1866137354e+00 2.4171425671e+00 4.1866137354e+00 
13500 5.7904734991e+00 -1.0767875351e-01 2.4193583140e+00 -4.1904515215e+00 2.4193583140e+00 4.1904515215e+00 
13600 5.7896626930e+00 -1.0823581720e-01 2.4215840125e+00 -4.1943065445e+00 2.4215840125e+00 4.1943065445e+00 
13700 5.7888521995e+00 -1.0877110671e-01 2.4238191704e+00 -4.1981779514e+00 2.4238191704e+00 4.1981779514e+00 
13800 5.7880421052e+00 -1.0928532074e-01 2.4260633121e+00 -4.2020649189e+00 2.4260633121e+00 4.2020649189e+00 
13900 5.7872325071e+00 -1.0977911758e-01 2.4283159782e+00 -4.2059666511e+00 2.4283159782e+00 4.2059666511e+00 
14000 5.7864235118e+00 -1.1025311704e-01 2.4305767246e+00 -4.2098823788e+00 2.4305767246e+00 4.2098823788e+00 
14100 5.7856152349e+00 -1.1070790232e-01 2.4328451214e+00 -4.2138113572e+00 2.4328451214e+00 4.2138113572e+00 
14200 5.7848077996e+00 -1.1114402185e-01 2.4351207521e+00 -4.2177528653e+00 2.4351207521e+00 4.2177528653e+00 
14300 5.7840013363e+00 -1.1156199105e-01 2.4374032132e+00 -4.2217062038e+00 2.4374032132e+00 4.2217062038e+00 
14400 5.7831959817e+00 -1.1196229416e-01 2.4396921130e+00 -4.2256706945e+00 2.4396921130e+00 4.2256706945e+00 
14500 5.7823918777e+00 -1.1234538582e-01 2.4419870712e+00 -4.2296456787e+00 2.4419870712e+00 4.2296456787e+00 
14600 5.7815891711e+00 -1.1271169283e-01 2.4442877182e+00 -4.2336305163e+00 2.4442877182e+00 4.2336305163e+00 
14700 5.7807880127e+00 -1.1306161564e-01 2.4465936946e+00 -4.2376245845e+00 2.4465936946e+00 4.2376245845e+00 
14800 5.7799885564e+00 -1.1339552996e-01 2.4489046503e+00 -4.2416272773e+00 2.4489046503e+00 4.2416272773e+00 
14900 5.7791909591e+00 -1.1371378822e-01 2.4512202444e+00 -4.2456380038e+00 2.4512202444e+00 4.2456380038e+00 
15000 5.7783953795e+00 -1.1401672102e-01 2.4535401442e+00 -4.2496561881e+00 2.4535401442e+00 4.2496561881e+00 
15100 5.7776019780e+00 -1.1430463847e-01 2.4558640250e+00 -4.2536812678e+00 2.4558640250e+00 4.2536812678e+00 
15200 5.7768109158e+00 -1.1457783157e-01 2.4581915699e+00 -4.2577126938e+00 2.4581915699e+00 4.2577126938e+00 
15300 5.7760223547e+00 -1.1483657344e-01 2.4605224688e+00 -4.2617499291e+00 2.4605224688e+00 4.2617499291e+00 
15400 5.7752364564e+00 -1.1508112059e-01 2.4628564183e+00 -4.2657924483e+00 2.4628564183e+00 4.2657924483e+00 
15500 5.7744533820e+00 -1.1531171403e-01 2.4651931217e+00 -4.2698397373e+00 2.4651931217e+00 4.2698397373e+00 
15600 5.7736732918e+00 -1.1552858043e-01 2.4675322880e+00 -4.2738912921e+00 2.4675322880e+00 4.2738912921e+00 
15700 5.7728963447e+00 -1.1573193318e-01 2.4698736318e+00 -4.2779466185e+00 2.4698736318e+00 4.2779466185e+00 
15800 5.7721226981e+00 -1.1592197341e-01 2.4722168734e+00 -4.2820052320e+00 2.4722168734e+00 4.2820052320e+00 
15900 5.7713525072e+00 -1.1609889095e-01 2.4745617380e+00 -4.2860666567e+00 2.4745617380e+00 4.2860666567e+00 
16000 5.7705859248e+00 -1.1626286525e-01 2.4769079558e+00 -4.2901304252e+00 2.4769079558e+00 4.2901304252e+00 
16100 5.7698231013e+00 -1.1641406630e-01 2.4792552616e+00 -4.2941960781e+00 2.4792552616e+00 4.2941960781e+00 
16200 5.7690641840e+00 -1.1655265537e-01 2.4816033946e+00 -4.2982631638e+00 2.4816033946e+00 4.2982631638e+00 
16300 5.7683093170e+00 -1.1667878592e-01 2.4839520983e+00 -4.3023312379e+00 2.4839520983e+00 4.3023312379e+00 
16400 5.7675586413e+00 -1.1679260422e-01 2.4863011202e+00 -4.3063998631e+00 2.4863011202e+00 4.3063998631e+00 
16500 5.7668122941e+00 -1.1689425014e-01 2.4886502117e+00 -4.3104686089e+00 2.4886502117e+00 4.3104686089e+00 
16600 5.7660704087e+00 -1.1698385779e-01 2.4909991279e+00 -4.3145370511e+00 2.4909991279e+00 4.3145370511e+00 
16700 5.7653331148e+00 -1.1706155614e-01 2.4933476277e+00 -4.3186047721e+00 2.4933476277e+00 4.3186047721e+00 
16800 5.7646005377e+00 -1.1712746958e-01 2.4956954734e+00 -4.3226713601e+00 2.4956954734e+00 4.3226713601e+00 
16900 5.7638727987e+00 -1.1718171854e-01 2.4980424305e+00 -4.3267364091e+00 2.4980424305e+00 4.3267364091e+00 
17000 5.7631500147e+00 -1.1722441993e-01 2.5003882682e+00 -4.3307995191e+00 2.5003882682e+00 4.3307995191e+00 
17100 5.7624322982e+00 -1.1725568766e-01 2.5027327584e+00 -4.3348602954e+00 2.5027327584e+00 4.3348602954e+00 
17200 5.7617197570e+00 -1.1727563311e-01 2.5050756766e+00 -4.3389183487e+00 2.5050756766e+00 4.3389183487e+00 
17300 5.7610124946e+00 -1.1728436551e-01 2.5074168011e+00 -4.3429732953e+00 2.5074168011e+00 4.3429732953e+00 
17400 5.7603106096e+00 -1.1728199234e-01 2.5097559132e+00 -4.3470247563e+00 2.5097559132e+00 4.3470247563e+00 
17500 5.7596141962e+00 -1.1726861971e-01 2.5120927973e+00 -4.3510723583e+00 2.5120927973e+00 4.3510723583e+00 
17600 5.7589233435e+00 -1.1724435267e-01 2.5144272406e+00 -4.3551157326e+00 2.5144272406e+00 4.3551157326e+00 
17700 5.7582381362e+00 -1.1720929554e-01 2.5167590332e+00 -4.3591545158e+00 2.5167590332e+00 4.3591545158e+00 
17800 5.7575586540e+00 -1.1716355216e-01 2.5190879679e+00 -4.3631883492e+00 2.5190879679e+00 4.3631883492e+00 
17900 5.7568849722e+00 -1.1710722621e-01 2.5214138407e+00 -4.3672168790e+00 2.5214138407e+00 4.3672168790e+00 
18000 5.7562171609e+00 -1.1704042136e-01 2.5237364500e+00 -4.3712397564e+00 2.5237364500e+00 4.3712397564e+00 
18100 5.7555552859e+00 -1.1696324157e-01 2.5260555973e+00 -4.3752566372e+00 2.5260555973e+00 4.3752566372e+00 
18200 5.7548994080e+00 -1.1687579123e-01 2.5283710865e+00 -4.3792671822e+00 2.5283710865e+00 4.3792671822e+00 
18300 5.7542495835e+00 -1.1677817535e-01 2.5306827247e+00 -4.3832710569e+00 2.5306827247e+00 4.3832710569e+00 
18400 5.7536058639e+00 -1.1667049974e-01 2.5329903214e+00 -4.3872679317e+00 2.5329903214e+00 4.3872679317e+00 
18500 5.7529682965e+00 -1.1655287111e-01 2.5352936891e+00 -4.3912574817e+00 2.5352936891e+00 4.3912574817e+00 
18600 5.7523369237e+00 -1.1642539720e-01 2.5375926430e+00 -4.3952393867e+00 2.5375926430e+00 4.3952393867e+00 
18700 5.7517117835e+00 -1.1628818694e-01 2.5398870011e+00 -4.3992133314e+00 2.5398870011e+00 4.3992133314e+00 
18800 5.7510929098e+00 -1.1614135046e-01 2.5421765841e+00 -4.4031790054e+00 2.5421765841e+00 4.4031790054e+00 
18900 5.7504803319e+00 -1.1598499924e-01 2.5444612155e+00 -4.4071361030e+00 2.5444612155e+00 4.4071361030e+00 
19000 5.7498740749e+00 -1.1581924614e-01 2.5467407216e+00 -4.4110843235e+00 2.5467407216e+00 4.4110843235e+00 
19100 5.7492741598e+00 -1.1564420544e-01 2.5490149316e+00 -4.4150233708e+00 2.5490149316e+00 4.4150233708e+00 
19200 5.7486806035e+00 -1.1545999292e-01 2.5512836775e+00 -4.4189529539e+00 2.5512836775e+00 4.4189529539e+00 
19300 5.7480934190e+00 -1.1526672588e-01 2.5535467940e+00 -4.4228727867e+00 2.5535467940e+00 4.4228727867e+00 
19400 5.7475126152e+00 -1.1506452314e-01 2.5558041188e+00 -4.4267825880e+00 2.5558041188e+00 4.4267825880e+00 
19500 5.7469381973e+00 -1.1485350507e-01 2.5580554924e+00 -4.4306820815e+00 2.5580554924e+00 4.4306820815e+00 
19600 5.7463701670e+00 -1.1463379358e-01 2.5603007582e+00 -4.4345709959e+00 2.5603007582e+00 4.4345709959e+00 
19700 5.7458085220e+00 -1.1440551215e-01 2.5625397625e+00 -4.4384490650e+00 2.5625397625e+00 4.4384490650e+00 
19800 5.7452532568e+00 -1.1416878576e-01 2.5647723543e+00 -4.4423160275e+00 2.5647723543e+00 4.4423160275e+00 
19900 5.7447043625e+00 -1.1392374092e-01 2.5669983859e+00 -4.4461716273e+00 2.5669983859e+00 4.4461716273e+00 
20000 5.7441618267e+00 -1.1367050561e-01 2.5692177122e+00 -4.4500156132e+00 2.5692177122e+00 4.4500156132e+00 
20100 5.7436256340e+00 -1.1340920928e-01 2.5714301911e+00 -4.4538477392e+00 2.5714301911e+00 4.4538477392e+00 
20200 5.7430957658e+00 -1.1313998278e-01 2.5736356837e+00 -4.4576677644e+00 2.5736356837e+00 4.4576677644e+00 
20300 5.7425722007e+00 -1.1286295834e-01 2.5758340538e+00 -4.4614754531e+00 2.5758340538e+00 4.4614754531e+00 
20400 5.7420549144e+00 -1.1257826950e-01 2.5780251683e+00 -4.4652705746e+00 2.5780251683e+00 4.4652705746e+00 
20500 5.7415438797e+00 -1.1228605109e-01 2.5802088969e+00 -4.4690529035e+00 2.5802088969e+00 4.4690529035e+00 
20600 5.7410390669e+00 -1.1198643915e-01 2.5823851125e+00 -4.4728222196e+00 2.5823851125e+00 4.4728222196e+00 
20700 5.7405404438e+00 -1.1167957087e-01 2.5845536910e+00 -4.4765783078e+00 2.5845536910e+00 4.4765783078e+00 
20800 5.7400479757e+00 -1.1136558454e-01 2.5867145113e+00 -4.4803209582e+00 2.5867145113e+00 4.4803209582e+00 
20900 5.7395616257e+00 -1.1104461950e-01 2.5888674550e+00 -4.4840499662e+00 2.5888674550e+00 4.4840499662e+00 
21000 5.7390813547e+00 -1.1071681602e-01 2.5910124072e+00 -4.4877651324e+00 2.5910124072e+00 4.4877651324e+00 
21100 5.7386071216e+00 -1.1038231529e-01 2.5931492557e+00 -4.4914662625e+00 2.5931492557e+00 4.4914662625e+00 
21200 5.7381388830e+00 -1.1004125932e-01 2.5952778914e+00 -4.4951531677e+00 2.5952778914e+00 4.4951531677e+00 
21300 5.7376765941e+00 -1.0969379086e-01 2.5973982083e+00 -4.4988256643e+00 2.5973982083e+00 4.4988256643e+00 
21400 5.7372202081e+00 -1.0934005334e-01 2.5995101032e+00 -4.5024835736e+00 2.5995101032e+00 4.5024835736e+00 
21500 5.7367696765e+00 -1.0898019080e-01 2.6016134762e+00 -4.5061267224e+00 2.6016134762e+00 4.5061267224e+00 
21600 5.7363249496e+00 -1.0861434780e-01 2.6037082301e+00 -4.5097549426e+00 2.6037082301e+00 4.5097549426e+00 
21700 5.7358859758e+00 -1.0824266935e-01 2.6057942710e+00 -4.5133680715e+00 2.6057942710e+00 4.5133680715e+00 
21800 5.7354527026e+00 -1.0786530082e-01 2.6078715079e+00 -4.5169659512e+00 2.6078715079e+00 4.5169659512e+00 
21900 5.7350250761e+00 -1.0748238790e-01 2.6099398526e+00 -4.5205484294e+00 2.6099398526e+00 4.5205484294e+00 
22000 5.7346030412e+00 -1.0709407646e-01 2.6119992202e+00 -4.5241153586e+00 2.6119992202e+00 4.5241153586e+00 
22100 5.7341865419e+00 -1.0670051254e-01 2.6140495285e+00 -4.5276665968e+00 2.6140495285e+00 4.5276665968e+00 
22200 5.7337755213e+00 -1.0630184221e-01 2.6160906984e+00 -4.5312020068e+00 2.6160906984e+00 4.5312020068e+00 
22300 5.7333699215e+00 -1.0589821155e-01 2.6181226538e+00 -4.5347214568e+00 2.6181226538e+00 4.5347214568e+00 
22400 5.7329696839e+00 -1.0548976652e-01 2.6201453213e+00 -4.5382248198e+00 2.6201453213e+00 4.5382248198e+00 
22500 5.7325747494e+00 -1.0507665294e-01 2.6221586307e+00 -4.5417119739e+00 2.6221586307e+00 4.5417119739e+00 
22600 5.7321850583e+00 -1.0465901634e-01 2.6241625145e+00 -4.5451828025e+00 2.6241625145e+00 4.5451828025e+00 
22700 5.7318005501e+00 -1.0423700196e-01 2.6261569082e+00 -4.5486371936e+00 2.6261569082e+00 4.5486371936e+00 
22800 5.7314211644e+00 -1.0381075462e-01 2.6281417500e+00 -4.5520750405e+00 2.6281417500e+00 4.5520750405e+00 
22900 5.7310468401e+00 -1.0338041870e-01 2.6301169811e+00 -4.5554962411e+00 2.6301169811e+00 4.5554962411e+00 
23000 5.7306775160e+00 -1.0294613801e-01 2.6320825455e+00 -4.5589006985e+00 2.6320825455e+00 4.5589006985e+00 
23100 5.7303131307e+00 -1.0250805574e-01 2.6340383898e+00 -4.5622883203e+00 2.6340383898e+00 4.5622883203e+00 
23200 5.7299536227e+00 -1.0206631441e-01 2.6359844637e+00 -4.5656590192e+00 2.6359844637e+00 4.5656590192e+00 
23300 5.7295989305e+00 -1.0162105578e-01 2.6379207194e+00 -4.5690127124e+00 2.6379207194e+00 4.5690127124e+00 
23400 5.7292489927e+00 -1.0117242078e-01 2.6398471119e+00 -4.5723493221e+00 2.6398471119e+00 4.5723493221e+00 
23500 5.7289037478e+00 -1.0072054946e-01 2.6417635989e+00 -4.5756687749e+00 2.6417635989e+00 4.5756687749e+00 
23600 5.7285631347e+00 -1.0026558090e-01 2.6436701407e+00 -4.5789710022e+00 2.6436701407e+00 4.5789710022e+00 
23700 5.7282270924e+00 -9.9807653184e-02 2.6455667003e+00 -4.5822559397e+00 2.6455667003e+00 4.5822559397e+00 
23800 5.7278955601e+00 -9.9346903286e-02 2.6474532433e+00 -4.5855235280e+00 2.6474532433e+00 4.5855235280e+00 
23900 5.7275684775e+00 -9.8883467050e-02 2.6493297378e+00 -4.5887737119e+00 2.6493297378e+00 4.5887737119e+00 
24000 5.7272457845e+00 -9.8417479117e-02 2.6511961545e+00 -4.5920064405e+00 2.6511961545e+00 4.5920064405e+00 
24100 5.7269274216e+00 -9.7949072864e-02 2.6530524667e+00 -4.5952216675e+00 2.6530524667e+00 4.5952216675e+00 
24200 5.7266133296e+00 -9.7478380351e-02 2.6548986500e+00 -4.5984193508e+00 2.6548986500e+00 4.5984193508e+00 
24300 5.7263034500e+00 -9.7005532266e-02 2.6567346826e+00 -4.6015994525e+00 2.6567346826e+00 4.6015994525e+00 
24400 5.7259977246e+00 -9.6530657873e-02 2.6585605449e+00 -4.6047619388e+00 2.6585605449e+00 4.6047619388e+00 
24500 5.7256960960e+00 -9.6053884956e-02 2.6603762199e+00 -4.6079067801e+00 2.6603762199e+00 4.6079067801e+00 
24600 5.7253985074e+00 -9.5575339775e-02 2.6621816927e+00 -4.6110339508e+00 2.6621816927e+00 4.6110339508e+00 
24700 5.7251049024e+00 -9.5095147015e-02 2.6639769510e+00 -4.6141434293e+00 2.6639769510e+00 4.6141434293e+00 
24800 5.7248152257e+00 -9.4613429738e-02 2.6657619844e+00 -4.6172351979e+00 2.6657619844e+00 4.6172351979e+00 
24900 5.7245294222e+00 -9.4130309346e-02 2.6675367850e+00 -4.6203092427e+00 2.6675367850e+00 4.6203092427e+00 
25000 5.7242474379e+00 -9.3645905527e-02 2.6693013470e+00 -4.6233655537e+00 2.6693013470e+00 4.6233655537e+00 
25100 5.7239692194e+00 -9.3160336227e-02 2.6710556666e+00 -4.6264041245e+00 2.6710556666e+00 4.6264041245e+00 
25200 5.7236947141e+00 -9.2673717599e-02 2.6727997424e+00 -4.6294249522e+00 2.6727997424e+00 4.6294249522e+00 
25300 5.7234238701e+00 -9.2186163977e-02 2.6745335746e+00 -4.6324280378e+00 2.6745335746e+00 4.6324280378e+00 
25400 5.7231566363e+00 -9.1697787832e-02 2.6762571660e+00 -4.6354133856e+00 2.6762571660e+00 4.6354133856e+00 
25500 5.7228929625e+00 -9.1208699742e-02 2.6779705208e+00 -4.6383810033e+00 2.6779705208e+00 4.6383810033e+00 
25600 5.7226327992e+00 -9.0719008364e-02 2.6796736456e+00 -4.6413309020e+00 2.6796736456e+00 4.6413309020e+00 
25700 5.7223760977e+00 -9.0228820398e-02 2.6813665487e+00 -4.6442630960e+00 2.6813665487e+00 4.6442630960e+00 
25800 5.7221228103e+00 -8.9738240566e-02 2.6830492401e+00 -4.6471776031e+00 2.6830492401e+00 4.6471776031e+00 
25900 5.7218728898e+00 -8.9247371579e-02 2.6847217319e+00 -4.6500744439e+00 2.6847217319e+00 4.6500744439e+00 
26000 5.7216262902e+00 -8.8756314121e-02 2.6863840378e+00 -4.6529536421e+00 2.6863840378e+00 4.6529536421e+00 
26100 5.7213829659e+00 -8.8265166822e-02 2.6880361732e+00 -4.6558152246e+00 2.6880361732e+00 4.6558152246e+00 
26200 5.7211428726e+00 -8.7774026241e-02 2.6896781554e+00 -4.6586592211e+00 2.6896781554e+00 4.6586592211e+00 
26300 5.7209059663e+00 -8.7282986844e-02 2.6913100029e+00 -4.6614856640e+00 2.6913100029e+00 4.6614856640e+00 
26400 5.7206722042e+00 -8.6792140993e-02 2.6929317363e+00 -4.6642945887e+00 2.6929317363e+00 4.6642945887e+00 
26500 5.7204415442e+00 -8.6301578929e-02 2.6945433775e+00 -4.6670860330e+00 2.6945433775e+00 4.6670860330e+00 
26600 5.7202139448e+00 -8.5811388760e-02 2.6961449498e+00 -4.6698600377e+00 2.6961449498e+00 4.6698600377e+00 
26700 5.7199893656e+00 -8.5321656451e-02 2.6977364782e+00 -4.6726166457e+00 2.6977364782e+00 4.6726166457e+00 
26800 5.7197677667e+00 -8.4832465816e-02 2.6993179890e+00 -4.6753559028e+00 2.6993179890e+00 4.6753559028e+00 
26900 5.7195491091e+00 -8.4343898510e-02 2.7008895099e+00 -4.6780778568e+00 2.7008895099e+00 4.6780778568e+00 
27000 5.7193333545e+00 -8.3856034026e-02 2.7024510699e+00 -4.6807825580e+00 2.7024510699e+00 4.6807825580e+00 
27100 5.7191204654e+00 -8.3368949692e-02 2.7040026993e+00 -4.6834700591e+00 2.7040026993e+00 4.6834700591e+00 
27200 5.7189104049e+00 -8.2882720668e-02 2.7055444298e+00 -4.6861404146e+00 2.7055444298e+00 4.6861404146e+00 
27300 5.7187031370e+00 -8.2397419951e-02 2.7070762941e+00 -4.6887936813e+00 2.7070762941e+00 4.6887936813e+00 
27400 5.7184986262e+00 -8.1913118372e-02 2.7085983261e+00 -4.6914299181e+00 2.7085983261e+00 4.6914299181e+00 
27500 5.7182968377e+00 -8.1429884606e-02 2.7101105609e+00 -4.6940491857e+00 2.7101105609e+00 4.6940491857e+00 
27600 5.7180977375e+00 -8.0947785172e-02 2.7116130348e+00 -4.6966515467e+00 2.7116130348e+00 4.6966515467e+00 
27700 5.7179012920e+00 -8.0466884449e-02 2.7131057848e+00 -4.6992370655e+00 2.7131057848e+00 4.6992370655e+00 
27800 5.7177074685e+00 -7.9987244677e-02 2.7145888492e+00 -4.7018058084e+00 2.7145888492e+00 4.7018058084e+00 
27900 5.7175162347e+00 -7.9508925973e-02 2.7160622671e+00 -4.7043578431e+00 2.7160622671e+00 4.7043578431e+00 
28000 5.7173275590e+00 -7.9031986345e-02 2.7175260785e+00 -4.7068932389e+00 2.7175260785e+00 4.7068932389e+00 
28100 5.7171414103e+00 -7.8556481701e-02 2.7189803246e+00 -4.7094120670e+00 2.7189803246e+00 4.7094120670e+00 
28200 5.7169577581e+00 -7.8082465871e-02 2.7204250470e+00 -4.7119143995e+00 2.7204250470e+00 4.7119143995e+00 
28300 5.7167765724e+00 -7.7609990621e-02 2.7218602883e+00 -4.7144003104e+00 2.7218602883e+00 4.7144003104e+00 
28400 5.7165978237e+00 -7.7139105671e-02 2.7232860918e+00 -4.7168698746e+00 2.7232860918e+00 4.7168698746e+00 
28500 5.7164214832e+00 -7.6669858718e-02 2.7247025017e+00 -4.7193231685e+00 2.7247025017e+00 4.7193231685e+00 
28600 5.7162475221e+00 -7.6202295458e-02 2.7261095628e+00 -4.7217602697e+00 2.7261095628e+00 4.7217602697e+00 
28700 5.7160759127e+00 -7.5736459607e-02 2.7275073203e+00 -4.7241812568e+00 2.7275073203e+00 4.7241812568e+00 
28800 5.7159066272e+00 -7.5272392925e-02 2.7288958204e+00 -4.7265862094e+00 2.7288958204e+00 4.7265862094e+00 
28900 5.7157396386e+00 -7.4810135245e-02 2.7302751095e+00 -4.7289752084e+00 2.7302751095e+00 4.7289752084e+00 
29000 5.7155749201e+00 -7.4349724496e-02 2.7316452350e+00 -4.7313483353e+00 2.7316452350e+00 4.7313483353e+00 
29100 5.7154124454e+00 -7.3891196734e-02 2.7330062444e+00 -4.7337056726e+00 2.7330062444e+00 4.7337056726e+00 
29200 5.7152521885e+00 -7.3434586167e-02 2.7343581858e+00 -4.7360473038e+00 2.7343581858e+00 4.7360473038e+00 
29300 5.7150941238e+00 -7.2979925192e-02 2.7357011077e+00 -4.7383733129e+00 2.7357011077e+00 4.7383733129e+00 
29400 5.7149382261e+00 -7.2527244418e-02 2.7370350592e+00 -4.7406837847e+00 2.7370350592e+00 4.7406837847e+00 
29500 5.7147844705e+00 -7.2076572703e-02 2.7383600896e+00 -4.7429788047e+00 2.7383600896e+00 4.7429788047e+00 
29600 5.7146328325e+00 -7.1627937188e-02 2.7396762486e+00 -4.7452584589e+00 2.7396762486e+00 4.7452584589e+00 
29700 5.7144832877e+00 -7.1181363325e-02 2.7409835861e+00 -4.7475228339e+00 2.7409835861e+00 4.7475228339e+00 
29800 5.7143358122e+00 -7.0736874917e-02 2.7422821525e+00 -4.7497720167e+00 2.7422821525e+00 4.7497720167e+00 
29900 5.7141903823e+00 -7.0294494152e-02 2.7435719982e+00 -4.7520060950e+00 2.7435719982e+00 4.7520060950e+00 
30000 5.7140469746e+00 -6.9854241635e-02 2.7448531740e+00 -4.7542251566e+00 2.7448531740e+00 4.7542251566e+00 
30100 5.7139055660e+00 -6.9416136430e-02 2.7461257309e+00 -4.7564292898e+00 2.7461257309e+00 4.7564292898e+00 
30200 5.7137661335e+00 -6.8980196092e-02 2.7473897199e+00 -4.7586185831e+00 2.7473897199e+00 4.7586185831e+00 
30300 5.7136286546e+00 -6.8546436711e-02 2.7486451925e+00 -4.7607931254e+00 2.7486451925e+00 4.7607931254e+00 
30400 5.7134931066e+00 -6.8114872940e-02 2.7498921999e+00 -4.7629530055e+00 2.7498921999e+00 4.7629530055e+00 
30500 5.7133594676e+00 -6.7685518044e-02 2.7511307936e+00 -4.7650983127e+00 2.7511307936e+00 4.7650983127e+00 
30600 5.7132277154e+00 -6.7258383929e-02 2.7523610252e+00 -4.7672291364e+00 2.7523610252e+00 4.7672291364e+00 
30700 5.7130978282e+00 -6.6833481189e-02 2.7535829462e+00 -4.7693455657e+00 2.7535829462e+00 4.7693455657e+00 
30800 5.7129697846e+00 -6.6410819139e-02 2.7547966084e+00 -4.7714476902e+00 2.7547966084e+00 4.7714476902e+00 
30900 5.7128435630e+00 -6.5990405858e-02 2.7560020633e+00 -4.7735355993e+00 2.7560020633e+00 4.7735355993e+00 
31000 5.7127191422e+00 -6.5572248223e-02 2.7571993625e+00 -4.7756093824e+00 2.7571993625e+00 4.7756093824e+00 
31100 5.7125965012e+00 -6.5156351956e-02 2.7583885576e+00 -4.7776691287e+00 2.7583885576e+00 4.7776691287e+00 
31200 5.7124756192e+00 -6.4742721657e-02 2.7595697001e+00 -4.7797149275e+00 2.7595697001e+00 4.7797149275e+00 
31300 5.7123564753e+00 -6.4331360845e-02 2.7607428414e+00 -4.7817468680e+00 2.7607428414e+00 4.7817468680e+00 
31400 5.7122390491e+00 -6.3922271999e-02 2.7619080330e+00 -4.7837650389e+00 2.7619080330e+00 4.7837650389e+00 
31500 5.7121233202e+00 -6.3515456592e-02 2.7630653259e+00 -4.7857695291e+00 2.7630653259e+00 4.7857695291e+00 
31600 5.7120092683e+00 -6.3110915137e-02 2.7642147714e+00 -4.7877604270e+00 2.7642147714e+00 4.7877604270e+00 
31700 5.7118968734e+00 -6.2708647219e-02 2.7653564203e+00 -4.7897378210e+00 2.7653564203e+00 4.7897378210e+00 
31800 5.7117861154e+00 -6.2308651534e-02 2.7664903235e+00 -4.7917017990e+00 2.7664903235e+00 4.7917017990e+00 
31900 5.7116769746e+00 -6.1910925932e-02 2.7676165316e+00 -4.7936524487e+00 2.7676165316e+00 4.7936524487e+00 
32000 5.7115694314e+00 -6.1515467447e-02 2.7687350951e+00 -4.7955898574e+00 2.7687350951e+00 4.7955898574e+00 
32100 5.7114634662e+00 -6.1122272340e-02 2.7698460641e+00 -4.7975141122e+00 2.7698460641e+00 4.7975141122e+00 
32200 5.7113590596e+00 -6.0731336133e-02 2.7709494888e+00 -4.7994252998e+00 2.7709494888e+00 4.7994252998e+00 
32300 5.7112561924e+00 -6.0342653645e-02 2.7720454189e+00 -4.8013235064e+00 2.7720454189e+00 4.8013235064e+00 
32400 5.7111548455e+00 -5.9956219026e-02 2.7731339039e+00 -4.8032088178e+00 2.7731339039e+00 4.8032088178e+00 
32500 5.7110549998e+00 -5.9572025796e-02 2.7742149933e+00 -4.8050813196e+00 2.7742149933e+00 4.8050813196e+00 
32600 5.7109566366e+00 -5.9190066876e-02 2.7752887361e+00 -4.8069410966e+00 2.7752887361e+00 4.8069410966e+00 
32700 5.7108597371e+00 -5.8810334623e-02 2.7763551811e+00 -4.8087882335e+00 2.7763551811e+00 4.8087882335e+00 
32800 5.7107642828e+00 -5.8432820863e-02 2.7774143769e+00 -4.8106228144e+00 2.7774143769e+00 4.8106228144e+00 
32900 5.7106702552e+00 -5.8057516921e-02 2.7784663716e+00 -4.8124449228e+00 2.7784663716e+00 4.8124449228e+00 
33000 5.7105776359e+00 -5.7684413658e-02 2.7795112134e+00 -4.8142546418e+00 2.7795112134e+00 4.8142546418e+00 
33100 5.7104864068e+00 -5.7313501498e-02 2.7805489498e+00 -4.8160520541e+00 2.7805489498e+00 4.8160520541e+00 
33200 5.7103965499e+00 -5.6944770456e-02 2.7815796283e+00 -4.8178372416e+00 2.7815796283e+00 4.8178372416e+00 
33300 5.7103080472e+00 -5.6578210176e-02 2.7826032960e+00 -4.8196102860e+00 2.7826032960e+00 4.8196102860e+00 
33400 5.7102208809e+00 -5.6213809948e-02 2.7836199996e+00 -4.8213712682e+00 2.7836199996e+00 4.8213712682e+00 
33500 5.7101350334e+00 -5.5851558747e-02 2.7846297855e+00 -4.8231202688e+00 2.7846297855e+00 4.8231202688e+00 
33600 5.7100504871e+00 -5.5491445253e-02 2.7856327000e+00 -4.8248573676e+00 2.7856327000e+00 4.8248573676e+00 
33700 5.7099672248e+00 -5.5133457880e-02 2.7866287888e+00 -4.8265826440e+00 2.7866287888e+00 4.8265826440e+00 
33800 5.7098852291e+00 -5.4777584799e-02 2.7876180974e+00 -4.8282961768e+00 2.7876180974e+00 4.8282961768e+00 
33900 5.7098044829e+00 -5.4423813969e-02 2.7886006711e+00 -4.8299980443e+00 2.7886006711e+00 4.8299980443e+00 
34000 5.7097249692e+00 -5.4072133151e-02 2.7895765546e+00 -4.8316883241e+00 2.7895765546e+00 4.8316883241e+00 
34100 5.7096466714e+00 -5.3722529939e-02 2.7905457924e+00 -4.8333670933e+00 2.7905457924e+00 4.8333670933e+00 
34200 5.7095695726e+00 -5.3374991780e-02 2.7915084288e+00 -4.8350344284e+00 2.7915084288e+00 4.8350344284e+00 
34300 5.7094936563e+00 -5.3029505994e-02 2.7924645075e+00 -4.8366904053e+00 2.7924645075e+00 4.8366904053e+00 
34400 5.7094189061e+00 -5.2686059794e-02 2.7934140721e+00 -4.8383350995e+00 2.7934140721e+00 4.8383350995e+00 
34500 5.7093453059e+00 -5.2344640308e-02 2.7943571658e+00 -4.8399685857e+00 2.7943571658e+00 4.8399685857e+00 
34600 5.7092728394e+00 -5.2005234596e-02 2.7952938314e+00 -4.8415909381e+00 2.7952938314e+00 4.8415909381e+00 
34700 5.7092014907e+00 -5.1667829667e-02 2.7962241114e+00 -4.8432022303e+00 2.7962241114e+00 4.8432022303e+00 
34800 5.7091312441e+00 -5.1332412499e-02 2.7971480479e+00 -4.8448025353e+00 2.7971480479e+00 4.8448025353e+00 
34900 5.7090620838e+00 -5.0998970054e-02 2.7980656829e+00 -4.8463919258e+00 2.7980656829e+00 4.8463919258e+00 
35000 5.7089939943e+00 -5.0667489292e-02 2.7989770578e+00 -4.8479704734e+00 2.7989770578e+00 4.8479704734e+00 
35100 5.7089269604e+00 -5.0337957186e-02 2.7998822139e+00 -4.8495382496e+00 2.7998822139e+00 4.8495382496e+00 
35200 5.7088609667e+00 -5.0010360739e-02 2.8007811919e+00 -4.8510953252e+00 2.8007811919e+00 4.8510953252e+00 
35300 5.7087959983e+00 -4.9684686993e-02 2.8016740324e+00 -4.8526417703e+00 2.8016740324e+00 4.8526417703e+00 
35400 5.7087320402e+00 -4.9360923043e-02 2.8025607755e+00 -4.8541776545e+00 2.8025607755e+00 4.8541776545e+00 
35500 5.7086690776e+00 -4.9039056050e-02 2.8034414613e+00 -4.8557030470e+00 2.8034414613e+00 4.8557030470e+00 
35600 5.7086070961e+00 -4.8719073248e-02 2.8043161292e+00 -4.8572180163e+00 2.8043161292e+00 4.8572180163e+00 
35700 5.7085460812e+00 -4.8400961960e-02 2.8051848185e+00 -4.8587226302e+00 2.8051848185e+00 4.8587226302e+00 
35800 5.7084860186e+00 -4.8084709601e-02 2.8060475681e+00 -4.8602169564e+00 2.8060475681e+00 4.8602169564e+00 
35900 5.7084268942e+00 -4.7770303692e-02 2.8069044166e+00 -4.8617010616e+00 2.8069044166e+00 4.8617010616e+00 
36000 5.7083686940e+00 -4.7457731862e-02 2.8077554025e+00 -4.8631750123e+00 2.8077554025e+00 4.8631750123e+00 
36100 5.7083114042e+00 -4.7146981864e-02 2.8086005635e+00 -4.8646388742e+00 2.8086005635e+00 4.8646388742e+00 
36200 5.7082550112e+00 -4.6838041573e-02 2.8094399376e+00 -4.8660927127e+00 2.8094399376e+00 4.8660927127e+00 
36300 5.7081995015e+00 -4.6530898998e-02 2.8102735621e+00 -4.8675365927e+00 2.8102735621e+00 4.8675365927e+00 
36400 5.7081448618e+00 -4.6225542286e-02 2.8111014740e+00 -4.8689705783e+00 2.8111014740e+00 4.8689705783e+00 
36500 5.7080910788e+00 -4.5921959724e-02 2.8119237104e+00 -4.8703947334e+00 2.8119237104e+00 4.8703947334e+00 
36600 5.7080381397e+00 -4.5620139748e-02 2.8127403076e+00 -4.8718091212e+00 2.8127403076e+00 4.8718091212e+00 
36700 5.7079860315e+00 -4.5320070944e-02 2.8135513020e+00 -4.8732138047e+00 2.8135513020e+00 4.8732138047e+00 
36800 5.7079347416e+00 -4.5021742052e-02 2.8143567295e+00 -4.8746088461e+00 2.8143567295e+00 4.8746088461e+00 
36900 5.7078842574e+00 -4.4725141970e-02 2.8151566258e+00 -4.8759943072e+00 2.8151566258e+00 4.8759943072e+00 
37000 5.7078345666e+00 -4.4430259754e-02 2.8159510265e+00 -4.8773702495e+00 2.8159510265e+00 4.8773702495e+00 
37100 5.7077856569e+00 -4.4137084620e-02 2.8167399666e+00 -4.8787367338e+00 2.8167399666e+00 4.8787367338e+00 
37200 5.7077375162e+00 -4.3845605950e-02 2.8175234810e+00 -4.8800938207e+00 2.8175234810e+00 4.8800938207e+00 
37300 5.7076901328e+00 -4.3555813287e-02 2.8183016045e+00 -4.8814415701e+00 2.8183016045e+00 4.8814415701e+00 
37400 5.7076434947e+00 -4.3267696339e-02 2.8190743714e+00 -4.8827800416e+00 2.8190743714e+00 4.8827800416e+00 
37500 5.7075975905e+00 -4.2981244978e-02 2.8198418158e+00 -4.8841092944e+00 2.8198418158e+00 4.8841092944e+00 
37600 5.7075524087e+00 -4.2696449241e-02 2.8206039717e+00 -4.8854293871e+00 2.8206039717e+00 4.8854293871e+00 
37700 5.7075079380e+00 -4.2413299328e-02 2.8213608727e+00 -4.8867403780e+00 2.8213608727e+00 4.8867403780e+00 
37800 5.7074641673e+00 -4.2131785603e-02 2.8221125522e+00 -4.8880423251e+00 2.8221125522e+00 4.8880423251e+00 
37900 5.7074210856e+00 -4.1851898592e-02 2.8228590434e+00 -4.8893352857e+00 2.8228590434e+00 4.8893352857e+00 
38000 5.7073786821e+00 -4.1573628982e-02 2.8236003792e+00 -4.8906193170e+00 2.8236003792e+00 4.8906193170e+00 
38100 5.7073369462e+00 -4.1296967616e-02 2.8243365923e+00 -4.8918944756e+00 2.8243365923e+00 4.8918944756e+00 
38200 5.7072958672e+00 -4.1021905499e-02 2.8250677153e+00 -4.8931608178e+00 2.8250677153e+00 4.8931608178e+00 
38300 5.7072554349e+00 -4.0748433787e-02 2.8257937805e+00 -4.8944183995e+00 2.8257937805e+00 4.8944183995e+00 
38400 5.7072156390e+00 -4.0476543789e-02 2.8265148197e+00 -4.8956672761e+00 2.8265148197e+00 4.8956672761e+00 
38500 5.7071764694e+00 -4.0206226968e-02 2.8272308650e+00 -4.8969075029e+00 2.8272308650e+00 4.8969075029e+00 
38600 5.7071379162e+00 -3.9937474928e-02 2.8279419479e+00 -4.8981391347e+00 2.8279419479e+00 4.8981391347e+00 
38700 5.7070999696e+00 -3.9670279424e-02 2.8286480999e+00 -4.8993622258e+00 2.8286480999e+00 4.8993622258e+00 
38800 5.7070626201e+00 -3.9404632347e-02 2.8293493522e+00 -4.9005768304e+00 2.8293493522e+00 4.9005768304e+00 
38900 5.7070258580e+00 -3.9140525729e-02 2.8300457358e+00 -4.9017830021e+00 2.8300457358e+00 4.9017830021e+00 
39000 5.7069896740e+00 -3.8877951737e-02 2.8307372815e+00 -4.9029807944e+00 2.8307372815e+00 4.9029807944e+00 
39100 5.7069540589e+00 -3.8616902668e-02 2.8314240199e+00 -4.9041702603e+00 2.8314240199e+00 4.9041702603e+00 
39200 5.7069190036e+00 -3.8357370948e-02 2.8321059816e+00 -4.9053514526e+00 2.8321059816e+00 4.9053514526e+00 
39300 5.7068844993e+00 -3.8099349128e-02 2.8327831967e+00 -4.9065244235e+00 2.8327831967e+00 4.9065244235e+00 
39400 5.7068505369e+00 -3.7842829879e-02 2.8334556953e+00 -4.9076892253e+00 2.8334556953e+00 4.9076892253e+00 
39500 5.7068171080e+00 -3.7587805988e-02 2.8341235074e+00 -4.9088459097e+00 2.8341235074e+00 4.9088459097e+00 
39600 5.7067842040e+00 -3.7334270357e-02 2.8347866625e+00 -4.9099945281e+00 2.8347866625e+00 4.9099945281e+00 
39700 5.7067518164e+00 -3.7082215996e-02 2.8354451903e+00 -4.9111351317e+00 2.8354451903e+00 4.9111351317e+00 
39800 5.7067199369e+00 -3.6831636022e-02 2.8360991201e+00 -4.9122677713e+00 2.8360991201e+00 4.9122677713e+00 
39900 5.7066885575e+00 -3.6582523652e-02 2.8367484810e+00 -4.9133924974e+00 2.8367484810e+00 4.9133924974e+00 
40000 5.7066576701e+00 -3.6334872203e-02 2.8373933022e+00 -4.9145093605e+00 2.8373933022e+00 4.9145093605e+00 
40100 5.7066272668e+00 -3.6088675084e-02 2.8380336124e+00 -4.9156184103e+00 2.8380336124e+00 4.9156184103e+00 
40200 5.7065973398e+00 -3.5843925796e-02 2.8386694404e+00 -4.9167196966e+00 2.8386694404e+00 4.9167196966e+00 
40300 5.7065678814e+00 -3.5600617926e-02 2.8393008146e+00 -4.9178132688e+00 2.8393008146e+00 4.9178132688e+00 
40400 5.7065388843e+00 -3.5358745142e-02 2.8399277634e+00 -4.9188991761e+00 2.8399277634e+00 4.9188991761e+00 
40500 5.7065103408e+00 -3.5118301192e-02 2.8405503151e+00 -4.9199774673e+00 2.8405503151e+00 4.9199774673e+00 
40600 5.7064822438e+00 -3.4879279901e-02 2.8411684977e+00 -4.9210481909e+00 2.8411684977e+00 4.9210481909e+00 
40700 5.7064545861e+00 -3.4641675161e-02 2.8417823391e+00 -4.9221113954e+00 2.8417823391e+00 4.9221113954e+00 
40800 5.7064273605e+00 -3.4405480937e-02 2.8423918670e+00 -4.9231671287e+00 2.8423918670e+00 4.9231671287e+00 
40900 5.7064005602e+00 -3.4170691255e-02 2.8429971091e+00 -4.9242154387e+00 2.8429971091e+00 4.9242154387e+00 
41000 5.7063741784e+00 -3.3937300202e-02 2.8435980927e+00 -4.9252563729e+00 2.8435980927e+00 4.9252563729e+00 
41100 5.7063482082e+00 -3.3705301923e-02 2.8441948452e+00 -4.9262899786e+00 2.8441948452e+00 4.9262899786e+00 
41200 5.7063226431e+00 -3.3474690618e-02 2.8447873938e+00 -4.9273163028e+00 2.8447873938e+00 4.9273163028e+00 
41300 5.7062974766e+00 -3.3245460536e-02 2.8453757654e+00 -4.9283353924e+00 2.8453757654e+00 4.9283353924e+00 
41400 5.7062727022e+00 -3.3017605974e-02 2.8459599870e+00 -4.9293472938e+00 2.8459599870e+00 4.9293472938e+00 
41500 5.7062483137e+00 -3.2791121274e-02 2.8465400852e+00 -4.9303520534e+00 2.8465400852e+00 4.9303520534e+00 
41600 5.7062243048e+00 -3.2566000820e-02 2.8471160867e+00 -4.9313497173e+00 2.8471160867e+00 4.9313497173e+00 
41700 5.7062006695e+00 -3.2342239031e-02 2.8476880179e+00 -4.9323403312e+00 2.8476880179e+00 4.9323403312e+00 
41800 5.7061774018e+00 -3.2119830366e-02 2.8482559052e+00 -4.9333239407e+00 2.8482559052e+00 4.9333239407e+00 
41900 5.7061544957e+00 -3.1898769315e-02 2.8488197746e+00 -4.9343005913e+00 2.8488197746e+00 4.9343005913e+00 
42000 5.7061319455e+00 -3.1679050396e-02 2.8493796523e+00 -4.9352703279e+00 2.8493796523e+00 4.9352703279e+00 
42100 5.7061097455e+00 -3.1460668157e-02 2.8499355642e+00 -4.9362331955e+00 2.8499355642e+00 4.9362331955e+00 
42200 5.7060878900e+00 -3.1243617170e-02 2.8504875361e+00 -4.9371892388e+00 2.8504875361e+00 4.9371892388e+00 
42300 5.7060663735e+00 -3.1027892031e-02 2.8510355935e+00 -4.9381385021e+00 2.8510355935e+00 4.9381385021e+00 
42400 5.7060451906e+00 -3.0813487354e-02 2.8515797621e+00 -4.9390810297e+00 2.8515797621e+00 4.9390810297e+00 
42500 5.7060243360e+00 -3.0600397773e-02 2.8521200671e+00 -4.9400168656e+00 2.8521200671e+00 4.9400168656e+00 
42600 5.7060038044e+00 -3.0388617937e-02 2.8526565340e+00 -4.9409460534e+00 2.8526565340e+00 4.9409460534e+00 
42700 5.7059835906e+00 -3.0178142508e-02 2.8531891877e+00 -4.9418686368e+00 2.8531891877e+00 4.9418686368e+00 
42800 5.7059636895e+00 -2.9968966163e-02 2.8537180534e+00 -4.9427846589e+00 2.8537180534e+00 4.9427846589e+00 
42900 5.7059440962e+00 -2.9761083585e-02 2.8542431558e+00 -4.9436941630e+00 2.8542431558e+00 4.9436941630e+00 
43000 5.7059248057e+00 -2.9554489469e-02 2.8547645197e+00 -4.9445971918e+00 2.8547645197e+00 4.9445971918e+00 
43100 5.7059058132e+00 -2.9349178516e-02 2.8552821698e+00 -4.9454937881e+00 2.8552821698e+00 4.9454937881e+00 
43200 5.7058871140e+00 -2.9145145430e-02 2.8557961306e+00 -4.9463839942e+00 2.8557961306e+00 4.9463839942e+00 
43300 5.7058687033e+00 -2.8942384921e-02 2.8563064263e+00 -4.9472678524e+00 2.8563064263e+00 4.9472678524e+00 
43400 5.7058505767e+00 -2.8740891701e-02 2.8568130814e+00 -4.9481454046e+00 2.8568130814e+00 4.9481454046e+00 
43500 5.7058327294e+00 -2.8540660483e-02 2.8573161198e+00 -4.9490166928e+00 2.8573161198e+00 4.9490166928e+00 
43600 5.7058151572e+00 -2.8341685978e-02 2.8578155656e+00 -4.9498817583e+00 2.8578155656e+00 4.9498817583e+00 
43700 5.7057978556e+00 -2.8143962898e-02 2.8583114427e+00 -4.9507406426e+00 2.8583114427e+00 4.9507406426e+00 
43800 5.7057808203e+00 -2.7947485952e-02 2.8588037748e+00 -4.9515933869e+00 2.8588037748e+00 4.9515933869e+00 
43900 5.7057640471e+00 -2.7752249846e-02 2.8592925856e+00 -4.9524400320e+00 2.8592925856e+00 4.9524400320e+00 
44000 5.7057475318e+00 -2.7558249279e-02 2.8597778986e+00 -4.9532806187e+00 2.8597778986e+00 4.9532806187e+00 
44100 5.7057312704e+00 -2.7365478950e-02 2.8602597371e+00 -4.9541151875e+00 2.8602597371e+00 4.9541151875e+00 
44200 5.7057152588e+00 -2.7173933548e-02 2.8607381244e+00 -4.9549437787e+00 2.8607381244e+00 4.9549437787e+00 
44300 5.7056994930e+00 -2.6983607757e-02 2.8612130838e+00 -4.9557664324e+00 2.8612130838e+00 4.9557664324e+00 
44400 5.7056839693e+00 -2.6794496254e-02 2.8616846381e+00 -4.9565831884e+00 2.8616846381e+00 4.9565831884e+00 
44500 5.7056686836e+00 -2.6606593708e-02 2.8621528103e+00 -4.9573940865e+00 2.8621528103e+00 4.9573940865e+00 
44600 5.7056536323e+00 -2.6419894781e-02 2.8626176233e+00 -4.9581991662e+00 2.8626176233e+00 4.9581991662e+00 
44700 5.7056388117e+00 -2.6234394125e-02 2.8630790996e+00 -4.9589984666e+00 2.8630790996e+00 4.9589984666e+00 
44800 5.7056242180e+00 -2.6050086385e-02 2.8635372618e+00 -4.9597920269e+00 2.8635372618e+00 4.9597920269e+00 
44900 5.7056098479e+00 -2.5866966195e-02 2.8639921324e+00 -4.9605798858e+00 2.8639921324e+00 4.9605798858e+00 
45000 5.7055956976e+00 -2.5685028180e-02 2.8644437336e+00 -4.9613620820e+00 2.8644437336e+00 4.9613620820e+00 
45100 5.7055817637e+00 -2.5504266957e-02 2.8648920876e+00 -4.9621386540e+00 2.8648920876e+00 4.9621386540e+00 
45200 5.7055680429e+00 -2.5324677131e-02 2.8653372166e+00 -4.9629096399e+00 2.8653372166e+00 4.9629096399e+00 
45300 5.7055545318e+00 -2.5146253301e-02 2.8657791423e+00 -4.9636750778e+00 2.8657791423e+00 4.9636750778e+00 
45400 5.7055412271e+00 -2.4968990051e-02 2.8662178868e+00 -4.9644350055e+00 2.8662178868e+00 4.9644350055e+00 
45500 5.7055281255e+00 -2.4792881961e-02 2.8666534717e+00 -4.9651894606e+00 2.8666534717e+00 4.9651894606e+00 
45600 5.7055152238e+00 -2.4617923596e-02 2.8670859185e+00 -4.9659384805e+00 2.8670859185e+00 4.9659384805e+00 
45700 5.7055025189e+00 -2.4444109515e-02 2.8675152488e+00 -4.9666821025e+00 2.8675152488e+00 4.9666821025e+00 
45800 5.7054900078e+00 -2.4271434267e-02 2.8679414840e+00 -4.9674203634e+00 2.8679414840e+00 4.9674203634e+00 
45900 5.7054776873e+00 -2.4099892391e-02 2.8683646452e+00 -4.9681533001e+00 2.8683646452e+00 4.9681533001e+00 
46000 5.7054655545e+00 -2.3929478416e-02 2.8687847536e+00 -4.9688809491e+00 2.8687847536e+00 4.9688809491e+00 
46100 5.7054536064e+00 -2.3760186865e-02 2.8692018301e+00 -4.9696033469e+00 2.8692018301e+00 4.9696033469e+00 
46200 5.7054418402e+00 -2.3592012251e-02 2.8696158958e+00 -4.9703205297e+00 2.8696158958e+00 4.9703205297e+00 
46300 5.7054302530e+00 -2.3424949077e-02 2.8700269713e+00 -4.9710325333e+00 2.8700269713e+00 4.9710325333e+00 
46400 5.7054188420e+00 -2.3258991842e-02 2.8704350773e+00 -4.9717393936e+00 2.8704350773e+00 4.9717393936e+00 
46500 5.7054076045e+00 -2.3094135034e-02 2.8708402343e+00 -4.9724411462e+00 2.8708402343e+00 4.9724411462e+00 
46600 5.7053965377e+00 -2.2930373136e-02 2.8712424628e+00 -4.9731378264e+00 2.8712424628e+00 4.9731378264e+00 
46700 5.7053856390e+00 -2.2767700624e-02 2.8716417830e+00 -4.9738294693e+00 2.8716417830e+00 4.9738294693e+00 
46800 5.7053749057e+00 -2.2606111966e-02 2.8720382152e+00 -4.9745161100e+00 2.8720382152e+00 4.9745161100e+00 
46900 5.7053643354e+00 -2.2445601626e-02 2.8724317794e+00 -4.9751977832e+00 2.8724317794e+00 4.9751977832e+00 
47000 5.7053539253e+00 -2.2286164063e-02 2.8728224955e+00 -4.9758745234e+00 2.8728224955e+00 4.9758745234e+00 
47100 5.7053436731e+00 -2.2127793729e-02 2.8732103835e+00 -4.9765463651e+00 2.8732103835e+00 4.9765463651e+00 
47200 5.7053335763e+00 -2.1970485073e-02 2.8735954630e+00 -4.9772133423e+00 2.8735954630e+00 4.9772133423e+00 
47300 5.7053236325e+00 -2.1814232541e-02 2.8739777536e+00 -4.9778754891e+00 2.8739777536e+00 4.9778754891e+00 
47400 5.7053138392e+00 -2.1659030574e-02 2.8743572749e+00 -4.9785328392e+00 2.8743572749e+00 4.9785328392e+00 
47500 5.7053041942e+00 -2.1504873610e-02 2.8747340461e+00 -4.9791854261e+00 2.8747340461e+00 4.9791854261e+00 
47600 5.7052946952e+00 -2.1351756086e-02 2.8751080866e+00 -4.9798332833e+00 2.8751080866e+00 4.9798332833e+00 
47700 5.7052853398e+00 -2.1199672437e-02 2.8754794156e+00 -4.9804764439e+00 2.8754794156e+00 4.9804764439e+00 
47800 5.7052761259e+00 -2.1048617096e-02 2.8758480519e+00 -4.9811149408e+00 2.8758480519e+00 4.9811149408e+00 
47900 5.7052670512e+00 -2.0898584496e-02 2.8762140146e+00 -4.9817488068e+00 2.8762140146e+00 4.9817488068e+00 
48000 5.7052581136e+00 -2.0749569070e-02 2.8765773225e+00 -4.9823780745e+00 2.8765773225e+00 4.9823780745e+00 
48100 5.7052493110e+00 -2.0601565251e-02 2.8769379943e+00 -4.9830027763e+00 2.8769379943e+00 4.9830027763e+00 
48200 5.7052406413e+00 -2.0454567474e-02 2.8772960484e+00 -4.9836229443e+00 2.8772960484e+00 4.9836229443e+00 
48300 5.7052321024e+00 -2.0308570173e-02 2.8776515035e+00 -4.9842386105e+00 2.8776515035e+00 4.9842386105e+00 
48400 5.7052236924e+00 -2.0163567788e-02 2.8780043778e+00 -4.9848498067e+00 2.8780043778e+00 4.9848498067e+00 
48500 5.7052154091e+00 -2.0019554760e-02 2.8783546896e+00 -4.9854565645e+00 2.8783546896e+00 4.9854565645e+00 
48600 5.7052072507e+00 -1.9876525531e-02 2.8787024569e+00 -4.9860589153e+00 2.8787024569e+00 4.9860589153e+00 
48700 5.7051992152e+00 -1.9734474551e-02 2.8790476980e+00 -4.9866568903e+00 2.8790476980e+00 4.9866568903e+00 
48800 5.7051913008e+00 -1.9593396273e-02 2.8793904305e+00 -4.9872505204e+00 2.8793904305e+00 4.9872505204e+00 
48900 5.7051835055e+00 -1.9453285153e-02 2.8797306723e+00 -4.9878398366e+00 2.8797306723e+00 4.9878398366e+00 
49000 5.7051758275e+00 -1.9314135655e-02 2.8800684412e+00 -4.9884248694e+00 2.8800684412e+00 4.9884248694e+00 
49100 5.7051682651e+00 -1.9175942248e-02 2.8804037545e+00 -4.9890056492e+00 2.8804037545e+00 4.9890056492e+00 
49200 5.7051608163e+00 -1.9038699409e-02 2.8807366300e+00 -4.9895822063e+00 2.8807366300e+00 4.9895822063e+00 
49300 5.7051534796e+00 -1.8902401620e-02 2.8810670847e+00 -4.9901545708e+00 2.8810670847e+00 4.9901545708e+00 
49400 5.7051462531e+00 -1.8767043373e-02 2.8813951361e+00 -4.9907227724e+00 2.8813951361e+00 4.9907227724e+00 
49500 5.7051391352e+00 -1.8632619167e-02 2.8817208012e+00 -4.9912868409e+00 2.8817208012e+00 4.9912868409e+00 
49600 5.7051321241e+00 -1.8499123509e-02 2.8820440971e+00 -4.9918468058e+00 2.8820440971e+00 4.9918468058e+00 
49700 5.7051252183e+00 -1.8366550919e-02 2.8823650406e+00 -4.9924026962e+00 2.8823650406e+00 4.9924026962e+00 
49800 5.7051184161e+00 -1.8234895922e-02 2.8826836485e+00 -4.9929545414e+00 2.8826836485e+00 4.9929545414e+00 
49900 5.7051117160e+00 -1.8104153057e-02 2.8829999376e+00 -4.9935023702e+00 2.8829999376e+00 4.9935023702e+00 
50000 5.7051051163e+00 -1.7974316871e-02 2.8833139245e+00 -4.9940462114e+00 2.8833139245e+00 4.9940462114e+00 
50100 5.7050986156e+00 -1.7845381926e-02 2.8836256256e+00 -4.9945860935e+00 2.8836256256e+00 4.9945860935e+00 
50200 5.7050922122e+00 -1.7717342792e-02 2.8839350572e+00 -4.9951220448e+00 2.8839350572e+00 4.9951220448e+00 
50300 5.7050859048e+00 -1.7590194054e-02 2.8842422357e+00 -4.9956540936e+00 2.8842422357e+00 4.9956540936e+00 
50400 5.7050796918e+00 -1.7463930308e-02 2.8845471772e+00 -4.9961822678e+00 2.8845471772e+00 4.9961822678e+00 
50500 5.7050735718e+00 -1.7338546164e-02 2.8848498978e+00 -4.9967065952e+00 2.8848498978e+00 4.9967065952e+00 
50600 5.7050675433e+00 -1.7214036246e-02 2.8851504134e+00 -4.9972271035e+00 2.8851504134e+00 4.9972271035e+00 
50700 5.7050616051e+00 -1.7090395191e-02 2.8854487398e+00 -4.9977438201e+00 2.8854487398e+00 4.9977438201e+00 
50800 5.7050557556e+00 -1.6967617650e-02 2.8857448929e+00 -4.9982567721e+00 2.8857448929e+00 4.9982567721e+00 
50900 5.7050499935e+00 -1.6845698292e-02 2.8860388881e+00 -4.9987659868e+00 2.8860388881e+00 4.9987659868e+00 
51000 5.7050443175e+00 -1.6724631797e-02 2.8863307411e+00 -4.9992714911e+00 2.8863307411e+00 4.9992714911e+00 
51100 5.7050387263e+00 -1.6604412864e-02 2.8866204673e+00 -4.9997733115e+00 2.8866204673e+00 4.9997733115e+00 
51200 5.7050332186e+00 -1.6485036206e-02 2.8869080820e+00 -5.0002714748e+00 2.8869080820e+00 5.0002714748e+00 
51300 5.7050277930e+00 -1.6366496555e-02 2.8871936004e+00 -5.0007660072e+00 2.8871936004e+00 5.0007660072e+00 
51400 5.7050224485e+00 -1.6248788656e-02 2.8874770376e+00 -5.0012569349e+00 2.8874770376e+00 5.0012569349e+00 
51500 5.7050171836e+00 -1.6131907274e-02 2.8877584088e+00 -5.0017442839e+00 2.8877584088e+00 5.0017442839e+00 
51600 5.7050119972e+00 -1.6015847190e-02 2.8880377286e+00 -5.0022280802e+00 2.8880377286e+00 5.0022280802e+00 
51700 5.7050068881e+00 -1.5900603204e-02 2.8883150121e+00 -5.0027083493e+00 2.8883150121e+00 5.0027083493e+00 
51800 5.7050018551e+00 -1.5786170134e-02 2.8885902739e+00 -5.0031851167e+00 2.8885902739e+00 5.0031851167e+00 
51900 5.7049968970e+00 -1.5672542815e-02 2.8888635287e+00 -5.0036584078e+00 2.8888635287e+00 5.0036584078e+00 
52000 5.7049920128e+00 -1.5559716103e-02 2.8891347908e+00 -5.0041282476e+00 2.8891347908e+00 5.0041282476e+00 
52100 5.7049872012e+00 -1.5447684870e-02 2.8894040749e+00 -5.0045946613e+00 2.8894040749e+00 5.0045946613e+00 
52200 5.7049824612e+00 -1.5336444009e-02 2.8896713951e+00 -5.0050576735e+00 2.8896713951e+00 5.0050576735e+00 
52300 5.7049777917e+00 -1.5225988434e-02 2.8899367657e+00 -5.0055173089e+00 2.8899367657e+00 5.0055173089e+00 
52400 5.7049731916e+00 -1.5116313076e-02 2.8902002009e+00 -5.0059735920e+00 2.8902002009e+00 5.0059735920e+00 
52500 5.7049686599e+00 -1.5007412889e-02 2.8904617146e+00 -5.0064265471e+00 2.8904617146e+00 5.0064265471e+00 
52600 5.7049641955e+00 -1.4899282845e-02 2.8907213209e+00 -5.0068761983e+00 2.8907213209e+00 5.0068761983e+00 
52700 5.7049597974e+00 -1.4791917936e-02 2.8909790334e+00 -5.0073225695e+00 2.8909790334e+00 5.0073225695e+00 
52800 5.7049554645e+00 -1.4685313179e-02 2.8912348661e+00 -5.0077656847e+00 2.8912348661e+00 5.0077656847e+00 
52900 5.7049511960e+00 -1.4579463607e-02 2.8914888325e+00 -5.0082055673e+00 2.8914888325e+00 5.0082055673e+00 
53000 5.7049469908e+00 -1.4474364277e-02 2.8917409461e+00 -5.0086422410e+00 2.8917409461e+00 5.0086422410e+00 
53100 5.7049428479e+00 -1.4370010266e-02 2.8919912205e+00 -5.0090757289e+00 2.8919912205e+00 5.0090757289e+00 
53200 5.7049387664e+00 -1.4266396675e-02 2.8922396689e+00 -5.0095060543e+00 2.8922396689e+00 5.0095060543e+00 
53300 5.7049347454e+00 -1.4163518625e-02 2.8924863048e+00 -5.0099332401e+00 2.8924863048e+00 5.0099332401e+00 
53400 5.7049307840e+00 -1.4061371258e-02 2.8927311412e+00 -5.0103573091e+00 2.8927311412e+00 5.0103573091e+00 
53500 5.7049268812e+00 -1.3959949740e-02 2.8929741912e+00 -5.0107782842e+00 2.8929741912e+00 5.0107782842e+00 
53600 5.7049230362e+00 -1.3859249258e-02 2.8932154679e+00 -5.0111961876e+00 2.8932154679e+00 5.0111961876e+00 
53700 5.7049192481e+00 -1.3759265023e-02 2.8934549841e+00 -5.0116110419e+00 2.8934549841e+00 5.0116110419e+00 
53800 5.7049155160e+00 -1.3659992267e-02 2.8936927527e+00 -5.0120228691e+00 2.8936927527e+00 5.0120228691e+00 
53900 5.7049118391e+00 -1.3561426246e-02 2.8939287863e+00 -5.0124316914e+00 2.8939287863e+00 5.0124316914e+00 
54000 5.7049082165e+00 -1.3463562237e-02 2.8941630977e+00 -5.0128375306e+00 2.8941630977e+00 5.0128375306e+00 
54100 5.7049046474e+00 -1.3366395542e-02 2.8943956994e+00 -5.0132404085e+00 2.8943956994e+00 5.0132404085e+00 
54200 5.7049011311e+00 -1.3269921485e-02 2.8946266038e+00 -5.0136403467e+00 2.8946266038e+00 5.0136403467e+00 
54300 5.7048976666e+00 -1.3174135413e-02 2.8948558233e+00 -5.0140373665e+00 2.8948558233e+00 5.0140373665e+00 
54400 5.7048942533e+00 -1.3079032698e-02 2.8950833701e+00 -5.0144314892e+00 2.8950833701e+00 5.0144314892e+00 
54500 5.7048908904e+00 -1.2984608733e-02 2.8953092566e+00 -5.0148227360e+00 2.8953092566e+00 5.0148227360e+00 
54600 5.7048875770e+00 -1.2890858936e-02 2.8955334947e+00 -5.0152111279e+00 2.8955334947e+00 5.0152111279e+00 
54700 5.7048843125e+00 -1.2797778748e-02 2.8957560966e+00 -5.0155966857e+00 2.8957560966e+00 5.0155966857e+00 
54800 5.7048810961e+00 -1.2705363633e-02 2.8959770742e+00 -5.0159794300e+00 2.8959770742e+00 5.0159794300e+00 
54900 5.7048779271e+00 -1.2613609081e-02 2.8961964392e+00 -5.0163593815e+00 2.8961964392e+00 5.0163593815e+00 
55000 5.7048748048e+00 -1.2522510604e-02 2.8964142036e+00 -5.0167365604e+00 2.8964142036e+00 5.0167365604e+00 
55100 5.7048717284e+00 -1.2432063737e-02 2.8966303789e+00 -5.0171109871e+00 2.8966303789e+00 5.0171109871e+00 
55200 5.7048686973e+00 -1.2342264041e-02 2.8968449769e+00 -5.0174826816e+00 2.8968449769e+00 5.0174826816e+00 
55300 5.7048657108e+00 -1.2253107099e-02 2.8970580089e+00 -5.0178516639e+00 2.8970580089e+00 5.0178516639e+00 
55400 5.7048627681e+00 -1.2164588520e-02 2.8972694865e+00 -5.0182179538e+00 2.8972694865e+00 5.0182179538e+00 
55500 5.7048598688e+00 -1.2076703934e-02 2.8974794209e+00 -5.0185815710e+00 2.8974794209e+00 5.0185815710e+00 
55600 5.7048570121e+00 -1.1989448999e-02 2.8976878236e+00 -5.0189425350e+00 2.8976878236e+00 5.0189425350e+00 
55700 5.7048541973e+00 -1.1902819393e-02 2.8978947057e+00 -5.0193008652e+00 2.8978947057e+00 5.0193008652e+00 
55800 5.7048514238e+00 -1.1816810821e-02 2.8981000782e+00 -5.0196565809e+00 2.8981000782e+00 5.0196565809e+00 
55900 5.7048486911e+00 -1.1731419011e-02 2.8983039523e+00 -5.0200097011e+00 2.8983039523e+00 5.0200097011e+00 
56000 5.7048459985e+00 -1.1646639716e-02 2.8985063388e+00 -5.0203602449e+00 2.8985063388e+00 5.0203602449e+00 
56100 5.7048433453e+00 -1.1562468710e-02 2.8987072488e+00 -5.0207082311e+00 2.8987072488e+00 5.0207082311e+00 
56200 5.7048407311e+00 -1.1478901796e-02 2.8989066929e+00 -5.0210536785e+00 2.8989066929e+00 5.0210536785e+00 
56300 5.7048381551e+00 -1.1395934797e-02 2.8991046819e+00 -5.0213966055e+00 2.8991046819e+00 5.0213966055e+00 
56400 5.7048356170e+00 -1.1313563563e-02 2.8993012264e+00 -5.0217370306e+00 2.8993012264e+00 5.0217370306e+00 
56500 5.7048331160e+00 -1.1231783965e-02 2.8994963370e+00 -5.0220749721e+00 2.8994963370e+00 5.0220749721e+00 
56600 5.7048306516e+00 -1.1150591901e-02 2.8996900243e+00 -5.0224104483e+00 2.8996900243e+00 5.0224104483e+00 
56700 5.7048282233e+00 -1.1069983292e-02 2.8998822985e+00 -5.0227434771e+00 2.8998822985e+00 5.0227434771e+00 
56800 5.7048258305e+00 -1.0989954083e-02 2.9000731702e+00 -5.0230740764e+00 2.9000731702e+00 5.0230740764e+00 
56900 5.7048234727e+00 -1.0910500242e-02 2.9002626494e+00 -5.0234022641e+00 2.9002626494e+00 5.0234022641e+00 
57000 5.7048211494e+00 -1.0831617764e-02 2.9004507465e+00 -5.0237280578e+00 2.9004507465e+00 5.0237280578e+00 
57100 5.7048188601e+00 -1.0753302664e-02 2.9006374715e+00 -5.0240514750e+00 2.9006374715e+00 5.0240514750e+00 
57200 5.7048166042e+00 -1.0675550985e-02 2.9008228345e+00 -5.0243725331e+00 2.9008228345e+00 5.0243725331e+00 
57300 5.7048143812e+00 -1.0598358790e-02 2.9010068455e+00 -5.0246912494e+00 2.9010068455e+00 5.0246912494e+00 
57400 5.7048121907e+00 -1.0521722169e-02 2.9011895143e+00 -5.0250076411e+00 2.9011895143e+00 5.0250076411e+00 
57500 5.7048100322e+00 -1.0445637234e-02 2.9013708508e+00 -5.0253217252e+00 2.9013708508e+00 5.0253217252e+00 
57600 5.7048079052e+00 -1.0370100121e-02 2.9015508648e+00 -5.0256335185e+00 2.9015508648e+00 5.0256335185e+00 
57700 5.7048058092e+00 -1.0295106992e-02 2.9017295659e+00 -5.0259430379e+00 2.9017295659e+00 5.0259430379e+00 
57800 5.7048037437e+00 -1.0220654028e-02 2.9019069637e+00 -5.0262503000e+00 2.9019069637e+00 5.0262503000e+00 
57900 5.7048017084e+00 -1.0146737439e-02 2.9020830679e+00 -5.0265553213e+00 2.9020830679e+00 5.0265553213e+00 
58000 5.7047997027e+00 -1.0073353455e-02 2.9022578878e+00 -5.0268581183e+00 2.9022578878e+00 5.0268581183e+00 
58100 5.7047977263e+00 -1.0000498330e-02 2.9024314329e+00 -5.0271587073e+00 2.9024314329e+00 5.0271587073e+00 
58200 5.7047957786e+00 -9.9281683426e-03 2.9026037126e+00 -5.0274571044e+00 2.9026037126e+00 5.0274571044e+00 
58300 5.7047938592e+00 -9.8563597939e-03 2.9027747360e+00 -5.0277533257e+00 2.9027747360e+00 5.0277533257e+00 
58400 5.7047919678e+00 -9.7850690087e-03 2.9029445125e+00 -5.0280473871e+00 2.9029445125e+00 5.0280473871e+00 
58500 5.7047901039e+00 -9.7142923350e-03 2.9031130510e+00 -5.0283393045e+00 2.9031130510e+00 5.0283393045e+00 
58600 5.7047882671e+00 -9.6440261439e-03 2.9032803609e+00 -5.0286290936e+00 2.9032803609e+00 5.0286290936e+00 
58700 5.7047864570e+00 -9.5742668296e-03 2.9034464509e+00 -5.0289167700e+00 2.9034464509e+00 5.0289167700e+00 
58800 5.7047846732e+00 -9.5050108096e-03 2.9036113301e+00 -5.0292023491e+00 2.9036113301e+00 5.0292023491e+00 
58900 5.7047829153e+00 -9.4362545240e-03 2.9037750073e+00 -5.0294858463e+00 2.9037750073e+00 5.0294858463e+00 
59000 5.7047811829e+00 -9.3679944361e-03 2.9039374913e+00 -5.0297672770e+00 2.9039374913e+00 5.0297672770e+00 
59100 5.7047794757e+00 -9.3002270318e-03 2.9040987910e+00 -5.0300466561e+00 2.9040987910e+00 5.0300466561e+00 
59200 5.7047777933e+00 -9.2329488200e-03 2.9042589149e+00 -5.0303239989e+00 2.9042589149e+00 5.0303239989e+00 
59300 5.7047761352e+00 -9.1661563319e-03 2.9044178716e+00 -5.0305993201e+00 2.9044178716e+00 5.0305993201e+00 
59400 5.7047745012e+00 -9.0998461216e-03 2.9045756699e+00 -5.0308726346e+00 2.9045756699e+00 5.0308726346e+00 
59500 5.7047728909e+00 -9.0340147656e-03 2.9047323180e+00 -5.0311439572e+00 2.9047323180e+00 5.0311439572e+00 
59600 5.7047713040e+00 -8.9686588625e-03 2.9048878245e+00 -5.0314133023e+00 2.9048878245e+00 5.0314133023e+00 
59700 5.7047697400e+00 -8.9037750338e-03 2.9050421977e+00 -5.0316806846e+00 2.9050421977e+00 5.0316806846e+00 
59800 5.7047681987e+00 -8.8393599226e-03 2.9051954460e+00 -5.0319461184e+00 2.9051954460e+00 5.0319461184e+00 
59900 5.7047666797e+00 -8.7754101945e-03 2.9053475775e+00 -5.0322096179e+00 2.9053475775e+00 5.0322096179e+00 
60000 5.7047651826e+00 -8.7119225371e-03 2.9054986005e+00 -5.0324711974e+00 2.9054986005e+00 5.0324711974e+00 
60100 5.7047637073e+00 -8.6488936598e-03 2.9056485231e+00 -5.0327308710e+00 2.9056485231e+00 5.0327308710e+00 
60200 5.7047622532e+00 -8.5863202941e-03 2.9057973534e+00 -5.0329886525e+00 2.9057973534e+00 5.0329886525e+00 
60300 5.7047608202e+00 -8.5241991930e-03 2.9059450993e+00 -5.0332445559e+00 2.9059450993e+00 5.0332445559e+00 
60400 5.7047594079e+00 -8.4625271313e-03 2.9060917688e+00 -5.0334985950e+00 2.9060917688e+00 5.0334985950e+00 
60500 5.7047580160e+00 -8.4013009054e-03 2.9062373698e+00 -5.0337507833e+00 2.9062373698e+00 5.0337507833e+00 
60600 5.7047566443e+00 -8.3405173330e-03 2.9063819101e+00 -5.0340011345e+00 2.9063819101e+00 5.0340011345e+00 
60700 5.7047552923e+00 -8.2801732533e-03 2.9065253976e+00 -5.0342496621e+00 2.9065253976e+00 5.0342496621e+00 
60800 5.7047539599e+00 -8.2202655267e-03 2.9066678398e+00 -5.0344963793e+00 2.9066678398e+00 5.0344963793e+00 
60900 5.7047526466e+00 -8.1607910349e-03 2.9068092446e+00 -5.0347412995e+00 2.9068092446e+00 5.0347412995e+00 
61000 5.7047513524e+00 -8.1017466805e-03 2.9069496194e+00 -5.0349844358e+00 2.9069496194e+00 5.0349844358e+00 
61100 5.7047500768e+00 -8.0431293872e-03 2.9070889718e+00 -5.0352258014e+00 2.9070889718e+00 5.0352258014e+00 
61200 5.7047488195e+00 -7.9849360993e-03 2.9072273094e+00 -5.0354654091e+00 2.9072273094e+00 5.0354654091e+00 
61300 5.7047475805e+00 -7.9271637823e-03 2.9073646396e+00 -5.0357032719e+00 2.9073646396e+00 5.0357032719e+00 
61400 5.7047463592e+00 -7.8698094219e-03 2.9075009697e+00 -5.0359394025e+00 2.9075009697e+00 5.0359394025e+00 
61500 5.7047451556e+00 -7.8128700246e-03 2.9076363070e+00 -5.0361738137e+00 2.9076363070e+00 5.0361738137e+00 
61600 5.7047439693e+00 -7.7563426174e-03 2.9077706589e+00 -5.0364065180e+00 2.9077706589e+00 5.0364065180e+00 
61700 5.7047428001e+00 -7.7002242473e-03 2.9079040326e+00 -5.0366375281e+00 2.9079040326e+00 5.0366375281e+00 
61800 5.7047416477e+00 -7.6445119819e-03 2.9080364353e+00 -5.0368668561e+00 2.9080364353e+00 5.0368668561e+00 
61900 5.7047405119e+00 -7.5892029087e-03 2.9081678739e+00 -5.0370945146e+00 2.9081678739e+00 5.0370945146e+00 
62000 5.7047393924e+00 -7.5342941353e-03 2.9082983557e+00 -5.0373205157e+00 2.9082983557e+00 5.0373205157e+00 
62100 5.7047382890e+00 -7.4797827893e-03 2.9084278877e+00 -5.0375448716e+00 2.9084278877e+00 5.0375448716e+00 
62200 5.7047372015e+00 -7.4256660178e-03 2.9085564767e+00 -5.0377675943e+00 2.9085564767e+00 5.0377675943e+00 
62300 5.7047361296e+00 -7.3719409879e-03 2.9086841297e+00 -5.0379886958e+00 2.9086841297e+00 5.0379886958e+00 
62400 5.7047350731e+00 -7.3186048861e-03 2.9088108536e+00 -5.0382081880e+00 2.9088108536e+00 5.0382081880e+00 
62500 5.7047340318e+00 -7.2656549184e-03 2.9089366551e+00 -5.0384260827e+00 2.9089366551e+00 5.0384260827e+00 
62600 5.7047330055e+00 -7.2130883103e-03 2.9090615411e+00 -5.0386423915e+00 2.9090615411e+00 5.0386423915e+00 
62700 5.7047319939e+00 -7.1609023064e-03 2.9091855182e+00 -5.0388571261e+00 2.9091855182e+00 5.0388571261e+00 
62800 5.7047309968e+00 -7.1090941704e-03 2.9093085931e+00 -5.0390702981e+00 2.9093085931e+00 5.0390702981e+00 
62900 5.7047300140e+00 -7.0576611852e-03 2.9094307723e+00 -5.0392819188e+00 2.9094307723e+00 5.0392819188e+00 
63000 5.7047290453e+00 -7.0066006526e-03 2.9095520625e+00 -5.0394919996e+00 2.9095520625e+00 5.0394919996e+00 
63100 5.7047280905e+00 -6.9559098931e-03 2.9096724702e+00 -5.0397005518e+00 2.9096724702e+00 5.0397005518e+00 
63200 5.7047271494e+00 -6.9055862460e-03 2.9097920019e+00 -5.0399075867e+00 2.9097920019e+00 5.0399075867e+00 
63300 5.7047262218e+00 -6.8556270690e-03 2.9099106638e+00 -5.0401131152e+00 2.9099106638e+00 5.0401131152e+00 
63400 5.7047253075e+00 -6.8060297387e-03 2.9100284625e+00 -5.0403171486e+00 2.9100284625e+00 5.0403171486e+00 
63500 5.7047244062e+00 -6.7567916496e-03 2.9101454043e+00 -5.0405196976e+00 2.9101454043e+00 5.0405196976e+00 
63600 5.7047235179e+00 -6.7079102147e-03 2.9102614953e+00 -5.0407207732e+00 2.9102614953e+00 5.0407207732e+00 
63700 5.7047226423e+00 -6.6593828652e-03 2.9103767419e+00 -5.0409203861e+00 2.9103767419e+00 5.0409203861e+00 
63800 5.7047217793e+00 -6.6112070502e-03 2.9104911502e+00 -5.0411185472e+00 2.9104911502e+00 5.0411185472e+00 
63900 5.7047209286e+00 -6.5633802369e-03 2.9106047264e+00 -5.0413152669e+00 2.9106047264e+00 5.0413152669e+00 
64000 5.7047200900e+00 -6.5158999100e-03 2.9107174766e+00 -5.0415105559e+00 2.9107174766e+00 5.0415105559e+00 
64100 5.7047192635e+00 -6.4687635724e-03 2.9108294067e+00 -5.0417044246e+00 2.9108294067e+00 5.0417044246e+00 
64200 5.7047184488e+00 -6.4219687441e-03 2.9109405229e+00 -5.0418968835e+00 2.9109405229e+00 5.0418968835e+00 
64300 5.7047176457e+00 -6.3755129629e-03 2.9110508311e+00 -5.0420879428e+00 2.9110508311e+00 5.0420879428e+00 
64400 5.7047168541e+00 -6.3293937839e-03 2.9111603371e+00 -5.0422776128e+00 2.9111603371e+00 5.0422776128e+00 
64500 5.7047160739e+00 -6.2836087795e-03 2.9112690469e+00 -5.0424659037e+00 2.9112690469e+00 5.0424659037e+00 
64600 5.7047153047e+00 -6.2381555392e-03 2.9113769663e+00 -5.0426528256e+00 2.9113769663e+00 5.0426528256e+00 
64700 5.7047145466e+00 -6.1930316696e-03 2.9114841011e+00 -5.0428383885e+00 2.9114841011e+00 5.0428383885e+00 
64800 5.7047137993e+00 -6.1482347942e-03 2.9115904569e+00 -5.0430226022e+00 2.9115904569e+00 5.0430226022e+00 
64900 5.7047130626e+00 -6.1037625534e-03 2.9116960396e+00 -5.0432054769e+00 2.9116960396e+00 5.0432054769e+00 
65000 5.7047123365e+00 -6.0596126042e-03 2.9118008548e+00 -5.0433870221e+00 2.9118008548e+00 5.0433870221e+00 
65100 5.7047116208e+00 -6.0157826205e-03 2.9119049081e+00 -5.0435672477e+00 2.9119049081e+00 5.0435672477e+00 
65200 5.7047109152e+00 -5.9722702924e-03 2.9120082051e+00 -5.0437461632e+00 2.9120082051e+00 5.0437461632e+00 
65300 5.7047102197e+00 -5.9290733265e-03 2.9121107512e+00 -5.0439237784e+00 2.9121107512e+00 5.0439237784e+00 
65400 5.7047095342e+00 -5.8861894457e-03 2.9122125521e+00 -5.0441001027e+00 2.9122125521e+00 5.0441001027e+00 
65500 5.7047088584e+00 -5.8436163893e-03 2.9123136131e+00 -5.0442751455e+00 2.9123136131e+00 5.0442751455e+00 
65600 5.7047081923e+00 -5.8013519123e-03 2.9124139397e+00 -5.0444489162e+00 2.9124139397e+00 5.0444489162e+00 
65700 5.7047075356e+00 -5.7593937860e-03 2.9125135372e+00 -5.0446214242e+00 2.9125135372e+00 5.0446214242e+00 
65800 5.7047068883e+00 -5.7177397974e-03 2.9126124111e+00 -5.0447926787e+00 2.9126124111e+00 5.0447926787e+00 
65900 5.7047062502e+00 -5.6763877493e-03 2.9127105664e+00 -5.0449626888e+00 2.9127105664e+00 5.0449626888e+00 
66000 5.7047056213e+00 -5.6353354602e-03 2.9128080087e+00 -5.0451314637e+00 2.9128080087e+00 5.0451314637e+00 
66100 5.7047050012e+00 -5.5945807641e-03 2.9129047429e+00 -5.0452990123e+00 2.9129047429e+00 5.0452990123e+00 
66200 5.7047043901e+00 -5.5541215105e-03 2.9130007744e+00 -5.0454653438e+00 2.9130007744e+00 5.0454653438e+00 
66300 5.7047037876e+00 -5.5139555643e-03 2.9130961083e+00 -5.0456304668e+00 2.9130961083e+00 5.0456304668e+00 
66400 5.7047031937e+00 -5.4740808054e-03 2.9131907496e+00 -5.0457943904e+00 2.9131907496e+00 5.0457943904e+00 
66500 5.7047026082e+00 -5.4344951291e-03 2.9132847034e+00 -5.0459571233e+00 2.9132847034e+00 5.0459571233e+00 
66600 5.7047020311e+00 -5.3951964457e-03 2.9133779749e+00 -5.0461186741e+00 2.9133779749e+00 5.0461186741e+00 
66700 5.7047014622e+00 -5.3561826804e-03 2.9134705688e+00 -5.0462790516e+00 2.9134705688e+00 5.0462790516e+00 
66800 5.7047009013e+00 -5.3174517731e-03 2.9135624903e+00 -5.0464382643e+00 2.9135624903e+00 5.0464382643e+00 
66900 5.7047003485e+00 -5.2790016787e-03 2.9136537442e+00 -5.0465963207e+00 2.9136537442e+00 5.0465963207e+00 
67000 5.7046998035e+00 -5.2408303664e-03 2.9137443355e+00 -5.0467532293e+00 2.9137443355e+00 5.0467532293e+00 
67100 5.7046992663e+00 -5.2029358204e-03 2.9138342688e+00 -5.0469089985e+00 2.9138342688e+00 5.0469089985e+00 
67200 5.7046987367e+00 -5.1653160388e-03 2.9139235492e+00 -5.0470636365e+00 2.9139235492e+00 5.0470636365e+00 
67300 5.7046982146e+00 -5.1279690344e-03 2.9140121813e+00 -5.0472171518e+00 2.9140121813e+00 5.0472171518e+00 
67400 5.7046976999e+00 -5.0908928341e-03 2.9141001698e+00 -5.0473695525e+00 2.9141001698e+00 5.0473695525e+00 
67500 5.7046971926e+00 -5.0540854790e-03 2.9141875196e+00 -5.0475208467e+00 2.9141875196e+00 5.0475208467e+00 
67600 5.7046966925e+00 -5.0175450242e-03 2.9142742352e+00 -5.0476710425e+00 2.9142742352e+00 5.0476710425e+00 
67700 5.7046961994e+00 -4.9812695386e-03 2.9143603213e+00 -5.0478201480e+00 2.9143603213e+00 5.0478201480e+00 
67800 5.7046957134e+00 -4.9452571053e-03 2.9144457824e+00 -5.0479681711e+00 2.9144457824e+00 5.0479681711e+00 
67900 5.7046952343e+00 -4.9095058207e-03 2.9145306233e+00 -5.0481151198e+00 2.9145306233e+00 5.0481151198e+00 
68000 5.7046947620e+00 -4.8740137953e-03 2.9146148483e+00 -5.0482610018e+00 2.9146148483e+00 5.0482610018e+00 
68100 5.7046942963e+00 -4.8387791527e-03 2.9146984621e+00 -5.0484058251e+00 2.9146984621e+00 5.0484058251e+00 
68200 5.7046938373e+00 -4.8038000304e-03 2.9147814690e+00 -5.0485495973e+00 2.9147814690e+00 5.0485495973e+00 
68300 5.7046933848e+00 -4.7690745790e-03 2.9148638735e+00 -5.0486923261e+00 2.9148638735e+00 5.0486923261e+00 
68400 5.7046929388e+00 -4.7346009624e-03 2.9149456800e+00 -5.0488340191e+00 2.9149456800e+00 5.0488340191e+00 
68500 5.7046924990e+00 -4.7003773578e-03 2.9150268929e+00 -5.0489746839e+00 2.9150268929e+00 5.0489746839e+00 
68600 5.7046920655e+00 -4.6664019553e-03 2.9151075165e+00 -5.0491143281e+00 2.9151075165e+00 5.0491143281e+00 
68700 5.7046916382e+00 -4.6326729582e-03 2.9151875551e+00 -5.0492529590e+00 2.9151875551e+00 5.0492529590e+00 
68800 5.7046912169e+00 -4.5991885826e-03 2.9152670130e+00 -5.0493905842e+00 2.9152670130e+00 5.0493905842e+00 
68900 5.7046908015e+00 -4.5659470574e-03 2.9153458945e+00 -5.0495272108e+00 2.9153458945e+00 5.0495272108e+00 
69000 5.7046903921e+00 -4.5329466242e-03 2.9154242036e+00 -5.0496628463e+00 2.9154242036e+00 5.0496628463e+00 
69100 5.7046899885e+00 -4.5001855374e-03 2.9155019448e+00 -5.0497974979e+00 2.9155019448e+00 5.0497974979e+00 
69200 5.7046895906e+00 -4.4676620637e-03 2.9155791220e+00 -5.0499311727e+00 2.9155791220e+00 5.0499311727e+00 
69300 5.7046891983e+00 -4.4353744824e-03 2.9156557394e+00 -5.0500638779e+00 2.9156557394e+00 5.0500638779e+00 
69400 5.7046888116e+00 -4.4033210852e-03 2.9157318010e+00 -5.0501956207e+00 2.9157318010e+00 5.0501956207e+00 
69500 5.7046884304e+00 -4.3715001761e-03 2.9158073111e+00 -5.0503264079e+00 2.9158073111e+00 5.0503264079e+00 
69600 5.7046880546e+00 -4.3399100710e-03 2.9158822735e+00 -5.0504562466e+00 2.9158822735e+00 5.0504562466e+00 
69700 5.7046876841e+00 -4.3085490984e-03 2.9159566923e+00 -5.0505851437e+00 2.9159566923e+00 5.0505851437e+00 
69800 5.7046873188e+00 -4.2774155983e-03 2.9160305714e+00 -5.0507131061e+00 2.9160305714e+00 5.0507131061e+00 
69900 5.7046869587e+00 -4.2465079230e-03 2.9161039148e+00 -5.0508401407e+00 2.9161039148e+00 5.0508401407e+00 
70000 5.7046866038e+00 -4.2158244365e-03 2.9161767265e+00 -5.0509662541e+00 2.9161767265e+00 5.0509662541e+00 
70100 5.7046862538e+00 -4.1853635146e-03 2.9162490102e+00 -5.0510914532e+00 2.9162490102e+00 5.0510914532e+00 
70200 5.7046859088e+00 -4.1551235447e-03 2.9163207698e+00 -5.0512157445e+00 2.9163207698e+00 5.0512157445e+00 
70300 5.7046855687e+00 -4.1251029261e-03 2.9163920093e+00 -5.0513391349e+00 2.9163920093e+00 5.0513391349e+00 
70400 5.7046852334e+00 -4.0953000692e-03 2.9164627323e+00 -5.0514616307e+00 2.9164627323e+00 5.0514616307e+00 
70500 5.7046849029e+00 -4.0657133960e-03 2.9165329426e+00 -5.0515832385e+00 2.9165329426e+00 5.0515832385e+00 
70600 5.7046845770e+00 -4.0363413401e-03 2.9166026440e+00 -5.0517039649e+00 2.9166026440e+00 5.0517039649e+00 
70700 5.7046842558e+00 -4.0071823459e-03 2.9166718402e+00 -5.0518238163e+00 2.9166718402e+00 5.0518238163e+00 
70800 5.7046839390e+00 -3.9782348693e-03 2.9167405349e+00 -5.0519427990e+00 2.9167405349e+00 5.0519427990e+00 
70900 5.7046836268e+00 -3.9494973774e-03 2.9168087318e+00 -5.0520609194e+00 2.9168087318e+00 5.0520609194e+00 
71000 5.7046833190e+00 -3.9209683480e-03 2.9168764344e+00 -5.0521781838e+00 2.9168764344e+00 5.0521781838e+00 
71100 5.7046830156e+00 -3.8926462701e-03 2.9169436464e+00 -5.0522945985e+00 2.9169436464e+00 5.0522945985e+00 
71200 5.7046827164e+00 -3.8645296436e-03 2.9170103714e+00 -5.0524101695e+00 2.9170103714e+00 5.0524101695e+00 
71300 5.7046824215e+00 -3.8366169790e-03 2.9170766130e+00 -5.0525249032e+00 2.9170766130e+00 5.0525249032e+00 
71400 5.7046821307e+00 -3.8089067976e-03 2.9171423746e+00 -5.0526388056e+00 2.9171423746e+00 5.0526388056e+00 
71500 5.7046818441e+00 -3.7813976314e-03 2.9172076597e+00 -5.0527518828e+00 2.9172076597e+00 5.0527518828e+00 
71600 5.7046815615e+00 -3.7540880231e-03 2.9172724719e+00 -5.0528641408e+00 2.9172724719e+00 5.0528641408e+00 
71700 5.7046812829e+00 -3.7269765255e-03 2.9173368145e+00 -5.0529755856e+00 2.9173368145e+00 5.0529755856e+00 
71800 5.7046810083e+00 -3.7000617021e-03 2.9174006911e+00 -5.0530862231e+00 2.9174006911e+00 5.0530862231e+00 
71900 5.7046807375e+00 -3.6733421268e-03 2.9174641050e+00 -5.0531960592e+00 2.9174641050e+00 5.0531960592e+00 
72000 5.7046804706e+00 -3.6468163835e-03 2.9175270596e+00 -5.0533050997e+00 2.9175270596e+00 5.0533050997e+00 
72100 5.7046802075e+00 -3.6204830666e-03 2.9175895583e+00 -5.0534133505e+00 2.9175895583e+00 5.0534133505e+00 
72200 5.7046799480e+00 -3.5943407803e-03 2.9176516043e+00 -5.0535208174e+00 2.9176516043e+00 5.0535208174e+00 
72300 5.7046796923e+00 -3.5683881392e-03 2.9177132009e+00 -5.0536275060e+00 2.9177132009e+00 5.0536275060e+00 
72400 5.7046794401e+00 -3.5426237676e-03 2.9177743516e+00 -5.0537334220e+00 2.9177743516e+00 5.0537334220e+00 
72500 5.7046791916e+00 -3.5170462998e-03 2.9178350594e+00 -5.0538385711e+00 2.9178350594e+00 5.0538385711e+00 
72600 5.7046789465e+00 -3.4916543800e-03 2.9178953277e+00 -5.0539429588e+00 2.9178953277e+00 5.0539429588e+00 
72700 5.7046787049e+00 -3.4664466621e-03 2.9179551597e+00 -5.0540465907e+00 2.9179551597e+00 5.0540465907e+00 
72800 5.7046784667e+00 -3.4414218096e-03 2.9180145584e+00 -5.0541494724e+00 2.9180145584e+00 5.0541494724e+00 
72900 5.7046782319e+00 -3.4165784958e-03 2.9180735272e+00 -5.0542516093e+00 2.9180735272e+00 5.0542516093e+00 
73000 5.7046780004e+00 -3.3919154035e-03 2.9181320690e+00 -5.0543530068e+00 2.9181320690e+00 5.0543530068e+00 
73100 5.7046777722e+00 -3.3674312249e-03 2.9181901872e+00 -5.0544536703e+00 2.9181901872e+00 5.0544536703e+00 
73200 5.7046775472e+00 -3.3431246617e-03 2.9182478846e+00 -5.0545536052e+00 2.9182478846e+00 5.0545536052e+00 
73300 5.7046773254e+00 -3.3189944250e-03 2.9183051644e+00 -5.0546528168e+00 2.9183051644e+00 5.0546528168e+00 
73400 5.7046771067e+00 -3.2950392351e-03 2.9183620297e+00 -5.0547513104e+00 2.9183620297e+00 5.0547513104e+00 
73500 5.7046768911e+00 -3.2712578216e-03 2.9184184835e+00 -5.0548490911e+00 2.9184184835e+00 5.0548490911e+00 
73600 5.7046766786e+00 -3.2476489231e-03 2.9184745287e+00 -5.0549461643e+00 2.9184745287e+00 5.0549461643e+00 
73700 5.7046764690e+00 -3.2242112875e-03 2.9185301684e+00 -5.0550425351e+00 2.9185301684e+00 5.0550425351e+00 
73800 5.7046762625e+00 -3.2009436715e-03 2.9185854055e+00 -5.0551382085e+00 2.9185854055e+00 5.0551382085e+00 
73900 5.7046760588e+00 -3.1778448410e-03 2.9186402429e+00 -5.0552331897e+00 2.9186402429e+00 5.0552331897e+00 
74000 5.7046758580e+00 -3.1549135705e-03 2.9186946835e+00 -5.0553274837e+00 2.9186946835e+00 5.0553274837e+00 
74100 5.7046756601e+00 -3.1321486437e-03 2.9187487304e+00 -5.0554210955e+00 2.9187487304e+00 5.0554210955e+00 
74200 5.7046754650e+00 -3.1095488528e-03 2.9188023862e+00 -5.0555140302e+00 2.9188023862e+00 5.0555140302e+00 
74300 5.7046752726e+00 -3.0871129987e-03 2.9188556539e+00 -5.0556062925e+00 2.9188556539e+00 5.0556062925e+00 
74400 5.7046750829e+00 -3.0648398911e-03 2.9189085363e+00 -5.0556978876e+00 2.9189085363e+00 5.0556978876e+00 
74500 5.7046748960e+00 -3.0427283481e-03 2.9189610362e+00 -5.0557888201e+00 2.9189610362e+00 5.0557888201e+00 
74600 5.7046747116e+00 -3.0207771965e-03 2.9190131564e+00 -5.0558790949e+00 2.9190131564e+00 5.0558790949e+00 
74700 5.7046745299e+00 -2.9989852716e-03 2.9190648997e+00 -5.0559687169e+00 2.9190648997e+00 5.0559687169e+00 
74800 5.7046743507e+00 -2.9773514167e-03 2.9191162688e+00 -5.0560576908e+00 2.9191162688e+00 5.0560576908e+00 
74900 5.7046741741e+00 -2.9558744840e-03 2.9191672664e+00 -5.0561460213e+00 2.9191672664e+00 5.0561460213e+00 
75000 5.7046740000e+00 -2.9345533335e-03 2.9192178953e+00 -5.0562337130e+00 2.9192178953e+00 5.0562337130e+00 
75100 5.7046738283e+00 -2.9133868337e-03 2.9192681581e+00 -5.0563207708e+00 2.9192681581e+00 5.0563207708e+00 
75200 5.7046736591e+00 -2.8923738611e-03 2.9193180575e+00 -5.0564071991e+00 2.9193180575e+00 5.0564071991e+00 
75300 5.7046734922e+00 -2.8715133005e-03 2.9193675962e+00 -5.0564930026e+00 2.9193675962e+00 5.0564930026e+00 
75400 5.7046733277e+00 -2.8508040446e-03 2.9194167767e+00 -5.0565781858e+00 2.9194167767e+00 5.0565781858e+00 
75500 5.7046731656e+00 -2.8302449942e-03 2.9194656018e+00 -5.0566627532e+00 2.9194656018e+00 5.0566627532e+00 
75600 5.7046730057e+00 -2.8098350577e-03 2.9195140739e+00 -5.0567467093e+00 2.9195140739e+00 5.0567467093e+00 
75700 5.7046728481e+00 -2.7895731519e-03 2.9195621956e+00 -5.0568300587e+00 2.9195621956e+00 5.0568300587e+00 
75800 5.7046726927e+00 -2.7694582010e-03 2.9196099696e+00 -5.0569128056e+00 2.9196099696e+00 5.0569128056e+00 
75900 5.7046725395e+00 -2.7494891371e-03 2.9196573983e+00 -5.0569949545e+00 2.9196573983e+00 5.0569949545e+00 
76000 5.7046723885e+00 -2.7296649001e-03 2.9197044842e+00 -5.0570765097e+00 2.9197044842e+00 5.0570765097e+00 
76100 5.7046722396e+00 -2.7099844374e-03 2.9197512299e+00 -5.0571574756e+00 2.9197512299e+00 5.0571574756e+00 
76200 5.7046720929e+00 -2.6904467042e-03 2.9197976378e+00 -5.0572378565e+00 2.9197976378e+00 5.0572378565e+00 
76300 5.7046719482e+00 -2.6710506629e-03 2.9198437104e+00 -5.0573176566e+00 2.9198437104e+00 5.0573176566e+00 
76400 5.7046718055e+00 -2.6517952837e-03 2.9198894502e+00 -5.0573968802e+00 2.9198894502e+00 5.0573968802e+00 
76500 5.7046716649e+00 -2.6326795442e-03 2.9199348595e+00 -5.0574755314e+00 2.9199348595e+00 5.0574755314e+00 
76600 5.7046715262e+00 -2.6137024292e-03 2.9199799407e+00 -5.0575536144e+00 2.9199799407e+00 5.0575536144e+00 
76700 5.7046713896e+00 -2.5948629311e-03 2.9200246963e+00 -5.0576311334e+00 2.9200246963e+00 5.0576311334e+00 
76800 5.7046712548e+00 -2.5761600493e-03 2.9200691286e+00 -5.0577080924e+00 2.9200691286e+00 5.0577080924e+00 
76900 5.7046711220e+00 -2.5575927907e-03 2.9201132400e+00 -5.0577844956e+00 2.9201132400e+00 5.0577844956e+00 
77000 5.7046709910e+00 -2.5391601691e-03 2.9201570328e+00 -5.0578603469e+00 2.9201570328e+00 5.0578603469e+00 
77100 5.7046708619e+00 -2.5208612056e-03 2.9202005094e+00 -5.0579356505e+00 2.9202005094e+00 5.0579356505e+00 
77200 5.7046707346e+00 -2.5026949284e-03 2.9202436719e+00 -5.0580104103e+00 2.9202436719e+00 5.0580104103e+00 
77300 5.7046706091e+00 -2.4846603725e-03 2.9202865228e+00 -5.0580846302e+00 2.9202865228e+00 5.0580846302e+00 
77400 5.7046704854e+00 -2.4667565803e-03 2.9203290643e+00 -5.0581583142e+00 2.9203290643e+00 5.0581583142e+00 
77500 5.7046703634e+00 -2.4489826006e-03 2.9203712986e+00 -5.0582314662e+00 2.9203712986e+00 5.0582314662e+00 
77600 5.7046702432e+00 -2.4313374895e-03 2.9204132280e+00 -5.0583040901e+00 2.9204132280e+00 5.0583040901e+00 
77700 5.7046701247e+00 -2.4138203096e-03 2.9204548547e+00 -5.0583761896e+00 2.9204548547e+00 5.0583761896e+00 
77800 5.7046700078e+00 -2.3964301306e-03 2.9204961809e+00 -5.0584477687e+00 2.9204961809e+00 5.0584477687e+00 
77900 5.7046698926e+00 -2.3791660287e-03 2.9205372088e+00 -5.0585188311e+00 2.9205372088e+00 5.0585188311e+00 
78000 5.7046697791e+00 -2.3620270868e-03 2.9205779406e+00 -5.0585893806e+00 2.9205779406e+00 5.0585893806e+00 
78100 5.7046696671e+00 -2.3450123945e-03 2.9206183783e+00 -5.0586594208e+00 2.9206183783e+00 5.0586594208e+00 
78200 5.7046695567e+00 -2.3281210480e-03 2.9206585243e+00 -5.0587289556e+00 2.9206585243e+00 5.0587289556e+00 
78300 5.7046694479e+00 -2.3113521500e-03 2.9206983804e+00 -5.0587979885e+00 2.9206983804e+00 5.0587979885e+00 
78400 5.7046693407e+00 -2.2947048096e-03 2.9207379490e+00 -5.0588665233e+00 2.9207379490e+00 5.0588665233e+00 
78500 5.7046692349e+00 -2.2781781425e-03 2.9207772321e+00 -5.0589345635e+00 2.9207772321e+00 5.0589345635e+00 
78600 5.7046691306e+00 -2.2617712708e-03 2.9208162317e+00 -5.0590021128e+00 2.9208162317e+00 5.0590021128e+00 
78700 5.7046690279e+00 -2.2454833229e-03 2.9208549499e+00 -5.0590691748e+00 2.9208549499e+00 5.0590691748e+00 
78800 5.7046689265e+00 -2.2293134334e-03 2.9208933888e+00 -5.0591357529e+00 2.9208933888e+00 5.0591357529e+00 
78900 5.7046688267e+00 -2.2132607433e-03 2.9209315504e+00 -5.0592018507e+00 2.9209315504e+00 5.0592018507e+00 
79000 5.7046687282e+00 -2.1973243999e-03 2.9209694367e+00 -5.0592674716e+00 2.9209694367e+00 5.0592674716e+00 
79100 5.7046686311e+00 -2.1815035564e-03 2.9210070497e+00 -5.0593326193e+00 2.9210070497e+00 5.0593326193e+00 
79200 5.7046685354e+00 -2.1657973725e-03 2.9210443914e+00 -5.0593972970e+00 2.9210443914e+00 5.0593972970e+00 
79300 5.7046684411e+00 -2.1502050136e-03 2.9210814638e+00 -5.0594615083e+00 2.9210814638e+00 5.0594615083e+00 
79400 5.7046683481e+00 -2.1347256514e-03 2.9211182688e+00 -5.0595252565e+00 2.9211182688e+00 5.0595252565e+00 
79500 5.7046682564e+00 -2.1193584635e-03 2.9211548084e+00 -5.0595885449e+00 2.9211548084e+00 5.0595885449e+00 
79600 5.7046681660e+00 -2.1041026336e-03 2.9211910845e+00 -5.0596513770e+00 2.9211910845e+00 5.0596513770e+00 
79700 5.7046680769e+00 -2.0889573511e-03 2.9212270991e+00 -5.0597137560e+00 2.9212270991e+00 5.0597137560e+00 
79800 5.7046679890e+00 -2.0739218115e-03 2.9212628539e+00 -5.0597756853e+00 2.9212628539e+00 5.0597756853e+00 
79900 5.7046679024e+00 -2.0589952159e-03 2.9212983510e+00 -5.0598371680e+00 2.9212983510e+00 5.0598371680e+00 
80000 5.7046678171e+00 -2.0441767713e-03 2.9213335922e+00 -5.0598982075e+00 2.9213335922e+00 5.0598982075e+00 
80100 5.7046677329e+00 -2.0294656906e-03 2.9213685793e+00 -5.0599588070e+00 2.9213685793e+00 5.0599588070e+00 
80200 5.7046676499e+00 -2.0148611921e-03 2.9214033142e+00 -5.0600189696e+00 2.9214033142e+00 5.0600189696e+00 
80300 5.7046675681e+00 -2.0003625001e-03 2.9214377987e+00 -5.0600786986e+00 2.9214377987e+00 5.0600786986e+00 
80400 5.7046674875e+00 -1.9859688442e-03 2.9214720347e+00 -5.0601379971e+00 2.9214720347e+00 5.0601379971e+00 
80500 5.7046674080e+00 -1.9716794598e-03 2.9215060240e+00 -5.0601968682e+00 2.9215060240e+00 5.0601968682e+00 
80600 5.7046673297e+00 -1.9574935878e-03 2.9215397683e+00 -5.0602553150e+00 2.9215397683e+00 5.0602553150e+00 
80700 5.7046672524e+00 -1.9434104747e-03 2.9215732694e+00 -5.0603133406e+00 2.9215732694e+00 5.0603133406e+00 
80800 5.7046671763e+00 -1.9294293722e-03 2.9216065291e+00 -5.0603709482e+00 2.9216065291e+00 5.0603709482e+00 
80900 5.7046671012e+00 -1.9155495378e-03 2.9216395492e+00 -5.0604281406e+00 2.9216395492e+00 5.0604281406e+00 
81000 5.7046670272e+00 -1.9017702340e-03 2.9216723313e+00 -5.0604849210e+00 2.9216723313e+00 5.0604849210e+00 
81100 5.7046669542e+00 -1.8880907290e-03 2.9217048773e+00 -5.0605412923e+00 2.9217048773e+00 5.0605412923e+00 
81200 5.7046668823e+00 -1.8745102960e-03 2.9217371888e+00 -5.0605972574e+00 2.9217371888e+00 5.0605972574e+00 
81300 5.7046668114e+00 -1.8610282138e-03 2.9217692676e+00 -5.0606528195e+00 2.9217692676e+00 5.0606528195e+00 
81400 5.7046667415e+00 -1.8476437662e-03 2.9218011153e+00 -5.0607079813e+00 2.9218011153e+00 5.0607079813e+00 
81500 5.7046666726e+00 -1.8343562423e-03 2.9218327336e+00 -5.0607627458e+00 2.9218327336e+00 5.0607627458e+00 
81600 5.7046666047e+00 -1.8211649363e-03 2.9218641241e+00 -5.0608171158e+00 2.9218641241e+00 5.0608171158e+00 
81700 5.7046665378e+00 -1.8080691476e-03 2.9218952886e+00 -5.0608710943e+00 2.9218952886e+00 5.0608710943e+00 
81800 5.7046664718e+00 -1.7950681807e-03 2.9219262287e+00 -5.0609246841e+00 2.9219262287e+00 5.0609246841e+00 
81900 5.7046664067e+00 -1.7821613450e-03 2.9219569459e+00 -5.0609778879e+00 2.9219569459e+00 5.0609778879e+00 
82000 5.7046663426e+00 -1.7693479552e-03 2.9219874420e+00 -5.0610307087e+00 2.9219874420e+00 5.0610307087e+00 
82100 5.7046662793e+00 -1.7566273306e-03 2.9220177185e+00 -5.0610831491e+00 2.9220177185e+00 5.0610831491e+00 
82200 5.7046662170e+00 -1.7439987958e-03 2.9220477770e+00 -5.0611352120e+00 2.9220477770e+00 5.0611352120e+00 
82300 5.7046661556e+00 -1.7314616802e-03 2.9220776192e+00 -5.0611869000e+00 2.9220776192e+00 5.0611869000e+00 
82400 5.7046660950e+00 -1.7190153180e-03 2.9221072464e+00 -5.0612382160e+00 2.9221072464e+00 5.0612382160e+00 
82500 5.7046660353e+00 -1.7066590482e-03 2.9221366605e+00 -5.0612891626e+00 2.9221366605e+00 5.0612891626e+00 
82600 5.7046659764e+00 -1.6943922148e-03 2.9221658627e+00 -5.0613397424e+00 2.9221658627e+00 5.0613397424e+00 
82700 5.7046659184e+00 -1.6822141665e-03 2.9221948549e+00 -5.0613899582e+00 2.9221948549e+00 5.0613899582e+00 
82800 5.7046658612e+00 -1.6701242566e-03 2.9222236383e+00 -5.0614398126e+00 2.9222236383e+00 5.0614398126e+00 
82900 5.7046658048e+00 -1.6581218433e-03 2.9222522146e+00 -5.0614893082e+00 2.9222522146e+00 5.0614893082e+00 
83000 5.7046657492e+00 -1.6462062893e-03 2.9222805853e+00 -5.0615384477e+00 2.9222805853e+00 5.0615384477e+00 
83100 5.7046656945e+00 -1.6343769621e-03 2.9223087518e+00 -5.0615872335e+00 2.9223087518e+00 5.0615872335e+00 
83200 5.7046656404e+00 -1.6226332337e-03 2.9223367156e+00 -5.0616356683e+00 2.9223367156e+00 5.0616356683e+00 
83300 5.7046655872e+00 -1.6109744806e-03 2.9223644783e+00 -5.0616837546e+00 2.9223644783e+00 5.0616837546e+00 
83400 5.7046655347e+00 -1.5994000841e-03 2.9223920412e+00 -5.0617314949e+00 2.9223920412e+00 5.0617314949e+00 
83500 5.7046654830e+00 -1.5879094297e-03 2.9224194058e+00 -5.0617788918e+00 2.9224194058e+00 5.0617788918e+00 
83600 5.7046654320e+00 -1.5765019075e-03 2.9224465735e+00 -5.0618259478e+00 2.9224465735e+00 5.0618259478e+00 
83700 5.7046653817e+00 -1.5651769122e-03 2.9224735459e+00 -5.0618726652e+00 2.9224735459e+00 5.0618726652e+00 
83800 5.7046653322e+00 -1.5539338425e-03 2.9225003242e+00 -5.0619190467e+00 2.9225003242e+00 5.0619190467e+00 
83900 5.7046652833e+00 -1.5427721020e-03 2.9225269099e+00 -5.0619650945e+00 2.9225269099e+00 5.0619650945e+00 
84000 5.7046652352e+00 -1.5316910983e-03 2.9225533045e+00 -5.0620108112e+00 2.9225533045e+00 5.0620108112e+00 
84100 5.7046651877e+00 -1.5206902434e-03 2.9225795092e+00 -5.0620561991e+00 2.9225795092e+00 5.0620561991e+00 
84200 5.7046651409e+00 -1.5097689535e-03 2.9226055255e+00 -5.0621012606e+00 2.9226055255e+00 5.0621012606e+00 
84300 5.7046650948e+00 -1.4989266492e-03 2.9226313547e+00 -5.0621459981e+00 2.9226313547e+00 5.0621459981e+00 
84400 5.7046650493e+00 -1.4881627552e-03 2.9226569981e+00 -5.0621904139e+00 2.9226569981e+00 5.0621904139e+00 
84500 5.7046650045e+00 -1.4774767006e-03 2.9226824573e+00 -5.0622345103e+00 2.9226824573e+00 5.0622345103e+00 
84600 5.7046649603e+00 -1.4668679183e-03 2.9227077333e+00 -5.0622782898e+00 2.9227077333e+00 5.0622782898e+00 
84700 5.7046649168e+00 -1.4563358457e-03 2.9227328277e+00 -5.0623217545e+00 2.9227328277e+00 5.0623217545e+00 
84800 5.7046648738e+00 -1.4458799242e-03 2.9227577417e+00 -5.0623649068e+00 2.9227577417e+00 5.0623649068e+00 
84900 5.7046648315e+00 -1.4354995990e-03 2.9227824766e+00 -5.0624077489e+00 2.9227824766e+00 5.0624077489e+00 
85000 5.7046647898e+00 -1.4251943198e-03 2.9228070337e+00 -5.0624502830e+00 2.9228070337e+00 5.0624502830e+00 
85100 5.7046647487e+00 -1.4149635399e-03 2.9228314143e+00 -5.0624925115e+00 2.9228314143e+00 5.0624925115e+00 
85200 5.7046647081e+00 -1.4048067168e-03 2.9228556197e+00 -5.0625344365e+00 2.9228556197e+00 5.0625344365e+00 
85300 5.7046646682e+00 -1.3947233121e-03 2.9228796511e+00 -5.0625760601e+00 2.9228796511e+00 5.0625760601e+00 
85400 5.7046646288e+00 -1.3847127909e-03 2.9229035099e+00 -5.0626173847e+00 2.9229035099e+00 5.0626173847e+00 
85500 5.7046645900e+00 -1.3747746225e-03 2.9229271972e+00 -5.0626584123e+00 2.9229271972e+00 5.0626584123e+00 
85600 5.7046645517e+00 -1.3649082802e-03 2.9229507143e+00 -5.0626991452e+00 2.9229507143e+00 5.0626991452e+00 
85700 5.7046645140e+00 -1.3551132408e-03 2.9229740624e+00 -5.0627395854e+00 2.9229740624e+00 5.0627395854e+00 
85800 5.7046644768e+00 -1.3453889851e-03 2.9229972429e+00 -5.0627797350e+00 2.9229972429e+00 5.0627797350e+00 
85900 5.7046644402e+00 -1.3357349977e-03 2.9230202568e+00 -5.0628195962e+00 2.9230202568e+00 5.0628195962e+00 
86000 5.7046644041e+00 -1.3261507670e-03 2.9230431053e+00 -5.0628591711e+00 2.9230431053e+00 5.0628591711e+00 
86100 5.7046643685e+00 -1.3166357850e-03 2.9230657898e+00 -5.0628984618e+00 2.9230657898e+00 5.0628984618e+00 
86200 5.7046643334e+00 -1.3071895474e-03 2.9230883113e+00 -5.0629374702e+00 2.9230883113e+00 5.0629374702e+00 
86300 5.7046642988e+00 -1.2978115538e-03 2.9231106711e+00 -5.0629761984e+00 2.9231106711e+00 5.0629761984e+00 
86400 5.7046642647e+00 -1.2885013073e-03 2.9231328702e+00 -5.0630146485e+00 2.9231328702e+00 5.0630146485e+00 
86500 5.7046642310e+00 -1.2792583145e-03 2.9231549100e+00 -5.0630528225e+00 2.9231549100e+00 5.0630528225e+00 
86600 5.7046641979e+00 -1.2700820859e-03 2.9231767915e+00 -5.0630907224e+00 2.9231767915e+00 5.0630907224e+00 
86700 5.7046641653e+00 -1.2609721353e-03 2.9231985159e+00 -5.0631283501e+00 2.9231985159e+00 5.0631283501e+00 
86800 5.7046641331e+00 -1.2519279803e-03 2.9232200842e+00 -5.0631657076e+00 2.9232200842e+00 5.0631657076e+00 
86900 5.7046641013e+00 -1.2429491417e-03 2.9232414978e+00 -5.0632027970e+00 2.9232414978e+00 5.0632027970e+00 
87000 5.7046640700e+00 -1.2340351442e-03 2.9232627576e+00 -5.0632396200e+00 2.9232627576e+00 5.0632396200e+00 
87100 5.7046640392e+00 -1.2251855156e-03 2.9232838648e+00 -5.0632761787e+00 2.9232838648e+00 5.0632761787e+00 
87200 5.7046640088e+00 -1.2163997874e-03 2.9233048204e+00 -5.0633124750e+00 2.9233048204e+00 5.0633124750e+00 
87300 5.7046639789e+00 -1.2076774945e-03 2.9233256257e+00 -5.0633485107e+00 2.9233256257e+00 5.0633485107e+00 
87400 5.7046639494e+00 -1.1990181749e-03 2.9233462816e+00 -5.0633842878e+00 2.9233462816e+00 5.0633842878e+00 
87500 5.7046639203e+00 -1.1904213705e-03 2.9233667892e+00 -5.0634198081e+00 2.9233667892e+00 5.0634198081e+00 
87600 5.7046638916e+00 -1.1818866260e-03 2.9233871497e+00 -5.0634550735e+00 2.9233871497e+00 5.0634550735e+00 
87700 5.7046638633e+00 -1.1734134898e-03 2.9234073641e+00 -5.0634900858e+00 2.9234073641e+00 5.0634900858e+00 
87800 5.7046638354e+00 -1.1650015136e-03 2.9234274334e+00 -5.0635248468e+00 2.9234274334e+00 5.0635248468e+00 
87900 5.7046638080e+00 -1.1566502520e-03 2.9234473587e+00 -5.0635593584e+00 2.9234473587e+00 5.0635593584e+00 
88000 5.7046637809e+00 -1.1483592634e-03 2.9234671410e+00 -5.0635936224e+00 2.9234671410e+00 5.0635936224e+00 
88100 5.7046637542e+00 -1.1401281089e-03 2.9234867814e+00 -5.0636276406e+00 2.9234867814e+00 5.0636276406e+00 
88200 5.7046637279e+00 -1.1319563532e-03 2.9235062808e+00 -5.0636614147e+00 2.9235062808e+00 5.0636614147e+00 
88300 5.7046637020e+00 -1.1238435640e-03 2.9235256404e+00 -5.0636949465e+00 2.9235256404e+00 5.0636949465e+00 
88400 5.7046636764e+00 -1.1157893122e-03 2.9235448611e+00 -5.0637282377e+00 2.9235448611e+00 5.0637282377e+00 
88500 5.7046636512e+00 -1.1077931718e-03 2.9235639440e+00 -5.0637612901e+00 2.9235639440e+00 5.0637612901e+00 
88600 5.7046636264e+00 -1.0998547200e-03 2.9235828899e+00 -5.0637941055e+00 2.9235828899e+00 5.0637941055e+00 
88700 5.7046636019e+00 -1.0919735370e-03 2.9236017000e+00 -5.0638266855e+00 2.9236017000e+00 5.0638266855e+00 
88800 5.7046635778e+00 -1.0841492061e-03 2.9236203752e+00 -5.0638590318e+00 2.9236203752e+00 5.0638590318e+00 
88900 5.7046635540e+00 -1.0763813137e-03 2.9236389164e+00 -5.0638911462e+00 2.9236389164e+00 5.0638911462e+00 
89000 5.7046635306e+00 -1.0686694491e-03 2.9236573247e+00 -5.0639230302e+00 2.9236573247e+00 5.0639230302e+00 
89100 5.7046635075e+00 -1.0610132048e-03 2.9236756009e+00 -5.0639546857e+00 2.9236756009e+00 5.0639546857e+00 
89200 5.7046634848e+00 -1.0534121762e-03 2.9236937461e+00 -5.0639861141e+00 2.9236937461e+00 5.0639861141e+00 
89300 5.7046634623e+00 -1.0458659614e-03 2.9237117612e+00 -5.0640173172e+00 2.9237117612e+00 5.0640173172e+00 
89400 5.7046634402e+00 -1.0383741619e-03 2.9237296472e+00 -5.0640482965e+00 2.9237296472e+00 5.0640482965e+00 
89500 5.7046634184e+00 -1.0309363817e-03 2.9237474049e+00 -5.0640790538e+00 2.9237474049e+00 5.0640790538e+00 
89600 5.7046633969e+00 -1.0235522281e-03 2.9237650353e+00 -5.0641095906e+00 2.9237650353e+00 5.0641095906e+00 
89700 5.7046633758e+00 -1.0162213108e-03 2.9237825393e+00 -5.0641399084e+00 2.9237825393e+00 5.0641399084e+00 
89800 5.7046633549e+00 -1.0089432427e-03 2.9237999179e+00 -5.0641700090e+00 2.9237999179e+00 5.0641700090e+00 
89900 5.7046633343e+00 -1.0017176396e-03 2.9238171719e+00 -5.0641998938e+00 2.9238171719e+00 5.0641998938e+00 
90000 5.7046633141e+00 -9.9454411968e-04 2.9238343022e+00 -5.0642295643e+00 2.9238343022e+00 5.0642295643e+00 
90100 5.7046632941e+00 -9.8742230435e-04 2.9238513098e+00 -5.0642590223e+00 2.9238513098e+00 5.0642590223e+00 
90200 5.7046632744e+00 -9.8035181759e-04 2.9238681954e+00 -5.0642882691e+00 2.9238681954e+00 5.0642882691e+00 
90300 5.7046632550e+00 -9.7333228616e-04 2.9238849601e+00 -5.0643173063e+00 2.9238849601e+00 5.0643173063e+00 
90400 5.7046632358e+00 -9.6636333956e-04 2.9239016046e+00 -5.0643461355e+00 2.9239016046e+00 5.0643461355e+00 
90500 5.7046632170e+00 -9.5944460999e-04 2.9239181299e+00 -5.0643747581e+00 2.9239181299e+00 5.0643747581e+00 
90600 5.7046631984e+00 -9.5257573236e-04 2.9239345367e+00 -5.0644031756e+00 2.9239345367e+00 5.0644031756e+00 
90700 5.7046631801e+00 -9.4575634423e-04 2.9239508260e+00 -5.0644313895e+00 2.9239508260e+00 5.0644313895e+00 
90800 5.7046631620e+00 -9.3898608583e-04 2.9239669986e+00 -5.0644594012e+00 2.9239669986e+00 5.0644594012e+00 
90900 5.7046631442e+00 -9.3226460001e-04 2.9239830553e+00 -5.0644872123e+00 2.9239830553e+00 5.0644872123e+00 
91000 5.7046631267e+00 -9.2559153226e-04 2.9239989970e+00 -5.0645148241e+00 2.9239989970e+00 5.0645148241e+00 
91100 5.7046631094e+00 -9.1896653062e-04 2.9240148245e+00 -5.0645422382e+00 2.9240148245e+00 5.0645422382e+00 
91200 5.7046630924e+00 -9.1238924575e-04 2.9240305387e+00 -5.0645694558e+00 2.9240305387e+00 5.0645694558e+00 
91300 5.7046630756e+00 -9.0585933084e-04 2.9240461402e+00 -5.0645964786e+00 2.9240461402e+00 5.0645964786e+00 
91400 5.7046630591e+00 -8.9937644164e-04 2.9240616301e+00 -5.0646233078e+00 2.9240616301e+00 5.0646233078e+00 
91500 5.7046630428e+00 -8.9294023639e-04 2.9240770090e+00 -5.0646499448e+00 2.9240770090e+00 5.0646499448e+00 
91600 5.7046630267e+00 -8.8655037587e-04 2.9240922778e+00 -5.0646763911e+00 2.9240922778e+00 5.0646763911e+00 
91700 5.7046630109e+00 -8.8020652330e-04 2.9241074372e+00 -5.0647026480e+00 2.9241074372e+00 5.0647026480e+00 
91800 5.7046629952e+00 -8.7390834440e-04 2.9241224880e+00 -5.0647287169e+00 2.9241224880e+00 5.0647287169e+00 
91900 5.7046629799e+00 -8.6765550733e-04 2.9241374311e+00 -5.0647545991e+00 2.9241374311e+00 5.0647545991e+00 
92000 5.7046629647e+00 -8.6144768267e-04 2.9241522673e+00 -5.0647802960e+00 2.9241522673e+00 5.0647802960e+00 
92100 5.7046629498e+00 -8.5528454341e-04 2.9241669971e+00 -5.0648058089e+00 2.9241669971e+00 5.0648058089e+00 
92200 5.7046629350e+00 -8.4916576494e-04 2.9241816216e+00 -5.0648311391e+00 2.9241816216e+00 5.0648311391e+00 
92300 5.7046629205e+00 -8.4309102504e-04 2.9241961413e+00 -5.0648562880e+00 2.9241961413e+00 5.0648562880e+00 
92400 5.7046629062e+00 -8.3706000383e-04 2.9242105571e+00 -5.0648812569e+00 2.9242105571e+00 5.0648812569e+00 
92500 5.7046628921e+00 -8.3107238377e-04 2.9242248697e+00 -5.0649060470e+00 2.9242248697e+00 5.0649060470e+00 
92600 5.7046628782e+00 -8.2512784965e-04 2.9242390798e+00 -5.0649306597e+00 2.9242390798e+00 5.0649306597e+00 
92700 5.7046628645e+00 -8.1922608859e-04 2.9242531882e+00 -5.0649550962e+00 2.9242531882e+00 5.0649550962e+00 
92800 5.7046628510e+00 -8.1336678996e-04 2.9242671957e+00 -5.0649793579e+00 2.9242671957e+00 5.0649793579e+00 
92900 5.7046628377e+00 -8.0754964543e-04 2.9242811029e+00 -5.0650034458e+00 2.9242811029e+00 5.0650034458e+00 
93000 5.7046628246e+00 -8.0177434892e-04 2.9242949106e+00 -5.0650273614e+00 2.9242949106e+00 5.0650273614e+00 
93100 5.7046628117e+00 -7.9604059661e-04 2.9243086194e+00 -5.0650511059e+00 2.9243086194e+00 5.0650511059e+00 
93200 5.7046627990e+00 -7.9034808687e-04 2.9243222302e+00 -5.0650746804e+00 2.9243222302e+00 5.0650746804e+00 
93300 5.7046627864e+00 -7.8469652030e-04 2.9243357436e+00 -5.0650980862e+00 2.9243357436e+00 5.0650980862e+00 
93400 5.7046627741e+00 -7.7908559970e-04 2.9243491602e+00 -5.0651213246e+00 2.9243491602e+00 5.0651213246e+00 
93500 5.7046627619e+00 -7.7351503002e-04 2.9243624809e+00 -5.0651443967e+00 2.9243624809e+00 5.0651443967e+00 
93600 5.7046627499e+00 -7.6798451839e-04 2.9243757063e+00 -5.0651673037e+00 2.9243757063e+00 5.0651673037e+00 
93700 5.7046627380e+00 -7.6249377407e-04 2.9243888370e+00 -5.0651900468e+00 2.9243888370e+00 5.0651900468e+00 
93800 5.7046627264e+00 -7.5704250847e-04 2.9244018738e+00 -5.0652126272e+00 2.9244018738e+00 5.0652126272e+00 
93900 5.7046627149e+00 -7.5163043510e-04 2.9244148174e+00 -5.0652350461e+00 2.9244148174e+00 5.0652350461e+00 
94000 5.7046627035e+00 -7.4625726956e-04 2.9244276684e+00 -5.0652573047e+00 2.9244276684e+00 5.0652573047e+00 
94100 5.7046626924e+00 -7.4092272954e-04 2.9244404274e+00 -5.0652794040e+00 2.9244404274e+00 5.0652794040e+00 
94200 5.7046626814e+00 -7.3562653480e-04 2.9244530952e+00 -5.0653013452e+00 2.9244530952e+00 5.0653013452e+00 
94300 5.7046626705e+00 -7.3036840715e-04 2.9244656724e+00 -5.0653231295e+00 2.9244656724e+00 5.0653231295e+00 
94400 5.7046626598e+00 -7.2514807044e-04 2.9244781596e+00 -5.0653447580e+00 2.9244781596e+00 5.0653447580e+00 
94500 5.7046626493e+00 -7.1996525052e-04 2.9244905575e+00 -5.0653662318e+00 2.9244905575e+00 5.0653662318e+00 
94600 5.7046626389e+00 -7.1481967528e-04 2.9245028667e+00 -5.0653875521e+00 2.9245028667e+00 5.0653875521e+00 
94700 5.7046626287e+00 -7.0971107458e-04 2.9245150880e+00 -5.0654087199e+00 2.9245150880e+00 5.0654087199e+00 
94800 5.7046626186e+00 -7.0463918026e-04 2.9245272218e+00 -5.0654297363e+00 2.9245272218e+00 5.0654297363e+00 
94900 5.7046626087e+00 -6.9960372614e-04 2.9245392689e+00 -5.0654506024e+00 2.9245392689e+00 5.0654506024e+00 
95000 5.7046625989e+00 -6.9460444796e-04 2.9245512298e+00 -5.0654713193e+00 2.9245512298e+00 5.0654713193e+00 
95100 5.7046625893e+00 -6.8964108341e-04 2.9245631052e+00 -5.0654918882e+00 2.9245631052e+00 5.0654918882e+00 
95200 5.7046625798e+00 -6.8471337211e-04 2.9245748957e+00 -5.0655123099e+00 2.9245748957e+00 5.0655123099e+00 
95300 5.7046625704e+00 -6.7982105558e-04 2.9245866019e+00 -5.0655325857e+00 2.9245866019e+00 5.0655325857e+00 
95400 5.7046625612e+00 -6.7496387721e-04 2.9245982244e+00 -5.0655527165e+00 2.9245982244e+00 5.0655527165e+00 
95500 5.7046625521e+00 -6.7014158230e-04 2.9246097639e+00 -5.0655727034e+00 2.9246097639e+00 5.0655727034e+00 
95600 5.7046625431e+00 -6.6535391800e-04 2.9246212208e+00 -5.0655925474e+00 2.9246212208e+00 5.0655925474e+00 
95700 5.7046625343e+00 -6.6060063331e-04 2.9246325959e+00 -5.0656122495e+00 2.9246325959e+00 5.0656122495e+00 
95800 5.7046625256e+00 -6.5588147907e-04 2.9246438896e+00 -5.0656318109e+00 2.9246438896e+00 5.0656318109e+00 
95900 5.7046625170e+00 -6.5119620794e-04 2.9246551026e+00 -5.0656512324e+00 2.9246551026e+00 5.0656512324e+00 
96000 5.7046625085e+00 -6.4654457439e-04 2.9246662355e+00 -5.0656705151e+00 2.9246662355e+00 5.0656705151e+00 
96100 5.7046625002e+00 -6.4192633469e-04 2.9246772888e+00 -5.0656896600e+00 2.9246772888e+00 5.0656896600e+00 
96200 5.7046624920e+00 -6.3734124691e-04 2.9246882632e+00 -5.0657086681e+00 2.9246882632e+00 5.0657086681e+00 
96300 5.7046624839e+00 -6.3278907085e-04 2.9246991590e+00 -5.0657275403e+00 2.9246991590e+00 5.0657275403e+00 
96400 5.7046624759e+00 -6.2826956811e-04 2.9247099771e+00 -5.0657462777e+00 2.9247099771e+00 5.0657462777e+00 
96500 5.7046624681e+00 -6.2378250200e-04 2.9247207178e+00 -5.0657648812e+00 2.9247207178e+00 5.0657648812e+00 
96600 5.7046624603e+00 -6.1932763760e-04 2.9247313818e+00 -5.0657833517e+00 2.9247313818e+00 5.0657833517e+00 
96700 5.7046624527e+00 -6.1490474167e-04 2.9247419695e+00 -5.0658016903e+00 2.9247419695e+00 5.0658016903e+00 
96800 5.7046624452e+00 -6.1051358270e-04 2.9247524817e+00 -5.0658198978e+00 2.9247524817e+00 5.0658198978e+00 
96900 5.7046624378e+00 -6.0615393087e-04 2.9247629187e+00 -5.0658379753e+00 2.9247629187e+00 5.0658379753e+00 
97000 5.7046624305e+00 -6.0182555803e-04 2.9247732811e+00 -5.0658559236e+00 2.9247732811e+00 5.0658559236e+00 
97100 5.7046624233e+00 -5.9752823773e-04 2.9247835696e+00 -5.0658737436e+00 2.9247835696e+00 5.0658737436e+00 
97200 5.7046624162e+00 -5.9326174513e-04 2.9247937845e+00 -5.0658914364e+00 2.9247937845e+00 5.0658914364e+00 
97300 5.7046624092e+00 -5.8902585709e-04 2.9248039264e+00 -5.0659090028e+00 2.9248039264e+00 5.0659090028e+00 
97400 5.7046624023e+00 -5.8482035205e-04 2.9248139959e+00 -5.0659264436e+00 2.9248139959e+00 5.0659264436e+00 
97500 5.7046623955e+00 -5.8064501010e-04 2.9248239935e+00 -5.0659437599e+00 2.9248239935e+00 5.0659437599e+00 
97600 5.7046623888e+00 -5.7649961293e-04 2.9248339197e+00 -5.0659609525e+00 2.9248339197e+00 5.0659609525e+00 
97700 5.7046623823e+00 -5.7238394384e-04 2.9248437749e+00 -5.0659780224e+00 2.9248437749e+00 5.0659780224e+00 
97800 5.7046623758e+00 -5.6829778770e-04 2.9248535598e+00 -5.0659949702e+00 2.9248535598e+00 5.0659949702e+00 
97900 5.7046623694e+00 -5.6424093095e-04 2.9248632748e+00 -5.0660117971e+00 2.9248632748e+00 5.0660117971e+00 
98000 5.7046623631e+00 -5.6021316162e-04 2.9248729204e+00 -5.0660285038e+00 2.9248729204e+00 5.0660285038e+00 
98100 5.7046623569e+00 -5.5621426924e-04 2.9248824971e+00 -5.0660450911e+00 2.9248824971e+00 5.0660450911e+00 
98200 5.7046623507e+00 -5.5224404494e-04 2.9248920054e+00 -5.0660615600e+00 2.9248920054e+00 5.0660615600e+00 
98300 5.7046623447e+00 -5.4830228133e-04 2.9249014458e+00 -5.0660779113e+00 2.9249014458e+00 5.0660779113e+00 
98400 5.7046623388e+00 -5.4438877256e-04 2.9249108188e+00 -5.0660941458e+00 2.9249108188e+00 5.0660941458e+00 
98500 5.7046623329e+00 -5.4050331428e-04 2.9249201249e+00 -5.0661102644e+00 2.9249201249e+00 5.0661102644e+00 
98600 5.7046623271e+00 -5.3664570363e-04 2.9249293645e+00 -5.0661262679e+00 2.9249293645e+00 5.0661262679e+00 
98700 5.7046623215e+00 -5.3281573923e-04 2.9249385382e+00 -5.0661421572e+00 2.9249385382e+00 5.0661421572e+00 
98800 5.7046623159e+00 -5.2901322119e-04 2.9249476464e+00 -5.0661579330e+00 2.9249476464e+00 5.0661579330e+00 
98900 5.7046623103e+00 -5.2523795107e-04 2.9249566895e+00 -5.0661735961e+00 2.9249566895e+00 5.0661735961e+00 
99000 5.7046623049e+00 -5.2148973187e-04 2.9249656681e+00 -5.0661891475e+00 2.9249656681e+00 5.0661891475e+00 
99100 5.7046622995e+00 -5.1776836805e-04 2.9249745825e+00 -5.0662045878e+00 2.9249745825e+00 5.0662045878e+00 
99200 5.7046622943e+00 -5.1407366549e-04 2.9249834333e+00 -5.0662199178e+00 2.9249834333e+00 5.0662199178e+00 
99300 5.7046622891e+00 -5.1040543148e-04 2.9249922210e+00 -5.0662351385e+00 2.9249922210e+00 5.0662351385e+00 
99400 5.7046622839e+00 -5.0676347474e-04 2.9250009459e+00 -5.0662502505e+00 2.9250009459e+00 5.0662502505e+00 
99500 5.7046622789e+00 -5.0314760537e-04 2.9250096085e+00 -5.0662652546e+00 2.9250096085e+00 5.0662652546e+00 
99600 5.7046622739e+00 -4.9955763486e-04 2.9250182093e+00 -5.0662801516e+00 2.9250182093e+00 5.0662801516e+00 
99700 5.7046622690e+00 -4.9599337609e-04 2.9250267487e+00 -5.0662949422e+00 2.9250267487e+00 5.0662949422e+00 
99800 5.7046622642e+00 -4.9245464329e-04 2.9250352271e+00 -5.0663096273e+00 2.9250352271e+00 5.0663096273e+00 
99900 5.7046622594e+00 -4.8894125205e-04 2.9250436451e+00 -5.0663242076e+00 2.9250436451e+00 5.0663242076e+00 
100000 5.7046622547e+00 -4.8545301933e-04 2.9250520029e+00 -5.0663386838e+00 2.9250520029e+00 5.0663386838e+00 
100100 5.7046622501e+00 -4.8198976340e-04 2.9250603011e+00 -5.0663530567e+00 2.9250603011e+00 5.0663530567e+00 
100200 5.7046622455e+00 -4.7855130387e-04 2.9250685401e+00 -5.0663673271e+00 2.9250685401e+00 5.0663673271e+00 
100300 5.7046622410e+00 -4.7513746167e-04 2.9250767203e+00 -5.0663814956e+00 2.9250767203e+00 5.0663814956e+00 
100400 5.7046622366e+00 -4.7174805903e-04 2.9250848421e+00 -5.0663955629e+00 2.9250848421e+00 5.0663955629e+00 
100500 5.7046622323e+00 -4.6838291948e-04 2.9250929059e+00 -5.0664095299e+00 2.9250929059e+00 5.0664095299e+00 
100600 5.7046622280e+00 -4.6504186784e-04 2.9251009122e+00 -5.0664233972e+00 2.9251009122e+00 5.0664233972e+00 
100700 5.7046622237e+00 -4.6172473021e-04 2.9251088614e+00 -5.0664371656e+00 2.9251088614e+00 5.0664371656e+00 
100800 5.7046622196e+00 -4.5843133397e-04 2.9251167538e+00 -5.0664508357e+00 2.9251167538e+00 5.0664508357e+00 
100900 5.7046622155e+00 -4.5516150775e-04 2.9251245899e+00 -5.0664644082e+00 2.9251245899e+00 5.0664644082e+00 
101000 5.7046622114e+00 -4.5191508142e-04 2.9251323701e+00 -5.0664778840e+00 2.9251323701e+00 5.0664778840e+00 
101100 5.7046622074e+00 -4.4869188612e-04 2.9251400948e+00 -5.0664912635e+00 2.9251400948e+00 5.0664912635e+00 
101200 5.7046622035e+00 -4.4549175419e-04 2.9251477644e+00 -5.0665045476e+00 2.9251477644e+00 5.0665045476e+00 
101300 5.7046621996e+00 -4.4231451923e-04 2.9251553793e+00 -5.0665177370e+00 2.9251553793e+00 5.0665177370e+00 
101400 5.7046621958e+00 -4.3916001603e-04 2.9251629398e+00 -5.0665308322e+00 2.9251629398e+00 5.0665308322e+00 
101500 5.7046621921e+00 -4.3602808058e-04 2.9251704464e+00 -5.0665438340e+00 2.9251704464e+00 5.0665438340e+00 
101600 5.7046621883e+00 -4.3291855010e-04 2.9251778995e+00 -5.0665567430e+00 2.9251778995e+00 5.0665567430e+00 
101700 5.7046621847e+00 -4.2983126296e-04 2.9251852993e+00 -5.0665695600e+00 2.9251852993e+00 5.0665695600e+00 
101800 5.7046621811e+00 -4.2676605873e-04 2.9251926464e+00 -5.0665822855e+00 2.9251926464e+00 5.0665822855e+00 
101900 5.7046621776e+00 -4.2372277816e-04 2.9251999411e+00 -5.0665949202e+00 2.9251999411e+00 5.0665949202e+00 
102000 5.7046621741e+00 -4.2070126313e-04 2.9252071837e+00 -5.0666074648e+00 2.9252071837e+00 5.0666074648e+00 
102100 5.7046621706e+00 -4.1770135671e-04 2.9252143747e+00 -5.0666199200e+00 2.9252143747e+00 5.0666199200e+00 
102200 5.7046621673e+00 -4.1472290309e-04 2.9252215144e+00 -5.0666322862e+00 2.9252215144e+00 5.0666322862e+00 
102300 5.7046621639e+00 -4.1176574760e-04 2.9252286031e+00 -5.0666445643e+00 2.9252286031e+00 5.0666445643e+00 
102400 5.7046621606e+00 -4.0882973672e-04 2.9252356413e+00 -5.0666567548e+00 2.9252356413e+00 5.0666567548e+00 
102500 5.7046621574e+00 -4.0591471802e-04 2.9252426293e+00 -5.0666688583e+00 2.9252426293e+00 5.0666688583e+00 
102600 5.7046621542e+00 -4.0302054019e-04 2.9252495674e+00 -5.0666808756e+00 2.9252495674e+00 5.0666808756e+00 
102700 5.7046621511e+00 -4.0014705304e-04 2.9252564561e+00 -5.0666928071e+00 2.9252564561e+00 5.0666928071e+00 
102800 5.7046621480e+00 -3.9729410746e-04 2.9252632956e+00 -5.0667046535e+00 2.9252632956e+00 5.0667046535e+00 
102900 5.7046621449e+00 -3.9446155543e-04 2.9252700863e+00 -5.0667164154e+00 2.9252700863e+00 5.0667164154e+00 
103000 5.7046621419e+00 -3.9164925001e-04 2.9252768286e+00 -5.0667280934e+00 2.9252768286e+00 5.0667280934e+00 
103100 5.7046621389e+00 -3.8885704533e-04 2.9252835229e+00 -5.0667396881e+00 2.9252835229e+00 5.0667396881e+00 
103200 5.7046621360e+00 -3.8608479658e-04 2.9252901694e+00 -5.0667512002e+00 2.9252901694e+00 5.0667512002e+00 
103300 5.7046621331e+00 -3.8333236002e-04 2.9252967684e+00 -5.0667626302e+00 2.9252967684e+00 5.0667626302e+00 
103400 5.7046621303e+00 -3.8059959295e-04 2.9253033205e+00 -5.0667739786e+00 2.9253033205e+00 5.0667739786e+00 
103500 5.7046621275e+00 -3.7788635369e-04 2.9253098258e+00 -5.0667852461e+00 2.9253098258e+00 5.0667852461e+00 
103600 5.7046621248e+00 -3.7519250163e-04 2.9253162847e+00 -5.0667964333e+00 2.9253162847e+00 5.0667964333e+00 
103700 5.7046621220e+00 -3.7251789716e-04 2.9253226975e+00 -5.0668075407e+00 2.9253226975e+00 5.0668075407e+00 
103800 5.7046621194e+00 -3.6986240169e-04 2.9253290647e+00 -5.0668185689e+00 2.9253290647e+00 5.0668185689e+00 
103900 5.7046621167e+00 -3.6722587764e-04 2.9253353864e+00 -5.0668295184e+00 2.9253353864e+00 5.0668295184e+00 
104000 5.7046621142e+00 -3.6460818844e-04 2.9253416630e+00 -5.0668403899e+00 2.9253416630e+00 5.0668403899e+00 
104100 5.7046621116e+00 -3.6200919850e-04 2.9253478949e+00 -5.0668511838e+00 2.9253478949e+00 5.0668511838e+00 
104200 5.7046621091e+00 -3.5942877324e-04 2.9253540824e+00 -5.0668619008e+00 2.9253540824e+00 5.0668619008e+00 
104300 5.7046621066e+00 -3.5686677905e-04 2.9253602257e+00 -5.0668725414e+00 2.9253602257e+00 5.0668725414e+00 
104400 5.7046621042e+00 -3.5432308328e-04 2.9253663253e+00 -5.0668831061e+00 2.9253663253e+00 5.0668831061e+00 
104500 5.7046621018e+00 -3.5179755425e-04 2.9253723813e+00 -5.0668935955e+00 2.9253723813e+00 5.0668935955e+00 
104600 5.7046620994e+00 -3.4929006126e-04 2.9253783942e+00 -5.0669040101e+00 2.9253783942e+00 5.0669040101e+00 
104700 5.7046620971e+00 -3.4680047455e-04 2.9253843642e+00 -5.0669143504e+00 2.9253843642e+00 5.0669143504e+00 
104800 5.7046620948e+00 -3.4432866529e-04 2.9253902916e+00 -5.0669246171e+00 2.9253902916e+00 5.0669246171e+00 
104900 5.7046620925e+00 -3.4187450560e-04 2.9253961768e+00 -5.0669348105e+00 2.9253961768e+00 5.0669348105e+00 
105000 5.7046620903e+00 -3.3943786854e-04 2.9254020200e+00 -5.0669449312e+00 2.9254020200e+00 5.0669449312e+00 
105100 5.7046620881e+00 -3.3701862807e-04 2.9254078216e+00 -5.0669549798e+00 2.9254078216e+00 5.0669549798e+00 
105200 5.7046620859e+00 -3.3461665910e-04 2.9254135818e+00 -5.0669649568e+00 2.9254135818e+00 5.0669649568e+00 
105300 5.7046620838e+00 -3.3223183742e-04 2.9254193009e+00 -5.0669748626e+00 2.9254193009e+00 5.0669748626e+00 
105400 5.7046620817e+00 -3.2986403974e-04 2.9254249793e+00 -5.0669846979e+00 2.9254249793e+00 5.0669846979e+00 
105500 5.7046620796e+00 -3.2751314366e-04 2.9254306172e+00 -5.0669944630e+00 2.9254306172e+00 5.0669944630e+00 
105600 5.7046620775e+00 -3.2517902768e-04 2.9254362149e+00 -5.0670041584e+00 2.9254362149e+00 5.0670041584e+00 
105700 5.7046620755e+00 -3.2286157117e-04 2.9254417727e+00 -5.0670137848e+00 2.9254417727e+00 5.0670137848e+00 
105800 5.7046620736e+00 -3.2056065439e-04 2.9254472908e+00 -5.0670233426e+00 2.9254472908e+00 5.0670233426e+00 
105900 5.7046620716e+00 -3.1827615846e-04 2.9254527697e+00 -5.0670328322e+00 2.9254527697e+00 5.0670328322e+00 
106000 5.7046620697e+00 -3.1600796537e-04 2.9254582094e+00 -5.0670422542e+00 2.9254582094e+00 5.0670422542e+00 
106100 5.7046620678e+00 -3.1375595798e-04 2.9254636104e+00 -5.0670516090e+00 2.9254636104e+00 5.0670516090e+00 
106200 5.7046620659e+00 -3.1152001998e-04 2.9254689729e+00 -5.0670608971e+00 2.9254689729e+00 5.0670608971e+00 
106300 5.7046620641e+00 -3.0930003592e-04 2.9254742972e+00 -5.0670701190e+00 2.9254742972e+00 5.0670701190e+00 
106400 5.7046620623e+00 -3.0709589119e-04 2.9254795835e+00 -5.0670792752e+00 2.9254795835e+00 5.0670792752e+00 
106500 5.7046620605e+00 -3.0490747199e-04 2.9254848322e+00 -5.0670883661e+00 2.9254848322e+00 5.0670883661e+00 
106600 5.7046620587e+00 -3.0273466539e-04 2.9254900434e+00 -5.0670973922e+00 2.9254900434e+00 5.0670973922e+00 
106700 5.7046620570e+00 -3.0057735924e-04 2.9254952175e+00 -5.0671063540e+00 2.9254952175e+00 5.0671063540e+00 
106800 5.7046620553e+00 -2.9843544222e-04 2.9255003547e+00 -5.0671152519e+00 2.9255003547e+00 5.0671152519e+00 
106900 5.7046620536e+00 -2.9630880383e-04 2.9255054553e+00 -5.0671240864e+00 2.9255054553e+00 5.0671240864e+00 
107000 5.7046620520e+00 -2.9419733435e-04 2.9255105195e+00 -5.0671328579e+00 2.9255105195e+00 5.0671328579e+00 
107100 5.7046620503e+00 -2.9210092489e-04 2.9255155477e+00 -5.0671415669e+00 2.9255155477e+00 5.0671415669e+00 
107200 5.7046620487e+00 -2.9001946731e-04 2.9255205400e+00 -5.0671502138e+00 2.9255205400e+00 5.0671502138e+00 
107300 5.7046620472e+00 -2.8795285430e-04 2.9255254967e+00 -5.0671587991e+00 2.9255254967e+00 5.0671587991e+00 
107400 5.7046620456e+00 -2.8590097928e-04 2.9255304181e+00 -5.0671673232e+00 2.9255304181e+00 5.0671673232e+00 
107500 5.7046620441e+00 -2.8386373649e-04 2.9255353044e+00 -5.0671757865e+00 2.9255353044e+00 5.0671757865e+00 
107600 5.7046620425e+00 -2.8184102090e-04 2.9255401559e+00 -5.0671841895e+00 2.9255401559e+00 5.0671841895e+00 
107700 5.7046620411e+00 -2.7983272828e-04 2.9255449728e+00 -5.0671925327e+00 2.9255449728e+00 5.0671925327e+00 
107800 5.7046620396e+00 -2.7783875512e-04 2.9255497553e+00 -5.0672008163e+00 2.9255497553e+00 5.0672008163e+00 
107900 5.7046620381e+00 -2.7585899870e-04 2.9255545038e+00 -5.0672090410e+00 2.9255545038e+00 5.0672090410e+00 
108000 5.7046620367e+00 -2.7389335700e-04 2.9255592185e+00 -5.0672172070e+00 2.9255592185e+00 5.0672172070e+00 
108100 5.7046620353e+00 -2.7194172878e-04 2.9255638995e+00 -5.0672253148e+00 2.9255638995e+00 5.0672253148e+00 
108200 5.7046620339e+00 -2.7000401352e-04 2.9255685472e+00 -5.0672333648e+00 2.9255685472e+00 5.0672333648e+00 
108300 5.7046620326e+00 -2.6808011142e-04 2.9255731618e+00 -5.0672413574e+00 2.9255731618e+00 5.0672413574e+00 
108400 5.7046620312e+00 -2.6616992342e-04 2.9255777434e+00 -5.0672492931e+00 2.9255777434e+00 5.0672492931e+00 
108500 5.7046620299e+00 -2.6427335117e-04 2.9255822925e+00 -5.0672571722e+00 2.9255822925e+00 5.0672571722e+00 
108600 5.7046620286e+00 -2.6239029703e-04 2.9255868090e+00 -5.0672649952e+00 2.9255868090e+00 5.0672649952e+00 
108700 5.7046620273e+00 -2.6052066408e-04 2.9255912935e+00 -5.0672727624e+00 2.9255912935e+00 5.0672727624e+00 
108800 5.7046620261e+00 -2.5866435610e-04 2.9255957459e+00 -5.0672804743e+00 2.9255957459e+00 5.0672804743e+00 
108900 5.7046620248e+00 -2.5682127755e-04 2.9256001666e+00 -5.0672881312e+00 2.9256001666e+00 5.0672881312e+00 
109000 5.7046620236e+00 -2.5499133361e-04 2.9256045558e+00 -5.0672957335e+00 2.9256045558e+00 5.0672957335e+00 
109100 5.7046620224e+00 -2.5317443013e-04 2.9256089137e+00 -5.0673032817e+00 2.9256089137e+00 5.0673032817e+00 
109200 5.7046620212e+00 -2.5137047364e-04 2.9256132406e+00 -5.0673107760e+00 2.9256132406e+00 5.0673107760e+00 
109300 5.7046620200e+00 -2.4957937137e-04 2.9256175366e+00 -5.0673182170e+00 2.9256175366e+00 5.0673182170e+00 
109400 5.7046620189e+00 -2.4780103120e-04 2.9256218021e+00 -5.0673256049e+00 2.9256218021e+00 5.0673256049e+00 
109500 5.7046620177e+00 -2.4603536167e-04 2.9256260371e+00 -5.0673329402e+00 2.9256260371e+00 5.0673329402e+00 
109600 5.7046620166e+00 -2.4428227202e-04 2.9256302419e+00 -5.0673402231e+00 2.9256302419e+00 5.0673402231e+00 
109700 5.7046620155e+00 -2.4254167212e-04 2.9256344168e+00 -5.0673474542e+00 2.9256344168e+00 5.0673474542e+00 
109800 5.7046620144e+00 -2.4081347248e-04 2.9256385619e+00 -5.0673546338e+00 2.9256385619e+00 5.0673546338e+00 
109900 5.7046620134e+00 -2.3909758430e-04 2.9256426775e+00 -5.0673617622e+00 2.9256426775e+00 5.0673617622e+00 
110000 5.7046620123e+00 -2.3739391939e-04 2.9256467637e+00 -5.0673688397e+00 2.9256467637e+00 5.0673688397e+00 
110100 5.7046620113e+00 -2.3570239020e-04 2.9256508208e+00 -5.0673758669e+00 2.9256508208e+00 5.0673758669e+00 
110200 5.7046620103e+00 -2.3402290984e-04 2.9256548490e+00 -5.0673828439e+00 2.9256548490e+00 5.0673828439e+00 
110300 5.7046620093e+00 -2.3235539201e-04 2.9256588485e+00 -5.0673897713e+00 2.9256588485e+00 5.0673897713e+00 
110400 5.7046620083e+00 -2.3069975108e-04 2.9256628195e+00 -5.0673966492e+00 2.9256628195e+00 5.0673966492e+00 
110500 5.7046620073e+00 -2.2905590200e-04 2.9256667622e+00 -5.0674034782e+00 2.9256667622e+00 5.0674034782e+00 
110600 5.7046620063e+00 -2.2742376035e-04 2.9256706768e+00 -5.0674102584e+00 2.9256706768e+00 5.0674102584e+00 
110700 5.7046620054e+00 -2.2580324234e-04 2.9256745635e+00 -5.0674169904e+00 2.9256745635e+00 5.0674169904e+00 
110800 5.7046620044e+00 -2.2419426476e-04 2.9256784225e+00 -5.0674236744e+00 2.9256784225e+00 5.0674236744e+00 
110900 5.7046620035e+00 -2.2259674501e-04 2.9256822540e+00 -5.0674303107e+00 2.9256822540e+00 5.0674303107e+00 
111000 5.7046620026e+00 -2.2101060109e-04 2.9256860582e+00 -5.0674368998e+00 2.9256860582e+00 5.0674368998e+00 
111100 5.7046620017e+00 -2.1943575160e-04 2.9256898352e+00 -5.0674434418e+00 2.9256898352e+00 5.0674434418e+00 
111200 5.7046620008e+00 -2.1787211571e-04 2.9256935854e+00 -5.0674499373e+00 2.9256935854e+00 5.0674499373e+00 
111300 5.7046620000e+00 -2.1631961319e-04 2.9256973088e+00 -5.0674563865e+00 2.9256973088e+00 5.0674563865e+00 
111400 5.7046619991e+00 -2.1477816439e-04 2.9257010057e+00 -5.0674627897e+00 2.9257010057e+00 5.0674627897e+00 
111500 5.7046619983e+00 -2.1324769024e-04 2.9257046763e+00 -5.0674691472e+00 2.9257046763e+00 5.0674691472e+00 
111600 5.7046619975e+00 -2.1172811222e-04 2.9257083206e+00 -5.0674754595e+00 2.9257083206e+00 5.0674754595e+00 
111700 5.7046619966e+00 -2.1021935240e-04 2.9257119391e+00 -5.0674817268e+00 2.9257119391e+00 5.0674817268e+00 
111800 5.7046619958e+00 -2.0872133340e-04 2.9257155317e+00 -5.0674879494e+00 2.9257155317e+00 5.0674879494e+00 
111900 5.7046619951e+00 -2.0723397842e-04 2.9257190987e+00 -5.0674941276e+00 2.9257190987e+00 5.0674941276e+00 
112000 5.7046619943e+00 -2.0575721118e-04 2.9257226403e+00 -5.0675002618e+00 2.9257226403e+00 5.0675002618e+00 
112100 5.7046619935e+00 -2.0429095599e-04 2.9257261566e+00 -5.0675063523e+00 2.9257261566e+00 5.0675063523e+00 
112200 5.7046619928e+00 -2.0283513768e-04 2.9257296479e+00 -5.0675123994e+00 2.9257296479e+00 5.0675123994e+00 
112300 5.7046619920e+00 -2.0138968163e-04 2.9257331143e+00 -5.0675184034e+00 2.9257331143e+00 5.0675184034e+00 
112400 5.7046619913e+00 -1.9995451376e-04 2.9257365560e+00 -5.0675243646e+00 2.9257365560e+00 5.0675243646e+00 
112500 5.7046619906e+00 -1.9852956053e-04 2.9257399732e+00 -5.0675302833e+00 2.9257399732e+00 5.0675302833e+00 
112600 5.7046619898e+00 -1.9711474893e-04 2.9257433660e+00 -5.0675361598e+00 2.9257433660e+00 5.0675361598e+00 
112700 5.7046619891e+00 -1.9571000647e-04 2.9257467346e+00 -5.0675419944e+00 2.9257467346e+00 5.0675419944e+00 
112800 5.7046619885e+00 -1.9431526119e-04 2.9257500792e+00 -5.0675477875e+00 2.9257500792e+00 5.0675477875e+00 
112900 5.7046619878e+00 -1.9293044165e-04 2.9257534000e+00 -5.0675535392e+00 2.9257534000e+00 5.0675535392e+00 
113000 5.7046619871e+00 -1.9155547691e-04 2.9257566971e+00 -5.0675592500e+00 2.9257566971e+00 5.0675592500e+00 
113100 5.7046619865e+00 -1.9019029658e-04 2.9257599707e+00 -5.0675649201e+00 2.9257599707e+00 5.0675649201e+00 
113200 5.7046619858e+00 -1.8883483073e-04 2.9257632210e+00 -5.0675705497e+00 2.9257632210e+00 5.0675705497e+00 
113300 5.7046619852e+00 -1.8748900998e-04 2.9257664481e+00 -5.0675761392e+00 2.9257664481e+00 5.0675761392e+00 
113400 5.7046619845e+00 -1.8615276541e-04 2.9257696522e+00 -5.0675816889e+00 2.9257696522e+00 5.0675816889e+00 
113500 5.7046619839e+00 -1.8482602863e-04 2.9257728335e+00 -5.0675871990e+00 2.9257728335e+00 5.0675871990e+00 
113600 5.7046619833e+00 -1.8350873172e-04 2.9257759921e+00 -5.0675926698e+00 2.9257759921e+00 5.0675926698e+00 
113700 5.7046619827e+00 -1.8220080728e-04 2.9257791281e+00 -5.0675981016e+00 2.9257791281e+00 5.0675981016e+00 
113800 5.7046619821e+00 -1.8090218835e-04 2.9257822418e+00 -5.0676034947e+00 2.9257822418e+00 5.0676034947e+00 
113900 5.7046619815e+00 -1.7961280850e-04 2.9257853334e+00 -5.0676088494e+00 2.9257853334e+00 5.0676088494e+00 
114000 5.7046619810e+00 -1.7833260175e-04 2.9257884028e+00 -5.0676141659e+00 2.9257884028e+00 5.0676141659e+00 
114100 5.7046619804e+00 -1.7706150261e-04 2.9257914504e+00 -5.0676194445e+00 2.9257914504e+00 5.0676194445e+00 
114200 5.7046619798e+00 -1.7579944605e-04 2.9257944763e+00 -5.0676246855e+00 2.9257944763e+00 5.0676246855e+00 
114300 5.7046619793e+00 -1.7454636751e-04 2.9257974806e+00 -5.0676298891e+00 2.9257974806e+00 5.0676298891e+00 
114400 5.7046619787e+00 -1.7330220292e-04 2.9258004635e+00 -5.0676350556e+00 2.9258004635e+00 5.0676350556e+00 
114500 5.7046619782e+00 -1.7206688864e-04 2.9258034251e+00 -5.0676401853e+00 2.9258034251e+00 5.0676401853e+00 
114600 5.7046619777e+00 -1.7084036151e-04 2.9258063656e+00 -5.0676452784e+00 2.9258063656e+00 5.0676452784e+00 
114700 5.7046619772e+00 -1.6962255881e-04 2.9258092852e+00 -5.0676503352e+00 2.9258092852e+00 5.0676503352e+00 
114800 5.7046619767e+00 -1.6841341828e-04 2.9258121839e+00 -5.0676553559e+00 2.9258121839e+00 5.0676553559e+00 
114900 5.7046619762e+00 -1.6721287810e-04 2.9258150620e+00 -5.0676603409e+00 2.9258150620e+00 5.0676603409e+00 
115000 5.7046619757e+00 -1.6602087692e-04 2.9258179195e+00 -5.0676652903e+00 2.9258179195e+00 5.0676652903e+00 
115100 5.7046619752e+00 -1.6483735380e-04 2.9258207567e+00 -5.0676702044e+00 2.9258207567e+00 5.0676702044e+00 
115200 5.7046619747e+00 -1.6366224827e-04 2.9258235736e+00 -5.0676750835e+00 2.9258235736e+00 5.0676750835e+00 
115300 5.7046619742e+00 -1.6249550026e-04 2.9258263705e+00 -5.0676799278e+00 2.9258263705e+00 5.0676799278e+00 
115400 5.7046619738e+00 -1.6133705017e-04 2.9258291474e+00 -5.0676847376e+00 2.9258291474e+00 5.0676847376e+00 
115500 5.7046619733e+00 -1.6018683880e-04 2.9258319045e+00 -5.0676895130e+00 2.9258319045e+00 5.0676895130e+00 
115600 5.7046619729e+00 -1.5904480739e-04 2.9258346420e+00 -5.0676942544e+00 2.9258346420e+00 5.0676942544e+00 
115700 5.7046619724e+00 -1.5791089759e-04 2.9258373599e+00 -5.0676989621e+00 2.9258373599e+00 5.0676989621e+00 
115800 5.7046619720e+00 -1.5678505150e-04 2.9258400585e+00 -5.0677036361e+00 2.9258400585e+00 5.0677036361e+00 
115900 5.7046619716e+00 -1.5566721161e-04 2.9258427378e+00 -5.0677082768e+00 2.9258427378e+00 5.0677082768e+00 
116000 5.7046619711e+00 -1.5455732083e-04 2.9258453980e+00 -5.0677128844e+00 2.9258453980e+00 5.0677128844e+00 
116100 5.7046619707e+00 -1.5345532247e-04 2.9258480392e+00 -5.0677174592e+00 2.9258480392e+00 5.0677174592e+00 
116200 5.7046619703e+00 -1.5236116028e-04 2.9258506617e+00 -5.0677220013e+00 2.9258506617e+00 5.0677220013e+00 
116300 5.7046619699e+00 -1.5127477839e-04 2.9258532654e+00 -5.0677265111e+00 2.9258532654e+00 5.0677265111e+00 
116400 5.7046619695e+00 -1.5019612133e-04 2.9258558505e+00 -5.0677309887e+00 2.9258558505e+00 5.0677309887e+00 
116500 5.7046619691e+00 -1.4912513403e-04 2.9258584172e+00 -5.0677354344e+00 2.9258584172e+00 5.0677354344e+00 
116600 5.7046619687e+00 -1.4806176184e-04 2.9258609656e+00 -5.0677398483e+00 2.9258609656e+00 5.0677398483e+00 
116700 5.7046619684e+00 -1.4700595047e-04 2.9258634958e+00 -5.0677442308e+00 2.9258634958e+00 5.0677442308e+00 
116800 5.7046619680e+00 -1.4595764603e-04 2.9258660080e+00 -5.0677485820e+00 2.9258660080e+00 5.0677485820e+00 
116900 5.7046619676e+00 -1.4491679504e-04 2.9258685023e+00 -5.0677529022e+00 2.9258685023e+00 5.0677529022e+00 
117000 5.7046619673e+00 -1.4388334438e-04 2.9258709788e+00 -5.0677571916e+00 2.9258709788e+00 5.0677571916e+00 
117100 5.7046619669e+00 -1.4285724132e-04 2.9258734376e+00 -5.0677614504e+00 2.9258734376e+00 5.0677614504e+00 
117200 5.7046619665e+00 -1.4183843349e-04 2.9258758788e+00 -5.0677656788e+00 2.9258758788e+00 5.0677656788e+00 
117300 5.7046619662e+00 -1.4082686894e-04 2.9258783027e+00 -5.0677698770e+00 2.9258783027e+00 5.0677698770e+00 
117400 5.7046619659e+00 -1.3982249605e-04 2.9258807093e+00 -5.0677740454e+00 2.9258807093e+00 5.0677740454e+00 
117500 5.7046619655e+00 -1.3882526360e-04 2.9258830987e+00 -5.0677781839e+00 2.9258830987e+00 5.0677781839e+00 
117600 5.7046619652e+00 -1.3783512072e-04 2.9258854711e+00 -5.0677822930e+00 2.9258854711e+00 5.0677822930e+00 
117700 5.7046619649e+00 -1.3685201691e-04 2.9258878265e+00 -5.0677863727e+00 2.9258878265e+00 5.0677863727e+00 
117800 5.7046619645e+00 -1.3587590204e-04 2.9258901651e+00 -5.0677904234e+00 2.9258901651e+00 5.0677904234e+00 
117900 5.7046619642e+00 -1.3490672633e-04 2.9258924871e+00 -5.0677944451e+00 2.9258924871e+00 5.0677944451e+00 
118000 5.7046619639e+00 -1.3394444036e-04 2.9258947925e+00 -5.0677984382e+00 2.9258947925e+00 5.0677984382e+00 
118100 5.7046619636e+00 -1.3298899507e-04 2.9258970814e+00 -5.0678024028e+00 2.9258970814e+00 5.0678024028e+00 
118200 5.7046619633e+00 -1.3204034175e-04 2.9258993541e+00 -5.0678063391e+00 2.9258993541e+00 5.0678063391e+00 
118300 5.7046619630e+00 -1.3109843205e-04 2.9259016105e+00 -5.0678102473e+00 2.9259016105e+00 5.0678102473e+00 
118400 5.7046619627e+00 -1.3016321793e-04 2.9259038508e+00 -5.0678141276e+00 2.9259038508e+00 5.0678141276e+00 
118500 5.7046619624e+00 -1.2923465174e-04 2.9259060751e+00 -5.0678179802e+00 2.9259060751e+00 5.0678179802e+00 
118600 5.7046619621e+00 -1.2831268615e-04 2.9259082836e+00 -5.0678218054e+00 2.9259082836e+00 5.0678218054e+00 
118700 5.7046619619e+00 -1.2739727417e-04 2.9259104763e+00 -5.0678256033e+00 2.9259104763e+00 5.0678256033e+00 
118800 5.7046619616e+00 -1.2648836915e-04 2.9259126533e+00 -5.0678293740e+00 2.9259126533e+00 5.0678293740e+00 
118900 5.7046619613e+00 -1.2558592478e-04 2.9259148148e+00 -5.0678331179e+00 2.9259148148e+00 5.0678331179e+00 
119000 5.7046619611e+00 -1.2468989506e-04 2.9259169609e+00 -5.0678368350e+00 2.9259169609e+00 5.0678368350e+00 
119100 5.7046619608e+00 -1.2380023435e-04 2.9259190917e+00 -5.0678405257e+00 2.9259190917e+00 5.0678405257e+00 
119200 5.7046619605e+00 -1.2291689733e-04 2.9259212073e+00 -5.0678441900e+00 2.9259212073e+00 5.0678441900e+00 
119300 5.7046619603e+00 -1.2203983898e-04 2.9259233078e+00 -5.0678478281e+00 2.9259233078e+00 5.0678478281e+00 
119400 5.7046619600e+00 -1.2116901463e-04 2.9259253933e+00 -5.0678514403e+00 2.9259253933e+00 5.0678514403e+00 
119500 5.7046619598e+00 -1.2030437993e-04 2.9259274639e+00 -5.0678550267e+00 2.9259274639e+00 5.0678550267e+00 
119600 5.7046619595e+00 -1.1944589083e-04 2.9259295197e+00 -5.0678585875e+00 2.9259295197e+00 5.0678585875e+00 
119700 5.7046619593e+00 -1.1859350361e-04 2.9259315609e+00 -5.0678621229e+00 2.9259315609e+00 5.0678621229e+00 
119800 5.7046619591e+00 -1.1774717485e-04 2.9259335875e+00 -5.0678656331e+00 2.9259335875e+00 5.0678656331e+00 
119900 5.7046619588e+00 -1.1690686147e-04 2.9259355996e+00 -5.0678691182e+00 2.9259355996e+00 5.0678691182e+00 
120000 5.7046619586e+00 -1.1607252066e-04 2.9259375974e+00 -5.0678725784e+00 2.9259375974e+00 5.0678725784e+00 
120100 5.7046619584e+00 -1.1524410994e-04 2.9259395809e+00 -5.0678760139e+00 2.9259395809e+00 5.0678760139e+00 
120200 5.7046619582e+00 -1.1442158714e-04 2.9259415502e+00 -5.0678794250e+00 2.9259415502e+00 5.0678794250e+00 
120300 5.7046619579e+00 -1.1360491037e-04 2.9259435055e+00 -5.0678828116e+00 2.9259435055e+00 5.0678828116e+00 
120400 5.7046619577e+00 -1.1279403806e-04 2.9259454469e+00 -5.0678861741e+00 2.9259454469e+00 5.0678861741e+00 
120500 5.7046619575e+00 -1.1198892893e-04 2.9259473743e+00 -5.0678895126e+00 2.9259473743e+00 5.0678895126e+00 
120600 5.7046619573e+00 -1.1118954199e-04 2.9259492881e+00 -5.0678928273e+00 2.9259492881e+00 5.0678928273e+00 
120700 5.7046619571e+00 -1.1039583655e-04 2.9259511881e+00 -5.0678961183e+00 2.9259511881e+00 5.0678961183e+00 
120800 5.7046619569e+00 -1.0960777222e-04 2.9259530746e+00 -5.0678993858e+00 2.9259530746e+00 5.0678993858e+00 
120900 5.7046619567e+00 -1.0882530888e-04 2.9259549476e+00 -5.0679026300e+00 2.9259549476e+00 5.0679026300e+00 
121000 5.7046619565e+00 -1.0804840671e-04 2.9259568073e+00 -5.0679058510e+00 2.9259568073e+00 5.0679058510e+00 
121100 5.7046619563e+00 -1.0727702617e-04 2.9259586537e+00 -5.0679090490e+00 2.9259586537e+00 5.0679090490e+00 
121200 5.7046619561e+00 -1.0651112801e-04 2.9259604869e+00 -5.0679122242e+00 2.9259604869e+00 5.0679122242e+00 
121300 5.7046619559e+00 -1.0575067325e-04 2.9259623070e+00 -5.0679153767e+00 2.9259623070e+00 5.0679153767e+00 
121400 5.7046619558e+00 -1.0499562320e-04 2.9259641141e+00 -5.0679185067e+00 2.9259641141e+00 5.0679185067e+00 
121500 5.7046619556e+00 -1.0424593944e-04 2.9259659083e+00 -5.0679216144e+00 2.9259659083e+00 5.0679216144e+00 
121600 5.7046619554e+00 -1.0350158383e-04 2.9259676897e+00 -5.0679246998e+00 2.9259676897e+00 5.0679246998e+00 
121700 5.7046619552e+00 -1.0276251849e-04 2.9259694584e+00 -5.0679277633e+00 2.9259694584e+00 5.0679277633e+00 
121800 5.7046619550e+00 -1.0202870583e-04 2.9259712144e+00 -5.0679308048e+00 2.9259712144e+00 5.0679308048e+00 
121900 5.7046619549e+00 -1.0130010852e-04 2.9259729579e+00 -5.0679338246e+00 2.9259729579e+00 5.0679338246e+00 
122000 5.7046619547e+00 -1.0057668949e-04 2.9259746889e+00 -5.0679368229e+00 2.9259746889e+00 5.0679368229e+00 
122100 5.7046619545e+00 -9.9858411949e-05 2.9259764076e+00 -5.0679397998e+00 2.9259764076e+00 5.0679397998e+00 
122200 5.7046619544e+00 -9.9145239354e-05 2.9259781140e+00 -5.0679427554e+00 2.9259781140e+00 5.0679427554e+00 
122300 5.7046619542e+00 -9.8437135434e-05 2.9259798083e+00 -5.0679456898e+00 2.9259798083e+00 5.0679456898e+00 
122400 5.7046619541e+00 -9.7734064173e-05 2.9259814904e+00 -5.0679486034e+00 2.9259814904e+00 5.0679486034e+00 
122500 5.7046619539e+00 -9.7035989816e-05 2.9259831605e+00 -5.0679514961e+00 2.9259831605e+00 5.0679514961e+00 
122600 5.7046619538e+00 -9.6342876859e-05 2.9259848187e+00 -5.0679543681e+00 2.9259848187e+00 5.0679543681e+00 
122700 5.7046619536e+00 -9.5654690056e-05 2.9259864650e+00 -5.0679572197e+00 2.9259864650e+00 5.0679572197e+00 
122800 5.7046619535e+00 -9.4971394411e-05 2.9259880996e+00 -5.0679600508e+00 2.9259880996e+00 5.0679600508e+00 
122900 5.7046619533e+00 -9.4292955177e-05 2.9259897225e+00 -5.0679628618e+00 2.9259897225e+00 5.0679628618e+00 
123000 5.7046619532e+00 -9.3619337856e-05 2.9259913338e+00 -5.0679656526e+00 2.9259913338e+00 5.0679656526e+00 
123100 5.7046619530e+00 -9.2950508195e-05 2.9259929336e+00 -5.0679684235e+00 2.9259929336e+00 5.0679684235e+00 
123200 5.7046619529e+00 -9.2286432191e-05 2.9259945219e+00 -5.0679711746e+00 2.9259945219e+00 5.0679711746e+00 
123300 5.7046619528e+00 -9.1627076080e-05 2.9259960989e+00 -5.0679739061e+00 2.9259960989e+00 5.0679739061e+00 
123400 5.7046619526e+00 -9.0972406337e-05 2.9259976647e+00 -5.0679766180e+00 2.9259976647e+00 5.0679766180e+00 
123500 5.7046619525e+00 -9.0322389681e-05 2.9259992192e+00 -5.0679793106e+00 2.9259992192e+00 5.0679793106e+00 
123600 5.7046619524e+00 -8.9676993066e-05 2.9260007627e+00 -5.0679819839e+00 2.9260007627e+00 5.0679819839e+00 
123700 5.7046619522e+00 -8.9036183681e-05 2.9260022951e+00 -5.0679846382e+00 2.9260022951e+00 5.0679846382e+00 
123800 5.7046619521e+00 -8.8399928955e-05 2.9260038166e+00 -5.0679872734e+00 2.9260038166e+00 5.0679872734e+00 
123900 5.7046619520e+00 -8.7768196541e-05 2.9260053271e+00 -5.0679898898e+00 2.9260053271e+00 5.0679898898e+00 
124000 5.7046619519e+00 -8.7140954329e-05 2.9260068269e+00 -5.0679924876e+00 2.9260068269e+00 5.0679924876e+00 
124100 5.7046619517e+00 -8.6518170436e-05 2.9260083160e+00 -5.0679950667e+00 2.9260083160e+00 5.0679950667e+00 
124200 5.7046619516e+00 -8.5899813208e-05 2.9260097945e+00 -5.0679976274e+00 2.9260097945e+00 5.0679976274e+00 
124300 5.7046619515e+00 -8.5285851214e-05 2.9260112623e+00 -5.0680001699e+00 2.9260112623e+00 5.0680001699e+00 
124400 5.7046619514e+00 -8.4676253252e-05 2.9260127197e+00 -5.0680026941e+00 2.9260127197e+00 5.0680026941e+00 
124500 5.7046619513e+00 -8.4070988339e-05 2.9260141666e+00 -5.0680052003e+00 2.9260141666e+00 5.0680052003e+00 
124600 5.7046619512e+00 -8.3470025712e-05 2.9260156033e+00 -5.0680076886e+00 2.9260156033e+00 5.0680076886e+00 
124700 5.7046619511e+00 -8.2873334831e-05 2.9260170296e+00 -5.0680101591e+00 2.9260170296e+00 5.0680101591e+00 
124800 5.7046619509e+00 -8.2280885371e-05 2.9260184458e+00 -5.0680126119e+00 2.9260184458e+00 5.0680126119e+00 
124900 5.7046619508e+00 -8.1692647227e-05 2.9260198518e+00 -5.0680150472e+00 2.9260198518e+00 5.0680150472e+00 
125000 5.7046619507e+00 -8.1108590504e-05 2.9260212477e+00 -5.0680174651e+00 2.9260212477e+00 5.0680174651e+00 
125100 5.7046619506e+00 -8.0528685522e-05 2.9260226337e+00 -5.0680198657e+00 2.9260226337e+00 5.0680198657e+00 
125200 5.7046619505e+00 -7.9952902816e-05 2.9260240098e+00 -5.0680222492e+00 2.9260240098e+00 5.0680222492e+00 
125300 5.7046619504e+00 -7.9381213127e-05 2.9260253760e+00 -5.0680246155e+00 2.9260253760e+00 5.0680246155e+00 
125400 5.7046619503e+00 -7.8813587405e-05 2.9260267325e+00 -5.0680269650e+00 2.9260267325e+00 5.0680269650e+00 
125500 5.7046619502e+00 -7.8249996806e-05 2.9260280793e+00 -5.0680292977e+00 2.9260280793e+00 5.0680292977e+00 
125600 5.7046619501e+00 -7.7690412700e-05 2.9260294164e+00 -5.0680316137e+00 2.9260294164e+00 5.0680316137e+00 
125700 5.7046619500e+00 -7.7134806646e-05 2.9260307440e+00 -5.0680339131e+00 2.9260307440e+00 5.0680339131e+00 
125800 5.7046619500e+00 -7.6583150421e-05 2.9260320621e+00 -5.0680361961e+00 2.9260320621e+00 5.0680361961e+00 
125900 5.7046619499e+00 -7.6035415993e-05 2.9260333707e+00 -5.0680384627e+00 2.9260333707e+00 5.0680384627e+00 
126000 5.7046619498e+00 -7.5491575536e-05 2.9260346700e+00 -5.0680407132e+00 2.9260346700e+00 5.0680407132e+00 
126100 5.7046619497e+00 -7.4951601416e-05 2.9260359600e+00 -5.0680429475e+00 2.9260359600e+00 5.0680429475e+00 
126200 5.7046619496e+00 -7.4415466203e-05 2.9260372408e+00 -5.0680451659e+00 2.9260372408e+00 5.0680451659e+00 
126300 5.7046619495e+00 -7.3883142655e-05 2.9260385124e+00 -5.0680473684e+00 2.9260385124e+00 5.0680473684e+00 
126400 5.7046619494e+00 -7.3354603729e-05 2.9260397749e+00 -5.0680495551e+00 2.9260397749e+00 5.0680495551e+00 
126500 5.7046619493e+00 -7.2829822576e-05 2.9260410284e+00 -5.0680517262e+00 2.9260410284e+00 5.0680517262e+00 
126600 5.7046619493e+00 -7.2308772534e-05 2.9260422729e+00 -5.0680538817e+00 2.9260422729e+00 5.0680538817e+00 
126700 5.7046619492e+00 -7.1791427132e-05 2.9260435085e+00 -5.0680560219e+00 2.9260435085e+00 5.0680560219e+00 
126800 5.7046619491e+00 -7.1277760088e-05 2.9260447353e+00 -5.0680581467e+00 2.9260447353e+00 5.0680581467e+00 
126900 5.7046619490e+00 -7.0767745310e-05 2.9260459533e+00 -5.0680602563e+00 2.9260459533e+00 5.0680602563e+00 
127000 5.7046619490e+00 -7.0261356884e-05 2.9260471625e+00 -5.0680623508e+00 2.9260471625e+00 5.0680623508e+00 
127100 5.7046619489e+00 -7.0441567949e-05 2.9260471625e+00 -5.0680623508e+00 2.9260471625e+00 5.0680623508e+00 
127200 5.7046619489e+00 -7.0625837356e-05 2.9260471625e+00 -5.0680623508e+00 2.9260471625e+00 5.0680623508e+00 
127300 5.7046619489e+00 -7.0813807589e-05 2.9260471625e+00 -5.0680623508e+00 2.9260471625e+00 5.0680623508e+00 
127400 5.7046619488e+00 -7.0316810718e-05 2.9260483726e+00 -5.0680644467e+00 2.9260483726e+00 5.0680644467e+00 
127500 5.7046619488e+00 -7.0505923405e-05 2.9260483726e+00 -5.0680644467e+00 2.9260483726e+00 5.0680644467e+00 
127600 5.7046619488e+00 -7.0698301399e-05 2.9260483726e+00 -5.0680644467e+00 2.9260483726e+00 5.0680644467e+00 
127700 5.7046619488e+00 -7.0893695094e-05 2.9260483726e+00 -5.0680644467e+00 2.9260483726e+00 5.0680644467e+00 
127800 5.7046619487e+00 -7.0402741886e-05 2.9260495840e+00 -5.0680665450e+00 2.9260495840e+00 5.0680665450e+00 
127900 5.7046619487e+00 -7.0598132672e-05 2.9260495840e+00 -5.0680665450e+00 2.9260495840e+00 5.0680665450e+00 
128000 5.7046619487e+00 -7.0796302896e-05 2.9260495840e+00 -5.0680665450e+00 2.9260495840e+00 5.0680665450e+00 
128100 5.7046619486e+00 -7.0308841231e-05 2.9260507938e+00 -5.0680686403e+00 2.9260507938e+00 5.0680686403e+00 
128200 5.7046619486e+00 -7.0506559282e-05 2.9260507938e+00 -5.0680686403e+00 2.9260507938e+00 5.0680686403e+00 
128300 5.7046619486e+00 -7.0706836395e-05 2.9260507938e+00 -5.0680686403e+00 2.9260507938e+00 5.0680686403e+00 
128400 5.7046619486e+00 -7.0909468930e-05 2.9260507938e+00 -5.0680686403e+00 2.9260507938e+00 5.0680686403e+00 
128500 5.7046619485e+00 -7.0424976964e-05 2.9260520055e+00 -5.0680707391e+00 2.9260520055e+00 5.0680707391e+00 
128600 5.7046619485e+00 -7.0626390082e-05 2.9260520055e+00 -5.0680707391e+00 2.9260520055e+00 5.0680707391e+00 
128700 5.7046619485e+00 -7.0830014836e-05 2.9260520055e+00 -5.0680707391e+00 2.9260520055e+00 5.0680707391e+00 
128800 5.7046619484e+00 -7.0347131317e-05 2.9260532158e+00 -5.0680728354e+00 2.9260532158e+00 5.0680728354e+00 
128900 5.7046619484e+00 -7.0549222925e-05 2.9260532158e+00 -5.0680728354e+00 2.9260532158e+00 5.0680728354e+00 
129000 5.7046619484e+00 -7.0753356261e-05 2.9260532158e+00 -5.0680728354e+00 2.9260532158e+00 5.0680728354e+00 
129100 5.7046619483e+00 -7.0271552760e-05 2.9260544248e+00 -5.0680749295e+00 2.9260544248e+00 5.0680749295e+00 
129200 5.7046619483e+00 -7.0473809300e-05 2.9260544248e+00 -5.0680749295e+00 2.9260544248e+00 5.0680749295e+00 
129300 5.7046619483e+00 -7.0677929598e-05 2.9260544248e+00 -5.0680749295e+00 2.9260544248e+00 5.0680749295e+00 
129400 5.7046619483e+00 -7.0883720372e-05 2.9260544248e+00 -5.0680749295e+00 2.9260544248e+00 5.0680749295e+00 
129500 5.7046619483e+00 -7.0401960074e-05 2.9260556361e+00 -5.0680770275e+00 2.9260556361e+00 5.0680770275e+00 
129600 5.7046619483e+00 -7.0605189791e-05 2.9260556361e+00 -5.0680770275e+00 2.9260556361e+00 5.0680770275e+00 
129700 5.7046619483e+00 -7.0809970248e-05 2.9260556361e+00 -5.0680770275e+00 2.9260556361e+00 5.0680770275e+00 
129800 5.7046619482e+00 -7.0327782482e-05 2.9260568461e+00 -5.0680791232e+00 2.9260568461e+00 5.0680791232e+00 
129900 5.7046619482e+00 -7.0529729892e-05 2.9260568461e+00 -5.0680791232e+00 2.9260568461e+00 5.0680791232e+00 
130000 5.7046619482e+00 -7.0733077700e-05 2.9260568461e+00 -5.0680791232e+00 2.9260568461e+00 5.0680791232e+00 
130100 5.7046619481e+00 -7.0250050493e-05 2.9260580547e+00 -5.0680812167e+00 2.9260580547e+00 5.0680812167e+00 
130200 5.7046619481e+00 -7.0450260327e-05 2.9260580547e+00 -5.0680812167e+00 2.9260580547e+00 5.0680812167e+00 
130300 5.7046619481e+00 -7.0651712569e-05 2.9260580547e+00 -5.0680812167e+00 2.9260580547e+00 5.0680812167e+00 
130400 5.7046619481e+00 -7.0854221271e-05 2.9260580547e+00 -5.0680812167e+00 2.9260580547e+00 5.0680812167e+00 
130500 5.7046619481e+00 -7.0368859185e-05 2.9260592655e+00 -5.0680833138e+00 2.9260592655e+00 5.0680833138e+00 
130600 5.7046619481e+00 -7.0567604983e-05 2.9260592655e+00 -5.0680833138e+00 2.9260592655e+00 5.0680833138e+00 
130700 5.7046619481e+00 -7.0767311950e-05 2.9260592655e+00 -5.0680833138e+00 2.9260592655e+00 5.0680833138e+00 
130800 5.7046619480e+00 -7.0279885003e-05 2.9260604747e+00 -5.0680854083e+00 2.9260604747e+00 5.0680854083e+00 
130900 5.7046619480e+00 -7.0475611454e-05 2.9260604747e+00 -5.0680854083e+00 2.9260604747e+00 5.0680854083e+00 
131000 5.7046619480e+00 -7.0672177683e-05 2.9260604747e+00 -5.0680854083e+00 2.9260604747e+00 5.0680854083e+00 
131100 5.7046619480e+00 -7.0869408545e-05 2.9260604747e+00 -5.0680854083e+00 2.9260604747e+00 5.0680854083e+00 
131200 5.7046619479e+00 -7.0378239788e-05 2.9260616857e+00 -5.0680875058e+00 2.9260616857e+00 5.0680875058e+00 
131300 5.7046619479e+00 -7.0570954543e-05 2.9260616857e+00 -5.0680875058e+00 2.9260616857e+00 5.0680875058e+00 
131400 5.7046619479e+00 -7.0764269948e-05 2.9260616857e+00 -5.0680875058e+00 2.9260616857e+00 5.0680875058e+00 
131500 5.7046619479e+00 -7.0270131016e-05 2.9260628950e+00 -5.0680896002e+00 2.9260628950e+00 5.0680896002e+00 
131600 5.7046619479e+00 -7.0458776254e-05 2.9260628950e+00 -5.0680896002e+00 2.9260628950e+00 5.0680896002e+00 
131700 5.7046619479e+00 -7.0647931803e-05 2.9260628950e+00 -5.0680896002e+00 2.9260628950e+00 5.0680896002e+00 
131800 5.7046619479e+00 -7.0837432990e-05 2.9260628950e+00 -5.0680896002e+00 2.9260628950e+00 5.0680896002e+00 
131900 5.7046619478e+00 -7.0338537242e-05 2.9260641054e+00 -5.0680916968e+00 2.9260641054e+00 5.0680916968e+00 
132000 5.7046619478e+00 -7.0522918572e-05 2.9260641054e+00 -5.0680916968e+00 2.9260641054e+00 5.0680916968e+00 
132100 5.7046619478e+00 -7.0707613155e-05 2.9260641054e+00 -5.0680916968e+00 2.9260641054e+00 5.0680916968e+00 
132200 5.7046619478e+00 -7.0892469288e-05 2.9260641054e+00 -5.0680916968e+00 2.9260641054e+00 5.0680916968e+00 
132300 5.7046619478e+00 -7.0388220836e-05 2.9260653168e+00 -5.0680937950e+00 2.9260653168e+00 5.0680937950e+00 
132400 5.7046619478e+00 -7.0567617576e-05 2.9260653168e+00 -5.0680937950e+00 2.9260653168e+00 5.0680937950e+00 
132500 5.7046619478e+00 -7.0747174420e-05 2.9260653168e+00 -5.0680937950e+00 2.9260653168e+00 5.0680937950e+00 
132600 5.7046619477e+00 -7.0239022357e-05 2.9260665257e+00 -5.0680958889e+00 2.9260665257e+00 5.0680958889e+00 
132700 5.7046619477e+00 -7.0413086668e-05 2.9260665257e+00 -5.0680958889e+00 2.9260665257e+00 5.0680958889e+00 
132800 5.7046619477e+00 -7.0587276958e-05 2.9260665257e+00 -5.0680958889e+00 2.9260665257e+00 5.0680958889e+00 
132900 5.7046619477e+00 -7.0761446577e-05 2.9260665257e+00 -5.0680958889e+00 2.9260665257e+00 5.0680958889e+00 
133000 5.7046619477e+00 -7.0247610026e-05 2.9260677349e+00 -5.0680979832e+00 2.9260677349e+00 5.0680979832e+00 
133100 5.7046619477e+00 -7.0415986039e-05 2.9260677349e+00 -5.0680979832e+00 2.9260677349e+00 5.0680979832e+00 
133200 5.7046619477e+00 -7.0503550295e-05 2.9260677349e+00 -5.0680979832e+00 2.9260677349e+00 5.0680979832e+00 
133200 5.7046619477e+00 -7.0503550295e-05 2.9260677349e+00 -5.0680979832e+00 2.9260677349e+00 5.0680979832e+00 
