# step Hamiltonian StressXX CellTensor1 CellTensor2 CellTensor3 CellTensor4 
0 6.8811218839e+00 -2.8091074339e-01 1.7438352029e+00 -3.0204111715e+00 1.7438352029e+00 3.0204111715e+00 
100 6.8599622291e+00 -2.8319428444e-01 1.7438352029e+00 -3.0204111715e+00 1.7438352029e+00 3.0204111715e+00 
200 6.8379822192e+00 -2.7836734602e-01 1.7519613446e+00 -3.0344860618e+00 1.7519613446e+00 3.0344860618e+00 
300 6.8179076694e+00 -2.7360943589e-01 1.7599117705e+00 -3.0482566034e+00 1.7599117705e+00 3.0482566034e+00 
400 6.7997287991e+00 -2.6892580084e-01 1.7676908528e+00 -3.0617303691e+00 1.7676908528e+00 3.0617303691e+00 
500 6.7834178651e+00 -2.6432593353e-01 1.7753029827e+00 -3.0749149648e+00 1.7753029827e+00 3.0749149648e+00 
600 6.7689303292e+00 -2.5982268250e-01 1.7827526941e+00 -3.0878182435e+00 1.7827526941e+00 3.0878182435e+00 
700 6.7562062355e+00 -2.5543143262e-01 1.7900447590e+00 -3.1004484705e+00 1.7900447590e+00 3.1004484705e+00 
800 6.7451717516e+00 -2.5116936048e-01 1.7971842577e+00 -3.1128144449e+00 1.7971842577e+00 3.1128144449e+00 
900 6.7357408292e+00 -2.4705476505e-01 1.8041766263e+00 -3.1249255826e+00 1.8041766263e+00 3.1249255826e+00 
1000 6.7278169450e+00 -2.4310647132e-01 1.8110276860e+00 -3.1367919660e+00 1.8110276860e+00 3.1367919660e+00 
1100 6.7212948837e+00 -2.3934330319e-01 1.8177436540e+00 -3.1484243638e+00 1.8177436540e+00 3.1484243638e+00 
1200 6.7160625312e+00 -2.3578362077e-01 1.8243311411e+00 -3.1598342262e+00 1.8243311411e+00 3.1598342262e+00 
1300 6.7120026476e+00 -2.3244491749e-01 1.8307971363e+00 -3.1710336584e+00 1.8307971363e+00 3.1710336584e+00 
1400 6.7089945938e+00 -2.2934347290e-01 1.8371489811e+00 -3.1820353763e+00 1.8371489811e+00 3.1820353763e+00 
1500 6.7069159872e+00 -2.2649405725e-01 1.8433943347e+00 -3.1928526461e+00 1.8433943347e+00 3.1928526461e+00 
1600 6.7056442682e+00 -2.2390968513e-01 1.8495411325e+00 -3.2034992121e+00 1.8495411325e+00 3.2034992121e+00 
1700 6.7050581586e+00 -2.2160141538e-01 1.8555975380e+00 -3.2139892141e+00 1.8555975380e+00 3.2139892141e+00 
1800 6.7050389979e+00 -2.1957819539e-01 1.8615718907e+00 -3.2243370966e+00 1.8615718907e+00 3.2243370966e+00 
1900 6.7054719483e+00 -2.1784674778e-01 1.8674726504e+00 -3.2345575123e+00 1.8674726504e+00 3.2345575123e+00 
2000 6.7062470573e+00 -2.1641149773e-01 1.8733083395e+00 -3.2446652222e+00 1.8733083395e+00 3.2446652222e+00 
2100 6.7072601765e+00 -2.1527453897e-01 1.8790874834e+00 -3.2546749931e+00 1.8790874834e+00 3.2546749931e+00 
2200 6.7084137313e+00 -2.1443563624e-01 1.8848185518e+00 -3.2646014948e+00 1.8848185518e+00 3.2646014948e+00 
2300 6.7096173444e+00 -2.1389226209e-01 1.8905099001e+00 -3.2744591992e+00 1.8905099001e+00 3.2744591992e+00 
2400 6.7107883147e+00 -2.1363966485e-01 1.8961697122e+00 -3.2842622813e+00 1.8961697122e+00 3.2842622813e+00 
2500 6.7118519582e+00 -2.1367096519e-01 1.9018059465e+00 -3.2940245255e+00 1.9018059465e+00 3.2940245255e+00 
2600 6.7127418161e+00 -2.1397727744e-01 1.9074262846e+00 -3.3037592366e+00 1.9074262846e+00 3.3037592366e+00 
2700 6.7133997416e+00 -2.1454785246e-01 1.9130380831e+00 -3.3134791568e+00 1.9130380831e+00 3.3134791568e+00 
2800 6.7137758737e+00 -2.1537023800e-01 1.9186483311e+00 -3.3231963913e+00 1.9186483311e+00 3.3231963913e+00 
2900 6.7138285088e+00 -2.1643045284e-01 1.9242636106e+00 -3.3329223408e+00 1.9242636106e+00 3.3329223408e+00 
3000 6.7135238842e+00 -2.1771317070e-01 1.9298900634e+00 -3.3426676428e+00 1.9298900634e+00 3.3426676428e+00 
3100 6.7128358823e+00 -2.1920191033e-01 1.9355333619e+00 -3.3524421226e+00 1.9355333619e+00 3.3524421226e+00 
3200 6.7117456707e+00 -2.2087922796e-01 1.9411986861e+00 -3.3622547520e+00 1.9411986861e+00 3.3622547520e+00 
3300 6.7102412874e+00 -2.2272690898e-01 1.9468907053e+00 -3.3721136184e+00 1.9468907053e+00 3.3721136184e+00 
3400 6.7083171847e+00 -2.2472615567e-01 1.9526135652e+00 -3.3820259025e+00 1.9526135652e+00 3.3820259025e+00 
3500 6.7059737414e+00 -2.2685776832e-01 1.9583708798e+00 -3.3919978639e+00 1.9583708798e+00 3.3919978639e+00 
3600 6.7032167527e+00 -2.2910231758e-01 1.9641657286e+00 -3.4020348364e+00 1.9641657286e+00 3.4020348364e+00 
3700 6.7000569097e+00 -2.3144030603e-01 1.9700006578e+00 -3.4121412302e+00 1.9700006578e+00 3.4121412302e+00 
3800 6.6965092728e+00 -2.3385231763e-01 1.9758776858e+00 -3.4223205414e+00 1.9758776858e+00 3.4223205414e+00 
3900 6.6925927496e+00 -2.3631915379e-01 1.9817983129e+00 -3.4325753683e+00 1.9817983129e+00 3.4325753683e+00 
4000 6.6883295821e+00 -2.3882195570e-01 1.9877635337e+00 -3.4429074339e+00 1.9877635337e+00 3.4429074339e+00 
4100 6.6837448480e+00 -2.4134231217e-01 1.9937738534e+00 -3.4533176129e+00 1.9937738534e+00 3.4533176129e+00 
4200 6.6788659814e+00 -2.4386235329e-01 1.9998293057e+00 -3.4638059639e+00 1.9998293057e+00 3.4638059639e+00 
4300 6.6737223166e+00 -2.4636482993e-01 2.0059294736e+00 -3.4743717647e+00 2.0059294736e+00 3.4743717647e+00 
4400 6.6683446559e+00 -2.4883317961e-01 2.0120735119e+00 -3.4850135511e+00 2.0120735119e+00 3.4850135511e+00 
4500 6.6627648656e+00 -2.5125157934e-01 2.0182601705e+00 -3.4957291583e+00 2.0182601705e+00 3.4957291583e+00 
4600 6.6570154999e+00 -2.5360498633e-01 2.0244878198e+00 -3.5065157632e+00 2.0244878198e+00 3.5065157632e+00 
4700 6.6511294540e+00 -2.5587916728e-01 2.0307544752e+00 -3.5173699288e+00 2.0307544752e+00 3.5173699288e+00 
4800 6.6451396461e+00 -2.5806071736e-01 2.0370578237e+00 -3.5282876486e+00 2.0370578237e+00 3.5282876486e+00 
4900 6.6390787295e+00 -2.6013706984e-01 2.0433952491e+00 -3.5392643914e+00 2.0433952491e+00 3.5392643914e+00 
5000 6.6329788316e+00 -2.6209649742e-01 2.0497638581e+00 -3.5502951458e+00 2.0497638581e+00 3.5502951458e+00 
5100 6.6268713219e+00 -2.6392810624e-01 2.0561605053e+00 -3.5613744636e+00 2.0561605053e+00 3.5613744636e+00 
5200 6.6207866059e+00 -2.6562182356e-01 2.0625818177e+00 -3.5724965030e+00 2.0625818177e+00 3.5724965030e+00 
5300 6.6147539438e+00 -2.6716838021e-01 2.0690242191e+00 -3.5836550695e+00 2.0690242191e+00 3.5836550695e+00 
5400 6.6088012940e+00 -2.6855928852e-01 2.0754839525e+00 -3.5948436560e+00 2.0754839525e+00 3.5948436560e+00 
5500 6.6029551783e+00 -2.6978681673e-01 2.0819571026e+00 -3.6060554808e+00 2.0819571026e+00 3.6060554808e+00 
5600 6.5972405681e+00 -2.7084396063e-01 2.0884396164e+00 -3.6172835241e+00 2.0884396164e+00 3.6172835241e+00 
5700 6.5916807902e+00 -2.7172441320e-01 2.0949273233e+00 -3.6285205622e+00 2.0949273233e+00 3.6285205622e+00 
5800 6.5862974500e+00 -2.7242253279e-01 2.1014159536e+00 -3.6397591995e+00 2.1014159536e+00 3.6397591995e+00 
5900 6.5811103720e+00 -2.7293331067e-01 2.1079011559e+00 -3.6509918993e+00 2.1079011559e+00 3.6509918993e+00 
6000 6.5761375538e+00 -2.7325233824e-01 2.1143785136e+00 -3.6622110119e+00 2.1143785136e+00 3.6622110119e+00 
6100 6.5713951354e+00 -2.7337577460e-01 2.1208435598e+00 -3.6734088004e+00 2.1208435598e+00 3.6734088004e+00 
6200 6.5668973796e+00 -2.7330031467e-01 2.1272917915e+00 -3.6845774654e+00 2.1272917915e+00 3.6845774654e+00 
6300 6.5626566639e+00 -2.7302315851e-01 2.1337186824e+00 -3.6957091669e+00 2.1337186824e+00 3.6957091669e+00 
6400 6.5586834832e+00 -2.7254198190e-01 2.1401196947e+00 -3.7067960455e+00 2.1401196947e+00 3.7067960455e+00 
6500 6.5549864602e+00 -2.7185490860e-01 2.1464902900e+00 -3.7178302402e+00 2.1464902900e+00 3.7178302402e+00 
6600 6.5515723650e+00 -2.7096048448e-01 2.1528259391e+00 -3.7288039063e+00 2.1528259391e+00 3.7288039063e+00 
6700 6.5484461415e+00 -2.6985765378e-01 2.1591221311e+00 -3.7397092309e+00 2.1591221311e+00 3.7397092309e+00 
6800 6.5456109407e+00 -2.6854573751e-01 2.1653743818e+00 -3.7505384467e+00 2.1653743818e+00 3.7505384467e+00 
6900 6.5430681594e+00 -2.6702441432e-01 2.1715782407e+00 -3.7612838455e+00 2.1715782407e+00 3.7612838455e+00 
7000 6.5408174849e+00 -2.6529370382e-01 2.1777292983e+00 -3.7719377898e+00 2.1777292983e+00 3.7719377898e+00 
7100 6.5388569442e+00 -2.6335395245e-01 2.1838231923e+00 -3.7824927238e+00 2.1838231923e+00 3.7824927238e+00 
7200 6.5371829575e+00 -2.6120582200e-01 2.1898556131e+00 -3.7929411831e+00 2.1898556131e+00 3.7929411831e+00 
7300 6.5357903968e+00 -2.5885028081e-01 2.1958223093e+00 -3.8032758041e+00 2.1958223093e+00 3.8032758041e+00 
7400 6.5346726473e+00 -2.5628859760e-01 2.2017190928e+00 -3.8134893326e+00 2.2017190928e+00 3.8134893326e+00 
7500 6.5338216732e+00 -2.5352233806e-01 2.2075418432e+00 -3.8235746322e+00 2.2075418432e+00 3.8235746322e+00 
7600 6.5332280872e+00 -2.5055336405e-01 2.2132865126e+00 -3.8335246915e+00 2.2132865126e+00 3.8335246915e+00 
7700 6.5328812236e+00 -2.4738383544e-01 2.2189491298e+00 -3.8433326322e+00 2.2189491298e+00 3.8433326322e+00 
7800 6.5327692144e+00 -2.4401621449e-01 2.2245258046e+00 -3.8529917162e+00 2.2245258046e+00 3.8529917162e+00 
7900 6.5328790703e+00 -2.4045327274e-01 2.2300127321e+00 -3.8624953536e+00 2.2300127321e+00 3.8624953536e+00 
8000 6.5331967636e+00 -2.3669810014e-01 2.2354061975e+00 -3.8718371095e+00 2.2354061975e+00 3.8718371095e+00 
8100 6.5337073167e+00 -2.3275411652e-01 2.2407025796e+00 -3.8810107126e+00 2.2407025796e+00 3.8810107126e+00 
8200 6.5343948934e+00 -2.2862508491e-01 2.2458983568e+00 -3.8900100626e+00 2.2458983568e+00 3.8900100626e+00 
8300 6.5352428945e+00 -2.2431512680e-01 2.2509901109e+00 -3.8988292395e+00 2.2509901109e+00 3.8988292395e+00 
8400 6.5362340574e+00 -2.1982873879e-01 2.2559745331e+00 -3.9074625118e+00 2.2559745331e+00 3.9074625118e+00 
8500 6.5373505603e+00 -2.1517081055e-01 2.2608484288e+00 -3.9159043469e+00 2.2608484288e+00 3.9159043469e+00 
8600 6.5385741304e+00 -2.1034664363e-01 2.2656087244e+00 -3.9241494206e+00 2.2656087244e+00 3.9241494206e+00 
8700 6.5398861560e+00 -2.0536197065e-01 2.2702524726e+00 -3.9321926285e+00 2.2702524726e+00 3.9321926285e+00 
8800 6.5412678040e+00 -2.0022297460e-01 2.2747768597e+00 -3.9400290969e+00 2.2747768597e+00 3.9400290969e+00 
8900 6.5427001397e+00 -1.9493630760e-01 2.2791792126e+00 -3.9476541959e+00 2.2791792126e+00 3.9476541959e+00 
9000 6.5441642523e+00 -1.8950910857e-01 2.2834570060e+00 -3.9550635513e+00 2.2834570060e+00 3.9550635513e+00 
9100 6.5456413829e+00 -1.8394901936e-01 2.2876078703e+00 -3.9622530591e+00 2.2876078703e+00 3.9622530591e+00 
9200 6.5471130553e+00 -1.7826419857e-01 2.2916295999e+00 -3.9692188992e+00 2.2916295999e+00 3.9692188992e+00 
9300 6.5485612104e+00 -1.7246333245e-01 2.2955201619e+00 -3.9759575502e+00 2.2955201619e+00 3.9759575502e+00 
9400 6.5499683405e+00 -1.6655564238e-01 2.2992777044e+00 -3.9824658048e+00 2.2992777044e+00 3.9824658048e+00 
9500 6.5513176261e+00 -1.6055088796e-01 2.3029005661e+00 -3.9887407853e+00 2.3029005661e+00 3.9887407853e+00 
9600 6.5525930707e+00 -1.5445936552e-01 2.3063872848e+00 -3.9947799593e+00 2.3063872848e+00 3.9947799593e+00 
9700 6.5537796348e+00 -1.4829190112e-01 2.3097366071e+00 -4.0005811556e+00 2.3097366071e+00 4.0005811556e+00 
9800 6.5548633659e+00 -1.4205983765e-01 2.3129474971e+00 -4.0061425802e+00 2.3129474971e+00 4.0061425802e+00 
9900 6.5558315246e+00 -1.3577501574e-01 2.3160191456e+00 -4.0114628314e+00 2.3160191456e+00 4.0114628314e+00 
10000 6.5566727023e+00 -1.2944974795e-01 2.3189509784e+00 -4.0165409149e+00 2.3189509784e+00 4.0165409149e+00 
10100 6.5573769325e+00 -1.2309678616e-01 2.3217426649e+00 -4.0213762578e+00 2.3217426649e+00 4.0213762578e+00 
10200 6.5579357898e+00 -1.1672928204e-01 2.3243941256e+00 -4.0259687223e+00 2.3243941256e+00 4.0259687223e+00 
10300 6.5583424770e+00 -1.1036074069e-01 2.3269055386e+00 -4.0303186173e+00 2.3269055386e+00 4.0303186173e+00 
10400 6.5585918986e+00 -1.0400496764e-01 2.3292773467e+00 -4.0344267094e+00 2.3292773467e+00 4.0344267094e+00 
10500 6.5586807166e+00 -9.7676009463e-02 2.3315102617e+00 -4.0382942316e+00 2.3315102617e+00 4.0382942316e+00 
10600 6.5586073893e+00 -9.1388088592e-02 2.3336052690e+00 -4.0419228908e+00 2.3336052690e+00 4.0419228908e+00 
10700 6.5583721905e+00 -8.5155532793e-02 2.3355636306e+00 -4.0453148725e+00 2.3355636306e+00 4.0453148725e+00 
10800 6.5579772079e+00 -7.8992700054e-02 2.3373868865e+00 -4.0484728443e+00 2.3373868865e+00 4.0484728443e+00 
10900 6.5574263195e+00 -7.2913899643e-02 2.3390768551e+00 -4.0513999559e+00 2.3390768551e+00 4.0513999559e+00 
11000 6.5567251483e+00 -6.6933310210e-02 2.3406356323e+00 -4.0540998371e+00 2.3406356323e+00 4.0540998371e+00 
11100 6.5558809945e+00 -6.1064895881e-02 2.3420655883e+00 -4.0565765936e+00 2.3420655883e+00 4.0565765936e+00 
11200 6.5549027445e+00 -5.5322321373e-02 2.3433693639e+00 -4.0588347992e+00 2.3433693639e+00 4.0588347992e+00 
11300 6.5538007596e+00 -4.9718867186e-02 2.3445498642e+00 -4.0608794856e+00 2.3445498642e+00 4.0608794856e+00 
11400 6.5525867431e+00 -4.4267346010e-02 2.3456102514e+00 -4.0627161301e+00 2.3456102514e+00 4.0627161301e+00 
11500 6.5512735883e+00 -3.8980021496e-02 2.3465539357e+00 -4.0643506393e+00 2.3465539357e+00 4.0643506393e+00 
11600 6.5498752095e+00 -3.3868530554e-02 2.3473845648e+00 -4.0657893311e+00 2.3473845648e+00 4.0657893311e+00 
11700 6.5484063582e+00 -2.8943810320e-02 2.3481060117e+00 -4.0670389138e+00 2.3481060117e+00 4.0670389138e+00 
11800 6.5468824261e+00 -2.4216030912e-02 2.3487223611e+00 -4.0681064623e+00 2.3487223611e+00 4.0681064623e+00 
11900 6.5453192395e+00 -1.9694534991e-02 2.3492378949e+00 -4.0689993931e+00 2.3492378949e+00 4.0689993931e+00 
12000 6.5437328475e+00 -1.5387785027e-02 2.3496570760e+00 -4.0697254360e+00 2.3496570760e+00 4.0697254360e+00 
12100 6.5421393066e+00 -1.1303319051e-02 2.3499845311e+00 -4.0702926048e+00 2.3499845311e+00 4.0702926048e+00 
12200 6.5405544673e+00 -7.4477154582e-03 2.3502250329e+00 -4.0707091662e+00 2.3502250329e+00 4.0707091662e+00 
12300 6.5389937645e+00 -3.8265672337e-03 2.3503834815e+00 -4.0709836073e+00 2.3503834815e+00 4.0709836073e+00 
12400 6.5374720163e+00 -4.4446576401e-04 2.3504648850e+00 -4.0711246023e+00 2.3504648850e+00 4.0711246023e+00 
12500 6.5360032340e+00 2.6950058443e-03 2.3504743399e+00 -4.0711409786e+00 2.3504743399e+00 4.0711409786e+00 
12600 6.5346004478e+00 5.5892702233e-03 2.3504170111e+00 -4.0710416823e+00 2.3504170111e+00 4.0710416823e+00 
12700 6.5332755492e+00 8.2367444684e-03 2.3502981126e+00 -4.0708357440e+00 2.3502981126e+00 4.0708357440e+00 
12800 6.5320391552e+00 1.0636820789e-02 2.3501228871e+00 -4.0705322445e+00 2.3501228871e+00 4.0705322445e+00 
12900 6.5309004935e+00 1.2789839887e-02 2.3498965873e+00 -4.0701402817e+00 2.3498965873e+00 4.0701402817e+00 
13000 6.5298673139e+00 1.4697057952e-02 2.3496244563e+00 -4.0696689370e+00 2.3496244563e+00 4.0696689370e+00 
13100 6.5289458229e+00 1.6360608258e-02 2.3493117099e+00 -4.0691272443e+00 2.3493117099e+00 4.0691272443e+00 
13200 6.5281406463e+00 1.7783458308e-02 2.3489635185e+00 -4.0685241591e+00 2.3489635185e+00 4.0685241591e+00 
13300 6.5274548161e+00 1.8969363541e-02 2.3485849902e+00 -4.0678685289e+00 2.3485849902e+00 4.0678685289e+00 
13400 6.5268897837e+00 1.9922818479e-02 2.3481811551e+00 -4.0671690661e+00 2.3481811551e+00 4.0671690661e+00 
13500 6.5264454567e+00 2.0649006211e-02 2.3477569498e+00 -4.0664343209e+00 2.3477569498e+00 4.0664343209e+00 
13600 6.5261202590e+00 2.1153746950e-02 2.3473172033e+00 -4.0656726575e+00 2.3473172033e+00 4.0656726575e+00 
13700 6.5259112115e+00 2.1443446346e-02 2.3468666235e+00 -4.0648922306e+00 2.3468666235e+00 4.0648922306e+00 
13800 6.5258140307e+00 2.1525044110e-02 2.3464097857e+00 -4.0641009642e+00 2.3464097857e+00 4.0641009642e+00 
13900 6.5258232439e+00 2.1405963403e-02 2.3459511202e+00 -4.0633065323e+00 2.3459511202e+00 4.0633065323e+00 
14000 6.5259323172e+00 2.1094061331e-02 2.3454949029e+00 -4.0625163408e+00 2.3454949029e+00 4.0625163408e+00 
14100 6.5261337935e+00 2.0597580822e-02 2.3450452454e+00 -4.0617375111e+00 2.3450452454e+00 4.0617375111e+00 
14200 6.5264194384e+00 1.9925104035e-02 2.3446060868e+00 -4.0609768661e+00 2.3446060868e+00 4.0609768661e+00 
14300 6.5267803895e+00 1.9085507416e-02 2.3441811859e+00 -4.0602409162e+00 2.3441811859e+00 4.0602409162e+00 
14400 6.5272073083e+00 1.8087918431e-02 2.3437741151e+00 -4.0595358489e+00 2.3437741151e+00 4.0595358489e+00 
14500 6.5276905304e+00 1.6941673998e-02 2.3433882541e+00 -4.0588675180e+00 2.3433882541e+00 4.0588675180e+00 
14600 6.5282202124e+00 1.5656280548e-02 2.3430267852e+00 -4.0582414355e+00 2.3430267852e+00 4.0582414355e+00 
14700 6.5287864727e+00 1.4241375699e-02 2.3426926894e+00 -4.0576627646e+00 2.3426926894e+00 4.0576627646e+00 
14800 6.5293795250e+00 1.2706691454e-02 2.3423887429e+00 -4.0571363137e+00 2.3423887429e+00 4.0571363137e+00 
14900 6.5299898022e+00 1.1062018872e-02 2.3421175145e+00 -4.0566665324e+00 2.3421175145e+00 4.0566665324e+00 
15000 6.5306080694e+00 9.3171741525e-03 2.3418813642e+00 -4.0562575081e+00 2.3418813642e+00 4.0562575081e+00 
15100 6.5312255253e+00 7.4819660872e-03 2.3416824421e+00 -4.0559129648e+00 2.3416824421e+00 4.0559129648e+00 
15200 6.5318338908e+00 5.5661648401e-03 2.3415226877e+00 -4.0556362621e+00 2.3415226877e+00 4.0556362621e+00 
15300 6.5324254850e+00 3.5794720492e-03 2.3414038309e+00 -4.0554303961e+00 2.3414038309e+00 4.0554303961e+00 
15400 6.5329932867e+00 1.5314922408e-03 2.3413273927e+00 -4.0552980013e+00 2.3413273927e+00 4.0552980013e+00 
15500 6.5335309846e+00 -5.6829442623e-04 2.3412946871e+00 -4.0552413536e+00 2.3412946871e+00 4.0552413536e+00 
15600 6.5340330121e+00 -2.7105580632e-03 2.3413068235e+00 -4.0552623744e+00 2.3413068235e+00 4.0552623744e+00 
15700 6.5344945721e+00 -4.8861435626e-03 2.3413647093e+00 -4.0553626355e+00 2.3413647093e+00 4.0553626355e+00 
15800 6.5349116477e+00 -7.0860936771e-03 2.3414690540e+00 -4.0555433658e+00 2.3414690540e+00 4.0555433658e+00 
15900 6.5352810033e+00 -9.3016706187e-03 2.3416203729e+00 -4.0558054579e+00 2.3416203729e+00 4.0558054579e+00 
16000 6.5356001746e+00 -1.1524376132e-02 2.3418189918e+00 -4.0561494759e+00 2.3418189918e+00 4.0561494759e+00 
16100 6.5358674496e+00 -1.3745970001e-02 2.3420650522e+00 -4.0565756650e+00 2.3420650522e+00 4.0565756650e+00 
16200 6.5360818416e+00 -1.5958486943e-02 2.3423585166e+00 -4.0570839604e+00 2.3423585166e+00 4.0570839604e+00 
16300 6.5362430546e+00 -1.8154251874e-02 2.3426991749e+00 -4.0576739977e+00 2.3426991749e+00 4.0576739977e+00 
16400 6.5363514424e+00 -2.0325893511e-02 2.3430866500e+00 -4.0583451243e+00 2.3430866500e+00 4.0583451243e+00 
16500 6.5364079633e+00 -2.2466356317e-02 2.3435204052e+00 -4.0590964103e+00 2.3435204052e+00 4.0590964103e+00 
16600 6.5364141301e+00 -2.4568910782e-02 2.3439997507e+00 -4.0599266612e+00 2.3439997507e+00 4.0599266612e+00 
16700 6.5363719572e+00 -2.6627162061e-02 2.3445238512e+00 -4.0608344298e+00 2.3445238512e+00 4.0608344298e+00 
16800 6.5362839055e+00 -2.8635057009e-02 2.3450917327e+00 -4.0618180295e+00 2.3450917327e+00 4.0618180295e+00 
16900 6.5361528264e+00 -3.0586889635e-02 2.3457022909e+00 -4.0628755473e+00 2.3457022909e+00 4.0628755473e+00 
17000 6.5359819045e+00 -3.2477305052e-02 2.3463542983e+00 -4.0640048573e+00 2.3463542983e+00 4.0640048573e+00 
17100 6.5357746012e+00 -3.4301301967e-02 2.3470464125e+00 -4.0652036342e+00 2.3470464125e+00 4.0652036342e+00 
17200 6.5355345991e+00 -3.6054233803e-02 2.3477771838e+00 -4.0664693671e+00 2.3477771838e+00 4.0664693671e+00 
17300 6.5352657476e+00 -3.7731808525e-02 2.3485450632e+00 -4.0677993734e+00 2.3485450632e+00 4.0677993734e+00 
17400 6.5349720107e+00 -3.9330087252e-02 2.3493484108e+00 -4.0691908122e+00 2.3493484108e+00 4.0691908122e+00 
17500 6.5346574171e+00 -4.0845481764e-02 2.3501855029e+00 -4.0706406983e+00 2.3501855029e+00 4.0706406983e+00 
17600 6.5343260129e+00 -4.2274750984e-02 2.3510545407e+00 -4.0721459158e+00 2.3510545407e+00 4.0721459158e+00 
17700 6.5339818178e+00 -4.3614996543e-02 2.3519536573e+00 -4.0737032315e+00 2.3519536573e+00 4.0737032315e+00 
17800 6.5336287840e+00 -4.4863657512e-02 2.3528809260e+00 -4.0753093080e+00 2.3528809260e+00 4.0753093080e+00 
17900 6.5332707587e+00 -4.6018504417e-02 2.3538343675e+00 -4.0769607171e+00 2.3538343675e+00 4.0769607171e+00 
18000 6.5329114506e+00 -4.7077632605e-02 2.3548119573e+00 -4.0786539523e+00 2.3548119573e+00 4.0786539523e+00 
18100 6.5325543993e+00 -4.8039455073e-02 2.3558116329e+00 -4.0803854413e+00 2.3558116329e+00 4.0803854413e+00 
18200 6.5322029488e+00 -4.8902694829e-02 2.3568313010e+00 -4.0821515582e+00 2.3568313010e+00 4.0821515582e+00 
18300 6.5318602243e+00 -4.9666376879e-02 2.3578688441e+00 -4.0839486356e+00 2.3578688441e+00 4.0839486356e+00 
18400 6.5315291131e+00 -5.0329819902e-02 2.3589221273e+00 -4.0857729756e+00 2.3589221273e+00 4.0857729756e+00 
18500 6.5312122484e+00 -5.0892627688e-02 2.3599890046e+00 -4.0876208613e+00 2.3599890046e+00 4.0876208613e+00 
18600 6.5309119969e+00 -5.1354680396e-02 2.3610673254e+00 -4.0894885676e+00 2.3610673254e+00 4.0894885676e+00 
18700 6.5306304490e+00 -5.1716125692e-02 2.3621549399e+00 -4.0913723712e+00 2.3621549399e+00 4.0913723712e+00 
18800 6.5303694136e+00 -5.1977369809e-02 2.3632497054e+00 -4.0932685608e+00 2.3632497054e+00 4.0932685608e+00 
18900 6.5301304140e+00 -5.2139068576e-02 2.3643494919e+00 -4.0951734468e+00 2.3643494919e+00 4.0951734468e+00 
19000 6.5299146879e+00 -5.2202118438e-02 2.3654521867e+00 -4.0970833702e+00 2.3654521867e+00 4.0970833702e+00 
19100 6.5297231897e+00 -5.2167647513e-02 2.3665557003e+00 -4.0989947119e+00 2.3665557003e+00 4.0989947119e+00 
19200 6.5295565949e+00 -5.2037006687e-02 2.3676579709e+00 -4.1009039006e+00 2.3676579709e+00 4.1009039006e+00 
19300 6.5294153075e+00 -5.1811760775e-02 2.3687569690e+00 -4.1028074211e+00 2.3687569690e+00 4.1028074211e+00 
19400 6.5292994686e+00 -5.1493679758e-02 2.3698507018e+00 -4.1047018219e+00 2.3698507018e+00 4.1047018219e+00 
19500 6.5292089675e+00 -5.1084730089e-02 2.3709372178e+00 -4.1065837228e+00 2.3709372178e+00 4.1065837228e+00 
19600 6.5291434546e+00 -5.0587066076e-02 2.3720146102e+00 -4.1084498212e+00 2.3720146102e+00 4.1084498212e+00 
19700 6.5291023549e+00 -5.0003021340e-02 2.3730810213e+00 -4.1102968994e+00 2.3730810213e+00 4.1102968994e+00 
19800 6.5290848840e+00 -4.9335100333e-02 2.3741346457e+00 -4.1121218304e+00 2.3741346457e+00 4.1121218304e+00 
19900 6.5290900643e+00 -4.8585969902e-02 2.3751737337e+00 -4.1139215836e+00 2.3751737337e+00 4.1139215836e+00 
20000 6.5291167429e+00 -4.7758450893e-02 2.3761965948e+00 -4.1156932310e+00 2.3761965948e+00 4.1156932310e+00 
20100 6.5291636095e+00 -4.6855509776e-02 2.3772016004e+00 -4.1174339517e+00 2.3772016004e+00 4.1174339517e+00 
20200 6.5292292156e+00 -4.5880250267e-02 2.3781871867e+00 -4.1191410372e+00 2.3781871867e+00 4.1191410372e+00 
20300 6.5293119936e+00 -4.4835904933e-02 2.3791518574e+00 -4.1208118959e+00 2.3791518574e+00 4.1208118959e+00 
20400 6.5294102765e+00 -4.3725826762e-02 2.3800941861e+00 -4.1224440571e+00 2.3800941861e+00 4.1224440571e+00 
20500 6.5295223177e+00 -4.2553480672e-02 2.3810128186e+00 -4.1240351753e+00 2.3810128186e+00 4.1240351753e+00 
20600 6.5296463102e+00 -4.1322434947e-02 2.3819064749e+00 -4.1255830334e+00 2.3819064749e+00 4.1255830334e+00 
20700 6.5297804065e+00 -4.0036352579e-02 2.3827739511e+00 -4.1270855462e+00 2.3827739511e+00 4.1270855462e+00 
20800 6.5299227372e+00 -3.8698982498e-02 2.3836141211e+00 -4.1285407634e+00 2.3836141211e+00 4.1285407634e+00 
20900 6.5300714299e+00 -3.7314150679e-02 2.3844259383e+00 -4.1299468720e+00 2.3844259383e+00 4.1299468720e+00 
21000 6.5302246269e+00 -3.5885751114e-02 2.3852084367e+00 -4.1313021990e+00 2.3852084367e+00 4.1313021990e+00 
21100 6.5303805024e+00 -3.4417736640e-02 2.3859607323e+00 -4.1326052132e+00 2.3859607323e+00 4.1326052132e+00 
21200 6.5305372788e+00 -3.2914109618e-02 2.3866820239e+00 -4.1338545270e+00 2.3866820239e+00 4.1338545270e+00 
21300 6.5306932422e+00 -3.1378912454e-02 2.3873715941e+00 -4.1350488975e+00 2.3873715941e+00 4.1350488975e+00 
21400 6.5308467563e+00 -2.9816217983e-02 2.3880288096e+00 -4.1361872281e+00 2.3880288096e+00 4.1361872281e+00 
21500 6.5309962755e+00 -2.8230119696e-02 2.3886531219e+00 -4.1372685688e+00 2.3886531219e+00 4.1372685688e+00 
21600 6.5311403570e+00 -2.6624721843e-02 2.3892440676e+00 -4.1382921167e+00 2.3892440676e+00 4.1382921167e+00 
21700 6.5312776710e+00 -2.5004129411e-02 2.3898012680e+00 -4.1392572162e+00 2.3898012680e+00 4.1392572162e+00 
21800 6.5314070098e+00 -2.3372438003e-02 2.3903244295e+00 -4.1401633585e+00 2.3903244295e+00 4.1401633585e+00 
21900 6.5315272955e+00 -2.1733723639e-02 2.3908133430e+00 -4.1410101814e+00 2.3908133430e+00 4.1410101814e+00 
22000 6.5316375861e+00 -2.0092032504e-02 2.3912678831e+00 -4.1417974680e+00 2.3912678831e+00 4.1417974680e+00 
22100 6.5317370803e+00 -1.8451370675e-02 2.3916880079e+00 -4.1425251456e+00 2.3916880079e+00 4.1425251456e+00 
22200 6.5318251207e+00 -1.6815693859e-02 2.3920737578e+00 -4.1431932840e+00 2.3920737578e+00 4.1431932840e+00 
22300 6.5319011951e+00 -1.5188897179e-02 2.3924252542e+00 -4.1438020936e+00 2.3924252542e+00 4.1438020936e+00 
22400 6.5319649373e+00 -1.3574805055e-02 2.3927426984e+00 -4.1443519231e+00 2.3927426984e+00 4.1443519231e+00 
22500 6.5320161250e+00 -1.1977161204e-02 2.3930263702e+00 -4.1448432571e+00 2.3930263702e+00 4.1448432571e+00 
22600 6.5320546782e+00 -1.0399618831e-02 2.3932766260e+00 -4.1452767127e+00 2.3932766260e+00 4.1452767127e+00 
22700 6.5320806540e+00 -8.8457310247e-03 2.3934938966e+00 -4.1456530366e+00 2.3934938966e+00 4.1456530366e+00 
22800 6.5320942421e+00 -7.3189414323e-03 2.3936786860e+00 -4.1459731011e+00 2.3936786860e+00 4.1459731011e+00 
22900 6.5320957580e+00 -5.8225752424e-03 2.3938315682e+00 -4.1462379010e+00 2.3938315682e+00 4.1462379010e+00 
23000 6.5320856350e+00 -4.3598305285e-03 2.3939531855e+00 -4.1464485482e+00 2.3939531855e+00 4.1464485482e+00 
23100 6.5320644162e+00 -2.9337700001e-03 2.3940442453e+00 -4.1466062684e+00 2.3940442453e+00 4.1466062684e+00 
23200 6.5320327443e+00 -1.5473132016e-03 2.3941055178e+00 -4.1467123955e+00 2.3941055178e+00 4.1467123955e+00 
23300 6.5319913517e+00 -2.0322920464e-04 2.3941378330e+00 -4.1467683670e+00 2.3941378330e+00 4.1467683670e+00 
23400 6.5319410493e+00 1.0958701683e-03 2.3941420773e+00 -4.1467757184e+00 2.3941420773e+00 4.1467757184e+00 
23500 6.5318827151e+00 2.3475365521e-03 2.3941191908e+00 -4.1467360779e+00 2.3941191908e+00 4.1467360779e+00 
23600 6.5318172819e+00 3.5494906455e-03 2.3940701638e+00 -4.1466511606e+00 2.3940701638e+00 4.1466511606e+00 
23700 6.5317457260e+00 4.6996271869e-03 2.3939960333e+00 -4.1465227628e+00 2.3939960333e+00 4.1465227628e+00 
23800 6.5316690540e+00 5.7960192738e-03 2.3938978796e+00 -4.1463527555e+00 2.3938978796e+00 4.1463527555e+00 
23900 6.5315882913e+00 6.8369220061e-03 2.3937768224e+00 -4.1461430783e+00 2.3937768224e+00 4.1461430783e+00 
24000 6.5315044700e+00 7.8207754366e-03 2.3936340176e+00 -4.1458957333e+00 2.3936340176e+00 4.1458957333e+00 
24100 6.5314186168e+00 8.7462068176e-03 2.3934706533e+00 -4.1456127780e+00 2.3934706533e+00 4.1456127780e+00 
24200 6.5313317421e+00 9.6120321382e-03 2.3932879459e+00 -4.1452963195e+00 2.3932879459e+00 4.1452963195e+00 
24300 6.5312448291e+00 1.0417256950e-02 2.3930871365e+00 -4.1449485073e+00 2.3930871365e+00 4.1449485073e+00 
24400 6.5311588241e+00 1.1161076485e-02 2.3928694867e+00 -4.1445715268e+00 2.3928694867e+00 4.1445715268e+00 
24500 6.5310746264e+00 1.1842875078e-02 2.3926362751e+00 -4.1441675926e+00 2.3926362751e+00 4.1441675926e+00 
24600 6.5309930808e+00 1.2462224893e-02 2.3923887935e+00 -4.1437389418e+00 2.3923887935e+00 4.1437389418e+00 
24700 6.5309149696e+00 1.3018883996e-02 2.3921283425e+00 -4.1432878275e+00 2.3921283425e+00 4.1432878275e+00 
24800 6.5308410057e+00 1.3512793765e-02 2.3918562284e+00 -4.1428165121e+00 2.3918562284e+00 4.1428165121e+00 
24900 6.5307718280e+00 1.3944075687e-02 2.3915737590e+00 -4.1423272606e+00 2.3915737590e+00 4.1423272606e+00 
25000 6.5307079962e+00 1.4313027556e-02 2.3912822398e+00 -4.1418223345e+00 2.3912822398e+00 4.1418223345e+00 
25100 6.5306499875e+00 1.4620119106e-02 2.3909829709e+00 -4.1413039856e+00 2.3909829709e+00 4.1413039856e+00 
25200 6.5305981947e+00 1.4865987121e-02 2.3906772429e+00 -4.1407744492e+00 2.3906772429e+00 4.1407744492e+00 
25300 6.5305529248e+00 1.5051430041e-02 2.3903663338e+00 -4.1402359389e+00 2.3903663338e+00 4.1402359389e+00 
25400 6.5305143987e+00 1.5177402122e-02 2.3900515055e+00 -4.1396906403e+00 2.3900515055e+00 4.1396906403e+00 
25500 6.5304827523e+00 1.5245007165e-02 2.3897340005e+00 -4.1391407055e+00 2.3897340005e+00 4.1391407055e+00 
25600 6.5304580383e+00 1.5255491877e-02 2.3894150389e+00 -4.1385882478e+00 2.3894150389e+00 4.1385882478e+00 
25700 6.5304402286e+00 1.5210238888e-02 2.3890958153e+00 -4.1380353363e+00 2.3890958153e+00 4.1380353363e+00 
25800 6.5304292186e+00 1.5110759469e-02 2.3887774961e+00 -4.1374839913e+00 2.3887774961e+00 4.1374839913e+00 
25900 6.5304248309e+00 1.4958685994e-02 2.3884612167e+00 -4.1369361792e+00 2.3884612167e+00 4.1369361792e+00 
26000 6.5304268206e+00 1.4755764179e-02 2.3881480787e+00 -4.1363938083e+00 2.3881480787e+00 4.1363938083e+00 
26100 6.5304348812e+00 1.4503845141e-02 2.3878391480e+00 -4.1358587246e+00 2.3878391480e+00 4.1358587246e+00 
26200 6.5304486501e+00 1.4204877319e-02 2.3875354521e+00 -4.1353327079e+00 2.3875354521e+00 4.1353327079e+00 
26300 6.5304677158e+00 1.3860898282e-02 2.3872379783e+00 -4.1348174682e+00 2.3872379783e+00 4.1348174682e+00 
26400 6.5304916244e+00 1.3474026469e-02 2.3869476718e+00 -4.1343146425e+00 2.3869476718e+00 4.1343146425e+00 
26500 6.5305198865e+00 1.3046452894e-02 2.3866654335e+00 -4.1338257914e+00 2.3866654335e+00 4.1338257914e+00 
26600 6.5305519850e+00 1.2580432844e-02 2.3863921190e+00 -4.1333523969e+00 2.3863921190e+00 4.1333523969e+00 
26700 6.5305873814e+00 1.2078277603e-02 2.3861285370e+00 -4.1328958594e+00 2.3861285370e+00 4.1328958594e+00 
26800 6.5306255238e+00 1.1542346234e-02 2.3858754479e+00 -4.1324574962e+00 2.3858754479e+00 4.1324574962e+00 
26900 6.5306658532e+00 1.0975037444e-02 2.3856335628e+00 -4.1320385390e+00 2.3856335628e+00 4.1320385390e+00 
27000 6.5307078105e+00 1.0378781555e-02 2.3854035430e+00 -4.1316401330e+00 2.3854035430e+00 4.1316401330e+00 
27100 6.5307508430e+00 9.7560326071e-03 2.3851859986e+00 -4.1312633350e+00 2.3851859986e+00 4.1312633350e+00 
27200 6.5307944103e+00 9.1092606254e-03 2.3849814885e+00 -4.1309091131e+00 2.3849814885e+00 4.1309091131e+00 
27300 6.5308379900e+00 8.4409440506e-03 2.3847905197e+00 -4.1305783455e+00 2.3847905197e+00 4.1305783455e+00 
27400 6.5308810828e+00 7.7535623732e-03 2.3846135474e+00 -4.1302718204e+00 2.3846135474e+00 4.1302718204e+00 
27500 6.5309232175e+00 7.0495889766e-03 2.3844509744e+00 -4.1299902358e+00 2.3844509744e+00 4.1299902358e+00 
27600 6.5309639545e+00 6.3314842086e-03 2.3843031518e+00 -4.1297341995e+00 2.3843031518e+00 4.1297341995e+00 
27700 6.5310028899e+00 5.6016886953e-03 2.3841703787e+00 -4.1295042298e+00 2.3841703787e+00 4.1295042298e+00 
27800 6.5310396583e+00 4.8626169103e-03 2.3840529030e+00 -4.1293007559e+00 2.3840529030e+00 4.1293007559e+00 
27900 6.5310739349e+00 4.1166510091e-03 2.3839509215e+00 -4.1291241188e+00 2.3839509215e+00 4.1291241188e+00 
28000 6.5311054379e+00 3.3661349402e-03 2.3838645811e+00 -4.1289745729e+00 2.3838645811e+00 4.1289745729e+00 
28100 6.5311339291e+00 2.6133688403e-03 2.3837939790e+00 -4.1288522864e+00 2.3837939790e+00 4.1288522864e+00 
28200 6.5311592149e+00 1.8606037206e-03 2.3837391639e+00 -4.1287573438e+00 2.3837391639e+00 4.1287573438e+00 
28300 6.5311811466e+00 1.1100364502e-03 2.3837001370e+00 -4.1286897473e+00 2.3837001370e+00 4.1286897473e+00 
28400 6.5311996194e+00 3.6380504099e-04 2.3836768531e+00 -4.1286494184e+00 2.3836768531e+00 4.1286494184e+00 
28500 6.5312145721e+00 -3.7601576263e-04 2.3836692220e+00 -4.1286362009e+00 2.3836692220e+00 4.1286362009e+00 
28600 6.5312259856e+00 -1.1074185875e-03 2.3836771093e+00 -4.1286498621e+00 2.3836771093e+00 4.1286498621e+00 
28700 6.5312338810e+00 -1.8284672274e-03 2.3837003385e+00 -4.1286900964e+00 2.3837003385e+00 4.1286900964e+00 
28800 6.5312383178e+00 -2.5373001315e-03 2.3837386922e+00 -4.1287565268e+00 2.3837386922e+00 4.1287565268e+00 
28900 6.5312393912e+00 -3.2321335854e-03 2.3837919134e+00 -4.1288487087e+00 2.3837919134e+00 4.1288487087e+00 
29000 6.5312372294e+00 -3.9112645885e-03 2.3838597077e+00 -4.1289661318e+00 2.3838597077e+00 4.1289661318e+00 
29100 6.5312319909e+00 -4.5730734288e-03 2.3839417445e+00 -4.1291082238e+00 2.3839417445e+00 4.1291082238e+00 
29200 6.5312238612e+00 -5.2160259604e-03 2.3840376593e+00 -4.1292743531e+00 2.3840376593e+00 4.1292743531e+00 
29300 6.5312130492e+00 -5.8386755868e-03 2.3841470549e+00 -4.1294638318e+00 2.3841470549e+00 4.1294638318e+00 
29400 6.5311997845e+00 -6.4396649559e-03 2.3842695039e+00 -4.1296759196e+00 2.3842695039e+00 4.1296759196e+00 
29500 6.5311843134e+00 -7.0177273730e-03 2.3844045500e+00 -4.1299098263e+00 2.3844045500e+00 4.1299098263e+00 
29600 6.5311668954e+00 -7.5716879361e-03 2.3845517104e+00 -4.1301647156e+00 2.3845517104e+00 4.1301647156e+00 
29700 6.5311478002e+00 -8.1004644028e-03 2.3847104776e+00 -4.1304397085e+00 2.3847104776e+00 4.1304397085e+00 
29800 6.5311273039e+00 -8.6030677945e-03 2.3848803213e+00 -4.1307338864e+00 2.3848803213e+00 4.1307338864e+00 
29900 6.5311056859e+00 -9.0786027454e-03 2.3850606904e+00 -4.1310462949e+00 2.3850606904e+00 4.1310462949e+00 
30000 6.5310832256e+00 -9.5262676050e-03 2.3852510152e+00 -4.1313759471e+00 2.3852510152e+00 4.1313759471e+00 
30100 6.5310601994e+00 -9.9453543020e-03 2.3854507091e+00 -4.1317218271e+00 2.3854507091e+00 4.1317218271e+00 
30200 6.5310368780e+00 -1.0335247977e-02 2.3856591707e+00 -4.1320828932e+00 2.3856591707e+00 4.1320828932e+00 
30300 6.5310135236e+00 -1.0695426396e-02 2.3858757860e+00 -4.1324580819e+00 2.3858757860e+00 4.1324580819e+00 
30400 6.5309903872e+00 -1.1025459144e-02 2.3860999300e+00 -4.1328463106e+00 2.3860999300e+00 4.1328463106e+00 
30500 6.5309677069e+00 -1.1325006622e-02 2.3863309688e+00 -4.1332464817e+00 2.3863309688e+00 4.1332464817e+00 
30600 6.5309457057e+00 -1.1593818842e-02 2.3865682619e+00 -4.1336574853e+00 2.3865682619e+00 4.1336574853e+00 
30700 6.5309245896e+00 -1.1831734038e-02 2.3868111633e+00 -4.1340782029e+00 2.3868111633e+00 4.1340782029e+00 
30800 6.5309045465e+00 -1.2038677094e-02 2.3870590241e+00 -4.1345075104e+00 2.3870590241e+00 4.1345075104e+00 
30900 6.5308857445e+00 -1.2214657805e-02 2.3873111940e+00 -4.1349442815e+00 2.3873111940e+00 4.1349442815e+00 
31000 6.5308683317e+00 -1.2359768974e-02 2.3875670231e+00 -4.1353873906e+00 2.3875670231e+00 4.1353873906e+00 
31100 6.5308524347e+00 -1.2474184355e-02 2.3878258639e+00 -4.1358357159e+00 2.3878258639e+00 4.1358357159e+00 
31200 6.5308381588e+00 -1.2558156454e-02 2.3880870725e+00 -4.1362881424e+00 2.3880870725e+00 4.1362881424e+00 
31300 6.5308255873e+00 -1.2612014183e-02 2.3883500107e+00 -4.1367435647e+00 2.3883500107e+00 4.1367435647e+00 
31400 6.5308147823e+00 -1.2636160397e-02 2.3886140475e+00 -4.1372008899e+00 2.3886140475e+00 4.1372008899e+00 
31500 6.5308057840e+00 -1.2631069296e-02 2.3888785606e+00 -4.1376590400e+00 2.3888785606e+00 4.1376590400e+00 
31600 6.5307986120e+00 -1.2597283723e-02 2.3891429378e+00 -4.1381169548e+00 2.3891429378e+00 4.1381169548e+00 
31700 6.5307932657e+00 -1.2535412351e-02 2.3894065787e+00 -4.1385735942e+00 2.3894065787e+00 4.1385735942e+00 
31800 6.5307897251e+00 -1.2446126767e-02 2.3896688957e+00 -4.1390279407e+00 2.3896688957e+00 4.1390279407e+00 
31900 6.5307879520e+00 -1.2330158473e-02 2.3899293158e+00 -4.1394790014e+00 2.3899293158e+00 4.1394790014e+00 
32000 6.5307878908e+00 -1.2188295796e-02 2.3901872811e+00 -4.1399258105e+00 2.3901872811e+00 4.1399258105e+00 
32100 6.5307894705e+00 -1.2021380723e-02 2.3904422510e+00 -4.1403674312e+00 2.3904422510e+00 4.1403674312e+00 
32200 6.5307926055e+00 -1.1830305665e-02 2.3906937022e+00 -4.1408029575e+00 2.3906937022e+00 4.1408029575e+00 
32300 6.5307971974e+00 -1.1616010163e-02 2.3909411306e+00 -4.1412315160e+00 2.3909411306e+00 4.1412315160e+00 
32400 6.5308031365e+00 -1.1379477533e-02 2.3911840518e+00 -4.1416522679e+00 2.3911840518e+00 4.1416522679e+00 
32500 6.5308103036e+00 -1.1121731468e-02 2.3914220022e+00 -4.1420644102e+00 2.3914220022e+00 4.1420644102e+00 
32600 6.5308185712e+00 -1.0843832597e-02 2.3916545398e+00 -4.1424671772e+00 2.3916545398e+00 4.1424671772e+00 
32700 6.5308278059e+00 -1.0546875016e-02 2.3918812449e+00 -4.1428598418e+00 2.3918812449e+00 4.1428598418e+00 
32800 6.5308378695e+00 -1.0231982785e-02 2.3921017207e+00 -4.1432417171e+00 2.3921017207e+00 4.1432417171e+00 
32900 6.5308486207e+00 -9.9003064192e-03 2.3923155940e+00 -4.1436121566e+00 2.3923155940e+00 4.1436121566e+00 
33000 6.5308599172e+00 -9.5530193591e-03 2.3925225159e+00 -4.1439705558e+00 2.3925225159e+00 4.1439705558e+00 
33100 6.5308716167e+00 -9.1913144470e-03 2.3927221619e+00 -4.1443163528e+00 2.3927221619e+00 4.1443163528e+00 
33200 6.5308835787e+00 -8.8164004050e-03 2.3929142326e+00 -4.1446490291e+00 2.3929142326e+00 4.1446490291e+00 
33300 6.5308956658e+00 -8.4294983278e-03 2.3930984539e+00 -4.1449681097e+00 2.3930984539e+00 4.1449681097e+00 
33400 6.5309077453e+00 -8.0318381982e-03 2.3932745771e+00 -4.1452731639e+00 2.3932745771e+00 4.1452731639e+00 
33500 6.5309196899e+00 -7.6246554308e-03 2.3934423792e+00 -4.1455638058e+00 2.3934423792e+00 4.1455638058e+00 
33600 6.5309313794e+00 -7.2091874550e-03 2.3936016632e+00 -4.1458396937e+00 2.3936016632e+00 4.1458396937e+00 
33700 6.5309427014e+00 -6.7866703433e-03 2.3937522576e+00 -4.1461005310e+00 2.3937522576e+00 4.1461005310e+00 
33800 6.5309535522e+00 -6.3583354934e-03 2.3938940170e+00 -4.1463460654e+00 2.3938940170e+00 4.1463460654e+00 
33900 6.5309638374e+00 -5.9254063729e-03 2.3940268215e+00 -4.1465760894e+00 2.3940268215e+00 4.1465760894e+00 
34000 6.5309734729e+00 -5.4890953334e-03 2.3941505765e+00 -4.1467904394e+00 2.3941505765e+00 4.1467904394e+00 
34100 6.5309823853e+00 -5.0506005028e-03 2.3942652130e+00 -4.1469889956e+00 2.3942652130e+00 4.1469889956e+00 
34200 6.5309905117e+00 -4.6111027627e-03 2.3943706866e+00 -4.1471716813e+00 2.3943706866e+00 4.1471716813e+00 
34300 6.5309978008e+00 -4.1717628188e-03 2.3944669777e+00 -4.1473384625e+00 2.3944669777e+00 4.1473384625e+00 
34400 6.5310042122e+00 -3.7337183720e-03 2.3945540908e+00 -4.1474893468e+00 2.3945540908e+00 4.1474893468e+00 
34500 6.5310097170e+00 -3.2980813965e-03 2.3946320540e+00 -4.1476243829e+00 2.3946320540e+00 4.1476243829e+00 
34600 6.5310142972e+00 -2.8659355315e-03 2.3947009183e+00 -4.1477436595e+00 2.3947009183e+00 4.1477436595e+00 
34700 6.5310179457e+00 -2.4383335947e-03 2.3947607577e+00 -4.1478473043e+00 2.3947607577e+00 4.1478473043e+00 
34800 6.5310206656e+00 -2.0162952210e-03 2.3948116676e+00 -4.1479354829e+00 2.3948116676e+00 4.1479354829e+00 
34900 6.5310224703e+00 -1.6008046344e-03 2.3948537649e+00 -4.1480083975e+00 2.3948537649e+00 4.1480083975e+00 
35000 6.5310233824e+00 -1.1928085569e-03 2.3948871868e+00 -4.1480662858e+00 2.3948871868e+00 4.1480662858e+00 
35100 6.5310234333e+00 -7.9321426028e-04 2.3949120900e+00 -4.1481094196e+00 2.3949120900e+00 4.1481094196e+00 
35200 6.5310226624e+00 -4.0288776364e-04 2.3949286504e+00 -4.1481381031e+00 2.3949286504e+00 4.1481381031e+00 
35300 6.5310211165e+00 -2.2652182007e-05 2.3949370617e+00 -4.1481526718e+00 2.3949370617e+00 4.1481526718e+00 
35400 6.5310188486e+00 3.4650477457e-04 2.3949370617e+00 -4.1481526718e+00 2.3949370617e+00 4.1481526718e+00 
35500 6.5310159177e+00 7.0426720102e-04 2.3949298276e+00 -4.1481401420e+00 2.3949298276e+00 4.1481401420e+00 
35600 6.5310123874e+00 1.0497408538e-03 2.3949151243e+00 -4.1481146752e+00 2.3949151243e+00 4.1481146752e+00 
35700 6.5310083253e+00 1.3822876446e-03 2.3948932083e+00 -4.1480767155e+00 2.3948932083e+00 4.1480767155e+00 
35800 6.5310038015e+00 1.7013183012e-03 2.3948643493e+00 -4.1480267303e+00 2.3948643493e+00 4.1480267303e+00 
35900 6.5309988884e+00 2.0062930694e-03 2.3948288293e+00 -4.1479652077e+00 2.3948288293e+00 4.1479652077e+00 
36000 6.5309936597e+00 2.2967222539e-03 2.3947869414e+00 -4.1478926558e+00 2.3947869414e+00 4.1478926558e+00 
36100 6.5309881892e+00 2.5721665997e-03 2.3947389890e+00 -4.1478095998e+00 2.3947389890e+00 4.1478095998e+00 
36200 6.5309825500e+00 2.8322375150e-03 2.3946852847e+00 -4.1477165812e+00 2.3946852847e+00 4.1477165812e+00 
36300 6.5309768142e+00 3.0765971379e-03 2.3946261490e+00 -4.1476141552e+00 2.3946261490e+00 4.1476141552e+00 
36400 6.5309710516e+00 3.3049582495e-03 2.3945619097e+00 -4.1475028894e+00 2.3945619097e+00 4.1475028894e+00 
36500 6.5309653293e+00 3.5170840364e-03 2.3944929003e+00 -4.1473833618e+00 2.3944929003e+00 4.1473833618e+00 
36600 6.5309597112e+00 3.7127877060e-03 2.3944194596e+00 -4.1472561587e+00 2.3944194596e+00 4.1472561587e+00 
36700 6.5309542570e+00 3.8919319600e-03 2.3943419300e+00 -4.1471218735e+00 2.3943419300e+00 4.1471218735e+00 
36800 6.5309490220e+00 4.0544283290e-03 2.3942606570e+00 -4.1469811044e+00 2.3942606570e+00 4.1469811044e+00 
36900 6.5309440568e+00 4.2002363744e-03 2.3941759877e+00 -4.1468344530e+00 2.3941759877e+00 4.1468344530e+00 
37000 6.5309394065e+00 4.3293627628e-03 2.3940882705e+00 -4.1466825223e+00 2.3940882705e+00 4.1466825223e+00 
37100 6.5309351111e+00 4.4418602184e-03 2.3939978533e+00 -4.1465259151e+00 2.3939978533e+00 4.1465259151e+00 
37200 6.5309312044e+00 4.5378263601e-03 2.3939050831e+00 -4.1463652324e+00 2.3939050831e+00 4.1463652324e+00 
37300 6.5309277147e+00 4.6174024288e-03 2.3938103050e+00 -4.1462010719e+00 2.3938103050e+00 4.1462010719e+00 
37400 6.5309246644e+00 4.6807719128e-03 2.3937138610e+00 -4.1460340260e+00 2.3937138610e+00 4.1460340260e+00 
37500 6.5309220699e+00 4.7281590770e-03 2.3936160895e+00 -4.1458646808e+00 2.3936160895e+00 4.1458646808e+00 
37600 6.5309199418e+00 4.7598274042e-03 2.3935173242e+00 -4.1456936142e+00 2.3935173242e+00 4.1456936142e+00 
37700 6.5309182850e+00 4.7760779539e-03 2.3934178932e+00 -4.1455213948e+00 2.3934178932e+00 4.1455213948e+00 
37800 6.5309170989e+00 4.7772476484e-03 2.3933181186e+00 -4.1453485801e+00 2.3933181186e+00 4.1453485801e+00 
37900 6.5309163778e+00 4.7637074908e-03 2.3932183155e+00 -4.1451757160e+00 2.3932183155e+00 4.1451757160e+00 
38000 6.5309161109e+00 4.7358607252e-03 2.3931187910e+00 -4.1450033346e+00 2.3931187910e+00 4.1450033346e+00 
38100 6.5309162828e+00 4.6941409433e-03 2.3930198442e+00 -4.1448319537e+00 2.3930198442e+00 4.1448319537e+00 
38200 6.5309168739e+00 4.6390101486e-03 2.3929217650e+00 -4.1446620756e+00 2.3929217650e+00 4.1446620756e+00 
38300 6.5309178608e+00 4.5709567811e-03 2.3928248338e+00 -4.1444941857e+00 2.3928248338e+00 4.1444941857e+00 
38400 6.5309192167e+00 4.4904937142e-03 2.3927293206e+00 -4.1443287520e+00 2.3927293206e+00 4.1443287520e+00 
38500 6.5309209117e+00 4.3981562273e-03 2.3926354850e+00 -4.1441662240e+00 2.3926354850e+00 4.1441662240e+00 
38600 6.5309229137e+00 4.2944999633e-03 2.3925435753e+00 -4.1440070317e+00 2.3925435753e+00 4.1440070317e+00 
38700 6.5309251884e+00 4.1800988763e-03 2.3924538283e+00 -4.1438515853e+00 2.3924538283e+00 4.1438515853e+00 
38800 6.5309276999e+00 4.0555431782e-03 2.3923664687e+00 -4.1437002742e+00 2.3923664687e+00 4.1437002742e+00 
38900 6.5309304113e+00 3.9214372875e-03 2.3922817092e+00 -4.1435534663e+00 2.3922817092e+00 4.1435534663e+00 
39000 6.5309332852e+00 3.7783977896e-03 2.3921997494e+00 -4.1434115079e+00 2.3921997494e+00 4.1434115079e+00 
39100 6.5309362839e+00 3.6270514126e-03 2.3921207766e+00 -4.1432747229e+00 2.3921207766e+00 4.1432747229e+00 
39200 6.5309393700e+00 3.4680330252e-03 2.3920449645e+00 -4.1431434125e+00 2.3920449645e+00 4.1431434125e+00 
39300 6.5309425067e+00 3.3019836614e-03 2.3919724739e+00 -4.1430178551e+00 2.3919724739e+00 4.1430178551e+00 
39400 6.5309456584e+00 3.1295485778e-03 2.3919034520e+00 -4.1428983057e+00 2.3919034520e+00 4.1428983057e+00 
39500 6.5309487907e+00 2.9513753485e-03 2.3918380327e+00 -4.1427849961e+00 2.3918380327e+00 4.1427849961e+00 
39600 6.5309518712e+00 2.7681120013e-03 2.3917763362e+00 -4.1426781346e+00 2.3917763362e+00 4.1426781346e+00 
39700 6.5309548691e+00 2.5804052005e-03 2.3917184691e+00 -4.1425779059e+00 2.3917184691e+00 4.1425779059e+00 
39800 6.5309577562e+00 2.3888984797e-03 2.3916645247e+00 -4.1424844715e+00 2.3916645247e+00 4.1424844715e+00 
39900 6.5309605067e+00 2.1942305288e-03 2.3916145827e+00 -4.1423979694e+00 2.3916145827e+00 4.1423979694e+00 
40000 6.5309630973e+00 1.9970335377e-03 2.3915687095e+00 -4.1423185146e+00 2.3915687095e+00 4.1423185146e+00 
40100 6.5309655075e+00 1.7979316015e-03 2.3915269581e+00 -4.1422461990e+00 2.3915269581e+00 4.1422461990e+00 
40200 6.5309677200e+00 1.5975391879e-03 2.3914893685e+00 -4.1421810921e+00 2.3914893685e+00 4.1421810921e+00 
40300 6.5309697201e+00 1.3964596716e-03 2.3914559681e+00 -4.1421232408e+00 2.3914559681e+00 4.1421232408e+00 
40400 6.5309714961e+00 1.1952839357e-03 2.3914267713e+00 -4.1420726705e+00 2.3914267713e+00 4.1420726705e+00 
40500 6.5309730396e+00 9.9458904457e-04 2.3914017803e+00 -4.1420293849e+00 2.3914017803e+00 4.1420293849e+00 
40600 6.5309743447e+00 7.9493698736e-04 2.3913809853e+00 -4.1419933667e+00 2.3913809853e+00 4.1419933667e+00 
40700 6.5309754087e+00 5.9687349569e-04 2.3913643644e+00 -4.1419645786e+00 2.3913643644e+00 4.1419645786e+00 
40800 6.5309762315e+00 4.0092693550e-04 2.3913518847e+00 -4.1419429630e+00 2.3913518847e+00 4.1419429630e+00 
40900 6.5309768158e+00 2.0760727456e-04 2.3913435018e+00 -4.1419284435e+00 2.3913435018e+00 4.1419284435e+00 
41000 6.5309771667e+00 1.7405126094e-05 2.3913391610e+00 -4.1419209250e+00 2.3913391610e+00 4.1419209250e+00 
41100 6.5309772916e+00 -1.6904719746e-04 2.3913391610e+00 -4.1419209250e+00 2.3913391610e+00 4.1419209250e+00 
41200 6.5309772001e+00 -3.5162364864e-04 2.3913426956e+00 -4.1419270470e+00 2.3913426956e+00 4.1419270470e+00 
41300 6.5309769039e+00 -5.2973518157e-04 2.3913500476e+00 -4.1419397811e+00 2.3913500476e+00 4.1419397811e+00 
41400 6.5309764162e+00 -7.0297662919e-04 2.3913611237e+00 -4.1419589654e+00 2.3913611237e+00 4.1419589654e+00 
41500 6.5309757518e+00 -8.7096580991e-04 2.3913758219e+00 -4.1419844236e+00 2.3913758219e+00 4.1419844236e+00 
41600 6.5309749270e+00 -1.0333440241e-03 2.3913940325e+00 -4.1420159652e+00 2.3913940325e+00 4.1420159652e+00 
41700 6.5309739587e+00 -1.1897764755e-03 2.3914156380e+00 -4.1420533871e+00 2.3914156380e+00 4.1420533871e+00 
41800 6.5309728649e+00 -1.3399526184e-03 2.3914405141e+00 -4.1420964736e+00 2.3914405141e+00 4.1420964736e+00 
41900 6.5309716643e+00 -1.4835864312e-03 2.3914685297e+00 -4.1421449981e+00 2.3914685297e+00 4.1421449981e+00 
42000 6.5309703757e+00 -1.6204166190e-03 2.3914995481e+00 -4.1421987236e+00 2.3914995481e+00 4.1421987236e+00 
42100 6.5309690182e+00 -1.7502067442e-03 2.3915334268e+00 -4.1422574033e+00 2.3915334268e+00 4.1422574033e+00 
42200 6.5309676106e+00 -1.8727452892e-03 2.3915700187e+00 -4.1423207822e+00 2.3915700187e+00 4.1423207822e+00 
42300 6.5309661717e+00 -1.9878456507e-03 2.3916091718e+00 -4.1423885974e+00 2.3916091718e+00 4.1423885974e+00 
42400 6.5309647197e+00 -2.0953460687e-03 2.3916507307e+00 -4.1424605795e+00 2.3916507307e+00 4.1424605795e+00 
42500 6.5309632720e+00 -2.1951094908e-03 2.3916945363e+00 -4.1425364530e+00 2.3916945363e+00 4.1425364530e+00 
42600 6.5309618455e+00 -2.2870233754e-03 2.3917404267e+00 -4.1426159375e+00 2.3917404267e+00 4.1426159375e+00 
42700 6.5309604558e+00 -2.3709994338e-03 2.3917882377e+00 -4.1426987486e+00 2.3917882377e+00 4.1426987486e+00 
42800 6.5309591176e+00 -2.4469733150e-03 2.3918378033e+00 -4.1427845987e+00 2.3918378033e+00 4.1427845987e+00 
42900 6.5309578445e+00 -2.5149042345e-03 2.3918889560e+00 -4.1428731979e+00 2.3918889560e+00 4.1428731979e+00 
43000 6.5309566484e+00 -2.5747745495e-03 2.3919415277e+00 -4.1429642547e+00 2.3919415277e+00 4.1429642547e+00 
43100 6.5309555402e+00 -2.6265892828e-03 2.3919953498e+00 -4.1430574773e+00 2.3919953498e+00 4.1430574773e+00 
43200 6.5309545293e+00 -2.6703755980e-03 2.3920502537e+00 -4.1431525737e+00 2.3920502537e+00 4.1431525737e+00 
43300 6.5309536235e+00 -2.7061822282e-03 2.3921060716e+00 -4.1432492532e+00 2.3921060716e+00 4.1432492532e+00 
43400 6.5309528292e+00 -2.7340788607e-03 2.3921626367e+00 -4.1433472268e+00 2.3921626367e+00 4.1433472268e+00 
43500 6.5309521513e+00 -2.7541554800e-03 2.3922197835e+00 -4.1434462080e+00 2.3922197835e+00 4.1434462080e+00 
43600 6.5309515931e+00 -2.7665216724e-03 2.3922773486e+00 -4.1435459136e+00 2.3922773486e+00 4.1435459136e+00 
43700 6.5309511566e+00 -2.7713058940e-03 2.3923351708e+00 -4.1436460645e+00 2.3923351708e+00 4.1436460645e+00 
43800 6.5309508424e+00 -2.7686547047e-03 2.3923930915e+00 -4.1437463862e+00 2.3923930915e+00 4.1437463862e+00 
43900 6.5309506495e+00 -2.7587319714e-03 2.3924509555e+00 -4.1438466095e+00 2.3924509555e+00 4.1438466095e+00 
44000 6.5309505758e+00 -2.7417180430e-03 2.3925086106e+00 -4.1439464712e+00 2.3925086106e+00 4.1439464712e+00 
44100 6.5309506179e+00 -2.7178088990e-03 2.3925659088e+00 -4.1440457146e+00 2.3925659088e+00 4.1440457146e+00 
44200 6.5309507714e+00 -2.6872152752e-03 2.3926227060e+00 -4.1441440902e+00 2.3926227060e+00 4.1441440902e+00 
44300 6.5309510307e+00 -2.6501617693e-03 2.3926788625e+00 -4.1442413560e+00 2.3926788625e+00 4.1442413560e+00 
44400 6.5309513894e+00 -2.6068859282e-03 2.3927342434e+00 -4.1443372785e+00 2.3927342434e+00 4.1443372785e+00 
44500 6.5309518402e+00 -2.5576373204e-03 2.3927887186e+00 -4.1444316324e+00 2.3927887186e+00 4.1444316324e+00 
44600 6.5309523752e+00 -2.5026765956e-03 2.3928421635e+00 -4.1445242017e+00 2.3928421635e+00 4.1445242017e+00 
44700 6.5309529857e+00 -2.4422745351e-03 2.3928944588e+00 -4.1446147797e+00 2.3928944588e+00 4.1446147797e+00 
44800 6.5309536628e+00 -2.3767110942e-03 2.3929454907e+00 -4.1447031697e+00 2.3929454907e+00 4.1447031697e+00 
44900 6.5309543971e+00 -2.3062744403e-03 2.3929951517e+00 -4.1447891850e+00 2.3929951517e+00 4.1447891850e+00 
45000 6.5309551790e+00 -2.2312599888e-03 2.3930433399e+00 -4.1448726494e+00 2.3930433399e+00 4.1448726494e+00 
45100 6.5309559987e+00 -2.1519694398e-03 2.3930899598e+00 -4.1449533974e+00 2.3930899598e+00 4.1449533974e+00 
45200 6.5309568466e+00 -2.0687098168e-03 2.3931349220e+00 -4.1450312744e+00 2.3931349220e+00 4.1450312744e+00 
45300 6.5309577129e+00 -1.9817925116e-03 2.3931781439e+00 -4.1451061369e+00 2.3931781439e+00 4.1451061369e+00 
45400 6.5309585882e+00 -1.8915323366e-03 2.3932195491e+00 -4.1451778527e+00 2.3932195491e+00 4.1451778527e+00 
45500 6.5309594635e+00 -1.7982465870e-03 2.3932590678e+00 -4.1452463010e+00 2.3932590678e+00 4.1452463010e+00 
45600 6.5309603298e+00 -1.7022541158e-03 2.3932966369e+00 -4.1453113726e+00 2.3932966369e+00 4.1453113726e+00 
45700 6.5309611789e+00 -1.6038744227e-03 2.3933321999e+00 -4.1453729696e+00 2.3933321999e+00 4.1453729696e+00 
45800 6.5309620030e+00 -1.5034267603e-03 2.3933657071e+00 -4.1454310058e+00 2.3933657071e+00 4.1454310058e+00 
45900 6.5309627950e+00 -1.4012292590e-03 2.3933971154e+00 -4.1454854066e+00 2.3933971154e+00 4.1454854066e+00 
46000 6.5309635482e+00 -1.2975980722e-03 2.3934263883e+00 -4.1455361087e+00 2.3934263883e+00 4.1455361087e+00 
46100 6.5309642569e+00 -1.1928465447e-03 2.3934534959e+00 -4.1455830604e+00 2.3934534959e+00 4.1455830604e+00 
46200 6.5309649159e+00 -1.0872844053e-03 2.3934784149e+00 -4.1456262213e+00 2.3934784149e+00 4.1456262213e+00 
46300 6.5309655208e+00 -9.8121698641e-04 2.3935011284e+00 -4.1456655623e+00 2.3935011284e+00 4.1456655623e+00 
46400 6.5309660680e+00 -8.7494447005e-04 2.3935216259e+00 -4.1457010651e+00 2.3935216259e+00 4.1457010651e+00 
46500 6.5309665546e+00 -7.6876116493e-04 2.3935399033e+00 -4.1457327224e+00 2.3935399033e+00 4.1457327224e+00 
46600 6.5309669786e+00 -6.6295481348e-04 2.3935559624e+00 -4.1457605376e+00 2.3935559624e+00 4.1457605376e+00 
46700 6.5309673387e+00 -5.5780593136e-04 2.3935698111e+00 -4.1457845244e+00 2.3935698111e+00 4.1457845244e+00 
46800 6.5309676343e+00 -4.5358718044e-04 2.3935814633e+00 -4.1458047065e+00 2.3935814633e+00 4.1458047065e+00 
46900 6.5309678656e+00 -3.5056277641e-04 2.3935909384e+00 -4.1458211179e+00 2.3935909384e+00 4.1458211179e+00 
47000 6.5309680334e+00 -2.4898793186e-04 2.3935982614e+00 -4.1458338016e+00 2.3935982614e+00 4.1458338016e+00 
47100 6.5309681392e+00 -1.4910833598e-04 2.3936034625e+00 -4.1458428102e+00 2.3936034625e+00 4.1458428102e+00 
47200 6.5309681850e+00 -5.1159671376e-05 2.3936065772e+00 -4.1458482051e+00 2.3936065772e+00 4.1458482051e+00 
47300 6.5309681735e+00 4.4158634825e-05 2.3936065772e+00 -4.1458482051e+00 2.3936065772e+00 4.1458482051e+00 
47400 6.5309681080e+00 1.3798808372e-04 2.3936065772e+00 -4.1458482051e+00 2.3936065772e+00 4.1458482051e+00 
47500 6.5309679919e+00 2.2883580359e-04 2.3936036948e+00 -4.1458432125e+00 2.3936036948e+00 4.1458432125e+00 
47600 6.5309678293e+00 3.1691821198e-04 2.3935989146e+00 -4.1458349331e+00 2.3935989146e+00 4.1458349331e+00 
47700 6.5309676245e+00 4.0205556672e-04 2.3935922945e+00 -4.1458234667e+00 2.3935922945e+00 4.1458234667e+00 
47800 6.5309673821e+00 4.8408022025e-04 2.3935838959e+00 -4.1458089199e+00 2.3935838959e+00 4.1458089199e+00 
47900 6.5309671069e+00 5.6283683022e-04 2.3935737839e+00 -4.1457914054e+00 2.3935737839e+00 4.1457914054e+00 
48000 6.5309668038e+00 6.3818253093e-04 2.3935620267e+00 -4.1457710413e+00 2.3935620267e+00 4.1457710413e+00 
48100 6.5309664778e+00 7.0998706589e-04 2.3935486955e+00 -4.1457479509e+00 2.3935486955e+00 4.1457479509e+00 
48200 6.5309661341e+00 7.7813288188e-04 2.3935338642e+00 -4.1457222624e+00 2.3935338642e+00 4.1457222624e+00 
48300 6.5309657775e+00 8.4251518498e-04 2.3935176093e+00 -4.1456941082e+00 2.3935176093e+00 4.1456941082e+00 
48400 6.5309654132e+00 9.0304195933e-04 2.3935000094e+00 -4.1456636242e+00 2.3935000094e+00 4.1456636242e+00 
48500 6.5309650458e+00 9.5963394910e-04 2.3934811450e+00 -4.1456309500e+00 2.3934811450e+00 4.1456309500e+00 
48600 6.5309646800e+00 1.0122246046e-03 2.3934610982e+00 -4.1455962280e+00 2.3934610982e+00 4.1455962280e+00 
48700 6.5309643203e+00 1.0607599937e-03 2.3934399526e+00 -4.1455596027e+00 2.3934399526e+00 4.1455596027e+00 
48800 6.5309639707e+00 1.1051986785e-03 2.3934177929e+00 -4.1455212210e+00 2.3934177929e+00 4.1455212210e+00 
48900 6.5309636351e+00 1.1455115603e-03 2.3933947046e+00 -4.1454812310e+00 2.3933947046e+00 4.1454812310e+00 
49000 6.5309633170e+00 1.1816816914e-03 2.3933707740e+00 -4.1454397819e+00 2.3933707740e+00 4.1454397819e+00 
49100 6.5309630196e+00 1.2137040578e-03 2.3933460875e+00 -4.1453970236e+00 2.3933460875e+00 4.1453970236e+00 
49200 6.5309627457e+00 1.2415853313e-03 2.3933207317e+00 -4.1453531061e+00 2.3933207317e+00 4.1453531061e+00 
49300 6.5309624977e+00 1.2653435945e-03 2.3932947932e+00 -4.1453081793e+00 2.3932947932e+00 4.1453081793e+00 
49400 6.5309622777e+00 1.2850080393e-03 2.3932683581e+00 -4.1452623923e+00 2.3932683581e+00 4.1452623923e+00 
49500 6.5309620872e+00 1.3006186397e-03 2.3932415118e+00 -4.1452158933e+00 2.3932415118e+00 4.1452158933e+00 
49600 6.5309619274e+00 1.3122258020e-03 2.3932143391e+00 -4.1451688288e+00 2.3932143391e+00 4.1451688288e+00 
49700 6.5309617993e+00 1.3198899922e-03 2.3931869236e+00 -4.1451213437e+00 2.3931869236e+00 4.1451213437e+00 
49800 6.5309617031e+00 1.3236813430e-03 2.3931593477e+00 -4.1450735808e+00 2.3931593477e+00 4.1450735808e+00 
49900 6.5309616390e+00 1.3236792429e-03 2.3931316922e+00 -4.1450256801e+00 2.3931316922e+00 4.1450256801e+00 
50000 6.5309616068e+00 1.3199719068e-03 2.3931040365e+00 -4.1449777790e+00 2.3931040365e+00 4.1449777790e+00 
50100 6.5309616056e+00 1.3126559318e-03 2.3930764579e+00 -4.1449300114e+00 2.3930764579e+00 4.1449300114e+00 
50200 6.5309616346e+00 1.3018358387e-03 2.3930490318e+00 -4.1448825081e+00 2.3930490318e+00 4.1448825081e+00 
50300 6.5309616925e+00 1.2876236018e-03 2.3930218315e+00 -4.1448353958e+00 2.3930218315e+00 4.1448353958e+00 
50400 6.5309617778e+00 1.2701381673e-03 2.3929949278e+00 -4.1447887973e+00 2.3929949278e+00 4.1447887973e+00 
50500 6.5309618887e+00 1.2495049629e-03 2.3929683892e+00 -4.1447428310e+00 2.3929683892e+00 4.1447428310e+00 
50600 6.5309620233e+00 1.2258554005e-03 2.3929422814e+00 -4.1446976110e+00 2.3929422814e+00 4.1446976110e+00 
50700 6.5309621793e+00 1.1993263723e-03 2.3929166675e+00 -4.1446532464e+00 2.3929166675e+00 4.1446532464e+00 
50800 6.5309623545e+00 1.1700597437e-03 2.3928916076e+00 -4.1446098414e+00 2.3928916076e+00 4.1446098414e+00 
50900 6.5309625464e+00 1.1382018428e-03 2.3928671590e+00 -4.1445674951e+00 2.3928671590e+00 4.1445674951e+00 
51000 6.5309627526e+00 1.1039029489e-03 2.3928433758e+00 -4.1445263014e+00 2.3928433758e+00 4.1445263014e+00 
51100 6.5309629705e+00 1.0673167819e-03 2.3928203091e+00 -4.1444863487e+00 2.3928203091e+00 4.1444863487e+00 
51200 6.5309631975e+00 1.0285999931e-03 2.3927980066e+00 -4.1444477197e+00 2.3927980066e+00 4.1444477197e+00 
51300 6.5309634310e+00 9.8791165949e-04 2.3927765130e+00 -4.1444104917e+00 2.3927765130e+00 4.1444104917e+00 
51400 6.5309636685e+00 9.4541278254e-04 2.3927558694e+00 -4.1443747359e+00 2.3927558694e+00 4.1443747359e+00 
51500 6.5309639076e+00 9.0126579327e-04 2.3927361137e+00 -4.1443405180e+00 2.3927361137e+00 4.1443405180e+00 
51600 6.5309641457e+00 8.5563406428e-04 2.3927172804e+00 -4.1443078977e+00 2.3927172804e+00 4.1443078977e+00 
51700 6.5309643807e+00 8.0868143041e-04 2.3926994004e+00 -4.1442769287e+00 2.3926994004e+00 4.1442769287e+00 
51800 6.5309646105e+00 7.6057171901e-04 2.3926825015e+00 -4.1442476590e+00 2.3926825015e+00 4.1442476590e+00 
51900 6.5309648329e+00 7.1146829099e-04 2.3926666078e+00 -4.1442201303e+00 2.3926666078e+00 4.1442201303e+00 
52000 6.5309650461e+00 6.6153359362e-04 2.3926517401e+00 -4.1441943787e+00 2.3926517401e+00 4.1441943787e+00 
52100 6.5309652486e+00 6.1092872618e-04 2.3926379159e+00 -4.1441704344e+00 2.3926379159e+00 4.1441704344e+00 
52200 6.5309654387e+00 5.5981301931e-04 2.3926251490e+00 -4.1441483216e+00 2.3926251490e+00 4.1441483216e+00 
52300 6.5309656153e+00 5.0834362889e-04 2.3926134503e+00 -4.1441280588e+00 2.3926134503e+00 4.1441280588e+00 
52400 6.5309657772e+00 4.5667514538e-04 2.3926028271e+00 -4.1441096590e+00 2.3926028271e+00 4.1441096590e+00 
52500 6.5309659236e+00 4.0495921923e-04 2.3925932837e+00 -4.1440931292e+00 2.3925932837e+00 4.1440931292e+00 
52600 6.5309660537e+00 3.5334420308e-04 2.3925848209e+00 -4.1440784712e+00 2.3925848209e+00 4.1440784712e+00 
52700 6.5309661672e+00 3.0197481136e-04 2.3925774368e+00 -4.1440656815e+00 2.3925774368e+00 4.1440656815e+00 
52800 6.5309662637e+00 2.5099179783e-04 2.3925711261e+00 -4.1440547511e+00 2.3925711261e+00 4.1440547511e+00 
52900 6.5309663432e+00 2.0053165155e-04 2.3925658809e+00 -4.1440456661e+00 2.3925658809e+00 4.1440456661e+00 
53000 6.5309664057e+00 1.5072631162e-04 2.3925616902e+00 -4.1440384076e+00 2.3925616902e+00 4.1440384076e+00 
53100 6.5309664516e+00 1.0170290118e-04 2.3925585403e+00 -4.1440329518e+00 2.3925585403e+00 4.1440329518e+00 
53200 6.5309664813e+00 5.3583480829e-05 2.3925564149e+00 -4.1440292705e+00 2.3925564149e+00 4.1440292705e+00 
53300 6.5309664954e+00 6.9826655547e-06 2.3925564149e+00 -4.1440292705e+00 2.3925564149e+00 4.1440292705e+00 
53400 6.5309664946e+00 -3.8917229984e-05 2.3925564149e+00 -4.1440292705e+00 2.3925564149e+00 4.1440292705e+00 
53500 6.5309664798e+00 -8.4005343895e-05 2.3925564149e+00 -4.1440292705e+00 2.3925564149e+00 4.1440292705e+00 
53600 6.5309664521e+00 -1.2739553026e-04 2.3925581704e+00 -4.1440323112e+00 2.3925581704e+00 4.1440323112e+00 
53700 6.5309664125e+00 -1.6935448310e-04 2.3925608327e+00 -4.1440369225e+00 2.3925608327e+00 4.1440369225e+00 
53800 6.5309663622e+00 -2.0979459271e-04 2.3925643719e+00 -4.1440430526e+00 2.3925643719e+00 4.1440430526e+00 
53900 6.5309663023e+00 -2.4863448188e-04 2.3925687562e+00 -4.1440506464e+00 2.3925687562e+00 4.1440506464e+00 
54000 6.5309662341e+00 -2.8579909317e-04 2.3925739522e+00 -4.1440596461e+00 2.3925739522e+00 4.1440596461e+00 
54100 6.5309661591e+00 -3.2121975691e-04 2.3925799249e+00 -4.1440699910e+00 2.3925799249e+00 4.1440699910e+00 
54200 6.5309660784e+00 -3.5483423993e-04 2.3925866377e+00 -4.1440816180e+00 2.3925866377e+00 4.1440816180e+00 
54300 6.5309659933e+00 -3.8658677538e-04 2.3925940530e+00 -4.1440944616e+00 2.3925940530e+00 4.1440944616e+00 
54400 6.5309659053e+00 -4.1642807401e-04 2.3926021318e+00 -4.1441084546e+00 2.3926021318e+00 4.1441084546e+00 
54500 6.5309658156e+00 -4.4431531737e-04 2.3926108342e+00 -4.1441235276e+00 2.3926108342e+00 4.1441235276e+00 
54600 6.5309657254e+00 -4.7021213318e-04 2.3926201194e+00 -4.1441396100e+00 2.3926201194e+00 4.1441396100e+00 
54700 6.5309656358e+00 -4.9408855353e-04 2.3926299457e+00 -4.1441566296e+00 2.3926299457e+00 4.1441566296e+00 
54800 6.5309655482e+00 -5.1592095630e-04 2.3926402709e+00 -4.1441745135e+00 2.3926402709e+00 4.1441745135e+00 
54900 6.5309654633e+00 -5.3569199040e-04 2.3926510523e+00 -4.1441931874e+00 2.3926510523e+00 4.1441931874e+00 
55000 6.5309653824e+00 -5.5339048529e-04 2.3926622469e+00 -4.1442125769e+00 2.3926622469e+00 4.1442125769e+00 
55100 6.5309653062e+00 -5.6901134559e-04 2.3926738112e+00 -4.1442326069e+00 2.3926738112e+00 4.1442326069e+00 
55200 6.5309652355e+00 -5.8255543113e-04 2.3926857019e+00 -4.1442532023e+00 2.3926857019e+00 4.1442532023e+00 
55300 6.5309651710e+00 -5.9402942330e-04 2.3926978756e+00 -4.1442742877e+00 2.3926978756e+00 4.1442742877e+00 
55400 6.5309651134e+00 -6.0344567830e-04 2.3927102890e+00 -4.1442957883e+00 2.3927102890e+00 4.1442957883e+00 
55500 6.5309650630e+00 -6.1082206793e-04 2.3927228991e+00 -4.1443176297e+00 2.3927228991e+00 4.1443176297e+00 
55600 6.5309650204e+00 -6.1618180873e-04 2.3927356633e+00 -4.1443397379e+00 2.3927356633e+00 4.1443397379e+00 
55700 6.5309649857e+00 -6.1955328006e-04 2.3927485394e+00 -4.1443620399e+00 2.3927485394e+00 4.1443620399e+00 
55800 6.5309649592e+00 -6.2096983203e-04 2.3927614859e+00 -4.1443844639e+00 2.3927614859e+00 4.1443844639e+00 
55900 6.5309649409e+00 -6.2046958379e-04 2.3927744619e+00 -4.1444069390e+00 2.3927744619e+00 4.1444069390e+00 
56000 6.5309649308e+00 -6.1809521323e-04 2.3927874274e+00 -4.1444293959e+00 2.3927874274e+00 4.1444293959e+00 
56100 6.5309649289e+00 -6.1389373857e-04 2.3928003432e+00 -4.1444517668e+00 2.3928003432e+00 4.1444517668e+00 
56200 6.5309649348e+00 -6.0791629279e-04 2.3928131711e+00 -4.1444739854e+00 2.3928131711e+00 4.1444739854e+00 
56300 6.5309649484e+00 -6.0021789157e-04 2.3928258741e+00 -4.1444959876e+00 2.3928258741e+00 4.1444959876e+00 
56400 6.5309649693e+00 -5.9085719568e-04 2.3928384161e+00 -4.1445177111e+00 2.3928384161e+00 4.1445177111e+00 
56500 6.5309649971e+00 -5.7989626826e-04 2.3928507625e+00 -4.1445390956e+00 2.3928507625e+00 4.1445390956e+00 
56600 6.5309650312e+00 -5.6740032812e-04 2.3928628798e+00 -4.1445600834e+00 2.3928628798e+00 4.1445600834e+00 
56700 6.5309650712e+00 -5.5343749962e-04 2.3928747359e+00 -4.1445806187e+00 2.3928747359e+00 4.1445806187e+00 
56800 6.5309651166e+00 -5.3807855989e-04 2.3928863002e+00 -4.1446006487e+00 2.3928863002e+00 4.1446006487e+00 
56900 6.5309651666e+00 -5.2139668423e-04 2.3928975435e+00 -4.1446201226e+00 2.3928975435e+00 4.1446201226e+00 
57000 6.5309652207e+00 -5.0346719034e-04 2.3929084382e+00 -4.1446389928e+00 2.3929084382e+00 4.1446389928e+00 
57100 6.5309652782e+00 -4.8436728208e-04 2.3929189582e+00 -4.1446572140e+00 2.3929189582e+00 4.1446572140e+00 
57200 6.5309653384e+00 -4.6417579366e-04 2.3929290790e+00 -4.1446747438e+00 2.3929290790e+00 4.1446747438e+00 
57300 6.5309654007e+00 -4.4297293466e-04 2.3929387779e+00 -4.1446915428e+00 2.3929387779e+00 4.1446915428e+00 
57400 6.5309654645e+00 -4.2084003683e-04 2.3929480338e+00 -4.1447075744e+00 2.3929480338e+00 4.1447075744e+00 
57500 6.5309655289e+00 -3.9785930313e-04 2.3929568271e+00 -4.1447228049e+00 2.3929568271e+00 4.1447228049e+00 
57600 6.5309655936e+00 -3.7411355982e-04 2.3929651403e+00 -4.1447372037e+00 2.3929651403e+00 4.1447372037e+00 
57700 6.5309656577e+00 -3.4968601206e-04 2.3929729572e+00 -4.1447507430e+00 2.3929729572e+00 4.1447507430e+00 
57800 6.5309657208e+00 -3.2466000368e-04 2.3929802637e+00 -4.1447633983e+00 2.3929802637e+00 4.1447633983e+00 
57900 6.5309657822e+00 -2.9911878182e-04 2.3929870473e+00 -4.1447751478e+00 2.3929870473e+00 4.1447751478e+00 
58000 6.5309658416e+00 -2.7314526670e-04 2.3929932972e+00 -4.1447859730e+00 2.3929932972e+00 4.1447859730e+00 
58100 6.5309658983e+00 -2.4682182735e-04 2.3929990044e+00 -4.1447958581e+00 2.3929990044e+00 4.1447958581e+00 
58200 6.5309659521e+00 -2.2023006362e-04 2.3930041616e+00 -4.1448047906e+00 2.3930041616e+00 4.1448047906e+00 
58300 6.5309660026e+00 -1.9345059493e-04 2.3930087631e+00 -4.1448127607e+00 2.3930087631e+00 4.1448127607e+00 
58400 6.5309660493e+00 -1.6656285630e-04 2.3930128051e+00 -4.1448197616e+00 2.3930128051e+00 4.1448197616e+00 
58500 6.5309660921e+00 -1.3964490204e-04 2.3930162853e+00 -4.1448257895e+00 2.3930162853e+00 4.1448257895e+00 
58600 6.5309661308e+00 -1.1277321745e-04 2.3930192031e+00 -4.1448308432e+00 2.3930192031e+00 4.1448308432e+00 
58700 6.5309661652e+00 -8.6022538839e-05 2.3930215594e+00 -4.1448349244e+00 2.3930215594e+00 4.1448349244e+00 
58800 6.5309661952e+00 -5.9465682362e-05 2.3930233567e+00 -4.1448380376e+00 2.3930233567e+00 4.1448380376e+00 
58900 6.5309662207e+00 -3.3725474772e-05 2.3930233567e+00 -4.1448380376e+00 2.3930233567e+00 4.1448380376e+00 
59000 6.5309662417e+00 -8.0814670159e-06 2.3930233567e+00 -4.1448380376e+00 2.3930233567e+00 4.1448380376e+00 
59100 6.5309662583e+00 1.7399898118e-05 2.3930233567e+00 -4.1448380376e+00 2.3930233567e+00 4.1448380376e+00 
59200 6.5309662705e+00 4.2654229211e-05 2.3930233567e+00 -4.1448380376e+00 2.3930233567e+00 4.1448380376e+00 
59300 6.5309662787e+00 6.7619329174e-05 2.3930233567e+00 -4.1448380376e+00 2.3930233567e+00 4.1448380376e+00 
59400 6.5309662829e+00 9.2235326833e-05 2.3930233567e+00 -4.1448380376e+00 2.3930233567e+00 4.1448380376e+00 
59500 6.5309662832e+00 1.1558828650e-04 2.3930214296e+00 -4.1448346996e+00 2.3930214296e+00 4.1448346996e+00 
59600 6.5309662799e+00 1.3825172683e-04 2.3930190145e+00 -4.1448305165e+00 2.3930190145e+00 4.1448305165e+00 
59700 6.5309662734e+00 1.6017628301e-04 2.3930161258e+00 -4.1448255132e+00 2.3930161258e+00 4.1448255132e+00 
59800 6.5309662638e+00 1.8131569021e-04 2.3930127791e+00 -4.1448197165e+00 2.3930127791e+00 4.1448197165e+00 
59900 6.5309662515e+00 2.0162684699e-04 2.3930089906e+00 -4.1448131547e+00 2.3930089906e+00 4.1448131547e+00 
60000 6.5309662368e+00 2.2106986834e-04 2.3930047778e+00 -4.1448058579e+00 2.3930047778e+00 4.1448058579e+00 
60100 6.5309662200e+00 2.3960812871e-04 2.3930001587e+00 -4.1447978574e+00 2.3930001587e+00 4.1447978574e+00 
60200 6.5309662015e+00 2.5720829488e-04 2.3929951523e+00 -4.1447891860e+00 2.3929951523e+00 4.1447891860e+00 
60300 6.5309661817e+00 2.7384034899e-04 2.3929897781e+00 -4.1447798776e+00 2.3929897781e+00 4.1447798776e+00 
60400 6.5309661608e+00 2.8947760172e-04 2.3929840564e+00 -4.1447699673e+00 2.3929840564e+00 4.1447699673e+00 
60500 6.5309661393e+00 3.0409669595e-04 2.3929780079e+00 -4.1447594911e+00 2.3929780079e+00 4.1447594911e+00 
60600 6.5309661174e+00 3.1767760092e-04 2.3929716540e+00 -4.1447484857e+00 2.3929716540e+00 4.1447484857e+00 
60700 6.5309660955e+00 3.3020359730e-04 2.3929650163e+00 -4.1447369889e+00 2.3929650163e+00 4.1447369889e+00 
60800 6.5309660738e+00 3.4166125324e-04 2.3929581168e+00 -4.1447250387e+00 2.3929581168e+00 4.1447250387e+00 
60900 6.5309660527e+00 3.5204039174e-04 2.3929509779e+00 -4.1447126738e+00 2.3929509779e+00 4.1447126738e+00 
61000 6.5309660325e+00 3.6133404968e-04 2.3929436221e+00 -4.1446999332e+00 2.3929436221e+00 4.1446999332e+00 
61100 6.5309660133e+00 3.6953842863e-04 2.3929360721e+00 -4.1446868562e+00 2.3929360721e+00 4.1446868562e+00 
61200 6.5309659954e+00 3.7665283801e-04 2.3929283507e+00 -4.1446734823e+00 2.3929283507e+00 4.1446734823e+00 
61300 6.5309659790e+00 3.8267963059e-04 2.3929204806e+00 -4.1446598508e+00 2.3929204806e+00 4.1446598508e+00 
61400 6.5309659643e+00 3.8762413105e-04 2.3929124845e+00 -4.1446460012e+00 2.3929124845e+00 4.1446460012e+00 
61500 6.5309659514e+00 3.9149455768e-04 2.3929043851e+00 -4.1446319726e+00 2.3929043851e+00 4.1446319726e+00 
61600 6.5309659404e+00 3.9430193766e-04 2.3928962048e+00 -4.1446178039e+00 2.3928962048e+00 4.1446178039e+00 
61700 6.5309659315e+00 3.9606001639e-04 2.3928879658e+00 -4.1446035335e+00 2.3928879658e+00 4.1446035335e+00 
61800 6.5309659247e+00 3.9678516109e-04 2.3928796900e+00 -4.1445891995e+00 2.3928796900e+00 4.1445891995e+00 
61900 6.5309659200e+00 3.9649625924e-04 2.3928713990e+00 -4.1445748391e+00 2.3928713990e+00 4.1445748391e+00 
62000 6.5309659174e+00 3.9521461212e-04 2.3928631141e+00 -4.1445604892e+00 2.3928631141e+00 4.1445604892e+00 
62100 6.5309659170e+00 3.9296382392e-04 2.3928548559e+00 -4.1445461856e+00 2.3928548559e+00 4.1445461856e+00 
62200 6.5309659186e+00 3.8976968684e-04 2.3928466447e+00 -4.1445319634e+00 2.3928466447e+00 4.1445319634e+00 
62300 6.5309659223e+00 3.8566006255e-04 2.3928385003e+00 -4.1445178567e+00 2.3928385003e+00 4.1445178567e+00 
62400 6.5309659280e+00 3.8066476043e-04 2.3928304416e+00 -4.1445038988e+00 2.3928304416e+00 4.1445038988e+00 
62500 6.5309659355e+00 3.7481541305e-04 2.3928224874e+00 -4.1444901216e+00 2.3928224874e+00 4.1444901216e+00 
62600 6.5309659447e+00 3.6814534920e-04 2.3928146553e+00 -4.1444765560e+00 2.3928146553e+00 4.1444765560e+00 
62700 6.5309659556e+00 3.6068946502e-04 2.3928069626e+00 -4.1444632319e+00 2.3928069626e+00 4.1444632319e+00 
62800 6.5309659679e+00 3.5248409351e-04 2.3927994256e+00 -4.1444501775e+00 2.3927994256e+00 4.1444501775e+00 
62900 6.5309659816e+00 3.4356687285e-04 2.3927920601e+00 -4.1444374200e+00 2.3927920601e+00 4.1444374200e+00 
63000 6.5309659964e+00 3.3397661398e-04 2.3927848809e+00 -4.1444249853e+00 2.3927848809e+00 4.1444249853e+00 
63100 6.5309660121e+00 3.2375316780e-04 2.3927779021e+00 -4.1444128976e+00 2.3927779021e+00 4.1444128976e+00 
63200 6.5309660287e+00 3.1293729228e-04 2.3927711369e+00 -4.1444011799e+00 2.3927711369e+00 4.1444011799e+00 
63300 6.5309660459e+00 3.0157052001e-04 2.3927645976e+00 -4.1443898537e+00 2.3927645976e+00 4.1443898537e+00 
63400 6.5309660636e+00 2.8969502645e-04 2.3927582959e+00 -4.1443789388e+00 2.3927582959e+00 4.1443789388e+00 
63500 6.5309660816e+00 2.7735349924e-04 2.3927522424e+00 -4.1443684537e+00 2.3927522424e+00 4.1443684537e+00 
63600 6.5309660997e+00 2.6458900897e-04 2.3927464467e+00 -4.1443584152e+00 2.3927464467e+00 4.1443584152e+00 
63700 6.5309661177e+00 2.5144488160e-04 2.3927409177e+00 -4.1443488388e+00 2.3927409177e+00 4.1443488388e+00 
63800 6.5309661355e+00 2.3796457308e-04 2.3927356633e+00 -4.1443397380e+00 2.3927356633e+00 4.1443397380e+00 
63900 6.5309661530e+00 2.2419154620e-04 2.3927306907e+00 -4.1443311251e+00 2.3927306907e+00 4.1443311251e+00 
64000 6.5309661700e+00 2.1016915020e-04 2.3927260059e+00 -4.1443230107e+00 2.3927260059e+00 4.1443230107e+00 
64100 6.5309661864e+00 1.9594050330e-04 2.3927216140e+00 -4.1443154039e+00 2.3927216140e+00 4.1443154039e+00 
64200 6.5309662020e+00 1.8154837833e-04 2.3927175195e+00 -4.1443083120e+00 2.3927175195e+00 4.1443083120e+00 
64300 6.5309662168e+00 1.6703509194e-04 2.3927137257e+00 -4.1443017410e+00 2.3927137257e+00 4.1443017410e+00 
64400 6.5309662306e+00 1.5244239742e-04 2.3927102353e+00 -4.1442956952e+00 2.3927102353e+00 4.1442956952e+00 
64500 6.5309662434e+00 1.3781138140e-04 2.3927070497e+00 -4.1442901777e+00 2.3927070497e+00 4.1442901777e+00 
64600 6.5309662552e+00 1.2318236467e-04 2.3927041699e+00 -4.1442851897e+00 2.3927041699e+00 4.1442851897e+00 
64700 6.5309662658e+00 1.0859480727e-04 2.3927015957e+00 -4.1442807312e+00 2.3927015957e+00 4.1442807312e+00 
64800 6.5309662753e+00 9.4087218038e-05 2.3926993265e+00 -4.1442768007e+00 2.3926993265e+00 4.1442768007e+00 
64900 6.5309662836e+00 7.9697068746e-05 2.3926973603e+00 -4.1442733952e+00 2.3926973603e+00 4.1442733952e+00 
65000 6.5309662906e+00 6.5460712977e-05 2.3926956949e+00 -4.1442705106e+00 2.3926956949e+00 4.1442705106e+00 
65100 6.5309662966e+00 5.2021550683e-05 2.3926956949e+00 -4.1442705106e+00 2.3926956949e+00 4.1442705106e+00 
65200 6.5309663013e+00 3.8682642574e-05 2.3926956949e+00 -4.1442705106e+00 2.3926956949e+00 4.1442705106e+00 
65300 6.5309663048e+00 2.5477414232e-05 2.3926956949e+00 -4.1442705106e+00 2.3926956949e+00 4.1442705106e+00 
65400 6.5309663073e+00 1.2438126993e-05 2.3926956949e+00 -4.1442705106e+00 2.3926956949e+00 4.1442705106e+00 
65500 6.5309663086e+00 -4.0419134287e-07 2.3926956949e+00 -4.1442705106e+00 2.3926956949e+00 4.1442705106e+00 
65600 6.5309663089e+00 -1.3019809560e-05 2.3926956949e+00 -4.1442705106e+00 2.3926956949e+00 4.1442705106e+00 
65700 6.5309663084e+00 -2.5380349864e-05 2.3926956949e+00 -4.1442705106e+00 2.3926956949e+00 4.1442705106e+00 
65800 6.5309663070e+00 -3.7458838625e-05 2.3926956949e+00 -4.1442705106e+00 2.3926956949e+00 4.1442705106e+00 
65900 6.5309663048e+00 -4.9229751119e-05 2.3926956949e+00 -4.1442705106e+00 2.3926956949e+00 4.1442705106e+00 
66000 6.5309663020e+00 -6.0669050338e-05 2.3926956949e+00 -4.1442705106e+00 2.3926956949e+00 4.1442705106e+00 
66100 6.5309662986e+00 -7.1754219999e-05 2.3926956949e+00 -4.1442705106e+00 2.3926956949e+00 4.1442705106e+00 
66200 6.5309662947e+00 -8.1797689409e-05 2.3926971943e+00 -4.1442731077e+00 2.3926971943e+00 4.1442731077e+00 
66300 6.5309662903e+00 -9.1344663437e-05 2.3926989037e+00 -4.1442760684e+00 2.3926989037e+00 4.1442760684e+00 
66400 6.5309662855e+00 -1.0038018474e-04 2.3927008125e+00 -4.1442793745e+00 2.3927008125e+00 4.1442793745e+00 
66500 6.5309662805e+00 -1.0889101037e-04 2.3927029101e+00 -4.1442830077e+00 2.3927029101e+00 4.1442830077e+00 
66600 6.5309662754e+00 -1.1686561178e-04 2.3927051856e+00 -4.1442869490e+00 2.3927051856e+00 4.1442869490e+00 
66700 6.5309662701e+00 -1.2429417006e-04 2.3927076277e+00 -4.1442911789e+00 2.3927076277e+00 4.1442911789e+00 
66800 6.5309662649e+00 -1.3116856648e-04 2.3927102251e+00 -4.1442956776e+00 2.3927102251e+00 4.1442956776e+00 
66900 6.5309662598e+00 -1.3748236860e-04 2.3927129661e+00 -4.1443004252e+00 2.3927129661e+00 4.1443004252e+00 
67000 6.5309662548e+00 -1.4323081193e-04 2.3927158390e+00 -4.1443054013e+00 2.3927158390e+00 4.1443054013e+00 
67100 6.5309662501e+00 -1.4841077740e-04 2.3927188321e+00 -4.1443105854e+00 2.3927188321e+00 4.1443105854e+00 
67200 6.5309662456e+00 -1.5302076474e-04 2.3927219334e+00 -4.1443159570e+00 2.3927219334e+00 4.1443159570e+00 
67300 6.5309662415e+00 -1.5706086198e-04 2.3927251310e+00 -4.1443214955e+00 2.3927251310e+00 4.1443214955e+00 
67400 6.5309662378e+00 -1.6053271120e-04 2.3927284131e+00 -4.1443271801e+00 2.3927284131e+00 4.1443271801e+00 
67500 6.5309662345e+00 -1.6343947070e-04 2.3927317677e+00 -4.1443329905e+00 2.3927317677e+00 4.1443329905e+00 
67600 6.5309662317e+00 -1.6578577386e-04 2.3927351830e+00 -4.1443389060e+00 2.3927351830e+00 4.1443389060e+00 
67700 6.5309662295e+00 -1.6757768471e-04 2.3927386474e+00 -4.1443449064e+00 2.3927386474e+00 4.1443449064e+00 
67800 6.5309662277e+00 -1.6882265063e-04 2.3927421491e+00 -4.1443509717e+00 2.3927421491e+00 4.1443509717e+00 
67900 6.5309662265e+00 -1.6952945216e-04 2.3927456770e+00 -4.1443570821e+00 2.3927456770e+00 4.1443570821e+00 
68000 6.5309662258e+00 -1.6970815023e-04 2.3927492195e+00 -4.1443632180e+00 2.3927492195e+00 4.1443632180e+00 
68100 6.5309662257e+00 -1.6937003105e-04 2.3927527658e+00 -4.1443693604e+00 2.3927527658e+00 4.1443693604e+00 
68200 6.5309662262e+00 -1.6852754873e-04 2.3927563051e+00 -4.1443754905e+00 2.3927563051e+00 4.1443754905e+00 
68300 6.5309662272e+00 -1.6719426597e-04 2.3927598267e+00 -4.1443815901e+00 2.3927598267e+00 4.1443815901e+00 
68400 6.5309662287e+00 -1.6538479295e-04 2.3927633204e+00 -4.1443876415e+00 2.3927633204e+00 4.1443876415e+00 
68500 6.5309662307e+00 -1.6311472466e-04 2.3927667764e+00 -4.1443936273e+00 2.3927667764e+00 4.1443936273e+00 
68600 6.5309662331e+00 -1.6040057687e-04 2.3927701849e+00 -4.1443995310e+00 2.3927701849e+00 4.1443995310e+00 
68700 6.5309662360e+00 -1.5725972092e-04 2.3927735366e+00 -4.1444053365e+00 2.3927735366e+00 4.1444053365e+00 
68800 6.5309662393e+00 -1.5371031754e-04 2.3927768228e+00 -4.1444110282e+00 2.3927768228e+00 4.1444110282e+00 
68900 6.5309662430e+00 -1.4977125004e-04 2.3927800348e+00 -4.1444165915e+00 2.3927800348e+00 4.1444165915e+00 
69000 6.5309662470e+00 -1.4546205678e-04 2.3927831644e+00 -4.1444220122e+00 2.3927831644e+00 4.1444220122e+00 
69100 6.5309662513e+00 -1.4080286342e-04 2.3927862040e+00 -4.1444272770e+00 2.3927862040e+00 4.1444272770e+00 
69200 6.5309662558e+00 -1.3581431494e-04 2.3927891462e+00 -4.1444323731e+00 2.3927891462e+00 4.1444323731e+00 
69300 6.5309662606e+00 -1.3051750773e-04 2.3927919842e+00 -4.1444372886e+00 2.3927919842e+00 4.1444372886e+00 
69400 6.5309662654e+00 -1.2493392191e-04 2.3927947115e+00 -4.1444420125e+00 2.3927947115e+00 4.1444420125e+00 
69500 6.5309662704e+00 -1.1908535399e-04 2.3927973222e+00 -4.1444465342e+00 2.3927973222e+00 4.1444465342e+00 
69600 6.5309662754e+00 -1.1299385023e-04 2.3927998106e+00 -4.1444508443e+00 2.3927998106e+00 4.1444508443e+00 
69700 6.5309662805e+00 -1.0668164057e-04 2.3928021717e+00 -4.1444549339e+00 2.3928021717e+00 4.1444549339e+00 
69800 6.5309662855e+00 -1.0017107370e-04 2.3928044009e+00 -4.1444587950e+00 2.3928044009e+00 4.1444587950e+00 
69900 6.5309662905e+00 -9.3484553005e-05 2.3928064941e+00 -4.1444624205e+00 2.3928064941e+00 4.1444624205e+00 
70000 6.5309662953e+00 -8.6644473859e-05 2.3928084475e+00 -4.1444658039e+00 2.3928084475e+00 4.1444658039e+00 
70100 6.5309663000e+00 -7.9673162272e-05 2.3928102581e+00 -4.1444689398e+00 2.3928102581e+00 4.1444689398e+00 
70200 6.5309663045e+00 -7.2592815020e-05 2.3928119229e+00 -4.1444718234e+00 2.3928119229e+00 4.1444718234e+00 
70300 6.5309663089e+00 -6.5425441482e-05 2.3928134398e+00 -4.1444744508e+00 2.3928134398e+00 4.1444744508e+00 
70400 6.5309663130e+00 -5.8800497428e-05 2.3928134398e+00 -4.1444744508e+00 2.3928134398e+00 4.1444744508e+00 
70500 6.5309663169e+00 -5.2072536537e-05 2.3928134398e+00 -4.1444744508e+00 2.3928134398e+00 4.1444744508e+00 
70600 6.5309663205e+00 -4.5261881572e-05 2.3928134398e+00 -4.1444744508e+00 2.3928134398e+00 4.1444744508e+00 
70700 6.5309663237e+00 -3.8388595419e-05 2.3928134398e+00 -4.1444744508e+00 2.3928134398e+00 4.1444744508e+00 
70800 6.5309663267e+00 -3.1472425965e-05 2.3928134398e+00 -4.1444744508e+00 2.3928134398e+00 4.1444744508e+00 
70900 6.5309663293e+00 -2.4532753883e-05 2.3928134398e+00 -4.1444744508e+00 2.3928134398e+00 4.1444744508e+00 
71000 6.5309663316e+00 -1.7588543345e-05 2.3928134398e+00 -4.1444744508e+00 2.3928134398e+00 4.1444744508e+00 
71100 6.5309663336e+00 -1.0658295679e-05 2.3928134398e+00 -4.1444744508e+00 2.3928134398e+00 4.1444744508e+00 
71200 6.5309663352e+00 -3.7600059735e-06 2.3928134398e+00 -4.1444744508e+00 2.3928134398e+00 4.1444744508e+00 
71300 6.5309663366e+00 3.0888773517e-06 2.3928134398e+00 -4.1444744508e+00 2.3928134398e+00 4.1444744508e+00 
71400 6.5309663377e+00 9.8714899994e-06 2.3928134398e+00 -4.1444744508e+00 2.3928134398e+00 4.1444744508e+00 
71500 6.5309663384e+00 1.6571586319e-05 2.3928134398e+00 -4.1444744508e+00 2.3928134398e+00 4.1444744508e+00 
71600 6.5309663390e+00 2.3173570850e-05 2.3928134398e+00 -4.1444744508e+00 2.3928134398e+00 4.1444744508e+00 
71700 6.5309663393e+00 2.9662526951e-05 2.3928134398e+00 -4.1444744508e+00 2.3928134398e+00 4.1444744508e+00 
71800 6.5309663393e+00 3.6024242493e-05 2.3928134398e+00 -4.1444744508e+00 2.3928134398e+00 4.1444744508e+00 
71900 6.5309663392e+00 4.2245232682e-05 2.3928134398e+00 -4.1444744508e+00 2.3928134398e+00 4.1444744508e+00 
72000 6.5309663389e+00 4.8312760016e-05 2.3928134398e+00 -4.1444744508e+00 2.3928134398e+00 4.1444744508e+00 
72100 6.5309663384e+00 5.4214851420e-05 2.3928134398e+00 -4.1444744508e+00 2.3928134398e+00 4.1444744508e+00 
72200 6.5309663378e+00 5.9940312602e-05 2.3928134398e+00 -4.1444744508e+00 2.3928134398e+00 4.1444744508e+00 
72300 6.5309663371e+00 6.5478739682e-05 2.3928134398e+00 -4.1444744508e+00 2.3928134398e+00 4.1444744508e+00 
72400 6.5309663363e+00 7.0820528143e-05 2.3928134398e+00 -4.1444744508e+00 2.3928134398e+00 4.1444744508e+00 
72500 6.5309663354e+00 7.5298959799e-05 2.3928119599e+00 -4.1444718876e+00 2.3928119599e+00 4.1444718876e+00 
72600 6.5309663344e+00 7.9513748397e-05 2.3928103865e+00 -4.1444691623e+00 2.3928103865e+00 4.1444691623e+00 
72700 6.5309663333e+00 8.3459086476e-05 2.3928087250e+00 -4.1444662845e+00 2.3928087250e+00 4.1444662845e+00 
72800 6.5309663322e+00 8.7130022914e-05 2.3928069810e+00 -4.1444632639e+00 2.3928069810e+00 4.1444632639e+00 
72900 6.5309663311e+00 9.0522459085e-05 2.3928051604e+00 -4.1444601104e+00 2.3928051604e+00 4.1444601104e+00 
73000 6.5309663301e+00 9.3633142621e-05 2.3928032688e+00 -4.1444568341e+00 2.3928032688e+00 4.1444568341e+00 
73100 6.5309663291e+00 9.6459658839e-05 2.3928013123e+00 -4.1444534452e+00 2.3928013123e+00 4.1444534452e+00 
73200 6.5309663281e+00 9.9000419962e-05 2.3927992966e+00 -4.1444499541e+00 2.3927992966e+00 4.1444499541e+00 
73300 6.5309663272e+00 1.0125465220e-04 2.3927972279e+00 -4.1444463710e+00 2.3927972279e+00 4.1444463710e+00 
73400 6.5309663265e+00 1.0322238073e-04 2.3927951121e+00 -4.1444427063e+00 2.3927951121e+00 4.1444427063e+00 
73500 6.5309663258e+00 1.0490441283e-04 2.3927929552e+00 -4.1444389703e+00 2.3927929552e+00 4.1444389703e+00 
73600 6.5309663252e+00 1.0630231901e-04 2.3927907631e+00 -4.1444351735e+00 2.3927907631e+00 4.1444351735e+00 
73700 6.5309663247e+00 1.0741841251e-04 2.3927885418e+00 -4.1444313261e+00 2.3927885418e+00 4.1444313261e+00 
73800 6.5309663244e+00 1.0825572705e-04 2.3927862971e+00 -4.1444274383e+00 2.3927862971e+00 4.1444274383e+00 
73900 6.5309663242e+00 1.0881799310e-04 2.3927840350e+00 -4.1444235202e+00 2.3927840350e+00 4.1444235202e+00 
74000 6.5309663241e+00 1.0910961260e-04 2.3927817611e+00 -4.1444195817e+00 2.3927817611e+00 4.1444195817e+00 
74100 6.5309663242e+00 1.0913563247e-04 2.3927794812e+00 -4.1444156327e+00 2.3927794812e+00 4.1444156327e+00 
74200 6.5309663244e+00 1.0890171673e-04 2.3927772006e+00 -4.1444116827e+00 2.3927772006e+00 4.1444116827e+00 
74300 6.5309663248e+00 1.0841411763e-04 2.3927749250e+00 -4.1444077412e+00 2.3927749250e+00 4.1444077412e+00 
74400 6.5309663253e+00 1.0767964564e-04 2.3927726596e+00 -4.1444038173e+00 2.3927726596e+00 4.1444038173e+00 
74500 6.5309663259e+00 1.0670563862e-04 2.3927704095e+00 -4.1443999200e+00 2.3927704095e+00 4.1443999200e+00 
74600 6.5309663266e+00 1.0549993015e-04 2.3927681797e+00 -4.1443960580e+00 2.3927681797e+00 4.1443960580e+00 
74700 6.5309663274e+00 1.0407081712e-04 2.3927659751e+00 -4.1443922396e+00 2.3927659751e+00 4.1443922396e+00 
74800 6.5309663284e+00 1.0242702680e-04 2.3927638004e+00 -4.1443884729e+00 2.3927638004e+00 4.1443884729e+00 
74900 6.5309663295e+00 1.0057768338e-04 2.3927616601e+00 -4.1443847657e+00 2.3927616601e+00 4.1443847657e+00 
75000 6.5309663306e+00 9.8532274177e-05 2.3927595584e+00 -4.1443811254e+00 2.3927595584e+00 4.1443811254e+00 
75100 6.5309663318e+00 9.6300615483e-05 2.3927574994e+00 -4.1443775592e+00 2.3927574994e+00 4.1443775592e+00 
75200 6.5309663331e+00 9.3892818355e-05 2.3927554871e+00 -4.1443740737e+00 2.3927554871e+00 4.1443740737e+00 
75300 6.5309663345e+00 9.1319254229e-05 2.3927535251e+00 -4.1443706754e+00 2.3927535251e+00 4.1443706754e+00 
75400 6.5309663358e+00 8.8590520622e-05 2.3927516168e+00 -4.1443673702e+00 2.3927516168e+00 4.1443673702e+00 
75500 6.5309663373e+00 8.5717406932e-05 2.3927497656e+00 -4.1443641638e+00 2.3927497656e+00 4.1443641638e+00 
75600 6.5309663387e+00 8.2710860459e-05 2.3927479744e+00 -4.1443610614e+00 2.3927479744e+00 4.1443610614e+00 
75700 6.5309663402e+00 7.9581952723e-05 2.3927462460e+00 -4.1443580678e+00 2.3927462460e+00 4.1443580678e+00 
75800 6.5309663416e+00 7.6341846180e-05 2.3927445831e+00 -4.1443551874e+00 2.3927445831e+00 4.1443551874e+00 
75900 6.5309663430e+00 7.3001761411e-05 2.3927429878e+00 -4.1443524243e+00 2.3927429878e+00 4.1443524243e+00 
76000 6.5309663445e+00 6.9572944877e-05 2.3927414623e+00 -4.1443497821e+00 2.3927414623e+00 4.1443497821e+00 
76100 6.5309663459e+00 6.6713056752e-05 2.3927414623e+00 -4.1443497821e+00 2.3927414623e+00 4.1443497821e+00 
76200 6.5309663473e+00 6.3762750710e-05 2.3927414623e+00 -4.1443497821e+00 2.3927414623e+00 4.1443497821e+00 
76300 6.5309663487e+00 6.0732646510e-05 2.3927414623e+00 -4.1443497821e+00 2.3927414623e+00 4.1443497821e+00 
76400 6.5309663499e+00 5.7633342478e-05 2.3927414623e+00 -4.1443497821e+00 2.3927414623e+00 4.1443497821e+00 
76500 6.5309663511e+00 5.4475381670e-05 2.3927414623e+00 -4.1443497821e+00 2.3927414623e+00 4.1443497821e+00 
76600 6.5309663522e+00 5.1269219506e-05 2.3927414623e+00 -4.1443497821e+00 2.3927414623e+00 4.1443497821e+00 
76700 6.5309663533e+00 4.8025192920e-05 2.3927414623e+00 -4.1443497821e+00 2.3927414623e+00 4.1443497821e+00 
76800 6.5309663542e+00 4.4753491006e-05 2.3927414623e+00 -4.1443497821e+00 2.3927414623e+00 4.1443497821e+00 
76900 6.5309663551e+00 4.1464127185e-05 2.3927414623e+00 -4.1443497821e+00 2.3927414623e+00 4.1443497821e+00 
77000 6.5309663558e+00 3.8166912927e-05 2.3927414623e+00 -4.1443497821e+00 2.3927414623e+00 4.1443497821e+00 
77100 6.5309663565e+00 3.4871432974e-05 2.3927414623e+00 -4.1443497821e+00 2.3927414623e+00 4.1443497821e+00 
77200 6.5309663571e+00 3.1587022149e-05 2.3927414623e+00 -4.1443497821e+00 2.3927414623e+00 4.1443497821e+00 
77300 6.5309663576e+00 2.8322743679e-05 2.3927414623e+00 -4.1443497821e+00 2.3927414623e+00 4.1443497821e+00 
77400 6.5309663580e+00 2.5087369088e-05 2.3927414623e+00 -4.1443497821e+00 2.3927414623e+00 4.1443497821e+00 
77500 6.5309663584e+00 2.1889359624e-05 2.3927414623e+00 -4.1443497821e+00 2.3927414623e+00 4.1443497821e+00 
77600 6.5309663586e+00 1.8736849245e-05 2.3927414623e+00 -4.1443497821e+00 2.3927414623e+00 4.1443497821e+00 
77700 6.5309663588e+00 1.5637629109e-05 2.3927414623e+00 -4.1443497821e+00 2.3927414623e+00 4.1443497821e+00 
77800 6.5309663590e+00 1.2599133611e-05 2.3927414623e+00 -4.1443497821e+00 2.3927414623e+00 4.1443497821e+00 
77900 6.5309663591e+00 9.6284279400e-06 2.3927414623e+00 -4.1443497821e+00 2.3927414623e+00 4.1443497821e+00 
78000 6.5309663591e+00 6.7321970794e-06 2.3927414623e+00 -4.1443497821e+00 2.3927414623e+00 4.1443497821e+00 
78100 6.5309663591e+00 3.9167363493e-06 2.3927414623e+00 -4.1443497821e+00 2.3927414623e+00 4.1443497821e+00 
78200 6.5309663590e+00 1.1879433447e-06 2.3927414623e+00 -4.1443497821e+00 2.3927414623e+00 4.1443497821e+00 
78300 6.5309663589e+00 -1.4486886619e-06 2.3927414623e+00 -4.1443497821e+00 2.3927414623e+00 4.1443497821e+00 
78400 6.5309663588e+00 -3.9880759326e-06 2.3927414623e+00 -4.1443497821e+00 2.3927414623e+00 4.1443497821e+00 
78500 6.5309663587e+00 -6.4255481083e-06 2.3927414623e+00 -4.1443497821e+00 2.3927414623e+00 4.1443497821e+00 
78600 6.5309663585e+00 -8.7568507027e-06 2.3927414623e+00 -4.1443497821e+00 2.3927414623e+00 4.1443497821e+00 
78700 6.5309663584e+00 -1.0978146303e-05 2.3927414623e+00 -4.1443497821e+00 2.3927414623e+00 4.1443497821e+00 
78800 6.5309663582e+00 -1.3086014488e-05 2.3927414623e+00 -4.1443497821e+00 2.3927414623e+00 4.1443497821e+00 
78900 6.5309663581e+00 -1.5077450539e-05 2.3927414623e+00 -4.1443497821e+00 2.3927414623e+00 4.1443497821e+00 
79000 6.5309663579e+00 -1.6949862954e-05 2.3927414623e+00 -4.1443497821e+00 2.3927414623e+00 4.1443497821e+00 
79100 6.5309663578e+00 -1.8701069805e-05 2.3927414623e+00 -4.1443497821e+00 2.3927414623e+00 4.1443497821e+00 
79200 6.5309663577e+00 -2.0329294026e-05 2.3927414623e+00 -4.1443497821e+00 2.3927414623e+00 4.1443497821e+00 
79300 6.5309663576e+00 -2.1833157617e-05 2.3927414623e+00 -4.1443497821e+00 2.3927414623e+00 4.1443497821e+00 
79400 6.5309663575e+00 -2.3211674861e-05 2.3927414623e+00 -4.1443497821e+00 2.3927414623e+00 4.1443497821e+00 
79500 6.5309663575e+00 -2.4464244594e-05 2.3927414623e+00 -4.1443497821e+00 2.3927414623e+00 4.1443497821e+00 
79600 6.5309663574e+00 -2.5590641529e-05 2.3927414623e+00 -4.1443497821e+00 2.3927414623e+00 4.1443497821e+00 
79700 6.5309663574e+00 -2.6591006785e-05 2.3927414623e+00 -4.1443497821e+00 2.3927414623e+00 4.1443497821e+00 
79800 6.5309663575e+00 -2.7465837563e-05 2.3927414623e+00 -4.1443497821e+00 2.3927414623e+00 4.1443497821e+00 
79900 6.5309663576e+00 -2.8215976099e-05 2.3927414623e+00 -4.1443497821e+00 2.3927414623e+00 4.1443497821e+00 
80000 6.5309663577e+00 -2.8842597916e-05 2.3927414623e+00 -4.1443497821e+00 2.3927414623e+00 4.1443497821e+00 
80100 6.5309663578e+00 -2.9347199434e-05 2.3927414623e+00 -4.1443497821e+00 2.3927414623e+00 4.1443497821e+00 
80200 6.5309663580e+00 -2.9731584979e-05 2.3927414623e+00 -4.1443497821e+00 2.3927414623e+00 4.1443497821e+00 
80300 6.5309663582e+00 -2.9997853289e-05 2.3927414623e+00 -4.1443497821e+00 2.3927414623e+00 4.1443497821e+00 
80400 6.5309663584e+00 -3.0148383502e-05 2.3927414623e+00 -4.1443497821e+00 2.3927414623e+00 4.1443497821e+00 
80500 6.5309663587e+00 -3.0185820756e-05 2.3927414623e+00 -4.1443497821e+00 2.3927414623e+00 4.1443497821e+00 
80600 6.5309663589e+00 -3.0113061379e-05 2.3927414623e+00 -4.1443497821e+00 2.3927414623e+00 4.1443497821e+00 
80700 6.5309663593e+00 -2.9933237793e-05 2.3927414623e+00 -4.1443497821e+00 2.3927414623e+00 4.1443497821e+00 
80800 6.5309663596e+00 -2.9649703122e-05 2.3927414623e+00 -4.1443497821e+00 2.3927414623e+00 4.1443497821e+00 
80900 6.5309663599e+00 -2.9266015611e-05 2.3927414623e+00 -4.1443497821e+00 2.3927414623e+00 4.1443497821e+00 
81000 6.5309663603e+00 -2.8785922858e-05 2.3927414623e+00 -4.1443497821e+00 2.3927414623e+00 4.1443497821e+00 
81100 6.5309663607e+00 -2.8213345946e-05 2.3927414623e+00 -4.1443497821e+00 2.3927414623e+00 4.1443497821e+00 
81200 6.5309663611e+00 -2.7552363504e-05 2.3927414623e+00 -4.1443497821e+00 2.3927414623e+00 4.1443497821e+00 
81300 6.5309663615e+00 -2.6807195746e-05 2.3927414623e+00 -4.1443497821e+00 2.3927414623e+00 4.1443497821e+00 
81400 6.5309663619e+00 -2.5982188547e-05 2.3927414623e+00 -4.1443497821e+00 2.3927414623e+00 4.1443497821e+00 
81500 6.5309663623e+00 -2.5081797585e-05 2.3927414623e+00 -4.1443497821e+00 2.3927414623e+00 4.1443497821e+00 
81600 6.5309663627e+00 -2.4110572603e-05 2.3927414623e+00 -4.1443497821e+00 2.3927414623e+00 4.1443497821e+00 
81700 6.5309663632e+00 -2.3073141823e-05 2.3927414623e+00 -4.1443497821e+00 2.3927414623e+00 4.1443497821e+00 
81800 6.5309663636e+00 -2.1974196573e-05 2.3927414623e+00 -4.1443497821e+00 2.3927414623e+00 4.1443497821e+00 
81900 6.5309663640e+00 -2.0818476136e-05 2.3927414623e+00 -4.1443497821e+00 2.3927414623e+00 4.1443497821e+00 
82000 6.5309663644e+00 -1.9610752884e-05 2.3927414623e+00 -4.1443497821e+00 2.3927414623e+00 4.1443497821e+00 
82100 6.5309663648e+00 -1.8355817714e-05 2.3927414623e+00 -4.1443497821e+00 2.3927414623e+00 4.1443497821e+00 
82200 6.5309663652e+00 -1.7058465842e-05 2.3927414623e+00 -4.1443497821e+00 2.3927414623e+00 4.1443497821e+00 
82300 6.5309663655e+00 -1.5723482940e-05 2.3927414623e+00 -4.1443497821e+00 2.3927414623e+00 4.1443497821e+00 
82400 6.5309663659e+00 -1.4355631722e-05 2.3927414623e+00 -4.1443497821e+00 2.3927414623e+00 4.1443497821e+00 
82500 6.5309663662e+00 -1.2959638923e-05 2.3927414623e+00 -4.1443497821e+00 2.3927414623e+00 4.1443497821e+00 
82600 6.5309663665e+00 -1.1540182742e-05 2.3927414623e+00 -4.1443497821e+00 2.3927414623e+00 4.1443497821e+00 
82700 6.5309663668e+00 -1.0101880785e-05 2.3927414623e+00 -4.1443497821e+00 2.3927414623e+00 4.1443497821e+00 
82800 6.5309663671e+00 -8.6492784932e-06 2.3927414623e+00 -4.1443497821e+00 2.3927414623e+00 4.1443497821e+00 
82900 6.5309663674e+00 -7.1868380876e-06 2.3927414623e+00 -4.1443497821e+00 2.3927414623e+00 4.1443497821e+00 
83000 6.5309663676e+00 -5.7189280680e-06 2.3927414623e+00 -4.1443497821e+00 2.3927414623e+00 4.1443497821e+00 
83100 6.5309663679e+00 -4.2498132581e-06 2.3927414623e+00 -4.1443497821e+00 2.3927414623e+00 4.1443497821e+00 
83200 6.5309663681e+00 -2.7836454123e-06 2.3927414623e+00 -4.1443497821e+00 2.3927414623e+00 4.1443497821e+00 
83300 6.5309663683e+00 -1.3244544139e-06 2.3927414623e+00 -4.1443497821e+00 2.3927414623e+00 4.1443497821e+00 
83400 6.5309663685e+00 1.2385994622e-07 2.3927414623e+00 -4.1443497821e+00 2.3927414623e+00 4.1443497821e+00 
83500 6.5309663686e+00 1.5575356027e-06 2.3927414623e+00 -4.1443497821e+00 2.3927414623e+00 4.1443497821e+00 
83600 6.5309663688e+00 2.9729552227e-06 2.3927414623e+00 -4.1443497821e+00 2.3927414623e+00 4.1443497821e+00 
83700 6.5309663689e+00 4.3666526360e-06 2.3927414623e+00 -4.1443497821e+00 2.3927414623e+00 4.1443497821e+00 
83800 6.5309663690e+00 5.7353186360e-06 2.3927414623e+00 -4.1443497821e+00 2.3927414623e+00 4.1443497821e+00 
83900 6.5309663691e+00 7.0758061936e-06 2.3927414623e+00 -4.1443497821e+00 2.3927414623e+00 4.1443497821e+00 
84000 6.5309663692e+00 8.3851350415e-06 2.3927414623e+00 -4.1443497821e+00 2.3927414623e+00 4.1443497821e+00 
84100 6.5309663693e+00 9.6604956801e-06 2.3927414623e+00 -4.1443497821e+00 2.3927414623e+00 4.1443497821e+00 
84200 6.5309663694e+00 1.0899252771e-05 2.3927414623e+00 -4.1443497821e+00 2.3927414623e+00 4.1443497821e+00 
84300 6.5309663694e+00 1.2098947937e-05 2.3927414623e+00 -4.1443497821e+00 2.3927414623e+00 4.1443497821e+00 
84400 6.5309663695e+00 1.3257301999e-05 2.3927414623e+00 -4.1443497821e+00 2.3927414623e+00 4.1443497821e+00 
84500 6.5309663695e+00 1.4372216611e-05 2.3927414623e+00 -4.1443497821e+00 2.3927414623e+00 4.1443497821e+00 
84600 6.5309663696e+00 1.5441775359e-05 2.3927414623e+00 -4.1443497821e+00 2.3927414623e+00 4.1443497821e+00 
84700 6.5309663696e+00 1.6464244297e-05 2.3927414623e+00 -4.1443497821e+00 2.3927414623e+00 4.1443497821e+00 
84800 6.5309663697e+00 1.7438071940e-05 2.3927414623e+00 -4.1443497821e+00 2.3927414623e+00 4.1443497821e+00 
84900 6.5309663697e+00 1.8361888750e-05 2.3927414623e+00 -4.1443497821e+00 2.3927414623e+00 4.1443497821e+00 
85000 6.5309663698e+00 1.9234506101e-05 2.3927414623e+00 -4.1443497821e+00 2.3927414623e+00 4.1443497821e+00 
85100 6.5309663698e+00 2.0054914765e-05 2.3927414623e+00 -4.1443497821e+00 2.3927414623e+00 4.1443497821e+00 
85200 6.5309663699e+00 2.0822282917e-05 2.3927414623e+00 -4.1443497821e+00 2.3927414623e+00 4.1443497821e+00 
85300 6.5309663699e+00 2.1535953688e-05 2.3927414623e+00 -4.1443497821e+00 2.3927414623e+00 4.1443497821e+00 
85400 6.5309663700e+00 2.2195442294e-05 2.3927414623e+00 -4.1443497821e+00 2.3927414623e+00 4.1443497821e+00 
85500 6.5309663700e+00 2.2800432731e-05 2.3927414623e+00 -4.1443497821e+00 2.3927414623e+00 4.1443497821e+00 
85600 6.5309663701e+00 2.3350774094e-05 2.3927414623e+00 -4.1443497821e+00 2.3927414623e+00 4.1443497821e+00 
85700 6.5309663701e+00 2.3846476513e-05 2.3927414623e+00 -4.1443497821e+00 2.3927414623e+00 4.1443497821e+00 
85800 6.5309663702e+00 2.4287706745e-05 2.3927414623e+00 -4.1443497821e+00 2.3927414623e+00 4.1443497821e+00 
85900 6.5309663703e+00 2.4674783427e-05 2.3927414623e+00 -4.1443497821e+00 2.3927414623e+00 4.1443497821e+00 
86000 6.5309663704e+00 2.5008172036e-05 2.3927414623e+00 -4.1443497821e+00 2.3927414623e+00 4.1443497821e+00 
86100 6.5309663705e+00 2.5288479561e-05 2.3927414623e+00 -4.1443497821e+00 2.3927414623e+00 4.1443497821e+00 
86200 6.5309663706e+00 2.5516448898e-05 2.3927414623e+00 -4.1443497821e+00 2.3927414623e+00 4.1443497821e+00 
86300 6.5309663706e+00 2.5692953047e-05 2.3927414623e+00 -4.1443497821e+00 2.3927414623e+00 4.1443497821e+00 
86400 6.5309663708e+00 2.5818989041e-05 2.3927414623e+00 -4.1443497821e+00 2.3927414623e+00 4.1443497821e+00 
86500 6.5309663709e+00 2.5895671740e-05 2.3927414623e+00 -4.1443497821e+00 2.3927414623e+00 4.1443497821e+00 
86600 6.5309663710e+00 2.5924227408e-05 2.3927414623e+00 -4.1443497821e+00 2.3927414623e+00 4.1443497821e+00 
86700 6.5309663711e+00 2.5905987180e-05 2.3927414623e+00 -4.1443497821e+00 2.3927414623e+00 4.1443497821e+00 
86800 6.5309663712e+00 2.5842380380e-05 2.3927414623e+00 -4.1443497821e+00 2.3927414623e+00 4.1443497821e+00 
86900 6.5309663713e+00 2.5734927764e-05 2.3927414623e+00 -4.1443497821e+00 2.3927414623e+00 4.1443497821e+00 
87000 6.5309663715e+00 2.5585234658e-05 2.3927414623e+00 -4.1443497821e+00 2.3927414623e+00 4.1443497821e+00 
87100 6.5309663716e+00 2.5394984071e-05 2.3927414623e+00 -4.1443497821e+00 2.3927414623e+00 4.1443497821e+00 
87200 6.5309663717e+00 2.5165929739e-05 2.3927414623e+00 -4.1443497821e+00 2.3927414623e+00 4.1443497821e+00 
87300 6.5309663718e+00 2.4899889183e-05 2.3927414623e+00 -4.1443497821e+00 2.3927414623e+00 4.1443497821e+00 
87400 6.5309663720e+00 2.4598736750e-05 2.3927414623e+00 -4.1443497821e+00 2.3927414623e+00 4.1443497821e+00 
87500 6.5309663721e+00 2.4264396699e-05 2.3927414623e+00 -4.1443497821e+00 2.3927414623e+00 4.1443497821e+00 
87600 6.5309663722e+00 2.3898836320e-05 2.3927414623e+00 -4.1443497821e+00 2.3927414623e+00 4.1443497821e+00 
87700 6.5309663724e+00 2.3504059119e-05 2.3927414623e+00 -4.1443497821e+00 2.3927414623e+00 4.1443497821e+00 
87800 6.5309663725e+00 2.3082098087e-05 2.3927414623e+00 -4.1443497821e+00 2.3927414623e+00 4.1443497821e+00 
87900 6.5309663726e+00 2.2635009061e-05 2.3927414623e+00 -4.1443497821e+00 2.3927414623e+00 4.1443497821e+00 
88000 6.5309663728e+00 2.2164864208e-05 2.3927414623e+00 -4.1443497821e+00 2.3927414623e+00 4.1443497821e+00 
88100 6.5309663729e+00 2.1673745631e-05 2.3927414623e+00 -4.1443497821e+00 2.3927414623e+00 4.1443497821e+00 
88200 6.5309663730e+00 2.1163739119e-05 2.3927414623e+00 -4.1443497821e+00 2.3927414623e+00 4.1443497821e+00 
88300 6.5309663731e+00 2.0636928070e-05 2.3927414623e+00 -4.1443497821e+00 2.3927414623e+00 4.1443497821e+00 
88400 6.5309663733e+00 2.0095387564e-05 2.3927414623e+00 -4.1443497821e+00 2.3927414623e+00 4.1443497821e+00 
88500 6.5309663734e+00 1.9541178631e-05 2.3927414623e+00 -4.1443497821e+00 2.3927414623e+00 4.1443497821e+00 
88600 6.5309663735e+00 1.8976342728e-05 2.3927414623e+00 -4.1443497821e+00 2.3927414623e+00 4.1443497821e+00 
88700 6.5309663736e+00 1.8402896391e-05 2.3927414623e+00 -4.1443497821e+00 2.3927414623e+00 4.1443497821e+00 
88800 6.5309663737e+00 1.7822826134e-05 2.3927414623e+00 -4.1443497821e+00 2.3927414623e+00 4.1443497821e+00 
88900 6.5309663738e+00 1.7238083552e-05 2.3927414623e+00 -4.1443497821e+00 2.3927414623e+00 4.1443497821e+00 
89000 6.5309663739e+00 1.6650580659e-05 2.3927414623e+00 -4.1443497821e+00 2.3927414623e+00 4.1443497821e+00 
89100 6.5309663740e+00 1.6062185477e-05 2.3927414623e+00 -4.1443497821e+00 2.3927414623e+00 4.1443497821e+00 
89200 6.5309663741e+00 1.5474717866e-05 2.3927414623e+00 -4.1443497821e+00 2.3927414623e+00 4.1443497821e+00 
89300 6.5309663741e+00 1.4889945586e-05 2.3927414623e+00 -4.1443497821e+00 2.3927414623e+00 4.1443497821e+00 
89400 6.5309663742e+00 1.4309580643e-05 2.3927414623e+00 -4.1443497821e+00 2.3927414623e+00 4.1443497821e+00 
89500 6.5309663743e+00 1.3735275879e-05 2.3927414623e+00 -4.1443497821e+00 2.3927414623e+00 4.1443497821e+00 
89600 6.5309663744e+00 1.3168621820e-05 2.3927414623e+00 -4.1443497821e+00 2.3927414623e+00 4.1443497821e+00 
89700 6.5309663744e+00 1.2611143790e-05 2.3927414623e+00 -4.1443497821e+00 2.3927414623e+00 4.1443497821e+00 
89800 6.5309663745e+00 1.2064299310e-05 2.3927414623e+00 -4.1443497821e+00 2.3927414623e+00 4.1443497821e+00 
89900 6.5309663746e+00 1.1529475720e-05 2.3927414623e+00 -4.1443497821e+00 2.3927414623e+00 4.1443497821e+00 
90000 6.5309663746e+00 1.1007988107e-05 2.3927414623e+00 -4.1443497821e+00 2.3927414623e+00 4.1443497821e+00 
90100 6.5309663747e+00 1.0501077470e-05 2.3927414623e+00 -4.1443497821e+00 2.3927414623e+00 4.1443497821e+00 
90200 6.5309663747e+00 1.0009909162e-05 2.3927414623e+00 -4.1443497821e+00 2.3927414623e+00 4.1443497821e+00 
90300 6.5309663748e+00 9.5355715772e-06 2.3927414623e+00 -4.1443497821e+00 2.3927414623e+00 4.1443497821e+00 
90400 6.5309663748e+00 9.0790750999e-06 2.3927414623e+00 -4.1443497821e+00 2.3927414623e+00 4.1443497821e+00 
90500 6.5309663749e+00 8.6413513144e-06 2.3927414623e+00 -4.1443497821e+00 2.3927414623e+00 4.1443497821e+00 
90600 6.5309663749e+00 8.2232524475e-06 2.3927414623e+00 -4.1443497821e+00 2.3927414623e+00 4.1443497821e+00 
90700 6.5309663750e+00 7.8255510558e-06 2.3927414623e+00 -4.1443497821e+00 2.3927414623e+00 4.1443497821e+00 
90800 6.5309663750e+00 7.4489399569e-06 2.3927414623e+00 -4.1443497821e+00 2.3927414623e+00 4.1443497821e+00 
90900 6.5309663751e+00 7.0940323853e-06 2.3927414623e+00 -4.1443497821e+00 2.3927414623e+00 4.1443497821e+00 
91000 6.5309663751e+00 6.7613623735e-06 2.3927414623e+00 -4.1443497821e+00 2.3927414623e+00 4.1443497821e+00 
91100 6.5309663751e+00 6.4513853414e-06 2.3927414623e+00 -4.1443497821e+00 2.3927414623e+00 4.1443497821e+00 
91200 6.5309663752e+00 6.1644789109e-06 2.3927414623e+00 -4.1443497821e+00 2.3927414623e+00 4.1443497821e+00 
91300 6.5309663752e+00 5.9009439073e-06 2.3927414623e+00 -4.1443497821e+00 2.3927414623e+00 4.1443497821e+00 
91400 6.5309663753e+00 5.6610055670e-06 2.3927414623e+00 -4.1443497821e+00 2.3927414623e+00 4.1443497821e+00 
91500 6.5309663753e+00 5.4448149031e-06 2.3927414623e+00 -4.1443497821e+00 2.3927414623e+00 4.1443497821e+00 
91600 6.5309663754e+00 5.2524502738e-06 2.3927414623e+00 -4.1443497821e+00 2.3927414623e+00 4.1443497821e+00 
91700 6.5309663754e+00 5.0839191095e-06 2.3927414623e+00 -4.1443497821e+00 2.3927414623e+00 4.1443497821e+00 
91800 6.5309663754e+00 4.9391597893e-06 2.3927414623e+00 -4.1443497821e+00 2.3927414623e+00 4.1443497821e+00 
91900 6.5309663755e+00 4.8180436643e-06 2.3927414623e+00 -4.1443497821e+00 2.3927414623e+00 4.1443497821e+00 
92000 6.5309663755e+00 4.7203772252e-06 2.3927414623e+00 -4.1443497821e+00 2.3927414623e+00 4.1443497821e+00 
92100 6.5309663756e+00 4.6459043979e-06 2.3927414623e+00 -4.1443497821e+00 2.3927414623e+00 4.1443497821e+00 
92200 6.5309663756e+00 4.5943089409e-06 2.3927414623e+00 -4.1443497821e+00 2.3927414623e+00 4.1443497821e+00 
92300 6.5309663757e+00 4.5652169764e-06 2.3927414623e+00 -4.1443497821e+00 2.3927414623e+00 4.1443497821e+00 
92400 6.5309663757e+00 4.5581995913e-06 2.3927414623e+00 -4.1443497821e+00 2.3927414623e+00 4.1443497821e+00 
92500 6.5309663758e+00 4.5727755376e-06 2.3927414623e+00 -4.1443497821e+00 2.3927414623e+00 4.1443497821e+00 
92600 6.5309663758e+00 4.6084140186e-06 2.3927414623e+00 -4.1443497821e+00 2.3927414623e+00 4.1443497821e+00 
92700 6.5309663759e+00 4.6645375259e-06 2.3927414623e+00 -4.1443497821e+00 2.3927414623e+00 4.1443497821e+00 
92800 6.5309663759e+00 4.7405247420e-06 2.3927414623e+00 -4.1443497821e+00 2.3927414623e+00 4.1443497821e+00 
92900 6.5309663760e+00 4.8357134891e-06 2.3927414623e+00 -4.1443497821e+00 2.3927414623e+00 4.1443497821e+00 
93000 6.5309663760e+00 4.9494037154e-06 2.3927414623e+00 -4.1443497821e+00 2.3927414623e+00 4.1443497821e+00 
93100 6.5309663761e+00 5.0808605067e-06 2.3927414623e+00 -4.1443497821e+00 2.3927414623e+00 4.1443497821e+00 
93200 6.5309663761e+00 5.2293171255e-06 2.3927414623e+00 -4.1443497821e+00 2.3927414623e+00 4.1443497821e+00 
93300 6.5309663762e+00 5.3939780448e-06 2.3927414623e+00 -4.1443497821e+00 2.3927414623e+00 4.1443497821e+00 
93400 6.5309663762e+00 5.5740219985e-06 2.3927414623e+00 -4.1443497821e+00 2.3927414623e+00 4.1443497821e+00 
93500 6.5309663763e+00 5.7686050081e-06 2.3927414623e+00 -4.1443497821e+00 2.3927414623e+00 4.1443497821e+00 
93600 6.5309663763e+00 5.9768634092e-06 2.3927414623e+00 -4.1443497821e+00 2.3927414623e+00 4.1443497821e+00 
93700 6.5309663764e+00 6.1979168377e-06 2.3927414623e+00 -4.1443497821e+00 2.3927414623e+00 4.1443497821e+00 
93800 6.5309663764e+00 6.4308711950e-06 2.3927414623e+00 -4.1443497821e+00 2.3927414623e+00 4.1443497821e+00 
93900 6.5309663765e+00 6.6748215652e-06 2.3927414623e+00 -4.1443497821e+00 2.3927414623e+00 4.1443497821e+00 
94000 6.5309663765e+00 6.9288550927e-06 2.3927414623e+00 -4.1443497821e+00 2.3927414623e+00 4.1443497821e+00 
94100 6.5309663766e+00 7.1920537922e-06 2.3927414623e+00 -4.1443497821e+00 2.3927414623e+00 4.1443497821e+00 
94200 6.5309663766e+00 7.4634973221e-06 2.3927414623e+00 -4.1443497821e+00 2.3927414623e+00 4.1443497821e+00 
94300 6.5309663767e+00 7.7422656554e-06 2.3927414623e+00 -4.1443497821e+00 2.3927414623e+00 4.1443497821e+00 
94400 6.5309663767e+00 8.0274417116e-06 2.3927414623e+00 -4.1443497821e+00 2.3927414623e+00 4.1443497821e+00 
94500 6.5309663768e+00 8.3181138907e-06 2.3927414623e+00 -4.1443497821e+00 2.3927414623e+00 4.1443497821e+00 
94600 6.5309663768e+00 8.5717984798e-06 2.3927414623e+00 -4.1443497821e+00 2.3927414623e+00 4.1443497821e+00 
94600 6.5309663768e+00 8.5717984796e-06 2.3927414623e+00 -4.1443497821e+00 2.3927414623e+00 4.1443497821e+00 
