# step Hamiltonian StressXX CellTensor1 CellTensor2 CellTensor3 CellTensor4 
0 5.2806547267e+00 9.0127681111e-02 1.7438352029e+00 -3.0204111715e+00 1.7438352029e+00 3.0204111715e+00 
100 5.2745259381e+00 9.0744525771e-02 1.7438352029e+00 -3.0204111715e+00 1.7438352029e+00 3.0204111715e+00 
200 5.2683681282e+00 8.9460063482e-02 1.7412339845e+00 -3.0159057290e+00 1.7412339845e+00 3.0159057290e+00 
300 5.2624405540e+00 8.8258464433e-02 1.7386657474e+00 -3.0114574118e+00 1.7386657474e+00 3.0114574118e+00 
400 5.2567295378e+00 8.7133593276e-02 1.7361282568e+00 -3.0070623492e+00 1.7361282568e+00 3.0070623492e+00 
500 5.2512232954e+00 8.6080039613e-02 1.7336194395e+00 -3.0027169502e+00 1.7336194395e+00 3.0027169502e+00 
600 5.2459116634e+00 8.5093015810e-02 1.7311373646e+00 -2.9984178704e+00 1.7311373646e+00 2.9984178704e+00 
700 5.2407858510e+00 8.4168262179e-02 1.7286802271e+00 -2.9941619833e+00 1.7286802271e+00 2.9941619833e+00 
800 5.2358382147e+00 8.3301959882e-02 1.7262463333e+00 -2.9899463557e+00 1.7262463333e+00 2.9899463557e+00 
900 5.2310620581e+00 8.2490651823e-02 1.7238340899e+00 -2.9857682275e+00 1.7238340899e+00 2.9857682275e+00 
1000 5.2264514538e+00 8.1731171670e-02 1.7214419936e+00 -2.9816249952e+00 1.7214419936e+00 2.9816249952e+00 
1100 5.2220010875e+00 8.1020581027e-02 1.7190686241e+00 -2.9775141986e+00 1.7190686241e+00 2.9775141986e+00 
1200 5.2177061232e+00 8.0356114706e-02 1.7167126377e+00 -2.9734335105e+00 1.7167126377e+00 2.9734335105e+00 
1300 5.2135620884e+00 7.9735133896e-02 1.7143727635e+00 -2.9693807295e+00 1.7143727635e+00 2.9693807295e+00 
1400 5.2095647774e+00 7.9155086955e-02 1.7120478000e+00 -2.9653537745e+00 1.7120478000e+00 2.9653537745e+00 
1500 5.2057101714e+00 7.8613477471e-02 1.7097366131e+00 -2.9613506814e+00 1.7097366131e+00 2.9613506814e+00 
1600 5.2019943750e+00 7.8107839154e-02 1.7074381352e+00 -2.9573696009e+00 1.7074381352e+00 2.9573696009e+00 
1700 5.1984135653e+00 7.7635717049e-02 1.7051513649e+00 -2.9534087985e+00 1.7051513649e+00 2.9534087985e+00 
1800 5.1949639543e+00 7.7194654540e-02 1.7028753669e+00 -2.9494666545e+00 1.7028753669e+00 2.9494666545e+00 
1900 5.1916417617e+00 7.6782185557e-02 1.7006092731e+00 -2.9455416649e+00 1.7006092731e+00 2.9455416649e+00 
2000 5.1884431975e+00 7.6395831375e-02 1.6983522827e+00 -2.9416324429e+00 1.6983522827e+00 2.9416324429e+00 
2100 5.1853644521e+00 7.6033101410e-02 1.6961036637e+00 -2.9377377203e+00 1.6961036637e+00 2.9377377203e+00 
2200 5.1824016931e+00 7.5691497381e-02 1.6938627531e+00 -2.9338563494e+00 1.6938627531e+00 2.9338563494e+00 
2300 5.1795510680e+00 7.5368520255e-02 1.6916289583e+00 -2.9299873033e+00 1.6916289583e+00 2.9299873033e+00 
2400 5.1768087100e+00 7.5061679383e-02 1.6894017572e+00 -2.9261296779e+00 1.6894017572e+00 2.9261296779e+00 
2500 5.1741707487e+00 7.4768503282e-02 1.6871806986e+00 -2.9222826915e+00 1.6871806986e+00 2.9222826915e+00 
2600 5.1716333213e+00 7.4486551552e-02 1.6849654019e+00 -2.9184456851e+00 1.6849654019e+00 2.9184456851e+00 
2700 5.1691925864e+00 7.4213427457e-02 1.6827555570e+00 -2.9146181214e+00 1.6827555570e+00 2.9146181214e+00 
2800 5.1668447379e+00 7.3946790726e-02 1.6805509231e+00 -2.9107995836e+00 1.6805509231e+00 2.9107995836e+00 
2900 5.1645860199e+00 7.3684370221e-02 1.6783513279e+00 -2.9069897729e+00 1.6783513279e+00 2.9069897729e+00 
3000 5.1624127398e+00 7.3423976122e-02 1.6761566656e+00 -2.9031885063e+00 1.6761566656e+00 2.9031885063e+00 
3100 5.1603212821e+00 7.3163511361e-02 1.6739668953e+00 -2.8993957128e+00 1.6739668953e+00 2.8993957128e+00 
3200 5.1583081203e+00 7.2900982073e-02 1.6717820381e+00 -2.8956114291e+00 1.6717820381e+00 2.8956114291e+00 
3300 5.1563698274e+00 7.2634506890e-02 1.6696021751e+00 -2.8918357957e+00 1.6696021751e+00 2.8918357957e+00 
3400 5.1545030855e+00 7.2362324945e-02 1.6674274440e+00 -2.8880690510e+00 1.6674274440e+00 2.8880690510e+00 
3500 5.1527046932e+00 7.2082802489e-02 1.6652580360e+00 -2.8843115261e+00 1.6652580360e+00 2.8843115261e+00 
3600 5.1509715718e+00 7.1794438088e-02 1.6630941921e+00 -2.8805636385e+00 1.6630941921e+00 2.8805636385e+00 
3700 5.1493007698e+00 7.1495866381e-02 1.6609361999e+00 -2.8768258863e+00 1.6609361999e+00 2.8768258863e+00 
3800 5.1476894657e+00 7.1185860418e-02 1.6587843892e+00 -2.8730988409e+00 1.6587843892e+00 2.8730988409e+00 
3900 5.1461349694e+00 7.0863332629e-02 1.6566391286e+00 -2.8693831406e+00 1.6566391286e+00 2.8693831406e+00 
4000 5.1446347229e+00 7.0527334504e-02 1.6545008215e+00 -2.8656794840e+00 1.6545008215e+00 2.8656794840e+00 
4100 5.1431862982e+00 7.0177055054e-02 1.6523699017e+00 -2.8619886226e+00 1.6523699017e+00 2.8619886226e+00 
4200 5.1417873959e+00 6.9811818181e-02 1.6502468297e+00 -2.8583113541e+00 1.6502468297e+00 2.8583113541e+00 
4300 5.1404358418e+00 6.9431079055e-02 1.6481320889e+00 -2.8546485156e+00 1.6481320889e+00 2.8546485156e+00 
4400 5.1391295830e+00 6.9034419621e-02 1.6460261815e+00 -2.8510009770e+00 1.6460261815e+00 2.8510009770e+00 
4500 5.1378666833e+00 6.8621543370e-02 1.6439296249e+00 -2.8473696344e+00 1.6439296249e+00 2.8473696344e+00 
4600 5.1366453181e+00 6.8192269482e-02 1.6418429478e+00 -2.8437554037e+00 1.6418429478e+00 2.8437554037e+00 
4700 5.1354637690e+00 6.7746526474e-02 1.6397666872e+00 -2.8401592149e+00 1.6397666872e+00 2.8401592149e+00 
4800 5.1343204183e+00 6.7284345456e-02 1.6377013848e+00 -2.8365820060e+00 1.6377013848e+00 2.8365820060e+00 
4900 5.1332137428e+00 6.6805853121e-02 1.6356475836e+00 -2.8330247180e+00 1.6356475836e+00 2.8330247180e+00 
5000 5.1321423079e+00 6.6311264545e-02 1.6336058255e+00 -2.8294882892e+00 1.6336058255e+00 2.8294882892e+00 
5100 5.1311047623e+00 6.5800875917e-02 1.6315766482e+00 -2.8259736511e+00 1.6315766482e+00 2.8259736511e+00 
5200 5.1300998315e+00 6.5275057259e-02 1.6295605828e+00 -2.8224817233e+00 1.6295605828e+00 2.8224817233e+00 
5300 5.1291263127e+00 6.4734245218e-02 1.6275581512e+00 -2.8190134102e+00 1.6275581512e+00 2.8190134102e+00 
5400 5.1281830694e+00 6.4178935993e-02 1.6255698645e+00 -2.8155695965e+00 1.6255698645e+00 2.8155695965e+00 
5500 5.1272690259e+00 6.3609678451e-02 1.6235962203e+00 -2.8121511445e+00 1.6235962203e+00 2.8121511445e+00 
5600 5.1263831630e+00 6.3027067469e-02 1.6216377016e+00 -2.8087588906e+00 1.6216377016e+00 2.8087588906e+00 
5700 5.1255245132e+00 6.2431737557e-02 1.6196947749e+00 -2.8053936428e+00 1.6196947749e+00 2.8053936428e+00 
5800 5.1246921564e+00 6.1824356758e-02 1.6177678889e+00 -2.8020561785e+00 1.6177678889e+00 2.8020561785e+00 
5900 5.1238852161e+00 6.1205620890e-02 1.6158574736e+00 -2.7987472420e+00 1.6158574736e+00 2.7987472420e+00 
6000 5.1231028558e+00 6.0576248096e-02 1.6139639387e+00 -2.7954675434e+00 1.6139639387e+00 2.7954675434e+00 
6100 5.1223442757e+00 5.9936973756e-02 1.6120876732e+00 -2.7922177563e+00 1.6120876732e+00 2.7922177563e+00 
6200 5.1216087098e+00 5.9288545732e-02 1.6102290447e+00 -2.7889985173e+00 1.6102290447e+00 2.7889985173e+00 
6300 5.1208954231e+00 5.8631719964e-02 1.6083883987e+00 -2.7858104248e+00 1.6083883987e+00 2.7858104248e+00 
6400 5.1202037092e+00 5.7967256409e-02 1.6065660580e+00 -2.7826540381e+00 1.6065660580e+00 2.7826540381e+00 
6500 5.1195328883e+00 5.7295915309e-02 1.6047623228e+00 -2.7795298771e+00 1.6047623228e+00 2.7795298771e+00 
6600 5.1188823048e+00 5.6618453797e-02 1.6029774703e+00 -2.7764384219e+00 1.6029774703e+00 2.7764384219e+00 
6700 5.1182513262e+00 5.5935622801e-02 1.6012117547e+00 -2.7733801128e+00 1.6012117547e+00 2.7733801128e+00 
6800 5.1176393412e+00 5.5248164271e-02 1.5994654072e+00 -2.7703553502e+00 1.5994654072e+00 2.7703553502e+00 
6900 5.1170457583e+00 5.4556808677e-02 1.5977386362e+00 -2.7673644950e+00 1.5977386362e+00 2.7673644950e+00 
7000 5.1164700049e+00 5.3862272790e-02 1.5960316272e+00 -2.7644078689e+00 1.5960316272e+00 2.7644078689e+00 
7100 5.1159115263e+00 5.3165257726e-02 1.5943445438e+00 -2.7614857546e+00 1.5943445438e+00 2.7614857546e+00 
7200 5.1153697843e+00 5.2466447222e-02 1.5926775270e+00 -2.7585983968e+00 1.5926775270e+00 2.7585983968e+00 
7300 5.1148442571e+00 5.1766506156e-02 1.5910306966e+00 -2.7557460030e+00 1.5910306966e+00 2.7557460030e+00 
7400 5.1143344382e+00 5.1066079269e-02 1.5894041512e+00 -2.7529287436e+00 1.5894041512e+00 2.7529287436e+00 
7500 5.1138398359e+00 5.0365790094e-02 1.5877979685e+00 -2.7501467536e+00 1.5877979685e+00 2.7501467536e+00 
7600 5.1133599726e+00 4.9666240066e-02 1.5862122064e+00 -2.7474001330e+00 1.5862122064e+00 2.7474001330e+00 
7700 5.1128943849e+00 4.8968007803e-02 1.5846469031e+00 -2.7446889483e+00 1.5846469031e+00 2.7446889483e+00 
7800 5.1124426223e+00 4.8271648550e-02 1.5831020782e+00 -2.7420132329e+00 1.5831020782e+00 2.7420132329e+00 
7900 5.1120042478e+00 4.7577693757e-02 1.5815777326e+00 -2.7393729890e+00 1.5815777326e+00 2.7393729890e+00 
8000 5.1115788370e+00 4.6886650800e-02 1.5800738500e+00 -2.7367681878e+00 1.5800738500e+00 2.7367681878e+00 
8100 5.1111659777e+00 4.6199002817e-02 1.5785903970e+00 -2.7341987719e+00 1.5785903970e+00 2.7341987719e+00 
8200 5.1107652701e+00 4.5515208658e-02 1.5771273240e+00 -2.7316646551e+00 1.5771273240e+00 2.7316646551e+00 
8300 5.1103763262e+00 4.4835702926e-02 1.5756845660e+00 -2.7291657250e+00 1.5756845660e+00 2.7291657250e+00 
8400 5.1099987698e+00 4.4160896121e-02 1.5742620430e+00 -2.7267018429e+00 1.5742620430e+00 2.7267018429e+00 
8500 5.1096322358e+00 4.3491174849e-02 1.5728596611e+00 -2.7242728462e+00 1.5728596611e+00 2.7242728462e+00 
8600 5.1092763706e+00 4.2826902117e-02 1.5714773128e+00 -2.7218785487e+00 1.5714773128e+00 2.7218785487e+00 
8700 5.1089308314e+00 4.2168417684e-02 1.5701148780e+00 -2.7195187424e+00 1.5701148780e+00 2.7195187424e+00 
8800 5.1085952862e+00 4.1516038468e-02 1.5687722246e+00 -2.7171931985e+00 1.5687722246e+00 2.7171931985e+00 
8900 5.1082694136e+00 4.0870059008e-02 1.5674492091e+00 -2.7149016685e+00 1.5674492091e+00 2.7149016685e+00 
9000 5.1079529023e+00 4.0230751963e-02 1.5661456776e+00 -2.7126438857e+00 1.5661456776e+00 2.7126438857e+00 
9100 5.1076454513e+00 3.9598368653e-02 1.5648614660e+00 -2.7104195660e+00 1.5648614660e+00 2.7104195660e+00 
9200 5.1073467693e+00 3.8973139629e-02 1.5635964011e+00 -2.7082284092e+00 1.5635964011e+00 2.7082284092e+00 
9300 5.1070565748e+00 3.8355275269e-02 1.5623503008e+00 -2.7060701002e+00 1.5623503008e+00 2.7060701002e+00 
9400 5.1067745956e+00 3.7744966398e-02 1.5611229752e+00 -2.7039443100e+00 1.5611229752e+00 2.7039443100e+00 
9500 5.1065005686e+00 3.7142384925e-02 1.5599142271e+00 -2.7018506967e+00 1.5599142271e+00 2.7018506967e+00 
9600 5.1062342397e+00 3.6547684493e-02 1.5587238521e+00 -2.6997889068e+00 1.5587238521e+00 2.6997889068e+00 
9700 5.1059753634e+00 3.5961001138e-02 1.5575516400e+00 -2.6977585759e+00 1.5575516400e+00 2.6977585759e+00 
9800 5.1057237029e+00 3.5382453958e-02 1.5563973747e+00 -2.6957593298e+00 1.5563973747e+00 2.6957593298e+00 
9900 5.1054790293e+00 3.4812145783e-02 1.5552608351e+00 -2.6937907855e+00 1.5552608351e+00 2.6937907855e+00 
10000 5.1052411218e+00 3.4250163847e-02 1.5541417956e+00 -2.6918525521e+00 1.5541417956e+00 2.6918525521e+00 
10100 5.1050097674e+00 3.3696580457e-02 1.5530400263e+00 -2.6899442318e+00 1.5530400263e+00 2.6899442318e+00 
10200 5.1047847603e+00 3.3151453664e-02 1.5519552940e+00 -2.6880654202e+00 1.5519552940e+00 2.6880654202e+00 
10300 5.1045659024e+00 3.2614827920e-02 1.5508873622e+00 -2.6862157081e+00 1.5508873622e+00 2.6862157081e+00 
10400 5.1043530022e+00 3.2086734736e-02 1.5498359918e+00 -2.6843946812e+00 1.5498359918e+00 2.6843946812e+00 
10500 5.1041458751e+00 3.1567193326e-02 1.5488009416e+00 -2.6826019217e+00 1.5488009416e+00 2.6826019217e+00 
10600 5.1039443430e+00 3.1056211239e-02 1.5477819685e+00 -2.6808370086e+00 1.5477819685e+00 2.6808370086e+00 
10700 5.1037482342e+00 3.0553784988e-02 1.5467788281e+00 -2.6790995183e+00 1.5467788281e+00 2.6790995183e+00 
10800 5.1035573830e+00 3.0059900656e-02 1.5457912748e+00 -2.6773890258e+00 1.5457912748e+00 2.6773890258e+00 
10900 5.1033716295e+00 2.9574534497e-02 1.5448190624e+00 -2.6757051046e+00 1.5448190624e+00 2.6757051046e+00 
11000 5.1031908195e+00 2.9097653515e-02 1.5438619446e+00 -2.6740473279e+00 1.5438619446e+00 2.6740473279e+00 
11100 5.1030148043e+00 2.8629216037e-02 1.5429196747e+00 -2.6724152686e+00 1.5429196747e+00 2.6724152686e+00 
11200 5.1028434403e+00 2.8169172262e-02 1.5419920067e+00 -2.6708085004e+00 1.5419920067e+00 2.6708085004e+00 
11300 5.1026765890e+00 2.7717464797e-02 1.5410786949e+00 -2.6692265980e+00 1.5410786949e+00 2.6692265980e+00 
11400 5.1025141165e+00 2.7274029181e-02 1.5401794946e+00 -2.6676691374e+00 1.5401794946e+00 2.6676691374e+00 
11500 5.1023558937e+00 2.6838794382e-02 1.5392941623e+00 -2.6661356968e+00 1.5392941623e+00 2.6661356968e+00 
11600 5.1022017961e+00 2.6411683290e-02 1.5384224556e+00 -2.6646258566e+00 1.5384224556e+00 2.6646258566e+00 
11700 5.1020517032e+00 2.5992613183e-02 1.5375641340e+00 -2.6631391999e+00 1.5375641340e+00 2.6631391999e+00 
11800 5.1019054987e+00 2.5581496179e-02 1.5367189585e+00 -2.6616753130e+00 1.5367189585e+00 2.6616753130e+00 
11900 5.1017630702e+00 2.5178239673e-02 1.5358866923e+00 -2.6602337857e+00 1.5358866923e+00 2.6602337857e+00 
12000 5.1016243091e+00 2.4782746756e-02 1.5350671006e+00 -2.6588142112e+00 1.5350671006e+00 2.6588142112e+00 
12100 5.1014891104e+00 2.4394916612e-02 1.5342599511e+00 -2.6574161872e+00 1.5342599511e+00 2.6574161872e+00 
12200 5.1013573726e+00 2.4014644907e-02 1.5334650138e+00 -2.6560393155e+00 1.5334650138e+00 2.6560393155e+00 
12300 5.1012289975e+00 2.3641824157e-02 1.5326820614e+00 -2.6546832023e+00 1.5326820614e+00 2.6546832023e+00 
12400 5.1011038900e+00 2.3276344077e-02 1.5319108695e+00 -2.6533474587e+00 1.5319108695e+00 2.6533474587e+00 
12500 5.1009819584e+00 2.2918091919e-02 1.5311512163e+00 -2.6520317008e+00 1.5311512163e+00 2.6520317008e+00 
12600 5.1008631134e+00 2.2566952787e-02 1.5304028832e+00 -2.6507355498e+00 1.5304028832e+00 2.6507355498e+00 
12700 5.1007472691e+00 2.2222809951e-02 1.5296656545e+00 -2.6494586321e+00 1.5296656545e+00 2.6494586321e+00 
12800 5.1006343420e+00 2.1885545123e-02 1.5289393176e+00 -2.6482005798e+00 1.5289393176e+00 2.6482005798e+00 
12900 5.1005242512e+00 2.1555038744e-02 1.5282236634e+00 -2.6469610304e+00 1.5282236634e+00 2.6469610304e+00 
13000 5.1004169183e+00 2.1231170233e-02 1.5275184859e+00 -2.6457396270e+00 1.5275184859e+00 2.6457396270e+00 
13100 5.1003122676e+00 2.0913818240e-02 1.5268235824e+00 -2.6445360188e+00 1.5268235824e+00 2.6445360188e+00 
13200 5.1002102253e+00 2.0602860873e-02 1.5261387536e+00 -2.6433498606e+00 1.5261387536e+00 2.6433498606e+00 
13300 5.1001107201e+00 2.0298175918e-02 1.5254638038e+00 -2.6421808132e+00 1.5254638038e+00 2.6421808132e+00 
13400 5.1000136828e+00 1.9999641045e-02 1.5247985405e+00 -2.6410285435e+00 1.5247985405e+00 2.6410285435e+00 
13500 5.0999190462e+00 1.9707134001e-02 1.5241427750e+00 -2.6398927243e+00 1.5241427750e+00 2.6398927243e+00 
13600 5.0998267452e+00 1.9420532789e-02 1.5234963218e+00 -2.6387730345e+00 1.5234963218e+00 2.6387730345e+00 
13700 5.0997367165e+00 1.9139715838e-02 1.5228589990e+00 -2.6376691590e+00 1.5228589990e+00 2.6376691590e+00 
13800 5.0996488987e+00 1.8864562161e-02 1.5222306283e+00 -2.6365807891e+00 1.5222306283e+00 2.6365807891e+00 
13900 5.0995632322e+00 1.8594951501e-02 1.5216110349e+00 -2.6355076218e+00 1.5216110349e+00 2.6355076218e+00 
14000 5.0994796591e+00 1.8330764467e-02 1.5210000474e+00 -2.6344493604e+00 1.5210000474e+00 2.6344493604e+00 
14100 5.0993981233e+00 1.8071882662e-02 1.5203974980e+00 -2.6334057142e+00 1.5203974980e+00 2.6334057142e+00 
14200 5.0993185702e+00 1.7818188795e-02 1.5198032223e+00 -2.6323763985e+00 1.5198032223e+00 2.6323763985e+00 
14300 5.0992409466e+00 1.7569566794e-02 1.5192170595e+00 -2.6313611348e+00 1.5192170595e+00 2.6313611348e+00 
14400 5.0991652012e+00 1.7325901898e-02 1.5186388521e+00 -2.6303596501e+00 1.5186388521e+00 2.6303596501e+00 
14500 5.0990912837e+00 1.7087080752e-02 1.5180684460e+00 -2.6293716778e+00 1.5180684460e+00 2.6293716778e+00 
14600 5.0990191456e+00 1.6852991483e-02 1.5175056906e+00 -2.6283969568e+00 1.5175056906e+00 2.6283969568e+00 
14700 5.0989487396e+00 1.6623523779e-02 1.5169504385e+00 -2.6274352320e+00 1.5169504385e+00 2.6274352320e+00 
14800 5.0988800197e+00 1.6398568951e-02 1.5164025458e+00 -2.6264862540e+00 1.5164025458e+00 2.6264862540e+00 
14900 5.0988129412e+00 1.6178019994e-02 1.5158618716e+00 -2.6255497788e+00 1.5158618716e+00 2.6255497788e+00 
15000 5.0987474608e+00 1.5961771639e-02 1.5153282784e+00 -2.6246255684e+00 1.5153282784e+00 2.6246255684e+00 
15100 5.0986835362e+00 1.5749720399e-02 1.5148016319e+00 -2.6237133899e+00 1.5148016319e+00 2.6237133899e+00 
15200 5.0986211264e+00 1.5541764609e-02 1.5142818008e+00 -2.6228130160e+00 1.5142818008e+00 2.6228130160e+00 
15300 5.0985601915e+00 1.5337804458e-02 1.5137686570e+00 -2.6219242249e+00 1.5137686570e+00 2.6219242249e+00 
15400 5.0985006927e+00 1.5137742022e-02 1.5132620754e+00 -2.6210467997e+00 1.5132620754e+00 2.6210467997e+00 
15500 5.0984425923e+00 1.4941481284e-02 1.5127619337e+00 -2.6201805290e+00 1.5127619337e+00 2.6201805290e+00 
15600 5.0983858537e+00 1.4748928155e-02 1.5122681129e+00 -2.6193252062e+00 1.5122681129e+00 2.6193252062e+00 
15700 5.0983304411e+00 1.4559990487e-02 1.5117804965e+00 -2.6184806297e+00 1.5117804965e+00 2.6184806297e+00 
15800 5.0982763201e+00 1.4374578081e-02 1.5112989709e+00 -2.6176466031e+00 1.5112989709e+00 2.6176466031e+00 
15900 5.0982234568e+00 1.4192602698e-02 1.5108234256e+00 -2.6168229344e+00 1.5108234256e+00 2.6168229344e+00 
16000 5.0981718185e+00 1.4013978057e-02 1.5103537523e+00 -2.6160094365e+00 1.5103537523e+00 2.6160094365e+00 
16100 5.0981213733e+00 1.3838619834e-02 1.5098898458e+00 -2.6152059267e+00 1.5098898458e+00 2.6152059267e+00 
16200 5.0980720904e+00 1.3666445660e-02 1.5094316031e+00 -2.6144122271e+00 1.5094316031e+00 2.6144122271e+00 
16300 5.0980239395e+00 1.3497375110e-02 1.5089789240e+00 -2.6136281639e+00 1.5089789240e+00 2.6136281639e+00 
16400 5.0979768915e+00 1.3331329695e-02 1.5085317107e+00 -2.6128535678e+00 1.5085317107e+00 2.6128535678e+00 
16500 5.0979309178e+00 1.3168232848e-02 1.5080898679e+00 -2.6120882736e+00 1.5080898679e+00 2.6120882736e+00 
16600 5.0978859908e+00 1.3008009907e-02 1.5076533025e+00 -2.6113321201e+00 1.5076533025e+00 2.6113321201e+00 
16700 5.0978420836e+00 1.2850588100e-02 1.5072219238e+00 -2.6105849503e+00 1.5072219238e+00 2.6105849503e+00 
16800 5.0977991701e+00 1.2695896525e-02 1.5067956435e+00 -2.6098466111e+00 1.5067956435e+00 2.6098466111e+00 
16900 5.0977572247e+00 1.2543866123e-02 1.5063743752e+00 -2.6091169530e+00 1.5063743752e+00 2.6091169530e+00 
17000 5.0977162229e+00 1.2394429664e-02 1.5059580348e+00 -2.6083958304e+00 1.5059580348e+00 2.6083958304e+00 
17100 5.0976761406e+00 1.2247521713e-02 1.5055465405e+00 -2.6076831012e+00 1.5055465405e+00 2.6076831012e+00 
17200 5.0976369543e+00 1.2103078608e-02 1.5051398121e+00 -2.6069786270e+00 1.5051398121e+00 2.6069786270e+00 
17300 5.0975986415e+00 1.1961038434e-02 1.5047377717e+00 -2.6062822727e+00 1.5047377717e+00 2.6062822727e+00 
17400 5.0975611800e+00 1.1821340990e-02 1.5043403433e+00 -2.6055939064e+00 1.5043403433e+00 2.6055939064e+00 
17500 5.0975245484e+00 1.1683927762e-02 1.5039474526e+00 -2.6049133998e+00 1.5039474526e+00 2.6049133998e+00 
17600 5.0974887259e+00 1.1548741893e-02 1.5035590273e+00 -2.6042406274e+00 1.5035590273e+00 2.6042406274e+00 
17700 5.0974536920e+00 1.1415728149e-02 1.5031749968e+00 -2.6035754671e+00 1.5031749968e+00 2.6035754671e+00 
17800 5.0974194272e+00 1.1284832891e-02 1.5027952922e+00 -2.6029177996e+00 1.5027952922e+00 2.6029177996e+00 
17900 5.0973859122e+00 1.1156004039e-02 1.5024198465e+00 -2.6022675084e+00 1.5024198465e+00 2.6022675084e+00 
18000 5.0973531284e+00 1.1029191040e-02 1.5020485939e+00 -2.6016244801e+00 1.5020485939e+00 2.6016244801e+00 
18100 5.0973210577e+00 1.0904344836e-02 1.5016814706e+00 -2.6009886038e+00 1.5016814706e+00 2.6009886038e+00 
18200 5.0972896825e+00 1.0781417829e-02 1.5013184140e+00 -2.6003597715e+00 1.5013184140e+00 2.6003597715e+00 
18300 5.0972589856e+00 1.0660363848e-02 1.5009593634e+00 -2.5997378774e+00 1.5009593634e+00 2.5997378774e+00 
18400 5.0972289504e+00 1.0541138117e-02 1.5006042590e+00 -2.5991228187e+00 1.5006042590e+00 2.5991228187e+00 
18500 5.0971995608e+00 1.0423697217e-02 1.5002530430e+00 -2.5985144946e+00 1.5002530430e+00 2.5985144946e+00 
18600 5.0971708009e+00 1.0307999056e-02 1.4999056584e+00 -2.5979128069e+00 1.4999056584e+00 2.5979128069e+00 
18700 5.0971426554e+00 1.0194002833e-02 1.4995620499e+00 -2.5973176596e+00 1.4995620499e+00 2.5973176596e+00 
18800 5.0971151095e+00 1.0081669006e-02 1.4992221635e+00 -2.5967289589e+00 1.4992221635e+00 2.5967289589e+00 
18900 5.0970881487e+00 9.9709592562e-03 1.4988859460e+00 -2.5961466133e+00 1.4988859460e+00 2.5961466133e+00 
19000 5.0970617590e+00 9.8618364593e-03 1.4985533460e+00 -2.5955705331e+00 1.4985533460e+00 2.5955705331e+00 
19100 5.0970359265e+00 9.7542646479e-03 1.4982243128e+00 -2.5950006309e+00 1.4982243128e+00 2.5950006309e+00 
19200 5.0970106380e+00 9.6482089818e-03 1.4978987971e+00 -2.5944368212e+00 1.4978987971e+00 2.5944368212e+00 
19300 5.0969858806e+00 9.5436357147e-03 1.4975767505e+00 -2.5938790202e+00 1.4975767505e+00 2.5938790202e+00 
19400 5.0969616416e+00 9.4405121629e-03 1.4972581259e+00 -2.5933271461e+00 1.4972581259e+00 2.5933271461e+00 
19500 5.0969379088e+00 9.3388066740e-03 1.4969428769e+00 -2.5927811189e+00 1.4969428769e+00 2.5927811189e+00 
19600 5.0969146702e+00 9.2384885959e-03 1.4966309585e+00 -2.5922408603e+00 1.4966309585e+00 2.5922408603e+00 
19700 5.0968919143e+00 9.1395282462e-03 1.4963223263e+00 -2.5917062936e+00 1.4963223263e+00 2.5917062936e+00 
19800 5.0968696297e+00 9.0418968829e-03 1.4960169369e+00 -2.5911773438e+00 1.4960169369e+00 2.5911773438e+00 
19900 5.0968478055e+00 8.9455666744e-03 1.4957147481e+00 -2.5906539373e+00 1.4957147481e+00 2.5906539373e+00 
20000 5.0968264309e+00 8.8505106714e-03 1.4954157182e+00 -2.5901360024e+00 1.4954157182e+00 2.5901360024e+00 
20100 5.0968054956e+00 8.7567027777e-03 1.4951198065e+00 -2.5896234683e+00 1.4951198065e+00 2.5896234683e+00 
20200 5.0967849893e+00 8.6641177234e-03 1.4948269733e+00 -2.5891162662e+00 1.4948269733e+00 2.5891162662e+00 
20300 5.0967649024e+00 8.5727310376e-03 1.4945371793e+00 -2.5886143283e+00 1.4945371793e+00 2.5886143283e+00 
20400 5.0967452250e+00 8.4825190212e-03 1.4942503862e+00 -2.5881175882e+00 1.4942503862e+00 2.5881175882e+00 
20500 5.0967259479e+00 8.3934587220e-03 1.4939665566e+00 -2.5876259809e+00 1.4939665566e+00 2.5876259809e+00 
20600 5.0967070621e+00 8.3055279086e-03 1.4936856536e+00 -2.5871394425e+00 1.4936856536e+00 2.5871394425e+00 
20700 5.0966885585e+00 8.2187050460e-03 1.4934076409e+00 -2.5866579105e+00 1.4934076409e+00 2.5866579105e+00 
20800 5.0966704286e+00 8.1329692716e-03 1.4931324832e+00 -2.5861813233e+00 1.4931324832e+00 2.5861813233e+00 
20900 5.0966526639e+00 8.0483003713e-03 1.4928601456e+00 -2.5857096208e+00 1.4928601456e+00 2.5857096208e+00 
21000 5.0966352563e+00 7.9646787571e-03 1.4925905940e+00 -2.5852427436e+00 1.4925905940e+00 2.5852427436e+00 
21100 5.0966181977e+00 7.8820854444e-03 1.4923237947e+00 -2.5847806338e+00 1.4923237947e+00 2.5847806338e+00 
21200 5.0966014805e+00 7.8005020305e-03 1.4920597148e+00 -2.5843232340e+00 1.4920597148e+00 2.5843232340e+00 
21300 5.0965850969e+00 7.7199106737e-03 1.4917983220e+00 -2.5838704884e+00 1.4917983220e+00 2.5838704884e+00 
21400 5.0965690396e+00 7.6402940724e-03 1.4915395844e+00 -2.5834223416e+00 1.4915395844e+00 2.5834223416e+00 
21500 5.0965533015e+00 7.5616354457e-03 1.4912834706e+00 -2.5829787396e+00 1.4912834706e+00 2.5829787396e+00 
21600 5.0965378754e+00 7.4839185135e-03 1.4910299501e+00 -2.5825396291e+00 1.4910299501e+00 2.5825396291e+00 
21700 5.0965227545e+00 7.4071274786e-03 1.4907789924e+00 -2.5821049576e+00 1.4907789924e+00 2.5821049576e+00 
21800 5.0965079322e+00 7.3312470078e-03 1.4905305678e+00 -2.5816746737e+00 1.4905305678e+00 2.5816746737e+00 
21900 5.0964934020e+00 7.2562622147e-03 1.4902846472e+00 -2.5812487266e+00 1.4902846472e+00 2.5812487266e+00 
22000 5.0964791574e+00 7.1821586426e-03 1.4900412016e+00 -2.5808270665e+00 1.4900412016e+00 2.5808270665e+00 
22100 5.0964651924e+00 7.1089222480e-03 1.4898002027e+00 -2.5804096442e+00 1.4898002027e+00 2.5804096442e+00 
22200 5.0964515008e+00 7.0365393849e-03 1.4895616226e+00 -2.5799964114e+00 1.4895616226e+00 2.5799964114e+00 
22300 5.0964380768e+00 6.9649967891e-03 1.4893254339e+00 -2.5795873205e+00 1.4893254339e+00 2.5795873205e+00 
22400 5.0964249146e+00 6.8942815634e-03 1.4890916094e+00 -2.5791823247e+00 1.4890916094e+00 2.5791823247e+00 
22500 5.0964120087e+00 6.8243811634e-03 1.4888601226e+00 -2.5787813777e+00 1.4888601226e+00 2.5787813777e+00 
22600 5.0963993535e+00 6.7552833834e-03 1.4886309471e+00 -2.5783844340e+00 1.4886309471e+00 2.5783844340e+00 
22700 5.0963869437e+00 6.6869763432e-03 1.4884040570e+00 -2.5779914489e+00 1.4884040570e+00 2.5779914489e+00 
22800 5.0963747741e+00 6.6194484752e-03 1.4881794268e+00 -2.5776023781e+00 1.4881794268e+00 2.5776023781e+00 
22900 5.0963628396e+00 6.5526885119e-03 1.4879570315e+00 -2.5772171780e+00 1.4879570315e+00 2.5772171780e+00 
23000 5.0963511352e+00 6.4866854740e-03 1.4877368461e+00 -2.5768358058e+00 1.4877368461e+00 2.5768358058e+00 
23100 5.0963396562e+00 6.4214286588e-03 1.4875188463e+00 -2.5764582191e+00 1.4875188463e+00 2.5764582191e+00 
23200 5.0963283977e+00 6.3569076292e-03 1.4873030079e+00 -2.5760843760e+00 1.4873030079e+00 2.5760843760e+00 
23300 5.0963173551e+00 6.2931122030e-03 1.4870893072e+00 -2.5757142355e+00 1.4870893072e+00 2.5757142355e+00 
23400 5.0963065239e+00 6.2300324427e-03 1.4868777206e+00 -2.5753477567e+00 1.4868777206e+00 2.5753477567e+00 
23500 5.0962958998e+00 6.1676586454e-03 1.4866682250e+00 -2.5749848998e+00 1.4866682250e+00 2.5749848998e+00 
23600 5.0962854783e+00 6.1059813339e-03 1.4864607976e+00 -2.5746256249e+00 1.4864607976e+00 2.5746256249e+00 
23700 5.0962752554e+00 6.0449912470e-03 1.4862554158e+00 -2.5742698932e+00 1.4862554158e+00 2.5742698932e+00 
23800 5.0962652268e+00 5.9846793313e-03 1.4860520573e+00 -2.5739176659e+00 1.4860520573e+00 2.5739176659e+00 
23900 5.0962553886e+00 5.9250367324e-03 1.4858507001e+00 -2.5735689051e+00 1.4858507001e+00 2.5735689051e+00 
24000 5.0962457369e+00 5.8660547875e-03 1.4856513226e+00 -2.5732235731e+00 1.4856513226e+00 2.5732235731e+00 
24100 5.0962362677e+00 5.8077250169e-03 1.4854539033e+00 -2.5728816329e+00 1.4854539033e+00 2.5728816329e+00 
24200 5.0962269775e+00 5.7500391176e-03 1.4852584211e+00 -2.5725430477e+00 1.4852584211e+00 2.5725430477e+00 
24300 5.0962178624e+00 5.6929889555e-03 1.4850648550e+00 -2.5722077813e+00 1.4850648550e+00 2.5722077813e+00 
24400 5.0962089190e+00 5.6365665592e-03 1.4848731843e+00 -2.5718757980e+00 1.4848731843e+00 2.5718757980e+00 
24500 5.0962001437e+00 5.5807641133e-03 1.4846833888e+00 -2.5715470625e+00 1.4846833888e+00 2.5715470625e+00 
24600 5.0961915331e+00 5.5255739524e-03 1.4844954481e+00 -2.5712215398e+00 1.4844954481e+00 2.5712215398e+00 
24700 5.0961830839e+00 5.4709885551e-03 1.4843093425e+00 -2.5708991954e+00 1.4843093425e+00 2.5708991954e+00 
24800 5.0961747928e+00 5.4170005388e-03 1.4841250523e+00 -2.5705799953e+00 1.4841250523e+00 2.5705799953e+00 
24900 5.0961666566e+00 5.3636026536e-03 1.4839425579e+00 -2.5702639058e+00 1.4839425579e+00 2.5702639058e+00 
25000 5.0961586722e+00 5.3107877781e-03 1.4837618402e+00 -2.5699508935e+00 1.4837618402e+00 2.5699508935e+00 
25100 5.0961508365e+00 5.2585489139e-03 1.4835828802e+00 -2.5696409257e+00 1.4835828802e+00 2.5696409257e+00 
25200 5.0961431466e+00 5.2068791813e-03 1.4834056591e+00 -2.5693339697e+00 1.4834056591e+00 2.5693339697e+00 
25300 5.0961355995e+00 5.1557718149e-03 1.4832301583e+00 -2.5690299935e+00 1.4832301583e+00 2.5690299935e+00 
25400 5.0961281924e+00 5.1052201591e-03 1.4830563595e+00 -2.5687289652e+00 1.4830563595e+00 2.5687289652e+00 
25500 5.0961209225e+00 5.0552176646e-03 1.4828842447e+00 -2.5684308535e+00 1.4828842447e+00 2.5684308535e+00 
25600 5.0961137870e+00 5.0057578842e-03 1.4827137957e+00 -2.5681356273e+00 1.4827137957e+00 2.5681356273e+00 
25700 5.0961067832e+00 4.9568344694e-03 1.4825449950e+00 -2.5678432559e+00 1.4825449950e+00 2.5678432559e+00 
25800 5.0960999087e+00 4.9084411669e-03 1.4823778250e+00 -2.5675537089e+00 1.4823778250e+00 2.5675537089e+00 
25900 5.0960931607e+00 4.8605718156e-03 1.4822122684e+00 -2.5672669564e+00 1.4822122684e+00 2.5672669564e+00 
26000 5.0960865369e+00 4.8132203430e-03 1.4820483080e+00 -2.5669829687e+00 1.4820483080e+00 2.5669829687e+00 
26100 5.0960800346e+00 4.7663807628e-03 1.4818859269e+00 -2.5667017164e+00 1.4818859269e+00 2.5667017164e+00 
26200 5.0960736517e+00 4.7200471720e-03 1.4817251083e+00 -2.5664231705e+00 1.4817251083e+00 2.5664231705e+00 
26300 5.0960673856e+00 4.6742137479e-03 1.4815658358e+00 -2.5661473023e+00 1.4815658358e+00 2.5661473023e+00 
26400 5.0960612342e+00 4.6288747464e-03 1.4814080929e+00 -2.5658740836e+00 1.4814080929e+00 2.5658740836e+00 
26500 5.0960551951e+00 4.5840244987e-03 1.4812518633e+00 -2.5656034861e+00 1.4812518633e+00 2.5656034861e+00 
26600 5.0960492662e+00 4.5396574099e-03 1.4810971312e+00 -2.5653354822e+00 1.4810971312e+00 2.5653354822e+00 
26700 5.0960434453e+00 4.4957679563e-03 1.4809438807e+00 -2.5650700445e+00 1.4809438807e+00 2.5650700445e+00 
26800 5.0960377304e+00 4.4523506837e-03 1.4807920960e+00 -2.5648071457e+00 1.4807920960e+00 2.5648071457e+00 
26900 5.0960321193e+00 4.4094002057e-03 1.4806417618e+00 -2.5645467592e+00 1.4806417618e+00 2.5645467592e+00 
27000 5.0960266100e+00 4.3669112014e-03 1.4804928626e+00 -2.5642888583e+00 1.4804928626e+00 2.5642888583e+00 
27100 5.0960212006e+00 4.3248784143e-03 1.4803453834e+00 -2.5640334168e+00 1.4803453834e+00 2.5640334168e+00 
27200 5.0960158892e+00 4.2832966502e-03 1.4801993091e+00 -2.5637804087e+00 1.4801993091e+00 2.5637804087e+00 
27300 5.0960106737e+00 4.2421607760e-03 1.4800546250e+00 -2.5635298085e+00 1.4800546250e+00 2.5635298085e+00 
27400 5.0960055525e+00 4.2014657185e-03 1.4799113164e+00 -2.5632815906e+00 1.4799113164e+00 2.5632815906e+00 
27500 5.0960005237e+00 4.1612064625e-03 1.4797693687e+00 -2.5630357301e+00 1.4797693687e+00 2.5630357301e+00 
27600 5.0959955854e+00 4.1213780501e-03 1.4796287677e+00 -2.5627922020e+00 1.4796287677e+00 2.5627922020e+00 
27700 5.0959907360e+00 4.0819755790e-03 1.4794894992e+00 -2.5625509819e+00 1.4794894992e+00 2.5625509819e+00 
27800 5.0959859738e+00 4.0429942021e-03 1.4793515492e+00 -2.5623120455e+00 1.4793515492e+00 2.5623120455e+00 
27900 5.0959812971e+00 4.0044291256e-03 1.4792149038e+00 -2.5620753687e+00 1.4792149038e+00 2.5620753687e+00 
28000 5.0959767042e+00 3.9662756087e-03 1.4790795493e+00 -2.5618409278e+00 1.4790795493e+00 2.5618409278e+00 
28100 5.0959721936e+00 3.9285289625e-03 1.4789454721e+00 -2.5616086994e+00 1.4789454721e+00 2.5616086994e+00 
28200 5.0959677637e+00 3.8911845487e-03 1.4788126589e+00 -2.5613786601e+00 1.4788126589e+00 2.5613786601e+00 
28300 5.0959634130e+00 3.8542377795e-03 1.4786810964e+00 -2.5611507871e+00 1.4786810964e+00 2.5611507871e+00 
28400 5.0959591399e+00 3.8176841162e-03 1.4785507714e+00 -2.5609250577e+00 1.4785507714e+00 2.5609250577e+00 
28500 5.0959549430e+00 3.7815190688e-03 1.4784216711e+00 -2.5607014493e+00 1.4784216711e+00 2.5607014493e+00 
28600 5.0959508209e+00 3.7457381953e-03 1.4782937825e+00 -2.5604799398e+00 1.4782937825e+00 2.5604799398e+00 
28700 5.0959467721e+00 3.7103371008e-03 1.4781670930e+00 -2.5602605072e+00 1.4781670930e+00 2.5602605072e+00 
28800 5.0959427953e+00 3.6753114371e-03 1.4780415902e+00 -2.5600431299e+00 1.4780415902e+00 2.5600431299e+00 
28900 5.0959388890e+00 3.6406569022e-03 1.4779172615e+00 -2.5598277862e+00 1.4779172615e+00 2.5598277862e+00 
29000 5.0959350521e+00 3.6063692396e-03 1.4777940947e+00 -2.5596144551e+00 1.4777940947e+00 2.5596144551e+00 
29100 5.0959312831e+00 3.5724442376e-03 1.4776720777e+00 -2.5594031155e+00 1.4776720777e+00 2.5594031155e+00 
29200 5.0959275808e+00 3.5388777294e-03 1.4775511985e+00 -2.5591937466e+00 1.4775511985e+00 2.5591937466e+00 
29300 5.0959239440e+00 3.5056655918e-03 1.4774314453e+00 -2.5589863280e+00 1.4774314453e+00 2.5589863280e+00 
29400 5.0959203713e+00 3.4728037456e-03 1.4773128064e+00 -2.5587808393e+00 1.4773128064e+00 2.5587808393e+00 
29500 5.0959168618e+00 3.4402881546e-03 1.4771952700e+00 -2.5585772604e+00 1.4771952700e+00 2.5585772604e+00 
29600 5.0959134140e+00 3.4081148253e-03 1.4770788250e+00 -2.5583755716e+00 1.4770788250e+00 2.5583755716e+00 
29700 5.0959100270e+00 3.3762798069e-03 1.4769634597e+00 -2.5581757532e+00 1.4769634597e+00 2.5581757532e+00 
29800 5.0959066996e+00 3.3447791904e-03 1.4768491632e+00 -2.5579777858e+00 1.4768491632e+00 2.5579777858e+00 
29900 5.0959034306e+00 3.3136091084e-03 1.4767359243e+00 -2.5577816502e+00 1.4767359243e+00 2.5577816502e+00 
30000 5.0959002191e+00 3.2827657352e-03 1.4766237320e+00 -2.5575873275e+00 1.4766237320e+00 2.5575873275e+00 
30100 5.0958970638e+00 3.2522452858e-03 1.4765125756e+00 -2.5573947989e+00 1.4765125756e+00 2.5573947989e+00 
30200 5.0958939638e+00 3.2220440161e-03 1.4764024443e+00 -2.5572040459e+00 1.4764024443e+00 2.5572040459e+00 
30300 5.0958909181e+00 3.1921582223e-03 1.4762933275e+00 -2.5570150501e+00 1.4762933275e+00 2.5570150501e+00 
30400 5.0958879257e+00 3.1625842407e-03 1.4761852149e+00 -2.5568277936e+00 1.4761852149e+00 2.5568277936e+00 
30500 5.0958849856e+00 3.1333184476e-03 1.4760780960e+00 -2.5566422582e+00 1.4760780960e+00 2.5566422582e+00 
30600 5.0958820968e+00 3.1043572586e-03 1.4759719607e+00 -2.5564584264e+00 1.4759719607e+00 2.5564584264e+00 
30700 5.0958792583e+00 3.0756971288e-03 1.4758667988e+00 -2.5562762807e+00 1.4758667988e+00 2.5562762807e+00 
30800 5.0958764694e+00 3.0473345523e-03 1.4757626003e+00 -2.5560958037e+00 1.4757626003e+00 2.5560958037e+00 
30900 5.0958737290e+00 3.0192660617e-03 1.4756593554e+00 -2.5559169783e+00 1.4756593554e+00 2.5559169783e+00 
31000 5.0958710362e+00 2.9914882284e-03 1.4755570543e+00 -2.5557397876e+00 1.4755570543e+00 2.5557397876e+00 
31100 5.0958683903e+00 2.9639976619e-03 1.4754556874e+00 -2.5555642149e+00 1.4754556874e+00 2.5555642149e+00 
31200 5.0958657903e+00 2.9367910097e-03 1.4753552451e+00 -2.5553902437e+00 1.4753552451e+00 2.5553902437e+00 
31300 5.0958632354e+00 2.9098649569e-03 1.4752557179e+00 -2.5552178576e+00 1.4752557179e+00 2.5552178576e+00 
31400 5.0958607248e+00 2.8832162263e-03 1.4751570966e+00 -2.5550470405e+00 1.4751570966e+00 2.5550470405e+00 
31500 5.0958582577e+00 2.8568415779e-03 1.4750593720e+00 -2.5548777764e+00 1.4750593720e+00 2.5548777764e+00 
31600 5.0958558333e+00 2.8307378086e-03 1.4749625348e+00 -2.5547100496e+00 1.4749625348e+00 2.5547100496e+00 
31700 5.0958534508e+00 2.8049017522e-03 1.4748665762e+00 -2.5545438444e+00 1.4748665762e+00 2.5545438444e+00 
31800 5.0958511095e+00 2.7793302787e-03 1.4747714872e+00 -2.5543791455e+00 1.4747714872e+00 2.5543791455e+00 
31900 5.0958488086e+00 2.7540202946e-03 1.4746772591e+00 -2.5542159375e+00 1.4746772591e+00 2.5542159375e+00 
32000 5.0958465474e+00 2.7289687424e-03 1.4745838830e+00 -2.5540542054e+00 1.4745838830e+00 2.5540542054e+00 
32100 5.0958443251e+00 2.7041726003e-03 1.4744913504e+00 -2.5538939343e+00 1.4744913504e+00 2.5538939343e+00 
32200 5.0958421412e+00 2.6796288821e-03 1.4743996529e+00 -2.5537351095e+00 1.4743996529e+00 2.5537351095e+00 
32300 5.0958399948e+00 2.6553346366e-03 1.4743087820e+00 -2.5535777164e+00 1.4743087820e+00 2.5535777164e+00 
32400 5.0958378853e+00 2.6312869478e-03 1.4742187293e+00 -2.5534217407e+00 1.4742187293e+00 2.5534217407e+00 
32500 5.0958358121e+00 2.6074829344e-03 1.4741294868e+00 -2.5532671681e+00 1.4741294868e+00 2.5532671681e+00 
32600 5.0958337745e+00 2.5839197497e-03 1.4740410462e+00 -2.5531139845e+00 1.4740410462e+00 2.5531139845e+00 
32700 5.0958317719e+00 2.5605945811e-03 1.4739533996e+00 -2.5529621761e+00 1.4739533996e+00 2.5529621761e+00 
32800 5.0958298035e+00 2.5375046500e-03 1.4738665390e+00 -2.5528117292e+00 1.4738665390e+00 2.5528117292e+00 
32900 5.0958278689e+00 2.5146472114e-03 1.4737804566e+00 -2.5526626301e+00 1.4737804566e+00 2.5526626301e+00 
33000 5.0958259675e+00 2.4920195539e-03 1.4736951446e+00 -2.5525148653e+00 1.4736951446e+00 2.5525148653e+00 
33100 5.0958240985e+00 2.4696189993e-03 1.4736105954e+00 -2.5523684218e+00 1.4736105954e+00 2.5523684218e+00 
33200 5.0958222615e+00 2.4474429022e-03 1.4735268014e+00 -2.5522232863e+00 1.4735268014e+00 2.5522232863e+00 
33300 5.0958204559e+00 2.4254886497e-03 1.4734437550e+00 -2.5520794458e+00 1.4734437550e+00 2.5520794458e+00 
33400 5.0958186811e+00 2.4037536615e-03 1.4733614490e+00 -2.5519368876e+00 1.4733614490e+00 2.5519368876e+00 
33500 5.0958169366e+00 2.3822353894e-03 1.4732798760e+00 -2.5517955989e+00 1.4732798760e+00 2.5517955989e+00 
33600 5.0958152219e+00 2.3609313167e-03 1.4731990287e+00 -2.5516555673e+00 1.4731990287e+00 2.5516555673e+00 
33700 5.0958135363e+00 2.3398389584e-03 1.4731189000e+00 -2.5515167804e+00 1.4731189000e+00 2.5515167804e+00 
33800 5.0958118795e+00 2.3189558609e-03 1.4730394828e+00 -2.5513792258e+00 1.4730394828e+00 2.5513792258e+00 
33900 5.0958102508e+00 2.2982796012e-03 1.4729607702e+00 -2.5512428916e+00 1.4729607702e+00 2.5512428916e+00 
34000 5.0958086499e+00 2.2778077872e-03 1.4728827553e+00 -2.5511077658e+00 1.4728827553e+00 2.5511077658e+00 
34100 5.0958070761e+00 2.2575380572e-03 1.4728054312e+00 -2.5509738364e+00 1.4728054312e+00 2.5509738364e+00 
34200 5.0958055291e+00 2.2374680794e-03 1.4727287911e+00 -2.5508410919e+00 1.4727287911e+00 2.5508410919e+00 
34300 5.0958040083e+00 2.2175955518e-03 1.4726528284e+00 -2.5507095207e+00 1.4726528284e+00 2.5507095207e+00 
34400 5.0958025134e+00 2.1979182022e-03 1.4725775365e+00 -2.5505791113e+00 1.4725775365e+00 2.5505791113e+00 
34500 5.0958010437e+00 2.1784337872e-03 1.4725029088e+00 -2.5504498524e+00 1.4725029088e+00 2.5504498524e+00 
34600 5.0957995990e+00 2.1591400925e-03 1.4724289390e+00 -2.5503217329e+00 1.4724289390e+00 2.5503217329e+00 
34700 5.0957981787e+00 2.1400349324e-03 1.4723556206e+00 -2.5501947418e+00 1.4723556206e+00 2.5501947418e+00 
34800 5.0957967824e+00 2.1211161494e-03 1.4722829474e+00 -2.5500688680e+00 1.4722829474e+00 2.5500688680e+00 
34900 5.0957954098e+00 2.1023816142e-03 1.4722109130e+00 -2.5499441008e+00 1.4722109130e+00 2.5499441008e+00 
35000 5.0957940604e+00 2.0838292250e-03 1.4721395114e+00 -2.5498204296e+00 1.4721395114e+00 2.5498204296e+00 
35100 5.0957927337e+00 2.0654569075e-03 1.4720687365e+00 -2.5496978438e+00 1.4720687365e+00 2.5496978438e+00 
35200 5.0957914295e+00 2.0472626144e-03 1.4719985821e+00 -2.5495763329e+00 1.4719985821e+00 2.5495763329e+00 
35300 5.0957901472e+00 2.0292443253e-03 1.4719290424e+00 -2.5494558866e+00 1.4719290424e+00 2.5494558866e+00 
35400 5.0957888866e+00 2.0114000463e-03 1.4718601115e+00 -2.5493364948e+00 1.4718601115e+00 2.5493364948e+00 
35500 5.0957876472e+00 1.9937278095e-03 1.4717917835e+00 -2.5492181472e+00 1.4717917835e+00 2.5492181472e+00 
35600 5.0957864287e+00 1.9762256731e-03 1.4717240527e+00 -2.5491008341e+00 1.4717240527e+00 2.5491008341e+00 
35700 5.0957852307e+00 1.9588917207e-03 1.4716569134e+00 -2.5489845454e+00 1.4716569134e+00 2.5489845454e+00 
35800 5.0957840528e+00 1.9417240613e-03 1.4715903600e+00 -2.5488692714e+00 1.4715903600e+00 2.5488692714e+00 
35900 5.0957828948e+00 1.9247208289e-03 1.4715243868e+00 -2.5487550025e+00 1.4715243868e+00 2.5487550025e+00 
36000 5.0957817562e+00 1.9078801818e-03 1.4714589884e+00 -2.5486417292e+00 1.4714589884e+00 2.5486417292e+00 
36100 5.0957806367e+00 1.8912003032e-03 1.4713941594e+00 -2.5485294420e+00 1.4713941594e+00 2.5485294420e+00 
36200 5.0957795361e+00 1.8746793999e-03 1.4713298942e+00 -2.5484181315e+00 1.4713298942e+00 2.5484181315e+00 
36300 5.0957784539e+00 1.8583157028e-03 1.4712661877e+00 -2.5483077886e+00 1.4712661877e+00 2.5483077886e+00 
36400 5.0957773898e+00 1.8421074659e-03 1.4712030345e+00 -2.5481984041e+00 1.4712030345e+00 2.5481984041e+00 
36500 5.0957763436e+00 1.8260529666e-03 1.4711404295e+00 -2.5480899690e+00 1.4711404295e+00 2.5480899690e+00 
36600 5.0957753150e+00 1.8101505052e-03 1.4710783675e+00 -2.5479824743e+00 1.4710783675e+00 2.5479824743e+00 
36700 5.0957743035e+00 1.7943984044e-03 1.4710168433e+00 -2.5478759113e+00 1.4710168433e+00 2.5478759113e+00 
36800 5.0957733090e+00 1.7787950091e-03 1.4709558519e+00 -2.5477702712e+00 1.4709558519e+00 2.5477702712e+00 
36900 5.0957723311e+00 1.7633386863e-03 1.4708953884e+00 -2.5476655454e+00 1.4708953884e+00 2.5476655454e+00 
37000 5.0957713696e+00 1.7480278247e-03 1.4708354478e+00 -2.5475617252e+00 1.4708354478e+00 2.5475617252e+00 
37100 5.0957704241e+00 1.7328608344e-03 1.4707760253e+00 -2.5474588023e+00 1.4707760253e+00 2.5474588023e+00 
37200 5.0957694945e+00 1.7178361463e-03 1.4707171159e+00 -2.5473567683e+00 1.4707171159e+00 2.5473567683e+00 
37300 5.0957685804e+00 1.7029522124e-03 1.4706587150e+00 -2.5472556150e+00 1.4706587150e+00 2.5472556150e+00 
37400 5.0957676815e+00 1.6882075050e-03 1.4706008178e+00 -2.5471553340e+00 1.4706008178e+00 2.5471553340e+00 
37500 5.0957667976e+00 1.6736005169e-03 1.4705434196e+00 -2.5470559175e+00 1.4705434196e+00 2.5470559175e+00 
37600 5.0957659285e+00 1.6591297606e-03 1.4704865158e+00 -2.5469573572e+00 1.4704865158e+00 2.5469573572e+00 
37700 5.0957650738e+00 1.6447937684e-03 1.4704301018e+00 -2.5468596454e+00 1.4704301018e+00 2.5468596454e+00 
37800 5.0957642334e+00 1.6305910918e-03 1.4703741732e+00 -2.5467627741e+00 1.4703741732e+00 2.5467627741e+00 
37900 5.0957634070e+00 1.6165203016e-03 1.4703187254e+00 -2.5466667357e+00 1.4703187254e+00 2.5466667357e+00 
38000 5.0957625943e+00 1.6025799873e-03 1.4702637540e+00 -2.5465715224e+00 1.4702637540e+00 2.5465715224e+00 
38100 5.0957617952e+00 1.5887687571e-03 1.4702092546e+00 -2.5464771266e+00 1.4702092546e+00 2.5464771266e+00 
38200 5.0957610094e+00 1.5750852374e-03 1.4701552228e+00 -2.5463835409e+00 1.4701552228e+00 2.5463835409e+00 
38300 5.0957602366e+00 1.5615280725e-03 1.4701016545e+00 -2.5462907578e+00 1.4701016545e+00 2.5462907578e+00 
38400 5.0957594767e+00 1.5480959247e-03 1.4700485453e+00 -2.5461987700e+00 1.4700485453e+00 2.5461987700e+00 
38500 5.0957587293e+00 1.5347874737e-03 1.4699958910e+00 -2.5461075701e+00 1.4699958910e+00 2.5461075701e+00 
38600 5.0957579945e+00 1.5216014164e-03 1.4699436875e+00 -2.5460171510e+00 1.4699436875e+00 2.5460171510e+00 
38700 5.0957572718e+00 1.5085364667e-03 1.4698919307e+00 -2.5459275056e+00 1.4698919307e+00 2.5459275056e+00 
38800 5.0957565611e+00 1.4955913553e-03 1.4698406164e+00 -2.5458386267e+00 1.4698406164e+00 2.5458386267e+00 
38900 5.0957558621e+00 1.4827648292e-03 1.4697897408e+00 -2.5457505074e+00 1.4697897408e+00 2.5457505074e+00 
39000 5.0957551748e+00 1.4700556517e-03 1.4697392997e+00 -2.5456631409e+00 1.4697392997e+00 2.5456631409e+00 
39100 5.0957544989e+00 1.4574626023e-03 1.4696892892e+00 -2.5455765202e+00 1.4696892892e+00 2.5455765202e+00 
39200 5.0957538341e+00 1.4449844759e-03 1.4696397054e+00 -2.5454906386e+00 1.4696397054e+00 2.5454906386e+00 
39300 5.0957531804e+00 1.4326200832e-03 1.4695905445e+00 -2.5454054894e+00 1.4695905445e+00 2.5454054894e+00 
39400 5.0957525375e+00 1.4203682498e-03 1.4695418026e+00 -2.5453210660e+00 1.4695418026e+00 2.5453210660e+00 
39500 5.0957519053e+00 1.4082278168e-03 1.4694934760e+00 -2.5452373618e+00 1.4694934760e+00 2.5452373618e+00 
39600 5.0957512835e+00 1.3961976398e-03 1.4694455608e+00 -2.5451543703e+00 1.4694455608e+00 2.5451543703e+00 
39700 5.0957506719e+00 1.3842765889e-03 1.4693980535e+00 -2.5450720851e+00 1.4693980535e+00 2.5450720851e+00 
39800 5.0957500705e+00 1.3724635487e-03 1.4693509502e+00 -2.5449904999e+00 1.4693509502e+00 2.5449904999e+00 
39900 5.0957494791e+00 1.3607574180e-03 1.4693042474e+00 -2.5449096082e+00 1.4693042474e+00 2.5449096082e+00 
40000 5.0957488974e+00 1.3491571093e-03 1.4692579414e+00 -2.5448294040e+00 1.4692579414e+00 2.5448294040e+00 
40100 5.0957483253e+00 1.3376615489e-03 1.4692120288e+00 -2.5447498810e+00 1.4692120288e+00 2.5447498810e+00 
40200 5.0957477626e+00 1.3262696765e-03 1.4691665059e+00 -2.5446710331e+00 1.4691665059e+00 2.5446710331e+00 
40300 5.0957472093e+00 1.3149804453e-03 1.4691213694e+00 -2.5445928542e+00 1.4691213694e+00 2.5445928542e+00 
40400 5.0957466650e+00 1.3037928212e-03 1.4690766156e+00 -2.5445153385e+00 1.4690766156e+00 2.5445153385e+00 
40500 5.0957461298e+00 1.2927057833e-03 1.4690322413e+00 -2.5444384798e+00 1.4690322413e+00 2.5444384798e+00 
40600 5.0957456034e+00 1.2817183230e-03 1.4689882429e+00 -2.5443622725e+00 1.4689882429e+00 2.5443622725e+00 
40700 5.0957450856e+00 1.2708294446e-03 1.4689446173e+00 -2.5442867106e+00 1.4689446173e+00 2.5442867106e+00 
40800 5.0957445764e+00 1.2600381641e-03 1.4689013609e+00 -2.5442117884e+00 1.4689013609e+00 2.5442117884e+00 
40900 5.0957440756e+00 1.2493435102e-03 1.4688584706e+00 -2.5441375003e+00 1.4688584706e+00 2.5441375003e+00 
41000 5.0957435830e+00 1.2387445229e-03 1.4688159431e+00 -2.5440638405e+00 1.4688159431e+00 2.5440638405e+00 
41100 5.0957430985e+00 1.2282402543e-03 1.4687737752e+00 -2.5439908035e+00 1.4687737752e+00 2.5439908035e+00 
41200 5.0957426220e+00 1.2178297679e-03 1.4687319637e+00 -2.5439183838e+00 1.4687319637e+00 2.5439183838e+00 
41300 5.0957421533e+00 1.2075121383e-03 1.4686905053e+00 -2.5438465758e+00 1.4686905053e+00 2.5438465758e+00 
41400 5.0957416924e+00 1.1972864517e-03 1.4686493970e+00 -2.5437753742e+00 1.4686493970e+00 2.5437753742e+00 
41500 5.0957412390e+00 1.1871518048e-03 1.4686086357e+00 -2.5437047735e+00 1.4686086357e+00 2.5437047735e+00 
41600 5.0957407931e+00 1.1771073054e-03 1.4685682184e+00 -2.5436347686e+00 1.4685682184e+00 2.5436347686e+00 
41700 5.0957403545e+00 1.1671520719e-03 1.4685281418e+00 -2.5435653540e+00 1.4685281418e+00 2.5435653540e+00 
41800 5.0957399231e+00 1.1572852332e-03 1.4684884032e+00 -2.5434965246e+00 1.4684884032e+00 2.5434965246e+00 
41900 5.0957394988e+00 1.1475059284e-03 1.4684489994e+00 -2.5434282753e+00 1.4684489994e+00 2.5434282753e+00 
42000 5.0957390815e+00 1.1378133068e-03 1.4684099275e+00 -2.5433606008e+00 1.4684099275e+00 2.5433606008e+00 
42100 5.0957386710e+00 1.1282065277e-03 1.4683711847e+00 -2.5432934962e+00 1.4683711847e+00 2.5432934962e+00 
42200 5.0957382673e+00 1.1186847602e-03 1.4683327679e+00 -2.5432269564e+00 1.4683327679e+00 2.5432269564e+00 
42300 5.0957378701e+00 1.1092471831e-03 1.4682946744e+00 -2.5431609765e+00 1.4682946744e+00 2.5431609765e+00 
42400 5.0957374795e+00 1.0998929849e-03 1.4682569012e+00 -2.5430955514e+00 1.4682569012e+00 2.5430955514e+00 
42500 5.0957370953e+00 1.0906213632e-03 1.4682194456e+00 -2.5430306765e+00 1.4682194456e+00 2.5430306765e+00 
42600 5.0957367174e+00 1.0814315250e-03 1.4681823048e+00 -2.5429663467e+00 1.4681823048e+00 2.5429663467e+00 
42700 5.0957363457e+00 1.0723226865e-03 1.4681454760e+00 -2.5429025574e+00 1.4681454760e+00 2.5429025574e+00 
42800 5.0957359801e+00 1.0632940726e-03 1.4681089566e+00 -2.5428393038e+00 1.4681089566e+00 2.5428393038e+00 
42900 5.0957356205e+00 1.0543449173e-03 1.4680727437e+00 -2.5427765812e+00 1.4680727437e+00 2.5427765812e+00 
43000 5.0957352667e+00 1.0454744631e-03 1.4680368347e+00 -2.5427143850e+00 1.4680368347e+00 2.5427143850e+00 
43100 5.0957349188e+00 1.0366819611e-03 1.4680012269e+00 -2.5426527106e+00 1.4680012269e+00 2.5426527106e+00 
43200 5.0957345765e+00 1.0279666710e-03 1.4679659177e+00 -2.5425915533e+00 1.4679659177e+00 2.5425915533e+00 
43300 5.0957342399e+00 1.0193278605e-03 1.4679309046e+00 -2.5425309087e+00 1.4679309046e+00 2.5425309087e+00 
43400 5.0957339088e+00 1.0107648057e-03 1.4678961848e+00 -2.5424707724e+00 1.4678961848e+00 2.5424707724e+00 
43500 5.0957335830e+00 1.0022767908e-03 1.4678617559e+00 -2.5424111398e+00 1.4678617559e+00 2.5424111398e+00 
43600 5.0957332626e+00 9.9386310779e-04 1.4678276154e+00 -2.5423520065e+00 1.4678276154e+00 2.5423520065e+00 
43700 5.0957329475e+00 9.8552305649e-04 1.4677937606e+00 -2.5422933684e+00 1.4677937606e+00 2.5422933684e+00 
43800 5.0957326375e+00 9.7725594450e-04 1.4677601891e+00 -2.5422352209e+00 1.4677601891e+00 2.5422352209e+00 
43900 5.0957323326e+00 9.6906108696e-04 1.4677268985e+00 -2.5421775599e+00 1.4677268985e+00 2.5421775599e+00 
44000 5.0957320326e+00 9.6093780654e-04 1.4676938864e+00 -2.5421203811e+00 1.4676938864e+00 2.5421203811e+00 
44100 5.0957317375e+00 9.5288543322e-04 1.4676611502e+00 -2.5420636804e+00 1.4676611502e+00 2.5420636804e+00 
44200 5.0957314473e+00 9.4490330428e-04 1.4676286876e+00 -2.5420074535e+00 1.4676286876e+00 2.5420074535e+00 
44300 5.0957311618e+00 9.3699076416e-04 1.4675964962e+00 -2.5419516964e+00 1.4675964962e+00 2.5419516964e+00 
44400 5.0957308810e+00 9.2914716435e-04 1.4675645737e+00 -2.5418964050e+00 1.4675645737e+00 2.5418964050e+00 
44500 5.0957306047e+00 9.2137186327e-04 1.4675329177e+00 -2.5418415752e+00 1.4675329177e+00 2.5418415752e+00 
44600 5.0957303330e+00 9.1366422623e-04 1.4675015259e+00 -2.5417872031e+00 1.4675015259e+00 2.5417872031e+00 
44700 5.0957300657e+00 9.0602362528e-04 1.4674703961e+00 -2.5417332847e+00 1.4674703961e+00 2.5417332847e+00 
44800 5.0957298028e+00 8.9844943914e-04 1.4674395260e+00 -2.5416798160e+00 1.4674395260e+00 2.5416798160e+00 
44900 5.0957295441e+00 8.9094105309e-04 1.4674089133e+00 -2.5416267932e+00 1.4674089133e+00 2.5416267932e+00 
45000 5.0957292897e+00 8.8349785890e-04 1.4673785557e+00 -2.5415742125e+00 1.4673785557e+00 2.5415742125e+00 
45100 5.0957290394e+00 8.7611925471e-04 1.4673484512e+00 -2.5415220699e+00 1.4673484512e+00 2.5415220699e+00 
45200 5.0957287932e+00 8.6880464498e-04 1.4673185975e+00 -2.5414703617e+00 1.4673185975e+00 2.5414703617e+00 
45300 5.0957285510e+00 8.6155344036e-04 1.4672889924e+00 -2.5414190842e+00 1.4672889924e+00 2.5414190842e+00 
45400 5.0957283127e+00 8.5436505764e-04 1.4672596338e+00 -2.5413682337e+00 1.4672596338e+00 2.5413682337e+00 
45500 5.0957280784e+00 8.4723891965e-04 1.4672305196e+00 -2.5413178064e+00 1.4672305196e+00 2.5413178064e+00 
45600 5.0957278478e+00 8.4017445518e-04 1.4672016477e+00 -2.5412677987e+00 1.4672016477e+00 2.5412677987e+00 
45700 5.0957276210e+00 8.3317109892e-04 1.4671730159e+00 -2.5412182070e+00 1.4671730159e+00 2.5412182070e+00 
45800 5.0957273979e+00 8.2622829133e-04 1.4671446222e+00 -2.5411690277e+00 1.4671446222e+00 2.5411690277e+00 
45900 5.0957271785e+00 8.1934547863e-04 1.4671164646e+00 -2.5411202573e+00 1.4671164646e+00 2.5411202573e+00 
46000 5.0957269626e+00 8.1252211266e-04 1.4670885410e+00 -2.5410718923e+00 1.4670885410e+00 2.5410718923e+00 
46100 5.0957267502e+00 8.0575765086e-04 1.4670608495e+00 -2.5410239291e+00 1.4670608495e+00 2.5410239291e+00 
46200 5.0957265413e+00 7.9905155616e-04 1.4670333879e+00 -2.5409763643e+00 1.4670333879e+00 2.5409763643e+00 
46300 5.0957263357e+00 7.9240329693e-04 1.4670061544e+00 -2.5409291945e+00 1.4670061544e+00 2.5409291945e+00 
46400 5.0957261336e+00 7.8581234688e-04 1.4669791470e+00 -2.5408824162e+00 1.4669791470e+00 2.5408824162e+00 
46500 5.0957259347e+00 7.7927818505e-04 1.4669523637e+00 -2.5408360263e+00 1.4669523637e+00 2.5408360263e+00 
46600 5.0957257390e+00 7.7280029567e-04 1.4669258027e+00 -2.5407900212e+00 1.4669258027e+00 2.5407900212e+00 
46700 5.0957255465e+00 7.6637816815e-04 1.4668994620e+00 -2.5407443977e+00 1.4668994620e+00 2.5407443977e+00 
46800 5.0957253572e+00 7.6001129698e-04 1.4668733396e+00 -2.5406991525e+00 1.4668733396e+00 2.5406991525e+00 
46900 5.0957251709e+00 7.5369918168e-04 1.4668474339e+00 -2.5406542825e+00 1.4668474339e+00 2.5406542825e+00 
47000 5.0957249877e+00 7.4744132676e-04 1.4668217428e+00 -2.5406097843e+00 1.4668217428e+00 2.5406097843e+00 
47100 5.0957248074e+00 7.4123724161e-04 1.4667962647e+00 -2.5405656547e+00 1.4667962647e+00 2.5405656547e+00 
47200 5.0957246301e+00 7.3508644048e-04 1.4667709975e+00 -2.5405218908e+00 1.4667709975e+00 2.5405218908e+00 
47300 5.0957244556e+00 7.2898844238e-04 1.4667459396e+00 -2.5404784892e+00 1.4667459396e+00 2.5404784892e+00 
47400 5.0957242840e+00 7.2294277108e-04 1.4667210891e+00 -2.5404354469e+00 1.4667210891e+00 2.5404354469e+00 
47500 5.0957241152e+00 7.1694895501e-04 1.4666964443e+00 -2.5403927609e+00 1.4666964443e+00 2.5403927609e+00 
47600 5.0957239491e+00 7.1100652721e-04 1.4666720035e+00 -2.5403504280e+00 1.4666720035e+00 2.5403504280e+00 
47700 5.0957237857e+00 7.0511502528e-04 1.4666477648e+00 -2.5403084454e+00 1.4666477648e+00 2.5403084454e+00 
47800 5.0957236250e+00 6.9927399131e-04 1.4666237265e+00 -2.5402668099e+00 1.4666237265e+00 2.5402668099e+00 
47900 5.0957234668e+00 6.9348297188e-04 1.4665998870e+00 -2.5402255186e+00 1.4665998870e+00 2.5402255186e+00 
48000 5.0957233113e+00 6.8774151793e-04 1.4665762445e+00 -2.5401845687e+00 1.4665762445e+00 2.5401845687e+00 
48100 5.0957231582e+00 6.8204918477e-04 1.4665527974e+00 -2.5401439571e+00 1.4665527974e+00 2.5401439571e+00 
48200 5.0957230077e+00 6.7640553200e-04 1.4665295440e+00 -2.5401036810e+00 1.4665295440e+00 2.5401036810e+00 
48300 5.0957228596e+00 6.7081012346e-04 1.4665064826e+00 -2.5400637375e+00 1.4665064826e+00 2.5400637375e+00 
48400 5.0957227139e+00 6.6526252721e-04 1.4664836116e+00 -2.5400241238e+00 1.4664836116e+00 2.5400241238e+00 
48500 5.0957225705e+00 6.5976231543e-04 1.4664609295e+00 -2.5399848371e+00 1.4664609295e+00 2.5399848371e+00 
48600 5.0957224295e+00 6.5430906445e-04 1.4664384345e+00 -2.5399458747e+00 1.4664384345e+00 2.5399458747e+00 
48700 5.0957222908e+00 6.4890235460e-04 1.4664161251e+00 -2.5399072336e+00 1.4664161251e+00 2.5399072336e+00 
48800 5.0957221543e+00 6.4354177027e-04 1.4663939997e+00 -2.5398689113e+00 1.4663939997e+00 2.5398689113e+00 
48900 5.0957220200e+00 6.3822689978e-04 1.4663720567e+00 -2.5398309050e+00 1.4663720567e+00 2.5398309050e+00 
49000 5.0957218879e+00 6.3295733541e-04 1.4663502947e+00 -2.5397932120e+00 1.4663502947e+00 2.5397932120e+00 
49100 5.0957217580e+00 6.2773267329e-04 1.4663287120e+00 -2.5397558297e+00 1.4663287120e+00 2.5397558297e+00 
49200 5.0957216301e+00 6.2255251339e-04 1.4663073071e+00 -2.5397187554e+00 1.4663073071e+00 2.5397187554e+00 
49300 5.0957215044e+00 6.1741645949e-04 1.4662860786e+00 -2.5396819865e+00 1.4662860786e+00 2.5396819865e+00 
49400 5.0957213806e+00 6.1232411910e-04 1.4662650249e+00 -2.5396455204e+00 1.4662650249e+00 2.5396455204e+00 
49500 5.0957212589e+00 6.0727510348e-04 1.4662441445e+00 -2.5396093546e+00 1.4662441445e+00 2.5396093546e+00 
49600 5.0957211391e+00 6.0226902752e-04 1.4662234360e+00 -2.5395734865e+00 1.4662234360e+00 2.5395734865e+00 
49700 5.0957210213e+00 5.9730550976e-04 1.4662028980e+00 -2.5395379135e+00 1.4662028980e+00 2.5395379135e+00 
49800 5.0957209054e+00 5.9238417234e-04 1.4661825289e+00 -2.5395026332e+00 1.4661825289e+00 2.5395026332e+00 
49900 5.0957207914e+00 5.8750464096e-04 1.4661623274e+00 -2.5394676431e+00 1.4661623274e+00 2.5394676431e+00 
50000 5.0957206792e+00 5.8266654482e-04 1.4661422920e+00 -2.5394329408e+00 1.4661422920e+00 2.5394329408e+00 
50100 5.0957205688e+00 5.7786951661e-04 1.4661224213e+00 -2.5393985237e+00 1.4661224213e+00 2.5393985237e+00 
50200 5.0957204603e+00 5.7311319246e-04 1.4661027139e+00 -2.5393643896e+00 1.4661027139e+00 2.5393643896e+00 
50300 5.0957203534e+00 5.6839721193e-04 1.4660831685e+00 -2.5393305359e+00 1.4660831685e+00 2.5393305359e+00 
50400 5.0957202483e+00 5.6372121791e-04 1.4660637836e+00 -2.5392969604e+00 1.4660637836e+00 2.5392969604e+00 
50500 5.0957201450e+00 5.5908485667e-04 1.4660445580e+00 -2.5392636606e+00 1.4660445580e+00 2.5392636606e+00 
50600 5.0957200432e+00 5.5448777776e-04 1.4660254902e+00 -2.5392306343e+00 1.4660254902e+00 2.5392306343e+00 
50700 5.0957199432e+00 5.4992963401e-04 1.4660065790e+00 -2.5391978791e+00 1.4660065790e+00 2.5391978791e+00 
50800 5.0957198447e+00 5.4541008147e-04 1.4659878230e+00 -2.5391653928e+00 1.4659878230e+00 2.5391653928e+00 
50900 5.0957197479e+00 5.4092877941e-04 1.4659692209e+00 -2.5391331730e+00 1.4659692209e+00 2.5391331730e+00 
51000 5.0957196526e+00 5.3648539026e-04 1.4659507714e+00 -2.5391012175e+00 1.4659507714e+00 2.5391012175e+00 
51100 5.0957195588e+00 5.3207957959e-04 1.4659324733e+00 -2.5390695242e+00 1.4659324733e+00 2.5390695242e+00 
51200 5.0957194666e+00 5.2771101608e-04 1.4659143251e+00 -2.5390380907e+00 1.4659143251e+00 2.5390380907e+00 
51300 5.0957193758e+00 5.2337937148e-04 1.4658963258e+00 -2.5390069149e+00 1.4658963258e+00 2.5390069149e+00 
51400 5.0957192866e+00 5.1908432057e-04 1.4658784740e+00 -2.5389759947e+00 1.4658784740e+00 2.5389759947e+00 
51500 5.0957191988e+00 5.1482554117e-04 1.4658607684e+00 -2.5389453278e+00 1.4658607684e+00 2.5389453278e+00 
51600 5.0957191123e+00 5.1060271407e-04 1.4658432080e+00 -2.5389149121e+00 1.4658432080e+00 2.5389149121e+00 
51700 5.0957190273e+00 5.0641552299e-04 1.4658257913e+00 -2.5388847456e+00 1.4658257913e+00 2.5388847456e+00 
51800 5.0957189437e+00 5.0226365463e-04 1.4658085173e+00 -2.5388548261e+00 1.4658085173e+00 2.5388548261e+00 
51900 5.0957188614e+00 4.9814679852e-04 1.4657913847e+00 -2.5388251515e+00 1.4657913847e+00 2.5388251515e+00 
52000 5.0957187805e+00 4.9406464709e-04 1.4657743923e+00 -2.5387957198e+00 1.4657743923e+00 2.5387957198e+00 
52100 5.0957187008e+00 4.9001689562e-04 1.4657575389e+00 -2.5387665290e+00 1.4657575389e+00 2.5387665290e+00 
52200 5.0957186225e+00 4.8600324217e-04 1.4657408235e+00 -2.5387375770e+00 1.4657408235e+00 2.5387375770e+00 
52300 5.0957185454e+00 4.8202338760e-04 1.4657242448e+00 -2.5387088618e+00 1.4657242448e+00 2.5387088618e+00 
52400 5.0957184695e+00 4.7807703552e-04 1.4657078016e+00 -2.5386803814e+00 1.4657078016e+00 2.5386803814e+00 
52500 5.0957183949e+00 4.7416389226e-04 1.4656914929e+00 -2.5386521339e+00 1.4656914929e+00 2.5386521339e+00 
52600 5.0957183215e+00 4.7028366686e-04 1.4656753175e+00 -2.5386241173e+00 1.4656753175e+00 2.5386241173e+00 
52700 5.0957182493e+00 4.6643607105e-04 1.4656592743e+00 -2.5385963296e+00 1.4656592743e+00 2.5385963296e+00 
52800 5.0957181783e+00 4.6262081917e-04 1.4656433621e+00 -2.5385687690e+00 1.4656433621e+00 2.5385687690e+00 
52900 5.0957181083e+00 4.5883762821e-04 1.4656275800e+00 -2.5385414335e+00 1.4656275800e+00 2.5385414335e+00 
53000 5.0957180396e+00 4.5508621776e-04 1.4656119267e+00 -2.5385143213e+00 1.4656119267e+00 2.5385143213e+00 
53100 5.0957179719e+00 4.5136630998e-04 1.4655964013e+00 -2.5384874305e+00 1.4655964013e+00 2.5384874305e+00 
53200 5.0957179053e+00 4.4767762956e-04 1.4655810026e+00 -2.5384607591e+00 1.4655810026e+00 2.5384607591e+00 
53300 5.0957178398e+00 4.4401990374e-04 1.4655657296e+00 -2.5384343055e+00 1.4655657296e+00 2.5384343055e+00 
53400 5.0957177754e+00 4.4039286223e-04 1.4655505812e+00 -2.5384080677e+00 1.4655505812e+00 2.5384080677e+00 
53500 5.0957177120e+00 4.3679623724e-04 1.4655355564e+00 -2.5383820440e+00 1.4655355564e+00 2.5383820440e+00 
53600 5.0957176496e+00 4.3322976342e-04 1.4655206542e+00 -2.5383562325e+00 1.4655206542e+00 2.5383562325e+00 
53700 5.0957175883e+00 4.2969317785e-04 1.4655058734e+00 -2.5383306316e+00 1.4655058734e+00 2.5383306316e+00 
53800 5.0957175279e+00 4.2618622001e-04 1.4654912132e+00 -2.5383052394e+00 1.4654912132e+00 2.5383052394e+00 
53900 5.0957174685e+00 4.2270863176e-04 1.4654766725e+00 -2.5382800541e+00 1.4654766725e+00 2.5382800541e+00 
54000 5.0957174101e+00 4.1926015732e-04 1.4654622503e+00 -2.5382550741e+00 1.4654622503e+00 2.5382550741e+00 
54100 5.0957173526e+00 4.1584054326e-04 1.4654479456e+00 -2.5382302977e+00 1.4654479456e+00 2.5382302977e+00 
54200 5.0957172960e+00 4.1244953845e-04 1.4654337575e+00 -2.5382057231e+00 1.4654337575e+00 2.5382057231e+00 
54300 5.0957172404e+00 4.0908689404e-04 1.4654196849e+00 -2.5381813487e+00 1.4654196849e+00 2.5381813487e+00 
54400 5.0957171856e+00 4.0575236348e-04 1.4654057269e+00 -2.5381571727e+00 1.4654057269e+00 2.5381571727e+00 
54500 5.0957171317e+00 4.0244570244e-04 1.4653918826e+00 -2.5381331936e+00 1.4653918826e+00 2.5381331936e+00 
54600 5.0957170787e+00 3.9916666883e-04 1.4653781509e+00 -2.5381094097e+00 1.4653781509e+00 2.5381094097e+00 
54700 5.0957170266e+00 3.9591502277e-04 1.4653645310e+00 -2.5380858193e+00 1.4653645310e+00 2.5380858193e+00 
54800 5.0957169753e+00 3.9269052655e-04 1.4653510219e+00 -2.5380624209e+00 1.4653510219e+00 2.5380624209e+00 
54900 5.0957169248e+00 3.8949294464e-04 1.4653376228e+00 -2.5380392129e+00 1.4653376228e+00 2.5380392129e+00 
55000 5.0957168752e+00 3.8632204364e-04 1.4653243326e+00 -2.5380161936e+00 1.4653243326e+00 2.5380161936e+00 
55100 5.0957168263e+00 3.8317759228e-04 1.4653111505e+00 -2.5379933615e+00 1.4653111505e+00 2.5379933615e+00 
55200 5.0957167783e+00 3.8005936140e-04 1.4652980755e+00 -2.5379707150e+00 1.4652980755e+00 2.5379707150e+00 
55300 5.0957167310e+00 3.7696712390e-04 1.4652851069e+00 -2.5379482527e+00 1.4652851069e+00 2.5379482527e+00 
55400 5.0957166844e+00 3.7390065476e-04 1.4652722436e+00 -2.5379259729e+00 1.4652722436e+00 2.5379259729e+00 
55500 5.0957166387e+00 3.7085973102e-04 1.4652594849e+00 -2.5379038741e+00 1.4652594849e+00 2.5379038741e+00 
55600 5.0957165936e+00 3.6784413171e-04 1.4652468298e+00 -2.5378819549e+00 1.4652468298e+00 2.5378819549e+00 
55700 5.0957165493e+00 3.6485363788e-04 1.4652342775e+00 -2.5378602137e+00 1.4652342775e+00 2.5378602137e+00 
55800 5.0957165057e+00 3.6188803258e-04 1.4652218272e+00 -2.5378386491e+00 1.4652218272e+00 2.5378386491e+00 
55900 5.0957164628e+00 3.5894710081e-04 1.4652094780e+00 -2.5378172596e+00 1.4652094780e+00 2.5378172596e+00 
56000 5.0957164207e+00 3.5603062952e-04 1.4651972290e+00 -2.5377960437e+00 1.4651972290e+00 2.5377960437e+00 
56100 5.0957163791e+00 3.5313840761e-04 1.4651850794e+00 -2.5377750001e+00 1.4651850794e+00 2.5377750001e+00 
56200 5.0957163383e+00 3.5027022587e-04 1.4651730285e+00 -2.5377541272e+00 1.4651730285e+00 2.5377541272e+00 
56300 5.0957162981e+00 3.4742587698e-04 1.4651610753e+00 -2.5377334236e+00 1.4651610753e+00 2.5377334236e+00 
56400 5.0957162586e+00 3.4460515553e-04 1.4651492191e+00 -2.5377128881e+00 1.4651492191e+00 2.5377128881e+00 
56500 5.0957162197e+00 3.4180785794e-04 1.4651374590e+00 -2.5376925191e+00 1.4651374590e+00 2.5376925191e+00 
56600 5.0957161814e+00 3.3903378248e-04 1.4651257943e+00 -2.5376723152e+00 1.4651257943e+00 2.5376723152e+00 
56700 5.0957161438e+00 3.3628272923e-04 1.4651142242e+00 -2.5376522752e+00 1.4651142242e+00 2.5376522752e+00 
56800 5.0957161067e+00 3.3355450011e-04 1.4651027479e+00 -2.5376323976e+00 1.4651027479e+00 2.5376323976e+00 
56900 5.0957160703e+00 3.3084889879e-04 1.4650913646e+00 -2.5376126812e+00 1.4650913646e+00 2.5376126812e+00 
57000 5.0957160344e+00 3.2816573075e-04 1.4650800735e+00 -2.5375931245e+00 1.4650800735e+00 2.5375931245e+00 
57100 5.0957159991e+00 3.2550480320e-04 1.4650688740e+00 -2.5375737263e+00 1.4650688740e+00 2.5375737263e+00 
57200 5.0957159644e+00 3.2286592510e-04 1.4650577651e+00 -2.5375544852e+00 1.4650577651e+00 2.5375544852e+00 
57300 5.0957159303e+00 3.2024890712e-04 1.4650467463e+00 -2.5375354000e+00 1.4650467463e+00 2.5375354000e+00 
57400 5.0957158967e+00 3.1765356166e-04 1.4650358166e+00 -2.5375164693e+00 1.4650358166e+00 2.5375164693e+00 
57500 5.0957158636e+00 3.1507970280e-04 1.4650249755e+00 -2.5374976919e+00 1.4650249755e+00 2.5374976919e+00 
57600 5.0957158311e+00 3.1252714628e-04 1.4650142221e+00 -2.5374790665e+00 1.4650142221e+00 2.5374790665e+00 
57700 5.0957157991e+00 3.0999570952e-04 1.4650035558e+00 -2.5374605919e+00 1.4650035558e+00 2.5374605919e+00 
57800 5.0957157676e+00 3.0748521158e-04 1.4649929757e+00 -2.5374422667e+00 1.4649929757e+00 2.5374422667e+00 
57900 5.0957157367e+00 3.0499547313e-04 1.4649824813e+00 -2.5374240899e+00 1.4649824813e+00 2.5374240899e+00 
58000 5.0957157062e+00 3.0252631649e-04 1.4649720718e+00 -2.5374060601e+00 1.4649720718e+00 2.5374060601e+00 
58100 5.0957156762e+00 3.0007756553e-04 1.4649617465e+00 -2.5373881761e+00 1.4649617465e+00 2.5373881761e+00 
58200 5.0957156467e+00 2.9764904574e-04 1.4649515047e+00 -2.5373704367e+00 1.4649515047e+00 2.5373704367e+00 
58300 5.0957156177e+00 2.9524058416e-04 1.4649413457e+00 -2.5373528409e+00 1.4649413457e+00 2.5373528409e+00 
58400 5.0957155891e+00 2.9285200938e-04 1.4649312688e+00 -2.5373353872e+00 1.4649312688e+00 2.5373353872e+00 
58500 5.0957155610e+00 2.9048315154e-04 1.4649212734e+00 -2.5373180747e+00 1.4649212734e+00 2.5373180747e+00 
58600 5.0957155334e+00 2.8813384230e-04 1.4649113588e+00 -2.5373009020e+00 1.4649113588e+00 2.5373009020e+00 
58700 5.0957155062e+00 2.8580391482e-04 1.4649015243e+00 -2.5372838682e+00 1.4649015243e+00 2.5372838682e+00 
58800 5.0957154795e+00 2.8349320377e-04 1.4648917693e+00 -2.5372669719e+00 1.4648917693e+00 2.5372669719e+00 
58900 5.0957154532e+00 2.8120154529e-04 1.4648820930e+00 -2.5372502122e+00 1.4648820930e+00 2.5372502122e+00 
59000 5.0957154273e+00 2.7892877699e-04 1.4648724949e+00 -2.5372335878e+00 1.4648724949e+00 2.5372335878e+00 
59100 5.0957154018e+00 2.7667473793e-04 1.4648629744e+00 -2.5372170977e+00 1.4648629744e+00 2.5372170977e+00 
59200 5.0957153767e+00 2.7443926862e-04 1.4648535307e+00 -2.5372007408e+00 1.4648535307e+00 2.5372007408e+00 
59300 5.0957153521e+00 2.7222221098e-04 1.4648441632e+00 -2.5371845158e+00 1.4648441632e+00 2.5371845158e+00 
59400 5.0957153278e+00 2.7002340835e-04 1.4648348714e+00 -2.5371684219e+00 1.4648348714e+00 2.5371684219e+00 
59500 5.0957153039e+00 2.6784270547e-04 1.4648256545e+00 -2.5371524579e+00 1.4648256545e+00 2.5371524579e+00 
59600 5.0957152804e+00 2.6567994848e-04 1.4648165121e+00 -2.5371366226e+00 1.4648165121e+00 2.5371366226e+00 
59700 5.0957152573e+00 2.6353498487e-04 1.4648074434e+00 -2.5371209152e+00 1.4648074434e+00 2.5371209152e+00 
59800 5.0957152346e+00 2.6140766349e-04 1.4647984478e+00 -2.5371053345e+00 1.4647984478e+00 2.5371053345e+00 
59900 5.0957152122e+00 2.5929783457e-04 1.4647895248e+00 -2.5370898794e+00 1.4647895248e+00 2.5370898794e+00 
60000 5.0957151902e+00 2.5720534962e-04 1.4647806738e+00 -2.5370745490e+00 1.4647806738e+00 2.5370745490e+00 
60100 5.0957151686e+00 2.5513006153e-04 1.4647718942e+00 -2.5370593422e+00 1.4647718942e+00 2.5370593422e+00 
60200 5.0957151473e+00 2.5307182446e-04 1.4647631853e+00 -2.5370442580e+00 1.4647631853e+00 2.5370442580e+00 
60300 5.0957151263e+00 2.5103049388e-04 1.4647545467e+00 -2.5370292954e+00 1.4647545467e+00 2.5370292954e+00 
60400 5.0957151057e+00 2.4900592655e-04 1.4647459776e+00 -2.5370144534e+00 1.4647459776e+00 2.5370144534e+00 
60500 5.0957150854e+00 2.4699798049e-04 1.4647374777e+00 -2.5369997311e+00 1.4647374777e+00 2.5369997311e+00 
60600 5.0957150655e+00 2.4500651499e-04 1.4647290462e+00 -2.5369851274e+00 1.4647290462e+00 2.5369851274e+00 
60700 5.0957150458e+00 2.4303139060e-04 1.4647206827e+00 -2.5369706413e+00 1.4647206827e+00 2.5369706413e+00 
60800 5.0957150265e+00 2.4107246909e-04 1.4647123865e+00 -2.5369562719e+00 1.4647123865e+00 2.5369562719e+00 
60900 5.0957150075e+00 2.3912961345e-04 1.4647041572e+00 -2.5369420183e+00 1.4647041572e+00 2.5369420183e+00 
61000 5.0957149888e+00 2.3720268792e-04 1.4646959941e+00 -2.5369278794e+00 1.4646959941e+00 2.5369278794e+00 
61100 5.0957149704e+00 2.3529155789e-04 1.4646878968e+00 -2.5369138545e+00 1.4646878968e+00 2.5369138545e+00 
61200 5.0957149523e+00 2.3339608999e-04 1.4646798647e+00 -2.5368999424e+00 1.4646798647e+00 2.5368999424e+00 
61300 5.0957149345e+00 2.3151615201e-04 1.4646718972e+00 -2.5368861423e+00 1.4646718972e+00 2.5368861423e+00 
61400 5.0957149170e+00 2.2965161290e-04 1.4646639938e+00 -2.5368724534e+00 1.4646639938e+00 2.5368724534e+00 
61500 5.0957148998e+00 2.2780234278e-04 1.4646561541e+00 -2.5368588745e+00 1.4646561541e+00 2.5368588745e+00 
61600 5.0957148828e+00 2.2596821293e-04 1.4646483775e+00 -2.5368454050e+00 1.4646483775e+00 2.5368454050e+00 
61700 5.0957148661e+00 2.2414909574e-04 1.4646406634e+00 -2.5368320438e+00 1.4646406634e+00 2.5368320438e+00 
61800 5.0957148497e+00 2.2234486474e-04 1.4646330114e+00 -2.5368187902e+00 1.4646330114e+00 2.5368187902e+00 
61900 5.0957148336e+00 2.2055539458e-04 1.4646254209e+00 -2.5368056431e+00 1.4646254209e+00 2.5368056431e+00 
62000 5.0957148177e+00 2.1878056101e-04 1.4646178915e+00 -2.5367926018e+00 1.4646178915e+00 2.5367926018e+00 
62100 5.0957148021e+00 2.1702024087e-04 1.4646104227e+00 -2.5367796654e+00 1.4646104227e+00 2.5367796654e+00 
62200 5.0957147867e+00 2.1527431209e-04 1.4646030139e+00 -2.5367668329e+00 1.4646030139e+00 2.5367668329e+00 
62300 5.0957147715e+00 2.1354265367e-04 1.4645956646e+00 -2.5367541037e+00 1.4645956646e+00 2.5367541037e+00 
62400 5.0957147567e+00 2.1182514569e-04 1.4645883745e+00 -2.5367414768e+00 1.4645883745e+00 2.5367414768e+00 
62500 5.0957147420e+00 2.1012166927e-04 1.4645811429e+00 -2.5367289514e+00 1.4645811429e+00 2.5367289514e+00 
62600 5.0957147276e+00 2.0843210656e-04 1.4645739695e+00 -2.5367165266e+00 1.4645739695e+00 2.5367165266e+00 
62700 5.0957147134e+00 2.0675634079e-04 1.4645668537e+00 -2.5367042017e+00 1.4645668537e+00 2.5367042017e+00 
62800 5.0957146995e+00 2.0509425616e-04 1.4645597951e+00 -2.5366919758e+00 1.4645597951e+00 2.5366919758e+00 
62900 5.0957146858e+00 2.0344573793e-04 1.4645527932e+00 -2.5366798482e+00 1.4645527932e+00 2.5366798482e+00 
63000 5.0957146723e+00 2.0181067235e-04 1.4645458475e+00 -2.5366678180e+00 1.4645458475e+00 2.5366678180e+00 
63100 5.0957146590e+00 2.0018894665e-04 1.4645389577e+00 -2.5366558844e+00 1.4645389577e+00 2.5366558844e+00 
63200 5.0957146459e+00 1.9858044908e-04 1.4645321231e+00 -2.5366440466e+00 1.4645321231e+00 2.5366440466e+00 
63300 5.0957146331e+00 1.9698506884e-04 1.4645253435e+00 -2.5366323039e+00 1.4645253435e+00 2.5366323039e+00 
63400 5.0957146204e+00 1.9540269612e-04 1.4645186183e+00 -2.5366206555e+00 1.4645186183e+00 2.5366206555e+00 
63500 5.0957146080e+00 1.9383322205e-04 1.4645119471e+00 -2.5366091006e+00 1.4645119471e+00 2.5366091006e+00 
63600 5.0957145957e+00 1.9227653873e-04 1.4645053294e+00 -2.5365976385e+00 1.4645053294e+00 2.5365976385e+00 
63700 5.0957145837e+00 1.9073253920e-04 1.4644987648e+00 -2.5365862683e+00 1.4644987648e+00 2.5365862683e+00 
63800 5.0957145718e+00 1.8920111742e-04 1.4644922530e+00 -2.5365749895e+00 1.4644922530e+00 2.5365749895e+00 
63900 5.0957145602e+00 1.8768216828e-04 1.4644857934e+00 -2.5365638011e+00 1.4644857934e+00 2.5365638011e+00 
64000 5.0957145487e+00 1.8617558760e-04 1.4644793856e+00 -2.5365527025e+00 1.4644793856e+00 2.5365527025e+00 
64100 5.0957145374e+00 1.8468127209e-04 1.4644730292e+00 -2.5365416929e+00 1.4644730292e+00 2.5365416929e+00 
64200 5.0957145263e+00 1.8319911937e-04 1.4644667238e+00 -2.5365307717e+00 1.4644667238e+00 2.5365307717e+00 
64300 5.0957145154e+00 1.8172902794e-04 1.4644604690e+00 -2.5365199381e+00 1.4644604690e+00 2.5365199381e+00 
64400 5.0957145047e+00 1.8027089721e-04 1.4644542644e+00 -2.5365091913e+00 1.4644542644e+00 2.5365091913e+00 
64500 5.0957144941e+00 1.7882462743e-04 1.4644481095e+00 -2.5364985307e+00 1.4644481095e+00 2.5364985307e+00 
64600 5.0957144837e+00 1.7739011974e-04 1.4644420040e+00 -2.5364879557e+00 1.4644420040e+00 2.5364879557e+00 
64700 5.0957144735e+00 1.7596727613e-04 1.4644359474e+00 -2.5364774654e+00 1.4644359474e+00 2.5364774654e+00 
64800 5.0957144634e+00 1.7455599944e-04 1.4644299394e+00 -2.5364670592e+00 1.4644299394e+00 2.5364670592e+00 
64900 5.0957144535e+00 1.7315619335e-04 1.4644239796e+00 -2.5364567364e+00 1.4644239796e+00 2.5364567364e+00 
65000 5.0957144438e+00 1.7176776240e-04 1.4644180675e+00 -2.5364464964e+00 1.4644180675e+00 2.5364464964e+00 
65100 5.0957144342e+00 1.7039061192e-04 1.4644122028e+00 -2.5364363384e+00 1.4644122028e+00 2.5364363384e+00 
65200 5.0957144248e+00 1.6902464808e-04 1.4644063850e+00 -2.5364262618e+00 1.4644063850e+00 2.5364262618e+00 
65300 5.0957144155e+00 1.6766977786e-04 1.4644006140e+00 -2.5364162660e+00 1.4644006140e+00 2.5364162660e+00 
65400 5.0957144064e+00 1.6632590905e-04 1.4643948891e+00 -2.5364063503e+00 1.4643948891e+00 2.5364063503e+00 
65500 5.0957143974e+00 1.6499295023e-04 1.4643892101e+00 -2.5363965140e+00 1.4643892101e+00 2.5363965140e+00 
65600 5.0957143885e+00 1.6367081077e-04 1.4643835766e+00 -2.5363867564e+00 1.4643835766e+00 2.5363867564e+00 
65700 5.0957143799e+00 1.6235940082e-04 1.4643779882e+00 -2.5363770771e+00 1.4643779882e+00 2.5363770771e+00 
65800 5.0957143713e+00 1.6105863132e-04 1.4643724446e+00 -2.5363674752e+00 1.4643724446e+00 2.5363674752e+00 
65900 5.0957143629e+00 1.5976841397e-04 1.4643669454e+00 -2.5363579503e+00 1.4643669454e+00 2.5363579503e+00 
66000 5.0957143546e+00 1.5848866122e-04 1.4643614902e+00 -2.5363485016e+00 1.4643614902e+00 2.5363485016e+00 
66100 5.0957143465e+00 1.5721928629e-04 1.4643560786e+00 -2.5363391286e+00 1.4643560786e+00 2.5363391286e+00 
66200 5.0957143385e+00 1.5596020315e-04 1.4643507104e+00 -2.5363298306e+00 1.4643507104e+00 2.5363298306e+00 
66300 5.0957143306e+00 1.5471132650e-04 1.4643453852e+00 -2.5363206070e+00 1.4643453852e+00 2.5363206070e+00 
66400 5.0957143228e+00 1.5347257177e-04 1.4643401026e+00 -2.5363114572e+00 1.4643401026e+00 2.5363114572e+00 
66500 5.0957143152e+00 1.5224385513e-04 1.4643348623e+00 -2.5363023807e+00 1.4643348623e+00 2.5363023807e+00 
66600 5.0957143077e+00 1.5102509346e-04 1.4643296639e+00 -2.5362933768e+00 1.4643296639e+00 2.5362933768e+00 
66700 5.0957143003e+00 1.4981620437e-04 1.4643245071e+00 -2.5362844450e+00 1.4643245071e+00 2.5362844450e+00 
66800 5.0957142931e+00 1.4861710617e-04 1.4643193915e+00 -2.5362755846e+00 1.4643193915e+00 2.5362755846e+00 
66900 5.0957142859e+00 1.4742771785e-04 1.4643143169e+00 -2.5362667952e+00 1.4643143169e+00 2.5362667952e+00 
67000 5.0957142789e+00 1.4624795914e-04 1.4643092829e+00 -2.5362580760e+00 1.4643092829e+00 2.5362580760e+00 
67100 5.0957142720e+00 1.4507775040e-04 1.4643042892e+00 -2.5362494266e+00 1.4643042892e+00 2.5362494266e+00 
67200 5.0957142652e+00 1.4391701273e-04 1.4642993353e+00 -2.5362408463e+00 1.4642993353e+00 2.5362408463e+00 
67300 5.0957142585e+00 1.4276566787e-04 1.4642944212e+00 -2.5362323347e+00 1.4642944212e+00 2.5362323347e+00 
67400 5.0957142519e+00 1.4162363824e-04 1.4642895463e+00 -2.5362238911e+00 1.4642895463e+00 2.5362238911e+00 
67500 5.0957142454e+00 1.4049084693e-04 1.4642847103e+00 -2.5362155151e+00 1.4642847103e+00 2.5362155151e+00 
67600 5.0957142391e+00 1.3936721767e-04 1.4642799131e+00 -2.5362072060e+00 1.4642799131e+00 2.5362072060e+00 
67700 5.0957142328e+00 1.3825267486e-04 1.4642751542e+00 -2.5361989633e+00 1.4642751542e+00 2.5361989633e+00 
67800 5.0957142266e+00 1.3714714354e-04 1.4642704333e+00 -2.5361907866e+00 1.4642704333e+00 2.5361907866e+00 
67900 5.0957142206e+00 1.3605054940e-04 1.4642657502e+00 -2.5361826752e+00 1.4642657502e+00 2.5361826752e+00 
68000 5.0957142146e+00 1.3496281873e-04 1.4642611045e+00 -2.5361746286e+00 1.4642611045e+00 2.5361746286e+00 
68100 5.0957142087e+00 1.3388387849e-04 1.4642564960e+00 -2.5361666463e+00 1.4642564960e+00 2.5361666463e+00 
68200 5.0957142029e+00 1.3281365625e-04 1.4642519242e+00 -2.5361587279e+00 1.4642519242e+00 2.5361587279e+00 
68300 5.0957141973e+00 1.3175208018e-04 1.4642473890e+00 -2.5361508727e+00 1.4642473890e+00 2.5361508727e+00 
68400 5.0957141917e+00 1.3069907908e-04 1.4642428901e+00 -2.5361430802e+00 1.4642428901e+00 2.5361430802e+00 
68500 5.0957141862e+00 1.2965458235e-04 1.4642384271e+00 -2.5361353500e+00 1.4642384271e+00 2.5361353500e+00 
68600 5.0957141808e+00 1.2861851999e-04 1.4642339997e+00 -2.5361276816e+00 1.4642339997e+00 2.5361276816e+00 
68700 5.0957141754e+00 1.2759082261e-04 1.4642296077e+00 -2.5361200744e+00 1.4642296077e+00 2.5361200744e+00 
68800 5.0957141702e+00 1.2657142138e-04 1.4642252508e+00 -2.5361125280e+00 1.4642252508e+00 2.5361125280e+00 
68900 5.0957141651e+00 1.2556024809e-04 1.4642209286e+00 -2.5361050419e+00 1.4642209286e+00 2.5361050419e+00 
69000 5.0957141600e+00 1.2455723507e-04 1.4642166410e+00 -2.5360976155e+00 1.4642166410e+00 2.5360976155e+00 
69100 5.0957141550e+00 1.2356231527e-04 1.4642123876e+00 -2.5360902485e+00 1.4642123876e+00 2.5360902485e+00 
69200 5.0957141501e+00 1.2257542217e-04 1.4642081682e+00 -2.5360829402e+00 1.4642081682e+00 2.5360829402e+00 
69300 5.0957141453e+00 1.2159648984e-04 1.4642039825e+00 -2.5360756904e+00 1.4642039825e+00 2.5360756904e+00 
69400 5.0957141405e+00 1.2062545288e-04 1.4641998302e+00 -2.5360684983e+00 1.4641998302e+00 2.5360684983e+00 
69500 5.0957141359e+00 1.1966224649e-04 1.4641957110e+00 -2.5360613638e+00 1.4641957110e+00 2.5360613638e+00 
69600 5.0957141313e+00 1.1870680637e-04 1.4641916248e+00 -2.5360542861e+00 1.4641916248e+00 2.5360542861e+00 
69700 5.0957141268e+00 1.1775906880e-04 1.4641875711e+00 -2.5360472650e+00 1.4641875711e+00 2.5360472650e+00 
69800 5.0957141223e+00 1.1681897057e-04 1.4641835498e+00 -2.5360402999e+00 1.4641835498e+00 2.5360402999e+00 
69900 5.0957141179e+00 1.1588644904e-04 1.4641795606e+00 -2.5360333903e+00 1.4641795606e+00 2.5360333903e+00 
70000 5.0957141136e+00 1.1496144206e-04 1.4641756032e+00 -2.5360265359e+00 1.4641756032e+00 2.5360265359e+00 
70100 5.0957141094e+00 1.1404388804e-04 1.4641716774e+00 -2.5360197362e+00 1.4641716774e+00 2.5360197362e+00 
70200 5.0957141052e+00 1.1313372590e-04 1.4641677829e+00 -2.5360129908e+00 1.4641677829e+00 2.5360129908e+00 
70300 5.0957141011e+00 1.1223089506e-04 1.4641639195e+00 -2.5360062992e+00 1.4641639195e+00 2.5360062992e+00 
70400 5.0957140971e+00 1.1133533546e-04 1.4641600869e+00 -2.5359996609e+00 1.4641600869e+00 2.5359996609e+00 
70500 5.0957140932e+00 1.1044698756e-04 1.4641562849e+00 -2.5359930756e+00 1.4641562849e+00 2.5359930756e+00 
70600 5.0957140893e+00 1.0956579230e-04 1.4641525132e+00 -2.5359865429e+00 1.4641525132e+00 2.5359865429e+00 
70700 5.0957140854e+00 1.0869169115e-04 1.4641487716e+00 -2.5359800622e+00 1.4641487716e+00 2.5359800622e+00 
70800 5.0957140816e+00 1.0782462603e-04 1.4641450598e+00 -2.5359736333e+00 1.4641450598e+00 2.5359736333e+00 
70900 5.0957140779e+00 1.0696453939e-04 1.4641413776e+00 -2.5359672555e+00 1.4641413776e+00 2.5359672555e+00 
71000 5.0957140743e+00 1.0611137413e-04 1.4641377248e+00 -2.5359609287e+00 1.4641377248e+00 2.5359609287e+00 
71100 5.0957140707e+00 1.0526507366e-04 1.4641341012e+00 -2.5359546523e+00 1.4641341012e+00 2.5359546523e+00 
71200 5.0957140672e+00 1.0442558185e-04 1.4641305064e+00 -2.5359484259e+00 1.4641305064e+00 2.5359484259e+00 
71300 5.0957140637e+00 1.0359284305e-04 1.4641269402e+00 -2.5359422492e+00 1.4641269402e+00 2.5359422492e+00 
71400 5.0957140603e+00 1.0276680206e-04 1.4641234025e+00 -2.5359361218e+00 1.4641234025e+00 2.5359361218e+00 
71500 5.0957140569e+00 1.0194740417e-04 1.4641198930e+00 -2.5359300431e+00 1.4641198930e+00 2.5359300431e+00 
71600 5.0957140536e+00 1.0113459512e-04 1.4641164115e+00 -2.5359240130e+00 1.4641164115e+00 2.5359240130e+00 
71700 5.0957140503e+00 1.0032832108e-04 1.4641129577e+00 -2.5359180308e+00 1.4641129577e+00 2.5359180308e+00 
71800 5.0957140471e+00 9.9528528716e-05 1.4641095315e+00 -2.5359120964e+00 1.4641095315e+00 2.5359120964e+00 
71900 5.0957140440e+00 9.8735165109e-05 1.4641061326e+00 -2.5359062093e+00 1.4641061326e+00 2.5359062093e+00 
72000 5.0957140409e+00 9.7948177795e-05 1.4641027607e+00 -2.5359003690e+00 1.4641027607e+00 2.5359003690e+00 
72100 5.0957140378e+00 9.7167514751e-05 1.4640994157e+00 -2.5358945753e+00 1.4640994157e+00 2.5358945753e+00 
72200 5.0957140348e+00 9.6393124385e-05 1.4640960974e+00 -2.5358888278e+00 1.4640960974e+00 2.5358888278e+00 
72300 5.0957140319e+00 9.5624955543e-05 1.4640928055e+00 -2.5358831261e+00 1.4640928055e+00 2.5358831261e+00 
72400 5.0957140290e+00 9.4862957492e-05 1.4640895398e+00 -2.5358774698e+00 1.4640895398e+00 2.5358774698e+00 
72500 5.0957140261e+00 9.4107079931e-05 1.4640863002e+00 -2.5358718585e+00 1.4640863002e+00 2.5358718585e+00 
72600 5.0957140233e+00 9.3357272976e-05 1.4640830863e+00 -2.5358662920e+00 1.4640830863e+00 2.5358662920e+00 
72700 5.0957140206e+00 9.2613487162e-05 1.4640798981e+00 -2.5358607698e+00 1.4640798981e+00 2.5358607698e+00 
72800 5.0957140179e+00 9.1875673433e-05 1.4640767352e+00 -2.5358552915e+00 1.4640767352e+00 2.5358552915e+00 
72900 5.0957140152e+00 9.1143783147e-05 1.4640735975e+00 -2.5358498569e+00 1.4640735975e+00 2.5358498569e+00 
73000 5.0957140126e+00 9.0417768071e-05 1.4640704849e+00 -2.5358444656e+00 1.4640704849e+00 2.5358444656e+00 
73100 5.0957140100e+00 8.9697580367e-05 1.4640673970e+00 -2.5358391173e+00 1.4640673970e+00 2.5358391173e+00 
73200 5.0957140074e+00 8.8983172604e-05 1.4640643337e+00 -2.5358338115e+00 1.4640643337e+00 2.5358338115e+00 
73300 5.0957140049e+00 8.8274497741e-05 1.4640612948e+00 -2.5358285479e+00 1.4640612948e+00 2.5358285479e+00 
73400 5.0957140025e+00 8.7571509134e-05 1.4640582800e+00 -2.5358233263e+00 1.4640582800e+00 2.5358233263e+00 
73500 5.0957140000e+00 8.6874160526e-05 1.4640552893e+00 -2.5358181462e+00 1.4640552893e+00 2.5358181462e+00 
73600 5.0957139977e+00 8.6182406043e-05 1.4640523224e+00 -2.5358130074e+00 1.4640523224e+00 2.5358130074e+00 
73700 5.0957139953e+00 8.5496200199e-05 1.4640493792e+00 -2.5358079095e+00 1.4640493792e+00 2.5358079095e+00 
73800 5.0957139930e+00 8.4815497881e-05 1.4640464593e+00 -2.5358028522e+00 1.4640464593e+00 2.5358028522e+00 
73900 5.0957139907e+00 8.4140254356e-05 1.4640435627e+00 -2.5357978351e+00 1.4640435627e+00 2.5357978351e+00 
74000 5.0957139885e+00 8.3470425260e-05 1.4640406891e+00 -2.5357928579e+00 1.4640406891e+00 2.5357928579e+00 
74100 5.0957139863e+00 8.2805966602e-05 1.4640378385e+00 -2.5357879204e+00 1.4640378385e+00 2.5357879204e+00 
74200 5.0957139842e+00 8.2146834753e-05 1.4640350105e+00 -2.5357830222e+00 1.4640350105e+00 2.5357830222e+00 
74300 5.0957139820e+00 8.1492986449e-05 1.4640322050e+00 -2.5357781629e+00 1.4640322050e+00 2.5357781629e+00 
74400 5.0957139800e+00 8.0844378786e-05 1.4640294218e+00 -2.5357733423e+00 1.4640294218e+00 2.5357733423e+00 
74500 5.0957139779e+00 8.0200969216e-05 1.4640266608e+00 -2.5357685601e+00 1.4640266608e+00 2.5357685601e+00 
74600 5.0957139759e+00 7.9562715542e-05 1.4640239217e+00 -2.5357638159e+00 1.4640239217e+00 2.5357638159e+00 
74700 5.0957139739e+00 7.8929575923e-05 1.4640212045e+00 -2.5357591095e+00 1.4640212045e+00 2.5357591095e+00 
74800 5.0957139719e+00 7.8301508859e-05 1.4640185088e+00 -2.5357544405e+00 1.4640185088e+00 2.5357544405e+00 
74900 5.0957139700e+00 7.7678473199e-05 1.4640158346e+00 -2.5357498086e+00 1.4640158346e+00 2.5357498086e+00 
75000 5.0957139681e+00 7.7060428131e-05 1.4640131817e+00 -2.5357452136e+00 1.4640131817e+00 2.5357452136e+00 
75100 5.0957139663e+00 7.6447333184e-05 1.4640105499e+00 -2.5357406552e+00 1.4640105499e+00 2.5357406552e+00 
75200 5.0957139644e+00 7.5839148218e-05 1.4640079390e+00 -2.5357361330e+00 1.4640079390e+00 2.5357361330e+00 
75300 5.0957139626e+00 7.5235833431e-05 1.4640053489e+00 -2.5357316468e+00 1.4640053489e+00 2.5357316468e+00 
75400 5.0957139609e+00 7.4637349347e-05 1.4640027793e+00 -2.5357271962e+00 1.4640027793e+00 2.5357271962e+00 
75500 5.0957139591e+00 7.4043656820e-05 1.4640002303e+00 -2.5357227811e+00 1.4640002303e+00 2.5357227811e+00 
75600 5.0957139574e+00 7.3454717025e-05 1.4639977014e+00 -2.5357184011e+00 1.4639977014e+00 2.5357184011e+00 
75700 5.0957139557e+00 7.2870491460e-05 1.4639951927e+00 -2.5357140559e+00 1.4639951927e+00 2.5357140559e+00 
75800 5.0957139541e+00 7.2290941941e-05 1.4639927040e+00 -2.5357097452e+00 1.4639927040e+00 2.5357097452e+00 
75900 5.0957139524e+00 7.1716030602e-05 1.4639902350e+00 -2.5357054688e+00 1.4639902350e+00 2.5357054688e+00 
76000 5.0957139508e+00 7.1145719887e-05 1.4639877857e+00 -2.5357012265e+00 1.4639877857e+00 2.5357012265e+00 
76100 5.0957139493e+00 7.0579972552e-05 1.4639853558e+00 -2.5356970178e+00 1.4639853558e+00 2.5356970178e+00 
76200 5.0957139479e+00 7.1294876305e-05 1.4639853558e+00 -2.5356970178e+00 1.4639853558e+00 2.5356970178e+00 
76300 5.0957139464e+00 7.0720740967e-05 1.4639829209e+00 -2.5356928004e+00 1.4639829209e+00 2.5356928004e+00 
76400 5.0957139449e+00 7.0151048474e-05 1.4639805055e+00 -2.5356886169e+00 1.4639805055e+00 2.5356886169e+00 
76500 5.0957139437e+00 7.0854112900e-05 1.4639805055e+00 -2.5356886169e+00 1.4639805055e+00 2.5356886169e+00 
76600 5.0957139422e+00 7.0275943406e-05 1.4639780856e+00 -2.5356844254e+00 1.4639780856e+00 2.5356844254e+00 
76700 5.0957139410e+00 7.0972709553e-05 1.4639780856e+00 -2.5356844254e+00 1.4639780856e+00 2.5356844254e+00 
76800 5.0957139396e+00 7.0385934499e-05 1.4639756616e+00 -2.5356802270e+00 1.4639756616e+00 2.5356802270e+00 
76900 5.0957139384e+00 7.1076030051e-05 1.4639756616e+00 -2.5356802270e+00 1.4639756616e+00 2.5356802270e+00 
77000 5.0957139371e+00 7.0480573405e-05 1.4639732341e+00 -2.5356760225e+00 1.4639732341e+00 2.5356760225e+00 
77100 5.0957139359e+00 7.1163667230e-05 1.4639732341e+00 -2.5356760225e+00 1.4639732341e+00 2.5356760225e+00 
77200 5.0957139346e+00 7.0559499334e-05 1.4639708036e+00 -2.5356718127e+00 1.4639708036e+00 2.5356718127e+00 
77300 5.0957139335e+00 7.1235297352e-05 1.4639708036e+00 -2.5356718127e+00 1.4639708036e+00 2.5356718127e+00 
77400 5.0957139322e+00 7.0622429578e-05 1.4639683707e+00 -2.5356675987e+00 1.4639683707e+00 2.5356675987e+00 
77500 5.0957139312e+00 7.1290671200e-05 1.4639683707e+00 -2.5356675987e+00 1.4639683707e+00 2.5356675987e+00 
77600 5.0957139299e+00 7.0669151309e-05 1.4639659359e+00 -2.5356633815e+00 1.4639659359e+00 2.5356633815e+00 
77700 5.0957139289e+00 7.1329606358e-05 1.4639659359e+00 -2.5356633815e+00 1.4639659359e+00 2.5356633815e+00 
77800 5.0957139277e+00 7.0699514428e-05 1.4639634997e+00 -2.5356591619e+00 1.4639634997e+00 2.5356591619e+00 
77900 5.0957139268e+00 7.1351980475e-05 1.4639634997e+00 -2.5356591619e+00 1.4639634997e+00 2.5356591619e+00 
78000 5.0957139256e+00 7.0713425323e-05 1.4639610627e+00 -2.5356549410e+00 1.4639610627e+00 2.5356549410e+00 
78100 5.0957139244e+00 7.0079397159e-05 1.4639586476e+00 -2.5356507578e+00 1.4639586476e+00 2.5356507578e+00 
78200 5.0957139235e+00 7.0716800762e-05 1.4639586476e+00 -2.5356507578e+00 1.4639586476e+00 2.5356507578e+00 
78300 5.0957139224e+00 7.0074686949e-05 1.4639562323e+00 -2.5356465745e+00 1.4639562323e+00 2.5356465745e+00 
78400 5.0957139215e+00 7.0703965969e-05 1.4639562323e+00 -2.5356465745e+00 1.4639562323e+00 2.5356465745e+00 
78500 5.0957139206e+00 7.1332022689e-05 1.4639562323e+00 -2.5356465745e+00 1.4639562323e+00 2.5356465745e+00 
78600 5.0957139195e+00 7.0669250604e-05 1.4639537961e+00 -2.5356423547e+00 1.4639537961e+00 2.5356423547e+00 
78700 5.0957139187e+00 7.1288702737e-05 1.4639537961e+00 -2.5356423547e+00 1.4639537961e+00 2.5356423547e+00 
78800 5.0957139177e+00 7.0618079741e-05 1.4639513613e+00 -2.5356381375e+00 1.4639513613e+00 2.5356381375e+00 
78900 5.0957139169e+00 7.1228838077e-05 1.4639513613e+00 -2.5356381375e+00 1.4639513613e+00 2.5356381375e+00 
79000 5.0957139158e+00 7.0550581366e-05 1.4639489285e+00 -2.5356339239e+00 1.4639489285e+00 2.5356339239e+00 
79100 5.0957139151e+00 7.1152573338e-05 1.4639489285e+00 -2.5356339239e+00 1.4639489285e+00 2.5356339239e+00 
79200 5.0957139141e+00 7.0466913602e-05 1.4639464983e+00 -2.5356297147e+00 1.4639464983e+00 2.5356297147e+00 
79300 5.0957139133e+00 7.1060082222e-05 1.4639464983e+00 -2.5356297147e+00 1.4639464983e+00 2.5356297147e+00 
79400 5.0957139124e+00 7.0367262097e-05 1.4639440713e+00 -2.5356255110e+00 1.4639440713e+00 2.5356255110e+00 
79500 5.0957139116e+00 7.0951564984e-05 1.4639440713e+00 -2.5356255110e+00 1.4639440713e+00 2.5356255110e+00 
79600 5.0957139107e+00 7.0251837637e-05 1.4639416480e+00 -2.5356213137e+00 1.4639416480e+00 2.5356213137e+00 
79700 5.0957139100e+00 7.0827246109e-05 1.4639416480e+00 -2.5356213137e+00 1.4639416480e+00 2.5356213137e+00 
79800 5.0957139091e+00 7.0120873931e-05 1.4639392290e+00 -2.5356171238e+00 1.4639392290e+00 2.5356171238e+00 
79900 5.0957139084e+00 7.0687372163e-05 1.4639392290e+00 -2.5356171238e+00 1.4639392290e+00 2.5356171238e+00 
80000 5.0957139078e+00 7.1252308762e-05 1.4639392290e+00 -2.5356171238e+00 1.4639392290e+00 2.5356171238e+00 
80100 5.0957139069e+00 7.0527683148e-05 1.4639367954e+00 -2.5356129087e+00 1.4639367954e+00 2.5356129087e+00 
80200 5.0957139063e+00 7.1083433303e-05 1.4639367954e+00 -2.5356129087e+00 1.4639367954e+00 2.5356129087e+00 
80300 5.0957139054e+00 7.0352699101e-05 1.4639343676e+00 -2.5356087036e+00 1.4639343676e+00 2.5356087036e+00 
80400 5.0957139048e+00 7.0899297354e-05 1.4639343676e+00 -2.5356087036e+00 1.4639343676e+00 2.5356087036e+00 
80500 5.0957139040e+00 7.0162767898e-05 1.4639319460e+00 -2.5356045094e+00 1.4639319460e+00 2.5356045094e+00 
80600 5.0957139034e+00 7.0700256745e-05 1.4639319460e+00 -2.5356045094e+00 1.4639319460e+00 2.5356045094e+00 
80700 5.0957139028e+00 7.1236106096e-05 1.4639319460e+00 -2.5356045094e+00 1.4639319460e+00 2.5356045094e+00 
80800 5.0957139020e+00 7.0482676489e-05 1.4639295130e+00 -2.5356002952e+00 1.4639295130e+00 2.5356002952e+00 
80900 5.0957139015e+00 7.1009219427e-05 1.4639295130e+00 -2.5356002952e+00 1.4639295130e+00 2.5356002952e+00 
81000 5.0957139007e+00 7.0250630457e-05 1.4639270877e+00 -2.5355960945e+00 1.4639270877e+00 2.5355960945e+00 
81100 5.0957139002e+00 7.0767949536e-05 1.4639270877e+00 -2.5355960945e+00 1.4639270877e+00 2.5355960945e+00 
81200 5.0957138994e+00 7.0004544931e-05 1.4639246707e+00 -2.5355919080e+00 1.4639246707e+00 2.5355919080e+00 
81300 5.0957138989e+00 7.0512727138e-05 1.4639246707e+00 -2.5355919080e+00 1.4639246707e+00 2.5355919080e+00 
81400 5.0957138984e+00 7.1019264778e-05 1.4639246707e+00 -2.5355919080e+00 1.4639246707e+00 2.5355919080e+00 
81500 5.0957138977e+00 7.0240498857e-05 1.4639222450e+00 -2.5355877067e+00 1.4639222450e+00 2.5355877067e+00 
81600 5.0957138972e+00 7.0737764026e-05 1.4639222450e+00 -2.5355877067e+00 1.4639222450e+00 2.5355877067e+00 
81700 5.0957138965e+00 6.9954874882e-05 1.4639198290e+00 -2.5355835220e+00 1.4639198290e+00 2.5355835220e+00 
81800 5.0957138960e+00 7.0442986914e-05 1.4639198290e+00 -2.5355835220e+00 1.4639198290e+00 2.5355835220e+00 
81900 5.0957138956e+00 7.0929455154e-05 1.4639198290e+00 -2.5355835220e+00 1.4639198290e+00 2.5355835220e+00 
82000 5.0957138949e+00 7.0132285642e-05 1.4639174064e+00 -2.5355793260e+00 1.4639174064e+00 2.5355793260e+00 
82100 5.0957138944e+00 7.0609508982e-05 1.4639174064e+00 -2.5355793260e+00 1.4639174064e+00 2.5355793260e+00 
82200 5.0957138940e+00 7.1085059056e-05 1.4639174064e+00 -2.5355793260e+00 1.4639174064e+00 2.5355793260e+00 
82300 5.0957138933e+00 7.0274155992e-05 1.4639149785e+00 -2.5355751207e+00 1.4639149785e+00 2.5355751207e+00 
82400 5.0957138929e+00 7.0740404426e-05 1.4639149785e+00 -2.5355751207e+00 1.4639149785e+00 2.5355751207e+00 
82500 5.0957138923e+00 6.9926510422e-05 1.4639125623e+00 -2.5355709358e+00 1.4639125623e+00 2.5355709358e+00 
82600 5.0957138919e+00 7.0383623790e-05 1.4639125623e+00 -2.5355709358e+00 1.4639125623e+00 2.5355709358e+00 
82700 5.0957138915e+00 7.0839117147e-05 1.4639125623e+00 -2.5355709358e+00 1.4639125623e+00 2.5355709358e+00 
82800 5.0957138909e+00 7.0012691964e-05 1.4639101428e+00 -2.5355667451e+00 1.4639101428e+00 2.5355667451e+00 
82900 5.0957138905e+00 7.0459022064e-05 1.4639101428e+00 -2.5355667451e+00 1.4639101428e+00 2.5355667451e+00 
83000 5.0957138901e+00 7.0903728652e-05 1.4639101428e+00 -2.5355667451e+00 1.4639101428e+00 2.5355667451e+00 
83100 5.0957138895e+00 7.0065368942e-05 1.4639077211e+00 -2.5355625506e+00 1.4639077211e+00 2.5355625506e+00 
83200 5.0957138892e+00 7.0500911528e-05 1.4639077211e+00 -2.5355625506e+00 1.4639077211e+00 2.5355625506e+00 
83300 5.0957138888e+00 7.0934838449e-05 1.4639077211e+00 -2.5355625506e+00 1.4639077211e+00 2.5355625506e+00 
83400 5.0957138882e+00 7.0085166947e-05 1.4639052983e+00 -2.5355583542e+00 1.4639052983e+00 2.5355583542e+00 
83500 5.0957138879e+00 7.0509952887e-05 1.4639052983e+00 -2.5355583542e+00 1.4639052983e+00 2.5355583542e+00 
83600 5.0957138876e+00 7.0933140690e-05 1.4639052983e+00 -2.5355583542e+00 1.4639052983e+00 2.5355583542e+00 
83700 5.0957138870e+00 7.0072799451e-05 1.4639028756e+00 -2.5355541579e+00 1.4639028756e+00 2.5355541579e+00 
83800 5.0957138867e+00 7.0486889935e-05 1.4639028756e+00 -2.5355541579e+00 1.4639028756e+00 2.5355541579e+00 
83900 5.0957138864e+00 7.0899408074e-05 1.4639028756e+00 -2.5355541579e+00 1.4639028756e+00 2.5355541579e+00 
84000 5.0957138858e+00 7.0029052746e-05 1.4639004540e+00 -2.5355499636e+00 1.4639004540e+00 2.5355499636e+00 
84100 5.0957138855e+00 7.0432535183e-05 1.4639004540e+00 -2.5355499636e+00 1.4639004540e+00 2.5355499636e+00 
84200 5.0957138852e+00 7.0834478117e-05 1.4639004540e+00 -2.5355499636e+00 1.4639004540e+00 2.5355499636e+00 
84300 5.0957138847e+00 6.9954773053e-05 1.4638980346e+00 -2.5355457731e+00 1.4638980346e+00 2.5355457731e+00 
84400 5.0957138844e+00 7.0347757526e-05 1.4638980346e+00 -2.5355457731e+00 1.4638980346e+00 2.5355457731e+00 
84500 5.0957138841e+00 7.0739241333e-05 1.4638980346e+00 -2.5355457731e+00 1.4638980346e+00 2.5355457731e+00 
84600 5.0957138836e+00 6.9850855413e-05 1.4638956185e+00 -2.5355415882e+00 1.4638956185e+00 2.5355415882e+00 
84700 5.0957138834e+00 7.0233471585e-05 1.4638956185e+00 -2.5355415882e+00 1.4638956185e+00 2.5355415882e+00 
84800 5.0957138831e+00 7.0614631009e-05 1.4638956185e+00 -2.5355415882e+00 1.4638956185e+00 2.5355415882e+00 
84900 5.0957138828e+00 7.0994271822e-05 1.4638956185e+00 -2.5355415882e+00 1.4638956185e+00 2.5355415882e+00 
85000 5.0957138824e+00 7.0089444468e-05 1.4638931937e+00 -2.5355373883e+00 1.4638931937e+00 2.5355373883e+00 
85100 5.0957138821e+00 7.0460176696e-05 1.4638931937e+00 -2.5355373883e+00 1.4638931937e+00 2.5355373883e+00 
85200 5.0957138819e+00 7.0829449952e-05 1.4638931937e+00 -2.5355373883e+00 1.4638931937e+00 2.5355373883e+00 
85300 5.0957138814e+00 6.9917309114e-05 1.4638907744e+00 -2.5355331981e+00 1.4638907744e+00 2.5355331981e+00 
85400 5.0957138812e+00 7.0277808473e-05 1.4638907744e+00 -2.5355331981e+00 1.4638907744e+00 2.5355331981e+00 
85500 5.0957138809e+00 7.0636910158e-05 1.4638907744e+00 -2.5355331981e+00 1.4638907744e+00 2.5355331981e+00 
85600 5.0957138807e+00 7.0994557392e-05 1.4638907744e+00 -2.5355331981e+00 1.4638907744e+00 2.5355331981e+00 
85700 5.0957138802e+00 7.0067836798e-05 1.4638883496e+00 -2.5355289981e+00 1.4638883496e+00 2.5355289981e+00 
85800 5.0957138800e+00 7.0416717795e-05 1.4638883496e+00 -2.5355289981e+00 1.4638883496e+00 2.5355289981e+00 
85900 5.0957138798e+00 7.0764217660e-05 1.4638883496e+00 -2.5355289981e+00 1.4638883496e+00 2.5355289981e+00 
86000 5.0957138794e+00 6.9831599359e-05 1.4638859326e+00 -2.5355248117e+00 1.4638859326e+00 2.5355248117e+00 
86100 5.0957138792e+00 7.0170498153e-05 1.4638859326e+00 -2.5355248117e+00 1.4638859326e+00 2.5355248117e+00 
86200 5.0957138790e+00 7.0508088509e-05 1.4638859326e+00 -2.5355248117e+00 1.4638859326e+00 2.5355248117e+00 
86300 5.0957138788e+00 7.0844317115e-05 1.4638859326e+00 -2.5355248117e+00 1.4638859326e+00 2.5355248117e+00 
86400 5.0957138783e+00 6.9899022492e-05 1.4638835129e+00 -2.5355206206e+00 1.4638835129e+00 2.5355206206e+00 
86500 5.0957138781e+00 7.0226691884e-05 1.4638835129e+00 -2.5355206206e+00 1.4638835129e+00 2.5355206206e+00 
86600 5.0957138780e+00 7.0553081688e-05 1.4638835129e+00 -2.5355206206e+00 1.4638835129e+00 2.5355206206e+00 
86700 5.0957138778e+00 7.0878141296e-05 1.4638835129e+00 -2.5355206206e+00 1.4638835129e+00 2.5355206206e+00 
86800 5.0957138774e+00 6.9921119433e-05 1.4638810920e+00 -2.5355164275e+00 1.4638810920e+00 2.5355164275e+00 
86900 5.0957138772e+00 7.0237687638e-05 1.4638810920e+00 -2.5355164275e+00 1.4638810920e+00 2.5355164275e+00 
87000 5.0957138770e+00 7.0553015111e-05 1.4638810920e+00 -2.5355164275e+00 1.4638810920e+00 2.5355164275e+00 
87100 5.0957138768e+00 7.0867053363e-05 1.4638810920e+00 -2.5355164275e+00 1.4638810920e+00 2.5355164275e+00 
87200 5.0957138764e+00 6.9899271511e-05 1.4638786714e+00 -2.5355122351e+00 1.4638786714e+00 2.5355122351e+00 
87300 5.0957138763e+00 7.0204907010e-05 1.4638786714e+00 -2.5355122351e+00 1.4638786714e+00 2.5355122351e+00 
87400 5.0957138761e+00 7.0509348364e-05 1.4638786714e+00 -2.5355122351e+00 1.4638786714e+00 2.5355122351e+00 
87500 5.0957138760e+00 7.0812548750e-05 1.4638786714e+00 -2.5355122351e+00 1.4638786714e+00 2.5355122351e+00 
87600 5.0957138756e+00 6.9834980963e-05 1.4638762528e+00 -2.5355080458e+00 1.4638762528e+00 2.5355080458e+00 
87700 5.0957138754e+00 7.0129884041e-05 1.4638762528e+00 -2.5355080458e+00 1.4638762528e+00 2.5355080458e+00 
87800 5.0957138753e+00 7.0423645494e-05 1.4638762528e+00 -2.5355080458e+00 1.4638762528e+00 2.5355080458e+00 
87900 5.0957138751e+00 7.0716219815e-05 1.4638762528e+00 -2.5355080458e+00 1.4638762528e+00 2.5355080458e+00 
88000 5.0957138748e+00 6.9729838089e-05 1.4638738374e+00 -2.5355038623e+00 1.4638738374e+00 2.5355038623e+00 
88100 5.0957138746e+00 7.0014234088e-05 1.4638738374e+00 -2.5355038623e+00 1.4638738374e+00 2.5355038623e+00 
88200 5.0957138745e+00 7.0297545485e-05 1.4638738374e+00 -2.5355038623e+00 1.4638738374e+00 2.5355038623e+00 
88300 5.0957138744e+00 7.0579727806e-05 1.4638738374e+00 -2.5355038623e+00 1.4638738374e+00 2.5355038623e+00 
88400 5.0957138742e+00 7.0860739232e-05 1.4638738374e+00 -2.5355038623e+00 1.4638738374e+00 2.5355038623e+00 
88500 5.0957138739e+00 6.9860223921e-05 1.4638714171e+00 -2.5354996702e+00 1.4638714171e+00 2.5354996702e+00 
88600 5.0957138737e+00 7.0133087966e-05 1.4638714171e+00 -2.5354996702e+00 1.4638714171e+00 2.5354996702e+00 
88700 5.0957138736e+00 7.0404893828e-05 1.4638714171e+00 -2.5354996702e+00 1.4638714171e+00 2.5354996702e+00 
88800 5.0957138735e+00 7.0675599863e-05 1.4638714171e+00 -2.5354996702e+00 1.4638714171e+00 2.5354996702e+00 
88900 5.0957138734e+00 7.0945166904e-05 1.4638714171e+00 -2.5354996702e+00 1.4638714171e+00 2.5354996702e+00 
89000 5.0957138730e+00 6.9931735945e-05 1.4638689939e+00 -2.5354954730e+00 1.4638689939e+00 2.5354954730e+00 
89100 5.0957138729e+00 7.0193219884e-05 1.4638689939e+00 -2.5354954730e+00 1.4638689939e+00 2.5354954730e+00 
89200 5.0957138728e+00 7.0453684842e-05 1.4638689939e+00 -2.5354954730e+00 1.4638689939e+00 2.5354954730e+00 
89300 5.0957138727e+00 7.0713091228e-05 1.4638689939e+00 -2.5354954730e+00 1.4638689939e+00 2.5354954730e+00 
89400 5.0957138724e+00 6.9693786870e-05 1.4638665786e+00 -2.5354912897e+00 1.4638665786e+00 2.5354912897e+00 
89500 5.0957138722e+00 6.9945288455e-05 1.4638665786e+00 -2.5354912897e+00 1.4638665786e+00 2.5354912897e+00 
89600 5.0957138721e+00 7.0195849666e-05 1.4638665786e+00 -2.5354912897e+00 1.4638665786e+00 2.5354912897e+00 
89700 5.0957138720e+00 7.0445430631e-05 1.4638665786e+00 -2.5354912897e+00 1.4638665786e+00 2.5354912897e+00 
89800 5.0957138719e+00 7.0693993846e-05 1.4638665786e+00 -2.5354912897e+00 1.4638665786e+00 2.5354912897e+00 
89900 5.0957138718e+00 7.0941504032e-05 1.4638665786e+00 -2.5354912897e+00 1.4638665786e+00 2.5354912897e+00 
90000 5.0957138715e+00 6.9906208576e-05 1.4638641555e+00 -2.5354870928e+00 1.4638641555e+00 2.5354870928e+00 
90100 5.0957138714e+00 7.0145818462e-05 1.4638641555e+00 -2.5354870928e+00 1.4638641555e+00 2.5354870928e+00 
90200 5.0957138713e+00 7.0384505587e-05 1.4638641555e+00 -2.5354870928e+00 1.4638641555e+00 2.5354870928e+00 
90300 5.0957138712e+00 7.0622233366e-05 1.4638641555e+00 -2.5354870928e+00 1.4638641555e+00 2.5354870928e+00 
90400 5.0957138712e+00 7.0858967382e-05 1.4638641555e+00 -2.5354870928e+00 1.4638641555e+00 2.5354870928e+00 
90500 5.0957138708e+00 6.9814463881e-05 1.4638617353e+00 -2.5354829007e+00 1.4638617353e+00 2.5354829007e+00 
90600 5.0957138708e+00 7.0043425116e-05 1.4638617353e+00 -2.5354829007e+00 1.4638617353e+00 2.5354829007e+00 
90700 5.0957138707e+00 7.0271524916e-05 1.4638617353e+00 -2.5354829007e+00 1.4638617353e+00 2.5354829007e+00 
90800 5.0957138706e+00 7.0498727391e-05 1.4638617353e+00 -2.5354829007e+00 1.4638617353e+00 2.5354829007e+00 
90900 5.0957138705e+00 7.0724998779e-05 1.4638617353e+00 -2.5354829007e+00 1.4638617353e+00 2.5354829007e+00 
91000 5.0957138702e+00 6.9672532269e-05 1.4638593196e+00 -2.5354787166e+00 1.4638593196e+00 2.5354787166e+00 
91100 5.0957138701e+00 6.9891168742e-05 1.4638593196e+00 -2.5354787166e+00 1.4638593196e+00 2.5354787166e+00 
91200 5.0957138700e+00 7.0109007764e-05 1.4638593196e+00 -2.5354787166e+00 1.4638593196e+00 2.5354787166e+00 
91300 5.0957138700e+00 7.0326013968e-05 1.4638593196e+00 -2.5354787166e+00 1.4638593196e+00 2.5354787166e+00 
91400 5.0957138699e+00 7.0542154077e-05 1.4638593196e+00 -2.5354787166e+00 1.4638593196e+00 2.5354787166e+00 
91500 5.0957138698e+00 7.0757396775e-05 1.4638593196e+00 -2.5354787166e+00 1.4638593196e+00 2.5354787166e+00 
91600 5.0957138695e+00 6.9693371114e-05 1.4638569027e+00 -2.5354745306e+00 1.4638569027e+00 2.5354745306e+00 
91700 5.0957138695e+00 6.9901050291e-05 1.4638569027e+00 -2.5354745306e+00 1.4638569027e+00 2.5354745306e+00 
91800 5.0957138694e+00 7.0107972223e-05 1.4638569027e+00 -2.5354745306e+00 1.4638569027e+00 2.5354745306e+00 
91900 5.0957138693e+00 7.0314103411e-05 1.4638569027e+00 -2.5354745306e+00 1.4638569027e+00 2.5354745306e+00 
92000 5.0957138693e+00 7.0519412332e-05 1.4638569027e+00 -2.5354745306e+00 1.4638569027e+00 2.5354745306e+00 
92100 5.0957138692e+00 7.0723869306e-05 1.4638569027e+00 -2.5354745306e+00 1.4638569027e+00 2.5354745306e+00 
92200 5.0957138689e+00 6.9649728374e-05 1.4638544871e+00 -2.5354703465e+00 1.4638544871e+00 2.5354703465e+00 
92300 5.0957138689e+00 6.9846719909e-05 1.4638544871e+00 -2.5354703465e+00 1.4638544871e+00 2.5354703465e+00 
92400 5.0957138688e+00 7.0043003890e-05 1.4638544871e+00 -2.5354703465e+00 1.4638544871e+00 2.5354703465e+00 
92500 5.0957138687e+00 7.0238548085e-05 1.4638544871e+00 -2.5354703465e+00 1.4638544871e+00 2.5354703465e+00 
92600 5.0957138687e+00 7.0433322162e-05 1.4638544871e+00 -2.5354703465e+00 1.4638544871e+00 2.5354703465e+00 
92700 5.0957138686e+00 7.0627297557e-05 1.4638544871e+00 -2.5354703465e+00 1.4638544871e+00 2.5354703465e+00 
92800 5.0957138686e+00 7.0820447369e-05 1.4638544871e+00 -2.5354703465e+00 1.4638544871e+00 2.5354703465e+00 
92900 5.0957138683e+00 6.9733303485e-05 1.4638520681e+00 -2.5354661567e+00 1.4638520681e+00 2.5354661567e+00 
93000 5.0957138682e+00 6.9919040398e-05 1.4638520681e+00 -2.5354661567e+00 1.4638520681e+00 2.5354661567e+00 
93100 5.0957138682e+00 7.0104103755e-05 1.4638520681e+00 -2.5354661567e+00 1.4638520681e+00 2.5354661567e+00 
93200 5.0957138681e+00 7.0288463467e-05 1.4638520681e+00 -2.5354661567e+00 1.4638520681e+00 2.5354661567e+00 
93300 5.0957138681e+00 7.0472091205e-05 1.4638520681e+00 -2.5354661567e+00 1.4638520681e+00 2.5354661567e+00 
93400 5.0957138680e+00 7.0654960295e-05 1.4638520681e+00 -2.5354661567e+00 1.4638520681e+00 2.5354661567e+00 
93500 5.0957138680e+00 7.0837045613e-05 1.4638520681e+00 -2.5354661567e+00 1.4638520681e+00 2.5354661567e+00 
93600 5.0957138677e+00 6.9738599466e-05 1.4638496486e+00 -2.5354619660e+00 1.4638496486e+00 2.5354619660e+00 
93700 5.0957138677e+00 6.9913359027e-05 1.4638496486e+00 -2.5354619660e+00 1.4638496486e+00 2.5354619660e+00 
93800 5.0957138676e+00 7.0087491625e-05 1.4638496486e+00 -2.5354619660e+00 1.4638496486e+00 2.5354619660e+00 
93900 5.0957138676e+00 7.0260968562e-05 1.4638496486e+00 -2.5354619660e+00 1.4638496486e+00 2.5354619660e+00 
94000 5.0957138675e+00 7.0433762825e-05 1.4638496486e+00 -2.5354619660e+00 1.4638496486e+00 2.5354619660e+00 
94100 5.0957138675e+00 7.0605848978e-05 1.4638496486e+00 -2.5354619660e+00 1.4638496486e+00 2.5354619660e+00 
94200 5.0957138675e+00 7.0777203062e-05 1.4638496486e+00 -2.5354619660e+00 1.4638496486e+00 2.5354619660e+00 
94300 5.0957138672e+00 6.9669176835e-05 1.4638472311e+00 -2.5354577787e+00 1.4638472311e+00 2.5354577787e+00 
94400 5.0957138672e+00 6.9833316562e-05 1.4638472311e+00 -2.5354577787e+00 1.4638472311e+00 2.5354577787e+00 
94500 5.0957138671e+00 6.9996883959e-05 1.4638472311e+00 -2.5354577787e+00 1.4638472311e+00 2.5354577787e+00 
94600 5.0957138671e+00 7.0159851259e-05 1.4638472311e+00 -2.5354577787e+00 1.4638472311e+00 2.5354577787e+00 
94700 5.0957138670e+00 7.0322192325e-05 1.4638472311e+00 -2.5354577787e+00 1.4638472311e+00 2.5354577787e+00 
94800 5.0957138670e+00 7.0483882545e-05 1.4638472311e+00 -2.5354577787e+00 1.4638472311e+00 2.5354577787e+00 
94900 5.0957138670e+00 7.0644898739e-05 1.4638472311e+00 -2.5354577787e+00 1.4638472311e+00 2.5354577787e+00 
95000 5.0957138669e+00 7.0805219063e-05 1.4638472311e+00 -2.5354577787e+00 1.4638472311e+00 2.5354577787e+00 
95100 5.0957138667e+00 6.9685709964e-05 1.4638448126e+00 -2.5354535898e+00 1.4638448126e+00 2.5354535898e+00 
95200 5.0957138666e+00 6.9838891858e-05 1.4638448126e+00 -2.5354535898e+00 1.4638448126e+00 2.5354535898e+00 
95300 5.0957138666e+00 6.9991543325e-05 1.4638448126e+00 -2.5354535898e+00 1.4638448126e+00 2.5354535898e+00 
95400 5.0957138666e+00 7.0143638244e-05 1.4638448126e+00 -2.5354535898e+00 1.4638448126e+00 2.5354535898e+00 
95500 5.0957138665e+00 7.0295152029e-05 1.4638448126e+00 -2.5354535898e+00 1.4638448126e+00 2.5354535898e+00 
95600 5.0957138665e+00 7.0446061529e-05 1.4638448126e+00 -2.5354535898e+00 1.4638448126e+00 2.5354535898e+00 
95700 5.0957138665e+00 7.0596344938e-05 1.4638448126e+00 -2.5354535898e+00 1.4638448126e+00 2.5354535898e+00 
95800 5.0957138665e+00 7.0745981707e-05 1.4638448126e+00 -2.5354535898e+00 1.4638448126e+00 2.5354535898e+00 
95900 5.0957138662e+00 6.9616926901e-05 1.4638423962e+00 -2.5354494044e+00 1.4638423962e+00 2.5354494044e+00 
96000 5.0957138662e+00 6.9759531991e-05 1.4638423962e+00 -2.5354494044e+00 1.4638423962e+00 2.5354494044e+00 
96100 5.0957138661e+00 6.9901659151e-05 1.4638423962e+00 -2.5354494044e+00 1.4638423962e+00 2.5354494044e+00 
96200 5.0957138661e+00 7.0043283287e-05 1.4638423962e+00 -2.5354494044e+00 1.4638423962e+00 2.5354494044e+00 
96300 5.0957138661e+00 7.0184380781e-05 1.4638423962e+00 -2.5354494044e+00 1.4638423962e+00 2.5354494044e+00 
96400 5.0957138661e+00 7.0324929394e-05 1.4638423962e+00 -2.5354494044e+00 1.4638423962e+00 2.5354494044e+00 
96500 5.0957138660e+00 7.0464908176e-05 1.4638423962e+00 -2.5354494044e+00 1.4638423962e+00 2.5354494044e+00 
96600 5.0957138660e+00 7.0604297389e-05 1.4638423962e+00 -2.5354494044e+00 1.4638423962e+00 2.5354494044e+00 
96700 5.0957138660e+00 7.0743078424e-05 1.4638423962e+00 -2.5354494044e+00 1.4638423962e+00 2.5354494044e+00 
96800 5.0957138657e+00 6.9603278890e-05 1.4638399798e+00 -2.5354452192e+00 1.4638399798e+00 2.5354452192e+00 
96900 5.0957138657e+00 6.9735110705e-05 1.4638399798e+00 -2.5354452192e+00 1.4638399798e+00 2.5354452192e+00 
97000 5.0957138657e+00 6.9866508197e-05 1.4638399798e+00 -2.5354452192e+00 1.4638399798e+00 2.5354452192e+00 
97100 5.0957138657e+00 6.9997447788e-05 1.4638399798e+00 -2.5354452192e+00 1.4638399798e+00 2.5354452192e+00 
97200 5.0957138657e+00 7.0127907287e-05 1.4638399798e+00 -2.5354452192e+00 1.4638399798e+00 2.5354452192e+00 
97300 5.0957138656e+00 7.0257865799e-05 1.4638399798e+00 -2.5354452192e+00 1.4638399798e+00 2.5354452192e+00 
97400 5.0957138656e+00 7.0387303640e-05 1.4638399798e+00 -2.5354452192e+00 1.4638399798e+00 2.5354452192e+00 
97500 5.0957138656e+00 7.0516202262e-05 1.4638399798e+00 -2.5354452192e+00 1.4638399798e+00 2.5354452192e+00 
97600 5.0957138656e+00 7.0644544181e-05 1.4638399798e+00 -2.5354452192e+00 1.4638399798e+00 2.5354452192e+00 
97700 5.0957138656e+00 7.0772312909e-05 1.4638399798e+00 -2.5354452192e+00 1.4638399798e+00 2.5354452192e+00 
97800 5.0957138653e+00 6.9621028767e-05 1.4638375625e+00 -2.5354410322e+00 1.4638375625e+00 2.5354410322e+00 
97900 5.0957138653e+00 6.9741921709e-05 1.4638375625e+00 -2.5354410322e+00 1.4638375625e+00 2.5354410322e+00 
98000 5.0957138653e+00 6.9791345426e-05 1.4638375625e+00 -2.5354410322e+00 1.4638375625e+00 2.5354410322e+00 
98000 5.0957138653e+00 6.9791345426e-05 1.4638375625e+00 -2.5354410322e+00 1.4638375625e+00 2.5354410322e+00 
