# step Hamiltonian StressXX CellTensor1 CellTensor2 CellTensor3 CellTensor4 
0 4.9616341547e+00 1.3573107697e-01 2.0436807272e+00 -3.5397588540e+00 2.0436807272e+00 3.5397588540e+00 
100 4.9678621722e+00 1.3858948325e-01 2.0436807272e+00 -3.5397588540e+00 2.0436807272e+00 3.5397588540e+00 
200 4.9729027326e+00 1.3993586147e-01 2.0402909830e+00 -3.5338876448e+00 2.0402909830e+00 3.5338876448e+00 
300 4.9771011122e+00 1.4038399826e-01 2.0368626339e+00 -3.5279495700e+00 2.0368626339e+00 3.5279495700e+00 
400 4.9804156674e+00 1.3991922167e-01 2.0334175232e+00 -3.5219824632e+00 2.0334175232e+00 3.5219824632e+00 
500 4.9828578023e+00 1.3858276192e-01 2.0299780009e+00 -3.5160250358e+00 2.0299780009e+00 3.5160250358e+00 
600 4.9844845996e+00 1.3646654066e-01 2.0265655536e+00 -3.5101145037e+00 2.0265655536e+00 3.5101145037e+00 
700 4.9853871043e+00 1.3370042826e-01 2.0231995463e+00 -3.5042844080e+00 2.0231995463e+00 3.5042844080e+00 
800 4.9856763838e+00 1.3043483654e-01 2.0198962642e+00 -3.4985629556e+00 2.0198962642e+00 3.4985629556e+00 
900 4.9854699025e+00 1.2682265315e-01 2.0166683749e+00 -3.4929720873e+00 2.0166683749e+00 3.4929720873e+00 
1000 4.9848803368e+00 1.2300417384e-01 2.0135248326e+00 -3.4875273124e+00 2.0135248326e+00 3.4875273124e+00 
1100 4.9840079909e+00 1.1909721421e-01 2.0104711572e+00 -3.4822381913e+00 2.0104711572e+00 3.4822381913e+00 
1200 4.9829369209e+00 1.1519279623e-01 2.0075099625e+00 -3.4771092518e+00 2.0075099625e+00 3.4771092518e+00 
1300 4.9817341144e+00 1.1135543912e-01 2.0046416002e+00 -3.4721411025e+00 2.0046416002e+00 3.4721411025e+00 
1400 4.9804507293e+00 1.0762645093e-01 2.0018648024e+00 -3.4673315476e+00 2.0018648024e+00 3.4673315476e+00 
1500 4.9791244230e+00 1.0402863035e-01 1.9991772500e+00 -3.4626765703e+00 1.9991772500e+00 3.4626765703e+00 
1600 4.9777820250e+00 1.0057116841e-01 1.9965760290e+00 -3.4581711233e+00 1.9965760290e+00 3.4581711233e+00 
1700 4.9764420784e+00 9.7254017297e-02 1.9940579681e+00 -3.4538097141e+00 1.9940579681e+00 3.4538097141e+00 
1800 4.9751170143e+00 9.4071401416e-02 1.9916198703e+00 -3.4495868046e+00 1.9916198703e+00 3.4495868046e+00 
1900 4.9738148866e+00 9.1014422099e-02 1.9892586569e+00 -3.4454970632e+00 1.9892586569e+00 3.4454970632e+00 
2000 4.9725406869e+00 8.8072858823e-02 1.9869714491e+00 -3.4415355031e+00 1.9869714491e+00 3.4415355031e+00 
2100 4.9712973062e+00 8.5236329376e-02 1.9847556028e+00 -3.4376975447e+00 1.9847556028e+00 3.4376975447e+00 
2200 4.9700862178e+00 8.2494976103e-02 1.9826087152e+00 -3.4339790263e+00 1.9826087152e+00 3.4339790263e+00 
2300 4.9689079525e+00 7.9839823101e-02 1.9805286141e+00 -3.4303761854e+00 1.9805286141e+00 3.4303761854e+00 
2400 4.9677624235e+00 7.7262918009e-02 1.9785133373e+00 -3.4268856236e+00 1.9785133373e+00 3.4268856236e+00 
2500 4.9666491464e+00 7.4757341631e-02 1.9765611089e+00 -3.4235042649e+00 1.9765611089e+00 3.4235042649e+00 
2600 4.9655673862e+00 7.2317143002e-02 1.9746703146e+00 -3.4202293131e+00 1.9746703146e+00 3.4202293131e+00 
2700 4.9645162557e+00 6.9937237901e-02 1.9728394785e+00 -3.4170582119e+00 1.9728394785e+00 3.4170582119e+00 
2800 4.9634947806e+00 6.7613294575e-02 1.9710672421e+00 -3.4139886085e+00 1.9710672421e+00 3.4139886085e+00 
2900 4.9625019429e+00 6.5341620679e-02 1.9693523468e+00 -3.4110183227e+00 1.9693523468e+00 3.4110183227e+00 
3000 4.9615367091e+00 6.3119058958e-02 1.9676936178e+00 -3.4081453197e+00 1.9676936178e+00 3.4081453197e+00 
3100 4.9605980492e+00 6.0942895096e-02 1.9660899515e+00 -3.4053676883e+00 1.9660899515e+00 3.4053676883e+00 
3200 4.9596849488e+00 5.8810778708e-02 1.9645403052e+00 -3.4026836221e+00 1.9645403052e+00 3.4026836221e+00 
3300 4.9587964175e+00 5.6720657022e-02 1.9630436877e+00 -3.4000914046e+00 1.9630436877e+00 3.4000914046e+00 
3400 4.9579314934e+00 5.4670720097e-02 1.9615991530e+00 -3.3975893971e+00 1.9615991530e+00 3.3975893971e+00 
3500 4.9570892467e+00 5.2659356115e-02 1.9602057939e+00 -3.3951760283e+00 1.9602057939e+00 3.3951760283e+00 
3600 4.9562687809e+00 5.0685115242e-02 1.9588627375e+00 -3.3928497864e+00 1.9588627375e+00 3.3928497864e+00 
3700 4.9554692337e+00 4.8746680629e-02 1.9575691417e+00 -3.3906092128e+00 1.9575691417e+00 3.3906092128e+00 
3800 4.9546897774e+00 4.6842845278e-02 1.9563241918e+00 -3.3884528963e+00 1.9563241918e+00 3.3884528963e+00 
3900 4.9539296179e+00 4.4972493657e-02 1.9551270982e+00 -3.3863794693e+00 1.9551270982e+00 3.3863794693e+00 
4000 4.9531879947e+00 4.3134587149e-02 1.9539770941e+00 -3.3843876039e+00 1.9539770941e+00 3.3843876039e+00 
4100 4.9524641792e+00 4.1328152535e-02 1.9528734342e+00 -3.3824760088e+00 1.9528734342e+00 3.3824760088e+00 
4200 4.9517574745e+00 3.9552272899e-02 1.9518153928e+00 -3.3806434274e+00 1.9518153928e+00 3.3806434274e+00 
4300 4.9510672134e+00 3.7806080432e-02 1.9508022630e+00 -3.3788886350e+00 1.9508022630e+00 3.3788886350e+00 
4400 4.9503927579e+00 3.6088750715e-02 1.9498333552e+00 -3.3772104375e+00 1.9498333552e+00 3.3772104375e+00 
4500 4.9497334974e+00 3.4399498179e-02 1.9489079968e+00 -3.3756076697e+00 1.9489079968e+00 3.3756076697e+00 
4600 4.9490888477e+00 3.2737572449e-02 1.9480255308e+00 -3.3740791937e+00 1.9480255308e+00 3.3740791937e+00 
4700 4.9484582500e+00 3.1102255402e-02 1.9471853155e+00 -3.3726238981e+00 1.9471853155e+00 3.3726238981e+00 
4800 4.9478411690e+00 2.9492858755e-02 1.9463867236e+00 -3.3712406964e+00 1.9463867236e+00 3.3712406964e+00 
4900 4.9472370924e+00 2.7908722070e-02 1.9456291417e+00 -3.3699285261e+00 1.9456291417e+00 3.3699285261e+00 
5000 4.9466455295e+00 2.6349211086e-02 1.9449119699e+00 -3.3686863482e+00 1.9449119699e+00 3.3686863482e+00 
5100 4.9460660099e+00 2.4813716290e-02 1.9442346210e+00 -3.3675131454e+00 1.9442346210e+00 3.3675131454e+00 
5200 4.9454980828e+00 2.3301651679e-02 1.9435965201e+00 -3.3664079222e+00 1.9435965201e+00 3.3664079222e+00 
5300 4.9449413155e+00 2.1812453669e-02 1.9429971042e+00 -3.3653697033e+00 1.9429971042e+00 3.3653697033e+00 
5400 4.9443952930e+00 2.0345580121e-02 1.9424358217e+00 -3.3643975336e+00 1.9424358217e+00 3.3643975336e+00 
5500 4.9438596168e+00 1.8900509451e-02 1.9419121322e+00 -3.3634904768e+00 1.9419121322e+00 3.3634904768e+00 
5600 4.9433339039e+00 1.7476739808e-02 1.9414255056e+00 -3.3626476149e+00 1.9414255056e+00 3.3626476149e+00 
5700 4.9428177862e+00 1.6073788317e-02 1.9409754223e+00 -3.3618680477e+00 1.9409754223e+00 3.3618680477e+00 
5800 4.9423109095e+00 1.4691190353e-02 1.9405613724e+00 -3.3611508921e+00 1.9405613724e+00 3.3611508921e+00 
5900 4.9418129332e+00 1.3328498868e-02 1.9401828553e+00 -3.3604952813e+00 1.9401828553e+00 3.3604952813e+00 
6000 4.9413235289e+00 1.1985283735e-02 1.9398393798e+00 -3.3599003643e+00 1.9398393798e+00 3.3599003643e+00 
6100 4.9408423804e+00 1.0661131131e-02 1.9395304633e+00 -3.3593653053e+00 1.9395304633e+00 3.3593653053e+00 
6200 4.9403691829e+00 9.3556429354e-03 1.9392556319e+00 -3.3588892833e+00 1.9392556319e+00 3.3588892833e+00 
6300 4.9399036422e+00 8.0684361530e-03 1.9390144195e+00 -3.3584714912e+00 1.9390144195e+00 3.3584714912e+00 
6400 4.9394454744e+00 6.7991423600e-03 1.9388063681e+00 -3.3581111357e+00 1.9388063681e+00 3.3581111357e+00 
6500 4.9389944053e+00 5.5474071643e-03 1.9386310273e+00 -3.3578074364e+00 1.9386310273e+00 3.3578074364e+00 
6600 4.9385501700e+00 4.3128896862e-03 1.9384879537e+00 -3.3575596256e+00 1.9384879537e+00 3.3575596256e+00 
6700 4.9381125123e+00 3.0952620547e-03 1.9383767111e+00 -3.3573669478e+00 1.9383767111e+00 3.3573669478e+00 
6800 4.9376811844e+00 1.8942089214e-03 1.9382968700e+00 -3.3572286590e+00 1.9382968700e+00 3.3572286590e+00 
6900 4.9372559466e+00 7.0942698936e-04 1.9382480075e+00 -3.3571440267e+00 1.9382480075e+00 3.3571440267e+00 
7000 4.9368365667e+00 -4.5937544195e-04 1.9382297068e+00 -3.3571123289e+00 1.9382297068e+00 3.3571123289e+00 
7100 4.9364228198e+00 -1.6124789167e-03 1.9382415572e+00 -3.3571328544e+00 1.9382415572e+00 3.3571328544e+00 
7200 4.9360144880e+00 -2.7501532480e-03 1.9382831538e+00 -3.3572049018e+00 1.9382831538e+00 3.3572049018e+00 
7300 4.9356113600e+00 -3.8726579290e-03 1.9383540973e+00 -3.3573277795e+00 1.9383540973e+00 3.3573277795e+00 
7400 4.9352132309e+00 -4.9802425292e-03 1.9384539936e+00 -3.3575008051e+00 1.9384539936e+00 3.3575008051e+00 
7500 4.9348199020e+00 -6.0731470782e-03 1.9385824542e+00 -3.3577233053e+00 1.9385824542e+00 3.3577233053e+00 
7600 4.9344311804e+00 -7.1516024349e-03 1.9387390952e+00 -3.3579946154e+00 1.9387390952e+00 3.3579946154e+00 
7700 4.9340468788e+00 -8.2158306442e-03 1.9389235376e+00 -3.3583140791e+00 1.9389235376e+00 3.3583140791e+00 
7800 4.9336668153e+00 -9.2660452816e-03 1.9391354072e+00 -3.3586810481e+00 1.9391354072e+00 3.3586810481e+00 
7900 4.9332908133e+00 -1.0302451784e-02 1.9393743342e+00 -3.3590948818e+00 1.9393743342e+00 3.3590948818e+00 
8000 4.9329187014e+00 -1.1325247771e-02 1.9396399531e+00 -3.3595549471e+00 1.9396399531e+00 3.3595549471e+00 
8100 4.9325503126e+00 -1.2334623350e-02 1.9399319024e+00 -3.3600606182e+00 1.9399319024e+00 3.3600606182e+00 
8200 4.9321854850e+00 -1.3330761419e-02 1.9402498249e+00 -3.3606112761e+00 1.9402498249e+00 3.3606112761e+00 
8300 4.9318240611e+00 -1.4313837945e-02 1.9405933671e+00 -3.3612063087e+00 1.9405933671e+00 3.3612063087e+00 
8400 4.9314658877e+00 -1.5284022248e-02 1.9409621794e+00 -3.3618451102e+00 1.9409621794e+00 3.3618451102e+00 
8500 4.9311108159e+00 -1.6241477260e-02 1.9413559155e+00 -3.3625270812e+00 1.9413559155e+00 3.3625270812e+00 
8600 4.9307587010e+00 -1.7186359784e-02 1.9417742329e+00 -3.3632516282e+00 1.9417742329e+00 3.3632516282e+00 
8700 4.9304094023e+00 -1.8118820743e-02 1.9422167924e+00 -3.3640181638e+00 1.9422167924e+00 3.3640181638e+00 
8800 4.9300627828e+00 -1.9039005411e-02 1.9426832580e+00 -3.3648261059e+00 1.9426832580e+00 3.3648261059e+00 
8900 4.9297187094e+00 -1.9947053647e-02 1.9431732968e+00 -3.3656748781e+00 1.9431732968e+00 3.3656748781e+00 
9000 4.9293770528e+00 -2.0843100114e-02 1.9436865792e+00 -3.3665639092e+00 1.9436865792e+00 3.3665639092e+00 
9100 4.9290376870e+00 -2.1727274492e-02 1.9442227783e+00 -3.3674926332e+00 1.9442227783e+00 3.3674926332e+00 
9200 4.9287004898e+00 -2.2599701680e-02 1.9447815701e+00 -3.3684604890e+00 1.9447815701e+00 3.3684604890e+00 
9300 4.9283653420e+00 -2.3460501996e-02 1.9453626334e+00 -3.3694669203e+00 1.9453626334e+00 3.3694669203e+00 
9400 4.9280321282e+00 -2.4309791366e-02 1.9459656499e+00 -3.3705113754e+00 1.9459656499e+00 3.3705113754e+00 
9500 4.9277007358e+00 -2.5147681506e-02 1.9465903036e+00 -3.3715933073e+00 1.9465903036e+00 3.3715933073e+00 
9600 4.9273710558e+00 -2.5974280100e-02 1.9472362811e+00 -3.3727121732e+00 1.9472362811e+00 3.3727121732e+00 
9700 4.9270429819e+00 -2.6789690969e-02 1.9479032716e+00 -3.3738674346e+00 1.9479032716e+00 3.3738674346e+00 
9800 4.9267164111e+00 -2.7594014235e-02 1.9485909666e+00 -3.3750585573e+00 1.9485909666e+00 3.3750585573e+00 
9900 4.9263912432e+00 -2.8387346482e-02 1.9492990599e+00 -3.3762850109e+00 1.9492990599e+00 3.3762850109e+00 
10000 4.9260673811e+00 -2.9169780903e-02 1.9500272476e+00 -3.3775462690e+00 1.9500272476e+00 3.3775462690e+00 
10100 4.9257447304e+00 -2.9941407453e-02 1.9507752281e+00 -3.3788418092e+00 1.9507752281e+00 3.3788418092e+00 
10200 4.9254231996e+00 -3.0702312985e-02 1.9515427017e+00 -3.3801711124e+00 1.9515427017e+00 3.3801711124e+00 
10300 4.9251026999e+00 -3.1452581394e-02 1.9523293710e+00 -3.3815336636e+00 1.9523293710e+00 3.3815336636e+00 
10400 4.9247831452e+00 -3.2192293744e-02 1.9531349406e+00 -3.3829289511e+00 1.9531349406e+00 3.3829289511e+00 
10500 4.9244644520e+00 -3.2921528396e-02 1.9539591170e+00 -3.3843564666e+00 1.9539591170e+00 3.3843564666e+00 
10600 4.9241465395e+00 -3.3640361136e-02 1.9548016089e+00 -3.3858157053e+00 1.9548016089e+00 3.3858157053e+00 
10700 4.9238293294e+00 -3.4348865287e-02 1.9556621266e+00 -3.3873061657e+00 1.9556621266e+00 3.3873061657e+00 
10800 4.9235127460e+00 -3.5047111831e-02 1.9565403825e+00 -3.3888273495e+00 1.9565403825e+00 3.3888273495e+00 
10900 4.9231967158e+00 -3.5735169515e-02 1.9574360906e+00 -3.3903787616e+00 1.9574360906e+00 3.3903787616e+00 
11000 4.9228811680e+00 -3.6413104961e-02 1.9583489671e+00 -3.3919599099e+00 1.9583489671e+00 3.3919599099e+00 
11100 4.9225660342e+00 -3.7080982771e-02 1.9592787295e+00 -3.3935703056e+00 1.9592787295e+00 3.3935703056e+00 
11200 4.9222512482e+00 -3.7738865623e-02 1.9602250973e+00 -3.3952094628e+00 1.9602250973e+00 3.3952094628e+00 
11300 4.9219367461e+00 -3.8386814374e-02 1.9611877916e+00 -3.3968768983e+00 1.9611877916e+00 3.3968768983e+00 
11400 4.9216224663e+00 -3.9024888150e-02 1.9621665354e+00 -3.3985721322e+00 1.9621665354e+00 3.3985721322e+00 
11500 4.9213083496e+00 -3.9653144437e-02 1.9631610530e+00 -3.4002946872e+00 1.9631610530e+00 3.4002946872e+00 
11600 4.9209943389e+00 -4.0271639172e-02 1.9641710705e+00 -3.4020440889e+00 1.9641710705e+00 3.4020440889e+00 
11700 4.9206803791e+00 -4.0880426824e-02 1.9651963158e+00 -3.4038198657e+00 1.9651963158e+00 3.4038198657e+00 
11800 4.9203664174e+00 -4.1479560480e-02 1.9662365180e+00 -3.4056215488e+00 1.9662365180e+00 3.4056215488e+00 
11900 4.9200524031e+00 -4.2069091924e-02 1.9672914080e+00 -3.4074486720e+00 1.9672914080e+00 3.4074486720e+00 
12000 4.9197382875e+00 -4.2649071714e-02 1.9683607184e+00 -3.4093007718e+00 1.9683607184e+00 3.4093007718e+00 
12100 4.9194240240e+00 -4.3219549254e-02 1.9694441829e+00 -3.4111773875e+00 1.9694441829e+00 3.4111773875e+00 
12200 4.9191095680e+00 -4.3780572872e-02 1.9705415372e+00 -3.4130780609e+00 1.9705415372e+00 3.4130780609e+00 
12300 4.9187948767e+00 -4.4332189888e-02 1.9716525182e+00 -3.4150023364e+00 1.9716525182e+00 3.4150023364e+00 
12400 4.9184799095e+00 -4.4874446678e-02 1.9727768644e+00 -3.4169497612e+00 1.9727768644e+00 3.4169497612e+00 
12500 4.9181646276e+00 -4.5407388748e-02 1.9739143158e+00 -3.4189198848e+00 1.9739143158e+00 3.4189198848e+00 
12600 4.9178489939e+00 -4.5931060790e-02 1.9750646139e+00 -3.4209122594e+00 1.9750646139e+00 3.4209122594e+00 
12700 4.9175329733e+00 -4.6445506750e-02 1.9762275015e+00 -3.4229264399e+00 1.9762275015e+00 3.4229264399e+00 
12800 4.9172165327e+00 -4.6950769883e-02 1.9774027232e+00 -3.4249619835e+00 1.9774027232e+00 3.4249619835e+00 
12900 4.9168996404e+00 -4.7446892816e-02 1.9785900247e+00 -3.4270184501e+00 1.9785900247e+00 3.4270184501e+00 
13000 4.9165822667e+00 -4.7933917601e-02 1.9797891534e+00 -3.4290954019e+00 1.9797891534e+00 3.4290954019e+00 
13100 4.9162643837e+00 -4.8411885769e-02 1.9809998581e+00 -3.4311924039e+00 1.9809998581e+00 3.4311924039e+00 
13200 4.9159459648e+00 -4.8880838387e-02 1.9822218889e+00 -3.4333090235e+00 1.9822218889e+00 3.4333090235e+00 
13300 4.9156269856e+00 -4.9340816105e-02 1.9834549977e+00 -3.4354448305e+00 1.9834549977e+00 3.4354448305e+00 
13400 4.9153074230e+00 -4.9791859209e-02 1.9846989374e+00 -3.4375993973e+00 1.9846989374e+00 3.4375993973e+00 
13500 4.9149872556e+00 -5.0234007666e-02 1.9859534627e+00 -3.4397722989e+00 1.9859534627e+00 3.4397722989e+00 
13600 4.9146664635e+00 -5.0667301172e-02 1.9872183296e+00 -3.4419631126e+00 1.9872183296e+00 3.4419631126e+00 
13700 4.9143450285e+00 -5.1091779199e-02 1.9884932956e+00 -3.4441714185e+00 1.9884932956e+00 3.4441714185e+00 
13800 4.9140229338e+00 -5.1507481035e-02 1.9897781196e+00 -3.4463967989e+00 1.9897781196e+00 3.4463967989e+00 
13900 4.9137001642e+00 -5.1914445828e-02 1.9910725619e+00 -3.4486388388e+00 1.9910725619e+00 3.4486388388e+00 
14000 4.9133767059e+00 -5.2312712628e-02 1.9923763845e+00 -3.4508971257e+00 1.9923763845e+00 3.4508971257e+00 
14100 4.9130525466e+00 -5.2702320424e-02 1.9936893506e+00 -3.4531712498e+00 1.9936893506e+00 3.4531712498e+00 
14200 4.9127276754e+00 -5.3083308185e-02 1.9950112251e+00 -3.4554608035e+00 1.9950112251e+00 3.4554608035e+00 
14300 4.9124020828e+00 -5.3455714894e-02 1.9963417741e+00 -3.4577653819e+00 1.9963417741e+00 3.4577653819e+00 
14400 4.9120757606e+00 -5.3819579586e-02 1.9976807654e+00 -3.4600845829e+00 1.9976807654e+00 3.4600845829e+00 
14500 4.9117487020e+00 -5.4174941379e-02 1.9990279682e+00 -3.4624180067e+00 1.9990279682e+00 3.4624180067e+00 
14600 4.9114209014e+00 -5.4521839511e-02 2.0003831533e+00 -3.4647652561e+00 2.0003831533e+00 3.4647652561e+00 
14700 4.9110923548e+00 -5.4860313371e-02 2.0017460928e+00 -3.4671259366e+00 2.0017460928e+00 3.4671259366e+00 
14800 4.9107630590e+00 -5.5190402528e-02 2.0031165606e+00 -3.4694996564e+00 2.0031165606e+00 3.4694996564e+00 
14900 4.9104330124e+00 -5.5512146760e-02 2.0044943317e+00 -3.4718860260e+00 2.0044943317e+00 3.4718860260e+00 
15000 4.9101022145e+00 -5.5825586086e-02 2.0058791831e+00 -3.4742846589e+00 2.0058791831e+00 3.4742846589e+00 
15100 4.9097706659e+00 -5.6130760790e-02 2.0072708929e+00 -3.4766951711e+00 2.0072708929e+00 3.4766951711e+00 
15200 4.9094383684e+00 -5.6427711448e-02 2.0086692411e+00 -3.4791171812e+00 2.0086692411e+00 3.4791171812e+00 
15300 4.9091053249e+00 -5.6716478955e-02 2.0100740091e+00 -3.4815503107e+00 2.0100740091e+00 3.4815503107e+00 
15400 4.9087715395e+00 -5.6997104545e-02 2.0114849797e+00 -3.4839941835e+00 2.0114849797e+00 3.4839941835e+00 
15500 4.9084370174e+00 -5.7269629817e-02 2.0129019376e+00 -3.4864484266e+00 2.0129019376e+00 3.4864484266e+00 
15600 4.9081017647e+00 -5.7534096757e-02 2.0143246689e+00 -3.4889126695e+00 2.0143246689e+00 3.4889126695e+00 
15700 4.9077657886e+00 -5.7790547755e-02 2.0157529612e+00 -3.4913865444e+00 2.0157529612e+00 3.4913865444e+00 
15800 4.9074290973e+00 -5.8039025631e-02 2.0171866040e+00 -3.4938696865e+00 2.0171866040e+00 3.4938696865e+00 
15900 4.9070917000e+00 -5.8279573649e-02 2.0186253881e+00 -3.4963617336e+00 2.0186253881e+00 3.4963617336e+00 
16000 4.9067536069e+00 -5.8512235533e-02 2.0200691060e+00 -3.4988623265e+00 2.0200691060e+00 3.4988623265e+00 
16100 4.9064148291e+00 -5.8737055491e-02 2.0215175521e+00 -3.5013711086e+00 2.0215175521e+00 3.5013711086e+00 
16200 4.9060753786e+00 -5.8954078225e-02 2.0229705220e+00 -3.5038877264e+00 2.0229705220e+00 3.5038877264e+00 
16300 4.9057352682e+00 -5.9163348945e-02 2.0244278134e+00 -3.5064118291e+00 2.0244278134e+00 3.5064118291e+00 
16400 4.9053945117e+00 -5.9364913389e-02 2.0258892254e+00 -3.5089430689e+00 2.0258892254e+00 3.5089430689e+00 
16500 4.9050531237e+00 -5.9558817828e-02 2.0273545588e+00 -3.5114811009e+00 2.0273545588e+00 3.5114811009e+00 
16600 4.9047111196e+00 -5.9745109086e-02 2.0288236162e+00 -3.5140255829e+00 2.0288236162e+00 3.5140255829e+00 
16700 4.9043685155e+00 -5.9923834542e-02 2.0302962019e+00 -3.5165761761e+00 2.0302962019e+00 3.5165761761e+00 
16800 4.9040253285e+00 -6.0095042149e-02 2.0317721217e+00 -3.5191325442e+00 2.0317721217e+00 3.5191325442e+00 
16900 4.9036815762e+00 -6.0258780436e-02 2.0332511834e+00 -3.5216943543e+00 2.0332511834e+00 3.5216943543e+00 
17000 4.9033372772e+00 -6.0415098522e-02 2.0347331965e+00 -3.5242612761e+00 2.0347331965e+00 3.5242612761e+00 
17100 4.9029924505e+00 -6.0564046118e-02 2.0362179720e+00 -3.5268329827e+00 2.0362179720e+00 3.5268329827e+00 
17200 4.9026471160e+00 -6.0705673539e-02 2.0377053229e+00 -3.5294091500e+00 2.0377053229e+00 3.5294091500e+00 
17300 4.9023012941e+00 -6.0840031704e-02 2.0391950639e+00 -3.5319894572e+00 2.0391950639e+00 3.5319894572e+00 
17400 4.9019550061e+00 -6.0967172145e-02 2.0406870115e+00 -3.5345735862e+00 2.0406870115e+00 3.5345735862e+00 
17500 4.9016082736e+00 -6.1087147009e-02 2.0421809840e+00 -3.5371612225e+00 2.0421809840e+00 3.5371612225e+00 
17600 4.9012611190e+00 -6.1200009061e-02 2.0436768014e+00 -3.5397520543e+00 2.0436768014e+00 3.5397520543e+00 
17700 4.9009135652e+00 -6.1305811687e-02 2.0451742857e+00 -3.5423457731e+00 2.0451742857e+00 3.5423457731e+00 
17800 4.9005656358e+00 -6.1404608896e-02 2.0466732604e+00 -3.5449420736e+00 2.0466732604e+00 3.5449420736e+00 
17900 4.9002173547e+00 -6.1496455319e-02 2.0481735513e+00 -3.5475406536e+00 2.0481735513e+00 3.5475406536e+00 
18000 4.8998687464e+00 -6.1581406208e-02 2.0496749857e+00 -3.5501412142e+00 2.0496749857e+00 3.5501412142e+00 
18100 4.8995198361e+00 -6.1659517439e-02 2.0511773927e+00 -3.5527434595e+00 2.0511773927e+00 3.5527434595e+00 
18200 4.8991706492e+00 -6.1730845507e-02 2.0526806036e+00 -3.5553470971e+00 2.0526806036e+00 3.5553470971e+00 
18300 4.8988212117e+00 -6.1795447524e-02 2.0541844512e+00 -3.5579518376e+00 2.0541844512e+00 3.5579518376e+00 
18400 4.8984715500e+00 -6.1853381215e-02 2.0556887704e+00 -3.5605573949e+00 2.0556887704e+00 3.5605573949e+00 
18500 4.8981216910e+00 -6.1904704917e-02 2.0571933980e+00 -3.5631634863e+00 2.0571933980e+00 3.5631634863e+00 
18600 4.8977716618e+00 -6.1949477572e-02 2.0586981725e+00 -3.5657698323e+00 2.0586981725e+00 3.5657698323e+00 
18700 4.8974214901e+00 -6.1987758720e-02 2.0602029346e+00 -3.5683761566e+00 2.0602029346e+00 3.5683761566e+00 
18800 4.8970712038e+00 -6.2019608498e-02 2.0617075266e+00 -3.5709821864e+00 2.0617075266e+00 3.5709821864e+00 
18900 4.8967208314e+00 -6.2045087628e-02 2.0632117929e+00 -3.5735876521e+00 2.0632117929e+00 3.5735876521e+00 
19000 4.8963704014e+00 -6.2064257411e-02 2.0647155798e+00 -3.5761922875e+00 2.0647155798e+00 3.5761922875e+00 
19100 4.8960199428e+00 -6.2077179722e-02 2.0662187356e+00 -3.5787958296e+00 2.0662187356e+00 3.5787958296e+00 
19200 4.8956694848e+00 -6.2083916997e-02 2.0677211103e+00 -3.5813980190e+00 2.0677211103e+00 3.5813980190e+00 
19300 4.8953190571e+00 -6.2084532224e-02 2.0692225561e+00 -3.5839985994e+00 2.0692225561e+00 3.5839985994e+00 
19400 4.8949686893e+00 -6.2079088938e-02 2.0707229271e+00 -3.5865973181e+00 2.0707229271e+00 3.5865973181e+00 
19500 4.8946184116e+00 -6.2067651205e-02 2.0722220792e+00 -3.5891939258e+00 2.0722220792e+00 3.5891939258e+00 
19600 4.8942682542e+00 -6.2050283611e-02 2.0737198705e+00 -3.5917881763e+00 2.0737198705e+00 3.5917881763e+00 
19700 4.8939182476e+00 -6.2027051255e-02 2.0752161608e+00 -3.5943798272e+00 2.0752161608e+00 3.5943798272e+00 
19800 4.8935684223e+00 -6.1998019731e-02 2.0767108121e+00 -3.5969686392e+00 2.0767108121e+00 3.5969686392e+00 
19900 4.8932188094e+00 -6.1963255119e-02 2.0782036883e+00 -3.5995543765e+00 2.0782036883e+00 3.5995543765e+00 
20000 4.8928694397e+00 -6.1922823972e-02 2.0796946551e+00 -3.6021368069e+00 2.0796946551e+00 3.6021368069e+00 
20100 4.8925203445e+00 -6.1876793298e-02 2.0811835806e+00 -3.6047157015e+00 2.0811835806e+00 3.6047157015e+00 
20200 4.8921715549e+00 -6.1825230549e-02 2.0826703345e+00 -3.6072908347e+00 2.0826703345e+00 3.6072908347e+00 
20300 4.8918231025e+00 -6.1768203609e-02 2.0841547885e+00 -3.6098619846e+00 2.0841547885e+00 3.6098619846e+00 
20400 4.8914750187e+00 -6.1705780770e-02 2.0856368166e+00 -3.6124289325e+00 2.0856368166e+00 3.6124289325e+00 
20500 4.8911273350e+00 -6.1638030726e-02 2.0871162945e+00 -3.6149914633e+00 2.0871162945e+00 3.6149914633e+00 
20600 4.8907800831e+00 -6.1565022551e-02 2.0885930999e+00 -3.6175493654e+00 2.0885930999e+00 3.6175493654e+00 
20700 4.8904332948e+00 -6.1486825685e-02 2.0900671127e+00 -3.6201024304e+00 2.0900671127e+00 3.6201024304e+00 
20800 4.8900870017e+00 -6.1403509917e-02 2.0915382145e+00 -3.6226504536e+00 2.0915382145e+00 3.6226504536e+00 
20900 4.8897412357e+00 -6.1315145365e-02 2.0930062893e+00 -3.6251932336e+00 2.0930062893e+00 3.6251932336e+00 
21000 4.8893960285e+00 -6.1221802462e-02 2.0944712226e+00 -3.6277305725e+00 2.0944712226e+00 3.6277305725e+00 
21100 4.8890514119e+00 -6.1123551939e-02 2.0959329022e+00 -3.6302622758e+00 2.0959329022e+00 3.6302622758e+00 
21200 4.8887074176e+00 -6.1020464802e-02 2.0973912178e+00 -3.6327881526e+00 2.0973912178e+00 3.6327881526e+00 
21300 4.8883640775e+00 -6.0912612318e-02 2.0988460612e+00 -3.6353080152e+00 2.0988460612e+00 3.6353080152e+00 
21400 4.8880214232e+00 -6.0800065993e-02 2.1002973259e+00 -3.6378216795e+00 2.1002973259e+00 3.6378216795e+00 
21500 4.8876794864e+00 -6.0682897556e-02 2.1017449077e+00 -3.6403289647e+00 2.1017449077e+00 3.6403289647e+00 
21600 4.8873382986e+00 -6.0561178938e-02 2.1031887043e+00 -3.6428296937e+00 2.1031887043e+00 3.6428296937e+00 
21700 4.8869978913e+00 -6.0434982254e-02 2.1046286151e+00 -3.6453236924e+00 2.1046286151e+00 3.6453236924e+00 
21800 4.8866582959e+00 -6.0304379782e-02 2.1060645418e+00 -3.6478107904e+00 2.1060645418e+00 3.6478107904e+00 
21900 4.8863195438e+00 -6.0169443943e-02 2.1074963879e+00 -3.6502908207e+00 2.1074963879e+00 3.6502908207e+00 
22000 4.8859816660e+00 -6.0030247282e-02 2.1089240590e+00 -3.6527636195e+00 2.1089240590e+00 3.6527636195e+00 
22100 4.8856446937e+00 -5.9886862450e-02 2.1103474624e+00 -3.6552290265e+00 2.1103474624e+00 3.6552290265e+00 
22200 4.8853086578e+00 -5.9739362179e-02 2.1117665076e+00 -3.6576868849e+00 2.1117665076e+00 3.6576868849e+00 
22300 4.8849735889e+00 -5.9587819265e-02 2.1131811059e+00 -3.6601370411e+00 2.1131811059e+00 3.6601370411e+00 
22400 4.8846395177e+00 -5.9432306550e-02 2.1145911706e+00 -3.6625793447e+00 2.1145911706e+00 3.6625793447e+00 
22500 4.8843064745e+00 -5.9272896893e-02 2.1159966169e+00 -3.6650136491e+00 2.1159966169e+00 3.6650136491e+00 
22600 4.8839744897e+00 -5.9109663161e-02 2.1173973618e+00 -3.6674398105e+00 2.1173973618e+00 3.6674398105e+00 
22700 4.8836435930e+00 -5.8942678200e-02 2.1187933245e+00 -3.6698576887e+00 2.1187933245e+00 3.6698576887e+00 
22800 4.8833138145e+00 -5.8772014817e-02 2.1201844258e+00 -3.6722671469e+00 2.1201844258e+00 3.6722671469e+00 
22900 4.8829851836e+00 -5.8597745761e-02 2.1215705885e+00 -3.6746680512e+00 2.1215705885e+00 3.6746680512e+00 
23000 4.8826577297e+00 -5.8419943701e-02 2.1229517375e+00 -3.6770602713e+00 2.1229517375e+00 3.6770602713e+00 
23100 4.8823314818e+00 -5.8238681205e-02 2.1243277991e+00 -3.6794436800e+00 2.1243277991e+00 3.6794436800e+00 
23200 4.8820064688e+00 -5.8054030724e-02 2.1256987020e+00 -3.6818181534e+00 2.1256987020e+00 3.6818181534e+00 
23300 4.8816827192e+00 -5.7866064565e-02 2.1270643763e+00 -3.6841835707e+00 2.1270643763e+00 3.6841835707e+00 
23400 4.8813602613e+00 -5.7674854876e-02 2.1284247542e+00 -3.6865398144e+00 2.1284247542e+00 3.6865398144e+00 
23500 4.8810391232e+00 -5.7480473624e-02 2.1297797697e+00 -3.6888867700e+00 2.1297797697e+00 3.6888867700e+00 
23600 4.8807193324e+00 -5.7282992577e-02 2.1311293585e+00 -3.6912243265e+00 2.1311293585e+00 3.6912243265e+00 
23700 4.8804009165e+00 -5.7082483279e-02 2.1324734583e+00 -3.6935523756e+00 2.1324734583e+00 3.6935523756e+00 
23800 4.8800839024e+00 -5.6879017039e-02 2.1338120084e+00 -3.6958708123e+00 2.1338120084e+00 3.6958708123e+00 
23900 4.8797683169e+00 -5.6672664902e-02 2.1351449500e+00 -3.6981795348e+00 2.1351449500e+00 3.6981795348e+00 
24000 4.8794541863e+00 -5.6463497640e-02 2.1364722259e+00 -3.7004784443e+00 2.1364722259e+00 3.7004784443e+00 
24100 4.8791415369e+00 -5.6251585722e-02 2.1377937810e+00 -3.7027674448e+00 2.1377937810e+00 3.7027674448e+00 
24200 4.8788303941e+00 -5.6036999305e-02 2.1391095616e+00 -3.7050464437e+00 2.1391095616e+00 3.7050464437e+00 
24300 4.8785207834e+00 -5.5819808210e-02 2.1404195159e+00 -3.7073153511e+00 2.1404195159e+00 3.7073153511e+00 
24400 4.8782127297e+00 -5.5600081904e-02 2.1417235937e+00 -3.7095740801e+00 2.1417235937e+00 3.7095740801e+00 
24500 4.8779062576e+00 -5.5377889485e-02 2.1430217466e+00 -3.7118225469e+00 2.1430217466e+00 3.7118225469e+00 
24600 4.8776013913e+00 -5.5153299661e-02 2.1443139279e+00 -3.7140606705e+00 2.1443139279e+00 3.7140606705e+00 
24700 4.8772981545e+00 -5.4926380735e-02 2.1456000924e+00 -3.7162883728e+00 2.1456000924e+00 3.7162883728e+00 
24800 4.8769965706e+00 -5.4697200586e-02 2.1468801967e+00 -3.7185055785e+00 2.1468801967e+00 3.7185055785e+00 
24900 4.8766966626e+00 -5.4465826652e-02 2.1481541990e+00 -3.7207122152e+00 2.1481541990e+00 3.7207122152e+00 
25000 4.8763984530e+00 -5.4232325917e-02 2.1494220591e+00 -3.7229082134e+00 2.1494220591e+00 3.7229082134e+00 
25100 4.8761019638e+00 -5.3996764891e-02 2.1506837385e+00 -3.7250935061e+00 2.1506837385e+00 3.7250935061e+00 
25200 4.8758072168e+00 -5.3759209595e-02 2.1519392000e+00 -3.7272680293e+00 2.1519392000e+00 3.7272680293e+00 
25300 4.8755142331e+00 -5.3519725547e-02 2.1531884084e+00 -3.7294317215e+00 2.1531884084e+00 3.7294317215e+00 
25400 4.8752230335e+00 -5.3278377747e-02 2.1544313296e+00 -3.7315845242e+00 2.1544313296e+00 3.7315845242e+00 
25500 4.8749336383e+00 -5.3035230659e-02 2.1556679313e+00 -3.7337263813e+00 2.1556679313e+00 3.7337263813e+00 
25600 4.8746460674e+00 -5.2790348200e-02 2.1568981828e+00 -3.7358572393e+00 2.1568981828e+00 3.7358572393e+00 
25700 4.8743603400e+00 -5.2543793727e-02 2.1581220546e+00 -3.7379770475e+00 2.1581220546e+00 3.7379770475e+00 
25800 4.8740764751e+00 -5.2295630020e-02 2.1593395189e+00 -3.7400857575e+00 2.1593395189e+00 3.7400857575e+00 
25900 4.8737944910e+00 -5.2045919270e-02 2.1605505492e+00 -3.7421833236e+00 2.1605505492e+00 3.7421833236e+00 
26000 4.8735144057e+00 -5.1794723067e-02 2.1617551207e+00 -3.7442697026e+00 2.1617551207e+00 3.7442697026e+00 
26100 4.8732362365e+00 -5.1542102390e-02 2.1629532098e+00 -3.7463448538e+00 2.1629532098e+00 3.7463448538e+00 
26200 4.8729600003e+00 -5.1288117591e-02 2.1641447944e+00 -3.7484087388e+00 2.1641447944e+00 3.7484087388e+00 
26300 4.8726857135e+00 -5.1032828383e-02 2.1653298536e+00 -3.7504613216e+00 2.1653298536e+00 3.7504613216e+00 
26400 4.8724133921e+00 -5.0776293836e-02 2.1665083681e+00 -3.7525025686e+00 2.1665083681e+00 3.7525025686e+00 
26500 4.8721430514e+00 -5.0518572359e-02 2.1676803200e+00 -3.7545324488e+00 2.1676803200e+00 3.7545324488e+00 
26600 4.8718747061e+00 -5.0259721694e-02 2.1688456924e+00 -3.7565509329e+00 2.1688456924e+00 3.7565509329e+00 
26700 4.8716083707e+00 -4.9999798904e-02 2.1700044699e+00 -3.7585579946e+00 2.1700044699e+00 3.7585579946e+00 
26800 4.8713440590e+00 -4.9738860365e-02 2.1711566385e+00 -3.7605536091e+00 2.1711566385e+00 3.7605536091e+00 
26900 4.8710817841e+00 -4.9476961759e-02 2.1723021854e+00 -3.7625377544e+00 2.1723021854e+00 3.7625377544e+00 
27000 4.8708215589e+00 -4.9214158062e-02 2.1734410988e+00 -3.7645104103e+00 2.1734410988e+00 3.7645104103e+00 
27100 4.8705633954e+00 -4.8950503539e-02 2.1745733684e+00 -3.7664715589e+00 2.1745733684e+00 3.7664715589e+00 
27200 4.8703073055e+00 -4.8686051735e-02 2.1756989852e+00 -3.7684211843e+00 2.1756989852e+00 3.7684211843e+00 
27300 4.8700533001e+00 -4.8420855471e-02 2.1768179410e+00 -3.7703592727e+00 2.1768179410e+00 3.7703592727e+00 
27400 4.8698013899e+00 -4.8154966832e-02 2.1779302292e+00 -3.7722858123e+00 2.1779302292e+00 3.7722858123e+00 
27500 4.8695515848e+00 -4.7888437167e-02 2.1790358440e+00 -3.7742007934e+00 2.1790358440e+00 3.7742007934e+00 
27600 4.8693038944e+00 -4.7621317080e-02 2.1801347810e+00 -3.7761042080e+00 2.1801347810e+00 3.7761042080e+00 
27700 4.8690583276e+00 -4.7353656426e-02 2.1812270366e+00 -3.7779960503e+00 2.1812270366e+00 3.7779960503e+00 
27800 4.8688148927e+00 -4.7085504305e-02 2.1823126087e+00 -3.7798763162e+00 2.1823126087e+00 3.7798763162e+00 
27900 4.8685735976e+00 -4.6816909059e-02 2.1833914959e+00 -3.7817450036e+00 2.1833914959e+00 3.7817450036e+00 
28000 4.8683344496e+00 -4.6547918271e-02 2.1844636980e+00 -3.7836021121e+00 2.1844636980e+00 3.7836021121e+00 
28100 4.8680974554e+00 -4.6278578754e-02 2.1855292158e+00 -3.7854476432e+00 2.1855292158e+00 3.7854476432e+00 
28200 4.8678626212e+00 -4.6008936558e-02 2.1865880512e+00 -3.7872815998e+00 2.1865880512e+00 3.7872815998e+00 
28300 4.8676299526e+00 -4.5739036957e-02 2.1876402069e+00 -3.7891039871e+00 2.1876402069e+00 3.7891039871e+00 
28400 4.8673994548e+00 -4.5468924457e-02 2.1886856868e+00 -3.7909148114e+00 2.1886856868e+00 3.7909148114e+00 
28500 4.8671711323e+00 -4.5198642788e-02 2.1897244957e+00 -3.7927140810e+00 2.1897244957e+00 3.7927140810e+00 
28600 4.8669449890e+00 -4.4928234904e-02 2.1907566390e+00 -3.7945018058e+00 2.1907566390e+00 3.7945018058e+00 
28700 4.8667210286e+00 -4.4657742984e-02 2.1917821235e+00 -3.7962779970e+00 2.1917821235e+00 3.7962779970e+00 
28800 4.8664992538e+00 -4.4387208431e-02 2.1928009565e+00 -3.7980426676e+00 2.1928009565e+00 3.7980426676e+00 
28900 4.8662796672e+00 -4.4116671870e-02 2.1938131465e+00 -3.7997958320e+00 2.1938131465e+00 3.7997958320e+00 
29000 4.8660622704e+00 -4.3846173152e-02 2.1948187025e+00 -3.8015375061e+00 2.1948187025e+00 3.8015375061e+00 
29100 4.8658470650e+00 -4.3575751350e-02 2.1958176346e+00 -3.8032677072e+00 2.1958176346e+00 3.8032677072e+00 
29200 4.8656340517e+00 -4.3305444766e-02 2.1968099536e+00 -3.8049864542e+00 2.1968099536e+00 3.8049864542e+00 
29300 4.8654232307e+00 -4.3035290928e-02 2.1977956711e+00 -3.8066937670e+00 2.1977956711e+00 3.8066937670e+00 
29400 4.8652146019e+00 -4.2765326595e-02 2.1987747996e+00 -3.8083896672e+00 2.1987747996e+00 3.8083896672e+00 
29500 4.8650081645e+00 -4.2495587756e-02 2.1997473520e+00 -3.8100741775e+00 2.1997473520e+00 3.8100741775e+00 
29600 4.8648039172e+00 -4.2226109637e-02 2.2007133424e+00 -3.8117473220e+00 2.2007133424e+00 3.8117473220e+00 
29700 4.8646018583e+00 -4.1956926699e-02 2.2016727853e+00 -3.8134091259e+00 2.2016727853e+00 3.8134091259e+00 
29800 4.8644019855e+00 -4.1688072645e-02 2.2026256961e+00 -3.8150596156e+00 2.2026256961e+00 3.8150596156e+00 
29900 4.8642042960e+00 -4.1419580424e-02 2.2035720905e+00 -3.8166988190e+00 2.2035720905e+00 3.8166988190e+00 
30000 4.8640087867e+00 -4.1151482231e-02 2.2045119854e+00 -3.8183267647e+00 2.2045119854e+00 3.8183267647e+00 
30100 4.8638154538e+00 -4.0883809517e-02 2.2054453980e+00 -3.8199434827e+00 2.2054453980e+00 3.8199434827e+00 
30200 4.8636242931e+00 -4.0616592987e-02 2.2063723462e+00 -3.8215490041e+00 2.2063723462e+00 3.8215490041e+00 
30300 4.8634352999e+00 -4.0349862612e-02 2.2072928485e+00 -3.8231433608e+00 2.2072928485e+00 3.8231433608e+00 
30400 4.8632484692e+00 -4.0083647627e-02 2.2082069240e+00 -3.8247265860e+00 2.2082069240e+00 3.8247265860e+00 
30500 4.8630637952e+00 -3.9817976541e-02 2.2091145924e+00 -3.8262987138e+00 2.2091145924e+00 3.8262987138e+00 
30600 4.8628812721e+00 -3.9552877144e-02 2.2100158739e+00 -3.8278597791e+00 2.2100158739e+00 3.8278597791e+00 
30700 4.8627008932e+00 -3.9288376508e-02 2.2109107893e+00 -3.8294098181e+00 2.2109107893e+00 3.8294098181e+00 
30800 4.8625226518e+00 -3.9024500997e-02 2.2117993599e+00 -3.8309488675e+00 2.2117993599e+00 3.8309488675e+00 
30900 4.8623465404e+00 -3.8761276271e-02 2.2126816075e+00 -3.8324769652e+00 2.2126816075e+00 3.8324769652e+00 
31000 4.8621725514e+00 -3.8498727295e-02 2.2135575544e+00 -3.8339941498e+00 2.2135575544e+00 3.8339941498e+00 
31100 4.8620006764e+00 -3.8236878344e-02 2.2144272234e+00 -3.8355004607e+00 2.2144272234e+00 3.8355004607e+00 
31200 4.8618309071e+00 -3.7975753012e-02 2.2152906377e+00 -3.8369959381e+00 2.2152906377e+00 3.8369959381e+00 
31300 4.8616632344e+00 -3.7715374218e-02 2.2161478210e+00 -3.8384806230e+00 2.2161478210e+00 3.8384806230e+00 
31400 4.8614976490e+00 -3.7455764210e-02 2.2169987973e+00 -3.8399545573e+00 2.2169987973e+00 3.8399545573e+00 
31500 4.8613341412e+00 -3.7196944582e-02 2.2178435912e+00 -3.8414177832e+00 2.2178435912e+00 3.8414177832e+00 
31600 4.8611727008e+00 -3.6938936272e-02 2.2186822276e+00 -3.8428703441e+00 2.2186822276e+00 3.8428703441e+00 
31700 4.8610133175e+00 -3.6681759574e-02 2.2195147318e+00 -3.8443122837e+00 2.2195147318e+00 3.8443122837e+00 
31800 4.8608559804e+00 -3.6425434149e-02 2.2203411295e+00 -3.8457436464e+00 2.2203411295e+00 3.8457436464e+00 
31900 4.8607006784e+00 -3.6169979027e-02 2.2211614466e+00 -3.8471644773e+00 2.2211614466e+00 3.8471644773e+00 
32000 4.8605474001e+00 -3.5915412620e-02 2.2219757095e+00 -3.8485748220e+00 2.2219757095e+00 3.8485748220e+00 
32100 4.8603961336e+00 -3.5661752730e-02 2.2227839449e+00 -3.8499747268e+00 2.2227839449e+00 3.8499747268e+00 
32200 4.8602468669e+00 -3.5409016556e-02 2.2235861798e+00 -3.8513642384e+00 2.2235861798e+00 3.8513642384e+00 
32300 4.8600995876e+00 -3.5157220703e-02 2.2243824415e+00 -3.8527434041e+00 2.2243824415e+00 3.8527434041e+00 
32400 4.8599542829e+00 -3.4906381192e-02 2.2251727575e+00 -3.8541122716e+00 2.2251727575e+00 3.8541122716e+00 
32500 4.8598109398e+00 -3.4656513469e-02 2.2259571557e+00 -3.8554708892e+00 2.2259571557e+00 3.8554708892e+00 
32600 4.8596695453e+00 -3.4407632412e-02 2.2267356643e+00 -3.8568193055e+00 2.2267356643e+00 3.8568193055e+00 
32700 4.8595300856e+00 -3.4159752342e-02 2.2275083115e+00 -3.8581575697e+00 2.2275083115e+00 3.8581575697e+00 
32800 4.8593925470e+00 -3.3912887031e-02 2.2282751259e+00 -3.8594857313e+00 2.2282751259e+00 3.8594857313e+00 
32900 4.8592569156e+00 -3.3667049712e-02 2.2290361364e+00 -3.8608038402e+00 2.2290361364e+00 3.8608038402e+00 
33000 4.8591231770e+00 -3.3422253087e-02 2.2297913721e+00 -3.8621119467e+00 2.2297913721e+00 3.8621119467e+00 
33100 4.8589913169e+00 -3.3178509338e-02 2.2305408620e+00 -3.8634101014e+00 2.2305408620e+00 3.8634101014e+00 
33200 4.8588613204e+00 -3.2935830135e-02 2.2312846357e+00 -3.8646983552e+00 2.2312846357e+00 3.8646983552e+00 
33300 4.8587331727e+00 -3.2694226646e-02 2.2320227228e+00 -3.8659767595e+00 2.2320227228e+00 3.8659767595e+00 
33400 4.8586068587e+00 -3.2453709544e-02 2.2327551529e+00 -3.8672453657e+00 2.2327551529e+00 3.8672453657e+00 
33500 4.8584823631e+00 -3.2214289021e-02 2.2334819560e+00 -3.8685042257e+00 2.2334819560e+00 3.8685042257e+00 
33600 4.8583596704e+00 -3.1975974793e-02 2.2342031623e+00 -3.8697533915e+00 2.2342031623e+00 3.8697533915e+00 
33700 4.8582387650e+00 -3.1738776111e-02 2.2349188018e+00 -3.8709929155e+00 2.2349188018e+00 3.8709929155e+00 
33800 4.8581196312e+00 -3.1502701770e-02 2.2356289049e+00 -3.8722228502e+00 2.2356289049e+00 3.8722228502e+00 
33900 4.8580022529e+00 -3.1267760120e-02 2.2363335021e+00 -3.8734432483e+00 2.2363335021e+00 3.8734432483e+00 
34000 4.8578866140e+00 -3.1033959071e-02 2.2370326238e+00 -3.8746541627e+00 2.2370326238e+00 3.8746541627e+00 
34100 4.8577726985e+00 -3.0801306109e-02 2.2377263009e+00 -3.8758556465e+00 2.2377263009e+00 3.8758556465e+00 
34200 4.8576604898e+00 -3.0569808297e-02 2.2384145639e+00 -3.8770477530e+00 2.2384145639e+00 3.8770477530e+00 
34300 4.8575499717e+00 -3.0339472291e-02 2.2390974437e+00 -3.8782305355e+00 2.2390974437e+00 3.8782305355e+00 
34400 4.8574411274e+00 -3.0110304346e-02 2.2397749712e+00 -3.8794040476e+00 2.2397749712e+00 3.8794040476e+00 
34500 4.8573339404e+00 -2.9882310325e-02 2.2404471773e+00 -3.8805683428e+00 2.2404471773e+00 3.8805683428e+00 
34600 4.8572283939e+00 -2.9655495709e-02 2.2411140931e+00 -3.8817234748e+00 2.2411140931e+00 3.8817234748e+00 
34700 4.8571244711e+00 -2.9429865605e-02 2.2417757496e+00 -3.8828694975e+00 2.2417757496e+00 3.8828694975e+00 
34800 4.8570221551e+00 -2.9205424756e-02 2.2424321779e+00 -3.8840064647e+00 2.2424321779e+00 3.8840064647e+00 
34900 4.8569214290e+00 -2.8982177549e-02 2.2430834092e+00 -3.8851344303e+00 2.2430834092e+00 3.8851344303e+00 
35000 4.8568222757e+00 -2.8760128023e-02 2.2437294745e+00 -3.8862534483e+00 2.2437294745e+00 3.8862534483e+00 
35100 4.8567246782e+00 -2.8539279880e-02 2.2443704051e+00 -3.8873635726e+00 2.2443704051e+00 3.8873635726e+00 
35200 4.8566286193e+00 -2.8319636492e-02 2.2450062321e+00 -3.8884648573e+00 2.2450062321e+00 3.8884648573e+00 
35300 4.8565340821e+00 -2.8101200907e-02 2.2456369867e+00 -3.8895573564e+00 2.2456369867e+00 3.8895573564e+00 
35400 4.8564410492e+00 -2.7883975863e-02 2.2462627002e+00 -3.8906411239e+00 2.2462627002e+00 3.8906411239e+00 
35500 4.8563495036e+00 -2.7667963792e-02 2.2468834036e+00 -3.8917162138e+00 2.2468834036e+00 3.8917162138e+00 
35600 4.8562594281e+00 -2.7453166829e-02 2.2474991282e+00 -3.8927826800e+00 2.2474991282e+00 3.8927826800e+00 
35700 4.8561708055e+00 -2.7239586822e-02 2.2481099051e+00 -3.8938405766e+00 2.2481099051e+00 3.8938405766e+00 
35800 4.8560836186e+00 -2.7027225337e-02 2.2487157654e+00 -3.8948899574e+00 2.2487157654e+00 3.8948899574e+00 
35900 4.8559978503e+00 -2.6816083667e-02 2.2493167401e+00 -3.8959308763e+00 2.2493167401e+00 3.8959308763e+00 
36000 4.8559134834e+00 -2.6606162843e-02 2.2499128605e+00 -3.8969633869e+00 2.2499128605e+00 3.8969633869e+00 
36100 4.8558305009e+00 -2.6397463636e-02 2.2505041573e+00 -3.8979875431e+00 2.2505041573e+00 3.8979875431e+00 
36200 4.8557488855e+00 -2.6189986568e-02 2.2510906617e+00 -3.8990033985e+00 2.2510906617e+00 3.8990033985e+00 
36300 4.8556686204e+00 -2.5983731920e-02 2.2516724044e+00 -3.9000110065e+00 2.2516724044e+00 3.9000110065e+00 
36400 4.8555896884e+00 -2.5778699737e-02 2.2522494165e+00 -3.9010104206e+00 2.2522494165e+00 3.9010104206e+00 
36500 4.8555120726e+00 -2.5574889836e-02 2.2528217286e+00 -3.9020016942e+00 2.2528217286e+00 3.9020016942e+00 
36600 4.8554357561e+00 -2.5372301816e-02 2.2533893714e+00 -3.9029848805e+00 2.2533893714e+00 3.9029848805e+00 
36700 4.8553607222e+00 -2.5170935059e-02 2.2539523757e+00 -3.9039600326e+00 2.2539523757e+00 3.9039600326e+00 
36800 4.8552869539e+00 -2.4970788742e-02 2.2545107720e+00 -3.9049272034e+00 2.2545107720e+00 3.9049272034e+00 
36900 4.8552144345e+00 -2.4771861843e-02 2.2550645909e+00 -3.9058864457e+00 2.2550645909e+00 3.9058864457e+00 
37000 4.8551431476e+00 -2.4574153145e-02 2.2556138627e+00 -3.9068378124e+00 2.2556138627e+00 3.9068378124e+00 
37100 4.8550730764e+00 -2.4377661245e-02 2.2561586177e+00 -3.9077813558e+00 2.2561586177e+00 3.9077813558e+00 
37200 4.8550042045e+00 -2.4182384558e-02 2.2566988863e+00 -3.9087171285e+00 2.2566988863e+00 3.9087171285e+00 
37300 4.8549365156e+00 -2.3988321327e-02 2.2572346987e+00 -3.9096451827e+00 2.2572346987e+00 3.9096451827e+00 
37400 4.8548699933e+00 -2.3795469625e-02 2.2577660848e+00 -3.9105655704e+00 2.2577660848e+00 3.9105655704e+00 
37500 4.8548046215e+00 -2.3603827364e-02 2.2582930746e+00 -3.9114783436e+00 2.2582930746e+00 3.9114783436e+00 
37600 4.8547403840e+00 -2.3413392299e-02 2.2588156980e+00 -3.9123835539e+00 2.2588156980e+00 3.9123835539e+00 
37700 4.8546772648e+00 -2.3224162033e-02 2.2593339848e+00 -3.9132812530e+00 2.2593339848e+00 3.9132812530e+00 
37800 4.8546152481e+00 -2.3036134026e-02 2.2598479647e+00 -3.9141714922e+00 2.2598479647e+00 3.9141714922e+00 
37900 4.8545543181e+00 -2.2849305599e-02 2.2603576671e+00 -3.9150543227e+00 2.2603576671e+00 3.9150543227e+00 
38000 4.8544944592e+00 -2.2663673936e-02 2.2608631215e+00 -3.9159297955e+00 2.2608631215e+00 3.9159297955e+00 
38100 4.8544356558e+00 -2.2479236095e-02 2.2613643573e+00 -3.9167979613e+00 2.2613643573e+00 3.9167979613e+00 
38200 4.8543778924e+00 -2.2295989007e-02 2.2618614037e+00 -3.9176588709e+00 2.2618614037e+00 3.9176588709e+00 
38300 4.8543211538e+00 -2.2113929488e-02 2.2623542898e+00 -3.9185125746e+00 2.2623542898e+00 3.9185125746e+00 
38400 4.8542654247e+00 -2.1933054237e-02 2.2628430445e+00 -3.9193591226e+00 2.2628430445e+00 3.9193591226e+00 
38500 4.8542106903e+00 -2.1753359844e-02 2.2633276967e+00 -3.9201985648e+00 2.2633276967e+00 3.9201985648e+00 
38600 4.8541569354e+00 -2.1574842797e-02 2.2638082751e+00 -3.9210309510e+00 2.2638082751e+00 3.9210309510e+00 
38700 4.8541041454e+00 -2.1397499480e-02 2.2642848084e+00 -3.9218563309e+00 2.2642848084e+00 3.9218563309e+00 
38800 4.8540523056e+00 -2.1221326185e-02 2.2647573250e+00 -3.9226747537e+00 2.2647573250e+00 3.9226747537e+00 
38900 4.8540014015e+00 -2.1046319110e-02 2.2652258533e+00 -3.9234862685e+00 2.2652258533e+00 3.9234862685e+00 
39000 4.8539514186e+00 -2.0872474366e-02 2.2656904215e+00 -3.9242909242e+00 2.2656904215e+00 3.9242909242e+00 
39100 4.8539023428e+00 -2.0699787983e-02 2.2661510577e+00 -3.9250887696e+00 2.2661510577e+00 3.9250887696e+00 
39200 4.8538541600e+00 -2.0528255909e-02 2.2666077899e+00 -3.9258798529e+00 2.2666077899e+00 3.9258798529e+00 
39300 4.8538068562e+00 -2.0357874017e-02 2.2670606459e+00 -3.9266642226e+00 2.2670606459e+00 3.9266642226e+00 
39400 4.8537604175e+00 -2.0188638110e-02 2.2675096534e+00 -3.9274419264e+00 2.2675096534e+00 3.9274419264e+00 
39500 4.8537148304e+00 -2.0020543920e-02 2.2679548400e+00 -3.9282130122e+00 2.2679548400e+00 3.9282130122e+00 
39600 4.8536700813e+00 -1.9853587118e-02 2.2683962332e+00 -3.9289775275e+00 2.2683962332e+00 3.9289775275e+00 
39700 4.8536261569e+00 -1.9687763310e-02 2.2688338601e+00 -3.9297355196e+00 2.2688338601e+00 3.9297355196e+00 
39800 4.8535830438e+00 -1.9523068046e-02 2.2692677480e+00 -3.9304870355e+00 2.2692677480e+00 3.9304870355e+00 
39900 4.8535407291e+00 -1.9359496820e-02 2.2696979238e+00 -3.9312321219e+00 2.2696979238e+00 3.9312321219e+00 
40000 4.8534991997e+00 -1.9197045076e-02 2.2701244146e+00 -3.9319708256e+00 2.2701244146e+00 3.9319708256e+00 
40100 4.8534584430e+00 -1.9035708208e-02 2.2705472469e+00 -3.9327031927e+00 2.2705472469e+00 3.9327031927e+00 
40200 4.8534184463e+00 -1.8875481564e-02 2.2709664475e+00 -3.9334292694e+00 2.2709664475e+00 3.9334292694e+00 
40300 4.8533791970e+00 -1.8716360450e-02 2.2713820428e+00 -3.9341491014e+00 2.2713820428e+00 3.9341491014e+00 
40400 4.8533406830e+00 -1.8558340129e-02 2.2717940590e+00 -3.9348627345e+00 2.2717940590e+00 3.9348627345e+00 
40500 4.8533028919e+00 -1.8401415829e-02 2.2722025224e+00 -3.9355702139e+00 2.2722025224e+00 3.9355702139e+00 
40600 4.8532658118e+00 -1.8245582741e-02 2.2726074591e+00 -3.9362715848e+00 2.2726074591e+00 3.9362715848e+00 
40700 4.8532294308e+00 -1.8090836024e-02 2.2730088949e+00 -3.9369668920e+00 2.2730088949e+00 3.9369668920e+00 
40800 4.8531937371e+00 -1.7937170807e-02 2.2734068556e+00 -3.9376561802e+00 2.2734068556e+00 3.9376561802e+00 
40900 4.8531587192e+00 -1.7784582189e-02 2.2738013668e+00 -3.9383394936e+00 2.2738013668e+00 3.9383394936e+00 
41000 4.8531243657e+00 -1.7633065243e-02 2.2741924540e+00 -3.9390168765e+00 2.2741924540e+00 3.9390168765e+00 
41100 4.8530906653e+00 -1.7482615021e-02 2.2745801425e+00 -3.9396883727e+00 2.2745801425e+00 3.9396883727e+00 
41200 4.8530576068e+00 -1.7333226548e-02 2.2749644576e+00 -3.9403540259e+00 2.2749644576e+00 3.9403540259e+00 
41300 4.8530251792e+00 -1.7184894833e-02 2.2753454242e+00 -3.9410138794e+00 2.2753454242e+00 3.9410138794e+00 
41400 4.8529933718e+00 -1.7037614866e-02 2.2757230673e+00 -3.9416679765e+00 2.2757230673e+00 3.9416679765e+00 
41500 4.8529621738e+00 -1.6891381618e-02 2.2760974116e+00 -3.9423163599e+00 2.2760974116e+00 3.9423163599e+00 
41600 4.8529315747e+00 -1.6746190048e-02 2.2764684819e+00 -3.9429590724e+00 2.2764684819e+00 3.9429590724e+00 
41700 4.8529015642e+00 -1.6602035101e-02 2.2768363025e+00 -3.9435961564e+00 2.2768363025e+00 3.9435961564e+00 
41800 4.8528721319e+00 -1.6458911711e-02 2.2772008978e+00 -3.9442276541e+00 2.2772008978e+00 3.9442276541e+00 
41900 4.8528432677e+00 -1.6316814801e-02 2.2775622921e+00 -3.9448536073e+00 2.2775622921e+00 3.9448536073e+00 
42000 4.8528149618e+00 -1.6175739286e-02 2.2779205094e+00 -3.9454740578e+00 2.2779205094e+00 3.9454740578e+00 
42100 4.8527872043e+00 -1.6035680073e-02 2.2782755735e+00 -3.9460890470e+00 2.2782755735e+00 3.9460890470e+00 
42200 4.8527599854e+00 -1.5896632064e-02 2.2786275084e+00 -3.9466986161e+00 2.2786275084e+00 3.9466986161e+00 
42300 4.8527332958e+00 -1.5758590156e-02 2.2789763376e+00 -3.9473028061e+00 2.2789763376e+00 3.9473028061e+00 
42400 4.8527071259e+00 -1.5621549244e-02 2.2793220847e+00 -3.9479016576e+00 2.2793220847e+00 3.9479016576e+00 
42500 4.8526814666e+00 -1.5485504217e-02 2.2796647730e+00 -3.9484952111e+00 2.2796647730e+00 3.9484952111e+00 
42600 4.8526563087e+00 -1.5350449968e-02 2.2800044258e+00 -3.9490835070e+00 2.2800044258e+00 3.9490835070e+00 
42700 4.8526316432e+00 -1.5216381384e-02 2.2803410661e+00 -3.9496665851e+00 2.2803410661e+00 3.9496665851e+00 
42800 4.8526074613e+00 -1.5083293359e-02 2.2806747169e+00 -3.9502444852e+00 2.2806747169e+00 3.9502444852e+00 
42900 4.8525837544e+00 -1.4951180783e-02 2.2810054010e+00 -3.9508172469e+00 2.2810054010e+00 3.9508172469e+00 
43000 4.8525605137e+00 -1.4820038553e-02 2.2813331411e+00 -3.9513849094e+00 2.2813331411e+00 3.9513849094e+00 
43100 4.8525377309e+00 -1.4689861566e-02 2.2816579597e+00 -3.9519475118e+00 2.2816579597e+00 3.9519475118e+00 
43200 4.8525153976e+00 -1.4560644728e-02 2.2819798793e+00 -3.9525050928e+00 2.2819798793e+00 3.9525050928e+00 
43300 4.8524935058e+00 -1.4432382945e-02 2.2822989221e+00 -3.9530576911e+00 2.2822989221e+00 3.9530576911e+00 
43400 4.8524720472e+00 -1.4305071132e-02 2.2826151102e+00 -3.9536053450e+00 2.2826151102e+00 3.9536053450e+00 
43500 4.8524510140e+00 -1.4178704209e-02 2.2829284657e+00 -3.9541480926e+00 2.2829284657e+00 3.9541480926e+00 
43600 4.8524303985e+00 -1.4053277103e-02 2.2832390104e+00 -3.9546859718e+00 2.2832390104e+00 3.9546859718e+00 
43700 4.8524101928e+00 -1.3928784751e-02 2.2835467660e+00 -3.9552190201e+00 2.2835467660e+00 3.9552190201e+00 
43800 4.8523903895e+00 -1.3805222096e-02 2.2838517541e+00 -3.9557472751e+00 2.2838517541e+00 3.9557472751e+00 
43900 4.8523709811e+00 -1.3682584090e-02 2.2841539963e+00 -3.9562707739e+00 2.2841539963e+00 3.9562707739e+00 
44000 4.8523519604e+00 -1.3560865695e-02 2.2844535138e+00 -3.9567895535e+00 2.2844535138e+00 3.9567895535e+00 
44100 4.8523333200e+00 -1.3440061883e-02 2.2847503279e+00 -3.9573036506e+00 2.2847503279e+00 3.9573036506e+00 
44200 4.8523150530e+00 -1.3320167635e-02 2.2850444596e+00 -3.9578131016e+00 2.2850444596e+00 3.9578131016e+00 
44300 4.8522971524e+00 -1.3201177945e-02 2.2853359299e+00 -3.9583179430e+00 2.2853359299e+00 3.9583179430e+00 
44400 4.8522796113e+00 -1.3083087815e-02 2.2856247596e+00 -3.9588182106e+00 2.2856247596e+00 3.9588182106e+00 
44500 4.8522624230e+00 -1.2965892260e-02 2.2859109693e+00 -3.9593139404e+00 2.2859109693e+00 3.9593139404e+00 
44600 4.8522455809e+00 -1.2849586308e-02 2.2861945796e+00 -3.9598051679e+00 2.2861945796e+00 3.9598051679e+00 
44700 4.8522290784e+00 -1.2734164996e-02 2.2864756110e+00 -3.9602919286e+00 2.2864756110e+00 3.9602919286e+00 
44800 4.8522129093e+00 -1.2619623377e-02 2.2867540838e+00 -3.9607742576e+00 2.2867540838e+00 3.9607742576e+00 
44900 4.8521970671e+00 -1.2505956512e-02 2.2870300181e+00 -3.9612521898e+00 2.2870300181e+00 3.9612521898e+00 
45000 4.8521815457e+00 -1.2393159480e-02 2.2873034340e+00 -3.9617257599e+00 2.2873034340e+00 3.9617257599e+00 
45100 4.8521663390e+00 -1.2281227368e-02 2.2875743513e+00 -3.9621950026e+00 2.2875743513e+00 3.9621950026e+00 
45200 4.8521514411e+00 -1.2170155281e-02 2.2878427900e+00 -3.9626599520e+00 2.2878427900e+00 3.9626599520e+00 
45300 4.8521368460e+00 -1.2059938334e-02 2.2881087696e+00 -3.9631206422e+00 2.2881087696e+00 3.9631206422e+00 
45400 4.8521225481e+00 -1.1950571658e-02 2.2883723097e+00 -3.9635771071e+00 2.2883723097e+00 3.9635771071e+00 
45500 4.8521085415e+00 -1.1842050394e-02 2.2886334298e+00 -3.9640293803e+00 2.2886334298e+00 3.9640293803e+00 
45600 4.8520948208e+00 -1.1734369702e-02 2.2888921491e+00 -3.9644774953e+00 2.2888921491e+00 3.9644774953e+00 
45700 4.8520813804e+00 -1.1627524753e-02 2.2891484868e+00 -3.9649214853e+00 2.2891484868e+00 3.9649214853e+00 
45800 4.8520682150e+00 -1.1521510732e-02 2.2894024621e+00 -3.9653613833e+00 2.2894024621e+00 3.9653613833e+00 
45900 4.8520553194e+00 -1.1416322839e-02 2.2896540937e+00 -3.9657972220e+00 2.2896540937e+00 3.9657972220e+00 
46000 4.8520426881e+00 -1.1311956288e-02 2.2899034006e+00 -3.9662290342e+00 2.2899034006e+00 3.9662290342e+00 
46100 4.8520303163e+00 -1.1208406309e-02 2.2901504014e+00 -3.9666568522e+00 2.2901504014e+00 3.9666568522e+00 
46200 4.8520181989e+00 -1.1105668144e-02 2.2903951147e+00 -3.9670807081e+00 2.2903951147e+00 3.9670807081e+00 
46300 4.8520063308e+00 -1.1003737051e-02 2.2906375590e+00 -3.9675006339e+00 2.2906375590e+00 3.9675006339e+00 
46400 4.8519947074e+00 -1.0902608302e-02 2.2908777526e+00 -3.9679166614e+00 2.2908777526e+00 3.9679166614e+00 
46500 4.8519833238e+00 -1.0802277184e-02 2.2911157137e+00 -3.9683288221e+00 2.2911157137e+00 3.9683288221e+00 
46600 4.8519721754e+00 -1.0702738999e-02 2.2913514605e+00 -3.9687371475e+00 2.2913514605e+00 3.9687371475e+00 
46700 4.8519612576e+00 -1.0603989063e-02 2.2915850109e+00 -3.9691416687e+00 2.2915850109e+00 3.9691416687e+00 
46800 4.8519505659e+00 -1.0506022706e-02 2.2918163828e+00 -3.9695424166e+00 2.2918163828e+00 3.9695424166e+00 
46900 4.8519400958e+00 -1.0408835274e-02 2.2920455939e+00 -3.9699394219e+00 2.2920455939e+00 3.9699394219e+00 
47000 4.8519298431e+00 -1.0312422128e-02 2.2922726620e+00 -3.9703327153e+00 2.2922726620e+00 3.9703327153e+00 
47100 4.8519198034e+00 -1.0216778643e-02 2.2924976045e+00 -3.9707223272e+00 2.2924976045e+00 3.9707223272e+00 
47200 4.8519099726e+00 -1.0121900208e-02 2.2927204388e+00 -3.9711082876e+00 2.2927204388e+00 3.9711082876e+00 
47300 4.8519003465e+00 -1.0027782227e-02 2.2929411823e+00 -3.9714906265e+00 2.2929411823e+00 3.9714906265e+00 
47400 4.8518909212e+00 -9.9344201206e-03 2.2931598522e+00 -3.9718693738e+00 2.2931598522e+00 3.9718693738e+00 
47500 4.8518816926e+00 -9.8418093216e-03 2.2933764654e+00 -3.9722445590e+00 2.2933764654e+00 3.9722445590e+00 
47600 4.8518726569e+00 -9.7499452787e-03 2.2935910391e+00 -3.9726162114e+00 2.2935910391e+00 3.9726162114e+00 
47700 4.8518638103e+00 -9.6588234548e-03 2.2938035899e+00 -3.9729843604e+00 2.2938035899e+00 3.9729843604e+00 
47800 4.8518551490e+00 -9.5684393278e-03 2.2940141348e+00 -3.9733490348e+00 2.2940141348e+00 3.9733490348e+00 
47900 4.8518466692e+00 -9.4787883900e-03 2.2942226903e+00 -3.9737102634e+00 2.2942226903e+00 3.9737102634e+00 
48000 4.8518383675e+00 -9.3898661481e-03 2.2944292729e+00 -3.9740680750e+00 2.2944292729e+00 3.9740680750e+00 
48100 4.8518302403e+00 -9.3016681235e-03 2.2946338991e+00 -3.9744224980e+00 2.2946338991e+00 3.9744224980e+00 
48200 4.8518222841e+00 -9.2141898524e-03 2.2948365851e+00 -3.9747735605e+00 2.2948365851e+00 3.9747735605e+00 
48300 4.8518144954e+00 -9.1274268849e-03 2.2950373472e+00 -3.9751212906e+00 2.2950373472e+00 3.9751212906e+00 
48400 4.8518068710e+00 -9.0413747860e-03 2.2952362015e+00 -3.9754657163e+00 2.2952362015e+00 3.9754657163e+00 
48500 4.8517994075e+00 -8.9560291350e-03 2.2954331638e+00 -3.9758068652e+00 2.2954331638e+00 3.9758068652e+00 
48600 4.8517921017e+00 -8.8713855257e-03 2.2956282503e+00 -3.9761447647e+00 2.2956282503e+00 3.9761447647e+00 
48700 4.8517849504e+00 -8.7874395661e-03 2.2958214764e+00 -3.9764794423e+00 2.2958214764e+00 3.9764794423e+00 
48800 4.8517779506e+00 -8.7041868786e-03 2.2960128581e+00 -3.9768109250e+00 2.2960128581e+00 3.9768109250e+00 
48900 4.8517710992e+00 -8.6216231002e-03 2.2962024107e+00 -3.9771392399e+00 2.2962024107e+00 3.9771392399e+00 
49000 4.8517643932e+00 -8.5397438817e-03 2.2963901499e+00 -3.9774644136e+00 2.2963901499e+00 3.9774644136e+00 
49100 4.8517578296e+00 -8.4585448886e-03 2.2965760908e+00 -3.9777864727e+00 2.2965760908e+00 3.9777864727e+00 
49200 4.8517514056e+00 -8.3780218006e-03 2.2967602488e+00 -3.9781054438e+00 2.2967602488e+00 3.9781054438e+00 
49300 4.8517451184e+00 -8.2981703114e-03 2.2969426391e+00 -3.9784213529e+00 2.2969426391e+00 3.9784213529e+00 
49400 4.8517389652e+00 -8.2189861292e-03 2.2971232765e+00 -3.9787342262e+00 2.2971232765e+00 3.9787342262e+00 
49500 4.8517329433e+00 -8.1404649762e-03 2.2973021762e+00 -3.9790440896e+00 2.2973021762e+00 3.9790440896e+00 
49600 4.8517270499e+00 -8.0626025888e-03 2.2974793530e+00 -3.9793509687e+00 2.2974793530e+00 3.9793509687e+00 
49700 4.8517212826e+00 -7.9853947178e-03 2.2976548215e+00 -3.9796548890e+00 2.2976548215e+00 3.9796548890e+00 
49800 4.8517156386e+00 -7.9088371277e-03 2.2978285964e+00 -3.9799558760e+00 2.2978285964e+00 3.9799558760e+00 
49900 4.8517101156e+00 -7.8329255977e-03 2.2980006922e+00 -3.9802539548e+00 2.2980006922e+00 3.9802539548e+00 
50000 4.8517047110e+00 -7.7576559206e-03 2.2981711235e+00 -3.9805491504e+00 2.2981711235e+00 3.9805491504e+00 
50100 4.8516994225e+00 -7.6830239038e-03 2.2983399044e+00 -3.9808414876e+00 2.2983399044e+00 3.9808414876e+00 
50200 4.8516942476e+00 -7.6090253684e-03 2.2985070494e+00 -3.9811309911e+00 2.2985070494e+00 3.9811309911e+00 
50300 4.8516891840e+00 -7.5356561500e-03 2.2986725724e+00 -3.9814176854e+00 2.2986725724e+00 3.9814176854e+00 
50400 4.8516842294e+00 -7.4629120979e-03 2.2988364876e+00 -3.9817015947e+00 2.2988364876e+00 3.9817015947e+00 
50500 4.8516793817e+00 -7.3907890759e-03 2.2989988088e+00 -3.9819827434e+00 2.2989988088e+00 3.9819827434e+00 
50600 4.8516746385e+00 -7.3192829618e-03 2.2991595500e+00 -3.9822611553e+00 2.2991595500e+00 3.9822611553e+00 
50700 4.8516699978e+00 -7.2483896474e-03 2.2993187248e+00 -3.9825368542e+00 2.2993187248e+00 3.9825368542e+00 
50800 4.8516654574e+00 -7.1781050387e-03 2.2994763470e+00 -3.9828098638e+00 2.2994763470e+00 3.9828098638e+00 
50900 4.8516610153e+00 -7.1084250560e-03 2.2996324301e+00 -3.9830802076e+00 2.2996324301e+00 3.9830802076e+00 
51000 4.8516566694e+00 -7.0393456336e-03 2.2997869875e+00 -3.9833479089e+00 2.2997869875e+00 3.9833479089e+00 
51100 4.8516524177e+00 -6.9708627199e-03 2.2999400326e+00 -3.9836129908e+00 2.2999400326e+00 3.9836129908e+00 
51200 4.8516482584e+00 -6.9029722776e-03 2.3000915787e+00 -3.9838754764e+00 2.3000915787e+00 3.9838754764e+00 
51300 4.8516441894e+00 -6.8356702837e-03 2.3002416390e+00 -3.9841353884e+00 2.3002416390e+00 3.9841353884e+00 
51400 4.8516402089e+00 -6.7689527291e-03 2.3003902265e+00 -3.9843927495e+00 2.3003902265e+00 3.9843927495e+00 
51500 4.8516363151e+00 -6.7028156194e-03 2.3005373542e+00 -3.9846475823e+00 2.3005373542e+00 3.9846475823e+00 
51600 4.8516325061e+00 -6.6372549740e-03 2.3006830351e+00 -3.9848999090e+00 2.3006830351e+00 3.9848999090e+00 
51700 4.8516287803e+00 -6.5722668269e-03 2.3008272820e+00 -3.9851497518e+00 2.3008272820e+00 3.9851497518e+00 
51800 4.8516251358e+00 -6.5078472263e-03 2.3009701074e+00 -3.9853971328e+00 2.3009701074e+00 3.9853971328e+00 
51900 4.8516215709e+00 -6.4439922348e-03 2.3011115242e+00 -3.9856420737e+00 2.3011115242e+00 3.9856420737e+00 
52000 4.8516180841e+00 -6.3806979293e-03 2.3012515447e+00 -3.9858845964e+00 2.3012515447e+00 3.9858845964e+00 
52100 4.8516146736e+00 -6.3179604013e-03 2.3013901815e+00 -3.9861247224e+00 2.3013901815e+00 3.9861247224e+00 
52200 4.8516113379e+00 -6.2557757565e-03 2.3015274468e+00 -3.9863624730e+00 2.3015274468e+00 3.9863624730e+00 
52300 4.8516080754e+00 -6.1941401153e-03 2.3016633531e+00 -3.9865978694e+00 2.3016633531e+00 3.9865978694e+00 
52400 4.8516048846e+00 -6.1330496124e-03 2.3017979123e+00 -3.9868309328e+00 2.3017979123e+00 3.9868309328e+00 
52500 4.8516017639e+00 -6.0725003973e-03 2.3019311366e+00 -3.9870616841e+00 2.3019311366e+00 3.9870616841e+00 
52600 4.8515987118e+00 -6.0124886339e-03 2.3020630380e+00 -3.9872901440e+00 2.3020630380e+00 3.9872901440e+00 
52700 4.8515957271e+00 -5.9530105008e-03 2.3021936283e+00 -3.9875163332e+00 2.3021936283e+00 3.9875163332e+00 
52800 4.8515928081e+00 -5.8940621914e-03 2.3023229195e+00 -3.9877402720e+00 2.3023229195e+00 3.9877402720e+00 
52900 4.8515899536e+00 -5.8356399136e-03 2.3024509232e+00 -3.9879619809e+00 2.3024509232e+00 3.9879619809e+00 
53000 4.8515871621e+00 -5.7777398904e-03 2.3025776511e+00 -3.9881814800e+00 2.3025776511e+00 3.9881814800e+00 
53100 4.8515844323e+00 -5.7203583592e-03 2.3027031146e+00 -3.9883987893e+00 2.3027031146e+00 3.9883987893e+00 
53200 4.8515817630e+00 -5.6634915726e-03 2.3028273254e+00 -3.9886139286e+00 2.3028273254e+00 3.9886139286e+00 
53300 4.8515791528e+00 -5.6071357980e-03 2.3029502947e+00 -3.9888269177e+00 2.3029502947e+00 3.9888269177e+00 
53400 4.8515766005e+00 -5.5512873177e-03 2.3030720339e+00 -3.9890377762e+00 2.3030720339e+00 3.9890377762e+00 
53500 4.8515741049e+00 -5.4959424291e-03 2.3031925541e+00 -3.9892465233e+00 2.3031925541e+00 3.9892465233e+00 
53600 4.8515716647e+00 -5.4410974447e-03 2.3033118665e+00 -3.9894531785e+00 2.3033118665e+00 3.9894531785e+00 
53700 4.8515692788e+00 -5.3867486920e-03 2.3034299822e+00 -3.9896577609e+00 2.3034299822e+00 3.9896577609e+00 
53800 4.8515669460e+00 -5.3328925136e-03 2.3035469121e+00 -3.9898602893e+00 2.3035469121e+00 3.9898602893e+00 
53900 4.8515646652e+00 -5.2795252676e-03 2.3036626670e+00 -3.9900607827e+00 2.3036626670e+00 3.9900607827e+00 
54000 4.8515624353e+00 -5.2266433271e-03 2.3037772577e+00 -3.9902592597e+00 2.3037772577e+00 3.9902592597e+00 
54100 4.8515602551e+00 -5.1742430805e-03 2.3038906950e+00 -3.9904557389e+00 2.3038906950e+00 3.9904557389e+00 
54200 4.8515581237e+00 -5.1223209319e-03 2.3040029895e+00 -3.9906502387e+00 2.3040029895e+00 3.9906502387e+00 
54300 4.8515560399e+00 -5.0708733004e-03 2.3041141518e+00 -3.9908427773e+00 2.3041141518e+00 3.9908427773e+00 
54400 4.8515540028e+00 -5.0198966209e-03 2.3042241922e+00 -3.9910333729e+00 2.3042241922e+00 3.9910333729e+00 
54500 4.8515520114e+00 -4.9693873437e-03 2.3043331212e+00 -3.9912220434e+00 2.3043331212e+00 3.9912220434e+00 
54600 4.8515500646e+00 -4.9193419347e-03 2.3044409490e+00 -3.9914088068e+00 2.3044409490e+00 3.9914088068e+00 
54700 4.8515481615e+00 -4.8697568753e-03 2.3045476860e+00 -3.9915936806e+00 2.3045476860e+00 3.9915936806e+00 
54800 4.8515463012e+00 -4.8206286630e-03 2.3046533422e+00 -3.9917766824e+00 2.3046533422e+00 3.9917766824e+00 
54900 4.8515444827e+00 -4.7719538105e-03 2.3047579276e+00 -3.9919578298e+00 2.3047579276e+00 3.9919578298e+00 
55000 4.8515427052e+00 -4.7237288467e-03 2.3048614524e+00 -3.9921371399e+00 2.3048614524e+00 3.9921371399e+00 
55100 4.8515409678e+00 -4.6759503163e-03 2.3049639263e+00 -3.9923146299e+00 2.3049639263e+00 3.9923146299e+00 
55200 4.8515392695e+00 -4.6286147796e-03 2.3050653592e+00 -3.9924903169e+00 2.3050653592e+00 3.9924903169e+00 
55300 4.8515376096e+00 -4.5817188132e-03 2.3051657609e+00 -3.9926642177e+00 2.3051657609e+00 3.9926642177e+00 
55400 4.8515359871e+00 -4.5352590096e-03 2.3052651410e+00 -3.9928363491e+00 2.3052651410e+00 3.9928363491e+00 
55500 4.8515344014e+00 -4.4892319772e-03 2.3053635091e+00 -3.9930067277e+00 2.3053635091e+00 3.9930067277e+00 
55600 4.8515328516e+00 -4.4436343407e-03 2.3054608747e+00 -3.9931753699e+00 2.3054608747e+00 3.9931753699e+00 
55700 4.8515313369e+00 -4.3984627409e-03 2.3055572473e+00 -3.9933422921e+00 2.3055572473e+00 3.9933422921e+00 
55800 4.8515298566e+00 -4.3537138347e-03 2.3056526363e+00 -3.9935075106e+00 2.3056526363e+00 3.9935075106e+00 
55900 4.8515284098e+00 -4.3093842954e-03 2.3057470508e+00 -3.9936710414e+00 2.3057470508e+00 3.9936710414e+00 
56000 4.8515269960e+00 -4.2654708125e-03 2.3058405002e+00 -3.9938329005e+00 2.3058405002e+00 3.9938329005e+00 
56100 4.8515256143e+00 -4.2219700918e-03 2.3059329936e+00 -3.9939931037e+00 2.3059329936e+00 3.9939931037e+00 
56200 4.8515242640e+00 -4.1788788556e-03 2.3060245400e+00 -3.9941516668e+00 2.3060245400e+00 3.9941516668e+00 
56300 4.8515229446e+00 -4.1361938426e-03 2.3061151485e+00 -3.9943086052e+00 2.3061151485e+00 3.9943086052e+00 
56400 4.8515216552e+00 -4.0939118079e-03 2.3062048279e+00 -3.9944639345e+00 2.3062048279e+00 3.9944639345e+00 
56500 4.8515203952e+00 -4.0520295231e-03 2.3062935871e+00 -3.9946176700e+00 2.3062935871e+00 3.9946176700e+00 
56600 4.8515191641e+00 -4.0105437766e-03 2.3063814348e+00 -3.9947698268e+00 2.3063814348e+00 3.9947698268e+00 
56700 4.8515179611e+00 -3.9694513731e-03 2.3064683799e+00 -3.9949204200e+00 2.3064683799e+00 3.9949204200e+00 
56800 4.8515167856e+00 -3.9287491341e-03 2.3065544308e+00 -3.9950694646e+00 2.3065544308e+00 3.9950694646e+00 
56900 4.8515156371e+00 -3.8884338977e-03 2.3066395963e+00 -3.9952169755e+00 2.3066395963e+00 3.9952169755e+00 
57000 4.8515145149e+00 -3.8485025187e-03 2.3067238846e+00 -3.9953629672e+00 2.3067238846e+00 3.9953629672e+00 
57100 4.8515134185e+00 -3.8089518688e-03 2.3068073044e+00 -3.9955074544e+00 2.3068073044e+00 3.9955074544e+00 
57200 4.8515123473e+00 -3.7697788362e-03 2.3068898638e+00 -3.9956504516e+00 2.3068898638e+00 3.9956504516e+00 
57300 4.8515113007e+00 -3.7309803262e-03 2.3069715712e+00 -3.9957919730e+00 2.3069715712e+00 3.9957919730e+00 
57400 4.8515102782e+00 -3.6925532609e-03 2.3070524349e+00 -3.9959320329e+00 2.3070524349e+00 3.9959320329e+00 
57500 4.8515092793e+00 -3.6544945790e-03 2.3071324628e+00 -3.9960706454e+00 2.3071324628e+00 3.9960706454e+00 
57600 4.8515083033e+00 -3.6168012364e-03 2.3072116632e+00 -3.9962078245e+00 2.3072116632e+00 3.9962078245e+00 
57700 4.8515073500e+00 -3.5794702058e-03 2.3072900440e+00 -3.9963435840e+00 2.3072900440e+00 3.9963435840e+00 
57800 4.8515064186e+00 -3.5424984769e-03 2.3073676132e+00 -3.9964779377e+00 2.3073676132e+00 3.9964779377e+00 
57900 4.8515055088e+00 -3.5058830563e-03 2.3074443785e+00 -3.9966108992e+00 2.3074443785e+00 3.9966108992e+00 
58000 4.8515046200e+00 -3.4696209678e-03 2.3075203479e+00 -3.9967424821e+00 2.3075203479e+00 3.9967424821e+00 
58100 4.8515037518e+00 -3.4337092520e-03 2.3075955290e+00 -3.9968726996e+00 2.3075955290e+00 3.9968726996e+00 
58200 4.8515029038e+00 -3.3981449667e-03 2.3076699296e+00 -3.9970015651e+00 2.3076699296e+00 3.9970015651e+00 
58300 4.8515020754e+00 -3.3629251867e-03 2.3077435572e+00 -3.9971290918e+00 2.3077435572e+00 3.9971290918e+00 
58400 4.8515012663e+00 -3.3280470038e-03 2.3078164193e+00 -3.9972552928e+00 2.3078164193e+00 3.9972552928e+00 
58500 4.8515004760e+00 -3.2935075271e-03 2.3078885235e+00 -3.9973801809e+00 2.3078885235e+00 3.9973801809e+00 
58600 4.8514997041e+00 -3.2593038825e-03 2.3079598771e+00 -3.9975037690e+00 2.3079598771e+00 3.9975037690e+00 
58700 4.8514989501e+00 -3.2254332135e-03 2.3080304875e+00 -3.9976260698e+00 2.3080304875e+00 3.9976260698e+00 
58800 4.8514982138e+00 -3.1918926802e-03 2.3081003620e+00 -3.9977470960e+00 2.3081003620e+00 3.9977470960e+00 
58900 4.8514974946e+00 -3.1586794602e-03 2.3081695078e+00 -3.9978668601e+00 2.3081695078e+00 3.9978668601e+00 
59000 4.8514967922e+00 -3.1257907481e-03 2.3082379321e+00 -3.9979853743e+00 2.3082379321e+00 3.9979853743e+00 
59100 4.8514961063e+00 -3.0932237558e-03 2.3083056419e+00 -3.9981026511e+00 2.3083056419e+00 3.9981026511e+00 
59200 4.8514954364e+00 -3.0609757121e-03 2.3083726442e+00 -3.9982187026e+00 2.3083726442e+00 3.9982187026e+00 
59300 4.8514947822e+00 -3.0290438633e-03 2.3084389461e+00 -3.9983335409e+00 2.3084389461e+00 3.9983335409e+00 
59400 4.8514941433e+00 -2.9974254726e-03 2.3085045545e+00 -3.9984471779e+00 2.3085045545e+00 3.9984471779e+00 
59500 4.8514935194e+00 -2.9661178205e-03 2.3085694762e+00 -3.9985596256e+00 2.3085694762e+00 3.9985596256e+00 
59600 4.8514929102e+00 -2.9351182046e-03 2.3086337180e+00 -3.9986708956e+00 2.3086337180e+00 3.9986708956e+00 
59700 4.8514923152e+00 -2.9044239397e-03 2.3086972865e+00 -3.9987809996e+00 2.3086972865e+00 3.9987809996e+00 
59800 4.8514917343e+00 -2.8740323577e-03 2.3087601886e+00 -3.9988899492e+00 2.3087601886e+00 3.9988899492e+00 
59900 4.8514911671e+00 -2.8439408077e-03 2.3088224308e+00 -3.9989977558e+00 2.3088224308e+00 3.9989977558e+00 
60000 4.8514906132e+00 -2.8141466560e-03 2.3088840196e+00 -3.9991044308e+00 2.3088840196e+00 3.9991044308e+00 
60100 4.8514900724e+00 -2.7846472859e-03 2.3089449616e+00 -3.9992099854e+00 2.3089449616e+00 3.9992099854e+00 
60200 4.8514895444e+00 -2.7554400979e-03 2.3090052632e+00 -3.9993144307e+00 2.3090052632e+00 3.9993144307e+00 
60300 4.8514890289e+00 -2.7265225095e-03 2.3090649307e+00 -3.9994177779e+00 2.3090649307e+00 3.9994177779e+00 
60400 4.8514885255e+00 -2.6978919556e-03 2.3091239705e+00 -3.9995200378e+00 2.3091239705e+00 3.9995200378e+00 
60500 4.8514880341e+00 -2.6695458878e-03 2.3091823888e+00 -3.9996212213e+00 2.3091823888e+00 3.9996212213e+00 
60600 4.8514875543e+00 -2.6414817749e-03 2.3092401919e+00 -3.9997213392e+00 2.3092401919e+00 3.9997213392e+00 
60700 4.8514870859e+00 -2.6136971029e-03 2.3092973858e+00 -3.9998204021e+00 2.3092973858e+00 3.9998204021e+00 
60800 4.8514866286e+00 -2.5861893746e-03 2.3093539768e+00 -3.9999184205e+00 2.3093539768e+00 3.9999184205e+00 
60900 4.8514861822e+00 -2.5589561099e-03 2.3094099708e+00 -4.0000154050e+00 2.3094099708e+00 4.0000154050e+00 
61000 4.8514857465e+00 -2.5319948456e-03 2.3094653739e+00 -4.0001113658e+00 2.3094653739e+00 4.0001113658e+00 
61100 4.8514853211e+00 -2.5053031356e-03 2.3095201918e+00 -4.0002063134e+00 2.3095201918e+00 4.0002063134e+00 
61200 4.8514849058e+00 -2.4788785505e-03 2.3095744307e+00 -4.0003002578e+00 2.3095744307e+00 4.0003002578e+00 
61300 4.8514845004e+00 -2.4527186780e-03 2.3096280961e+00 -4.0003932091e+00 2.3096280961e+00 4.0003932091e+00 
61400 4.8514841048e+00 -2.4268211227e-03 2.3096811940e+00 -4.0004851774e+00 2.3096811940e+00 4.0004851774e+00 
61500 4.8514837185e+00 -2.4011835057e-03 2.3097337301e+00 -4.0005761725e+00 2.3097337301e+00 4.0005761725e+00 
61600 4.8514833416e+00 -2.3758034653e-03 2.3097857099e+00 -4.0006662042e+00 2.3097857099e+00 4.0006662042e+00 
61700 4.8514829736e+00 -2.3506786563e-03 2.3098371392e+00 -4.0007552823e+00 2.3098371392e+00 4.0007552823e+00 
61800 4.8514826145e+00 -2.3258067504e-03 2.3098880235e+00 -4.0008434165e+00 2.3098880235e+00 4.0008434165e+00 
61900 4.8514822640e+00 -2.3011854359e-03 2.3099383682e+00 -4.0009306162e+00 2.3099383682e+00 4.0009306162e+00 
62000 4.8514819219e+00 -2.2768124178e-03 2.3099881790e+00 -4.0010168908e+00 2.3099881790e+00 4.0010168908e+00 
62100 4.8514815880e+00 -2.2526854177e-03 2.3100374610e+00 -4.0011022499e+00 2.3100374610e+00 4.0011022499e+00 
62200 4.8514812622e+00 -2.2288021738e-03 2.3100862198e+00 -4.0011867026e+00 2.3100862198e+00 4.0011867026e+00 
62300 4.8514809442e+00 -2.2051604408e-03 2.3101344607e+00 -4.0012702582e+00 2.3101344607e+00 4.0012702582e+00 
62400 4.8514806338e+00 -2.1817579899e-03 2.3101821888e+00 -4.0013529258e+00 2.3101821888e+00 4.0013529258e+00 
62500 4.8514803310e+00 -2.1585926089e-03 2.3102294095e+00 -4.0014347143e+00 2.3102294095e+00 4.0014347143e+00 
62600 4.8514800355e+00 -2.1356621017e-03 2.3102761278e+00 -4.0015156328e+00 2.3102761278e+00 4.0015156328e+00 
62700 4.8514797471e+00 -2.1129642889e-03 2.3103223488e+00 -4.0015956901e+00 2.3103223488e+00 4.0015956901e+00 
62800 4.8514794657e+00 -2.0904970072e-03 2.3103680778e+00 -4.0016748949e+00 2.3103680778e+00 4.0016748949e+00 
62900 4.8514791911e+00 -2.0682581096e-03 2.3104133196e+00 -4.0017532560e+00 2.3104133196e+00 4.0017532560e+00 
63000 4.8514789232e+00 -2.0462454654e-03 2.3104580792e+00 -4.0018307819e+00 2.3104580792e+00 4.0018307819e+00 
63100 4.8514786618e+00 -2.0244569599e-03 2.3105023616e+00 -4.0019074813e+00 2.3105023616e+00 4.0019074813e+00 
63200 4.8514784067e+00 -2.0028904946e-03 2.3105461716e+00 -4.0019833624e+00 2.3105461716e+00 4.0019833624e+00 
63300 4.8514781579e+00 -1.9815439871e-03 2.3105895141e+00 -4.0020584338e+00 2.3105895141e+00 4.0020584338e+00 
63400 4.8514779151e+00 -1.9604153709e-03 2.3106323938e+00 -4.0021327038e+00 2.3106323938e+00 4.0021327038e+00 
63500 4.8514776782e+00 -1.9395025956e-03 2.3106748156e+00 -4.0022061804e+00 2.3106748156e+00 4.0022061804e+00 
63600 4.8514774471e+00 -1.9188036265e-03 2.3107167840e+00 -4.0022788719e+00 2.3107167840e+00 4.0022788719e+00 
63700 4.8514772216e+00 -1.8983164448e-03 2.3107583038e+00 -4.0023507862e+00 2.3107583038e+00 4.0023507862e+00 
63800 4.8514770017e+00 -1.8780390475e-03 2.3107993796e+00 -4.0024219315e+00 2.3107993796e+00 4.0024219315e+00 
63900 4.8514767871e+00 -1.8579694474e-03 2.3108400158e+00 -4.0024923156e+00 2.3108400158e+00 4.0024923156e+00 
64000 4.8514765778e+00 -1.8381056727e-03 2.3108802171e+00 -4.0025619462e+00 2.3108802171e+00 4.0025619462e+00 
64100 4.8514763736e+00 -1.8184457674e-03 2.3109199879e+00 -4.0026308313e+00 2.3109199879e+00 4.0026308313e+00 
64200 4.8514761744e+00 -1.7989877910e-03 2.3109593326e+00 -4.0026989784e+00 2.3109593326e+00 4.0026989784e+00 
64300 4.8514759801e+00 -1.7797298183e-03 2.3109982557e+00 -4.0027663951e+00 2.3109982557e+00 4.0027663951e+00 
64400 4.8514757906e+00 -1.7606699398e-03 2.3110367615e+00 -4.0028330890e+00 2.3110367615e+00 4.0028330890e+00 
64500 4.8514756058e+00 -1.7418062610e-03 2.3110748542e+00 -4.0028990676e+00 2.3110748542e+00 4.0028990676e+00 
64600 4.8514754255e+00 -1.7231369029e-03 2.3111125382e+00 -4.0029643382e+00 2.3111125382e+00 4.0029643382e+00 
64700 4.8514752497e+00 -1.7046600016e-03 2.3111498177e+00 -4.0030289082e+00 2.3111498177e+00 4.0030289082e+00 
64800 4.8514750782e+00 -1.6863737084e-03 2.3111866968e+00 -4.0030927847e+00 2.3111866968e+00 4.0030927847e+00 
64900 4.8514749109e+00 -1.6682761896e-03 2.3112231798e+00 -4.0031559750e+00 2.3112231798e+00 4.0031559750e+00 
65000 4.8514747478e+00 -1.6503656265e-03 2.3112592707e+00 -4.0032184862e+00 2.3112592707e+00 4.0032184862e+00 
65100 4.8514745887e+00 -1.6326402153e-03 2.3112949735e+00 -4.0032803253e+00 2.3112949735e+00 4.0032803253e+00 
65200 4.8514744336e+00 -1.6150981671e-03 2.3113302923e+00 -4.0033414993e+00 2.3113302923e+00 4.0033414993e+00 
65300 4.8514742823e+00 -1.5977377079e-03 2.3113652311e+00 -4.0034020151e+00 2.3113652311e+00 4.0034020151e+00 
65400 4.8514741348e+00 -1.5805570781e-03 2.3113997938e+00 -4.0034618795e+00 2.3113997938e+00 4.0034618795e+00 
65500 4.8514739909e+00 -1.5635545331e-03 2.3114339844e+00 -4.0035210993e+00 2.3114339844e+00 4.0035210993e+00 
65600 4.8514738507e+00 -1.5467283427e-03 2.3114678067e+00 -4.0035796812e+00 2.3114678067e+00 4.0035796812e+00 
65700 4.8514737139e+00 -1.5300767910e-03 2.3115012644e+00 -4.0036376318e+00 2.3115012644e+00 4.0036376318e+00 
65800 4.8514735805e+00 -1.5135981769e-03 2.3115343616e+00 -4.0036949577e+00 2.3115343616e+00 4.0036949577e+00 
65900 4.8514734505e+00 -1.4972908134e-03 2.3115671018e+00 -4.0037516653e+00 2.3115671018e+00 4.0037516653e+00 
66000 4.8514733237e+00 -1.4811530278e-03 2.3115994887e+00 -4.0038077613e+00 2.3115994887e+00 4.0038077613e+00 
66100 4.8514732001e+00 -1.4651831615e-03 2.3116315262e+00 -4.0038632518e+00 2.3116315262e+00 4.0038632518e+00 
66200 4.8514730796e+00 -1.4493795704e-03 2.3116632178e+00 -4.0039181433e+00 2.3116632178e+00 4.0039181433e+00 
66300 4.8514729621e+00 -1.4337406239e-03 2.3116945672e+00 -4.0039724420e+00 2.3116945672e+00 4.0039724420e+00 
66400 4.8514728476e+00 -1.4182647057e-03 2.3117255779e+00 -4.0040261540e+00 2.3117255779e+00 4.0040261540e+00 
66500 4.8514727360e+00 -1.4029502134e-03 2.3117562534e+00 -4.0040792856e+00 2.3117562534e+00 4.0040792856e+00 
66600 4.8514726271e+00 -1.3877955583e-03 2.3117865973e+00 -4.0041318427e+00 2.3117865973e+00 4.0041318427e+00 
66700 4.8514725211e+00 -1.3727991654e-03 2.3118166130e+00 -4.0041838315e+00 2.3118166130e+00 4.0041838315e+00 
66800 4.8514724177e+00 -1.3579594734e-03 2.3118463040e+00 -4.0042352577e+00 2.3118463040e+00 4.0042352577e+00 
66900 4.8514723169e+00 -1.3432749345e-03 2.3118756736e+00 -4.0042861275e+00 2.3118756736e+00 4.0042861275e+00 
67000 4.8514722186e+00 -1.3287440146e-03 2.3119047253e+00 -4.0043364465e+00 2.3119047253e+00 4.0043364465e+00 
67100 4.8514721229e+00 -1.3143651928e-03 2.3119334624e+00 -4.0043862205e+00 2.3119334624e+00 4.0043862205e+00 
67200 4.8514720295e+00 -1.3001369615e-03 2.3119618881e+00 -4.0044354553e+00 2.3119618881e+00 4.0044354553e+00 
67300 4.8514719386e+00 -1.2860578266e-03 2.3119900058e+00 -4.0044841566e+00 2.3119900058e+00 4.0044841566e+00 
67400 4.8514718499e+00 -1.2721263069e-03 2.3120178186e+00 -4.0045323298e+00 2.3120178186e+00 4.0045323298e+00 
67500 4.8514717635e+00 -1.2583409345e-03 2.3120453298e+00 -4.0045799807e+00 2.3120453298e+00 4.0045799807e+00 
67600 4.8514716793e+00 -1.2447002542e-03 2.3120725426e+00 -4.0046271146e+00 2.3120725426e+00 4.0046271146e+00 
67700 4.8514715973e+00 -1.2312028242e-03 2.3120994601e+00 -4.0046737370e+00 2.3120994601e+00 4.0046737370e+00 
67800 4.8514715174e+00 -1.2178472151e-03 2.3121260853e+00 -4.0047198533e+00 2.3121260853e+00 4.0047198533e+00 
67900 4.8514714395e+00 -1.2046320104e-03 2.3121524215e+00 -4.0047654688e+00 2.3121524215e+00 4.0047654688e+00 
68000 4.8514713636e+00 -1.1915558065e-03 2.3121784715e+00 -4.0048105889e+00 2.3121784715e+00 4.0048105889e+00 
68100 4.8514712896e+00 -1.1786172121e-03 2.3122042385e+00 -4.0048552186e+00 2.3122042385e+00 4.0048552186e+00 
68200 4.8514712175e+00 -1.1658148485e-03 2.3122297255e+00 -4.0048993633e+00 2.3122297255e+00 4.0048993633e+00 
68300 4.8514711473e+00 -1.1531473495e-03 2.3122549353e+00 -4.0049430279e+00 2.3122549353e+00 4.0049430279e+00 
68400 4.8514710789e+00 -1.1406133611e-03 2.3122798709e+00 -4.0049862176e+00 2.3122798709e+00 4.0049862176e+00 
68500 4.8514710123e+00 -1.1282115419e-03 2.3123045352e+00 -4.0050289375e+00 2.3123045352e+00 4.0050289375e+00 
68600 4.8514709474e+00 -1.1159405623e-03 2.3123289310e+00 -4.0050711923e+00 2.3123289310e+00 4.0050711923e+00 
68700 4.8514708841e+00 -1.1037991051e-03 2.3123530613e+00 -4.0051129872e+00 2.3123530613e+00 4.0051129872e+00 
68800 4.8514708225e+00 -1.0917858648e-03 2.3123769288e+00 -4.0051543269e+00 2.3123769288e+00 4.0051543269e+00 
68900 4.8514707625e+00 -1.0798995482e-03 2.3124005363e+00 -4.0051952162e+00 2.3124005363e+00 4.0051952162e+00 
69000 4.8514707041e+00 -1.0681388736e-03 2.3124238865e+00 -4.0052356600e+00 2.3124238865e+00 4.0052356600e+00 
69100 4.8514706472e+00 -1.0565025714e-03 2.3124469822e+00 -4.0052756629e+00 2.3124469822e+00 4.0052756629e+00 
69200 4.8514705917e+00 -1.0449893835e-03 2.3124698260e+00 -4.0053152297e+00 2.3124698260e+00 4.0053152297e+00 
69300 4.8514705377e+00 -1.0335980635e-03 2.3124924207e+00 -4.0053543648e+00 2.3124924207e+00 4.0053543648e+00 
69400 4.8514704851e+00 -1.0223273763e-03 2.3125147689e+00 -4.0053930730e+00 2.3125147689e+00 4.0053930730e+00 
69500 4.8514704339e+00 -1.0111760986e-03 2.3125368732e+00 -4.0054313587e+00 2.3125368732e+00 4.0054313587e+00 
69600 4.8514703840e+00 -1.0001430181e-03 2.3125587361e+00 -4.0054692265e+00 2.3125587361e+00 4.0054692265e+00 
69700 4.8514703354e+00 -9.8922693406e-04 2.3125803603e+00 -4.0055066807e+00 2.3125803603e+00 4.0055066807e+00 
69800 4.8514702881e+00 -9.7842665679e-04 2.3126017483e+00 -4.0055437257e+00 2.3126017483e+00 4.0055437257e+00 
69900 4.8514702421e+00 -9.6774100774e-04 2.3126229026e+00 -4.0055803660e+00 2.3126229026e+00 4.0055803660e+00 
70000 4.8514701973e+00 -9.5716881939e-04 2.3126438256e+00 -4.0056166058e+00 2.3126438256e+00 4.0056166058e+00 
70100 4.8514701536e+00 -9.4670893516e-04 2.3126645199e+00 -4.0056524494e+00 2.3126645199e+00 4.0056524494e+00 
70200 4.8514701111e+00 -9.3636020935e-04 2.3126849879e+00 -4.0056879009e+00 2.3126849879e+00 4.0056879009e+00 
70300 4.8514700697e+00 -9.2612150703e-04 2.3127052319e+00 -4.0057229646e+00 2.3127052319e+00 4.0057229646e+00 
70400 4.8514700294e+00 -9.1599170399e-04 2.3127252544e+00 -4.0057576446e+00 2.3127252544e+00 4.0057576446e+00 
70500 4.8514699902e+00 -9.0596968663e-04 2.3127450577e+00 -4.0057919449e+00 2.3127450577e+00 4.0057919449e+00 
70600 4.8514699520e+00 -8.9605435188e-04 2.3127646442e+00 -4.0058258697e+00 2.3127646442e+00 4.0058258697e+00 
70700 4.8514699149e+00 -8.8624460714e-04 2.3127840162e+00 -4.0058594230e+00 2.3127840162e+00 4.0058594230e+00 
70800 4.8514698787e+00 -8.7653937020e-04 2.3128031759e+00 -4.0058926086e+00 2.3128031759e+00 4.0058926086e+00 
70900 4.8514698435e+00 -8.6693756912e-04 2.3128221256e+00 -4.0059254305e+00 2.3128221256e+00 4.0059254305e+00 
71000 4.8514698092e+00 -8.5743814220e-04 2.3128408677e+00 -4.0059578926e+00 2.3128408677e+00 4.0059578926e+00 
71100 4.8514697759e+00 -8.4804003786e-04 2.3128594041e+00 -4.0059899987e+00 2.3128594041e+00 4.0059899987e+00 
71200 4.8514697434e+00 -8.3874221459e-04 2.3128777373e+00 -4.0060217527e+00 2.3128777373e+00 4.0060217527e+00 
71300 4.8514697119e+00 -8.2954364086e-04 2.3128958694e+00 -4.0060531583e+00 2.3128958694e+00 4.0060531583e+00 
71400 4.8514696811e+00 -8.2044329502e-04 2.3129138024e+00 -4.0060842193e+00 2.3129138024e+00 4.0060842193e+00 
71500 4.8514696512e+00 -8.1144016525e-04 2.3129315385e+00 -4.0061149392e+00 2.3129315385e+00 4.0061149392e+00 
71600 4.8514696221e+00 -8.0253324947e-04 2.3129490799e+00 -4.0061453218e+00 2.3129490799e+00 4.0061453218e+00 
71700 4.8514695938e+00 -7.9372155526e-04 2.3129664287e+00 -4.0061753707e+00 2.3129664287e+00 4.0061753707e+00 
71800 4.8514695663e+00 -7.8500409978e-04 2.3129835868e+00 -4.0062050894e+00 2.3129835868e+00 4.0062050894e+00 
71900 4.8514695395e+00 -7.7637990970e-04 2.3130005563e+00 -4.0062344815e+00 2.3130005563e+00 4.0062344815e+00 
72000 4.8514695134e+00 -7.6784802112e-04 2.3130173393e+00 -4.0062635504e+00 2.3130173393e+00 4.0062635504e+00 
72100 4.8514694881e+00 -7.5940747948e-04 2.3130339377e+00 -4.0062922998e+00 2.3130339377e+00 4.0062922998e+00 
72200 4.8514694634e+00 -7.5105733950e-04 2.3130503536e+00 -4.0063207328e+00 2.3130503536e+00 4.0063207328e+00 
72300 4.8514694394e+00 -7.4279666509e-04 2.3130665888e+00 -4.0063488531e+00 2.3130665888e+00 4.0063488531e+00 
72400 4.8514694161e+00 -7.3462452928e-04 2.3130826454e+00 -4.0063766639e+00 2.3130826454e+00 4.0063766639e+00 
72500 4.8514693934e+00 -7.2654001415e-04 2.3130985251e+00 -4.0064041685e+00 2.3130985251e+00 4.0064041685e+00 
72600 4.8514693714e+00 -7.1854221074e-04 2.3131142301e+00 -4.0064313702e+00 2.3131142301e+00 4.0064313702e+00 
72700 4.8514693499e+00 -7.1063021899e-04 2.3131297620e+00 -4.0064582723e+00 2.3131297620e+00 4.0064582723e+00 
72800 4.8514693290e+00 -7.0280314765e-04 2.3131451228e+00 -4.0064848780e+00 2.3131451228e+00 4.0064848780e+00 
72900 4.8514693088e+00 -6.9506011421e-04 2.3131603143e+00 -4.0065111905e+00 2.3131603143e+00 4.0065111905e+00 
73000 4.8514692890e+00 -6.8740024483e-04 2.3131753384e+00 -4.0065372129e+00 2.3131753384e+00 4.0065372129e+00 
73100 4.8514692699e+00 -6.7982267427e-04 2.3131901968e+00 -4.0065629484e+00 2.3131901968e+00 4.0065629484e+00 
73200 4.8514692512e+00 -6.7232654580e-04 2.3132048913e+00 -4.0065884000e+00 2.3132048913e+00 4.0065884000e+00 
73300 4.8514692331e+00 -6.6491101115e-04 2.3132194237e+00 -4.0066135708e+00 2.3132194237e+00 4.0066135708e+00 
73400 4.8514692155e+00 -6.5757523041e-04 2.3132337957e+00 -4.0066384639e+00 2.3132337957e+00 4.0066384639e+00 
73500 4.8514691984e+00 -6.5031837198e-04 2.3132480090e+00 -4.0066630821e+00 2.3132480090e+00 4.0066630821e+00 
73600 4.8514691817e+00 -6.4313961248e-04 2.3132620654e+00 -4.0066874285e+00 2.3132620654e+00 4.0066874285e+00 
73700 4.8514691656e+00 -6.3603813671e-04 2.3132759666e+00 -4.0067115060e+00 2.3132759666e+00 4.0067115060e+00 
73800 4.8514691499e+00 -6.2901313752e-04 2.3132897141e+00 -4.0067353175e+00 2.3132897141e+00 4.0067353175e+00 
73900 4.8514691346e+00 -6.2206381580e-04 2.3133033098e+00 -4.0067588659e+00 2.3133033098e+00 4.0067588659e+00 
74000 4.8514691197e+00 -6.1518938038e-04 2.3133167552e+00 -4.0067821539e+00 2.3133167552e+00 4.0067821539e+00 
74100 4.8514691053e+00 -6.0838904797e-04 2.3133300519e+00 -4.0068051845e+00 2.3133300519e+00 4.0068051845e+00 
74200 4.8514690913e+00 -6.0166204307e-04 2.3133432015e+00 -4.0068279604e+00 2.3133432015e+00 4.0068279604e+00 
74300 4.8514690777e+00 -5.9500759793e-04 2.3133562057e+00 -4.0068504843e+00 2.3133562057e+00 4.0068504843e+00 
74400 4.8514690645e+00 -5.8842495245e-04 2.3133690660e+00 -4.0068727589e+00 2.3133690660e+00 4.0068727589e+00 
74500 4.8514690517e+00 -5.8191335414e-04 2.3133817839e+00 -4.0068947870e+00 2.3133817839e+00 4.0068947870e+00 
74600 4.8514690392e+00 -5.7547205804e-04 2.3133943610e+00 -4.0069165713e+00 2.3133943610e+00 4.0069165713e+00 
74700 4.8514690271e+00 -5.6910032665e-04 2.3134067989e+00 -4.0069381142e+00 2.3134067989e+00 4.0069381142e+00 
74800 4.8514690153e+00 -5.6279742985e-04 2.3134190989e+00 -4.0069594186e+00 2.3134190989e+00 4.0069594186e+00 
74900 4.8514690039e+00 -5.5656264488e-04 2.3134312627e+00 -4.0069804868e+00 2.3134312627e+00 4.0069804868e+00 
75000 4.8514689928e+00 -5.5039525622e-04 2.3134432917e+00 -4.0070013216e+00 2.3134432917e+00 4.0070013216e+00 
75100 4.8514689821e+00 -5.4429455554e-04 2.3134551873e+00 -4.0070219254e+00 2.3134551873e+00 4.0070219254e+00 
75200 4.8514689716e+00 -5.3825984164e-04 2.3134669509e+00 -4.0070423007e+00 2.3134669509e+00 4.0070423007e+00 
75300 4.8514689615e+00 -5.3229042041e-04 2.3134785841e+00 -4.0070624499e+00 2.3134785841e+00 4.0070624499e+00 
75400 4.8514689517e+00 -5.2638560472e-04 2.3134900883e+00 -4.0070823757e+00 2.3134900883e+00 4.0070823757e+00 
75500 4.8514689421e+00 -5.2054471437e-04 2.3135014647e+00 -4.0071020803e+00 2.3135014647e+00 4.0071020803e+00 
75600 4.8514689328e+00 -5.1476707604e-04 2.3135127149e+00 -4.0071215661e+00 2.3135127149e+00 4.0071215661e+00 
75700 4.8514689238e+00 -5.0905202323e-04 2.3135238401e+00 -4.0071408356e+00 2.3135238401e+00 4.0071408356e+00 
75800 4.8514689151e+00 -5.0339889617e-04 2.3135348418e+00 -4.0071598910e+00 2.3135348418e+00 4.0071598910e+00 
75900 4.8514689067e+00 -4.9780704177e-04 2.3135457212e+00 -4.0071787348e+00 2.3135457212e+00 4.0071787348e+00 
76000 4.8514688984e+00 -4.9227581358e-04 2.3135564797e+00 -4.0071973691e+00 2.3135564797e+00 4.0071973691e+00 
76100 4.8514688905e+00 -4.8680457169e-04 2.3135671187e+00 -4.0072157963e+00 2.3135671187e+00 4.0072157963e+00 
76200 4.8514688827e+00 -4.8139268269e-04 2.3135776394e+00 -4.0072340186e+00 2.3135776394e+00 4.0072340186e+00 
76300 4.8514688753e+00 -4.7603951963e-04 2.3135880430e+00 -4.0072520383e+00 2.3135880430e+00 4.0072520383e+00 
76400 4.8514688680e+00 -4.7074446191e-04 2.3135983309e+00 -4.0072698575e+00 2.3135983309e+00 4.0072698575e+00 
76500 4.8514688609e+00 -4.6550689526e-04 2.3136085044e+00 -4.0072874784e+00 2.3136085044e+00 4.0072874784e+00 
76600 4.8514688541e+00 -4.6032621167e-04 2.3136185646e+00 -4.0073049031e+00 2.3136185646e+00 4.0073049031e+00 
76700 4.8514688475e+00 -4.5520180931e-04 2.3136285127e+00 -4.0073221339e+00 2.3136285127e+00 4.0073221339e+00 
76800 4.8514688411e+00 -4.5013309252e-04 2.3136383502e+00 -4.0073391728e+00 2.3136383502e+00 4.0073391728e+00 
76900 4.8514688349e+00 -4.4511947169e-04 2.3136480780e+00 -4.0073560219e+00 2.3136480780e+00 4.0073560219e+00 
77000 4.8514688288e+00 -4.4016036326e-04 2.3136576974e+00 -4.0073726832e+00 2.3136576974e+00 4.0073726832e+00 
77100 4.8514688230e+00 -4.3525518962e-04 2.3136672096e+00 -4.0073891589e+00 2.3136672096e+00 4.0073891589e+00 
77200 4.8514688173e+00 -4.3040337908e-04 2.3136766158e+00 -4.0074054509e+00 2.3136766158e+00 4.0074054509e+00 
77300 4.8514688119e+00 -4.2560436581e-04 2.3136859171e+00 -4.0074215612e+00 2.3136859171e+00 4.0074215612e+00 
77400 4.8514688065e+00 -4.2085758975e-04 2.3136951147e+00 -4.0074374918e+00 2.3136951147e+00 4.0074374918e+00 
77500 4.8514688014e+00 -4.1616249661e-04 2.3137042096e+00 -4.0074532447e+00 2.3137042096e+00 4.0074532447e+00 
77600 4.8514687964e+00 -4.1151853779e-04 2.3137132030e+00 -4.0074688218e+00 2.3137132030e+00 4.0074688218e+00 
77700 4.8514687916e+00 -4.0692517029e-04 2.3137220961e+00 -4.0074842250e+00 2.3137220961e+00 4.0074842250e+00 
77800 4.8514687870e+00 -4.0238185671e-04 2.3137308898e+00 -4.0074994562e+00 2.3137308898e+00 4.0074994562e+00 
77900 4.8514687824e+00 -3.9788806519e-04 2.3137395853e+00 -4.0075145173e+00 2.3137395853e+00 4.0075145173e+00 
78000 4.8514687781e+00 -3.9344326931e-04 2.3137481837e+00 -4.0075294101e+00 2.3137481837e+00 4.0075294101e+00 
78100 4.8514687738e+00 -3.8904694809e-04 2.3137566860e+00 -4.0075441365e+00 2.3137566860e+00 4.0075441365e+00 
78200 4.8514687698e+00 -3.8469858590e-04 2.3137650933e+00 -4.0075586983e+00 2.3137650933e+00 4.0075586983e+00 
78300 4.8514687658e+00 -3.8039767244e-04 2.3137734065e+00 -4.0075730973e+00 2.3137734065e+00 4.0075730973e+00 
78400 4.8514687620e+00 -3.7614370266e-04 2.3137816268e+00 -4.0075873353e+00 2.3137816268e+00 4.0075873353e+00 
78500 4.8514687583e+00 -3.7193617673e-04 2.3137897552e+00 -4.0076014140e+00 2.3137897552e+00 4.0076014140e+00 
78600 4.8514687547e+00 -3.6777459996e-04 2.3137977925e+00 -4.0076153351e+00 2.3137977925e+00 4.0076153351e+00 
78700 4.8514687512e+00 -3.6365848280e-04 2.3138057400e+00 -4.0076291005e+00 2.3138057400e+00 4.0076291005e+00 
78800 4.8514687479e+00 -3.5958734074e-04 2.3138135984e+00 -4.0076427117e+00 2.3138135984e+00 4.0076427117e+00 
78900 4.8514687447e+00 -3.5556069428e-04 2.3138213689e+00 -4.0076561705e+00 2.3138213689e+00 4.0076561705e+00 
79000 4.8514687416e+00 -3.5157806889e-04 2.3138290523e+00 -4.0076694786e+00 2.3138290523e+00 4.0076694786e+00 
79100 4.8514687385e+00 -3.4763899495e-04 2.3138366496e+00 -4.0076826376e+00 2.3138366496e+00 4.0076826376e+00 
79200 4.8514687356e+00 -3.4374300770e-04 2.3138441618e+00 -4.0076956490e+00 2.3138441618e+00 4.0076956490e+00 
79300 4.8514687328e+00 -3.3988964720e-04 2.3138515898e+00 -4.0077085146e+00 2.3138515898e+00 4.0077085146e+00 
79400 4.8514687301e+00 -3.3607845826e-04 2.3138589344e+00 -4.0077212360e+00 2.3138589344e+00 4.0077212360e+00 
79500 4.8514687275e+00 -3.3230899046e-04 2.3138661967e+00 -4.0077338147e+00 2.3138661967e+00 4.0077338147e+00 
79600 4.8514687250e+00 -3.2858079800e-04 2.3138733776e+00 -4.0077462522e+00 2.3138733776e+00 4.0077462522e+00 
79700 4.8514687225e+00 -3.2489343973e-04 2.3138804778e+00 -4.0077585502e+00 2.3138804778e+00 4.0077585502e+00 
79800 4.8514687202e+00 -3.2124647911e-04 2.3138874983e+00 -4.0077707101e+00 2.3138874983e+00 4.0077707101e+00 
79900 4.8514687179e+00 -3.1763948409e-04 2.3138944400e+00 -4.0077827335e+00 2.3138944400e+00 4.0077827335e+00 
80000 4.8514687158e+00 -3.1407202714e-04 2.3139013038e+00 -4.0077946219e+00 2.3139013038e+00 4.0077946219e+00 
80100 4.8514687137e+00 -3.1054368519e-04 2.3139080904e+00 -4.0078063767e+00 2.3139080904e+00 4.0078063767e+00 
80200 4.8514687116e+00 -3.0705403954e-04 2.3139148008e+00 -4.0078179994e+00 2.3139148008e+00 4.0078179994e+00 
80300 4.8514687097e+00 -3.0360267586e-04 2.3139214357e+00 -4.0078294914e+00 2.3139214357e+00 4.0078294914e+00 
80400 4.8514687078e+00 -3.0018918417e-04 2.3139279961e+00 -4.0078408543e+00 2.3139279961e+00 4.0078408543e+00 
80500 4.8514687060e+00 -2.9681315872e-04 2.3139344827e+00 -4.0078520894e+00 2.3139344827e+00 4.0078520894e+00 
80600 4.8514687043e+00 -2.9347419800e-04 2.3139408963e+00 -4.0078631981e+00 2.3139408963e+00 4.0078631981e+00 
80700 4.8514687026e+00 -2.9017190471e-04 2.3139472377e+00 -4.0078741818e+00 2.3139472377e+00 4.0078741818e+00 
80800 4.8514687010e+00 -2.8690588568e-04 2.3139535078e+00 -4.0078850418e+00 2.3139535078e+00 4.0078850418e+00 
80900 4.8514686994e+00 -2.8367575183e-04 2.3139597073e+00 -4.0078957796e+00 2.3139597073e+00 4.0078957796e+00 
81000 4.8514686979e+00 -2.8048111818e-04 2.3139658369e+00 -4.0079063965e+00 2.3139658369e+00 4.0079063965e+00 
81100 4.8514686965e+00 -2.7732160375e-04 2.3139718975e+00 -4.0079168938e+00 2.3139718975e+00 4.0079168938e+00 
81200 4.8514686951e+00 -2.7419683153e-04 2.3139778899e+00 -4.0079272729e+00 2.3139778899e+00 4.0079272729e+00 
81300 4.8514686938e+00 -2.7110642849e-04 2.3139838147e+00 -4.0079375349e+00 2.3139838147e+00 4.0079375349e+00 
81400 4.8514686926e+00 -2.6805002546e-04 2.3139896727e+00 -4.0079476813e+00 2.3139896727e+00 4.0079476813e+00 
81500 4.8514686914e+00 -2.6502725716e-04 2.3139954646e+00 -4.0079577132e+00 2.3139954646e+00 4.0079577132e+00 
81600 4.8514686902e+00 -2.6203776214e-04 2.3140011912e+00 -4.0079676320e+00 2.3140011912e+00 4.0079676320e+00 
81700 4.8514686891e+00 -2.5908118270e-04 2.3140068533e+00 -4.0079774389e+00 2.3140068533e+00 4.0079774389e+00 
81800 4.8514686880e+00 -2.5615716493e-04 2.3140124514e+00 -4.0079871351e+00 2.3140124514e+00 4.0079871351e+00 
81900 4.8514686870e+00 -2.5326535861e-04 2.3140179863e+00 -4.0079967219e+00 2.3140179863e+00 4.0079967219e+00 
82000 4.8514686860e+00 -2.5040541718e-04 2.3140234587e+00 -4.0080062004e+00 2.3140234587e+00 4.0080062004e+00 
82100 4.8514686851e+00 -2.4757699774e-04 2.3140288693e+00 -4.0080155718e+00 2.3140288693e+00 4.0080155718e+00 
82200 4.8514686842e+00 -2.4477976098e-04 2.3140342188e+00 -4.0080248374e+00 2.3140342188e+00 4.0080248374e+00 
82300 4.8514686834e+00 -2.4201337113e-04 2.3140395078e+00 -4.0080339983e+00 2.3140395078e+00 4.0080339983e+00 
82400 4.8514686826e+00 -2.3927749598e-04 2.3140447371e+00 -4.0080430556e+00 2.3140447371e+00 4.0080430556e+00 
82500 4.8514686818e+00 -2.3657180678e-04 2.3140499072e+00 -4.0080520105e+00 2.3140499072e+00 4.0080520105e+00 
82600 4.8514686811e+00 -2.3389597826e-04 2.3140550188e+00 -4.0080608641e+00 2.3140550188e+00 4.0080608641e+00 
82700 4.8514686804e+00 -2.3124968854e-04 2.3140600726e+00 -4.0080696176e+00 2.3140600726e+00 4.0080696176e+00 
82800 4.8514686797e+00 -2.2863261916e-04 2.3140650693e+00 -4.0080782720e+00 2.3140650693e+00 4.0080782720e+00 
82900 4.8514686791e+00 -2.2604445497e-04 2.3140700093e+00 -4.0080868284e+00 2.3140700093e+00 4.0080868284e+00 
83000 4.8514686785e+00 -2.2348488417e-04 2.3140748935e+00 -4.0080952880e+00 2.3140748935e+00 4.0080952880e+00 
83100 4.8514686779e+00 -2.2095359823e-04 2.3140797223e+00 -4.0081036517e+00 2.3140797223e+00 4.0081036517e+00 
83200 4.8514686774e+00 -2.1845029186e-04 2.3140844964e+00 -4.0081119207e+00 2.3140844964e+00 4.0081119207e+00 
83300 4.8514686769e+00 -2.1597466298e-04 2.3140892164e+00 -4.0081200961e+00 2.3140892164e+00 4.0081200961e+00 
83400 4.8514686764e+00 -2.1352641273e-04 2.3140938829e+00 -4.0081281787e+00 2.3140938829e+00 4.0081281787e+00 
83500 4.8514686759e+00 -2.1110524536e-04 2.3140984965e+00 -4.0081361697e+00 2.3140984965e+00 4.0081361697e+00 
83600 4.8514686755e+00 -2.0871086824e-04 2.3141030578e+00 -4.0081440701e+00 2.3141030578e+00 4.0081440701e+00 
83700 4.8514686751e+00 -2.0634299186e-04 2.3141075674e+00 -4.0081518808e+00 2.3141075674e+00 4.0081518808e+00 
83800 4.8514686747e+00 -2.0400132973e-04 2.3141120257e+00 -4.0081596030e+00 2.3141120257e+00 4.0081596030e+00 
83900 4.8514686744e+00 -2.0168559839e-04 2.3141164335e+00 -4.0081672374e+00 2.3141164335e+00 4.0081672374e+00 
84000 4.8514686741e+00 -1.9939551739e-04 2.3141207912e+00 -4.0081747852e+00 2.3141207912e+00 4.0081747852e+00 
84100 4.8514686738e+00 -1.9713080922e-04 2.3141250995e+00 -4.0081822473e+00 2.3141250995e+00 4.0081822473e+00 
84200 4.8514686735e+00 -1.9489119930e-04 2.3141293588e+00 -4.0081896246e+00 2.3141293588e+00 4.0081896246e+00 
84300 4.8514686732e+00 -1.9267641597e-04 2.3141335697e+00 -4.0081969181e+00 2.3141335697e+00 4.0081969181e+00 
84400 4.8514686730e+00 -1.9048619043e-04 2.3141377327e+00 -4.0082041287e+00 2.3141377327e+00 4.0082041287e+00 
84500 4.8514686727e+00 -1.8832025671e-04 2.3141418484e+00 -4.0082112573e+00 2.3141418484e+00 4.0082112573e+00 
84600 4.8514686725e+00 -1.8617835168e-04 2.3141459173e+00 -4.0082183049e+00 2.3141459173e+00 4.0082183049e+00 
84700 4.8514686724e+00 -1.8406021497e-04 2.3141499399e+00 -4.0082252723e+00 2.3141499399e+00 4.0082252723e+00 
84800 4.8514686722e+00 -1.8196558897e-04 2.3141539168e+00 -4.0082321604e+00 2.3141539168e+00 4.0082321604e+00 
84900 4.8514686720e+00 -1.7989421880e-04 2.3141578483e+00 -4.0082389701e+00 2.3141578483e+00 4.0082389701e+00 
85000 4.8514686719e+00 -1.7784585228e-04 2.3141617352e+00 -4.0082457022e+00 2.3141617352e+00 4.0082457022e+00 
85100 4.8514686718e+00 -1.7582023989e-04 2.3141655777e+00 -4.0082523577e+00 2.3141655777e+00 4.0082523577e+00 
85200 4.8514686717e+00 -1.7381713476e-04 2.3141693765e+00 -4.0082589374e+00 2.3141693765e+00 4.0082589374e+00 
85300 4.8514686716e+00 -1.7183629263e-04 2.3141731320e+00 -4.0082654421e+00 2.3141731320e+00 4.0082654421e+00 
85400 4.8514686715e+00 -1.6987747185e-04 2.3141768447e+00 -4.0082718727e+00 2.3141768447e+00 4.0082718727e+00 
85500 4.8514686714e+00 -1.6794043330e-04 2.3141805151e+00 -4.0082782300e+00 2.3141805151e+00 4.0082782300e+00 
85600 4.8514686714e+00 -1.6602494042e-04 2.3141841436e+00 -4.0082845147e+00 2.3141841436e+00 4.0082845147e+00 
85700 4.8514686713e+00 -1.6413075915e-04 2.3141877307e+00 -4.0082907278e+00 2.3141877307e+00 4.0082907278e+00 
85800 4.8514686713e+00 -1.6225765791e-04 2.3141912769e+00 -4.0082968700e+00 2.3141912769e+00 4.0082968700e+00 
85900 4.8514686713e+00 -1.6040540758e-04 2.3141947826e+00 -4.0083029420e+00 2.3141947826e+00 4.0083029420e+00 
86000 4.8514686713e+00 -1.5857378148e-04 2.3141982483e+00 -4.0083089448e+00 2.3141982483e+00 4.0083089448e+00 
86100 4.8514686713e+00 -1.5676255532e-04 2.3142016744e+00 -4.0083148790e+00 2.3142016744e+00 4.0083148790e+00 
86200 4.8514686713e+00 -1.5497150721e-04 2.3142050613e+00 -4.0083207454e+00 2.3142050613e+00 4.0083207454e+00 
86300 4.8514686713e+00 -1.5320041761e-04 2.3142084096e+00 -4.0083265447e+00 2.3142084096e+00 4.0083265447e+00 
86400 4.8514686714e+00 -1.5144906931e-04 2.3142117196e+00 -4.0083322778e+00 2.3142117196e+00 4.0083322778e+00 
86500 4.8514686714e+00 -1.4971724741e-04 2.3142149918e+00 -4.0083379454e+00 2.3142149918e+00 4.0083379454e+00 
86600 4.8514686714e+00 -1.4800473930e-04 2.3142182265e+00 -4.0083435481e+00 2.3142182265e+00 4.0083435481e+00 
86700 4.8514686715e+00 -1.4631133463e-04 2.3142214242e+00 -4.0083490867e+00 2.3142214242e+00 4.0083490867e+00 
86800 4.8514686716e+00 -1.4463682528e-04 2.3142245854e+00 -4.0083545620e+00 2.3142245854e+00 4.0083545620e+00 
86900 4.8514686716e+00 -1.4298100536e-04 2.3142277103e+00 -4.0083599745e+00 2.3142277103e+00 4.0083599745e+00 
87000 4.8514686717e+00 -1.4134367115e-04 2.3142307995e+00 -4.0083653251e+00 2.3142307995e+00 4.0083653251e+00 
87100 4.8514686718e+00 -1.3972462111e-04 2.3142338533e+00 -4.0083706145e+00 2.3142338533e+00 4.0083706145e+00 
87200 4.8514686719e+00 -1.3812365586e-04 2.3142368721e+00 -4.0083758432e+00 2.3142368721e+00 4.0083758432e+00 
87300 4.8514686720e+00 -1.3654057811e-04 2.3142398563e+00 -4.0083810120e+00 2.3142398563e+00 4.0083810120e+00 
87400 4.8514686721e+00 -1.3497519272e-04 2.3142428063e+00 -4.0083861216e+00 2.3142428063e+00 4.0083861216e+00 
87500 4.8514686722e+00 -1.3342730658e-04 2.3142457225e+00 -4.0083911726e+00 2.3142457225e+00 4.0083911726e+00 
87600 4.8514686723e+00 -1.3189672866e-04 2.3142486052e+00 -4.0083961656e+00 2.3142486052e+00 4.0083961656e+00 
87700 4.8514686725e+00 -1.3038326998e-04 2.3142514549e+00 -4.0084011014e+00 2.3142514549e+00 4.0084011014e+00 
87800 4.8514686726e+00 -1.2888674357e-04 2.3142542719e+00 -4.0084059805e+00 2.3142542719e+00 4.0084059805e+00 
87900 4.8514686727e+00 -1.2740696442e-04 2.3142570565e+00 -4.0084108036e+00 2.3142570565e+00 4.0084108036e+00 
88000 4.8514686729e+00 -1.2594374955e-04 2.3142598091e+00 -4.0084155714e+00 2.3142598091e+00 4.0084155714e+00 
88100 4.8514686730e+00 -1.2449691789e-04 2.3142625302e+00 -4.0084202843e+00 2.3142625302e+00 4.0084202843e+00 
88200 4.8514686732e+00 -1.2306629032e-04 2.3142652200e+00 -4.0084249432e+00 2.3142652200e+00 4.0084249432e+00 
88300 4.8514686733e+00 -1.2165168964e-04 2.3142678788e+00 -4.0084295485e+00 2.3142678788e+00 4.0084295485e+00 
88400 4.8514686735e+00 -1.2025294053e-04 2.3142705071e+00 -4.0084341008e+00 2.3142705071e+00 4.0084341008e+00 
88500 4.8514686736e+00 -1.1886986955e-04 2.3142731052e+00 -4.0084386008e+00 2.3142731052e+00 4.0084386008e+00 
88600 4.8514686738e+00 -1.1750230510e-04 2.3142756734e+00 -4.0084430490e+00 2.3142756734e+00 4.0084430490e+00 
88700 4.8514686739e+00 -1.1615007744e-04 2.3142782120e+00 -4.0084474461e+00 2.3142782120e+00 4.0084474461e+00 
88800 4.8514686741e+00 -1.1481301862e-04 2.3142807215e+00 -4.0084517925e+00 2.3142807215e+00 4.0084517925e+00 
88900 4.8514686743e+00 -1.1349096251e-04 2.3142832020e+00 -4.0084560889e+00 2.3142832020e+00 4.0084560889e+00 
89000 4.8514686744e+00 -1.1218374473e-04 2.3142856540e+00 -4.0084603359e+00 2.3142856540e+00 4.0084603359e+00 
89100 4.8514686746e+00 -1.1089120268e-04 2.3142880777e+00 -4.0084645339e+00 2.3142880777e+00 4.0084645339e+00 
89200 4.8514686748e+00 -1.0961317550e-04 2.3142904735e+00 -4.0084686835e+00 2.3142904735e+00 4.0084686835e+00 
89300 4.8514686750e+00 -1.0834950403e-04 2.3142928417e+00 -4.0084727853e+00 2.3142928417e+00 4.0084727853e+00 
89400 4.8514686751e+00 -1.0710003085e-04 2.3142951825e+00 -4.0084768399e+00 2.3142951825e+00 4.0084768399e+00 
89500 4.8514686753e+00 -1.0586460020e-04 2.3142974964e+00 -4.0084808476e+00 2.3142974964e+00 4.0084808476e+00 
89600 4.8514686755e+00 -1.0464305799e-04 2.3142997836e+00 -4.0084848091e+00 2.3142997836e+00 4.0084848091e+00 
89700 4.8514686757e+00 -1.0343525179e-04 2.3143020444e+00 -4.0084887250e+00 2.3143020444e+00 4.0084887250e+00 
89800 4.8514686759e+00 -1.0224103081e-04 2.3143042791e+00 -4.0084925956e+00 2.3143042791e+00 4.0084925956e+00 
89900 4.8514686761e+00 -1.0106024585e-04 2.3143064880e+00 -4.0084964215e+00 2.3143064880e+00 4.0084964215e+00 
90000 4.8514686762e+00 -9.9892749352e-05 2.3143086714e+00 -4.0085002032e+00 2.3143086714e+00 4.0085002032e+00 
90100 4.8514686764e+00 -9.8738395302e-05 2.3143108295e+00 -4.0085039412e+00 2.3143108295e+00 4.0085039412e+00 
90200 4.8514686766e+00 -9.7597039274e-05 2.3143129627e+00 -4.0085076361e+00 2.3143129627e+00 4.0085076361e+00 
90300 4.8514686768e+00 -9.6468538385e-05 2.3143150713e+00 -4.0085112882e+00 2.3143150713e+00 4.0085112882e+00 
90400 4.8514686770e+00 -9.5352751289e-05 2.3143171555e+00 -4.0085148981e+00 2.3143171555e+00 4.0085148981e+00 
90500 4.8514686772e+00 -9.4249538158e-05 2.3143192155e+00 -4.0085184662e+00 2.3143192155e+00 4.0085184662e+00 
90600 4.8514686774e+00 -9.3158760662e-05 2.3143212517e+00 -4.0085219931e+00 2.3143212517e+00 4.0085219931e+00 
90700 4.8514686776e+00 -9.2080281963e-05 2.3143232644e+00 -4.0085254791e+00 2.3143232644e+00 4.0085254791e+00 
90800 4.8514686778e+00 -9.1013966687e-05 2.3143252538e+00 -4.0085289248e+00 2.3143252538e+00 4.0085289248e+00 
90900 4.8514686779e+00 -8.9959680925e-05 2.3143272201e+00 -4.0085323305e+00 2.3143272201e+00 4.0085323305e+00 
91000 4.8514686781e+00 -8.8917292198e-05 2.3143291636e+00 -4.0085356968e+00 2.3143291636e+00 4.0085356968e+00 
91100 4.8514686783e+00 -8.7886669456e-05 2.3143310846e+00 -4.0085390241e+00 2.3143310846e+00 4.0085390241e+00 
91200 4.8514686785e+00 -8.6867683061e-05 2.3143329834e+00 -4.0085423129e+00 2.3143329834e+00 4.0085423129e+00 
91300 4.8514686787e+00 -8.5860204765e-05 2.3143348601e+00 -4.0085455635e+00 2.3143348601e+00 4.0085455635e+00 
91400 4.8514686789e+00 -8.4864107706e-05 2.3143367151e+00 -4.0085487764e+00 2.3143367151e+00 4.0085487764e+00 
91500 4.8514686791e+00 -8.3879266385e-05 2.3143385485e+00 -4.0085519520e+00 2.3143385485e+00 4.0085519520e+00 
91600 4.8514686793e+00 -8.2905556654e-05 2.3143403607e+00 -4.0085550907e+00 2.3143403607e+00 4.0085550907e+00 
91700 4.8514686795e+00 -8.1942855703e-05 2.3143421518e+00 -4.0085581931e+00 2.3143421518e+00 4.0085581931e+00 
91800 4.8514686797e+00 -8.0991042046e-05 2.3143439221e+00 -4.0085612594e+00 2.3143439221e+00 4.0085612594e+00 
91900 4.8514686799e+00 -8.0049995504e-05 2.3143456719e+00 -4.0085642900e+00 2.3143456719e+00 4.0085642900e+00 
92000 4.8514686800e+00 -7.9119597198e-05 2.3143474013e+00 -4.0085672855e+00 2.3143474013e+00 4.0085672855e+00 
92100 4.8514686802e+00 -7.8199729527e-05 2.3143491107e+00 -4.0085702461e+00 2.3143491107e+00 4.0085702461e+00 
92200 4.8514686804e+00 -7.7290276159e-05 2.3143508001e+00 -4.0085731724e+00 2.3143508001e+00 4.0085731724e+00 
92300 4.8514686806e+00 -7.6391122018e-05 2.3143524699e+00 -4.0085760645e+00 2.3143524699e+00 4.0085760645e+00 
92400 4.8514686808e+00 -7.5502153270e-05 2.3143541203e+00 -4.0085789231e+00 2.3143541203e+00 4.0085789231e+00 
92500 4.8514686810e+00 -7.4623257307e-05 2.3143557515e+00 -4.0085817484e+00 2.3143557515e+00 4.0085817484e+00 
92600 4.8514686812e+00 -7.3754322742e-05 2.3143573637e+00 -4.0085845407e+00 2.3143573637e+00 4.0085845407e+00 
92700 4.8514686813e+00 -7.2895239387e-05 2.3143589571e+00 -4.0085873006e+00 2.3143589571e+00 4.0085873006e+00 
92800 4.8514686815e+00 -7.2045898245e-05 2.3143605319e+00 -4.0085900283e+00 2.3143605319e+00 4.0085900283e+00 
92900 4.8514686817e+00 -7.1206191498e-05 2.3143620884e+00 -4.0085927242e+00 2.3143620884e+00 4.0085927242e+00 
93000 4.8514686819e+00 -7.0376012491e-05 2.3143636268e+00 -4.0085953888e+00 2.3143636268e+00 4.0085953888e+00 
93100 4.8514686822e+00 -7.0545917953e-05 2.3143636268e+00 -4.0085953888e+00 2.3143636268e+00 4.0085953888e+00 
93200 4.8514686824e+00 -7.0718086168e-05 2.3143636268e+00 -4.0085953888e+00 2.3143636268e+00 4.0085953888e+00 
93300 4.8514686826e+00 -6.9896909303e-05 2.3143651546e+00 -4.0085980350e+00 2.3143651546e+00 4.0085980350e+00 
93400 4.8514686829e+00 -7.0068707993e-05 2.3143651546e+00 -4.0085980350e+00 2.3143651546e+00 4.0085980350e+00 
93500 4.8514686831e+00 -7.0242502678e-05 2.3143651546e+00 -4.0085980350e+00 2.3143651546e+00 4.0085980350e+00 
93600 4.8514686834e+00 -7.0418174811e-05 2.3143651546e+00 -4.0085980350e+00 2.3143651546e+00 4.0085980350e+00 
93700 4.8514686836e+00 -7.0595608825e-05 2.3143651546e+00 -4.0085980350e+00 2.3143651546e+00 4.0085980350e+00 
93800 4.8514686839e+00 -7.0774692062e-05 2.3143651546e+00 -4.0085980350e+00 2.3143651546e+00 4.0085980350e+00 
93900 4.8514686840e+00 -6.9959026077e-05 2.3143666836e+00 -4.0086006834e+00 2.3143666836e+00 4.0086006834e+00 
94000 4.8514686843e+00 -7.0136557546e-05 2.3143666836e+00 -4.0086006834e+00 2.3143666836e+00 4.0086006834e+00 
94100 4.8514686845e+00 -7.0315519151e-05 2.3143666836e+00 -4.0086006834e+00 2.3143666836e+00 4.0086006834e+00 
94200 4.8514686848e+00 -7.0495807457e-05 2.3143666836e+00 -4.0086006834e+00 2.3143666836e+00 4.0086006834e+00 
94300 4.8514686850e+00 -7.0677321671e-05 2.3143666836e+00 -4.0086006834e+00 2.3143666836e+00 4.0086006834e+00 
94400 4.8514686852e+00 -7.0859963576e-05 2.3143666836e+00 -4.0086006834e+00 2.3143666836e+00 4.0086006834e+00 
94500 4.8514686854e+00 -7.0046139653e-05 2.3143682145e+00 -4.0086033349e+00 2.3143682145e+00 4.0086033349e+00 
94600 4.8514686856e+00 -7.0226223408e-05 2.3143682145e+00 -4.0086033349e+00 2.3143682145e+00 4.0086033349e+00 
94700 4.8514686859e+00 -7.0407257381e-05 2.3143682145e+00 -4.0086033349e+00 2.3143682145e+00 4.0086033349e+00 
94800 4.8514686861e+00 -7.0589151402e-05 2.3143682145e+00 -4.0086033349e+00 2.3143682145e+00 4.0086033349e+00 
94900 4.8514686863e+00 -7.0771817669e-05 2.3143682145e+00 -4.0086033349e+00 2.3143682145e+00 4.0086033349e+00 
95000 4.8514686864e+00 -6.9958907492e-05 2.3143697434e+00 -4.0086059832e+00 2.3143697434e+00 4.0086059832e+00 
95100 4.8514686866e+00 -7.0138340816e-05 2.3143697434e+00 -4.0086059832e+00 2.3143697434e+00 4.0086059832e+00 
95200 4.8514686869e+00 -7.0318398849e-05 2.3143697434e+00 -4.0086059832e+00 2.3143697434e+00 4.0086059832e+00 
95300 4.8514686871e+00 -7.0499001066e-05 2.3143697434e+00 -4.0086059832e+00 2.3143697434e+00 4.0086059832e+00 
95400 4.8514686873e+00 -7.0680069137e-05 2.3143697434e+00 -4.0086059832e+00 2.3143697434e+00 4.0086059832e+00 
95500 4.8514686875e+00 -7.0861526876e-05 2.3143697434e+00 -4.0086059832e+00 2.3143697434e+00 4.0086059832e+00 
95600 4.8514686876e+00 -7.0045767205e-05 2.3143712744e+00 -4.0086086348e+00 2.3143712744e+00 4.0086086348e+00 
95700 4.8514686878e+00 -7.0223255134e-05 2.3143712744e+00 -4.0086086348e+00 2.3143712744e+00 4.0086086348e+00 
95800 4.8514686880e+00 -7.0401018910e-05 2.3143712744e+00 -4.0086086348e+00 2.3143712744e+00 4.0086086348e+00 
95900 4.8514686882e+00 -7.0578988797e-05 2.3143712744e+00 -4.0086086348e+00 2.3143712744e+00 4.0086086348e+00 
96000 4.8514686884e+00 -7.0757097053e-05 2.3143712744e+00 -4.0086086348e+00 2.3143712744e+00 4.0086086348e+00 
96100 4.8514686885e+00 -6.9939210193e-05 2.3143728030e+00 -4.0086112824e+00 2.3143728030e+00 4.0086112824e+00 
96200 4.8514686887e+00 -7.0112877456e-05 2.3143728030e+00 -4.0086112824e+00 2.3143728030e+00 4.0086112824e+00 
96300 4.8514686889e+00 -7.0286593567e-05 2.3143728030e+00 -4.0086112824e+00 2.3143728030e+00 4.0086112824e+00 
96400 4.8514686891e+00 -7.0460296654e-05 2.3143728030e+00 -4.0086112824e+00 2.3143728030e+00 4.0086112824e+00 
96500 4.8514686893e+00 -7.0633926706e-05 2.3143728030e+00 -4.0086112824e+00 2.3143728030e+00 4.0086112824e+00 
96600 4.8514686894e+00 -7.0807425527e-05 2.3143728030e+00 -4.0086112824e+00 2.3143728030e+00 4.0086112824e+00 
96700 4.8514686895e+00 -6.9983955133e-05 2.3143743327e+00 -4.0086139320e+00 2.3143743327e+00 4.0086139320e+00 
96800 4.8514686897e+00 -7.0152498492e-05 2.3143743327e+00 -4.0086139320e+00 2.3143743327e+00 4.0086139320e+00 
96900 4.8514686899e+00 -7.0320848779e-05 2.3143743327e+00 -4.0086139320e+00 2.3143743327e+00 4.0086139320e+00 
97000 4.8514686901e+00 -7.0488952988e-05 2.3143743327e+00 -4.0086139320e+00 2.3143743327e+00 4.0086139320e+00 
97100 4.8514686902e+00 -7.0656759804e-05 2.3143743327e+00 -4.0086139320e+00 2.3143743327e+00 4.0086139320e+00 
97200 4.8514686904e+00 -7.0824219574e-05 2.3143743327e+00 -4.0086139320e+00 2.3143743327e+00 4.0086139320e+00 
97300 4.8514686905e+00 -6.9994261624e-05 2.3143758628e+00 -4.0086165822e+00 2.3143758628e+00 4.0086165822e+00 
97400 4.8514686906e+00 -7.0156358192e-05 2.3143758628e+00 -4.0086165822e+00 2.3143758628e+00 4.0086165822e+00 
97500 4.8514686908e+00 -7.0318070558e-05 2.3143758628e+00 -4.0086165822e+00 2.3143758628e+00 4.0086165822e+00 
97600 4.8514686910e+00 -7.0479353626e-05 2.3143758628e+00 -4.0086165822e+00 2.3143758628e+00 4.0086165822e+00 
97700 4.8514686911e+00 -7.0640163839e-05 2.3143758628e+00 -4.0086165822e+00 2.3143758628e+00 4.0086165822e+00 
97800 4.8514686913e+00 -7.0800459146e-05 2.3143758628e+00 -4.0086165822e+00 2.3143758628e+00 4.0086165822e+00 
97900 4.8514686914e+00 -6.9963506835e-05 2.3143773924e+00 -4.0086192315e+00 2.3143773924e+00 4.0086192315e+00 
98000 4.8514686915e+00 -7.0118126949e-05 2.3143773924e+00 -4.0086192315e+00 2.3143773924e+00 4.0086192315e+00 
98100 4.8514686917e+00 -7.0272216896e-05 2.3143773924e+00 -4.0086192315e+00 2.3143773924e+00 4.0086192315e+00 
98200 4.8514686918e+00 -7.0425738596e-05 2.3143773924e+00 -4.0086192315e+00 2.3143773924e+00 4.0086192315e+00 
98300 4.8514686920e+00 -7.0578655364e-05 2.3143773924e+00 -4.0086192315e+00 2.3143773924e+00 4.0086192315e+00 
98400 4.8514686921e+00 -7.0730931881e-05 2.3143773924e+00 -4.0086192315e+00 2.3143773924e+00 4.0086192315e+00 
98500 4.8514686921e+00 -6.9886817402e-05 2.3143789205e+00 -4.0086218782e+00 2.3143789205e+00 4.0086218782e+00 
98600 4.8514686923e+00 -7.0033192085e-05 2.3143789205e+00 -4.0086218782e+00 2.3143789205e+00 4.0086218782e+00 
98700 4.8514686924e+00 -7.0178930506e-05 2.3143789205e+00 -4.0086218782e+00 2.3143789205e+00 4.0086218782e+00 
98800 4.8514686926e+00 -7.0324000760e-05 2.3143789205e+00 -4.0086218782e+00 2.3143789205e+00 4.0086218782e+00 
98900 4.8514686927e+00 -7.0468372202e-05 2.3143789205e+00 -4.0086218782e+00 2.3143789205e+00 4.0086218782e+00 
99000 4.8514686928e+00 -7.0612015417e-05 2.3143789205e+00 -4.0086218782e+00 2.3143789205e+00 4.0086218782e+00 
99100 4.8514686930e+00 -7.0754902189e-05 2.3143789205e+00 -4.0086218782e+00 2.3143789205e+00 4.0086218782e+00 
99200 4.8514686930e+00 -6.9900947675e-05 2.3143804491e+00 -4.0086245258e+00 2.3143804491e+00 4.0086245258e+00 
99300 4.8514686931e+00 -7.0037719339e-05 2.3143804491e+00 -4.0086245258e+00 2.3143804491e+00 4.0086245258e+00 
99400 4.8514686933e+00 -7.0173758933e-05 2.3143804491e+00 -4.0086245258e+00 2.3143804491e+00 4.0086245258e+00 
99500 4.8514686934e+00 -7.0309041014e-05 2.3143804491e+00 -4.0086245258e+00 2.3143804491e+00 4.0086245258e+00 
99600 4.8514686935e+00 -7.0443541248e-05 2.3143804491e+00 -4.0086245258e+00 2.3143804491e+00 4.0086245258e+00 
99700 4.8514686936e+00 -7.0577236379e-05 2.3143804491e+00 -4.0086245258e+00 2.3143804491e+00 4.0086245258e+00 
99800 4.8514686938e+00 -7.0710104198e-05 2.3143804491e+00 -4.0086245258e+00 2.3143804491e+00 4.0086245258e+00 
99900 4.8514686939e+00 -7.0842123517e-05 2.3143804491e+00 -4.0086245258e+00 2.3143804491e+00 4.0086245258e+00 
100000 4.8514686939e+00 -6.9975984887e-05 2.3143819796e+00 -4.0086271767e+00 2.3143819796e+00 4.0086271767e+00 
100100 4.8514686940e+00 -7.0101719769e-05 2.3143819796e+00 -4.0086271767e+00 2.3143819796e+00 4.0086271767e+00 
100200 4.8514686941e+00 -7.0226650697e-05 2.3143819796e+00 -4.0086271767e+00 2.3143819796e+00 4.0086271767e+00 
100300 4.8514686942e+00 -7.0350758569e-05 2.3143819796e+00 -4.0086271767e+00 2.3143819796e+00 4.0086271767e+00 
100400 4.8514686943e+00 -7.0474025227e-05 2.3143819796e+00 -4.0086271767e+00 2.3143819796e+00 4.0086271767e+00 
100500 4.8514686945e+00 -7.0596433428e-05 2.3143819796e+00 -4.0086271767e+00 2.3143819796e+00 4.0086271767e+00 
100600 4.8514686946e+00 -7.0717966816e-05 2.3143819796e+00 -4.0086271767e+00 2.3143819796e+00 4.0086271767e+00 
100700 4.8514686946e+00 -6.9843066179e-05 2.3143835073e+00 -4.0086298229e+00 2.3143835073e+00 4.0086298229e+00 
100800 4.8514686947e+00 -6.9958284384e-05 2.3143835073e+00 -4.0086298229e+00 2.3143835073e+00 4.0086298229e+00 
100900 4.8514686948e+00 -7.0072685861e-05 2.3143835073e+00 -4.0086298229e+00 2.3143835073e+00 4.0086298229e+00 
101000 4.8514686949e+00 -7.0186255834e-05 2.3143835073e+00 -4.0086298229e+00 2.3143835073e+00 4.0086298229e+00 
101100 4.8514686950e+00 -7.0298980342e-05 2.3143835073e+00 -4.0086298229e+00 2.3143835073e+00 4.0086298229e+00 
101200 4.8514686951e+00 -7.0410846214e-05 2.3143835073e+00 -4.0086298229e+00 2.3143835073e+00 4.0086298229e+00 
101300 4.8514686952e+00 -7.0521841050e-05 2.3143835073e+00 -4.0086298229e+00 2.3143835073e+00 4.0086298229e+00 
101400 4.8514686953e+00 -7.0631953194e-05 2.3143835073e+00 -4.0086298229e+00 2.3143835073e+00 4.0086298229e+00 
101500 4.8514686954e+00 -7.0741171709e-05 2.3143835073e+00 -4.0086298229e+00 2.3143835073e+00 4.0086298229e+00 
101600 4.8514686954e+00 -6.9853613186e-05 2.3143850356e+00 -4.0086324700e+00 2.3143850356e+00 4.0086324700e+00 
101700 4.8514686955e+00 -6.9956492974e-05 2.3143850356e+00 -4.0086324700e+00 2.3143850356e+00 4.0086324700e+00 
101800 4.8514686956e+00 -7.0058552543e-05 2.3143850356e+00 -4.0086324700e+00 2.3143850356e+00 4.0086324700e+00 
101900 4.8514686956e+00 -7.0159781898e-05 2.3143850356e+00 -4.0086324700e+00 2.3143850356e+00 4.0086324700e+00 
102000 4.8514686957e+00 -7.0260171708e-05 2.3143850356e+00 -4.0086324700e+00 2.3143850356e+00 4.0086324700e+00 
102100 4.8514686958e+00 -7.0359713286e-05 2.3143850356e+00 -4.0086324700e+00 2.3143850356e+00 4.0086324700e+00 
102200 4.8514686959e+00 -7.0458398567e-05 2.3143850356e+00 -4.0086324700e+00 2.3143850356e+00 4.0086324700e+00 
102300 4.8514686960e+00 -7.0556220085e-05 2.3143850356e+00 -4.0086324700e+00 2.3143850356e+00 4.0086324700e+00 
102400 4.8514686961e+00 -7.0653170958e-05 2.3143850356e+00 -4.0086324700e+00 2.3143850356e+00 4.0086324700e+00 
102500 4.8514686961e+00 -7.0749244865e-05 2.3143850356e+00 -4.0086324700e+00 2.3143850356e+00 4.0086324700e+00 
102600 4.8514686961e+00 -6.9848446726e-05 2.3143865641e+00 -4.0086351174e+00 2.3143865641e+00 4.0086351174e+00 
102700 4.8514686962e+00 -6.9938227898e-05 2.3143865641e+00 -4.0086351174e+00 2.3143865641e+00 4.0086351174e+00 
102800 4.8514686963e+00 -7.0027218450e-05 2.3143865641e+00 -4.0086351174e+00 2.3143865641e+00 4.0086351174e+00 
102900 4.8514686964e+00 -7.0115412395e-05 2.3143865641e+00 -4.0086351174e+00 2.3143865641e+00 4.0086351174e+00 
103000 4.8514686964e+00 -7.0202804268e-05 2.3143865641e+00 -4.0086351174e+00 2.3143865641e+00 4.0086351174e+00 
103100 4.8514686965e+00 -7.0289389108e-05 2.3143865641e+00 -4.0086351174e+00 2.3143865641e+00 4.0086351174e+00 
103200 4.8514686966e+00 -7.0375162439e-05 2.3143865641e+00 -4.0086351174e+00 2.3143865641e+00 4.0086351174e+00 
103300 4.8514686967e+00 -7.0460120252e-05 2.3143865641e+00 -4.0086351174e+00 2.3143865641e+00 4.0086351174e+00 
103400 4.8514686967e+00 -7.0544258984e-05 2.3143865641e+00 -4.0086351174e+00 2.3143865641e+00 4.0086351174e+00 
103500 4.8514686968e+00 -7.0627575512e-05 2.3143865641e+00 -4.0086351174e+00 2.3143865641e+00 4.0086351174e+00 
103600 4.8514686969e+00 -7.0710067127e-05 2.3143865641e+00 -4.0086351174e+00 2.3143865641e+00 4.0086351174e+00 
103700 4.8514686969e+00 -7.0791731524e-05 2.3143865641e+00 -4.0086351174e+00 2.3143865641e+00 4.0086351174e+00 
103800 4.8514686969e+00 -6.9875976966e-05 2.3143880935e+00 -4.0086377664e+00 2.3143880935e+00 4.0086377664e+00 
103900 4.8514686970e+00 -6.9951456791e-05 2.3143880935e+00 -4.0086377664e+00 2.3143880935e+00 4.0086377664e+00 
104000 4.8514686971e+00 -7.0026206936e-05 2.3143880935e+00 -4.0086377664e+00 2.3143880935e+00 4.0086377664e+00 
104100 4.8514686971e+00 -7.0100224831e-05 2.3143880935e+00 -4.0086377664e+00 2.3143880935e+00 4.0086377664e+00 
104200 4.8514686972e+00 -7.0173508285e-05 2.3143880935e+00 -4.0086377664e+00 2.3143880935e+00 4.0086377664e+00 
104300 4.8514686972e+00 -7.0246055475e-05 2.3143880935e+00 -4.0086377664e+00 2.3143880935e+00 4.0086377664e+00 
104400 4.8514686973e+00 -7.0317864928e-05 2.3143880935e+00 -4.0086377664e+00 2.3143880935e+00 4.0086377664e+00 
104500 4.8514686974e+00 -7.0388935505e-05 2.3143880935e+00 -4.0086377664e+00 2.3143880935e+00 4.0086377664e+00 
104600 4.8514686974e+00 -7.0459266396e-05 2.3143880935e+00 -4.0086377664e+00 2.3143880935e+00 4.0086377664e+00 
104700 4.8514686975e+00 -7.0528857094e-05 2.3143880935e+00 -4.0086377664e+00 2.3143880935e+00 4.0086377664e+00 
104800 4.8514686975e+00 -7.0597707392e-05 2.3143880935e+00 -4.0086377664e+00 2.3143880935e+00 4.0086377664e+00 
104900 4.8514686976e+00 -7.0665817369e-05 2.3143880935e+00 -4.0086377664e+00 2.3143880935e+00 4.0086377664e+00 
105000 4.8514686977e+00 -7.0733187373e-05 2.3143880935e+00 -4.0086377664e+00 2.3143880935e+00 4.0086377664e+00 
105100 4.8514686976e+00 -6.9804050569e-05 2.3143896216e+00 -4.0086404131e+00 2.3143896216e+00 4.0086404131e+00 
105200 4.8514686977e+00 -6.9865421658e-05 2.3143896216e+00 -4.0086404131e+00 2.3143896216e+00 4.0086404131e+00 
105300 4.8514686977e+00 -6.9926157457e-05 2.3143896216e+00 -4.0086404131e+00 2.3143896216e+00 4.0086404131e+00 
105400 4.8514686978e+00 -6.9986257568e-05 2.3143896216e+00 -4.0086404131e+00 2.3143896216e+00 4.0086404131e+00 
105500 4.8514686978e+00 -7.0045721862e-05 2.3143896216e+00 -4.0086404131e+00 2.3143896216e+00 4.0086404131e+00 
105600 4.8514686979e+00 -7.0104550461e-05 2.3143896216e+00 -4.0086404131e+00 2.3143896216e+00 4.0086404131e+00 
105700 4.8514686979e+00 -7.0162743737e-05 2.3143896216e+00 -4.0086404131e+00 2.3143896216e+00 4.0086404131e+00 
105800 4.8514686980e+00 -7.0220302288e-05 2.3143896216e+00 -4.0086404131e+00 2.3143896216e+00 4.0086404131e+00 
105900 4.8514686980e+00 -7.0277226938e-05 2.3143896216e+00 -4.0086404131e+00 2.3143896216e+00 4.0086404131e+00 
106000 4.8514686981e+00 -7.0333518720e-05 2.3143896216e+00 -4.0086404131e+00 2.3143896216e+00 4.0086404131e+00 
106100 4.8514686981e+00 -7.0389178867e-05 2.3143896216e+00 -4.0086404131e+00 2.3143896216e+00 4.0086404131e+00 
106200 4.8514686982e+00 -7.0444208805e-05 2.3143896216e+00 -4.0086404131e+00 2.3143896216e+00 4.0086404131e+00 
106300 4.8514686982e+00 -7.0498610142e-05 2.3143896216e+00 -4.0086404131e+00 2.3143896216e+00 4.0086404131e+00 
106400 4.8514686982e+00 -7.0529875588e-05 2.3143896216e+00 -4.0086404131e+00 2.3143896216e+00 4.0086404131e+00 
106400 4.8514686982e+00 -7.0529875588e-05 2.3143896216e+00 -4.0086404131e+00 2.3143896216e+00 4.0086404131e+00 
