# step Hamiltonian StressXX CellTensor1 CellTensor2 CellTensor3 CellTensor4 
0 5.5641325826e+00 -7.2674670587e-02 1.6087831444e+00 -2.7864941444e+00 1.6087831444e+00 2.7864941444e+00 
100 5.5663433114e+00 -7.4796462772e-02 1.6087831444e+00 -2.7864941444e+00 1.6087831444e+00 2.7864941444e+00 
200 5.5682918724e+00 -7.4292223666e-02 1.6111083319e+00 -2.7905214873e+00 1.6111083319e+00 2.7905214873e+00 
300 5.5701843183e+00 -7.3912277958e-02 1.6134145057e+00 -2.7945158976e+00 1.6134145057e+00 2.7945158976e+00 
400 5.5720112428e+00 -7.3646972965e-02 1.6157056015e+00 -2.7984841918e+00 1.6157056015e+00 2.7984841918e+00 
500 5.5737639777e+00 -7.3486868422e-02 1.6179852328e+00 -2.8024326291e+00 1.6179852328e+00 2.8024326291e+00 
600 5.5754346735e+00 -7.3422742742e-02 1.6202567008e+00 -2.8063669272e+00 1.6202567008e+00 2.8063669272e+00 
700 5.5770163588e+00 -7.3445599540e-02 1.6225230032e+00 -2.8102922780e+00 1.6225230032e+00 2.8102922780e+00 
800 5.5785029797e+00 -7.3546674104e-02 1.6247868432e+00 -2.8142133640e+00 1.6247868432e+00 2.8142133640e+00 
900 5.5798894223e+00 -7.3717439635e-02 1.6270506394e+00 -2.8181343740e+00 1.6270506394e+00 2.8181343740e+00 
1000 5.5811715207e+00 -7.3949613105e-02 1.6293165345e+00 -2.8220590194e+00 1.6293165345e+00 2.8220590194e+00 
1100 5.5823460518e+00 -7.4235160673e-02 1.6315864052e+00 -2.8259905507e+00 1.6315864052e+00 2.8259905507e+00 
1200 5.5834107183e+00 -7.4566302600e-02 1.6338618712e+00 -2.8299317735e+00 1.6338618712e+00 2.8299317735e+00 
1300 5.5843641231e+00 -7.4935517639e-02 1.6361443051e+00 -2.8338850650e+00 1.6361443051e+00 2.8338850650e+00 
1400 5.5852057341e+00 -7.5335546903e-02 1.6384348419e+00 -2.8378523910e+00 1.6384348419e+00 2.8378523910e+00 
1500 5.5859358435e+00 -7.5759397198e-02 1.6407343883e+00 -2.8418353223e+00 1.6407343883e+00 2.8418353223e+00 
1600 5.5865555202e+00 -7.6200343839e-02 1.6430436329e+00 -2.8458350512e+00 1.6430436329e+00 2.8458350512e+00 
1700 5.5870665583e+00 -7.6651932953e-02 1.6453630552e+00 -2.8498524086e+00 1.6453630552e+00 2.8498524086e+00 
1800 5.5874714220e+00 -7.7107983294e-02 1.6476929360e+00 -2.8538878804e+00 1.6476929360e+00 2.8538878804e+00 
1900 5.5877731876e+00 -7.7562587566e-02 1.6500333662e+00 -2.8579416245e+00 1.6500333662e+00 2.8579416245e+00 
2000 5.5879754846e+00 -7.8010113290e-02 1.6523842573e+00 -2.8620134873e+00 1.6523842573e+00 2.8620134873e+00 
2100 5.5880824346e+00 -7.8445203215e-02 1.6547453504e+00 -2.8661030204e+00 1.6547453504e+00 2.8661030204e+00 
2200 5.5880985913e+00 -7.8862775297e-02 1.6571162259e+00 -2.8702094973e+00 1.6571162259e+00 2.8702094973e+00 
2300 5.5880288800e+00 -7.9258022255e-02 1.6594963131e+00 -2.8743319292e+00 1.6594963131e+00 2.8743319292e+00 
2400 5.5878785381e+00 -7.9626410729e-02 1.6618848994e+00 -2.8784690821e+00 1.6618848994e+00 2.8784690821e+00 
2500 5.5876530578e+00 -7.9963680040e-02 1.6642811398e+00 -2.8826194921e+00 1.6642811398e+00 2.8826194921e+00 
2600 5.5873581296e+00 -8.0265840587e-02 1.6666840658e+00 -2.8867814821e+00 1.6666840658e+00 2.8867814821e+00 
2700 5.5869995884e+00 -8.0529171877e-02 1.6690925949e+00 -2.8909531768e+00 1.6690925949e+00 2.8909531768e+00 
2800 5.5865833626e+00 -8.0750220219e-02 1.6715055389e+00 -2.8951325186e+00 1.6715055389e+00 2.8951325186e+00 
2900 5.5861154253e+00 -8.0925796090e-02 1.6739216135e+00 -2.8993172825e+00 1.6739216135e+00 2.8993172825e+00 
3000 5.5856017484e+00 -8.1052971192e-02 1.6763394461e+00 -2.9035050914e+00 1.6763394461e+00 2.9035050914e+00 
3100 5.5850482600e+00 -8.1129075210e-02 1.6787575848e+00 -2.9076934305e+00 1.6787575848e+00 2.9076934305e+00 
3200 5.5844608055e+00 -8.1151692299e-02 1.6811745064e+00 -2.9118796615e+00 1.6811745064e+00 2.9118796615e+00 
3300 5.5838451108e+00 -8.1118657302e-02 1.6835886247e+00 -2.9160610370e+00 1.6835886247e+00 2.9160610370e+00 
3400 5.5832067495e+00 -8.1028051723e-02 1.6859982981e+00 -2.9202347138e+00 1.6859982981e+00 2.9202347138e+00 
3500 5.5825511139e+00 -8.0878199471e-02 1.6884018377e+00 -2.9243977664e+00 1.6884018377e+00 2.9243977664e+00 
3600 5.5818833877e+00 -8.0667662384e-02 1.6907975142e+00 -2.9285472000e+00 1.6907975142e+00 2.9285472000e+00 
3700 5.5812085236e+00 -8.0395235550e-02 1.6931835659e+00 -2.9326799627e+00 1.6931835659e+00 2.9326799627e+00 
3800 5.5805312230e+00 -8.0059942440e-02 1.6955582050e+00 -2.9367929582e+00 1.6955582050e+00 2.9367929582e+00 
3900 5.5798559193e+00 -7.9661029867e-02 1.6979196248e+00 -2.9408830573e+00 1.6979196248e+00 2.9408830573e+00 
4000 5.5791867634e+00 -7.9197962777e-02 1.7002660064e+00 -2.9449471095e+00 1.7002660064e+00 2.9449471095e+00 
4100 5.5785276132e+00 -7.8670418890e-02 1.7025955248e+00 -2.9489819537e+00 1.7025955248e+00 2.9489819537e+00 
4200 5.5778820248e+00 -7.8078283201e-02 1.7049063551e+00 -2.9529844292e+00 1.7049063551e+00 2.9529844292e+00 
4300 5.5772532468e+00 -7.7421642341e-02 1.7071966785e+00 -2.9569513856e+00 1.7071966785e+00 2.9569513856e+00 
4400 5.5766442168e+00 -7.6700778820e-02 1.7094646877e+00 -2.9608796929e+00 1.7094646877e+00 2.9608796929e+00 
4500 5.5760575602e+00 -7.5916165153e-02 1.7117085929e+00 -2.9647662507e+00 1.7117085929e+00 2.9647662507e+00 
4600 5.5754955917e+00 -7.5068457866e-02 1.7139266263e+00 -2.9686079972e+00 1.7139266263e+00 2.9686079972e+00 
4700 5.5749603177e+00 -7.4158491412e-02 1.7161170475e+00 -2.9724019180e+00 1.7161170475e+00 2.9724019180e+00 
4800 5.5744534416e+00 -7.3187271970e-02 1.7182781481e+00 -2.9761450541e+00 1.7182781481e+00 2.9761450541e+00 
4900 5.5739763703e+00 -7.2155971155e-02 1.7204082564e+00 -2.9798345099e+00 1.7204082564e+00 2.9798345099e+00 
5000 5.5735302224e+00 -7.1065919633e-02 1.7225057415e+00 -2.9834674606e+00 1.7225057415e+00 2.9834674606e+00 
5100 5.5731158374e+00 -6.9918600639e-02 1.7245690173e+00 -2.9870411591e+00 1.7245690173e+00 2.9870411591e+00 
5200 5.5727337869e+00 -6.8715643404e-02 1.7265965465e+00 -2.9905529427e+00 1.7265965465e+00 2.9905529427e+00 
5300 5.5723843862e+00 -6.7458816491e-02 1.7285868444e+00 -2.9940002397e+00 1.7285868444e+00 2.9940002397e+00 
5400 5.5720677074e+00 -6.6150021041e-02 1.7305384817e+00 -2.9973805748e+00 1.7305384817e+00 2.9973805748e+00 
5500 5.5717835929e+00 -6.4791283925e-02 1.7324500886e+00 -3.0006915750e+00 1.7324500886e+00 3.0006915750e+00 
5600 5.5715316698e+00 -6.3384750804e-02 1.7343203568e+00 -3.0039309745e+00 1.7343203568e+00 3.0039309745e+00 
5700 5.5713113652e+00 -6.1932679101e-02 1.7361480430e+00 -3.0070966200e+00 1.7361480430e+00 3.0070966200e+00 
5800 5.5711219214e+00 -6.0437430876e-02 1.7379319713e+00 -3.0101864745e+00 1.7379319713e+00 3.0101864745e+00 
5900 5.5709624119e+00 -5.8901465612e-02 1.7396710354e+00 -3.0131986217e+00 1.7396710354e+00 3.0131986217e+00 
6000 5.5708317570e+00 -5.7327332911e-02 1.7413642006e+00 -3.0161312698e+00 1.7413642006e+00 3.0161312698e+00 
6100 5.5707287407e+00 -5.5717665093e-02 1.7430105062e+00 -3.0189827549e+00 1.7430105062e+00 3.0189827549e+00 
6200 5.5706520261e+00 -5.4075169719e-02 1.7446090673e+00 -3.0217515438e+00 1.7446090673e+00 3.0217515438e+00 
6300 5.5706001724e+00 -5.2402622018e-02 1.7461590755e+00 -3.0244362369e+00 1.7461590755e+00 3.0244362369e+00 
6400 5.5705716498e+00 -5.0702857241e-02 1.7476598013e+00 -3.0270355703e+00 1.7476598013e+00 3.0270355703e+00 
6500 5.5705648561e+00 -4.8978762937e-02 1.7491105947e+00 -3.0295484181e+00 1.7491105947e+00 3.0295484181e+00 
6600 5.5705781316e+00 -4.7233271160e-02 1.7505108862e+00 -3.0319737940e+00 1.7505108862e+00 3.0319737940e+00 
6700 5.5706097741e+00 -4.5469350621e-02 1.7518601875e+00 -3.0343108525e+00 1.7518601875e+00 3.0343108525e+00 
6800 5.5706580535e+00 -4.3689998782e-02 1.7531580925e+00 -3.0365588898e+00 1.7531580925e+00 3.0365588898e+00 
6900 5.5707212255e+00 -4.1898233923e-02 1.7544042770e+00 -3.0387173448e+00 1.7544042770e+00 3.0387173448e+00 
7000 5.5707975449e+00 -4.0097087168e-02 1.7555984996e+00 -3.0407857989e+00 1.7555984996e+00 3.0407857989e+00 
7100 5.5708852786e+00 -3.8289594518e-02 1.7567406010e+00 -3.0427639767e+00 1.7567406010e+00 3.0427639767e+00 
7200 5.5709827168e+00 -3.6478788873e-02 1.7578305044e+00 -3.0446517447e+00 1.7578305044e+00 3.0446517447e+00 
7300 5.5710881849e+00 -3.4667692094e-02 1.7588682147e+00 -3.0464491116e+00 1.7588682147e+00 3.0464491116e+00 
7400 5.5712000534e+00 -3.2859307095e-02 1.7598538180e+00 -3.0481562267e+00 1.7598538180e+00 3.0481562267e+00 
7500 5.5713167472e+00 -3.1056610010e-02 1.7607874811e+00 -3.0497733786e+00 1.7607874811e+00 3.0497733786e+00 
7600 5.5714367549e+00 -2.9262542440e-02 1.7616694501e+00 -3.0513009938e+00 1.7616694501e+00 3.0513009938e+00 
7700 5.5715586360e+00 -2.7480003816e-02 1.7625000498e+00 -3.0527396346e+00 1.7625000498e+00 3.0527396346e+00 
7800 5.5716810281e+00 -2.5711843896e-02 1.7632796818e+00 -3.0540899968e+00 1.7632796818e+00 3.0540899968e+00 
7900 5.5718026525e+00 -2.3960855425e-02 1.7640088235e+00 -3.0553529073e+00 1.7640088235e+00 3.0553529073e+00 
8000 5.5719223198e+00 -2.2229766979e-02 1.7646880262e+00 -3.0565293209e+00 1.7646880262e+00 3.0565293209e+00 
8100 5.5720389336e+00 -2.0521236025e-02 1.7653179135e+00 -3.0576203176e+00 1.7653179135e+00 3.0576203176e+00 
8200 5.5721514938e+00 -1.8837842227e-02 1.7658991788e+00 -3.0586270987e+00 1.7658991788e+00 3.0586270987e+00 
8300 5.5722590994e+00 -1.7182081008e-02 1.7664325838e+00 -3.0595509833e+00 1.7664325838e+00 3.0595509833e+00 
8400 5.5723609497e+00 -1.5556357417e-02 1.7669189559e+00 -3.0603934044e+00 1.7669189559e+00 3.0603934044e+00 
8500 5.5724563448e+00 -1.3962980308e-02 1.7673591856e+00 -3.0611559046e+00 1.7673591856e+00 3.0611559046e+00 
8600 5.5725446861e+00 -1.2404156866e-02 1.7677542241e+00 -3.0618401314e+00 1.7677542241e+00 3.0618401314e+00 
8700 5.5726254749e+00 -1.0881987495e-02 1.7681050808e+00 -3.0624478330e+00 1.7681050808e+00 3.0624478330e+00 
8800 5.5726983109e+00 -9.3984611000e-03 1.7684128199e+00 -3.0629808529e+00 1.7684128199e+00 3.0629808529e+00 
8900 5.5727628902e+00 -7.9554507747e-03 1.7686785581e+00 -3.0634411249e+00 1.7686785581e+00 3.0634411249e+00 
9000 5.5728190020e+00 -6.5547099147e-03 1.7689034610e+00 -3.0638306682e+00 1.7689034610e+00 3.0638306682e+00 
9100 5.5728665255e+00 -5.1978687751e-03 1.7690887403e+00 -3.0641515814e+00 1.7690887403e+00 3.0641515814e+00 
9200 5.5729054254e+00 -3.8864314830e-03 1.7692356505e+00 -3.0644060372e+00 1.7692356505e+00 3.0644060372e+00 
9300 5.5729357476e+00 -2.6217735173e-03 1.7693454852e+00 -3.0645962766e+00 1.7693454852e+00 3.0645962766e+00 
9400 5.5729576143e+00 -1.4051396641e-03 1.7694195745e+00 -3.0647246030e+00 1.7694195745e+00 3.0647246030e+00 
9500 5.5729712188e+00 -2.3764245309e-04 1.7694592809e+00 -3.0647933765e+00 1.7694592809e+00 3.0647933765e+00 
9600 5.5729768193e+00 8.7973892142e-04 1.7694659960e+00 -3.0648050074e+00 1.7694659960e+00 3.0648050074e+00 
9700 5.5729747338e+00 1.9461591961e-03 1.7694411372e+00 -3.0647619507e+00 1.7694411372e+00 3.0647619507e+00 
9800 5.5729653336e+00 2.9609071519e-03 1.7693861439e+00 -3.0646666994e+00 1.7693861439e+00 3.0646666994e+00 
9900 5.5729490369e+00 3.9234052522e-03 1.7693024741e+00 -3.0645217791e+00 1.7693024741e+00 3.0645217791e+00 
10000 5.5729263032e+00 4.8332088124e-03 1.7691916009e+00 -3.0643297411e+00 1.7691916009e+00 3.0643297411e+00 
10100 5.5728976265e+00 5.6900047144e-03 1.7690550089e+00 -3.0640931569e+00 1.7690550089e+00 3.0640931569e+00 
10200 5.5728635290e+00 6.4936096765e-03 1.7688941909e+00 -3.0638146119e+00 1.7688941909e+00 3.0638146119e+00 
10300 5.5728245554e+00 7.2439680972e-03 1.7687106441e+00 -3.0634966995e+00 1.7687106441e+00 3.0634966995e+00 
10400 5.5727812664e+00 7.9411494900e-03 1.7685058670e+00 -3.0631420152e+00 1.7685058670e+00 3.0631420152e+00 
10500 5.5727342332e+00 8.5853455293e-03 1.7682813560e+00 -3.0627531507e+00 1.7682813560e+00 3.0627531507e+00 
10600 5.5726840316e+00 9.1768667308e-03 1.7680386020e+00 -3.0623326883e+00 1.7680386020e+00 3.0623326883e+00 
10700 5.5726312368e+00 9.7161387880e-03 1.7677790872e+00 -3.0618831956e+00 1.7677790872e+00 3.0618831956e+00 
10800 5.5725764183e+00 1.0203698593e-02 1.7675042823e+00 -3.0614072195e+00 1.7675042823e+00 3.0614072195e+00 
10900 5.5725201350e+00 1.0640189966e-02 1.7672156431e+00 -3.0609072818e+00 1.7672156431e+00 3.0609072818e+00 
11000 5.5724629309e+00 1.1026359121e-02 1.7669146077e+00 -3.0603858732e+00 1.7669146077e+00 3.0603858732e+00 
11100 5.5724053313e+00 1.1363049895e-02 1.7666025939e+00 -3.0598454495e+00 1.7666025939e+00 3.0598454495e+00 
11200 5.5723478385e+00 1.1651198779e-02 1.7662809963e+00 -3.0592884260e+00 1.7662809963e+00 3.0592884260e+00 
11300 5.5722909291e+00 1.1891829757e-02 1.7659511836e+00 -3.0587171738e+00 1.7659511836e+00 3.0587171738e+00 
11400 5.5722350512e+00 1.2086049009e-02 1.7656144968e+00 -3.0581340150e+00 1.7656144968e+00 3.0581340150e+00 
11500 5.5721806213e+00 1.2235039492e-02 1.7652722460e+00 -3.0575412193e+00 1.7652722460e+00 3.0575412193e+00 
11600 5.5721280229e+00 1.2340055423e-02 1.7649257091e+00 -3.0569409998e+00 1.7649257091e+00 3.0569409998e+00 
11700 5.5720776048e+00 1.2402416703e-02 1.7645761293e+00 -3.0563355098e+00 1.7645761293e+00 3.0563355098e+00 
11800 5.5720296794e+00 1.2423503309e-02 1.7642247133e+00 -3.0557268394e+00 1.7642247133e+00 3.0557268394e+00 
11900 5.5719845224e+00 1.2404749663e-02 1.7638726298e+00 -3.0551170128e+00 1.7638726298e+00 3.0551170128e+00 
12000 5.5719423722e+00 1.2347639028e-02 1.7635210075e+00 -3.0545079852e+00 1.7635210075e+00 3.0545079852e+00 
12100 5.5719034295e+00 1.2253697931e-02 1.7631709343e+00 -3.0539016406e+00 1.7631709343e+00 3.0539016406e+00 
12200 5.5718678579e+00 1.2124490653e-02 1.7628234553e+00 -3.0532997894e+00 1.7628234553e+00 3.0532997894e+00 
12300 5.5718357845e+00 1.1961613795e-02 1.7624795724e+00 -3.0527041668e+00 1.7624795724e+00 3.0527041668e+00 
12400 5.5718073003e+00 1.1766690948e-02 1.7621402428e+00 -3.0521164307e+00 1.7621402428e+00 3.0521164307e+00 
12500 5.5717824618e+00 1.1541367475e-02 1.7618063784e+00 -3.0515381605e+00 1.7618063784e+00 3.0515381605e+00 
12600 5.5717612922e+00 1.1287305434e-02 1.7614788450e+00 -3.0509708559e+00 1.7614788450e+00 3.0509708559e+00 
12700 5.5717437829e+00 1.1006178643e-02 1.7611584618e+00 -3.0504159360e+00 1.7611584618e+00 3.0504159360e+00 
12800 5.5717298957e+00 1.0699667905e-02 1.7608460012e+00 -3.0498747384e+00 1.7608460012e+00 3.0498747384e+00 
12900 5.5717195642e+00 1.0369456414e-02 1.7605421881e+00 -3.0493485187e+00 1.7605421881e+00 3.0493485187e+00 
13000 5.5717126964e+00 1.0017225332e-02 1.7602477002e+00 -3.0488384507e+00 1.7602477002e+00 3.0488384507e+00 
13100 5.5717091765e+00 9.6446495599e-03 1.7599631677e+00 -3.0483456259e+00 1.7599631677e+00 3.0483456259e+00 
13200 5.5717088676e+00 9.2533937078e-03 1.7596891733e+00 -3.0478710537e+00 1.7596891733e+00 3.0478710537e+00 
13300 5.5717116138e+00 8.8451082608e-03 1.7594262529e+00 -3.0474156623e+00 1.7594262529e+00 3.0474156623e+00 
13400 5.5717172426e+00 8.4214259539e-03 1.7591748955e+00 -3.0469802984e+00 1.7591748955e+00 3.0469802984e+00 
13500 5.5717255675e+00 7.9839583518e-03 1.7589355437e+00 -3.0465657289e+00 1.7589355437e+00 3.0465657289e+00 
13600 5.5717363901e+00 7.5342926384e-03 1.7587085943e+00 -3.0461726410e+00 1.7587085943e+00 3.0461726410e+00 
13700 5.5717495029e+00 7.0739886147e-03 1.7584943991e+00 -3.0458016440e+00 1.7584943991e+00 3.0458016440e+00 
13800 5.5717646910e+00 6.6045759043e-03 1.7582932652e+00 -3.0454532700e+00 1.7582932652e+00 3.0454532700e+00 
13900 5.5717817349e+00 6.1275513643e-03 1.7581054565e+00 -3.0451279757e+00 1.7581054565e+00 3.0451279757e+00 
14000 5.5718004123e+00 5.6443766994e-03 1.7579311936e+00 -3.0448261435e+00 1.7579311936e+00 3.0448261435e+00 
14100 5.5718205002e+00 5.1564762761e-03 1.7577706557e+00 -3.0445480838e+00 1.7577706557e+00 3.0445480838e+00 
14200 5.5718417771e+00 4.6652351313e-03 1.7576239812e+00 -3.0442940360e+00 1.7576239812e+00 3.0442940360e+00 
14300 5.5718640243e+00 4.1719971722e-03 1.7574912686e+00 -3.0440641710e+00 1.7574912686e+00 3.0440641710e+00 
14400 5.5718870281e+00 3.6780635613e-03 1.7573725781e+00 -3.0438585931e+00 1.7573725781e+00 3.0438585931e+00 
14500 5.5719105809e+00 3.1846912816e-03 1.7572679325e+00 -3.0436773415e+00 1.7572679325e+00 3.0436773415e+00 
14600 5.5719344829e+00 2.6930918750e-03 1.7571773184e+00 -3.0435203934e+00 1.7571773184e+00 3.0435203934e+00 
14700 5.5719585431e+00 2.2044303487e-03 1.7571006878e+00 -3.0433876652e+00 1.7571006878e+00 3.0433876652e+00 
14800 5.5719825806e+00 1.7198242431e-03 1.7570379589e+00 -3.0432790157e+00 1.7570379589e+00 3.0432790157e+00 
14900 5.5720064254e+00 1.2403428536e-03 1.7569890181e+00 -3.0431942478e+00 1.7569890181e+00 3.0431942478e+00 
15000 5.5720299191e+00 7.6700660121e-04 1.7569537209e+00 -3.0431331111e+00 1.7569537209e+00 3.0431331111e+00 
15100 5.5720529157e+00 3.0078654386e-04 1.7569318932e+00 -3.0430953044e+00 1.7569318932e+00 3.0430953044e+00 
15200 5.5720752819e+00 -1.5739597721e-04 1.7569233332e+00 -3.0430804781e+00 1.7569233332e+00 3.0430804781e+00 
15300 5.5720968978e+00 -6.0666956308e-04 1.7569278125e+00 -3.0430882365e+00 1.7569278125e+00 3.0430882365e+00 
15400 5.5721176567e+00 -1.0462128611e-03 1.7569450776e+00 -3.0431181405e+00 1.7569450776e+00 3.0431181405e+00 
15500 5.5721374653e+00 -1.4752545538e-03 1.7569748513e+00 -3.0431697101e+00 1.7569748513e+00 3.0431697101e+00 
15600 5.5721562439e+00 -1.8930732385e-03 1.7570168343e+00 -3.0432424267e+00 1.7570168343e+00 3.0432424267e+00 
15700 5.5721739258e+00 -2.2989972045e-03 1.7570707064e+00 -3.0433357359e+00 1.7570707064e+00 3.0433357359e+00 
15800 5.5721904575e+00 -2.6924041132e-03 1.7571361281e+00 -3.0434490496e+00 1.7571361281e+00 3.0434490496e+00 
15900 5.5722057982e+00 -3.0727205864e-03 1.7572127420e+00 -3.0435817489e+00 1.7572127420e+00 3.0435817489e+00 
16000 5.5722199191e+00 -3.4394217101e-03 1.7573001744e+00 -3.0437331863e+00 1.7573001744e+00 3.0437331863e+00 
16100 5.5722328032e+00 -3.7920304567e-03 1.7573980363e+00 -3.0439026880e+00 1.7573980363e+00 3.0439026880e+00 
16200 5.5722444447e+00 -4.1301170330e-03 1.7575059250e+00 -3.0440895568e+00 1.7575059250e+00 3.0440895568e+00 
16300 5.5722548481e+00 -4.4532981570e-03 1.7576234257e+00 -3.0442930739e+00 1.7576234257e+00 3.0442930739e+00 
16400 5.5722640279e+00 -4.7612362700e-03 1.7577501125e+00 -3.0445125018e+00 1.7577501125e+00 3.0445125018e+00 
16500 5.5722720074e+00 -5.0536386866e-03 1.7578855497e+00 -3.0447470860e+00 1.7578855497e+00 3.0447470860e+00 
16600 5.5722788185e+00 -5.3302566891e-03 1.7580292937e+00 -3.0449960578e+00 1.7580292937e+00 3.0449960578e+00 
16700 5.5722845002e+00 -5.5908845683e-03 1.7581808933e+00 -3.0452586361e+00 1.7581808933e+00 3.0452586361e+00 
16800 5.5722890985e+00 -5.8353586162e-03 1.7583398920e+00 -3.0455340299e+00 1.7583398920e+00 3.0455340299e+00 
16900 5.5722926652e+00 -6.0635560736e-03 1.7585058284e+00 -3.0458214401e+00 1.7585058284e+00 3.0458214401e+00 
17000 5.5722952572e+00 -6.2753940362e-03 1.7586782377e+00 -3.0461200618e+00 1.7586782377e+00 3.0461200618e+00 
17100 5.5722969357e+00 -6.4708283236e-03 1.7588566529e+00 -3.0464290861e+00 1.7588566529e+00 3.0464290861e+00 
17200 5.5722977654e+00 -6.6498523128e-03 1.7590406060e+00 -3.0467477021e+00 1.7590406060e+00 3.0467477021e+00 
17300 5.5722978136e+00 -6.8124957411e-03 1.7592296286e+00 -3.0470750990e+00 1.7592296286e+00 3.0470750990e+00 
17400 5.5722971499e+00 -6.9588234803e-03 1.7594232538e+00 -3.0474104675e+00 1.7594232538e+00 3.0474104675e+00 
17500 5.5722958450e+00 -7.0889342858e-03 1.7596210161e+00 -3.0477530020e+00 1.7596210161e+00 3.0477530020e+00 
17600 5.5722939701e+00 -7.2029595230e-03 1.7598224535e+00 -3.0481019018e+00 1.7598224535e+00 3.0481019018e+00 
17700 5.5722915967e+00 -7.3010618734e-03 1.7600271077e+00 -3.0484563732e+00 1.7600271077e+00 3.0484563732e+00 
17800 5.5722887953e+00 -7.3834340246e-03 1.7602345251e+00 -3.0488156307e+00 1.7602345251e+00 3.0488156307e+00 
17900 5.5722856356e+00 -7.4502973440e-03 1.7604442579e+00 -3.0491788986e+00 1.7604442579e+00 3.0491788986e+00 
18000 5.5722821852e+00 -7.5019005419e-03 1.7606558649e+00 -3.0495454127e+00 1.7606558649e+00 3.0495454127e+00 
18100 5.5722785100e+00 -7.5385183232e-03 1.7608689120e+00 -3.0499144211e+00 1.7608689120e+00 3.0499144211e+00 
18200 5.5722746729e+00 -7.5604500329e-03 1.7610829731e+00 -3.0502851858e+00 1.7610829731e+00 3.0502851858e+00 
18300 5.5722707342e+00 -7.5680182949e-03 1.7612976309e+00 -3.0506569840e+00 1.7612976309e+00 3.0506569840e+00 
18400 5.5722667508e+00 -7.5615676490e-03 1.7615124774e+00 -3.0510291090e+00 1.7615124774e+00 3.0510291090e+00 
18500 5.5722627760e+00 -7.5414631860e-03 1.7617271146e+00 -3.0514008715e+00 1.7617271146e+00 3.0514008715e+00 
18600 5.5722588594e+00 -7.5080891839e-03 1.7619411550e+00 -3.0517716004e+00 1.7619411550e+00 3.0517716004e+00 
18700 5.5722550468e+00 -7.4618477482e-03 1.7621542223e+00 -3.0521406437e+00 1.7621542223e+00 3.0521406437e+00 
18800 5.5722513796e+00 -7.4031574560e-03 1.7623659517e+00 -3.0525073698e+00 1.7623659517e+00 3.0525073698e+00 
18900 5.5722478954e+00 -7.3324520082e-03 1.7625759905e+00 -3.0528711677e+00 1.7625759905e+00 3.0528711677e+00 
19000 5.5722446273e+00 -7.2501788906e-03 1.7627839984e+00 -3.0532314480e+00 1.7627839984e+00 3.0532314480e+00 
19100 5.5722416043e+00 -7.1567980454e-03 1.7629896481e+00 -3.0535876437e+00 1.7629896481e+00 3.0535876437e+00 
19200 5.5722388512e+00 -7.0527805561e-03 1.7631926253e+00 -3.0539392106e+00 1.7631926253e+00 3.0539392106e+00 
19300 5.5722363885e+00 -6.9386073466e-03 1.7633926294e+00 -3.0542856278e+00 1.7633926294e+00 3.0542856278e+00 
19400 5.5722342327e+00 -6.8147678967e-03 1.7635893734e+00 -3.0546263983e+00 1.7635893734e+00 3.0546263983e+00 
19500 5.5722323965e+00 -6.6817589760e-03 1.7637825842e+00 -3.0549610494e+00 1.7637825842e+00 3.0549610494e+00 
19600 5.5722308886e+00 -6.5400833970e-03 1.7639720032e+00 -3.0552891327e+00 1.7639720032e+00 3.0552891327e+00 
19700 5.5722297141e+00 -6.3902487903e-03 1.7641573859e+00 -3.0556102249e+00 1.7641573859e+00 3.0556102249e+00 
19800 5.5722288747e+00 -6.2327664023e-03 1.7643385024e+00 -3.0559239278e+00 1.7643385024e+00 3.0559239278e+00 
19900 5.5722283689e+00 -6.0681499177e-03 1.7645151371e+00 -3.0562298682e+00 1.7645151371e+00 3.0562298682e+00 
20000 5.5722281919e+00 -5.8969143083e-03 1.7646870894e+00 -3.0565276983e+00 1.7646870894e+00 3.0565276983e+00 
20100 5.5722283364e+00 -5.7195747092e-03 1.7648541731e+00 -3.0568170957e+00 1.7648541731e+00 3.0568170957e+00 
20200 5.5722287924e+00 -5.5366453239e-03 1.7650162165e+00 -3.0570977632e+00 1.7650162165e+00 3.0570977632e+00 
20300 5.5722295476e+00 -5.3486383599e-03 1.7651730629e+00 -3.0573694291e+00 1.7651730629e+00 3.0573694291e+00 
20400 5.5722305877e+00 -5.1560629960e-03 1.7653245697e+00 -3.0576318466e+00 1.7653245697e+00 3.0576318466e+00 
20500 5.5722318964e+00 -4.9594243824e-03 1.7654706090e+00 -3.0578847940e+00 1.7654706090e+00 3.0578847940e+00 
20600 5.5722334560e+00 -4.7592226753e-03 1.7656110670e+00 -3.0581280745e+00 1.7656110670e+00 3.0581280745e+00 
20700 5.5722352475e+00 -4.5559521055e-03 1.7657458442e+00 -3.0583615155e+00 1.7657458442e+00 3.0583615155e+00 
20800 5.5722372508e+00 -4.3501000848e-03 1.7658748551e+00 -3.0585849688e+00 1.7658748551e+00 3.0585849688e+00 
20900 5.5722394450e+00 -4.1421463485e-03 1.7659980278e+00 -3.0587983101e+00 1.7659980278e+00 3.0587983101e+00 
21000 5.5722418086e+00 -3.9325621363e-03 1.7661153040e+00 -3.0590014385e+00 1.7661153040e+00 3.0590014385e+00 
21100 5.5722443196e+00 -3.7218094120e-03 1.7662266388e+00 -3.0591942762e+00 1.7662266388e+00 3.0591942762e+00 
21200 5.5722469561e+00 -3.5103401232e-03 1.7663320004e+00 -3.0593767677e+00 1.7663320004e+00 3.0593767677e+00 
21300 5.5722496961e+00 -3.2985955008e-03 1.7664313694e+00 -3.0595488798e+00 1.7664313694e+00 3.0595488798e+00 
21400 5.5722525179e+00 -3.0870053995e-03 1.7665247391e+00 -3.0597106009e+00 1.7665247391e+00 3.0597106009e+00 
21500 5.5722554001e+00 -2.8759876798e-03 1.7666121149e+00 -3.0598619403e+00 1.7666121149e+00 3.0598619403e+00 
21600 5.5722583219e+00 -2.6659476312e-03 1.7666935139e+00 -3.0600029275e+00 1.7666935139e+00 3.0600029275e+00 
21700 5.5722612634e+00 -2.4572774383e-03 1.7667689647e+00 -3.0601336120e+00 1.7667689647e+00 3.0601336120e+00 
21800 5.5722642054e+00 -2.2503556879e-03 1.7668385067e+00 -3.0602540624e+00 1.7668385067e+00 3.0602540624e+00 
21900 5.5722671296e+00 -2.0455469195e-03 1.7669021902e+00 -3.0603643654e+00 1.7669021902e+00 3.0603643654e+00 
22000 5.5722700190e+00 -1.8432012175e-03 1.7669600756e+00 -3.0604646259e+00 1.7669600756e+00 3.0604646259e+00 
22100 5.5722728575e+00 -1.6436538458e-03 1.7670122333e+00 -3.0605549657e+00 1.7670122333e+00 3.0605549657e+00 
22200 5.5722756303e+00 -1.4472249249e-03 1.7670587429e+00 -3.0606355227e+00 1.7670587429e+00 3.0606355227e+00 
22300 5.5722783240e+00 -1.2542191498e-03 1.7670996932e+00 -3.0607064506e+00 1.7670996932e+00 3.0607064506e+00 
22400 5.5722809264e+00 -1.0649255510e-03 1.7671351814e+00 -3.0607679180e+00 1.7671351814e+00 3.0607679180e+00 
22500 5.5722834268e+00 -8.7961729502e-04 1.7671653129e+00 -3.0608201072e+00 1.7671653129e+00 3.0608201072e+00 
22600 5.5722858157e+00 -6.9855152626e-04 1.7671902007e+00 -3.0608632143e+00 1.7671902007e+00 3.0608632143e+00 
22700 5.5722880849e+00 -5.2196924875e-04 1.7672099652e+00 -3.0608974474e+00 1.7672099652e+00 3.0608974474e+00 
22800 5.5722902279e+00 -3.5009524693e-04 1.7672247334e+00 -3.0609230267e+00 1.7672247334e+00 3.0609230267e+00 
22900 5.5722922392e+00 -1.8313804503e-04 1.7672346387e+00 -3.0609401830e+00 1.7672346387e+00 3.0609401830e+00 
23000 5.5722941147e+00 -2.1289903974e-05 1.7672398201e+00 -3.0609491576e+00 1.7672398201e+00 3.0609491576e+00 
23100 5.5722958516e+00 1.3468216753e-04 1.7672398201e+00 -3.0609491576e+00 1.7672398201e+00 3.0609491576e+00 
23200 5.5722974483e+00 2.8581290783e-04 1.7672360096e+00 -3.0609425576e+00 1.7672360096e+00 3.0609425576e+00 
23300 5.5722989045e+00 4.3135423110e-04 1.7672279232e+00 -3.0609285515e+00 1.7672279232e+00 3.0609285515e+00 
23400 5.5723002210e+00 5.7117829339e-04 1.7672157189e+00 -3.0609074131e+00 1.7672157189e+00 3.0609074131e+00 
23500 5.5723013993e+00 7.0517299765e-04 1.7671995586e+00 -3.0608794225e+00 1.7671995586e+00 3.0608794225e+00 
23600 5.5723024423e+00 8.3324179301e-04 1.7671796069e+00 -3.0608448652e+00 1.7671796069e+00 3.0608448652e+00 
23700 5.5723033534e+00 9.5530344442e-04 1.7671560315e+00 -3.0608040314e+00 1.7671560315e+00 3.0608040314e+00 
23800 5.5723041371e+00 1.0712917739e-03 1.7671290021e+00 -3.0607572152e+00 1.7671290021e+00 3.0607572152e+00 
23900 5.5723047983e+00 1.1811553746e-03 1.7670986906e+00 -3.0607047141e+00 1.7670986906e+00 3.0607047141e+00 
24000 5.5723053429e+00 1.2848572997e-03 1.7670652699e+00 -3.0606468278e+00 1.7670652699e+00 3.0606468278e+00 
24100 5.5723057772e+00 1.3823747265e-03 1.7670289144e+00 -3.0605838581e+00 1.7670289144e+00 3.0605838581e+00 
24200 5.5723061077e+00 1.4736985983e-03 1.7669897987e+00 -3.0605161079e+00 1.7669897987e+00 3.0605161079e+00 
24300 5.5723063418e+00 1.5588332454e-03 1.7669480981e+00 -3.0604438802e+00 1.7669480981e+00 3.0604438802e+00 
24400 5.5723064867e+00 1.6377959855e-03 1.7669039874e+00 -3.0603674782e+00 1.7669039874e+00 3.0603674782e+00 
24500 5.5723065502e+00 1.7106167069e-03 1.7668576411e+00 -3.0602872041e+00 1.7668576411e+00 3.0602872041e+00 
24600 5.5723065401e+00 1.7773374344e-03 1.7668092328e+00 -3.0602033586e+00 1.7668092328e+00 3.0602033586e+00 
24700 5.5723064642e+00 1.8380118812e-03 1.7667589351e+00 -3.0601162404e+00 1.7667589351e+00 3.0601162404e+00 
24800 5.5723063305e+00 1.8927049855e-03 1.7667069189e+00 -3.0600261456e+00 1.7667069189e+00 3.0600261456e+00 
24900 5.5723061467e+00 1.9414924368e-03 1.7666533533e+00 -3.0599333672e+00 1.7666533533e+00 3.0599333672e+00 
25000 5.5723059206e+00 1.9844601911e-03 1.7665984052e+00 -3.0598381945e+00 1.7665984052e+00 3.0598381945e+00 
25100 5.5723056597e+00 2.0217039762e-03 1.7665422394e+00 -3.0597409124e+00 1.7665422394e+00 3.0597409124e+00 
25200 5.5723053713e+00 2.0533287911e-03 1.7664850176e+00 -3.0596418014e+00 1.7664850176e+00 3.0596418014e+00 
25300 5.5723050623e+00 2.0794483978e-03 1.7664268989e+00 -3.0595411368e+00 1.7664268989e+00 3.0595411368e+00 
25400 5.5723047396e+00 2.1001848095e-03 1.7663680389e+00 -3.0594391883e+00 1.7663680389e+00 3.0594391883e+00 
25500 5.5723044095e+00 2.1156677745e-03 1.7663085900e+00 -3.0593362198e+00 1.7663085900e+00 3.0593362198e+00 
25600 5.5723040779e+00 2.1260342591e-03 1.7662487008e+00 -3.0592324887e+00 1.7662487008e+00 3.0592324887e+00 
25700 5.5723037503e+00 2.1314279291e-03 1.7661885162e+00 -3.0591282457e+00 1.7661885162e+00 3.0591282457e+00 
25800 5.5723034320e+00 2.1319986324e-03 1.7661281767e+00 -3.0590237348e+00 1.7661281767e+00 3.0590237348e+00 
25900 5.5723031275e+00 2.1279018833e-03 1.7660678191e+00 -3.0589191923e+00 1.7660678191e+00 3.0589191923e+00 
26000 5.5723028410e+00 2.1192983496e-03 1.7660075754e+00 -3.0588148471e+00 1.7660075754e+00 3.0588148471e+00 
26100 5.5723025764e+00 2.1063533442e-03 1.7659475732e+00 -3.0587109203e+00 1.7659475732e+00 3.0587109203e+00 
26200 5.5723023369e+00 2.0892363219e-03 1.7658879355e+00 -3.0586076247e+00 1.7658879355e+00 3.0586076247e+00 
26300 5.5723021252e+00 2.0681203822e-03 1.7658287804e+00 -3.0585051651e+00 1.7658287804e+00 3.0585051651e+00 
26400 5.5723019438e+00 2.0431817797e-03 1.7657702213e+00 -3.0584037377e+00 1.7657702213e+00 3.0584037377e+00 
26500 5.5723017945e+00 2.0145994424e-03 1.7657123663e+00 -3.0583035300e+00 1.7657123663e+00 3.0583035300e+00 
26600 5.5723016787e+00 1.9825544993e-03 1.7656553188e+00 -3.0582047209e+00 1.7656553188e+00 3.0582047209e+00 
26700 5.5723015975e+00 1.9472298177e-03 1.7655991770e+00 -3.0581074803e+00 1.7655991770e+00 3.0581074803e+00 
26800 5.5723015515e+00 1.9088095515e-03 1.7655440337e+00 -3.0580119693e+00 1.7655440337e+00 3.0580119693e+00 
26900 5.5723015408e+00 1.8674787003e-03 1.7654899767e+00 -3.0579183398e+00 1.7654899767e+00 3.0579183398e+00 
27000 5.5723015654e+00 1.8234226808e-03 1.7654370885e+00 -3.0578267349e+00 1.7654370885e+00 3.0578267349e+00 
27100 5.5723016248e+00 1.7768269113e-03 1.7653854465e+00 -3.0577372884e+00 1.7653854465e+00 3.0577372884e+00 
27200 5.5723017181e+00 1.7278764083e-03 1.7653351227e+00 -3.0576501250e+00 1.7653351227e+00 3.0576501250e+00 
27300 5.5723018444e+00 1.6767553980e-03 1.7652861839e+00 -3.0575653604e+00 1.7652861839e+00 3.0575653604e+00 
27400 5.5723020021e+00 1.6236469409e-03 1.7652386917e+00 -3.0574831015e+00 1.7652386917e+00 3.0574831015e+00 
27500 5.5723021898e+00 1.5687325715e-03 1.7651927024e+00 -3.0574034457e+00 1.7651927024e+00 3.0574034457e+00 
27600 5.5723024057e+00 1.5121919530e-03 1.7651482674e+00 -3.0573264821e+00 1.7651482674e+00 3.0573264821e+00 
27700 5.5723026478e+00 1.4542025461e-03 1.7651054329e+00 -3.0572522905e+00 1.7651054329e+00 3.0572522905e+00 
27800 5.5723029141e+00 1.3949392947e-03 1.7650642400e+00 -3.0571809423e+00 1.7650642400e+00 3.0571809423e+00 
27900 5.5723032022e+00 1.3345743263e-03 1.7650247249e+00 -3.0571125001e+00 1.7650247249e+00 3.0571125001e+00 
28000 5.5723035099e+00 1.2732766678e-03 1.7649869189e+00 -3.0570470183e+00 1.7649869189e+00 3.0570470183e+00 
28100 5.5723038348e+00 1.2112119784e-03 1.7649508486e+00 -3.0569845427e+00 1.7649508486e+00 3.0569845427e+00 
28200 5.5723041744e+00 1.1485422972e-03 1.7649165358e+00 -3.0569251112e+00 1.7649165358e+00 3.0569251112e+00 
28300 5.5723045264e+00 1.0854258078e-03 1.7648839978e+00 -3.0568687536e+00 1.7648839978e+00 3.0568687536e+00 
28400 5.5723048883e+00 1.0220166176e-03 1.7648532472e+00 -3.0568154921e+00 1.7648532472e+00 3.0568154921e+00 
28500 5.5723052578e+00 9.5846455454e-04 1.7648242926e+00 -3.0567653412e+00 1.7648242926e+00 3.0567653412e+00 
28600 5.5723056324e+00 8.9491497865e-04 1.7647971380e+00 -3.0567183080e+00 1.7647971380e+00 3.0567183080e+00 
28700 5.5723060098e+00 8.3150860946e-04 1.7647717834e+00 -3.0566743927e+00 1.7647717834e+00 3.0566743927e+00 
28800 5.5723063880e+00 7.6838136925e-04 1.7647482250e+00 -3.0566335882e+00 1.7647482250e+00 3.0566335882e+00 
28900 5.5723067646e+00 7.0566424160e-04 1.7647264547e+00 -3.0565958810e+00 1.7647264547e+00 3.0565958810e+00 
29000 5.5723071379e+00 6.4348314507e-04 1.7647064612e+00 -3.0565612512e+00 1.7647064612e+00 3.0565612512e+00 
29100 5.5723075058e+00 5.8195882195e-04 1.7646882292e+00 -3.0565296725e+00 1.7646882292e+00 3.0565296725e+00 
29200 5.5723078667e+00 5.2120674166e-04 1.7646717402e+00 -3.0565011127e+00 1.7646717402e+00 3.0565011127e+00 
29300 5.5723082189e+00 4.6133701860e-04 1.7646569724e+00 -3.0564755342e+00 1.7646569724e+00 3.0564755342e+00 
29400 5.5723085609e+00 4.0245434417e-04 1.7646439009e+00 -3.0564528936e+00 1.7646439009e+00 3.0564528936e+00 
29500 5.5723088915e+00 3.4465793255e-04 1.7646324976e+00 -3.0564331425e+00 1.7646324976e+00 3.0564331425e+00 
29600 5.5723092095e+00 2.8804148005e-04 1.7646227319e+00 -3.0564162278e+00 1.7646227319e+00 3.0564162278e+00 
29700 5.5723095139e+00 2.3269313746e-04 1.7646145703e+00 -3.0564020916e+00 1.7646145703e+00 3.0564020916e+00 
29800 5.5723098038e+00 1.7869549526e-04 1.7646079770e+00 -3.0563906717e+00 1.7646079770e+00 3.0563906717e+00 
29900 5.5723100785e+00 1.2612558113e-04 1.7646029137e+00 -3.0563819017e+00 1.7646029137e+00 3.0563819017e+00 
30000 5.5723103375e+00 7.5054869461e-05 1.7645993399e+00 -3.0563757118e+00 1.7645993399e+00 3.0563757118e+00 
30100 5.5723105804e+00 2.5549302381e-05 1.7645972133e+00 -3.0563720283e+00 1.7645972133e+00 3.0563720283e+00 
30200 5.5723108067e+00 -2.1616669046e-05 1.7645972133e+00 -3.0563720283e+00 1.7645972133e+00 3.0563720283e+00 
30300 5.5723110166e+00 -6.8435746194e-05 1.7645972133e+00 -3.0563720283e+00 1.7645972133e+00 3.0563720283e+00 
30400 5.5723112104e+00 -1.1481888815e-04 1.7645972133e+00 -3.0563720283e+00 1.7645972133e+00 3.0563720283e+00 
30500 5.5723113875e+00 -1.5747352855e-04 1.7646004667e+00 -3.0563776633e+00 1.7646004667e+00 3.0563776633e+00 
30600 5.5723115484e+00 -1.9831684097e-04 1.7646049287e+00 -3.0563853918e+00 1.7646049287e+00 3.0563853918e+00 
30700 5.5723116934e+00 -2.3731488396e-04 1.7646105480e+00 -3.0563951247e+00 1.7646105480e+00 3.0563951247e+00 
30800 5.5723118231e+00 -2.7443882125e-04 1.7646172723e+00 -3.0564067715e+00 1.7646172723e+00 3.0564067715e+00 
30900 5.5723119378e+00 -3.0966482376e-04 1.7646250484e+00 -3.0564202402e+00 1.7646250484e+00 3.0564202402e+00 
31000 5.5723120382e+00 -3.4297396403e-04 1.7646338227e+00 -3.0564354376e+00 1.7646338227e+00 3.0564354376e+00 
31100 5.5723121251e+00 -3.7435210358e-04 1.7646435407e+00 -3.0564522697e+00 1.7646435407e+00 3.0564522697e+00 
31200 5.5723121990e+00 -4.0378977363e-04 1.7646541477e+00 -3.0564706416e+00 1.7646541477e+00 3.0564706416e+00 
31300 5.5723122608e+00 -4.3128204961e-04 1.7646655888e+00 -3.0564904581e+00 1.7646655888e+00 3.0564904581e+00 
31400 5.5723123113e+00 -4.5682841995e-04 1.7646778087e+00 -3.0565116237e+00 1.7646778087e+00 3.0565116237e+00 
31500 5.5723123514e+00 -4.8043264959e-04 1.7646907524e+00 -3.0565340428e+00 1.7646907524e+00 3.0565340428e+00 
31600 5.5723123820e+00 -5.0210263872e-04 1.7647043648e+00 -3.0565576202e+00 1.7647043648e+00 3.0565576202e+00 
31700 5.5723124039e+00 -5.2185027702e-04 1.7647185911e+00 -3.0565822608e+00 1.7647185911e+00 3.0565822608e+00 
31800 5.5723124180e+00 -5.3969129407e-04 1.7647333768e+00 -3.0566078703e+00 1.7647333768e+00 3.0566078703e+00 
31900 5.5723124253e+00 -5.5564510613e-04 1.7647486678e+00 -3.0566343552e+00 1.7647486678e+00 3.0566343552e+00 
32000 5.5723124266e+00 -5.6973465995e-04 1.7647644107e+00 -3.0566616227e+00 1.7647644107e+00 3.0566616227e+00 
32100 5.5723124228e+00 -5.8198627381e-04 1.7647805527e+00 -3.0566895815e+00 1.7647805527e+00 3.0566895815e+00 
32200 5.5723124148e+00 -5.9242947636e-04 1.7647970416e+00 -3.0567181411e+00 1.7647970416e+00 3.0567181411e+00 
32300 5.5723124034e+00 -6.0109684357e-04 1.7648138263e+00 -3.0567472130e+00 1.7648138263e+00 3.0567472130e+00 
32400 5.5723123893e+00 -6.0802383424e-04 1.7648308563e+00 -3.0567767100e+00 1.7648308563e+00 3.0567767100e+00 
32500 5.5723123734e+00 -6.1324862439e-04 1.7648480825e+00 -3.0568065465e+00 1.7648480825e+00 3.0568065465e+00 
32600 5.5723123564e+00 -6.1681194106e-04 1.7648654565e+00 -3.0568366392e+00 1.7648654565e+00 3.0568366392e+00 
32700 5.5723123389e+00 -6.1875689566e-04 1.7648829313e+00 -3.0568669064e+00 1.7648829313e+00 3.0568669064e+00 
32800 5.5723123215e+00 -6.1912881735e-04 1.7649004610e+00 -3.0568972688e+00 1.7649004610e+00 3.0568972688e+00 
32900 5.5723123049e+00 -6.1797508694e-04 1.7649180011e+00 -3.0569276491e+00 1.7649180011e+00 3.0569276491e+00 
33000 5.5723122895e+00 -6.1534497124e-04 1.7649355083e+00 -3.0569579725e+00 1.7649355083e+00 3.0569579725e+00 
33100 5.5723122759e+00 -6.1128945872e-04 1.7649529408e+00 -3.0569881665e+00 1.7649529408e+00 3.0569881665e+00 
33200 5.5723122644e+00 -6.0586109626e-04 1.7649702583e+00 -3.0570181612e+00 1.7649702583e+00 3.0570181612e+00 
33300 5.5723122554e+00 -5.9911382774e-04 1.7649874218e+00 -3.0570478893e+00 1.7649874218e+00 3.0570478893e+00 
33400 5.5723122493e+00 -5.9110283442e-04 1.7650043940e+00 -3.0570772861e+00 1.7650043940e+00 3.0570772861e+00 
33500 5.5723122463e+00 -5.8188437758e-04 1.7650211391e+00 -3.0571062894e+00 1.7650211391e+00 3.0571062894e+00 
33600 5.5723122467e+00 -5.7151564365e-04 1.7650376230e+00 -3.0571348402e+00 1.7650376230e+00 3.0571348402e+00 
33700 5.5723122505e+00 -5.6005459205e-04 1.7650538129e+00 -3.0571628820e+00 1.7650538129e+00 3.0571628820e+00 
33800 5.5723122579e+00 -5.4755980590e-04 1.7650696780e+00 -3.0571903612e+00 1.7650696780e+00 3.0571903612e+00 
33900 5.5723122689e+00 -5.3409034610e-04 1.7650851890e+00 -3.0572172270e+00 1.7650851890e+00 3.0572172270e+00 
34000 5.5723122837e+00 -5.1970560860e-04 1.7651003183e+00 -3.0572434318e+00 1.7651003183e+00 3.0572434318e+00 
34100 5.5723123022e+00 -5.0446518543e-04 1.7651150401e+00 -3.0572689306e+00 1.7651150401e+00 3.0572689306e+00 
34200 5.5723123243e+00 -4.8842872940e-04 1.7651293299e+00 -3.0572936814e+00 1.7651293299e+00 3.0572936814e+00 
34300 5.5723123500e+00 -4.7165582285e-04 1.7651431655e+00 -3.0573176452e+00 1.7651431655e+00 3.0573176452e+00 
34400 5.5723123791e+00 -4.5420585042e-04 1.7651565257e+00 -3.0573407859e+00 1.7651565257e+00 3.0573407859e+00 
34500 5.5723124115e+00 -4.3613787619e-04 1.7651693916e+00 -3.0573630703e+00 1.7651693916e+00 3.0573630703e+00 
34600 5.5723124471e+00 -4.1751052513e-04 1.7651817456e+00 -3.0573844681e+00 1.7651817456e+00 3.0573844681e+00 
34700 5.5723124855e+00 -3.9838186912e-04 1.7651935719e+00 -3.0574049518e+00 1.7651935719e+00 3.0574049518e+00 
34800 5.5723125267e+00 -3.7880931757e-04 1.7652048563e+00 -3.0574244969e+00 1.7652048563e+00 3.0574244969e+00 
34900 5.5723125703e+00 -3.5884951281e-04 1.7652155862e+00 -3.0574430817e+00 1.7652155862e+00 3.0574430817e+00 
35000 5.5723126162e+00 -3.3855823026e-04 1.7652257507e+00 -3.0574606870e+00 1.7652257507e+00 3.0574606870e+00 
35100 5.5723126641e+00 -3.1799028343e-04 1.7652353404e+00 -3.0574772968e+00 1.7652353404e+00 3.0574772968e+00 
35200 5.5723127137e+00 -2.9719943399e-04 1.7652443474e+00 -3.0574928975e+00 1.7652443474e+00 3.0574928975e+00 
35300 5.5723127648e+00 -2.7623830668e-04 1.7652527655e+00 -3.0575074780e+00 1.7652527655e+00 3.0575074780e+00 
35400 5.5723128171e+00 -2.5515830934e-04 1.7652605898e+00 -3.0575210302e+00 1.7652605898e+00 3.0575210302e+00 
35500 5.5723128703e+00 -2.3400955793e-04 1.7652678170e+00 -3.0575335481e+00 1.7652678170e+00 3.0575335481e+00 
35600 5.5723129242e+00 -2.1284080666e-04 1.7652744452e+00 -3.0575450284e+00 1.7652744452e+00 3.0575450284e+00 
35700 5.5723129785e+00 -1.9169938307e-04 1.7652804738e+00 -3.0575554702e+00 1.7652804738e+00 3.0575554702e+00 
35800 5.5723130329e+00 -1.7063112833e-04 1.7652859035e+00 -3.0575648747e+00 1.7652859035e+00 3.0575648747e+00 
35900 5.5723130872e+00 -1.4968034235e-04 1.7652907364e+00 -3.0575732456e+00 1.7652907364e+00 3.0575732456e+00 
36000 5.5723131413e+00 -1.2888973410e-04 1.7652949760e+00 -3.0575805887e+00 1.7652949760e+00 3.0575805887e+00 
36100 5.5723131948e+00 -1.0830037669e-04 1.7652986266e+00 -3.0575869119e+00 1.7652986266e+00 3.0575869119e+00 
36200 5.5723132476e+00 -8.7951667536e-05 1.7653016941e+00 -3.0575922249e+00 1.7653016941e+00 3.0575922249e+00 
36300 5.5723132994e+00 -6.7881293200e-05 1.7653041852e+00 -3.0575965396e+00 1.7653041852e+00 3.0575965396e+00 
36400 5.5723133502e+00 -5.0017221625e-05 1.7653041852e+00 -3.0575965396e+00 1.7653041852e+00 3.0575965396e+00 
36500 5.5723133996e+00 -3.1962740105e-05 1.7653041852e+00 -3.0575965396e+00 1.7653041852e+00 3.0575965396e+00 
36600 5.5723134475e+00 -1.3757747759e-05 1.7653041852e+00 -3.0575965396e+00 1.7653041852e+00 3.0575965396e+00 
36700 5.5723134938e+00 4.5591353904e-06 1.7653041852e+00 -3.0575965396e+00 1.7653041852e+00 3.0575965396e+00 
36800 5.5723135385e+00 2.2950594986e-05 1.7653041852e+00 -3.0575965396e+00 1.7653041852e+00 3.0575965396e+00 
36900 5.5723135816e+00 4.1380645221e-05 1.7653041852e+00 -3.0575965396e+00 1.7653041852e+00 3.0575965396e+00 
37000 5.5723136229e+00 5.9814648139e-05 1.7653041852e+00 -3.0575965396e+00 1.7653041852e+00 3.0575965396e+00 
37100 5.5723136624e+00 7.8219329443e-05 1.7653041852e+00 -3.0575965396e+00 1.7653041852e+00 3.0575965396e+00 
37200 5.5723136999e+00 9.4382310446e-05 1.7653019698e+00 -3.0575927023e+00 1.7653019698e+00 3.0575927023e+00 
37300 5.5723137355e+00 1.0998937146e-04 1.7652992965e+00 -3.0575880721e+00 1.7652992965e+00 3.0575880721e+00 
37400 5.5723137691e+00 1.2502264407e-04 1.7652961812e+00 -3.0575826762e+00 1.7652961812e+00 3.0575826762e+00 
37500 5.5723138008e+00 1.3946604452e-04 1.7652926401e+00 -3.0575765428e+00 1.7652926401e+00 3.0575765428e+00 
37600 5.5723138305e+00 1.5330525467e-04 1.7652886898e+00 -3.0575697008e+00 1.7652886898e+00 3.0575697008e+00 
37700 5.5723138583e+00 1.6652769978e-04 1.7652843476e+00 -3.0575621799e+00 1.7652843476e+00 3.0575621799e+00 
37800 5.5723138842e+00 1.7912252307e-04 1.7652796309e+00 -3.0575540103e+00 1.7652796309e+00 3.0575540103e+00 
37900 5.5723139083e+00 1.9108055736e-04 1.7652745574e+00 -3.0575452227e+00 1.7652745574e+00 3.0575452227e+00 
38000 5.5723139306e+00 2.0239429386e-04 1.7652691452e+00 -3.0575358485e+00 1.7652691452e+00 3.0575358485e+00 
38100 5.5723139513e+00 2.1305784828e-04 1.7652634125e+00 -3.0575259193e+00 1.7652634125e+00 3.0575259193e+00 
38200 5.5723139703e+00 2.2306692440e-04 1.7652573778e+00 -3.0575154668e+00 1.7652573778e+00 3.0575154668e+00 
38300 5.5723139877e+00 2.3241877536e-04 1.7652510596e+00 -3.0575045233e+00 1.7652510596e+00 3.0575045233e+00 
38400 5.5723140037e+00 2.4111216261e-04 1.7652444764e+00 -3.0574931209e+00 1.7652444764e+00 3.0574931209e+00 
38500 5.5723140183e+00 2.4914731296e-04 1.7652376470e+00 -3.0574812920e+00 1.7652376470e+00 3.0574812920e+00 
38600 5.5723140317e+00 2.5652587359e-04 1.7652305899e+00 -3.0574690688e+00 1.7652305899e+00 3.0574690688e+00 
38700 5.5723140439e+00 2.6325086544e-04 1.7652233239e+00 -3.0574564836e+00 1.7652233239e+00 3.0574564836e+00 
38800 5.5723140550e+00 2.6932663497e-04 1.7652158673e+00 -3.0574435685e+00 1.7652158673e+00 3.0574435685e+00 
38900 5.5723140651e+00 2.7475880445e-04 1.7652082386e+00 -3.0574303551e+00 1.7652082386e+00 3.0574303551e+00 
39000 5.5723140744e+00 2.7955422109e-04 1.7652004560e+00 -3.0574168753e+00 1.7652004560e+00 3.0574168753e+00 
39100 5.5723140829e+00 2.8372090494e-04 1.7651925375e+00 -3.0574031601e+00 1.7651925375e+00 3.0574031601e+00 
39200 5.5723140907e+00 2.8726799582e-04 1.7651845009e+00 -3.0573892404e+00 1.7651845009e+00 3.0573892404e+00 
39300 5.5723140980e+00 2.9020569952e-04 1.7651763639e+00 -3.0573751466e+00 1.7651763639e+00 3.0573751466e+00 
39400 5.5723141048e+00 2.9254523322e-04 1.7651681436e+00 -3.0573609086e+00 1.7651681436e+00 3.0573609086e+00 
39500 5.5723141111e+00 2.9429877039e-04 1.7651598570e+00 -3.0573465558e+00 1.7651598570e+00 3.0573465558e+00 
39600 5.5723141172e+00 2.9547938527e-04 1.7651515207e+00 -3.0573321169e+00 1.7651515207e+00 3.0573321169e+00 
39700 5.5723141230e+00 2.9610099716e-04 1.7651431509e+00 -3.0573176200e+00 1.7651431509e+00 3.0573176200e+00 
39800 5.5723141286e+00 2.9617831445e-04 1.7651347634e+00 -3.0573030925e+00 1.7651347634e+00 3.0573030925e+00 
39900 5.5723141342e+00 2.9572677871e-04 1.7651263738e+00 -3.0572885612e+00 1.7651263738e+00 3.0572885612e+00 
40000 5.5723141397e+00 2.9476250889e-04 1.7651179968e+00 -3.0572740519e+00 1.7651179968e+00 3.0572740519e+00 
40100 5.5723141453e+00 2.9330224573e-04 1.7651096472e+00 -3.0572595899e+00 1.7651096472e+00 3.0572595899e+00 
40200 5.5723141510e+00 2.9136329649e-04 1.7651013389e+00 -3.0572451994e+00 1.7651013389e+00 3.0572451994e+00 
40300 5.5723141568e+00 2.8896348019e-04 1.7650930854e+00 -3.0572309041e+00 1.7650930854e+00 3.0572309041e+00 
40400 5.5723141628e+00 2.8612107339e-04 1.7650848999e+00 -3.0572167264e+00 1.7650848999e+00 3.0572167264e+00 
40500 5.5723141690e+00 2.8285475658e-04 1.7650767949e+00 -3.0572026881e+00 1.7650767949e+00 3.0572026881e+00 
40600 5.5723141755e+00 2.7918356144e-04 1.7650687824e+00 -3.0571888100e+00 1.7650687824e+00 3.0571888100e+00 
40700 5.5723141822e+00 2.7512681883e-04 1.7650608738e+00 -3.0571751119e+00 1.7650608738e+00 3.0571751119e+00 
40800 5.5723141892e+00 2.7070410782e-04 1.7650530801e+00 -3.0571616129e+00 1.7650530801e+00 3.0571616129e+00 
40900 5.5723141965e+00 2.6593520566e-04 1.7650454117e+00 -3.0571483307e+00 1.7650454117e+00 3.0571483307e+00 
41000 5.5723142042e+00 2.6084003895e-04 1.7650378783e+00 -3.0571352826e+00 1.7650378783e+00 3.0571352826e+00 
41100 5.5723142121e+00 2.5543863585e-04 1.7650304893e+00 -3.0571224843e+00 1.7650304893e+00 3.0571224843e+00 
41200 5.5723142204e+00 2.4975107964e-04 1.7650232532e+00 -3.0571099510e+00 1.7650232532e+00 3.0571099510e+00 
41300 5.5723142290e+00 2.4379746359e-04 1.7650161782e+00 -3.0570976968e+00 1.7650161782e+00 3.0570976968e+00 
41400 5.5723142379e+00 2.3759784707e-04 1.7650092718e+00 -3.0570857346e+00 1.7650092718e+00 3.0570857346e+00 
41500 5.5723142470e+00 2.3117221323e-04 1.7650025410e+00 -3.0570740765e+00 1.7650025410e+00 3.0570740765e+00 
41600 5.5723142565e+00 2.2454042805e-04 1.7649959922e+00 -3.0570627337e+00 1.7649959922e+00 3.0570627337e+00 
41700 5.5723142662e+00 2.1772220092e-04 1.7649896313e+00 -3.0570517163e+00 1.7649896313e+00 3.0570517163e+00 
41800 5.5723142762e+00 2.1073704678e-04 1.7649834635e+00 -3.0570410333e+00 1.7649834635e+00 3.0570410333e+00 
41900 5.5723142864e+00 2.0360424986e-04 1.7649774936e+00 -3.0570306931e+00 1.7649774936e+00 3.0570306931e+00 
42000 5.5723142967e+00 1.9634282897e-04 1.7649717257e+00 -3.0570207028e+00 1.7649717257e+00 3.0570207028e+00 
42100 5.5723143073e+00 1.8897150451e-04 1.7649661635e+00 -3.0570110688e+00 1.7649661635e+00 3.0570110688e+00 
42200 5.5723143179e+00 1.8150866710e-04 1.7649608101e+00 -3.0570017964e+00 1.7649608101e+00 3.0570017964e+00 
42300 5.5723143287e+00 1.7397234785e-04 1.7649556681e+00 -3.0569928902e+00 1.7649556681e+00 3.0569928902e+00 
42400 5.5723143396e+00 1.6638019042e-04 1.7649507395e+00 -3.0569843538e+00 1.7649507395e+00 3.0569843538e+00 
42500 5.5723143506e+00 1.5874942469e-04 1.7649460261e+00 -3.0569761898e+00 1.7649460261e+00 3.0569761898e+00 
42600 5.5723143615e+00 1.5109684216e-04 1.7649415288e+00 -3.0569684003e+00 1.7649415288e+00 3.0569684003e+00 
42700 5.5723143725e+00 1.4343877308e-04 1.7649372483e+00 -3.0569609862e+00 1.7649372483e+00 3.0569609862e+00 
42800 5.5723143834e+00 1.3579106524e-04 1.7649331847e+00 -3.0569539479e+00 1.7649331847e+00 3.0569539479e+00 
42900 5.5723143943e+00 1.2816906449e-04 1.7649293378e+00 -3.0569472849e+00 1.7649293378e+00 3.0569472849e+00 
43000 5.5723144051e+00 1.2058759693e-04 1.7649257068e+00 -3.0569409958e+00 1.7649257068e+00 3.0569409958e+00 
43100 5.5723144158e+00 1.1306095276e-04 1.7649222906e+00 -3.0569350787e+00 1.7649222906e+00 3.0569350787e+00 
43200 5.5723144264e+00 1.0560287185e-04 1.7649190876e+00 -3.0569295310e+00 1.7649190876e+00 3.0569295310e+00 
43300 5.5723144368e+00 9.8226530786e-05 1.7649160959e+00 -3.0569243492e+00 1.7649160959e+00 3.0569243492e+00 
43400 5.5723144470e+00 9.0944531762e-05 1.7649133131e+00 -3.0569195293e+00 1.7649133131e+00 3.0569195293e+00 
43500 5.5723144571e+00 8.3768892857e-05 1.7649107367e+00 -3.0569150668e+00 1.7649107367e+00 3.0569150668e+00 
43600 5.5723144670e+00 7.6711039959e-05 1.7649083635e+00 -3.0569109563e+00 1.7649083635e+00 3.0569109563e+00 
43700 5.5723144766e+00 6.9781800227e-05 1.7649061903e+00 -3.0569071921e+00 1.7649061903e+00 3.0569071921e+00 
43800 5.5723144861e+00 6.4938550722e-05 1.7649061903e+00 -3.0569071921e+00 1.7649061903e+00 3.0569071921e+00 
43900 5.5723144954e+00 6.0066325608e-05 1.7649061903e+00 -3.0569071921e+00 1.7649061903e+00 3.0569071921e+00 
44000 5.5723145043e+00 5.5178365849e-05 1.7649061903e+00 -3.0569071921e+00 1.7649061903e+00 3.0569071921e+00 
44100 5.5723145130e+00 5.0287377116e-05 1.7649061903e+00 -3.0569071921e+00 1.7649061903e+00 3.0569071921e+00 
44200 5.5723145214e+00 4.5405526168e-05 1.7649061903e+00 -3.0569071921e+00 1.7649061903e+00 3.0569071921e+00 
44300 5.5723145294e+00 4.0544438450e-05 1.7649061903e+00 -3.0569071921e+00 1.7649061903e+00 3.0569071921e+00 
44400 5.5723145372e+00 3.5715196882e-05 1.7649061903e+00 -3.0569071921e+00 1.7649061903e+00 3.0569071921e+00 
44500 5.5723145447e+00 3.0928341753e-05 1.7649061903e+00 -3.0569071921e+00 1.7649061903e+00 3.0569071921e+00 
44600 5.5723145519e+00 2.6193871732e-05 1.7649061903e+00 -3.0569071921e+00 1.7649061903e+00 3.0569071921e+00 
44700 5.5723145588e+00 2.1521245906e-05 1.7649061903e+00 -3.0569071921e+00 1.7649061903e+00 3.0569071921e+00 
44800 5.5723145655e+00 1.6919386824e-05 1.7649061903e+00 -3.0569071921e+00 1.7649061903e+00 3.0569071921e+00 
44900 5.5723145719e+00 1.2396684488e-05 1.7649061903e+00 -3.0569071921e+00 1.7649061903e+00 3.0569071921e+00 
45000 5.5723145780e+00 7.9610012604e-06 1.7649061903e+00 -3.0569071921e+00 1.7649061903e+00 3.0569071921e+00 
45100 5.5723145840e+00 3.6196776258e-06 1.7649061903e+00 -3.0569071921e+00 1.7649061903e+00 3.0569071921e+00 
45200 5.5723145896e+00 -6.2046122199e-07 1.7649061903e+00 -3.0569071921e+00 1.7649061903e+00 3.0569071921e+00 
45300 5.5723145951e+00 -4.7530980303e-06 1.7649061903e+00 -3.0569071921e+00 1.7649061903e+00 3.0569071921e+00 
45400 5.5723146004e+00 -8.7724154015e-06 1.7649061903e+00 -3.0569071921e+00 1.7649061903e+00 3.0569071921e+00 
45500 5.5723146055e+00 -1.2673087038e-05 1.7649061903e+00 -3.0569071921e+00 1.7649061903e+00 3.0569071921e+00 
45600 5.5723146104e+00 -1.6450268337e-05 1.7649061903e+00 -3.0569071921e+00 1.7649061903e+00 3.0569071921e+00 
45700 5.5723146151e+00 -2.0099586402e-05 1.7649061903e+00 -3.0569071921e+00 1.7649061903e+00 3.0569071921e+00 
45800 5.5723146197e+00 -2.3617129506e-05 1.7649061903e+00 -3.0569071921e+00 1.7649061903e+00 3.0569071921e+00 
45900 5.5723146241e+00 -2.6999436035e-05 1.7649061903e+00 -3.0569071921e+00 1.7649061903e+00 3.0569071921e+00 
46000 5.5723146284e+00 -3.0243482989e-05 1.7649061903e+00 -3.0569071921e+00 1.7649061903e+00 3.0569071921e+00 
46100 5.5723146326e+00 -3.3346674047e-05 1.7649061903e+00 -3.0569071921e+00 1.7649061903e+00 3.0569071921e+00 
46200 5.5723146366e+00 -3.6306827245e-05 1.7649061903e+00 -3.0569071921e+00 1.7649061903e+00 3.0569071921e+00 
46300 5.5723146406e+00 -3.9122162334e-05 1.7649061903e+00 -3.0569071921e+00 1.7649061903e+00 3.0569071921e+00 
46400 5.5723146445e+00 -4.1791287813e-05 1.7649061903e+00 -3.0569071921e+00 1.7649061903e+00 3.0569071921e+00 
46500 5.5723146482e+00 -4.4313187718e-05 1.7649061903e+00 -3.0569071921e+00 1.7649061903e+00 3.0569071921e+00 
46600 5.5723146519e+00 -4.6687208164e-05 1.7649061903e+00 -3.0569071921e+00 1.7649061903e+00 3.0569071921e+00 
46700 5.5723146555e+00 -4.8913043719e-05 1.7649061903e+00 -3.0569071921e+00 1.7649061903e+00 3.0569071921e+00 
46800 5.5723146591e+00 -5.0990723605e-05 1.7649061903e+00 -3.0569071921e+00 1.7649061903e+00 3.0569071921e+00 
46900 5.5723146626e+00 -5.2920597783e-05 1.7649061903e+00 -3.0569071921e+00 1.7649061903e+00 3.0569071921e+00 
47000 5.5723146661e+00 -5.4703322961e-05 1.7649061903e+00 -3.0569071921e+00 1.7649061903e+00 3.0569071921e+00 
47100 5.5723146695e+00 -5.6339848523e-05 1.7649061903e+00 -3.0569071921e+00 1.7649061903e+00 3.0569071921e+00 
47200 5.5723146729e+00 -5.7831402462e-05 1.7649061903e+00 -3.0569071921e+00 1.7649061903e+00 3.0569071921e+00 
47300 5.5723146762e+00 -5.9179477287e-05 1.7649061903e+00 -3.0569071921e+00 1.7649061903e+00 3.0569071921e+00 
47400 5.5723146795e+00 -6.0385815989e-05 1.7649061903e+00 -3.0569071921e+00 1.7649061903e+00 3.0569071921e+00 
47500 5.5723146828e+00 -6.1452398047e-05 1.7649061903e+00 -3.0569071921e+00 1.7649061903e+00 3.0569071921e+00 
47600 5.5723146861e+00 -6.2381425537e-05 1.7649061903e+00 -3.0569071921e+00 1.7649061903e+00 3.0569071921e+00 
47700 5.5723146893e+00 -6.3175309332e-05 1.7649061903e+00 -3.0569071921e+00 1.7649061903e+00 3.0569071921e+00 
47800 5.5723146925e+00 -6.3836655459e-05 1.7649061903e+00 -3.0569071921e+00 1.7649061903e+00 3.0569071921e+00 
47900 5.5723146957e+00 -6.4368251594e-05 1.7649061903e+00 -3.0569071921e+00 1.7649061903e+00 3.0569071921e+00 
48000 5.5723146989e+00 -6.4773053747e-05 1.7649061903e+00 -3.0569071921e+00 1.7649061903e+00 3.0569071921e+00 
48100 5.5723147021e+00 -6.5054173133e-05 1.7649061903e+00 -3.0569071921e+00 1.7649061903e+00 3.0569071921e+00 
48200 5.5723147053e+00 -6.5214863277e-05 1.7649061903e+00 -3.0569071921e+00 1.7649061903e+00 3.0569071921e+00 
48300 5.5723147084e+00 -6.5258507338e-05 1.7649061903e+00 -3.0569071921e+00 1.7649061903e+00 3.0569071921e+00 
48400 5.5723147116e+00 -6.5188605687e-05 1.7649061903e+00 -3.0569071921e+00 1.7649061903e+00 3.0569071921e+00 
48500 5.5723147147e+00 -6.5008763756e-05 1.7649061903e+00 -3.0569071921e+00 1.7649061903e+00 3.0569071921e+00 
48600 5.5723147178e+00 -6.4722680164e-05 1.7649061903e+00 -3.0569071921e+00 1.7649061903e+00 3.0569071921e+00 
48700 5.5723147209e+00 -6.4334135138e-05 1.7649061903e+00 -3.0569071921e+00 1.7649061903e+00 3.0569071921e+00 
48800 5.5723147240e+00 -6.3846979230e-05 1.7649061903e+00 -3.0569071921e+00 1.7649061903e+00 3.0569071921e+00 
48900 5.5723147270e+00 -6.3265122363e-05 1.7649061903e+00 -3.0569071921e+00 1.7649061903e+00 3.0569071921e+00 
49000 5.5723147301e+00 -6.2592523196e-05 1.7649061903e+00 -3.0569071921e+00 1.7649061903e+00 3.0569071921e+00 
49100 5.5723147331e+00 -6.1833178819e-05 1.7649061903e+00 -3.0569071921e+00 1.7649061903e+00 3.0569071921e+00 
49200 5.5723147361e+00 -6.0991114796e-05 1.7649061903e+00 -3.0569071921e+00 1.7649061903e+00 3.0569071921e+00 
49300 5.5723147391e+00 -6.0070375555e-05 1.7649061903e+00 -3.0569071921e+00 1.7649061903e+00 3.0569071921e+00 
49400 5.5723147420e+00 -5.9075015124e-05 1.7649061903e+00 -3.0569071921e+00 1.7649061903e+00 3.0569071921e+00 
49500 5.5723147450e+00 -5.8009088240e-05 1.7649061903e+00 -3.0569071921e+00 1.7649061903e+00 3.0569071921e+00 
49600 5.5723147479e+00 -5.6876641805e-05 1.7649061903e+00 -3.0569071921e+00 1.7649061903e+00 3.0569071921e+00 
49700 5.5723147507e+00 -5.5681706718e-05 1.7649061903e+00 -3.0569071921e+00 1.7649061903e+00 3.0569071921e+00 
49800 5.5723147536e+00 -5.4428290067e-05 1.7649061903e+00 -3.0569071921e+00 1.7649061903e+00 3.0569071921e+00 
49900 5.5723147564e+00 -5.3120367695e-05 1.7649061903e+00 -3.0569071921e+00 1.7649061903e+00 3.0569071921e+00 
50000 5.5723147592e+00 -5.1761877128e-05 1.7649061903e+00 -3.0569071921e+00 1.7649061903e+00 3.0569071921e+00 
50100 5.5723147619e+00 -5.0356710878e-05 1.7649061903e+00 -3.0569071921e+00 1.7649061903e+00 3.0569071921e+00 
50200 5.5723147647e+00 -4.8908710108e-05 1.7649061903e+00 -3.0569071921e+00 1.7649061903e+00 3.0569071921e+00 
50300 5.5723147673e+00 -4.7421658664e-05 1.7649061903e+00 -3.0569071921e+00 1.7649061903e+00 3.0569071921e+00 
50400 5.5723147700e+00 -4.5899277468e-05 1.7649061903e+00 -3.0569071921e+00 1.7649061903e+00 3.0569071921e+00 
50500 5.5723147726e+00 -4.4345219273e-05 1.7649061903e+00 -3.0569071921e+00 1.7649061903e+00 3.0569071921e+00 
50600 5.5723147752e+00 -4.2763063774e-05 1.7649061903e+00 -3.0569071921e+00 1.7649061903e+00 3.0569071921e+00 
50700 5.5723147777e+00 -4.1156313066e-05 1.7649061903e+00 -3.0569071921e+00 1.7649061903e+00 3.0569071921e+00 
50800 5.5723147802e+00 -3.9528387452e-05 1.7649061903e+00 -3.0569071921e+00 1.7649061903e+00 3.0569071921e+00 
50900 5.5723147827e+00 -3.7882621595e-05 1.7649061903e+00 -3.0569071921e+00 1.7649061903e+00 3.0569071921e+00 
51000 5.5723147851e+00 -3.6222260992e-05 1.7649061903e+00 -3.0569071921e+00 1.7649061903e+00 3.0569071921e+00 
51100 5.5723147875e+00 -3.4550458792e-05 1.7649061903e+00 -3.0569071921e+00 1.7649061903e+00 3.0569071921e+00 
51200 5.5723147898e+00 -3.2870272931e-05 1.7649061903e+00 -3.0569071921e+00 1.7649061903e+00 3.0569071921e+00 
51300 5.5723147921e+00 -3.1184663576e-05 1.7649061903e+00 -3.0569071921e+00 1.7649061903e+00 3.0569071921e+00 
51400 5.5723147943e+00 -2.9496490888e-05 1.7649061903e+00 -3.0569071921e+00 1.7649061903e+00 3.0569071921e+00 
51500 5.5723147966e+00 -2.7808513065e-05 1.7649061903e+00 -3.0569071921e+00 1.7649061903e+00 3.0569071921e+00 
51600 5.5723147987e+00 -2.6123384698e-05 1.7649061903e+00 -3.0569071921e+00 1.7649061903e+00 3.0569071921e+00 
51700 5.5723148009e+00 -2.4443655400e-05 1.7649061903e+00 -3.0569071921e+00 1.7649061903e+00 3.0569071921e+00 
51800 5.5723148030e+00 -2.2771768705e-05 1.7649061903e+00 -3.0569071921e+00 1.7649061903e+00 3.0569071921e+00 
51900 5.5723148051e+00 -2.1110061235e-05 1.7649061903e+00 -3.0569071921e+00 1.7649061903e+00 3.0569071921e+00 
52000 5.5723148071e+00 -1.9460762134e-05 1.7649061903e+00 -3.0569071921e+00 1.7649061903e+00 3.0569071921e+00 
52100 5.5723148091e+00 -1.7825992728e-05 1.7649061903e+00 -3.0569071921e+00 1.7649061903e+00 3.0569071921e+00 
52200 5.5723148110e+00 -1.6207766443e-05 1.7649061903e+00 -3.0569071921e+00 1.7649061903e+00 3.0569071921e+00 
52300 5.5723148129e+00 -1.4607988943e-05 1.7649061903e+00 -3.0569071921e+00 1.7649061903e+00 3.0569071921e+00 
52400 5.5723148148e+00 -1.3028458475e-05 1.7649061903e+00 -3.0569071921e+00 1.7649061903e+00 3.0569071921e+00 
52500 5.5723148167e+00 -1.1470866446e-05 1.7649061903e+00 -3.0569071921e+00 1.7649061903e+00 3.0569071921e+00 
52600 5.5723148185e+00 -9.9367981850e-06 1.7649061903e+00 -3.0569071921e+00 1.7649061903e+00 3.0569071921e+00 
52700 5.5723148203e+00 -8.4277338868e-06 1.7649061903e+00 -3.0569071921e+00 1.7649061903e+00 3.0569071921e+00 
52800 5.5723148220e+00 -6.9450497605e-06 1.7649061903e+00 -3.0569071921e+00 1.7649061903e+00 3.0569071921e+00 
52900 5.5723148237e+00 -5.4900193236e-06 1.7649061903e+00 -3.0569071921e+00 1.7649061903e+00 3.0569071921e+00 
53000 5.5723148254e+00 -4.0638148688e-06 1.7649061903e+00 -3.0569071921e+00 1.7649061903e+00 3.0569071921e+00 
53100 5.5723148271e+00 -2.6675090815e-06 1.7649061903e+00 -3.0569071921e+00 1.7649061903e+00 3.0569071921e+00 
53200 5.5723148287e+00 -1.3020767937e-06 1.7649061903e+00 -3.0569071921e+00 1.7649061903e+00 3.0569071921e+00 
53300 5.5723148303e+00 3.1603125237e-08 1.7649061903e+00 -3.0569071921e+00 1.7649061903e+00 3.0569071921e+00 
53400 5.5723148319e+00 1.3327457570e-06 1.7649061903e+00 -3.0569071921e+00 1.7649061903e+00 3.0569071921e+00 
53500 5.5723148334e+00 2.6006580072e-06 1.7649061903e+00 -3.0569071921e+00 1.7649061903e+00 3.0569071921e+00 
53600 5.5723148349e+00 3.8347363780e-06 1.7649061903e+00 -3.0569071921e+00 1.7649061903e+00 3.0569071921e+00 
53700 5.5723148364e+00 5.0344646395e-06 1.7649061903e+00 -3.0569071921e+00 1.7649061903e+00 3.0569071921e+00 
53800 5.5723148379e+00 6.1994114192e-06 1.7649061903e+00 -3.0569071921e+00 1.7649061903e+00 3.0569071921e+00 
53900 5.5723148394e+00 7.3292277098e-06 1.7649061903e+00 -3.0569071921e+00 1.7649061903e+00 3.0569071921e+00 
54000 5.5723148408e+00 8.4236443039e-06 1.7649061903e+00 -3.0569071921e+00 1.7649061903e+00 3.0569071921e+00 
54100 5.5723148422e+00 9.4824691801e-06 1.7649061903e+00 -3.0569071921e+00 1.7649061903e+00 3.0569071921e+00 
54200 5.5723148436e+00 1.0505584816e-05 1.7649061903e+00 -3.0569071921e+00 1.7649061903e+00 3.0569071921e+00 
54300 5.5723148449e+00 1.1492945466e-05 1.7649061903e+00 -3.0569071921e+00 1.7649061903e+00 3.0569071921e+00 
54400 5.5723148463e+00 1.2444574407e-05 1.7649061903e+00 -3.0569071921e+00 1.7649061903e+00 3.0569071921e+00 
54500 5.5723148476e+00 1.3360561137e-05 1.7649061903e+00 -3.0569071921e+00 1.7649061903e+00 3.0569071921e+00 
54600 5.5723148489e+00 1.4241058561e-05 1.7649061903e+00 -3.0569071921e+00 1.7649061903e+00 3.0569071921e+00 
54700 5.5723148502e+00 1.5086280152e-05 1.7649061903e+00 -3.0569071921e+00 1.7649061903e+00 3.0569071921e+00 
54800 5.5723148514e+00 1.5896497112e-05 1.7649061903e+00 -3.0569071921e+00 1.7649061903e+00 3.0569071921e+00 
54900 5.5723148527e+00 1.6672035515e-05 1.7649061903e+00 -3.0569071921e+00 1.7649061903e+00 3.0569071921e+00 
55000 5.5723148539e+00 1.7413273463e-05 1.7649061903e+00 -3.0569071921e+00 1.7649061903e+00 3.0569071921e+00 
55100 5.5723148551e+00 1.8120638236e-05 1.7649061903e+00 -3.0569071921e+00 1.7649061903e+00 3.0569071921e+00 
55200 5.5723148563e+00 1.8794603477e-05 1.7649061903e+00 -3.0569071921e+00 1.7649061903e+00 3.0569071921e+00 
55300 5.5723148575e+00 1.9435686375e-05 1.7649061903e+00 -3.0569071921e+00 1.7649061903e+00 3.0569071921e+00 
55400 5.5723148587e+00 2.0044444878e-05 1.7649061903e+00 -3.0569071921e+00 1.7649061903e+00 3.0569071921e+00 
55500 5.5723148598e+00 2.0621474935e-05 1.7649061903e+00 -3.0569071921e+00 1.7649061903e+00 3.0569071921e+00 
55600 5.5723148609e+00 2.1167407773e-05 1.7649061903e+00 -3.0569071921e+00 1.7649061903e+00 3.0569071921e+00 
55700 5.5723148620e+00 2.1682907216e-05 1.7649061903e+00 -3.0569071921e+00 1.7649061903e+00 3.0569071921e+00 
55800 5.5723148631e+00 2.2168667024e-05 1.7649061903e+00 -3.0569071921e+00 1.7649061903e+00 3.0569071921e+00 
55900 5.5723148642e+00 2.2625408305e-05 1.7649061903e+00 -3.0569071921e+00 1.7649061903e+00 3.0569071921e+00 
56000 5.5723148653e+00 2.3053876955e-05 1.7649061903e+00 -3.0569071921e+00 1.7649061903e+00 3.0569071921e+00 
56100 5.5723148664e+00 2.3454841161e-05 1.7649061903e+00 -3.0569071921e+00 1.7649061903e+00 3.0569071921e+00 
56200 5.5723148674e+00 2.3829088957e-05 1.7649061903e+00 -3.0569071921e+00 1.7649061903e+00 3.0569071921e+00 
56300 5.5723148684e+00 2.4177425836e-05 1.7649061903e+00 -3.0569071921e+00 1.7649061903e+00 3.0569071921e+00 
56400 5.5723148695e+00 2.4500672422e-05 1.7649061903e+00 -3.0569071921e+00 1.7649061903e+00 3.0569071921e+00 
56500 5.5723148705e+00 2.4799662206e-05 1.7649061903e+00 -3.0569071921e+00 1.7649061903e+00 3.0569071921e+00 
56600 5.5723148714e+00 2.5075239351e-05 1.7649061903e+00 -3.0569071921e+00 1.7649061903e+00 3.0569071921e+00 
56700 5.5723148724e+00 2.5328256562e-05 1.7649061903e+00 -3.0569071921e+00 1.7649061903e+00 3.0569071921e+00 
56800 5.5723148734e+00 2.5559573013e-05 1.7649061903e+00 -3.0569071921e+00 1.7649061903e+00 3.0569071921e+00 
56900 5.5723148743e+00 2.5770052367e-05 1.7649061903e+00 -3.0569071921e+00 1.7649061903e+00 3.0569071921e+00 
57000 5.5723148753e+00 2.5960560848e-05 1.7649061903e+00 -3.0569071921e+00 1.7649061903e+00 3.0569071921e+00 
57100 5.5723148762e+00 2.6131965397e-05 1.7649061903e+00 -3.0569071921e+00 1.7649061903e+00 3.0569071921e+00 
57200 5.5723148771e+00 2.6285131892e-05 1.7649061903e+00 -3.0569071921e+00 1.7649061903e+00 3.0569071921e+00 
57300 5.5723148780e+00 2.6420923452e-05 1.7649061903e+00 -3.0569071921e+00 1.7649061903e+00 3.0569071921e+00 
57400 5.5723148789e+00 2.6540198808e-05 1.7649061903e+00 -3.0569071921e+00 1.7649061903e+00 3.0569071921e+00 
57500 5.5723148798e+00 2.6643810760e-05 1.7649061903e+00 -3.0569071921e+00 1.7649061903e+00 3.0569071921e+00 
57600 5.5723148806e+00 2.6732604685e-05 1.7649061903e+00 -3.0569071921e+00 1.7649061903e+00 3.0569071921e+00 
57700 5.5723148815e+00 2.6807417155e-05 1.7649061903e+00 -3.0569071921e+00 1.7649061903e+00 3.0569071921e+00 
57800 5.5723148823e+00 2.6869074603e-05 1.7649061903e+00 -3.0569071921e+00 1.7649061903e+00 3.0569071921e+00 
57900 5.5723148831e+00 2.6918392065e-05 1.7649061903e+00 -3.0569071921e+00 1.7649061903e+00 3.0569071921e+00 
58000 5.5723148839e+00 2.6956172022e-05 1.7649061903e+00 -3.0569071921e+00 1.7649061903e+00 3.0569071921e+00 
58100 5.5723148847e+00 2.6983203285e-05 1.7649061903e+00 -3.0569071921e+00 1.7649061903e+00 3.0569071921e+00 
58200 5.5723148855e+00 2.7000259966e-05 1.7649061903e+00 -3.0569071921e+00 1.7649061903e+00 3.0569071921e+00 
58300 5.5723148863e+00 2.7008100525e-05 1.7649061903e+00 -3.0569071921e+00 1.7649061903e+00 3.0569071921e+00 
58400 5.5723148871e+00 2.7007466881e-05 1.7649061903e+00 -3.0569071921e+00 1.7649061903e+00 3.0569071921e+00 
58500 5.5723148878e+00 2.6999083601e-05 1.7649061903e+00 -3.0569071921e+00 1.7649061903e+00 3.0569071921e+00 
58600 5.5723148886e+00 2.6983657145e-05 1.7649061903e+00 -3.0569071921e+00 1.7649061903e+00 3.0569071921e+00 
58700 5.5723148893e+00 2.6961875200e-05 1.7649061903e+00 -3.0569071921e+00 1.7649061903e+00 3.0569071921e+00 
58800 5.5723148900e+00 2.6934406053e-05 1.7649061903e+00 -3.0569071921e+00 1.7649061903e+00 3.0569071921e+00 
58900 5.5723148907e+00 2.6901898057e-05 1.7649061903e+00 -3.0569071921e+00 1.7649061903e+00 3.0569071921e+00 
59000 5.5723148914e+00 2.6864979132e-05 1.7649061903e+00 -3.0569071921e+00 1.7649061903e+00 3.0569071921e+00 
59100 5.5723148921e+00 2.6824256363e-05 1.7649061903e+00 -3.0569071921e+00 1.7649061903e+00 3.0569071921e+00 
59200 5.5723148928e+00 2.6780315619e-05 1.7649061903e+00 -3.0569071921e+00 1.7649061903e+00 3.0569071921e+00 
59300 5.5723148935e+00 2.6733721263e-05 1.7649061903e+00 -3.0569071921e+00 1.7649061903e+00 3.0569071921e+00 
59400 5.5723148941e+00 2.6685015898e-05 1.7649061903e+00 -3.0569071921e+00 1.7649061903e+00 3.0569071921e+00 
59500 5.5723148948e+00 2.6634720181e-05 1.7649061903e+00 -3.0569071921e+00 1.7649061903e+00 3.0569071921e+00 
59600 5.5723148954e+00 2.6583332681e-05 1.7649061903e+00 -3.0569071921e+00 1.7649061903e+00 3.0569071921e+00 
59700 5.5723148961e+00 2.6531329795e-05 1.7649061903e+00 -3.0569071921e+00 1.7649061903e+00 3.0569071921e+00 
59800 5.5723148967e+00 2.6479165710e-05 1.7649061903e+00 -3.0569071921e+00 1.7649061903e+00 3.0569071921e+00 
59900 5.5723148973e+00 2.6427272410e-05 1.7649061903e+00 -3.0569071921e+00 1.7649061903e+00 3.0569071921e+00 
60000 5.5723148979e+00 2.6376059735e-05 1.7649061903e+00 -3.0569071921e+00 1.7649061903e+00 3.0569071921e+00 
60100 5.5723148985e+00 2.6325915479e-05 1.7649061903e+00 -3.0569071921e+00 1.7649061903e+00 3.0569071921e+00 
60200 5.5723148991e+00 2.6277205531e-05 1.7649061903e+00 -3.0569071921e+00 1.7649061903e+00 3.0569071921e+00 
60300 5.5723148996e+00 2.6230274052e-05 1.7649061903e+00 -3.0569071921e+00 1.7649061903e+00 3.0569071921e+00 
60400 5.5723149002e+00 2.6185443697e-05 1.7649061903e+00 -3.0569071921e+00 1.7649061903e+00 3.0569071921e+00 
60500 5.5723149008e+00 2.6143015863e-05 1.7649061903e+00 -3.0569071921e+00 1.7649061903e+00 3.0569071921e+00 
60600 5.5723149013e+00 2.6103270987e-05 1.7649061903e+00 -3.0569071921e+00 1.7649061903e+00 3.0569071921e+00 
60700 5.5723149019e+00 2.6066468846e-05 1.7649061903e+00 -3.0569071921e+00 1.7649061903e+00 3.0569071921e+00 
60800 5.5723149024e+00 2.6032848922e-05 1.7649061903e+00 -3.0569071921e+00 1.7649061903e+00 3.0569071921e+00 
60900 5.5723149029e+00 2.6002630769e-05 1.7649061903e+00 -3.0569071921e+00 1.7649061903e+00 3.0569071921e+00 
61000 5.5723149035e+00 2.5976014413e-05 1.7649061903e+00 -3.0569071921e+00 1.7649061903e+00 3.0569071921e+00 
61100 5.5723149040e+00 2.5953180791e-05 1.7649061903e+00 -3.0569071921e+00 1.7649061903e+00 3.0569071921e+00 
61200 5.5723149045e+00 2.5934292177e-05 1.7649061903e+00 -3.0569071921e+00 1.7649061903e+00 3.0569071921e+00 
61300 5.5723149050e+00 2.5919492671e-05 1.7649061903e+00 -3.0569071921e+00 1.7649061903e+00 3.0569071921e+00 
61400 5.5723149055e+00 2.5908908671e-05 1.7649061903e+00 -3.0569071921e+00 1.7649061903e+00 3.0569071921e+00 
61500 5.5723149059e+00 2.5902649384e-05 1.7649061903e+00 -3.0569071921e+00 1.7649061903e+00 3.0569071921e+00 
61600 5.5723149064e+00 2.5900807338e-05 1.7649061903e+00 -3.0569071921e+00 1.7649061903e+00 3.0569071921e+00 
61700 5.5723149069e+00 2.5903458913e-05 1.7649061903e+00 -3.0569071921e+00 1.7649061903e+00 3.0569071921e+00 
61800 5.5723149073e+00 2.5910664894e-05 1.7649061903e+00 -3.0569071921e+00 1.7649061903e+00 3.0569071921e+00 
61900 5.5723149078e+00 2.5922471010e-05 1.7649061903e+00 -3.0569071921e+00 1.7649061903e+00 3.0569071921e+00 
62000 5.5723149083e+00 2.5938908502e-05 1.7649061903e+00 -3.0569071921e+00 1.7649061903e+00 3.0569071921e+00 
62100 5.5723149087e+00 2.5959994691e-05 1.7649061903e+00 -3.0569071921e+00 1.7649061903e+00 3.0569071921e+00 
62200 5.5723149091e+00 2.5985733551e-05 1.7649061903e+00 -3.0569071921e+00 1.7649061903e+00 3.0569071921e+00 
62300 5.5723149096e+00 2.6016116284e-05 1.7649061903e+00 -3.0569071921e+00 1.7649061903e+00 3.0569071921e+00 
62400 5.5723149100e+00 2.6051121905e-05 1.7649061903e+00 -3.0569071921e+00 1.7649061903e+00 3.0569071921e+00 
62500 5.5723149104e+00 2.6090717818e-05 1.7649061903e+00 -3.0569071921e+00 1.7649061903e+00 3.0569071921e+00 
62600 5.5723149108e+00 2.6134860398e-05 1.7649061903e+00 -3.0569071921e+00 1.7649061903e+00 3.0569071921e+00 
62700 5.5723149112e+00 2.6183495580e-05 1.7649061903e+00 -3.0569071921e+00 1.7649061903e+00 3.0569071921e+00 
62800 5.5723149116e+00 2.6236559425e-05 1.7649061903e+00 -3.0569071921e+00 1.7649061903e+00 3.0569071921e+00 
62900 5.5723149120e+00 2.6293978700e-05 1.7649061903e+00 -3.0569071921e+00 1.7649061903e+00 3.0569071921e+00 
63000 5.5723149124e+00 2.6355671451e-05 1.7649061903e+00 -3.0569071921e+00 1.7649061903e+00 3.0569071921e+00 
63100 5.5723149128e+00 2.6421547563e-05 1.7649061903e+00 -3.0569071921e+00 1.7649061903e+00 3.0569071921e+00 
63200 5.5723149132e+00 2.6491509323e-05 1.7649061903e+00 -3.0569071921e+00 1.7649061903e+00 3.0569071921e+00 
63300 5.5723149135e+00 2.6565451963e-05 1.7649061903e+00 -3.0569071921e+00 1.7649061903e+00 3.0569071921e+00 
63400 5.5723149139e+00 2.6643264211e-05 1.7649061903e+00 -3.0569071921e+00 1.7649061903e+00 3.0569071921e+00 
63500 5.5723149143e+00 2.6724828819e-05 1.7649061903e+00 -3.0569071921e+00 1.7649061903e+00 3.0569071921e+00 
63600 5.5723149146e+00 2.6810023093e-05 1.7649061903e+00 -3.0569071921e+00 1.7649061903e+00 3.0569071921e+00 
63700 5.5723149150e+00 2.6898719398e-05 1.7649061903e+00 -3.0569071921e+00 1.7649061903e+00 3.0569071921e+00 
63800 5.5723149153e+00 2.6990785668e-05 1.7649061903e+00 -3.0569071921e+00 1.7649061903e+00 3.0569071921e+00 
63900 5.5723149157e+00 2.7086085894e-05 1.7649061903e+00 -3.0569071921e+00 1.7649061903e+00 3.0569071921e+00 
64000 5.5723149160e+00 2.7184480600e-05 1.7649061903e+00 -3.0569071921e+00 1.7649061903e+00 3.0569071921e+00 
64100 5.5723149163e+00 2.7285827314e-05 1.7649061903e+00 -3.0569071921e+00 1.7649061903e+00 3.0569071921e+00 
64200 5.5723149167e+00 2.7389981014e-05 1.7649061903e+00 -3.0569071921e+00 1.7649061903e+00 3.0569071921e+00 
64300 5.5723149170e+00 2.7496794575e-05 1.7649061903e+00 -3.0569071921e+00 1.7649061903e+00 3.0569071921e+00 
64400 5.5723149173e+00 2.7606119187e-05 1.7649061903e+00 -3.0569071921e+00 1.7649061903e+00 3.0569071921e+00 
64500 5.5723149176e+00 2.7717804768e-05 1.7649061903e+00 -3.0569071921e+00 1.7649061903e+00 3.0569071921e+00 
64600 5.5723149179e+00 2.7831700366e-05 1.7649061903e+00 -3.0569071921e+00 1.7649061903e+00 3.0569071921e+00 
64700 5.5723149182e+00 2.7947654529e-05 1.7649061903e+00 -3.0569071921e+00 1.7649061903e+00 3.0569071921e+00 
64800 5.5723149185e+00 2.8065515680e-05 1.7649061903e+00 -3.0569071921e+00 1.7649061903e+00 3.0569071921e+00 
64900 5.5723149188e+00 2.8185132468e-05 1.7649061903e+00 -3.0569071921e+00 1.7649061903e+00 3.0569071921e+00 
65000 5.5723149191e+00 2.8306354102e-05 1.7649061903e+00 -3.0569071921e+00 1.7649061903e+00 3.0569071921e+00 
65100 5.5723149194e+00 2.8429030671e-05 1.7649061903e+00 -3.0569071921e+00 1.7649061903e+00 3.0569071921e+00 
65200 5.5723149197e+00 2.8553013453e-05 1.7649061903e+00 -3.0569071921e+00 1.7649061903e+00 3.0569071921e+00 
65300 5.5723149200e+00 2.8678155200e-05 1.7649061903e+00 -3.0569071921e+00 1.7649061903e+00 3.0569071921e+00 
65400 5.5723149203e+00 2.8804310419e-05 1.7649061903e+00 -3.0569071921e+00 1.7649061903e+00 3.0569071921e+00 
65500 5.5723149205e+00 2.8931335628e-05 1.7649061903e+00 -3.0569071921e+00 1.7649061903e+00 3.0569071921e+00 
65600 5.5723149208e+00 2.9059089601e-05 1.7649061903e+00 -3.0569071921e+00 1.7649061903e+00 3.0569071921e+00 
65700 5.5723149211e+00 2.9187433597e-05 1.7649061903e+00 -3.0569071921e+00 1.7649061903e+00 3.0569071921e+00 
65800 5.5723149213e+00 2.9316231575e-05 1.7649061903e+00 -3.0569071921e+00 1.7649061903e+00 3.0569071921e+00 
65900 5.5723149216e+00 2.9445350390e-05 1.7649061903e+00 -3.0569071921e+00 1.7649061903e+00 3.0569071921e+00 
66000 5.5723149219e+00 2.9574659987e-05 1.7649061903e+00 -3.0569071921e+00 1.7649061903e+00 3.0569071921e+00 
66100 5.5723149221e+00 2.9704033558e-05 1.7649061903e+00 -3.0569071921e+00 1.7649061903e+00 3.0569071921e+00 
66200 5.5723149223e+00 2.9833347712e-05 1.7649061903e+00 -3.0569071921e+00 1.7649061903e+00 3.0569071921e+00 
66300 5.5723149226e+00 2.9962482610e-05 1.7649061903e+00 -3.0569071921e+00 1.7649061903e+00 3.0569071921e+00 
66400 5.5723149228e+00 3.0091322095e-05 1.7649061903e+00 -3.0569071921e+00 1.7649061903e+00 3.0569071921e+00 
66500 5.5723149231e+00 3.0219753806e-05 1.7649061903e+00 -3.0569071921e+00 1.7649061903e+00 3.0569071921e+00 
66600 5.5723149233e+00 3.0347669283e-05 1.7649061903e+00 -3.0569071921e+00 1.7649061903e+00 3.0569071921e+00 
66700 5.5723149235e+00 3.0474964060e-05 1.7649061903e+00 -3.0569071921e+00 1.7649061903e+00 3.0569071921e+00 
66800 5.5723149238e+00 3.0601537736e-05 1.7649061903e+00 -3.0569071921e+00 1.7649061903e+00 3.0569071921e+00 
66900 5.5723149240e+00 3.0727294041e-05 1.7649061903e+00 -3.0569071921e+00 1.7649061903e+00 3.0569071921e+00 
67000 5.5723149242e+00 3.0852140895e-05 1.7649061903e+00 -3.0569071921e+00 1.7649061903e+00 3.0569071921e+00 
67100 5.5723149244e+00 3.0975990445e-05 1.7649061903e+00 -3.0569071921e+00 1.7649061903e+00 3.0569071921e+00 
67200 5.5723149246e+00 3.1098759102e-05 1.7649061903e+00 -3.0569071921e+00 1.7649061903e+00 3.0569071921e+00 
67300 5.5723149249e+00 3.1220367556e-05 1.7649061903e+00 -3.0569071921e+00 1.7649061903e+00 3.0569071921e+00 
67400 5.5723149251e+00 3.1340740791e-05 1.7649061903e+00 -3.0569071921e+00 1.7649061903e+00 3.0569071921e+00 
67500 5.5723149253e+00 3.1459808082e-05 1.7649061903e+00 -3.0569071921e+00 1.7649061903e+00 3.0569071921e+00 
67600 5.5723149255e+00 3.1577502995e-05 1.7649061903e+00 -3.0569071921e+00 1.7649061903e+00 3.0569071921e+00 
67700 5.5723149257e+00 3.1693763360e-05 1.7649061903e+00 -3.0569071921e+00 1.7649061903e+00 3.0569071921e+00 
67800 5.5723149259e+00 3.1808531251e-05 1.7649061903e+00 -3.0569071921e+00 1.7649061903e+00 3.0569071921e+00 
67900 5.5723149261e+00 3.1921752950e-05 1.7649061903e+00 -3.0569071921e+00 1.7649061903e+00 3.0569071921e+00 
68000 5.5723149263e+00 3.2033378906e-05 1.7649061903e+00 -3.0569071921e+00 1.7649061903e+00 3.0569071921e+00 
68100 5.5723149264e+00 3.2143363687e-05 1.7649061903e+00 -3.0569071921e+00 1.7649061903e+00 3.0569071921e+00 
68200 5.5723149266e+00 3.2251665923e-05 1.7649061903e+00 -3.0569071921e+00 1.7649061903e+00 3.0569071921e+00 
68300 5.5723149268e+00 3.2358248241e-05 1.7649061903e+00 -3.0569071921e+00 1.7649061903e+00 3.0569071921e+00 
68400 5.5723149270e+00 3.2463077201e-05 1.7649061903e+00 -3.0569071921e+00 1.7649061903e+00 3.0569071921e+00 
68500 5.5723149272e+00 3.2566123221e-05 1.7649061903e+00 -3.0569071921e+00 1.7649061903e+00 3.0569071921e+00 
68600 5.5723149274e+00 3.2667360495e-05 1.7649061903e+00 -3.0569071921e+00 1.7649061903e+00 3.0569071921e+00 
68700 5.5723149275e+00 3.2766766912e-05 1.7649061903e+00 -3.0569071921e+00 1.7649061903e+00 3.0569071921e+00 
68800 5.5723149277e+00 3.2864323962e-05 1.7649061903e+00 -3.0569071921e+00 1.7649061903e+00 3.0569071921e+00 
68900 5.5723149279e+00 3.2960016645e-05 1.7649061903e+00 -3.0569071921e+00 1.7649061903e+00 3.0569071921e+00 
69000 5.5723149280e+00 3.3053833377e-05 1.7649061903e+00 -3.0569071921e+00 1.7649061903e+00 3.0569071921e+00 
69100 5.5723149282e+00 3.3145765887e-05 1.7649061903e+00 -3.0569071921e+00 1.7649061903e+00 3.0569071921e+00 
69200 5.5723149284e+00 3.3235809112e-05 1.7649061903e+00 -3.0569071921e+00 1.7649061903e+00 3.0569071921e+00 
69300 5.5723149285e+00 3.3323961091e-05 1.7649061903e+00 -3.0569071921e+00 1.7649061903e+00 3.0569071921e+00 
69400 5.5723149287e+00 3.3410222859e-05 1.7649061903e+00 -3.0569071921e+00 1.7649061903e+00 3.0569071921e+00 
69500 5.5723149288e+00 3.3494598336e-05 1.7649061903e+00 -3.0569071921e+00 1.7649061903e+00 3.0569071921e+00 
69600 5.5723149290e+00 3.3577094209e-05 1.7649061903e+00 -3.0569071921e+00 1.7649061903e+00 3.0569071921e+00 
69700 5.5723149291e+00 3.3657719825e-05 1.7649061903e+00 -3.0569071921e+00 1.7649061903e+00 3.0569071921e+00 
69800 5.5723149293e+00 3.3736487073e-05 1.7649061903e+00 -3.0569071921e+00 1.7649061903e+00 3.0569071921e+00 
69900 5.5723149294e+00 3.3813410265e-05 1.7649061903e+00 -3.0569071921e+00 1.7649061903e+00 3.0569071921e+00 
70000 5.5723149296e+00 3.3888506025e-05 1.7649061903e+00 -3.0569071921e+00 1.7649061903e+00 3.0569071921e+00 
70100 5.5723149297e+00 3.3961793166e-05 1.7649061903e+00 -3.0569071921e+00 1.7649061903e+00 3.0569071921e+00 
70200 5.5723149299e+00 3.4033292579e-05 1.7649061903e+00 -3.0569071921e+00 1.7649061903e+00 3.0569071921e+00 
70300 5.5723149300e+00 3.4103027111e-05 1.7649061903e+00 -3.0569071921e+00 1.7649061903e+00 3.0569071921e+00 
70400 5.5723149301e+00 3.4171021458e-05 1.7649061903e+00 -3.0569071921e+00 1.7649061903e+00 3.0569071921e+00 
70500 5.5723149303e+00 3.4237302033e-05 1.7649061903e+00 -3.0569071921e+00 1.7649061903e+00 3.0569071921e+00 
70600 5.5723149304e+00 3.4301896871e-05 1.7649061903e+00 -3.0569071921e+00 1.7649061903e+00 3.0569071921e+00 
70700 5.5723149305e+00 3.4364835497e-05 1.7649061903e+00 -3.0569071921e+00 1.7649061903e+00 3.0569071921e+00 
70800 5.5723149307e+00 3.4426148828e-05 1.7649061903e+00 -3.0569071921e+00 1.7649061903e+00 3.0569071921e+00 
70900 5.5723149308e+00 3.4485869054e-05 1.7649061903e+00 -3.0569071921e+00 1.7649061903e+00 3.0569071921e+00 
71000 5.5723149309e+00 3.4544029532e-05 1.7649061903e+00 -3.0569071921e+00 1.7649061903e+00 3.0569071921e+00 
71100 5.5723149310e+00 3.4600664681e-05 1.7649061903e+00 -3.0569071921e+00 1.7649061903e+00 3.0569071921e+00 
71200 5.5723149312e+00 3.4655809867e-05 1.7649061903e+00 -3.0569071921e+00 1.7649061903e+00 3.0569071921e+00 
71300 5.5723149313e+00 3.4709501313e-05 1.7649061903e+00 -3.0569071921e+00 1.7649061903e+00 3.0569071921e+00 
71400 5.5723149314e+00 3.4761775992e-05 1.7649061903e+00 -3.0569071921e+00 1.7649061903e+00 3.0569071921e+00 
71500 5.5723149315e+00 3.4812671524e-05 1.7649061903e+00 -3.0569071921e+00 1.7649061903e+00 3.0569071921e+00 
71600 5.5723149316e+00 3.4862226085e-05 1.7649061903e+00 -3.0569071921e+00 1.7649061903e+00 3.0569071921e+00 
71700 5.5723149318e+00 3.4910478316e-05 1.7649061903e+00 -3.0569071921e+00 1.7649061903e+00 3.0569071921e+00 
71800 5.5723149319e+00 3.4957467226e-05 1.7649061903e+00 -3.0569071921e+00 1.7649061903e+00 3.0569071921e+00 
71900 5.5723149320e+00 3.5003232107e-05 1.7649061903e+00 -3.0569071921e+00 1.7649061903e+00 3.0569071921e+00 
72000 5.5723149321e+00 3.5047812452e-05 1.7649061903e+00 -3.0569071921e+00 1.7649061903e+00 3.0569071921e+00 
72100 5.5723149322e+00 3.5091247866e-05 1.7649061903e+00 -3.0569071921e+00 1.7649061903e+00 3.0569071921e+00 
72200 5.5723149323e+00 3.5133577993e-05 1.7649061903e+00 -3.0569071921e+00 1.7649061903e+00 3.0569071921e+00 
72300 5.5723149324e+00 3.5174842436e-05 1.7649061903e+00 -3.0569071921e+00 1.7649061903e+00 3.0569071921e+00 
72400 5.5723149325e+00 3.5215080684e-05 1.7649061903e+00 -3.0569071921e+00 1.7649061903e+00 3.0569071921e+00 
72500 5.5723149326e+00 3.5254332044e-05 1.7649061903e+00 -3.0569071921e+00 1.7649061903e+00 3.0569071921e+00 
72600 5.5723149327e+00 3.5292635576e-05 1.7649061903e+00 -3.0569071921e+00 1.7649061903e+00 3.0569071921e+00 
72700 5.5723149328e+00 3.5330030019e-05 1.7649061903e+00 -3.0569071921e+00 1.7649061903e+00 3.0569071921e+00 
72800 5.5723149329e+00 3.5366553742e-05 1.7649061903e+00 -3.0569071921e+00 1.7649061903e+00 3.0569071921e+00 
72900 5.5723149330e+00 3.5402244683e-05 1.7649061903e+00 -3.0569071921e+00 1.7649061903e+00 3.0569071921e+00 
73000 5.5723149331e+00 3.5437140289e-05 1.7649061903e+00 -3.0569071921e+00 1.7649061903e+00 3.0569071921e+00 
73100 5.5723149332e+00 3.5471277471e-05 1.7649061903e+00 -3.0569071921e+00 1.7649061903e+00 3.0569071921e+00 
73200 5.5723149333e+00 3.5504692555e-05 1.7649061903e+00 -3.0569071921e+00 1.7649061903e+00 3.0569071921e+00 
73300 5.5723149334e+00 3.5537421232e-05 1.7649061903e+00 -3.0569071921e+00 1.7649061903e+00 3.0569071921e+00 
73400 5.5723149335e+00 3.5569498527e-05 1.7649061903e+00 -3.0569071921e+00 1.7649061903e+00 3.0569071921e+00 
73500 5.5723149336e+00 3.5600958743e-05 1.7649061903e+00 -3.0569071921e+00 1.7649061903e+00 3.0569071921e+00 
73600 5.5723149337e+00 3.5631835439e-05 1.7649061903e+00 -3.0569071921e+00 1.7649061903e+00 3.0569071921e+00 
73700 5.5723149337e+00 3.5662161397e-05 1.7649061903e+00 -3.0569071921e+00 1.7649061903e+00 3.0569071921e+00 
73800 5.5723149338e+00 3.5691968577e-05 1.7649061903e+00 -3.0569071921e+00 1.7649061903e+00 3.0569071921e+00 
73900 5.5723149339e+00 3.5721288105e-05 1.7649061903e+00 -3.0569071921e+00 1.7649061903e+00 3.0569071921e+00 
74000 5.5723149340e+00 3.5750150243e-05 1.7649061903e+00 -3.0569071921e+00 1.7649061903e+00 3.0569071921e+00 
74100 5.5723149341e+00 3.5778584367e-05 1.7649061903e+00 -3.0569071921e+00 1.7649061903e+00 3.0569071921e+00 
74200 5.5723149342e+00 3.5806618948e-05 1.7649061903e+00 -3.0569071921e+00 1.7649061903e+00 3.0569071921e+00 
74300 5.5723149342e+00 3.5834281534e-05 1.7649061903e+00 -3.0569071921e+00 1.7649061903e+00 3.0569071921e+00 
74400 5.5723149343e+00 3.5861598739e-05 1.7649061903e+00 -3.0569071921e+00 1.7649061903e+00 3.0569071921e+00 
74500 5.5723149344e+00 3.5888596224e-05 1.7649061903e+00 -3.0569071921e+00 1.7649061903e+00 3.0569071921e+00 
74600 5.5723149345e+00 3.5915298699e-05 1.7649061903e+00 -3.0569071921e+00 1.7649061903e+00 3.0569071921e+00 
74700 5.5723149346e+00 3.5941729906e-05 1.7649061903e+00 -3.0569071921e+00 1.7649061903e+00 3.0569071921e+00 
74800 5.5723149346e+00 3.5967912621e-05 1.7649061903e+00 -3.0569071921e+00 1.7649061903e+00 3.0569071921e+00 
74900 5.5723149347e+00 3.5993868647e-05 1.7649061903e+00 -3.0569071921e+00 1.7649061903e+00 3.0569071921e+00 
75000 5.5723149348e+00 3.6019618816e-05 1.7649061903e+00 -3.0569071921e+00 1.7649061903e+00 3.0569071921e+00 
75100 5.5723149348e+00 3.6045182991e-05 1.7649061903e+00 -3.0569071921e+00 1.7649061903e+00 3.0569071921e+00 
75200 5.5723149349e+00 3.6070580063e-05 1.7649061903e+00 -3.0569071921e+00 1.7649061903e+00 3.0569071921e+00 
75300 5.5723149350e+00 3.6095827962e-05 1.7649061903e+00 -3.0569071921e+00 1.7649061903e+00 3.0569071921e+00 
75400 5.5723149351e+00 3.6120943668e-05 1.7649061903e+00 -3.0569071921e+00 1.7649061903e+00 3.0569071921e+00 
75500 5.5723149351e+00 3.6145943206e-05 1.7649061903e+00 -3.0569071921e+00 1.7649061903e+00 3.0569071921e+00 
75600 5.5723149352e+00 3.6170841672e-05 1.7649061903e+00 -3.0569071921e+00 1.7649061903e+00 3.0569071921e+00 
75700 5.5723149353e+00 3.6195653237e-05 1.7649061903e+00 -3.0569071921e+00 1.7649061903e+00 3.0569071921e+00 
75800 5.5723149353e+00 3.6220391151e-05 1.7649061903e+00 -3.0569071921e+00 1.7649061903e+00 3.0569071921e+00 
75900 5.5723149354e+00 3.6245067773e-05 1.7649061903e+00 -3.0569071921e+00 1.7649061903e+00 3.0569071921e+00 
76000 5.5723149354e+00 3.6269694582e-05 1.7649061903e+00 -3.0569071921e+00 1.7649061903e+00 3.0569071921e+00 
76100 5.5723149355e+00 3.6294282187e-05 1.7649061903e+00 -3.0569071921e+00 1.7649061903e+00 3.0569071921e+00 
76200 5.5723149356e+00 3.6318840350e-05 1.7649061903e+00 -3.0569071921e+00 1.7649061903e+00 3.0569071921e+00 
76300 5.5723149356e+00 3.6343378009e-05 1.7649061903e+00 -3.0569071921e+00 1.7649061903e+00 3.0569071921e+00 
76400 5.5723149357e+00 3.6367903285e-05 1.7649061903e+00 -3.0569071921e+00 1.7649061903e+00 3.0569071921e+00 
76500 5.5723149358e+00 3.6392423512e-05 1.7649061903e+00 -3.0569071921e+00 1.7649061903e+00 3.0569071921e+00 
76600 5.5723149358e+00 3.6416945263e-05 1.7649061903e+00 -3.0569071921e+00 1.7649061903e+00 3.0569071921e+00 
76700 5.5723149359e+00 3.6441474361e-05 1.7649061903e+00 -3.0569071921e+00 1.7649061903e+00 3.0569071921e+00 
76800 5.5723149359e+00 3.6466015904e-05 1.7649061903e+00 -3.0569071921e+00 1.7649061903e+00 3.0569071921e+00 
76900 5.5723149360e+00 3.6490574293e-05 1.7649061903e+00 -3.0569071921e+00 1.7649061903e+00 3.0569071921e+00 
77000 5.5723149360e+00 3.6515153252e-05 1.7649061903e+00 -3.0569071921e+00 1.7649061903e+00 3.0569071921e+00 
77100 5.5723149361e+00 3.6539755853e-05 1.7649061903e+00 -3.0569071921e+00 1.7649061903e+00 3.0569071921e+00 
77200 5.5723149361e+00 3.6564384542e-05 1.7649061903e+00 -3.0569071921e+00 1.7649061903e+00 3.0569071921e+00 
77300 5.5723149362e+00 3.6589041158e-05 1.7649061903e+00 -3.0569071921e+00 1.7649061903e+00 3.0569071921e+00 
77400 5.5723149363e+00 3.6613726963e-05 1.7649061903e+00 -3.0569071921e+00 1.7649061903e+00 3.0569071921e+00 
77500 5.5723149363e+00 3.6638442670e-05 1.7649061903e+00 -3.0569071921e+00 1.7649061903e+00 3.0569071921e+00 
77600 5.5723149364e+00 3.6663188458e-05 1.7649061903e+00 -3.0569071921e+00 1.7649061903e+00 3.0569071921e+00 
77700 5.5723149364e+00 3.6687964005e-05 1.7649061903e+00 -3.0569071921e+00 1.7649061903e+00 3.0569071921e+00 
77800 5.5723149365e+00 3.6712768509e-05 1.7649061903e+00 -3.0569071921e+00 1.7649061903e+00 3.0569071921e+00 
77900 5.5723149365e+00 3.6728658029e-05 1.7649061903e+00 -3.0569071921e+00 1.7649061903e+00 3.0569071921e+00 
77900 5.5723149365e+00 3.6728658029e-05 1.7649061903e+00 -3.0569071921e+00 1.7649061903e+00 3.0569071921e+00 
