# step Hamiltonian StressXX CellTensor1 CellTensor2 CellTensor3 CellTensor4 
0 5.4698452560e+00 2.0574818615e-01 2.8378601290e+00 -4.9153179282e+00 2.8378601290e+00 4.9153179282e+00 
100 5.4386575733e+00 2.3277540420e-01 2.8378601290e+00 -4.9153179282e+00 2.8378601290e+00 4.9153179282e+00 
200 5.4138520415e+00 2.5827793618e-01 2.8337598696e+00 -4.9082160705e+00 2.8337598696e+00 4.9082160705e+00 
300 5.3953872171e+00 2.8247617756e-01 2.8292039331e+00 -4.9003249571e+00 2.8292039331e+00 4.9003249571e+00 
400 5.3827154846e+00 3.0549286980e-01 2.8242132543e+00 -4.8916808479e+00 2.8242132543e+00 4.8916808479e+00 
500 5.3752593235e+00 3.2740882773e-01 2.8188065242e+00 -4.8823161166e+00 2.8188065242e+00 4.8823161166e+00 
600 5.3723414047e+00 3.4815492180e-01 2.8130009436e+00 -4.8722605561e+00 2.8130009436e+00 4.8722605561e+00 
700 5.3730621424e+00 3.6729575794e-01 2.8068148990e+00 -4.8615460124e+00 2.8068148990e+00 4.8615460124e+00 
800 5.3760866166e+00 3.8363066832e-01 2.8002745189e+00 -4.8502177418e+00 2.8002745189e+00 4.8502177418e+00 
900 5.3793374900e+00 3.9463214023e-01 2.7934274423e+00 -4.8383582573e+00 2.7934274423e+00 4.8383582573e+00 
1000 5.3798079959e+00 3.9629488773e-01 2.7863668436e+00 -4.8261289416e+00 2.7863668436e+00 4.8261289416e+00 
1100 5.3741923658e+00 3.8506395909e-01 2.7792585569e+00 -4.8138170279e+00 2.7792585569e+00 4.8138170279e+00 
1200 5.3608448541e+00 3.6231441339e-01 2.7723339835e+00 -4.8018233150e+00 2.7723339835e+00 4.8018233150e+00 
1300 5.3412212435e+00 3.3548112275e-01 2.7658020911e+00 -4.7905097455e+00 2.7658020911e+00 4.7905097455e+00 
1400 5.3183879612e+00 3.1179559142e-01 2.7597395054e+00 -4.7800090389e+00 2.7597395054e+00 4.7800090389e+00 
1500 5.2946994362e+00 2.9357650412e-01 2.7540924325e+00 -4.7702280218e+00 2.7540924325e+00 4.7702280218e+00 
1600 5.2712710721e+00 2.7978245801e-01 2.7487643319e+00 -4.7609994809e+00 2.7487643319e+00 4.7609994809e+00 
1700 5.2484937721e+00 2.6871517976e-01 2.7436766647e+00 -4.7521873828e+00 2.7436766647e+00 4.7521873828e+00 
1800 5.2264740408e+00 2.5911846463e-01 2.7387811333e+00 -4.7437080738e+00 2.7387811333e+00 4.7437080738e+00 
1900 5.2052271287e+00 2.5026148845e-01 2.7340519540e+00 -4.7355168949e+00 2.7340519540e+00 4.7355168949e+00 
2000 5.1847425584e+00 2.4176758078e-01 2.7294764823e+00 -4.7275919454e+00 2.7294764823e+00 4.7275919454e+00 
2100 5.1650037994e+00 2.3346022629e-01 2.7250488550e+00 -4.7199230699e+00 2.7250488550e+00 4.7199230699e+00 
2200 5.1459936453e+00 2.2526725938e-01 2.7207663819e+00 -4.7125056090e+00 2.7207663819e+00 4.7125056090e+00 
2300 5.1276953846e+00 2.1716817960e-01 2.7166276575e+00 -4.7053371280e+00 2.7166276575e+00 4.7053371280e+00 
2400 5.1100927962e+00 2.0916666880e-01 2.7126316213e+00 -4.6984157903e+00 2.7126316213e+00 4.6984157903e+00 
2500 5.0931698739e+00 2.0127663409e-01 2.7087771161e+00 -4.6917395915e+00 2.7087771161e+00 4.6917395915e+00 
2600 5.0769105496e+00 1.9351526233e-01 2.7050626991e+00 -4.6853060324e+00 2.7050626991e+00 4.6853060324e+00 
2700 5.0612984901e+00 1.8589965935e-01 2.7014865794e+00 -4.6791120115e+00 2.7014865794e+00 4.6791120115e+00 
2800 5.0463169766e+00 1.7844531192e-01 2.6980466188e+00 -4.6731538249e+00 2.6980466188e+00 4.6731538249e+00 
2900 5.0319488580e+00 1.7116547290e-01 2.6947403599e+00 -4.6674272165e+00 2.6947403599e+00 4.6674272165e+00 
3000 5.0181765609e+00 1.6407100920e-01 2.6915650667e+00 -4.6619274474e+00 2.6915650667e+00 4.6619274474e+00 
3100 5.0049821409e+00 1.5717047625e-01 2.6885177689e+00 -4.6566493727e+00 2.6885177689e+00 4.6566493727e+00 
3200 4.9923473601e+00 1.5047029657e-01 2.6855953042e+00 -4.6515875154e+00 2.6855953042e+00 4.6515875154e+00 
3300 4.9802537794e+00 1.4397497928e-01 2.6827943589e+00 -4.6467361359e+00 2.6827943589e+00 4.6467361359e+00 
3400 4.9686828574e+00 1.3768734787e-01 2.6801115041e+00 -4.6420892950e+00 2.6801115041e+00 4.6420892950e+00 
3500 4.9576160480e+00 1.3160875976e-01 2.6775432279e+00 -4.6376409101e+00 2.6775432279e+00 4.6376409101e+00 
3600 4.9470348937e+00 1.2573930993e-01 2.6750859639e+00 -4.6333848042e+00 2.6750859639e+00 4.6333848042e+00 
3700 4.9369211107e+00 1.2007801552e-01 2.6727361164e+00 -4.6293147489e+00 2.6727361164e+00 4.6293147489e+00 
3800 4.9272566644e+00 1.1462298074e-01 2.6704900813e+00 -4.6254245020e+00 2.6704900813e+00 4.6254245020e+00 
3900 4.9180238350e+00 1.0937154273e-01 2.6683442652e+00 -4.6217078394e+00 2.6683442652e+00 4.6217078394e+00 
4000 4.9092052721e+00 1.0432039985e-01 2.6662951006e+00 -4.6181585822e+00 2.6662951006e+00 4.6181585822e+00 
4100 4.9007840401e+00 9.9465723772e-02 2.6643390599e+00 -4.6147706204e+00 2.6643390599e+00 4.6147706204e+00 
4200 4.8927436540e+00 9.4803257211e-02 2.6624726664e+00 -4.6115379320e+00 2.6624726664e+00 4.6115379320e+00 
4300 4.8850681062e+00 9.0328398876e-02 2.6606925038e+00 -4.6084546000e+00 2.6606925038e+00 4.6084546000e+00 
4400 4.8777418868e+00 8.6036277118e-02 2.6589952241e+00 -4.6055148253e+00 2.6589952241e+00 4.6055148253e+00 
4500 4.8707499964e+00 8.1921813676e-02 2.6573775539e+00 -4.6027129383e+00 2.6573775539e+00 4.6027129383e+00 
4600 4.8640779534e+00 7.7979778765e-02 2.6558362997e+00 -4.6000434076e+00 2.6558362997e+00 4.6000434076e+00 
4700 4.8577117966e+00 7.4204838583e-02 2.6543683517e+00 -4.5975008471e+00 2.6543683517e+00 4.5975008471e+00 
4800 4.8516380836e+00 7.0591596218e-02 2.6529706873e+00 -4.5950800214e+00 2.6529706873e+00 4.5950800214e+00 
4900 4.8458438859e+00 6.7134626783e-02 2.6516403731e+00 -4.5927758495e+00 2.6516403731e+00 4.5927758495e+00 
5000 4.8403167807e+00 6.3828507522e-02 2.6503745664e+00 -4.5905834080e+00 2.6503745664e+00 4.5905834080e+00 
5100 4.8350448417e+00 6.0667843536e-02 2.6491705163e+00 -4.5884979322e+00 2.6491705163e+00 4.5884979322e+00 
5200 4.8300166268e+00 5.7647289662e-02 2.6480255641e+00 -4.5865148168e+00 2.6480255641e+00 4.5865148168e+00 
5300 4.8252211654e+00 5.4761569012e-02 2.6469371430e+00 -4.5846296162e+00 2.6469371430e+00 4.5846296162e+00 
5400 4.8206479445e+00 5.2005488578e-02 2.6459027777e+00 -4.5828380428e+00 2.6459027777e+00 4.5828380428e+00 
5500 4.8162868940e+00 4.9373952278e-02 2.6449200835e+00 -4.5811359665e+00 2.6449200835e+00 4.5811359665e+00 
5600 4.8121283722e+00 4.6861971744e-02 2.6439867651e+00 -4.5795194118e+00 2.6439867651e+00 4.5795194118e+00 
5700 4.8081631498e+00 4.4464675159e-02 2.6431006156e+00 -4.5779845557e+00 2.6431006156e+00 4.5779845557e+00 
5800 4.8043823957e+00 4.2177314352e-02 2.6422595141e+00 -4.5765277253e+00 2.6422595141e+00 4.5765277253e+00 
5900 4.8007776611e+00 3.9995270391e-02 2.6414614247e+00 -4.5751453937e+00 2.6414614247e+00 4.5751453937e+00 
6000 4.7973408650e+00 3.7914057846e-02 2.6407043937e+00 -4.5738341777e+00 2.6407043937e+00 4.5738341777e+00 
6100 4.7940642799e+00 3.5929327887e-02 2.6399865485e+00 -4.5725908334e+00 2.6399865485e+00 4.5725908334e+00 
6200 4.7909405167e+00 3.4036870370e-02 2.6393060946e+00 -4.5714122526e+00 2.6393060946e+00 4.5714122526e+00 
6300 4.7879625117e+00 3.2232615024e-02 2.6386613137e+00 -4.5702954593e+00 2.6386613137e+00 4.5702954593e+00 
6400 4.7851235131e+00 3.0512631873e-02 2.6380505614e+00 -4.5692376052e+00 2.6380505614e+00 4.5692376052e+00 
6500 4.7824170675e+00 2.8873130969e-02 2.6374722647e+00 -4.5682359660e+00 2.6374722647e+00 4.5682359660e+00 
6600 4.7798370081e+00 2.7310461544e-02 2.6369249199e+00 -4.5672879371e+00 2.6369249199e+00 4.5672879371e+00 
6700 4.7773774422e+00 2.5821110650e-02 2.6364070901e+00 -4.5663910295e+00 2.6364070901e+00 4.5663910295e+00 
6800 4.7750327400e+00 2.4401701366e-02 2.6359174026e+00 -4.5655428659e+00 2.6359174026e+00 4.5655428659e+00 
6900 4.7727975234e+00 2.3048990620e-02 2.6354545470e+00 -4.5647411764e+00 2.6354545470e+00 4.5647411764e+00 
7000 4.7706666552e+00 2.1759866702e-02 2.6350172722e+00 -4.5639837943e+00 2.6350172722e+00 4.5639837943e+00 
7100 4.7686352294e+00 2.0531346501e-02 2.6346043850e+00 -4.5632686527e+00 2.6346043850e+00 4.5632686527e+00 
7200 4.7666985609e+00 1.9360572518e-02 2.6342147470e+00 -4.5625937799e+00 2.6342147470e+00 4.5625937799e+00 
7300 4.7648521763e+00 1.8244809702e-02 2.6338472728e+00 -4.5619572958e+00 2.6338472728e+00 4.5619572958e+00 
7400 4.7630918054e+00 1.7181442128e-02 2.6335009275e+00 -4.5613574082e+00 2.6335009275e+00 4.5613574082e+00 
7500 4.7614133720e+00 1.6167969565e-02 2.6331747251e+00 -4.5607924091e+00 2.6331747251e+00 4.5607924091e+00 
7600 4.7598129859e+00 1.5202003954e-02 2.6328677258e+00 -4.5602606707e+00 2.6328677258e+00 4.5602606707e+00 
7700 4.7582869351e+00 1.4281265823e-02 2.6325790344e+00 -4.5597606425e+00 2.6325790344e+00 4.5597606425e+00 
7800 4.7568316782e+00 1.3403580664e-02 2.6323077981e+00 -4.5592908474e+00 2.6323077981e+00 4.5592908474e+00 
7900 4.7554438370e+00 1.2566875290e-02 2.6320532047e+00 -4.5588498787e+00 2.6320532047e+00 4.5588498787e+00 
8000 4.7541201900e+00 1.1769174189e-02 2.6318144807e+00 -4.5584363966e+00 2.6318144807e+00 4.5584363966e+00 
8100 4.7528576650e+00 1.1008595890e-02 2.6315908895e+00 -4.5580491254e+00 2.6315908895e+00 4.5580491254e+00 
8200 4.7516533334e+00 1.0283349365e-02 2.6313817299e+00 -4.5576868503e+00 2.6313817299e+00 4.5576868503e+00 
8300 4.7505044037e+00 9.5917304625e-03 2.6311863341e+00 -4.5573484148e+00 2.6311863341e+00 4.5573484148e+00 
8400 4.7494082153e+00 8.9321183911e-03 2.6310040661e+00 -4.5570327174e+00 2.6310040661e+00 4.5570327174e+00 
8500 4.7483622337e+00 8.3029722703e-03 2.6308343206e+00 -4.5567387096e+00 2.6308343206e+00 4.5567387096e+00 
8600 4.7473640441e+00 7.7028277419e-03 2.6306765210e+00 -4.5564653927e+00 2.6306765210e+00 4.5564653927e+00 
8700 4.7464113467e+00 7.1302936576e-03 2.6305301185e+00 -4.5562118160e+00 2.6305301185e+00 4.5562118160e+00 
8800 4.7455019515e+00 6.5840488468e-03 2.6303945900e+00 -4.5559770739e+00 2.6303945900e+00 4.5559770739e+00 
8900 4.7446337734e+00 6.0628389676e-03 2.6302694378e+00 -4.5557603038e+00 2.6302694378e+00 4.5557603038e+00 
9000 4.7438048277e+00 5.5654734465e-03 2.6301541873e+00 -4.5555606842e+00 2.6301541873e+00 4.5555606842e+00 
9100 4.7430132255e+00 5.0908225089e-03 2.6300483868e+00 -4.5553774322e+00 2.6300483868e+00 4.5553774322e+00 
9200 4.7422571693e+00 4.6378143027e-03 2.6299516054e+00 -4.5552098021e+00 2.6299516054e+00 4.5552098021e+00 
9300 4.7415349492e+00 4.2054321167e-03 2.6298634329e+00 -4.5550570828e+00 2.6298634329e+00 4.5550570828e+00 
9400 4.7408449386e+00 3.7927116948e-03 2.6297834780e+00 -4.5549185968e+00 2.6297834780e+00 4.5549185968e+00 
9500 4.7401855902e+00 3.3987386467e-03 2.6297113676e+00 -4.5547936979e+00 2.6297113676e+00 4.5547936979e+00 
9600 4.7395554332e+00 3.0226459546e-03 2.6296467460e+00 -4.5546817700e+00 2.6296467460e+00 4.5546817700e+00 
9700 4.7389530686e+00 2.6636115762e-03 2.6295892737e+00 -4.5545822251e+00 2.6295892737e+00 4.5545822251e+00 
9800 4.7383771667e+00 2.3208561423e-03 2.6295386270e+00 -4.5544945024e+00 2.6295386270e+00 4.5544945024e+00 
9900 4.7378264635e+00 1.9936407496e-03 2.6294944966e+00 -4.5544180663e+00 2.6294944966e+00 4.5544180663e+00 
10000 4.7372997576e+00 1.6812648447e-03 2.6294565875e+00 -4.5543524058e+00 2.6294565875e+00 4.5543524058e+00 
10100 4.7367959073e+00 1.3830642008e-03 2.6294246177e+00 -4.5542970326e+00 2.6294246177e+00 4.5542970326e+00 
10200 4.7363138276e+00 1.0984089827e-03 2.6293983180e+00 -4.5542514802e+00 2.6293983180e+00 4.5542514802e+00 
10300 4.7358524876e+00 8.2670189979e-04 2.6293774310e+00 -4.5542153027e+00 2.6293774310e+00 4.5542153027e+00 
10400 4.7354109077e+00 5.6737644353e-04 2.6293617105e+00 -4.5541880741e+00 2.6293617105e+00 4.5541880741e+00 
10500 4.7349881574e+00 3.1989520875e-04 2.6293509213e+00 -4.5541693866e+00 2.6293509213e+00 4.5541693866e+00 
10600 4.7345833524e+00 8.3748294835e-05 2.6293448381e+00 -4.5541588503e+00 2.6293448381e+00 4.5541588503e+00 
10700 4.7341956529e+00 -1.4154821470e-04 2.6293432456e+00 -4.5541560918e+00 2.6293432456e+00 4.5541560918e+00 
10800 4.7338242609e+00 -3.5645369712e-04 2.6293459373e+00 -4.5541607540e+00 2.6293459373e+00 4.5541607540e+00 
10900 4.7334684182e+00 -5.6140436230e-04 2.6293527156e+00 -4.5541724945e+00 2.6293527156e+00 4.5541724945e+00 
11000 4.7331274048e+00 -7.5681455414e-04 2.6293633914e+00 -4.5541909854e+00 2.6293633914e+00 4.5541909854e+00 
11100 4.7328005364e+00 -9.4307798412e-04 2.6293777830e+00 -4.5542159124e+00 2.6293777830e+00 4.5542159124e+00 
11200 4.7324871628e+00 -1.1205688996e-03 2.6293957165e+00 -4.5542469741e+00 2.6293957165e+00 4.5542469741e+00 
11300 4.7321866666e+00 -1.2896431896e-03 2.6294170250e+00 -4.5542838816e+00 2.6294170250e+00 4.5542838816e+00 
11400 4.7318984606e+00 -1.4506394302e-03 2.6294415484e+00 -4.5543263573e+00 2.6294415484e+00 4.5543263573e+00 
11500 4.7316219872e+00 -1.6038798725e-03 2.6294691330e+00 -4.5543741353e+00 2.6294691330e+00 4.5543741353e+00 
11600 4.7313567164e+00 -1.7496713760e-03 2.6294996312e+00 -4.5544269597e+00 2.6294996312e+00 4.5544269597e+00 
11700 4.7311021442e+00 -1.8883062884e-03 2.6295329013e+00 -4.5544845853e+00 2.6295329013e+00 4.5544845853e+00 
11800 4.7308577918e+00 -2.0200632763e-03 2.6295688071e+00 -4.5545467760e+00 2.6295688071e+00 4.5545467760e+00 
11900 4.7306232037e+00 -2.1452081074e-03 2.6296072178e+00 -4.5546133051e+00 2.6296072178e+00 4.5546133051e+00 
12000 4.7303979471e+00 -2.2639943872e-03 2.6296480074e+00 -4.5546839548e+00 2.6296480074e+00 4.5546839548e+00 
12100 4.7301816101e+00 -2.3766642526e-03 2.6296910550e+00 -4.5547585155e+00 2.6296910550e+00 4.5547585155e+00 
12200 4.7299738011e+00 -2.4834490245e-03 2.6297362442e+00 -4.5548367854e+00 2.6297362442e+00 4.5548367854e+00 
12300 4.7297741475e+00 -2.5845698208e-03 2.6297834629e+00 -4.5549185707e+00 2.6297834629e+00 4.5549185707e+00 
12400 4.7295822945e+00 -2.6802381327e-03 2.6298326034e+00 -4.5550036845e+00 2.6298326034e+00 4.5550036845e+00 
12500 4.7293979049e+00 -2.7706563664e-03 2.6298835619e+00 -4.5550919472e+00 2.6298835619e+00 4.5550919472e+00 
12600 4.7292206574e+00 -2.8560183506e-03 2.6299362385e+00 -4.5551831858e+00 2.6299362385e+00 4.5551831858e+00 
12700 4.7290502461e+00 -2.9365098136e-03 2.6299905369e+00 -4.5552772334e+00 2.6299905369e+00 4.5552772334e+00 
12800 4.7288863797e+00 -3.0123088303e-03 2.6300463645e+00 -4.5553739296e+00 2.6300463645e+00 4.5553739296e+00 
12900 4.7287287807e+00 -3.0835862411e-03 2.6301036319e+00 -4.5554731197e+00 2.6301036319e+00 4.5554731197e+00 
13000 4.7285771848e+00 -3.1505060449e-03 2.6301622532e+00 -4.5555746546e+00 2.6301622532e+00 4.5555746546e+00 
13100 4.7284313400e+00 -3.2132257671e-03 2.6302221452e+00 -4.5556783908e+00 2.6302221452e+00 4.5556783908e+00 
13200 4.7282910061e+00 -3.2718968042e-03 2.6302832283e+00 -4.5557841897e+00 2.6302832283e+00 4.5557841897e+00 
13300 4.7281559541e+00 -3.3266647463e-03 2.6303454252e+00 -4.5558919179e+00 2.6303454252e+00 4.5558919179e+00 
13400 4.7280259655e+00 -3.3776696791e-03 2.6304086617e+00 -4.5560014467e+00 2.6304086617e+00 4.5560014467e+00 
13500 4.7279008319e+00 -3.4250464670e-03 2.6304728662e+00 -4.5561126523e+00 2.6304728662e+00 4.5561126523e+00 
13600 4.7277803544e+00 -3.4689250169e-03 2.6305379698e+00 -4.5562254148e+00 2.6305379698e+00 4.5562254148e+00 
13700 4.7276643433e+00 -3.5094305265e-03 2.6306039057e+00 -4.5563396192e+00 2.6306039057e+00 4.5563396192e+00 
13800 4.7275526172e+00 -3.5466837150e-03 2.6306706099e+00 -4.5564551543e+00 2.6306706099e+00 4.5564551543e+00 
13900 4.7274450031e+00 -3.5808010404e-03 2.6307380204e+00 -4.5565719127e+00 2.6307380204e+00 4.5565719127e+00 
14000 4.7273413357e+00 -3.6118949019e-03 2.6308060777e+00 -4.5566897914e+00 2.6308060777e+00 4.5566897914e+00 
14100 4.7272414568e+00 -3.6400738296e-03 2.6308747241e+00 -4.5568086905e+00 2.6308747241e+00 4.5568086905e+00 
14200 4.7271452156e+00 -3.6654426621e-03 2.6309439043e+00 -4.5569285142e+00 2.6309439043e+00 4.5569285142e+00 
14300 4.7270524675e+00 -3.6881027126e-03 2.6310135649e+00 -4.5570491698e+00 2.6310135649e+00 4.5570491698e+00 
14400 4.7269630745e+00 -3.7081519247e-03 2.6310836542e+00 -4.5571705680e+00 2.6310836542e+00 4.5571705680e+00 
14500 4.7268769047e+00 -3.7256850177e-03 2.6311541227e+00 -4.5572926230e+00 2.6311541227e+00 4.5572926230e+00 
14600 4.7267938314e+00 -3.7407936240e-03 2.6312249224e+00 -4.5574152518e+00 2.6312249224e+00 4.5574152518e+00 
14700 4.7267137339e+00 -3.7535664163e-03 2.6312960074e+00 -4.5575383745e+00 2.6312960074e+00 4.5575383745e+00 
14800 4.7266364964e+00 -3.7640892285e-03 2.6313673331e+00 -4.5576619144e+00 2.6313673331e+00 4.5576619144e+00 
14900 4.7265620079e+00 -3.7724451680e-03 2.6314388569e+00 -4.5577857972e+00 2.6314388569e+00 4.5577857972e+00 
15000 4.7264901624e+00 -3.7787147221e-03 2.6315105375e+00 -4.5579099516e+00 2.6315105375e+00 4.5579099516e+00 
15100 4.7264208580e+00 -3.7829758571e-03 2.6315823353e+00 -4.5580343090e+00 2.6315823353e+00 4.5580343090e+00 
15200 4.7263539975e+00 -3.7853041128e-03 2.6316542121e+00 -4.5581588032e+00 2.6316542121e+00 4.5581588032e+00 
15300 4.7262894872e+00 -3.7857726899e-03 2.6317261311e+00 -4.5582833707e+00 2.6317261311e+00 4.5582833707e+00 
15400 4.7262272378e+00 -3.7844525340e-03 2.6317980571e+00 -4.5584079501e+00 2.6317980571e+00 4.5584079501e+00 
15500 4.7261671634e+00 -3.7814124138e-03 2.6318699560e+00 -4.5585324828e+00 2.6318699560e+00 4.5585324828e+00 
15600 4.7261091816e+00 -3.7767189955e-03 2.6319417953e+00 -4.5586569119e+00 2.6319417953e+00 4.5586569119e+00 
15700 4.7260532136e+00 -3.7704369128e-03 2.6320135433e+00 -4.5587811833e+00 2.6320135433e+00 4.5587811833e+00 
15800 4.7259991834e+00 -3.7626288339e-03 2.6320851701e+00 -4.5589052445e+00 2.6320851701e+00 4.5589052445e+00 
15900 4.7259470185e+00 -3.7533555240e-03 2.6321566467e+00 -4.5590290455e+00 2.6321566467e+00 4.5590290455e+00 
16000 4.7258966491e+00 -3.7426759058e-03 2.6322279451e+00 -4.5591525380e+00 2.6322279451e+00 4.5591525380e+00 
16100 4.7258480081e+00 -3.7306471160e-03 2.6322990387e+00 -4.5592756758e+00 2.6322990387e+00 4.5592756758e+00 
16200 4.7258010314e+00 -3.7173245601e-03 2.6323699019e+00 -4.5593984145e+00 2.6323699019e+00 4.5593984145e+00 
16300 4.7257556572e+00 -3.7027619637e-03 2.6324405102e+00 -4.5595207116e+00 2.6324405102e+00 4.5595207116e+00 
16400 4.7257118261e+00 -3.6870114222e-03 2.6325108400e+00 -4.5596425263e+00 2.6325108400e+00 4.5596425263e+00 
16500 4.7256694813e+00 -3.6701234482e-03 2.6325808687e+00 -4.5597638196e+00 2.6325808687e+00 4.5597638196e+00 
16600 4.7256285680e+00 -3.6521470165e-03 2.6326505748e+00 -4.5598845541e+00 2.6326505748e+00 4.5598845541e+00 
16700 4.7255890338e+00 -3.6331296079e-03 2.6327199377e+00 -4.5600046941e+00 2.6327199377e+00 4.5600046941e+00 
16800 4.7255508280e+00 -3.6131172507e-03 2.6327889375e+00 -4.5601242054e+00 2.6327889375e+00 4.5601242054e+00 
16900 4.7255139021e+00 -3.5921545614e-03 2.6328575555e+00 -4.5602430552e+00 2.6328575555e+00 4.5602430552e+00 
17000 4.7254782095e+00 -3.5702847824e-03 2.6329257736e+00 -4.5603612124e+00 2.6329257736e+00 4.5603612124e+00 
17100 4.7254437054e+00 -3.5475498206e-03 2.6329935746e+00 -4.5604786472e+00 2.6329935746e+00 4.5604786472e+00 
17200 4.7254103466e+00 -3.5239902824e-03 2.6330609421e+00 -4.5605953311e+00 2.6330609421e+00 4.5605953311e+00 
17300 4.7253780917e+00 -3.4996455093e-03 2.6331278605e+00 -4.5607112372e+00 2.6331278605e+00 4.5607112372e+00 
17400 4.7253469008e+00 -3.4745536113e-03 2.6331943149e+00 -4.5608263397e+00 2.6331943149e+00 4.5608263397e+00 
17500 4.7253167356e+00 -3.4487514996e-03 2.6332602912e+00 -4.5609406140e+00 2.6332602912e+00 4.5609406140e+00 
17600 4.7252875592e+00 -3.4222749188e-03 2.6333257759e+00 -4.5610540368e+00 2.6333257759e+00 4.5610540368e+00 
17700 4.7252593362e+00 -3.3951584771e-03 2.6333907563e+00 -4.5611665861e+00 2.6333907563e+00 4.5611665861e+00 
17800 4.7252320325e+00 -3.3674356769e-03 2.6334552202e+00 -4.5612782408e+00 2.6334552202e+00 4.5612782408e+00 
17900 4.7252056152e+00 -3.3391389437e-03 2.6335191561e+00 -4.5613889811e+00 2.6335191561e+00 4.5613889811e+00 
18000 4.7251800528e+00 -3.3102996542e-03 2.6335825533e+00 -4.5614987882e+00 2.6335825533e+00 4.5614987882e+00 
18100 4.7251553149e+00 -3.2809481646e-03 2.6336454014e+00 -4.5616076443e+00 2.6336454014e+00 4.5616076443e+00 
18200 4.7251313723e+00 -3.2511138374e-03 2.6337076907e+00 -4.5617155326e+00 2.6337076907e+00 4.5617155326e+00 
18300 4.7251081968e+00 -3.2208250673e-03 2.6337694122e+00 -4.5618224374e+00 2.6337694122e+00 4.5618224374e+00 
18400 4.7250857614e+00 -3.1901093075e-03 2.6338305572e+00 -4.5619283437e+00 2.6338305572e+00 4.5619283437e+00 
18500 4.7250640400e+00 -3.1589930944e-03 2.6338911177e+00 -4.5620332375e+00 2.6338911177e+00 4.5620332375e+00 
18600 4.7250430075e+00 -3.1275020725e-03 2.6339510861e+00 -4.5621371058e+00 2.6339510861e+00 4.5621371058e+00 
18700 4.7250226399e+00 -3.0956610178e-03 2.6340104554e+00 -4.5622399364e+00 2.6340104554e+00 4.5622399364e+00 
18800 4.7250029137e+00 -3.0634938619e-03 2.6340692189e+00 -4.5623417177e+00 2.6340692189e+00 4.5623417177e+00 
18900 4.7249838068e+00 -3.0310237144e-03 2.6341273704e+00 -4.5624424392e+00 2.6341273704e+00 4.5624424392e+00 
19000 4.7249652975e+00 -2.9982728857e-03 2.6341849044e+00 -4.5625420909e+00 2.6341849044e+00 4.5625420909e+00 
19100 4.7249473651e+00 -2.9652629085e-03 2.6342418154e+00 -4.5626406637e+00 2.6342418154e+00 4.5626406637e+00 
19200 4.7249299896e+00 -2.9320145597e-03 2.6342980986e+00 -4.5627381491e+00 2.6342980986e+00 4.5627381491e+00 
19300 4.7249131519e+00 -2.8985478811e-03 2.6343537496e+00 -4.5628345394e+00 2.6343537496e+00 4.5628345394e+00 
19400 4.7248968333e+00 -2.8648821998e-03 2.6344087642e+00 -4.5629298275e+00 2.6344087642e+00 4.5629298275e+00 
19500 4.7248810160e+00 -2.8310361487e-03 2.6344631387e+00 -4.5630240069e+00 2.6344631387e+00 4.5630240069e+00 
19600 4.7248656829e+00 -2.7970276859e-03 2.6345168697e+00 -4.5631170717e+00 2.6345168697e+00 4.5631170717e+00 
19700 4.7248508174e+00 -2.7628741139e-03 2.6345699541e+00 -4.5632090166e+00 2.6345699541e+00 4.5632090166e+00 
19800 4.7248364036e+00 -2.7285920984e-03 2.6346223893e+00 -4.5632998370e+00 2.6346223893e+00 4.5632998370e+00 
19900 4.7248224261e+00 -2.6941976869e-03 2.6346741728e+00 -4.5633895287e+00 2.6346741728e+00 4.5633895287e+00 
20000 4.7248088701e+00 -2.6597063264e-03 2.6347253026e+00 -4.5634780881e+00 2.6347253026e+00 4.5634780881e+00 
20100 4.7247957214e+00 -2.6251328811e-03 2.6347757768e+00 -4.5635655120e+00 2.6347757768e+00 4.5635655120e+00 
20200 4.7247829662e+00 -2.5904916498e-03 2.6348255940e+00 -4.5636517979e+00 2.6348255940e+00 4.5636517979e+00 
20300 4.7247705913e+00 -2.5557963823e-03 2.6348747529e+00 -4.5637369435e+00 2.6348747529e+00 4.5637369435e+00 
20400 4.7247585840e+00 -2.5210602963e-03 2.6349232524e+00 -4.5638209472e+00 2.6349232524e+00 4.5638209472e+00 
20500 4.7247469320e+00 -2.4862960930e-03 2.6349710919e+00 -4.5639038076e+00 2.6349710919e+00 4.5639038076e+00 
20600 4.7247356234e+00 -2.4515159730e-03 2.6350182708e+00 -4.5639855240e+00 2.6350182708e+00 4.5639855240e+00 
20700 4.7247246468e+00 -2.4167316518e-03 2.6350647890e+00 -4.5640660958e+00 2.6350647890e+00 4.5640660958e+00 
20800 4.7247139913e+00 -2.3819543743e-03 2.6351106463e+00 -4.5641455229e+00 2.6351106463e+00 4.5641455229e+00 
20900 4.7247036461e+00 -2.3471949297e-03 2.6351558429e+00 -4.5642238057e+00 2.6351558429e+00 4.5642238057e+00 
21000 4.7246936012e+00 -2.3124636657e-03 2.6352003792e+00 -4.5643009449e+00 2.6352003792e+00 4.5643009449e+00 
21100 4.7246838466e+00 -2.2777705024e-03 2.6352442557e+00 -4.5643769413e+00 2.6352442557e+00 4.5643769413e+00 
21200 4.7246743728e+00 -2.2431249458e-03 2.6352874733e+00 -4.5644517963e+00 2.6352874733e+00 4.5644517963e+00 
21300 4.7246651708e+00 -2.2085361009e-03 2.6353300328e+00 -4.5645255115e+00 2.6353300328e+00 4.5645255115e+00 
21400 4.7246562315e+00 -2.1740126848e-03 2.6353719354e+00 -4.5645980889e+00 2.6353719354e+00 4.5645980889e+00 
21500 4.7246475466e+00 -2.1395630393e-03 2.6354131823e+00 -4.5646695306e+00 2.6354131823e+00 4.5646695306e+00 
21600 4.7246391078e+00 -2.1051951427e-03 2.6354537749e+00 -4.5647398392e+00 2.6354537749e+00 4.5647398392e+00 
21700 4.7246309072e+00 -2.0709166221e-03 2.6354937149e+00 -4.5648090173e+00 2.6354937149e+00 4.5648090173e+00 
21800 4.7246229371e+00 -2.0367347650e-03 2.6355330040e+00 -4.5648770679e+00 2.6355330040e+00 4.5648770679e+00 
21900 4.7246151901e+00 -2.0026565303e-03 2.6355716440e+00 -4.5649439944e+00 2.6355716440e+00 4.5649439944e+00 
22000 4.7246076593e+00 -1.9686885595e-03 2.6356096369e+00 -4.5650098001e+00 2.6356096369e+00 4.5650098001e+00 
22100 4.7246003376e+00 -1.9348371874e-03 2.6356469849e+00 -4.5650744886e+00 2.6356469849e+00 4.5650744886e+00 
22200 4.7245932184e+00 -1.9011084522e-03 2.6356836901e+00 -4.5651380640e+00 2.6356836901e+00 4.5651380640e+00 
22300 4.7245862955e+00 -1.8675081061e-03 2.6357197550e+00 -4.5652005302e+00 2.6357197550e+00 4.5652005302e+00 
22400 4.7245795625e+00 -1.8340416246e-03 2.6357551820e+00 -4.5652618916e+00 2.6357551820e+00 4.5652618916e+00 
22500 4.7245730136e+00 -1.8007142165e-03 2.6357899737e+00 -4.5653221525e+00 2.6357899737e+00 4.5653221525e+00 
22600 4.7245666429e+00 -1.7675308327e-03 2.6358241326e+00 -4.5653813176e+00 2.6358241326e+00 4.5653813176e+00 
22700 4.7245604450e+00 -1.7344961756e-03 2.6358576617e+00 -4.5654393916e+00 2.6358576617e+00 4.5654393916e+00 
22800 4.7245544146e+00 -1.7016147077e-03 2.6358905637e+00 -4.5654963795e+00 2.6358905637e+00 4.5654963795e+00 
22900 4.7245485463e+00 -1.6688906598e-03 2.6359228416e+00 -4.5655522864e+00 2.6359228416e+00 4.5655522864e+00 
23000 4.7245428352e+00 -1.6363280399e-03 2.6359544983e+00 -4.5656071175e+00 2.6359544983e+00 4.5656071175e+00 
23100 4.7245372766e+00 -1.6039306404e-03 2.6359855370e+00 -4.5656608781e+00 2.6359855370e+00 4.5656608781e+00 
23200 4.7245318657e+00 -1.5717020463e-03 2.6360159608e+00 -4.5657135736e+00 2.6360159608e+00 4.5657135736e+00 
23300 4.7245265980e+00 -1.5396456427e-03 2.6360457729e+00 -4.5657652098e+00 2.6360457729e+00 4.5657652098e+00 
23400 4.7245214693e+00 -1.5077646220e-03 2.6360749767e+00 -4.5658157922e+00 2.6360749767e+00 4.5658157922e+00 
23500 4.7245164752e+00 -1.4760619907e-03 2.6361035754e+00 -4.5658653266e+00 2.6361035754e+00 4.5658653266e+00 
23600 4.7245116117e+00 -1.4445405767e-03 2.6361315725e+00 -4.5659138190e+00 2.6361315725e+00 4.5659138190e+00 
23700 4.7245068750e+00 -1.4132030356e-03 2.6361589714e+00 -4.5659612753e+00 2.6361589714e+00 4.5659612753e+00 
23800 4.7245022612e+00 -1.3820518572e-03 2.6361857757e+00 -4.5660077016e+00 2.6361857757e+00 4.5660077016e+00 
23900 4.7244977667e+00 -1.3510893715e-03 2.6362119888e+00 -4.5660531041e+00 2.6362119888e+00 4.5660531041e+00 
24000 4.7244933878e+00 -1.3203177550e-03 2.6362376144e+00 -4.5660974890e+00 2.6362376144e+00 4.5660974890e+00 
24100 4.7244891213e+00 -1.2897390365e-03 2.6362626562e+00 -4.5661408626e+00 2.6362626562e+00 4.5661408626e+00 
24200 4.7244849638e+00 -1.2593551024e-03 2.6362871177e+00 -4.5661832312e+00 2.6362871177e+00 4.5661832312e+00 
24300 4.7244809120e+00 -1.2291677024e-03 2.6363110028e+00 -4.5662246013e+00 2.6363110028e+00 4.5662246013e+00 
24400 4.7244769629e+00 -1.1991784546e-03 2.6363343151e+00 -4.5662649794e+00 2.6363343151e+00 4.5662649794e+00 
24500 4.7244731135e+00 -1.1693888506e-03 2.6363570584e+00 -4.5663043720e+00 2.6363570584e+00 4.5663043720e+00 
24600 4.7244693609e+00 -1.1398002607e-03 2.6363792365e+00 -4.5663427857e+00 2.6363792365e+00 4.5663427857e+00 
24700 4.7244657023e+00 -1.1104139380e-03 2.6364008533e+00 -4.5663802271e+00 2.6364008533e+00 4.5663802271e+00 
24800 4.7244621349e+00 -1.0812310238e-03 2.6364219126e+00 -4.5664167029e+00 2.6364219126e+00 4.5664167029e+00 
24900 4.7244586562e+00 -1.0522525512e-03 2.6364424183e+00 -4.5664522198e+00 2.6364424183e+00 4.5664522198e+00 
25000 4.7244552637e+00 -1.0234794499e-03 2.6364623743e+00 -4.5664867845e+00 2.6364623743e+00 4.5664867845e+00 
25100 4.7244519548e+00 -9.9491255011e-04 2.6364817844e+00 -4.5665204038e+00 2.6364817844e+00 4.5665204038e+00 
25200 4.7244487271e+00 -9.6655258674e-04 2.6365006526e+00 -4.5665530845e+00 2.6365006526e+00 4.5665530845e+00 
25300 4.7244455785e+00 -9.3840020293e-04 2.6365189828e+00 -4.5665848334e+00 2.6365189828e+00 4.5665848334e+00 
25400 4.7244425065e+00 -9.1045595395e-04 2.6365367790e+00 -4.5666156573e+00 2.6365367790e+00 4.5666156573e+00 
25500 4.7244395092e+00 -8.8272031073e-04 2.6365540452e+00 -4.5666455632e+00 2.6365540452e+00 4.5666455632e+00 
25600 4.7244365844e+00 -8.5519366330e-04 2.6365707852e+00 -4.5666745578e+00 2.6365707852e+00 4.5666745578e+00 
25700 4.7244337300e+00 -8.2787632413e-04 2.6365870032e+00 -4.5667026481e+00 2.6365870032e+00 4.5667026481e+00 
25800 4.7244309442e+00 -8.0076853128e-04 2.6366027030e+00 -4.5667298409e+00 2.6366027030e+00 4.5667298409e+00 
25900 4.7244282249e+00 -7.7387045157e-04 2.6366178886e+00 -4.5667561432e+00 2.6366178886e+00 4.5667561432e+00 
26000 4.7244255704e+00 -7.4718218347e-04 2.6366325640e+00 -4.5667815618e+00 2.6366325640e+00 4.5667815618e+00 
26100 4.7244229789e+00 -7.2070376004e-04 2.6366467333e+00 -4.5668061037e+00 2.6366467333e+00 4.5668061037e+00 
26200 4.7244204486e+00 -6.9443515164e-04 2.6366604004e+00 -4.5668297758e+00 2.6366604004e+00 4.5668297758e+00 
26300 4.7244179779e+00 -6.6837626860e-04 2.6366735692e+00 -4.5668525849e+00 2.6366735692e+00 4.5668525849e+00 
26400 4.7244155652e+00 -6.4252696383e-04 2.6366862438e+00 -4.5668745380e+00 2.6366862438e+00 4.5668745380e+00 
26500 4.7244132088e+00 -6.1688703520e-04 2.6366984282e+00 -4.5668956419e+00 2.6366984282e+00 4.5668956419e+00 
26600 4.7244109072e+00 -5.9145622801e-04 2.6367101263e+00 -4.5669159036e+00 2.6367101263e+00 4.5669159036e+00 
26700 4.7244086590e+00 -5.6623423721e-04 2.6367213421e+00 -4.5669353300e+00 2.6367213421e+00 4.5669353300e+00 
26800 4.7244064628e+00 -5.4122070963e-04 2.6367320796e+00 -4.5669539278e+00 2.6367320796e+00 4.5669539278e+00 
26900 4.7244043170e+00 -5.1641524610e-04 2.6367423427e+00 -4.5669717040e+00 2.6367423427e+00 4.5669717040e+00 
27000 4.7244022205e+00 -4.9181740349e-04 2.6367521354e+00 -4.5669886655e+00 2.6367521354e+00 4.5669886655e+00 
27100 4.7244001718e+00 -4.6742669666e-04 2.6367614616e+00 -4.5670048189e+00 2.6367614616e+00 4.5670048189e+00 
27200 4.7243981697e+00 -4.4324260035e-04 2.6367703253e+00 -4.5670201712e+00 2.6367703253e+00 4.5670201712e+00 
27300 4.7243962130e+00 -4.1926455102e-04 2.6367787303e+00 -4.5670347292e+00 2.6367787303e+00 4.5670347292e+00 
27400 4.7243943004e+00 -3.9549194855e-04 2.6367866806e+00 -4.5670484995e+00 2.6367866806e+00 4.5670484995e+00 
27500 4.7243924308e+00 -3.7192415800e-04 2.6367941801e+00 -4.5670614891e+00 2.6367941801e+00 4.5670614891e+00 
27600 4.7243906031e+00 -3.4856051111e-04 2.6368012327e+00 -4.5670737045e+00 2.6368012327e+00 4.5670737045e+00 
27700 4.7243888161e+00 -3.2540030798e-04 2.6368078422e+00 -4.5670851526e+00 2.6368078422e+00 4.5670851526e+00 
27800 4.7243870689e+00 -3.0244281846e-04 2.6368140126e+00 -4.5670958399e+00 2.6368140126e+00 4.5670958399e+00 
27900 4.7243853603e+00 -2.7968728364e-04 2.6368197476e+00 -4.5671057732e+00 2.6368197476e+00 4.5671057732e+00 
28000 4.7243836894e+00 -2.5713291725e-04 2.6368250511e+00 -4.5671149592e+00 2.6368250511e+00 4.5671149592e+00 
28100 4.7243820553e+00 -2.3477890690e-04 2.6368299269e+00 -4.5671234043e+00 2.6368299269e+00 4.5671234043e+00 
28200 4.7243804568e+00 -2.1262441546e-04 2.6368343788e+00 -4.5671311153e+00 2.6368343788e+00 4.5671311153e+00 
28300 4.7243788932e+00 -1.9066858222e-04 2.6368384106e+00 -4.5671380986e+00 2.6368384106e+00 4.5671380986e+00 
28400 4.7243773635e+00 -1.6891052409e-04 2.6368420261e+00 -4.5671443607e+00 2.6368420261e+00 4.5671443607e+00 
28500 4.7243758669e+00 -1.4734933671e-04 2.6368452290e+00 -4.5671499083e+00 2.6368452290e+00 4.5671499083e+00 
28600 4.7243744025e+00 -1.2598409558e-04 2.6368480230e+00 -4.5671547478e+00 2.6368480230e+00 4.5671547478e+00 
28700 4.7243729695e+00 -1.0481385707e-04 2.6368504120e+00 -4.5671588855e+00 2.6368504120e+00 4.5671588855e+00 
28800 4.7243715672e+00 -8.3837659429e-05 2.6368523994e+00 -4.5671623279e+00 2.6368523994e+00 4.5671623279e+00 
28900 4.7243701946e+00 -6.3054523764e-05 2.6368539892e+00 -4.5671650814e+00 2.6368539892e+00 4.5671650814e+00 
29000 4.7243688512e+00 -4.2811353481e-05 2.6368539892e+00 -4.5671650814e+00 2.6368539892e+00 4.5671650814e+00 
29100 4.7243675360e+00 -2.2646510849e-05 2.6368539892e+00 -4.5671650814e+00 2.6368539892e+00 4.5671650814e+00 
29200 4.7243662485e+00 -2.5596369854e-06 2.6368539892e+00 -4.5671650814e+00 2.6368539892e+00 4.5671650814e+00 
29300 4.7243649879e+00 1.7449579430e-05 2.6368539892e+00 -4.5671650814e+00 2.6368539892e+00 4.5671650814e+00 
29400 4.7243637536e+00 3.7381410145e-05 2.6368539892e+00 -4.5671650814e+00 2.6368539892e+00 4.5671650814e+00 
29500 4.7243625449e+00 5.7236094060e-05 2.6368539892e+00 -4.5671650814e+00 2.6368539892e+00 4.5671650814e+00 
29600 4.7243613613e+00 7.7013842887e-05 2.6368539892e+00 -4.5671650814e+00 2.6368539892e+00 4.5671650814e+00 
29700 4.7243602020e+00 9.6290877912e-05 2.6368525288e+00 -4.5671625520e+00 2.6368525288e+00 4.5671625520e+00 
29800 4.7243590665e+00 1.1538420337e-04 2.6368507030e+00 -4.5671593895e+00 2.6368507030e+00 4.5671593895e+00 
29900 4.7243579541e+00 1.3429493698e-04 2.6368485151e+00 -4.5671555999e+00 2.6368485151e+00 4.5671555999e+00 
30000 4.7243568644e+00 1.5302420322e-04 2.6368459686e+00 -4.5671511893e+00 2.6368459686e+00 4.5671511893e+00 
30100 4.7243557967e+00 1.7157313302e-04 2.6368430669e+00 -4.5671461635e+00 2.6368430669e+00 4.5671461635e+00 
30200 4.7243547505e+00 1.8994286347e-04 2.6368398135e+00 -4.5671405284e+00 2.6368398135e+00 4.5671405284e+00 
30300 4.7243537253e+00 2.0813453752e-04 2.6368362118e+00 -4.5671342901e+00 2.6368362118e+00 4.5671342901e+00 
30400 4.7243527206e+00 2.2614930361e-04 2.6368322651e+00 -4.5671274542e+00 2.6368322651e+00 4.5671274542e+00 
30500 4.7243517358e+00 2.4398831533e-04 2.6368279769e+00 -4.5671200267e+00 2.6368279769e+00 4.5671200267e+00 
30600 4.7243507706e+00 2.6165273109e-04 2.6368233503e+00 -4.5671120133e+00 2.6368233503e+00 4.5671120133e+00 
30700 4.7243498243e+00 2.7914371372e-04 2.6368183888e+00 -4.5671034197e+00 2.6368183888e+00 4.5671034197e+00 
30800 4.7243488966e+00 2.9646243017e-04 2.6368130956e+00 -4.5670942517e+00 2.6368130956e+00 4.5670942517e+00 
30900 4.7243479871e+00 3.1361005111e-04 2.6368074740e+00 -4.5670845148e+00 2.6368074740e+00 4.5670845148e+00 
31000 4.7243470952e+00 3.3058775063e-04 2.6368015272e+00 -4.5670742146e+00 2.6368015272e+00 4.5670742146e+00 
31100 4.7243462205e+00 3.4739670585e-04 2.6367952585e+00 -4.5670633569e+00 2.6367952585e+00 4.5670633569e+00 
31200 4.7243453627e+00 3.6403809662e-04 2.6367886710e+00 -4.5670519470e+00 2.6367886710e+00 4.5670519470e+00 
31300 4.7243445214e+00 3.8051310518e-04 2.6367817680e+00 -4.5670399906e+00 2.6367817680e+00 4.5670399906e+00 
31400 4.7243436961e+00 3.9682291583e-04 2.6367745525e+00 -4.5670274930e+00 2.6367745525e+00 4.5670274930e+00 
31500 4.7243428864e+00 4.1296871466e-04 2.6367670277e+00 -4.5670144597e+00 2.6367670277e+00 4.5670144597e+00 
31600 4.7243420920e+00 4.2895168920e-04 2.6367591968e+00 -4.5670008961e+00 2.6367591968e+00 4.5670008961e+00 
31700 4.7243413126e+00 4.4477302813e-04 2.6367510627e+00 -4.5669868075e+00 2.6367510627e+00 4.5669868075e+00 
31800 4.7243405478e+00 4.6043392104e-04 2.6367426286e+00 -4.5669721992e+00 2.6367426286e+00 4.5669721992e+00 
31900 4.7243397971e+00 4.7593555813e-04 2.6367338975e+00 -4.5669570765e+00 2.6367338975e+00 4.5669570765e+00 
32000 4.7243390604e+00 4.9127912991e-04 2.6367248724e+00 -4.5669414446e+00 2.6367248724e+00 4.5669414446e+00 
32100 4.7243383372e+00 5.0646582701e-04 2.6367155563e+00 -4.5669253086e+00 2.6367155563e+00 4.5669253086e+00 
32200 4.7243376273e+00 5.2149683988e-04 2.6367059522e+00 -4.5669086738e+00 2.6367059522e+00 4.5669086738e+00 
32300 4.7243369304e+00 5.3637335857e-04 2.6366960630e+00 -4.5668915453e+00 2.6366960630e+00 4.5668915453e+00 
32400 4.7243362460e+00 5.5109657249e-04 2.6366858917e+00 -4.5668739281e+00 2.6366858917e+00 4.5668739281e+00 
32500 4.7243355740e+00 5.6566767022e-04 2.6366754412e+00 -4.5668558272e+00 2.6366754412e+00 4.5668558272e+00 
32600 4.7243349141e+00 5.8008783923e-04 2.6366647143e+00 -4.5668372477e+00 2.6366647143e+00 4.5668372477e+00 
32700 4.7243342659e+00 5.9435826575e-04 2.6366537139e+00 -4.5668181944e+00 2.6366537139e+00 4.5668181944e+00 
32800 4.7243336293e+00 6.0848013451e-04 2.6366424428e+00 -4.5667986723e+00 2.6366424428e+00 4.5667986723e+00 
32900 4.7243330038e+00 6.2245462858e-04 2.6366309039e+00 -4.5667786864e+00 2.6366309039e+00 4.5667786864e+00 
33000 4.7243323894e+00 6.3628292917e-04 2.6366190999e+00 -4.5667582413e+00 2.6366190999e+00 4.5667582413e+00 
33100 4.7243317857e+00 6.4996621546e-04 2.6366070337e+00 -4.5667373419e+00 2.6366070337e+00 4.5667373419e+00 
33200 4.7243311924e+00 6.6350566444e-04 2.6365947079e+00 -4.5667159930e+00 2.6365947079e+00 4.5667159930e+00 
33300 4.7243306094e+00 6.7690245071e-04 2.6365821253e+00 -4.5666941993e+00 2.6365821253e+00 4.5666941993e+00 
33400 4.7243300363e+00 6.9015774636e-04 2.6365692885e+00 -4.5666719654e+00 2.6365692885e+00 4.5666719654e+00 
33500 4.7243294731e+00 7.0327272078e-04 2.6365562004e+00 -4.5666492960e+00 2.6365562004e+00 4.5666492960e+00 
33600 4.7243289193e+00 7.1624854055e-04 2.6365428634e+00 -4.5666261958e+00 2.6365428634e+00 4.5666261958e+00 
33700 4.7243283749e+00 7.2908636928e-04 2.6365292803e+00 -4.5666026692e+00 2.6365292803e+00 4.5666026692e+00 
33800 4.7243278396e+00 7.4178736746e-04 2.6365154537e+00 -4.5665787208e+00 2.6365154537e+00 4.5665787208e+00 
33900 4.7243273132e+00 7.5435269237e-04 2.6365013862e+00 -4.5665543550e+00 2.6365013862e+00 4.5665543550e+00 
34000 4.7243267955e+00 7.6678349790e-04 2.6364870802e+00 -4.5665295764e+00 2.6364870802e+00 4.5665295764e+00 
34100 4.7243262863e+00 7.7908093447e-04 2.6364725385e+00 -4.5665043894e+00 2.6364725385e+00 4.5665043894e+00 
34200 4.7243257854e+00 7.9124614890e-04 2.6364577634e+00 -4.5664787983e+00 2.6364577634e+00 4.5664787983e+00 
34300 4.7243252927e+00 8.0328028430e-04 2.6364427576e+00 -4.5664528074e+00 2.6364427576e+00 4.5664528074e+00 
34400 4.7243248078e+00 8.1518447996e-04 2.6364275234e+00 -4.5664264210e+00 2.6364275234e+00 4.5664264210e+00 
34500 4.7243243307e+00 8.2695987123e-04 2.6364120634e+00 -4.5663996435e+00 2.6364120634e+00 4.5663996435e+00 
34600 4.7243238612e+00 8.3860758945e-04 2.6363963800e+00 -4.5663724791e+00 2.6363963800e+00 4.5663724791e+00 
34700 4.7243233991e+00 8.5012876186e-04 2.6363804756e+00 -4.5663449318e+00 2.6363804756e+00 4.5663449318e+00 
34800 4.7243229443e+00 8.6152451145e-04 2.6363643526e+00 -4.5663170059e+00 2.6363643526e+00 4.5663170059e+00 
34900 4.7243224965e+00 8.7279595695e-04 2.6363480133e+00 -4.5662887055e+00 2.6363480133e+00 4.5662887055e+00 
35000 4.7243220556e+00 8.8394421267e-04 2.6363314602e+00 -4.5662600347e+00 2.6363314602e+00 4.5662600347e+00 
35100 4.7243216215e+00 8.9497038847e-04 2.6363146956e+00 -4.5662309975e+00 2.6363146956e+00 4.5662309975e+00 
35200 4.7243211940e+00 9.0587558968e-04 2.6362977217e+00 -4.5662015979e+00 2.6362977217e+00 4.5662015979e+00 
35300 4.7243207730e+00 9.1666091700e-04 2.6362805409e+00 -4.5661718399e+00 2.6362805409e+00 4.5661718399e+00 
35400 4.7243203582e+00 9.2732746642e-04 2.6362631554e+00 -4.5661417273e+00 2.6362631554e+00 4.5661417273e+00 
35500 4.7243199497e+00 9.3787632920e-04 2.6362455675e+00 -4.5661112642e+00 2.6362455675e+00 4.5661112642e+00 
35600 4.7243195472e+00 9.4830859175e-04 2.6362277794e+00 -4.5660804543e+00 2.6362277794e+00 4.5660804543e+00 
35700 4.7243191506e+00 9.5862533561e-04 2.6362097934e+00 -4.5660493015e+00 2.6362097934e+00 4.5660493015e+00 
35800 4.7243187597e+00 9.6882763735e-04 2.6361916115e+00 -4.5660178096e+00 2.6361916115e+00 4.5660178096e+00 
35900 4.7243183745e+00 9.7891656853e-04 2.6361732360e+00 -4.5659859823e+00 2.6361732360e+00 4.5659859823e+00 
36000 4.7243179948e+00 9.8889319567e-04 2.6361546690e+00 -4.5659538234e+00 2.6361546690e+00 4.5659538234e+00 
36100 4.7243176205e+00 9.9875858013e-04 2.6361359127e+00 -4.5659213365e+00 2.6361359127e+00 4.5659213365e+00 
36200 4.7243172515e+00 1.0085137781e-03 2.6361169691e+00 -4.5658885252e+00 2.6361169691e+00 4.5658885252e+00 
36300 4.7243168876e+00 1.0181598407e-03 2.6360978404e+00 -4.5658553932e+00 2.6360978404e+00 4.5658553932e+00 
36400 4.7243165287e+00 1.0276978135e-03 2.6360785285e+00 -4.5658219441e+00 2.6360785285e+00 4.5658219441e+00 
36500 4.7243161748e+00 1.0371287370e-03 2.6360590356e+00 -4.5657881814e+00 2.6360590356e+00 4.5657881814e+00 
36600 4.7243158257e+00 1.0464536462e-03 2.6360393637e+00 -4.5657541086e+00 2.6360393637e+00 4.5657541086e+00 
36700 4.7243154813e+00 1.0556735709e-03 2.6360195147e+00 -4.5657197292e+00 2.6360195147e+00 4.5657197292e+00 
36800 4.7243151415e+00 1.0647895352e-03 2.6359994907e+00 -4.5656850467e+00 2.6359994907e+00 4.5656850467e+00 
36900 4.7243148062e+00 1.0738025579e-03 2.6359792937e+00 -4.5656500644e+00 2.6359792937e+00 4.5656500644e+00 
37000 4.7243144753e+00 1.0827136523e-03 2.6359589255e+00 -4.5656147857e+00 2.6359589255e+00 4.5656147857e+00 
37100 4.7243141487e+00 1.0915238261e-03 2.6359383882e+00 -4.5655792139e+00 2.6359383882e+00 4.5655792139e+00 
37200 4.7243138263e+00 1.1002340815e-03 2.6359176836e+00 -4.5655433525e+00 2.6359176836e+00 4.5655433525e+00 
37300 4.7243135081e+00 1.1088454149e-03 2.6358968135e+00 -4.5655072046e+00 2.6358968135e+00 4.5655072046e+00 
37400 4.7243131938e+00 1.1173588175e-03 2.6358757800e+00 -4.5654707734e+00 2.6358757800e+00 4.5654707734e+00 
37500 4.7243128835e+00 1.1257752744e-03 2.6358545848e+00 -4.5654340623e+00 2.6358545848e+00 4.5654340623e+00 
37600 4.7243125770e+00 1.1340957652e-03 2.6358332298e+00 -4.5653970743e+00 2.6358332298e+00 4.5653970743e+00 
37700 4.7243122743e+00 1.1423212638e-03 2.6358117168e+00 -4.5653598127e+00 2.6358117168e+00 4.5653598127e+00 
37800 4.7243119753e+00 1.1504527385e-03 2.6357900476e+00 -4.5653222805e+00 2.6357900476e+00 4.5653222805e+00 
37900 4.7243116798e+00 1.1584911517e-03 2.6357682239e+00 -4.5652844809e+00 2.6357682239e+00 4.5652844809e+00 
38000 4.7243113879e+00 1.1664374599e-03 2.6357462476e+00 -4.5652464168e+00 2.6357462476e+00 4.5652464168e+00 
38100 4.7243110994e+00 1.1742926142e-03 2.6357241204e+00 -4.5652080913e+00 2.6357241204e+00 4.5652080913e+00 
38200 4.7243108143e+00 1.1820575596e-03 2.6357018440e+00 -4.5651695073e+00 2.6357018440e+00 4.5651695073e+00 
38300 4.7243105324e+00 1.1897332354e-03 2.6356794200e+00 -4.5651306679e+00 2.6356794200e+00 4.5651306679e+00 
38400 4.7243102538e+00 1.1973205751e-03 2.6356568503e+00 -4.5650915760e+00 2.6356568503e+00 4.5650915760e+00 
38500 4.7243099783e+00 1.2048205062e-03 2.6356341364e+00 -4.5650522345e+00 2.6356341364e+00 4.5650522345e+00 
38600 4.7243097059e+00 1.2122339505e-03 2.6356112801e+00 -4.5650126461e+00 2.6356112801e+00 4.5650126461e+00 
38700 4.7243094364e+00 1.2195618240e-03 2.6355882829e+00 -4.5649728139e+00 2.6355882829e+00 4.5649728139e+00 
38800 4.7243091699e+00 1.2268050366e-03 2.6355651465e+00 -4.5649327404e+00 2.6355651465e+00 4.5649327404e+00 
38900 4.7243089063e+00 1.2339644926e-03 2.6355418725e+00 -4.5648924287e+00 2.6355418725e+00 4.5648924287e+00 
39000 4.7243086455e+00 1.2410410902e-03 2.6355184625e+00 -4.5648518813e+00 2.6355184625e+00 4.5648518813e+00 
39100 4.7243083874e+00 1.2480357217e-03 2.6354949180e+00 -4.5648111010e+00 2.6354949180e+00 4.5648111010e+00 
39200 4.7243081320e+00 1.2549492737e-03 2.6354712406e+00 -4.5647700906e+00 2.6354712406e+00 4.5647700906e+00 
39300 4.7243078792e+00 1.2617826267e-03 2.6354474318e+00 -4.5647288525e+00 2.6354474318e+00 4.5647288525e+00 
39400 4.7243076290e+00 1.2685366554e-03 2.6354234931e+00 -4.5646873896e+00 2.6354234931e+00 4.5646873896e+00 
39500 4.7243073813e+00 1.2752122287e-03 2.6353994261e+00 -4.5646457043e+00 2.6353994261e+00 4.5646457043e+00 
39600 4.7243071360e+00 1.2818102092e-03 2.6353752323e+00 -4.5646037993e+00 2.6353752323e+00 4.5646037993e+00 
39700 4.7243068931e+00 1.2883314541e-03 2.6353509130e+00 -4.5645616771e+00 2.6353509130e+00 4.5645616771e+00 
39800 4.7243066526e+00 1.2947768143e-03 2.6353264698e+00 -4.5645193402e+00 2.6353264698e+00 4.5645193402e+00 
39900 4.7243064143e+00 1.3011471351e-03 2.6353019040e+00 -4.5644767911e+00 2.6353019040e+00 4.5644767911e+00 
40000 4.7243061783e+00 1.3074432555e-03 2.6352772172e+00 -4.5644340322e+00 2.6352772172e+00 4.5644340322e+00 
40100 4.7243059444e+00 1.3136660091e-03 2.6352524107e+00 -4.5643910661e+00 2.6352524107e+00 4.5643910661e+00 
40200 4.7243057127e+00 1.3198162232e-03 2.6352274859e+00 -4.5643478950e+00 2.6352274859e+00 4.5643478950e+00 
40300 4.7243054831e+00 1.3258947194e-03 2.6352024441e+00 -4.5643045214e+00 2.6352024441e+00 4.5643045214e+00 
40400 4.7243052555e+00 1.3319023134e-03 2.6351772868e+00 -4.5642609477e+00 2.6351772868e+00 4.5642609477e+00 
40500 4.7243050298e+00 1.3378398149e-03 2.6351520152e+00 -4.5642171761e+00 2.6351520152e+00 4.5642171761e+00 
40600 4.7243048062e+00 1.3437080280e-03 2.6351266308e+00 -4.5641732089e+00 2.6351266308e+00 4.5641732089e+00 
40700 4.7243045844e+00 1.3495077506e-03 2.6351011348e+00 -4.5641290485e+00 2.6351011348e+00 4.5641290485e+00 
40800 4.7243043645e+00 1.3552397749e-03 2.6350755284e+00 -4.5640846970e+00 2.6350755284e+00 4.5640846970e+00 
40900 4.7243041463e+00 1.3609048874e-03 2.6350498131e+00 -4.5640401567e+00 2.6350498131e+00 4.5640401567e+00 
41000 4.7243039300e+00 1.3665038685e-03 2.6350239900e+00 -4.5639954298e+00 2.6350239900e+00 4.5639954298e+00 
41100 4.7243037154e+00 1.3720374929e-03 2.6349980604e+00 -4.5639505185e+00 2.6349980604e+00 4.5639505185e+00 
41200 4.7243035024e+00 1.3775065296e-03 2.6349720256e+00 -4.5639054248e+00 2.6349720256e+00 4.5639054248e+00 
41300 4.7243032912e+00 1.3829117415e-03 2.6349458867e+00 -4.5638601509e+00 2.6349458867e+00 4.5638601509e+00 
41400 4.7243030815e+00 1.3882538861e-03 2.6349196450e+00 -4.5638146990e+00 2.6349196450e+00 4.5638146990e+00 
41500 4.7243028734e+00 1.3935337147e-03 2.6348933016e+00 -4.5637690710e+00 2.6348933016e+00 4.5637690710e+00 
41600 4.7243026668e+00 1.3987519732e-03 2.6348668578e+00 -4.5637232690e+00 2.6348668578e+00 4.5637232690e+00 
41700 4.7243024617e+00 1.4039094016e-03 2.6348403148e+00 -4.5636772950e+00 2.6348403148e+00 4.5636772950e+00 
41800 4.7243022581e+00 1.4090067341e-03 2.6348136736e+00 -4.5636311511e+00 2.6348136736e+00 4.5636311511e+00 
41900 4.7243020559e+00 1.4140446993e-03 2.6347869353e+00 -4.5635848391e+00 2.6347869353e+00 4.5635848391e+00 
42000 4.7243018550e+00 1.4190240199e-03 2.6347601012e+00 -4.5635383611e+00 2.6347601012e+00 4.5635383611e+00 
42100 4.7243016556e+00 1.4239454133e-03 2.6347331724e+00 -4.5634917190e+00 2.6347331724e+00 4.5634917190e+00 
42200 4.7243014575e+00 1.4288095908e-03 2.6347061499e+00 -4.5634449146e+00 2.6347061499e+00 4.5634449146e+00 
42300 4.7243012606e+00 1.4336172583e-03 2.6346790347e+00 -4.5633979498e+00 2.6346790347e+00 4.5633979498e+00 
42400 4.7243010650e+00 1.4383691160e-03 2.6346518281e+00 -4.5633508265e+00 2.6346518281e+00 4.5633508265e+00 
42500 4.7243008707e+00 1.4430658584e-03 2.6346245310e+00 -4.5633035466e+00 2.6346245310e+00 4.5633035466e+00 
42600 4.7243006775e+00 1.4477081746e-03 2.6345971445e+00 -4.5632561118e+00 2.6345971445e+00 4.5632561118e+00 
42700 4.7243004855e+00 1.4522967480e-03 2.6345696696e+00 -4.5632085239e+00 2.6345696696e+00 4.5632085239e+00 
42800 4.7243002947e+00 1.4568322563e-03 2.6345421074e+00 -4.5631607846e+00 2.6345421074e+00 4.5631607846e+00 
42900 4.7243001049e+00 1.4613153719e-03 2.6345144587e+00 -4.5631128958e+00 2.6345144587e+00 4.5631128958e+00 
43000 4.7242999162e+00 1.4657467615e-03 2.6344867247e+00 -4.5630648591e+00 2.6344867247e+00 4.5630648591e+00 
43100 4.7242997286e+00 1.4701270866e-03 2.6344589063e+00 -4.5630166762e+00 2.6344589063e+00 4.5630166762e+00 
43200 4.7242995420e+00 1.4744570027e-03 2.6344310045e+00 -4.5629683488e+00 2.6344310045e+00 4.5629683488e+00 
43300 4.7242993564e+00 1.4787371604e-03 2.6344030202e+00 -4.5629198786e+00 2.6344030202e+00 4.5629198786e+00 
43400 4.7242991718e+00 1.4829682045e-03 2.6343749543e+00 -4.5628712671e+00 2.6343749543e+00 4.5628712671e+00 
43500 4.7242989881e+00 1.4871507744e-03 2.6343468079e+00 -4.5628225160e+00 2.6343468079e+00 4.5628225160e+00 
43600 4.7242988053e+00 1.4912855045e-03 2.6343185818e+00 -4.5627736270e+00 2.6343185818e+00 4.5627736270e+00 
43700 4.7242986235e+00 1.4953730232e-03 2.6342902769e+00 -4.5627246014e+00 2.6342902769e+00 4.5627246014e+00 
43800 4.7242984425e+00 1.4994139542e-03 2.6342618941e+00 -4.5626754410e+00 2.6342618941e+00 4.5626754410e+00 
43900 4.7242982623e+00 1.5034089153e-03 2.6342334343e+00 -4.5626261472e+00 2.6342334343e+00 4.5626261472e+00 
44000 4.7242980830e+00 1.5073585195e-03 2.6342048983e+00 -4.5625767215e+00 2.6342048983e+00 4.5625767215e+00 
44100 4.7242979045e+00 1.5112633743e-03 2.6341762871e+00 -4.5625271654e+00 2.6341762871e+00 4.5625271654e+00 
44200 4.7242977268e+00 1.5151240818e-03 2.6341476015e+00 -4.5624774804e+00 2.6341476015e+00 4.5624774804e+00 
44300 4.7242975498e+00 1.5189412392e-03 2.6341188423e+00 -4.5624276680e+00 2.6341188423e+00 4.5624276680e+00 
44400 4.7242973735e+00 1.5227154382e-03 2.6340900103e+00 -4.5623777295e+00 2.6340900103e+00 4.5623777295e+00 
44500 4.7242971980e+00 1.5264472656e-03 2.6340611063e+00 -4.5623276663e+00 2.6340611063e+00 4.5623276663e+00 
44600 4.7242970231e+00 1.5301373029e-03 2.6340321312e+00 -4.5622774800e+00 2.6340321312e+00 4.5622774800e+00 
44700 4.7242968489e+00 1.5337861264e-03 2.6340030857e+00 -4.5622271717e+00 2.6340030857e+00 4.5622271717e+00 
44800 4.7242966754e+00 1.5373943074e-03 2.6339739706e+00 -4.5621767430e+00 2.6339739706e+00 4.5621767430e+00 
44900 4.7242965025e+00 1.5409624123e-03 2.6339447868e+00 -4.5621261950e+00 2.6339447868e+00 4.5621261950e+00 
45000 4.7242963302e+00 1.5444910021e-03 2.6339155348e+00 -4.5620755292e+00 2.6339155348e+00 4.5620755292e+00 
45100 4.7242961585e+00 1.5479806330e-03 2.6338862156e+00 -4.5620247467e+00 2.6338862156e+00 4.5620247467e+00 
45200 4.7242959874e+00 1.5514318563e-03 2.6338568298e+00 -4.5619738490e+00 2.6338568298e+00 4.5619738490e+00 
45300 4.7242958168e+00 1.5548452181e-03 2.6338273781e+00 -4.5619228373e+00 2.6338273781e+00 4.5619228373e+00 
45400 4.7242956468e+00 1.5582212597e-03 2.6337978613e+00 -4.5618717127e+00 2.6337978613e+00 4.5618717127e+00 
45500 4.7242954773e+00 1.5615605174e-03 2.6337682801e+00 -4.5618204765e+00 2.6337682801e+00 4.5618204765e+00 
45600 4.7242953083e+00 1.5648635228e-03 2.6337386352e+00 -4.5617691300e+00 2.6337386352e+00 4.5617691300e+00 
45700 4.7242951397e+00 1.5681308025e-03 2.6337089272e+00 -4.5617176743e+00 2.6337089272e+00 4.5617176743e+00 
45800 4.7242949717e+00 1.5713628783e-03 2.6336791569e+00 -4.5616661106e+00 2.6336791569e+00 4.5616661106e+00 
45900 4.7242948041e+00 1.5745602671e-03 2.6336493249e+00 -4.5616144400e+00 2.6336493249e+00 4.5616144400e+00 
46000 4.7242946369e+00 1.5777234812e-03 2.6336194318e+00 -4.5615626637e+00 2.6336194318e+00 4.5615626637e+00 
46100 4.7242944701e+00 1.5808530282e-03 2.6335894783e+00 -4.5615107827e+00 2.6335894783e+00 4.5615107827e+00 
46200 4.7242943038e+00 1.5839494106e-03 2.6335594651e+00 -4.5614587983e+00 2.6335594651e+00 4.5614587983e+00 
46300 4.7242941378e+00 1.5870131268e-03 2.6335293928e+00 -4.5614067115e+00 2.6335293928e+00 4.5614067115e+00 
46400 4.7242939722e+00 1.5900446699e-03 2.6334992619e+00 -4.5613545233e+00 2.6334992619e+00 4.5613545233e+00 
46500 4.7242938069e+00 1.5930445290e-03 2.6334690731e+00 -4.5613022348e+00 2.6334690731e+00 4.5613022348e+00 
46600 4.7242936420e+00 1.5960131881e-03 2.6334388271e+00 -4.5612498471e+00 2.6334388271e+00 4.5612498471e+00 
46700 4.7242934774e+00 1.5989511269e-03 2.6334085243e+00 -4.5611973612e+00 2.6334085243e+00 4.5611973612e+00 
46800 4.7242933132e+00 1.6018588204e-03 2.6333781654e+00 -4.5611447780e+00 2.6333781654e+00 4.5611447780e+00 
46900 4.7242931492e+00 1.6047367392e-03 2.6333477509e+00 -4.5610920986e+00 2.6333477509e+00 4.5610920986e+00 
47000 4.7242929855e+00 1.6075853494e-03 2.6333172815e+00 -4.5610393239e+00 2.6333172815e+00 4.5610393239e+00 
47100 4.7242928221e+00 1.6104051126e-03 2.6332867576e+00 -4.5609864550e+00 2.6332867576e+00 4.5609864550e+00 
47200 4.7242926589e+00 1.6131964859e-03 2.6332561798e+00 -4.5609334927e+00 2.6332561798e+00 4.5609334927e+00 
47300 4.7242924960e+00 1.6159599223e-03 2.6332255486e+00 -4.5608804380e+00 2.6332255486e+00 4.5608804380e+00 
47400 4.7242923333e+00 1.6186958700e-03 2.6331948646e+00 -4.5608272918e+00 2.6331948646e+00 4.5608272918e+00 
47500 4.7242921708e+00 1.6214047731e-03 2.6331641284e+00 -4.5607740550e+00 2.6331641284e+00 4.5607740550e+00 
47600 4.7242920085e+00 1.6240870715e-03 2.6331333403e+00 -4.5607207284e+00 2.6331333403e+00 4.5607207284e+00 
47700 4.7242918465e+00 1.6267432006e-03 2.6331025009e+00 -4.5606673131e+00 2.6331025009e+00 4.5606673131e+00 
47800 4.7242916846e+00 1.6293735916e-03 2.6330716107e+00 -4.5606138097e+00 2.6330716107e+00 4.5606138097e+00 
47900 4.7242915228e+00 1.6319786716e-03 2.6330406702e+00 -4.5605602192e+00 2.6330406702e+00 4.5605602192e+00 
48000 4.7242913612e+00 1.6345588632e-03 2.6330096799e+00 -4.5605065424e+00 2.6330096799e+00 4.5605065424e+00 
48100 4.7242911998e+00 1.6371145853e-03 2.6329786402e+00 -4.5604527801e+00 2.6329786402e+00 4.5604527801e+00 
48200 4.7242910385e+00 1.6396462522e-03 2.6329475516e+00 -4.5603989331e+00 2.6329475516e+00 4.5603989331e+00 
48300 4.7242908773e+00 1.6421542745e-03 2.6329164146e+00 -4.5603450022e+00 2.6329164146e+00 4.5603450022e+00 
48400 4.7242907163e+00 1.6446390583e-03 2.6328852296e+00 -4.5602909882e+00 2.6328852296e+00 4.5602909882e+00 
48500 4.7242905553e+00 1.6471010059e-03 2.6328539970e+00 -4.5602368917e+00 2.6328539970e+00 4.5602368917e+00 
48600 4.7242903944e+00 1.6495405157e-03 2.6328227173e+00 -4.5601827137e+00 2.6328227173e+00 4.5601827137e+00 
48700 4.7242902336e+00 1.6519579819e-03 2.6327913909e+00 -4.5601284548e+00 2.6327913909e+00 4.5601284548e+00 
48800 4.7242900729e+00 1.6543537947e-03 2.6327600182e+00 -4.5600741157e+00 2.6327600182e+00 4.5600741157e+00 
48900 4.7242899122e+00 1.6567283405e-03 2.6327285997e+00 -4.5600196972e+00 2.6327285997e+00 4.5600196972e+00 
49000 4.7242897516e+00 1.6590820019e-03 2.6326971356e+00 -4.5599651999e+00 2.6326971356e+00 4.5599651999e+00 
49100 4.7242895910e+00 1.6614151573e-03 2.6326656265e+00 -4.5599106245e+00 2.6326656265e+00 4.5599106245e+00 
49200 4.7242894304e+00 1.6637281816e-03 2.6326340727e+00 -4.5598559717e+00 2.6326340727e+00 4.5598559717e+00 
49300 4.7242892699e+00 1.6660214456e-03 2.6326024746e+00 -4.5598012422e+00 2.6326024746e+00 4.5598012422e+00 
49400 4.7242891093e+00 1.6682953165e-03 2.6325708326e+00 -4.5597464366e+00 2.6325708326e+00 4.5597464366e+00 
49500 4.7242889488e+00 1.6705501576e-03 2.6325391470e+00 -4.5596915555e+00 2.6325391470e+00 4.5596915555e+00 
49600 4.7242887882e+00 1.6727863287e-03 2.6325074182e+00 -4.5596365996e+00 2.6325074182e+00 4.5596365996e+00 
49700 4.7242886276e+00 1.6750041856e-03 2.6324756465e+00 -4.5595815695e+00 2.6324756465e+00 4.5595815695e+00 
49800 4.7242884670e+00 1.6772040807e-03 2.6324438323e+00 -4.5595264657e+00 2.6324438323e+00 4.5595264657e+00 
49900 4.7242883064e+00 1.6793863626e-03 2.6324119760e+00 -4.5594712889e+00 2.6324119760e+00 4.5594712889e+00 
50000 4.7242881457e+00 1.6815513762e-03 2.6323800778e+00 -4.5594160396e+00 2.6323800778e+00 4.5594160396e+00 
50100 4.7242879850e+00 1.6836994631e-03 2.6323481381e+00 -4.5593607185e+00 2.6323481381e+00 4.5593607185e+00 
50200 4.7242878241e+00 1.6858309611e-03 2.6323161573e+00 -4.5593053259e+00 2.6323161573e+00 4.5593053259e+00 
50300 4.7242876633e+00 1.6879462046e-03 2.6322841355e+00 -4.5592498626e+00 2.6322841355e+00 4.5592498626e+00 
50400 4.7242875023e+00 1.6900455243e-03 2.6322520732e+00 -4.5591943291e+00 2.6322520732e+00 4.5591943291e+00 
50500 4.7242873412e+00 1.6921292478e-03 2.6322199706e+00 -4.5591387258e+00 2.6322199706e+00 4.5591387258e+00 
50600 4.7242871801e+00 1.6941976988e-03 2.6321878280e+00 -4.5590830532e+00 2.6321878280e+00 4.5590830532e+00 
50700 4.7242870188e+00 1.6962511979e-03 2.6321556458e+00 -4.5590273119e+00 2.6321556458e+00 4.5590273119e+00 
50800 4.7242868574e+00 1.6982900622e-03 2.6321234241e+00 -4.5589715024e+00 2.6321234241e+00 4.5589715024e+00 
50900 4.7242866959e+00 1.7003146056e-03 2.6320911634e+00 -4.5589156251e+00 2.6320911634e+00 4.5589156251e+00 
51000 4.7242865343e+00 1.7023251383e-03 2.6320588637e+00 -4.5588596805e+00 2.6320588637e+00 4.5588596805e+00 
51100 4.7242863725e+00 1.7043219676e-03 2.6320265255e+00 -4.5588036691e+00 2.6320265255e+00 4.5588036691e+00 
51200 4.7242862106e+00 1.7063053972e-03 2.6319941490e+00 -4.5587475913e+00 2.6319941490e+00 4.5587475913e+00 
51300 4.7242860486e+00 1.7082757278e-03 2.6319617344e+00 -4.5586914475e+00 2.6319617344e+00 4.5586914475e+00 
51400 4.7242858863e+00 1.7102332568e-03 2.6319292819e+00 -4.5586352382e+00 2.6319292819e+00 4.5586352382e+00 
51500 4.7242857239e+00 1.7121782782e-03 2.6318967919e+00 -4.5585789638e+00 2.6318967919e+00 4.5585789638e+00 
51600 4.7242855614e+00 1.7141110831e-03 2.6318642645e+00 -4.5585226247e+00 2.6318642645e+00 4.5585226247e+00 
51700 4.7242853986e+00 1.7160319594e-03 2.6318317000e+00 -4.5584662213e+00 2.6318317000e+00 4.5584662213e+00 
51800 4.7242852357e+00 1.7179411918e-03 2.6317990986e+00 -4.5584097540e+00 2.6317990986e+00 4.5584097540e+00 
51900 4.7242850725e+00 1.7198390620e-03 2.6317664605e+00 -4.5583532232e+00 2.6317664605e+00 4.5583532232e+00 
52000 4.7242849092e+00 1.7217258485e-03 2.6317337859e+00 -4.5582966292e+00 2.6317337859e+00 4.5582966292e+00 
52100 4.7242847457e+00 1.7236018269e-03 2.6317010751e+00 -4.5582399725e+00 2.6317010751e+00 4.5582399725e+00 
52200 4.7242845819e+00 1.7254672698e-03 2.6316683283e+00 -4.5581832533e+00 2.6316683283e+00 4.5581832533e+00 
52300 4.7242844179e+00 1.7273224466e-03 2.6316355456e+00 -4.5581264720e+00 2.6316355456e+00 4.5581264720e+00 
52400 4.7242842537e+00 1.7291676242e-03 2.6316027272e+00 -4.5580696289e+00 2.6316027272e+00 4.5580696289e+00 
52500 4.7242840892e+00 1.7310030660e-03 2.6315698734e+00 -4.5580127244e+00 2.6315698734e+00 4.5580127244e+00 
52600 4.7242839246e+00 1.7328290329e-03 2.6315369843e+00 -4.5579557588e+00 2.6315369843e+00 4.5579557588e+00 
52700 4.7242837596e+00 1.7346457828e-03 2.6315040601e+00 -4.5578987324e+00 2.6315040601e+00 4.5578987324e+00 
52800 4.7242835944e+00 1.7364535707e-03 2.6314711010e+00 -4.5578416455e+00 2.6314711010e+00 4.5578416455e+00 
52900 4.7242834290e+00 1.7382526489e-03 2.6314381071e+00 -4.5577844984e+00 2.6314381071e+00 4.5577844984e+00 
53000 4.7242832632e+00 1.7400432667e-03 2.6314050786e+00 -4.5577272914e+00 2.6314050786e+00 4.5577272914e+00 
53100 4.7242830972e+00 1.7418256707e-03 2.6313720156e+00 -4.5576700247e+00 2.6313720156e+00 4.5576700247e+00 
53200 4.7242829310e+00 1.7436001050e-03 2.6313389184e+00 -4.5576126986e+00 2.6313389184e+00 4.5576126986e+00 
53300 4.7242827644e+00 1.7453668105e-03 2.6313057871e+00 -4.5575553134e+00 2.6313057871e+00 4.5575553134e+00 
53400 4.7242825975e+00 1.7471260259e-03 2.6312726217e+00 -4.5574978694e+00 2.6312726217e+00 4.5574978694e+00 
53500 4.7242824304e+00 1.7488779868e-03 2.6312394225e+00 -4.5574403667e+00 2.6312394225e+00 4.5574403667e+00 
53600 4.7242822629e+00 1.7506229263e-03 2.6312061896e+00 -4.5573828056e+00 2.6312061896e+00 4.5573828056e+00 
53700 4.7242820952e+00 1.7523610751e-03 2.6311729231e+00 -4.5573251864e+00 2.6311729231e+00 4.5573251864e+00 
53800 4.7242819271e+00 1.7540926609e-03 2.6311396232e+00 -4.5572675092e+00 2.6311396232e+00 4.5572675092e+00 
53900 4.7242817587e+00 1.7558179091e-03 2.6311062900e+00 -4.5572097743e+00 2.6311062900e+00 4.5572097743e+00 
54000 4.7242815899e+00 1.7575370424e-03 2.6310729235e+00 -4.5571519819e+00 2.6310729235e+00 4.5571519819e+00 
54100 4.7242814209e+00 1.7592502811e-03 2.6310395239e+00 -4.5570941322e+00 2.6310395239e+00 4.5570941322e+00 
54200 4.7242812515e+00 1.7609578429e-03 2.6310060914e+00 -4.5570362253e+00 2.6310060914e+00 4.5570362253e+00 
54300 4.7242810818e+00 1.7626599429e-03 2.6309726260e+00 -4.5569782615e+00 2.6309726260e+00 4.5569782615e+00 
54400 4.7242809117e+00 1.7643567941e-03 2.6309391278e+00 -4.5569202410e+00 2.6309391278e+00 4.5569202410e+00 
54500 4.7242807412e+00 1.7660486066e-03 2.6309055969e+00 -4.5568621638e+00 2.6309055969e+00 4.5568621638e+00 
54600 4.7242805704e+00 1.7677355885e-03 2.6308720335e+00 -4.5568040302e+00 2.6308720335e+00 4.5568040302e+00 
54700 4.7242803993e+00 1.7694179453e-03 2.6308384376e+00 -4.5567458404e+00 2.6308384376e+00 4.5567458404e+00 
54800 4.7242802277e+00 1.7710958801e-03 2.6308048092e+00 -4.5566875944e+00 2.6308048092e+00 4.5566875944e+00 
54900 4.7242800558e+00 1.7727695937e-03 2.6307711486e+00 -4.5566292924e+00 2.6307711486e+00 4.5566292924e+00 
55000 4.7242798835e+00 1.7744392846e-03 2.6307374557e+00 -4.5565709346e+00 2.6307374557e+00 4.5565709346e+00 
55100 4.7242797109e+00 1.7761051491e-03 2.6307037306e+00 -4.5565125211e+00 2.6307037306e+00 4.5565125211e+00 
55200 4.7242795378e+00 1.7777673809e-03 2.6306699735e+00 -4.5564540520e+00 2.6306699735e+00 4.5564540520e+00 
55300 4.7242793644e+00 1.7794261719e-03 2.6306361843e+00 -4.5563955275e+00 2.6306361843e+00 4.5563955275e+00 
55400 4.7242791905e+00 1.7810817113e-03 2.6306023632e+00 -4.5563369475e+00 2.6306023632e+00 4.5563369475e+00 
55500 4.7242790163e+00 1.7827341864e-03 2.6305685101e+00 -4.5562783123e+00 2.6305685101e+00 4.5562783123e+00 
55600 4.7242788416e+00 1.7843837823e-03 2.6305346252e+00 -4.5562196220e+00 2.6305346252e+00 4.5562196220e+00 
55700 4.7242786665e+00 1.7860306817e-03 2.6305007086e+00 -4.5561608766e+00 2.6305007086e+00 4.5561608766e+00 
55800 4.7242784910e+00 1.7876750654e-03 2.6304667601e+00 -4.5561020762e+00 2.6304667601e+00 4.5561020762e+00 
55900 4.7242783151e+00 1.7893171119e-03 2.6304327800e+00 -4.5560432209e+00 2.6304327800e+00 4.5560432209e+00 
56000 4.7242781387e+00 1.7909569976e-03 2.6303987683e+00 -4.5559843108e+00 2.6303987683e+00 4.5559843108e+00 
56100 4.7242779619e+00 1.7925948971e-03 2.6303647249e+00 -4.5559253459e+00 2.6303647249e+00 4.5559253459e+00 
56200 4.7242777847e+00 1.7942309826e-03 2.6303306499e+00 -4.5558663264e+00 2.6303306499e+00 4.5558663264e+00 
56300 4.7242776071e+00 1.7958654243e-03 2.6302965434e+00 -4.5558072522e+00 2.6302965434e+00 4.5558072522e+00 
56400 4.7242774289e+00 1.7974983906e-03 2.6302624054e+00 -4.5557481234e+00 2.6302624054e+00 4.5557481234e+00 
56500 4.7242772504e+00 1.7991300476e-03 2.6302282359e+00 -4.5556889402e+00 2.6302282359e+00 4.5556889402e+00 
56600 4.7242770713e+00 1.8007605597e-03 2.6301940350e+00 -4.5556297024e+00 2.6301940350e+00 4.5556297024e+00 
56700 4.7242768919e+00 1.8023900891e-03 2.6301598026e+00 -4.5555704101e+00 2.6301598026e+00 4.5555704101e+00 
56800 4.7242767119e+00 1.8040187963e-03 2.6301255388e+00 -4.5555110635e+00 2.6301255388e+00 4.5555110635e+00 
56900 4.7242765315e+00 1.8056468395e-03 2.6300912436e+00 -4.5554516624e+00 2.6300912436e+00 4.5554516624e+00 
57000 4.7242763506e+00 1.8072743755e-03 2.6300569169e+00 -4.5553922069e+00 2.6300569169e+00 4.5553922069e+00 
57100 4.7242761692e+00 1.8089015588e-03 2.6300225589e+00 -4.5553326971e+00 2.6300225589e+00 4.5553326971e+00 
57200 4.7242759874e+00 1.8105285423e-03 2.6299881695e+00 -4.5552731329e+00 2.6299881695e+00 4.5552731329e+00 
57300 4.7242758050e+00 1.8121554768e-03 2.6299537488e+00 -4.5552135144e+00 2.6299537488e+00 4.5552135144e+00 
57400 4.7242756222e+00 1.8137825116e-03 2.6299192966e+00 -4.5551538415e+00 2.6299192966e+00 4.5551538415e+00 
57500 4.7242754388e+00 1.8154097939e-03 2.6298848131e+00 -4.5550941143e+00 2.6298848131e+00 4.5550941143e+00 
57600 4.7242752550e+00 1.8170374692e-03 2.6298502981e+00 -4.5550343327e+00 2.6298502981e+00 4.5550343327e+00 
57700 4.7242750707e+00 1.8186656813e-03 2.6298157518e+00 -4.5549744967e+00 2.6298157518e+00 4.5549744967e+00 
57800 4.7242748858e+00 1.8202945723e-03 2.6297811741e+00 -4.5549146063e+00 2.6297811741e+00 4.5549146063e+00 
57900 4.7242747005e+00 1.8219242823e-03 2.6297465649e+00 -4.5548546614e+00 2.6297465649e+00 4.5548546614e+00 
58000 4.7242745146e+00 1.8235549500e-03 2.6297119243e+00 -4.5547946622e+00 2.6297119243e+00 4.5547946622e+00 
58100 4.7242743282e+00 1.8251867123e-03 2.6296772522e+00 -4.5547346084e+00 2.6296772522e+00 4.5547346084e+00 
58200 4.7242741412e+00 1.8268197042e-03 2.6296425487e+00 -4.5546745001e+00 2.6296425487e+00 4.5546745001e+00 
58300 4.7242739538e+00 1.8284540593e-03 2.6296078136e+00 -4.5546143372e+00 2.6296078136e+00 4.5546143372e+00 
58400 4.7242737658e+00 1.8300899096e-03 2.6295730470e+00 -4.5545541197e+00 2.6295730470e+00 4.5545541197e+00 
58500 4.7242735772e+00 1.8317273853e-03 2.6295382489e+00 -4.5544938475e+00 2.6295382489e+00 4.5544938475e+00 
58600 4.7242733882e+00 1.8333666149e-03 2.6295034191e+00 -4.5544335206e+00 2.6295034191e+00 4.5544335206e+00 
58700 4.7242731985e+00 1.8350077257e-03 2.6294685577e+00 -4.5543731389e+00 2.6294685577e+00 4.5543731389e+00 
58800 4.7242730083e+00 1.8366508430e-03 2.6294336647e+00 -4.5543127024e+00 2.6294336647e+00 4.5543127024e+00 
58900 4.7242728176e+00 1.8382960908e-03 2.6293987399e+00 -4.5542522109e+00 2.6293987399e+00 4.5542522109e+00 
59000 4.7242726263e+00 1.8399435915e-03 2.6293637834e+00 -4.5541916645e+00 2.6293637834e+00 4.5541916645e+00 
59100 4.7242724345e+00 1.8415934660e-03 2.6293287951e+00 -4.5541310629e+00 2.6293287951e+00 4.5541310629e+00 
59200 4.7242722420e+00 1.8432458335e-03 2.6292937750e+00 -4.5540704063e+00 2.6292937750e+00 4.5540704063e+00 
59300 4.7242720490e+00 1.8449008120e-03 2.6292587229e+00 -4.5540096944e+00 2.6292587229e+00 4.5540096944e+00 
59400 4.7242718555e+00 1.8465585179e-03 2.6292236390e+00 -4.5539489272e+00 2.6292236390e+00 4.5539489272e+00 
59500 4.7242716613e+00 1.8482190661e-03 2.6291885230e+00 -4.5538881045e+00 2.6291885230e+00 4.5538881045e+00 
59600 4.7242714666e+00 1.8498825700e-03 2.6291533750e+00 -4.5538272264e+00 2.6291533750e+00 4.5538272264e+00 
59700 4.7242712712e+00 1.8515491418e-03 2.6291181949e+00 -4.5537662926e+00 2.6291181949e+00 4.5537662926e+00 
59800 4.7242710753e+00 1.8532188921e-03 2.6290829826e+00 -4.5537053032e+00 2.6290829826e+00 4.5537053032e+00 
59900 4.7242708788e+00 1.8548919302e-03 2.6290477381e+00 -4.5536442579e+00 2.6290477381e+00 4.5536442579e+00 
60000 4.7242706817e+00 1.8565683639e-03 2.6290124613e+00 -4.5535831567e+00 2.6290124613e+00 4.5535831567e+00 
60100 4.7242704840e+00 1.8582482998e-03 2.6289771521e+00 -4.5535219994e+00 2.6289771521e+00 4.5535219994e+00 
60200 4.7242702857e+00 1.8599318429e-03 2.6289418106e+00 -4.5534607860e+00 2.6289418106e+00 4.5534607860e+00 
60300 4.7242700867e+00 1.8616190972e-03 2.6289064365e+00 -4.5533995163e+00 2.6289064365e+00 4.5533995163e+00 
60400 4.7242698872e+00 1.8633101652e-03 2.6288710298e+00 -4.5533381902e+00 2.6288710298e+00 4.5533381902e+00 
60500 4.7242696870e+00 1.8650051480e-03 2.6288355906e+00 -4.5532768076e+00 2.6288355906e+00 4.5532768076e+00 
60600 4.7242694862e+00 1.8667041456e-03 2.6288001186e+00 -4.5532153683e+00 2.6288001186e+00 4.5532153683e+00 
60700 4.7242692848e+00 1.8684072566e-03 2.6287646138e+00 -4.5531538722e+00 2.6287646138e+00 4.5531538722e+00 
60800 4.7242690827e+00 1.8701145784e-03 2.6287290761e+00 -4.5530923192e+00 2.6287290761e+00 4.5530923192e+00 
60900 4.7242688800e+00 1.8718262070e-03 2.6286935055e+00 -4.5530307090e+00 2.6286935055e+00 4.5530307090e+00 
61000 4.7242686767e+00 1.8735422375e-03 2.6286579018e+00 -4.5529690417e+00 2.6286579018e+00 4.5529690417e+00 
61100 4.7242684727e+00 1.8752627635e-03 2.6286222651e+00 -4.5529073170e+00 2.6286222651e+00 4.5529073170e+00 
61200 4.7242682681e+00 1.8769878774e-03 2.6285865951e+00 -4.5528455348e+00 2.6285865951e+00 4.5528455348e+00 
61300 4.7242680629e+00 1.8787176706e-03 2.6285508918e+00 -4.5527836948e+00 2.6285508918e+00 4.5527836948e+00 
61400 4.7242678569e+00 1.8804522331e-03 2.6285151551e+00 -4.5527217971e+00 2.6285151551e+00 4.5527217971e+00 
61500 4.7242676504e+00 1.8821916539e-03 2.6284793849e+00 -4.5526598414e+00 2.6284793849e+00 4.5526598414e+00 
61600 4.7242674431e+00 1.8839360207e-03 2.6284435812e+00 -4.5525978275e+00 2.6284435812e+00 4.5525978275e+00 
61700 4.7242672352e+00 1.8856854203e-03 2.6284077438e+00 -4.5525357553e+00 2.6284077438e+00 4.5525357553e+00 
61800 4.7242670266e+00 1.8874399380e-03 2.6283718726e+00 -4.5524736246e+00 2.6283718726e+00 4.5524736246e+00 
61900 4.7242668174e+00 1.8891996585e-03 2.6283359676e+00 -4.5524114353e+00 2.6283359676e+00 4.5524114353e+00 
62000 4.7242666075e+00 1.8909646649e-03 2.6283000286e+00 -4.5523491871e+00 2.6283000286e+00 4.5523491871e+00 
62100 4.7242663969e+00 1.8927350394e-03 2.6282640555e+00 -4.5522868799e+00 2.6282640555e+00 4.5522868799e+00 
62200 4.7242661856e+00 1.8945108633e-03 2.6282280483e+00 -4.5522245135e+00 2.6282280483e+00 4.5522245135e+00 
62300 4.7242659736e+00 1.8962922167e-03 2.6281920068e+00 -4.5521620878e+00 2.6281920068e+00 4.5521620878e+00 
62400 4.7242657609e+00 1.8980791785e-03 2.6281559309e+00 -4.5520996025e+00 2.6281559309e+00 4.5520996025e+00 
62500 4.7242655475e+00 1.8998718268e-03 2.6281198205e+00 -4.5520370575e+00 2.6281198205e+00 4.5520370575e+00 
62600 4.7242653335e+00 1.9016702386e-03 2.6280836755e+00 -4.5519744525e+00 2.6280836755e+00 4.5519744525e+00 
62700 4.7242651187e+00 1.9034744898e-03 2.6280474958e+00 -4.5519117874e+00 2.6280474958e+00 4.5519117874e+00 
62800 4.7242649032e+00 1.9052846555e-03 2.6280112813e+00 -4.5518490620e+00 2.6280112813e+00 4.5518490620e+00 
62900 4.7242646870e+00 1.9071008095e-03 2.6279750318e+00 -4.5517862761e+00 2.6279750318e+00 4.5517862761e+00 
63000 4.7242644701e+00 1.9089230250e-03 2.6279387473e+00 -4.5517234295e+00 2.6279387473e+00 4.5517234295e+00 
63100 4.7242642525e+00 1.9107513739e-03 2.6279024276e+00 -4.5516605219e+00 2.6279024276e+00 4.5516605219e+00 
63200 4.7242640341e+00 1.9125859274e-03 2.6278660726e+00 -4.5515975532e+00 2.6278660726e+00 4.5515975532e+00 
63300 4.7242638151e+00 1.9144267556e-03 2.6278296822e+00 -4.5515345232e+00 2.6278296822e+00 4.5515345232e+00 
63400 4.7242635952e+00 1.9162739277e-03 2.6277932563e+00 -4.5514714317e+00 2.6277932563e+00 4.5514714317e+00 
63500 4.7242633747e+00 1.9181275120e-03 2.6277567947e+00 -4.5514082784e+00 2.6277567947e+00 4.5514082784e+00 
63600 4.7242631534e+00 1.9199875759e-03 2.6277202974e+00 -4.5513450631e+00 2.6277202974e+00 4.5513450631e+00 
63700 4.7242629314e+00 1.9218541859e-03 2.6276837641e+00 -4.5512817857e+00 2.6276837641e+00 4.5512817857e+00 
63800 4.7242627086e+00 1.9237274076e-03 2.6276471948e+00 -4.5512184458e+00 2.6276471948e+00 4.5512184458e+00 
63900 4.7242624851e+00 1.9256073058e-03 2.6276105894e+00 -4.5511550434e+00 2.6276105894e+00 4.5511550434e+00 
64000 4.7242622609e+00 1.9274939442e-03 2.6275739477e+00 -4.5510915781e+00 2.6275739477e+00 4.5510915781e+00 
64100 4.7242620358e+00 1.9293873860e-03 2.6275372696e+00 -4.5510280497e+00 2.6275372696e+00 4.5510280497e+00 
64200 4.7242618100e+00 1.9312876933e-03 2.6275005549e+00 -4.5509644580e+00 2.6275005549e+00 4.5509644580e+00 
64300 4.7242615835e+00 1.9331949274e-03 2.6274638036e+00 -4.5509008029e+00 2.6274638036e+00 4.5509008029e+00 
64400 4.7242613562e+00 1.9351091489e-03 2.6274270154e+00 -4.5508370839e+00 2.6274270154e+00 4.5508370839e+00 
64500 4.7242611281e+00 1.9370304174e-03 2.6273901904e+00 -4.5507733010e+00 2.6273901904e+00 4.5507733010e+00 
64600 4.7242608992e+00 1.9389587918e-03 2.6273533282e+00 -4.5507094539e+00 2.6273533282e+00 4.5507094539e+00 
64700 4.7242606696e+00 1.9408943302e-03 2.6273164288e+00 -4.5506455422e+00 2.6273164288e+00 4.5506455422e+00 
64800 4.7242604391e+00 1.9428370901e-03 2.6272794921e+00 -4.5505815659e+00 2.6272794921e+00 4.5505815659e+00 
64900 4.7242602079e+00 1.9447871278e-03 2.6272425178e+00 -4.5505175247e+00 2.6272425178e+00 4.5505175247e+00 
65000 4.7242599759e+00 1.9467444992e-03 2.6272055060e+00 -4.5504534183e+00 2.6272055060e+00 4.5504534183e+00 
65100 4.7242597431e+00 1.9487092594e-03 2.6271684564e+00 -4.5503892464e+00 2.6271684564e+00 4.5503892464e+00 
65200 4.7242595095e+00 1.9506814625e-03 2.6271313688e+00 -4.5503250089e+00 2.6271313688e+00 4.5503250089e+00 
65300 4.7242592751e+00 1.9526611622e-03 2.6270942432e+00 -4.5502607055e+00 2.6270942432e+00 4.5502607055e+00 
65400 4.7242590399e+00 1.9546484113e-03 2.6270570794e+00 -4.5501963359e+00 2.6270570794e+00 4.5501963359e+00 
65500 4.7242588039e+00 1.9566432618e-03 2.6270198772e+00 -4.5501318999e+00 2.6270198772e+00 4.5501318999e+00 
65600 4.7242585670e+00 1.9586457652e-03 2.6269826366e+00 -4.5500673972e+00 2.6269826366e+00 4.5500673972e+00 
65700 4.7242583294e+00 1.9606559722e-03 2.6269453573e+00 -4.5500028275e+00 2.6269453573e+00 4.5500028275e+00 
65800 4.7242580909e+00 1.9626739328e-03 2.6269080392e+00 -4.5499381907e+00 2.6269080392e+00 4.5499381907e+00 
65900 4.7242578516e+00 1.9646996963e-03 2.6268706822e+00 -4.5498734865e+00 2.6268706822e+00 4.5498734865e+00 
66000 4.7242576115e+00 1.9667333113e-03 2.6268332861e+00 -4.5498087145e+00 2.6268332861e+00 4.5498087145e+00 
66100 4.7242573705e+00 1.9687748259e-03 2.6267958507e+00 -4.5497438746e+00 2.6267958507e+00 4.5497438746e+00 
66200 4.7242571287e+00 1.9708242874e-03 2.6267583760e+00 -4.5496789664e+00 2.6267583760e+00 4.5496789664e+00 
66300 4.7242568861e+00 1.9728817425e-03 2.6267208617e+00 -4.5496139897e+00 2.6267208617e+00 4.5496139897e+00 
66400 4.7242566426e+00 1.9749472372e-03 2.6266833077e+00 -4.5495489443e+00 2.6266833077e+00 4.5495489443e+00 
66500 4.7242563982e+00 1.9770208170e-03 2.6266457138e+00 -4.5494838299e+00 2.6266457138e+00 4.5494838299e+00 
66600 4.7242561530e+00 1.9791025267e-03 2.6266080800e+00 -4.5494186461e+00 2.6266080800e+00 4.5494186461e+00 
66700 4.7242559070e+00 1.9811924104e-03 2.6265704060e+00 -4.5493533928e+00 2.6265704060e+00 4.5493533928e+00 
66800 4.7242556601e+00 1.9832905117e-03 2.6265326916e+00 -4.5492880696e+00 2.6265326916e+00 4.5492880696e+00 
66900 4.7242554123e+00 1.9853968736e-03 2.6264949368e+00 -4.5492226763e+00 2.6264949368e+00 4.5492226763e+00 
67000 4.7242551637e+00 1.9875115385e-03 2.6264571413e+00 -4.5491572127e+00 2.6264571413e+00 4.5491572127e+00 
67100 4.7242549142e+00 1.9896345483e-03 2.6264193051e+00 -4.5490916783e+00 2.6264193051e+00 4.5490916783e+00 
67200 4.7242546638e+00 1.9917659441e-03 2.6263814278e+00 -4.5490260730e+00 2.6263814278e+00 4.5490260730e+00 
67300 4.7242544125e+00 1.9939057666e-03 2.6263435095e+00 -4.5489603965e+00 2.6263435095e+00 4.5489603965e+00 
67400 4.7242541603e+00 1.9960540560e-03 2.6263055498e+00 -4.5488946485e+00 2.6263055498e+00 4.5488946485e+00 
67500 4.7242539073e+00 1.9982108517e-03 2.6262675487e+00 -4.5488288287e+00 2.6262675487e+00 4.5488288287e+00 
67600 4.7242536534e+00 2.0003761929e-03 2.6262295061e+00 -4.5487629368e+00 2.6262295061e+00 4.5487629368e+00 
67700 4.7242533985e+00 2.0025501180e-03 2.6261914216e+00 -4.5486969726e+00 2.6261914216e+00 4.5486969726e+00 
67800 4.7242531428e+00 2.0047326649e-03 2.6261532952e+00 -4.5486309357e+00 2.6261532952e+00 4.5486309357e+00 
67900 4.7242528862e+00 2.0069238711e-03 2.6261151266e+00 -4.5485648259e+00 2.6261151266e+00 4.5485648259e+00 
68000 4.7242526286e+00 2.0091237734e-03 2.6260769158e+00 -4.5484986428e+00 2.6260769158e+00 4.5484986428e+00 
68100 4.7242523702e+00 2.0113324084e-03 2.6260386626e+00 -4.5484323863e+00 2.6260386626e+00 4.5484323863e+00 
68200 4.7242521108e+00 2.0135498118e-03 2.6260003668e+00 -4.5483660559e+00 2.6260003668e+00 4.5483660559e+00 
68300 4.7242518505e+00 2.0157760192e-03 2.6259620281e+00 -4.5482996515e+00 2.6259620281e+00 4.5482996515e+00 
68400 4.7242515893e+00 2.0180110654e-03 2.6259236466e+00 -4.5482331726e+00 2.6259236466e+00 4.5482331726e+00 
68500 4.7242513271e+00 2.0202549848e-03 2.6258852219e+00 -4.5481666191e+00 2.6258852219e+00 4.5481666191e+00 
68600 4.7242510641e+00 2.0225078115e-03 2.6258467539e+00 -4.5480999906e+00 2.6258467539e+00 4.5480999906e+00 
68700 4.7242508000e+00 2.0247695789e-03 2.6258082424e+00 -4.5480332868e+00 2.6258082424e+00 4.5480332868e+00 
68800 4.7242505351e+00 2.0270403201e-03 2.6257696874e+00 -4.5479665075e+00 2.6257696874e+00 4.5479665075e+00 
68900 4.7242502692e+00 2.0293200677e-03 2.6257310885e+00 -4.5478996523e+00 2.6257310885e+00 4.5478996523e+00 
69000 4.7242500023e+00 2.0316088537e-03 2.6256924456e+00 -4.5478327209e+00 2.6256924456e+00 4.5478327209e+00 
69100 4.7242497345e+00 2.0339067099e-03 2.6256537586e+00 -4.5477657130e+00 2.6256537586e+00 4.5477657130e+00 
69200 4.7242494658e+00 2.0362136675e-03 2.6256150273e+00 -4.5476986284e+00 2.6256150273e+00 4.5476986284e+00 
69300 4.7242491961e+00 2.0385297575e-03 2.6255762514e+00 -4.5476314666e+00 2.6255762514e+00 4.5476314666e+00 
69400 4.7242489254e+00 2.0408550100e-03 2.6255374309e+00 -4.5475642275e+00 2.6255374309e+00 4.5475642275e+00 
69500 4.7242486537e+00 2.0431894553e-03 2.6254985655e+00 -4.5474969107e+00 2.6254985655e+00 4.5474969107e+00 
69600 4.7242483811e+00 2.0455331228e-03 2.6254596551e+00 -4.5474295159e+00 2.6254596551e+00 4.5474295159e+00 
69700 4.7242481075e+00 2.0478860417e-03 2.6254206995e+00 -4.5473620428e+00 2.6254206995e+00 4.5473620428e+00 
69800 4.7242478329e+00 2.0502482408e-03 2.6253816985e+00 -4.5472944911e+00 2.6253816985e+00 4.5472944911e+00 
69900 4.7242475573e+00 2.0526197484e-03 2.6253426519e+00 -4.5472268604e+00 2.6253426519e+00 4.5472268604e+00 
70000 4.7242472808e+00 2.0550005926e-03 2.6253035596e+00 -4.5471591506e+00 2.6253035596e+00 4.5471591506e+00 
70100 4.7242470032e+00 2.0573908009e-03 2.6252644214e+00 -4.5470913611e+00 2.6252644214e+00 4.5470913611e+00 
70200 4.7242467247e+00 2.0597904006e-03 2.6252252370e+00 -4.5470234918e+00 2.6252252370e+00 4.5470234918e+00 
70300 4.7242464451e+00 2.0621994186e-03 2.6251860064e+00 -4.5469555424e+00 2.6251860064e+00 4.5469555424e+00 
70400 4.7242461645e+00 2.0646178813e-03 2.6251467293e+00 -4.5468875124e+00 2.6251467293e+00 4.5468875124e+00 
70500 4.7242458830e+00 2.0670458149e-03 2.6251074055e+00 -4.5468194017e+00 2.6251074055e+00 4.5468194017e+00 
70600 4.7242456004e+00 2.0694832451e-03 2.6250680349e+00 -4.5467512098e+00 2.6250680349e+00 4.5467512098e+00 
70700 4.7242453168e+00 2.0719301974e-03 2.6250286173e+00 -4.5466829365e+00 2.6250286173e+00 4.5466829365e+00 
70800 4.7242450321e+00 2.0743866968e-03 2.6249891525e+00 -4.5466145815e+00 2.6249891525e+00 4.5466145815e+00 
70900 4.7242447464e+00 2.0768527682e-03 2.6249496403e+00 -4.5465461443e+00 2.6249496403e+00 4.5465461443e+00 
71000 4.7242444597e+00 2.0793284359e-03 2.6249100806e+00 -4.5464776248e+00 2.6249100806e+00 4.5464776248e+00 
71100 4.7242441720e+00 2.0818137239e-03 2.6248704730e+00 -4.5464090226e+00 2.6248704730e+00 4.5464090226e+00 
71200 4.7242438832e+00 2.0843086562e-03 2.6248308176e+00 -4.5463403373e+00 2.6248308176e+00 4.5463403373e+00 
71300 4.7242435934e+00 2.0868132560e-03 2.6247911140e+00 -4.5462715687e+00 2.6247911140e+00 4.5462715687e+00 
71400 4.7242433025e+00 2.0893275465e-03 2.6247513621e+00 -4.5462027164e+00 2.6247513621e+00 4.5462027164e+00 
71500 4.7242430106e+00 2.0918515506e-03 2.6247115617e+00 -4.5461337802e+00 2.6247115617e+00 4.5461337802e+00 
71600 4.7242427176e+00 2.0943852907e-03 2.6246717127e+00 -4.5460647595e+00 2.6246717127e+00 4.5460647595e+00 
71700 4.7242424236e+00 2.0969287891e-03 2.6246318147e+00 -4.5459956543e+00 2.6246318147e+00 4.5459956543e+00 
71800 4.7242421285e+00 2.0994820676e-03 2.6245918677e+00 -4.5459264640e+00 2.6245918677e+00 4.5459264640e+00 
71900 4.7242418323e+00 2.1020451480e-03 2.6245518715e+00 -4.5458571885e+00 2.6245518715e+00 4.5458571885e+00 
72000 4.7242415350e+00 2.1046180514e-03 2.6245118258e+00 -4.5457878273e+00 2.6245118258e+00 4.5457878273e+00 
72100 4.7242412366e+00 2.1072007991e-03 2.6244717305e+00 -4.5457183802e+00 2.6244717305e+00 4.5457183802e+00 
72200 4.7242409372e+00 2.1097934117e-03 2.6244315853e+00 -4.5456488468e+00 2.6244315853e+00 4.5456488468e+00 
72300 4.7242406367e+00 2.1123959099e-03 2.6243913902e+00 -4.5455792268e+00 2.6243913902e+00 4.5455792268e+00 
72400 4.7242403351e+00 2.1150083137e-03 2.6243511449e+00 -4.5455095198e+00 2.6243511449e+00 4.5455095198e+00 
72500 4.7242400323e+00 2.1176306432e-03 2.6243108491e+00 -4.5454397255e+00 2.6243108491e+00 4.5454397255e+00 
72600 4.7242397285e+00 2.1202629182e-03 2.6242705028e+00 -4.5453698437e+00 2.6242705028e+00 4.5453698437e+00 
72700 4.7242394236e+00 2.1229051580e-03 2.6242301057e+00 -4.5452998739e+00 2.6242301057e+00 4.5452998739e+00 
72800 4.7242391175e+00 2.1255573820e-03 2.6241896577e+00 -4.5452298158e+00 2.6241896577e+00 4.5452298158e+00 
72900 4.7242388104e+00 2.1282196090e-03 2.6241491585e+00 -4.5451596691e+00 2.6241491585e+00 4.5451596691e+00 
73000 4.7242385021e+00 2.1308918577e-03 2.6241086079e+00 -4.5450894335e+00 2.6241086079e+00 4.5450894335e+00 
73100 4.7242381927e+00 2.1335741467e-03 2.6240680058e+00 -4.5450191086e+00 2.6240680058e+00 4.5450191086e+00 
73200 4.7242378821e+00 2.1362664942e-03 2.6240273520e+00 -4.5449486941e+00 2.6240273520e+00 4.5449486941e+00 
73300 4.7242375705e+00 2.1389689183e-03 2.6239866462e+00 -4.5448781896e+00 2.6239866462e+00 4.5448781896e+00 
73400 4.7242372576e+00 2.1416814367e-03 2.6239458883e+00 -4.5448075949e+00 2.6239458883e+00 4.5448075949e+00 
73500 4.7242369437e+00 2.1444040669e-03 2.6239050781e+00 -4.5447369095e+00 2.6239050781e+00 4.5447369095e+00 
73600 4.7242366286e+00 2.1471368264e-03 2.6238642154e+00 -4.5446661332e+00 2.6238642154e+00 4.5446661332e+00 
73700 4.7242363123e+00 2.1498797322e-03 2.6238232999e+00 -4.5445952656e+00 2.6238232999e+00 4.5445952656e+00 
73800 4.7242359949e+00 2.1526328013e-03 2.6237823316e+00 -4.5445243063e+00 2.6237823316e+00 4.5445243063e+00 
73900 4.7242356763e+00 2.1553960504e-03 2.6237413101e+00 -4.5444532551e+00 2.6237413101e+00 4.5444532551e+00 
74000 4.7242353565e+00 2.1581694960e-03 2.6237002354e+00 -4.5443821115e+00 2.6237002354e+00 4.5443821115e+00 
74100 4.7242350356e+00 2.1609531544e-03 2.6236591071e+00 -4.5443108753e+00 2.6236591071e+00 4.5443108753e+00 
74200 4.7242347134e+00 2.1637470417e-03 2.6236179252e+00 -4.5442395461e+00 2.6236179252e+00 4.5442395461e+00 
74300 4.7242343901e+00 2.1665511739e-03 2.6235766894e+00 -4.5441681235e+00 2.6235766894e+00 4.5441681235e+00 
74400 4.7242340657e+00 2.1693655666e-03 2.6235353994e+00 -4.5440966073e+00 2.6235353994e+00 4.5440966073e+00 
74500 4.7242337400e+00 2.1721902354e-03 2.6234940552e+00 -4.5440249970e+00 2.6234940552e+00 4.5440249970e+00 
74600 4.7242334131e+00 2.1750251957e-03 2.6234526565e+00 -4.5439532924e+00 2.6234526565e+00 4.5439532924e+00 
74700 4.7242330850e+00 2.1778704626e-03 2.6234112032e+00 -4.5438814930e+00 2.6234112032e+00 4.5438814930e+00 
74800 4.7242327557e+00 2.1807260512e-03 2.6233696949e+00 -4.5438095986e+00 2.6233696949e+00 4.5438095986e+00 
74900 4.7242324252e+00 2.1835919761e-03 2.6233281316e+00 -4.5437376088e+00 2.6233281316e+00 4.5437376088e+00 
75000 4.7242320935e+00 2.1864682522e-03 2.6232865129e+00 -4.5436655232e+00 2.6232865129e+00 4.5436655232e+00 
75100 4.7242317606e+00 2.1893548939e-03 2.6232448388e+00 -4.5435933416e+00 2.6232448388e+00 4.5435933416e+00 
75200 4.7242314264e+00 2.1922519156e-03 2.6232031090e+00 -4.5435210634e+00 2.6232031090e+00 4.5435210634e+00 
75300 4.7242310910e+00 2.1951593313e-03 2.6231613234e+00 -4.5434486885e+00 2.6231613234e+00 4.5434486885e+00 
75400 4.7242307544e+00 2.1980771550e-03 2.6231194816e+00 -4.5433762165e+00 2.6231194816e+00 4.5433762165e+00 
75500 4.7242304165e+00 2.2010054008e-03 2.6230775836e+00 -4.5433036469e+00 2.6230775836e+00 4.5433036469e+00 
75600 4.7242300774e+00 2.2039440821e-03 2.6230356291e+00 -4.5432309796e+00 2.6230356291e+00 4.5432309796e+00 
75700 4.7242297370e+00 2.2068932127e-03 2.6229936178e+00 -4.5431582140e+00 2.6229936178e+00 4.5431582140e+00 
75800 4.7242293953e+00 2.2098528058e-03 2.6229515497e+00 -4.5430853499e+00 2.6229515497e+00 4.5430853499e+00 
75900 4.7242290524e+00 2.2128228748e-03 2.6229094245e+00 -4.5430123870e+00 2.6229094245e+00 4.5430123870e+00 
76000 4.7242287083e+00 2.2158034328e-03 2.6228672421e+00 -4.5429393247e+00 2.6228672421e+00 4.5429393247e+00 
76100 4.7242283628e+00 2.2187944927e-03 2.6228250021e+00 -4.5428661629e+00 2.6228250021e+00 4.5428661629e+00 
76200 4.7242280161e+00 2.2217960675e-03 2.6227827044e+00 -4.5427929012e+00 2.6227827044e+00 4.5427929012e+00 
76300 4.7242276681e+00 2.2248081698e-03 2.6227403488e+00 -4.5427195392e+00 2.6227403488e+00 4.5427195392e+00 
76400 4.7242273188e+00 2.2278308122e-03 2.6226979351e+00 -4.5426460765e+00 2.6226979351e+00 4.5426460765e+00 
76500 4.7242269683e+00 2.2308640071e-03 2.6226554631e+00 -4.5425725128e+00 2.6226554631e+00 4.5425725128e+00 
76600 4.7242266164e+00 2.2339077670e-03 2.6226129326e+00 -4.5424988478e+00 2.6226129326e+00 4.5424988478e+00 
76700 4.7242262632e+00 2.2369621041e-03 2.6225703433e+00 -4.5424250811e+00 2.6225703433e+00 4.5424250811e+00 
76800 4.7242259087e+00 2.2400270303e-03 2.6225276952e+00 -4.5423512123e+00 2.6225276952e+00 4.5423512123e+00 
76900 4.7242255529e+00 2.2431025578e-03 2.6224849879e+00 -4.5422772411e+00 2.6224849879e+00 4.5422772411e+00 
77000 4.7242251958e+00 2.2461886984e-03 2.6224422213e+00 -4.5422031671e+00 2.6224422213e+00 4.5422031671e+00 
77100 4.7242248373e+00 2.2492854639e-03 2.6223993951e+00 -4.5421289901e+00 2.6223993951e+00 4.5421289901e+00 
77200 4.7242244775e+00 2.2523928659e-03 2.6223565092e+00 -4.5420547095e+00 2.6223565092e+00 4.5420547095e+00 
77300 4.7242241164e+00 2.2555109159e-03 2.6223135633e+00 -4.5419803251e+00 2.6223135633e+00 4.5419803251e+00 
77400 4.7242237539e+00 2.2586396254e-03 2.6222705573e+00 -4.5419058365e+00 2.6222705573e+00 4.5419058365e+00 
77500 4.7242233901e+00 2.2617790058e-03 2.6222274910e+00 -4.5418312434e+00 2.6222274910e+00 4.5418312434e+00 
77600 4.7242230250e+00 2.2649290683e-03 2.6221843640e+00 -4.5417565453e+00 2.6221843640e+00 4.5417565453e+00 
77700 4.7242226585e+00 2.2680898240e-03 2.6221411763e+00 -4.5416817420e+00 2.6221411763e+00 4.5416817420e+00 
77800 4.7242222906e+00 2.2712612840e-03 2.6220979276e+00 -4.5416068331e+00 2.6220979276e+00 4.5416068331e+00 
77900 4.7242219213e+00 2.2744434593e-03 2.6220546177e+00 -4.5415318182e+00 2.6220546177e+00 4.5415318182e+00 
78000 4.7242215507e+00 2.2776363607e-03 2.6220112465e+00 -4.5414566969e+00 2.6220112465e+00 4.5414566969e+00 
78100 4.7242211787e+00 2.2808399990e-03 2.6219678136e+00 -4.5413814689e+00 2.6219678136e+00 4.5413814689e+00 
78200 4.7242208053e+00 2.2840543849e-03 2.6219243189e+00 -4.5413061339e+00 2.6219243189e+00 4.5413061339e+00 
78300 4.7242204306e+00 2.2872795291e-03 2.6218807622e+00 -4.5412306915e+00 2.6218807622e+00 4.5412306915e+00 
78400 4.7242200544e+00 2.2905154420e-03 2.6218371432e+00 -4.5411551413e+00 2.6218371432e+00 4.5411551413e+00 
78500 4.7242196768e+00 2.2937621341e-03 2.6217934619e+00 -4.5410794829e+00 2.6217934619e+00 4.5410794829e+00 
78600 4.7242192978e+00 2.2970196159e-03 2.6217497178e+00 -4.5410037160e+00 2.6217497178e+00 4.5410037160e+00 
78700 4.7242189175e+00 2.3002878976e-03 2.6217059110e+00 -4.5409278403e+00 2.6217059110e+00 4.5409278403e+00 
78800 4.7242185356e+00 2.3035669895e-03 2.6216620410e+00 -4.5408518553e+00 2.6216620410e+00 4.5408518553e+00 
78900 4.7242181524e+00 2.3068569016e-03 2.6216181078e+00 -4.5407757608e+00 2.6216181078e+00 4.5407757608e+00 
79000 4.7242177677e+00 2.3101576442e-03 2.6215741111e+00 -4.5406995563e+00 2.6215741111e+00 4.5406995563e+00 
79100 4.7242173816e+00 2.3134692273e-03 2.6215300507e+00 -4.5406232415e+00 2.6215300507e+00 4.5406232415e+00 
79200 4.7242169941e+00 2.3167916607e-03 2.6214859265e+00 -4.5405468160e+00 2.6214859265e+00 4.5405468160e+00 
79300 4.7242166051e+00 2.3201249544e-03 2.6214417381e+00 -4.5404702794e+00 2.6214417381e+00 4.5404702794e+00 
79400 4.7242162147e+00 2.3234691183e-03 2.6213974854e+00 -4.5403936315e+00 2.6213974854e+00 4.5403936315e+00 
79500 4.7242158228e+00 2.3268241622e-03 2.6213531681e+00 -4.5403168717e+00 2.6213531681e+00 4.5403168717e+00 
79600 4.7242154294e+00 2.3301900957e-03 2.6213087861e+00 -4.5402399999e+00 2.6213087861e+00 4.5402399999e+00 
79700 4.7242150346e+00 2.3335669285e-03 2.6212643392e+00 -4.5401630155e+00 2.6212643392e+00 4.5401630155e+00 
79800 4.7242146383e+00 2.3369546702e-03 2.6212198270e+00 -4.5400859183e+00 2.6212198270e+00 4.5400859183e+00 
79900 4.7242142405e+00 2.3403533305e-03 2.6211752496e+00 -4.5400087078e+00 2.6211752496e+00 4.5400087078e+00 
80000 4.7242138412e+00 2.3437629188e-03 2.6211306065e+00 -4.5399313837e+00 2.6211306065e+00 4.5399313837e+00 
80100 4.7242134404e+00 2.3471834445e-03 2.6210858976e+00 -4.5398539456e+00 2.6210858976e+00 4.5398539456e+00 
80200 4.7242130382e+00 2.3506149172e-03 2.6210411227e+00 -4.5397763933e+00 2.6210411227e+00 4.5397763933e+00 
80300 4.7242126344e+00 2.3540573461e-03 2.6209962816e+00 -4.5396987262e+00 2.6209962816e+00 4.5396987262e+00 
80400 4.7242122291e+00 2.3575107407e-03 2.6209513740e+00 -4.5396209440e+00 2.6209513740e+00 4.5396209440e+00 
80500 4.7242118223e+00 2.3609751101e-03 2.6209063998e+00 -4.5395430464e+00 2.6209063998e+00 4.5395430464e+00 
80600 4.7242114140e+00 2.3644504637e-03 2.6208613588e+00 -4.5394650330e+00 2.6208613588e+00 4.5394650330e+00 
80700 4.7242110041e+00 2.3679368106e-03 2.6208162506e+00 -4.5393869034e+00 2.6208162506e+00 4.5393869034e+00 
80800 4.7242105927e+00 2.3714341600e-03 2.6207710752e+00 -4.5393086572e+00 2.6207710752e+00 4.5393086572e+00 
80900 4.7242101798e+00 2.3749425211e-03 2.6207258323e+00 -4.5392302942e+00 2.6207258323e+00 4.5392302942e+00 
81000 4.7242097653e+00 2.3784619029e-03 2.6206805216e+00 -4.5391518138e+00 2.6206805216e+00 4.5391518138e+00 
81100 4.7242093492e+00 2.3819923146e-03 2.6206351430e+00 -4.5390732158e+00 2.6206351430e+00 4.5390732158e+00 
81200 4.7242089316e+00 2.3855337651e-03 2.6205896963e+00 -4.5389944998e+00 2.6205896963e+00 4.5389944998e+00 
81300 4.7242085124e+00 2.3890862635e-03 2.6205441812e+00 -4.5389156654e+00 2.6205441812e+00 4.5389156654e+00 
81400 4.7242080917e+00 2.3926498187e-03 2.6204985976e+00 -4.5388367122e+00 2.6204985976e+00 4.5388367122e+00 
81500 4.7242076694e+00 2.3962244398e-03 2.6204529452e+00 -4.5387576399e+00 2.6204529452e+00 4.5387576399e+00 
81600 4.7242072455e+00 2.3998101355e-03 2.6204072237e+00 -4.5386784480e+00 2.6204072237e+00 4.5386784480e+00 
81700 4.7242068200e+00 2.4034069149e-03 2.6203614331e+00 -4.5385991363e+00 2.6203614331e+00 4.5385991363e+00 
81800 4.7242063928e+00 2.4070147868e-03 2.6203155730e+00 -4.5385197043e+00 2.6203155730e+00 4.5385197043e+00 
81900 4.7242059641e+00 2.4106337601e-03 2.6202696433e+00 -4.5384401516e+00 2.6202696433e+00 4.5384401516e+00 
82000 4.7242055338e+00 2.4142638436e-03 2.6202236437e+00 -4.5383604780e+00 2.6202236437e+00 4.5383604780e+00 
82100 4.7242051019e+00 2.4179050461e-03 2.6201775740e+00 -4.5382806830e+00 2.6201775740e+00 4.5382806830e+00 
82200 4.7242046683e+00 2.4215573764e-03 2.6201314340e+00 -4.5382007662e+00 2.6201314340e+00 4.5382007662e+00 
82300 4.7242042331e+00 2.4252208434e-03 2.6200852236e+00 -4.5381207274e+00 2.6200852236e+00 4.5381207274e+00 
82400 4.7242037963e+00 2.4288954557e-03 2.6200389424e+00 -4.5380405660e+00 2.6200389424e+00 4.5380405660e+00 
82500 4.7242033578e+00 2.4325812222e-03 2.6199925902e+00 -4.5379602817e+00 2.6199925902e+00 4.5379602817e+00 
82600 4.7242029177e+00 2.4362781516e-03 2.6199461669e+00 -4.5378798742e+00 2.6199461669e+00 4.5378798742e+00 
82700 4.7242024759e+00 2.4399862526e-03 2.6198996722e+00 -4.5377993431e+00 2.6198996722e+00 4.5377993431e+00 
82800 4.7242020325e+00 2.4437055340e-03 2.6198531060e+00 -4.5377186879e+00 2.6198531060e+00 4.5377186879e+00 
82900 4.7242015873e+00 2.4474360044e-03 2.6198064679e+00 -4.5376379084e+00 2.6198064679e+00 4.5376379084e+00 
83000 4.7242011406e+00 2.4511776725e-03 2.6197597578e+00 -4.5375570041e+00 2.6197597578e+00 4.5375570041e+00 
83100 4.7242006921e+00 2.4549305472e-03 2.6197129754e+00 -4.5374759747e+00 2.6197129754e+00 4.5374759747e+00 
83200 4.7242002419e+00 2.4586946370e-03 2.6196661206e+00 -4.5373948198e+00 2.6196661206e+00 4.5373948198e+00 
83300 4.7241997900e+00 2.4624699507e-03 2.6196191931e+00 -4.5373135390e+00 2.6196191931e+00 4.5373135390e+00 
83400 4.7241993365e+00 2.4662564969e-03 2.6195721927e+00 -4.5372321319e+00 2.6195721927e+00 4.5372321319e+00 
83500 4.7241988812e+00 2.4700542843e-03 2.6195251192e+00 -4.5371505982e+00 2.6195251192e+00 4.5371505982e+00 
83600 4.7241984242e+00 2.4738633216e-03 2.6194779724e+00 -4.5370689375e+00 2.6194779724e+00 4.5370689375e+00 
83700 4.7241979655e+00 2.4776836175e-03 2.6194307520e+00 -4.5369871493e+00 2.6194307520e+00 4.5369871493e+00 
83800 4.7241975050e+00 2.4815151806e-03 2.6193834578e+00 -4.5369052334e+00 2.6193834578e+00 4.5369052334e+00 
83900 4.7241970428e+00 2.4853580198e-03 2.6193360896e+00 -4.5368231894e+00 2.6193360896e+00 4.5368231894e+00 
84000 4.7241965789e+00 2.4892121435e-03 2.6192886473e+00 -4.5367410168e+00 2.6192886473e+00 4.5367410168e+00 
84100 4.7241961132e+00 2.4930775606e-03 2.6192411305e+00 -4.5366587152e+00 2.6192411305e+00 4.5366587152e+00 
84200 4.7241956457e+00 2.4969542796e-03 2.6191935390e+00 -4.5365762844e+00 2.6191935390e+00 4.5365762844e+00 
84300 4.7241951765e+00 2.5008423094e-03 2.6191458727e+00 -4.5364937239e+00 2.6191458727e+00 4.5364937239e+00 
84400 4.7241947055e+00 2.5047416587e-03 2.6190981313e+00 -4.5364110334e+00 2.6190981313e+00 4.5364110334e+00 
84500 4.7241942328e+00 2.5086523360e-03 2.6190503145e+00 -4.5363282124e+00 2.6190503145e+00 4.5363282124e+00 
84600 4.7241937582e+00 2.5125743502e-03 2.6190024223e+00 -4.5362452605e+00 2.6190024223e+00 4.5362452605e+00 
84700 4.7241932819e+00 2.5165077100e-03 2.6189544543e+00 -4.5361621775e+00 2.6189544543e+00 4.5361621775e+00 
84800 4.7241928037e+00 2.5204524241e-03 2.6189064103e+00 -4.5360789629e+00 2.6189064103e+00 4.5360789629e+00 
84900 4.7241923237e+00 2.5244085013e-03 2.6188582901e+00 -4.5359956163e+00 2.6188582901e+00 4.5359956163e+00 
85000 4.7241918420e+00 2.5283759504e-03 2.6188100935e+00 -4.5359121374e+00 2.6188100935e+00 4.5359121374e+00 
85100 4.7241913584e+00 2.5323547801e-03 2.6187618203e+00 -4.5358285257e+00 2.6187618203e+00 4.5358285257e+00 
85200 4.7241908729e+00 2.5363449991e-03 2.6187134702e+00 -4.5357447809e+00 2.6187134702e+00 4.5357447809e+00 
85300 4.7241903856e+00 2.5403466164e-03 2.6186650431e+00 -4.5356609026e+00 2.6186650431e+00 4.5356609026e+00 
85400 4.7241898965e+00 2.5443596407e-03 2.6186165386e+00 -4.5355768904e+00 2.6186165386e+00 4.5355768904e+00 
85500 4.7241894056e+00 2.5483840809e-03 2.6185679566e+00 -4.5354927439e+00 2.6185679566e+00 4.5354927439e+00 
85600 4.7241889127e+00 2.5524199457e-03 2.6185192969e+00 -4.5354084628e+00 2.6185192969e+00 4.5354084628e+00 
85700 4.7241884180e+00 2.5564672442e-03 2.6184705592e+00 -4.5353240466e+00 2.6184705592e+00 4.5353240466e+00 
85800 4.7241879215e+00 2.5605259851e-03 2.6184217433e+00 -4.5352394950e+00 2.6184217433e+00 4.5352394950e+00 
85900 4.7241874230e+00 2.5645961773e-03 2.6183728490e+00 -4.5351548076e+00 2.6183728490e+00 4.5351548076e+00 
86000 4.7241869226e+00 2.5686778299e-03 2.6183238761e+00 -4.5350699840e+00 2.6183238761e+00 4.5350699840e+00 
86100 4.7241864204e+00 2.5727709517e-03 2.6182748243e+00 -4.5349850238e+00 2.6182748243e+00 4.5349850238e+00 
86200 4.7241859162e+00 2.5768755516e-03 2.6182256934e+00 -4.5348999266e+00 2.6182256934e+00 4.5348999266e+00 
86300 4.7241854102e+00 2.5809916387e-03 2.6181764832e+00 -4.5348146921e+00 2.6181764832e+00 4.5348146921e+00 
86400 4.7241849022e+00 2.5851192221e-03 2.6181271935e+00 -4.5347293198e+00 2.6181271935e+00 4.5347293198e+00 
86500 4.7241843923e+00 2.5892583106e-03 2.6180778240e+00 -4.5346438093e+00 2.6180778240e+00 4.5346438093e+00 
86600 4.7241838804e+00 2.5934089134e-03 2.6180283746e+00 -4.5345581604e+00 2.6180283746e+00 4.5345581604e+00 
86700 4.7241833666e+00 2.5975710395e-03 2.6179788449e+00 -4.5344723725e+00 2.6179788449e+00 4.5344723725e+00 
86800 4.7241828509e+00 2.6017446980e-03 2.6179292348e+00 -4.5343864453e+00 2.6179292348e+00 4.5343864453e+00 
86900 4.7241823332e+00 2.6059298982e-03 2.6178795441e+00 -4.5343003785e+00 2.6178795441e+00 4.5343003785e+00 
87000 4.7241818135e+00 2.6101266490e-03 2.6178297725e+00 -4.5342141715e+00 2.6178297725e+00 4.5342141715e+00 
87100 4.7241812919e+00 2.6143349597e-03 2.6177799198e+00 -4.5341278241e+00 2.6177799198e+00 4.5341278241e+00 
87200 4.7241807682e+00 2.6185548395e-03 2.6177299857e+00 -4.5340413358e+00 2.6177299857e+00 4.5340413358e+00 
87300 4.7241802426e+00 2.6227862977e-03 2.6176799701e+00 -4.5339547062e+00 2.6176799701e+00 4.5339547062e+00 
87400 4.7241797150e+00 2.6270293434e-03 2.6176298728e+00 -4.5338679350e+00 2.6176298728e+00 4.5338679350e+00 
87500 4.7241791853e+00 2.6312839861e-03 2.6175796934e+00 -4.5337810218e+00 2.6175796934e+00 4.5337810218e+00 
87600 4.7241786537e+00 2.6355502349e-03 2.6175294318e+00 -4.5336939661e+00 2.6175294318e+00 4.5336939661e+00 
87700 4.7241781200e+00 2.6398280992e-03 2.6174790877e+00 -4.5336067676e+00 2.6174790877e+00 4.5336067676e+00 
87800 4.7241775843e+00 2.6441175885e-03 2.6174286609e+00 -4.5335194259e+00 2.6174286609e+00 4.5335194259e+00 
87900 4.7241770466e+00 2.6484187122e-03 2.6173781513e+00 -4.5334319406e+00 2.6173781513e+00 4.5334319406e+00 
88000 4.7241765068e+00 2.6527314795e-03 2.6173275585e+00 -4.5333443113e+00 2.6173275585e+00 4.5333443113e+00 
88100 4.7241759650e+00 2.6570559002e-03 2.6172768823e+00 -4.5332565376e+00 2.6172768823e+00 4.5332565376e+00 
88200 4.7241754210e+00 2.6613919836e-03 2.6172261225e+00 -4.5331686191e+00 2.6172261225e+00 4.5331686191e+00 
88300 4.7241748751e+00 2.6657397392e-03 2.6171752789e+00 -4.5330805554e+00 2.6171752789e+00 4.5330805554e+00 
88400 4.7241743270e+00 2.6700991768e-03 2.6171243513e+00 -4.5329923462e+00 2.6171243513e+00 4.5329923462e+00 
88500 4.7241737768e+00 2.6744703057e-03 2.6170733394e+00 -4.5329039909e+00 2.6170733394e+00 4.5329039909e+00 
88600 4.7241732246e+00 2.6788531358e-03 2.6170222429e+00 -4.5328154893e+00 2.6170222429e+00 4.5328154893e+00 
88700 4.7241726702e+00 2.6832476766e-03 2.6169710618e+00 -4.5327268410e+00 2.6169710618e+00 4.5327268410e+00 
88800 4.7241721138e+00 2.6876539379e-03 2.6169197957e+00 -4.5326380454e+00 2.6169197957e+00 4.5326380454e+00 
88900 4.7241715552e+00 2.6920719294e-03 2.6168684444e+00 -4.5325491024e+00 2.6168684444e+00 4.5325491024e+00 
89000 4.7241709945e+00 2.6965016609e-03 2.6168170076e+00 -4.5324600113e+00 2.6168170076e+00 4.5324600113e+00 
89100 4.7241704316e+00 2.7009431422e-03 2.6167654853e+00 -4.5323707720e+00 2.6167654853e+00 4.5323707720e+00 
89200 4.7241698666e+00 2.7053963831e-03 2.6167138770e+00 -4.5322813838e+00 2.6167138770e+00 4.5322813838e+00 
89300 4.7241692994e+00 2.7098613935e-03 2.6166621826e+00 -4.5321918466e+00 2.6166621826e+00 4.5321918466e+00 
89400 4.7241687301e+00 2.7143381834e-03 2.6166104019e+00 -4.5321021597e+00 2.6166104019e+00 4.5321021597e+00 
89500 4.7241681586e+00 2.7188267627e-03 2.6165585346e+00 -4.5320123230e+00 2.6165585346e+00 4.5320123230e+00 
89600 4.7241675849e+00 2.7233271414e-03 2.6165065806e+00 -4.5319223359e+00 2.6165065806e+00 4.5319223359e+00 
89700 4.7241670090e+00 2.7278393296e-03 2.6164545395e+00 -4.5318321980e+00 2.6164545395e+00 4.5318321980e+00 
89800 4.7241664309e+00 2.7323633372e-03 2.6164024111e+00 -4.5317419090e+00 2.6164024111e+00 4.5317419090e+00 
89900 4.7241658506e+00 2.7368991745e-03 2.6163501952e+00 -4.5316514685e+00 2.6163501952e+00 4.5316514685e+00 
90000 4.7241652681e+00 2.7414468516e-03 2.6162978916e+00 -4.5315608760e+00 2.6162978916e+00 4.5315608760e+00 
90100 4.7241646833e+00 2.7460063786e-03 2.6162455001e+00 -4.5314701312e+00 2.6162455001e+00 4.5314701312e+00 
90200 4.7241640963e+00 2.7505777659e-03 2.6161930204e+00 -4.5313792337e+00 2.6161930204e+00 4.5313792337e+00 
90300 4.7241635071e+00 2.7551610236e-03 2.6161404522e+00 -4.5312881830e+00 2.6161404522e+00 4.5312881830e+00 
90400 4.7241629156e+00 2.7597561620e-03 2.6160877954e+00 -4.5311969787e+00 2.6160877954e+00 4.5311969787e+00 
90500 4.7241623219e+00 2.7643631916e-03 2.6160350497e+00 -4.5311056205e+00 2.6160350497e+00 4.5311056205e+00 
90600 4.7241617259e+00 2.7689821228e-03 2.6159822149e+00 -4.5310141079e+00 2.6159822149e+00 4.5310141079e+00 
90700 4.7241611276e+00 2.7736129658e-03 2.6159292908e+00 -4.5309224406e+00 2.6159292908e+00 4.5309224406e+00 
90800 4.7241605270e+00 2.7782557313e-03 2.6158762770e+00 -4.5308306181e+00 2.6158762770e+00 4.5308306181e+00 
90900 4.7241599241e+00 2.7829104298e-03 2.6158231735e+00 -4.5307386401e+00 2.6158231735e+00 4.5307386401e+00 
91000 4.7241593189e+00 2.7875770717e-03 2.6157699799e+00 -4.5306465061e+00 2.6157699799e+00 4.5306465061e+00 
91100 4.7241587114e+00 2.7922556677e-03 2.6157166960e+00 -4.5305542157e+00 2.6157166960e+00 4.5305542157e+00 
91200 4.7241581015e+00 2.7969462285e-03 2.6156633216e+00 -4.5304617685e+00 2.6156633216e+00 4.5304617685e+00 
91300 4.7241574893e+00 2.8016487647e-03 2.6156098564e+00 -4.5303691641e+00 2.6156098564e+00 4.5303691641e+00 
91400 4.7241568748e+00 2.8063632870e-03 2.6155563003e+00 -4.5302764022e+00 2.6155563003e+00 4.5302764022e+00 
91500 4.7241562579e+00 2.8110898063e-03 2.6155026530e+00 -4.5301834822e+00 2.6155026530e+00 4.5301834822e+00 
91600 4.7241556386e+00 2.8158283332e-03 2.6154489141e+00 -4.5300904039e+00 2.6154489141e+00 4.5300904039e+00 
91700 4.7241550170e+00 2.8205788787e-03 2.6153950836e+00 -4.5299971667e+00 2.6153950836e+00 4.5299971667e+00 
91800 4.7241543930e+00 2.8253414537e-03 2.6153411612e+00 -4.5299037703e+00 2.6153411612e+00 4.5299037703e+00 
91900 4.7241537666e+00 2.8301160692e-03 2.6152871466e+00 -4.5298102143e+00 2.6152871466e+00 4.5298102143e+00 
92000 4.7241531377e+00 2.8349027360e-03 2.6152330396e+00 -4.5297164983e+00 2.6152330396e+00 4.5297164983e+00 
92100 4.7241525065e+00 2.8397014652e-03 2.6151788400e+00 -4.5296226218e+00 2.6151788400e+00 4.5296226218e+00 
92200 4.7241518728e+00 2.8445122680e-03 2.6151245475e+00 -4.5295285844e+00 2.6151245475e+00 4.5295285844e+00 
92300 4.7241512367e+00 2.8493351553e-03 2.6150701619e+00 -4.5294343858e+00 2.6150701619e+00 4.5294343858e+00 
92400 4.7241505982e+00 2.8541701384e-03 2.6150156830e+00 -4.5293400255e+00 2.6150156830e+00 4.5293400255e+00 
92500 4.7241499572e+00 2.8590172286e-03 2.6149611104e+00 -4.5292455031e+00 2.6149611104e+00 4.5292455031e+00 
92600 4.7241493138e+00 2.8638764369e-03 2.6149064441e+00 -4.5291508182e+00 2.6149064441e+00 4.5291508182e+00 
92700 4.7241486678e+00 2.8687477747e-03 2.6148516837e+00 -4.5290559704e+00 2.6148516837e+00 4.5290559704e+00 
92800 4.7241480194e+00 2.8736312535e-03 2.6147968290e+00 -4.5289609593e+00 2.6147968290e+00 4.5289609593e+00 
92900 4.7241473685e+00 2.8785268844e-03 2.6147418798e+00 -4.5288657844e+00 2.6147418798e+00 4.5288657844e+00 
93000 4.7241467151e+00 2.8834346790e-03 2.6146868358e+00 -4.5287704454e+00 2.6146868358e+00 4.5287704454e+00 
93100 4.7241460592e+00 2.8883546488e-03 2.6146316968e+00 -4.5286749419e+00 2.6146316968e+00 4.5286749419e+00 
93200 4.7241454007e+00 2.8932868052e-03 2.6145764625e+00 -4.5285792734e+00 2.6145764625e+00 4.5285792734e+00 
93300 4.7241447398e+00 2.8982311598e-03 2.6145211328e+00 -4.5284834394e+00 2.6145211328e+00 4.5284834394e+00 
93400 4.7241440762e+00 2.9031877243e-03 2.6144657073e+00 -4.5283874397e+00 2.6144657073e+00 4.5283874397e+00 
93500 4.7241434102e+00 2.9081565103e-03 2.6144101859e+00 -4.5282912738e+00 2.6144101859e+00 4.5282912738e+00 
93600 4.7241427415e+00 2.9131375294e-03 2.6143545683e+00 -4.5281949412e+00 2.6143545683e+00 4.5281949412e+00 
93700 4.7241420703e+00 2.9181307934e-03 2.6142988542e+00 -4.5280984416e+00 2.6142988542e+00 4.5280984416e+00 
93800 4.7241413965e+00 2.9231363142e-03 2.6142430434e+00 -4.5280017745e+00 2.6142430434e+00 4.5280017745e+00 
93900 4.7241407201e+00 2.9281541035e-03 2.6141871357e+00 -4.5279049396e+00 2.6141871357e+00 4.5279049396e+00 
94000 4.7241400411e+00 2.9331841732e-03 2.6141311309e+00 -4.5278079363e+00 2.6141311309e+00 4.5278079363e+00 
94100 4.7241393595e+00 2.9382265353e-03 2.6140750286e+00 -4.5277107643e+00 2.6140750286e+00 4.5277107643e+00 
94200 4.7241386752e+00 2.9432812017e-03 2.6140188287e+00 -4.5276134232e+00 2.6140188287e+00 4.5276134232e+00 
94300 4.7241379883e+00 2.9483481844e-03 2.6139625309e+00 -4.5275159125e+00 2.6139625309e+00 4.5275159125e+00 
94400 4.7241372988e+00 2.9534274955e-03 2.6139061349e+00 -4.5274182319e+00 2.6139061349e+00 4.5274182319e+00 
94500 4.7241366066e+00 2.9585191471e-03 2.6138496406e+00 -4.5273203809e+00 2.6138496406e+00 4.5273203809e+00 
94600 4.7241359117e+00 2.9636231514e-03 2.6137930477e+00 -4.5272223590e+00 2.6137930477e+00 4.5272223590e+00 
94700 4.7241352141e+00 2.9687395205e-03 2.6137363559e+00 -4.5271241660e+00 2.6137363559e+00 4.5271241660e+00 
94800 4.7241345139e+00 2.9738682667e-03 2.6136795650e+00 -4.5270258012e+00 2.6136795650e+00 4.5270258012e+00 
94900 4.7241338109e+00 2.9790094022e-03 2.6136226747e+00 -4.5269272644e+00 2.6136226747e+00 4.5269272644e+00 
95000 4.7241331053e+00 2.9841629395e-03 2.6135656849e+00 -4.5268285552e+00 2.6135656849e+00 4.5268285552e+00 
95100 4.7241323969e+00 2.9893288909e-03 2.6135085952e+00 -4.5267296729e+00 2.6135085952e+00 4.5267296729e+00 
95200 4.7241316857e+00 2.9945072688e-03 2.6134514055e+00 -4.5266306174e+00 2.6134514055e+00 4.5266306174e+00 
95300 4.7241309719e+00 2.9996980857e-03 2.6133941154e+00 -4.5265313881e+00 2.6133941154e+00 4.5265313881e+00 
95400 4.7241302552e+00 3.0049013541e-03 2.6133367248e+00 -4.5264319846e+00 2.6133367248e+00 4.5264319846e+00 
95500 4.7241295358e+00 3.0101170865e-03 2.6132792333e+00 -4.5263324065e+00 2.6132792333e+00 4.5263324065e+00 
95600 4.7241288136e+00 3.0153452957e-03 2.6132216408e+00 -4.5262326533e+00 2.6132216408e+00 4.5262326533e+00 
95700 4.7241280887e+00 3.0205859941e-03 2.6131639470e+00 -4.5261327247e+00 2.6131639470e+00 4.5261327247e+00 
95800 4.7241273609e+00 3.0258391945e-03 2.6131061516e+00 -4.5260326202e+00 2.6131061516e+00 4.5260326202e+00 
95900 4.7241266303e+00 3.0311049097e-03 2.6130482545e+00 -4.5259323394e+00 2.6130482545e+00 4.5259323394e+00 
96000 4.7241258969e+00 3.0363831524e-03 2.6129902553e+00 -4.5258318819e+00 2.6129902553e+00 4.5258318819e+00 
96100 4.7241251606e+00 3.0416739355e-03 2.6129321538e+00 -4.5257312472e+00 2.6129321538e+00 4.5257312472e+00 
96200 4.7241244215e+00 3.0469772718e-03 2.6128739498e+00 -4.5256304348e+00 2.6128739498e+00 4.5256304348e+00 
96300 4.7241236795e+00 3.0522931742e-03 2.6128156430e+00 -4.5255294445e+00 2.6128156430e+00 4.5255294445e+00 
96400 4.7241229346e+00 3.0576216558e-03 2.6127572332e+00 -4.5254282757e+00 2.6127572332e+00 4.5254282757e+00 
96500 4.7241221869e+00 3.0629627295e-03 2.6126987201e+00 -4.5253269281e+00 2.6126987201e+00 4.5253269281e+00 
96600 4.7241214363e+00 3.0683164083e-03 2.6126401035e+00 -4.5252254011e+00 2.6126401035e+00 4.5252254011e+00 
96700 4.7241206827e+00 3.0736827055e-03 2.6125813831e+00 -4.5251236944e+00 2.6125813831e+00 4.5251236944e+00 
96800 4.7241199263e+00 3.0790616340e-03 2.6125225587e+00 -4.5250218076e+00 2.6125225587e+00 4.5250218076e+00 
96900 4.7241191669e+00 3.0844532071e-03 2.6124636300e+00 -4.5249197401e+00 2.6124636300e+00 4.5249197401e+00 
97000 4.7241184046e+00 3.0898574380e-03 2.6124045968e+00 -4.5248174916e+00 2.6124045968e+00 4.5248174916e+00 
97100 4.7241176393e+00 3.0952743401e-03 2.6123454588e+00 -4.5247150616e+00 2.6123454588e+00 4.5247150616e+00 
97200 4.7241168710e+00 3.1007039265e-03 2.6122862159e+00 -4.5246124498e+00 2.6122862159e+00 4.5246124498e+00 
97300 4.7241160998e+00 3.1061462107e-03 2.6122268676e+00 -4.5245096556e+00 2.6122268676e+00 4.5245096556e+00 
97400 4.7241153255e+00 3.1116012060e-03 2.6121674139e+00 -4.5244066787e+00 2.6121674139e+00 4.5244066787e+00 
97500 4.7241145483e+00 3.1170689259e-03 2.6121078543e+00 -4.5243035185e+00 2.6121078543e+00 4.5243035185e+00 
97600 4.7241137681e+00 3.1225493839e-03 2.6120481888e+00 -4.5242001748e+00 2.6120481888e+00 4.5242001748e+00 
97700 4.7241129848e+00 3.1280425935e-03 2.6119884170e+00 -4.5240966469e+00 2.6119884170e+00 4.5240966469e+00 
97800 4.7241121985e+00 3.1335485683e-03 2.6119285386e+00 -4.5239929346e+00 2.6119285386e+00 4.5239929346e+00 
97900 4.7241114091e+00 3.1390673218e-03 2.6118685535e+00 -4.5238890374e+00 2.6118685535e+00 4.5238890374e+00 
98000 4.7241106166e+00 3.1445988679e-03 2.6118084614e+00 -4.5237849547e+00 2.6118084614e+00 4.5237849547e+00 
98100 4.7241098211e+00 3.1501432200e-03 2.6117482619e+00 -4.5236806863e+00 2.6117482619e+00 4.5236806863e+00 
98200 4.7241090225e+00 3.1557003920e-03 2.6116879550e+00 -4.5235762316e+00 2.6116879550e+00 4.5235762316e+00 
98300 4.7241082208e+00 3.1612703977e-03 2.6116275403e+00 -4.5234715902e+00 2.6116275403e+00 4.5234715902e+00 
98400 4.7241074160e+00 3.1668532509e-03 2.6115670175e+00 -4.5233667617e+00 2.6115670175e+00 4.5233667617e+00 
98500 4.7241066080e+00 3.1724489654e-03 2.6115063865e+00 -4.5232617457e+00 2.6115063865e+00 4.5232617457e+00 
98600 4.7241057969e+00 3.1780575551e-03 2.6114456469e+00 -4.5231565416e+00 2.6114456469e+00 4.5231565416e+00 
98700 4.7241049826e+00 3.1836790340e-03 2.6113847985e+00 -4.5230511491e+00 2.6113847985e+00 4.5230511491e+00 
98800 4.7241041652e+00 3.1893134161e-03 2.6113238410e+00 -4.5229455677e+00 2.6113238410e+00 4.5229455677e+00 
98900 4.7241033446e+00 3.1949607153e-03 2.6112627743e+00 -4.5228397970e+00 2.6112627743e+00 4.5228397970e+00 
99000 4.7241025208e+00 3.2006209458e-03 2.6112015980e+00 -4.5227338365e+00 2.6112015980e+00 4.5227338365e+00 
99100 4.7241016938e+00 3.2062941217e-03 2.6111403119e+00 -4.5226276859e+00 2.6111403119e+00 4.5226276859e+00 
99200 4.7241008636e+00 3.2119802570e-03 2.6110789157e+00 -4.5225213445e+00 2.6110789157e+00 4.5225213445e+00 
99300 4.7241000301e+00 3.2176793660e-03 2.6110174092e+00 -4.5224148121e+00 2.6110174092e+00 4.5224148121e+00 
99400 4.7240991934e+00 3.2233914629e-03 2.6109557920e+00 -4.5223080881e+00 2.6109557920e+00 4.5223080881e+00 
99500 4.7240983534e+00 3.2291165619e-03 2.6108940641e+00 -4.5222011722e+00 2.6108940641e+00 4.5222011722e+00 
99600 4.7240975102e+00 3.2348546774e-03 2.6108322251e+00 -4.5220940638e+00 2.6108322251e+00 4.5220940638e+00 
99700 4.7240966637e+00 3.2406058237e-03 2.6107702747e+00 -4.5219867626e+00 2.6107702747e+00 4.5219867626e+00 
99800 4.7240958138e+00 3.2463700151e-03 2.6107082127e+00 -4.5218792681e+00 2.6107082127e+00 4.5218792681e+00 
99900 4.7240949607e+00 3.2521472661e-03 2.6106460388e+00 -4.5217715797e+00 2.6106460388e+00 4.5217715797e+00 
100000 4.7240941042e+00 3.2579375910e-03 2.6105837528e+00 -4.5216636972e+00 2.6105837528e+00 4.5216636972e+00 
100100 4.7240932444e+00 3.2637410045e-03 2.6105213544e+00 -4.5215556200e+00 2.6105213544e+00 4.5215556200e+00 
100200 4.7240923812e+00 3.2695575210e-03 2.6104588433e+00 -4.5214473477e+00 2.6104588433e+00 4.5214473477e+00 
100300 4.7240915147e+00 3.2753871550e-03 2.6103962194e+00 -4.5213388799e+00 2.6103962194e+00 4.5213388799e+00 
100400 4.7240906448e+00 3.2812299212e-03 2.6103334823e+00 -4.5212302160e+00 2.6103334823e+00 4.5212302160e+00 
100500 4.7240897715e+00 3.2870858341e-03 2.6102706318e+00 -4.5211213557e+00 2.6102706318e+00 4.5211213557e+00 
100600 4.7240888948e+00 3.2929549086e-03 2.6102076676e+00 -4.5210122985e+00 2.6102076676e+00 4.5210122985e+00 
100700 4.7240880146e+00 3.2988371591e-03 2.6101445894e+00 -4.5209030439e+00 2.6101445894e+00 4.5209030439e+00 
100800 4.7240871311e+00 3.3047326005e-03 2.6100813970e+00 -4.5207935916e+00 2.6100813970e+00 4.5207935916e+00 
100900 4.7240862440e+00 3.3106412476e-03 2.6100180902e+00 -4.5206839409e+00 2.6100180902e+00 4.5206839409e+00 
101000 4.7240853535e+00 3.3165631151e-03 2.6099546687e+00 -4.5205740916e+00 2.6099546687e+00 4.5205740916e+00 
101100 4.7240844596e+00 3.3224982179e-03 2.6098911321e+00 -4.5204640431e+00 2.6098911321e+00 4.5204640431e+00 
101200 4.7240835621e+00 3.3284465709e-03 2.6098274803e+00 -4.5203537949e+00 2.6098274803e+00 4.5203537949e+00 
101300 4.7240826611e+00 3.3344081889e-03 2.6097637130e+00 -4.5202433467e+00 2.6097637130e+00 4.5202433467e+00 
101400 4.7240817566e+00 3.3403830868e-03 2.6096998300e+00 -4.5201326980e+00 2.6096998300e+00 4.5201326980e+00 
101500 4.7240808486e+00 3.3463712797e-03 2.6096358309e+00 -4.5200218483e+00 2.6096358309e+00 4.5200218483e+00 
101600 4.7240799370e+00 3.3523727826e-03 2.6095717154e+00 -4.5199107971e+00 2.6095717154e+00 4.5199107971e+00 
101700 4.7240790218e+00 3.3583876104e-03 2.6095074835e+00 -4.5197995441e+00 2.6095074835e+00 4.5197995441e+00 
101800 4.7240781031e+00 3.3644157783e-03 2.6094431347e+00 -4.5196880887e+00 2.6094431347e+00 4.5196880887e+00 
101900 4.7240771807e+00 3.3704573013e-03 2.6093786688e+00 -4.5195764305e+00 2.6093786688e+00 4.5195764305e+00 
102000 4.7240762548e+00 3.3765121945e-03 2.6093140855e+00 -4.5194645690e+00 2.6093140855e+00 4.5194645690e+00 
102100 4.7240753252e+00 3.3825804731e-03 2.6092493846e+00 -4.5193525038e+00 2.6092493846e+00 4.5193525038e+00 
102200 4.7240743920e+00 3.3886621523e-03 2.6091845659e+00 -4.5192402344e+00 2.6091845659e+00 4.5192402344e+00 
102300 4.7240734551e+00 3.3947572473e-03 2.6091196289e+00 -4.5191277604e+00 2.6091196289e+00 4.5191277604e+00 
102400 4.7240725146e+00 3.4008657733e-03 2.6090545736e+00 -4.5190150812e+00 2.6090545736e+00 4.5190150812e+00 
102500 4.7240715704e+00 3.4069877456e-03 2.6089893996e+00 -4.5189021965e+00 2.6089893996e+00 4.5189021965e+00 
102600 4.7240706225e+00 3.4131231795e-03 2.6089241066e+00 -4.5187891057e+00 2.6089241066e+00 4.5187891057e+00 
102700 4.7240696708e+00 3.4192720902e-03 2.6088586944e+00 -4.5186758085e+00 2.6088586944e+00 4.5186758085e+00 
102800 4.7240687154e+00 3.4254344933e-03 2.6087931627e+00 -4.5185623043e+00 2.6087931627e+00 4.5185623043e+00 
102900 4.7240677563e+00 3.4316104039e-03 2.6087275113e+00 -4.5184485927e+00 2.6087275113e+00 4.5184485927e+00 
103000 4.7240667934e+00 3.4377998376e-03 2.6086617399e+00 -4.5183346732e+00 2.6086617399e+00 4.5183346732e+00 
103100 4.7240658268e+00 3.4440028098e-03 2.6085958481e+00 -4.5182205453e+00 2.6085958481e+00 4.5182205453e+00 
103200 4.7240648563e+00 3.4502193359e-03 2.6085298358e+00 -4.5181062087e+00 2.6085298358e+00 4.5181062087e+00 
103300 4.7240638821e+00 3.4564494313e-03 2.6084637027e+00 -4.5179916627e+00 2.6084637027e+00 4.5179916627e+00 
103400 4.7240629040e+00 3.4626931117e-03 2.6083974485e+00 -4.5178769071e+00 2.6083974485e+00 4.5178769071e+00 
103500 4.7240619221e+00 3.4689503924e-03 2.6083310729e+00 -4.5177619412e+00 2.6083310729e+00 4.5177619412e+00 
103600 4.7240609363e+00 3.4752212891e-03 2.6082645756e+00 -4.5176467646e+00 2.6082645756e+00 4.5176467646e+00 
103700 4.7240599466e+00 3.4815058174e-03 2.6081979565e+00 -4.5175313769e+00 2.6081979565e+00 4.5175313769e+00 
103800 4.7240589531e+00 3.4878039928e-03 2.6081312152e+00 -4.5174157775e+00 2.6081312152e+00 4.5174157775e+00 
103900 4.7240579556e+00 3.4941158309e-03 2.6080643514e+00 -4.5172999661e+00 2.6080643514e+00 4.5172999661e+00 
104000 4.7240569543e+00 3.5004413474e-03 2.6079973650e+00 -4.5171839421e+00 2.6079973650e+00 4.5171839421e+00 
104100 4.7240559490e+00 3.5067805580e-03 2.6079302555e+00 -4.5170677051e+00 2.6079302555e+00 4.5170677051e+00 
104200 4.7240549397e+00 3.5131334782e-03 2.6078630228e+00 -4.5169512546e+00 2.6078630228e+00 4.5169512546e+00 
104300 4.7240539265e+00 3.5195001239e-03 2.6077956665e+00 -4.5168345901e+00 2.6077956665e+00 4.5168345901e+00 
104400 4.7240529093e+00 3.5258805107e-03 2.6077281864e+00 -4.5167177112e+00 2.6077281864e+00 4.5167177112e+00 
104500 4.7240518881e+00 3.5322746544e-03 2.6076605823e+00 -4.5166006174e+00 2.6076605823e+00 4.5166006174e+00 
104600 4.7240508628e+00 3.5386825707e-03 2.6075928538e+00 -4.5164833082e+00 2.6075928538e+00 4.5164833082e+00 
104700 4.7240498336e+00 3.5451042754e-03 2.6075250006e+00 -4.5163657831e+00 2.6075250006e+00 4.5163657831e+00 
104800 4.7240488003e+00 3.5515397843e-03 2.6074570226e+00 -4.5162480416e+00 2.6074570226e+00 4.5162480416e+00 
104900 4.7240477629e+00 3.5579891132e-03 2.6073889194e+00 -4.5161300834e+00 2.6073889194e+00 4.5161300834e+00 
105000 4.7240467214e+00 3.5644522779e-03 2.6073206907e+00 -4.5160119079e+00 2.6073206907e+00 4.5160119079e+00 
105100 4.7240456759e+00 3.5709292943e-03 2.6072523363e+00 -4.5158935146e+00 2.6072523363e+00 4.5158935146e+00 
105200 4.7240446262e+00 3.5774201782e-03 2.6071838559e+00 -4.5157749031e+00 2.6071838559e+00 4.5157749031e+00 
105300 4.7240435723e+00 3.5839249454e-03 2.6071152492e+00 -4.5156560728e+00 2.6071152492e+00 4.5156560728e+00 
105400 4.7240425144e+00 3.5904436119e-03 2.6070465160e+00 -4.5155370234e+00 2.6070465160e+00 4.5155370234e+00 
105500 4.7240414522e+00 3.5969761936e-03 2.6069776559e+00 -4.5154177542e+00 2.6069776559e+00 4.5154177542e+00 
105600 4.7240403859e+00 3.6035227063e-03 2.6069086687e+00 -4.5152982649e+00 2.6069086687e+00 4.5152982649e+00 
105700 4.7240393154e+00 3.6100831660e-03 2.6068395542e+00 -4.5151785550e+00 2.6068395542e+00 4.5151785550e+00 
105800 4.7240382406e+00 3.6166575886e-03 2.6067703120e+00 -4.5150586240e+00 2.6067703120e+00 4.5150586240e+00 
105900 4.7240371616e+00 3.6232459901e-03 2.6067009418e+00 -4.5149384713e+00 2.6067009418e+00 4.5149384713e+00 
106000 4.7240360783e+00 3.6298483864e-03 2.6066314434e+00 -4.5148180966e+00 2.6066314434e+00 4.5148180966e+00 
106100 4.7240349908e+00 3.6364647934e-03 2.6065618165e+00 -4.5146974993e+00 2.6065618165e+00 4.5146974993e+00 
106200 4.7240338990e+00 3.6430952272e-03 2.6064920609e+00 -4.5145766790e+00 2.6064920609e+00 4.5145766790e+00 
106300 4.7240328029e+00 3.6497397036e-03 2.6064221762e+00 -4.5144556351e+00 2.6064221762e+00 4.5144556351e+00 
106400 4.7240317024e+00 3.6563982388e-03 2.6063521621e+00 -4.5143343672e+00 2.6063521621e+00 4.5143343672e+00 
106500 4.7240305976e+00 3.6630708487e-03 2.6062820185e+00 -4.5142128748e+00 2.6062820185e+00 4.5142128748e+00 
106600 4.7240294884e+00 3.6697575493e-03 2.6062117449e+00 -4.5140911574e+00 2.6062117449e+00 4.5140911574e+00 
106700 4.7240283749e+00 3.6764583566e-03 2.6061413412e+00 -4.5139692146e+00 2.6061413412e+00 4.5139692146e+00 
106800 4.7240272569e+00 3.6831732866e-03 2.6060708070e+00 -4.5138470458e+00 2.6060708070e+00 4.5138470458e+00 
106900 4.7240261346e+00 3.6899023553e-03 2.6060001420e+00 -4.5137246505e+00 2.6060001420e+00 4.5137246505e+00 
107000 4.7240250078e+00 3.6966455788e-03 2.6059293461e+00 -4.5136020283e+00 2.6059293461e+00 4.5136020283e+00 
107100 4.7240238765e+00 3.7034029730e-03 2.6058584188e+00 -4.5134791787e+00 2.6058584188e+00 4.5134791787e+00 
107200 4.7240227408e+00 3.7101745541e-03 2.6057873599e+00 -4.5133561011e+00 2.6057873599e+00 4.5133561011e+00 
107300 4.7240216005e+00 3.7169603380e-03 2.6057161692e+00 -4.5132327952e+00 2.6057161692e+00 4.5132327952e+00 
107400 4.7240204558e+00 3.7237603407e-03 2.6056448463e+00 -4.5131092604e+00 2.6056448463e+00 4.5131092604e+00 
107500 4.7240193065e+00 3.7305745783e-03 2.6055733910e+00 -4.5129854961e+00 2.6055733910e+00 4.5129854961e+00 
107600 4.7240181527e+00 3.7374030668e-03 2.6055018030e+00 -4.5128615020e+00 2.6055018030e+00 4.5128615020e+00 
107700 4.7240169944e+00 3.7442458223e-03 2.6054300820e+00 -4.5127372775e+00 2.6054300820e+00 4.5127372775e+00 
107800 4.7240158314e+00 3.7511028607e-03 2.6053582276e+00 -4.5126128222e+00 2.6053582276e+00 4.5126128222e+00 
107900 4.7240146638e+00 3.7579741981e-03 2.6052862397e+00 -4.5124881355e+00 2.6052862397e+00 4.5124881355e+00 
108000 4.7240134916e+00 3.7648598506e-03 2.6052141180e+00 -4.5123632169e+00 2.6052141180e+00 4.5123632169e+00 
108100 4.7240123148e+00 3.7717598340e-03 2.6051418621e+00 -4.5122380660e+00 2.6051418621e+00 4.5122380660e+00 
108200 4.7240111333e+00 3.7786741645e-03 2.6050694717e+00 -4.5121126822e+00 2.6050694717e+00 4.5121126822e+00 
108300 4.7240099471e+00 3.7856028580e-03 2.6049969466e+00 -4.5119870651e+00 2.6049969466e+00 4.5119870651e+00 
108400 4.7240087562e+00 3.7925459305e-03 2.6049242866e+00 -4.5118612142e+00 2.6049242866e+00 4.5118612142e+00 
108500 4.7240075606e+00 3.7995033981e-03 2.6048514912e+00 -4.5117351289e+00 2.6048514912e+00 4.5117351289e+00 
108600 4.7240063603e+00 3.8064752766e-03 2.6047785603e+00 -4.5116088088e+00 2.6047785603e+00 4.5116088088e+00 
108700 4.7240051552e+00 3.8134615822e-03 2.6047054934e+00 -4.5114822534e+00 2.6047054934e+00 4.5114822534e+00 
108800 4.7240039453e+00 3.8204623307e-03 2.6046322905e+00 -4.5113554621e+00 2.6046322905e+00 4.5113554621e+00 
108900 4.7240027306e+00 3.8274775381e-03 2.6045589511e+00 -4.5112284345e+00 2.6045589511e+00 4.5112284345e+00 
109000 4.7240015111e+00 3.8345072204e-03 2.6044854749e+00 -4.5111011701e+00 2.6044854749e+00 4.5111011701e+00 
109100 4.7240002868e+00 3.8415513934e-03 2.6044118617e+00 -4.5109736683e+00 2.6044118617e+00 4.5109736683e+00 
109200 4.7239990576e+00 3.8486100731e-03 2.6043381112e+00 -4.5108459287e+00 2.6043381112e+00 4.5108459287e+00 
109300 4.7239978235e+00 3.8556832755e-03 2.6042642231e+00 -4.5107179508e+00 2.6042642231e+00 4.5107179508e+00 
109400 4.7239965846e+00 3.8627710163e-03 2.6041901971e+00 -4.5105897340e+00 2.6041901971e+00 4.5105897340e+00 
109500 4.7239953407e+00 3.8698733115e-03 2.6041160329e+00 -4.5104612779e+00 2.6041160329e+00 4.5104612779e+00 
109600 4.7239940918e+00 3.8769901770e-03 2.6040417303e+00 -4.5103325819e+00 2.6040417303e+00 4.5103325819e+00 
109700 4.7239928380e+00 3.8841216285e-03 2.6039672889e+00 -4.5102036456e+00 2.6039672889e+00 4.5102036456e+00 
109800 4.7239915792e+00 3.8912676819e-03 2.6038927084e+00 -4.5100744684e+00 2.6038927084e+00 4.5100744684e+00 
109900 4.7239903155e+00 3.8984283530e-03 2.6038179885e+00 -4.5099450498e+00 2.6038179885e+00 4.5099450498e+00 
110000 4.7239890466e+00 3.9056036577e-03 2.6037431290e+00 -4.5098153894e+00 2.6037431290e+00 4.5098153894e+00 
110100 4.7239877728e+00 3.9127936115e-03 2.6036681296e+00 -4.5096854865e+00 2.6036681296e+00 4.5096854865e+00 
110200 4.7239864939e+00 3.9199982304e-03 2.6035929900e+00 -4.5095553408e+00 2.6035929900e+00 4.5095553408e+00 
110300 4.7239852099e+00 3.9272175301e-03 2.6035177098e+00 -4.5094249517e+00 2.6035177098e+00 4.5094249517e+00 
110400 4.7239839208e+00 3.9344515261e-03 2.6034422888e+00 -4.5092943187e+00 2.6034422888e+00 4.5092943187e+00 
110500 4.7239826265e+00 3.9417002342e-03 2.6033667266e+00 -4.5091634413e+00 2.6033667266e+00 4.5091634413e+00 
110600 4.7239813271e+00 3.9489636701e-03 2.6032910231e+00 -4.5090323189e+00 2.6032910231e+00 4.5090323189e+00 
110700 4.7239800226e+00 3.9562418494e-03 2.6032151779e+00 -4.5089009511e+00 2.6032151779e+00 4.5089009511e+00 
110800 4.7239787128e+00 3.9635347877e-03 2.6031391906e+00 -4.5087693373e+00 2.6031391906e+00 4.5087693373e+00 
110900 4.7239773979e+00 3.9708425005e-03 2.6030630611e+00 -4.5086374771e+00 2.6030630611e+00 4.5086374771e+00 
111000 4.7239760777e+00 3.9781650033e-03 2.6029867890e+00 -4.5085053699e+00 2.6029867890e+00 4.5085053699e+00 
111100 4.7239747522e+00 3.9855023118e-03 2.6029103740e+00 -4.5083730152e+00 2.6029103740e+00 4.5083730152e+00 
111200 4.7239734214e+00 3.9928544414e-03 2.6028338157e+00 -4.5082404125e+00 2.6028338157e+00 4.5082404125e+00 
111300 4.7239720854e+00 4.0002214074e-03 2.6027571141e+00 -4.5081075613e+00 2.6027571141e+00 4.5081075613e+00 
111400 4.7239707440e+00 4.0076032254e-03 2.6026802686e+00 -4.5079744611e+00 2.6026802686e+00 4.5079744611e+00 
111500 4.7239693973e+00 4.0149999108e-03 2.6026032790e+00 -4.5078411113e+00 2.6026032790e+00 4.5078411113e+00 
111600 4.7239680452e+00 4.0224114787e-03 2.6025261451e+00 -4.5077075114e+00 2.6025261451e+00 4.5077075114e+00 
111700 4.7239666878e+00 4.0298379447e-03 2.6024488665e+00 -4.5075736609e+00 2.6024488665e+00 4.5075736609e+00 
111800 4.7239653249e+00 4.0372793239e-03 2.6023714429e+00 -4.5074395594e+00 2.6023714429e+00 4.5074395594e+00 
111900 4.7239639565e+00 4.0447356316e-03 2.6022938741e+00 -4.5073052062e+00 2.6022938741e+00 4.5073052062e+00 
112000 4.7239625828e+00 4.0522068830e-03 2.6022161597e+00 -4.5071706008e+00 2.6022161597e+00 4.5071706008e+00 
112100 4.7239612035e+00 4.0596930932e-03 2.6021382994e+00 -4.5070357428e+00 2.6021382994e+00 4.5070357428e+00 
112200 4.7239598187e+00 4.0671942773e-03 2.6020602929e+00 -4.5069006316e+00 2.6020602929e+00 4.5069006316e+00 
112300 4.7239584284e+00 4.0747104505e-03 2.6019821399e+00 -4.5067652668e+00 2.6019821399e+00 4.5067652668e+00 
112400 4.7239570326e+00 4.0822416277e-03 2.6019038402e+00 -4.5066296477e+00 2.6019038402e+00 4.5066296477e+00 
112500 4.7239556312e+00 4.0897878239e-03 2.6018253934e+00 -4.5064937738e+00 2.6018253934e+00 4.5064937738e+00 
112600 4.7239542241e+00 4.0973490542e-03 2.6017467992e+00 -4.5063576447e+00 2.6017467992e+00 4.5063576447e+00 
112700 4.7239528115e+00 4.1049253332e-03 2.6016680573e+00 -4.5062212597e+00 2.6016680573e+00 4.5062212597e+00 
112800 4.7239513932e+00 4.1125166760e-03 2.6015891675e+00 -4.5060846185e+00 2.6015891675e+00 4.5060846185e+00 
112900 4.7239499693e+00 4.1201230974e-03 2.6015101293e+00 -4.5059477204e+00 2.6015101293e+00 4.5059477204e+00 
113000 4.7239485397e+00 4.1277446119e-03 2.6014309426e+00 -4.5058105649e+00 2.6014309426e+00 4.5058105649e+00 
113100 4.7239471043e+00 4.1353812344e-03 2.6013516069e+00 -4.5056731516e+00 2.6013516069e+00 4.5056731516e+00 
113200 4.7239456632e+00 4.1430329795e-03 2.6012721221e+00 -4.5055354798e+00 2.6012721221e+00 4.5055354798e+00 
113300 4.7239442164e+00 4.1506998618e-03 2.6011924878e+00 -4.5053975491e+00 2.6011924878e+00 4.5053975491e+00 
113400 4.7239427637e+00 4.1583818958e-03 2.6011127036e+00 -4.5052593589e+00 2.6011127036e+00 4.5052593589e+00 
113500 4.7239413053e+00 4.1660790960e-03 2.6010327694e+00 -4.5051209087e+00 2.6010327694e+00 4.5051209087e+00 
113600 4.7239398410e+00 4.1737914768e-03 2.6009526847e+00 -4.5049821979e+00 2.6009526847e+00 4.5049821979e+00 
113700 4.7239383709e+00 4.1815190526e-03 2.6008724493e+00 -4.5048432261e+00 2.6008724493e+00 4.5048432261e+00 
113800 4.7239368948e+00 4.1892618376e-03 2.6007920628e+00 -4.5047039927e+00 2.6007920628e+00 4.5047039927e+00 
113900 4.7239354129e+00 4.1970198462e-03 2.6007115250e+00 -4.5045644972e+00 2.6007115250e+00 4.5045644972e+00 
114000 4.7239339250e+00 4.2047930924e-03 2.6006308356e+00 -4.5044247390e+00 2.6006308356e+00 4.5044247390e+00 
114100 4.7239324312e+00 4.2125815905e-03 2.6005499943e+00 -4.5042847177e+00 2.6005499943e+00 4.5042847177e+00 
114200 4.7239309314e+00 4.2203853545e-03 2.6004690006e+00 -4.5041444326e+00 2.6004690006e+00 4.5041444326e+00 
114300 4.7239294256e+00 4.2282043983e-03 2.6003878544e+00 -4.5040038832e+00 2.6003878544e+00 4.5040038832e+00 
114400 4.7239279138e+00 4.2360387358e-03 2.6003065554e+00 -4.5038630691e+00 2.6003065554e+00 4.5038630691e+00 
114500 4.7239263959e+00 4.2438883810e-03 2.6002251031e+00 -4.5037219897e+00 2.6002251031e+00 4.5037219897e+00 
114600 4.7239248719e+00 4.2517533476e-03 2.6001434974e+00 -4.5035806444e+00 2.6001434974e+00 4.5035806444e+00 
114700 4.7239233418e+00 4.2596336493e-03 2.6000617378e+00 -4.5034390327e+00 2.6000617378e+00 4.5034390327e+00 
114800 4.7239218056e+00 4.2675292998e-03 2.5999798241e+00 -4.5032971541e+00 2.5999798241e+00 4.5032971541e+00 
114900 4.7239202632e+00 4.2754403126e-03 2.5998977561e+00 -4.5031550080e+00 2.5998977561e+00 4.5031550080e+00 
115000 4.7239187146e+00 4.2833667012e-03 2.5998155333e+00 -4.5030125939e+00 2.5998155333e+00 4.5030125939e+00 
115100 4.7239171599e+00 4.2913084789e-03 2.5997331554e+00 -4.5028699113e+00 2.5997331554e+00 4.5028699113e+00 
115200 4.7239155988e+00 4.2992656593e-03 2.5996506222e+00 -4.5027269596e+00 2.5996506222e+00 4.5027269596e+00 
115300 4.7239140316e+00 4.3072382554e-03 2.5995679334e+00 -4.5025837383e+00 2.5995679334e+00 4.5025837383e+00 
115400 4.7239124580e+00 4.3152262806e-03 2.5994850885e+00 -4.5024402469e+00 2.5994850885e+00 4.5024402469e+00 
115500 4.7239108781e+00 4.3232297478e-03 2.5994020874e+00 -4.5022964847e+00 2.5994020874e+00 4.5022964847e+00 
115600 4.7239092919e+00 4.3312486700e-03 2.5993189297e+00 -4.5021524513e+00 2.5993189297e+00 4.5021524513e+00 
115700 4.7239076993e+00 4.3392830603e-03 2.5992356151e+00 -4.5020081462e+00 2.5992356151e+00 4.5020081462e+00 
115800 4.7239061003e+00 4.3473329314e-03 2.5991521432e+00 -4.5018635687e+00 2.5991521432e+00 4.5018635687e+00 
115900 4.7239044949e+00 4.3553982961e-03 2.5990685139e+00 -4.5017187184e+00 2.5990685139e+00 4.5017187184e+00 
116000 4.7239028831e+00 4.3634791671e-03 2.5989847266e+00 -4.5015735946e+00 2.5989847266e+00 4.5015735946e+00 
116100 4.7239012647e+00 4.3715755569e-03 2.5989007812e+00 -4.5014281969e+00 2.5989007812e+00 4.5014281969e+00 
116200 4.7238996399e+00 4.3796874780e-03 2.5988166774e+00 -4.5012825248e+00 2.5988166774e+00 4.5012825248e+00 
116300 4.7238980086e+00 4.3878149428e-03 2.5987324147e+00 -4.5011365776e+00 2.5987324147e+00 4.5011365776e+00 
116400 4.7238963706e+00 4.3959579635e-03 2.5986479930e+00 -4.5009903548e+00 2.5986479930e+00 4.5009903548e+00 
116500 4.7238947262e+00 4.4041165524e-03 2.5985634118e+00 -4.5008438559e+00 2.5985634118e+00 4.5008438559e+00 
116600 4.7238930750e+00 4.4122907216e-03 2.5984786709e+00 -4.5006970803e+00 2.5984786709e+00 4.5006970803e+00 
116700 4.7238914173e+00 4.4204804831e-03 2.5983937699e+00 -4.5005500276e+00 2.5983937699e+00 4.5005500276e+00 
116800 4.7238897529e+00 4.4286858486e-03 2.5983087086e+00 -4.5004026970e+00 2.5983087086e+00 4.5004026970e+00 
116900 4.7238880818e+00 4.4369068302e-03 2.5982234866e+00 -4.5002550882e+00 2.5982234866e+00 4.5002550882e+00 
117000 4.7238864039e+00 4.4451434393e-03 2.5981381036e+00 -4.5001072005e+00 2.5981381036e+00 4.5001072005e+00 
117100 4.7238847194e+00 4.4533956877e-03 2.5980525593e+00 -4.4999590334e+00 2.5980525593e+00 4.4999590334e+00 
117200 4.7238830280e+00 4.4616635867e-03 2.5979668533e+00 -4.4998105863e+00 2.5979668533e+00 4.4998105863e+00 
117300 4.7238813298e+00 4.4699471477e-03 2.5978809854e+00 -4.4996618588e+00 2.5978809854e+00 4.4996618588e+00 
117400 4.7238796248e+00 4.4782463821e-03 2.5977949553e+00 -4.4995128501e+00 2.5977949553e+00 4.4995128501e+00 
117500 4.7238779130e+00 4.4865613009e-03 2.5977087625e+00 -4.4993635599e+00 2.5977087625e+00 4.4993635599e+00 
117600 4.7238761942e+00 4.4948919151e-03 2.5976224069e+00 -4.4992139876e+00 2.5976224069e+00 4.4992139876e+00 
117700 4.7238744685e+00 4.5032382357e-03 2.5975358880e+00 -4.4990641325e+00 2.5975358880e+00 4.4990641325e+00 
117800 4.7238727359e+00 4.5116002734e-03 2.5974492056e+00 -4.4989139942e+00 2.5974492056e+00 4.4989139942e+00 
117900 4.7238709963e+00 4.5199780390e-03 2.5973623593e+00 -4.4987635720e+00 2.5973623593e+00 4.4987635720e+00 
118000 4.7238692497e+00 4.5283715429e-03 2.5972753489e+00 -4.4986128655e+00 2.5972753489e+00 4.4986128655e+00 
118100 4.7238674960e+00 4.5367807956e-03 2.5971881739e+00 -4.4984618741e+00 2.5971881739e+00 4.4984618741e+00 
118200 4.7238657353e+00 4.5452058074e-03 2.5971008342e+00 -4.4983105972e+00 2.5971008342e+00 4.4983105972e+00 
118300 4.7238639675e+00 4.5536465885e-03 2.5970133293e+00 -4.4981590343e+00 2.5970133293e+00 4.4981590343e+00 
118400 4.7238621925e+00 4.5621031489e-03 2.5969256590e+00 -4.4980071848e+00 2.5969256590e+00 4.4980071848e+00 
118500 4.7238604104e+00 4.5705754986e-03 2.5968378228e+00 -4.4978550482e+00 2.5968378228e+00 4.4978550482e+00 
118600 4.7238586211e+00 4.5790636473e-03 2.5967498206e+00 -4.4977026239e+00 2.5967498206e+00 4.4977026239e+00 
118700 4.7238568246e+00 4.5875676046e-03 2.5966616520e+00 -4.4975499113e+00 2.5966616520e+00 4.4975499113e+00 
118800 4.7238550209e+00 4.5960873802e-03 2.5965733166e+00 -4.4973969100e+00 2.5965733166e+00 4.4973969100e+00 
118900 4.7238532099e+00 4.6046229834e-03 2.5964848142e+00 -4.4972436193e+00 2.5964848142e+00 4.4972436193e+00 
119000 4.7238513915e+00 4.6131744233e-03 2.5963961444e+00 -4.4970900386e+00 2.5963961444e+00 4.4970900386e+00 
119100 4.7238495658e+00 4.6217417092e-03 2.5963073068e+00 -4.4969361675e+00 2.5963073068e+00 4.4969361675e+00 
119200 4.7238477328e+00 4.6303248499e-03 2.5962183013e+00 -4.4967820054e+00 2.5962183013e+00 4.4967820054e+00 
119300 4.7238458924e+00 4.6389238544e-03 2.5961291274e+00 -4.4966275516e+00 2.5961291274e+00 4.4966275516e+00 
119400 4.7238440445e+00 4.6475387312e-03 2.5960397848e+00 -4.4964728058e+00 2.5960397848e+00 4.4964728058e+00 
119500 4.7238421892e+00 4.6561694888e-03 2.5959502732e+00 -4.4963177672e+00 2.5959502732e+00 4.4963177672e+00 
119600 4.7238403264e+00 4.6648161357e-03 2.5958605924e+00 -4.4961624353e+00 2.5958605924e+00 4.4961624353e+00 
119700 4.7238384560e+00 4.6734786801e-03 2.5957707418e+00 -4.4960068096e+00 2.5957707418e+00 4.4960068096e+00 
119800 4.7238365781e+00 4.6821571299e-03 2.5956807213e+00 -4.4958508895e+00 2.5956807213e+00 4.4958508895e+00 
119900 4.7238346926e+00 4.6908514932e-03 2.5955905305e+00 -4.4956946745e+00 2.5955905305e+00 4.4956946745e+00 
120000 4.7238327995e+00 4.6995617776e-03 2.5955001691e+00 -4.4955381640e+00 2.5955001691e+00 4.4955381640e+00 
120100 4.7238308988e+00 4.7082879908e-03 2.5954096368e+00 -4.4953813573e+00 2.5954096368e+00 4.4953813573e+00 
120200 4.7238289904e+00 4.7170301401e-03 2.5953189332e+00 -4.4952242541e+00 2.5953189332e+00 4.4952242541e+00 
120300 4.7238270742e+00 4.7257882329e-03 2.5952280580e+00 -4.4950668536e+00 2.5952280580e+00 4.4950668536e+00 
120400 4.7238251503e+00 4.7345622761e-03 2.5951370108e+00 -4.4949091554e+00 2.5951370108e+00 4.4949091554e+00 
120500 4.7238232187e+00 4.7433522768e-03 2.5950457915e+00 -4.4947511588e+00 2.5950457915e+00 4.4947511588e+00 
120600 4.7238212792e+00 4.7521582417e-03 2.5949543996e+00 -4.4945928634e+00 2.5949543996e+00 4.4945928634e+00 
120700 4.7238193319e+00 4.7609801773e-03 2.5948628347e+00 -4.4944342685e+00 2.5948628347e+00 4.4944342685e+00 
120800 4.7238173767e+00 4.7698180901e-03 2.5947710967e+00 -4.4942753735e+00 2.5947710967e+00 4.4942753735e+00 
120900 4.7238154136e+00 4.7786719862e-03 2.5946791851e+00 -4.4941161780e+00 2.5946791851e+00 4.4941161780e+00 
121000 4.7238134425e+00 4.7875418718e-03 2.5945870997e+00 -4.4939566813e+00 2.5945870997e+00 4.4939566813e+00 
121100 4.7238114635e+00 4.7964277527e-03 2.5944948401e+00 -4.4937968830e+00 2.5944948401e+00 4.4937968830e+00 
121200 4.7238094765e+00 4.8053296345e-03 2.5944024059e+00 -4.4936367823e+00 2.5944024059e+00 4.4936367823e+00 
121300 4.7238074814e+00 4.8142475228e-03 2.5943097969e+00 -4.4934763788e+00 2.5943097969e+00 4.4934763788e+00 
121400 4.7238054782e+00 4.8231814229e-03 2.5942170127e+00 -4.4933156718e+00 2.5942170127e+00 4.4933156718e+00 
121500 4.7238034670e+00 4.8321313399e-03 2.5941240530e+00 -4.4931546609e+00 2.5941240530e+00 4.4931546609e+00 
121600 4.7238014476e+00 4.8410972786e-03 2.5940309175e+00 -4.4929933454e+00 2.5940309175e+00 4.4929933454e+00 
121700 4.7237994200e+00 4.8500792439e-03 2.5939376058e+00 -4.4928317248e+00 2.5939376058e+00 4.4928317248e+00 
121800 4.7237973842e+00 4.8590772402e-03 2.5938441176e+00 -4.4926697986e+00 2.5938441176e+00 4.4926697986e+00 
121900 4.7237953402e+00 4.8680912720e-03 2.5937504526e+00 -4.4925075660e+00 2.5937504526e+00 4.4925075660e+00 
122000 4.7237932879e+00 4.8771213432e-03 2.5936566104e+00 -4.4923450267e+00 2.5936566104e+00 4.4923450267e+00 
122100 4.7237912273e+00 4.8861674579e-03 2.5935625908e+00 -4.4921821799e+00 2.5935625908e+00 4.4921821799e+00 
122200 4.7237891583e+00 4.8952296197e-03 2.5934683934e+00 -4.4920190252e+00 2.5934683934e+00 4.4920190252e+00 
122300 4.7237870810e+00 4.9043078322e-03 2.5933740179e+00 -4.4918555620e+00 2.5933740179e+00 4.4918555620e+00 
122400 4.7237849952e+00 4.9134020986e-03 2.5932794639e+00 -4.4916917896e+00 2.5932794639e+00 4.4916917896e+00 
122500 4.7237829010e+00 4.9225124220e-03 2.5931847311e+00 -4.4915277076e+00 2.5931847311e+00 4.4915277076e+00 
122600 4.7237807983e+00 4.9316388054e-03 2.5930898192e+00 -4.4913633154e+00 2.5930898192e+00 4.4913633154e+00 
122700 4.7237786871e+00 4.9407812513e-03 2.5929947278e+00 -4.4911986123e+00 2.5929947278e+00 4.4911986123e+00 
122800 4.7237765673e+00 4.9499397621e-03 2.5928994567e+00 -4.4910335979e+00 2.5928994567e+00 4.4910335979e+00 
122900 4.7237744389e+00 4.9591143401e-03 2.5928040054e+00 -4.4908682715e+00 2.5928040054e+00 4.4908682715e+00 
123000 4.7237723019e+00 4.9683049872e-03 2.5927083737e+00 -4.4907026325e+00 2.5927083737e+00 4.4907026325e+00 
123100 4.7237701562e+00 4.9775117052e-03 2.5926125613e+00 -4.4905366805e+00 2.5926125613e+00 4.4905366805e+00 
123200 4.7237680018e+00 4.9867344956e-03 2.5925165678e+00 -4.4903704148e+00 2.5925165678e+00 4.4903704148e+00 
123300 4.7237658387e+00 4.9959733596e-03 2.5924203928e+00 -4.4902038349e+00 2.5924203928e+00 4.4902038349e+00 
123400 4.7237636668e+00 5.0052282983e-03 2.5923240361e+00 -4.4900369402e+00 2.5923240361e+00 4.4900369402e+00 
123500 4.7237614861e+00 5.0144993125e-03 2.5922274973e+00 -4.4898697301e+00 2.5922274973e+00 4.4898697301e+00 
123600 4.7237592965e+00 5.0237864028e-03 2.5921307761e+00 -4.4897022040e+00 2.5921307761e+00 4.4897022040e+00 
123700 4.7237570981e+00 5.0330895695e-03 2.5920338721e+00 -4.4895343614e+00 2.5920338721e+00 4.4895343614e+00 
123800 4.7237548908e+00 5.0424088125e-03 2.5919367851e+00 -4.4893662017e+00 2.5919367851e+00 4.4893662017e+00 
123900 4.7237526744e+00 5.0517441319e-03 2.5918395146e+00 -4.4891977244e+00 2.5918395146e+00 4.4891977244e+00 
124000 4.7237504491e+00 5.0610955270e-03 2.5917420604e+00 -4.4890289287e+00 2.5917420604e+00 4.4890289287e+00 
124100 4.7237482148e+00 5.0704629972e-03 2.5916444222e+00 -4.4888598143e+00 2.5916444222e+00 4.4888598143e+00 
124200 4.7237459714e+00 5.0798465416e-03 2.5915465995e+00 -4.4886903805e+00 2.5915465995e+00 4.4886903805e+00 
124300 4.7237437189e+00 5.0892461590e-03 2.5914485921e+00 -4.4885206267e+00 2.5914485921e+00 4.4885206267e+00 
124400 4.7237414572e+00 5.0986618478e-03 2.5913503996e+00 -4.4883505524e+00 2.5913503996e+00 4.4883505524e+00 
124500 4.7237391863e+00 5.1080936064e-03 2.5912520218e+00 -4.4881801570e+00 2.5912520218e+00 4.4881801570e+00 
124600 4.7237369063e+00 5.1175414327e-03 2.5911534582e+00 -4.4880094398e+00 2.5911534582e+00 4.4880094398e+00 
124700 4.7237346169e+00 5.1270053244e-03 2.5910547086e+00 -4.4878384005e+00 2.5910547086e+00 4.4878384005e+00 
124800 4.7237323183e+00 5.1364852789e-03 2.5909557726e+00 -4.4876670383e+00 2.5909557726e+00 4.4876670383e+00 
124900 4.7237300103e+00 5.1459812935e-03 2.5908566498e+00 -4.4874953526e+00 2.5908566498e+00 4.4874953526e+00 
125000 4.7237276930e+00 5.1554933650e-03 2.5907573400e+00 -4.4873233430e+00 2.5907573400e+00 4.4873233430e+00 
125100 4.7237253662e+00 5.1650214900e-03 2.5906578429e+00 -4.4871510089e+00 2.5906578429e+00 4.4871510089e+00 
125200 4.7237230300e+00 5.1745656648e-03 2.5905581580e+00 -4.4869783496e+00 2.5905581580e+00 4.4869783496e+00 
125300 4.7237206843e+00 5.1841258854e-03 2.5904582851e+00 -4.4868053646e+00 2.5904582851e+00 4.4868053646e+00 
125400 4.7237183291e+00 5.1937021475e-03 2.5903582238e+00 -4.4866320534e+00 2.5903582238e+00 4.4866320534e+00 
125500 4.7237159643e+00 5.2032944466e-03 2.5902579738e+00 -4.4864584153e+00 2.5902579738e+00 4.4864584153e+00 
125600 4.7237135899e+00 5.2129027778e-03 2.5901575347e+00 -4.4862844497e+00 2.5901575347e+00 4.4862844497e+00 
125700 4.7237112058e+00 5.2225271359e-03 2.5900569063e+00 -4.4861101562e+00 2.5900569063e+00 4.4861101562e+00 
125800 4.7237088121e+00 5.2321675155e-03 2.5899560882e+00 -4.4859355341e+00 2.5899560882e+00 4.4859355341e+00 
125900 4.7237064086e+00 5.2418239107e-03 2.5898550800e+00 -4.4857605829e+00 2.5898550800e+00 4.4857605829e+00 
126000 4.7237039953e+00 5.2514963155e-03 2.5897538815e+00 -4.4855853019e+00 2.5897538815e+00 4.4855853019e+00 
126100 4.7237015722e+00 5.2611847234e-03 2.5896524923e+00 -4.4854096906e+00 2.5896524923e+00 4.4854096906e+00 
126200 4.7236991393e+00 5.2708891276e-03 2.5895509121e+00 -4.4852337485e+00 2.5895509121e+00 4.4852337485e+00 
126300 4.7236966965e+00 5.2806095213e-03 2.5894491405e+00 -4.4850574749e+00 2.5894491405e+00 4.4850574749e+00 
126400 4.7236942438e+00 5.2903458969e-03 2.5893471772e+00 -4.4848808693e+00 2.5893471772e+00 4.4848808693e+00 
126500 4.7236917810e+00 5.3000982467e-03 2.5892450219e+00 -4.4847039311e+00 2.5892450219e+00 4.4847039311e+00 
126600 4.7236893083e+00 5.3098665627e-03 2.5891426742e+00 -4.4845266598e+00 2.5891426742e+00 4.4845266598e+00 
126700 4.7236868255e+00 5.3196508366e-03 2.5890401339e+00 -4.4843490547e+00 2.5890401339e+00 4.4843490547e+00 
126800 4.7236843326e+00 5.3294510596e-03 2.5889374005e+00 -4.4841711153e+00 2.5889374005e+00 4.4841711153e+00 
126900 4.7236818296e+00 5.3392672227e-03 2.5888344738e+00 -4.4839928410e+00 2.5888344738e+00 4.4839928410e+00 
127000 4.7236793164e+00 5.3490993165e-03 2.5887313534e+00 -4.4838142313e+00 2.5887313534e+00 4.4838142313e+00 
127100 4.7236767929e+00 5.3589473312e-03 2.5886280391e+00 -4.4836352855e+00 2.5886280391e+00 4.4836352855e+00 
127200 4.7236742592e+00 5.3688112567e-03 2.5885245303e+00 -4.4834560032e+00 2.5885245303e+00 4.4834560032e+00 
127300 4.7236717152e+00 5.3786910826e-03 2.5884208269e+00 -4.4832763836e+00 2.5884208269e+00 4.4832763836e+00 
127400 4.7236691608e+00 5.3885867980e-03 2.5883169286e+00 -4.4830964263e+00 2.5883169286e+00 4.4830964263e+00 
127500 4.7236665961e+00 5.3984983919e-03 2.5882128348e+00 -4.4829161307e+00 2.5882128348e+00 4.4829161307e+00 
127600 4.7236640209e+00 5.4084258526e-03 2.5881085455e+00 -4.4827354962e+00 2.5881085455e+00 4.4827354962e+00 
127700 4.7236614352e+00 5.4183691683e-03 2.5880040601e+00 -4.4825545223e+00 2.5880040601e+00 4.4825545223e+00 
127800 4.7236588390e+00 5.4283283266e-03 2.5878993784e+00 -4.4823732083e+00 2.5878993784e+00 4.4823732083e+00 
127900 4.7236562323e+00 5.4383033150e-03 2.5877945001e+00 -4.4821915537e+00 2.5877945001e+00 4.4821915537e+00 
128000 4.7236536149e+00 5.4482941203e-03 2.5876894248e+00 -4.4820095579e+00 2.5876894248e+00 4.4820095579e+00 
128100 4.7236509869e+00 5.4583007292e-03 2.5875841521e+00 -4.4818272203e+00 2.5875841521e+00 4.4818272203e+00 
128200 4.7236483482e+00 5.4683231279e-03 2.5874786819e+00 -4.4816445405e+00 2.5874786819e+00 4.4816445405e+00 
128300 4.7236456987e+00 5.4783613021e-03 2.5873730136e+00 -4.4814615177e+00 2.5873730136e+00 4.4814615177e+00 
128400 4.7236430385e+00 5.4884152373e-03 2.5872671471e+00 -4.4812781515e+00 2.5872671471e+00 4.4812781515e+00 
128500 4.7236403674e+00 5.4984849185e-03 2.5871610819e+00 -4.4810944413e+00 2.5871610819e+00 4.4810944413e+00 
128600 4.7236376855e+00 5.5085703303e-03 2.5870548178e+00 -4.4809103865e+00 2.5870548178e+00 4.4809103865e+00 
128700 4.7236349926e+00 5.5186714568e-03 2.5869483545e+00 -4.4807259865e+00 2.5869483545e+00 4.4807259865e+00 
128800 4.7236322888e+00 5.5287882820e-03 2.5868416914e+00 -4.4805412407e+00 2.5868416914e+00 4.4805412407e+00 
128900 4.7236295740e+00 5.5389207891e-03 2.5867348285e+00 -4.4803561487e+00 2.5867348285e+00 4.4803561487e+00 
129000 4.7236268481e+00 5.5490689612e-03 2.5866277653e+00 -4.4801707098e+00 2.5866277653e+00 4.4801707098e+00 
129100 4.7236241111e+00 5.5592327808e-03 2.5865205015e+00 -4.4799849234e+00 2.5865205015e+00 4.4799849234e+00 
129200 4.7236213630e+00 5.5694122299e-03 2.5864130368e+00 -4.4797987890e+00 2.5864130368e+00 4.4797987890e+00 
129300 4.7236186037e+00 5.5796072904e-03 2.5863053708e+00 -4.4796123061e+00 2.5863053708e+00 4.4796123061e+00 
129400 4.7236158332e+00 5.5898179433e-03 2.5861975032e+00 -4.4794254740e+00 2.5861975032e+00 4.4794254740e+00 
129500 4.7236130514e+00 5.6000441697e-03 2.5860894338e+00 -4.4792382923e+00 2.5860894338e+00 4.4792382923e+00 
129600 4.7236102582e+00 5.6102859497e-03 2.5859811621e+00 -4.4790507602e+00 2.5859811621e+00 4.4790507602e+00 
129700 4.7236074537e+00 5.6205432634e-03 2.5858726879e+00 -4.4788628773e+00 2.5858726879e+00 4.4788628773e+00 
129800 4.7236046378e+00 5.6308160903e-03 2.5857640108e+00 -4.4786746430e+00 2.5857640108e+00 4.4786746430e+00 
129900 4.7236018104e+00 5.6411044093e-03 2.5856551304e+00 -4.4784860568e+00 2.5856551304e+00 4.4784860568e+00 
130000 4.7235989715e+00 5.6514081991e-03 2.5855460466e+00 -4.4782971180e+00 2.5855460466e+00 4.4782971180e+00 
130100 4.7235961210e+00 5.6617274378e-03 2.5854367589e+00 -4.4781078261e+00 2.5854367589e+00 4.4781078261e+00 
130200 4.7235932590e+00 5.6720621029e-03 2.5853272670e+00 -4.4779181806e+00 2.5853272670e+00 4.4779181806e+00 
130300 4.7235903853e+00 5.6824121717e-03 2.5852175706e+00 -4.4777281808e+00 2.5852175706e+00 4.4777281808e+00 
130400 4.7235874998e+00 5.6927776209e-03 2.5851076693e+00 -4.4775378263e+00 2.5851076693e+00 4.4775378263e+00 
130500 4.7235846027e+00 5.7031584267e-03 2.5849975629e+00 -4.4773471165e+00 2.5849975629e+00 4.4773471165e+00 
130600 4.7235816937e+00 5.7135545648e-03 2.5848872511e+00 -4.4771560507e+00 2.5848872511e+00 4.4771560507e+00 
130700 4.7235787729e+00 5.7239660105e-03 2.5847767334e+00 -4.4769646285e+00 2.5847767334e+00 4.4769646285e+00 
130800 4.7235758402e+00 5.7343927385e-03 2.5846660096e+00 -4.4767728493e+00 2.5846660096e+00 4.4767728493e+00 
130900 4.7235728956e+00 5.7448347231e-03 2.5845550794e+00 -4.4765807125e+00 2.5845550794e+00 4.4765807125e+00 
131000 4.7235699390e+00 5.7552919381e-03 2.5844439424e+00 -4.4763882176e+00 2.5844439424e+00 4.4763882176e+00 
131100 4.7235669703e+00 5.7657643567e-03 2.5843325983e+00 -4.4761953640e+00 2.5843325983e+00 4.4761953640e+00 
131200 4.7235639896e+00 5.7762519517e-03 2.5842210469e+00 -4.4760021511e+00 2.5842210469e+00 4.4760021511e+00 
131300 4.7235609967e+00 5.7867546952e-03 2.5841092876e+00 -4.4758085785e+00 2.5841092876e+00 4.4758085785e+00 
131400 4.7235579916e+00 5.7972725591e-03 2.5839973204e+00 -4.4756146455e+00 2.5839973204e+00 4.4756146455e+00 
131500 4.7235549744e+00 5.8078055145e-03 2.5838851447e+00 -4.4754203516e+00 2.5838851447e+00 4.4754203516e+00 
131600 4.7235519448e+00 5.8183535321e-03 2.5837727604e+00 -4.4752256963e+00 2.5837727604e+00 4.4752256963e+00 
131700 4.7235489029e+00 5.8289165820e-03 2.5836601671e+00 -4.4750306789e+00 2.5836601671e+00 4.4750306789e+00 
131800 4.7235458486e+00 5.8394946337e-03 2.5835473645e+00 -4.4748352990e+00 2.5835473645e+00 4.4748352990e+00 
131900 4.7235427819e+00 5.8500876565e-03 2.5834343522e+00 -4.4746395560e+00 2.5834343522e+00 4.4746395560e+00 
132000 4.7235397027e+00 5.8606956186e-03 2.5833211299e+00 -4.4744434493e+00 2.5833211299e+00 4.4744434493e+00 
132100 4.7235366110e+00 5.8713184883e-03 2.5832076974e+00 -4.4742469784e+00 2.5832076974e+00 4.4742469784e+00 
132200 4.7235335067e+00 5.8819562327e-03 2.5830940543e+00 -4.4740501427e+00 2.5830940543e+00 4.4740501427e+00 
132300 4.7235303898e+00 5.8926088188e-03 2.5829802002e+00 -4.4738529418e+00 2.5829802002e+00 4.4738529418e+00 
132400 4.7235272601e+00 5.9032762128e-03 2.5828661350e+00 -4.4736553750e+00 2.5828661350e+00 4.4736553750e+00 
132500 4.7235241178e+00 5.9139583804e-03 2.5827518582e+00 -4.4734574418e+00 2.5827518582e+00 4.4734574418e+00 
132600 4.7235209627e+00 5.9246552869e-03 2.5826373696e+00 -4.4732591416e+00 2.5826373696e+00 4.4732591416e+00 
132700 4.7235177947e+00 5.9353668966e-03 2.5825226688e+00 -4.4730604740e+00 2.5825226688e+00 4.4730604740e+00 
132800 4.7235146138e+00 5.9460931737e-03 2.5824077555e+00 -4.4728614384e+00 2.5824077555e+00 4.4728614384e+00 
132900 4.7235114200e+00 5.9568340814e-03 2.5822926294e+00 -4.4726620342e+00 2.5822926294e+00 4.4726620342e+00 
133000 4.7235082133e+00 5.9675895825e-03 2.5821772903e+00 -4.4724622609e+00 2.5821772903e+00 4.4724622609e+00 
133100 4.7235049934e+00 5.9783596393e-03 2.5820617377e+00 -4.4722621180e+00 2.5820617377e+00 4.4722621180e+00 
133200 4.7235017605e+00 5.9891442132e-03 2.5819459714e+00 -4.4720616048e+00 2.5819459714e+00 4.4720616048e+00 
133300 4.7234985144e+00 5.9999432653e-03 2.5818299910e+00 -4.4718607210e+00 2.5818299910e+00 4.4718607210e+00 
133400 4.7234952552e+00 6.0107567560e-03 2.5817137964e+00 -4.4716594659e+00 2.5817137964e+00 4.4716594659e+00 
133500 4.7234919826e+00 6.0215846448e-03 2.5815973870e+00 -4.4714578390e+00 2.5815973870e+00 4.4714578390e+00 
133600 4.7234886968e+00 6.0324268910e-03 2.5814807627e+00 -4.4712558398e+00 2.5814807627e+00 4.4712558398e+00 
133700 4.7234853976e+00 6.0432834530e-03 2.5813639232e+00 -4.4710534678e+00 2.5813639232e+00 4.4710534678e+00 
133800 4.7234820850e+00 6.0541542887e-03 2.5812468681e+00 -4.4708507223e+00 2.5812468681e+00 4.4708507223e+00 
133900 4.7234787590e+00 6.0650393552e-03 2.5811295970e+00 -4.4706476030e+00 2.5811295970e+00 4.4706476030e+00 
134000 4.7234754194e+00 6.0759386092e-03 2.5810121099e+00 -4.4704441092e+00 2.5810121099e+00 4.4704441092e+00 
134100 4.7234720662e+00 6.0868520064e-03 2.5808944062e+00 -4.4702402405e+00 2.5808944062e+00 4.4702402405e+00 
134200 4.7234686994e+00 6.0977795021e-03 2.5807764857e+00 -4.4700359962e+00 2.5807764857e+00 4.4700359962e+00 
134300 4.7234653190e+00 6.1087210510e-03 2.5806583481e+00 -4.4698313760e+00 2.5806583481e+00 4.4698313760e+00 
134400 4.7234619248e+00 6.1196766069e-03 2.5805399932e+00 -4.4696263791e+00 2.5805399932e+00 4.4696263791e+00 
134500 4.7234585168e+00 6.1306461231e-03 2.5804214205e+00 -4.4694210053e+00 2.5804214205e+00 4.4694210053e+00 
134600 4.7234550950e+00 6.1416295520e-03 2.5803026299e+00 -4.4692152538e+00 2.5803026299e+00 4.4692152538e+00 
134700 4.7234516593e+00 6.1526268457e-03 2.5801836209e+00 -4.4690091243e+00 2.5801836209e+00 4.4690091243e+00 
134800 4.7234482096e+00 6.1636379552e-03 2.5800643934e+00 -4.4688026161e+00 2.5800643934e+00 4.4688026161e+00 
134900 4.7234447459e+00 6.1746628311e-03 2.5799449469e+00 -4.4685957288e+00 2.5799449469e+00 4.4685957288e+00 
135000 4.7234412682e+00 6.1857014231e-03 2.5798252813e+00 -4.4683884618e+00 2.5798252813e+00 4.4683884618e+00 
135100 4.7234377763e+00 6.1967536803e-03 2.5797053962e+00 -4.4681808147e+00 2.5797053962e+00 4.4681808147e+00 
135200 4.7234342703e+00 6.2078195512e-03 2.5795852912e+00 -4.4679727869e+00 2.5795852912e+00 4.4679727869e+00 
135300 4.7234307500e+00 6.2188989832e-03 2.5794649663e+00 -4.4677643779e+00 2.5794649663e+00 4.4677643779e+00 
135400 4.7234272154e+00 6.2299919234e-03 2.5793444209e+00 -4.4675555872e+00 2.5793444209e+00 4.4675555872e+00 
135500 4.7234236665e+00 6.2410983180e-03 2.5792236549e+00 -4.4673464143e+00 2.5792236549e+00 4.4673464143e+00 
135600 4.7234201033e+00 6.2522181124e-03 2.5791026679e+00 -4.4671368587e+00 2.5791026679e+00 4.4671368587e+00 
135700 4.7234165255e+00 6.2633512513e-03 2.5789814597e+00 -4.4669269199e+00 2.5789814597e+00 4.4669269199e+00 
135800 4.7234129333e+00 6.2744976787e-03 2.5788600299e+00 -4.4667165974e+00 2.5788600299e+00 4.4667165974e+00 
135900 4.7234093264e+00 6.2856573378e-03 2.5787383783e+00 -4.4665058907e+00 2.5787383783e+00 4.4665058907e+00 
136000 4.7234057050e+00 6.2968301710e-03 2.5786165046e+00 -4.4662947992e+00 2.5786165046e+00 4.4662947992e+00 
136100 4.7234020689e+00 6.3080161202e-03 2.5784944085e+00 -4.4660833226e+00 2.5784944085e+00 4.4660833226e+00 
136200 4.7233984180e+00 6.3192151261e-03 2.5783720897e+00 -4.4658714602e+00 2.5783720897e+00 4.4658714602e+00 
136300 4.7233947523e+00 6.3304271289e-03 2.5782495480e+00 -4.4656592117e+00 2.5782495480e+00 4.4656592117e+00 
136400 4.7233910718e+00 6.3416520680e-03 2.5781267830e+00 -4.4654465764e+00 2.5781267830e+00 4.4654465764e+00 
136500 4.7233873764e+00 6.3528898820e-03 2.5780037944e+00 -4.4652335540e+00 2.5780037944e+00 4.4652335540e+00 
136600 4.7233836660e+00 6.3641405086e-03 2.5778805820e+00 -4.4650201439e+00 2.5778805820e+00 4.4650201439e+00 
136700 4.7233799406e+00 6.3754038849e-03 2.5777571456e+00 -4.4648063457e+00 2.5777571456e+00 4.4648063457e+00 
136800 4.7233762000e+00 6.3866799469e-03 2.5776334847e+00 -4.4645921588e+00 2.5776334847e+00 4.4645921588e+00 
136900 4.7233724444e+00 6.3979686300e-03 2.5775095992e+00 -4.4643775828e+00 2.5775095992e+00 4.4643775828e+00 
137000 4.7233686735e+00 6.4092698688e-03 2.5773854888e+00 -4.4641626172e+00 2.5773854888e+00 4.4641626172e+00 
137100 4.7233648874e+00 6.4205835970e-03 2.5772611531e+00 -4.4639472615e+00 2.5772611531e+00 4.4639472615e+00 
137200 4.7233610860e+00 6.4319097475e-03 2.5771365920e+00 -4.4637315153e+00 2.5771365920e+00 4.4637315153e+00 
137300 4.7233572692e+00 6.4432482522e-03 2.5770118051e+00 -4.4635153781e+00 2.5770118051e+00 4.4635153781e+00 
137400 4.7233534369e+00 6.4545990425e-03 2.5768867921e+00 -4.4632988493e+00 2.5768867921e+00 4.4632988493e+00 
137500 4.7233495891e+00 6.4659620485e-03 2.5767615529e+00 -4.4630819286e+00 2.5767615529e+00 4.4630819286e+00 
137600 4.7233457258e+00 6.4773371999e-03 2.5766360871e+00 -4.4628646154e+00 2.5766360871e+00 4.4628646154e+00 
137700 4.7233418469e+00 6.4887244252e-03 2.5765103944e+00 -4.4626469094e+00 2.5765103944e+00 4.4626469094e+00 
137800 4.7233379523e+00 6.5001236521e-03 2.5763844747e+00 -4.4624288099e+00 2.5763844747e+00 4.4624288099e+00 
137900 4.7233340420e+00 6.5115348077e-03 2.5762583275e+00 -4.4622103167e+00 2.5762583275e+00 4.4622103167e+00 
138000 4.7233301158e+00 6.5229578177e-03 2.5761319527e+00 -4.4619914291e+00 2.5761319527e+00 4.4619914291e+00 
138100 4.7233261738e+00 6.5343926074e-03 2.5760053500e+00 -4.4617721469e+00 2.5760053500e+00 4.4617721469e+00 
138200 4.7233222159e+00 6.5458391009e-03 2.5758785192e+00 -4.4615524694e+00 2.5758785192e+00 4.4615524694e+00 
138300 4.7233182420e+00 6.5572972216e-03 2.5757514599e+00 -4.4613323963e+00 2.5757514599e+00 4.4613323963e+00 
138400 4.7233142521e+00 6.5687668917e-03 2.5756241720e+00 -4.4611119270e+00 2.5756241720e+00 4.4611119270e+00 
138500 4.7233102461e+00 6.5802480329e-03 2.5754966550e+00 -4.4608910613e+00 2.5754966550e+00 4.4608910613e+00 
138600 4.7233062239e+00 6.5917405655e-03 2.5753689089e+00 -4.4606697985e+00 2.5753689089e+00 4.4606697985e+00 
138700 4.7233021855e+00 6.6032444094e-03 2.5752409334e+00 -4.4604481383e+00 2.5752409334e+00 4.4604481383e+00 
138800 4.7232981308e+00 6.6147594830e-03 2.5751127281e+00 -4.4602260803e+00 2.5751127281e+00 4.4602260803e+00 
138900 4.7232940597e+00 6.6262857042e-03 2.5749842928e+00 -4.4600036239e+00 2.5749842928e+00 4.4600036239e+00 
139000 4.7232899723e+00 6.6378229898e-03 2.5748556274e+00 -4.4597807688e+00 2.5748556274e+00 4.4597807688e+00 
139100 4.7232858683e+00 6.6493712555e-03 2.5747267315e+00 -4.4595575145e+00 2.5747267315e+00 4.4595575145e+00 
139200 4.7232817479e+00 6.6609304163e-03 2.5745976048e+00 -4.4593338606e+00 2.5745976048e+00 4.4593338606e+00 
139300 4.7232776108e+00 6.6725003859e-03 2.5744682473e+00 -4.4591098067e+00 2.5744682473e+00 4.4591098067e+00 
139400 4.7232734571e+00 6.6840810775e-03 2.5743386585e+00 -4.4588853524e+00 2.5743386585e+00 4.4588853524e+00 
139500 4.7232692867e+00 6.6956724028e-03 2.5742088382e+00 -4.4586604971e+00 2.5742088382e+00 4.4586604971e+00 
139600 4.7232650995e+00 6.7072742728e-03 2.5740787863e+00 -4.4584352406e+00 2.5740787863e+00 4.4584352406e+00 
139700 4.7232608955e+00 6.7188865974e-03 2.5739485025e+00 -4.4582095823e+00 2.5739485025e+00 4.4582095823e+00 
139800 4.7232566745e+00 6.7305092856e-03 2.5738179865e+00 -4.4579835220e+00 2.5738179865e+00 4.4579835220e+00 
139900 4.7232524366e+00 6.7421422453e-03 2.5736872381e+00 -4.4577570591e+00 2.5736872381e+00 4.4577570591e+00 
140000 4.7232481816e+00 6.7537853834e-03 2.5735562570e+00 -4.4575301933e+00 2.5735562570e+00 4.4575301933e+00 
140100 4.7232439096e+00 6.7654386058e-03 2.5734250431e+00 -4.4573029241e+00 2.5734250431e+00 4.4573029241e+00 
140200 4.7232396204e+00 6.7771018172e-03 2.5732935961e+00 -4.4570752512e+00 2.5732935961e+00 4.4570752512e+00 
140300 4.7232353140e+00 6.7887749216e-03 2.5731619157e+00 -4.4568471741e+00 2.5731619157e+00 4.4568471741e+00 
140400 4.7232309902e+00 6.8004578215e-03 2.5730300018e+00 -4.4566186925e+00 2.5730300018e+00 4.4566186925e+00 
140500 4.7232266492e+00 6.8121504188e-03 2.5728978541e+00 -4.4563898060e+00 2.5728978541e+00 4.4563898060e+00 
140600 4.7232222907e+00 6.8238526141e-03 2.5727654724e+00 -4.4561605142e+00 2.5727654724e+00 4.4561605142e+00 
140700 4.7232179147e+00 6.8355643068e-03 2.5726328565e+00 -4.4559308166e+00 2.5726328565e+00 4.4559308166e+00 
140800 4.7232135212e+00 6.8472853956e-03 2.5725000061e+00 -4.4557007130e+00 2.5725000061e+00 4.4557007130e+00 
140900 4.7232091101e+00 6.8590157777e-03 2.5723669210e+00 -4.4554702029e+00 2.5723669210e+00 4.4554702029e+00 
141000 4.7232046813e+00 6.8707553495e-03 2.5722336011e+00 -4.4552392860e+00 2.5722336011e+00 4.4552392860e+00 
141100 4.7232002348e+00 6.8825040061e-03 2.5721000460e+00 -4.4550079619e+00 2.5721000460e+00 4.4550079619e+00 
141200 4.7231957705e+00 6.8942616418e-03 2.5719662557e+00 -4.4547762301e+00 2.5719662557e+00 4.4547762301e+00 
141300 4.7231912883e+00 6.9060281494e-03 2.5718322298e+00 -4.4545440905e+00 2.5718322298e+00 4.4545440905e+00 
141400 4.7231867882e+00 6.9178034207e-03 2.5716979681e+00 -4.4543115425e+00 2.5716979681e+00 4.4543115425e+00 
141500 4.7231822701e+00 6.9295873467e-03 2.5715634705e+00 -4.4540785859e+00 2.5715634705e+00 4.4540785859e+00 
141600 4.7231777339e+00 6.9413798167e-03 2.5714287368e+00 -4.4538452202e+00 2.5714287368e+00 4.4538452202e+00 
141700 4.7231731796e+00 6.9531807193e-03 2.5712937667e+00 -4.4536114452e+00 2.5712937667e+00 4.4536114452e+00 
141800 4.7231686071e+00 6.9649899417e-03 2.5711585601e+00 -4.4533772604e+00 2.5711585601e+00 4.4533772604e+00 
141900 4.7231640163e+00 6.9768073702e-03 2.5710231167e+00 -4.4531426655e+00 2.5710231167e+00 4.4531426655e+00 
142000 4.7231594073e+00 6.9886328896e-03 2.5708874363e+00 -4.4529076603e+00 2.5708874363e+00 4.4529076603e+00 
142100 4.7231547798e+00 7.0004663837e-03 2.5707515189e+00 -4.4526722443e+00 2.5707515189e+00 4.4526722443e+00 
142200 4.7231501339e+00 7.0123077352e-03 2.5706153640e+00 -4.4524364172e+00 2.5706153640e+00 4.4524364172e+00 
142300 4.7231454694e+00 7.0241568255e-03 2.5704789717e+00 -4.4522001787e+00 2.5704789717e+00 4.4522001787e+00 
142400 4.7231407864e+00 7.0360135347e-03 2.5703423416e+00 -4.4519635285e+00 2.5703423416e+00 4.4519635285e+00 
142500 4.7231360847e+00 7.0478777420e-03 2.5702054736e+00 -4.4517264662e+00 2.5702054736e+00 4.4517264662e+00 
142600 4.7231313643e+00 7.0597493251e-03 2.5700683676e+00 -4.4514889915e+00 2.5700683676e+00 4.4514889915e+00 
142700 4.7231266251e+00 7.0716281605e-03 2.5699310232e+00 -4.4512511042e+00 2.5699310232e+00 4.4512511042e+00 
142800 4.7231218670e+00 7.0835141237e-03 2.5697934405e+00 -4.4510128038e+00 2.5697934405e+00 4.4510128038e+00 
142900 4.7231170900e+00 7.0954070888e-03 2.5696556190e+00 -4.4507740901e+00 2.5696556190e+00 4.4507740901e+00 
143000 4.7231122941e+00 7.1073069286e-03 2.5695175588e+00 -4.4505349629e+00 2.5695175588e+00 4.4505349629e+00 
143100 4.7231074791e+00 7.1192135148e-03 2.5693792597e+00 -4.4502954217e+00 2.5693792597e+00 4.4502954217e+00 
143200 4.7231026449e+00 7.1311267177e-03 2.5692407214e+00 -4.4500554663e+00 2.5692407214e+00 4.4500554663e+00 
143300 4.7230977916e+00 7.1430464064e-03 2.5691019437e+00 -4.4498150964e+00 2.5691019437e+00 4.4498150964e+00 
143400 4.7230929190e+00 7.1549724487e-03 2.5689629266e+00 -4.4495743117e+00 2.5689629266e+00 4.4495743117e+00 
143500 4.7230880271e+00 7.1669047112e-03 2.5688236699e+00 -4.4493331119e+00 2.5688236699e+00 4.4493331119e+00 
143600 4.7230831158e+00 7.1788430592e-03 2.5686841734e+00 -4.4490914969e+00 2.5686841734e+00 4.4490914969e+00 
143700 4.7230781850e+00 7.1907873565e-03 2.5685444369e+00 -4.4488494662e+00 2.5685444369e+00 4.4488494662e+00 
143800 4.7230732347e+00 7.2027374658e-03 2.5684044603e+00 -4.4486070196e+00 2.5684044603e+00 4.4486070196e+00 
143900 4.7230682649e+00 7.2146932484e-03 2.5682642434e+00 -4.4483641569e+00 2.5682642434e+00 4.4483641569e+00 
144000 4.7230632753e+00 7.2266545644e-03 2.5681237862e+00 -4.4481208778e+00 2.5681237862e+00 4.4481208778e+00 
144100 4.7230582660e+00 7.2386212724e-03 2.5679830883e+00 -4.4478771820e+00 2.5679830883e+00 4.4478771820e+00 
144200 4.7230532370e+00 7.2505932298e-03 2.5678421498e+00 -4.4476330693e+00 2.5678421498e+00 4.4476330693e+00 
144300 4.7230481880e+00 7.2625702924e-03 2.5677009704e+00 -4.4473885394e+00 2.5677009704e+00 4.4473885394e+00 
144400 4.7230431192e+00 7.2745523151e-03 2.5675595501e+00 -4.4471435922e+00 2.5675595501e+00 4.4471435922e+00 
144500 4.7230380303e+00 7.2865391510e-03 2.5674178886e+00 -4.4468982273e+00 2.5674178886e+00 4.4468982273e+00 
144600 4.7230329214e+00 7.2985306521e-03 2.5672759859e+00 -4.4466524446e+00 2.5672759859e+00 4.4466524446e+00 
144700 4.7230277923e+00 7.3105266689e-03 2.5671338418e+00 -4.4464062438e+00 2.5671338418e+00 4.4464062438e+00 
144800 4.7230226430e+00 7.3225270505e-03 2.5669914561e+00 -4.4461596246e+00 2.5669914561e+00 4.4461596246e+00 
144900 4.7230174734e+00 7.3345316447e-03 2.5668488289e+00 -4.4459125870e+00 2.5668488289e+00 4.4459125870e+00 
145000 4.7230122835e+00 7.3465402978e-03 2.5667059599e+00 -4.4456651306e+00 2.5667059599e+00 4.4456651306e+00 
145100 4.7230070732e+00 7.3585528548e-03 2.5665628490e+00 -4.4454172552e+00 2.5665628490e+00 4.4454172552e+00 
145200 4.7230018424e+00 7.3705691591e-03 2.5664194961e+00 -4.4451689607e+00 2.5664194961e+00 4.4451689607e+00 
145300 4.7229965911e+00 7.3825890530e-03 2.5662759011e+00 -4.4449202469e+00 2.5662759011e+00 4.4449202469e+00 
145400 4.7229913191e+00 7.3946123770e-03 2.5661320638e+00 -4.4446711135e+00 2.5661320638e+00 4.4446711135e+00 
145500 4.7229860265e+00 7.4066389703e-03 2.5659879843e+00 -4.4444215604e+00 2.5659879843e+00 4.4444215604e+00 
145600 4.7229807131e+00 7.4186686708e-03 2.5658436623e+00 -4.4441715874e+00 2.5658436623e+00 4.4441715874e+00 
145700 4.7229753788e+00 7.4307013147e-03 2.5656990978e+00 -4.4439211943e+00 2.5656990978e+00 4.4439211943e+00 
145800 4.7229700237e+00 7.4427367369e-03 2.5655542906e+00 -4.4436703810e+00 2.5655542906e+00 4.4436703810e+00 
145900 4.7229646476e+00 7.4547747708e-03 2.5654092408e+00 -4.4434191472e+00 2.5654092408e+00 4.4434191472e+00 
146000 4.7229592505e+00 7.4668152482e-03 2.5652639481e+00 -4.4431674929e+00 2.5652639481e+00 4.4431674929e+00 
146100 4.7229538323e+00 7.4788579996e-03 2.5651184125e+00 -4.4429154178e+00 2.5651184125e+00 4.4429154178e+00 
146200 4.7229483929e+00 7.4909028539e-03 2.5649726339e+00 -4.4426629219e+00 2.5649726339e+00 4.4426629219e+00 
146300 4.7229429323e+00 7.5029496384e-03 2.5648266122e+00 -4.4424100049e+00 2.5648266122e+00 4.4424100049e+00 
146400 4.7229374504e+00 7.5149981791e-03 2.5646803474e+00 -4.4421566668e+00 2.5646803474e+00 4.4421566668e+00 
146500 4.7229319471e+00 7.5270483004e-03 2.5645338393e+00 -4.4419029074e+00 2.5645338393e+00 4.4419029074e+00 
146600 4.7229264224e+00 7.5390998250e-03 2.5643870880e+00 -4.4416487266e+00 2.5643870880e+00 4.4416487266e+00 
146700 4.7229208761e+00 7.5511525743e-03 2.5642400932e+00 -4.4413941243e+00 2.5642400932e+00 4.4413941243e+00 
146800 4.7229153083e+00 7.5632063680e-03 2.5640928551e+00 -4.4411391003e+00 2.5640928551e+00 4.4411391003e+00 
146900 4.7229097188e+00 7.5752610243e-03 2.5639453734e+00 -4.4408836545e+00 2.5639453734e+00 4.4408836545e+00 
147000 4.7229041076e+00 7.5873163599e-03 2.5637976482e+00 -4.4406277869e+00 2.5637976482e+00 4.4406277869e+00 
147100 4.7228984746e+00 7.5993721899e-03 2.5636496793e+00 -4.4403714974e+00 2.5636496793e+00 4.4403714974e+00 
147200 4.7228928197e+00 7.6114283277e-03 2.5635014668e+00 -4.4401147858e+00 2.5635014668e+00 4.4401147858e+00 
147300 4.7228871429e+00 7.6234845852e-03 2.5633530106e+00 -4.4398576521e+00 2.5633530106e+00 4.4398576521e+00 
147400 4.7228814441e+00 7.6355407729e-03 2.5632043106e+00 -4.4396000962e+00 2.5632043106e+00 4.4396000962e+00 
147500 4.7228757233e+00 7.6475966994e-03 2.5630553668e+00 -4.4393421180e+00 2.5630553668e+00 4.4393421180e+00 
147600 4.7228699803e+00 7.6596521718e-03 2.5629061792e+00 -4.4390837174e+00 2.5629061792e+00 4.4390837174e+00 
147700 4.7228642151e+00 7.6717069956e-03 2.5627567477e+00 -4.4388248945e+00 2.5627567477e+00 4.4388248945e+00 
147800 4.7228584277e+00 7.6837609747e-03 2.5626070723e+00 -4.4385656491e+00 2.5626070723e+00 4.4385656491e+00 
147900 4.7228526179e+00 7.6958139113e-03 2.5624571530e+00 -4.4383059812e+00 2.5624571530e+00 4.4383059812e+00 
148000 4.7228467857e+00 7.7078656062e-03 2.5623069897e+00 -4.4380458908e+00 2.5623069897e+00 4.4380458908e+00 
148100 4.7228409310e+00 7.7199158581e-03 2.5621565825e+00 -4.4377853779e+00 2.5621565825e+00 4.4377853779e+00 
148200 4.7228350538e+00 7.7319644644e-03 2.5620059313e+00 -4.4375244423e+00 2.5620059313e+00 4.4375244423e+00 
148300 4.7228291539e+00 7.7440112209e-03 2.5618550361e+00 -4.4372630841e+00 2.5618550361e+00 4.4372630841e+00 
148400 4.7228232314e+00 7.7560559213e-03 2.5617038969e+00 -4.4370013033e+00 2.5617038969e+00 4.4370013033e+00 
148500 4.7228172861e+00 7.7680983581e-03 2.5615525137e+00 -4.4367390999e+00 2.5615525137e+00 4.4367390999e+00 
148600 4.7228113180e+00 7.7801383219e-03 2.5614008864e+00 -4.4364764739e+00 2.5614008864e+00 4.4364764739e+00 
148700 4.7228053270e+00 7.7921756015e-03 2.5612490152e+00 -4.4362134252e+00 2.5612490152e+00 4.4362134252e+00 
148800 4.7227993130e+00 7.8042099843e-03 2.5610969000e+00 -4.4359499539e+00 2.5610969000e+00 4.4359499539e+00 
148900 4.7227932760e+00 7.8162412556e-03 2.5609445408e+00 -4.4356860601e+00 2.5609445408e+00 4.4356860601e+00 
149000 4.7227872159e+00 7.8282691994e-03 2.5607919377e+00 -4.4354217437e+00 2.5607919377e+00 4.4354217437e+00 
149100 4.7227811327e+00 7.8402935977e-03 2.5606390906e+00 -4.4351570048e+00 2.5606390906e+00 4.4351570048e+00 
149200 4.7227750262e+00 7.8523142309e-03 2.5604859996e+00 -4.4348918434e+00 2.5604859996e+00 4.4348918434e+00 
149300 4.7227688964e+00 7.8643308776e-03 2.5603326647e+00 -4.4346262596e+00 2.5603326647e+00 4.4346262596e+00 
149400 4.7227627433e+00 7.8763433145e-03 2.5601790860e+00 -4.4343602535e+00 2.5601790860e+00 4.4343602535e+00 
149500 4.7227565667e+00 7.8883513170e-03 2.5600252635e+00 -4.4340938250e+00 2.5600252635e+00 4.4340938250e+00 
149600 4.7227503666e+00 7.9003546583e-03 2.5598711972e+00 -4.4338269744e+00 2.5598711972e+00 4.4338269744e+00 
149700 4.7227441429e+00 7.9123531101e-03 2.5597168872e+00 -4.4335597016e+00 2.5597168872e+00 4.4335597016e+00 
149800 4.7227378956e+00 7.9243464421e-03 2.5595623335e+00 -4.4332920068e+00 2.5595623335e+00 4.4332920068e+00 
149900 4.7227316246e+00 7.9363344224e-03 2.5594075362e+00 -4.4330238900e+00 2.5594075362e+00 4.4330238900e+00 
150000 4.7227253298e+00 7.9483168173e-03 2.5592524954e+00 -4.4327553514e+00 2.5592524954e+00 4.4327553514e+00 
150100 4.7227190112e+00 7.9602933913e-03 2.5590972110e+00 -4.4324863910e+00 2.5590972110e+00 4.4324863910e+00 
150200 4.7227126687e+00 7.9722639069e-03 2.5589416833e+00 -4.4322170090e+00 2.5589416833e+00 4.4322170090e+00 
150300 4.7227063022e+00 7.9842281252e-03 2.5587859122e+00 -4.4319472056e+00 2.5587859122e+00 4.4319472056e+00 
150400 4.7226999116e+00 7.9961858051e-03 2.5586298978e+00 -4.4316769808e+00 2.5586298978e+00 4.4316769808e+00 
150500 4.7226934970e+00 8.0081367039e-03 2.5584736403e+00 -4.4314063348e+00 2.5584736403e+00 4.4314063348e+00 
150600 4.7226870581e+00 8.0200805769e-03 2.5583171396e+00 -4.4311352677e+00 2.5583171396e+00 4.4311352677e+00 
150700 4.7226805950e+00 8.0320171778e-03 2.5581603960e+00 -4.4308637798e+00 2.5581603960e+00 4.4308637798e+00 
150800 4.7226741077e+00 8.0439462582e-03 2.5580034095e+00 -4.4305918711e+00 2.5580034095e+00 4.4305918711e+00 
150900 4.7226675959e+00 8.0558675681e-03 2.5578461801e+00 -4.4303195419e+00 2.5578461801e+00 4.4303195419e+00 
151000 4.7226610597e+00 8.0677808555e-03 2.5576887081e+00 -4.4300467923e+00 2.5576887081e+00 4.4300467923e+00 
151100 4.7226544990e+00 8.0796858666e-03 2.5575309935e+00 -4.4297736226e+00 2.5575309935e+00 4.4297736226e+00 
151200 4.7226479137e+00 8.0915823456e-03 2.5573730364e+00 -4.4295000329e+00 2.5573730364e+00 4.4295000329e+00 
151300 4.7226413038e+00 8.1034700350e-03 2.5572148370e+00 -4.4292260235e+00 2.5572148370e+00 4.4292260235e+00 
151400 4.7226346692e+00 8.1153486754e-03 2.5570563953e+00 -4.4289515945e+00 2.5570563953e+00 4.4289515945e+00 
151500 4.7226280098e+00 8.1272180055e-03 2.5568977116e+00 -4.4286767462e+00 2.5568977116e+00 4.4286767462e+00 
151600 4.7226213256e+00 8.1390777619e-03 2.5567387859e+00 -4.4284014789e+00 2.5567387859e+00 4.4284014789e+00 
151700 4.7226146165e+00 8.1509276797e-03 2.5565796184e+00 -4.4281257927e+00 2.5565796184e+00 4.4281257927e+00 
151800 4.7226078824e+00 8.1627674918e-03 2.5564202093e+00 -4.4278496880e+00 2.5564202093e+00 4.4278496880e+00 
151900 4.7226011233e+00 8.1745969293e-03 2.5562605587e+00 -4.4275731650e+00 2.5562605587e+00 4.4275731650e+00 
152000 4.7225943391e+00 8.1864157214e-03 2.5561006667e+00 -4.4272962239e+00 2.5561006667e+00 4.4272962239e+00 
152100 4.7225875298e+00 8.1982235952e-03 2.5559405335e+00 -4.4270188651e+00 2.5559405335e+00 4.4270188651e+00 
152200 4.7225806952e+00 8.2100202763e-03 2.5557801593e+00 -4.4267410889e+00 2.5557801593e+00 4.4267410889e+00 
152300 4.7225738354e+00 8.2218054878e-03 2.5556195443e+00 -4.4264628955e+00 2.5556195443e+00 4.4264628955e+00 
152400 4.7225669502e+00 8.2335789514e-03 2.5554586886e+00 -4.4261842853e+00 2.5554586886e+00 4.4261842853e+00 
152500 4.7225600396e+00 8.2453403866e-03 2.5552975924e+00 -4.4259052585e+00 2.5552975924e+00 4.4259052585e+00 
152600 4.7225531036e+00 8.2570895108e-03 2.5551362559e+00 -4.4256258155e+00 2.5551362559e+00 4.4256258155e+00 
152700 4.7225461420e+00 8.2688260399e-03 2.5549746794e+00 -4.4253459567e+00 2.5549746794e+00 4.4253459567e+00 
152800 4.7225391549e+00 8.2805496873e-03 2.5548128629e+00 -4.4250656824e+00 2.5548128629e+00 4.4250656824e+00 
152900 4.7225321420e+00 8.2922601650e-03 2.5546508068e+00 -4.4247849929e+00 2.5546508068e+00 4.4247849929e+00 
153000 4.7225251035e+00 8.3039571825e-03 2.5544885112e+00 -4.4245038887e+00 2.5544885112e+00 4.4245038887e+00 
153100 4.7225180392e+00 8.3156404478e-03 2.5543259763e+00 -4.4242223701e+00 2.5543259763e+00 4.4242223701e+00 
153200 4.7225109490e+00 8.3273096666e-03 2.5541632024e+00 -4.4239404374e+00 2.5541632024e+00 4.4239404374e+00 
153300 4.7225038330e+00 8.3389645428e-03 2.5540001897e+00 -4.4236580911e+00 2.5540001897e+00 4.4236580911e+00 
153400 4.7224966910e+00 8.3506047782e-03 2.5538369384e+00 -4.4233753316e+00 2.5538369384e+00 4.4233753316e+00 
153500 4.7224895230e+00 8.3622300727e-03 2.5536734488e+00 -4.4230921593e+00 2.5536734488e+00 4.4230921593e+00 
153600 4.7224823289e+00 8.3738401242e-03 2.5535097211e+00 -4.4228085746e+00 2.5535097211e+00 4.4228085746e+00 
153700 4.7224751086e+00 8.3854346286e-03 2.5533457556e+00 -4.4225245780e+00 2.5533457556e+00 4.4225245780e+00 
153800 4.7224678622e+00 8.3970132798e-03 2.5531815525e+00 -4.4222401700e+00 2.5531815525e+00 4.4222401700e+00 
153900 4.7224605895e+00 8.4085757696e-03 2.5530171122e+00 -4.4219553509e+00 2.5530171122e+00 4.4219553509e+00 
154000 4.7224532906e+00 8.4201217881e-03 2.5528524347e+00 -4.4216701212e+00 2.5528524347e+00 4.4216701212e+00 
154100 4.7224459652e+00 8.4316510229e-03 2.5526875206e+00 -4.4213844815e+00 2.5526875206e+00 4.4213844815e+00 
154200 4.7224386134e+00 8.4431631602e-03 2.5525223699e+00 -4.4210984322e+00 2.5525223699e+00 4.4210984322e+00 
154300 4.7224312351e+00 8.4546578836e-03 2.5523569831e+00 -4.4208119737e+00 2.5523569831e+00 4.4208119737e+00 
154400 4.7224238303e+00 8.4661348750e-03 2.5521913604e+00 -4.4205251068e+00 2.5521913604e+00 4.4205251068e+00 
154500 4.7224163989e+00 8.4775938143e-03 2.5520255020e+00 -4.4202378317e+00 2.5520255020e+00 4.4202378317e+00 
154600 4.7224089409e+00 8.4890343793e-03 2.5518594084e+00 -4.4199501492e+00 2.5518594084e+00 4.4199501492e+00 
154700 4.7224014561e+00 8.5004562457e-03 2.5516930799e+00 -4.4196620597e+00 2.5516930799e+00 4.4196620597e+00 
154800 4.7223939446e+00 8.5118590874e-03 2.5515265167e+00 -4.4193735637e+00 2.5515265167e+00 4.4193735637e+00 
154900 4.7223864062e+00 8.5232425759e-03 2.5513597191e+00 -4.4190846619e+00 2.5513597191e+00 4.4190846619e+00 
155000 4.7223788410e+00 8.5346063811e-03 2.5511926876e+00 -4.4187953549e+00 2.5511926876e+00 4.4187953549e+00 
155100 4.7223712489e+00 8.5459501706e-03 2.5510254225e+00 -4.4185056431e+00 2.5510254225e+00 4.4185056431e+00 
155200 4.7223636297e+00 8.5572736099e-03 2.5508579240e+00 -4.4182155273e+00 2.5508579240e+00 4.4182155273e+00 
155300 4.7223559836e+00 8.5685763628e-03 2.5506901926e+00 -4.4179250079e+00 2.5506901926e+00 4.4179250079e+00 
155400 4.7223483103e+00 8.5798580907e-03 2.5505222286e+00 -4.4176340858e+00 2.5505222286e+00 4.4176340858e+00 
155500 4.7223406099e+00 8.5911184532e-03 2.5503540324e+00 -4.4173427614e+00 2.5503540324e+00 4.4173427614e+00 
155600 4.7223328824e+00 8.6023571077e-03 2.5501856043e+00 -4.4170510354e+00 2.5501856043e+00 4.4170510354e+00 
155700 4.7223251276e+00 8.6135737097e-03 2.5500169448e+00 -4.4167589085e+00 2.5500169448e+00 4.4167589085e+00 
155800 4.7223173455e+00 8.6247679125e-03 2.5498480542e+00 -4.4164663814e+00 2.5498480542e+00 4.4164663814e+00 
155900 4.7223095360e+00 8.6359393676e-03 2.5496789329e+00 -4.4161734547e+00 2.5496789329e+00 4.4161734547e+00 
156000 4.7223016992e+00 8.6470877242e-03 2.5495095813e+00 -4.4158801292e+00 2.5495095813e+00 4.4158801292e+00 
156100 4.7222938349e+00 8.6582126295e-03 2.5493399998e+00 -4.4155864054e+00 2.5493399998e+00 4.4155864054e+00 
156200 4.7222859432e+00 8.6693137289e-03 2.5491701889e+00 -4.4152922842e+00 2.5491701889e+00 4.4152922842e+00 
156300 4.7222780239e+00 8.6803906654e-03 2.5490001489e+00 -4.4149977663e+00 2.5490001489e+00 4.4149977663e+00 
156400 4.7222700770e+00 8.6914430803e-03 2.5488298803e+00 -4.4147028525e+00 2.5488298803e+00 4.4147028525e+00 
156500 4.7222621025e+00 8.7024706126e-03 2.5486593835e+00 -4.4144075434e+00 2.5486593835e+00 4.4144075434e+00 
156600 4.7222541003e+00 8.7134728993e-03 2.5484886590e+00 -4.4141118398e+00 2.5484886590e+00 4.4141118398e+00 
156700 4.7222460704e+00 8.7244495755e-03 2.5483177071e+00 -4.4138157426e+00 2.5483177071e+00 4.4138157426e+00 
156800 4.7222380128e+00 8.7354002742e-03 2.5481465285e+00 -4.4135192525e+00 2.5481465285e+00 4.4135192525e+00 
156900 4.7222299273e+00 8.7463246263e-03 2.5479751235e+00 -4.4132223702e+00 2.5479751235e+00 4.4132223702e+00 
157000 4.7222218140e+00 8.7572222606e-03 2.5478034925e+00 -4.4129250968e+00 2.5478034925e+00 4.4129250968e+00 
157100 4.7222136727e+00 8.7680928042e-03 2.5476316362e+00 -4.4126274328e+00 2.5476316362e+00 4.4126274328e+00 
157200 4.7222055035e+00 8.7789358817e-03 2.5474595549e+00 -4.4123293793e+00 2.5474595549e+00 4.4123293793e+00 
157300 4.7221973064e+00 8.7897511160e-03 2.5472872492e+00 -4.4120309371e+00 2.5472872492e+00 4.4120309371e+00 
157400 4.7221890812e+00 8.8005381280e-03 2.5471147195e+00 -4.4117321069e+00 2.5471147195e+00 4.4117321069e+00 
157500 4.7221808279e+00 8.8112965362e-03 2.5469419664e+00 -4.4114328898e+00 2.5469419664e+00 4.4114328898e+00 
157600 4.7221725466e+00 8.8220259575e-03 2.5467689904e+00 -4.4111332866e+00 2.5467689904e+00 4.4111332866e+00 
157700 4.7221642371e+00 8.8327260067e-03 2.5465957921e+00 -4.4108332982e+00 2.5465957921e+00 4.4108332982e+00 
157800 4.7221558994e+00 8.8433962962e-03 2.5464223718e+00 -4.4105329255e+00 2.5464223718e+00 4.4105329255e+00 
157900 4.7221475334e+00 8.8540364370e-03 2.5462487302e+00 -4.4102321695e+00 2.5462487302e+00 4.4102321695e+00 
158000 4.7221391392e+00 8.8646460376e-03 2.5460748679e+00 -4.4099310310e+00 2.5460748679e+00 4.4099310310e+00 
158100 4.7221307167e+00 8.8752247047e-03 2.5459007853e+00 -4.4096295112e+00 2.5459007853e+00 4.4096295112e+00 
158200 4.7221222659e+00 8.8857720431e-03 2.5457264831e+00 -4.4093276109e+00 2.5457264831e+00 4.4093276109e+00 
158300 4.7221137867e+00 8.8962876552e-03 2.5455519618e+00 -4.4090253311e+00 2.5455519618e+00 4.4090253311e+00 
158400 4.7221052791e+00 8.9067711420e-03 2.5453772220e+00 -4.4087226729e+00 2.5453772220e+00 4.4087226729e+00 
158500 4.7220967431e+00 8.9172221020e-03 2.5452022642e+00 -4.4084196372e+00 2.5452022642e+00 4.4084196372e+00 
158600 4.7220881786e+00 8.9276401320e-03 2.5450270891e+00 -4.4081162250e+00 2.5450270891e+00 4.4081162250e+00 
158700 4.7220795855e+00 8.9380248268e-03 2.5448516973e+00 -4.4078124375e+00 2.5448516973e+00 4.4078124375e+00 
158800 4.7220709640e+00 8.9483757790e-03 2.5446760894e+00 -4.4075082757e+00 2.5446760894e+00 4.4075082757e+00 
158900 4.7220623138e+00 8.9586925796e-03 2.5445002660e+00 -4.4072037406e+00 2.5445002660e+00 4.4072037406e+00 
159000 4.7220536351e+00 8.9689748175e-03 2.5443242277e+00 -4.4068988333e+00 2.5443242277e+00 4.4068988333e+00 
159100 4.7220449277e+00 8.9792220794e-03 2.5441479752e+00 -4.4065935550e+00 2.5441479752e+00 4.4065935550e+00 
159200 4.7220361917e+00 8.9894339504e-03 2.5439715091e+00 -4.4062879067e+00 2.5439715091e+00 4.4062879067e+00 
159300 4.7220274270e+00 8.9996100135e-03 2.5437948300e+00 -4.4059818896e+00 2.5437948300e+00 4.4059818896e+00 
159400 4.7220186336e+00 9.0097498499e-03 2.5436179387e+00 -4.4056755048e+00 2.5436179387e+00 4.4056755048e+00 
159500 4.7220098114e+00 9.0198530387e-03 2.5434408357e+00 -4.4053687535e+00 2.5434408357e+00 4.4053687535e+00 
159600 4.7220009605e+00 9.0299191572e-03 2.5432635218e+00 -4.4050616368e+00 2.5432635218e+00 4.4050616368e+00 
159700 4.7219920808e+00 9.0399477807e-03 2.5430859977e+00 -4.4047541560e+00 2.5430859977e+00 4.4047541560e+00 
159800 4.7219831722e+00 9.0499384828e-03 2.5429082640e+00 -4.4044463122e+00 2.5429082640e+00 4.4044463122e+00 
159900 4.7219742349e+00 9.0598908351e-03 2.5427303214e+00 -4.4041381066e+00 2.5427303214e+00 4.4041381066e+00 
160000 4.7219652686e+00 9.0698044072e-03 2.5425521707e+00 -4.4038295405e+00 2.5425521707e+00 4.4038295405e+00 
160100 4.7219562735e+00 9.0796787669e-03 2.5423738125e+00 -4.4035206151e+00 2.5423738125e+00 4.4035206151e+00 
160200 4.7219472495e+00 9.0895134804e-03 2.5421952476e+00 -4.4032113317e+00 2.5421952476e+00 4.4032113317e+00 
160300 4.7219381966e+00 9.0993081117e-03 2.5420164768e+00 -4.4029016915e+00 2.5420164768e+00 4.4029016915e+00 
160400 4.7219291147e+00 9.1090622232e-03 2.5418375008e+00 -4.4025916959e+00 2.5418375008e+00 4.4025916959e+00 
160500 4.7219200039e+00 9.1187753753e-03 2.5416583202e+00 -4.4022813461e+00 2.5416583202e+00 4.4022813461e+00 
160600 4.7219108641e+00 9.1284471266e-03 2.5414789360e+00 -4.4019706436e+00 2.5414789360e+00 4.4019706436e+00 
160700 4.7219016953e+00 9.1380770342e-03 2.5412993489e+00 -4.4016595895e+00 2.5412993489e+00 4.4016595895e+00 
160800 4.7218924975e+00 9.1476646529e-03 2.5411195595e+00 -4.4013481852e+00 2.5411195595e+00 4.4013481852e+00 
160900 4.7218832707e+00 9.1572095362e-03 2.5409395689e+00 -4.4010364322e+00 2.5409395689e+00 4.4010364322e+00 
161000 4.7218740149e+00 9.1667112355e-03 2.5407593776e+00 -4.4007243319e+00 2.5407593776e+00 4.4007243319e+00 
161100 4.7218647300e+00 9.1761693006e-03 2.5405789866e+00 -4.4004118855e+00 2.5405789866e+00 4.4004118855e+00 
161200 4.7218554161e+00 9.1855832795e-03 2.5403983967e+00 -4.4000990945e+00 2.5403983967e+00 4.4000990945e+00 
161300 4.7218460731e+00 9.1949527186e-03 2.5402176086e+00 -4.3997859604e+00 2.5402176086e+00 4.3997859604e+00 
161400 4.7218367011e+00 9.2042771624e-03 2.5400366233e+00 -4.3994724846e+00 2.5400366233e+00 4.3994724846e+00 
161500 4.7218272999e+00 9.2135561538e-03 2.5398554415e+00 -4.3991586685e+00 2.5398554415e+00 4.3991586685e+00 
161600 4.7218178697e+00 9.2227892341e-03 2.5396740641e+00 -4.3988445137e+00 2.5396740641e+00 4.3988445137e+00 
161700 4.7218084104e+00 9.2319759427e-03 2.5394924920e+00 -4.3985300215e+00 2.5394924920e+00 4.3985300215e+00 
161800 4.7217989220e+00 9.2411158175e-03 2.5393107260e+00 -4.3982151937e+00 2.5393107260e+00 4.3982151937e+00 
161900 4.7217894046e+00 9.2502083948e-03 2.5391287671e+00 -4.3979000315e+00 2.5391287671e+00 4.3979000315e+00 
162000 4.7217798580e+00 9.2592532092e-03 2.5389466161e+00 -4.3975845367e+00 2.5389466161e+00 4.3975845367e+00 
162100 4.7217702823e+00 9.2682497936e-03 2.5387642739e+00 -4.3972687108e+00 2.5387642739e+00 4.3972687108e+00 
162200 4.7217606775e+00 9.2771976796e-03 2.5385817414e+00 -4.3969525552e+00 2.5385817414e+00 4.3969525552e+00 
162300 4.7217510436e+00 9.2860963969e-03 2.5383990195e+00 -4.3966360717e+00 2.5383990195e+00 4.3966360717e+00 
162400 4.7217413806e+00 9.2949454738e-03 2.5382161093e+00 -4.3963192619e+00 2.5382161093e+00 4.3963192619e+00 
162500 4.7217316886e+00 9.3037444371e-03 2.5380330115e+00 -4.3960021272e+00 2.5380330115e+00 4.3960021272e+00 
162600 4.7217219674e+00 9.3124928120e-03 2.5378497272e+00 -4.3956846695e+00 2.5378497272e+00 4.3956846695e+00 
162700 4.7217122172e+00 9.3211901223e-03 2.5376662573e+00 -4.3953668903e+00 2.5376662573e+00 4.3953668903e+00 
162800 4.7217024379e+00 9.3298358901e-03 2.5374826028e+00 -4.3950487914e+00 2.5374826028e+00 4.3950487914e+00 
162900 4.7216926295e+00 9.3384296362e-03 2.5372987646e+00 -4.3947303743e+00 2.5372987646e+00 4.3947303743e+00 
163000 4.7216827920e+00 9.3469708800e-03 2.5371147438e+00 -4.3944116409e+00 2.5371147438e+00 4.3944116409e+00 
163100 4.7216729256e+00 9.3554591394e-03 2.5369305413e+00 -4.3940925928e+00 2.5369305413e+00 4.3940925928e+00 
163200 4.7216630300e+00 9.3638939309e-03 2.5367461581e+00 -4.3937732318e+00 2.5367461581e+00 4.3937732318e+00 
163300 4.7216531055e+00 9.3722747697e-03 2.5365615953e+00 -4.3934535596e+00 2.5365615953e+00 4.3934535596e+00 
163400 4.7216431520e+00 9.3806011694e-03 2.5363768539e+00 -4.3931335780e+00 2.5363768539e+00 4.3931335780e+00 
163500 4.7216331694e+00 9.3888726425e-03 2.5361919348e+00 -4.3928132888e+00 2.5361919348e+00 4.3928132888e+00 
163600 4.7216231579e+00 9.3970887001e-03 2.5360068392e+00 -4.3924926939e+00 2.5360068392e+00 4.3924926939e+00 
163700 4.7216131174e+00 9.4052488520e-03 2.5358215682e+00 -4.3921717950e+00 2.5358215682e+00 4.3921717950e+00 
163800 4.7216030480e+00 9.4133526068e-03 2.5356361227e+00 -4.3918505939e+00 2.5356361227e+00 4.3918505939e+00 
163900 4.7215929497e+00 9.4213994718e-03 2.5354505038e+00 -4.3915290926e+00 2.5354505038e+00 4.3915290926e+00 
164000 4.7215828225e+00 9.4293889529e-03 2.5352647127e+00 -4.3912072930e+00 2.5352647127e+00 4.3912072930e+00 
164100 4.7215726664e+00 9.4373205552e-03 2.5350787504e+00 -4.3908851968e+00 2.5350787504e+00 4.3908851968e+00 
164200 4.7215624815e+00 9.4451937822e-03 2.5348926180e+00 -4.3905628061e+00 2.5348926180e+00 4.3905628061e+00 
164300 4.7215522677e+00 9.4530081366e-03 2.5347063166e+00 -4.3902401227e+00 2.5347063166e+00 4.3902401227e+00 
164400 4.7215420252e+00 9.4607631197e-03 2.5345198474e+00 -4.3899171486e+00 2.5345198474e+00 4.3899171486e+00 
164500 4.7215317539e+00 9.4684582318e-03 2.5343332116e+00 -4.3895938857e+00 2.5343332116e+00 4.3895938857e+00 
164600 4.7215214538e+00 9.4760929722e-03 2.5341464101e+00 -4.3892703361e+00 2.5341464101e+00 4.3892703361e+00 
164700 4.7215111251e+00 9.4836668391e-03 2.5339594443e+00 -4.3889465018e+00 2.5339594443e+00 4.3889465018e+00 
164800 4.7215007677e+00 9.4911793296e-03 2.5337723152e+00 -4.3886223847e+00 2.5337723152e+00 4.3886223847e+00 
164900 4.7214903816e+00 9.4986299400e-03 2.5335850240e+00 -4.3882979869e+00 2.5335850240e+00 4.3882979869e+00 
165000 4.7214799670e+00 9.5060181655e-03 2.5333975720e+00 -4.3879733105e+00 2.5333975720e+00 4.3879733105e+00 
165100 4.7214695238e+00 9.5133435002e-03 2.5332099603e+00 -4.3876483575e+00 2.5332099603e+00 4.3876483575e+00 
165200 4.7214590521e+00 9.5206054377e-03 2.5330221901e+00 -4.3873231300e+00 2.5330221901e+00 4.3873231300e+00 
165300 4.7214485519e+00 9.5278034705e-03 2.5328342627e+00 -4.3869976301e+00 2.5328342627e+00 4.3869976301e+00 
165400 4.7214380233e+00 9.5349370900e-03 2.5326461792e+00 -4.3866718600e+00 2.5326461792e+00 4.3866718600e+00 
165500 4.7214274662e+00 9.5420057874e-03 2.5324579409e+00 -4.3863458217e+00 2.5324579409e+00 4.3863458217e+00 
165600 4.7214168809e+00 9.5490090524e-03 2.5322695491e+00 -4.3860195175e+00 2.5322695491e+00 4.3860195175e+00 
165700 4.7214062672e+00 9.5559463746e-03 2.5320810050e+00 -4.3856929495e+00 2.5320810050e+00 4.3856929495e+00 
165800 4.7213956252e+00 9.5628172423e-03 2.5318923099e+00 -4.3853661200e+00 2.5318923099e+00 4.3853661200e+00 
165900 4.7213849551e+00 9.5696211436e-03 2.5317034650e+00 -4.3850390310e+00 2.5317034650e+00 4.3850390310e+00 
166000 4.7213742568e+00 9.5763575656e-03 2.5315144716e+00 -4.3847116849e+00 2.5315144716e+00 4.3847116849e+00 
166100 4.7213635304e+00 9.5830259950e-03 2.5313253311e+00 -4.3843840840e+00 2.5313253311e+00 4.3843840840e+00 
166200 4.7213527759e+00 9.5896259177e-03 2.5311360448e+00 -4.3840562304e+00 2.5311360448e+00 4.3840562304e+00 
166300 4.7213419935e+00 9.5961568192e-03 2.5309466139e+00 -4.3837281265e+00 2.5309466139e+00 4.3837281265e+00 
166400 4.7213311831e+00 9.6026181844e-03 2.5307570398e+00 -4.3833997746e+00 2.5307570398e+00 4.3833997746e+00 
166500 4.7213203449e+00 9.6090094977e-03 2.5305673239e+00 -4.3830711770e+00 2.5305673239e+00 4.3830711770e+00 
166600 4.7213094788e+00 9.6153302432e-03 2.5303774675e+00 -4.3827423360e+00 2.5303774675e+00 4.3827423360e+00 
166700 4.7212985850e+00 9.6215799043e-03 2.5301874719e+00 -4.3824132540e+00 2.5301874719e+00 4.3824132540e+00 
166800 4.7212876634e+00 9.6277579643e-03 2.5299973386e+00 -4.3820839334e+00 2.5299973386e+00 4.3820839334e+00 
166900 4.7212767143e+00 9.6338639060e-03 2.5298070689e+00 -4.3817543766e+00 2.5298070689e+00 4.3817543766e+00 
167000 4.7212657376e+00 9.6398972119e-03 2.5296166642e+00 -4.3814245860e+00 2.5296166642e+00 4.3814245860e+00 
167100 4.7212547334e+00 9.6458573642e-03 2.5294261259e+00 -4.3810945640e+00 2.5294261259e+00 4.3810945640e+00 
167200 4.7212437018e+00 9.6517438451e-03 2.5292354554e+00 -4.3807643131e+00 2.5292354554e+00 4.3807643131e+00 
167300 4.7212326428e+00 9.6575561362e-03 2.5290446543e+00 -4.3804338358e+00 2.5290446543e+00 4.3804338358e+00 
167400 4.7212215566e+00 9.6632937194e-03 2.5288537238e+00 -4.3801031345e+00 2.5288537238e+00 4.3801031345e+00 
167500 4.7212104432e+00 9.6689560760e-03 2.5286626654e+00 -4.3797722117e+00 2.5286626654e+00 4.3797722117e+00 
167600 4.7211993026e+00 9.6745426877e-03 2.5284714807e+00 -4.3794410700e+00 2.5284714807e+00 4.3794410700e+00 
167700 4.7211881350e+00 9.6800530358e-03 2.5282801710e+00 -4.3791097120e+00 2.5282801710e+00 4.3791097120e+00 
167800 4.7211769405e+00 9.6854866018e-03 2.5280887379e+00 -4.3787781401e+00 2.5280887379e+00 4.3787781401e+00 
167900 4.7211657191e+00 9.6908428671e-03 2.5278971828e+00 -4.3784463570e+00 2.5278971828e+00 4.3784463570e+00 
168000 4.7211544708e+00 9.6961213134e-03 2.5277055073e+00 -4.3781143652e+00 2.5277055073e+00 4.3781143652e+00 
168100 4.7211431959e+00 9.7013214224e-03 2.5275137128e+00 -4.3777821675e+00 2.5275137128e+00 4.3777821675e+00 
168200 4.7211318943e+00 9.7064426759e-03 2.5273218010e+00 -4.3774497663e+00 2.5273218010e+00 4.3774497663e+00 
168300 4.7211205663e+00 9.7114845560e-03 2.5271297732e+00 -4.3771171645e+00 2.5271297732e+00 4.3771171645e+00 
168400 4.7211092117e+00 9.7164465451e-03 2.5269376311e+00 -4.3767843646e+00 2.5269376311e+00 4.3767843646e+00 
168500 4.7210978309e+00 9.7213281259e-03 2.5267453762e+00 -4.3764513693e+00 2.5267453762e+00 4.3764513693e+00 
168600 4.7210864237e+00 9.7261287813e-03 2.5265530100e+00 -4.3761181814e+00 2.5265530100e+00 4.3761181814e+00 
168700 4.7210749904e+00 9.7308479947e-03 2.5263605342e+00 -4.3757848035e+00 2.5263605342e+00 4.3757848035e+00 
168800 4.7210635311e+00 9.7354852499e-03 2.5261679504e+00 -4.3754512385e+00 2.5261679504e+00 4.3754512385e+00 
168900 4.7210520458e+00 9.7400400314e-03 2.5259752601e+00 -4.3751174891e+00 2.5259752601e+00 4.3751174891e+00 
169000 4.7210405346e+00 9.7445118238e-03 2.5257824649e+00 -4.3747835581e+00 2.5257824649e+00 4.3747835581e+00 
169100 4.7210289977e+00 9.7489001127e-03 2.5255895665e+00 -4.3744494483e+00 2.5255895665e+00 4.3744494483e+00 
169200 4.7210174352e+00 9.7532043840e-03 2.5253965665e+00 -4.3741151625e+00 2.5253965665e+00 4.3741151625e+00 
169300 4.7210058471e+00 9.7574241245e-03 2.5252034666e+00 -4.3737807035e+00 2.5252034666e+00 4.3737807035e+00 
169400 4.7209942336e+00 9.7615588216e-03 2.5250102683e+00 -4.3734460743e+00 2.5250102683e+00 4.3734460743e+00 
169500 4.7209825947e+00 9.7656079635e-03 2.5248169733e+00 -4.3731112776e+00 2.5248169733e+00 4.3731112776e+00 
169600 4.7209709307e+00 9.7695710392e-03 2.5246235834e+00 -4.3727763164e+00 2.5246235834e+00 4.3727763164e+00 
169700 4.7209592415e+00 9.7734475385e-03 2.5244301002e+00 -4.3724411937e+00 2.5244301002e+00 4.3724411937e+00 
169800 4.7209475274e+00 9.7772369524e-03 2.5242365253e+00 -4.3721059122e+00 2.5242365253e+00 4.3721059122e+00 
169900 4.7209357885e+00 9.7809387724e-03 2.5240428606e+00 -4.3717704751e+00 2.5240428606e+00 4.3717704751e+00 
170000 4.7209240248e+00 9.7845524914e-03 2.5238491077e+00 -4.3714348852e+00 2.5238491077e+00 4.3714348852e+00 
170100 4.7209122365e+00 9.7880776032e-03 2.5236552683e+00 -4.3710991455e+00 2.5236552683e+00 4.3710991455e+00 
170200 4.7209004237e+00 9.7915136028e-03 2.5234613442e+00 -4.3707632591e+00 2.5234613442e+00 4.3707632591e+00 
170300 4.7208885866e+00 9.7948599862e-03 2.5232673371e+00 -4.3704272289e+00 2.5232673371e+00 4.3704272289e+00 
170400 4.7208767252e+00 9.7981162508e-03 2.5230732488e+00 -4.3700910581e+00 2.5230732488e+00 4.3700910581e+00 
170500 4.7208648397e+00 9.8012818952e-03 2.5228790810e+00 -4.3697547496e+00 2.5228790810e+00 4.3697547496e+00 
170600 4.7208529303e+00 9.8043564194e-03 2.5226848355e+00 -4.3694183066e+00 2.5226848355e+00 4.3694183066e+00 
170700 4.7208409970e+00 9.8073393247e-03 2.5224905142e+00 -4.3690817322e+00 2.5224905142e+00 4.3690817322e+00 
170800 4.7208290401e+00 9.8102301137e-03 2.5222961187e+00 -4.3687450294e+00 2.5222961187e+00 4.3687450294e+00 
170900 4.7208170595e+00 9.8130282908e-03 2.5221016510e+00 -4.3684082014e+00 2.5221016510e+00 4.3684082014e+00 
171000 4.7208050556e+00 9.8157333617e-03 2.5219071128e+00 -4.3680712514e+00 2.5219071128e+00 4.3680712514e+00 
171100 4.7207930284e+00 9.8183448338e-03 2.5217125060e+00 -4.3677341824e+00 2.5217125060e+00 4.3677341824e+00 
171200 4.7207809780e+00 9.8208622161e-03 2.5215178324e+00 -4.3673969978e+00 2.5215178324e+00 4.3673969978e+00 
171300 4.7207689047e+00 9.8232850193e-03 2.5213230938e+00 -4.3670597007e+00 2.5213230938e+00 4.3670597007e+00 
171400 4.7207568085e+00 9.8256127560e-03 2.5211282921e+00 -4.3667222943e+00 2.5211282921e+00 4.3667222943e+00 
171500 4.7207446897e+00 9.8278449405e-03 2.5209334292e+00 -4.3663847819e+00 2.5209334292e+00 4.3663847819e+00 
171600 4.7207325483e+00 9.8299810889e-03 2.5207385070e+00 -4.3660471668e+00 2.5207385070e+00 4.3660471668e+00 
171700 4.7207203845e+00 9.8320207193e-03 2.5205435274e+00 -4.3657094521e+00 2.5205435274e+00 4.3657094521e+00 
171800 4.7207081985e+00 9.8339633520e-03 2.5203484922e+00 -4.3653716412e+00 2.5203484922e+00 4.3653716412e+00 
171900 4.7206959905e+00 9.8358085090e-03 2.5201534034e+00 -4.3650337375e+00 2.5201534034e+00 4.3650337375e+00 
172000 4.7206837605e+00 9.8375557146e-03 2.5199582628e+00 -4.3646957442e+00 2.5199582628e+00 4.3646957442e+00 
172100 4.7206715088e+00 9.8392044952e-03 2.5197630725e+00 -4.3643576646e+00 2.5197630725e+00 4.3643576646e+00 
172200 4.7206592355e+00 9.8407543796e-03 2.5195678344e+00 -4.3640195022e+00 2.5195678344e+00 4.3640195022e+00 
172300 4.7206469408e+00 9.8422048986e-03 2.5193725503e+00 -4.3636812604e+00 2.5193725503e+00 4.3636812604e+00 
172400 4.7206346249e+00 9.8435555855e-03 2.5191772224e+00 -4.3633429424e+00 2.5191772224e+00 4.3633429424e+00 
172500 4.7206222879e+00 9.8448059760e-03 2.5189818525e+00 -4.3630045518e+00 2.5189818525e+00 4.3630045518e+00 
172600 4.7206099300e+00 9.8459556083e-03 2.5187864426e+00 -4.3626660920e+00 2.5187864426e+00 4.3626660920e+00 
172700 4.7205975513e+00 9.8470040229e-03 2.5185909947e+00 -4.3623275664e+00 2.5185909947e+00 4.3623275664e+00 
172800 4.7205851521e+00 9.8479507632e-03 2.5183955109e+00 -4.3619889784e+00 2.5183955109e+00 4.3619889784e+00 
172900 4.7205727326e+00 9.8487953751e-03 2.5181999931e+00 -4.3616503317e+00 2.5181999931e+00 4.3616503317e+00 
173000 4.7205602928e+00 9.8495374071e-03 2.5180044433e+00 -4.3613116296e+00 2.5180044433e+00 4.3613116296e+00 
173100 4.7205478330e+00 9.8501764105e-03 2.5178088637e+00 -4.3609728756e+00 2.5178088637e+00 4.3609728756e+00 
173200 4.7205353534e+00 9.8507119396e-03 2.5176132561e+00 -4.3606340734e+00 2.5176132561e+00 4.3606340734e+00 
173300 4.7205228542e+00 9.8511435514e-03 2.5174176227e+00 -4.3602952264e+00 2.5174176227e+00 4.3602952264e+00 
173400 4.7205103355e+00 9.8514708060e-03 2.5172219656e+00 -4.3599563383e+00 2.5172219656e+00 4.3599563383e+00 
173500 4.7204977975e+00 9.8516932663e-03 2.5170262867e+00 -4.3596174125e+00 2.5170262867e+00 4.3596174125e+00 
173600 4.7204852405e+00 9.8518104984e-03 2.5168305882e+00 -4.3592784528e+00 2.5168305882e+00 4.3592784528e+00 
173700 4.7204726646e+00 9.8518220716e-03 2.5166348721e+00 -4.3589394626e+00 2.5166348721e+00 4.3589394626e+00 
173800 4.7204600701e+00 9.8517275584e-03 2.5164391406e+00 -4.3586004457e+00 2.5164391406e+00 4.3586004457e+00 
173900 4.7204474570e+00 9.8515265343e-03 2.5162433958e+00 -4.3582614057e+00 2.5162433958e+00 4.3582614057e+00 
174000 4.7204348257e+00 9.8512185784e-03 2.5160476397e+00 -4.3579223462e+00 2.5160476397e+00 4.3579223462e+00 
174100 4.7204221763e+00 9.8508032732e-03 2.5158518745e+00 -4.3575832710e+00 2.5158518745e+00 4.3575832710e+00 
174200 4.7204095090e+00 9.8502802044e-03 2.5156561023e+00 -4.3572441836e+00 2.5156561023e+00 4.3572441836e+00 
174300 4.7203968241e+00 9.8496489614e-03 2.5154603253e+00 -4.3569050879e+00 2.5154603253e+00 4.3569050879e+00 
174400 4.7203841217e+00 9.8489091373e-03 2.5152645456e+00 -4.3565659875e+00 2.5152645456e+00 4.3565659875e+00 
174500 4.7203714020e+00 9.8480603285e-03 2.5150687654e+00 -4.3562268862e+00 2.5150687654e+00 4.3562268862e+00 
174600 4.7203586653e+00 9.8471021353e-03 2.5148729868e+00 -4.3558877878e+00 2.5148729868e+00 4.3558877878e+00 
174700 4.7203459118e+00 9.8460341618e-03 2.5146772120e+00 -4.3555486959e+00 2.5146772120e+00 4.3555486959e+00 
174800 4.7203331417e+00 9.8448560160e-03 2.5144814432e+00 -4.3552096144e+00 2.5144814432e+00 4.3552096144e+00 
174900 4.7203203553e+00 9.8435673095e-03 2.5142856826e+00 -4.3548705471e+00 2.5142856826e+00 4.3548705471e+00 
175000 4.7203075526e+00 9.8421676582e-03 2.5140899324e+00 -4.3545314977e+00 2.5140899324e+00 4.3545314977e+00 
175100 4.7202947340e+00 9.8406566818e-03 2.5138941948e+00 -4.3541924702e+00 2.5138941948e+00 4.3541924702e+00 
175200 4.7202818997e+00 9.8390340042e-03 2.5136984720e+00 -4.3538534684e+00 2.5136984720e+00 4.3538534684e+00 
175300 4.7202690499e+00 9.8372992534e-03 2.5135027662e+00 -4.3535144960e+00 2.5135027662e+00 4.3535144960e+00 
175400 4.7202561849e+00 9.8354520616e-03 2.5133070797e+00 -4.3531755570e+00 2.5133070797e+00 4.3531755570e+00 
175500 4.7202433048e+00 9.8334920654e-03 2.5131114147e+00 -4.3528366553e+00 2.5131114147e+00 4.3528366553e+00 
175600 4.7202304099e+00 9.8314189056e-03 2.5129157735e+00 -4.3524977948e+00 2.5129157735e+00 4.3524977948e+00 
175700 4.7202175004e+00 9.8292322275e-03 2.5127201582e+00 -4.3521589793e+00 2.5127201582e+00 4.3521589793e+00 
175800 4.7202045766e+00 9.8269316809e-03 2.5125245713e+00 -4.3518202128e+00 2.5125245713e+00 4.3518202128e+00 
175900 4.7201916387e+00 9.8245169200e-03 2.5123290149e+00 -4.3514814992e+00 2.5123290149e+00 4.3514814992e+00 
176000 4.7201786870e+00 9.8219876038e-03 2.5121334914e+00 -4.3511428425e+00 2.5121334914e+00 4.3511428425e+00 
176100 4.7201657217e+00 9.8193433958e-03 2.5119380030e+00 -4.3508042466e+00 2.5119380030e+00 4.3508042466e+00 
176200 4.7201527429e+00 9.8165839643e-03 2.5117425520e+00 -4.3504657155e+00 2.5117425520e+00 4.3504657155e+00 
176300 4.7201397511e+00 9.8137089825e-03 2.5115471407e+00 -4.3501272532e+00 2.5115471407e+00 4.3501272532e+00 
176400 4.7201267464e+00 9.8107181282e-03 2.5113517714e+00 -4.3497888638e+00 2.5113517714e+00 4.3497888638e+00 
176500 4.7201137290e+00 9.8076110844e-03 2.5111564465e+00 -4.3494505511e+00 2.5111564465e+00 4.3494505511e+00 
176600 4.7201006993e+00 9.8043875389e-03 2.5109611683e+00 -4.3491123193e+00 2.5109611683e+00 4.3491123193e+00 
176700 4.7200876575e+00 9.8010471847e-03 2.5107659390e+00 -4.3487741723e+00 2.5107659390e+00 4.3487741723e+00 
176800 4.7200746038e+00 9.7975897197e-03 2.5105707612e+00 -4.3484361143e+00 2.5105707612e+00 4.3484361143e+00 
176900 4.7200615384e+00 9.7940148473e-03 2.5103756369e+00 -4.3480981493e+00 2.5103756369e+00 4.3480981493e+00 
177000 4.7200484618e+00 9.7903222758e-03 2.5101805688e+00 -4.3477602813e+00 2.5101805688e+00 4.3477602813e+00 
177100 4.7200353740e+00 9.7865117190e-03 2.5099855590e+00 -4.3474225144e+00 2.5099855590e+00 4.3474225144e+00 
177200 4.7200222754e+00 9.7825828961e-03 2.5097906099e+00 -4.3470848528e+00 2.5097906099e+00 4.3470848528e+00 
177300 4.7200091662e+00 9.7785355315e-03 2.5095957240e+00 -4.3467473005e+00 2.5095957240e+00 4.3467473005e+00 
177400 4.7199960467e+00 9.7743693554e-03 2.5094009036e+00 -4.3464098617e+00 2.5094009036e+00 4.3464098617e+00 
177500 4.7199829172e+00 9.7700841034e-03 2.5092061511e+00 -4.3460725404e+00 2.5092061511e+00 4.3460725404e+00 
177600 4.7199697779e+00 9.7656795166e-03 2.5090114689e+00 -4.3457353409e+00 2.5090114689e+00 4.3457353409e+00 
177700 4.7199566291e+00 9.7611553420e-03 2.5088168593e+00 -4.3453982672e+00 2.5088168593e+00 4.3453982672e+00 
177800 4.7199434711e+00 9.7565113321e-03 2.5086223248e+00 -4.3450613235e+00 2.5086223248e+00 4.3450613235e+00 
177900 4.7199303042e+00 9.7517472455e-03 2.5084278677e+00 -4.3447245141e+00 2.5084278677e+00 4.3447245141e+00 
178000 4.7199171285e+00 9.7468628464e-03 2.5082334906e+00 -4.3443878430e+00 2.5082334906e+00 4.3443878430e+00 
178100 4.7199039445e+00 9.7418579049e-03 2.5080391957e+00 -4.3440513144e+00 2.5080391957e+00 4.3440513144e+00 
178200 4.7198907523e+00 9.7367321974e-03 2.5078449856e+00 -4.3437149326e+00 2.5078449856e+00 4.3437149326e+00 
178300 4.7198775523e+00 9.7314855060e-03 2.5076508626e+00 -4.3433787017e+00 2.5076508626e+00 4.3433787017e+00 
178400 4.7198643447e+00 9.7261176190e-03 2.5074568293e+00 -4.3430426261e+00 2.5074568293e+00 4.3430426261e+00 
178500 4.7198511299e+00 9.7206283310e-03 2.5072628879e+00 -4.3427067098e+00 2.5072628879e+00 4.3427067098e+00 
178600 4.7198379081e+00 9.7150174426e-03 2.5070690410e+00 -4.3423709571e+00 2.5070690410e+00 4.3423709571e+00 
178700 4.7198246795e+00 9.7092847607e-03 2.5068752910e+00 -4.3420353722e+00 2.5068752910e+00 4.3420353722e+00 
178800 4.7198114446e+00 9.7034300987e-03 2.5066816404e+00 -4.3416999595e+00 2.5066816404e+00 4.3416999595e+00 
178900 4.7197982035e+00 9.6974532763e-03 2.5064880915e+00 -4.3413647231e+00 2.5064880915e+00 4.3413647231e+00 
179000 4.7197849566e+00 9.6913541196e-03 2.5062946470e+00 -4.3410296673e+00 2.5062946470e+00 4.3410296673e+00 
179100 4.7197717041e+00 9.6851324612e-03 2.5061013092e+00 -4.3406947965e+00 2.5061013092e+00 4.3406947965e+00 
179200 4.7197584464e+00 9.6787881403e-03 2.5059080806e+00 -4.3403601147e+00 2.5059080806e+00 4.3403601147e+00 
179300 4.7197451837e+00 9.6723210026e-03 2.5057149637e+00 -4.3400256265e+00 2.5057149637e+00 4.3400256265e+00 
179400 4.7197319163e+00 9.6657309008e-03 2.5055219610e+00 -4.3396913359e+00 2.5055219610e+00 4.3396913359e+00 
179500 4.7197186446e+00 9.6590176938e-03 2.5053290749e+00 -4.3393572474e+00 2.5053290749e+00 4.3393572474e+00 
179600 4.7197053689e+00 9.6521812477e-03 2.5051363079e+00 -4.3390233652e+00 2.5051363079e+00 4.3390233652e+00 
179700 4.7196920893e+00 9.6452214353e-03 2.5049436626e+00 -4.3386896937e+00 2.5049436626e+00 4.3386896937e+00 
179800 4.7196788063e+00 9.6381381361e-03 2.5047511413e+00 -4.3383562371e+00 2.5047511413e+00 4.3383562371e+00 
179900 4.7196655202e+00 9.6309312368e-03 2.5045587467e+00 -4.3380229998e+00 2.5045587467e+00 4.3380229998e+00 
180000 4.7196522312e+00 9.6236006310e-03 2.5043664811e+00 -4.3376899860e+00 2.5043664811e+00 4.3376899860e+00 
180100 4.7196389397e+00 9.6161462192e-03 2.5041743471e+00 -4.3373572002e+00 2.5041743471e+00 4.3373572002e+00 
180200 4.7196256459e+00 9.6085679090e-03 2.5039823473e+00 -4.3370246467e+00 2.5039823473e+00 4.3370246467e+00 
180300 4.7196123502e+00 9.6008656154e-03 2.5037904840e+00 -4.3366923298e+00 2.5037904840e+00 4.3366923298e+00 
180400 4.7195990528e+00 9.5930392602e-03 2.5035987598e+00 -4.3363602538e+00 2.5035987598e+00 4.3363602538e+00 
180500 4.7195857542e+00 9.5850887727e-03 2.5034071773e+00 -4.3360284230e+00 2.5034071773e+00 4.3360284230e+00 
180600 4.7195724545e+00 9.5770140893e-03 2.5032157388e+00 -4.3356968420e+00 2.5032157388e+00 4.3356968420e+00 
180700 4.7195591542e+00 9.5688151538e-03 2.5030244470e+00 -4.3353655149e+00 2.5030244470e+00 4.3353655149e+00 
180800 4.7195458535e+00 9.5604919175e-03 2.5028333044e+00 -4.3350344461e+00 2.5028333044e+00 4.3350344461e+00 
180900 4.7195325527e+00 9.5520443388e-03 2.5026423135e+00 -4.3347036401e+00 2.5026423135e+00 4.3347036401e+00 
181000 4.7195192522e+00 9.5434723837e-03 2.5024514767e+00 -4.3343731011e+00 2.5024514767e+00 4.3343731011e+00 
181100 4.7195059522e+00 9.5347760259e-03 2.5022607967e+00 -4.3340428336e+00 2.5022607967e+00 4.3340428336e+00 
181200 4.7194926532e+00 9.5259552463e-03 2.5020702759e+00 -4.3337128419e+00 2.5020702759e+00 4.3337128419e+00 
181300 4.7194793553e+00 9.5170100336e-03 2.5018799168e+00 -4.3333831303e+00 2.5018799168e+00 4.3333831303e+00 
181400 4.7194660590e+00 9.5079403840e-03 2.5016897220e+00 -4.3330537033e+00 2.5016897220e+00 4.3330537033e+00 
181500 4.7194527646e+00 9.4987463014e-03 2.5014996941e+00 -4.3327245652e+00 2.5014996941e+00 4.3327245652e+00 
181600 4.7194394723e+00 9.4894277976e-03 2.5013098354e+00 -4.3323957205e+00 2.5013098354e+00 4.3323957205e+00 
181700 4.7194261825e+00 9.4799848917e-03 2.5011201487e+00 -4.3320671733e+00 2.5011201487e+00 4.3320671733e+00 
181800 4.7194128955e+00 9.4704176110e-03 2.5009306363e+00 -4.3317389282e+00 2.5009306363e+00 4.3317389282e+00 
181900 4.7193996116e+00 9.4607259904e-03 2.5007413008e+00 -4.3314109896e+00 2.5007413008e+00 4.3314109896e+00 
182000 4.7193863313e+00 9.4509100727e-03 2.5005521447e+00 -4.3310833617e+00 2.5005521447e+00 4.3310833617e+00 
182100 4.7193730547e+00 9.4409699085e-03 2.5003631707e+00 -4.3307560490e+00 2.5003631707e+00 4.3307560490e+00 
182200 4.7193597822e+00 9.4309055565e-03 2.5001743811e+00 -4.3304290558e+00 2.5001743811e+00 4.3304290558e+00 
182300 4.7193465142e+00 9.4207170832e-03 2.4999857785e+00 -4.3301023865e+00 2.4999857785e+00 4.3301023865e+00 
182400 4.7193332509e+00 9.4104045630e-03 2.4997973654e+00 -4.3297760456e+00 2.4997973654e+00 4.3297760456e+00 
182500 4.7193199928e+00 9.3999680786e-03 2.4996091445e+00 -4.3294500373e+00 2.4996091445e+00 4.3294500373e+00 
182600 4.7193067400e+00 9.3894077205e-03 2.4994211181e+00 -4.3291243660e+00 2.4994211181e+00 4.3291243660e+00 
182700 4.7192934931e+00 9.3787235874e-03 2.4992332888e+00 -4.3287990361e+00 2.4992332888e+00 4.3287990361e+00 
182800 4.7192802522e+00 9.3679157859e-03 2.4990456591e+00 -4.3284740520e+00 2.4990456591e+00 4.3284740520e+00 
182900 4.7192670177e+00 9.3569844310e-03 2.4988582316e+00 -4.3281494180e+00 2.4988582316e+00 4.3281494180e+00 
183000 4.7192537899e+00 9.3459296456e-03 2.4986710087e+00 -4.3278251385e+00 2.4986710087e+00 4.3278251385e+00 
183100 4.7192405693e+00 9.3347515610e-03 2.4984839930e+00 -4.3275012178e+00 2.4984839930e+00 4.3275012178e+00 
183200 4.7192273560e+00 9.3234503165e-03 2.4982971870e+00 -4.3271776604e+00 2.4982971870e+00 4.3271776604e+00 
183300 4.7192141505e+00 9.3120260597e-03 2.4981105933e+00 -4.3268544705e+00 2.4981105933e+00 4.3268544705e+00 
183400 4.7192009531e+00 9.3004789465e-03 2.4979242142e+00 -4.3265316525e+00 2.4979242142e+00 4.3265316525e+00 
183500 4.7191877640e+00 9.2888091410e-03 2.4977380524e+00 -4.3262092107e+00 2.4977380524e+00 4.3262092107e+00 
183600 4.7191745837e+00 9.2770168155e-03 2.4975521103e+00 -4.3258871495e+00 2.4975521103e+00 4.3258871495e+00 
183700 4.7191614125e+00 9.2651021509e-03 2.4973663904e+00 -4.3255654732e+00 2.4973663904e+00 4.3255654732e+00 
183800 4.7191482507e+00 9.2530653360e-03 2.4971808952e+00 -4.3252441862e+00 2.4971808952e+00 4.3252441862e+00 
183900 4.7191350986e+00 9.2409065682e-03 2.4969956273e+00 -4.3249232927e+00 2.4969956273e+00 4.3249232927e+00 
184000 4.7191219565e+00 9.2286260532e-03 2.4968105891e+00 -4.3246027971e+00 2.4968105891e+00 4.3246027971e+00 
184100 4.7191088249e+00 9.2162240051e-03 2.4966257830e+00 -4.3242827037e+00 2.4966257830e+00 4.3242827037e+00 
184200 4.7190957040e+00 9.2037006462e-03 2.4964412117e+00 -4.3239630168e+00 2.4964412117e+00 4.3239630168e+00 
184300 4.7190825941e+00 9.1910562074e-03 2.4962568776e+00 -4.3236437407e+00 2.4962568776e+00 4.3236437407e+00 
184400 4.7190694957e+00 9.1782909278e-03 2.4960727831e+00 -4.3233248797e+00 2.4960727831e+00 4.3233248797e+00 
184500 4.7190564090e+00 9.1654050551e-03 2.4958889307e+00 -4.3230064380e+00 2.4958889307e+00 4.3230064380e+00 
184600 4.7190433343e+00 9.1523988453e-03 2.4957053229e+00 -4.3226884200e+00 2.4957053229e+00 4.3226884200e+00 
184700 4.7190302721e+00 9.1392725627e-03 2.4955219622e+00 -4.3223708299e+00 2.4955219622e+00 4.3223708299e+00 
184800 4.7190172226e+00 9.1260264803e-03 2.4953388510e+00 -4.3220536720e+00 2.4953388510e+00 4.3220536720e+00 
184900 4.7190041861e+00 9.1126608792e-03 2.4951559917e+00 -4.3217369505e+00 2.4951559917e+00 4.3217369505e+00 
185000 4.7189911630e+00 9.0991760492e-03 2.4949733869e+00 -4.3214206697e+00 2.4949733869e+00 4.3214206697e+00 
185100 4.7189781537e+00 9.0855722884e-03 2.4947910390e+00 -4.3211048338e+00 2.4947910390e+00 4.3211048338e+00 
185200 4.7189651584e+00 9.0718499034e-03 2.4946089504e+00 -4.3207894470e+00 2.4946089504e+00 4.3207894470e+00 
185300 4.7189521776e+00 9.0580092091e-03 2.4944271235e+00 -4.3204745136e+00 2.4944271235e+00 4.3204745136e+00 
185400 4.7189392114e+00 9.0440505289e-03 2.4942455608e+00 -4.3201600378e+00 2.4942455608e+00 4.3201600378e+00 
185500 4.7189262603e+00 9.0299741946e-03 2.4940642646e+00 -4.3198460237e+00 2.4940642646e+00 4.3198460237e+00 
185600 4.7189133246e+00 9.0157805465e-03 2.4938832375e+00 -4.3195324755e+00 2.4938832375e+00 4.3195324755e+00 
185700 4.7189004045e+00 9.0014699332e-03 2.4937024818e+00 -4.3192193975e+00 2.4937024818e+00 4.3192193975e+00 
185800 4.7188875006e+00 8.9870427118e-03 2.4935220000e+00 -4.3189067937e+00 2.4935220000e+00 4.3189067937e+00 
185900 4.7188746130e+00 8.9724992476e-03 2.4933417943e+00 -4.3185946684e+00 2.4933417943e+00 4.3185946684e+00 
186000 4.7188617421e+00 8.9578399146e-03 2.4931618673e+00 -4.3182830257e+00 2.4931618673e+00 4.3182830257e+00 
186100 4.7188488882e+00 8.9430650949e-03 2.4929822213e+00 -4.3179718696e+00 2.4929822213e+00 4.3179718696e+00 
186200 4.7188360517e+00 8.9281751790e-03 2.4928028586e+00 -4.3176612044e+00 2.4928028586e+00 4.3176612044e+00 
186300 4.7188232328e+00 8.9131705658e-03 2.4926237817e+00 -4.3173510341e+00 2.4926237817e+00 4.3173510341e+00 
186400 4.7188104320e+00 8.8980516626e-03 2.4924449929e+00 -4.3170413628e+00 2.4924449929e+00 4.3170413628e+00 
186500 4.7187976495e+00 8.8828188848e-03 2.4922664946e+00 -4.3167321947e+00 2.4922664946e+00 4.3167321947e+00 
186600 4.7187848856e+00 8.8674726563e-03 2.4920882891e+00 -4.3164235337e+00 2.4920882891e+00 4.3164235337e+00 
186700 4.7187721408e+00 8.8520134091e-03 2.4919103787e+00 -4.3161153838e+00 2.4919103787e+00 4.3161153838e+00 
186800 4.7187594152e+00 8.8364415837e-03 2.4917327658e+00 -4.3158077493e+00 2.4917327658e+00 4.3158077493e+00 
186900 4.7187467092e+00 8.8207576285e-03 2.4915554527e+00 -4.3155006340e+00 2.4915554527e+00 4.3155006340e+00 
187000 4.7187340232e+00 8.8049620004e-03 2.4913784418e+00 -4.3151940420e+00 2.4913784418e+00 4.3151940420e+00 
187100 4.7187213574e+00 8.7890551642e-03 2.4912017352e+00 -4.3148879773e+00 2.4912017352e+00 4.3148879773e+00 
187200 4.7187087123e+00 8.7730375931e-03 2.4910253354e+00 -4.3145824438e+00 2.4910253354e+00 4.3145824438e+00 
187300 4.7186960880e+00 8.7569097684e-03 2.4908492445e+00 -4.3142774455e+00 2.4908492445e+00 4.3142774455e+00 
187400 4.7186834849e+00 8.7406721793e-03 2.4906734650e+00 -4.3139729865e+00 2.4906734650e+00 4.3139729865e+00 
187500 4.7186709034e+00 8.7243253233e-03 2.4904979990e+00 -4.3136690704e+00 2.4904979990e+00 4.3136690704e+00 
187600 4.7186583437e+00 8.7078697057e-03 2.4903228488e+00 -4.3133657014e+00 2.4903228488e+00 4.3133657014e+00 
187700 4.7186458061e+00 8.6913058401e-03 2.4901480167e+00 -4.3130628834e+00 2.4901480167e+00 4.3130628834e+00 
187800 4.7186332910e+00 8.6746342478e-03 2.4899735049e+00 -4.3127606201e+00 2.4899735049e+00 4.3127606201e+00 
187900 4.7186207987e+00 8.6578554581e-03 2.4897993157e+00 -4.3124589154e+00 2.4897993157e+00 4.3124589154e+00 
188000 4.7186083295e+00 8.6409700083e-03 2.4896254512e+00 -4.3121577732e+00 2.4896254512e+00 4.3121577732e+00 
188100 4.7185958837e+00 8.6239784435e-03 2.4894519136e+00 -4.3118571974e+00 2.4894519136e+00 4.3118571974e+00 
188200 4.7185834616e+00 8.6068813166e-03 2.4892787052e+00 -4.3115571917e+00 2.4892787052e+00 4.3115571917e+00 
188300 4.7185710635e+00 8.5896791882e-03 2.4891058282e+00 -4.3112577599e+00 2.4891058282e+00 4.3112577599e+00 
188400 4.7185586897e+00 8.5723726267e-03 2.4889332847e+00 -4.3109589058e+00 2.4889332847e+00 4.3109589058e+00 
188500 4.7185463405e+00 8.5549622084e-03 2.4887610770e+00 -4.3106606332e+00 2.4887610770e+00 4.3106606332e+00 
188600 4.7185340162e+00 8.5374485169e-03 2.4885892070e+00 -4.3103629457e+00 2.4885892070e+00 4.3103629457e+00 
188700 4.7185217171e+00 8.5198321435e-03 2.4884176771e+00 -4.3100658472e+00 2.4884176771e+00 4.3100658472e+00 
188800 4.7185094435e+00 8.5021136873e-03 2.4882464893e+00 -4.3097693412e+00 2.4882464893e+00 4.3097693412e+00 
188900 4.7184971958e+00 8.4842937545e-03 2.4880756458e+00 -4.3094734316e+00 2.4880756458e+00 4.3094734316e+00 
189000 4.7184849741e+00 8.4663729590e-03 2.4879051486e+00 -4.3091781218e+00 2.4879051486e+00 4.3091781218e+00 
189100 4.7184727789e+00 8.4483519222e-03 2.4877349999e+00 -4.3088834156e+00 2.4877349999e+00 4.3088834156e+00 
189200 4.7184606103e+00 8.4302312726e-03 2.4875652018e+00 -4.3085893166e+00 2.4875652018e+00 4.3085893166e+00 
189300 4.7184484687e+00 8.4120116461e-03 2.4873957563e+00 -4.3082958284e+00 2.4873957563e+00 4.3082958284e+00 
189400 4.7184363543e+00 8.3936936858e-03 2.4872266654e+00 -4.3080029544e+00 2.4872266654e+00 4.3080029544e+00 
189500 4.7184242675e+00 8.3752780422e-03 2.4870579313e+00 -4.3077106984e+00 2.4870579313e+00 4.3077106984e+00 
189600 4.7184122086e+00 8.3567653725e-03 2.4868895560e+00 -4.3074190638e+00 2.4868895560e+00 4.3074190638e+00 
189700 4.7184001777e+00 8.3381563415e-03 2.4867215415e+00 -4.3071280541e+00 2.4867215415e+00 4.3071280541e+00 
189800 4.7183881752e+00 8.3194516206e-03 2.4865538898e+00 -4.3068376728e+00 2.4865538898e+00 4.3068376728e+00 
189900 4.7183762015e+00 8.3006518882e-03 2.4863866029e+00 -4.3065479234e+00 2.4863866029e+00 4.3065479234e+00 
190000 4.7183642566e+00 8.2817578297e-03 2.4862196827e+00 -4.3062588093e+00 2.4862196827e+00 4.3062588093e+00 
190100 4.7183523410e+00 8.2627701374e-03 2.4860531314e+00 -4.3059703339e+00 2.4860531314e+00 4.3059703339e+00 
190200 4.7183404549e+00 8.2436895101e-03 2.4858869507e+00 -4.3056825005e+00 2.4858869507e+00 4.3056825005e+00 
190300 4.7183285985e+00 8.2245166535e-03 2.4857211428e+00 -4.3053953127e+00 2.4857211428e+00 4.3053953127e+00 
190400 4.7183167722e+00 8.2052522798e-03 2.4855557094e+00 -4.3051087737e+00 2.4855557094e+00 4.3051087737e+00 
190500 4.7183049761e+00 8.1858971078e-03 2.4853906525e+00 -4.3048228868e+00 2.4853906525e+00 4.3048228868e+00 
190600 4.7182932107e+00 8.1664518628e-03 2.4852259740e+00 -4.3045376553e+00 2.4852259740e+00 4.3045376553e+00 
190700 4.7182814760e+00 8.1469172765e-03 2.4850616758e+00 -4.3042530825e+00 2.4850616758e+00 4.3042530825e+00 
190800 4.7182697725e+00 8.1272940868e-03 2.4848977598e+00 -4.3039691716e+00 2.4848977598e+00 4.3039691716e+00 
190900 4.7182581003e+00 8.1075830383e-03 2.4847342279e+00 -4.3036859259e+00 2.4847342279e+00 4.3036859259e+00 
191000 4.7182464597e+00 8.0877848812e-03 2.4845710817e+00 -4.3034033486e+00 2.4845710817e+00 4.3034033486e+00 
191100 4.7182348509e+00 8.0679003723e-03 2.4844083233e+00 -4.3031214428e+00 2.4844083233e+00 4.3031214428e+00 
191200 4.7182232743e+00 8.0479302741e-03 2.4842459545e+00 -4.3028402116e+00 2.4842459545e+00 4.3028402116e+00 
191300 4.7182117300e+00 8.0278753555e-03 2.4840839769e+00 -4.3025596582e+00 2.4840839769e+00 4.3025596582e+00 
191400 4.7182002183e+00 8.0077363907e-03 2.4839223924e+00 -4.3022797857e+00 2.4839223924e+00 4.3022797857e+00 
191500 4.7181887394e+00 7.9875141603e-03 2.4837612028e+00 -4.3020005971e+00 2.4837612028e+00 4.3020005971e+00 
191600 4.7181772936e+00 7.9672094502e-03 2.4836004098e+00 -4.3017220955e+00 2.4836004098e+00 4.3017220955e+00 
191700 4.7181658812e+00 7.9468230521e-03 2.4834400152e+00 -4.3014442838e+00 2.4834400152e+00 4.3014442838e+00 
191800 4.7181545023e+00 7.9263557634e-03 2.4832800206e+00 -4.3011671651e+00 2.4832800206e+00 4.3011671651e+00 
191900 4.7181431572e+00 7.9058083867e-03 2.4831204278e+00 -4.3008907423e+00 2.4831204278e+00 4.3008907423e+00 
192000 4.7181318461e+00 7.8851817303e-03 2.4829612385e+00 -4.3006150183e+00 2.4829612385e+00 4.3006150183e+00 
192100 4.7181205693e+00 7.8644766075e-03 2.4828024544e+00 -4.3003399961e+00 2.4828024544e+00 4.3003399961e+00 
192200 4.7181093270e+00 7.8436938372e-03 2.4826440770e+00 -4.3000656785e+00 2.4826440770e+00 4.3000656785e+00 
192300 4.7180981193e+00 7.8228342431e-03 2.4824861081e+00 -4.2997920684e+00 2.4824861081e+00 4.2997920684e+00 
192400 4.7180869466e+00 7.8018986542e-03 2.4823285493e+00 -4.2995191685e+00 2.4823285493e+00 4.2995191685e+00 
192500 4.7180758091e+00 7.7808879043e-03 2.4821714022e+00 -4.2992469817e+00 2.4821714022e+00 4.2992469817e+00 
192600 4.7180647069e+00 7.7598028322e-03 2.4820146683e+00 -4.2989755107e+00 2.4820146683e+00 4.2989755107e+00 
192700 4.7180536403e+00 7.7386442813e-03 2.4818583493e+00 -4.2987047582e+00 2.4818583493e+00 4.2987047582e+00 
192800 4.7180426094e+00 7.7174130999e-03 2.4817024467e+00 -4.2984347270e+00 2.4817024467e+00 4.2984347270e+00 
192900 4.7180316146e+00 7.6961101409e-03 2.4815469621e+00 -4.2981654197e+00 2.4815469621e+00 4.2981654197e+00 
193000 4.7180206560e+00 7.6747362616e-03 2.4813918969e+00 -4.2978968390e+00 2.4813918969e+00 4.2978968390e+00 
193100 4.7180097338e+00 7.6532923238e-03 2.4812372527e+00 -4.2976289874e+00 2.4812372527e+00 4.2976289874e+00 
193200 4.7179988481e+00 7.6317791935e-03 2.4810830310e+00 -4.2973618675e+00 2.4810830310e+00 4.2973618675e+00 
193300 4.7179879993e+00 7.6101977411e-03 2.4809292333e+00 -4.2970954820e+00 2.4809292333e+00 4.2970954820e+00 
193400 4.7179771875e+00 7.5885488411e-03 2.4807758609e+00 -4.2968298333e+00 2.4807758609e+00 4.2968298333e+00 
193500 4.7179664129e+00 7.5668333719e-03 2.4806229154e+00 -4.2965649239e+00 2.4806229154e+00 4.2965649239e+00 
193600 4.7179556756e+00 7.5450522160e-03 2.4804703981e+00 -4.2963007562e+00 2.4804703981e+00 4.2963007562e+00 
193700 4.7179449759e+00 7.5232062598e-03 2.4803183105e+00 -4.2960373328e+00 2.4803183105e+00 4.2960373328e+00 
193800 4.7179343140e+00 7.5012963932e-03 2.4801666540e+00 -4.2957746560e+00 2.4801666540e+00 4.2957746560e+00 
193900 4.7179236900e+00 7.4793235099e-03 2.4800154299e+00 -4.2955127281e+00 2.4800154299e+00 4.2955127281e+00 
194000 4.7179131041e+00 7.4572885073e-03 2.4798646396e+00 -4.2952515516e+00 2.4798646396e+00 4.2952515516e+00 
194100 4.7179025565e+00 7.4351922860e-03 2.4797142843e+00 -4.2949911287e+00 2.4797142843e+00 4.2949911287e+00 
194200 4.7178920473e+00 7.4130357501e-03 2.4795643655e+00 -4.2947314616e+00 2.4795643655e+00 4.2947314616e+00 
194300 4.7178815768e+00 7.3908198070e-03 2.4794148844e+00 -4.2944725527e+00 2.4794148844e+00 4.2944725527e+00 
194400 4.7178711450e+00 7.3685453671e-03 2.4792658422e+00 -4.2942144042e+00 2.4792658422e+00 4.2942144042e+00 
194500 4.7178607522e+00 7.3462133439e-03 2.4791172403e+00 -4.2939570182e+00 2.4791172403e+00 4.2939570182e+00 
194600 4.7178503985e+00 7.3238246539e-03 2.4789690799e+00 -4.2937003968e+00 2.4789690799e+00 4.2937003968e+00 
194700 4.7178400841e+00 7.3013802165e-03 2.4788213622e+00 -4.2934445423e+00 2.4788213622e+00 4.2934445423e+00 
194800 4.7178298091e+00 7.2788809538e-03 2.4786740885e+00 -4.2931894566e+00 2.4786740885e+00 4.2931894566e+00 
194900 4.7178195737e+00 7.2563277904e-03 2.4785272598e+00 -4.2929351419e+00 2.4785272598e+00 4.2929351419e+00 
195000 4.7178093780e+00 7.2337216536e-03 2.4783808773e+00 -4.2926816001e+00 2.4783808773e+00 4.2926816001e+00 
195100 4.7177992222e+00 7.2110634733e-03 2.4782349423e+00 -4.2924288332e+00 2.4782349423e+00 4.2924288332e+00 
195200 4.7177891064e+00 7.1883541813e-03 2.4780894559e+00 -4.2921768433e+00 2.4780894559e+00 4.2921768433e+00 
195300 4.7177790308e+00 7.1655947120e-03 2.4779444191e+00 -4.2919256321e+00 2.4779444191e+00 4.2919256321e+00 
195400 4.7177689955e+00 7.1427860019e-03 2.4777998330e+00 -4.2916752017e+00 2.4777998330e+00 4.2916752017e+00 
195500 4.7177590005e+00 7.1199289892e-03 2.4776556987e+00 -4.2914255539e+00 2.4776556987e+00 4.2914255539e+00 
195600 4.7177490462e+00 7.0970246144e-03 2.4775120173e+00 -4.2911766904e+00 2.4775120173e+00 4.2911766904e+00 
195700 4.7177391325e+00 7.0740738197e-03 2.4773687899e+00 -4.2909286131e+00 2.4773687899e+00 4.2909286131e+00 
195800 4.7177292596e+00 7.0510775489e-03 2.4772260173e+00 -4.2906813238e+00 2.4772260173e+00 4.2906813238e+00 
195900 4.7177194276e+00 7.0280367475e-03 2.4770837006e+00 -4.2904348241e+00 2.4770837006e+00 4.2904348241e+00 
196000 4.7177096367e+00 7.0049523625e-03 2.4769418409e+00 -4.2901891158e+00 2.4769418409e+00 4.2901891158e+00 
196100 4.7176998870e+00 6.9818253423e-03 2.4768004390e+00 -4.2899442005e+00 2.4768004390e+00 4.2899442005e+00 
196200 4.7176901785e+00 6.9586566364e-03 2.4766594959e+00 -4.2897000799e+00 2.4766594959e+00 4.2897000799e+00 
196300 4.7176805114e+00 6.9354471959e-03 2.4765190125e+00 -4.2894567555e+00 2.4765190125e+00 4.2894567555e+00 
196400 4.7176708858e+00 6.9121979726e-03 2.4763789897e+00 -4.2892142290e+00 2.4763789897e+00 4.2892142290e+00 
196500 4.7176613018e+00 6.8889099194e-03 2.4762394284e+00 -4.2889725017e+00 2.4762394284e+00 4.2889725017e+00 
196600 4.7176517595e+00 6.8655839901e-03 2.4761003295e+00 -4.2887315753e+00 2.4761003295e+00 4.2887315753e+00 
196700 4.7176422590e+00 6.8422211393e-03 2.4759616937e+00 -4.2884914511e+00 2.4759616937e+00 4.2884914511e+00 
196800 4.7176328004e+00 6.8188223221e-03 2.4758235220e+00 -4.2882521307e+00 2.4758235220e+00 4.2882521307e+00 
196900 4.7176233837e+00 6.7953884943e-03 2.4756858151e+00 -4.2880136154e+00 2.4756858151e+00 4.2880136154e+00 
197000 4.7176140091e+00 6.7719206121e-03 2.4755485738e+00 -4.2877759065e+00 2.4755485738e+00 4.2877759065e+00 
197100 4.7176046767e+00 6.7484196320e-03 2.4754117989e+00 -4.2875390054e+00 2.4754117989e+00 4.2875390054e+00 
197200 4.7175953865e+00 6.7248865110e-03 2.4752754912e+00 -4.2873029134e+00 2.4752754912e+00 4.2873029134e+00 
197300 4.7175861386e+00 6.7013222057e-03 2.4751396512e+00 -4.2870676318e+00 2.4751396512e+00 4.2870676318e+00 
197400 4.7175769331e+00 6.6777276734e-03 2.4750042799e+00 -4.2868331617e+00 2.4750042799e+00 4.2868331617e+00 
197500 4.7175677700e+00 6.6541038707e-03 2.4748693777e+00 -4.2865995043e+00 2.4748693777e+00 4.2865995043e+00 
197600 4.7175586495e+00 6.6304517545e-03 2.4747349455e+00 -4.2863666609e+00 2.4747349455e+00 4.2863666609e+00 
197700 4.7175495716e+00 6.6067722812e-03 2.4746009839e+00 -4.2861346325e+00 2.4746009839e+00 4.2861346325e+00 
197800 4.7175405363e+00 6.5830664068e-03 2.4744674934e+00 -4.2859034202e+00 2.4744674934e+00 4.2859034202e+00 
197900 4.7175315438e+00 6.5593350869e-03 2.4743344747e+00 -4.2856730251e+00 2.4743344747e+00 4.2856730251e+00 
198000 4.7175225940e+00 6.5355792765e-03 2.4742019284e+00 -4.2854434482e+00 2.4742019284e+00 4.2854434482e+00 
198100 4.7175136870e+00 6.5117999299e-03 2.4740698551e+00 -4.2852146906e+00 2.4740698551e+00 4.2852146906e+00 
198200 4.7175048230e+00 6.4879980006e-03 2.4739382553e+00 -4.2849867530e+00 2.4739382553e+00 4.2849867530e+00 
198300 4.7174960019e+00 6.4641744411e-03 2.4738071296e+00 -4.2847596365e+00 2.4738071296e+00 4.2847596365e+00 
198400 4.7174872237e+00 6.4403302032e-03 2.4736764784e+00 -4.2845333420e+00 2.4736764784e+00 4.2845333420e+00 
198500 4.7174784886e+00 6.4164662373e-03 2.4735463022e+00 -4.2843078703e+00 2.4735463022e+00 4.2843078703e+00 
198600 4.7174697965e+00 6.3925834928e-03 2.4734166016e+00 -4.2840832222e+00 2.4734166016e+00 4.2840832222e+00 
198700 4.7174611476e+00 6.3686829177e-03 2.4732873769e+00 -4.2838593986e+00 2.4732873769e+00 4.2838593986e+00 
198800 4.7174525417e+00 6.3447654588e-03 2.4731586287e+00 -4.2836364001e+00 2.4731586287e+00 4.2836364001e+00 
198900 4.7174439790e+00 6.3208320610e-03 2.4730303573e+00 -4.2834142275e+00 2.4730303573e+00 4.2834142275e+00 
199000 4.7174354596e+00 6.2968836681e-03 2.4729025631e+00 -4.2831928815e+00 2.4729025631e+00 4.2831928815e+00 
199100 4.7174269833e+00 6.2729212218e-03 2.4727752465e+00 -4.2829723627e+00 2.4727752465e+00 4.2829723627e+00 
199200 4.7174185503e+00 6.2489456624e-03 2.4726484079e+00 -4.2827526718e+00 2.4726484079e+00 4.2827526718e+00 
199300 4.7174101605e+00 6.2249579281e-03 2.4725220476e+00 -4.2825338093e+00 2.4725220476e+00 4.2825338093e+00 
199400 4.7174018140e+00 6.2009589550e-03 2.4723961659e+00 -4.2823157758e+00 2.4723961659e+00 4.2823157758e+00 
199500 4.7173935108e+00 6.1769496775e-03 2.4722707632e+00 -4.2820985719e+00 2.4722707632e+00 4.2820985719e+00 
199600 4.7173852508e+00 6.1529310274e-03 2.4721458396e+00 -4.2818821979e+00 2.4721458396e+00 4.2818821979e+00 
199700 4.7173770342e+00 6.1289039347e-03 2.4720213955e+00 -4.2816666544e+00 2.4720213955e+00 4.2816666544e+00 
199800 4.7173688609e+00 6.1048693267e-03 2.4718974311e+00 -4.2814519417e+00 2.4718974311e+00 4.2814519417e+00 
199900 4.7173607309e+00 6.0808281284e-03 2.4717739466e+00 -4.2812380604e+00 2.4717739466e+00 4.2812380604e+00 
200000 4.7173526442e+00 6.0567812622e-03 2.4716509423e+00 -4.2810250106e+00 2.4716509423e+00 4.2810250106e+00 
200100 4.7173446009e+00 6.0327296480e-03 2.4715284183e+00 -4.2808127929e+00 2.4715284183e+00 4.2808127929e+00 
200200 4.7173366008e+00 6.0086742028e-03 2.4714063748e+00 -4.2806014073e+00 2.4714063748e+00 4.2806014073e+00 
200300 4.7173286440e+00 5.9846158411e-03 2.4712848119e+00 -4.2803908542e+00 2.4712848119e+00 4.2803908542e+00 
200400 4.7173207305e+00 5.9605554742e-03 2.4711637298e+00 -4.2801811339e+00 2.4711637298e+00 4.2801811339e+00 
200500 4.7173128603e+00 5.9364940104e-03 2.4710431286e+00 -4.2799722465e+00 2.4710431286e+00 4.2799722465e+00 
200600 4.7173050333e+00 5.9124323553e-03 2.4709230084e+00 -4.2797641921e+00 2.4709230084e+00 4.2797641921e+00 
200700 4.7172972496e+00 5.8883714111e-03 2.4708033692e+00 -4.2795569709e+00 2.4708033692e+00 4.2795569709e+00 
200800 4.7172895090e+00 5.8643120766e-03 2.4706842111e+00 -4.2793505831e+00 2.4706842111e+00 4.2793505831e+00 
200900 4.7172818117e+00 5.8402552476e-03 2.4705655341e+00 -4.2791450286e+00 2.4705655341e+00 4.2791450286e+00 
201000 4.7172741575e+00 5.8162018163e-03 2.4704473384e+00 -4.2789403075e+00 2.4704473384e+00 4.2789403075e+00 
201100 4.7172665464e+00 5.7921526714e-03 2.4703296237e+00 -4.2787364198e+00 2.4703296237e+00 4.2787364198e+00 
201200 4.7172589784e+00 5.7681086982e-03 2.4702123903e+00 -4.2785333654e+00 2.4702123903e+00 4.2785333654e+00 
201300 4.7172514535e+00 5.7440707783e-03 2.4700956379e+00 -4.2783311444e+00 2.4700956379e+00 4.2783311444e+00 
201400 4.7172439716e+00 5.7200397893e-03 2.4699793666e+00 -4.2781297565e+00 2.4699793666e+00 4.2781297565e+00 
201500 4.7172365327e+00 5.6960166054e-03 2.4698635762e+00 -4.2779292018e+00 2.4698635762e+00 4.2779292018e+00 
201600 4.7172291367e+00 5.6720020966e-03 2.4697482668e+00 -4.2777294799e+00 2.4697482668e+00 4.2777294799e+00 
201700 4.7172217836e+00 5.6479971291e-03 2.4696334381e+00 -4.2775305909e+00 2.4696334381e+00 4.2775305909e+00 
201800 4.7172144733e+00 5.6240025650e-03 2.4695190901e+00 -4.2773325343e+00 2.4695190901e+00 4.2773325343e+00 
201900 4.7172072058e+00 5.6000192623e-03 2.4694052226e+00 -4.2771353100e+00 2.4694052226e+00 4.2771353100e+00 
202000 4.7171999811e+00 5.5760480747e-03 2.4692918354e+00 -4.2769389177e+00 2.4692918354e+00 4.2769389177e+00 
202100 4.7171927990e+00 5.5520898519e-03 2.4691789285e+00 -4.2767433571e+00 2.4691789285e+00 4.2767433571e+00 
202200 4.7171856596e+00 5.5281454390e-03 2.4690665015e+00 -4.2765486278e+00 2.4690665015e+00 4.2765486278e+00 
202300 4.7171785628e+00 5.5042156768e-03 2.4689545542e+00 -4.2763547295e+00 2.4689545542e+00 4.2763547295e+00 
202400 4.7171715084e+00 5.4803014016e-03 2.4688430865e+00 -4.2761616617e+00 2.4688430865e+00 4.2761616617e+00 
202500 4.7171644965e+00 5.4564034452e-03 2.4687320981e+00 -4.2759694241e+00 2.4687320981e+00 4.2759694241e+00 
202600 4.7171575269e+00 5.4325226347e-03 2.4686215887e+00 -4.2757780162e+00 2.4686215887e+00 4.2757780162e+00 
202700 4.7171505997e+00 5.4086597927e-03 2.4685115580e+00 -4.2755874375e+00 2.4685115580e+00 4.2755874375e+00 
202800 4.7171437146e+00 5.3848157368e-03 2.4684020057e+00 -4.2753976874e+00 2.4684020057e+00 4.2753976874e+00 
202900 4.7171368718e+00 5.3609912799e-03 2.4682929316e+00 -4.2752087655e+00 2.4682929316e+00 4.2752087655e+00 
203000 4.7171300710e+00 5.3371872302e-03 2.4681843352e+00 -4.2750206711e+00 2.4681843352e+00 4.2750206711e+00 
203100 4.7171233122e+00 5.3134043907e-03 2.4680762163e+00 -4.2748334036e+00 2.4680762163e+00 4.2748334036e+00 
203200 4.7171165954e+00 5.2896435594e-03 2.4679685745e+00 -4.2746469625e+00 2.4679685745e+00 4.2746469625e+00 
203300 4.7171099203e+00 5.2659055295e-03 2.4678614093e+00 -4.2744613470e+00 2.4678614093e+00 4.2744613470e+00 
203400 4.7171032871e+00 5.2421910888e-03 2.4677547204e+00 -4.2742765564e+00 2.4677547204e+00 4.2742765564e+00 
203500 4.7170966955e+00 5.2185010201e-03 2.4676485074e+00 -4.2740925901e+00 2.4676485074e+00 4.2740925901e+00 
203600 4.7170901454e+00 5.1948361008e-03 2.4675427698e+00 -4.2739094472e+00 2.4675427698e+00 4.2739094472e+00 
203700 4.7170836369e+00 5.1711971033e-03 2.4674375072e+00 -4.2737271270e+00 2.4674375072e+00 4.2737271270e+00 
203800 4.7170771697e+00 5.1475847943e-03 2.4673327192e+00 -4.2735456288e+00 2.4673327192e+00 4.2735456288e+00 
203900 4.7170707439e+00 5.1239999353e-03 2.4672284051e+00 -4.2733649516e+00 2.4672284051e+00 4.2733649516e+00 
204000 4.7170643593e+00 5.1004432823e-03 2.4671245646e+00 -4.2731850946e+00 2.4671245646e+00 4.2731850946e+00 
204100 4.7170580157e+00 5.0769155858e-03 2.4670211972e+00 -4.2730060569e+00 2.4670211972e+00 4.2730060569e+00 
204200 4.7170517132e+00 5.0534175908e-03 2.4669183022e+00 -4.2728278376e+00 2.4669183022e+00 4.2728278376e+00 
204300 4.7170454516e+00 5.0299500366e-03 2.4668158793e+00 -4.2726504358e+00 2.4668158793e+00 4.2726504358e+00 
204400 4.7170392307e+00 5.0065136569e-03 2.4667139277e+00 -4.2724738505e+00 2.4667139277e+00 4.2724738505e+00 
204500 4.7170330506e+00 4.9831091796e-03 2.4666124469e+00 -4.2722980807e+00 2.4666124469e+00 4.2722980807e+00 
204600 4.7170269110e+00 4.9597373270e-03 2.4665114364e+00 -4.2721231254e+00 2.4665114364e+00 4.2721231254e+00 
204700 4.7170208120e+00 4.9363988156e-03 2.4664108956e+00 -4.2719489835e+00 2.4664108956e+00 4.2719489835e+00 
204800 4.7170147532e+00 4.9130943560e-03 2.4663108237e+00 -4.2717756540e+00 2.4663108237e+00 4.2717756540e+00 
204900 4.7170087348e+00 4.8898246528e-03 2.4662112203e+00 -4.2716031357e+00 2.4662112203e+00 4.2716031357e+00 
205000 4.7170027564e+00 4.8665904050e-03 2.4661120846e+00 -4.2714314277e+00 2.4661120846e+00 4.2714314277e+00 
205100 4.7169968181e+00 4.8433923054e-03 2.4660134160e+00 -4.2712605286e+00 2.4660134160e+00 4.2712605286e+00 
205200 4.7169909197e+00 4.8202310407e-03 2.4659152137e+00 -4.2710904373e+00 2.4659152137e+00 4.2710904373e+00 
205300 4.7169850610e+00 4.7971072920e-03 2.4658174772e+00 -4.2709211527e+00 2.4658174772e+00 4.2709211527e+00 
205400 4.7169792420e+00 4.7740217338e-03 2.4657202057e+00 -4.2707526735e+00 2.4657202057e+00 4.2707526735e+00 
205500 4.7169734626e+00 4.7509750349e-03 2.4656233985e+00 -4.2705849985e+00 2.4656233985e+00 4.2705849985e+00 
205600 4.7169677225e+00 4.7279678578e-03 2.4655270548e+00 -4.2704181264e+00 2.4655270548e+00 4.2704181264e+00 
205700 4.7169620217e+00 4.7050008587e-03 2.4654311740e+00 -4.2702520558e+00 2.4654311740e+00 4.2702520558e+00 
205800 4.7169563601e+00 4.6820746879e-03 2.4653357551e+00 -4.2700867856e+00 2.4653357551e+00 4.2700867856e+00 
205900 4.7169507375e+00 4.6591899891e-03 2.4652407976e+00 -4.2699223143e+00 2.4652407976e+00 4.2699223143e+00 
206000 4.7169451538e+00 4.6363474000e-03 2.4651463005e+00 -4.2697586406e+00 2.4651463005e+00 4.2697586406e+00 
206100 4.7169396089e+00 4.6135475520e-03 2.4650522631e+00 -4.2695957631e+00 2.4650522631e+00 4.2695957631e+00 
206200 4.7169341026e+00 4.5907910699e-03 2.4649586846e+00 -4.2694336804e+00 2.4649586846e+00 4.2694336804e+00 
206300 4.7169286348e+00 4.5680785724e-03 2.4648655642e+00 -4.2692723910e+00 2.4648655642e+00 4.2692723910e+00 
206400 4.7169232054e+00 4.5454106719e-03 2.4647729009e+00 -4.2691118935e+00 2.4647729009e+00 4.2691118935e+00 
206500 4.7169178141e+00 4.5227879741e-03 2.4646806940e+00 -4.2689521864e+00 2.4646806940e+00 4.2689521864e+00 
206600 4.7169124610e+00 4.5002110785e-03 2.4645889425e+00 -4.2687932683e+00 2.4645889425e+00 4.2687932683e+00 
206700 4.7169071458e+00 4.4776805781e-03 2.4644976457e+00 -4.2686351375e+00 2.4644976457e+00 4.2686351375e+00 
206800 4.7169018684e+00 4.4551970594e-03 2.4644068026e+00 -4.2684777926e+00 2.4644068026e+00 4.2684777926e+00 
206900 4.7168966286e+00 4.4327611025e-03 2.4643164123e+00 -4.2683212320e+00 2.4643164123e+00 4.2683212320e+00 
207000 4.7168914264e+00 4.4103732808e-03 2.4642264739e+00 -4.2681654541e+00 2.4642264739e+00 4.2681654541e+00 
207100 4.7168862615e+00 4.3880341615e-03 2.4641369864e+00 -4.2680104573e+00 2.4641369864e+00 4.2680104573e+00 
207200 4.7168811339e+00 4.3657443049e-03 2.4640479490e+00 -4.2678562400e+00 2.4640479490e+00 4.2678562400e+00 
207300 4.7168760433e+00 4.3435042650e-03 2.4639593607e+00 -4.2677028005e+00 2.4639593607e+00 4.2677028005e+00 
207400 4.7168709897e+00 4.3213145891e-03 2.4638712205e+00 -4.2675501371e+00 2.4638712205e+00 4.2675501371e+00 
207500 4.7168659728e+00 4.2991758180e-03 2.4637835274e+00 -4.2673982483e+00 2.4637835274e+00 4.2673982483e+00 
207600 4.7168609926e+00 4.2770884860e-03 2.4636962805e+00 -4.2672471322e+00 2.4636962805e+00 4.2672471322e+00 
207700 4.7168560488e+00 4.2550531205e-03 2.4636094787e+00 -4.2670967871e+00 2.4636094787e+00 4.2670967871e+00 
207800 4.7168511414e+00 4.2330702425e-03 2.4635231211e+00 -4.2669472114e+00 2.4635231211e+00 4.2669472114e+00 
207900 4.7168462702e+00 4.2111403663e-03 2.4634372066e+00 -4.2667984031e+00 2.4634372066e+00 4.2667984031e+00 
208000 4.7168414349e+00 4.1892639997e-03 2.4633517343e+00 -4.2666503607e+00 2.4633517343e+00 4.2666503607e+00 
208100 4.7168366355e+00 4.1674416437e-03 2.4632667030e+00 -4.2665030821e+00 2.4632667030e+00 4.2665030821e+00 
208200 4.7168318719e+00 4.1456737927e-03 2.4631821117e+00 -4.2663565657e+00 2.4631821117e+00 4.2663565657e+00 
208300 4.7168271438e+00 4.1239609345e-03 2.4630979594e+00 -4.2662108096e+00 2.4630979594e+00 4.2662108096e+00 
208400 4.7168224510e+00 4.1023035502e-03 2.4630142449e+00 -4.2660658120e+00 2.4630142449e+00 4.2660658120e+00 
208500 4.7168177935e+00 4.0807021142e-03 2.4629309673e+00 -4.2659215708e+00 2.4629309673e+00 4.2659215708e+00 
208600 4.7168131711e+00 4.0591570945e-03 2.4628481253e+00 -4.2657780844e+00 2.4628481253e+00 4.2657780844e+00 
208700 4.7168085836e+00 4.0376689520e-03 2.4627657180e+00 -4.2656353507e+00 2.4627657180e+00 4.2656353507e+00 
208800 4.7168040309e+00 4.0162381414e-03 2.4626837442e+00 -4.2654933679e+00 2.4626837442e+00 4.2654933679e+00 
208900 4.7167995127e+00 3.9948651104e-03 2.4626022027e+00 -4.2653521340e+00 2.4626022027e+00 4.2653521340e+00 
209000 4.7167950290e+00 3.9735503002e-03 2.4625210925e+00 -4.2652116470e+00 2.4625210925e+00 4.2652116470e+00 
209100 4.7167905795e+00 3.9522941453e-03 2.4624404124e+00 -4.2650719050e+00 2.4624404124e+00 4.2650719050e+00 
209200 4.7167861642e+00 3.9310970736e-03 2.4623601613e+00 -4.2649329059e+00 2.4623601613e+00 4.2649329059e+00 
209300 4.7167817827e+00 3.9099595064e-03 2.4622803380e+00 -4.2647946479e+00 2.4622803380e+00 4.2647946479e+00 
209400 4.7167774351e+00 3.8888818582e-03 2.4622009413e+00 -4.2646571287e+00 2.4622009413e+00 4.2646571287e+00 
209500 4.7167731211e+00 3.8678645369e-03 2.4621219700e+00 -4.2645203466e+00 2.4621219700e+00 4.2645203466e+00 
209600 4.7167688405e+00 3.8469079440e-03 2.4620434231e+00 -4.2643842992e+00 2.4620434231e+00 4.2643842992e+00 
209700 4.7167645932e+00 3.8260124741e-03 2.4619652992e+00 -4.2642489847e+00 2.4619652992e+00 4.2642489847e+00 
209800 4.7167603790e+00 3.8051785154e-03 2.4618875972e+00 -4.2641144009e+00 2.4618875972e+00 4.2641144009e+00 
209900 4.7167561977e+00 3.7844064494e-03 2.4618103159e+00 -4.2639805457e+00 2.4618103159e+00 4.2639805457e+00 
210000 4.7167520492e+00 3.7636966511e-03 2.4617334540e+00 -4.2638474171e+00 2.4617334540e+00 4.2638474171e+00 
210100 4.7167479334e+00 3.7430494887e-03 2.4616570104e+00 -4.2637150128e+00 2.4616570104e+00 4.2637150128e+00 
210200 4.7167438499e+00 3.7224653242e-03 2.4615809837e+00 -4.2635833308e+00 2.4615809837e+00 4.2635833308e+00 
210300 4.7167397988e+00 3.7019445127e-03 2.4615053729e+00 -4.2634523689e+00 2.4615053729e+00 4.2634523689e+00 
210400 4.7167357797e+00 3.6814874031e-03 2.4614301765e+00 -4.2633221250e+00 2.4614301765e+00 4.2633221250e+00 
210500 4.7167317926e+00 3.6610943375e-03 2.4613553934e+00 -4.2631925968e+00 2.4613553934e+00 4.2631925968e+00 
210600 4.7167278372e+00 3.6407656516e-03 2.4612810222e+00 -4.2630637822e+00 2.4612810222e+00 4.2630637822e+00 
210700 4.7167239134e+00 3.6205016748e-03 2.4612070618e+00 -4.2629356790e+00 2.4612070618e+00 4.2629356790e+00 
210800 4.7167200211e+00 3.6003027297e-03 2.4611335108e+00 -4.2628082850e+00 2.4611335108e+00 4.2628082850e+00 
210900 4.7167161600e+00 3.5801691327e-03 2.4610603680e+00 -4.2626815979e+00 2.4610603680e+00 4.2626815979e+00 
211000 4.7167123299e+00 3.5601011937e-03 2.4609876321e+00 -4.2625556155e+00 2.4609876321e+00 4.2625556155e+00 
211100 4.7167085308e+00 3.5400992162e-03 2.4609153017e+00 -4.2624303356e+00 2.4609153017e+00 4.2624303356e+00 
211200 4.7167047624e+00 3.5201634973e-03 2.4608433755e+00 -4.2623057559e+00 2.4608433755e+00 4.2623057559e+00 
211300 4.7167010246e+00 3.5002943278e-03 2.4607718524e+00 -4.2621818742e+00 2.4607718524e+00 4.2621818742e+00 
211400 4.7166973171e+00 3.4804919920e-03 2.4607007308e+00 -4.2620586880e+00 2.4607007308e+00 4.2620586880e+00 
211500 4.7166936399e+00 3.4607567680e-03 2.4606300096e+00 -4.2619361953e+00 2.4606300096e+00 4.2619361953e+00 
211600 4.7166899928e+00 3.4410889276e-03 2.4605596874e+00 -4.2618143936e+00 2.4605596874e+00 4.2618143936e+00 
211700 4.7166863755e+00 3.4214887362e-03 2.4604897628e+00 -4.2616932806e+00 2.4604897628e+00 4.2616932806e+00 
211800 4.7166827879e+00 3.4019564533e-03 2.4604202345e+00 -4.2615728541e+00 2.4604202345e+00 4.2615728541e+00 
211900 4.7166792298e+00 3.3824923318e-03 2.4603511012e+00 -4.2614531117e+00 2.4603511012e+00 4.2614531117e+00 
212000 4.7166757011e+00 3.3630966185e-03 2.4602823615e+00 -4.2613340510e+00 2.4602823615e+00 4.2613340510e+00 
212100 4.7166722016e+00 3.3437695541e-03 2.4602140140e+00 -4.2612156698e+00 2.4602140140e+00 4.2612156698e+00 
212200 4.7166687311e+00 3.3245113731e-03 2.4601460574e+00 -4.2610979655e+00 2.4601460574e+00 4.2610979655e+00 
212300 4.7166652894e+00 3.3053223041e-03 2.4600784904e+00 -4.2609809360e+00 2.4600784904e+00 4.2609809360e+00 
212400 4.7166618764e+00 3.2862025692e-03 2.4600113115e+00 -4.2608645787e+00 2.4600113115e+00 4.2608645787e+00 
212500 4.7166584919e+00 3.2671523848e-03 2.4599445194e+00 -4.2607488913e+00 2.4599445194e+00 4.2607488913e+00 
212600 4.7166551357e+00 3.2481719611e-03 2.4598781126e+00 -4.2606338715e+00 2.4598781126e+00 4.2606338715e+00 
212700 4.7166518077e+00 3.2292615023e-03 2.4598120899e+00 -4.2605195168e+00 2.4598120899e+00 4.2605195168e+00 
212800 4.7166485076e+00 3.2104212068e-03 2.4597464498e+00 -4.2604058248e+00 2.4597464498e+00 4.2604058248e+00 
212900 4.7166452353e+00 3.1916512669e-03 2.4596811909e+00 -4.2602927930e+00 2.4596811909e+00 4.2602927930e+00 
213000 4.7166419907e+00 3.1729518691e-03 2.4596163118e+00 -4.2601804192e+00 2.4596163118e+00 4.2601804192e+00 
213100 4.7166387735e+00 3.1543231938e-03 2.4595518111e+00 -4.2600687007e+00 2.4595518111e+00 4.2600687007e+00 
213200 4.7166355837e+00 3.1357654159e-03 2.4594876875e+00 -4.2599576353e+00 2.4594876875e+00 4.2599576353e+00 
213300 4.7166324209e+00 3.1172787043e-03 2.4594239394e+00 -4.2598472204e+00 2.4594239394e+00 4.2598472204e+00 
213400 4.7166292851e+00 3.0988632222e-03 2.4593605655e+00 -4.2597374536e+00 2.4593605655e+00 4.2597374536e+00 
213500 4.7166261760e+00 3.0805191270e-03 2.4592975644e+00 -4.2596283324e+00 2.4592975644e+00 4.2596283324e+00 
213600 4.7166230936e+00 3.0622465704e-03 2.4592349346e+00 -4.2595198544e+00 2.4592349346e+00 4.2595198544e+00 
213700 4.7166200376e+00 3.0440456984e-03 2.4591726747e+00 -4.2594120171e+00 2.4591726747e+00 4.2594120171e+00 
213800 4.7166170078e+00 3.0259166516e-03 2.4591107833e+00 -4.2593048181e+00 2.4591107833e+00 4.2593048181e+00 
213900 4.7166140042e+00 3.0078595647e-03 2.4590492589e+00 -4.2591982548e+00 2.4590492589e+00 4.2591982548e+00 
214000 4.7166110264e+00 2.9898745671e-03 2.4589881002e+00 -4.2590923247e+00 2.4589881002e+00 4.2590923247e+00 
214100 4.7166080744e+00 2.9719617824e-03 2.4589273056e+00 -4.2589870255e+00 2.4589273056e+00 4.2589870255e+00 
214200 4.7166051480e+00 2.9541213290e-03 2.4588668738e+00 -4.2588823545e+00 2.4588668738e+00 4.2588823545e+00 
214300 4.7166022470e+00 2.9363533197e-03 2.4588068033e+00 -4.2587783092e+00 2.4588068033e+00 4.2587783092e+00 
214400 4.7165993713e+00 2.9186578619e-03 2.4587470926e+00 -4.2586748873e+00 2.4587470926e+00 4.2586748873e+00 
214500 4.7165965206e+00 2.9010350577e-03 2.4586877402e+00 -4.2585720861e+00 2.4586877402e+00 4.2585720861e+00 
214600 4.7165936948e+00 2.8834850038e-03 2.4586287449e+00 -4.2584699031e+00 2.4586287449e+00 4.2584699031e+00 
214700 4.7165908938e+00 2.8660077916e-03 2.4585701050e+00 -4.2583683359e+00 2.4585701050e+00 4.2583683359e+00 
214800 4.7165881173e+00 2.8486035073e-03 2.4585118192e+00 -4.2582673818e+00 2.4585118192e+00 4.2582673818e+00 
214900 4.7165853652e+00 2.8312722319e-03 2.4584538859e+00 -4.2581670385e+00 2.4584538859e+00 4.2581670385e+00 
215000 4.7165826374e+00 2.8140140411e-03 2.4583963038e+00 -4.2580673033e+00 2.4583963038e+00 4.2580673033e+00 
215100 4.7165799337e+00 2.7968290057e-03 2.4583390713e+00 -4.2579681737e+00 2.4583390713e+00 4.2579681737e+00 
215200 4.7165772538e+00 2.7797171911e-03 2.4582821870e+00 -4.2578696472e+00 2.4582821870e+00 4.2578696472e+00 
215300 4.7165745977e+00 2.7626786579e-03 2.4582256494e+00 -4.2577717212e+00 2.4582256494e+00 4.2577717212e+00 
215400 4.7165719651e+00 2.7457134616e-03 2.4581694571e+00 -4.2576743932e+00 2.4581694571e+00 4.2576743932e+00 
215500 4.7165693560e+00 2.7288216527e-03 2.4581136085e+00 -4.2575776607e+00 2.4581136085e+00 4.2575776607e+00 
215600 4.7165667701e+00 2.7120032768e-03 2.4580581023e+00 -4.2574815212e+00 2.4580581023e+00 4.2574815212e+00 
215700 4.7165642073e+00 2.6952583748e-03 2.4580029370e+00 -4.2573859720e+00 2.4580029370e+00 4.2573859720e+00 
215800 4.7165616674e+00 2.6785869823e-03 2.4579481110e+00 -4.2572910106e+00 2.4579481110e+00 4.2572910106e+00 
215900 4.7165591502e+00 2.6619891306e-03 2.4578936229e+00 -4.2571966345e+00 2.4578936229e+00 4.2571966345e+00 
216000 4.7165566557e+00 2.6454648459e-03 2.4578394713e+00 -4.2571028411e+00 2.4578394713e+00 4.2571028411e+00 
216100 4.7165541836e+00 2.6290141498e-03 2.4577856546e+00 -4.2570096279e+00 2.4577856546e+00 4.2570096279e+00 
216200 4.7165517337e+00 2.6126370592e-03 2.4577321714e+00 -4.2569169922e+00 2.4577321714e+00 4.2569169922e+00 
216300 4.7165493059e+00 2.5963335865e-03 2.4576790202e+00 -4.2568249317e+00 2.4576790202e+00 4.2568249317e+00 
216400 4.7165469001e+00 2.5801037394e-03 2.4576261995e+00 -4.2567334436e+00 2.4576261995e+00 4.2567334436e+00 
216500 4.7165445161e+00 2.5639475209e-03 2.4575737080e+00 -4.2566425255e+00 2.4575737080e+00 4.2566425255e+00 
216600 4.7165421537e+00 2.5478649298e-03 2.4575215439e+00 -4.2565521748e+00 2.4575215439e+00 4.2565521748e+00 
216700 4.7165398128e+00 2.5318559603e-03 2.4574697060e+00 -4.2564623889e+00 2.4574697060e+00 4.2564623889e+00 
216800 4.7165374932e+00 2.5159206021e-03 2.4574181927e+00 -4.2563731652e+00 2.4574181927e+00 4.2563731652e+00 
216900 4.7165351948e+00 2.5000588406e-03 2.4573670026e+00 -4.2562845013e+00 2.4573670026e+00 4.2562845013e+00 
217000 4.7165329173e+00 2.4842706570e-03 2.4573161341e+00 -4.2561963945e+00 2.4573161341e+00 4.2561963945e+00 
217100 4.7165306607e+00 2.4685560281e-03 2.4572655858e+00 -4.2561088423e+00 2.4572655858e+00 4.2561088423e+00 
217200 4.7165284248e+00 2.4529149263e-03 2.4572153563e+00 -4.2560218422e+00 2.4572153563e+00 4.2560218422e+00 
217300 4.7165262094e+00 2.4373473201e-03 2.4571654439e+00 -4.2559353915e+00 2.4571654439e+00 4.2559353915e+00 
217400 4.7165240144e+00 2.4218531737e-03 2.4571158474e+00 -4.2558494877e+00 2.4571158474e+00 4.2558494877e+00 
217500 4.7165218396e+00 2.4064324472e-03 2.4570665651e+00 -4.2557641283e+00 2.4570665651e+00 4.2557641283e+00 
217600 4.7165196849e+00 2.3910850966e-03 2.4570175956e+00 -4.2556793107e+00 2.4570175956e+00 4.2556793107e+00 
217700 4.7165175500e+00 2.3758110740e-03 2.4569689375e+00 -4.2555950324e+00 2.4569689375e+00 4.2555950324e+00 
217800 4.7165154350e+00 2.3606103273e-03 2.4569205893e+00 -4.2555112908e+00 2.4569205893e+00 4.2555112908e+00 
217900 4.7165133396e+00 2.3454828008e-03 2.4568725494e+00 -4.2554280833e+00 2.4568725494e+00 4.2554280833e+00 
218000 4.7165112636e+00 2.3304284346e-03 2.4568248165e+00 -4.2553454074e+00 2.4568248165e+00 4.2553454074e+00 
218100 4.7165092069e+00 2.3154471652e-03 2.4567773890e+00 -4.2552632606e+00 2.4567773890e+00 4.2552632606e+00 
218200 4.7165071694e+00 2.3005389250e-03 2.4567302654e+00 -4.2551816402e+00 2.4567302654e+00 4.2551816402e+00 
218300 4.7165051510e+00 2.2857036431e-03 2.4566834444e+00 -4.2551005439e+00 2.4566834444e+00 4.2551005439e+00 
218400 4.7165031513e+00 2.2709412444e-03 2.4566369245e+00 -4.2550199689e+00 2.4566369245e+00 4.2550199689e+00 
218500 4.7165011705e+00 2.2562516505e-03 2.4565907041e+00 -4.2549399129e+00 2.4565907041e+00 4.2549399129e+00 
218600 4.7164992081e+00 2.2416347792e-03 2.4565447818e+00 -4.2548603732e+00 2.4565447818e+00 4.2548603732e+00 
218700 4.7164972642e+00 2.2270905448e-03 2.4564991562e+00 -4.2547813473e+00 2.4564991562e+00 4.2547813473e+00 
218800 4.7164953386e+00 2.2126188580e-03 2.4564538257e+00 -4.2547028326e+00 2.4564538257e+00 4.2547028326e+00 
218900 4.7164934312e+00 2.1982196260e-03 2.4564087890e+00 -4.2546248268e+00 2.4564087890e+00 4.2546248268e+00 
219000 4.7164915417e+00 2.1838927526e-03 2.4563640446e+00 -4.2545473271e+00 2.4563640446e+00 4.2545473271e+00 
219100 4.7164896700e+00 2.1696381383e-03 2.4563195910e+00 -4.2544703312e+00 2.4563195910e+00 4.2544703312e+00 
219200 4.7164878161e+00 2.1554556800e-03 2.4562754267e+00 -4.2543938364e+00 2.4562754267e+00 4.2543938364e+00 
219300 4.7164859798e+00 2.1413452716e-03 2.4562315503e+00 -4.2543178403e+00 2.4562315503e+00 4.2543178403e+00 
219400 4.7164841608e+00 2.1273068034e-03 2.4561879604e+00 -4.2542423403e+00 2.4561879604e+00 4.2542423403e+00 
219500 4.7164823592e+00 2.1133401627e-03 2.4561446555e+00 -4.2541673340e+00 2.4561446555e+00 4.2541673340e+00 
219600 4.7164805747e+00 2.0994452336e-03 2.4561016341e+00 -4.2540928188e+00 2.4561016341e+00 4.2540928188e+00 
219700 4.7164788072e+00 2.0856218969e-03 2.4560588948e+00 -4.2540187922e+00 2.4560588948e+00 4.2540187922e+00 
219800 4.7164770565e+00 2.0718700305e-03 2.4560164362e+00 -4.2539452518e+00 2.4560164362e+00 4.2539452518e+00 
219900 4.7164753226e+00 2.0581895092e-03 2.4559742569e+00 -4.2538721950e+00 2.4559742569e+00 4.2538721950e+00 
220000 4.7164736053e+00 2.0445802046e-03 2.4559323553e+00 -4.2537996194e+00 2.4559323553e+00 4.2537996194e+00 
220100 4.7164719045e+00 2.0310419856e-03 2.4558907301e+00 -4.2537275224e+00 2.4558907301e+00 4.2537275224e+00 
220200 4.7164702200e+00 2.0175747181e-03 2.4558493798e+00 -4.2536559015e+00 2.4558493798e+00 4.2536559015e+00 
220300 4.7164685516e+00 2.0041782650e-03 2.4558083030e+00 -4.2535847544e+00 2.4558083030e+00 4.2535847544e+00 
220400 4.7164668993e+00 1.9908524865e-03 2.4557674982e+00 -4.2535140785e+00 2.4557674982e+00 4.2535140785e+00 
220500 4.7164652630e+00 1.9775972399e-03 2.4557269641e+00 -4.2534438714e+00 2.4557269641e+00 4.2534438714e+00 
220600 4.7164636424e+00 1.9644123798e-03 2.4556866992e+00 -4.2533741305e+00 2.4556866992e+00 4.2533741305e+00 
220700 4.7164620375e+00 1.9512977581e-03 2.4556467021e+00 -4.2533048535e+00 2.4556467021e+00 4.2533048535e+00 
220800 4.7164604481e+00 1.9382532241e-03 2.4556069714e+00 -4.2532360379e+00 2.4556069714e+00 4.2532360379e+00 
220900 4.7164588741e+00 1.9252786242e-03 2.4555675056e+00 -4.2531676812e+00 2.4555675056e+00 4.2531676812e+00 
221000 4.7164573154e+00 1.9123738026e-03 2.4555283034e+00 -4.2530997810e+00 2.4555283034e+00 4.2530997810e+00 
221100 4.7164557718e+00 1.8995386006e-03 2.4554893634e+00 -4.2530323348e+00 2.4554893634e+00 4.2530323348e+00 
221200 4.7164542432e+00 1.8867728572e-03 2.4554506840e+00 -4.2529653402e+00 2.4554506840e+00 4.2529653402e+00 
221300 4.7164527295e+00 1.8740764089e-03 2.4554122640e+00 -4.2528987949e+00 2.4554122640e+00 4.2528987949e+00 
221400 4.7164512306e+00 1.8614490897e-03 2.4553741020e+00 -4.2528326962e+00 2.4553741020e+00 4.2528326962e+00 
221500 4.7164497463e+00 1.8488907314e-03 2.4553361965e+00 -4.2527670420e+00 2.4553361965e+00 4.2527670420e+00 
221600 4.7164482765e+00 1.8364011632e-03 2.4552985461e+00 -4.2527018296e+00 2.4552985461e+00 4.2527018296e+00 
221700 4.7164468211e+00 1.8239802122e-03 2.4552611495e+00 -4.2526370568e+00 2.4552611495e+00 4.2526370568e+00 
221800 4.7164453800e+00 1.8116277032e-03 2.4552240053e+00 -4.2525727211e+00 2.4552240053e+00 4.2525727211e+00 
221900 4.7164439530e+00 1.7993434588e-03 2.4551871120e+00 -4.2525088202e+00 2.4551871120e+00 4.2525088202e+00 
222000 4.7164425400e+00 1.7871272992e-03 2.4551504684e+00 -4.2524453515e+00 2.4551504684e+00 4.2524453515e+00 
222100 4.7164411409e+00 1.7749790428e-03 2.4551140730e+00 -4.2523823129e+00 2.4551140730e+00 4.2523823129e+00 
222200 4.7164397556e+00 1.7628985057e-03 2.4550779245e+00 -4.2523197018e+00 2.4550779245e+00 4.2523197018e+00 
222300 4.7164383840e+00 1.7508855019e-03 2.4550420215e+00 -4.2522575160e+00 2.4550420215e+00 4.2522575160e+00 
222400 4.7164370258e+00 1.7389398434e-03 2.4550063626e+00 -4.2521957530e+00 2.4550063626e+00 4.2521957530e+00 
222500 4.7164356812e+00 1.7270613404e-03 2.4549709465e+00 -4.2521344104e+00 2.4549709465e+00 4.2521344104e+00 
222600 4.7164343498e+00 1.7152498009e-03 2.4549357718e+00 -4.2520734861e+00 2.4549357718e+00 4.2520734861e+00 
222700 4.7164330316e+00 1.7035050311e-03 2.4549008372e+00 -4.2520129775e+00 2.4549008372e+00 4.2520129775e+00 
222800 4.7164317264e+00 1.6918268353e-03 2.4548661412e+00 -4.2519528824e+00 2.4548661412e+00 4.2519528824e+00 
222900 4.7164304343e+00 1.6802150160e-03 2.4548316827e+00 -4.2518931984e+00 2.4548316827e+00 4.2518931984e+00 
223000 4.7164291549e+00 1.6686693739e-03 2.4547974602e+00 -4.2518339233e+00 2.4547974602e+00 4.2518339233e+00 
223100 4.7164278883e+00 1.6571897078e-03 2.4547634723e+00 -4.2517750546e+00 2.4547634723e+00 4.2517750546e+00 
223200 4.7164266343e+00 1.6457758151e-03 2.4547297178e+00 -4.2517165901e+00 2.4547297178e+00 4.2517165901e+00 
223300 4.7164253929e+00 1.6344274911e-03 2.4546961954e+00 -4.2516585275e+00 2.4546961954e+00 4.2516585275e+00 
223400 4.7164241638e+00 1.6231445298e-03 2.4546629036e+00 -4.2516008644e+00 2.4546629036e+00 4.2516008644e+00 
223500 4.7164229470e+00 1.6119267233e-03 2.4546298412e+00 -4.2515435987e+00 2.4546298412e+00 4.2515435987e+00 
223600 4.7164217423e+00 1.6007738624e-03 2.4545970068e+00 -4.2514867279e+00 2.4545970068e+00 4.2514867279e+00 
223700 4.7164205498e+00 1.5896857361e-03 2.4545643992e+00 -4.2514302499e+00 2.4545643992e+00 4.2514302499e+00 
223800 4.7164193692e+00 1.5786621320e-03 2.4545320171e+00 -4.2513741624e+00 2.4545320171e+00 4.2513741624e+00 
223900 4.7164182004e+00 1.5677028363e-03 2.4544998590e+00 -4.2513184630e+00 2.4544998590e+00 4.2513184630e+00 
224000 4.7164170434e+00 1.5568076337e-03 2.4544679238e+00 -4.2512631496e+00 2.4544679238e+00 4.2512631496e+00 
224100 4.7164158981e+00 1.5459763073e-03 2.4544362101e+00 -4.2512082199e+00 2.4544362101e+00 4.2512082199e+00 
224200 4.7164147642e+00 1.5352086392e-03 2.4544047167e+00 -4.2511536717e+00 2.4544047167e+00 4.2511536717e+00 
224300 4.7164136418e+00 1.5245044098e-03 2.4543734422e+00 -4.2510995026e+00 2.4543734422e+00 4.2510995026e+00 
224400 4.7164125307e+00 1.5138633986e-03 2.4543423854e+00 -4.2510457106e+00 2.4543423854e+00 4.2510457106e+00 
224500 4.7164114309e+00 1.5032853833e-03 2.4543115449e+00 -4.2509922934e+00 2.4543115449e+00 4.2509922934e+00 
224600 4.7164103421e+00 1.4927701408e-03 2.4542809196e+00 -4.2509392488e+00 2.4542809196e+00 4.2509392488e+00 
224700 4.7164092644e+00 1.4823174467e-03 2.4542505081e+00 -4.2508865745e+00 2.4542505081e+00 4.2508865745e+00 
224800 4.7164081976e+00 1.4719270753e-03 2.4542203092e+00 -4.2508342685e+00 2.4542203092e+00 4.2508342685e+00 
224900 4.7164071416e+00 1.4615987998e-03 2.4541903216e+00 -4.2507823284e+00 2.4541903216e+00 4.2507823284e+00 
225000 4.7164060964e+00 1.4513323924e-03 2.4541605440e+00 -4.2507307521e+00 2.4541605440e+00 4.2507307521e+00 
225100 4.7164050617e+00 1.4411276241e-03 2.4541309752e+00 -4.2506795376e+00 2.4541309752e+00 4.2506795376e+00 
225200 4.7164040376e+00 1.4309842649e-03 2.4541016140e+00 -4.2506286825e+00 2.4541016140e+00 4.2506286825e+00 
225300 4.7164030239e+00 1.4209020838e-03 2.4540724592e+00 -4.2505781847e+00 2.4540724592e+00 4.2505781847e+00 
225400 4.7164020206e+00 1.4108808488e-03 2.4540435093e+00 -4.2505280421e+00 2.4540435093e+00 4.2505280421e+00 
225500 4.7164010275e+00 1.4009203270e-03 2.4540147633e+00 -4.2504782526e+00 2.4540147633e+00 4.2504782526e+00 
225600 4.7164000445e+00 1.3910202844e-03 2.4539862200e+00 -4.2504288140e+00 2.4539862200e+00 4.2504288140e+00 
225700 4.7163990715e+00 1.3811804863e-03 2.4539578780e+00 -4.2503797243e+00 2.4539578780e+00 4.2503797243e+00 
225800 4.7163981086e+00 1.3714006970e-03 2.4539297361e+00 -4.2503309812e+00 2.4539297361e+00 4.2503309812e+00 
225900 4.7163971554e+00 1.3616806801e-03 2.4539017932e+00 -4.2502825826e+00 2.4539017932e+00 4.2502825826e+00 
226000 4.7163962121e+00 1.3520201983e-03 2.4538740481e+00 -4.2502345266e+00 2.4538740481e+00 4.2502345266e+00 
226100 4.7163952784e+00 1.3424190136e-03 2.4538464994e+00 -4.2501868110e+00 2.4538464994e+00 4.2501868110e+00 
226200 4.7163943543e+00 1.3328768872e-03 2.4538191461e+00 -4.2501394336e+00 2.4538191461e+00 4.2501394336e+00 
226300 4.7163934397e+00 1.3233935794e-03 2.4537919869e+00 -4.2500923926e+00 2.4537919869e+00 4.2500923926e+00 
226400 4.7163925345e+00 1.3139688502e-03 2.4537650207e+00 -4.2500456857e+00 2.4537650207e+00 4.2500456857e+00 
226500 4.7163916387e+00 1.3046024587e-03 2.4537382462e+00 -4.2499993109e+00 2.4537382462e+00 4.2499993109e+00 
226600 4.7163907520e+00 1.2952941632e-03 2.4537116623e+00 -4.2499532661e+00 2.4537116623e+00 4.2499532661e+00 
226700 4.7163898745e+00 1.2860437218e-03 2.4536852677e+00 -4.2499075495e+00 2.4536852677e+00 4.2499075495e+00 
226800 4.7163890061e+00 1.2768508916e-03 2.4536590614e+00 -4.2498621588e+00 2.4536590614e+00 4.2498621588e+00 
226900 4.7163881466e+00 1.2677154295e-03 2.4536330421e+00 -4.2498170921e+00 2.4536330421e+00 4.2498170921e+00 
227000 4.7163872961e+00 1.2586370916e-03 2.4536072087e+00 -4.2497723473e+00 2.4536072087e+00 4.2497723473e+00 
227100 4.7163864543e+00 1.2496156336e-03 2.4535815601e+00 -4.2497279225e+00 2.4535815601e+00 4.2497279225e+00 
227200 4.7163856212e+00 1.2406508108e-03 2.4535560950e+00 -4.2496838157e+00 2.4535560950e+00 4.2496838157e+00 
227300 4.7163847968e+00 1.2317423778e-03 2.4535308123e+00 -4.2496400249e+00 2.4535308123e+00 4.2496400249e+00 
227400 4.7163839810e+00 1.2228900891e-03 2.4535057109e+00 -4.2495965480e+00 2.4535057109e+00 4.2495965480e+00 
227500 4.7163831736e+00 1.2140936986e-03 2.4534807897e+00 -4.2495533831e+00 2.4534807897e+00 4.2495533831e+00 
227600 4.7163823746e+00 1.2053529597e-03 2.4534560475e+00 -4.2495105283e+00 2.4534560475e+00 4.2495105283e+00 
227700 4.7163815839e+00 1.1966676258e-03 2.4534314831e+00 -4.2494679816e+00 2.4534314831e+00 4.2494679816e+00 
227800 4.7163808014e+00 1.1880374497e-03 2.4534070955e+00 -4.2494257411e+00 2.4534070955e+00 4.2494257411e+00 
227900 4.7163800271e+00 1.1794621839e-03 2.4533828836e+00 -4.2493838048e+00 2.4533828836e+00 4.2493838048e+00 
228000 4.7163792609e+00 1.1709415807e-03 2.4533588461e+00 -4.2493421707e+00 2.4533588461e+00 4.2493421707e+00 
228100 4.7163785026e+00 1.1624753921e-03 2.4533349821e+00 -4.2493008370e+00 2.4533349821e+00 4.2493008370e+00 
228200 4.7163777523e+00 1.1540633698e-03 2.4533112904e+00 -4.2492598018e+00 2.4533112904e+00 4.2492598018e+00 
228300 4.7163770098e+00 1.1457052656e-03 2.4532877699e+00 -4.2492190631e+00 2.4532877699e+00 4.2492190631e+00 
228400 4.7163762751e+00 1.1374008305e-03 2.4532644196e+00 -4.2491786191e+00 2.4532644196e+00 4.2491786191e+00 
228500 4.7163755481e+00 1.1291498160e-03 2.4532412382e+00 -4.2491384678e+00 2.4532412382e+00 4.2491384678e+00 
228600 4.7163748287e+00 1.1209519730e-03 2.4532182248e+00 -4.2490986075e+00 2.4532182248e+00 4.2490986075e+00 
228700 4.7163741168e+00 1.1128070524e-03 2.4531953783e+00 -4.2490590361e+00 2.4531953783e+00 4.2490590361e+00 
228800 4.7163734124e+00 1.1047148050e-03 2.4531726976e+00 -4.2490197520e+00 2.4531726976e+00 4.2490197520e+00 
228900 4.7163727154e+00 1.0966749815e-03 2.4531501816e+00 -4.2489807531e+00 2.4531501816e+00 4.2489807531e+00 
229000 4.7163720257e+00 1.0886873326e-03 2.4531278292e+00 -4.2489420377e+00 2.4531278292e+00 4.2489420377e+00 
229100 4.7163713433e+00 1.0807516089e-03 2.4531056395e+00 -4.2489036039e+00 2.4531056395e+00 4.2489036039e+00 
229200 4.7163706680e+00 1.0728675609e-03 2.4530836113e+00 -4.2488654500e+00 2.4530836113e+00 4.2488654500e+00 
229300 4.7163699999e+00 1.0650349392e-03 2.4530617436e+00 -4.2488275740e+00 2.4530617436e+00 4.2488275740e+00 
229400 4.7163693388e+00 1.0572534944e-03 2.4530400353e+00 -4.2487899742e+00 2.4530400353e+00 4.2487899742e+00 
229500 4.7163686847e+00 1.0495229771e-03 2.4530184855e+00 -4.2487526488e+00 2.4530184855e+00 4.2487526488e+00 
229600 4.7163680375e+00 1.0418431380e-03 2.4529970931e+00 -4.2487155960e+00 2.4529970931e+00 4.2487155960e+00 
229700 4.7163673971e+00 1.0342137277e-03 2.4529758570e+00 -4.2486788140e+00 2.4529758570e+00 4.2486788140e+00 
229800 4.7163667634e+00 1.0266344971e-03 2.4529547762e+00 -4.2486423010e+00 2.4529547762e+00 4.2486423010e+00 
229900 4.7163661365e+00 1.0191051972e-03 2.4529338497e+00 -4.2486060554e+00 2.4529338497e+00 4.2486060554e+00 
230000 4.7163655162e+00 1.0116255789e-03 2.4529130766e+00 -4.2485700752e+00 2.4529130766e+00 4.2485700752e+00 
230100 4.7163649025e+00 1.0041953935e-03 2.4528924557e+00 -4.2485343588e+00 2.4528924557e+00 4.2485343588e+00 
230200 4.7163642953e+00 9.9681439238e-04 2.4528719861e+00 -4.2484989044e+00 2.4528719861e+00 4.2484989044e+00 
230300 4.7163636945e+00 9.8948232695e-04 2.4528516668e+00 -4.2484637104e+00 2.4528516668e+00 4.2484637104e+00 
230400 4.7163631001e+00 9.8219894900e-04 2.4528314968e+00 -4.2484287749e+00 2.4528314968e+00 4.2484287749e+00 
230500 4.7163625120e+00 9.7496401044e-04 2.4528114751e+00 -4.2483940962e+00 2.4528114751e+00 4.2483940962e+00 
230600 4.7163619302e+00 9.6777726344e-04 2.4527916007e+00 -4.2483596728e+00 2.4527916007e+00 4.2483596728e+00 
230700 4.7163613546e+00 9.6063846040e-04 2.4527718726e+00 -4.2483255028e+00 2.4527718726e+00 4.2483255028e+00 
230800 4.7163607850e+00 9.5354735397e-04 2.4527522900e+00 -4.2482915846e+00 2.4527522900e+00 4.2482915846e+00 
230900 4.7163602216e+00 9.4650369709e-04 2.4527328517e+00 -4.2482579165e+00 2.4527328517e+00 4.2482579165e+00 
231000 4.7163596641e+00 9.3950724298e-04 2.4527135568e+00 -4.2482244968e+00 2.4527135568e+00 4.2482244968e+00 
231100 4.7163591126e+00 9.3255774516e-04 2.4526944044e+00 -4.2481913239e+00 2.4526944044e+00 4.2481913239e+00 
231200 4.7163585669e+00 9.2565495749e-04 2.4526753936e+00 -4.2481583962e+00 2.4526753936e+00 4.2481583962e+00 
231300 4.7163580271e+00 9.1879863413e-04 2.4526565233e+00 -4.2481257119e+00 2.4526565233e+00 4.2481257119e+00 
231400 4.7163574931e+00 9.1198852963e-04 2.4526377926e+00 -4.2480932694e+00 2.4526377926e+00 4.2480932694e+00 
231500 4.7163569648e+00 9.0522439887e-04 2.4526192007e+00 -4.2480610672e+00 2.4526192007e+00 4.2480610672e+00 
231600 4.7163564421e+00 8.9850599713e-04 2.4526007465e+00 -4.2480291035e+00 2.4526007465e+00 4.2480291035e+00 
231700 4.7163559250e+00 8.9183308005e-04 2.4525824291e+00 -4.2479973769e+00 2.4525824291e+00 4.2479973769e+00 
231800 4.7163554134e+00 8.8520540371e-04 2.4525642476e+00 -4.2479658856e+00 2.4525642476e+00 4.2479658856e+00 
231900 4.7163549073e+00 8.7862272458e-04 2.4525462011e+00 -4.2479346282e+00 2.4525462011e+00 4.2479346282e+00 
232000 4.7163544067e+00 8.7208479958e-04 2.4525282886e+00 -4.2479036029e+00 2.4525282886e+00 4.2479036029e+00 
232100 4.7163539114e+00 8.6559138606e-04 2.4525105093e+00 -4.2478728083e+00 2.4525105093e+00 4.2478728083e+00 
232200 4.7163534214e+00 8.5914224183e-04 2.4524928623e+00 -4.2478422427e+00 2.4524928623e+00 4.2478422427e+00 
232300 4.7163529367e+00 8.5273712517e-04 2.4524753467e+00 -4.2478119047e+00 2.4524753467e+00 4.2478119047e+00 
232400 4.7163524572e+00 8.4637579483e-04 2.4524579614e+00 -4.2477817926e+00 2.4524579614e+00 4.2477817926e+00 
232500 4.7163519829e+00 8.4005801007e-04 2.4524407058e+00 -4.2477519050e+00 2.4524407058e+00 4.2477519050e+00 
232600 4.7163515137e+00 8.3378353065e-04 2.4524235788e+00 -4.2477222402e+00 2.4524235788e+00 4.2477222402e+00 
232700 4.7163510495e+00 8.2755211682e-04 2.4524065797e+00 -4.2476927968e+00 2.4524065797e+00 4.2476927968e+00 
232800 4.7163505903e+00 8.2136352940e-04 2.4523897075e+00 -4.2476635733e+00 2.4523897075e+00 4.2476635733e+00 
232900 4.7163501361e+00 8.1521752971e-04 2.4523729613e+00 -4.2476345681e+00 2.4523729613e+00 4.2476345681e+00 
233000 4.7163496867e+00 8.0911387964e-04 2.4523563403e+00 -4.2476057797e+00 2.4523563403e+00 4.2476057797e+00 
233100 4.7163492422e+00 8.0305234162e-04 2.4523398437e+00 -4.2475772067e+00 2.4523398437e+00 4.2475772067e+00 
233200 4.7163488026e+00 7.9703267868e-04 2.4523234705e+00 -4.2475488475e+00 2.4523234705e+00 4.2475488475e+00 
233300 4.7163483676e+00 7.9105465441e-04 2.4523072200e+00 -4.2475207007e+00 2.4523072200e+00 4.2475207007e+00 
233400 4.7163479374e+00 7.8511803298e-04 2.4522910912e+00 -4.2474927649e+00 2.4522910912e+00 4.2474927649e+00 
233500 4.7163475118e+00 7.7922257918e-04 2.4522750834e+00 -4.2474650385e+00 2.4522750834e+00 4.2474650385e+00 
233600 4.7163470908e+00 7.7336805840e-04 2.4522591956e+00 -4.2474375202e+00 2.4522591956e+00 4.2474375202e+00 
233700 4.7163466744e+00 7.6755423666e-04 2.4522434272e+00 -4.2474102084e+00 2.4522434272e+00 4.2474102084e+00 
233800 4.7163462624e+00 7.6178088058e-04 2.4522277771e+00 -4.2473831017e+00 2.4522277771e+00 4.2473831017e+00 
233900 4.7163458550e+00 7.5604775746e-04 2.4522122447e+00 -4.2473561988e+00 2.4522122447e+00 4.2473561988e+00 
234000 4.7163454520e+00 7.5035463520e-04 2.4521968291e+00 -4.2473294982e+00 2.4521968291e+00 4.2473294982e+00 
234100 4.7163450533e+00 7.4470128239e-04 2.4521815295e+00 -4.2473029985e+00 2.4521815295e+00 4.2473029985e+00 
234200 4.7163446589e+00 7.3908746827e-04 2.4521663450e+00 -4.2472766982e+00 2.4521663450e+00 4.2472766982e+00 
234300 4.7163442689e+00 7.3351296274e-04 2.4521512750e+00 -4.2472505961e+00 2.4521512750e+00 4.2472505961e+00 
234400 4.7163438831e+00 7.2797753641e-04 2.4521363185e+00 -4.2472246907e+00 2.4521363185e+00 4.2472246907e+00 
234500 4.7163435014e+00 7.2248096054e-04 2.4521214747e+00 -4.2471989806e+00 2.4521214747e+00 4.2471989806e+00 
234600 4.7163431240e+00 7.1702300712e-04 2.4521067430e+00 -4.2471734645e+00 2.4521067430e+00 4.2471734645e+00 
234700 4.7163427506e+00 7.1160344882e-04 2.4520921225e+00 -4.2471481409e+00 2.4520921225e+00 4.2471481409e+00 
234800 4.7163423813e+00 7.0622205903e-04 2.4520776124e+00 -4.2471230087e+00 2.4520776124e+00 4.2471230087e+00 
234900 4.7163420160e+00 7.0087861185e-04 2.4520632119e+00 -4.2470980663e+00 2.4520632119e+00 4.2470980663e+00 
235000 4.7163416547e+00 6.9557288212e-04 2.4520489203e+00 -4.2470733126e+00 2.4520489203e+00 4.2470733126e+00 
235100 4.7163412973e+00 6.9030464539e-04 2.4520347368e+00 -4.2470487461e+00 2.4520347368e+00 4.2470487461e+00 
235200 4.7163409439e+00 6.8507367796e-04 2.4520206606e+00 -4.2470243655e+00 2.4520206606e+00 4.2470243655e+00 
235300 4.7163405943e+00 6.7987975688e-04 2.4520066911e+00 -4.2470001695e+00 2.4520066911e+00 4.2470001695e+00 
235400 4.7163402485e+00 6.7472265994e-04 2.4519928274e+00 -4.2469761568e+00 2.4519928274e+00 4.2469761568e+00 
235500 4.7163399065e+00 6.6960216570e-04 2.4519790687e+00 -4.2469523261e+00 2.4519790687e+00 4.2469523261e+00 
235600 4.7163395682e+00 6.6451805346e-04 2.4519654144e+00 -4.2469286762e+00 2.4519654144e+00 4.2469286762e+00 
235700 4.7163392336e+00 6.5947010331e-04 2.4519518637e+00 -4.2469052056e+00 2.4519518637e+00 4.2469052056e+00 
235800 4.7163389027e+00 6.5445809612e-04 2.4519384158e+00 -4.2468819133e+00 2.4519384158e+00 4.2468819133e+00 
235900 4.7163385754e+00 6.4948181352e-04 2.4519250701e+00 -4.2468587978e+00 2.4519250701e+00 4.2468587978e+00 
236000 4.7163382517e+00 6.4454103793e-04 2.4519118258e+00 -4.2468358580e+00 2.4519118258e+00 4.2468358580e+00 
236100 4.7163379315e+00 6.3963555257e-04 2.4518986822e+00 -4.2468130926e+00 2.4518986822e+00 4.2468130926e+00 
236200 4.7163376149e+00 6.3476514146e-04 2.4518856385e+00 -4.2467905003e+00 2.4518856385e+00 4.2467905003e+00 
236300 4.7163373017e+00 6.2992958941e-04 2.4518726941e+00 -4.2467680799e+00 2.4518726941e+00 4.2467680799e+00 
236400 4.7163369919e+00 6.2512868203e-04 2.4518598482e+00 -4.2467458302e+00 2.4518598482e+00 4.2467458302e+00 
236500 4.7163366856e+00 6.2036220576e-04 2.4518471002e+00 -4.2467237499e+00 2.4518471002e+00 4.2467237499e+00 
236600 4.7163363826e+00 6.1562994784e-04 2.4518344493e+00 -4.2467018379e+00 2.4518344493e+00 4.2467018379e+00 
236700 4.7163360829e+00 6.1093169634e-04 2.4518218948e+00 -4.2466800929e+00 2.4518218948e+00 4.2466800929e+00 
236800 4.7163357865e+00 6.0626724014e-04 2.4518094361e+00 -4.2466585138e+00 2.4518094361e+00 4.2466585138e+00 
236900 4.7163354934e+00 6.0163636896e-04 2.4517970724e+00 -4.2466370993e+00 2.4517970724e+00 4.2466370993e+00 
237000 4.7163352035e+00 5.9703887334e-04 2.4517848032e+00 -4.2466158483e+00 2.4517848032e+00 4.2466158483e+00 
237100 4.7163349168e+00 5.9247454468e-04 2.4517726276e+00 -4.2465947596e+00 2.4517726276e+00 4.2465947596e+00 
237200 4.7163346333e+00 5.8794317518e-04 2.4517605450e+00 -4.2465738319e+00 2.4517605450e+00 4.2465738319e+00 
237300 4.7163343528e+00 5.8344455791e-04 2.4517485548e+00 -4.2465530643e+00 2.4517485548e+00 4.2465530643e+00 
237400 4.7163340755e+00 5.7897848679e-04 2.4517366563e+00 -4.2465324554e+00 2.4517366563e+00 4.2465324554e+00 
237500 4.7163338012e+00 5.7454475658e-04 2.4517248488e+00 -4.2465120042e+00 2.4517248488e+00 4.2465120042e+00 
237600 4.7163335300e+00 5.7014316288e-04 2.4517131316e+00 -4.2464917095e+00 2.4517131316e+00 4.2464917095e+00 
237700 4.7163332617e+00 5.6577350217e-04 2.4517015042e+00 -4.2464715702e+00 2.4517015042e+00 4.2464715702e+00 
237800 4.7163329964e+00 5.6143557177e-04 2.4516899658e+00 -4.2464515852e+00 2.4516899658e+00 4.2464515852e+00 
237900 4.7163327340e+00 5.5712916986e-04 2.4516785158e+00 -4.2464317533e+00 2.4516785158e+00 4.2464317533e+00 
238000 4.7163324745e+00 5.5285409551e-04 2.4516671536e+00 -4.2464120734e+00 2.4516671536e+00 4.2464120734e+00 
238100 4.7163322179e+00 5.4861014863e-04 2.4516558786e+00 -4.2463925444e+00 2.4516558786e+00 4.2463925444e+00 
238200 4.7163319642e+00 5.4439713000e-04 2.4516446900e+00 -4.2463731652e+00 2.4516446900e+00 4.2463731652e+00 
238300 4.7163317132e+00 5.4021484128e-04 2.4516335874e+00 -4.2463539348e+00 2.4516335874e+00 4.2463539348e+00 
238400 4.7163314650e+00 5.3606308500e-04 2.4516225699e+00 -4.2463348521e+00 2.4516225699e+00 4.2463348521e+00 
238500 4.7163312195e+00 5.3194166458e-04 2.4516116371e+00 -4.2463159159e+00 2.4516116371e+00 4.2463159159e+00 
238600 4.7163309768e+00 5.2785038429e-04 2.4516007883e+00 -4.2462971252e+00 2.4516007883e+00 4.2462971252e+00 
238700 4.7163307367e+00 5.2378904929e-04 2.4515900229e+00 -4.2462784789e+00 2.4515900229e+00 4.2462784789e+00 
238800 4.7163304994e+00 5.1975746564e-04 2.4515793402e+00 -4.2462599761e+00 2.4515793402e+00 4.2462599761e+00 
238900 4.7163302646e+00 5.1575544026e-04 2.4515687398e+00 -4.2462416156e+00 2.4515687398e+00 4.2462416156e+00 
239000 4.7163300324e+00 5.1178278095e-04 2.4515582209e+00 -4.2462233963e+00 2.4515582209e+00 4.2462233963e+00 
239100 4.7163298029e+00 5.0783929642e-04 2.4515477830e+00 -4.2462053174e+00 2.4515477830e+00 4.2462053174e+00 
239200 4.7163295758e+00 5.0392479625e-04 2.4515374255e+00 -4.2461873776e+00 2.4515374255e+00 4.2461873776e+00 
239300 4.7163293513e+00 5.0003909091e-04 2.4515271478e+00 -4.2461695761e+00 2.4515271478e+00 4.2461695761e+00 
239400 4.7163291293e+00 4.9618199176e-04 2.4515169493e+00 -4.2461519117e+00 2.4515169493e+00 4.2461519117e+00 
239500 4.7163289097e+00 4.9235331105e-04 2.4515068294e+00 -4.2461343836e+00 2.4515068294e+00 4.2461343836e+00 
239600 4.7163286926e+00 4.8855286192e-04 2.4514967875e+00 -4.2461169906e+00 2.4514967875e+00 4.2461169906e+00 
239700 4.7163284779e+00 4.8478045841e-04 2.4514868231e+00 -4.2460997318e+00 2.4514868231e+00 4.2460997318e+00 
239800 4.7163282656e+00 4.8103591545e-04 2.4514769357e+00 -4.2460826062e+00 2.4514769357e+00 4.2460826062e+00 
239900 4.7163280556e+00 4.7731904885e-04 2.4514671245e+00 -4.2460656128e+00 2.4514671245e+00 4.2460656128e+00 
240000 4.7163278480e+00 4.7362967533e-04 2.4514573892e+00 -4.2460487506e+00 2.4514573892e+00 4.2460487506e+00 
240100 4.7163276427e+00 4.6996761250e-04 2.4514477290e+00 -4.2460320187e+00 2.4514477290e+00 4.2460320187e+00 
240200 4.7163274396e+00 4.6633267886e-04 2.4514381435e+00 -4.2460154162e+00 2.4514381435e+00 4.2460154162e+00 
240300 4.7163272389e+00 4.6272469381e-04 2.4514286321e+00 -4.2459989419e+00 2.4514286321e+00 4.2459989419e+00 
240400 4.7163270403e+00 4.5914347764e-04 2.4514191943e+00 -4.2459825951e+00 2.4514191943e+00 4.2459825951e+00 
240500 4.7163268440e+00 4.5558885155e-04 2.4514098294e+00 -4.2459663747e+00 2.4514098294e+00 4.2459663747e+00 
240600 4.7163266499e+00 4.5206063761e-04 2.4514005370e+00 -4.2459502798e+00 2.4514005370e+00 4.2459502798e+00 
240700 4.7163264579e+00 4.4855865882e-04 2.4513913166e+00 -4.2459343095e+00 2.4513913166e+00 4.2459343095e+00 
240800 4.7163262681e+00 4.4508273904e-04 2.4513821675e+00 -4.2459184629e+00 2.4513821675e+00 4.2459184629e+00 
240900 4.7163260804e+00 4.4163270304e-04 2.4513730893e+00 -4.2459027390e+00 2.4513730893e+00 4.2459027390e+00 
241000 4.7163258947e+00 4.3820837649e-04 2.4513640815e+00 -4.2458871370e+00 2.4513640815e+00 4.2458871370e+00 
241100 4.7163257112e+00 4.3480958595e-04 2.4513551434e+00 -4.2458716558e+00 2.4513551434e+00 4.2458716558e+00 
241200 4.7163255297e+00 4.3143615888e-04 2.4513462747e+00 -4.2458562947e+00 2.4513462747e+00 4.2458562947e+00 
241300 4.7163253502e+00 4.2808792362e-04 2.4513374747e+00 -4.2458410527e+00 2.4513374747e+00 4.2458410527e+00 
241400 4.7163251728e+00 4.2476470942e-04 2.4513287430e+00 -4.2458259289e+00 2.4513287430e+00 4.2458259289e+00 
241500 4.7163249973e+00 4.2146634640e-04 2.4513200790e+00 -4.2458109225e+00 2.4513200790e+00 4.2458109225e+00 
241600 4.7163248238e+00 4.1819266558e-04 2.4513114823e+00 -4.2457960325e+00 2.4513114823e+00 4.2457960325e+00 
241700 4.7163246522e+00 4.1494349890e-04 2.4513029523e+00 -4.2457812582e+00 2.4513029523e+00 4.2457812582e+00 
241800 4.7163244826e+00 4.1171867915e-04 2.4512944886e+00 -4.2457665985e+00 2.4512944886e+00 4.2457665985e+00 
241900 4.7163243148e+00 4.0851804002e-04 2.4512860906e+00 -4.2457520528e+00 2.4512860906e+00 4.2457520528e+00 
242000 4.7163241489e+00 4.0534141610e-04 2.4512777579e+00 -4.2457376201e+00 2.4512777579e+00 4.2457376201e+00 
242100 4.7163239849e+00 4.0218864286e-04 2.4512694899e+00 -4.2457232996e+00 2.4512694899e+00 4.2457232996e+00 
242200 4.7163238227e+00 3.9905955665e-04 2.4512612863e+00 -4.2457090904e+00 2.4512612863e+00 4.2457090904e+00 
242300 4.7163236624e+00 3.9595399472e-04 2.4512531464e+00 -4.2456949917e+00 2.4512531464e+00 4.2456949917e+00 
242400 4.7163235038e+00 3.9287179518e-04 2.4512450698e+00 -4.2456810027e+00 2.4512450698e+00 4.2456810027e+00 
242500 4.7163233470e+00 3.8981279705e-04 2.4512370561e+00 -4.2456671226e+00 2.4512370561e+00 4.2456671226e+00 
242600 4.7163231920e+00 3.8677684021e-04 2.4512291048e+00 -4.2456533504e+00 2.4512291048e+00 4.2456533504e+00 
242700 4.7163230387e+00 3.8376376543e-04 2.4512212153e+00 -4.2456396855e+00 2.4512212153e+00 4.2456396855e+00 
242800 4.7163228871e+00 3.8077341435e-04 2.4512133873e+00 -4.2456261270e+00 2.4512133873e+00 4.2456261270e+00 
242900 4.7163227372e+00 3.7780562949e-04 2.4512056203e+00 -4.2456126741e+00 2.4512056203e+00 4.2456126741e+00 
243000 4.7163225891e+00 3.7486025425e-04 2.4511979137e+00 -4.2455993260e+00 2.4511979137e+00 4.2455993260e+00 
243100 4.7163224425e+00 3.7193713289e-04 2.4511902673e+00 -4.2455860820e+00 2.4511902673e+00 4.2455860820e+00 
243200 4.7163222977e+00 3.6903611057e-04 2.4511826804e+00 -4.2455729411e+00 2.4511826804e+00 4.2455729411e+00 
243300 4.7163221544e+00 3.6615703328e-04 2.4511751527e+00 -4.2455599027e+00 2.4511751527e+00 4.2455599027e+00 
243400 4.7163220128e+00 3.6329974791e-04 2.4511676837e+00 -4.2455469660e+00 2.4511676837e+00 4.2455469660e+00 
243500 4.7163218727e+00 3.6046410221e-04 2.4511602730e+00 -4.2455341303e+00 2.4511602730e+00 4.2455341303e+00 
243600 4.7163217342e+00 3.5764994478e-04 2.4511529200e+00 -4.2455213946e+00 2.4511529200e+00 4.2455213946e+00 
243700 4.7163215973e+00 3.5485712509e-04 2.4511456245e+00 -4.2455087584e+00 2.4511456245e+00 4.2455087584e+00 
243800 4.7163214620e+00 3.5208549348e-04 2.4511383859e+00 -4.2454962208e+00 2.4511383859e+00 4.2454962208e+00 
243900 4.7163213281e+00 3.4933490114e-04 2.4511312038e+00 -4.2454837810e+00 2.4511312038e+00 4.2454837810e+00 
244000 4.7163211958e+00 3.4660520012e-04 2.4511240778e+00 -4.2454714385e+00 2.4511240778e+00 4.2454714385e+00 
244100 4.7163210649e+00 3.4389624331e-04 2.4511170075e+00 -4.2454591923e+00 2.4511170075e+00 4.2454591923e+00 
244200 4.7163209355e+00 3.4120788447e-04 2.4511099924e+00 -4.2454470418e+00 2.4511099924e+00 4.2454470418e+00 
244300 4.7163208076e+00 3.3853997822e-04 2.4511030321e+00 -4.2454349863e+00 2.4511030321e+00 4.2454349863e+00 
244400 4.7163206811e+00 3.3589237999e-04 2.4510961263e+00 -4.2454230249e+00 2.4510961263e+00 4.2454230249e+00 
244500 4.7163205561e+00 3.3326494608e-04 2.4510892744e+00 -4.2454111571e+00 2.4510892744e+00 4.2454111571e+00 
244600 4.7163204324e+00 3.3065753365e-04 2.4510824761e+00 -4.2453993821e+00 2.4510824761e+00 4.2453993821e+00 
244700 4.7163203102e+00 3.2807000066e-04 2.4510757310e+00 -4.2453876992e+00 2.4510757310e+00 4.2453876992e+00 
244800 4.7163201893e+00 3.2550220595e-04 2.4510690386e+00 -4.2453761077e+00 2.4510690386e+00 4.2453761077e+00 
244900 4.7163200698e+00 3.2295400916e-04 2.4510623986e+00 -4.2453646069e+00 2.4510623986e+00 4.2453646069e+00 
245000 4.7163199516e+00 3.2042527079e-04 2.4510558106e+00 -4.2453531961e+00 2.4510558106e+00 4.2453531961e+00 
245100 4.7163198348e+00 3.1791585215e-04 2.4510492741e+00 -4.2453418746e+00 2.4510492741e+00 4.2453418746e+00 
245200 4.7163197193e+00 3.1542561541e-04 2.4510427888e+00 -4.2453306417e+00 2.4510427888e+00 4.2453306417e+00 
245300 4.7163196051e+00 3.1295442353e-04 2.4510363543e+00 -4.2453194968e+00 2.4510363543e+00 4.2453194968e+00 
245400 4.7163194922e+00 3.1050214032e-04 2.4510299702e+00 -4.2453084392e+00 2.4510299702e+00 4.2453084392e+00 
245500 4.7163193806e+00 3.0806863040e-04 2.4510236360e+00 -4.2452974682e+00 2.4510236360e+00 4.2452974682e+00 
245600 4.7163192702e+00 3.0565375920e-04 2.4510173516e+00 -4.2452865831e+00 2.4510173516e+00 4.2452865831e+00 
245700 4.7163191611e+00 3.0325739299e-04 2.4510111163e+00 -4.2452757834e+00 2.4510111163e+00 4.2452757834e+00 
245800 4.7163190532e+00 3.0087939882e-04 2.4510049299e+00 -4.2452650683e+00 2.4510049299e+00 4.2452650683e+00 
245900 4.7163189465e+00 2.9851964459e-04 2.4509987921e+00 -4.2452544372e+00 2.4509987921e+00 4.2452544372e+00 
246000 4.7163188410e+00 2.9617799898e-04 2.4509927023e+00 -4.2452438894e+00 2.4509927023e+00 4.2452438894e+00 
246100 4.7163187368e+00 2.9385433147e-04 2.4509866603e+00 -4.2452334243e+00 2.4509866603e+00 4.2452334243e+00 
246200 4.7163186337e+00 2.9154851236e-04 2.4509806657e+00 -4.2452230414e+00 2.4509806657e+00 4.2452230414e+00 
246300 4.7163185317e+00 2.8926041274e-04 2.4509747181e+00 -4.2452127399e+00 2.4509747181e+00 4.2452127399e+00 
246400 4.7163184310e+00 2.8698990451e-04 2.4509688172e+00 -4.2452025192e+00 2.4509688172e+00 4.2452025192e+00 
246500 4.7163183313e+00 2.8473686034e-04 2.4509629626e+00 -4.2451923787e+00 2.4509629626e+00 4.2451923787e+00 
246600 4.7163182329e+00 2.8250115371e-04 2.4509571539e+00 -4.2451823177e+00 2.4509571539e+00 4.2451823177e+00 
246700 4.7163181355e+00 2.8028265887e-04 2.4509513908e+00 -4.2451723358e+00 2.4509513908e+00 4.2451723358e+00 
246800 4.7163180392e+00 2.7808125088e-04 2.4509456730e+00 -4.2451624322e+00 2.4509456730e+00 4.2451624322e+00 
246900 4.7163179440e+00 2.7589680555e-04 2.4509400001e+00 -4.2451526064e+00 2.4509400001e+00 4.2451526064e+00 
247000 4.7163178499e+00 2.7372919950e-04 2.4509343717e+00 -4.2451428578e+00 2.4509343717e+00 4.2451428578e+00 
247100 4.7163177568e+00 2.7157831010e-04 2.4509287875e+00 -4.2451331857e+00 2.4509287875e+00 4.2451331857e+00 
247200 4.7163176649e+00 2.6944401551e-04 2.4509232472e+00 -4.2451235896e+00 2.4509232472e+00 4.2451235896e+00 
247300 4.7163175739e+00 2.6732619466e-04 2.4509177504e+00 -4.2451140689e+00 2.4509177504e+00 4.2451140689e+00 
247400 4.7163174840e+00 2.6522472723e-04 2.4509122968e+00 -4.2451046230e+00 2.4509122968e+00 4.2451046230e+00 
247500 4.7163173951e+00 2.6313949368e-04 2.4509068861e+00 -4.2450952513e+00 2.4509068861e+00 4.2450952513e+00 
247600 4.7163173072e+00 2.6107037522e-04 2.4509015179e+00 -4.2450859533e+00 2.4509015179e+00 4.2450859533e+00 
247700 4.7163172204e+00 2.5901725383e-04 2.4508961919e+00 -4.2450767284e+00 2.4508961919e+00 4.2450767284e+00 
247800 4.7163171345e+00 2.5698001223e-04 2.4508909077e+00 -4.2450675760e+00 2.4508909077e+00 4.2450675760e+00 
247900 4.7163170495e+00 2.5495853390e-04 2.4508856652e+00 -4.2450584956e+00 2.4508856652e+00 4.2450584956e+00 
248000 4.7163169656e+00 2.5295270306e-04 2.4508804638e+00 -4.2450494866e+00 2.4508804638e+00 4.2450494866e+00 
248100 4.7163168826e+00 2.5096240469e-04 2.4508753034e+00 -4.2450405484e+00 2.4508753034e+00 4.2450405484e+00 
248200 4.7163168005e+00 2.4898752449e-04 2.4508701835e+00 -4.2450316806e+00 2.4508701835e+00 4.2450316806e+00 
248300 4.7163167194e+00 2.4702794893e-04 2.4508651039e+00 -4.2450228825e+00 2.4508651039e+00 4.2450228825e+00 
248400 4.7163166392e+00 2.4508356518e-04 2.4508600643e+00 -4.2450141537e+00 2.4508600643e+00 4.2450141537e+00 
248500 4.7163165599e+00 2.4315426117e-04 2.4508550644e+00 -4.2450054935e+00 2.4508550644e+00 4.2450054935e+00 
248600 4.7163164815e+00 2.4123992553e-04 2.4508501038e+00 -4.2449969015e+00 2.4508501038e+00 4.2449969015e+00 
248700 4.7163164040e+00 2.3934044765e-04 2.4508451822e+00 -4.2449883771e+00 2.4508451822e+00 4.2449883771e+00 
248800 4.7163163274e+00 2.3745571762e-04 2.4508402994e+00 -4.2449799198e+00 2.4508402994e+00 4.2449799198e+00 
248900 4.7163162517e+00 2.3558562625e-04 2.4508354550e+00 -4.2449715291e+00 2.4508354550e+00 4.2449715291e+00 
249000 4.7163161768e+00 2.3373006508e-04 2.4508306488e+00 -4.2449632045e+00 2.4508306488e+00 4.2449632045e+00 
249100 4.7163161027e+00 2.3188892634e-04 2.4508258804e+00 -4.2449549454e+00 2.4508258804e+00 4.2449549454e+00 
249200 4.7163160296e+00 2.3006210300e-04 2.4508211496e+00 -4.2449467514e+00 2.4508211496e+00 4.2449467514e+00 
249300 4.7163159572e+00 2.2824948871e-04 2.4508164560e+00 -4.2449386219e+00 2.4508164560e+00 4.2449386219e+00 
249400 4.7163158857e+00 2.2645097782e-04 2.4508117994e+00 -4.2449305564e+00 2.4508117994e+00 4.2449305564e+00 
249500 4.7163158150e+00 2.2466646541e-04 2.4508071795e+00 -4.2449225545e+00 2.4508071795e+00 4.2449225545e+00 
249600 4.7163157451e+00 2.2289584723e-04 2.4508025960e+00 -4.2449146156e+00 2.4508025960e+00 4.2449146156e+00 
249700 4.7163156759e+00 2.2113901974e-04 2.4507980486e+00 -4.2449067393e+00 2.4507980486e+00 4.2449067393e+00 
249800 4.7163156076e+00 2.1939588006e-04 2.4507935370e+00 -4.2448989250e+00 2.4507935370e+00 4.2448989250e+00 
249900 4.7163155401e+00 2.1766632603e-04 2.4507890610e+00 -4.2448911723e+00 2.4507890610e+00 4.2448911723e+00 
250000 4.7163154733e+00 2.1595025617e-04 2.4507846203e+00 -4.2448834807e+00 2.4507846203e+00 4.2448834807e+00 
250100 4.7163154073e+00 2.1424756965e-04 2.4507802145e+00 -4.2448758498e+00 2.4507802145e+00 4.2448758498e+00 
250200 4.7163153420e+00 2.1255816634e-04 2.4507758435e+00 -4.2448682790e+00 2.4507758435e+00 4.2448682790e+00 
250300 4.7163152775e+00 2.1088194679e-04 2.4507715070e+00 -4.2448607678e+00 2.4507715070e+00 4.2448607678e+00 
250400 4.7163152137e+00 2.0921881220e-04 2.4507672046e+00 -4.2448533159e+00 2.4507672046e+00 4.2448533159e+00 
250500 4.7163151507e+00 2.0756866444e-04 2.4507629362e+00 -4.2448459228e+00 2.4507629362e+00 4.2448459228e+00 
250600 4.7163150884e+00 2.0593140607e-04 2.4507587014e+00 -4.2448385879e+00 2.4507587014e+00 4.2448385879e+00 
250700 4.7163150267e+00 2.0430694026e-04 2.4507545000e+00 -4.2448313109e+00 2.4507545000e+00 4.2448313109e+00 
250800 4.7163149658e+00 2.0269517089e-04 2.4507503318e+00 -4.2448240913e+00 2.4507503318e+00 4.2448240913e+00 
250900 4.7163149056e+00 2.0109600245e-04 2.4507461964e+00 -4.2448169287e+00 2.4507461964e+00 4.2448169287e+00 
251000 4.7163148461e+00 1.9950934010e-04 2.4507420937e+00 -4.2448098225e+00 2.4507420937e+00 4.2448098225e+00 
251100 4.7163147872e+00 1.9793508965e-04 2.4507380233e+00 -4.2448027724e+00 2.4507380233e+00 4.2448027724e+00 
251200 4.7163147290e+00 1.9637315754e-04 2.4507339850e+00 -4.2447957779e+00 2.4507339850e+00 4.2447957779e+00 
251300 4.7163146715e+00 1.9482345087e-04 2.4507299786e+00 -4.2447888386e+00 2.4507299786e+00 4.2447888386e+00 
251400 4.7163146147e+00 1.9328587735e-04 2.4507260038e+00 -4.2447819540e+00 2.4507260038e+00 4.2447819540e+00 
251500 4.7163145585e+00 1.9176034534e-04 2.4507220604e+00 -4.2447751238e+00 2.4507220604e+00 4.2447751238e+00 
251600 4.7163145029e+00 1.9024676382e-04 2.4507181480e+00 -4.2447683474e+00 2.4507181480e+00 4.2447683474e+00 
251700 4.7163144480e+00 1.8874504241e-04 2.4507142666e+00 -4.2447616246e+00 2.4507142666e+00 4.2447616246e+00 
251800 4.7163143937e+00 1.8725509134e-04 2.4507104158e+00 -4.2447549547e+00 2.4507104158e+00 4.2447549547e+00 
251900 4.7163143400e+00 1.8577682148e-04 2.4507065953e+00 -4.2447483376e+00 2.4507065953e+00 4.2447483376e+00 
252000 4.7163142869e+00 1.8431014428e-04 2.4507028051e+00 -4.2447417726e+00 2.4507028051e+00 4.2447417726e+00 
252100 4.7163142345e+00 1.8285497183e-04 2.4506990447e+00 -4.2447352595e+00 2.4506990447e+00 4.2447352595e+00 
252200 4.7163141826e+00 1.8141121683e-04 2.4506953141e+00 -4.2447287978e+00 2.4506953141e+00 4.2447287978e+00 
252300 4.7163141314e+00 1.7997879258e-04 2.4506916128e+00 -4.2447223871e+00 2.4506916128e+00 4.2447223871e+00 
252400 4.7163140807e+00 1.7855761299e-04 2.4506879408e+00 -4.2447160270e+00 2.4506879408e+00 4.2447160270e+00 
252500 4.7163140306e+00 1.7714759255e-04 2.4506842978e+00 -4.2447097171e+00 2.4506842978e+00 4.2447097171e+00 
252600 4.7163139811e+00 1.7574864637e-04 2.4506806836e+00 -4.2447034571e+00 2.4506806836e+00 4.2447034571e+00 
252700 4.7163139321e+00 1.7436069013e-04 2.4506770979e+00 -4.2446972465e+00 2.4506770979e+00 4.2446972465e+00 
252800 4.7163138837e+00 1.7298364013e-04 2.4506735405e+00 -4.2446910849e+00 2.4506735405e+00 4.2446910849e+00 
252900 4.7163138359e+00 1.7161741324e-04 2.4506700112e+00 -4.2446849719e+00 2.4506700112e+00 4.2446849719e+00 
253000 4.7163137886e+00 1.7026192690e-04 2.4506665097e+00 -4.2446789073e+00 2.4506665097e+00 4.2446789073e+00 
253100 4.7163137418e+00 1.6891709915e-04 2.4506630359e+00 -4.2446728905e+00 2.4506630359e+00 4.2446728905e+00 
253200 4.7163136956e+00 1.6758284860e-04 2.4506595896e+00 -4.2446669212e+00 2.4506595896e+00 4.2446669212e+00 
253300 4.7163136499e+00 1.6625909444e-04 2.4506561704e+00 -4.2446609991e+00 2.4506561704e+00 4.2446609991e+00 
253400 4.7163136048e+00 1.6494575641e-04 2.4506527783e+00 -4.2446551238e+00 2.4506527783e+00 4.2446551238e+00 
253500 4.7163135601e+00 1.6364275485e-04 2.4506494130e+00 -4.2446492948e+00 2.4506494130e+00 4.2446492948e+00 
253600 4.7163135160e+00 1.6235001063e-04 2.4506460742e+00 -4.2446435119e+00 2.4506460742e+00 4.2446435119e+00 
253700 4.7163134724e+00 1.6106744520e-04 2.4506427618e+00 -4.2446377747e+00 2.4506427618e+00 4.2446377747e+00 
253800 4.7163134293e+00 1.5979498056e-04 2.4506394756e+00 -4.2446320828e+00 2.4506394756e+00 4.2446320828e+00 
253900 4.7163133866e+00 1.5853253928e-04 2.4506362153e+00 -4.2446264358e+00 2.4506362153e+00 4.2446264358e+00 
254000 4.7163133445e+00 1.5728004445e-04 2.4506329808e+00 -4.2446208335e+00 2.4506329808e+00 4.2446208335e+00 
254100 4.7163133028e+00 1.5603741974e-04 2.4506297718e+00 -4.2446152754e+00 2.4506297718e+00 4.2446152754e+00 
254200 4.7163132616e+00 1.5480458933e-04 2.4506265882e+00 -4.2446097612e+00 2.4506265882e+00 4.2446097612e+00 
254300 4.7163132209e+00 1.5358147799e-04 2.4506234298e+00 -4.2446042905e+00 2.4506234298e+00 4.2446042905e+00 
254400 4.7163131807e+00 1.5236801098e-04 2.4506202962e+00 -4.2445988631e+00 2.4506202962e+00 4.2445988631e+00 
254500 4.7163131409e+00 1.5116411411e-04 2.4506171875e+00 -4.2445934786e+00 2.4506171875e+00 4.2445934786e+00 
254600 4.7163131016e+00 1.4996971374e-04 2.4506141033e+00 -4.2445881366e+00 2.4506141033e+00 4.2445881366e+00 
254700 4.7163130627e+00 1.4878473673e-04 2.4506110434e+00 -4.2445828368e+00 2.4506110434e+00 4.2445828368e+00 
254800 4.7163130243e+00 1.4760911049e-04 2.4506080078e+00 -4.2445775789e+00 2.4506080078e+00 4.2445775789e+00 
254900 4.7163129863e+00 1.4644276294e-04 2.4506049961e+00 -4.2445723625e+00 2.4506049961e+00 4.2445723625e+00 
255000 4.7163129488e+00 1.4528562252e-04 2.4506020082e+00 -4.2445671873e+00 2.4506020082e+00 4.2445671873e+00 
255100 4.7163129117e+00 1.4413761819e-04 2.4505990439e+00 -4.2445620530e+00 2.4505990439e+00 4.2445620530e+00 
255200 4.7163128750e+00 1.4299867941e-04 2.4505961030e+00 -4.2445569593e+00 2.4505961030e+00 4.2445569593e+00 
255300 4.7163128387e+00 1.4186873617e-04 2.4505931854e+00 -4.2445519058e+00 2.4505931854e+00 4.2445519058e+00 
255400 4.7163128029e+00 1.4074771895e-04 2.4505902908e+00 -4.2445468923e+00 2.4505902908e+00 4.2445468923e+00 
255500 4.7163127674e+00 1.3963555874e-04 2.4505874191e+00 -4.2445419183e+00 2.4505874191e+00 4.2445419183e+00 
255600 4.7163127324e+00 1.3853218703e-04 2.4505845701e+00 -4.2445369837e+00 2.4505845701e+00 4.2445369837e+00 
255700 4.7163126978e+00 1.3743753581e-04 2.4505817436e+00 -4.2445320880e+00 2.4505817436e+00 4.2445320880e+00 
255800 4.7163126636e+00 1.3635153756e-04 2.4505789394e+00 -4.2445272310e+00 2.4505789394e+00 4.2445272310e+00 
255900 4.7163126297e+00 1.3527412525e-04 2.4505761574e+00 -4.2445224124e+00 2.4505761574e+00 4.2445224124e+00 
256000 4.7163125963e+00 1.3420523235e-04 2.4505733973e+00 -4.2445176319e+00 2.4505733973e+00 4.2445176319e+00 
256100 4.7163125632e+00 1.3314479280e-04 2.4505706591e+00 -4.2445128891e+00 2.4505706591e+00 4.2445128891e+00 
256200 4.7163125306e+00 1.3209274103e-04 2.4505679425e+00 -4.2445081838e+00 2.4505679425e+00 4.2445081838e+00 
256300 4.7163124982e+00 1.3104901194e-04 2.4505652473e+00 -4.2445035157e+00 2.4505652473e+00 4.2445035157e+00 
256400 4.7163124663e+00 1.3001354093e-04 2.4505625735e+00 -4.2444988844e+00 2.4505625735e+00 4.2444988844e+00 
256500 4.7163124348e+00 1.2898626385e-04 2.4505599208e+00 -4.2444942897e+00 2.4505599208e+00 4.2444942897e+00 
256600 4.7163124036e+00 1.2796711702e-04 2.4505572890e+00 -4.2444897314e+00 2.4505572890e+00 4.2444897314e+00 
256700 4.7163123727e+00 1.2695603724e-04 2.4505546780e+00 -4.2444852090e+00 2.4505546780e+00 4.2444852090e+00 
256800 4.7163123422e+00 1.2595296177e-04 2.4505520877e+00 -4.2444807224e+00 2.4505520877e+00 4.2444807224e+00 
256900 4.7163123121e+00 1.2495782834e-04 2.4505495178e+00 -4.2444762712e+00 2.4505495178e+00 4.2444762712e+00 
257000 4.7163122823e+00 1.2397057511e-04 2.4505469682e+00 -4.2444718552e+00 2.4505469682e+00 4.2444718552e+00 
257100 4.7163122529e+00 1.2299114072e-04 2.4505444387e+00 -4.2444674741e+00 2.4505444387e+00 4.2444674741e+00 
257200 4.7163122238e+00 1.2201946426e-04 2.4505419293e+00 -4.2444631276e+00 2.4505419293e+00 4.2444631276e+00 
257300 4.7163121950e+00 1.2105548527e-04 2.4505394396e+00 -4.2444588154e+00 2.4505394396e+00 4.2444588154e+00 
257400 4.7163121665e+00 1.2009914373e-04 2.4505369697e+00 -4.2444545373e+00 2.4505369697e+00 4.2444545373e+00 
257500 4.7163121384e+00 1.1915038006e-04 2.4505345192e+00 -4.2444502929e+00 2.4505345192e+00 4.2444502929e+00 
257600 4.7163121106e+00 1.1820913514e-04 2.4505320881e+00 -4.2444460821e+00 2.4505320881e+00 4.2444460821e+00 
257700 4.7163120832e+00 1.1727535027e-04 2.4505296762e+00 -4.2444419046e+00 2.4505296762e+00 4.2444419046e+00 
257800 4.7163120560e+00 1.1634896719e-04 2.4505272833e+00 -4.2444377600e+00 2.4505272833e+00 4.2444377600e+00 
257900 4.7163120292e+00 1.1542992808e-04 2.4505249094e+00 -4.2444336482e+00 2.4505249094e+00 4.2444336482e+00 
258000 4.7163120027e+00 1.1451817554e-04 2.4505225541e+00 -4.2444295689e+00 2.4505225541e+00 4.2444295689e+00 
258100 4.7163119764e+00 1.1361365260e-04 2.4505202175e+00 -4.2444255218e+00 2.4505202175e+00 4.2444255218e+00 
258200 4.7163119505e+00 1.1271630272e-04 2.4505178994e+00 -4.2444215066e+00 2.4505178994e+00 4.2444215066e+00 
258300 4.7163119249e+00 1.1182606977e-04 2.4505155995e+00 -4.2444175231e+00 2.4505155995e+00 4.2444175231e+00 
258400 4.7163118996e+00 1.1094289805e-04 2.4505133179e+00 -4.2444135711e+00 2.4505133179e+00 4.2444135711e+00 
258500 4.7163118745e+00 1.1006673227e-04 2.4505110542e+00 -4.2444096504e+00 2.4505110542e+00 4.2444096504e+00 
258600 4.7163118498e+00 1.0919751756e-04 2.4505088084e+00 -4.2444057605e+00 2.4505088084e+00 4.2444057605e+00 
258700 4.7163118253e+00 1.0833519943e-04 2.4505065803e+00 -4.2444019014e+00 2.4505065803e+00 4.2444019014e+00 
258800 4.7163118012e+00 1.0747972385e-04 2.4505043699e+00 -4.2443980728e+00 2.4505043699e+00 4.2443980728e+00 
258900 4.7163117773e+00 1.0663103716e-04 2.4505021769e+00 -4.2443942744e+00 2.4505021769e+00 4.2443942744e+00 
259000 4.7163117536e+00 1.0578908610e-04 2.4505000012e+00 -4.2443905060e+00 2.4505000012e+00 4.2443905060e+00 
259100 4.7163117303e+00 1.0495381783e-04 2.4504978426e+00 -4.2443867673e+00 2.4504978426e+00 4.2443867673e+00 
259200 4.7163117072e+00 1.0412517988e-04 2.4504957012e+00 -4.2443830582e+00 2.4504957012e+00 4.2443830582e+00 
259300 4.7163116844e+00 1.0330312020e-04 2.4504935766e+00 -4.2443793783e+00 2.4504935766e+00 4.2443793783e+00 
259400 4.7163116618e+00 1.0248758713e-04 2.4504914688e+00 -4.2443757275e+00 2.4504914688e+00 4.2443757275e+00 
259500 4.7163116396e+00 1.0167852937e-04 2.4504893776e+00 -4.2443721055e+00 2.4504893776e+00 4.2443721055e+00 
259600 4.7163116175e+00 1.0087589604e-04 2.4504873030e+00 -4.2443685120e+00 2.4504873030e+00 4.2443685120e+00 
259700 4.7163115957e+00 1.0007963663e-04 2.4504852447e+00 -4.2443649470e+00 2.4504852447e+00 4.2443649470e+00 
259800 4.7163115742e+00 9.9289701012e-05 2.4504832027e+00 -4.2443614101e+00 2.4504832027e+00 4.2443614101e+00 
259900 4.7163115529e+00 9.8506039430e-05 2.4504811767e+00 -4.2443579011e+00 2.4504811767e+00 4.2443579011e+00 
260000 4.7163115319e+00 9.7728602515e-05 2.4504791668e+00 -4.2443544198e+00 2.4504791668e+00 4.2443544198e+00 
260100 4.7163115111e+00 9.6957341263e-05 2.4504771727e+00 -4.2443509660e+00 2.4504771727e+00 4.2443509660e+00 
260200 4.7163114906e+00 9.6192207047e-05 2.4504751944e+00 -4.2443475394e+00 2.4504751944e+00 4.2443475394e+00 
260300 4.7163114703e+00 9.5433151605e-05 2.4504732317e+00 -4.2443441398e+00 2.4504732317e+00 4.2443441398e+00 
260400 4.7163114502e+00 9.4680127042e-05 2.4504712844e+00 -4.2443407671e+00 2.4504712844e+00 4.2443407671e+00 
260500 4.7163114303e+00 9.3933085825e-05 2.4504693526e+00 -4.2443374210e+00 2.4504693526e+00 4.2443374210e+00 
260600 4.7163114107e+00 9.3191980784e-05 2.4504674359e+00 -4.2443341013e+00 2.4504674359e+00 4.2443341013e+00 
260700 4.7163113913e+00 9.2456765105e-05 2.4504655344e+00 -4.2443308078e+00 2.4504655344e+00 4.2443308078e+00 
260800 4.7163113722e+00 9.1727392331e-05 2.4504636479e+00 -4.2443275402e+00 2.4504636479e+00 4.2443275402e+00 
260900 4.7163113532e+00 9.1003816360e-05 2.4504617763e+00 -4.2443242985e+00 2.4504617763e+00 4.2443242985e+00 
261000 4.7163113345e+00 9.0285991437e-05 2.4504599194e+00 -4.2443210823e+00 2.4504599194e+00 4.2443210823e+00 
261100 4.7163113160e+00 8.9573872162e-05 2.4504580772e+00 -4.2443178915e+00 2.4504580772e+00 4.2443178915e+00 
261200 4.7163112977e+00 8.8867413473e-05 2.4504562495e+00 -4.2443147258e+00 2.4504562495e+00 4.2443147258e+00 
261300 4.7163112796e+00 8.8166570660e-05 2.4504544362e+00 -4.2443115851e+00 2.4504544362e+00 4.2443115851e+00 
261400 4.7163112617e+00 8.7471299348e-05 2.4504526372e+00 -4.2443084692e+00 2.4504526372e+00 4.2443084692e+00 
261500 4.7163112441e+00 8.6781555503e-05 2.4504508524e+00 -4.2443053778e+00 2.4504508524e+00 4.2443053778e+00 
261600 4.7163112266e+00 8.6097295430e-05 2.4504490817e+00 -4.2443023108e+00 2.4504490817e+00 4.2443023108e+00 
261700 4.7163112094e+00 8.5418475765e-05 2.4504473249e+00 -4.2442992680e+00 2.4504473249e+00 4.2442992680e+00 
261800 4.7163111923e+00 8.4745053478e-05 2.4504455820e+00 -4.2442962492e+00 2.4504455820e+00 4.2442962492e+00 
261900 4.7163111754e+00 8.4076985868e-05 2.4504438528e+00 -4.2442932542e+00 2.4504438528e+00 4.2442932542e+00 
262000 4.7163111588e+00 8.3414230561e-05 2.4504421373e+00 -4.2442902828e+00 2.4504421373e+00 4.2442902828e+00 
262100 4.7163111423e+00 8.2756745508e-05 2.4504404352e+00 -4.2442873348e+00 2.4504404352e+00 4.2442873348e+00 
262200 4.7163111260e+00 8.2104488984e-05 2.4504387466e+00 -4.2442844100e+00 2.4504387466e+00 4.2442844100e+00 
262300 4.7163111099e+00 8.1457419584e-05 2.4504370713e+00 -4.2442815083e+00 2.4504370713e+00 4.2442815083e+00 
262400 4.7163110940e+00 8.0815496218e-05 2.4504354092e+00 -4.2442786295e+00 2.4504354092e+00 4.2442786295e+00 
262500 4.7163110783e+00 8.0178678116e-05 2.4504337602e+00 -4.2442757733e+00 2.4504337602e+00 4.2442757733e+00 
262600 4.7163110627e+00 7.9546924822e-05 2.4504321242e+00 -4.2442729397e+00 2.4504321242e+00 4.2442729397e+00 
262700 4.7163110474e+00 7.8920196188e-05 2.4504305011e+00 -4.2442701283e+00 2.4504305011e+00 4.2442701283e+00 
262800 4.7163110322e+00 7.8298452377e-05 2.4504288908e+00 -4.2442673391e+00 2.4504288908e+00 4.2442673391e+00 
262900 4.7163110172e+00 7.7681653859e-05 2.4504272931e+00 -4.2442645719e+00 2.4504272931e+00 4.2442645719e+00 
263000 4.7163110023e+00 7.7069761410e-05 2.4504257081e+00 -4.2442618265e+00 2.4504257081e+00 4.2442618265e+00 
263100 4.7163109877e+00 7.6462736108e-05 2.4504241355e+00 -4.2442591027e+00 2.4504241355e+00 4.2442591027e+00 
263200 4.7163109732e+00 7.5860539330e-05 2.4504225753e+00 -4.2442564004e+00 2.4504225753e+00 4.2442564004e+00 
263300 4.7163109589e+00 7.5263132754e-05 2.4504210274e+00 -4.2442537194e+00 2.4504210274e+00 4.2442537194e+00 
263400 4.7163109447e+00 7.4670478351e-05 2.4504194917e+00 -4.2442510594e+00 2.4504194917e+00 4.2442510594e+00 
263500 4.7163109307e+00 7.4082538391e-05 2.4504179680e+00 -4.2442484204e+00 2.4504179680e+00 4.2442484204e+00 
263600 4.7163109169e+00 7.3499275431e-05 2.4504164564e+00 -4.2442458022e+00 2.4504164564e+00 4.2442458022e+00 
263700 4.7163109032e+00 7.2920652321e-05 2.4504149567e+00 -4.2442432046e+00 2.4504149567e+00 4.2442432046e+00 
263800 4.7163108897e+00 7.2346632197e-05 2.4504134687e+00 -4.2442406274e+00 2.4504134687e+00 4.2442406274e+00 
263900 4.7163108763e+00 7.1777178483e-05 2.4504119925e+00 -4.2442380705e+00 2.4504119925e+00 4.2442380705e+00 
264000 4.7163108631e+00 7.1212254884e-05 2.4504105279e+00 -4.2442355338e+00 2.4504105279e+00 4.2442355338e+00 
264100 4.7163108501e+00 7.0651825389e-05 2.4504090749e+00 -4.2442330170e+00 2.4504090749e+00 4.2442330170e+00 
264200 4.7163108372e+00 7.0606976447e-05 2.4504090749e+00 -4.2442330170e+00 2.4504090749e+00 4.2442330170e+00 
264300 4.7163108246e+00 7.0564779525e-05 2.4504090749e+00 -4.2442330170e+00 2.4504090749e+00 4.2442330170e+00 
264400 4.7163108121e+00 7.0525130642e-05 2.4504090749e+00 -4.2442330170e+00 2.4504090749e+00 4.2442330170e+00 
264500 4.7163107997e+00 7.0487929398e-05 2.4504090749e+00 -4.2442330170e+00 2.4504090749e+00 4.2442330170e+00 
264600 4.7163107874e+00 7.0453078830e-05 2.4504090749e+00 -4.2442330170e+00 2.4504090749e+00 4.2442330170e+00 
264700 4.7163107753e+00 7.0420485289e-05 2.4504090749e+00 -4.2442330170e+00 2.4504090749e+00 4.2442330170e+00 
264800 4.7163107634e+00 7.0390058322e-05 2.4504090749e+00 -4.2442330170e+00 2.4504090749e+00 4.2442330170e+00 
264900 4.7163107516e+00 7.0361710555e-05 2.4504090749e+00 -4.2442330170e+00 2.4504090749e+00 4.2442330170e+00 
265000 4.7163107399e+00 7.0335357588e-05 2.4504090749e+00 -4.2442330170e+00 2.4504090749e+00 4.2442330170e+00 
265100 4.7163107284e+00 7.0310917892e-05 2.4504090749e+00 -4.2442330170e+00 2.4504090749e+00 4.2442330170e+00 
265200 4.7163107170e+00 7.0288312717e-05 2.4504090749e+00 -4.2442330170e+00 2.4504090749e+00 4.2442330170e+00 
265300 4.7163107057e+00 7.0267465992e-05 2.4504090749e+00 -4.2442330170e+00 2.4504090749e+00 4.2442330170e+00 
265400 4.7163106945e+00 7.0248304246e-05 2.4504090749e+00 -4.2442330170e+00 2.4504090749e+00 4.2442330170e+00 
265500 4.7163106835e+00 7.0230756516e-05 2.4504090749e+00 -4.2442330170e+00 2.4504090749e+00 4.2442330170e+00 
265600 4.7163106726e+00 7.0214754272e-05 2.4504090749e+00 -4.2442330170e+00 2.4504090749e+00 4.2442330170e+00 
265700 4.7163106619e+00 7.0200231335e-05 2.4504090749e+00 -4.2442330170e+00 2.4504090749e+00 4.2442330170e+00 
265800 4.7163106512e+00 7.0187123808e-05 2.4504090749e+00 -4.2442330170e+00 2.4504090749e+00 4.2442330170e+00 
265900 4.7163106407e+00 7.0175369999e-05 2.4504090749e+00 -4.2442330170e+00 2.4504090749e+00 4.2442330170e+00 
266000 4.7163106303e+00 7.0164910354e-05 2.4504090749e+00 -4.2442330170e+00 2.4504090749e+00 4.2442330170e+00 
266100 4.7163106200e+00 7.0155687391e-05 2.4504090749e+00 -4.2442330170e+00 2.4504090749e+00 4.2442330170e+00 
266200 4.7163106099e+00 7.0147645637e-05 2.4504090749e+00 -4.2442330170e+00 2.4504090749e+00 4.2442330170e+00 
266300 4.7163105998e+00 7.0140731564e-05 2.4504090749e+00 -4.2442330170e+00 2.4504090749e+00 4.2442330170e+00 
266400 4.7163105899e+00 7.0134893526e-05 2.4504090749e+00 -4.2442330170e+00 2.4504090749e+00 4.2442330170e+00 
266500 4.7163105801e+00 7.0130081710e-05 2.4504090749e+00 -4.2442330170e+00 2.4504090749e+00 4.2442330170e+00 
266600 4.7163105704e+00 7.0126248068e-05 2.4504090749e+00 -4.2442330170e+00 2.4504090749e+00 4.2442330170e+00 
266700 4.7163105608e+00 7.0123346272e-05 2.4504090749e+00 -4.2442330170e+00 2.4504090749e+00 4.2442330170e+00 
266800 4.7163105514e+00 7.0121331657e-05 2.4504090749e+00 -4.2442330170e+00 2.4504090749e+00 4.2442330170e+00 
266900 4.7163105420e+00 7.0120161169e-05 2.4504090749e+00 -4.2442330170e+00 2.4504090749e+00 4.2442330170e+00 
267000 4.7163105328e+00 7.0119793319e-05 2.4504090749e+00 -4.2442330170e+00 2.4504090749e+00 4.2442330170e+00 
267100 4.7163105236e+00 7.0120188128e-05 2.4504090749e+00 -4.2442330170e+00 2.4504090749e+00 4.2442330170e+00 
267200 4.7163105146e+00 7.0121307088e-05 2.4504090749e+00 -4.2442330170e+00 2.4504090749e+00 4.2442330170e+00 
267300 4.7163105056e+00 7.0123113111e-05 2.4504090749e+00 -4.2442330170e+00 2.4504090749e+00 4.2442330170e+00 
267400 4.7163104968e+00 7.0125570487e-05 2.4504090749e+00 -4.2442330170e+00 2.4504090749e+00 4.2442330170e+00 
267500 4.7163104881e+00 7.0128644838e-05 2.4504090749e+00 -4.2442330170e+00 2.4504090749e+00 4.2442330170e+00 
267600 4.7163104795e+00 7.0132303083e-05 2.4504090749e+00 -4.2442330170e+00 2.4504090749e+00 4.2442330170e+00 
267700 4.7163104709e+00 7.0136513387e-05 2.4504090749e+00 -4.2442330170e+00 2.4504090749e+00 4.2442330170e+00 
267800 4.7163104625e+00 7.0141245133e-05 2.4504090749e+00 -4.2442330170e+00 2.4504090749e+00 4.2442330170e+00 
267900 4.7163104542e+00 7.0146468873e-05 2.4504090749e+00 -4.2442330170e+00 2.4504090749e+00 4.2442330170e+00 
268000 4.7163104459e+00 7.0152156298e-05 2.4504090749e+00 -4.2442330170e+00 2.4504090749e+00 4.2442330170e+00 
268100 4.7163104378e+00 7.0158280198e-05 2.4504090749e+00 -4.2442330170e+00 2.4504090749e+00 4.2442330170e+00 
268200 4.7163104298e+00 7.0164814429e-05 2.4504090749e+00 -4.2442330170e+00 2.4504090749e+00 4.2442330170e+00 
268300 4.7163104218e+00 7.0171733875e-05 2.4504090749e+00 -4.2442330170e+00 2.4504090749e+00 4.2442330170e+00 
268400 4.7163104140e+00 7.0179014418e-05 2.4504090749e+00 -4.2442330170e+00 2.4504090749e+00 4.2442330170e+00 
268500 4.7163104062e+00 7.0186632906e-05 2.4504090749e+00 -4.2442330170e+00 2.4504090749e+00 4.2442330170e+00 
268600 4.7163103985e+00 7.0194567117e-05 2.4504090749e+00 -4.2442330170e+00 2.4504090749e+00 4.2442330170e+00 
268700 4.7163103909e+00 7.0202795733e-05 2.4504090749e+00 -4.2442330170e+00 2.4504090749e+00 4.2442330170e+00 
268800 4.7163103834e+00 7.0211298308e-05 2.4504090749e+00 -4.2442330170e+00 2.4504090749e+00 4.2442330170e+00 
268900 4.7163103760e+00 7.0220055237e-05 2.4504090749e+00 -4.2442330170e+00 2.4504090749e+00 4.2442330170e+00 
269000 4.7163103687e+00 7.0229047733e-05 2.4504090749e+00 -4.2442330170e+00 2.4504090749e+00 4.2442330170e+00 
269100 4.7163103615e+00 7.0238257795e-05 2.4504090749e+00 -4.2442330170e+00 2.4504090749e+00 4.2442330170e+00 
269200 4.7163103543e+00 7.0247668182e-05 2.4504090749e+00 -4.2442330170e+00 2.4504090749e+00 4.2442330170e+00 
269300 4.7163103472e+00 7.0257262391e-05 2.4504090749e+00 -4.2442330170e+00 2.4504090749e+00 4.2442330170e+00 
269400 4.7163103402e+00 7.0267024626e-05 2.4504090749e+00 -4.2442330170e+00 2.4504090749e+00 4.2442330170e+00 
269500 4.7163103333e+00 7.0276939777e-05 2.4504090749e+00 -4.2442330170e+00 2.4504090749e+00 4.2442330170e+00 
269600 4.7163103265e+00 7.0286993397e-05 2.4504090749e+00 -4.2442330170e+00 2.4504090749e+00 4.2442330170e+00 
269700 4.7163103197e+00 7.0297171676e-05 2.4504090749e+00 -4.2442330170e+00 2.4504090749e+00 4.2442330170e+00 
269800 4.7163103131e+00 7.0307461422e-05 2.4504090749e+00 -4.2442330170e+00 2.4504090749e+00 4.2442330170e+00 
269900 4.7163103065e+00 7.0317850038e-05 2.4504090749e+00 -4.2442330170e+00 2.4504090749e+00 4.2442330170e+00 
270000 4.7163103000e+00 7.0328325498e-05 2.4504090749e+00 -4.2442330170e+00 2.4504090749e+00 4.2442330170e+00 
270100 4.7163102935e+00 7.0338876331e-05 2.4504090749e+00 -4.2442330170e+00 2.4504090749e+00 4.2442330170e+00 
270200 4.7163102871e+00 7.0349491600e-05 2.4504090749e+00 -4.2442330170e+00 2.4504090749e+00 4.2442330170e+00 
270300 4.7163102809e+00 7.0360160882e-05 2.4504090749e+00 -4.2442330170e+00 2.4504090749e+00 4.2442330170e+00 
270400 4.7163102746e+00 7.0370874247e-05 2.4504090749e+00 -4.2442330170e+00 2.4504090749e+00 4.2442330170e+00 
270500 4.7163102685e+00 7.0381622246e-05 2.4504090749e+00 -4.2442330170e+00 2.4504090749e+00 4.2442330170e+00 
270600 4.7163102624e+00 7.0392395888e-05 2.4504090749e+00 -4.2442330170e+00 2.4504090749e+00 4.2442330170e+00 
270700 4.7163102564e+00 7.0403186624e-05 2.4504090749e+00 -4.2442330170e+00 2.4504090749e+00 4.2442330170e+00 
270800 4.7163102505e+00 7.0413986333e-05 2.4504090749e+00 -4.2442330170e+00 2.4504090749e+00 4.2442330170e+00 
270900 4.7163102446e+00 7.0424787306e-05 2.4504090749e+00 -4.2442330170e+00 2.4504090749e+00 4.2442330170e+00 
271000 4.7163102388e+00 7.0435582225e-05 2.4504090749e+00 -4.2442330170e+00 2.4504090749e+00 4.2442330170e+00 
271100 4.7163102331e+00 7.0446364154e-05 2.4504090749e+00 -4.2442330170e+00 2.4504090749e+00 4.2442330170e+00 
271200 4.7163102274e+00 7.0457126524e-05 2.4504090749e+00 -4.2442330170e+00 2.4504090749e+00 4.2442330170e+00 
271300 4.7163102218e+00 7.0467863116e-05 2.4504090749e+00 -4.2442330170e+00 2.4504090749e+00 4.2442330170e+00 
271400 4.7163102163e+00 7.0478568050e-05 2.4504090749e+00 -4.2442330170e+00 2.4504090749e+00 4.2442330170e+00 
271500 4.7163102108e+00 7.0489235768e-05 2.4504090749e+00 -4.2442330170e+00 2.4504090749e+00 4.2442330170e+00 
271600 4.7163102054e+00 7.0499861028e-05 2.4504090749e+00 -4.2442330170e+00 2.4504090749e+00 4.2442330170e+00 
271700 4.7163102000e+00 7.0510438885e-05 2.4504090749e+00 -4.2442330170e+00 2.4504090749e+00 4.2442330170e+00 
271800 4.7163101948e+00 7.0520964682e-05 2.4504090749e+00 -4.2442330170e+00 2.4504090749e+00 4.2442330170e+00 
271900 4.7163101895e+00 7.0531434041e-05 2.4504090749e+00 -4.2442330170e+00 2.4504090749e+00 4.2442330170e+00 
272000 4.7163101844e+00 7.0541842846e-05 2.4504090749e+00 -4.2442330170e+00 2.4504090749e+00 4.2442330170e+00 
272100 4.7163101793e+00 7.0552187237e-05 2.4504090749e+00 -4.2442330170e+00 2.4504090749e+00 4.2442330170e+00 
272200 4.7163101742e+00 7.0562463597e-05 2.4504090749e+00 -4.2442330170e+00 2.4504090749e+00 4.2442330170e+00 
272300 4.7163101693e+00 7.0572668546e-05 2.4504090749e+00 -4.2442330170e+00 2.4504090749e+00 4.2442330170e+00 
272400 4.7163101643e+00 7.0582798923e-05 2.4504090749e+00 -4.2442330170e+00 2.4504090749e+00 4.2442330170e+00 
272500 4.7163101595e+00 7.0592851788e-05 2.4504090749e+00 -4.2442330170e+00 2.4504090749e+00 4.2442330170e+00 
272600 4.7163101547e+00 7.0602824402e-05 2.4504090749e+00 -4.2442330170e+00 2.4504090749e+00 4.2442330170e+00 
272700 4.7163101499e+00 7.0612714226e-05 2.4504090749e+00 -4.2442330170e+00 2.4504090749e+00 4.2442330170e+00 
272800 4.7163101452e+00 7.0622518907e-05 2.4504090749e+00 -4.2442330170e+00 2.4504090749e+00 4.2442330170e+00 
272900 4.7163101406e+00 7.0632236276e-05 2.4504090749e+00 -4.2442330170e+00 2.4504090749e+00 4.2442330170e+00 
273000 4.7163101360e+00 7.0641864334e-05 2.4504090749e+00 -4.2442330170e+00 2.4504090749e+00 4.2442330170e+00 
273100 4.7163101314e+00 7.0651401247e-05 2.4504090749e+00 -4.2442330170e+00 2.4504090749e+00 4.2442330170e+00 
273200 4.7163101270e+00 7.0660845341e-05 2.4504090749e+00 -4.2442330170e+00 2.4504090749e+00 4.2442330170e+00 
273300 4.7163101225e+00 7.0670195091e-05 2.4504090749e+00 -4.2442330170e+00 2.4504090749e+00 4.2442330170e+00 
273400 4.7163101181e+00 7.0679449116e-05 2.4504090749e+00 -4.2442330170e+00 2.4504090749e+00 4.2442330170e+00 
273500 4.7163101138e+00 7.0688606173e-05 2.4504090749e+00 -4.2442330170e+00 2.4504090749e+00 4.2442330170e+00 
273600 4.7163101095e+00 7.0697665150e-05 2.4504090749e+00 -4.2442330170e+00 2.4504090749e+00 4.2442330170e+00 
273700 4.7163101053e+00 7.0706625058e-05 2.4504090749e+00 -4.2442330170e+00 2.4504090749e+00 4.2442330170e+00 
273800 4.7163101011e+00 7.0715485031e-05 2.4504090749e+00 -4.2442330170e+00 2.4504090749e+00 4.2442330170e+00 
273900 4.7163100969e+00 7.0212659243e-05 2.4504076319e+00 -4.2442305178e+00 2.4504076319e+00 4.2442305178e+00 
274000 4.7163100928e+00 7.0219064370e-05 2.4504076319e+00 -4.2442305178e+00 2.4504076319e+00 4.2442305178e+00 
274100 4.7163100888e+00 7.0225450749e-05 2.4504076319e+00 -4.2442305178e+00 2.4504076319e+00 4.2442305178e+00 
274200 4.7163100848e+00 7.0231815175e-05 2.4504076319e+00 -4.2442305178e+00 2.4504076319e+00 4.2442305178e+00 
274300 4.7163100809e+00 7.0238154642e-05 2.4504076319e+00 -4.2442305178e+00 2.4504076319e+00 4.2442305178e+00 
274400 4.7163100770e+00 7.0244466330e-05 2.4504076319e+00 -4.2442305178e+00 2.4504076319e+00 4.2442305178e+00 
274500 4.7163100731e+00 7.0250747596e-05 2.4504076319e+00 -4.2442305178e+00 2.4504076319e+00 4.2442305178e+00 
274600 4.7163100693e+00 7.0256995966e-05 2.4504076319e+00 -4.2442305178e+00 2.4504076319e+00 4.2442305178e+00 
274700 4.7163100655e+00 7.0263209121e-05 2.4504076319e+00 -4.2442305178e+00 2.4504076319e+00 4.2442305178e+00 
274800 4.7163100618e+00 7.0269384892e-05 2.4504076319e+00 -4.2442305178e+00 2.4504076319e+00 4.2442305178e+00 
274900 4.7163100581e+00 7.0275521254e-05 2.4504076319e+00 -4.2442305178e+00 2.4504076319e+00 4.2442305178e+00 
275000 4.7163100545e+00 7.0281616313e-05 2.4504076319e+00 -4.2442305178e+00 2.4504076319e+00 4.2442305178e+00 
275100 4.7163100509e+00 7.0287668304e-05 2.4504076319e+00 -4.2442305178e+00 2.4504076319e+00 4.2442305178e+00 
275200 4.7163100474e+00 7.0293675581e-05 2.4504076319e+00 -4.2442305178e+00 2.4504076319e+00 4.2442305178e+00 
275300 4.7163100439e+00 7.0299636617e-05 2.4504076319e+00 -4.2442305178e+00 2.4504076319e+00 4.2442305178e+00 
275400 4.7163100404e+00 7.0305549989e-05 2.4504076319e+00 -4.2442305178e+00 2.4504076319e+00 4.2442305178e+00 
275500 4.7163100370e+00 7.0311414381e-05 2.4504076319e+00 -4.2442305178e+00 2.4504076319e+00 4.2442305178e+00 
275600 4.7163100336e+00 7.0317228573e-05 2.4504076319e+00 -4.2442305178e+00 2.4504076319e+00 4.2442305178e+00 
275700 4.7163100302e+00 7.0322991442e-05 2.4504076319e+00 -4.2442305178e+00 2.4504076319e+00 4.2442305178e+00 
275800 4.7163100269e+00 7.0328701952e-05 2.4504076319e+00 -4.2442305178e+00 2.4504076319e+00 4.2442305178e+00 
275900 4.7163100237e+00 7.0334359153e-05 2.4504076319e+00 -4.2442305178e+00 2.4504076319e+00 4.2442305178e+00 
276000 4.7163100204e+00 7.0339962175e-05 2.4504076319e+00 -4.2442305178e+00 2.4504076319e+00 4.2442305178e+00 
276100 4.7163100172e+00 7.0345510226e-05 2.4504076319e+00 -4.2442305178e+00 2.4504076319e+00 4.2442305178e+00 
276200 4.7163100141e+00 7.0351002587e-05 2.4504076319e+00 -4.2442305178e+00 2.4504076319e+00 4.2442305178e+00 
276300 4.7163100110e+00 7.0356438609e-05 2.4504076319e+00 -4.2442305178e+00 2.4504076319e+00 4.2442305178e+00 
276400 4.7163100079e+00 7.0361817709e-05 2.4504076319e+00 -4.2442305178e+00 2.4504076319e+00 4.2442305178e+00 
276500 4.7163100048e+00 7.0367139368e-05 2.4504076319e+00 -4.2442305178e+00 2.4504076319e+00 4.2442305178e+00 
276600 4.7163100018e+00 7.0372403128e-05 2.4504076319e+00 -4.2442305178e+00 2.4504076319e+00 4.2442305178e+00 
276700 4.7163099988e+00 7.0377608588e-05 2.4504076319e+00 -4.2442305178e+00 2.4504076319e+00 4.2442305178e+00 
276800 4.7163099959e+00 7.0382755402e-05 2.4504076319e+00 -4.2442305178e+00 2.4504076319e+00 4.2442305178e+00 
276900 4.7163099930e+00 7.0387843274e-05 2.4504076319e+00 -4.2442305178e+00 2.4504076319e+00 4.2442305178e+00 
277000 4.7163099901e+00 7.0392871962e-05 2.4504076319e+00 -4.2442305178e+00 2.4504076319e+00 4.2442305178e+00 
277100 4.7163099873e+00 7.0397841267e-05 2.4504076319e+00 -4.2442305178e+00 2.4504076319e+00 4.2442305178e+00 
277200 4.7163099845e+00 7.0402751038e-05 2.4504076319e+00 -4.2442305178e+00 2.4504076319e+00 4.2442305178e+00 
277300 4.7163099817e+00 7.0407601166e-05 2.4504076319e+00 -4.2442305178e+00 2.4504076319e+00 4.2442305178e+00 
277400 4.7163099790e+00 7.0412391582e-05 2.4504076319e+00 -4.2442305178e+00 2.4504076319e+00 4.2442305178e+00 
277500 4.7163099763e+00 7.0417122255e-05 2.4504076319e+00 -4.2442305178e+00 2.4504076319e+00 4.2442305178e+00 
277600 4.7163099736e+00 7.0421793194e-05 2.4504076319e+00 -4.2442305178e+00 2.4504076319e+00 4.2442305178e+00 
277700 4.7163099709e+00 7.0426404440e-05 2.4504076319e+00 -4.2442305178e+00 2.4504076319e+00 4.2442305178e+00 
277800 4.7163099683e+00 7.0430956068e-05 2.4504076319e+00 -4.2442305178e+00 2.4504076319e+00 4.2442305178e+00 
277900 4.7163099657e+00 7.0435448183e-05 2.4504076319e+00 -4.2442305178e+00 2.4504076319e+00 4.2442305178e+00 
278000 4.7163099632e+00 7.0439880924e-05 2.4504076319e+00 -4.2442305178e+00 2.4504076319e+00 4.2442305178e+00 
278100 4.7163099606e+00 7.0444254453e-05 2.4504076319e+00 -4.2442305178e+00 2.4504076319e+00 4.2442305178e+00 
278200 4.7163099581e+00 7.0448568963e-05 2.4504076319e+00 -4.2442305178e+00 2.4504076319e+00 4.2442305178e+00 
278300 4.7163099557e+00 7.0452824670e-05 2.4504076319e+00 -4.2442305178e+00 2.4504076319e+00 4.2442305178e+00 
278400 4.7163099532e+00 7.0457021814e-05 2.4504076319e+00 -4.2442305178e+00 2.4504076319e+00 4.2442305178e+00 
278500 4.7163099508e+00 7.0461160659e-05 2.4504076319e+00 -4.2442305178e+00 2.4504076319e+00 4.2442305178e+00 
278600 4.7163099484e+00 7.0465241490e-05 2.4504076319e+00 -4.2442305178e+00 2.4504076319e+00 4.2442305178e+00 
278700 4.7163099461e+00 7.0469264610e-05 2.4504076319e+00 -4.2442305178e+00 2.4504076319e+00 4.2442305178e+00 
278800 4.7163099438e+00 7.0473230345e-05 2.4504076319e+00 -4.2442305178e+00 2.4504076319e+00 4.2442305178e+00 
278900 4.7163099415e+00 7.0477139034e-05 2.4504076319e+00 -4.2442305178e+00 2.4504076319e+00 4.2442305178e+00 
279000 4.7163099392e+00 7.0480991037e-05 2.4504076319e+00 -4.2442305178e+00 2.4504076319e+00 4.2442305178e+00 
279100 4.7163099369e+00 7.0484786728e-05 2.4504076319e+00 -4.2442305178e+00 2.4504076319e+00 4.2442305178e+00 
279200 4.7163099347e+00 7.0488526494e-05 2.4504076319e+00 -4.2442305178e+00 2.4504076319e+00 4.2442305178e+00 
279300 4.7163099325e+00 7.0492210740e-05 2.4504076319e+00 -4.2442305178e+00 2.4504076319e+00 4.2442305178e+00 
279400 4.7163099304e+00 7.0495839879e-05 2.4504076319e+00 -4.2442305178e+00 2.4504076319e+00 4.2442305178e+00 
279500 4.7163099282e+00 7.0499414339e-05 2.4504076319e+00 -4.2442305178e+00 2.4504076319e+00 4.2442305178e+00 
279600 4.7163099261e+00 7.0502934559e-05 2.4504076319e+00 -4.2442305178e+00 2.4504076319e+00 4.2442305178e+00 
279700 4.7163099240e+00 7.0506400988e-05 2.4504076319e+00 -4.2442305178e+00 2.4504076319e+00 4.2442305178e+00 
279800 4.7163099219e+00 7.0509814084e-05 2.4504076319e+00 -4.2442305178e+00 2.4504076319e+00 4.2442305178e+00 
279900 4.7163099199e+00 7.0513174315e-05 2.4504076319e+00 -4.2442305178e+00 2.4504076319e+00 4.2442305178e+00 
280000 4.7163099179e+00 7.0516482155e-05 2.4504076319e+00 -4.2442305178e+00 2.4504076319e+00 4.2442305178e+00 
280100 4.7163099159e+00 7.0519738088e-05 2.4504076319e+00 -4.2442305178e+00 2.4504076319e+00 4.2442305178e+00 
280200 4.7163099139e+00 7.0522942603e-05 2.4504076319e+00 -4.2442305178e+00 2.4504076319e+00 4.2442305178e+00 
280300 4.7163099119e+00 7.0526096196e-05 2.4504076319e+00 -4.2442305178e+00 2.4504076319e+00 4.2442305178e+00 
280400 4.7163099100e+00 7.0529199369e-05 2.4504076319e+00 -4.2442305178e+00 2.4504076319e+00 4.2442305178e+00 
280500 4.7163099081e+00 7.0532252628e-05 2.4504076319e+00 -4.2442305178e+00 2.4504076319e+00 4.2442305178e+00 
280600 4.7163099062e+00 7.0535256483e-05 2.4504076319e+00 -4.2442305178e+00 2.4504076319e+00 4.2442305178e+00 
280700 4.7163099044e+00 7.0538211451e-05 2.4504076319e+00 -4.2442305178e+00 2.4504076319e+00 4.2442305178e+00 
280800 4.7163099025e+00 7.0541118049e-05 2.4504076319e+00 -4.2442305178e+00 2.4504076319e+00 4.2442305178e+00 
280900 4.7163099007e+00 7.0543976799e-05 2.4504076319e+00 -4.2442305178e+00 2.4504076319e+00 4.2442305178e+00 
281000 4.7163098989e+00 7.0546788224e-05 2.4504076319e+00 -4.2442305178e+00 2.4504076319e+00 4.2442305178e+00 
281100 4.7163098971e+00 7.0549552850e-05 2.4504076319e+00 -4.2442305178e+00 2.4504076319e+00 4.2442305178e+00 
281200 4.7163098954e+00 7.0552271206e-05 2.4504076319e+00 -4.2442305178e+00 2.4504076319e+00 4.2442305178e+00 
281300 4.7163098936e+00 7.0554943819e-05 2.4504076319e+00 -4.2442305178e+00 2.4504076319e+00 4.2442305178e+00 
281400 4.7163098919e+00 7.0557571221e-05 2.4504076319e+00 -4.2442305178e+00 2.4504076319e+00 4.2442305178e+00 
281500 4.7163098902e+00 7.0560153941e-05 2.4504076319e+00 -4.2442305178e+00 2.4504076319e+00 4.2442305178e+00 
281600 4.7163098885e+00 7.0562692510e-05 2.4504076319e+00 -4.2442305178e+00 2.4504076319e+00 4.2442305178e+00 
281700 4.7163098869e+00 7.0565187460e-05 2.4504076319e+00 -4.2442305178e+00 2.4504076319e+00 4.2442305178e+00 
281800 4.7163098852e+00 7.0567639319e-05 2.4504076319e+00 -4.2442305178e+00 2.4504076319e+00 4.2442305178e+00 
281900 4.7163098836e+00 7.0570048618e-05 2.4504076319e+00 -4.2442305178e+00 2.4504076319e+00 4.2442305178e+00 
282000 4.7163098820e+00 7.0572415885e-05 2.4504076319e+00 -4.2442305178e+00 2.4504076319e+00 4.2442305178e+00 
282100 4.7163098805e+00 7.0574741647e-05 2.4504076319e+00 -4.2442305178e+00 2.4504076319e+00 4.2442305178e+00 
282200 4.7163098789e+00 7.0577026431e-05 2.4504076319e+00 -4.2442305178e+00 2.4504076319e+00 4.2442305178e+00 
282300 4.7163098773e+00 7.0579270761e-05 2.4504076319e+00 -4.2442305178e+00 2.4504076319e+00 4.2442305178e+00 
282400 4.7163098758e+00 7.0581475158e-05 2.4504076319e+00 -4.2442305178e+00 2.4504076319e+00 4.2442305178e+00 
282500 4.7163098743e+00 7.0583640144e-05 2.4504076319e+00 -4.2442305178e+00 2.4504076319e+00 4.2442305178e+00 
282600 4.7163098728e+00 7.0585766235e-05 2.4504076319e+00 -4.2442305178e+00 2.4504076319e+00 4.2442305178e+00 
282700 4.7163098713e+00 7.0587853947e-05 2.4504076319e+00 -4.2442305178e+00 2.4504076319e+00 4.2442305178e+00 
282800 4.7163098699e+00 7.0589903793e-05 2.4504076319e+00 -4.2442305178e+00 2.4504076319e+00 4.2442305178e+00 
282900 4.7163098685e+00 7.0591916281e-05 2.4504076319e+00 -4.2442305178e+00 2.4504076319e+00 4.2442305178e+00 
283000 4.7163098670e+00 7.0593891920e-05 2.4504076319e+00 -4.2442305178e+00 2.4504076319e+00 4.2442305178e+00 
283100 4.7163098656e+00 7.0595831212e-05 2.4504076319e+00 -4.2442305178e+00 2.4504076319e+00 4.2442305178e+00 
283200 4.7163098642e+00 7.0597734658e-05 2.4504076319e+00 -4.2442305178e+00 2.4504076319e+00 4.2442305178e+00 
283300 4.7163098629e+00 7.0599602754e-05 2.4504076319e+00 -4.2442305178e+00 2.4504076319e+00 4.2442305178e+00 
283400 4.7163098615e+00 7.0601435993e-05 2.4504076319e+00 -4.2442305178e+00 2.4504076319e+00 4.2442305178e+00 
283500 4.7163098602e+00 7.0603234866e-05 2.4504076319e+00 -4.2442305178e+00 2.4504076319e+00 4.2442305178e+00 
283600 4.7163098588e+00 7.0604999857e-05 2.4504076319e+00 -4.2442305178e+00 2.4504076319e+00 4.2442305178e+00 
283700 4.7163098575e+00 7.0606731449e-05 2.4504076319e+00 -4.2442305178e+00 2.4504076319e+00 4.2442305178e+00 
283800 4.7163098562e+00 7.0608430119e-05 2.4504076319e+00 -4.2442305178e+00 2.4504076319e+00 4.2442305178e+00 
283900 4.7163098550e+00 7.0610096342e-05 2.4504076319e+00 -4.2442305178e+00 2.4504076319e+00 4.2442305178e+00 
284000 4.7163098537e+00 7.0611730587e-05 2.4504076319e+00 -4.2442305178e+00 2.4504076319e+00 4.2442305178e+00 
284100 4.7163098524e+00 7.0613333320e-05 2.4504076319e+00 -4.2442305178e+00 2.4504076319e+00 4.2442305178e+00 
284200 4.7163098512e+00 7.0614905003e-05 2.4504076319e+00 -4.2442305178e+00 2.4504076319e+00 4.2442305178e+00 
284300 4.7163098500e+00 7.0616446091e-05 2.4504076319e+00 -4.2442305178e+00 2.4504076319e+00 4.2442305178e+00 
284400 4.7163098488e+00 7.0617957038e-05 2.4504076319e+00 -4.2442305178e+00 2.4504076319e+00 4.2442305178e+00 
284500 4.7163098476e+00 7.0619438293e-05 2.4504076319e+00 -4.2442305178e+00 2.4504076319e+00 4.2442305178e+00 
284600 4.7163098464e+00 7.0620890299e-05 2.4504076319e+00 -4.2442305178e+00 2.4504076319e+00 4.2442305178e+00 
284700 4.7163098452e+00 7.0622313495e-05 2.4504076319e+00 -4.2442305178e+00 2.4504076319e+00 4.2442305178e+00 
284800 4.7163098441e+00 7.0623708316e-05 2.4504076319e+00 -4.2442305178e+00 2.4504076319e+00 4.2442305178e+00 
284900 4.7163098430e+00 7.0625075194e-05 2.4504076319e+00 -4.2442305178e+00 2.4504076319e+00 4.2442305178e+00 
285000 4.7163098418e+00 7.0626414552e-05 2.4504076319e+00 -4.2442305178e+00 2.4504076319e+00 4.2442305178e+00 
285100 4.7163098407e+00 7.0627726813e-05 2.4504076319e+00 -4.2442305178e+00 2.4504076319e+00 4.2442305178e+00 
285200 4.7163098396e+00 7.0629012393e-05 2.4504076319e+00 -4.2442305178e+00 2.4504076319e+00 4.2442305178e+00 
285300 4.7163098385e+00 7.0630271703e-05 2.4504076319e+00 -4.2442305178e+00 2.4504076319e+00 4.2442305178e+00 
285400 4.7163098375e+00 7.0631505152e-05 2.4504076319e+00 -4.2442305178e+00 2.4504076319e+00 4.2442305178e+00 
285500 4.7163098364e+00 7.0632713142e-05 2.4504076319e+00 -4.2442305178e+00 2.4504076319e+00 4.2442305178e+00 
285600 4.7163098354e+00 7.0633896071e-05 2.4504076319e+00 -4.2442305178e+00 2.4504076319e+00 4.2442305178e+00 
285700 4.7163098343e+00 7.0635054332e-05 2.4504076319e+00 -4.2442305178e+00 2.4504076319e+00 4.2442305178e+00 
285800 4.7163098333e+00 7.0636188314e-05 2.4504076319e+00 -4.2442305178e+00 2.4504076319e+00 4.2442305178e+00 
285900 4.7163098323e+00 7.0637298401e-05 2.4504076319e+00 -4.2442305178e+00 2.4504076319e+00 4.2442305178e+00 
286000 4.7163098313e+00 7.0638384973e-05 2.4504076319e+00 -4.2442305178e+00 2.4504076319e+00 4.2442305178e+00 
286100 4.7163098303e+00 7.0639448404e-05 2.4504076319e+00 -4.2442305178e+00 2.4504076319e+00 4.2442305178e+00 
286200 4.7163098293e+00 7.0640489065e-05 2.4504076319e+00 -4.2442305178e+00 2.4504076319e+00 4.2442305178e+00 
286300 4.7163098284e+00 7.0641507322e-05 2.4504076319e+00 -4.2442305178e+00 2.4504076319e+00 4.2442305178e+00 
286400 4.7163098274e+00 7.0642503535e-05 2.4504076319e+00 -4.2442305178e+00 2.4504076319e+00 4.2442305178e+00 
286500 4.7163098265e+00 7.0643478062e-05 2.4504076319e+00 -4.2442305178e+00 2.4504076319e+00 4.2442305178e+00 
286600 4.7163098255e+00 7.0644431253e-05 2.4504076319e+00 -4.2442305178e+00 2.4504076319e+00 4.2442305178e+00 
286700 4.7163098246e+00 7.0645363458e-05 2.4504076319e+00 -4.2442305178e+00 2.4504076319e+00 4.2442305178e+00 
286800 4.7163098237e+00 7.0646275019e-05 2.4504076319e+00 -4.2442305178e+00 2.4504076319e+00 4.2442305178e+00 
286900 4.7163098228e+00 7.0647166275e-05 2.4504076319e+00 -4.2442305178e+00 2.4504076319e+00 4.2442305178e+00 
287000 4.7163098219e+00 7.0648037559e-05 2.4504076319e+00 -4.2442305178e+00 2.4504076319e+00 4.2442305178e+00 
287100 4.7163098210e+00 7.0648889202e-05 2.4504076319e+00 -4.2442305178e+00 2.4504076319e+00 4.2442305178e+00 
287200 4.7163098202e+00 7.0649721529e-05 2.4504076319e+00 -4.2442305178e+00 2.4504076319e+00 4.2442305178e+00 
287300 4.7163098193e+00 7.0650534861e-05 2.4504076319e+00 -4.2442305178e+00 2.4504076319e+00 4.2442305178e+00 
287400 4.7163098185e+00 7.0651329514e-05 2.4504076319e+00 -4.2442305178e+00 2.4504076319e+00 4.2442305178e+00 
287500 4.7163098176e+00 7.0652105803e-05 2.4504076319e+00 -4.2442305178e+00 2.4504076319e+00 4.2442305178e+00 
287600 4.7163098168e+00 7.0652864033e-05 2.4504076319e+00 -4.2442305178e+00 2.4504076319e+00 4.2442305178e+00 
287700 4.7163098160e+00 7.0653604511e-05 2.4504076319e+00 -4.2442305178e+00 2.4504076319e+00 4.2442305178e+00 
287800 4.7163098152e+00 7.0654327535e-05 2.4504076319e+00 -4.2442305178e+00 2.4504076319e+00 4.2442305178e+00 
287900 4.7163098144e+00 7.0655033400e-05 2.4504076319e+00 -4.2442305178e+00 2.4504076319e+00 4.2442305178e+00 
288000 4.7163098136e+00 7.0655722400e-05 2.4504076319e+00 -4.2442305178e+00 2.4504076319e+00 4.2442305178e+00 
288100 4.7163098128e+00 7.0656394820e-05 2.4504076319e+00 -4.2442305178e+00 2.4504076319e+00 4.2442305178e+00 
288200 4.7163098120e+00 7.0657050946e-05 2.4504076319e+00 -4.2442305178e+00 2.4504076319e+00 4.2442305178e+00 
288300 4.7163098113e+00 7.0657691055e-05 2.4504076319e+00 -4.2442305178e+00 2.4504076319e+00 4.2442305178e+00 
288400 4.7163098105e+00 7.0658315424e-05 2.4504076319e+00 -4.2442305178e+00 2.4504076319e+00 4.2442305178e+00 
288500 4.7163098098e+00 7.0658924325e-05 2.4504076319e+00 -4.2442305178e+00 2.4504076319e+00 4.2442305178e+00 
288600 4.7163098090e+00 7.0659518024e-05 2.4504076319e+00 -4.2442305178e+00 2.4504076319e+00 4.2442305178e+00 
288700 4.7163098083e+00 7.0660096787e-05 2.4504076319e+00 -4.2442305178e+00 2.4504076319e+00 4.2442305178e+00 
288800 4.7163098076e+00 7.0660660872e-05 2.4504076319e+00 -4.2442305178e+00 2.4504076319e+00 4.2442305178e+00 
288900 4.7163098069e+00 7.0661210537e-05 2.4504076319e+00 -4.2442305178e+00 2.4504076319e+00 4.2442305178e+00 
289000 4.7163098062e+00 7.0661746033e-05 2.4504076319e+00 -4.2442305178e+00 2.4504076319e+00 4.2442305178e+00 
289100 4.7163098055e+00 7.0662267610e-05 2.4504076319e+00 -4.2442305178e+00 2.4504076319e+00 4.2442305178e+00 
289200 4.7163098048e+00 7.0662775514e-05 2.4504076319e+00 -4.2442305178e+00 2.4504076319e+00 4.2442305178e+00 
289300 4.7163098041e+00 7.0663269985e-05 2.4504076319e+00 -4.2442305178e+00 2.4504076319e+00 4.2442305178e+00 
289400 4.7163098034e+00 7.0663751262e-05 2.4504076319e+00 -4.2442305178e+00 2.4504076319e+00 4.2442305178e+00 
289500 4.7163098028e+00 7.0664219579e-05 2.4504076319e+00 -4.2442305178e+00 2.4504076319e+00 4.2442305178e+00 
289600 4.7163098021e+00 7.0664675167e-05 2.4504076319e+00 -4.2442305178e+00 2.4504076319e+00 4.2442305178e+00 
289700 4.7163098015e+00 7.0665118255e-05 2.4504076319e+00 -4.2442305178e+00 2.4504076319e+00 4.2442305178e+00 
289800 4.7163098008e+00 7.0665549067e-05 2.4504076319e+00 -4.2442305178e+00 2.4504076319e+00 4.2442305178e+00 
289900 4.7163098002e+00 7.0665967822e-05 2.4504076319e+00 -4.2442305178e+00 2.4504076319e+00 4.2442305178e+00 
290000 4.7163097996e+00 7.0666374740e-05 2.4504076319e+00 -4.2442305178e+00 2.4504076319e+00 4.2442305178e+00 
290100 4.7163097989e+00 7.0666770034e-05 2.4504076319e+00 -4.2442305178e+00 2.4504076319e+00 4.2442305178e+00 
290200 4.7163097983e+00 7.0667153915e-05 2.4504076319e+00 -4.2442305178e+00 2.4504076319e+00 4.2442305178e+00 
290300 4.7163097977e+00 7.0667526591e-05 2.4504076319e+00 -4.2442305178e+00 2.4504076319e+00 4.2442305178e+00 
290400 4.7163097971e+00 7.0667888267e-05 2.4504076319e+00 -4.2442305178e+00 2.4504076319e+00 4.2442305178e+00 
290500 4.7163097965e+00 7.0668239144e-05 2.4504076319e+00 -4.2442305178e+00 2.4504076319e+00 4.2442305178e+00 
290600 4.7163097960e+00 7.0668579421e-05 2.4504076319e+00 -4.2442305178e+00 2.4504076319e+00 4.2442305178e+00 
290700 4.7163097954e+00 7.0668909293e-05 2.4504076319e+00 -4.2442305178e+00 2.4504076319e+00 4.2442305178e+00 
290800 4.7163097948e+00 7.0669228954e-05 2.4504076319e+00 -4.2442305178e+00 2.4504076319e+00 4.2442305178e+00 
290900 4.7163097943e+00 7.0669538591e-05 2.4504076319e+00 -4.2442305178e+00 2.4504076319e+00 4.2442305178e+00 
291000 4.7163097937e+00 7.0669838392e-05 2.4504076319e+00 -4.2442305178e+00 2.4504076319e+00 4.2442305178e+00 
291100 4.7163097932e+00 7.0670128541e-05 2.4504076319e+00 -4.2442305178e+00 2.4504076319e+00 4.2442305178e+00 
291200 4.7163097926e+00 7.0670409218e-05 2.4504076319e+00 -4.2442305178e+00 2.4504076319e+00 4.2442305178e+00 
291300 4.7163097921e+00 7.0670680601e-05 2.4504076319e+00 -4.2442305178e+00 2.4504076319e+00 4.2442305178e+00 
291400 4.7163097915e+00 7.0670942865e-05 2.4504076319e+00 -4.2442305178e+00 2.4504076319e+00 4.2442305178e+00 
291500 4.7163097910e+00 7.0671196184e-05 2.4504076319e+00 -4.2442305178e+00 2.4504076319e+00 4.2442305178e+00 
291600 4.7163097905e+00 7.0671440726e-05 2.4504076319e+00 -4.2442305178e+00 2.4504076319e+00 4.2442305178e+00 
291700 4.7163097900e+00 7.0671676659e-05 2.4504076319e+00 -4.2442305178e+00 2.4504076319e+00 4.2442305178e+00 
291800 4.7163097895e+00 7.0671904147e-05 2.4504076319e+00 -4.2442305178e+00 2.4504076319e+00 4.2442305178e+00 
291900 4.7163097890e+00 7.0672123352e-05 2.4504076319e+00 -4.2442305178e+00 2.4504076319e+00 4.2442305178e+00 
292000 4.7163097885e+00 7.0672334434e-05 2.4504076319e+00 -4.2442305178e+00 2.4504076319e+00 4.2442305178e+00 
292100 4.7163097880e+00 7.0672537549e-05 2.4504076319e+00 -4.2442305178e+00 2.4504076319e+00 4.2442305178e+00 
292200 4.7163097875e+00 7.0672732852e-05 2.4504076319e+00 -4.2442305178e+00 2.4504076319e+00 4.2442305178e+00 
292300 4.7163097870e+00 7.0672920494e-05 2.4504076319e+00 -4.2442305178e+00 2.4504076319e+00 4.2442305178e+00 
292400 4.7163097866e+00 7.0673100625e-05 2.4504076319e+00 -4.2442305178e+00 2.4504076319e+00 4.2442305178e+00 
292500 4.7163097861e+00 7.0673273391e-05 2.4504076319e+00 -4.2442305178e+00 2.4504076319e+00 4.2442305178e+00 
292600 4.7163097856e+00 7.0673438939e-05 2.4504076319e+00 -4.2442305178e+00 2.4504076319e+00 4.2442305178e+00 
292700 4.7163097852e+00 7.0673597409e-05 2.4504076319e+00 -4.2442305178e+00 2.4504076319e+00 4.2442305178e+00 
292800 4.7163097847e+00 7.0673748942e-05 2.4504076319e+00 -4.2442305178e+00 2.4504076319e+00 4.2442305178e+00 
292900 4.7163097843e+00 7.0673893676e-05 2.4504076319e+00 -4.2442305178e+00 2.4504076319e+00 4.2442305178e+00 
293000 4.7163097839e+00 7.0674031746e-05 2.4504076319e+00 -4.2442305178e+00 2.4504076319e+00 4.2442305178e+00 
293100 4.7163097834e+00 7.0674163286e-05 2.4504076319e+00 -4.2442305178e+00 2.4504076319e+00 4.2442305178e+00 
293200 4.7163097830e+00 7.0674288428e-05 2.4504076319e+00 -4.2442305178e+00 2.4504076319e+00 4.2442305178e+00 
293300 4.7163097826e+00 7.0674407299e-05 2.4504076319e+00 -4.2442305178e+00 2.4504076319e+00 4.2442305178e+00 
293400 4.7163097822e+00 7.0674520027e-05 2.4504076319e+00 -4.2442305178e+00 2.4504076319e+00 4.2442305178e+00 
293500 4.7163097817e+00 7.0674626737e-05 2.4504076319e+00 -4.2442305178e+00 2.4504076319e+00 4.2442305178e+00 
293600 4.7163097813e+00 7.0674727552e-05 2.4504076319e+00 -4.2442305178e+00 2.4504076319e+00 4.2442305178e+00 
293700 4.7163097809e+00 7.0674822594e-05 2.4504076319e+00 -4.2442305178e+00 2.4504076319e+00 4.2442305178e+00 
293800 4.7163097805e+00 7.0674911979e-05 2.4504076319e+00 -4.2442305178e+00 2.4504076319e+00 4.2442305178e+00 
293900 4.7163097801e+00 7.0674995827e-05 2.4504076319e+00 -4.2442305178e+00 2.4504076319e+00 4.2442305178e+00 
294000 4.7163097797e+00 7.0675074251e-05 2.4504076319e+00 -4.2442305178e+00 2.4504076319e+00 4.2442305178e+00 
294100 4.7163097794e+00 7.0675147364e-05 2.4504076319e+00 -4.2442305178e+00 2.4504076319e+00 4.2442305178e+00 
294200 4.7163097790e+00 7.0675215279e-05 2.4504076319e+00 -4.2442305178e+00 2.4504076319e+00 4.2442305178e+00 
294300 4.7163097786e+00 7.0675278104e-05 2.4504076319e+00 -4.2442305178e+00 2.4504076319e+00 4.2442305178e+00 
294400 4.7163097782e+00 7.0675335947e-05 2.4504076319e+00 -4.2442305178e+00 2.4504076319e+00 4.2442305178e+00 
294500 4.7163097779e+00 7.0675388915e-05 2.4504076319e+00 -4.2442305178e+00 2.4504076319e+00 4.2442305178e+00 
294600 4.7163097775e+00 7.0675437110e-05 2.4504076319e+00 -4.2442305178e+00 2.4504076319e+00 4.2442305178e+00 
294700 4.7163097771e+00 7.0675480634e-05 2.4504076319e+00 -4.2442305178e+00 2.4504076319e+00 4.2442305178e+00 
294800 4.7163097768e+00 7.0675519590e-05 2.4504076319e+00 -4.2442305178e+00 2.4504076319e+00 4.2442305178e+00 
294900 4.7163097764e+00 7.0675554076e-05 2.4504076319e+00 -4.2442305178e+00 2.4504076319e+00 4.2442305178e+00 
295000 4.7163097761e+00 7.0675584189e-05 2.4504076319e+00 -4.2442305178e+00 2.4504076319e+00 4.2442305178e+00 
295100 4.7163097757e+00 7.0675610024e-05 2.4504076319e+00 -4.2442305178e+00 2.4504076319e+00 4.2442305178e+00 
295200 4.7163097754e+00 7.0675631676e-05 2.4504076319e+00 -4.2442305178e+00 2.4504076319e+00 4.2442305178e+00 
295300 4.7163097751e+00 7.0675649237e-05 2.4504076319e+00 -4.2442305178e+00 2.4504076319e+00 4.2442305178e+00 
295400 4.7163097747e+00 7.0675662797e-05 2.4504076319e+00 -4.2442305178e+00 2.4504076319e+00 4.2442305178e+00 
295500 4.7163097744e+00 7.0675672447e-05 2.4504076319e+00 -4.2442305178e+00 2.4504076319e+00 4.2442305178e+00 
295600 4.7163097741e+00 7.0675678274e-05 2.4504076319e+00 -4.2442305178e+00 2.4504076319e+00 4.2442305178e+00 
295700 4.7163097738e+00 7.0675680364e-05 2.4504076319e+00 -4.2442305178e+00 2.4504076319e+00 4.2442305178e+00 
295800 4.7163097734e+00 7.0675678803e-05 2.4504076319e+00 -4.2442305178e+00 2.4504076319e+00 4.2442305178e+00 
295900 4.7163097731e+00 7.0675673673e-05 2.4504076319e+00 -4.2442305178e+00 2.4504076319e+00 4.2442305178e+00 
296000 4.7163097728e+00 7.0675665057e-05 2.4504076319e+00 -4.2442305178e+00 2.4504076319e+00 4.2442305178e+00 
296100 4.7163097725e+00 7.0675653034e-05 2.4504076319e+00 -4.2442305178e+00 2.4504076319e+00 4.2442305178e+00 
296200 4.7163097722e+00 7.0675637685e-05 2.4504076319e+00 -4.2442305178e+00 2.4504076319e+00 4.2442305178e+00 
296300 4.7163097719e+00 7.0675619088e-05 2.4504076319e+00 -4.2442305178e+00 2.4504076319e+00 4.2442305178e+00 
296400 4.7163097716e+00 7.0675597317e-05 2.4504076319e+00 -4.2442305178e+00 2.4504076319e+00 4.2442305178e+00 
296500 4.7163097713e+00 7.0675572450e-05 2.4504076319e+00 -4.2442305178e+00 2.4504076319e+00 4.2442305178e+00 
296600 4.7163097710e+00 7.0675544559e-05 2.4504076319e+00 -4.2442305178e+00 2.4504076319e+00 4.2442305178e+00 
296700 4.7163097708e+00 7.0675513717e-05 2.4504076319e+00 -4.2442305178e+00 2.4504076319e+00 4.2442305178e+00 
296800 4.7163097705e+00 7.0675479996e-05 2.4504076319e+00 -4.2442305178e+00 2.4504076319e+00 4.2442305178e+00 
296900 4.7163097702e+00 7.0675443466e-05 2.4504076319e+00 -4.2442305178e+00 2.4504076319e+00 4.2442305178e+00 
297000 4.7163097699e+00 7.0675404194e-05 2.4504076319e+00 -4.2442305178e+00 2.4504076319e+00 4.2442305178e+00 
297100 4.7163097697e+00 7.0675362250e-05 2.4504076319e+00 -4.2442305178e+00 2.4504076319e+00 4.2442305178e+00 
297200 4.7163097694e+00 7.0675317700e-05 2.4504076319e+00 -4.2442305178e+00 2.4504076319e+00 4.2442305178e+00 
297300 4.7163097691e+00 7.0675270608e-05 2.4504076319e+00 -4.2442305178e+00 2.4504076319e+00 4.2442305178e+00 
297400 4.7163097689e+00 7.0675221039e-05 2.4504076319e+00 -4.2442305178e+00 2.4504076319e+00 4.2442305178e+00 
297500 4.7163097686e+00 7.0675169056e-05 2.4504076319e+00 -4.2442305178e+00 2.4504076319e+00 4.2442305178e+00 
297600 4.7163097683e+00 7.0675114721e-05 2.4504076319e+00 -4.2442305178e+00 2.4504076319e+00 4.2442305178e+00 
297700 4.7163097681e+00 7.0675058094e-05 2.4504076319e+00 -4.2442305178e+00 2.4504076319e+00 4.2442305178e+00 
297800 4.7163097678e+00 7.0674999236e-05 2.4504076319e+00 -4.2442305178e+00 2.4504076319e+00 4.2442305178e+00 
297900 4.7163097676e+00 7.0674938205e-05 2.4504076319e+00 -4.2442305178e+00 2.4504076319e+00 4.2442305178e+00 
298000 4.7163097674e+00 7.0674875059e-05 2.4504076319e+00 -4.2442305178e+00 2.4504076319e+00 4.2442305178e+00 
298100 4.7163097671e+00 7.0674809853e-05 2.4504076319e+00 -4.2442305178e+00 2.4504076319e+00 4.2442305178e+00 
298200 4.7163097669e+00 7.0674742644e-05 2.4504076319e+00 -4.2442305178e+00 2.4504076319e+00 4.2442305178e+00 
298300 4.7163097666e+00 7.0674673487e-05 2.4504076319e+00 -4.2442305178e+00 2.4504076319e+00 4.2442305178e+00 
298400 4.7163097664e+00 7.0674602434e-05 2.4504076319e+00 -4.2442305178e+00 2.4504076319e+00 4.2442305178e+00 
298500 4.7163097662e+00 7.0674529539e-05 2.4504076319e+00 -4.2442305178e+00 2.4504076319e+00 4.2442305178e+00 
298600 4.7163097659e+00 7.0674454853e-05 2.4504076319e+00 -4.2442305178e+00 2.4504076319e+00 4.2442305178e+00 
298700 4.7163097657e+00 7.0674378426e-05 2.4504076319e+00 -4.2442305178e+00 2.4504076319e+00 4.2442305178e+00 
298800 4.7163097655e+00 7.0674300309e-05 2.4504076319e+00 -4.2442305178e+00 2.4504076319e+00 4.2442305178e+00 
298900 4.7163097653e+00 7.0674220551e-05 2.4504076319e+00 -4.2442305178e+00 2.4504076319e+00 4.2442305178e+00 
299000 4.7163097651e+00 7.0674139199e-05 2.4504076319e+00 -4.2442305178e+00 2.4504076319e+00 4.2442305178e+00 
299100 4.7163097648e+00 7.0674056300e-05 2.4504076319e+00 -4.2442305178e+00 2.4504076319e+00 4.2442305178e+00 
299200 4.7163097646e+00 7.0673971902e-05 2.4504076319e+00 -4.2442305178e+00 2.4504076319e+00 4.2442305178e+00 
299300 4.7163097644e+00 7.0673886048e-05 2.4504076319e+00 -4.2442305178e+00 2.4504076319e+00 4.2442305178e+00 
299400 4.7163097642e+00 7.0673798784e-05 2.4504076319e+00 -4.2442305178e+00 2.4504076319e+00 4.2442305178e+00 
299500 4.7163097640e+00 7.0673710153e-05 2.4504076319e+00 -4.2442305178e+00 2.4504076319e+00 4.2442305178e+00 
299600 4.7163097638e+00 7.0673620199e-05 2.4504076319e+00 -4.2442305178e+00 2.4504076319e+00 4.2442305178e+00 
299700 4.7163097636e+00 7.0673528963e-05 2.4504076319e+00 -4.2442305178e+00 2.4504076319e+00 4.2442305178e+00 
299800 4.7163097634e+00 7.0673436487e-05 2.4504076319e+00 -4.2442305178e+00 2.4504076319e+00 4.2442305178e+00 
299900 4.7163097632e+00 7.0673342811e-05 2.4504076319e+00 -4.2442305178e+00 2.4504076319e+00 4.2442305178e+00 
300000 4.7163097630e+00 7.0673247976e-05 2.4504076319e+00 -4.2442305178e+00 2.4504076319e+00 4.2442305178e+00 
300100 4.7163097628e+00 7.0673152019e-05 2.4504076319e+00 -4.2442305178e+00 2.4504076319e+00 4.2442305178e+00 
300200 4.7163097627e+00 7.0673054979e-05 2.4504076319e+00 -4.2442305178e+00 2.4504076319e+00 4.2442305178e+00 
300300 4.7163097625e+00 7.0672956895e-05 2.4504076319e+00 -4.2442305178e+00 2.4504076319e+00 4.2442305178e+00 
300400 4.7163097623e+00 7.0672857802e-05 2.4504076319e+00 -4.2442305178e+00 2.4504076319e+00 4.2442305178e+00 
300500 4.7163097621e+00 7.0672757737e-05 2.4504076319e+00 -4.2442305178e+00 2.4504076319e+00 4.2442305178e+00 
300600 4.7163097619e+00 7.0672656735e-05 2.4504076319e+00 -4.2442305178e+00 2.4504076319e+00 4.2442305178e+00 
300700 4.7163097617e+00 7.0672554831e-05 2.4504076319e+00 -4.2442305178e+00 2.4504076319e+00 4.2442305178e+00 
300800 4.7163097616e+00 7.0672452060e-05 2.4504076319e+00 -4.2442305178e+00 2.4504076319e+00 4.2442305178e+00 
300900 4.7163097614e+00 7.0672348454e-05 2.4504076319e+00 -4.2442305178e+00 2.4504076319e+00 4.2442305178e+00 
301000 4.7163097612e+00 7.0672244046e-05 2.4504076319e+00 -4.2442305178e+00 2.4504076319e+00 4.2442305178e+00 
301100 4.7163097611e+00 7.0672138869e-05 2.4504076319e+00 -4.2442305178e+00 2.4504076319e+00 4.2442305178e+00 
301200 4.7163097609e+00 7.0672032954e-05 2.4504076319e+00 -4.2442305178e+00 2.4504076319e+00 4.2442305178e+00 
301300 4.7163097607e+00 7.0671926332e-05 2.4504076319e+00 -4.2442305178e+00 2.4504076319e+00 4.2442305178e+00 
301400 4.7163097606e+00 7.0671819032e-05 2.4504076319e+00 -4.2442305178e+00 2.4504076319e+00 4.2442305178e+00 
301500 4.7163097604e+00 7.0671711087e-05 2.4504076319e+00 -4.2442305178e+00 2.4504076319e+00 4.2442305178e+00 
301600 4.7163097602e+00 7.0671602522e-05 2.4504076319e+00 -4.2442305178e+00 2.4504076319e+00 4.2442305178e+00 
301700 4.7163097601e+00 7.0671493369e-05 2.4504076319e+00 -4.2442305178e+00 2.4504076319e+00 4.2442305178e+00 
301800 4.7163097599e+00 7.0671383654e-05 2.4504076319e+00 -4.2442305178e+00 2.4504076319e+00 4.2442305178e+00 
301900 4.7163097598e+00 7.0671273404e-05 2.4504076319e+00 -4.2442305178e+00 2.4504076319e+00 4.2442305178e+00 
302000 4.7163097596e+00 7.0671162647e-05 2.4504076319e+00 -4.2442305178e+00 2.4504076319e+00 4.2442305178e+00 
302100 4.7163097595e+00 7.0671051410e-05 2.4504076319e+00 -4.2442305178e+00 2.4504076319e+00 4.2442305178e+00 
302200 4.7163097593e+00 7.0670939716e-05 2.4504076319e+00 -4.2442305178e+00 2.4504076319e+00 4.2442305178e+00 
302300 4.7163097592e+00 7.0670827593e-05 2.4504076319e+00 -4.2442305178e+00 2.4504076319e+00 4.2442305178e+00 
302400 4.7163097590e+00 7.0670715065e-05 2.4504076319e+00 -4.2442305178e+00 2.4504076319e+00 4.2442305178e+00 
302500 4.7163097589e+00 7.0670602155e-05 2.4504076319e+00 -4.2442305178e+00 2.4504076319e+00 4.2442305178e+00 
302600 4.7163097587e+00 7.0670488888e-05 2.4504076319e+00 -4.2442305178e+00 2.4504076319e+00 4.2442305178e+00 
302700 4.7163097586e+00 7.0670375286e-05 2.4504076319e+00 -4.2442305178e+00 2.4504076319e+00 4.2442305178e+00 
302800 4.7163097585e+00 7.0670261373e-05 2.4504076319e+00 -4.2442305178e+00 2.4504076319e+00 4.2442305178e+00 
302900 4.7163097583e+00 7.0670147171e-05 2.4504076319e+00 -4.2442305178e+00 2.4504076319e+00 4.2442305178e+00 
303000 4.7163097582e+00 7.0670032702e-05 2.4504076319e+00 -4.2442305178e+00 2.4504076319e+00 4.2442305178e+00 
303100 4.7163097581e+00 7.0669917986e-05 2.4504076319e+00 -4.2442305178e+00 2.4504076319e+00 4.2442305178e+00 
303200 4.7163097579e+00 7.0669803045e-05 2.4504076319e+00 -4.2442305178e+00 2.4504076319e+00 4.2442305178e+00 
303300 4.7163097578e+00 7.0669687899e-05 2.4504076319e+00 -4.2442305178e+00 2.4504076319e+00 4.2442305178e+00 
303400 4.7163097577e+00 7.0669572569e-05 2.4504076319e+00 -4.2442305178e+00 2.4504076319e+00 4.2442305178e+00 
303500 4.7163097575e+00 7.0669457073e-05 2.4504076319e+00 -4.2442305178e+00 2.4504076319e+00 4.2442305178e+00 
303600 4.7163097574e+00 7.0669341431e-05 2.4504076319e+00 -4.2442305178e+00 2.4504076319e+00 4.2442305178e+00 
303700 4.7163097573e+00 7.0669225662e-05 2.4504076319e+00 -4.2442305178e+00 2.4504076319e+00 4.2442305178e+00 
303800 4.7163097572e+00 7.0669109784e-05 2.4504076319e+00 -4.2442305178e+00 2.4504076319e+00 4.2442305178e+00 
303900 4.7163097570e+00 7.0668993814e-05 2.4504076319e+00 -4.2442305178e+00 2.4504076319e+00 4.2442305178e+00 
304000 4.7163097569e+00 7.0668877771e-05 2.4504076319e+00 -4.2442305178e+00 2.4504076319e+00 4.2442305178e+00 
304100 4.7163097568e+00 7.0668761672e-05 2.4504076319e+00 -4.2442305178e+00 2.4504076319e+00 4.2442305178e+00 
304200 4.7163097567e+00 7.0668645533e-05 2.4504076319e+00 -4.2442305178e+00 2.4504076319e+00 4.2442305178e+00 
304300 4.7163097566e+00 7.0668529370e-05 2.4504076319e+00 -4.2442305178e+00 2.4504076319e+00 4.2442305178e+00 
304400 4.7163097564e+00 7.0668413200e-05 2.4504076319e+00 -4.2442305178e+00 2.4504076319e+00 4.2442305178e+00 
304500 4.7163097563e+00 7.0668297038e-05 2.4504076319e+00 -4.2442305178e+00 2.4504076319e+00 4.2442305178e+00 
304600 4.7163097562e+00 7.0668180900e-05 2.4504076319e+00 -4.2442305178e+00 2.4504076319e+00 4.2442305178e+00 
304700 4.7163097561e+00 7.0668064800e-05 2.4504076319e+00 -4.2442305178e+00 2.4504076319e+00 4.2442305178e+00 
304800 4.7163097560e+00 7.0667948754e-05 2.4504076319e+00 -4.2442305178e+00 2.4504076319e+00 4.2442305178e+00 
304900 4.7163097559e+00 7.0667832775e-05 2.4504076319e+00 -4.2442305178e+00 2.4504076319e+00 4.2442305178e+00 
305000 4.7163097558e+00 7.0667716877e-05 2.4504076319e+00 -4.2442305178e+00 2.4504076319e+00 4.2442305178e+00 
305100 4.7163097557e+00 7.0667601074e-05 2.4504076319e+00 -4.2442305178e+00 2.4504076319e+00 4.2442305178e+00 
305200 4.7163097556e+00 7.0667485379e-05 2.4504076319e+00 -4.2442305178e+00 2.4504076319e+00 4.2442305178e+00 
305300 4.7163097555e+00 7.0667369806e-05 2.4504076319e+00 -4.2442305178e+00 2.4504076319e+00 4.2442305178e+00 
305400 4.7163097554e+00 7.0667254366e-05 2.4504076319e+00 -4.2442305178e+00 2.4504076319e+00 4.2442305178e+00 
305500 4.7163097553e+00 7.0667139072e-05 2.4504076319e+00 -4.2442305178e+00 2.4504076319e+00 4.2442305178e+00 
305600 4.7163097552e+00 7.0667023936e-05 2.4504076319e+00 -4.2442305178e+00 2.4504076319e+00 4.2442305178e+00 
305700 4.7163097551e+00 7.0666908970e-05 2.4504076319e+00 -4.2442305178e+00 2.4504076319e+00 4.2442305178e+00 
305800 4.7163097550e+00 7.0666794186e-05 2.4504076319e+00 -4.2442305178e+00 2.4504076319e+00 4.2442305178e+00 
305900 4.7163097549e+00 7.0666679593e-05 2.4504076319e+00 -4.2442305178e+00 2.4504076319e+00 4.2442305178e+00 
306000 4.7163097548e+00 7.0666565205e-05 2.4504076319e+00 -4.2442305178e+00 2.4504076319e+00 4.2442305178e+00 
306100 4.7163097547e+00 7.0666451030e-05 2.4504076319e+00 -4.2442305178e+00 2.4504076319e+00 4.2442305178e+00 
306200 4.7163097546e+00 7.0666337080e-05 2.4504076319e+00 -4.2442305178e+00 2.4504076319e+00 4.2442305178e+00 
306300 4.7163097545e+00 7.0666223364e-05 2.4504076319e+00 -4.2442305178e+00 2.4504076319e+00 4.2442305178e+00 
306400 4.7163097544e+00 7.0666109893e-05 2.4504076319e+00 -4.2442305178e+00 2.4504076319e+00 4.2442305178e+00 
306500 4.7163097543e+00 7.0665996675e-05 2.4504076319e+00 -4.2442305178e+00 2.4504076319e+00 4.2442305178e+00 
306600 4.7163097542e+00 7.0665883720e-05 2.4504076319e+00 -4.2442305178e+00 2.4504076319e+00 4.2442305178e+00 
306700 4.7163097541e+00 7.0665771037e-05 2.4504076319e+00 -4.2442305178e+00 2.4504076319e+00 4.2442305178e+00 
306800 4.7163097541e+00 7.0665658636e-05 2.4504076319e+00 -4.2442305178e+00 2.4504076319e+00 4.2442305178e+00 
306900 4.7163097540e+00 7.0665546525e-05 2.4504076319e+00 -4.2442305178e+00 2.4504076319e+00 4.2442305178e+00 
307000 4.7163097539e+00 7.0665434711e-05 2.4504076319e+00 -4.2442305178e+00 2.4504076319e+00 4.2442305178e+00 
307100 4.7163097538e+00 7.0665323203e-05 2.4504076319e+00 -4.2442305178e+00 2.4504076319e+00 4.2442305178e+00 
307200 4.7163097537e+00 7.0665212009e-05 2.4504076319e+00 -4.2442305178e+00 2.4504076319e+00 4.2442305178e+00 
307300 4.7163097536e+00 7.0665101138e-05 2.4504076319e+00 -4.2442305178e+00 2.4504076319e+00 4.2442305178e+00 
307400 4.7163097536e+00 7.0664990595e-05 2.4504076319e+00 -4.2442305178e+00 2.4504076319e+00 4.2442305178e+00 
307500 4.7163097535e+00 7.0664880388e-05 2.4504076319e+00 -4.2442305178e+00 2.4504076319e+00 4.2442305178e+00 
307600 4.7163097534e+00 7.0664770525e-05 2.4504076319e+00 -4.2442305178e+00 2.4504076319e+00 4.2442305178e+00 
307700 4.7163097533e+00 7.0664661013e-05 2.4504076319e+00 -4.2442305178e+00 2.4504076319e+00 4.2442305178e+00 
307800 4.7163097532e+00 7.0664551857e-05 2.4504076319e+00 -4.2442305178e+00 2.4504076319e+00 4.2442305178e+00 
307900 4.7163097532e+00 7.0664443064e-05 2.4504076319e+00 -4.2442305178e+00 2.4504076319e+00 4.2442305178e+00 
308000 4.7163097531e+00 7.0664334641e-05 2.4504076319e+00 -4.2442305178e+00 2.4504076319e+00 4.2442305178e+00 
308100 4.7163097530e+00 7.0664226594e-05 2.4504076319e+00 -4.2442305178e+00 2.4504076319e+00 4.2442305178e+00 
308200 4.7163097529e+00 7.0664118928e-05 2.4504076319e+00 -4.2442305178e+00 2.4504076319e+00 4.2442305178e+00 
308300 4.7163097529e+00 7.0664011649e-05 2.4504076319e+00 -4.2442305178e+00 2.4504076319e+00 4.2442305178e+00 
308400 4.7163097528e+00 7.0663904763e-05 2.4504076319e+00 -4.2442305178e+00 2.4504076319e+00 4.2442305178e+00 
308500 4.7163097527e+00 7.0663798275e-05 2.4504076319e+00 -4.2442305178e+00 2.4504076319e+00 4.2442305178e+00 
308600 4.7163097527e+00 7.0663692189e-05 2.4504076319e+00 -4.2442305178e+00 2.4504076319e+00 4.2442305178e+00 
308700 4.7163097526e+00 7.0663586512e-05 2.4504076319e+00 -4.2442305178e+00 2.4504076319e+00 4.2442305178e+00 
308800 4.7163097525e+00 7.0663481248e-05 2.4504076319e+00 -4.2442305178e+00 2.4504076319e+00 4.2442305178e+00 
308900 4.7163097525e+00 7.0663376402e-05 2.4504076319e+00 -4.2442305178e+00 2.4504076319e+00 4.2442305178e+00 
309000 4.7163097524e+00 7.0663271977e-05 2.4504076319e+00 -4.2442305178e+00 2.4504076319e+00 4.2442305178e+00 
309100 4.7163097523e+00 7.0663167979e-05 2.4504076319e+00 -4.2442305178e+00 2.4504076319e+00 4.2442305178e+00 
309200 4.7163097523e+00 7.0663064411e-05 2.4504076319e+00 -4.2442305178e+00 2.4504076319e+00 4.2442305178e+00 
309300 4.7163097522e+00 7.0662961277e-05 2.4504076319e+00 -4.2442305178e+00 2.4504076319e+00 4.2442305178e+00 
309400 4.7163097521e+00 7.0662858582e-05 2.4504076319e+00 -4.2442305178e+00 2.4504076319e+00 4.2442305178e+00 
309500 4.7163097521e+00 7.0662756329e-05 2.4504076319e+00 -4.2442305178e+00 2.4504076319e+00 4.2442305178e+00 
309600 4.7163097520e+00 7.0662654522e-05 2.4504076319e+00 -4.2442305178e+00 2.4504076319e+00 4.2442305178e+00 
309700 4.7163097519e+00 7.0662553164e-05 2.4504076319e+00 -4.2442305178e+00 2.4504076319e+00 4.2442305178e+00 
309800 4.7163097519e+00 7.0662452258e-05 2.4504076319e+00 -4.2442305178e+00 2.4504076319e+00 4.2442305178e+00 
309900 4.7163097518e+00 7.0662351808e-05 2.4504076319e+00 -4.2442305178e+00 2.4504076319e+00 4.2442305178e+00 
310000 4.7163097518e+00 7.0662251816e-05 2.4504076319e+00 -4.2442305178e+00 2.4504076319e+00 4.2442305178e+00 
310100 4.7163097517e+00 7.0662152286e-05 2.4504076319e+00 -4.2442305178e+00 2.4504076319e+00 4.2442305178e+00 
310200 4.7163097516e+00 7.0662053220e-05 2.4504076319e+00 -4.2442305178e+00 2.4504076319e+00 4.2442305178e+00 
310300 4.7163097516e+00 7.0661954621e-05 2.4504076319e+00 -4.2442305178e+00 2.4504076319e+00 4.2442305178e+00 
310400 4.7163097515e+00 7.0661856491e-05 2.4504076319e+00 -4.2442305178e+00 2.4504076319e+00 4.2442305178e+00 
310500 4.7163097515e+00 7.0661758833e-05 2.4504076319e+00 -4.2442305178e+00 2.4504076319e+00 4.2442305178e+00 
310600 4.7163097514e+00 7.0661661650e-05 2.4504076319e+00 -4.2442305178e+00 2.4504076319e+00 4.2442305178e+00 
310700 4.7163097514e+00 7.0661564942e-05 2.4504076319e+00 -4.2442305178e+00 2.4504076319e+00 4.2442305178e+00 
310800 4.7163097513e+00 7.0661468713e-05 2.4504076319e+00 -4.2442305178e+00 2.4504076319e+00 4.2442305178e+00 
310900 4.7163097513e+00 7.0661372964e-05 2.4504076319e+00 -4.2442305178e+00 2.4504076319e+00 4.2442305178e+00 
311000 4.7163097512e+00 7.0661277698e-05 2.4504076319e+00 -4.2442305178e+00 2.4504076319e+00 4.2442305178e+00 
311100 4.7163097512e+00 7.0661182915e-05 2.4504076319e+00 -4.2442305178e+00 2.4504076319e+00 4.2442305178e+00 
311200 4.7163097511e+00 7.0661088617e-05 2.4504076319e+00 -4.2442305178e+00 2.4504076319e+00 4.2442305178e+00 
311300 4.7163097511e+00 7.0660994807e-05 2.4504076319e+00 -4.2442305178e+00 2.4504076319e+00 4.2442305178e+00 
311400 4.7163097510e+00 7.0660901485e-05 2.4504076319e+00 -4.2442305178e+00 2.4504076319e+00 4.2442305178e+00 
311500 4.7163097510e+00 7.0660808653e-05 2.4504076319e+00 -4.2442305178e+00 2.4504076319e+00 4.2442305178e+00 
311600 4.7163097509e+00 7.0660716312e-05 2.4504076319e+00 -4.2442305178e+00 2.4504076319e+00 4.2442305178e+00 
311700 4.7163097509e+00 7.0660624463e-05 2.4504076319e+00 -4.2442305178e+00 2.4504076319e+00 4.2442305178e+00 
311800 4.7163097508e+00 7.0660533108e-05 2.4504076319e+00 -4.2442305178e+00 2.4504076319e+00 4.2442305178e+00 
311900 4.7163097508e+00 7.0660442246e-05 2.4504076319e+00 -4.2442305178e+00 2.4504076319e+00 4.2442305178e+00 
312000 4.7163097507e+00 7.0660351880e-05 2.4504076319e+00 -4.2442305178e+00 2.4504076319e+00 4.2442305178e+00 
312100 4.7163097507e+00 7.0660262009e-05 2.4504076319e+00 -4.2442305178e+00 2.4504076319e+00 4.2442305178e+00 
312200 4.7163097506e+00 7.0660172635e-05 2.4504076319e+00 -4.2442305178e+00 2.4504076319e+00 4.2442305178e+00 
312300 4.7163097506e+00 7.0660083758e-05 2.4504076319e+00 -4.2442305178e+00 2.4504076319e+00 4.2442305178e+00 
312400 4.7163097505e+00 7.0659995378e-05 2.4504076319e+00 -4.2442305178e+00 2.4504076319e+00 4.2442305178e+00 
312500 4.7163097505e+00 7.0659907497e-05 2.4504076319e+00 -4.2442305178e+00 2.4504076319e+00 4.2442305178e+00 
312600 4.7163097504e+00 7.0659820115e-05 2.4504076319e+00 -4.2442305178e+00 2.4504076319e+00 4.2442305178e+00 
312700 4.7163097504e+00 7.0659733231e-05 2.4504076319e+00 -4.2442305178e+00 2.4504076319e+00 4.2442305178e+00 
312800 4.7163097504e+00 7.0659646846e-05 2.4504076319e+00 -4.2442305178e+00 2.4504076319e+00 4.2442305178e+00 
312900 4.7163097503e+00 7.0659560960e-05 2.4504076319e+00 -4.2442305178e+00 2.4504076319e+00 4.2442305178e+00 
313000 4.7163097503e+00 7.0659501138e-05 2.4504076319e+00 -4.2442305178e+00 2.4504076319e+00 4.2442305178e+00 
313000 4.7163097503e+00 7.0659501138e-05 2.4504076319e+00 -4.2442305178e+00 2.4504076319e+00 4.2442305178e+00 
