# step Hamiltonian StressXX CellTensor1 CellTensor2 CellTensor3 CellTensor4 
0 5.6847180822e+00 1.7438423091e-01 2.8378601290e+00 -4.9153179282e+00 2.8378601290e+00 4.9153179282e+00 
100 5.6838358612e+00 1.9458188701e-01 2.8378601290e+00 -4.9153179282e+00 2.8378601290e+00 4.9153179282e+00 
200 5.6850997541e+00 2.1392416752e-01 2.8344324995e+00 -4.9093810998e+00 2.8344324995e+00 4.9093810998e+00 
300 5.6886356237e+00 2.3265004614e-01 2.8306596696e+00 -4.9028463666e+00 2.8306596696e+00 4.9028463666e+00 
400 5.6941663054e+00 2.5088828211e-01 2.8265511984e+00 -4.8957302859e+00 2.8265511984e+00 4.8957302859e+00 
500 5.7013873245e+00 2.6872405311e-01 2.8221142980e+00 -4.8880453489e+00 2.8221142980e+00 4.8880453489e+00 
600 5.7099659139e+00 2.8618986354e-01 2.8173545977e+00 -4.8798013061e+00 2.8173545977e+00 4.8798013061e+00 
700 5.7195378389e+00 3.0325152247e-01 2.8122770735e+00 -4.8710067763e+00 2.8122770735e+00 4.8710067763e+00 
800 5.7297024274e+00 3.1978892920e-01 2.8068872341e+00 -4.8616713005e+00 2.8068872341e+00 4.8616713005e+00 
900 5.7400174047e+00 3.3557349109e-01 2.8011926600e+00 -4.8518080090e+00 2.8011926600e+00 4.8518080090e+00 
1000 5.7499973316e+00 3.5024867665e-01 2.7952049669e+00 -4.8414370203e+00 2.7952049669e+00 4.8414370203e+00 
1100 5.7591225736e+00 3.6332803639e-01 2.7889421428e+00 -4.8305894907e+00 2.7889421428e+00 4.8305894907e+00 
1200 5.7668684012e+00 3.7423353648e-01 2.7824309594e+00 -4.8193117902e+00 2.7824309594e+00 4.8193117902e+00 
1300 5.7727620828e+00 3.8239687739e-01 2.7757087365e+00 -4.8076685586e+00 2.7757087365e+00 4.8076685586e+00 
1400 5.7764640818e+00 3.8742198384e-01 2.7688233180e+00 -4.7957426640e+00 2.7688233180e+00 4.7957426640e+00 
1500 5.7778473675e+00 3.8925364402e-01 2.7618301232e+00 -4.7836300953e+00 2.7618301232e+00 4.7836300953e+00 
1600 5.7770317299e+00 3.8825220120e-01 2.7547861041e+00 -4.7714294962e+00 2.7547861041e+00 4.7714294962e+00 
1700 5.7743430923e+00 3.8510378041e-01 2.7477422496e+00 -4.7592291824e+00 2.7477422496e+00 4.7592291824e+00 
1800 5.7702126828e+00 3.8060527897e-01 2.7407375956e+00 -4.7470967659e+00 2.7407375956e+00 4.7470967659e+00 
1900 5.7650682166e+00 3.7545006081e-01 2.7337970522e+00 -4.7350753921e+00 2.7337970522e+00 4.7350753921e+00 
2000 5.7592633053e+00 3.7011537318e-01 2.7269331103e+00 -4.7231866958e+00 2.7269331103e+00 4.7231866958e+00 
2100 5.7530559652e+00 3.6486091411e-01 2.7201496384e+00 -4.7114373780e+00 2.7201496384e+00 4.7114373780e+00 
2200 5.7466198225e+00 3.5978763984e-01 2.7134457680e+00 -4.6998259338e+00 2.7134457680e+00 4.6998259338e+00 
2300 5.7400669731e+00 3.5490524983e-01 2.7068187557e+00 -4.6883476118e+00 2.7068187557e+00 4.6883476118e+00 
2400 5.7334694879e+00 3.5018284425e-01 2.7002656453e+00 -4.6769972916e+00 2.7002656453e+00 4.6769972916e+00 
2500 5.7268750720e+00 3.4557878067e-01 2.6937840172e+00 -4.6657707824e+00 2.6937840172e+00 4.6657707824e+00 
2600 5.7203170146e+00 3.4105493265e-01 2.6873721946e+00 -4.6546651798e+00 2.6873721946e+00 4.6546651798e+00 
2700 5.7138200104e+00 3.3658171811e-01 2.6810291879e+00 -4.6436787699e+00 2.6810291879e+00 4.6436787699e+00 
2800 5.7074033967e+00 3.3213855896e-01 2.6747545439e+00 -4.6328107679e+00 2.6747545439e+00 4.6328107679e+00 
2900 5.7010829047e+00 3.2771250569e-01 2.6685481845e+00 -4.6220610379e+00 2.6685481845e+00 4.6220610379e+00 
3000 5.6948716031e+00 3.2329640254e-01 2.6624102676e+00 -4.6114298540e+00 2.6624102676e+00 4.6114298540e+00 
3100 5.6887804185e+00 3.1888718563e-01 2.6563410819e+00 -4.6009177161e+00 2.6563410819e+00 4.6009177161e+00 
3200 5.6828184446e+00 3.1448450934e-01 2.6503409711e+00 -4.5905252193e+00 2.6503409711e+00 4.5905252193e+00 
3300 5.6769931468e+00 3.1008971874e-01 2.6444102829e+00 -4.5802529661e+00 2.6444102829e+00 4.5802529661e+00 
3400 5.6713105192e+00 3.0570511896e-01 2.6385493377e+00 -4.5701015112e+00 2.6385493377e+00 4.5701015112e+00 
3500 5.6657752198e+00 3.0133347680e-01 2.6327584093e+00 -4.5600713289e+00 2.6327584093e+00 4.5600713289e+00 
3600 5.6603906948e+00 2.9697769394e-01 2.6270377159e+00 -4.5501627973e+00 2.6270377159e+00 4.5501627973e+00 
3700 5.6551592985e+00 2.9264060296e-01 2.6213874169e+00 -4.5403761925e+00 2.6213874169e+00 4.5403761925e+00 
3800 5.6500824080e+00 2.8832484825e-01 2.6158076136e+00 -4.5307116895e+00 2.6158076136e+00 4.5307116895e+00 
3900 5.6451605334e+00 2.8403282449e-01 2.6102983516e+00 -4.5211693678e+00 2.6102983516e+00 4.5211693678e+00 
4000 5.6403934229e+00 2.7976665282e-01 2.6048596256e+00 -4.5117492180e+00 2.6048596256e+00 4.5117492180e+00 
4100 5.6357801615e+00 2.7552818090e-01 2.5994913837e+00 -4.5024511504e+00 2.5994913837e+00 4.5024511504e+00 
4200 5.6313192627e+00 2.7131899728e-01 2.5941935326e+00 -4.4932750031e+00 2.5941935326e+00 4.4932750031e+00 
4300 5.6270087528e+00 2.6714045366e-01 2.5889659415e+00 -4.4842205497e+00 2.5889659415e+00 4.4842205497e+00 
4400 5.6228462481e+00 2.6299369074e-01 2.5838084470e+00 -4.4752875072e+00 2.5838084470e+00 4.4752875072e+00 
4500 5.6188290245e+00 2.5887966486e-01 2.5787208565e+00 -4.4664755420e+00 2.5787208565e+00 4.4664755420e+00 
4600 5.6149540796e+00 2.5479917376e-01 2.5737029517e+00 -4.4577842760e+00 2.5737029517e+00 4.4577842760e+00 
4700 5.6112181883e+00 2.5075288047e-01 2.5687544914e+00 -4.4492132912e+00 2.5687544914e+00 4.4492132912e+00 
4800 5.6076179518e+00 2.4674133475e-01 2.5638752139e+00 -4.4407621347e+00 2.5638752139e+00 4.4407621347e+00 
4900 5.6041498402e+00 2.4276499199e-01 2.5590648392e+00 -4.4324303213e+00 2.5590648392e+00 4.4324303213e+00 
5000 5.6008102302e+00 2.3882422940e-01 2.5543230707e+00 -4.4242173374e+00 2.5543230707e+00 4.4242173374e+00 
5100 5.5975954372e+00 2.3491935986e-01 2.5496495968e+00 -4.4161226431e+00 2.5496495968e+00 4.4161226431e+00 
5200 5.5945017429e+00 2.3105064343e-01 2.5450440916e+00 -4.4081456742e+00 2.5450440916e+00 4.4081456742e+00 
5300 5.5915254193e+00 2.2721829681e-01 2.5405062166e+00 -4.4002858441e+00 2.5405062166e+00 4.4002858441e+00 
5400 5.5886627484e+00 2.2342250106e-01 2.5360356210e+00 -4.3925425454e+00 2.5360356210e+00 4.3925425454e+00 
5500 5.5859100393e+00 2.1966340780e-01 2.5316319425e+00 -4.3849151505e+00 2.5316319425e+00 4.3849151505e+00 
5600 5.5832636419e+00 2.1594114400e-01 2.5272948081e+00 -4.3774030133e+00 2.5272948081e+00 4.3774030133e+00 
5700 5.5807199588e+00 2.1225581573e-01 2.5230238342e+00 -4.3700054695e+00 2.5230238342e+00 4.3700054695e+00 
5800 5.5782754542e+00 2.0860751102e-01 2.5188186274e+00 -4.3627218377e+00 2.5188186274e+00 4.3627218377e+00 
5900 5.5759266619e+00 2.0499630192e-01 2.5146787847e+00 -4.3555514198e+00 2.5146787847e+00 4.3555514198e+00 
6000 5.5736701908e+00 2.0142224594e-01 2.5106038938e+00 -4.3484935018e+00 2.5106038938e+00 4.3484935018e+00 
6100 5.5715027297e+00 1.9788538710e-01 2.5065935336e+00 -4.3415473541e+00 2.5065935336e+00 4.3415473541e+00 
6200 5.5694210509e+00 1.9438575648e-01 2.5026472741e+00 -4.3347122322e+00 2.5026472741e+00 4.3347122322e+00 
6300 5.5674220118e+00 1.9092337261e-01 2.4987646774e+00 -4.3279873774e+00 2.4987646774e+00 4.3279873774e+00 
6400 5.5655025571e+00 1.8749824154e-01 2.4949452972e+00 -4.3213720168e+00 2.4949452972e+00 4.3213720168e+00 
6500 5.5636597197e+00 1.8411035685e-01 2.4911886796e+00 -4.3148653643e+00 2.4911886796e+00 4.3148653643e+00 
6600 5.5618906204e+00 1.8075969950e-01 2.4874943634e+00 -4.3084666210e+00 2.4874943634e+00 4.3084666210e+00 
6700 5.5601924678e+00 1.7744623765e-01 2.4838618802e+00 -4.3021749755e+00 2.4838618802e+00 4.3021749755e+00 
6800 5.5585625581e+00 1.7416992642e-01 2.4802907548e+00 -4.2959896048e+00 2.4802907548e+00 4.2959896048e+00 
6900 5.5569982735e+00 1.7093070772e-01 2.4767805055e+00 -4.2899096747e+00 2.4767805055e+00 4.2899096747e+00 
7000 5.5554970814e+00 1.6772850998e-01 2.4733306446e+00 -4.2839343404e+00 2.4733306446e+00 4.2839343404e+00 
7100 5.5540565327e+00 1.6456324804e-01 2.4699406787e+00 -4.2780627472e+00 2.4699406787e+00 4.2780627472e+00 
7200 5.5526742600e+00 1.6143482296e-01 2.4666101087e+00 -4.2722940307e+00 2.4666101087e+00 4.2722940307e+00 
7300 5.5513479763e+00 1.5834312197e-01 2.4633384307e+00 -4.2666273182e+00 2.4633384307e+00 4.2666273182e+00 
7400 5.5500754728e+00 1.5528801839e-01 2.4601251361e+00 -4.2610617286e+00 2.4601251361e+00 4.2610617286e+00 
7500 5.5488546172e+00 1.5226937171e-01 2.4569697118e+00 -4.2555963734e+00 2.4569697118e+00 4.2555963734e+00 
7600 5.5476833513e+00 1.4928702756e-01 2.4538716409e+00 -4.2502303573e+00 2.4538716409e+00 4.2502303573e+00 
7700 5.5465596896e+00 1.4634081791e-01 2.4508304031e+00 -4.2449627789e+00 2.4508304031e+00 4.2449627789e+00 
7800 5.5454817168e+00 1.4343056120e-01 2.4478454746e+00 -4.2397927310e+00 2.4478454746e+00 4.2397927310e+00 
7900 5.5444475860e+00 1.4055606255e-01 2.4449163290e+00 -4.2347193020e+00 2.4449163290e+00 4.2347193020e+00 
8000 5.5434555167e+00 1.3771711402e-01 2.4420424374e+00 -4.2297415758e+00 2.4420424374e+00 4.2297415758e+00 
8100 5.5425037926e+00 1.3491349491e-01 2.4392232689e+00 -4.2248586328e+00 2.4392232689e+00 4.2248586328e+00 
8200 5.5415907600e+00 1.3214497208e-01 2.4364582910e+00 -4.2200695505e+00 2.4364582910e+00 4.2200695505e+00 
8300 5.5407148256e+00 1.2941130034e-01 2.4337469695e+00 -4.2153734040e+00 2.4337469695e+00 4.2153734040e+00 
8400 5.5398744547e+00 1.2671222280e-01 2.4310887698e+00 -4.2107692669e+00 2.4310887698e+00 4.2107692669e+00 
8500 5.5390681693e+00 1.2404747133e-01 2.4284831562e+00 -4.2062562118e+00 2.4284831562e+00 4.2062562118e+00 
8600 5.5382945462e+00 1.2141676698e-01 2.4259295929e+00 -4.2018333106e+00 2.4259295929e+00 4.2018333106e+00 
8700 5.5375522155e+00 1.1881982045e-01 2.4234275444e+00 -4.1974996354e+00 2.4234275444e+00 4.1974996354e+00 
8800 5.5368398584e+00 1.1625633252e-01 2.4209764753e+00 -4.1932542592e+00 2.4209764753e+00 4.1932542592e+00 
8900 5.5361562060e+00 1.1372599460e-01 2.4185758511e+00 -4.1890962560e+00 2.4185758511e+00 4.1890962560e+00 
9000 5.5355000374e+00 1.1122848918e-01 2.4162251381e+00 -4.1850247017e+00 2.4162251381e+00 4.1850247017e+00 
9100 5.5348701779e+00 1.0876349034e-01 2.4139238043e+00 -4.1810386746e+00 2.4139238043e+00 4.1810386746e+00 
9200 5.5342654978e+00 1.0633066425e-01 2.4116713190e+00 -4.1771372557e+00 2.4116713190e+00 4.1771372557e+00 
9300 5.5336849107e+00 1.0392966967e-01 2.4094671536e+00 -4.1733195292e+00 2.4094671536e+00 4.1733195292e+00 
9400 5.5331273718e+00 1.0156015848e-01 2.4073107816e+00 -4.1695845833e+00 2.4073107816e+00 4.1695845833e+00 
9500 5.5325918770e+00 9.9221776149e-02 2.4052016789e+00 -4.1659315102e+00 2.4052016789e+00 4.1659315102e+00 
9600 5.5320774608e+00 9.6914162272e-02 2.4031393241e+00 -4.1623594070e+00 2.4031393241e+00 4.1623594070e+00 
9700 5.5315831955e+00 9.4636951026e-02 2.4011231989e+00 -4.1588673756e+00 2.4011231989e+00 4.1588673756e+00 
9800 5.5311081896e+00 9.2389771680e-02 2.3991527878e+00 -4.1554545235e+00 2.3991527878e+00 4.1554545235e+00 
9900 5.5306515866e+00 9.0172249071e-02 2.3972275789e+00 -4.1521199640e+00 2.3972275789e+00 4.1521199640e+00 
10000 5.5302125637e+00 8.7984004074e-02 2.3953470639e+00 -4.1488628165e+00 2.3953470639e+00 4.1488628165e+00 
10100 5.5297903306e+00 8.5824654064e-02 2.3935107381e+00 -4.1456822069e+00 2.3935107381e+00 4.1456822069e+00 
10200 5.5293841281e+00 8.3693813368e-02 2.3917181008e+00 -4.1425772680e+00 2.3917181008e+00 4.1425772680e+00 
10300 5.5289932276e+00 8.1591093710e-02 2.3899686555e+00 -4.1395471398e+00 2.3899686555e+00 4.1395471398e+00 
10400 5.5286169291e+00 7.9516104634e-02 2.3882619098e+00 -4.1365909695e+00 2.3882619098e+00 4.1365909695e+00 
10500 5.5282545609e+00 7.7468453930e-02 2.3865973758e+00 -4.1337079122e+00 2.3865973758e+00 4.1337079122e+00 
10600 5.5279054782e+00 7.5447748033e-02 2.3849745703e+00 -4.1308971306e+00 2.3849745703e+00 4.1308971306e+00 
10700 5.5275690618e+00 7.3453592423e-02 2.3833930146e+00 -4.1281577957e+00 2.3833930146e+00 4.1281577957e+00 
10800 5.5272447178e+00 7.1485592003e-02 2.3818522349e+00 -4.1254890870e+00 2.3818522349e+00 4.1254890870e+00 
10900 5.5269318762e+00 6.9543351469e-02 2.3803517623e+00 -4.1228901922e+00 2.3803517623e+00 4.1228901922e+00 
11000 5.5266299899e+00 6.7626475666e-02 2.3788911329e+00 -4.1203603079e+00 2.3788911329e+00 4.1203603079e+00 
11100 5.5263385341e+00 6.5734569932e-02 2.3774698880e+00 -4.1178986395e+00 2.3774698880e+00 4.1178986395e+00 
11200 5.5260570052e+00 6.3867240428e-02 2.3760875741e+00 -4.1155044016e+00 2.3760875741e+00 4.1155044016e+00 
11300 5.5257849202e+00 6.2024094456e-02 2.3747437428e+00 -4.1131768175e+00 2.3747437428e+00 4.1131768175e+00 
11400 5.5255218157e+00 6.0204740766e-02 2.3734379512e+00 -4.1109151202e+00 2.3734379512e+00 4.1109151202e+00 
11500 5.5252672471e+00 5.8408789848e-02 2.3721697619e+00 -4.1087185517e+00 2.3721697619e+00 4.1087185517e+00 
11600 5.5250207881e+00 5.6635854214e-02 2.3709387426e+00 -4.1065863638e+00 2.3709387426e+00 4.1065863638e+00 
11700 5.5247820296e+00 5.4885548667e-02 2.3697444667e+00 -4.1045178174e+00 2.3697444667e+00 4.1045178174e+00 
11800 5.5245505792e+00 5.3157490556e-02 2.3685865133e+00 -4.1025121831e+00 2.3685865133e+00 4.1025121831e+00 
11900 5.5243260606e+00 5.1451300025e-02 2.3674644666e+00 -4.1005687413e+00 2.3674644666e+00 4.1005687413e+00 
12000 5.5241081129e+00 4.9766600243e-02 2.3663779168e+00 -4.0986867818e+00 2.3663779168e+00 4.0986867818e+00 
12100 5.5238963897e+00 4.8103017632e-02 2.3653264594e+00 -4.0968656041e+00 2.3653264594e+00 4.0968656041e+00 
12200 5.5236905589e+00 4.6460182073e-02 2.3643096955e+00 -4.0951045174e+00 2.3643096955e+00 4.0951045174e+00 
12300 5.5234903019e+00 4.4837727110e-02 2.3633272319e+00 -4.0934028406e+00 2.3633272319e+00 4.0934028406e+00 
12400 5.5232953129e+00 4.3235290144e-02 2.3623786810e+00 -4.0917599022e+00 2.3623786810e+00 4.0917599022e+00 
12500 5.5231052987e+00 4.1652512605e-02 2.3614636605e+00 -4.0901750402e+00 2.3614636605e+00 4.0901750402e+00 
12600 5.5229199779e+00 4.0089040132e-02 2.3605817939e+00 -4.0886476024e+00 2.3605817939e+00 4.0886476024e+00 
12700 5.5227390803e+00 3.8544522728e-02 2.3597327101e+00 -4.0871769461e+00 2.3597327101e+00 4.0871769461e+00 
12800 5.5225623470e+00 3.7018614913e-02 2.3589160434e+00 -4.0857624380e+00 2.3589160434e+00 4.0857624380e+00 
12900 5.5223895291e+00 3.5510975866e-02 2.3581314339e+00 -4.0844034544e+00 2.3581314339e+00 4.0844034544e+00 
13000 5.5222203879e+00 3.4021269561e-02 2.3573785266e+00 -4.0830993808e+00 2.3573785266e+00 4.0830993808e+00 
13100 5.5220546943e+00 3.2549164885e-02 2.3566569723e+00 -4.0818496120e+00 2.3566569723e+00 4.0818496120e+00 
13200 5.5218922282e+00 3.1094335764e-02 2.3559664268e+00 -4.0806535522e+00 2.3559664268e+00 4.0806535522e+00 
13300 5.5217327784e+00 2.9656461262e-02 2.3553065515e+00 -4.0795106146e+00 2.3553065515e+00 4.0795106146e+00 
13400 5.5215761417e+00 2.8235225685e-02 2.3546770126e+00 -4.0784202213e+00 2.3546770126e+00 4.0784202213e+00 
13500 5.5214221234e+00 2.6830318674e-02 2.3540774819e+00 -4.0773818035e+00 2.3540774819e+00 4.0773818035e+00 
13600 5.5212705361e+00 2.5441435290e-02 2.3535076358e+00 -4.0763948012e+00 2.3535076358e+00 4.0763948012e+00 
13700 5.5211211999e+00 2.4068276088e-02 2.3529671561e+00 -4.0754586629e+00 2.3529671561e+00 4.0754586629e+00 
13800 5.5209739417e+00 2.2710547191e-02 2.3524557294e+00 -4.0745728459e+00 2.3524557294e+00 4.0745728459e+00 
13900 5.5208285954e+00 2.1367960352e-02 2.3519730472e+00 -4.0737368158e+00 2.3519730472e+00 4.0737368158e+00 
14000 5.5206850010e+00 2.0040233012e-02 2.3515188058e+00 -4.0729500465e+00 2.3515188058e+00 4.0729500465e+00 
14100 5.5205430049e+00 1.8727088347e-02 2.3510927061e+00 -4.0722120203e+00 2.3510927061e+00 4.0722120203e+00 
14200 5.5204024591e+00 1.7428255316e-02 2.3506944538e+00 -4.0715222271e+00 2.3506944538e+00 4.0715222271e+00 
14300 5.5202632215e+00 1.6143468695e-02 2.3503237592e+00 -4.0708801652e+00 2.3503237592e+00 4.0708801652e+00 
14400 5.5201251551e+00 1.4872469112e-02 2.3499803368e+00 -4.0702853401e+00 2.3499803368e+00 4.0702853401e+00 
14500 5.5199881283e+00 1.3615003069e-02 2.3496639058e+00 -4.0697372655e+00 2.3496639058e+00 4.0697372655e+00 
14600 5.5198520142e+00 1.2370822966e-02 2.3493741894e+00 -4.0692354620e+00 2.3493741894e+00 4.0692354620e+00 
14700 5.5197166908e+00 1.1139687113e-02 2.3491109152e+00 -4.0687794577e+00 2.3491109152e+00 4.0687794577e+00 
14800 5.5195820405e+00 9.9213597379e-03 2.3488738148e+00 -4.0683687879e+00 2.3488738148e+00 4.0683687879e+00 
14900 5.5194479502e+00 8.7156109948e-03 2.3486626240e+00 -4.0680029946e+00 2.3486626240e+00 4.0680029946e+00 
15000 5.5193143107e+00 7.5222169579e-03 2.3484770823e+00 -4.0676816270e+00 2.3484770823e+00 4.0676816270e+00 
15100 5.5191810169e+00 6.3409596173e-03 2.3483169332e+00 -4.0674042406e+00 2.3483169332e+00 4.0674042406e+00 
15200 5.5190479678e+00 5.1716268673e-03 2.3481819238e+00 -4.0671703974e+00 2.3481819238e+00 4.0671703974e+00 
15300 5.5189150657e+00 4.0140124902e-03 2.3480718048e+00 -4.0669796658e+00 2.3480718048e+00 4.0669796658e+00 
15400 5.5187822166e+00 2.8679161353e-03 2.3479863307e+00 -4.0668316202e+00 2.3479863307e+00 4.0668316202e+00 
15500 5.5186493299e+00 1.7331432938e-03 2.3479252591e+00 -4.0667258412e+00 2.3479252591e+00 4.0667258412e+00 
15600 5.5185163182e+00 6.0950526834e-04 2.3478883513e+00 -4.0666619149e+00 2.3478883513e+00 4.0666619149e+00 
15700 5.5183830974e+00 -5.0318086062e-04 2.3478753714e+00 -4.0666394331e+00 2.3478753714e+00 4.0666394331e+00 
15800 5.5182495864e+00 -1.6050922739e-03 2.3478860871e+00 -4.0666579932e+00 2.3478860871e+00 4.0666579932e+00 
15900 5.5181157069e+00 -2.6964004559e-03 2.3479202688e+00 -4.0667171977e+00 2.3479202688e+00 4.0667171977e+00 
16000 5.5179813835e+00 -3.7772712417e-03 2.3479776901e+00 -4.0668166543e+00 2.3479776901e+00 4.0668166543e+00 
16100 5.5178465436e+00 -4.8478648678e-03 2.3480581272e+00 -4.0669559755e+00 2.3480581272e+00 4.0669559755e+00 
16200 5.5177111171e+00 -5.9083360266e-03 2.3481613594e+00 -4.0671347788e+00 2.3481613594e+00 4.0671347788e+00 
16300 5.5175750366e+00 -6.9588339248e-03 2.3482871682e+00 -4.0673526861e+00 2.3482871682e+00 4.0673526861e+00 
16400 5.5174382371e+00 -7.9995023459e-03 2.3484353380e+00 -4.0676093238e+00 2.3484353380e+00 4.0676093238e+00 
16500 5.5173006561e+00 -9.0304797154e-03 2.3486056557e+00 -4.0679043226e+00 2.3486056557e+00 4.0679043226e+00 
16600 5.5171622332e+00 -1.0051899171e-02 2.3487979102e+00 -4.0682373172e+00 2.3487979102e+00 4.0682373172e+00 
16700 5.5170229105e+00 -1.1063888633e-02 2.3490118931e+00 -4.0686079465e+00 2.3490118931e+00 4.0686079465e+00 
16800 5.5168826323e+00 -1.2066570884e-02 2.3492473980e+00 -4.0690158528e+00 2.3492473980e+00 4.0690158528e+00 
16900 5.5167413448e+00 -1.3060063644e-02 2.3495042204e+00 -4.0694606824e+00 2.3495042204e+00 4.0694606824e+00 
17000 5.5165989966e+00 -1.4044479655e-02 2.3497821583e+00 -4.0699420848e+00 2.3497821583e+00 4.0699420848e+00 
17100 5.5164555381e+00 -1.5019926768e-02 2.3500810110e+00 -4.0704597130e+00 2.3500810110e+00 4.0704597130e+00 
17200 5.5163109218e+00 -1.5986508026e-02 2.3504005801e+00 -4.0710132230e+00 2.3504005801e+00 4.0710132230e+00 
17300 5.5161651021e+00 -1.6944321760e-02 2.3507406688e+00 -4.0716022739e+00 2.3507406688e+00 4.0716022739e+00 
17400 5.5160180355e+00 -1.7893461681e-02 2.3511010819e+00 -4.0722265277e+00 2.3511010819e+00 4.0722265277e+00 
17500 5.5158696800e+00 -1.8834016975e-02 2.3514816259e+00 -4.0728856491e+00 2.3514816259e+00 4.0728856491e+00 
17600 5.5157199957e+00 -1.9766072405e-02 2.3518821085e+00 -4.0735793053e+00 2.3518821085e+00 4.0735793053e+00 
17700 5.5155689445e+00 -2.0689708408e-02 2.3523023392e+00 -4.0743071663e+00 2.3523023392e+00 4.0743071663e+00 
17800 5.5154164898e+00 -2.1605001203e-02 2.3527421286e+00 -4.0750689038e+00 2.3527421286e+00 4.0750689038e+00 
17900 5.5152625971e+00 -2.2512022892e-02 2.3532012886e+00 -4.0758641924e+00 2.3532012886e+00 4.0758641924e+00 
18000 5.5151072333e+00 -2.3410841572e-02 2.3536796325e+00 -4.0766927082e+00 2.3536796325e+00 4.0766927082e+00 
18100 5.5149503670e+00 -2.4301521441e-02 2.3541769743e+00 -4.0775541294e+00 2.3541769743e+00 4.0775541294e+00 
18200 5.5147919687e+00 -2.5184122911e-02 2.3546931294e+00 -4.0784481363e+00 2.3546931294e+00 4.0784481363e+00 
18300 5.5146320103e+00 -2.6058702722e-02 2.3552279140e+00 -4.0793744105e+00 2.3552279140e+00 4.0793744105e+00 
18400 5.5144704653e+00 -2.6925314052e-02 2.3557811455e+00 -4.0803326355e+00 2.3557811455e+00 4.0803326355e+00 
18500 5.5143073089e+00 -2.7784006638e-02 2.3563526418e+00 -4.0813224961e+00 2.3563526418e+00 4.0813224961e+00 
18600 5.5141425177e+00 -2.8634826888e-02 2.3569422217e+00 -4.0823436785e+00 2.3569422217e+00 4.0823436785e+00 
18700 5.5139760700e+00 -2.9477818004e-02 2.3575497049e+00 -4.0833958703e+00 2.3575497049e+00 4.0833958703e+00 
18800 5.5138079454e+00 -3.0313020097e-02 2.3581749117e+00 -4.0844787601e+00 2.3581749117e+00 4.0844787601e+00 
18900 5.5136381253e+00 -3.1140470308e-02 2.3588176629e+00 -4.0855920379e+00 2.3588176629e+00 4.0855920379e+00 
19000 5.5134665923e+00 -3.1960202929e-02 2.3594777801e+00 -4.0867353945e+00 2.3594777801e+00 4.0867353945e+00 
19100 5.5132933306e+00 -3.2772249524e-02 2.3601550853e+00 -4.0879085215e+00 2.3601550853e+00 4.0879085215e+00 
19200 5.5131183258e+00 -3.3576639047e-02 2.3608494010e+00 -4.0891111116e+00 2.3608494010e+00 4.0891111116e+00 
19300 5.5129415650e+00 -3.4373397969e-02 2.3615605502e+00 -4.0903428582e+00 2.3615605502e+00 4.0903428582e+00 
19400 5.5127630366e+00 -3.5162550393e-02 2.3622883563e+00 -4.0916034553e+00 2.3622883563e+00 4.0916034553e+00 
19500 5.5125827304e+00 -3.5944118182e-02 2.3630326430e+00 -4.0928925977e+00 2.3630326430e+00 4.0928925977e+00 
19600 5.5124006376e+00 -3.6718121073e-02 2.3637932344e+00 -4.0942099806e+00 2.3637932344e+00 4.0942099806e+00 
19700 5.5122167509e+00 -3.7484576803e-02 2.3645699549e+00 -4.0955552999e+00 2.3645699549e+00 4.0955552999e+00 
19800 5.5120310641e+00 -3.8243501226e-02 2.3653626290e+00 -4.0969282518e+00 2.3653626290e+00 4.0969282518e+00 
19900 5.5118435725e+00 -3.8994908436e-02 2.3661710818e+00 -4.0983285331e+00 2.3661710818e+00 4.0983285331e+00 
20000 5.5116542726e+00 -3.9738810878e-02 2.3669951383e+00 -4.0997558407e+00 2.3669951383e+00 4.0997558407e+00 
20100 5.5114631622e+00 -4.0475219474e-02 2.3678346237e+00 -4.1012098722e+00 2.3678346237e+00 4.1012098722e+00 
20200 5.5112702405e+00 -4.1204143732e-02 2.3686893636e+00 -4.1026903251e+00 2.3686893636e+00 4.1026903251e+00 
20300 5.5110755077e+00 -4.1925591867e-02 2.3695591835e+00 -4.1041968974e+00 2.3695591835e+00 4.1041968974e+00 
20400 5.5108789655e+00 -4.2639570907e-02 2.3704439092e+00 -4.1057292873e+00 2.3704439092e+00 4.1057292873e+00 
20500 5.5106806166e+00 -4.3346086813e-02 2.3713433666e+00 -4.1072871932e+00 2.3713433666e+00 4.1072871932e+00 
20600 5.5104804651e+00 -4.4045144582e-02 2.3722573817e+00 -4.1088703137e+00 2.3722573817e+00 4.1088703137e+00 
20700 5.5102785161e+00 -4.4736748358e-02 2.3731857804e+00 -4.1104783475e+00 2.3731857804e+00 4.1104783475e+00 
20800 5.5100747760e+00 -4.5420901539e-02 2.3741283891e+00 -4.1121109936e+00 2.3741283891e+00 4.1121109936e+00 
20900 5.5098692521e+00 -4.6097606879e-02 2.3750850339e+00 -4.1137679509e+00 2.3750850339e+00 4.1137679509e+00 
21000 5.5096619532e+00 -4.6766866591e-02 2.3760555411e+00 -4.1154489188e+00 2.3760555411e+00 4.1154489188e+00 
21100 5.5094528888e+00 -4.7428682442e-02 2.3770397372e+00 -4.1171535965e+00 2.3770397372e+00 4.1171535965e+00 
21200 5.5092420697e+00 -4.8083055859e-02 2.3780374488e+00 -4.1188816836e+00 2.3780374488e+00 4.1188816836e+00 
21300 5.5090295077e+00 -4.8729988011e-02 2.3790485023e+00 -4.1206328796e+00 2.3790485023e+00 4.1206328796e+00 
21400 5.5088152156e+00 -4.9369479913e-02 2.3800727244e+00 -4.1224068844e+00 2.3800727244e+00 4.1224068844e+00 
21500 5.5085992073e+00 -5.0001532502e-02 2.3811099419e+00 -4.1242033978e+00 2.3811099419e+00 4.1242033978e+00 
21600 5.5083814975e+00 -5.0626146734e-02 2.3821599818e+00 -4.1260221202e+00 2.3821599818e+00 4.1260221202e+00 
21700 5.5081621020e+00 -5.1243323660e-02 2.3832226709e+00 -4.1278627517e+00 2.3832226709e+00 4.1278627517e+00 
21800 5.5079410375e+00 -5.1853064508e-02 2.3842978363e+00 -4.1297249929e+00 2.3842978363e+00 4.1297249929e+00 
21900 5.5077183217e+00 -5.2455370757e-02 2.3853853054e+00 -4.1316085446e+00 2.3853853054e+00 4.1316085446e+00 
22000 5.5074939730e+00 -5.3050244216e-02 2.3864849055e+00 -4.1335131079e+00 2.3864849055e+00 4.1335131079e+00 
22100 5.5072680107e+00 -5.3637687090e-02 2.3875964642e+00 -4.1354383840e+00 2.3875964642e+00 4.1354383840e+00 
22200 5.5070404552e+00 -5.4217702046e-02 2.3887198092e+00 -4.1373840746e+00 2.3887198092e+00 4.1373840746e+00 
22300 5.5068113273e+00 -5.4790292282e-02 2.3898547685e+00 -4.1393498817e+00 2.3898547685e+00 4.1393498817e+00 
22400 5.5065806490e+00 -5.5355461583e-02 2.3910011701e+00 -4.1413355077e+00 2.3910011701e+00 4.1413355077e+00 
22500 5.5063484426e+00 -5.5913214377e-02 2.3921588426e+00 -4.1433406552e+00 2.3921588426e+00 4.1433406552e+00 
22600 5.5061147316e+00 -5.6463555794e-02 2.3933276146e+00 -4.1453650277e+00 2.3933276146e+00 4.1453650277e+00 
22700 5.5058795398e+00 -5.7006491713e-02 2.3945073151e+00 -4.1474083288e+00 2.3945073151e+00 4.1474083288e+00 
22800 5.5056428921e+00 -5.7542028806e-02 2.3956977732e+00 -4.1494702627e+00 2.3956977732e+00 4.1494702627e+00 
22900 5.5054048136e+00 -5.8070174589e-02 2.3968988185e+00 -4.1515505343e+00 2.3968988185e+00 4.1515505343e+00 
23000 5.5051653305e+00 -5.8590937456e-02 2.3981102811e+00 -4.1536488490e+00 2.3981102811e+00 4.1536488490e+00 
23100 5.5049244691e+00 -5.9104326718e-02 2.3993319911e+00 -4.1557649129e+00 2.3993319911e+00 4.1557649129e+00 
23200 5.5046822568e+00 -5.9610352637e-02 2.4005637794e+00 -4.1578984328e+00 2.4005637794e+00 4.1578984328e+00 
23300 5.5044387210e+00 -6.0109026457e-02 2.4018054771e+00 -4.1600491162e+00 2.4018054771e+00 4.1600491162e+00 
23400 5.5041938902e+00 -6.0600360428e-02 2.4030569157e+00 -4.1622166715e+00 2.4030569157e+00 4.1622166715e+00 
23500 5.5039477930e+00 -6.1084367833e-02 2.4043179274e+00 -4.1644008078e+00 2.4043179274e+00 4.1644008078e+00 
23600 5.5037004586e+00 -6.1561063010e-02 2.4055883447e+00 -4.1666012352e+00 2.4055883447e+00 4.1666012352e+00 
23700 5.5034519166e+00 -6.2030461364e-02 2.4068680009e+00 -4.1688176646e+00 2.4068680009e+00 4.1688176646e+00 
23800 5.5032021971e+00 -6.2492579390e-02 2.4081567295e+00 -4.1710498081e+00 2.4081567295e+00 4.1710498081e+00 
23900 5.5029513305e+00 -6.2947434676e-02 2.4094543649e+00 -4.1732973785e+00 2.4094543649e+00 4.1732973785e+00 
24000 5.5026993478e+00 -6.3395045920e-02 2.4107607420e+00 -4.1755600900e+00 2.4107607420e+00 4.1755600900e+00 
24100 5.5024462800e+00 -6.3835432931e-02 2.4120756963e+00 -4.1778376577e+00 2.4120756963e+00 4.1778376577e+00 
24200 5.5021921587e+00 -6.4268616634e-02 2.4133990641e+00 -4.1801297980e+00 2.4133990641e+00 4.1801297980e+00 
24300 5.5019370157e+00 -6.4694619072e-02 2.4147306823e+00 -4.1824362284e+00 2.4147306823e+00 4.1824362284e+00 
24400 5.5016808831e+00 -6.5113463403e-02 2.4160703886e+00 -4.1847566677e+00 2.4160703886e+00 4.1847566677e+00 
24500 5.5014237932e+00 -6.5525173897e-02 2.4174180214e+00 -4.1870908362e+00 2.4174180214e+00 4.1870908362e+00 
24600 5.5011657786e+00 -6.5929775929e-02 2.4187734198e+00 -4.1894384551e+00 2.4187734198e+00 4.1894384551e+00 
24700 5.5009068721e+00 -6.6327295970e-02 2.4201364240e+00 -4.1917992476e+00 2.4201364240e+00 4.1917992476e+00 
24800 5.5006471067e+00 -6.6717761578e-02 2.4215068746e+00 -4.1941729378e+00 2.4215068746e+00 4.1941729378e+00 
24900 5.5003865154e+00 -6.7101201386e-02 2.4228846135e+00 -4.1965592515e+00 2.4228846135e+00 4.1965592515e+00 
25000 5.5001251317e+00 -6.7477645082e-02 2.4242694832e+00 -4.1989579162e+00 2.4242694832e+00 4.1989579162e+00 
25100 5.4998629888e+00 -6.7847123399e-02 2.4256613272e+00 -4.2013686607e+00 2.4256613272e+00 4.2013686607e+00 
25200 5.4996001203e+00 -6.8209668094e-02 2.4270599899e+00 -4.2037912155e+00 2.4270599899e+00 4.2037912155e+00 
25300 5.4993365597e+00 -6.8565311928e-02 2.4284653166e+00 -4.2062253128e+00 2.4284653166e+00 4.2062253128e+00 
25400 5.4990723408e+00 -6.8914088647e-02 2.4298771538e+00 -4.2086706865e+00 2.4298771538e+00 4.2086706865e+00 
25500 5.4988074973e+00 -6.9256032956e-02 2.4312953487e+00 -4.2111270721e+00 2.4312953487e+00 4.2111270721e+00 
25600 5.4985420628e+00 -6.9591180498e-02 2.4327197497e+00 -4.2135942070e+00 2.4327197497e+00 4.2135942070e+00 
25700 5.4982760712e+00 -6.9919567829e-02 2.4341502062e+00 -4.2160718304e+00 2.4341502062e+00 4.2160718304e+00 
25800 5.4980095560e+00 -7.0241232388e-02 2.4355865686e+00 -4.2185596831e+00 2.4355865686e+00 4.2185596831e+00 
25900 5.4977425512e+00 -7.0556212477e-02 2.4370286886e+00 -4.2210575081e+00 2.4370286886e+00 4.2210575081e+00 
26000 5.4974750903e+00 -7.0864547227e-02 2.4384764186e+00 -4.2235650501e+00 2.4384764186e+00 4.2235650501e+00 
26100 5.4972072069e+00 -7.1166276573e-02 2.4399296125e+00 -4.2260820558e+00 2.4399296125e+00 4.2260820558e+00 
26200 5.4969389345e+00 -7.1461441221e-02 2.4413881251e+00 -4.2286082737e+00 2.4413881251e+00 4.2286082737e+00 
26300 5.4966703067e+00 -7.1750082622e-02 2.4428518125e+00 -4.2311434545e+00 2.4428518125e+00 4.2311434545e+00 
26400 5.4964013568e+00 -7.2032242942e-02 2.4443205317e+00 -4.2336873508e+00 2.4443205317e+00 4.2336873508e+00 
26500 5.4961321180e+00 -7.2307965026e-02 2.4457941411e+00 -4.2362397172e+00 2.4457941411e+00 4.2362397172e+00 
26600 5.4958626234e+00 -7.2577292374e-02 2.4472725003e+00 -4.2388003104e+00 2.4472725003e+00 4.2388003104e+00 
26700 5.4955929060e+00 -7.2840269105e-02 2.4487554699e+00 -4.2413688892e+00 2.4487554699e+00 4.2413688892e+00 
26800 5.4953229985e+00 -7.3096939927e-02 2.4502429120e+00 -4.2439452144e+00 2.4502429120e+00 4.2439452144e+00 
26900 5.4950529337e+00 -7.3347350106e-02 2.4517346896e+00 -4.2465290491e+00 2.4517346896e+00 4.2465290491e+00 
27000 5.4947827440e+00 -7.3591545436e-02 2.4532306672e+00 -4.2491201583e+00 2.4532306672e+00 4.2491201583e+00 
27100 5.4945124616e+00 -7.3829572204e-02 2.4547307104e+00 -4.2517183094e+00 2.4547307104e+00 4.2517183094e+00 
27200 5.4942421185e+00 -7.4061477165e-02 2.4562346861e+00 -4.2543232717e+00 2.4562346861e+00 4.2543232717e+00 
27300 5.4939717468e+00 -7.4287307506e-02 2.4577424624e+00 -4.2569348168e+00 2.4577424624e+00 4.2569348168e+00 
27400 5.4937013779e+00 -7.4507110815e-02 2.4592539087e+00 -4.2595527187e+00 2.4592539087e+00 4.2595527187e+00 
27500 5.4934310433e+00 -7.4720935058e-02 2.4607688958e+00 -4.2621767532e+00 2.4607688958e+00 4.2621767532e+00 
27600 5.4931607742e+00 -7.4928828541e-02 2.4622872954e+00 -4.2648066985e+00 2.4622872954e+00 4.2648066985e+00 
27700 5.4928906013e+00 -7.5130839885e-02 2.4638089810e+00 -4.2674423352e+00 2.4638089810e+00 4.2674423352e+00 
27800 5.4926205554e+00 -7.5327017999e-02 2.4653338270e+00 -4.2700834459e+00 2.4653338270e+00 4.2700834459e+00 
27900 5.4923506669e+00 -7.5517412048e-02 2.4668617092e+00 -4.2727298155e+00 2.4668617092e+00 4.2727298155e+00 
28000 5.4920809657e+00 -7.5702071426e-02 2.4683925047e+00 -4.2753812311e+00 2.4683925047e+00 4.2753812311e+00 
28100 5.4918114818e+00 -7.5881045732e-02 2.4699260919e+00 -4.2780374821e+00 2.4699260919e+00 4.2780374821e+00 
28200 5.4915422446e+00 -7.6054384741e-02 2.4714623506e+00 -4.2806983602e+00 2.4714623506e+00 4.2806983602e+00 
28300 5.4912732833e+00 -7.6222138381e-02 2.4730011616e+00 -4.2833636591e+00 2.4730011616e+00 4.2833636591e+00 
28400 5.4910046269e+00 -7.6384356706e-02 2.4745424073e+00 -4.2860331750e+00 2.4745424073e+00 4.2860331750e+00 
28500 5.4907363039e+00 -7.6541089870e-02 2.4760859714e+00 -4.2887067063e+00 2.4760859714e+00 4.2887067063e+00 
28600 5.4904683425e+00 -7.6692388111e-02 2.4776317385e+00 -4.2913840536e+00 2.4776317385e+00 4.2913840536e+00 
28700 5.4902007708e+00 -7.6838301721e-02 2.4791795950e+00 -4.2940650197e+00 2.4791795950e+00 4.2940650197e+00 
28800 5.4899336163e+00 -7.6978881028e-02 2.4807294283e+00 -4.2967494097e+00 2.4807294283e+00 4.2967494097e+00 
28900 5.4896669062e+00 -7.7114176375e-02 2.4822811272e+00 -4.2994370309e+00 2.4822811272e+00 4.2994370309e+00 
29000 5.4894006676e+00 -7.7244238097e-02 2.4838345816e+00 -4.3021276930e+00 2.4838345816e+00 4.3021276930e+00 
29100 5.4891349269e+00 -7.7369116508e-02 2.4853896830e+00 -4.3048212076e+00 2.4853896830e+00 4.3048212076e+00 
29200 5.4888697103e+00 -7.7488861874e-02 2.4869463240e+00 -4.3075173888e+00 2.4869463240e+00 4.3075173888e+00 
29300 5.4886050438e+00 -7.7603524404e-02 2.4885043983e+00 -4.3102160528e+00 2.4885043983e+00 4.3102160528e+00 
29400 5.4883409528e+00 -7.7713154228e-02 2.4900638013e+00 -4.3129170180e+00 2.4900638013e+00 4.3129170180e+00 
29500 5.4880774624e+00 -7.7817801382e-02 2.4916244293e+00 -4.3156201050e+00 2.4916244293e+00 4.3156201050e+00 
29600 5.4878145974e+00 -7.7917515794e-02 2.4931861800e+00 -4.3183251366e+00 2.4931861800e+00 4.3183251366e+00 
29700 5.4875523821e+00 -7.8012347268e-02 2.4947489524e+00 -4.3210319377e+00 2.4947489524e+00 4.3210319377e+00 
29800 5.4872908405e+00 -7.8102345474e-02 2.4963126467e+00 -4.3237403356e+00 2.4963126467e+00 4.3237403356e+00 
29900 5.4870299962e+00 -7.8187559929e-02 2.4978771642e+00 -4.3264501594e+00 2.4978771642e+00 4.3264501594e+00 
30000 5.4867698725e+00 -7.8268039994e-02 2.4994424077e+00 -4.3291612407e+00 2.4994424077e+00 4.3291612407e+00 
30100 5.4865104920e+00 -7.8343834853e-02 2.5010082811e+00 -4.3318734129e+00 2.5010082811e+00 4.3318734129e+00 
30200 5.4862518774e+00 -7.8414993510e-02 2.5025746894e+00 -4.3345865118e+00 2.5025746894e+00 4.3345865118e+00 
30300 5.4859940505e+00 -7.8481564777e-02 2.5041415392e+00 -4.3373003752e+00 2.5041415392e+00 4.3373003752e+00 
30400 5.4857370330e+00 -7.8543597264e-02 2.5057087378e+00 -4.3400148429e+00 2.5057087378e+00 4.3400148429e+00 
30500 5.4854808462e+00 -7.8601139371e-02 2.5072761942e+00 -4.3427297569e+00 2.5072761942e+00 4.3427297569e+00 
30600 5.4852255108e+00 -7.8654239281e-02 2.5088438181e+00 -4.3454449612e+00 2.5088438181e+00 4.3454449612e+00 
30700 5.4849710473e+00 -7.8702944955e-02 2.5104115208e+00 -4.3481603019e+00 2.5104115208e+00 4.3481603019e+00 
30800 5.4847174756e+00 -7.8747304121e-02 2.5119792146e+00 -4.3508756272e+00 2.5119792146e+00 4.3508756272e+00 
30900 5.4844648154e+00 -7.8787364272e-02 2.5135468129e+00 -4.3535907872e+00 2.5135468129e+00 4.3535907872e+00 
31000 5.4842130858e+00 -7.8823172661e-02 2.5151142304e+00 -4.3563056340e+00 2.5151142304e+00 4.3563056340e+00 
31100 5.4839623057e+00 -7.8854776293e-02 2.5166813830e+00 -4.3590200218e+00 2.5166813830e+00 4.3590200218e+00 
31200 5.4837124932e+00 -7.8882221925e-02 2.5182481874e+00 -4.3617338067e+00 2.5182481874e+00 4.3617338067e+00 
31300 5.4834636665e+00 -7.8905556060e-02 2.5198145619e+00 -4.3644468469e+00 2.5198145619e+00 4.3644468469e+00 
31400 5.4832158429e+00 -7.8924824944e-02 2.5213804256e+00 -4.3671590023e+00 2.5213804256e+00 4.3671590023e+00 
31500 5.4829690396e+00 -7.8940074567e-02 2.5229456988e+00 -4.3698701351e+00 2.5229456988e+00 4.3698701351e+00 
31600 5.4827232733e+00 -7.8951350656e-02 2.5245103030e+00 -4.3725801090e+00 2.5245103030e+00 4.3725801090e+00 
31700 5.4824785602e+00 -7.8958698675e-02 2.5260741607e+00 -4.3752887900e+00 2.5260741607e+00 4.3752887900e+00 
31800 5.4822349162e+00 -7.8962163826e-02 2.5276371954e+00 -4.3779960456e+00 2.5276371954e+00 4.3779960456e+00 
31900 5.4819923566e+00 -7.8961791044e-02 2.5291993320e+00 -4.3807017456e+00 2.5291993320e+00 4.3807017456e+00 
32000 5.4817508965e+00 -7.8957625001e-02 2.5307604962e+00 -4.3834057613e+00 2.5307604962e+00 4.3834057613e+00 
32100 5.4815105505e+00 -7.8949710103e-02 2.5323206149e+00 -4.3861079660e+00 2.5323206149e+00 4.3861079660e+00 
32200 5.4812713326e+00 -7.8938090489e-02 2.5338796158e+00 -4.3888082348e+00 2.5338796158e+00 4.3888082348e+00 
32300 5.4810332567e+00 -7.8922810036e-02 2.5354374280e+00 -4.3915064448e+00 2.5354374280e+00 4.3915064448e+00 
32400 5.4807963361e+00 -7.8903912353e-02 2.5369939815e+00 -4.3942024745e+00 2.5369939815e+00 4.3942024745e+00 
32500 5.4805605837e+00 -7.8881440789e-02 2.5385492073e+00 -4.3968962046e+00 2.5385492073e+00 4.3968962046e+00 
32600 5.4803260119e+00 -7.8855438429e-02 2.5401030374e+00 -4.3995875172e+00 2.5401030374e+00 4.3995875172e+00 
32700 5.4800926329e+00 -7.8825948096e-02 2.5416554048e+00 -4.4022762965e+00 2.5416554048e+00 4.4022762965e+00 
32800 5.4798604583e+00 -7.8793012355e-02 2.5432062437e+00 -4.4049624281e+00 2.5432062437e+00 4.4049624281e+00 
32900 5.4796294994e+00 -7.8756673513e-02 2.5447554890e+00 -4.4076457997e+00 2.5447554890e+00 4.4076457997e+00 
33000 5.4793997670e+00 -7.8716973619e-02 2.5463030767e+00 -4.4103263004e+00 2.5463030767e+00 4.4103263004e+00 
33100 5.4791712715e+00 -7.8673954470e-02 2.5478489440e+00 -4.4130038211e+00 2.5478489440e+00 4.4130038211e+00 
33200 5.4789440230e+00 -7.8627657610e-02 2.5493930288e+00 -4.4156782544e+00 2.5493930288e+00 4.4156782544e+00 
33300 5.4787180311e+00 -7.8578124332e-02 2.5509352700e+00 -4.4183494945e+00 2.5509352700e+00 4.4183494945e+00 
33400 5.4784933050e+00 -7.8525395681e-02 2.5524756076e+00 -4.4210174374e+00 2.5524756076e+00 4.4210174374e+00 
33500 5.4782698535e+00 -7.8469512458e-02 2.5540139823e+00 -4.4236819805e+00 2.5540139823e+00 4.4236819805e+00 
33600 5.4780476851e+00 -7.8410515219e-02 2.5555503359e+00 -4.4263430231e+00 2.5555503359e+00 4.4263430231e+00 
33700 5.4778268078e+00 -7.8348444280e-02 2.5570846112e+00 -4.4290004659e+00 2.5570846112e+00 4.4290004659e+00 
33800 5.4776072293e+00 -7.8283339716e-02 2.5586167518e+00 -4.4316542112e+00 2.5586167518e+00 4.4316542112e+00 
33900 5.4773889568e+00 -7.8215241368e-02 2.5601467022e+00 -4.4343041631e+00 2.5601467022e+00 4.4343041631e+00 
34000 5.4771719971e+00 -7.8144188843e-02 2.5616744080e+00 -4.4369502270e+00 2.5616744080e+00 4.4369502270e+00 
34100 5.4769563568e+00 -7.8070221514e-02 2.5631998153e+00 -4.4395923100e+00 2.5631998153e+00 4.4395923100e+00 
34200 5.4767420420e+00 -7.7993378526e-02 2.5647228715e+00 -4.4422303208e+00 2.5647228715e+00 4.4422303208e+00 
34300 5.4765290584e+00 -7.7913698796e-02 2.5662435247e+00 -4.4448641694e+00 2.5662435247e+00 4.4448641694e+00 
34400 5.4763174115e+00 -7.7831221018e-02 2.5677617239e+00 -4.4474937675e+00 2.5677617239e+00 4.4474937675e+00 
34500 5.4761071061e+00 -7.7745983660e-02 2.5692774189e+00 -4.4501190282e+00 2.5692774189e+00 4.4501190282e+00 
34600 5.4758981470e+00 -7.7658024973e-02 2.5707905605e+00 -4.4527398663e+00 2.5707905605e+00 4.4527398663e+00 
34700 5.4756905383e+00 -7.7567382986e-02 2.5723011002e+00 -4.4553561979e+00 2.5723011002e+00 4.4553561979e+00 
34800 5.4754842842e+00 -7.7474095512e-02 2.5738089904e+00 -4.4579679404e+00 2.5738089904e+00 4.4579679404e+00 
34900 5.4752793881e+00 -7.7378200151e-02 2.5753141845e+00 -4.4605750131e+00 2.5753141845e+00 4.4605750131e+00 
35000 5.4750758533e+00 -7.7279734288e-02 2.5768166365e+00 -4.4631773363e+00 2.5768166365e+00 4.4631773363e+00 
35100 5.4748736827e+00 -7.7178735098e-02 2.5783163013e+00 -4.4657748319e+00 2.5783163013e+00 4.4657748319e+00 
35200 5.4746728788e+00 -7.7075239545e-02 2.5798131347e+00 -4.4683674234e+00 2.5798131347e+00 4.4683674234e+00 
35300 5.4744734439e+00 -7.6969284384e-02 2.5813070932e+00 -4.4709550353e+00 2.5813070932e+00 4.4709550353e+00 
35400 5.4742753799e+00 -7.6860906167e-02 2.5827981341e+00 -4.4735375939e+00 2.5827981341e+00 4.4735375939e+00 
35500 5.4740786883e+00 -7.6750141236e-02 2.5842862156e+00 -4.4761150267e+00 2.5842862156e+00 4.4761150267e+00 
35600 5.4738833705e+00 -7.6637025732e-02 2.5857712966e+00 -4.4786872624e+00 2.5857712966e+00 4.4786872624e+00 
35700 5.4736894274e+00 -7.6521595590e-02 2.5872533368e+00 -4.4812542314e+00 2.5872533368e+00 4.4812542314e+00 
35800 5.4734968597e+00 -7.6403886544e-02 2.5887322968e+00 -4.4838158652e+00 2.5887322968e+00 4.4838158652e+00 
35900 5.4733056676e+00 -7.6283934128e-02 2.5902081377e+00 -4.4863720966e+00 2.5902081377e+00 4.4863720966e+00 
36000 5.4731158513e+00 -7.6161773673e-02 2.5916808216e+00 -4.4889228600e+00 2.5916808216e+00 4.4889228600e+00 
36100 5.4729274105e+00 -7.6037440311e-02 2.5931503113e+00 -4.4914680909e+00 2.5931503113e+00 4.4914680909e+00 
36200 5.4727403448e+00 -7.5910968975e-02 2.5946165704e+00 -4.4940077260e+00 2.5946165704e+00 4.4940077260e+00 
36300 5.4725546533e+00 -7.5782394398e-02 2.5960795630e+00 -4.4965417036e+00 2.5960795630e+00 4.4965417036e+00 
36400 5.4723703349e+00 -7.5651751115e-02 2.5975392542e+00 -4.4990699629e+00 2.5975392542e+00 4.4990699629e+00 
36500 5.4721873883e+00 -7.5519073462e-02 2.5989956098e+00 -4.5015924448e+00 2.5989956098e+00 4.5015924448e+00 
36600 5.4720058120e+00 -7.5384395577e-02 2.6004485962e+00 -4.5041090911e+00 2.6004485962e+00 4.5041090911e+00 
36700 5.4718256040e+00 -7.5247751400e-02 2.6018981806e+00 -4.5066198449e+00 2.6018981806e+00 4.5066198449e+00 
36800 5.4716467623e+00 -7.5109174670e-02 2.6033443309e+00 -4.5091246507e+00 2.6033443309e+00 4.5091246507e+00 
36900 5.4714692844e+00 -7.4968698932e-02 2.6047870157e+00 -4.5116234542e+00 2.6047870157e+00 4.5116234542e+00 
37000 5.4712931679e+00 -7.4826357527e-02 2.6062262044e+00 -4.5141162020e+00 2.6062262044e+00 4.5141162020e+00 
37100 5.4711184099e+00 -7.4682183599e-02 2.6076618669e+00 -4.5166028424e+00 2.6076618669e+00 4.5166028424e+00 
37200 5.4709450073e+00 -7.4536210093e-02 2.6090939738e+00 -4.5190833244e+00 2.6090939738e+00 4.5190833244e+00 
37300 5.4707729569e+00 -7.4388469752e-02 2.6105224967e+00 -4.5215575986e+00 2.6105224967e+00 4.5215575986e+00 
37400 5.4706022552e+00 -7.4238995118e-02 2.6119474075e+00 -4.5240256164e+00 2.6119474075e+00 4.5240256164e+00 
37500 5.4704328984e+00 -7.4087818532e-02 2.6133686789e+00 -4.5264873307e+00 2.6133686789e+00 4.5264873307e+00 
37600 5.4702648827e+00 -7.3934972132e-02 2.6147862843e+00 -4.5289426953e+00 2.6147862843e+00 4.5289426953e+00 
37700 5.4700982040e+00 -7.3780487851e-02 2.6162001978e+00 -4.5313916653e+00 2.6162001978e+00 4.5313916653e+00 
37800 5.4699328579e+00 -7.3624397420e-02 2.6176103940e+00 -4.5338341968e+00 2.6176103940e+00 4.5338341968e+00 
37900 5.4697688400e+00 -7.3466732363e-02 2.6190168483e+00 -4.5362702470e+00 2.6190168483e+00 4.5362702470e+00 
38000 5.4696061455e+00 -7.3307523998e-02 2.6204195366e+00 -4.5386997745e+00 2.6204195366e+00 4.5386997745e+00 
38100 5.4694447697e+00 -7.3146803434e-02 2.6218184355e+00 -4.5411227385e+00 2.6218184355e+00 4.5411227385e+00 
38200 5.4692847076e+00 -7.2984601573e-02 2.6232135223e+00 -4.5435390997e+00 2.6232135223e+00 4.5435390997e+00 
38300 5.4691259538e+00 -7.2820949105e-02 2.6246047748e+00 -4.5459488198e+00 2.6246047748e+00 4.5459488198e+00 
38400 5.4689685032e+00 -7.2655876509e-02 2.6259921716e+00 -4.5483518614e+00 2.6259921716e+00 4.5483518614e+00 
38500 5.4688123501e+00 -7.2489414053e-02 2.6273756915e+00 -4.5507481883e+00 2.6273756915e+00 4.5507481883e+00 
38600 5.4686574890e+00 -7.2321591788e-02 2.6287553144e+00 -4.5531377653e+00 2.6287553144e+00 4.5531377653e+00 
38700 5.4685039139e+00 -7.2152439551e-02 2.6301310206e+00 -4.5555205582e+00 2.6301310206e+00 4.5555205582e+00 
38800 5.4683516191e+00 -7.1981986961e-02 2.6315027908e+00 -4.5578965339e+00 2.6315027908e+00 4.5578965339e+00 
38900 5.4682005984e+00 -7.1810263420e-02 2.6328706065e+00 -4.5602656603e+00 2.6328706065e+00 4.5602656603e+00 
39000 5.4680508457e+00 -7.1637298108e-02 2.6342344498e+00 -4.5626279062e+00 2.6342344498e+00 4.5626279062e+00 
39100 5.4679023545e+00 -7.1463119986e-02 2.6355943033e+00 -4.5649832415e+00 2.6355943033e+00 4.5649832415e+00 
39200 5.4677551185e+00 -7.1287757790e-02 2.6369501502e+00 -4.5673316371e+00 2.6369501502e+00 4.5673316371e+00 
39300 5.4676091311e+00 -7.1111240033e-02 2.6383019741e+00 -4.5696730648e+00 2.6383019741e+00 4.5696730648e+00 
39400 5.4674643857e+00 -7.0933594999e-02 2.6396497593e+00 -4.5720074974e+00 2.6396497593e+00 4.5720074974e+00 
39500 5.4673208754e+00 -7.0754850748e-02 2.6409934908e+00 -4.5743349086e+00 2.6409934908e+00 4.5743349086e+00 
39600 5.4671785935e+00 -7.0575035110e-02 2.6423331539e+00 -4.5766552731e+00 2.6423331539e+00 4.5766552731e+00 
39700 5.4670375329e+00 -7.0394175683e-02 2.6436687345e+00 -4.5789685665e+00 2.6436687345e+00 4.5789685665e+00 
39800 5.4668976866e+00 -7.0212299834e-02 2.6450002190e+00 -4.5812747654e+00 2.6450002190e+00 4.5812747654e+00 
39900 5.4667590474e+00 -7.0029434696e-02 2.6463275945e+00 -4.5835738471e+00 2.6463275945e+00 4.5835738471e+00 
40000 5.4666216083e+00 -6.9845607167e-02 2.6476508484e+00 -4.5858657902e+00 2.6476508484e+00 4.5858657902e+00 
40100 5.4664853618e+00 -6.9660843909e-02 2.6489699688e+00 -4.5881505737e+00 2.6489699688e+00 4.5881505737e+00 
40200 5.4663503006e+00 -6.9475171346e-02 2.6502849441e+00 -4.5904281778e+00 2.6502849441e+00 4.5904281778e+00 
40300 5.4662164172e+00 -6.9288615660e-02 2.6515957635e+00 -4.5926985835e+00 2.6515957635e+00 4.5926985835e+00 
40400 5.4660837043e+00 -6.9101202797e-02 2.6529024163e+00 -4.5949617726e+00 2.6529024163e+00 4.5949617726e+00 
40500 5.4659521542e+00 -6.8912958456e-02 2.6542048927e+00 -4.5972177278e+00 2.6542048927e+00 4.5972177278e+00 
40600 5.4658217593e+00 -6.8723908096e-02 2.6555031831e+00 -4.5994664327e+00 2.6555031831e+00 4.5994664327e+00 
40700 5.4656925120e+00 -6.8534076930e-02 2.6567972784e+00 -4.6017078716e+00 2.6567972784e+00 4.6017078716e+00 
40800 5.4655644045e+00 -6.8343489925e-02 2.6580871702e+00 -4.6039420297e+00 2.6580871702e+00 4.6039420297e+00 
40900 5.4654374292e+00 -6.8152171801e-02 2.6593728503e+00 -4.6061688930e+00 2.6593728503e+00 4.6061688930e+00 
41000 5.4653115782e+00 -6.7960147029e-02 2.6606543111e+00 -4.6083884483e+00 2.6606543111e+00 4.6083884483e+00 
41100 5.4651868436e+00 -6.7767439832e-02 2.6619315455e+00 -4.6106006830e+00 2.6619315455e+00 4.6106006830e+00 
41200 5.4650632178e+00 -6.7574074181e-02 2.6632045466e+00 -4.6128055857e+00 2.6632045466e+00 4.6128055857e+00 
41300 5.4649406926e+00 -6.7380073796e-02 2.6644733083e+00 -4.6150031454e+00 2.6644733083e+00 4.6150031454e+00 
41400 5.4648192603e+00 -6.7185462146e-02 2.6657378246e+00 -4.6171933519e+00 2.6657378246e+00 4.6171933519e+00 
41500 5.4646989130e+00 -6.6990262445e-02 2.6669980902e+00 -4.6193761959e+00 2.6669980902e+00 4.6193761959e+00 
41600 5.4645796425e+00 -6.6794497652e-02 2.6682541001e+00 -4.6215516688e+00 2.6682541001e+00 4.6215516688e+00 
41700 5.4644614411e+00 -6.6598190474e-02 2.6695058496e+00 -4.6237197626e+00 2.6695058496e+00 4.6237197626e+00 
41800 5.4643443007e+00 -6.6401363359e-02 2.6707533347e+00 -4.6258804702e+00 2.6707533347e+00 4.6258804702e+00 
41900 5.4642282132e+00 -6.6204038501e-02 2.6719965516e+00 -4.6280337850e+00 2.6719965516e+00 4.6280337850e+00 
42000 5.4641131708e+00 -6.6006237836e-02 2.6732354969e+00 -4.6301797012e+00 2.6732354969e+00 4.6301797012e+00 
42100 5.4639991653e+00 -6.5807983042e-02 2.6744701677e+00 -4.6323182137e+00 2.6744701677e+00 4.6323182137e+00 
42200 5.4638861888e+00 -6.5609295541e-02 2.6757005614e+00 -4.6344493182e+00 2.6757005614e+00 4.6344493182e+00 
42300 5.4637742333e+00 -6.5410196494e-02 2.6769266759e+00 -4.6365730108e+00 2.6769266759e+00 4.6365730108e+00 
42400 5.4636632907e+00 -6.5210706804e-02 2.6781485093e+00 -4.6386892883e+00 2.6781485093e+00 4.6386892883e+00 
42500 5.4635533531e+00 -6.5010847116e-02 2.6793660603e+00 -4.6407981484e+00 2.6793660603e+00 4.6407981484e+00 
42600 5.4634444125e+00 -6.4810637815e-02 2.6805793277e+00 -4.6428995892e+00 2.6805793277e+00 4.6428995892e+00 
42700 5.4633364608e+00 -6.4610099026e-02 2.6817883109e+00 -4.6449936096e+00 2.6817883109e+00 4.6449936096e+00 
42800 5.4632294902e+00 -6.4409250615e-02 2.6829930095e+00 -4.6470802088e+00 2.6829930095e+00 4.6470802088e+00 
42900 5.4631234926e+00 -6.4208112188e-02 2.6841934236e+00 -4.6491593869e+00 2.6841934236e+00 4.6491593869e+00 
43000 5.4630184601e+00 -6.4006703092e-02 2.6853895534e+00 -4.6512311446e+00 2.6853895534e+00 4.6512311446e+00 
43100 5.4629143847e+00 -6.3805042414e-02 2.6865813998e+00 -4.6532954831e+00 2.6865813998e+00 4.6532954831e+00 
43200 5.4628112587e+00 -6.3603148983e-02 2.6877689637e+00 -4.6553524041e+00 2.6877689637e+00 4.6553524041e+00 
43300 5.4627090740e+00 -6.3401041366e-02 2.6889522464e+00 -4.6574019099e+00 2.6889522464e+00 4.6574019099e+00 
43400 5.4626078228e+00 -6.3198737875e-02 2.6901312497e+00 -4.6594440036e+00 2.6901312497e+00 4.6594440036e+00 
43500 5.4625074974e+00 -6.2996256560e-02 2.6913059756e+00 -4.6614786884e+00 2.6913059756e+00 4.6614786884e+00 
43600 5.4624080898e+00 -6.2793615216e-02 2.6924764263e+00 -4.6635059686e+00 2.6924764263e+00 4.6635059686e+00 
43700 5.4623095923e+00 -6.2590831380e-02 2.6936426045e+00 -4.6655258484e+00 2.6936426045e+00 4.6655258484e+00 
43800 5.4622119972e+00 -6.2387922331e-02 2.6948045131e+00 -4.6675383331e+00 2.6948045131e+00 4.6675383331e+00 
43900 5.4621152967e+00 -6.2184905091e-02 2.6959621553e+00 -4.6695434282e+00 2.6959621553e+00 4.6695434282e+00 
44000 5.4620194831e+00 -6.1981796429e-02 2.6971155345e+00 -4.6715411397e+00 2.6971155345e+00 4.6715411397e+00 
44100 5.4619245489e+00 -6.1778612859e-02 2.6982646547e+00 -4.6735314741e+00 2.6982646547e+00 4.6735314741e+00 
44200 5.4618304863e+00 -6.1575370638e-02 2.6994095197e+00 -4.6755144386e+00 2.6994095197e+00 4.6755144386e+00 
44300 5.4617372878e+00 -6.1372085773e-02 2.7005501341e+00 -4.6774900406e+00 2.7005501341e+00 4.6774900406e+00 
44400 5.4616449458e+00 -6.1168774018e-02 2.7016865023e+00 -4.6794582881e+00 2.7016865023e+00 4.6794582881e+00 
44500 5.4615534529e+00 -6.0965450874e-02 2.7028186293e+00 -4.6814191896e+00 2.7028186293e+00 4.6814191896e+00 
44600 5.4614628016e+00 -6.0762131596e-02 2.7039465202e+00 -4.6833727539e+00 2.7039465202e+00 4.6833727539e+00 
44700 5.4613729844e+00 -6.0558831185e-02 2.7050701803e+00 -4.6853189903e+00 2.7050701803e+00 4.6853189903e+00 
44800 5.4612839939e+00 -6.0355564398e-02 2.7061896153e+00 -4.6872579087e+00 2.7061896153e+00 4.6872579087e+00 
44900 5.4611958229e+00 -6.0152345745e-02 2.7073048311e+00 -4.6891895191e+00 2.7073048311e+00 4.6891895191e+00 
45000 5.4611084640e+00 -5.9949189487e-02 2.7084158338e+00 -4.6911138322e+00 2.7084158338e+00 4.6911138322e+00 
45100 5.4610219099e+00 -5.9746109646e-02 2.7095226297e+00 -4.6930308589e+00 2.7095226297e+00 4.6930308589e+00 
45200 5.4609361535e+00 -5.9543119999e-02 2.7106252254e+00 -4.6949406106e+00 2.7106252254e+00 4.6949406106e+00 
45300 5.4608511875e+00 -5.9340234081e-02 2.7117236277e+00 -4.6968430992e+00 2.7117236277e+00 4.6968430992e+00 
45400 5.4607670049e+00 -5.9137465188e-02 2.7128178436e+00 -4.6987383368e+00 2.7128178436e+00 4.6987383368e+00 
45500 5.4606835986e+00 -5.8934826379e-02 2.7139078804e+00 -4.7006263358e+00 2.7139078804e+00 4.7006263358e+00 
45600 5.4606009615e+00 -5.8732330475e-02 2.7149937454e+00 -4.7025071093e+00 2.7149937454e+00 4.7025071093e+00 
45700 5.4605190866e+00 -5.8529990062e-02 2.7160754464e+00 -4.7043806704e+00 2.7160754464e+00 4.7043806704e+00 
45800 5.4604379670e+00 -5.8327817493e-02 2.7171529912e+00 -4.7062470327e+00 2.7171529912e+00 4.7062470327e+00 
45900 5.4603575959e+00 -5.8125824891e-02 2.7182263878e+00 -4.7081062101e+00 2.7182263878e+00 4.7081062101e+00 
46000 5.4602779664e+00 -5.7924024145e-02 2.7192956445e+00 -4.7099582170e+00 2.7192956445e+00 4.7099582170e+00 
46100 5.4601990716e+00 -5.7722426920e-02 2.7203607696e+00 -4.7118030679e+00 2.7203607696e+00 4.7118030679e+00 
46200 5.4601209049e+00 -5.7521044652e-02 2.7214217719e+00 -4.7136407777e+00 2.7214217719e+00 4.7136407777e+00 
46300 5.4600434595e+00 -5.7319888555e-02 2.7224786600e+00 -4.7154713616e+00 2.7224786600e+00 4.7154713616e+00 
46400 5.4599667288e+00 -5.7118969617e-02 2.7235314429e+00 -4.7172948351e+00 2.7235314429e+00 4.7172948351e+00 
46500 5.4598907062e+00 -5.6918298609e-02 2.7245801298e+00 -4.7191112141e+00 2.7245801298e+00 4.7191112141e+00 
46600 5.4598153852e+00 -5.6717886082e-02 2.7256247299e+00 -4.7209205145e+00 2.7256247299e+00 4.7209205145e+00 
46700 5.4597407592e+00 -5.6517742368e-02 2.7266652527e+00 -4.7227227529e+00 2.7266652527e+00 4.7227227529e+00 
46800 5.4596668218e+00 -5.6317877588e-02 2.7277017078e+00 -4.7245179457e+00 2.7277017078e+00 4.7245179457e+00 
46900 5.4595935666e+00 -5.6118301647e-02 2.7287341049e+00 -4.7263061100e+00 2.7287341049e+00 4.7263061100e+00 
47000 5.4595209873e+00 -5.5919024243e-02 2.7297624540e+00 -4.7280872629e+00 2.7297624540e+00 4.7280872629e+00 
47100 5.4594490776e+00 -5.5720054861e-02 2.7307867651e+00 -4.7298614218e+00 2.7307867651e+00 4.7298614218e+00 
47200 5.4593778312e+00 -5.5521402784e-02 2.7318070484e+00 -4.7316286043e+00 2.7318070484e+00 4.7316286043e+00 
47300 5.4593072419e+00 -5.5323077088e-02 2.7328233142e+00 -4.7333888284e+00 2.7328233142e+00 4.7333888284e+00 
47400 5.4592373035e+00 -5.5125086648e-02 2.7338355731e+00 -4.7351421121e+00 2.7338355731e+00 4.7351421121e+00 
47500 5.4591680101e+00 -5.4927440138e-02 2.7348438355e+00 -4.7368884739e+00 2.7348438355e+00 4.7368884739e+00 
47600 5.4590993554e+00 -5.4730146036e-02 2.7358481122e+00 -4.7386279322e+00 2.7358481122e+00 4.7386279322e+00 
47700 5.4590313336e+00 -5.4533212623e-02 2.7368484141e+00 -4.7403605058e+00 2.7368484141e+00 4.7403605058e+00 
47800 5.4589639387e+00 -5.4336647987e-02 2.7378447521e+00 -4.7420862138e+00 2.7378447521e+00 4.7420862138e+00 
47900 5.4588971647e+00 -5.4140460024e-02 2.7388371372e+00 -4.7438050753e+00 2.7388371372e+00 4.7438050753e+00 
48000 5.4588310059e+00 -5.3944656444e-02 2.7398255807e+00 -4.7455171097e+00 2.7398255807e+00 4.7455171097e+00 
48100 5.4587654564e+00 -5.3749244768e-02 2.7408100939e+00 -4.7472223365e+00 2.7408100939e+00 4.7472223365e+00 
48200 5.4587005105e+00 -5.3554232333e-02 2.7417906880e+00 -4.7489207754e+00 2.7417906880e+00 4.7489207754e+00 
48300 5.4586361625e+00 -5.3359626293e-02 2.7427673747e+00 -4.7506124464e+00 2.7427673747e+00 4.7506124464e+00 
48400 5.4585724067e+00 -5.3165433626e-02 2.7437401656e+00 -4.7522973696e+00 2.7437401656e+00 4.7522973696e+00 
48500 5.4585092376e+00 -5.2971661129e-02 2.7447090722e+00 -4.7539755651e+00 2.7447090722e+00 4.7539755651e+00 
48600 5.4584466495e+00 -5.2778315424e-02 2.7456741065e+00 -4.7556470534e+00 2.7456741065e+00 4.7556470534e+00 
48700 5.4583846370e+00 -5.2585402961e-02 2.7466352801e+00 -4.7573118550e+00 2.7466352801e+00 4.7573118550e+00 
48800 5.4583231946e+00 -5.2392930021e-02 2.7475926052e+00 -4.7589699907e+00 2.7475926052e+00 4.7589699907e+00 
48900 5.4582623169e+00 -5.2200902714e-02 2.7485460937e+00 -4.7606214812e+00 2.7485460937e+00 4.7606214812e+00 
49000 5.4582019986e+00 -5.2009326985e-02 2.7494957577e+00 -4.7622663476e+00 2.7494957577e+00 4.7622663476e+00 
49100 5.4581422343e+00 -5.1818208615e-02 2.7504416095e+00 -4.7639046109e+00 2.7504416095e+00 4.7639046109e+00 
49200 5.4580830187e+00 -5.1627553225e-02 2.7513836612e+00 -4.7655362924e+00 2.7513836612e+00 4.7655362924e+00 
49300 5.4580243467e+00 -5.1437366277e-02 2.7523219252e+00 -4.7671614133e+00 2.7523219252e+00 4.7671614133e+00 
49400 5.4579662131e+00 -5.1247653073e-02 2.7532564140e+00 -4.7687799953e+00 2.7532564140e+00 4.7687799953e+00 
49500 5.4579086127e+00 -5.1058418764e-02 2.7541871398e+00 -4.7703920598e+00 2.7541871398e+00 4.7703920598e+00 
49600 5.4578515404e+00 -5.0869668347e-02 2.7551141154e+00 -4.7719976285e+00 2.7551141154e+00 4.7719976285e+00 
49700 5.4577949913e+00 -5.0681406670e-02 2.7560373531e+00 -4.7735967232e+00 2.7560373531e+00 4.7735967232e+00 
49800 5.4577389603e+00 -5.0493638433e-02 2.7569568658e+00 -4.7751893658e+00 2.7569568658e+00 4.7751893658e+00 
49900 5.4576834425e+00 -5.0306368191e-02 2.7578726660e+00 -4.7767755783e+00 2.7578726660e+00 4.7767755783e+00 
50000 5.4576284330e+00 -5.0119600355e-02 2.7587847665e+00 -4.7783553827e+00 2.7587847665e+00 4.7783553827e+00 
50100 5.4575739270e+00 -4.9933339195e-02 2.7596931800e+00 -4.7799288011e+00 2.7596931800e+00 4.7799288011e+00 
50200 5.4575199195e+00 -4.9747588843e-02 2.7605979195e+00 -4.7814958558e+00 2.7605979195e+00 4.7814958558e+00 
50300 5.4574664060e+00 -4.9562353294e-02 2.7614989977e+00 -4.7830565691e+00 2.7614989977e+00 4.7830565691e+00 
50400 5.4574133815e+00 -4.9377636411e-02 2.7623964277e+00 -4.7846109633e+00 2.7623964277e+00 4.7846109633e+00 
50500 5.4573608415e+00 -4.9193441921e-02 2.7632902222e+00 -4.7861590609e+00 2.7632902222e+00 4.7861590609e+00 
50600 5.4573087814e+00 -4.9009773424e-02 2.7641803944e+00 -4.7877008844e+00 2.7641803944e+00 4.7877008844e+00 
50700 5.4572571965e+00 -4.8826634391e-02 2.7650669572e+00 -4.7892364563e+00 2.7650669572e+00 4.7892364563e+00 
50800 5.4572060823e+00 -4.8644028169e-02 2.7659499238e+00 -4.7907657992e+00 2.7659499238e+00 4.7907657992e+00 
50900 5.4571554342e+00 -4.8461957980e-02 2.7668293071e+00 -4.7922889358e+00 2.7668293071e+00 4.7922889358e+00 
51000 5.4571052479e+00 -4.8280426925e-02 2.7677051203e+00 -4.7938058888e+00 2.7677051203e+00 4.7938058888e+00 
51100 5.4570555188e+00 -4.8099437987e-02 2.7685773766e+00 -4.7953166809e+00 2.7685773766e+00 4.7953166809e+00 
51200 5.4570062426e+00 -4.7918994029e-02 2.7694460890e+00 -4.7968213350e+00 2.7694460890e+00 4.7968213350e+00 
51300 5.4569574150e+00 -4.7739097804e-02 2.7703112708e+00 -4.7983198739e+00 2.7703112708e+00 4.7983198739e+00 
51400 5.4569090317e+00 -4.7559751947e-02 2.7711729352e+00 -4.7998123204e+00 2.7711729352e+00 4.7998123204e+00 
51500 5.4568610883e+00 -4.7380958984e-02 2.7720310954e+00 -4.8012986974e+00 2.7720310954e+00 4.8012986974e+00 
51600 5.4568135808e+00 -4.7202721333e-02 2.7728857646e+00 -4.8027790279e+00 2.7728857646e+00 4.8027790279e+00 
51700 5.4567665048e+00 -4.7025041305e-02 2.7737369561e+00 -4.8042533349e+00 2.7737369561e+00 4.8042533349e+00 
51800 5.4567198563e+00 -4.6847921104e-02 2.7745846832e+00 -4.8057216411e+00 2.7745846832e+00 4.8057216411e+00 
51900 5.4566736311e+00 -4.6671362834e-02 2.7754289590e+00 -4.8071839698e+00 2.7754289590e+00 4.8071839698e+00 
52000 5.4566278252e+00 -4.6495368495e-02 2.7762697969e+00 -4.8086403438e+00 2.7762697969e+00 4.8086403438e+00 
52100 5.4565824346e+00 -4.6319939990e-02 2.7771072102e+00 -4.8100907862e+00 2.7771072102e+00 4.8100907862e+00 
52200 5.4565374552e+00 -4.6145079125e-02 2.7779412122e+00 -4.8115353200e+00 2.7779412122e+00 4.8115353200e+00 
52300 5.4564928832e+00 -4.5970787609e-02 2.7787718161e+00 -4.8129739682e+00 2.7787718161e+00 4.8129739682e+00 
52400 5.4564487146e+00 -4.5797067060e-02 2.7795990353e+00 -4.8144067538e+00 2.7795990353e+00 4.8144067538e+00 
52500 5.4564049455e+00 -4.5623919000e-02 2.7804228831e+00 -4.8158337000e+00 2.7804228831e+00 4.8158337000e+00 
52600 5.4563615721e+00 -4.5451344867e-02 2.7812433727e+00 -4.8172548297e+00 2.7812433727e+00 4.8172548297e+00 
52700 5.4563185906e+00 -4.5279346007e-02 2.7820605175e+00 -4.8186701660e+00 2.7820605175e+00 4.8186701660e+00 
52800 5.4562759972e+00 -4.5107923681e-02 2.7828743307e+00 -4.8200797318e+00 2.7828743307e+00 4.8200797318e+00 
52900 5.4562337882e+00 -4.4937079066e-02 2.7836848257e+00 -4.8214835503e+00 2.7836848257e+00 4.8214835503e+00 
53000 5.4561919599e+00 -4.4766813255e-02 2.7844920156e+00 -4.8228816444e+00 2.7844920156e+00 4.8228816444e+00 
53100 5.4561505087e+00 -4.4597127261e-02 2.7852959139e+00 -4.8242740370e+00 2.7852959139e+00 4.8242740370e+00 
53200 5.4561094309e+00 -4.4428022018e-02 2.7860965337e+00 -4.8256607512e+00 2.7860965337e+00 4.8256607512e+00 
53300 5.4560687229e+00 -4.4259498381e-02 2.7868938884e+00 -4.8270418100e+00 2.7868938884e+00 4.8270418100e+00 
53400 5.4560283811e+00 -4.4091557130e-02 2.7876879911e+00 -4.8284172362e+00 2.7876879911e+00 4.8284172362e+00 
53500 5.4559884022e+00 -4.3924198971e-02 2.7884788551e+00 -4.8297870529e+00 2.7884788551e+00 4.8297870529e+00 
53600 5.4559487825e+00 -4.3757424536e-02 2.7892664936e+00 -4.8311512828e+00 2.7892664936e+00 4.8311512828e+00 
53700 5.4559095186e+00 -4.3591234387e-02 2.7900509198e+00 -4.8325099488e+00 2.7900509198e+00 4.8325099488e+00 
53800 5.4558706071e+00 -4.3425629015e-02 2.7908321469e+00 -4.8338630739e+00 2.7908321469e+00 4.8338630739e+00 
53900 5.4558320446e+00 -4.3260608844e-02 2.7916101881e+00 -4.8352106807e+00 2.7916101881e+00 4.8352106807e+00 
54000 5.4557938277e+00 -4.3096174231e-02 2.7923850565e+00 -4.8365527921e+00 2.7923850565e+00 4.8365527921e+00 
54100 5.4557559532e+00 -4.2932325468e-02 2.7931567652e+00 -4.8378894308e+00 2.7931567652e+00 4.8378894308e+00 
54200 5.4557184177e+00 -4.2769062783e-02 2.7939253274e+00 -4.8392206196e+00 2.7939253274e+00 4.8392206196e+00 
54300 5.4556812180e+00 -4.2606386342e-02 2.7946907561e+00 -4.8405463811e+00 2.7946907561e+00 4.8405463811e+00 
54400 5.4556443509e+00 -4.2444296251e-02 2.7954530645e+00 -4.8418667379e+00 2.7954530645e+00 4.8418667379e+00 
54500 5.4556078131e+00 -4.2282792554e-02 2.7962122655e+00 -4.8431817126e+00 2.7962122655e+00 4.8431817126e+00 
54600 5.4555716015e+00 -4.2121875241e-02 2.7969683722e+00 -4.8444913279e+00 2.7969683722e+00 4.8444913279e+00 
54700 5.4555357130e+00 -4.1961544243e-02 2.7977213976e+00 -4.8457956061e+00 2.7977213976e+00 4.8457956061e+00 
54800 5.4555001444e+00 -4.1801799434e-02 2.7984713547e+00 -4.8470945699e+00 2.7984713547e+00 4.8470945699e+00 
54900 5.4554648926e+00 -4.1642640638e-02 2.7992182564e+00 -4.8483882415e+00 2.7992182564e+00 4.8483882415e+00 
55000 5.4554299548e+00 -4.1484067623e-02 2.7999621156e+00 -4.8496766434e+00 2.7999621156e+00 4.8496766434e+00 
55100 5.4553953277e+00 -4.1326080106e-02 2.8007029452e+00 -4.8509597979e+00 2.8007029452e+00 4.8509597979e+00 
55200 5.4553610085e+00 -4.1168677757e-02 2.8014407580e+00 -4.8522377273e+00 2.8014407580e+00 4.8522377273e+00 
55300 5.4553269942e+00 -4.1011860192e-02 2.8021755670e+00 -4.8535104538e+00 2.8021755670e+00 4.8535104538e+00 
55400 5.4552932818e+00 -4.0855626984e-02 2.8029073849e+00 -4.8547779996e+00 2.8029073849e+00 4.8547779996e+00 
55500 5.4552598684e+00 -4.0699977656e-02 2.8036362245e+00 -4.8560403868e+00 2.8036362245e+00 4.8560403868e+00 
55600 5.4552267513e+00 -4.0544911686e-02 2.8043620985e+00 -4.8572976375e+00 2.8043620985e+00 4.8572976375e+00 
55700 5.4551939275e+00 -4.0390428511e-02 2.8050850197e+00 -4.8585497736e+00 2.8050850197e+00 4.8585497736e+00 
55800 5.4551613942e+00 -4.0236527522e-02 2.8058050006e+00 -4.8597968172e+00 2.8058050006e+00 4.8597968172e+00 
55900 5.4551291487e+00 -4.0083208067e-02 2.8065220540e+00 -4.8610387901e+00 2.8065220540e+00 4.8610387901e+00 
56000 5.4550971881e+00 -3.9930469455e-02 2.8072361925e+00 -4.8622757143e+00 2.8072361925e+00 4.8622757143e+00 
56100 5.4550655098e+00 -3.9778310957e-02 2.8079474286e+00 -4.8635076113e+00 2.8079474286e+00 4.8635076113e+00 
56200 5.4550341111e+00 -3.9626731800e-02 2.8086557749e+00 -4.8647345031e+00 2.8086557749e+00 4.8647345031e+00 
56300 5.4550029892e+00 -3.9475731178e-02 2.8093612439e+00 -4.8659564112e+00 2.8093612439e+00 4.8659564112e+00 
56400 5.4549721415e+00 -3.9325308246e-02 2.8100638480e+00 -4.8671733573e+00 2.8100638480e+00 4.8671733573e+00 
56500 5.4549415654e+00 -3.9175462124e-02 2.8107635997e+00 -4.8683853628e+00 2.8107635997e+00 4.8683853628e+00 
56600 5.4549112583e+00 -3.9026191896e-02 2.8114605114e+00 -4.8695924492e+00 2.8114605114e+00 4.8695924492e+00 
56700 5.4548812176e+00 -3.8877496614e-02 2.8121545955e+00 -4.8707946381e+00 2.8121545955e+00 4.8707946381e+00 
56800 5.4548514408e+00 -3.8729375296e-02 2.8128458642e+00 -4.8719919506e+00 2.8128458642e+00 4.8719919506e+00 
56900 5.4548219253e+00 -3.8581826928e-02 2.8135343298e+00 -4.8731844080e+00 2.8135343298e+00 4.8731844080e+00 
57000 5.4547926686e+00 -3.8434850464e-02 2.8142200046e+00 -4.8743720317e+00 2.8142200046e+00 4.8743720317e+00 
57100 5.4547636683e+00 -3.8288444831e-02 2.8149029009e+00 -4.8755548427e+00 2.8149029009e+00 4.8755548427e+00 
57200 5.4547349219e+00 -3.8142608924e-02 2.8155830306e+00 -4.8767328620e+00 2.8155830306e+00 4.8767328620e+00 
57300 5.4547064270e+00 -3.7997341609e-02 2.8162604061e+00 -4.8779061107e+00 2.8162604061e+00 4.8779061107e+00 
57400 5.4546781812e+00 -3.7852641726e-02 2.8169350394e+00 -4.8790746098e+00 2.8169350394e+00 4.8790746098e+00 
57500 5.4546501820e+00 -3.7708508088e-02 2.8176069424e+00 -4.8802383801e+00 2.8176069424e+00 4.8802383801e+00 
57600 5.4546224272e+00 -3.7564939482e-02 2.8182761273e+00 -4.8813974423e+00 2.8182761273e+00 4.8813974423e+00 
57700 5.4545949145e+00 -3.7421934668e-02 2.8189426060e+00 -4.8825518173e+00 2.8189426060e+00 4.8825518173e+00 
57800 5.4545676414e+00 -3.7279492384e-02 2.8196063904e+00 -4.8837015256e+00 2.8196063904e+00 4.8837015256e+00 
57900 5.4545406057e+00 -3.7137611343e-02 2.8202674924e+00 -4.8848465878e+00 2.8202674924e+00 4.8848465878e+00 
58000 5.4545138052e+00 -3.6996290236e-02 2.8209259239e+00 -4.8859870246e+00 2.8209259239e+00 4.8859870246e+00 
58100 5.4544872376e+00 -3.6855527729e-02 2.8215816966e+00 -4.8871228562e+00 2.8215816966e+00 4.8871228562e+00 
58200 5.4544609007e+00 -3.6715322470e-02 2.8222348222e+00 -4.8882541030e+00 2.8222348222e+00 4.8882541030e+00 
58300 5.4544347923e+00 -3.6575673084e-02 2.8228853126e+00 -4.8893807854e+00 2.8228853126e+00 4.8893807854e+00 
58400 5.4544089102e+00 -3.6436578177e-02 2.8235331794e+00 -4.8905029236e+00 2.8235331794e+00 4.8905029236e+00 
58500 5.4543832523e+00 -3.6298036334e-02 2.8241784342e+00 -4.8916205376e+00 2.8241784342e+00 4.8916205376e+00 
58600 5.4543578165e+00 -3.6160046123e-02 2.8248210886e+00 -4.8927336477e+00 2.8248210886e+00 4.8927336477e+00 
58700 5.4543326005e+00 -3.6022606092e-02 2.8254611541e+00 -4.8938422737e+00 2.8254611541e+00 4.8938422737e+00 
58800 5.4543076024e+00 -3.5885714773e-02 2.8260986422e+00 -4.8949464355e+00 2.8260986422e+00 4.8949464355e+00 
58900 5.4542828201e+00 -3.5749370679e-02 2.8267335645e+00 -4.8960461531e+00 2.8267335645e+00 4.8960461531e+00 
59000 5.4542582514e+00 -3.5613572309e-02 2.8273659322e+00 -4.8971414462e+00 2.8273659322e+00 4.8971414462e+00 
59100 5.4542338945e+00 -3.5478318144e-02 2.8279957569e+00 -4.8982323345e+00 2.8279957569e+00 4.8982323345e+00 
59200 5.4542097473e+00 -3.5343606652e-02 2.8286230497e+00 -4.8993188375e+00 2.8286230497e+00 4.8993188375e+00 
59300 5.4541858077e+00 -3.5209436284e-02 2.8292478220e+00 -4.9004009749e+00 2.8292478220e+00 4.9004009749e+00 
59400 5.4541620739e+00 -3.5075805478e-02 2.8298700850e+00 -4.9014787661e+00 2.8298700850e+00 4.9014787661e+00 
59500 5.4541385438e+00 -3.4942712659e-02 2.8304898500e+00 -4.9025522305e+00 2.8304898500e+00 4.9025522305e+00 
59600 5.4541152156e+00 -3.4810156238e-02 2.8311071280e+00 -4.9036213874e+00 2.8311071280e+00 4.9036213874e+00 
59700 5.4540920874e+00 -3.4678134614e-02 2.8317219302e+00 -4.9046862559e+00 2.8317219302e+00 4.9046862559e+00 
59800 5.4540691572e+00 -3.4546646172e-02 2.8323342675e+00 -4.9057468554e+00 2.8323342675e+00 4.9057468554e+00 
59900 5.4540464232e+00 -3.4415689289e-02 2.8329441512e+00 -4.9068032048e+00 2.8329441512e+00 4.9068032048e+00 
60000 5.4540238835e+00 -3.4285262327e-02 2.8335515920e+00 -4.9078553232e+00 2.8335515920e+00 4.9078553232e+00 
60100 5.4540015363e+00 -3.4155363642e-02 2.8341566010e+00 -4.9089032295e+00 2.8341566010e+00 4.9089032295e+00 
60200 5.4539793798e+00 -3.4025991574e-02 2.8347591889e+00 -4.9099469425e+00 2.8347591889e+00 4.9099469425e+00 
60300 5.4539574121e+00 -3.3897144458e-02 2.8353593668e+00 -4.9109864809e+00 2.8353593668e+00 4.9109864809e+00 
60400 5.4539356316e+00 -3.3768820618e-02 2.8359571452e+00 -4.9120218636e+00 2.8359571452e+00 4.9120218636e+00 
60500 5.4539140364e+00 -3.3641018368e-02 2.8365525351e+00 -4.9130531091e+00 2.8365525351e+00 4.9130531091e+00 
60600 5.4538926247e+00 -3.3513736016e-02 2.8371455470e+00 -4.9140802359e+00 2.8371455470e+00 4.9140802359e+00 
60700 5.4538713950e+00 -3.3386971860e-02 2.8377361917e+00 -4.9151032625e+00 2.8377361917e+00 4.9151032625e+00 
60800 5.4538503454e+00 -3.3260724190e-02 2.8383244797e+00 -4.9161222072e+00 2.8383244797e+00 4.9161222072e+00 
60900 5.4538294743e+00 -3.3134991292e-02 2.8389104217e+00 -4.9171370885e+00 2.8389104217e+00 4.9171370885e+00 
61000 5.4538087799e+00 -3.3009771440e-02 2.8394940281e+00 -4.9181479244e+00 2.8394940281e+00 4.9181479244e+00 
61100 5.4537882607e+00 -3.2885062905e-02 2.8400753094e+00 -4.9191547332e+00 2.8400753094e+00 4.9191547332e+00 
61200 5.4537679150e+00 -3.2760863951e-02 2.8406542761e+00 -4.9201575330e+00 2.8406542761e+00 4.9201575330e+00 
61300 5.4537477411e+00 -3.2637172836e-02 2.8412309385e+00 -4.9211563416e+00 2.8412309385e+00 4.9211563416e+00 
61400 5.4537277375e+00 -3.2513987814e-02 2.8418053071e+00 -4.9221511771e+00 2.8418053071e+00 4.9221511771e+00 
61500 5.4537079026e+00 -3.2391307130e-02 2.8423773920e+00 -4.9231420572e+00 2.8423773920e+00 4.9231420572e+00 
61600 5.4536882347e+00 -3.2269129028e-02 2.8429472035e+00 -4.9241289997e+00 2.8429472035e+00 4.9241289997e+00 
61700 5.4536687323e+00 -3.2147451745e-02 2.8435147519e+00 -4.9251120224e+00 2.8435147519e+00 4.9251120224e+00 
61800 5.4536493940e+00 -3.2026273516e-02 2.8440800473e+00 -4.9260911428e+00 2.8440800473e+00 4.9260911428e+00 
61900 5.4536302180e+00 -3.1905592571e-02 2.8446430999e+00 -4.9270663784e+00 2.8446430999e+00 4.9270663784e+00 
62000 5.4536112030e+00 -3.1785407135e-02 2.8452039196e+00 -4.9280377467e+00 2.8452039196e+00 4.9280377467e+00 
62100 5.4535923475e+00 -3.1665715432e-02 2.8457625166e+00 -4.9290052650e+00 2.8457625166e+00 4.9290052650e+00 
62200 5.4535736498e+00 -3.1546515681e-02 2.8463189008e+00 -4.9299689508e+00 2.8463189008e+00 4.9299689508e+00 
62300 5.4535551087e+00 -3.1427806099e-02 2.8468730822e+00 -4.9309288211e+00 2.8468730822e+00 4.9309288211e+00 
62400 5.4535367226e+00 -3.1309584902e-02 2.8474250707e+00 -4.9318848931e+00 2.8474250707e+00 4.9318848931e+00 
62500 5.4535184900e+00 -3.1191850301e-02 2.8479748760e+00 -4.9328371840e+00 2.8479748760e+00 4.9328371840e+00 
62600 5.4535004096e+00 -3.1074600506e-02 2.8485225082e+00 -4.9337857106e+00 2.8485225082e+00 4.9337857106e+00 
62700 5.4534824799e+00 -3.0957833726e-02 2.8490679768e+00 -4.9347304900e+00 2.8490679768e+00 4.9347304900e+00 
62800 5.4534646996e+00 -3.0841548169e-02 2.8496112916e+00 -4.9356715388e+00 2.8496112916e+00 4.9356715388e+00 
62900 5.4534470673e+00 -3.0725742039e-02 2.8501524623e+00 -4.9366088740e+00 2.8501524623e+00 4.9366088740e+00 
63000 5.4534295815e+00 -3.0610413541e-02 2.8506914986e+00 -4.9375425122e+00 2.8506914986e+00 4.9375425122e+00 
63100 5.4534122410e+00 -3.0495560879e-02 2.8512284099e+00 -4.9384724700e+00 2.8512284099e+00 4.9384724700e+00 
63200 5.4533950443e+00 -3.0381182256e-02 2.8517632060e+00 -4.9393987639e+00 2.8517632060e+00 4.9393987639e+00 
63300 5.4533779902e+00 -3.0267275875e-02 2.8522958962e+00 -4.9403214105e+00 2.8522958962e+00 4.9403214105e+00 
63400 5.4533610774e+00 -3.0153839939e-02 2.8528264901e+00 -4.9412404260e+00 2.8528264901e+00 4.9412404260e+00 
63500 5.4533443045e+00 -3.0040872649e-02 2.8533549970e+00 -4.9421558269e+00 2.8533549970e+00 4.9421558269e+00 
63600 5.4533276703e+00 -2.9928372208e-02 2.8538814264e+00 -4.9430676292e+00 2.8538814264e+00 4.9430676292e+00 
63700 5.4533111734e+00 -2.9816336819e-02 2.8544057875e+00 -4.9439758493e+00 2.8544057875e+00 4.9439758493e+00 
63800 5.4532948127e+00 -2.9704764686e-02 2.8549280896e+00 -4.9448805032e+00 2.8549280896e+00 4.9448805032e+00 
63900 5.4532785868e+00 -2.9593654012e-02 2.8554483421e+00 -4.9457816069e+00 2.8554483421e+00 4.9457816069e+00 
64000 5.4532624945e+00 -2.9483003004e-02 2.8559665540e+00 -4.9466791763e+00 2.8559665540e+00 4.9466791763e+00 
64100 5.4532465347e+00 -2.9372809866e-02 2.8564827346e+00 -4.9475732273e+00 2.8564827346e+00 4.9475732273e+00 
64200 5.4532307060e+00 -2.9263072807e-02 2.8569968930e+00 -4.9484637758e+00 2.8569968930e+00 4.9484637758e+00 
64300 5.4532150073e+00 -2.9153790034e-02 2.8575090382e+00 -4.9493508373e+00 2.8575090382e+00 4.9493508373e+00 
64400 5.4531994374e+00 -2.9044959759e-02 2.8580191794e+00 -4.9502344277e+00 2.8580191794e+00 4.9502344277e+00 
64500 5.4531839951e+00 -2.8936580193e-02 2.8585273254e+00 -4.9511145624e+00 2.8585273254e+00 4.9511145624e+00 
64600 5.4531686792e+00 -2.8828649550e-02 2.8590334852e+00 -4.9519912569e+00 2.8590334852e+00 4.9519912569e+00 
64700 5.4531534887e+00 -2.8721166046e-02 2.8595376678e+00 -4.9528645267e+00 2.8595376678e+00 4.9528645267e+00 
64800 5.4531384223e+00 -2.8614127897e-02 2.8600398819e+00 -4.9537343872e+00 2.8600398819e+00 4.9537343872e+00 
64900 5.4531234789e+00 -2.8507533326e-02 2.8605401365e+00 -4.9546008535e+00 2.8605401365e+00 4.9546008535e+00 
65000 5.4531086574e+00 -2.8401380553e-02 2.8610384403e+00 -4.9554639411e+00 2.8610384403e+00 4.9554639411e+00 
65100 5.4530939567e+00 -2.8295667803e-02 2.8615348021e+00 -4.9563236648e+00 2.8615348021e+00 4.9563236648e+00 
65200 5.4530793756e+00 -2.8190393305e-02 2.8620292305e+00 -4.9571800400e+00 2.8620292305e+00 4.9571800400e+00 
65300 5.4530649132e+00 -2.8085555289e-02 2.8625217342e+00 -4.9580330815e+00 2.8625217342e+00 4.9580330815e+00 
65400 5.4530505683e+00 -2.7981151986e-02 2.8630123219e+00 -4.9588828042e+00 2.8630123219e+00 4.9588828042e+00 
65500 5.4530363399e+00 -2.7877181634e-02 2.8635010021e+00 -4.9597292232e+00 2.8635010021e+00 4.9597292232e+00 
65600 5.4530222268e+00 -2.7773642472e-02 2.8639877833e+00 -4.9605723530e+00 2.8639877833e+00 4.9605723530e+00 
65700 5.4530082282e+00 -2.7670532741e-02 2.8644726741e+00 -4.9614122085e+00 2.8644726741e+00 4.9614122085e+00 
65800 5.4529943428e+00 -2.7567850687e-02 2.8649556829e+00 -4.9622488043e+00 2.8649556829e+00 4.9622488043e+00 
65900 5.4529805697e+00 -2.7465594560e-02 2.8654368182e+00 -4.9630821549e+00 2.8654368182e+00 4.9630821549e+00 
66000 5.4529669080e+00 -2.7363762611e-02 2.8659160882e+00 -4.9639122750e+00 2.8659160882e+00 4.9639122750e+00 
66100 5.4529533565e+00 -2.7262353096e-02 2.8663935014e+00 -4.9647391789e+00 2.8663935014e+00 4.9647391789e+00 
66200 5.4529399143e+00 -2.7161364275e-02 2.8668690660e+00 -4.9655628809e+00 2.8668690660e+00 4.9655628809e+00 
66300 5.4529265804e+00 -2.7060794411e-02 2.8673427903e+00 -4.9663833955e+00 2.8673427903e+00 4.9663833955e+00 
66400 5.4529133538e+00 -2.6960641771e-02 2.8678146826e+00 -4.9672007369e+00 2.8678146826e+00 4.9672007369e+00 
66500 5.4529002336e+00 -2.6860904626e-02 2.8682847509e+00 -4.9680149191e+00 2.8682847509e+00 4.9680149191e+00 
66600 5.4528872188e+00 -2.6761581251e-02 2.8687530035e+00 -4.9688259564e+00 2.8687530035e+00 4.9688259564e+00 
66700 5.4528743085e+00 -2.6662669924e-02 2.8692194484e+00 -4.9696338628e+00 2.8692194484e+00 4.9696338628e+00 
66800 5.4528615017e+00 -2.6564168930e-02 2.8696840938e+00 -4.9704386521e+00 2.8696840938e+00 4.9704386521e+00 
66900 5.4528487975e+00 -2.6466076555e-02 2.8701469476e+00 -4.9712403384e+00 2.8701469476e+00 4.9712403384e+00 
67000 5.4528361949e+00 -2.6368391090e-02 2.8706080178e+00 -4.9720389354e+00 2.8706080178e+00 4.9720389354e+00 
67100 5.4528236932e+00 -2.6271110833e-02 2.8710673124e+00 -4.9728344570e+00 2.8710673124e+00 4.9728344570e+00 
67200 5.4528112913e+00 -2.6174234081e-02 2.8715248392e+00 -4.9736269167e+00 2.8715248392e+00 4.9736269167e+00 
67300 5.4527989884e+00 -2.6077759142e-02 2.8719806062e+00 -4.9744163284e+00 2.8719806062e+00 4.9744163284e+00 
67400 5.4527867836e+00 -2.5981684322e-02 2.8724346213e+00 -4.9752027054e+00 2.8724346213e+00 4.9752027054e+00 
67500 5.4527746760e+00 -2.5886007938e-02 2.8728868920e+00 -4.9759860614e+00 2.8728868920e+00 4.9759860614e+00 
67600 5.4527626648e+00 -2.5790728305e-02 2.8733374264e+00 -4.9767664098e+00 2.8733374264e+00 4.9767664098e+00 
67700 5.4527507491e+00 -2.5695843749e-02 2.8737862320e+00 -4.9775437639e+00 2.8737862320e+00 4.9775437639e+00 
67800 5.4527389280e+00 -2.5601352596e-02 2.8742333166e+00 -4.9783181371e+00 2.8742333166e+00 4.9783181371e+00 
67900 5.4527272007e+00 -2.5507253178e-02 2.8746786878e+00 -4.9790895427e+00 2.8746786878e+00 4.9790895427e+00 
68000 5.4527155665e+00 -2.5413543834e-02 2.8751223532e+00 -4.9798579937e+00 2.8751223532e+00 4.9798579937e+00 
68100 5.4527040244e+00 -2.5320222906e-02 2.8755643204e+00 -4.9806235033e+00 2.8755643204e+00 4.9806235033e+00 
68200 5.4526925736e+00 -2.5227288740e-02 2.8760045969e+00 -4.9813860846e+00 2.8760045969e+00 4.9813860846e+00 
68300 5.4526812134e+00 -2.5134739688e-02 2.8764431902e+00 -4.9821457505e+00 2.8764431902e+00 4.9821457505e+00 
68400 5.4526699429e+00 -2.5042574108e-02 2.8768801079e+00 -4.9829025141e+00 2.8768801079e+00 4.9829025141e+00 
68500 5.4526587613e+00 -2.4950790362e-02 2.8773153572e+00 -4.9836563881e+00 2.8773153572e+00 4.9836563881e+00 
68600 5.4526476680e+00 -2.4859386816e-02 2.8777489457e+00 -4.9844073855e+00 2.8777489457e+00 4.9844073855e+00 
68700 5.4526366619e+00 -2.4768361843e-02 2.8781808807e+00 -4.9851555188e+00 2.8781808807e+00 4.9851555188e+00 
68800 5.4526257426e+00 -2.4677713821e-02 2.8786111695e+00 -4.9859008008e+00 2.8786111695e+00 4.9859008008e+00 
68900 5.4526149090e+00 -2.4587441131e-02 2.8790398194e+00 -4.9866432442e+00 2.8790398194e+00 4.9866432442e+00 
69000 5.4526041606e+00 -2.4497542162e-02 2.8794668376e+00 -4.9873828614e+00 2.8794668376e+00 4.9873828614e+00 
69100 5.4525934965e+00 -2.4408015307e-02 2.8798922314e+00 -4.9881196650e+00 2.8798922314e+00 4.9881196650e+00 
69200 5.4525829160e+00 -2.4318858962e-02 2.8803160079e+00 -4.9888536675e+00 2.8803160079e+00 4.9888536675e+00 
69300 5.4525724185e+00 -2.4230071533e-02 2.8807381743e+00 -4.9895848812e+00 2.8807381743e+00 4.9895848812e+00 
69400 5.4525620030e+00 -2.4141651428e-02 2.8811587377e+00 -4.9903133183e+00 2.8811587377e+00 4.9903133183e+00 
69500 5.4525516690e+00 -2.4053597061e-02 2.8815777052e+00 -4.9910389913e+00 2.8815777052e+00 4.9910389913e+00 
69600 5.4525414158e+00 -2.3965906851e-02 2.8819950838e+00 -4.9917619123e+00 2.8819950838e+00 4.9917619123e+00 
69700 5.4525312425e+00 -2.3878579223e-02 2.8824108805e+00 -4.9924820933e+00 2.8824108805e+00 4.9924820933e+00 
69800 5.4525211486e+00 -2.3791612607e-02 2.8828251023e+00 -4.9931995466e+00 2.8828251023e+00 4.9931995466e+00 
69900 5.4525111333e+00 -2.3705005440e-02 2.8832377562e+00 -4.9939142841e+00 2.8832377562e+00 4.9939142841e+00 
70000 5.4525011960e+00 -2.3618756162e-02 2.8836488491e+00 -4.9946263178e+00 2.8836488491e+00 4.9946263178e+00 
70100 5.4524913359e+00 -2.3532863219e-02 2.8840583878e+00 -4.9953356596e+00 2.8840583878e+00 4.9953356596e+00 
70200 5.4524815525e+00 -2.3447325063e-02 2.8844663791e+00 -4.9960423214e+00 2.8844663791e+00 4.9960423214e+00 
70300 5.4524718450e+00 -2.3362140153e-02 2.8848728300e+00 -4.9967463149e+00 2.8848728300e+00 4.9967463149e+00 
70400 5.4524622127e+00 -2.3277306950e-02 2.8852777471e+00 -4.9974476519e+00 2.8852777471e+00 4.9974476519e+00 
70500 5.4524526551e+00 -2.3192823924e-02 2.8856811372e+00 -4.9981463440e+00 2.8856811372e+00 4.9981463440e+00 
70600 5.4524431715e+00 -2.3108689548e-02 2.8860830070e+00 -4.9988424029e+00 2.8860830070e+00 4.9988424029e+00 
70700 5.4524337612e+00 -2.3024902301e-02 2.8864833632e+00 -4.9995358402e+00 2.8864833632e+00 4.9995358402e+00 
70800 5.4524244236e+00 -2.2941460670e-02 2.8868822124e+00 -5.0002266673e+00 2.8868822124e+00 5.0002266673e+00 
70900 5.4524151582e+00 -2.2858363144e-02 2.8872795612e+00 -5.0009148957e+00 2.8872795612e+00 5.0009148957e+00 
71000 5.4524059641e+00 -2.2775608219e-02 2.8876754163e+00 -5.0016005368e+00 2.8876754163e+00 5.0016005368e+00 
71100 5.4523968409e+00 -2.2693194398e-02 2.8880697841e+00 -5.0022836019e+00 2.8880697841e+00 5.0022836019e+00 
71200 5.4523877880e+00 -2.2611120187e-02 2.8884626713e+00 -5.0029641024e+00 2.8884626713e+00 5.0029641024e+00 
71300 5.4523788047e+00 -2.2529384100e-02 2.8888540842e+00 -5.0036420494e+00 2.8888540842e+00 5.0036420494e+00 
71400 5.4523698904e+00 -2.2447984654e-02 2.8892440293e+00 -5.0043174542e+00 2.8892440293e+00 5.0043174542e+00 
71500 5.4523610446e+00 -2.2366920374e-02 2.8896325130e+00 -5.0049903278e+00 2.8896325130e+00 5.0049903278e+00 
71600 5.4523522666e+00 -2.2286189790e-02 2.8900195418e+00 -5.0056606813e+00 2.8900195418e+00 5.0056606813e+00 
71700 5.4523435560e+00 -2.2205791437e-02 2.8904051220e+00 -5.0063285258e+00 2.8904051220e+00 5.0063285258e+00 
71800 5.4523349120e+00 -2.2125723855e-02 2.8907892599e+00 -5.0069938722e+00 2.8907892599e+00 5.0069938722e+00 
71900 5.4523263341e+00 -2.2045985591e-02 2.8911719618e+00 -5.0076567313e+00 2.8911719618e+00 5.0076567313e+00 
72000 5.4523178218e+00 -2.1966575197e-02 2.8915532340e+00 -5.0083171142e+00 2.8915532340e+00 5.0083171142e+00 
72100 5.4523093746e+00 -2.1887491231e-02 2.8919330828e+00 -5.0089750314e+00 2.8919330828e+00 5.0089750314e+00 
72200 5.4523009917e+00 -2.1808732255e-02 2.8923115142e+00 -5.0096304939e+00 2.8923115142e+00 5.0096304939e+00 
72300 5.4522926728e+00 -2.1730296840e-02 2.8926885346e+00 -5.0102835123e+00 2.8926885346e+00 5.0102835123e+00 
72400 5.4522844173e+00 -2.1652183559e-02 2.8930641500e+00 -5.0109340973e+00 2.8930641500e+00 5.0109340973e+00 
72500 5.4522762246e+00 -2.1574390992e-02 2.8934383665e+00 -5.0115822594e+00 2.8934383665e+00 5.0115822594e+00 
72600 5.4522680941e+00 -2.1496917725e-02 2.8938111903e+00 -5.0122280092e+00 2.8938111903e+00 5.0122280092e+00 
72700 5.4522600255e+00 -2.1419762349e-02 2.8941826274e+00 -5.0128713571e+00 2.8941826274e+00 5.0128713571e+00 
72800 5.4522520181e+00 -2.1342923462e-02 2.8945526839e+00 -5.0135123137e+00 2.8945526839e+00 5.0135123137e+00 
72900 5.4522440714e+00 -2.1266399665e-02 2.8949213657e+00 -5.0141508893e+00 2.8949213657e+00 5.0141508893e+00 
73000 5.4522361849e+00 -2.1190189566e-02 2.8952886787e+00 -5.0147870942e+00 2.8952886787e+00 5.0147870942e+00 
73100 5.4522283581e+00 -2.1114291780e-02 2.8956546291e+00 -5.0154209387e+00 2.8956546291e+00 5.0154209387e+00 
73200 5.4522205905e+00 -2.1038704925e-02 2.8960192225e+00 -5.0160524331e+00 2.8960192225e+00 5.0160524331e+00 
73300 5.4522128816e+00 -2.0963427626e-02 2.8963824650e+00 -5.0166815875e+00 2.8963824650e+00 5.0166815875e+00 
73400 5.4522052310e+00 -2.0888458513e-02 2.8967443624e+00 -5.0173084122e+00 2.8967443624e+00 5.0173084122e+00 
73500 5.4521976380e+00 -2.0813796223e-02 2.8971049205e+00 -5.0179329171e+00 2.8971049205e+00 5.0179329171e+00 
73600 5.4521901023e+00 -2.0739439397e-02 2.8974641450e+00 -5.0185551123e+00 2.8974641450e+00 5.0185551123e+00 
73700 5.4521826233e+00 -2.0665386681e-02 2.8978220419e+00 -5.0191750079e+00 2.8978220419e+00 5.0191750079e+00 
73800 5.4521752006e+00 -2.0591636729e-02 2.8981786168e+00 -5.0197926137e+00 2.8981786168e+00 5.0197926137e+00 
73900 5.4521678337e+00 -2.0518188198e-02 2.8985338754e+00 -5.0204079396e+00 2.8985338754e+00 5.0204079396e+00 
74000 5.4521605221e+00 -2.0445039752e-02 2.8988878234e+00 -5.0210209955e+00 2.8988878234e+00 5.0210209955e+00 
74100 5.4521532654e+00 -2.0372190060e-02 2.8992404665e+00 -5.0216317913e+00 2.8992404665e+00 5.0216317913e+00 
74200 5.4521460631e+00 -2.0299637797e-02 2.8995918102e+00 -5.0222403365e+00 2.8995918102e+00 5.0222403365e+00 
74300 5.4521389148e+00 -2.0227381642e-02 2.8999418603e+00 -5.0228466410e+00 2.8999418603e+00 5.0228466410e+00 
74400 5.4521318200e+00 -2.0155420282e-02 2.9002906222e+00 -5.0234507144e+00 2.9002906222e+00 5.0234507144e+00 
74500 5.4521247783e+00 -2.0083752407e-02 2.9006381016e+00 -5.0240525663e+00 2.9006381016e+00 5.0240525663e+00 
74600 5.4521177891e+00 -2.0012376714e-02 2.9009843039e+00 -5.0246522063e+00 2.9009843039e+00 5.0246522063e+00 
74700 5.4521108522e+00 -1.9941291905e-02 2.9013292346e+00 -5.0252496439e+00 2.9013292346e+00 5.0252496439e+00 
74800 5.4521039670e+00 -1.9870496687e-02 2.9016728993e+00 -5.0258448885e+00 2.9016728993e+00 5.0258448885e+00 
74900 5.4520971332e+00 -1.9799989774e-02 2.9020153033e+00 -5.0264379496e+00 2.9020153033e+00 5.0264379496e+00 
75000 5.4520903502e+00 -1.9729769883e-02 2.9023564520e+00 -5.0270288366e+00 2.9023564520e+00 5.0270288366e+00 
75100 5.4520836177e+00 -1.9659835738e-02 2.9026963509e+00 -5.0276175587e+00 2.9026963509e+00 5.0276175587e+00 
75200 5.4520769353e+00 -1.9590186068e-02 2.9030350053e+00 -5.0282041253e+00 2.9030350053e+00 5.0282041253e+00 
75300 5.4520703025e+00 -1.9520819609e-02 2.9033724206e+00 -5.0287885457e+00 2.9033724206e+00 5.0287885457e+00 
75400 5.4520637189e+00 -1.9451735098e-02 2.9037086020e+00 -5.0293708290e+00 2.9037086020e+00 5.0293708290e+00 
75500 5.4520571842e+00 -1.9382931283e-02 2.9040435548e+00 -5.0299509843e+00 2.9040435548e+00 5.0299509843e+00 
75600 5.4520506979e+00 -1.9314406914e-02 2.9043772843e+00 -5.0305290208e+00 2.9043772843e+00 5.0305290208e+00 
75700 5.4520442596e+00 -1.9246160745e-02 2.9047097958e+00 -5.0311049476e+00 2.9047097958e+00 5.0311049476e+00 
75800 5.4520378690e+00 -1.9178191540e-02 2.9050410944e+00 -5.0316787736e+00 2.9050410944e+00 5.0316787736e+00 
75900 5.4520315255e+00 -1.9110498064e-02 2.9053711854e+00 -5.0322505079e+00 2.9053711854e+00 5.0322505079e+00 
76000 5.4520252290e+00 -1.9043079088e-02 2.9057000738e+00 -5.0328201593e+00 2.9057000738e+00 5.0328201593e+00 
76100 5.4520189789e+00 -1.8975933392e-02 2.9060277648e+00 -5.0333877369e+00 2.9060277648e+00 5.0333877369e+00 
76200 5.4520127749e+00 -1.8909059756e-02 2.9063542636e+00 -5.0339532493e+00 2.9063542636e+00 5.0339532493e+00 
76300 5.4520066166e+00 -1.8842456968e-02 2.9066795751e+00 -5.0345167054e+00 2.9066795751e+00 5.0345167054e+00 
76400 5.4520005036e+00 -1.8776123822e-02 2.9070037045e+00 -5.0350781140e+00 2.9070037045e+00 5.0350781140e+00 
76500 5.4519944356e+00 -1.8710059115e-02 2.9073266568e+00 -5.0356374839e+00 2.9073266568e+00 5.0356374839e+00 
76600 5.4519884121e+00 -1.8644261652e-02 2.9076484371e+00 -5.0361948235e+00 2.9076484371e+00 5.0361948235e+00 
76700 5.4519824330e+00 -1.8578730240e-02 2.9079690502e+00 -5.0367501417e+00 2.9079690502e+00 5.0367501417e+00 
76800 5.4519764976e+00 -1.8513463693e-02 2.9082885011e+00 -5.0373034470e+00 2.9082885011e+00 5.0373034470e+00 
76900 5.4519706058e+00 -1.8448460831e-02 2.9086067949e+00 -5.0378547480e+00 2.9086067949e+00 5.0378547480e+00 
77000 5.4519647572e+00 -1.8383720477e-02 2.9089239364e+00 -5.0384040531e+00 2.9089239364e+00 5.0384040531e+00 
77100 5.4519589514e+00 -1.8319241461e-02 2.9092399304e+00 -5.0389513709e+00 2.9092399304e+00 5.0389513709e+00 
77200 5.4519531880e+00 -1.8255022617e-02 2.9095547819e+00 -5.0394967097e+00 2.9095547819e+00 5.0394967097e+00 
77300 5.4519474667e+00 -1.8191062785e-02 2.9098684957e+00 -5.0400400780e+00 2.9098684957e+00 5.0400400780e+00 
77400 5.4519417872e+00 -1.8127360809e-02 2.9101810767e+00 -5.0405814840e+00 2.9101810767e+00 5.0405814840e+00 
77500 5.4519361492e+00 -1.8063915539e-02 2.9104925295e+00 -5.0411209362e+00 2.9104925295e+00 5.0411209362e+00 
77600 5.4519305522e+00 -1.8000725829e-02 2.9108028591e+00 -5.0416584427e+00 2.9108028591e+00 5.0416584427e+00 
77700 5.4519249960e+00 -1.7937790540e-02 2.9111120701e+00 -5.0421940119e+00 2.9111120701e+00 5.0421940119e+00 
77800 5.4519194803e+00 -1.7875108537e-02 2.9114201672e+00 -5.0427276518e+00 2.9114201672e+00 5.0427276518e+00 
77900 5.4519140046e+00 -1.7812678689e-02 2.9117271552e+00 -5.0432593707e+00 2.9117271552e+00 5.0432593707e+00 
78000 5.4519085688e+00 -1.7750499871e-02 2.9120330388e+00 -5.0437891766e+00 2.9120330388e+00 5.0437891766e+00 
78100 5.4519031724e+00 -1.7688570962e-02 2.9123378226e+00 -5.0443170776e+00 2.9123378226e+00 5.0443170776e+00 
78200 5.4518978152e+00 -1.7626890849e-02 2.9126415113e+00 -5.0448430817e+00 2.9126415113e+00 5.0448430817e+00 
78300 5.4518924968e+00 -1.7565458421e-02 2.9129441094e+00 -5.0453671970e+00 2.9129441094e+00 5.0453671970e+00 
78400 5.4518872169e+00 -1.7504272572e-02 2.9132456215e+00 -5.0458894314e+00 2.9132456215e+00 5.0458894314e+00 
78500 5.4518819752e+00 -1.7443332202e-02 2.9135460523e+00 -5.0464097928e+00 2.9135460523e+00 5.0464097928e+00 
78600 5.4518767715e+00 -1.7382636215e-02 2.9138454063e+00 -5.0469282891e+00 2.9138454063e+00 5.0469282891e+00 
78700 5.4518716053e+00 -1.7322183522e-02 2.9141436879e+00 -5.0474449280e+00 2.9141436879e+00 5.0474449280e+00 
78800 5.4518664765e+00 -1.7261973036e-02 2.9144409018e+00 -5.0479597175e+00 2.9144409018e+00 5.0479597175e+00 
78900 5.4518613846e+00 -1.7202003678e-02 2.9147370523e+00 -5.0484726653e+00 2.9147370523e+00 5.0484726653e+00 
79000 5.4518563295e+00 -1.7142274369e-02 2.9150321440e+00 -5.0489837791e+00 2.9150321440e+00 5.0489837791e+00 
79100 5.4518513108e+00 -1.7082784041e-02 2.9153261813e+00 -5.0494930667e+00 2.9153261813e+00 5.0494930667e+00 
79200 5.4518463281e+00 -1.7023531626e-02 2.9156191686e+00 -5.0500005355e+00 2.9156191686e+00 5.0500005355e+00 
79300 5.4518413814e+00 -1.6964516063e-02 2.9159111103e+00 -5.0505061934e+00 2.9159111103e+00 5.0505061934e+00 
79400 5.4518364702e+00 -1.6905736294e-02 2.9162020107e+00 -5.0510100478e+00 2.9162020107e+00 5.0510100478e+00 
79500 5.4518315942e+00 -1.6847191270e-02 2.9164918743e+00 -5.0515121062e+00 2.9164918743e+00 5.0515121062e+00 
79600 5.4518267533e+00 -1.6788879941e-02 2.9167807054e+00 -5.0520123763e+00 2.9167807054e+00 5.0520123763e+00 
79700 5.4518219470e+00 -1.6730801265e-02 2.9170685083e+00 -5.0525108655e+00 2.9170685083e+00 5.0525108655e+00 
79800 5.4518171752e+00 -1.6672954205e-02 2.9173552872e+00 -5.0530075811e+00 2.9173552872e+00 5.0530075811e+00 
79900 5.4518124375e+00 -1.6615337728e-02 2.9176410465e+00 -5.0535025307e+00 2.9176410465e+00 5.0535025307e+00 
80000 5.4518077338e+00 -1.6557950805e-02 2.9179257903e+00 -5.0539957216e+00 2.9179257903e+00 5.0539957216e+00 
80100 5.4518030636e+00 -1.6500792412e-02 2.9182095230e+00 -5.0544871610e+00 2.9182095230e+00 5.0544871610e+00 
80200 5.4517984268e+00 -1.6443861531e-02 2.9184922488e+00 -5.0549768564e+00 2.9184922488e+00 5.0549768564e+00 
80300 5.4517938231e+00 -1.6387157146e-02 2.9187739717e+00 -5.0554648149e+00 2.9187739717e+00 5.0554648149e+00 
80400 5.4517892523e+00 -1.6330678248e-02 2.9190546961e+00 -5.0559510437e+00 2.9190546961e+00 5.0559510437e+00 
80500 5.4517847140e+00 -1.6274423833e-02 2.9193344260e+00 -5.0564355502e+00 2.9193344260e+00 5.0564355502e+00 
80600 5.4517802080e+00 -1.6218392898e-02 2.9196131656e+00 -5.0569183413e+00 2.9196131656e+00 5.0569183413e+00 
80700 5.4517757341e+00 -1.6162584447e-02 2.9198909190e+00 -5.0573994244e+00 2.9198909190e+00 5.0573994244e+00 
80800 5.4517712920e+00 -1.6106997491e-02 2.9201676903e+00 -5.0578788063e+00 2.9201676903e+00 5.0578788063e+00 
80900 5.4517668815e+00 -1.6051631040e-02 2.9204434836e+00 -5.0583564942e+00 2.9204434836e+00 5.0583564942e+00 
81000 5.4517625022e+00 -1.5996484113e-02 2.9207183029e+00 -5.0588324952e+00 2.9207183029e+00 5.0588324952e+00 
81100 5.4517581540e+00 -1.5941555731e-02 2.9209921522e+00 -5.0593068161e+00 2.9209921522e+00 5.0593068161e+00 
81200 5.4517538367e+00 -1.5886844921e-02 2.9212650356e+00 -5.0597794640e+00 2.9212650356e+00 5.0597794640e+00 
81300 5.4517495499e+00 -1.5832350714e-02 2.9215369570e+00 -5.0602504457e+00 2.9215369570e+00 5.0602504457e+00 
81400 5.4517452935e+00 -1.5778072146e-02 2.9218079204e+00 -5.0607197682e+00 2.9218079204e+00 5.0607197682e+00 
81500 5.4517410672e+00 -1.5724008255e-02 2.9220779299e+00 -5.0611874383e+00 2.9220779299e+00 5.0611874383e+00 
81600 5.4517368707e+00 -1.5670158085e-02 2.9223469893e+00 -5.0616534628e+00 2.9223469893e+00 5.0616534628e+00 
81700 5.4517327039e+00 -1.5616520687e-02 2.9226151025e+00 -5.0621178485e+00 2.9226151025e+00 5.0621178485e+00 
81800 5.4517285665e+00 -1.5563095111e-02 2.9228822735e+00 -5.0625806022e+00 2.9228822735e+00 5.0625806022e+00 
81900 5.4517244583e+00 -1.5509880417e-02 2.9231485061e+00 -5.0630417306e+00 2.9231485061e+00 5.0630417306e+00 
82000 5.4517203790e+00 -1.5456875664e-02 2.9234138042e+00 -5.0635012404e+00 2.9234138042e+00 5.0635012404e+00 
82100 5.4517163284e+00 -1.5404079919e-02 2.9236781716e+00 -5.0639591383e+00 2.9236781716e+00 5.0639591383e+00 
82200 5.4517123064e+00 -1.5351492253e-02 2.9239416122e+00 -5.0644154308e+00 2.9239416122e+00 5.0644154308e+00 
82300 5.4517083126e+00 -1.5299111739e-02 2.9242041298e+00 -5.0648701246e+00 2.9242041298e+00 5.0648701246e+00 
82400 5.4517043469e+00 -1.5246937457e-02 2.9244657282e+00 -5.0653232262e+00 2.9244657282e+00 5.0653232262e+00 
82500 5.4517004090e+00 -1.5194968490e-02 2.9247264111e+00 -5.0657747422e+00 2.9247264111e+00 5.0657747422e+00 
82600 5.4516964987e+00 -1.5143203924e-02 2.9249861823e+00 -5.0662246791e+00 2.9249861823e+00 5.0662246791e+00 
82700 5.4516926159e+00 -1.5091642852e-02 2.9252450455e+00 -5.0666730434e+00 2.9252450455e+00 5.0666730434e+00 
82800 5.4516887602e+00 -1.5040284368e-02 2.9255030045e+00 -5.0671198415e+00 2.9255030045e+00 5.0671198415e+00 
82900 5.4516849316e+00 -1.4989127573e-02 2.9257600629e+00 -5.0675650797e+00 2.9257600629e+00 5.0675650797e+00 
83000 5.4516811297e+00 -1.4938171572e-02 2.9260162245e+00 -5.0680087646e+00 2.9260162245e+00 5.0680087646e+00 
83100 5.4516773544e+00 -1.4887415471e-02 2.9262714929e+00 -5.0684509024e+00 2.9262714929e+00 5.0684509024e+00 
83200 5.4516736055e+00 -1.4836858383e-02 2.9265258717e+00 -5.0688914995e+00 2.9265258717e+00 5.0688914995e+00 
83300 5.4516698827e+00 -1.4786499426e-02 2.9267793647e+00 -5.0693305621e+00 2.9267793647e+00 5.0693305621e+00 
83400 5.4516661859e+00 -1.4736337719e-02 2.9270319753e+00 -5.0697680966e+00 2.9270319753e+00 5.0697680966e+00 
83500 5.4516625149e+00 -1.4686372386e-02 2.9272837072e+00 -5.0702041091e+00 2.9272837072e+00 5.0702041091e+00 
83600 5.4516588695e+00 -1.4636602558e-02 2.9275345641e+00 -5.0706386059e+00 2.9275345641e+00 5.0706386059e+00 
83700 5.4516552494e+00 -1.4587027366e-02 2.9277845494e+00 -5.0710715931e+00 2.9277845494e+00 5.0710715931e+00 
83800 5.4516516545e+00 -1.4537645947e-02 2.9280336666e+00 -5.0715030769e+00 2.9280336666e+00 5.0715030769e+00 
83900 5.4516480845e+00 -1.4488457442e-02 2.9282819194e+00 -5.0719330633e+00 2.9282819194e+00 5.0719330633e+00 
84000 5.4516445394e+00 -1.4439460996e-02 2.9285293113e+00 -5.0723615586e+00 2.9285293113e+00 5.0723615586e+00 
84100 5.4516410189e+00 -1.4390655757e-02 2.9287758457e+00 -5.0727885687e+00 2.9287758457e+00 5.0727885687e+00 
84200 5.4516375228e+00 -1.4342040879e-02 2.9290215261e+00 -5.0732140996e+00 2.9290215261e+00 5.0732140996e+00 
84300 5.4516340509e+00 -1.4293615518e-02 2.9292663560e+00 -5.0736381574e+00 2.9292663560e+00 5.0736381574e+00 
84400 5.4516306031e+00 -1.4245378835e-02 2.9295103388e+00 -5.0740607481e+00 2.9295103388e+00 5.0740607481e+00 
84500 5.4516271791e+00 -1.4197329994e-02 2.9297534780e+00 -5.0744818775e+00 2.9297534780e+00 5.0744818775e+00 
84600 5.4516237788e+00 -1.4149468164e-02 2.9299957770e+00 -5.0749015517e+00 2.9299957770e+00 5.0749015517e+00 
84700 5.4516204020e+00 -1.4101792517e-02 2.9302372391e+00 -5.0753197764e+00 2.9302372391e+00 5.0753197764e+00 
84800 5.4516170486e+00 -1.4054302229e-02 2.9304778679e+00 -5.0757365576e+00 2.9304778679e+00 5.0757365576e+00 
84900 5.4516137182e+00 -1.4006996481e-02 2.9307176665e+00 -5.0761519011e+00 2.9307176665e+00 5.0761519011e+00 
85000 5.4516104109e+00 -1.3959874456e-02 2.9309566385e+00 -5.0765658127e+00 2.9309566385e+00 5.0765658127e+00 
85100 5.4516071263e+00 -1.3912935342e-02 2.9311947871e+00 -5.0769782981e+00 2.9311947871e+00 5.0769782981e+00 
85200 5.4516038644e+00 -1.3866178331e-02 2.9314321156e+00 -5.0773893632e+00 2.9314321156e+00 5.0773893632e+00 
85300 5.4516006249e+00 -1.3819602618e-02 2.9316686274e+00 -5.0777990136e+00 2.9316686274e+00 5.0777990136e+00 
85400 5.4515974077e+00 -1.3773207402e-02 2.9319043257e+00 -5.0782072551e+00 2.9319043257e+00 5.0782072551e+00 
85500 5.4515942126e+00 -1.3726991886e-02 2.9321392139e+00 -5.0786140933e+00 2.9321392139e+00 5.0786140933e+00 
85600 5.4515910394e+00 -1.3680955277e-02 2.9323732951e+00 -5.0790195339e+00 2.9323732951e+00 5.0790195339e+00 
85700 5.4515878880e+00 -1.3635096784e-02 2.9326065726e+00 -5.0794235824e+00 2.9326065726e+00 5.0794235824e+00 
85800 5.4515847583e+00 -1.3589415622e-02 2.9328390497e+00 -5.0798262445e+00 2.9328390497e+00 5.0798262445e+00 
85900 5.4515816499e+00 -1.3543911009e-02 2.9330707296e+00 -5.0802275258e+00 2.9330707296e+00 5.0802275258e+00 
86000 5.4515785629e+00 -1.3498582166e-02 2.9333016154e+00 -5.0806274318e+00 2.9333016154e+00 5.0806274318e+00 
86100 5.4515754970e+00 -1.3453428319e-02 2.9335317104e+00 -5.0810259680e+00 2.9335317104e+00 5.0810259680e+00 
86200 5.4515724521e+00 -1.3408448695e-02 2.9337610176e+00 -5.0814231398e+00 2.9337610176e+00 5.0814231398e+00 
86300 5.4515694280e+00 -1.3363642527e-02 2.9339895404e+00 -5.0818189528e+00 2.9339895404e+00 5.0818189528e+00 
86400 5.4515664245e+00 -1.3319009051e-02 2.9342172818e+00 -5.0822134124e+00 2.9342172818e+00 5.0822134124e+00 
86500 5.4515634416e+00 -1.3274547507e-02 2.9344442449e+00 -5.0826065241e+00 2.9344442449e+00 5.0826065241e+00 
86600 5.4515604790e+00 -1.3230257137e-02 2.9346704328e+00 -5.0829982931e+00 2.9346704328e+00 5.0829982931e+00 
86700 5.4515575366e+00 -1.3186137190e-02 2.9348958487e+00 -5.0833887248e+00 2.9348958487e+00 5.0833887248e+00 
86800 5.4515546142e+00 -1.3142186913e-02 2.9351204956e+00 -5.0837778247e+00 2.9351204956e+00 5.0837778247e+00 
86900 5.4515517118e+00 -1.3098405563e-02 2.9353443766e+00 -5.0841655979e+00 2.9353443766e+00 5.0841655979e+00 
87000 5.4515488290e+00 -1.3054792395e-02 2.9355674947e+00 -5.0845520499e+00 2.9355674947e+00 5.0845520499e+00 
87100 5.4515459659e+00 -1.3011346671e-02 2.9357898530e+00 -5.0849371858e+00 2.9357898530e+00 5.0849371858e+00 
87200 5.4515431223e+00 -1.2968067654e-02 2.9360114546e+00 -5.0853210109e+00 2.9360114546e+00 5.0853210109e+00 
87300 5.4515402979e+00 -1.2924954614e-02 2.9362323023e+00 -5.0857035304e+00 2.9362323023e+00 5.0857035304e+00 
87400 5.4515374927e+00 -1.2882006820e-02 2.9364523993e+00 -5.0860847495e+00 2.9364523993e+00 5.0860847495e+00 
87500 5.4515347065e+00 -1.2839223547e-02 2.9366717484e+00 -5.0864646734e+00 2.9366717484e+00 5.0864646734e+00 
87600 5.4515319392e+00 -1.2796604074e-02 2.9368903527e+00 -5.0868433072e+00 2.9368903527e+00 5.0868433072e+00 
87700 5.4515291907e+00 -1.2754147682e-02 2.9371082152e+00 -5.0872206560e+00 2.9371082152e+00 5.0872206560e+00 
87800 5.4515264607e+00 -1.2711853657e-02 2.9373253387e+00 -5.0875967250e+00 2.9373253387e+00 5.0875967250e+00 
87900 5.4515237492e+00 -1.2669721285e-02 2.9375417262e+00 -5.0879715191e+00 2.9375417262e+00 5.0879715191e+00 
88000 5.4515210561e+00 -1.2627749859e-02 2.9377573806e+00 -5.0883450435e+00 2.9377573806e+00 5.0883450435e+00 
88100 5.4515183811e+00 -1.2585938674e-02 2.9379723048e+00 -5.0887173032e+00 2.9379723048e+00 5.0887173032e+00 
88200 5.4515157242e+00 -1.2544287029e-02 2.9381865017e+00 -5.0890883031e+00 2.9381865017e+00 5.0890883031e+00 
88300 5.4515130852e+00 -1.2502794224e-02 2.9383999742e+00 -5.0894580483e+00 2.9383999742e+00 5.0894580483e+00 
88400 5.4515104640e+00 -1.2461459564e-02 2.9386127251e+00 -5.0898265437e+00 2.9386127251e+00 5.0898265437e+00 
88500 5.4515078604e+00 -1.2420282359e-02 2.9388247573e+00 -5.0901937942e+00 2.9388247573e+00 5.0901937942e+00 
88600 5.4515052744e+00 -1.2379261919e-02 2.9390360736e+00 -5.0905598047e+00 2.9390360736e+00 5.0905598047e+00 
88700 5.4515027058e+00 -1.2338397560e-02 2.9392466768e+00 -5.0909245802e+00 2.9392466768e+00 5.0909245802e+00 
88800 5.4515001545e+00 -1.2297688599e-02 2.9394565698e+00 -5.0912881255e+00 2.9394565698e+00 5.0912881255e+00 
88900 5.4514976203e+00 -1.2257134357e-02 2.9396657553e+00 -5.0916504454e+00 2.9396657553e+00 5.0916504454e+00 
89000 5.4514951031e+00 -1.2216734159e-02 2.9398742361e+00 -5.0920115448e+00 2.9398742361e+00 5.0920115448e+00 
89100 5.4514926028e+00 -1.2176487333e-02 2.9400820151e+00 -5.0923714285e+00 2.9400820151e+00 5.0923714285e+00 
89200 5.4514901192e+00 -1.2136393209e-02 2.9402890948e+00 -5.0927301012e+00 2.9402890948e+00 5.0927301012e+00 
89300 5.4514876524e+00 -1.2096451122e-02 2.9404954782e+00 -5.0930875676e+00 2.9404954782e+00 5.0930875676e+00 
89400 5.4514852020e+00 -1.2056660408e-02 2.9407011679e+00 -5.0934438326e+00 2.9407011679e+00 5.0934438326e+00 
89500 5.4514827680e+00 -1.2017020409e-02 2.9409061666e+00 -5.0937989009e+00 2.9409061666e+00 5.0937989009e+00 
89600 5.4514803504e+00 -1.1977530467e-02 2.9411104771e+00 -5.0941527770e+00 2.9411104771e+00 5.0941527770e+00 
89700 5.4514779489e+00 -1.1938189929e-02 2.9413141020e+00 -5.0945054658e+00 2.9413141020e+00 5.0945054658e+00 
89800 5.4514755634e+00 -1.1898998144e-02 2.9415170441e+00 -5.0948569717e+00 2.9415170441e+00 5.0948569717e+00 
89900 5.4514731938e+00 -1.1859954466e-02 2.9417193060e+00 -5.0952072996e+00 2.9417193060e+00 5.0952072996e+00 
90000 5.4514708401e+00 -1.1821058251e-02 2.9419208903e+00 -5.0955564538e+00 2.9419208903e+00 5.0955564538e+00 
90100 5.4514685021e+00 -1.1782308856e-02 2.9421217997e+00 -5.0959044392e+00 2.9421217997e+00 5.0959044392e+00 
90200 5.4514661796e+00 -1.1743705645e-02 2.9423220369e+00 -5.0962512601e+00 2.9423220369e+00 5.0962512601e+00 
90300 5.4514638727e+00 -1.1705247981e-02 2.9425216044e+00 -5.0965969212e+00 2.9425216044e+00 5.0965969212e+00 
90400 5.4514615810e+00 -1.1666935233e-02 2.9427205049e+00 -5.0969414270e+00 2.9427205049e+00 5.0969414270e+00 
90500 5.4514593046e+00 -1.1628766773e-02 2.9429187410e+00 -5.0972847819e+00 2.9429187410e+00 5.0972847819e+00 
90600 5.4514570434e+00 -1.1590741973e-02 2.9431163152e+00 -5.0976269905e+00 2.9431163152e+00 5.0976269905e+00 
90700 5.4514547972e+00 -1.1552860211e-02 2.9433132301e+00 -5.0979680571e+00 2.9433132301e+00 5.0979680571e+00 
90800 5.4514525659e+00 -1.1515120867e-02 2.9435094883e+00 -5.0983079863e+00 2.9435094883e+00 5.0983079863e+00 
90900 5.4514503494e+00 -1.1477523323e-02 2.9437050924e+00 -5.0986467825e+00 2.9437050924e+00 5.0986467825e+00 
91000 5.4514481476e+00 -1.1440066966e-02 2.9439000448e+00 -5.0989844501e+00 2.9439000448e+00 5.0989844501e+00 
91100 5.4514459603e+00 -1.1402751184e-02 2.9440943482e+00 -5.0993209933e+00 2.9440943482e+00 5.0993209933e+00 
91200 5.4514437876e+00 -1.1365575368e-02 2.9442880050e+00 -5.0996564167e+00 2.9442880050e+00 5.0996564167e+00 
91300 5.4514416293e+00 -1.1328538914e-02 2.9444810177e+00 -5.0999907245e+00 2.9444810177e+00 5.0999907245e+00 
91400 5.4514394852e+00 -1.1291641217e-02 2.9446733888e+00 -5.1003239211e+00 2.9446733888e+00 5.1003239211e+00 
91500 5.4514373553e+00 -1.1254881680e-02 2.9448651208e+00 -5.1006560107e+00 2.9448651208e+00 5.1006560107e+00 
91600 5.4514352395e+00 -1.1218259704e-02 2.9450562162e+00 -5.1009869976e+00 2.9450562162e+00 5.1009869976e+00 
91700 5.4514331376e+00 -1.1181774696e-02 2.9452466774e+00 -5.1013168861e+00 2.9452466774e+00 5.1013168861e+00 
91800 5.4514310497e+00 -1.1145426064e-02 2.9454365069e+00 -5.1016456805e+00 2.9454365069e+00 5.1016456805e+00 
91900 5.4514289755e+00 -1.1109213220e-02 2.9456257072e+00 -5.1019733849e+00 2.9456257072e+00 5.1019733849e+00 
92000 5.4514269149e+00 -1.1073135578e-02 2.9458142806e+00 -5.1023000036e+00 2.9458142806e+00 5.1023000036e+00 
92100 5.4514248680e+00 -1.1037192556e-02 2.9460022295e+00 -5.1026255407e+00 2.9460022295e+00 5.1026255407e+00 
92200 5.4514228345e+00 -1.1001383573e-02 2.9461895564e+00 -5.1029500004e+00 2.9461895564e+00 5.1029500004e+00 
92300 5.4514208144e+00 -1.0965708052e-02 2.9463762637e+00 -5.1032733869e+00 2.9463762637e+00 5.1032733869e+00 
92400 5.4514188076e+00 -1.0930165418e-02 2.9465623537e+00 -5.1035957042e+00 2.9465623537e+00 5.1035957042e+00 
92500 5.4514168139e+00 -1.0894755099e-02 2.9467478288e+00 -5.1039169565e+00 2.9467478288e+00 5.1039169565e+00 
92600 5.4514148334e+00 -1.0859476527e-02 2.9469326914e+00 -5.1042371479e+00 2.9469326914e+00 5.1042371479e+00 
92700 5.4514128659e+00 -1.0824329135e-02 2.9471169438e+00 -5.1045562825e+00 2.9471169438e+00 5.1045562825e+00 
92800 5.4514109112e+00 -1.0789312358e-02 2.9473005884e+00 -5.1048743643e+00 2.9473005884e+00 5.1048743643e+00 
92900 5.4514089694e+00 -1.0754425637e-02 2.9474836275e+00 -5.1051913973e+00 2.9474836275e+00 5.1051913973e+00 
93000 5.4514070403e+00 -1.0719668412e-02 2.9476660634e+00 -5.1055073855e+00 2.9476660634e+00 5.1055073855e+00 
93100 5.4514051239e+00 -1.0685040128e-02 2.9478478984e+00 -5.1058223330e+00 2.9478478984e+00 5.1058223330e+00 
93200 5.4514032200e+00 -1.0650540232e-02 2.9480291348e+00 -5.1061362437e+00 2.9480291348e+00 5.1061362437e+00 
93300 5.4514013285e+00 -1.0616168173e-02 2.9482097750e+00 -5.1064491217e+00 2.9482097750e+00 5.1064491217e+00 
93400 5.4513994494e+00 -1.0581923403e-02 2.9483898211e+00 -5.1067609707e+00 2.9483898211e+00 5.1067609707e+00 
93500 5.4513975826e+00 -1.0547805378e-02 2.9485692755e+00 -5.1070717949e+00 2.9485692755e+00 5.1070717949e+00 
93600 5.4513957280e+00 -1.0513813554e-02 2.9487481405e+00 -5.1073815980e+00 2.9487481405e+00 5.1073815980e+00 
93700 5.4513938854e+00 -1.0479947391e-02 2.9489264181e+00 -5.1076903840e+00 2.9489264181e+00 5.1076903840e+00 
93800 5.4513920549e+00 -1.0446206352e-02 2.9491041108e+00 -5.1079981568e+00 2.9491041108e+00 5.1079981568e+00 
93900 5.4513902363e+00 -1.0412589901e-02 2.9492812207e+00 -5.1083049201e+00 2.9492812207e+00 5.1083049201e+00 
94000 5.4513884296e+00 -1.0379097507e-02 2.9494577501e+00 -5.1086106779e+00 2.9494577501e+00 5.1086106779e+00 
94100 5.4513866346e+00 -1.0345728640e-02 2.9496337011e+00 -5.1089154340e+00 2.9496337011e+00 5.1089154340e+00 
94200 5.4513848514e+00 -1.0312482772e-02 2.9498090759e+00 -5.1092191921e+00 2.9498090759e+00 5.1092191921e+00 
94300 5.4513830797e+00 -1.0279359377e-02 2.9499838768e+00 -5.1095219561e+00 2.9499838768e+00 5.1095219561e+00 
94400 5.4513813195e+00 -1.0246357935e-02 2.9501581059e+00 -5.1098237298e+00 2.9501581059e+00 5.1098237298e+00 
94500 5.4513795708e+00 -1.0213477925e-02 2.9503317654e+00 -5.1101245168e+00 2.9503317654e+00 5.1101245168e+00 
94600 5.4513778334e+00 -1.0180718829e-02 2.9505048574e+00 -5.1104243210e+00 2.9505048574e+00 5.1104243210e+00 
94700 5.4513761073e+00 -1.0148080132e-02 2.9506773841e+00 -5.1107231460e+00 2.9506773841e+00 5.1107231460e+00 
94800 5.4513743923e+00 -1.0115561323e-02 2.9508493477e+00 -5.1110209956e+00 2.9508493477e+00 5.1110209956e+00 
94900 5.4513726885e+00 -1.0083161890e-02 2.9510207502e+00 -5.1113178735e+00 2.9510207502e+00 5.1113178735e+00 
95000 5.4513709958e+00 -1.0050881326e-02 2.9511915937e+00 -5.1116137832e+00 2.9511915937e+00 5.1116137832e+00 
95100 5.4513693140e+00 -1.0018719127e-02 2.9513618805e+00 -5.1119087286e+00 2.9513618805e+00 5.1119087286e+00 
95200 5.4513676430e+00 -9.9866747880e-03 2.9515316126e+00 -5.1122027131e+00 2.9515316126e+00 5.1122027131e+00 
95300 5.4513659829e+00 -9.9547478099e-03 2.9517007920e+00 -5.1124957406e+00 2.9517007920e+00 5.1124957406e+00 
95400 5.4513643335e+00 -9.9229376942e-03 2.9518694210e+00 -5.1127878144e+00 2.9518694210e+00 5.1127878144e+00 
95500 5.4513626948e+00 -9.8912439452e-03 2.9520375014e+00 -5.1130789383e+00 2.9520375014e+00 5.1130789383e+00 
95600 5.4513610666e+00 -9.8596660695e-03 2.9522050355e+00 -5.1133691159e+00 2.9522050355e+00 5.1133691159e+00 
95700 5.4513594490e+00 -9.8282035760e-03 2.9523720252e+00 -5.1136583506e+00 2.9523720252e+00 5.1136583506e+00 
95800 5.4513578418e+00 -9.7968559760e-03 2.9525384727e+00 -5.1139466460e+00 2.9525384727e+00 5.1139466460e+00 
95900 5.4513562449e+00 -9.7656227831e-03 2.9527043799e+00 -5.1142340057e+00 2.9527043799e+00 5.1142340057e+00 
96000 5.4513546583e+00 -9.7345035132e-03 2.9528697489e+00 -5.1145204332e+00 2.9528697489e+00 5.1145204332e+00 
96100 5.4513530820e+00 -9.7034976844e-03 2.9530345816e+00 -5.1148059319e+00 2.9530345816e+00 5.1148059319e+00 
96200 5.4513515157e+00 -9.6726048173e-03 2.9531988802e+00 -5.1150905054e+00 2.9531988802e+00 5.1150905054e+00 
96300 5.4513499596e+00 -9.6418244346e-03 2.9533626466e+00 -5.1153741571e+00 2.9533626466e+00 5.1153741571e+00 
96400 5.4513484135e+00 -9.6111560614e-03 2.9535258828e+00 -5.1156568905e+00 2.9535258828e+00 5.1156568905e+00 
96500 5.4513468773e+00 -9.5805992247e-03 2.9536885908e+00 -5.1159387089e+00 2.9536885908e+00 5.1159387089e+00 
96600 5.4513453509e+00 -9.5501534543e-03 2.9538507725e+00 -5.1162196160e+00 2.9538507725e+00 5.1162196160e+00 
96700 5.4513438344e+00 -9.5198182817e-03 2.9540124300e+00 -5.1164996149e+00 2.9540124300e+00 5.1164996149e+00 
96800 5.4513423275e+00 -9.4895932410e-03 2.9541735651e+00 -5.1167787092e+00 2.9541735651e+00 5.1167787092e+00 
96900 5.4513408304e+00 -9.4594778683e-03 2.9543341799e+00 -5.1170569021e+00 2.9543341799e+00 5.1170569021e+00 
97000 5.4513393428e+00 -9.4294717018e-03 2.9544942763e+00 -5.1173341972e+00 2.9544942763e+00 5.1173341972e+00 
97100 5.4513378648e+00 -9.3995742823e-03 2.9546538562e+00 -5.1176105976e+00 2.9546538562e+00 5.1176105976e+00 
97200 5.4513363962e+00 -9.3697851523e-03 2.9548129215e+00 -5.1178861068e+00 2.9548129215e+00 5.1178861068e+00 
97300 5.4513349370e+00 -9.3401038568e-03 2.9549714741e+00 -5.1181607281e+00 2.9549714741e+00 5.1181607281e+00 
97400 5.4513334871e+00 -9.3105299428e-03 2.9551295160e+00 -5.1184344647e+00 2.9551295160e+00 5.1184344647e+00 
97500 5.4513320465e+00 -9.2810629593e-03 2.9552870491e+00 -5.1187073200e+00 2.9552870491e+00 5.1187073200e+00 
97600 5.4513306151e+00 -9.2517024578e-03 2.9554440752e+00 -5.1189792972e+00 2.9554440752e+00 5.1189792972e+00 
97700 5.4513291929e+00 -9.2224479916e-03 2.9556005963e+00 -5.1192503996e+00 2.9556005963e+00 5.1192503996e+00 
97800 5.4513277797e+00 -9.1932991163e-03 2.9557566141e+00 -5.1195206305e+00 2.9557566141e+00 5.1195206305e+00 
97900 5.4513263755e+00 -9.1642553895e-03 2.9559121307e+00 -5.1197899930e+00 2.9559121307e+00 5.1197899930e+00 
98000 5.4513249803e+00 -9.1353163709e-03 2.9560671477e+00 -5.1200584904e+00 2.9560671477e+00 5.1200584904e+00 
98100 5.4513235939e+00 -9.1064816223e-03 2.9562216671e+00 -5.1203261259e+00 2.9562216671e+00 5.1203261259e+00 
98200 5.4513222164e+00 -9.0777507075e-03 2.9563756908e+00 -5.1205929027e+00 2.9563756908e+00 5.1205929027e+00 
98300 5.4513208477e+00 -9.0491231926e-03 2.9565292205e+00 -5.1208588239e+00 2.9565292205e+00 5.1208588239e+00 
98400 5.4513194876e+00 -9.0205986454e-03 2.9566822580e+00 -5.1211238928e+00 2.9566822580e+00 5.1211238928e+00 
98500 5.4513181362e+00 -8.9921766360e-03 2.9568348053e+00 -5.1213881124e+00 2.9568348053e+00 5.1213881124e+00 
98600 5.4513167934e+00 -8.9638567364e-03 2.9569868641e+00 -5.1216514859e+00 2.9569868641e+00 5.1216514859e+00 
98700 5.4513154591e+00 -8.9356385207e-03 2.9571384362e+00 -5.1219140165e+00 2.9571384362e+00 5.1219140165e+00 
98800 5.4513141333e+00 -8.9075215650e-03 2.9572895234e+00 -5.1221757072e+00 2.9572895234e+00 5.1221757072e+00 
98900 5.4513128159e+00 -8.8795054472e-03 2.9574401274e+00 -5.1224365611e+00 2.9574401274e+00 5.1224365611e+00 
99000 5.4513115068e+00 -8.8515897475e-03 2.9575902502e+00 -5.1226965813e+00 2.9575902502e+00 5.1226965813e+00 
99100 5.4513102061e+00 -8.8237740480e-03 2.9577398934e+00 -5.1229557709e+00 2.9577398934e+00 5.1229557709e+00 
99200 5.4513089135e+00 -8.7960579325e-03 2.9578890588e+00 -5.1232141329e+00 2.9578890588e+00 5.1232141329e+00 
99300 5.4513076292e+00 -8.7684409870e-03 2.9580377481e+00 -5.1234716704e+00 2.9580377481e+00 5.1234716704e+00 
99400 5.4513063530e+00 -8.7409227996e-03 2.9581859631e+00 -5.1237283864e+00 2.9581859631e+00 5.1237283864e+00 
99500 5.4513050848e+00 -8.7135029599e-03 2.9583337056e+00 -5.1239842839e+00 2.9583337056e+00 5.1239842839e+00 
99600 5.4513038247e+00 -8.6861810599e-03 2.9584809773e+00 -5.1242393659e+00 2.9584809773e+00 5.1242393659e+00 
99700 5.4513025725e+00 -8.6589566931e-03 2.9586277799e+00 -5.1244936355e+00 2.9586277799e+00 5.1244936355e+00 
99800 5.4513013283e+00 -8.6318294553e-03 2.9587741151e+00 -5.1247470955e+00 2.9587741151e+00 5.1247470955e+00 
99900 5.4513000918e+00 -8.6047989438e-03 2.9589199846e+00 -5.1249997489e+00 2.9589199846e+00 5.1249997489e+00 
100000 5.4512988632e+00 -8.5778647582e-03 2.9590653902e+00 -5.1252515988e+00 2.9590653902e+00 5.1252515988e+00 
100100 5.4512976424e+00 -8.5510264997e-03 2.9592103335e+00 -5.1255026480e+00 2.9592103335e+00 5.1255026480e+00 
100200 5.4512964292e+00 -8.5242837715e-03 2.9593548163e+00 -5.1257528994e+00 2.9593548163e+00 5.1257528994e+00 
100300 5.4512952237e+00 -8.4976361786e-03 2.9594988401e+00 -5.1260023560e+00 2.9594988401e+00 5.1260023560e+00 
100400 5.4512940257e+00 -8.4710833278e-03 2.9596424067e+00 -5.1262510207e+00 2.9596424067e+00 5.1262510207e+00 
100500 5.4512928353e+00 -8.4446248279e-03 2.9597855178e+00 -5.1264988963e+00 2.9597855178e+00 5.1264988963e+00 
100600 5.4512916524e+00 -8.4182602895e-03 2.9599281750e+00 -5.1267459858e+00 2.9599281750e+00 5.1267459858e+00 
100700 5.4512904769e+00 -8.3919893249e-03 2.9600703799e+00 -5.1269922920e+00 2.9600703799e+00 5.1269922920e+00 
100800 5.4512893088e+00 -8.3658115483e-03 2.9602121342e+00 -5.1272378177e+00 2.9602121342e+00 5.1272378177e+00 
100900 5.4512881480e+00 -8.3397265758e-03 2.9603534396e+00 -5.1274825658e+00 2.9603534396e+00 5.1274825658e+00 
101000 5.4512869946e+00 -8.3137340251e-03 2.9604942977e+00 -5.1277265391e+00 2.9604942977e+00 5.1277265391e+00 
101100 5.4512858483e+00 -8.2878335159e-03 2.9606347100e+00 -5.1279697404e+00 2.9606347100e+00 5.1279697404e+00 
101200 5.4512847093e+00 -8.2620246696e-03 2.9607746783e+00 -5.1282121726e+00 2.9607746783e+00 5.1282121726e+00 
101300 5.4512835774e+00 -8.2363071092e-03 2.9609142041e+00 -5.1284538384e+00 2.9609142041e+00 5.1284538384e+00 
101400 5.4512824525e+00 -8.2106804598e-03 2.9610532891e+00 -5.1286947406e+00 2.9610532891e+00 5.1286947406e+00 
101500 5.4512813347e+00 -8.1851443479e-03 2.9611919347e+00 -5.1289348819e+00 2.9611919347e+00 5.1289348819e+00 
101600 5.4512802240e+00 -8.1596984021e-03 2.9613301427e+00 -5.1291742652e+00 2.9613301427e+00 5.1291742652e+00 
101700 5.4512791201e+00 -8.1343422524e-03 2.9614679146e+00 -5.1294128931e+00 2.9614679146e+00 5.1294128931e+00 
101800 5.4512780232e+00 -8.1090755308e-03 2.9616052520e+00 -5.1296507685e+00 2.9616052520e+00 5.1296507685e+00 
101900 5.4512769331e+00 -8.0838978708e-03 2.9617421565e+00 -5.1298878939e+00 2.9617421565e+00 5.1298878939e+00 
102000 5.4512758498e+00 -8.0588089078e-03 2.9618786295e+00 -5.1301242722e+00 2.9618786295e+00 5.1301242722e+00 
102100 5.4512747733e+00 -8.0338082788e-03 2.9620146727e+00 -5.1303599059e+00 2.9620146727e+00 5.1303599059e+00 
102200 5.4512737035e+00 -8.0088956225e-03 2.9621502877e+00 -5.1305947979e+00 2.9621502877e+00 5.1305947979e+00 
102300 5.4512726404e+00 -7.9840705794e-03 2.9622854759e+00 -5.1308289508e+00 2.9622854759e+00 5.1308289508e+00 
102400 5.4512715839e+00 -7.9593327914e-03 2.9624202389e+00 -5.1310623672e+00 2.9624202389e+00 5.1310623672e+00 
102500 5.4512705340e+00 -7.9346819024e-03 2.9625545783e+00 -5.1312950498e+00 2.9625545783e+00 5.1312950498e+00 
102600 5.4512694906e+00 -7.9101175577e-03 2.9626884955e+00 -5.1315270012e+00 2.9626884955e+00 5.1315270012e+00 
102700 5.4512684538e+00 -7.8856394045e-03 2.9628219921e+00 -5.1317582241e+00 2.9628219921e+00 5.1317582241e+00 
102800 5.4512674233e+00 -7.8612470913e-03 2.9629550696e+00 -5.1319887211e+00 2.9629550696e+00 5.1319887211e+00 
102900 5.4512663993e+00 -7.8369402686e-03 2.9630877295e+00 -5.1322184948e+00 2.9630877295e+00 5.1322184948e+00 
103000 5.4512653817e+00 -7.8127185884e-03 2.9632199733e+00 -5.1324475477e+00 2.9632199733e+00 5.1324475477e+00 
103100 5.4512643704e+00 -7.7885817041e-03 2.9633518025e+00 -5.1326758826e+00 2.9633518025e+00 5.1326758826e+00 
103200 5.4512633653e+00 -7.7645292711e-03 2.9634832185e+00 -5.1329035018e+00 2.9634832185e+00 5.1329035018e+00 
103300 5.4512623665e+00 -7.7405609461e-03 2.9636142229e+00 -5.1331304081e+00 2.9636142229e+00 5.1331304081e+00 
103400 5.4512613739e+00 -7.7166763874e-03 2.9637448171e+00 -5.1333566039e+00 2.9637448171e+00 5.1333566039e+00 
103500 5.4512603875e+00 -7.6928752552e-03 2.9638750026e+00 -5.1335820918e+00 2.9638750026e+00 5.1335820918e+00 
103600 5.4512594071e+00 -7.6691572109e-03 2.9640047809e+00 -5.1338068744e+00 2.9640047809e+00 5.1338068744e+00 
103700 5.4512584329e+00 -7.6455219178e-03 2.9641341534e+00 -5.1340309541e+00 2.9641341534e+00 5.1340309541e+00 
103800 5.4512574646e+00 -7.6219690404e-03 2.9642631215e+00 -5.1342543335e+00 2.9642631215e+00 5.1342543335e+00 
103900 5.4512565024e+00 -7.5984982450e-03 2.9643916868e+00 -5.1344770150e+00 2.9643916868e+00 5.1344770150e+00 
104000 5.4512555461e+00 -7.5751091995e-03 2.9645198505e+00 -5.1346990012e+00 2.9645198505e+00 5.1346990012e+00 
104100 5.4512545958e+00 -7.5518015732e-03 2.9646476143e+00 -5.1349202945e+00 2.9646476143e+00 5.1349202945e+00 
104200 5.4512536513e+00 -7.5285750369e-03 2.9647749794e+00 -5.1351408974e+00 2.9647749794e+00 5.1351408974e+00 
104300 5.4512527126e+00 -7.5054292631e-03 2.9649019474e+00 -5.1353608124e+00 2.9649019474e+00 5.1353608124e+00 
104400 5.4512517798e+00 -7.4823639257e-03 2.9650285196e+00 -5.1355800418e+00 2.9650285196e+00 5.1355800418e+00 
104500 5.4512508527e+00 -7.4593787000e-03 2.9651546974e+00 -5.1357985882e+00 2.9651546974e+00 5.1357985882e+00 
104600 5.4512499313e+00 -7.4364732631e-03 2.9652804823e+00 -5.1360164540e+00 2.9652804823e+00 5.1360164540e+00 
104700 5.4512490156e+00 -7.4136472933e-03 2.9654058756e+00 -5.1362336416e+00 2.9654058756e+00 5.1362336416e+00 
104800 5.4512481056e+00 -7.3909004705e-03 2.9655308787e+00 -5.1364501533e+00 2.9655308787e+00 5.1364501533e+00 
104900 5.4512472012e+00 -7.3682324762e-03 2.9656554930e+00 -5.1366659916e+00 2.9656554930e+00 5.1366659916e+00 
105000 5.4512463023e+00 -7.3456429932e-03 2.9657797199e+00 -5.1368811589e+00 2.9657797199e+00 5.1368811589e+00 
105100 5.4512454090e+00 -7.3231317057e-03 2.9659035608e+00 -5.1370956576e+00 2.9659035608e+00 5.1370956576e+00 
105200 5.4512445211e+00 -7.3006982997e-03 2.9660270169e+00 -5.1373094900e+00 2.9660270169e+00 5.1373094900e+00 
105300 5.4512436388e+00 -7.2783424622e-03 2.9661500898e+00 -5.1375226584e+00 2.9661500898e+00 5.1375226584e+00 
105400 5.4512427618e+00 -7.2560638820e-03 2.9662727807e+00 -5.1377351653e+00 2.9662727807e+00 5.1377351653e+00 
105500 5.4512418903e+00 -7.2338622492e-03 2.9663950910e+00 -5.1379470129e+00 2.9663950910e+00 5.1379470129e+00 
105600 5.4512410241e+00 -7.2117372554e-03 2.9665170220e+00 -5.1381582037e+00 2.9665170220e+00 5.1381582037e+00 
105700 5.4512401632e+00 -7.1896885934e-03 2.9666385751e+00 -5.1383687398e+00 2.9666385751e+00 5.1383687398e+00 
105800 5.4512393076e+00 -7.1677159576e-03 2.9667597516e+00 -5.1385786237e+00 2.9667597516e+00 5.1385786237e+00 
105900 5.4512384573e+00 -7.1458190438e-03 2.9668805529e+00 -5.1387878575e+00 2.9668805529e+00 5.1387878575e+00 
106000 5.4512376121e+00 -7.1239975492e-03 2.9670009801e+00 -5.1389964437e+00 2.9670009801e+00 5.1389964437e+00 
106100 5.4512367722e+00 -7.1022511723e-03 2.9671210348e+00 -5.1392043845e+00 2.9671210348e+00 5.1392043845e+00 
106200 5.4512359374e+00 -7.0805796132e-03 2.9672407181e+00 -5.1394116821e+00 2.9672407181e+00 5.1394116821e+00 
106300 5.4512351077e+00 -7.0589825730e-03 2.9673600315e+00 -5.1396183388e+00 2.9673600315e+00 5.1396183388e+00 
106400 5.4512342831e+00 -7.0374597546e-03 2.9674789761e+00 -5.1398243569e+00 2.9674789761e+00 5.1398243569e+00 
106500 5.4512334635e+00 -7.0160108620e-03 2.9675975533e+00 -5.1400297387e+00 2.9675975533e+00 5.1400297387e+00 
106600 5.4512326490e+00 -6.9946356005e-03 2.9677157643e+00 -5.1402344862e+00 2.9677157643e+00 5.1402344862e+00 
106700 5.4512318394e+00 -6.9733336770e-03 2.9678336105e+00 -5.1404386019e+00 2.9678336105e+00 5.1404386019e+00 
106800 5.4512310348e+00 -6.9521047996e-03 2.9679510932e+00 -5.1406420878e+00 2.9679510932e+00 5.1406420878e+00 
106900 5.4512302351e+00 -6.9309486778e-03 2.9680682136e+00 -5.1408449462e+00 2.9680682136e+00 5.1408449462e+00 
107000 5.4512294402e+00 -6.9098650223e-03 2.9681849729e+00 -5.1410471794e+00 2.9681849729e+00 5.1410471794e+00 
107100 5.4512286503e+00 -6.8888535452e-03 2.9683013725e+00 -5.1412487894e+00 2.9683013725e+00 5.1412487894e+00 
107200 5.4512278651e+00 -6.8679139599e-03 2.9684174136e+00 -5.1414497784e+00 2.9684174136e+00 5.1414497784e+00 
107300 5.4512270847e+00 -6.8470459813e-03 2.9685330974e+00 -5.1416501487e+00 2.9685330974e+00 5.1416501487e+00 
107400 5.4512263091e+00 -6.8262493253e-03 2.9686484253e+00 -5.1418499024e+00 2.9686484253e+00 5.1418499024e+00 
107500 5.4512255383e+00 -6.8055237093e-03 2.9687633984e+00 -5.1420490416e+00 2.9687633984e+00 5.1420490416e+00 
107600 5.4512247721e+00 -6.7848688518e-03 2.9688780179e+00 -5.1422475685e+00 2.9688780179e+00 5.1422475685e+00 
107700 5.4512240106e+00 -6.7642844729e-03 2.9689922852e+00 -5.1424454853e+00 2.9689922852e+00 5.1424454853e+00 
107800 5.4512232537e+00 -6.7437702936e-03 2.9691062014e+00 -5.1426427940e+00 2.9691062014e+00 5.1426427940e+00 
107900 5.4512225014e+00 -6.7233260365e-03 2.9692197678e+00 -5.1428394967e+00 2.9692197678e+00 5.1428394967e+00 
108000 5.4512217537e+00 -6.7029514254e-03 2.9693329856e+00 -5.1430355956e+00 2.9693329856e+00 5.1430355956e+00 
108100 5.4512210105e+00 -6.6826461850e-03 2.9694458560e+00 -5.1432310928e+00 2.9694458560e+00 5.1432310928e+00 
108200 5.4512202719e+00 -6.6624100418e-03 2.9695583801e+00 -5.1434259904e+00 2.9695583801e+00 5.1434259904e+00 
108300 5.4512195377e+00 -6.6422427232e-03 2.9696705593e+00 -5.1436202904e+00 2.9696705593e+00 5.1436202904e+00 
108400 5.4512188080e+00 -6.6221439579e-03 2.9697823947e+00 -5.1438139950e+00 2.9697823947e+00 5.1438139950e+00 
108500 5.4512180827e+00 -6.6021134758e-03 2.9698938874e+00 -5.1440071061e+00 2.9698938874e+00 5.1440071061e+00 
108600 5.4512173619e+00 -6.5821510082e-03 2.9700050388e+00 -5.1441996259e+00 2.9700050388e+00 5.1441996259e+00 
108700 5.4512166453e+00 -6.5622562875e-03 2.9701158499e+00 -5.1443915564e+00 2.9701158499e+00 5.1443915564e+00 
108800 5.4512159332e+00 -6.5424290473e-03 2.9702263220e+00 -5.1445828997e+00 2.9702263220e+00 5.1445828997e+00 
108900 5.4512152253e+00 -6.5226690224e-03 2.9703364562e+00 -5.1447736577e+00 2.9703364562e+00 5.1447736577e+00 
109000 5.4512145218e+00 -6.5029759488e-03 2.9704462537e+00 -5.1449638325e+00 2.9704462537e+00 5.1449638325e+00 
109100 5.4512138225e+00 -6.4833495638e-03 2.9705557156e+00 -5.1451534261e+00 2.9705557156e+00 5.1451534261e+00 
109200 5.4512131274e+00 -6.4637896059e-03 2.9706648431e+00 -5.1453424406e+00 2.9706648431e+00 5.1453424406e+00 
109300 5.4512124365e+00 -6.4442958145e-03 2.9707736375e+00 -5.1455308779e+00 2.9707736375e+00 5.1455308779e+00 
109400 5.4512117498e+00 -6.4248679305e-03 2.9708820997e+00 -5.1457187400e+00 2.9708820997e+00 5.1457187400e+00 
109500 5.4512110673e+00 -6.4055056959e-03 2.9709902310e+00 -5.1459060289e+00 2.9709902310e+00 5.1459060289e+00 
109600 5.4512103889e+00 -6.3862088538e-03 2.9710980325e+00 -5.1460927466e+00 2.9710980325e+00 5.1460927466e+00 
109700 5.4512097146e+00 -6.3669771484e-03 2.9712055054e+00 -5.1462788950e+00 2.9712055054e+00 5.1462788950e+00 
109800 5.4512090443e+00 -6.3478103253e-03 2.9713126507e+00 -5.1464644761e+00 2.9713126507e+00 5.1464644761e+00 
109900 5.4512083781e+00 -6.3287081309e-03 2.9714194696e+00 -5.1466494920e+00 2.9714194696e+00 5.1466494920e+00 
110000 5.4512077159e+00 -6.3096703131e-03 2.9715259632e+00 -5.1468339444e+00 2.9715259632e+00 5.1468339444e+00 
110100 5.4512070577e+00 -6.2906966208e-03 2.9716321327e+00 -5.1470178353e+00 2.9716321327e+00 5.1470178353e+00 
110200 5.4512064035e+00 -6.2717868038e-03 2.9717379792e+00 -5.1472011667e+00 2.9717379792e+00 5.1472011667e+00 
110300 5.4512057532e+00 -6.2529406134e-03 2.9718435037e+00 -5.1473839405e+00 2.9718435037e+00 5.1473839405e+00 
110400 5.4512051068e+00 -6.2341578019e-03 2.9719487074e+00 -5.1475661587e+00 2.9719487074e+00 5.1475661587e+00 
110500 5.4512044643e+00 -6.2154381225e-03 2.9720535913e+00 -5.1477478230e+00 2.9720535913e+00 5.1477478230e+00 
110600 5.4512038257e+00 -6.1967813298e-03 2.9721581566e+00 -5.1479289354e+00 2.9721581566e+00 5.1479289354e+00 
110700 5.4512031910e+00 -6.1781871794e-03 2.9722624044e+00 -5.1481094979e+00 2.9722624044e+00 5.1481094979e+00 
110800 5.4512025600e+00 -6.1596554280e-03 2.9723663357e+00 -5.1482895122e+00 2.9723663357e+00 5.1482895122e+00 
110900 5.4512019328e+00 -6.1411858332e-03 2.9724699517e+00 -5.1484689803e+00 2.9724699517e+00 5.1484689803e+00 
111000 5.4512013094e+00 -6.1227781541e-03 2.9725732533e+00 -5.1486479040e+00 2.9725732533e+00 5.1486479040e+00 
111100 5.4512006898e+00 -6.1044321505e-03 2.9726762418e+00 -5.1488262852e+00 2.9726762418e+00 5.1488262852e+00 
111200 5.4512000739e+00 -6.0861475835e-03 2.9727789181e+00 -5.1490041258e+00 2.9727789181e+00 5.1490041258e+00 
111300 5.4511994616e+00 -6.0679242152e-03 2.9728812833e+00 -5.1491814275e+00 2.9728812833e+00 5.1491814275e+00 
111400 5.4511988531e+00 -6.0497618087e-03 2.9729833385e+00 -5.1493581923e+00 2.9729833385e+00 5.1493581923e+00 
111500 5.4511982481e+00 -6.0316601283e-03 2.9730850847e+00 -5.1495344219e+00 2.9730850847e+00 5.1495344219e+00 
111600 5.4511976468e+00 -6.0136189392e-03 2.9731865230e+00 -5.1497101182e+00 2.9731865230e+00 5.1497101182e+00 
111700 5.4511970492e+00 -5.9956380079e-03 2.9732876544e+00 -5.1498852830e+00 2.9732876544e+00 5.1498852830e+00 
111800 5.4511964551e+00 -5.9777171016e-03 2.9733884801e+00 -5.1500599181e+00 2.9733884801e+00 5.1500599181e+00 
111900 5.4511958645e+00 -5.9598559888e-03 2.9734890009e+00 -5.1502340253e+00 2.9734890009e+00 5.1502340253e+00 
112000 5.4511952775e+00 -5.9420544389e-03 2.9735892180e+00 -5.1504076065e+00 2.9735892180e+00 5.1504076065e+00 
112100 5.4511946940e+00 -5.9243122225e-03 2.9736891324e+00 -5.1505806633e+00 2.9736891324e+00 5.1505806633e+00 
112200 5.4511941140e+00 -5.9066291110e-03 2.9737887451e+00 -5.1507531976e+00 2.9737887451e+00 5.1507531976e+00 
112300 5.4511935374e+00 -5.8890048770e-03 2.9738880572e+00 -5.1509252111e+00 2.9738880572e+00 5.1509252111e+00 
112400 5.4511929643e+00 -5.8714392939e-03 2.9739870696e+00 -5.1510967057e+00 2.9739870696e+00 5.1510967057e+00 
112500 5.4511923947e+00 -5.8539321365e-03 2.9740857834e+00 -5.1512676830e+00 2.9740857834e+00 5.1512676830e+00 
112600 5.4511918284e+00 -5.8364831801e-03 2.9741841996e+00 -5.1514381449e+00 2.9741841996e+00 5.1514381449e+00 
112700 5.4511912655e+00 -5.8190922015e-03 2.9742823192e+00 -5.1516080930e+00 2.9742823192e+00 5.1516080930e+00 
112800 5.4511907059e+00 -5.8017589780e-03 2.9743801433e+00 -5.1517775291e+00 2.9743801433e+00 5.1517775291e+00 
112900 5.4511901497e+00 -5.7844832884e-03 2.9744776727e+00 -5.1519464550e+00 2.9744776727e+00 5.1519464550e+00 
113000 5.4511895969e+00 -5.7672649120e-03 2.9745749085e+00 -5.1521148724e+00 2.9745749085e+00 5.1521148724e+00 
113100 5.4511890473e+00 -5.7501036294e-03 2.9746718517e+00 -5.1522827829e+00 2.9746718517e+00 5.1522827829e+00 
113200 5.4511885010e+00 -5.7329992221e-03 2.9747685033e+00 -5.1524501884e+00 2.9747685033e+00 5.1524501884e+00 
113300 5.4511879579e+00 -5.7159514725e-03 2.9748648642e+00 -5.1526170904e+00 2.9748648642e+00 5.1526170904e+00 
113400 5.4511874181e+00 -5.6989601640e-03 2.9749609355e+00 -5.1527834908e+00 2.9749609355e+00 5.1527834908e+00 
113500 5.4511868815e+00 -5.6820250811e-03 2.9750567181e+00 -5.1529493912e+00 2.9750567181e+00 5.1529493912e+00 
113600 5.4511863480e+00 -5.6651460090e-03 2.9751522130e+00 -5.1531147932e+00 2.9751522130e+00 5.1531147932e+00 
113700 5.4511858178e+00 -5.6483227340e-03 2.9752474212e+00 -5.1532796986e+00 2.9752474212e+00 5.1532796986e+00 
113800 5.4511852907e+00 -5.6315550434e-03 2.9753423436e+00 -5.1534441090e+00 2.9753423436e+00 5.1534441090e+00 
113900 5.4511847667e+00 -5.6148427252e-03 2.9754369812e+00 -5.1536080261e+00 2.9754369812e+00 5.1536080261e+00 
114000 5.4511842459e+00 -5.5981855687e-03 2.9755313349e+00 -5.1537714516e+00 2.9755313349e+00 5.1537714516e+00 
114100 5.4511837281e+00 -5.5815833639e-03 2.9756254058e+00 -5.1539343871e+00 2.9756254058e+00 5.1539343871e+00 
114200 5.4511832135e+00 -5.5650359016e-03 2.9757191947e+00 -5.1540968342e+00 2.9757191947e+00 5.1540968342e+00 
114300 5.4511827018e+00 -5.5485429739e-03 2.9758127026e+00 -5.1542587947e+00 2.9758127026e+00 5.1542587947e+00 
114400 5.4511821932e+00 -5.5321043735e-03 2.9759059304e+00 -5.1544202700e+00 2.9759059304e+00 5.1544202700e+00 
114500 5.4511816877e+00 -5.5157198941e-03 2.9759988791e+00 -5.1545812619e+00 2.9759988791e+00 5.1545812619e+00 
114600 5.4511811851e+00 -5.4993893304e-03 2.9760915497e+00 -5.1547417720e+00 2.9760915497e+00 5.1547417720e+00 
114700 5.4511806855e+00 -5.4831124779e-03 2.9761839430e+00 -5.1549018019e+00 2.9761839430e+00 5.1549018019e+00 
114800 5.4511801888e+00 -5.4668891330e-03 2.9762760599e+00 -5.1550613532e+00 2.9762760599e+00 5.1550613532e+00 
114900 5.4511796951e+00 -5.4507190930e-03 2.9763679015e+00 -5.1552204274e+00 2.9763679015e+00 5.1552204274e+00 
115000 5.4511792044e+00 -5.4346021562e-03 2.9764594686e+00 -5.1553790263e+00 2.9764594686e+00 5.1553790263e+00 
115100 5.4511787165e+00 -5.4185381217e-03 2.9765507621e+00 -5.1555371513e+00 2.9765507621e+00 5.1555371513e+00 
115200 5.4511782315e+00 -5.4025267894e-03 2.9766417830e+00 -5.1556948041e+00 2.9766417830e+00 5.1556948041e+00 
115300 5.4511777494e+00 -5.3865679603e-03 2.9767325322e+00 -5.1558519863e+00 2.9767325322e+00 5.1558519863e+00 
115400 5.4511772701e+00 -5.3706614361e-03 2.9768230105e+00 -5.1560086993e+00 2.9768230105e+00 5.1560086993e+00 
115500 5.4511767937e+00 -5.3548070193e-03 2.9769132189e+00 -5.1561649448e+00 2.9769132189e+00 5.1561649448e+00 
115600 5.4511763200e+00 -5.3390045135e-03 2.9770031583e+00 -5.1563207244e+00 2.9770031583e+00 5.1563207244e+00 
115700 5.4511758492e+00 -5.3232537230e-03 2.9770928295e+00 -5.1564760395e+00 2.9770928295e+00 5.1564760395e+00 
115800 5.4511753812e+00 -5.3075544530e-03 2.9771822335e+00 -5.1566308918e+00 2.9771822335e+00 5.1566308918e+00 
115900 5.4511749159e+00 -5.2919065095e-03 2.9772713712e+00 -5.1567852828e+00 2.9772713712e+00 5.1567852828e+00 
116000 5.4511744533e+00 -5.2763096994e-03 2.9773602434e+00 -5.1569392139e+00 2.9773602434e+00 5.1569392139e+00 
116100 5.4511739935e+00 -5.2607638305e-03 2.9774488510e+00 -5.1570926868e+00 2.9774488510e+00 5.1570926868e+00 
116200 5.4511735364e+00 -5.2452687113e-03 2.9775371949e+00 -5.1572457030e+00 2.9775371949e+00 5.1572457030e+00 
116300 5.4511730820e+00 -5.2298241513e-03 2.9776252760e+00 -5.1573982639e+00 2.9776252760e+00 5.1573982639e+00 
116400 5.4511726303e+00 -5.2144299607e-03 2.9777130951e+00 -5.1575503711e+00 2.9777130951e+00 5.1575503711e+00 
116500 5.4511721812e+00 -5.1990859506e-03 2.9778006532e+00 -5.1577020261e+00 2.9778006532e+00 5.1577020261e+00 
116600 5.4511717348e+00 -5.1837919328e-03 2.9778879510e+00 -5.1578532304e+00 2.9778879510e+00 5.1578532304e+00 
116700 5.4511712910e+00 -5.1685477201e-03 2.9779749895e+00 -5.1580039855e+00 2.9779749895e+00 5.1580039855e+00 
116800 5.4511708498e+00 -5.1533531260e-03 2.9780617695e+00 -5.1581542928e+00 2.9780617695e+00 5.1581542928e+00 
116900 5.4511704112e+00 -5.1382079648e-03 2.9781482918e+00 -5.1583041539e+00 2.9781482918e+00 5.1583041539e+00 
117000 5.4511699752e+00 -5.1231120518e-03 2.9782345574e+00 -5.1584535703e+00 2.9782345574e+00 5.1584535703e+00 
117100 5.4511695417e+00 -5.1080652028e-03 2.9783205670e+00 -5.1586025433e+00 2.9783205670e+00 5.1586025433e+00 
117200 5.4511691108e+00 -5.0930672346e-03 2.9784063216e+00 -5.1587510745e+00 2.9784063216e+00 5.1587510745e+00 
117300 5.4511686825e+00 -5.0781179648e-03 2.9784918218e+00 -5.1588991654e+00 2.9784918218e+00 5.1588991654e+00 
117400 5.4511682566e+00 -5.0632172116e-03 2.9785770687e+00 -5.1590468173e+00 2.9785770687e+00 5.1590468173e+00 
117500 5.4511678332e+00 -5.0483647943e-03 2.9786620630e+00 -5.1591940317e+00 2.9786620630e+00 5.1591940317e+00 
117600 5.4511674124e+00 -5.0335605327e-03 2.9787468056e+00 -5.1593408101e+00 2.9787468056e+00 5.1593408101e+00 
117700 5.4511669940e+00 -5.0188042475e-03 2.9788312972e+00 -5.1594871540e+00 2.9788312972e+00 5.1594871540e+00 
117800 5.4511665780e+00 -5.0040957601e-03 2.9789155388e+00 -5.1596330646e+00 2.9789155388e+00 5.1596330646e+00 
117900 5.4511661645e+00 -4.9894348929e-03 2.9789995311e+00 -5.1597785435e+00 2.9789995311e+00 5.1597785435e+00 
118000 5.4511657534e+00 -4.9748214689e-03 2.9790832749e+00 -5.1599235922e+00 2.9790832749e+00 5.1599235922e+00 
118100 5.4511653447e+00 -4.9602553117e-03 2.9791667712e+00 -5.1600682119e+00 2.9791667712e+00 5.1600682119e+00 
118200 5.4511649384e+00 -4.9457362459e-03 2.9792500206e+00 -5.1602124041e+00 2.9792500206e+00 5.1602124041e+00 
118300 5.4511645345e+00 -4.9312640969e-03 2.9793330240e+00 -5.1603561703e+00 2.9793330240e+00 5.1603561703e+00 
118400 5.4511641330e+00 -4.9168386907e-03 2.9794157823e+00 -5.1604995117e+00 2.9794157823e+00 5.1604995117e+00 
118500 5.4511637338e+00 -4.9024598540e-03 2.9794982961e+00 -5.1606424299e+00 2.9794982961e+00 5.1606424299e+00 
118600 5.4511633369e+00 -4.8881274143e-03 2.9795805664e+00 -5.1607849262e+00 2.9795805664e+00 5.1607849262e+00 
118700 5.4511629424e+00 -4.8738412001e-03 2.9796625939e+00 -5.1609270020e+00 2.9796625939e+00 5.1609270020e+00 
118800 5.4511625501e+00 -4.8596010403e-03 2.9797443793e+00 -5.1610686586e+00 2.9797443793e+00 5.1610686586e+00 
118900 5.4511621602e+00 -4.8454067647e-03 2.9798259236e+00 -5.1612098975e+00 2.9798259236e+00 5.1612098975e+00 
119000 5.4511617725e+00 -4.8312582036e-03 2.9799072275e+00 -5.1613507199e+00 2.9799072275e+00 5.1613507199e+00 
119100 5.4511613871e+00 -4.8171551885e-03 2.9799882918e+00 -5.1614911274e+00 2.9799882918e+00 5.1614911274e+00 
119200 5.4511610039e+00 -4.8030975512e-03 2.9800691172e+00 -5.1616311211e+00 2.9800691172e+00 5.1616311211e+00 
119300 5.4511606230e+00 -4.7890851243e-03 2.9801497046e+00 -5.1617707026e+00 2.9801497046e+00 5.1617707026e+00 
119400 5.4511602443e+00 -4.7751177413e-03 2.9802300547e+00 -5.1619098730e+00 2.9802300547e+00 5.1619098730e+00 
119500 5.4511598678e+00 -4.7611952362e-03 2.9803101683e+00 -5.1620486338e+00 2.9803101683e+00 5.1620486338e+00 
119600 5.4511594935e+00 -4.7473174439e-03 2.9803900462e+00 -5.1621869864e+00 2.9803900462e+00 5.1621869864e+00 
119700 5.4511591214e+00 -4.7334841999e-03 2.9804696891e+00 -5.1623249319e+00 2.9804696891e+00 5.1623249319e+00 
119800 5.4511587515e+00 -4.7196953403e-03 2.9805490978e+00 -5.1624624719e+00 2.9805490978e+00 5.1624624719e+00 
119900 5.4511583837e+00 -4.7059507022e-03 2.9806282731e+00 -5.1625996075e+00 2.9806282731e+00 5.1625996075e+00 
120000 5.4511580180e+00 -4.6922501230e-03 2.9807072157e+00 -5.1627363401e+00 2.9807072157e+00 5.1627363401e+00 
120100 5.4511576545e+00 -4.6785934412e-03 2.9807859264e+00 -5.1628726710e+00 2.9807859264e+00 5.1628726710e+00 
120200 5.4511572931e+00 -4.6649804957e-03 2.9808644059e+00 -5.1630086015e+00 2.9808644059e+00 5.1630086015e+00 
120300 5.4511569338e+00 -4.6514111262e-03 2.9809426551e+00 -5.1631441330e+00 2.9809426551e+00 5.1631441330e+00 
120400 5.4511565766e+00 -4.6378851730e-03 2.9810206745e+00 -5.1632792667e+00 2.9810206745e+00 5.1632792667e+00 
120500 5.4511562215e+00 -4.6244024773e-03 2.9810984651e+00 -5.1634140039e+00 2.9810984651e+00 5.1634140039e+00 
120600 5.4511558684e+00 -4.6109628807e-03 2.9811760275e+00 -5.1635483459e+00 2.9811760275e+00 5.1635483459e+00 
120700 5.4511555174e+00 -4.5975662257e-03 2.9812533624e+00 -5.1636822940e+00 2.9812533624e+00 5.1636822940e+00 
120800 5.4511551684e+00 -4.5842123552e-03 2.9813304707e+00 -5.1638158494e+00 2.9813304707e+00 5.1638158494e+00 
120900 5.4511548214e+00 -4.5709011131e-03 2.9814073530e+00 -5.1639490135e+00 2.9814073530e+00 5.1639490135e+00 
121000 5.4511544765e+00 -4.5576323438e-03 2.9814840101e+00 -5.1640817875e+00 2.9814840101e+00 5.1640817875e+00 
121100 5.4511541336e+00 -4.5444058922e-03 2.9815604427e+00 -5.1642141727e+00 2.9815604427e+00 5.1642141727e+00 
121200 5.4511537926e+00 -4.5312216042e-03 2.9816366516e+00 -5.1643461703e+00 2.9816366516e+00 5.1643461703e+00 
121300 5.4511534536e+00 -4.5180793261e-03 2.9817126374e+00 -5.1644777815e+00 2.9817126374e+00 5.1644777815e+00 
121400 5.4511531166e+00 -4.5049789049e-03 2.9817884009e+00 -5.1646090077e+00 2.9817884009e+00 5.1646090077e+00 
121500 5.4511527816e+00 -4.4919201882e-03 2.9818639427e+00 -5.1647398501e+00 2.9818639427e+00 5.1647398501e+00 
121600 5.4511524485e+00 -4.4789030245e-03 2.9819392637e+00 -5.1648703099e+00 2.9819392637e+00 5.1648703099e+00 
121700 5.4511521173e+00 -4.4659272627e-03 2.9820143646e+00 -5.1650003883e+00 2.9820143646e+00 5.1650003883e+00 
121800 5.4511517880e+00 -4.4529927523e-03 2.9820892459e+00 -5.1651300866e+00 2.9820892459e+00 5.1651300866e+00 
121900 5.4511514607e+00 -4.4400993436e-03 2.9821639085e+00 -5.1652594061e+00 2.9821639085e+00 5.1652594061e+00 
122000 5.4511511352e+00 -4.4272468874e-03 2.9822383531e+00 -5.1653883478e+00 2.9822383531e+00 5.1653883478e+00 
122100 5.4511508116e+00 -4.4144352353e-03 2.9823125803e+00 -5.1655169132e+00 2.9823125803e+00 5.1655169132e+00 
122200 5.4511504899e+00 -4.4016642393e-03 2.9823865909e+00 -5.1656451032e+00 2.9823865909e+00 5.1656451032e+00 
122300 5.4511501700e+00 -4.3889337523e-03 2.9824603855e+00 -5.1657729193e+00 2.9824603855e+00 5.1657729193e+00 
122400 5.4511498520e+00 -4.3762436275e-03 2.9825339649e+00 -5.1659003625e+00 2.9825339649e+00 5.1659003625e+00 
122500 5.4511495359e+00 -4.3635937190e-03 2.9826073297e+00 -5.1660274341e+00 2.9826073297e+00 5.1660274341e+00 
122600 5.4511492215e+00 -4.3509838814e-03 2.9826804807e+00 -5.1661541353e+00 2.9826804807e+00 5.1661541353e+00 
122700 5.4511489090e+00 -4.3384139698e-03 2.9827534185e+00 -5.1662804672e+00 2.9827534185e+00 5.1662804672e+00 
122800 5.4511485983e+00 -4.3258838401e-03 2.9828261437e+00 -5.1664064311e+00 2.9828261437e+00 5.1664064311e+00 
122900 5.4511482894e+00 -4.3133933486e-03 2.9828986572e+00 -5.1665320281e+00 2.9828986572e+00 5.1665320281e+00 
123000 5.4511479822e+00 -4.3009423525e-03 2.9829709595e+00 -5.1666572594e+00 2.9829709595e+00 5.1666572594e+00 
123100 5.4511476769e+00 -4.2885307094e-03 2.9830430514e+00 -5.1667821262e+00 2.9830430514e+00 5.1667821262e+00 
123200 5.4511473733e+00 -4.2761582774e-03 2.9831149335e+00 -5.1669066297e+00 2.9831149335e+00 5.1669066297e+00 
123300 5.4511470714e+00 -4.2638249153e-03 2.9831866065e+00 -5.1670307709e+00 2.9831866065e+00 5.1670307709e+00 
123400 5.4511467713e+00 -4.2515304827e-03 2.9832580711e+00 -5.1671545512e+00 2.9832580711e+00 5.1671545512e+00 
123500 5.4511464729e+00 -4.2392748394e-03 2.9833293278e+00 -5.1672779715e+00 2.9833293278e+00 5.1672779715e+00 
123600 5.4511461762e+00 -4.2270578461e-03 2.9834003775e+00 -5.1674010332e+00 2.9834003775e+00 5.1674010332e+00 
123700 5.4511458813e+00 -4.2148793639e-03 2.9834712208e+00 -5.1675237373e+00 2.9834712208e+00 5.1675237373e+00 
123800 5.4511455880e+00 -4.2027392546e-03 2.9835418582e+00 -5.1676460849e+00 2.9835418582e+00 5.1676460849e+00 
123900 5.4511452964e+00 -4.1906373805e-03 2.9836122905e+00 -5.1677680773e+00 2.9836122905e+00 5.1677680773e+00 
124000 5.4511450065e+00 -4.1785736044e-03 2.9836825184e+00 -5.1678897155e+00 2.9836825184e+00 5.1678897155e+00 
124100 5.4511447183e+00 -4.1665477899e-03 2.9837525424e+00 -5.1680110007e+00 2.9837525424e+00 5.1680110007e+00 
124200 5.4511444317e+00 -4.1545598009e-03 2.9838223633e+00 -5.1681319340e+00 2.9838223633e+00 5.1681319340e+00 
124300 5.4511441468e+00 -4.1426095021e-03 2.9838919816e+00 -5.1682525165e+00 2.9838919816e+00 5.1682525165e+00 
124400 5.4511438635e+00 -4.1306967587e-03 2.9839613981e+00 -5.1683727494e+00 2.9839613981e+00 5.1683727494e+00 
124500 5.4511435819e+00 -4.1188214363e-03 2.9840306134e+00 -5.1684926337e+00 2.9840306134e+00 5.1684926337e+00 
124600 5.4511433018e+00 -4.1069834013e-03 2.9840996280e+00 -5.1686121706e+00 2.9840996280e+00 5.1686121706e+00 
124700 5.4511430234e+00 -4.0951825205e-03 2.9841684428e+00 -5.1687313612e+00 2.9841684428e+00 5.1687313612e+00 
124800 5.4511427466e+00 -4.0834186613e-03 2.9842370582e+00 -5.1688502066e+00 2.9842370582e+00 5.1688502066e+00 
124900 5.4511424713e+00 -4.0716916916e-03 2.9843054749e+00 -5.1689687078e+00 2.9843054749e+00 5.1689687078e+00 
125000 5.4511421977e+00 -4.0600014799e-03 2.9843736935e+00 -5.1690868660e+00 2.9843736935e+00 5.1690868660e+00 
125100 5.4511419256e+00 -4.0483478953e-03 2.9844417148e+00 -5.1692046823e+00 2.9844417148e+00 5.1692046823e+00 
125200 5.4511416550e+00 -4.0367308073e-03 2.9845095393e+00 -5.1693221577e+00 2.9845095393e+00 5.1693221577e+00 
125300 5.4511413860e+00 -4.0251500860e-03 2.9845771676e+00 -5.1694392933e+00 2.9845771676e+00 5.1694392933e+00 
125400 5.4511411186e+00 -4.0136056021e-03 2.9846446003e+00 -5.1695560903e+00 2.9846446003e+00 5.1695560903e+00 
125500 5.4511408527e+00 -4.0020972269e-03 2.9847118382e+00 -5.1696725496e+00 2.9847118382e+00 5.1696725496e+00 
125600 5.4511405883e+00 -3.9906248319e-03 2.9847788817e+00 -5.1697886724e+00 2.9847788817e+00 5.1697886724e+00 
125700 5.4511403254e+00 -3.9791882896e-03 2.9848457315e+00 -5.1699044598e+00 2.9848457315e+00 5.1699044598e+00 
125800 5.4511400641e+00 -3.9677874725e-03 2.9849123883e+00 -5.1700199127e+00 2.9849123883e+00 5.1700199127e+00 
125900 5.4511398042e+00 -3.9564222541e-03 2.9849788526e+00 -5.1701350322e+00 2.9849788526e+00 5.1701350322e+00 
126000 5.4511395458e+00 -3.9450925082e-03 2.9850451250e+00 -5.1702498194e+00 2.9850451250e+00 5.1702498194e+00 
126100 5.4511392889e+00 -3.9337981091e-03 2.9851112062e+00 -5.1703642754e+00 2.9851112062e+00 5.1703642754e+00 
126200 5.4511390335e+00 -3.9225389317e-03 2.9851770968e+00 -5.1704784012e+00 2.9851770968e+00 5.1704784012e+00 
126300 5.4511387795e+00 -3.9113148513e-03 2.9852427973e+00 -5.1705921978e+00 2.9852427973e+00 5.1705921978e+00 
126400 5.4511385270e+00 -3.9001257439e-03 2.9853083084e+00 -5.1707056663e+00 2.9853083084e+00 5.1707056663e+00 
126500 5.4511382759e+00 -3.8889714859e-03 2.9853736306e+00 -5.1708188078e+00 2.9853736306e+00 5.1708188078e+00 
126600 5.4511380262e+00 -3.8778519541e-03 2.9854387646e+00 -5.1709316231e+00 2.9854387646e+00 5.1709316231e+00 
126700 5.4511377780e+00 -3.8667670259e-03 2.9855037109e+00 -5.1710441135e+00 2.9855037109e+00 5.1710441135e+00 
126800 5.4511375312e+00 -3.8557165794e-03 2.9855684702e+00 -5.1711562798e+00 2.9855684702e+00 5.1711562798e+00 
126900 5.4511372858e+00 -3.8447004929e-03 2.9856330430e+00 -5.1712681232e+00 2.9856330430e+00 5.1712681232e+00 
127000 5.4511370418e+00 -3.8337186452e-03 2.9856974299e+00 -5.1713796446e+00 2.9856974299e+00 5.1713796446e+00 
127100 5.4511367992e+00 -3.8227709159e-03 2.9857616315e+00 -5.1714908451e+00 2.9857616315e+00 5.1714908451e+00 
127200 5.4511365580e+00 -3.8118571848e-03 2.9858256484e+00 -5.1716017256e+00 2.9858256484e+00 5.1716017256e+00 
127300 5.4511363182e+00 -3.8009773324e-03 2.9858894812e+00 -5.1717122872e+00 2.9858894812e+00 5.1717122872e+00 
127400 5.4511360797e+00 -3.7901312395e-03 2.9859531304e+00 -5.1718225309e+00 2.9859531304e+00 5.1718225309e+00 
127500 5.4511358426e+00 -3.7793187874e-03 2.9860165967e+00 -5.1719324577e+00 2.9860165967e+00 5.1719324577e+00 
127600 5.4511356068e+00 -3.7685398580e-03 2.9860798805e+00 -5.1720420685e+00 2.9860798805e+00 5.1720420685e+00 
127700 5.4511353724e+00 -3.7577943338e-03 2.9861429825e+00 -5.1721513644e+00 2.9861429825e+00 5.1721513644e+00 
127800 5.4511351393e+00 -3.7470820974e-03 2.9862059033e+00 -5.1722603464e+00 2.9862059033e+00 5.1722603464e+00 
127900 5.4511349076e+00 -3.7364030322e-03 2.9862686434e+00 -5.1723690154e+00 2.9862686434e+00 5.1723690154e+00 
128000 5.4511346771e+00 -3.7257570219e-03 2.9863312033e+00 -5.1724773724e+00 2.9863312033e+00 5.1724773724e+00 
128100 5.4511344480e+00 -3.7151439508e-03 2.9863935837e+00 -5.1725854184e+00 2.9863935837e+00 5.1725854184e+00 
128200 5.4511342202e+00 -3.7045637036e-03 2.9864557851e+00 -5.1726931543e+00 2.9864557851e+00 5.1726931543e+00 
128300 5.4511339937e+00 -3.6940161655e-03 2.9865178081e+00 -5.1728005813e+00 2.9865178081e+00 5.1728005813e+00 
128400 5.4511337684e+00 -3.6835012221e-03 2.9865796531e+00 -5.1729077001e+00 2.9865796531e+00 5.1729077001e+00 
128500 5.4511335445e+00 -3.6730187595e-03 2.9866413209e+00 -5.1730145118e+00 2.9866413209e+00 5.1730145118e+00 
128600 5.4511333218e+00 -3.6625686643e-03 2.9867028119e+00 -5.1731210173e+00 2.9867028119e+00 5.1731210173e+00 
128700 5.4511331004e+00 -3.6521508236e-03 2.9867641267e+00 -5.1732272177e+00 2.9867641267e+00 5.1732272177e+00 
128800 5.4511328802e+00 -3.6417651248e-03 2.9868252658e+00 -5.1733331137e+00 2.9868252658e+00 5.1733331137e+00 
128900 5.4511326613e+00 -3.6314114558e-03 2.9868862298e+00 -5.1734387065e+00 2.9868862298e+00 5.1734387065e+00 
129000 5.4511324436e+00 -3.6210897051e-03 2.9869470193e+00 -5.1735439969e+00 2.9869470193e+00 5.1735439969e+00 
129100 5.4511322272e+00 -3.6107997616e-03 2.9870076347e+00 -5.1736489860e+00 2.9870076347e+00 5.1736489860e+00 
129200 5.4511320120e+00 -3.6005415145e-03 2.9870680767e+00 -5.1737536745e+00 2.9870680767e+00 5.1737536745e+00 
129300 5.4511317980e+00 -3.5903148535e-03 2.9871283457e+00 -5.1738580635e+00 2.9871283457e+00 5.1738580635e+00 
129400 5.4511315852e+00 -3.5801196689e-03 2.9871884424e+00 -5.1739621539e+00 2.9871884424e+00 5.1739621539e+00 
129500 5.4511313737e+00 -3.5699558513e-03 2.9872483671e+00 -5.1740659467e+00 2.9872483671e+00 5.1740659467e+00 
129600 5.4511311633e+00 -3.5598232918e-03 2.9873081206e+00 -5.1741694427e+00 2.9873081206e+00 5.1741694427e+00 
129700 5.4511309541e+00 -3.5497218818e-03 2.9873677032e+00 -5.1742726429e+00 2.9873677032e+00 5.1742726429e+00 
129800 5.4511307462e+00 -3.5396515134e-03 2.9874271156e+00 -5.1743755482e+00 2.9874271156e+00 5.1743755482e+00 
129900 5.4511305393e+00 -3.5296120789e-03 2.9874863583e+00 -5.1744781595e+00 2.9874863583e+00 5.1744781595e+00 
130000 5.4511303337e+00 -3.5196034711e-03 2.9875454318e+00 -5.1745804777e+00 2.9875454318e+00 5.1745804777e+00 
130100 5.4511301292e+00 -3.5096255834e-03 2.9876043366e+00 -5.1746825038e+00 2.9876043366e+00 5.1746825038e+00 
130200 5.4511299259e+00 -3.4996783093e-03 2.9876630732e+00 -5.1747842387e+00 2.9876630732e+00 5.1747842387e+00 
130300 5.4511297238e+00 -3.4897615429e-03 2.9877216422e+00 -5.1748856832e+00 2.9877216422e+00 5.1748856832e+00 
130400 5.4511295228e+00 -3.4798751789e-03 2.9877800441e+00 -5.1749868383e+00 2.9877800441e+00 5.1749868383e+00 
130500 5.4511293229e+00 -3.4700191121e-03 2.9878382795e+00 -5.1750877048e+00 2.9878382795e+00 5.1750877048e+00 
130600 5.4511291241e+00 -3.4601932380e-03 2.9878963487e+00 -5.1751882837e+00 2.9878963487e+00 5.1751882837e+00 
130700 5.4511289265e+00 -3.4503974523e-03 2.9879542524e+00 -5.1752885758e+00 2.9879542524e+00 5.1752885758e+00 
130800 5.4511287300e+00 -3.4406316512e-03 2.9880119910e+00 -5.1753885821e+00 2.9880119910e+00 5.1753885821e+00 
130900 5.4511285346e+00 -3.4308957314e-03 2.9880695651e+00 -5.1754883034e+00 2.9880695651e+00 5.1754883034e+00 
131000 5.4511283403e+00 -3.4211895898e-03 2.9881269752e+00 -5.1755877406e+00 2.9881269752e+00 5.1755877406e+00 
131100 5.4511281471e+00 -3.4115131240e-03 2.9881842218e+00 -5.1756868945e+00 2.9881842218e+00 5.1756868945e+00 
131200 5.4511279550e+00 -3.4018662318e-03 2.9882413054e+00 -5.1757857662e+00 2.9882413054e+00 5.1757857662e+00 
131300 5.4511277640e+00 -3.3922488115e-03 2.9882982264e+00 -5.1758843563e+00 2.9882982264e+00 5.1758843563e+00 
131400 5.4511275740e+00 -3.3826607617e-03 2.9883549855e+00 -5.1759826659e+00 2.9883549855e+00 5.1759826659e+00 
131500 5.4511273852e+00 -3.3731019815e-03 2.9884115830e+00 -5.1760806957e+00 2.9884115830e+00 5.1760806957e+00 
131600 5.4511271974e+00 -3.3635723705e-03 2.9884680196e+00 -5.1761784467e+00 2.9884680196e+00 5.1761784467e+00 
131700 5.4511270106e+00 -3.3540718283e-03 2.9885242956e+00 -5.1762759197e+00 2.9885242956e+00 5.1762759197e+00 
131800 5.4511268249e+00 -3.3446002555e-03 2.9885804116e+00 -5.1763731155e+00 2.9885804116e+00 5.1763731155e+00 
131900 5.4511266403e+00 -3.3351575525e-03 2.9886363682e+00 -5.1764700350e+00 2.9886363682e+00 5.1764700350e+00 
132000 5.4511264567e+00 -3.3257436205e-03 2.9886921656e+00 -5.1765666791e+00 2.9886921656e+00 5.1765666791e+00 
132100 5.4511262741e+00 -3.3163583610e-03 2.9887478046e+00 -5.1766630486e+00 2.9887478046e+00 5.1766630486e+00 
132200 5.4511260926e+00 -3.3070016757e-03 2.9888032855e+00 -5.1767591443e+00 2.9888032855e+00 5.1767591443e+00 
132300 5.4511259121e+00 -3.2976734670e-03 2.9888586088e+00 -5.1768549671e+00 2.9888586088e+00 5.1768549671e+00 
132400 5.4511257326e+00 -3.2883736375e-03 2.9889137751e+00 -5.1769505179e+00 2.9889137751e+00 5.1769505179e+00 
132500 5.4511255541e+00 -3.2791020901e-03 2.9889687848e+00 -5.1770457975e+00 2.9889687848e+00 5.1770457975e+00 
132600 5.4511253766e+00 -3.2698587282e-03 2.9890236384e+00 -5.1771408067e+00 2.9890236384e+00 5.1771408067e+00 
132700 5.4511252001e+00 -3.2606434557e-03 2.9890783363e+00 -5.1772355463e+00 2.9890783363e+00 5.1772355463e+00 
132800 5.4511250246e+00 -3.2514561767e-03 2.9891328791e+00 -5.1773300171e+00 2.9891328791e+00 5.1773300171e+00 
132900 5.4511248501e+00 -3.2422967958e-03 2.9891872672e+00 -5.1774242201e+00 2.9891872672e+00 5.1774242201e+00 
133000 5.4511246766e+00 -3.2331652178e-03 2.9892415011e+00 -5.1775181560e+00 2.9892415011e+00 5.1775181560e+00 
133100 5.4511245041e+00 -3.2240613480e-03 2.9892955813e+00 -5.1776118257e+00 2.9892955813e+00 5.1776118257e+00 
133200 5.4511243325e+00 -3.2149850921e-03 2.9893495082e+00 -5.1777052299e+00 2.9893495082e+00 5.1777052299e+00 
133300 5.4511241619e+00 -3.2059363562e-03 2.9894032824e+00 -5.1777983694e+00 2.9894032824e+00 5.1777983694e+00 
133400 5.4511239922e+00 -3.1969150465e-03 2.9894569042e+00 -5.1778912452e+00 2.9894569042e+00 5.1778912452e+00 
133500 5.4511238235e+00 -3.1879210700e-03 2.9895103742e+00 -5.1779838579e+00 2.9895103742e+00 5.1779838579e+00 
133600 5.4511236558e+00 -3.1789543338e-03 2.9895636928e+00 -5.1780762084e+00 2.9895636928e+00 5.1780762084e+00 
133700 5.4511234890e+00 -3.1700147453e-03 2.9896168605e+00 -5.1781682976e+00 2.9896168605e+00 5.1781682976e+00 
133800 5.4511233231e+00 -3.1611022124e-03 2.9896698777e+00 -5.1782601261e+00 2.9896698777e+00 5.1782601261e+00 
133900 5.4511231582e+00 -3.1522166434e-03 2.9897227450e+00 -5.1783516948e+00 2.9897227450e+00 5.1783516948e+00 
134000 5.4511229941e+00 -3.1433579468e-03 2.9897754627e+00 -5.1784430046e+00 2.9897754627e+00 5.1784430046e+00 
134100 5.4511228310e+00 -3.1345260315e-03 2.9898280313e+00 -5.1785340561e+00 2.9898280313e+00 5.1785340561e+00 
134200 5.4511226689e+00 -3.1257208070e-03 2.9898804513e+00 -5.1786248502e+00 2.9898804513e+00 5.1786248502e+00 
134300 5.4511225076e+00 -3.1169421828e-03 2.9899327231e+00 -5.1787153876e+00 2.9899327231e+00 5.1787153876e+00 
134400 5.4511223472e+00 -3.1081900690e-03 2.9899848472e+00 -5.1788056692e+00 2.9899848472e+00 5.1788056692e+00 
134500 5.4511221878e+00 -3.0994643759e-03 2.9900368240e+00 -5.1788956957e+00 2.9900368240e+00 5.1788956957e+00 
134600 5.4511220292e+00 -3.0907650142e-03 2.9900886541e+00 -5.1789854680e+00 2.9900886541e+00 5.1789854680e+00 
134700 5.4511218715e+00 -3.0820918950e-03 2.9901403377e+00 -5.1790749867e+00 2.9901403377e+00 5.1790749867e+00 
134800 5.4511217147e+00 -3.0734449298e-03 2.9901918754e+00 -5.1791642526e+00 2.9901918754e+00 5.1791642526e+00 
134900 5.4511215588e+00 -3.0648240302e-03 2.9902432677e+00 -5.1792532666e+00 2.9902432677e+00 5.1792532666e+00 
135000 5.4511214037e+00 -3.0562291084e-03 2.9902945149e+00 -5.1793420294e+00 2.9902945149e+00 5.1793420294e+00 
135100 5.4511212496e+00 -3.0476600768e-03 2.9903456175e+00 -5.1794305417e+00 2.9903456175e+00 5.1794305417e+00 
135200 5.4511210962e+00 -3.0391168482e-03 2.9903965760e+00 -5.1795188044e+00 2.9903965760e+00 5.1795188044e+00 
135300 5.4511209438e+00 -3.0305993357e-03 2.9904473908e+00 -5.1796068181e+00 2.9904473908e+00 5.1796068181e+00 
135400 5.4511207922e+00 -3.0221074528e-03 2.9904980622e+00 -5.1796945837e+00 2.9904980622e+00 5.1796945837e+00 
135500 5.4511206414e+00 -3.0136411132e-03 2.9905485909e+00 -5.1797821019e+00 2.9905485909e+00 5.1797821019e+00 
135600 5.4511204915e+00 -3.0052002312e-03 2.9905989771e+00 -5.1798693734e+00 2.9905989771e+00 5.1798693734e+00 
135700 5.4511203424e+00 -2.9967847212e-03 2.9906492214e+00 -5.1799563990e+00 2.9906492214e+00 5.1799563990e+00 
135800 5.4511201942e+00 -2.9883944979e-03 2.9906993241e+00 -5.1800431795e+00 2.9906993241e+00 5.1800431795e+00 
135900 5.4511200468e+00 -2.9800294766e-03 2.9907492857e+00 -5.1801297155e+00 2.9907492857e+00 5.1801297155e+00 
136000 5.4511199002e+00 -2.9716895726e-03 2.9907991066e+00 -5.1802160079e+00 2.9907991066e+00 5.1802160079e+00 
136100 5.4511197544e+00 -2.9633747017e-03 2.9908487873e+00 -5.1803020573e+00 2.9908487873e+00 5.1803020573e+00 
136200 5.4511196094e+00 -2.9550847801e-03 2.9908983281e+00 -5.1803878646e+00 2.9908983281e+00 5.1803878646e+00 
136300 5.4511194653e+00 -2.9468197242e-03 2.9909477295e+00 -5.1804734303e+00 2.9909477295e+00 5.1804734303e+00 
136400 5.4511193220e+00 -2.9385794507e-03 2.9909969920e+00 -5.1805587554e+00 2.9909969920e+00 5.1805587554e+00 
136500 5.4511191794e+00 -2.9303638768e-03 2.9910461159e+00 -5.1806438404e+00 2.9910461159e+00 5.1806438404e+00 
136600 5.4511190377e+00 -2.9221729198e-03 2.9910951016e+00 -5.1807286862e+00 2.9910951016e+00 5.1807286862e+00 
136700 5.4511188967e+00 -2.9140064975e-03 2.9911439496e+00 -5.1808132935e+00 2.9911439496e+00 5.1808132935e+00 
136800 5.4511187565e+00 -2.9058645278e-03 2.9911926603e+00 -5.1808976629e+00 2.9911926603e+00 5.1808976629e+00 
136900 5.4511186171e+00 -2.8977469291e-03 2.9912412341e+00 -5.1809817952e+00 2.9912412341e+00 5.1809817952e+00 
137000 5.4511184785e+00 -2.8896536202e-03 2.9912896714e+00 -5.1810656911e+00 2.9912896714e+00 5.1810656911e+00 
137100 5.4511183407e+00 -2.8815845199e-03 2.9913379727e+00 -5.1811493513e+00 2.9913379727e+00 5.1811493513e+00 
137200 5.4511182036e+00 -2.8735395476e-03 2.9913861383e+00 -5.1812327766e+00 2.9913861383e+00 5.1812327766e+00 
137300 5.4511180673e+00 -2.8655186229e-03 2.9914341687e+00 -5.1813159676e+00 2.9914341687e+00 5.1813159676e+00 
137400 5.4511179318e+00 -2.8575216656e-03 2.9914820642e+00 -5.1813989251e+00 2.9914820642e+00 5.1813989251e+00 
137500 5.4511177970e+00 -2.8495485961e-03 2.9915298253e+00 -5.1814816498e+00 2.9915298253e+00 5.1814816498e+00 
137600 5.4511176630e+00 -2.8415993348e-03 2.9915774524e+00 -5.1815641423e+00 2.9915774524e+00 5.1815641423e+00 
137700 5.4511175297e+00 -2.8336738025e-03 2.9916249458e+00 -5.1816464034e+00 2.9916249458e+00 5.1816464034e+00 
137800 5.4511173971e+00 -2.8257719204e-03 2.9916723061e+00 -5.1817284337e+00 2.9916723061e+00 5.1817284337e+00 
137900 5.4511172653e+00 -2.8178936099e-03 2.9917195335e+00 -5.1818102340e+00 2.9917195335e+00 5.1818102340e+00 
138000 5.4511171342e+00 -2.8100387927e-03 2.9917666285e+00 -5.1818918049e+00 2.9917666285e+00 5.1818918049e+00 
138100 5.4511170039e+00 -2.8022073910e-03 2.9918135915e+00 -5.1819731472e+00 2.9918135915e+00 5.1819731472e+00 
138200 5.4511168743e+00 -2.7943993269e-03 2.9918604229e+00 -5.1820542615e+00 2.9918604229e+00 5.1820542615e+00 
138300 5.4511167454e+00 -2.7866145232e-03 2.9919071230e+00 -5.1821351486e+00 2.9919071230e+00 5.1821351486e+00 
138400 5.4511166172e+00 -2.7788529028e-03 2.9919536923e+00 -5.1822158090e+00 2.9919536923e+00 5.1822158090e+00 
138500 5.4511164897e+00 -2.7711143888e-03 2.9920001312e+00 -5.1822962435e+00 2.9920001312e+00 5.1822962435e+00 
138600 5.4511163629e+00 -2.7633989048e-03 2.9920464401e+00 -5.1823764528e+00 2.9920464401e+00 5.1823764528e+00 
138700 5.4511162369e+00 -2.7557063747e-03 2.9920926193e+00 -5.1824564375e+00 2.9920926193e+00 5.1824564375e+00 
138800 5.4511161115e+00 -2.7480367224e-03 2.9921386692e+00 -5.1825361983e+00 2.9921386692e+00 5.1825361983e+00 
138900 5.4511159868e+00 -2.7403898724e-03 2.9921845903e+00 -5.1826157359e+00 2.9921845903e+00 5.1826157359e+00 
139000 5.4511158629e+00 -2.7327657493e-03 2.9922303828e+00 -5.1826950510e+00 2.9922303828e+00 5.1826950510e+00 
139100 5.4511157396e+00 -2.7251642782e-03 2.9922760473e+00 -5.1827741442e+00 2.9922760473e+00 5.1827741442e+00 
139200 5.4511156170e+00 -2.7175853841e-03 2.9923215841e+00 -5.1828530162e+00 2.9923215841e+00 5.1828530162e+00 
139300 5.4511154951e+00 -2.7100289928e-03 2.9923669935e+00 -5.1829316676e+00 2.9923669935e+00 5.1829316676e+00 
139400 5.4511153738e+00 -2.7024950299e-03 2.9924122760e+00 -5.1830100992e+00 2.9924122760e+00 5.1830100992e+00 
139500 5.4511152533e+00 -2.6949834215e-03 2.9924574319e+00 -5.1830883115e+00 2.9924574319e+00 5.1830883115e+00 
139600 5.4511151334e+00 -2.6874940941e-03 2.9925024616e+00 -5.1831663053e+00 2.9925024616e+00 5.1831663053e+00 
139700 5.4511150142e+00 -2.6800269743e-03 2.9925473655e+00 -5.1832440811e+00 2.9925473655e+00 5.1832440811e+00 
139800 5.4511148956e+00 -2.6725819889e-03 2.9925921440e+00 -5.1833216397e+00 2.9925921440e+00 5.1833216397e+00 
139900 5.4511147777e+00 -2.6651590653e-03 2.9926367974e+00 -5.1833989817e+00 2.9926367974e+00 5.1833989817e+00 
140000 5.4511146604e+00 -2.6577581309e-03 2.9926813261e+00 -5.1834761077e+00 2.9926813261e+00 5.1834761077e+00 
140100 5.4511145438e+00 -2.6503791134e-03 2.9927257305e+00 -5.1835530183e+00 2.9927257305e+00 5.1835530183e+00 
140200 5.4511144278e+00 -2.6430219408e-03 2.9927700110e+00 -5.1836297144e+00 2.9927700110e+00 5.1836297144e+00 
140300 5.4511143125e+00 -2.6356865415e-03 2.9928141679e+00 -5.1837061963e+00 2.9928141679e+00 5.1837061963e+00 
140400 5.4511141978e+00 -2.6283728440e-03 2.9928582015e+00 -5.1837824649e+00 2.9928582015e+00 5.1837824649e+00 
140500 5.4511140838e+00 -2.6210807772e-03 2.9929021124e+00 -5.1838585208e+00 2.9929021124e+00 5.1838585208e+00 
140600 5.4511139704e+00 -2.6138102701e-03 2.9929459008e+00 -5.1839343645e+00 2.9929459008e+00 5.1839343645e+00 
140700 5.4511138576e+00 -2.6065612522e-03 2.9929895671e+00 -5.1840099967e+00 2.9929895671e+00 5.1840099967e+00 
140800 5.4511137454e+00 -2.5993336530e-03 2.9930331116e+00 -5.1840854181e+00 2.9930331116e+00 5.1840854181e+00 
140900 5.4511136339e+00 -2.5921274025e-03 2.9930765348e+00 -5.1841606292e+00 2.9930765348e+00 5.1841606292e+00 
141000 5.4511135230e+00 -2.5849424308e-03 2.9931198370e+00 -5.1842356308e+00 2.9931198370e+00 5.1842356308e+00 
141100 5.4511134127e+00 -2.5777786684e-03 2.9931630185e+00 -5.1843104233e+00 2.9931630185e+00 5.1843104233e+00 
141200 5.4511133030e+00 -2.5706360459e-03 2.9932060797e+00 -5.1843850075e+00 2.9932060797e+00 5.1843850075e+00 
141300 5.4511131939e+00 -2.5635144943e-03 2.9932490210e+00 -5.1844593840e+00 2.9932490210e+00 5.1844593840e+00 
141400 5.4511130854e+00 -2.5564139448e-03 2.9932918427e+00 -5.1845335534e+00 2.9932918427e+00 5.1845335534e+00 
141500 5.4511129775e+00 -2.5493343289e-03 2.9933345452e+00 -5.1846075163e+00 2.9933345452e+00 5.1846075163e+00 
141600 5.4511128702e+00 -2.5422755783e-03 2.9933771288e+00 -5.1846812733e+00 2.9933771288e+00 5.1846812733e+00 
141700 5.4511127635e+00 -2.5352376249e-03 2.9934195939e+00 -5.1847548250e+00 2.9934195939e+00 5.1847548250e+00 
141800 5.4511126574e+00 -2.5282204011e-03 2.9934619408e+00 -5.1848281720e+00 2.9934619408e+00 5.1848281720e+00 
141900 5.4511125519e+00 -2.5212238392e-03 2.9935041700e+00 -5.1849013151e+00 2.9935041700e+00 5.1849013151e+00 
142000 5.4511124469e+00 -2.5142478720e-03 2.9935462816e+00 -5.1849742546e+00 2.9935462816e+00 5.1849742546e+00 
142100 5.4511123426e+00 -2.5072924326e-03 2.9935882762e+00 -5.1850469914e+00 2.9935882762e+00 5.1850469914e+00 
142200 5.4511122388e+00 -2.5003574541e-03 2.9936301540e+00 -5.1851195258e+00 2.9936301540e+00 5.1851195258e+00 
142300 5.4511121356e+00 -2.4934428700e-03 2.9936719154e+00 -5.1851918587e+00 2.9936719154e+00 5.1851918587e+00 
142400 5.4511120329e+00 -2.4865486141e-03 2.9937135607e+00 -5.1852639905e+00 2.9937135607e+00 5.1852639905e+00 
142500 5.4511119308e+00 -2.4796746203e-03 2.9937550903e+00 -5.1853359219e+00 2.9937550903e+00 5.1853359219e+00 
142600 5.4511118293e+00 -2.4728208229e-03 2.9937965046e+00 -5.1854076534e+00 2.9937965046e+00 5.1854076534e+00 
142700 5.4511117284e+00 -2.4659871564e-03 2.9938378037e+00 -5.1854791857e+00 2.9938378037e+00 5.1854791857e+00 
142800 5.4511116280e+00 -2.4591735554e-03 2.9938789882e+00 -5.1855505193e+00 2.9938789882e+00 5.1855505193e+00 
142900 5.4511115281e+00 -2.4523799549e-03 2.9939200583e+00 -5.1856216548e+00 2.9939200583e+00 5.1856216548e+00 
143000 5.4511114288e+00 -2.4456062902e-03 2.9939610144e+00 -5.1856925928e+00 2.9939610144e+00 5.1856925928e+00 
143100 5.4511113301e+00 -2.4388524966e-03 2.9940018568e+00 -5.1857633340e+00 2.9940018568e+00 5.1857633340e+00 
143200 5.4511112319e+00 -2.4321185099e-03 2.9940425859e+00 -5.1858338788e+00 2.9940425859e+00 5.1858338788e+00 
143300 5.4511111342e+00 -2.4254042659e-03 2.9940832020e+00 -5.1859042279e+00 2.9940832020e+00 5.1859042279e+00 
143400 5.4511110371e+00 -2.4187097009e-03 2.9941237053e+00 -5.1859743818e+00 2.9941237053e+00 5.1859743818e+00 
143500 5.4511109405e+00 -2.4120347511e-03 2.9941640964e+00 -5.1860443411e+00 2.9941640964e+00 5.1860443411e+00 
143600 5.4511108445e+00 -2.4053793533e-03 2.9942043754e+00 -5.1861141064e+00 2.9942043754e+00 5.1861141064e+00 
143700 5.4511107490e+00 -2.3987434443e-03 2.9942445427e+00 -5.1861836783e+00 2.9942445427e+00 5.1861836783e+00 
143800 5.4511106540e+00 -2.3921269612e-03 2.9942845987e+00 -5.1862530573e+00 2.9942845987e+00 5.1862530573e+00 
143900 5.4511105595e+00 -2.3855298412e-03 2.9943245437e+00 -5.1863222440e+00 2.9943245437e+00 5.1863222440e+00 
144000 5.4511104655e+00 -2.3789520221e-03 2.9943643780e+00 -5.1863912390e+00 2.9943643780e+00 5.1863912390e+00 
144100 5.4511103721e+00 -2.3723934415e-03 2.9944041019e+00 -5.1864600429e+00 2.9944041019e+00 5.1864600429e+00 
144200 5.4511102792e+00 -2.3658540376e-03 2.9944437158e+00 -5.1865286561e+00 2.9944437158e+00 5.1865286561e+00 
144300 5.4511101868e+00 -2.3593337484e-03 2.9944832199e+00 -5.1865970793e+00 2.9944832199e+00 5.1865970793e+00 
144400 5.4511100949e+00 -2.3528325126e-03 2.9945226147e+00 -5.1866653130e+00 2.9945226147e+00 5.1866653130e+00 
144500 5.4511100035e+00 -2.3463502687e-03 2.9945619004e+00 -5.1867333578e+00 2.9945619004e+00 5.1867333578e+00 
144600 5.4511099126e+00 -2.3398869558e-03 2.9946010773e+00 -5.1868012143e+00 2.9946010773e+00 5.1868012143e+00 
144700 5.4511098222e+00 -2.3334425130e-03 2.9946401458e+00 -5.1868688829e+00 2.9946401458e+00 5.1868688829e+00 
144800 5.4511097323e+00 -2.3270168796e-03 2.9946791062e+00 -5.1869363643e+00 2.9946791062e+00 5.1869363643e+00 
144900 5.4511096429e+00 -2.3206099953e-03 2.9947179588e+00 -5.1870036590e+00 2.9947179588e+00 5.1870036590e+00 
145000 5.4511095540e+00 -2.3142217999e-03 2.9947567040e+00 -5.1870707676e+00 2.9947567040e+00 5.1870707676e+00 
145100 5.4511094655e+00 -2.3078522334e-03 2.9947953419e+00 -5.1871376905e+00 2.9947953419e+00 5.1871376905e+00 
145200 5.4511093776e+00 -2.3015012360e-03 2.9948338731e+00 -5.1872044284e+00 2.9948338731e+00 5.1872044284e+00 
145300 5.4511092901e+00 -2.2951687483e-03 2.9948722977e+00 -5.1872709817e+00 2.9948722977e+00 5.1872709817e+00 
145400 5.4511092032e+00 -2.2888547109e-03 2.9949106161e+00 -5.1873373511e+00 2.9949106161e+00 5.1873373511e+00 
145500 5.4511091167e+00 -2.2825590648e-03 2.9949488285e+00 -5.1874035371e+00 2.9949488285e+00 5.1874035371e+00 
145600 5.4511090307e+00 -2.2762817511e-03 2.9949869354e+00 -5.1874695402e+00 2.9949869354e+00 5.1874695402e+00 
145700 5.4511089451e+00 -2.2700227111e-03 2.9950249370e+00 -5.1875353609e+00 2.9950249370e+00 5.1875353609e+00 
145800 5.4511088600e+00 -2.2637818864e-03 2.9950628337e+00 -5.1876009998e+00 2.9950628337e+00 5.1876009998e+00 
145900 5.4511087754e+00 -2.2575592187e-03 2.9951006257e+00 -5.1876664574e+00 2.9951006257e+00 5.1876664574e+00 
146000 5.4511086913e+00 -2.2513546501e-03 2.9951383133e+00 -5.1877317343e+00 2.9951383133e+00 5.1877317343e+00 
146100 5.4511086076e+00 -2.2451681227e-03 2.9951758968e+00 -5.1877968309e+00 2.9951758968e+00 5.1877968309e+00 
146200 5.4511085243e+00 -2.2389995790e-03 2.9952133766e+00 -5.1878617479e+00 2.9952133766e+00 5.1878617479e+00 
146300 5.4511084416e+00 -2.2328489615e-03 2.9952507530e+00 -5.1879264856e+00 2.9952507530e+00 5.1879264856e+00 
146400 5.4511083593e+00 -2.2267162131e-03 2.9952880263e+00 -5.1879910448e+00 2.9952880263e+00 5.1879910448e+00 
146500 5.4511082774e+00 -2.2206012768e-03 2.9953251966e+00 -5.1880554258e+00 2.9953251966e+00 5.1880554258e+00 
146600 5.4511081960e+00 -2.2145040958e-03 2.9953622645e+00 -5.1881196292e+00 2.9953622645e+00 5.1881196292e+00 
146700 5.4511081150e+00 -2.2084246137e-03 2.9953992301e+00 -5.1881836555e+00 2.9953992301e+00 5.1881836555e+00 
146800 5.4511080345e+00 -2.2023627740e-03 2.9954360938e+00 -5.1882475053e+00 2.9954360938e+00 5.1882475053e+00 
146900 5.4511079544e+00 -2.1963185206e-03 2.9954728559e+00 -5.1883111791e+00 2.9954728559e+00 5.1883111791e+00 
147000 5.4511078747e+00 -2.1902917976e-03 2.9955095166e+00 -5.1883746773e+00 2.9955095166e+00 5.1883746773e+00 
147100 5.4511077955e+00 -2.1842825492e-03 2.9955460762e+00 -5.1884380004e+00 2.9955460762e+00 5.1884380004e+00 
147200 5.4511077168e+00 -2.1782907199e-03 2.9955825351e+00 -5.1885011491e+00 2.9955825351e+00 5.1885011491e+00 
147300 5.4511076384e+00 -2.1723162543e-03 2.9956188936e+00 -5.1885641238e+00 2.9956188936e+00 5.1885641238e+00 
147400 5.4511075605e+00 -2.1663590974e-03 2.9956551519e+00 -5.1886269250e+00 2.9956551519e+00 5.1886269250e+00 
147500 5.4511074830e+00 -2.1604191941e-03 2.9956913103e+00 -5.1886895533e+00 2.9956913103e+00 5.1886895533e+00 
147600 5.4511074059e+00 -2.1544964898e-03 2.9957273692e+00 -5.1887520090e+00 2.9957273692e+00 5.1887520090e+00 
147700 5.4511073293e+00 -2.1485909299e-03 2.9957633287e+00 -5.1888142928e+00 2.9957633287e+00 5.1888142928e+00 
147800 5.4511072531e+00 -2.1427024600e-03 2.9957991893e+00 -5.1888764051e+00 2.9957991893e+00 5.1888764051e+00 
147900 5.4511071773e+00 -2.1368310261e-03 2.9958349511e+00 -5.1889383465e+00 2.9958349511e+00 5.1889383465e+00 
148000 5.4511071019e+00 -2.1309765741e-03 2.9958706146e+00 -5.1890001174e+00 2.9958706146e+00 5.1890001174e+00 
148100 5.4511070269e+00 -2.1251390503e-03 2.9959061799e+00 -5.1890617183e+00 2.9959061799e+00 5.1890617183e+00 
148200 5.4511069523e+00 -2.1193184012e-03 2.9959416473e+00 -5.1891231497e+00 2.9959416473e+00 5.1891231497e+00 
148300 5.4511068781e+00 -2.1135145734e-03 2.9959770172e+00 -5.1891844121e+00 2.9959770172e+00 5.1891844121e+00 
148400 5.4511068044e+00 -2.1077275136e-03 2.9960122898e+00 -5.1892455061e+00 2.9960122898e+00 5.1892455061e+00 
148500 5.4511067310e+00 -2.1019571690e-03 2.9960474655e+00 -5.1893064321e+00 2.9960474655e+00 5.1893064321e+00 
148600 5.4511066581e+00 -2.0962034866e-03 2.9960825444e+00 -5.1893671905e+00 2.9960825444e+00 5.1893671905e+00 
148700 5.4511065855e+00 -2.0904664140e-03 2.9961175268e+00 -5.1894277819e+00 2.9961175268e+00 5.1894277819e+00 
148800 5.4511065134e+00 -2.0847458986e-03 2.9961524132e+00 -5.1894882068e+00 2.9961524132e+00 5.1894882068e+00 
148900 5.4511064416e+00 -2.0790418883e-03 2.9961872036e+00 -5.1895484656e+00 2.9961872036e+00 5.1895484656e+00 
149000 5.4511063702e+00 -2.0733543310e-03 2.9962218985e+00 -5.1896085589e+00 2.9962218985e+00 5.1896085589e+00 
149100 5.4511062992e+00 -2.0676831749e-03 2.9962564980e+00 -5.1896684871e+00 2.9962564980e+00 5.1896684871e+00 
149200 5.4511062286e+00 -2.0620283682e-03 2.9962910025e+00 -5.1897282506e+00 2.9962910025e+00 5.1897282506e+00 
149300 5.4511061584e+00 -2.0563898595e-03 2.9963254123e+00 -5.1897878501e+00 2.9963254123e+00 5.1897878501e+00 
149400 5.4511060886e+00 -2.0507675976e-03 2.9963597275e+00 -5.1898472858e+00 2.9963597275e+00 5.1898472858e+00 
149500 5.4511060192e+00 -2.0451615311e-03 2.9963939486e+00 -5.1899065584e+00 2.9963939486e+00 5.1899065584e+00 
149600 5.4511059501e+00 -2.0395716094e-03 2.9964280757e+00 -5.1899656683e+00 2.9964280757e+00 5.1899656683e+00 
149700 5.4511058814e+00 -2.0339977815e-03 2.9964621091e+00 -5.1900246160e+00 2.9964621091e+00 5.1900246160e+00 
149800 5.4511058131e+00 -2.0284399969e-03 2.9964960492e+00 -5.1900834019e+00 2.9964960492e+00 5.1900834019e+00 
149900 5.4511057451e+00 -2.0228982052e-03 2.9965298961e+00 -5.1901420265e+00 2.9965298961e+00 5.1901420265e+00 
150000 5.4511056776e+00 -2.0173723562e-03 2.9965636502e+00 -5.1902004903e+00 2.9965636502e+00 5.1902004903e+00 
150100 5.4511056104e+00 -2.0118623999e-03 2.9965973117e+00 -5.1902587937e+00 2.9965973117e+00 5.1902587937e+00 
150200 5.4511055435e+00 -2.0063682864e-03 2.9966308809e+00 -5.1903169372e+00 2.9966308809e+00 5.1903169372e+00 
150300 5.4511054771e+00 -2.0008899661e-03 2.9966643580e+00 -5.1903749213e+00 2.9966643580e+00 5.1903749213e+00 
150400 5.4511054109e+00 -1.9954273893e-03 2.9966977433e+00 -5.1904327464e+00 2.9966977433e+00 5.1904327464e+00 
150500 5.4511053452e+00 -1.9899805069e-03 2.9967310372e+00 -5.1904904130e+00 2.9967310372e+00 5.1904904130e+00 
150600 5.4511052798e+00 -1.9845492696e-03 2.9967642398e+00 -5.1905479216e+00 2.9967642398e+00 5.1905479216e+00 
150700 5.4511052148e+00 -1.9791336285e-03 2.9967973514e+00 -5.1906052725e+00 2.9967973514e+00 5.1906052725e+00 
150800 5.4511051501e+00 -1.9737335348e-03 2.9968303722e+00 -5.1906624664e+00 2.9968303722e+00 5.1906624664e+00 
150900 5.4511050858e+00 -1.9683489398e-03 2.9968633026e+00 -5.1907195035e+00 2.9968633026e+00 5.1907195035e+00 
151000 5.4511050218e+00 -1.9629797951e-03 2.9968961429e+00 -5.1907763844e+00 2.9968961429e+00 5.1907763844e+00 
151100 5.4511049581e+00 -1.9576260523e-03 2.9969288931e+00 -5.1908331096e+00 2.9969288931e+00 5.1908331096e+00 
151200 5.4511048949e+00 -1.9522876635e-03 2.9969615537e+00 -5.1908896794e+00 2.9969615537e+00 5.1908896794e+00 
151300 5.4511048319e+00 -1.9469645806e-03 2.9969941249e+00 -5.1909460943e+00 2.9969941249e+00 5.1909460943e+00 
151400 5.4511047693e+00 -1.9416567559e-03 2.9970266069e+00 -5.1910023548e+00 2.9970266069e+00 5.1910023548e+00 
151500 5.4511047071e+00 -1.9363641417e-03 2.9970590000e+00 -5.1910584613e+00 2.9970590000e+00 5.1910584613e+00 
151600 5.4511046451e+00 -1.9310866906e-03 2.9970913045e+00 -5.1911144143e+00 2.9970913045e+00 5.1911144143e+00 
151700 5.4511045836e+00 -1.9258243554e-03 2.9971235206e+00 -5.1911702142e+00 2.9971235206e+00 5.1911702142e+00 
151800 5.4511045223e+00 -1.9205770889e-03 2.9971556485e+00 -5.1912258614e+00 2.9971556485e+00 5.1912258614e+00 
151900 5.4511044614e+00 -1.9153448443e-03 2.9971876885e+00 -5.1912813564e+00 2.9971876885e+00 5.1912813564e+00 
152000 5.4511044008e+00 -1.9101275746e-03 2.9972196410e+00 -5.1913366996e+00 2.9972196410e+00 5.1913366996e+00 
152100 5.4511043406e+00 -1.9049252334e-03 2.9972515060e+00 -5.1913918915e+00 2.9972515060e+00 5.1913918915e+00 
152200 5.4511042806e+00 -1.8997377742e-03 2.9972832839e+00 -5.1914469325e+00 2.9972832839e+00 5.1914469325e+00 
152300 5.4511042211e+00 -1.8945651506e-03 2.9973149750e+00 -5.1915018230e+00 2.9973149750e+00 5.1915018230e+00 
152400 5.4511041618e+00 -1.8894073167e-03 2.9973465794e+00 -5.1915565634e+00 2.9973465794e+00 5.1915565634e+00 
152500 5.4511041028e+00 -1.8842642263e-03 2.9973780975e+00 -5.1916111543e+00 2.9973780975e+00 5.1916111543e+00 
152600 5.4511040442e+00 -1.8791358339e-03 2.9974095294e+00 -5.1916655960e+00 2.9974095294e+00 5.1916655960e+00 
152700 5.4511039859e+00 -1.8740220936e-03 2.9974408755e+00 -5.1917198890e+00 2.9974408755e+00 5.1917198890e+00 
152800 5.4511039279e+00 -1.8689229600e-03 2.9974721359e+00 -5.1917740336e+00 2.9974721359e+00 5.1917740336e+00 
152900 5.4511038702e+00 -1.8638383878e-03 2.9975033109e+00 -5.1918280304e+00 2.9975033109e+00 5.1918280304e+00 
153000 5.4511038128e+00 -1.8587683319e-03 2.9975344008e+00 -5.1918818796e+00 2.9975344008e+00 5.1918818796e+00 
153100 5.4511037558e+00 -1.8537127473e-03 2.9975654058e+00 -5.1919355819e+00 2.9975654058e+00 5.1919355819e+00 
153200 5.4511036990e+00 -1.8486715890e-03 2.9975963262e+00 -5.1919891375e+00 2.9975963262e+00 5.1919891375e+00 
153300 5.4511036426e+00 -1.8436448126e-03 2.9976271621e+00 -5.1920425470e+00 2.9976271621e+00 5.1920425470e+00 
153400 5.4511035865e+00 -1.8386323733e-03 2.9976579139e+00 -5.1920958106e+00 2.9976579139e+00 5.1920958106e+00 
153500 5.4511035306e+00 -1.8336342268e-03 2.9976885818e+00 -5.1921489289e+00 2.9976885818e+00 5.1921489289e+00 
153600 5.4511034751e+00 -1.8286503290e-03 2.9977191660e+00 -5.1922019023e+00 2.9977191660e+00 5.1922019023e+00 
153700 5.4511034199e+00 -1.8236806358e-03 2.9977496667e+00 -5.1922547311e+00 2.9977496667e+00 5.1922547311e+00 
153800 5.4511033649e+00 -1.8187251032e-03 2.9977800843e+00 -5.1923074159e+00 2.9977800843e+00 5.1923074159e+00 
153900 5.4511033103e+00 -1.8137836875e-03 2.9978104188e+00 -5.1923599569e+00 2.9978104188e+00 5.1923599569e+00 
154000 5.4511032560e+00 -1.8088563451e-03 2.9978406707e+00 -5.1924123547e+00 2.9978406707e+00 5.1924123547e+00 
154100 5.4511032020e+00 -1.8039430326e-03 2.9978708401e+00 -5.1924646095e+00 2.9978708401e+00 5.1924646095e+00 
154200 5.4511031482e+00 -1.7990437066e-03 2.9979009272e+00 -5.1925167220e+00 2.9979009272e+00 5.1925167220e+00 
154300 5.4511030948e+00 -1.7941583240e-03 2.9979309323e+00 -5.1925686923e+00 2.9979309323e+00 5.1925686923e+00 
154400 5.4511030416e+00 -1.7892868418e-03 2.9979608556e+00 -5.1926205211e+00 2.9979608556e+00 5.1926205211e+00 
154500 5.4511029887e+00 -1.7844292172e-03 2.9979906974e+00 -5.1926722085e+00 2.9979906974e+00 5.1926722085e+00 
154600 5.4511029361e+00 -1.7795854074e-03 2.9980204579e+00 -5.1927237552e+00 2.9980204579e+00 5.1927237552e+00 
154700 5.4511028838e+00 -1.7747553699e-03 2.9980501373e+00 -5.1927751614e+00 2.9980501373e+00 5.1927751614e+00 
154800 5.4511028318e+00 -1.7699390623e-03 2.9980797358e+00 -5.1928264276e+00 2.9980797358e+00 5.1928264276e+00 
154900 5.4511027801e+00 -1.7651364424e-03 2.9981092537e+00 -5.1928775541e+00 2.9981092537e+00 5.1928775541e+00 
155000 5.4511027286e+00 -1.7603474680e-03 2.9981386913e+00 -5.1929285414e+00 2.9981386913e+00 5.1929285414e+00 
155100 5.4511026774e+00 -1.7555720972e-03 2.9981680487e+00 -5.1929793899e+00 2.9981680487e+00 5.1929793899e+00 
155200 5.4511026265e+00 -1.7508102881e-03 2.9981973261e+00 -5.1930301000e+00 2.9981973261e+00 5.1930301000e+00 
155300 5.4511025759e+00 -1.7460619991e-03 2.9982265239e+00 -5.1930806720e+00 2.9982265239e+00 5.1930806720e+00 
155400 5.4511025256e+00 -1.7413271886e-03 2.9982556422e+00 -5.1931311064e+00 2.9982556422e+00 5.1931311064e+00 
155500 5.4511024755e+00 -1.7366058153e-03 2.9982846812e+00 -5.1931814035e+00 2.9982846812e+00 5.1931814035e+00 
155600 5.4511024257e+00 -1.7318978379e-03 2.9983136413e+00 -5.1932315637e+00 2.9983136413e+00 5.1932315637e+00 
155700 5.4511023761e+00 -1.7272032153e-03 2.9983425225e+00 -5.1932815875e+00 2.9983425225e+00 5.1932815875e+00 
155800 5.4511023269e+00 -1.7225219065e-03 2.9983713252e+00 -5.1933314752e+00 2.9983713252e+00 5.1933314752e+00 
155900 5.4511022779e+00 -1.7178538708e-03 2.9984000495e+00 -5.1933812272e+00 2.9984000495e+00 5.1933812272e+00 
156000 5.4511022291e+00 -1.7131990675e-03 2.9984286958e+00 -5.1934308439e+00 2.9984286958e+00 5.1934308439e+00 
156100 5.4511021807e+00 -1.7085574559e-03 2.9984572641e+00 -5.1934803257e+00 2.9984572641e+00 5.1934803257e+00 
156200 5.4511021324e+00 -1.7039289958e-03 2.9984857547e+00 -5.1935296730e+00 2.9984857547e+00 5.1935296730e+00 
156300 5.4511020845e+00 -1.6993136469e-03 2.9985141679e+00 -5.1935788861e+00 2.9985141679e+00 5.1935788861e+00 
156400 5.4511020368e+00 -1.6947113689e-03 2.9985425039e+00 -5.1936279654e+00 2.9985425039e+00 5.1936279654e+00 
156500 5.4511019894e+00 -1.6901221221e-03 2.9985707629e+00 -5.1936769114e+00 2.9985707629e+00 5.1936769114e+00 
156600 5.4511019422e+00 -1.6855458664e-03 2.9985989451e+00 -5.1937257244e+00 2.9985989451e+00 5.1937257244e+00 
156700 5.4511018953e+00 -1.6809825623e-03 2.9986270507e+00 -5.1937744047e+00 2.9986270507e+00 5.1937744047e+00 
156800 5.4511018486e+00 -1.6764321701e-03 2.9986550799e+00 -5.1938229528e+00 2.9986550799e+00 5.1938229528e+00 
156900 5.4511018022e+00 -1.6718946503e-03 2.9986830330e+00 -5.1938713690e+00 2.9986830330e+00 5.1938713690e+00 
157000 5.4511017560e+00 -1.6673699638e-03 2.9987109102e+00 -5.1939196537e+00 2.9987109102e+00 5.1939196537e+00 
157100 5.4511017101e+00 -1.6628580713e-03 2.9987387117e+00 -5.1939678073e+00 2.9987387117e+00 5.1939678073e+00 
157200 5.4511016644e+00 -1.6583589338e-03 2.9987664377e+00 -5.1940158301e+00 2.9987664377e+00 5.1940158301e+00 
157300 5.4511016190e+00 -1.6538725124e-03 2.9987940884e+00 -5.1940637226e+00 2.9987940884e+00 5.1940637226e+00 
157400 5.4511015738e+00 -1.6493987683e-03 2.9988216641e+00 -5.1941114850e+00 2.9988216641e+00 5.1941114850e+00 
157500 5.4511015289e+00 -1.6449376630e-03 2.9988491649e+00 -5.1941591179e+00 2.9988491649e+00 5.1941591179e+00 
157600 5.4511014842e+00 -1.6404891578e-03 2.9988765911e+00 -5.1942066214e+00 2.9988765911e+00 5.1942066214e+00 
157700 5.4511014397e+00 -1.6360532145e-03 2.9989039429e+00 -5.1942539961e+00 2.9989039429e+00 5.1942539961e+00 
157800 5.4511013955e+00 -1.6316297947e-03 2.9989312204e+00 -5.1943012422e+00 2.9989312204e+00 5.1943012422e+00 
157900 5.4511013516e+00 -1.6272188604e-03 2.9989584240e+00 -5.1943483601e+00 2.9989584240e+00 5.1943483601e+00 
158000 5.4511013078e+00 -1.6228203737e-03 2.9989855538e+00 -5.1943953503e+00 2.9989855538e+00 5.1943953503e+00 
158100 5.4511012643e+00 -1.6184342966e-03 2.9990126100e+00 -5.1944422130e+00 2.9990126100e+00 5.1944422130e+00 
158200 5.4511012211e+00 -1.6140605914e-03 2.9990395928e+00 -5.1944889486e+00 2.9990395928e+00 5.1944889486e+00 
158300 5.4511011780e+00 -1.6096992206e-03 2.9990665025e+00 -5.1945355575e+00 2.9990665025e+00 5.1945355575e+00 
158400 5.4511011352e+00 -1.6053501467e-03 2.9990933392e+00 -5.1945820401e+00 2.9990933392e+00 5.1945820401e+00 
158500 5.4511010927e+00 -1.6010133323e-03 2.9991201031e+00 -5.1946283966e+00 2.9991201031e+00 5.1946283966e+00 
158600 5.4511010503e+00 -1.5966887402e-03 2.9991467946e+00 -5.1946746275e+00 2.9991467946e+00 5.1946746275e+00 
158700 5.4511010082e+00 -1.5923763335e-03 2.9991734136e+00 -5.1947207331e+00 2.9991734136e+00 5.1947207331e+00 
158800 5.4511009664e+00 -1.5880760750e-03 2.9991999606e+00 -5.1947667138e+00 2.9991999606e+00 5.1947667138e+00 
158900 5.4511009247e+00 -1.5837879280e-03 2.9992264356e+00 -5.1948125699e+00 2.9992264356e+00 5.1948125699e+00 
159000 5.4511008833e+00 -1.5795118557e-03 2.9992528389e+00 -5.1948583018e+00 2.9992528389e+00 5.1948583018e+00 
159100 5.4511008421e+00 -1.5752478216e-03 2.9992791707e+00 -5.1949039098e+00 2.9992791707e+00 5.1949039098e+00 
159200 5.4511008011e+00 -1.5709957893e-03 2.9993054312e+00 -5.1949493943e+00 2.9993054312e+00 5.1949493943e+00 
159300 5.4511007603e+00 -1.5667557224e-03 2.9993316206e+00 -5.1949947556e+00 2.9993316206e+00 5.1949947556e+00 
159400 5.4511007198e+00 -1.5625275846e-03 2.9993577390e+00 -5.1950399941e+00 2.9993577390e+00 5.1950399941e+00 
159500 5.4511006794e+00 -1.5583113399e-03 2.9993837868e+00 -5.1950851101e+00 2.9993837868e+00 5.1950851101e+00 
159600 5.4511006393e+00 -1.5541069524e-03 2.9994097640e+00 -5.1951301040e+00 2.9994097640e+00 5.1951301040e+00 
159700 5.4511005994e+00 -1.5499143861e-03 2.9994356709e+00 -5.1951749761e+00 2.9994356709e+00 5.1951749761e+00 
159800 5.4511005598e+00 -1.5457336054e-03 2.9994615077e+00 -5.1952197267e+00 2.9994615077e+00 5.1952197267e+00 
159900 5.4511005203e+00 -1.5415645747e-03 2.9994872746e+00 -5.1952643563e+00 2.9994872746e+00 5.1952643563e+00 
160000 5.4511004810e+00 -1.5374072584e-03 2.9995129718e+00 -5.1953088651e+00 2.9995129718e+00 5.1953088651e+00 
160100 5.4511004420e+00 -1.5332616213e-03 2.9995385994e+00 -5.1953532535e+00 2.9995385994e+00 5.1953532535e+00 
160200 5.4511004032e+00 -1.5291276280e-03 2.9995641578e+00 -5.1953975218e+00 2.9995641578e+00 5.1953975218e+00 
160300 5.4511003645e+00 -1.5250052434e-03 2.9995896470e+00 -5.1954416704e+00 2.9995896470e+00 5.1954416704e+00 
160400 5.4511003261e+00 -1.5208944326e-03 2.9996150672e+00 -5.1954856996e+00 2.9996150672e+00 5.1954856996e+00 
160500 5.4511002879e+00 -1.5167951607e-03 2.9996404188e+00 -5.1955296097e+00 2.9996404188e+00 5.1955296097e+00 
160600 5.4511002499e+00 -1.5127073928e-03 2.9996657017e+00 -5.1955734012e+00 2.9996657017e+00 5.1955734012e+00 
160700 5.4511002121e+00 -1.5086310943e-03 2.9996909164e+00 -5.1956170742e+00 2.9996909164e+00 5.1956170742e+00 
160800 5.4511001745e+00 -1.5045662307e-03 2.9997160629e+00 -5.1956606292e+00 2.9997160629e+00 5.1956606292e+00 
160900 5.4511001371e+00 -1.5005127676e-03 2.9997411414e+00 -5.1957040664e+00 2.9997411414e+00 5.1957040664e+00 
161000 5.4511000999e+00 -1.4964706706e-03 2.9997661521e+00 -5.1957473863e+00 2.9997661521e+00 5.1957473863e+00 
161100 5.4511000629e+00 -1.4924399056e-03 2.9997910953e+00 -5.1957905891e+00 2.9997910953e+00 5.1957905891e+00 
161200 5.4511000262e+00 -1.4884204385e-03 2.9998159710e+00 -5.1958336752e+00 2.9998159710e+00 5.1958336752e+00 
161300 5.4510999896e+00 -1.4844122353e-03 2.9998407796e+00 -5.1958766449e+00 2.9998407796e+00 5.1958766449e+00 
161400 5.4510999532e+00 -1.4804152622e-03 2.9998655211e+00 -5.1959194985e+00 2.9998655211e+00 5.1959194985e+00 
161500 5.4510999170e+00 -1.4764294854e-03 2.9998901959e+00 -5.1959622364e+00 2.9998901959e+00 5.1959622364e+00 
161600 5.4510998810e+00 -1.4724548714e-03 2.9999148040e+00 -5.1960048589e+00 2.9999148040e+00 5.1960048589e+00 
161700 5.4510998451e+00 -1.4684913866e-03 2.9999393456e+00 -5.1960473662e+00 2.9999393456e+00 5.1960473662e+00 
161800 5.4510998095e+00 -1.4645389975e-03 2.9999638210e+00 -5.1960897588e+00 2.9999638210e+00 5.1960897588e+00 
161900 5.4510997741e+00 -1.4605976710e-03 2.9999882303e+00 -5.1961320370e+00 2.9999882303e+00 5.1961320370e+00 
162000 5.4510997388e+00 -1.4566673739e-03 3.0000125737e+00 -5.1961742010e+00 3.0000125737e+00 5.1961742010e+00 
162100 5.4510997038e+00 -1.4527480730e-03 3.0000368515e+00 -5.1962162513e+00 3.0000368515e+00 5.1962162513e+00 
162200 5.4510996689e+00 -1.4488397355e-03 3.0000610637e+00 -5.1962581881e+00 3.0000610637e+00 5.1962581881e+00 
162300 5.4510996343e+00 -1.4449423285e-03 3.0000852105e+00 -5.1963000117e+00 3.0000852105e+00 5.1963000117e+00 
162400 5.4510995998e+00 -1.4410558192e-03 3.0001092922e+00 -5.1963417224e+00 3.0001092922e+00 5.1963417224e+00 
162500 5.4510995655e+00 -1.4371801751e-03 3.0001333090e+00 -5.1963833207e+00 3.0001333090e+00 5.1963833207e+00 
162600 5.4510995313e+00 -1.4333153635e-03 3.0001572610e+00 -5.1964248067e+00 3.0001572610e+00 5.1964248067e+00 
162700 5.4510994974e+00 -1.4294613522e-03 3.0001811483e+00 -5.1964661808e+00 3.0001811483e+00 5.1964661808e+00 
162800 5.4510994637e+00 -1.4256181088e-03 3.0002049713e+00 -5.1965074434e+00 3.0002049713e+00 5.1965074434e+00 
162900 5.4510994301e+00 -1.4217856011e-03 3.0002287300e+00 -5.1965485947e+00 3.0002287300e+00 5.1965485947e+00 
163000 5.4510993967e+00 -1.4179637970e-03 3.0002524246e+00 -5.1965896350e+00 3.0002524246e+00 5.1965896350e+00 
163100 5.4510993635e+00 -1.4141526646e-03 3.0002760554e+00 -5.1966305647e+00 3.0002760554e+00 5.1966305647e+00 
163200 5.4510993304e+00 -1.4103521720e-03 3.0002996225e+00 -5.1966713841e+00 3.0002996225e+00 5.1966713841e+00 
163300 5.4510992976e+00 -1.4065622874e-03 3.0003231260e+00 -5.1967120934e+00 3.0003231260e+00 5.1967120934e+00 
163400 5.4510992649e+00 -1.4027829791e-03 3.0003465663e+00 -5.1967526931e+00 3.0003465663e+00 5.1967526931e+00 
163500 5.4510992324e+00 -1.3990142156e-03 3.0003699433e+00 -5.1967931833e+00 3.0003699433e+00 5.1967931833e+00 
163600 5.4510992001e+00 -1.3952559655e-03 3.0003932574e+00 -5.1968335644e+00 3.0003932574e+00 5.1968335644e+00 
163700 5.4510991679e+00 -1.3915081973e-03 3.0004165086e+00 -5.1968738368e+00 3.0004165086e+00 5.1968738368e+00 
163800 5.4510991359e+00 -1.3877708799e-03 3.0004396972e+00 -5.1969140006e+00 3.0004396972e+00 5.1969140006e+00 
163900 5.4510991041e+00 -1.3840439821e-03 3.0004628234e+00 -5.1969540563e+00 3.0004628234e+00 5.1969540563e+00 
164000 5.4510990725e+00 -1.3803274729e-03 3.0004858873e+00 -5.1969940041e+00 3.0004858873e+00 5.1969940041e+00 
164100 5.4510990410e+00 -1.3766213213e-03 3.0005088890e+00 -5.1970338443e+00 3.0005088890e+00 5.1970338443e+00 
164200 5.4510990097e+00 -1.3729254965e-03 3.0005318288e+00 -5.1970735773e+00 3.0005318288e+00 5.1970735773e+00 
164300 5.4510989785e+00 -1.3692399678e-03 3.0005547069e+00 -5.1971132032e+00 3.0005547069e+00 5.1971132032e+00 
164400 5.4510989476e+00 -1.3655647045e-03 3.0005775234e+00 -5.1971527225e+00 3.0005775234e+00 5.1971527225e+00 
164500 5.4510989168e+00 -1.3618996762e-03 3.0006002784e+00 -5.1971921355e+00 3.0006002784e+00 5.1971921355e+00 
164600 5.4510988861e+00 -1.3582448523e-03 3.0006229723e+00 -5.1972314423e+00 3.0006229723e+00 5.1972314423e+00 
164700 5.4510988556e+00 -1.3546002026e-03 3.0006456050e+00 -5.1972706434e+00 3.0006456050e+00 5.1972706434e+00 
164800 5.4510988253e+00 -1.3509656968e-03 3.0006681768e+00 -5.1973097389e+00 3.0006681768e+00 5.1973097389e+00 
164900 5.4510987952e+00 -1.3473413048e-03 3.0006906879e+00 -5.1973487293e+00 3.0006906879e+00 5.1973487293e+00 
165000 5.4510987652e+00 -1.3437269966e-03 3.0007131385e+00 -5.1973876148e+00 3.0007131385e+00 5.1973876148e+00 
165100 5.4510987354e+00 -1.3401227422e-03 3.0007355287e+00 -5.1974263957e+00 3.0007355287e+00 5.1974263957e+00 
165200 5.4510987057e+00 -1.3365285119e-03 3.0007578586e+00 -5.1974650723e+00 3.0007578586e+00 5.1974650723e+00 
165300 5.4510986762e+00 -1.3329442758e-03 3.0007801285e+00 -5.1975036448e+00 3.0007801285e+00 5.1975036448e+00 
165400 5.4510986468e+00 -1.3293700044e-03 3.0008023385e+00 -5.1975421137e+00 3.0008023385e+00 5.1975421137e+00 
165500 5.4510986176e+00 -1.3258056681e-03 3.0008244887e+00 -5.1975804791e+00 3.0008244887e+00 5.1975804791e+00 
165600 5.4510985886e+00 -1.3222512374e-03 3.0008465794e+00 -5.1976187413e+00 3.0008465794e+00 5.1976187413e+00 
165700 5.4510985597e+00 -1.3187066831e-03 3.0008686108e+00 -5.1976569007e+00 3.0008686108e+00 5.1976569007e+00 
165800 5.4510985310e+00 -1.3151719758e-03 3.0008905829e+00 -5.1976949575e+00 3.0008905829e+00 5.1976949575e+00 
165900 5.4510985024e+00 -1.3116470865e-03 3.0009124959e+00 -5.1977329120e+00 3.0009124959e+00 5.1977329120e+00 
166000 5.4510984740e+00 -1.3081319860e-03 3.0009343501e+00 -5.1977707645e+00 3.0009343501e+00 5.1977707645e+00 
166100 5.4510984457e+00 -1.3046266454e-03 3.0009561455e+00 -5.1978085154e+00 3.0009561455e+00 5.1978085154e+00 
166200 5.4510984176e+00 -1.3011310359e-03 3.0009778824e+00 -5.1978461647e+00 3.0009778824e+00 5.1978461647e+00 
166300 5.4510983896e+00 -1.2976451286e-03 3.0009995609e+00 -5.1978837130e+00 3.0009995609e+00 5.1978837130e+00 
166400 5.4510983618e+00 -1.2941688948e-03 3.0010211811e+00 -5.1979211603e+00 3.0010211811e+00 5.1979211603e+00 
166500 5.4510983342e+00 -1.2907023061e-03 3.0010427433e+00 -5.1979585071e+00 3.0010427433e+00 5.1979585071e+00 
166600 5.4510983066e+00 -1.2872453339e-03 3.0010642476e+00 -5.1979957535e+00 3.0010642476e+00 5.1979957535e+00 
166700 5.4510982793e+00 -1.2837979498e-03 3.0010856941e+00 -5.1980329000e+00 3.0010856941e+00 5.1980329000e+00 
166800 5.4510982520e+00 -1.2803601255e-03 3.0011070830e+00 -5.1980699467e+00 3.0011070830e+00 5.1980699467e+00 
166900 5.4510982249e+00 -1.2769318327e-03 3.0011284145e+00 -5.1981068939e+00 3.0011284145e+00 5.1981068939e+00 
167000 5.4510981980e+00 -1.2735130435e-03 3.0011496887e+00 -5.1981437419e+00 3.0011496887e+00 5.1981437419e+00 
167100 5.4510981712e+00 -1.2701037296e-03 3.0011709058e+00 -5.1981804910e+00 3.0011709058e+00 5.1981804910e+00 
167200 5.4510981446e+00 -1.2667038633e-03 3.0011920660e+00 -5.1982171415e+00 3.0011920660e+00 5.1982171415e+00 
167300 5.4510981181e+00 -1.2633134166e-03 3.0012131693e+00 -5.1982536936e+00 3.0012131693e+00 5.1982536936e+00 
167400 5.4510980917e+00 -1.2599323618e-03 3.0012342161e+00 -5.1982901476e+00 3.0012342161e+00 5.1982901476e+00 
167500 5.4510980655e+00 -1.2565606713e-03 3.0012552063e+00 -5.1983265038e+00 3.0012552063e+00 5.1983265038e+00 
167600 5.4510980394e+00 -1.2531983173e-03 3.0012761403e+00 -5.1983627625e+00 3.0012761403e+00 5.1983627625e+00 
167700 5.4510980134e+00 -1.2498452726e-03 3.0012970181e+00 -5.1983989239e+00 3.0012970181e+00 5.1983989239e+00 
167800 5.4510979876e+00 -1.2465015096e-03 3.0013178398e+00 -5.1984349882e+00 3.0013178398e+00 5.1984349882e+00 
167900 5.4510979619e+00 -1.2431670010e-03 3.0013386058e+00 -5.1984709559e+00 3.0013386058e+00 5.1984709559e+00 
168000 5.4510979364e+00 -1.2398417197e-03 3.0013593160e+00 -5.1985068271e+00 3.0013593160e+00 5.1985068271e+00 
168100 5.4510979110e+00 -1.2365256385e-03 3.0013799707e+00 -5.1985426020e+00 3.0013799707e+00 5.1985426020e+00 
168200 5.4510978858e+00 -1.2332187303e-03 3.0014005700e+00 -5.1985782811e+00 3.0014005700e+00 5.1985782811e+00 
168300 5.4510978606e+00 -1.2299209683e-03 3.0014211141e+00 -5.1986138645e+00 3.0014211141e+00 5.1986138645e+00 
168400 5.4510978356e+00 -1.2266323254e-03 3.0014416031e+00 -5.1986493525e+00 3.0014416031e+00 5.1986493525e+00 
168500 5.4510978108e+00 -1.2233527751e-03 3.0014620371e+00 -5.1986847453e+00 3.0014620371e+00 5.1986847453e+00 
168600 5.4510977861e+00 -1.2200822904e-03 3.0014824165e+00 -5.1987200433e+00 3.0014824165e+00 5.1987200433e+00 
168700 5.4510977615e+00 -1.2168208450e-03 3.0015027411e+00 -5.1987552467e+00 3.0015027411e+00 5.1987552467e+00 
168800 5.4510977370e+00 -1.2135684121e-03 3.0015230114e+00 -5.1987903557e+00 3.0015230114e+00 5.1987903557e+00 
168900 5.4510977127e+00 -1.2103249654e-03 3.0015432273e+00 -5.1988253707e+00 3.0015432273e+00 5.1988253707e+00 
169000 5.4510976885e+00 -1.2070904786e-03 3.0015633890e+00 -5.1988602919e+00 3.0015633890e+00 5.1988602919e+00 
169100 5.4510976644e+00 -1.2038649253e-03 3.0015834967e+00 -5.1988951195e+00 3.0015834967e+00 5.1988951195e+00 
169200 5.4510976404e+00 -1.2006482795e-03 3.0016035506e+00 -5.1989298537e+00 3.0016035506e+00 5.1989298537e+00 
169300 5.4510976166e+00 -1.1974405149e-03 3.0016235507e+00 -5.1989644950e+00 3.0016235507e+00 5.1989644950e+00 
169400 5.4510975929e+00 -1.1942416056e-03 3.0016434973e+00 -5.1989990435e+00 3.0016434973e+00 5.1989990435e+00 
169500 5.4510975694e+00 -1.1910515256e-03 3.0016633904e+00 -5.1990334994e+00 3.0016633904e+00 5.1990334994e+00 
169600 5.4510975459e+00 -1.1878702491e-03 3.0016832303e+00 -5.1990678631e+00 3.0016832303e+00 5.1990678631e+00 
169700 5.4510975226e+00 -1.1846977504e-03 3.0017030171e+00 -5.1991021348e+00 3.0017030171e+00 5.1991021348e+00 
169800 5.4510974994e+00 -1.1815340037e-03 3.0017227508e+00 -5.1991363147e+00 3.0017227508e+00 5.1991363147e+00 
169900 5.4510974764e+00 -1.1783789835e-03 3.0017424318e+00 -5.1991704031e+00 3.0017424318e+00 5.1991704031e+00 
170000 5.4510974534e+00 -1.1752326642e-03 3.0017620601e+00 -5.1992044003e+00 3.0017620601e+00 5.1992044003e+00 
170100 5.4510974306e+00 -1.1720950205e-03 3.0017816358e+00 -5.1992383064e+00 3.0017816358e+00 5.1992383064e+00 
170200 5.4510974079e+00 -1.1689660269e-03 3.0018011591e+00 -5.1992721218e+00 3.0018011591e+00 5.1992721218e+00 
170300 5.4510973853e+00 -1.1658456582e-03 3.0018206302e+00 -5.1993058468e+00 3.0018206302e+00 5.1993058468e+00 
170400 5.4510973629e+00 -1.1627338892e-03 3.0018400492e+00 -5.1993394815e+00 3.0018400492e+00 5.1993394815e+00 
170500 5.4510973405e+00 -1.1596306948e-03 3.0018594163e+00 -5.1993730262e+00 3.0018594163e+00 5.1993730262e+00 
170600 5.4510973183e+00 -1.1565360499e-03 3.0018787315e+00 -5.1994064811e+00 3.0018787315e+00 5.1994064811e+00 
170700 5.4510972962e+00 -1.1534499297e-03 3.0018979951e+00 -5.1994398466e+00 3.0018979951e+00 5.1994398466e+00 
170800 5.4510972742e+00 -1.1503723092e-03 3.0019172071e+00 -5.1994731228e+00 3.0019172071e+00 5.1994731228e+00 
170900 5.4510972524e+00 -1.1473031637e-03 3.0019363677e+00 -5.1995063100e+00 3.0019363677e+00 5.1995063100e+00 
171000 5.4510972306e+00 -1.1442424685e-03 3.0019554771e+00 -5.1995394085e+00 3.0019554771e+00 5.1995394085e+00 
171100 5.4510972090e+00 -1.1411901989e-03 3.0019745354e+00 -5.1995724184e+00 3.0019745354e+00 5.1995724184e+00 
171200 5.4510971875e+00 -1.1381463304e-03 3.0019935428e+00 -5.1996053401e+00 3.0019935428e+00 5.1996053401e+00 
171300 5.4510971661e+00 -1.1351108384e-03 3.0020124993e+00 -5.1996381738e+00 3.0020124993e+00 5.1996381738e+00 
171400 5.4510971448e+00 -1.1320836987e-03 3.0020314052e+00 -5.1996709197e+00 3.0020314052e+00 5.1996709197e+00 
171500 5.4510971236e+00 -1.1290648869e-03 3.0020502605e+00 -5.1997035780e+00 3.0020502605e+00 5.1997035780e+00 
171600 5.4510971025e+00 -1.1260543788e-03 3.0020690654e+00 -5.1997361491e+00 3.0020690654e+00 5.1997361491e+00 
171700 5.4510970816e+00 -1.1230521502e-03 3.0020878201e+00 -5.1997686331e+00 3.0020878201e+00 5.1997686331e+00 
171800 5.4510970608e+00 -1.1200581769e-03 3.0021065246e+00 -5.1998010303e+00 3.0021065246e+00 5.1998010303e+00 
171900 5.4510970400e+00 -1.1170724351e-03 3.0021251792e+00 -5.1998333410e+00 3.0021251792e+00 5.1998333410e+00 
172000 5.4510970194e+00 -1.1140949008e-03 3.0021437839e+00 -5.1998655653e+00 3.0021437839e+00 5.1998655653e+00 
172100 5.4510969989e+00 -1.1111255501e-03 3.0021623389e+00 -5.1998977035e+00 3.0021623389e+00 5.1998977035e+00 
172200 5.4510969785e+00 -1.1081643592e-03 3.0021808443e+00 -5.1999297559e+00 3.0021808443e+00 5.1999297559e+00 
172300 5.4510969582e+00 -1.1052113045e-03 3.0021993003e+00 -5.1999617226e+00 3.0021993003e+00 5.1999617226e+00 
172400 5.4510969380e+00 -1.1022663623e-03 3.0022177070e+00 -5.1999936040e+00 3.0022177070e+00 5.1999936040e+00 
172500 5.4510969180e+00 -1.0993295091e-03 3.0022360646e+00 -5.2000254002e+00 3.0022360646e+00 5.2000254002e+00 
172600 5.4510968980e+00 -1.0964007214e-03 3.0022543731e+00 -5.2000571115e+00 3.0022543731e+00 5.2000571115e+00 
172700 5.4510968781e+00 -1.0934799757e-03 3.0022726328e+00 -5.2000887381e+00 3.0022726328e+00 5.2000887381e+00 
172800 5.4510968584e+00 -1.0905672488e-03 3.0022908437e+00 -5.2001202803e+00 3.0022908437e+00 5.2001202803e+00 
172900 5.4510968387e+00 -1.0876625175e-03 3.0023090059e+00 -5.2001517383e+00 3.0023090059e+00 5.2001517383e+00 
173000 5.4510968192e+00 -1.0847657584e-03 3.0023271197e+00 -5.2001831123e+00 3.0023271197e+00 5.2001831123e+00 
173100 5.4510967997e+00 -1.0818769486e-03 3.0023451851e+00 -5.2002144025e+00 3.0023451851e+00 5.2002144025e+00 
173200 5.4510967804e+00 -1.0789960649e-03 3.0023632024e+00 -5.2002456093e+00 3.0023632024e+00 5.2002456093e+00 
173300 5.4510967612e+00 -1.0761230845e-03 3.0023811715e+00 -5.2002767327e+00 3.0023811715e+00 5.2002767327e+00 
173400 5.4510967420e+00 -1.0732579845e-03 3.0023990927e+00 -5.2003077731e+00 3.0023990927e+00 5.2003077731e+00 
173500 5.4510967230e+00 -1.0704007419e-03 3.0024169660e+00 -5.2003387307e+00 3.0024169660e+00 5.2003387307e+00 
173600 5.4510967041e+00 -1.0675513342e-03 3.0024347917e+00 -5.2003696056e+00 3.0024347917e+00 5.2003696056e+00 
173700 5.4510966852e+00 -1.0647097385e-03 3.0024525698e+00 -5.2004003982e+00 3.0024525698e+00 5.2004003982e+00 
173800 5.4510966665e+00 -1.0618759324e-03 3.0024703005e+00 -5.2004311087e+00 3.0024703005e+00 5.2004311087e+00 
173900 5.4510966479e+00 -1.0590498932e-03 3.0024879839e+00 -5.2004617372e+00 3.0024879839e+00 5.2004617372e+00 
174000 5.4510966293e+00 -1.0562315986e-03 3.0025056201e+00 -5.2004922840e+00 3.0025056201e+00 5.2004922840e+00 
174100 5.4510966109e+00 -1.0534210261e-03 3.0025232093e+00 -5.2005227494e+00 3.0025232093e+00 5.2005227494e+00 
174200 5.4510965926e+00 -1.0506181534e-03 3.0025407516e+00 -5.2005531335e+00 3.0025407516e+00 5.2005531335e+00 
174300 5.4510965743e+00 -1.0478229584e-03 3.0025582471e+00 -5.2005834366e+00 3.0025582471e+00 5.2005834366e+00 
174400 5.4510965562e+00 -1.0450354187e-03 3.0025756959e+00 -5.2006136589e+00 3.0025756959e+00 5.2006136589e+00 
174500 5.4510965381e+00 -1.0422555123e-03 3.0025930983e+00 -5.2006438006e+00 3.0025930983e+00 5.2006438006e+00 
174600 5.4510965202e+00 -1.0394832172e-03 3.0026104542e+00 -5.2006738620e+00 3.0026104542e+00 5.2006738620e+00 
174700 5.4510965023e+00 -1.0367185115e-03 3.0026277639e+00 -5.2007038432e+00 3.0026277639e+00 5.2007038432e+00 
174800 5.4510964846e+00 -1.0339613731e-03 3.0026450274e+00 -5.2007337446e+00 3.0026450274e+00 5.2007337446e+00 
174900 5.4510964669e+00 -1.0312117803e-03 3.0026622449e+00 -5.2007635662e+00 3.0026622449e+00 5.2007635662e+00 
175000 5.4510964493e+00 -1.0284697113e-03 3.0026794166e+00 -5.2007933083e+00 3.0026794166e+00 5.2007933083e+00 
175100 5.4510964319e+00 -1.0257351445e-03 3.0026965425e+00 -5.2008229712e+00 3.0026965425e+00 5.2008229712e+00 
175200 5.4510964145e+00 -1.0230080582e-03 3.0027136227e+00 -5.2008525551e+00 3.0027136227e+00 5.2008525551e+00 
175300 5.4510963972e+00 -1.0202884308e-03 3.0027306574e+00 -5.2008820601e+00 3.0027306574e+00 5.2008820601e+00 
175400 5.4510963800e+00 -1.0175762409e-03 3.0027476468e+00 -5.2009114866e+00 3.0027476468e+00 5.2009114866e+00 
175500 5.4510963629e+00 -1.0148714670e-03 3.0027645909e+00 -5.2009408346e+00 3.0027645909e+00 5.2009408346e+00 
175600 5.4510963458e+00 -1.0121740879e-03 3.0027814899e+00 -5.2009701045e+00 3.0027814899e+00 5.2009701045e+00 
175700 5.4510963289e+00 -1.0094840822e-03 3.0027983438e+00 -5.2009992964e+00 3.0027983438e+00 5.2009992964e+00 
175800 5.4510963121e+00 -1.0068014286e-03 3.0028151529e+00 -5.2010284106e+00 3.0028151529e+00 5.2010284106e+00 
175900 5.4510962953e+00 -1.0041261062e-03 3.0028319172e+00 -5.2010574472e+00 3.0028319172e+00 5.2010574472e+00 
176000 5.4510962787e+00 -1.0014580936e-03 3.0028486369e+00 -5.2010864065e+00 3.0028486369e+00 5.2010864065e+00 
176100 5.4510962621e+00 -9.9879737007e-04 3.0028653120e+00 -5.2011152887e+00 3.0028653120e+00 5.2011152887e+00 
176200 5.4510962456e+00 -9.9614391449e-04 3.0028819428e+00 -5.2011440940e+00 3.0028819428e+00 5.2011440940e+00 
176300 5.4510962292e+00 -9.9349770602e-04 3.0028985293e+00 -5.2011728227e+00 3.0028985293e+00 5.2011728227e+00 
176400 5.4510962129e+00 -9.9085872382e-04 3.0029150716e+00 -5.2012014748e+00 3.0029150716e+00 5.2012014748e+00 
176500 5.4510961967e+00 -9.8822694715e-04 3.0029315699e+00 -5.2012300507e+00 3.0029315699e+00 5.2012300507e+00 
176600 5.4510961805e+00 -9.8560235531e-04 3.0029480243e+00 -5.2012585505e+00 3.0029480243e+00 5.2012585505e+00 
176700 5.4510961645e+00 -9.8298492768e-04 3.0029644349e+00 -5.2012869745e+00 3.0029644349e+00 5.2012869745e+00 
176800 5.4510961485e+00 -9.8037464368e-04 3.0029808018e+00 -5.2013153229e+00 3.0029808018e+00 5.2013153229e+00 
176900 5.4510961326e+00 -9.7777148284e-04 3.0029971252e+00 -5.2013435958e+00 3.0029971252e+00 5.2013435958e+00 
177000 5.4510961168e+00 -9.7517542470e-04 3.0030134051e+00 -5.2013717935e+00 3.0030134051e+00 5.2013717935e+00 
177100 5.4510961011e+00 -9.7258644889e-04 3.0030296417e+00 -5.2013999161e+00 3.0030296417e+00 5.2013999161e+00 
177200 5.4510960855e+00 -9.7000453512e-04 3.0030458352e+00 -5.2014279640e+00 3.0030458352e+00 5.2014279640e+00 
177300 5.4510960699e+00 -9.6742966313e-04 3.0030619855e+00 -5.2014559372e+00 3.0030619855e+00 5.2014559372e+00 
177400 5.4510960545e+00 -9.6486181275e-04 3.0030780929e+00 -5.2014838361e+00 3.0030780929e+00 5.2014838361e+00 
177500 5.4510960391e+00 -9.6230096385e-04 3.0030941575e+00 -5.2015116607e+00 3.0030941575e+00 5.2015116607e+00 
177600 5.4510960238e+00 -9.5974709638e-04 3.0031101793e+00 -5.2015394113e+00 3.0031101793e+00 5.2015394113e+00 
177700 5.4510960086e+00 -9.5720019035e-04 3.0031261586e+00 -5.2015670882e+00 3.0031261586e+00 5.2015670882e+00 
177800 5.4510959934e+00 -9.5466022583e-04 3.0031420953e+00 -5.2015946914e+00 3.0031420953e+00 5.2015946914e+00 
177900 5.4510959784e+00 -9.5212718294e-04 3.0031579897e+00 -5.2016222213e+00 3.0031579897e+00 5.2016222213e+00 
178000 5.4510959634e+00 -9.4960104188e-04 3.0031738418e+00 -5.2016496779e+00 3.0031738418e+00 5.2016496779e+00 
178100 5.4510959485e+00 -9.4708178291e-04 3.0031896518e+00 -5.2016770616e+00 3.0031896518e+00 5.2016770616e+00 
178200 5.4510959337e+00 -9.4456938633e-04 3.0032054197e+00 -5.2017043725e+00 3.0032054197e+00 5.2017043725e+00 
178300 5.4510959189e+00 -9.4206383253e-04 3.0032211457e+00 -5.2017316108e+00 3.0032211457e+00 5.2017316108e+00 
178400 5.4510959043e+00 -9.3956510195e-04 3.0032368300e+00 -5.2017587767e+00 3.0032368300e+00 5.2017587767e+00 
178500 5.4510958897e+00 -9.3707317507e-04 3.0032524725e+00 -5.2017858704e+00 3.0032524725e+00 5.2017858704e+00 
178600 5.4510958752e+00 -9.3458803247e-04 3.0032680735e+00 -5.2018128921e+00 3.0032680735e+00 5.2018128921e+00 
178700 5.4510958607e+00 -9.3210965475e-04 3.0032836331e+00 -5.2018398420e+00 3.0032836331e+00 5.2018398420e+00 
178800 5.4510958464e+00 -9.2963802260e-04 3.0032991512e+00 -5.2018667203e+00 3.0032991512e+00 5.2018667203e+00 
178900 5.4510958321e+00 -9.2717311676e-04 3.0033146282e+00 -5.2018935272e+00 3.0033146282e+00 5.2018935272e+00 
179000 5.4510958179e+00 -9.2471491803e-04 3.0033300640e+00 -5.2019202628e+00 3.0033300640e+00 5.2019202628e+00 
179100 5.4510958038e+00 -9.2226340726e-04 3.0033454589e+00 -5.2019469275e+00 3.0033454589e+00 5.2019469275e+00 
179200 5.4510957897e+00 -9.1981856537e-04 3.0033608128e+00 -5.2019735213e+00 3.0033608128e+00 5.2019735213e+00 
179300 5.4510957757e+00 -9.1738037334e-04 3.0033761260e+00 -5.2020000445e+00 3.0033761260e+00 5.2020000445e+00 
179400 5.4510957618e+00 -9.1494881220e-04 3.0033913985e+00 -5.2020264972e+00 3.0033913985e+00 5.2020264972e+00 
179500 5.4510957480e+00 -9.1252386305e-04 3.0034066304e+00 -5.2020528797e+00 3.0034066304e+00 5.2020528797e+00 
179600 5.4510957342e+00 -9.1010550703e-04 3.0034218219e+00 -5.2020791921e+00 3.0034218219e+00 5.2020791921e+00 
179700 5.4510957205e+00 -9.0769372536e-04 3.0034369731e+00 -5.2021054347e+00 3.0034369731e+00 5.2021054347e+00 
179800 5.4510957069e+00 -9.0528849931e-04 3.0034520840e+00 -5.2021316076e+00 3.0034520840e+00 5.2021316076e+00 
179900 5.4510956934e+00 -9.0288981020e-04 3.0034671548e+00 -5.2021577110e+00 3.0034671548e+00 5.2021577110e+00 
180000 5.4510956799e+00 -9.0049763941e-04 3.0034821856e+00 -5.2021837451e+00 3.0034821856e+00 5.2021837451e+00 
180100 5.4510956665e+00 -8.9811196839e-04 3.0034971765e+00 -5.2022097102e+00 3.0034971765e+00 5.2022097102e+00 
180200 5.4510956532e+00 -8.9573277864e-04 3.0035121277e+00 -5.2022356063e+00 3.0035121277e+00 5.2022356063e+00 
180300 5.4510956399e+00 -8.9336005171e-04 3.0035270391e+00 -5.2022614336e+00 3.0035270391e+00 5.2022614336e+00 
180400 5.4510956267e+00 -8.9099376921e-04 3.0035419110e+00 -5.2022871924e+00 3.0035419110e+00 5.2022871924e+00 
180500 5.4510956136e+00 -8.8863391280e-04 3.0035567434e+00 -5.2023128829e+00 3.0035567434e+00 5.2023128829e+00 
180600 5.4510956005e+00 -8.8628046423e-04 3.0035715364e+00 -5.2023385052e+00 3.0035715364e+00 5.2023385052e+00 
180700 5.4510955876e+00 -8.8393340526e-04 3.0035862902e+00 -5.2023640595e+00 3.0035862902e+00 5.2023640595e+00 
180800 5.4510955747e+00 -8.8159271773e-04 3.0036010048e+00 -5.2023895460e+00 3.0036010048e+00 5.2023895460e+00 
180900 5.4510955618e+00 -8.7925838355e-04 3.0036156804e+00 -5.2024149649e+00 3.0036156804e+00 5.2024149649e+00 
181000 5.4510955490e+00 -8.7693038464e-04 3.0036303171e+00 -5.2024403164e+00 3.0036303171e+00 5.2024403164e+00 
181100 5.4510955363e+00 -8.7460870303e-04 3.0036449150e+00 -5.2024656006e+00 3.0036449150e+00 5.2024656006e+00 
181200 5.4510955237e+00 -8.7229332076e-04 3.0036594741e+00 -5.2024908178e+00 3.0036594741e+00 5.2024908178e+00 
181300 5.4510955111e+00 -8.6998421996e-04 3.0036739946e+00 -5.2025159681e+00 3.0036739946e+00 5.2025159681e+00 
181400 5.4510954986e+00 -8.6768138280e-04 3.0036884766e+00 -5.2025410516e+00 3.0036884766e+00 5.2025410516e+00 
181500 5.4510954862e+00 -8.6538479149e-04 3.0037029202e+00 -5.2025660687e+00 3.0037029202e+00 5.2025660687e+00 
181600 5.4510954738e+00 -8.6309442831e-04 3.0037173256e+00 -5.2025910194e+00 3.0037173256e+00 5.2025910194e+00 
181700 5.4510954615e+00 -8.6081027560e-04 3.0037316927e+00 -5.2026159040e+00 3.0037316927e+00 5.2026159040e+00 
181800 5.4510954492e+00 -8.5853231575e-04 3.0037460217e+00 -5.2026407226e+00 3.0037460217e+00 5.2026407226e+00 
181900 5.4510954370e+00 -8.5626053119e-04 3.0037603127e+00 -5.2026654754e+00 3.0037603127e+00 5.2026654754e+00 
182000 5.4510954249e+00 -8.5399490442e-04 3.0037745659e+00 -5.2026901626e+00 3.0037745659e+00 5.2026901626e+00 
182100 5.4510954129e+00 -8.5173541799e-04 3.0037887813e+00 -5.2027147844e+00 3.0037887813e+00 5.2027147844e+00 
182200 5.4510954009e+00 -8.4948205450e-04 3.0038029590e+00 -5.2027393408e+00 3.0038029590e+00 5.2027393408e+00 
182300 5.4510953890e+00 -8.4723479661e-04 3.0038170991e+00 -5.2027638322e+00 3.0038170991e+00 5.2027638322e+00 
182400 5.4510953771e+00 -8.4499362702e-04 3.0038312017e+00 -5.2027882588e+00 3.0038312017e+00 5.2027882588e+00 
182500 5.4510953653e+00 -8.4275852849e-04 3.0038452670e+00 -5.2028126205e+00 3.0038452670e+00 5.2028126205e+00 
182600 5.4510953536e+00 -8.4052948383e-04 3.0038592950e+00 -5.2028369177e+00 3.0038592950e+00 5.2028369177e+00 
182700 5.4510953419e+00 -8.3830647592e-04 3.0038732858e+00 -5.2028611506e+00 3.0038732858e+00 5.2028611506e+00 
182800 5.4510953303e+00 -8.3608948767e-04 3.0038872396e+00 -5.2028853192e+00 3.0038872396e+00 5.2028853192e+00 
182900 5.4510953187e+00 -8.3387850205e-04 3.0039011564e+00 -5.2029094238e+00 3.0039011564e+00 5.2029094238e+00 
183000 5.4510953072e+00 -8.3167350208e-04 3.0039150364e+00 -5.2029334646e+00 3.0039150364e+00 5.2029334646e+00 
183100 5.4510952958e+00 -8.2947447083e-04 3.0039288795e+00 -5.2029574417e+00 3.0039288795e+00 5.2029574417e+00 
183200 5.4510952844e+00 -8.2728139144e-04 3.0039426860e+00 -5.2029813552e+00 3.0039426860e+00 5.2029813552e+00 
183300 5.4510952731e+00 -8.2509424707e-04 3.0039564560e+00 -5.2030052055e+00 3.0039564560e+00 5.2030052055e+00 
183400 5.4510952619e+00 -8.2291302096e-04 3.0039701894e+00 -5.2030289925e+00 3.0039701894e+00 5.2030289925e+00 
183500 5.4510952507e+00 -8.2073769638e-04 3.0039838865e+00 -5.2030527166e+00 3.0039838865e+00 5.2030527166e+00 
183600 5.4510952395e+00 -8.1856825667e-04 3.0039975474e+00 -5.2030763779e+00 3.0039975474e+00 5.2030763779e+00 
183700 5.4510952285e+00 -8.1640468520e-04 3.0040111720e+00 -5.2030999765e+00 3.0040111720e+00 5.2030999765e+00 
183800 5.4510952175e+00 -8.1424696541e-04 3.0040247606e+00 -5.2031235126e+00 3.0040247606e+00 5.2031235126e+00 
183900 5.4510952065e+00 -8.1209508078e-04 3.0040383132e+00 -5.2031469864e+00 3.0040383132e+00 5.2031469864e+00 
184000 5.4510951956e+00 -8.0994901484e-04 3.0040518300e+00 -5.2031703981e+00 3.0040518300e+00 5.2031703981e+00 
184100 5.4510951848e+00 -8.0780875117e-04 3.0040653109e+00 -5.2031937478e+00 3.0040653109e+00 5.2031937478e+00 
184200 5.4510951740e+00 -8.0567427340e-04 3.0040787562e+00 -5.2032170356e+00 3.0040787562e+00 5.2032170356e+00 
184300 5.4510951632e+00 -8.0354556521e-04 3.0040921659e+00 -5.2032402619e+00 3.0040921659e+00 5.2032402619e+00 
184400 5.4510951526e+00 -8.0142261035e-04 3.0041055401e+00 -5.2032634267e+00 3.0041055401e+00 5.2032634267e+00 
184500 5.4510951420e+00 -7.9930539257e-04 3.0041188789e+00 -5.2032865302e+00 3.0041188789e+00 5.2032865302e+00 
184600 5.4510951314e+00 -7.9719389572e-04 3.0041321824e+00 -5.2033095725e+00 3.0041321824e+00 5.2033095725e+00 
184700 5.4510951209e+00 -7.9508810368e-04 3.0041454507e+00 -5.2033325539e+00 3.0041454507e+00 5.2033325539e+00 
184800 5.4510951104e+00 -7.9298800036e-04 3.0041586838e+00 -5.2033554744e+00 3.0041586838e+00 5.2033554744e+00 
184900 5.4510951001e+00 -7.9089356975e-04 3.0041718820e+00 -5.2033783343e+00 3.0041718820e+00 5.2033783343e+00 
185000 5.4510950897e+00 -7.8880479587e-04 3.0041850453e+00 -5.2034011338e+00 3.0041850453e+00 5.2034011338e+00 
185100 5.4510950794e+00 -7.8672166279e-04 3.0041981737e+00 -5.2034238729e+00 3.0041981737e+00 5.2034238729e+00 
185200 5.4510950692e+00 -7.8464415464e-04 3.0042112674e+00 -5.2034465519e+00 3.0042112674e+00 5.2034465519e+00 
185300 5.4510950590e+00 -7.8257225558e-04 3.0042243265e+00 -5.2034691709e+00 3.0042243265e+00 5.2034691709e+00 
185400 5.4510950489e+00 -7.8050594983e-04 3.0042373511e+00 -5.2034917300e+00 3.0042373511e+00 5.2034917300e+00 
185500 5.4510950388e+00 -7.7844522166e-04 3.0042503412e+00 -5.2035142295e+00 3.0042503412e+00 5.2035142295e+00 
185600 5.4510950288e+00 -7.7639005537e-04 3.0042632969e+00 -5.2035366695e+00 3.0042632969e+00 5.2035366695e+00 
185700 5.4510950189e+00 -7.7434043533e-04 3.0042762184e+00 -5.2035590502e+00 3.0042762184e+00 5.2035590502e+00 
185800 5.4510950089e+00 -7.7229634594e-04 3.0042891057e+00 -5.2035813717e+00 3.0042891057e+00 5.2035813717e+00 
185900 5.4510949991e+00 -7.7025777165e-04 3.0043019589e+00 -5.2036036342e+00 3.0043019589e+00 5.2036036342e+00 
186000 5.4510949893e+00 -7.6822469698e-04 3.0043147782e+00 -5.2036258378e+00 3.0043147782e+00 5.2036258378e+00 
186100 5.4510949795e+00 -7.6619710646e-04 3.0043275636e+00 -5.2036479827e+00 3.0043275636e+00 5.2036479827e+00 
186200 5.4510949698e+00 -7.6417498468e-04 3.0043403151e+00 -5.2036700690e+00 3.0043403151e+00 5.2036700690e+00 
186300 5.4510949602e+00 -7.6215831630e-04 3.0043530330e+00 -5.2036920970e+00 3.0043530330e+00 5.2036920970e+00 
186400 5.4510949506e+00 -7.6014708599e-04 3.0043657172e+00 -5.2037140668e+00 3.0043657172e+00 5.2037140668e+00 
186500 5.4510949410e+00 -7.5814127849e-04 3.0043783679e+00 -5.2037359784e+00 3.0043783679e+00 5.2037359784e+00 
186600 5.4510949315e+00 -7.5614087858e-04 3.0043909852e+00 -5.2037578322e+00 3.0043909852e+00 5.2037578322e+00 
186700 5.4510949221e+00 -7.5414587108e-04 3.0044035692e+00 -5.2037796282e+00 3.0044035692e+00 5.2037796282e+00 
186800 5.4510949127e+00 -7.5215624086e-04 3.0044161198e+00 -5.2038013667e+00 3.0044161198e+00 5.2038013667e+00 
186900 5.4510949033e+00 -7.5017197284e-04 3.0044286374e+00 -5.2038230476e+00 3.0044286374e+00 5.2038230476e+00 
187000 5.4510948940e+00 -7.4819305198e-04 3.0044411218e+00 -5.2038446713e+00 3.0044411218e+00 5.2038446713e+00 
187100 5.4510948848e+00 -7.4621946329e-04 3.0044535733e+00 -5.2038662379e+00 3.0044535733e+00 5.2038662379e+00 
187200 5.4510948756e+00 -7.4425119181e-04 3.0044659918e+00 -5.2038877475e+00 3.0044659918e+00 5.2038877475e+00 
187300 5.4510948664e+00 -7.4228822265e-04 3.0044783776e+00 -5.2039092002e+00 3.0044783776e+00 5.2039092002e+00 
187400 5.4510948573e+00 -7.4033054094e-04 3.0044907306e+00 -5.2039305963e+00 3.0044907306e+00 5.2039305963e+00 
187500 5.4510948483e+00 -7.3837813187e-04 3.0045030510e+00 -5.2039519359e+00 3.0045030510e+00 5.2039519359e+00 
187600 5.4510948392e+00 -7.3643098067e-04 3.0045153389e+00 -5.2039732191e+00 3.0045153389e+00 5.2039732191e+00 
187700 5.4510948303e+00 -7.3448907262e-04 3.0045275943e+00 -5.2039944461e+00 3.0045275943e+00 5.2039944461e+00 
187800 5.4510948214e+00 -7.3255239303e-04 3.0045398174e+00 -5.2040156170e+00 3.0045398174e+00 5.2040156170e+00 
187900 5.4510948125e+00 -7.3062092726e-04 3.0045520081e+00 -5.2040367321e+00 3.0045520081e+00 5.2040367321e+00 
188000 5.4510948037e+00 -7.2869466073e-04 3.0045641667e+00 -5.2040577913e+00 3.0045641667e+00 5.2040577913e+00 
188100 5.4510947949e+00 -7.2677357888e-04 3.0045762932e+00 -5.2040787950e+00 3.0045762932e+00 5.2040787950e+00 
188200 5.4510947862e+00 -7.2485766721e-04 3.0045883876e+00 -5.2040997432e+00 3.0045883876e+00 5.2040997432e+00 
188300 5.4510947775e+00 -7.2294691125e-04 3.0046004501e+00 -5.2041206361e+00 3.0046004501e+00 5.2041206361e+00 
188400 5.4510947688e+00 -7.2104129659e-04 3.0046124808e+00 -5.2041414738e+00 3.0046124808e+00 5.2041414738e+00 
188500 5.4510947602e+00 -7.1914080884e-04 3.0046244797e+00 -5.2041622566e+00 3.0046244797e+00 5.2041622566e+00 
188600 5.4510947517e+00 -7.1724543368e-04 3.0046364470e+00 -5.2041829844e+00 3.0046364470e+00 5.2041829844e+00 
188700 5.4510947432e+00 -7.1535515681e-04 3.0046483826e+00 -5.2042036576e+00 3.0046483826e+00 5.2042036576e+00 
188800 5.4510947347e+00 -7.1346996399e-04 3.0046602868e+00 -5.2042242762e+00 3.0046602868e+00 5.2042242762e+00 
188900 5.4510947263e+00 -7.1158984101e-04 3.0046721595e+00 -5.2042448404e+00 3.0046721595e+00 5.2042448404e+00 
189000 5.4510947180e+00 -7.0971477370e-04 3.0046840009e+00 -5.2042653503e+00 3.0046840009e+00 5.2042653503e+00 
189100 5.4510947096e+00 -7.0784474796e-04 3.0046958111e+00 -5.2042858060e+00 3.0046958111e+00 5.2042858060e+00 
189200 5.4510947013e+00 -7.0597974969e-04 3.0047075900e+00 -5.2043062078e+00 3.0047075900e+00 5.2043062078e+00 
189300 5.4510946931e+00 -7.0411976487e-04 3.0047193379e+00 -5.2043265558e+00 3.0047193379e+00 5.2043265558e+00 
189400 5.4510946849e+00 -7.0226477949e-04 3.0047310548e+00 -5.2043468501e+00 3.0047310548e+00 5.2043468501e+00 
189500 5.4510946768e+00 -7.0041477961e-04 3.0047427408e+00 -5.2043670908e+00 3.0047427408e+00 5.2043670908e+00 
189600 5.4510946687e+00 -6.9856975132e-04 3.0047543960e+00 -5.2043872781e+00 3.0047543960e+00 5.2043872781e+00 
189700 5.4510946606e+00 -6.9672968074e-04 3.0047660204e+00 -5.2044074122e+00 3.0047660204e+00 5.2044074122e+00 
189800 5.4510946526e+00 -6.9489455405e-04 3.0047776142e+00 -5.2044274932e+00 3.0047776142e+00 5.2044274932e+00 
189900 5.4510946446e+00 -6.9306435745e-04 3.0047891773e+00 -5.2044475212e+00 3.0047891773e+00 5.2044475212e+00 
190000 5.4510946366e+00 -6.9123907721e-04 3.0048007100e+00 -5.2044674963e+00 3.0048007100e+00 5.2044674963e+00 
190100 5.4510946288e+00 -6.8941869962e-04 3.0048122122e+00 -5.2044874188e+00 3.0048122122e+00 5.2044874188e+00 
190200 5.4510946209e+00 -6.8760321101e-04 3.0048236842e+00 -5.2045072888e+00 3.0048236842e+00 5.2045072888e+00 
190300 5.4510946131e+00 -6.8579259776e-04 3.0048351258e+00 -5.2045271063e+00 3.0048351258e+00 5.2045271063e+00 
190400 5.4510946053e+00 -6.8398684628e-04 3.0048465373e+00 -5.2045468716e+00 3.0048465373e+00 5.2045468716e+00 
190500 5.4510945976e+00 -6.8218594304e-04 3.0048579187e+00 -5.2045665848e+00 3.0048579187e+00 5.2045665848e+00 
190600 5.4510945899e+00 -6.8038987453e-04 3.0048692701e+00 -5.2045862459e+00 3.0048692701e+00 5.2045862459e+00 
190700 5.4510945822e+00 -6.7859862729e-04 3.0048805916e+00 -5.2046058553e+00 3.0048805916e+00 5.2046058553e+00 
190800 5.4510945746e+00 -6.7681218790e-04 3.0048918832e+00 -5.2046254129e+00 3.0048918832e+00 5.2046254129e+00 
190900 5.4510945670e+00 -6.7503054296e-04 3.0049031450e+00 -5.2046449190e+00 3.0049031450e+00 5.2046449190e+00 
191000 5.4510945595e+00 -6.7325367915e-04 3.0049143772e+00 -5.2046643737e+00 3.0049143772e+00 5.2046643737e+00 
191100 5.4510945520e+00 -6.7148158316e-04 3.0049255797e+00 -5.2046837771e+00 3.0049255797e+00 5.2046837771e+00 
191200 5.4510945446e+00 -6.6971424171e-04 3.0049367528e+00 -5.2047031293e+00 3.0049367528e+00 5.2047031293e+00 
191300 5.4510945372e+00 -6.6795164159e-04 3.0049478963e+00 -5.2047224306e+00 3.0049478963e+00 5.2047224306e+00 
191400 5.4510945298e+00 -6.6619376962e-04 3.0049590105e+00 -5.2047416809e+00 3.0049590105e+00 5.2047416809e+00 
191500 5.4510945224e+00 -6.6444061264e-04 3.0049700955e+00 -5.2047608806e+00 3.0049700955e+00 5.2047608806e+00 
191600 5.4510945152e+00 -6.6269215755e-04 3.0049811512e+00 -5.2047800296e+00 3.0049811512e+00 5.2047800296e+00 
191700 5.4510945079e+00 -6.6094839128e-04 3.0049921777e+00 -5.2047991282e+00 3.0049921777e+00 5.2047991282e+00 
191800 5.4510945007e+00 -6.5920930080e-04 3.0050031752e+00 -5.2048181764e+00 3.0050031752e+00 5.2048181764e+00 
191900 5.4510944935e+00 -6.5747487311e-04 3.0050141438e+00 -5.2048371745e+00 3.0050141438e+00 5.2048371745e+00 
192000 5.4510944863e+00 -6.5574509528e-04 3.0050250834e+00 -5.2048561225e+00 3.0050250834e+00 5.2048561225e+00 
192100 5.4510944792e+00 -6.5401995437e-04 3.0050359942e+00 -5.2048750206e+00 3.0050359942e+00 5.2048750206e+00 
192200 5.4510944722e+00 -6.5229943752e-04 3.0050468763e+00 -5.2048938689e+00 3.0050468763e+00 5.2048938689e+00 
192300 5.4510944651e+00 -6.5058353188e-04 3.0050577297e+00 -5.2049126675e+00 3.0050577297e+00 5.2049126675e+00 
192400 5.4510944581e+00 -6.4887222466e-04 3.0050685545e+00 -5.2049314167e+00 3.0050685545e+00 5.2049314167e+00 
192500 5.4510944512e+00 -6.4716550309e-04 3.0050793508e+00 -5.2049501164e+00 3.0050793508e+00 5.2049501164e+00 
192600 5.4510944443e+00 -6.4546335445e-04 3.0050901187e+00 -5.2049687669e+00 3.0050901187e+00 5.2049687669e+00 
192700 5.4510944374e+00 -6.4376576605e-04 3.0051008582e+00 -5.2049873683e+00 3.0051008582e+00 5.2049873683e+00 
192800 5.4510944305e+00 -6.4207272524e-04 3.0051115694e+00 -5.2050059207e+00 3.0051115694e+00 5.2050059207e+00 
192900 5.4510944237e+00 -6.4038421941e-04 3.0051222524e+00 -5.2050244242e+00 3.0051222524e+00 5.2050244242e+00 
193000 5.4510944169e+00 -6.3870023598e-04 3.0051329073e+00 -5.2050428790e+00 3.0051329073e+00 5.2050428790e+00 
193100 5.4510944102e+00 -6.3702076242e-04 3.0051435342e+00 -5.2050612852e+00 3.0051435342e+00 5.2050612852e+00 
193200 5.4510944035e+00 -6.3534578622e-04 3.0051541330e+00 -5.2050796429e+00 3.0051541330e+00 5.2050796429e+00 
193300 5.4510943968e+00 -6.3367529491e-04 3.0051647039e+00 -5.2050979523e+00 3.0051647039e+00 5.2050979523e+00 
193400 5.4510943902e+00 -6.3200927608e-04 3.0051752471e+00 -5.2051162135e+00 3.0051752471e+00 5.2051162135e+00 
193500 5.4510943836e+00 -6.3034771732e-04 3.0051857624e+00 -5.2051344267e+00 3.0051857624e+00 5.2051344267e+00 
193600 5.4510943770e+00 -6.2869060630e-04 3.0051962501e+00 -5.2051525918e+00 3.0051962501e+00 5.2051525918e+00 
193700 5.4510943705e+00 -6.2703793067e-04 3.0052067101e+00 -5.2051707092e+00 3.0052067101e+00 5.2051707092e+00 
193800 5.4510943640e+00 -6.2538967817e-04 3.0052171427e+00 -5.2051887789e+00 3.0052171427e+00 5.2051887789e+00 
193900 5.4510943575e+00 -6.2374583655e-04 3.0052275477e+00 -5.2052068010e+00 3.0052275477e+00 5.2052068010e+00 
194000 5.4510943511e+00 -6.2210639360e-04 3.0052379254e+00 -5.2052247757e+00 3.0052379254e+00 5.2052247757e+00 
194100 5.4510943447e+00 -6.2047133713e-04 3.0052482758e+00 -5.2052427031e+00 3.0052482758e+00 5.2052427031e+00 
194200 5.4510943383e+00 -6.1884065503e-04 3.0052585989e+00 -5.2052605833e+00 3.0052585989e+00 5.2052605833e+00 
194300 5.4510943320e+00 -6.1721433518e-04 3.0052688949e+00 -5.2052784164e+00 3.0052688949e+00 5.2052784164e+00 
194400 5.4510943257e+00 -6.1559236551e-04 3.0052791638e+00 -5.2052962026e+00 3.0052791638e+00 5.2052962026e+00 
194500 5.4510943194e+00 -6.1397473400e-04 3.0052894056e+00 -5.2053139420e+00 3.0052894056e+00 5.2053139420e+00 
194600 5.4510943132e+00 -6.1236142864e-04 3.0052996206e+00 -5.2053316348e+00 3.0052996206e+00 5.2053316348e+00 
194700 5.4510943070e+00 -6.1075243748e-04 3.0053098086e+00 -5.2053492810e+00 3.0053098086e+00 5.2053492810e+00 
194800 5.4510943008e+00 -6.0914774859e-04 3.0053199698e+00 -5.2053668807e+00 3.0053199698e+00 5.2053668807e+00 
194900 5.4510942947e+00 -6.0754735008e-04 3.0053301043e+00 -5.2053844342e+00 3.0053301043e+00 5.2053844342e+00 
195000 5.4510942886e+00 -6.0595123010e-04 3.0053402121e+00 -5.2054019415e+00 3.0053402121e+00 5.2054019415e+00 
195100 5.4510942825e+00 -6.0435937681e-04 3.0053502934e+00 -5.2054194027e+00 3.0053502934e+00 5.2054194027e+00 
195200 5.4510942765e+00 -6.0277177844e-04 3.0053603481e+00 -5.2054368180e+00 3.0053603481e+00 5.2054368180e+00 
195300 5.4510942705e+00 -6.0118842323e-04 3.0053703764e+00 -5.2054541875e+00 3.0053703764e+00 5.2054541875e+00 
195400 5.4510942645e+00 -5.9960929947e-04 3.0053803783e+00 -5.2054715113e+00 3.0053803783e+00 5.2054715113e+00 
195500 5.4510942586e+00 -5.9803439546e-04 3.0053903539e+00 -5.2054887896e+00 3.0053903539e+00 5.2054887896e+00 
195600 5.4510942526e+00 -5.9646369957e-04 3.0054003033e+00 -5.2055060224e+00 3.0054003033e+00 5.2055060224e+00 
195700 5.4510942468e+00 -5.9489720017e-04 3.0054102265e+00 -5.2055232099e+00 3.0054102265e+00 5.2055232099e+00 
195800 5.4510942409e+00 -5.9333488569e-04 3.0054201236e+00 -5.2055403522e+00 3.0054201236e+00 5.2055403522e+00 
195900 5.4510942351e+00 -5.9177674458e-04 3.0054299947e+00 -5.2055574494e+00 3.0054299947e+00 5.2055574494e+00 
196000 5.4510942293e+00 -5.9022276532e-04 3.0054398398e+00 -5.2055745017e+00 3.0054398398e+00 5.2055745017e+00 
196100 5.4510942235e+00 -5.8867293643e-04 3.0054496591e+00 -5.2055915091e+00 3.0054496591e+00 5.2055915091e+00 
196200 5.4510942178e+00 -5.8712724647e-04 3.0054594525e+00 -5.2056084718e+00 3.0054594525e+00 5.2056084718e+00 
196300 5.4510942121e+00 -5.8558568402e-04 3.0054692202e+00 -5.2056253899e+00 3.0054692202e+00 5.2056253899e+00 
196400 5.4510942065e+00 -5.8404823771e-04 3.0054789622e+00 -5.2056422636e+00 3.0054789622e+00 5.2056422636e+00 
196500 5.4510942008e+00 -5.8251489619e-04 3.0054886786e+00 -5.2056590929e+00 3.0054886786e+00 5.2056590929e+00 
196600 5.4510941952e+00 -5.8098564814e-04 3.0054983694e+00 -5.2056758779e+00 3.0054983694e+00 5.2056758779e+00 
196700 5.4510941896e+00 -5.7946048228e-04 3.0055080348e+00 -5.2056926189e+00 3.0055080348e+00 5.2056926189e+00 
196800 5.4510941841e+00 -5.7793938737e-04 3.0055176748e+00 -5.2057093158e+00 3.0055176748e+00 5.2057093158e+00 
196900 5.4510941786e+00 -5.7642235219e-04 3.0055272894e+00 -5.2057259689e+00 3.0055272894e+00 5.2057259689e+00 
197000 5.4510941731e+00 -5.7490936556e-04 3.0055368788e+00 -5.2057425781e+00 3.0055368788e+00 5.2057425781e+00 
197100 5.4510941676e+00 -5.7340041633e-04 3.0055464430e+00 -5.2057591438e+00 3.0055464430e+00 5.2057591438e+00 
197200 5.4510941622e+00 -5.7189549338e-04 3.0055559820e+00 -5.2057756659e+00 3.0055559820e+00 5.2057756659e+00 
197300 5.4510941568e+00 -5.7039458564e-04 3.0055654960e+00 -5.2057921446e+00 3.0055654960e+00 5.2057921446e+00 
197400 5.4510941514e+00 -5.6889768204e-04 3.0055749850e+00 -5.2058085800e+00 3.0055749850e+00 5.2058085800e+00 
197500 5.4510941460e+00 -5.6740477156e-04 3.0055844490e+00 -5.2058249722e+00 3.0055844490e+00 5.2058249722e+00 
197600 5.4510941407e+00 -5.6591584322e-04 3.0055938882e+00 -5.2058413213e+00 3.0055938882e+00 5.2058413213e+00 
197700 5.4510941354e+00 -5.6443088607e-04 3.0056033026e+00 -5.2058576275e+00 3.0056033026e+00 5.2058576275e+00 
197800 5.4510941301e+00 -5.6294988917e-04 3.0056126923e+00 -5.2058738909e+00 3.0056126923e+00 5.2058738909e+00 
197900 5.4510941249e+00 -5.6147284164e-04 3.0056220572e+00 -5.2058901115e+00 3.0056220572e+00 5.2058901115e+00 
198000 5.4510941197e+00 -5.5999973261e-04 3.0056313976e+00 -5.2059062895e+00 3.0056313976e+00 5.2059062895e+00 
198100 5.4510941145e+00 -5.5853055126e-04 3.0056407135e+00 -5.2059224250e+00 3.0056407135e+00 5.2059224250e+00 
198200 5.4510941094e+00 -5.5706528679e-04 3.0056500048e+00 -5.2059385182e+00 3.0056500048e+00 5.2059385182e+00 
198300 5.4510941042e+00 -5.5560392842e-04 3.0056592718e+00 -5.2059545690e+00 3.0056592718e+00 5.2059545690e+00 
198400 5.4510940991e+00 -5.5414646544e-04 3.0056685145e+00 -5.2059705777e+00 3.0056685145e+00 5.2059705777e+00 
198500 5.4510940940e+00 -5.5269288712e-04 3.0056777328e+00 -5.2059865444e+00 3.0056777328e+00 5.2059865444e+00 
198600 5.4510940890e+00 -5.5124318281e-04 3.0056869270e+00 -5.2060024691e+00 3.0056869270e+00 5.2060024691e+00 
198700 5.4510940840e+00 -5.4979734185e-04 3.0056960970e+00 -5.2060183521e+00 3.0056960970e+00 5.2060183521e+00 
198800 5.4510940790e+00 -5.4835535364e-04 3.0057052429e+00 -5.2060341933e+00 3.0057052429e+00 5.2060341933e+00 
198900 5.4510940740e+00 -5.4691720760e-04 3.0057143648e+00 -5.2060499929e+00 3.0057143648e+00 5.2060499929e+00 
199000 5.4510940691e+00 -5.4548289317e-04 3.0057234628e+00 -5.2060657510e+00 3.0057234628e+00 5.2060657510e+00 
199100 5.4510940641e+00 -5.4405239984e-04 3.0057325368e+00 -5.2060814678e+00 3.0057325368e+00 5.2060814678e+00 
199200 5.4510940593e+00 -5.4262571712e-04 3.0057415871e+00 -5.2060971433e+00 3.0057415871e+00 5.2060971433e+00 
199300 5.4510940544e+00 -5.4120283455e-04 3.0057506136e+00 -5.2061127776e+00 3.0057506136e+00 5.2061127776e+00 
199400 5.4510940495e+00 -5.3978374170e-04 3.0057596164e+00 -5.2061283709e+00 3.0057596164e+00 5.2061283709e+00 
199500 5.4510940447e+00 -5.3836842818e-04 3.0057685955e+00 -5.2061439233e+00 3.0057685955e+00 5.2061439233e+00 
199600 5.4510940399e+00 -5.3695688362e-04 3.0057775511e+00 -5.2061594348e+00 3.0057775511e+00 5.2061594348e+00 
199700 5.4510940352e+00 -5.3554909768e-04 3.0057864832e+00 -5.2061749056e+00 3.0057864832e+00 5.2061749056e+00 
199800 5.4510940304e+00 -5.3414506005e-04 3.0057953919e+00 -5.2061903359e+00 3.0057953919e+00 5.2061903359e+00 
199900 5.4510940257e+00 -5.3274476045e-04 3.0058042771e+00 -5.2062057256e+00 3.0058042771e+00 5.2062057256e+00 
200000 5.4510940210e+00 -5.3134818864e-04 3.0058131391e+00 -5.2062210749e+00 3.0058131391e+00 5.2062210749e+00 
200100 5.4510940164e+00 -5.2995533440e-04 3.0058219777e+00 -5.2062363839e+00 3.0058219777e+00 5.2062363839e+00 
200200 5.4510940117e+00 -5.2856618754e-04 3.0058307932e+00 -5.2062516528e+00 3.0058307932e+00 5.2062516528e+00 
200300 5.4510940071e+00 -5.2718073790e-04 3.0058395856e+00 -5.2062668816e+00 3.0058395856e+00 5.2062668816e+00 
200400 5.4510940025e+00 -5.2579897534e-04 3.0058483549e+00 -5.2062820705e+00 3.0058483549e+00 5.2062820705e+00 
200500 5.4510939979e+00 -5.2442088978e-04 3.0058571011e+00 -5.2062972194e+00 3.0058571011e+00 5.2062972194e+00 
200600 5.4510939934e+00 -5.2304647113e-04 3.0058658244e+00 -5.2063123287e+00 3.0058658244e+00 5.2063123287e+00 
200700 5.4510939889e+00 -5.2167570936e-04 3.0058745249e+00 -5.2063273983e+00 3.0058745249e+00 5.2063273983e+00 
200800 5.4510939844e+00 -5.2030859444e-04 3.0058832025e+00 -5.2063424283e+00 3.0058832025e+00 5.2063424283e+00 
200900 5.4510939799e+00 -5.1894511641e-04 3.0058918573e+00 -5.2063574190e+00 3.0058918573e+00 5.2063574190e+00 
201000 5.4510939754e+00 -5.1758526529e-04 3.0059004895e+00 -5.2063723702e+00 3.0059004895e+00 5.2063723702e+00 
201100 5.4510939710e+00 -5.1622903116e-04 3.0059090990e+00 -5.2063872823e+00 3.0059090990e+00 5.2063872823e+00 
201200 5.4510939666e+00 -5.1487640413e-04 3.0059176859e+00 -5.2064021553e+00 3.0059176859e+00 5.2064021553e+00 
201300 5.4510939622e+00 -5.1352737432e-04 3.0059262502e+00 -5.2064169892e+00 3.0059262502e+00 5.2064169892e+00 
201400 5.4510939579e+00 -5.1218193189e-04 3.0059347922e+00 -5.2064317843e+00 3.0059347922e+00 5.2064317843e+00 
201500 5.4510939535e+00 -5.1084006703e-04 3.0059433117e+00 -5.2064465405e+00 3.0059433117e+00 5.2064465405e+00 
201600 5.4510939492e+00 -5.0950176995e-04 3.0059518089e+00 -5.2064612580e+00 3.0059518089e+00 5.2064612580e+00 
201700 5.4510939449e+00 -5.0816703089e-04 3.0059602837e+00 -5.2064759370e+00 3.0059602837e+00 5.2064759370e+00 
201800 5.4510939406e+00 -5.0683584014e-04 3.0059687364e+00 -5.2064905774e+00 3.0059687364e+00 5.2064905774e+00 
201900 5.4510939364e+00 -5.0550818798e-04 3.0059771669e+00 -5.2065051795e+00 3.0059771669e+00 5.2065051795e+00 
202000 5.4510939322e+00 -5.0418406474e-04 3.0059855753e+00 -5.2065197432e+00 3.0059855753e+00 5.2065197432e+00 
202100 5.4510939280e+00 -5.0286346078e-04 3.0059939616e+00 -5.2065342688e+00 3.0059939616e+00 5.2065342688e+00 
202200 5.4510939238e+00 -5.0154636648e-04 3.0060023260e+00 -5.2065487563e+00 3.0060023260e+00 5.2065487563e+00 
202300 5.4510939196e+00 -5.0023277225e-04 3.0060106684e+00 -5.2065632057e+00 3.0060106684e+00 5.2065632057e+00 
202400 5.4510939155e+00 -4.9892266853e-04 3.0060189889e+00 -5.2065776174e+00 3.0060189889e+00 5.2065776174e+00 
202500 5.4510939114e+00 -4.9761604578e-04 3.0060272877e+00 -5.2065919912e+00 3.0060272877e+00 5.2065919912e+00 
202600 5.4510939073e+00 -4.9631289450e-04 3.0060355646e+00 -5.2066063273e+00 3.0060355646e+00 5.2066063273e+00 
202700 5.4510939032e+00 -4.9501320521e-04 3.0060438199e+00 -5.2066206259e+00 3.0060438199e+00 5.2066206259e+00 
202800 5.4510938992e+00 -4.9371696844e-04 3.0060520536e+00 -5.2066348870e+00 3.0060520536e+00 5.2066348870e+00 
202900 5.4510938951e+00 -4.9242417479e-04 3.0060602656e+00 -5.2066491107e+00 3.0060602656e+00 5.2066491107e+00 
203000 5.4510938911e+00 -4.9113481484e-04 3.0060684561e+00 -5.2066632971e+00 3.0060684561e+00 5.2066632971e+00 
203100 5.4510938871e+00 -4.8984887923e-04 3.0060766252e+00 -5.2066774463e+00 3.0060766252e+00 5.2066774463e+00 
203200 5.4510938832e+00 -4.8856635861e-04 3.0060847728e+00 -5.2066915584e+00 3.0060847728e+00 5.2066915584e+00 
203300 5.4510938792e+00 -4.8728724367e-04 3.0060928991e+00 -5.2067056336e+00 3.0060928991e+00 5.2067056336e+00 
203400 5.4510938753e+00 -4.8601152510e-04 3.0061010041e+00 -5.2067196719e+00 3.0061010041e+00 5.2067196719e+00 
203500 5.4510938714e+00 -4.8473919366e-04 3.0061090879e+00 -5.2067336733e+00 3.0061090879e+00 5.2067336733e+00 
203600 5.4510938675e+00 -4.8347024009e-04 3.0061171505e+00 -5.2067476381e+00 3.0061171505e+00 5.2067476381e+00 
203700 5.4510938637e+00 -4.8220465519e-04 3.0061251919e+00 -5.2067615663e+00 3.0061251919e+00 5.2067615663e+00 
203800 5.4510938598e+00 -4.8094242978e-04 3.0061332123e+00 -5.2067754580e+00 3.0061332123e+00 5.2067754580e+00 
203900 5.4510938560e+00 -4.7968355469e-04 3.0061412116e+00 -5.2067893133e+00 3.0061412116e+00 5.2067893133e+00 
204000 5.4510938522e+00 -4.7842802079e-04 3.0061491900e+00 -5.2068031323e+00 3.0061491900e+00 5.2068031323e+00 
204100 5.4510938484e+00 -4.7717581897e-04 3.0061571475e+00 -5.2068169151e+00 3.0061571475e+00 5.2068169151e+00 
204200 5.4510938446e+00 -4.7592694015e-04 3.0061650842e+00 -5.2068306617e+00 3.0061650842e+00 5.2068306617e+00 
204300 5.4510938409e+00 -4.7468137529e-04 3.0061730000e+00 -5.2068443724e+00 3.0061730000e+00 5.2068443724e+00 
204400 5.4510938372e+00 -4.7343911534e-04 3.0061808951e+00 -5.2068580471e+00 3.0061808951e+00 5.2068580471e+00 
204500 5.4510938335e+00 -4.7220015131e-04 3.0061887696e+00 -5.2068716860e+00 3.0061887696e+00 5.2068716860e+00 
204600 5.4510938298e+00 -4.7096447422e-04 3.0061966234e+00 -5.2068852892e+00 3.0061966234e+00 5.2068852892e+00 
204700 5.4510938261e+00 -4.6973207511e-04 3.0062044566e+00 -5.2068988568e+00 3.0062044566e+00 5.2068988568e+00 
204800 5.4510938225e+00 -4.6850294507e-04 3.0062122693e+00 -5.2069123888e+00 3.0062122693e+00 5.2069123888e+00 
204900 5.4510938188e+00 -4.6727707519e-04 3.0062200616e+00 -5.2069258854e+00 3.0062200616e+00 5.2069258854e+00 
205000 5.4510938152e+00 -4.6605445660e-04 3.0062278334e+00 -5.2069393466e+00 3.0062278334e+00 5.2069393466e+00 
205100 5.4510938116e+00 -4.6483508044e-04 3.0062355849e+00 -5.2069527726e+00 3.0062355849e+00 5.2069527726e+00 
205200 5.4510938081e+00 -4.6361893790e-04 3.0062433161e+00 -5.2069661634e+00 3.0062433161e+00 5.2069661634e+00 
205300 5.4510938045e+00 -4.6240602016e-04 3.0062510270e+00 -5.2069795191e+00 3.0062510270e+00 5.2069795191e+00 
205400 5.4510938010e+00 -4.6119631847e-04 3.0062587178e+00 -5.2069928399e+00 3.0062587178e+00 5.2069928399e+00 
205500 5.4510937974e+00 -4.5998982406e-04 3.0062663884e+00 -5.2070061257e+00 3.0062663884e+00 5.2070061257e+00 
205600 5.4510937940e+00 -4.5878652822e-04 3.0062740389e+00 -5.2070193768e+00 3.0062740389e+00 5.2070193768e+00 
205700 5.4510937905e+00 -4.5758642225e-04 3.0062816694e+00 -5.2070325932e+00 3.0062816694e+00 5.2070325932e+00 
205800 5.4510937870e+00 -4.5638949746e-04 3.0062892799e+00 -5.2070457750e+00 3.0062892799e+00 5.2070457750e+00 
205900 5.4510937836e+00 -4.5519574522e-04 3.0062968705e+00 -5.2070589223e+00 3.0062968705e+00 5.2070589223e+00 
206000 5.4510937801e+00 -4.5400515689e-04 3.0063044412e+00 -5.2070720351e+00 3.0063044412e+00 5.2070720351e+00 
206100 5.4510937767e+00 -4.5281772388e-04 3.0063119921e+00 -5.2070851137e+00 3.0063119921e+00 5.2070851137e+00 
206200 5.4510937733e+00 -4.5163343761e-04 3.0063195232e+00 -5.2070981579e+00 3.0063195232e+00 5.2070981579e+00 
206300 5.4510937700e+00 -4.5045228952e-04 3.0063270346e+00 -5.2071111681e+00 3.0063270346e+00 5.2071111681e+00 
206400 5.4510937666e+00 -4.4927427109e-04 3.0063345263e+00 -5.2071241442e+00 3.0063345263e+00 5.2071241442e+00 
206500 5.4510937633e+00 -4.4809937382e-04 3.0063419985e+00 -5.2071370863e+00 3.0063419985e+00 5.2071370863e+00 
206600 5.4510937600e+00 -4.4692758923e-04 3.0063494510e+00 -5.2071499945e+00 3.0063494510e+00 5.2071499945e+00 
206700 5.4510937567e+00 -4.4575890886e-04 3.0063568841e+00 -5.2071628689e+00 3.0063568841e+00 5.2071628689e+00 
206800 5.4510937534e+00 -4.4459332428e-04 3.0063642977e+00 -5.2071757097e+00 3.0063642977e+00 5.2071757097e+00 
206900 5.4510937501e+00 -4.4343082709e-04 3.0063716919e+00 -5.2071885168e+00 3.0063716919e+00 5.2071885168e+00 
207000 5.4510937469e+00 -4.4227140890e-04 3.0063790668e+00 -5.2072012904e+00 3.0063790668e+00 5.2072012904e+00 
207100 5.4510937436e+00 -4.4111506135e-04 3.0063864223e+00 -5.2072140306e+00 3.0063864223e+00 5.2072140306e+00 
207200 5.4510937404e+00 -4.3996177611e-04 3.0063937586e+00 -5.2072267375e+00 3.0063937586e+00 5.2072267375e+00 
207300 5.4510937372e+00 -4.3881154487e-04 3.0064010757e+00 -5.2072394111e+00 3.0064010757e+00 5.2072394111e+00 
207400 5.4510937340e+00 -4.3766435933e-04 3.0064083737e+00 -5.2072520515e+00 3.0064083737e+00 5.2072520515e+00 
207500 5.4510937309e+00 -4.3652021124e-04 3.0064156525e+00 -5.2072646589e+00 3.0064156525e+00 5.2072646589e+00 
207600 5.4510937277e+00 -4.3537909235e-04 3.0064229124e+00 -5.2072772332e+00 3.0064229124e+00 5.2072772332e+00 
207700 5.4510937246e+00 -4.3424099444e-04 3.0064301532e+00 -5.2072897747e+00 3.0064301532e+00 5.2072897747e+00 
207800 5.4510937215e+00 -4.3310590933e-04 3.0064373750e+00 -5.2073022834e+00 3.0064373750e+00 5.2073022834e+00 
207900 5.4510937184e+00 -4.3197382883e-04 3.0064445780e+00 -5.2073147593e+00 3.0064445780e+00 5.2073147593e+00 
208000 5.4510937153e+00 -4.3084474480e-04 3.0064517622e+00 -5.2073272026e+00 3.0064517622e+00 5.2073272026e+00 
208100 5.4510937122e+00 -4.2971864912e-04 3.0064589275e+00 -5.2073396133e+00 3.0064589275e+00 5.2073396133e+00 
208200 5.4510937091e+00 -4.2859553368e-04 3.0064660741e+00 -5.2073519916e+00 3.0064660741e+00 5.2073519916e+00 
208300 5.4510937061e+00 -4.2747539041e-04 3.0064732020e+00 -5.2073643374e+00 3.0064732020e+00 5.2073643374e+00 
208400 5.4510937031e+00 -4.2635821124e-04 3.0064803112e+00 -5.2073766510e+00 3.0064803112e+00 5.2073766510e+00 
208500 5.4510937001e+00 -4.2524398816e-04 3.0064874019e+00 -5.2073889324e+00 3.0064874019e+00 5.2073889324e+00 
208600 5.4510936971e+00 -4.2413271313e-04 3.0064944740e+00 -5.2074011817e+00 3.0064944740e+00 5.2074011817e+00 
208700 5.4510936941e+00 -4.2302437819e-04 3.0065015276e+00 -5.2074133989e+00 3.0065015276e+00 5.2074133989e+00 
208800 5.4510936912e+00 -4.2191897536e-04 3.0065085628e+00 -5.2074255841e+00 3.0065085628e+00 5.2074255841e+00 
208900 5.4510936882e+00 -4.2081649669e-04 3.0065155795e+00 -5.2074377375e+00 3.0065155795e+00 5.2074377375e+00 
209000 5.4510936853e+00 -4.1971693428e-04 3.0065225780e+00 -5.2074498591e+00 3.0065225780e+00 5.2074498591e+00 
209100 5.4510936824e+00 -4.1862028022e-04 3.0065295581e+00 -5.2074619490e+00 3.0065295581e+00 5.2074619490e+00 
209200 5.4510936795e+00 -4.1752652663e-04 3.0065365199e+00 -5.2074740073e+00 3.0065365199e+00 5.2074740073e+00 
209300 5.4510936766e+00 -4.1643566567e-04 3.0065434636e+00 -5.2074860341e+00 3.0065434636e+00 5.2074860341e+00 
209400 5.4510936737e+00 -4.1534768950e-04 3.0065503891e+00 -5.2074980294e+00 3.0065503891e+00 5.2074980294e+00 
209500 5.4510936709e+00 -4.1426259032e-04 3.0065572964e+00 -5.2075099933e+00 3.0065572964e+00 5.2075099933e+00 
209600 5.4510936680e+00 -4.1318036033e-04 3.0065641858e+00 -5.2075219260e+00 3.0065641858e+00 5.2075219260e+00 
209700 5.4510936652e+00 -4.1210099177e-04 3.0065710571e+00 -5.2075338274e+00 3.0065710571e+00 5.2075338274e+00 
209800 5.4510936624e+00 -4.1102447691e-04 3.0065779104e+00 -5.2075456978e+00 3.0065779104e+00 5.2075456978e+00 
209900 5.4510936596e+00 -4.0995080801e-04 3.0065847458e+00 -5.2075575371e+00 3.0065847458e+00 5.2075575371e+00 
210000 5.4510936568e+00 -4.0887997738e-04 3.0065915634e+00 -5.2075693454e+00 3.0065915634e+00 5.2075693454e+00 
210100 5.4510936541e+00 -4.0781197734e-04 3.0065983631e+00 -5.2075811229e+00 3.0065983631e+00 5.2075811229e+00 
210200 5.4510936513e+00 -4.0674680023e-04 3.0066051451e+00 -5.2075928696e+00 3.0066051451e+00 5.2075928696e+00 
210300 5.4510936486e+00 -4.0568443843e-04 3.0066119093e+00 -5.2076045855e+00 3.0066119093e+00 5.2076045855e+00 
210400 5.4510936459e+00 -4.0462488432e-04 3.0066186558e+00 -5.2076162709e+00 3.0066186558e+00 5.2076162709e+00 
210500 5.4510936432e+00 -4.0356813031e-04 3.0066253847e+00 -5.2076279257e+00 3.0066253847e+00 5.2076279257e+00 
210600 5.4510936405e+00 -4.0251416883e-04 3.0066320961e+00 -5.2076395500e+00 3.0066320961e+00 5.2076395500e+00 
210700 5.4510936378e+00 -4.0146299232e-04 3.0066387898e+00 -5.2076511440e+00 3.0066387898e+00 5.2076511440e+00 
210800 5.4510936351e+00 -4.0041459327e-04 3.0066454661e+00 -5.2076627076e+00 3.0066454661e+00 5.2076627076e+00 
210900 5.4510936325e+00 -3.9936896417e-04 3.0066521249e+00 -5.2076742411e+00 3.0066521249e+00 5.2076742411e+00 
211000 5.4510936298e+00 -3.9832609753e-04 3.0066587664e+00 -5.2076857444e+00 3.0066587664e+00 5.2076857444e+00 
211100 5.4510936272e+00 -3.9728598588e-04 3.0066653904e+00 -5.2076972176e+00 3.0066653904e+00 5.2076972176e+00 
211200 5.4510936246e+00 -3.9624862180e-04 3.0066719972e+00 -5.2077086608e+00 3.0066719972e+00 5.2077086608e+00 
211300 5.4510936220e+00 -3.9521399784e-04 3.0066785867e+00 -5.2077200742e+00 3.0066785867e+00 5.2077200742e+00 
211400 5.4510936194e+00 -3.9418210662e-04 3.0066851589e+00 -5.2077314577e+00 3.0066851589e+00 5.2077314577e+00 
211500 5.4510936169e+00 -3.9315294076e-04 3.0066917140e+00 -5.2077428114e+00 3.0066917140e+00 5.2077428114e+00 
211600 5.4510936143e+00 -3.9212649289e-04 3.0066982520e+00 -5.2077541355e+00 3.0066982520e+00 5.2077541355e+00 
211700 5.4510936118e+00 -3.9110275567e-04 3.0067047729e+00 -5.2077654300e+00 3.0067047729e+00 5.2077654300e+00 
211800 5.4510936092e+00 -3.9008172179e-04 3.0067112767e+00 -5.2077766950e+00 3.0067112767e+00 5.2077766950e+00 
211900 5.4510936067e+00 -3.8906338396e-04 3.0067177636e+00 -5.2077879306e+00 3.0067177636e+00 5.2077879306e+00 
212000 5.4510936042e+00 -3.8804773488e-04 3.0067242335e+00 -5.2077991368e+00 3.0067242335e+00 5.2077991368e+00 
212100 5.4510936017e+00 -3.8703476732e-04 3.0067306865e+00 -5.2078103137e+00 3.0067306865e+00 5.2078103137e+00 
212200 5.4510935993e+00 -3.8602447402e-04 3.0067371226e+00 -5.2078214614e+00 3.0067371226e+00 5.2078214614e+00 
212300 5.4510935968e+00 -3.8501684779e-04 3.0067435420e+00 -5.2078325800e+00 3.0067435420e+00 5.2078325800e+00 
212400 5.4510935943e+00 -3.8401188141e-04 3.0067499445e+00 -5.2078436696e+00 3.0067499445e+00 5.2078436696e+00 
212500 5.4510935919e+00 -3.8300956772e-04 3.0067563304e+00 -5.2078547302e+00 3.0067563304e+00 5.2078547302e+00 
212600 5.4510935895e+00 -3.8200989956e-04 3.0067626995e+00 -5.2078657619e+00 3.0067626995e+00 5.2078657619e+00 
212700 5.4510935871e+00 -3.8101286979e-04 3.0067690520e+00 -5.2078767647e+00 3.0067690520e+00 5.2078767647e+00 
212800 5.4510935847e+00 -3.8001847131e-04 3.0067753879e+00 -5.2078877389e+00 3.0067753879e+00 5.2078877389e+00 
212900 5.4510935823e+00 -3.7902669701e-04 3.0067817073e+00 -5.2078986843e+00 3.0067817073e+00 5.2078986843e+00 
213000 5.4510935799e+00 -3.7803753983e-04 3.0067880102e+00 -5.2079096012e+00 3.0067880102e+00 5.2079096012e+00 
213100 5.4510935775e+00 -3.7705099270e-04 3.0067942966e+00 -5.2079204896e+00 3.0067942966e+00 5.2079204896e+00 
213200 5.4510935752e+00 -3.7606704859e-04 3.0068005666e+00 -5.2079313495e+00 3.0068005666e+00 5.2079313495e+00 
213300 5.4510935728e+00 -3.7508570048e-04 3.0068068202e+00 -5.2079421811e+00 3.0068068202e+00 5.2079421811e+00 
213400 5.4510935705e+00 -3.7410694139e-04 3.0068130575e+00 -5.2079529844e+00 3.0068130575e+00 5.2079529844e+00 
213500 5.4510935682e+00 -3.7313076433e-04 3.0068192785e+00 -5.2079637595e+00 3.0068192785e+00 5.2079637595e+00 
213600 5.4510935659e+00 -3.7215716234e-04 3.0068254832e+00 -5.2079745064e+00 3.0068254832e+00 5.2079745064e+00 
213700 5.4510935636e+00 -3.7118612850e-04 3.0068316717e+00 -5.2079852253e+00 3.0068316717e+00 5.2079852253e+00 
213800 5.4510935613e+00 -3.7021765587e-04 3.0068378441e+00 -5.2079959161e+00 3.0068378441e+00 5.2079959161e+00 
213900 5.4510935591e+00 -3.6925173757e-04 3.0068440004e+00 -5.2080065791e+00 3.0068440004e+00 5.2080065791e+00 
214000 5.4510935568e+00 -3.6828836671e-04 3.0068501406e+00 -5.2080172142e+00 3.0068501406e+00 5.2080172142e+00 
214100 5.4510935546e+00 -3.6732753644e-04 3.0068562647e+00 -5.2080278216e+00 3.0068562647e+00 5.2080278216e+00 
214200 5.4510935523e+00 -3.6636923990e-04 3.0068623729e+00 -5.2080384012e+00 3.0068623729e+00 5.2080384012e+00 
214300 5.4510935501e+00 -3.6541347029e-04 3.0068684651e+00 -5.2080489533e+00 3.0068684651e+00 5.2080489533e+00 
214400 5.4510935479e+00 -3.6446022080e-04 3.0068745414e+00 -5.2080594778e+00 3.0068745414e+00 5.2080594778e+00 
214500 5.4510935457e+00 -3.6350948465e-04 3.0068806019e+00 -5.2080699748e+00 3.0068806019e+00 5.2080699748e+00 
214600 5.4510935435e+00 -3.6256125506e-04 3.0068866465e+00 -5.2080804444e+00 3.0068866465e+00 5.2080804444e+00 
214700 5.4510935414e+00 -3.6161552530e-04 3.0068926754e+00 -5.2080908866e+00 3.0068926754e+00 5.2080908866e+00 
214800 5.4510935392e+00 -3.6067228864e-04 3.0068986885e+00 -5.2081013017e+00 3.0068986885e+00 5.2081013017e+00 
214900 5.4510935371e+00 -3.5973153837e-04 3.0069046859e+00 -5.2081116895e+00 3.0069046859e+00 5.2081116895e+00 
215000 5.4510935349e+00 -3.5879326780e-04 3.0069106677e+00 -5.2081220502e+00 3.0069106677e+00 5.2081220502e+00 
215100 5.4510935328e+00 -3.5785747027e-04 3.0069166338e+00 -5.2081323839e+00 3.0069166338e+00 5.2081323839e+00 
215200 5.4510935307e+00 -3.5692413911e-04 3.0069225844e+00 -5.2081426906e+00 3.0069225844e+00 5.2081426906e+00 
215300 5.4510935286e+00 -3.5599326770e-04 3.0069285194e+00 -5.2081529704e+00 3.0069285194e+00 5.2081529704e+00 
215400 5.4510935265e+00 -3.5506484942e-04 3.0069344390e+00 -5.2081632233e+00 3.0069344390e+00 5.2081632233e+00 
215500 5.4510935244e+00 -3.5413887768e-04 3.0069403431e+00 -5.2081734495e+00 3.0069403431e+00 5.2081734495e+00 
215600 5.4510935223e+00 -3.5321534590e-04 3.0069462318e+00 -5.2081836490e+00 3.0069462318e+00 5.2081836490e+00 
215700 5.4510935202e+00 -3.5229424751e-04 3.0069521051e+00 -5.2081938219e+00 3.0069521051e+00 5.2081938219e+00 
215800 5.4510935182e+00 -3.5137557599e-04 3.0069579631e+00 -5.2082039683e+00 3.0069579631e+00 5.2082039683e+00 
215900 5.4510935162e+00 -3.5045932479e-04 3.0069638058e+00 -5.2082140882e+00 3.0069638058e+00 5.2082140882e+00 
216000 5.4510935141e+00 -3.4954548743e-04 3.0069696333e+00 -5.2082241816e+00 3.0069696333e+00 5.2082241816e+00 
216100 5.4510935121e+00 -3.4863405741e-04 3.0069754455e+00 -5.2082342487e+00 3.0069754455e+00 5.2082342487e+00 
216200 5.4510935101e+00 -3.4772502826e-04 3.0069812426e+00 -5.2082442896e+00 3.0069812426e+00 5.2082442896e+00 
216300 5.4510935081e+00 -3.4681839354e-04 3.0069870246e+00 -5.2082543043e+00 3.0069870246e+00 5.2082543043e+00 
216400 5.4510935061e+00 -3.4591414681e-04 3.0069927914e+00 -5.2082642928e+00 3.0069927914e+00 5.2082642928e+00 
216500 5.4510935041e+00 -3.4501228166e-04 3.0069985433e+00 -5.2082742552e+00 3.0069985433e+00 5.2082742552e+00 
216600 5.4510935022e+00 -3.4411279169e-04 3.0070042801e+00 -5.2082841917e+00 3.0070042801e+00 5.2082841917e+00 
216700 5.4510935002e+00 -3.4321567052e-04 3.0070100020e+00 -5.2082941023e+00 3.0070100020e+00 5.2082941023e+00 
216800 5.4510934983e+00 -3.4232091180e-04 3.0070157089e+00 -5.2083039869e+00 3.0070157089e+00 5.2083039869e+00 
216900 5.4510934963e+00 -3.4142850917e-04 3.0070214009e+00 -5.2083138458e+00 3.0070214009e+00 5.2083138458e+00 
217000 5.4510934944e+00 -3.4053845631e-04 3.0070270781e+00 -5.2083236790e+00 3.0070270781e+00 5.2083236790e+00 
217100 5.4510934925e+00 -3.3965074692e-04 3.0070327405e+00 -5.2083334866e+00 3.0070327405e+00 5.2083334866e+00 
217200 5.4510934906e+00 -3.3876537469e-04 3.0070383881e+00 -5.2083432685e+00 3.0070383881e+00 5.2083432685e+00 
217300 5.4510934887e+00 -3.3788233338e-04 3.0070440210e+00 -5.2083530249e+00 3.0070440210e+00 5.2083530249e+00 
217400 5.4510934868e+00 -3.3700161670e-04 3.0070496392e+00 -5.2083627559e+00 3.0070496392e+00 5.2083627559e+00 
217500 5.4510934849e+00 -3.3612321843e-04 3.0070552427e+00 -5.2083724615e+00 3.0070552427e+00 5.2083724615e+00 
217600 5.4510934830e+00 -3.3524713235e-04 3.0070608316e+00 -5.2083821418e+00 3.0070608316e+00 5.2083821418e+00 
217700 5.4510934812e+00 -3.3437335225e-04 3.0070664059e+00 -5.2083917968e+00 3.0070664059e+00 5.2083917968e+00 
217800 5.4510934793e+00 -3.3350187195e-04 3.0070719657e+00 -5.2084014267e+00 3.0070719657e+00 5.2084014267e+00 
217900 5.4510934775e+00 -3.3263268528e-04 3.0070775110e+00 -5.2084110314e+00 3.0070775110e+00 5.2084110314e+00 
218000 5.4510934757e+00 -3.3176578608e-04 3.0070830419e+00 -5.2084206111e+00 3.0070830419e+00 5.2084206111e+00 
218100 5.4510934738e+00 -3.3090116822e-04 3.0070885583e+00 -5.2084301658e+00 3.0070885583e+00 5.2084301658e+00 
218200 5.4510934720e+00 -3.3003882558e-04 3.0070940603e+00 -5.2084396955e+00 3.0070940603e+00 5.2084396955e+00 
218300 5.4510934702e+00 -3.2917875207e-04 3.0070995480e+00 -5.2084492005e+00 3.0070995480e+00 5.2084492005e+00 
218400 5.4510934684e+00 -3.2832094159e-04 3.0071050213e+00 -5.2084586806e+00 3.0071050213e+00 5.2084586806e+00 
218500 5.4510934667e+00 -3.2746538809e-04 3.0071104804e+00 -5.2084681360e+00 3.0071104804e+00 5.2084681360e+00 
218600 5.4510934649e+00 -3.2661208550e-04 3.0071159253e+00 -5.2084775668e+00 3.0071159253e+00 5.2084775668e+00 
218700 5.4510934631e+00 -3.2576102781e-04 3.0071213559e+00 -5.2084869730e+00 3.0071213559e+00 5.2084869730e+00 
218800 5.4510934614e+00 -3.2491220899e-04 3.0071267724e+00 -5.2084963546e+00 3.0071267724e+00 5.2084963546e+00 
218900 5.4510934596e+00 -3.2406562304e-04 3.0071321748e+00 -5.2085057118e+00 3.0071321748e+00 5.2085057118e+00 
219000 5.4510934579e+00 -3.2322126397e-04 3.0071375631e+00 -5.2085150446e+00 3.0071375631e+00 5.2085150446e+00 
219100 5.4510934562e+00 -3.2237912583e-04 3.0071429373e+00 -5.2085243530e+00 3.0071429373e+00 5.2085243530e+00 
219200 5.4510934544e+00 -3.2153920266e-04 3.0071482975e+00 -5.2085336372e+00 3.0071482975e+00 5.2085336372e+00 
219300 5.4510934527e+00 -3.2070148853e-04 3.0071536438e+00 -5.2085428972e+00 3.0071536438e+00 5.2085428972e+00 
219400 5.4510934510e+00 -3.1986597753e-04 3.0071589761e+00 -5.2085521330e+00 3.0071589761e+00 5.2085521330e+00 
219500 5.4510934493e+00 -3.1903266374e-04 3.0071642945e+00 -5.2085613448e+00 3.0071642945e+00 5.2085613448e+00 
219600 5.4510934476e+00 -3.1820154129e-04 3.0071695990e+00 -5.2085705325e+00 3.0071695990e+00 5.2085705325e+00 
219700 5.4510934460e+00 -3.1737260430e-04 3.0071748898e+00 -5.2085796963e+00 3.0071748898e+00 5.2085796963e+00 
219800 5.4510934443e+00 -3.1654584694e-04 3.0071801667e+00 -5.2085888362e+00 3.0071801667e+00 5.2085888362e+00 
219900 5.4510934427e+00 -3.1572126335e-04 3.0071854298e+00 -5.2085979523e+00 3.0071854298e+00 5.2085979523e+00 
220000 5.4510934410e+00 -3.1489884773e-04 3.0071906793e+00 -5.2086070446e+00 3.0071906793e+00 5.2086070446e+00 
220100 5.4510934394e+00 -3.1407859426e-04 3.0071959151e+00 -5.2086161132e+00 3.0071959151e+00 5.2086161132e+00 
220200 5.4510934377e+00 -3.1326049717e-04 3.0072011372e+00 -5.2086251582e+00 3.0072011372e+00 5.2086251582e+00 
220300 5.4510934361e+00 -3.1244455067e-04 3.0072063457e+00 -5.2086341796e+00 3.0072063457e+00 5.2086341796e+00 
220400 5.4510934345e+00 -3.1163074902e-04 3.0072115406e+00 -5.2086431775e+00 3.0072115406e+00 5.2086431775e+00 
220500 5.4510934329e+00 -3.1081908648e-04 3.0072167220e+00 -5.2086521519e+00 3.0072167220e+00 5.2086521519e+00 
220600 5.4510934313e+00 -3.1000955731e-04 3.0072218899e+00 -5.2086611029e+00 3.0072218899e+00 5.2086611029e+00 
220700 5.4510934297e+00 -3.0920215583e-04 3.0072270443e+00 -5.2086700307e+00 3.0072270443e+00 5.2086700307e+00 
220800 5.4510934281e+00 -3.0839687632e-04 3.0072321853e+00 -5.2086789351e+00 3.0072321853e+00 5.2086789351e+00 
220900 5.4510934266e+00 -3.0759371312e-04 3.0072373129e+00 -5.2086878164e+00 3.0072373129e+00 5.2086878164e+00 
221000 5.4510934250e+00 -3.0679266057e-04 3.0072424271e+00 -5.2086966745e+00 3.0072424271e+00 5.2086966745e+00 
221100 5.4510934234e+00 -3.0599371302e-04 3.0072475280e+00 -5.2087055095e+00 3.0072475280e+00 5.2087055095e+00 
221200 5.4510934219e+00 -3.0519686484e-04 3.0072526156e+00 -5.2087143215e+00 3.0072526156e+00 5.2087143215e+00 
221300 5.4510934203e+00 -3.0440211042e-04 3.0072576900e+00 -5.2087231105e+00 3.0072576900e+00 5.2087231105e+00 
221400 5.4510934188e+00 -3.0360944416e-04 3.0072627511e+00 -5.2087318766e+00 3.0072627511e+00 5.2087318766e+00 
221500 5.4510934173e+00 -3.0281886048e-04 3.0072677990e+00 -5.2087406199e+00 3.0072677990e+00 5.2087406199e+00 
221600 5.4510934158e+00 -3.0203035381e-04 3.0072728338e+00 -5.2087493404e+00 3.0072728338e+00 5.2087493404e+00 
221700 5.4510934143e+00 -3.0124391860e-04 3.0072778555e+00 -5.2087580382e+00 3.0072778555e+00 5.2087580382e+00 
221800 5.4510934128e+00 -3.0045954932e-04 3.0072828641e+00 -5.2087667133e+00 3.0072828641e+00 5.2087667133e+00 
221900 5.4510934113e+00 -2.9967724043e-04 3.0072878596e+00 -5.2087753658e+00 3.0072878596e+00 5.2087753658e+00 
222000 5.4510934098e+00 -2.9889698644e-04 3.0072928421e+00 -5.2087839958e+00 3.0072928421e+00 5.2087839958e+00 
222100 5.4510934083e+00 -2.9811878186e-04 3.0072978117e+00 -5.2087926033e+00 3.0072978117e+00 5.2087926033e+00 
222200 5.4510934068e+00 -2.9734262120e-04 3.0073027683e+00 -5.2088011884e+00 3.0073027683e+00 5.2088011884e+00 
222300 5.4510934054e+00 -2.9656849902e-04 3.0073077119e+00 -5.2088097511e+00 3.0073077119e+00 5.2088097511e+00 
222400 5.4510934039e+00 -2.9579640986e-04 3.0073126427e+00 -5.2088182914e+00 3.0073126427e+00 5.2088182914e+00 
222500 5.4510934025e+00 -2.9502634829e-04 3.0073175607e+00 -5.2088268096e+00 3.0073175607e+00 5.2088268096e+00 
222600 5.4510934010e+00 -2.9425830890e-04 3.0073224658e+00 -5.2088353056e+00 3.0073224658e+00 5.2088353056e+00 
222700 5.4510933996e+00 -2.9349228629e-04 3.0073273582e+00 -5.2088437794e+00 3.0073273582e+00 5.2088437794e+00 
222800 5.4510933982e+00 -2.9272827507e-04 3.0073322378e+00 -5.2088522311e+00 3.0073322378e+00 5.2088522311e+00 
222900 5.4510933968e+00 -2.9196626987e-04 3.0073371047e+00 -5.2088606609e+00 3.0073371047e+00 5.2088606609e+00 
223000 5.4510933954e+00 -2.9120626534e-04 3.0073419590e+00 -5.2088690686e+00 3.0073419590e+00 5.2088690686e+00 
223100 5.4510933940e+00 -2.9044825613e-04 3.0073468005e+00 -5.2088774545e+00 3.0073468005e+00 5.2088774545e+00 
223200 5.4510933926e+00 -2.8969223692e-04 3.0073516295e+00 -5.2088858186e+00 3.0073516295e+00 5.2088858186e+00 
223300 5.4510933912e+00 -2.8893820239e-04 3.0073564459e+00 -5.2088941608e+00 3.0073564459e+00 5.2088941608e+00 
223400 5.4510933898e+00 -2.8818614725e-04 3.0073612498e+00 -5.2089024813e+00 3.0073612498e+00 5.2089024813e+00 
223500 5.4510933884e+00 -2.8743606622e-04 3.0073660411e+00 -5.2089107802e+00 3.0073660411e+00 5.2089107802e+00 
223600 5.4510933871e+00 -2.8668795403e-04 3.0073708200e+00 -5.2089190574e+00 3.0073708200e+00 5.2089190574e+00 
223700 5.4510933857e+00 -2.8594180542e-04 3.0073755864e+00 -5.2089273131e+00 3.0073755864e+00 5.2089273131e+00 
223800 5.4510933843e+00 -2.8519761516e-04 3.0073803404e+00 -5.2089355473e+00 3.0073803404e+00 5.2089355473e+00 
223900 5.4510933830e+00 -2.8445537802e-04 3.0073850821e+00 -5.2089437601e+00 3.0073850821e+00 5.2089437601e+00 
224000 5.4510933817e+00 -2.8371508878e-04 3.0073898113e+00 -5.2089519514e+00 3.0073898113e+00 5.2089519514e+00 
224100 5.4510933803e+00 -2.8297674227e-04 3.0073945283e+00 -5.2089601214e+00 3.0073945283e+00 5.2089601214e+00 
224200 5.4510933790e+00 -2.8224033329e-04 3.0073992330e+00 -5.2089682702e+00 3.0073992330e+00 5.2089682702e+00 
224300 5.4510933777e+00 -2.8150585667e-04 3.0074039254e+00 -5.2089763977e+00 3.0074039254e+00 5.2089763977e+00 
224400 5.4510933764e+00 -2.8077330726e-04 3.0074086056e+00 -5.2089845041e+00 3.0074086056e+00 5.2089845041e+00 
224500 5.4510933751e+00 -2.8004267993e-04 3.0074132737e+00 -5.2089925894e+00 3.0074132737e+00 5.2089925894e+00 
224600 5.4510933738e+00 -2.7931396955e-04 3.0074179295e+00 -5.2090006536e+00 3.0074179295e+00 5.2090006536e+00 
224700 5.4510933725e+00 -2.7858717100e-04 3.0074225733e+00 -5.2090086968e+00 3.0074225733e+00 5.2090086968e+00 
224800 5.4510933712e+00 -2.7786227920e-04 3.0074272050e+00 -5.2090167191e+00 3.0074272050e+00 5.2090167191e+00 
224900 5.4510933699e+00 -2.7713928905e-04 3.0074318246e+00 -5.2090247204e+00 3.0074318246e+00 5.2090247204e+00 
225000 5.4510933687e+00 -2.7641819550e-04 3.0074364321e+00 -5.2090327010e+00 3.0074364321e+00 5.2090327010e+00 
225100 5.4510933674e+00 -2.7569899347e-04 3.0074410277e+00 -5.2090406608e+00 3.0074410277e+00 5.2090406608e+00 
225200 5.4510933661e+00 -2.7498167795e-04 3.0074456113e+00 -5.2090485998e+00 3.0074456113e+00 5.2090485998e+00 
225300 5.4510933649e+00 -2.7426624389e-04 3.0074501830e+00 -5.2090565182e+00 3.0074501830e+00 5.2090565182e+00 
225400 5.4510933636e+00 -2.7355268628e-04 3.0074547428e+00 -5.2090644160e+00 3.0074547428e+00 5.2090644160e+00 
225500 5.4510933624e+00 -2.7284100012e-04 3.0074592907e+00 -5.2090722932e+00 3.0074592907e+00 5.2090722932e+00 
225600 5.4510933612e+00 -2.7213118044e-04 3.0074638268e+00 -5.2090801499e+00 3.0074638268e+00 5.2090801499e+00 
225700 5.4510933599e+00 -2.7142322224e-04 3.0074683510e+00 -5.2090879862e+00 3.0074683510e+00 5.2090879862e+00 
225800 5.4510933587e+00 -2.7071712059e-04 3.0074728635e+00 -5.2090958020e+00 3.0074728635e+00 5.2090958020e+00 
225900 5.4510933575e+00 -2.7001287053e-04 3.0074773643e+00 -5.2091035975e+00 3.0074773643e+00 5.2091035975e+00 
226000 5.4510933563e+00 -2.6931046713e-04 3.0074818533e+00 -5.2091113728e+00 3.0074818533e+00 5.2091113728e+00 
226100 5.4510933551e+00 -2.6860990547e-04 3.0074863306e+00 -5.2091191277e+00 3.0074863306e+00 5.2091191277e+00 
226200 5.4510933539e+00 -2.6791118065e-04 3.0074907963e+00 -5.2091268625e+00 3.0074907963e+00 5.2091268625e+00 
226300 5.4510933527e+00 -2.6721428778e-04 3.0074952504e+00 -5.2091345772e+00 3.0074952504e+00 5.2091345772e+00 
226400 5.4510933516e+00 -2.6651922198e-04 3.0074996929e+00 -5.2091422718e+00 3.0074996929e+00 5.2091422718e+00 
226500 5.4510933504e+00 -2.6582597839e-04 3.0075041238e+00 -5.2091499464e+00 3.0075041238e+00 5.2091499464e+00 
226600 5.4510933492e+00 -2.6513455215e-04 3.0075085432e+00 -5.2091576010e+00 3.0075085432e+00 5.2091576010e+00 
226700 5.4510933480e+00 -2.6444493843e-04 3.0075129510e+00 -5.2091652356e+00 3.0075129510e+00 5.2091652356e+00 
226800 5.4510933469e+00 -2.6375713240e-04 3.0075173474e+00 -5.2091728504e+00 3.0075173474e+00 5.2091728504e+00 
226900 5.4510933457e+00 -2.6307112926e-04 3.0075217324e+00 -5.2091804454e+00 3.0075217324e+00 5.2091804454e+00 
227000 5.4510933446e+00 -2.6238692420e-04 3.0075261060e+00 -5.2091880206e+00 3.0075261060e+00 5.2091880206e+00 
227100 5.4510933435e+00 -2.6170451244e-04 3.0075304681e+00 -5.2091955761e+00 3.0075304681e+00 5.2091955761e+00 
227200 5.4510933423e+00 -2.6102388921e-04 3.0075348190e+00 -5.2092031120e+00 3.0075348190e+00 5.2092031120e+00 
227300 5.4510933412e+00 -2.6034504975e-04 3.0075391585e+00 -5.2092106282e+00 3.0075391585e+00 5.2092106282e+00 
227400 5.4510933401e+00 -2.5966798931e-04 3.0075434867e+00 -5.2092181249e+00 3.0075434867e+00 5.2092181249e+00 
227500 5.4510933390e+00 -2.5899270317e-04 3.0075478036e+00 -5.2092256021e+00 3.0075478036e+00 5.2092256021e+00 
227600 5.4510933379e+00 -2.5831918660e-04 3.0075521093e+00 -5.2092330598e+00 3.0075521093e+00 5.2092330598e+00 
227700 5.4510933368e+00 -2.5764743490e-04 3.0075564038e+00 -5.2092404981e+00 3.0075564038e+00 5.2092404981e+00 
227800 5.4510933357e+00 -2.5697744336e-04 3.0075606872e+00 -5.2092479170e+00 3.0075606872e+00 5.2092479170e+00 
227900 5.4510933346e+00 -2.5630920732e-04 3.0075649594e+00 -5.2092553167e+00 3.0075649594e+00 5.2092553167e+00 
228000 5.4510933335e+00 -2.5564272210e-04 3.0075692204e+00 -5.2092626971e+00 3.0075692204e+00 5.2092626971e+00 
228100 5.4510933324e+00 -2.5497798305e-04 3.0075734704e+00 -5.2092700583e+00 3.0075734704e+00 5.2092700583e+00 
228200 5.4510933313e+00 -2.5431498553e-04 3.0075777094e+00 -5.2092774003e+00 3.0075777094e+00 5.2092774003e+00 
228300 5.4510933303e+00 -2.5365372490e-04 3.0075819373e+00 -5.2092847233e+00 3.0075819373e+00 5.2092847233e+00 
228400 5.4510933292e+00 -2.5299419654e-04 3.0075861542e+00 -5.2092920272e+00 3.0075861542e+00 5.2092920272e+00 
228500 5.4510933281e+00 -2.5233639586e-04 3.0075903601e+00 -5.2092993121e+00 3.0075903601e+00 5.2092993121e+00 
228600 5.4510933271e+00 -2.5168031827e-04 3.0075945551e+00 -5.2093065780e+00 3.0075945551e+00 5.2093065780e+00 
228700 5.4510933260e+00 -2.5102595917e-04 3.0075987392e+00 -5.2093138251e+00 3.0075987392e+00 5.2093138251e+00 
228800 5.4510933250e+00 -2.5037331401e-04 3.0076029124e+00 -5.2093210532e+00 3.0076029124e+00 5.2093210532e+00 
228900 5.4510933240e+00 -2.4972237823e-04 3.0076070747e+00 -5.2093282626e+00 3.0076070747e+00 5.2093282626e+00 
229000 5.4510933229e+00 -2.4907314728e-04 3.0076112262e+00 -5.2093354533e+00 3.0076112262e+00 5.2093354533e+00 
229100 5.4510933219e+00 -2.4842561665e-04 3.0076153670e+00 -5.2093426252e+00 3.0076153670e+00 5.2093426252e+00 
229200 5.4510933209e+00 -2.4777978181e-04 3.0076194969e+00 -5.2093497785e+00 3.0076194969e+00 5.2093497785e+00 
229300 5.4510933199e+00 -2.4713563825e-04 3.0076236161e+00 -5.2093569131e+00 3.0076236161e+00 5.2093569131e+00 
229400 5.4510933188e+00 -2.4649318148e-04 3.0076277246e+00 -5.2093640292e+00 3.0076277246e+00 5.2093640292e+00 
229500 5.4510933178e+00 -2.4585240703e-04 3.0076318224e+00 -5.2093711268e+00 3.0076318224e+00 5.2093711268e+00 
229600 5.4510933168e+00 -2.4521331042e-04 3.0076359095e+00 -5.2093782060e+00 3.0076359095e+00 5.2093782060e+00 
229700 5.4510933158e+00 -2.4457588720e-04 3.0076399860e+00 -5.2093852667e+00 3.0076399860e+00 5.2093852667e+00 
229800 5.4510933149e+00 -2.4394013293e-04 3.0076440520e+00 -5.2093923091e+00 3.0076440520e+00 5.2093923091e+00 
229900 5.4510933139e+00 -2.4330604317e-04 3.0076481073e+00 -5.2093993331e+00 3.0076481073e+00 5.2093993331e+00 
230000 5.4510933129e+00 -2.4267361350e-04 3.0076521521e+00 -5.2094063389e+00 3.0076521521e+00 5.2094063389e+00 
230100 5.4510933119e+00 -2.4204283952e-04 3.0076561864e+00 -5.2094133265e+00 3.0076561864e+00 5.2094133265e+00 
230200 5.4510933110e+00 -2.4141371683e-04 3.0076602101e+00 -5.2094202959e+00 3.0076602101e+00 5.2094202959e+00 
230300 5.4510933100e+00 -2.4078624105e-04 3.0076642235e+00 -5.2094272471e+00 3.0076642235e+00 5.2094272471e+00 
230400 5.4510933090e+00 -2.4016040780e-04 3.0076682263e+00 -5.2094341803e+00 3.0076682263e+00 5.2094341803e+00 
230500 5.4510933081e+00 -2.3953621272e-04 3.0076722188e+00 -5.2094410955e+00 3.0076722188e+00 5.2094410955e+00 
230600 5.4510933071e+00 -2.3891365148e-04 3.0076762009e+00 -5.2094479926e+00 3.0076762009e+00 5.2094479926e+00 
230700 5.4510933062e+00 -2.3829271972e-04 3.0076801726e+00 -5.2094548719e+00 3.0076801726e+00 5.2094548719e+00 
230800 5.4510933052e+00 -2.3767341313e-04 3.0076841340e+00 -5.2094617332e+00 3.0076841340e+00 5.2094617332e+00 
230900 5.4510933043e+00 -2.3705572740e-04 3.0076880851e+00 -5.2094685768e+00 3.0076880851e+00 5.2094685768e+00 
231000 5.4510933034e+00 -2.3643965822e-04 3.0076920260e+00 -5.2094754025e+00 3.0076920260e+00 5.2094754025e+00 
231100 5.4510933025e+00 -2.3582520131e-04 3.0076959565e+00 -5.2094822104e+00 3.0076959565e+00 5.2094822104e+00 
231200 5.4510933015e+00 -2.3521235238e-04 3.0076998769e+00 -5.2094890007e+00 3.0076998769e+00 5.2094890007e+00 
231300 5.4510933006e+00 -2.3460110718e-04 3.0077037871e+00 -5.2094957733e+00 3.0077037871e+00 5.2094957733e+00 
231400 5.4510932997e+00 -2.3399146145e-04 3.0077076871e+00 -5.2095025283e+00 3.0077076871e+00 5.2095025283e+00 
231500 5.4510932988e+00 -2.3338341094e-04 3.0077115769e+00 -5.2095092658e+00 3.0077115769e+00 5.2095092658e+00 
231600 5.4510932979e+00 -2.3277695143e-04 3.0077154567e+00 -5.2095159857e+00 3.0077154567e+00 5.2095159857e+00 
231700 5.4510932970e+00 -2.3217207869e-04 3.0077193264e+00 -5.2095226882e+00 3.0077193264e+00 5.2095226882e+00 
231800 5.4510932961e+00 -2.3156878852e-04 3.0077231860e+00 -5.2095293732e+00 3.0077231860e+00 5.2095293732e+00 
231900 5.4510932952e+00 -2.3096707672e-04 3.0077270355e+00 -5.2095360408e+00 3.0077270355e+00 5.2095360408e+00 
232000 5.4510932944e+00 -2.3036693911e-04 3.0077308751e+00 -5.2095426912e+00 3.0077308751e+00 5.2095426912e+00 
232100 5.4510932935e+00 -2.2976837152e-04 3.0077347047e+00 -5.2095493242e+00 3.0077347047e+00 5.2095493242e+00 
232200 5.4510932926e+00 -2.2917136977e-04 3.0077385243e+00 -5.2095559400e+00 3.0077385243e+00 5.2095559400e+00 
232300 5.4510932917e+00 -2.2857592972e-04 3.0077423340e+00 -5.2095625386e+00 3.0077423340e+00 5.2095625386e+00 
232400 5.4510932909e+00 -2.2798204723e-04 3.0077461338e+00 -5.2095691200e+00 3.0077461338e+00 5.2095691200e+00 
232500 5.4510932900e+00 -2.2738971818e-04 3.0077499237e+00 -5.2095756843e+00 3.0077499237e+00 5.2095756843e+00 
232600 5.4510932892e+00 -2.2679893844e-04 3.0077537038e+00 -5.2095822316e+00 3.0077537038e+00 5.2095822316e+00 
232700 5.4510932883e+00 -2.2620970390e-04 3.0077574740e+00 -5.2095887618e+00 3.0077574740e+00 5.2095887618e+00 
232800 5.4510932875e+00 -2.2562201048e-04 3.0077612345e+00 -5.2095952751e+00 3.0077612345e+00 5.2095952751e+00 
232900 5.4510932866e+00 -2.2503585409e-04 3.0077649851e+00 -5.2096017714e+00 3.0077649851e+00 5.2096017714e+00 
233000 5.4510932858e+00 -2.2445123066e-04 3.0077687260e+00 -5.2096082509e+00 3.0077687260e+00 5.2096082509e+00 
233100 5.4510932849e+00 -2.2386813612e-04 3.0077724572e+00 -5.2096147135e+00 3.0077724572e+00 5.2096147135e+00 
233200 5.4510932841e+00 -2.2328656643e-04 3.0077761787e+00 -5.2096211593e+00 3.0077761787e+00 5.2096211593e+00 
233300 5.4510932833e+00 -2.2270651755e-04 3.0077798905e+00 -5.2096275884e+00 3.0077798905e+00 5.2096275884e+00 
233400 5.4510932825e+00 -2.2212798544e-04 3.0077835927e+00 -5.2096340008e+00 3.0077835927e+00 5.2096340008e+00 
233500 5.4510932817e+00 -2.2155096609e-04 3.0077872853e+00 -5.2096403964e+00 3.0077872853e+00 5.2096403964e+00 
233600 5.4510932808e+00 -2.2097545549e-04 3.0077909682e+00 -5.2096467755e+00 3.0077909682e+00 5.2096467755e+00 
233700 5.4510932800e+00 -2.2040144965e-04 3.0077946416e+00 -5.2096531380e+00 3.0077946416e+00 5.2096531380e+00 
233800 5.4510932792e+00 -2.1982894458e-04 3.0077983055e+00 -5.2096594840e+00 3.0077983055e+00 5.2096594840e+00 
233900 5.4510932784e+00 -2.1925793631e-04 3.0078019598e+00 -5.2096658134e+00 3.0078019598e+00 5.2096658134e+00 
234000 5.4510932776e+00 -2.1868842087e-04 3.0078056046e+00 -5.2096721264e+00 3.0078056046e+00 5.2096721264e+00 
234100 5.4510932769e+00 -2.1812039432e-04 3.0078092399e+00 -5.2096784230e+00 3.0078092399e+00 5.2096784230e+00 
234200 5.4510932761e+00 -2.1755385270e-04 3.0078128658e+00 -5.2096847033e+00 3.0078128658e+00 5.2096847033e+00 
234300 5.4510932753e+00 -2.1698879209e-04 3.0078164823e+00 -5.2096909672e+00 3.0078164823e+00 5.2096909672e+00 
234400 5.4510932745e+00 -2.1642520858e-04 3.0078200894e+00 -5.2096972149e+00 3.0078200894e+00 5.2096972149e+00 
234500 5.4510932737e+00 -2.1586309823e-04 3.0078236871e+00 -5.2097034463e+00 3.0078236871e+00 5.2097034463e+00 
234600 5.4510932730e+00 -2.1530245717e-04 3.0078272755e+00 -5.2097096615e+00 3.0078272755e+00 5.2097096615e+00 
234700 5.4510932722e+00 -2.1474328150e-04 3.0078308545e+00 -5.2097158606e+00 3.0078308545e+00 5.2097158606e+00 
234800 5.4510932714e+00 -2.1418556734e-04 3.0078344242e+00 -5.2097220436e+00 3.0078344242e+00 5.2097220436e+00 
234900 5.4510932707e+00 -2.1362931082e-04 3.0078379847e+00 -5.2097282105e+00 3.0078379847e+00 5.2097282105e+00 
235000 5.4510932699e+00 -2.1307450809e-04 3.0078415359e+00 -5.2097343613e+00 3.0078415359e+00 5.2097343613e+00 
235100 5.4510932692e+00 -2.1252115530e-04 3.0078450779e+00 -5.2097404962e+00 3.0078450779e+00 5.2097404962e+00 
235200 5.4510932684e+00 -2.1196924861e-04 3.0078486107e+00 -5.2097466152e+00 3.0078486107e+00 5.2097466152e+00 
235300 5.4510932677e+00 -2.1141878420e-04 3.0078521343e+00 -5.2097527182e+00 3.0078521343e+00 5.2097527182e+00 
235400 5.4510932669e+00 -2.1086975825e-04 3.0078556487e+00 -5.2097588054e+00 3.0078556487e+00 5.2097588054e+00 
235500 5.4510932662e+00 -2.1032216696e-04 3.0078591541e+00 -5.2097648768e+00 3.0078591541e+00 5.2097648768e+00 
235600 5.4510932655e+00 -2.0977600653e-04 3.0078626503e+00 -5.2097709325e+00 3.0078626503e+00 5.2097709325e+00 
235700 5.4510932647e+00 -2.0923127318e-04 3.0078661374e+00 -5.2097769723e+00 3.0078661374e+00 5.2097769723e+00 
235800 5.4510932640e+00 -2.0868796313e-04 3.0078696155e+00 -5.2097829965e+00 3.0078696155e+00 5.2097829965e+00 
235900 5.4510932633e+00 -2.0814607262e-04 3.0078730845e+00 -5.2097890051e+00 3.0078730845e+00 5.2097890051e+00 
236000 5.4510932626e+00 -2.0760559790e-04 3.0078765445e+00 -5.2097949980e+00 3.0078765445e+00 5.2097949980e+00 
236100 5.4510932619e+00 -2.0706653521e-04 3.0078799956e+00 -5.2098009754e+00 3.0078799956e+00 5.2098009754e+00 
236200 5.4510932612e+00 -2.0652888083e-04 3.0078834376e+00 -5.2098069372e+00 3.0078834376e+00 5.2098069372e+00 
236300 5.4510932605e+00 -2.0599263104e-04 3.0078868707e+00 -5.2098128836e+00 3.0078868707e+00 5.2098128836e+00 
236400 5.4510932598e+00 -2.0545778211e-04 3.0078902950e+00 -5.2098188145e+00 3.0078902950e+00 5.2098188145e+00 
236500 5.4510932591e+00 -2.0492433035e-04 3.0078937103e+00 -5.2098247300e+00 3.0078937103e+00 5.2098247300e+00 
236600 5.4510932584e+00 -2.0439227206e-04 3.0078971167e+00 -5.2098306301e+00 3.0078971167e+00 5.2098306301e+00 
236700 5.4510932577e+00 -2.0386160357e-04 3.0079005143e+00 -5.2098365149e+00 3.0079005143e+00 5.2098365149e+00 
236800 5.4510932570e+00 -2.0333232118e-04 3.0079039031e+00 -5.2098423844e+00 3.0079039031e+00 5.2098423844e+00 
236900 5.4510932563e+00 -2.0280442125e-04 3.0079072830e+00 -5.2098482387e+00 3.0079072830e+00 5.2098482387e+00 
237000 5.4510932556e+00 -2.0227790012e-04 3.0079106542e+00 -5.2098540778e+00 3.0079106542e+00 5.2098540778e+00 
237100 5.4510932549e+00 -2.0175275414e-04 3.0079140167e+00 -5.2098599017e+00 3.0079140167e+00 5.2098599017e+00 
237200 5.4510932543e+00 -2.0122897969e-04 3.0079173704e+00 -5.2098657104e+00 3.0079173704e+00 5.2098657104e+00 
237300 5.4510932536e+00 -2.0070657312e-04 3.0079207154e+00 -5.2098715041e+00 3.0079207154e+00 5.2098715041e+00 
237400 5.4510932529e+00 -2.0018553085e-04 3.0079240517e+00 -5.2098772828e+00 3.0079240517e+00 5.2098772828e+00 
237500 5.4510932523e+00 -1.9966584924e-04 3.0079273793e+00 -5.2098830464e+00 3.0079273793e+00 5.2098830464e+00 
237600 5.4510932516e+00 -1.9914752473e-04 3.0079306983e+00 -5.2098887951e+00 3.0079306983e+00 5.2098887951e+00 
237700 5.4510932510e+00 -1.9863055370e-04 3.0079340087e+00 -5.2098945288e+00 3.0079340087e+00 5.2098945288e+00 
237800 5.4510932503e+00 -1.9811493260e-04 3.0079373104e+00 -5.2099002477e+00 3.0079373104e+00 5.2099002477e+00 
237900 5.4510932497e+00 -1.9760065786e-04 3.0079406036e+00 -5.2099059517e+00 3.0079406036e+00 5.2099059517e+00 
238000 5.4510932490e+00 -1.9708772592e-04 3.0079438883e+00 -5.2099116408e+00 3.0079438883e+00 5.2099116408e+00 
238100 5.4510932484e+00 -1.9657613323e-04 3.0079471644e+00 -5.2099173153e+00 3.0079471644e+00 5.2099173153e+00 
238200 5.4510932477e+00 -1.9606587625e-04 3.0079504320e+00 -5.2099229749e+00 3.0079504320e+00 5.2099229749e+00 
238300 5.4510932471e+00 -1.9555695147e-04 3.0079536912e+00 -5.2099286199e+00 3.0079536912e+00 5.2099286199e+00 
238400 5.4510932465e+00 -1.9504935536e-04 3.0079569418e+00 -5.2099342502e+00 3.0079569418e+00 5.2099342502e+00 
238500 5.4510932458e+00 -1.9454308440e-04 3.0079601840e+00 -5.2099398659e+00 3.0079601840e+00 5.2099398659e+00 
238600 5.4510932452e+00 -1.9403813512e-04 3.0079634179e+00 -5.2099454670e+00 3.0079634179e+00 5.2099454670e+00 
238700 5.4510932446e+00 -1.9353450400e-04 3.0079666433e+00 -5.2099510536e+00 3.0079666433e+00 5.2099510536e+00 
238800 5.4510932440e+00 -1.9303218759e-04 3.0079698603e+00 -5.2099566257e+00 3.0079698603e+00 5.2099566257e+00 
238900 5.4510932433e+00 -1.9253118239e-04 3.0079730690e+00 -5.2099621833e+00 3.0079730690e+00 5.2099621833e+00 
239000 5.4510932427e+00 -1.9203148496e-04 3.0079762693e+00 -5.2099677264e+00 3.0079762693e+00 5.2099677264e+00 
239100 5.4510932421e+00 -1.9153309183e-04 3.0079794614e+00 -5.2099732552e+00 3.0079794614e+00 5.2099732552e+00 
239200 5.4510932415e+00 -1.9103599958e-04 3.0079826451e+00 -5.2099787696e+00 3.0079826451e+00 5.2099787696e+00 
239300 5.4510932409e+00 -1.9054020475e-04 3.0079858206e+00 -5.2099842697e+00 3.0079858206e+00 5.2099842697e+00 
239400 5.4510932403e+00 -1.9004570394e-04 3.0079889878e+00 -5.2099897555e+00 3.0079889878e+00 5.2099897555e+00 
239500 5.4510932397e+00 -1.8955249372e-04 3.0079921468e+00 -5.2099952271e+00 3.0079921468e+00 5.2099952271e+00 
239600 5.4510932391e+00 -1.8906057069e-04 3.0079952977e+00 -5.2100006845e+00 3.0079952977e+00 5.2100006845e+00 
239700 5.4510932385e+00 -1.8856993146e-04 3.0079984403e+00 -5.2100061277e+00 3.0079984403e+00 5.2100061277e+00 
239800 5.4510932379e+00 -1.8808057263e-04 3.0080015748e+00 -5.2100115568e+00 3.0080015748e+00 5.2100115568e+00 
239900 5.4510932374e+00 -1.8759249082e-04 3.0080047011e+00 -5.2100169717e+00 3.0080047011e+00 5.2100169717e+00 
240000 5.4510932368e+00 -1.8710568267e-04 3.0080078193e+00 -5.2100223727e+00 3.0080078193e+00 5.2100223727e+00 
240100 5.4510932362e+00 -1.8662014483e-04 3.0080109295e+00 -5.2100277595e+00 3.0080109295e+00 5.2100277595e+00 
240200 5.4510932356e+00 -1.8613587392e-04 3.0080140315e+00 -5.2100331325e+00 3.0080140315e+00 5.2100331325e+00 
240300 5.4510932351e+00 -1.8565286663e-04 3.0080171255e+00 -5.2100384914e+00 3.0080171255e+00 5.2100384914e+00 
240400 5.4510932345e+00 -1.8517111960e-04 3.0080202115e+00 -5.2100438365e+00 3.0080202115e+00 5.2100438365e+00 
240500 5.4510932339e+00 -1.8469062952e-04 3.0080232894e+00 -5.2100491677e+00 3.0080232894e+00 5.2100491677e+00 
240600 5.4510932333e+00 -1.8421139307e-04 3.0080263594e+00 -5.2100544850e+00 3.0080263594e+00 5.2100544850e+00 
240700 5.4510932328e+00 -1.8373340695e-04 3.0080294214e+00 -5.2100597885e+00 3.0080294214e+00 5.2100597885e+00 
240800 5.4510932322e+00 -1.8325666786e-04 3.0080324755e+00 -5.2100650783e+00 3.0080324755e+00 5.2100650783e+00 
240900 5.4510932317e+00 -1.8278117251e-04 3.0080355216e+00 -5.2100703543e+00 3.0080355216e+00 5.2100703543e+00 
241000 5.4510932311e+00 -1.8230691763e-04 3.0080385598e+00 -5.2100756167e+00 3.0080385598e+00 5.2100756167e+00 
241100 5.4510932306e+00 -1.8183389993e-04 3.0080415901e+00 -5.2100808654e+00 3.0080415901e+00 5.2100808654e+00 
241200 5.4510932300e+00 -1.8136211616e-04 3.0080446126e+00 -5.2100861004e+00 3.0080446126e+00 5.2100861004e+00 
241300 5.4510932295e+00 -1.8089156307e-04 3.0080476272e+00 -5.2100913219e+00 3.0080476272e+00 5.2100913219e+00 
241400 5.4510932289e+00 -1.8042223740e-04 3.0080506340e+00 -5.2100965298e+00 3.0080506340e+00 5.2100965298e+00 
241500 5.4510932284e+00 -1.7995413594e-04 3.0080536330e+00 -5.2101017242e+00 3.0080536330e+00 5.2101017242e+00 
241600 5.4510932279e+00 -1.7948725544e-04 3.0080566242e+00 -5.2101069051e+00 3.0080566242e+00 5.2101069051e+00 
241700 5.4510932273e+00 -1.7902159269e-04 3.0080596076e+00 -5.2101120726e+00 3.0080596076e+00 5.2101120726e+00 
241800 5.4510932268e+00 -1.7855714449e-04 3.0080625833e+00 -5.2101172267e+00 3.0080625833e+00 5.2101172267e+00 
241900 5.4510932263e+00 -1.7809390762e-04 3.0080655513e+00 -5.2101223674e+00 3.0080655513e+00 5.2101223674e+00 
242000 5.4510932258e+00 -1.7763187890e-04 3.0080685116e+00 -5.2101274947e+00 3.0080685116e+00 5.2101274947e+00 
242100 5.4510932252e+00 -1.7717105515e-04 3.0080714642e+00 -5.2101326088e+00 3.0080714642e+00 5.2101326088e+00 
242200 5.4510932247e+00 -1.7671143318e-04 3.0080744091e+00 -5.2101377095e+00 3.0080744091e+00 5.2101377095e+00 
242300 5.4510932242e+00 -1.7625300983e-04 3.0080773464e+00 -5.2101427970e+00 3.0080773464e+00 5.2101427970e+00 
242400 5.4510932237e+00 -1.7579578195e-04 3.0080802761e+00 -5.2101478714e+00 3.0080802761e+00 5.2101478714e+00 
242500 5.4510932232e+00 -1.7533974639e-04 3.0080831981e+00 -5.2101529325e+00 3.0080831981e+00 5.2101529325e+00 
242600 5.4510932227e+00 -1.7488489999e-04 3.0080861126e+00 -5.2101579805e+00 3.0080861126e+00 5.2101579805e+00 
242700 5.4510932222e+00 -1.7443123964e-04 3.0080890195e+00 -5.2101630155e+00 3.0080890195e+00 5.2101630155e+00 
242800 5.4510932217e+00 -1.7397876220e-04 3.0080919189e+00 -5.2101680373e+00 3.0080919189e+00 5.2101680373e+00 
242900 5.4510932212e+00 -1.7352746457e-04 3.0080948107e+00 -5.2101730461e+00 3.0080948107e+00 5.2101730461e+00 
243000 5.4510932207e+00 -1.7307734362e-04 3.0080976951e+00 -5.2101780420e+00 3.0080976951e+00 5.2101780420e+00 
243100 5.4510932202e+00 -1.7262839627e-04 3.0081005719e+00 -5.2101830248e+00 3.0081005719e+00 5.2101830248e+00 
243200 5.4510932197e+00 -1.7218061942e-04 3.0081034413e+00 -5.2101879948e+00 3.0081034413e+00 5.2101879948e+00 
243300 5.4510932192e+00 -1.7173400999e-04 3.0081063033e+00 -5.2101929518e+00 3.0081063033e+00 5.2101929518e+00 
243400 5.4510932187e+00 -1.7128856490e-04 3.0081091578e+00 -5.2101978960e+00 3.0081091578e+00 5.2101978960e+00 
243500 5.4510932182e+00 -1.7084428110e-04 3.0081120049e+00 -5.2102028273e+00 3.0081120049e+00 5.2102028273e+00 
243600 5.4510932177e+00 -1.7040115551e-04 3.0081148446e+00 -5.2102077459e+00 3.0081148446e+00 5.2102077459e+00 
243700 5.4510932172e+00 -1.6995918510e-04 3.0081176770e+00 -5.2102126517e+00 3.0081176770e+00 5.2102126517e+00 
243800 5.4510932168e+00 -1.6951836682e-04 3.0081205020e+00 -5.2102175447e+00 3.0081205020e+00 5.2102175447e+00 
243900 5.4510932163e+00 -1.6907869763e-04 3.0081233197e+00 -5.2102224251e+00 3.0081233197e+00 5.2102224251e+00 
244000 5.4510932158e+00 -1.6864017452e-04 3.0081261300e+00 -5.2102272928e+00 3.0081261300e+00 5.2102272928e+00 
244100 5.4510932153e+00 -1.6820279446e-04 3.0081289331e+00 -5.2102321479e+00 3.0081289331e+00 5.2102321479e+00 
244200 5.4510932149e+00 -1.6776655445e-04 3.0081317289e+00 -5.2102369903e+00 3.0081317289e+00 5.2102369903e+00 
244300 5.4510932144e+00 -1.6733145148e-04 3.0081345175e+00 -5.2102418203e+00 3.0081345175e+00 5.2102418203e+00 
244400 5.4510932139e+00 -1.6689748256e-04 3.0081372988e+00 -5.2102466376e+00 3.0081372988e+00 5.2102466376e+00 
244500 5.4510932135e+00 -1.6646464471e-04 3.0081400729e+00 -5.2102514425e+00 3.0081400729e+00 5.2102514425e+00 
244600 5.4510932130e+00 -1.6603293496e-04 3.0081428398e+00 -5.2102562349e+00 3.0081428398e+00 5.2102562349e+00 
244700 5.4510932126e+00 -1.6560235032e-04 3.0081455995e+00 -5.2102610149e+00 3.0081455995e+00 5.2102610149e+00 
244800 5.4510932121e+00 -1.6517288784e-04 3.0081483521e+00 -5.2102657825e+00 3.0081483521e+00 5.2102657825e+00 
244900 5.4510932117e+00 -1.6474454458e-04 3.0081510975e+00 -5.2102705377e+00 3.0081510975e+00 5.2102705377e+00 
245000 5.4510932112e+00 -1.6431731757e-04 3.0081538358e+00 -5.2102752806e+00 3.0081538358e+00 5.2102752806e+00 
245100 5.4510932108e+00 -1.6389120389e-04 3.0081565670e+00 -5.2102800112e+00 3.0081565670e+00 5.2102800112e+00 
245200 5.4510932103e+00 -1.6346620061e-04 3.0081592911e+00 -5.2102847295e+00 3.0081592911e+00 5.2102847295e+00 
245300 5.4510932099e+00 -1.6304230481e-04 3.0081620082e+00 -5.2102894355e+00 3.0081620082e+00 5.2102894355e+00 
245400 5.4510932094e+00 -1.6261951356e-04 3.0081647182e+00 -5.2102941294e+00 3.0081647182e+00 5.2102941294e+00 
245500 5.4510932090e+00 -1.6219782397e-04 3.0081674211e+00 -5.2102988111e+00 3.0081674211e+00 5.2102988111e+00 
245600 5.4510932086e+00 -1.6177723315e-04 3.0081701171e+00 -5.2103034806e+00 3.0081701171e+00 5.2103034806e+00 
245700 5.4510932081e+00 -1.6135773818e-04 3.0081728061e+00 -5.2103081380e+00 3.0081728061e+00 5.2103081380e+00 
245800 5.4510932077e+00 -1.6093933621e-04 3.0081754880e+00 -5.2103127834e+00 3.0081754880e+00 5.2103127834e+00 
245900 5.4510932073e+00 -1.6052202434e-04 3.0081781631e+00 -5.2103174167e+00 3.0081781631e+00 5.2103174167e+00 
246000 5.4510932069e+00 -1.6010579972e-04 3.0081808312e+00 -5.2103220380e+00 3.0081808312e+00 5.2103220380e+00 
246100 5.4510932064e+00 -1.5969065949e-04 3.0081834923e+00 -5.2103266472e+00 3.0081834923e+00 5.2103266472e+00 
246200 5.4510932060e+00 -1.5927660078e-04 3.0081861466e+00 -5.2103312446e+00 3.0081861466e+00 5.2103312446e+00 
246300 5.4510932056e+00 -1.5886362077e-04 3.0081887940e+00 -5.2103358300e+00 3.0081887940e+00 5.2103358300e+00 
246400 5.4510932052e+00 -1.5845171661e-04 3.0081914345e+00 -5.2103404035e+00 3.0081914345e+00 5.2103404035e+00 
246500 5.4510932048e+00 -1.5804088547e-04 3.0081940682e+00 -5.2103449651e+00 3.0081940682e+00 5.2103449651e+00 
246600 5.4510932043e+00 -1.5763112453e-04 3.0081966950e+00 -5.2103495150e+00 3.0081966950e+00 5.2103495150e+00 
246700 5.4510932039e+00 -1.5722243099e-04 3.0081993151e+00 -5.2103540530e+00 3.0081993151e+00 5.2103540530e+00 
246800 5.4510932035e+00 -1.5681480202e-04 3.0082019283e+00 -5.2103585792e+00 3.0082019283e+00 5.2103585792e+00 
246900 5.4510932031e+00 -1.5640823484e-04 3.0082045348e+00 -5.2103630937e+00 3.0082045348e+00 5.2103630937e+00 
247000 5.4510932027e+00 -1.5600272665e-04 3.0082071344e+00 -5.2103675966e+00 3.0082071344e+00 5.2103675966e+00 
247100 5.4510932023e+00 -1.5559827467e-04 3.0082097274e+00 -5.2103720877e+00 3.0082097274e+00 5.2103720877e+00 
247200 5.4510932019e+00 -1.5519487613e-04 3.0082123136e+00 -5.2103765672e+00 3.0082123136e+00 5.2103765672e+00 
247300 5.4510932015e+00 -1.5479252824e-04 3.0082148931e+00 -5.2103810350e+00 3.0082148931e+00 5.2103810350e+00 
247400 5.4510932011e+00 -1.5439122826e-04 3.0082174660e+00 -5.2103854913e+00 3.0082174660e+00 5.2103854913e+00 
247500 5.4510932007e+00 -1.5399097343e-04 3.0082200321e+00 -5.2103899360e+00 3.0082200321e+00 5.2103899360e+00 
247600 5.4510932003e+00 -1.5359176100e-04 3.0082225916e+00 -5.2103943692e+00 3.0082225916e+00 5.2103943692e+00 
247700 5.4510931999e+00 -1.5319358823e-04 3.0082251445e+00 -5.2103987909e+00 3.0082251445e+00 5.2103987909e+00 
247800 5.4510931996e+00 -1.5279645240e-04 3.0082276908e+00 -5.2104032011e+00 3.0082276908e+00 5.2104032011e+00 
247900 5.4510931992e+00 -1.5240035076e-04 3.0082302304e+00 -5.2104075999e+00 3.0082302304e+00 5.2104075999e+00 
248000 5.4510931988e+00 -1.5200528062e-04 3.0082327635e+00 -5.2104119873e+00 3.0082327635e+00 5.2104119873e+00 
248100 5.4510931984e+00 -1.5161123926e-04 3.0082352899e+00 -5.2104163633e+00 3.0082352899e+00 5.2104163633e+00 
248200 5.4510931980e+00 -1.5121822397e-04 3.0082378099e+00 -5.2104207280e+00 3.0082378099e+00 5.2104207280e+00 
248300 5.4510931976e+00 -1.5082623206e-04 3.0082403233e+00 -5.2104250813e+00 3.0082403233e+00 5.2104250813e+00 
248400 5.4510931973e+00 -1.5043526084e-04 3.0082428302e+00 -5.2104294233e+00 3.0082428302e+00 5.2104294233e+00 
248500 5.4510931969e+00 -1.5004530763e-04 3.0082453305e+00 -5.2104337541e+00 3.0082453305e+00 5.2104337541e+00 
248600 5.4510931965e+00 -1.4965636976e-04 3.0082478244e+00 -5.2104380737e+00 3.0082478244e+00 5.2104380737e+00 
248700 5.4510931962e+00 -1.4926844455e-04 3.0082503119e+00 -5.2104423821e+00 3.0082503119e+00 5.2104423821e+00 
248800 5.4510931958e+00 -1.4888152936e-04 3.0082527929e+00 -5.2104466793e+00 3.0082527929e+00 5.2104466793e+00 
248900 5.4510931954e+00 -1.4849562152e-04 3.0082552674e+00 -5.2104509653e+00 3.0082552674e+00 5.2104509653e+00 
249000 5.4510931951e+00 -1.4811071839e-04 3.0082577356e+00 -5.2104552402e+00 3.0082577356e+00 5.2104552402e+00 
249100 5.4510931947e+00 -1.4772681733e-04 3.0082601973e+00 -5.2104595041e+00 3.0082601973e+00 5.2104595041e+00 
249200 5.4510931943e+00 -1.4734391572e-04 3.0082626526e+00 -5.2104637569e+00 3.0082626526e+00 5.2104637569e+00 
249300 5.4510931940e+00 -1.4696201092e-04 3.0082651016e+00 -5.2104679987e+00 3.0082651016e+00 5.2104679987e+00 
249400 5.4510931936e+00 -1.4658110031e-04 3.0082675443e+00 -5.2104722294e+00 3.0082675443e+00 5.2104722294e+00 
249500 5.4510931933e+00 -1.4620118130e-04 3.0082699806e+00 -5.2104764492e+00 3.0082699806e+00 5.2104764492e+00 
249600 5.4510931929e+00 -1.4582225127e-04 3.0082724106e+00 -5.2104806581e+00 3.0082724106e+00 5.2104806581e+00 
249700 5.4510931926e+00 -1.4544430763e-04 3.0082748343e+00 -5.2104848561e+00 3.0082748343e+00 5.2104848561e+00 
249800 5.4510931922e+00 -1.4506734779e-04 3.0082772517e+00 -5.2104890431e+00 3.0082772517e+00 5.2104890431e+00 
249900 5.4510931919e+00 -1.4469136916e-04 3.0082796628e+00 -5.2104932193e+00 3.0082796628e+00 5.2104932193e+00 
250000 5.4510931915e+00 -1.4431636917e-04 3.0082820677e+00 -5.2104973847e+00 3.0082820677e+00 5.2104973847e+00 
250100 5.4510931912e+00 -1.4394234525e-04 3.0082844663e+00 -5.2105015393e+00 3.0082844663e+00 5.2105015393e+00 
250200 5.4510931908e+00 -1.4356929484e-04 3.0082868588e+00 -5.2105056831e+00 3.0082868588e+00 5.2105056831e+00 
250300 5.4510931905e+00 -1.4319721538e-04 3.0082892450e+00 -5.2105098162e+00 3.0082892450e+00 5.2105098162e+00 
250400 5.4510931901e+00 -1.4282610433e-04 3.0082916250e+00 -5.2105139385e+00 3.0082916250e+00 5.2105139385e+00 
250500 5.4510931898e+00 -1.4245595914e-04 3.0082939989e+00 -5.2105180502e+00 3.0082939989e+00 5.2105180502e+00 
250600 5.4510931895e+00 -1.4208677728e-04 3.0082963666e+00 -5.2105221512e+00 3.0082963666e+00 5.2105221512e+00 
250700 5.4510931891e+00 -1.4171855622e-04 3.0082987282e+00 -5.2105262416e+00 3.0082987282e+00 5.2105262416e+00 
250800 5.4510931888e+00 -1.4135129343e-04 3.0083010837e+00 -5.2105303214e+00 3.0083010837e+00 5.2105303214e+00 
250900 5.4510931885e+00 -1.4098498641e-04 3.0083034330e+00 -5.2105343906e+00 3.0083034330e+00 5.2105343906e+00 
251000 5.4510931881e+00 -1.4061963265e-04 3.0083057763e+00 -5.2105384492e+00 3.0083057763e+00 5.2105384492e+00 
251100 5.4510931878e+00 -1.4025522964e-04 3.0083081135e+00 -5.2105424974e+00 3.0083081135e+00 5.2105424974e+00 
251200 5.4510931875e+00 -1.3989177489e-04 3.0083104446e+00 -5.2105465350e+00 3.0083104446e+00 5.2105465350e+00 
251300 5.4510931872e+00 -1.3952926592e-04 3.0083127697e+00 -5.2105505622e+00 3.0083127697e+00 5.2105505622e+00 
251400 5.4510931868e+00 -1.3916770023e-04 3.0083150888e+00 -5.2105545789e+00 3.0083150888e+00 5.2105545789e+00 
251500 5.4510931865e+00 -1.3880707536e-04 3.0083174018e+00 -5.2105585852e+00 3.0083174018e+00 5.2105585852e+00 
251600 5.4510931862e+00 -1.3844738884e-04 3.0083197089e+00 -5.2105625812e+00 3.0083197089e+00 5.2105625812e+00 
251700 5.4510931859e+00 -1.3808863820e-04 3.0083220099e+00 -5.2105665668e+00 3.0083220099e+00 5.2105665668e+00 
251800 5.4510931856e+00 -1.3773082100e-04 3.0083243051e+00 -5.2105705420e+00 3.0083243051e+00 5.2105705420e+00 
251900 5.4510931853e+00 -1.3737393478e-04 3.0083265942e+00 -5.2105745069e+00 3.0083265942e+00 5.2105745069e+00 
252000 5.4510931849e+00 -1.3701797709e-04 3.0083288774e+00 -5.2105784616e+00 3.0083288774e+00 5.2105784616e+00 
252100 5.4510931846e+00 -1.3666294552e-04 3.0083311548e+00 -5.2105824060e+00 3.0083311548e+00 5.2105824060e+00 
252200 5.4510931843e+00 -1.3630883762e-04 3.0083334262e+00 -5.2105863402e+00 3.0083334262e+00 5.2105863402e+00 
252300 5.4510931840e+00 -1.3595565098e-04 3.0083356917e+00 -5.2105902642e+00 3.0083356917e+00 5.2105902642e+00 
252400 5.4510931837e+00 -1.3560338317e-04 3.0083379513e+00 -5.2105941781e+00 3.0083379513e+00 5.2105941781e+00 
252500 5.4510931834e+00 -1.3525203180e-04 3.0083402051e+00 -5.2105980817e+00 3.0083402051e+00 5.2105980817e+00 
252600 5.4510931831e+00 -1.3490159445e-04 3.0083424531e+00 -5.2106019753e+00 3.0083424531e+00 5.2106019753e+00 
252700 5.4510931828e+00 -1.3455206872e-04 3.0083446952e+00 -5.2106058588e+00 3.0083446952e+00 5.2106058588e+00 
252800 5.4510931825e+00 -1.3420345224e-04 3.0083469315e+00 -5.2106097322e+00 3.0083469315e+00 5.2106097322e+00 
252900 5.4510931822e+00 -1.3385574261e-04 3.0083491620e+00 -5.2106135956e+00 3.0083491620e+00 5.2106135956e+00 
253000 5.4510931819e+00 -1.3350893746e-04 3.0083513868e+00 -5.2106174489e+00 3.0083513868e+00 5.2106174489e+00 
253100 5.4510931816e+00 -1.3316303441e-04 3.0083536057e+00 -5.2106212923e+00 3.0083536057e+00 5.2106212923e+00 
253200 5.4510931813e+00 -1.3281803111e-04 3.0083558190e+00 -5.2106251257e+00 3.0083558190e+00 5.2106251257e+00 
253300 5.4510931810e+00 -1.3247392518e-04 3.0083580265e+00 -5.2106289492e+00 3.0083580265e+00 5.2106289492e+00 
253400 5.4510931807e+00 -1.3213071429e-04 3.0083602282e+00 -5.2106327627e+00 3.0083602282e+00 5.2106327627e+00 
253500 5.4510931805e+00 -1.3178839608e-04 3.0083624243e+00 -5.2106365664e+00 3.0083624243e+00 5.2106365664e+00 
253600 5.4510931802e+00 -1.3144696821e-04 3.0083646146e+00 -5.2106403603e+00 3.0083646146e+00 5.2106403603e+00 
253700 5.4510931799e+00 -1.3110642835e-04 3.0083667993e+00 -5.2106441443e+00 3.0083667993e+00 5.2106441443e+00 
253800 5.4510931796e+00 -1.3076677418e-04 3.0083689784e+00 -5.2106479185e+00 3.0083689784e+00 5.2106479185e+00 
253900 5.4510931793e+00 -1.3042800337e-04 3.0083711518e+00 -5.2106516829e+00 3.0083711518e+00 5.2106516829e+00 
254000 5.4510931790e+00 -1.3009011360e-04 3.0083733195e+00 -5.2106554375e+00 3.0083733195e+00 5.2106554375e+00 
254100 5.4510931788e+00 -1.2975310257e-04 3.0083754816e+00 -5.2106591824e+00 3.0083754816e+00 5.2106591824e+00 
254200 5.4510931785e+00 -1.2941696797e-04 3.0083776382e+00 -5.2106629177e+00 3.0083776382e+00 5.2106629177e+00 
254300 5.4510931782e+00 -1.2908170751e-04 3.0083797891e+00 -5.2106666432e+00 3.0083797891e+00 5.2106666432e+00 
254400 5.4510931779e+00 -1.2874731890e-04 3.0083819345e+00 -5.2106703591e+00 3.0083819345e+00 5.2106703591e+00 
254500 5.4510931777e+00 -1.2841379985e-04 3.0083840743e+00 -5.2106740654e+00 3.0083840743e+00 5.2106740654e+00 
254600 5.4510931774e+00 -1.2808114808e-04 3.0083862086e+00 -5.2106777620e+00 3.0083862086e+00 5.2106777620e+00 
254700 5.4510931771e+00 -1.2774936133e-04 3.0083883373e+00 -5.2106814491e+00 3.0083883373e+00 5.2106814491e+00 
254800 5.4510931768e+00 -1.2741843732e-04 3.0083904605e+00 -5.2106851266e+00 3.0083904605e+00 5.2106851266e+00 
254900 5.4510931766e+00 -1.2708837379e-04 3.0083925782e+00 -5.2106887946e+00 3.0083925782e+00 5.2106887946e+00 
255000 5.4510931763e+00 -1.2675916850e-04 3.0083946905e+00 -5.2106924531e+00 3.0083946905e+00 5.2106924531e+00 
255100 5.4510931760e+00 -1.2643081919e-04 3.0083967972e+00 -5.2106961021e+00 3.0083967972e+00 5.2106961021e+00 
255200 5.4510931758e+00 -1.2610332361e-04 3.0083988985e+00 -5.2106997417e+00 3.0083988985e+00 5.2106997417e+00 
255300 5.4510931755e+00 -1.2577667955e-04 3.0084009944e+00 -5.2107033718e+00 3.0084009944e+00 5.2107033718e+00 
255400 5.4510931752e+00 -1.2545088475e-04 3.0084030848e+00 -5.2107069925e+00 3.0084030848e+00 5.2107069925e+00 
255500 5.4510931750e+00 -1.2512593701e-04 3.0084051698e+00 -5.2107106039e+00 3.0084051698e+00 5.2107106039e+00 
255600 5.4510931747e+00 -1.2480183409e-04 3.0084072494e+00 -5.2107142058e+00 3.0084072494e+00 5.2107142058e+00 
255700 5.4510931745e+00 -1.2447857379e-04 3.0084093236e+00 -5.2107177985e+00 3.0084093236e+00 5.2107177985e+00 
255800 5.4510931742e+00 -1.2415615391e-04 3.0084113925e+00 -5.2107213818e+00 3.0084113925e+00 5.2107213818e+00 
255900 5.4510931740e+00 -1.2383457223e-04 3.0084134560e+00 -5.2107249559e+00 3.0084134560e+00 5.2107249559e+00 
256000 5.4510931737e+00 -1.2351382657e-04 3.0084155141e+00 -5.2107285207e+00 3.0084155141e+00 5.2107285207e+00 
256100 5.4510931735e+00 -1.2319391473e-04 3.0084175669e+00 -5.2107320763e+00 3.0084175669e+00 5.2107320763e+00 
256200 5.4510931732e+00 -1.2287483454e-04 3.0084196144e+00 -5.2107356226e+00 3.0084196144e+00 5.2107356226e+00 
256300 5.4510931730e+00 -1.2255658381e-04 3.0084216566e+00 -5.2107391598e+00 3.0084216566e+00 5.2107391598e+00 
256400 5.4510931727e+00 -1.2223916037e-04 3.0084236935e+00 -5.2107426878e+00 3.0084236935e+00 5.2107426878e+00 
256500 5.4510931725e+00 -1.2192256206e-04 3.0084257251e+00 -5.2107462066e+00 3.0084257251e+00 5.2107462066e+00 
256600 5.4510931722e+00 -1.2160678672e-04 3.0084277514e+00 -5.2107497164e+00 3.0084277514e+00 5.2107497164e+00 
256700 5.4510931720e+00 -1.2129183219e-04 3.0084297725e+00 -5.2107532170e+00 3.0084297725e+00 5.2107532170e+00 
256800 5.4510931717e+00 -1.2097769632e-04 3.0084317884e+00 -5.2107567086e+00 3.0084317884e+00 5.2107567086e+00 
256900 5.4510931715e+00 -1.2066437697e-04 3.0084337990e+00 -5.2107601912e+00 3.0084337990e+00 5.2107601912e+00 
257000 5.4510931712e+00 -1.2035187200e-04 3.0084358045e+00 -5.2107636647e+00 3.0084358045e+00 5.2107636647e+00 
257100 5.4510931710e+00 -1.2004017928e-04 3.0084378047e+00 -5.2107671292e+00 3.0084378047e+00 5.2107671292e+00 
257200 5.4510931708e+00 -1.1972929669e-04 3.0084397998e+00 -5.2107705847e+00 3.0084397998e+00 5.2107705847e+00 
257300 5.4510931705e+00 -1.1941922210e-04 3.0084417897e+00 -5.2107740313e+00 3.0084417897e+00 5.2107740313e+00 
257400 5.4510931703e+00 -1.1910995339e-04 3.0084437744e+00 -5.2107774690e+00 3.0084437744e+00 5.2107774690e+00 
257500 5.4510931701e+00 -1.1880148847e-04 3.0084457540e+00 -5.2107808977e+00 3.0084457540e+00 5.2107808977e+00 
257600 5.4510931698e+00 -1.1849382522e-04 3.0084477285e+00 -5.2107843176e+00 3.0084477285e+00 5.2107843176e+00 
257700 5.4510931696e+00 -1.1818696156e-04 3.0084496978e+00 -5.2107877286e+00 3.0084496978e+00 5.2107877286e+00 
257800 5.4510931694e+00 -1.1788089537e-04 3.0084516621e+00 -5.2107911308e+00 3.0084516621e+00 5.2107911308e+00 
257900 5.4510931691e+00 -1.1757562459e-04 3.0084536212e+00 -5.2107945242e+00 3.0084536212e+00 5.2107945242e+00 
258000 5.4510931689e+00 -1.1727114712e-04 3.0084555753e+00 -5.2107979088e+00 3.0084555753e+00 5.2107979088e+00 
258100 5.4510931687e+00 -1.1696746089e-04 3.0084575243e+00 -5.2108012846e+00 3.0084575243e+00 5.2108012846e+00 
258200 5.4510931684e+00 -1.1666456383e-04 3.0084594683e+00 -5.2108046516e+00 3.0084594683e+00 5.2108046516e+00 
258300 5.4510931682e+00 -1.1636245388e-04 3.0084614073e+00 -5.2108080100e+00 3.0084614073e+00 5.2108080100e+00 
258400 5.4510931680e+00 -1.1606112897e-04 3.0084633412e+00 -5.2108113596e+00 3.0084633412e+00 5.2108113596e+00 
258500 5.4510931678e+00 -1.1576058706e-04 3.0084652701e+00 -5.2108147006e+00 3.0084652701e+00 5.2108147006e+00 
258600 5.4510931676e+00 -1.1546082609e-04 3.0084671940e+00 -5.2108180329e+00 3.0084671940e+00 5.2108180329e+00 
258700 5.4510931673e+00 -1.1516184402e-04 3.0084691129e+00 -5.2108213566e+00 3.0084691129e+00 5.2108213566e+00 
258800 5.4510931671e+00 -1.1486363881e-04 3.0084710269e+00 -5.2108246717e+00 3.0084710269e+00 5.2108246717e+00 
258900 5.4510931669e+00 -1.1456620843e-04 3.0084729359e+00 -5.2108279782e+00 3.0084729359e+00 5.2108279782e+00 
259000 5.4510931667e+00 -1.1426955086e-04 3.0084748400e+00 -5.2108312761e+00 3.0084748400e+00 5.2108312761e+00 
259100 5.4510931665e+00 -1.1397366406e-04 3.0084767391e+00 -5.2108345655e+00 3.0084767391e+00 5.2108345655e+00 
259200 5.4510931662e+00 -1.1367854604e-04 3.0084786333e+00 -5.2108378464e+00 3.0084786333e+00 5.2108378464e+00 
259300 5.4510931660e+00 -1.1338419477e-04 3.0084805226e+00 -5.2108411187e+00 3.0084805226e+00 5.2108411187e+00 
259400 5.4510931658e+00 -1.1309060824e-04 3.0084824070e+00 -5.2108443826e+00 3.0084824070e+00 5.2108443826e+00 
259500 5.4510931656e+00 -1.1279778447e-04 3.0084842865e+00 -5.2108476381e+00 3.0084842865e+00 5.2108476381e+00 
259600 5.4510931654e+00 -1.1250572145e-04 3.0084861612e+00 -5.2108508851e+00 3.0084861612e+00 5.2108508851e+00 
259700 5.4510931652e+00 -1.1221441720e-04 3.0084880310e+00 -5.2108541237e+00 3.0084880310e+00 5.2108541237e+00 
259800 5.4510931650e+00 -1.1192386972e-04 3.0084898960e+00 -5.2108573539e+00 3.0084898960e+00 5.2108573539e+00 
259900 5.4510931648e+00 -1.1163407705e-04 3.0084917561e+00 -5.2108605757e+00 3.0084917561e+00 5.2108605757e+00 
260000 5.4510931646e+00 -1.1134503721e-04 3.0084936114e+00 -5.2108637892e+00 3.0084936114e+00 5.2108637892e+00 
260100 5.4510931644e+00 -1.1105674822e-04 3.0084954619e+00 -5.2108669944e+00 3.0084954619e+00 5.2108669944e+00 
260200 5.4510931642e+00 -1.1076920813e-04 3.0084973077e+00 -5.2108701913e+00 3.0084973077e+00 5.2108701913e+00 
260300 5.4510931640e+00 -1.1048241498e-04 3.0084991486e+00 -5.2108733799e+00 3.0084991486e+00 5.2108733799e+00 
260400 5.4510931638e+00 -1.1019636681e-04 3.0085009848e+00 -5.2108765602e+00 3.0085009848e+00 5.2108765602e+00 
260500 5.4510931636e+00 -1.0991106168e-04 3.0085028162e+00 -5.2108797323e+00 3.0085028162e+00 5.2108797323e+00 
260600 5.4510931634e+00 -1.0962649764e-04 3.0085046429e+00 -5.2108828962e+00 3.0085046429e+00 5.2108828962e+00 
260700 5.4510931632e+00 -1.0934267275e-04 3.0085064648e+00 -5.2108860519e+00 3.0085064648e+00 5.2108860519e+00 
260800 5.4510931630e+00 -1.0905958510e-04 3.0085082820e+00 -5.2108891995e+00 3.0085082820e+00 5.2108891995e+00 
260900 5.4510931628e+00 -1.0877723274e-04 3.0085100945e+00 -5.2108923388e+00 3.0085100945e+00 5.2108923388e+00 
261000 5.4510931626e+00 -1.0849561375e-04 3.0085119024e+00 -5.2108954701e+00 3.0085119024e+00 5.2108954701e+00 
261100 5.4510931624e+00 -1.0821472622e-04 3.0085137055e+00 -5.2108985932e+00 3.0085137055e+00 5.2108985932e+00 
261200 5.4510931622e+00 -1.0793456823e-04 3.0085155040e+00 -5.2109017083e+00 3.0085155040e+00 5.2109017083e+00 
261300 5.4510931620e+00 -1.0765513789e-04 3.0085172978e+00 -5.2109048153e+00 3.0085172978e+00 5.2109048153e+00 
261400 5.4510931618e+00 -1.0737643328e-04 3.0085190870e+00 -5.2109079142e+00 3.0085190870e+00 5.2109079142e+00 
261500 5.4510931616e+00 -1.0709845251e-04 3.0085208715e+00 -5.2109110051e+00 3.0085208715e+00 5.2109110051e+00 
261600 5.4510931614e+00 -1.0682119369e-04 3.0085226514e+00 -5.2109140880e+00 3.0085226514e+00 5.2109140880e+00 
261700 5.4510931612e+00 -1.0654465492e-04 3.0085244268e+00 -5.2109171629e+00 3.0085244268e+00 5.2109171629e+00 
261800 5.4510931610e+00 -1.0626883434e-04 3.0085261975e+00 -5.2109202299e+00 3.0085261975e+00 5.2109202299e+00 
261900 5.4510931608e+00 -1.0599373006e-04 3.0085279636e+00 -5.2109232889e+00 3.0085279636e+00 5.2109232889e+00 
262000 5.4510931607e+00 -1.0571934021e-04 3.0085297251e+00 -5.2109263400e+00 3.0085297251e+00 5.2109263400e+00 
262100 5.4510931605e+00 -1.0544566293e-04 3.0085314821e+00 -5.2109293832e+00 3.0085314821e+00 5.2109293832e+00 
262200 5.4510931603e+00 -1.0517269634e-04 3.0085332346e+00 -5.2109324186e+00 3.0085332346e+00 5.2109324186e+00 
262300 5.4510931601e+00 -1.0490043860e-04 3.0085349825e+00 -5.2109354460e+00 3.0085349825e+00 5.2109354460e+00 
262400 5.4510931599e+00 -1.0462888785e-04 3.0085367259e+00 -5.2109384656e+00 3.0085367259e+00 5.2109384656e+00 
262500 5.4510931597e+00 -1.0435804225e-04 3.0085384647e+00 -5.2109414775e+00 3.0085384647e+00 5.2109414775e+00 
262600 5.4510931596e+00 -1.0408789994e-04 3.0085401991e+00 -5.2109444815e+00 3.0085401991e+00 5.2109444815e+00 
262700 5.4510931594e+00 -1.0381845911e-04 3.0085419290e+00 -5.2109474777e+00 3.0085419290e+00 5.2109474777e+00 
262800 5.4510931592e+00 -1.0354971790e-04 3.0085436544e+00 -5.2109504662e+00 3.0085436544e+00 5.2109504662e+00 
262900 5.4510931590e+00 -1.0328167450e-04 3.0085453753e+00 -5.2109534469e+00 3.0085453753e+00 5.2109534469e+00 
263000 5.4510931589e+00 -1.0301432708e-04 3.0085470918e+00 -5.2109564199e+00 3.0085470918e+00 5.2109564199e+00 
263100 5.4510931587e+00 -1.0274767382e-04 3.0085488038e+00 -5.2109593852e+00 3.0085488038e+00 5.2109593852e+00 
263200 5.4510931585e+00 -1.0248171292e-04 3.0085505114e+00 -5.2109623429e+00 3.0085505114e+00 5.2109623429e+00 
263300 5.4510931583e+00 -1.0221644255e-04 3.0085522146e+00 -5.2109652929e+00 3.0085522146e+00 5.2109652929e+00 
263400 5.4510931582e+00 -1.0195186092e-04 3.0085539133e+00 -5.2109682352e+00 3.0085539133e+00 5.2109682352e+00 
263500 5.4510931580e+00 -1.0168796623e-04 3.0085556077e+00 -5.2109711699e+00 3.0085556077e+00 5.2109711699e+00 
263600 5.4510931578e+00 -1.0142475669e-04 3.0085572977e+00 -5.2109740971e+00 3.0085572977e+00 5.2109740971e+00 
263700 5.4510931576e+00 -1.0116223050e-04 3.0085589833e+00 -5.2109770166e+00 3.0085589833e+00 5.2109770166e+00 
263800 5.4510931575e+00 -1.0090038588e-04 3.0085606645e+00 -5.2109799286e+00 3.0085606645e+00 5.2109799286e+00 
263900 5.4510931573e+00 -1.0063922105e-04 3.0085623414e+00 -5.2109828331e+00 3.0085623414e+00 5.2109828331e+00 
264000 5.4510931571e+00 -1.0037873423e-04 3.0085640140e+00 -5.2109857300e+00 3.0085640140e+00 5.2109857300e+00 
264100 5.4510931570e+00 -1.0011892366e-04 3.0085656822e+00 -5.2109886194e+00 3.0085656822e+00 5.2109886194e+00 
264200 5.4510931568e+00 -9.9859787560e-05 3.0085673461e+00 -5.2109915014e+00 3.0085673461e+00 5.2109915014e+00 
264300 5.4510931566e+00 -9.9601324181e-05 3.0085690057e+00 -5.2109943759e+00 3.0085690057e+00 5.2109943759e+00 
264400 5.4510931565e+00 -9.9343531761e-05 3.0085706610e+00 -5.2109972429e+00 3.0085706610e+00 5.2109972429e+00 
264500 5.4510931563e+00 -9.9086408549e-05 3.0085723120e+00 -5.2110001026e+00 3.0085723120e+00 5.2110001026e+00 
264600 5.4510931562e+00 -9.8829952796e-05 3.0085739587e+00 -5.2110029548e+00 3.0085739587e+00 5.2110029548e+00 
264700 5.4510931560e+00 -9.8574162763e-05 3.0085756012e+00 -5.2110057997e+00 3.0085756012e+00 5.2110057997e+00 
264800 5.4510931558e+00 -9.8319036708e-05 3.0085772394e+00 -5.2110086371e+00 3.0085772394e+00 5.2110086371e+00 
264900 5.4510931557e+00 -9.8064572898e-05 3.0085788734e+00 -5.2110114673e+00 3.0085788734e+00 5.2110114673e+00 
265000 5.4510931555e+00 -9.7810769605e-05 3.0085805031e+00 -5.2110142901e+00 3.0085805031e+00 5.2110142901e+00 
265100 5.4510931554e+00 -9.7557625104e-05 3.0085821287e+00 -5.2110171056e+00 3.0085821287e+00 5.2110171056e+00 
265200 5.4510931552e+00 -9.7305137676e-05 3.0085837500e+00 -5.2110199138e+00 3.0085837500e+00 5.2110199138e+00 
265300 5.4510931550e+00 -9.7053305604e-05 3.0085853671e+00 -5.2110227147e+00 3.0085853671e+00 5.2110227147e+00 
265400 5.4510931549e+00 -9.6802127178e-05 3.0085869800e+00 -5.2110255084e+00 3.0085869800e+00 5.2110255084e+00 
265500 5.4510931547e+00 -9.6551600692e-05 3.0085885888e+00 -5.2110282949e+00 3.0085885888e+00 5.2110282949e+00 
265600 5.4510931546e+00 -9.6301724443e-05 3.0085901934e+00 -5.2110310741e+00 3.0085901934e+00 5.2110310741e+00 
265700 5.4510931544e+00 -9.6052496736e-05 3.0085917939e+00 -5.2110338462e+00 3.0085917939e+00 5.2110338462e+00 
265800 5.4510931543e+00 -9.5803915875e-05 3.0085933902e+00 -5.2110366111e+00 3.0085933902e+00 5.2110366111e+00 
265900 5.4510931541e+00 -9.5555980173e-05 3.0085949823e+00 -5.2110393688e+00 3.0085949823e+00 5.2110393688e+00 
266000 5.4510931540e+00 -9.5308687948e-05 3.0085965704e+00 -5.2110421194e+00 3.0085965704e+00 5.2110421194e+00 
266100 5.4510931538e+00 -9.5062037519e-05 3.0085981543e+00 -5.2110448628e+00 3.0085981543e+00 5.2110448628e+00 
266200 5.4510931537e+00 -9.4816027209e-05 3.0085997342e+00 -5.2110475992e+00 3.0085997342e+00 5.2110475992e+00 
266300 5.4510931535e+00 -9.4570655350e-05 3.0086013099e+00 -5.2110503285e+00 3.0086013099e+00 5.2110503285e+00 
266400 5.4510931534e+00 -9.4325920275e-05 3.0086028816e+00 -5.2110530507e+00 3.0086028816e+00 5.2110530507e+00 
266500 5.4510931532e+00 -9.4081820322e-05 3.0086044492e+00 -5.2110557659e+00 3.0086044492e+00 5.2110557659e+00 
266600 5.4510931531e+00 -9.3838353834e-05 3.0086060127e+00 -5.2110584740e+00 3.0086060127e+00 5.2110584740e+00 
266700 5.4510931529e+00 -9.3595519159e-05 3.0086075722e+00 -5.2110611751e+00 3.0086075722e+00 5.2110611751e+00 
266800 5.4510931528e+00 -9.3353314645e-05 3.0086091277e+00 -5.2110638693e+00 3.0086091277e+00 5.2110638693e+00 
266900 5.4510931526e+00 -9.3111738650e-05 3.0086106791e+00 -5.2110665564e+00 3.0086106791e+00 5.2110665564e+00 
267000 5.4510931525e+00 -9.2870789534e-05 3.0086122265e+00 -5.2110692367e+00 3.0086122265e+00 5.2110692367e+00 
267100 5.4510931524e+00 -9.2630465660e-05 3.0086137700e+00 -5.2110719099e+00 3.0086137700e+00 5.2110719099e+00 
267200 5.4510931522e+00 -9.2390765399e-05 3.0086153094e+00 -5.2110745763e+00 3.0086153094e+00 5.2110745763e+00 
267300 5.4510931521e+00 -9.2151687121e-05 3.0086168448e+00 -5.2110772357e+00 3.0086168448e+00 5.2110772357e+00 
267400 5.4510931519e+00 -9.1913229206e-05 3.0086183763e+00 -5.2110798883e+00 3.0086183763e+00 5.2110798883e+00 
267500 5.4510931518e+00 -9.1675390033e-05 3.0086199038e+00 -5.2110825340e+00 3.0086199038e+00 5.2110825340e+00 
267600 5.4510931517e+00 -9.1438167990e-05 3.0086214273e+00 -5.2110851729e+00 3.0086214273e+00 5.2110851729e+00 
267700 5.4510931515e+00 -9.1201561465e-05 3.0086229469e+00 -5.2110878049e+00 3.0086229469e+00 5.2110878049e+00 
267800 5.4510931514e+00 -9.0965568854e-05 3.0086244626e+00 -5.2110904301e+00 3.0086244626e+00 5.2110904301e+00 
267900 5.4510931512e+00 -9.0730188554e-05 3.0086259743e+00 -5.2110930485e+00 3.0086259743e+00 5.2110930485e+00 
268000 5.4510931511e+00 -9.0495418969e-05 3.0086274822e+00 -5.2110956602e+00 3.0086274822e+00 5.2110956602e+00 
268100 5.4510931510e+00 -9.0261258505e-05 3.0086289861e+00 -5.2110982651e+00 3.0086289861e+00 5.2110982651e+00 
268200 5.4510931508e+00 -9.0027705574e-05 3.0086304862e+00 -5.2111008632e+00 3.0086304862e+00 5.2111008632e+00 
268300 5.4510931507e+00 -8.9794758591e-05 3.0086319823e+00 -5.2111034546e+00 3.0086319823e+00 5.2111034546e+00 
268400 5.4510931506e+00 -8.9562415974e-05 3.0086334746e+00 -5.2111060394e+00 3.0086334746e+00 5.2111060394e+00 
268500 5.4510931504e+00 -8.9330676150e-05 3.0086349630e+00 -5.2111086174e+00 3.0086349630e+00 5.2111086174e+00 
268600 5.4510931503e+00 -8.9099537543e-05 3.0086364476e+00 -5.2111111887e+00 3.0086364476e+00 5.2111111887e+00 
268700 5.4510931502e+00 -8.8868998586e-05 3.0086379283e+00 -5.2111137534e+00 3.0086379283e+00 5.2111137534e+00 
268800 5.4510931500e+00 -8.8639057718e-05 3.0086394052e+00 -5.2111163115e+00 3.0086394052e+00 5.2111163115e+00 
268900 5.4510931499e+00 -8.8409713376e-05 3.0086408783e+00 -5.2111188629e+00 3.0086408783e+00 5.2111188629e+00 
269000 5.4510931498e+00 -8.8180964006e-05 3.0086423476e+00 -5.2111214078e+00 3.0086423476e+00 5.2111214078e+00 
269100 5.4510931497e+00 -8.7952808056e-05 3.0086438130e+00 -5.2111239460e+00 3.0086438130e+00 5.2111239460e+00 
269200 5.4510931495e+00 -8.7725243978e-05 3.0086452747e+00 -5.2111264777e+00 3.0086452747e+00 5.2111264777e+00 
269300 5.4510931494e+00 -8.7498270228e-05 3.0086467326e+00 -5.2111290028e+00 3.0086467326e+00 5.2111290028e+00 
269400 5.4510931493e+00 -8.7271885269e-05 3.0086481867e+00 -5.2111315214e+00 3.0086481867e+00 5.2111315214e+00 
269500 5.4510931491e+00 -8.7046087564e-05 3.0086496370e+00 -5.2111340335e+00 3.0086496370e+00 5.2111340335e+00 
269600 5.4510931490e+00 -8.6820875580e-05 3.0086510836e+00 -5.2111365391e+00 3.0086510836e+00 5.2111365391e+00 
269700 5.4510931489e+00 -8.6596247794e-05 3.0086525265e+00 -5.2111390382e+00 3.0086525265e+00 5.2111390382e+00 
269800 5.4510931488e+00 -8.6372202680e-05 3.0086539656e+00 -5.2111415308e+00 3.0086539656e+00 5.2111415308e+00 
269900 5.4510931487e+00 -8.6148738720e-05 3.0086554010e+00 -5.2111440170e+00 3.0086554010e+00 5.2111440170e+00 
270000 5.4510931485e+00 -8.5925854398e-05 3.0086568327e+00 -5.2111464968e+00 3.0086568327e+00 5.2111464968e+00 
270100 5.4510931484e+00 -8.5703548204e-05 3.0086582607e+00 -5.2111489701e+00 3.0086582607e+00 5.2111489701e+00 
270200 5.4510931483e+00 -8.5481818628e-05 3.0086596849e+00 -5.2111514370e+00 3.0086596849e+00 5.2111514370e+00 
270300 5.4510931482e+00 -8.5260664170e-05 3.0086611055e+00 -5.2111538976e+00 3.0086611055e+00 5.2111538976e+00 
270400 5.4510931480e+00 -8.5040083327e-05 3.0086625225e+00 -5.2111563517e+00 3.0086625225e+00 5.2111563517e+00 
270500 5.4510931479e+00 -8.4820074609e-05 3.0086639357e+00 -5.2111587996e+00 3.0086639357e+00 5.2111587996e+00 
270600 5.4510931478e+00 -8.4600636520e-05 3.0086653453e+00 -5.2111612411e+00 3.0086653453e+00 5.2111612411e+00 
270700 5.4510931477e+00 -8.4381767575e-05 3.0086667513e+00 -5.2111636762e+00 3.0086667513e+00 5.2111636762e+00 
270800 5.4510931476e+00 -8.4163466289e-05 3.0086681536e+00 -5.2111661051e+00 3.0086681536e+00 5.2111661051e+00 
270900 5.4510931475e+00 -8.3945731184e-05 3.0086695523e+00 -5.2111685277e+00 3.0086695523e+00 5.2111685277e+00 
271000 5.4510931473e+00 -8.3728560782e-05 3.0086709473e+00 -5.2111709440e+00 3.0086709473e+00 5.2111709440e+00 
271100 5.4510931472e+00 -8.3511953612e-05 3.0086723388e+00 -5.2111733541e+00 3.0086723388e+00 5.2111733541e+00 
271200 5.4510931471e+00 -8.3295908207e-05 3.0086737266e+00 -5.2111757579e+00 3.0086737266e+00 5.2111757579e+00 
271300 5.4510931470e+00 -8.3080423102e-05 3.0086751109e+00 -5.2111781555e+00 3.0086751109e+00 5.2111781555e+00 
271400 5.4510931469e+00 -8.2865496838e-05 3.0086764916e+00 -5.2111805469e+00 3.0086764916e+00 5.2111805469e+00 
271500 5.4510931468e+00 -8.2651127956e-05 3.0086778687e+00 -5.2111829322e+00 3.0086778687e+00 5.2111829322e+00 
271600 5.4510931466e+00 -8.2437315006e-05 3.0086792422e+00 -5.2111853112e+00 3.0086792422e+00 5.2111853112e+00 
271700 5.4510931465e+00 -8.2224056538e-05 3.0086806122e+00 -5.2111876841e+00 3.0086806122e+00 5.2111876841e+00 
271800 5.4510931464e+00 -8.2011351106e-05 3.0086819787e+00 -5.2111900509e+00 3.0086819787e+00 5.2111900509e+00 
271900 5.4510931463e+00 -8.1799197271e-05 3.0086833416e+00 -5.2111924115e+00 3.0086833416e+00 5.2111924115e+00 
272000 5.4510931462e+00 -8.1587593594e-05 3.0086847010e+00 -5.2111947660e+00 3.0086847010e+00 5.2111947660e+00 
272100 5.4510931461e+00 -8.1376538642e-05 3.0086860568e+00 -5.2111971145e+00 3.0086860568e+00 5.2111971145e+00 
272200 5.4510931460e+00 -8.1166030984e-05 3.0086874092e+00 -5.2111994568e+00 3.0086874092e+00 5.2111994568e+00 
272300 5.4510931459e+00 -8.0956069197e-05 3.0086887581e+00 -5.2112017931e+00 3.0086887581e+00 5.2112017931e+00 
272400 5.4510931458e+00 -8.0746651855e-05 3.0086901034e+00 -5.2112041234e+00 3.0086901034e+00 5.2112041234e+00 
272500 5.4510931457e+00 -8.0537777543e-05 3.0086914453e+00 -5.2112064476e+00 3.0086914453e+00 5.2112064476e+00 
272600 5.4510931456e+00 -8.0329444845e-05 3.0086927837e+00 -5.2112087658e+00 3.0086927837e+00 5.2112087658e+00 
272700 5.4510931454e+00 -8.0121652348e-05 3.0086941187e+00 -5.2112110780e+00 3.0086941187e+00 5.2112110780e+00 
272800 5.4510931453e+00 -7.9914398646e-05 3.0086954502e+00 -5.2112133842e+00 3.0086954502e+00 5.2112133842e+00 
272900 5.4510931452e+00 -7.9707682334e-05 3.0086967783e+00 -5.2112156845e+00 3.0086967783e+00 5.2112156845e+00 
273000 5.4510931451e+00 -7.9501502014e-05 3.0086981029e+00 -5.2112179788e+00 3.0086981029e+00 5.2112179788e+00 
273100 5.4510931450e+00 -7.9295856289e-05 3.0086994241e+00 -5.2112202672e+00 3.0086994241e+00 5.2112202672e+00 
273200 5.4510931449e+00 -7.9090743766e-05 3.0087007418e+00 -5.2112225496e+00 3.0087007418e+00 5.2112225496e+00 
273300 5.4510931448e+00 -7.8886163056e-05 3.0087020562e+00 -5.2112248262e+00 3.0087020562e+00 5.2112248262e+00 
273400 5.4510931447e+00 -7.8682112774e-05 3.0087033672e+00 -5.2112270969e+00 3.0087033672e+00 5.2112270969e+00 
273500 5.4510931446e+00 -7.8478591539e-05 3.0087046748e+00 -5.2112293616e+00 3.0087046748e+00 5.2112293616e+00 
273600 5.4510931445e+00 -7.8275597971e-05 3.0087059789e+00 -5.2112316206e+00 3.0087059789e+00 5.2112316206e+00 
273700 5.4510931444e+00 -7.8073130696e-05 3.0087072798e+00 -5.2112338737e+00 3.0087072798e+00 5.2112338737e+00 
273800 5.4510931443e+00 -7.7871188345e-05 3.0087085772e+00 -5.2112361209e+00 3.0087085772e+00 5.2112361209e+00 
273900 5.4510931442e+00 -7.7669769548e-05 3.0087098713e+00 -5.2112383624e+00 3.0087098713e+00 5.2112383624e+00 
274000 5.4510931441e+00 -7.7468872944e-05 3.0087111621e+00 -5.2112405980e+00 3.0087111621e+00 5.2112405980e+00 
274100 5.4510931440e+00 -7.7268497171e-05 3.0087124495e+00 -5.2112428279e+00 3.0087124495e+00 5.2112428279e+00 
274200 5.4510931439e+00 -7.7068640873e-05 3.0087137336e+00 -5.2112450519e+00 3.0087137336e+00 5.2112450519e+00 
274300 5.4510931438e+00 -7.6869302698e-05 3.0087150143e+00 -5.2112472703e+00 3.0087150143e+00 5.2112472703e+00 
274400 5.4510931437e+00 -7.6670481296e-05 3.0087162918e+00 -5.2112494829e+00 3.0087162918e+00 5.2112494829e+00 
274500 5.4510931436e+00 -7.6468224783e-05 3.0087175659e+00 -5.2112516898e+00 3.0087175659e+00 5.2112516898e+00 
274600 5.4510931435e+00 -7.6219252818e-05 3.0087188367e+00 -5.2112538908e+00 3.0087188367e+00 5.2112538908e+00 
274700 5.4510931434e+00 -7.5967043029e-05 3.0087201033e+00 -5.2112560847e+00 3.0087201033e+00 5.2112560847e+00 
274800 5.4510931434e+00 -7.5719471439e-05 3.0087213658e+00 -5.2112582713e+00 3.0087213658e+00 5.2112582713e+00 
274900 5.4510931433e+00 -7.5468771137e-05 3.0087226241e+00 -5.2112604508e+00 3.0087226241e+00 5.2112604508e+00 
275000 5.4510931432e+00 -7.5218872993e-05 3.0087238783e+00 -5.2112626231e+00 3.0087238783e+00 5.2112626231e+00 
275100 5.4510931431e+00 -7.4965943438e-05 3.0087251283e+00 -5.2112647882e+00 3.0087251283e+00 5.2112647882e+00 
275200 5.4510931430e+00 -7.4717729566e-05 3.0087263741e+00 -5.2112669460e+00 3.0087263741e+00 5.2112669460e+00 
275300 5.4510931429e+00 -7.4470397306e-05 3.0087276158e+00 -5.2112690966e+00 3.0087276158e+00 5.2112690966e+00 
275400 5.4510931428e+00 -7.4220136319e-05 3.0087288533e+00 -5.2112712402e+00 3.0087288533e+00 5.2112712402e+00 
275500 5.4510931428e+00 -7.3970798142e-05 3.0087300868e+00 -5.2112733765e+00 3.0087300868e+00 5.2112733765e+00 
275600 5.4510931427e+00 -7.3726209234e-05 3.0087313160e+00 -5.2112755057e+00 3.0087313160e+00 5.2112755057e+00 
275700 5.4510931426e+00 -7.3478770878e-05 3.0087325412e+00 -5.2112776278e+00 3.0087325412e+00 5.2112776278e+00 
275800 5.4510931425e+00 -7.3228505790e-05 3.0087337623e+00 -5.2112797428e+00 3.0087337623e+00 5.2112797428e+00 
275900 5.4510931424e+00 -7.2983003171e-05 3.0087349793e+00 -5.2112818506e+00 3.0087349793e+00 5.2112818506e+00 
276000 5.4510931423e+00 -7.2738491620e-05 3.0087361921e+00 -5.2112839513e+00 3.0087361921e+00 5.2112839513e+00 
276100 5.4510931423e+00 -7.2491212518e-05 3.0087374009e+00 -5.2112860450e+00 3.0087374009e+00 5.2112860450e+00 
276200 5.4510931422e+00 -7.2248701714e-05 3.0087386056e+00 -5.2112881315e+00 3.0087386056e+00 5.2112881315e+00 
276300 5.4510931421e+00 -7.2003455769e-05 3.0087398062e+00 -5.2112902111e+00 3.0087398062e+00 5.2112902111e+00 
276400 5.4510931420e+00 -7.1759232945e-05 3.0087410028e+00 -5.2112922836e+00 3.0087410028e+00 5.2112922836e+00 
276500 5.4510931420e+00 -7.1516041037e-05 3.0087421953e+00 -5.2112943491e+00 3.0087421953e+00 5.2112943491e+00 
276600 5.4510931419e+00 -7.1273886776e-05 3.0087433838e+00 -5.2112964076e+00 3.0087433838e+00 5.2112964076e+00 
276700 5.4510931418e+00 -7.1029049328e-05 3.0087445682e+00 -5.2112984592e+00 3.0087445682e+00 5.2112984592e+00 
276800 5.4510931417e+00 -7.0788979251e-05 3.0087457486e+00 -5.2113005036e+00 3.0087457486e+00 5.2113005036e+00 
276900 5.4510931416e+00 -7.0546250495e-05 3.0087469250e+00 -5.2113025412e+00 3.0087469250e+00 5.2113025412e+00 
276900 5.4510931416e+00 -7.0546250496e-05 3.0087469250e+00 -5.2113025412e+00 3.0087469250e+00 5.2113025412e+00 
