# step Hamiltonian StressXX CellTensor1 CellTensor2 CellTensor3 CellTensor4 
0 4.9818144711e+00 2.1843709075e-01 2.5594246509e+00 -4.4330535334e+00 2.5594246509e+00 4.4330535334e+00 
100 4.9686853229e+00 2.2735448061e-01 2.5594246509e+00 -4.4330535334e+00 2.5594246509e+00 4.4330535334e+00 
200 4.9584489168e+00 2.3542295186e-01 2.5549844223e+00 -4.4253628319e+00 2.5549844223e+00 4.4253628319e+00 
300 4.9515819038e+00 2.4330256011e-01 2.5503786785e+00 -4.4173854497e+00 2.5503786785e+00 4.4173854497e+00 
400 4.9477235225e+00 2.5089784533e-01 2.5456102381e+00 -4.4091262686e+00 2.5456102381e+00 4.4091262686e+00 
500 4.9463753812e+00 2.5793796093e-01 2.5406837821e+00 -4.4005933965e+00 2.5406837821e+00 4.4005933965e+00 
600 4.9468690272e+00 2.6390334588e-01 2.5356093234e+00 -4.3918041762e+00 2.5356093234e+00 4.3918041762e+00 
700 4.9483399331e+00 2.6796776652e-01 2.5304071637e+00 -4.3827937714e+00 2.5304071637e+00 4.3827937714e+00 
800 4.9497425190e+00 2.6903281637e-01 2.5251140607e+00 -4.3736258481e+00 2.5251140607e+00 4.3736258481e+00 
900 4.9499637168e+00 2.6598025265e-01 2.5197887959e+00 -4.3644022188e+00 2.5197887959e+00 4.3644022188e+00 
1000 4.9480732923e+00 2.5820239504e-01 2.5145128139e+00 -4.3552639500e+00 2.5145128139e+00 4.3552639500e+00 
1100 4.9436322775e+00 2.4616577842e-01 2.5093803217e+00 -4.3463742127e+00 2.5093803217e+00 4.3463742127e+00 
1200 4.9368360597e+00 2.3145810053e-01 2.5044770110e+00 -4.3378814295e+00 2.5044770110e+00 4.3378814295e+00 
1300 4.9283363874e+00 2.1609139480e-01 2.4998575477e+00 -4.3298802843e+00 2.4998575477e+00 4.3298802843e+00 
1400 4.9188837258e+00 2.0162474678e-01 2.4955367211e+00 -4.3223963931e+00 2.4955367211e+00 4.3223963931e+00 
1500 4.9090658798e+00 1.8878941772e-01 2.4914981057e+00 -4.3154013060e+00 2.4914981057e+00 4.3154013060e+00 
1600 4.8992434174e+00 1.7765391918e-01 2.4877103947e+00 -4.3088407981e+00 2.4877103947e+00 4.3088407981e+00 
1700 4.8896014079e+00 1.6796059884e-01 2.4841406190e+00 -4.3026577653e+00 2.4841406190e+00 4.3026577653e+00 
1800 4.8802210862e+00 1.5937526829e-01 2.4807607288e+00 -4.2968036237e+00 2.4807607288e+00 4.2968036237e+00 
1900 4.8711311272e+00 1.5160502901e-01 2.4775491972e+00 -4.2912410878e+00 2.4775491972e+00 4.2912410878e+00 
2000 4.8623361588e+00 1.4443050425e-01 2.4744902511e+00 -4.2859428378e+00 2.4744902511e+00 4.2859428378e+00 
2100 4.8538306419e+00 1.3770025872e-01 2.4715724364e+00 -4.2808890345e+00 2.4715724364e+00 4.2808890345e+00 
2200 4.8456051397e+00 1.3131445313e-01 2.4687872791e+00 -4.2760650005e+00 2.4687872791e+00 4.2760650005e+00 
2300 4.8376490275e+00 1.2520892870e-01 2.4661282640e+00 -4.2714594513e+00 2.4661282640e+00 4.2714594513e+00 
2400 4.8299516290e+00 1.1934293236e-01 2.4635901271e+00 -4.2670632691e+00 2.4635901271e+00 4.2670632691e+00 
2500 4.8225026726e+00 1.1369056460e-01 2.4611683899e+00 -4.2628686972e+00 2.4611683899e+00 4.2628686972e+00 
2600 4.8152924552e+00 1.0823513600e-01 2.4588590646e+00 -4.2588688286e+00 2.4588590646e+00 4.2588688286e+00 
2700 4.8083118783e+00 1.0296556265e-01 2.4566584714e+00 -4.2550572892e+00 2.4566584714e+00 4.2550572892e+00 
2800 4.8015524287e+00 9.7874112370e-02 2.4545631270e+00 -4.2514280463e+00 2.4545631270e+00 4.2514280463e+00 
2900 4.7950061361e+00 9.2955017446e-02 2.4525696795e+00 -4.2479752940e+00 2.4525696795e+00 4.2479752940e+00 
3000 4.7886655214e+00 8.8203632165e-02 2.4506748702e+00 -4.2446933880e+00 2.4506748702e+00 4.2446933880e+00 
3100 4.7825235442e+00 8.3615927933e-02 2.4488755122e+00 -4.2415768085e+00 2.4488755122e+00 4.2415768085e+00 
3200 4.7765735527e+00 7.9188195612e-02 2.4471684796e+00 -4.2386201414e+00 2.4471684796e+00 4.2386201414e+00 
3300 4.7708092376e+00 7.4916873922e-02 2.4455507025e+00 -4.2358180692e+00 2.4455507025e+00 4.2358180692e+00 
3400 4.7652245911e+00 7.0798453927e-02 2.4440191650e+00 -4.2331653685e+00 2.4440191650e+00 4.2331653685e+00 
3500 4.7598138712e+00 6.6829429021e-02 2.4425709060e+00 -4.2306569103e+00 2.4425709060e+00 4.2306569103e+00 
3600 4.7545715712e+00 6.3006271821e-02 2.4412030197e+00 -4.2282876617e+00 2.4412030197e+00 4.2282876617e+00 
3700 4.7494923934e+00 5.9325426704e-02 2.4399126576e+00 -4.2260526889e+00 2.4399126576e+00 4.2260526889e+00 
3800 4.7445712280e+00 5.5783311203e-02 2.4386970301e+00 -4.2239471604e+00 2.4386970301e+00 4.2239471604e+00 
3900 4.7398031347e+00 5.2376322207e-02 2.4375534081e+00 -4.2219663490e+00 2.4375534081e+00 4.2219663490e+00 
4000 4.7351833286e+00 4.9100844533e-02 2.4364791245e+00 -4.2201056353e+00 2.4364791245e+00 4.2201056353e+00 
4100 4.7307071681e+00 4.5953260458e-02 2.4354715752e+00 -4.2183605086e+00 2.4354715752e+00 4.2183605086e+00 
4200 4.7263701460e+00 4.2929959369e-02 2.4345282201e+00 -4.2167265696e+00 2.4345282201e+00 4.2167265696e+00 
4300 4.7221678816e+00 4.0027347069e-02 2.4336465838e+00 -4.2151995308e+00 2.4336465838e+00 4.2151995308e+00 
4400 4.7180961151e+00 3.7241854473e-02 2.4328242563e+00 -4.2137752177e+00 2.4328242563e+00 4.2137752177e+00 
4500 4.7141507031e+00 3.4569945580e-02 2.4320588927e+00 -4.2124495691e+00 2.4320588927e+00 4.2124495691e+00 
4600 4.7103276151e+00 3.2008124653e-02 2.4313482137e+00 -4.2112186371e+00 2.4313482137e+00 4.2112186371e+00 
4700 4.7066229305e+00 2.9552942610e-02 2.4306900053e+00 -4.2100785866e+00 2.4306900053e+00 4.2100785866e+00 
4800 4.7030328367e+00 2.7201002648e-02 2.4300821180e+00 -4.2090256949e+00 2.4300821180e+00 4.2090256949e+00 
4900 4.6995536272e+00 2.4948965125e-02 2.4295224670e+00 -4.2080563509e+00 2.4295224670e+00 4.2080563509e+00 
5000 4.6961816999e+00 2.2793551752e-02 2.4290090310e+00 -4.2071670537e+00 2.4290090310e+00 4.2071670537e+00 
5100 4.6929135560e+00 2.0731549137e-02 2.4285398516e+00 -4.2063544112e+00 2.4285398516e+00 4.2063544112e+00 
5200 4.6897457988e+00 1.8759811738e-02 2.4281130326e+00 -4.2056151389e+00 2.4281130326e+00 4.2056151389e+00 
5300 4.6866751323e+00 1.6875264255e-02 2.4277267385e+00 -4.2049460579e+00 2.4277267385e+00 4.2049460579e+00 
5400 4.6836983600e+00 1.5074903534e-02 2.4273791940e+00 -4.2043440932e+00 2.4273791940e+00 4.2043440932e+00 
5500 4.6808123837e+00 1.3355800008e-02 2.4270686825e+00 -4.2038062715e+00 2.4270686825e+00 4.2038062715e+00 
5600 4.6780142021e+00 1.1715098725e-02 2.4267935451e+00 -4.2033297196e+00 2.4267935451e+00 4.2033297196e+00 
5700 4.6753009093e+00 1.0150020010e-02 2.4265521792e+00 -4.2029116615e+00 2.4265521792e+00 4.2029116615e+00 
5800 4.6726696929e+00 8.6578597891e-03 2.4263430373e+00 -4.2025494172e+00 2.4263430373e+00 4.2025494172e+00 
5900 4.6701178329e+00 7.2359896210e-03 2.4261646257e+00 -4.2022403993e+00 2.4261646257e+00 4.2022403993e+00 
6000 4.6676426996e+00 5.8818564640e-03 2.4260155032e+00 -4.2019821115e+00 2.4260155032e+00 4.2019821115e+00 
6100 4.6652417514e+00 4.5929822113e-03 2.4258942796e+00 -4.2017721460e+00 2.4258942796e+00 4.2017721460e+00 
6200 4.6629125334e+00 3.3669630229e-03 2.4257996144e+00 -4.2016081812e+00 2.4257996144e+00 4.2016081812e+00 
6300 4.6606526749e+00 2.2014684806e-03 2.4257302157e+00 -4.2014879791e+00 2.4257302157e+00 4.2014879791e+00 
6400 4.6584598873e+00 1.0942405902e-03 2.4256848384e+00 -4.2014093833e+00 2.4256848384e+00 4.2014093833e+00 
6500 4.6563319620e+00 4.3092652113e-05 2.4256622832e+00 -4.2013703165e+00 2.4256622832e+00 4.2013703165e+00 
6600 4.6542667666e+00 -9.5387186047e-04 2.4256622832e+00 -4.2013703165e+00 2.4256622832e+00 4.2013703165e+00 
6700 4.6522622473e+00 -1.8991328050e-03 2.4256819453e+00 -4.2014043723e+00 2.4256819453e+00 4.2014043723e+00 
6800 4.6503164214e+00 -2.7944628196e-03 2.4257210918e+00 -4.2014721759e+00 2.4257210918e+00 4.2014721759e+00 
6900 4.6484273774e+00 -3.6417751735e-03 2.4257786927e+00 -4.2015719436e+00 2.4257786927e+00 4.2015719436e+00 
7000 4.6465932719e+00 -4.4429194112e-03 2.4258537571e+00 -4.2017019590e+00 2.4258537571e+00 4.2017019590e+00 
7100 4.6448123276e+00 -5.1996826793e-03 2.4259453320e+00 -4.2018605714e+00 2.4259453320e+00 4.2018605714e+00 
7200 4.6430828311e+00 -5.9137911711e-03 2.4260525010e+00 -4.2020461935e+00 2.4260525010e+00 4.2020461935e+00 
7300 4.6414031303e+00 -6.5869116452e-03 2.4261743829e+00 -4.2022572993e+00 2.4261743829e+00 4.2022572993e+00 
7400 4.6397716323e+00 -7.2206529866e-03 2.4263101311e+00 -4.2024924219e+00 2.4263101311e+00 4.2024924219e+00 
7500 4.6381868013e+00 -7.8165677909e-03 2.4264589316e+00 -4.2027501521e+00 2.4264589316e+00 4.2027501521e+00 
7600 4.6366471562e+00 -8.3761539564e-03 2.4266200029e+00 -4.2030291356e+00 2.4266200029e+00 4.2030291356e+00 
7700 4.6351512684e+00 -8.9008562736e-03 2.4267925938e+00 -4.2033280719e+00 2.4267925938e+00 4.2033280719e+00 
7800 4.6336977602e+00 -9.3920680056e-03 2.4269759834e+00 -4.2036457120e+00 2.4269759834e+00 4.2036457120e+00 
7900 4.6322853020e+00 -9.8511324519e-03 2.4271694792e+00 -4.2039808565e+00 2.4271694792e+00 4.2039808565e+00 
8000 4.6309126112e+00 -1.0279344493e-02 2.4273724166e+00 -4.2043323544e+00 2.4273724166e+00 4.2043323544e+00 
8100 4.6295784494e+00 -1.0677952108e-02 2.4275841578e+00 -4.2046991009e+00 2.4275841578e+00 4.2046991009e+00 
8200 4.6282816214e+00 -1.1048157872e-02 2.4278040907e+00 -4.2050800359e+00 2.4278040907e+00 4.2050800359e+00 
8300 4.6270209727e+00 -1.1391120415e-02 2.4280316282e+00 -4.2054741424e+00 2.4280316282e+00 4.2054741424e+00 
8400 4.6257953883e+00 -1.1707955858e-02 2.4282662072e+00 -4.2058804451e+00 2.4282662072e+00 4.2058804451e+00 
8500 4.6246037908e+00 -1.1999739213e-02 2.4285072876e+00 -4.2062980087e+00 2.4285072876e+00 4.2062980087e+00 
8600 4.6234451389e+00 -1.2267505750e-02 2.4287543518e+00 -4.2067259364e+00 2.4287543518e+00 4.2067259364e+00 
8700 4.6223184256e+00 -1.2512252331e-02 2.4290069034e+00 -4.2071633687e+00 2.4290069034e+00 4.2071633687e+00 
8800 4.6212226773e+00 -1.2734938708e-02 2.4292644670e+00 -4.2076094819e+00 2.4292644670e+00 4.2076094819e+00 
8900 4.6201569518e+00 -1.2936488786e-02 2.4295265868e+00 -4.2080634867e+00 2.4295265868e+00 4.2080634867e+00 
9000 4.6191203374e+00 -1.3117791855e-02 2.4297928265e+00 -4.2085246273e+00 2.4297928265e+00 4.2085246273e+00 
9100 4.6181119515e+00 -1.3279703782e-02 2.4300627679e+00 -4.2089921796e+00 2.4300627679e+00 4.2089921796e+00 
9200 4.6171309393e+00 -1.3423048168e-02 2.4303360109e+00 -4.2094654503e+00 2.4303360109e+00 4.2094654503e+00 
9300 4.6161764726e+00 -1.3548617477e-02 2.4306121723e+00 -4.2099437760e+00 2.4306121723e+00 4.2099437760e+00 
9400 4.6152477490e+00 -1.3657174126e-02 2.4308908856e+00 -4.2104265215e+00 2.4308908856e+00 4.2104265215e+00 
9500 4.6143439906e+00 -1.3749451542e-02 2.4311717998e+00 -4.2109130792e+00 2.4311717998e+00 4.2109130792e+00 
9600 4.6134644430e+00 -1.3826155186e-02 2.4314545795e+00 -4.2114028679e+00 2.4314545795e+00 4.2114028679e+00 
9700 4.6126083745e+00 -1.3887963549e-02 2.4317389036e+00 -4.2118953318e+00 2.4317389036e+00 4.2118953318e+00 
9800 4.6117750753e+00 -1.3935529109e-02 2.4320244654e+00 -4.2123899393e+00 2.4320244654e+00 4.2123899393e+00 
9900 4.6109638562e+00 -1.3969479266e-02 2.4323109716e+00 -4.2128861827e+00 2.4323109716e+00 4.2128861827e+00 
10000 4.6101740483e+00 -1.3990417240e-02 2.4325981420e+00 -4.2133835764e+00 2.4325981420e+00 4.2133835764e+00 
10100 4.6094050020e+00 -1.3998922945e-02 2.4328857089e+00 -4.2138816568e+00 2.4328857089e+00 4.2138816568e+00 
10200 4.6086560864e+00 -1.3995553829e-02 2.4331734166e+00 -4.2143799812e+00 2.4331734166e+00 4.2143799812e+00 
10300 4.6079266886e+00 -1.3980845692e-02 2.4334610210e+00 -4.2148781267e+00 2.4334610210e+00 4.2148781267e+00 
10400 4.6072162127e+00 -1.3955313475e-02 2.4337482893e+00 -4.2153756898e+00 2.4337482893e+00 4.2153756898e+00 
10500 4.6065240800e+00 -1.3919452024e-02 2.4340349990e+00 -4.2158722857e+00 2.4340349990e+00 4.2158722857e+00 
10600 4.6058497275e+00 -1.3873736823e-02 2.4343209383e+00 -4.2163675471e+00 2.4343209383e+00 4.2163675471e+00 
10700 4.6051926081e+00 -1.3818624716e-02 2.4346059050e+00 -4.2168611238e+00 2.4346059050e+00 4.2168611238e+00 
10800 4.6045521898e+00 -1.3754554590e-02 2.4348897064e+00 -4.2173526824e+00 2.4348897064e+00 4.2173526824e+00 
10900 4.6039279550e+00 -1.3681948044e-02 2.4351721591e+00 -4.2178419047e+00 2.4351721591e+00 4.2178419047e+00 
11000 4.6033194004e+00 -1.3601210038e-02 2.4354530881e+00 -4.2183284880e+00 2.4354530881e+00 4.2183284880e+00 
11100 4.6027260364e+00 -1.3512729511e-02 2.4357323271e+00 -4.2188121442e+00 2.4357323271e+00 4.2188121442e+00 
11200 4.6021473869e+00 -1.3416879991e-02 2.4360097177e+00 -4.2192925988e+00 2.4360097177e+00 4.2192925988e+00 
11300 4.6015829883e+00 -1.3314020172e-02 2.4362851093e+00 -4.2197695911e+00 2.4362851093e+00 4.2197695911e+00 
11400 4.6010323900e+00 -1.3204494482e-02 2.4365583587e+00 -4.2202428729e+00 2.4365583587e+00 4.2202428729e+00 
11500 4.6004951533e+00 -1.3088633628e-02 2.4368293299e+00 -4.2207122087e+00 2.4368293299e+00 4.2207122087e+00 
11600 4.5999708516e+00 -1.2966755124e-02 2.4370978935e+00 -4.2211773745e+00 2.4370978935e+00 4.2211773745e+00 
11700 4.5994590699e+00 -1.2839163800e-02 2.4373639269e+00 -4.2216381580e+00 2.4373639269e+00 4.2216381580e+00 
11800 4.5989594041e+00 -1.2706152293e-02 2.4376273138e+00 -4.2220943575e+00 2.4376273138e+00 4.2220943575e+00 
11900 4.5984714615e+00 -1.2568001531e-02 2.4378879439e+00 -4.2225457820e+00 2.4378879439e+00 4.2225457820e+00 
12000 4.5979948598e+00 -1.2424981187e-02 2.4381457126e+00 -4.2229922504e+00 2.4381457126e+00 4.2229922504e+00 
12100 4.5975292274e+00 -1.2277350129e-02 2.4384005209e+00 -4.2234335914e+00 2.4384005209e+00 4.2234335914e+00 
12200 4.5970742027e+00 -1.2125356849e-02 2.4386522753e+00 -4.2238696428e+00 2.4386522753e+00 4.2238696428e+00 
12300 4.5966294341e+00 -1.1969239883e-02 2.4389008873e+00 -4.2243002514e+00 2.4389008873e+00 4.2243002514e+00 
12400 4.5961945797e+00 -1.1809228210e-02 2.4391462732e+00 -4.2247252723e+00 2.4391462732e+00 4.2247252723e+00 
12500 4.5957693072e+00 -1.1645541645e-02 2.4393883543e+00 -4.2251445691e+00 2.4393883543e+00 4.2251445691e+00 
12600 4.5953532934e+00 -1.1478391213e-02 2.4396270562e+00 -4.2255580128e+00 2.4396270562e+00 4.2255580128e+00 
12700 4.5949462244e+00 -1.1307979515e-02 2.4398623089e+00 -4.2259654824e+00 2.4398623089e+00 4.2259654824e+00 
12800 4.5945477948e+00 -1.1134501079e-02 2.4400940465e+00 -4.2263668638e+00 2.4400940465e+00 4.2263668638e+00 
12900 4.5941577083e+00 -1.0958142698e-02 2.4403222073e+00 -4.2267620498e+00 2.4403222073e+00 4.2267620498e+00 
13000 4.5937756768e+00 -1.0779083762e-02 2.4405467332e+00 -4.2271509401e+00 2.4405467332e+00 4.2271509401e+00 
13100 4.5934014206e+00 -1.0597496570e-02 2.4407675699e+00 -4.2275334405e+00 2.4407675699e+00 4.2275334405e+00 
13200 4.5930346681e+00 -1.0413546641e-02 2.4409846666e+00 -4.2279094631e+00 2.4409846666e+00 4.2279094631e+00 
13300 4.5926751556e+00 -1.0227393006e-02 2.4411979760e+00 -4.2282789258e+00 2.4411979760e+00 4.2282789258e+00 
13400 4.5923226273e+00 -1.0039188493e-02 2.4414074539e+00 -4.2286417521e+00 2.4414074539e+00 4.2286417521e+00 
13500 4.5919768347e+00 -9.8490800056e-03 2.4416130592e+00 -4.2289978710e+00 2.4416130592e+00 4.2289978710e+00 
13600 4.5916375372e+00 -9.6572087832e-03 2.4418147541e+00 -4.2293472167e+00 2.4418147541e+00 4.2293472167e+00 
13700 4.5913045010e+00 -9.4637106604e-03 2.4420125033e+00 -4.2296897284e+00 2.4420125033e+00 4.2296897284e+00 
13800 4.5909774997e+00 -9.2687163117e-03 2.4422062745e+00 -4.2300253501e+00 2.4422062745e+00 4.2300253501e+00 
13900 4.5906563139e+00 -9.0723514895e-03 2.4423960381e+00 -4.2303540302e+00 2.4423960381e+00 4.2303540302e+00 
14000 4.5903407308e+00 -8.8747372522e-03 2.4425817669e+00 -4.2306757220e+00 2.4425817669e+00 4.2306757220e+00 
14100 4.5900305444e+00 -8.6759901845e-03 2.4427634363e+00 -4.2309903826e+00 2.4427634363e+00 4.2309903826e+00 
14200 4.5897255552e+00 -8.4762226087e-03 2.4429410241e+00 -4.2312979736e+00 2.4429410241e+00 4.2312979736e+00 
14300 4.5894255700e+00 -8.2755427883e-03 2.4431145101e+00 -4.2315984602e+00 2.4431145101e+00 4.2315984602e+00 
14400 4.5891304019e+00 -8.0740551234e-03 2.4432838767e+00 -4.2318918117e+00 2.4432838767e+00 4.2318918117e+00 
14500 4.5888398702e+00 -7.8718603384e-03 2.4434491081e+00 -4.2321780009e+00 2.4434491081e+00 4.2321780009e+00 
14600 4.5885537998e+00 -7.6690556622e-03 2.4436101908e+00 -4.2324570043e+00 2.4436101908e+00 4.2324570043e+00 
14700 4.5882720217e+00 -7.4657350011e-03 2.4437671131e+00 -4.2327288017e+00 2.4437671131e+00 4.2327288017e+00 
14800 4.5879943726e+00 -7.2619891042e-03 2.4439198652e+00 -4.2329933761e+00 2.4439198652e+00 4.2329933761e+00 
14900 4.5877206945e+00 -7.0579057222e-03 2.4440684393e+00 -4.2332507140e+00 2.4440684393e+00 4.2332507140e+00 
15000 4.5874508351e+00 -6.8535697589e-03 2.4442128291e+00 -4.2335008046e+00 2.4442128291e+00 4.2335008046e+00 
15100 4.5871846471e+00 -6.6490634170e-03 2.4443530304e+00 -4.2337436403e+00 2.4443530304e+00 4.2337436403e+00 
15200 4.5869219886e+00 -6.4444663359e-03 2.4444890403e+00 -4.2339792164e+00 2.4444890403e+00 4.2339792164e+00 
15300 4.5866627226e+00 -6.2398557246e-03 2.4446208578e+00 -4.2342075309e+00 2.4446208578e+00 4.2342075309e+00 
15400 4.5864067171e+00 -6.0353064881e-03 2.4447484831e+00 -4.2344285844e+00 2.4447484831e+00 4.2344285844e+00 
15500 4.5861538448e+00 -5.8308913469e-03 2.4448719182e+00 -4.2346423803e+00 2.4448719182e+00 4.2346423803e+00 
15600 4.5859039831e+00 -5.6266809521e-03 2.4449911666e+00 -4.2348489245e+00 2.4449911666e+00 4.2348489245e+00 
15700 4.5856570140e+00 -5.4227439940e-03 2.4451062329e+00 -4.2350482253e+00 2.4451062329e+00 4.2350482253e+00 
15800 4.5854128239e+00 -5.2191473050e-03 2.4452171235e+00 -4.2352402934e+00 2.4452171235e+00 4.2352402934e+00 
15900 4.5851713037e+00 -5.0159559580e-03 2.4453238458e+00 -4.2354251419e+00 2.4453238458e+00 4.2354251419e+00 
16000 4.5849323481e+00 -4.8132333585e-03 2.4454264087e+00 -4.2356027861e+00 2.4454264087e+00 4.2356027861e+00 
16100 4.5846958565e+00 -4.6110413327e-03 2.4455248224e+00 -4.2357732435e+00 2.4455248224e+00 4.2357732435e+00 
16200 4.5844617317e+00 -4.4094402101e-03 2.4456190981e+00 -4.2359365338e+00 2.4456190981e+00 4.2359365338e+00 
16300 4.5842298809e+00 -4.2084889011e-03 2.4457092484e+00 -4.2360926788e+00 2.4457092484e+00 4.2360926788e+00 
16400 4.5840002147e+00 -4.0082449708e-03 2.4457952871e+00 -4.2362417022e+00 2.4457952871e+00 4.2362417022e+00 
16500 4.5837726477e+00 -3.8087647074e-03 2.4458772291e+00 -4.2363836299e+00 2.4458772291e+00 4.2363836299e+00 
16600 4.5835470980e+00 -3.6101031873e-03 2.4459550904e+00 -4.2365184897e+00 2.4459550904e+00 4.2365184897e+00 
16700 4.5833234871e+00 -3.4123143344e-03 2.4460288882e+00 -4.2366463112e+00 2.4460288882e+00 4.2366463112e+00 
16800 4.5831017401e+00 -3.2154509773e-03 2.4460986407e+00 -4.2367671260e+00 2.4460986407e+00 4.2367671260e+00 
16900 4.5828817851e+00 -3.0195649009e-03 2.4461643671e+00 -4.2368809675e+00 2.4461643671e+00 4.2368809675e+00 
17000 4.5826635538e+00 -2.8247068954e-03 2.4462260877e+00 -4.2369878708e+00 2.4462260877e+00 4.2369878708e+00 
17100 4.5824469809e+00 -2.6309268005e-03 2.4462838240e+00 -4.2370878729e+00 2.4462838240e+00 4.2370878729e+00 
17200 4.5822320039e+00 -2.4382735472e-03 2.4463375981e+00 -4.2371810124e+00 2.4463375981e+00 4.2371810124e+00 
17300 4.5820185635e+00 -2.2467951951e-03 2.4463874335e+00 -4.2372673298e+00 2.4463874335e+00 4.2372673298e+00 
17400 4.5818066034e+00 -2.0565389674e-03 2.4464333543e+00 -4.2373468670e+00 2.4464333543e+00 4.2373468670e+00 
17500 4.5815960699e+00 -1.8675512821e-03 2.4464753858e+00 -4.2374196677e+00 2.4464753858e+00 4.2374196677e+00 
17600 4.5813869119e+00 -1.6798777802e-03 2.4465135541e+00 -4.2374857771e+00 2.4465135541e+00 4.2374857771e+00 
17700 4.5811790813e+00 -1.4935633510e-03 2.4465478862e+00 -4.2375452421e+00 2.4465478862e+00 4.2375452421e+00 
17800 4.5809725322e+00 -1.3086521550e-03 2.4465784102e+00 -4.2375981112e+00 2.4465784102e+00 4.2375981112e+00 
17900 4.5807672214e+00 -1.1251876437e-03 2.4466051548e+00 -4.2376444342e+00 2.4466051548e+00 4.2376444342e+00 
18000 4.5805631081e+00 -9.4321257640e-04 2.4466281497e+00 -4.2376842625e+00 2.4466281497e+00 4.2376842625e+00 
18100 4.5803601537e+00 -7.6276903581e-04 2.4466474255e+00 -4.2377176492e+00 2.4466474255e+00 4.2377176492e+00 
18200 4.5801583221e+00 -5.8389843991e-04 2.4466630136e+00 -4.2377446485e+00 2.4466630136e+00 4.2377446485e+00 
18300 4.5799575793e+00 -4.0664155245e-04 2.4466749461e+00 -4.2377653163e+00 2.4466749461e+00 4.2377653163e+00 
18400 4.5797578934e+00 -2.3103849093e-04 2.4466832562e+00 -4.2377797098e+00 2.4466832562e+00 4.2377797098e+00 
18500 4.5795592345e+00 -5.7128732725e-05 2.4466879777e+00 -4.2377878876e+00 2.4466879777e+00 4.2377878876e+00 
18600 4.5793615747e+00 1.1460404756e-04 2.4466879777e+00 -4.2377878876e+00 2.4466879777e+00 4.2377878876e+00 
18700 4.5791648884e+00 2.8501135886e-04 2.4466856356e+00 -4.2377838311e+00 2.4466856356e+00 4.2377838311e+00 
18800 4.5789691517e+00 4.5361111610e-04 2.4466798112e+00 -4.2377737429e+00 2.4466798112e+00 4.2377737429e+00 
18900 4.5787743424e+00 6.2036628511e-04 2.4466705413e+00 -4.2377576869e+00 2.4466705413e+00 4.2377576869e+00 
19000 4.5785804403e+00 7.8524049944e-04 2.4466578635e+00 -4.2377357284e+00 2.4466578635e+00 4.2377357284e+00 
19100 4.5783874268e+00 9.4819805320e-04 2.4466418163e+00 -4.2377079338e+00 2.4466418163e+00 4.2377079338e+00 
19200 4.5781952849e+00 1.1092038994e-03 2.4466224388e+00 -4.2376743710e+00 2.4466224388e+00 4.2376743710e+00 
19300 4.5780039993e+00 1.2682236523e-03 2.4465997708e+00 -4.2376351088e+00 2.4465997708e+00 4.2376351088e+00 
19400 4.5778135562e+00 1.4252235920e-03 2.4465738528e+00 -4.2375902174e+00 2.4465738528e+00 4.2375902174e+00 
19500 4.5776239434e+00 1.5801706721e-03 2.4465447259e+00 -4.2375397682e+00 2.4465447259e+00 4.2375397682e+00 
19600 4.5774351500e+00 1.7330325279e-03 2.4465124320e+00 -4.2374838336e+00 2.4465124320e+00 4.2374838336e+00 
19700 4.5772471667e+00 1.8837774865e-03 2.4464770137e+00 -4.2374224873e+00 2.4464770137e+00 4.2374224873e+00 
19800 4.5770599854e+00 2.0323745779e-03 2.4464385140e+00 -4.2373558038e+00 2.4464385140e+00 4.2373558038e+00 
19900 4.5768735993e+00 2.1787935471e-03 2.4463969767e+00 -4.2372838591e+00 2.4463969767e+00 4.2372838591e+00 
20000 4.5766880030e+00 2.3230048664e-03 2.4463524462e+00 -4.2372067300e+00 2.4463524462e+00 4.2372067300e+00 
20100 4.5765031922e+00 2.4649797492e-03 2.4463049674e+00 -4.2371244943e+00 2.4463049674e+00 4.2371244943e+00 
20200 4.5763191638e+00 2.6046901635e-03 2.4462545858e+00 -4.2370372309e+00 2.4462545858e+00 4.2370372309e+00 
20300 4.5761359158e+00 2.7421088467e-03 2.4462013477e+00 -4.2369450198e+00 2.4462013477e+00 4.2369450198e+00 
20400 4.5759534474e+00 2.8772093199e-03 2.4461452996e+00 -4.2368479416e+00 2.4461452996e+00 4.2368479416e+00 
20500 4.5757717587e+00 3.0099659030e-03 2.4460864888e+00 -4.2367460783e+00 2.4460864888e+00 4.2367460783e+00 
20600 4.5755908508e+00 3.1403537304e-03 2.4460249629e+00 -4.2366395123e+00 2.4460249629e+00 4.2366395123e+00 
20700 4.5754107259e+00 3.2683487657e-03 2.4459607701e+00 -4.2365283272e+00 2.4459607701e+00 4.2365283272e+00 
20800 4.5752313870e+00 3.3939278176e-03 2.4458939593e+00 -4.2364126074e+00 2.4458939593e+00 4.2364126074e+00 
20900 4.5750528380e+00 3.5170685556e-03 2.4458245795e+00 -4.2362924381e+00 2.4458245795e+00 4.2362924381e+00 
21000 4.5748750835e+00 3.6377495250e-03 2.4457526804e+00 -4.2361679053e+00 2.4457526804e+00 4.2361679053e+00 
21100 4.5746981292e+00 3.7559501626e-03 2.4456783121e+00 -4.2360390955e+00 2.4456783121e+00 4.2360390955e+00 
21200 4.5745219814e+00 3.8716508118e-03 2.4456015250e+00 -4.2359060964e+00 2.4456015250e+00 4.2359060964e+00 
21300 4.5743466470e+00 3.9848327377e-03 2.4455223700e+00 -4.2357689960e+00 2.4455223700e+00 4.2357689960e+00 
21400 4.5741721337e+00 4.0954781417e-03 2.4454408985e+00 -4.2356278831e+00 2.4454408985e+00 4.2356278831e+00 
21500 4.5739984498e+00 4.2035701760e-03 2.4453571620e+00 -4.2354828472e+00 2.4453571620e+00 4.2354828472e+00 
21600 4.5738256044e+00 4.3090929575e-03 2.4452712124e+00 -4.2353339782e+00 2.4452712124e+00 4.2353339782e+00 
21700 4.5736536070e+00 4.4120315816e-03 2.4451831022e+00 -4.2351813669e+00 2.4451831022e+00 4.2351813669e+00 
21800 4.5734824675e+00 4.5123721353e-03 2.4450928839e+00 -4.2350251042e+00 2.4450928839e+00 4.2350251042e+00 
21900 4.5733121966e+00 4.6101017095e-03 2.4450006105e+00 -4.2348652819e+00 2.4450006105e+00 4.2348652819e+00 
22000 4.5731428053e+00 4.7052084116e-03 2.4449063350e+00 -4.2347019920e+00 2.4449063350e+00 4.2347019920e+00 
22100 4.5729743051e+00 4.7976813764e-03 2.4448101109e+00 -4.2345353270e+00 2.4448101109e+00 4.2345353270e+00 
22200 4.5728067078e+00 4.8875107773e-03 2.4447119919e+00 -4.2343653798e+00 2.4447119919e+00 4.2343653798e+00 
22300 4.5726400258e+00 4.9746878365e-03 2.4446120317e+00 -4.2341922436e+00 2.4446120317e+00 4.2341922436e+00 
22400 4.5724742715e+00 5.0592048339e-03 2.4445102844e+00 -4.2340160121e+00 2.4445102844e+00 4.2340160121e+00 
22500 4.5723094580e+00 5.1410551164e-03 2.4444068042e+00 -4.2338367792e+00 2.4444068042e+00 4.2338367792e+00 
22600 4.5721455982e+00 5.2202331053e-03 2.4443016453e+00 -4.2336546388e+00 2.4443016453e+00 4.2336546388e+00 
22700 4.5719827057e+00 5.2967343039e-03 2.4441948624e+00 -4.2334696852e+00 2.4441948624e+00 4.2334696852e+00 
22800 4.5718207941e+00 5.3705553030e-03 2.4440865098e+00 -4.2332820131e+00 2.4440865098e+00 4.2332820131e+00 
22900 4.5716598771e+00 5.4416937874e-03 2.4439766423e+00 -4.2330917170e+00 2.4439766423e+00 4.2330917170e+00 
23000 4.5714999688e+00 5.5101485392e-03 2.4438653145e+00 -4.2328988915e+00 2.4438653145e+00 4.2328988915e+00 
23100 4.5713410831e+00 5.5759194424e-03 2.4437525810e+00 -4.2327036315e+00 2.4437525810e+00 4.2327036315e+00 
23200 4.5711832344e+00 5.6390074851e-03 2.4436384967e+00 -4.2325060317e+00 2.4436384967e+00 4.2325060317e+00 
23300 4.5710264367e+00 5.6994147613e-03 2.4435231163e+00 -4.2323061868e+00 2.4435231163e+00 4.2323061868e+00 
23400 4.5708707043e+00 5.7571444717e-03 2.4434064943e+00 -4.2321041917e+00 2.4434064943e+00 4.2321041917e+00 
23500 4.5707160516e+00 5.8122009237e-03 2.4432886855e+00 -4.2319001408e+00 2.4432886855e+00 4.2319001408e+00 
23600 4.5705624929e+00 5.8645895302e-03 2.4431697443e+00 -4.2316941286e+00 2.4431697443e+00 4.2316941286e+00 
23700 4.5704100423e+00 5.9143168072e-03 2.4430497251e+00 -4.2314862494e+00 2.4430497251e+00 4.2314862494e+00 
23800 4.5702587139e+00 5.9613903711e-03 2.4429286824e+00 -4.2312765972e+00 2.4429286824e+00 4.2312765972e+00 
23900 4.5701085220e+00 6.0058189344e-03 2.4428066702e+00 -4.2310652659e+00 2.4428066702e+00 4.2310652659e+00 
24000 4.5699594803e+00 6.0476123004e-03 2.4426837426e+00 -4.2308523490e+00 2.4426837426e+00 4.2308523490e+00 
24100 4.5698116028e+00 6.0867813575e-03 2.4425599533e+00 -4.2306379397e+00 2.4425599533e+00 4.2306379397e+00 
24200 4.5696649030e+00 6.1233380716e-03 2.4424353560e+00 -4.2304221308e+00 2.4424353560e+00 4.2304221308e+00 
24300 4.5695193945e+00 6.1572954787e-03 2.4423100039e+00 -4.2302050146e+00 2.4423100039e+00 4.2302050146e+00 
24400 4.5693750904e+00 6.1886676748e-03 2.4421839503e+00 -4.2299866833e+00 2.4421839503e+00 4.2299866833e+00 
24500 4.5692320037e+00 6.2174698070e-03 2.4420572478e+00 -4.2297672282e+00 2.4420572478e+00 4.2297672282e+00 
24600 4.5690901474e+00 6.2437180616e-03 2.4419299491e+00 -4.2295467403e+00 2.4419299491e+00 4.2295467403e+00 
24700 4.5689495337e+00 6.2674296525e-03 2.4418021063e+00 -4.2293253101e+00 2.4418021063e+00 4.2293253101e+00 
24800 4.5688101750e+00 6.2886228080e-03 2.4416737712e+00 -4.2291030273e+00 2.4416737712e+00 4.2291030273e+00 
24900 4.5686720832e+00 6.3073167575e-03 2.4415449955e+00 -4.2288799812e+00 2.4415449955e+00 4.2288799812e+00 
25000 4.5685352697e+00 6.3235317160e-03 2.4414158301e+00 -4.2286562602e+00 2.4414158301e+00 4.2286562602e+00 
25100 4.5683997459e+00 6.3372888689e-03 2.4412863259e+00 -4.2284319522e+00 2.4412863259e+00 4.2284319522e+00 
25200 4.5682655226e+00 6.3486103554e-03 2.4411565329e+00 -4.2282071443e+00 2.4411565329e+00 4.2282071443e+00 
25300 4.5681326102e+00 6.3575192509e-03 2.4410265013e+00 -4.2279819228e+00 2.4410265013e+00 4.2279819228e+00 
25400 4.5680010190e+00 6.3640395489e-03 2.4408962802e+00 -4.2277563733e+00 2.4408962802e+00 4.2277563733e+00 
25500 4.5678707585e+00 6.3681961422e-03 2.4407659186e+00 -4.2275305803e+00 2.4407659186e+00 4.2275305803e+00 
25600 4.5677418380e+00 6.3700148027e-03 2.4406354649e+00 -4.2273046279e+00 2.4406354649e+00 4.2273046279e+00 
25700 4.5676142665e+00 6.3695221608e-03 2.4405049669e+00 -4.2270785988e+00 2.4405049669e+00 4.2270785988e+00 
25800 4.5674880522e+00 6.3667456846e-03 2.4403744721e+00 -4.2268525752e+00 2.4403744721e+00 4.2268525752e+00 
25900 4.5673632032e+00 6.3617136575e-03 2.4402440272e+00 -4.2266266379e+00 2.4402440272e+00 4.2266266379e+00 
26000 4.5672397269e+00 6.3544551556e-03 2.4401136784e+00 -4.2264008672e+00 2.4401136784e+00 4.2264008672e+00 
26100 4.5671176303e+00 6.3450000245e-03 2.4399834714e+00 -4.2261753420e+00 2.4399834714e+00 4.2261753420e+00 
26200 4.5669969199e+00 6.3333788555e-03 2.4398534512e+00 -4.2259501404e+00 2.4398534512e+00 4.2259501404e+00 
26300 4.5668776019e+00 6.3196229607e-03 2.4397236622e+00 -4.2257253393e+00 2.4397236622e+00 4.2257253393e+00 
26400 4.5667596817e+00 6.3037643487e-03 2.4395941482e+00 -4.2255010145e+00 2.4395941482e+00 4.2255010145e+00 
26500 4.5666431643e+00 6.2858356986e-03 2.4394649523e+00 -4.2252772407e+00 2.4394649523e+00 4.2252772407e+00 
26600 4.5665280543e+00 6.2658703341e-03 2.4393361171e+00 -4.2250540915e+00 2.4393361171e+00 4.2250540915e+00 
26700 4.5664143557e+00 6.2439021972e-03 2.4392076843e+00 -4.2248316394e+00 2.4392076843e+00 4.2248316394e+00 
26800 4.5663020720e+00 6.2199658216e-03 2.4390796950e+00 -4.2246099555e+00 2.4390796950e+00 4.2246099555e+00 
26900 4.5661912061e+00 6.1940963054e-03 2.4389521897e+00 -4.2243891098e+00 2.4389521897e+00 4.2243891098e+00 
27000 4.5660817605e+00 6.1663292833e-03 2.4388252081e+00 -4.2241691712e+00 2.4388252081e+00 4.2241691712e+00 
27100 4.5659737372e+00 6.1367008997e-03 2.4386987891e+00 -4.2239502071e+00 2.4386987891e+00 4.2239502071e+00 
27200 4.5658671375e+00 6.1052477800e-03 2.4385729710e+00 -4.2237322838e+00 2.4385729710e+00 4.2237322838e+00 
27300 4.5657619622e+00 6.0720070026e-03 2.4384477914e+00 -4.2235154662e+00 2.4384477914e+00 4.2235154662e+00 
27400 4.5656582119e+00 6.0370160707e-03 2.4383232868e+00 -4.2232998181e+00 2.4383232868e+00 4.2232998181e+00 
27500 4.5655558861e+00 6.0003128838e-03 2.4381994935e+00 -4.2230854017e+00 2.4381994935e+00 4.2230854017e+00 
27600 4.5654549844e+00 5.9619357090e-03 2.4380764465e+00 -4.2228722780e+00 2.4380764465e+00 4.2228722780e+00 
27700 4.5653555054e+00 5.9219231522e-03 2.4379541803e+00 -4.2226605068e+00 2.4379541803e+00 4.2226605068e+00 
27800 4.5652574474e+00 5.8803141299e-03 2.4378327286e+00 -4.2224501463e+00 2.4378327286e+00 4.2224501463e+00 
27900 4.5651608081e+00 5.8371478403e-03 2.4377121242e+00 -4.2222412534e+00 2.4377121242e+00 4.2222412534e+00 
28000 4.5650655849e+00 5.7924637343e-03 2.4375923993e+00 -4.2220338836e+00 2.4375923993e+00 4.2220338836e+00 
28100 4.5649717744e+00 5.7463014878e-03 2.4374735850e+00 -4.2218280912e+00 2.4374735850e+00 4.2218280912e+00 
28200 4.5648793729e+00 5.6987009726e-03 2.4373557118e+00 -4.2216239289e+00 2.4373557118e+00 4.2216239289e+00 
28300 4.5647883762e+00 5.6497022283e-03 2.4372388094e+00 -4.2214214480e+00 2.4372388094e+00 4.2214214480e+00 
28400 4.5646987795e+00 5.5993454345e-03 2.4371229065e+00 -4.2212206984e+00 2.4371229065e+00 4.2212206984e+00 
28500 4.5646105777e+00 5.5476708826e-03 2.4370080313e+00 -4.2210217287e+00 2.4370080313e+00 4.2210217287e+00 
28600 4.5645237650e+00 5.4947189484e-03 2.4368942108e+00 -4.2208245858e+00 2.4368942108e+00 4.2208245858e+00 
28700 4.5644383353e+00 5.4405300645e-03 2.4367814715e+00 -4.2206293156e+00 2.4367814715e+00 4.2206293156e+00 
28800 4.5643542822e+00 5.3851446936e-03 2.4366698388e+00 -4.2204359621e+00 2.4366698388e+00 4.2204359621e+00 
28900 4.5642715985e+00 5.3286033015e-03 2.4365593375e+00 -4.2202445682e+00 2.4365593375e+00 4.2202445682e+00 
29000 4.5641902768e+00 5.2709463311e-03 2.4364499915e+00 -4.2200551753e+00 2.4364499915e+00 4.2200551753e+00 
29100 4.5641103092e+00 5.2122141757e-03 2.4363418237e+00 -4.2198678232e+00 2.4363418237e+00 4.2198678232e+00 
29200 4.5640316875e+00 5.1524471546e-03 2.4362348564e+00 -4.2196825505e+00 2.4362348564e+00 4.2196825505e+00 
29300 4.5639544031e+00 5.0916854867e-03 2.4361291111e+00 -4.2194993942e+00 2.4361291111e+00 4.2194993942e+00 
29400 4.5638784468e+00 5.0299692670e-03 2.4360246082e+00 -4.2193183899e+00 2.4360246082e+00 4.2193183899e+00 
29500 4.5638038092e+00 4.9673384415e-03 2.4359213676e+00 -4.2191395719e+00 2.4359213676e+00 4.2191395719e+00 
29600 4.5637304805e+00 4.9038327842e-03 2.4358194082e+00 -4.2189629730e+00 2.4358194082e+00 4.2189629730e+00 
29700 4.5636584506e+00 4.8394918735e-03 2.4357187480e+00 -4.2187886245e+00 2.4357187480e+00 4.2187886245e+00 
29800 4.5635877089e+00 4.7743550698e-03 2.4356194045e+00 -4.2186165564e+00 2.4356194045e+00 4.2186165564e+00 
29900 4.5635182447e+00 4.7084614933e-03 2.4355213940e+00 -4.2184467973e+00 2.4355213940e+00 4.2184467973e+00 
30000 4.5634500469e+00 4.6418500026e-03 2.4354247324e+00 -4.2182793745e+00 2.4354247324e+00 4.2182793745e+00 
30100 4.5633831040e+00 4.5745591738e-03 2.4353294344e+00 -4.2181143136e+00 2.4353294344e+00 4.2181143136e+00 
30200 4.5633174043e+00 4.5066272801e-03 2.4352355143e+00 -4.2179516391e+00 2.4352355143e+00 4.2179516391e+00 
30300 4.5632529358e+00 4.4380922722e-03 2.4351429853e+00 -4.2177913742e+00 2.4351429853e+00 4.2177913742e+00 
30400 4.5631896862e+00 4.3689917591e-03 2.4350518599e+00 -4.2176335404e+00 2.4350518599e+00 4.2176335404e+00 
30500 4.5631276431e+00 4.2993629897e-03 2.4349621500e+00 -4.2174781583e+00 2.4349621500e+00 4.2174781583e+00 
30600 4.5630667936e+00 4.2292428353e-03 2.4348738666e+00 -4.2173252469e+00 2.4348738666e+00 4.2173252469e+00 
30700 4.5630071250e+00 4.1586677718e-03 2.4347870198e+00 -4.2171748239e+00 2.4347870198e+00 4.2171748239e+00 
30800 4.5629486239e+00 4.0876738637e-03 2.4347016193e+00 -4.2170269058e+00 2.4347016193e+00 4.2170269058e+00 
30900 4.5628912770e+00 4.0162967481e-03 2.4346176737e+00 -4.2168815078e+00 2.4346176737e+00 4.2168815078e+00 
31000 4.5628350708e+00 3.9445716197e-03 2.4345351910e+00 -4.2167386436e+00 2.4345351910e+00 4.2167386436e+00 
31100 4.5627799915e+00 3.8725332158e-03 2.4344541786e+00 -4.2165983261e+00 2.4344541786e+00 4.2165983261e+00 
31200 4.5627260253e+00 3.8002158031e-03 2.4343746431e+00 -4.2164605665e+00 2.4343746431e+00 4.2164605665e+00 
31300 4.5626731581e+00 3.7276531641e-03 2.4342965903e+00 -4.2163253751e+00 2.4342965903e+00 4.2163253751e+00 
31400 4.5626213758e+00 3.6548785846e-03 2.4342200254e+00 -4.2161927608e+00 2.4342200254e+00 4.2161927608e+00 
31500 4.5625706641e+00 3.5819248421e-03 2.4341449529e+00 -4.2160627314e+00 2.4341449529e+00 4.2160627314e+00 
31600 4.5625210087e+00 3.5088241945e-03 2.4340713766e+00 -4.2159352935e+00 2.4340713766e+00 4.2159352935e+00 
31700 4.5624723950e+00 3.4356083696e-03 2.4339992997e+00 -4.2158104526e+00 2.4339992997e+00 4.2158104526e+00 
31800 4.5624248086e+00 3.3623085553e-03 2.4339287247e+00 -4.2156882131e+00 2.4339287247e+00 4.2156882131e+00 
31900 4.5623782347e+00 3.2889553903e-03 2.4338596533e+00 -4.2155685781e+00 2.4338596533e+00 4.2155685781e+00 
32000 4.5623326588e+00 3.2155789558e-03 2.4337920870e+00 -4.2154515497e+00 2.4337920870e+00 4.2154515497e+00 
32100 4.5622880660e+00 3.1422087674e-03 2.4337260262e+00 -4.2153371291e+00 2.4337260262e+00 4.2153371291e+00 
32200 4.5622444416e+00 3.0688737678e-03 2.4336614710e+00 -4.2152253162e+00 2.4336614710e+00 4.2152253162e+00 
32300 4.5622017708e+00 2.9956023206e-03 2.4335984207e+00 -4.2151161099e+00 2.4335984207e+00 4.2151161099e+00 
32400 4.5621600388e+00 2.9224222037e-03 2.4335368742e+00 -4.2150095082e+00 2.4335368742e+00 4.2150095082e+00 
32500 4.5621192307e+00 2.8493606046e-03 2.4334768297e+00 -4.2149055081e+00 2.4334768297e+00 4.2149055081e+00 
32600 4.5620793319e+00 2.7764441148e-03 2.4334182849e+00 -4.2148041055e+00 2.4334182849e+00 4.2148041055e+00 
32700 4.5620403273e+00 2.7036987264e-03 2.4333612369e+00 -4.2147052954e+00 2.4333612369e+00 4.2147052954e+00 
32800 4.5620022024e+00 2.6311498282e-03 2.4333056823e+00 -4.2146090720e+00 2.4333056823e+00 4.2146090720e+00 
32900 4.5619649424e+00 2.5588222024e-03 2.4332516171e+00 -4.2145154285e+00 2.4332516171e+00 4.2145154285e+00 
33000 4.5619285325e+00 2.4867400227e-03 2.4331990370e+00 -4.2144243570e+00 2.4331990370e+00 4.2144243570e+00 
33100 4.5618929581e+00 2.4149268517e-03 2.4331479370e+00 -4.2143358492e+00 2.4331479370e+00 4.2143358492e+00 
33200 4.5618582047e+00 2.3434056402e-03 2.4330983116e+00 -4.2142498955e+00 2.4330983116e+00 4.2142498955e+00 
33300 4.5618242577e+00 2.2721987260e-03 2.4330501549e+00 -4.2141664857e+00 2.4330501549e+00 4.2141664857e+00 
33400 4.5617911027e+00 2.2013278334e-03 2.4330034606e+00 -4.2140856088e+00 2.4330034606e+00 4.2140856088e+00 
33500 4.5617587253e+00 2.1308140739e-03 2.4329582219e+00 -4.2140072530e+00 2.4329582219e+00 4.2140072530e+00 
33600 4.5617271112e+00 2.0606779462e-03 2.4329144314e+00 -4.2139314056e+00 2.4329144314e+00 4.2139314056e+00 
33700 4.5616962463e+00 1.9909393376e-03 2.4328720815e+00 -4.2138580535e+00 2.4328720815e+00 4.2138580535e+00 
33800 4.5616661166e+00 1.9216175259e-03 2.4328311642e+00 -4.2137871826e+00 2.4328311642e+00 4.2137871826e+00 
33900 4.5616367080e+00 1.8527311809e-03 2.4327916708e+00 -4.2137187781e+00 2.4327916708e+00 4.2137187781e+00 
34000 4.5616080067e+00 1.7842983669e-03 2.4327535926e+00 -4.2136528248e+00 2.4327535926e+00 4.2136528248e+00 
34100 4.5615799989e+00 1.7163365460e-03 2.4327169203e+00 -4.2135893064e+00 2.4327169203e+00 4.2135893064e+00 
34200 4.5615526712e+00 1.6488625809e-03 2.4326816443e+00 -4.2135282066e+00 2.4326816443e+00 4.2135282066e+00 
34300 4.5615260100e+00 1.5818927386e-03 2.4326477546e+00 -4.2134695078e+00 2.4326477546e+00 4.2134695078e+00 
34400 4.5615000020e+00 1.5154426948e-03 2.4326152408e+00 -4.2134131924e+00 2.4326152408e+00 4.2134131924e+00 
34500 4.5614746340e+00 1.4495275377e-03 2.4325840925e+00 -4.2133592418e+00 2.4325840925e+00 4.2133592418e+00 
34600 4.5614498929e+00 1.3841617733e-03 2.4325542985e+00 -4.2133076372e+00 2.4325542985e+00 4.2133076372e+00 
34700 4.5614257659e+00 1.3193593299e-03 2.4325258478e+00 -4.2132583591e+00 2.4325258478e+00 4.2132583591e+00 
34800 4.5614022402e+00 1.2551335638e-03 2.4324987287e+00 -4.2132113875e+00 2.4324987287e+00 4.2132113875e+00 
34900 4.5613793032e+00 1.1914972650e-03 2.4324729295e+00 -4.2131667020e+00 2.4324729295e+00 4.2131667020e+00 
35000 4.5613569425e+00 1.1284626628e-03 2.4324484381e+00 -4.2131242815e+00 2.4324484381e+00 4.2131242815e+00 
35100 4.5613351458e+00 1.0660414324e-03 2.4324252421e+00 -4.2130841049e+00 2.4324252421e+00 4.2130841049e+00 
35200 4.5613139010e+00 1.0042447012e-03 2.4324033290e+00 -4.2130461503e+00 2.4324033290e+00 4.2130461503e+00 
35300 4.5612931961e+00 9.4308305523e-04 2.4323826860e+00 -4.2130103955e+00 2.4323826860e+00 4.2130103955e+00 
35400 4.5612730194e+00 8.8256654676e-04 2.4323633000e+00 -4.2129768180e+00 2.4323633000e+00 4.2129768180e+00 
35500 4.5612533593e+00 8.2270470087e-04 2.4323451578e+00 -4.2129453949e+00 2.4323451578e+00 4.2129453949e+00 
35600 4.5612342042e+00 7.6350652305e-04 2.4323282461e+00 -4.2129161029e+00 2.4323282461e+00 4.2129161029e+00 
35700 4.5612155431e+00 7.0498050674e-04 2.4323125512e+00 -4.2128889185e+00 2.4323125512e+00 4.2128889185e+00 
35800 4.5611973646e+00 6.4713464104e-04 2.4322980592e+00 -4.2128638177e+00 2.4322980592e+00 4.2128638177e+00 
35900 4.5611796580e+00 5.8997641863e-04 2.4322847563e+00 -4.2128407763e+00 2.4322847563e+00 4.2128407763e+00 
36000 4.5611624125e+00 5.3351284377e-04 2.4322726282e+00 -4.2128197700e+00 2.4322726282e+00 4.2128197700e+00 
36100 4.5611456175e+00 4.7775044055e-04 2.4322616609e+00 -4.2128007739e+00 2.4322616609e+00 4.2128007739e+00 
36200 4.5611292627e+00 4.2269526116e-04 2.4322518398e+00 -4.2127837633e+00 2.4322518398e+00 4.2127837633e+00 
36300 4.5611133377e+00 3.6835289432e-04 2.4322431504e+00 -4.2127687128e+00 2.4322431504e+00 4.2127687128e+00 
36400 4.5610978326e+00 3.1472847387e-04 2.4322355781e+00 -4.2127555972e+00 2.4322355781e+00 4.2127555972e+00 
36500 4.5610827375e+00 2.6182668734e-04 2.4322291082e+00 -4.2127443910e+00 2.4322291082e+00 4.2127443910e+00 
36600 4.5610680427e+00 2.0965178471e-04 2.4322237257e+00 -4.2127350683e+00 2.4322237257e+00 4.2127350683e+00 
36700 4.5610537386e+00 1.5820758716e-04 2.4322194158e+00 -4.2127276034e+00 2.4322194158e+00 4.2127276034e+00 
36800 4.5610398160e+00 1.0749749596e-04 2.4322161635e+00 -4.2127219702e+00 2.4322161635e+00 4.2127219702e+00 
36900 4.5610262657e+00 5.7524501334e-05 2.4322139536e+00 -4.2127181426e+00 2.4322139536e+00 4.2127181426e+00 
37000 4.5610130786e+00 8.8809893883e-06 2.4322139536e+00 -4.2127181426e+00 2.4322139536e+00 4.2127181426e+00 
37100 4.5610002459e+00 -3.9521934963e-05 2.4322139536e+00 -4.2127181426e+00 2.4322139536e+00 4.2127181426e+00 
37200 4.5609877591e+00 -8.7678397479e-05 2.4322139536e+00 -4.2127181426e+00 2.4322139536e+00 4.2127181426e+00 
37300 4.5609756096e+00 -1.3468246120e-04 2.4322157561e+00 -4.2127212645e+00 2.4322157561e+00 4.2127212645e+00 
37400 4.5609637891e+00 -1.8094037117e-04 2.4322185248e+00 -4.2127260601e+00 2.4322185248e+00 4.2127260601e+00 
37500 4.5609522894e+00 -2.2645141253e-04 2.4322222445e+00 -4.2127325027e+00 2.4322222445e+00 4.2127325027e+00 
37600 4.5609411025e+00 -2.7121521851e-04 2.4322268997e+00 -4.2127405658e+00 2.4322268997e+00 4.2127405658e+00 
37700 4.5609302207e+00 -3.1523176143e-04 2.4322324752e+00 -4.2127502228e+00 2.4322324752e+00 4.2127502228e+00 
37800 4.5609196363e+00 -3.5850134367e-04 2.4322389555e+00 -4.2127614470e+00 2.4322389555e+00 4.2127614470e+00 
37900 4.5609093418e+00 -4.0102458882e-04 2.4322463252e+00 -4.2127742118e+00 2.4322463252e+00 4.2127742118e+00 
38000 4.5608993298e+00 -4.4280243268e-04 2.4322545692e+00 -4.2127884907e+00 2.4322545692e+00 4.2127884907e+00 
38100 4.5608895932e+00 -4.8383611448e-04 2.4322636719e+00 -4.2128042571e+00 2.4322636719e+00 4.2128042571e+00 
38200 4.5608801249e+00 -5.2412716801e-04 2.4322736181e+00 -4.2128214845e+00 2.4322736181e+00 4.2128214845e+00 
38300 4.5608709180e+00 -5.6367741290e-04 2.4322843925e+00 -4.2128401463e+00 2.4322843925e+00 4.2128401463e+00 
38400 4.5608619659e+00 -6.0248894590e-04 2.4322959800e+00 -4.2128602163e+00 2.4322959800e+00 4.2128602163e+00 
38500 4.5608532619e+00 -6.4056413230e-04 2.4323083652e+00 -4.2128816681e+00 2.4323083652e+00 4.2128816681e+00 
38600 4.5608447996e+00 -6.7790559733e-04 2.4323215330e+00 -4.2129044755e+00 2.4323215330e+00 4.2129044755e+00 
38700 4.5608365728e+00 -7.1451621771e-04 2.4323354684e+00 -4.2129286123e+00 2.4323354684e+00 4.2129286123e+00 
38800 4.5608285753e+00 -7.5039911325e-04 2.4323501562e+00 -4.2129540524e+00 2.4323501562e+00 4.2129540524e+00 
38900 4.5608208010e+00 -7.8555763856e-04 2.4323655816e+00 -4.2129807700e+00 2.4323655816e+00 4.2129807700e+00 
39000 4.5608132442e+00 -8.1999537482e-04 2.4323817297e+00 -4.2130087392e+00 2.4323817297e+00 4.2130087392e+00 
39100 4.5608058991e+00 -8.5371612167e-04 2.4323985855e+00 -4.2130379344e+00 2.4323985855e+00 4.2130379344e+00 
39200 4.5607987601e+00 -8.8672388919e-04 2.4324161344e+00 -4.2130683299e+00 2.4324161344e+00 4.2130683299e+00 
39300 4.5607918217e+00 -9.1902288996e-04 2.4324343616e+00 -4.2130999004e+00 2.4324343616e+00 4.2130999004e+00 
39400 4.5607850786e+00 -9.5061753129e-04 2.4324532527e+00 -4.2131326207e+00 2.4324532527e+00 4.2131326207e+00 
39500 4.5607785256e+00 -9.8151240747e-04 2.4324727930e+00 -4.2131664655e+00 2.4324727930e+00 4.2131664655e+00 
39600 4.5607721576e+00 -1.0117122922e-03 2.4324929682e+00 -4.2132014100e+00 2.4324929682e+00 4.2132014100e+00 
39700 4.5607659697e+00 -1.0412221310e-03 2.4325137640e+00 -4.2132374294e+00 2.4325137640e+00 4.2132374294e+00 
39800 4.5607599570e+00 -1.0700470342e-03 2.4325351663e+00 -4.2132744992e+00 2.4325351663e+00 4.2132744992e+00 
39900 4.5607541147e+00 -1.0981922691e-03 2.4325571608e+00 -4.2133125948e+00 2.4325571608e+00 4.2133125948e+00 
40000 4.5607484384e+00 -1.1256632533e-03 2.4325797336e+00 -4.2133516921e+00 2.4325797336e+00 4.2133516921e+00 
40100 4.5607429234e+00 -1.1524655477e-03 2.4326028709e+00 -4.2133917670e+00 2.4326028709e+00 4.2133917670e+00 
40200 4.5607375654e+00 -1.1786048493e-03 2.4326265588e+00 -4.2134327957e+00 2.4326265588e+00 4.2134327957e+00 
40300 4.5607323601e+00 -1.2040869846e-03 2.4326507838e+00 -4.2134747546e+00 2.4326507838e+00 4.2134747546e+00 
40400 4.5607273034e+00 -1.2289179030e-03 2.4326755323e+00 -4.2135176203e+00 2.4326755323e+00 4.2135176203e+00 
40500 4.5607223912e+00 -1.2531036704e-03 2.4327007909e+00 -4.2135613695e+00 2.4327007909e+00 4.2135613695e+00 
40600 4.5607176195e+00 -1.2766504624e-03 2.4327265464e+00 -4.2136059792e+00 2.4327265464e+00 4.2136059792e+00 
40700 4.5607129845e+00 -1.2995645585e-03 2.4327527855e+00 -4.2136514267e+00 2.4327527855e+00 4.2136514267e+00 
40800 4.5607084824e+00 -1.3218523358e-03 2.4327794953e+00 -4.2136976895e+00 2.4327794953e+00 4.2136976895e+00 
40900 4.5607041095e+00 -1.3435202628e-03 2.4328066629e+00 -4.2137447451e+00 2.4328066629e+00 4.2137447451e+00 
41000 4.5606998623e+00 -1.3645748938e-03 2.4328342755e+00 -4.2137925715e+00 2.4328342755e+00 4.2137925715e+00 
41100 4.5606957373e+00 -1.3850228633e-03 2.4328623205e+00 -4.2138411469e+00 2.4328623205e+00 4.2138411469e+00 
41200 4.5606917311e+00 -1.4048708797e-03 2.4328907854e+00 -4.2138904497e+00 2.4328907854e+00 4.2138904497e+00 
41300 4.5606878404e+00 -1.4241257207e-03 2.4329196580e+00 -4.2139404583e+00 2.4329196580e+00 4.2139404583e+00 
41400 4.5606840620e+00 -1.4427942273e-03 2.4329489259e+00 -4.2139911518e+00 2.4329489259e+00 4.2139911518e+00 
41500 4.5606803927e+00 -1.4608832988e-03 2.4329785771e+00 -4.2140425092e+00 2.4329785771e+00 4.2140425092e+00 
41600 4.5606768295e+00 -1.4783998877e-03 2.4330085996e+00 -4.2140945098e+00 2.4330085996e+00 4.2140945098e+00 
41700 4.5606733694e+00 -1.4953509948e-03 2.4330389818e+00 -4.2141471334e+00 2.4330389818e+00 4.2141471334e+00 
41800 4.5606700096e+00 -1.5117436641e-03 2.4330697120e+00 -4.2142003596e+00 2.4330697120e+00 4.2142003596e+00 
41900 4.5606667472e+00 -1.5275849785e-03 2.4331007787e+00 -4.2142541686e+00 2.4331007787e+00 4.2142541686e+00 
42000 4.5606635794e+00 -1.5428820548e-03 2.4331321705e+00 -4.2143085408e+00 2.4331321705e+00 4.2143085408e+00 
42100 4.5606605037e+00 -1.5576420395e-03 2.4331638762e+00 -4.2143634568e+00 2.4331638762e+00 4.2143634568e+00 
42200 4.5606575173e+00 -1.5718721042e-03 2.4331958849e+00 -4.2144188974e+00 2.4331958849e+00 4.2144188974e+00 
42300 4.5606546179e+00 -1.5855794418e-03 2.4332281855e+00 -4.2144748437e+00 2.4332281855e+00 4.2144748437e+00 
42400 4.5606518029e+00 -1.5987712617e-03 2.4332607674e+00 -4.2145312772e+00 2.4332607674e+00 4.2145312772e+00 
42500 4.5606490699e+00 -1.6114547868e-03 2.4332936199e+00 -4.2145881794e+00 2.4332936199e+00 4.2145881794e+00 
42600 4.5606464166e+00 -1.6236372488e-03 2.4333267326e+00 -4.2146455323e+00 2.4333267326e+00 4.2146455323e+00 
42700 4.5606438407e+00 -1.6353258846e-03 2.4333600952e+00 -4.2147033180e+00 2.4333600952e+00 4.2147033180e+00 
42800 4.5606413401e+00 -1.6465279331e-03 2.4333936975e+00 -4.2147615188e+00 2.4333936975e+00 4.2147615188e+00 
42900 4.5606389125e+00 -1.6572506313e-03 2.4334275295e+00 -4.2148201176e+00 2.4334275295e+00 4.2148201176e+00 
43000 4.5606365560e+00 -1.6675012110e-03 2.4334615813e+00 -4.2148790971e+00 2.4334615813e+00 4.2148790971e+00 
43100 4.5606342684e+00 -1.6772868956e-03 2.4334958433e+00 -4.2149384407e+00 2.4334958433e+00 4.2149384407e+00 
43200 4.5606320478e+00 -1.6866148968e-03 2.4335303059e+00 -4.2149981316e+00 2.4335303059e+00 4.2149981316e+00 
43300 4.5606298923e+00 -1.6954924114e-03 2.4335649597e+00 -4.2150581536e+00 2.4335649597e+00 4.2150581536e+00 
43400 4.5606278001e+00 -1.7039266190e-03 2.4335997953e+00 -4.2151184908e+00 2.4335997953e+00 4.2151184908e+00 
43500 4.5606257692e+00 -1.7119246781e-03 2.4336348037e+00 -4.2151791272e+00 2.4336348037e+00 4.2151791272e+00 
43600 4.5606237979e+00 -1.7194937242e-03 2.4336699760e+00 -4.2152400473e+00 2.4336699760e+00 4.2152400473e+00 
43700 4.5606218845e+00 -1.7266408670e-03 2.4337053033e+00 -4.2153012359e+00 2.4337053033e+00 4.2153012359e+00 
43800 4.5606200274e+00 -1.7333731874e-03 2.4337407769e+00 -4.2153626780e+00 2.4337407769e+00 4.2153626780e+00 
43900 4.5606182249e+00 -1.7396977355e-03 2.4337763882e+00 -4.2154243587e+00 2.4337763882e+00 4.2154243587e+00 
44000 4.5606164755e+00 -1.7456215282e-03 2.4338121290e+00 -4.2154862636e+00 2.4338121290e+00 4.2154862636e+00 
44100 4.5606147776e+00 -1.7511515468e-03 2.4338479910e+00 -4.2155483783e+00 2.4338479910e+00 4.2155483783e+00 
44200 4.5606131297e+00 -1.7562947348e-03 2.4338839660e+00 -4.2156106889e+00 2.4338839660e+00 4.2156106889e+00 
44300 4.5606115303e+00 -1.7610579959e-03 2.4339200462e+00 -4.2156731816e+00 2.4339200462e+00 4.2156731816e+00 
44400 4.5606099781e+00 -1.7654481922e-03 2.4339562237e+00 -4.2157358429e+00 2.4339562237e+00 4.2157358429e+00 
44500 4.5606084718e+00 -1.7694721421e-03 2.4339924908e+00 -4.2157986594e+00 2.4339924908e+00 4.2157986594e+00 
44600 4.5606070098e+00 -1.7731366182e-03 2.4340288401e+00 -4.2158616182e+00 2.4340288401e+00 4.2158616182e+00 
44700 4.5606055911e+00 -1.7764483464e-03 2.4340652641e+00 -4.2159247064e+00 2.4340652641e+00 4.2159247064e+00 
44800 4.5606042142e+00 -1.7794140034e-03 2.4341017556e+00 -4.2159879115e+00 2.4341017556e+00 4.2159879115e+00 
44900 4.5606028781e+00 -1.7820402156e-03 2.4341383074e+00 -4.2160512211e+00 2.4341383074e+00 4.2160512211e+00 
45000 4.5606015814e+00 -1.7843335575e-03 2.4341749127e+00 -4.2161146233e+00 2.4341749127e+00 4.2161146233e+00 
45100 4.5606003231e+00 -1.7863005504e-03 2.4342115645e+00 -4.2161781061e+00 2.4342115645e+00 4.2161781061e+00 
45200 4.5605991021e+00 -1.7879476607e-03 2.4342482561e+00 -4.2162416579e+00 2.4342482561e+00 4.2162416579e+00 
45300 4.5605979171e+00 -1.7892812991e-03 2.4342849811e+00 -4.2163052673e+00 2.4342849811e+00 4.2163052673e+00 
45400 4.5605967673e+00 -1.7903078193e-03 2.4343217328e+00 -4.2163689233e+00 2.4343217328e+00 4.2163689233e+00 
45500 4.5605956515e+00 -1.7910335167e-03 2.4343585051e+00 -4.2164326148e+00 2.4343585051e+00 4.2164326148e+00 
45600 4.5605945688e+00 -1.7914646273e-03 2.4343952918e+00 -4.2164963311e+00 2.4343952918e+00 4.2164963311e+00 
45700 4.5605935181e+00 -1.7916073273e-03 2.4344320868e+00 -4.2165600618e+00 2.4344320868e+00 4.2165600618e+00 
45800 4.5605924986e+00 -1.7914677314e-03 2.4344688841e+00 -4.2166237967e+00 2.4344688841e+00 4.2166237967e+00 
45900 4.5605915094e+00 -1.7910518923e-03 2.4345056780e+00 -4.2166875256e+00 2.4345056780e+00 4.2166875256e+00 
46000 4.5605905494e+00 -1.7903658001e-03 2.4345424628e+00 -4.2167512387e+00 2.4345424628e+00 4.2167512387e+00 
46100 4.5605896180e+00 -1.7894153814e-03 2.4345792329e+00 -4.2168149265e+00 2.4345792329e+00 4.2168149265e+00 
46200 4.5605887142e+00 -1.7882064984e-03 2.4346159830e+00 -4.2168785795e+00 2.4346159830e+00 4.2168785795e+00 
46300 4.5605878372e+00 -1.7867449486e-03 2.4346527077e+00 -4.2169421886e+00 2.4346527077e+00 4.2169421886e+00 
46400 4.5605869863e+00 -1.7850364641e-03 2.4346894019e+00 -4.2170057447e+00 2.4346894019e+00 4.2170057447e+00 
46500 4.5605861606e+00 -1.7830867112e-03 2.4347260604e+00 -4.2170692391e+00 2.4347260604e+00 4.2170692391e+00 
46600 4.5605853594e+00 -1.7809012897e-03 2.4347626783e+00 -4.2171326631e+00 2.4347626783e+00 4.2171326631e+00 
46700 4.5605845820e+00 -1.7784857328e-03 2.4347992507e+00 -4.2171960085e+00 2.4347992507e+00 4.2171960085e+00 
46800 4.5605838277e+00 -1.7758455063e-03 2.4348357731e+00 -4.2172592670e+00 2.4348357731e+00 4.2172592670e+00 
46900 4.5605830959e+00 -1.7729860090e-03 2.4348722406e+00 -4.2173224307e+00 2.4348722406e+00 4.2173224307e+00 
47000 4.5605823857e+00 -1.7699125716e-03 2.4349086489e+00 -4.2173854917e+00 2.4349086489e+00 4.2173854917e+00 
47100 4.5605816967e+00 -1.7666304570e-03 2.4349449935e+00 -4.2174484424e+00 2.4349449935e+00 4.2174484424e+00 
47200 4.5605810281e+00 -1.7631448601e-03 2.4349812702e+00 -4.2175112755e+00 2.4349812702e+00 4.2175112755e+00 
47300 4.5605803794e+00 -1.7594609074e-03 2.4350174748e+00 -4.2175739836e+00 2.4350174748e+00 4.2175739836e+00 
47400 4.5605797500e+00 -1.7555836571e-03 2.4350536032e+00 -4.2176365598e+00 2.4350536032e+00 4.2176365598e+00 
47500 4.5605791392e+00 -1.7515180990e-03 2.4350896514e+00 -4.2176989972e+00 2.4350896514e+00 4.2176989972e+00 
47600 4.5605785467e+00 -1.7472691545e-03 2.4351256156e+00 -4.2177612891e+00 2.4351256156e+00 4.2177612891e+00 
47700 4.5605779717e+00 -1.7428416764e-03 2.4351614921e+00 -4.2178234289e+00 2.4351614921e+00 4.2178234289e+00 
47800 4.5605774138e+00 -1.7382404492e-03 2.4351972771e+00 -4.2178854104e+00 2.4351972771e+00 4.2178854104e+00 
47900 4.5605768725e+00 -1.7334701893e-03 2.4352329671e+00 -4.2179472273e+00 2.4352329671e+00 4.2179472273e+00 
48000 4.5605763473e+00 -1.7285355445e-03 2.4352685587e+00 -4.2180088737e+00 2.4352685587e+00 4.2180088737e+00 
48100 4.5605758376e+00 -1.7234410948e-03 2.4353040484e+00 -4.2180703437e+00 2.4353040484e+00 4.2180703437e+00 
48200 4.5605753431e+00 -1.7181913523e-03 2.4353394330e+00 -4.2181316316e+00 2.4353394330e+00 4.2181316316e+00 
48300 4.5605748633e+00 -1.7127907612e-03 2.4353747093e+00 -4.2181927320e+00 2.4353747093e+00 4.2181927320e+00 
48400 4.5605743977e+00 -1.7072436986e-03 2.4354098742e+00 -4.2182536394e+00 2.4354098742e+00 4.2182536394e+00 
48500 4.5605739460e+00 -1.7015544739e-03 2.4354449247e+00 -4.2183143487e+00 2.4354449247e+00 4.2183143487e+00 
48600 4.5605735077e+00 -1.6957273299e-03 2.4354798580e+00 -4.2183748548e+00 2.4354798580e+00 4.2183748548e+00 
48700 4.5605730823e+00 -1.6897664427e-03 2.4355146710e+00 -4.2184351528e+00 2.4355146710e+00 4.2184351528e+00 
48800 4.5605726696e+00 -1.6836759219e-03 2.4355493613e+00 -4.2184952380e+00 2.4355493613e+00 4.2184952380e+00 
48900 4.5605722691e+00 -1.6774598115e-03 2.4355839259e+00 -4.2185551058e+00 2.4355839259e+00 4.2185551058e+00 
49000 4.5605718805e+00 -1.6711220894e-03 2.4356183625e+00 -4.2186147517e+00 2.4356183625e+00 4.2186147517e+00 
49100 4.5605715035e+00 -1.6646666686e-03 2.4356526685e+00 -4.2186741715e+00 2.4356526685e+00 4.2186741715e+00 
49200 4.5605711376e+00 -1.6580973971e-03 2.4356868415e+00 -4.2187333608e+00 2.4356868415e+00 4.2187333608e+00 
49300 4.5605707825e+00 -1.6514180588e-03 2.4357208792e+00 -4.2187923158e+00 2.4357208792e+00 4.2187923158e+00 
49400 4.5605704379e+00 -1.6446323732e-03 2.4357547792e+00 -4.2188510324e+00 2.4357547792e+00 4.2188510324e+00 
49500 4.5605701036e+00 -1.6377439965e-03 2.4357885395e+00 -4.2189095069e+00 2.4357885395e+00 4.2189095069e+00 
49600 4.5605697791e+00 -1.6307565221e-03 2.4358221579e+00 -4.2189677358e+00 2.4358221579e+00 4.2189677358e+00 
49700 4.5605694643e+00 -1.6236734804e-03 2.4358556325e+00 -4.2190257154e+00 2.4358556325e+00 4.2190257154e+00 
49800 4.5605691587e+00 -1.6164983400e-03 2.4358889612e+00 -4.2190834423e+00 2.4358889612e+00 4.2190834423e+00 
49900 4.5605688622e+00 -1.6092345080e-03 2.4359221421e+00 -4.2191409134e+00 2.4359221421e+00 4.2191409134e+00 
50000 4.5605685744e+00 -1.6018853303e-03 2.4359551735e+00 -4.2191981255e+00 2.4359551735e+00 4.2191981255e+00 
50100 4.5605682952e+00 -1.5944540926e-03 2.4359880536e+00 -4.2192550755e+00 2.4359880536e+00 4.2192550755e+00 
50200 4.5605680241e+00 -1.5869440203e-03 2.4360207807e+00 -4.2193117605e+00 2.4360207807e+00 4.2193117605e+00 
50300 4.5605677611e+00 -1.5793582797e-03 2.4360533533e+00 -4.2193681778e+00 2.4360533533e+00 4.2193681778e+00 
50400 4.5605675058e+00 -1.5716999783e-03 2.4360857697e+00 -4.2194243247e+00 2.4360857697e+00 4.2194243247e+00 
50500 4.5605672581e+00 -1.5639721651e-03 2.4361180285e+00 -4.2194801985e+00 2.4361180285e+00 4.2194801985e+00 
50600 4.5605670176e+00 -1.5561778316e-03 2.4361501282e+00 -4.2195357969e+00 2.4361501282e+00 4.2195357969e+00 
50700 4.5605667842e+00 -1.5483199124e-03 2.4361820676e+00 -4.2195911175e+00 2.4361820676e+00 4.2195911175e+00 
50800 4.5605665577e+00 -1.5404012854e-03 2.4362138452e+00 -4.2196461580e+00 2.4362138452e+00 4.2196461580e+00 
50900 4.5605663378e+00 -1.5324247727e-03 2.4362454599e+00 -4.2197009163e+00 2.4362454599e+00 4.2197009163e+00 
51000 4.5605661244e+00 -1.5243931412e-03 2.4362769106e+00 -4.2197553904e+00 2.4362769106e+00 4.2197553904e+00 
51100 4.5605659172e+00 -1.5163091030e-03 2.4363081959e+00 -4.2198095782e+00 2.4363081959e+00 4.2198095782e+00 
51200 4.5605657162e+00 -1.5081753164e-03 2.4363393150e+00 -4.2198634780e+00 2.4363393150e+00 4.2198634780e+00 
51300 4.5605655210e+00 -1.4999943862e-03 2.4363702667e+00 -4.2199170880e+00 2.4363702667e+00 4.2199170880e+00 
51400 4.5605653315e+00 -1.4917688644e-03 2.4364010502e+00 -4.2199704065e+00 2.4364010502e+00 4.2199704065e+00 
51500 4.5605651476e+00 -1.4835012508e-03 2.4364316644e+00 -4.2200234319e+00 2.4364316644e+00 4.2200234319e+00 
51600 4.5605649690e+00 -1.4751939939e-03 2.4364621086e+00 -4.2200761628e+00 2.4364621086e+00 4.2200761628e+00 
51700 4.5605647957e+00 -1.4668494911e-03 2.4364923820e+00 -4.2201285978e+00 2.4364923820e+00 4.2201285978e+00 
51800 4.5605646274e+00 -1.4584700896e-03 2.4365224837e+00 -4.2201807355e+00 2.4365224837e+00 4.2201807355e+00 
51900 4.5605644640e+00 -1.4500580871e-03 2.4365524131e+00 -4.2202325748e+00 2.4365524131e+00 4.2202325748e+00 
52000 4.5605643054e+00 -1.4416157323e-03 2.4365821695e+00 -4.2202841144e+00 2.4365821695e+00 4.2202841144e+00 
52100 4.5605641514e+00 -1.4331452256e-03 2.4366117523e+00 -4.2203353533e+00 2.4366117523e+00 4.2203353533e+00 
52200 4.5605640019e+00 -1.4246487195e-03 2.4366411609e+00 -4.2203862905e+00 2.4366411609e+00 4.2203862905e+00 
52300 4.5605638567e+00 -1.4161283198e-03 2.4366703948e+00 -4.2204369252e+00 2.4366703948e+00 4.2204369252e+00 
52400 4.5605637157e+00 -1.4075860855e-03 2.4366994536e+00 -4.2204872564e+00 2.4366994536e+00 4.2204872564e+00 
52500 4.5605635788e+00 -1.3990240303e-03 2.4367283367e+00 -4.2205372834e+00 2.4367283367e+00 4.2205372834e+00 
52600 4.5605634459e+00 -1.3904441224e-03 2.4367570438e+00 -4.2205870055e+00 2.4367570438e+00 4.2205870055e+00 
52700 4.5605633168e+00 -1.3818482856e-03 2.4367855744e+00 -4.2206364221e+00 2.4367855744e+00 4.2206364221e+00 
52800 4.5605631915e+00 -1.3732383999e-03 2.4368139284e+00 -4.2206855326e+00 2.4368139284e+00 4.2206855326e+00 
52900 4.5605630698e+00 -1.3646163020e-03 2.4368421054e+00 -4.2207343366e+00 2.4368421054e+00 4.2207343366e+00 
53000 4.5605629515e+00 -1.3559837861e-03 2.4368701051e+00 -4.2207828335e+00 2.4368701051e+00 4.2207828335e+00 
53100 4.5605628367e+00 -1.3473426043e-03 2.4368979274e+00 -4.2208310232e+00 2.4368979274e+00 4.2208310232e+00 
53200 4.5605627252e+00 -1.3386944675e-03 2.4369255721e+00 -4.2208789051e+00 2.4369255721e+00 4.2208789051e+00 
53300 4.5605626169e+00 -1.3300410458e-03 2.4369530390e+00 -4.2209264793e+00 2.4369530390e+00 4.2209264793e+00 
53400 4.5605625117e+00 -1.3213839691e-03 2.4369803281e+00 -4.2209737453e+00 2.4369803281e+00 4.2209737453e+00 
53500 4.5605624095e+00 -1.3127248280e-03 2.4370074392e+00 -4.2210207032e+00 2.4370074392e+00 4.2210207032e+00 
53600 4.5605623102e+00 -1.3040651742e-03 2.4370343724e+00 -4.2210673528e+00 2.4370343724e+00 4.2210673528e+00 
53700 4.5605622138e+00 -1.2954065209e-03 2.4370611276e+00 -4.2211136942e+00 2.4370611276e+00 4.2211136942e+00 
53800 4.5605621201e+00 -1.2867503441e-03 2.4370877049e+00 -4.2211597274e+00 2.4370877049e+00 4.2211597274e+00 
53900 4.5605620291e+00 -1.2780980822e-03 2.4371141043e+00 -4.2212054525e+00 2.4371141043e+00 4.2212054525e+00 
54000 4.5605619407e+00 -1.2694511375e-03 2.4371403259e+00 -4.2212508696e+00 2.4371403259e+00 4.2212508696e+00 
54100 4.5605618548e+00 -1.2608108763e-03 2.4371663698e+00 -4.2212959790e+00 2.4371663698e+00 4.2212959790e+00 
54200 4.5605617713e+00 -1.2521786297e-03 2.4371922362e+00 -4.2213407809e+00 2.4371922362e+00 4.2213407809e+00 
54300 4.5605616902e+00 -1.2435556940e-03 2.4372179252e+00 -4.2213852755e+00 2.4372179252e+00 4.2213852755e+00 
54400 4.5605616114e+00 -1.2349433315e-03 2.4372434370e+00 -4.2214294633e+00 2.4372434370e+00 4.2214294633e+00 
54500 4.5605615349e+00 -1.2263427708e-03 2.4372687719e+00 -4.2214733446e+00 2.4372687719e+00 4.2214733446e+00 
54600 4.5605614604e+00 -1.2177552076e-03 2.4372939301e+00 -4.2215169199e+00 2.4372939301e+00 4.2215169199e+00 
54700 4.5605613881e+00 -1.2091818052e-03 2.4373189118e+00 -4.2215601895e+00 2.4373189118e+00 4.2215601895e+00 
54800 4.5605613178e+00 -1.2006236951e-03 2.4373437174e+00 -4.2216031541e+00 2.4373437174e+00 4.2216031541e+00 
54900 4.5605612495e+00 -1.1920819773e-03 2.4373683472e+00 -4.2216458142e+00 2.4373683472e+00 4.2216458142e+00 
55000 4.5605611831e+00 -1.1835577212e-03 2.4373928016e+00 -4.2216881703e+00 2.4373928016e+00 4.2216881703e+00 
55100 4.5605611186e+00 -1.1750519660e-03 2.4374170808e+00 -4.2217302231e+00 2.4374170808e+00 4.2217302231e+00 
55200 4.5605610559e+00 -1.1665657211e-03 2.4374411853e+00 -4.2217719733e+00 2.4374411853e+00 4.2217719733e+00 
55300 4.5605609949e+00 -1.1580999670e-03 2.4374651154e+00 -4.2218134216e+00 2.4374651154e+00 4.2218134216e+00 
55400 4.5605609356e+00 -1.1496556552e-03 2.4374888717e+00 -4.2218545687e+00 2.4374888717e+00 4.2218545687e+00 
55500 4.5605608780e+00 -1.1412337094e-03 2.4375124545e+00 -4.2218954153e+00 2.4375124545e+00 4.2218954153e+00 
55600 4.5605608219e+00 -1.1328350256e-03 2.4375358644e+00 -4.2219359624e+00 2.4375358644e+00 4.2219359624e+00 
55700 4.5605607675e+00 -1.1244604728e-03 2.4375591017e+00 -4.2219762106e+00 2.4375591017e+00 4.2219762106e+00 
55800 4.5605607145e+00 -1.1161108934e-03 2.4375821671e+00 -4.2220161610e+00 2.4375821671e+00 4.2220161610e+00 
55900 4.5605606630e+00 -1.1077871035e-03 2.4376050609e+00 -4.2220558143e+00 2.4376050609e+00 4.2220558143e+00 
56000 4.5605606129e+00 -1.0994898939e-03 2.4376277838e+00 -4.2220951715e+00 2.4376277838e+00 4.2220951715e+00 
56100 4.5605605642e+00 -1.0912200302e-03 2.4376503363e+00 -4.2221342335e+00 2.4376503363e+00 4.2221342335e+00 
56200 4.5605605168e+00 -1.0829782534e-03 2.4376727189e+00 -4.2221730014e+00 2.4376727189e+00 4.2221730014e+00 
56300 4.5605604708e+00 -1.0747652802e-03 2.4376949323e+00 -4.2222114762e+00 2.4376949323e+00 4.2222114762e+00 
56400 4.5605604260e+00 -1.0665818039e-03 2.4377169771e+00 -4.2222496588e+00 2.4377169771e+00 4.2222496588e+00 
56500 4.5605603824e+00 -1.0584284943e-03 2.4377388538e+00 -4.2222875503e+00 2.4377388538e+00 4.2222875503e+00 
56600 4.5605603400e+00 -1.0503059985e-03 2.4377605630e+00 -4.2223251518e+00 2.4377605630e+00 4.2223251518e+00 
56700 4.5605602988e+00 -1.0422149414e-03 2.4377821055e+00 -4.2223624645e+00 2.4377821055e+00 4.2223624645e+00 
56800 4.5605602586e+00 -1.0341559259e-03 2.4378034818e+00 -4.2223994894e+00 2.4378034818e+00 4.2223994894e+00 
56900 4.5605602196e+00 -1.0261295335e-03 2.4378246927e+00 -4.2224362276e+00 2.4378246927e+00 4.2224362276e+00 
57000 4.5605601816e+00 -1.0181363248e-03 2.4378457387e+00 -4.2224726804e+00 2.4378457387e+00 4.2224726804e+00 
57100 4.5605601447e+00 -1.0101768396e-03 2.4378666206e+00 -4.2225088490e+00 2.4378666206e+00 4.2225088490e+00 
57200 4.5605601087e+00 -1.0022515977e-03 2.4378873391e+00 -4.2225447344e+00 2.4378873391e+00 4.2225447344e+00 
57300 4.5605600738e+00 -9.9436109907e-04 2.4379078949e+00 -4.2225803381e+00 2.4379078949e+00 4.2225803381e+00 
57400 4.5605600397e+00 -9.8650582440e-04 2.4379282886e+00 -4.2226156611e+00 2.4379282886e+00 4.2226156611e+00 
57500 4.5605600066e+00 -9.7868623542e-04 2.4379485211e+00 -4.2226507048e+00 2.4379485211e+00 4.2226507048e+00 
57600 4.5605599743e+00 -9.7090277531e-04 2.4379685931e+00 -4.2226854705e+00 2.4379685931e+00 4.2226854705e+00 
57700 4.5605599430e+00 -9.6315586910e-04 2.4379885052e+00 -4.2227199593e+00 2.4379885052e+00 4.2227199593e+00 
57800 4.5605599124e+00 -9.5544592405e-04 2.4380082583e+00 -4.2227541727e+00 2.4380082583e+00 4.2227541727e+00 
57900 4.5605598827e+00 -9.4777333003e-04 2.4380278532e+00 -4.2227881120e+00 2.4380278532e+00 4.2227881120e+00 
58000 4.5605598537e+00 -9.4013845991e-04 2.4380472905e+00 -4.2228217784e+00 2.4380472905e+00 4.2228217784e+00 
58100 4.5605598256e+00 -9.3254166988e-04 2.4380665711e+00 -4.2228551733e+00 2.4380665711e+00 4.2228551733e+00 
58200 4.5605597981e+00 -9.2498329989e-04 2.4380856957e+00 -4.2228882982e+00 2.4380856957e+00 4.2228882982e+00 
58300 4.5605597714e+00 -9.1746367390e-04 2.4381046652e+00 -4.2229211543e+00 2.4381046652e+00 4.2229211543e+00 
58400 4.5605597454e+00 -9.0998310035e-04 2.4381234803e+00 -4.2229537430e+00 2.4381234803e+00 4.2229537430e+00 
58500 4.5605597201e+00 -9.0254187240e-04 2.4381421419e+00 -4.2229860658e+00 2.4381421419e+00 4.2229860658e+00 
58600 4.5605596955e+00 -8.9514026833e-04 2.4381606507e+00 -4.2230181241e+00 2.4381606507e+00 4.2230181241e+00 
58700 4.5605596714e+00 -8.8777855187e-04 2.4381790076e+00 -4.2230499191e+00 2.4381790076e+00 4.2230499191e+00 
58800 4.5605596481e+00 -8.8045697250e-04 2.4381972134e+00 -4.2230814525e+00 2.4381972134e+00 4.2230814525e+00 
58900 4.5605596253e+00 -8.7317576581e-04 2.4382152689e+00 -4.2231127256e+00 2.4382152689e+00 4.2231127256e+00 
59000 4.5605596031e+00 -8.6593515377e-04 2.4382331750e+00 -4.2231437398e+00 2.4382331750e+00 4.2231437398e+00 
59100 4.5605595815e+00 -8.5873534511e-04 2.4382509324e+00 -4.2231744966e+00 2.4382509324e+00 4.2231744966e+00 
59200 4.5605595605e+00 -8.5157653556e-04 2.4382685421e+00 -4.2232049975e+00 2.4382685421e+00 4.2232049975e+00 
59300 4.5605595399e+00 -8.4445890818e-04 2.4382860049e+00 -4.2232352438e+00 2.4382860049e+00 4.2232352438e+00 
59400 4.5605595200e+00 -8.3738263370e-04 2.4383033215e+00 -4.2232652372e+00 2.4383033215e+00 4.2232652372e+00 
59500 4.5605595005e+00 -8.3034787072e-04 2.4383204930e+00 -4.2232949790e+00 2.4383204930e+00 4.2232949790e+00 
59600 4.5605594816e+00 -8.2335476609e-04 2.4383375201e+00 -4.2233244707e+00 2.4383375201e+00 4.2233244707e+00 
59700 4.5605594631e+00 -8.1640345512e-04 2.4383544036e+00 -4.2233537139e+00 2.4383544036e+00 4.2233537139e+00 
59800 4.5605594451e+00 -8.0949406191e-04 2.4383711445e+00 -4.2233827100e+00 2.4383711445e+00 4.2233827100e+00 
59900 4.5605594275e+00 -8.0262669961e-04 2.4383877436e+00 -4.2234114604e+00 2.4383877436e+00 4.2234114604e+00 
60000 4.5605594104e+00 -7.9580147065e-04 2.4384042017e+00 -4.2234399668e+00 2.4384042017e+00 4.2234399668e+00 
60100 4.5605593938e+00 -7.8901846706e-04 2.4384205198e+00 -4.2234682306e+00 2.4384205198e+00 4.2234682306e+00 
60200 4.5605593775e+00 -7.8227777069e-04 2.4384366987e+00 -4.2234962533e+00 2.4384366987e+00 4.2234962533e+00 
60300 4.5605593617e+00 -7.7557945347e-04 2.4384527393e+00 -4.2235240364e+00 2.4384527393e+00 4.2235240364e+00 
60400 4.5605593463e+00 -7.6892357769e-04 2.4384686424e+00 -4.2235515814e+00 2.4384686424e+00 4.2235515814e+00 
60500 4.5605593312e+00 -7.6231019619e-04 2.4384844090e+00 -4.2235788898e+00 2.4384844090e+00 4.2235788898e+00 
60600 4.5605593166e+00 -7.5573935265e-04 2.4385000398e+00 -4.2236059632e+00 2.4385000398e+00 4.2236059632e+00 
60700 4.5605593023e+00 -7.4921108180e-04 2.4385155358e+00 -4.2236328031e+00 2.4385155358e+00 4.2236328031e+00 
60800 4.5605592883e+00 -7.4272540965e-04 2.4385308979e+00 -4.2236594109e+00 2.4385308979e+00 4.2236594109e+00 
60900 4.5605592747e+00 -7.3628235373e-04 2.4385461268e+00 -4.2236857883e+00 2.4385461268e+00 4.2236857883e+00 
61000 4.5605592615e+00 -7.2988192332e-04 2.4385612236e+00 -4.2237119367e+00 2.4385612236e+00 4.2237119367e+00 
61100 4.5605592486e+00 -7.2352411964e-04 2.4385761890e+00 -4.2237378576e+00 2.4385761890e+00 4.2237378576e+00 
61200 4.5605592360e+00 -7.1720893610e-04 2.4385910240e+00 -4.2237635525e+00 2.4385910240e+00 4.2237635525e+00 
61300 4.5605592237e+00 -7.1093635846e-04 2.4386057294e+00 -4.2237890230e+00 2.4386057294e+00 4.2237890230e+00 
61400 4.5605592117e+00 -7.0470636510e-04 2.4386203062e+00 -4.2238142706e+00 2.4386203062e+00 4.2238142706e+00 
61500 4.5605592000e+00 -6.9851892719e-04 2.4386347550e+00 -4.2238392968e+00 2.4386347550e+00 4.2238392968e+00 
61600 4.5605591886e+00 -6.9237400887e-04 2.4386490770e+00 -4.2238641032e+00 2.4386490770e+00 4.2238641032e+00 
61700 4.5605591775e+00 -6.8627156749e-04 2.4386632728e+00 -4.2238886911e+00 2.4386632728e+00 4.2238886911e+00 
61800 4.5605591666e+00 -6.8021155375e-04 2.4386773435e+00 -4.2239130622e+00 2.4386773435e+00 4.2239130622e+00 
61900 4.5605591561e+00 -6.7419391194e-04 2.4386912898e+00 -4.2239372180e+00 2.4386912898e+00 4.2239372180e+00 
62000 4.5605591457e+00 -6.6821858007e-04 2.4387051127e+00 -4.2239611599e+00 2.4387051127e+00 4.2239611599e+00 
62100 4.5605591357e+00 -6.6228549012e-04 2.4387188130e+00 -4.2239848895e+00 2.4387188130e+00 4.2239848895e+00 
62200 4.5605591258e+00 -6.5639456813e-04 2.4387323916e+00 -4.2240084083e+00 2.4387323916e+00 4.2240084083e+00 
62300 4.5605591163e+00 -6.5054573444e-04 2.4387458493e+00 -4.2240317177e+00 2.4387458493e+00 4.2240317177e+00 
62400 4.5605591069e+00 -6.4473890383e-04 2.4387591870e+00 -4.2240548193e+00 2.4387591870e+00 4.2240548193e+00 
62500 4.5605590978e+00 -6.3897398570e-04 2.4387724056e+00 -4.2240777146e+00 2.4387724056e+00 4.2240777146e+00 
62600 4.5605590889e+00 -6.3325088423e-04 2.4387855059e+00 -4.2241004050e+00 2.4387855059e+00 4.2241004050e+00 
62700 4.5605590802e+00 -6.2756949851e-04 2.4387984889e+00 -4.2241228921e+00 2.4387984889e+00 4.2241228921e+00 
62800 4.5605590717e+00 -6.2192972275e-04 2.4388113552e+00 -4.2241451774e+00 2.4388113552e+00 4.2241451774e+00 
62900 4.5605590634e+00 -6.1633144639e-04 2.4388241059e+00 -4.2241672622e+00 2.4388241059e+00 4.2241672622e+00 
63000 4.5605590553e+00 -6.1077455427e-04 2.4388367418e+00 -4.2241891481e+00 2.4388367418e+00 4.2241891481e+00 
63100 4.5605590474e+00 -6.0525892676e-04 2.4388492636e+00 -4.2242108366e+00 2.4388492636e+00 4.2242108366e+00 
63200 4.5605590397e+00 -5.9978443993e-04 2.4388616723e+00 -4.2242323291e+00 2.4388616723e+00 4.2242323291e+00 
63300 4.5605590322e+00 -5.9435096566e-04 2.4388739687e+00 -4.2242536271e+00 2.4388739687e+00 4.2242536271e+00 
63400 4.5605590249e+00 -5.8895837180e-04 2.4388861537e+00 -4.2242747321e+00 2.4388861537e+00 4.2242747321e+00 
63500 4.5605590177e+00 -5.8360652230e-04 2.4388982280e+00 -4.2242956455e+00 2.4388982280e+00 4.2242956455e+00 
63600 4.5605590107e+00 -5.7829527734e-04 2.4389101926e+00 -4.2243163687e+00 2.4389101926e+00 4.2243163687e+00 
63700 4.5605590039e+00 -5.7302449344e-04 2.4389220482e+00 -4.2243369032e+00 2.4389220482e+00 4.2243369032e+00 
63800 4.5605589972e+00 -5.6779402363e-04 2.4389337957e+00 -4.2243572505e+00 2.4389337957e+00 4.2243572505e+00 
63900 4.5605589907e+00 -5.6260371753e-04 2.4389454359e+00 -4.2243774119e+00 2.4389454359e+00 4.2243774119e+00 
64000 4.5605589843e+00 -5.5745342149e-04 2.4389569697e+00 -4.2243973890e+00 2.4389569697e+00 4.2243973890e+00 
64100 4.5605589781e+00 -5.5234297873e-04 2.4389683978e+00 -4.2244171831e+00 2.4389683978e+00 4.2244171831e+00 
64200 4.5605589721e+00 -5.4727222939e-04 2.4389797211e+00 -4.2244367956e+00 2.4389797211e+00 4.2244367956e+00 
64300 4.5605589661e+00 -5.4224101072e-04 2.4389909404e+00 -4.2244562280e+00 2.4389909404e+00 4.2244562280e+00 
64400 4.5605589603e+00 -5.3724915715e-04 2.4390020565e+00 -4.2244754817e+00 2.4390020565e+00 4.2244754817e+00 
64500 4.5605589547e+00 -5.3229650039e-04 2.4390130702e+00 -4.2244945580e+00 2.4390130702e+00 4.2244945580e+00 
64600 4.5605589492e+00 -5.2738286957e-04 2.4390239824e+00 -4.2245134584e+00 2.4390239824e+00 4.2245134584e+00 
64700 4.5605589438e+00 -5.2250809130e-04 2.4390347937e+00 -4.2245321842e+00 2.4390347937e+00 4.2245321842e+00 
64800 4.5605589385e+00 -5.1767198981e-04 2.4390455051e+00 -4.2245507368e+00 2.4390455051e+00 4.2245507368e+00 
64900 4.5605589334e+00 -5.1287438703e-04 2.4390561173e+00 -4.2245691177e+00 2.4390561173e+00 4.2245691177e+00 
65000 4.5605589284e+00 -5.0811510269e-04 2.4390666311e+00 -4.2245873281e+00 2.4390666311e+00 4.2245873281e+00 
65100 4.5605589235e+00 -5.0339395442e-04 2.4390770473e+00 -4.2246053695e+00 2.4390770473e+00 4.2246053695e+00 
65200 4.5605589187e+00 -4.9871075781e-04 2.4390873666e+00 -4.2246232431e+00 2.4390873666e+00 4.2246232431e+00 
65300 4.5605589140e+00 -4.9406532655e-04 2.4390975900e+00 -4.2246409504e+00 2.4390975900e+00 4.2246409504e+00 
65400 4.5605589094e+00 -4.8945747249e-04 2.4391077180e+00 -4.2246584927e+00 2.4391077180e+00 4.2246584927e+00 
65500 4.5605589049e+00 -4.8488700571e-04 2.4391177515e+00 -4.2246758713e+00 2.4391177515e+00 4.2246758713e+00 
65600 4.5605589006e+00 -4.8035373466e-04 2.4391276914e+00 -4.2246930876e+00 2.4391276914e+00 4.2246930876e+00 
65700 4.5605588963e+00 -4.7585746617e-04 2.4391375382e+00 -4.2247101428e+00 2.4391375382e+00 4.2247101428e+00 
65800 4.5605588921e+00 -4.7139800558e-04 2.4391472928e+00 -4.2247270383e+00 2.4391472928e+00 4.2247270383e+00 
65900 4.5605588881e+00 -4.6697515679e-04 2.4391569560e+00 -4.2247437754e+00 2.4391569560e+00 4.2247437754e+00 
66000 4.5605588841e+00 -4.6258872237e-04 2.4391665285e+00 -4.2247603555e+00 2.4391665285e+00 4.2247603555e+00 
66100 4.5605588802e+00 -4.5823850359e-04 2.4391760110e+00 -4.2247767797e+00 2.4391760110e+00 4.2247767797e+00 
66200 4.5605588764e+00 -4.5392430053e-04 2.4391854043e+00 -4.2247930494e+00 2.4391854043e+00 4.2247930494e+00 
66300 4.5605588727e+00 -4.4964591214e-04 2.4391947092e+00 -4.2248091658e+00 2.4391947092e+00 4.2248091658e+00 
66400 4.5605588690e+00 -4.4540313628e-04 2.4392039263e+00 -4.2248251303e+00 2.4392039263e+00 4.2248251303e+00 
66500 4.5605588655e+00 -4.4119576984e-04 2.4392130564e+00 -4.2248409441e+00 2.4392130564e+00 4.2248409441e+00 
66600 4.5605588620e+00 -4.3702360876e-04 2.4392221002e+00 -4.2248566084e+00 2.4392221002e+00 4.2248566084e+00 
66700 4.5605588586e+00 -4.3288644812e-04 2.4392310584e+00 -4.2248721246e+00 2.4392310584e+00 4.2248721246e+00 
66800 4.5605588553e+00 -4.2878408219e-04 2.4392399319e+00 -4.2248874938e+00 2.4392399319e+00 4.2248874938e+00 
66900 4.5605588521e+00 -4.2471630450e-04 2.4392487212e+00 -4.2249027174e+00 2.4392487212e+00 4.2249027174e+00 
67000 4.5605588489e+00 -4.2068290789e-04 2.4392574271e+00 -4.2249177964e+00 2.4392574271e+00 4.2249177964e+00 
67100 4.5605588458e+00 -4.1668368456e-04 2.4392660502e+00 -4.2249327322e+00 2.4392660502e+00 4.2249327322e+00 
67200 4.5605588428e+00 -4.1271842617e-04 2.4392745914e+00 -4.2249475259e+00 2.4392745914e+00 4.2249475259e+00 
67300 4.5605588398e+00 -4.0878692382e-04 2.4392830513e+00 -4.2249621789e+00 2.4392830513e+00 4.2249621789e+00 
67400 4.5605588369e+00 -4.0488896819e-04 2.4392914305e+00 -4.2249766921e+00 2.4392914305e+00 4.2249766921e+00 
67500 4.5605588341e+00 -4.0102434952e-04 2.4392997298e+00 -4.2249910670e+00 2.4392997298e+00 4.2249910670e+00 
67600 4.5605588314e+00 -3.9719285770e-04 2.4393079499e+00 -4.2250053046e+00 2.4393079499e+00 4.2250053046e+00 
67700 4.5605588287e+00 -3.9339428229e-04 2.4393160914e+00 -4.2250194061e+00 2.4393160914e+00 4.2250194061e+00 
67800 4.5605588260e+00 -3.8962841261e-04 2.4393241551e+00 -4.2250333727e+00 2.4393241551e+00 4.2250333727e+00 
67900 4.5605588234e+00 -3.8589503776e-04 2.4393321415e+00 -4.2250472055e+00 2.4393321415e+00 4.2250472055e+00 
68000 4.5605588209e+00 -3.8219394665e-04 2.4393400513e+00 -4.2250609058e+00 2.4393400513e+00 4.2250609058e+00 
68100 4.5605588185e+00 -3.7852492808e-04 2.4393478853e+00 -4.2250744746e+00 2.4393478853e+00 4.2250744746e+00 
68200 4.5605588160e+00 -3.7488777077e-04 2.4393556440e+00 -4.2250879132e+00 2.4393556440e+00 4.2250879132e+00 
68300 4.5605588137e+00 -3.7128226336e-04 2.4393633282e+00 -4.2251012225e+00 2.4393633282e+00 4.2251012225e+00 
68400 4.5605588114e+00 -3.6770819455e-04 2.4393709384e+00 -4.2251144038e+00 2.4393709384e+00 4.2251144038e+00 
68500 4.5605588091e+00 -3.6416535301e-04 2.4393784754e+00 -4.2251274582e+00 2.4393784754e+00 4.2251274582e+00 
68600 4.5605588069e+00 -3.6065352755e-04 2.4393859397e+00 -4.2251403868e+00 2.4393859397e+00 4.2251403868e+00 
68700 4.5605588048e+00 -3.5717250704e-04 2.4393933320e+00 -4.2251531906e+00 2.4393933320e+00 4.2251531906e+00 
68800 4.5605588027e+00 -3.5372208053e-04 2.4394006529e+00 -4.2251658709e+00 2.4394006529e+00 4.2251658709e+00 
68900 4.5605588006e+00 -3.5030203724e-04 2.4394079031e+00 -4.2251784285e+00 2.4394079031e+00 4.2251784285e+00 
69000 4.5605587986e+00 -3.4691216663e-04 2.4394150832e+00 -4.2251908648e+00 2.4394150832e+00 4.2251908648e+00 
69100 4.5605587966e+00 -3.4355225839e-04 2.4394221937e+00 -4.2252031806e+00 2.4394221937e+00 4.2252031806e+00 
69200 4.5605587947e+00 -3.4022210251e-04 2.4394292354e+00 -4.2252153772e+00 2.4394292354e+00 4.2252153772e+00 
69300 4.5605587928e+00 -3.3692148929e-04 2.4394362088e+00 -4.2252274555e+00 2.4394362088e+00 4.2252274555e+00 
69400 4.5605587910e+00 -3.3365020936e-04 2.4394431145e+00 -4.2252394165e+00 2.4394431145e+00 4.2252394165e+00 
69500 4.5605587892e+00 -3.3040805375e-04 2.4394499532e+00 -4.2252512614e+00 2.4394499532e+00 4.2252512614e+00 
69600 4.5605587874e+00 -3.2719481390e-04 2.4394567254e+00 -4.2252629912e+00 2.4394567254e+00 4.2252629912e+00 
69700 4.5605587857e+00 -3.2401028165e-04 2.4394634317e+00 -4.2252746069e+00 2.4394634317e+00 4.2252746069e+00 
69800 4.5605587840e+00 -3.2085424933e-04 2.4394700727e+00 -4.2252861095e+00 2.4394700727e+00 4.2252861095e+00 
69900 4.5605587823e+00 -3.1772650973e-04 2.4394766490e+00 -4.2252975000e+00 2.4394766490e+00 4.2252975000e+00 
70000 4.5605587807e+00 -3.1462685617e-04 2.4394831612e+00 -4.2253087794e+00 2.4394831612e+00 4.2253087794e+00 
70100 4.5605587792e+00 -3.1155508249e-04 2.4394896098e+00 -4.2253199488e+00 2.4394896098e+00 4.2253199488e+00 
70200 4.5605587776e+00 -3.0851098310e-04 2.4394959955e+00 -4.2253310091e+00 2.4394959955e+00 4.2253310091e+00 
70300 4.5605587761e+00 -3.0549435299e-04 2.4395023188e+00 -4.2253419613e+00 2.4395023188e+00 4.2253419613e+00 
70400 4.5605587746e+00 -3.0250498774e-04 2.4395085802e+00 -4.2253528064e+00 2.4395085802e+00 4.2253528064e+00 
70500 4.5605587732e+00 -2.9954268356e-04 2.4395147803e+00 -4.2253635453e+00 2.4395147803e+00 4.2253635453e+00 
70600 4.5605587718e+00 -2.9660723731e-04 2.4395209197e+00 -4.2253741790e+00 2.4395209197e+00 4.2253741790e+00 
70700 4.5605587704e+00 -2.9369844651e-04 2.4395269989e+00 -4.2253847085e+00 2.4395269989e+00 4.2253847085e+00 
70800 4.5605587691e+00 -2.9081610937e-04 2.4395330185e+00 -4.2253951348e+00 2.4395330185e+00 4.2253951348e+00 
70900 4.5605587678e+00 -2.8796002480e-04 2.4395389790e+00 -4.2254054586e+00 2.4395389790e+00 4.2254054586e+00 
71000 4.5605587665e+00 -2.8512999243e-04 2.4395448809e+00 -4.2254156811e+00 2.4395448809e+00 4.2254156811e+00 
71100 4.5605587652e+00 -2.8232581262e-04 2.4395507248e+00 -4.2254258030e+00 2.4395507248e+00 4.2254258030e+00 
71200 4.5605587640e+00 -2.7954728650e-04 2.4395565113e+00 -4.2254358254e+00 2.4395565113e+00 4.2254358254e+00 
71300 4.5605587628e+00 -2.7679421596e-04 2.4395622407e+00 -4.2254457492e+00 2.4395622407e+00 4.2254457492e+00 
71400 4.5605587616e+00 -2.7406640367e-04 2.4395679138e+00 -4.2254555752e+00 2.4395679138e+00 4.2254555752e+00 
71500 4.5605587604e+00 -2.7136365311e-04 2.4395735309e+00 -4.2254653043e+00 2.4395735309e+00 4.2254653043e+00 
71600 4.5605587593e+00 -2.6868576859e-04 2.4395790926e+00 -4.2254749374e+00 2.4395790926e+00 4.2254749374e+00 
71700 4.5605587582e+00 -2.6603255521e-04 2.4395845994e+00 -4.2254844755e+00 2.4395845994e+00 4.2254844755e+00 
71800 4.5605587571e+00 -2.6340381895e-04 2.4395900518e+00 -4.2254939194e+00 2.4395900518e+00 4.2254939194e+00 
71900 4.5605587561e+00 -2.6079936663e-04 2.4395954503e+00 -4.2255032699e+00 2.4395954503e+00 4.2255032699e+00 
72000 4.5605587550e+00 -2.5821900594e-04 2.4396007955e+00 -4.2255125279e+00 2.4396007955e+00 4.2255125279e+00 
72100 4.5605587540e+00 -2.5566254543e-04 2.4396060877e+00 -4.2255216944e+00 2.4396060877e+00 4.2255216944e+00 
72200 4.5605587530e+00 -2.5312979456e-04 2.4396113275e+00 -4.2255307700e+00 2.4396113275e+00 4.2255307700e+00 
72300 4.5605587521e+00 -2.5062056370e-04 2.4396165155e+00 -4.2255397558e+00 2.4396165155e+00 4.2255397558e+00 
72400 4.5605587511e+00 -2.4813466410e-04 2.4396216519e+00 -4.2255486524e+00 2.4396216519e+00 4.2255486524e+00 
72500 4.5605587502e+00 -2.4567190796e-04 2.4396267375e+00 -4.2255574608e+00 2.4396267375e+00 4.2255574608e+00 
72600 4.5605587493e+00 -2.4323210838e-04 2.4396317725e+00 -4.2255661817e+00 2.4396317725e+00 4.2255661817e+00 
72700 4.5605587484e+00 -2.4081507944e-04 2.4396367575e+00 -4.2255748160e+00 2.4396367575e+00 4.2255748160e+00 
72800 4.5605587476e+00 -2.3842063612e-04 2.4396416930e+00 -4.2255833645e+00 2.4396416930e+00 4.2255833645e+00 
72900 4.5605587467e+00 -2.3604859438e-04 2.4396465794e+00 -4.2255918280e+00 2.4396465794e+00 4.2255918280e+00 
73000 4.5605587459e+00 -2.3369877116e-04 2.4396514171e+00 -4.2256002072e+00 2.4396514171e+00 4.2256002072e+00 
73100 4.5605587451e+00 -2.3137098432e-04 2.4396562067e+00 -4.2256085030e+00 2.4396562067e+00 4.2256085030e+00 
73200 4.5605587443e+00 -2.2906505276e-04 2.4396609486e+00 -4.2256167162e+00 2.4396609486e+00 4.2256167162e+00 
73300 4.5605587435e+00 -2.2678079630e-04 2.4396656432e+00 -4.2256248475e+00 2.4396656432e+00 4.2256248475e+00 
73400 4.5605587428e+00 -2.2451803580e-04 2.4396702910e+00 -4.2256328977e+00 2.4396702910e+00 4.2256328977e+00 
73500 4.5605587420e+00 -2.2227659309e-04 2.4396748924e+00 -4.2256408676e+00 2.4396748924e+00 4.2256408676e+00 
73600 4.5605587413e+00 -2.2005629101e-04 2.4396794479e+00 -4.2256487579e+00 2.4396794479e+00 4.2256487579e+00 
73700 4.5605587406e+00 -2.1785695339e-04 2.4396839578e+00 -4.2256565693e+00 2.4396839578e+00 4.2256565693e+00 
73800 4.5605587399e+00 -2.1567840508e-04 2.4396884227e+00 -4.2256643027e+00 2.4396884227e+00 4.2256643027e+00 
73900 4.5605587392e+00 -2.1352047196e-04 2.4396928429e+00 -4.2256719587e+00 2.4396928429e+00 4.2256719587e+00 
74000 4.5605587386e+00 -2.1138298091e-04 2.4396972188e+00 -4.2256795381e+00 2.4396972188e+00 4.2256795381e+00 
74100 4.5605587379e+00 -2.0926575984e-04 2.4397015510e+00 -4.2256870416e+00 2.4397015510e+00 4.2256870416e+00 
74200 4.5605587373e+00 -2.0716863768e-04 2.4397058398e+00 -4.2256944700e+00 2.4397058398e+00 4.2256944700e+00 
74300 4.5605587367e+00 -2.0509144439e-04 2.4397100855e+00 -4.2257018239e+00 2.4397100855e+00 4.2257018239e+00 
74400 4.5605587361e+00 -2.0303401098e-04 2.4397142887e+00 -4.2257091040e+00 2.4397142887e+00 4.2257091040e+00 
74500 4.5605587355e+00 -2.0099616946e-04 2.4397184497e+00 -4.2257163111e+00 2.4397184497e+00 4.2257163111e+00 
74600 4.5605587349e+00 -1.9897775292e-04 2.4397225690e+00 -4.2257234459e+00 2.4397225690e+00 4.2257234459e+00 
74700 4.5605587343e+00 -1.9697859545e-04 2.4397266469e+00 -4.2257305090e+00 2.4397266469e+00 4.2257305090e+00 
74800 4.5605587338e+00 -1.9499853221e-04 2.4397306838e+00 -4.2257375011e+00 2.4397306838e+00 4.2257375011e+00 
74900 4.5605587332e+00 -1.9303739939e-04 2.4397346801e+00 -4.2257444229e+00 2.4397346801e+00 4.2257444229e+00 
75000 4.5605587327e+00 -1.9109503422e-04 2.4397386362e+00 -4.2257512751e+00 2.4397386362e+00 4.2257512751e+00 
75100 4.5605587322e+00 -1.8917127498e-04 2.4397425525e+00 -4.2257580583e+00 2.4397425525e+00 4.2257580583e+00 
75200 4.5605587317e+00 -1.8726596101e-04 2.4397464294e+00 -4.2257647733e+00 2.4397464294e+00 4.2257647733e+00 
75300 4.5605587312e+00 -1.8537893267e-04 2.4397502672e+00 -4.2257714206e+00 2.4397502672e+00 4.2257714206e+00 
75400 4.5605587307e+00 -1.8351003140e-04 2.4397540663e+00 -4.2257780009e+00 2.4397540663e+00 4.2257780009e+00 
75500 4.5605587302e+00 -1.8165909966e-04 2.4397578272e+00 -4.2257845148e+00 2.4397578272e+00 4.2257845148e+00 
75600 4.5605587298e+00 -1.7982598096e-04 2.4397615501e+00 -4.2257909630e+00 2.4397615501e+00 4.2257909630e+00 
75700 4.5605587293e+00 -1.7801051988e-04 2.4397652354e+00 -4.2257973462e+00 2.4397652354e+00 4.2257973462e+00 
75800 4.5605587289e+00 -1.7621256203e-04 2.4397688835e+00 -4.2258036649e+00 2.4397688835e+00 4.2258036649e+00 
75900 4.5605587285e+00 -1.7443195407e-04 2.4397724947e+00 -4.2258099198e+00 2.4397724947e+00 4.2258099198e+00 
76000 4.5605587280e+00 -1.7266854370e-04 2.4397760695e+00 -4.2258161115e+00 2.4397760695e+00 4.2258161115e+00 
76100 4.5605587276e+00 -1.7092217968e-04 2.4397796081e+00 -4.2258222405e+00 2.4397796081e+00 4.2258222405e+00 
76200 4.5605587272e+00 -1.6919271180e-04 2.4397831109e+00 -4.2258283076e+00 2.4397831109e+00 4.2258283076e+00 
76300 4.5605587268e+00 -1.6747999090e-04 2.4397865783e+00 -4.2258343133e+00 2.4397865783e+00 4.2258343133e+00 
76400 4.5605587264e+00 -1.6578386887e-04 2.4397900106e+00 -4.2258402581e+00 2.4397900106e+00 4.2258402581e+00 
76500 4.5605587261e+00 -1.6410419862e-04 2.4397934081e+00 -4.2258461428e+00 2.4397934081e+00 4.2258461428e+00 
76600 4.5605587257e+00 -1.6244083411e-04 2.4397967712e+00 -4.2258519678e+00 2.4397967712e+00 4.2258519678e+00 
76700 4.5605587253e+00 -1.6079363034e-04 2.4398001001e+00 -4.2258577338e+00 2.4398001001e+00 4.2258577338e+00 
76800 4.5605587250e+00 -1.5916244335e-04 2.4398033954e+00 -4.2258634412e+00 2.4398033954e+00 4.2258634412e+00 
76900 4.5605587246e+00 -1.5754713019e-04 2.4398066572e+00 -4.2258690908e+00 2.4398066572e+00 4.2258690908e+00 
77000 4.5605587243e+00 -1.5594754897e-04 2.4398098858e+00 -4.2258746831e+00 2.4398098858e+00 4.2258746831e+00 
77100 4.5605587240e+00 -1.5436355879e-04 2.4398130817e+00 -4.2258802185e+00 2.4398130817e+00 4.2258802185e+00 
77200 4.5605587237e+00 -1.5279501982e-04 2.4398162452e+00 -4.2258856977e+00 2.4398162452e+00 4.2258856977e+00 
77300 4.5605587233e+00 -1.5124179323e-04 2.4398193764e+00 -4.2258911213e+00 2.4398193764e+00 4.2258911213e+00 
77400 4.5605587230e+00 -1.4970374120e-04 2.4398224759e+00 -4.2258964897e+00 2.4398224759e+00 4.2258964897e+00 
77500 4.5605587227e+00 -1.4818072694e-04 2.4398255438e+00 -4.2259018035e+00 2.4398255438e+00 4.2259018035e+00 
77600 4.5605587224e+00 -1.4667261468e-04 2.4398285805e+00 -4.2259070632e+00 2.4398285805e+00 4.2259070632e+00 
77700 4.5605587222e+00 -1.4517926966e-04 2.4398315863e+00 -4.2259122694e+00 2.4398315863e+00 4.2259122694e+00 
77800 4.5605587219e+00 -1.4370055812e-04 2.4398345615e+00 -4.2259174226e+00 2.4398345615e+00 4.2259174226e+00 
77900 4.5605587216e+00 -1.4223634730e-04 2.4398375064e+00 -4.2259225233e+00 2.4398375064e+00 4.2259225233e+00 
78000 4.5605587213e+00 -1.4078650546e-04 2.4398404213e+00 -4.2259275720e+00 2.4398404213e+00 4.2259275720e+00 
78100 4.5605587211e+00 -1.3935090185e-04 2.4398433064e+00 -4.2259325692e+00 2.4398433064e+00 4.2259325692e+00 
78200 4.5605587208e+00 -1.3792940670e-04 2.4398461622e+00 -4.2259375155e+00 2.4398461622e+00 4.2259375155e+00 
78300 4.5605587206e+00 -1.3652189126e-04 2.4398489888e+00 -4.2259424113e+00 2.4398489888e+00 4.2259424113e+00 
78400 4.5605587203e+00 -1.3512822775e-04 2.4398517865e+00 -4.2259472572e+00 2.4398517865e+00 4.2259472572e+00 
78500 4.5605587201e+00 -1.3374828938e-04 2.4398545557e+00 -4.2259520536e+00 2.4398545557e+00 4.2259520536e+00 
78600 4.5605587199e+00 -1.3238195032e-04 2.4398572966e+00 -4.2259568010e+00 2.4398572966e+00 4.2259568010e+00 
78700 4.5605587196e+00 -1.3102908574e-04 2.4398600095e+00 -4.2259614998e+00 2.4398600095e+00 4.2259614998e+00 
78800 4.5605587194e+00 -1.2968957178e-04 2.4398626947e+00 -4.2259661507e+00 2.4398626947e+00 4.2259661507e+00 
78900 4.5605587192e+00 -1.2836328553e-04 2.4398653524e+00 -4.2259707540e+00 2.4398653524e+00 4.2259707540e+00 
79000 4.5605587190e+00 -1.2705010506e-04 2.4398679830e+00 -4.2259753102e+00 2.4398679830e+00 4.2259753102e+00 
79100 4.5605587188e+00 -1.2574990940e-04 2.4398705866e+00 -4.2259798199e+00 2.4398705866e+00 4.2259798199e+00 
79200 4.5605587186e+00 -1.2446257853e-04 2.4398731636e+00 -4.2259842833e+00 2.4398731636e+00 4.2259842833e+00 
79300 4.5605587184e+00 -1.2318799337e-04 2.4398757142e+00 -4.2259887011e+00 2.4398757142e+00 4.2259887011e+00 
79400 4.5605587182e+00 -1.2192603580e-04 2.4398782386e+00 -4.2259930736e+00 2.4398782386e+00 4.2259930736e+00 
79500 4.5605587180e+00 -1.2067658865e-04 2.4398807372e+00 -4.2259974013e+00 2.4398807372e+00 4.2259974013e+00 
79600 4.5605587178e+00 -1.1943953566e-04 2.4398832102e+00 -4.2260016847e+00 2.4398832102e+00 4.2260016847e+00 
79700 4.5605587176e+00 -1.1821476154e-04 2.4398856579e+00 -4.2260059241e+00 2.4398856579e+00 4.2260059241e+00 
79800 4.5605587175e+00 -1.1700215190e-04 2.4398880804e+00 -4.2260101201e+00 2.4398880804e+00 4.2260101201e+00 
79900 4.5605587173e+00 -1.1580159328e-04 2.4398904781e+00 -4.2260142730e+00 2.4398904781e+00 4.2260142730e+00 
80000 4.5605587171e+00 -1.1461297314e-04 2.4398928512e+00 -4.2260183833e+00 2.4398928512e+00 4.2260183833e+00 
80100 4.5605587169e+00 -1.1343617986e-04 2.4398952000e+00 -4.2260224515e+00 2.4398952000e+00 4.2260224515e+00 
80200 4.5605587168e+00 -1.1227110273e-04 2.4398975246e+00 -4.2260264778e+00 2.4398975246e+00 4.2260264778e+00 
80300 4.5605587166e+00 -1.1111763194e-04 2.4398998253e+00 -4.2260304628e+00 2.4398998253e+00 4.2260304628e+00 
80400 4.5605587165e+00 -1.0997565858e-04 2.4399021024e+00 -4.2260344068e+00 2.4399021024e+00 4.2260344068e+00 
80500 4.5605587163e+00 -1.0884507463e-04 2.4399043561e+00 -4.2260383104e+00 2.4399043561e+00 4.2260383104e+00 
80600 4.5605587162e+00 -1.0772577298e-04 2.4399065866e+00 -4.2260421737e+00 2.4399065866e+00 4.2260421737e+00 
80700 4.5605587160e+00 -1.0661764738e-04 2.4399087942e+00 -4.2260459974e+00 2.4399087942e+00 4.2260459974e+00 
80800 4.5605587159e+00 -1.0552059249e-04 2.4399109791e+00 -4.2260497817e+00 2.4399109791e+00 4.2260497817e+00 
80900 4.5605587158e+00 -1.0443450381e-04 2.4399131414e+00 -4.2260535270e+00 2.4399131414e+00 4.2260535270e+00 
81000 4.5605587156e+00 -1.0335927775e-04 2.4399152816e+00 -4.2260572338e+00 2.4399152816e+00 4.2260572338e+00 
81100 4.5605587155e+00 -1.0229481155e-04 2.4399173997e+00 -4.2260609025e+00 2.4399173997e+00 4.2260609025e+00 
81200 4.5605587154e+00 -1.0124100334e-04 2.4399194959e+00 -4.2260645333e+00 2.4399194959e+00 4.2260645333e+00 
81300 4.5605587153e+00 -1.0019775209e-04 2.4399215706e+00 -4.2260681268e+00 2.4399215706e+00 4.2260681268e+00 
81400 4.5605587151e+00 -9.9164957612e-05 2.4399236239e+00 -4.2260716832e+00 2.4399236239e+00 4.2260716832e+00 
81500 4.5605587150e+00 -9.8142520585e-05 2.4399256561e+00 -4.2260752030e+00 2.4399256561e+00 4.2260752030e+00 
81600 4.5605587149e+00 -9.7130342515e-05 2.4399276672e+00 -4.2260786864e+00 2.4399276672e+00 4.2260786864e+00 
81700 4.5605587148e+00 -9.6128325749e-05 2.4399296577e+00 -4.2260821340e+00 2.4399296577e+00 4.2260821340e+00 
81800 4.5605587147e+00 -9.5136373459e-05 2.4399316276e+00 -4.2260855459e+00 2.4399316276e+00 4.2260855459e+00 
81900 4.5605587146e+00 -9.4154389646e-05 2.4399335771e+00 -4.2260889227e+00 2.4399335771e+00 4.2260889227e+00 
82000 4.5605587145e+00 -9.3182279130e-05 2.4399355066e+00 -4.2260922646e+00 2.4399355066e+00 4.2260922646e+00 
82100 4.5605587144e+00 -9.2219947545e-05 2.4399374161e+00 -4.2260955720e+00 2.4399374161e+00 4.2260955720e+00 
82200 4.5605587143e+00 -9.1267301337e-05 2.4399393059e+00 -4.2260988452e+00 2.4399393059e+00 4.2260988452e+00 
82300 4.5605587142e+00 -9.0324247753e-05 2.4399411762e+00 -4.2261020846e+00 2.4399411762e+00 4.2261020846e+00 
82400 4.5605587141e+00 -8.9390694843e-05 2.4399430271e+00 -4.2261052906e+00 2.4399430271e+00 4.2261052906e+00 
82500 4.5605587140e+00 -8.8466551449e-05 2.4399448590e+00 -4.2261084634e+00 2.4399448590e+00 4.2261084634e+00 
82600 4.5605587139e+00 -8.7551727202e-05 2.4399466718e+00 -4.2261116034e+00 2.4399466718e+00 4.2261116034e+00 
82700 4.5605587138e+00 -8.6646132517e-05 2.4399484660e+00 -4.2261147109e+00 2.4399484660e+00 4.2261147109e+00 
82800 4.5605587137e+00 -8.5749678589e-05 2.4399502415e+00 -4.2261177863e+00 2.4399502415e+00 4.2261177863e+00 
82900 4.5605587136e+00 -8.4862277383e-05 2.4399519987e+00 -4.2261208299e+00 2.4399519987e+00 4.2261208299e+00 
83000 4.5605587136e+00 -8.3983841637e-05 2.4399537378e+00 -4.2261238419e+00 2.4399537378e+00 4.2261238419e+00 
83100 4.5605587135e+00 -8.3114284851e-05 2.4399554588e+00 -4.2261268228e+00 2.4399554588e+00 4.2261268228e+00 
83200 4.5605587134e+00 -8.2253521279e-05 2.4399571620e+00 -4.2261297728e+00 2.4399571620e+00 4.2261297728e+00 
83300 4.5605587133e+00 -8.1401465931e-05 2.4399588475e+00 -4.2261326923e+00 2.4399588475e+00 4.2261326923e+00 
83400 4.5605587133e+00 -8.0558034565e-05 2.4399605156e+00 -4.2261355815e+00 2.4399605156e+00 4.2261355815e+00 
83500 4.5605587132e+00 -7.9723143682e-05 2.4399621664e+00 -4.2261384408e+00 2.4399621664e+00 4.2261384408e+00 
83600 4.5605587131e+00 -7.8896710515e-05 2.4399638001e+00 -4.2261412704e+00 2.4399638001e+00 4.2261412704e+00 
83700 4.5605587131e+00 -7.8078653037e-05 2.4399654169e+00 -4.2261440707e+00 2.4399654169e+00 4.2261440707e+00 
83800 4.5605587130e+00 -7.7268889944e-05 2.4399670169e+00 -4.2261468420e+00 2.4399670169e+00 4.2261468420e+00 
83900 4.5605587129e+00 -7.6467340650e-05 2.4399686003e+00 -4.2261495845e+00 2.4399686003e+00 4.2261495845e+00 
84000 4.5605587129e+00 -7.5673925295e-05 2.4399701672e+00 -4.2261522986e+00 2.4399701672e+00 4.2261522986e+00 
84100 4.5605587128e+00 -7.4888564723e-05 2.4399717180e+00 -4.2261549845e+00 2.4399717180e+00 4.2261549845e+00 
84200 4.5605587127e+00 -7.4111180487e-05 2.4399732526e+00 -4.2261576426e+00 2.4399732526e+00 4.2261576426e+00 
84300 4.5605587127e+00 -7.3341694842e-05 2.4399747713e+00 -4.2261602730e+00 2.4399747713e+00 4.2261602730e+00 
84400 4.5605587126e+00 -7.2580030739e-05 2.4399762742e+00 -4.2261628761e+00 2.4399762742e+00 4.2261628761e+00 
84500 4.5605587126e+00 -7.1826111821e-05 2.4399777615e+00 -4.2261654522e+00 2.4399777615e+00 4.2261654522e+00 
84600 4.5605587125e+00 -7.1079862415e-05 2.4399792334e+00 -4.2261680016e+00 2.4399792334e+00 4.2261680016e+00 
84700 4.5605587125e+00 -7.0341207533e-05 2.4399806899e+00 -4.2261705244e+00 2.4399806899e+00 4.2261705244e+00 
84800 4.5605587125e+00 -7.0351476607e-05 2.4399806899e+00 -4.2261705244e+00 2.4399806899e+00 4.2261705244e+00 
84900 4.5605587125e+00 -7.0365806857e-05 2.4399806899e+00 -4.2261705244e+00 2.4399806899e+00 4.2261705244e+00 
85000 4.5605587126e+00 -7.0384020502e-05 2.4399806899e+00 -4.2261705244e+00 2.4399806899e+00 4.2261705244e+00 
85100 4.5605587126e+00 -7.0405945127e-05 2.4399806899e+00 -4.2261705244e+00 2.4399806899e+00 4.2261705244e+00 
85200 4.5605587126e+00 -7.0431413523e-05 2.4399806899e+00 -4.2261705244e+00 2.4399806899e+00 4.2261705244e+00 
85300 4.5605587126e+00 -7.0460263548e-05 2.4399806899e+00 -4.2261705244e+00 2.4399806899e+00 4.2261705244e+00 
85400 4.5605587127e+00 -7.0492337989e-05 2.4399806899e+00 -4.2261705244e+00 2.4399806899e+00 4.2261705244e+00 
85500 4.5605587127e+00 -7.0527484430e-05 2.4399806899e+00 -4.2261705244e+00 2.4399806899e+00 4.2261705244e+00 
85600 4.5605587127e+00 -7.0565555126e-05 2.4399806899e+00 -4.2261705244e+00 2.4399806899e+00 4.2261705244e+00 
85700 4.5605587128e+00 -7.0606406878e-05 2.4399806899e+00 -4.2261705244e+00 2.4399806899e+00 4.2261705244e+00 
85800 4.5605587128e+00 -7.0649900919e-05 2.4399806899e+00 -4.2261705244e+00 2.4399806899e+00 4.2261705244e+00 
85900 4.5605587128e+00 -7.0695902799e-05 2.4399806899e+00 -4.2261705244e+00 2.4399806899e+00 4.2261705244e+00 
86000 4.5605587128e+00 -7.0744282275e-05 2.4399806899e+00 -4.2261705244e+00 2.4399806899e+00 4.2261705244e+00 
86100 4.5605587128e+00 -7.0049247573e-05 2.4399821396e+00 -4.2261730354e+00 2.4399821396e+00 4.2261730354e+00 
86200 4.5605587128e+00 -7.0097662329e-05 2.4399821396e+00 -4.2261730354e+00 2.4399821396e+00 4.2261730354e+00 
86300 4.5605587128e+00 -7.0148227323e-05 2.4399821396e+00 -4.2261730354e+00 2.4399821396e+00 4.2261730354e+00 
86400 4.5605587129e+00 -7.0200824514e-05 2.4399821396e+00 -4.2261730354e+00 2.4399821396e+00 4.2261730354e+00 
86500 4.5605587129e+00 -7.0255339664e-05 2.4399821396e+00 -4.2261730354e+00 2.4399821396e+00 4.2261730354e+00 
86600 4.5605587129e+00 -7.0311662240e-05 2.4399821396e+00 -4.2261730354e+00 2.4399821396e+00 4.2261730354e+00 
86700 4.5605587130e+00 -7.0369685317e-05 2.4399821396e+00 -4.2261730354e+00 2.4399821396e+00 4.2261730354e+00 
86800 4.5605587130e+00 -7.0429305492e-05 2.4399821396e+00 -4.2261730354e+00 2.4399821396e+00 4.2261730354e+00 
86900 4.5605587130e+00 -7.0490422792e-05 2.4399821396e+00 -4.2261730354e+00 2.4399821396e+00 4.2261730354e+00 
87000 4.5605587130e+00 -7.0552940583e-05 2.4399821396e+00 -4.2261730354e+00 2.4399821396e+00 4.2261730354e+00 
87100 4.5605587131e+00 -7.0616765492e-05 2.4399821396e+00 -4.2261730354e+00 2.4399821396e+00 4.2261730354e+00 
87200 4.5605587131e+00 -7.0681807320e-05 2.4399821396e+00 -4.2261730354e+00 2.4399821396e+00 4.2261730354e+00 
87300 4.5605587131e+00 -7.0698906709e-05 2.4399821396e+00 -4.2261730354e+00 2.4399821396e+00 4.2261730354e+00 
87300 4.5605587131e+00 -7.0698906709e-05 2.4399821396e+00 -4.2261730354e+00 2.4399821396e+00 4.2261730354e+00 
