# step Hamiltonian StressXX CellTensor1 CellTensor2 CellTensor3 CellTensor4 
0 4.7793817189e+00 9.0601982815e-03 1.6087831444e+00 -2.7864941444e+00 1.6087831444e+00 2.7864941444e+00 
100 4.7674368282e+00 5.4158540351e-03 1.6087831444e+00 -2.7864941444e+00 1.6087831444e+00 2.7864941444e+00 
200 4.7555211474e+00 1.7923087847e-03 1.6086148258e+00 -2.7862026082e+00 1.6086148258e+00 2.7862026082e+00 
300 4.7436504859e+00 -1.4967714602e-03 1.6085591165e+00 -2.7861061167e+00 1.6085591165e+00 2.7861061167e+00 
400 4.7318439959e+00 -4.4654716467e-03 1.6086056419e+00 -2.7861867011e+00 1.6086056419e+00 2.7861867011e+00 
500 4.7201259067e+00 -7.1263495337e-03 1.6087444434e+00 -2.7864271123e+00 1.6087444434e+00 2.7864271123e+00 
600 4.7085240298e+00 -9.4906659798e-03 1.6089659364e+00 -2.7868107495e+00 1.6089659364e+00 2.7868107495e+00 
700 4.6970684123e+00 -1.1568611367e-02 1.6092608760e+00 -2.7873215999e+00 1.6092608760e+00 2.7873215999e+00 
800 4.6857901418e+00 -1.3369523460e-02 1.6096203280e+00 -2.7879441890e+00 1.6096203280e+00 2.7879441890e+00 
900 4.6747203055e+00 -1.4902092919e-02 1.6100356464e+00 -2.7886635416e+00 1.6100356464e+00 2.7886635416e+00 
1000 4.6638891013e+00 -1.6174553550e-02 1.6104984562e+00 -2.7894651517e+00 1.6104984562e+00 2.7894651517e+00 
1100 4.6533250964e+00 -1.7194855159e-02 1.6110006422e+00 -2.7903349633e+00 1.6110006422e+00 2.7903349633e+00 
1200 4.6430546273e+00 -1.7970817590e-02 1.6115343417e+00 -2.7912593579e+00 1.6115343417e+00 2.7912593579e+00 
1300 4.6331013321e+00 -1.8510265121e-02 1.6120919424e+00 -2.7922251507e+00 1.6120919424e+00 2.7922251507e+00 
1400 4.6234858059e+00 -1.8821140971e-02 1.6126660834e+00 -2.7932195921e+00 1.6126660834e+00 2.7932195921e+00 
1500 4.6142253680e+00 -1.8911602041e-02 1.6132496598e+00 -2.7942303760e+00 1.6132496598e+00 2.7942303760e+00 
1600 4.6053339298e+00 -1.8790094425e-02 1.6138358290e+00 -2.7952456509e+00 1.6138358290e+00 2.7952456509e+00 
1700 4.5968219515e+00 -1.8465410472e-02 1.6144180203e+00 -2.7962540359e+00 1.6144180203e+00 2.7962540359e+00 
1800 4.5886964760e+00 -1.7946728383e-02 1.6149899447e+00 -2.7972446379e+00 1.6149899447e+00 2.7972446379e+00 
1900 4.5809612291e+00 -1.7243635469e-02 1.6155456063e+00 -2.7982070720e+00 1.6155456063e+00 2.7982070720e+00 
2000 4.5736167737e+00 -1.6366136298e-02 1.6160793140e+00 -2.7991314810e+00 1.6160793140e+00 2.7991314810e+00 
2100 4.5666607090e+00 -1.5324646995e-02 1.6165856936e+00 -2.8000085561e+00 1.6165856936e+00 2.8000085561e+00 
2200 4.5600879044e+00 -1.4129976965e-02 1.6170596986e+00 -2.8008295569e+00 1.6170596986e+00 2.8008295569e+00 
2300 4.5538907593e+00 -1.2793299345e-02 1.6174966217e+00 -2.8015863298e+00 1.6174966217e+00 2.8015863298e+00 
2400 4.5480594797e+00 -1.1326111424e-02 1.6178921038e+00 -2.8022713250e+00 1.6178921038e+00 2.8022713250e+00 
2500 4.5425823668e+00 -9.7401862932e-03 1.6182421432e+00 -2.8028776110e+00 1.6182421432e+00 2.8028776110e+00 
2600 4.5374461076e+00 -8.0475169446e-03 1.6185431022e+00 -2.8033988872e+00 1.6185431022e+00 2.8033988872e+00 
2700 4.5326360651e+00 -6.2602540213e-03 1.6187917122e+00 -2.8038294925e+00 1.6187917122e+00 2.8038294925e+00 
2800 4.5281365610e+00 -4.3906384252e-03 1.6189850780e+00 -2.8041644118e+00 1.6189850780e+00 2.8041644118e+00 
2900 4.5239311473e+00 -2.4509299758e-03 1.6191206784e+00 -2.8043992786e+00 1.6191206784e+00 2.8043992786e+00 
3000 4.5200028642e+00 -4.5333332231e-04 1.6191963661e+00 -2.8045303735e+00 1.6191963661e+00 2.8045303735e+00 
3100 4.5163344797e+00 1.5900776801e-03 1.6192103648e+00 -2.8045546200e+00 1.6192103648e+00 2.8045546200e+00 
3200 4.5129087105e+00 3.6674359111e-03 1.6191612646e+00 -2.8044695760e+00 1.6191612646e+00 2.8044695760e+00 
3300 4.5097084209e+00 5.7671560221e-03 1.6190480149e+00 -2.8042734216e+00 1.6190480149e+00 2.8042734216e+00 
3400 4.5067167999e+00 7.8780073539e-03 1.6188699148e+00 -2.8039649433e+00 1.6188699148e+00 2.8039649433e+00 
3500 4.5039175150e+00 9.9891835443e-03 1.6186266028e+00 -2.8035435146e+00 1.6186266028e+00 2.8035435146e+00 
3600 4.5012948432e+00 1.2090367678e-02 1.6183180429e+00 -2.8030090731e+00 1.6183180429e+00 2.8030090731e+00 
3700 4.4988337783e+00 1.4171791900e-02 1.6179445099e+00 -2.8023620950e+00 1.6179445099e+00 2.8023620950e+00 
3800 4.4965201167e+00 1.6224290511e-02 1.6175065730e+00 -2.8016035660e+00 1.6175065730e+00 2.8016035660e+00 
3900 4.4943405212e+00 1.8239345685e-02 1.6170050773e+00 -2.8007349500e+00 1.6170050773e+00 2.8007349500e+00 
4000 4.4922825648e+00 2.0209125113e-02 1.6164411247e+00 -2.7997581554e+00 1.6164411247e+00 2.7997581554e+00 
4100 4.4903347559e+00 2.2126511027e-02 1.6158160533e+00 -2.7986755000e+00 1.6158160533e+00 2.7986755000e+00 
4200 4.4884865463e+00 2.3985120300e-02 1.6151314164e+00 -2.7974896740e+00 1.6151314164e+00 2.7974896740e+00 
4300 4.4867283241e+00 2.5779315470e-02 1.6143889603e+00 -2.7962037024e+00 1.6143889603e+00 2.7962037024e+00 
4400 4.4850513933e+00 2.7504206794e-02 1.6135906028e+00 -2.7948209067e+00 1.6135906028e+00 2.7948209067e+00 
4500 4.4834479424e+00 2.9155645624e-02 1.6127384107e+00 -2.7933448667e+00 1.6127384107e+00 2.7933448667e+00 
4600 4.4819110034e+00 3.0730209599e-02 1.6118345778e+00 -2.7917793822e+00 1.6118345778e+00 2.7917793822e+00 
4700 4.4804344034e+00 3.2225180310e-02 1.6108814037e+00 -2.7901284362e+00 1.6108814037e+00 2.7901284362e+00 
4800 4.4790127115e+00 3.3638514256e-02 1.6098812729e+00 -2.7883961588e+00 1.6098812729e+00 2.7883961588e+00 
4900 4.4776411810e+00 3.4968808013e-02 1.6088366346e+00 -2.7865867922e+00 1.6088366346e+00 2.7865867922e+00 
5000 4.4763156904e+00 3.6215258613e-02 1.6077499839e+00 -2.7847046580e+00 1.6077499839e+00 2.7847046580e+00 
5100 4.4750326832e+00 3.7377620171e-02 1.6066238440e+00 -2.7827541265e+00 1.6066238440e+00 2.7827541265e+00 
5200 4.4737891084e+00 3.8456157796e-02 1.6054607495e+00 -2.7807395878e+00 1.6054607495e+00 2.7807395878e+00 
5300 4.4725823632e+00 3.9451599814e-02 1.6042632312e+00 -2.7786654252e+00 1.6042632312e+00 2.7786654252e+00 
5400 4.4714102370e+00 4.0365089233e-02 1.6030338022e+00 -2.7765359916e+00 1.6030338022e+00 2.7765359916e+00 
5500 4.4702708601e+00 4.1198135331e-02 1.6017749453e+00 -2.7743555876e+00 1.6017749453e+00 2.7743555876e+00 
5600 4.4691626548e+00 4.1952566146e-02 1.6004891025e+00 -2.7721284424e+00 1.6004891025e+00 2.7721284424e+00 
5700 4.4680842911e+00 4.2630482505e-02 1.5991786644e+00 -2.7698586972e+00 1.5991786644e+00 2.7698586972e+00 
5800 4.4670346467e+00 4.3234214157e-02 1.5978459629e+00 -2.7675503905e+00 1.5978459629e+00 2.7675503905e+00 
5900 4.4660127706e+00 4.3766278425e-02 1.5964932635e+00 -2.7652074463e+00 1.5964932635e+00 2.7652074463e+00 
6000 4.4650178513e+00 4.4229341697e-02 1.5951227594e+00 -2.7628336636e+00 1.5951227594e+00 2.7628336636e+00 
6100 4.4640491892e+00 4.4626183956e-02 1.5937365674e+00 -2.7604327086e+00 1.5937365674e+00 2.7604327086e+00 
6200 4.4631061720e+00 4.4959666487e-02 1.5923367236e+00 -2.7580081080e+00 1.5923367236e+00 2.7580081080e+00 
6300 4.4621882547e+00 4.5232702766e-02 1.5909251812e+00 -2.7555632448e+00 1.5909251812e+00 2.7555632448e+00 
6400 4.4612949420e+00 4.5448232522e-02 1.5895038082e+00 -2.7531013546e+00 1.5895038082e+00 2.7531013546e+00 
6500 4.4604257741e+00 4.5609198861e-02 1.5880743869e+00 -2.7506255242e+00 1.5880743869e+00 2.7506255242e+00 
6600 4.4595803149e+00 4.5718528327e-02 1.5866386128e+00 -2.7481386907e+00 1.5866386128e+00 2.7481386907e+00 
6700 4.4587581426e+00 4.5779113726e-02 1.5851980957e+00 -2.7456436418e+00 1.5851980957e+00 2.7456436418e+00 
6800 4.4579588427e+00 4.5793799526e-02 1.5837543595e+00 -2.7431430173e+00 1.5837543595e+00 2.7431430173e+00 
6900 4.4571820019e+00 4.5765369621e-02 1.5823088441e+00 -2.7406393112e+00 1.5823088441e+00 2.7406393112e+00 
7000 4.4564272045e+00 4.5696537255e-02 1.5808629066e+00 -2.7381348741e+00 1.5808629066e+00 2.7381348741e+00 
7100 4.4556940292e+00 4.5589936889e-02 1.5794178235e+00 -2.7356319166e+00 1.5794178235e+00 2.7356319166e+00 
7200 4.4549820474e+00 4.5448117813e-02 1.5779747922e+00 -2.7331325131e+00 1.5779747922e+00 2.7331325131e+00 
7300 4.4542908223e+00 4.5273539290e-02 1.5765349340e+00 -2.7306386055e+00 1.5765349340e+00 2.7306386055e+00 
7400 4.4536199087e+00 4.5068567066e-02 1.5750992962e+00 -2.7281520080e+00 1.5750992962e+00 2.7281520080e+00 
7500 4.4529688529e+00 4.4835471053e-02 1.5736688550e+00 -2.7256744112e+00 1.5736688550e+00 2.7256744112e+00 
7600 4.4523371938e+00 4.4576424031e-02 1.5722445179e+00 -2.7232073869e+00 1.5722445179e+00 2.7232073869e+00 
7700 4.4517244634e+00 4.4293501233e-02 1.5708271264e+00 -2.7207523929e+00 1.5708271264e+00 2.7207523929e+00 
7800 4.4511301885e+00 4.3988680662e-02 1.5694174592e+00 -2.7183107777e+00 1.5694174592e+00 2.7183107777e+00 
7900 4.4505538916e+00 4.3663844034e-02 1.5680162346e+00 -2.7158837854e+00 1.5680162346e+00 2.7158837854e+00 
8000 4.4499950924e+00 4.3320778245e-02 1.5666241133e+00 -2.7134725606e+00 1.5666241133e+00 2.7134725606e+00 
8100 4.4494533092e+00 4.2961177253e-02 1.5652417012e+00 -2.7110781527e+00 1.5652417012e+00 2.7110781527e+00 
8200 4.4489280606e+00 4.2586644313e-02 1.5638695523e+00 -2.7087015210e+00 1.5638695523e+00 2.7087015210e+00 
8300 4.4484188662e+00 4.2198694476e-02 1.5625081709e+00 -2.7063435392e+00 1.5625081709e+00 2.7063435392e+00 
8400 4.4479252487e+00 4.1798757303e-02 1.5611580144e+00 -2.7040049996e+00 1.5611580144e+00 2.7040049996e+00 
8500 4.4474467347e+00 4.1388179734e-02 1.5598194959e+00 -2.7016866175e+00 1.5598194959e+00 2.7016866175e+00 
8600 4.4469828557e+00 4.0968229066e-02 1.5584929864e+00 -2.6993890357e+00 1.5584929864e+00 2.6993890357e+00 
8700 4.4465331496e+00 4.0540096007e-02 1.5571788173e+00 -2.6971128280e+00 1.5571788173e+00 2.6971128280e+00 
8800 4.4460971612e+00 4.0104897765e-02 1.5558772827e+00 -2.6948585039e+00 1.5558772827e+00 2.6948585039e+00 
8900 4.4456744434e+00 3.9663681149e-02 1.5545886413e+00 -2.6926265116e+00 1.5545886413e+00 2.6926265116e+00 
9000 4.4452645575e+00 3.9217425659e-02 1.5533131189e+00 -2.6904172421e+00 1.5533131189e+00 2.6904172421e+00 
9100 4.4448670744e+00 3.8767046544e-02 1.5520509102e+00 -2.6882310323e+00 1.5520509102e+00 2.6882310323e+00 
9200 4.4444815747e+00 3.8313397811e-02 1.5508021804e+00 -2.6860681689e+00 1.5508021804e+00 2.6860681689e+00 
9300 4.4441076492e+00 3.7857275176e-02 1.5495670678e+00 -2.6839288911e+00 1.5495670678e+00 2.6839288911e+00 
9400 4.4437448995e+00 3.7399418943e-02 1.5483456848e+00 -2.6818133937e+00 1.5483456848e+00 2.6818133937e+00 
9500 4.4433929380e+00 3.6940516808e-02 1.5471381200e+00 -2.6797218302e+00 1.5471381200e+00 2.6797218302e+00 
9600 4.4430513884e+00 3.6481206573e-02 1.5459444398e+00 -2.6776543155e+00 1.5459444398e+00 2.6776543155e+00 
9700 4.4427198856e+00 3.6022078778e-02 1.5447646897e+00 -2.6756109283e+00 1.5447646897e+00 2.6756109283e+00 
9800 4.4423980758e+00 3.5563679235e-02 1.5435988959e+00 -2.6735917141e+00 1.5435988959e+00 2.6735917141e+00 
9900 4.4420856166e+00 3.5106511471e-02 1.5424470664e+00 -2.6715966871e+00 1.5424470664e+00 2.6715966871e+00 
10000 4.4417821770e+00 3.4651039076e-02 1.5413091930e+00 -2.6696258324e+00 1.5413091930e+00 2.6696258324e+00 
10100 4.4414874372e+00 3.4197687957e-02 1.5401852516e+00 -2.6676791088e+00 1.5401852516e+00 2.6676791088e+00 
10200 4.4412010886e+00 3.3746848492e-02 1.5390752041e+00 -2.6657564501e+00 1.5390752041e+00 2.6657564501e+00 
10300 4.4409228336e+00 3.3298877598e-02 1.5379789990e+00 -2.6638577673e+00 1.5379789990e+00 2.6638577673e+00 
10400 4.4406523853e+00 3.2854100701e-02 1.5368965731e+00 -2.6619829505e+00 1.5368965731e+00 2.6619829505e+00 
10500 4.4403894676e+00 3.2412813619e-02 1.5358278515e+00 -2.6601318705e+00 1.5358278515e+00 2.6601318705e+00 
10600 4.4401338147e+00 3.1975284355e-02 1.5347727496e+00 -2.6583043803e+00 1.5347727496e+00 2.6583043803e+00 
10700 4.4398851709e+00 3.1541754804e-02 1.5337311730e+00 -2.6565003169e+00 1.5337311730e+00 2.6565003169e+00 
10800 4.4396432902e+00 3.1112442378e-02 1.5327030193e+00 -2.6547195024e+00 1.5327030193e+00 2.6547195024e+00 
10900 4.4394079366e+00 3.0687541553e-02 1.5316881780e+00 -2.6529617457e+00 1.5316881780e+00 2.6529617457e+00 
11000 4.4391788831e+00 3.0267225328e-02 1.5306865318e+00 -2.6512268435e+00 1.5306865318e+00 2.6512268435e+00 
11100 4.4389559117e+00 2.9851646626e-02 1.5296979569e+00 -2.6495145816e+00 1.5296979569e+00 2.6495145816e+00 
11200 4.4387388133e+00 2.9440939602e-02 1.5287223241e+00 -2.6478247360e+00 1.5287223241e+00 2.6478247360e+00 
11300 4.4385273870e+00 2.9035220902e-02 1.5277594989e+00 -2.6461570739e+00 1.5277594989e+00 2.6461570739e+00 
11400 4.4383214401e+00 2.8634590840e-02 1.5268093425e+00 -2.6445113547e+00 1.5268093425e+00 2.6445113547e+00 
11500 4.4381207878e+00 2.8239134519e-02 1.5258717121e+00 -2.6428873312e+00 1.5258717121e+00 2.6428873312e+00 
11600 4.4379252527e+00 2.7848922888e-02 1.5249464613e+00 -2.6412847499e+00 1.5249464613e+00 2.6412847499e+00 
11700 4.4377346647e+00 2.7464013744e-02 1.5240334410e+00 -2.6397033523e+00 1.5240334410e+00 2.6397033523e+00 
11800 4.4375488606e+00 2.7084452674e-02 1.5231324993e+00 -2.6381428755e+00 1.5231324993e+00 2.6381428755e+00 
11900 4.4373676839e+00 2.6710273946e-02 1.5222434822e+00 -2.6366030527e+00 1.5222434822e+00 2.6366030527e+00 
12000 4.4371909843e+00 2.6341501350e-02 1.5213662341e+00 -2.6350836143e+00 1.5213662341e+00 2.6350836143e+00 
12100 4.4370186179e+00 2.5978148988e-02 1.5205005976e+00 -2.6335842880e+00 1.5205005976e+00 2.6335842880e+00 
12200 4.4368504464e+00 2.5620222022e-02 1.5196464146e+00 -2.6321047996e+00 1.5196464146e+00 2.6321047996e+00 
12300 4.4366863371e+00 2.5267717373e-02 1.5188035260e+00 -2.6306448738e+00 1.5188035260e+00 2.6306448738e+00 
12400 4.4365261629e+00 2.4920624386e-02 1.5179717723e+00 -2.6292042341e+00 1.5179717723e+00 2.6292042341e+00 
12500 4.4363698016e+00 2.4578925447e-02 1.5171509936e+00 -2.6277826037e+00 1.5171509936e+00 2.6277826037e+00 
12600 4.4362171358e+00 2.4242596567e-02 1.5163410302e+00 -2.6263797059e+00 1.5163410302e+00 2.6263797059e+00 
12700 4.4360680529e+00 2.3911607931e-02 1.5155417223e+00 -2.6249952641e+00 1.5155417223e+00 2.6249952641e+00 
12800 4.4359224447e+00 2.3585924413e-02 1.5147529109e+00 -2.6236290026e+00 1.5147529109e+00 2.6236290026e+00 
12900 4.4357802073e+00 2.3265506056e-02 1.5139744373e+00 -2.6222806468e+00 1.5139744373e+00 2.6222806468e+00 
13000 4.4356412408e+00 2.2950308525e-02 1.5132061437e+00 -2.6209499233e+00 1.5132061437e+00 2.6209499233e+00 
13100 4.4355054490e+00 2.2640283529e-02 1.5124478733e+00 -2.6196365603e+00 1.5124478733e+00 2.6196365603e+00 
13200 4.4353727397e+00 2.2335379219e-02 1.5116994701e+00 -2.6183402880e+00 1.5116994701e+00 2.6183402880e+00 
13300 4.4352430238e+00 2.2035540556e-02 1.5109607797e+00 -2.6170608386e+00 1.5109607797e+00 2.6170608386e+00 
13400 4.4351162160e+00 2.1740709660e-02 1.5102316486e+00 -2.6157979466e+00 1.5102316486e+00 2.6157979466e+00 
13500 4.4349922339e+00 2.1450826128e-02 1.5095119252e+00 -2.6145513491e+00 1.5095119252e+00 2.6145513491e+00 
13600 4.4348709981e+00 2.1165827341e-02 1.5088014591e+00 -2.6133207856e+00 1.5088014591e+00 2.6133207856e+00 
13700 4.4347524324e+00 2.0885648740e-02 1.5081001015e+00 -2.6121059987e+00 1.5081001015e+00 2.6121059987e+00 
13800 4.4346364629e+00 2.0610224091e-02 1.5074077055e+00 -2.6109067336e+00 1.5074077055e+00 2.6109067336e+00 
13900 4.4345230188e+00 2.0339485725e-02 1.5067241258e+00 -2.6097227389e+00 1.5067241258e+00 2.6097227389e+00 
14000 4.4344120316e+00 2.0073364767e-02 1.5060492190e+00 -2.6085537660e+00 1.5060492190e+00 2.6085537660e+00 
14100 4.4343034352e+00 1.9811791342e-02 1.5053828436e+00 -2.6073995700e+00 1.5053828436e+00 2.6073995700e+00 
14200 4.4341971658e+00 1.9554694774e-02 1.5047248599e+00 -2.6062599088e+00 1.5047248599e+00 2.6062599088e+00 
14300 4.4340931618e+00 1.9302003761e-02 1.5040751303e+00 -2.6051345440e+00 1.5040751303e+00 2.6051345440e+00 
14400 4.4339913637e+00 1.9053646546e-02 1.5034335190e+00 -2.6040232407e+00 1.5034335190e+00 2.6040232407e+00 
14500 4.4338917141e+00 1.8809551067e-02 1.5027998925e+00 -2.6029257674e+00 1.5027998925e+00 2.6029257674e+00 
14600 4.4337941573e+00 1.8569645102e-02 1.5021741190e+00 -2.6018418960e+00 1.5021741190e+00 2.6018418960e+00 
14700 4.4336986396e+00 1.8333856395e-02 1.5015560691e+00 -2.6007714022e+00 1.5015560691e+00 2.6007714022e+00 
14800 4.4336051090e+00 1.8102112780e-02 1.5009456153e+00 -2.5997140651e+00 1.5009456153e+00 2.5997140651e+00 
14900 4.4335135151e+00 1.7874342290e-02 1.5003426321e+00 -2.5986696675e+00 1.5003426321e+00 2.5986696675e+00 
15000 4.4334238093e+00 1.7650473255e-02 1.4997469962e+00 -2.5976379959e+00 1.4997469962e+00 2.5976379959e+00 
15100 4.4333359442e+00 1.7430434396e-02 1.4991585863e+00 -2.5966188401e+00 1.4991585863e+00 2.5966188401e+00 
15200 4.4332498743e+00 1.7214154908e-02 1.4985772833e+00 -2.5956119938e+00 1.4985772833e+00 2.5956119938e+00 
15300 4.4331655551e+00 1.7001564536e-02 1.4980029701e+00 -2.5946172541e+00 1.4980029701e+00 2.5946172541e+00 
15400 4.4330829438e+00 1.6792593644e-02 1.4974355316e+00 -2.5936344218e+00 1.4974355316e+00 2.5936344218e+00 
15500 4.4330019987e+00 1.6587173275e-02 1.4968748549e+00 -2.5926633012e+00 1.4968748549e+00 2.5926633012e+00 
15600 4.4329226793e+00 1.6385235210e-02 1.4963208289e+00 -2.5917037002e+00 1.4963208289e+00 2.5917037002e+00 
15700 4.4328449465e+00 1.6186712013e-02 1.4957733449e+00 -2.5907554300e+00 1.4957733449e+00 2.5907554300e+00 
15800 4.4327687623e+00 1.5991537081e-02 1.4952322958e+00 -2.5898183055e+00 1.4952322958e+00 2.5898183055e+00 
15900 4.4326940896e+00 1.5799644679e-02 1.4946975768e+00 -2.5888921449e+00 1.4946975768e+00 2.5888921449e+00 
16000 4.4326208926e+00 1.5610969977e-02 1.4941690848e+00 -2.5879767700e+00 1.4941690848e+00 2.5879767700e+00 
16100 4.4325491365e+00 1.5425449075e-02 1.4936467189e+00 -2.5870720057e+00 1.4936467189e+00 2.5870720057e+00 
16200 4.4324787874e+00 1.5243019038e-02 1.4931303799e+00 -2.5861776804e+00 1.4931303799e+00 2.5861776804e+00 
16300 4.4324098124e+00 1.5063617909e-02 1.4926199707e+00 -2.5852936257e+00 1.4926199707e+00 2.5852936257e+00 
16400 4.4323421796e+00 1.4887184731e-02 1.4921153959e+00 -2.5844196765e+00 1.4921153959e+00 2.5844196765e+00 
16500 4.4322758578e+00 1.4713659564e-02 1.4916165620e+00 -2.5835556708e+00 1.4916165620e+00 2.5835556708e+00 
16600 4.4322108168e+00 1.4542983495e-02 1.4911233773e+00 -2.5827014499e+00 1.4911233773e+00 2.5827014499e+00 
16700 4.4321470273e+00 1.4375098646e-02 1.4906357520e+00 -2.5818568580e+00 1.4906357520e+00 2.5818568580e+00 
16800 4.4320844607e+00 1.4209948185e-02 1.4901535979e+00 -2.5810217426e+00 1.4901535979e+00 2.5810217426e+00 
16900 4.4320230890e+00 1.4047476326e-02 1.4896768286e+00 -2.5801959539e+00 1.4896768286e+00 2.5801959539e+00 
17000 4.4319628853e+00 1.3887628333e-02 1.4892053594e+00 -2.5793793453e+00 1.4892053594e+00 2.5793793453e+00 
17100 4.4319038231e+00 1.3730350521e-02 1.4887391072e+00 -2.5785717729e+00 1.4887391072e+00 2.5785717729e+00 
17200 4.4318458768e+00 1.3575590253e-02 1.4882779908e+00 -2.5777730958e+00 1.4882779908e+00 2.5777730958e+00 
17300 4.4317890215e+00 1.3423295934e-02 1.4878219303e+00 -2.5769831758e+00 1.4878219303e+00 2.5769831758e+00 
17400 4.4317332328e+00 1.3273417013e-02 1.4873708475e+00 -2.5762018775e+00 1.4873708475e+00 2.5762018775e+00 
17500 4.4316784871e+00 1.3125903970e-02 1.4869246658e+00 -2.5754290682e+00 1.4869246658e+00 2.5754290682e+00 
17600 4.4316247611e+00 1.2980708309e-02 1.4864833100e+00 -2.5746646176e+00 1.4864833100e+00 2.5746646176e+00 
17700 4.4315720326e+00 1.2837782554e-02 1.4860467067e+00 -2.5739083984e+00 1.4860467067e+00 2.5739083984e+00 
17800 4.4315202795e+00 1.2697080232e-02 1.4856147835e+00 -2.5731602855e+00 1.4856147835e+00 2.5731602855e+00 
17900 4.4314694806e+00 1.2558555869e-02 1.4851874698e+00 -2.5724201564e+00 1.4851874698e+00 2.5724201564e+00 
18000 4.4314196150e+00 1.2422164973e-02 1.4847646962e+00 -2.5716878911e+00 1.4847646962e+00 2.5716878911e+00 
18100 4.4313706625e+00 1.2287864024e-02 1.4843463949e+00 -2.5709633719e+00 1.4843463949e+00 2.5709633719e+00 
18200 4.4313226033e+00 1.2155610461e-02 1.4839324991e+00 -2.5702464835e+00 1.4839324991e+00 2.5702464835e+00 
18300 4.4312754181e+00 1.2025362668e-02 1.4835229437e+00 -2.5695371128e+00 1.4835229437e+00 2.5695371128e+00 
18400 4.4312290883e+00 1.1897079957e-02 1.4831176647e+00 -2.5688351489e+00 1.4831176647e+00 2.5688351489e+00 
18500 4.4311835954e+00 1.1770722559e-02 1.4827165993e+00 -2.5681404832e+00 1.4827165993e+00 2.5681404832e+00 
18600 4.4311389216e+00 1.1646251604e-02 1.4823196861e+00 -2.5674530093e+00 1.4823196861e+00 2.5674530093e+00 
18700 4.4310950496e+00 1.1523629108e-02 1.4819268647e+00 -2.5667726227e+00 1.4819268647e+00 2.5667726227e+00 
18800 4.4310519623e+00 1.1402817956e-02 1.4815380761e+00 -2.5660992212e+00 1.4815380761e+00 2.5660992212e+00 
18900 4.4310096431e+00 1.1283781887e-02 1.4811532624e+00 -2.5654327042e+00 1.4811532624e+00 2.5654327042e+00 
19000 4.4309680760e+00 1.1166485478e-02 1.4807723667e+00 -2.5647729735e+00 1.4807723667e+00 2.5647729735e+00 
19100 4.4309272451e+00 1.1050894129e-02 1.4803953333e+00 -2.5641199326e+00 1.4803953333e+00 2.5641199326e+00 
19200 4.4308871351e+00 1.0936974045e-02 1.4800221077e+00 -2.5634734868e+00 1.4800221077e+00 2.5634734868e+00 
19300 4.4308477310e+00 1.0824692218e-02 1.4796526362e+00 -2.5628335435e+00 1.4796526362e+00 2.5628335435e+00 
19400 4.4308090180e+00 1.0714016416e-02 1.4792868664e+00 -2.5622000115e+00 1.4792868664e+00 2.5622000115e+00 
19500 4.4307709820e+00 1.0604915163e-02 1.4789247466e+00 -2.5615728018e+00 1.4789247466e+00 2.5615728018e+00 
19600 4.4307336090e+00 1.0497357723e-02 1.4785662265e+00 -2.5609518266e+00 1.4785662265e+00 2.5609518266e+00 
19700 4.4306968853e+00 1.0391314086e-02 1.4782112563e+00 -2.5603370003e+00 1.4782112563e+00 2.5603370003e+00 
19800 4.4306607977e+00 1.0286754948e-02 1.4778597876e+00 -2.5597282385e+00 1.4778597876e+00 2.5597282385e+00 
19900 4.4306253333e+00 1.0183651702e-02 1.4775117724e+00 -2.5591254586e+00 1.4775117724e+00 2.5591254586e+00 
20000 4.4305904792e+00 1.0081976413e-02 1.4771671642e+00 -2.5585285796e+00 1.4771671642e+00 2.5585285796e+00 
20100 4.4305562232e+00 9.9817018117e-03 1.4768259168e+00 -2.5579375218e+00 1.4768259168e+00 2.5579375218e+00 
20200 4.4305225532e+00 9.8828012719e-03 1.4764879852e+00 -2.5573522072e+00 1.4764879852e+00 2.5573522072e+00 
20300 4.4304894574e+00 9.7852487998e-03 1.4761533253e+00 -2.5567725592e+00 1.4761533253e+00 2.5567725592e+00 
20400 4.4304569242e+00 9.6890190168e-03 1.4758218935e+00 -2.5561985025e+00 1.4758218935e+00 2.5561985025e+00 
20500 4.4304249425e+00 9.5940871456e-03 1.4754936473e+00 -2.5556299633e+00 1.4754936473e+00 2.5556299633e+00 
20600 4.4303935013e+00 9.5004289952e-03 1.4751685447e+00 -2.5550668692e+00 1.4751685447e+00 2.5550668692e+00 
20700 4.4303625898e+00 9.4080209469e-03 1.4748465448e+00 -2.5545091490e+00 1.4748465448e+00 2.5545091490e+00 
20800 4.4303321974e+00 9.3168399399e-03 1.4745276072e+00 -2.5539567328e+00 1.4745276072e+00 2.5539567328e+00 
20900 4.4303023141e+00 9.2268634576e-03 1.4742116922e+00 -2.5534095520e+00 1.4742116922e+00 2.5534095520e+00 
21000 4.4302729298e+00 9.1380695139e-03 1.4738987610e+00 -2.5528675392e+00 1.4738987610e+00 2.5528675392e+00 
21100 4.4302440347e+00 9.0504366400e-03 1.4735887753e+00 -2.5523306283e+00 1.4735887753e+00 2.5523306283e+00 
21200 4.4302156192e+00 8.9639438711e-03 1.4732816977e+00 -2.5517987543e+00 1.4732816977e+00 2.5517987543e+00 
21300 4.4301876740e+00 8.8785707337e-03 1.4729774913e+00 -2.5512718533e+00 1.4729774913e+00 2.5512718533e+00 
21400 4.4301601901e+00 8.7942972330e-03 1.4726761198e+00 -2.5507498626e+00 1.4726761198e+00 2.5507498626e+00 
21500 4.4301331584e+00 8.7111038406e-03 1.4723775477e+00 -2.5502327206e+00 1.4723775477e+00 2.5502327206e+00 
21600 4.4301065703e+00 8.6289714824e-03 1.4720817400e+00 -2.5497203666e+00 1.4720817400e+00 2.5497203666e+00 
21700 4.4300804172e+00 8.5478815266e-03 1.4717886624e+00 -2.5492127412e+00 1.4717886624e+00 2.5492127412e+00 
21800 4.4300546908e+00 8.4678157727e-03 1.4714982810e+00 -2.5487097859e+00 1.4714982810e+00 2.5487097859e+00 
21900 4.4300293829e+00 8.3887564398e-03 1.4712105627e+00 -2.5482114432e+00 1.4712105627e+00 2.5482114432e+00 
22000 4.4300044857e+00 8.3106861556e-03 1.4709254748e+00 -2.5477176566e+00 1.4709254748e+00 2.5477176566e+00 
22100 4.4299799913e+00 8.2335879459e-03 1.4706429853e+00 -2.5472283704e+00 1.4706429853e+00 2.5472283704e+00 
22200 4.4299558921e+00 8.1574452239e-03 1.4703630627e+00 -2.5467435301e+00 1.4703630627e+00 2.5467435301e+00 
22300 4.4299321806e+00 8.0822417800e-03 1.4700856758e+00 -2.5462630819e+00 1.4700856758e+00 2.5462630819e+00 
22400 4.4299088496e+00 8.0079617718e-03 1.4698107942e+00 -2.5457869730e+00 1.4698107942e+00 2.5457869730e+00 
22500 4.4298858920e+00 7.9345897145e-03 1.4695383879e+00 -2.5453151515e+00 1.4695383879e+00 2.5453151515e+00 
22600 4.4298633007e+00 7.8621104711e-03 1.4692684274e+00 -2.5448475661e+00 1.4692684274e+00 2.5448475661e+00 
22700 4.4298410690e+00 7.7905092436e-03 1.4690008836e+00 -2.5443841668e+00 1.4690008836e+00 2.5443841668e+00 
22800 4.4298191902e+00 7.7197715634e-03 1.4687357281e+00 -2.5439249039e+00 1.4687357281e+00 2.5439249039e+00 
22900 4.4297976578e+00 7.6498832829e-03 1.4684729326e+00 -2.5434697288e+00 1.4684729326e+00 2.5434697288e+00 
23000 4.4297764653e+00 7.5808305670e-03 1.4682124696e+00 -2.5430185937e+00 1.4682124696e+00 2.5430185937e+00 
23100 4.4297556066e+00 7.5125998845e-03 1.4679543119e+00 -2.5425714513e+00 1.4679543119e+00 2.5425714513e+00 
23200 4.4297350756e+00 7.4451780002e-03 1.4676984326e+00 -2.5421282554e+00 1.4676984326e+00 2.5421282554e+00 
23300 4.4297148662e+00 7.3785519667e-03 1.4674448054e+00 -2.5416889603e+00 1.4674448054e+00 2.5416889603e+00 
23400 4.4296949726e+00 7.3127091173e-03 1.4671934045e+00 -2.5412535211e+00 1.4671934045e+00 2.5412535211e+00 
23500 4.4296753891e+00 7.2476370578e-03 1.4669442041e+00 -2.5408218934e+00 1.4669442041e+00 2.5408218934e+00 
23600 4.4296561100e+00 7.1833236599e-03 1.4666971793e+00 -2.5403940338e+00 1.4666971793e+00 2.5403940338e+00 
23700 4.4296371300e+00 7.1197570537e-03 1.4664523051e+00 -2.5399698994e+00 1.4664523051e+00 2.5399698994e+00 
23800 4.4296184435e+00 7.0569256209e-03 1.4662095574e+00 -2.5395494479e+00 1.4662095574e+00 2.5395494479e+00 
23900 4.4296000453e+00 6.9948179883e-03 1.4659689119e+00 -2.5391326378e+00 1.4659689119e+00 2.5391326378e+00 
24000 4.4295819304e+00 6.9334230213e-03 1.4657303452e+00 -2.5387194281e+00 1.4657303452e+00 2.5387194281e+00 
24100 4.4295640936e+00 6.8727298173e-03 1.4654938339e+00 -2.5383097785e+00 1.4654938339e+00 2.5383097785e+00 
24200 4.4295465300e+00 6.8127276998e-03 1.4652593550e+00 -2.5379036492e+00 1.4652593550e+00 2.5379036492e+00 
24300 4.4295292347e+00 6.7534062125e-03 1.4650268860e+00 -2.5375010010e+00 1.4650268860e+00 2.5375010010e+00 
24400 4.4295122031e+00 6.6947551133e-03 1.4647964046e+00 -2.5371017955e+00 1.4647964046e+00 2.5371017955e+00 
24500 4.4294954304e+00 6.6367643689e-03 1.4645678889e+00 -2.5367059946e+00 1.4645678889e+00 2.5367059946e+00 
24600 4.4294789122e+00 6.5794241492e-03 1.4643413171e+00 -2.5363135609e+00 1.4643413171e+00 2.5363135609e+00 
24700 4.4294626440e+00 6.5227248220e-03 1.4641166682e+00 -2.5359244575e+00 1.4641166682e+00 2.5359244575e+00 
24800 4.4294466214e+00 6.4666569481e-03 1.4638939209e+00 -2.5355386479e+00 1.4638939209e+00 2.5355386479e+00 
24900 4.4294308401e+00 6.4112112758e-03 1.4636730547e+00 -2.5351560964e+00 1.4636730547e+00 2.5351560964e+00 
25000 4.4294152960e+00 6.3563787366e-03 1.4634540491e+00 -2.5347767676e+00 1.4634540491e+00 2.5347767676e+00 
25100 4.4293999850e+00 6.3021504399e-03 1.4632368841e+00 -2.5344006267e+00 1.4632368841e+00 2.5344006267e+00 
25200 4.4293849030e+00 6.2485176692e-03 1.4630215397e+00 -2.5340276393e+00 1.4630215397e+00 2.5340276393e+00 
25300 4.4293700460e+00 6.1954718769e-03 1.4628079965e+00 -2.5336577717e+00 1.4628079965e+00 2.5336577717e+00 
25400 4.4293554103e+00 6.1430046803e-03 1.4625962352e+00 -2.5332909904e+00 1.4625962352e+00 2.5332909904e+00 
25500 4.4293409921e+00 6.0911078577e-03 1.4623862368e+00 -2.5329272624e+00 1.4623862368e+00 2.5329272624e+00 
25600 4.4293267876e+00 6.0397733437e-03 1.4621779826e+00 -2.5325665555e+00 1.4621779826e+00 2.5325665555e+00 
25700 4.4293127932e+00 5.9889932258e-03 1.4619714540e+00 -2.5322088375e+00 1.4619714540e+00 2.5322088375e+00 
25800 4.4292990053e+00 5.9387597404e-03 1.4617666328e+00 -2.5318540768e+00 1.4617666328e+00 2.5318540768e+00 
25900 4.4292854205e+00 5.8890652691e-03 1.4615635011e+00 -2.5315022425e+00 1.4615635011e+00 2.5315022425e+00 
26000 4.4292720352e+00 5.8399023349e-03 1.4613620412e+00 -2.5311533036e+00 1.4613620412e+00 2.5311533036e+00 
26100 4.4292588463e+00 5.7912635991e-03 1.4611622355e+00 -2.5308072300e+00 1.4611622355e+00 2.5308072300e+00 
26200 4.4292458503e+00 5.7431418575e-03 1.4609640668e+00 -2.5304639917e+00 1.4609640668e+00 2.5304639917e+00 
26300 4.4292330440e+00 5.6955300374e-03 1.4607675180e+00 -2.5301235593e+00 1.4607675180e+00 2.5301235593e+00 
26400 4.4292204242e+00 5.6484211941e-03 1.4605725725e+00 -2.5297859037e+00 1.4605725725e+00 2.5297859037e+00 
26500 4.4292079880e+00 5.6018085083e-03 1.4603792135e+00 -2.5294509961e+00 1.4603792135e+00 2.5294509961e+00 
26600 4.4291957321e+00 5.5556852824e-03 1.4601874247e+00 -2.5291188082e+00 1.4601874247e+00 2.5291188082e+00 
26700 4.4291836537e+00 5.5100449382e-03 1.4599971901e+00 -2.5287893122e+00 1.4599971901e+00 2.5287893122e+00 
26800 4.4291717497e+00 5.4648810136e-03 1.4598084936e+00 -2.5284624803e+00 1.4598084936e+00 2.5284624803e+00 
26900 4.4291600174e+00 5.4201871603e-03 1.4596213196e+00 -2.5281382854e+00 1.4596213196e+00 2.5281382854e+00 
27000 4.4291484538e+00 5.3759571406e-03 1.4594356526e+00 -2.5278167006e+00 1.4594356526e+00 2.5278167006e+00 
27100 4.4291370563e+00 5.3321848253e-03 1.4592514771e+00 -2.5274976994e+00 1.4592514771e+00 2.5274976994e+00 
27200 4.4291258221e+00 5.2888641906e-03 1.4590687782e+00 -2.5271812556e+00 1.4590687782e+00 2.5271812556e+00 
27300 4.4291147485e+00 5.2459893164e-03 1.4588875409e+00 -2.5268673433e+00 1.4588875409e+00 2.5268673433e+00 
27400 4.4291038330e+00 5.2035543834e-03 1.4587077504e+00 -2.5265559371e+00 1.4587077504e+00 2.5265559371e+00 
27500 4.4290930729e+00 5.1615536706e-03 1.4585293922e+00 -2.5262470117e+00 1.4585293922e+00 2.5262470117e+00 
27600 4.4290824658e+00 5.1199815539e-03 1.4583524520e+00 -2.5259405423e+00 1.4583524520e+00 2.5259405423e+00 
27700 4.4290720091e+00 5.0788325030e-03 1.4581769156e+00 -2.5256365043e+00 1.4581769156e+00 2.5256365043e+00 
27800 4.4290617005e+00 5.0381010797e-03 1.4580027690e+00 -2.5253348735e+00 1.4580027690e+00 2.5253348735e+00 
27900 4.4290515376e+00 4.9977819360e-03 1.4578299984e+00 -2.5250356260e+00 1.4578299984e+00 2.5250356260e+00 
28000 4.4290415180e+00 4.9578698118e-03 1.4576585901e+00 -2.5247387381e+00 1.4576585901e+00 2.5247387381e+00 
28100 4.4290316395e+00 4.9183595332e-03 1.4574885306e+00 -2.5244441864e+00 1.4574885306e+00 2.5244441864e+00 
28200 4.4290218998e+00 4.8792460103e-03 1.4573198066e+00 -2.5241519479e+00 1.4573198066e+00 2.5241519479e+00 
28300 4.4290122966e+00 4.8405242357e-03 1.4571524050e+00 -2.5238619999e+00 1.4571524050e+00 2.5238619999e+00 
28400 4.4290028279e+00 4.8021892827e-03 1.4569863129e+00 -2.5235743198e+00 1.4569863129e+00 2.5235743198e+00 
28500 4.4289934915e+00 4.7642363032e-03 1.4568215173e+00 -2.5232888855e+00 1.4568215173e+00 2.5232888855e+00 
28600 4.4289842852e+00 4.7266605265e-03 1.4566580056e+00 -2.5230056749e+00 1.4566580056e+00 2.5230056749e+00 
28700 4.4289752071e+00 4.6894572573e-03 1.4564957653e+00 -2.5227246665e+00 1.4564957653e+00 2.5227246665e+00 
28800 4.4289662551e+00 4.6526218744e-03 1.4563347840e+00 -2.5224458387e+00 1.4563347840e+00 2.5224458387e+00 
28900 4.4289574273e+00 4.6161498289e-03 1.4561750495e+00 -2.5221691705e+00 1.4561750495e+00 2.5221691705e+00 
29000 4.4289487217e+00 4.5800366428e-03 1.4560165498e+00 -2.5218946410e+00 1.4560165498e+00 2.5218946410e+00 
29100 4.4289401364e+00 4.5442779077e-03 1.4558592730e+00 -2.5216222295e+00 1.4558592730e+00 2.5216222295e+00 
29200 4.4289316694e+00 4.5088692830e-03 1.4557032072e+00 -2.5213519156e+00 1.4557032072e+00 2.5213519156e+00 
29300 4.4289233191e+00 4.4738064949e-03 1.4555483408e+00 -2.5210836792e+00 1.4555483408e+00 2.5210836792e+00 
29400 4.4289150836e+00 4.4390853348e-03 1.4553946624e+00 -2.5208175003e+00 1.4553946624e+00 2.5208175003e+00 
29500 4.4289069610e+00 4.4047016583e-03 1.4552421605e+00 -2.5205533594e+00 1.4552421605e+00 2.5205533594e+00 
29600 4.4288989497e+00 4.3706513834e-03 1.4550908240e+00 -2.5202912368e+00 1.4550908240e+00 2.5202912368e+00 
29700 4.4288910479e+00 4.3369304897e-03 1.4549406418e+00 -2.5200311136e+00 1.4549406418e+00 2.5200311136e+00 
29800 4.4288832539e+00 4.3035350172e-03 1.4547916028e+00 -2.5197729705e+00 1.4547916028e+00 2.5197729705e+00 
29900 4.4288755661e+00 4.2704610649e-03 1.4546436964e+00 -2.5195167890e+00 1.4546436964e+00 2.5195167890e+00 
30000 4.4288679830e+00 4.2377047895e-03 1.4544969116e+00 -2.5192625504e+00 1.4544969116e+00 2.5192625504e+00 
30100 4.4288605027e+00 4.2052624049e-03 1.4543512381e+00 -2.5190102364e+00 1.4543512381e+00 2.5190102364e+00 
30200 4.4288531239e+00 4.1731301805e-03 1.4542066653e+00 -2.5187598290e+00 1.4542066653e+00 2.5187598290e+00 
30300 4.4288458449e+00 4.1413044404e-03 1.4540631829e+00 -2.5185113102e+00 1.4540631829e+00 2.5185113102e+00 
30400 4.4288386643e+00 4.1097815625e-03 1.4539207807e+00 -2.5182646623e+00 1.4539207807e+00 2.5182646623e+00 
30500 4.4288315805e+00 4.0785579771e-03 1.4537794485e+00 -2.5180198678e+00 1.4537794485e+00 2.5180198678e+00 
30600 4.4288245920e+00 4.0476301663e-03 1.4536391765e+00 -2.5177769095e+00 1.4536391765e+00 2.5177769095e+00 
30700 4.4288176976e+00 4.0169946629e-03 1.4534999547e+00 -2.5175357703e+00 1.4534999547e+00 2.5175357703e+00 
30800 4.4288108956e+00 3.9866480494e-03 1.4533617733e+00 -2.5172964332e+00 1.4533617733e+00 2.5172964332e+00 
30900 4.4288041848e+00 3.9565869573e-03 1.4532246228e+00 -2.5170588816e+00 1.4532246228e+00 2.5170588816e+00 
31000 4.4287975638e+00 3.9268080658e-03 1.4530884937e+00 -2.5168230989e+00 1.4530884937e+00 2.5168230989e+00 
31100 4.4287910312e+00 3.8973081015e-03 1.4529533764e+00 -2.5165890690e+00 1.4529533764e+00 2.5165890690e+00 
31200 4.4287845856e+00 3.8680838370e-03 1.4528192617e+00 -2.5163567755e+00 1.4528192617e+00 2.5163567755e+00 
31300 4.4287782260e+00 3.8391320905e-03 1.4526861404e+00 -2.5161262026e+00 1.4526861404e+00 2.5161262026e+00 
31400 4.4287719508e+00 3.8104497248e-03 1.4525540033e+00 -2.5158973344e+00 1.4525540033e+00 2.5158973344e+00 
31500 4.4287657589e+00 3.7820336465e-03 1.4524228415e+00 -2.5156701555e+00 1.4524228415e+00 2.5156701555e+00 
31600 4.4287596491e+00 3.7538808053e-03 1.4522926460e+00 -2.5154446504e+00 1.4522926460e+00 2.5154446504e+00 
31700 4.4287536200e+00 3.7259881932e-03 1.4521634081e+00 -2.5152208038e+00 1.4521634081e+00 2.5152208038e+00 
31800 4.4287476707e+00 3.6983528439e-03 1.4520351191e+00 -2.5149986006e+00 1.4520351191e+00 2.5149986006e+00 
31900 4.4287417998e+00 3.6709718318e-03 1.4519077703e+00 -2.5147780260e+00 1.4519077703e+00 2.5147780260e+00 
32000 4.4287360062e+00 3.6438422716e-03 1.4517813532e+00 -2.5145590652e+00 1.4517813532e+00 2.5145590652e+00 
32100 4.4287302887e+00 3.6169613175e-03 1.4516558594e+00 -2.5143417036e+00 1.4516558594e+00 2.5143417036e+00 
32200 4.4287246464e+00 3.5903261624e-03 1.4515312807e+00 -2.5141259269e+00 1.4515312807e+00 2.5141259269e+00 
32300 4.4287190780e+00 3.5639340376e-03 1.4514076087e+00 -2.5139117208e+00 1.4514076087e+00 2.5139117208e+00 
32400 4.4287135825e+00 3.5377822116e-03 1.4512848353e+00 -2.5136990711e+00 1.4512848353e+00 2.5136990711e+00 
32500 4.4287081588e+00 3.5118679903e-03 1.4511629526e+00 -2.5134879639e+00 1.4511629526e+00 2.5134879639e+00 
32600 4.4287028059e+00 3.4861887154e-03 1.4510419524e+00 -2.5132783854e+00 1.4510419524e+00 2.5132783854e+00 
32700 4.4286975227e+00 3.4607417646e-03 1.4509218270e+00 -2.5130703221e+00 1.4509218270e+00 2.5130703221e+00 
32800 4.4286923083e+00 3.4355245506e-03 1.4508025685e+00 -2.5128637604e+00 1.4508025685e+00 2.5128637604e+00 
32900 4.4286871617e+00 3.4105345208e-03 1.4506841693e+00 -2.5126586869e+00 1.4506841693e+00 2.5126586869e+00 
33000 4.4286820818e+00 3.3857691564e-03 1.4505666217e+00 -2.5124550885e+00 1.4505666217e+00 2.5124550885e+00 
33100 4.4286770677e+00 3.3612259721e-03 1.4504499182e+00 -2.5122529521e+00 1.4504499182e+00 2.5122529521e+00 
33200 4.4286721185e+00 3.3369025156e-03 1.4503340513e+00 -2.5120522649e+00 1.4503340513e+00 2.5120522649e+00 
33300 4.4286672332e+00 3.3127963669e-03 1.4502190138e+00 -2.5118530139e+00 1.4502190138e+00 2.5118530139e+00 
33400 4.4286624110e+00 3.2889051379e-03 1.4501047982e+00 -2.5116551867e+00 1.4501047982e+00 2.5116551867e+00 
33500 4.4286576509e+00 3.2652264717e-03 1.4499913973e+00 -2.5114587707e+00 1.4499913973e+00 2.5114587707e+00 
33600 4.4286529520e+00 3.2417580425e-03 1.4498788041e+00 -2.5112637535e+00 1.4498788041e+00 2.5112637535e+00 
33700 4.4286483135e+00 3.2184975548e-03 1.4497670114e+00 -2.5110701229e+00 1.4497670114e+00 2.5110701229e+00 
33800 4.4286437344e+00 3.1954427429e-03 1.4496560123e+00 -2.5108778668e+00 1.4496560123e+00 2.5108778668e+00 
33900 4.4286392141e+00 3.1725913708e-03 1.4495457999e+00 -2.5106869733e+00 1.4495457999e+00 2.5106869733e+00 
34000 4.4286347515e+00 3.1499412311e-03 1.4494363673e+00 -2.5104974305e+00 1.4494363673e+00 2.5104974305e+00 
34100 4.4286303460e+00 3.1274901454e-03 1.4493277077e+00 -2.5103092266e+00 1.4493277077e+00 2.5103092266e+00 
34200 4.4286259967e+00 3.1052359631e-03 1.4492198146e+00 -2.5101223502e+00 1.4492198146e+00 2.5101223502e+00 
34300 4.4286217028e+00 3.0831765613e-03 1.4491126811e+00 -2.5099367896e+00 1.4491126811e+00 2.5099367896e+00 
34400 4.4286174635e+00 3.0613098444e-03 1.4490063009e+00 -2.5097525337e+00 1.4490063009e+00 2.5097525337e+00 
34500 4.4286132781e+00 3.0396337437e-03 1.4489006674e+00 -2.5095695711e+00 1.4489006674e+00 2.5095695711e+00 
34600 4.4286091458e+00 3.0181462169e-03 1.4487957742e+00 -2.5093878907e+00 1.4487957742e+00 2.5093878907e+00 
34700 4.4286050659e+00 2.9968452477e-03 1.4486916149e+00 -2.5092074815e+00 1.4486916149e+00 2.5092074815e+00 
34800 4.4286010376e+00 2.9757288455e-03 1.4485881833e+00 -2.5090283328e+00 1.4485881833e+00 2.5090283328e+00 
34900 4.4285970603e+00 2.9547950449e-03 1.4484854732e+00 -2.5088504336e+00 1.4484854732e+00 2.5088504336e+00 
35000 4.4285931331e+00 2.9340419054e-03 1.4483834784e+00 -2.5086737734e+00 1.4483834784e+00 2.5086737734e+00 
35100 4.4285892555e+00 2.9134675111e-03 1.4482821928e+00 -2.5084983416e+00 1.4482821928e+00 2.5084983416e+00 
35200 4.4285854267e+00 2.8930699702e-03 1.4481816104e+00 -2.5083241278e+00 1.4481816104e+00 2.5083241278e+00 
35300 4.4285816460e+00 2.8728474147e-03 1.4480817252e+00 -2.5081511216e+00 1.4480817252e+00 2.5081511216e+00 
35400 4.4285779128e+00 2.8527980001e-03 1.4479825314e+00 -2.5079793129e+00 1.4479825314e+00 2.5079793129e+00 
35500 4.4285742264e+00 2.8329199050e-03 1.4478840231e+00 -2.5078086915e+00 1.4478840231e+00 2.5078086915e+00 
35600 4.4285705863e+00 2.8132113307e-03 1.4477861946e+00 -2.5076392475e+00 1.4477861946e+00 2.5076392475e+00 
35700 4.4285669916e+00 2.7936705009e-03 1.4476890400e+00 -2.5074709709e+00 1.4476890400e+00 2.5074709709e+00 
35800 4.4285634419e+00 2.7742956617e-03 1.4475925539e+00 -2.5073038520e+00 1.4475925539e+00 2.5073038520e+00 
35900 4.4285599365e+00 2.7550850806e-03 1.4474967305e+00 -2.5071378810e+00 1.4474967305e+00 2.5071378810e+00 
36000 4.4285564747e+00 2.7360370470e-03 1.4474015643e+00 -2.5069730483e+00 1.4474015643e+00 2.5069730483e+00 
36100 4.4285530561e+00 2.7171498712e-03 1.4473070498e+00 -2.5068093445e+00 1.4473070498e+00 2.5068093445e+00 
36200 4.4285496800e+00 2.6984218844e-03 1.4472131817e+00 -2.5066467601e+00 1.4472131817e+00 2.5066467601e+00 
36300 4.4285463458e+00 2.6798514384e-03 1.4471199545e+00 -2.5064852858e+00 1.4471199545e+00 2.5064852858e+00 
36400 4.4285430530e+00 2.6614369053e-03 1.4470273629e+00 -2.5063249125e+00 1.4470273629e+00 2.5063249125e+00 
36500 4.4285398009e+00 2.6431766772e-03 1.4469354016e+00 -2.5061656309e+00 1.4469354016e+00 2.5061656309e+00 
36600 4.4285365891e+00 2.6250691660e-03 1.4468440655e+00 -2.5060074321e+00 1.4468440655e+00 2.5060074321e+00 
36700 4.4285334170e+00 2.6071128028e-03 1.4467533494e+00 -2.5058503072e+00 1.4467533494e+00 2.5058503072e+00 
36800 4.4285302841e+00 2.5893060380e-03 1.4466632482e+00 -2.5056942473e+00 1.4466632482e+00 2.5056942473e+00 
36900 4.4285271898e+00 2.5716473409e-03 1.4465737567e+00 -2.5055392436e+00 1.4465737567e+00 2.5055392436e+00 
37000 4.4285241336e+00 2.5541351995e-03 1.4464848701e+00 -2.5053852874e+00 1.4464848701e+00 2.5053852874e+00 
37100 4.4285211150e+00 2.5367681199e-03 1.4463965834e+00 -2.5052323703e+00 1.4463965834e+00 2.5052323703e+00 
37200 4.4285181335e+00 2.5195446265e-03 1.4463088915e+00 -2.5050804836e+00 1.4463088915e+00 2.5050804836e+00 
37300 4.4285151886e+00 2.5024632616e-03 1.4462217898e+00 -2.5049296190e+00 1.4462217898e+00 2.5049296190e+00 
37400 4.4285122798e+00 2.4855225849e-03 1.4461352734e+00 -2.5047797682e+00 1.4461352734e+00 2.5047797682e+00 
37500 4.4285094066e+00 2.4687211738e-03 1.4460493376e+00 -2.5046309229e+00 1.4460493376e+00 2.5046309229e+00 
37600 4.4285065686e+00 2.4520576224e-03 1.4459639775e+00 -2.5044830750e+00 1.4459639775e+00 2.5044830750e+00 
37700 4.4285037652e+00 2.4355305420e-03 1.4458791886e+00 -2.5043362163e+00 1.4458791886e+00 2.5043362163e+00 
37800 4.4285009961e+00 2.4191385604e-03 1.4457949663e+00 -2.5041903389e+00 1.4457949663e+00 2.5041903389e+00 
37900 4.4284982607e+00 2.4028803218e-03 1.4457113059e+00 -2.5040454349e+00 1.4457113059e+00 2.5040454349e+00 
38000 4.4284955586e+00 2.3867544869e-03 1.4456282029e+00 -2.5039014964e+00 1.4456282029e+00 2.5039014964e+00 
38100 4.4284928894e+00 2.3707597320e-03 1.4455456530e+00 -2.5037585156e+00 1.4455456530e+00 2.5037585156e+00 
38200 4.4284902526e+00 2.3548947493e-03 1.4454636515e+00 -2.5036164849e+00 1.4454636515e+00 2.5036164849e+00 
38300 4.4284876478e+00 2.3391582466e-03 1.4453821941e+00 -2.5034753966e+00 1.4453821941e+00 2.5034753966e+00 
38400 4.4284850746e+00 2.3235489469e-03 1.4453012766e+00 -2.5033352433e+00 1.4453012766e+00 2.5033352433e+00 
38500 4.4284825325e+00 2.3080655885e-03 1.4452208945e+00 -2.5031960174e+00 1.4452208945e+00 2.5031960174e+00 
38600 4.4284800213e+00 2.2927069245e-03 1.4451410435e+00 -2.5030577115e+00 1.4451410435e+00 2.5030577115e+00 
38700 4.4284775403e+00 2.2774717228e-03 1.4450617196e+00 -2.5029203184e+00 1.4450617196e+00 2.5029203184e+00 
38800 4.4284750893e+00 2.2623587656e-03 1.4449829184e+00 -2.5027838308e+00 1.4449829184e+00 2.5027838308e+00 
38900 4.4284726679e+00 2.2473668497e-03 1.4449046359e+00 -2.5026482415e+00 1.4449046359e+00 2.5026482415e+00 
39000 4.4284702756e+00 2.2324947859e-03 1.4448268679e+00 -2.5025135433e+00 1.4448268679e+00 2.5025135433e+00 
39100 4.4284679121e+00 2.2177413990e-03 1.4447496104e+00 -2.5023797294e+00 1.4447496104e+00 2.5023797294e+00 
39200 4.4284655771e+00 2.2031055274e-03 1.4446728593e+00 -2.5022467926e+00 1.4446728593e+00 2.5022467926e+00 
39300 4.4284632700e+00 2.1885860232e-03 1.4445966107e+00 -2.5021147261e+00 1.4445966107e+00 2.5021147261e+00 
39400 4.4284609907e+00 2.1741817519e-03 1.4445208606e+00 -2.5019835231e+00 1.4445208606e+00 2.5019835231e+00 
39500 4.4284587386e+00 2.1598915922e-03 1.4444456051e+00 -2.5018531768e+00 1.4444456051e+00 2.5018531768e+00 
39600 4.4284565136e+00 2.1457144358e-03 1.4443708403e+00 -2.5017236804e+00 1.4443708403e+00 2.5017236804e+00 
39700 4.4284543151e+00 2.1316491871e-03 1.4442965624e+00 -2.5015950273e+00 1.4442965624e+00 2.5015950273e+00 
39800 4.4284521429e+00 2.1176947636e-03 1.4442227676e+00 -2.5014672110e+00 1.4442227676e+00 2.5014672110e+00 
39900 4.4284499966e+00 2.1038500949e-03 1.4441494522e+00 -2.5013402249e+00 1.4441494522e+00 2.5013402249e+00 
40000 4.4284478759e+00 2.0901141232e-03 1.4440766123e+00 -2.5012140626e+00 1.4440766123e+00 2.5012140626e+00 
40100 4.4284457805e+00 2.0764858028e-03 1.4440042444e+00 -2.5010887177e+00 1.4440042444e+00 2.5010887177e+00 
40200 4.4284437100e+00 2.0629641000e-03 1.4439323447e+00 -2.5009641838e+00 1.4439323447e+00 2.5009641838e+00 
40300 4.4284416641e+00 2.0495479931e-03 1.4438609097e+00 -2.5008404547e+00 1.4438609097e+00 2.5008404547e+00 
40400 4.4284396425e+00 2.0362364720e-03 1.4437899357e+00 -2.5007175241e+00 1.4437899357e+00 2.5007175241e+00 
40500 4.4284376449e+00 2.0230285382e-03 1.4437194192e+00 -2.5005953860e+00 1.4437194192e+00 2.5005953860e+00 
40600 4.4284356710e+00 2.0099232047e-03 1.4436493567e+00 -2.5004740342e+00 1.4436493567e+00 2.5004740342e+00 
40700 4.4284337205e+00 1.9969194954e-03 1.4435797447e+00 -2.5003534626e+00 1.4435797447e+00 2.5003534626e+00 
40800 4.4284317930e+00 1.9840164459e-03 1.4435105797e+00 -2.5002336653e+00 1.4435105797e+00 2.5002336653e+00 
40900 4.4284298883e+00 1.9712131023e-03 1.4434418583e+00 -2.5001146364e+00 1.4434418583e+00 2.5001146364e+00 
41000 4.4284280061e+00 1.9585085216e-03 1.4433735772e+00 -2.4999963700e+00 1.4433735772e+00 2.4999963700e+00 
41100 4.4284261461e+00 1.9459017717e-03 1.4433057329e+00 -2.4998788602e+00 1.4433057329e+00 2.4998788602e+00 
41200 4.4284243080e+00 1.9333919308e-03 1.4432383221e+00 -2.4997621014e+00 1.4432383221e+00 2.4997621014e+00 
41300 4.4284224916e+00 1.9209780877e-03 1.4431713416e+00 -2.4996460877e+00 1.4431713416e+00 2.4996460877e+00 
41400 4.4284206965e+00 1.9086593414e-03 1.4431047881e+00 -2.4995308136e+00 1.4431047881e+00 2.4995308136e+00 
41500 4.4284189225e+00 1.8964348009e-03 1.4430386583e+00 -2.4994162734e+00 1.4430386583e+00 2.4994162734e+00 
41600 4.4284171694e+00 1.8843035855e-03 1.4429729490e+00 -2.4993024616e+00 1.4429729490e+00 2.4993024616e+00 
41700 4.4284154368e+00 1.8722648241e-03 1.4429076571e+00 -2.4991893727e+00 1.4429076571e+00 2.4991893727e+00 
41800 4.4284137245e+00 1.8603176555e-03 1.4428427794e+00 -2.4990770012e+00 1.4428427794e+00 2.4990770012e+00 
41900 4.4284120323e+00 1.8484612282e-03 1.4427783128e+00 -2.4989653418e+00 1.4427783128e+00 2.4989653418e+00 
42000 4.4284103598e+00 1.8366946999e-03 1.4427142541e+00 -2.4988543890e+00 1.4427142541e+00 2.4988543890e+00 
42100 4.4284087069e+00 1.8250172381e-03 1.4426506005e+00 -2.4987441376e+00 1.4426506005e+00 2.4987441376e+00 
42200 4.4284070734e+00 1.8134280192e-03 1.4425873487e+00 -2.4986345823e+00 1.4425873487e+00 2.4986345823e+00 
42300 4.4284054588e+00 1.8019262289e-03 1.4425244959e+00 -2.4985257180e+00 1.4425244959e+00 2.4985257180e+00 
42400 4.4284038631e+00 1.7905110620e-03 1.4424620389e+00 -2.4984175394e+00 1.4424620389e+00 2.4984175394e+00 
42500 4.4284022860e+00 1.7791817221e-03 1.4423999750e+00 -2.4983100415e+00 1.4423999750e+00 2.4983100415e+00 
42600 4.4284007272e+00 1.7679374215e-03 1.4423383010e+00 -2.4982032191e+00 1.4423383010e+00 2.4982032191e+00 
42700 4.4283991866e+00 1.7567773815e-03 1.4422770143e+00 -2.4980970673e+00 1.4422770143e+00 2.4980970673e+00 
42800 4.4283976638e+00 1.7457008317e-03 1.4422161118e+00 -2.4979915811e+00 1.4422161118e+00 2.4979915811e+00 
42900 4.4283961587e+00 1.7347070102e-03 1.4421555907e+00 -2.4978867556e+00 1.4421555907e+00 2.4978867556e+00 
43000 4.4283946711e+00 1.7237951636e-03 1.4420954483e+00 -2.4977825858e+00 1.4420954483e+00 2.4977825858e+00 
43100 4.4283932007e+00 1.7129645466e-03 1.4420356817e+00 -2.4976790670e+00 1.4420356817e+00 2.4976790670e+00 
43200 4.4283917473e+00 1.7022144221e-03 1.4419762881e+00 -2.4975761944e+00 1.4419762881e+00 2.4975761944e+00 
43300 4.4283903108e+00 1.6915440611e-03 1.4419172649e+00 -2.4974739631e+00 1.4419172649e+00 2.4974739631e+00 
43400 4.4283888908e+00 1.6809527424e-03 1.4418586092e+00 -2.4973723685e+00 1.4418586092e+00 2.4973723685e+00 
43500 4.4283874872e+00 1.6704397529e-03 1.4418003184e+00 -2.4972714059e+00 1.4418003184e+00 2.4972714059e+00 
43600 4.4283860999e+00 1.6600043871e-03 1.4417423898e+00 -2.4971710706e+00 1.4417423898e+00 2.4971710706e+00 
43700 4.4283847285e+00 1.6496459469e-03 1.4416848208e+00 -2.4970713582e+00 1.4416848208e+00 2.4970713582e+00 
43800 4.4283833729e+00 1.6393637422e-03 1.4416276088e+00 -2.4969722640e+00 1.4416276088e+00 2.4969722640e+00 
43900 4.4283820329e+00 1.6291570901e-03 1.4415707511e+00 -2.4968737836e+00 1.4415707511e+00 2.4968737836e+00 
44000 4.4283807083e+00 1.6190253152e-03 1.4415142451e+00 -2.4967759124e+00 1.4415142451e+00 2.4967759124e+00 
44100 4.4283793989e+00 1.6089677491e-03 1.4414580884e+00 -2.4966786461e+00 1.4414580884e+00 2.4966786461e+00 
44200 4.4283781046e+00 1.5989837308e-03 1.4414022783e+00 -2.4965819802e+00 1.4414022783e+00 2.4965819802e+00 
44300 4.4283768251e+00 1.5890726065e-03 1.4413468124e+00 -2.4964859104e+00 1.4413468124e+00 2.4964859104e+00 
44400 4.4283755603e+00 1.5792337292e-03 1.4412916882e+00 -2.4963904325e+00 1.4412916882e+00 2.4963904325e+00 
44500 4.4283743100e+00 1.5694664588e-03 1.4412369032e+00 -2.4962955421e+00 1.4412369032e+00 2.4962955421e+00 
44600 4.4283730740e+00 1.5597701623e-03 1.4411824549e+00 -2.4962012349e+00 1.4411824549e+00 2.4962012349e+00 
44700 4.4283718521e+00 1.5501442130e-03 1.4411283410e+00 -2.4961075069e+00 1.4411283410e+00 2.4961075069e+00 
44800 4.4283706441e+00 1.5405879914e-03 1.4410745590e+00 -2.4960143538e+00 1.4410745590e+00 2.4960143538e+00 
44900 4.4283694500e+00 1.5311008841e-03 1.4410211066e+00 -2.4959217715e+00 1.4410211066e+00 2.4959217715e+00 
45000 4.4283682695e+00 1.5216822845e-03 1.4409679814e+00 -2.4958297559e+00 1.4409679814e+00 2.4958297559e+00 
45100 4.4283671024e+00 1.5123315923e-03 1.4409151810e+00 -2.4957383029e+00 1.4409151810e+00 2.4957383029e+00 
45200 4.4283659486e+00 1.5030482136e-03 1.4408627032e+00 -2.4956474086e+00 1.4408627032e+00 2.4956474086e+00 
45300 4.4283648080e+00 1.4938315607e-03 1.4408105456e+00 -2.4955570690e+00 1.4408105456e+00 2.4955570690e+00 
45400 4.4283636803e+00 1.4846810522e-03 1.4407587059e+00 -2.4954672801e+00 1.4407587059e+00 2.4954672801e+00 
45500 4.4283625655e+00 1.4755961126e-03 1.4407071819e+00 -2.4953780379e+00 1.4407071819e+00 2.4953780379e+00 
45600 4.4283614633e+00 1.4665761726e-03 1.4406559714e+00 -2.4952893387e+00 1.4406559714e+00 2.4952893387e+00 
45700 4.4283603736e+00 1.4576206688e-03 1.4406050721e+00 -2.4952011786e+00 1.4406050721e+00 2.4952011786e+00 
45800 4.4283592962e+00 1.4487290439e-03 1.4405544818e+00 -2.4951135536e+00 1.4405544818e+00 2.4951135536e+00 
45900 4.4283582311e+00 1.4399007460e-03 1.4405041984e+00 -2.4950264602e+00 1.4405041984e+00 2.4950264602e+00 
46000 4.4283571780e+00 1.4311352293e-03 1.4404542196e+00 -2.4949398944e+00 1.4404542196e+00 2.4949398944e+00 
46100 4.4283561369e+00 1.4224319536e-03 1.4404045434e+00 -2.4948538526e+00 1.4404045434e+00 2.4948538526e+00 
46200 4.4283551075e+00 1.4137903841e-03 1.4403551676e+00 -2.4947683312e+00 1.4403551676e+00 2.4947683312e+00 
46300 4.4283540897e+00 1.4052099919e-03 1.4403060900e+00 -2.4946833263e+00 1.4403060900e+00 2.4946833263e+00 
46400 4.4283530834e+00 1.3966902533e-03 1.4402573086e+00 -2.4945988345e+00 1.4402573086e+00 2.4945988345e+00 
46500 4.4283520885e+00 1.3882306501e-03 1.4402088214e+00 -2.4945148521e+00 1.4402088214e+00 2.4945148521e+00 
46600 4.4283511048e+00 1.3798306695e-03 1.4401606262e+00 -2.4944313756e+00 1.4401606262e+00 2.4944313756e+00 
46700 4.4283501322e+00 1.3714898037e-03 1.4401127210e+00 -2.4943484014e+00 1.4401127210e+00 2.4943484014e+00 
46800 4.4283491705e+00 1.3632075506e-03 1.4400651038e+00 -2.4942659260e+00 1.4400651038e+00 2.4942659260e+00 
46900 4.4283482196e+00 1.3549834127e-03 1.4400177726e+00 -2.4941839460e+00 1.4400177726e+00 2.4941839460e+00 
47000 4.4283472795e+00 1.3468168982e-03 1.4399707254e+00 -2.4941024578e+00 1.4399707254e+00 2.4941024578e+00 
47100 4.4283463498e+00 1.3387075197e-03 1.4399239602e+00 -2.4940214582e+00 1.4399239602e+00 2.4940214582e+00 
47200 4.4283454307e+00 1.3306547952e-03 1.4398774751e+00 -2.4939409436e+00 1.4398774751e+00 2.4939409436e+00 
47300 4.4283445218e+00 1.3226582474e-03 1.4398312682e+00 -2.4938609108e+00 1.4398312682e+00 2.4938609108e+00 
47400 4.4283436231e+00 1.3147174041e-03 1.4397853374e+00 -2.4937813564e+00 1.4397853374e+00 2.4937813564e+00 
47500 4.4283427345e+00 1.3068317976e-03 1.4397396809e+00 -2.4937022770e+00 1.4397396809e+00 2.4937022770e+00 
47600 4.4283418558e+00 1.2990009650e-03 1.4396942969e+00 -2.4936236695e+00 1.4396942969e+00 2.4936236695e+00 
47700 4.4283409870e+00 1.2912244483e-03 1.4396491833e+00 -2.4935455306e+00 1.4396491833e+00 2.4935455306e+00 
47800 4.4283401278e+00 1.2835017939e-03 1.4396043384e+00 -2.4934678570e+00 1.4396043384e+00 2.4934678570e+00 
47900 4.4283392783e+00 1.2758325528e-03 1.4395597604e+00 -2.4933906455e+00 1.4395597604e+00 2.4933906455e+00 
48000 4.4283384382e+00 1.2682162806e-03 1.4395154473e+00 -2.4933138930e+00 1.4395154473e+00 2.4933138930e+00 
48100 4.4283376075e+00 1.2606525373e-03 1.4394713974e+00 -2.4932375964e+00 1.4394713974e+00 2.4932375964e+00 
48200 4.4283367861e+00 1.2531408873e-03 1.4394276089e+00 -2.4931617525e+00 1.4394276089e+00 2.4931617525e+00 
48300 4.4283359738e+00 1.2456808994e-03 1.4393840800e+00 -2.4930863582e+00 1.4393840800e+00 2.4930863582e+00 
48400 4.4283351706e+00 1.2382721468e-03 1.4393408089e+00 -2.4930114104e+00 1.4393408089e+00 2.4930114104e+00 
48500 4.4283343763e+00 1.2309142067e-03 1.4392977939e+00 -2.4929369062e+00 1.4392977939e+00 2.4929369062e+00 
48600 4.4283335909e+00 1.2236066608e-03 1.4392550332e+00 -2.4928628425e+00 1.4392550332e+00 2.4928628425e+00 
48700 4.4283328141e+00 1.2163490947e-03 1.4392125250e+00 -2.4927892162e+00 1.4392125250e+00 2.4927892162e+00 
48800 4.4283320460e+00 1.2091410983e-03 1.4391702678e+00 -2.4927160245e+00 1.4391702678e+00 2.4927160245e+00 
48900 4.4283312864e+00 1.2019822655e-03 1.4391282597e+00 -2.4926432644e+00 1.4391282597e+00 2.4926432644e+00 
49000 4.4283305353e+00 1.1948721942e-03 1.4390864991e+00 -2.4925709330e+00 1.4390864991e+00 2.4925709330e+00 
49100 4.4283297924e+00 1.1878104863e-03 1.4390449844e+00 -2.4924990273e+00 1.4390449844e+00 2.4924990273e+00 
49200 4.4283290578e+00 1.1807967475e-03 1.4390037138e+00 -2.4924275446e+00 1.4390037138e+00 2.4924275446e+00 
49300 4.4283283313e+00 1.1738305875e-03 1.4389626857e+00 -2.4923564819e+00 1.4389626857e+00 2.4923564819e+00 
49400 4.4283276129e+00 1.1669116199e-03 1.4389218985e+00 -2.4922858364e+00 1.4389218985e+00 2.4922858364e+00 
49500 4.4283269024e+00 1.1600394620e-03 1.4388813506e+00 -2.4922156053e+00 1.4388813506e+00 2.4922156053e+00 
49600 4.4283261997e+00 1.1532137347e-03 1.4388410403e+00 -2.4921457858e+00 1.4388410403e+00 2.4921457858e+00 
49700 4.4283255048e+00 1.1464340628e-03 1.4388009661e+00 -2.4920763753e+00 1.4388009661e+00 2.4920763753e+00 
49800 4.4283248176e+00 1.1397000748e-03 1.4387611264e+00 -2.4920073708e+00 1.4387611264e+00 2.4920073708e+00 
49900 4.4283241380e+00 1.1330114026e-03 1.4387215196e+00 -2.4919387698e+00 1.4387215196e+00 2.4919387698e+00 
50000 4.4283234658e+00 1.1263676818e-03 1.4386821441e+00 -2.4918705695e+00 1.4386821441e+00 2.4918705695e+00 
50100 4.4283228010e+00 1.1197685515e-03 1.4386429985e+00 -2.4918027673e+00 1.4386429985e+00 2.4918027673e+00 
50200 4.4283221436e+00 1.1132136545e-03 1.4386040811e+00 -2.4917353605e+00 1.4386040811e+00 2.4917353605e+00 
50300 4.4283214934e+00 1.1067026367e-03 1.4385653905e+00 -2.4916683464e+00 1.4385653905e+00 2.4916683464e+00 
50400 4.4283208503e+00 1.1002351476e-03 1.4385269252e+00 -2.4916017225e+00 1.4385269252e+00 2.4916017225e+00 
50500 4.4283202144e+00 1.0938108400e-03 1.4384886837e+00 -2.4915354862e+00 1.4384886837e+00 2.4915354862e+00 
50600 4.4283195853e+00 1.0874293703e-03 1.4384506644e+00 -2.4914696349e+00 1.4384506644e+00 2.4914696349e+00 
50700 4.4283189632e+00 1.0810903979e-03 1.4384128659e+00 -2.4914041660e+00 1.4384128659e+00 2.4914041660e+00 
50800 4.4283183480e+00 1.0747935855e-03 1.4383752868e+00 -2.4913390771e+00 1.4383752868e+00 2.4913390771e+00 
50900 4.4283177394e+00 1.0685385992e-03 1.4383379256e+00 -2.4912743655e+00 1.4383379256e+00 2.4912743655e+00 
51000 4.4283171376e+00 1.0623251081e-03 1.4383007808e+00 -2.4912100290e+00 1.4383007808e+00 2.4912100290e+00 
51100 4.4283165423e+00 1.0561527846e-03 1.4382638511e+00 -2.4911460648e+00 1.4382638511e+00 2.4911460648e+00 
51200 4.4283159535e+00 1.0500213041e-03 1.4382271350e+00 -2.4910824707e+00 1.4382271350e+00 2.4910824707e+00 
51300 4.4283153712e+00 1.0439303451e-03 1.4381906312e+00 -2.4910192442e+00 1.4381906312e+00 2.4910192442e+00 
51400 4.4283147952e+00 1.0378795892e-03 1.4381543381e+00 -2.4909563828e+00 1.4381543381e+00 2.4909563828e+00 
51500 4.4283142256e+00 1.0318687211e-03 1.4381182546e+00 -2.4908938842e+00 1.4381182546e+00 2.4908938842e+00 
51600 4.4283136621e+00 1.0258974282e-03 1.4380823791e+00 -2.4908317460e+00 1.4380823791e+00 2.4908317460e+00 
51700 4.4283131048e+00 1.0199654012e-03 1.4380467103e+00 -2.4907699658e+00 1.4380467103e+00 2.4907699658e+00 
51800 4.4283125536e+00 1.0140723334e-03 1.4380112468e+00 -2.4907085414e+00 1.4380112468e+00 2.4907085414e+00 
51900 4.4283120084e+00 1.0082179211e-03 1.4379759874e+00 -2.4906474703e+00 1.4379759874e+00 2.4906474703e+00 
52000 4.4283114691e+00 1.0024018636e-03 1.4379409307e+00 -2.4905867503e+00 1.4379409307e+00 2.4905867503e+00 
52100 4.4283109357e+00 9.9662386290e-04 1.4379060754e+00 -2.4905263791e+00 1.4379060754e+00 2.4905263791e+00 
52200 4.4283104081e+00 9.9088362365e-04 1.4378714202e+00 -2.4904663545e+00 1.4378714202e+00 2.4904663545e+00 
52300 4.4283098863e+00 9.8518085345e-04 1.4378369637e+00 -2.4904066741e+00 1.4378369637e+00 2.4904066741e+00 
52400 4.4283093701e+00 9.7951526255e-04 1.4378027047e+00 -2.4903473358e+00 1.4378027047e+00 2.4903473358e+00 
52500 4.4283088595e+00 9.7388656390e-04 1.4377686419e+00 -2.4902883373e+00 1.4377686419e+00 2.4902883373e+00 
52600 4.4283083545e+00 9.6829447312e-04 1.4377347741e+00 -2.4902296765e+00 1.4377347741e+00 2.4902296765e+00 
52700 4.4283078549e+00 9.6273870848e-04 1.4377010999e+00 -2.4901713511e+00 1.4377010999e+00 2.4901713511e+00 
52800 4.4283073608e+00 9.5721899084e-04 1.4376676181e+00 -2.4901133590e+00 1.4376676181e+00 2.4901133590e+00 
52900 4.4283068720e+00 9.5173504365e-04 1.4376343276e+00 -2.4900556981e+00 1.4376343276e+00 2.4900556981e+00 
53000 4.4283063885e+00 9.4628659290e-04 1.4376012270e+00 -2.4899983661e+00 1.4376012270e+00 2.4899983661e+00 
53100 4.4283059103e+00 9.4087336712e-04 1.4375683151e+00 -2.4899413611e+00 1.4375683151e+00 2.4899413611e+00 
53200 4.4283054372e+00 9.3549509733e-04 1.4375355907e+00 -2.4898846809e+00 1.4375355907e+00 2.4898846809e+00 
53300 4.4283049693e+00 9.3015151702e-04 1.4375030527e+00 -2.4898283233e+00 1.4375030527e+00 2.4898283233e+00 
53400 4.4283045064e+00 9.2484236210e-04 1.4374706998e+00 -2.4897722864e+00 1.4374706998e+00 2.4897722864e+00 
53500 4.4283040485e+00 9.1956737094e-04 1.4374385308e+00 -2.4897165682e+00 1.4374385308e+00 2.4897165682e+00 
53600 4.4283035956e+00 9.1432628427e-04 1.4374065446e+00 -2.4896611664e+00 1.4374065446e+00 2.4896611664e+00 
53700 4.4283031475e+00 9.0911884518e-04 1.4373747400e+00 -2.4896060793e+00 1.4373747400e+00 2.4896060793e+00 
53800 4.4283027043e+00 9.0394479911e-04 1.4373431159e+00 -2.4895513046e+00 1.4373431159e+00 2.4895513046e+00 
53900 4.4283022659e+00 8.9880389382e-04 1.4373116710e+00 -2.4894968405e+00 1.4373116710e+00 2.4894968405e+00 
54000 4.4283018322e+00 8.9369587934e-04 1.4372804043e+00 -2.4894426849e+00 1.4372804043e+00 2.4894426849e+00 
54100 4.4283014031e+00 8.8862050797e-04 1.4372493146e+00 -2.4893888360e+00 1.4372493146e+00 2.4893888360e+00 
54200 4.4283009787e+00 8.8357753427e-04 1.4372184007e+00 -2.4893352916e+00 1.4372184007e+00 2.4893352916e+00 
54300 4.4283005589e+00 8.7856671498e-04 1.4371876617e+00 -2.4892820501e+00 1.4371876617e+00 2.4892820501e+00 
54400 4.4283001436e+00 8.7358780906e-04 1.4371570963e+00 -2.4892291093e+00 1.4371570963e+00 2.4892291093e+00 
54500 4.4282997327e+00 8.6864057763e-04 1.4371267035e+00 -2.4891764674e+00 1.4371267035e+00 2.4891764674e+00 
54600 4.4282993262e+00 8.6372478394e-04 1.4370964822e+00 -2.4891241225e+00 1.4370964822e+00 2.4891241225e+00 
54700 4.4282989242e+00 8.5884019339e-04 1.4370664312e+00 -2.4890720728e+00 1.4370664312e+00 2.4890720728e+00 
54800 4.4282985264e+00 8.5398657347e-04 1.4370365496e+00 -2.4890203163e+00 1.4370365496e+00 2.4890203163e+00 
54900 4.4282981329e+00 8.4916369373e-04 1.4370068363e+00 -2.4889688513e+00 1.4370068363e+00 2.4889688513e+00 
55000 4.4282977437e+00 8.4437132580e-04 1.4369772901e+00 -2.4889176758e+00 1.4369772901e+00 2.4889176758e+00 
55100 4.4282973586e+00 8.3960924333e-04 1.4369479101e+00 -2.4888667881e+00 1.4369479101e+00 2.4888667881e+00 
55200 4.4282969776e+00 8.3487722198e-04 1.4369186952e+00 -2.4888161864e+00 1.4369186952e+00 2.4888161864e+00 
55300 4.4282966007e+00 8.3017503943e-04 1.4368896443e+00 -2.4887658688e+00 1.4368896443e+00 2.4887658688e+00 
55400 4.4282962279e+00 8.2550247528e-04 1.4368607565e+00 -2.4887158337e+00 1.4368607565e+00 2.4887158337e+00 
55500 4.4282958590e+00 8.2085931113e-04 1.4368320307e+00 -2.4886660791e+00 1.4368320307e+00 2.4886660791e+00 
55600 4.4282954941e+00 8.1624533049e-04 1.4368034659e+00 -2.4886166034e+00 1.4368034659e+00 2.4886166034e+00 
55700 4.4282951331e+00 8.1166031876e-04 1.4367750611e+00 -2.4885674048e+00 1.4367750611e+00 2.4885674048e+00 
55800 4.4282947759e+00 8.0710406325e-04 1.4367468153e+00 -2.4885184816e+00 1.4367468153e+00 2.4885184816e+00 
55900 4.4282944226e+00 8.0257635314e-04 1.4367187274e+00 -2.4884698321e+00 1.4367187274e+00 2.4884698321e+00 
56000 4.4282940730e+00 7.9807697946e-04 1.4366907967e+00 -2.4884214546e+00 1.4366907967e+00 2.4884214546e+00 
56100 4.4282937272e+00 7.9360573507e-04 1.4366630219e+00 -2.4883733473e+00 1.4366630219e+00 2.4883733473e+00 
56200 4.4282933850e+00 7.8916241462e-04 1.4366354022e+00 -2.4883255086e+00 1.4366354022e+00 2.4883255086e+00 
56300 4.4282930465e+00 7.8474681458e-04 1.4366079367e+00 -2.4882779369e+00 1.4366079367e+00 2.4882779369e+00 
56400 4.4282927117e+00 7.8035873319e-04 1.4365806243e+00 -2.4882306304e+00 1.4365806243e+00 2.4882306304e+00 
56500 4.4282923803e+00 7.7599797044e-04 1.4365534641e+00 -2.4881835876e+00 1.4365534641e+00 2.4881835876e+00 
56600 4.4282920526e+00 7.7166432806e-04 1.4365264551e+00 -2.4881368067e+00 1.4365264551e+00 2.4881368067e+00 
56700 4.4282917283e+00 7.6735760950e-04 1.4364995965e+00 -2.4880902863e+00 1.4364995965e+00 2.4880902863e+00 
56800 4.4282914074e+00 7.6307761991e-04 1.4364728873e+00 -2.4880440246e+00 1.4364728873e+00 2.4880440246e+00 
56900 4.4282910900e+00 7.5882416613e-04 1.4364463266e+00 -2.4879980200e+00 1.4364463266e+00 2.4879980200e+00 
57000 4.4282907759e+00 7.5459705667e-04 1.4364199134e+00 -2.4879522711e+00 1.4364199134e+00 2.4879522711e+00 
57100 4.4282904652e+00 7.5039610167e-04 1.4363936469e+00 -2.4879067762e+00 1.4363936469e+00 2.4879067762e+00 
57200 4.4282901578e+00 7.4622111293e-04 1.4363675262e+00 -2.4878615337e+00 1.4363675262e+00 2.4878615337e+00 
57300 4.4282898536e+00 7.4207190386e-04 1.4363415503e+00 -2.4878165421e+00 1.4363415503e+00 2.4878165421e+00 
57400 4.4282895527e+00 7.3794828946e-04 1.4363157183e+00 -2.4877717999e+00 1.4363157183e+00 2.4877717999e+00 
57500 4.4282892549e+00 7.3385008633e-04 1.4362900295e+00 -2.4877273055e+00 1.4362900295e+00 2.4877273055e+00 
57600 4.4282889604e+00 7.2977711262e-04 1.4362644828e+00 -2.4876830574e+00 1.4362644828e+00 2.4876830574e+00 
57700 4.4282886689e+00 7.2572918804e-04 1.4362390775e+00 -2.4876390541e+00 1.4362390775e+00 2.4876390541e+00 
57800 4.4282883805e+00 7.2170613385e-04 1.4362138127e+00 -2.4875952941e+00 1.4362138127e+00 2.4875952941e+00 
57900 4.4282880952e+00 7.1770777281e-04 1.4361886875e+00 -2.4875517759e+00 1.4361886875e+00 2.4875517759e+00 
58000 4.4282878129e+00 7.1373392920e-04 1.4361637010e+00 -2.4875084981e+00 1.4361637010e+00 2.4875084981e+00 
58100 4.4282875336e+00 7.0978442878e-04 1.4361388524e+00 -2.4874654591e+00 1.4361388524e+00 2.4874654591e+00 
58200 4.4282872573e+00 7.0585909880e-04 1.4361141409e+00 -2.4874226576e+00 1.4361141409e+00 2.4874226576e+00 
58300 4.4282869838e+00 7.0195776796e-04 1.4360895657e+00 -2.4873800920e+00 1.4360895657e+00 2.4873800920e+00 
58400 4.4282867133e+00 6.9808026641e-04 1.4360651259e+00 -2.4873377610e+00 1.4360651259e+00 2.4873377610e+00 
58500 4.4282864456e+00 6.9422642572e-04 1.4360408206e+00 -2.4872956631e+00 1.4360408206e+00 2.4872956631e+00 
58600 4.4282861808e+00 6.9039607890e-04 1.4360166491e+00 -2.4872537968e+00 1.4360166491e+00 2.4872537968e+00 
58700 4.4282859187e+00 6.8658906034e-04 1.4359926106e+00 -2.4872121609e+00 1.4359926106e+00 2.4872121609e+00 
58800 4.4282856594e+00 6.8280520584e-04 1.4359687043e+00 -2.4871707539e+00 1.4359687043e+00 2.4871707539e+00 
58900 4.4282854028e+00 6.7904435255e-04 1.4359449293e+00 -2.4871295744e+00 1.4359449293e+00 2.4871295744e+00 
59000 4.4282851490e+00 6.7530633901e-04 1.4359212848e+00 -2.4870886210e+00 1.4359212848e+00 2.4870886210e+00 
59100 4.4282848978e+00 6.7159100510e-04 1.4358977701e+00 -2.4870478924e+00 1.4358977701e+00 2.4870478924e+00 
59200 4.4282846493e+00 6.6789819201e-04 1.4358743845e+00 -2.4870073872e+00 1.4358743845e+00 2.4870073872e+00 
59300 4.4282844034e+00 6.6422774229e-04 1.4358511270e+00 -2.4869671040e+00 1.4358511270e+00 2.4869671040e+00 
59400 4.4282841601e+00 6.6057949978e-04 1.4358279969e+00 -2.4869270416e+00 1.4358279969e+00 2.4869270416e+00 
59500 4.4282839193e+00 6.5695330960e-04 1.4358049936e+00 -2.4868871986e+00 1.4358049936e+00 2.4868871986e+00 
59600 4.4282836811e+00 6.5334901818e-04 1.4357821161e+00 -2.4868475737e+00 1.4357821161e+00 2.4868475737e+00 
59700 4.4282834453e+00 6.4976647321e-04 1.4357593638e+00 -2.4868081655e+00 1.4357593638e+00 2.4868081655e+00 
59800 4.4282832121e+00 6.4620552363e-04 1.4357367359e+00 -2.4867689728e+00 1.4357367359e+00 2.4867689728e+00 
59900 4.4282829813e+00 6.4266601965e-04 1.4357142316e+00 -2.4867299943e+00 1.4357142316e+00 2.4867299943e+00 
60000 4.4282827529e+00 6.3914781267e-04 1.4356918503e+00 -2.4866912287e+00 1.4356918503e+00 2.4866912287e+00 
60100 4.4282825270e+00 6.3565075537e-04 1.4356695911e+00 -2.4866526746e+00 1.4356695911e+00 2.4866526746e+00 
60200 4.4282823034e+00 6.3217470158e-04 1.4356474534e+00 -2.4866143310e+00 1.4356474534e+00 2.4866143310e+00 
60300 4.4282820821e+00 6.2871950636e-04 1.4356254364e+00 -2.4865761964e+00 1.4356254364e+00 2.4865761964e+00 
60400 4.4282818632e+00 6.2528502597e-04 1.4356035394e+00 -2.4865382697e+00 1.4356035394e+00 2.4865382697e+00 
60500 4.4282816465e+00 6.2187111780e-04 1.4355817616e+00 -2.4865005496e+00 1.4355817616e+00 2.4865005496e+00 
60600 4.4282814322e+00 6.1847764045e-04 1.4355601025e+00 -2.4864630348e+00 1.4355601025e+00 2.4864630348e+00 
60700 4.4282812200e+00 6.1510445363e-04 1.4355385612e+00 -2.4864257242e+00 1.4355385612e+00 2.4864257242e+00 
60800 4.4282810101e+00 6.1175141823e-04 1.4355171371e+00 -2.4863886166e+00 1.4355171371e+00 2.4863886166e+00 
60900 4.4282808024e+00 6.0841839625e-04 1.4354958294e+00 -2.4863517107e+00 1.4354958294e+00 2.4863517107e+00 
61000 4.4282805969e+00 6.0510525080e-04 1.4354746376e+00 -2.4863150053e+00 1.4354746376e+00 2.4863150053e+00 
61100 4.4282803935e+00 6.0181184611e-04 1.4354535608e+00 -2.4862784992e+00 1.4354535608e+00 2.4862784992e+00 
61200 4.4282801923e+00 5.9853804752e-04 1.4354325984e+00 -2.4862421913e+00 1.4354325984e+00 2.4862421913e+00 
61300 4.4282799931e+00 5.9528372142e-04 1.4354117498e+00 -2.4862060804e+00 1.4354117498e+00 2.4862060804e+00 
61400 4.4282797961e+00 5.9204873532e-04 1.4353910142e+00 -2.4861701653e+00 1.4353910142e+00 2.4861701653e+00 
61500 4.4282796011e+00 5.8883295777e-04 1.4353703910e+00 -2.4861344448e+00 1.4353703910e+00 2.4861344448e+00 
61600 4.4282794081e+00 5.8563625838e-04 1.4353498795e+00 -2.4860989179e+00 1.4353498795e+00 2.4860989179e+00 
61700 4.4282792172e+00 5.8245850780e-04 1.4353294791e+00 -2.4860635833e+00 1.4353294791e+00 2.4860635833e+00 
61800 4.4282790282e+00 5.7929957774e-04 1.4353091890e+00 -2.4860284400e+00 1.4353091890e+00 2.4860284400e+00 
61900 4.4282788412e+00 5.7615934092e-04 1.4352890088e+00 -2.4859934868e+00 1.4352890088e+00 2.4859934868e+00 
62000 4.4282786562e+00 5.7303767107e-04 1.4352689376e+00 -2.4859587225e+00 1.4352689376e+00 2.4859587225e+00 
62100 4.4282784731e+00 5.6993444294e-04 1.4352489749e+00 -2.4859241461e+00 1.4352489749e+00 2.4859241461e+00 
62200 4.4282782919e+00 5.6684953226e-04 1.4352291201e+00 -2.4858897565e+00 1.4352291201e+00 2.4858897565e+00 
62300 4.4282781126e+00 5.6378281578e-04 1.4352093724e+00 -2.4858555526e+00 1.4352093724e+00 2.4858555526e+00 
62400 4.4282779351e+00 5.6073417119e-04 1.4351897314e+00 -2.4858215332e+00 1.4351897314e+00 2.4858215332e+00 
62500 4.4282777595e+00 5.5770347717e-04 1.4351701962e+00 -2.4857876973e+00 1.4351701962e+00 2.4857876973e+00 
62600 4.4282775858e+00 5.5469061338e-04 1.4351507664e+00 -2.4857540439e+00 1.4351507664e+00 2.4857540439e+00 
62700 4.4282774138e+00 5.5169546038e-04 1.4351314412e+00 -2.4857205718e+00 1.4351314412e+00 2.4857205718e+00 
62800 4.4282772436e+00 5.4871789973e-04 1.4351122202e+00 -2.4856872800e+00 1.4351122202e+00 2.4856872800e+00 
62900 4.4282770752e+00 5.4575781387e-04 1.4350931027e+00 -2.4856541674e+00 1.4350931027e+00 2.4856541674e+00 
63000 4.4282769086e+00 5.4281508621e-04 1.4350740880e+00 -2.4856212330e+00 1.4350740880e+00 2.4856212330e+00 
63100 4.4282767437e+00 5.3988960106e-04 1.4350551756e+00 -2.4855884758e+00 1.4350551756e+00 2.4855884758e+00 
63200 4.4282765805e+00 5.3698124362e-04 1.4350363649e+00 -2.4855558947e+00 1.4350363649e+00 2.4855558947e+00 
63300 4.4282764189e+00 5.3408990002e-04 1.4350176552e+00 -2.4855234886e+00 1.4350176552e+00 2.4855234886e+00 
63400 4.4282762591e+00 5.3121545725e-04 1.4349990461e+00 -2.4854912567e+00 1.4349990461e+00 2.4854912567e+00 
63500 4.4282761009e+00 5.2835780321e-04 1.4349805369e+00 -2.4854591977e+00 1.4349805369e+00 2.4854591977e+00 
63600 4.4282759444e+00 5.2551682666e-04 1.4349621270e+00 -2.4854273109e+00 1.4349621270e+00 2.4854273109e+00 
63700 4.4282757895e+00 5.2269241723e-04 1.4349438158e+00 -2.4853955951e+00 1.4349438158e+00 2.4853955951e+00 
63800 4.4282756362e+00 5.1988446541e-04 1.4349256029e+00 -2.4853640493e+00 1.4349256029e+00 2.4853640493e+00 
63900 4.4282754845e+00 5.1709286254e-04 1.4349074876e+00 -2.4853326726e+00 1.4349074876e+00 2.4853326726e+00 
64000 4.4282753344e+00 5.1431750080e-04 1.4348894693e+00 -2.4853014640e+00 1.4348894693e+00 2.4853014640e+00 
64100 4.4282751858e+00 5.1155827320e-04 1.4348715474e+00 -2.4852704225e+00 1.4348715474e+00 2.4852704225e+00 
64200 4.4282750387e+00 5.0881507359e-04 1.4348537216e+00 -2.4852395472e+00 1.4348537216e+00 2.4852395472e+00 
64300 4.4282748932e+00 5.0608779664e-04 1.4348359910e+00 -2.4852088370e+00 1.4348359910e+00 2.4852088370e+00 
64400 4.4282747492e+00 5.0337633782e-04 1.4348183553e+00 -2.4851782911e+00 1.4348183553e+00 2.4851782911e+00 
64500 4.4282746067e+00 5.0068059341e-04 1.4348008139e+00 -2.4851479084e+00 1.4348008139e+00 2.4851479084e+00 
64600 4.4282744656e+00 4.9800046049e-04 1.4347833662e+00 -2.4851176881e+00 1.4347833662e+00 2.4851176881e+00 
64700 4.4282743260e+00 4.9533583694e-04 1.4347660117e+00 -2.4850876292e+00 1.4347660117e+00 2.4850876292e+00 
64800 4.4282741879e+00 4.9268662139e-04 1.4347487498e+00 -2.4850577308e+00 1.4347487498e+00 2.4850577308e+00 
64900 4.4282740512e+00 4.9005271329e-04 1.4347315801e+00 -2.4850279919e+00 1.4347315801e+00 2.4850279919e+00 
65000 4.4282739158e+00 4.8743401283e-04 1.4347145019e+00 -2.4849984116e+00 1.4347145019e+00 2.4849984116e+00 
65100 4.4282737819e+00 4.8483042096e-04 1.4346975148e+00 -2.4849689891e+00 1.4346975148e+00 2.4849689891e+00 
65200 4.4282736494e+00 4.8224183941e-04 1.4346806182e+00 -2.4849397234e+00 1.4346806182e+00 2.4849397234e+00 
65300 4.4282735183e+00 4.7966817063e-04 1.4346638117e+00 -2.4849106136e+00 1.4346638117e+00 2.4849106136e+00 
65400 4.4282733884e+00 4.7710931784e-04 1.4346470946e+00 -2.4848816588e+00 1.4346470946e+00 2.4848816588e+00 
65500 4.4282732600e+00 4.7456518496e-04 1.4346304665e+00 -2.4848528581e+00 1.4346304665e+00 2.4848528581e+00 
65600 4.4282731328e+00 4.7203567668e-04 1.4346139269e+00 -2.4848242107e+00 1.4346139269e+00 2.4848242107e+00 
65700 4.4282730070e+00 4.6952069837e-04 1.4345974753e+00 -2.4847957156e+00 1.4345974753e+00 2.4847957156e+00 
65800 4.4282728825e+00 4.6702015615e-04 1.4345811111e+00 -2.4847673720e+00 1.4345811111e+00 2.4847673720e+00 
65900 4.4282727592e+00 4.6453395682e-04 1.4345648339e+00 -2.4847391791e+00 1.4345648339e+00 2.4847391791e+00 
66000 4.4282726373e+00 4.6206200791e-04 1.4345486432e+00 -2.4847111359e+00 1.4345486432e+00 2.4847111359e+00 
66100 4.4282725165e+00 4.5960421763e-04 1.4345325384e+00 -2.4846832417e+00 1.4345325384e+00 2.4846832417e+00 
66200 4.4282723971e+00 4.5716049488e-04 1.4345165192e+00 -2.4846554955e+00 1.4345165192e+00 2.4846554955e+00 
66300 4.4282722788e+00 4.5473074924e-04 1.4345005849e+00 -2.4846278965e+00 1.4345005849e+00 2.4846278965e+00 
66400 4.4282721618e+00 4.5231489099e-04 1.4344847351e+00 -2.4846004439e+00 1.4344847351e+00 2.4846004439e+00 
66500 4.4282720459e+00 4.4991283106e-04 1.4344689694e+00 -2.4845731369e+00 1.4344689694e+00 2.4845731369e+00 
66600 4.4282719313e+00 4.4752448106e-04 1.4344532872e+00 -2.4845459745e+00 1.4344532872e+00 2.4845459745e+00 
66700 4.4282718179e+00 4.4514975324e-04 1.4344376881e+00 -2.4845189561e+00 1.4344376881e+00 2.4845189561e+00 
66800 4.4282717056e+00 4.4278856053e-04 1.4344221716e+00 -2.4844920807e+00 1.4344221716e+00 2.4844920807e+00 
66900 4.4282715944e+00 4.4044081649e-04 1.4344067372e+00 -2.4844653476e+00 1.4344067372e+00 2.4844653476e+00 
67000 4.4282714844e+00 4.3810643534e-04 1.4343913846e+00 -2.4844387560e+00 1.4343913846e+00 2.4844387560e+00 
67100 4.4282713756e+00 4.3578533191e-04 1.4343761131e+00 -2.4844123050e+00 1.4343761131e+00 2.4844123050e+00 
67200 4.4282712678e+00 4.3347742168e-04 1.4343609223e+00 -2.4843859939e+00 1.4343609223e+00 2.4843859939e+00 
67300 4.4282711612e+00 4.3118262077e-04 1.4343458119e+00 -2.4843598218e+00 1.4343458119e+00 2.4843598218e+00 
67400 4.4282710556e+00 4.2890084588e-04 1.4343307813e+00 -2.4843337880e+00 1.4343307813e+00 2.4843337880e+00 
67500 4.4282709512e+00 4.2663201438e-04 1.4343158301e+00 -2.4843078918e+00 1.4343158301e+00 2.4843078918e+00 
67600 4.4282708478e+00 4.2437604419e-04 1.4343009578e+00 -2.4842821322e+00 1.4343009578e+00 2.4842821322e+00 
67700 4.4282707455e+00 4.2213285388e-04 1.4342861640e+00 -2.4842565086e+00 1.4342861640e+00 2.4842565086e+00 
67800 4.4282706442e+00 4.1990236261e-04 1.4342714482e+00 -2.4842310201e+00 1.4342714482e+00 2.4842310201e+00 
67900 4.4282705439e+00 4.1768449011e-04 1.4342568101e+00 -2.4842056661e+00 1.4342568101e+00 2.4842056661e+00 
68000 4.4282704447e+00 4.1547915672e-04 1.4342422491e+00 -2.4841804457e+00 1.4342422491e+00 2.4841804457e+00 
68100 4.4282703465e+00 4.1328628337e-04 1.4342277648e+00 -2.4841553583e+00 1.4342277648e+00 2.4841553583e+00 
68200 4.4282702493e+00 4.1110579155e-04 1.4342133569e+00 -2.4841304030e+00 1.4342133569e+00 2.4841304030e+00 
68300 4.4282701532e+00 4.0893760334e-04 1.4341990248e+00 -2.4841055791e+00 1.4341990248e+00 2.4841055791e+00 
68400 4.4282700579e+00 4.0678164138e-04 1.4341847682e+00 -2.4840808859e+00 1.4341847682e+00 2.4840808859e+00 
68500 4.4282699637e+00 4.0463782886e-04 1.4341705866e+00 -2.4840563226e+00 1.4341705866e+00 2.4840563226e+00 
68600 4.4282698704e+00 4.0250608956e-04 1.4341564795e+00 -2.4840318886e+00 1.4341564795e+00 2.4840318886e+00 
68700 4.4282697781e+00 4.0038634780e-04 1.4341424467e+00 -2.4840075830e+00 1.4341424467e+00 2.4840075830e+00 
68800 4.4282696867e+00 3.9827852844e-04 1.4341284877e+00 -2.4839834052e+00 1.4341284877e+00 2.4839834052e+00 
68900 4.4282695963e+00 3.9618255689e-04 1.4341146019e+00 -2.4839593544e+00 1.4341146019e+00 2.4839593544e+00 
69000 4.4282695068e+00 3.9409835912e-04 1.4341007892e+00 -2.4839354300e+00 1.4341007892e+00 2.4839354300e+00 
69100 4.4282694182e+00 3.9202586160e-04 1.4340870489e+00 -2.4839116312e+00 1.4340870489e+00 2.4839116312e+00 
69200 4.4282693305e+00 3.8996499135e-04 1.4340733808e+00 -2.4838879574e+00 1.4340733808e+00 2.4838879574e+00 
69300 4.4282692437e+00 3.8791567593e-04 1.4340597844e+00 -2.4838644077e+00 1.4340597844e+00 2.4838644077e+00 
69400 4.4282691578e+00 3.8587784340e-04 1.4340462594e+00 -2.4838409816e+00 1.4340462594e+00 2.4838409816e+00 
69500 4.4282690728e+00 3.8385142235e-04 1.4340328052e+00 -2.4838176784e+00 1.4340328052e+00 2.4838176784e+00 
69600 4.4282689886e+00 3.8183634187e-04 1.4340194216e+00 -2.4837944973e+00 1.4340194216e+00 2.4837944973e+00 
69700 4.4282689053e+00 3.7983253157e-04 1.4340061081e+00 -2.4837714376e+00 1.4340061081e+00 2.4837714376e+00 
69800 4.4282688228e+00 3.7783992156e-04 1.4339928644e+00 -2.4837484988e+00 1.4339928644e+00 2.4837484988e+00 
69900 4.4282687412e+00 3.7585844247e-04 1.4339796900e+00 -2.4837256801e+00 1.4339796900e+00 2.4837256801e+00 
70000 4.4282686605e+00 3.7388802538e-04 1.4339665846e+00 -2.4837029809e+00 1.4339665846e+00 2.4837029809e+00 
70100 4.4282685805e+00 3.7192860191e-04 1.4339535478e+00 -2.4836804004e+00 1.4339535478e+00 2.4836804004e+00 
70200 4.4282685014e+00 3.6998010414e-04 1.4339405792e+00 -2.4836579381e+00 1.4339405792e+00 2.4836579381e+00 
70300 4.4282684230e+00 3.6804246465e-04 1.4339276784e+00 -2.4836355933e+00 1.4339276784e+00 2.4836355933e+00 
70400 4.4282683455e+00 3.6611561648e-04 1.4339148450e+00 -2.4836133653e+00 1.4339148450e+00 2.4836133653e+00 
70500 4.4282682687e+00 3.6419949316e-04 1.4339020787e+00 -2.4835912534e+00 1.4339020787e+00 2.4835912534e+00 
70600 4.4282681928e+00 3.6229402870e-04 1.4338893792e+00 -2.4835692571e+00 1.4338893792e+00 2.4835692571e+00 
70700 4.4282681176e+00 3.6039915755e-04 1.4338767459e+00 -2.4835473757e+00 1.4338767459e+00 2.4835473757e+00 
70800 4.4282680432e+00 3.5851481464e-04 1.4338641786e+00 -2.4835256085e+00 1.4338641786e+00 2.4835256085e+00 
70900 4.4282679695e+00 3.5664093537e-04 1.4338516769e+00 -2.4835039550e+00 1.4338516769e+00 2.4835039550e+00 
71000 4.4282678966e+00 3.5477745558e-04 1.4338392405e+00 -2.4834824144e+00 1.4338392405e+00 2.4834824144e+00 
71100 4.4282678244e+00 3.5292431158e-04 1.4338268689e+00 -2.4834609862e+00 1.4338268689e+00 2.4834609862e+00 
71200 4.4282677530e+00 3.5108144009e-04 1.4338145619e+00 -2.4834396698e+00 1.4338145619e+00 2.4834396698e+00 
71300 4.4282676822e+00 3.4924877833e-04 1.4338023190e+00 -2.4834184645e+00 1.4338023190e+00 2.4834184645e+00 
71400 4.4282676123e+00 3.4742626392e-04 1.4337901399e+00 -2.4833973697e+00 1.4337901399e+00 2.4833973697e+00 
71500 4.4282675430e+00 3.4561383492e-04 1.4337780242e+00 -2.4833763847e+00 1.4337780242e+00 2.4833763847e+00 
71600 4.4282674744e+00 3.4381142985e-04 1.4337659717e+00 -2.4833555091e+00 1.4337659717e+00 2.4833555091e+00 
71700 4.4282674065e+00 3.4201898764e-04 1.4337539819e+00 -2.4833347422e+00 1.4337539819e+00 2.4833347422e+00 
71800 4.4282673393e+00 3.4023644766e-04 1.4337420545e+00 -2.4833140834e+00 1.4337420545e+00 2.4833140834e+00 
71900 4.4282672728e+00 3.3846374967e-04 1.4337301892e+00 -2.4832935321e+00 1.4337301892e+00 2.4832935321e+00 
72000 4.4282672070e+00 3.3670083390e-04 1.4337183856e+00 -2.4832730876e+00 1.4337183856e+00 2.4832730876e+00 
72100 4.4282671418e+00 3.3494764096e-04 1.4337066434e+00 -2.4832527495e+00 1.4337066434e+00 2.4832527495e+00 
72200 4.4282670773e+00 3.3320411188e-04 1.4336949623e+00 -2.4832325172e+00 1.4336949623e+00 2.4832325172e+00 
72300 4.4282670135e+00 3.3147018811e-04 1.4336833418e+00 -2.4832123900e+00 1.4336833418e+00 2.4832123900e+00 
72400 4.4282669503e+00 3.2974581150e-04 1.4336717817e+00 -2.4831923673e+00 1.4336717817e+00 2.4831923673e+00 
72500 4.4282668877e+00 3.2803092430e-04 1.4336602817e+00 -2.4831724487e+00 1.4336602817e+00 2.4831724487e+00 
72600 4.4282668258e+00 3.2632546917e-04 1.4336488414e+00 -2.4831526335e+00 1.4336488414e+00 2.4831526335e+00 
72700 4.4282667645e+00 3.2462938914e-04 1.4336374605e+00 -2.4831329211e+00 1.4336374605e+00 2.4831329211e+00 
72800 4.4282667038e+00 3.2294262768e-04 1.4336261386e+00 -2.4831133111e+00 1.4336261386e+00 2.4831133111e+00 
72900 4.4282666437e+00 3.2126512860e-04 1.4336148755e+00 -2.4830938028e+00 1.4336148755e+00 2.4830938028e+00 
73000 4.4282665843e+00 3.1959683613e-04 1.4336036708e+00 -2.4830743957e+00 1.4336036708e+00 2.4830743957e+00 
73100 4.4282665254e+00 3.1793769487e-04 1.4335925242e+00 -2.4830550892e+00 1.4335925242e+00 2.4830550892e+00 
73200 4.4282664672e+00 3.1628764980e-04 1.4335814353e+00 -2.4830358828e+00 1.4335814353e+00 2.4830358828e+00 
73300 4.4282664095e+00 3.1464664629e-04 1.4335704040e+00 -2.4830167759e+00 1.4335704040e+00 2.4830167759e+00 
73400 4.4282663524e+00 3.1301463007e-04 1.4335594297e+00 -2.4829977680e+00 1.4335594297e+00 2.4829977680e+00 
73500 4.4282662959e+00 3.1139154725e-04 1.4335485124e+00 -2.4829788585e+00 1.4335485124e+00 2.4829788585e+00 
73600 4.4282662400e+00 3.0977734431e-04 1.4335376515e+00 -2.4829600470e+00 1.4335376515e+00 2.4829600470e+00 
73700 4.4282661847e+00 3.0817196808e-04 1.4335268469e+00 -2.4829413328e+00 1.4335268469e+00 2.4829413328e+00 
73800 4.4282661299e+00 3.0657536578e-04 1.4335160982e+00 -2.4829227155e+00 1.4335160982e+00 2.4829227155e+00 
73900 4.4282660756e+00 3.0498748496e-04 1.4335054050e+00 -2.4829041945e+00 1.4335054050e+00 2.4829041945e+00 
74000 4.4282660219e+00 3.0340827356e-04 1.4334947672e+00 -2.4828857692e+00 1.4334947672e+00 2.4828857692e+00 
74100 4.4282659688e+00 3.0183767984e-04 1.4334841844e+00 -2.4828674393e+00 1.4334841844e+00 2.4828674393e+00 
74200 4.4282659161e+00 3.0027565243e-04 1.4334736563e+00 -2.4828492041e+00 1.4334736563e+00 2.4828492041e+00 
74300 4.4282658640e+00 2.9872214031e-04 1.4334631826e+00 -2.4828310631e+00 1.4334631826e+00 2.4828310631e+00 
74400 4.4282658125e+00 2.9717709280e-04 1.4334527631e+00 -2.4828130159e+00 1.4334527631e+00 2.4828130159e+00 
74500 4.4282657615e+00 2.9564045956e-04 1.4334423973e+00 -2.4827950618e+00 1.4334423973e+00 2.4827950618e+00 
74600 4.4282657109e+00 2.9411219061e-04 1.4334320850e+00 -2.4827772005e+00 1.4334320850e+00 2.4827772005e+00 
74700 4.4282656609e+00 2.9259223627e-04 1.4334218260e+00 -2.4827594314e+00 1.4334218260e+00 2.4827594314e+00 
74800 4.4282656114e+00 2.9108054723e-04 1.4334116200e+00 -2.4827417539e+00 1.4334116200e+00 2.4827417539e+00 
74900 4.4282655624e+00 2.8957707450e-04 1.4334014666e+00 -2.4827241677e+00 1.4334014666e+00 2.4827241677e+00 
75000 4.4282655139e+00 2.8808176941e-04 1.4333913655e+00 -2.4827066722e+00 1.4333913655e+00 2.4827066722e+00 
75100 4.4282654659e+00 2.8659458364e-04 1.4333813166e+00 -2.4826892669e+00 1.4333813166e+00 2.4826892669e+00 
75200 4.4282654183e+00 2.8511546917e-04 1.4333713194e+00 -2.4826719514e+00 1.4333713194e+00 2.4826719514e+00 
75300 4.4282653713e+00 2.8364437832e-04 1.4333613738e+00 -2.4826547251e+00 1.4333613738e+00 2.4826547251e+00 
75400 4.4282653247e+00 2.8218126372e-04 1.4333514795e+00 -2.4826375875e+00 1.4333514795e+00 2.4826375875e+00 
75500 4.4282652786e+00 2.8072607832e-04 1.4333416361e+00 -2.4826205383e+00 1.4333416361e+00 2.4826205383e+00 
75600 4.4282652329e+00 2.7927877539e-04 1.4333318434e+00 -2.4826035768e+00 1.4333318434e+00 2.4826035768e+00 
75700 4.4282651878e+00 2.7783930849e-04 1.4333221011e+00 -2.4825867027e+00 1.4333221011e+00 2.4825867027e+00 
75800 4.4282651430e+00 2.7640763152e-04 1.4333124090e+00 -2.4825699154e+00 1.4333124090e+00 2.4825699154e+00 
75900 4.4282650987e+00 2.7498369867e-04 1.4333027667e+00 -2.4825532145e+00 1.4333027667e+00 2.4825532145e+00 
76000 4.4282650549e+00 2.7356746443e-04 1.4332931740e+00 -2.4825365996e+00 1.4332931740e+00 2.4825365996e+00 
76100 4.4282650115e+00 2.7215888361e-04 1.4332836307e+00 -2.4825200701e+00 1.4332836307e+00 2.4825200701e+00 
76200 4.4282649686e+00 2.7075791131e-04 1.4332741365e+00 -2.4825036256e+00 1.4332741365e+00 2.4825036256e+00 
76300 4.4282649260e+00 2.6936450292e-04 1.4332646911e+00 -2.4824872656e+00 1.4332646911e+00 2.4824872656e+00 
76400 4.4282648840e+00 2.6797861414e-04 1.4332552942e+00 -2.4824709898e+00 1.4332552942e+00 2.4824709898e+00 
76500 4.4282648423e+00 2.6660020095e-04 1.4332459456e+00 -2.4824547975e+00 1.4332459456e+00 2.4824547975e+00 
76600 4.4282648010e+00 2.6522921964e-04 1.4332366451e+00 -2.4824386885e+00 1.4332366451e+00 2.4824386885e+00 
76700 4.4282647602e+00 2.6386562677e-04 1.4332273923e+00 -2.4824226622e+00 1.4332273923e+00 2.4824226622e+00 
76800 4.4282647198e+00 2.6250937920e-04 1.4332181870e+00 -2.4824067182e+00 1.4332181870e+00 2.4824067182e+00 
76900 4.4282646798e+00 2.6116043405e-04 1.4332090289e+00 -2.4823908560e+00 1.4332090289e+00 2.4823908560e+00 
77000 4.4282646402e+00 2.5981874876e-04 1.4331999179e+00 -2.4823750752e+00 1.4331999179e+00 2.4823750752e+00 
77100 4.4282646009e+00 2.5848428101e-04 1.4331908536e+00 -2.4823593754e+00 1.4331908536e+00 2.4823593754e+00 
77200 4.4282645621e+00 2.5715698879e-04 1.4331818359e+00 -2.4823437562e+00 1.4331818359e+00 2.4823437562e+00 
77300 4.4282645237e+00 2.5583683036e-04 1.4331728643e+00 -2.4823282170e+00 1.4331728643e+00 2.4823282170e+00 
77400 4.4282644857e+00 2.5452376423e-04 1.4331639388e+00 -2.4823127576e+00 1.4331639388e+00 2.4823127576e+00 
77500 4.4282644480e+00 2.5321774920e-04 1.4331550590e+00 -2.4822973773e+00 1.4331550590e+00 2.4822973773e+00 
77600 4.4282644107e+00 2.5191874435e-04 1.4331462247e+00 -2.4822820759e+00 1.4331462247e+00 2.4822820759e+00 
77700 4.4282643738e+00 2.5062670901e-04 1.4331374357e+00 -2.4822668529e+00 1.4331374357e+00 2.4822668529e+00 
77800 4.4282643373e+00 2.4934160277e-04 1.4331286918e+00 -2.4822517079e+00 1.4331286918e+00 2.4822517079e+00 
77900 4.4282643011e+00 2.4806338551e-04 1.4331199926e+00 -2.4822366405e+00 1.4331199926e+00 2.4822366405e+00 
78000 4.4282642653e+00 2.4679201735e-04 1.4331113379e+00 -2.4822216502e+00 1.4331113379e+00 2.4822216502e+00 
78100 4.4282642299e+00 2.4552745867e-04 1.4331027276e+00 -2.4822067366e+00 1.4331027276e+00 2.4822067366e+00 
78200 4.4282641948e+00 2.4426967012e-04 1.4330941613e+00 -2.4821918994e+00 1.4330941613e+00 2.4821918994e+00 
78300 4.4282641600e+00 2.4301861258e-04 1.4330856388e+00 -2.4821771381e+00 1.4330856388e+00 2.4821771381e+00 
78400 4.4282641256e+00 2.4177424723e-04 1.4330771600e+00 -2.4821624523e+00 1.4330771600e+00 2.4821624523e+00 
78500 4.4282640916e+00 2.4053653545e-04 1.4330687245e+00 -2.4821478416e+00 1.4330687245e+00 2.4821478416e+00 
78600 4.4282640579e+00 2.3930543889e-04 1.4330603322e+00 -2.4821333056e+00 1.4330603322e+00 2.4821333056e+00 
78700 4.4282640245e+00 2.3808091947e-04 1.4330519827e+00 -2.4821188439e+00 1.4330519827e+00 2.4821188439e+00 
78800 4.4282639915e+00 2.3686293933e-04 1.4330436759e+00 -2.4821044562e+00 1.4330436759e+00 2.4821044562e+00 
78900 4.4282639588e+00 2.3565146085e-04 1.4330354116e+00 -2.4820901420e+00 1.4330354116e+00 2.4820901420e+00 
79000 4.4282639264e+00 2.3444644668e-04 1.4330271895e+00 -2.4820759009e+00 1.4330271895e+00 2.4820759009e+00 
79100 4.4282638944e+00 2.3324785968e-04 1.4330190094e+00 -2.4820617325e+00 1.4330190094e+00 2.4820617325e+00 
79200 4.4282638627e+00 2.3205566297e-04 1.4330108711e+00 -2.4820476365e+00 1.4330108711e+00 2.4820476365e+00 
79300 4.4282638313e+00 2.3086981989e-04 1.4330027743e+00 -2.4820336125e+00 1.4330027743e+00 2.4820336125e+00 
79400 4.4282638002e+00 2.2969029404e-04 1.4329947189e+00 -2.4820196600e+00 1.4329947189e+00 2.4820196600e+00 
79500 4.4282637694e+00 2.2851704922e-04 1.4329867045e+00 -2.4820057788e+00 1.4329867045e+00 2.4820057788e+00 
79600 4.4282637389e+00 2.2735004950e-04 1.4329787311e+00 -2.4819919684e+00 1.4329787311e+00 2.4819919684e+00 
79700 4.4282637088e+00 2.2618925915e-04 1.4329707983e+00 -2.4819782284e+00 1.4329707983e+00 2.4819782284e+00 
79800 4.4282636789e+00 2.2503464268e-04 1.4329629060e+00 -2.4819645585e+00 1.4329629060e+00 2.4819645585e+00 
79900 4.4282636494e+00 2.2388616482e-04 1.4329550539e+00 -2.4819509583e+00 1.4329550539e+00 2.4819509583e+00 
80000 4.4282636201e+00 2.2274379054e-04 1.4329472419e+00 -2.4819374275e+00 1.4329472419e+00 2.4819374275e+00 
80100 4.4282635911e+00 2.2160748502e-04 1.4329394697e+00 -2.4819239656e+00 1.4329394697e+00 2.4819239656e+00 
80200 4.4282635624e+00 2.2047721366e-04 1.4329317370e+00 -2.4819105723e+00 1.4329317370e+00 2.4819105723e+00 
80300 4.4282635341e+00 2.1935294209e-04 1.4329240438e+00 -2.4818972473e+00 1.4329240438e+00 2.4818972473e+00 
80400 4.4282635059e+00 2.1823463616e-04 1.4329163898e+00 -2.4818839901e+00 1.4329163898e+00 2.4818839901e+00 
80500 4.4282634781e+00 2.1712226192e-04 1.4329087748e+00 -2.4818708005e+00 1.4329087748e+00 2.4818708005e+00 
80600 4.4282634506e+00 2.1601578564e-04 1.4329011985e+00 -2.4818576780e+00 1.4329011985e+00 2.4818576780e+00 
80700 4.4282634233e+00 2.1491517383e-04 1.4328936608e+00 -2.4818446223e+00 1.4328936608e+00 2.4818446223e+00 
80800 4.4282633963e+00 2.1382039318e-04 1.4328861615e+00 -2.4818316331e+00 1.4328861615e+00 2.4818316331e+00 
80900 4.4282633696e+00 2.1273141060e-04 1.4328787003e+00 -2.4818187100e+00 1.4328787003e+00 2.4818187100e+00 
81000 4.4282633431e+00 2.1164819322e-04 1.4328712771e+00 -2.4818058526e+00 1.4328712771e+00 2.4818058526e+00 
81100 4.4282633169e+00 2.1057070836e-04 1.4328638916e+00 -2.4817930606e+00 1.4328638916e+00 2.4817930606e+00 
81200 4.4282632910e+00 2.0949892355e-04 1.4328565437e+00 -2.4817803337e+00 1.4328565437e+00 2.4817803337e+00 
81300 4.4282632653e+00 2.0843280655e-04 1.4328492332e+00 -2.4817676715e+00 1.4328492332e+00 2.4817676715e+00 
81400 4.4282632399e+00 2.0737232528e-04 1.4328419598e+00 -2.4817550737e+00 1.4328419598e+00 2.4817550737e+00 
81500 4.4282632147e+00 2.0631744790e-04 1.4328347235e+00 -2.4817425399e+00 1.4328347235e+00 2.4817425399e+00 
81600 4.4282631898e+00 2.0526814274e-04 1.4328275238e+00 -2.4817300698e+00 1.4328275238e+00 2.4817300698e+00 
81700 4.4282631651e+00 2.0422437836e-04 1.4328203608e+00 -2.4817176630e+00 1.4328203608e+00 2.4817176630e+00 
81800 4.4282631407e+00 2.0318612348e-04 1.4328132341e+00 -2.4817053193e+00 1.4328132341e+00 2.4817053193e+00 
81900 4.4282631165e+00 2.0215334706e-04 1.4328061437e+00 -2.4816930383e+00 1.4328061437e+00 2.4816930383e+00 
82000 4.4282630926e+00 2.0112601820e-04 1.4327990892e+00 -2.4816808196e+00 1.4327990892e+00 2.4816808196e+00 
82100 4.4282630689e+00 2.0010410625e-04 1.4327920706e+00 -2.4816686630e+00 1.4327920706e+00 2.4816686630e+00 
82200 4.4282630454e+00 1.9908758071e-04 1.4327850876e+00 -2.4816565680e+00 1.4327850876e+00 2.4816565680e+00 
82300 4.4282630222e+00 1.9807641128e-04 1.4327781400e+00 -2.4816445345e+00 1.4327781400e+00 2.4816445345e+00 
82400 4.4282629992e+00 1.9707056787e-04 1.4327712277e+00 -2.4816325620e+00 1.4327712277e+00 2.4816325620e+00 
82500 4.4282629765e+00 1.9607002055e-04 1.4327643505e+00 -2.4816206503e+00 1.4327643505e+00 2.4816206503e+00 
82600 4.4282629539e+00 1.9507473959e-04 1.4327575081e+00 -2.4816087990e+00 1.4327575081e+00 2.4816087990e+00 
82700 4.4282629316e+00 1.9408469545e-04 1.4327507004e+00 -2.4815970078e+00 1.4327507004e+00 2.4815970078e+00 
82800 4.4282629095e+00 1.9309985875e-04 1.4327439273e+00 -2.4815852763e+00 1.4327439273e+00 2.4815852763e+00 
82900 4.4282628877e+00 1.9212020032e-04 1.4327371885e+00 -2.4815736044e+00 1.4327371885e+00 2.4815736044e+00 
83000 4.4282628660e+00 1.9114569115e-04 1.4327304838e+00 -2.4815619916e+00 1.4327304838e+00 2.4815619916e+00 
83100 4.4282628446e+00 1.9017630243e-04 1.4327238132e+00 -2.4815504376e+00 1.4327238132e+00 2.4815504376e+00 
83200 4.4282628234e+00 1.8921200550e-04 1.4327171763e+00 -2.4815389422e+00 1.4327171763e+00 2.4815389422e+00 
83300 4.4282628024e+00 1.8825277191e-04 1.4327105730e+00 -2.4815275051e+00 1.4327105730e+00 2.4815275051e+00 
83400 4.4282627816e+00 1.8729857337e-04 1.4327040032e+00 -2.4815161258e+00 1.4327040032e+00 2.4815161258e+00 
83500 4.4282627610e+00 1.8634938175e-04 1.4326974667e+00 -2.4815048042e+00 1.4326974667e+00 2.4815048042e+00 
83600 4.4282627406e+00 1.8540516912e-04 1.4326909633e+00 -2.4814935399e+00 1.4326909633e+00 2.4814935399e+00 
83700 4.4282627204e+00 1.8446590770e-04 1.4326844927e+00 -2.4814823326e+00 1.4326844927e+00 2.4814823326e+00 
83800 4.4282627004e+00 1.8353156990e-04 1.4326780550e+00 -2.4814711821e+00 1.4326780550e+00 2.4814711821e+00 
83900 4.4282626807e+00 1.8260212829e-04 1.4326716498e+00 -2.4814600880e+00 1.4326716498e+00 2.4814600880e+00 
84000 4.4282626611e+00 1.8167755560e-04 1.4326652770e+00 -2.4814490500e+00 1.4326652770e+00 2.4814490500e+00 
84100 4.4282626417e+00 1.8075782474e-04 1.4326589365e+00 -2.4814380679e+00 1.4326589365e+00 2.4814380679e+00 
84200 4.4282626225e+00 1.7984290879e-04 1.4326526280e+00 -2.4814271413e+00 1.4326526280e+00 2.4814271413e+00 
84300 4.4282626035e+00 1.7893278098e-04 1.4326463514e+00 -2.4814162700e+00 1.4326463514e+00 2.4814162700e+00 
84400 4.4282625847e+00 1.7802741471e-04 1.4326401066e+00 -2.4814054536e+00 1.4326401066e+00 2.4814054536e+00 
84500 4.4282625661e+00 1.7712678355e-04 1.4326338933e+00 -2.4813946919e+00 1.4326338933e+00 2.4813946919e+00 
84600 4.4282625476e+00 1.7623086122e-04 1.4326277115e+00 -2.4813839846e+00 1.4326277115e+00 2.4813839846e+00 
84700 4.4282625294e+00 1.7533962161e-04 1.4326215609e+00 -2.4813733315e+00 1.4326215609e+00 2.4813733315e+00 
84800 4.4282625113e+00 1.7445303876e-04 1.4326154413e+00 -2.4813627321e+00 1.4326154413e+00 2.4813627321e+00 
84900 4.4282624934e+00 1.7357108688e-04 1.4326093527e+00 -2.4813521863e+00 1.4326093527e+00 2.4813521863e+00 
85000 4.4282624757e+00 1.7269374033e-04 1.4326032949e+00 -2.4813416938e+00 1.4326032949e+00 2.4813416938e+00 
85100 4.4282624581e+00 1.7182097362e-04 1.4325972676e+00 -2.4813312543e+00 1.4325972676e+00 2.4813312543e+00 
85200 4.4282624408e+00 1.7095276143e-04 1.4325912708e+00 -2.4813208675e+00 1.4325912708e+00 2.4813208675e+00 
85300 4.4282624236e+00 1.7008907858e-04 1.4325853042e+00 -2.4813105331e+00 1.4325853042e+00 2.4813105331e+00 
85400 4.4282624066e+00 1.6922990005e-04 1.4325793678e+00 -2.4813002509e+00 1.4325793678e+00 2.4813002509e+00 
85500 4.4282623897e+00 1.6837520097e-04 1.4325734613e+00 -2.4812900206e+00 1.4325734613e+00 2.4812900206e+00 
85600 4.4282623730e+00 1.6752495661e-04 1.4325675847e+00 -2.4812798419e+00 1.4325675847e+00 2.4812798419e+00 
85700 4.4282623565e+00 1.6667914242e-04 1.4325617376e+00 -2.4812697146e+00 1.4325617376e+00 2.4812697146e+00 
85800 4.4282623401e+00 1.6583773397e-04 1.4325559201e+00 -2.4812596383e+00 1.4325559201e+00 2.4812596383e+00 
85900 4.4282623240e+00 1.6500070698e-04 1.4325501319e+00 -2.4812496129e+00 1.4325501319e+00 2.4812496129e+00 
86000 4.4282623079e+00 1.6416803733e-04 1.4325443730e+00 -2.4812396381e+00 1.4325443730e+00 2.4812396381e+00 
86100 4.4282622921e+00 1.6333970104e-04 1.4325386430e+00 -2.4812297135e+00 1.4325386430e+00 2.4812297135e+00 
86200 4.4282622763e+00 1.6251567426e-04 1.4325329420e+00 -2.4812198390e+00 1.4325329420e+00 2.4812198390e+00 
86300 4.4282622608e+00 1.6169593332e-04 1.4325272697e+00 -2.4812100143e+00 1.4325272697e+00 2.4812100143e+00 
86400 4.4282622454e+00 1.6088045465e-04 1.4325216259e+00 -2.4812002391e+00 1.4325216259e+00 2.4812002391e+00 
86500 4.4282622301e+00 1.6006921484e-04 1.4325160106e+00 -2.4811905131e+00 1.4325160106e+00 2.4811905131e+00 
86600 4.4282622150e+00 1.5926219064e-04 1.4325104237e+00 -2.4811808361e+00 1.4325104237e+00 2.4811808361e+00 
86700 4.4282622001e+00 1.5845935891e-04 1.4325048648e+00 -2.4811712079e+00 1.4325048648e+00 2.4811712079e+00 
86800 4.4282621853e+00 1.5766069665e-04 1.4324993340e+00 -2.4811616282e+00 1.4324993340e+00 2.4811616282e+00 
86900 4.4282621706e+00 1.5686618102e-04 1.4324938310e+00 -2.4811520968e+00 1.4324938310e+00 2.4811520968e+00 
87000 4.4282621561e+00 1.5607578931e-04 1.4324883557e+00 -2.4811426133e+00 1.4324883557e+00 2.4811426133e+00 
87100 4.4282621418e+00 1.5528949893e-04 1.4324829080e+00 -2.4811331776e+00 1.4324829080e+00 2.4811331776e+00 
87200 4.4282621276e+00 1.5450728744e-04 1.4324774877e+00 -2.4811237894e+00 1.4324774877e+00 2.4811237894e+00 
87300 4.4282621135e+00 1.5372913253e-04 1.4324720947e+00 -2.4811144484e+00 1.4324720947e+00 2.4811144484e+00 
87400 4.4282620995e+00 1.5295501201e-04 1.4324667288e+00 -2.4811051545e+00 1.4324667288e+00 2.4811051545e+00 
87500 4.4282620857e+00 1.5218490386e-04 1.4324613900e+00 -2.4810959073e+00 1.4324613900e+00 2.4810959073e+00 
87600 4.4282620721e+00 1.5141878615e-04 1.4324560780e+00 -2.4810867066e+00 1.4324560780e+00 2.4810867066e+00 
87700 4.4282620586e+00 1.5065663710e-04 1.4324507927e+00 -2.4810775522e+00 1.4324507927e+00 2.4810775522e+00 
87800 4.4282620452e+00 1.4989843505e-04 1.4324455340e+00 -2.4810684439e+00 1.4324455340e+00 2.4810684439e+00 
87900 4.4282620319e+00 1.4914415849e-04 1.4324403017e+00 -2.4810593814e+00 1.4324403017e+00 2.4810593814e+00 
88000 4.4282620188e+00 1.4839378602e-04 1.4324350958e+00 -2.4810503644e+00 1.4324350958e+00 2.4810503644e+00 
88100 4.4282620058e+00 1.4764729636e-04 1.4324299160e+00 -2.4810413928e+00 1.4324299160e+00 2.4810413928e+00 
88200 4.4282619929e+00 1.4690466838e-04 1.4324247623e+00 -2.4810324663e+00 1.4324247623e+00 2.4810324663e+00 
88300 4.4282619802e+00 1.4616588105e-04 1.4324196344e+00 -2.4810235846e+00 1.4324196344e+00 2.4810235846e+00 
88400 4.4282619676e+00 1.4543091348e-04 1.4324145324e+00 -2.4810147476e+00 1.4324145324e+00 2.4810147476e+00 
88500 4.4282619551e+00 1.4469974490e-04 1.4324094560e+00 -2.4810059550e+00 1.4324094560e+00 2.4810059550e+00 
88600 4.4282619427e+00 1.4397235467e-04 1.4324044050e+00 -2.4809972065e+00 1.4324044050e+00 2.4809972065e+00 
88700 4.4282619305e+00 1.4324872225e-04 1.4323993795e+00 -2.4809885020e+00 1.4323993795e+00 2.4809885020e+00 
88800 4.4282619183e+00 1.4252882725e-04 1.4323943792e+00 -2.4809798412e+00 1.4323943792e+00 2.4809798412e+00 
88900 4.4282619063e+00 1.4181264939e-04 1.4323894040e+00 -2.4809712240e+00 1.4323894040e+00 2.4809712240e+00 
89000 4.4282618945e+00 1.4110016849e-04 1.4323844538e+00 -2.4809626499e+00 1.4323844538e+00 2.4809626499e+00 
89100 4.4282618827e+00 1.4039136451e-04 1.4323795284e+00 -2.4809541190e+00 1.4323795284e+00 2.4809541190e+00 
89200 4.4282618710e+00 1.3968621753e-04 1.4323746278e+00 -2.4809456308e+00 1.4323746278e+00 2.4809456308e+00 
89300 4.4282618595e+00 1.3898470773e-04 1.4323697518e+00 -2.4809371853e+00 1.4323697518e+00 2.4809371853e+00 
89400 4.4282618481e+00 1.3828681543e-04 1.4323649002e+00 -2.4809287821e+00 1.4323649002e+00 2.4809287821e+00 
89500 4.4282618368e+00 1.3759252104e-04 1.4323600730e+00 -2.4809204212e+00 1.4323600730e+00 2.4809204212e+00 
89600 4.4282618256e+00 1.3690180510e-04 1.4323552700e+00 -2.4809121021e+00 1.4323552700e+00 2.4809121021e+00 
89700 4.4282618145e+00 1.3621464827e-04 1.4323504911e+00 -2.4809038248e+00 1.4323504911e+00 2.4809038248e+00 
89800 4.4282618035e+00 1.3553103130e-04 1.4323457362e+00 -2.4808955890e+00 1.4323457362e+00 2.4808955890e+00 
89900 4.4282617927e+00 1.3485093507e-04 1.4323410051e+00 -2.4808873946e+00 1.4323410051e+00 2.4808873946e+00 
90000 4.4282617819e+00 1.3417434058e-04 1.4323362977e+00 -2.4808792412e+00 1.4323362977e+00 2.4808792412e+00 
90100 4.4282617713e+00 1.3350122892e-04 1.4323316140e+00 -2.4808711287e+00 1.4323316140e+00 2.4808711287e+00 
90200 4.4282617607e+00 1.3283158131e-04 1.4323269537e+00 -2.4808630568e+00 1.4323269537e+00 2.4808630568e+00 
90300 4.4282617503e+00 1.3216537906e-04 1.4323223168e+00 -2.4808550255e+00 1.4323223168e+00 2.4808550255e+00 
90400 4.4282617400e+00 1.3150260361e-04 1.4323177031e+00 -2.4808470344e+00 1.4323177031e+00 2.4808470344e+00 
90500 4.4282617297e+00 1.3084323648e-04 1.4323131125e+00 -2.4808390833e+00 1.4323131125e+00 2.4808390833e+00 
90600 4.4282617196e+00 1.3018725934e-04 1.4323085450e+00 -2.4808311721e+00 1.4323085450e+00 2.4808311721e+00 
90700 4.4282617096e+00 1.2953465392e-04 1.4323040003e+00 -2.4808233005e+00 1.4323040003e+00 2.4808233005e+00 
90800 4.4282616996e+00 1.2888540209e-04 1.4322994784e+00 -2.4808154683e+00 1.4322994784e+00 2.4808154683e+00 
90900 4.4282616898e+00 1.2823948582e-04 1.4322949792e+00 -2.4808076754e+00 1.4322949792e+00 2.4808076754e+00 
91000 4.4282616801e+00 1.2759688716e-04 1.4322905025e+00 -2.4807999215e+00 1.4322905025e+00 2.4807999215e+00 
91100 4.4282616704e+00 1.2695758830e-04 1.4322860482e+00 -2.4807922064e+00 1.4322860482e+00 2.4807922064e+00 
91200 4.4282616609e+00 1.2632157150e-04 1.4322816162e+00 -2.4807845300e+00 1.4322816162e+00 2.4807845300e+00 
91300 4.4282616514e+00 1.2568881915e-04 1.4322772064e+00 -2.4807768920e+00 1.4322772064e+00 2.4807768920e+00 
91400 4.4282616421e+00 1.2505931373e-04 1.4322728187e+00 -2.4807692923e+00 1.4322728187e+00 2.4807692923e+00 
91500 4.4282616328e+00 1.2443303783e-04 1.4322684529e+00 -2.4807617305e+00 1.4322684529e+00 2.4807617305e+00 
91600 4.4282616236e+00 1.2380997411e-04 1.4322641090e+00 -2.4807542067e+00 1.4322641090e+00 2.4807542067e+00 
91700 4.4282616146e+00 1.2319010537e-04 1.4322597868e+00 -2.4807467204e+00 1.4322597868e+00 2.4807467204e+00 
91800 4.4282616056e+00 1.2257341450e-04 1.4322554863e+00 -2.4807392717e+00 1.4322554863e+00 2.4807392717e+00 
91900 4.4282615967e+00 1.2195988446e-04 1.4322512073e+00 -2.4807318602e+00 1.4322512073e+00 2.4807318602e+00 
92000 4.4282615879e+00 1.2134949834e-04 1.4322469496e+00 -2.4807244857e+00 1.4322469496e+00 2.4807244857e+00 
92100 4.4282615791e+00 1.2074223933e-04 1.4322427133e+00 -2.4807171482e+00 1.4322427133e+00 2.4807171482e+00 
92200 4.4282615705e+00 1.2013809068e-04 1.4322384981e+00 -2.4807098474e+00 1.4322384981e+00 2.4807098474e+00 
92300 4.4282615619e+00 1.1953703578e-04 1.4322343041e+00 -2.4807025830e+00 1.4322343041e+00 2.4807025830e+00 
92400 4.4282615535e+00 1.1893905809e-04 1.4322301310e+00 -2.4806953550e+00 1.4322301310e+00 2.4806953550e+00 
92500 4.4282615451e+00 1.1834414116e-04 1.4322259788e+00 -2.4806881631e+00 1.4322259788e+00 2.4806881631e+00 
92600 4.4282615368e+00 1.1775226867e-04 1.4322218473e+00 -2.4806810072e+00 1.4322218473e+00 2.4806810072e+00 
92700 4.4282615286e+00 1.1716342434e-04 1.4322177365e+00 -2.4806738871e+00 1.4322177365e+00 2.4806738871e+00 
92800 4.4282615204e+00 1.1657759204e-04 1.4322136462e+00 -2.4806668025e+00 1.4322136462e+00 2.4806668025e+00 
92900 4.4282615124e+00 1.1599475569e-04 1.4322095763e+00 -2.4806597533e+00 1.4322095763e+00 2.4806597533e+00 
93000 4.4282615044e+00 1.1541489931e-04 1.4322055268e+00 -2.4806527394e+00 1.4322055268e+00 2.4806527394e+00 
93100 4.4282614965e+00 1.1483800704e-04 1.4322014976e+00 -2.4806457605e+00 1.4322014976e+00 2.4806457605e+00 
93200 4.4282614887e+00 1.1426406308e-04 1.4321974884e+00 -2.4806388164e+00 1.4321974884e+00 2.4806388164e+00 
93300 4.4282614809e+00 1.1369305173e-04 1.4321934993e+00 -2.4806319071e+00 1.4321934993e+00 2.4806319071e+00 
93400 4.4282614732e+00 1.1312495737e-04 1.4321895301e+00 -2.4806250323e+00 1.4321895301e+00 2.4806250323e+00 
93500 4.4282614656e+00 1.1255976449e-04 1.4321855808e+00 -2.4806181917e+00 1.4321855808e+00 2.4806181917e+00 
93600 4.4282614581e+00 1.1199745766e-04 1.4321816511e+00 -2.4806113854e+00 1.4321816511e+00 2.4806113854e+00 
93700 4.4282614507e+00 1.1143802153e-04 1.4321777411e+00 -2.4806046130e+00 1.4321777411e+00 2.4806046130e+00 
93800 4.4282614433e+00 1.1088144084e-04 1.4321738506e+00 -2.4805978745e+00 1.4321738506e+00 2.4805978745e+00 
93900 4.4282614360e+00 1.1032770043e-04 1.4321699795e+00 -2.4805911695e+00 1.4321699795e+00 2.4805911695e+00 
94000 4.4282614288e+00 1.0977678521e-04 1.4321661277e+00 -2.4805844981e+00 1.4321661277e+00 2.4805844981e+00 
94100 4.4282614216e+00 1.0922868018e-04 1.4321622952e+00 -2.4805778599e+00 1.4321622952e+00 2.4805778599e+00 
94200 4.4282614146e+00 1.0868337043e-04 1.4321584818e+00 -2.4805712549e+00 1.4321584818e+00 2.4805712549e+00 
94300 4.4282614075e+00 1.0814084113e-04 1.4321546874e+00 -2.4805646828e+00 1.4321546874e+00 2.4805646828e+00 
94400 4.4282614006e+00 1.0760107754e-04 1.4321509119e+00 -2.4805581435e+00 1.4321509119e+00 2.4805581435e+00 
94500 4.4282613937e+00 1.0706406500e-04 1.4321471553e+00 -2.4805516369e+00 1.4321471553e+00 2.4805516369e+00 
94600 4.4282613869e+00 1.0652978893e-04 1.4321434174e+00 -2.4805451627e+00 1.4321434174e+00 2.4805451627e+00 
94700 4.4282613802e+00 1.0599823483e-04 1.4321396982e+00 -2.4805387208e+00 1.4321396982e+00 2.4805387208e+00 
94800 4.4282613735e+00 1.0546938831e-04 1.4321359975e+00 -2.4805323110e+00 1.4321359975e+00 2.4805323110e+00 
94900 4.4282613669e+00 1.0494323501e-04 1.4321323152e+00 -2.4805259332e+00 1.4321323152e+00 2.4805259332e+00 
95000 4.4282613603e+00 1.0441976070e-04 1.4321286514e+00 -2.4805195871e+00 1.4321286514e+00 2.4805195871e+00 
95100 4.4282613539e+00 1.0389895121e-04 1.4321250057e+00 -2.4805132727e+00 1.4321250057e+00 2.4805132727e+00 
95200 4.4282613475e+00 1.0338079244e-04 1.4321213783e+00 -2.4805069898e+00 1.4321213783e+00 2.4805069898e+00 
95300 4.4282613411e+00 1.0286527039e-04 1.4321177689e+00 -2.4805007382e+00 1.4321177689e+00 2.4805007382e+00 
95400 4.4282613348e+00 1.0235237113e-04 1.4321141776e+00 -2.4804945178e+00 1.4321141776e+00 2.4804945178e+00 
95500 4.4282613286e+00 1.0184208081e-04 1.4321106041e+00 -2.4804883284e+00 1.4321106041e+00 2.4804883284e+00 
95600 4.4282613224e+00 1.0133438564e-04 1.4321070484e+00 -2.4804821698e+00 1.4321070484e+00 2.4804821698e+00 
95700 4.4282613163e+00 1.0082927195e-04 1.4321035105e+00 -2.4804760419e+00 1.4321035105e+00 2.4804760419e+00 
95800 4.4282613103e+00 1.0032672610e-04 1.4320999902e+00 -2.4804699445e+00 1.4320999902e+00 2.4804699445e+00 
95900 4.4282613043e+00 9.9826734554e-05 1.4320964874e+00 -2.4804638775e+00 1.4320964874e+00 2.4804638775e+00 
96000 4.4282612984e+00 9.9329283849e-05 1.4320930021e+00 -2.4804578407e+00 1.4320930021e+00 2.4804578407e+00 
96100 4.4282612925e+00 9.8834360592e-05 1.4320895341e+00 -2.4804518340e+00 1.4320895341e+00 2.4804518340e+00 
96200 4.4282612867e+00 9.8341951469e-05 1.4320860834e+00 -2.4804458572e+00 1.4320860834e+00 2.4804458572e+00 
96300 4.4282612809e+00 9.7852043238e-05 1.4320826499e+00 -2.4804399102e+00 1.4320826499e+00 2.4804399102e+00 
96400 4.4282612752e+00 9.7364622733e-05 1.4320792334e+00 -2.4804339928e+00 1.4320792334e+00 2.4804339928e+00 
96500 4.4282612696e+00 9.6879676863e-05 1.4320758340e+00 -2.4804281048e+00 1.4320758340e+00 2.4804281048e+00 
96600 4.4282612640e+00 9.6397192607e-05 1.4320724515e+00 -2.4804222462e+00 1.4320724515e+00 2.4804222462e+00 
96700 4.4282612585e+00 9.5917157020e-05 1.4320690859e+00 -2.4804164167e+00 1.4320690859e+00 2.4804164167e+00 
96800 4.4282612530e+00 9.5439557228e-05 1.4320657370e+00 -2.4804106162e+00 1.4320657370e+00 2.4804106162e+00 
96900 4.4282612476e+00 9.4964380430e-05 1.4320624048e+00 -2.4804048447e+00 1.4320624048e+00 2.4804048447e+00 
97000 4.4282612422e+00 9.4491613894e-05 1.4320590891e+00 -2.4803991018e+00 1.4320590891e+00 2.4803991018e+00 
97100 4.4282612369e+00 9.4021244963e-05 1.4320557900e+00 -2.4803933875e+00 1.4320557900e+00 2.4803933875e+00 
97200 4.4282612317e+00 9.3553261048e-05 1.4320525072e+00 -2.4803877016e+00 1.4320525072e+00 2.4803877016e+00 
97300 4.4282612265e+00 9.3087649631e-05 1.4320492408e+00 -2.4803820440e+00 1.4320492408e+00 2.4803820440e+00 
97400 4.4282612213e+00 9.2624398263e-05 1.4320459907e+00 -2.4803764146e+00 1.4320459907e+00 2.4803764146e+00 
97500 4.4282612162e+00 9.2163494565e-05 1.4320427567e+00 -2.4803708132e+00 1.4320427567e+00 2.4803708132e+00 
97600 4.4282612111e+00 9.1704926228e-05 1.4320395388e+00 -2.4803652396e+00 1.4320395388e+00 2.4803652396e+00 
97700 4.4282612061e+00 9.1248681011e-05 1.4320363369e+00 -2.4803596938e+00 1.4320363369e+00 2.4803596938e+00 
97800 4.4282612012e+00 9.0794746740e-05 1.4320331509e+00 -2.4803541755e+00 1.4320331509e+00 2.4803541755e+00 
97900 4.4282611963e+00 9.0343111309e-05 1.4320299808e+00 -2.4803486847e+00 1.4320299808e+00 2.4803486847e+00 
98000 4.4282611914e+00 8.9893762681e-05 1.4320268264e+00 -2.4803432211e+00 1.4320268264e+00 2.4803432211e+00 
98100 4.4282611866e+00 8.9446688883e-05 1.4320236877e+00 -2.4803377848e+00 1.4320236877e+00 2.4803377848e+00 
98200 4.4282611818e+00 8.9001878012e-05 1.4320205646e+00 -2.4803323754e+00 1.4320205646e+00 2.4803323754e+00 
98300 4.4282611771e+00 8.8559318228e-05 1.4320174571e+00 -2.4803269930e+00 1.4320174571e+00 2.4803269930e+00 
98400 4.4282611724e+00 8.8118997758e-05 1.4320143649e+00 -2.4803216373e+00 1.4320143649e+00 2.4803216373e+00 
98500 4.4282611678e+00 8.7680904894e-05 1.4320112882e+00 -2.4803163082e+00 1.4320112882e+00 2.4803163082e+00 
98600 4.4282611632e+00 8.7245027993e-05 1.4320082267e+00 -2.4803110056e+00 1.4320082267e+00 2.4803110056e+00 
98700 4.4282611587e+00 8.6811355477e-05 1.4320051805e+00 -2.4803057293e+00 1.4320051805e+00 2.4803057293e+00 
98800 4.4282611542e+00 8.6379875831e-05 1.4320021494e+00 -2.4803004793e+00 1.4320021494e+00 2.4803004793e+00 
98900 4.4282611498e+00 8.5950577604e-05 1.4319991333e+00 -2.4802952553e+00 1.4319991333e+00 2.4802952553e+00 
99000 4.4282611454e+00 8.5523449409e-05 1.4319961323e+00 -2.4802900573e+00 1.4319961323e+00 2.4802900573e+00 
99100 4.4282611410e+00 8.5098479921e-05 1.4319931461e+00 -2.4802848851e+00 1.4319931461e+00 2.4802848851e+00 
99200 4.4282611367e+00 8.4675657879e-05 1.4319901748e+00 -2.4802797386e+00 1.4319901748e+00 2.4802797386e+00 
99300 4.4282611324e+00 8.4254972082e-05 1.4319872182e+00 -2.4802746177e+00 1.4319872182e+00 2.4802746177e+00 
99400 4.4282611282e+00 8.3836411392e-05 1.4319842763e+00 -2.4802695222e+00 1.4319842763e+00 2.4802695222e+00 
99500 4.4282611240e+00 8.3419964733e-05 1.4319813490e+00 -2.4802644520e+00 1.4319813490e+00 2.4802644520e+00 
99600 4.4282611199e+00 8.3005621088e-05 1.4319784363e+00 -2.4802594070e+00 1.4319784363e+00 2.4802594070e+00 
99700 4.4282611158e+00 8.2593369504e-05 1.4319755380e+00 -2.4802543870e+00 1.4319755380e+00 2.4802543870e+00 
99800 4.4282611117e+00 8.2183199086e-05 1.4319726541e+00 -2.4802493920e+00 1.4319726541e+00 2.4802493920e+00 
99900 4.4282611077e+00 8.1775098998e-05 1.4319697845e+00 -2.4802444217e+00 1.4319697845e+00 2.4802444217e+00 
100000 4.4282611037e+00 8.1369058466e-05 1.4319669292e+00 -2.4802394761e+00 1.4319669292e+00 2.4802394761e+00 
100100 4.4282610997e+00 8.0965066774e-05 1.4319640880e+00 -2.4802345551e+00 1.4319640880e+00 2.4802345551e+00 
100200 4.4282610958e+00 8.0563113265e-05 1.4319612610e+00 -2.4802296585e+00 1.4319612610e+00 2.4802296585e+00 
100300 4.4282610919e+00 8.0163187340e-05 1.4319584479e+00 -2.4802247862e+00 1.4319584479e+00 2.4802247862e+00 
100400 4.4282610881e+00 7.9765278460e-05 1.4319556489e+00 -2.4802199380e+00 1.4319556489e+00 2.4802199380e+00 
100500 4.4282610843e+00 7.9369376141e-05 1.4319528637e+00 -2.4802151139e+00 1.4319528637e+00 2.4802151139e+00 
100600 4.4282610806e+00 7.8975469959e-05 1.4319500923e+00 -2.4802103138e+00 1.4319500923e+00 2.4802103138e+00 
100700 4.4282610768e+00 7.8583549545e-05 1.4319473347e+00 -2.4802055374e+00 1.4319473347e+00 2.4802055374e+00 
100800 4.4282610732e+00 7.8193604590e-05 1.4319445908e+00 -2.4802007848e+00 1.4319445908e+00 2.4802007848e+00 
100900 4.4282610695e+00 7.7805624837e-05 1.4319418604e+00 -2.4801960557e+00 1.4319418604e+00 2.4801960557e+00 
101000 4.4282610659e+00 7.7419600089e-05 1.4319391436e+00 -2.4801913501e+00 1.4319391436e+00 2.4801913501e+00 
101100 4.4282610623e+00 7.7035520203e-05 1.4319364403e+00 -2.4801866679e+00 1.4319364403e+00 2.4801866679e+00 
101200 4.4282610588e+00 7.6653375092e-05 1.4319337504e+00 -2.4801820088e+00 1.4319337504e+00 2.4801820088e+00 
101300 4.4282610553e+00 7.6273154723e-05 1.4319310739e+00 -2.4801773728e+00 1.4319310739e+00 2.4801773728e+00 
101400 4.4282610518e+00 7.5894849119e-05 1.4319284106e+00 -2.4801727599e+00 1.4319284106e+00 2.4801727599e+00 
101500 4.4282610484e+00 7.5518448357e-05 1.4319257605e+00 -2.4801681698e+00 1.4319257605e+00 2.4801681698e+00 
101600 4.4282610450e+00 7.5143942569e-05 1.4319231235e+00 -2.4801636025e+00 1.4319231235e+00 2.4801636025e+00 
101700 4.4282610416e+00 7.4771321938e-05 1.4319204996e+00 -2.4801590578e+00 1.4319204996e+00 2.4801590578e+00 
101800 4.4282610383e+00 7.4400576705e-05 1.4319178888e+00 -2.4801545356e+00 1.4319178888e+00 2.4801545356e+00 
101900 4.4282610350e+00 7.4031697161e-05 1.4319152908e+00 -2.4801500358e+00 1.4319152908e+00 2.4801500358e+00 
102000 4.4282610317e+00 7.3664673649e-05 1.4319127058e+00 -2.4801455584e+00 1.4319127058e+00 2.4801455584e+00 
102100 4.4282610284e+00 7.3299496568e-05 1.4319101335e+00 -2.4801411031e+00 1.4319101335e+00 2.4801411031e+00 
102200 4.4282610252e+00 7.2936156367e-05 1.4319075740e+00 -2.4801366699e+00 1.4319075740e+00 2.4801366699e+00 
102300 4.4282610221e+00 7.2574643547e-05 1.4319050272e+00 -2.4801322587e+00 1.4319050272e+00 2.4801322587e+00 
102400 4.4282610189e+00 7.2214948661e-05 1.4319024930e+00 -2.4801278694e+00 1.4319024930e+00 2.4801278694e+00 
102500 4.4282610158e+00 7.1857062313e-05 1.4318999714e+00 -2.4801235017e+00 1.4318999714e+00 2.4801235017e+00 
102600 4.4282610127e+00 7.1500975159e-05 1.4318974622e+00 -2.4801191558e+00 1.4318974622e+00 2.4801191558e+00 
102700 4.4282610097e+00 7.1146677904e-05 1.4318949655e+00 -2.4801148313e+00 1.4318949655e+00 2.4801148313e+00 
102800 4.4282610066e+00 7.0794161305e-05 1.4318924811e+00 -2.4801105283e+00 1.4318924811e+00 2.4801105283e+00 
102900 4.4282610037e+00 7.0443416169e-05 1.4318900091e+00 -2.4801062466e+00 1.4318900091e+00 2.4801062466e+00 
103000 4.4282610009e+00 7.0752858220e-05 1.4318900091e+00 -2.4801062466e+00 1.4318900091e+00 2.4801062466e+00 
103100 4.4282609980e+00 7.0403148302e-05 1.4318875385e+00 -2.4801019674e+00 1.4318875385e+00 2.4801019674e+00 
103200 4.4282609953e+00 7.0712857237e-05 1.4318875385e+00 -2.4801019674e+00 1.4318875385e+00 2.4801019674e+00 
103300 4.4282609924e+00 7.0363513874e-05 1.4318850693e+00 -2.4800976906e+00 1.4318850693e+00 2.4800976906e+00 
103400 4.4282609898e+00 7.0672902327e-05 1.4318850693e+00 -2.4800976906e+00 1.4318850693e+00 2.4800976906e+00 
103500 4.4282609873e+00 7.0983875552e-05 1.4318850693e+00 -2.4800976906e+00 1.4318850693e+00 2.4800976906e+00 
103600 4.4282609844e+00 7.0632791231e-05 1.4318825906e+00 -2.4800933973e+00 1.4318825906e+00 2.4800933973e+00 
103700 4.4282609819e+00 7.0942428155e-05 1.4318825906e+00 -2.4800933973e+00 1.4318825906e+00 2.4800933973e+00 
103800 4.4282609792e+00 7.0590284852e-05 1.4318801133e+00 -2.4800891066e+00 1.4318801133e+00 2.4800891066e+00 
103900 4.4282609767e+00 7.0898310471e-05 1.4318801133e+00 -2.4800891066e+00 1.4318801133e+00 2.4800891066e+00 
104000 4.4282609740e+00 7.0544885115e-05 1.4318776376e+00 -2.4800848186e+00 1.4318776376e+00 2.4800848186e+00 
104100 4.4282609716e+00 7.0851076550e-05 1.4318776376e+00 -2.4800848186e+00 1.4318776376e+00 2.4800848186e+00 
104200 4.4282609689e+00 7.0496196959e-05 1.4318751636e+00 -2.4800805334e+00 1.4318751636e+00 2.4800805334e+00 
104300 4.4282609665e+00 7.0800373271e-05 1.4318751636e+00 -2.4800805334e+00 1.4318751636e+00 2.4800805334e+00 
104400 4.4282609639e+00 7.0443908231e-05 1.4318726913e+00 -2.4800762512e+00 1.4318726913e+00 2.4800762512e+00 
104500 4.4282609616e+00 7.0745922358e-05 1.4318726913e+00 -2.4800762512e+00 1.4318726913e+00 2.4800762512e+00 
104600 4.4282609591e+00 7.0387773744e-05 1.4318702209e+00 -2.4800719724e+00 1.4318702209e+00 2.4800719724e+00 
104700 4.4282609568e+00 7.0687506112e-05 1.4318702209e+00 -2.4800719724e+00 1.4318702209e+00 2.4800719724e+00 
104800 4.4282609545e+00 7.0987988271e-05 1.4318702209e+00 -2.4800719724e+00 1.4318702209e+00 2.4800719724e+00 
104900 4.4282609520e+00 7.0625850345e-05 1.4318677420e+00 -2.4800676789e+00 1.4318677420e+00 2.4800676789e+00 
105000 4.4282609498e+00 7.0923567833e-05 1.4318677420e+00 -2.4800676789e+00 1.4318677420e+00 2.4800676789e+00 
105100 4.4282609474e+00 7.0559296058e-05 1.4318652654e+00 -2.4800633893e+00 1.4318652654e+00 2.4800633893e+00 
105200 4.4282609452e+00 7.0854243646e-05 1.4318652654e+00 -2.4800633893e+00 1.4318652654e+00 2.4800633893e+00 
105300 4.4282609428e+00 7.0487878062e-05 1.4318627912e+00 -2.4800591038e+00 1.4318627912e+00 2.4800591038e+00 
105400 4.4282609407e+00 7.0780050732e-05 1.4318627912e+00 -2.4800591038e+00 1.4318627912e+00 2.4800591038e+00 
105500 4.4282609383e+00 7.0411631572e-05 1.4318603196e+00 -2.4800548229e+00 1.4318603196e+00 2.4800548229e+00 
105600 4.4282609363e+00 7.0701025084e-05 1.4318603196e+00 -2.4800548229e+00 1.4318603196e+00 2.4800548229e+00 
105700 4.4282609342e+00 7.0990956432e-05 1.4318603196e+00 -2.4800548229e+00 1.4318603196e+00 2.4800548229e+00 
105800 4.4282609319e+00 7.0618197478e-05 1.4318578406e+00 -2.4800505292e+00 1.4318578406e+00 2.4800505292e+00 
105900 4.4282609299e+00 7.0905001309e-05 1.4318578406e+00 -2.4800505292e+00 1.4318578406e+00 2.4800505292e+00 
106000 4.4282609277e+00 7.0529981136e-05 1.4318553647e+00 -2.4800462407e+00 1.4318553647e+00 2.4800462407e+00 
106100 4.4282609257e+00 7.0813722256e-05 1.4318553647e+00 -2.4800462407e+00 1.4318553647e+00 2.4800462407e+00 
106200 4.4282609235e+00 7.0436548453e-05 1.4318528919e+00 -2.4800419577e+00 1.4318528919e+00 2.4800419577e+00 
106300 4.4282609216e+00 7.0717279761e-05 1.4318528919e+00 -2.4800419577e+00 1.4318528919e+00 2.4800419577e+00 
106400 4.4282609194e+00 7.0338048083e-05 1.4318504224e+00 -2.4800376805e+00 1.4318504224e+00 2.4800376805e+00 
106500 4.4282609175e+00 7.0615813522e-05 1.4318504224e+00 -2.4800376805e+00 1.4318504224e+00 2.4800376805e+00 
106600 4.4282609156e+00 7.0894036625e-05 1.4318504224e+00 -2.4800376805e+00 1.4318504224e+00 2.4800376805e+00 
106700 4.4282609135e+00 7.0510544760e-05 1.4318479468e+00 -2.4800333926e+00 1.4318479468e+00 2.4800333926e+00 
106800 4.4282609117e+00 7.0785512123e-05 1.4318479468e+00 -2.4800333926e+00 1.4318479468e+00 2.4800333926e+00 
106900 4.4282609096e+00 7.0399855409e-05 1.4318454750e+00 -2.4800291113e+00 1.4318454750e+00 2.4800291113e+00 
107000 4.4282609078e+00 7.0671662997e-05 1.4318454750e+00 -2.4800291113e+00 1.4318454750e+00 2.4800291113e+00 
107100 4.4282609060e+00 7.0943849135e-05 1.4318454750e+00 -2.4800291113e+00 1.4318454750e+00 2.4800291113e+00 
107200 4.4282609040e+00 7.0553861168e-05 1.4318429976e+00 -2.4800248204e+00 1.4318429976e+00 2.4800248204e+00 
107300 4.4282609023e+00 7.0822657562e-05 1.4318429976e+00 -2.4800248204e+00 1.4318429976e+00 2.4800248204e+00 
107400 4.4282609003e+00 7.0430504028e-05 1.4318405245e+00 -2.4800205368e+00 1.4318405245e+00 2.4800205368e+00 
107500 4.4282608986e+00 7.0696037663e-05 1.4318405245e+00 -2.4800205368e+00 1.4318405245e+00 2.4800205368e+00 
107600 4.4282608969e+00 7.0961908839e-05 1.4318405245e+00 -2.4800205368e+00 1.4318405245e+00 2.4800205368e+00 
107700 4.4282608950e+00 7.0565475709e-05 1.4318380465e+00 -2.4800162448e+00 1.4318380465e+00 2.4800162448e+00 
107800 4.4282608933e+00 7.0827890442e-05 1.4318380465e+00 -2.4800162448e+00 1.4318380465e+00 2.4800162448e+00 
107900 4.4282608914e+00 7.0429353488e-05 1.4318355732e+00 -2.4800119609e+00 1.4318355732e+00 2.4800119609e+00 
108000 4.4282608898e+00 7.0688457812e-05 1.4318355732e+00 -2.4800119609e+00 1.4318355732e+00 2.4800119609e+00 
108100 4.4282608882e+00 7.0947881738e-05 1.4318355732e+00 -2.4800119609e+00 1.4318355732e+00 2.4800119609e+00 
108200 4.4282608864e+00 7.0545189712e-05 1.4318330957e+00 -2.4800076697e+00 1.4318330957e+00 2.4800076697e+00 
108300 4.4282608848e+00 7.0801132311e-05 1.4318330957e+00 -2.4800076697e+00 1.4318330957e+00 2.4800076697e+00 
108400 4.4282608830e+00 7.0396435443e-05 1.4318306233e+00 -2.4800033874e+00 1.4318306233e+00 2.4800033874e+00 
108500 4.4282608814e+00 7.0649054823e-05 1.4318306233e+00 -2.4800033874e+00 1.4318306233e+00 2.4800033874e+00 
108600 4.4282608799e+00 7.0901990226e-05 1.4318306233e+00 -2.4800033874e+00 1.4318306233e+00 2.4800033874e+00 
108700 4.4282608782e+00 7.0493306647e-05 1.4318281474e+00 -2.4799990989e+00 1.4318281474e+00 2.4799990989e+00 
108800 4.4282608767e+00 7.0742762763e-05 1.4318281474e+00 -2.4799990989e+00 1.4318281474e+00 2.4799990989e+00 
108900 4.4282608749e+00 7.0332195684e-05 1.4318256770e+00 -2.4799948201e+00 1.4318256770e+00 2.4799948201e+00 
109000 4.4282608735e+00 7.0578338507e-05 1.4318256770e+00 -2.4799948201e+00 1.4318256770e+00 2.4799948201e+00 
109100 4.4282608720e+00 7.0824802959e-05 1.4318256770e+00 -2.4799948201e+00 1.4318256770e+00 2.4799948201e+00 
109200 4.4282608703e+00 7.0410443986e-05 1.4318232038e+00 -2.4799905364e+00 1.4318232038e+00 2.4799905364e+00 
109300 4.4282608689e+00 7.0653449157e-05 1.4318232038e+00 -2.4799905364e+00 1.4318232038e+00 2.4799905364e+00 
109400 4.4282608675e+00 7.0896718126e-05 1.4318232038e+00 -2.4799905364e+00 1.4318232038e+00 2.4799905364e+00 
109500 4.4282608659e+00 7.0478482242e-05 1.4318207280e+00 -2.4799862483e+00 1.4318207280e+00 2.4799862483e+00 
109600 4.4282608645e+00 7.0718193587e-05 1.4318207280e+00 -2.4799862483e+00 1.4318207280e+00 2.4799862483e+00 
109700 4.4282608629e+00 7.0298189501e-05 1.4318182585e+00 -2.4799819709e+00 1.4318182585e+00 2.4799819709e+00 
109800 4.4282608615e+00 7.0534538685e-05 1.4318182585e+00 -2.4799819709e+00 1.4318182585e+00 2.4799819709e+00 
109900 4.4282608602e+00 7.0771193134e-05 1.4318182585e+00 -2.4799819709e+00 1.4318182585e+00 2.4799819709e+00 
110000 4.4282608586e+00 7.0347618600e-05 1.4318157871e+00 -2.4799776904e+00 1.4318157871e+00 2.4799776904e+00 
110100 4.4282608573e+00 7.0580799374e-05 1.4318157871e+00 -2.4799776904e+00 1.4318157871e+00 2.4799776904e+00 
110200 4.4282608560e+00 7.0814241582e-05 1.4318157871e+00 -2.4799776904e+00 1.4318157871e+00 2.4799776904e+00 
110300 4.4282608545e+00 7.0387053757e-05 1.4318133142e+00 -2.4799734072e+00 1.4318133142e+00 2.4799734072e+00 
110400 4.4282608532e+00 7.0616949586e-05 1.4318133142e+00 -2.4799734072e+00 1.4318133142e+00 2.4799734072e+00 
110500 4.4282608520e+00 7.0847079105e-05 1.4318133142e+00 -2.4799734072e+00 1.4318133142e+00 2.4799734072e+00 
110600 4.4282608505e+00 7.0416286609e-05 1.4318108402e+00 -2.4799691221e+00 1.4318108402e+00 2.4799691221e+00 
110700 4.4282608493e+00 7.0642824815e-05 1.4318108402e+00 -2.4799691221e+00 1.4318108402e+00 2.4799691221e+00 
110800 4.4282608481e+00 7.0869580430e-05 1.4318108402e+00 -2.4799691221e+00 1.4318108402e+00 2.4799691221e+00 
110900 4.4282608466e+00 7.0435228161e-05 1.4318083654e+00 -2.4799648356e+00 1.4318083654e+00 2.4799648356e+00 
111000 4.4282608454e+00 7.0658367533e-05 1.4318083654e+00 -2.4799648356e+00 1.4318083654e+00 2.4799648356e+00 
111100 4.4282608442e+00 7.0881716237e-05 1.4318083654e+00 -2.4799648356e+00 1.4318083654e+00 2.4799648356e+00 
111200 4.4282608428e+00 7.0443874674e-05 1.4318058901e+00 -2.4799605483e+00 1.4318058901e+00 2.4799605483e+00 
111300 4.4282608417e+00 7.0663596732e-05 1.4318058901e+00 -2.4799605483e+00 1.4318058901e+00 2.4799605483e+00 
111400 4.4282608405e+00 7.0883525951e-05 1.4318058901e+00 -2.4799605483e+00 1.4318058901e+00 2.4799605483e+00 
111500 4.4282608391e+00 7.0442283576e-05 1.4318034148e+00 -2.4799562609e+00 1.4318034148e+00 2.4799562609e+00 
111600 4.4282608380e+00 7.0658586383e-05 1.4318034148e+00 -2.4799562609e+00 1.4318034148e+00 2.4799562609e+00 
111700 4.4282608369e+00 7.0875098449e-05 1.4318034148e+00 -2.4799562609e+00 1.4318034148e+00 2.4799562609e+00 
111800 4.4282608356e+00 7.0430556360e-05 1.4318009398e+00 -2.4799519740e+00 1.4318009398e+00 2.4799519740e+00 
111900 4.4282608345e+00 7.0643450116e-05 1.4318009398e+00 -2.4799519740e+00 1.4318009398e+00 2.4799519740e+00 
112000 4.4282608334e+00 7.0856558332e-05 1.4318009398e+00 -2.4799519740e+00 1.4318009398e+00 2.4799519740e+00 
112100 4.4282608321e+00 7.0408826379e-05 1.4317984654e+00 -2.4799476883e+00 1.4317984654e+00 2.4799476883e+00 
112200 4.4282608310e+00 7.0618330263e-05 1.4317984654e+00 -2.4799476883e+00 1.4317984654e+00 2.4799476883e+00 
112300 4.4282608300e+00 7.0828056068e-05 1.4317984654e+00 -2.4799476883e+00 1.4317984654e+00 2.4799476883e+00 
112400 4.4282608287e+00 7.0377250075e-05 1.4317959920e+00 -2.4799434042e+00 1.4317959920e+00 2.4799434042e+00 
112500 4.4282608277e+00 7.0583389960e-05 1.4317959920e+00 -2.4799434042e+00 1.4317959920e+00 2.4799434042e+00 
112600 4.4282608267e+00 7.0789760876e-05 1.4317959920e+00 -2.4799434042e+00 1.4317959920e+00 2.4799434042e+00 
112700 4.4282608254e+00 7.0336000618e-05 1.4317935200e+00 -2.4799391225e+00 1.4317935200e+00 2.4799391225e+00 
112800 4.4282608245e+00 7.0538807404e-05 1.4317935200e+00 -2.4799391225e+00 1.4317935200e+00 2.4799391225e+00 
112900 4.4282608235e+00 7.0741855533e-05 1.4317935200e+00 -2.4799391225e+00 1.4317935200e+00 2.4799391225e+00 
113000 4.4282608223e+00 7.0285263250e-05 1.4317910496e+00 -2.4799348437e+00 1.4317910496e+00 2.4799348437e+00 
113100 4.4282608213e+00 7.0484771635e-05 1.4317910496e+00 -2.4799348437e+00 1.4317910496e+00 2.4799348437e+00 
113200 4.4282608203e+00 7.0684532544e-05 1.4317910496e+00 -2.4799348437e+00 1.4317910496e+00 2.4799348437e+00 
113300 4.4282608194e+00 7.0884429129e-05 1.4317910496e+00 -2.4799348437e+00 1.4317910496e+00 2.4799348437e+00 
113400 4.4282608182e+00 7.0423307033e-05 1.4317885742e+00 -2.4799305562e+00 1.4317885742e+00 2.4799305562e+00 
113500 4.4282608173e+00 7.0619482227e-05 1.4317885742e+00 -2.4799305562e+00 1.4317885742e+00 2.4799305562e+00 
113600 4.4282608164e+00 7.0815839259e-05 1.4317885742e+00 -2.4799305562e+00 1.4317885742e+00 2.4799305562e+00 
113700 4.4282608152e+00 7.0351891938e-05 1.4317861012e+00 -2.4799262728e+00 1.4317861012e+00 2.4799262728e+00 
113800 4.4282608144e+00 7.0544613473e-05 1.4317861012e+00 -2.4799262728e+00 1.4317861012e+00 2.4799262728e+00 
113900 4.4282608135e+00 7.0737553341e-05 1.4317861012e+00 -2.4799262728e+00 1.4317861012e+00 2.4799262728e+00 
114000 4.4282608123e+00 7.0270984456e-05 1.4317836309e+00 -2.4799219942e+00 1.4317836309e+00 2.4799219942e+00 
114100 4.4282608115e+00 7.0460359077e-05 1.4317836309e+00 -2.4799219942e+00 1.4317836309e+00 2.4799219942e+00 
114200 4.4282608106e+00 7.0649981760e-05 1.4317836309e+00 -2.4799219942e+00 1.4317836309e+00 2.4799219942e+00 
114300 4.4282608098e+00 7.0839740612e-05 1.4317836309e+00 -2.4799219942e+00 1.4317836309e+00 2.4799219942e+00 
114400 4.4282608087e+00 7.0369007934e-05 1.4317811571e+00 -2.4799177094e+00 1.4317811571e+00 2.4799177094e+00 
114500 4.4282608079e+00 7.0555061864e-05 1.4317811571e+00 -2.4799177094e+00 1.4317811571e+00 2.4799177094e+00 
114600 4.4282608070e+00 7.0741309859e-05 1.4317811571e+00 -2.4799177094e+00 1.4317811571e+00 2.4799177094e+00 
114700 4.4282608060e+00 7.0268067572e-05 1.4317786867e+00 -2.4799134306e+00 1.4317786867e+00 2.4799134306e+00 
114800 4.4282608052e+00 7.0450718050e-05 1.4317786867e+00 -2.4799134306e+00 1.4317786867e+00 2.4799134306e+00 
114900 4.4282608044e+00 7.0633607426e-05 1.4317786867e+00 -2.4799134306e+00 1.4317786867e+00 2.4799134306e+00 
115000 4.4282608036e+00 7.0816627814e-05 1.4317786867e+00 -2.4799134306e+00 1.4317786867e+00 2.4799134306e+00 
115100 4.4282608026e+00 7.0339441263e-05 1.4317762137e+00 -2.4799091472e+00 1.4317762137e+00 2.4799091472e+00 
115200 4.4282608018e+00 7.0518758173e-05 1.4317762137e+00 -2.4799091472e+00 1.4317762137e+00 2.4799091472e+00 
115300 4.4282608010e+00 7.0698273500e-05 1.4317762137e+00 -2.4799091472e+00 1.4317762137e+00 2.4799091472e+00 
115400 4.4282608003e+00 7.0877885178e-05 1.4317762137e+00 -2.4799091472e+00 1.4317762137e+00 2.4799091472e+00 
115500 4.4282607993e+00 7.0396728844e-05 1.4317737385e+00 -2.4799048601e+00 1.4317737385e+00 2.4799048601e+00 
115600 4.4282607985e+00 7.0572579645e-05 1.4317737385e+00 -2.4799048601e+00 1.4317737385e+00 2.4799048601e+00 
115700 4.4282607978e+00 7.0748608410e-05 1.4317737385e+00 -2.4799048601e+00 1.4317737385e+00 2.4799048601e+00 
115800 4.4282607968e+00 7.0265177228e-05 1.4317712679e+00 -2.4799005807e+00 1.4317712679e+00 2.4799005807e+00 
115900 4.4282607961e+00 7.0437594246e-05 1.4317712679e+00 -2.4799005807e+00 1.4317712679e+00 2.4799005807e+00 
116000 4.4282607954e+00 7.0610250853e-05 1.4317712679e+00 -2.4799005807e+00 1.4317712679e+00 2.4799005807e+00 
116100 4.4282607947e+00 7.0783043634e-05 1.4317712679e+00 -2.4799005807e+00 1.4317712679e+00 2.4799005807e+00 
116200 4.4282607937e+00 7.0296057722e-05 1.4317687960e+00 -2.4798962993e+00 1.4317687960e+00 2.4798962993e+00 
116300 4.4282607930e+00 7.0465170993e-05 1.4317687960e+00 -2.4798962993e+00 1.4317687960e+00 2.4798962993e+00 
116400 4.4282607923e+00 7.0634498455e-05 1.4317687960e+00 -2.4798962993e+00 1.4317687960e+00 2.4798962993e+00 
116500 4.4282607917e+00 7.0803940953e-05 1.4317687960e+00 -2.4798962993e+00 1.4317687960e+00 2.4798962993e+00 
116600 4.4282607908e+00 7.0313429804e-05 1.4317663234e+00 -2.4798920167e+00 1.4317663234e+00 2.4798920167e+00 
116700 4.4282607901e+00 7.0479160506e-05 1.4317663234e+00 -2.4798920167e+00 1.4317663234e+00 2.4798920167e+00 
116800 4.4282607894e+00 7.0645094535e-05 1.4317663234e+00 -2.4798920167e+00 1.4317663234e+00 2.4798920167e+00 
116900 4.4282607888e+00 7.0811135424e-05 1.4317663234e+00 -2.4798920167e+00 1.4317663234e+00 2.4798920167e+00 
117000 4.4282607879e+00 7.0317186215e-05 1.4317638505e+00 -2.4798877336e+00 1.4317638505e+00 2.4798877336e+00 
117100 4.4282607873e+00 7.0479505613e-05 1.4317638505e+00 -2.4798877336e+00 1.4317638505e+00 2.4798877336e+00 
117200 4.4282607866e+00 7.0642026629e-05 1.4317638505e+00 -2.4798877336e+00 1.4317638505e+00 2.4798877336e+00 
117300 4.4282607860e+00 7.0804654502e-05 1.4317638505e+00 -2.4798877336e+00 1.4317638505e+00 2.4798877336e+00 
117400 4.4282607851e+00 7.0307389810e-05 1.4317613779e+00 -2.4798834508e+00 1.4317613779e+00 2.4798834508e+00 
117500 4.4282607845e+00 7.0466301048e-05 1.4317613779e+00 -2.4798834508e+00 1.4317613779e+00 2.4798834508e+00 
117600 4.4282607839e+00 7.0625417976e-05 1.4317613779e+00 -2.4798834508e+00 1.4317613779e+00 2.4798834508e+00 
117700 4.4282607833e+00 7.0784646935e-05 1.4317613779e+00 -2.4798834508e+00 1.4317613779e+00 2.4798834508e+00 
117800 4.4282607825e+00 7.0284210790e-05 1.4317589059e+00 -2.4798791693e+00 1.4317589059e+00 2.4798791693e+00 
117900 4.4282607819e+00 7.0439737464e-05 1.4317589059e+00 -2.4798791693e+00 1.4317589059e+00 2.4798791693e+00 
118000 4.4282607813e+00 7.0595477563e-05 1.4317589059e+00 -2.4798791693e+00 1.4317589059e+00 2.4798791693e+00 
118100 4.4282607808e+00 7.0751338154e-05 1.4317589059e+00 -2.4798791693e+00 1.4317589059e+00 2.4798791693e+00 
118200 4.4282607799e+00 7.0247887239e-05 1.4317564352e+00 -2.4798748898e+00 1.4317564352e+00 2.4798748898e+00 
118300 4.4282607794e+00 7.0400066182e-05 1.4317564352e+00 -2.4798748898e+00 1.4317564352e+00 2.4798748898e+00 
118400 4.4282607788e+00 7.0552468603e-05 1.4317564352e+00 -2.4798748898e+00 1.4317564352e+00 2.4798748898e+00 
118500 4.4282607783e+00 7.0705002057e-05 1.4317564352e+00 -2.4798748898e+00 1.4317564352e+00 2.4798748898e+00 
118600 4.4282607777e+00 7.0857584001e-05 1.4317564352e+00 -2.4798748898e+00 1.4317564352e+00 2.4798748898e+00 
118700 4.4282607769e+00 7.0349843686e-05 1.4317539607e+00 -2.4798706038e+00 1.4317539607e+00 2.4798706038e+00 
118800 4.4282607764e+00 7.0498621268e-05 1.4317539607e+00 -2.4798706038e+00 1.4317539607e+00 2.4798706038e+00 
118900 4.4282607759e+00 7.0647575591e-05 1.4317539607e+00 -2.4798706038e+00 1.4317539607e+00 2.4798706038e+00 
119000 4.4282607754e+00 7.0796620690e-05 1.4317539607e+00 -2.4798706038e+00 1.4317539607e+00 2.4798706038e+00 
119100 4.4282607746e+00 7.0285983319e-05 1.4317514883e+00 -2.4798663215e+00 1.4317514883e+00 2.4798663215e+00 
119200 4.4282607741e+00 7.0431303163e-05 1.4317514883e+00 -2.4798663215e+00 1.4317514883e+00 2.4798663215e+00 
119300 4.4282607736e+00 7.0576833655e-05 1.4317514883e+00 -2.4798663215e+00 1.4317514883e+00 2.4798663215e+00 
119400 4.4282607731e+00 7.0722486757e-05 1.4317514883e+00 -2.4798663215e+00 1.4317514883e+00 2.4798663215e+00 
119500 4.4282607723e+00 7.0209209880e-05 1.4317490185e+00 -2.4798620437e+00 1.4317490185e+00 2.4798620437e+00 
119600 4.4282607718e+00 7.0351200036e-05 1.4317490185e+00 -2.4798620437e+00 1.4317490185e+00 2.4798620437e+00 
119700 4.4282607713e+00 7.0493427402e-05 1.4317490185e+00 -2.4798620437e+00 1.4317490185e+00 2.4798620437e+00 
119800 4.4282607709e+00 7.0635802694e-05 1.4317490185e+00 -2.4798620437e+00 1.4317490185e+00 2.4798620437e+00 
119900 4.4282607704e+00 7.0778246197e-05 1.4317490185e+00 -2.4798620437e+00 1.4317490185e+00 2.4798620437e+00 
120000 4.4282607697e+00 7.0261232409e-05 1.4317465468e+00 -2.4798577626e+00 1.4317465468e+00 2.4798577626e+00 
120100 4.4282607692e+00 7.0399922759e-05 1.4317465468e+00 -2.4798577626e+00 1.4317465468e+00 2.4798577626e+00 
120200 4.4282607687e+00 7.0538816010e-05 1.4317465468e+00 -2.4798577626e+00 1.4317465468e+00 2.4798577626e+00 
120300 4.4282607683e+00 7.0677828072e-05 1.4317465468e+00 -2.4798577626e+00 1.4317465468e+00 2.4798577626e+00 
120400 4.4282607678e+00 7.0816883858e-05 1.4317465468e+00 -2.4798577626e+00 1.4317465468e+00 2.4798577626e+00 
120500 4.4282607671e+00 7.0296140197e-05 1.4317440737e+00 -2.4798534790e+00 1.4317440737e+00 2.4798534790e+00 
120600 4.4282607667e+00 7.0431403876e-05 1.4317440737e+00 -2.4798534790e+00 1.4317440737e+00 2.4798534790e+00 
120700 4.4282607662e+00 7.0566857212e-05 1.4317440737e+00 -2.4798534790e+00 1.4317440737e+00 2.4798534790e+00 
120800 4.4282607658e+00 7.0702419028e-05 1.4317440737e+00 -2.4798534790e+00 1.4317440737e+00 2.4798534790e+00 
120900 4.4282607654e+00 7.0838016835e-05 1.4317440737e+00 -2.4798534790e+00 1.4317440737e+00 2.4798534790e+00 
121000 4.4282607647e+00 7.0313650081e-05 1.4317415998e+00 -2.4798491942e+00 1.4317415998e+00 2.4798491942e+00 
121100 4.4282607643e+00 7.0445446045e-05 1.4317415998e+00 -2.4798491942e+00 1.4317415998e+00 2.4798491942e+00 
121200 4.4282607639e+00 7.0577430272e-05 1.4317415998e+00 -2.4798491942e+00 1.4317415998e+00 2.4798491942e+00 
121300 4.4282607635e+00 7.0709523240e-05 1.4317415998e+00 -2.4798491942e+00 1.4317415998e+00 2.4798491942e+00 
121400 4.4282607630e+00 7.0841653944e-05 1.4317415998e+00 -2.4798491942e+00 1.4317415998e+00 2.4798491942e+00 
121500 4.4282607624e+00 7.0313825461e-05 1.4317391259e+00 -2.4798449092e+00 1.4317391259e+00 2.4798449092e+00 
121600 4.4282607620e+00 7.0442161569e-05 1.4317391259e+00 -2.4798449092e+00 1.4317391259e+00 2.4798449092e+00 
121700 4.4282607616e+00 7.0570691273e-05 1.4317391259e+00 -2.4798449092e+00 1.4317391259e+00 2.4798449092e+00 
121800 4.4282607612e+00 7.0699336010e-05 1.4317391259e+00 -2.4798449092e+00 1.4317391259e+00 2.4798449092e+00 
121900 4.4282607608e+00 7.0828025638e-05 1.4317391259e+00 -2.4798449092e+00 1.4317391259e+00 2.4798449092e+00 
122000 4.4282607602e+00 7.0296926173e-05 1.4317366524e+00 -2.4798406250e+00 1.4317366524e+00 2.4798406250e+00 
122100 4.4282607598e+00 7.0421838570e-05 1.4317366524e+00 -2.4798406250e+00 1.4317366524e+00 2.4798406250e+00 
122200 4.4282607594e+00 7.0546953738e-05 1.4317366524e+00 -2.4798406250e+00 1.4317366524e+00 2.4798406250e+00 
122300 4.4282607591e+00 7.0672193689e-05 1.4317366524e+00 -2.4798406250e+00 1.4317366524e+00 2.4798406250e+00 
122400 4.4282607587e+00 7.0797488796e-05 1.4317366524e+00 -2.4798406250e+00 1.4317366524e+00 2.4798406250e+00 
122500 4.4282607581e+00 7.0263324240e-05 1.4317341799e+00 -2.4798363426e+00 1.4317341799e+00 2.4798363426e+00 
122600 4.4282607577e+00 7.0384865680e-05 1.4317341799e+00 -2.4798363426e+00 1.4317341799e+00 2.4798363426e+00 
122700 4.4282607574e+00 7.0506621262e-05 1.4317341799e+00 -2.4798363426e+00 1.4317341799e+00 2.4798363426e+00 
122800 4.4282607570e+00 7.0628513352e-05 1.4317341799e+00 -2.4798363426e+00 1.4317341799e+00 2.4798363426e+00 
122900 4.4282607567e+00 7.0750472649e-05 1.4317341799e+00 -2.4798363426e+00 1.4317341799e+00 2.4798363426e+00 
123000 4.4282607561e+00 7.0213455864e-05 1.4317317091e+00 -2.4798320630e+00 1.4317317091e+00 2.4798320630e+00 
123100 4.4282607557e+00 7.0331688972e-05 1.4317317091e+00 -2.4798320630e+00 1.4317317091e+00 2.4798320630e+00 
123200 4.4282607554e+00 7.0450148823e-05 1.4317317091e+00 -2.4798320630e+00 1.4317317091e+00 2.4798320630e+00 
123300 4.4282607550e+00 7.0568758021e-05 1.4317317091e+00 -2.4798320630e+00 1.4317317091e+00 2.4798320630e+00 
123400 4.4282607547e+00 7.0687447474e-05 1.4317317091e+00 -2.4798320630e+00 1.4317317091e+00 2.4798320630e+00 
123500 4.4282607544e+00 7.0806155475e-05 1.4317317091e+00 -2.4798320630e+00 1.4317317091e+00 2.4798320630e+00 
123600 4.4282607538e+00 7.0265366105e-05 1.4317292364e+00 -2.4798277801e+00 1.4317292364e+00 2.4798277801e+00 
123700 4.4282607535e+00 7.0380267341e-05 1.4317292364e+00 -2.4798277801e+00 1.4317292364e+00 2.4798277801e+00 
123800 4.4282607532e+00 7.0495365030e-05 1.4317292364e+00 -2.4798277801e+00 1.4317292364e+00 2.4798277801e+00 
123900 4.4282607528e+00 7.0610586521e-05 1.4317292364e+00 -2.4798277801e+00 1.4317292364e+00 2.4798277801e+00 
124000 4.4282607525e+00 7.0725866951e-05 1.4317292364e+00 -2.4798277801e+00 1.4317292364e+00 2.4798277801e+00 
124100 4.4282607520e+00 7.0182466725e-05 1.4317267665e+00 -2.4798235021e+00 1.4317267665e+00 2.4798235021e+00 
124200 4.4282607517e+00 7.0294017364e-05 1.4317267665e+00 -2.4798235021e+00 1.4317267665e+00 2.4798235021e+00 
124300 4.4282607514e+00 7.0405796983e-05 1.4317267665e+00 -2.4798235021e+00 1.4317267665e+00 2.4798235021e+00 
124400 4.4282607511e+00 7.0517731017e-05 1.4317267665e+00 -2.4798235021e+00 1.4317267665e+00 2.4798235021e+00 
124500 4.4282607508e+00 7.0629752903e-05 1.4317267665e+00 -2.4798235021e+00 1.4317267665e+00 2.4798235021e+00 
124600 4.4282607505e+00 7.0741803198e-05 1.4317267665e+00 -2.4798235021e+00 1.4317267665e+00 2.4798235021e+00 
124700 4.4282607499e+00 7.0195035652e-05 1.4317242959e+00 -2.4798192230e+00 1.4317242959e+00 2.4798192230e+00 
124800 4.4282607497e+00 7.0303308292e-05 1.4317242959e+00 -2.4798192230e+00 1.4317242959e+00 2.4798192230e+00 
124900 4.4282607494e+00 7.0411792365e-05 1.4317242959e+00 -2.4798192230e+00 1.4317242959e+00 2.4798192230e+00 
125000 4.4282607491e+00 7.0520416701e-05 1.4317242959e+00 -2.4798192230e+00 1.4317242959e+00 2.4798192230e+00 
125100 4.4282607488e+00 7.0629117764e-05 1.4317242959e+00 -2.4798192230e+00 1.4317242959e+00 2.4798192230e+00 
125200 4.4282607485e+00 7.0737838809e-05 1.4317242959e+00 -2.4798192230e+00 1.4317242959e+00 2.4798192230e+00 
125300 4.4282607480e+00 7.0187808665e-05 1.4317218256e+00 -2.4798149442e+00 1.4317218256e+00 2.4798149442e+00 
125400 4.4282607477e+00 7.0292742464e-05 1.4317218256e+00 -2.4798149442e+00 1.4317218256e+00 2.4798149442e+00 
125500 4.4282607475e+00 7.0397885704e-05 1.4317218256e+00 -2.4798149442e+00 1.4317218256e+00 2.4798149442e+00 
125600 4.4282607472e+00 7.0503168929e-05 1.4317218256e+00 -2.4798149442e+00 1.4317218256e+00 2.4798149442e+00 
125700 4.4282607469e+00 7.0608530137e-05 1.4317218256e+00 -2.4798149442e+00 1.4317218256e+00 2.4798149442e+00 
125800 4.4282607467e+00 7.0713913952e-05 1.4317218256e+00 -2.4798149442e+00 1.4317218256e+00 2.4798149442e+00 
125900 4.4282607462e+00 7.0160807816e-05 1.4317193560e+00 -2.4798106668e+00 1.4317193560e+00 2.4798106668e+00 
126000 4.4282607459e+00 7.0262414528e-05 1.4317193560e+00 -2.4798106668e+00 1.4317193560e+00 2.4798106668e+00 
126100 4.4282607457e+00 7.0364236485e-05 1.4317193560e+00 -2.4798106668e+00 1.4317193560e+00 2.4798106668e+00 
126200 4.4282607454e+00 7.0466205123e-05 1.4317193560e+00 -2.4798106668e+00 1.4317193560e+00 2.4798106668e+00 
126300 4.4282607452e+00 7.0568259242e-05 1.4317193560e+00 -2.4798106668e+00 1.4317193560e+00 2.4798106668e+00 
126400 4.4282607449e+00 7.0670344182e-05 1.4317193560e+00 -2.4798106668e+00 1.4317193560e+00 2.4798106668e+00 
126500 4.4282607447e+00 7.0772411103e-05 1.4317193560e+00 -2.4798106668e+00 1.4317193560e+00 2.4798106668e+00 
126600 4.4282607442e+00 7.0215447907e-05 1.4317168844e+00 -2.4798063859e+00 1.4317168844e+00 2.4798063859e+00 
126700 4.4282607440e+00 7.0313670362e-05 1.4317168844e+00 -2.4798063859e+00 1.4317168844e+00 2.4798063859e+00 
126800 4.4282607437e+00 7.0412083315e-05 1.4317168844e+00 -2.4798063859e+00 1.4317168844e+00 2.4798063859e+00 
126900 4.4282607435e+00 7.0510622299e-05 1.4317168844e+00 -2.4798063859e+00 1.4317168844e+00 2.4798063859e+00 
127000 4.4282607433e+00 7.0609229767e-05 1.4317168844e+00 -2.4798063859e+00 1.4317168844e+00 2.4798063859e+00 
127100 4.4282607430e+00 7.0707854324e-05 1.4317168844e+00 -2.4798063859e+00 1.4317168844e+00 2.4798063859e+00 
127200 4.4282607428e+00 7.0806450044e-05 1.4317168844e+00 -2.4798063859e+00 1.4317168844e+00 2.4798063859e+00 
127300 4.4282607423e+00 7.0245728384e-05 1.4317144117e+00 -2.4798021029e+00 1.4317144117e+00 2.4798021029e+00 
127400 4.4282607421e+00 7.0340463875e-05 1.4317144117e+00 -2.4798021029e+00 1.4317144117e+00 2.4798021029e+00 
127500 4.4282607419e+00 7.0435386205e-05 1.4317144117e+00 -2.4798021029e+00 1.4317144117e+00 2.4798021029e+00 
127600 4.4282607417e+00 7.0530432759e-05 1.4317144117e+00 -2.4798021029e+00 1.4317144117e+00 2.4798021029e+00 
127700 4.4282607415e+00 7.0625547652e-05 1.4317144117e+00 -2.4798021029e+00 1.4317144117e+00 2.4798021029e+00 
127800 4.4282607413e+00 7.0720680977e-05 1.4317144117e+00 -2.4798021029e+00 1.4317144117e+00 2.4798021029e+00 
127900 4.4282607408e+00 7.0157370221e-05 1.4317119419e+00 -2.4797978251e+00 1.4317119419e+00 2.4797978251e+00 
128000 4.4282607406e+00 7.0248732209e-05 1.4317119419e+00 -2.4797978251e+00 1.4317119419e+00 2.4797978251e+00 
128100 4.4282607404e+00 7.0340318448e-05 1.4317119419e+00 -2.4797978251e+00 1.4317119419e+00 2.4797978251e+00 
128200 4.4282607402e+00 7.0432063896e-05 1.4317119419e+00 -2.4797978251e+00 1.4317119419e+00 2.4797978251e+00 
128300 4.4282607400e+00 7.0523910513e-05 1.4317119419e+00 -2.4797978251e+00 1.4317119419e+00 2.4797978251e+00 
128400 4.4282607398e+00 7.0615806473e-05 1.4317119419e+00 -2.4797978251e+00 1.4317119419e+00 2.4797978251e+00 
128500 4.4282607396e+00 7.0707705486e-05 1.4317119419e+00 -2.4797978251e+00 1.4317119419e+00 2.4797978251e+00 
128600 4.4282607394e+00 7.0799566179e-05 1.4317119419e+00 -2.4797978251e+00 1.4317119419e+00 2.4797978251e+00 
128700 4.4282607390e+00 7.0232239749e-05 1.4317094693e+00 -2.4797935426e+00 1.4317094693e+00 2.4797935426e+00 
128800 4.4282607388e+00 7.0320233550e-05 1.4317094693e+00 -2.4797935426e+00 1.4317094693e+00 2.4797935426e+00 
128900 4.4282607386e+00 7.0408415565e-05 1.4317094693e+00 -2.4797935426e+00 1.4317094693e+00 2.4797935426e+00 
129000 4.4282607384e+00 7.0496726083e-05 1.4317094693e+00 -2.4797935426e+00 1.4317094693e+00 2.4797935426e+00 
129100 4.4282607382e+00 7.0585111809e-05 1.4317094693e+00 -2.4797935426e+00 1.4317094693e+00 2.4797935426e+00 
129200 4.4282607380e+00 7.0673525158e-05 1.4317094693e+00 -2.4797935426e+00 1.4317094693e+00 2.4797935426e+00 
129300 4.4282607378e+00 7.0761923616e-05 1.4317094693e+00 -2.4797935426e+00 1.4317094693e+00 2.4797935426e+00 
129400 4.4282607374e+00 7.0191541590e-05 1.4317069981e+00 -2.4797892622e+00 1.4317069981e+00 2.4797892622e+00 
129500 4.4282607372e+00 7.0276119180e-05 1.4317069981e+00 -2.4797892622e+00 1.4317069981e+00 2.4797892622e+00 
129600 4.4282607371e+00 7.0360905563e-05 1.4317069981e+00 -2.4797892622e+00 1.4317069981e+00 2.4797892622e+00 
129700 4.4282607369e+00 7.0445840359e-05 1.4317069981e+00 -2.4797892622e+00 1.4317069981e+00 2.4797892622e+00 
129800 4.4282607367e+00 7.0530869691e-05 1.4317069981e+00 -2.4797892622e+00 1.4317069981e+00 2.4797892622e+00 
129900 4.4282607365e+00 7.0615945457e-05 1.4317069981e+00 -2.4797892622e+00 1.4317069981e+00 2.4797892622e+00 
130000 4.4282607364e+00 7.0701024691e-05 1.4317069981e+00 -2.4797892622e+00 1.4317069981e+00 2.4797892622e+00 
130100 4.4282607362e+00 7.0786068996e-05 1.4317069981e+00 -2.4797892622e+00 1.4317069981e+00 2.4797892622e+00 
130200 4.4282607358e+00 7.0212129050e-05 1.4317045260e+00 -2.4797849805e+00 1.4317045260e+00 2.4797849805e+00 
130300 4.4282607356e+00 7.0293321856e-05 1.4317045260e+00 -2.4797849805e+00 1.4317045260e+00 2.4797849805e+00 
130400 4.4282607355e+00 7.0374713356e-05 1.4317045260e+00 -2.4797849805e+00 1.4317045260e+00 2.4797849805e+00 
130500 4.4282607353e+00 7.0456245761e-05 1.4317045260e+00 -2.4797849805e+00 1.4317045260e+00 2.4797849805e+00 
130600 4.4282607351e+00 7.0537867504e-05 1.4317045260e+00 -2.4797849805e+00 1.4317045260e+00 2.4797849805e+00 
130700 4.4282607350e+00 7.0619532547e-05 1.4317045260e+00 -2.4797849805e+00 1.4317045260e+00 2.4797849805e+00 
130800 4.4282607348e+00 7.0701199769e-05 1.4317045260e+00 -2.4797849805e+00 1.4317045260e+00 2.4797849805e+00 
130900 4.4282607347e+00 7.0782832422e-05 1.4317045260e+00 -2.4797849805e+00 1.4317045260e+00 2.4797849805e+00 
131000 4.4282607343e+00 7.0205548563e-05 1.4317020540e+00 -2.4797806989e+00 1.4317020540e+00 2.4797806989e+00 
131100 4.4282607341e+00 7.0283334970e-05 1.4317020540e+00 -2.4797806989e+00 1.4317020540e+00 2.4797806989e+00 
131200 4.4282607340e+00 7.0361324373e-05 1.4317020540e+00 -2.4797806989e+00 1.4317020540e+00 2.4797806989e+00 
131300 4.4282607338e+00 7.0439460044e-05 1.4317020540e+00 -2.4797806989e+00 1.4317020540e+00 2.4797806989e+00 
131400 4.4282607337e+00 7.0517691369e-05 1.4317020540e+00 -2.4797806989e+00 1.4317020540e+00 2.4797806989e+00 
131500 4.4282607335e+00 7.0595973162e-05 1.4317020540e+00 -2.4797806989e+00 1.4317020540e+00 2.4797806989e+00 
131600 4.4282607334e+00 7.0674265068e-05 1.4317020540e+00 -2.4797806989e+00 1.4317020540e+00 2.4797806989e+00 
131700 4.4282607333e+00 7.0752531027e-05 1.4317020540e+00 -2.4797806989e+00 1.4317020540e+00 2.4797806989e+00 
131800 4.4282607329e+00 7.0172206003e-05 1.4316995831e+00 -2.4797764191e+00 1.4316995831e+00 2.4797764191e+00 
131900 4.4282607327e+00 7.0246646422e-05 1.4316995831e+00 -2.4797764191e+00 1.4316995831e+00 2.4797764191e+00 
132000 4.4282607326e+00 7.0321299972e-05 1.4316995831e+00 -2.4797764191e+00 1.4316995831e+00 2.4797764191e+00 
132100 4.4282607325e+00 7.0396110391e-05 1.4316995831e+00 -2.4797764191e+00 1.4316995831e+00 2.4797764191e+00 
132200 4.4282607323e+00 7.0471027481e-05 1.4316995831e+00 -2.4797764191e+00 1.4316995831e+00 2.4797764191e+00 
132300 4.4282607322e+00 7.0546006432e-05 1.4316995831e+00 -2.4797764191e+00 1.4316995831e+00 2.4797764191e+00 
132400 4.4282607321e+00 7.0621007226e-05 1.4316995831e+00 -2.4797764191e+00 1.4316995831e+00 2.4797764191e+00 
132500 4.4282607319e+00 7.0695994106e-05 1.4316995831e+00 -2.4797764191e+00 1.4316995831e+00 2.4797764191e+00 
132600 4.4282607318e+00 7.0770935105e-05 1.4316995831e+00 -2.4797764191e+00 1.4316995831e+00 2.4797764191e+00 
132700 4.4282607314e+00 7.0187134599e-05 1.4316971115e+00 -2.4797721382e+00 1.4316971115e+00 2.4797721382e+00 
132800 4.4282607313e+00 7.0258219880e-05 1.4316971115e+00 -2.4797721382e+00 1.4316971115e+00 2.4797721382e+00 
132900 4.4282607312e+00 7.0329508221e-05 1.4316971115e+00 -2.4797721382e+00 1.4316971115e+00 2.4797721382e+00 
133000 4.4282607310e+00 7.0400945937e-05 1.4316971115e+00 -2.4797721382e+00 1.4316971115e+00 2.4797721382e+00 
133100 4.4282607309e+00 7.0472485130e-05 1.4316971115e+00 -2.4797721382e+00 1.4316971115e+00 2.4797721382e+00 
133200 4.4282607308e+00 7.0544083044e-05 1.4316971115e+00 -2.4797721382e+00 1.4316971115e+00 2.4797721382e+00 
133300 4.4282607307e+00 7.0615701495e-05 1.4316971115e+00 -2.4797721382e+00 1.4316971115e+00 2.4797721382e+00 
133400 4.4282607306e+00 7.0687306368e-05 1.4316971115e+00 -2.4797721382e+00 1.4316971115e+00 2.4797721382e+00 
133500 4.4282607304e+00 7.0758867161e-05 1.4316971115e+00 -2.4797721382e+00 1.4316971115e+00 2.4797721382e+00 
133600 4.4282607301e+00 7.0171837160e-05 1.4316946404e+00 -2.4797678581e+00 1.4316946404e+00 2.4797678581e+00 
133700 4.4282607300e+00 7.0239550361e-05 1.4316946404e+00 -2.4797678581e+00 1.4316946404e+00 2.4797678581e+00 
133800 4.4282607299e+00 7.0307471890e-05 1.4316946404e+00 -2.4797678581e+00 1.4316946404e+00 2.4797678581e+00 
133900 4.4282607297e+00 7.0375549011e-05 1.4316946404e+00 -2.4797678581e+00 1.4316946404e+00 2.4797678581e+00 
134000 4.4282607296e+00 7.0443734678e-05 1.4316946404e+00 -2.4797678581e+00 1.4316946404e+00 2.4797678581e+00 
134100 4.4282607295e+00 7.0511986899e-05 1.4316946404e+00 -2.4797678581e+00 1.4316946404e+00 2.4797678581e+00 
134200 4.4282607294e+00 7.0580268176e-05 1.4316946404e+00 -2.4797678581e+00 1.4316946404e+00 2.4797678581e+00 
134300 4.4282607293e+00 7.0648545010e-05 1.4316946404e+00 -2.4797678581e+00 1.4316946404e+00 2.4797678581e+00 
134400 4.4282607292e+00 7.0716787452e-05 1.4316946404e+00 -2.4797678581e+00 1.4316946404e+00 2.4797678581e+00 
134500 4.4282607288e+00 7.0126874479e-05 1.4316921707e+00 -2.4797635804e+00 1.4316921707e+00 2.4797635804e+00 
134600 4.4282607287e+00 7.0191292428e-05 1.4316921707e+00 -2.4797635804e+00 1.4316921707e+00 2.4797635804e+00 
134700 4.4282607286e+00 7.0255929529e-05 1.4316921707e+00 -2.4797635804e+00 1.4316921707e+00 2.4797635804e+00 
134800 4.4282607285e+00 7.0320733426e-05 1.4316921707e+00 -2.4797635804e+00 1.4316921707e+00 2.4797635804e+00 
134900 4.4282607284e+00 7.0385657418e-05 1.4316921707e+00 -2.4797635804e+00 1.4316921707e+00 2.4797635804e+00 
135000 4.4282607283e+00 7.0450659821e-05 1.4316921707e+00 -2.4797635804e+00 1.4316921707e+00 2.4797635804e+00 
135100 4.4282607282e+00 7.0515703416e-05 1.4316921707e+00 -2.4797635804e+00 1.4316921707e+00 2.4797635804e+00 
135200 4.4282607281e+00 7.0580754950e-05 1.4316921707e+00 -2.4797635804e+00 1.4316921707e+00 2.4797635804e+00 
135300 4.4282607280e+00 7.0645784701e-05 1.4316921707e+00 -2.4797635804e+00 1.4316921707e+00 2.4797635804e+00 
135400 4.4282607279e+00 7.0710766088e-05 1.4316921707e+00 -2.4797635804e+00 1.4316921707e+00 2.4797635804e+00 
135500 4.4282607276e+00 7.0117672780e-05 1.4316897012e+00 -2.4797593032e+00 1.4316897012e+00 2.4797593032e+00 
135600 4.4282607275e+00 7.0178810803e-05 1.4316897012e+00 -2.4797593032e+00 1.4316897012e+00 2.4797593032e+00 
135700 4.4282607274e+00 7.0240162006e-05 1.4316897012e+00 -2.4797593032e+00 1.4316897012e+00 2.4797593032e+00 
135800 4.4282607273e+00 7.0301676165e-05 1.4316897012e+00 -2.4797593032e+00 1.4316897012e+00 2.4797593032e+00 
135900 4.4282607272e+00 7.0363308475e-05 1.4316897012e+00 -2.4797593032e+00 1.4316897012e+00 2.4797593032e+00 
136000 4.4282607271e+00 7.0425018948e-05 1.4316897012e+00 -2.4797593032e+00 1.4316897012e+00 2.4797593032e+00 
136100 4.4282607270e+00 7.0486771881e-05 1.4316897012e+00 -2.4797593032e+00 1.4316897012e+00 2.4797593032e+00 
136200 4.4282607269e+00 7.0548535373e-05 1.4316897012e+00 -2.4797593032e+00 1.4316897012e+00 2.4797593032e+00 
136300 4.4282607268e+00 7.0610280912e-05 1.4316897012e+00 -2.4797593032e+00 1.4316897012e+00 2.4797593032e+00 
136400 4.4282607268e+00 7.0671982998e-05 1.4316897012e+00 -2.4797593032e+00 1.4316897012e+00 2.4797593032e+00 
136500 4.4282607267e+00 7.0733618815e-05 1.4316897012e+00 -2.4797593032e+00 1.4316897012e+00 2.4797593032e+00 
136600 4.4282607263e+00 7.0136990009e-05 1.4316872309e+00 -2.4797550245e+00 1.4316872309e+00 2.4797550245e+00 
136700 4.4282607263e+00 7.0194755276e-05 1.4316872309e+00 -2.4797550245e+00 1.4316872309e+00 2.4797550245e+00 
136800 4.4282607262e+00 7.0252724936e-05 1.4316872309e+00 -2.4797550245e+00 1.4316872309e+00 2.4797550245e+00 
136900 4.4282607261e+00 7.0310851144e-05 1.4316872309e+00 -2.4797550245e+00 1.4316872309e+00 2.4797550245e+00 
137000 4.4282607260e+00 7.0369091224e-05 1.4316872309e+00 -2.4797550245e+00 1.4316872309e+00 2.4797550245e+00 
137100 4.4282607259e+00 7.0427407094e-05 1.4316872309e+00 -2.4797550245e+00 1.4316872309e+00 2.4797550245e+00 
137200 4.4282607258e+00 7.0485764750e-05 1.4316872309e+00 -2.4797550245e+00 1.4316872309e+00 2.4797550245e+00 
137300 4.4282607258e+00 7.0544133821e-05 1.4316872309e+00 -2.4797550245e+00 1.4316872309e+00 2.4797550245e+00 
137400 4.4282607257e+00 7.0602487161e-05 1.4316872309e+00 -2.4797550245e+00 1.4316872309e+00 2.4797550245e+00 
137500 4.4282607256e+00 7.0660800496e-05 1.4316872309e+00 -2.4797550245e+00 1.4316872309e+00 2.4797550245e+00 
137600 4.4282607255e+00 7.0719052111e-05 1.4316872309e+00 -2.4797550245e+00 1.4316872309e+00 2.4797550245e+00 
137700 4.4282607252e+00 7.0119215288e-05 1.4316847612e+00 -2.4797507467e+00 1.4316847612e+00 2.4797507467e+00 
137800 4.4282607251e+00 7.0173609171e-05 1.4316847612e+00 -2.4797507467e+00 1.4316847612e+00 2.4797507467e+00 
137900 4.4282607251e+00 7.0228214584e-05 1.4316847612e+00 -2.4797507467e+00 1.4316847612e+00 2.4797507467e+00 
138000 4.4282607250e+00 7.0282984410e-05 1.4316847612e+00 -2.4797507467e+00 1.4316847612e+00 2.4797507467e+00 
138100 4.4282607249e+00 7.0337876626e-05 1.4316847612e+00 -2.4797507467e+00 1.4316847612e+00 2.4797507467e+00 
138200 4.4282607248e+00 7.0392853738e-05 1.4316847612e+00 -2.4797507467e+00 1.4316847612e+00 2.4797507467e+00 
138300 4.4282607248e+00 7.0447882275e-05 1.4316847612e+00 -2.4797507467e+00 1.4316847612e+00 2.4797507467e+00 
138400 4.4282607247e+00 7.0502932341e-05 1.4316847612e+00 -2.4797507467e+00 1.4316847612e+00 2.4797507467e+00 
138500 4.4282607246e+00 7.0557977224e-05 1.4316847612e+00 -2.4797507467e+00 1.4316847612e+00 2.4797507467e+00 
138600 4.4282607246e+00 7.0612993039e-05 1.4316847612e+00 -2.4797507467e+00 1.4316847612e+00 2.4797507467e+00 
138700 4.4282607245e+00 7.0667958421e-05 1.4316847612e+00 -2.4797507467e+00 1.4316847612e+00 2.4797507467e+00 
138800 4.4282607244e+00 7.0722854249e-05 1.4316847612e+00 -2.4797507467e+00 1.4316847612e+00 2.4797507467e+00 
138900 4.4282607241e+00 7.0119656911e-05 1.4316822912e+00 -2.4797464687e+00 1.4316822912e+00 2.4797464687e+00 
139000 4.4282607240e+00 7.0170685939e-05 1.4316822912e+00 -2.4797464687e+00 1.4316822912e+00 2.4797464687e+00 
139100 4.4282607240e+00 7.0221924894e-05 1.4316822912e+00 -2.4797464687e+00 1.4316822912e+00 2.4797464687e+00 
139200 4.4282607239e+00 7.0273328310e-05 1.4316822912e+00 -2.4797464687e+00 1.4316822912e+00 2.4797464687e+00 
139300 4.4282607238e+00 7.0324855642e-05 1.4316822912e+00 -2.4797464687e+00 1.4316822912e+00 2.4797464687e+00 
139400 4.4282607238e+00 7.0376470718e-05 1.4316822912e+00 -2.4797464687e+00 1.4316822912e+00 2.4797464687e+00 
139500 4.4282607237e+00 7.0428141251e-05 1.4316822912e+00 -2.4797464687e+00 1.4316822912e+00 2.4797464687e+00 
139600 4.4282607236e+00 7.0479838406e-05 1.4316822912e+00 -2.4797464687e+00 1.4316822912e+00 2.4797464687e+00 
139700 4.4282607236e+00 7.0531536422e-05 1.4316822912e+00 -2.4797464687e+00 1.4316822912e+00 2.4797464687e+00 
139800 4.4282607235e+00 7.0583212267e-05 1.4316822912e+00 -2.4797464687e+00 1.4316822912e+00 2.4797464687e+00 
139900 4.4282607235e+00 7.0634845343e-05 1.4316822912e+00 -2.4797464687e+00 1.4316822912e+00 2.4797464687e+00 
140000 4.4282607234e+00 7.0686417216e-05 1.4316822912e+00 -2.4797464687e+00 1.4316822912e+00 2.4797464687e+00 
140100 4.4282607233e+00 7.0737911380e-05 1.4316822912e+00 -2.4797464687e+00 1.4316822912e+00 2.4797464687e+00 
140200 4.4282607230e+00 7.0131203259e-05 1.4316798208e+00 -2.4797421898e+00 1.4316798208e+00 2.4797421898e+00 
140300 4.4282607230e+00 7.0178820394e-05 1.4316798208e+00 -2.4797421898e+00 1.4316798208e+00 2.4797421898e+00 
140400 4.4282607229e+00 7.0226645646e-05 1.4316798208e+00 -2.4797421898e+00 1.4316798208e+00 2.4797421898e+00 
140500 4.4282607229e+00 7.0274635214e-05 1.4316798208e+00 -2.4797421898e+00 1.4316798208e+00 2.4797421898e+00 
140600 4.4282607228e+00 7.0322750044e-05 1.4316798208e+00 -2.4797421898e+00 1.4316798208e+00 2.4797421898e+00 
140700 4.4282607227e+00 7.0370955300e-05 1.4316798208e+00 -2.4797421898e+00 1.4316798208e+00 2.4797421898e+00 
140800 4.4282607227e+00 7.0419219892e-05 1.4316798208e+00 -2.4797421898e+00 1.4316798208e+00 2.4797421898e+00 
140900 4.4282607226e+00 7.0467516062e-05 1.4316798208e+00 -2.4797421898e+00 1.4316798208e+00 2.4797421898e+00 
141000 4.4282607226e+00 7.0515819010e-05 1.4316798208e+00 -2.4797421898e+00 1.4316798208e+00 2.4797421898e+00 
141100 4.4282607225e+00 7.0564106573e-05 1.4316798208e+00 -2.4797421898e+00 1.4316798208e+00 2.4797421898e+00 
141200 4.4282607225e+00 7.0612358929e-05 1.4316798208e+00 -2.4797421898e+00 1.4316798208e+00 2.4797421898e+00 
141300 4.4282607224e+00 7.0660558344e-05 1.4316798208e+00 -2.4797421898e+00 1.4316798208e+00 2.4797421898e+00 
141400 4.4282607224e+00 7.0708688944e-05 1.4316798208e+00 -2.4797421898e+00 1.4316798208e+00 2.4797421898e+00 
141500 4.4282607223e+00 7.0756736507e-05 1.4316798208e+00 -2.4797421898e+00 1.4316798208e+00 2.4797421898e+00 
141600 4.4282607220e+00 7.0146440354e-05 1.4316773497e+00 -2.4797379097e+00 1.4316773497e+00 2.4797379097e+00 
141700 4.4282607220e+00 7.0190605274e-05 1.4316773497e+00 -2.4797379097e+00 1.4316773497e+00 2.4797379097e+00 
141800 4.4282607219e+00 7.0234978562e-05 1.4316773497e+00 -2.4797379097e+00 1.4316773497e+00 2.4797379097e+00 
141900 4.4282607219e+00 7.0279517875e-05 1.4316773497e+00 -2.4797379097e+00 1.4316773497e+00 2.4797379097e+00 
142000 4.4282607218e+00 7.0324185467e-05 1.4316773497e+00 -2.4797379097e+00 1.4316773497e+00 2.4797379097e+00 
142100 4.4282607218e+00 7.0368947673e-05 1.4316773497e+00 -2.4797379097e+00 1.4316773497e+00 2.4797379097e+00 
142200 4.4282607217e+00 7.0413774458e-05 1.4316773497e+00 -2.4797379097e+00 1.4316773497e+00 2.4797379097e+00 
142300 4.4282607217e+00 7.0458639006e-05 1.4316773497e+00 -2.4797379097e+00 1.4316773497e+00 2.4797379097e+00 
142400 4.4282607217e+00 7.0468511845e-05 1.4316773497e+00 -2.4797379097e+00 1.4316773497e+00 2.4797379097e+00 
142400 4.4282607217e+00 7.0468511845e-05 1.4316773497e+00 -2.4797379097e+00 1.4316773497e+00 2.4797379097e+00 
