# step Hamiltonian StressXX CellTensor1 CellTensor2 CellTensor3 CellTensor4 
0 5.9730056135e+00 1.7701003943e-01 2.8237630504e+00 -4.8909010719e+00 2.8237630504e+00 4.8909010719e+00 
100 5.9887382022e+00 2.0870358322e-01 2.8237630504e+00 -4.8909010719e+00 2.8237630504e+00 4.8909010719e+00 
200 6.0039160949e+00 2.3829821128e-01 2.8200683707e+00 -4.8845016989e+00 2.8200683707e+00 4.8845016989e+00 
300 6.0189687297e+00 2.6575848775e-01 2.8158443841e+00 -4.8771855395e+00 2.8158443841e+00 4.8771855395e+00 
400 6.0339132795e+00 2.9136094625e-01 2.8111267205e+00 -4.8690143064e+00 2.8111267205e+00 4.8690143064e+00 
500 6.0487426342e+00 3.1535670500e-01 2.8059460351e+00 -4.8600410961e+00 2.8059460351e+00 4.8600410961e+00 
600 6.0634264877e+00 3.3796916094e-01 2.8003284782e+00 -4.8503112021e+00 2.8003284782e+00 4.8503112021e+00 
700 6.0779132480e+00 3.5939237436e-01 2.7942961945e+00 -4.8398629802e+00 2.7942961945e+00 4.8398629802e+00 
800 6.0921323798e+00 3.7978987008e-01 2.7878678458e+00 -4.8287287537e+00 2.7878678458e+00 4.8287287537e+00 
900 6.1059968557e+00 3.9929349219e-01 2.7810591508e+00 -4.8169357480e+00 2.7810591508e+00 4.8169357480e+00 
1000 6.1194054830e+00 4.1800193656e-01 2.7738834447e+00 -4.8045070604e+00 2.7738834447e+00 4.8045070604e+00 
1100 6.1322449959e+00 4.3597866154e-01 2.7663522669e+00 -4.7914626779e+00 2.7663522669e+00 4.7914626779e+00 
1200 6.1443919552e+00 4.5324907489e-01 2.7584759907e+00 -4.7778205674e+00 2.7584759907e+00 4.7778205674e+00 
1300 6.1557146858e+00 4.6979726581e-01 2.7502645106e+00 -4.7635978666e+00 2.7502645106e+00 4.7635978666e+00 
1400 6.1660757039e+00 4.8556314340e-01 2.7417279980e+00 -4.7488121931e+00 2.7417279980e+00 4.7488121931e+00 
1500 6.1753353151e+00 5.0044165030e-01 2.7328777233e+00 -4.7334830675e+00 2.7328777233e+00 4.7334830675e+00 
1600 6.1833572057e+00 5.1428658075e-01 2.7237269063e+00 -4.7176333877e+00 2.7237269063e+00 4.7176333877e+00 
1700 6.1900167499e+00 5.2692201070e-01 2.7142915175e+00 -4.7012908149e+00 2.7142915175e+00 4.7012908149e+00 
1800 6.1952122058e+00 5.3816369575e-01 2.7045908861e+00 -4.6844888283e+00 2.7045908861e+00 4.6844888283e+00 
1900 6.1988778375e+00 5.4785022006e-01 2.6946479307e+00 -4.6672671244e+00 2.6946479307e+00 4.6672671244e+00 
2000 6.2009964544e+00 5.5587911845e-01 2.6844888214e+00 -4.6496710310e+00 2.6844888214e+00 4.6496710310e+00 
2100 6.2016075942e+00 5.6223826904e-01 2.6741419648e+00 -4.6317497497e+00 2.6741419648e+00 4.6317497497e+00 
2200 6.2008076404e+00 5.6702091886e-01 2.6636363812e+00 -4.6135535451e+00 2.6636363812e+00 4.6135535451e+00 
2300 6.1987402273e+00 5.7041673144e-01 2.6529997609e+00 -4.5951303784e+00 2.6529997609e+00 4.5951303784e+00 
2400 6.1955787237e+00 5.7268051575e-01 2.6422566403e+00 -4.5765227477e+00 2.6422566403e+00 4.5765227477e+00 
2500 6.1915055403e+00 5.7408956094e-01 2.6314271200e+00 -4.5577654683e+00 2.6314271200e+00 4.5577654683e+00 
2600 6.1866937069e+00 5.7490386454e-01 2.6205263570e+00 -4.5388847928e+00 2.6205263570e+00 4.5388847928e+00 
2700 6.1812944182e+00 5.7533958592e-01 2.6095647977e+00 -4.5198988153e+00 2.6095647977e+00 4.5198988153e+00 
2800 6.1754314457e+00 5.7555854331e-01 2.5985489226e+00 -4.5008187600e+00 2.5985489226e+00 4.5008187600e+00 
2900 6.1692010989e+00 5.7567044856e-01 2.5874822083e+00 -4.4816506485e+00 2.5874822083e+00 4.4816506485e+00 
3000 6.1626755231e+00 5.7574217498e-01 2.5763660705e+00 -4.4623969329e+00 2.5763660705e+00 4.4623969329e+00 
3100 6.1559073240e+00 5.7580902885e-01 2.5652006501e+00 -4.4430578576e+00 2.5652006501e+00 4.4430578576e+00 
3200 6.1489341858e+00 5.7588493779e-01 2.5539854008e+00 -4.4236324759e+00 2.5539854008e+00 4.4236324759e+00 
3300 6.1417828276e+00 5.7597029324e-01 2.5427194913e+00 -4.4041193484e+00 2.5427194913e+00 4.4041193484e+00 
3400 6.1344721120e+00 5.7605735016e-01 2.5314020653e+00 -4.3845169915e+00 2.5314020653e+00 4.3845169915e+00 
3500 6.1270153663e+00 5.7613362235e-01 2.5200324006e+00 -4.3648241545e+00 2.5200324006e+00 4.3648241545e+00 
3600 6.1194220720e+00 5.7618384214e-01 2.5086100063e+00 -4.3450399872e+00 2.5086100063e+00 4.3450399872e+00 
3700 6.1116990900e+00 5.7619099031e-01 2.4971346832e+00 -4.3251641447e+00 2.4971346832e+00 4.3251641447e+00 
3800 6.1038515613e+00 5.7613677749e-01 2.4856065655e+00 -4.3051968590e+00 2.4856065655e+00 4.3051968590e+00 
3900 6.0958835901e+00 5.7600183838e-01 2.4740261535e+00 -4.2851389971e+00 2.4740261535e+00 4.2851389971e+00 
4000 6.0877987841e+00 5.7576580541e-01 2.4623943444e+00 -4.2649921128e+00 2.4623943444e+00 4.2649921128e+00 
4100 6.0796007018e+00 5.7540736205e-01 2.4507124621e+00 -4.2447584991e+00 2.4507124621e+00 4.2447584991e+00 
4200 6.0712932377e+00 5.7490433235e-01 2.4389822863e+00 -4.2244412387e+00 2.4389822863e+00 4.2244412387e+00 
4300 6.0628809626e+00 5.7423383452e-01 2.4272060820e+00 -4.2040442545e+00 2.4272060820e+00 4.2040442545e+00 
4400 6.0543694283e+00 5.7337250913e-01 2.4153866257e+00 -4.1835723557e+00 2.4153866257e+00 4.1835723557e+00 
4500 6.0457654366e+00 5.7229682009e-01 2.4035272283e+00 -4.1630312767e+00 2.4035272283e+00 4.1630312767e+00 
4600 6.0370772720e+00 5.7098341884e-01 2.3916317522e+00 -4.1424277078e+00 2.3916317522e+00 4.1424277078e+00 
4700 6.0283148910e+00 5.6940955656e-01 2.3797046222e+00 -4.1217693127e+00 2.3797046222e+00 4.1217693127e+00 
4800 6.0194900634e+00 5.6755352462e-01 2.3677508271e+00 -4.1010647321e+00 2.3677508271e+00 4.1010647321e+00 
4900 6.0106164576e+00 5.6539510146e-01 2.3557759124e+00 -4.0803235715e+00 2.3557759124e+00 4.0803235715e+00 
5000 6.0017096650e+00 5.6291598263e-01 2.3437859640e+00 -4.0595563718e+00 2.3437859640e+00 4.0595563718e+00 
5100 5.9927871604e+00 5.6010017161e-01 2.3317875815e+00 -4.0387745636e+00 2.3317875815e+00 4.0387745636e+00 
5200 5.9838681958e+00 5.5693431154e-01 2.3197878419e+00 -4.0179904050e+00 2.3197878419e+00 4.0179904050e+00 
5300 5.9749736318e+00 5.5340794155e-01 2.3077942560e+00 -3.9972169048e+00 2.3077942560e+00 3.9972169048e+00 
5400 5.9661257088e+00 5.4951366721e-01 2.2958147167e+00 -3.9764677340e+00 2.2958147167e+00 3.9764677340e+00 
5500 5.9573477688e+00 5.4524724029e-01 2.2838574420e+00 -3.9557571267e+00 2.2838574420e+00 3.9557571267e+00 
5600 5.9486639354e+00 5.4060754911e-01 2.2719309144e+00 -3.9350997750e+00 2.2719309144e+00 3.9350997750e+00 
5700 5.9400987664e+00 5.3559652650e-01 2.2600438182e+00 -3.9145107204e+00 2.2600438182e+00 3.9145107204e+00 
5800 5.9316768908e+00 5.3021898683e-01 2.2482049759e+00 -3.8940052441e+00 2.2482049759e+00 3.8940052441e+00 
5900 5.9234226428e+00 5.2448240657e-01 2.2364232869e+00 -3.8735987602e+00 2.2364232869e+00 3.8735987602e+00 
6000 5.9153597063e+00 5.1839666429e-01 2.2247076678e+00 -3.8533067127e+00 2.2247076678e+00 3.8533067127e+00 
6100 5.9075107791e+00 5.1197375614e-01 2.2130669967e+00 -3.8331444789e+00 2.2130669967e+00 3.8331444789e+00 
6200 5.8998972671e+00 5.0522750120e-01 2.2015100618e+00 -3.8131272805e+00 2.2015100618e+00 3.8131272805e+00 
6300 5.8925390132e+00 4.9817324916e-01 2.1900455147e+00 -3.7932701024e+00 2.1900455147e+00 3.7932701024e+00 
6400 5.8854540678e+00 4.9082759999e-01 2.1786818284e+00 -3.7735876203e+00 2.1786818284e+00 3.7735876203e+00 
6500 5.8786585009e+00 4.8320814239e-01 2.1674272605e+00 -3.7540941368e+00 2.1674272605e+00 3.7540941368e+00 
6600 5.8721662577e+00 4.7533321525e-01 2.1562898206e+00 -3.7348035252e+00 2.1562898206e+00 3.7348035252e+00 
6700 5.8659890570e+00 4.6722169400e-01 2.1452772429e+00 -3.7157291810e+00 2.1452772429e+00 3.7157291810e+00 
6800 5.8601363293e+00 4.5889280223e-01 2.1343969614e+00 -3.6968839807e+00 2.1343969614e+00 3.6968839807e+00 
6900 5.8546151936e+00 4.5036594719e-01 2.1236560904e+00 -3.6782802464e+00 2.1236560904e+00 3.6782802464e+00 
7000 5.8494304670e+00 4.4166057760e-01 2.1130614069e+00 -3.6599297163e+00 2.1130614069e+00 3.6599297163e+00 
7100 5.8445847068e+00 4.3279606127e-01 2.1026193367e+00 -3.6418435202e+00 2.1026193367e+00 3.6418435202e+00 
7200 5.8400782779e+00 4.2379158023e-01 2.0923359429e+00 -3.6240321597e+00 2.0923359429e+00 3.6240321597e+00 
7300 5.8359094447e+00 4.1466604095e-01 2.0822169167e+00 -3.6065054920e+00 2.0822169167e+00 3.6065054920e+00 
7400 5.8320744823e+00 4.0543799762e-01 2.0722675700e+00 -3.5892727181e+00 2.0722675700e+00 3.5892727181e+00 
7500 5.8285678042e+00 3.9612558661e-01 2.0624928309e+00 -3.5723423733e+00 2.0624928309e+00 3.5723423733e+00 
7600 5.8253821026e+00 3.8674647047e-01 2.0528972399e+00 -3.5557223222e+00 2.0528972399e+00 3.5557223222e+00 
7700 5.8225084992e+00 3.7731779032e-01 2.0434849483e+00 -3.5394197550e+00 2.0434849483e+00 3.5394197550e+00 
7800 5.8199367033e+00 3.6785612545e-01 2.0342597179e+00 -3.5234411872e+00 2.0342597179e+00 3.5234411872e+00 
7900 5.8176551745e+00 3.5837745944e-01 2.0252249224e+00 -3.5077924623e+00 2.0252249224e+00 3.5077924623e+00 
8000 5.8156512872e+00 3.4889715201e-01 2.0163835497e+00 -3.4924787556e+00 2.0163835497e+00 3.4924787556e+00 
8100 5.8139114962e+00 3.3942991612e-01 2.0077382059e+00 -3.4775045809e+00 2.0077382059e+00 3.4775045809e+00 
8200 5.8124214998e+00 3.2998979996e-01 1.9992911203e+00 -3.4628737995e+00 1.9992911203e+00 3.4628737995e+00 
8300 5.8111663995e+00 3.2059017331e-01 1.9910441513e+00 -3.4485896302e+00 1.9910441513e+00 3.4485896302e+00 
8400 5.8101308550e+00 3.1124371808e-01 1.9829987937e+00 -3.4346546620e+00 1.9829987937e+00 3.4346546620e+00 
8500 5.8092992324e+00 3.0196242274e-01 1.9751561866e+00 -3.4210708680e+00 1.9751561866e+00 3.4210708680e+00 
8600 5.8086557455e+00 2.9275758032e-01 1.9675171224e+00 -3.4078396208e+00 1.9675171224e+00 3.4078396208e+00 
8700 5.8081845879e+00 2.8363978981e-01 1.9600820568e+00 -3.3949617093e+00 1.9600820568e+00 3.3949617093e+00 
8800 5.8078700565e+00 2.7461896060e-01 1.9528511187e+00 -3.3824373572e+00 1.9528511187e+00 3.3824373572e+00 
8900 5.8076966648e+00 2.6570431989e-01 1.9458241219e+00 -3.3702662417e+00 1.9458241219e+00 3.3702662417e+00 
9000 5.8076492468e+00 2.5690442268e-01 1.9390005764e+00 -3.3584475142e+00 1.9390005764e+00 3.3584475142e+00 
9100 5.8077130492e+00 2.4822716415e-01 1.9323797007e+00 -3.3469798212e+00 1.9323797007e+00 3.3469798212e+00 
9200 5.8078738141e+00 2.3967979422e-01 1.9259604345e+00 -3.3358613259e+00 1.9259604345e+00 3.3358613259e+00 
9300 5.8081178507e+00 2.3126893399e-01 1.9197414511e+00 -3.3250897308e+00 1.9197414511e+00 3.3250897308e+00 
9400 5.8084320966e+00 2.2300059389e-01 1.9137211713e+00 -3.3146623002e+00 1.9137211713e+00 3.3146623002e+00 
9500 5.8088041687e+00 2.1488019327e-01 1.9078977761e+00 -3.3045758839e+00 1.9078977761e+00 3.3045758839e+00 
9600 5.8092224049e+00 2.0691258113e-01 1.9022692205e+00 -3.2948269396e+00 1.9022692205e+00 3.2948269396e+00 
9700 5.8096758955e+00 1.9910205793e-01 1.8968332469e+00 -3.2854115572e+00 1.8968332469e+00 3.2854115572e+00 
9800 5.8101545061e+00 1.9145239812e-01 1.8915873987e+00 -3.2763254814e+00 1.8915873987e+00 3.2763254814e+00 
9900 5.8106488921e+00 1.8396687326e-01 1.8865290333e+00 -3.2675641357e+00 1.8865290333e+00 3.2675641357e+00 
10000 5.8111505054e+00 1.7664827549e-01 1.8816553362e+00 -3.2591226446e+00 1.8816553362e+00 3.2591226446e+00 
10100 5.8116515931e+00 1.6949894124e-01 1.8769633332e+00 -3.2509958571e+00 1.8769633332e+00 3.2509958571e+00 
10200 5.8121451908e+00 1.6252077493e-01 1.8724499041e+00 -3.2431783685e+00 1.8724499041e+00 3.2431783685e+00 
10300 5.8126251088e+00 1.5571527257e-01 1.8681117947e+00 -3.2356645427e+00 1.8681117947e+00 3.2356645427e+00 
10400 5.8130859137e+00 1.4908354510e-01 1.8639456296e+00 -3.2284485330e+00 1.8639456296e+00 3.2284485330e+00 
10500 5.8135229049e+00 1.4262634135e-01 1.8599479240e+00 -3.2215243037e+00 1.8599479240e+00 3.2215243037e+00 
10600 5.8139320869e+00 1.3634407048e-01 1.8561150952e+00 -3.2148856496e+00 1.8561150952e+00 3.2148856496e+00 
10700 5.8143101390e+00 1.3023682388e-01 1.8524434744e+00 -3.2085262158e+00 1.8524434744e+00 3.2085262158e+00 
10800 5.8146543809e+00 1.2430439636e-01 1.8489293171e+00 -3.2024395168e+00 1.8489293171e+00 3.2024395168e+00 
10900 5.8149627367e+00 1.1854630665e-01 1.8455688138e+00 -3.1966189544e+00 1.8455688138e+00 3.1966189544e+00 
11000 5.8152336972e+00 1.1296181707e-01 1.8423581000e+00 -3.1910578350e+00 1.8423581000e+00 3.1910578350e+00 
11100 5.8154662801e+00 1.0754995243e-01 1.8392932660e+00 -3.1857493867e+00 1.8392932660e+00 3.1857493867e+00 
11200 5.8156599907e+00 1.0230951799e-01 1.8363703657e+00 -3.1806867750e+00 1.8363703657e+00 3.1806867750e+00 
11300 5.8158147806e+00 9.7239116672e-02 1.8335854261e+00 -3.1758631180e+00 1.8335854261e+00 3.1758631180e+00 
11400 5.8159310076e+00 9.2337165252e-02 1.8309344548e+00 -3.1712715011e+00 1.8309344548e+00 3.1712715011e+00 
11500 5.8160093953e+00 8.7601909761e-02 1.8284134486e+00 -3.1669049903e+00 1.8284134486e+00 3.1669049903e+00 
11600 5.8160509933e+00 8.3031439978e-02 1.8260184008e+00 -3.1627566457e+00 1.8260184008e+00 3.1627566457e+00 
11700 5.8160571389e+00 7.8623703053e-02 1.8237453079e+00 -3.1588195333e+00 1.8237453079e+00 3.1588195333e+00 
11800 5.8160294187e+00 7.4376516303e-02 1.8215901770e+00 -3.1550867371e+00 1.8215901770e+00 3.1550867371e+00 
11900 5.8159696332e+00 7.0287579176e-02 1.8195490316e+00 -3.1515513696e+00 1.8195490316e+00 3.1515513696e+00 
12000 5.8158797614e+00 6.6354484434e-02 1.8176179176e+00 -3.1482065821e+00 1.8176179176e+00 3.1482065821e+00 
12100 5.8157619278e+00 6.2574728567e-02 1.8157929090e+00 -3.1450455744e+00 1.8157929090e+00 3.1450455744e+00 
12200 5.8156183713e+00 5.8945721496e-02 1.8140701128e+00 -3.1420616039e+00 1.8140701128e+00 3.1420616039e+00 
12300 5.8154514153e+00 5.5464795577e-02 1.8124456741e+00 -3.1392479935e+00 1.8124456741e+00 3.1392479935e+00 
12400 5.8152634406e+00 5.2129213965e-02 1.8109157804e+00 -3.1365981398e+00 1.8109157804e+00 3.1365981398e+00 
12500 5.8150568593e+00 4.8936178355e-02 1.8094766659e+00 -3.1341055204e+00 1.8094766659e+00 3.1341055204e+00 
12600 5.8148340916e+00 4.5882836162e-02 1.8081246153e+00 -3.1317637001e+00 1.8081246153e+00 3.1317637001e+00 
12700 5.8145975438e+00 4.2966287160e-02 1.8068559675e+00 -3.1295663377e+00 1.8068559675e+00 3.1295663377e+00 
12800 5.8143495891e+00 4.0183589626e-02 1.8056671187e+00 -3.1275071911e+00 1.8056671187e+00 3.1275071911e+00 
12900 5.8140925495e+00 3.7531766029e-02 1.8045545255e+00 -3.1255801231e+00 1.8045545255e+00 3.1255801231e+00 
13000 5.8138286803e+00 3.5007808287e-02 1.8035147076e+00 -3.1237791058e+00 1.8035147076e+00 3.1237791058e+00 
13100 5.8135601559e+00 3.2608682651e-02 1.8025442507e+00 -3.1220982251e+00 1.8025442507e+00 3.1220982251e+00 
13200 5.8132890579e+00 3.0331334219e-02 1.8016398082e+00 -3.1205316847e+00 1.8016398082e+00 3.1205316847e+00 
13300 5.8130173650e+00 2.8172691139e-02 1.8007981036e+00 -3.1190738095e+00 1.8007981036e+00 3.1190738095e+00 
13400 5.8127469435e+00 2.6129668516e-02 1.8000159323e+00 -3.1177190492e+00 1.8000159323e+00 3.1177190492e+00 
13500 5.8124795410e+00 2.4199172053e-02 1.7992901634e+00 -3.1164619805e+00 1.7992901634e+00 3.1164619805e+00 
13600 5.8122167803e+00 2.2378101465e-02 1.7986177409e+00 -3.1152973106e+00 1.7986177409e+00 3.1152973106e+00 
13700 5.8119601551e+00 2.0663353668e-02 1.7979956851e+00 -3.1142198784e+00 1.7979956851e+00 3.1142198784e+00 
13800 5.8117110276e+00 1.9051825789e-02 1.7974210938e+00 -3.1132246571e+00 1.7974210938e+00 3.1132246571e+00 
13900 5.8114706264e+00 1.7540418008e-02 1.7968911432e+00 -3.1123067557e+00 1.7968911432e+00 3.1123067557e+00 
14000 5.8112400460e+00 1.6126036251e-02 1.7964030885e+00 -3.1114614201e+00 1.7964030885e+00 3.1114614201e+00 
14100 5.8110202475e+00 1.4805594757e-02 1.7959542648e+00 -3.1106840347e+00 1.7959542648e+00 3.1106840347e+00 
14200 5.8108120602e+00 1.3576018527e-02 1.7955420876e+00 -3.1099701228e+00 1.7955420876e+00 3.1099701228e+00 
14300 5.8106161835e+00 1.2434245682e-02 1.7951640530e+00 -3.1093153476e+00 1.7951640530e+00 3.1093153476e+00 
14400 5.8104331906e+00 1.1377229734e-02 1.7948177379e+00 -3.1087155124e+00 1.7948177379e+00 3.1087155124e+00 
14500 5.8102635320e+00 1.0401941781e-02 1.7945008006e+00 -3.1081665609e+00 1.7945008006e+00 3.1081665609e+00 
14600 5.8101075402e+00 9.5053726498e-03 1.7942109801e+00 -3.1076645771e+00 1.7942109801e+00 3.1076645771e+00 
14700 5.8099654346e+00 8.6845349724e-03 1.7939460966e+00 -3.1072057853e+00 1.7939460966e+00 3.1072057853e+00 
14800 5.8098373272e+00 7.9364652291e-03 1.7937040509e+00 -3.1067865498e+00 1.7937040509e+00 3.1067865498e+00 
14900 5.8097232281e+00 7.2582257455e-03 1.7934828242e+00 -3.1064033741e+00 1.7934828242e+00 3.1064033741e+00 
15000 5.8096230523e+00 6.6469066597e-03 1.7932804780e+00 -3.1060529001e+00 1.7932804780e+00 3.1060529001e+00 
15100 5.8095366257e+00 6.0996278587e-03 1.7930951531e+00 -3.1057319079e+00 1.7930951531e+00 3.1057319079e+00 
15200 5.8094636920e+00 5.6135408894e-03 1.7929250692e+00 -3.1054373140e+00 1.7929250692e+00 3.1054373140e+00 
15300 5.8094039197e+00 5.1858308459e-03 1.7927685245e+00 -3.1051661706e+00 1.7927685245e+00 3.1051661706e+00 
15400 5.8093569085e+00 4.8137182340e-03 1.7926238945e+00 -3.1049156641e+00 1.7926238945e+00 3.1049156641e+00 
15500 5.8093221970e+00 4.4944608138e-03 1.7924896316e+00 -3.1046831140e+00 1.7924896316e+00 3.1046831140e+00 
15600 5.8092992687e+00 4.2253554194e-03 1.7923642638e+00 -3.1044659706e+00 1.7923642638e+00 3.1044659706e+00 
15700 5.8092875599e+00 4.0037397552e-03 1.7922463941e+00 -3.1042618143e+00 1.7922463941e+00 3.1042618143e+00 
15800 5.8092864656e+00 3.8269941660e-03 1.7921346991e+00 -3.1040683529e+00 1.7921346991e+00 3.1040683529e+00 
15900 5.8092953464e+00 3.6925433801e-03 1.7920279283e+00 -3.1038834203e+00 1.7920279283e+00 3.1038834203e+00 
16000 5.8093135353e+00 3.5978582197e-03 1.7919249023e+00 -3.1037049741e+00 1.7919249023e+00 3.1037049741e+00 
16100 5.8093403435e+00 3.5404572776e-03 1.7918245124e+00 -3.1035310937e+00 1.7918245124e+00 3.1035310937e+00 
16200 5.8093750666e+00 3.5179085548e-03 1.7917257185e+00 -3.1033599777e+00 1.7917257185e+00 3.1033599777e+00 
16300 5.8094169902e+00 3.5278310546e-03 1.7916275485e+00 -3.1031899422e+00 1.7916275485e+00 3.1031899422e+00 
16400 5.8094653954e+00 3.5678963291e-03 1.7915290961e+00 -3.1030194177e+00 1.7915290961e+00 3.1030194177e+00 
16500 5.8095195644e+00 3.6358299725e-03 1.7914295202e+00 -3.1028469471e+00 1.7914295202e+00 3.1028469471e+00 
16600 5.8095787846e+00 3.7294130564e-03 1.7913280427e+00 -3.1026711830e+00 1.7913280427e+00 3.1026711830e+00 
16700 5.8096423535e+00 3.8464835016e-03 1.7912239474e+00 -3.1024908846e+00 1.7912239474e+00 3.1024908846e+00 
16800 5.8097095832e+00 3.9849373812e-03 1.7911165782e+00 -3.1023049157e+00 1.7911165782e+00 3.1023049157e+00 
16900 5.8097798035e+00 4.1427301495e-03 1.7910053376e+00 -3.1021122414e+00 1.7910053376e+00 3.1021122414e+00 
17000 5.8098523659e+00 4.3178777912e-03 1.7908896851e+00 -3.1019119254e+00 1.7908896851e+00 3.1019119254e+00 
17100 5.8099266468e+00 4.5084578866e-03 1.7907691353e+00 -3.1017031269e+00 1.7907691353e+00 3.1017031269e+00 
17200 5.8100020498e+00 4.7126105863e-03 1.7906432563e+00 -3.1014850981e+00 1.7906432563e+00 3.1014850981e+00 
17300 5.8100780084e+00 4.9285394924e-03 1.7905116680e+00 -3.1012571805e+00 1.7905116680e+00 3.1012571805e+00 
17400 5.8101539882e+00 5.1545124402e-03 1.7903740404e+00 -3.1010188025e+00 1.7903740404e+00 3.1010188025e+00 
17500 5.8102294885e+00 5.3888621770e-03 1.7902300916e+00 -3.1007694759e+00 1.7902300916e+00 3.1007694759e+00 
17600 5.8103040435e+00 5.6299869351e-03 1.7900795862e+00 -3.1005087929e+00 1.7900795862e+00 3.1005087929e+00 
17700 5.8103772236e+00 5.8763508933e-03 1.7899223333e+00 -3.1002364228e+00 1.7899223333e+00 3.1002364228e+00 
17800 5.8104486363e+00 6.1264845271e-03 1.7897581848e+00 -3.0999521093e+00 1.7897581848e+00 3.0999521093e+00 
17900 5.8105179261e+00 6.3789848427e-03 1.7895870335e+00 -3.0996556667e+00 1.7895870335e+00 3.0996556667e+00 
18000 5.8105847754e+00 6.6325154947e-03 1.7894088114e+00 -3.0993469769e+00 1.7894088114e+00 3.0993469769e+00 
18100 5.8106489039e+00 6.8858067853e-03 1.7892234876e+00 -3.0990259867e+00 1.7892234876e+00 3.0990259867e+00 
18200 5.8107100682e+00 7.1376555451e-03 1.7890310666e+00 -3.0986927037e+00 1.7890310666e+00 3.0986927037e+00 
18300 5.8107680618e+00 7.3869248946e-03 1.7888315865e+00 -3.0983471940e+00 1.7888315865e+00 3.0983471940e+00 
18400 5.8108227135e+00 7.6325438870e-03 1.7886251170e+00 -3.0979895784e+00 1.7886251170e+00 3.0979895784e+00 
18500 5.8108738869e+00 7.8735070346e-03 1.7884117578e+00 -3.0976200294e+00 1.7884117578e+00 3.0976200294e+00 
18600 5.8109214793e+00 8.1088737185e-03 1.7881916367e+00 -3.0972387684e+00 1.7881916367e+00 3.0972387684e+00 
18700 5.8109654199e+00 8.3377674851e-03 1.7879649076e+00 -3.0968460620e+00 1.7879649076e+00 3.0968460620e+00 
18800 5.8110056685e+00 8.5593752322e-03 1.7877317490e+00 -3.0964422196e+00 1.7877317490e+00 3.0964422196e+00 
18900 5.8110422139e+00 8.7729462869e-03 1.7874923623e+00 -3.0960275897e+00 1.7874923623e+00 3.0960275897e+00 
19000 5.8110750724e+00 8.9777913802e-03 1.7872469698e+00 -3.0956025573e+00 1.7872469698e+00 3.0956025573e+00 
19100 5.8111042854e+00 9.1732815220e-03 1.7869958131e+00 -3.0951675411e+00 1.7869958131e+00 3.0951675411e+00 
19200 5.8111299180e+00 9.3588467814e-03 1.7867391515e+00 -3.0947229903e+00 1.7867391515e+00 3.0947229903e+00 
19300 5.8111520570e+00 9.5339749766e-03 1.7864772605e+00 -3.0942693818e+00 1.7864772605e+00 3.0942693818e+00 
19400 5.8111708084e+00 9.6982102813e-03 1.7862104299e+00 -3.0938072176e+00 1.7862104299e+00 3.0938072176e+00 
19500 5.8111862962e+00 9.8511517513e-03 1.7859389623e+00 -3.0933370219e+00 1.7859389623e+00 3.0933370219e+00 
19600 5.8111986598e+00 9.9924517793e-03 1.7856631719e+00 -3.0928593389e+00 1.7856631719e+00 3.0928593389e+00 
19700 5.8112080521e+00 1.0121814483e-02 1.7853833825e+00 -3.0923747295e+00 1.7853833825e+00 3.0923747295e+00 
19800 5.8112146378e+00 1.0238994031e-02 1.7850999267e+00 -3.0918837696e+00 1.7850999267e+00 3.0918837696e+00 
19900 5.8112185912e+00 1.0343792922e-02 1.7848131439e+00 -3.0913870472e+00 1.7848131439e+00 3.0913870472e+00 
20000 5.8112200942e+00 1.0436060202e-02 1.7845233793e+00 -3.0908851602e+00 1.7845233793e+00 3.0908851602e+00 
20100 5.8112193349e+00 1.0515689663e-02 1.7842309826e+00 -3.0903787142e+00 1.7842309826e+00 3.0903787142e+00 
20200 5.8112165055e+00 1.0582617983e-02 1.7839363066e+00 -3.0898683205e+00 1.7839363066e+00 3.0898683205e+00 
20300 5.8112118007e+00 1.0636822861e-02 1.7836397062e+00 -3.0893545935e+00 1.7836397062e+00 3.0893545935e+00 
20400 5.8112054161e+00 1.0678321115e-02 1.7833415370e+00 -3.0888381494e+00 1.7833415370e+00 3.0888381494e+00 
20500 5.8111975469e+00 1.0707166775e-02 1.7830421546e+00 -3.0883196038e+00 1.7830421546e+00 3.0883196038e+00 
20600 5.8111883860e+00 1.0723449160e-02 1.7827419131e+00 -3.0877995702e+00 1.7827419131e+00 3.0877995702e+00 
20700 5.8111781233e+00 1.0727290961e-02 1.7824411643e+00 -3.0872786581e+00 1.7824411643e+00 3.0872786581e+00 
20800 5.8111669442e+00 1.0718846321e-02 1.7821402571e+00 -3.0867574715e+00 1.7821402571e+00 3.0867574715e+00 
20900 5.8111550285e+00 1.0698298926e-02 1.7818395360e+00 -3.0862366072e+00 1.7818395360e+00 3.0862366072e+00 
21000 5.8111425495e+00 1.0665860109e-02 1.7815393406e+00 -3.0857166536e+00 1.7815393406e+00 3.0857166536e+00 
21100 5.8111296732e+00 1.0621766978e-02 1.7812400051e+00 -3.0851981892e+00 1.7812400051e+00 3.0851981892e+00 
21200 5.8111165572e+00 1.0566280559e-02 1.7809418568e+00 -3.0846817814e+00 1.7809418568e+00 3.0846817814e+00 
21300 5.8111033507e+00 1.0499683974e-02 1.7806452164e+00 -3.0841679851e+00 1.7806452164e+00 3.0841679851e+00 
21400 5.8110901934e+00 1.0422280651e-02 1.7803503965e+00 -3.0836573420e+00 1.7803503965e+00 3.0836573420e+00 
21500 5.8110772152e+00 1.0334392567e-02 1.7800577014e+00 -3.0831503793e+00 1.7800577014e+00 3.0831503793e+00 
21600 5.8110645360e+00 1.0236358530e-02 1.7797674268e+00 -3.0826476089e+00 1.7797674268e+00 3.0826476089e+00 
21700 5.8110522655e+00 1.0128532506e-02 1.7794798588e+00 -3.0821495265e+00 1.7794798588e+00 3.0821495265e+00 
21800 5.8110405026e+00 1.0011281990e-02 1.7791952739e+00 -3.0816566110e+00 1.7791952739e+00 3.0816566110e+00 
21900 5.8110293361e+00 9.8849864248e-03 1.7789139383e+00 -3.0811693235e+00 1.7789139383e+00 3.0811693235e+00 
22000 5.8110188441e+00 9.7500356667e-03 1.7786361079e+00 -3.0806881070e+00 1.7786361079e+00 3.0806881070e+00 
22100 5.8110090943e+00 9.6068285064e-03 1.7783620275e+00 -3.0802133859e+00 1.7783620275e+00 3.0802133859e+00 
22200 5.8110001443e+00 9.4557712394e-03 1.7780919311e+00 -3.0797455651e+00 1.7780919311e+00 3.0797455651e+00 
22300 5.8109920418e+00 9.2972762925e-03 1.7778260411e+00 -3.0792850302e+00 1.7778260411e+00 3.0792850302e+00 
22400 5.8109848246e+00 9.1317609038e-03 1.7775645687e+00 -3.0788321468e+00 1.7775645687e+00 3.0788321468e+00 
22500 5.8109785215e+00 8.9596458586e-03 1.7773077133e+00 -3.0783872602e+00 1.7773077133e+00 3.0783872602e+00 
22600 5.8109731521e+00 8.7813542808e-03 1.7770556626e+00 -3.0779506955e+00 1.7770556626e+00 3.0779506955e+00 
22700 5.8109687277e+00 8.5973104810e-03 1.7768085924e+00 -3.0775227573e+00 1.7768085924e+00 3.0775227573e+00 
22800 5.8109652517e+00 8.4079388599e-03 1.7765666666e+00 -3.0771037296e+00 1.7765666666e+00 3.0771037296e+00 
22900 5.8109627198e+00 8.2136628674e-03 1.7763300374e+00 -3.0766938758e+00 1.7763300374e+00 3.0766938758e+00 
23000 5.8109611208e+00 8.0149040175e-03 1.7760988449e+00 -3.0762934386e+00 1.7760988449e+00 3.0762934386e+00 
23100 5.8109604372e+00 7.8120809569e-03 1.7758732174e+00 -3.0759026403e+00 1.7758732174e+00 3.0759026403e+00 
23200 5.8109606455e+00 7.6056085888e-03 1.7756532715e+00 -3.0755216829e+00 1.7756532715e+00 3.0755216829e+00 
23300 5.8109617170e+00 7.3958972487e-03 1.7754391121e+00 -3.0751507480e+00 1.7754391121e+00 3.0751507480e+00 
23400 5.8109636183e+00 7.1833519327e-03 1.7752308326e+00 -3.0747899972e+00 1.7752308326e+00 3.0747899972e+00 
23500 5.8109663116e+00 6.9683715765e-03 1.7750285148e+00 -3.0744395725e+00 1.7750285148e+00 3.0744395725e+00 
23600 5.8109697559e+00 6.7513483847e-03 1.7748322294e+00 -3.0740995963e+00 1.7748322294e+00 3.0740995963e+00 
23700 5.8109739066e+00 6.5326672079e-03 1.7746420360e+00 -3.0737701716e+00 1.7746420360e+00 3.0737701716e+00 
23800 5.8109787171e+00 6.3127049675e-03 1.7744579833e+00 -3.0734513829e+00 1.7744579833e+00 3.0734513829e+00 
23900 5.8109841384e+00 6.0918301264e-03 1.7742801093e+00 -3.0731432961e+00 1.7742801093e+00 3.0731432961e+00 
24000 5.8109901202e+00 5.8704022034e-03 1.7741084416e+00 -3.0728459589e+00 1.7741084416e+00 3.0728459589e+00 
24100 5.8109966111e+00 5.6487713316e-03 1.7739429976e+00 -3.0725594016e+00 1.7739429976e+00 3.0725594016e+00 
24200 5.8110035591e+00 5.4272778575e-03 1.7737837848e+00 -3.0722836370e+00 1.7737837848e+00 3.0722836370e+00 
24300 5.8110109119e+00 5.2062519802e-03 1.7736308011e+00 -3.0720186615e+00 1.7736308011e+00 3.0720186615e+00 
24400 5.8110186177e+00 4.9860134303e-03 1.7734840350e+00 -3.0717644550e+00 1.7734840350e+00 3.0717644550e+00 
24500 5.8110266250e+00 4.7668711841e-03 1.7733434657e+00 -3.0715209818e+00 1.7733434657e+00 3.0715209818e+00 
24600 5.8110348835e+00 4.5491232150e-03 1.7732090639e+00 -3.0712881911e+00 1.7732090639e+00 3.0712881911e+00 
24700 5.8110433439e+00 4.3330562783e-03 1.7730807917e+00 -3.0710660171e+00 1.7730807917e+00 3.0710660171e+00 
24800 5.8110519585e+00 4.1189457292e-03 1.7729586031e+00 -3.0708543802e+00 1.7729586031e+00 3.0708543802e+00 
24900 5.8110606815e+00 3.9070553720e-03 1.7728424441e+00 -3.0706531870e+00 1.7728424441e+00 3.0706531870e+00 
25000 5.8110694690e+00 3.6976373395e-03 1.7727322534e+00 -3.0704623311e+00 1.7727322534e+00 3.0704623311e+00 
25100 5.8110782792e+00 3.4909320008e-03 1.7726279624e+00 -3.0702816938e+00 1.7726279624e+00 3.0702816938e+00 
25200 5.8110870726e+00 3.2871678968e-03 1.7725294956e+00 -3.0701111443e+00 1.7725294956e+00 3.0701111443e+00 
25300 5.8110958124e+00 3.0865617019e-03 1.7724367711e+00 -3.0699505407e+00 1.7724367711e+00 3.0699505407e+00 
25400 5.8111044642e+00 2.8893182100e-03 1.7723497006e+00 -3.0697997303e+00 1.7723497006e+00 3.0697997303e+00 
25500 5.8111129962e+00 2.6956303450e-03 1.7722681903e+00 -3.0696585503e+00 1.7722681903e+00 3.0696585503e+00 
25600 5.8111213794e+00 2.5056791930e-03 1.7721921406e+00 -3.0695268282e+00 1.7721921406e+00 3.0695268282e+00 
25700 5.8111295874e+00 2.3196340563e-03 1.7721214467e+00 -3.0694043828e+00 1.7721214467e+00 3.0694043828e+00 
25800 5.8111375968e+00 2.1376525279e-03 1.7720559991e+00 -3.0692910244e+00 1.7720559991e+00 3.0692910244e+00 
25900 5.8111453865e+00 1.9598805845e-03 1.7719956839e+00 -3.0691865553e+00 1.7719956839e+00 3.0691865553e+00 
26000 5.8111529386e+00 1.7864526983e-03 1.7719403827e+00 -3.0690907708e+00 1.7719403827e+00 3.0690907708e+00 
26100 5.8111602374e+00 1.6174919654e-03 1.7718899734e+00 -3.0690034594e+00 1.7718899734e+00 3.0690034594e+00 
26200 5.8111672700e+00 1.4531102513e-03 1.7718443305e+00 -3.0689244035e+00 1.7718443305e+00 3.0689244035e+00 
26300 5.8111740259e+00 1.2934083507e-03 1.7718033250e+00 -3.0688533800e+00 1.7718033250e+00 3.0688533800e+00 
26400 5.8111804971e+00 1.1384761620e-03 1.7717668254e+00 -3.0687901608e+00 1.7717668254e+00 3.0687901608e+00 
26500 5.8111866777e+00 9.8839287569e-04 1.7717346972e+00 -3.0687345131e+00 1.7717346972e+00 3.0687345131e+00 
26600 5.8111925642e+00 8.4322717452e-04 1.7717068039e+00 -3.0686862005e+00 1.7717068039e+00 3.0686862005e+00 
26700 5.8111981551e+00 7.0303744639e-04 1.7716830070e+00 -3.0686449830e+00 1.7716830070e+00 3.0686449830e+00 
26800 5.8112034507e+00 5.6787200762e-04 1.7716631660e+00 -3.0686106175e+00 1.7716631660e+00 3.0686106175e+00 
26900 5.8112084533e+00 4.3776933657e-04 1.7716471395e+00 -3.0685828588e+00 1.7716471395e+00 3.0685828588e+00 
27000 5.8112131666e+00 3.1275831689e-04 1.7716347847e+00 -3.0685614595e+00 1.7716347847e+00 3.0685614595e+00 
27100 5.8112175961e+00 1.9285848926e-04 1.7716259579e+00 -3.0685461710e+00 1.7716259579e+00 3.0685461710e+00 
27200 5.8112217485e+00 7.8080311327e-05 1.7716205149e+00 -3.0685367435e+00 1.7716205149e+00 3.0685367435e+00 
27300 5.8112256318e+00 -3.1574575194e-05 1.7716183113e+00 -3.0685329267e+00 1.7716183113e+00 3.0685329267e+00 
27400 5.8112292553e+00 -1.3686805405e-04 1.7716183113e+00 -3.0685329267e+00 1.7716183113e+00 3.0685329267e+00 
27500 5.8112326287e+00 -2.3629181947e-04 1.7716221741e+00 -3.0685396173e+00 1.7716221741e+00 3.0685396173e+00 
27600 5.8112357630e+00 -3.3063778578e-04 1.7716288429e+00 -3.0685511680e+00 1.7716288429e+00 3.0685511680e+00 
27700 5.8112386697e+00 -4.1993676479e-04 1.7716381743e+00 -3.0685673306e+00 1.7716381743e+00 3.0685673306e+00 
27800 5.8112413609e+00 -5.0422696271e-04 1.7716500260e+00 -3.0685878582e+00 1.7716500260e+00 3.0685878582e+00 
27900 5.8112438491e+00 -5.8355368291e-04 1.7716642564e+00 -3.0686125061e+00 1.7716642564e+00 3.0686125061e+00 
28000 5.8112461473e+00 -6.5796902563e-04 1.7716807256e+00 -3.0686410314e+00 1.7716807256e+00 3.0686410314e+00 
28100 5.8112482684e+00 -7.2753158548e-04 1.7716992946e+00 -3.0686731941e+00 1.7716992946e+00 3.0686731941e+00 
28200 5.8112502257e+00 -7.9230614711e-04 1.7717198267e+00 -3.0687087566e+00 1.7717198267e+00 3.0687087566e+00 
28300 5.8112520323e+00 -8.5236337974e-04 1.7717421866e+00 -3.0687474850e+00 1.7717421866e+00 3.0687474850e+00 
28400 5.8112537013e+00 -9.0777953093e-04 1.7717662410e+00 -3.0687891486e+00 1.7717662410e+00 3.0687891486e+00 
28500 5.8112552457e+00 -9.5863612026e-04 1.7717918590e+00 -3.0688335202e+00 1.7717918590e+00 3.0688335202e+00 
28600 5.8112566780e+00 -1.0050196333e-03 1.7718189118e+00 -3.0688803770e+00 1.7718189118e+00 3.0688803770e+00 
28700 5.8112580107e+00 -1.0470212162e-03 1.7718472731e+00 -3.0689295003e+00 1.7718472731e+00 3.0689295003e+00 
28800 5.8112592557e+00 -1.0847363724e-03 1.7718768192e+00 -3.0689806756e+00 1.7718768192e+00 3.0689806756e+00 
28900 5.8112604245e+00 -1.1182646597e-03 1.7719074291e+00 -3.0690336936e+00 1.7719074291e+00 3.0690336936e+00 
29000 5.8112615282e+00 -1.1477093909e-03 1.7719389846e+00 -3.0690883493e+00 1.7719389846e+00 3.0690883493e+00 
29100 5.8112625771e+00 -1.1731773364e-03 1.7719713704e+00 -3.0691444431e+00 1.7719713704e+00 3.0691444431e+00 
29200 5.8112635813e+00 -1.1947784298e-03 1.7720044742e+00 -3.0692017806e+00 1.7720044742e+00 3.0692017806e+00 
29300 5.8112645501e+00 -1.2126254776e-03 1.7720381870e+00 -3.0692601728e+00 1.7720381870e+00 3.0692601728e+00 
29400 5.8112654921e+00 -1.2268338717e-03 1.7720724026e+00 -3.0693194361e+00 1.7720724026e+00 3.0693194361e+00 
29500 5.8112664156e+00 -1.2375213076e-03 1.7721070185e+00 -3.0693793926e+00 1.7721070185e+00 3.0693793926e+00 
29600 5.8112673278e+00 -1.2448075054e-03 1.7721419353e+00 -3.0694398702e+00 1.7721419353e+00 3.0694398702e+00 
29700 5.8112682356e+00 -1.2488139376e-03 1.7721770570e+00 -3.0695007027e+00 1.7721770570e+00 3.0695007027e+00 
29800 5.8112691451e+00 -1.2496635605e-03 1.7722122910e+00 -3.0695617298e+00 1.7722122910e+00 3.0695617298e+00 
29900 5.8112700618e+00 -1.2474805526e-03 1.7722475483e+00 -3.0696227972e+00 1.7722475483e+00 3.0696227972e+00 
30000 5.8112709905e+00 -1.2423900577e-03 1.7722827433e+00 -3.0696837567e+00 1.7722827433e+00 3.0696837567e+00 
30100 5.8112719356e+00 -1.2345179350e-03 1.7723177939e+00 -3.0697444663e+00 1.7723177939e+00 3.0697444663e+00 
30200 5.8112729005e+00 -1.2239905151e-03 1.7723526218e+00 -3.0698047900e+00 1.7723526218e+00 3.0698047900e+00 
30300 5.8112738883e+00 -1.2109343629e-03 1.7723871521e+00 -3.0698645980e+00 1.7723871521e+00 3.0698645980e+00 
30400 5.8112749015e+00 -1.1954760473e-03 1.7724213133e+00 -3.0699237670e+00 1.7724213133e+00 3.0699237670e+00 
30500 5.8112759421e+00 -1.1777419180e-03 1.7724550378e+00 -3.0699821795e+00 1.7724550378e+00 3.0699821795e+00 
30600 5.8112770114e+00 -1.1578578895e-03 1.7724882613e+00 -3.0700397244e+00 1.7724882613e+00 3.0700397244e+00 
30700 5.8112781103e+00 -1.1359492331e-03 1.7725209234e+00 -3.0700962967e+00 1.7725209234e+00 3.0700962967e+00 
30800 5.8112792394e+00 -1.1121403753e-03 1.7725529668e+00 -3.0701517976e+00 1.7725529668e+00 3.0701517976e+00 
30900 5.8112803986e+00 -1.0865547055e-03 1.7725843380e+00 -3.0702061342e+00 1.7725843380e+00 3.0702061342e+00 
31000 5.8112815877e+00 -1.0593143903e-03 1.7726149870e+00 -3.0702592197e+00 1.7726149870e+00 3.0702592197e+00 
31100 5.8112828060e+00 -1.0305401967e-03 1.7726448671e+00 -3.0703109735e+00 1.7726448671e+00 3.0703109735e+00 
31200 5.8112840523e+00 -1.0003513225e-03 1.7726739350e+00 -3.0703613207e+00 1.7726739350e+00 3.0703613207e+00 
31300 5.8112853255e+00 -9.6886523586e-04 1.7727021510e+00 -3.0704101922e+00 1.7727021510e+00 3.0704101922e+00 
31400 5.8112866240e+00 -9.3619752215e-04 1.7727294784e+00 -3.0704575247e+00 1.7727294784e+00 3.0704575247e+00 
31500 5.8112879459e+00 -9.0246173960e-04 1.7727558840e+00 -3.0705032605e+00 1.7727558840e+00 3.0705032605e+00 
31600 5.8112892892e+00 -8.6776928303e-04 1.7727813377e+00 -3.0705473476e+00 1.7727813377e+00 3.0705473476e+00 
31700 5.8112906519e+00 -8.3222925580e-04 1.7728058126e+00 -3.0705897393e+00 1.7728058126e+00 3.0705897393e+00 
31800 5.8112920316e+00 -7.9594835011e-04 1.7728292847e+00 -3.0706303943e+00 1.7728292847e+00 3.0706303943e+00 
31900 5.8112934259e+00 -7.5903073554e-04 1.7728517333e+00 -3.0706692763e+00 1.7728517333e+00 3.0706692763e+00 
32000 5.8112948324e+00 -7.2157795568e-04 1.7728731404e+00 -3.0707063545e+00 1.7728731404e+00 3.0707063545e+00 
32100 5.8112962485e+00 -6.8368883300e-04 1.7728934910e+00 -3.0707416027e+00 1.7728934910e+00 3.0707416027e+00 
32200 5.8112976717e+00 -6.4545938174e-04 1.7729127727e+00 -3.0707749997e+00 1.7729127727e+00 3.0707749997e+00 
32300 5.8112990994e+00 -6.0698272881e-04 1.7729309761e+00 -3.0708065289e+00 1.7729309761e+00 3.0708065289e+00 
32400 5.8113005290e+00 -5.6834904255e-04 1.7729480942e+00 -3.0708361783e+00 1.7729480942e+00 3.0708361783e+00 
32500 5.8113019582e+00 -5.2964546932e-04 1.7729641226e+00 -3.0708639403e+00 1.7729641226e+00 3.0708639403e+00 
32600 5.8113033844e+00 -4.9095607766e-04 1.7729790593e+00 -3.0708898115e+00 1.7729790593e+00 3.0708898115e+00 
32700 5.8113048052e+00 -4.5236181009e-04 1.7729929048e+00 -3.0709137927e+00 1.7729929048e+00 3.0709137927e+00 
32800 5.8113062185e+00 -4.1394044221e-04 1.7730056619e+00 -3.0709358885e+00 1.7730056619e+00 3.0709358885e+00 
32900 5.8113076219e+00 -3.7576654905e-04 1.7730173353e+00 -3.0709561074e+00 1.7730173353e+00 3.0709561074e+00 
33000 5.8113090133e+00 -3.3791147851e-04 1.7730279321e+00 -3.0709744617e+00 1.7730279321e+00 3.0709744617e+00 
33100 5.8113103909e+00 -3.0044333163e-04 1.7730374613e+00 -3.0709909668e+00 1.7730374613e+00 3.0709909668e+00 
33200 5.8113117528e+00 -2.6342694968e-04 1.7730459339e+00 -3.0710056417e+00 1.7730459339e+00 3.0710056417e+00 
33300 5.8113130973e+00 -2.2692390762e-04 1.7730533626e+00 -3.0710185085e+00 1.7730533626e+00 3.0710185085e+00 
33400 5.8113144228e+00 -1.9099251402e-04 1.7730597618e+00 -3.0710295923e+00 1.7730597618e+00 3.0710295923e+00 
33500 5.8113157279e+00 -1.5568781699e-04 1.7730651478e+00 -3.0710389211e+00 1.7730651478e+00 3.0710389211e+00 
33600 5.8113170113e+00 -1.2106161613e-04 1.7730695381e+00 -3.0710465254e+00 1.7730695381e+00 3.0710465254e+00 
33700 5.8113182719e+00 -8.7162480018e-05 1.7730729520e+00 -3.0710524385e+00 1.7730729520e+00 3.0710524385e+00 
33800 5.8113195088e+00 -5.4035769360e-05 1.7730754100e+00 -3.0710566958e+00 1.7730754100e+00 3.0710566958e+00 
33900 5.8113207210e+00 -2.3009060135e-05 1.7730754100e+00 -3.0710566958e+00 1.7730754100e+00 3.0710566958e+00 
34000 5.8113219077e+00 7.9245571936e-06 1.7730754100e+00 -3.0710566958e+00 1.7730754100e+00 3.0710566958e+00 
34100 5.8113230686e+00 3.8713602259e-05 1.7730754100e+00 -3.0710566958e+00 1.7730754100e+00 3.0710566958e+00 
34200 5.8113242033e+00 6.9308773580e-05 1.7730754100e+00 -3.0710566958e+00 1.7730754100e+00 3.0710566958e+00 
34300 5.8113253116e+00 9.9662955693e-05 1.7730754100e+00 -3.0710566958e+00 1.7730754100e+00 3.0710566958e+00 
34400 5.8113263930e+00 1.2735995955e-04 1.7730725995e+00 -3.0710518279e+00 1.7730725995e+00 3.0710518279e+00 
34500 5.8113274476e+00 1.5405430284e-04 1.7730690080e+00 -3.0710456072e+00 1.7730690080e+00 3.0710456072e+00 
34600 5.8113284755e+00 1.7972485138e-04 1.7730646638e+00 -3.0710380827e+00 1.7730646638e+00 3.0710380827e+00 
34700 5.8113294768e+00 2.0435326447e-04 1.7730595956e+00 -3.0710293044e+00 1.7730595956e+00 3.0710293044e+00 
34800 5.8113304517e+00 2.2792392972e-04 1.7730538328e+00 -3.0710193230e+00 1.7730538328e+00 3.0710193230e+00 
34900 5.8113314007e+00 2.5042389518e-04 1.7730474054e+00 -3.0710081904e+00 1.7730474054e+00 3.0710081904e+00 
35000 5.8113323243e+00 2.7184279868e-04 1.7730403434e+00 -3.0709959587e+00 1.7730403434e+00 3.0709959587e+00 
35100 5.8113332228e+00 2.9217279471e-04 1.7730326774e+00 -3.0709826808e+00 1.7730326774e+00 3.0709826808e+00 
35200 5.8113340970e+00 3.1140847920e-04 1.7730244381e+00 -3.0709684098e+00 1.7730244381e+00 3.0709684098e+00 
35300 5.8113349474e+00 3.2954681222e-04 1.7730156563e+00 -3.0709531992e+00 1.7730156563e+00 3.0709531992e+00 
35400 5.8113357748e+00 3.4658703886e-04 1.7730063629e+00 -3.0709371026e+00 1.7730063629e+00 3.0709371026e+00 
35500 5.8113365799e+00 3.6253060872e-04 1.7729965889e+00 -3.0709201736e+00 1.7729965889e+00 3.0709201736e+00 
35600 5.8113373635e+00 3.7738109386e-04 1.7729863652e+00 -3.0709024657e+00 1.7729863652e+00 3.0709024657e+00 
35700 5.8113381264e+00 3.9114410575e-04 1.7729757227e+00 -3.0708840323e+00 1.7729757227e+00 3.0708840323e+00 
35800 5.8113388695e+00 4.0382721122e-04 1.7729646920e+00 -3.0708649266e+00 1.7729646920e+00 3.0708649266e+00 
35900 5.8113395936e+00 4.1543984769e-04 1.7729533035e+00 -3.0708452012e+00 1.7729533035e+00 3.0708452012e+00 
36000 5.8113402996e+00 4.2599323782e-04 1.7729415875e+00 -3.0708249084e+00 1.7729415875e+00 3.0708249084e+00 
36100 5.8113409883e+00 4.3550030386e-04 1.7729295738e+00 -3.0708041000e+00 1.7729295738e+00 3.0708041000e+00 
36200 5.8113416606e+00 4.4397558170e-04 1.7729172918e+00 -3.0707828271e+00 1.7729172918e+00 3.0707828271e+00 
36300 5.8113423175e+00 4.5143513506e-04 1.7729047708e+00 -3.0707611400e+00 1.7729047708e+00 3.0707611400e+00 
36400 5.8113429596e+00 4.5789646970e-04 1.7728920393e+00 -3.0707390884e+00 1.7728920393e+00 3.0707390884e+00 
36500 5.8113435880e+00 4.6337844801e-04 1.7728791255e+00 -3.0707167211e+00 1.7728791255e+00 3.0707167211e+00 
36600 5.8113442033e+00 4.6790120405e-04 1.7728660570e+00 -3.0706940857e+00 1.7728660570e+00 3.0706940857e+00 
36700 5.8113448064e+00 4.7148605922e-04 1.7728528608e+00 -3.0706712293e+00 1.7728528608e+00 3.0706712293e+00 
36800 5.8113453980e+00 4.7415543869e-04 1.7728395635e+00 -3.0706481976e+00 1.7728395635e+00 3.0706481976e+00 
36900 5.8113459790e+00 4.7593278869e-04 1.7728261907e+00 -3.0706250353e+00 1.7728261907e+00 3.0706250353e+00 
37000 5.8113465499e+00 4.7684249485e-04 1.7728127677e+00 -3.0706017860e+00 1.7728127677e+00 3.0706017860e+00 
37100 5.8113471114e+00 4.7690980166e-04 1.7727993190e+00 -3.0705784921e+00 1.7727993190e+00 3.0705784921e+00 
37200 5.8113476643e+00 4.7616073321e-04 1.7727858683e+00 -3.0705551948e+00 1.7727858683e+00 3.0705551948e+00 
37300 5.8113482090e+00 4.7462201527e-04 1.7727724385e+00 -3.0705319338e+00 1.7727724385e+00 3.0705319338e+00 
37400 5.8113487462e+00 4.7232099880e-04 1.7727590521e+00 -3.0705087479e+00 1.7727590521e+00 3.0705087479e+00 
37500 5.8113492764e+00 4.6928558511e-04 1.7727457305e+00 -3.0704856741e+00 1.7727457305e+00 3.0704856741e+00 
37600 5.8113498000e+00 4.6554415255e-04 1.7727324944e+00 -3.0704627485e+00 1.7727324944e+00 3.0704627485e+00 
37700 5.8113503174e+00 4.6112548499e-04 1.7727193637e+00 -3.0704400055e+00 1.7727193637e+00 3.0704400055e+00 
37800 5.8113508292e+00 4.5605870209e-04 1.7727063576e+00 -3.0704174782e+00 1.7727063576e+00 3.0704174782e+00 
37900 5.8113513356e+00 4.5037319142e-04 1.7726934943e+00 -3.0703951983e+00 1.7726934943e+00 3.0703951983e+00 
38000 5.8113518369e+00 4.4409854253e-04 1.7726807912e+00 -3.0703731959e+00 1.7726807912e+00 3.0703731959e+00 
38100 5.8113523335e+00 4.3726448295e-04 1.7726682650e+00 -3.0703515000e+00 1.7726682650e+00 3.0703515000e+00 
38200 5.8113528256e+00 4.2990081630e-04 1.7726559315e+00 -3.0703301377e+00 1.7726559315e+00 3.0703301377e+00 
38300 5.8113533135e+00 4.2203736244e-04 1.7726438056e+00 -3.0703091351e+00 1.7726438056e+00 3.0703091351e+00 
38400 5.8113537972e+00 4.1370389968e-04 1.7726319015e+00 -3.0702885165e+00 1.7726319015e+00 3.0702885165e+00 
38500 5.8113542771e+00 4.0493010926e-04 1.7726202323e+00 -3.0702683048e+00 1.7726202323e+00 3.0702683048e+00 
38600 5.8113547531e+00 3.9574552188e-04 1.7726088105e+00 -3.0702485217e+00 1.7726088105e+00 3.0702485217e+00 
38700 5.8113552254e+00 3.8617946654e-04 1.7725976477e+00 -3.0702291872e+00 1.7725976477e+00 3.0702291872e+00 
38800 5.8113556940e+00 3.7626102148e-04 1.7725867547e+00 -3.0702103200e+00 1.7725867547e+00 3.0702103200e+00 
38900 5.8113561591e+00 3.6601896743e-04 1.7725761414e+00 -3.0701919371e+00 1.7725761414e+00 3.0701919371e+00 
39000 5.8113566205e+00 3.5548174310e-04 1.7725658169e+00 -3.0701740546e+00 1.7725658169e+00 3.0701740546e+00 
39100 5.8113570784e+00 3.4467740282e-04 1.7725557896e+00 -3.0701566868e+00 1.7725557896e+00 3.0701566868e+00 
39200 5.8113575328e+00 3.3363357653e-04 1.7725460670e+00 -3.0701398468e+00 1.7725460670e+00 3.0701398468e+00 
39300 5.8113579835e+00 3.2237743189e-04 1.7725366558e+00 -3.0701235462e+00 1.7725366558e+00 3.0701235462e+00 
39400 5.8113584305e+00 3.1093563870e-04 1.7725275622e+00 -3.0701077955e+00 1.7725275622e+00 3.0701077955e+00 
39500 5.8113588739e+00 2.9933433549e-04 1.7725187912e+00 -3.0700926038e+00 1.7725187912e+00 3.0700926038e+00 
39600 5.8113593134e+00 2.8759909828e-04 1.7725103475e+00 -3.0700779788e+00 1.7725103475e+00 3.0700779788e+00 
39700 5.8113597491e+00 2.7575491156e-04 1.7725022347e+00 -3.0700639270e+00 1.7725022347e+00 3.0700639270e+00 
39800 5.8113601809e+00 2.6382614134e-04 1.7724944560e+00 -3.0700504540e+00 1.7724944560e+00 3.0700504540e+00 
39900 5.8113606086e+00 2.5183651043e-04 1.7724870138e+00 -3.0700375637e+00 1.7724870138e+00 3.0700375637e+00 
40000 5.8113610323e+00 2.3980907569e-04 1.7724799098e+00 -3.0700252591e+00 1.7724799098e+00 3.0700252591e+00 
40100 5.8113614517e+00 2.2776620741e-04 1.7724731450e+00 -3.0700135422e+00 1.7724731450e+00 3.0700135422e+00 
40200 5.8113618668e+00 2.1572957068e-04 1.7724667199e+00 -3.0700024136e+00 1.7724667199e+00 3.0700024136e+00 
40300 5.8113622775e+00 2.0372010877e-04 1.7724606343e+00 -3.0699918731e+00 1.7724606343e+00 3.0699918731e+00 
40400 5.8113626837e+00 1.9175802842e-04 1.7724548875e+00 -3.0699819193e+00 1.7724548875e+00 3.0699819193e+00 
40500 5.8113630854e+00 1.7986278704e-04 1.7724494781e+00 -3.0699725499e+00 1.7724494781e+00 3.0699725499e+00 
40600 5.8113634824e+00 1.6805308180e-04 1.7724444043e+00 -3.0699637618e+00 1.7724444043e+00 3.0699637618e+00 
40700 5.8113638746e+00 1.5634684046e-04 1.7724396636e+00 -3.0699555506e+00 1.7724396636e+00 3.0699555506e+00 
40800 5.8113642620e+00 1.4476121402e-04 1.7724352531e+00 -3.0699479114e+00 1.7724352531e+00 3.0699479114e+00 
40900 5.8113646445e+00 1.3331257109e-04 1.7724311694e+00 -3.0699408383e+00 1.7724311694e+00 3.0699408383e+00 
41000 5.8113650221e+00 1.2201649384e-04 1.7724274087e+00 -3.0699343245e+00 1.7724274087e+00 3.0699343245e+00 
41100 5.8113653947e+00 1.1088777569e-04 1.7724239666e+00 -3.0699283627e+00 1.7724239666e+00 3.0699283627e+00 
41200 5.8113657622e+00 9.9940420413e-05 1.7724208384e+00 -3.0699229446e+00 1.7724208384e+00 3.0699229446e+00 
41300 5.8113661246e+00 8.9187642889e-05 1.7724180191e+00 -3.0699180614e+00 1.7724180191e+00 3.0699180614e+00 
41400 5.8113664819e+00 7.8641871184e-05 1.7724155031e+00 -3.0699137036e+00 1.7724155031e+00 3.0699137036e+00 
41500 5.8113668340e+00 6.8314750086e-05 1.7724132846e+00 -3.0699098610e+00 1.7724132846e+00 3.0699098610e+00 
41600 5.8113671811e+00 5.9845823910e-05 1.7724132846e+00 -3.0699098610e+00 1.7724132846e+00 3.0699098610e+00 
41700 5.8113675229e+00 5.1385852084e-05 1.7724132846e+00 -3.0699098610e+00 1.7724132846e+00 3.0699098610e+00 
41800 5.8113678595e+00 4.2948550686e-05 1.7724132846e+00 -3.0699098610e+00 1.7724132846e+00 3.0699098610e+00 
41900 5.8113681909e+00 3.4547092884e-05 1.7724132846e+00 -3.0699098610e+00 1.7724132846e+00 3.0699098610e+00 
42000 5.8113685171e+00 2.6194105990e-05 1.7724132846e+00 -3.0699098610e+00 1.7724132846e+00 3.0699098610e+00 
42100 5.8113688382e+00 1.7901669590e-05 1.7724132846e+00 -3.0699098610e+00 1.7724132846e+00 3.0699098610e+00 
42200 5.8113691542e+00 9.6813146989e-06 1.7724132846e+00 -3.0699098610e+00 1.7724132846e+00 3.0699098610e+00 
42300 5.8113694651e+00 1.5440238954e-06 1.7724132846e+00 -3.0699098610e+00 1.7724132846e+00 3.0699098610e+00 
42400 5.8113697710e+00 -6.4997675770e-06 1.7724132846e+00 -3.0699098610e+00 1.7724132846e+00 3.0699098610e+00 
42500 5.8113700720e+00 -1.4440169800e-05 1.7724132846e+00 -3.0699098610e+00 1.7724132846e+00 3.0699098610e+00 
42600 5.8113703681e+00 -2.2267835286e-05 1.7724132846e+00 -3.0699098610e+00 1.7724132846e+00 3.0699098610e+00 
42700 5.8113706594e+00 -2.9973955244e-05 1.7724132846e+00 -3.0699098610e+00 1.7724132846e+00 3.0699098610e+00 
42800 5.8113709460e+00 -3.7550255032e-05 1.7724132846e+00 -3.0699098610e+00 1.7724132846e+00 3.0699098610e+00 
42900 5.8113712279e+00 -4.4988988853e-05 1.7724132846e+00 -3.0699098610e+00 1.7724132846e+00 3.0699098610e+00 
43000 5.8113715052e+00 -5.2282933714e-05 1.7724132846e+00 -3.0699098610e+00 1.7724132846e+00 3.0699098610e+00 
43100 5.8113717781e+00 -5.9425382683e-05 1.7724132846e+00 -3.0699098610e+00 1.7724132846e+00 3.0699098610e+00 
43200 5.8113720466e+00 -6.6410137506e-05 1.7724132846e+00 -3.0699098610e+00 1.7724132846e+00 3.0699098610e+00 
43300 5.8113723107e+00 -7.3231500592e-05 1.7724132846e+00 -3.0699098610e+00 1.7724132846e+00 3.0699098610e+00 
43400 5.8113725704e+00 -7.8138676730e-05 1.7724153505e+00 -3.0699134392e+00 1.7724153505e+00 3.0699134392e+00 
43500 5.8113728260e+00 -8.2744771554e-05 1.7724175548e+00 -3.0699172572e+00 1.7724175548e+00 3.0699172572e+00 
43600 5.8113730774e+00 -8.7051814509e-05 1.7724198890e+00 -3.0699213002e+00 1.7724198890e+00 3.0699213002e+00 
43700 5.8113733248e+00 -9.1062304347e-05 1.7724223448e+00 -3.0699255536e+00 1.7724223448e+00 3.0699255536e+00 
43800 5.8113735684e+00 -9.4779188702e-05 1.7724249137e+00 -3.0699300030e+00 1.7724249137e+00 3.0699300030e+00 
43900 5.8113738081e+00 -9.8205843573e-05 1.7724275874e+00 -3.0699346341e+00 1.7724275874e+00 3.0699346341e+00 
44000 5.8113740440e+00 -1.0134605269e-04 1.7724303577e+00 -3.0699394325e+00 1.7724303577e+00 3.0699394325e+00 
44100 5.8113742763e+00 -1.0420398684e-04 1.7724332167e+00 -3.0699443843e+00 1.7724332167e+00 3.0699443843e+00 
44200 5.8113745051e+00 -1.0678418319e-04 1.7724361563e+00 -3.0699494758e+00 1.7724361563e+00 3.0699494758e+00 
44300 5.8113747304e+00 -1.0909152466e-04 1.7724391686e+00 -3.0699546934e+00 1.7724391686e+00 3.0699546934e+00 
44400 5.8113749524e+00 -1.1113121931e-04 1.7724422461e+00 -3.0699600237e+00 1.7724422461e+00 3.0699600237e+00 
44500 5.8113751711e+00 -1.1290877989e-04 1.7724453811e+00 -3.0699654536e+00 1.7724453811e+00 3.0699654536e+00 
44600 5.8113753865e+00 -1.1443000348e-04 1.7724485662e+00 -3.0699709704e+00 1.7724485662e+00 3.0699709704e+00 
44700 5.8113755989e+00 -1.1570095133e-04 1.7724517942e+00 -3.0699765615e+00 1.7724517942e+00 3.0699765615e+00 
44800 5.8113758082e+00 -1.1672792892e-04 1.7724550581e+00 -3.0699822147e+00 1.7724550581e+00 3.0699822147e+00 
44900 5.8113760146e+00 -1.1751746616e-04 1.7724583509e+00 -3.0699879180e+00 1.7724583509e+00 3.0699879180e+00 
45000 5.8113762181e+00 -1.1807629796e-04 1.7724616660e+00 -3.0699936600e+00 1.7724616660e+00 3.0699936600e+00 
45100 5.8113764187e+00 -1.1841134502e-04 1.7724649968e+00 -3.0699994292e+00 1.7724649968e+00 3.0699994292e+00 
45200 5.8113766167e+00 -1.1852969498e-04 1.7724683371e+00 -3.0700052147e+00 1.7724683371e+00 3.0700052147e+00 
45300 5.8113768119e+00 -1.1843858380e-04 1.7724716808e+00 -3.0700110061e+00 1.7724716808e+00 3.0700110061e+00 
45400 5.8113770045e+00 -1.1814537767e-04 1.7724750218e+00 -3.0700167930e+00 1.7724750218e+00 3.0700167930e+00 
45500 5.8113771946e+00 -1.1765755513e-04 1.7724783546e+00 -3.0700225655e+00 1.7724783546e+00 3.0700225655e+00 
45600 5.8113773822e+00 -1.1698268970e-04 1.7724816736e+00 -3.0700283142e+00 1.7724816736e+00 3.0700283142e+00 
45700 5.8113775674e+00 -1.1612843287e-04 1.7724849736e+00 -3.0700340299e+00 1.7724849736e+00 3.0700340299e+00 
45800 5.8113777502e+00 -1.1510249756e-04 1.7724882495e+00 -3.0700397039e+00 1.7724882495e+00 3.0700397039e+00 
45900 5.8113779307e+00 -1.1391264200e-04 1.7724914964e+00 -3.0700453277e+00 1.7724914964e+00 3.0700453277e+00 
46000 5.8113781088e+00 -1.1256665412e-04 1.7724947097e+00 -3.0700508934e+00 1.7724947097e+00 3.0700508934e+00 
46100 5.8113782847e+00 -1.1107233634e-04 1.7724978851e+00 -3.0700563933e+00 1.7724978851e+00 3.0700563933e+00 
46200 5.8113784585e+00 -1.0943749095e-04 1.7725010183e+00 -3.0700618202e+00 1.7725010183e+00 3.0700618202e+00 
46300 5.8113786300e+00 -1.0766990590e-04 1.7725041054e+00 -3.0700671672e+00 1.7725041054e+00 3.0700671672e+00 
46400 5.8113787995e+00 -1.0577734115e-04 1.7725071426e+00 -3.0700724278e+00 1.7725071426e+00 3.0700724278e+00 
46500 5.8113789668e+00 -1.0376751552e-04 1.7725101265e+00 -3.0700775960e+00 1.7725101265e+00 3.0700775960e+00 
46600 5.8113791321e+00 -1.0164809405e-04 1.7725130536e+00 -3.0700826659e+00 1.7725130536e+00 3.0700826659e+00 
46700 5.8113792954e+00 -9.9426675943e-05 1.7725159210e+00 -3.0700876323e+00 1.7725159210e+00 3.0700876323e+00 
46800 5.8113794567e+00 -9.7110782957e-05 1.7725187256e+00 -3.0700924902e+00 1.7725187256e+00 3.0700924902e+00 
46900 5.8113796160e+00 -9.4707848406e-05 1.7725214650e+00 -3.0700972349e+00 1.7725214650e+00 3.0700972349e+00 
47000 5.8113797734e+00 -9.2225206660e-05 1.7725241365e+00 -3.0701018621e+00 1.7725241365e+00 3.0701018621e+00 
47100 5.8113799288e+00 -8.9670083196e-05 1.7725267381e+00 -3.0701063681e+00 1.7725267381e+00 3.0701063681e+00 
47200 5.8113800824e+00 -8.7049585191e-05 1.7725292675e+00 -3.0701107492e+00 1.7725292675e+00 3.0701107492e+00 
47300 5.8113802340e+00 -8.4370692641e-05 1.7725317230e+00 -3.0701150023e+00 1.7725317230e+00 3.0701150023e+00 
47400 5.8113803838e+00 -8.1640250035e-05 1.7725341030e+00 -3.0701191245e+00 1.7725341030e+00 3.0701191245e+00 
47500 5.8113805318e+00 -7.8864958533e-05 1.7725364059e+00 -3.0701231133e+00 1.7725364059e+00 3.0701231133e+00 
47600 5.8113806780e+00 -7.6051368708e-05 1.7725386305e+00 -3.0701269665e+00 1.7725386305e+00 3.0701269665e+00 
47700 5.8113808224e+00 -7.3205873795e-05 1.7725407758e+00 -3.0701306822e+00 1.7725407758e+00 3.0701306822e+00 
47800 5.8113809649e+00 -7.0334703445e-05 1.7725428408e+00 -3.0701342589e+00 1.7725428408e+00 3.0701342589e+00 
47900 5.8113811059e+00 -6.9119901090e-05 1.7725428408e+00 -3.0701342589e+00 1.7725428408e+00 3.0701342589e+00 
48000 5.8113812451e+00 -6.7832884709e-05 1.7725428408e+00 -3.0701342589e+00 1.7725428408e+00 3.0701342589e+00 
48100 5.8113813825e+00 -6.6478776575e-05 1.7725428408e+00 -3.0701342589e+00 1.7725428408e+00 3.0701342589e+00 
48200 5.8113815182e+00 -6.5062620952e-05 1.7725428408e+00 -3.0701342589e+00 1.7725428408e+00 3.0701342589e+00 
48300 5.8113816522e+00 -6.3589378220e-05 1.7725428408e+00 -3.0701342589e+00 1.7725428408e+00 3.0701342589e+00 
48400 5.8113817844e+00 -6.2063919362e-05 1.7725428408e+00 -3.0701342589e+00 1.7725428408e+00 3.0701342589e+00 
48500 5.8113819150e+00 -6.0491020824e-05 1.7725428408e+00 -3.0701342589e+00 1.7725428408e+00 3.0701342589e+00 
48600 5.8113820438e+00 -5.8875359705e-05 1.7725428408e+00 -3.0701342589e+00 1.7725428408e+00 3.0701342589e+00 
48700 5.8113821711e+00 -5.7221509329e-05 1.7725428408e+00 -3.0701342589e+00 1.7725428408e+00 3.0701342589e+00 
48800 5.8113822966e+00 -5.5533935141e-05 1.7725428408e+00 -3.0701342589e+00 1.7725428408e+00 3.0701342589e+00 
48900 5.8113824205e+00 -5.3816990959e-05 1.7725428408e+00 -3.0701342589e+00 1.7725428408e+00 3.0701342589e+00 
49000 5.8113825429e+00 -5.2074915552e-05 1.7725428408e+00 -3.0701342589e+00 1.7725428408e+00 3.0701342589e+00 
49100 5.8113826636e+00 -5.0311829556e-05 1.7725428408e+00 -3.0701342589e+00 1.7725428408e+00 3.0701342589e+00 
49200 5.8113827827e+00 -4.8531732702e-05 1.7725428408e+00 -3.0701342589e+00 1.7725428408e+00 3.0701342589e+00 
49300 5.8113829002e+00 -4.6738501372e-05 1.7725428408e+00 -3.0701342589e+00 1.7725428408e+00 3.0701342589e+00 
49400 5.8113830162e+00 -4.4935886450e-05 1.7725428408e+00 -3.0701342589e+00 1.7725428408e+00 3.0701342589e+00 
49500 5.8113831307e+00 -4.3127511490e-05 1.7725428408e+00 -3.0701342589e+00 1.7725428408e+00 3.0701342589e+00 
49600 5.8113832436e+00 -4.1316871158e-05 1.7725428408e+00 -3.0701342589e+00 1.7725428408e+00 3.0701342589e+00 
49700 5.8113833551e+00 -3.9507329978e-05 1.7725428408e+00 -3.0701342589e+00 1.7725428408e+00 3.0701342589e+00 
49800 5.8113834651e+00 -3.7702121338e-05 1.7725428408e+00 -3.0701342589e+00 1.7725428408e+00 3.0701342589e+00 
49900 5.8113835736e+00 -3.5904346774e-05 1.7725428408e+00 -3.0701342589e+00 1.7725428408e+00 3.0701342589e+00 
50000 5.8113836806e+00 -3.4116975511e-05 1.7725428408e+00 -3.0701342589e+00 1.7725428408e+00 3.0701342589e+00 
50100 5.8113837862e+00 -3.2342844251e-05 1.7725428408e+00 -3.0701342589e+00 1.7725428408e+00 3.0701342589e+00 
50200 5.8113838904e+00 -3.0584657213e-05 1.7725428408e+00 -3.0701342589e+00 1.7725428408e+00 3.0701342589e+00 
50300 5.8113839933e+00 -2.8844986389e-05 1.7725428408e+00 -3.0701342589e+00 1.7725428408e+00 3.0701342589e+00 
50400 5.8113840947e+00 -2.7126272036e-05 1.7725428408e+00 -3.0701342589e+00 1.7725428408e+00 3.0701342589e+00 
50500 5.8113841948e+00 -2.5430823383e-05 1.7725428408e+00 -3.0701342589e+00 1.7725428408e+00 3.0701342589e+00 
50600 5.8113842935e+00 -2.3760819532e-05 1.7725428408e+00 -3.0701342589e+00 1.7725428408e+00 3.0701342589e+00 
50700 5.8113843910e+00 -2.2118310564e-05 1.7725428408e+00 -3.0701342589e+00 1.7725428408e+00 3.0701342589e+00 
50800 5.8113844871e+00 -2.0505218835e-05 1.7725428408e+00 -3.0701342589e+00 1.7725428408e+00 3.0701342589e+00 
50900 5.8113845820e+00 -1.8923340430e-05 1.7725428408e+00 -3.0701342589e+00 1.7725428408e+00 3.0701342589e+00 
51000 5.8113846756e+00 -1.7374346811e-05 1.7725428408e+00 -3.0701342589e+00 1.7725428408e+00 3.0701342589e+00 
51100 5.8113847679e+00 -1.5859786601e-05 1.7725428408e+00 -3.0701342589e+00 1.7725428408e+00 3.0701342589e+00 
51200 5.8113848590e+00 -1.4381087531e-05 1.7725428408e+00 -3.0701342589e+00 1.7725428408e+00 3.0701342589e+00 
51300 5.8113849489e+00 -1.2939558529e-05 1.7725428408e+00 -3.0701342589e+00 1.7725428408e+00 3.0701342589e+00 
51400 5.8113850376e+00 -1.1536391923e-05 1.7725428408e+00 -3.0701342589e+00 1.7725428408e+00 3.0701342589e+00 
51500 5.8113851252e+00 -1.0172665794e-05 1.7725428408e+00 -3.0701342589e+00 1.7725428408e+00 3.0701342589e+00 
51600 5.8113852116e+00 -8.8493464152e-06 1.7725428408e+00 -3.0701342589e+00 1.7725428408e+00 3.0701342589e+00 
51700 5.8113852968e+00 -7.5672908181e-06 1.7725428408e+00 -3.0701342589e+00 1.7725428408e+00 3.0701342589e+00 
51800 5.8113853810e+00 -6.3272494404e-06 1.7725428408e+00 -3.0701342589e+00 1.7725428408e+00 3.0701342589e+00 
51900 5.8113854640e+00 -5.1298688732e-06 1.7725428408e+00 -3.0701342589e+00 1.7725428408e+00 3.0701342589e+00 
52000 5.8113855459e+00 -3.9756946846e-06 1.7725428408e+00 -3.0701342589e+00 1.7725428408e+00 3.0701342589e+00 
52100 5.8113856268e+00 -2.8651743063e-06 1.7725428408e+00 -3.0701342589e+00 1.7725428408e+00 3.0701342589e+00 
52200 5.8113857066e+00 -1.7986600038e-06 1.7725428408e+00 -3.0701342589e+00 1.7725428408e+00 3.0701342589e+00 
52300 5.8113857854e+00 -7.7641188523e-07 1.7725428408e+00 -3.0701342589e+00 1.7725428408e+00 3.0701342589e+00 
52400 5.8113858632e+00 2.0139903065e-07 1.7725428408e+00 -3.0701342589e+00 1.7725428408e+00 3.0701342589e+00 
52500 5.8113859399e+00 1.1346877071e-06 1.7725428408e+00 -3.0701342589e+00 1.7725428408e+00 3.0701342589e+00 
52600 5.8113860157e+00 2.0234519502e-06 1.7725428408e+00 -3.0701342589e+00 1.7725428408e+00 3.0701342589e+00 
52700 5.8113860905e+00 2.8677692388e-06 1.7725428408e+00 -3.0701342589e+00 1.7725428408e+00 3.0701342589e+00 
52800 5.8113861643e+00 3.6677935298e-06 1.7725428408e+00 -3.0701342589e+00 1.7725428408e+00 3.0701342589e+00 
52900 5.8113862372e+00 4.4237520599e-06 1.7725428408e+00 -3.0701342589e+00 1.7725428408e+00 3.0701342589e+00 
53000 5.8113863092e+00 5.1359421283e-06 1.7725428408e+00 -3.0701342589e+00 1.7725428408e+00 3.0701342589e+00 
53100 5.8113863802e+00 5.8047278742e-06 1.7725428408e+00 -3.0701342589e+00 1.7725428408e+00 3.0701342589e+00 
53200 5.8113864503e+00 6.4305370786e-06 1.7725428408e+00 -3.0701342589e+00 1.7725428408e+00 3.0701342589e+00 
53300 5.8113865195e+00 7.0138579499e-06 1.7725428408e+00 -3.0701342589e+00 1.7725428408e+00 3.0701342589e+00 
53400 5.8113865879e+00 7.5552359375e-06 1.7725428408e+00 -3.0701342589e+00 1.7725428408e+00 3.0701342589e+00 
53500 5.8113866554e+00 8.0552705616e-06 1.7725428408e+00 -3.0701342589e+00 1.7725428408e+00 3.0701342589e+00 
53600 5.8113867220e+00 8.5146122729e-06 1.7725428408e+00 -3.0701342589e+00 1.7725428408e+00 3.0701342589e+00 
53700 5.8113867878e+00 8.9339593308e-06 1.7725428408e+00 -3.0701342589e+00 1.7725428408e+00 3.0701342589e+00 
53800 5.8113868528e+00 9.3140547241e-06 1.7725428408e+00 -3.0701342589e+00 1.7725428408e+00 3.0701342589e+00 
53900 5.8113869169e+00 9.6556831252e-06 1.7725428408e+00 -3.0701342589e+00 1.7725428408e+00 3.0701342589e+00 
54000 5.8113869802e+00 9.9596678892e-06 1.7725428408e+00 -3.0701342589e+00 1.7725428408e+00 3.0701342589e+00 
54100 5.8113870428e+00 1.0226868098e-05 1.7725428408e+00 -3.0701342589e+00 1.7725428408e+00 3.0701342589e+00 
54200 5.8113871045e+00 1.0458175647e-05 1.7725428408e+00 -3.0701342589e+00 1.7725428408e+00 3.0701342589e+00 
54300 5.8113871655e+00 1.0654512396e-05 1.7725428408e+00 -3.0701342589e+00 1.7725428408e+00 3.0701342589e+00 
54400 5.8113872257e+00 1.0816827365e-05 1.7725428408e+00 -3.0701342589e+00 1.7725428408e+00 3.0701342589e+00 
54500 5.8113872852e+00 1.0946093996e-05 1.7725428408e+00 -3.0701342589e+00 1.7725428408e+00 3.0701342589e+00 
54600 5.8113873439e+00 1.1043307470e-05 1.7725428408e+00 -3.0701342589e+00 1.7725428408e+00 3.0701342589e+00 
54700 5.8113874019e+00 1.1109482089e-05 1.7725428408e+00 -3.0701342589e+00 1.7725428408e+00 3.0701342589e+00 
54800 5.8113874591e+00 1.1145648732e-05 1.7725428408e+00 -3.0701342589e+00 1.7725428408e+00 3.0701342589e+00 
54900 5.8113875157e+00 1.1152852367e-05 1.7725428408e+00 -3.0701342589e+00 1.7725428408e+00 3.0701342589e+00 
55000 5.8113875715e+00 1.1132149636e-05 1.7725428408e+00 -3.0701342589e+00 1.7725428408e+00 3.0701342589e+00 
55100 5.8113876267e+00 1.1084606517e-05 1.7725428408e+00 -3.0701342589e+00 1.7725428408e+00 3.0701342589e+00 
55200 5.8113876811e+00 1.1011296057e-05 1.7725428408e+00 -3.0701342589e+00 1.7725428408e+00 3.0701342589e+00 
55300 5.8113877349e+00 1.0913296168e-05 1.7725428408e+00 -3.0701342589e+00 1.7725428408e+00 3.0701342589e+00 
55400 5.8113877880e+00 1.0791687519e-05 1.7725428408e+00 -3.0701342589e+00 1.7725428408e+00 3.0701342589e+00 
55500 5.8113878404e+00 1.0647551487e-05 1.7725428408e+00 -3.0701342589e+00 1.7725428408e+00 3.0701342589e+00 
55600 5.8113878922e+00 1.0481968190e-05 1.7725428408e+00 -3.0701342589e+00 1.7725428408e+00 3.0701342589e+00 
55700 5.8113879433e+00 1.0296014598e-05 1.7725428408e+00 -3.0701342589e+00 1.7725428408e+00 3.0701342589e+00 
55800 5.8113879939e+00 1.0090762729e-05 1.7725428408e+00 -3.0701342589e+00 1.7725428408e+00 3.0701342589e+00 
55900 5.8113880437e+00 9.8672779066e-06 1.7725428408e+00 -3.0701342589e+00 1.7725428408e+00 3.0701342589e+00 
56000 5.8113880930e+00 9.6266171129e-06 1.7725428408e+00 -3.0701342589e+00 1.7725428408e+00 3.0701342589e+00 
56100 5.8113881416e+00 9.3698274079e-06 1.7725428408e+00 -3.0701342589e+00 1.7725428408e+00 3.0701342589e+00 
56200 5.8113881896e+00 9.0979444373e-06 1.7725428408e+00 -3.0701342589e+00 1.7725428408e+00 3.0701342589e+00 
56300 5.8113882371e+00 8.8119910095e-06 1.7725428408e+00 -3.0701342589e+00 1.7725428408e+00 3.0701342589e+00 
56400 5.8113882839e+00 8.5129757511e-06 1.7725428408e+00 -3.0701342589e+00 1.7725428408e+00 3.0701342589e+00 
56500 5.8113883302e+00 8.2018918451e-06 1.7725428408e+00 -3.0701342589e+00 1.7725428408e+00 3.0701342589e+00 
56600 5.8113883758e+00 7.8797158417e-06 1.7725428408e+00 -3.0701342589e+00 1.7725428408e+00 3.0701342589e+00 
56700 5.8113884210e+00 7.5474065404e-06 1.7725428408e+00 -3.0701342589e+00 1.7725428408e+00 3.0701342589e+00 
56800 5.8113884655e+00 7.2059039566e-06 1.7725428408e+00 -3.0701342589e+00 1.7725428408e+00 3.0701342589e+00 
56900 5.8113885095e+00 6.8561283525e-06 1.7725428408e+00 -3.0701342589e+00 1.7725428408e+00 3.0701342589e+00 
57000 5.8113885529e+00 6.4989793419e-06 1.7725428408e+00 -3.0701342589e+00 1.7725428408e+00 3.0701342589e+00 
57100 5.8113885958e+00 6.1353350761e-06 1.7725428408e+00 -3.0701342589e+00 1.7725428408e+00 3.0701342589e+00 
57200 5.8113886382e+00 5.7660514848e-06 1.7725428408e+00 -3.0701342589e+00 1.7725428408e+00 3.0701342589e+00 
57300 5.8113886800e+00 5.3919615952e-06 1.7725428408e+00 -3.0701342589e+00 1.7725428408e+00 3.0701342589e+00 
57400 5.8113887213e+00 5.0138749195e-06 1.7725428408e+00 -3.0701342589e+00 1.7725428408e+00 3.0701342589e+00 
57500 5.8113887621e+00 4.6325769013e-06 1.7725428408e+00 -3.0701342589e+00 1.7725428408e+00 3.0701342589e+00 
57600 5.8113888024e+00 4.2488284351e-06 1.7725428408e+00 -3.0701342589e+00 1.7725428408e+00 3.0701342589e+00 
57700 5.8113888422e+00 3.8633654380e-06 1.7725428408e+00 -3.0701342589e+00 1.7725428408e+00 3.0701342589e+00 
57800 5.8113888815e+00 3.4768984970e-06 1.7725428408e+00 -3.0701342589e+00 1.7725428408e+00 3.0701342589e+00 
57900 5.8113889203e+00 3.0901125559e-06 1.7725428408e+00 -3.0701342589e+00 1.7725428408e+00 3.0701342589e+00 
58000 5.8113889586e+00 2.7036666816e-06 1.7725428408e+00 -3.0701342589e+00 1.7725428408e+00 3.0701342589e+00 
58100 5.8113889965e+00 2.3181938704e-06 1.7725428408e+00 -3.0701342589e+00 1.7725428408e+00 3.0701342589e+00 
58200 5.8113890338e+00 1.9343009164e-06 1.7725428408e+00 -3.0701342589e+00 1.7725428408e+00 3.0701342589e+00 
58300 5.8113890707e+00 1.5525683311e-06 1.7725428408e+00 -3.0701342589e+00 1.7725428408e+00 3.0701342589e+00 
58400 5.8113891072e+00 1.1735503075e-06 1.7725428408e+00 -3.0701342589e+00 1.7725428408e+00 3.0701342589e+00 
58500 5.8113891432e+00 7.9777474177e-07 1.7725428408e+00 -3.0701342589e+00 1.7725428408e+00 3.0701342589e+00 
58600 5.8113891787e+00 4.2574329673e-07 1.7725428408e+00 -3.0701342589e+00 1.7725428408e+00 3.0701342589e+00 
58700 5.8113892138e+00 5.7931509997e-08 1.7725428408e+00 -3.0701342589e+00 1.7725428408e+00 3.0701342589e+00 
58800 5.8113892485e+00 -3.0521105017e-07 1.7725428408e+00 -3.0701342589e+00 1.7725428408e+00 3.0701342589e+00 
58900 5.8113892827e+00 -6.6326059881e-07 1.7725428408e+00 -3.0701342589e+00 1.7725428408e+00 3.0701342589e+00 
59000 5.8113893165e+00 -1.0158188961e-06 1.7725428408e+00 -3.0701342589e+00 1.7725428408e+00 3.0701342589e+00 
59100 5.8113893499e+00 -1.3625129811e-06 1.7725428408e+00 -3.0701342589e+00 1.7725428408e+00 3.0701342589e+00 
59200 5.8113893829e+00 -1.7029948673e-06 1.7725428408e+00 -3.0701342589e+00 1.7725428408e+00 3.0701342589e+00 
59300 5.8113894154e+00 -2.0369412028e-06 1.7725428408e+00 -3.0701342589e+00 1.7725428408e+00 3.0701342589e+00 
59400 5.8113894476e+00 -2.3640529039e-06 1.7725428408e+00 -3.0701342589e+00 1.7725428408e+00 3.0701342589e+00 
59500 5.8113894793e+00 -2.6840547511e-06 1.7725428408e+00 -3.0701342589e+00 1.7725428408e+00 3.0701342589e+00 
59600 5.8113895107e+00 -2.9966949698e-06 1.7725428408e+00 -3.0701342589e+00 1.7725428408e+00 3.0701342589e+00 
59700 5.8113895417e+00 -3.3017447708e-06 1.7725428408e+00 -3.0701342589e+00 1.7725428408e+00 3.0701342589e+00 
59800 5.8113895723e+00 -3.5989978799e-06 1.7725428408e+00 -3.0701342589e+00 1.7725428408e+00 3.0701342589e+00 
59900 5.8113896025e+00 -3.8882700301e-06 1.7725428408e+00 -3.0701342589e+00 1.7725428408e+00 3.0701342589e+00 
60000 5.8113896323e+00 -4.1693984546e-06 1.7725428408e+00 -3.0701342589e+00 1.7725428408e+00 3.0701342589e+00 
60100 5.8113896618e+00 -4.4422413362e-06 1.7725428408e+00 -3.0701342589e+00 1.7725428408e+00 3.0701342589e+00 
60200 5.8113896909e+00 -4.7066772581e-06 1.7725428408e+00 -3.0701342589e+00 1.7725428408e+00 3.0701342589e+00 
60300 5.8113897197e+00 -4.9626046310e-06 1.7725428408e+00 -3.0701342589e+00 1.7725428408e+00 3.0701342589e+00 
60400 5.8113897481e+00 -5.2099411119e-06 1.7725428408e+00 -3.0701342589e+00 1.7725428408e+00 3.0701342589e+00 
60500 5.8113897761e+00 -5.4486229986e-06 1.7725428408e+00 -3.0701342589e+00 1.7725428408e+00 3.0701342589e+00 
60600 5.8113898038e+00 -5.6786046302e-06 1.7725428408e+00 -3.0701342589e+00 1.7725428408e+00 3.0701342589e+00 
60700 5.8113898312e+00 -5.8998577669e-06 1.7725428408e+00 -3.0701342589e+00 1.7725428408e+00 3.0701342589e+00 
60800 5.8113898582e+00 -6.1123709613e-06 1.7725428408e+00 -3.0701342589e+00 1.7725428408e+00 3.0701342589e+00 
60900 5.8113898849e+00 -6.3161489349e-06 1.7725428408e+00 -3.0701342589e+00 1.7725428408e+00 3.0701342589e+00 
61000 5.8113899113e+00 -6.5112119343e-06 1.7725428408e+00 -3.0701342589e+00 1.7725428408e+00 3.0701342589e+00 
61100 5.8113899373e+00 -6.6975950956e-06 1.7725428408e+00 -3.0701342589e+00 1.7725428408e+00 3.0701342589e+00 
61200 5.8113899631e+00 -6.8753478018e-06 1.7725428408e+00 -3.0701342589e+00 1.7725428408e+00 3.0701342589e+00 
61300 5.8113899885e+00 -7.0445330380e-06 1.7725428408e+00 -3.0701342589e+00 1.7725428408e+00 3.0701342589e+00 
61400 5.8113900136e+00 -7.2052267521e-06 1.7725428408e+00 -3.0701342589e+00 1.7725428408e+00 3.0701342589e+00 
61500 5.8113900384e+00 -7.3575172070e-06 1.7725428408e+00 -3.0701342589e+00 1.7725428408e+00 3.0701342589e+00 
61600 5.8113900629e+00 -7.5015043472e-06 1.7725428408e+00 -3.0701342589e+00 1.7725428408e+00 3.0701342589e+00 
61700 5.8113900870e+00 -7.6372991581e-06 1.7725428408e+00 -3.0701342589e+00 1.7725428408e+00 3.0701342589e+00 
61800 5.8113901109e+00 -7.7650230404e-06 1.7725428408e+00 -3.0701342589e+00 1.7725428408e+00 3.0701342589e+00 
61900 5.8113901345e+00 -7.8848071784e-06 1.7725428408e+00 -3.0701342589e+00 1.7725428408e+00 3.0701342589e+00 
62000 5.8113901579e+00 -7.9967919222e-06 1.7725428408e+00 -3.0701342589e+00 1.7725428408e+00 3.0701342589e+00 
62100 5.8113901809e+00 -8.1011261777e-06 1.7725428408e+00 -3.0701342589e+00 1.7725428408e+00 3.0701342589e+00 
62200 5.8113902036e+00 -8.1979668006e-06 1.7725428408e+00 -3.0701342589e+00 1.7725428408e+00 3.0701342589e+00 
62300 5.8113902261e+00 -8.2874780020e-06 1.7725428408e+00 -3.0701342589e+00 1.7725428408e+00 3.0701342589e+00 
62400 5.8113902483e+00 -8.3698307594e-06 1.7725428408e+00 -3.0701342589e+00 1.7725428408e+00 3.0701342589e+00 
62500 5.8113902702e+00 -8.4452022465e-06 1.7725428408e+00 -3.0701342589e+00 1.7725428408e+00 3.0701342589e+00 
62600 5.8113902919e+00 -8.5137752648e-06 1.7725428408e+00 -3.0701342589e+00 1.7725428408e+00 3.0701342589e+00 
62700 5.8113903133e+00 -8.5757376952e-06 1.7725428408e+00 -3.0701342589e+00 1.7725428408e+00 3.0701342589e+00 
62800 5.8113903344e+00 -8.6312819484e-06 1.7725428408e+00 -3.0701342589e+00 1.7725428408e+00 3.0701342589e+00 
62900 5.8113903553e+00 -8.6806044494e-06 1.7725428408e+00 -3.0701342589e+00 1.7725428408e+00 3.0701342589e+00 
63000 5.8113903759e+00 -8.7239051114e-06 1.7725428408e+00 -3.0701342589e+00 1.7725428408e+00 3.0701342589e+00 
63100 5.8113903963e+00 -8.7613868399e-06 1.7725428408e+00 -3.0701342589e+00 1.7725428408e+00 3.0701342589e+00 
63200 5.8113904164e+00 -8.7932550430e-06 1.7725428408e+00 -3.0701342589e+00 1.7725428408e+00 3.0701342589e+00 
63300 5.8113904363e+00 -8.8197171607e-06 1.7725428408e+00 -3.0701342589e+00 1.7725428408e+00 3.0701342589e+00 
63400 5.8113904560e+00 -8.8409822023e-06 1.7725428408e+00 -3.0701342589e+00 1.7725428408e+00 3.0701342589e+00 
63500 5.8113904754e+00 -8.8572603056e-06 1.7725428408e+00 -3.0701342589e+00 1.7725428408e+00 3.0701342589e+00 
63600 5.8113904945e+00 -8.8687623089e-06 1.7725428408e+00 -3.0701342589e+00 1.7725428408e+00 3.0701342589e+00 
63700 5.8113905135e+00 -8.8756993300e-06 1.7725428408e+00 -3.0701342589e+00 1.7725428408e+00 3.0701342589e+00 
63800 5.8113905322e+00 -8.8782823836e-06 1.7725428408e+00 -3.0701342589e+00 1.7725428408e+00 3.0701342589e+00 
63900 5.8113905506e+00 -8.8767219789e-06 1.7725428408e+00 -3.0701342589e+00 1.7725428408e+00 3.0701342589e+00 
64000 5.8113905689e+00 -8.8712277691e-06 1.7725428408e+00 -3.0701342589e+00 1.7725428408e+00 3.0701342589e+00 
64100 5.8113905869e+00 -8.8620081944e-06 1.7725428408e+00 -3.0701342589e+00 1.7725428408e+00 3.0701342589e+00 
64200 5.8113906048e+00 -8.8492701437e-06 1.7725428408e+00 -3.0701342589e+00 1.7725428408e+00 3.0701342589e+00 
64300 5.8113906224e+00 -8.8332186404e-06 1.7725428408e+00 -3.0701342589e+00 1.7725428408e+00 3.0701342589e+00 
64400 5.8113906397e+00 -8.8140565364e-06 1.7725428408e+00 -3.0701342589e+00 1.7725428408e+00 3.0701342589e+00 
64500 5.8113906569e+00 -8.7919842216e-06 1.7725428408e+00 -3.0701342589e+00 1.7725428408e+00 3.0701342589e+00 
64600 5.8113906739e+00 -8.7671993568e-06 1.7725428408e+00 -3.0701342589e+00 1.7725428408e+00 3.0701342589e+00 
64700 5.8113906907e+00 -8.7398966113e-06 1.7725428408e+00 -3.0701342589e+00 1.7725428408e+00 3.0701342589e+00 
64800 5.8113907072e+00 -8.7102674269e-06 1.7725428408e+00 -3.0701342589e+00 1.7725428408e+00 3.0701342589e+00 
64900 5.8113907236e+00 -8.6784997848e-06 1.7725428408e+00 -3.0701342589e+00 1.7725428408e+00 3.0701342589e+00 
65000 5.8113907397e+00 -8.6447780028e-06 1.7725428408e+00 -3.0701342589e+00 1.7725428408e+00 3.0701342589e+00 
65100 5.8113907557e+00 -8.6092825295e-06 1.7725428408e+00 -3.0701342589e+00 1.7725428408e+00 3.0701342589e+00 
65200 5.8113907715e+00 -8.5721897744e-06 1.7725428408e+00 -3.0701342589e+00 1.7725428408e+00 3.0701342589e+00 
65300 5.8113907871e+00 -8.5336719258e-06 1.7725428408e+00 -3.0701342589e+00 1.7725428408e+00 3.0701342589e+00 
65400 5.8113908025e+00 -8.4938968096e-06 1.7725428408e+00 -3.0701342589e+00 1.7725428408e+00 3.0701342589e+00 
65500 5.8113908177e+00 -8.4530277446e-06 1.7725428408e+00 -3.0701342589e+00 1.7725428408e+00 3.0701342589e+00 
65600 5.8113908327e+00 -8.4112234220e-06 1.7725428408e+00 -3.0701342589e+00 1.7725428408e+00 3.0701342589e+00 
65700 5.8113908476e+00 -8.3686377850e-06 1.7725428408e+00 -3.0701342589e+00 1.7725428408e+00 3.0701342589e+00 
65800 5.8113908622e+00 -8.3254199370e-06 1.7725428408e+00 -3.0701342589e+00 1.7725428408e+00 3.0701342589e+00 
65900 5.8113908767e+00 -8.2817140491e-06 1.7725428408e+00 -3.0701342589e+00 1.7725428408e+00 3.0701342589e+00 
66000 5.8113908910e+00 -8.2376592905e-06 1.7725428408e+00 -3.0701342589e+00 1.7725428408e+00 3.0701342589e+00 
66100 5.8113909052e+00 -8.1933897671e-06 1.7725428408e+00 -3.0701342589e+00 1.7725428408e+00 3.0701342589e+00 
66200 5.8113909192e+00 -8.1490344660e-06 1.7725428408e+00 -3.0701342589e+00 1.7725428408e+00 3.0701342589e+00 
66300 5.8113909330e+00 -8.1047172189e-06 1.7725428408e+00 -3.0701342589e+00 1.7725428408e+00 3.0701342589e+00 
66400 5.8113909466e+00 -8.0605566756e-06 1.7725428408e+00 -3.0701342589e+00 1.7725428408e+00 3.0701342589e+00 
66500 5.8113909601e+00 -8.0166662838e-06 1.7725428408e+00 -3.0701342589e+00 1.7725428408e+00 3.0701342589e+00 
66600 5.8113909734e+00 -7.9731542838e-06 1.7725428408e+00 -3.0701342589e+00 1.7725428408e+00 3.0701342589e+00 
66700 5.8113909866e+00 -7.9301237085e-06 1.7725428408e+00 -3.0701342589e+00 1.7725428408e+00 3.0701342589e+00 
66800 5.8113909996e+00 -7.8876723995e-06 1.7725428408e+00 -3.0701342589e+00 1.7725428408e+00 3.0701342589e+00 
66900 5.8113910124e+00 -7.8458930224e-06 1.7725428408e+00 -3.0701342589e+00 1.7725428408e+00 3.0701342589e+00 
67000 5.8113910251e+00 -7.8048731018e-06 1.7725428408e+00 -3.0701342589e+00 1.7725428408e+00 3.0701342589e+00 
67100 5.8113910376e+00 -7.7646950566e-06 1.7725428408e+00 -3.0701342589e+00 1.7725428408e+00 3.0701342589e+00 
67200 5.8113910500e+00 -7.7254362463e-06 1.7725428408e+00 -3.0701342589e+00 1.7725428408e+00 3.0701342589e+00 
67300 5.8113910622e+00 -7.6871690241e-06 1.7725428408e+00 -3.0701342589e+00 1.7725428408e+00 3.0701342589e+00 
67400 5.8113910743e+00 -7.6499608008e-06 1.7725428408e+00 -3.0701342589e+00 1.7725428408e+00 3.0701342589e+00 
67500 5.8113910863e+00 -7.6138741031e-06 1.7725428408e+00 -3.0701342589e+00 1.7725428408e+00 3.0701342589e+00 
67600 5.8113910981e+00 -7.5789666588e-06 1.7725428408e+00 -3.0701342589e+00 1.7725428408e+00 3.0701342589e+00 
67700 5.8113911097e+00 -7.5452914686e-06 1.7725428408e+00 -3.0701342589e+00 1.7725428408e+00 3.0701342589e+00 
67800 5.8113911213e+00 -7.5128968947e-06 1.7725428408e+00 -3.0701342589e+00 1.7725428408e+00 3.0701342589e+00 
67900 5.8113911326e+00 -7.4818267497e-06 1.7725428408e+00 -3.0701342589e+00 1.7725428408e+00 3.0701342589e+00 
68000 5.8113911439e+00 -7.4521203937e-06 1.7725428408e+00 -3.0701342589e+00 1.7725428408e+00 3.0701342589e+00 
68100 5.8113911550e+00 -7.4238128324e-06 1.7725428408e+00 -3.0701342589e+00 1.7725428408e+00 3.0701342589e+00 
68200 5.8113911660e+00 -7.3969348218e-06 1.7725428408e+00 -3.0701342589e+00 1.7725428408e+00 3.0701342589e+00 
68300 5.8113911768e+00 -7.3715129772e-06 1.7725428408e+00 -3.0701342589e+00 1.7725428408e+00 3.0701342589e+00 
68400 5.8113911875e+00 -7.3475698833e-06 1.7725428408e+00 -3.0701342589e+00 1.7725428408e+00 3.0701342589e+00 
68500 5.8113911981e+00 -7.3251242120e-06 1.7725428408e+00 -3.0701342589e+00 1.7725428408e+00 3.0701342589e+00 
68600 5.8113912086e+00 -7.3041908298e-06 1.7725428408e+00 -3.0701342589e+00 1.7725428408e+00 3.0701342589e+00 
68700 5.8113912189e+00 -7.2847809302e-06 1.7725428408e+00 -3.0701342589e+00 1.7725428408e+00 3.0701342589e+00 
68800 5.8113912292e+00 -7.2669021503e-06 1.7725428408e+00 -3.0701342589e+00 1.7725428408e+00 3.0701342589e+00 
68900 5.8113912392e+00 -7.2505586910e-06 1.7725428408e+00 -3.0701342589e+00 1.7725428408e+00 3.0701342589e+00 
69000 5.8113912492e+00 -7.2357514473e-06 1.7725428408e+00 -3.0701342589e+00 1.7725428408e+00 3.0701342589e+00 
69100 5.8113912591e+00 -7.2224781348e-06 1.7725428408e+00 -3.0701342589e+00 1.7725428408e+00 3.0701342589e+00 
69200 5.8113912688e+00 -7.2107334143e-06 1.7725428408e+00 -3.0701342589e+00 1.7725428408e+00 3.0701342589e+00 
69300 5.8113912784e+00 -7.2005090205e-06 1.7725428408e+00 -3.0701342589e+00 1.7725428408e+00 3.0701342589e+00 
69400 5.8113912879e+00 -7.1917938939e-06 1.7725428408e+00 -3.0701342589e+00 1.7725428408e+00 3.0701342589e+00 
69500 5.8113912973e+00 -7.1845743101e-06 1.7725428408e+00 -3.0701342589e+00 1.7725428408e+00 3.0701342589e+00 
69600 5.8113913066e+00 -7.1788339995e-06 1.7725428408e+00 -3.0701342589e+00 1.7725428408e+00 3.0701342589e+00 
69700 5.8113913158e+00 -7.1745542932e-06 1.7725428408e+00 -3.0701342589e+00 1.7725428408e+00 3.0701342589e+00 
69800 5.8113913248e+00 -7.1717142318e-06 1.7725428408e+00 -3.0701342589e+00 1.7725428408e+00 3.0701342589e+00 
69900 5.8113913338e+00 -7.1702907067e-06 1.7725428408e+00 -3.0701342589e+00 1.7725428408e+00 3.0701342589e+00 
70000 5.8113913427e+00 -7.1702585843e-06 1.7725428408e+00 -3.0701342589e+00 1.7725428408e+00 3.0701342589e+00 
70100 5.8113913514e+00 -7.1715908251e-06 1.7725428408e+00 -3.0701342589e+00 1.7725428408e+00 3.0701342589e+00 
70200 5.8113913600e+00 -7.1742586156e-06 1.7725428408e+00 -3.0701342589e+00 1.7725428408e+00 3.0701342589e+00 
70300 5.8113913686e+00 -7.1782314840e-06 1.7725428408e+00 -3.0701342589e+00 1.7725428408e+00 3.0701342589e+00 
70400 5.8113913770e+00 -7.1834774298e-06 1.7725428408e+00 -3.0701342589e+00 1.7725428408e+00 3.0701342589e+00 
70500 5.8113913853e+00 -7.1899630333e-06 1.7725428408e+00 -3.0701342589e+00 1.7725428408e+00 3.0701342589e+00 
70600 5.8113913936e+00 -7.1976535833e-06 1.7725428408e+00 -3.0701342589e+00 1.7725428408e+00 3.0701342589e+00 
70700 5.8113914017e+00 -7.2065131806e-06 1.7725428408e+00 -3.0701342589e+00 1.7725428408e+00 3.0701342589e+00 
70800 5.8113914098e+00 -7.2165048598e-06 1.7725428408e+00 -3.0701342589e+00 1.7725428408e+00 3.0701342589e+00 
70900 5.8113914177e+00 -7.2275906996e-06 1.7725428408e+00 -3.0701342589e+00 1.7725428408e+00 3.0701342589e+00 
71000 5.8113914256e+00 -7.2397319255e-06 1.7725428408e+00 -3.0701342589e+00 1.7725428408e+00 3.0701342589e+00 
71100 5.8113914333e+00 -7.2528890183e-06 1.7725428408e+00 -3.0701342589e+00 1.7725428408e+00 3.0701342589e+00 
71200 5.8113914410e+00 -7.2670218205e-06 1.7725428408e+00 -3.0701342589e+00 1.7725428408e+00 3.0701342589e+00 
71300 5.8113914486e+00 -7.2820896310e-06 1.7725428408e+00 -3.0701342589e+00 1.7725428408e+00 3.0701342589e+00 
71400 5.8113914560e+00 -7.2980513036e-06 1.7725428408e+00 -3.0701342589e+00 1.7725428408e+00 3.0701342589e+00 
71500 5.8113914634e+00 -7.3148653452e-06 1.7725428408e+00 -3.0701342589e+00 1.7725428408e+00 3.0701342589e+00 
71600 5.8113914708e+00 -7.3324900035e-06 1.7725428408e+00 -3.0701342589e+00 1.7725428408e+00 3.0701342589e+00 
71700 5.8113914780e+00 -7.3508833572e-06 1.7725428408e+00 -3.0701342589e+00 1.7725428408e+00 3.0701342589e+00 
71800 5.8113914851e+00 -7.3700034007e-06 1.7725428408e+00 -3.0701342589e+00 1.7725428408e+00 3.0701342589e+00 
71900 5.8113914922e+00 -7.3898081273e-06 1.7725428408e+00 -3.0701342589e+00 1.7725428408e+00 3.0701342589e+00 
72000 5.8113914991e+00 -7.4102556066e-06 1.7725428408e+00 -3.0701342589e+00 1.7725428408e+00 3.0701342589e+00 
72100 5.8113915060e+00 -7.4313040645e-06 1.7725428408e+00 -3.0701342589e+00 1.7725428408e+00 3.0701342589e+00 
72200 5.8113915128e+00 -7.4529119508e-06 1.7725428408e+00 -3.0701342589e+00 1.7725428408e+00 3.0701342589e+00 
72300 5.8113915196e+00 -7.4750380144e-06 1.7725428408e+00 -3.0701342589e+00 1.7725428408e+00 3.0701342589e+00 
72400 5.8113915262e+00 -7.4976413645e-06 1.7725428408e+00 -3.0701342589e+00 1.7725428408e+00 3.0701342589e+00 
72500 5.8113915328e+00 -7.5206815373e-06 1.7725428408e+00 -3.0701342589e+00 1.7725428408e+00 3.0701342589e+00 
72600 5.8113915393e+00 -7.5441185564e-06 1.7725428408e+00 -3.0701342589e+00 1.7725428408e+00 3.0701342589e+00 
72700 5.8113915457e+00 -7.5679129869e-06 1.7725428408e+00 -3.0701342589e+00 1.7725428408e+00 3.0701342589e+00 
72800 5.8113915520e+00 -7.5920259942e-06 1.7725428408e+00 -3.0701342589e+00 1.7725428408e+00 3.0701342589e+00 
72900 5.8113915583e+00 -7.6164193879e-06 1.7725428408e+00 -3.0701342589e+00 1.7725428408e+00 3.0701342589e+00 
73000 5.8113915645e+00 -7.6410556744e-06 1.7725428408e+00 -3.0701342589e+00 1.7725428408e+00 3.0701342589e+00 
73100 5.8113915706e+00 -7.6658981002e-06 1.7725428408e+00 -3.0701342589e+00 1.7725428408e+00 3.0701342589e+00 
73200 5.8113915766e+00 -7.6909106936e-06 1.7725428408e+00 -3.0701342589e+00 1.7725428408e+00 3.0701342589e+00 
73300 5.8113915826e+00 -7.7160583002e-06 1.7725428408e+00 -3.0701342589e+00 1.7725428408e+00 3.0701342589e+00 
73400 5.8113915885e+00 -7.7413066239e-06 1.7725428408e+00 -3.0701342589e+00 1.7725428408e+00 3.0701342589e+00 
73500 5.8113915944e+00 -7.7666222527e-06 1.7725428408e+00 -3.0701342589e+00 1.7725428408e+00 3.0701342589e+00 
73600 5.8113916001e+00 -7.7919726955e-06 1.7725428408e+00 -3.0701342589e+00 1.7725428408e+00 3.0701342589e+00 
73700 5.8113916058e+00 -7.8173264022e-06 1.7725428408e+00 -3.0701342589e+00 1.7725428408e+00 3.0701342589e+00 
73800 5.8113916114e+00 -7.8426527959e-06 1.7725428408e+00 -3.0701342589e+00 1.7725428408e+00 3.0701342589e+00 
73900 5.8113916170e+00 -7.8679222828e-06 1.7725428408e+00 -3.0701342589e+00 1.7725428408e+00 3.0701342589e+00 
74000 5.8113916225e+00 -7.8931062839e-06 1.7725428408e+00 -3.0701342589e+00 1.7725428408e+00 3.0701342589e+00 
74100 5.8113916279e+00 -7.9181772424e-06 1.7725428408e+00 -3.0701342589e+00 1.7725428408e+00 3.0701342589e+00 
74200 5.8113916333e+00 -7.9431086381e-06 1.7725428408e+00 -3.0701342589e+00 1.7725428408e+00 3.0701342589e+00 
74300 5.8113916386e+00 -7.9678750062e-06 1.7725428408e+00 -3.0701342589e+00 1.7725428408e+00 3.0701342589e+00 
74400 5.8113916439e+00 -7.9924519347e-06 1.7725428408e+00 -3.0701342589e+00 1.7725428408e+00 3.0701342589e+00 
74500 5.8113916491e+00 -8.0168160832e-06 1.7725428408e+00 -3.0701342589e+00 1.7725428408e+00 3.0701342589e+00 
74600 5.8113916542e+00 -8.0409451766e-06 1.7725428408e+00 -3.0701342589e+00 1.7725428408e+00 3.0701342589e+00 
74700 5.8113916592e+00 -8.0648180157e-06 1.7725428408e+00 -3.0701342589e+00 1.7725428408e+00 3.0701342589e+00 
74800 5.8113916642e+00 -8.0884144722e-06 1.7725428408e+00 -3.0701342589e+00 1.7725428408e+00 3.0701342589e+00 
74900 5.8113916692e+00 -8.1117154905e-06 1.7725428408e+00 -3.0701342589e+00 1.7725428408e+00 3.0701342589e+00 
75000 5.8113916741e+00 -8.1347030803e-06 1.7725428408e+00 -3.0701342589e+00 1.7725428408e+00 3.0701342589e+00 
75100 5.8113916789e+00 -8.1573603164e-06 1.7725428408e+00 -3.0701342589e+00 1.7725428408e+00 3.0701342589e+00 
75200 5.8113916837e+00 -8.1796713284e-06 1.7725428408e+00 -3.0701342589e+00 1.7725428408e+00 3.0701342589e+00 
75300 5.8113916884e+00 -8.2016212895e-06 1.7725428408e+00 -3.0701342589e+00 1.7725428408e+00 3.0701342589e+00 
75400 5.8113916930e+00 -8.2231964113e-06 1.7725428408e+00 -3.0701342589e+00 1.7725428408e+00 3.0701342589e+00 
75500 5.8113916977e+00 -8.2443839298e-06 1.7725428408e+00 -3.0701342589e+00 1.7725428408e+00 3.0701342589e+00 
75600 5.8113917022e+00 -8.2651720889e-06 1.7725428408e+00 -3.0701342589e+00 1.7725428408e+00 3.0701342589e+00 
75700 5.8113917067e+00 -8.2855501321e-06 1.7725428408e+00 -3.0701342589e+00 1.7725428408e+00 3.0701342589e+00 
75800 5.8113917112e+00 -8.3055082808e-06 1.7725428408e+00 -3.0701342589e+00 1.7725428408e+00 3.0701342589e+00 
75900 5.8113917155e+00 -8.3250377212e-06 1.7725428408e+00 -3.0701342589e+00 1.7725428408e+00 3.0701342589e+00 
76000 5.8113917199e+00 -8.3441305819e-06 1.7725428408e+00 -3.0701342589e+00 1.7725428408e+00 3.0701342589e+00 
76100 5.8113917242e+00 -8.3627799189e-06 1.7725428408e+00 -3.0701342589e+00 1.7725428408e+00 3.0701342589e+00 
76200 5.8113917284e+00 -8.3809796930e-06 1.7725428408e+00 -3.0701342589e+00 1.7725428408e+00 3.0701342589e+00 
76300 5.8113917326e+00 -8.3987247489e-06 1.7725428408e+00 -3.0701342589e+00 1.7725428408e+00 3.0701342589e+00 
76400 5.8113917368e+00 -8.4160107945e-06 1.7725428408e+00 -3.0701342589e+00 1.7725428408e+00 3.0701342589e+00 
76500 5.8113917409e+00 -8.4328343738e-06 1.7725428408e+00 -3.0701342589e+00 1.7725428408e+00 3.0701342589e+00 
76600 5.8113917449e+00 -8.4491928521e-06 1.7725428408e+00 -3.0701342589e+00 1.7725428408e+00 3.0701342589e+00 
76700 5.8113917489e+00 -8.4650843835e-06 1.7725428408e+00 -3.0701342589e+00 1.7725428408e+00 3.0701342589e+00 
76800 5.8113917529e+00 -8.4805078868e-06 1.7725428408e+00 -3.0701342589e+00 1.7725428408e+00 3.0701342589e+00 
76900 5.8113917568e+00 -8.4954630289e-06 1.7725428408e+00 -3.0701342589e+00 1.7725428408e+00 3.0701342589e+00 
77000 5.8113917606e+00 -8.5099501912e-06 1.7725428408e+00 -3.0701342589e+00 1.7725428408e+00 3.0701342589e+00 
77100 5.8113917644e+00 -8.5239704446e-06 1.7725428408e+00 -3.0701342589e+00 1.7725428408e+00 3.0701342589e+00 
77200 5.8113917682e+00 -8.5375255259e-06 1.7725428408e+00 -3.0701342589e+00 1.7725428408e+00 3.0701342589e+00 
77300 5.8113917719e+00 -8.5506178125e-06 1.7725428408e+00 -3.0701342589e+00 1.7725428408e+00 3.0701342589e+00 
77400 5.8113917756e+00 -8.5632502905e-06 1.7725428408e+00 -3.0701342589e+00 1.7725428408e+00 3.0701342589e+00 
77500 5.8113917793e+00 -8.5754265342e-06 1.7725428408e+00 -3.0701342589e+00 1.7725428408e+00 3.0701342589e+00 
77600 5.8113917829e+00 -8.5871506756e-06 1.7725428408e+00 -3.0701342589e+00 1.7725428408e+00 3.0701342589e+00 
77700 5.8113917864e+00 -8.5984273783e-06 1.7725428408e+00 -3.0701342589e+00 1.7725428408e+00 3.0701342589e+00 
77800 5.8113917899e+00 -8.6092618119e-06 1.7725428408e+00 -3.0701342589e+00 1.7725428408e+00 3.0701342589e+00 
77900 5.8113917934e+00 -8.6196596229e-06 1.7725428408e+00 -3.0701342589e+00 1.7725428408e+00 3.0701342589e+00 
78000 5.8113917968e+00 -8.6296269113e-06 1.7725428408e+00 -3.0701342589e+00 1.7725428408e+00 3.0701342589e+00 
78100 5.8113918002e+00 -8.6391702039e-06 1.7725428408e+00 -3.0701342589e+00 1.7725428408e+00 3.0701342589e+00 
78200 5.8113918036e+00 -8.6482964246e-06 1.7725428408e+00 -3.0701342589e+00 1.7725428408e+00 3.0701342589e+00 
78300 5.8113918069e+00 -8.6570128717e-06 1.7725428408e+00 -3.0701342589e+00 1.7725428408e+00 3.0701342589e+00 
78400 5.8113918102e+00 -8.6653271917e-06 1.7725428408e+00 -3.0701342589e+00 1.7725428408e+00 3.0701342589e+00 
78500 5.8113918134e+00 -8.6732473553e-06 1.7725428408e+00 -3.0701342589e+00 1.7725428408e+00 3.0701342589e+00 
78600 5.8113918166e+00 -8.6807816268e-06 1.7725428408e+00 -3.0701342589e+00 1.7725428408e+00 3.0701342589e+00 
78700 5.8113918198e+00 -8.6879385482e-06 1.7725428408e+00 -3.0701342589e+00 1.7725428408e+00 3.0701342589e+00 
78800 5.8113918229e+00 -8.6947269085e-06 1.7725428408e+00 -3.0701342589e+00 1.7725428408e+00 3.0701342589e+00 
78900 5.8113918260e+00 -8.7011557203e-06 1.7725428408e+00 -3.0701342589e+00 1.7725428408e+00 3.0701342589e+00 
79000 5.8113918291e+00 -8.7072342007e-06 1.7725428408e+00 -3.0701342589e+00 1.7725428408e+00 3.0701342589e+00 
79100 5.8113918321e+00 -8.7129717458e-06 1.7725428408e+00 -3.0701342589e+00 1.7725428408e+00 3.0701342589e+00 
79200 5.8113918351e+00 -8.7183779086e-06 1.7725428408e+00 -3.0701342589e+00 1.7725428408e+00 3.0701342589e+00 
79300 5.8113918380e+00 -8.7234623772e-06 1.7725428408e+00 -3.0701342589e+00 1.7725428408e+00 3.0701342589e+00 
79400 5.8113918409e+00 -8.7282349530e-06 1.7725428408e+00 -3.0701342589e+00 1.7725428408e+00 3.0701342589e+00 
79500 5.8113918438e+00 -8.7327055319e-06 1.7725428408e+00 -3.0701342589e+00 1.7725428408e+00 3.0701342589e+00 
79600 5.8113918467e+00 -8.7368840866e-06 1.7725428408e+00 -3.0701342589e+00 1.7725428408e+00 3.0701342589e+00 
79700 5.8113918495e+00 -8.7407806388e-06 1.7725428408e+00 -3.0701342589e+00 1.7725428408e+00 3.0701342589e+00 
79800 5.8113918523e+00 -8.7444052488e-06 1.7725428408e+00 -3.0701342589e+00 1.7725428408e+00 3.0701342589e+00 
79900 5.8113918550e+00 -8.7477679947e-06 1.7725428408e+00 -3.0701342589e+00 1.7725428408e+00 3.0701342589e+00 
80000 5.8113918577e+00 -8.7508789521e-06 1.7725428408e+00 -3.0701342589e+00 1.7725428408e+00 3.0701342589e+00 
80100 5.8113918604e+00 -8.7537481830e-06 1.7725428408e+00 -3.0701342589e+00 1.7725428408e+00 3.0701342589e+00 
80200 5.8113918631e+00 -8.7563857134e-06 1.7725428408e+00 -3.0701342589e+00 1.7725428408e+00 3.0701342589e+00 
80300 5.8113918657e+00 -8.7588015224e-06 1.7725428408e+00 -3.0701342589e+00 1.7725428408e+00 3.0701342589e+00 
80400 5.8113918683e+00 -8.7610055258e-06 1.7725428408e+00 -3.0701342589e+00 1.7725428408e+00 3.0701342589e+00 
80500 5.8113918708e+00 -8.7630075617e-06 1.7725428408e+00 -3.0701342589e+00 1.7725428408e+00 3.0701342589e+00 
80600 5.8113918734e+00 -8.7648173752e-06 1.7725428408e+00 -3.0701342589e+00 1.7725428408e+00 3.0701342589e+00 
80700 5.8113918759e+00 -8.7664446084e-06 1.7725428408e+00 -3.0701342589e+00 1.7725428408e+00 3.0701342589e+00 
80800 5.8113918784e+00 -8.7678987895e-06 1.7725428408e+00 -3.0701342589e+00 1.7725428408e+00 3.0701342589e+00 
80900 5.8113918808e+00 -8.7691893135e-06 1.7725428408e+00 -3.0701342589e+00 1.7725428408e+00 3.0701342589e+00 
81000 5.8113918832e+00 -8.7703254402e-06 1.7725428408e+00 -3.0701342589e+00 1.7725428408e+00 3.0701342589e+00 
81100 5.8113918856e+00 -8.7713162793e-06 1.7725428408e+00 -3.0701342589e+00 1.7725428408e+00 3.0701342589e+00 
81200 5.8113918880e+00 -8.7721707822e-06 1.7725428408e+00 -3.0701342589e+00 1.7725428408e+00 3.0701342589e+00 
81300 5.8113918903e+00 -8.7728977300e-06 1.7725428408e+00 -3.0701342589e+00 1.7725428408e+00 3.0701342589e+00 
81400 5.8113918926e+00 -8.7735057317e-06 1.7725428408e+00 -3.0701342589e+00 1.7725428408e+00 3.0701342589e+00 
81500 5.8113918949e+00 -8.7740032080e-06 1.7725428408e+00 -3.0701342589e+00 1.7725428408e+00 3.0701342589e+00 
81600 5.8113918972e+00 -8.7743983910e-06 1.7725428408e+00 -3.0701342589e+00 1.7725428408e+00 3.0701342589e+00 
81700 5.8113918994e+00 -8.7746993160e-06 1.7725428408e+00 -3.0701342589e+00 1.7725428408e+00 3.0701342589e+00 
81800 5.8113919016e+00 -8.7749138107e-06 1.7725428408e+00 -3.0701342589e+00 1.7725428408e+00 3.0701342589e+00 
81900 5.8113919038e+00 -8.7750494995e-06 1.7725428408e+00 -3.0701342589e+00 1.7725428408e+00 3.0701342589e+00 
82000 5.8113919059e+00 -8.7751137872e-06 1.7725428408e+00 -3.0701342589e+00 1.7725428408e+00 3.0701342589e+00 
82100 5.8113919081e+00 -8.7751138624e-06 1.7725428408e+00 -3.0701342589e+00 1.7725428408e+00 3.0701342589e+00 
82200 5.8113919102e+00 -8.7750566945e-06 1.7725428408e+00 -3.0701342589e+00 1.7725428408e+00 3.0701342589e+00 
82300 5.8113919122e+00 -8.7749490264e-06 1.7725428408e+00 -3.0701342589e+00 1.7725428408e+00 3.0701342589e+00 
82400 5.8113919143e+00 -8.7747973696e-06 1.7725428408e+00 -3.0701342589e+00 1.7725428408e+00 3.0701342589e+00 
82500 5.8113919163e+00 -8.7746080129e-06 1.7725428408e+00 -3.0701342589e+00 1.7725428408e+00 3.0701342589e+00 
82600 5.8113919183e+00 -8.7743870049e-06 1.7725428408e+00 -3.0701342589e+00 1.7725428408e+00 3.0701342589e+00 
82700 5.8113919203e+00 -8.7741401694e-06 1.7725428408e+00 -3.0701342589e+00 1.7725428408e+00 3.0701342589e+00 
82800 5.8113919223e+00 -8.7738730926e-06 1.7725428408e+00 -3.0701342589e+00 1.7725428408e+00 3.0701342589e+00 
82900 5.8113919242e+00 -8.7735911261e-06 1.7725428408e+00 -3.0701342589e+00 1.7725428408e+00 3.0701342589e+00 
83000 5.8113919261e+00 -8.7732993906e-06 1.7725428408e+00 -3.0701342589e+00 1.7725428408e+00 3.0701342589e+00 
83100 5.8113919280e+00 -8.7730027703e-06 1.7725428408e+00 -3.0701342589e+00 1.7725428408e+00 3.0701342589e+00 
83200 5.8113919299e+00 -8.7727059183e-06 1.7725428408e+00 -3.0701342589e+00 1.7725428408e+00 3.0701342589e+00 
83300 5.8113919318e+00 -8.7724132572e-06 1.7725428408e+00 -3.0701342589e+00 1.7725428408e+00 3.0701342589e+00 
83400 5.8113919336e+00 -8.7721289777e-06 1.7725428408e+00 -3.0701342589e+00 1.7725428408e+00 3.0701342589e+00 
83500 5.8113919354e+00 -8.7718570455e-06 1.7725428408e+00 -3.0701342589e+00 1.7725428408e+00 3.0701342589e+00 
83600 5.8113919372e+00 -8.7716011992e-06 1.7725428408e+00 -3.0701342589e+00 1.7725428408e+00 3.0701342589e+00 
83700 5.8113919390e+00 -8.7713649564e-06 1.7725428408e+00 -3.0701342589e+00 1.7725428408e+00 3.0701342589e+00 
83800 5.8113919407e+00 -8.7711516130e-06 1.7725428408e+00 -3.0701342589e+00 1.7725428408e+00 3.0701342589e+00 
83900 5.8113919424e+00 -8.7709642471e-06 1.7725428408e+00 -3.0701342589e+00 1.7725428408e+00 3.0701342589e+00 
84000 5.8113919441e+00 -8.7708057264e-06 1.7725428408e+00 -3.0701342589e+00 1.7725428408e+00 3.0701342589e+00 
84100 5.8113919458e+00 -8.7706787069e-06 1.7725428408e+00 -3.0701342589e+00 1.7725428408e+00 3.0701342589e+00 
84200 5.8113919475e+00 -8.7705856395e-06 1.7725428408e+00 -3.0701342589e+00 1.7725428408e+00 3.0701342589e+00 
84300 5.8113919491e+00 -8.7705287726e-06 1.7725428408e+00 -3.0701342589e+00 1.7725428408e+00 3.0701342589e+00 
84400 5.8113919508e+00 -8.7705101570e-06 1.7725428408e+00 -3.0701342589e+00 1.7725428408e+00 3.0701342589e+00 
84500 5.8113919524e+00 -8.7705316518e-06 1.7725428408e+00 -3.0701342589e+00 1.7725428408e+00 3.0701342589e+00 
84600 5.8113919540e+00 -8.7705949278e-06 1.7725428408e+00 -3.0701342589e+00 1.7725428408e+00 3.0701342589e+00 
84700 5.8113919555e+00 -8.7707014700e-06 1.7725428408e+00 -3.0701342589e+00 1.7725428408e+00 3.0701342589e+00 
84800 5.8113919571e+00 -8.7708525880e-06 1.7725428408e+00 -3.0701342589e+00 1.7725428408e+00 3.0701342589e+00 
84900 5.8113919586e+00 -8.7710494157e-06 1.7725428408e+00 -3.0701342589e+00 1.7725428408e+00 3.0701342589e+00 
85000 5.8113919602e+00 -8.7712929186e-06 1.7725428408e+00 -3.0701342589e+00 1.7725428408e+00 3.0701342589e+00 
85100 5.8113919617e+00 -8.7715839002e-06 1.7725428408e+00 -3.0701342589e+00 1.7725428408e+00 3.0701342589e+00 
85200 5.8113919632e+00 -8.7719230061e-06 1.7725428408e+00 -3.0701342589e+00 1.7725428408e+00 3.0701342589e+00 
85300 5.8113919646e+00 -8.7723107287e-06 1.7725428408e+00 -3.0701342589e+00 1.7725428408e+00 3.0701342589e+00 
85400 5.8113919661e+00 -8.7727474147e-06 1.7725428408e+00 -3.0701342589e+00 1.7725428408e+00 3.0701342589e+00 
85500 5.8113919675e+00 -8.7732332696e-06 1.7725428408e+00 -3.0701342589e+00 1.7725428408e+00 3.0701342589e+00 
85600 5.8113919689e+00 -8.7737683610e-06 1.7725428408e+00 -3.0701342589e+00 1.7725428408e+00 3.0701342589e+00 
85700 5.8113919703e+00 -8.7743526295e-06 1.7725428408e+00 -3.0701342589e+00 1.7725428408e+00 3.0701342589e+00 
85800 5.8113919717e+00 -8.7749858887e-06 1.7725428408e+00 -3.0701342589e+00 1.7725428408e+00 3.0701342589e+00 
85900 5.8113919731e+00 -8.7756678365e-06 1.7725428408e+00 -3.0701342589e+00 1.7725428408e+00 3.0701342589e+00 
86000 5.8113919744e+00 -8.7763980538e-06 1.7725428408e+00 -3.0701342589e+00 1.7725428408e+00 3.0701342589e+00 
86100 5.8113919758e+00 -8.7771760151e-06 1.7725428408e+00 -3.0701342589e+00 1.7725428408e+00 3.0701342589e+00 
86200 5.8113919771e+00 -8.7780010937e-06 1.7725428408e+00 -3.0701342589e+00 1.7725428408e+00 3.0701342589e+00 
86300 5.8113919784e+00 -8.7788725659e-06 1.7725428408e+00 -3.0701342589e+00 1.7725428408e+00 3.0701342589e+00 
86400 5.8113919797e+00 -8.7797896155e-06 1.7725428408e+00 -3.0701342589e+00 1.7725428408e+00 3.0701342589e+00 
86500 5.8113919810e+00 -8.7807513438e-06 1.7725428408e+00 -3.0701342589e+00 1.7725428408e+00 3.0701342589e+00 
86600 5.8113919823e+00 -8.7817567693e-06 1.7725428408e+00 -3.0701342589e+00 1.7725428408e+00 3.0701342589e+00 
86700 5.8113919835e+00 -8.7828048342e-06 1.7725428408e+00 -3.0701342589e+00 1.7725428408e+00 3.0701342589e+00 
86800 5.8113919847e+00 -8.7838944172e-06 1.7725428408e+00 -3.0701342589e+00 1.7725428408e+00 3.0701342589e+00 
86900 5.8113919860e+00 -8.7850243218e-06 1.7725428408e+00 -3.0701342589e+00 1.7725428408e+00 3.0701342589e+00 
87000 5.8113919872e+00 -8.7861933031e-06 1.7725428408e+00 -3.0701342589e+00 1.7725428408e+00 3.0701342589e+00 
87100 5.8113919884e+00 -8.7874000554e-06 1.7725428408e+00 -3.0701342589e+00 1.7725428408e+00 3.0701342589e+00 
87200 5.8113919895e+00 -8.7886432247e-06 1.7725428408e+00 -3.0701342589e+00 1.7725428408e+00 3.0701342589e+00 
87300 5.8113919907e+00 -8.7899214112e-06 1.7725428408e+00 -3.0701342589e+00 1.7725428408e+00 3.0701342589e+00 
87400 5.8113919919e+00 -8.7912331771e-06 1.7725428408e+00 -3.0701342589e+00 1.7725428408e+00 3.0701342589e+00 
87500 5.8113919930e+00 -8.7925770479e-06 1.7725428408e+00 -3.0701342589e+00 1.7725428408e+00 3.0701342589e+00 
87600 5.8113919941e+00 -8.7939515143e-06 1.7725428408e+00 -3.0701342589e+00 1.7725428408e+00 3.0701342589e+00 
87700 5.8113919952e+00 -8.7953550460e-06 1.7725428408e+00 -3.0701342589e+00 1.7725428408e+00 3.0701342589e+00 
87800 5.8113919963e+00 -8.7967860867e-06 1.7725428408e+00 -3.0701342589e+00 1.7725428408e+00 3.0701342589e+00 
87900 5.8113919974e+00 -8.7982430615e-06 1.7725428408e+00 -3.0701342589e+00 1.7725428408e+00 3.0701342589e+00 
88000 5.8113919985e+00 -8.7997243822e-06 1.7725428408e+00 -3.0701342589e+00 1.7725428408e+00 3.0701342589e+00 
88100 5.8113919996e+00 -8.8012284486e-06 1.7725428408e+00 -3.0701342589e+00 1.7725428408e+00 3.0701342589e+00 
88200 5.8113920006e+00 -8.8027536528e-06 1.7725428408e+00 -3.0701342589e+00 1.7725428408e+00 3.0701342589e+00 
88300 5.8113920017e+00 -8.8042983844e-06 1.7725428408e+00 -3.0701342589e+00 1.7725428408e+00 3.0701342589e+00 
88400 5.8113920027e+00 -8.8058610316e-06 1.7725428408e+00 -3.0701342589e+00 1.7725428408e+00 3.0701342589e+00 
88500 5.8113920037e+00 -8.8074399877e-06 1.7725428408e+00 -3.0701342589e+00 1.7725428408e+00 3.0701342589e+00 
88600 5.8113920047e+00 -8.8090336519e-06 1.7725428408e+00 -3.0701342589e+00 1.7725428408e+00 3.0701342589e+00 
88700 5.8113920057e+00 -8.8106404301e-06 1.7725428408e+00 -3.0701342589e+00 1.7725428408e+00 3.0701342589e+00 
88800 5.8113920067e+00 -8.8122587418e-06 1.7725428408e+00 -3.0701342589e+00 1.7725428408e+00 3.0701342589e+00 
88900 5.8113920077e+00 -8.8138870225e-06 1.7725428408e+00 -3.0701342589e+00 1.7725428408e+00 3.0701342589e+00 
89000 5.8113920086e+00 -8.8155237233e-06 1.7725428408e+00 -3.0701342589e+00 1.7725428408e+00 3.0701342589e+00 
89100 5.8113920096e+00 -8.8171673170e-06 1.7725428408e+00 -3.0701342589e+00 1.7725428408e+00 3.0701342589e+00 
89200 5.8113920105e+00 -8.8188162977e-06 1.7725428408e+00 -3.0701342589e+00 1.7725428408e+00 3.0701342589e+00 
89300 5.8113920114e+00 -8.8204691834e-06 1.7725428408e+00 -3.0701342589e+00 1.7725428408e+00 3.0701342589e+00 
89400 5.8113920123e+00 -8.8221245185e-06 1.7725428408e+00 -3.0701342589e+00 1.7725428408e+00 3.0701342589e+00 
89500 5.8113920132e+00 -8.8237808778e-06 1.7725428408e+00 -3.0701342589e+00 1.7725428408e+00 3.0701342589e+00 
89600 5.8113920141e+00 -8.8254368665e-06 1.7725428408e+00 -3.0701342589e+00 1.7725428408e+00 3.0701342589e+00 
89700 5.8113920150e+00 -8.8270911176e-06 1.7725428408e+00 -3.0701342589e+00 1.7725428408e+00 3.0701342589e+00 
89800 5.8113920159e+00 -8.8287423017e-06 1.7725428408e+00 -3.0701342589e+00 1.7725428408e+00 3.0701342589e+00 
89900 5.8113920168e+00 -8.8303891224e-06 1.7725428408e+00 -3.0701342589e+00 1.7725428408e+00 3.0701342589e+00 
90000 5.8113920176e+00 -8.8320303213e-06 1.7725428408e+00 -3.0701342589e+00 1.7725428408e+00 3.0701342589e+00 
90100 5.8113920185e+00 -8.8336646761e-06 1.7725428408e+00 -3.0701342589e+00 1.7725428408e+00 3.0701342589e+00 
90200 5.8113920193e+00 -8.8352910018e-06 1.7725428408e+00 -3.0701342589e+00 1.7725428408e+00 3.0701342589e+00 
90300 5.8113920201e+00 -8.8369081560e-06 1.7725428408e+00 -3.0701342589e+00 1.7725428408e+00 3.0701342589e+00 
90400 5.8113920209e+00 -8.8385150324e-06 1.7725428408e+00 -3.0701342589e+00 1.7725428408e+00 3.0701342589e+00 
90500 5.8113920218e+00 -8.8401105698e-06 1.7725428408e+00 -3.0701342589e+00 1.7725428408e+00 3.0701342589e+00 
90600 5.8113920226e+00 -8.8416937475e-06 1.7725428408e+00 -3.0701342589e+00 1.7725428408e+00 3.0701342589e+00 
90700 5.8113920233e+00 -8.8432635853e-06 1.7725428408e+00 -3.0701342589e+00 1.7725428408e+00 3.0701342589e+00 
90800 5.8113920241e+00 -8.8448191468e-06 1.7725428408e+00 -3.0701342589e+00 1.7725428408e+00 3.0701342589e+00 
90900 5.8113920249e+00 -8.8463595383e-06 1.7725428408e+00 -3.0701342589e+00 1.7725428408e+00 3.0701342589e+00 
91000 5.8113920257e+00 -8.8478839101e-06 1.7725428408e+00 -3.0701342589e+00 1.7725428408e+00 3.0701342589e+00 
91100 5.8113920264e+00 -8.8493914551e-06 1.7725428408e+00 -3.0701342589e+00 1.7725428408e+00 3.0701342589e+00 
91200 5.8113920272e+00 -8.8508814086e-06 1.7725428408e+00 -3.0701342589e+00 1.7725428408e+00 3.0701342589e+00 
91300 5.8113920279e+00 -8.8523530504e-06 1.7725428408e+00 -3.0701342589e+00 1.7725428408e+00 3.0701342589e+00 
91400 5.8113920286e+00 -8.8538057043e-06 1.7725428408e+00 -3.0701342589e+00 1.7725428408e+00 3.0701342589e+00 
91500 5.8113920293e+00 -8.8552387359e-06 1.7725428408e+00 -3.0701342589e+00 1.7725428408e+00 3.0701342589e+00 
91600 5.8113920301e+00 -8.8566515534e-06 1.7725428408e+00 -3.0701342589e+00 1.7725428408e+00 3.0701342589e+00 
91700 5.8113920308e+00 -8.8580436077e-06 1.7725428408e+00 -3.0701342589e+00 1.7725428408e+00 3.0701342589e+00 
91800 5.8113920315e+00 -8.8594143925e-06 1.7725428408e+00 -3.0701342589e+00 1.7725428408e+00 3.0701342589e+00 
91900 5.8113920321e+00 -8.8607634434e-06 1.7725428408e+00 -3.0701342589e+00 1.7725428408e+00 3.0701342589e+00 
92000 5.8113920328e+00 -8.8620903335e-06 1.7725428408e+00 -3.0701342589e+00 1.7725428408e+00 3.0701342589e+00 
92100 5.8113920335e+00 -8.8633946817e-06 1.7725428408e+00 -3.0701342589e+00 1.7725428408e+00 3.0701342589e+00 
92200 5.8113920342e+00 -8.8646761435e-06 1.7725428408e+00 -3.0701342589e+00 1.7725428408e+00 3.0701342589e+00 
92300 5.8113920348e+00 -8.8659344143e-06 1.7725428408e+00 -3.0701342589e+00 1.7725428408e+00 3.0701342589e+00 
92400 5.8113920355e+00 -8.8671692267e-06 1.7725428408e+00 -3.0701342589e+00 1.7725428408e+00 3.0701342589e+00 
92500 5.8113920361e+00 -8.8683803544e-06 1.7725428408e+00 -3.0701342589e+00 1.7725428408e+00 3.0701342589e+00 
92600 5.8113920367e+00 -8.8695676037e-06 1.7725428408e+00 -3.0701342589e+00 1.7725428408e+00 3.0701342589e+00 
92700 5.8113920374e+00 -8.8707308198e-06 1.7725428408e+00 -3.0701342589e+00 1.7725428408e+00 3.0701342589e+00 
92800 5.8113920380e+00 -8.8718698810e-06 1.7725428408e+00 -3.0701342589e+00 1.7725428408e+00 3.0701342589e+00 
92900 5.8113920386e+00 -8.8729847024e-06 1.7725428408e+00 -3.0701342589e+00 1.7725428408e+00 3.0701342589e+00 
93000 5.8113920392e+00 -8.8740752304e-06 1.7725428408e+00 -3.0701342589e+00 1.7725428408e+00 3.0701342589e+00 
93100 5.8113920398e+00 -8.8751414418e-06 1.7725428408e+00 -3.0701342589e+00 1.7725428408e+00 3.0701342589e+00 
93200 5.8113920404e+00 -8.8761833495e-06 1.7725428408e+00 -3.0701342589e+00 1.7725428408e+00 3.0701342589e+00 
93300 5.8113920410e+00 -8.8772009922e-06 1.7725428408e+00 -3.0701342589e+00 1.7725428408e+00 3.0701342589e+00 
93400 5.8113920416e+00 -8.8781944402e-06 1.7725428408e+00 -3.0701342589e+00 1.7725428408e+00 3.0701342589e+00 
93500 5.8113920421e+00 -8.8791637910e-06 1.7725428408e+00 -3.0701342589e+00 1.7725428408e+00 3.0701342589e+00 
93600 5.8113920427e+00 -8.8801091699e-06 1.7725428408e+00 -3.0701342589e+00 1.7725428408e+00 3.0701342589e+00 
93700 5.8113920433e+00 -8.8810307274e-06 1.7725428408e+00 -3.0701342589e+00 1.7725428408e+00 3.0701342589e+00 
93800 5.8113920438e+00 -8.8819286376e-06 1.7725428408e+00 -3.0701342589e+00 1.7725428408e+00 3.0701342589e+00 
93900 5.8113920444e+00 -8.8828031014e-06 1.7725428408e+00 -3.0701342589e+00 1.7725428408e+00 3.0701342589e+00 
94000 5.8113920449e+00 -8.8836543398e-06 1.7725428408e+00 -3.0701342589e+00 1.7725428408e+00 3.0701342589e+00 
94100 5.8113920455e+00 -8.8844825967e-06 1.7725428408e+00 -3.0701342589e+00 1.7725428408e+00 3.0701342589e+00 
94200 5.8113920460e+00 -8.8852881357e-06 1.7725428408e+00 -3.0701342589e+00 1.7725428408e+00 3.0701342589e+00 
94300 5.8113920465e+00 -8.8860712389e-06 1.7725428408e+00 -3.0701342589e+00 1.7725428408e+00 3.0701342589e+00 
94400 5.8113920470e+00 -8.8868322114e-06 1.7725428408e+00 -3.0701342589e+00 1.7725428408e+00 3.0701342589e+00 
94500 5.8113920475e+00 -8.8875713676e-06 1.7725428408e+00 -3.0701342589e+00 1.7725428408e+00 3.0701342589e+00 
94600 5.8113920480e+00 -8.8882890466e-06 1.7725428408e+00 -3.0701342589e+00 1.7725428408e+00 3.0701342589e+00 
94700 5.8113920485e+00 -8.8889855955e-06 1.7725428408e+00 -3.0701342589e+00 1.7725428408e+00 3.0701342589e+00 
94800 5.8113920490e+00 -8.8896613792e-06 1.7725428408e+00 -3.0701342589e+00 1.7725428408e+00 3.0701342589e+00 
94900 5.8113920495e+00 -8.8903167746e-06 1.7725428408e+00 -3.0701342589e+00 1.7725428408e+00 3.0701342589e+00 
95000 5.8113920500e+00 -8.8909521694e-06 1.7725428408e+00 -3.0701342589e+00 1.7725428408e+00 3.0701342589e+00 
95100 5.8113920505e+00 -8.8915679648e-06 1.7725428408e+00 -3.0701342589e+00 1.7725428408e+00 3.0701342589e+00 
95200 5.8113920510e+00 -8.8921645689e-06 1.7725428408e+00 -3.0701342589e+00 1.7725428408e+00 3.0701342589e+00 
95300 5.8113920514e+00 -8.8927424008e-06 1.7725428408e+00 -3.0701342589e+00 1.7725428408e+00 3.0701342589e+00 
95400 5.8113920519e+00 -8.8933018871e-06 1.7725428408e+00 -3.0701342589e+00 1.7725428408e+00 3.0701342589e+00 
95500 5.8113920523e+00 -8.8938434607e-06 1.7725428408e+00 -3.0701342589e+00 1.7725428408e+00 3.0701342589e+00 
95600 5.8113920528e+00 -8.8943675611e-06 1.7725428408e+00 -3.0701342589e+00 1.7725428408e+00 3.0701342589e+00 
95700 5.8113920532e+00 -8.8948746347e-06 1.7725428408e+00 -3.0701342589e+00 1.7725428408e+00 3.0701342589e+00 
95800 5.8113920537e+00 -8.8953651284e-06 1.7725428408e+00 -3.0701342589e+00 1.7725428408e+00 3.0701342589e+00 
95900 5.8113920541e+00 -8.8958394946e-06 1.7725428408e+00 -3.0701342589e+00 1.7725428408e+00 3.0701342589e+00 
96000 5.8113920545e+00 -8.8962981898e-06 1.7725428408e+00 -3.0701342589e+00 1.7725428408e+00 3.0701342589e+00 
96100 5.8113920550e+00 -8.8967416717e-06 1.7725428408e+00 -3.0701342589e+00 1.7725428408e+00 3.0701342589e+00 
96200 5.8113920554e+00 -8.8971703963e-06 1.7725428408e+00 -3.0701342589e+00 1.7725428408e+00 3.0701342589e+00 
96300 5.8113920558e+00 -8.8975848231e-06 1.7725428408e+00 -3.0701342589e+00 1.7725428408e+00 3.0701342589e+00 
96400 5.8113920562e+00 -8.8979854097e-06 1.7725428408e+00 -3.0701342589e+00 1.7725428408e+00 3.0701342589e+00 
96500 5.8113920566e+00 -8.8983726135e-06 1.7725428408e+00 -3.0701342589e+00 1.7725428408e+00 3.0701342589e+00 
96600 5.8113920570e+00 -8.8987468899e-06 1.7725428408e+00 -3.0701342589e+00 1.7725428408e+00 3.0701342589e+00 
96700 5.8113920574e+00 -8.8991086923e-06 1.7725428408e+00 -3.0701342589e+00 1.7725428408e+00 3.0701342589e+00 
96800 5.8113920578e+00 -8.8994584679e-06 1.7725428408e+00 -3.0701342589e+00 1.7725428408e+00 3.0701342589e+00 
96900 5.8113920582e+00 -8.8997966654e-06 1.7725428408e+00 -3.0701342589e+00 1.7725428408e+00 3.0701342589e+00 
97000 5.8113920586e+00 -8.9001237260e-06 1.7725428408e+00 -3.0701342589e+00 1.7725428408e+00 3.0701342589e+00 
97100 5.8113920590e+00 -8.9004400867e-06 1.7725428408e+00 -3.0701342589e+00 1.7725428408e+00 3.0701342589e+00 
97200 5.8113920594e+00 -8.9007461814e-06 1.7725428408e+00 -3.0701342589e+00 1.7725428408e+00 3.0701342589e+00 
97300 5.8113920597e+00 -8.9010424343e-06 1.7725428408e+00 -3.0701342589e+00 1.7725428408e+00 3.0701342589e+00 
97400 5.8113920601e+00 -8.9013292662e-06 1.7725428408e+00 -3.0701342589e+00 1.7725428408e+00 3.0701342589e+00 
97500 5.8113920605e+00 -8.9016070913e-06 1.7725428408e+00 -3.0701342589e+00 1.7725428408e+00 3.0701342589e+00 
97600 5.8113920608e+00 -8.9018763169e-06 1.7725428408e+00 -3.0701342589e+00 1.7725428408e+00 3.0701342589e+00 
97700 5.8113920612e+00 -8.9021373416e-06 1.7725428408e+00 -3.0701342589e+00 1.7725428408e+00 3.0701342589e+00 
97800 5.8113920615e+00 -8.9023905574e-06 1.7725428408e+00 -3.0701342589e+00 1.7725428408e+00 3.0701342589e+00 
97900 5.8113920619e+00 -8.9026363506e-06 1.7725428408e+00 -3.0701342589e+00 1.7725428408e+00 3.0701342589e+00 
98000 5.8113920622e+00 -8.9028750927e-06 1.7725428408e+00 -3.0701342589e+00 1.7725428408e+00 3.0701342589e+00 
98100 5.8113920626e+00 -8.9031071534e-06 1.7725428408e+00 -3.0701342589e+00 1.7725428408e+00 3.0701342589e+00 
98200 5.8113920629e+00 -8.9033328900e-06 1.7725428408e+00 -3.0701342589e+00 1.7725428408e+00 3.0701342589e+00 
98300 5.8113920632e+00 -8.9035526521e-06 1.7725428408e+00 -3.0701342589e+00 1.7725428408e+00 3.0701342589e+00 
98400 5.8113920635e+00 -8.9037667796e-06 1.7725428408e+00 -3.0701342589e+00 1.7725428408e+00 3.0701342589e+00 
98500 5.8113920639e+00 -8.9039756035e-06 1.7725428408e+00 -3.0701342589e+00 1.7725428408e+00 3.0701342589e+00 
98600 5.8113920642e+00 -8.9041794440e-06 1.7725428408e+00 -3.0701342589e+00 1.7725428408e+00 3.0701342589e+00 
98700 5.8113920645e+00 -8.9043786127e-06 1.7725428408e+00 -3.0701342589e+00 1.7725428408e+00 3.0701342589e+00 
98800 5.8113920648e+00 -8.9045734117e-06 1.7725428408e+00 -3.0701342589e+00 1.7725428408e+00 3.0701342589e+00 
98900 5.8113920651e+00 -8.9047641322e-06 1.7725428408e+00 -3.0701342589e+00 1.7725428408e+00 3.0701342589e+00 
99000 5.8113920654e+00 -8.9049510567e-06 1.7725428408e+00 -3.0701342589e+00 1.7725428408e+00 3.0701342589e+00 
99100 5.8113920657e+00 -8.9051344568e-06 1.7725428408e+00 -3.0701342589e+00 1.7725428408e+00 3.0701342589e+00 
99200 5.8113920660e+00 -8.9053145952e-06 1.7725428408e+00 -3.0701342589e+00 1.7725428408e+00 3.0701342589e+00 
99300 5.8113920663e+00 -8.9054917221e-06 1.7725428408e+00 -3.0701342589e+00 1.7725428408e+00 3.0701342589e+00 
99400 5.8113920666e+00 -8.9056660804e-06 1.7725428408e+00 -3.0701342589e+00 1.7725428408e+00 3.0701342589e+00 
99500 5.8113920669e+00 -8.9058379035e-06 1.7725428408e+00 -3.0701342589e+00 1.7725428408e+00 3.0701342589e+00 
99600 5.8113920672e+00 -8.9060074086e-06 1.7725428408e+00 -3.0701342589e+00 1.7725428408e+00 3.0701342589e+00 
99700 5.8113920675e+00 -8.9061748122e-06 1.7725428408e+00 -3.0701342589e+00 1.7725428408e+00 3.0701342589e+00 
99800 5.8113920678e+00 -8.9063403143e-06 1.7725428408e+00 -3.0701342589e+00 1.7725428408e+00 3.0701342589e+00 
99900 5.8113920680e+00 -8.9065041088e-06 1.7725428408e+00 -3.0701342589e+00 1.7725428408e+00 3.0701342589e+00 
100000 5.8113920683e+00 -8.9066663774e-06 1.7725428408e+00 -3.0701342589e+00 1.7725428408e+00 3.0701342589e+00 
100100 5.8113920686e+00 -8.9068272929e-06 1.7725428408e+00 -3.0701342589e+00 1.7725428408e+00 3.0701342589e+00 
100200 5.8113920689e+00 -8.9069870209e-06 1.7725428408e+00 -3.0701342589e+00 1.7725428408e+00 3.0701342589e+00 
100300 5.8113920691e+00 -8.9071457136e-06 1.7725428408e+00 -3.0701342589e+00 1.7725428408e+00 3.0701342589e+00 
100400 5.8113920694e+00 -8.9073035174e-06 1.7725428408e+00 -3.0701342589e+00 1.7725428408e+00 3.0701342589e+00 
100500 5.8113920696e+00 -8.9074605685e-06 1.7725428408e+00 -3.0701342589e+00 1.7725428408e+00 3.0701342589e+00 
100600 5.8113920699e+00 -8.9076169960e-06 1.7725428408e+00 -3.0701342589e+00 1.7725428408e+00 3.0701342589e+00 
100700 5.8113920702e+00 -8.9077729161e-06 1.7725428408e+00 -3.0701342589e+00 1.7725428408e+00 3.0701342589e+00 
100800 5.8113920704e+00 -8.9079284417e-06 1.7725428408e+00 -3.0701342589e+00 1.7725428408e+00 3.0701342589e+00 
100900 5.8113920707e+00 -8.9080836735e-06 1.7725428408e+00 -3.0701342589e+00 1.7725428408e+00 3.0701342589e+00 
101000 5.8113920709e+00 -8.9082387064e-06 1.7725428408e+00 -3.0701342589e+00 1.7725428408e+00 3.0701342589e+00 
101100 5.8113920711e+00 -8.9083936251e-06 1.7725428408e+00 -3.0701342589e+00 1.7725428408e+00 3.0701342589e+00 
101200 5.8113920714e+00 -8.9085485099e-06 1.7725428408e+00 -3.0701342589e+00 1.7725428408e+00 3.0701342589e+00 
101300 5.8113920716e+00 -8.9087034318e-06 1.7725428408e+00 -3.0701342589e+00 1.7725428408e+00 3.0701342589e+00 
101400 5.8113920718e+00 -8.9088584539e-06 1.7725428408e+00 -3.0701342589e+00 1.7725428408e+00 3.0701342589e+00 
101500 5.8113920721e+00 -8.9090136339e-06 1.7725428408e+00 -3.0701342589e+00 1.7725428408e+00 3.0701342589e+00 
101600 5.8113920723e+00 -8.9091690200e-06 1.7725428408e+00 -3.0701342589e+00 1.7725428408e+00 3.0701342589e+00 
101700 5.8113920725e+00 -8.9093246583e-06 1.7725428408e+00 -3.0701342589e+00 1.7725428408e+00 3.0701342589e+00 
101800 5.8113920728e+00 -8.9094805825e-06 1.7725428408e+00 -3.0701342589e+00 1.7725428408e+00 3.0701342589e+00 
101900 5.8113920730e+00 -8.9096368279e-06 1.7725428408e+00 -3.0701342589e+00 1.7725428408e+00 3.0701342589e+00 
102000 5.8113920732e+00 -8.9097934151e-06 1.7725428408e+00 -3.0701342589e+00 1.7725428408e+00 3.0701342589e+00 
102100 5.8113920734e+00 -8.9099503657e-06 1.7725428408e+00 -3.0701342589e+00 1.7725428408e+00 3.0701342589e+00 
102200 5.8113920736e+00 -8.9101076943e-06 1.7725428408e+00 -3.0701342589e+00 1.7725428408e+00 3.0701342589e+00 
102300 5.8113920738e+00 -8.9102654089e-06 1.7725428408e+00 -3.0701342589e+00 1.7725428408e+00 3.0701342589e+00 
102400 5.8113920740e+00 -8.9104235139e-06 1.7725428408e+00 -3.0701342589e+00 1.7725428408e+00 3.0701342589e+00 
102500 5.8113920743e+00 -8.9105820091e-06 1.7725428408e+00 -3.0701342589e+00 1.7725428408e+00 3.0701342589e+00 
102600 5.8113920745e+00 -8.9107408868e-06 1.7725428408e+00 -3.0701342589e+00 1.7725428408e+00 3.0701342589e+00 
102700 5.8113920747e+00 -8.9109001412e-06 1.7725428408e+00 -3.0701342589e+00 1.7725428408e+00 3.0701342589e+00 
102800 5.8113920749e+00 -8.9110597579e-06 1.7725428408e+00 -3.0701342589e+00 1.7725428408e+00 3.0701342589e+00 
102900 5.8113920751e+00 -8.9112197162e-06 1.7725428408e+00 -3.0701342589e+00 1.7725428408e+00 3.0701342589e+00 
103000 5.8113920752e+00 -8.9113799991e-06 1.7725428408e+00 -3.0701342589e+00 1.7725428408e+00 3.0701342589e+00 
103100 5.8113920754e+00 -8.9115405812e-06 1.7725428408e+00 -3.0701342589e+00 1.7725428408e+00 3.0701342589e+00 
103200 5.8113920756e+00 -8.9117014357e-06 1.7725428408e+00 -3.0701342589e+00 1.7725428408e+00 3.0701342589e+00 
103300 5.8113920758e+00 -8.9118625323e-06 1.7725428408e+00 -3.0701342589e+00 1.7725428408e+00 3.0701342589e+00 
103400 5.8113920760e+00 -8.9120238364e-06 1.7725428408e+00 -3.0701342589e+00 1.7725428408e+00 3.0701342589e+00 
103500 5.8113920762e+00 -8.9121853159e-06 1.7725428408e+00 -3.0701342589e+00 1.7725428408e+00 3.0701342589e+00 
103600 5.8113920764e+00 -8.9123469297e-06 1.7725428408e+00 -3.0701342589e+00 1.7725428408e+00 3.0701342589e+00 
103700 5.8113920766e+00 -8.9125086410e-06 1.7725428408e+00 -3.0701342589e+00 1.7725428408e+00 3.0701342589e+00 
103800 5.8113920767e+00 -8.9126704072e-06 1.7725428408e+00 -3.0701342589e+00 1.7725428408e+00 3.0701342589e+00 
103900 5.8113920769e+00 -8.9128321850e-06 1.7725428408e+00 -3.0701342589e+00 1.7725428408e+00 3.0701342589e+00 
104000 5.8113920771e+00 -8.9129939288e-06 1.7725428408e+00 -3.0701342589e+00 1.7725428408e+00 3.0701342589e+00 
104100 5.8113920773e+00 -8.9131555945e-06 1.7725428408e+00 -3.0701342589e+00 1.7725428408e+00 3.0701342589e+00 
104200 5.8113920774e+00 -8.9133171341e-06 1.7725428408e+00 -3.0701342589e+00 1.7725428408e+00 3.0701342589e+00 
104300 5.8113920776e+00 -8.9134784991e-06 1.7725428408e+00 -3.0701342589e+00 1.7725428408e+00 3.0701342589e+00 
104400 5.8113920778e+00 -8.9136396405e-06 1.7725428408e+00 -3.0701342589e+00 1.7725428408e+00 3.0701342589e+00 
104500 5.8113920779e+00 -8.9138005093e-06 1.7725428408e+00 -3.0701342589e+00 1.7725428408e+00 3.0701342589e+00 
104600 5.8113920781e+00 -8.9139610549e-06 1.7725428408e+00 -3.0701342589e+00 1.7725428408e+00 3.0701342589e+00 
104700 5.8113920783e+00 -8.9141212271e-06 1.7725428408e+00 -3.0701342589e+00 1.7725428408e+00 3.0701342589e+00 
104800 5.8113920784e+00 -8.9142809753e-06 1.7725428408e+00 -3.0701342589e+00 1.7725428408e+00 3.0701342589e+00 
104900 5.8113920786e+00 -8.9144402486e-06 1.7725428408e+00 -3.0701342589e+00 1.7725428408e+00 3.0701342589e+00 
105000 5.8113920787e+00 -8.9145989965e-06 1.7725428408e+00 -3.0701342589e+00 1.7725428408e+00 3.0701342589e+00 
105100 5.8113920789e+00 -8.9147571686e-06 1.7725428408e+00 -3.0701342589e+00 1.7725428408e+00 3.0701342589e+00 
105200 5.8113920790e+00 -8.9149147139e-06 1.7725428408e+00 -3.0701342589e+00 1.7725428408e+00 3.0701342589e+00 
105300 5.8113920792e+00 -8.9150715838e-06 1.7725428408e+00 -3.0701342589e+00 1.7725428408e+00 3.0701342589e+00 
105400 5.8113920793e+00 -8.9152277304e-06 1.7725428408e+00 -3.0701342589e+00 1.7725428408e+00 3.0701342589e+00 
105500 5.8113920795e+00 -8.9153831020e-06 1.7725428408e+00 -3.0701342589e+00 1.7725428408e+00 3.0701342589e+00 
105600 5.8113920796e+00 -8.9155376531e-06 1.7725428408e+00 -3.0701342589e+00 1.7725428408e+00 3.0701342589e+00 
105700 5.8113920798e+00 -8.9156913365e-06 1.7725428408e+00 -3.0701342589e+00 1.7725428408e+00 3.0701342589e+00 
105800 5.8113920799e+00 -8.9158441056e-06 1.7725428408e+00 -3.0701342589e+00 1.7725428408e+00 3.0701342589e+00 
105900 5.8113920800e+00 -8.9159959156e-06 1.7725428408e+00 -3.0701342589e+00 1.7725428408e+00 3.0701342589e+00 
106000 5.8113920802e+00 -8.9161467221e-06 1.7725428408e+00 -3.0701342589e+00 1.7725428408e+00 3.0701342589e+00 
106100 5.8113920803e+00 -8.9162964831e-06 1.7725428408e+00 -3.0701342589e+00 1.7725428408e+00 3.0701342589e+00 
106200 5.8113920805e+00 -8.9164451584e-06 1.7725428408e+00 -3.0701342589e+00 1.7725428408e+00 3.0701342589e+00 
106300 5.8113920806e+00 -8.9165927049e-06 1.7725428408e+00 -3.0701342589e+00 1.7725428408e+00 3.0701342589e+00 
106400 5.8113920807e+00 -8.9167390872e-06 1.7725428408e+00 -3.0701342589e+00 1.7725428408e+00 3.0701342589e+00 
106500 5.8113920809e+00 -8.9168842636e-06 1.7725428408e+00 -3.0701342589e+00 1.7725428408e+00 3.0701342589e+00 
106600 5.8113920810e+00 -8.9170282011e-06 1.7725428408e+00 -3.0701342589e+00 1.7725428408e+00 3.0701342589e+00 
106700 5.8113920811e+00 -8.9171708645e-06 1.7725428408e+00 -3.0701342589e+00 1.7725428408e+00 3.0701342589e+00 
106800 5.8113920812e+00 -8.9173122205e-06 1.7725428408e+00 -3.0701342589e+00 1.7725428408e+00 3.0701342589e+00 
106900 5.8113920814e+00 -8.9174522365e-06 1.7725428408e+00 -3.0701342589e+00 1.7725428408e+00 3.0701342589e+00 
107000 5.8113920815e+00 -8.9175908834e-06 1.7725428408e+00 -3.0701342589e+00 1.7725428408e+00 3.0701342589e+00 
107100 5.8113920816e+00 -8.9177281331e-06 1.7725428408e+00 -3.0701342589e+00 1.7725428408e+00 3.0701342589e+00 
107200 5.8113920817e+00 -8.9178639591e-06 1.7725428408e+00 -3.0701342589e+00 1.7725428408e+00 3.0701342589e+00 
107300 5.8113920819e+00 -8.9179983349e-06 1.7725428408e+00 -3.0701342589e+00 1.7725428408e+00 3.0701342589e+00 
107400 5.8113920820e+00 -8.9181312376e-06 1.7725428408e+00 -3.0701342589e+00 1.7725428408e+00 3.0701342589e+00 
107500 5.8113920821e+00 -8.9182626454e-06 1.7725428408e+00 -3.0701342589e+00 1.7725428408e+00 3.0701342589e+00 
107600 5.8113920822e+00 -8.9183925383e-06 1.7725428408e+00 -3.0701342589e+00 1.7725428408e+00 3.0701342589e+00 
107700 5.8113920823e+00 -8.9185208980e-06 1.7725428408e+00 -3.0701342589e+00 1.7725428408e+00 3.0701342589e+00 
107800 5.8113920824e+00 -8.9186477068e-06 1.7725428408e+00 -3.0701342589e+00 1.7725428408e+00 3.0701342589e+00 
107900 5.8113920826e+00 -8.9187729481e-06 1.7725428408e+00 -3.0701342589e+00 1.7725428408e+00 3.0701342589e+00 
108000 5.8113920827e+00 -8.9188966126e-06 1.7725428408e+00 -3.0701342589e+00 1.7725428408e+00 3.0701342589e+00 
108100 5.8113920828e+00 -8.9190186840e-06 1.7725428408e+00 -3.0701342589e+00 1.7725428408e+00 3.0701342589e+00 
108200 5.8113920829e+00 -8.9191391525e-06 1.7725428408e+00 -3.0701342589e+00 1.7725428408e+00 3.0701342589e+00 
108300 5.8113920830e+00 -8.9192580108e-06 1.7725428408e+00 -3.0701342589e+00 1.7725428408e+00 3.0701342589e+00 
108400 5.8113920831e+00 -8.9193752505e-06 1.7725428408e+00 -3.0701342589e+00 1.7725428408e+00 3.0701342589e+00 
108500 5.8113920832e+00 -8.9194908663e-06 1.7725428408e+00 -3.0701342589e+00 1.7725428408e+00 3.0701342589e+00 
108600 5.8113920833e+00 -8.9196048531e-06 1.7725428408e+00 -3.0701342589e+00 1.7725428408e+00 3.0701342589e+00 
108700 5.8113920834e+00 -8.9197172097e-06 1.7725428408e+00 -3.0701342589e+00 1.7725428408e+00 3.0701342589e+00 
108800 5.8113920835e+00 -8.9198279336e-06 1.7725428408e+00 -3.0701342589e+00 1.7725428408e+00 3.0701342589e+00 
108900 5.8113920836e+00 -8.9199370242e-06 1.7725428408e+00 -3.0701342589e+00 1.7725428408e+00 3.0701342589e+00 
109000 5.8113920837e+00 -8.9200444847e-06 1.7725428408e+00 -3.0701342589e+00 1.7725428408e+00 3.0701342589e+00 
109100 5.8113920838e+00 -8.9201503164e-06 1.7725428408e+00 -3.0701342589e+00 1.7725428408e+00 3.0701342589e+00 
109200 5.8113920839e+00 -8.9202545256e-06 1.7725428408e+00 -3.0701342589e+00 1.7725428408e+00 3.0701342589e+00 
109300 5.8113920840e+00 -8.9203571148e-06 1.7725428408e+00 -3.0701342589e+00 1.7725428408e+00 3.0701342589e+00 
109400 5.8113920841e+00 -8.9204580932e-06 1.7725428408e+00 -3.0701342589e+00 1.7725428408e+00 3.0701342589e+00 
109500 5.8113920842e+00 -8.9205574674e-06 1.7725428408e+00 -3.0701342589e+00 1.7725428408e+00 3.0701342589e+00 
109600 5.8113920843e+00 -8.9206552468e-06 1.7725428408e+00 -3.0701342589e+00 1.7725428408e+00 3.0701342589e+00 
109700 5.8113920844e+00 -8.9207514422e-06 1.7725428408e+00 -3.0701342589e+00 1.7725428408e+00 3.0701342589e+00 
109800 5.8113920845e+00 -8.9208460638e-06 1.7725428408e+00 -3.0701342589e+00 1.7725428408e+00 3.0701342589e+00 
109900 5.8113920846e+00 -8.9209391245e-06 1.7725428408e+00 -3.0701342589e+00 1.7725428408e+00 3.0701342589e+00 
110000 5.8113920846e+00 -8.9210306382e-06 1.7725428408e+00 -3.0701342589e+00 1.7725428408e+00 3.0701342589e+00 
110100 5.8113920847e+00 -8.9211206191e-06 1.7725428408e+00 -3.0701342589e+00 1.7725428408e+00 3.0701342589e+00 
110200 5.8113920848e+00 -8.9212090805e-06 1.7725428408e+00 -3.0701342589e+00 1.7725428408e+00 3.0701342589e+00 
110300 5.8113920849e+00 -8.9212960405e-06 1.7725428408e+00 -3.0701342589e+00 1.7725428408e+00 3.0701342589e+00 
110400 5.8113920850e+00 -8.9213815154e-06 1.7725428408e+00 -3.0701342589e+00 1.7725428408e+00 3.0701342589e+00 
110500 5.8113920851e+00 -8.9214655228e-06 1.7725428408e+00 -3.0701342589e+00 1.7725428408e+00 3.0701342589e+00 
110600 5.8113920852e+00 -8.9215480817e-06 1.7725428408e+00 -3.0701342589e+00 1.7725428408e+00 3.0701342589e+00 
110700 5.8113920852e+00 -8.9216292118e-06 1.7725428408e+00 -3.0701342589e+00 1.7725428408e+00 3.0701342589e+00 
110800 5.8113920853e+00 -8.9217089311e-06 1.7725428408e+00 -3.0701342589e+00 1.7725428408e+00 3.0701342589e+00 
110900 5.8113920854e+00 -8.9217872604e-06 1.7725428408e+00 -3.0701342589e+00 1.7725428408e+00 3.0701342589e+00 
111000 5.8113920855e+00 -8.9218642210e-06 1.7725428408e+00 -3.0701342589e+00 1.7725428408e+00 3.0701342589e+00 
111100 5.8113920856e+00 -8.9219398341e-06 1.7725428408e+00 -3.0701342589e+00 1.7725428408e+00 3.0701342589e+00 
111200 5.8113920856e+00 -8.9220141219e-06 1.7725428408e+00 -3.0701342589e+00 1.7725428408e+00 3.0701342589e+00 
111300 5.8113920857e+00 -8.9220871072e-06 1.7725428408e+00 -3.0701342589e+00 1.7725428408e+00 3.0701342589e+00 
111400 5.8113920858e+00 -8.9221588105e-06 1.7725428408e+00 -3.0701342589e+00 1.7725428408e+00 3.0701342589e+00 
111500 5.8113920859e+00 -8.9222292573e-06 1.7725428408e+00 -3.0701342589e+00 1.7725428408e+00 3.0701342589e+00 
111600 5.8113920859e+00 -8.9222984695e-06 1.7725428408e+00 -3.0701342589e+00 1.7725428408e+00 3.0701342589e+00 
111700 5.8113920860e+00 -8.9223664725e-06 1.7725428408e+00 -3.0701342589e+00 1.7725428408e+00 3.0701342589e+00 
111800 5.8113920861e+00 -8.9224332880e-06 1.7725428408e+00 -3.0701342589e+00 1.7725428408e+00 3.0701342589e+00 
111900 5.8113920862e+00 -8.9224989424e-06 1.7725428408e+00 -3.0701342589e+00 1.7725428408e+00 3.0701342589e+00 
112000 5.8113920862e+00 -8.9225634579e-06 1.7725428408e+00 -3.0701342589e+00 1.7725428408e+00 3.0701342589e+00 
112100 5.8113920863e+00 -8.9226268591e-06 1.7725428408e+00 -3.0701342589e+00 1.7725428408e+00 3.0701342589e+00 
112200 5.8113920864e+00 -8.9226891722e-06 1.7725428408e+00 -3.0701342589e+00 1.7725428408e+00 3.0701342589e+00 
112300 5.8113920864e+00 -8.9227504187e-06 1.7725428408e+00 -3.0701342589e+00 1.7725428408e+00 3.0701342589e+00 
112400 5.8113920865e+00 -8.9228106264e-06 1.7725428408e+00 -3.0701342589e+00 1.7725428408e+00 3.0701342589e+00 
112500 5.8113920866e+00 -8.9228698164e-06 1.7725428408e+00 -3.0701342589e+00 1.7725428408e+00 3.0701342589e+00 
112600 5.8113920866e+00 -8.9229280165e-06 1.7725428408e+00 -3.0701342589e+00 1.7725428408e+00 3.0701342589e+00 
112700 5.8113920867e+00 -8.9229852493e-06 1.7725428408e+00 -3.0701342589e+00 1.7725428408e+00 3.0701342589e+00 
112800 5.8113920868e+00 -8.9230415374e-06 1.7725428408e+00 -3.0701342589e+00 1.7725428408e+00 3.0701342589e+00 
112900 5.8113920868e+00 -8.9230969087e-06 1.7725428408e+00 -3.0701342589e+00 1.7725428408e+00 3.0701342589e+00 
113000 5.8113920869e+00 -8.9231513839e-06 1.7725428408e+00 -3.0701342589e+00 1.7725428408e+00 3.0701342589e+00 
113100 5.8113920870e+00 -8.9232049887e-06 1.7725428408e+00 -3.0701342589e+00 1.7725428408e+00 3.0701342589e+00 
113200 5.8113920870e+00 -8.9232577463e-06 1.7725428408e+00 -3.0701342589e+00 1.7725428408e+00 3.0701342589e+00 
113300 5.8113920871e+00 -8.9233096788e-06 1.7725428408e+00 -3.0701342589e+00 1.7725428408e+00 3.0701342589e+00 
113400 5.8113920871e+00 -8.9233608103e-06 1.7725428408e+00 -3.0701342589e+00 1.7725428408e+00 3.0701342589e+00 
113500 5.8113920872e+00 -8.9234111655e-06 1.7725428408e+00 -3.0701342589e+00 1.7725428408e+00 3.0701342589e+00 
113600 5.8113920873e+00 -8.9234607628e-06 1.7725428408e+00 -3.0701342589e+00 1.7725428408e+00 3.0701342589e+00 
113700 5.8113920873e+00 -8.9235096266e-06 1.7725428408e+00 -3.0701342589e+00 1.7725428408e+00 3.0701342589e+00 
113800 5.8113920874e+00 -8.9235577800e-06 1.7725428408e+00 -3.0701342589e+00 1.7725428408e+00 3.0701342589e+00 
113900 5.8113920874e+00 -8.9236052431e-06 1.7725428408e+00 -3.0701342589e+00 1.7725428408e+00 3.0701342589e+00 
114000 5.8113920875e+00 -8.9236520372e-06 1.7725428408e+00 -3.0701342589e+00 1.7725428408e+00 3.0701342589e+00 
114100 5.8113920876e+00 -8.9236981824e-06 1.7725428408e+00 -3.0701342589e+00 1.7725428408e+00 3.0701342589e+00 
114200 5.8113920876e+00 -8.9237437009e-06 1.7725428408e+00 -3.0701342589e+00 1.7725428408e+00 3.0701342589e+00 
114300 5.8113920877e+00 -8.9237886107e-06 1.7725428408e+00 -3.0701342589e+00 1.7725428408e+00 3.0701342589e+00 
114400 5.8113920877e+00 -8.9238329329e-06 1.7725428408e+00 -3.0701342589e+00 1.7725428408e+00 3.0701342589e+00 
114500 5.8113920878e+00 -8.9238766858e-06 1.7725428408e+00 -3.0701342589e+00 1.7725428408e+00 3.0701342589e+00 
114600 5.8113920878e+00 -8.9239198888e-06 1.7725428408e+00 -3.0701342589e+00 1.7725428408e+00 3.0701342589e+00 
114700 5.8113920879e+00 -8.9239625600e-06 1.7725428408e+00 -3.0701342589e+00 1.7725428408e+00 3.0701342589e+00 
114800 5.8113920879e+00 -8.9240047176e-06 1.7725428408e+00 -3.0701342589e+00 1.7725428408e+00 3.0701342589e+00 
114900 5.8113920880e+00 -8.9240463779e-06 1.7725428408e+00 -3.0701342589e+00 1.7725428408e+00 3.0701342589e+00 
115000 5.8113920880e+00 -8.9240875590e-06 1.7725428408e+00 -3.0701342589e+00 1.7725428408e+00 3.0701342589e+00 
115100 5.8113920881e+00 -8.9241282763e-06 1.7725428408e+00 -3.0701342589e+00 1.7725428408e+00 3.0701342589e+00 
115200 5.8113920881e+00 -8.9241420174e-06 1.7725428408e+00 -3.0701342589e+00 1.7725428408e+00 3.0701342589e+00 
115200 5.8113920881e+00 -8.9241420174e-06 1.7725428408e+00 -3.0701342589e+00 1.7725428408e+00 3.0701342589e+00 
