# step Hamiltonian StressXX CellTensor1 CellTensor2 CellTensor3 CellTensor4 
0 6.2936891289e+00 -8.2273900735e-02 1.7438352029e+00 -3.0204111715e+00 1.7438352029e+00 3.0204111715e+00 
100 6.2888601940e+00 -7.9646154843e-02 1.7438352029e+00 -3.0204111715e+00 1.7438352029e+00 3.0204111715e+00 
200 6.2843290909e+00 -7.5483044294e-02 1.7461193498e+00 -3.0243674300e+00 1.7461193498e+00 3.0243674300e+00 
300 6.2803082426e+00 -7.1621742704e-02 1.7482812467e+00 -3.0281119451e+00 1.7482812467e+00 3.0281119451e+00 
400 6.2767776711e+00 -6.8045860489e-02 1.7503299935e+00 -3.0316604787e+00 1.7503299935e+00 3.0316604787e+00 
500 6.2737157903e+00 -6.4740003505e-02 1.7522741537e+00 -3.0350278631e+00 1.7522741537e+00 3.0350278631e+00 
600 6.2710995330e+00 -6.1689739669e-02 1.7541217918e+00 -3.0382280660e+00 1.7541217918e+00 3.0382280660e+00 
700 6.2689045093e+00 -5.8881555227e-02 1.7558805076e+00 -3.0412742512e+00 1.7558805076e+00 3.0412742512e+00 
800 6.2671051898e+00 -5.6302802613e-02 1.7575574702e+00 -3.0441788356e+00 1.7575574702e+00 3.0441788356e+00 
900 6.2656751083e+00 -5.3941641857e-02 1.7591594476e+00 -3.0469535418e+00 1.7591594476e+00 3.0469535418e+00 
1000 6.2645870776e+00 -5.1786977540e-02 1.7606928353e+00 -3.0496094472e+00 1.7606928353e+00 3.0496094472e+00 
1100 6.2638134142e+00 -4.9828393109e-02 1.7621636819e+00 -3.0521570283e+00 1.7621636819e+00 3.0521570283e+00 
1200 6.2633261649e+00 -4.8056084258e-02 1.7635777120e+00 -3.0546062003e+00 1.7635777120e+00 3.0546062003e+00 
1300 6.2630973334e+00 -4.6460792846e-02 1.7649403474e+00 -3.0569663540e+00 1.7649403474e+00 3.0569663540e+00 
1400 6.2630990998e+00 -4.5033742654e-02 1.7662567251e+00 -3.0592463871e+00 1.7662567251e+00 3.0592463871e+00 
1500 6.2633040326e+00 -4.3766578022e-02 1.7675317140e+00 -3.0614547327e+00 1.7675317140e+00 3.0614547327e+00 
1600 6.2636852875e+00 -4.2651306252e-02 1.7687699290e+00 -3.0635993839e+00 1.7687699290e+00 3.0635993839e+00 
1700 6.2642167920e+00 -4.1680244431e-02 1.7699757429e+00 -3.0656879149e+00 1.7699757429e+00 3.0656879149e+00 
1800 6.2648734133e+00 -4.0845971151e-02 1.7711532976e+00 -3.0677274994e+00 1.7711532976e+00 3.0677274994e+00 
1900 6.2656311083e+00 -4.0141283472e-02 1.7723065123e+00 -3.0697249258e+00 1.7723065123e+00 3.0697249258e+00 
2000 6.2664670542e+00 -3.9559159261e-02 1.7734390916e+00 -3.0716866108e+00 1.7734390916e+00 3.0716866108e+00 
2100 6.2673597592e+00 -3.9092724992e-02 1.7745545318e+00 -3.0736186098e+00 1.7745545318e+00 3.0736186098e+00 
2200 6.2682891538e+00 -3.8735228904e-02 1.7756561256e+00 -3.0755266263e+00 1.7756561256e+00 3.0755266263e+00 
2300 6.2692366613e+00 -3.8480019366e-02 1.7767469672e+00 -3.0774160194e+00 1.7767469672e+00 3.0774160194e+00 
2400 6.2701852500e+00 -3.8320528213e-02 1.7778299556e+00 -3.0792918103e+00 1.7778299556e+00 3.0792918103e+00 
2500 6.2711194653e+00 -3.8250258716e-02 1.7789077976e+00 -3.0811586875e+00 1.7789077976e+00 3.0811586875e+00 
2600 6.2720254452e+00 -3.8262777859e-02 1.7799830110e+00 -3.0830210117e+00 1.7799830110e+00 3.0830210117e+00 
2700 6.2728909183e+00 -3.8351712508e-02 1.7810579265e+00 -3.0848828199e+00 1.7810579265e+00 3.0848828199e+00 
2800 6.2737051873e+00 -3.8510749050e-02 1.7821346903e+00 -3.0867478295e+00 1.7821346903e+00 3.0867478295e+00 
2900 6.2744590971e+00 -3.8733636083e-02 1.7832152663e+00 -3.0886194420e+00 1.7832152663e+00 3.0886194420e+00 
3000 6.2751449921e+00 -3.9014189705e-02 1.7843014381e+00 -3.0905007469e+00 1.7843014381e+00 3.0905007469e+00 
3100 6.2757566604e+00 -3.9346300972e-02 1.7853948120e+00 -3.0923945260e+00 1.7853948120e+00 3.0923945260e+00 
3200 6.2762892708e+00 -3.9723945116e-02 1.7864968188e+00 -3.0943032578e+00 1.7864968188e+00 3.0943032578e+00 
3300 6.2767392996e+00 -4.0141192104e-02 1.7876087173e+00 -3.0962291225e+00 1.7876087173e+00 3.0962291225e+00 
3400 6.2771044521e+00 -4.0592218179e-02 1.7887315971e+00 -3.0981740072e+00 1.7887315971e+00 3.0981740072e+00 
3500 6.2773835786e+00 -4.1071318022e-02 1.7898663818e+00 -3.1001395121e+00 1.7898663818e+00 3.1001395121e+00 
3600 6.2775765868e+00 -4.1572917223e-02 1.7910138335e+00 -3.1021269566e+00 1.7910138335e+00 3.1021269566e+00 
3700 6.2776843511e+00 -4.2091584777e-02 1.7921745561e+00 -3.1041373871e+00 1.7921745561e+00 3.1041373871e+00 
3800 6.2777086210e+00 -4.2622045349e-02 1.7933490002e+00 -3.1061715841e+00 1.7933490002e+00 3.1061715841e+00 
3900 6.2776519293e+00 -4.3159191099e-02 1.7945374680e+00 -3.1082300706e+00 1.7945374680e+00 3.1082300706e+00 
4000 6.2775175003e+00 -4.3698092883e-02 1.7957401179e+00 -3.1103131214e+00 1.7957401179e+00 3.1103131214e+00 
4100 6.2773091601e+00 -4.4234010669e-02 1.7969569706e+00 -3.1124207721e+00 1.7969569706e+00 3.1124207721e+00 
4200 6.2770312491e+00 -4.4762403069e-02 1.7981879143e+00 -3.1145528292e+00 1.7981879143e+00 3.1145528292e+00 
4300 6.2766885371e+00 -4.5278935876e-02 1.7994327109e+00 -3.1167088801e+00 1.7994327109e+00 3.1167088801e+00 
4400 6.2762861421e+00 -4.5779489556e-02 1.8006910021e+00 -3.1188883044e+00 1.8006910021e+00 3.1188883044e+00 
4500 6.2758294527e+00 -4.6260165652e-02 1.8019623161e+00 -3.1210902848e+00 1.8019623161e+00 3.1210902848e+00 
4600 6.2753240556e+00 -4.6717292076e-02 1.8032460736e+00 -3.1233138181e+00 1.8032460736e+00 3.1233138181e+00 
4700 6.2747756664e+00 -4.7147427297e-02 1.8045415951e+00 -3.1255577271e+00 1.8045415951e+00 3.1255577271e+00 
4800 6.2741900664e+00 -4.7547363441e-02 1.8058481073e+00 -3.1278206726e+00 1.8058481073e+00 3.1278206726e+00 
4900 6.2735730432e+00 -4.7914128324e-02 1.8071647501e+00 -3.1301011648e+00 1.8071647501e+00 3.1301011648e+00 
5000 6.2729303374e+00 -4.8244986469e-02 1.8084905833e+00 -3.1323975753e+00 1.8084905833e+00 3.1323975753e+00 
5100 6.2722675932e+00 -4.8537439159e-02 1.8098245939e+00 -3.1347081495e+00 1.8098245939e+00 3.1347081495e+00 
5200 6.2715903143e+00 -4.8789223570e-02 1.8111657026e+00 -3.1370310178e+00 1.8111657026e+00 3.1370310178e+00 
5300 6.2709038253e+00 -4.8998311054e-02 1.8125127706e+00 -3.1393642080e+00 1.8125127706e+00 3.1393642080e+00 
5400 6.2702132371e+00 -4.9162904643e-02 1.8138646064e+00 -3.1417056564e+00 1.8138646064e+00 3.1417056564e+00 
5500 6.2695234168e+00 -4.9281435825e-02 1.8152199728e+00 -3.1440532198e+00 1.8152199728e+00 3.1440532198e+00 
5600 6.2688389626e+00 -4.9352560668e-02 1.8165775927e+00 -3.1464046864e+00 1.8165775927e+00 3.1464046864e+00 
5700 6.2681641830e+00 -4.9375155361e-02 1.8179361558e+00 -3.1487577868e+00 1.8179361558e+00 3.1487577868e+00 
5800 6.2675030790e+00 -4.9348311224e-02 1.8192943250e+00 -3.1511102048e+00 1.8192943250e+00 3.1511102048e+00 
5900 6.2668593314e+00 -4.9271329262e-02 1.8206507421e+00 -3.1534595881e+00 1.8206507421e+00 3.1534595881e+00 
6000 6.2662362911e+00 -4.9143714307e-02 1.8220040337e+00 -3.1558035580e+00 1.8220040337e+00 3.1558035580e+00 
6100 6.2656369722e+00 -4.8965168815e-02 1.8233528170e+00 -3.1581397192e+00 1.8233528170e+00 3.1581397192e+00 
6200 6.2650640496e+00 -4.8735586367e-02 1.8246957051e+00 -3.1604656695e+00 1.8246957051e+00 3.1604656695e+00 
6300 6.2645198579e+00 -4.8455044905e-02 1.8260313121e+00 -3.1627790087e+00 1.8260313121e+00 3.1627790087e+00 
6400 6.2640063943e+00 -4.8123799774e-02 1.8273582583e+00 -3.1650773470e+00 1.8273582583e+00 3.1650773470e+00 
6500 6.2635253228e+00 -4.7742276578e-02 1.8286751751e+00 -3.1673583138e+00 1.8286751751e+00 3.1673583138e+00 
6600 6.2630779815e+00 -4.7311063909e-02 1.8299807091e+00 -3.1696195650e+00 1.8299807091e+00 3.1696195650e+00 
6700 6.2626653915e+00 -4.6830905963e-02 1.8312735268e+00 -3.1718587910e+00 1.8312735268e+00 3.1718587910e+00 
6800 6.2622882673e+00 -4.6302695078e-02 1.8325523186e+00 -3.1740737234e+00 1.8325523186e+00 3.1740737234e+00 
6900 6.2619470291e+00 -4.5727464213e-02 1.8338158027e+00 -3.1762621419e+00 1.8338158027e+00 3.1762621419e+00 
7000 6.2616418165e+00 -4.5106379391e-02 1.8350627284e+00 -3.1784218807e+00 1.8350627284e+00 3.1784218807e+00 
7100 6.2613725033e+00 -4.4440732119e-02 1.8362918801e+00 -3.1805508339e+00 1.8362918801e+00 3.1805508339e+00 
7200 6.2611387129e+00 -4.3731931802e-02 1.8375020802e+00 -3.1826469619e+00 1.8375020802e+00 3.1826469619e+00 
7300 6.2609398354e+00 -4.2981498166e-02 1.8386921917e+00 -3.1847082955e+00 1.8386921917e+00 3.1847082955e+00 
7400 6.2607750445e+00 -4.2191053689e-02 1.8398611217e+00 -3.1867329417e+00 1.8398611217e+00 3.1867329417e+00 
7500 6.2606433153e+00 -4.1362316058e-02 1.8410078233e+00 -3.1887190871e+00 1.8410078233e+00 3.1887190871e+00 
7600 6.2605434427e+00 -4.0497090662e-02 1.8421312981e+00 -3.1906650026e+00 1.8421312981e+00 3.1906650026e+00 
7700 6.2604740594e+00 -3.9597263115e-02 1.8432305986e+00 -3.1925690469e+00 1.8432305986e+00 3.1925690469e+00 
7800 6.2604336547e+00 -3.8664791816e-02 1.8443048295e+00 -3.1944296694e+00 1.8443048295e+00 3.1944296694e+00 
7900 6.2604205927e+00 -3.7701700573e-02 1.8453531501e+00 -3.1962454138e+00 1.8453531501e+00 3.1962454138e+00 
8000 6.2604331309e+00 -3.6710071255e-02 1.8463747750e+00 -3.1980149202e+00 1.8463747750e+00 3.1980149202e+00 
8100 6.2604694379e+00 -3.5692036521e-02 1.8473689763e+00 -3.1997369273e+00 1.8473689763e+00 3.1997369273e+00 
8200 6.2605276115e+00 -3.4649772596e-02 1.8483350840e+00 -3.2014102749e+00 1.8483350840e+00 3.2014102749e+00 
8300 6.2606056960e+00 -3.3585492124e-02 1.8492724870e+00 -3.2030339046e+00 1.8492724870e+00 3.2030339046e+00 
8400 6.2607016986e+00 -3.2501437085e-02 1.8501806344e+00 -3.2046068620e+00 1.8501806344e+00 3.2046068620e+00 
8500 6.2608136063e+00 -3.1399871806e-02 1.8510590353e+00 -3.2061282970e+00 1.8510590353e+00 3.2061282970e+00 
8600 6.2609394007e+00 -3.0283076048e-02 1.8519072597e+00 -3.2075974648e+00 1.8519072597e+00 3.2075974648e+00 
8700 6.2610770734e+00 -2.9153338203e-02 1.8527249385e+00 -3.2090137259e+00 1.8527249385e+00 3.2090137259e+00 
8800 6.2612246395e+00 -2.8012948592e-02 1.8535117633e+00 -3.2103765465e+00 1.8535117633e+00 3.2103765465e+00 
8900 6.2613801513e+00 -2.6864192892e-02 1.8542674869e+00 -3.2116854982e+00 1.8542674869e+00 3.2116854982e+00 
9000 6.2615417103e+00 -2.5709345686e-02 1.8549919223e+00 -3.2129402571e+00 1.8549919223e+00 3.2129402571e+00 
9100 6.2617074783e+00 -2.4550664169e-02 1.8556849428e+00 -3.2141406037e+00 1.8556849428e+00 3.2141406037e+00 
9200 6.2618756884e+00 -2.3390382005e-02 1.8563464808e+00 -3.2152864212e+00 1.8563464808e+00 3.2152864212e+00 
9300 6.2620446539e+00 -2.2230703368e-02 1.8569765276e+00 -3.2163776943e+00 1.8569765276e+00 3.2163776943e+00 
9400 6.2622127768e+00 -2.1073797164e-02 1.8575751323e+00 -3.2174145080e+00 1.8575751323e+00 3.2174145080e+00 
9500 6.2623785554e+00 -1.9921791465e-02 1.8581424006e+00 -3.2183970455e+00 1.8581424006e+00 3.2183970455e+00 
9600 6.2625405901e+00 -1.8776768161e-02 1.8586784938e+00 -3.2193255861e+00 1.8586784938e+00 3.2193255861e+00 
9700 6.2626975893e+00 -1.7640757846e-02 1.8591836273e+00 -3.2202005032e+00 1.8591836273e+00 3.2202005032e+00 
9800 6.2628483734e+00 -1.6515734960e-02 1.8596580697e+00 -3.2210222614e+00 1.8596580697e+00 3.2210222614e+00 
9900 6.2629918777e+00 -1.5403613194e-02 1.8601021403e+00 -3.2217914143e+00 1.8601021403e+00 3.2217914143e+00 
10000 6.2631271555e+00 -1.4306241171e-02 1.8605162086e+00 -3.2225086016e+00 1.8605162086e+00 3.2225086016e+00 
10100 6.2632533785e+00 -1.3225398428e-02 1.8609006915e+00 -3.2231745455e+00 1.8609006915e+00 3.2231745455e+00 
10200 6.2633698376e+00 -1.2162791696e-02 1.8612560522e+00 -3.2237900483e+00 1.8612560522e+00 3.2237900483e+00 
10300 6.2634759422e+00 -1.1120051491e-02 1.8615827979e+00 -3.2243559884e+00 1.8615827979e+00 3.2243559884e+00 
10400 6.2635712191e+00 -1.0098729039e-02 1.8618814778e+00 -3.2248733172e+00 1.8618814778e+00 3.2248733172e+00 
10500 6.2636553096e+00 -9.1002935218e-03 1.8621526813e+00 -3.2253430554e+00 1.8621526813e+00 3.2253430554e+00 
10600 6.2637279669e+00 -8.1261296650e-03 1.8623970354e+00 -3.2257662891e+00 1.8623970354e+00 3.2257662891e+00 
10700 6.2637890523e+00 -7.1775356617e-03 1.8626152028e+00 -3.2261441662e+00 1.8626152028e+00 3.2261441662e+00 
10800 6.2638385309e+00 -6.2557214422e-03 1.8628078797e+00 -3.2264778925e+00 1.8628078797e+00 3.2264778925e+00 
10900 6.2638764661e+00 -5.3618072841e-03 1.8629757933e+00 -3.2267687273e+00 1.8629757933e+00 3.2267687273e+00 
11000 6.2639030147e+00 -4.4968227633e-03 1.8631196996e+00 -3.2270179802e+00 1.8631196996e+00 3.2270179802e+00 
11100 6.2639184204e+00 -3.6617060421e-03 1.8632403808e+00 -3.2272270062e+00 1.8632403808e+00 3.2272270062e+00 
11200 6.2639230075e+00 -2.8573034892e-03 1.8633386434e+00 -3.2273972021e+00 1.8633386434e+00 3.2273972021e+00 
11300 6.2639171743e+00 -2.0843696243e-03 1.8634153156e+00 -3.2275300022e+00 1.8634153156e+00 3.2275300022e+00 
11400 6.2639013857e+00 -1.3435673783e-03 1.8634712446e+00 -3.2276268741e+00 1.8634712446e+00 3.2276268741e+00 
11500 6.2638761665e+00 -6.3546866016e-04 1.8635072948e+00 -3.2276893149e+00 1.8635072948e+00 3.2276893149e+00 
11600 6.2638420934e+00 3.9444783290e-05 1.8635243452e+00 -3.2277188470e+00 1.8635243452e+00 3.2277188470e+00 
11700 6.2637997893e+00 6.8153786414e-04 1.8635243452e+00 -3.2277188470e+00 1.8635243452e+00 3.2277188470e+00 
11800 6.2637499115e+00 1.2889810710e-03 1.8635060590e+00 -3.2276871743e+00 1.8635060590e+00 3.2276871743e+00 
11900 6.2636931486e+00 1.8623221465e-03 1.8634714742e+00 -3.2276272718e+00 1.8634714742e+00 3.2276272718e+00 
12000 6.2636302119e+00 2.4014259715e-03 1.8634215053e+00 -3.2275407231e+00 1.8634215053e+00 3.2275407231e+00 
12100 6.2635618280e+00 2.9062393679e-03 1.8633570697e+00 -3.2274291174e+00 1.8633570697e+00 3.2274291174e+00 
12200 6.2634887321e+00 3.3767887828e-03 1.8632790863e+00 -3.2272940462e+00 1.8632790863e+00 3.2272940462e+00 
12300 6.2634116613e+00 3.8131777888e-03 1.8631884729e+00 -3.2271370991e+00 1.8631884729e+00 3.2271370991e+00 
12400 6.2633313481e+00 4.2155844190e-03 1.8630861445e+00 -3.2269598611e+00 1.8630861445e+00 3.2269598611e+00 
12500 6.2632485147e+00 4.5842583546e-03 1.8629730112e+00 -3.2267639085e+00 1.8629730112e+00 3.2267639085e+00 
12600 6.2631638673e+00 4.9195179844e-03 1.8628499764e+00 -3.2265508061e+00 1.8628499764e+00 3.2265508061e+00 
12700 6.2630780906e+00 5.2217473536e-03 1.8627179352e+00 -3.2263221040e+00 1.8627179352e+00 3.2263221040e+00 
12800 6.2629918437e+00 5.4913930199e-03 1.8625777722e+00 -3.2260793346e+00 1.8625777722e+00 3.2260793346e+00 
12900 6.2629057553e+00 5.7289608355e-03 1.8624303604e+00 -3.2258240098e+00 1.8624303604e+00 3.2258240098e+00 
13000 6.2628204199e+00 5.9350126712e-03 1.8622765592e+00 -3.2255576182e+00 1.8622765592e+00 3.2255576182e+00 
13100 6.2627363949e+00 6.1101630994e-03 1.8621172131e+00 -3.2252816228e+00 1.8621172131e+00 3.2252816228e+00 
13200 6.2626541974e+00 6.2550760524e-03 1.8619531506e+00 -3.2249974581e+00 1.8619531506e+00 3.2249974581e+00 
13300 6.2625743020e+00 6.3704614706e-03 1.8617851823e+00 -3.2247065285e+00 1.8617851823e+00 3.2247065285e+00 
13400 6.2624971389e+00 6.4570719549e-03 1.8616141001e+00 -3.2244102055e+00 1.8616141001e+00 3.2244102055e+00 
13500 6.2624230928e+00 6.5156994372e-03 1.8614406761e+00 -3.2241098263e+00 1.8614406761e+00 3.2241098263e+00 
13600 6.2623525017e+00 6.5471718809e-03 1.8612656612e+00 -3.2238066916e+00 1.8612656612e+00 3.2238066916e+00 
13700 6.2622856564e+00 6.5523500229e-03 1.8610897844e+00 -3.2235020641e+00 1.8610897844e+00 3.2235020641e+00 
13800 6.2622228011e+00 6.5321241681e-03 1.8609137519e+00 -3.2231971668e+00 1.8609137519e+00 3.2231971668e+00 
13900 6.2621641332e+00 6.4874110441e-03 1.8607382461e+00 -3.2228931819e+00 1.8607382461e+00 3.2228931819e+00 
14000 6.2621098044e+00 6.4191507269e-03 1.8605639253e+00 -3.2225912493e+00 1.8605639253e+00 3.2225912493e+00 
14100 6.2620599218e+00 6.3283036418e-03 1.8603914224e+00 -3.2222924656e+00 1.8603914224e+00 3.2222924656e+00 
14200 6.2620145497e+00 6.2158476491e-03 1.8602213451e+00 -3.2219978831e+00 1.8602213451e+00 3.2219978831e+00 
14300 6.2619737107e+00 6.0827752162e-03 1.8600542748e+00 -3.2217085089e+00 1.8600542748e+00 3.2217085089e+00 
14400 6.2619373887e+00 5.9300906831e-03 1.8598907665e+00 -3.2214253042e+00 1.8598907665e+00 3.2214253042e+00 
14500 6.2619055306e+00 5.7588076239e-03 1.8597313484e+00 -3.2211491839e+00 1.8597313484e+00 3.2211491839e+00 
14600 6.2618780489e+00 5.5699463052e-03 1.8595765215e+00 -3.2208810159e+00 1.8595765215e+00 3.2208810159e+00 
14700 6.2618548246e+00 5.3645312460e-03 1.8594267597e+00 -3.2206216208e+00 1.8594267597e+00 3.2206216208e+00 
14800 6.2618357101e+00 5.1435888767e-03 1.8592825093e+00 -3.2203717717e+00 1.8592825093e+00 3.2203717717e+00 
14900 6.2618205315e+00 4.9081453008e-03 1.8591441891e+00 -3.2201321942e+00 1.8591441891e+00 3.2201321942e+00 
15000 6.2618090925e+00 4.6592241555e-03 1.8590121906e+00 -3.2199035660e+00 1.8590121906e+00 3.2199035660e+00 
15100 6.2618011766e+00 4.3978445736e-03 1.8588868775e+00 -3.2196865173e+00 1.8588868775e+00 3.2196865173e+00 
15200 6.2617965509e+00 4.1250192434e-03 1.8587685863e+00 -3.2194816310e+00 1.8587685863e+00 3.2194816310e+00 
15300 6.2617949685e+00 3.8417525646e-03 1.8586576263e+00 -3.2192894427e+00 1.8586576263e+00 3.2192894427e+00 
15400 6.2617961716e+00 3.5490389007e-03 1.8585542798e+00 -3.2191104412e+00 1.8585542798e+00 3.2191104412e+00 
15500 6.2617998949e+00 3.2478609223e-03 1.8584588021e+00 -3.2189450690e+00 1.8584588021e+00 3.2189450690e+00 
15600 6.2618058677e+00 2.9391880417e-03 1.8583714223e+00 -3.2187937228e+00 1.8583714223e+00 3.2187937228e+00 
15700 6.2618138170e+00 2.6239749342e-03 1.8582923432e+00 -3.2186567537e+00 1.8582923432e+00 3.2186567537e+00 
15800 6.2618234700e+00 2.3031601454e-03 1.8582217419e+00 -3.2185344686e+00 1.8582217419e+00 3.2185344686e+00 
15900 6.2618345564e+00 1.9776647798e-03 1.8581597701e+00 -3.2184271303e+00 1.8581597701e+00 3.2184271303e+00 
16000 6.2618468107e+00 1.6483912698e-03 1.8581065546e+00 -3.2183349585e+00 1.8581065546e+00 3.2183349585e+00 
16100 6.2618599744e+00 1.3162222217e-03 1.8580621981e+00 -3.2182581307e+00 1.8580621981e+00 3.2182581307e+00 
16200 6.2618737976e+00 9.8201933605e-04 1.8580267789e+00 -3.2181967830e+00 1.8580267789e+00 3.2181967830e+00 
16300 6.2618880409e+00 6.4662240046e-04 1.8580003526e+00 -3.2181510112e+00 1.8580003526e+00 3.2181510112e+00 
16400 6.2619024768e+00 3.1084835269e-04 1.8579829516e+00 -3.2181208718e+00 1.8579829516e+00 3.2181208718e+00 
16500 6.2619168912e+00 -2.4509588810e-05 1.8579745864e+00 -3.2181063828e+00 1.8579745864e+00 3.2181063828e+00 
16600 6.2619310847e+00 -3.5916976815e-04 1.8579745864e+00 -3.2181063828e+00 1.8579745864e+00 3.2181063828e+00 
16700 6.2619448720e+00 -6.9140737604e-04 1.8579842520e+00 -3.2181231242e+00 1.8579842520e+00 3.2181231242e+00 
16800 6.2619580846e+00 -1.0209994020e-03 1.8580028584e+00 -3.2181553514e+00 1.8580028584e+00 3.2181553514e+00 
16900 6.2619705704e+00 -1.3472548996e-03 1.8580303342e+00 -3.2182029409e+00 1.8580303342e+00 3.2182029409e+00 
17000 6.2619821939e+00 -1.6695100323e-03 1.8580665893e+00 -3.2182657365e+00 1.8580665893e+00 3.2182657365e+00 
17100 6.2619928370e+00 -1.9871285710e-03 1.8581115155e+00 -3.2183435509e+00 1.8581115155e+00 3.2183435509e+00 
17200 6.2620023984e+00 -2.2995023346e-03 1.8581649874e+00 -3.2184361671e+00 1.8581649874e+00 3.2184361671e+00 
17300 6.2620107937e+00 -2.6060515736e-03 1.8582268634e+00 -3.2185433394e+00 1.8582268634e+00 3.2185433394e+00 
17400 6.2620179552e+00 -2.9062252988e-03 1.8582969858e+00 -3.2186647950e+00 1.8582969858e+00 3.2186647950e+00 
17500 6.2620238314e+00 -3.1995015549e-03 1.8583751823e+00 -3.2188002353e+00 1.8583751823e+00 3.2188002353e+00 
17600 6.2620283864e+00 -3.4853876402e-03 1.8584612663e+00 -3.2189493371e+00 1.8584612663e+00 3.2189493371e+00 
17700 6.2620315993e+00 -3.7634202732e-03 1.8585550379e+00 -3.2191117543e+00 1.8585550379e+00 3.2191117543e+00 
17800 6.2620334638e+00 -4.0331657065e-03 1.8586562847e+00 -3.2192871188e+00 1.8586562847e+00 3.2192871188e+00 
17900 6.2620339865e+00 -4.2942197880e-03 1.8587647825e+00 -3.2194750427e+00 1.8587647825e+00 3.2194750427e+00 
18000 6.2620331871e+00 -4.5462079722e-03 1.8588802965e+00 -3.2196751186e+00 1.8588802965e+00 3.2196751186e+00 
18100 6.2620310967e+00 -4.7887852789e-03 1.8590025813e+00 -3.2198869222e+00 1.8590025813e+00 3.2198869222e+00 
18200 6.2620277569e+00 -5.0216362033e-03 1.8591313826e+00 -3.2201100127e+00 1.8591313826e+00 3.2201100127e+00 
18300 6.2620232193e+00 -5.2444745759e-03 1.8592664376e+00 -3.2203439347e+00 1.8592664376e+00 3.2203439347e+00 
18400 6.2620175436e+00 -5.4570433737e-03 1.8594074755e+00 -3.2205882195e+00 1.8594074755e+00 3.2205882195e+00 
18500 6.2620107974e+00 -5.6591144837e-03 1.8595542189e+00 -3.2208423865e+00 1.8595542189e+00 3.2208423865e+00 
18600 6.2620030545e+00 -5.8504884199e-03 1.8597063841e+00 -3.2211059445e+00 1.8597063841e+00 3.2211059445e+00 
18700 6.2619943941e+00 -6.0309939929e-03 1.8598636824e+00 -3.2213783930e+00 1.8598636824e+00 3.2213783930e+00 
18800 6.2619848998e+00 -6.2004879356e-03 1.8600258201e+00 -3.2216592238e+00 1.8600258201e+00 3.2216592238e+00 
18900 6.2619746585e+00 -6.3588544846e-03 1.8601925001e+00 -3.2219479220e+00 1.8601925001e+00 3.2219479220e+00 
19000 6.2619637595e+00 -6.5060049182e-03 1.8603634220e+00 -3.2222439674e+00 1.8603634220e+00 3.2222439674e+00 
19100 6.2619522934e+00 -6.6418770540e-03 1.8605382831e+00 -3.2225468358e+00 1.8605382831e+00 3.2225468358e+00 
19200 6.2619403513e+00 -6.7664347051e-03 1.8607167794e+00 -3.2228560004e+00 1.8607167794e+00 3.2228560004e+00 
19300 6.2619280243e+00 -6.8796670984e-03 1.8608986057e+00 -3.2231709328e+00 1.8608986057e+00 3.2231709328e+00 
19400 6.2619154018e+00 -6.9815882550e-03 1.8610834568e+00 -3.2234911042e+00 1.8610834568e+00 3.2234911042e+00 
19500 6.2619025718e+00 -7.0722363359e-03 1.8612710277e+00 -3.2238159867e+00 1.8612710277e+00 3.2238159867e+00 
19600 6.2618896195e+00 -7.1516729526e-03 1.8614610150e+00 -3.2241450543e+00 1.8614610150e+00 3.2241450543e+00 
19700 6.2618766272e+00 -7.2199824464e-03 1.8616531167e+00 -3.2244777842e+00 1.8616531167e+00 3.2244777842e+00 
19800 6.2618636732e+00 -7.2772711372e-03 1.8618470333e+00 -3.2248136576e+00 1.8618470333e+00 3.2248136576e+00 
19900 6.2618508318e+00 -7.3236665435e-03 1.8620424682e+00 -3.2251521608e+00 1.8620424682e+00 3.2251521608e+00 
20000 6.2618381728e+00 -7.3593165764e-03 1.8622391285e+00 -3.2254927864e+00 1.8622391285e+00 3.2254927864e+00 
20100 6.2618257608e+00 -7.3843887087e-03 1.8624367252e+00 -3.2258350339e+00 1.8624367252e+00 3.2258350339e+00 
20200 6.2618136553e+00 -7.3990691224e-03 1.8626349741e+00 -3.2261784110e+00 1.8626349741e+00 3.2261784110e+00 
20300 6.2618019104e+00 -7.4035618346e-03 1.8628335959e+00 -3.2265224342e+00 1.8628335959e+00 3.2265224342e+00 
20400 6.2617905746e+00 -7.3980878069e-03 1.8630323172e+00 -3.2268666295e+00 1.8630323172e+00 3.2268666295e+00 
20500 6.2617796905e+00 -7.3828840376e-03 1.8632308704e+00 -3.2272105337e+00 1.8632308704e+00 3.2272105337e+00 
20600 6.2617692951e+00 -7.3582026410e-03 1.8634289944e+00 -3.2275536945e+00 1.8634289944e+00 3.2275536945e+00 
20700 6.2617594196e+00 -7.3243099145e-03 1.8636264350e+00 -3.2278956718e+00 1.8636264350e+00 3.2278956718e+00 
20800 6.2617500895e+00 -7.2814853969e-03 1.8638229454e+00 -3.2282360377e+00 1.8638229454e+00 3.2282360377e+00 
20900 6.2617413245e+00 -7.2300209196e-03 1.8640182862e+00 -3.2285743779e+00 1.8640182862e+00 3.2285743779e+00 
21000 6.2617331392e+00 -7.1702196527e-03 1.8642122260e+00 -3.2289102915e+00 1.8642122260e+00 3.2289102915e+00 
21100 6.2617255426e+00 -7.1023951488e-03 1.8644045416e+00 -3.2292433919e+00 1.8644045416e+00 3.2292433919e+00 
21200 6.2617185387e+00 -7.0268703860e-03 1.8645950184e+00 -3.2295733074e+00 1.8645950184e+00 3.2295733074e+00 
21300 6.2617121268e+00 -6.9439768130e-03 1.8647834504e+00 -3.2298996812e+00 1.8647834504e+00 3.2298996812e+00 
21400 6.2617063016e+00 -6.8540533978e-03 1.8649696407e+00 -3.2302221723e+00 1.8649696407e+00 3.2302221723e+00 
21500 6.2617010534e+00 -6.7574456823e-03 1.8651534015e+00 -3.2305404554e+00 1.8651534015e+00 3.2305404554e+00 
21600 6.2616963689e+00 -6.6545048454e-03 1.8653345543e+00 -3.2308542212e+00 1.8653345543e+00 3.2308542212e+00 
21700 6.2616922308e+00 -6.5455867754e-03 1.8655129301e+00 -3.2311631771e+00 1.8655129301e+00 3.2311631771e+00 
21800 6.2616886189e+00 -6.4310511547e-03 1.8656883695e+00 -3.2314670471e+00 1.8656883695e+00 3.2314670471e+00 
21900 6.2616855099e+00 -6.3112605589e-03 1.8658607228e+00 -3.2317655717e+00 1.8658607228e+00 3.2317655717e+00 
22000 6.2616828781e+00 -6.1865795700e-03 1.8660298500e+00 -3.2320585086e+00 1.8660298500e+00 3.2320585086e+00 
22100 6.2616806955e+00 -6.0573739088e-03 1.8661956210e+00 -3.2323456324e+00 1.8661956210e+00 3.2323456324e+00 
22200 6.2616789322e+00 -5.9240095853e-03 1.8663579154e+00 -3.2326267345e+00 1.8663579154e+00 3.2326267345e+00 
22300 6.2616775572e+00 -5.7868520699e-03 1.8665166227e+00 -3.2329016236e+00 1.8665166227e+00 3.2329016236e+00 
22400 6.2616765379e+00 -5.6462654874e-03 1.8666716422e+00 -3.2331701254e+00 1.8666716422e+00 3.2331701254e+00 
22500 6.2616758412e+00 -5.5026118333e-03 1.8668228831e+00 -3.2334320823e+00 1.8668228831e+00 3.2334320823e+00 
22600 6.2616754335e+00 -5.3562502168e-03 1.8669702641e+00 -3.2336873537e+00 1.8669702641e+00 3.2336873537e+00 
22700 6.2616752810e+00 -5.2075361286e-03 1.8671137136e+00 -3.2339358155e+00 1.8671137136e+00 3.2339358155e+00 
22800 6.2616753500e+00 -5.0568207366e-03 1.8672531695e+00 -3.2341773602e+00 1.8672531695e+00 3.2341773602e+00 
22900 6.2616756071e+00 -4.9044502099e-03 1.8673885792e+00 -3.2344118966e+00 1.8673885792e+00 3.2344118966e+00 
23000 6.2616760199e+00 -4.7507650725e-03 1.8675198991e+00 -3.2346393495e+00 1.8675198991e+00 3.2346393495e+00 
23100 6.2616765566e+00 -4.5960995868e-03 1.8676470951e+00 -3.2348596593e+00 1.8676470951e+00 3.2348596593e+00 
23200 6.2616771865e+00 -4.4407811681e-03 1.8677701416e+00 -3.2350727821e+00 1.8677701416e+00 3.2350727821e+00 
23300 6.2616778804e+00 -4.2851298309e-03 1.8678890221e+00 -3.2352786892e+00 1.8678890221e+00 3.2352786892e+00 
23400 6.2616786105e+00 -4.1294576679e-03 1.8680037284e+00 -3.2354773664e+00 1.8680037284e+00 3.2354773664e+00 
23500 6.2616793504e+00 -3.9740683603e-03 1.8681142608e+00 -3.2356688141e+00 1.8681142608e+00 3.2356688141e+00 
23600 6.2616800758e+00 -3.8192567227e-03 1.8682206276e+00 -3.2358530468e+00 1.8682206276e+00 3.2358530468e+00 
23700 6.2616807639e+00 -3.6653082803e-03 1.8683228450e+00 -3.2360300924e+00 1.8683228450e+00 3.2360300924e+00 
23800 6.2616813942e+00 -3.5124988799e-03 1.8684209367e+00 -3.2361999923e+00 1.8684209367e+00 3.2361999923e+00 
23900 6.2616819479e+00 -3.3610943343e-03 1.8685149339e+00 -3.2363628003e+00 1.8685149339e+00 3.2363628003e+00 
24000 6.2616824083e+00 -3.2113501001e-03 1.8686048749e+00 -3.2365185826e+00 1.8686048749e+00 3.2365185826e+00 
24100 6.2616827608e+00 -3.0635109895e-03 1.8686908047e+00 -3.2366674173e+00 1.8686908047e+00 3.2366674173e+00 
24200 6.2616829929e+00 -2.9178109143e-03 1.8687727747e+00 -3.2368093936e+00 1.8687727747e+00 3.2368093936e+00 
24300 6.2616830941e+00 -2.7744726633e-03 1.8688508428e+00 -3.2369446115e+00 1.8688508428e+00 3.2369446115e+00 
24400 6.2616830559e+00 -2.6337077127e-03 1.8689250727e+00 -3.2370731814e+00 1.8689250727e+00 3.2370731814e+00 
24500 6.2616828717e+00 -2.4957160673e-03 1.8689955336e+00 -3.2371952233e+00 1.8689955336e+00 3.2371952233e+00 
24600 6.2616825369e+00 -2.3606861349e-03 1.8690623003e+00 -3.2373108665e+00 1.8690623003e+00 3.2373108665e+00 
24700 6.2616820488e+00 -2.2287946295e-03 1.8691254522e+00 -3.2374202490e+00 1.8691254522e+00 3.2374202490e+00 
24800 6.2616814062e+00 -2.1002065072e-03 1.8691850739e+00 -3.2375235167e+00 1.8691850739e+00 3.2375235167e+00 
24900 6.2616806098e+00 -1.9750749293e-03 1.8692412539e+00 -3.2376208233e+00 1.8692412539e+00 3.2376208233e+00 
25000 6.2616796617e+00 -1.8535412563e-03 1.8692940851e+00 -3.2377123296e+00 1.8692940851e+00 3.2377123296e+00 
25100 6.2616785656e+00 -1.7357350675e-03 1.8693436639e+00 -3.2377982027e+00 1.8693436639e+00 3.2377982027e+00 
25200 6.2616773262e+00 -1.6217742099e-03 1.8693900904e+00 -3.2378786158e+00 1.8693900904e+00 3.2378786158e+00 
25300 6.2616759497e+00 -1.5117648713e-03 1.8694334677e+00 -3.2379537474e+00 1.8694334677e+00 3.2379537474e+00 
25400 6.2616744433e+00 -1.4058016798e-03 1.8694739016e+00 -3.2380237810e+00 1.8694739016e+00 3.2380237810e+00 
25500 6.2616728151e+00 -1.3039678263e-03 1.8695115006e+00 -3.2380889044e+00 1.8695115006e+00 3.2380889044e+00 
25600 6.2616710739e+00 -1.2063352106e-03 1.8695463753e+00 -3.2381493091e+00 1.8695463753e+00 3.2381493091e+00 
25700 6.2616692295e+00 -1.1129646094e-03 1.8695786381e+00 -3.2382051900e+00 1.8695786381e+00 3.2382051900e+00 
25800 6.2616672920e+00 -1.0239058650e-03 1.8696084033e+00 -3.2382567448e+00 1.8696084033e+00 3.2382567448e+00 
25900 6.2616652719e+00 -9.3919809347e-04 1.8696357863e+00 -3.2383041735e+00 1.8696357863e+00 3.2383041735e+00 
26000 6.2616631803e+00 -8.5886991178e-04 1.8696609035e+00 -3.2383476778e+00 1.8696609035e+00 3.2383476778e+00 
26100 6.2616610282e+00 -7.8293968195e-04 1.8696838721e+00 -3.2383874606e+00 1.8696838721e+00 3.2383874606e+00 
26200 6.2616588270e+00 -7.1141577173e-04 1.8697048099e+00 -3.2384237260e+00 1.8697048099e+00 3.2384237260e+00 
26300 6.2616565877e+00 -6.4429683015e-04 1.8697238348e+00 -3.2384566780e+00 1.8697238348e+00 3.2384566780e+00 
26400 6.2616543216e+00 -5.8157207716e-04 1.8697410645e+00 -3.2384865208e+00 1.8697410645e+00 3.2384865208e+00 
26500 6.2616520394e+00 -5.2322160592e-04 1.8697566168e+00 -3.2385134580e+00 1.8697566168e+00 3.2385134580e+00 
26600 6.2616497518e+00 -4.6921669679e-04 1.8697706085e+00 -3.2385376924e+00 1.8697706085e+00 3.2385376924e+00 
26700 6.2616474690e+00 -4.1952014176e-04 1.8697831560e+00 -3.2385594252e+00 1.8697831560e+00 3.2385594252e+00 
26800 6.2616452008e+00 -3.7408657830e-04 1.8697943744e+00 -3.2385788561e+00 1.8697943744e+00 3.2385788561e+00 
26900 6.2616429565e+00 -3.3286283143e-04 1.8698043778e+00 -3.2385961826e+00 1.8698043778e+00 3.2385961826e+00 
27000 6.2616407448e+00 -2.9578826302e-04 1.8698132788e+00 -3.2386115996e+00 1.8698132788e+00 3.2386115996e+00 
27100 6.2616385737e+00 -2.6279512717e-04 1.8698211884e+00 -3.2386252994e+00 1.8698211884e+00 3.2386252994e+00 
27200 6.2616364509e+00 -2.3380893065e-04 1.8698282157e+00 -3.2386374710e+00 1.8698282157e+00 3.2386374710e+00 
27300 6.2616343830e+00 -2.0874879751e-04 1.8698344678e+00 -3.2386483000e+00 1.8698344678e+00 3.2386483000e+00 
27400 6.2616323761e+00 -1.8752783662e-04 1.8698400498e+00 -3.2386579684e+00 1.8698400498e+00 3.2386579684e+00 
27500 6.2616304358e+00 -1.7005351146e-04 1.8698450644e+00 -3.2386666538e+00 1.8698450644e+00 3.2386666538e+00 
27600 6.2616285665e+00 -1.5622801105e-04 1.8698496116e+00 -3.2386745299e+00 1.8698496116e+00 3.2386745299e+00 
27700 6.2616267724e+00 -1.4594862116e-04 1.8698537892e+00 -3.2386817656e+00 1.8698537892e+00 3.2386817656e+00 
27800 6.2616250565e+00 -1.3910809502e-04 1.8698576919e+00 -3.2386885253e+00 1.8698576919e+00 3.2386885253e+00 
27900 6.2616234214e+00 -1.3559502262e-04 1.8698614116e+00 -3.2386949681e+00 1.8698614116e+00 3.2386949681e+00 
28000 6.2616218689e+00 -1.3529419779e-04 1.8698650374e+00 -3.2387012481e+00 1.8698650374e+00 3.2387012481e+00 
28100 6.2616204003e+00 -1.3808698239e-04 1.8698686552e+00 -3.2387075143e+00 1.8698686552e+00 3.2387075143e+00 
28200 6.2616190159e+00 -1.4385166684e-04 1.8698723476e+00 -3.2387139097e+00 1.8698723476e+00 3.2387139097e+00 
28300 6.2616177157e+00 -1.5246382623e-04 1.8698761942e+00 -3.2387205722e+00 1.8698761942e+00 3.2387205722e+00 
28400 6.2616164990e+00 -1.6379667155e-04 1.8698802710e+00 -3.2387276335e+00 1.8698802710e+00 3.2387276335e+00 
28500 6.2616153646e+00 -1.7772139516e-04 1.8698846509e+00 -3.2387352197e+00 1.8698846509e+00 3.2387352197e+00 
28600 6.2616143107e+00 -1.9410751019e-04 1.8698894031e+00 -3.2387434507e+00 1.8698894031e+00 3.2387434507e+00 
28700 6.2616133351e+00 -2.1282318309e-04 1.8698945935e+00 -3.2387524407e+00 1.8698945935e+00 3.2387524407e+00 
28800 6.2616124353e+00 -2.3373555899e-04 1.8699002842e+00 -3.2387622974e+00 1.8699002842e+00 3.2387622974e+00 
28900 6.2616116082e+00 -2.5671107933e-04 1.8699065342e+00 -3.2387731226e+00 1.8699065342e+00 3.2387731226e+00 
29000 6.2616108505e+00 -2.8161579127e-04 1.8699133985e+00 -3.2387850119e+00 1.8699133985e+00 3.2387850119e+00 
29100 6.2616101587e+00 -3.0831564859e-04 1.8699209287e+00 -3.2387980546e+00 1.8699209287e+00 3.2387980546e+00 
29200 6.2616095288e+00 -3.3667680356e-04 1.8699291727e+00 -3.2388123338e+00 1.8699291727e+00 3.2388123338e+00 
29300 6.2616089568e+00 -3.6656588959e-04 1.8699381751e+00 -3.2388279264e+00 1.8699381751e+00 3.2388279264e+00 
29400 6.2616084385e+00 -3.9785029423e-04 1.8699479767e+00 -3.2388449032e+00 1.8699479767e+00 3.2388449032e+00 
29500 6.2616079697e+00 -4.3039842232e-04 1.8699586147e+00 -3.2388633287e+00 1.8699586147e+00 3.2388633287e+00 
29600 6.2616075459e+00 -4.6407994897e-04 1.8699701230e+00 -3.2388832616e+00 1.8699701230e+00 3.2388832616e+00 
29700 6.2616071628e+00 -4.9876606222e-04 1.8699825317e+00 -3.2389047542e+00 1.8699825317e+00 3.2389047542e+00 
29800 6.2616068161e+00 -5.3432969518e-04 1.8699958679e+00 -3.2389278531e+00 1.8699958679e+00 3.2389278531e+00 
29900 6.2616065013e+00 -5.7064574745e-04 1.8700101548e+00 -3.2389525988e+00 1.8700101548e+00 3.2389525988e+00 
30000 6.2616062143e+00 -6.0759129568e-04 1.8700254127e+00 -3.2389790262e+00 1.8700254127e+00 3.2389790262e+00 
30100 6.2616059508e+00 -6.4504579329e-04 1.8700416582e+00 -3.2390071643e+00 1.8700416582e+00 3.2390071643e+00 
30200 6.2616057069e+00 -6.8289125901e-04 1.8700589051e+00 -3.2390370367e+00 1.8700589051e+00 3.2390370367e+00 
30300 6.2616054787e+00 -7.2101245455e-04 1.8700771636e+00 -3.2390686615e+00 1.8700771636e+00 3.2390686615e+00 
30400 6.2616052626e+00 -7.5929705093e-04 1.8700964413e+00 -3.2391020514e+00 1.8700964413e+00 3.2391020514e+00 
30500 6.2616050551e+00 -7.9763578394e-04 1.8701167423e+00 -3.2391372138e+00 1.8701167423e+00 3.2391372138e+00 
30600 6.2616048529e+00 -8.3592259825e-04 1.8701380682e+00 -3.2391741513e+00 1.8701380682e+00 3.2391741513e+00 
30700 6.2616046531e+00 -8.7405478065e-04 1.8701604175e+00 -3.2392128614e+00 1.8701604175e+00 3.2392128614e+00 
30800 6.2616044529e+00 -9.1193308217e-04 1.8701837860e+00 -3.2392533368e+00 1.8701837860e+00 3.2392533368e+00 
30900 6.2616042498e+00 -9.4946182925e-04 1.8702081669e+00 -3.2392955657e+00 1.8702081669e+00 3.2392955657e+00 
31000 6.2616040415e+00 -9.8654902415e-04 1.8702335508e+00 -3.2393395320e+00 1.8702335508e+00 3.2393395320e+00 
31100 6.2616038260e+00 -1.0231064346e-03 1.8702599259e+00 -3.2393852149e+00 1.8702599259e+00 3.2393852149e+00 
31200 6.2616036016e+00 -1.0590496727e-03 1.8702872779e+00 -3.2394325901e+00 1.8702872779e+00 3.2394325901e+00 
31300 6.2616033668e+00 -1.0942982636e-03 1.8703155905e+00 -3.2394816289e+00 1.8703155905e+00 3.2394816289e+00 
31400 6.2616031204e+00 -1.1287757038e-03 1.8703448449e+00 -3.2395322991e+00 1.8703448449e+00 3.2395322991e+00 
31500 6.2616028614e+00 -1.1624095094e-03 1.8703750206e+00 -3.2395845649e+00 1.8703750206e+00 3.2395845649e+00 
31600 6.2616025890e+00 -1.1951312541e-03 1.8704060949e+00 -3.2396383872e+00 1.8704060949e+00 3.2396383872e+00 
31700 6.2616023028e+00 -1.2268765979e-03 1.8704380435e+00 -3.2396937237e+00 1.8704380435e+00 3.2396937237e+00 
31800 6.2616020025e+00 -1.2575853062e-03 1.8704708401e+00 -3.2397505291e+00 1.8704708401e+00 3.2397505291e+00 
31900 6.2616016881e+00 -1.2872012597e-03 1.8705044570e+00 -3.2398087553e+00 1.8705044570e+00 3.2398087553e+00 
32000 6.2616013595e+00 -1.3156724547e-03 1.8705388649e+00 -3.2398683516e+00 1.8705388649e+00 3.2398683516e+00 
32100 6.2616010173e+00 -1.3429509958e-03 1.8705740333e+00 -3.2399292650e+00 1.8705740333e+00 3.2399292650e+00 
32200 6.2616006617e+00 -1.3689930790e-03 1.8706099302e+00 -3.2399914403e+00 1.8706099302e+00 3.2399914403e+00 
32300 6.2616002935e+00 -1.3937589669e-03 1.8706465225e+00 -3.2400548199e+00 1.8706465225e+00 3.2400548199e+00 
32400 6.2615999134e+00 -1.4172129568e-03 1.8706837760e+00 -3.2401193449e+00 1.8706837760e+00 3.2401193449e+00 
32500 6.2615995223e+00 -1.4393233393e-03 1.8707216557e+00 -3.2401849545e+00 1.8707216557e+00 3.2401849545e+00 
32600 6.2615991212e+00 -1.4600623519e-03 1.8707601255e+00 -3.2402515862e+00 1.8707601255e+00 3.2402515862e+00 
32700 6.2615987111e+00 -1.4794061232e-03 1.8707991489e+00 -3.2403191767e+00 1.8707991489e+00 3.2403191767e+00 
32800 6.2615982933e+00 -1.4973346126e-03 1.8708386885e+00 -3.2403876612e+00 1.8708386885e+00 3.2403876612e+00 
32900 6.2615978689e+00 -1.5138315416e-03 1.8708787064e+00 -3.2404569742e+00 1.8708787064e+00 3.2404569742e+00 
33000 6.2615974393e+00 -1.5288843202e-03 1.8709191643e+00 -3.2405270494e+00 1.8709191643e+00 3.2405270494e+00 
33100 6.2615970055e+00 -1.5424839677e-03 1.8709600236e+00 -3.2405978198e+00 1.8709600236e+00 3.2405978198e+00 
33200 6.2615965691e+00 -1.5546250268e-03 1.8710012455e+00 -3.2406692182e+00 1.8710012455e+00 3.2406692182e+00 
33300 6.2615961312e+00 -1.5653054737e-03 1.8710427909e+00 -3.2407411770e+00 1.8710427909e+00 3.2407411770e+00 
33400 6.2615956932e+00 -1.5745266234e-03 1.8710846208e+00 -3.2408136285e+00 1.8710846208e+00 3.2408136285e+00 
33500 6.2615952562e+00 -1.5822930297e-03 1.8711266962e+00 -3.2408865052e+00 1.8711266962e+00 3.2408865052e+00 
33600 6.2615948217e+00 -1.5886123819e-03 1.8711689782e+00 -3.2409597398e+00 1.8711689782e+00 3.2409597398e+00 
33700 6.2615943906e+00 -1.5934953975e-03 1.8712114281e+00 -3.2410332651e+00 1.8712114281e+00 3.2410332651e+00 
33800 6.2615939642e+00 -1.5969557111e-03 1.8712540075e+00 -3.2411070148e+00 1.8712540075e+00 3.2411070148e+00 
33900 6.2615935436e+00 -1.5990097605e-03 1.8712966784e+00 -3.2411809230e+00 1.8712966784e+00 3.2411809230e+00 
34000 6.2615931297e+00 -1.5996766702e-03 1.8713394032e+00 -3.2412549245e+00 1.8713394032e+00 3.2412549245e+00 
34100 6.2615927235e+00 -1.5989781319e-03 1.8713821448e+00 -3.2413289553e+00 1.8713821448e+00 3.2413289553e+00 
34200 6.2615923258e+00 -1.5969382831e-03 1.8714248669e+00 -3.2414029519e+00 1.8714248669e+00 3.2414029519e+00 
34300 6.2615919375e+00 -1.5935835843e-03 1.8714675334e+00 -3.2414768526e+00 1.8714675334e+00 3.2414768526e+00 
34400 6.2615915592e+00 -1.5889426936e-03 1.8715101093e+00 -3.2415505962e+00 1.8715101093e+00 3.2415505962e+00 
34500 6.2615911915e+00 -1.5830463414e-03 1.8715525603e+00 -3.2416241235e+00 1.8715525603e+00 3.2416241235e+00 
34600 6.2615908350e+00 -1.5759272030e-03 1.8715948528e+00 -3.2416973762e+00 1.8715948528e+00 3.2416973762e+00 
34700 6.2615904900e+00 -1.5676197716e-03 1.8716369541e+00 -3.2417702979e+00 1.8716369541e+00 3.2417702979e+00 
34800 6.2615901570e+00 -1.5581602302e-03 1.8716788326e+00 -3.2418428335e+00 1.8716788326e+00 3.2418428335e+00 
34900 6.2615898362e+00 -1.5475863241e-03 1.8717204574e+00 -3.2419149298e+00 1.8717204574e+00 3.2419149298e+00 
35000 6.2615895277e+00 -1.5359372329e-03 1.8717617989e+00 -3.2419865353e+00 1.8717617989e+00 3.2419865353e+00 
35100 6.2615892318e+00 -1.5232534438e-03 1.8718028282e+00 -3.2420576002e+00 1.8718028282e+00 3.2420576002e+00 
35200 6.2615889483e+00 -1.5095766253e-03 1.8718435178e+00 -3.2421280767e+00 1.8718435178e+00 3.2421280767e+00 
35300 6.2615886772e+00 -1.4949495016e-03 1.8718838412e+00 -3.2421979189e+00 1.8718838412e+00 3.2421979189e+00 
35400 6.2615884185e+00 -1.4794157290e-03 1.8719237730e+00 -3.2422670828e+00 1.8719237730e+00 3.2422670828e+00 
35500 6.2615881719e+00 -1.4630197732e-03 1.8719632891e+00 -3.2423355266e+00 1.8719632891e+00 3.2423355266e+00 
35600 6.2615879371e+00 -1.4458067885e-03 1.8720023664e+00 -3.2424032105e+00 1.8720023664e+00 3.2424032105e+00 
35700 6.2615877139e+00 -1.4278224993e-03 1.8720409831e+00 -3.2424700966e+00 1.8720409831e+00 3.2424700966e+00 
35800 6.2615875019e+00 -1.4091130829e-03 1.8720791187e+00 -3.2425361494e+00 1.8720791187e+00 3.2425361494e+00 
35900 6.2615873007e+00 -1.3897250554e-03 1.8721167538e+00 -3.2426013353e+00 1.8721167538e+00 3.2426013353e+00 
36000 6.2615871099e+00 -1.3697051604e-03 1.8721538703e+00 -3.2426656230e+00 1.8721538703e+00 3.2426656230e+00 
36100 6.2615869289e+00 -1.3491002588e-03 1.8721904514e+00 -3.2427289833e+00 1.8721904514e+00 3.2427289833e+00 
36200 6.2615867573e+00 -1.3279572237e-03 1.8722264815e+00 -3.2427913893e+00 1.8722264815e+00 3.2427913893e+00 
36300 6.2615865946e+00 -1.3063228364e-03 1.8722619463e+00 -3.2428528161e+00 1.8722619463e+00 3.2428528161e+00 
36400 6.2615864401e+00 -1.2842436868e-03 1.8722968326e+00 -3.2429132410e+00 1.8722968326e+00 3.2429132410e+00 
36500 6.2615862934e+00 -1.2617660763e-03 1.8723311287e+00 -3.2429726435e+00 1.8723311287e+00 3.2429726435e+00 
36600 6.2615861538e+00 -1.2389359247e-03 1.8723648238e+00 -3.2430310052e+00 1.8723648238e+00 3.2430310052e+00 
36700 6.2615860209e+00 -1.2157986802e-03 1.8723979087e+00 -3.2430883099e+00 1.8723979087e+00 3.2430883099e+00 
36800 6.2615858940e+00 -1.1923992333e-03 1.8724303752e+00 -3.2431445434e+00 1.8724303752e+00 3.2431445434e+00 
36900 6.2615857726e+00 -1.1687818343e-03 1.8724622162e+00 -3.2431996937e+00 1.8724622162e+00 3.2431996937e+00 
37000 6.2615856560e+00 -1.1449900146e-03 1.8724934261e+00 -3.2432537508e+00 1.8724934261e+00 3.2432537508e+00 
37100 6.2615855439e+00 -1.1210665115e-03 1.8725240001e+00 -3.2433067065e+00 1.8725240001e+00 3.2433067065e+00 
37200 6.2615854356e+00 -1.0970531977e-03 1.8725539348e+00 -3.2433585550e+00 1.8725539348e+00 3.2433585550e+00 
37300 6.2615853307e+00 -1.0729910144e-03 1.8725832278e+00 -3.2434092920e+00 1.8725832278e+00 3.2434092920e+00 
37400 6.2615852287e+00 -1.0489199075e-03 1.8726118779e+00 -3.2434589155e+00 1.8726118779e+00 3.2434589155e+00 
37500 6.2615851291e+00 -1.0248787695e-03 1.8726398849e+00 -3.2435074249e+00 1.8726398849e+00 3.2435074249e+00 
37600 6.2615850316e+00 -1.0009053842e-03 1.8726672495e+00 -3.2435548218e+00 1.8726672495e+00 3.2435548218e+00 
37700 6.2615849356e+00 -9.7703637533e-04 1.8726939736e+00 -3.2436011093e+00 1.8726939736e+00 3.2436011093e+00 
37800 6.2615848410e+00 -9.5330716055e-04 1.8727200601e+00 -3.2436462924e+00 1.8727200601e+00 3.2436462924e+00 
37900 6.2615847472e+00 -9.2975190787e-04 1.8727455126e+00 -3.2436903775e+00 1.8727455126e+00 3.2436903775e+00 
38000 6.2615846541e+00 -9.0640349711e-04 1.8727703359e+00 -3.2437333727e+00 1.8727703359e+00 3.2437333727e+00 
38100 6.2615845613e+00 -8.8329348489e-04 1.8727945355e+00 -3.2437752876e+00 1.8727945355e+00 3.2437752876e+00 
38200 6.2615844686e+00 -8.6045207377e-04 1.8728181177e+00 -3.2438161333e+00 1.8728181177e+00 3.2438161333e+00 
38300 6.2615843759e+00 -8.3790808514e-04 1.8728410899e+00 -3.2438559222e+00 1.8728410899e+00 3.2438559222e+00 
38400 6.2615842828e+00 -8.1568893597e-04 1.8728634599e+00 -3.2438946682e+00 1.8728634599e+00 3.2438946682e+00 
38500 6.2615841894e+00 -7.9382061946e-04 1.8728852365e+00 -3.2439323864e+00 1.8728852365e+00 3.2439323864e+00 
38600 6.2615840955e+00 -7.7232768920e-04 1.8729064290e+00 -3.2439690928e+00 1.8729064290e+00 3.2439690928e+00 
38700 6.2615840010e+00 -7.5123324718e-04 1.8729270475e+00 -3.2440048051e+00 1.8729270475e+00 3.2440048051e+00 
38800 6.2615839059e+00 -7.3055893517e-04 1.8729471025e+00 -3.2440395415e+00 1.8729471025e+00 3.2440395415e+00 
38900 6.2615838101e+00 -7.1032492971e-04 1.8729666055e+00 -3.2440733216e+00 1.8729666055e+00 3.2440733216e+00 
39000 6.2615837136e+00 -6.9054994046e-04 1.8729855681e+00 -3.2441061658e+00 1.8729855681e+00 3.2441061658e+00 
39100 6.2615836165e+00 -6.7125121173e-04 1.8730040026e+00 -3.2441380953e+00 1.8730040026e+00 3.2441380953e+00 
39200 6.2615835188e+00 -6.5244452739e-04 1.8730219217e+00 -3.2441691321e+00 1.8730219217e+00 3.2441691321e+00 
39300 6.2615834205e+00 -6.3414421868e-04 1.8730393387e+00 -3.2441992991e+00 1.8730393387e+00 3.2441992991e+00 
39400 6.2615833218e+00 -6.1636317509e-04 1.8730562669e+00 -3.2442286197e+00 1.8730562669e+00 3.2442286197e+00 
39500 6.2615832227e+00 -5.9911285812e-04 1.8730727203e+00 -3.2442571179e+00 1.8730727203e+00 3.2442571179e+00 
39600 6.2615831233e+00 -5.8240331773e-04 1.8730887131e+00 -3.2442848182e+00 1.8730887131e+00 3.2442848182e+00 
39700 6.2615830238e+00 -5.6624321145e-04 1.8731042598e+00 -3.2443117458e+00 1.8731042598e+00 3.2443117458e+00 
39800 6.2615829242e+00 -5.5063982601e-04 1.8731193749e+00 -3.2443379259e+00 1.8731193749e+00 3.2443379259e+00 
39900 6.2615828248e+00 -5.3559910135e-04 1.8731340734e+00 -3.2443633845e+00 1.8731340734e+00 3.2443633845e+00 
40000 6.2615827256e+00 -5.2112565688e-04 1.8731483703e+00 -3.2443881474e+00 1.8731483703e+00 3.2443881474e+00 
40100 6.2615826268e+00 -5.0722281991e-04 1.8731622807e+00 -3.2444122410e+00 1.8731622807e+00 3.2444122410e+00 
40200 6.2615825285e+00 -4.9389265607e-04 1.8731758199e+00 -3.2444356916e+00 1.8731758199e+00 3.2444356916e+00 
40300 6.2615824310e+00 -4.8113600162e-04 1.8731890032e+00 -3.2444585258e+00 1.8731890032e+00 3.2444585258e+00 
40400 6.2615823343e+00 -4.6895249752e-04 1.8732018460e+00 -3.2444807700e+00 1.8732018460e+00 3.2444807700e+00 
40500 6.2615822385e+00 -4.5734062513e-04 1.8732143634e+00 -3.2445024508e+00 1.8732143634e+00 3.2445024508e+00 
40600 6.2615821439e+00 -4.4629774342e-04 1.8732265708e+00 -3.2445235946e+00 1.8732265708e+00 3.2445235946e+00 
40700 6.2615820505e+00 -4.3582012753e-04 1.8732384833e+00 -3.2445442278e+00 1.8732384833e+00 3.2445442278e+00 
40800 6.2615819585e+00 -4.2590300860e-04 1.8732501161e+00 -3.2445643764e+00 1.8732501161e+00 3.2445643764e+00 
40900 6.2615818680e+00 -4.1654061473e-04 1.8732614842e+00 -3.2445840664e+00 1.8732614842e+00 3.2445840664e+00 
41000 6.2615817790e+00 -4.0772621294e-04 1.8732726022e+00 -3.2446033235e+00 1.8732726022e+00 3.2446033235e+00 
41100 6.2615816918e+00 -3.9945215193e-04 1.8732834850e+00 -3.2446221729e+00 1.8732834850e+00 3.2446221729e+00 
41200 6.2615816064e+00 -3.9170990574e-04 1.8732941468e+00 -3.2446406398e+00 1.8732941468e+00 3.2446406398e+00 
41300 6.2615815229e+00 -3.8449011790e-04 1.8733046019e+00 -3.2446587486e+00 1.8733046019e+00 3.2446587486e+00 
41400 6.2615814414e+00 -3.7778264622e-04 1.8733148643e+00 -3.2446765235e+00 1.8733148643e+00 3.2446765235e+00 
41500 6.2615813619e+00 -3.7157660788e-04 1.8733249475e+00 -3.2446939882e+00 1.8733249475e+00 3.2446939882e+00 
41600 6.2615812844e+00 -3.6586042488e-04 1.8733348651e+00 -3.2447111660e+00 1.8733348651e+00 3.2447111660e+00 
41700 6.2615812091e+00 -3.6062186969e-04 1.8733446301e+00 -3.2447280794e+00 1.8733446301e+00 3.2447280794e+00 
41800 6.2615811359e+00 -3.5584811088e-04 1.8733542552e+00 -3.2447447505e+00 1.8733542552e+00 3.2447447505e+00 
41900 6.2615810648e+00 -3.5152575884e-04 1.8733637528e+00 -3.2447612009e+00 1.8733637528e+00 3.2447612009e+00 
42000 6.2615809960e+00 -3.4764091132e-04 1.8733731350e+00 -3.2447774514e+00 1.8733731350e+00 3.2447774514e+00 
42100 6.2615809293e+00 -3.4417919870e-04 1.8733824135e+00 -3.2447935222e+00 1.8733824135e+00 3.2447935222e+00 
42200 6.2615808648e+00 -3.4112582908e-04 1.8733915995e+00 -3.2448094329e+00 1.8733915995e+00 3.2448094329e+00 
42300 6.2615808024e+00 -3.3846563280e-04 1.8734007040e+00 -3.2448252023e+00 1.8734007040e+00 3.2448252023e+00 
42400 6.2615807422e+00 -3.3618310660e-04 1.8734097375e+00 -3.2448408488e+00 1.8734097375e+00 3.2448408488e+00 
42500 6.2615806840e+00 -3.3426245713e-04 1.8734187100e+00 -3.2448563896e+00 1.8734187100e+00 3.2448563896e+00 
42600 6.2615806279e+00 -3.3268764383e-04 1.8734276312e+00 -3.2448718415e+00 1.8734276312e+00 3.2448718415e+00 
42700 6.2615805738e+00 -3.3144242112e-04 1.8734365103e+00 -3.2448872206e+00 1.8734365103e+00 3.2448872206e+00 
42800 6.2615805216e+00 -3.3051037970e-04 1.8734453562e+00 -3.2449025421e+00 1.8734453562e+00 3.2449025421e+00 
42900 6.2615804712e+00 -3.2987498707e-04 1.8734541771e+00 -3.2449178204e+00 1.8734541771e+00 3.2449178204e+00 
43000 6.2615804227e+00 -3.2951962710e-04 1.8734629810e+00 -3.2449330693e+00 1.8734629810e+00 3.2449330693e+00 
43100 6.2615803759e+00 -3.2942763857e-04 1.8734717754e+00 -3.2449483016e+00 1.8734717754e+00 3.2449483016e+00 
43200 6.2615803308e+00 -3.2958235271e-04 1.8734805674e+00 -3.2449635296e+00 1.8734805674e+00 3.2449635296e+00 
43300 6.2615802873e+00 -3.2996712966e-04 1.8734893634e+00 -3.2449787648e+00 1.8734893634e+00 3.2449787648e+00 
43400 6.2615802453e+00 -3.3056539371e-04 1.8734981696e+00 -3.2449940176e+00 1.8734981696e+00 3.2449940176e+00 
43500 6.2615802047e+00 -3.3136066742e-04 1.8735069917e+00 -3.2450092980e+00 1.8735069917e+00 3.2450092980e+00 
43600 6.2615801654e+00 -3.3233660453e-04 1.8735158351e+00 -3.2450246151e+00 1.8735158351e+00 3.2450246151e+00 
43700 6.2615801275e+00 -3.3347702152e-04 1.8735247044e+00 -3.2450399773e+00 1.8735247044e+00 3.2450399773e+00 
43800 6.2615800907e+00 -3.3476592797e-04 1.8735336041e+00 -3.2450553920e+00 1.8735336041e+00 3.2450553920e+00 
43900 6.2615800550e+00 -3.3618755553e-04 1.8735425382e+00 -3.2450708663e+00 1.8735425382e+00 3.2450708663e+00 
44000 6.2615800204e+00 -3.3772638562e-04 1.8735515102e+00 -3.2450864063e+00 1.8735515102e+00 3.2450864063e+00 
44100 6.2615799867e+00 -3.3936717566e-04 1.8735605232e+00 -3.2451020172e+00 1.8735605232e+00 3.2451020172e+00 
44200 6.2615799538e+00 -3.4109498401e-04 1.8735695800e+00 -3.2451177040e+00 1.8735695800e+00 3.2451177040e+00 
44300 6.2615799218e+00 -3.4289519345e-04 1.8735786828e+00 -3.2451334705e+00 1.8735786828e+00 3.2451334705e+00 
44400 6.2615798906e+00 -3.4475353330e-04 1.8735878336e+00 -3.2451493202e+00 1.8735878336e+00 3.2451493202e+00 
44500 6.2615798600e+00 -3.4665610009e-04 1.8735970340e+00 -3.2451652557e+00 1.8735970340e+00 3.2451652557e+00 
44600 6.2615798300e+00 -3.4858937682e-04 1.8736062850e+00 -3.2451812791e+00 1.8736062850e+00 3.2451812791e+00 
44700 6.2615798006e+00 -3.5054025083e-04 1.8736155877e+00 -3.2451973917e+00 1.8736155877e+00 3.2451973917e+00 
44800 6.2615797717e+00 -3.5249603019e-04 1.8736249423e+00 -3.2452135945e+00 1.8736249423e+00 3.2452135945e+00 
44900 6.2615797433e+00 -3.5444445875e-04 1.8736343491e+00 -3.2452298875e+00 1.8736343491e+00 3.2452298875e+00 
45000 6.2615797153e+00 -3.5637372976e-04 1.8736438079e+00 -3.2452462706e+00 1.8736438079e+00 3.2452462706e+00 
45100 6.2615796876e+00 -3.5827249808e-04 1.8736533181e+00 -3.2452627427e+00 1.8736533181e+00 3.2452627427e+00 
45200 6.2615796603e+00 -3.6012989106e-04 1.8736628789e+00 -3.2452793025e+00 1.8736628789e+00 3.2452793025e+00 
45300 6.2615796333e+00 -3.6193551802e-04 1.8736724892e+00 -3.2452959481e+00 1.8736724892e+00 3.2452959481e+00 
45400 6.2615796066e+00 -3.6367947840e-04 1.8736821477e+00 -3.2453126770e+00 1.8736821477e+00 3.2453126770e+00 
45500 6.2615795801e+00 -3.6535236863e-04 1.8736918526e+00 -3.2453294865e+00 1.8736918526e+00 3.2453294865e+00 
45600 6.2615795539e+00 -3.6694528765e-04 1.8737016022e+00 -3.2453463732e+00 1.8737016022e+00 3.2453463732e+00 
45700 6.2615795279e+00 -3.6844984119e-04 1.8737113942e+00 -3.2453633334e+00 1.8737113942e+00 3.2453633334e+00 
45800 6.2615795021e+00 -3.6985814483e-04 1.8737212263e+00 -3.2453803631e+00 1.8737212263e+00 3.2453803631e+00 
45900 6.2615794764e+00 -3.7116282578e-04 1.8737310959e+00 -3.2453974578e+00 1.8737310959e+00 3.2453974578e+00 
46000 6.2615794510e+00 -3.7235702360e-04 1.8737410003e+00 -3.2454146127e+00 1.8737410003e+00 3.2454146127e+00 
46100 6.2615794258e+00 -3.7343438963e-04 1.8737509365e+00 -3.2454318227e+00 1.8737509365e+00 3.2454318227e+00 
46200 6.2615794007e+00 -3.7438908543e-04 1.8737609014e+00 -3.2454490824e+00 1.8737609014e+00 3.2454490824e+00 
46300 6.2615793759e+00 -3.7521578009e-04 1.8737708917e+00 -3.2454663861e+00 1.8737708917e+00 3.2454663861e+00 
46400 6.2615793512e+00 -3.7590964653e-04 1.8737809040e+00 -3.2454837280e+00 1.8737809040e+00 3.2454837280e+00 
46500 6.2615793267e+00 -3.7646635671e-04 1.8737909348e+00 -3.2455011018e+00 1.8737909348e+00 3.2455011018e+00 
46600 6.2615793025e+00 -3.7688207606e-04 1.8738009804e+00 -3.2455185013e+00 1.8738009804e+00 3.2455185013e+00 
46700 6.2615792784e+00 -3.7715345680e-04 1.8738110370e+00 -3.2455359199e+00 1.8738110370e+00 3.2455359199e+00 
46800 6.2615792546e+00 -3.7727763054e-04 1.8738211008e+00 -3.2455533509e+00 1.8738211008e+00 3.2455533509e+00 
46900 6.2615792310e+00 -3.7725219991e-04 1.8738311679e+00 -3.2455707876e+00 1.8738311679e+00 3.2455707876e+00 
47000 6.2615792077e+00 -3.7707522952e-04 1.8738412342e+00 -3.2455882230e+00 1.8738412342e+00 3.2455882230e+00 
47100 6.2615791847e+00 -3.7674523607e-04 1.8738512958e+00 -3.2456056502e+00 1.8738512958e+00 3.2456056502e+00 
47200 6.2615791619e+00 -3.7626117785e-04 1.8738613485e+00 -3.2456230620e+00 1.8738613485e+00 3.2456230620e+00 
47300 6.2615791394e+00 -3.7562244347e-04 1.8738713883e+00 -3.2456404513e+00 1.8738713883e+00 3.2456404513e+00 
47400 6.2615791173e+00 -3.7482884009e-04 1.8738814109e+00 -3.2456578110e+00 1.8738814109e+00 3.2456578110e+00 
47500 6.2615790954e+00 -3.7388058098e-04 1.8738914123e+00 -3.2456751340e+00 1.8738914123e+00 3.2456751340e+00 
47600 6.2615790739e+00 -3.7277827261e-04 1.8739013884e+00 -3.2456924130e+00 1.8739013884e+00 3.2456924130e+00 
47700 6.2615790528e+00 -3.7152290121e-04 1.8739113350e+00 -3.2457096410e+00 1.8739113350e+00 3.2457096410e+00 
47800 6.2615790320e+00 -3.7011581898e-04 1.8739212480e+00 -3.2457268109e+00 1.8739212480e+00 3.2457268109e+00 
47900 6.2615790116e+00 -3.6855872973e-04 1.8739311234e+00 -3.2457439157e+00 1.8739311234e+00 3.2457439157e+00 
48000 6.2615789916e+00 -3.6685367436e-04 1.8739409573e+00 -3.2457609484e+00 1.8739409573e+00 3.2457609484e+00 
48100 6.2615789719e+00 -3.6500301591e-04 1.8739507456e+00 -3.2457779022e+00 1.8739507456e+00 3.2457779022e+00 
48200 6.2615789527e+00 -3.6300942437e-04 1.8739604845e+00 -3.2457947705e+00 1.8739604845e+00 3.2457947705e+00 
48300 6.2615789339e+00 -3.6087586123e-04 1.8739701701e+00 -3.2458115465e+00 1.8739701701e+00 3.2458115465e+00 
48400 6.2615789155e+00 -3.5860556393e-04 1.8739797987e+00 -3.2458282238e+00 1.8739797987e+00 3.2458282238e+00 
48500 6.2615788975e+00 -3.5620203004e-04 1.8739893668e+00 -3.2458447961e+00 1.8739893668e+00 3.2458447961e+00 
48600 6.2615788799e+00 -3.5366900146e-04 1.8739988706e+00 -3.2458612573e+00 1.8739988706e+00 3.2458612573e+00 
48700 6.2615788627e+00 -3.5101044842e-04 1.8740083068e+00 -3.2458776013e+00 1.8740083068e+00 3.2458776013e+00 
48800 6.2615788460e+00 -3.4823055354e-04 1.8740176721e+00 -3.2458938223e+00 1.8740176721e+00 3.2458938223e+00 
48900 6.2615788297e+00 -3.4533369587e-04 1.8740269631e+00 -3.2459099149e+00 1.8740269631e+00 3.2459099149e+00 
49000 6.2615788138e+00 -3.4232443495e-04 1.8740361768e+00 -3.2459258734e+00 1.8740361768e+00 3.2459258734e+00 
49100 6.2615787984e+00 -3.3920749491e-04 1.8740453102e+00 -3.2459416929e+00 1.8740453102e+00 3.2459416929e+00 
49200 6.2615787833e+00 -3.3598774880e-04 1.8740543603e+00 -3.2459573682e+00 1.8740543603e+00 3.2459573682e+00 
49300 6.2615787687e+00 -3.3267020291e-04 1.8740633245e+00 -3.2459728946e+00 1.8740633245e+00 3.2459728946e+00 
49400 6.2615787544e+00 -3.2925998131e-04 1.8740722001e+00 -3.2459882677e+00 1.8740722001e+00 3.2459882677e+00 
49500 6.2615787406e+00 -3.2576231064e-04 1.8740809848e+00 -3.2460034831e+00 1.8740809848e+00 3.2460034831e+00 
49600 6.2615787271e+00 -3.2218250505e-04 1.8740896760e+00 -3.2460185368e+00 1.8740896760e+00 3.2460185368e+00 
49700 6.2615787141e+00 -3.1852595142e-04 1.8740982717e+00 -3.2460334250e+00 1.8740982717e+00 3.2460334250e+00 
49800 6.2615787014e+00 -3.1479809487e-04 1.8741067699e+00 -3.2460481442e+00 1.8741067699e+00 3.2460481442e+00 
49900 6.2615786890e+00 -3.1100442452e-04 1.8741151685e+00 -3.2460626911e+00 1.8741151685e+00 3.2460626911e+00 
50000 6.2615786770e+00 -3.0715045966e-04 1.8741234659e+00 -3.2460770625e+00 1.8741234659e+00 3.2460770625e+00 
50100 6.2615786654e+00 -3.0324173617e-04 1.8741316604e+00 -3.2460912558e+00 1.8741316604e+00 3.2460912558e+00 
50200 6.2615786540e+00 -2.9928379336e-04 1.8741397506e+00 -3.2461052685e+00 1.8741397506e+00 3.2461052685e+00 
50300 6.2615786430e+00 -2.9528216116e-04 1.8741477351e+00 -3.2461190982e+00 1.8741477351e+00 3.2461190982e+00 
50400 6.2615786323e+00 -2.9124234777e-04 1.8741556129e+00 -3.2461327429e+00 1.8741556129e+00 3.2461327429e+00 
50500 6.2615786219e+00 -2.8716982763e-04 1.8741633829e+00 -3.2461462008e+00 1.8741633829e+00 3.2461462008e+00 
50600 6.2615786117e+00 -2.8307002991e-04 1.8741710442e+00 -3.2461594706e+00 1.8741710442e+00 3.2461594706e+00 
50700 6.2615786019e+00 -2.7894832739e-04 1.8741785961e+00 -3.2461725508e+00 1.8741785961e+00 3.2461725508e+00 
50800 6.2615785922e+00 -2.7481002579e-04 1.8741860379e+00 -3.2461854405e+00 1.8741860379e+00 3.2461854405e+00 
50900 6.2615785829e+00 -2.7066035361e-04 1.8741933694e+00 -3.2461981390e+00 1.8741933694e+00 3.2461981390e+00 
51000 6.2615785737e+00 -2.6650445240e-04 1.8742005901e+00 -3.2462106457e+00 1.8742005901e+00 3.2462106457e+00 
51100 6.2615785648e+00 -2.6234736753e-04 1.8742076999e+00 -3.2462229602e+00 1.8742076999e+00 3.2462229602e+00 
51200 6.2615785561e+00 -2.5819403944e-04 1.8742146988e+00 -3.2462350827e+00 1.8742146988e+00 3.2462350827e+00 
51300 6.2615785475e+00 -2.5404929539e-04 1.8742215869e+00 -3.2462470131e+00 1.8742215869e+00 3.2462470131e+00 
51400 6.2615785392e+00 -2.4991784168e-04 1.8742283644e+00 -3.2462587520e+00 1.8742283644e+00 3.2462587520e+00 
51500 6.2615785310e+00 -2.4580425644e-04 1.8742350316e+00 -3.2462703000e+00 1.8742350316e+00 3.2462703000e+00 
51600 6.2615785230e+00 -2.4171298281e-04 1.8742415890e+00 -3.2462816579e+00 1.8742415890e+00 3.2462816579e+00 
51700 6.2615785152e+00 -2.3764832273e-04 1.8742480373e+00 -3.2462928266e+00 1.8742480373e+00 3.2462928266e+00 
51800 6.2615785075e+00 -2.3361443114e-04 1.8742543772e+00 -3.2463038076e+00 1.8742543772e+00 3.2463038076e+00 
51900 6.2615785000e+00 -2.2961531075e-04 1.8742606094e+00 -3.2463146020e+00 1.8742606094e+00 3.2463146020e+00 
52000 6.2615784926e+00 -2.2565480726e-04 1.8742667349e+00 -3.2463252117e+00 1.8742667349e+00 3.2463252117e+00 
52100 6.2615784853e+00 -2.2173660508e-04 1.8742727547e+00 -3.2463356383e+00 1.8742727547e+00 3.2463356383e+00 
52200 6.2615784781e+00 -2.1786422356e-04 1.8742786700e+00 -3.2463458839e+00 1.8742786700e+00 3.2463458839e+00 
52300 6.2615784711e+00 -2.1404101364e-04 1.8742844819e+00 -3.2463559505e+00 1.8742844819e+00 3.2463559505e+00 
52400 6.2615784642e+00 -2.1027015505e-04 1.8742901918e+00 -3.2463658404e+00 1.8742901918e+00 3.2463658404e+00 
52500 6.2615784574e+00 -2.0655465393e-04 1.8742958012e+00 -3.2463755560e+00 1.8742958012e+00 3.2463755560e+00 
52600 6.2615784506e+00 -2.0289734090e-04 1.8743013114e+00 -3.2463851000e+00 1.8743013114e+00 3.2463851000e+00 
52700 6.2615784440e+00 -1.9930086963e-04 1.8743067240e+00 -3.2463944749e+00 1.8743067240e+00 3.2463944749e+00 
52800 6.2615784375e+00 -1.9576771576e-04 1.8743120406e+00 -3.2464036836e+00 1.8743120406e+00 3.2464036836e+00 
52900 6.2615784311e+00 -1.9230017634e-04 1.8743172630e+00 -3.2464127291e+00 1.8743172630e+00 3.2464127291e+00 
53000 6.2615784248e+00 -1.8890036964e-04 1.8743223929e+00 -3.2464216143e+00 1.8743223929e+00 3.2464216143e+00 
53100 6.2615784185e+00 -1.8557023535e-04 1.8743274321e+00 -3.2464303424e+00 1.8743274321e+00 3.2464303424e+00 
53200 6.2615784124e+00 -1.8231153523e-04 1.8743323824e+00 -3.2464389166e+00 1.8743323824e+00 3.2464389166e+00 
53300 6.2615784063e+00 -1.7912585407e-04 1.8743372458e+00 -3.2464473402e+00 1.8743372458e+00 3.2464473402e+00 
53400 6.2615784004e+00 -1.7601460103e-04 1.8743420241e+00 -3.2464556166e+00 1.8743420241e+00 3.2464556166e+00 
53500 6.2615783945e+00 -1.7297901142e-04 1.8743467195e+00 -3.2464637492e+00 1.8743467195e+00 3.2464637492e+00 
53600 6.2615783887e+00 -1.7002014866e-04 1.8743513339e+00 -3.2464717416e+00 1.8743513339e+00 3.2464717416e+00 
53700 6.2615783830e+00 -1.6713890674e-04 1.8743558693e+00 -3.2464795972e+00 1.8743558693e+00 3.2464795972e+00 
53800 6.2615783774e+00 -1.6433601281e-04 1.8743603279e+00 -3.2464873196e+00 1.8743603279e+00 3.2464873196e+00 
53900 6.2615783718e+00 -1.6161203024e-04 1.8743647117e+00 -3.2464949126e+00 1.8743647117e+00 3.2464949126e+00 
54000 6.2615783664e+00 -1.5896736181e-04 1.8743690228e+00 -3.2465023797e+00 1.8743690228e+00 3.2465023797e+00 
54100 6.2615783610e+00 -1.5640225323e-04 1.8743732634e+00 -3.2465097245e+00 1.8743732634e+00 3.2465097245e+00 
54200 6.2615783558e+00 -1.5391679696e-04 1.8743774355e+00 -3.2465169509e+00 1.8743774355e+00 3.2465169509e+00 
54300 6.2615783506e+00 -1.5151093611e-04 1.8743815413e+00 -3.2465240623e+00 1.8743815413e+00 3.2465240623e+00 
54400 6.2615783455e+00 -1.4918446875e-04 1.8743855829e+00 -3.2465310626e+00 1.8743855829e+00 3.2465310626e+00 
54500 6.2615783405e+00 -1.4693705225e-04 1.8743895625e+00 -3.2465379554e+00 1.8743895625e+00 3.2465379554e+00 
54600 6.2615783356e+00 -1.4476820791e-04 1.8743934821e+00 -3.2465447444e+00 1.8743934821e+00 3.2465447444e+00 
54700 6.2615783308e+00 -1.4267732572e-04 1.8743973438e+00 -3.2465514331e+00 1.8743973438e+00 3.2465514331e+00 
54800 6.2615783261e+00 -1.4066366926e-04 1.8744011498e+00 -3.2465580252e+00 1.8744011498e+00 3.2465580252e+00 
54900 6.2615783214e+00 -1.3872638079e-04 1.8744049020e+00 -3.2465645243e+00 1.8744049020e+00 3.2465645243e+00 
55000 6.2615783169e+00 -1.3686448640e-04 1.8744086026e+00 -3.2465709338e+00 1.8744086026e+00 3.2465709338e+00 
55100 6.2615783125e+00 -1.3507690133e-04 1.8744122534e+00 -3.2465772573e+00 1.8744122534e+00 3.2465772573e+00 
55200 6.2615783081e+00 -1.3336243532e-04 1.8744158566e+00 -3.2465834982e+00 1.8744158566e+00 3.2465834982e+00 
55300 6.2615783039e+00 -1.3171979810e-04 1.8744194141e+00 -3.2465896599e+00 1.8744194141e+00 3.2465896599e+00 
55400 6.2615782997e+00 -1.3014760487e-04 1.8744229277e+00 -3.2465957456e+00 1.8744229277e+00 3.2465957456e+00 
55500 6.2615782957e+00 -1.2864438192e-04 1.8744263994e+00 -3.2466017587e+00 1.8744263994e+00 3.2466017587e+00 
55600 6.2615782917e+00 -1.2720857223e-04 1.8744298309e+00 -3.2466077024e+00 1.8744298309e+00 3.2466077024e+00 
55700 6.2615782878e+00 -1.2583854109e-04 1.8744332242e+00 -3.2466135797e+00 1.8744332242e+00 3.2466135797e+00 
55800 6.2615782840e+00 -1.2453258173e-04 1.8744365809e+00 -3.2466193937e+00 1.8744365809e+00 3.2466193937e+00 
55900 6.2615782803e+00 -1.2328892099e-04 1.8744399028e+00 -3.2466251473e+00 1.8744399028e+00 3.2466251473e+00 
56000 6.2615782767e+00 -1.2210572493e-04 1.8744431914e+00 -3.2466308435e+00 1.8744431914e+00 3.2466308435e+00 
56100 6.2615782732e+00 -1.2098110441e-04 1.8744464486e+00 -3.2466364850e+00 1.8744464486e+00 3.2466364850e+00 
56200 6.2615782698e+00 -1.1991312066e-04 1.8744496757e+00 -3.2466420745e+00 1.8744496757e+00 3.2466420745e+00 
56300 6.2615782664e+00 -1.1889979079e-04 1.8744528743e+00 -3.2466476147e+00 1.8744528743e+00 3.2466476147e+00 
56400 6.2615782631e+00 -1.1793909323e-04 1.8744560459e+00 -3.2466531080e+00 1.8744560459e+00 3.2466531080e+00 
56500 6.2615782600e+00 -1.1702897310e-04 1.8744591919e+00 -3.2466585570e+00 1.8744591919e+00 3.2466585570e+00 
56600 6.2615782569e+00 -1.1616734749e-04 1.8744623135e+00 -3.2466639639e+00 1.8744623135e+00 3.2466639639e+00 
56700 6.2615782538e+00 -1.1535211069e-04 1.8744654122e+00 -3.2466693310e+00 1.8744654122e+00 3.2466693310e+00 
56800 6.2615782509e+00 -1.1458113927e-04 1.8744684891e+00 -3.2466746604e+00 1.8744684891e+00 3.2466746604e+00 
56900 6.2615782480e+00 -1.1385229706e-04 1.8744715455e+00 -3.2466799542e+00 1.8744715455e+00 3.2466799542e+00 
57000 6.2615782452e+00 -1.1316344008e-04 1.8744745824e+00 -3.2466852143e+00 1.8744745824e+00 3.2466852143e+00 
57100 6.2615782425e+00 -1.1251242123e-04 1.8744776010e+00 -3.2466904425e+00 1.8744776010e+00 3.2466904425e+00 
57200 6.2615782399e+00 -1.1189709496e-04 1.8744806021e+00 -3.2466956407e+00 1.8744806021e+00 3.2466956407e+00 
57300 6.2615782373e+00 -1.1131532175e-04 1.8744835869e+00 -3.2467008104e+00 1.8744835869e+00 3.2467008104e+00 
57400 6.2615782347e+00 -1.1076497245e-04 1.8744865561e+00 -3.2467059533e+00 1.8744865561e+00 3.2467059533e+00 
57500 6.2615782323e+00 -1.1024393245e-04 1.8744895107e+00 -3.2467110707e+00 1.8744895107e+00 3.2467110707e+00 
57600 6.2615782299e+00 -1.0975010581e-04 1.8744924513e+00 -3.2467161640e+00 1.8744924513e+00 3.2467161640e+00 
57700 6.2615782275e+00 -1.0928141904e-04 1.8744953788e+00 -3.2467212346e+00 1.8744953788e+00 3.2467212346e+00 
57800 6.2615782253e+00 -1.0883582491e-04 1.8744982937e+00 -3.2467262834e+00 1.8744982937e+00 3.2467262834e+00 
57900 6.2615782230e+00 -1.0841130598e-04 1.8745011968e+00 -3.2467313117e+00 1.8745011968e+00 3.2467313117e+00 
58000 6.2615782209e+00 -1.0800587797e-04 1.8745040885e+00 -3.2467363203e+00 1.8745040885e+00 3.2467363203e+00 
58100 6.2615782187e+00 -1.0761759305e-04 1.8745069694e+00 -3.2467413102e+00 1.8745069694e+00 3.2467413102e+00 
58200 6.2615782167e+00 -1.0724454281e-04 1.8745098400e+00 -3.2467462822e+00 1.8745098400e+00 3.2467462822e+00 
58300 6.2615782146e+00 -1.0688486122e-04 1.8745127006e+00 -3.2467512369e+00 1.8745127006e+00 3.2467512369e+00 
58400 6.2615782126e+00 -1.0653672725e-04 1.8745155516e+00 -3.2467561750e+00 1.8745155516e+00 3.2467561750e+00 
58500 6.2615782107e+00 -1.0619836746e-04 1.8745183933e+00 -3.2467610969e+00 1.8745183933e+00 3.2467610969e+00 
58600 6.2615782088e+00 -1.0586805831e-04 1.8745212260e+00 -3.2467660033e+00 1.8745212260e+00 3.2467660033e+00 
58700 6.2615782069e+00 -1.0554412834e-04 1.8745240499e+00 -3.2467708944e+00 1.8745240499e+00 3.2467708944e+00 
58800 6.2615782051e+00 -1.0522496019e-04 1.8745268651e+00 -3.2467757705e+00 1.8745268651e+00 3.2467757705e+00 
58900 6.2615782033e+00 -1.0490899236e-04 1.8745296718e+00 -3.2467806319e+00 1.8745296718e+00 3.2467806319e+00 
59000 6.2615782016e+00 -1.0459472092e-04 1.8745324701e+00 -3.2467854786e+00 1.8745324701e+00 3.2467854786e+00 
59100 6.2615781999e+00 -1.0428070093e-04 1.8745352600e+00 -3.2467903108e+00 1.8745352600e+00 3.2467903108e+00 
59200 6.2615781982e+00 -1.0396554779e-04 1.8745380415e+00 -3.2467951286e+00 1.8745380415e+00 3.2467951286e+00 
59300 6.2615781965e+00 -1.0364793831e-04 1.8745408146e+00 -3.2467999317e+00 1.8745408146e+00 3.2467999317e+00 
59400 6.2615781949e+00 -1.0332661171e-04 1.8745435792e+00 -3.2468047202e+00 1.8745435792e+00 3.2468047202e+00 
59500 6.2615781933e+00 -1.0300037041e-04 1.8745463352e+00 -3.2468094938e+00 1.8745463352e+00 3.2468094938e+00 
59600 6.2615781918e+00 -1.0266808070e-04 1.8745490826e+00 -3.2468142523e+00 1.8745490826e+00 3.2468142523e+00 
59700 6.2615781903e+00 -1.0232867315e-04 1.8745518211e+00 -3.2468189955e+00 1.8745518211e+00 3.2468189955e+00 
59800 6.2615781888e+00 -1.0198114301e-04 1.8745545505e+00 -3.2468237230e+00 1.8745545505e+00 3.2468237230e+00 
59900 6.2615781873e+00 -1.0162455032e-04 1.8745572706e+00 -3.2468284344e+00 1.8745572706e+00 3.2468284344e+00 
60000 6.2615781859e+00 -1.0125801999e-04 1.8745599813e+00 -3.2468331294e+00 1.8745599813e+00 3.2468331294e+00 
60100 6.2615781844e+00 -1.0088074167e-04 1.8745626821e+00 -3.2468378074e+00 1.8745626821e+00 3.2468378074e+00 
60200 6.2615781831e+00 -1.0049196948e-04 1.8745653729e+00 -3.2468424679e+00 1.8745653729e+00 3.2468424679e+00 
60300 6.2615781817e+00 -1.0009102165e-04 1.8745680533e+00 -3.2468471105e+00 1.8745680533e+00 3.2468471105e+00 
60400 6.2615781804e+00 -9.9677279997e-05 1.8745707230e+00 -3.2468517346e+00 1.8745707230e+00 3.2468517346e+00 
60500 6.2615781790e+00 -9.9250189285e-05 1.8745733817e+00 -3.2468563396e+00 1.8745733817e+00 3.2468563396e+00 
60600 6.2615781778e+00 -9.8809256467e-05 1.8745760289e+00 -3.2468609248e+00 1.8745760289e+00 3.2468609248e+00 
60700 6.2615781765e+00 -9.8354049825e-05 1.8745786645e+00 -3.2468654896e+00 1.8745786645e+00 3.2468654896e+00 
60800 6.2615781752e+00 -9.7884197983e-05 1.8745812878e+00 -3.2468700334e+00 1.8745812878e+00 3.2468700334e+00 
60900 6.2615781740e+00 -9.7399388824e-05 1.8745838986e+00 -3.2468745555e+00 1.8745838986e+00 3.2468745555e+00 
61000 6.2615781728e+00 -9.6899368321e-05 1.8745864965e+00 -3.2468790552e+00 1.8745864965e+00 3.2468790552e+00 
61100 6.2615781717e+00 -9.6383939255e-05 1.8745890811e+00 -3.2468835318e+00 1.8745890811e+00 3.2468835318e+00 
61200 6.2615781705e+00 -9.5852959861e-05 1.8745916519e+00 -3.2468879845e+00 1.8745916519e+00 3.2468879845e+00 
61300 6.2615781694e+00 -9.5306342390e-05 1.8745942085e+00 -3.2468924128e+00 1.8745942085e+00 3.2468924128e+00 
61400 6.2615781683e+00 -9.4744051591e-05 1.8745967506e+00 -3.2468968157e+00 1.8745967506e+00 3.2468968157e+00 
61500 6.2615781672e+00 -9.4166103122e-05 1.8745992776e+00 -3.2469011927e+00 1.8745992776e+00 3.2469011927e+00 
61600 6.2615781662e+00 -9.3572561904e-05 1.8746017893e+00 -3.2469055430e+00 1.8746017893e+00 3.2469055430e+00 
61700 6.2615781651e+00 -9.2963540413e-05 1.8746042851e+00 -3.2469098658e+00 1.8746042851e+00 3.2469098658e+00 
61800 6.2615781641e+00 -9.2339196909e-05 1.8746067646e+00 -3.2469141605e+00 1.8746067646e+00 3.2469141605e+00 
61900 6.2615781631e+00 -9.1699733633e-05 1.8746092275e+00 -3.2469184264e+00 1.8746092275e+00 3.2469184264e+00 
62000 6.2615781621e+00 -9.1045394945e-05 1.8746116734e+00 -3.2469226627e+00 1.8746116734e+00 3.2469226627e+00 
62100 6.2615781612e+00 -9.0376465434e-05 1.8746141017e+00 -3.2469268688e+00 1.8746141017e+00 3.2469268688e+00 
62200 6.2615781603e+00 -8.9693267993e-05 1.8746165123e+00 -3.2469310440e+00 1.8746165123e+00 3.2469310440e+00 
62300 6.2615781594e+00 -8.8996161874e-05 1.8746189046e+00 -3.2469351876e+00 1.8746189046e+00 3.2469351876e+00 
62400 6.2615781585e+00 -8.8285540701e-05 1.8746212783e+00 -3.2469392990e+00 1.8746212783e+00 3.2469392990e+00 
62500 6.2615781576e+00 -8.7561830489e-05 1.8746236331e+00 -3.2469433775e+00 1.8746236331e+00 3.2469433775e+00 
62600 6.2615781568e+00 -8.6825487636e-05 1.8746259685e+00 -3.2469474226e+00 1.8746259685e+00 3.2469474226e+00 
62700 6.2615781559e+00 -8.6076996918e-05 1.8746282843e+00 -3.2469514337e+00 1.8746282843e+00 3.2469514337e+00 
62800 6.2615781551e+00 -8.5316869467e-05 1.8746305802e+00 -3.2469554103e+00 1.8746305802e+00 3.2469554103e+00 
62900 6.2615781544e+00 -8.4545640769e-05 1.8746328557e+00 -3.2469593516e+00 1.8746328557e+00 3.2469593516e+00 
63000 6.2615781536e+00 -8.3763868646e-05 1.8746351107e+00 -3.2469632574e+00 1.8746351107e+00 3.2469632574e+00 
63100 6.2615781528e+00 -8.2972131278e-05 1.8746373449e+00 -3.2469671271e+00 1.8746373449e+00 3.2469671271e+00 
63200 6.2615781521e+00 -8.2171025199e-05 1.8746395579e+00 -3.2469709601e+00 1.8746395579e+00 3.2469709601e+00 
63300 6.2615781514e+00 -8.1361163355e-05 1.8746417495e+00 -3.2469747562e+00 1.8746417495e+00 3.2469747562e+00 
63400 6.2615781507e+00 -8.0543173152e-05 1.8746439196e+00 -3.2469785148e+00 1.8746439196e+00 3.2469785148e+00 
63500 6.2615781500e+00 -7.9717694547e-05 1.8746460678e+00 -3.2469822356e+00 1.8746460678e+00 3.2469822356e+00 
63600 6.2615781494e+00 -7.8885378155e-05 1.8746481940e+00 -3.2469859183e+00 1.8746481940e+00 3.2469859183e+00 
63700 6.2615781487e+00 -7.8046883402e-05 1.8746502980e+00 -3.2469895626e+00 1.8746502980e+00 3.2469895626e+00 
63800 6.2615781481e+00 -7.7202876706e-05 1.8746523796e+00 -3.2469931681e+00 1.8746523796e+00 3.2469931681e+00 
63900 6.2615781475e+00 -7.6354029693e-05 1.8746544388e+00 -3.2469967346e+00 1.8746544388e+00 3.2469967346e+00 
64000 6.2615781469e+00 -7.5501017469e-05 1.8746564753e+00 -3.2470002619e+00 1.8746564753e+00 3.2470002619e+00 
64100 6.2615781463e+00 -7.4644516913e-05 1.8746584890e+00 -3.2470037498e+00 1.8746584890e+00 3.2470037498e+00 
64200 6.2615781458e+00 -7.3785205042e-05 1.8746604799e+00 -3.2470071981e+00 1.8746604799e+00 3.2470071981e+00 
64300 6.2615781452e+00 -7.2923757401e-05 1.8746624478e+00 -3.2470106067e+00 1.8746624478e+00 3.2470106067e+00 
64400 6.2615781447e+00 -7.2060846526e-05 1.8746643928e+00 -3.2470139755e+00 1.8746643928e+00 3.2470139755e+00 
64500 6.2615781442e+00 -7.1197140437e-05 1.8746663148e+00 -3.2470173044e+00 1.8746663148e+00 3.2470173044e+00 
64600 6.2615781437e+00 -7.0333301207e-05 1.8746682137e+00 -3.2470205935e+00 1.8746682137e+00 3.2470205935e+00 
64700 6.2615781433e+00 -7.0831139163e-05 1.8746682137e+00 -3.2470205935e+00 1.8746682137e+00 3.2470205935e+00 
64800 6.2615781428e+00 -6.9949669182e-05 1.8746701029e+00 -3.2470238656e+00 1.8746701029e+00 3.2470238656e+00 
64900 6.2615781425e+00 -7.0424202123e-05 1.8746701029e+00 -3.2470238656e+00 1.8746701029e+00 3.2470238656e+00 
65000 6.2615781422e+00 -7.0891581630e-05 1.8746701029e+00 -3.2470238656e+00 1.8746701029e+00 3.2470238656e+00 
65100 6.2615781417e+00 -6.9980634952e-05 1.8746719936e+00 -3.2470271405e+00 1.8746719936e+00 3.2470271405e+00 
65200 6.2615781414e+00 -7.0428974575e-05 1.8746719936e+00 -3.2470271405e+00 1.8746719936e+00 3.2470271405e+00 
65300 6.2615781411e+00 -7.0872244180e-05 1.8746719936e+00 -3.2470271405e+00 1.8746719936e+00 3.2470271405e+00 
65400 6.2615781407e+00 -6.9939604883e-05 1.8746738839e+00 -3.2470304145e+00 1.8746738839e+00 3.2470304145e+00 
65500 6.2615781404e+00 -7.0367876654e-05 1.8746738839e+00 -3.2470304145e+00 1.8746738839e+00 3.2470304145e+00 
65600 6.2615781401e+00 -7.0793026703e-05 1.8746738839e+00 -3.2470304145e+00 1.8746738839e+00 3.2470304145e+00 
65700 6.2615781397e+00 -6.9845697104e-05 1.8746757720e+00 -3.2470336849e+00 1.8746757720e+00 3.2470336849e+00 
65800 6.2615781395e+00 -7.0259592448e-05 1.8746757720e+00 -3.2470336849e+00 1.8746757720e+00 3.2470336849e+00 
65900 6.2615781392e+00 -7.0672146742e-05 1.8746757720e+00 -3.2470336849e+00 1.8746757720e+00 3.2470336849e+00 
66000 6.2615781390e+00 -7.1083992873e-05 1.8746757720e+00 -3.2470336849e+00 1.8746757720e+00 3.2470336849e+00 
66100 6.2615781386e+00 -7.0120054228e-05 1.8746776680e+00 -3.2470369687e+00 1.8746776680e+00 3.2470369687e+00 
66200 6.2615781383e+00 -7.0525179222e-05 1.8746776680e+00 -3.2470369687e+00 1.8746776680e+00 3.2470369687e+00 
66300 6.2615781381e+00 -7.0931104672e-05 1.8746776680e+00 -3.2470369687e+00 1.8746776680e+00 3.2470369687e+00 
66400 6.2615781377e+00 -6.9965643275e-05 1.8746795598e+00 -3.2470402454e+00 1.8746795598e+00 3.2470402454e+00 
66500 6.2615781375e+00 -7.0367667333e-05 1.8746795598e+00 -3.2470402454e+00 1.8746795598e+00 3.2470402454e+00 
66600 6.2615781373e+00 -7.0771785830e-05 1.8746795598e+00 -3.2470402454e+00 1.8746795598e+00 3.2470402454e+00 
66700 6.2615781370e+00 -6.9808822494e-05 1.8746814473e+00 -3.2470435148e+00 1.8746814473e+00 3.2470435148e+00 
66800 6.2615781368e+00 -7.0211422652e-05 1.8746814473e+00 -3.2470435148e+00 1.8746814473e+00 3.2470435148e+00 
66900 6.2615781366e+00 -7.0617189917e-05 1.8746814473e+00 -3.2470435148e+00 1.8746814473e+00 3.2470435148e+00 
67000 6.2615781364e+00 -7.1026513287e-05 1.8746814473e+00 -3.2470435148e+00 1.8746814473e+00 3.2470435148e+00 
67100 6.2615781361e+00 -7.0065184837e-05 1.8746833417e+00 -3.2470467959e+00 1.8746833417e+00 3.2470467959e+00 
67200 6.2615781359e+00 -7.0475580855e-05 1.8746833417e+00 -3.2470467959e+00 1.8746833417e+00 3.2470467959e+00 
67300 6.2615781357e+00 -7.0890297733e-05 1.8746833417e+00 -3.2470467959e+00 1.8746833417e+00 3.2470467959e+00 
67400 6.2615781354e+00 -6.9937691726e-05 1.8746852324e+00 -3.2470500708e+00 1.8746852324e+00 3.2470500708e+00 
67500 6.2615781353e+00 -7.0354804083e-05 1.8746852324e+00 -3.2470500708e+00 1.8746852324e+00 3.2470500708e+00 
67600 6.2615781351e+00 -7.0776784014e-05 1.8746852324e+00 -3.2470500708e+00 1.8746852324e+00 3.2470500708e+00 
67700 6.2615781348e+00 -6.9834116015e-05 1.8746871201e+00 -3.2470533404e+00 1.8746871201e+00 3.2470533404e+00 
67800 6.2615781347e+00 -7.0259385863e-05 1.8746871201e+00 -3.2470533404e+00 1.8746871201e+00 3.2470533404e+00 
67900 6.2615781345e+00 -7.0689862639e-05 1.8746871201e+00 -3.2470533404e+00 1.8746871201e+00 3.2470533404e+00 
68000 6.2615781344e+00 -7.1125696713e-05 1.8746871201e+00 -3.2470533404e+00 1.8746871201e+00 3.2470533404e+00 
68100 6.2615781341e+00 -7.0190531191e-05 1.8746890171e+00 -3.2470566261e+00 1.8746890171e+00 3.2470566261e+00 
68200 6.2615781340e+00 -7.0630330607e-05 1.8746890171e+00 -3.2470566261e+00 1.8746890171e+00 3.2470566261e+00 
68300 6.2615781339e+00 -7.1075560139e-05 1.8746890171e+00 -3.2470566261e+00 1.8746890171e+00 3.2470566261e+00 
68400 6.2615781336e+00 -7.0150775948e-05 1.8746909128e+00 -3.2470599094e+00 1.8746909128e+00 3.2470599094e+00 
68500 6.2615781335e+00 -7.0599944136e-05 1.8746909128e+00 -3.2470599094e+00 1.8746909128e+00 3.2470599094e+00 
68600 6.2615781334e+00 -7.1054442249e-05 1.8746909128e+00 -3.2470599094e+00 1.8746909128e+00 3.2470599094e+00 
68700 6.2615781331e+00 -7.0139184720e-05 1.8746928079e+00 -3.2470631919e+00 1.8746928079e+00 3.2470631919e+00 
68800 6.2615781330e+00 -7.0597265794e-05 1.8746928079e+00 -3.2470631919e+00 1.8746928079e+00 3.2470631919e+00 
68900 6.2615781329e+00 -7.1060423718e-05 1.8746928079e+00 -3.2470631919e+00 1.8746928079e+00 3.2470631919e+00 
69000 6.2615781327e+00 -7.0153413989e-05 1.8746947031e+00 -3.2470664745e+00 1.8746947031e+00 3.2470664745e+00 
69100 6.2615781326e+00 -7.0619511843e-05 1.8746947031e+00 -3.2470664745e+00 1.8746947031e+00 3.2470664745e+00 
69200 6.2615781325e+00 -7.1090301819e-05 1.8746947031e+00 -3.2470664745e+00 1.8746947031e+00 3.2470664745e+00 
69300 6.2615781323e+00 -7.0189925487e-05 1.8746965992e+00 -3.2470697586e+00 1.8746965992e+00 3.2470697586e+00 
69400 6.2615781322e+00 -7.0662768490e-05 1.8746965992e+00 -3.2470697586e+00 1.8746965992e+00 3.2470697586e+00 
69500 6.2615781322e+00 -7.1139809049e-05 1.8746965992e+00 -3.2470697586e+00 1.8746965992e+00 3.2470697586e+00 
69600 6.2615781319e+00 -7.0244202469e-05 1.8746984966e+00 -3.2470730449e+00 1.8746984966e+00 3.2470730449e+00 
69700 6.2615781319e+00 -7.0722209513e-05 1.8746984966e+00 -3.2470730449e+00 1.8746984966e+00 3.2470730449e+00 
69800 6.2615781317e+00 -6.9835176576e-05 1.8747003828e+00 -3.2470763120e+00 1.8747003828e+00 3.2470763120e+00 
69900 6.2615781316e+00 -7.0313222683e-05 1.8747003828e+00 -3.2470763120e+00 1.8747003828e+00 3.2470763120e+00 
70000 6.2615781316e+00 -7.0794384246e-05 1.8747003828e+00 -3.2470763120e+00 1.8747003828e+00 3.2470763120e+00 
70100 6.2615781314e+00 -6.9908476308e-05 1.8747022709e+00 -3.2470795823e+00 1.8747022709e+00 3.2470795823e+00 
70200 6.2615781313e+00 -7.0388380399e-05 1.8747022709e+00 -3.2470795823e+00 1.8747022709e+00 3.2470795823e+00 
70300 6.2615781313e+00 -7.0870732408e-05 1.8747022709e+00 -3.2470795823e+00 1.8747022709e+00 3.2470795823e+00 
70400 6.2615781311e+00 -6.9983861560e-05 1.8747041611e+00 -3.2470828562e+00 1.8747041611e+00 3.2470828562e+00 
70500 6.2615781310e+00 -7.0463579082e-05 1.8747041611e+00 -3.2470828562e+00 1.8747041611e+00 3.2470828562e+00 
70600 6.2615781310e+00 -7.0945046432e-05 1.8747041611e+00 -3.2470828562e+00 1.8747041611e+00 3.2470828562e+00 
70700 6.2615781308e+00 -7.0055152685e-05 1.8747060533e+00 -3.2470861336e+00 1.8747060533e+00 3.2470861336e+00 
70800 6.2615781308e+00 -7.0532565975e-05 1.8747060533e+00 -3.2470861336e+00 1.8747060533e+00 3.2470861336e+00 
70900 6.2615781307e+00 -7.1011018521e-05 1.8747060533e+00 -3.2470861336e+00 1.8747060533e+00 3.2470861336e+00 
71000 6.2615781306e+00 -7.0116126532e-05 1.8747079472e+00 -3.2470894140e+00 1.8747079472e+00 3.2470894140e+00 
71100 6.2615781305e+00 -7.0589098309e-05 1.8747079472e+00 -3.2470894140e+00 1.8747079472e+00 3.2470894140e+00 
71200 6.2615781305e+00 -7.1062402984e-05 1.8747079472e+00 -3.2470894140e+00 1.8747079472e+00 3.2470894140e+00 
71300 6.2615781303e+00 -7.0160671505e-05 1.8747098425e+00 -3.2470926967e+00 1.8747098425e+00 3.2470926967e+00 
71400 6.2615781303e+00 -7.0627094003e-05 1.8747098425e+00 -3.2470926967e+00 1.8747098425e+00 3.2470926967e+00 
71500 6.2615781303e+00 -7.1093162352e-05 1.8747098425e+00 -3.2470926967e+00 1.8747098425e+00 3.2470926967e+00 
71600 6.2615781301e+00 -7.0182926090e-05 1.8747117386e+00 -3.2470959809e+00 1.8747117386e+00 3.2470959809e+00 
71700 6.2615781301e+00 -7.0640765219e-05 1.8747117386e+00 -3.2470959809e+00 1.8747117386e+00 3.2470959809e+00 
71800 6.2615781301e+00 -7.1097595818e-05 1.8747117386e+00 -3.2470959809e+00 1.8747117386e+00 3.2470959809e+00 
71900 6.2615781299e+00 -7.0177399555e-05 1.8747136349e+00 -3.2470992652e+00 1.8747136349e+00 3.2470992652e+00 
72000 6.2615781299e+00 -7.0624733684e-05 1.8747136349e+00 -3.2470992652e+00 1.8747136349e+00 3.2470992652e+00 
72100 6.2615781299e+00 -7.1070449074e-05 1.8747136349e+00 -3.2470992652e+00 1.8747136349e+00 3.2470992652e+00 
72200 6.2615781297e+00 -7.0139074068e-05 1.8747155304e+00 -3.2471025483e+00 1.8747155304e+00 3.2471025483e+00 
72300 6.2615781297e+00 -7.0574127132e-05 1.8747155304e+00 -3.2471025483e+00 1.8747155304e+00 3.2471025483e+00 
72400 6.2615781297e+00 -7.1007005003e-05 1.8747155304e+00 -3.2471025483e+00 1.8747155304e+00 3.2471025483e+00 
72500 6.2615781296e+00 -7.0063487875e-05 1.8747174242e+00 -3.2471058285e+00 1.8747174242e+00 3.2471058285e+00 
72600 6.2615781296e+00 -7.0484656674e-05 1.8747174242e+00 -3.2471058285e+00 1.8747174242e+00 3.2471058285e+00 
72700 6.2615781295e+00 -7.0903155251e-05 1.8747174242e+00 -3.2471058285e+00 1.8747174242e+00 3.2471058285e+00 
72800 6.2615781294e+00 -6.9946799655e-05 1.8747193152e+00 -3.2471091039e+00 1.8747193152e+00 3.2471091039e+00 
72900 6.2615781294e+00 -7.0352675330e-05 1.8747193152e+00 -3.2471091039e+00 1.8747193152e+00 3.2471091039e+00 
73000 6.2615781294e+00 -7.0755452942e-05 1.8747193152e+00 -3.2471091039e+00 1.8747193152e+00 3.2471091039e+00 
73100 6.2615781292e+00 -6.9785834449e-05 1.8747212023e+00 -3.2471123724e+00 1.8747212023e+00 3.2471123724e+00 
73200 6.2615781292e+00 -7.0175218250e-05 1.8747212023e+00 -3.2471123724e+00 1.8747212023e+00 3.2471123724e+00 
73300 6.2615781292e+00 -7.0561147253e-05 1.8747212023e+00 -3.2471123724e+00 1.8747212023e+00 3.2471123724e+00 
73400 6.2615781292e+00 -7.0943599723e-05 1.8747212023e+00 -3.2471123724e+00 1.8747212023e+00 3.2471123724e+00 
73500 6.2615781291e+00 -6.9949669782e-05 1.8747230944e+00 -3.2471156496e+00 1.8747230944e+00 3.2471156496e+00 
73600 6.2615781291e+00 -7.0318039419e-05 1.8747230944e+00 -3.2471156496e+00 1.8747230944e+00 3.2471156496e+00 
73700 6.2615781291e+00 -7.0682661412e-05 1.8747230944e+00 -3.2471156496e+00 1.8747230944e+00 3.2471156496e+00 
73800 6.2615781291e+00 -7.1043542364e-05 1.8747230944e+00 -3.2471156496e+00 1.8747230944e+00 3.2471156496e+00 
73900 6.2615781290e+00 -7.0025874599e-05 1.8747249892e+00 -3.2471189315e+00 1.8747249892e+00 3.2471189315e+00 
74000 6.2615781290e+00 -7.0372217631e-05 1.8747249892e+00 -3.2471189315e+00 1.8747249892e+00 3.2471189315e+00 
74100 6.2615781290e+00 -7.0714631332e-05 1.8747249892e+00 -3.2471189315e+00 1.8747249892e+00 3.2471189315e+00 
74200 6.2615781288e+00 -6.9684699757e-05 1.8747268752e+00 -3.2471221981e+00 1.8747268752e+00 3.2471221981e+00 
74300 6.2615781288e+00 -7.0012298994e-05 1.8747268752e+00 -3.2471221981e+00 1.8747268752e+00 3.2471221981e+00 
74400 6.2615781288e+00 -7.0335848681e-05 1.8747268752e+00 -3.2471221981e+00 1.8747268752e+00 3.2471221981e+00 
74500 6.2615781289e+00 -7.0655404439e-05 1.8747268752e+00 -3.2471221981e+00 1.8747268752e+00 3.2471221981e+00 
74600 6.2615781289e+00 -7.0971025818e-05 1.8747268752e+00 -3.2471221981e+00 1.8747268752e+00 3.2471221981e+00 
74700 6.2615781287e+00 -6.9909368567e-05 1.8747287680e+00 -3.2471254766e+00 1.8747287680e+00 3.2471254766e+00 
74800 6.2615781287e+00 -7.0210227074e-05 1.8747287680e+00 -3.2471254766e+00 1.8747287680e+00 3.2471254766e+00 
74900 6.2615781287e+00 -7.0507115126e-05 1.8747287680e+00 -3.2471254766e+00 1.8747287680e+00 3.2471254766e+00 
75000 6.2615781288e+00 -7.0800114506e-05 1.8747287680e+00 -3.2471254766e+00 1.8747287680e+00 3.2471254766e+00 
75100 6.2615781286e+00 -6.9719214014e-05 1.8747306563e+00 -3.2471287472e+00 1.8747306563e+00 3.2471287472e+00 
75200 6.2615781286e+00 -6.9997623136e-05 1.8747306563e+00 -3.2471287472e+00 1.8747306563e+00 3.2471287472e+00 
75300 6.2615781287e+00 -7.0272170804e-05 1.8747306563e+00 -3.2471287472e+00 1.8747306563e+00 3.2471287472e+00 
75400 6.2615781287e+00 -7.0542958298e-05 1.8747306563e+00 -3.2471287472e+00 1.8747306563e+00 3.2471287472e+00 
75500 6.2615781287e+00 -7.0810089008e-05 1.8747306563e+00 -3.2471287472e+00 1.8747306563e+00 3.2471287472e+00 
75600 6.2615781286e+00 -6.9703382906e-05 1.8747325448e+00 -3.2471320183e+00 1.8747325448e+00 3.2471320183e+00 
75700 6.2615781286e+00 -6.9956446273e-05 1.8747325448e+00 -3.2471320183e+00 1.8747325448e+00 3.2471320183e+00 
75800 6.2615781286e+00 -7.0205937746e-05 1.8747325448e+00 -3.2471320183e+00 1.8747325448e+00 3.2471320183e+00 
75900 6.2615781286e+00 -7.0451975514e-05 1.8747325448e+00 -3.2471320183e+00 1.8747325448e+00 3.2471320183e+00 
76000 6.2615781286e+00 -7.0694678736e-05 1.8747325448e+00 -3.2471320183e+00 1.8747325448e+00 3.2471320183e+00 
76100 6.2615781286e+00 -7.0934167079e-05 1.8747325448e+00 -3.2471320183e+00 1.8747325448e+00 3.2471320183e+00 
76200 6.2615781285e+00 -6.9797877647e-05 1.8747344367e+00 -3.2471352950e+00 1.8747344367e+00 3.2471352950e+00 
76300 6.2615781285e+00 -7.0024212828e-05 1.8747344367e+00 -3.2471352950e+00 1.8747344367e+00 3.2471352950e+00 
76400 6.2615781285e+00 -7.0247457301e-05 1.8747344367e+00 -3.2471352950e+00 1.8747344367e+00 3.2471352950e+00 
76500 6.2615781285e+00 -7.0467739605e-05 1.8747344367e+00 -3.2471352950e+00 1.8747344367e+00 3.2471352950e+00 
76600 6.2615781286e+00 -7.0685187863e-05 1.8747344367e+00 -3.2471352950e+00 1.8747344367e+00 3.2471352950e+00 
76700 6.2615781286e+00 -7.0899929378e-05 1.8747344367e+00 -3.2471352950e+00 1.8747344367e+00 3.2471352950e+00 
76800 6.2615781285e+00 -6.9740073599e-05 1.8747363276e+00 -3.2471385702e+00 1.8747363276e+00 3.2471385702e+00 
76900 6.2615781285e+00 -6.9942699491e-05 1.8747363276e+00 -3.2471385702e+00 1.8747363276e+00 3.2471385702e+00 
77000 6.2615781285e+00 -7.0142758235e-05 1.8747363276e+00 -3.2471385702e+00 1.8747363276e+00 3.2471385702e+00 
77100 6.2615781285e+00 -7.0340381089e-05 1.8747363276e+00 -3.2471385702e+00 1.8747363276e+00 3.2471385702e+00 
77200 6.2615781285e+00 -7.0535697777e-05 1.8747363276e+00 -3.2471385702e+00 1.8747363276e+00 3.2471385702e+00 
77300 6.2615781285e+00 -7.0728836127e-05 1.8747363276e+00 -3.2471385702e+00 1.8747363276e+00 3.2471385702e+00 
77400 6.2615781284e+00 -6.9551219392e-05 1.8747382140e+00 -3.2471418375e+00 1.8747382140e+00 3.2471418375e+00 
77500 6.2615781284e+00 -6.9733313588e-05 1.8747382140e+00 -3.2471418375e+00 1.8747382140e+00 3.2471418375e+00 
77600 6.2615781285e+00 -6.9913365171e-05 1.8747382140e+00 -3.2471418375e+00 1.8747382140e+00 3.2471418375e+00 
77700 6.2615781285e+00 -7.0091502039e-05 1.8747382140e+00 -3.2471418375e+00 1.8747382140e+00 3.2471418375e+00 
77800 6.2615781285e+00 -7.0267849702e-05 1.8747382140e+00 -3.2471418375e+00 1.8747382140e+00 3.2471418375e+00 
77900 6.2615781285e+00 -7.0442530958e-05 1.8747382140e+00 -3.2471418375e+00 1.8747382140e+00 3.2471418375e+00 
78000 6.2615781285e+00 -7.0615665603e-05 1.8747382140e+00 -3.2471418375e+00 1.8747382140e+00 3.2471418375e+00 
78100 6.2615781286e+00 -7.0787370152e-05 1.8747382140e+00 -3.2471418375e+00 1.8747382140e+00 3.2471418375e+00 
78200 6.2615781284e+00 -6.9587925506e-05 1.8747401019e+00 -3.2471451075e+00 1.8747401019e+00 3.2471451075e+00 
78300 6.2615781285e+00 -6.9750037691e-05 1.8747401019e+00 -3.2471451075e+00 1.8747401019e+00 3.2471451075e+00 
78400 6.2615781285e+00 -6.9910814054e-05 1.8747401019e+00 -3.2471451075e+00 1.8747401019e+00 3.2471451075e+00 
78500 6.2615781285e+00 -7.0070366615e-05 1.8747401019e+00 -3.2471451075e+00 1.8747401019e+00 3.2471451075e+00 
78600 6.2615781285e+00 -7.0228804083e-05 1.8747401019e+00 -3.2471451075e+00 1.8747401019e+00 3.2471451075e+00 
78700 6.2615781285e+00 -7.0386231619e-05 1.8747401019e+00 -3.2471451075e+00 1.8747401019e+00 3.2471451075e+00 
78800 6.2615781286e+00 -7.0542750623e-05 1.8747401019e+00 -3.2471451075e+00 1.8747401019e+00 3.2471451075e+00 
78900 6.2615781286e+00 -7.0698458542e-05 1.8747401019e+00 -3.2471451075e+00 1.8747401019e+00 3.2471451075e+00 
79000 6.2615781286e+00 -7.0853448709e-05 1.8747401019e+00 -3.2471451075e+00 1.8747401019e+00 3.2471451075e+00 
79100 6.2615781285e+00 -6.9636702252e-05 1.8747419916e+00 -3.2471483805e+00 1.8747419916e+00 3.2471483805e+00 
79200 6.2615781285e+00 -6.9783445833e-05 1.8747419916e+00 -3.2471483805e+00 1.8747419916e+00 3.2471483805e+00 
79300 6.2615781285e+00 -6.9929492075e-05 1.8747419916e+00 -3.2471483805e+00 1.8747419916e+00 3.2471483805e+00 
79400 6.2615781285e+00 -7.0074927414e-05 1.8747419916e+00 -3.2471483805e+00 1.8747419916e+00 3.2471483805e+00 
79500 6.2615781286e+00 -7.0219834601e-05 1.8747419916e+00 -3.2471483805e+00 1.8747419916e+00 3.2471483805e+00 
79600 6.2615781286e+00 -7.0364292544e-05 1.8747419916e+00 -3.2471483805e+00 1.8747419916e+00 3.2471483805e+00 
79700 6.2615781286e+00 -7.0508376181e-05 1.8747419916e+00 -3.2471483805e+00 1.8747419916e+00 3.2471483805e+00 
79800 6.2615781286e+00 -7.0652156357e-05 1.8747419916e+00 -3.2471483805e+00 1.8747419916e+00 3.2471483805e+00 
79900 6.2615781286e+00 -7.0795699741e-05 1.8747419916e+00 -3.2471483805e+00 1.8747419916e+00 3.2471483805e+00 
80000 6.2615781285e+00 -6.9569081408e-05 1.8747438797e+00 -3.2471516509e+00 1.8747438797e+00 3.2471516509e+00 
80100 6.2615781285e+00 -6.9705266122e-05 1.8747438797e+00 -3.2471516509e+00 1.8747438797e+00 3.2471516509e+00 
80200 6.2615781285e+00 -6.9841154967e-05 1.8747438797e+00 -3.2471516509e+00 1.8747438797e+00 3.2471516509e+00 
80300 6.2615781286e+00 -6.9976808132e-05 1.8747438797e+00 -3.2471516509e+00 1.8747438797e+00 3.2471516509e+00 
80400 6.2615781286e+00 -7.0112282376e-05 1.8747438797e+00 -3.2471516509e+00 1.8747438797e+00 3.2471516509e+00 
80500 6.2615781286e+00 -7.0247630932e-05 1.8747438797e+00 -3.2471516509e+00 1.8747438797e+00 3.2471516509e+00 
80600 6.2615781286e+00 -7.0382903419e-05 1.8747438797e+00 -3.2471516509e+00 1.8747438797e+00 3.2471516509e+00 
80700 6.2615781286e+00 -7.0518145787e-05 1.8747438797e+00 -3.2471516509e+00 1.8747438797e+00 3.2471516509e+00 
80800 6.2615781287e+00 -7.0653400264e-05 1.8747438797e+00 -3.2471516509e+00 1.8747438797e+00 3.2471516509e+00 
80900 6.2615781287e+00 -7.0788705327e-05 1.8747438797e+00 -3.2471516509e+00 1.8747438797e+00 3.2471516509e+00 
81000 6.2615781286e+00 -6.9554246890e-05 1.8747457677e+00 -3.2471549209e+00 1.8747457677e+00 3.2471549209e+00 
81100 6.2615781286e+00 -6.9682686285e-05 1.8747457677e+00 -3.2471549209e+00 1.8747457677e+00 3.2471549209e+00 
81200 6.2615781286e+00 -6.9811035760e-05 1.8747457677e+00 -3.2471549209e+00 1.8747457677e+00 3.2471549209e+00 
81300 6.2615781286e+00 -6.9939329567e-05 1.8747457677e+00 -3.2471549209e+00 1.8747457677e+00 3.2471549209e+00 
81400 6.2615781286e+00 -7.0067599207e-05 1.8747457677e+00 -3.2471549209e+00 1.8747457677e+00 3.2471549209e+00 
81500 6.2615781287e+00 -7.0195873378e-05 1.8747457677e+00 -3.2471549209e+00 1.8747457677e+00 3.2471549209e+00 
81600 6.2615781287e+00 -7.0324177917e-05 1.8747457677e+00 -3.2471549209e+00 1.8747457677e+00 3.2471549209e+00 
81700 6.2615781287e+00 -7.0452535782e-05 1.8747457677e+00 -3.2471549209e+00 1.8747457677e+00 3.2471549209e+00 
81800 6.2615781287e+00 -7.0580967022e-05 1.8747457677e+00 -3.2471549209e+00 1.8747457677e+00 3.2471549209e+00 
81900 6.2615781287e+00 -7.0709488786e-05 1.8747457677e+00 -3.2471549209e+00 1.8747457677e+00 3.2471549209e+00 
82000 6.2615781287e+00 -7.0838115322e-05 1.8747457677e+00 -3.2471549209e+00 1.8747457677e+00 3.2471549209e+00 
82100 6.2615781286e+00 -6.9596056468e-05 1.8747476570e+00 -3.2471581933e+00 1.8747476570e+00 3.2471581933e+00 
82200 6.2615781286e+00 -6.9717851782e-05 1.8747476570e+00 -3.2471581933e+00 1.8747476570e+00 3.2471581933e+00 
82300 6.2615781287e+00 -6.9839543933e-05 1.8747476570e+00 -3.2471581933e+00 1.8747476570e+00 3.2471581933e+00 
82400 6.2615781287e+00 -6.9961146655e-05 1.8747476570e+00 -3.2471581933e+00 1.8747476570e+00 3.2471581933e+00 
82500 6.2615781287e+00 -7.0082671924e-05 1.8747476570e+00 -3.2471581933e+00 1.8747476570e+00 3.2471581933e+00 
82600 6.2615781287e+00 -7.0204129908e-05 1.8747476570e+00 -3.2471581933e+00 1.8747476570e+00 3.2471581933e+00 
82700 6.2615781287e+00 -7.0235699032e-05 1.8747476570e+00 -3.2471581933e+00 1.8747476570e+00 3.2471581933e+00 
82700 6.2615781287e+00 -7.0235699032e-05 1.8747476570e+00 -3.2471581933e+00 1.8747476570e+00 3.2471581933e+00 
