# step Hamiltonian StressXX CellTensor1 CellTensor2 CellTensor3 CellTensor4 
0 5.5480622654e+00 1.4717068722e-01 2.5594246509e+00 -4.4330535334e+00 2.5594246509e+00 4.4330535334e+00 
100 5.5499999426e+00 1.5676058066e-01 2.5594246509e+00 -4.4330535334e+00 2.5594246509e+00 4.4330535334e+00 
200 5.5520166300e+00 1.6546389705e-01 2.5563628439e+00 -4.4277503283e+00 2.5563628439e+00 4.4277503283e+00 
300 5.5543484118e+00 1.7364398777e-01 2.5531272129e+00 -4.4221460509e+00 2.5531272129e+00 4.4221460509e+00 
400 5.5568843599e+00 1.8129672805e-01 2.5497273551e+00 -4.4162573245e+00 2.5497273551e+00 4.4162573245e+00 
500 5.5595040126e+00 1.8839888843e-01 2.5461729645e+00 -4.4101009394e+00 2.5461729645e+00 4.4101009394e+00 
600 5.5620849507e+00 1.9491379974e-01 2.5424742135e+00 -4.4036945147e+00 2.5424742135e+00 4.4036945147e+00 
700 5.5645102205e+00 2.0079809100e-01 2.5386420262e+00 -4.3970569715e+00 2.5386420262e+00 4.3970569715e+00 
800 5.5666753353e+00 2.0600923418e-01 2.5346882219e+00 -4.3902087817e+00 2.5346882219e+00 4.3902087817e+00 
900 5.5684943892e+00 2.1051325954e-01 2.5306255112e+00 -4.3831719604e+00 2.5306255112e+00 4.3831719604e+00 
1000 5.5699046830e+00 2.1429168033e-01 2.5264673397e+00 -4.3759697960e+00 2.5264673397e+00 4.3759697960e+00 
1100 5.5708692786e+00 2.1734653052e-01 2.5222275931e+00 -4.3686263395e+00 2.5222275931e+00 4.3686263395e+00 
1200 5.5713771012e+00 2.1970259316e-01 2.5179201994e+00 -4.3611657148e+00 2.5179201994e+00 4.3611657148e+00 
1300 5.5714405829e+00 2.2140639603e-01 2.5135586824e+00 -4.3536113457e+00 2.5135586824e+00 4.3536113457e+00 
1400 5.5710912768e+00 2.2252224489e-01 2.5091557292e+00 -4.3459852070e+00 2.5091557292e+00 4.3459852070e+00 
1500 5.5703742285e+00 2.2312621056e-01 2.5047228320e+00 -4.3383072038e+00 2.5047228320e+00 4.3383072038e+00 
1600 5.5693420474e+00 2.2329935106e-01 2.5002700446e+00 -4.3305947499e+00 2.5002700446e+00 4.3305947499e+00 
1700 5.5680495324e+00 2.2312142455e-01 2.4958058716e+00 -4.3228625754e+00 2.4958058716e+00 4.3228625754e+00 
1800 5.5665494341e+00 2.2266599715e-01 2.4913372807e+00 -4.3151227490e+00 2.4913372807e+00 4.3151227490e+00 
1900 5.5648895957e+00 2.2199734977e-01 2.4868698144e+00 -4.3073848703e+00 2.4868698144e+00 4.3073848703e+00 
2000 5.5631114158e+00 2.2116912969e-01 2.4824077629e+00 -4.2996563704e+00 2.4824077629e+00 4.2996563704e+00 
2100 5.5612493811e+00 2.2022439386e-01 2.4779543676e+00 -4.2919428634e+00 2.4779543676e+00 4.2919428634e+00 
2200 5.5593313479e+00 2.1919657470e-01 2.4735120248e+00 -4.2842485000e+00 2.4735120248e+00 4.2842485000e+00 
2300 5.5573792598e+00 2.1811092444e-01 2.4690824725e+00 -4.2765762905e+00 2.4690824725e+00 4.2765762905e+00 
2400 5.5554100563e+00 2.1698609542e-01 2.4646669501e+00 -4.2689283813e+00 2.4646669501e+00 4.2689283813e+00 
2500 5.5534366044e+00 2.1583563369e-01 2.4602663273e+00 -4.2613062791e+00 2.4602663273e+00 4.2613062791e+00 
2600 5.5514685532e+00 2.1466926906e-01 2.4558812049e+00 -4.2537110242e+00 2.4558812049e+00 4.2537110242e+00 
2700 5.5495130648e+00 2.1349396084e-01 2.4515119894e+00 -4.2461433209e+00 2.4515119894e+00 4.2461433209e+00 
2800 5.5475754118e+00 2.1231470587e-01 2.4471589483e+00 -4.2386036326e+00 2.4471589483e+00 4.2386036326e+00 
2900 5.5456594471e+00 2.1113513907e-01 2.4428222486e+00 -4.2310922485e+00 2.4428222486e+00 4.2310922485e+00 
3000 5.5437679653e+00 2.0995796583e-01 2.4385019839e+00 -4.2236093305e+00 2.4385019839e+00 4.2236093305e+00 
3100 5.5419029746e+00 2.0878526451e-01 2.4341981925e+00 -4.2161549451e+00 2.4341981925e+00 4.2161549451e+00 
3200 5.5400658988e+00 2.0761869262e-01 2.4299108701e+00 -4.2087290848e+00 2.4299108701e+00 4.2087290848e+00 
3300 5.5382577252e+00 2.0645962403e-01 2.4256399778e+00 -4.2013316825e+00 2.4256399778e+00 4.2013316825e+00 
3400 5.5364791135e+00 2.0530923783e-01 2.4213854482e+00 -4.1939626209e+00 2.4213854482e+00 4.1939626209e+00 
3500 5.5347304738e+00 2.0416857451e-01 2.4171471882e+00 -4.1866217393e+00 2.4171471882e+00 4.1866217393e+00 
3600 5.5330120242e+00 2.0303857038e-01 2.4129250825e+00 -4.1793088378e+00 2.4129250825e+00 4.1793088378e+00 
3700 5.5313238321e+00 2.0192007804e-01 2.4087189954e+00 -4.1720236812e+00 2.4087189954e+00 4.1720236812e+00 
3800 5.5296658451e+00 2.0081387819e-01 2.4045287720e+00 -4.1647660013e+00 2.4045287720e+00 4.1647660013e+00 
3900 5.5280379132e+00 1.9972068614e-01 2.4003542398e+00 -4.1575354995e+00 2.4003542398e+00 4.1575354995e+00 
4000 5.5264398059e+00 1.9864115548e-01 2.3961952101e+00 -4.1503318487e+00 2.3961952101e+00 4.1503318487e+00 
4100 5.5248712250e+00 1.9757588015e-01 2.3920514786e+00 -4.1431546953e+00 2.3920514786e+00 4.1431546953e+00 
4200 5.5233318148e+00 1.9652539594e-01 2.3879228273e+00 -4.1360036614e+00 2.3879228273e+00 4.1360036614e+00 
4300 5.5218211696e+00 1.9549018172e-01 2.3838090249e+00 -4.1288783466e+00 2.3838090249e+00 4.1288783466e+00 
4400 5.5203388409e+00 1.9447066083e-01 2.3797098282e+00 -4.1217783297e+00 2.3797098282e+00 4.1217783297e+00 
4500 5.5188843422e+00 1.9346720258e-01 2.3756249832e+00 -4.1147031707e+00 2.3756249832e+00 4.1147031707e+00 
4600 5.5174571543e+00 1.9248012405e-01 2.3715542263e+00 -4.1076524128e+00 2.3715542263e+00 4.1076524128e+00 
4700 5.5160567286e+00 1.9150969200e-01 2.3674972847e+00 -4.1006255839e+00 2.3674972847e+00 4.1006255839e+00 
4800 5.5146824914e+00 1.9055612493e-01 2.3634538784e+00 -4.0936221987e+00 2.3634538784e+00 4.0936221987e+00 
4900 5.5133338469e+00 1.8961959523e-01 2.3594237202e+00 -4.0866417600e+00 2.3594237202e+00 4.0866417600e+00 
5000 5.5120101801e+00 1.8870023136e-01 2.3554065172e+00 -4.0796837603e+00 2.3554065172e+00 4.0796837603e+00 
5100 5.5107108600e+00 1.8779811997e-01 2.3514019716e+00 -4.0727476839e+00 2.3514019716e+00 4.0727476839e+00 
5200 5.5094352415e+00 1.8691330802e-01 2.3474097815e+00 -4.0658330078e+00 2.3474097815e+00 4.0658330078e+00 
5300 5.5081826684e+00 1.8604580473e-01 2.3434296417e+00 -4.0589392034e+00 2.3434296417e+00 4.0589392034e+00 
5400 5.5069524754e+00 1.8519558348e-01 2.3394612445e+00 -4.0520657378e+00 2.3394612445e+00 4.0520657378e+00 
5500 5.5057439904e+00 1.8436258348e-01 2.3355042806e+00 -4.0452120753e+00 2.3355042806e+00 4.0452120753e+00 
5600 5.5045565360e+00 1.8354671142e-01 2.3315584397e+00 -4.0383776783e+00 2.3315584397e+00 4.0383776783e+00 
5700 5.5033894321e+00 1.8274784281e-01 2.3276234111e+00 -4.0315620090e+00 2.3276234111e+00 4.0315620090e+00 
5800 5.5022419972e+00 1.8196582333e-01 2.3236988848e+00 -4.0247645300e+00 2.3236988848e+00 4.0247645300e+00 
5900 5.5011135501e+00 1.8120046991e-01 2.3197845516e+00 -4.0179847059e+00 2.3197845516e+00 4.0179847059e+00 
6000 5.5000034116e+00 1.8045157168e-01 2.3158801041e+00 -4.0112220045e+00 2.3158801041e+00 4.0112220045e+00 
6100 5.4989109061e+00 1.7971889086e-01 2.3119852373e+00 -4.0044758973e+00 2.3119852373e+00 4.0044758973e+00 
6200 5.4978353629e+00 1.7900216344e-01 2.3080996490e+00 -3.9977458611e+00 2.3080996490e+00 3.9977458611e+00 
6300 5.4967761175e+00 1.7830109978e-01 2.3042230409e+00 -3.9910313788e+00 2.3042230409e+00 3.9910313788e+00 
6400 5.4957325130e+00 1.7761538509e-01 2.3003551185e+00 -3.9843319407e+00 2.3003551185e+00 3.9843319407e+00 
6500 5.4947039013e+00 1.7694467984e-01 2.2964955922e+00 -3.9776470451e+00 2.2964955922e+00 3.9776470451e+00 
6600 5.4936896443e+00 1.7628862008e-01 2.2926441778e+00 -3.9709761997e+00 2.2926441778e+00 3.9709761997e+00 
6700 5.4926891151e+00 1.7564681768e-01 2.2888005970e+00 -3.9643189223e+00 2.2888005970e+00 3.9643189223e+00 
6800 5.4917016986e+00 1.7501886051e-01 2.2849645778e+00 -3.9576747423e+00 2.2849645778e+00 3.9576747423e+00 
6900 5.4907267934e+00 1.7440431264e-01 2.2811358557e+00 -3.9510432011e+00 2.2811358557e+00 3.9510432011e+00 
7000 5.4897638120e+00 1.7380271441e-01 2.2773141737e+00 -3.9444238536e+00 2.2773141737e+00 3.9444238536e+00 
7100 5.4888121821e+00 1.7321358258e-01 2.2734992829e+00 -3.9378162690e+00 2.2734992829e+00 3.9378162690e+00 
7200 5.4878713477e+00 1.7263641041e-01 2.2696909437e+00 -3.9312200320e+00 2.2696909437e+00 3.9312200320e+00 
7300 5.4869407694e+00 1.7207066777e-01 2.2658889257e+00 -3.9246347436e+00 2.2658889257e+00 3.9246347436e+00 
7400 5.4860199260e+00 1.7151580127e-01 2.2620930086e+00 -3.9180600223e+00 2.2620930086e+00 3.9180600223e+00 
7500 5.4851083149e+00 1.7097123442e-01 2.2583029829e+00 -3.9114955052e+00 2.2583029829e+00 3.9114955052e+00 
7600 5.4842054529e+00 1.7043636780e-01 2.2545186503e+00 -3.9049408490e+00 2.2545186503e+00 3.9049408490e+00 
7700 5.4833108773e+00 1.6991057936e-01 2.2507398246e+00 -3.8983957308e+00 2.2507398246e+00 3.8983957308e+00 
7800 5.4824241461e+00 1.6939322466e-01 2.2469663318e+00 -3.8918598496e+00 2.2469663318e+00 3.8918598496e+00 
7900 5.4815448396e+00 1.6888363729e-01 2.2431980113e+00 -3.8853329271e+00 2.2431980113e+00 3.8853329271e+00 
8000 5.4806725601e+00 1.6838112929e-01 2.2394347162e+00 -3.8788147087e+00 2.2394347162e+00 3.8788147087e+00 
8100 5.4798069334e+00 1.6788499175e-01 2.2356763137e+00 -3.8723049647e+00 2.2356763137e+00 3.8723049647e+00 
8200 5.4789476088e+00 1.6739449539e-01 2.2319226863e+00 -3.8658034912e+00 2.2319226863e+00 3.8658034912e+00 
8300 5.4780942604e+00 1.6690889132e-01 2.2281737316e+00 -3.8593101112e+00 2.2281737316e+00 3.8593101112e+00 
8400 5.4772465869e+00 1.6642741191e-01 2.2244293635e+00 -3.8528246754e+00 2.2244293635e+00 3.8528246754e+00 
8500 5.4764043127e+00 1.6594927174e-01 2.2206895125e+00 -3.8463470635e+00 2.2206895125e+00 3.8463470635e+00 
8600 5.4755671883e+00 1.6547366872e-01 2.2169541264e+00 -3.8398771849e+00 2.2169541264e+00 3.8398771849e+00 
8700 5.4747349904e+00 1.6499978526e-01 2.2132231704e+00 -3.8334149796e+00 2.2132231704e+00 3.8334149796e+00 
8800 5.4739075225e+00 1.6452678967e-01 2.2094966282e+00 -3.8269604192e+00 2.2094966282e+00 3.8269604192e+00 
8900 5.4730846153e+00 1.6405383763e-01 2.2057745020e+00 -3.8205135076e+00 2.2057745020e+00 3.8205135076e+00 
9000 5.4722661269e+00 1.6358007379e-01 2.2020568132e+00 -3.8140742817e+00 2.2020568132e+00 3.8140742817e+00 
9100 5.4714519427e+00 1.6310463353e-01 2.1983436027e+00 -3.8076428124e+00 2.1983436027e+00 3.8076428124e+00 
9200 5.4706419759e+00 1.6262664488e-01 2.1946349313e+00 -3.8012192050e+00 2.1946349313e+00 3.8012192050e+00 
9300 5.4698361670e+00 1.6214523049e-01 2.1909308800e+00 -3.7948036000e+00 2.1909308800e+00 3.7948036000e+00 
9400 5.4690344845e+00 1.6165950982e-01 2.1872315503e+00 -3.7883961731e+00 2.1872315503e+00 3.7883961731e+00 
9500 5.4682369236e+00 1.6116860138e-01 2.1835370647e+00 -3.7819971363e+00 2.1835370647e+00 3.7819971363e+00 
9600 5.4674435071e+00 1.6067162513e-01 2.1798475664e+00 -3.7756067378e+00 2.1798475664e+00 3.7756067378e+00 
9700 5.4666542840e+00 1.6016770500e-01 2.1761632200e+00 -3.7692252625e+00 2.1761632200e+00 3.7692252625e+00 
9800 5.4658693295e+00 1.5965597145e-01 2.1724842108e+00 -3.7628530318e+00 2.1724842108e+00 3.7628530318e+00 
9900 5.4650887445e+00 1.5913556416e-01 2.1688107460e+00 -3.7564904040e+00 2.1688107460e+00 3.7564904040e+00 
10000 5.4643126542e+00 1.5860563480e-01 2.1651430534e+00 -3.7501377741e+00 2.1651430534e+00 3.7501377741e+00 
10100 5.4635412079e+00 1.5806534985e-01 2.1614813821e+00 -3.7437955735e+00 2.1614813821e+00 3.7437955735e+00 
10200 5.4627745776e+00 1.5751389344e-01 2.1578260023e+00 -3.7374642698e+00 2.1578260023e+00 3.7374642698e+00 
10300 5.4620129568e+00 1.5695047026e-01 2.1541772045e+00 -3.7311443667e+00 2.1541772045e+00 3.7311443667e+00 
10400 5.4612565595e+00 1.5637430847e-01 2.1505352999e+00 -3.7248364028e+00 2.1505352999e+00 3.7248364028e+00 
10500 5.4605056187e+00 1.5578466257e-01 2.1469006194e+00 -3.7185409516e+00 2.1469006194e+00 3.7185409516e+00 
10600 5.4597603848e+00 1.5518081627e-01 2.1432735137e+00 -3.7122586202e+00 2.1432735137e+00 3.7122586202e+00 
10700 5.4590211239e+00 1.5456208531e-01 2.1396543523e+00 -3.7059900487e+00 2.1396543523e+00 3.7059900487e+00 
10800 5.4582881160e+00 1.5392782024e-01 2.1360435231e+00 -3.6997359092e+00 2.1360435231e+00 3.6997359092e+00 
10900 5.4575616537e+00 1.5327740901e-01 2.1324414319e+00 -3.6934969042e+00 2.1324414319e+00 3.6934969042e+00 
11000 5.4568420392e+00 1.5261027956e-01 2.1288485013e+00 -3.6872737658e+00 2.1288485013e+00 3.6872737658e+00 
11100 5.4561295833e+00 1.5192590224e-01 2.1252651701e+00 -3.6810672542e+00 2.1252651701e+00 3.6810672542e+00 
11200 5.4554246026e+00 1.5122379205e-01 2.1216918926e+00 -3.6748781560e+00 2.1216918926e+00 3.6748781560e+00 
11300 5.4547274175e+00 1.5050351075e-01 2.1181291372e+00 -3.6687072826e+00 2.1181291372e+00 3.6687072826e+00 
11400 5.4540383500e+00 1.4976466877e-01 2.1145773857e+00 -3.6625554685e+00 2.1145773857e+00 3.6625554685e+00 
11500 5.4533577215e+00 1.4900692688e-01 2.1110371322e+00 -3.6564235697e+00 2.1110371322e+00 3.6564235697e+00 
11600 5.4526858504e+00 1.4822999773e-01 2.1075088821e+00 -3.6503124613e+00 2.1075088821e+00 3.6503124613e+00 
11700 5.4520230497e+00 1.4743364705e-01 2.1039931507e+00 -3.6442230358e+00 2.1039931507e+00 3.6442230358e+00 
11800 5.4513696253e+00 1.4661769468e-01 2.1004904620e+00 -3.6381562010e+00 2.1004904620e+00 3.6381562010e+00 
11900 5.4507258730e+00 1.4578201535e-01 2.0970013477e+00 -3.6321128778e+00 2.0970013477e+00 3.6321128778e+00 
12000 5.4500920771e+00 1.4492653914e-01 2.0935263458e+00 -3.6260939980e+00 2.0935263458e+00 3.6260939980e+00 
12100 5.4494685079e+00 1.4405125174e-01 2.0900659992e+00 -3.6201005017e+00 2.0900659992e+00 3.6201005017e+00 
12200 5.4488554199e+00 1.4315619442e-01 2.0866208543e+00 -3.6141333359e+00 2.0866208543e+00 3.6141333359e+00 
12300 5.4482530498e+00 1.4224146374e-01 2.0831914602e+00 -3.6081934510e+00 2.0831914602e+00 3.6081934510e+00 
12400 5.4476616152e+00 1.4130721101e-01 2.0797783666e+00 -3.6022817995e+00 2.0797783666e+00 3.6022817995e+00 
12500 5.4470813124e+00 1.4035364148e-01 2.0763821231e+00 -3.5963993331e+00 2.0763821231e+00 3.5963993331e+00 
12600 5.4465123155e+00 1.3938101327e-01 2.0730032772e+00 -3.5905470003e+00 2.0730032772e+00 3.5905470003e+00 
12700 5.4459547753e+00 1.3838963611e-01 2.0696423737e+00 -3.5847257447e+00 2.0696423737e+00 3.5847257447e+00 
12800 5.4454088177e+00 1.3737986981e-01 2.0662999528e+00 -3.5789365020e+00 2.0662999528e+00 3.5789365020e+00 
12900 5.4448745435e+00 1.3635212256e-01 2.0629765492e+00 -3.5731801981e+00 2.0629765492e+00 3.5731801981e+00 
13000 5.4443520271e+00 1.3530684894e-01 2.0596726905e+00 -3.5674577470e+00 2.0596726905e+00 3.5674577470e+00 
13100 5.4438413169e+00 1.3424454792e-01 2.0563888963e+00 -3.5617700485e+00 2.0563888963e+00 3.5617700485e+00 
13200 5.4433424344e+00 1.3316576049e-01 2.0531256765e+00 -3.5561179861e+00 2.0531256765e+00 3.5561179861e+00 
13300 5.4428553746e+00 1.3207106734e-01 2.0498835309e+00 -3.5505024251e+00 2.0498835309e+00 3.5505024251e+00 
13400 5.4423801062e+00 1.3096108625e-01 2.0466629474e+00 -3.5449242109e+00 2.0466629474e+00 3.5449242109e+00 
13500 5.4419165716e+00 1.2983646950e-01 2.0434644014e+00 -3.5393841667e+00 2.0434644014e+00 3.5393841667e+00 
13600 5.4414646882e+00 1.2869790111e-01 2.0402883545e+00 -3.5338830921e+00 2.0402883545e+00 3.5338830921e+00 
13700 5.4410243485e+00 1.2754609407e-01 2.0371352538e+00 -3.5284217615e+00 2.0371352538e+00 3.5284217615e+00 
13800 5.4405954218e+00 1.2638178748e-01 2.0340055309e+00 -3.5230009224e+00 2.0340055309e+00 3.5230009224e+00 
13900 5.4401777547e+00 1.2520574365e-01 2.0308996012e+00 -3.5176212943e+00 2.0308996012e+00 3.5176212943e+00 
14000 5.4397711725e+00 1.2401874529e-01 2.0278178628e+00 -3.5122835669e+00 2.0278178628e+00 3.5122835669e+00 
14100 5.4393754811e+00 1.2282159255e-01 2.0247606966e+00 -3.5069883996e+00 2.0247606966e+00 3.5069883996e+00 
14200 5.4389904678e+00 1.2161510019e-01 2.0217284646e+00 -3.5017364197e+00 2.0217284646e+00 3.5017364197e+00 
14300 5.4386159035e+00 1.2040009479e-01 2.0187215103e+00 -3.4965282221e+00 2.0187215103e+00 3.4965282221e+00 
14400 5.4382515442e+00 1.1917741192e-01 2.0157401578e+00 -3.4913643682e+00 2.0157401578e+00 3.4913643682e+00 
14500 5.4378971327e+00 1.1794789346e-01 2.0127847114e+00 -3.4862453849e+00 2.0127847114e+00 3.4862453849e+00 
14600 5.4375524002e+00 1.1671238498e-01 2.0098554554e+00 -3.4811717645e+00 2.0098554554e+00 3.4811717645e+00 
14700 5.4372170687e+00 1.1547173314e-01 2.0069526535e+00 -3.4761439642e+00 2.0069526535e+00 3.4761439642e+00 
14800 5.4368908522e+00 1.1422678330e-01 2.0040765491e+00 -3.4711624053e+00 2.0040765491e+00 3.4711624053e+00 
14900 5.4365734588e+00 1.1297837710e-01 2.0012273647e+00 -3.4662274732e+00 2.0012273647e+00 3.4662274732e+00 
15000 5.4362645926e+00 1.1172735024e-01 1.9984053020e+00 -3.4613395173e+00 1.9984053020e+00 3.4613395173e+00 
15100 5.4359639551e+00 1.1047453036e-01 1.9956105420e+00 -3.4564988509e+00 1.9956105420e+00 3.4564988509e+00 
15200 5.4356712470e+00 1.0922073499e-01 1.9928432446e+00 -3.4517057512e+00 1.9928432446e+00 3.4517057512e+00 
15300 5.4353861698e+00 1.0796676966e-01 1.9901035492e+00 -3.4469604596e+00 1.9901035492e+00 3.4469604596e+00 
15400 5.4351084273e+00 1.0671342612e-01 1.9873915745e+00 -3.4422631816e+00 1.9873915745e+00 3.4422631816e+00 
15500 5.4348377272e+00 1.0546148073e-01 1.9847074189e+00 -3.4376140876e+00 1.9847074189e+00 3.4376140876e+00 
15600 5.4345737819e+00 1.0421169284e-01 1.9820511603e+00 -3.4330133129e+00 1.9820511603e+00 3.4330133129e+00 
15700 5.4343163102e+00 1.0296480348e-01 1.9794228572e+00 -3.4284609584e+00 1.9794228572e+00 3.4284609584e+00 
15800 5.4340650382e+00 1.0172153400e-01 1.9768225481e+00 -3.4239570909e+00 1.9768225481e+00 3.4239570909e+00 
15900 5.4338197001e+00 1.0048258498e-01 1.9742502525e+00 -3.4195017442e+00 1.9742502525e+00 3.4195017442e+00 
16000 5.4335800393e+00 9.9248635119e-02 1.9717059709e+00 -3.4150949192e+00 1.9717059709e+00 3.4150949192e+00 
16100 5.4333458090e+00 9.8020340330e-02 1.9691896857e+00 -3.4107365853e+00 1.9691896857e+00 3.4107365853e+00 
16200 5.4331167727e+00 9.6798332942e-02 1.9667013610e+00 -3.4064266805e+00 1.9667013610e+00 3.4064266805e+00 
16300 5.4328927048e+00 9.5583220976e-02 1.9642409437e+00 -3.4021651128e+00 1.9642409437e+00 3.4021651128e+00 
16400 5.4326733909e+00 9.4375587550e-02 1.9618083637e+00 -3.3979517607e+00 1.9618083637e+00 3.3979517607e+00 
16500 5.4324586283e+00 9.3175990382e-02 1.9594035346e+00 -3.3937864744e+00 1.9594035346e+00 3.3937864744e+00 
16600 5.4322482255e+00 9.1984961388e-02 1.9570263539e+00 -3.3896690768e+00 1.9570263539e+00 3.3896690768e+00 
16700 5.4320420030e+00 9.0803006380e-02 1.9546767042e+00 -3.3855993641e+00 1.9546767042e+00 3.3855993641e+00 
16800 5.4318397928e+00 8.9630604849e-02 1.9523544531e+00 -3.3815771072e+00 1.9523544531e+00 3.3815771072e+00 
16900 5.4316414383e+00 8.8468209833e-02 1.9500594544e+00 -3.3776020528e+00 1.9500594544e+00 3.3776020528e+00 
17000 5.4314467942e+00 8.7316247872e-02 1.9477915482e+00 -3.3736739240e+00 1.9477915482e+00 3.3736739240e+00 
17100 5.4312557260e+00 8.6175119031e-02 1.9455505619e+00 -3.3697924219e+00 1.9455505619e+00 3.3697924219e+00 
17200 5.4310681100e+00 8.5045197005e-02 1.9433363108e+00 -3.3659572264e+00 1.9433363108e+00 3.3659572264e+00 
17300 5.4308838326e+00 8.3926829284e-02 1.9411485984e+00 -3.3621679974e+00 1.9411485984e+00 3.3621679974e+00 
17400 5.4307027897e+00 8.2820337388e-02 1.9389872173e+00 -3.3584243757e+00 1.9389872173e+00 3.3584243757e+00 
17500 5.4305248868e+00 8.1726017159e-02 1.9368519501e+00 -3.3547259843e+00 1.9368519501e+00 3.3547259843e+00 
17600 5.4303500378e+00 8.0644139109e-02 1.9347425694e+00 -3.3510724297e+00 1.9347425694e+00 3.3510724297e+00 
17700 5.4301781648e+00 7.9574948820e-02 1.9326588388e+00 -3.3474633025e+00 1.9326588388e+00 3.3474633025e+00 
17800 5.4300091973e+00 7.8518667392e-02 1.9306005136e+00 -3.3438981787e+00 1.9306005136e+00 3.3438981787e+00 
17900 5.4298430721e+00 7.7475491939e-02 1.9285673414e+00 -3.3403766211e+00 1.9285673414e+00 3.3403766211e+00 
18000 5.4296797320e+00 7.6445596113e-02 1.9265590623e+00 -3.3368981796e+00 1.9265590623e+00 3.3368981796e+00 
18100 5.4295191257e+00 7.5429130683e-02 1.9245754101e+00 -3.3334623933e+00 1.9245754101e+00 3.3334623933e+00 
18200 5.4293612073e+00 7.4426224130e-02 1.9226161126e+00 -3.3300687904e+00 1.9226161126e+00 3.3300687904e+00 
18300 5.4292059352e+00 7.3436983282e-02 1.9206808920e+00 -3.3267168901e+00 1.9206808920e+00 3.3267168901e+00 
18400 5.4290532722e+00 7.2461493975e-02 1.9187694660e+00 -3.3234062031e+00 1.9187694660e+00 3.3234062031e+00 
18500 5.4289031843e+00 7.1499821729e-02 1.9168815478e+00 -3.3201362328e+00 1.9168815478e+00 3.3201362328e+00 
18600 5.4287556408e+00 7.0552012459e-02 1.9150168468e+00 -3.3169064760e+00 1.9150168468e+00 3.3169064760e+00 
18700 5.4286106135e+00 6.9618093183e-02 1.9131750695e+00 -3.3137164242e+00 1.9131750695e+00 3.3137164242e+00 
18800 5.4284680762e+00 6.8698072769e-02 1.9113559195e+00 -3.3105655640e+00 1.9113559195e+00 3.3105655640e+00 
18900 5.4283280044e+00 6.7791942668e-02 1.9095590983e+00 -3.3074533784e+00 1.9095590983e+00 3.3074533784e+00 
19000 5.4281903749e+00 6.6899677678e-02 1.9077843056e+00 -3.3043793473e+00 1.9077843056e+00 3.3043793473e+00 
19100 5.4280551654e+00 6.6021236700e-02 1.9060312400e+00 -3.3013429486e+00 1.9060312400e+00 3.3013429486e+00 
19200 5.4279223542e+00 6.5156563502e-02 1.9042995992e+00 -3.2983436587e+00 1.9042995992e+00 3.2983436587e+00 
19300 5.4277919198e+00 6.4305587491e-02 1.9025890806e+00 -3.2953809535e+00 1.9025890806e+00 3.2953809535e+00 
19400 5.4276638407e+00 6.3468224473e-02 1.9008993816e+00 -3.2924543089e+00 1.9008993816e+00 3.2924543089e+00 
19500 5.4275380955e+00 6.2644377419e-02 1.8992301999e+00 -3.2895632016e+00 1.8992301999e+00 3.2895632016e+00 
19600 5.4274146619e+00 6.1833937226e-02 1.8975812344e+00 -3.2867071094e+00 1.8975812344e+00 3.2867071094e+00 
19700 5.4272935174e+00 6.1036783467e-02 1.8959521847e+00 -3.2838855127e+00 1.8959521847e+00 3.2838855127e+00 
19800 5.4271746387e+00 6.0252785135e-02 1.8943427523e+00 -3.2810978939e+00 1.8943427523e+00 3.2810978939e+00 
19900 5.4270580015e+00 5.9481801380e-02 1.8927526402e+00 -3.2783437389e+00 1.8927526402e+00 3.2783437389e+00 
20000 5.4269435808e+00 5.8723682228e-02 1.8911815536e+00 -3.2756225372e+00 1.8911815536e+00 3.2756225372e+00 
20100 5.4268313506e+00 5.7978269298e-02 1.8896292002e+00 -3.2729337823e+00 1.8896292002e+00 3.2729337823e+00 
20200 5.4267212836e+00 5.7245396491e-02 1.8880952904e+00 -3.2702769724e+00 1.8880952904e+00 3.2702769724e+00 
20300 5.4266133518e+00 5.6524890674e-02 1.8865795372e+00 -3.2676516109e+00 1.8865795372e+00 3.2676516109e+00 
20400 5.4265075261e+00 5.5816572348e-02 1.8850816569e+00 -3.2650572062e+00 1.8850816569e+00 3.2650572062e+00 
20500 5.4264037763e+00 5.5120256289e-02 1.8836013693e+00 -3.2624932729e+00 1.8836013693e+00 3.2624932729e+00 
20600 5.4263020712e+00 5.4435752181e-02 1.8821383975e+00 -3.2599593313e+00 1.8821383975e+00 3.2599593313e+00 
20700 5.4262023787e+00 5.3762865223e-02 1.8806924683e+00 -3.2574549085e+00 1.8806924683e+00 3.2574549085e+00 
20800 5.4261046659e+00 5.3101396721e-02 1.8792633125e+00 -3.2549795381e+00 1.8792633125e+00 3.2549795381e+00 
20900 5.4260088991e+00 5.2451144657e-02 1.8778506649e+00 -3.2525327606e+00 1.8778506649e+00 3.2525327606e+00 
21000 5.4259150438e+00 5.1811904238e-02 1.8764542642e+00 -3.2501141237e+00 1.8764542642e+00 3.2501141237e+00 
21100 5.4258230648e+00 5.1183468419e-02 1.8750738537e+00 -3.2477231825e+00 1.8750738537e+00 3.2477231825e+00 
21200 5.4257329265e+00 5.0565628416e-02 1.8737091806e+00 -3.2453594994e+00 1.8737091806e+00 3.2453594994e+00 
21300 5.4256445927e+00 4.9958174183e-02 1.8723599970e+00 -3.2430226448e+00 1.8723599970e+00 3.2430226448e+00 
21400 5.4255580269e+00 4.9360894876e-02 1.8710260591e+00 -3.2407121967e+00 1.8710260591e+00 3.2407121967e+00 
21500 5.4254731924e+00 4.8773579294e-02 1.8697071280e+00 -3.2384277410e+00 1.8697071280e+00 3.2384277410e+00 
21600 5.4253900522e+00 4.8196016291e-02 1.8684029691e+00 -3.2361688715e+00 1.8684029691e+00 3.2361688715e+00 
21700 5.4253085693e+00 4.7627995179e-02 1.8671133525e+00 -3.2339351901e+00 1.8671133525e+00 3.2339351901e+00 
21800 5.4252287066e+00 4.7069306092e-02 1.8658380532e+00 -3.2317263068e+00 1.8658380532e+00 3.2317263068e+00 
21900 5.4251504273e+00 4.6519740343e-02 1.8645768505e+00 -3.2295418397e+00 1.8645768505e+00 3.2295418397e+00 
22000 5.4250736946e+00 4.5979090751e-02 1.8633295286e+00 -3.2273814148e+00 1.8633295286e+00 3.2273814148e+00 
22100 5.4249984721e+00 4.5447151950e-02 1.8620958764e+00 -3.2252446665e+00 1.8620958764e+00 3.2252446665e+00 
22200 5.4249247236e+00 4.4923720675e-02 1.8608756872e+00 -3.2231312368e+00 1.8608756872e+00 3.2231312368e+00 
22300 5.4248524136e+00 4.4408596029e-02 1.8596687592e+00 -3.2210407761e+00 1.8596687592e+00 3.2210407761e+00 
22400 5.4247815067e+00 4.3901579728e-02 1.8584748949e+00 -3.2189729426e+00 1.8584748949e+00 3.2189729426e+00 
22500 5.4247119684e+00 4.3402476331e-02 1.8572939017e+00 -3.2169274023e+00 1.8572939017e+00 3.2169274023e+00 
22600 5.4246437646e+00 4.2911093443e-02 1.8561255911e+00 -3.2149038290e+00 1.8561255911e+00 3.2149038290e+00 
22700 5.4245768620e+00 4.2427241903e-02 1.8549697793e+00 -3.2129019042e+00 1.8549697793e+00 3.2129019042e+00 
22800 5.4245112278e+00 4.1950735961e-02 1.8538262868e+00 -3.2109213171e+00 1.8538262868e+00 3.2109213171e+00 
22900 5.4244468302e+00 4.1481393420e-02 1.8526949385e+00 -3.2089617643e+00 1.8526949385e+00 3.2089617643e+00 
23000 5.4243836380e+00 4.1019035781e-02 1.8515755633e+00 -3.2070229497e+00 1.8515755633e+00 3.2070229497e+00 
23100 5.4243216208e+00 4.0563488359e-02 1.8504679946e+00 -3.2051045844e+00 1.8504679946e+00 3.2051045844e+00 
23200 5.4242607491e+00 4.0114580383e-02 1.8493720696e+00 -3.2032063867e+00 1.8493720696e+00 3.2032063867e+00 
23300 5.4242009941e+00 3.9672145090e-02 1.8482876297e+00 -3.2013280817e+00 1.8482876297e+00 3.2013280817e+00 
23400 5.4241423280e+00 3.9236019793e-02 1.8472145201e+00 -3.1994694013e+00 1.8472145201e+00 3.1994694013e+00 
23500 5.4240847239e+00 3.8806045946e-02 1.8461525899e+00 -3.1976300843e+00 1.8461525899e+00 3.1976300843e+00 
23600 5.4240281555e+00 3.8382069187e-02 1.8451016919e+00 -3.1958098755e+00 1.8451016919e+00 3.1958098755e+00 
23700 5.4239725976e+00 3.7963939374e-02 1.8440616825e+00 -3.1940085264e+00 1.8440616825e+00 3.1940085264e+00 
23800 5.4239180257e+00 3.7551510606e-02 1.8430324218e+00 -3.1922257946e+00 1.8430324218e+00 3.1922257946e+00 
23900 5.4238644163e+00 3.7144641233e-02 1.8420137732e+00 -3.1904614434e+00 1.8420137732e+00 3.1904614434e+00 
24000 5.4238117466e+00 3.6743193860e-02 1.8410056034e+00 -3.1887152422e+00 1.8410056034e+00 3.1887152422e+00 
24100 5.4237599945e+00 3.6347035331e-02 1.8400077827e+00 -3.1869869659e+00 1.8400077827e+00 3.1869869659e+00 
24200 5.4237091390e+00 3.5956036714e-02 1.8390201841e+00 -3.1852763950e+00 1.8390201841e+00 3.1852763950e+00 
24300 5.4236591596e+00 3.5570073274e-02 1.8380426839e+00 -3.1835833151e+00 1.8380426839e+00 3.1835833151e+00 
24400 5.4236100367e+00 3.5189024432e-02 1.8370751615e+00 -3.1819075170e+00 1.8370751615e+00 3.1819075170e+00 
24500 5.4235617514e+00 3.4812773722e-02 1.8361174989e+00 -3.1802487967e+00 1.8361174989e+00 3.1802487967e+00 
24600 5.4235142855e+00 3.4441208744e-02 1.8351695809e+00 -3.1786069545e+00 1.8351695809e+00 3.1786069545e+00 
24700 5.4234676214e+00 3.4074221102e-02 1.8342312950e+00 -3.1769817958e+00 1.8342312950e+00 3.1769817958e+00 
24800 5.4234217422e+00 3.3711706342e-02 1.8333025315e+00 -3.1753731301e+00 1.8333025315e+00 3.1753731301e+00 
24900 5.4233766316e+00 3.3353563883e-02 1.8323831827e+00 -3.1737807714e+00 1.8323831827e+00 3.1737807714e+00 
25000 5.4233322741e+00 3.2999696942e-02 1.8314731438e+00 -3.1722045377e+00 1.8314731438e+00 3.1722045377e+00 
25100 5.4232886544e+00 3.2650012455e-02 1.8305723118e+00 -3.1706442510e+00 1.8305723118e+00 3.1706442510e+00 
25200 5.4232457579e+00 3.2304420997e-02 1.8296805863e+00 -3.1690997372e+00 1.8296805863e+00 3.1690997372e+00 
25300 5.4232035707e+00 3.1962836693e-02 1.8287978688e+00 -3.1675708256e+00 1.8287978688e+00 3.1675708256e+00 
25400 5.4231620792e+00 3.1625177131e-02 1.8279240629e+00 -3.1660573492e+00 1.8279240629e+00 3.1660573492e+00 
25500 5.4231212701e+00 3.1291363266e-02 1.8270590739e+00 -3.1645591445e+00 1.8270590739e+00 3.1645591445e+00 
25600 5.4230811308e+00 3.0961319332e-02 1.8262028094e+00 -3.1630760508e+00 1.8262028094e+00 3.1630760508e+00 
25700 5.4230416491e+00 3.0634972738e-02 1.8253551784e+00 -3.1616079108e+00 1.8253551784e+00 3.1616079108e+00 
25800 5.4230028129e+00 3.0312253977e-02 1.8245160917e+00 -3.1601545700e+00 1.8245160917e+00 3.1601545700e+00 
25900 5.4229646107e+00 2.9993096523e-02 1.8236854618e+00 -3.1587158768e+00 1.8236854618e+00 3.1587158768e+00 
26000 5.4229270313e+00 2.9677436731e-02 1.8228632026e+00 -3.1572916822e+00 1.8228632026e+00 3.1572916822e+00 
26100 5.4228900638e+00 2.9365213737e-02 1.8220492297e+00 -3.1558818397e+00 1.8220492297e+00 3.1558818397e+00 
26200 5.4228536975e+00 2.9056369358e-02 1.8212434598e+00 -3.1544862053e+00 1.8212434598e+00 3.1544862053e+00 
26300 5.4228179222e+00 2.8750847988e-02 1.8204458111e+00 -3.1531046373e+00 1.8204458111e+00 3.1531046373e+00 
26400 5.4227827277e+00 2.8448596501e-02 1.8196562032e+00 -3.1517369963e+00 1.8196562032e+00 3.1517369963e+00 
26500 5.4227481041e+00 2.8149564146e-02 1.8188745567e+00 -3.1503831448e+00 1.8188745567e+00 3.1503831448e+00 
26600 5.4227140418e+00 2.7853702453e-02 1.8181007934e+00 -3.1490429475e+00 1.8181007934e+00 3.1490429475e+00 
26700 5.4226805315e+00 2.7560965126e-02 1.8173348363e+00 -3.1477162708e+00 1.8173348363e+00 3.1477162708e+00 
26800 5.4226475639e+00 2.7271307955e-02 1.8165766092e+00 -3.1464029831e+00 1.8165766092e+00 3.1464029831e+00 
26900 5.4226151299e+00 2.6984688709e-02 1.8158260373e+00 -3.1451029543e+00 1.8158260373e+00 3.1451029543e+00 
27000 5.4225832207e+00 2.6701067051e-02 1.8150830463e+00 -3.1438160562e+00 1.8150830463e+00 3.1438160562e+00 
27100 5.4225518276e+00 2.6420404435e-02 1.8143475631e+00 -3.1425421618e+00 1.8143475631e+00 3.1425421618e+00 
27200 5.4225209420e+00 2.6142664022e-02 1.8136195152e+00 -3.1412811460e+00 1.8136195152e+00 3.1412811460e+00 
27300 5.4224905555e+00 2.5867810585e-02 1.8128988312e+00 -3.1400328846e+00 1.8128988312e+00 3.1400328846e+00 
27400 5.4224606600e+00 2.5595810422e-02 1.8121854402e+00 -3.1387972552e+00 1.8121854402e+00 3.1387972552e+00 
27500 5.4224312472e+00 2.5326631271e-02 1.8114792722e+00 -3.1375741364e+00 1.8114792722e+00 3.1375741364e+00 
27600 5.4224023091e+00 2.5060242226e-02 1.8107802578e+00 -3.1363634079e+00 1.8107802578e+00 3.1363634079e+00 
27700 5.4223738380e+00 2.4796613654e-02 1.8100883283e+00 -3.1351649509e+00 1.8100883283e+00 3.1351649509e+00 
27800 5.4223458259e+00 2.4535717116e-02 1.8094034157e+00 -3.1339786473e+00 1.8094034157e+00 3.1339786473e+00 
27900 5.4223182653e+00 2.4277525294e-02 1.8087254523e+00 -3.1328043803e+00 1.8087254523e+00 3.1328043803e+00 
28000 5.4222911487e+00 2.4022011907e-02 1.8080543714e+00 -3.1316420341e+00 1.8080543714e+00 3.1316420341e+00 
28100 5.4222644686e+00 2.3769151651e-02 1.8073901065e+00 -3.1304914935e+00 1.8073901065e+00 3.1304914935e+00 
28200 5.4222382177e+00 2.3518920120e-02 1.8067325918e+00 -3.1293526447e+00 1.8067325918e+00 3.1293526447e+00 
28300 5.4222123887e+00 2.3271293743e-02 1.8060817621e+00 -3.1282253745e+00 1.8060817621e+00 3.1282253745e+00 
28400 5.4221869747e+00 2.3026249718e-02 1.8054375523e+00 -3.1271095705e+00 1.8054375523e+00 3.1271095705e+00 
28500 5.4221619685e+00 2.2783765953e-02 1.8047998982e+00 -3.1260051211e+00 1.8047998982e+00 3.1260051211e+00 
28600 5.4221373633e+00 2.2543821002e-02 1.8041687358e+00 -3.1249119158e+00 1.8041687358e+00 3.1249119158e+00 
28700 5.4221131522e+00 2.2306394011e-02 1.8035440015e+00 -3.1238298443e+00 1.8035440015e+00 3.1238298443e+00 
28800 5.4220893287e+00 2.2071464664e-02 1.8029256324e+00 -3.1227587976e+00 1.8029256324e+00 3.1227587976e+00 
28900 5.4220658859e+00 2.1839013130e-02 1.8023135657e+00 -3.1216986669e+00 1.8023135657e+00 3.1216986669e+00 
29000 5.4220428176e+00 2.1609020015e-02 1.8017077391e+00 -3.1206493445e+00 1.8017077391e+00 3.1206493445e+00 
29100 5.4220201172e+00 2.1381466312e-02 1.8011080908e+00 -3.1196107231e+00 1.8011080908e+00 3.1196107231e+00 
29200 5.4219977784e+00 2.1156333361e-02 1.8005145592e+00 -3.1185826962e+00 1.8005145592e+00 3.1185826962e+00 
29300 5.4219757952e+00 2.0933602805e-02 1.7999270831e+00 -3.1175651579e+00 1.7999270831e+00 3.1175651579e+00 
29400 5.4219541612e+00 2.0713256551e-02 1.7993456019e+00 -3.1165580029e+00 1.7993456019e+00 3.1165580029e+00 
29500 5.4219328706e+00 2.0495276730e-02 1.7987700552e+00 -3.1155611267e+00 1.7987700552e+00 3.1155611267e+00 
29600 5.4219119175e+00 2.0279645667e-02 1.7982003827e+00 -3.1145744250e+00 1.7982003827e+00 3.1145744250e+00 
29700 5.4218912960e+00 2.0066345846e-02 1.7976365249e+00 -3.1135977947e+00 1.7976365249e+00 3.1135977947e+00 
29800 5.4218710005e+00 1.9855359878e-02 1.7970784225e+00 -3.1126311329e+00 1.7970784225e+00 3.1126311329e+00 
29900 5.4218510253e+00 1.9646670476e-02 1.7965260164e+00 -3.1116743375e+00 1.7965260164e+00 3.1116743375e+00 
30000 5.4218313650e+00 1.9440260427e-02 1.7959792479e+00 -3.1107273068e+00 1.7959792479e+00 3.1107273068e+00 
30100 5.4218120140e+00 1.9236112567e-02 1.7954380590e+00 -3.1097899400e+00 1.7954380590e+00 3.1097899400e+00 
30200 5.4217929672e+00 1.9034209761e-02 1.7949023915e+00 -3.1088621367e+00 1.7949023915e+00 3.1088621367e+00 
30300 5.4217742193e+00 1.8834534881e-02 1.7943721879e+00 -3.1079437972e+00 1.7943721879e+00 3.1079437972e+00 
30400 5.4217557652e+00 1.8637070789e-02 1.7938473911e+00 -3.1070348224e+00 1.7938473911e+00 3.1070348224e+00 
30500 5.4217375998e+00 1.8441800320e-02 1.7933279442e+00 -3.1061351139e+00 1.7933279442e+00 3.1061351139e+00 
30600 5.4217197183e+00 1.8248706266e-02 1.7928137906e+00 -3.1052445738e+00 1.7928137906e+00 3.1052445738e+00 
30700 5.4217021158e+00 1.8057771366e-02 1.7923048743e+00 -3.1043631050e+00 1.7923048743e+00 3.1043631050e+00 
30800 5.4216847876e+00 1.7868978291e-02 1.7918011396e+00 -3.1034906108e+00 1.7918011396e+00 3.1034906108e+00 
30900 5.4216677290e+00 1.7682309634e-02 1.7913025310e+00 -3.1026269953e+00 1.7913025310e+00 3.1026269953e+00 
31000 5.4216509354e+00 1.7497747904e-02 1.7908089935e+00 -3.1017721634e+00 1.7908089935e+00 3.1017721634e+00 
31100 5.4216344025e+00 1.7315275520e-02 1.7903204726e+00 -3.1009260204e+00 1.7903204726e+00 3.1009260204e+00 
31200 5.4216181257e+00 1.7134874798e-02 1.7898369141e+00 -3.1000884724e+00 1.7898369141e+00 3.1000884724e+00 
31300 5.4216021009e+00 1.6956527954e-02 1.7893582640e+00 -3.0992594262e+00 1.7893582640e+00 3.0992594262e+00 
31400 5.4215863238e+00 1.6780217099e-02 1.7888844690e+00 -3.0984387892e+00 1.7888844690e+00 3.0984387892e+00 
31500 5.4215707902e+00 1.6605924233e-02 1.7884154761e+00 -3.0976264696e+00 1.7884154761e+00 3.0976264696e+00 
31600 5.4215554962e+00 1.6433631248e-02 1.7879512326e+00 -3.0968223763e+00 1.7879512326e+00 3.0968223763e+00 
31700 5.4215404377e+00 1.6263319928e-02 1.7874916863e+00 -3.0960264188e+00 1.7874916863e+00 3.0960264188e+00 
31800 5.4215256109e+00 1.6094971946e-02 1.7870367854e+00 -3.0952385074e+00 1.7870367854e+00 3.0952385074e+00 
31900 5.4215110119e+00 1.5928568869e-02 1.7865864786e+00 -3.0944585531e+00 1.7865864786e+00 3.0944585531e+00 
32000 5.4214966371e+00 1.5764092160e-02 1.7861407150e+00 -3.0936864678e+00 1.7861407150e+00 3.0936864678e+00 
32100 5.4214824827e+00 1.5601523183e-02 1.7856994440e+00 -3.0929221640e+00 1.7856994440e+00 3.0929221640e+00 
32200 5.4214685451e+00 1.5440843201e-02 1.7852626155e+00 -3.0921655549e+00 1.7852626155e+00 3.0921655549e+00 
32300 5.4214548209e+00 1.5282033389e-02 1.7848301800e+00 -3.0914165546e+00 1.7848301800e+00 3.0914165546e+00 
32400 5.4214413065e+00 1.5125074835e-02 1.7844020882e+00 -3.0906750779e+00 1.7844020882e+00 3.0906750779e+00 
32500 5.4214279986e+00 1.4969948544e-02 1.7839782915e+00 -3.0899410404e+00 1.7839782915e+00 3.0899410404e+00 
32600 5.4214148939e+00 1.4816635449e-02 1.7835587415e+00 -3.0892143585e+00 1.7835587415e+00 3.0892143585e+00 
32700 5.4214019890e+00 1.4665116415e-02 1.7831433904e+00 -3.0884949494e+00 1.7831433904e+00 3.0884949494e+00 
32800 5.4213892808e+00 1.4515372249e-02 1.7827321909e+00 -3.0877827310e+00 1.7827321909e+00 3.0877827310e+00 
32900 5.4213767662e+00 1.4367383702e-02 1.7823250961e+00 -3.0870776221e+00 1.7823250961e+00 3.0870776221e+00 
33000 5.4213644420e+00 1.4221131483e-02 1.7819220596e+00 -3.0863795424e+00 1.7819220596e+00 3.0863795424e+00 
33100 5.4213523052e+00 1.4076596266e-02 1.7815230354e+00 -3.0856884122e+00 1.7815230354e+00 3.0856884122e+00 
33200 5.4213403528e+00 1.3933758696e-02 1.7811279781e+00 -3.0850041528e+00 1.7811279781e+00 3.0850041528e+00 
33300 5.4213285820e+00 1.3792599400e-02 1.7807368425e+00 -3.0843266862e+00 1.7807368425e+00 3.0843266862e+00 
33400 5.4213169899e+00 1.3653098993e-02 1.7803495843e+00 -3.0836559353e+00 1.7803495843e+00 3.0836559353e+00 
33500 5.4213055736e+00 1.3515238092e-02 1.7799661594e+00 -3.0829918238e+00 1.7799661594e+00 3.0829918238e+00 
33600 5.4212943304e+00 1.3378997320e-02 1.7795865241e+00 -3.0823342763e+00 1.7795865241e+00 3.0823342763e+00 
33700 5.4212832576e+00 1.3244357319e-02 1.7792106355e+00 -3.0816832181e+00 1.7792106355e+00 3.0816832181e+00 
33800 5.4212723524e+00 1.3111298753e-02 1.7788384509e+00 -3.0810385755e+00 1.7788384509e+00 3.0810385755e+00 
33900 5.4212616123e+00 1.2979802327e-02 1.7784699283e+00 -3.0804002755e+00 1.7784699283e+00 3.0804002755e+00 
34000 5.4212510348e+00 1.2849848785e-02 1.7781050259e+00 -3.0797682460e+00 1.7781050259e+00 3.0797682460e+00 
34100 5.4212406171e+00 1.2721418928e-02 1.7777437026e+00 -3.0791424158e+00 1.7777437026e+00 3.0791424158e+00 
34200 5.4212303570e+00 1.2594493617e-02 1.7773859179e+00 -3.0785227144e+00 1.7773859179e+00 3.0785227144e+00 
34300 5.4212202519e+00 1.2469053786e-02 1.7770316314e+00 -3.0779090723e+00 1.7770316314e+00 3.0779090723e+00 
34400 5.4212102993e+00 1.2345080444e-02 1.7766808036e+00 -3.0773014206e+00 1.7766808036e+00 3.0773014206e+00 
34500 5.4212004971e+00 1.2222554694e-02 1.7763333951e+00 -3.0766996916e+00 1.7763333951e+00 3.0766996916e+00 
34600 5.4211908427e+00 1.2101457729e-02 1.7759893674e+00 -3.0761038180e+00 1.7759893674e+00 3.0761038180e+00 
34700 5.4211813340e+00 1.1981770852e-02 1.7756486820e+00 -3.0755137337e+00 1.7756486820e+00 3.0755137337e+00 
34800 5.4211719686e+00 1.1863475474e-02 1.7753113014e+00 -3.0749293732e+00 1.7753113014e+00 3.0749293732e+00 
34900 5.4211627443e+00 1.1746553126e-02 1.7749771880e+00 -3.0743506719e+00 1.7749771880e+00 3.0743506719e+00 
35000 5.4211536591e+00 1.1630985469e-02 1.7746463052e+00 -3.0737775661e+00 1.7746463052e+00 3.0737775661e+00 
35100 5.4211447107e+00 1.1516754295e-02 1.7743186166e+00 -3.0732099928e+00 1.7743186166e+00 3.0732099928e+00 
35200 5.4211358969e+00 1.1403841539e-02 1.7739940863e+00 -3.0726478899e+00 1.7739940863e+00 3.0726478899e+00 
35300 5.4211272159e+00 1.1292229283e-02 1.7736726789e+00 -3.0720911959e+00 1.7736726789e+00 3.0720911959e+00 
35400 5.4211186654e+00 1.1181899763e-02 1.7733543594e+00 -3.0715398504e+00 1.7733543594e+00 3.0715398504e+00 
35500 5.4211102435e+00 1.1072835375e-02 1.7730390934e+00 -3.0709937935e+00 1.7730390934e+00 3.0709937935e+00 
35600 5.4211019482e+00 1.0965018681e-02 1.7727268467e+00 -3.0704529665e+00 1.7727268467e+00 3.0704529665e+00 
35700 5.4210937775e+00 1.0858432414e-02 1.7724175859e+00 -3.0699173110e+00 1.7724175859e+00 3.0699173110e+00 
35800 5.4210857296e+00 1.0753059484e-02 1.7721112777e+00 -3.0693867697e+00 1.7721112777e+00 3.0693867697e+00 
35900 5.4210778025e+00 1.0648882982e-02 1.7718078895e+00 -3.0688612859e+00 1.7718078895e+00 3.0688612859e+00 
36000 5.4210699945e+00 1.0545886183e-02 1.7715073891e+00 -3.0683408039e+00 1.7715073891e+00 3.0683408039e+00 
36100 5.4210623036e+00 1.0444052554e-02 1.7712097445e+00 -3.0678252684e+00 1.7712097445e+00 3.0678252684e+00 
36200 5.4210547280e+00 1.0343365756e-02 1.7709149245e+00 -3.0673146251e+00 1.7709149245e+00 3.0673146251e+00 
36300 5.4210472661e+00 1.0243809646e-02 1.7706228980e+00 -3.0668088203e+00 1.7706228980e+00 3.0668088203e+00 
36400 5.4210399160e+00 1.0145368282e-02 1.7703336345e+00 -3.0663078013e+00 1.7703336345e+00 3.0663078013e+00 
36500 5.4210326761e+00 1.0048025928e-02 1.7700471039e+00 -3.0658115158e+00 1.7700471039e+00 3.0658115158e+00 
36600 5.4210255446e+00 9.9517670525e-03 1.7697632765e+00 -3.0653199123e+00 1.7697632765e+00 3.0653199123e+00 
36700 5.4210185200e+00 9.8565763324e-03 1.7694821230e+00 -3.0648329401e+00 1.7694821230e+00 3.0648329401e+00 
36800 5.4210116005e+00 9.7624386573e-03 1.7692036145e+00 -3.0643505492e+00 1.7692036145e+00 3.0643505492e+00 
36900 5.4210047845e+00 9.6693391288e-03 1.7689277224e+00 -3.0638726901e+00 1.7689277224e+00 3.0638726901e+00 
37000 5.4209980706e+00 9.5772630634e-03 1.7686544187e+00 -3.0633993142e+00 1.7686544187e+00 3.0633993142e+00 
37100 5.4209914570e+00 9.4861959931e-03 1.7683836756e+00 -3.0629303734e+00 1.7683836756e+00 3.0629303734e+00 
37200 5.4209849423e+00 9.3961236669e-03 1.7681154658e+00 -3.0624658205e+00 1.7681154658e+00 3.0624658205e+00 
37300 5.4209785250e+00 9.3070320511e-03 1.7678497624e+00 -3.0620056085e+00 1.7678497624e+00 3.0620056085e+00 
37400 5.4209722036e+00 9.2189073303e-03 1.7675865386e+00 -3.0615496916e+00 1.7675865386e+00 3.0615496916e+00 
37500 5.4209659766e+00 9.1317359072e-03 1.7673257683e+00 -3.0610980243e+00 1.7673257683e+00 3.0610980243e+00 
37600 5.4209598426e+00 9.0455044029e-03 1.7670674256e+00 -3.0606505616e+00 1.7670674256e+00 3.0606505616e+00 
37700 5.4209538002e+00 8.9601996567e-03 1.7668114850e+00 -3.0602072595e+00 1.7668114850e+00 3.0602072595e+00 
37800 5.4209478479e+00 8.8758087255e-03 1.7665579213e+00 -3.0597680743e+00 1.7665579213e+00 3.0597680743e+00 
37900 5.4209419845e+00 8.7923188831e-03 1.7663067097e+00 -3.0593329629e+00 1.7663067097e+00 3.0593329629e+00 
38000 5.4209362085e+00 8.7097176197e-03 1.7660578256e+00 -3.0589018831e+00 1.7660578256e+00 3.0589018831e+00 
38100 5.4209305186e+00 8.6279926403e-03 1.7658112449e+00 -3.0584747928e+00 1.7658112449e+00 3.0584747928e+00 
38200 5.4209249136e+00 8.5471318639e-03 1.7655669438e+00 -3.0580516508e+00 1.7655669438e+00 3.0580516508e+00 
38300 5.4209193921e+00 8.4671234220e-03 1.7653248987e+00 -3.0576324164e+00 1.7653248987e+00 3.0576324164e+00 
38400 5.4209139529e+00 8.3879556567e-03 1.7650850864e+00 -3.0572170494e+00 1.7650850864e+00 3.0572170494e+00 
38500 5.4209085947e+00 8.3096171192e-03 1.7648474841e+00 -3.0568055100e+00 1.7648474841e+00 3.0568055100e+00 
38600 5.4209033163e+00 8.2320965678e-03 1.7646120690e+00 -3.0563977592e+00 1.7646120690e+00 3.0563977592e+00 
38700 5.4208981165e+00 8.1553829658e-03 1.7643788190e+00 -3.0559937584e+00 1.7643788190e+00 3.0559937584e+00 
38800 5.4208929941e+00 8.0794654792e-03 1.7641477121e+00 -3.0555934694e+00 1.7641477121e+00 3.0555934694e+00 
38900 5.4208879479e+00 8.0043334748e-03 1.7639187264e+00 -3.0551968546e+00 1.7639187264e+00 3.0551968546e+00 
39000 5.4208829768e+00 7.9299765169e-03 1.7636918406e+00 -3.0548038769e+00 1.7636918406e+00 3.0548038769e+00 
39100 5.4208780797e+00 7.8563843657e-03 1.7634670336e+00 -3.0544144996e+00 1.7634670336e+00 3.0544144996e+00 
39200 5.4208732554e+00 7.7835469739e-03 1.7632442843e+00 -3.0540286866e+00 1.7632442843e+00 3.0540286866e+00 
39300 5.4208685029e+00 7.7114544841e-03 1.7630235723e+00 -3.0536464021e+00 1.7630235723e+00 3.0536464021e+00 
39400 5.4208638210e+00 7.6400972260e-03 1.7628048771e+00 -3.0532676110e+00 1.7628048771e+00 3.0532676110e+00 
39500 5.4208592087e+00 7.5694657137e-03 1.7625881787e+00 -3.0528922783e+00 1.7625881787e+00 3.0528922783e+00 
39600 5.4208546650e+00 7.4995506422e-03 1.7623734572e+00 -3.0525203697e+00 1.7623734572e+00 3.0525203697e+00 
39700 5.4208501888e+00 7.4303428846e-03 1.7621606930e+00 -3.0521518513e+00 1.7621606930e+00 3.0521518513e+00 
39800 5.4208457791e+00 7.3618334888e-03 1.7619498667e+00 -3.0517866895e+00 1.7619498667e+00 3.0517866895e+00 
39900 5.4208414349e+00 7.2940136745e-03 1.7617409593e+00 -3.0514248513e+00 1.7617409593e+00 3.0514248513e+00 
40000 5.4208371552e+00 7.2268748300e-03 1.7615339518e+00 -3.0510663038e+00 1.7615339518e+00 3.0510663038e+00 
40100 5.4208329391e+00 7.1604085085e-03 1.7613288256e+00 -3.0507110148e+00 1.7613288256e+00 3.0507110148e+00 
40200 5.4208287856e+00 7.0946064254e-03 1.7611255623e+00 -3.0503589525e+00 1.7611255623e+00 3.0503589525e+00 
40300 5.4208246938e+00 7.0294604544e-03 1.7609241437e+00 -3.0500100851e+00 1.7609241437e+00 3.0500100851e+00 
40400 5.4208206627e+00 6.9649626247e-03 1.7607245517e+00 -3.0496643816e+00 1.7607245517e+00 3.0496643816e+00 
40500 5.4208166915e+00 6.9011051170e-03 1.7605267685e+00 -3.0493218112e+00 1.7605267685e+00 3.0493218112e+00 
40600 5.4208127792e+00 6.8378802609e-03 1.7603307767e+00 -3.0489823434e+00 1.7603307767e+00 3.0489823434e+00 
40700 5.4208089249e+00 6.7752805309e-03 1.7601365588e+00 -3.0486459481e+00 1.7601365588e+00 3.0486459481e+00 
40800 5.4208051279e+00 6.7132985433e-03 1.7599440977e+00 -3.0483125957e+00 1.7599440977e+00 3.0483125957e+00 
40900 5.4208013872e+00 6.6519270530e-03 1.7597533764e+00 -3.0479822567e+00 1.7597533764e+00 3.0479822567e+00 
41000 5.4207977020e+00 6.5911589498e-03 1.7595643781e+00 -3.0476549020e+00 1.7595643781e+00 3.0476549020e+00 
41100 5.4207940715e+00 6.5309872554e-03 1.7593770862e+00 -3.0473305030e+00 1.7593770862e+00 3.0473305030e+00 
41200 5.4207904948e+00 6.4714051199e-03 1.7591914844e+00 -3.0470090312e+00 1.7591914844e+00 3.0470090312e+00 
41300 5.4207869712e+00 6.4124058188e-03 1.7590075563e+00 -3.0466904585e+00 1.7590075563e+00 3.0466904585e+00 
41400 5.4207834998e+00 6.3539827495e-03 1.7588252861e+00 -3.0463747571e+00 1.7588252861e+00 3.0463747571e+00 
41500 5.4207800800e+00 6.2961294282e-03 1.7586446577e+00 -3.0460618997e+00 1.7586446577e+00 3.0460618997e+00 
41600 5.4207767108e+00 6.2388394868e-03 1.7584656556e+00 -3.0457518589e+00 1.7584656556e+00 3.0457518589e+00 
41700 5.4207733916e+00 6.1821066695e-03 1.7582882642e+00 -3.0454446079e+00 1.7582882642e+00 3.0454446079e+00 
41800 5.4207701216e+00 6.1259248303e-03 1.7581124681e+00 -3.0451401202e+00 1.7581124681e+00 3.0451401202e+00 
41900 5.4207669002e+00 6.0702879294e-03 1.7579382522e+00 -3.0448383694e+00 1.7579382522e+00 3.0448383694e+00 
42000 5.4207637264e+00 6.0151900305e-03 1.7577656014e+00 -3.0445393294e+00 1.7577656014e+00 3.0445393294e+00 
42100 5.4207605998e+00 5.9606252978e-03 1.7575945009e+00 -3.0442429746e+00 1.7575945009e+00 3.0442429746e+00 
42200 5.4207575195e+00 5.9065879931e-03 1.7574249359e+00 -3.0439492795e+00 1.7574249359e+00 3.0439492795e+00 
42300 5.4207544848e+00 5.8530724732e-03 1.7572568919e+00 -3.0436582187e+00 1.7572568919e+00 3.0436582187e+00 
42400 5.4207514952e+00 5.8000731868e-03 1.7570903545e+00 -3.0433697675e+00 1.7570903545e+00 3.0433697675e+00 
42500 5.4207485498e+00 5.7475846721e-03 1.7569253094e+00 -3.0430839010e+00 1.7569253094e+00 3.0430839010e+00 
42600 5.4207456481e+00 5.6956015540e-03 1.7567617426e+00 -3.0428005949e+00 1.7567617426e+00 3.0428005949e+00 
42700 5.4207427895e+00 5.6441185415e-03 1.7565996399e+00 -3.0425198249e+00 1.7565996399e+00 3.0425198249e+00 
42800 5.4207399732e+00 5.5931304253e-03 1.7564389877e+00 -3.0422415671e+00 1.7564389877e+00 3.0422415671e+00 
42900 5.4207371986e+00 5.5426320753e-03 1.7562797722e+00 -3.0419657978e+00 1.7562797722e+00 3.0419657978e+00 
43000 5.4207344652e+00 5.4926184381e-03 1.7561219799e+00 -3.0416924935e+00 1.7561219799e+00 3.0416924935e+00 
43100 5.4207317723e+00 5.4430845351e-03 1.7559655973e+00 -3.0414216309e+00 1.7559655973e+00 3.0414216309e+00 
43200 5.4207291193e+00 5.3940254596e-03 1.7558106113e+00 -3.0411531872e+00 1.7558106113e+00 3.0411531872e+00 
43300 5.4207265056e+00 5.3454363751e-03 1.7556570085e+00 -3.0408871394e+00 1.7556570085e+00 3.0408871394e+00 
43400 5.4207239306e+00 5.2973125129e-03 1.7555047761e+00 -3.0406234651e+00 1.7555047761e+00 3.0406234651e+00 
43500 5.4207213938e+00 5.2496491704e-03 1.7553539010e+00 -3.0403621419e+00 1.7553539010e+00 3.0403621419e+00 
43600 5.4207188947e+00 5.2024417086e-03 1.7552043707e+00 -3.0401031477e+00 1.7552043707e+00 3.0401031477e+00 
43700 5.4207164325e+00 5.1556855507e-03 1.7550561723e+00 -3.0398464606e+00 1.7550561723e+00 3.0398464606e+00 
43800 5.4207140068e+00 5.1093761797e-03 1.7549092934e+00 -3.0395920589e+00 1.7549092934e+00 3.0395920589e+00 
43900 5.4207116171e+00 5.0635091370e-03 1.7547637216e+00 -3.0393399212e+00 1.7547637216e+00 3.0393399212e+00 
44000 5.4207092628e+00 5.0180800207e-03 1.7546194447e+00 -3.0390900261e+00 1.7546194447e+00 3.0390900261e+00 
44100 5.4207069434e+00 4.9730844834e-03 1.7544764504e+00 -3.0388423527e+00 1.7544764504e+00 3.0388423527e+00 
44200 5.4207046584e+00 4.9285182313e-03 1.7543347267e+00 -3.0385968801e+00 1.7543347267e+00 3.0385968801e+00 
44300 5.4207024072e+00 4.8843770222e-03 1.7541942617e+00 -3.0383535876e+00 1.7541942617e+00 3.0383535876e+00 
44400 5.4207001894e+00 4.8406566640e-03 1.7540550436e+00 -3.0381124547e+00 1.7540550436e+00 3.0381124547e+00 
44500 5.4206980045e+00 4.7973530136e-03 1.7539170606e+00 -3.0378734613e+00 1.7539170606e+00 3.0378734613e+00 
44600 5.4206958519e+00 4.7544619752e-03 1.7537803013e+00 -3.0376365871e+00 1.7537803013e+00 3.0376365871e+00 
44700 5.4206937312e+00 4.7119794991e-03 1.7536447541e+00 -3.0374018125e+00 1.7536447541e+00 3.0374018125e+00 
44800 5.4206916420e+00 4.6699015804e-03 1.7535104076e+00 -3.0371691176e+00 1.7535104076e+00 3.0371691176e+00 
44900 5.4206895837e+00 4.6282242581e-03 1.7533772506e+00 -3.0369384830e+00 1.7533772506e+00 3.0369384830e+00 
45000 5.4206875560e+00 4.5869436134e-03 1.7532452720e+00 -3.0367098893e+00 1.7532452720e+00 3.0367098893e+00 
45100 5.4206855582e+00 4.5460557691e-03 1.7531144607e+00 -3.0364833174e+00 1.7531144607e+00 3.0364833174e+00 
45200 5.4206835901e+00 4.5055568885e-03 1.7529848057e+00 -3.0362587485e+00 1.7529848057e+00 3.0362587485e+00 
45300 5.4206816512e+00 4.4654431738e-03 1.7528562963e+00 -3.0360361636e+00 1.7528562963e+00 3.0360361636e+00 
45400 5.4206797410e+00 4.4257108662e-03 1.7527289217e+00 -3.0358155442e+00 1.7527289217e+00 3.0358155442e+00 
45500 5.4206778591e+00 4.3863562442e-03 1.7526026712e+00 -3.0355968719e+00 1.7526026712e+00 3.0355968719e+00 
45600 5.4206760051e+00 4.3473756227e-03 1.7524775343e+00 -3.0353801285e+00 1.7524775343e+00 3.0353801285e+00 
45700 5.4206741786e+00 4.3087653531e-03 1.7523535006e+00 -3.0351652959e+00 1.7523535006e+00 3.0351652959e+00 
45800 5.4206723792e+00 4.2705218213e-03 1.7522305598e+00 -3.0349523562e+00 1.7522305598e+00 3.0349523562e+00 
45900 5.4206706064e+00 4.2326414479e-03 1.7521087017e+00 -3.0347412917e+00 1.7521087017e+00 3.0347412917e+00 
46000 5.4206688599e+00 4.1951206873e-03 1.7519879160e+00 -3.0345320847e+00 1.7519879160e+00 3.0345320847e+00 
46100 5.4206671393e+00 4.1579560268e-03 1.7518681928e+00 -3.0343247180e+00 1.7518681928e+00 3.0343247180e+00 
46200 5.4206654442e+00 4.1211439860e-03 1.7517495220e+00 -3.0341191743e+00 1.7517495220e+00 3.0341191743e+00 
46300 5.4206637742e+00 4.0846811168e-03 1.7516318940e+00 -3.0339154365e+00 1.7516318940e+00 3.0339154365e+00 
46400 5.4206621290e+00 4.0485640022e-03 1.7515152988e+00 -3.0337134878e+00 1.7515152988e+00 3.0337134878e+00 
46500 5.4206605082e+00 4.0127892559e-03 1.7513997269e+00 -3.0335133114e+00 1.7513997269e+00 3.0335133114e+00 
46600 5.4206589114e+00 3.9773535222e-03 1.7512851687e+00 -3.0333148907e+00 1.7512851687e+00 3.0333148907e+00 
46700 5.4206573383e+00 3.9422534754e-03 1.7511716146e+00 -3.0331182093e+00 1.7511716146e+00 3.0331182093e+00 
46800 5.4206557885e+00 3.9074858189e-03 1.7510590554e+00 -3.0329232510e+00 1.7510590554e+00 3.0329232510e+00 
46900 5.4206542616e+00 3.8730472856e-03 1.7509474816e+00 -3.0327299996e+00 1.7509474816e+00 3.0327299996e+00 
47000 5.4206527575e+00 3.8389346370e-03 1.7508368842e+00 -3.0325384392e+00 1.7508368842e+00 3.0325384392e+00 
47100 5.4206512756e+00 3.8051446629e-03 1.7507272539e+00 -3.0323485540e+00 1.7507272539e+00 3.0323485540e+00 
47200 5.4206498157e+00 3.7716741815e-03 1.7506185818e+00 -3.0321603283e+00 1.7506185818e+00 3.0321603283e+00 
47300 5.4206483774e+00 3.7385200386e-03 1.7505108588e+00 -3.0319737467e+00 1.7505108588e+00 3.0319737467e+00 
47400 5.4206469605e+00 3.7056791074e-03 1.7504040762e+00 -3.0317887938e+00 1.7504040762e+00 3.0317887938e+00 
47500 5.4206455646e+00 3.6731482885e-03 1.7502982252e+00 -3.0316054544e+00 1.7502982252e+00 3.0316054544e+00 
47600 5.4206441894e+00 3.6409245096e-03 1.7501932970e+00 -3.0314237135e+00 1.7501932970e+00 3.0314237135e+00 
47700 5.4206428346e+00 3.6090047252e-03 1.7500892831e+00 -3.0312435562e+00 1.7500892831e+00 3.0312435562e+00 
47800 5.4206414999e+00 3.5773859161e-03 1.7499861750e+00 -3.0310649676e+00 1.7499861750e+00 3.0310649676e+00 
47900 5.4206401850e+00 3.5460650900e-03 1.7498839641e+00 -3.0308879333e+00 1.7498839641e+00 3.0308879333e+00 
48000 5.4206388896e+00 3.5150392804e-03 1.7497826423e+00 -3.0307124386e+00 1.7497826423e+00 3.0307124386e+00 
48100 5.4206376134e+00 3.4843055470e-03 1.7496822011e+00 -3.0305384693e+00 1.7496822011e+00 3.0305384693e+00 
48200 5.4206363561e+00 3.4538609756e-03 1.7495826323e+00 -3.0303660112e+00 1.7495826323e+00 3.0303660112e+00 
48300 5.4206351175e+00 3.4237026774e-03 1.7494839280e+00 -3.0301950503e+00 1.7494839280e+00 3.0301950503e+00 
48400 5.4206338973e+00 3.3938277897e-03 1.7493860800e+00 -3.0300255725e+00 1.7493860800e+00 3.0300255725e+00 
48500 5.4206326951e+00 3.3642334748e-03 1.7492890803e+00 -3.0298575642e+00 1.7492890803e+00 3.0298575642e+00 
48600 5.4206315109e+00 3.3349169208e-03 1.7491929212e+00 -3.0296910117e+00 1.7491929212e+00 3.0296910117e+00 
48700 5.4206303441e+00 3.3058753409e-03 1.7490975947e+00 -3.0295259015e+00 1.7490975947e+00 3.0295259015e+00 
48800 5.4206291947e+00 3.2771059733e-03 1.7490030933e+00 -3.0293622201e+00 1.7490030933e+00 3.0293622201e+00 
48900 5.4206280624e+00 3.2486060817e-03 1.7489094091e+00 -3.0291999545e+00 1.7489094091e+00 3.0291999545e+00 
49000 5.4206269469e+00 3.2203729543e-03 1.7488165348e+00 -3.0290390913e+00 1.7488165348e+00 3.0290390913e+00 
49100 5.4206258479e+00 3.1924039046e-03 1.7487244627e+00 -3.0288796178e+00 1.7487244627e+00 3.0288796178e+00 
49200 5.4206247652e+00 3.1646962706e-03 1.7486331854e+00 -3.0287215209e+00 1.7486331854e+00 3.0287215209e+00 
49300 5.4206236986e+00 3.1372474151e-03 1.7485426956e+00 -3.0285647880e+00 1.7485426956e+00 3.0285647880e+00 
49400 5.4206226479e+00 3.1100547256e-03 1.7484529860e+00 -3.0284094064e+00 1.7484529860e+00 3.0284094064e+00 
49500 5.4206216127e+00 3.0831156141e-03 1.7483640494e+00 -3.0282553638e+00 1.7483640494e+00 3.0282553638e+00 
49600 5.4206205929e+00 3.0564275170e-03 1.7482758787e+00 -3.0281026476e+00 1.7482758787e+00 3.0281026476e+00 
49700 5.4206195883e+00 3.0299878951e-03 1.7481884668e+00 -3.0279512458e+00 1.7481884668e+00 3.0279512458e+00 
49800 5.4206185985e+00 3.0037942336e-03 1.7481018068e+00 -3.0278011461e+00 1.7481018068e+00 3.0278011461e+00 
49900 5.4206176235e+00 2.9778440419e-03 1.7480158916e+00 -3.0276523367e+00 1.7480158916e+00 3.0276523367e+00 
50000 5.4206166629e+00 2.9521348533e-03 1.7479307145e+00 -3.0275048055e+00 1.7479307145e+00 3.0275048055e+00 
50100 5.4206157166e+00 2.9266642254e-03 1.7478462686e+00 -3.0273585410e+00 1.7478462686e+00 3.0273585410e+00 
50200 5.4206147844e+00 2.9014297398e-03 1.7477625472e+00 -3.0272135314e+00 1.7477625472e+00 3.0272135314e+00 
50300 5.4206138660e+00 2.8764290019e-03 1.7476795438e+00 -3.0270697651e+00 1.7476795438e+00 3.0270697651e+00 
50400 5.4206129613e+00 2.8516596407e-03 1.7475972516e+00 -3.0269272309e+00 1.7475972516e+00 3.0269272309e+00 
50500 5.4206120700e+00 2.8271193093e-03 1.7475156642e+00 -3.0267859175e+00 1.7475156642e+00 3.0267859175e+00 
50600 5.4206111919e+00 2.8028056840e-03 1.7474347752e+00 -3.0266458135e+00 1.7474347752e+00 3.0266458135e+00 
50700 5.4206103269e+00 2.7787164648e-03 1.7473545781e+00 -3.0265069081e+00 1.7473545781e+00 3.0265069081e+00 
50800 5.4206094747e+00 2.7548493753e-03 1.7472750666e+00 -3.0263691901e+00 1.7472750666e+00 3.0263691901e+00 
50900 5.4206086352e+00 2.7312021620e-03 1.7471962344e+00 -3.0262326488e+00 1.7471962344e+00 3.0262326488e+00 
51000 5.4206078082e+00 2.7077725949e-03 1.7471180755e+00 -3.0260972735e+00 1.7471180755e+00 3.0260972735e+00 
51100 5.4206069934e+00 2.6845584671e-03 1.7470405835e+00 -3.0259630535e+00 1.7470405835e+00 3.0259630535e+00 
51200 5.4206061908e+00 2.6615575943e-03 1.7469637524e+00 -3.0258299782e+00 1.7469637524e+00 3.0258299782e+00 
51300 5.4206054001e+00 2.6387678156e-03 1.7468875763e+00 -3.0256980373e+00 1.7468875763e+00 3.0256980373e+00 
51400 5.4206046211e+00 2.6161869925e-03 1.7468120492e+00 -3.0255672205e+00 1.7468120492e+00 3.0255672205e+00 
51500 5.4206038538e+00 2.5938130091e-03 1.7467371651e+00 -3.0254375174e+00 1.7467371651e+00 3.0254375174e+00 
51600 5.4206030978e+00 2.5716437722e-03 1.7466629182e+00 -3.0253089181e+00 1.7466629182e+00 3.0253089181e+00 
51700 5.4206023531e+00 2.5496772107e-03 1.7465893028e+00 -3.0251814125e+00 1.7465893028e+00 3.0251814125e+00 
51800 5.4206016194e+00 2.5279112759e-03 1.7465163132e+00 -3.0250549907e+00 1.7465163132e+00 3.0250549907e+00 
51900 5.4206008967e+00 2.5063439411e-03 1.7464439436e+00 -3.0249296429e+00 1.7464439436e+00 3.0249296429e+00 
52000 5.4206001847e+00 2.4849732015e-03 1.7463721884e+00 -3.0248053593e+00 1.7463721884e+00 3.0248053593e+00 
52100 5.4205994833e+00 2.4637970743e-03 1.7463010422e+00 -3.0246821304e+00 1.7463010422e+00 3.0246821304e+00 
52200 5.4205987923e+00 2.4428135980e-03 1.7462304994e+00 -3.0245599466e+00 1.7462304994e+00 3.0245599466e+00 
52300 5.4205981116e+00 2.4220208328e-03 1.7461605545e+00 -3.0244387986e+00 1.7461605545e+00 3.0244387986e+00 
52400 5.4205974410e+00 2.4014168602e-03 1.7460912022e+00 -3.0243186769e+00 1.7460912022e+00 3.0243186769e+00 
52500 5.4205967804e+00 2.3809997828e-03 1.7460224371e+00 -3.0241995723e+00 1.7460224371e+00 3.0241995723e+00 
52600 5.4205961296e+00 2.3607677243e-03 1.7459542540e+00 -3.0240814757e+00 1.7459542540e+00 3.0240814757e+00 
52700 5.4205954885e+00 2.3407188291e-03 1.7458866477e+00 -3.0239643780e+00 1.7458866477e+00 3.0239643780e+00 
52800 5.4205948570e+00 2.3208512623e-03 1.7458196129e+00 -3.0238482703e+00 1.7458196129e+00 3.0238482703e+00 
52900 5.4205942348e+00 2.3011632096e-03 1.7457531445e+00 -3.0237331437e+00 1.7457531445e+00 3.0237331437e+00 
53000 5.4205936219e+00 2.2816528768e-03 1.7456872374e+00 -3.0236189893e+00 1.7456872374e+00 3.0236189893e+00 
53100 5.4205930181e+00 2.2623184901e-03 1.7456218867e+00 -3.0235057986e+00 1.7456218867e+00 3.0235057986e+00 
53200 5.4205924233e+00 2.2431582953e-03 1.7455570873e+00 -3.0233935627e+00 1.7455570873e+00 3.0233935627e+00 
53300 5.4205918373e+00 2.2241705583e-03 1.7454928343e+00 -3.0232822733e+00 1.7454928343e+00 3.0232822733e+00 
53400 5.4205912601e+00 2.2053535644e-03 1.7454291229e+00 -3.0231719219e+00 1.7454291229e+00 3.0231719219e+00 
53500 5.4205906915e+00 2.1867056183e-03 1.7453659482e+00 -3.0230625000e+00 1.7453659482e+00 3.0230625000e+00 
53600 5.4205901313e+00 2.1682250440e-03 1.7453033054e+00 -3.0229539995e+00 1.7453033054e+00 3.0229539995e+00 
53700 5.4205895795e+00 2.1499101843e-03 1.7452411897e+00 -3.0228464121e+00 1.7452411897e+00 3.0228464121e+00 
53800 5.4205890359e+00 2.1317594010e-03 1.7451795966e+00 -3.0227397296e+00 1.7451795966e+00 3.0227397296e+00 
53900 5.4205885003e+00 2.1137710745e-03 1.7451185213e+00 -3.0226339441e+00 1.7451185213e+00 3.0226339441e+00 
54000 5.4205879728e+00 2.0959436035e-03 1.7450579593e+00 -3.0225290476e+00 1.7450579593e+00 3.0225290476e+00 
54100 5.4205874531e+00 2.0782754051e-03 1.7449979059e+00 -3.0224250322e+00 1.7449979059e+00 3.0224250322e+00 
54200 5.4205869411e+00 2.0607649142e-03 1.7449383567e+00 -3.0223218900e+00 1.7449383567e+00 3.0223218900e+00 
54300 5.4205864368e+00 2.0434105837e-03 1.7448793073e+00 -3.0222196133e+00 1.7448793073e+00 3.0222196133e+00 
54400 5.4205859400e+00 2.0262108841e-03 1.7448207531e+00 -3.0221181945e+00 1.7448207531e+00 3.0221181945e+00 
54500 5.4205854506e+00 2.0091643031e-03 1.7447626899e+00 -3.0220176260e+00 1.7447626899e+00 3.0220176260e+00 
54600 5.4205849684e+00 1.9922693460e-03 1.7447051132e+00 -3.0219179002e+00 1.7447051132e+00 3.0219179002e+00 
54700 5.4205844935e+00 1.9755245349e-03 1.7446480188e+00 -3.0218190098e+00 1.7446480188e+00 3.0218190098e+00 
54800 5.4205840256e+00 1.9589284086e-03 1.7445914023e+00 -3.0217209473e+00 1.7445914023e+00 3.0217209473e+00 
54900 5.4205835647e+00 1.9424795226e-03 1.7445352597e+00 -3.0216237055e+00 1.7445352597e+00 3.0216237055e+00 
55000 5.4205831107e+00 1.9261764490e-03 1.7444795868e+00 -3.0215272771e+00 1.7444795868e+00 3.0215272771e+00 
55100 5.4205826634e+00 1.9100177759e-03 1.7444243793e+00 -3.0214316549e+00 1.7444243793e+00 3.0214316549e+00 
55200 5.4205822228e+00 1.8940021074e-03 1.7443696332e+00 -3.0213368319e+00 1.7443696332e+00 3.0213368319e+00 
55300 5.4205817888e+00 1.8781280634e-03 1.7443153445e+00 -3.0212428011e+00 1.7443153445e+00 3.0212428011e+00 
55400 5.4205813612e+00 1.8623942796e-03 1.7442615091e+00 -3.0211495554e+00 1.7442615091e+00 3.0211495554e+00 
55500 5.4205809400e+00 1.8467994068e-03 1.7442081230e+00 -3.0210570881e+00 1.7442081230e+00 3.0210570881e+00 
55600 5.4205805251e+00 1.8313421113e-03 1.7441551824e+00 -3.0209653922e+00 1.7441551824e+00 3.0209653922e+00 
55700 5.4205801164e+00 1.8160210741e-03 1.7441026833e+00 -3.0208744610e+00 1.7441026833e+00 3.0208744610e+00 
55800 5.4205797137e+00 1.8008349913e-03 1.7440506218e+00 -3.0207842879e+00 1.7440506218e+00 3.0207842879e+00 
55900 5.4205793171e+00 1.7857825733e-03 1.7439989941e+00 -3.0206948661e+00 1.7439989941e+00 3.0206948661e+00 
56000 5.4205789264e+00 1.7708625453e-03 1.7439477964e+00 -3.0206061891e+00 1.7439477964e+00 3.0206061891e+00 
56100 5.4205785415e+00 1.7560736463e-03 1.7438970250e+00 -3.0205182504e+00 1.7438970250e+00 3.0205182504e+00 
56200 5.4205781623e+00 1.7414146298e-03 1.7438466761e+00 -3.0204310436e+00 1.7438466761e+00 3.0204310436e+00 
56300 5.4205777888e+00 1.7268842626e-03 1.7437967461e+00 -3.0203445623e+00 1.7437967461e+00 3.0203445623e+00 
56400 5.4205774209e+00 1.7124813257e-03 1.7437472312e+00 -3.0202588001e+00 1.7437472312e+00 3.0202588001e+00 
56500 5.4205770584e+00 1.6982046131e-03 1.7436981280e+00 -3.0201737507e+00 1.7436981280e+00 3.0201737507e+00 
56600 5.4205767014e+00 1.6840529324e-03 1.7436494327e+00 -3.0200894081e+00 1.7436494327e+00 3.0200894081e+00 
56700 5.4205763497e+00 1.6700251041e-03 1.7436011419e+00 -3.0200057659e+00 1.7436011419e+00 3.0200057659e+00 
56800 5.4205760032e+00 1.6561199618e-03 1.7435532520e+00 -3.0199228182e+00 1.7435532520e+00 3.0199228182e+00 
56900 5.4205756619e+00 1.6423363516e-03 1.7435057596e+00 -3.0198405588e+00 1.7435057596e+00 3.0198405588e+00 
57000 5.4205753257e+00 1.6286731325e-03 1.7434586611e+00 -3.0197589819e+00 1.7434586611e+00 3.0197589819e+00 
57100 5.4205749945e+00 1.6151291755e-03 1.7434119532e+00 -3.0196780814e+00 1.7434119532e+00 3.0196780814e+00 
57200 5.4205746683e+00 1.6017033640e-03 1.7433656325e+00 -3.0195978516e+00 1.7433656325e+00 3.0195978516e+00 
57300 5.4205743469e+00 1.5883945935e-03 1.7433196956e+00 -3.0195182865e+00 1.7433196956e+00 3.0195182865e+00 
57400 5.4205740303e+00 1.5752017714e-03 1.7432741392e+00 -3.0194393805e+00 1.7432741392e+00 3.0194393805e+00 
57500 5.4205737185e+00 1.5621238165e-03 1.7432289599e+00 -3.0193611278e+00 1.7432289599e+00 3.0193611278e+00 
57600 5.4205734113e+00 1.5491596595e-03 1.7431841547e+00 -3.0192835228e+00 1.7431841547e+00 3.0192835228e+00 
57700 5.4205731087e+00 1.5363082424e-03 1.7431397201e+00 -3.0192065599e+00 1.7431397201e+00 3.0192065599e+00 
57800 5.4205728106e+00 1.5235685182e-03 1.7430956530e+00 -3.0191302335e+00 1.7430956530e+00 3.0191302335e+00 
57900 5.4205725169e+00 1.5109394512e-03 1.7430519502e+00 -3.0190545380e+00 1.7430519502e+00 3.0190545380e+00 
58000 5.4205722277e+00 1.4984200166e-03 1.7430086086e+00 -3.0189794682e+00 1.7430086086e+00 3.0189794682e+00 
58100 5.4205719427e+00 1.4860092003e-03 1.7429656251e+00 -3.0189050185e+00 1.7429656251e+00 3.0189050185e+00 
58200 5.4205716620e+00 1.4737059987e-03 1.7429229965e+00 -3.0188311836e+00 1.7429229965e+00 3.0188311836e+00 
58300 5.4205713855e+00 1.4615094190e-03 1.7428807198e+00 -3.0187579583e+00 1.7428807198e+00 3.0187579583e+00 
58400 5.4205711132e+00 1.4494184782e-03 1.7428387920e+00 -3.0186853372e+00 1.7428387920e+00 3.0186853372e+00 
58500 5.4205708449e+00 1.4374322040e-03 1.7427972101e+00 -3.0186133151e+00 1.7427972101e+00 3.0186133151e+00 
58600 5.4205705806e+00 1.4255496338e-03 1.7427559710e+00 -3.0185418869e+00 1.7427559710e+00 3.0185418869e+00 
58700 5.4205703202e+00 1.4137698151e-03 1.7427150719e+00 -3.0184710476e+00 1.7427150719e+00 3.0184710476e+00 
58800 5.4205700638e+00 1.4020918050e-03 1.7426745097e+00 -3.0184007919e+00 1.7426745097e+00 3.0184007919e+00 
58900 5.4205698111e+00 1.3905146704e-03 1.7426342817e+00 -3.0183311150e+00 1.7426342817e+00 3.0183311150e+00 
59000 5.4205695623e+00 1.3790374874e-03 1.7425943850e+00 -3.0182620118e+00 1.7425943850e+00 3.0182620118e+00 
59100 5.4205693172e+00 1.3676593419e-03 1.7425548166e+00 -3.0181934773e+00 1.7425548166e+00 3.0181934773e+00 
59200 5.4205690757e+00 1.3563793288e-03 1.7425155738e+00 -3.0181255068e+00 1.7425155738e+00 3.0181255068e+00 
59300 5.4205688378e+00 1.3451965520e-03 1.7424766538e+00 -3.0180580954e+00 1.7424766538e+00 3.0180580954e+00 
59400 5.4205686035e+00 1.3341101247e-03 1.7424380538e+00 -3.0179912383e+00 1.7424380538e+00 3.0179912383e+00 
59500 5.4205683727e+00 1.3231191688e-03 1.7423997711e+00 -3.0179249307e+00 1.7423997711e+00 3.0179249307e+00 
59600 5.4205681454e+00 1.3122228151e-03 1.7423618029e+00 -3.0178591679e+00 1.7423618029e+00 3.0178591679e+00 
59700 5.4205679214e+00 1.3014202028e-03 1.7423241466e+00 -3.0177939452e+00 1.7423241466e+00 3.0177939452e+00 
59800 5.4205677008e+00 1.2907104799e-03 1.7422867995e+00 -3.0177292581e+00 1.7422867995e+00 3.0177292581e+00 
59900 5.4205674835e+00 1.2800928028e-03 1.7422497590e+00 -3.0176651020e+00 1.7422497590e+00 3.0176651020e+00 
60000 5.4205672694e+00 1.2695663362e-03 1.7422130223e+00 -3.0176014722e+00 1.7422130223e+00 3.0176014722e+00 
60100 5.4205670586e+00 1.2591302529e-03 1.7421765870e+00 -3.0175383644e+00 1.7421765870e+00 3.0175383644e+00 
60200 5.4205668508e+00 1.2487837339e-03 1.7421404504e+00 -3.0174757740e+00 1.7421404504e+00 3.0174757740e+00 
60300 5.4205666462e+00 1.2385259683e-03 1.7421046100e+00 -3.0174136967e+00 1.7421046100e+00 3.0174136967e+00 
60400 5.4205664447e+00 1.2283561530e-03 1.7420690633e+00 -3.0173521280e+00 1.7420690633e+00 3.0173521280e+00 
60500 5.4205662462e+00 1.2182734929e-03 1.7420338078e+00 -3.0172910636e+00 1.7420338078e+00 3.0172910636e+00 
60600 5.4205660506e+00 1.2082772004e-03 1.7419988409e+00 -3.0172304992e+00 1.7419988409e+00 3.0172304992e+00 
60700 5.4205658580e+00 1.1983664956e-03 1.7419641602e+00 -3.0171704305e+00 1.7419641602e+00 3.0171704305e+00 
60800 5.4205656682e+00 1.1885406061e-03 1.7419297634e+00 -3.0171108534e+00 1.7419297634e+00 3.0171108534e+00 
60900 5.4205654813e+00 1.1787987673e-03 1.7418956479e+00 -3.0170517636e+00 1.7418956479e+00 3.0170517636e+00 
61000 5.4205652972e+00 1.1691402214e-03 1.7418618113e+00 -3.0169931569e+00 1.7418618113e+00 3.0169931569e+00 
61100 5.4205651158e+00 1.1595642183e-03 1.7418282513e+00 -3.0169350294e+00 1.7418282513e+00 3.0169350294e+00 
61200 5.4205649371e+00 1.1500700149e-03 1.7417949656e+00 -3.0168773768e+00 1.7417949656e+00 3.0168773768e+00 
61300 5.4205647612e+00 1.1406568752e-03 1.7417619518e+00 -3.0168201952e+00 1.7417619518e+00 3.0168201952e+00 
61400 5.4205645878e+00 1.1313240704e-03 1.7417292075e+00 -3.0167634805e+00 1.7417292075e+00 3.0167634805e+00 
61500 5.4205644171e+00 1.1220708785e-03 1.7416967306e+00 -3.0167072288e+00 1.7416967306e+00 3.0167072288e+00 
61600 5.4205642489e+00 1.1128965844e-03 1.7416645187e+00 -3.0166514361e+00 1.7416645187e+00 3.0166514361e+00 
61700 5.4205640832e+00 1.1038004798e-03 1.7416325696e+00 -3.0165960986e+00 1.7416325696e+00 3.0165960986e+00 
61800 5.4205639200e+00 1.0947818631e-03 1.7416008810e+00 -3.0165412124e+00 1.7416008810e+00 3.0165412124e+00 
61900 5.4205637592e+00 1.0858400394e-03 1.7415694508e+00 -3.0164867736e+00 1.7415694508e+00 3.0164867736e+00 
62000 5.4205636009e+00 1.0769743202e-03 1.7415382767e+00 -3.0164327785e+00 1.7415382767e+00 3.0164327785e+00 
62100 5.4205634449e+00 1.0681840238e-03 1.7415073566e+00 -3.0163792233e+00 1.7415073566e+00 3.0163792233e+00 
62200 5.4205632912e+00 1.0594684747e-03 1.7414766883e+00 -3.0163261043e+00 1.7414766883e+00 3.0163261043e+00 
62300 5.4205631399e+00 1.0508270038e-03 1.7414462697e+00 -3.0162734177e+00 1.7414462697e+00 3.0162734177e+00 
62400 5.4205629908e+00 1.0422589483e-03 1.7414160987e+00 -3.0162211600e+00 1.7414160987e+00 3.0162211600e+00 
62500 5.4205628440e+00 1.0337636518e-03 1.7413861731e+00 -3.0161693275e+00 1.7413861731e+00 3.0161693275e+00 
62600 5.4205626993e+00 1.0253404637e-03 1.7413564910e+00 -3.0161179165e+00 1.7413564910e+00 3.0161179165e+00 
62700 5.4205625568e+00 1.0169887399e-03 1.7413270502e+00 -3.0160669236e+00 1.7413270502e+00 3.0160669236e+00 
62800 5.4205624165e+00 1.0087078420e-03 1.7412978488e+00 -3.0160163452e+00 1.7412978488e+00 3.0160163452e+00 
62900 5.4205622782e+00 1.0004971379e-03 1.7412688846e+00 -3.0159661778e+00 1.7412688846e+00 3.0159661778e+00 
63000 5.4205621421e+00 9.9235600113e-04 1.7412401557e+00 -3.0159164179e+00 1.7412401557e+00 3.0159164179e+00 
63100 5.4205620079e+00 9.8428381124e-04 1.7412116601e+00 -3.0158670621e+00 1.7412116601e+00 3.0158670621e+00 
63200 5.4205618758e+00 9.7627995352e-04 1.7411833959e+00 -3.0158181069e+00 1.7411833959e+00 3.0158181069e+00 
63300 5.4205617456e+00 9.6834381902e-04 1.7411553610e+00 -3.0157695491e+00 1.7411553610e+00 3.0157695491e+00 
63400 5.4205616174e+00 9.6047480447e-04 1.7411275536e+00 -3.0157213852e+00 1.7411275536e+00 3.0157213852e+00 
63500 5.4205614912e+00 9.5267231223e-04 1.7410999717e+00 -3.0156736120e+00 1.7410999717e+00 3.0156736120e+00 
63600 5.4205613668e+00 9.4493575022e-04 1.7410726134e+00 -3.0156262260e+00 1.7410726134e+00 3.0156262260e+00 
63700 5.4205612442e+00 9.3726453189e-04 1.7410454769e+00 -3.0155792242e+00 1.7410454769e+00 3.0155792242e+00 
63800 5.4205611236e+00 9.2965807615e-04 1.7410185602e+00 -3.0155326032e+00 1.7410185602e+00 3.0155326032e+00 
63900 5.4205610047e+00 9.2211580732e-04 1.7409918616e+00 -3.0154863598e+00 1.7409918616e+00 3.0154863598e+00 
64000 5.4205608876e+00 9.1463715510e-04 1.7409653792e+00 -3.0154404909e+00 1.7409653792e+00 3.0154404909e+00 
64100 5.4205607722e+00 9.0722155447e-04 1.7409391111e+00 -3.0153949934e+00 1.7409391111e+00 3.0153949934e+00 
64200 5.4205606586e+00 8.9986844569e-04 1.7409130557e+00 -3.0153498640e+00 1.7409130557e+00 3.0153498640e+00 
64300 5.4205605467e+00 8.9257727421e-04 1.7408872110e+00 -3.0153050997e+00 1.7408872110e+00 3.0153050997e+00 
64400 5.4205604365e+00 8.8534749066e-04 1.7408615754e+00 -3.0152606975e+00 1.7408615754e+00 3.0152606975e+00 
64500 5.4205603279e+00 8.7817855076e-04 1.7408361470e+00 -3.0152166543e+00 1.7408361470e+00 3.0152166543e+00 
64600 5.4205602209e+00 8.7106991531e-04 1.7408109242e+00 -3.0151729670e+00 1.7408109242e+00 3.0151729670e+00 
64700 5.4205601156e+00 8.6402105011e-04 1.7407859052e+00 -3.0151296328e+00 1.7407859052e+00 3.0151296328e+00 
64800 5.4205600118e+00 8.5703142593e-04 1.7407610882e+00 -3.0150866487e+00 1.7407610882e+00 3.0150866487e+00 
64900 5.4205599096e+00 8.5010051848e-04 1.7407364717e+00 -3.0150440116e+00 1.7407364717e+00 3.0150440116e+00 
65000 5.4205598089e+00 8.4322780832e-04 1.7407120539e+00 -3.0150017188e+00 1.7407120539e+00 3.0150017188e+00 
65100 5.4205597097e+00 8.3641278085e-04 1.7406878332e+00 -3.0149597672e+00 1.7406878332e+00 3.0149597672e+00 
65200 5.4205596121e+00 8.2965492626e-04 1.7406638079e+00 -3.0149181542e+00 1.7406638079e+00 3.0149181542e+00 
65300 5.4205595158e+00 8.2295373947e-04 1.7406399764e+00 -3.0148768768e+00 1.7406399764e+00 3.0148768768e+00 
65400 5.4205594211e+00 8.1630872011e-04 1.7406163371e+00 -3.0148359323e+00 1.7406163371e+00 3.0148359323e+00 
65500 5.4205593277e+00 8.0971937245e-04 1.7405928883e+00 -3.0147953178e+00 1.7405928883e+00 3.0147953178e+00 
65600 5.4205592357e+00 8.0318520537e-04 1.7405696284e+00 -3.0147550306e+00 1.7405696284e+00 3.0147550306e+00 
65700 5.4205591452e+00 7.9670573234e-04 1.7405465560e+00 -3.0147150680e+00 1.7405465560e+00 3.0147150680e+00 
65800 5.4205590559e+00 7.9028047132e-04 1.7405236694e+00 -3.0146754272e+00 1.7405236694e+00 3.0146754272e+00 
65900 5.4205589681e+00 7.8390894478e-04 1.7405009671e+00 -3.0146361056e+00 1.7405009671e+00 3.0146361056e+00 
66000 5.4205588815e+00 7.7759067961e-04 1.7404784475e+00 -3.0145971006e+00 1.7404784475e+00 3.0145971006e+00 
66100 5.4205587962e+00 7.7132520712e-04 1.7404561091e+00 -3.0145584094e+00 1.7404561091e+00 3.0145584094e+00 
66200 5.4205587123e+00 7.6511206297e-04 1.7404339505e+00 -3.0145200294e+00 1.7404339505e+00 3.0145200294e+00 
66300 5.4205586295e+00 7.5895078713e-04 1.7404119700e+00 -3.0144819582e+00 1.7404119700e+00 3.0144819582e+00 
66400 5.4205585481e+00 7.5284092387e-04 1.7403901663e+00 -3.0144441930e+00 1.7403901663e+00 3.0144441930e+00 
66500 5.4205584678e+00 7.4678202169e-04 1.7403685378e+00 -3.0144067314e+00 1.7403685378e+00 3.0144067314e+00 
66600 5.4205583887e+00 7.4077363327e-04 1.7403470832e+00 -3.0143695708e+00 1.7403470832e+00 3.0143695708e+00 
66700 5.4205583109e+00 7.3481531548e-04 1.7403258009e+00 -3.0143327088e+00 1.7403258009e+00 3.0143327088e+00 
66800 5.4205582342e+00 7.2890662929e-04 1.7403046895e+00 -3.0142961428e+00 1.7403046895e+00 3.0142961428e+00 
66900 5.4205581586e+00 7.2304713977e-04 1.7402837476e+00 -3.0142598704e+00 1.7402837476e+00 3.0142598704e+00 
67000 5.4205580842e+00 7.1723641602e-04 1.7402629738e+00 -3.0142238891e+00 1.7402629738e+00 3.0142238891e+00 
67100 5.4205580109e+00 7.1147403116e-04 1.7402423667e+00 -3.0141881966e+00 1.7402423667e+00 3.0141881966e+00 
67200 5.4205579387e+00 7.0575956227e-04 1.7402219249e+00 -3.0141527904e+00 1.7402219249e+00 3.0141527904e+00 
67300 5.4205578676e+00 7.0009259037e-04 1.7402016471e+00 -3.0141176682e+00 1.7402016471e+00 3.0141176682e+00 
67400 5.4205577976e+00 6.9447270037e-04 1.7401815319e+00 -3.0140828276e+00 1.7401815319e+00 3.0140828276e+00 
67500 5.4205577286e+00 6.8889948103e-04 1.7401615779e+00 -3.0140482663e+00 1.7401615779e+00 3.0140482663e+00 
67600 5.4205576606e+00 6.8337252495e-04 1.7401417838e+00 -3.0140139819e+00 1.7401417838e+00 3.0140139819e+00 
67700 5.4205575937e+00 6.7789142850e-04 1.7401221483e+00 -3.0139799722e+00 1.7401221483e+00 3.0139799722e+00 
67800 5.4205575277e+00 6.7245579182e-04 1.7401026701e+00 -3.0139462349e+00 1.7401026701e+00 3.0139462349e+00 
67900 5.4205574628e+00 6.6706521875e-04 1.7400833478e+00 -3.0139127678e+00 1.7400833478e+00 3.0139127678e+00 
68000 5.4205573988e+00 6.6171931680e-04 1.7400641802e+00 -3.0138795686e+00 1.7400641802e+00 3.0138795686e+00 
68100 5.4205573358e+00 6.5641769715e-04 1.7400451660e+00 -3.0138466350e+00 1.7400451660e+00 3.0138466350e+00 
68200 5.4205572738e+00 6.5115997457e-04 1.7400263040e+00 -3.0138139650e+00 1.7400263040e+00 3.0138139650e+00 
68300 5.4205572126e+00 6.4594576740e-04 1.7400075928e+00 -3.0137815563e+00 1.7400075928e+00 3.0137815563e+00 
68400 5.4205571524e+00 6.4077469754e-04 1.7399890313e+00 -3.0137494067e+00 1.7399890313e+00 3.0137494067e+00 
68500 5.4205570931e+00 6.3564639039e-04 1.7399706181e+00 -3.0137175142e+00 1.7399706181e+00 3.0137175142e+00 
68600 5.4205570347e+00 6.3056047480e-04 1.7399523521e+00 -3.0136858766e+00 1.7399523521e+00 3.0136858766e+00 
68700 5.4205569772e+00 6.2551658311e-04 1.7399342321e+00 -3.0136544918e+00 1.7399342321e+00 3.0136544918e+00 
68800 5.4205569205e+00 6.2051435101e-04 1.7399162568e+00 -3.0136233578e+00 1.7399162568e+00 3.0136233578e+00 
68900 5.4205568647e+00 6.1555341760e-04 1.7398984251e+00 -3.0135924724e+00 1.7398984251e+00 3.0135924724e+00 
69000 5.4205568097e+00 6.1063342531e-04 1.7398807358e+00 -3.0135618336e+00 1.7398807358e+00 3.0135618336e+00 
69100 5.4205567555e+00 6.0575401987e-04 1.7398631877e+00 -3.0135314393e+00 1.7398631877e+00 3.0135314393e+00 
69200 5.4205567022e+00 6.0091485029e-04 1.7398457796e+00 -3.0135012877e+00 1.7398457796e+00 3.0135012877e+00 
69300 5.4205566496e+00 5.9611556885e-04 1.7398285105e+00 -3.0134713766e+00 1.7398285105e+00 3.0134713766e+00 
69400 5.4205565979e+00 5.9135583099e-04 1.7398113791e+00 -3.0134417041e+00 1.7398113791e+00 3.0134417041e+00 
69500 5.4205565469e+00 5.8663529538e-04 1.7397943843e+00 -3.0134122683e+00 1.7397943843e+00 3.0134122683e+00 
69600 5.4205564967e+00 5.8195362381e-04 1.7397775250e+00 -3.0133830671e+00 1.7397775250e+00 3.0133830671e+00 
69700 5.4205564473e+00 5.7731048121e-04 1.7397608000e+00 -3.0133540987e+00 1.7397608000e+00 3.0133540987e+00 
69800 5.4205563986e+00 5.7270553559e-04 1.7397442084e+00 -3.0133253611e+00 1.7397442084e+00 3.0133253611e+00 
69900 5.4205563506e+00 5.6813845800e-04 1.7397277490e+00 -3.0132968525e+00 1.7397277490e+00 3.0132968525e+00 
70000 5.4205563033e+00 5.6360892254e-04 1.7397114206e+00 -3.0132685710e+00 1.7397114206e+00 3.0132685710e+00 
70100 5.4205562568e+00 5.5911660632e-04 1.7396952223e+00 -3.0132405147e+00 1.7396952223e+00 3.0132405147e+00 
70200 5.4205562109e+00 5.5466118938e-04 1.7396791529e+00 -3.0132126817e+00 1.7396791529e+00 3.0132126817e+00 
70300 5.4205561658e+00 5.5024235473e-04 1.7396632115e+00 -3.0131850703e+00 1.7396632115e+00 3.0131850703e+00 
70400 5.4205561213e+00 5.4585978827e-04 1.7396473969e+00 -3.0131576786e+00 1.7396473969e+00 3.0131576786e+00 
70500 5.4205560775e+00 5.4151317882e-04 1.7396317081e+00 -3.0131305049e+00 1.7396317081e+00 3.0131305049e+00 
70600 5.4205560343e+00 5.3720221799e-04 1.7396161441e+00 -3.0131035473e+00 1.7396161441e+00 3.0131035473e+00 
70700 5.4205559918e+00 5.3292660028e-04 1.7396007039e+00 -3.0130768040e+00 1.7396007039e+00 3.0130768040e+00 
70800 5.4205559500e+00 5.2868602294e-04 1.7395853864e+00 -3.0130502733e+00 1.7395853864e+00 3.0130502733e+00 
70900 5.4205559087e+00 5.2448018601e-04 1.7395701907e+00 -3.0130239536e+00 1.7395701907e+00 3.0130239536e+00 
71000 5.4205558681e+00 5.2030879228e-04 1.7395551157e+00 -3.0129978430e+00 1.7395551157e+00 3.0129978430e+00 
71100 5.4205558281e+00 5.1617154722e-04 1.7395401605e+00 -3.0129719398e+00 1.7395401605e+00 3.0129719398e+00 
71200 5.4205557887e+00 5.1206815903e-04 1.7395253241e+00 -3.0129462424e+00 1.7395253241e+00 3.0129462424e+00 
71300 5.4205557499e+00 5.0799833853e-04 1.7395106055e+00 -3.0129207490e+00 1.7395106055e+00 3.0129207490e+00 
71400 5.4205557117e+00 5.0396179921e-04 1.7394960037e+00 -3.0128954580e+00 1.7394960037e+00 3.0128954580e+00 
71500 5.4205556741e+00 4.9995825715e-04 1.7394815179e+00 -3.0128703678e+00 1.7394815179e+00 3.0128703678e+00 
71600 5.4205556370e+00 4.9598743101e-04 1.7394671470e+00 -3.0128454767e+00 1.7394671470e+00 3.0128454767e+00 
71700 5.4205556004e+00 4.9204904201e-04 1.7394528902e+00 -3.0128207831e+00 1.7394528902e+00 3.0128207831e+00 
71800 5.4205555645e+00 4.8814281390e-04 1.7394387464e+00 -3.0127962854e+00 1.7394387464e+00 3.0127962854e+00 
71900 5.4205555290e+00 4.8426847295e-04 1.7394247148e+00 -3.0127719820e+00 1.7394247148e+00 3.0127719820e+00 
72000 5.4205554941e+00 4.8042574788e-04 1.7394107945e+00 -3.0127478712e+00 1.7394107945e+00 3.0127478712e+00 
72100 5.4205554598e+00 4.7661436991e-04 1.7393969845e+00 -3.0127239516e+00 1.7393969845e+00 3.0127239516e+00 
72200 5.4205554259e+00 4.7283407264e-04 1.7393832839e+00 -3.0127002216e+00 1.7393832839e+00 3.0127002216e+00 
72300 5.4205553926e+00 4.6908459211e-04 1.7393696919e+00 -3.0126766796e+00 1.7393696919e+00 3.0126766796e+00 
72400 5.4205553597e+00 4.6536566675e-04 1.7393562076e+00 -3.0126533241e+00 1.7393562076e+00 3.0126533241e+00 
72500 5.4205553274e+00 4.6167703734e-04 1.7393428301e+00 -3.0126301535e+00 1.7393428301e+00 3.0126301535e+00 
72600 5.4205552955e+00 4.5801844697e-04 1.7393295585e+00 -3.0126071665e+00 1.7393295585e+00 3.0126071665e+00 
72700 5.4205552641e+00 4.5438964110e-04 1.7393163920e+00 -3.0125843614e+00 1.7393163920e+00 3.0125843614e+00 
72800 5.4205552332e+00 4.5079036742e-04 1.7393033297e+00 -3.0125617369e+00 1.7393033297e+00 3.0125617369e+00 
72900 5.4205552028e+00 4.4722037594e-04 1.7392903708e+00 -3.0125392914e+00 1.7392903708e+00 3.0125392914e+00 
73000 5.4205551728e+00 4.4367941887e-04 1.7392775144e+00 -3.0125170235e+00 1.7392775144e+00 3.0125170235e+00 
73100 5.4205551432e+00 4.4016725069e-04 1.7392647597e+00 -3.0124949317e+00 1.7392647597e+00 3.0124949317e+00 
73200 5.4205551141e+00 4.3668362804e-04 1.7392521059e+00 -3.0124730146e+00 1.7392521059e+00 3.0124730146e+00 
73300 5.4205550855e+00 4.3322830977e-04 1.7392395522e+00 -3.0124512709e+00 1.7392395522e+00 3.0124512709e+00 
73400 5.4205550573e+00 4.2980105687e-04 1.7392270976e+00 -3.0124296990e+00 1.7392270976e+00 3.0124296990e+00 
73500 5.4205550295e+00 4.2640163246e-04 1.7392147416e+00 -3.0124082977e+00 1.7392147416e+00 3.0124082977e+00 
73600 5.4205550021e+00 4.2302980180e-04 1.7392024831e+00 -3.0123870654e+00 1.7392024831e+00 3.0123870654e+00 
73700 5.4205549751e+00 4.1968533224e-04 1.7391903215e+00 -3.0123660009e+00 1.7391903215e+00 3.0123660009e+00 
73800 5.4205549485e+00 4.1636799318e-04 1.7391782560e+00 -3.0123451028e+00 1.7391782560e+00 3.0123451028e+00 
73900 5.4205549224e+00 4.1307755611e-04 1.7391662858e+00 -3.0123243698e+00 1.7391662858e+00 3.0123243698e+00 
74000 5.4205548966e+00 4.0981379453e-04 1.7391544101e+00 -3.0123038004e+00 1.7391544101e+00 3.0123038004e+00 
74100 5.4205548712e+00 4.0657648395e-04 1.7391426281e+00 -3.0122833935e+00 1.7391426281e+00 3.0122833935e+00 
74200 5.4205548462e+00 4.0336540190e-04 1.7391309391e+00 -3.0122631476e+00 1.7391309391e+00 3.0122631476e+00 
74300 5.4205548216e+00 4.0018032787e-04 1.7391193424e+00 -3.0122430614e+00 1.7391193424e+00 3.0122430614e+00 
74400 5.4205547974e+00 3.9702104330e-04 1.7391078371e+00 -3.0122231337e+00 1.7391078371e+00 3.0122231337e+00 
74500 5.4205547735e+00 3.9388733158e-04 1.7390964226e+00 -3.0122033633e+00 1.7390964226e+00 3.0122033633e+00 
74600 5.4205547500e+00 3.9077897801e-04 1.7390850982e+00 -3.0121837487e+00 1.7390850982e+00 3.0121837487e+00 
74700 5.4205547268e+00 3.8769576978e-04 1.7390738630e+00 -3.0121642888e+00 1.7390738630e+00 3.0121642888e+00 
74800 5.4205547040e+00 3.8463749600e-04 1.7390627164e+00 -3.0121449823e+00 1.7390627164e+00 3.0121449823e+00 
74900 5.4205546815e+00 3.8160394760e-04 1.7390516576e+00 -3.0121258280e+00 1.7390516576e+00 3.0121258280e+00 
75000 5.4205546594e+00 3.7859491737e-04 1.7390406860e+00 -3.0121068247e+00 1.7390406860e+00 3.0121068247e+00 
75100 5.4205546375e+00 3.7561019993e-04 1.7390298009e+00 -3.0120879710e+00 1.7390298009e+00 3.0120879710e+00 
75200 5.4205546161e+00 3.7264959172e-04 1.7390190015e+00 -3.0120692659e+00 1.7390190015e+00 3.0120692659e+00 
75300 5.4205545949e+00 3.6971289096e-04 1.7390082871e+00 -3.0120507081e+00 1.7390082871e+00 3.0120507081e+00 
75400 5.4205545741e+00 3.6679989763e-04 1.7389976571e+00 -3.0120322964e+00 1.7389976571e+00 3.0120322964e+00 
75500 5.4205545536e+00 3.6391041351e-04 1.7389871109e+00 -3.0120140297e+00 1.7389871109e+00 3.0120140297e+00 
75600 5.4205545334e+00 3.6104424208e-04 1.7389766476e+00 -3.0119959068e+00 1.7389766476e+00 3.0119959068e+00 
75700 5.4205545134e+00 3.5820118857e-04 1.7389662666e+00 -3.0119779265e+00 1.7389662666e+00 3.0119779265e+00 
75800 5.4205544938e+00 3.5538105991e-04 1.7389559674e+00 -3.0119600877e+00 1.7389559674e+00 3.0119600877e+00 
75900 5.4205544745e+00 3.5258366472e-04 1.7389457492e+00 -3.0119423892e+00 1.7389457492e+00 3.0119423892e+00 
76000 5.4205544555e+00 3.4980881330e-04 1.7389356113e+00 -3.0119248299e+00 1.7389356113e+00 3.0119248299e+00 
76100 5.4205544368e+00 3.4705631762e-04 1.7389255532e+00 -3.0119074087e+00 1.7389255532e+00 3.0119074087e+00 
76200 5.4205544183e+00 3.4432599128e-04 1.7389155742e+00 -3.0118901246e+00 1.7389155742e+00 3.0118901246e+00 
76300 5.4205544002e+00 3.4161764952e-04 1.7389056736e+00 -3.0118729762e+00 1.7389056736e+00 3.0118729762e+00 
76400 5.4205543823e+00 3.3893110917e-04 1.7388958508e+00 -3.0118559627e+00 1.7388958508e+00 3.0118559627e+00 
76500 5.4205543646e+00 3.3626618870e-04 1.7388861053e+00 -3.0118390829e+00 1.7388861053e+00 3.0118390829e+00 
76600 5.4205543473e+00 3.3362270814e-04 1.7388764362e+00 -3.0118223357e+00 1.7388764362e+00 3.0118223357e+00 
76700 5.4205543302e+00 3.3100048907e-04 1.7388668432e+00 -3.0118057200e+00 1.7388668432e+00 3.0118057200e+00 
76800 5.4205543133e+00 3.2839935466e-04 1.7388573255e+00 -3.0117892349e+00 1.7388573255e+00 3.0117892349e+00 
76900 5.4205542967e+00 3.2581912961e-04 1.7388478825e+00 -3.0117728792e+00 1.7388478825e+00 3.0117728792e+00 
77000 5.4205542804e+00 3.2325964013e-04 1.7388385137e+00 -3.0117566519e+00 1.7388385137e+00 3.0117566519e+00 
77100 5.4205542643e+00 3.2072071395e-04 1.7388292185e+00 -3.0117405521e+00 1.7388292185e+00 3.0117405521e+00 
77200 5.4205542485e+00 3.1820218030e-04 1.7388199962e+00 -3.0117245786e+00 1.7388199962e+00 3.0117245786e+00 
77300 5.4205542328e+00 3.1570386990e-04 1.7388108462e+00 -3.0117087304e+00 1.7388108462e+00 3.0117087304e+00 
77400 5.4205542175e+00 3.1322561493e-04 1.7388017681e+00 -3.0116930066e+00 1.7388017681e+00 3.0116930066e+00 
77500 5.4205542023e+00 3.1076724902e-04 1.7387927611e+00 -3.0116774061e+00 1.7387927611e+00 3.0116774061e+00 
77600 5.4205541874e+00 3.0832860725e-04 1.7387838249e+00 -3.0116619280e+00 1.7387838249e+00 3.0116619280e+00 
77700 5.4205541727e+00 3.0590952613e-04 1.7387749587e+00 -3.0116465713e+00 1.7387749587e+00 3.0116465713e+00 
77800 5.4205541582e+00 3.0350984359e-04 1.7387661620e+00 -3.0116313350e+00 1.7387661620e+00 3.0116313350e+00 
77900 5.4205541440e+00 3.0112939895e-04 1.7387574342e+00 -3.0116162181e+00 1.7387574342e+00 3.0116162181e+00 
78000 5.4205541300e+00 2.9876803294e-04 1.7387487749e+00 -3.0116012197e+00 1.7387487749e+00 3.0116012197e+00 
78100 5.4205541161e+00 2.9642558765e-04 1.7387401835e+00 -3.0115863389e+00 1.7387401835e+00 3.0115863389e+00 
78200 5.4205541025e+00 2.9410190653e-04 1.7387316593e+00 -3.0115715747e+00 1.7387316593e+00 3.0115715747e+00 
78300 5.4205540891e+00 2.9179683441e-04 1.7387232019e+00 -3.0115569261e+00 1.7387232019e+00 3.0115569261e+00 
78400 5.4205540759e+00 2.8951021742e-04 1.7387148108e+00 -3.0115423922e+00 1.7387148108e+00 3.0115423922e+00 
78500 5.4205540629e+00 2.8724190307e-04 1.7387064854e+00 -3.0115279722e+00 1.7387064854e+00 3.0115279722e+00 
78600 5.4205540501e+00 2.8499174013e-04 1.7386982252e+00 -3.0115136651e+00 1.7386982252e+00 3.0115136651e+00 
78700 5.4205540375e+00 2.8275957870e-04 1.7386900297e+00 -3.0114994700e+00 1.7386900297e+00 3.0114994700e+00 
78800 5.4205540250e+00 2.8054527019e-04 1.7386818983e+00 -3.0114853860e+00 1.7386818983e+00 3.0114853860e+00 
78900 5.4205540128e+00 2.7834866725e-04 1.7386738305e+00 -3.0114714123e+00 1.7386738305e+00 3.0114714123e+00 
79000 5.4205540007e+00 2.7616962384e-04 1.7386658259e+00 -3.0114575479e+00 1.7386658259e+00 3.0114575479e+00 
79100 5.4205539889e+00 2.7400799513e-04 1.7386578839e+00 -3.0114437919e+00 1.7386578839e+00 3.0114437919e+00 
79200 5.4205539772e+00 2.7186363758e-04 1.7386500041e+00 -3.0114301436e+00 1.7386500041e+00 3.0114301436e+00 
79300 5.4205539657e+00 2.6973640886e-04 1.7386421858e+00 -3.0114166020e+00 1.7386421858e+00 3.0114166020e+00 
79400 5.4205539543e+00 2.6762616787e-04 1.7386344287e+00 -3.0114031663e+00 1.7386344287e+00 3.0114031663e+00 
79500 5.4205539431e+00 2.6553277472e-04 1.7386267323e+00 -3.0113898357e+00 1.7386267323e+00 3.0113898357e+00 
79600 5.4205539321e+00 2.6345609071e-04 1.7386190960e+00 -3.0113766093e+00 1.7386190960e+00 3.0113766093e+00 
79700 5.4205539213e+00 2.6139597836e-04 1.7386115194e+00 -3.0113634863e+00 1.7386115194e+00 3.0113634863e+00 
79800 5.4205539106e+00 2.5935230134e-04 1.7386040021e+00 -3.0113504658e+00 1.7386040021e+00 3.0113504658e+00 
79900 5.4205539001e+00 2.5732492450e-04 1.7385965434e+00 -3.0113375471e+00 1.7385965434e+00 3.0113375471e+00 
80000 5.4205538898e+00 2.5531371386e-04 1.7385891431e+00 -3.0113247293e+00 1.7385891431e+00 3.0113247293e+00 
80100 5.4205538796e+00 2.5331853656e-04 1.7385818005e+00 -3.0113120116e+00 1.7385818005e+00 3.0113120116e+00 
80200 5.4205538695e+00 2.5133926089e-04 1.7385745153e+00 -3.0112993933e+00 1.7385745153e+00 3.0112993933e+00 
80300 5.4205538596e+00 2.4937575629e-04 1.7385672870e+00 -3.0112868735e+00 1.7385672870e+00 3.0112868735e+00 
80400 5.4205538499e+00 2.4742789329e-04 1.7385601151e+00 -3.0112744514e+00 1.7385601151e+00 3.0112744514e+00 
80500 5.4205538403e+00 2.4549554353e-04 1.7385529993e+00 -3.0112621264e+00 1.7385529993e+00 3.0112621264e+00 
80600 5.4205538308e+00 2.4357857975e-04 1.7385459389e+00 -3.0112498975e+00 1.7385459389e+00 3.0112498975e+00 
80700 5.4205538215e+00 2.4167687580e-04 1.7385389337e+00 -3.0112377641e+00 1.7385389337e+00 3.0112377641e+00 
80800 5.4205538124e+00 2.3979030656e-04 1.7385319831e+00 -3.0112257253e+00 1.7385319831e+00 3.0112257253e+00 
80900 5.4205538033e+00 2.3791874803e-04 1.7385250868e+00 -3.0112137805e+00 1.7385250868e+00 3.0112137805e+00 
81000 5.4205537944e+00 2.3606207724e-04 1.7385182442e+00 -3.0112019289e+00 1.7385182442e+00 3.0112019289e+00 
81100 5.4205537857e+00 2.3422017226e-04 1.7385114551e+00 -3.0111901697e+00 1.7385114551e+00 3.0111901697e+00 
81200 5.4205537771e+00 2.3239291223e-04 1.7385047188e+00 -3.0111785022e+00 1.7385047188e+00 3.0111785022e+00 
81300 5.4205537686e+00 2.3058017730e-04 1.7384980351e+00 -3.0111669257e+00 1.7384980351e+00 3.0111669257e+00 
81400 5.4205537602e+00 2.2878184864e-04 1.7384914036e+00 -3.0111554395e+00 1.7384914036e+00 3.0111554395e+00 
81500 5.4205537520e+00 2.2699780844e-04 1.7384848237e+00 -3.0111440428e+00 1.7384848237e+00 3.0111440428e+00 
81600 5.4205537438e+00 2.2522793988e-04 1.7384782951e+00 -3.0111327349e+00 1.7384782951e+00 3.0111327349e+00 
81700 5.4205537359e+00 2.2347212717e-04 1.7384718173e+00 -3.0111215151e+00 1.7384718173e+00 3.0111215151e+00 
81800 5.4205537280e+00 2.2173025546e-04 1.7384653901e+00 -3.0111103828e+00 1.7384653901e+00 3.0111103828e+00 
81900 5.4205537202e+00 2.2000221090e-04 1.7384590129e+00 -3.0110993372e+00 1.7384590129e+00 3.0110993372e+00 
82000 5.4205537126e+00 2.1828788061e-04 1.7384526854e+00 -3.0110883777e+00 1.7384526854e+00 3.0110883777e+00 
82100 5.4205537051e+00 2.1658715266e-04 1.7384464072e+00 -3.0110775035e+00 1.7384464072e+00 3.0110775035e+00 
82200 5.4205536977e+00 2.1489991608e-04 1.7384401779e+00 -3.0110667140e+00 1.7384401779e+00 3.0110667140e+00 
82300 5.4205536904e+00 2.1322606083e-04 1.7384339970e+00 -3.0110560085e+00 1.7384339970e+00 3.0110560085e+00 
82400 5.4205536832e+00 2.1156547781e-04 1.7384278643e+00 -3.0110453863e+00 1.7384278643e+00 3.0110453863e+00 
82500 5.4205536761e+00 2.0991805885e-04 1.7384217794e+00 -3.0110348468e+00 1.7384217794e+00 3.0110348468e+00 
82600 5.4205536691e+00 2.0828369670e-04 1.7384157418e+00 -3.0110243894e+00 1.7384157418e+00 3.0110243894e+00 
82700 5.4205536623e+00 2.0666228500e-04 1.7384097512e+00 -3.0110140134e+00 1.7384097512e+00 3.0110140134e+00 
82800 5.4205536555e+00 2.0505371831e-04 1.7384038071e+00 -3.0110037181e+00 1.7384038071e+00 3.0110037181e+00 
82900 5.4205536488e+00 2.0345789208e-04 1.7383979094e+00 -3.0109935028e+00 1.7383979094e+00 3.0109935028e+00 
83000 5.4205536423e+00 2.0187470264e-04 1.7383920575e+00 -3.0109833671e+00 1.7383920575e+00 3.0109833671e+00 
83100 5.4205536358e+00 2.0030404721e-04 1.7383862512e+00 -3.0109733102e+00 1.7383862512e+00 3.0109733102e+00 
83200 5.4205536295e+00 1.9874582385e-04 1.7383804900e+00 -3.0109633315e+00 1.7383804900e+00 3.0109633315e+00 
83300 5.4205536232e+00 1.9719993152e-04 1.7383747736e+00 -3.0109534304e+00 1.7383747736e+00 3.0109534304e+00 
83400 5.4205536170e+00 1.9566627000e-04 1.7383691016e+00 -3.0109436063e+00 1.7383691016e+00 3.0109436063e+00 
83500 5.4205536110e+00 1.9414473994e-04 1.7383634737e+00 -3.0109338585e+00 1.7383634737e+00 3.0109338585e+00 
83600 5.4205536050e+00 1.9263524283e-04 1.7383578896e+00 -3.0109241865e+00 1.7383578896e+00 3.0109241865e+00 
83700 5.4205535991e+00 1.9113768097e-04 1.7383523489e+00 -3.0109145897e+00 1.7383523489e+00 3.0109145897e+00 
83800 5.4205535933e+00 1.8965195751e-04 1.7383468512e+00 -3.0109050675e+00 1.7383468512e+00 3.0109050675e+00 
83900 5.4205535876e+00 1.8817797639e-04 1.7383413963e+00 -3.0108956192e+00 1.7383413963e+00 3.0108956192e+00 
84000 5.4205535819e+00 1.8671564239e-04 1.7383359837e+00 -3.0108862444e+00 1.7383359837e+00 3.0108862444e+00 
84100 5.4205535764e+00 1.8526486106e-04 1.7383306132e+00 -3.0108769424e+00 1.7383306132e+00 3.0108769424e+00 
84200 5.4205535709e+00 1.8382553878e-04 1.7383252844e+00 -3.0108677126e+00 1.7383252844e+00 3.0108677126e+00 
84300 5.4205535655e+00 1.8239758270e-04 1.7383199969e+00 -3.0108585545e+00 1.7383199969e+00 3.0108585545e+00 
84400 5.4205535602e+00 1.8098090074e-04 1.7383147506e+00 -3.0108494675e+00 1.7383147506e+00 3.0108494675e+00 
84500 5.4205535550e+00 1.7957540163e-04 1.7383095449e+00 -3.0108404511e+00 1.7383095449e+00 3.0108404511e+00 
84600 5.4205535499e+00 1.7818099482e-04 1.7383043797e+00 -3.0108315046e+00 1.7383043797e+00 3.0108315046e+00 
84700 5.4205535448e+00 1.7679759056e-04 1.7382992546e+00 -3.0108226277e+00 1.7382992546e+00 3.0108226277e+00 
84800 5.4205535398e+00 1.7542509984e-04 1.7382941692e+00 -3.0108138196e+00 1.7382941692e+00 3.0108138196e+00 
84900 5.4205535349e+00 1.7406343441e-04 1.7382891233e+00 -3.0108050798e+00 1.7382891233e+00 3.0108050798e+00 
85000 5.4205535301e+00 1.7271250673e-04 1.7382841166e+00 -3.0107964079e+00 1.7382841166e+00 3.0107964079e+00 
85100 5.4205535253e+00 1.7137223002e-04 1.7382791487e+00 -3.0107878032e+00 1.7382791487e+00 3.0107878032e+00 
85200 5.4205535207e+00 1.7004251823e-04 1.7382742193e+00 -3.0107792653e+00 1.7382742193e+00 3.0107792653e+00 
85300 5.4205535160e+00 1.6872328603e-04 1.7382693282e+00 -3.0107707936e+00 1.7382693282e+00 3.0107707936e+00 
85400 5.4205535115e+00 1.6741444878e-04 1.7382644750e+00 -3.0107623876e+00 1.7382644750e+00 3.0107623876e+00 
85500 5.4205535070e+00 1.6611592258e-04 1.7382596594e+00 -3.0107540469e+00 1.7382596594e+00 3.0107540469e+00 
85600 5.4205535026e+00 1.6482762421e-04 1.7382548812e+00 -3.0107457707e+00 1.7382548812e+00 3.0107457707e+00 
85700 5.4205534982e+00 1.6354947118e-04 1.7382501400e+00 -3.0107375588e+00 1.7382501400e+00 3.0107375588e+00 
85800 5.4205534940e+00 1.6228138165e-04 1.7382454356e+00 -3.0107294105e+00 1.7382454356e+00 3.0107294105e+00 
85900 5.4205534898e+00 1.6102327449e-04 1.7382407676e+00 -3.0107213253e+00 1.7382407676e+00 3.0107213253e+00 
86000 5.4205534856e+00 1.5977506924e-04 1.7382361358e+00 -3.0107133028e+00 1.7382361358e+00 3.0107133028e+00 
86100 5.4205534815e+00 1.5853668611e-04 1.7382315399e+00 -3.0107053425e+00 1.7382315399e+00 3.0107053425e+00 
86200 5.4205534775e+00 1.5730804598e-04 1.7382269797e+00 -3.0106974439e+00 1.7382269797e+00 3.0106974439e+00 
86300 5.4205534735e+00 1.5608907039e-04 1.7382224547e+00 -3.0106896064e+00 1.7382224547e+00 3.0106896064e+00 
86400 5.4205534696e+00 1.5487968154e-04 1.7382179648e+00 -3.0106818297e+00 1.7382179648e+00 3.0106818297e+00 
86500 5.4205534658e+00 1.5367980227e-04 1.7382135097e+00 -3.0106741132e+00 1.7382135097e+00 3.0106741132e+00 
86600 5.4205534620e+00 1.5248935606e-04 1.7382090890e+00 -3.0106664564e+00 1.7382090890e+00 3.0106664564e+00 
86700 5.4205534583e+00 1.5130826705e-04 1.7382047027e+00 -3.0106588590e+00 1.7382047027e+00 3.0106588590e+00 
86800 5.4205534546e+00 1.5013645999e-04 1.7382003502e+00 -3.0106513203e+00 1.7382003502e+00 3.0106513203e+00 
86900 5.4205534510e+00 1.4897386027e-04 1.7381960315e+00 -3.0106438401e+00 1.7381960315e+00 3.0106438401e+00 
87000 5.4205534474e+00 1.4782039388e-04 1.7381917462e+00 -3.0106364177e+00 1.7381917462e+00 3.0106364177e+00 
87100 5.4205534439e+00 1.4667598746e-04 1.7381874941e+00 -3.0106290528e+00 1.7381874941e+00 3.0106290528e+00 
87200 5.4205534404e+00 1.4554056822e-04 1.7381832748e+00 -3.0106217449e+00 1.7381832748e+00 3.0106217449e+00 
87300 5.4205534370e+00 1.4441406401e-04 1.7381790883e+00 -3.0106144936e+00 1.7381790883e+00 3.0106144936e+00 
87400 5.4205534337e+00 1.4329640327e-04 1.7381749341e+00 -3.0106072983e+00 1.7381749341e+00 3.0106072983e+00 
87500 5.4205534304e+00 1.4218751501e-04 1.7381708121e+00 -3.0106001587e+00 1.7381708121e+00 3.0106001587e+00 
87600 5.4205534271e+00 1.4108732887e-04 1.7381667219e+00 -3.0105930744e+00 1.7381667219e+00 3.0105930744e+00 
87700 5.4205534239e+00 1.3999577503e-04 1.7381626634e+00 -3.0105860449e+00 1.7381626634e+00 3.0105860449e+00 
87800 5.4205534208e+00 1.3891278430e-04 1.7381586363e+00 -3.0105790697e+00 1.7381586363e+00 3.0105790697e+00 
87900 5.4205534177e+00 1.3783828801e-04 1.7381546403e+00 -3.0105721485e+00 1.7381546403e+00 3.0105721485e+00 
88000 5.4205534146e+00 1.3677221811e-04 1.7381506752e+00 -3.0105652807e+00 1.7381506752e+00 3.0105652807e+00 
88100 5.4205534116e+00 1.3571450706e-04 1.7381467408e+00 -3.0105584661e+00 1.7381467408e+00 3.0105584661e+00 
88200 5.4205534086e+00 1.3466508793e-04 1.7381428368e+00 -3.0105517042e+00 1.7381428368e+00 3.0105517042e+00 
88300 5.4205534057e+00 1.3362389432e-04 1.7381389630e+00 -3.0105449946e+00 1.7381389630e+00 3.0105449946e+00 
88400 5.4205534028e+00 1.3259086037e-04 1.7381351191e+00 -3.0105383368e+00 1.7381351191e+00 3.0105383368e+00 
88500 5.4205534000e+00 1.3156592078e-04 1.7381313050e+00 -3.0105317304e+00 1.7381313050e+00 3.0105317304e+00 
88600 5.4205533972e+00 1.3054901079e-04 1.7381275203e+00 -3.0105251752e+00 1.7381275203e+00 3.0105251752e+00 
88700 5.4205533945e+00 1.2954006617e-04 1.7381237648e+00 -3.0105186705e+00 1.7381237648e+00 3.0105186705e+00 
88800 5.4205533917e+00 1.2853902323e-04 1.7381200384e+00 -3.0105122162e+00 1.7381200384e+00 3.0105122162e+00 
88900 5.4205533891e+00 1.2754581878e-04 1.7381163408e+00 -3.0105058116e+00 1.7381163408e+00 3.0105058116e+00 
89000 5.4205533865e+00 1.2656039017e-04 1.7381126717e+00 -3.0104994566e+00 1.7381126717e+00 3.0104994566e+00 
89100 5.4205533839e+00 1.2558267528e-04 1.7381090309e+00 -3.0104931507e+00 1.7381090309e+00 3.0104931507e+00 
89200 5.4205533813e+00 1.2461261248e-04 1.7381054183e+00 -3.0104868934e+00 1.7381054183e+00 3.0104868934e+00 
89300 5.4205533788e+00 1.2365014066e-04 1.7381018336e+00 -3.0104806845e+00 1.7381018336e+00 3.0104806845e+00 
89400 5.4205533763e+00 1.2269519920e-04 1.7380982765e+00 -3.0104745235e+00 1.7380982765e+00 3.0104745235e+00 
89500 5.4205533739e+00 1.2174772800e-04 1.7380947470e+00 -3.0104684101e+00 1.7380947470e+00 3.0104684101e+00 
89600 5.4205533715e+00 1.2080766744e-04 1.7380912446e+00 -3.0104623439e+00 1.7380912446e+00 3.0104623439e+00 
89700 5.4205533692e+00 1.1987495839e-04 1.7380877693e+00 -3.0104563245e+00 1.7380877693e+00 3.0104563245e+00 
89800 5.4205533668e+00 1.1894954221e-04 1.7380843209e+00 -3.0104503516e+00 1.7380843209e+00 3.0104503516e+00 
89900 5.4205533645e+00 1.1803136075e-04 1.7380808990e+00 -3.0104444247e+00 1.7380808990e+00 3.0104444247e+00 
90000 5.4205533623e+00 1.1712035633e-04 1.7380775036e+00 -3.0104385436e+00 1.7380775036e+00 3.0104385436e+00 
90100 5.4205533601e+00 1.1621647174e-04 1.7380741343e+00 -3.0104327079e+00 1.7380741343e+00 3.0104327079e+00 
90200 5.4205533579e+00 1.1531965024e-04 1.7380707911e+00 -3.0104269173e+00 1.7380707911e+00 3.0104269173e+00 
90300 5.4205533557e+00 1.1442983557e-04 1.7380674736e+00 -3.0104211712e+00 1.7380674736e+00 3.0104211712e+00 
90400 5.4205533536e+00 1.1354697192e-04 1.7380641817e+00 -3.0104154696e+00 1.7380641817e+00 3.0104154696e+00 
90500 5.4205533515e+00 1.1267100394e-04 1.7380609152e+00 -3.0104098119e+00 1.7380609152e+00 3.0104098119e+00 
90600 5.4205533495e+00 1.1180187673e-04 1.7380576740e+00 -3.0104041978e+00 1.7380576740e+00 3.0104041978e+00 
90700 5.4205533474e+00 1.1093953585e-04 1.7380544577e+00 -3.0103986270e+00 1.7380544577e+00 3.0103986270e+00 
90800 5.4205533455e+00 1.1008392729e-04 1.7380512662e+00 -3.0103930992e+00 1.7380512662e+00 3.0103930992e+00 
90900 5.4205533435e+00 1.0923499750e-04 1.7380480993e+00 -3.0103876140e+00 1.7380480993e+00 3.0103876140e+00 
91000 5.4205533416e+00 1.0839269336e-04 1.7380449569e+00 -3.0103821711e+00 1.7380449569e+00 3.0103821711e+00 
91100 5.4205533397e+00 1.0755696219e-04 1.7380418386e+00 -3.0103767702e+00 1.7380418386e+00 3.0103767702e+00 
91200 5.4205533378e+00 1.0672775172e-04 1.7380387444e+00 -3.0103714109e+00 1.7380387444e+00 3.0103714109e+00 
91300 5.4205533359e+00 1.0590501015e-04 1.7380356741e+00 -3.0103660929e+00 1.7380356741e+00 3.0103660929e+00 
91400 5.4205533341e+00 1.0508868605e-04 1.7380326274e+00 -3.0103608158e+00 1.7380326274e+00 3.0103608158e+00 
91500 5.4205533323e+00 1.0427872846e-04 1.7380296042e+00 -3.0103555795e+00 1.7380296042e+00 3.0103555795e+00 
91600 5.4205533306e+00 1.0347508681e-04 1.7380266043e+00 -3.0103503835e+00 1.7380266043e+00 3.0103503835e+00 
91700 5.4205533288e+00 1.0267771093e-04 1.7380236275e+00 -3.0103452275e+00 1.7380236275e+00 3.0103452275e+00 
91800 5.4205533271e+00 1.0188655110e-04 1.7380206736e+00 -3.0103401113e+00 1.7380206736e+00 3.0103401113e+00 
91900 5.4205533254e+00 1.0110155797e-04 1.7380177425e+00 -3.0103350345e+00 1.7380177425e+00 3.0103350345e+00 
92000 5.4205533238e+00 1.0032268261e-04 1.7380148340e+00 -3.0103299967e+00 1.7380148340e+00 3.0103299967e+00 
92100 5.4205533221e+00 9.9549876475e-05 1.7380119478e+00 -3.0103249978e+00 1.7380119478e+00 3.0103249978e+00 
92200 5.4205533205e+00 9.8783091437e-05 1.7380090839e+00 -3.0103200374e+00 1.7380090839e+00 3.0103200374e+00 
92300 5.4205533189e+00 9.8022279744e-05 1.7380062421e+00 -3.0103151152e+00 1.7380062421e+00 3.0103151152e+00 
92400 5.4205533174e+00 9.7267394036e-05 1.7380034221e+00 -3.0103102309e+00 1.7380034221e+00 3.0103102309e+00 
92500 5.4205533158e+00 9.6518387341e-05 1.7380006239e+00 -3.0103053841e+00 1.7380006239e+00 3.0103053841e+00 
92600 5.4205533143e+00 9.5775213069e-05 1.7379978472e+00 -3.0103005747e+00 1.7379978472e+00 3.0103005747e+00 
92700 5.4205533128e+00 9.5037825009e-05 1.7379950918e+00 -3.0102958024e+00 1.7379950918e+00 3.0102958024e+00 
92800 5.4205533114e+00 9.4306177324e-05 1.7379923577e+00 -3.0102910667e+00 1.7379923577e+00 3.0102910667e+00 
92900 5.4205533099e+00 9.3580224551e-05 1.7379896446e+00 -3.0102863675e+00 1.7379896446e+00 3.0102863675e+00 
93000 5.4205533085e+00 9.2859921599e-05 1.7379869524e+00 -3.0102817045e+00 1.7379869524e+00 3.0102817045e+00 
93100 5.4205533071e+00 9.2145223740e-05 1.7379842810e+00 -3.0102770774e+00 1.7379842810e+00 3.0102770774e+00 
93200 5.4205533057e+00 9.1436086613e-05 1.7379816300e+00 -3.0102724859e+00 1.7379816300e+00 3.0102724859e+00 
93300 5.4205533043e+00 9.0732466213e-05 1.7379789995e+00 -3.0102679297e+00 1.7379789995e+00 3.0102679297e+00 
93400 5.4205533030e+00 9.0034318895e-05 1.7379763892e+00 -3.0102634085e+00 1.7379763892e+00 3.0102634085e+00 
93500 5.4205533017e+00 8.9341601369e-05 1.7379737990e+00 -3.0102589221e+00 1.7379737990e+00 3.0102589221e+00 
93600 5.4205533004e+00 8.8654270694e-05 1.7379712288e+00 -3.0102544703e+00 1.7379712288e+00 3.0102544703e+00 
93700 5.4205532991e+00 8.7972284279e-05 1.7379686782e+00 -3.0102500527e+00 1.7379686782e+00 3.0102500527e+00 
93800 5.4205532978e+00 8.7295599877e-05 1.7379661473e+00 -3.0102456690e+00 1.7379661473e+00 3.0102456690e+00 
93900 5.4205532966e+00 8.6624175585e-05 1.7379636359e+00 -3.0102413191e+00 1.7379636359e+00 3.0102413191e+00 
94000 5.4205532954e+00 8.5957969839e-05 1.7379611438e+00 -3.0102370026e+00 1.7379611438e+00 3.0102370026e+00 
94100 5.4205532942e+00 8.5296941411e-05 1.7379586708e+00 -3.0102327194e+00 1.7379586708e+00 3.0102327194e+00 
94200 5.4205532930e+00 8.4641049409e-05 1.7379562169e+00 -3.0102284690e+00 1.7379562169e+00 3.0102284690e+00 
94300 5.4205532918e+00 8.3990253269e-05 1.7379537818e+00 -3.0102242513e+00 1.7379537818e+00 3.0102242513e+00 
94400 5.4205532907e+00 8.3344512757e-05 1.7379513655e+00 -3.0102200661e+00 1.7379513655e+00 3.0102200661e+00 
94500 5.4205532895e+00 8.2703787965e-05 1.7379489677e+00 -3.0102159130e+00 1.7379489677e+00 3.0102159130e+00 
94600 5.4205532884e+00 8.2068039309e-05 1.7379465884e+00 -3.0102117919e+00 1.7379465884e+00 3.0102117919e+00 
94700 5.4205532873e+00 8.1437227520e-05 1.7379442273e+00 -3.0102077024e+00 1.7379442273e+00 3.0102077024e+00 
94800 5.4205532863e+00 8.0811313653e-05 1.7379418844e+00 -3.0102036443e+00 1.7379418844e+00 3.0102036443e+00 
94900 5.4205532852e+00 8.0190259074e-05 1.7379395595e+00 -3.0101996175e+00 1.7379395595e+00 3.0101996175e+00 
95000 5.4205532841e+00 7.9574025461e-05 1.7379372524e+00 -3.0101956215e+00 1.7379372524e+00 3.0101956215e+00 
95100 5.4205532831e+00 7.8962574802e-05 1.7379349631e+00 -3.0101916563e+00 1.7379349631e+00 3.0101916563e+00 
95200 5.4205532821e+00 7.8355869394e-05 1.7379326913e+00 -3.0101877216e+00 1.7379326913e+00 3.0101877216e+00 
95300 5.4205532811e+00 7.7753871836e-05 1.7379304371e+00 -3.0101838170e+00 1.7379304371e+00 3.0101838170e+00 
95400 5.4205532801e+00 7.7156545028e-05 1.7379282001e+00 -3.0101799425e+00 1.7379282001e+00 3.0101799425e+00 
95500 5.4205532791e+00 7.6563852174e-05 1.7379259803e+00 -3.0101760977e+00 1.7379259803e+00 3.0101760977e+00 
95600 5.4205532782e+00 7.5975756769e-05 1.7379237776e+00 -3.0101722824e+00 1.7379237776e+00 3.0101722824e+00 
95700 5.4205532772e+00 7.5392222606e-05 1.7379215918e+00 -3.0101684965e+00 1.7379215918e+00 3.0101684965e+00 
95800 5.4205532763e+00 7.4813213769e-05 1.7379194227e+00 -3.0101647396e+00 1.7379194227e+00 3.0101647396e+00 
95900 5.4205532754e+00 7.4238694631e-05 1.7379172703e+00 -3.0101610116e+00 1.7379172703e+00 3.0101610116e+00 
96000 5.4205532745e+00 7.3668629852e-05 1.7379151345e+00 -3.0101573122e+00 1.7379151345e+00 3.0101573122e+00 
96100 5.4205532736e+00 7.3102984377e-05 1.7379130150e+00 -3.0101536412e+00 1.7379130150e+00 3.0101536412e+00 
96200 5.4205532727e+00 7.2541723434e-05 1.7379109119e+00 -3.0101499984e+00 1.7379109119e+00 3.0101499984e+00 
96300 5.4205532719e+00 7.1984812529e-05 1.7379088248e+00 -3.0101463835e+00 1.7379088248e+00 3.0101463835e+00 
96400 5.4205532710e+00 7.1432217448e-05 1.7379067538e+00 -3.0101427964e+00 1.7379067538e+00 3.0101427964e+00 
96500 5.4205532702e+00 7.0883904249e-05 1.7379046987e+00 -3.0101392368e+00 1.7379046987e+00 3.0101392368e+00 
96600 5.4205532694e+00 7.0339839267e-05 1.7379026593e+00 -3.0101357046e+00 1.7379026593e+00 3.0101357046e+00 
96700 5.4205532687e+00 7.0689956304e-05 1.7379026593e+00 -3.0101357046e+00 1.7379026593e+00 3.0101357046e+00 
96800 5.4205532681e+00 7.1040231599e-05 1.7379026593e+00 -3.0101357046e+00 1.7379026593e+00 3.0101357046e+00 
96900 5.4205532673e+00 7.0491780475e-05 1.7379006155e+00 -3.0101321645e+00 1.7379006155e+00 3.0101321645e+00 
97000 5.4205532667e+00 7.0839369190e-05 1.7379006155e+00 -3.0101321645e+00 1.7379006155e+00 3.0101321645e+00 
97100 5.4205532659e+00 7.0290713248e-05 1.7378985774e+00 -3.0101286345e+00 1.7378985774e+00 3.0101286345e+00 
97200 5.4205532653e+00 7.0635508283e-05 1.7378985774e+00 -3.0101286345e+00 1.7378985774e+00 3.0101286345e+00 
97300 5.4205532648e+00 7.0980289584e-05 1.7378985774e+00 -3.0101286345e+00 1.7378985774e+00 3.0101286345e+00 
97400 5.4205532640e+00 7.0426927590e-05 1.7378965353e+00 -3.0101250974e+00 1.7378965353e+00 3.0101250974e+00 
97500 5.4205532635e+00 7.0768681381e-05 1.7378965353e+00 -3.0101250974e+00 1.7378965353e+00 3.0101250974e+00 
97600 5.4205532627e+00 7.0214909526e-05 1.7378944992e+00 -3.0101215709e+00 1.7378944992e+00 3.0101215709e+00 
97700 5.4205532622e+00 7.0553528976e-05 1.7378944992e+00 -3.0101215709e+00 1.7378944992e+00 3.0101215709e+00 
97800 5.4205532617e+00 7.0891962736e-05 1.7378944992e+00 -3.0101215709e+00 1.7378944992e+00 3.0101215709e+00 
97900 5.4205532610e+00 7.0333194678e-05 1.7378924596e+00 -3.0101180382e+00 1.7378924596e+00 3.0101180382e+00 
98000 5.4205532605e+00 7.0668259971e-05 1.7378924596e+00 -3.0101180382e+00 1.7378924596e+00 3.0101180382e+00 
98100 5.4205532600e+00 7.1003025121e-05 1.7378924596e+00 -3.0101180382e+00 1.7378924596e+00 3.0101180382e+00 
98200 5.4205532593e+00 7.0439066938e-05 1.7378904169e+00 -3.0101145000e+00 1.7378904169e+00 3.0101145000e+00 
98300 5.4205532588e+00 7.0770230512e-05 1.7378904169e+00 -3.0101145000e+00 1.7378904169e+00 3.0101145000e+00 
98400 5.4205532582e+00 7.0205556583e-05 1.7378883808e+00 -3.0101109734e+00 1.7378883808e+00 3.0101109734e+00 
98500 5.4205532577e+00 7.0533013626e-05 1.7378883808e+00 -3.0101109734e+00 1.7378883808e+00 3.0101109734e+00 
98600 5.4205532572e+00 7.0859999991e-05 1.7378883808e+00 -3.0101109734e+00 1.7378883808e+00 3.0101109734e+00 
98700 5.4205532566e+00 7.0289898655e-05 1.7378863421e+00 -3.0101074423e+00 1.7378863421e+00 3.0101074423e+00 
98800 5.4205532561e+00 7.0612951130e-05 1.7378863421e+00 -3.0101074423e+00 1.7378863421e+00 3.0101074423e+00 
98900 5.4205532557e+00 7.0935422616e-05 1.7378863421e+00 -3.0101074423e+00 1.7378863421e+00 3.0101074423e+00 
99000 5.4205532551e+00 7.0359740751e-05 1.7378843012e+00 -3.0101039074e+00 1.7378843012e+00 3.0101039074e+00 
99100 5.4205532547e+00 7.0678058205e-05 1.7378843012e+00 -3.0101039074e+00 1.7378843012e+00 3.0101039074e+00 
99200 5.4205532542e+00 7.0995688238e-05 1.7378843012e+00 -3.0101039074e+00 1.7378843012e+00 3.0101039074e+00 
99300 5.4205532537e+00 7.0414295224e-05 1.7378822586e+00 -3.0101003695e+00 1.7378822586e+00 3.0101003695e+00 
99400 5.4205532533e+00 7.0727560656e-05 1.7378822586e+00 -3.0101003695e+00 1.7378822586e+00 3.0101003695e+00 
99500 5.4205532527e+00 7.0145144614e-05 1.7378802238e+00 -3.0100968450e+00 1.7378802238e+00 3.0100968450e+00 
99600 5.4205532523e+00 7.0453960745e-05 1.7378802238e+00 -3.0100968450e+00 1.7378802238e+00 3.0100968450e+00 
99700 5.4205532519e+00 7.0761942448e-05 1.7378802238e+00 -3.0100968450e+00 1.7378802238e+00 3.0100968450e+00 
99800 5.4205532514e+00 7.0173710249e-05 1.7378781879e+00 -3.0100933188e+00 1.7378781879e+00 3.0100933188e+00 
99900 5.4205532510e+00 7.0477053692e-05 1.7378781879e+00 -3.0100933188e+00 1.7378781879e+00 3.0100933188e+00 
100000 5.4205532506e+00 7.0779472788e-05 1.7378781879e+00 -3.0100933188e+00 1.7378781879e+00 3.0100933188e+00 
100100 5.4205532501e+00 7.0185366444e-05 1.7378761515e+00 -3.0100897917e+00 1.7378761515e+00 3.0100897917e+00 
100200 5.4205532498e+00 7.0482974771e-05 1.7378761515e+00 -3.0100897917e+00 1.7378761515e+00 3.0100897917e+00 
100300 5.4205532494e+00 7.0779577094e-05 1.7378761515e+00 -3.0100897917e+00 1.7378761515e+00 3.0100897917e+00 
100400 5.4205532489e+00 7.0179571369e-05 1.7378741151e+00 -3.0100862646e+00 1.7378741151e+00 3.0100862646e+00 
100500 5.4205532486e+00 7.0471208370e-05 1.7378741151e+00 -3.0100862646e+00 1.7378741151e+00 3.0100862646e+00 
100600 5.4205532482e+00 7.0761766668e-05 1.7378741151e+00 -3.0100862646e+00 1.7378741151e+00 3.0100862646e+00 
100700 5.4205532477e+00 7.0155870075e-05 1.7378720793e+00 -3.0100827383e+00 1.7378720793e+00 3.0100827383e+00 
100800 5.4205532474e+00 7.0441327723e-05 1.7378720793e+00 -3.0100827383e+00 1.7378720793e+00 3.0100827383e+00 
100900 5.4205532471e+00 7.0725643473e-05 1.7378720793e+00 -3.0100827383e+00 1.7378720793e+00 3.0100827383e+00 
101000 5.4205532466e+00 7.0113898812e-05 1.7378700444e+00 -3.0100792139e+00 1.7378700444e+00 3.0100792139e+00 
101100 5.4205532463e+00 7.0392998781e-05 1.7378700444e+00 -3.0100792139e+00 1.7378700444e+00 3.0100792139e+00 
101200 5.4205532460e+00 7.0670903563e-05 1.7378700444e+00 -3.0100792139e+00 1.7378700444e+00 3.0100792139e+00 
101300 5.4205532457e+00 7.0947579147e-05 1.7378700444e+00 -3.0100792139e+00 1.7378700444e+00 3.0100792139e+00 
101400 5.4205532453e+00 7.0325300718e-05 1.7378680032e+00 -3.0100756784e+00 1.7378680032e+00 3.0100756784e+00 
101500 5.4205532450e+00 7.0596590358e-05 1.7378680032e+00 -3.0100756784e+00 1.7378680032e+00 3.0100756784e+00 
101600 5.4205532447e+00 7.0866610970e-05 1.7378680032e+00 -3.0100756784e+00 1.7378680032e+00 3.0100756784e+00 
101700 5.4205532443e+00 7.0238662703e-05 1.7378659643e+00 -3.0100721469e+00 1.7378659643e+00 3.0100721469e+00 
101800 5.4205532440e+00 7.0503230756e-05 1.7378659643e+00 -3.0100721469e+00 1.7378659643e+00 3.0100721469e+00 
101900 5.4205532438e+00 7.0766499777e-05 1.7378659643e+00 -3.0100721469e+00 1.7378659643e+00 3.0100721469e+00 
102000 5.4205532433e+00 7.0133037121e-05 1.7378639283e+00 -3.0100686204e+00 1.7378639283e+00 3.0100686204e+00 
102100 5.4205532431e+00 7.0390807519e-05 1.7378639283e+00 -3.0100686204e+00 1.7378639283e+00 3.0100686204e+00 
102200 5.4205532428e+00 7.0647258778e-05 1.7378639283e+00 -3.0100686204e+00 1.7378639283e+00 3.0100686204e+00 
102300 5.4205532426e+00 7.0902367884e-05 1.7378639283e+00 -3.0100686204e+00 1.7378639283e+00 3.0100686204e+00 
102400 5.4205532422e+00 7.0258984586e-05 1.7378618884e+00 -3.0100650872e+00 1.7378618884e+00 3.0100650872e+00 
102500 5.4205532419e+00 7.0508516301e-05 1.7378618884e+00 -3.0100650872e+00 1.7378618884e+00 3.0100650872e+00 
102600 5.4205532417e+00 7.0756698633e-05 1.7378618884e+00 -3.0100650872e+00 1.7378618884e+00 3.0100650872e+00 
102700 5.4205532413e+00 7.0108224632e-05 1.7378598526e+00 -3.0100615612e+00 1.7378598526e+00 3.0100615612e+00 
102800 5.4205532411e+00 7.0350830005e-05 1.7378598526e+00 -3.0100615612e+00 1.7378598526e+00 3.0100615612e+00 
102900 5.4205532408e+00 7.0592087717e-05 1.7378598526e+00 -3.0100615612e+00 1.7378598526e+00 3.0100615612e+00 
103000 5.4205532406e+00 7.0831981804e-05 1.7378598526e+00 -3.0100615612e+00 1.7378598526e+00 3.0100615612e+00 
103100 5.4205532402e+00 7.0174253754e-05 1.7378578147e+00 -3.0100580314e+00 1.7378578147e+00 3.0100580314e+00 
103200 5.4205532400e+00 7.0408550908e-05 1.7378578147e+00 -3.0100580314e+00 1.7378578147e+00 3.0100580314e+00 
103300 5.4205532398e+00 7.0641497551e-05 1.7378578147e+00 -3.0100580314e+00 1.7378578147e+00 3.0100580314e+00 
103400 5.4205532396e+00 7.0873081274e-05 1.7378578147e+00 -3.0100580314e+00 1.7378578147e+00 3.0100580314e+00 
103500 5.4205532393e+00 7.0206524046e-05 1.7378557756e+00 -3.0100544996e+00 1.7378557756e+00 3.0100544996e+00 
103600 5.4205532391e+00 7.0432520817e-05 1.7378557756e+00 -3.0100544996e+00 1.7378557756e+00 3.0100544996e+00 
103700 5.4205532389e+00 7.0657177856e-05 1.7378557756e+00 -3.0100544996e+00 1.7378557756e+00 3.0100544996e+00 
103800 5.4205532387e+00 7.0880485896e-05 1.7378557756e+00 -3.0100544996e+00 1.7378557756e+00 3.0100544996e+00 
103900 5.4205532383e+00 7.0205573290e-05 1.7378537363e+00 -3.0100509674e+00 1.7378537363e+00 3.0100509674e+00 
104000 5.4205532381e+00 7.0423330914e-05 1.7378537363e+00 -3.0100509674e+00 1.7378537363e+00 3.0100509674e+00 
104100 5.4205532380e+00 7.0639771560e-05 1.7378537363e+00 -3.0100509674e+00 1.7378537363e+00 3.0100509674e+00 
104200 5.4205532378e+00 7.0854888704e-05 1.7378537363e+00 -3.0100509674e+00 1.7378537363e+00 3.0100509674e+00 
104300 5.4205532374e+00 7.0172134246e-05 1.7378516977e+00 -3.0100474365e+00 1.7378516977e+00 3.0100474365e+00 
104400 5.4205532373e+00 7.0381760807e-05 1.7378516977e+00 -3.0100474365e+00 1.7378516977e+00 3.0100474365e+00 
104500 5.4205532371e+00 7.0590103522e-05 1.7378516977e+00 -3.0100474365e+00 1.7378516977e+00 3.0100474365e+00 
104600 5.4205532369e+00 7.0797158230e-05 1.7378516977e+00 -3.0100474365e+00 1.7378516977e+00 3.0100474365e+00 
104700 5.4205532366e+00 7.0107106575e-05 1.7378496608e+00 -3.0100439085e+00 1.7378496608e+00 3.0100439085e+00 
104800 5.4205532364e+00 7.0308750667e-05 1.7378496608e+00 -3.0100439085e+00 1.7378496608e+00 3.0100439085e+00 
104900 5.4205532363e+00 7.0509152882e-05 1.7378496608e+00 -3.0100439085e+00 1.7378496608e+00 3.0100439085e+00 
105000 5.4205532361e+00 7.0708311044e-05 1.7378496608e+00 -3.0100439085e+00 1.7378496608e+00 3.0100439085e+00 
105100 5.4205532360e+00 7.0906223408e-05 1.7378496608e+00 -3.0100439085e+00 1.7378496608e+00 3.0100439085e+00 
105200 5.4205532357e+00 7.0205690817e-05 1.7378476208e+00 -3.0100403750e+00 1.7378476208e+00 3.0100403750e+00 
105300 5.4205532355e+00 7.0398279196e-05 1.7378476208e+00 -3.0100403750e+00 1.7378476208e+00 3.0100403750e+00 
105400 5.4205532354e+00 7.0589674300e-05 1.7378476208e+00 -3.0100403750e+00 1.7378476208e+00 3.0100403750e+00 
105500 5.4205532352e+00 7.0779875776e-05 1.7378476208e+00 -3.0100403750e+00 1.7378476208e+00 3.0100403750e+00 
105600 5.4205532349e+00 7.0073281494e-05 1.7378455843e+00 -3.0100368478e+00 1.7378455843e+00 3.0100368478e+00 
105700 5.4205532348e+00 7.0258272296e-05 1.7378455843e+00 -3.0100368478e+00 1.7378455843e+00 3.0100368478e+00 
105800 5.4205532346e+00 7.0442125727e-05 1.7378455843e+00 -3.0100368478e+00 1.7378455843e+00 3.0100368478e+00 
105900 5.4205532345e+00 7.0624842587e-05 1.7378455843e+00 -3.0100368478e+00 1.7378455843e+00 3.0100368478e+00 
106000 5.4205532344e+00 7.0806423916e-05 1.7378455843e+00 -3.0100368478e+00 1.7378455843e+00 3.0100368478e+00 
106100 5.4205532341e+00 7.0090929890e-05 1.7378435472e+00 -3.0100333193e+00 1.7378435472e+00 3.0100333193e+00 
106200 5.4205532340e+00 7.0267419323e-05 1.7378435472e+00 -3.0100333193e+00 1.7378435472e+00 3.0100333193e+00 
106300 5.4205532338e+00 7.0442832952e-05 1.7378435472e+00 -3.0100333193e+00 1.7378435472e+00 3.0100333193e+00 
106400 5.4205532337e+00 7.0617172508e-05 1.7378435472e+00 -3.0100333193e+00 1.7378435472e+00 3.0100333193e+00 
106500 5.4205532336e+00 7.0790439862e-05 1.7378435472e+00 -3.0100333193e+00 1.7378435472e+00 3.0100333193e+00 
106600 5.4205532333e+00 7.0066895135e-05 1.7378415104e+00 -3.0100297916e+00 1.7378415104e+00 3.0100297916e+00 
106700 5.4205532332e+00 7.0235199988e-05 1.7378415104e+00 -3.0100297916e+00 1.7378415104e+00 3.0100297916e+00 
106800 5.4205532331e+00 7.0402494313e-05 1.7378415104e+00 -3.0100297916e+00 1.7378415104e+00 3.0100297916e+00 
106900 5.4205532330e+00 7.0568780336e-05 1.7378415104e+00 -3.0100297916e+00 1.7378415104e+00 3.0100297916e+00 
107000 5.4205532329e+00 7.0734060344e-05 1.7378415104e+00 -3.0100297916e+00 1.7378415104e+00 3.0100297916e+00 
107100 5.4205532326e+00 7.0003305155e-05 1.7378394753e+00 -3.0100262666e+00 1.7378394753e+00 3.0100262666e+00 
107200 5.4205532325e+00 7.0163758246e-05 1.7378394753e+00 -3.0100262666e+00 1.7378394753e+00 3.0100262666e+00 
107300 5.4205532324e+00 7.0323267819e-05 1.7378394753e+00 -3.0100262666e+00 1.7378394753e+00 3.0100262666e+00 
107400 5.4205532323e+00 7.0481836264e-05 1.7378394753e+00 -3.0100262666e+00 1.7378394753e+00 3.0100262666e+00 
107500 5.4205532322e+00 7.0639465986e-05 1.7378394753e+00 -3.0100262666e+00 1.7378394753e+00 3.0100262666e+00 
107600 5.4205532321e+00 7.0796159348e-05 1.7378394753e+00 -3.0100262666e+00 1.7378394753e+00 3.0100262666e+00 
107700 5.4205532318e+00 7.0056098313e-05 1.7378374384e+00 -3.0100227386e+00 1.7378374384e+00 3.0100227386e+00 
107800 5.4205532317e+00 7.0208101415e-05 1.7378374384e+00 -3.0100227386e+00 1.7378374384e+00 3.0100227386e+00 
107900 5.4205532316e+00 7.0359230403e-05 1.7378374384e+00 -3.0100227386e+00 1.7378374384e+00 3.0100227386e+00 
108000 5.4205532315e+00 7.0509487426e-05 1.7378374384e+00 -3.0100227386e+00 1.7378374384e+00 3.0100227386e+00 
108100 5.4205532314e+00 7.0658874585e-05 1.7378374384e+00 -3.0100227386e+00 1.7378374384e+00 3.0100227386e+00 
108200 5.4205532313e+00 7.0807393887e-05 1.7378374384e+00 -3.0100227386e+00 1.7378374384e+00 3.0100227386e+00 
108300 5.4205532311e+00 7.0059081650e-05 1.7378354012e+00 -3.0100192100e+00 1.7378354012e+00 3.0100192100e+00 
108400 5.4205532310e+00 7.0203045977e-05 1.7378354012e+00 -3.0100192100e+00 1.7378354012e+00 3.0100192100e+00 
108500 5.4205532309e+00 7.0346203392e-05 1.7378354012e+00 -3.0100192100e+00 1.7378354012e+00 3.0100192100e+00 
108600 5.4205532308e+00 7.0488555540e-05 1.7378354012e+00 -3.0100192100e+00 1.7378354012e+00 3.0100192100e+00 
108700 5.4205532307e+00 7.0630103997e-05 1.7378354012e+00 -3.0100192100e+00 1.7378354012e+00 3.0100192100e+00 
108800 5.4205532307e+00 7.0770850225e-05 1.7378354012e+00 -3.0100192100e+00 1.7378354012e+00 3.0100192100e+00 
108900 5.4205532304e+00 7.0015289289e-05 1.7378333650e+00 -3.0100156833e+00 1.7378333650e+00 3.0100156833e+00 
109000 5.4205532303e+00 7.0151611525e-05 1.7378333650e+00 -3.0100156833e+00 1.7378333650e+00 3.0100156833e+00 
109100 5.4205532303e+00 7.0287190729e-05 1.7378333650e+00 -3.0100156833e+00 1.7378333650e+00 3.0100156833e+00 
109200 5.4205532302e+00 7.0422027957e-05 1.7378333650e+00 -3.0100156833e+00 1.7378333650e+00 3.0100156833e+00 
109300 5.4205532301e+00 7.0556124188e-05 1.7378333650e+00 -3.0100156833e+00 1.7378333650e+00 3.0100156833e+00 
109400 5.4205532300e+00 7.0689480289e-05 1.7378333650e+00 -3.0100156833e+00 1.7378333650e+00 3.0100156833e+00 
109500 5.4205532300e+00 7.0822096984e-05 1.7378333650e+00 -3.0100156833e+00 1.7378333650e+00 3.0100156833e+00 
109600 5.4205532297e+00 7.0057816985e-05 1.7378313274e+00 -3.0100121540e+00 1.7378313274e+00 3.0100121540e+00 
109700 5.4205532297e+00 7.0186130936e-05 1.7378313274e+00 -3.0100121540e+00 1.7378313274e+00 3.0100121540e+00 
109800 5.4205532296e+00 7.0313762379e-05 1.7378313274e+00 -3.0100121540e+00 1.7378313274e+00 3.0100121540e+00 
109900 5.4205532295e+00 7.0440711566e-05 1.7378313274e+00 -3.0100121540e+00 1.7378313274e+00 3.0100121540e+00 
110000 5.4205532295e+00 7.0566978677e-05 1.7378313274e+00 -3.0100121540e+00 1.7378313274e+00 3.0100121540e+00 
110100 5.4205532294e+00 7.0692563781e-05 1.7378313274e+00 -3.0100121540e+00 1.7378313274e+00 3.0100121540e+00 
110200 5.4205532293e+00 7.0817466814e-05 1.7378313274e+00 -3.0100121540e+00 1.7378313274e+00 3.0100121540e+00 
110300 5.4205532291e+00 7.0045585143e-05 1.7378292898e+00 -3.0100086249e+00 1.7378292898e+00 3.0100086249e+00 
110400 5.4205532291e+00 7.0166297933e-05 1.7378292898e+00 -3.0100086249e+00 1.7378292898e+00 3.0100086249e+00 
110500 5.4205532290e+00 7.0286383260e-05 1.7378292898e+00 -3.0100086249e+00 1.7378292898e+00 3.0100086249e+00 
110600 5.4205532289e+00 7.0405840652e-05 1.7378292898e+00 -3.0100086249e+00 1.7378292898e+00 3.0100086249e+00 
110700 5.4205532289e+00 7.0524669582e-05 1.7378292898e+00 -3.0100086249e+00 1.7378292898e+00 3.0100086249e+00 
110800 5.4205532288e+00 7.0642869441e-05 1.7378292898e+00 -3.0100086249e+00 1.7378292898e+00 3.0100086249e+00 
110900 5.4205532288e+00 7.0760439507e-05 1.7378292898e+00 -3.0100086249e+00 1.7378292898e+00 3.0100086249e+00 
111000 5.4205532285e+00 6.9981994953e-05 1.7378272539e+00 -3.0100050986e+00 1.7378272539e+00 3.0100050986e+00 
111100 5.4205532285e+00 7.0095479713e-05 1.7378272539e+00 -3.0100050986e+00 1.7378272539e+00 3.0100050986e+00 
111200 5.4205532284e+00 7.0208387435e-05 1.7378272539e+00 -3.0100050986e+00 1.7378272539e+00 3.0100050986e+00 
111300 5.4205532284e+00 7.0320717097e-05 1.7378272539e+00 -3.0100050986e+00 1.7378272539e+00 3.0100050986e+00 
111400 5.4205532283e+00 7.0432467652e-05 1.7378272539e+00 -3.0100050986e+00 1.7378272539e+00 3.0100050986e+00 
111500 5.4205532283e+00 7.0543637998e-05 1.7378272539e+00 -3.0100050986e+00 1.7378272539e+00 3.0100050986e+00 
111600 5.4205532282e+00 7.0654226946e-05 1.7378272539e+00 -3.0100050986e+00 1.7378272539e+00 3.0100050986e+00 
111700 5.4205532282e+00 7.0764233208e-05 1.7378272539e+00 -3.0100050986e+00 1.7378272539e+00 3.0100050986e+00 
111800 5.4205532280e+00 6.9978220186e-05 1.7378252179e+00 -3.0100015722e+00 1.7378252179e+00 3.0100015722e+00 
111900 5.4205532279e+00 7.0084233510e-05 1.7378252179e+00 -3.0100015722e+00 1.7378252179e+00 3.0100015722e+00 
112000 5.4205532279e+00 7.0189715279e-05 1.7378252179e+00 -3.0100015722e+00 1.7378252179e+00 3.0100015722e+00 
112100 5.4205532278e+00 7.0294663967e-05 1.7378252179e+00 -3.0100015722e+00 1.7378252179e+00 3.0100015722e+00 
112200 5.4205532278e+00 7.0399078046e-05 1.7378252179e+00 -3.0100015722e+00 1.7378252179e+00 3.0100015722e+00 
112300 5.4205532277e+00 7.0502955955e-05 1.7378252179e+00 -3.0100015722e+00 1.7378252179e+00 3.0100015722e+00 
112400 5.4205532277e+00 7.0606296074e-05 1.7378252179e+00 -3.0100015722e+00 1.7378252179e+00 3.0100015722e+00 
112500 5.4205532277e+00 7.0709096710e-05 1.7378252179e+00 -3.0100015722e+00 1.7378252179e+00 3.0100015722e+00 
112600 5.4205532276e+00 7.0811356073e-05 1.7378252179e+00 -3.0100015722e+00 1.7378252179e+00 3.0100015722e+00 
112700 5.4205532274e+00 7.0017037535e-05 1.7378231806e+00 -3.0099980434e+00 1.7378231806e+00 3.0099980434e+00 
112800 5.4205532274e+00 7.0115383448e-05 1.7378231806e+00 -3.0099980434e+00 1.7378231806e+00 3.0099980434e+00 
112900 5.4205532273e+00 7.0213237881e-05 1.7378231806e+00 -3.0099980434e+00 1.7378231806e+00 3.0099980434e+00 
113000 5.4205532273e+00 7.0310598895e-05 1.7378231806e+00 -3.0099980434e+00 1.7378231806e+00 3.0099980434e+00 
113100 5.4205532273e+00 7.0407464578e-05 1.7378231806e+00 -3.0099980434e+00 1.7378231806e+00 3.0099980434e+00 
113200 5.4205532272e+00 7.0503833015e-05 1.7378231806e+00 -3.0099980434e+00 1.7378231806e+00 3.0099980434e+00 
113300 5.4205532272e+00 7.0555930048e-05 1.7378231806e+00 -3.0099980434e+00 1.7378231806e+00 3.0099980434e+00 
113300 5.4205532272e+00 7.0555930048e-05 1.7378231806e+00 -3.0099980434e+00 1.7378231806e+00 3.0099980434e+00 
