# step Hamiltonian StressXX CellTensor1 CellTensor2 CellTensor3 CellTensor4 
0 6.0855900628e+00 2.0670662648e-01 2.8378601290e+00 -4.9153179282e+00 2.8378601290e+00 4.9153179282e+00 
100 6.1165203607e+00 2.4904258092e-01 2.8378601290e+00 -4.9153179282e+00 2.8378601290e+00 4.9153179282e+00 
200 6.1461783401e+00 2.8794640637e-01 2.8334734029e+00 -4.9077198957e+00 2.8334734029e+00 4.9077198957e+00 
300 6.1753056264e+00 3.2381979534e-01 2.8283937683e+00 -4.8989217104e+00 2.8283937683e+00 4.8989217104e+00 
400 6.2040470661e+00 3.5700998293e-01 2.8226712563e+00 -4.8890100290e+00 2.8226712563e+00 4.8890100290e+00 
500 6.2324639720e+00 3.8779474401e-01 2.8163496492e+00 -4.8780606842e+00 2.8163496492e+00 4.8780606842e+00 
600 6.2605131412e+00 4.1632968811e-01 2.8094677558e+00 -4.8661408953e+00 2.8094677558e+00 4.8661408953e+00 
700 6.2880094652e+00 4.4255570131e-01 2.8020616162e+00 -4.8533130852e+00 2.8020616162e+00 4.8533130852e+00 
800 6.3145638415e+00 4.6604699181e-01 2.7941683701e+00 -4.8396415819e+00 2.7941683701e+00 4.8396415819e+00 
900 6.3394959409e+00 4.8580108615e-01 2.7858328941e+00 -4.8252041140e+00 2.7858328941e+00 4.8252041140e+00 
1000 6.3617572590e+00 5.0007308102e-01 2.7771183212e+00 -4.8101100309e+00 2.7771183212e+00 4.8101100309e+00 
1100 6.3799855238e+00 5.0659728019e-01 2.7681197490e+00 -4.7945240466e+00 2.7681197490e+00 4.7945240466e+00 
1200 6.3928888369e+00 5.0371136738e-01 2.7589742406e+00 -4.7786835615e+00 2.7589742406e+00 4.7786835615e+00 
1300 6.3999579123e+00 4.9215113902e-01 2.7498506927e+00 -4.7628811130e+00 2.7498506927e+00 4.7628811130e+00 
1400 6.4019204346e+00 4.7556415469e-01 2.7409068737e+00 -4.7473899640e+00 2.7409068737e+00 4.7473899640e+00 
1500 6.4003143123e+00 4.5838843314e-01 2.7322361579e+00 -4.7323718438e+00 2.7322361579e+00 4.7323718438e+00 
1600 6.3966154075e+00 4.4334790950e-01 2.7238519421e+00 -4.7178499560e+00 2.7238519421e+00 4.7178499560e+00 
1700 6.3917834856e+00 4.3103259155e-01 2.7157177540e+00 -4.7037611290e+00 2.7157177540e+00 4.7037611290e+00 
1800 6.3863162816e+00 4.2089037665e-01 2.7077857433e+00 -4.6900224834e+00 2.7077857433e+00 4.6900224834e+00 
1900 6.3804489283e+00 4.1213047295e-01 2.7000176165e+00 -4.6765676931e+00 2.7000176165e+00 4.6765676931e+00 
2000 6.3742968316e+00 4.0411203984e-01 2.6923892262e+00 -4.6633549335e+00 2.6923892262e+00 4.6633549335e+00 
2100 6.3679258869e+00 3.9641186027e-01 2.6848880118e+00 -4.6503624490e+00 2.6848880118e+00 4.6503624490e+00 
2200 6.3613815257e+00 3.8878053421e-01 2.6775091249e+00 -4.6375818420e+00 2.6775091249e+00 4.6375818420e+00 
2300 6.3546998215e+00 3.8108392991e-01 2.6702522988e+00 -4.6250126506e+00 2.6702522988e+00 4.6250126506e+00 
2400 6.3479116505e+00 3.7325788825e-01 2.6631197566e+00 -4.6126587250e+00 2.6631197566e+00 4.6126587250e+00 
2500 6.3410442988e+00 3.6527853272e-01 2.6561149316e+00 -4.6005260123e+00 2.6561149316e+00 4.6005260123e+00 
2600 6.3341221476e+00 3.5714420418e-01 2.6492417253e+00 -4.5886212698e+00 2.6492417253e+00 4.5886212698e+00 
2700 6.3271670246e+00 3.4886489523e-01 2.6425040923e+00 -4.5769513471e+00 2.6425040923e+00 4.5769513471e+00 
2800 6.3201984328e+00 3.4045622535e-01 2.6359058190e+00 -4.5655228024e+00 2.6359058190e+00 4.5655228024e+00 
2900 6.3132337342e+00 3.3193607982e-01 2.6294504126e+00 -4.5543417107e+00 2.6294504126e+00 4.5543417107e+00 
3000 6.3062883168e+00 3.2332278407e-01 2.6231410531e+00 -4.5434135794e+00 2.6231410531e+00 4.5434135794e+00 
3100 6.2993757534e+00 3.1463415312e-01 2.6169805784e+00 -4.5327433242e+00 2.6169805784e+00 4.5327433242e+00 
3200 6.2925079548e+00 3.0588703455e-01 2.6109714887e+00 -4.5223352756e+00 2.6109714887e+00 4.5223352756e+00 
3300 6.2856953186e+00 2.9709712590e-01 2.6051159594e+00 -4.5121932013e+00 2.6051159594e+00 4.5121932013e+00 
3400 6.2789468719e+00 2.8827894137e-01 2.5994158580e+00 -4.5023203360e+00 2.5994158580e+00 4.5023203360e+00 
3500 6.2722704065e+00 2.7944585633e-01 2.5938727620e+00 -4.4927194122e+00 2.5938727620e+00 4.4927194122e+00 
3600 6.2656726074e+00 2.7061018932e-01 2.5884879772e+00 -4.4833926913e+00 2.5884879772e+00 4.4833926913e+00 
3700 6.2591591720e+00 2.6178329864e-01 2.5832625535e+00 -4.4743419920e+00 2.5832625535e+00 4.4743419920e+00 
3800 6.2527349214e+00 2.5297568119e-01 2.5781973008e+00 -4.4655687170e+00 2.5781973008e+00 4.4655687170e+00 
3900 6.2464039022e+00 2.4419706672e-01 2.5732928023e+00 -4.4570738764e+00 2.5732928023e+00 4.4570738764e+00 
4000 6.2401694802e+00 2.3545650427e-01 2.5685494268e+00 -4.4488581089e+00 2.5685494268e+00 4.4488581089e+00 
4100 6.2340344250e+00 2.2676243936e-01 2.5639673395e+00 -4.4409217010e+00 2.5639673395e+00 4.4409217010e+00 
4200 6.2280009871e+00 2.1812278165e-01 2.5595465121e+00 -4.4332646032e+00 2.5595465121e+00 4.4332646032e+00 
4300 6.2220709663e+00 2.0954496320e-01 2.5552867309e+00 -4.4258864458e+00 2.5552867309e+00 4.4258864458e+00 
4400 6.2162457735e+00 2.0103598811e-01 2.5511876051e+00 -4.4187865517e+00 2.5511876051e+00 4.4187865517e+00 
4500 6.2105264850e+00 1.9260247405e-01 2.5472485737e+00 -4.4119639492e+00 2.5472485737e+00 4.4119639492e+00 
4600 6.2049138910e+00 1.8425068662e-01 2.5434689120e+00 -4.4054173830e+00 2.5434689120e+00 4.4054173830e+00 
4700 6.1994085375e+00 1.7598656720e-01 2.5398477375e+00 -4.3991453248e+00 2.5398477375e+00 4.3991453248e+00 
4800 6.1940107632e+00 1.6781575514e-01 2.5363840160e+00 -4.3931459832e+00 2.5363840160e+00 4.3931459832e+00 
4900 6.1887207315e+00 1.5974360488e-01 2.5330765668e+00 -4.3874173131e+00 2.5330765668e+00 4.3874173131e+00 
5000 6.1835384572e+00 1.5177519879e-01 2.5299240679e+00 -4.3819570248e+00 2.5299240679e+00 4.3819570248e+00 
5100 6.1784638302e+00 1.4391535630e-01 2.5269250614e+00 -4.3767625933e+00 2.5269250614e+00 4.3767625933e+00 
5200 6.1734966342e+00 1.3616863976e-01 2.5240779589e+00 -4.3718312670e+00 2.5240779589e+00 4.3718312670e+00 
5300 6.1686365629e+00 1.2853935786e-01 2.5213810461e+00 -4.3671600771e+00 2.5213810461e+00 4.3671600771e+00 
5400 6.1638832330e+00 1.2103156669e-01 2.5188324889e+00 -4.3627458465e+00 2.5188324889e+00 4.3627458465e+00 
5500 6.1592361943e+00 1.1364906929e-01 2.5164303381e+00 -4.3585851994e+00 2.5164303381e+00 4.3585851994e+00 
5600 6.1546949370e+00 1.0639541373e-01 2.5141725356e+00 -4.3546745706e+00 2.5141725356e+00 4.3546745706e+00 
5700 6.1502588983e+00 9.9273890404e-02 2.5120569195e+00 -4.3510102161e+00 2.5120569195e+00 4.3510102161e+00 
5800 6.1459274653e+00 9.2287528624e-02 2.5100812305e+00 -4.3475882223e+00 2.5100812305e+00 4.3475882223e+00 
5900 6.1416999776e+00 8.5439092991e-02 2.5082431175e+00 -4.3444045173e+00 2.5082431175e+00 4.3444045173e+00 
6000 6.1375757284e+00 7.8731079736e-02 2.5065401443e+00 -4.3414548812e+00 2.5065401443e+00 4.3414548812e+00 
6100 6.1335539639e+00 7.2165713306e-02 2.5049697954e+00 -4.3387349570e+00 2.5049697954e+00 4.3387349570e+00 
6200 6.1296338825e+00 6.5744943401e-02 2.5035294827e+00 -4.3362402624e+00 2.5035294827e+00 4.3362402624e+00 
6300 6.1258146326e+00 5.9470442664e-02 2.5022165525e+00 -4.3339662004e+00 2.5022165525e+00 4.3339662004e+00 
6400 6.1220953108e+00 5.3343605172e-02 2.5010282913e+00 -4.3319080718e+00 2.5010282913e+00 4.3319080718e+00 
6500 6.1184749588e+00 4.7365545871e-02 2.4999619337e+00 -4.3300610861e+00 2.4999619337e+00 4.3300610861e+00 
6600 6.1149525609e+00 4.1537101062e-02 2.4990146682e+00 -4.3284203742e+00 2.4990146682e+00 4.3284203742e+00 
6700 6.1115270409e+00 3.5858830013e-02 2.4981836447e+00 -4.3269809993e+00 2.4981836447e+00 4.3269809993e+00 
6800 6.1081972596e+00 3.0331017759e-02 2.4974659810e+00 -4.3257379693e+00 2.4974659810e+00 4.3257379693e+00 
6900 6.1049620122e+00 2.4953679112e-02 2.4968587698e+00 -4.3246862486e+00 2.4968587698e+00 4.3246862486e+00 
7000 6.1018200261e+00 1.9726563903e-02 2.4963590850e+00 -4.3238207692e+00 2.4963590850e+00 4.3238207692e+00 
7100 6.0987699593e+00 1.4649163424e-02 2.4959639887e+00 -4.3231364424e+00 2.4959639887e+00 4.3231364424e+00 
7200 6.0958103990e+00 9.7207180514e-03 2.4956705375e+00 -4.3226281699e+00 2.4956705375e+00 4.3226281699e+00 
7300 6.0929398610e+00 4.9402259838e-03 2.4954757884e+00 -4.3222908545e+00 2.4954757884e+00 4.3222908545e+00 
7400 6.0901567897e+00 3.0645304030e-04 2.4953768054e+00 -4.3221194109e+00 2.4953768054e+00 4.3221194109e+00 
7500 6.0874595583e+00 -4.1820565793e-03 2.4953706650e+00 -4.3221087754e+00 2.4953706650e+00 4.3221087754e+00 
7600 6.0848464703e+00 -8.5269686578e-03 2.4954544617e+00 -4.3222539157e+00 2.4954544617e+00 4.3222539157e+00 
7700 6.0823157612e+00 -1.2730146558e-02 2.4956253137e+00 -4.3225498400e+00 2.4956253137e+00 4.3225498400e+00 
7800 6.0798656010e+00 -1.6793638161e-02 2.4958803673e+00 -4.3229916057e+00 2.4958803673e+00 4.3229916057e+00 
7900 6.0774940971e+00 -2.0719662278e-02 2.4962168020e+00 -4.3235743277e+00 2.4962168020e+00 4.3235743277e+00 
8000 6.0751992983e+00 -2.4510594627e-02 2.4966318348e+00 -4.3242931856e+00 2.4966318348e+00 4.3242931856e+00 
8100 6.0729791984e+00 -2.8168953537e-02 2.4971227241e+00 -4.3251434308e+00 2.4971227241e+00 4.3251434308e+00 
8200 6.0708317417e+00 -3.1697385459e-02 2.4976867735e+00 -4.3261203931e+00 2.4976867735e+00 4.3261203931e+00 
8300 6.0687548271e+00 -3.5098650431e-02 2.4983213352e+00 -4.3272194862e+00 2.4983213352e+00 4.3272194862e+00 
8400 6.0667463146e+00 -3.8375607592e-02 2.4990238128e+00 -4.3284362131e+00 2.4990238128e+00 4.3284362131e+00 
8500 6.0648040306e+00 -4.1531200863e-02 2.4997916641e+00 -4.3297661705e+00 2.4997916641e+00 4.3297661705e+00 
8600 6.0629257740e+00 -4.4568444883e-02 2.5006224033e+00 -4.3312050531e+00 2.5006224033e+00 4.3312050531e+00 
8700 6.0611093224e+00 -4.7490411305e-02 2.5015136033e+00 -4.3327486567e+00 2.5015136033e+00 4.3327486567e+00 
8800 6.0593524390e+00 -5.0300215518e-02 2.5024628968e+00 -4.3343928813e+00 2.5024628968e+00 4.3343928813e+00 
8900 6.0576528783e+00 -5.3001003882e-02 2.5034679782e+00 -4.3361337334e+00 2.5034679782e+00 4.3361337334e+00 
9000 6.0560083932e+00 -5.5595941530e-02 2.5045266045e+00 -4.3379673279e+00 2.5045266045e+00 4.3379673279e+00 
9100 6.0544167410e+00 -5.8088200792e-02 2.5056365956e+00 -4.3398898889e+00 2.5056365956e+00 4.3398898889e+00 
9200 6.0528756899e+00 -6.0480950288e-02 2.5067958355e+00 -4.3418977513e+00 2.5067958355e+00 4.3418977513e+00 
9300 6.0513830252e+00 -6.2777344715e-02 2.5080022720e+00 -4.3439873605e+00 2.5080022720e+00 4.3439873605e+00 
9400 6.0499365547e+00 -6.4980515365e-02 2.5092539168e+00 -4.3461552730e+00 2.5092539168e+00 4.3461552730e+00 
9500 6.0485341150e+00 -6.7093561374e-02 2.5105488456e+00 -4.3483981554e+00 2.5105488456e+00 4.3483981554e+00 
9600 6.0471735765e+00 -6.9119541722e-02 2.5118851970e+00 -4.3507127840e+00 2.5118851970e+00 4.3507127840e+00 
9700 6.0458528485e+00 -7.1061467982e-02 2.5132611725e+00 -4.3530960434e+00 2.5132611725e+00 4.3530960434e+00 
9800 6.0445698838e+00 -7.2922297801e-02 2.5146750352e+00 -4.3555449255e+00 2.5146750352e+00 4.3555449255e+00 
9900 6.0433226833e+00 -7.4704929118e-02 2.5161251093e+00 -4.3580565275e+00 2.5161251093e+00 4.3580565275e+00 
10000 6.0421092998e+00 -7.6412195077e-02 2.5176097785e+00 -4.3606280500e+00 2.5176097785e+00 4.3606280500e+00 
10100 6.0409278414e+00 -7.8046859639e-02 2.5191274853e+00 -4.3632567952e+00 2.5191274853e+00 4.3632567952e+00 
10200 6.0397764749e+00 -7.9611613841e-02 2.5206767291e+00 -4.3659401642e+00 2.5206767291e+00 4.3659401642e+00 
10300 6.0386534284e+00 -8.1109072691e-02 2.5222560653e+00 -4.3686756548e+00 2.5222560653e+00 4.3686756548e+00 
10400 6.0375569938e+00 -8.2541772656e-02 2.5238641035e+00 -4.3714608587e+00 2.5238641035e+00 4.3714608587e+00 
10500 6.0364855286e+00 -8.3912169705e-02 2.5254995062e+00 -4.3742934592e+00 2.5254995062e+00 4.3742934592e+00 
10600 6.0354374576e+00 -8.5222637891e-02 2.5271609867e+00 -4.3771712278e+00 2.5271609867e+00 4.3771712278e+00 
10700 6.0344112740e+00 -8.6475468409e-02 2.5288473080e+00 -4.3800920220e+00 2.5288473080e+00 4.3800920220e+00 
10800 6.0334055402e+00 -8.7672869108e-02 2.5305572809e+00 -4.3830537819e+00 2.5305572809e+00 4.3830537819e+00 
10900 6.0324188887e+00 -8.8816964426e-02 2.5322897622e+00 -4.3860545276e+00 2.5322897622e+00 4.3860545276e+00 
11000 6.0314500218e+00 -8.9909795690e-02 2.5340436533e+00 -4.3890923561e+00 2.5340436533e+00 4.3890923561e+00 
11100 6.0304977116e+00 -9.0953321770e-02 2.5358178982e+00 -4.3921654383e+00 2.5358178982e+00 4.3921654383e+00 
11200 6.0295607998e+00 -9.1949420033e-02 2.5376114819e+00 -4.3952720165e+00 2.5376114819e+00 4.3952720165e+00 
11300 6.0286381967e+00 -9.2899887576e-02 2.5394234290e+00 -4.3984104009e+00 2.5394234290e+00 4.3984104009e+00 
11400 6.0277288806e+00 -9.3806442696e-02 2.5412528015e+00 -4.4015789671e+00 2.5412528015e+00 4.4015789671e+00 
11500 6.0268318963e+00 -9.4670726576e-02 2.5430986980e+00 -4.4047761535e+00 2.5430986980e+00 4.4047761535e+00 
11600 6.0259463542e+00 -9.5494305151e-02 2.5449602511e+00 -4.4080004581e+00 2.5449602511e+00 4.4080004581e+00 
11700 6.0250714282e+00 -9.6278671131e-02 2.5468366268e+00 -4.4112504361e+00 2.5468366268e+00 4.4112504361e+00 
11800 6.0242063546e+00 -9.7025246150e-02 2.5487270223e+00 -4.4145246972e+00 2.5487270223e+00 4.4145246972e+00 
11900 6.0233504296e+00 -9.7735383025e-02 2.5506306650e+00 -4.4178219032e+00 2.5506306650e+00 4.4178219032e+00 
12000 6.0225030082e+00 -9.8410368102e-02 2.5525468109e+00 -4.4211407652e+00 2.5525468109e+00 4.4211407652e+00 
12100 6.0216635013e+00 -9.9051423652e-02 2.5544747431e+00 -4.4244800418e+00 2.5544747431e+00 4.4244800418e+00 
12200 6.0208313739e+00 -9.9659710332e-02 2.5564137708e+00 -4.4278385362e+00 2.5564137708e+00 4.4278385362e+00 
12300 6.0200061433e+00 -1.0023632966e-01 2.5583632276e+00 -4.4312150945e+00 2.5583632276e+00 4.4312150945e+00 
12400 6.0191873760e+00 -1.0078232651e-01 2.5603224708e+00 -4.4346086031e+00 2.5603224708e+00 4.4346086031e+00 
12500 6.0183746861e+00 -1.0129869160e-01 2.5622908796e+00 -4.4380179873e+00 2.5622908796e+00 4.4380179873e+00 
12600 6.0175677326e+00 -1.0178636399e-01 2.5642678548e+00 -4.4414422086e+00 2.5642678548e+00 4.4414422086e+00 
12700 6.0167662172e+00 -1.0224623350e-01 2.5662528167e+00 -4.4448802636e+00 2.5662528167e+00 4.4448802636e+00 
12800 6.0159698821e+00 -1.0267914319e-01 2.5682452052e+00 -4.4483311818e+00 2.5682452052e+00 4.4483311818e+00 
12900 6.0151785072e+00 -1.0308589168e-01 2.5702444780e+00 -4.4517940237e+00 2.5702444780e+00 4.4517940237e+00 
13000 6.0143919086e+00 -1.0346723555e-01 2.5722501099e+00 -4.4552678801e+00 2.5722501099e+00 4.4552678801e+00 
13100 6.0136099353e+00 -1.0382389154e-01 2.5742615921e+00 -4.4587518695e+00 2.5742615921e+00 4.4587518695e+00 
13200 6.0128324679e+00 -1.0415653884e-01 2.5762784314e+00 -4.4622451376e+00 2.5762784314e+00 4.4622451376e+00 
13300 6.0120594160e+00 -1.0446582121e-01 2.5783001490e+00 -4.4657468552e+00 2.5783001490e+00 4.4657468552e+00 
13400 6.0112907160e+00 -1.0475234906e-01 2.5803262802e+00 -4.4692562175e+00 2.5803262802e+00 4.4692562175e+00 
13500 6.0105263290e+00 -1.0501670149e-01 2.5823563737e+00 -4.4727724426e+00 2.5823563737e+00 4.4727724426e+00 
13600 6.0097662391e+00 -1.0525942818e-01 2.5843899907e+00 -4.4762947704e+00 2.5843899907e+00 4.4762947704e+00 
13700 6.0090104513e+00 -1.0548105133e-01 2.5864267042e+00 -4.4798224617e+00 2.5864267042e+00 4.4798224617e+00 
13800 6.0082589892e+00 -1.0568206739e-01 2.5884660989e+00 -4.4833547970e+00 2.5884660989e+00 4.4833547970e+00 
13900 6.0075118938e+00 -1.0586294879e-01 2.5905077704e+00 -4.4868910757e+00 2.5905077704e+00 4.4868910757e+00 
14000 6.0067692216e+00 -1.0602414559e-01 2.5925513245e+00 -4.4904306152e+00 2.5925513245e+00 4.4904306152e+00 
14100 6.0060310425e+00 -1.0616608704e-01 2.5945963770e+00 -4.4939727501e+00 2.5945963770e+00 4.4939727501e+00 
14200 6.0052974388e+00 -1.0628918306e-01 2.5966425532e+00 -4.4975168313e+00 2.5966425532e+00 4.4975168313e+00 
14300 6.0045685032e+00 -1.0639382565e-01 2.5986894875e+00 -4.5010622255e+00 2.5986894875e+00 4.5010622255e+00 
14400 6.0038443378e+00 -1.0648039026e-01 2.6007368230e+00 -4.5046083145e+00 2.6007368230e+00 4.5046083145e+00 
14500 6.0031250522e+00 -1.0654923699e-01 2.6027842110e+00 -4.5081544946e+00 2.6027842110e+00 4.5081544946e+00 
14600 6.0024107629e+00 -1.0660071190e-01 2.6048313110e+00 -4.5117001758e+00 2.6048313110e+00 4.5117001758e+00 
14700 6.0017015912e+00 -1.0663514802e-01 2.6068777901e+00 -4.5152447816e+00 2.6068777901e+00 4.5152447816e+00 
14800 6.0009976630e+00 -1.0665286650e-01 2.6089233229e+00 -4.5187877484e+00 2.6089233229e+00 4.5187877484e+00 
14900 6.0002991069e+00 -1.0665417758e-01 2.6109675912e+00 -4.5223285248e+00 2.6109675912e+00 4.5223285248e+00 
15000 5.9996060537e+00 -1.0663938155e-01 2.6130102835e+00 -4.5258665718e+00 2.6130102835e+00 4.5258665718e+00 
15100 5.9989186355e+00 -1.0660876960e-01 2.6150510955e+00 -4.5294013617e+00 2.6150510955e+00 4.5294013617e+00 
15200 5.9982369843e+00 -1.0656262465e-01 2.6170897288e+00 -4.5329323783e+00 2.6170897288e+00 4.5329323783e+00 
15300 5.9975612317e+00 -1.0650122216e-01 2.6191258919e+00 -4.5364591162e+00 2.6191258919e+00 4.5364591162e+00 
15400 5.9968915081e+00 -1.0642483079e-01 2.6211592991e+00 -4.5399810809e+00 2.6211592991e+00 4.5399810809e+00 
15500 5.9962279417e+00 -1.0633371309e-01 2.6231896709e+00 -4.5434977880e+00 2.6231896709e+00 4.5434977880e+00 
15600 5.9955706583e+00 -1.0622812614e-01 2.6252167336e+00 -4.5470087634e+00 2.6252167336e+00 4.5470087634e+00 
15700 5.9949197802e+00 -1.0610832208e-01 2.6272402191e+00 -4.5505135431e+00 2.6272402191e+00 4.5505135431e+00 
15800 5.9942754264e+00 -1.0597454864e-01 2.6292598651e+00 -4.5540116727e+00 2.6292598651e+00 4.5540116727e+00 
15900 5.9936377114e+00 -1.0582704969e-01 2.6312754148e+00 -4.5575027071e+00 2.6312754148e+00 4.5575027071e+00 
16000 5.9930067451e+00 -1.0566606560e-01 2.6332866166e+00 -4.5609862108e+00 2.6332866166e+00 4.5609862108e+00 
16100 5.9923826327e+00 -1.0549183371e-01 2.6352932245e+00 -4.5644617576e+00 2.6352932245e+00 4.5644617576e+00 
16200 5.9917654739e+00 -1.0530458866e-01 2.6372949975e+00 -4.5679289302e+00 2.6372949975e+00 4.5679289302e+00 
16300 5.9911553629e+00 -1.0510456278e-01 2.6392916999e+00 -4.5713873202e+00 2.6392916999e+00 4.5713873202e+00 
16400 5.9905523879e+00 -1.0489198637e-01 2.6412831010e+00 -4.5748365281e+00 2.6412831010e+00 4.5748365281e+00 
16500 5.9899566313e+00 -1.0466708797e-01 2.6432689752e+00 -4.5782761631e+00 2.6432689752e+00 4.5782761631e+00 
16600 5.9893681692e+00 -1.0443009464e-01 2.6452491018e+00 -4.5817058430e+00 2.6452491018e+00 4.5817058430e+00 
16700 5.9887870713e+00 -1.0418123216e-01 2.6472232651e+00 -4.5851251941e+00 2.6472232651e+00 4.5851251941e+00 
16800 5.9882134009e+00 -1.0392072525e-01 2.6491912541e+00 -4.5885338511e+00 2.6491912541e+00 4.5885338511e+00 
16900 5.9876472148e+00 -1.0364879774e-01 2.6511528630e+00 -4.5919314573e+00 2.6511528630e+00 4.5919314573e+00 
17000 5.9870885633e+00 -1.0336567272e-01 2.6531078903e+00 -4.5953176640e+00 2.6531078903e+00 4.5953176640e+00 
17100 5.9865374898e+00 -1.0307157270e-01 2.6550561396e+00 -4.5986921308e+00 2.6550561396e+00 4.5986921308e+00 
17200 5.9859940314e+00 -1.0276671969e-01 2.6569974191e+00 -4.6020545255e+00 2.6569974191e+00 4.6020545255e+00 
17300 5.9854582185e+00 -1.0245133535e-01 2.6589315418e+00 -4.6054045242e+00 2.6589315418e+00 4.6054045242e+00 
17400 5.9849300750e+00 -1.0212564101e-01 2.6608583251e+00 -4.6087418108e+00 2.6608583251e+00 4.6087418108e+00 
17500 5.9844096183e+00 -1.0178985780e-01 2.6627775913e+00 -4.6120660773e+00 2.6627775913e+00 4.6120660773e+00 
17600 5.9838968594e+00 -1.0144420669e-01 2.6646891671e+00 -4.6153770238e+00 2.6646891671e+00 4.6153770238e+00 
17700 5.9833918031e+00 -1.0108890848e-01 2.6665928840e+00 -4.6186743582e+00 2.6665928840e+00 4.6186743582e+00 
17800 5.9828944479e+00 -1.0072418392e-01 2.6684885779e+00 -4.6219577963e+00 2.6684885779e+00 4.6219577963e+00 
17900 5.9824047864e+00 -1.0035025365e-01 2.6703760892e+00 -4.6252270618e+00 2.6703760892e+00 4.6252270618e+00 
18000 5.9819228052e+00 -9.9967338244e-02 2.6722552630e+00 -4.6284818862e+00 2.6722552630e+00 4.6284818862e+00 
18100 5.9814484851e+00 -9.9575658219e-02 2.6741259486e+00 -4.6317220089e+00 2.6741259486e+00 4.6317220089e+00 
18200 5.9809818014e+00 -9.9175433999e-02 2.6759880001e+00 -4.6349471767e+00 2.6759880001e+00 4.6349471767e+00 
18300 5.9805227240e+00 -9.8766885915e-02 2.6778412759e+00 -4.6381571444e+00 2.6778412759e+00 4.6381571444e+00 
18400 5.9800712173e+00 -9.8350234175e-02 2.6796856386e+00 -4.6413516744e+00 2.6796856386e+00 4.6413516744e+00 
18500 5.9796272410e+00 -9.7925698836e-02 2.6815209556e+00 -4.6445305367e+00 2.6815209556e+00 4.6445305367e+00 
18600 5.9791907497e+00 -9.7493499767e-02 2.6833470984e+00 -4.6476935088e+00 2.6833470984e+00 4.6476935088e+00 
18700 5.9787616933e+00 -9.7053856603e-02 2.6851639430e+00 -4.6508403760e+00 2.6851639430e+00 4.6508403760e+00 
18800 5.9783400174e+00 -9.6606988702e-02 2.6869713696e+00 -4.6539709307e+00 2.6869713696e+00 4.6539709307e+00 
18900 5.9779256631e+00 -9.6153115092e-02 2.6887692629e+00 -4.6570849732e+00 2.6887692629e+00 4.6570849732e+00 
19000 5.9775185677e+00 -9.5692454415e-02 2.6905575116e+00 -4.6601823108e+00 2.6905575116e+00 4.6601823108e+00 
19100 5.9771186645e+00 -9.5225224868e-02 2.6923360090e+00 -4.6632627586e+00 2.6923360090e+00 4.6632627586e+00 
19200 5.9767258830e+00 -9.4751644140e-02 2.6941046523e+00 -4.6663261388e+00 2.6941046523e+00 4.6663261388e+00 
19300 5.9763401496e+00 -9.4271929349e-02 2.6958633432e+00 -4.6693722807e+00 2.6958633432e+00 4.6693722807e+00 
19400 5.9759613872e+00 -9.3786296973e-02 2.6976119874e+00 -4.6724010212e+00 2.6976119874e+00 4.6724010212e+00 
19500 5.9755895158e+00 -9.3294962778e-02 2.6993504947e+00 -4.6754122042e+00 2.6993504947e+00 4.6754122042e+00 
19600 5.9752244526e+00 -9.2798141752e-02 2.7010787791e+00 -4.6784056807e+00 2.7010787791e+00 4.6784056807e+00 
19700 5.9748661122e+00 -9.2296048026e-02 2.7027967589e+00 -4.6813813089e+00 2.7027967589e+00 4.6813813089e+00 
19800 5.9745144068e+00 -9.1788894801e-02 2.7045043560e+00 -4.6843389539e+00 2.7045043560e+00 4.6843389539e+00 
19900 5.9741692464e+00 -9.1276894274e-02 2.7062014967e+00 -4.6872784878e+00 2.7062014967e+00 4.6872784878e+00 
20000 5.9738305390e+00 -9.0760257560e-02 2.7078881111e+00 -4.6901997896e+00 2.7078881111e+00 4.6901997896e+00 
20100 5.9734981908e+00 -9.0239194616e-02 2.7095641333e+00 -4.6931027453e+00 2.7095641333e+00 4.6931027453e+00 
20200 5.9731721066e+00 -8.9713914159e-02 2.7112295014e+00 -4.6959872474e+00 2.7112295014e+00 4.6959872474e+00 
20300 5.9728521896e+00 -8.9184623593e-02 2.7128841572e+00 -4.6988531953e+00 2.7128841572e+00 4.6988531953e+00 
20400 5.9725383417e+00 -8.8651528927e-02 2.7145280465e+00 -4.7017004951e+00 2.7145280465e+00 4.7017004951e+00 
20500 5.9722304640e+00 -8.8114834699e-02 2.7161611188e+00 -4.7045290593e+00 2.7161611188e+00 4.7045290593e+00 
20600 5.9719284567e+00 -8.7574743894e-02 2.7177833274e+00 -4.7073388070e+00 2.7177833274e+00 4.7073388070e+00 
20700 5.9716322191e+00 -8.7031457872e-02 2.7193946294e+00 -4.7101296639e+00 2.7193946294e+00 4.7101296639e+00 
20800 5.9713416502e+00 -8.6485176284e-02 2.7209949853e+00 -4.7129015617e+00 2.7209949853e+00 4.7129015617e+00 
20900 5.9710566486e+00 -8.5936097000e-02 2.7225843596e+00 -4.7156544388e+00 2.7225843596e+00 4.7156544388e+00 
21000 5.9707771127e+00 -8.5384416028e-02 2.7241627202e+00 -4.7183882394e+00 2.7241627202e+00 4.7183882394e+00 
21100 5.9705029407e+00 -8.4830327443e-02 2.7257300384e+00 -4.7211029142e+00 2.7257300384e+00 4.7211029142e+00 
21200 5.9702340311e+00 -8.4274023309e-02 2.7272862893e+00 -4.7237984198e+00 2.7272862893e+00 4.7237984198e+00 
21300 5.9699702826e+00 -8.3715693605e-02 2.7288314511e+00 -4.7264747186e+00 2.7288314511e+00 4.7264747186e+00 
21400 5.9697115941e+00 -8.3155526155e-02 2.7303655058e+00 -4.7291317793e+00 2.7303655058e+00 4.7291317793e+00 
21500 5.9694578651e+00 -8.2593706553e-02 2.7318884384e+00 -4.7317695759e+00 2.7318884384e+00 4.7317695759e+00 
21600 5.9692089958e+00 -8.2030418096e-02 2.7334002373e+00 -4.7343880884e+00 2.7334002373e+00 4.7343880884e+00 
21700 5.9689648870e+00 -8.1465841713e-02 2.7349008942e+00 -4.7369873024e+00 2.7349008942e+00 4.7369873024e+00 
21800 5.9687254403e+00 -8.0900155898e-02 2.7363904040e+00 -4.7395672090e+00 2.7363904040e+00 4.7395672090e+00 
21900 5.9684905584e+00 -8.0333536642e-02 2.7378687646e+00 -4.7421278047e+00 2.7378687646e+00 4.7421278047e+00 
22000 5.9682601449e+00 -7.9766157373e-02 2.7393359771e+00 -4.7446690913e+00 2.7393359771e+00 4.7446690913e+00 
22100 5.9680341046e+00 -7.9198188890e-02 2.7407920457e+00 -4.7471910761e+00 2.7407920457e+00 4.7471910761e+00 
22200 5.9678123433e+00 -7.8629799304e-02 2.7422369773e+00 -4.7496937711e+00 2.7422369773e+00 4.7496937711e+00 
22300 5.9675947684e+00 -7.8061153977e-02 2.7436707820e+00 -4.7521771937e+00 2.7436707820e+00 4.7521771937e+00 
22400 5.9673812884e+00 -7.7492415466e-02 2.7450934727e+00 -4.7546413662e+00 2.7450934727e+00 4.7546413662e+00 
22500 5.9671718132e+00 -7.6923743468e-02 2.7465050649e+00 -4.7570863157e+00 2.7465050649e+00 4.7570863157e+00 
22600 5.9669662545e+00 -7.6355294769e-02 2.7479055771e+00 -4.7595120740e+00 2.7479055771e+00 4.7595120740e+00 
22700 5.9667645252e+00 -7.5787223189e-02 2.7492950304e+00 -4.7619186776e+00 2.7492950304e+00 4.7619186776e+00 
22800 5.9665665398e+00 -7.5219679537e-02 2.7506734483e+00 -4.7643061675e+00 2.7506734483e+00 4.7643061675e+00 
22900 5.9663722145e+00 -7.4652811563e-02 2.7520408572e+00 -4.7666745893e+00 2.7520408572e+00 4.7666745893e+00 
23000 5.9661814673e+00 -7.4086763915e-02 2.7533972859e+00 -4.7690239926e+00 2.7533972859e+00 4.7690239926e+00 
23100 5.9659942176e+00 -7.3521678097e-02 2.7547427654e+00 -4.7713544315e+00 2.7547427654e+00 4.7713544315e+00 
23200 5.9658103867e+00 -7.2957692431e-02 2.7560773294e+00 -4.7736659642e+00 2.7560773294e+00 4.7736659642e+00 
23300 5.9656298976e+00 -7.2394942019e-02 2.7574010138e+00 -4.7759586527e+00 2.7574010138e+00 4.7759586527e+00 
23400 5.9654526750e+00 -7.1833558711e-02 2.7587138566e+00 -4.7782325632e+00 2.7587138566e+00 4.7782325632e+00 
23500 5.9652786454e+00 -7.1273671073e-02 2.7600158983e+00 -4.7804877655e+00 2.7600158983e+00 4.7804877655e+00 
23600 5.9651077370e+00 -7.0715404356e-02 2.7613071812e+00 -4.7827243331e+00 2.7613071812e+00 4.7827243331e+00 
23700 5.9649398800e+00 -7.0158880476e-02 2.7625877498e+00 -4.7849423430e+00 2.7625877498e+00 4.7849423430e+00 
23800 5.9647750062e+00 -6.9604217986e-02 2.7638576507e+00 -4.7871418759e+00 2.7638576507e+00 4.7871418759e+00 
23900 5.9646130491e+00 -6.9051532057e-02 2.7651169323e+00 -4.7893230155e+00 2.7651169323e+00 4.7893230155e+00 
24000 5.9644539441e+00 -6.8500934464e-02 2.7663656448e+00 -4.7914858492e+00 2.7663656448e+00 4.7914858492e+00 
24100 5.9642976284e+00 -6.7952533566e-02 2.7676038406e+00 -4.7936304671e+00 2.7676038406e+00 4.7936304671e+00 
24200 5.9641440406e+00 -6.7406434297e-02 2.7688315733e+00 -4.7957569625e+00 2.7688315733e+00 4.7957569625e+00 
24300 5.9639931215e+00 -6.6862738159e-02 2.7700488985e+00 -4.7978654317e+00 2.7700488985e+00 4.7978654317e+00 
24400 5.9638448133e+00 -6.6321543215e-02 2.7712558734e+00 -4.7999559736e+00 2.7712558734e+00 4.7999559736e+00 
24500 5.9636990598e+00 -6.5782944084e-02 2.7724525568e+00 -4.8020286899e+00 2.7724525568e+00 4.8020286899e+00 
24600 5.9635558067e+00 -6.5247031944e-02 2.7736390087e+00 -4.8040836849e+00 2.7736390087e+00 4.8040836849e+00 
24700 5.9634150012e+00 -6.4713894533e-02 2.7748152908e+00 -4.8061210654e+00 2.7748152908e+00 4.8061210654e+00 
24800 5.9632765921e+00 -6.4183616156e-02 2.7759814662e+00 -4.8081409404e+00 2.7759814662e+00 4.8081409404e+00 
24900 5.9631405296e+00 -6.3656277694e-02 2.7771375991e+00 -4.8101434213e+00 2.7771375991e+00 4.8101434213e+00 
25000 5.9630067657e+00 -6.3131956614e-02 2.7782837550e+00 -4.8121286215e+00 2.7782837550e+00 4.8121286215e+00 
25100 5.9628752538e+00 -6.2610726984e-02 2.7794200007e+00 -4.8140966568e+00 2.7794200007e+00 4.8140966568e+00 
25200 5.9627459485e+00 -6.2092659493e-02 2.7805464039e+00 -4.8160476444e+00 2.7805464039e+00 4.8160476444e+00 
25300 5.9626188062e+00 -6.1577821464e-02 2.7816630336e+00 -4.8179817038e+00 2.7816630336e+00 4.8179817038e+00 
25400 5.9624937844e+00 -6.1066276887e-02 2.7827699596e+00 -4.8198989559e+00 2.7827699596e+00 4.8198989559e+00 
25500 5.9623708420e+00 -6.0558086434e-02 2.7838672528e+00 -4.8217995234e+00 2.7838672528e+00 4.8217995234e+00 
25600 5.9622499393e+00 -6.0053307495e-02 2.7849549848e+00 -4.8236835304e+00 2.7849549848e+00 4.8236835304e+00 
25700 5.9621310377e+00 -5.9551994205e-02 2.7860332281e+00 -4.8255511026e+00 2.7860332281e+00 4.8255511026e+00 
25800 5.9620140999e+00 -5.9054197476e-02 2.7871020559e+00 -4.8274023668e+00 2.7871020559e+00 4.8274023668e+00 
25900 5.9618990897e+00 -5.8559965037e-02 2.7881615424e+00 -4.8292374511e+00 2.7881615424e+00 4.8292374511e+00 
26000 5.9617859722e+00 -5.8069341468e-02 2.7892117620e+00 -4.8310564849e+00 2.7892117620e+00 4.8310564849e+00 
26100 5.9616747132e+00 -5.7582368242e-02 2.7902527901e+00 -4.8328595983e+00 2.7902527901e+00 4.8328595983e+00 
26200 5.9615652801e+00 -5.7099083768e-02 2.7912847022e+00 -4.8346469226e+00 2.7912847022e+00 4.8346469226e+00 
26300 5.9614576408e+00 -5.6619523436e-02 2.7923075748e+00 -4.8364185898e+00 2.7923075748e+00 4.8364185898e+00 
26400 5.9613517644e+00 -5.6143719661e-02 2.7933214844e+00 -4.8381747328e+00 2.7933214844e+00 4.8381747328e+00 
26500 5.9612476209e+00 -5.5671701937e-02 2.7943265080e+00 -4.8399154849e+00 2.7943265080e+00 4.8399154849e+00 
26600 5.9611451812e+00 -5.5203496883e-02 2.7953227232e+00 -4.8416409801e+00 2.7953227232e+00 4.8416409801e+00 
26700 5.9610444170e+00 -5.4739128299e-02 2.7963102075e+00 -4.8433513531e+00 2.7963102075e+00 4.8433513531e+00 
26800 5.9609453008e+00 -5.4278617216e-02 2.7972890388e+00 -4.8450467387e+00 2.7972890388e+00 4.8450467387e+00 
26900 5.9608478058e+00 -5.3821981959e-02 2.7982592952e+00 -4.8467272721e+00 2.7982592952e+00 4.8467272721e+00 
27000 5.9607519062e+00 -5.3369238198e-02 2.7992210550e+00 -4.8483930889e+00 2.7992210550e+00 4.8483930889e+00 
27100 5.9606575766e+00 -5.2920399011e-02 2.8001743964e+00 -4.8500443246e+00 2.8001743964e+00 4.8500443246e+00 
27200 5.9605647924e+00 -5.2475474939e-02 2.8011193978e+00 -4.8516811151e+00 2.8011193978e+00 4.8516811151e+00 
27300 5.9604735296e+00 -5.2034474057e-02 2.8020561376e+00 -4.8533035959e+00 2.8020561376e+00 4.8533035959e+00 
27400 5.9603837648e+00 -5.1597402026e-02 2.8029846940e+00 -4.8549119029e+00 2.8029846940e+00 4.8549119029e+00 
27500 5.9602954752e+00 -5.1164262165e-02 2.8039051455e+00 -4.8565061715e+00 2.8039051455e+00 4.8565061715e+00 
27600 5.9602086385e+00 -5.0735055509e-02 2.8048175700e+00 -4.8580865372e+00 2.8048175700e+00 4.8580865372e+00 
27700 5.9601232328e+00 -5.0309780881e-02 2.8057220456e+00 -4.8596531349e+00 2.8057220456e+00 4.8596531349e+00 
27800 5.9600392369e+00 -4.9888434953e-02 2.8066186501e+00 -4.8612060994e+00 2.8066186501e+00 4.8612060994e+00 
27900 5.9599566300e+00 -4.9471012315e-02 2.8075074610e+00 -4.8627455651e+00 2.8075074610e+00 4.8627455651e+00 
28000 5.9598753916e+00 -4.9057505542e-02 2.8083885557e+00 -4.8642716659e+00 2.8083885557e+00 4.8642716659e+00 
28100 5.9597955016e+00 -4.8647905262e-02 2.8092620112e+00 -4.8657845351e+00 2.8092620112e+00 4.8657845351e+00 
28200 5.9597169405e+00 -4.8242200222e-02 2.8101279041e+00 -4.8672843057e+00 2.8101279041e+00 4.8672843057e+00 
28300 5.9596396890e+00 -4.7840377360e-02 2.8109863109e+00 -4.8687711098e+00 2.8109863109e+00 4.8687711098e+00 
28400 5.9595637281e+00 -4.7442421870e-02 2.8118373074e+00 -4.8702450790e+00 2.8118373074e+00 4.8702450790e+00 
28500 5.9594890392e+00 -4.7048317273e-02 2.8126809692e+00 -4.8717063441e+00 2.8126809692e+00 4.8717063441e+00 
28600 5.9594156040e+00 -4.6658045481e-02 2.8135173713e+00 -4.8731550351e+00 2.8135173713e+00 4.8731550351e+00 
28700 5.9593434045e+00 -4.6271586873e-02 2.8143465885e+00 -4.8745912813e+00 2.8143465885e+00 4.8745912813e+00 
28800 5.9592724229e+00 -4.5888920353e-02 2.8151686947e+00 -4.8760152111e+00 2.8151686947e+00 4.8760152111e+00 
28900 5.9592026418e+00 -4.5510023425e-02 2.8159837637e+00 -4.8774269520e+00 2.8159837637e+00 4.8774269520e+00 
29000 5.9591340438e+00 -4.5134872259e-02 2.8167918685e+00 -4.8788266306e+00 2.8167918685e+00 4.8788266306e+00 
29100 5.9590666120e+00 -4.4763441753e-02 2.8175930816e+00 -4.8802143724e+00 2.8175930816e+00 4.8802143724e+00 
29200 5.9590003296e+00 -4.4395705605e-02 2.8183874750e+00 -4.8815903021e+00 2.8183874750e+00 4.8815903021e+00 
29300 5.9589351799e+00 -4.4031636375e-02 2.8191751199e+00 -4.8829545431e+00 2.8191751199e+00 4.8829545431e+00 
29400 5.9588711465e+00 -4.3671205552e-02 2.8199560872e+00 -4.8843072181e+00 2.8199560872e+00 4.8843072181e+00 
29500 5.9588082134e+00 -4.3314383613e-02 2.8207304468e+00 -4.8856484483e+00 2.8207304468e+00 4.8856484483e+00 
29600 5.9587463643e+00 -4.2961140094e-02 2.8214982683e+00 -4.8869783541e+00 2.8214982683e+00 4.8869783541e+00 
29700 5.9586855835e+00 -4.2611443643e-02 2.8222596203e+00 -4.8882970546e+00 2.8222596203e+00 4.8882970546e+00 
29800 5.9586258553e+00 -4.2265262090e-02 2.8230145711e+00 -4.8896046677e+00 2.8230145711e+00 4.8896046677e+00 
29900 5.9585671641e+00 -4.1922562499e-02 2.8237631881e+00 -4.8909013103e+00 2.8237631881e+00 4.8909013103e+00 
30000 5.9585094946e+00 -4.1583311232e-02 2.8245055378e+00 -4.8921870978e+00 2.8245055378e+00 4.8921870978e+00 
30100 5.9584528316e+00 -4.1247474008e-02 2.8252416864e+00 -4.8934621446e+00 2.8252416864e+00 4.8934621446e+00 
30200 5.9583971600e+00 -4.0915015953e-02 2.8259716992e+00 -4.8947265638e+00 2.8259716992e+00 4.8947265638e+00 
30300 5.9583424649e+00 -4.0585901662e-02 2.8266956407e+00 -4.8959804672e+00 2.8266956407e+00 4.8959804672e+00 
30400 5.9582887314e+00 -4.0260095251e-02 2.8274135747e+00 -4.8972239654e+00 2.8274135747e+00 4.8972239654e+00 
30500 5.9582359450e+00 -3.9937560408e-02 2.8281255644e+00 -4.8984571677e+00 2.8281255644e+00 4.8984571677e+00 
30600 5.9581840910e+00 -3.9618260446e-02 2.8288316720e+00 -4.8996801820e+00 2.8288316720e+00 4.8996801820e+00 
30700 5.9581331552e+00 -3.9302158353e-02 2.8295319592e+00 -4.9008931151e+00 2.8295319592e+00 4.9008931151e+00 
30800 5.9580831233e+00 -3.8989216843e-02 2.8302264869e+00 -4.9020960723e+00 2.8302264869e+00 4.9020960723e+00 
30900 5.9580339811e+00 -3.8679398397e-02 2.8309153152e+00 -4.9032891578e+00 2.8309153152e+00 4.9032891578e+00 
31000 5.9579857148e+00 -3.8372665315e-02 2.8315985033e+00 -4.9044724743e+00 2.8315985033e+00 4.9044724743e+00 
31100 5.9579383103e+00 -3.8068979758e-02 2.8322761099e+00 -4.9056461233e+00 2.8322761099e+00 4.9056461233e+00 
31200 5.9578917540e+00 -3.7768303789e-02 2.8329481927e+00 -4.9068102050e+00 2.8329481927e+00 4.9068102050e+00 
31300 5.9578460323e+00 -3.7470599419e-02 2.8336148089e+00 -4.9079648182e+00 2.8336148089e+00 4.9079648182e+00 
31400 5.9578011318e+00 -3.7175828640e-02 2.8342760148e+00 -4.9091100604e+00 2.8342760148e+00 4.9091100604e+00 
31500 5.9577570391e+00 -3.6883953472e-02 2.8349318660e+00 -4.9102460278e+00 2.8349318660e+00 4.9102460278e+00 
31600 5.9577137409e+00 -3.6594935991e-02 2.8355824171e+00 -4.9113728155e+00 2.8355824171e+00 4.9113728155e+00 
31700 5.9576712242e+00 -3.6308738370e-02 2.8362277223e+00 -4.9124905169e+00 2.8362277223e+00 4.9124905169e+00 
31800 5.9576294761e+00 -3.6025322912e-02 2.8368678350e+00 -4.9135992245e+00 2.8368678350e+00 4.9135992245e+00 
31900 5.9575884838e+00 -3.5744652081e-02 2.8375028076e+00 -4.9146990293e+00 2.8375028076e+00 4.9146990293e+00 
32000 5.9575482345e+00 -3.5466688533e-02 2.8381326920e+00 -4.9157900211e+00 2.8381326920e+00 4.9157900211e+00 
32100 5.9575087157e+00 -3.5191395145e-02 2.8387575392e+00 -4.9168722883e+00 2.8387575392e+00 4.9168722883e+00 
32200 5.9574699151e+00 -3.4918735045e-02 2.8393773998e+00 -4.9179459183e+00 2.8393773998e+00 4.9179459183e+00 
32300 5.9574318203e+00 -3.4648671636e-02 2.8399923232e+00 -4.9190109969e+00 2.8399923232e+00 4.9190109969e+00 
32400 5.9573944192e+00 -3.4381168621e-02 2.8406023585e+00 -4.9200676091e+00 2.8406023585e+00 4.9200676091e+00 
32500 5.9573576998e+00 -3.4116190030e-02 2.8412075539e+00 -4.9211158382e+00 2.8412075539e+00 4.9211158382e+00 
32600 5.9573216503e+00 -3.3853700235e-02 2.8418079569e+00 -4.9221557667e+00 2.8418079569e+00 4.9221557667e+00 
32700 5.9572862588e+00 -3.3593663980e-02 2.8424036144e+00 -4.9231874757e+00 2.8424036144e+00 4.9231874757e+00 
32800 5.9572515139e+00 -3.3336046392e-02 2.8429945725e+00 -4.9242110452e+00 2.8429945725e+00 4.9242110452e+00 
32900 5.9572174041e+00 -3.3080813004e-02 2.8435808767e+00 -4.9252265538e+00 2.8435808767e+00 4.9252265538e+00 
33000 5.9571839181e+00 -3.2827929769e-02 2.8441625717e+00 -4.9262340792e+00 2.8441625717e+00 4.9262340792e+00 
33100 5.9571510446e+00 -3.2577363076e-02 2.8447397019e+00 -4.9272336980e+00 2.8447397019e+00 4.9272336980e+00 
33200 5.9571187728e+00 -3.2329079768e-02 2.8453123106e+00 -4.9282254854e+00 2.8453123106e+00 4.9282254854e+00 
33300 5.9570870917e+00 -3.2083047147e-02 2.8458804408e+00 -4.9292095157e+00 2.8458804408e+00 4.9292095157e+00 
33400 5.9570559907e+00 -3.1839232994e-02 2.8464441346e+00 -4.9301858621e+00 2.8464441346e+00 4.9301858621e+00 
33500 5.9570254590e+00 -3.1597605573e-02 2.8470034338e+00 -4.9311545967e+00 2.8470034338e+00 4.9311545967e+00 
33600 5.9569954862e+00 -3.1358133645e-02 2.8475583792e+00 -4.9321157904e+00 2.8475583792e+00 4.9321157904e+00 
33700 5.9569660622e+00 -3.1120786473e-02 2.8481090114e+00 -4.9330695132e+00 2.8481090114e+00 4.9330695132e+00 
33800 5.9569371766e+00 -3.0885533832e-02 2.8486553701e+00 -4.9340158342e+00 2.8486553701e+00 4.9340158342e+00 
33900 5.9569088195e+00 -3.0652346012e-02 2.8491974945e+00 -4.9349548213e+00 2.8491974945e+00 4.9349548213e+00 
34000 5.9568809810e+00 -3.0421193827e-02 2.8497354233e+00 -4.9358865414e+00 2.8497354233e+00 4.9358865414e+00 
34100 5.9568536514e+00 -3.0192048616e-02 2.8502691947e+00 -4.9368110605e+00 2.8502691947e+00 4.9368110605e+00 
34200 5.9568268211e+00 -2.9964882246e-02 2.8507988461e+00 -4.9377284437e+00 2.8507988461e+00 4.9377284437e+00 
34300 5.9568004807e+00 -2.9739667119e-02 2.8513244147e+00 -4.9386387551e+00 2.8513244147e+00 4.9386387551e+00 
34400 5.9567746208e+00 -2.9516376168e-02 2.8518459368e+00 -4.9395420578e+00 2.8518459368e+00 4.9395420578e+00 
34500 5.9567492323e+00 -2.9294982861e-02 2.8523634484e+00 -4.9404384143e+00 2.8523634484e+00 4.9404384143e+00 
34600 5.9567243063e+00 -2.9075461198e-02 2.8528769850e+00 -4.9413278858e+00 2.8528769850e+00 4.9413278858e+00 
34700 5.9566998337e+00 -2.8857785714e-02 2.8533865816e+00 -4.9422105329e+00 2.8533865816e+00 4.9422105329e+00 
34800 5.9566758060e+00 -2.8641931473e-02 2.8538922726e+00 -4.9430864154e+00 2.8538922726e+00 4.9430864154e+00 
34900 5.9566522144e+00 -2.8427874071e-02 2.8543940920e+00 -4.9439555921e+00 2.8543940920e+00 4.9439555921e+00 
35000 5.9566290506e+00 -2.8215589628e-02 2.8548920733e+00 -4.9448181211e+00 2.8548920733e+00 4.9448181211e+00 
35100 5.9566063062e+00 -2.8005054786e-02 2.8553862497e+00 -4.9456740597e+00 2.8553862497e+00 4.9456740597e+00 
35200 5.9565839731e+00 -2.7796246706e-02 2.8558766537e+00 -4.9465234643e+00 2.8558766537e+00 4.9465234643e+00 
35300 5.9565620432e+00 -2.7589143063e-02 2.8563633175e+00 -4.9473663908e+00 2.8563633175e+00 4.9473663908e+00 
35400 5.9565405087e+00 -2.7383722039e-02 2.8568462729e+00 -4.9482028940e+00 2.8568462729e+00 4.9482028940e+00 
35500 5.9565193617e+00 -2.7179962320e-02 2.8573255511e+00 -4.9490330283e+00 2.8573255511e+00 4.9490330283e+00 
35600 5.9564985946e+00 -2.6977843087e-02 2.8578011833e+00 -4.9498568473e+00 2.8578011833e+00 4.9498568473e+00 
35700 5.9564781999e+00 -2.6777344011e-02 2.8582731998e+00 -4.9506744039e+00 2.8582731998e+00 4.9506744039e+00 
35800 5.9564581702e+00 -2.6578445248e-02 2.8587416308e+00 -4.9514857502e+00 2.8587416308e+00 4.9514857502e+00 
35900 5.9564384983e+00 -2.6381127425e-02 2.8592065060e+00 -4.9522909378e+00 2.8592065060e+00 4.9522909378e+00 
36000 5.9564191772e+00 -2.6185371640e-02 2.8596678549e+00 -4.9530900175e+00 2.8596678549e+00 4.9530900175e+00 
36100 5.9564001997e+00 -2.5991159450e-02 2.8601257065e+00 -4.9538830398e+00 2.8601257065e+00 4.9538830398e+00 
36200 5.9563815591e+00 -2.5798472863e-02 2.8605800895e+00 -4.9546700541e+00 2.8605800895e+00 4.9546700541e+00 
36300 5.9563632485e+00 -2.5607294330e-02 2.8610310321e+00 -4.9554511097e+00 2.8610310321e+00 4.9554511097e+00 
36400 5.9563452615e+00 -2.5417606734e-02 2.8614785624e+00 -4.9562262549e+00 2.8614785624e+00 4.9562262549e+00 
36500 5.9563275914e+00 -2.5229393387e-02 2.8619227081e+00 -4.9569955377e+00 2.8619227081e+00 4.9569955377e+00 
36600 5.9563102320e+00 -2.5042638015e-02 2.8623634964e+00 -4.9577590054e+00 2.8623634964e+00 4.9577590054e+00 
36700 5.9562931770e+00 -2.4857324748e-02 2.8628009544e+00 -4.9585167049e+00 2.8628009544e+00 4.9585167049e+00 
36800 5.9562764202e+00 -2.4673438118e-02 2.8632351088e+00 -4.9592686824e+00 2.8632351088e+00 4.9592686824e+00 
36900 5.9562599556e+00 -2.4490963041e-02 2.8636659860e+00 -4.9600149837e+00 2.8636659860e+00 4.9600149837e+00 
37000 5.9562437774e+00 -2.4309884813e-02 2.8640936122e+00 -4.9607556540e+00 2.8640936122e+00 4.9607556540e+00 
37100 5.9562278797e+00 -2.4130189098e-02 2.8645180132e+00 -4.9614907381e+00 2.8645180132e+00 4.9614907381e+00 
37200 5.9562122569e+00 -2.3951861917e-02 2.8649392146e+00 -4.9622202804e+00 2.8649392146e+00 4.9622202804e+00 
37300 5.9561969033e+00 -2.3774889643e-02 2.8653572417e+00 -4.9629443245e+00 2.8653572417e+00 4.9629443245e+00 
37400 5.9561818137e+00 -2.3599258986e-02 2.8657721196e+00 -4.9636629140e+00 2.8657721196e+00 4.9636629140e+00 
37500 5.9561669825e+00 -2.3424956986e-02 2.8661838729e+00 -4.9643760917e+00 2.8661838729e+00 4.9643760917e+00 
37600 5.9561524045e+00 -2.3251971002e-02 2.8665925262e+00 -4.9650839001e+00 2.8665925262e+00 4.9650839001e+00 
37700 5.9561380747e+00 -2.3080288706e-02 2.8669981039e+00 -4.9657863812e+00 2.8669981039e+00 4.9657863812e+00 
37800 5.9561239879e+00 -2.2909898066e-02 2.8674006300e+00 -4.9664835768e+00 2.8674006300e+00 4.9664835768e+00 
37900 5.9561101392e+00 -2.2740787344e-02 2.8678001282e+00 -4.9671755280e+00 2.8678001282e+00 4.9671755280e+00 
38000 5.9560965239e+00 -2.2572945083e-02 2.8681966222e+00 -4.9678622758e+00 2.8681966222e+00 4.9678622758e+00 
38100 5.9560831370e+00 -2.2406360097e-02 2.8685901354e+00 -4.9685438606e+00 2.8685901354e+00 4.9685438606e+00 
38200 5.9560699741e+00 -2.2241021465e-02 2.8689806908e+00 -4.9692203224e+00 2.8689806908e+00 4.9692203224e+00 
38300 5.9560570305e+00 -2.2076918518e-02 2.8693683114e+00 -4.9698917010e+00 2.8693683114e+00 4.9698917010e+00 
38400 5.9560443019e+00 -2.1914040831e-02 2.8697530200e+00 -4.9705580358e+00 2.8697530200e+00 4.9705580358e+00 
38500 5.9560317837e+00 -2.1752378216e-02 2.8701348390e+00 -4.9712193658e+00 2.8701348390e+00 4.9712193658e+00 
38600 5.9560194718e+00 -2.1591920713e-02 2.8705137909e+00 -4.9718757296e+00 2.8705137909e+00 4.9718757296e+00 
38700 5.9560073620e+00 -2.1432658579e-02 2.8708898976e+00 -4.9725271656e+00 2.8708898976e+00 4.9725271656e+00 
38800 5.9559954502e+00 -2.1274582282e-02 2.8712631812e+00 -4.9731737118e+00 2.8712631812e+00 4.9731737118e+00 
38900 5.9559837323e+00 -2.1117682490e-02 2.8716336634e+00 -4.9738154058e+00 2.8716336634e+00 4.9738154058e+00 
39000 5.9559722044e+00 -2.0961950069e-02 2.8720013659e+00 -4.9744522851e+00 2.8720013659e+00 4.9744522851e+00 
39100 5.9559608628e+00 -2.0807376066e-02 2.8723663099e+00 -4.9750843867e+00 2.8723663099e+00 4.9750843867e+00 
39200 5.9559497035e+00 -2.0653951709e-02 2.8727285167e+00 -4.9757117473e+00 2.8727285167e+00 4.9757117473e+00 
39300 5.9559387230e+00 -2.0501668397e-02 2.8730880074e+00 -4.9763344034e+00 2.8730880074e+00 4.9763344034e+00 
39400 5.9559279176e+00 -2.0350517691e-02 2.8734448028e+00 -4.9769523912e+00 2.8734448028e+00 4.9769523912e+00 
39500 5.9559172839e+00 -2.0200491309e-02 2.8737989237e+00 -4.9775657465e+00 2.8737989237e+00 4.9775657465e+00 
39600 5.9559068182e+00 -2.0051581117e-02 2.8741503906e+00 -4.9781745050e+00 2.8741503906e+00 4.9781745050e+00 
39700 5.9558965173e+00 -1.9903779126e-02 2.8744992238e+00 -4.9787787020e+00 2.8744992238e+00 4.9787787020e+00 
39800 5.9558863779e+00 -1.9757077481e-02 2.8748454438e+00 -4.9793783725e+00 2.8748454438e+00 4.9793783725e+00 
39900 5.9558763967e+00 -1.9611468457e-02 2.8751890704e+00 -4.9799735514e+00 2.8751890704e+00 4.9799735514e+00 
40000 5.9558665706e+00 -1.9466944453e-02 2.8755301238e+00 -4.9805642731e+00 2.8755301238e+00 4.9805642731e+00 
40100 5.9558568964e+00 -1.9323497985e-02 2.8758686235e+00 -4.9811505719e+00 2.8758686235e+00 4.9811505719e+00 
40200 5.9558473712e+00 -1.9181121682e-02 2.8762045894e+00 -4.9817324818e+00 2.8762045894e+00 4.9817324818e+00 
40300 5.9558379919e+00 -1.9039808278e-02 2.8765380409e+00 -4.9823100367e+00 2.8765380409e+00 4.9823100367e+00 
40400 5.9558287557e+00 -1.8899550609e-02 2.8768689973e+00 -4.9828832700e+00 2.8768689973e+00 4.9828832700e+00 
40500 5.9558196597e+00 -1.8760341605e-02 2.8771974778e+00 -4.9834522150e+00 2.8771974778e+00 4.9834522150e+00 
40600 5.9558107012e+00 -1.8622174288e-02 2.8775235016e+00 -4.9840169048e+00 2.8775235016e+00 4.9840169048e+00 
40700 5.9558018774e+00 -1.8485041768e-02 2.8778470875e+00 -4.9845773721e+00 2.8778470875e+00 4.9845773721e+00 
40800 5.9557931857e+00 -1.8348937233e-02 2.8781682545e+00 -4.9851336495e+00 2.8781682545e+00 4.9851336495e+00 
40900 5.9557846235e+00 -1.8213853951e-02 2.8784870210e+00 -4.9856857693e+00 2.8784870210e+00 4.9856857693e+00 
41000 5.9557761883e+00 -1.8079785262e-02 2.8788034058e+00 -4.9862337638e+00 2.8788034058e+00 4.9862337638e+00 
41100 5.9557678776e+00 -1.7946724574e-02 2.8791174271e+00 -4.9867776647e+00 2.8791174271e+00 4.9867776647e+00 
41200 5.9557596889e+00 -1.7814665362e-02 2.8794291033e+00 -4.9873175037e+00 2.8794291033e+00 4.9873175037e+00 
41300 5.9557516199e+00 -1.7683601162e-02 2.8797384526e+00 -4.9878533124e+00 2.8797384526e+00 4.9878533124e+00 
41400 5.9557436682e+00 -1.7553525567e-02 2.8800454929e+00 -4.9883851218e+00 2.8800454929e+00 4.9883851218e+00 
41500 5.9557358317e+00 -1.7424432226e-02 2.8803502421e+00 -4.9889129630e+00 2.8803502421e+00 4.9889129630e+00 
41600 5.9557281080e+00 -1.7296314840e-02 2.8806527181e+00 -4.9894368668e+00 2.8806527181e+00 4.9894368668e+00 
41700 5.9557204950e+00 -1.7169167157e-02 2.8809529386e+00 -4.9899568638e+00 2.8809529386e+00 4.9899568638e+00 
41800 5.9557129907e+00 -1.7042982973e-02 2.8812509209e+00 -4.9904729844e+00 2.8812509209e+00 4.9904729844e+00 
41900 5.9557055928e+00 -1.6917756125e-02 2.8815466826e+00 -4.9909852587e+00 2.8815466826e+00 4.9909852587e+00 
42000 5.9556982995e+00 -1.6793480494e-02 2.8818402410e+00 -4.9914937167e+00 2.8818402410e+00 4.9914937167e+00 
42100 5.9556911086e+00 -1.6670149996e-02 2.8821316132e+00 -4.9919983882e+00 2.8821316132e+00 4.9919983882e+00 
42200 5.9556840183e+00 -1.6547758585e-02 2.8824208164e+00 -4.9924993027e+00 2.8824208164e+00 4.9924993027e+00 
42300 5.9556770267e+00 -1.6426300251e-02 2.8827078673e+00 -4.9929964896e+00 2.8827078673e+00 4.9929964896e+00 
42400 5.9556701319e+00 -1.6305769011e-02 2.8829927829e+00 -4.9934899779e+00 2.8829927829e+00 4.9934899779e+00 
42500 5.9556633322e+00 -1.6186158918e-02 2.8832755800e+00 -4.9939797967e+00 2.8832755800e+00 4.9939797967e+00 
42600 5.9556566257e+00 -1.6067464052e-02 2.8835562750e+00 -4.9944659748e+00 2.8835562750e+00 4.9944659748e+00 
42700 5.9556500107e+00 -1.5949678518e-02 2.8838348845e+00 -4.9949485405e+00 2.8838348845e+00 4.9949485405e+00 
42800 5.9556434855e+00 -1.5832796449e-02 2.8841114248e+00 -4.9954275225e+00 2.8841114248e+00 4.9954275225e+00 
42900 5.9556370485e+00 -1.5716812003e-02 2.8843859123e+00 -4.9959029487e+00 2.8843859123e+00 4.9959029487e+00 
43000 5.9556306980e+00 -1.5601719360e-02 2.8846583630e+00 -4.9963748471e+00 2.8846583630e+00 4.9963748471e+00 
43100 5.9556244326e+00 -1.5487512723e-02 2.8849287930e+00 -4.9968432456e+00 2.8849287930e+00 4.9968432456e+00 
43200 5.9556182505e+00 -1.5374186315e-02 2.8851972182e+00 -4.9973081717e+00 2.8851972182e+00 4.9973081717e+00 
43300 5.9556121504e+00 -1.5261734379e-02 2.8854636544e+00 -4.9977696529e+00 2.8854636544e+00 4.9977696529e+00 
43400 5.9556061307e+00 -1.5150151181e-02 2.8857281174e+00 -4.9982277162e+00 2.8857281174e+00 4.9982277162e+00 
43500 5.9556001900e+00 -1.5039431001e-02 2.8859906228e+00 -4.9986823888e+00 2.8859906228e+00 4.9986823888e+00 
43600 5.9555943269e+00 -1.4929568139e-02 2.8862511859e+00 -4.9991336975e+00 2.8862511859e+00 4.9991336975e+00 
43700 5.9555885400e+00 -1.4820556914e-02 2.8865098223e+00 -4.9995816688e+00 2.8865098223e+00 4.9995816688e+00 
43800 5.9555828279e+00 -1.4712391660e-02 2.8867665472e+00 -5.0000263293e+00 2.8867665472e+00 5.0000263293e+00 
43900 5.9555771894e+00 -1.4605066728e-02 2.8870213757e+00 -5.0004677052e+00 2.8870213757e+00 5.0004677052e+00 
44000 5.9555716231e+00 -1.4498576485e-02 2.8872743229e+00 -5.0009058226e+00 2.8872743229e+00 5.0009058226e+00 
44100 5.9555661277e+00 -1.4392915315e-02 2.8875254038e+00 -5.0013407074e+00 2.8875254038e+00 5.0013407074e+00 
44200 5.9555607022e+00 -1.4288077615e-02 2.8877746331e+00 -5.0017723854e+00 2.8877746331e+00 5.0017723854e+00 
44300 5.9555553451e+00 -1.4184057801e-02 2.8880220257e+00 -5.0022008819e+00 2.8880220257e+00 5.0022008819e+00 
44400 5.9555500554e+00 -1.4080850302e-02 2.8882675962e+00 -5.0026262225e+00 2.8882675962e+00 5.0026262225e+00 
44500 5.9555448318e+00 -1.3978449563e-02 2.8885113591e+00 -5.0030484322e+00 2.8885113591e+00 5.0030484322e+00 
44600 5.9555396734e+00 -1.3876850044e-02 2.8887533288e+00 -5.0034675360e+00 2.8887533288e+00 5.0034675360e+00 
44700 5.9555345789e+00 -1.3776046221e-02 2.8889935196e+00 -5.0038835587e+00 2.8889935196e+00 5.0038835587e+00 
44800 5.9555295472e+00 -1.3676032583e-02 2.8892319458e+00 -5.0042965250e+00 2.8892319458e+00 5.0042965250e+00 
44900 5.9555245774e+00 -1.3576803638e-02 2.8894686215e+00 -5.0047064594e+00 2.8894686215e+00 5.0047064594e+00 
45000 5.9555196684e+00 -1.3478353907e-02 2.8897035607e+00 -5.0051133860e+00 2.8897035607e+00 5.0051133860e+00 
45100 5.9555148191e+00 -1.3380677926e-02 2.8899367773e+00 -5.0055173289e+00 2.8899367773e+00 5.0055173289e+00 
45200 5.9555100286e+00 -1.3283770250e-02 2.8901682850e+00 -5.0059183121e+00 2.8901682850e+00 5.0059183121e+00 
45300 5.9555052959e+00 -1.3187625447e-02 2.8903980977e+00 -5.0063163594e+00 2.8903980977e+00 5.0063163594e+00 
45400 5.9555006200e+00 -1.3092238103e-02 2.8906262289e+00 -5.0067114942e+00 2.8906262289e+00 5.0067114942e+00 
45500 5.9554960001e+00 -1.2997602820e-02 2.8908526921e+00 -5.0071037399e+00 2.8908526921e+00 5.0071037399e+00 
45600 5.9554914352e+00 -1.2903714217e-02 2.8910775007e+00 -5.0074931199e+00 2.8910775007e+00 5.0074931199e+00 
45700 5.9554869245e+00 -1.2810566930e-02 2.8913006680e+00 -5.0078796570e+00 2.8913006680e+00 5.0078796570e+00 
45800 5.9554824670e+00 -1.2718155613e-02 2.8915222073e+00 -5.0082633742e+00 2.8915222073e+00 5.0082633742e+00 
45900 5.9554780619e+00 -1.2626474937e-02 2.8917421315e+00 -5.0086442942e+00 2.8917421315e+00 5.0086442942e+00 
46000 5.9554737083e+00 -1.2535519591e-02 2.8919604538e+00 -5.0090224394e+00 2.8919604538e+00 5.0090224394e+00 
46100 5.9554694056e+00 -1.2445284284e-02 2.8921771870e+00 -5.0093978323e+00 2.8921771870e+00 5.0093978323e+00 
46200 5.9554651528e+00 -1.2355763742e-02 2.8923923439e+00 -5.0097704950e+00 2.8923923439e+00 5.0097704950e+00 
46300 5.9554609492e+00 -1.2266952712e-02 2.8926059372e+00 -5.0101404496e+00 2.8926059372e+00 5.0101404496e+00 
46400 5.9554567939e+00 -1.2178845958e-02 2.8928179796e+00 -5.0105077178e+00 2.8928179796e+00 5.0105077178e+00 
46500 5.9554526864e+00 -1.2091438265e-02 2.8930284836e+00 -5.0108723214e+00 2.8930284836e+00 5.0108723214e+00 
46600 5.9554486258e+00 -1.2004724441e-02 2.8932374616e+00 -5.0112342818e+00 2.8932374616e+00 5.0112342818e+00 
46700 5.9554446113e+00 -1.1918699310e-02 2.8934449258e+00 -5.0115936205e+00 2.8934449258e+00 5.0115936205e+00 
46800 5.9554406424e+00 -1.1833357719e-02 2.8936508887e+00 -5.0119503585e+00 2.8936508887e+00 5.0119503585e+00 
46900 5.9554367183e+00 -1.1748694539e-02 2.8938553621e+00 -5.0123045170e+00 2.8938553621e+00 5.0123045170e+00 
47000 5.9554328384e+00 -1.1664704658e-02 2.8940583583e+00 -5.0126561167e+00 2.8940583583e+00 5.0126561167e+00 
47100 5.9554290019e+00 -1.1581382989e-02 2.8942598891e+00 -5.0130051783e+00 2.8942598891e+00 5.0130051783e+00 
47200 5.9554252082e+00 -1.1498724467e-02 2.8944599665e+00 -5.0133517224e+00 2.8944599665e+00 5.0133517224e+00 
47300 5.9554214568e+00 -1.1416724049e-02 2.8946586021e+00 -5.0136957694e+00 2.8946586021e+00 5.0136957694e+00 
47400 5.9554177469e+00 -1.1335376716e-02 2.8948558076e+00 -5.0140373394e+00 2.8948558076e+00 5.0140373394e+00 
47500 5.9554140779e+00 -1.1254677473e-02 2.8950515947e+00 -5.0143764525e+00 2.8950515947e+00 5.0143764525e+00 
47600 5.9554104494e+00 -1.1174621346e-02 2.8952459747e+00 -5.0147131285e+00 2.8952459747e+00 5.0147131285e+00 
47700 5.9554068606e+00 -1.1095203388e-02 2.8954389591e+00 -5.0150473873e+00 2.8954389591e+00 5.0150473873e+00 
47800 5.9554033110e+00 -1.1016418675e-02 2.8956305591e+00 -5.0153792483e+00 2.8956305591e+00 5.0153792483e+00 
47900 5.9553998000e+00 -1.0938262309e-02 2.8958207861e+00 -5.0157087311e+00 2.8958207861e+00 5.0157087311e+00 
48000 5.9553963272e+00 -1.0860729414e-02 2.8960096510e+00 -5.0160358548e+00 2.8960096510e+00 5.0160358548e+00 
48100 5.9553928919e+00 -1.0783815143e-02 2.8961971650e+00 -5.0163606385e+00 2.8961971650e+00 5.0163606385e+00 
48200 5.9553894936e+00 -1.0707514671e-02 2.8963833390e+00 -5.0166831013e+00 2.8963833390e+00 5.0166831013e+00 
48300 5.9553861318e+00 -1.0631823201e-02 2.8965681838e+00 -5.0170032619e+00 2.8965681838e+00 5.0170032619e+00 
48400 5.9553828060e+00 -1.0556735962e-02 2.8967517102e+00 -5.0173211390e+00 2.8967517102e+00 5.0173211390e+00 
48500 5.9553795157e+00 -1.0482248209e-02 2.8969339289e+00 -5.0176367510e+00 2.8969339289e+00 5.0176367510e+00 
48600 5.9553762603e+00 -1.0408355222e-02 2.8971148505e+00 -5.0179501164e+00 2.8971148505e+00 5.0179501164e+00 
48700 5.9553730395e+00 -1.0335052308e-02 2.8972944855e+00 -5.0182612533e+00 2.8972944855e+00 5.0182612533e+00 
48800 5.9553698528e+00 -1.0262334804e-02 2.8974728442e+00 -5.0185701798e+00 2.8974728442e+00 5.0185701798e+00 
48900 5.9553666996e+00 -1.0190198070e-02 2.8976499372e+00 -5.0188769137e+00 2.8976499372e+00 5.0188769137e+00 
49000 5.9553635796e+00 -1.0118637494e-02 2.8978257745e+00 -5.0191814729e+00 2.8978257745e+00 5.0191814729e+00 
49100 5.9553604922e+00 -1.0047648494e-02 2.8980003664e+00 -5.0194838750e+00 2.8980003664e+00 5.0194838750e+00 
49200 5.9553574371e+00 -9.9772265134e-03 2.8981737230e+00 -5.0197841374e+00 2.8981737230e+00 5.0197841374e+00 
49300 5.9553544138e+00 -9.9073670226e-03 2.8983458543e+00 -5.0200822775e+00 2.8983458543e+00 5.0200822775e+00 
49400 5.9553514219e+00 -9.8380655212e-03 2.8985167701e+00 -5.0203783124e+00 2.8985167701e+00 5.0203783124e+00 
49500 5.9553484610e+00 -9.7693175362e-03 2.8986864804e+00 -5.0206722592e+00 2.8986864804e+00 5.0206722592e+00 
49600 5.9553455307e+00 -9.7011186226e-03 2.8988549948e+00 -5.0209641348e+00 2.8988549948e+00 5.0209641348e+00 
49700 5.9553426306e+00 -9.6334643633e-03 2.8990223232e+00 -5.0212539560e+00 2.8990223232e+00 5.0212539560e+00 
49800 5.9553397602e+00 -9.5663503696e-03 2.8991884750e+00 -5.0215417394e+00 2.8991884750e+00 5.0215417394e+00 
49900 5.9553369193e+00 -9.4997722809e-03 2.8993534598e+00 -5.0218275015e+00 2.8993534598e+00 5.0218275015e+00 
50000 5.9553341074e+00 -9.4337257650e-03 2.8995172871e+00 -5.0221112586e+00 2.8995172871e+00 5.0221112586e+00 
50100 5.9553313242e+00 -9.3682065178e-03 2.8996799661e+00 -5.0223930270e+00 2.8996799661e+00 5.0223930270e+00 
50200 5.9553285692e+00 -9.3032102638e-03 2.8998415062e+00 -5.0226728227e+00 2.8998415062e+00 5.0226728227e+00 
50300 5.9553258422e+00 -9.2387327558e-03 2.9000019166e+00 -5.0229506617e+00 2.9000019166e+00 5.0229506617e+00 
50400 5.9553231428e+00 -9.1747697749e-03 2.9001612065e+00 -5.0232265598e+00 2.9001612065e+00 5.0232265598e+00 
50500 5.9553204706e+00 -9.1113171309e-03 2.9003193848e+00 -5.0235005327e+00 2.9003193848e+00 5.0235005327e+00 
50600 5.9553178254e+00 -9.0483706617e-03 2.9004764606e+00 -5.0237725959e+00 2.9004764606e+00 5.0237725959e+00 
50700 5.9553152067e+00 -8.9859262338e-03 2.9006324428e+00 -5.0240427650e+00 2.9006324428e+00 5.0240427650e+00 
50800 5.9553126143e+00 -8.9239797420e-03 2.9007873401e+00 -5.0243110551e+00 2.9007873401e+00 5.0243110551e+00 
50900 5.9553100478e+00 -8.8625271095e-03 2.9009411615e+00 -5.0245774814e+00 2.9009411615e+00 5.0245774814e+00 
51000 5.9553075069e+00 -8.8015642879e-03 2.9010939154e+00 -5.0248420590e+00 2.9010939154e+00 5.0248420590e+00 
51100 5.9553049914e+00 -8.7410872569e-03 2.9012456106e+00 -5.0251048028e+00 2.9012456106e+00 5.0251048028e+00 
51200 5.9553025008e+00 -8.6810920246e-03 2.9013962556e+00 -5.0253657276e+00 2.9013962556e+00 5.0253657276e+00 
51300 5.9553000349e+00 -8.6215746272e-03 2.9015458589e+00 -5.0256248481e+00 2.9015458589e+00 5.0256248481e+00 
51400 5.9552975934e+00 -8.5625311291e-03 2.9016944288e+00 -5.0258821787e+00 2.9016944288e+00 5.0258821787e+00 
51500 5.9552951761e+00 -8.5039576226e-03 2.9018419737e+00 -5.0261377340e+00 2.9018419737e+00 5.0261377340e+00 
51600 5.9552927826e+00 -8.4458502281e-03 2.9019885018e+00 -5.0263915281e+00 2.9019885018e+00 5.0263915281e+00 
51700 5.9552904126e+00 -8.3882050938e-03 2.9021340214e+00 -5.0266435754e+00 2.9021340214e+00 5.0266435754e+00 
51800 5.9552880659e+00 -8.3310183957e-03 2.9022785404e+00 -5.0268938897e+00 2.9022785404e+00 5.0268938897e+00 
51900 5.9552857422e+00 -8.2742863375e-03 2.9024220671e+00 -5.0271424852e+00 2.9024220671e+00 5.0271424852e+00 
52000 5.9552834413e+00 -8.2180051506e-03 2.9025646093e+00 -5.0273893756e+00 2.9025646093e+00 5.0273893756e+00 
52100 5.9552811628e+00 -8.1621710938e-03 2.9027061750e+00 -5.0276345746e+00 2.9027061750e+00 5.0276345746e+00 
52200 5.9552789066e+00 -8.1067804533e-03 2.9028467720e+00 -5.0278780958e+00 2.9028467720e+00 5.0278780958e+00 
52300 5.9552766723e+00 -8.0518295427e-03 2.9029864082e+00 -5.0281199526e+00 2.9029864082e+00 5.0281199526e+00 
52400 5.9552744597e+00 -7.9973147025e-03 2.9031250911e+00 -5.0283601585e+00 2.9031250911e+00 5.0283601585e+00 
52500 5.9552722686e+00 -7.9432323006e-03 2.9032628285e+00 -5.0285987267e+00 2.9032628285e+00 5.0285987267e+00 
52600 5.9552700988e+00 -7.8895787316e-03 2.9033996279e+00 -5.0288356703e+00 2.9033996279e+00 5.0288356703e+00 
52700 5.9552679499e+00 -7.8363504168e-03 2.9035354969e+00 -5.0290710023e+00 2.9035354969e+00 5.0290710023e+00 
52800 5.9552658218e+00 -7.7835438045e-03 2.9036704430e+00 -5.0293047357e+00 2.9036704430e+00 5.0293047357e+00 
52900 5.9552637142e+00 -7.7311553692e-03 2.9038044734e+00 -5.0295368832e+00 2.9038044734e+00 5.0295368832e+00 
53000 5.9552616269e+00 -7.6791816120e-03 2.9039375956e+00 -5.0297674575e+00 2.9039375956e+00 5.0297674575e+00 
53100 5.9552595596e+00 -7.6276190602e-03 2.9040698167e+00 -5.0299964713e+00 2.9040698167e+00 5.0299964713e+00 
53200 5.9552575123e+00 -7.5764642673e-03 2.9042011441e+00 -5.0302239369e+00 2.9042011441e+00 5.0302239369e+00 
53300 5.9552554845e+00 -7.5257138126e-03 2.9043315848e+00 -5.0304498669e+00 2.9043315848e+00 5.0304498669e+00 
53400 5.9552534762e+00 -7.4753643015e-03 2.9044611459e+00 -5.0306742733e+00 2.9044611459e+00 5.0306742733e+00 
53500 5.9552514871e+00 -7.4254123649e-03 2.9045898345e+00 -5.0308971685e+00 2.9045898345e+00 5.0308971685e+00 
53600 5.9552495170e+00 -7.3758546593e-03 2.9047176575e+00 -5.0311185644e+00 2.9047176575e+00 5.0311185644e+00 
53700 5.9552475657e+00 -7.3266878667e-03 2.9048446218e+00 -5.0313384730e+00 2.9048446218e+00 5.0313384730e+00 
53800 5.9552456330e+00 -7.2779086943e-03 2.9049707342e+00 -5.0315569061e+00 2.9049707342e+00 5.0315569061e+00 
53900 5.9552437187e+00 -7.2295138743e-03 2.9050960016e+00 -5.0317738756e+00 2.9050960016e+00 5.0317738756e+00 
54000 5.9552418226e+00 -7.1815001642e-03 2.9052204306e+00 -5.0319893930e+00 2.9052204306e+00 5.0319893930e+00 
54100 5.9552399446e+00 -7.1338643459e-03 2.9053440280e+00 -5.0322034699e+00 2.9053440280e+00 5.0322034699e+00 
54200 5.9552380843e+00 -7.0866032262e-03 2.9054668002e+00 -5.0324161177e+00 2.9054668002e+00 5.0324161177e+00 
54300 5.9552362417e+00 -7.0397136365e-03 2.9055887540e+00 -5.0326273479e+00 2.9055887540e+00 5.0326273479e+00 
54400 5.9552344165e+00 -6.9931924324e-03 2.9057098958e+00 -5.0328371715e+00 2.9057098958e+00 5.0328371715e+00 
54500 5.9552326086e+00 -6.9470364938e-03 2.9058302320e+00 -5.0330455999e+00 2.9058302320e+00 5.0330455999e+00 
54600 5.9552308178e+00 -6.9012427247e-03 2.9059497690e+00 -5.0332526441e+00 2.9059497690e+00 5.0332526441e+00 
54700 5.9552290439e+00 -6.8558080529e-03 2.9060685131e+00 -5.0334583149e+00 2.9060685131e+00 5.0334583149e+00 
54800 5.9552272867e+00 -6.8107294301e-03 2.9061864706e+00 -5.0336626234e+00 2.9061864706e+00 5.0336626234e+00 
54900 5.9552255461e+00 -6.7660038316e-03 2.9063036478e+00 -5.0338655803e+00 2.9063036478e+00 5.0338655803e+00 
55000 5.9552238219e+00 -6.7216282562e-03 2.9064200508e+00 -5.0340671962e+00 2.9064200508e+00 5.0340671962e+00 
55100 5.9552221139e+00 -6.6775997260e-03 2.9065356857e+00 -5.0342674817e+00 2.9065356857e+00 5.0342674817e+00 
55200 5.9552204220e+00 -6.6339152862e-03 2.9066505586e+00 -5.0344664474e+00 2.9066505586e+00 5.0344664474e+00 
55300 5.9552187460e+00 -6.5905720052e-03 2.9067646755e+00 -5.0346641037e+00 2.9067646755e+00 5.0346641037e+00 
55400 5.9552170857e+00 -6.5475669742e-03 2.9068780424e+00 -5.0348604608e+00 2.9068780424e+00 5.0348604608e+00 
55500 5.9552154410e+00 -6.5048973072e-03 2.9069906651e+00 -5.0350555290e+00 2.9069906651e+00 5.0350555290e+00 
55600 5.9552138117e+00 -6.4625601409e-03 2.9071025495e+00 -5.0352493185e+00 2.9071025495e+00 5.0352493185e+00 
55700 5.9552121977e+00 -6.4205526342e-03 2.9072137014e+00 -5.0354418393e+00 2.9072137014e+00 5.0354418393e+00 
55800 5.9552105988e+00 -6.3788719685e-03 2.9073241266e+00 -5.0356331014e+00 2.9073241266e+00 5.0356331014e+00 
55900 5.9552090149e+00 -6.3375153475e-03 2.9074338308e+00 -5.0358231146e+00 2.9074338308e+00 5.0358231146e+00 
56000 5.9552074458e+00 -6.2964799967e-03 2.9075428196e+00 -5.0360118888e+00 2.9075428196e+00 5.0360118888e+00 
56100 5.9552058914e+00 -6.2557631637e-03 2.9076510987e+00 -5.0361994336e+00 2.9076510987e+00 5.0361994336e+00 
56200 5.9552043514e+00 -6.2153621178e-03 2.9077586735e+00 -5.0363857586e+00 2.9077586735e+00 5.0363857586e+00 
56300 5.9552028259e+00 -6.1752741499e-03 2.9078655496e+00 -5.0365708735e+00 2.9078655496e+00 5.0365708735e+00 
56400 5.9552013146e+00 -6.1354965725e-03 2.9079717325e+00 -5.0367547877e+00 2.9079717325e+00 5.0367547877e+00 
56500 5.9551998174e+00 -6.0960267194e-03 2.9080772276e+00 -5.0369375105e+00 2.9080772276e+00 5.0369375105e+00 
56600 5.9551983342e+00 -6.0568619457e-03 2.9081820402e+00 -5.0371190513e+00 2.9081820402e+00 5.0371190513e+00 
56700 5.9551968648e+00 -6.0179996274e-03 2.9082861757e+00 -5.0372994192e+00 2.9082861757e+00 5.0372994192e+00 
56800 5.9551954090e+00 -5.9794371618e-03 2.9083896393e+00 -5.0374786234e+00 2.9083896393e+00 5.0374786234e+00 
56900 5.9551939669e+00 -5.9411719668e-03 2.9084924362e+00 -5.0376566730e+00 2.9084924362e+00 5.0376566730e+00 
57000 5.9551925381e+00 -5.9032014811e-03 2.9085945717e+00 -5.0378335769e+00 2.9085945717e+00 5.0378335769e+00 
57100 5.9551911227e+00 -5.8655231641e-03 2.9086960509e+00 -5.0380093440e+00 2.9086960509e+00 5.0380093440e+00 
57200 5.9551897205e+00 -5.8281344953e-03 2.9087968789e+00 -5.0381839831e+00 2.9087968789e+00 5.0381839831e+00 
57300 5.9551883312e+00 -5.7910329750e-03 2.9088970606e+00 -5.0383575030e+00 2.9088970606e+00 5.0383575030e+00 
57400 5.9551869549e+00 -5.7542161235e-03 2.9089966012e+00 -5.0385299123e+00 2.9089966012e+00 5.0385299123e+00 
57500 5.9551855914e+00 -5.7176814811e-03 2.9090955056e+00 -5.0387012197e+00 2.9090955056e+00 5.0387012197e+00 
57600 5.9551842406e+00 -5.6814266083e-03 2.9091937786e+00 -5.0388714336e+00 2.9091937786e+00 5.0388714336e+00 
57700 5.9551829023e+00 -5.6454490852e-03 2.9092914252e+00 -5.0390405625e+00 2.9092914252e+00 5.0390405625e+00 
57800 5.9551815765e+00 -5.6097465119e-03 2.9093884502e+00 -5.0392086148e+00 2.9093884502e+00 5.0392086148e+00 
57900 5.9551802629e+00 -5.5743165078e-03 2.9094848584e+00 -5.0393755987e+00 2.9094848584e+00 5.0393755987e+00 
58000 5.9551789616e+00 -5.5391567121e-03 2.9095806545e+00 -5.0395415224e+00 2.9095806545e+00 5.0395415224e+00 
58100 5.9551776723e+00 -5.5042647833e-03 2.9096758433e+00 -5.0397063941e+00 2.9096758433e+00 5.0397063941e+00 
58200 5.9551763950e+00 -5.4696383990e-03 2.9097704293e+00 -5.0398702220e+00 2.9097704293e+00 5.0398702220e+00 
58300 5.9551751296e+00 -5.4352752561e-03 2.9098644173e+00 -5.0400330139e+00 2.9098644173e+00 5.0400330139e+00 
58400 5.9551738759e+00 -5.4011730705e-03 2.9099578118e+00 -5.0401947779e+00 2.9099578118e+00 5.0401947779e+00 
58500 5.9551726339e+00 -5.3673295770e-03 2.9100506173e+00 -5.0403555217e+00 2.9100506173e+00 5.0403555217e+00 
58600 5.9551714033e+00 -5.3337425292e-03 2.9101428383e+00 -5.0405152532e+00 2.9101428383e+00 5.0405152532e+00 
58700 5.9551701842e+00 -5.3004096995e-03 2.9102344793e+00 -5.0406739802e+00 2.9102344793e+00 5.0406739802e+00 
58800 5.9551689764e+00 -5.2673288787e-03 2.9103255448e+00 -5.0408317102e+00 2.9103255448e+00 5.0408317102e+00 
58900 5.9551677798e+00 -5.2344978762e-03 2.9104160391e+00 -5.0409884509e+00 2.9104160391e+00 5.0409884509e+00 
59000 5.9551665943e+00 -5.2019145198e-03 2.9105059665e+00 -5.0411442098e+00 2.9105059665e+00 5.0411442098e+00 
59100 5.9551654198e+00 -5.1695766554e-03 2.9105953314e+00 -5.0412989943e+00 2.9105953314e+00 5.0412989943e+00 
59200 5.9551642562e+00 -5.1374821472e-03 2.9106841380e+00 -5.0414528119e+00 2.9106841380e+00 5.0414528119e+00 
59300 5.9551631034e+00 -5.1056288773e-03 2.9107723906e+00 -5.0416056698e+00 2.9107723906e+00 5.0416056698e+00 
59400 5.9551619613e+00 -5.0740147458e-03 2.9108600934e+00 -5.0417575755e+00 2.9108600934e+00 5.0417575755e+00 
59500 5.9551608298e+00 -5.0426376706e-03 2.9109472504e+00 -5.0419085359e+00 2.9109472504e+00 5.0419085359e+00 
59600 5.9551597087e+00 -5.0114955874e-03 2.9110338659e+00 -5.0420585583e+00 2.9110338659e+00 5.0420585583e+00 
59700 5.9551585981e+00 -4.9805864494e-03 2.9111199439e+00 -5.0422076498e+00 2.9111199439e+00 5.0422076498e+00 
59800 5.9551574978e+00 -4.9499082273e-03 2.9112054885e+00 -5.0423558174e+00 2.9112054885e+00 5.0423558174e+00 
59900 5.9551564077e+00 -4.9194589093e-03 2.9112905037e+00 -5.0425030680e+00 2.9112905037e+00 5.0425030680e+00 
60000 5.9551553277e+00 -4.8892365007e-03 2.9113749934e+00 -5.0426494085e+00 2.9113749934e+00 5.0426494085e+00 
60100 5.9551542577e+00 -4.8592390241e-03 2.9114589616e+00 -5.0427948457e+00 2.9114589616e+00 5.0427948457e+00 
60200 5.9551531977e+00 -4.8294645193e-03 2.9115424123e+00 -5.0429393865e+00 2.9115424123e+00 5.0429393865e+00 
60300 5.9551521474e+00 -4.7999110429e-03 2.9116253492e+00 -5.0430830374e+00 2.9116253492e+00 5.0430830374e+00 
60400 5.9551511070e+00 -4.7705766683e-03 2.9117077763e+00 -5.0432258053e+00 2.9117077763e+00 5.0432258053e+00 
60500 5.9551500762e+00 -4.7414594859e-03 2.9117896972e+00 -5.0433676966e+00 2.9117896972e+00 5.0433676966e+00 
60600 5.9551490550e+00 -4.7125576026e-03 2.9118711159e+00 -5.0435087179e+00 2.9118711159e+00 5.0435087179e+00 
60700 5.9551480432e+00 -4.6838691419e-03 2.9119520360e+00 -5.0436488756e+00 2.9119520360e+00 5.0436488756e+00 
60800 5.9551470409e+00 -4.6553922437e-03 2.9120324613e+00 -5.0437881763e+00 2.9120324613e+00 5.0437881763e+00 
60900 5.9551460479e+00 -4.6271250644e-03 2.9121123954e+00 -5.0439266262e+00 2.9121123954e+00 5.0439266262e+00 
61000 5.9551450641e+00 -4.5990657765e-03 2.9121918420e+00 -5.0440642317e+00 2.9121918420e+00 5.0440642317e+00 
61100 5.9551440894e+00 -4.5712125687e-03 2.9122708046e+00 -5.0442009990e+00 2.9122708046e+00 5.0442009990e+00 
61200 5.9551431238e+00 -4.5435636458e-03 2.9123492869e+00 -5.0443369343e+00 2.9123492869e+00 5.0443369343e+00 
61300 5.9551421672e+00 -4.5161172283e-03 2.9124272924e+00 -5.0444720437e+00 2.9124272924e+00 5.0444720437e+00 
61400 5.9551412195e+00 -4.4888715528e-03 2.9125048245e+00 -5.0446063334e+00 2.9125048245e+00 5.0446063334e+00 
61500 5.9551402806e+00 -4.4618248715e-03 2.9125818869e+00 -5.0447398094e+00 2.9125818869e+00 5.0447398094e+00 
61600 5.9551393504e+00 -4.4349754523e-03 2.9126584830e+00 -5.0448724776e+00 2.9126584830e+00 5.0448724776e+00 
61700 5.9551384289e+00 -4.4083215786e-03 2.9127346161e+00 -5.0450043440e+00 2.9127346161e+00 5.0450043440e+00 
61800 5.9551375159e+00 -4.3818615491e-03 2.9128102896e+00 -5.0451354145e+00 2.9128102896e+00 5.0451354145e+00 
61900 5.9551366115e+00 -4.3555936781e-03 2.9128855070e+00 -5.0452656948e+00 2.9128855070e+00 5.0452656948e+00 
62000 5.9551357155e+00 -4.3295162947e-03 2.9129602716e+00 -5.0453951909e+00 2.9129602716e+00 5.0453951909e+00 
62100 5.9551348278e+00 -4.3036277436e-03 2.9130345866e+00 -5.0455239083e+00 2.9130345866e+00 5.0455239083e+00 
62200 5.9551339484e+00 -4.2779263840e-03 2.9131084554e+00 -5.0456518527e+00 2.9131084554e+00 5.0456518527e+00 
62300 5.9551330772e+00 -4.2524105905e-03 2.9131818812e+00 -5.0457790299e+00 2.9131818812e+00 5.0457790299e+00 
62400 5.9551322142e+00 -4.2270787522e-03 2.9132548672e+00 -5.0459054453e+00 2.9132548672e+00 5.0459054453e+00 
62500 5.9551313591e+00 -4.2019292730e-03 2.9133274165e+00 -5.0460311045e+00 2.9133274165e+00 5.0460311045e+00 
62600 5.9551305121e+00 -4.1769605712e-03 2.9133995325e+00 -5.0461560130e+00 2.9133995325e+00 5.0461560130e+00 
62700 5.9551296729e+00 -4.1521710800e-03 2.9134712181e+00 -5.0462801761e+00 2.9134712181e+00 5.0462801761e+00 
62800 5.9551288416e+00 -4.1275592467e-03 2.9135424765e+00 -5.0464035994e+00 2.9135424765e+00 5.0464035994e+00 
62900 5.9551280181e+00 -4.1031235328e-03 2.9136133108e+00 -5.0465262880e+00 2.9136133108e+00 5.0465262880e+00 
63000 5.9551272022e+00 -4.0788624144e-03 2.9136837241e+00 -5.0466482473e+00 2.9136837241e+00 5.0466482473e+00 
63100 5.9551263940e+00 -4.0547743812e-03 2.9137537193e+00 -5.0467694826e+00 2.9137537193e+00 5.0467694826e+00 
63200 5.9551255933e+00 -4.0308579371e-03 2.9138232995e+00 -5.0468899990e+00 2.9138232995e+00 5.0468899990e+00 
63300 5.9551248001e+00 -4.0071116000e-03 2.9138924676e+00 -5.0470098017e+00 2.9138924676e+00 5.0470098017e+00 
63400 5.9551240144e+00 -3.9835339015e-03 2.9139612266e+00 -5.0471288958e+00 2.9139612266e+00 5.0471288958e+00 
63500 5.9551232359e+00 -3.9601233866e-03 2.9140295795e+00 -5.0472472864e+00 2.9140295795e+00 5.0472472864e+00 
63600 5.9551224648e+00 -3.9368786143e-03 2.9140975290e+00 -5.0473649784e+00 2.9140975290e+00 5.0473649784e+00 
63700 5.9551217009e+00 -3.9137981568e-03 2.9141650781e+00 -5.0474819769e+00 2.9141650781e+00 5.0474819769e+00 
63800 5.9551209441e+00 -3.8908805997e-03 2.9142322296e+00 -5.0475982868e+00 2.9142322296e+00 5.0475982868e+00 
63900 5.9551201945e+00 -3.8681245418e-03 2.9142989864e+00 -5.0477139129e+00 2.9142989864e+00 5.0477139129e+00 
64000 5.9551194518e+00 -3.8455285953e-03 2.9143653513e+00 -5.0478288602e+00 2.9143653513e+00 5.0478288602e+00 
64100 5.9551187161e+00 -3.8230913852e-03 2.9144313269e+00 -5.0479431334e+00 2.9144313269e+00 5.0479431334e+00 
64200 5.9551179874e+00 -3.8008115495e-03 2.9144969161e+00 -5.0480567373e+00 2.9144969161e+00 5.0480567373e+00 
64300 5.9551172654e+00 -3.7786877392e-03 2.9145621217e+00 -5.0481696765e+00 2.9145621217e+00 5.0481696765e+00 
64400 5.9551165502e+00 -3.7567186179e-03 2.9146269462e+00 -5.0482819559e+00 2.9146269462e+00 5.0482819559e+00 
64500 5.9551158418e+00 -3.7349028619e-03 2.9146913924e+00 -5.0483935800e+00 2.9146913924e+00 5.0483935800e+00 
64600 5.9551151400e+00 -3.7132391599e-03 2.9147554629e+00 -5.0485045534e+00 2.9147554629e+00 5.0485045534e+00 
64700 5.9551144448e+00 -3.6917262133e-03 2.9148191604e+00 -5.0486148807e+00 2.9148191604e+00 5.0486148807e+00 
64800 5.9551137561e+00 -3.6703627356e-03 2.9148824875e+00 -5.0487245664e+00 2.9148824875e+00 5.0487245664e+00 
64900 5.9551130740e+00 -3.6491474527e-03 2.9149454467e+00 -5.0488336150e+00 2.9149454467e+00 5.0488336150e+00 
65000 5.9551123982e+00 -3.6280791026e-03 2.9150080407e+00 -5.0489420310e+00 2.9150080407e+00 5.0489420310e+00 
65100 5.9551117288e+00 -3.6071564352e-03 2.9150702720e+00 -5.0490498187e+00 2.9150702720e+00 5.0490498187e+00 
65200 5.9551110657e+00 -3.5863782125e-03 2.9151321430e+00 -5.0491569825e+00 2.9151321430e+00 5.0491569825e+00 
65300 5.9551104088e+00 -3.5657432082e-03 2.9151936564e+00 -5.0492635267e+00 2.9151936564e+00 5.0492635267e+00 
65400 5.9551097581e+00 -3.5452502079e-03 2.9152548145e+00 -5.0493694557e+00 2.9152548145e+00 5.0493694557e+00 
65500 5.9551091136e+00 -3.5248980086e-03 2.9153156198e+00 -5.0494747737e+00 2.9153156198e+00 5.0494747737e+00 
65600 5.9551084751e+00 -3.5046854189e-03 2.9153760749e+00 -5.0495794849e+00 2.9153760749e+00 5.0495794849e+00 
65700 5.9551078427e+00 -3.4846112590e-03 2.9154361820e+00 -5.0496835935e+00 2.9154361820e+00 5.0496835935e+00 
65800 5.9551072162e+00 -3.4646743602e-03 2.9154959436e+00 -5.0497871036e+00 2.9154959436e+00 5.0497871036e+00 
65900 5.9551065957e+00 -3.4448735651e-03 2.9155553621e+00 -5.0498900194e+00 2.9155553621e+00 5.0498900194e+00 
66000 5.9551059810e+00 -3.4252077275e-03 2.9156144398e+00 -5.0499923450e+00 2.9156144398e+00 5.0499923450e+00 
66100 5.9551053721e+00 -3.4056757122e-03 2.9156731790e+00 -5.0500940843e+00 2.9156731790e+00 5.0500940843e+00 
66200 5.9551047690e+00 -3.3862763948e-03 2.9157315821e+00 -5.0501952414e+00 2.9157315821e+00 5.0501952414e+00 
66300 5.9551041716e+00 -3.3670086619e-03 2.9157896514e+00 -5.0502958203e+00 2.9157896514e+00 5.0502958203e+00 
66400 5.9551035798e+00 -3.3478714107e-03 2.9158473891e+00 -5.0503958250e+00 2.9158473891e+00 5.0503958250e+00 
66500 5.9551029937e+00 -3.3288635492e-03 2.9159047975e+00 -5.0504952592e+00 2.9159047975e+00 5.0504952592e+00 
66600 5.9551024131e+00 -3.3099839958e-03 2.9159618788e+00 -5.0505941270e+00 2.9159618788e+00 5.0505941270e+00 
66700 5.9551018379e+00 -3.2912316793e-03 2.9160186353e+00 -5.0506924321e+00 2.9160186353e+00 5.0506924321e+00 
66800 5.9551012683e+00 -3.2726055389e-03 2.9160750691e+00 -5.0507901784e+00 2.9160750691e+00 5.0507901784e+00 
66900 5.9551007040e+00 -3.2541045241e-03 2.9161311825e+00 -5.0508873696e+00 2.9161311825e+00 5.0508873696e+00 
67000 5.9551001451e+00 -3.2357275946e-03 2.9161869775e+00 -5.0509840095e+00 2.9161869775e+00 5.0509840095e+00 
67100 5.9550995915e+00 -3.2174737199e-03 2.9162424565e+00 -5.0510801018e+00 2.9162424565e+00 5.0510801018e+00 
67200 5.9550990432e+00 -3.1993418797e-03 2.9162976214e+00 -5.0511756502e+00 2.9162976214e+00 5.0511756502e+00 
67300 5.9550985000e+00 -3.1813310635e-03 2.9163524743e+00 -5.0512706583e+00 2.9163524743e+00 5.0512706583e+00 
67400 5.9550979620e+00 -3.1634402705e-03 2.9164070175e+00 -5.0513651298e+00 2.9164070175e+00 5.0513651298e+00 
67500 5.9550974292e+00 -3.1456685097e-03 2.9164612529e+00 -5.0514590683e+00 2.9164612529e+00 5.0514590683e+00 
67600 5.9550969014e+00 -3.1280147996e-03 2.9165151826e+00 -5.0515524773e+00 2.9165151826e+00 5.0515524773e+00 
67700 5.9550963786e+00 -3.1104781682e-03 2.9165688086e+00 -5.0516453603e+00 2.9165688086e+00 5.0516453603e+00 
67800 5.9550958608e+00 -3.0930576529e-03 2.9166221331e+00 -5.0517377210e+00 2.9166221331e+00 5.0517377210e+00 
67900 5.9550953479e+00 -3.0757523005e-03 2.9166751579e+00 -5.0518295627e+00 2.9166751579e+00 5.0518295627e+00 
68000 5.9550948399e+00 -3.0585611668e-03 2.9167278851e+00 -5.0519208888e+00 2.9167278851e+00 5.0519208888e+00 
68100 5.9550943368e+00 -3.0414833169e-03 2.9167803166e+00 -5.0520117029e+00 2.9167803166e+00 5.0520117029e+00 
68200 5.9550938385e+00 -3.0245178249e-03 2.9168324545e+00 -5.0521020083e+00 2.9168324545e+00 5.0521020083e+00 
68300 5.9550933449e+00 -3.0076637739e-03 2.9168843005e+00 -5.0521918083e+00 2.9168843005e+00 5.0521918083e+00 
68400 5.9550928560e+00 -2.9909202558e-03 2.9169358568e+00 -5.0522811064e+00 2.9169358568e+00 5.0522811064e+00 
68500 5.9550923718e+00 -2.9742863711e-03 2.9169871251e+00 -5.0523699058e+00 2.9169871251e+00 5.0523699058e+00 
68600 5.9550918922e+00 -2.9577612294e-03 2.9170381074e+00 -5.0524582097e+00 2.9170381074e+00 5.0524582097e+00 
68700 5.9550914172e+00 -2.9413439484e-03 2.9170888056e+00 -5.0525460215e+00 2.9170888056e+00 5.0525460215e+00 
68800 5.9550909467e+00 -2.9250336547e-03 2.9171392215e+00 -5.0526333444e+00 2.9171392215e+00 5.0526333444e+00 
68900 5.9550904807e+00 -2.9088294831e-03 2.9171893570e+00 -5.0527201815e+00 2.9171893570e+00 5.0527201815e+00 
69000 5.9550900192e+00 -2.8927305769e-03 2.9172392138e+00 -5.0528065362e+00 2.9172392138e+00 5.0528065362e+00 
69100 5.9550895621e+00 -2.8767360875e-03 2.9172887939e+00 -5.0528924114e+00 2.9172887939e+00 5.0528924114e+00 
69200 5.9550891094e+00 -2.8608451745e-03 2.9173380990e+00 -5.0529778103e+00 2.9173380990e+00 5.0529778103e+00 
69300 5.9550886610e+00 -2.8450570056e-03 2.9173871309e+00 -5.0530627361e+00 2.9173871309e+00 5.0530627361e+00 
69400 5.9550882169e+00 -2.8293707566e-03 2.9174358914e+00 -5.0531471917e+00 2.9174358914e+00 5.0531471917e+00 
69500 5.9550877771e+00 -2.8137856111e-03 2.9174843822e+00 -5.0532311803e+00 2.9174843822e+00 5.0532311803e+00 
69600 5.9550873415e+00 -2.7983007605e-03 2.9175326052e+00 -5.0533147049e+00 2.9175326052e+00 5.0533147049e+00 
69700 5.9550869101e+00 -2.7829154042e-03 2.9175805619e+00 -5.0533977685e+00 2.9175805619e+00 5.0533977685e+00 
69800 5.9550864828e+00 -2.7676287489e-03 2.9176282542e+00 -5.0534803740e+00 2.9176282542e+00 5.0534803740e+00 
69900 5.9550860596e+00 -2.7524400092e-03 2.9176756838e+00 -5.0535625244e+00 2.9176756838e+00 5.0535625244e+00 
70000 5.9550856405e+00 -2.7373484072e-03 2.9177228523e+00 -5.0536442226e+00 2.9177228523e+00 5.0536442226e+00 
70100 5.9550852254e+00 -2.7223531722e-03 2.9177697614e+00 -5.0537254715e+00 2.9177697614e+00 5.0537254715e+00 
70200 5.9550848143e+00 -2.7074535411e-03 2.9178164128e+00 -5.0538062741e+00 2.9178164128e+00 5.0538062741e+00 
70300 5.9550844071e+00 -2.6926487580e-03 2.9178628081e+00 -5.0538866332e+00 2.9178628081e+00 5.0538866332e+00 
70400 5.9550840039e+00 -2.6779380742e-03 2.9179089490e+00 -5.0539665516e+00 2.9179089490e+00 5.0539665516e+00 
70500 5.9550836045e+00 -2.6633207483e-03 2.9179548371e+00 -5.0540460320e+00 2.9179548371e+00 5.0540460320e+00 
70600 5.9550832090e+00 -2.6487960456e-03 2.9180004740e+00 -5.0541250775e+00 2.9180004740e+00 5.0541250775e+00 
70700 5.9550828173e+00 -2.6343632387e-03 2.9180458613e+00 -5.0542036906e+00 2.9180458613e+00 5.0542036906e+00 
70800 5.9550824294e+00 -2.6200216070e-03 2.9180910006e+00 -5.0542818741e+00 2.9180910006e+00 5.0542818741e+00 
70900 5.9550820452e+00 -2.6057704367e-03 2.9181358934e+00 -5.0543596308e+00 2.9181358934e+00 5.0543596308e+00 
71000 5.9550816648e+00 -2.5916090209e-03 2.9181805414e+00 -5.0544369633e+00 2.9181805414e+00 5.0544369633e+00 
71100 5.9550812880e+00 -2.5775366593e-03 2.9182249460e+00 -5.0545138745e+00 2.9182249460e+00 5.0545138745e+00 
71200 5.9550809148e+00 -2.5635526581e-03 2.9182691089e+00 -5.0545903668e+00 2.9182691089e+00 5.0545903668e+00 
71300 5.9550805453e+00 -2.5496563304e-03 2.9183130315e+00 -5.0546664429e+00 2.9183130315e+00 5.0546664429e+00 
71400 5.9550801793e+00 -2.5358469954e-03 2.9183567153e+00 -5.0547421056e+00 2.9183567153e+00 5.0547421056e+00 
71500 5.9550798168e+00 -2.5221239791e-03 2.9184001619e+00 -5.0548173573e+00 2.9184001619e+00 5.0548173573e+00 
71600 5.9550794579e+00 -2.5084866134e-03 2.9184433728e+00 -5.0548922007e+00 2.9184433728e+00 5.0548922007e+00 
71700 5.9550791024e+00 -2.4949342368e-03 2.9184863493e+00 -5.0549666382e+00 2.9184863493e+00 5.0549666382e+00 
71800 5.9550787504e+00 -2.4814661940e-03 2.9185290931e+00 -5.0550406726e+00 2.9185290931e+00 5.0550406726e+00 
71900 5.9550784017e+00 -2.4680818358e-03 2.9185716054e+00 -5.0551143061e+00 2.9185716054e+00 5.0551143061e+00 
72000 5.9550780565e+00 -2.4547805190e-03 2.9186138879e+00 -5.0551875415e+00 2.9186138879e+00 5.0551875415e+00 
72100 5.9550777146e+00 -2.4415616065e-03 2.9186559419e+00 -5.0552603811e+00 2.9186559419e+00 5.0552603811e+00 
72200 5.9550773760e+00 -2.4284244672e-03 2.9186977688e+00 -5.0553328275e+00 2.9186977688e+00 5.0553328275e+00 
72300 5.9550770407e+00 -2.4153684758e-03 2.9187393701e+00 -5.0554048830e+00 2.9187393701e+00 5.0554048830e+00 
72400 5.9550767086e+00 -2.4023930128e-03 2.9187807471e+00 -5.0554765501e+00 2.9187807471e+00 5.0554765501e+00 
72500 5.9550763798e+00 -2.3894974647e-03 2.9188219012e+00 -5.0555478311e+00 2.9188219012e+00 5.0555478311e+00 
72600 5.9550760542e+00 -2.3766812234e-03 2.9188628339e+00 -5.0556187286e+00 2.9188628339e+00 5.0556187286e+00 
72700 5.9550757317e+00 -2.3639436866e-03 2.9189035464e+00 -5.0556892448e+00 2.9189035464e+00 5.0556892448e+00 
72800 5.9550754123e+00 -2.3512842577e-03 2.9189440402e+00 -5.0557593821e+00 2.9189440402e+00 5.0557593821e+00 
72900 5.9550750961e+00 -2.3387023453e-03 2.9189843166e+00 -5.0558291428e+00 2.9189843166e+00 5.0558291428e+00 
73000 5.9550747829e+00 -2.3261973639e-03 2.9190243769e+00 -5.0558985293e+00 2.9190243769e+00 5.0558985293e+00 
73100 5.9550744728e+00 -2.3137687330e-03 2.9190642224e+00 -5.0559675438e+00 2.9190642224e+00 5.0559675438e+00 
73200 5.9550741657e+00 -2.3014158776e-03 2.9191038545e+00 -5.0560361886e+00 2.9191038545e+00 5.0560361886e+00 
73300 5.9550738616e+00 -2.2891382282e-03 2.9191432745e+00 -5.0561044661e+00 2.9191432745e+00 5.0561044661e+00 
73400 5.9550735604e+00 -2.2769352203e-03 2.9191824837e+00 -5.0561723783e+00 2.9191824837e+00 5.0561723783e+00 
73500 5.9550732622e+00 -2.2648062947e-03 2.9192214833e+00 -5.0562399277e+00 2.9192214833e+00 5.0562399277e+00 
73600 5.9550729669e+00 -2.2527508971e-03 2.9192602747e+00 -5.0563071163e+00 2.9192602747e+00 5.0563071163e+00 
73700 5.9550726745e+00 -2.2407684787e-03 2.9192988590e+00 -5.0563739463e+00 2.9192988590e+00 5.0563739463e+00 
73800 5.9550723849e+00 -2.2288584952e-03 2.9193372377e+00 -5.0564404201e+00 2.9193372377e+00 5.0564404201e+00 
73900 5.9550720981e+00 -2.2170204078e-03 2.9193754118e+00 -5.0565065396e+00 2.9193754118e+00 5.0565065396e+00 
74000 5.9550718142e+00 -2.2052536823e-03 2.9194133827e+00 -5.0565723071e+00 2.9194133827e+00 5.0565723071e+00 
74100 5.9550715330e+00 -2.1935577894e-03 2.9194511515e+00 -5.0566377247e+00 2.9194511515e+00 5.0566377247e+00 
74200 5.9550712545e+00 -2.1819322047e-03 2.9194887196e+00 -5.0567027945e+00 2.9194887196e+00 5.0567027945e+00 
74300 5.9550709788e+00 -2.1703764084e-03 2.9195260881e+00 -5.0567675186e+00 2.9195260881e+00 5.0567675186e+00 
74400 5.9550707058e+00 -2.1588898855e-03 2.9195632582e+00 -5.0568318991e+00 2.9195632582e+00 5.0568318991e+00 
74500 5.9550704354e+00 -2.1474721259e-03 2.9196002311e+00 -5.0568959380e+00 2.9196002311e+00 5.0568959380e+00 
74600 5.9550701677e+00 -2.1361226237e-03 2.9196370080e+00 -5.0569596375e+00 2.9196370080e+00 5.0569596375e+00 
74700 5.9550699026e+00 -2.1248408778e-03 2.9196735900e+00 -5.0570229995e+00 2.9196735900e+00 5.0570229995e+00 
74800 5.9550696401e+00 -2.1136263917e-03 2.9197099784e+00 -5.0570860260e+00 2.9197099784e+00 5.0570860260e+00 
74900 5.9550693802e+00 -2.1024786731e-03 2.9197461743e+00 -5.0571487192e+00 2.9197461743e+00 5.0571487192e+00 
75000 5.9550691228e+00 -2.0913972343e-03 2.9197821789e+00 -5.0572110809e+00 2.9197821789e+00 5.0572110809e+00 
75100 5.9550688679e+00 -2.0803815921e-03 2.9198179932e+00 -5.0572731131e+00 2.9198179932e+00 5.0572731131e+00 
75200 5.9550686156e+00 -2.0694312674e-03 2.9198536185e+00 -5.0573348179e+00 2.9198536185e+00 5.0573348179e+00 
75300 5.9550683657e+00 -2.0585457855e-03 2.9198890558e+00 -5.0573961971e+00 2.9198890558e+00 5.0573961971e+00 
75400 5.9550681182e+00 -2.0477246758e-03 2.9199243063e+00 -5.0574572528e+00 2.9199243063e+00 5.0574572528e+00 
75500 5.9550678732e+00 -2.0369674723e-03 2.9199593711e+00 -5.0575179867e+00 2.9199593711e+00 5.0575179867e+00 
75600 5.9550676306e+00 -2.0262737126e-03 2.9199942512e+00 -5.0575784009e+00 2.9199942512e+00 5.0575784009e+00 
75700 5.9550673904e+00 -2.0156429388e-03 2.9200289478e+00 -5.0576384972e+00 2.9200289478e+00 5.0576384972e+00 
75800 5.9550671525e+00 -2.0050746970e-03 2.9200634620e+00 -5.0576982774e+00 2.9200634620e+00 5.0576982774e+00 
75900 5.9550669170e+00 -1.9945685373e-03 2.9200977948e+00 -5.0577577436e+00 2.9200977948e+00 5.0577577436e+00 
76000 5.9550666838e+00 -1.9841240137e-03 2.9201319472e+00 -5.0578168974e+00 2.9201319472e+00 5.0578168974e+00 
76100 5.9550664528e+00 -1.9737406843e-03 2.9201659205e+00 -5.0578757408e+00 2.9201659205e+00 5.0578757408e+00 
76200 5.9550662242e+00 -1.9634181110e-03 2.9201997156e+00 -5.0579342756e+00 2.9201997156e+00 5.0579342756e+00 
76300 5.9550659978e+00 -1.9531558597e-03 2.9202333335e+00 -5.0579925036e+00 2.9202333335e+00 5.0579925036e+00 
76400 5.9550657736e+00 -1.9429534998e-03 2.9202667754e+00 -5.0580504266e+00 2.9202667754e+00 5.0580504266e+00 
76500 5.9550655516e+00 -1.9328106049e-03 2.9203000421e+00 -5.0581080463e+00 2.9203000421e+00 5.0581080463e+00 
76600 5.9550653318e+00 -1.9227267522e-03 2.9203331349e+00 -5.0581653646e+00 2.9203331349e+00 5.0581653646e+00 
76700 5.9550651142e+00 -1.9127015224e-03 2.9203660546e+00 -5.0582223832e+00 2.9203660546e+00 5.0582223832e+00 
76800 5.9550648987e+00 -1.9027345001e-03 2.9203988023e+00 -5.0582791039e+00 2.9203988023e+00 5.0582791039e+00 
76900 5.9550646854e+00 -1.8928252736e-03 2.9204313790e+00 -5.0583355284e+00 2.9204313790e+00 5.0583355284e+00 
77000 5.9550644741e+00 -1.8829734345e-03 2.9204637856e+00 -5.0583916583e+00 2.9204637856e+00 5.0583916583e+00 
77100 5.9550642650e+00 -1.8731785783e-03 2.9204960232e+00 -5.0584474956e+00 2.9204960232e+00 5.0584474956e+00 
77200 5.9550640579e+00 -1.8634403037e-03 2.9205280928e+00 -5.0585030417e+00 2.9205280928e+00 5.0585030417e+00 
77300 5.9550638528e+00 -1.8537582132e-03 2.9205599953e+00 -5.0585582985e+00 2.9205599953e+00 5.0585582985e+00 
77400 5.9550636498e+00 -1.8441319126e-03 2.9205917318e+00 -5.0586132676e+00 2.9205917318e+00 5.0586132676e+00 
77500 5.9550634487e+00 -1.8345610111e-03 2.9206233030e+00 -5.0586679506e+00 2.9206233030e+00 5.0586679506e+00 
77600 5.9550632497e+00 -1.8250451213e-03 2.9206547101e+00 -5.0587223492e+00 2.9206547101e+00 5.0587223492e+00 
77700 5.9550630526e+00 -1.8155838592e-03 2.9206859539e+00 -5.0587764651e+00 2.9206859539e+00 5.0587764651e+00 
77800 5.9550628575e+00 -1.8061768441e-03 2.9207170354e+00 -5.0588302999e+00 2.9207170354e+00 5.0588302999e+00 
77900 5.9550626643e+00 -1.7968236985e-03 2.9207479556e+00 -5.0588838552e+00 2.9207479556e+00 5.0588838552e+00 
78000 5.9550624730e+00 -1.7875240483e-03 2.9207787153e+00 -5.0589371325e+00 2.9207787153e+00 5.0589371325e+00 
78100 5.9550622836e+00 -1.7782775226e-03 2.9208093155e+00 -5.0589901336e+00 2.9208093155e+00 5.0589901336e+00 
78200 5.9550620960e+00 -1.7690837535e-03 2.9208397570e+00 -5.0590428599e+00 2.9208397570e+00 5.0590428599e+00 
78300 5.9550619104e+00 -1.7599423765e-03 2.9208700409e+00 -5.0590953132e+00 2.9208700409e+00 5.0590953132e+00 
78400 5.9550617265e+00 -1.7508530301e-03 2.9209001680e+00 -5.0591474948e+00 2.9209001680e+00 5.0591474948e+00 
78500 5.9550615445e+00 -1.7418153558e-03 2.9209301392e+00 -5.0591994064e+00 2.9209301392e+00 5.0591994064e+00 
78600 5.9550613643e+00 -1.7328289984e-03 2.9209599553e+00 -5.0592510495e+00 2.9209599553e+00 5.0592510495e+00 
78700 5.9550611859e+00 -1.7238936056e-03 2.9209896173e+00 -5.0593024256e+00 2.9209896173e+00 5.0593024256e+00 
78800 5.9550610092e+00 -1.7150088281e-03 2.9210191261e+00 -5.0593535363e+00 2.9210191261e+00 5.0593535363e+00 
78900 5.9550608343e+00 -1.7061743195e-03 2.9210484825e+00 -5.0594043831e+00 2.9210484825e+00 5.0594043831e+00 
79000 5.9550606611e+00 -1.6973897365e-03 2.9210776874e+00 -5.0594549674e+00 2.9210776874e+00 5.0594549674e+00 
79100 5.9550604897e+00 -1.6886547387e-03 2.9211067416e+00 -5.0595052908e+00 2.9211067416e+00 5.0595052908e+00 
79200 5.9550603199e+00 -1.6799689884e-03 2.9211356460e+00 -5.0595553547e+00 2.9211356460e+00 5.0595553547e+00 
79300 5.9550601519e+00 -1.6713321510e-03 2.9211644015e+00 -5.0596051606e+00 2.9211644015e+00 5.0596051606e+00 
79400 5.9550599855e+00 -1.6627438945e-03 2.9211930088e+00 -5.0596547100e+00 2.9211930088e+00 5.0596547100e+00 
79500 5.9550598207e+00 -1.6542038899e-03 2.9212214689e+00 -5.0597040042e+00 2.9212214689e+00 5.0597040042e+00 
79600 5.9550596576e+00 -1.6457118110e-03 2.9212497825e+00 -5.0597530449e+00 2.9212497825e+00 5.0597530449e+00 
79700 5.9550594961e+00 -1.6372673340e-03 2.9212779505e+00 -5.0598018332e+00 2.9212779505e+00 5.0598018332e+00 
79800 5.9550593362e+00 -1.6288701382e-03 2.9213059736e+00 -5.0598503708e+00 2.9213059736e+00 5.0598503708e+00 
79900 5.9550591780e+00 -1.6205199055e-03 2.9213338528e+00 -5.0598986590e+00 2.9213338528e+00 5.0598986590e+00 
80000 5.9550590212e+00 -1.6122163204e-03 2.9213615888e+00 -5.0599466991e+00 2.9213615888e+00 5.0599466991e+00 
80100 5.9550588661e+00 -1.6039590700e-03 2.9213891825e+00 -5.0599944927e+00 2.9213891825e+00 5.0599944927e+00 
80200 5.9550587125e+00 -1.5957478441e-03 2.9214166345e+00 -5.0600420410e+00 2.9214166345e+00 5.0600420410e+00 
80300 5.9550585604e+00 -1.5875823351e-03 2.9214439457e+00 -5.0600893455e+00 2.9214439457e+00 5.0600893455e+00 
80400 5.9550584098e+00 -1.5794622380e-03 2.9214711170e+00 -5.0601364074e+00 2.9214711170e+00 5.0601364074e+00 
80500 5.9550582607e+00 -1.5713872502e-03 2.9214981490e+00 -5.0601832282e+00 2.9214981490e+00 5.0601832282e+00 
80600 5.9550581131e+00 -1.5633570718e-03 2.9215250425e+00 -5.0602298093e+00 2.9215250425e+00 5.0602298093e+00 
80700 5.9550579670e+00 -1.5553714052e-03 2.9215517984e+00 -5.0602761518e+00 2.9215517984e+00 5.0602761518e+00 
80800 5.9550578223e+00 -1.5474299554e-03 2.9215784174e+00 -5.0603222572e+00 2.9215784174e+00 5.0603222572e+00 
80900 5.9550576791e+00 -1.5395324298e-03 2.9216049002e+00 -5.0603681268e+00 2.9216049002e+00 5.0603681268e+00 
81000 5.9550575373e+00 -1.5316785383e-03 2.9216312476e+00 -5.0604137618e+00 2.9216312476e+00 5.0604137618e+00 
81100 5.9550573969e+00 -1.5238679930e-03 2.9216574604e+00 -5.0604591637e+00 2.9216574604e+00 5.0604591637e+00 
81200 5.9550572579e+00 -1.5161005086e-03 2.9216835392e+00 -5.0605043336e+00 2.9216835392e+00 5.0605043336e+00 
81300 5.9550571203e+00 -1.5083758020e-03 2.9217094849e+00 -5.0605492729e+00 2.9217094849e+00 5.0605492729e+00 
81400 5.9550569841e+00 -1.5006935925e-03 2.9217352982e+00 -5.0605939828e+00 2.9217352982e+00 5.0605939828e+00 
81500 5.9550568493e+00 -1.4930536018e-03 2.9217609798e+00 -5.0606384646e+00 2.9217609798e+00 5.0606384646e+00 
81600 5.9550567157e+00 -1.4854555536e-03 2.9217865304e+00 -5.0606827196e+00 2.9217865304e+00 5.0606827196e+00 
81700 5.9550565836e+00 -1.4778991741e-03 2.9218119508e+00 -5.0607267489e+00 2.9218119508e+00 5.0607267489e+00 
81800 5.9550564527e+00 -1.4703841917e-03 2.9218372416e+00 -5.0607705539e+00 2.9218372416e+00 5.0607705539e+00 
81900 5.9550563231e+00 -1.4629103370e-03 2.9218624036e+00 -5.0608141358e+00 2.9218624036e+00 5.0608141358e+00 
82000 5.9550561949e+00 -1.4554773429e-03 2.9218874375e+00 -5.0608574958e+00 2.9218874375e+00 5.0608574958e+00 
82100 5.9550560679e+00 -1.4480849442e-03 2.9219123440e+00 -5.0609006351e+00 2.9219123440e+00 5.0609006351e+00 
82200 5.9550559422e+00 -1.4407328781e-03 2.9219371238e+00 -5.0609435550e+00 2.9219371238e+00 5.0609435550e+00 
82300 5.9550558177e+00 -1.4334208840e-03 2.9219617776e+00 -5.0609862566e+00 2.9219617776e+00 5.0609862566e+00 
82400 5.9550556945e+00 -1.4261487031e-03 2.9219863060e+00 -5.0610287410e+00 2.9219863060e+00 5.0610287410e+00 
82500 5.9550555726e+00 -1.4189160790e-03 2.9220107098e+00 -5.0610710096e+00 2.9220107098e+00 5.0610710096e+00 
82600 5.9550554518e+00 -1.4117227573e-03 2.9220349896e+00 -5.0611130635e+00 2.9220349896e+00 5.0611130635e+00 
82700 5.9550553323e+00 -1.4045684855e-03 2.9220591462e+00 -5.0611549039e+00 2.9220591462e+00 5.0611549039e+00 
82800 5.9550552139e+00 -1.3974530134e-03 2.9220831801e+00 -5.0611965318e+00 2.9220831801e+00 5.0611965318e+00 
82900 5.9550550968e+00 -1.3903760925e-03 2.9221070920e+00 -5.0612379486e+00 2.9221070920e+00 5.0612379486e+00 
83000 5.9550549808e+00 -1.3833374766e-03 2.9221308827e+00 -5.0612791552e+00 2.9221308827e+00 5.0612791552e+00 
83100 5.9550548659e+00 -1.3763369213e-03 2.9221545528e+00 -5.0613201529e+00 2.9221545528e+00 5.0613201529e+00 
83200 5.9550547523e+00 -1.3693741843e-03 2.9221781028e+00 -5.0613609429e+00 2.9221781028e+00 5.0613609429e+00 
83300 5.9550546397e+00 -1.3624490251e-03 2.9222015336e+00 -5.0614015261e+00 2.9222015336e+00 5.0614015261e+00 
83400 5.9550545283e+00 -1.3555612052e-03 2.9222248456e+00 -5.0614419038e+00 2.9222248456e+00 5.0614419038e+00 
83500 5.9550544180e+00 -1.3487104879e-03 2.9222480397e+00 -5.0614820770e+00 2.9222480397e+00 5.0614820770e+00 
83600 5.9550543088e+00 -1.3418966387e-03 2.9222711163e+00 -5.0615220469e+00 2.9222711163e+00 5.0615220469e+00 
83700 5.9550542007e+00 -1.3351194245e-03 2.9222940761e+00 -5.0615618145e+00 2.9222940761e+00 5.0615618145e+00 
83800 5.9550540937e+00 -1.3283786144e-03 2.9223169198e+00 -5.0616013810e+00 2.9223169198e+00 5.0616013810e+00 
83900 5.9550539878e+00 -1.3216739793e-03 2.9223396481e+00 -5.0616407474e+00 2.9223396481e+00 5.0616407474e+00 
84000 5.9550538829e+00 -1.3150052917e-03 2.9223622614e+00 -5.0616799148e+00 2.9223622614e+00 5.0616799148e+00 
84100 5.9550537791e+00 -1.3083723262e-03 2.9223847604e+00 -5.0617188843e+00 2.9223847604e+00 5.0617188843e+00 
84200 5.9550536763e+00 -1.3017748590e-03 2.9224071458e+00 -5.0617576569e+00 2.9224071458e+00 5.0617576569e+00 
84300 5.9550535746e+00 -1.2952126682e-03 2.9224294181e+00 -5.0617962337e+00 2.9224294181e+00 5.0617962337e+00 
84400 5.9550534739e+00 -1.2886855333e-03 2.9224515780e+00 -5.0618346158e+00 2.9224515780e+00 5.0618346158e+00 
84500 5.9550533742e+00 -1.2821932360e-03 2.9224736261e+00 -5.0618728041e+00 2.9224736261e+00 5.0618728041e+00 
84600 5.9550532755e+00 -1.2757355595e-03 2.9224955629e+00 -5.0619107998e+00 2.9224955629e+00 5.0619107998e+00 
84700 5.9550531778e+00 -1.2693122887e-03 2.9225173890e+00 -5.0619486038e+00 2.9225173890e+00 5.0619486038e+00 
84800 5.9550530810e+00 -1.2629232101e-03 2.9225391051e+00 -5.0619862172e+00 2.9225391051e+00 5.0619862172e+00 
84900 5.9550529853e+00 -1.2565681120e-03 2.9225607118e+00 -5.0620236410e+00 2.9225607118e+00 5.0620236410e+00 
85000 5.9550528905e+00 -1.2502467844e-03 2.9225822095e+00 -5.0620608762e+00 2.9225822095e+00 5.0620608762e+00 
85100 5.9550527966e+00 -1.2439590188e-03 2.9226035990e+00 -5.0620979238e+00 2.9226035990e+00 5.0620979238e+00 
85200 5.9550527037e+00 -1.2377046085e-03 2.9226248807e+00 -5.0621347848e+00 2.9226248807e+00 5.0621347848e+00 
85300 5.9550526118e+00 -1.2314833481e-03 2.9226460552e+00 -5.0621714602e+00 2.9226460552e+00 5.0621714602e+00 
85400 5.9550525207e+00 -1.2252950341e-03 2.9226671232e+00 -5.0622079510e+00 2.9226671232e+00 5.0622079510e+00 
85500 5.9550524306e+00 -1.2191394645e-03 2.9226880852e+00 -5.0622442582e+00 2.9226880852e+00 5.0622442582e+00 
85600 5.9550523414e+00 -1.2130164387e-03 2.9227089417e+00 -5.0622803827e+00 2.9227089417e+00 5.0622803827e+00 
85700 5.9550522531e+00 -1.2069257579e-03 2.9227296933e+00 -5.0623163256e+00 2.9227296933e+00 5.0623163256e+00 
85800 5.9550521657e+00 -1.2008672246e-03 2.9227503405e+00 -5.0623520877e+00 2.9227503405e+00 5.0623520877e+00 
85900 5.9550520791e+00 -1.1948406430e-03 2.9227708840e+00 -5.0623876700e+00 2.9227708840e+00 5.0623876700e+00 
86000 5.9550519934e+00 -1.1888458188e-03 2.9227913242e+00 -5.0624230735e+00 2.9227913242e+00 5.0624230735e+00 
86100 5.9550519086e+00 -1.1828825591e-03 2.9228116618e+00 -5.0624582991e+00 2.9228116618e+00 5.0624582991e+00 
86200 5.9550518247e+00 -1.1769506724e-03 2.9228318972e+00 -5.0624933479e+00 2.9228318972e+00 5.0624933479e+00 
86300 5.9550517416e+00 -1.1710499688e-03 2.9228520309e+00 -5.0625282205e+00 2.9228520309e+00 5.0625282205e+00 
86400 5.9550516593e+00 -1.1651802600e-03 2.9228720636e+00 -5.0625629182e+00 2.9228720636e+00 5.0625629182e+00 
86500 5.9550515779e+00 -1.1593413588e-03 2.9228919957e+00 -5.0625974416e+00 2.9228919957e+00 5.0625974416e+00 
86600 5.9550514972e+00 -1.1535330796e-03 2.9229118278e+00 -5.0626317919e+00 2.9229118278e+00 5.0626317919e+00 
86700 5.9550514174e+00 -1.1477552382e-03 2.9229315605e+00 -5.0626659698e+00 2.9229315605e+00 5.0626659698e+00 
86800 5.9550513384e+00 -1.1420076518e-03 2.9229511941e+00 -5.0626999763e+00 2.9229511941e+00 5.0626999763e+00 
86900 5.9550512602e+00 -1.1362901391e-03 2.9229707293e+00 -5.0627338122e+00 2.9229707293e+00 5.0627338122e+00 
87000 5.9550511828e+00 -1.1306025198e-03 2.9229901666e+00 -5.0627674786e+00 2.9229901666e+00 5.0627674786e+00 
87100 5.9550511062e+00 -1.1249446155e-03 2.9230095064e+00 -5.0628009762e+00 2.9230095064e+00 5.0628009762e+00 
87200 5.9550510303e+00 -1.1193162486e-03 2.9230287494e+00 -5.0628343059e+00 2.9230287494e+00 5.0628343059e+00 
87300 5.9550509552e+00 -1.1137172433e-03 2.9230478959e+00 -5.0628674687e+00 2.9230478959e+00 5.0628674687e+00 
87400 5.9550508809e+00 -1.1081474248e-03 2.9230669466e+00 -5.0629004654e+00 2.9230669466e+00 5.0629004654e+00 
87500 5.9550508073e+00 -1.1026066197e-03 2.9230859018e+00 -5.0629332968e+00 2.9230859018e+00 5.0629332968e+00 
87600 5.9550507345e+00 -1.0970946560e-03 2.9231047621e+00 -5.0629659639e+00 2.9231047621e+00 5.0629659639e+00 
87700 5.9550506624e+00 -1.0916113628e-03 2.9231235281e+00 -5.0629984674e+00 2.9231235281e+00 5.0629984674e+00 
87800 5.9550505910e+00 -1.0861565707e-03 2.9231422001e+00 -5.0630308083e+00 2.9231422001e+00 5.0630308083e+00 
87900 5.9550505204e+00 -1.0807301114e-03 2.9231607787e+00 -5.0630629874e+00 2.9231607787e+00 5.0630629874e+00 
88000 5.9550504504e+00 -1.0753318179e-03 2.9231792644e+00 -5.0630950055e+00 2.9231792644e+00 5.0630950055e+00 
88100 5.9550503812e+00 -1.0699615244e-03 2.9231976576e+00 -5.0631268635e+00 2.9231976576e+00 5.0631268635e+00 
88200 5.9550503127e+00 -1.0646190663e-03 2.9232159588e+00 -5.0631585621e+00 2.9232159588e+00 5.0631585621e+00 
88300 5.9550502448e+00 -1.0593042804e-03 2.9232341685e+00 -5.0631901023e+00 2.9232341685e+00 5.0631901023e+00 
88400 5.9550501777e+00 -1.0540170046e-03 2.9232522873e+00 -5.0632214849e+00 2.9232522873e+00 5.0632214849e+00 
88500 5.9550501112e+00 -1.0487570778e-03 2.9232703154e+00 -5.0632527106e+00 2.9232703154e+00 5.0632527106e+00 
88600 5.9550500454e+00 -1.0435243404e-03 2.9232882535e+00 -5.0632837803e+00 2.9232882535e+00 5.0632837803e+00 
88700 5.9550499803e+00 -1.0383186338e-03 2.9233061020e+00 -5.0633146948e+00 2.9233061020e+00 5.0633146948e+00 
88800 5.9550499158e+00 -1.0331398005e-03 2.9233238614e+00 -5.0633454549e+00 2.9233238614e+00 5.0633454549e+00 
88900 5.9550498520e+00 -1.0279876844e-03 2.9233415320e+00 -5.0633760613e+00 2.9233415320e+00 5.0633760613e+00 
89000 5.9550497888e+00 -1.0228621302e-03 2.9233591144e+00 -5.0634065150e+00 2.9233591144e+00 5.0634065150e+00 
89100 5.9550497263e+00 -1.0177629841e-03 2.9233766091e+00 -5.0634368166e+00 2.9233766091e+00 5.0634368166e+00 
89200 5.9550496644e+00 -1.0126900930e-03 2.9233940164e+00 -5.0634669670e+00 2.9233940164e+00 5.0634669670e+00 
89300 5.9550496031e+00 -1.0076433054e-03 2.9234113369e+00 -5.0634969669e+00 2.9234113369e+00 5.0634969669e+00 
89400 5.9550495424e+00 -1.0026224705e-03 2.9234285709e+00 -5.0635268172e+00 2.9234285709e+00 5.0635268172e+00 
89500 5.9550494824e+00 -9.9762743865e-04 2.9234457190e+00 -5.0635565185e+00 2.9234457190e+00 5.0635565185e+00 
89600 5.9550494230e+00 -9.9265806149e-04 2.9234627816e+00 -5.0635860717e+00 2.9234627816e+00 5.0635860717e+00 
89700 5.9550493641e+00 -9.8771419154e-04 2.9234797590e+00 -5.0636154775e+00 2.9234797590e+00 5.0636154775e+00 
89800 5.9550493059e+00 -9.8279568243e-04 2.9234966518e+00 -5.0636447367e+00 2.9234966518e+00 5.0636447367e+00 
89900 5.9550492483e+00 -9.7790238886e-04 2.9235134604e+00 -5.0636738500e+00 2.9235134604e+00 5.0636738500e+00 
90000 5.9550491912e+00 -9.7303416655e-04 2.9235301852e+00 -5.0637028182e+00 2.9235301852e+00 5.0637028182e+00 
90100 5.9550491347e+00 -9.6819087225e-04 2.9235468266e+00 -5.0637316420e+00 2.9235468266e+00 5.0637316420e+00 
90200 5.9550490788e+00 -9.6337236374e-04 2.9235633851e+00 -5.0637603222e+00 2.9235633851e+00 5.0637603222e+00 
90300 5.9550490235e+00 -9.5857849982e-04 2.9235798612e+00 -5.0637888595e+00 2.9235798612e+00 5.0637888595e+00 
90400 5.9550489687e+00 -9.5380914027e-04 2.9235962551e+00 -5.0638172546e+00 2.9235962551e+00 5.0638172546e+00 
90500 5.9550489145e+00 -9.4906414588e-04 2.9236125674e+00 -5.0638455083e+00 2.9236125674e+00 5.0638455083e+00 
90600 5.9550488608e+00 -9.4434337842e-04 2.9236287984e+00 -5.0638736213e+00 2.9236287984e+00 5.0638736213e+00 
90700 5.9550488077e+00 -9.3964670065e-04 2.9236449486e+00 -5.0639015943e+00 2.9236449486e+00 5.0639015943e+00 
90800 5.9550487551e+00 -9.3497397627e-04 2.9236610184e+00 -5.0639294280e+00 2.9236610184e+00 5.0639294280e+00 
90900 5.9550487031e+00 -9.3032506998e-04 2.9236770082e+00 -5.0639571231e+00 2.9236770082e+00 5.0639571231e+00 
91000 5.9550486515e+00 -9.2569984737e-04 2.9236929184e+00 -5.0639846804e+00 2.9236929184e+00 5.0639846804e+00 
91100 5.9550486005e+00 -9.2109817504e-04 2.9237087494e+00 -5.0640121005e+00 2.9237087494e+00 5.0640121005e+00 
91200 5.9550485501e+00 -9.1651992048e-04 2.9237245017e+00 -5.0640393842e+00 2.9237245017e+00 5.0640393842e+00 
91300 5.9550485001e+00 -9.1196495210e-04 2.9237401755e+00 -5.0640665321e+00 2.9237401755e+00 5.0640665321e+00 
91400 5.9550484506e+00 -9.0743313927e-04 2.9237557714e+00 -5.0640935450e+00 2.9237557714e+00 5.0640935450e+00 
91500 5.9550484017e+00 -9.0292435221e-04 2.9237712897e+00 -5.0641204234e+00 2.9237712897e+00 5.0641204234e+00 
91600 5.9550483532e+00 -8.9843846210e-04 2.9237867308e+00 -5.0641471682e+00 2.9237867308e+00 5.0641471682e+00 
91700 5.9550483052e+00 -8.9397534096e-04 2.9238020951e+00 -5.0641737800e+00 2.9238020951e+00 5.0641737800e+00 
91800 5.9550482578e+00 -8.8953486172e-04 2.9238173830e+00 -5.0642002594e+00 2.9238173830e+00 5.0642002594e+00 
91900 5.9550482108e+00 -8.8511689820e-04 2.9238325949e+00 -5.0642266072e+00 2.9238325949e+00 5.0642266072e+00 
92000 5.9550481642e+00 -8.8072132506e-04 2.9238477311e+00 -5.0642528239e+00 2.9238477311e+00 5.0642528239e+00 
92100 5.9550481182e+00 -8.7634801783e-04 2.9238627922e+00 -5.0642789104e+00 2.9238627922e+00 5.0642789104e+00 
92200 5.9550480726e+00 -8.7199685290e-04 2.9238777783e+00 -5.0643048671e+00 2.9238777783e+00 5.0643048671e+00 
92300 5.9550480275e+00 -8.6766770752e-04 2.9238926900e+00 -5.0643306949e+00 2.9238926900e+00 5.0643306949e+00 
92400 5.9550479828e+00 -8.6336045973e-04 2.9239075275e+00 -5.0643563943e+00 2.9239075275e+00 5.0643563943e+00 
92500 5.9550479386e+00 -8.5907498846e-04 2.9239222913e+00 -5.0643819660e+00 2.9239222913e+00 5.0643819660e+00 
92600 5.9550478949e+00 -8.5481117342e-04 2.9239369818e+00 -5.0644074106e+00 2.9239369818e+00 5.0644074106e+00 
92700 5.9550478516e+00 -8.5056889515e-04 2.9239515993e+00 -5.0644327288e+00 2.9239515993e+00 5.0644327288e+00 
92800 5.9550478087e+00 -8.4634803502e-04 2.9239661442e+00 -5.0644579213e+00 2.9239661442e+00 5.0644579213e+00 
92900 5.9550477663e+00 -8.4214847516e-04 2.9239806168e+00 -5.0644829886e+00 2.9239806168e+00 5.0644829886e+00 
93000 5.9550477243e+00 -8.3797009853e-04 2.9239950175e+00 -5.0645079314e+00 2.9239950175e+00 5.0645079314e+00 
93100 5.9550476827e+00 -8.3381278887e-04 2.9240093467e+00 -5.0645327503e+00 2.9240093467e+00 5.0645327503e+00 
93200 5.9550476416e+00 -8.2967643069e-04 2.9240236048e+00 -5.0645574460e+00 2.9240236048e+00 5.0645574460e+00 
93300 5.9550476008e+00 -8.2556090928e-04 2.9240377920e+00 -5.0645820190e+00 2.9240377920e+00 5.0645820190e+00 
93400 5.9550475605e+00 -8.2146611071e-04 2.9240519088e+00 -5.0646064700e+00 2.9240519088e+00 5.0646064700e+00 
93500 5.9550475206e+00 -8.1739192180e-04 2.9240659555e+00 -5.0646307997e+00 2.9240659555e+00 5.0646307997e+00 
93600 5.9550474811e+00 -8.1333823011e-04 2.9240799325e+00 -5.0646550085e+00 2.9240799325e+00 5.0646550085e+00 
93700 5.9550474420e+00 -8.0930492398e-04 2.9240938401e+00 -5.0646790972e+00 2.9240938401e+00 5.0646790972e+00 
93800 5.9550474034e+00 -8.0529189247e-04 2.9241076787e+00 -5.0647030663e+00 2.9241076787e+00 5.0647030663e+00 
93900 5.9550473651e+00 -8.0129902538e-04 2.9241214486e+00 -5.0647269165e+00 2.9241214486e+00 5.0647269165e+00 
94000 5.9550473271e+00 -7.9732621323e-04 2.9241351501e+00 -5.0647506482e+00 2.9241351501e+00 5.0647506482e+00 
94100 5.9550472896e+00 -7.9337334727e-04 2.9241487837e+00 -5.0647742622e+00 2.9241487837e+00 5.0647742622e+00 
94200 5.9550472525e+00 -7.8944031948e-04 2.9241623496e+00 -5.0647977590e+00 2.9241623496e+00 5.0647977590e+00 
94300 5.9550472157e+00 -7.8552702253e-04 2.9241758482e+00 -5.0648211393e+00 2.9241758482e+00 5.0648211393e+00 
94400 5.9550471793e+00 -7.8163334979e-04 2.9241892798e+00 -5.0648444035e+00 2.9241892798e+00 5.0648444035e+00 
94500 5.9550471433e+00 -7.7775919535e-04 2.9242026447e+00 -5.0648675523e+00 2.9242026447e+00 5.0648675523e+00 
94600 5.9550471077e+00 -7.7390445398e-04 2.9242159434e+00 -5.0648905863e+00 2.9242159434e+00 5.0648905863e+00 
94700 5.9550470724e+00 -7.7006902112e-04 2.9242291761e+00 -5.0649135060e+00 2.9242291761e+00 5.0649135060e+00 
94800 5.9550470375e+00 -7.6625279293e-04 2.9242423431e+00 -5.0649363120e+00 2.9242423431e+00 5.0649363120e+00 
94900 5.9550470029e+00 -7.6245566620e-04 2.9242554449e+00 -5.0649590049e+00 2.9242554449e+00 5.0649590049e+00 
95000 5.9550469687e+00 -7.5867753842e-04 2.9242684816e+00 -5.0649815852e+00 2.9242684816e+00 5.0649815852e+00 
95100 5.9550469348e+00 -7.5491830772e-04 2.9242814537e+00 -5.0650040535e+00 2.9242814537e+00 5.0650040535e+00 
95200 5.9550469013e+00 -7.5117787292e-04 2.9242943615e+00 -5.0650264104e+00 2.9242943615e+00 5.0650264104e+00 
95300 5.9550468681e+00 -7.4745613345e-04 2.9243072053e+00 -5.0650486565e+00 2.9243072053e+00 5.0650486565e+00 
95400 5.9550468353e+00 -7.4375298941e-04 2.9243199853e+00 -5.0650707922e+00 2.9243199853e+00 5.0650707922e+00 
95500 5.9550468028e+00 -7.4006834155e-04 2.9243327020e+00 -5.0650928181e+00 2.9243327020e+00 5.0650928181e+00 
95600 5.9550467706e+00 -7.3640209123e-04 2.9243453557e+00 -5.0651147349e+00 2.9243453557e+00 5.0651147349e+00 
95700 5.9550467387e+00 -7.3275414047e-04 2.9243579466e+00 -5.0651365430e+00 2.9243579466e+00 5.0651365430e+00 
95800 5.9550467072e+00 -7.2912439188e-04 2.9243704750e+00 -5.0651582429e+00 2.9243704750e+00 5.0651582429e+00 
95900 5.9550466760e+00 -7.2551274871e-04 2.9243829414e+00 -5.0651798353e+00 2.9243829414e+00 5.0651798353e+00 
96000 5.9550466451e+00 -7.2191911484e-04 2.9243953459e+00 -5.0652013206e+00 2.9243953459e+00 5.0652013206e+00 
96100 5.9550466146e+00 -7.1834339472e-04 2.9244076890e+00 -5.0652226994e+00 2.9244076890e+00 5.0652226994e+00 
96200 5.9550465843e+00 -7.1478549344e-04 2.9244199709e+00 -5.0652439722e+00 2.9244199709e+00 5.0652439722e+00 
96300 5.9550465544e+00 -7.1124531667e-04 2.9244321919e+00 -5.0652651396e+00 2.9244321919e+00 5.0652651396e+00 
96400 5.9550465247e+00 -7.0772277068e-04 2.9244443523e+00 -5.0652862020e+00 2.9244443523e+00 5.0652862020e+00 
96500 5.9550464954e+00 -7.0421776233e-04 2.9244564524e+00 -5.0653071601e+00 2.9244564524e+00 5.0653071601e+00 
96600 5.9550464664e+00 -7.0073019906e-04 2.9244684926e+00 -5.0653280142e+00 2.9244684926e+00 5.0653280142e+00 
96700 5.9550464376e+00 -6.9725998890e-04 2.9244804730e+00 -5.0653487650e+00 2.9244804730e+00 5.0653487650e+00 
96800 5.9550464092e+00 -6.9380704044e-04 2.9244923941e+00 -5.0653694130e+00 2.9244923941e+00 5.0653694130e+00 
96900 5.9550463810e+00 -6.9037126286e-04 2.9245042561e+00 -5.0653899586e+00 2.9245042561e+00 5.0653899586e+00 
97000 5.9550463532e+00 -6.8695256588e-04 2.9245160594e+00 -5.0654104024e+00 2.9245160594e+00 5.0654104024e+00 
97100 5.9550463256e+00 -6.8355085980e-04 2.9245278041e+00 -5.0654307449e+00 2.9245278041e+00 5.0654307449e+00 
97200 5.9550462983e+00 -6.8016605548e-04 2.9245394906e+00 -5.0654509865e+00 2.9245394906e+00 5.0654509865e+00 
97300 5.9550462713e+00 -6.7679806430e-04 2.9245511192e+00 -5.0654711278e+00 2.9245511192e+00 5.0654711278e+00 
97400 5.9550462445e+00 -6.7344679824e-04 2.9245626902e+00 -5.0654911694e+00 2.9245626902e+00 5.0654911694e+00 
97500 5.9550462181e+00 -6.7011216978e-04 2.9245742039e+00 -5.0655111116e+00 2.9245742039e+00 5.0655111116e+00 
97600 5.9550461919e+00 -6.6679409195e-04 2.9245856604e+00 -5.0655309550e+00 2.9245856604e+00 5.0655309550e+00 
97700 5.9550461659e+00 -6.6349247832e-04 2.9245970603e+00 -5.0655507000e+00 2.9245970603e+00 5.0655507000e+00 
97800 5.9550461403e+00 -6.6020724298e-04 2.9246084036e+00 -5.0655703472e+00 2.9246084036e+00 5.0655703472e+00 
97900 5.9550461149e+00 -6.5693830056e-04 2.9246196907e+00 -5.0655898971e+00 2.9246196907e+00 5.0655898971e+00 
98000 5.9550460897e+00 -6.5368556620e-04 2.9246309219e+00 -5.0656093501e+00 2.9246309219e+00 5.0656093501e+00 
98100 5.9550460648e+00 -6.5044895555e-04 2.9246420974e+00 -5.0656287066e+00 2.9246420974e+00 5.0656287066e+00 
98200 5.9550460402e+00 -6.4722838481e-04 2.9246532176e+00 -5.0656479673e+00 2.9246532176e+00 5.0656479673e+00 
98300 5.9550460158e+00 -6.4402377064e-04 2.9246642826e+00 -5.0656671325e+00 2.9246642826e+00 5.0656671325e+00 
98400 5.9550459917e+00 -6.4083503024e-04 2.9246752928e+00 -5.0656862028e+00 2.9246752928e+00 5.0656862028e+00 
98500 5.9550459678e+00 -6.3766208129e-04 2.9246862485e+00 -5.0657051786e+00 2.9246862485e+00 5.0657051786e+00 
98600 5.9550459442e+00 -6.3450484198e-04 2.9246971499e+00 -5.0657240603e+00 2.9246971499e+00 5.0657240603e+00 
98700 5.9550459208e+00 -6.3136323099e-04 2.9247079972e+00 -5.0657428485e+00 2.9247079972e+00 5.0657428485e+00 
98800 5.9550458976e+00 -6.2823716749e-04 2.9247187909e+00 -5.0657615436e+00 2.9247187909e+00 5.0657615436e+00 
98900 5.9550458747e+00 -6.2512657113e-04 2.9247295310e+00 -5.0657801461e+00 2.9247295310e+00 5.0657801461e+00 
99000 5.9550458520e+00 -6.2203136205e-04 2.9247402179e+00 -5.0657986564e+00 2.9247402179e+00 5.0657986564e+00 
99100 5.9550458296e+00 -6.1895146086e-04 2.9247508519e+00 -5.0658170749e+00 2.9247508519e+00 5.0658170749e+00 
99200 5.9550458074e+00 -6.1588678864e-04 2.9247614332e+00 -5.0658354022e+00 2.9247614332e+00 5.0658354022e+00 
99300 5.9550457854e+00 -6.1283726696e-04 2.9247719620e+00 -5.0658536387e+00 2.9247719620e+00 5.0658536387e+00 
99400 5.9550457636e+00 -6.0980281784e-04 2.9247824387e+00 -5.0658717849e+00 2.9247824387e+00 5.0658717849e+00 
99500 5.9550457421e+00 -6.0678336377e-04 2.9247928634e+00 -5.0658898411e+00 2.9247928634e+00 5.0658898411e+00 
99600 5.9550457207e+00 -6.0377882769e-04 2.9248032365e+00 -5.0659078078e+00 2.9248032365e+00 5.0659078078e+00 
99700 5.9550456996e+00 -6.0078913300e-04 2.9248135582e+00 -5.0659256856e+00 2.9248135582e+00 5.0659256856e+00 
99800 5.9550456787e+00 -5.9781420357e-04 2.9248238288e+00 -5.0659434747e+00 2.9248238288e+00 5.0659434747e+00 
99900 5.9550456581e+00 -5.9485396370e-04 2.9248340485e+00 -5.0659611757e+00 2.9248340485e+00 5.0659611757e+00 
100000 5.9550456376e+00 -5.9190833813e-04 2.9248442175e+00 -5.0659787889e+00 2.9248442175e+00 5.0659787889e+00 
100100 5.9550456173e+00 -5.8897725206e-04 2.9248543361e+00 -5.0659963149e+00 2.9248543361e+00 5.0659963149e+00 
100200 5.9550455973e+00 -5.8606063112e-04 2.9248644046e+00 -5.0660137541e+00 2.9248644046e+00 5.0660137541e+00 
100300 5.9550455775e+00 -5.8315840137e-04 2.9248744232e+00 -5.0660311068e+00 2.9248744232e+00 5.0660311068e+00 
100400 5.9550455578e+00 -5.8027048932e-04 2.9248843922e+00 -5.0660483735e+00 2.9248843922e+00 5.0660483735e+00 
100500 5.9550455384e+00 -5.7739682190e-04 2.9248943117e+00 -5.0660655547e+00 2.9248943117e+00 5.0660655547e+00 
100600 5.9550455191e+00 -5.7453732644e-04 2.9249041821e+00 -5.0660826507e+00 2.9249041821e+00 5.0660826507e+00 
100700 5.9550455001e+00 -5.7169193074e-04 2.9249140036e+00 -5.0660996620e+00 2.9249140036e+00 5.0660996620e+00 
100800 5.9550454813e+00 -5.6886056297e-04 2.9249237764e+00 -5.0661165890e+00 2.9249237764e+00 5.0661165890e+00 
100900 5.9550454626e+00 -5.6604315176e-04 2.9249335008e+00 -5.0661334321e+00 2.9249335008e+00 5.0661334321e+00 
101000 5.9550454441e+00 -5.6323962613e-04 2.9249431770e+00 -5.0661501917e+00 2.9249431770e+00 5.0661501917e+00 
101100 5.9550454259e+00 -5.6044991550e-04 2.9249528052e+00 -5.0661668683e+00 2.9249528052e+00 5.0661668683e+00 
101200 5.9550454078e+00 -5.5767394973e-04 2.9249623857e+00 -5.0661834622e+00 2.9249623857e+00 5.0661834622e+00 
101300 5.9550453899e+00 -5.5491165904e-04 2.9249719187e+00 -5.0661999739e+00 2.9249719187e+00 5.0661999739e+00 
101400 5.9550453722e+00 -5.5216297410e-04 2.9249814045e+00 -5.0662164037e+00 2.9249814045e+00 5.0662164037e+00 
101500 5.9550453547e+00 -5.4942782593e-04 2.9249908432e+00 -5.0662327521e+00 2.9249908432e+00 5.0662327521e+00 
101600 5.9550453373e+00 -5.4670614597e-04 2.9250002352e+00 -5.0662490195e+00 2.9250002352e+00 5.0662490195e+00 
101700 5.9550453201e+00 -5.4399786606e-04 2.9250095806e+00 -5.0662652062e+00 2.9250095806e+00 5.0662652062e+00 
101800 5.9550453031e+00 -5.4130291841e-04 2.9250188797e+00 -5.0662813127e+00 2.9250188797e+00 5.0662813127e+00 
101900 5.9550452863e+00 -5.3862123563e-04 2.9250281327e+00 -5.0662973393e+00 2.9250281327e+00 5.0662973393e+00 
102000 5.9550452697e+00 -5.3595275070e-04 2.9250373398e+00 -5.0663132865e+00 2.9250373398e+00 5.0663132865e+00 
102100 5.9550452532e+00 -5.3329739699e-04 2.9250465012e+00 -5.0663291547e+00 2.9250465012e+00 5.0663291547e+00 
102200 5.9550452369e+00 -5.3065510824e-04 2.9250556173e+00 -5.0663449441e+00 2.9250556173e+00 5.0663449441e+00 
102300 5.9550452207e+00 -5.2802581858e-04 2.9250646882e+00 -5.0663606553e+00 2.9250646882e+00 5.0663606553e+00 
102400 5.9550452047e+00 -5.2540946249e-04 2.9250737140e+00 -5.0663762886e+00 2.9250737140e+00 5.0663762886e+00 
102500 5.9550451889e+00 -5.2280597485e-04 2.9250826952e+00 -5.0663918444e+00 2.9250826952e+00 5.0663918444e+00 
102600 5.9550451733e+00 -5.2021529087e-04 2.9250916318e+00 -5.0664073231e+00 2.9250916318e+00 5.0664073231e+00 
102700 5.9550451578e+00 -5.1763734616e-04 2.9251005241e+00 -5.0664227250e+00 2.9251005241e+00 5.0664227250e+00 
102800 5.9550451425e+00 -5.1507207666e-04 2.9251093723e+00 -5.0664380505e+00 2.9251093723e+00 5.0664380505e+00 
102900 5.9550451273e+00 -5.1251941869e-04 2.9251181766e+00 -5.0664533000e+00 2.9251181766e+00 5.0664533000e+00 
103000 5.9550451123e+00 -5.0997930893e-04 2.9251269373e+00 -5.0664684740e+00 2.9251269373e+00 5.0664684740e+00 
103100 5.9550450974e+00 -5.0745168439e-04 2.9251356545e+00 -5.0664835726e+00 2.9251356545e+00 5.0664835726e+00 
103200 5.9550450827e+00 -5.0493648245e-04 2.9251443285e+00 -5.0664985964e+00 2.9251443285e+00 5.0664985964e+00 
103300 5.9550450681e+00 -5.0243364083e-04 2.9251529595e+00 -5.0665135457e+00 2.9251529595e+00 5.0665135457e+00 
103400 5.9550450537e+00 -4.9994309762e-04 2.9251615476e+00 -5.0665284208e+00 2.9251615476e+00 5.0665284208e+00 
103500 5.9550450395e+00 -4.9746479121e-04 2.9251700932e+00 -5.0665432222e+00 2.9251700932e+00 5.0665432222e+00 
103600 5.9550450254e+00 -4.9499866038e-04 2.9251785964e+00 -5.0665579501e+00 2.9251785964e+00 5.0665579501e+00 
103700 5.9550450114e+00 -4.9254464421e-04 2.9251870574e+00 -5.0665726050e+00 2.9251870574e+00 5.0665726050e+00 
103800 5.9550449976e+00 -4.9010268214e-04 2.9251954764e+00 -5.0665871872e+00 2.9251954764e+00 5.0665871872e+00 
103900 5.9550449839e+00 -4.8767271393e-04 2.9252038537e+00 -5.0666016971e+00 2.9252038537e+00 5.0666016971e+00 
104000 5.9550449703e+00 -4.8525467969e-04 2.9252121894e+00 -5.0666161349e+00 2.9252121894e+00 5.0666161349e+00 
104100 5.9550449569e+00 -4.8284851983e-04 2.9252204837e+00 -5.0666305012e+00 2.9252204837e+00 5.0666305012e+00 
104200 5.9550449437e+00 -4.8045417513e-04 2.9252287369e+00 -5.0666447961e+00 2.9252287369e+00 5.0666447961e+00 
104300 5.9550449305e+00 -4.7807158665e-04 2.9252369492e+00 -5.0666590202e+00 2.9252369492e+00 5.0666590202e+00 
104400 5.9550449175e+00 -4.7570069581e-04 2.9252451207e+00 -5.0666731736e+00 2.9252451207e+00 5.0666731736e+00 
104500 5.9550449047e+00 -4.7334144433e-04 2.9252532517e+00 -5.0666872569e+00 2.9252532517e+00 5.0666872569e+00 
104600 5.9550448919e+00 -4.7099377425e-04 2.9252613423e+00 -5.0667012702e+00 2.9252613423e+00 5.0667012702e+00 
104700 5.9550448793e+00 -4.6865762793e-04 2.9252693927e+00 -5.0667152140e+00 2.9252693927e+00 5.0667152140e+00 
104800 5.9550448669e+00 -4.6633294805e-04 2.9252774032e+00 -5.0667290886e+00 2.9252774032e+00 5.0667290886e+00 
104900 5.9550448545e+00 -4.6401967759e-04 2.9252853740e+00 -5.0667428944e+00 2.9252853740e+00 5.0667428944e+00 
105000 5.9550448423e+00 -4.6171775984e-04 2.9252933052e+00 -5.0667566316e+00 2.9252933052e+00 5.0667566316e+00 
105100 5.9550448302e+00 -4.5942713842e-04 2.9253011970e+00 -5.0667703006e+00 2.9253011970e+00 5.0667703006e+00 
105200 5.9550448183e+00 -4.5714775723e-04 2.9253090497e+00 -5.0667839018e+00 2.9253090497e+00 5.0667839018e+00 
105300 5.9550448064e+00 -4.5487956048e-04 2.9253168633e+00 -5.0667974355e+00 2.9253168633e+00 5.0667974355e+00 
105400 5.9550447947e+00 -4.5262249269e-04 2.9253246382e+00 -5.0668109020e+00 2.9253246382e+00 5.0668109020e+00 
105500 5.9550447831e+00 -4.5037649867e-04 2.9253323745e+00 -5.0668243016e+00 2.9253323745e+00 5.0668243016e+00 
105600 5.9550447716e+00 -4.4814152353e-04 2.9253400724e+00 -5.0668376347e+00 2.9253400724e+00 5.0668376347e+00 
105700 5.9550447603e+00 -4.4591751268e-04 2.9253477320e+00 -5.0668509016e+00 2.9253477320e+00 5.0668509016e+00 
105800 5.9550447490e+00 -4.4370441182e-04 2.9253553536e+00 -5.0668641027e+00 2.9253553536e+00 5.0668641027e+00 
105900 5.9550447379e+00 -4.4150216694e-04 2.9253629374e+00 -5.0668772382e+00 2.9253629374e+00 5.0668772382e+00 
106000 5.9550447269e+00 -4.3931072432e-04 2.9253704835e+00 -5.0668903084e+00 2.9253704835e+00 5.0668903084e+00 
106100 5.9550447160e+00 -4.3713003053e-04 2.9253779921e+00 -5.0669033137e+00 2.9253779921e+00 5.0669033137e+00 
106200 5.9550447052e+00 -4.3496003243e-04 2.9253854635e+00 -5.0669162545e+00 2.9253854635e+00 5.0669162545e+00 
106300 5.9550446945e+00 -4.3280067715e-04 2.9253928977e+00 -5.0669291310e+00 2.9253928977e+00 5.0669291310e+00 
106400 5.9550446840e+00 -4.3065191211e-04 2.9254002950e+00 -5.0669419435e+00 2.9254002950e+00 5.0669419435e+00 
106500 5.9550446735e+00 -4.2851368502e-04 2.9254076556e+00 -5.0669546924e+00 2.9254076556e+00 5.0669546924e+00 
106600 5.9550446632e+00 -4.2638594385e-04 2.9254149796e+00 -5.0669673779e+00 2.9254149796e+00 5.0669673779e+00 
106700 5.9550446529e+00 -4.2426863686e-04 2.9254222672e+00 -5.0669800004e+00 2.9254222672e+00 5.0669800004e+00 
106800 5.9550446428e+00 -4.2216171258e-04 2.9254295186e+00 -5.0669925602e+00 2.9254295186e+00 5.0669925602e+00 
106900 5.9550446327e+00 -4.2006511981e-04 2.9254367340e+00 -5.0670050577e+00 2.9254367340e+00 5.0670050577e+00 
107000 5.9550446228e+00 -4.1797880762e-04 2.9254439136e+00 -5.0670174930e+00 2.9254439136e+00 5.0670174930e+00 
107100 5.9550446130e+00 -4.1590272537e-04 2.9254510574e+00 -5.0670298665e+00 2.9254510574e+00 5.0670298665e+00 
107200 5.9550446033e+00 -4.1383682265e-04 2.9254581658e+00 -5.0670421785e+00 2.9254581658e+00 5.0670421785e+00 
107300 5.9550445936e+00 -4.1178104934e-04 2.9254652388e+00 -5.0670544294e+00 2.9254652388e+00 5.0670544294e+00 
107400 5.9550445841e+00 -4.0973535560e-04 2.9254722767e+00 -5.0670666193e+00 2.9254722767e+00 5.0670666193e+00 
107500 5.9550445747e+00 -4.0769969181e-04 2.9254792796e+00 -5.0670787487e+00 2.9254792796e+00 5.0670787487e+00 
107600 5.9550445653e+00 -4.0567400864e-04 2.9254862477e+00 -5.0670908178e+00 2.9254862477e+00 5.0670908178e+00 
107700 5.9550445561e+00 -4.0365825702e-04 2.9254931811e+00 -5.0671028269e+00 2.9254931811e+00 5.0671028269e+00 
107800 5.9550445470e+00 -4.0165238812e-04 2.9255000801e+00 -5.0671147762e+00 2.9255000801e+00 5.0671147762e+00 
107900 5.9550445379e+00 -3.9965635338e-04 2.9255069448e+00 -5.0671266662e+00 2.9255069448e+00 5.0671266662e+00 
108000 5.9550445290e+00 -3.9767010449e-04 2.9255137753e+00 -5.0671384971e+00 2.9255137753e+00 5.0671384971e+00 
108100 5.9550445201e+00 -3.9569359340e-04 2.9255205719e+00 -5.0671502691e+00 2.9255205719e+00 5.0671502691e+00 
108200 5.9550445113e+00 -3.9372677229e-04 2.9255273347e+00 -5.0671619826e+00 2.9255273347e+00 5.0671619826e+00 
108300 5.9550445026e+00 -3.9176959361e-04 2.9255340639e+00 -5.0671736379e+00 2.9255340639e+00 5.0671736379e+00 
108400 5.9550444941e+00 -3.8982201005e-04 2.9255407596e+00 -5.0671852352e+00 2.9255407596e+00 5.0671852352e+00 
108500 5.9550444856e+00 -3.8788397455e-04 2.9255474219e+00 -5.0671967748e+00 2.9255474219e+00 5.0671967748e+00 
108600 5.9550444771e+00 -3.8595544028e-04 2.9255540512e+00 -5.0672082570e+00 2.9255540512e+00 5.0672082570e+00 
108700 5.9550444688e+00 -3.8403636068e-04 2.9255606475e+00 -5.0672196821e+00 2.9255606475e+00 5.0672196821e+00 
108800 5.9550444606e+00 -3.8212668940e-04 2.9255672110e+00 -5.0672310503e+00 2.9255672110e+00 5.0672310503e+00 
108900 5.9550444524e+00 -3.8022638035e-04 2.9255737418e+00 -5.0672423620e+00 2.9255737418e+00 5.0672423620e+00 
109000 5.9550444443e+00 -3.7833538768e-04 2.9255802401e+00 -5.0672536175e+00 2.9255802401e+00 5.0672536175e+00 
109100 5.9550444364e+00 -3.7645366576e-04 2.9255867061e+00 -5.0672648169e+00 2.9255867061e+00 5.0672648169e+00 
109200 5.9550444284e+00 -3.7458116923e-04 2.9255931399e+00 -5.0672759606e+00 2.9255931399e+00 5.0672759606e+00 
109300 5.9550444206e+00 -3.7271785292e-04 2.9255995417e+00 -5.0672870488e+00 2.9255995417e+00 5.0672870488e+00 
109400 5.9550444129e+00 -3.7086367191e-04 2.9256059116e+00 -5.0672980819e+00 2.9256059116e+00 5.0672980819e+00 
109500 5.9550444052e+00 -3.6901858154e-04 2.9256122499e+00 -5.0673090600e+00 2.9256122499e+00 5.0673090600e+00 
109600 5.9550443976e+00 -3.6718253733e-04 2.9256185566e+00 -5.0673199836e+00 2.9256185566e+00 5.0673199836e+00 
109700 5.9550443901e+00 -3.6535549507e-04 2.9256248319e+00 -5.0673308527e+00 2.9256248319e+00 5.0673308527e+00 
109800 5.9550443827e+00 -3.6353741075e-04 2.9256310759e+00 -5.0673416677e+00 2.9256310759e+00 5.0673416677e+00 
109900 5.9550443753e+00 -3.6172824061e-04 2.9256372889e+00 -5.0673524289e+00 2.9256372889e+00 5.0673524289e+00 
110000 5.9550443681e+00 -3.5992794108e-04 2.9256434710e+00 -5.0673631365e+00 2.9256434710e+00 5.0673631365e+00 
110100 5.9550443609e+00 -3.5813646885e-04 2.9256496222e+00 -5.0673737908e+00 2.9256496222e+00 5.0673737908e+00 
110200 5.9550443537e+00 -3.5635378080e-04 2.9256557429e+00 -5.0673843921e+00 2.9256557429e+00 5.0673843921e+00 
110300 5.9550443467e+00 -3.5457983406e-04 2.9256618330e+00 -5.0673949405e+00 2.9256618330e+00 5.0673949405e+00 
110400 5.9550443397e+00 -3.5281458596e-04 2.9256678928e+00 -5.0674054365e+00 2.9256678928e+00 5.0674054365e+00 
110500 5.9550443328e+00 -3.5105799404e-04 2.9256739225e+00 -5.0674158801e+00 2.9256739225e+00 5.0674158801e+00 
110600 5.9550443259e+00 -3.4931001609e-04 2.9256799221e+00 -5.0674262717e+00 2.9256799221e+00 5.0674262717e+00 
110700 5.9550443192e+00 -3.4757061007e-04 2.9256858918e+00 -5.0674366116e+00 2.9256858918e+00 5.0674366116e+00 
110800 5.9550443125e+00 -3.4583973418e-04 2.9256918318e+00 -5.0674469000e+00 2.9256918318e+00 5.0674469000e+00 
110900 5.9550443059e+00 -3.4411734685e-04 2.9256977422e+00 -5.0674571371e+00 2.9256977422e+00 5.0674571371e+00 
111000 5.9550442993e+00 -3.4240340667e-04 2.9257036231e+00 -5.0674673232e+00 2.9257036231e+00 5.0674673232e+00 
111100 5.9550442928e+00 -3.4069787249e-04 2.9257094748e+00 -5.0674774585e+00 2.9257094748e+00 5.0674774585e+00 
111200 5.9550442864e+00 -3.3900070334e-04 2.9257152973e+00 -5.0674875434e+00 2.9257152973e+00 5.0674875434e+00 
111300 5.9550442800e+00 -3.3731185847e-04 2.9257210907e+00 -5.0674975779e+00 2.9257210907e+00 5.0674975779e+00 
111400 5.9550442737e+00 -3.3563129733e-04 2.9257268553e+00 -5.0675075625e+00 2.9257268553e+00 5.0675075625e+00 
111500 5.9550442675e+00 -3.3395897957e-04 2.9257325912e+00 -5.0675174973e+00 2.9257325912e+00 5.0675174973e+00 
111600 5.9550442613e+00 -3.3229486506e-04 2.9257382985e+00 -5.0675273826e+00 2.9257382985e+00 5.0675273826e+00 
111700 5.9550442552e+00 -3.3063891386e-04 2.9257439773e+00 -5.0675372186e+00 2.9257439773e+00 5.0675372186e+00 
111800 5.9550442492e+00 -3.2899108624e-04 2.9257496278e+00 -5.0675470056e+00 2.9257496278e+00 5.0675470056e+00 
111900 5.9550442432e+00 -3.2735134265e-04 2.9257552501e+00 -5.0675567438e+00 2.9257552501e+00 5.0675567438e+00 
112000 5.9550442373e+00 -3.2571964376e-04 2.9257608445e+00 -5.0675664334e+00 2.9257608445e+00 5.0675664334e+00 
112100 5.9550442314e+00 -3.2409595044e-04 2.9257664109e+00 -5.0675760747e+00 2.9257664109e+00 5.0675760747e+00 
112200 5.9550442257e+00 -3.2248022374e-04 2.9257719495e+00 -5.0675856679e+00 2.9257719495e+00 5.0675856679e+00 
112300 5.9550442199e+00 -3.2087242491e-04 2.9257774605e+00 -5.0675952133e+00 2.9257774605e+00 5.0675952133e+00 
112400 5.9550442143e+00 -3.1927251540e-04 2.9257829441e+00 -5.0676047111e+00 2.9257829441e+00 5.0676047111e+00 
112500 5.9550442086e+00 -3.1768045685e-04 2.9257884003e+00 -5.0676141615e+00 2.9257884003e+00 5.0676141615e+00 
112600 5.9550442031e+00 -3.1609621110e-04 2.9257938293e+00 -5.0676235647e+00 2.9257938293e+00 5.0676235647e+00 
112700 5.9550441976e+00 -3.1451974017e-04 2.9257992311e+00 -5.0676329211e+00 2.9257992311e+00 5.0676329211e+00 
112800 5.9550441921e+00 -3.1295100628e-04 2.9258046061e+00 -5.0676422308e+00 2.9258046061e+00 5.0676422308e+00 
112900 5.9550441868e+00 -3.1138997182e-04 2.9258099542e+00 -5.0676514940e+00 2.9258099542e+00 5.0676514940e+00 
113000 5.9550441814e+00 -3.0983659939e-04 2.9258152756e+00 -5.0676607110e+00 2.9258152756e+00 5.0676607110e+00 
113100 5.9550441761e+00 -3.0829085176e-04 2.9258205705e+00 -5.0676698820e+00 2.9258205705e+00 5.0676698820e+00 
113200 5.9550441709e+00 -3.0675269190e-04 2.9258258390e+00 -5.0676790072e+00 2.9258258390e+00 5.0676790072e+00 
113300 5.9550441658e+00 -3.0522208296e-04 2.9258310811e+00 -5.0676880869e+00 2.9258310811e+00 5.0676880869e+00 
113400 5.9550441606e+00 -3.0369898826e-04 2.9258362971e+00 -5.0676971212e+00 2.9258362971e+00 5.0676971212e+00 
113500 5.9550441556e+00 -3.0218337133e-04 2.9258414871e+00 -5.0677061105e+00 2.9258414871e+00 5.0677061105e+00 
113600 5.9550441506e+00 -3.0067519585e-04 2.9258466511e+00 -5.0677150549e+00 2.9258466511e+00 5.0677150549e+00 
113700 5.9550441456e+00 -2.9917442570e-04 2.9258517894e+00 -5.0677239546e+00 2.9258517894e+00 5.0677239546e+00 
113800 5.9550441407e+00 -2.9768102494e-04 2.9258569020e+00 -5.0677328099e+00 2.9258569020e+00 5.0677328099e+00 
113900 5.9550441359e+00 -2.9619495779e-04 2.9258619891e+00 -5.0677416210e+00 2.9258619891e+00 5.0677416210e+00 
114000 5.9550441311e+00 -2.9471618867e-04 2.9258670507e+00 -5.0677503881e+00 2.9258670507e+00 5.0677503881e+00 
114100 5.9550441263e+00 -2.9324468217e-04 2.9258720871e+00 -5.0677591113e+00 2.9258720871e+00 5.0677591113e+00 
114200 5.9550441216e+00 -2.9178040305e-04 2.9258770984e+00 -5.0677677911e+00 2.9258770984e+00 5.0677677911e+00 
114300 5.9550441169e+00 -2.9032331624e-04 2.9258820846e+00 -5.0677764274e+00 2.9258820846e+00 5.0677764274e+00 
114400 5.9550441123e+00 -2.8887338686e-04 2.9258870459e+00 -5.0677850206e+00 2.9258870459e+00 5.0677850206e+00 
114500 5.9550441078e+00 -2.8743058019e-04 2.9258919824e+00 -5.0677935709e+00 2.9258919824e+00 5.0677935709e+00 
114600 5.9550441033e+00 -2.8599486167e-04 2.9258968942e+00 -5.0678020785e+00 2.9258968942e+00 5.0678020785e+00 
114700 5.9550440988e+00 -2.8456619695e-04 2.9259017815e+00 -5.0678105436e+00 2.9259017815e+00 5.0678105436e+00 
114800 5.9550440944e+00 -2.8314455180e-04 2.9259066444e+00 -5.0678189663e+00 2.9259066444e+00 5.0678189663e+00 
114900 5.9550440900e+00 -2.8172989219e-04 2.9259114830e+00 -5.0678273470e+00 2.9259114830e+00 5.0678273470e+00 
115000 5.9550440857e+00 -2.8032218427e-04 2.9259162974e+00 -5.0678356858e+00 2.9259162974e+00 5.0678356858e+00 
115100 5.9550440814e+00 -2.7892139431e-04 2.9259210877e+00 -5.0678439829e+00 2.9259210877e+00 5.0678439829e+00 
115200 5.9550440771e+00 -2.7752748878e-04 2.9259258541e+00 -5.0678522385e+00 2.9259258541e+00 5.0678522385e+00 
115300 5.9550440729e+00 -2.7614043432e-04 2.9259305967e+00 -5.0678604528e+00 2.9259305967e+00 5.0678604528e+00 
115400 5.9550440688e+00 -2.7476019771e-04 2.9259353155e+00 -5.0678686261e+00 2.9259353155e+00 5.0678686261e+00 
115500 5.9550440647e+00 -2.7338674592e-04 2.9259400108e+00 -5.0678767585e+00 2.9259400108e+00 5.0678767585e+00 
115600 5.9550440606e+00 -2.7202004605e-04 2.9259446825e+00 -5.0678848503e+00 2.9259446825e+00 5.0678848503e+00 
115700 5.9550440566e+00 -2.7066006539e-04 2.9259493310e+00 -5.0678929016e+00 2.9259493310e+00 5.0678929016e+00 
115800 5.9550440526e+00 -2.6930677137e-04 2.9259539561e+00 -5.0679009126e+00 2.9259539561e+00 5.0679009126e+00 
115900 5.9550440486e+00 -2.6796013161e-04 2.9259585582e+00 -5.0679088836e+00 2.9259585582e+00 5.0679088836e+00 
116000 5.9550440447e+00 -2.6662011384e-04 2.9259631372e+00 -5.0679168147e+00 2.9259631372e+00 5.0679168147e+00 
116100 5.9550440409e+00 -2.6528668600e-04 2.9259676933e+00 -5.0679247061e+00 2.9259676933e+00 5.0679247061e+00 
116200 5.9550440371e+00 -2.6395981615e-04 2.9259722266e+00 -5.0679325580e+00 2.9259722266e+00 5.0679325580e+00 
116300 5.9550440333e+00 -2.6263947252e-04 2.9259767372e+00 -5.0679403707e+00 2.9259767372e+00 5.0679403707e+00 
116400 5.9550440295e+00 -2.6132562350e-04 2.9259812253e+00 -5.0679481442e+00 2.9259812253e+00 5.0679481442e+00 
116500 5.9550440258e+00 -2.6001823762e-04 2.9259856909e+00 -5.0679558789e+00 2.9259856909e+00 5.0679558789e+00 
116600 5.9550440222e+00 -2.5871728359e-04 2.9259901342e+00 -5.0679635748e+00 2.9259901342e+00 5.0679635748e+00 
116700 5.9550440185e+00 -2.5742273024e-04 2.9259945552e+00 -5.0679712323e+00 2.9259945552e+00 5.0679712323e+00 
116800 5.9550440149e+00 -2.5613454657e-04 2.9259989541e+00 -5.0679788514e+00 2.9259989541e+00 5.0679788514e+00 
116900 5.9550440114e+00 -2.5485270173e-04 2.9260033310e+00 -5.0679864323e+00 2.9260033310e+00 5.0679864323e+00 
117000 5.9550440079e+00 -2.5357716502e-04 2.9260076859e+00 -5.0679939754e+00 2.9260076859e+00 5.0679939754e+00 
117100 5.9550440044e+00 -2.5230790589e-04 2.9260120191e+00 -5.0680014806e+00 2.9260120191e+00 5.0680014806e+00 
117200 5.9550440009e+00 -2.5104489394e-04 2.9260163306e+00 -5.0680089483e+00 2.9260163306e+00 5.0680089483e+00 
117300 5.9550439975e+00 -2.4978809891e-04 2.9260206204e+00 -5.0680163786e+00 2.9260206204e+00 5.0680163786e+00 
117400 5.9550439942e+00 -2.4853749070e-04 2.9260248888e+00 -5.0680237716e+00 2.9260248888e+00 5.0680237716e+00 
117500 5.9550439908e+00 -2.4729303934e-04 2.9260291358e+00 -5.0680311277e+00 2.9260291358e+00 5.0680311277e+00 
117600 5.9550439875e+00 -2.4605471502e-04 2.9260333616e+00 -5.0680384469e+00 2.9260333616e+00 5.0680384469e+00 
117700 5.9550439842e+00 -2.4482248807e-04 2.9260375662e+00 -5.0680457294e+00 2.9260375662e+00 5.0680457294e+00 
117800 5.9550439810e+00 -2.4359632897e-04 2.9260417497e+00 -5.0680529755e+00 2.9260417497e+00 5.0680529755e+00 
117900 5.9550439778e+00 -2.4237620833e-04 2.9260459122e+00 -5.0680601853e+00 2.9260459122e+00 5.0680601853e+00 
118000 5.9550439746e+00 -2.4116209691e-04 2.9260500539e+00 -5.0680673589e+00 2.9260500539e+00 5.0680673589e+00 
118100 5.9550439715e+00 -2.3995396561e-04 2.9260541749e+00 -5.0680744966e+00 2.9260541749e+00 5.0680744966e+00 
118200 5.9550439684e+00 -2.3875178549e-04 2.9260582752e+00 -5.0680815985e+00 2.9260582752e+00 5.0680815985e+00 
118300 5.9550439653e+00 -2.3755552771e-04 2.9260623549e+00 -5.0680886649e+00 2.9260623549e+00 5.0680886649e+00 
118400 5.9550439623e+00 -2.3636516361e-04 2.9260664142e+00 -5.0680956958e+00 2.9260664142e+00 5.0680956958e+00 
118500 5.9550439593e+00 -2.3518066465e-04 2.9260704532e+00 -5.0681026915e+00 2.9260704532e+00 5.0681026915e+00 
118600 5.9550439563e+00 -2.3400200242e-04 2.9260744719e+00 -5.0681096521e+00 2.9260744719e+00 5.0681096521e+00 
118700 5.9550439533e+00 -2.3282914867e-04 2.9260784705e+00 -5.0681165778e+00 2.9260784705e+00 5.0681165778e+00 
118800 5.9550439504e+00 -2.3166207526e-04 2.9260824490e+00 -5.0681234688e+00 2.9260824490e+00 5.0681234688e+00 
118900 5.9550439475e+00 -2.3050075422e-04 2.9260864076e+00 -5.0681303253e+00 2.9260864076e+00 5.0681303253e+00 
119000 5.9550439447e+00 -2.2934515768e-04 2.9260903463e+00 -5.0681371473e+00 2.9260903463e+00 5.0681371473e+00 
119100 5.9550439419e+00 -2.2819525794e-04 2.9260942653e+00 -5.0681439352e+00 2.9260942653e+00 5.0681439352e+00 
119200 5.9550439391e+00 -2.2705102739e-04 2.9260981646e+00 -5.0681506890e+00 2.9260981646e+00 5.0681506890e+00 
119300 5.9550439363e+00 -2.2591243859e-04 2.9261020443e+00 -5.0681574089e+00 2.9261020443e+00 5.0681574089e+00 
119400 5.9550439336e+00 -2.2477946422e-04 2.9261059046e+00 -5.0681640952e+00 2.9261059046e+00 5.0681640952e+00 
119500 5.9550439308e+00 -2.2365207710e-04 2.9261097456e+00 -5.0681707479e+00 2.9261097456e+00 5.0681707479e+00 
119600 5.9550439282e+00 -2.2253025016e-04 2.9261135672e+00 -5.0681773672e+00 2.9261135672e+00 5.0681773672e+00 
119700 5.9550439255e+00 -2.2141395648e-04 2.9261173697e+00 -5.0681839533e+00 2.9261173697e+00 5.0681839533e+00 
119800 5.9550439229e+00 -2.2030316927e-04 2.9261211531e+00 -5.0681905063e+00 2.9261211531e+00 5.0681905063e+00 
119900 5.9550439203e+00 -2.1919786185e-04 2.9261249176e+00 -5.0681970265e+00 2.9261249176e+00 5.0681970265e+00 
120000 5.9550439177e+00 -2.1809800769e-04 2.9261286631e+00 -5.0682035140e+00 2.9261286631e+00 5.0682035140e+00 
120100 5.9550439152e+00 -2.1700358038e-04 2.9261323898e+00 -5.0682099688e+00 2.9261323898e+00 5.0682099688e+00 
120200 5.9550439126e+00 -2.1591455363e-04 2.9261360979e+00 -5.0682163913e+00 2.9261360979e+00 5.0682163913e+00 
120300 5.9550439101e+00 -2.1483090130e-04 2.9261397873e+00 -5.0682227816e+00 2.9261397873e+00 5.0682227816e+00 
120400 5.9550439077e+00 -2.1375259734e-04 2.9261434582e+00 -5.0682291398e+00 2.9261434582e+00 5.0682291398e+00 
120500 5.9550439052e+00 -2.1267961585e-04 2.9261471106e+00 -5.0682354660e+00 2.9261471106e+00 5.0682354660e+00 
120600 5.9550439028e+00 -2.1161193106e-04 2.9261507447e+00 -5.0682417605e+00 2.9261507447e+00 5.0682417605e+00 
120700 5.9550439004e+00 -2.1054951730e-04 2.9261543606e+00 -5.0682480234e+00 2.9261543606e+00 5.0682480234e+00 
120800 5.9550438981e+00 -2.0949234904e-04 2.9261579583e+00 -5.0682542548e+00 2.9261579583e+00 5.0682542548e+00 
120900 5.9550438957e+00 -2.0844040087e-04 2.9261615380e+00 -5.0682604550e+00 2.9261615380e+00 5.0682604550e+00 
121000 5.9550438934e+00 -2.0739364750e-04 2.9261650997e+00 -5.0682666240e+00 2.9261650997e+00 5.0682666240e+00 
121100 5.9550438911e+00 -2.0635206377e-04 2.9261686434e+00 -5.0682727620e+00 2.9261686434e+00 5.0682727620e+00 
121200 5.9550438888e+00 -2.0531562463e-04 2.9261721694e+00 -5.0682788691e+00 2.9261721694e+00 5.0682788691e+00 
121300 5.9550438866e+00 -2.0428430515e-04 2.9261756777e+00 -5.0682849456e+00 2.9261756777e+00 5.0682849456e+00 
121400 5.9550438843e+00 -2.0325808052e-04 2.9261791683e+00 -5.0682909916e+00 2.9261791683e+00 5.0682909916e+00 
121500 5.9550438821e+00 -2.0223692607e-04 2.9261826414e+00 -5.0682970072e+00 2.9261826414e+00 5.0682970072e+00 
121600 5.9550438800e+00 -2.0122081721e-04 2.9261860971e+00 -5.0683029925e+00 2.9261860971e+00 5.0683029925e+00 
121700 5.9550438778e+00 -2.0020972951e-04 2.9261895353e+00 -5.0683089478e+00 2.9261895353e+00 5.0683089478e+00 
121800 5.9550438757e+00 -1.9920363863e-04 2.9261929563e+00 -5.0683148731e+00 2.9261929563e+00 5.0683148731e+00 
121900 5.9550438736e+00 -1.9820252034e-04 2.9261963601e+00 -5.0683207687e+00 2.9261963601e+00 5.0683207687e+00 
122000 5.9550438715e+00 -1.9720635055e-04 2.9261997468e+00 -5.0683266346e+00 2.9261997468e+00 5.0683266346e+00 
122100 5.9550438694e+00 -1.9621510528e-04 2.9262031165e+00 -5.0683324710e+00 2.9262031165e+00 5.0683324710e+00 
122200 5.9550438674e+00 -1.9522876065e-04 2.9262064692e+00 -5.0683382781e+00 2.9262064692e+00 5.0683382781e+00 
122300 5.9550438653e+00 -1.9424729292e-04 2.9262098051e+00 -5.0683440560e+00 2.9262098051e+00 5.0683440560e+00 
122400 5.9550438633e+00 -1.9327067842e-04 2.9262131242e+00 -5.0683498049e+00 2.9262131242e+00 5.0683498049e+00 
122500 5.9550438614e+00 -1.9229889365e-04 2.9262164266e+00 -5.0683555248e+00 2.9262164266e+00 5.0683555248e+00 
122600 5.9550438594e+00 -1.9133191518e-04 2.9262197124e+00 -5.0683612160e+00 2.9262197124e+00 5.0683612160e+00 
122700 5.9550438574e+00 -1.9036971970e-04 2.9262229817e+00 -5.0683668785e+00 2.9262229817e+00 5.0683668785e+00 
122800 5.9550438555e+00 -1.8941228404e-04 2.9262262345e+00 -5.0683725126e+00 2.9262262345e+00 5.0683725126e+00 
122900 5.9550438536e+00 -1.8845958510e-04 2.9262294709e+00 -5.0683781183e+00 2.9262294709e+00 5.0683781183e+00 
123000 5.9550438517e+00 -1.8751159991e-04 2.9262326911e+00 -5.0683836958e+00 2.9262326911e+00 5.0683836958e+00 
123100 5.9550438499e+00 -1.8656830562e-04 2.9262358951e+00 -5.0683892452e+00 2.9262358951e+00 5.0683892452e+00 
123200 5.9550438480e+00 -1.8562967946e-04 2.9262390830e+00 -5.0683947668e+00 2.9262390830e+00 5.0683947668e+00 
123300 5.9550438462e+00 -1.8469569881e-04 2.9262422548e+00 -5.0684002605e+00 2.9262422548e+00 5.0684002605e+00 
123400 5.9550438444e+00 -1.8376634113e-04 2.9262454106e+00 -5.0684057266e+00 2.9262454106e+00 5.0684057266e+00 
123500 5.9550438426e+00 -1.8284158398e-04 2.9262485506e+00 -5.0684111652e+00 2.9262485506e+00 5.0684111652e+00 
123600 5.9550438408e+00 -1.8192140505e-04 2.9262516748e+00 -5.0684165764e+00 2.9262516748e+00 5.0684165764e+00 
123700 5.9550438391e+00 -1.8100578213e-04 2.9262547832e+00 -5.0684219604e+00 2.9262547832e+00 5.0684219604e+00 
123800 5.9550438374e+00 -1.8009469311e-04 2.9262578760e+00 -5.0684273172e+00 2.9262578760e+00 5.0684273172e+00 
123900 5.9550438356e+00 -1.7918811599e-04 2.9262609532e+00 -5.0684326471e+00 2.9262609532e+00 5.0684326471e+00 
124000 5.9550438340e+00 -1.7828602887e-04 2.9262640149e+00 -5.0684379502e+00 2.9262640149e+00 5.0684379502e+00 
124100 5.9550438323e+00 -1.7738840997e-04 2.9262670612e+00 -5.0684432266e+00 2.9262670612e+00 5.0684432266e+00 
124200 5.9550438306e+00 -1.7649523759e-04 2.9262700922e+00 -5.0684484764e+00 2.9262700922e+00 5.0684484764e+00 
124300 5.9550438290e+00 -1.7560649016e-04 2.9262731079e+00 -5.0684536997e+00 2.9262731079e+00 5.0684536997e+00 
124400 5.9550438273e+00 -1.7472214618e-04 2.9262761084e+00 -5.0684588968e+00 2.9262761084e+00 5.0684588968e+00 
124500 5.9550438257e+00 -1.7384218429e-04 2.9262790938e+00 -5.0684640676e+00 2.9262790938e+00 5.0684640676e+00 
124600 5.9550438241e+00 -1.7296658322e-04 2.9262820642e+00 -5.0684692124e+00 2.9262820642e+00 5.0684692124e+00 
124700 5.9550438226e+00 -1.7209532178e-04 2.9262850196e+00 -5.0684743313e+00 2.9262850196e+00 5.0684743313e+00 
124800 5.9550438210e+00 -1.7122837890e-04 2.9262879601e+00 -5.0684794245e+00 2.9262879601e+00 5.0684794245e+00 
124900 5.9550438195e+00 -1.7036573361e-04 2.9262908858e+00 -5.0684844919e+00 2.9262908858e+00 5.0684844919e+00 
125000 5.9550438179e+00 -1.6950736504e-04 2.9262937967e+00 -5.0684895338e+00 2.9262937967e+00 5.0684895338e+00 
125100 5.9550438164e+00 -1.6865325242e-04 2.9262966930e+00 -5.0684945503e+00 2.9262966930e+00 5.0684945503e+00 
125200 5.9550438149e+00 -1.6780337507e-04 2.9262995747e+00 -5.0684995415e+00 2.9262995747e+00 5.0684995415e+00 
125300 5.9550438134e+00 -1.6695771242e-04 2.9263024419e+00 -5.0685045076e+00 2.9263024419e+00 5.0685045076e+00 
125400 5.9550438120e+00 -1.6611624398e-04 2.9263052946e+00 -5.0685094487e+00 2.9263052946e+00 5.0685094487e+00 
125500 5.9550438105e+00 -1.6527894940e-04 2.9263081329e+00 -5.0685143648e+00 2.9263081329e+00 5.0685143648e+00 
125600 5.9550438091e+00 -1.6444580837e-04 2.9263109569e+00 -5.0685192561e+00 2.9263109569e+00 5.0685192561e+00 
125700 5.9550438077e+00 -1.6361680072e-04 2.9263137667e+00 -5.0685241228e+00 2.9263137667e+00 5.0685241228e+00 
125800 5.9550438063e+00 -1.6279190636e-04 2.9263165623e+00 -5.0685289649e+00 2.9263165623e+00 5.0685289649e+00 
125900 5.9550438049e+00 -1.6197110529e-04 2.9263193438e+00 -5.0685337827e+00 2.9263193438e+00 5.0685337827e+00 
126000 5.9550438035e+00 -1.6115437762e-04 2.9263221113e+00 -5.0685385761e+00 2.9263221113e+00 5.0685385761e+00 
126100 5.9550438021e+00 -1.6034170355e-04 2.9263248648e+00 -5.0685433454e+00 2.9263248648e+00 5.0685433454e+00 
126200 5.9550438008e+00 -1.5953306336e-04 2.9263276045e+00 -5.0685480906e+00 2.9263276045e+00 5.0685480906e+00 
126300 5.9550437994e+00 -1.5872843744e-04 2.9263303303e+00 -5.0685528118e+00 2.9263303303e+00 5.0685528118e+00 
126400 5.9550437981e+00 -1.5792780628e-04 2.9263330424e+00 -5.0685575093e+00 2.9263330424e+00 5.0685575093e+00 
126500 5.9550437968e+00 -1.5713115045e-04 2.9263357408e+00 -5.0685621830e+00 2.9263357408e+00 5.0685621830e+00 
126600 5.9550437955e+00 -1.5633845060e-04 2.9263384256e+00 -5.0685668332e+00 2.9263384256e+00 5.0685668332e+00 
126700 5.9550437942e+00 -1.5554968750e-04 2.9263410968e+00 -5.0685714599e+00 2.9263410968e+00 5.0685714599e+00 
126800 5.9550437930e+00 -1.5476484200e-04 2.9263437545e+00 -5.0685760633e+00 2.9263437545e+00 5.0685760633e+00 
126900 5.9550437917e+00 -1.5398389504e-04 2.9263463989e+00 -5.0685806434e+00 2.9263463989e+00 5.0685806434e+00 
127000 5.9550437905e+00 -1.5320682765e-04 2.9263490299e+00 -5.0685852004e+00 2.9263490299e+00 5.0685852004e+00 
127100 5.9550437893e+00 -1.5243362094e-04 2.9263516476e+00 -5.0685897344e+00 2.9263516476e+00 5.0685897344e+00 
127200 5.9550437880e+00 -1.5166425614e-04 2.9263542521e+00 -5.0685942455e+00 2.9263542521e+00 5.0685942455e+00 
127300 5.9550437868e+00 -1.5089871454e-04 2.9263568434e+00 -5.0685987339e+00 2.9263568434e+00 5.0685987339e+00 
127400 5.9550437856e+00 -1.5013697753e-04 2.9263594217e+00 -5.0686031996e+00 2.9263594217e+00 5.0686031996e+00 
127500 5.9550437845e+00 -1.4937902660e-04 2.9263619870e+00 -5.0686076427e+00 2.9263619870e+00 5.0686076427e+00 
127600 5.9550437833e+00 -1.4862484331e-04 2.9263645393e+00 -5.0686120635e+00 2.9263645393e+00 5.0686120635e+00 
127700 5.9550437822e+00 -1.4787440932e-04 2.9263670787e+00 -5.0686164618e+00 2.9263670787e+00 5.0686164618e+00 
127800 5.9550437810e+00 -1.4712770636e-04 2.9263696053e+00 -5.0686208380e+00 2.9263696053e+00 5.0686208380e+00 
127900 5.9550437799e+00 -1.4638471627e-04 2.9263721191e+00 -5.0686251921e+00 2.9263721191e+00 5.0686251921e+00 
128000 5.9550437788e+00 -1.4564542096e-04 2.9263746202e+00 -5.0686295242e+00 2.9263746202e+00 5.0686295242e+00 
128100 5.9550437777e+00 -1.4490980244e-04 2.9263771087e+00 -5.0686338344e+00 2.9263771087e+00 5.0686338344e+00 
128200 5.9550437766e+00 -1.4417784280e-04 2.9263795846e+00 -5.0686381228e+00 2.9263795846e+00 5.0686381228e+00 
128300 5.9550437755e+00 -1.4344952420e-04 2.9263820480e+00 -5.0686423896e+00 2.9263820480e+00 5.0686423896e+00 
128400 5.9550437744e+00 -1.4272482891e-04 2.9263844990e+00 -5.0686466348e+00 2.9263844990e+00 5.0686466348e+00 
128500 5.9550437733e+00 -1.4200373928e-04 2.9263869376e+00 -5.0686508585e+00 2.9263869376e+00 5.0686508585e+00 
128600 5.9550437723e+00 -1.4128623772e-04 2.9263893639e+00 -5.0686550609e+00 2.9263893639e+00 5.0686550609e+00 
128700 5.9550437713e+00 -1.4057230675e-04 2.9263917779e+00 -5.0686592421e+00 2.9263917779e+00 5.0686592421e+00 
128800 5.9550437702e+00 -1.3986192896e-04 2.9263941797e+00 -5.0686634022e+00 2.9263941797e+00 5.0686634022e+00 
128900 5.9550437692e+00 -1.3915508703e-04 2.9263965693e+00 -5.0686675412e+00 2.9263965693e+00 5.0686675412e+00 
129000 5.9550437682e+00 -1.3845176372e-04 2.9263989469e+00 -5.0686716593e+00 2.9263989469e+00 5.0686716593e+00 
129100 5.9550437672e+00 -1.3775194188e-04 2.9264013125e+00 -5.0686757566e+00 2.9264013125e+00 5.0686757566e+00 
129200 5.9550437662e+00 -1.3705560442e-04 2.9264036661e+00 -5.0686798331e+00 2.9264036661e+00 5.0686798331e+00 
129300 5.9550437653e+00 -1.3636273435e-04 2.9264060078e+00 -5.0686838891e+00 2.9264060078e+00 5.0686838891e+00 
129400 5.9550437643e+00 -1.3567331476e-04 2.9264083377e+00 -5.0686879245e+00 2.9264083377e+00 5.0686879245e+00 
129500 5.9550437633e+00 -1.3498732882e-04 2.9264106558e+00 -5.0686919396e+00 2.9264106558e+00 5.0686919396e+00 
129600 5.9550437624e+00 -1.3430475977e-04 2.9264129621e+00 -5.0686959343e+00 2.9264129621e+00 5.0686959343e+00 
129700 5.9550437615e+00 -1.3362559094e-04 2.9264152568e+00 -5.0686999089e+00 2.9264152568e+00 5.0686999089e+00 
129800 5.9550437605e+00 -1.3294980573e-04 2.9264175399e+00 -5.0687038633e+00 2.9264175399e+00 5.0687038633e+00 
129900 5.9550437596e+00 -1.3227738764e-04 2.9264198115e+00 -5.0687077977e+00 2.9264198115e+00 5.0687077977e+00 
130000 5.9550437587e+00 -1.3160832022e-04 2.9264220715e+00 -5.0687117123e+00 2.9264220715e+00 5.0687117123e+00 
130100 5.9550437578e+00 -1.3094258712e-04 2.9264243201e+00 -5.0687156070e+00 2.9264243201e+00 5.0687156070e+00 
130200 5.9550437569e+00 -1.3028017206e-04 2.9264265574e+00 -5.0687194820e+00 2.9264265574e+00 5.0687194820e+00 
130300 5.9550437560e+00 -1.2962105884e-04 2.9264287833e+00 -5.0687233374e+00 2.9264287833e+00 5.0687233374e+00 
130400 5.9550437552e+00 -1.2896523133e-04 2.9264309980e+00 -5.0687271733e+00 2.9264309980e+00 5.0687271733e+00 
130500 5.9550437543e+00 -1.2831267348e-04 2.9264332014e+00 -5.0687309898e+00 2.9264332014e+00 5.0687309898e+00 
130600 5.9550437535e+00 -1.2766336933e-04 2.9264353937e+00 -5.0687347870e+00 2.9264353937e+00 5.0687347870e+00 
130700 5.9550437526e+00 -1.2701730298e-04 2.9264375749e+00 -5.0687385650e+00 2.9264375749e+00 5.0687385650e+00 
130800 5.9550437518e+00 -1.2637445861e-04 2.9264397451e+00 -5.0687423238e+00 2.9264397451e+00 5.0687423238e+00 
130900 5.9550437510e+00 -1.2573482047e-04 2.9264419043e+00 -5.0687460636e+00 2.9264419043e+00 5.0687460636e+00 
131000 5.9550437501e+00 -1.2509837291e-04 2.9264440526e+00 -5.0687497845e+00 2.9264440526e+00 5.0687497845e+00 
131100 5.9550437493e+00 -1.2446510032e-04 2.9264461899e+00 -5.0687534866e+00 2.9264461899e+00 5.0687534866e+00 
131200 5.9550437485e+00 -1.2383498718e-04 2.9264483165e+00 -5.0687571699e+00 2.9264483165e+00 5.0687571699e+00 
131300 5.9550437477e+00 -1.2320801806e-04 2.9264504323e+00 -5.0687608345e+00 2.9264504323e+00 5.0687608345e+00 
131400 5.9550437470e+00 -1.2258417757e-04 2.9264525374e+00 -5.0687644806e+00 2.9264525374e+00 5.0687644806e+00 
131500 5.9550437462e+00 -1.2196345043e-04 2.9264546318e+00 -5.0687681083e+00 2.9264546318e+00 5.0687681083e+00 
131600 5.9550437454e+00 -1.2134582139e-04 2.9264567156e+00 -5.0687717175e+00 2.9264567156e+00 5.0687717175e+00 
131700 5.9550437447e+00 -1.2073127532e-04 2.9264587888e+00 -5.0687753085e+00 2.9264587888e+00 5.0687753085e+00 
131800 5.9550437439e+00 -1.2011979713e-04 2.9264608516e+00 -5.0687788813e+00 2.9264608516e+00 5.0687788813e+00 
131900 5.9550437432e+00 -1.1951137182e-04 2.9264629039e+00 -5.0687824360e+00 2.9264629039e+00 5.0687824360e+00 
132000 5.9550437424e+00 -1.1890598444e-04 2.9264649458e+00 -5.0687859727e+00 2.9264649458e+00 5.0687859727e+00 
132100 5.9550437417e+00 -1.1830362013e-04 2.9264669774e+00 -5.0687894915e+00 2.9264669774e+00 5.0687894915e+00 
132200 5.9550437410e+00 -1.1770426410e-04 2.9264689986e+00 -5.0687929924e+00 2.9264689986e+00 5.0687929924e+00 
132300 5.9550437403e+00 -1.1710790162e-04 2.9264710097e+00 -5.0687964756e+00 2.9264710097e+00 5.0687964756e+00 
132400 5.9550437396e+00 -1.1651451804e-04 2.9264730105e+00 -5.0687999412e+00 2.9264730105e+00 5.0687999412e+00 
132500 5.9550437389e+00 -1.1592409877e-04 2.9264750012e+00 -5.0688033892e+00 2.9264750012e+00 5.0688033892e+00 
132600 5.9550437382e+00 -1.1533662930e-04 2.9264769818e+00 -5.0688068197e+00 2.9264769818e+00 5.0688068197e+00 
132700 5.9550437375e+00 -1.1475209519e-04 2.9264789524e+00 -5.0688102328e+00 2.9264789524e+00 5.0688102328e+00 
132800 5.9550437368e+00 -1.1417048206e-04 2.9264809130e+00 -5.0688136286e+00 2.9264809130e+00 5.0688136286e+00 
132900 5.9550437361e+00 -1.1359177561e-04 2.9264828636e+00 -5.0688170073e+00 2.9264828636e+00 5.0688170073e+00 
133000 5.9550437355e+00 -1.1301596159e-04 2.9264848044e+00 -5.0688203687e+00 2.9264848044e+00 5.0688203687e+00 
133100 5.9550437348e+00 -1.1244302583e-04 2.9264867353e+00 -5.0688237132e+00 2.9264867353e+00 5.0688237132e+00 
133200 5.9550437342e+00 -1.1187295423e-04 2.9264886564e+00 -5.0688270407e+00 2.9264886564e+00 5.0688270407e+00 
133300 5.9550437335e+00 -1.1130573276e-04 2.9264905678e+00 -5.0688303513e+00 2.9264905678e+00 5.0688303513e+00 
133400 5.9550437329e+00 -1.1074134745e-04 2.9264924695e+00 -5.0688336451e+00 2.9264924695e+00 5.0688336451e+00 
133500 5.9550437323e+00 -1.1017978439e-04 2.9264943615e+00 -5.0688369222e+00 2.9264943615e+00 5.0688369222e+00 
133600 5.9550437316e+00 -1.0962102975e-04 2.9264962440e+00 -5.0688401828e+00 2.9264962440e+00 5.0688401828e+00 
133700 5.9550437310e+00 -1.0906506976e-04 2.9264981169e+00 -5.0688434267e+00 2.9264981169e+00 5.0688434267e+00 
133800 5.9550437304e+00 -1.0851189071e-04 2.9264999803e+00 -5.0688466542e+00 2.9264999803e+00 5.0688466542e+00 
133900 5.9550437298e+00 -1.0796147898e-04 2.9265018343e+00 -5.0688498654e+00 2.9265018343e+00 5.0688498654e+00 
134000 5.9550437292e+00 -1.0741382098e-04 2.9265036788e+00 -5.0688530602e+00 2.9265036788e+00 5.0688530602e+00 
134100 5.9550437286e+00 -1.0686890321e-04 2.9265055140e+00 -5.0688562389e+00 2.9265055140e+00 5.0688562389e+00 
134200 5.9550437280e+00 -1.0632671222e-04 2.9265073399e+00 -5.0688594014e+00 2.9265073399e+00 5.0688594014e+00 
134300 5.9550437275e+00 -1.0578723464e-04 2.9265091565e+00 -5.0688625479e+00 2.9265091565e+00 5.0688625479e+00 
134400 5.9550437269e+00 -1.0525045715e-04 2.9265109639e+00 -5.0688656784e+00 2.9265109639e+00 5.0688656784e+00 
134500 5.9550437263e+00 -1.0471636649e-04 2.9265127621e+00 -5.0688687930e+00 2.9265127621e+00 5.0688687930e+00 
134600 5.9550437258e+00 -1.0418494949e-04 2.9265145512e+00 -5.0688718918e+00 2.9265145512e+00 5.0688718918e+00 
134700 5.9550437252e+00 -1.0365619302e-04 2.9265163312e+00 -5.0688749749e+00 2.9265163312e+00 5.0688749749e+00 
134800 5.9550437247e+00 -1.0313008401e-04 2.9265181022e+00 -5.0688780423e+00 2.9265181022e+00 5.0688780423e+00 
134900 5.9550437241e+00 -1.0260660946e-04 2.9265198642e+00 -5.0688810942e+00 2.9265198642e+00 5.0688810942e+00 
135000 5.9550437236e+00 -1.0208575644e-04 2.9265216173e+00 -5.0688841305e+00 2.9265216173e+00 5.0688841305e+00 
135100 5.9550437230e+00 -1.0156751208e-04 2.9265233614e+00 -5.0688871515e+00 2.9265233614e+00 5.0688871515e+00 
135200 5.9550437225e+00 -1.0105186355e-04 2.9265250967e+00 -5.0688901571e+00 2.9265250967e+00 5.0688901571e+00 
135300 5.9550437220e+00 -1.0053879810e-04 2.9265268232e+00 -5.0688931475e+00 2.9265268232e+00 5.0688931475e+00 
135400 5.9550437215e+00 -1.0002830306e-04 2.9265285409e+00 -5.0688961226e+00 2.9265285409e+00 5.0688961226e+00 
135500 5.9550437210e+00 -9.9520365770e-05 2.9265302499e+00 -5.0688990827e+00 2.9265302499e+00 5.0688990827e+00 
135600 5.9550437205e+00 -9.9014973679e-05 2.9265319502e+00 -5.0689020277e+00 2.9265319502e+00 5.0689020277e+00 
135700 5.9550437200e+00 -9.8512114271e-05 2.9265336419e+00 -5.0689049578e+00 2.9265336419e+00 5.0689049578e+00 
135800 5.9550437195e+00 -9.8011775096e-05 2.9265353250e+00 -5.0689078730e+00 2.9265353250e+00 5.0689078730e+00 
135900 5.9550437190e+00 -9.7513943764e-05 2.9265369995e+00 -5.0689107734e+00 2.9265369995e+00 5.0689107734e+00 
136000 5.9550437185e+00 -9.7018607945e-05 2.9265386655e+00 -5.0689136590e+00 2.9265386655e+00 5.0689136590e+00 
136100 5.9550437180e+00 -9.6525755366e-05 2.9265403231e+00 -5.0689165300e+00 2.9265403231e+00 5.0689165300e+00 
136200 5.9550437176e+00 -9.6035373813e-05 2.9265419722e+00 -5.0689193864e+00 2.9265419722e+00 5.0689193864e+00 
136300 5.9550437171e+00 -9.5547451131e-05 2.9265436130e+00 -5.0689222283e+00 2.9265436130e+00 5.0689222283e+00 
136400 5.9550437166e+00 -9.5061975228e-05 2.9265452454e+00 -5.0689250557e+00 2.9265452454e+00 5.0689250557e+00 
136500 5.9550437162e+00 -9.4578934063e-05 2.9265468696e+00 -5.0689278688e+00 2.9265468696e+00 5.0689278688e+00 
136600 5.9550437157e+00 -9.4098315655e-05 2.9265484854e+00 -5.0689306676e+00 2.9265484854e+00 5.0689306676e+00 
136700 5.9550437153e+00 -9.3620108080e-05 2.9265500931e+00 -5.0689334522e+00 2.9265500931e+00 5.0689334522e+00 
136800 5.9550437148e+00 -9.3144299473e-05 2.9265516926e+00 -5.0689362226e+00 2.9265516926e+00 5.0689362226e+00 
136900 5.9550437144e+00 -9.2670878027e-05 2.9265532840e+00 -5.0689389789e+00 2.9265532840e+00 5.0689389789e+00 
137000 5.9550437139e+00 -9.2199831987e-05 2.9265548673e+00 -5.0689417212e+00 2.9265548673e+00 5.0689417212e+00 
137100 5.9550437135e+00 -9.1731149655e-05 2.9265564425e+00 -5.0689444496e+00 2.9265564425e+00 5.0689444496e+00 
137200 5.9550437131e+00 -9.1264819396e-05 2.9265580097e+00 -5.0689471641e+00 2.9265580097e+00 5.0689471641e+00 
137300 5.9550437127e+00 -9.0800829622e-05 2.9265595690e+00 -5.0689498648e+00 2.9265595690e+00 5.0689498648e+00 
137400 5.9550437122e+00 -9.0339168809e-05 2.9265611203e+00 -5.0689525518e+00 2.9265611203e+00 5.0689525518e+00 
137500 5.9550437118e+00 -8.9879825478e-05 2.9265626637e+00 -5.0689552251e+00 2.9265626637e+00 5.0689552251e+00 
137600 5.9550437114e+00 -8.9422788214e-05 2.9265641993e+00 -5.0689578848e+00 2.9265641993e+00 5.0689578848e+00 
137700 5.9550437110e+00 -8.8968045656e-05 2.9265657271e+00 -5.0689605310e+00 2.9265657271e+00 5.0689605310e+00 
137800 5.9550437106e+00 -8.8515586491e-05 2.9265672471e+00 -5.0689631637e+00 2.9265672471e+00 5.0689631637e+00 
137900 5.9550437102e+00 -8.8065399467e-05 2.9265687594e+00 -5.0689657831e+00 2.9265687594e+00 5.0689657831e+00 
138000 5.9550437098e+00 -8.7617473384e-05 2.9265702639e+00 -5.0689683891e+00 2.9265702639e+00 5.0689683891e+00 
138100 5.9550437094e+00 -8.7171797095e-05 2.9265717609e+00 -5.0689709818e+00 2.9265717609e+00 5.0689709818e+00 
138200 5.9550437090e+00 -8.6728359506e-05 2.9265732502e+00 -5.0689735614e+00 2.9265732502e+00 5.0689735614e+00 
138300 5.9550437087e+00 -8.6287149580e-05 2.9265747319e+00 -5.0689761279e+00 2.9265747319e+00 5.0689761279e+00 
138400 5.9550437083e+00 -8.5848156326e-05 2.9265762061e+00 -5.0689786812e+00 2.9265762061e+00 5.0689786812e+00 
138500 5.9550437079e+00 -8.5411368814e-05 2.9265776728e+00 -5.0689812216e+00 2.9265776728e+00 5.0689812216e+00 
138600 5.9550437075e+00 -8.4976776162e-05 2.9265791321e+00 -5.0689837491e+00 2.9265791321e+00 5.0689837491e+00 
138700 5.9550437072e+00 -8.4544367543e-05 2.9265805839e+00 -5.0689862637e+00 2.9265805839e+00 5.0689862637e+00 
138800 5.9550437068e+00 -8.4114132177e-05 2.9265820283e+00 -5.0689887655e+00 2.9265820283e+00 5.0689887655e+00 
138900 5.9550437065e+00 -8.3686059339e-05 2.9265834654e+00 -5.0689912546e+00 2.9265834654e+00 5.0689912546e+00 
139000 5.9550437061e+00 -8.3260138357e-05 2.9265848951e+00 -5.0689937310e+00 2.9265848951e+00 5.0689937310e+00 
139100 5.9550437058e+00 -8.2836358609e-05 2.9265863176e+00 -5.0689961948e+00 2.9265863176e+00 5.0689961948e+00 
139200 5.9550437054e+00 -8.2414709526e-05 2.9265877328e+00 -5.0689986461e+00 2.9265877328e+00 5.0689986461e+00 
139300 5.9550437051e+00 -8.1995180583e-05 2.9265891409e+00 -5.0690010849e+00 2.9265891409e+00 5.0690010849e+00 
139400 5.9550437047e+00 -8.1577761314e-05 2.9265905417e+00 -5.0690035113e+00 2.9265905417e+00 5.0690035113e+00 
139500 5.9550437044e+00 -8.1162441300e-05 2.9265919355e+00 -5.0690059253e+00 2.9265919355e+00 5.0690059253e+00 
139600 5.9550437041e+00 -8.0749210170e-05 2.9265933221e+00 -5.0690083270e+00 2.9265933221e+00 5.0690083270e+00 
139700 5.9550437037e+00 -8.0338057607e-05 2.9265947017e+00 -5.0690107165e+00 2.9265947017e+00 5.0690107165e+00 
139800 5.9550437034e+00 -7.9928973341e-05 2.9265960742e+00 -5.0690130938e+00 2.9265960742e+00 5.0690130938e+00 
139900 5.9550437031e+00 -7.9521947153e-05 2.9265974398e+00 -5.0690154591e+00 2.9265974398e+00 5.0690154591e+00 
140000 5.9550437028e+00 -7.9116968872e-05 2.9265987984e+00 -5.0690178122e+00 2.9265987984e+00 5.0690178122e+00 
140100 5.9550437025e+00 -7.8714028377e-05 2.9266001501e+00 -5.0690201534e+00 2.9266001501e+00 5.0690201534e+00 
140200 5.9550437021e+00 -7.8313115594e-05 2.9266014949e+00 -5.0690224827e+00 2.9266014949e+00 5.0690224827e+00 
140300 5.9550437018e+00 -7.7914220498e-05 2.9266028329e+00 -5.0690248001e+00 2.9266028329e+00 5.0690248001e+00 
140400 5.9550437015e+00 -7.7517333112e-05 2.9266041640e+00 -5.0690271057e+00 2.9266041640e+00 5.0690271057e+00 
140500 5.9550437012e+00 -7.7122443515e-05 2.9266054884e+00 -5.0690293995e+00 2.9266054884e+00 5.0690293995e+00 
140600 5.9550437009e+00 -7.6729541819e-05 2.9266068060e+00 -5.0690316817e+00 2.9266068060e+00 5.0690316817e+00 
140700 5.9550437006e+00 -7.6338618195e-05 2.9266081169e+00 -5.0690339522e+00 2.9266081169e+00 5.0690339522e+00 
140800 5.9550437003e+00 -7.5949662858e-05 2.9266094211e+00 -5.0690362112e+00 2.9266094211e+00 5.0690362112e+00 
140900 5.9550437000e+00 -7.5562666068e-05 2.9266107186e+00 -5.0690384587e+00 2.9266107186e+00 5.0690384587e+00 
141000 5.9550436998e+00 -7.5177618138e-05 2.9266120096e+00 -5.0690406947e+00 2.9266120096e+00 5.0690406947e+00 
141100 5.9550436995e+00 -7.4794509421e-05 2.9266132940e+00 -5.0690429193e+00 2.9266132940e+00 5.0690429193e+00 
141200 5.9550436992e+00 -7.4413330321e-05 2.9266145718e+00 -5.0690451326e+00 2.9266145718e+00 5.0690451326e+00 
141300 5.9550436989e+00 -7.4034071289e-05 2.9266158431e+00 -5.0690473346e+00 2.9266158431e+00 5.0690473346e+00 
141400 5.9550436986e+00 -7.3656722816e-05 2.9266171080e+00 -5.0690495253e+00 2.9266171080e+00 5.0690495253e+00 
141500 5.9550436984e+00 -7.3281275443e-05 2.9266183664e+00 -5.0690517049e+00 2.9266183664e+00 5.0690517049e+00 
141600 5.9550436981e+00 -7.2907719759e-05 2.9266196184e+00 -5.0690538734e+00 2.9266196184e+00 5.0690538734e+00 
141700 5.9550436978e+00 -7.2536046392e-05 2.9266208640e+00 -5.0690560309e+00 2.9266208640e+00 5.0690560309e+00 
141800 5.9550436976e+00 -7.2166246024e-05 2.9266221032e+00 -5.0690581773e+00 2.9266221032e+00 5.0690581773e+00 
141900 5.9550436973e+00 -7.1798309376e-05 2.9266233361e+00 -5.0690603128e+00 2.9266233361e+00 5.0690603128e+00 
142000 5.9550436971e+00 -7.1432227211e-05 2.9266245628e+00 -5.0690624374e+00 2.9266245628e+00 5.0690624374e+00 
142100 5.9550436968e+00 -7.1067990346e-05 2.9266257832e+00 -5.0690645512e+00 2.9266257832e+00 5.0690645512e+00 
142200 5.9550436965e+00 -7.0705589635e-05 2.9266269973e+00 -5.0690666542e+00 2.9266269973e+00 5.0690666542e+00 
142300 5.9550436964e+00 -7.1107360654e-05 2.9266269973e+00 -5.0690666542e+00 2.9266269973e+00 5.0690666542e+00 
142400 5.9550436961e+00 -7.0748628268e-05 2.9266282122e+00 -5.0690687583e+00 2.9266282122e+00 5.0690687583e+00 
142500 5.9550436959e+00 -7.0391057271e-05 2.9266294209e+00 -5.0690708518e+00 2.9266294209e+00 5.0690708518e+00 
142600 5.9550436957e+00 -7.0793691374e-05 2.9266294209e+00 -5.0690708518e+00 2.9266294209e+00 5.0690708518e+00 
142700 5.9550436954e+00 -7.0438719230e-05 2.9266306303e+00 -5.0690729467e+00 2.9266306303e+00 5.0690729467e+00 
142800 5.9550436953e+00 -7.0843953064e-05 2.9266306303e+00 -5.0690729467e+00 2.9266306303e+00 5.0690729467e+00 
142900 5.9550436950e+00 -7.0490625760e-05 2.9266318407e+00 -5.0690750431e+00 2.9266318407e+00 5.0690750431e+00 
143000 5.9550436948e+00 -7.0897683826e-05 2.9266318407e+00 -5.0690750431e+00 2.9266318407e+00 5.0690750431e+00 
143100 5.9550436946e+00 -7.0545289801e-05 2.9266330519e+00 -5.0690771410e+00 2.9266330519e+00 5.0690771410e+00 
143200 5.9550436944e+00 -7.0953580949e-05 2.9266330519e+00 -5.0690771410e+00 2.9266330519e+00 5.0690771410e+00 
143300 5.9550436942e+00 -7.0601574554e-05 2.9266342641e+00 -5.0690792406e+00 2.9266342641e+00 5.0690792406e+00 
143400 5.9550436940e+00 -7.1010632897e-05 2.9266342641e+00 -5.0690792406e+00 2.9266342641e+00 5.0690792406e+00 
143500 5.9550436938e+00 -7.0658582506e-05 2.9266354773e+00 -5.0690813419e+00 2.9266354773e+00 5.0690813419e+00 
143600 5.9550436937e+00 -7.1068027052e-05 2.9266354773e+00 -5.0690813419e+00 2.9266354773e+00 5.0690813419e+00 
143700 5.9550436934e+00 -7.0715579455e-05 2.9266366915e+00 -5.0690834449e+00 2.9266366915e+00 5.0690834449e+00 
143800 5.9550436932e+00 -7.0362631651e-05 2.9266378996e+00 -5.0690855375e+00 2.9266378996e+00 5.0690855375e+00 
143900 5.9550436931e+00 -7.0768113644e-05 2.9266378996e+00 -5.0690855375e+00 2.9266378996e+00 5.0690855375e+00 
144000 5.9550436928e+00 -7.0414981692e-05 2.9266391086e+00 -5.0690876316e+00 2.9266391086e+00 5.0690876316e+00 
144100 5.9550436927e+00 -7.0820621102e-05 2.9266391086e+00 -5.0690876316e+00 2.9266391086e+00 5.0690876316e+00 
144200 5.9550436925e+00 -7.0466882342e-05 2.9266403186e+00 -5.0690897272e+00 2.9266403186e+00 5.0690897272e+00 
144300 5.9550436923e+00 -7.0872294062e-05 2.9266403186e+00 -5.0690897272e+00 2.9266403186e+00 5.0690897272e+00 
144400 5.9550436921e+00 -7.0517603051e-05 2.9266415294e+00 -5.0690918244e+00 2.9266415294e+00 5.0690918244e+00 
144500 5.9550436920e+00 -7.0922457628e-05 2.9266415294e+00 -5.0690918244e+00 2.9266415294e+00 5.0690918244e+00 
144600 5.9550436918e+00 -7.0566521598e-05 2.9266427410e+00 -5.0690939231e+00 2.9266427410e+00 5.0690939231e+00 
144700 5.9550436916e+00 -7.0970526890e-05 2.9266427410e+00 -5.0690939231e+00 2.9266427410e+00 5.0690939231e+00 
144800 5.9550436914e+00 -7.0613090135e-05 2.9266439535e+00 -5.0690960232e+00 2.9266439535e+00 5.0690960232e+00 
144900 5.9550436913e+00 -7.1015979547e-05 2.9266439535e+00 -5.0690960232e+00 2.9266439535e+00 5.0690960232e+00 
145000 5.9550436911e+00 -7.0656813294e-05 2.9266451668e+00 -5.0690981246e+00 2.9266451668e+00 5.0690981246e+00 
145100 5.9550436910e+00 -7.1058338175e-05 2.9266451668e+00 -5.0690981246e+00 2.9266451668e+00 5.0690981246e+00 
145200 5.9550436908e+00 -7.0697233989e-05 2.9266463808e+00 -5.0691002273e+00 2.9266463808e+00 5.0691002273e+00 
145300 5.9550436906e+00 -7.1097158753e-05 2.9266463808e+00 -5.0691002273e+00 2.9266463808e+00 5.0691002273e+00 
145400 5.9550436905e+00 -7.0733924316e-05 2.9266475954e+00 -5.0691023312e+00 2.9266475954e+00 5.0691023312e+00 
145500 5.9550436903e+00 -7.0369370498e-05 2.9266488039e+00 -5.0691044242e+00 2.9266488039e+00 5.0691044242e+00 
145600 5.9550436901e+00 -7.0762526826e-05 2.9266488039e+00 -5.0691044242e+00 2.9266488039e+00 5.0691044242e+00 
145700 5.9550436900e+00 -7.0396226570e-05 2.9266500128e+00 -5.0691065182e+00 2.9266500128e+00 5.0691065182e+00 
145800 5.9550436898e+00 -7.0787748273e-05 2.9266500128e+00 -5.0691065182e+00 2.9266500128e+00 5.0691065182e+00 
145900 5.9550436897e+00 -7.0419365918e-05 2.9266512222e+00 -5.0691086129e+00 2.9266512222e+00 5.0691086129e+00 
146000 5.9550436895e+00 -7.0808913505e-05 2.9266512222e+00 -5.0691086129e+00 2.9266512222e+00 5.0691086129e+00 
146100 5.9550436894e+00 -7.0438180047e-05 2.9266524319e+00 -5.0691107082e+00 2.9266524319e+00 5.0691107082e+00 
146200 5.9550436892e+00 -7.0825463674e-05 2.9266524319e+00 -5.0691107082e+00 2.9266524319e+00 5.0691107082e+00 
146300 5.9550436891e+00 -7.0452158099e-05 2.9266536419e+00 -5.0691128040e+00 2.9266536419e+00 5.0691128040e+00 
146400 5.9550436889e+00 -7.0836923883e-05 2.9266536419e+00 -5.0691128040e+00 2.9266536419e+00 5.0691128040e+00 
146500 5.9550436888e+00 -7.0460861401e-05 2.9266548521e+00 -5.0691149001e+00 2.9266548521e+00 5.0691149001e+00 
146600 5.9550436887e+00 -7.0842882700e-05 2.9266548521e+00 -5.0691149001e+00 2.9266548521e+00 5.0691149001e+00 
146700 5.9550436885e+00 -7.0463907001e-05 2.9266560624e+00 -5.0691169964e+00 2.9266560624e+00 5.0691169964e+00 
146800 5.9550436884e+00 -7.0842978664e-05 2.9266560624e+00 -5.0691169964e+00 2.9266560624e+00 5.0691169964e+00 
146900 5.9550436882e+00 -7.0460956701e-05 2.9266572727e+00 -5.0691190927e+00 2.9266572727e+00 5.0691190927e+00 
147000 5.9550436881e+00 -7.0836891225e-05 2.9266572727e+00 -5.0691190927e+00 2.9266572727e+00 5.0691190927e+00 
147100 5.9550436880e+00 -7.0451709599e-05 2.9266584829e+00 -5.0691211889e+00 2.9266584829e+00 5.0691211889e+00 
147200 5.9550436878e+00 -7.0824334531e-05 2.9266584829e+00 -5.0691211889e+00 2.9266584829e+00 5.0691211889e+00 
147300 5.9550436877e+00 -7.0435896999e-05 2.9266596929e+00 -5.0691232846e+00 2.9266596929e+00 5.0691232846e+00 
147400 5.9550436876e+00 -7.0805053179e-05 2.9266596929e+00 -5.0691232846e+00 2.9266596929e+00 5.0691232846e+00 
147500 5.9550436874e+00 -7.0413278867e-05 2.9266609026e+00 -5.0691253798e+00 2.9266609026e+00 5.0691253798e+00 
147600 5.9550436873e+00 -7.0778819231e-05 2.9266609026e+00 -5.0691253798e+00 2.9266609026e+00 5.0691253798e+00 
147700 5.9550436872e+00 -7.0383641367e-05 2.9266621118e+00 -5.0691274742e+00 2.9266621118e+00 5.0691274742e+00 
147800 5.9550436871e+00 -7.0745430147e-05 2.9266621118e+00 -5.0691274742e+00 2.9266621118e+00 5.0691274742e+00 
147900 5.9550436869e+00 -7.0346795126e-05 2.9266633204e+00 -5.0691295676e+00 2.9266633204e+00 5.0691295676e+00 
148000 5.9550436868e+00 -7.0704707298e-05 2.9266633204e+00 -5.0691295676e+00 2.9266633204e+00 5.0691295676e+00 
148100 5.9550436867e+00 -7.1064910502e-05 2.9266633204e+00 -5.0691295676e+00 2.9266633204e+00 5.0691295676e+00 
148200 5.9550436866e+00 -7.0660852347e-05 2.9266645345e+00 -5.0691316705e+00 2.9266645345e+00 5.0691316705e+00 
148300 5.9550436865e+00 -7.1016407669e-05 2.9266645345e+00 -5.0691316705e+00 2.9266645345e+00 5.0691316705e+00 
148400 5.9550436864e+00 -7.0608259901e-05 2.9266657478e+00 -5.0691337719e+00 2.9266657478e+00 5.0691337719e+00 
148500 5.9550436863e+00 -7.0959229571e-05 2.9266657478e+00 -5.0691337719e+00 2.9266657478e+00 5.0691337719e+00 
148600 5.9550436861e+00 -7.0547123360e-05 2.9266669601e+00 -5.0691358717e+00 2.9266669601e+00 5.0691358717e+00 
148700 5.9550436860e+00 -7.0893526852e-05 2.9266669601e+00 -5.0691358717e+00 2.9266669601e+00 5.0691358717e+00 
148800 5.9550436859e+00 -7.0477558628e-05 2.9266681712e+00 -5.0691379695e+00 2.9266681712e+00 5.0691379695e+00 
148900 5.9550436858e+00 -7.0819389875e-05 2.9266681712e+00 -5.0691379695e+00 2.9266681712e+00 5.0691379695e+00 
149000 5.9550436857e+00 -7.0399635596e-05 2.9266693811e+00 -5.0691400651e+00 2.9266693811e+00 5.0691400651e+00 
149100 5.9550436856e+00 -7.0736873887e-05 2.9266693811e+00 -5.0691400651e+00 2.9266693811e+00 5.0691400651e+00 
149200 5.9550436854e+00 -7.0313398243e-05 2.9266705896e+00 -5.0691421582e+00 2.9266705896e+00 5.0691421582e+00 
149300 5.9550436854e+00 -7.0646015442e-05 2.9266705896e+00 -5.0691421582e+00 2.9266705896e+00 5.0691421582e+00 
149400 5.9550436853e+00 -7.0980580626e-05 2.9266705896e+00 -5.0691421582e+00 2.9266705896e+00 5.0691421582e+00 
149500 5.9550436852e+00 -7.0551470158e-05 2.9266718023e+00 -5.0691442586e+00 2.9266718023e+00 5.0691442586e+00 
149600 5.9550436851e+00 -7.0880765735e-05 2.9266718023e+00 -5.0691442586e+00 2.9266718023e+00 5.0691442586e+00 
149700 5.9550436849e+00 -7.0447530485e-05 2.9266730132e+00 -5.0691463560e+00 2.9266730132e+00 5.0691463560e+00 
149800 5.9550436849e+00 -7.0771689667e-05 2.9266730132e+00 -5.0691463560e+00 2.9266730132e+00 5.0691463560e+00 
149900 5.9550436847e+00 -7.0334534957e-05 2.9266742223e+00 -5.0691484502e+00 2.9266742223e+00 5.0691484502e+00 
150000 5.9550436847e+00 -7.0653642417e-05 2.9266742223e+00 -5.0691484502e+00 2.9266742223e+00 5.0691484502e+00 
150100 5.9550436846e+00 -7.0974516720e-05 2.9266742223e+00 -5.0691484502e+00 2.9266742223e+00 5.0691484502e+00 
150200 5.9550436845e+00 -7.0531617941e-05 2.9266754348e+00 -5.0691505504e+00 2.9266754348e+00 5.0691505504e+00 
150300 5.9550436844e+00 -7.0846912617e-05 2.9266754348e+00 -5.0691505504e+00 2.9266754348e+00 5.0691505504e+00 
150400 5.9550436843e+00 -7.0399908392e-05 2.9266766452e+00 -5.0691526468e+00 2.9266766452e+00 5.0691526468e+00 
150500 5.9550436842e+00 -7.0709816093e-05 2.9266766452e+00 -5.0691526468e+00 2.9266766452e+00 5.0691526468e+00 
150600 5.9550436841e+00 -7.1021357350e-05 2.9266766452e+00 -5.0691526468e+00 2.9266766452e+00 5.0691526468e+00 
150700 5.9550436840e+00 -7.0568503336e-05 2.9266778586e+00 -5.0691547484e+00 2.9266778586e+00 5.0691547484e+00 
150800 5.9550436839e+00 -7.0874238431e-05 2.9266778586e+00 -5.0691547484e+00 2.9266778586e+00 5.0691547484e+00 
150900 5.9550436838e+00 -7.0417288795e-05 2.9266790694e+00 -5.0691568456e+00 2.9266790694e+00 5.0691568456e+00 
151000 5.9550436838e+00 -7.0717461157e-05 2.9266790694e+00 -5.0691568456e+00 2.9266790694e+00 5.0691568456e+00 
151100 5.9550436836e+00 -7.0256723316e-05 2.9266802775e+00 -5.0691589382e+00 2.9266802775e+00 5.0691589382e+00 
151200 5.9550436836e+00 -7.0551505040e-05 2.9266802775e+00 -5.0691589382e+00 2.9266802775e+00 5.0691589382e+00 
151300 5.9550436835e+00 -7.0847906067e-05 2.9266802775e+00 -5.0691589382e+00 2.9266802775e+00 5.0691589382e+00 
151400 5.9550436834e+00 -7.0381767685e-05 2.9266814879e+00 -5.0691610346e+00 2.9266814879e+00 5.0691610346e+00 
151500 5.9550436833e+00 -7.0672353016e-05 2.9266814879e+00 -5.0691610346e+00 2.9266814879e+00 5.0691610346e+00 
151600 5.9550436833e+00 -7.0964400710e-05 2.9266814879e+00 -5.0691610346e+00 2.9266814879e+00 5.0691610346e+00 
151700 5.9550436832e+00 -7.0492520112e-05 2.9266827003e+00 -5.0691631345e+00 2.9266827003e+00 5.0691631345e+00 
151800 5.9550436831e+00 -7.0778492985e-05 2.9266827003e+00 -5.0691631345e+00 2.9266827003e+00 5.0691631345e+00 
151900 5.9550436830e+00 -7.0302703659e-05 2.9266839095e+00 -5.0691652289e+00 2.9266839095e+00 5.0691652289e+00 
152000 5.9550436829e+00 -7.0582919585e-05 2.9266839095e+00 -5.0691652289e+00 2.9266839095e+00 5.0691652289e+00 
152100 5.9550436829e+00 -7.0864615067e-05 2.9266839095e+00 -5.0691652289e+00 2.9266839095e+00 5.0691652289e+00 
152200 5.9550436828e+00 -7.0383472802e-05 2.9266851201e+00 -5.0691673259e+00 2.9266851201e+00 5.0691673259e+00 
152300 5.9550436827e+00 -7.0659131627e-05 2.9266851201e+00 -5.0691673259e+00 2.9266851201e+00 5.0691673259e+00 
152400 5.9550436827e+00 -7.0936167926e-05 2.9266851201e+00 -5.0691673259e+00 2.9266851201e+00 5.0691673259e+00 
152500 5.9550436825e+00 -7.0449509408e-05 2.9266863320e+00 -5.0691694249e+00 2.9266863320e+00 5.0691694249e+00 
152600 5.9550436825e+00 -7.0720343177e-05 2.9266863320e+00 -5.0691694249e+00 2.9266863320e+00 5.0691694249e+00 
152700 5.9550436824e+00 -7.0229992488e-05 2.9266875402e+00 -5.0691715176e+00 2.9266875402e+00 5.0691715176e+00 
152800 5.9550436823e+00 -7.0494985729e-05 2.9266875402e+00 -5.0691715176e+00 2.9266875402e+00 5.0691715176e+00 
152900 5.9550436823e+00 -7.0761425230e-05 2.9266875402e+00 -5.0691715176e+00 2.9266875402e+00 5.0691715176e+00 
153000 5.9550436822e+00 -7.0266113993e-05 2.9266887491e+00 -5.0691736114e+00 2.9266887491e+00 5.0691736114e+00 
153100 5.9550436821e+00 -7.0526483068e-05 2.9266887491e+00 -5.0691736114e+00 2.9266887491e+00 5.0691736114e+00 
153200 5.9550436821e+00 -7.0788214689e-05 2.9266887491e+00 -5.0691736114e+00 2.9266887491e+00 5.0691736114e+00 
153300 5.9550436820e+00 -7.0287837714e-05 2.9266899585e+00 -5.0691757061e+00 2.9266899585e+00 5.0691757061e+00 
153400 5.9550436819e+00 -7.0543369750e-05 2.9266899585e+00 -5.0691757061e+00 2.9266899585e+00 5.0691757061e+00 
153500 5.9550436819e+00 -7.0800217681e-05 2.9266899585e+00 -5.0691757061e+00 2.9266899585e+00 5.0691757061e+00 
153600 5.9550436818e+00 -7.0294789545e-05 2.9266911680e+00 -5.0691778011e+00 2.9266911680e+00 5.0691778011e+00 
153700 5.9550436817e+00 -7.0545367327e-05 2.9266911680e+00 -5.0691778011e+00 2.9266911680e+00 5.0691778011e+00 
153800 5.9550436817e+00 -7.0797236067e-05 2.9266911680e+00 -5.0691778011e+00 2.9266911680e+00 5.0691778011e+00 
153900 5.9550436816e+00 -7.0286841175e-05 2.9266923776e+00 -5.0691798961e+00 2.9266923776e+00 5.0691798961e+00 
154000 5.9550436815e+00 -7.0532404794e-05 2.9266923776e+00 -5.0691798961e+00 2.9266923776e+00 5.0691798961e+00 
154100 5.9550436815e+00 -7.0779247483e-05 2.9266923776e+00 -5.0691798961e+00 2.9266923776e+00 5.0691798961e+00 
154200 5.9550436814e+00 -7.0264011907e-05 2.9266935868e+00 -5.0691819905e+00 2.9266935868e+00 5.0691819905e+00 
154300 5.9550436813e+00 -7.0504536838e-05 2.9266935868e+00 -5.0691819905e+00 2.9266935868e+00 5.0691819905e+00 
154400 5.9550436813e+00 -7.0746336950e-05 2.9266935868e+00 -5.0691819905e+00 2.9266935868e+00 5.0691819905e+00 
154500 5.9550436812e+00 -7.0226411939e-05 2.9266947954e+00 -5.0691840839e+00 2.9266947954e+00 5.0691840839e+00 
154600 5.9550436812e+00 -7.0461896195e-05 2.9266947954e+00 -5.0691840839e+00 2.9266947954e+00 5.0691840839e+00 
154700 5.9550436811e+00 -7.0698656762e-05 2.9266947954e+00 -5.0691840839e+00 2.9266947954e+00 5.0691840839e+00 
154800 5.9550436811e+00 -7.0936476189e-05 2.9266947954e+00 -5.0691840839e+00 2.9266947954e+00 5.0691840839e+00 
154900 5.9550436810e+00 -7.0410340376e-05 2.9266960073e+00 -5.0691861829e+00 2.9266960073e+00 5.0691861829e+00 
155000 5.9550436810e+00 -7.0641491887e-05 2.9266960073e+00 -5.0691861829e+00 2.9266960073e+00 5.0691861829e+00 
155100 5.9550436809e+00 -7.0873795677e-05 2.9266960073e+00 -5.0691861829e+00 2.9266960073e+00 5.0691861829e+00 
155200 5.9550436808e+00 -7.0342898708e-05 2.9266972181e+00 -5.0691882801e+00 2.9266972181e+00 5.0691882801e+00 
155300 5.9550436808e+00 -7.0568686792e-05 2.9266972181e+00 -5.0691882801e+00 2.9266972181e+00 5.0691882801e+00 
155400 5.9550436807e+00 -7.0795683345e-05 2.9266972181e+00 -5.0691882801e+00 2.9266972181e+00 5.0691882801e+00 
155500 5.9550436807e+00 -7.0260369933e-05 2.9266984276e+00 -5.0691903750e+00 2.9266984276e+00 5.0691903750e+00 
155600 5.9550436806e+00 -7.0480950259e-05 2.9266984276e+00 -5.0691903750e+00 2.9266984276e+00 5.0691903750e+00 
155700 5.9550436806e+00 -7.0702775159e-05 2.9266984276e+00 -5.0691903750e+00 2.9266984276e+00 5.0691903750e+00 
155800 5.9550436805e+00 -7.0925635219e-05 2.9266984276e+00 -5.0691903750e+00 2.9266984276e+00 5.0691903750e+00 
155900 5.9550436805e+00 -7.0384640425e-05 2.9266996393e+00 -5.0691924737e+00 2.9266996393e+00 5.0691924737e+00 
156000 5.9550436804e+00 -7.0600805977e-05 2.9266996393e+00 -5.0691924737e+00 2.9266996393e+00 5.0691924737e+00 
156100 5.9550436804e+00 -7.0818117454e-05 2.9266996393e+00 -5.0691924737e+00 2.9266996393e+00 5.0691924737e+00 
156200 5.9550436803e+00 -7.0272826797e-05 2.9267008491e+00 -5.0691945693e+00 2.9267008491e+00 5.0691945693e+00 
156300 5.9550436803e+00 -7.0483628571e-05 2.9267008491e+00 -5.0691945693e+00 2.9267008491e+00 5.0691945693e+00 
156400 5.9550436802e+00 -7.0695642951e-05 2.9267008491e+00 -5.0691945693e+00 2.9267008491e+00 5.0691945693e+00 
156500 5.9550436802e+00 -7.0908667511e-05 2.9267008491e+00 -5.0691945693e+00 2.9267008491e+00 5.0691945693e+00 
156600 5.9550436801e+00 -7.0358001334e-05 2.9267020606e+00 -5.0691966675e+00 2.9267020606e+00 5.0691966675e+00 
156700 5.9550436801e+00 -7.0564300273e-05 2.9267020606e+00 -5.0691966675e+00 2.9267020606e+00 5.0691966675e+00 
156800 5.9550436800e+00 -7.0771735085e-05 2.9267020606e+00 -5.0691966675e+00 2.9267020606e+00 5.0691966675e+00 
156900 5.9550436800e+00 -7.0217061724e-05 2.9267032696e+00 -5.0691987617e+00 2.9267032696e+00 5.0691987617e+00 
157000 5.9550436799e+00 -7.0417982597e-05 2.9267032696e+00 -5.0691987617e+00 2.9267032696e+00 5.0691987617e+00 
157100 5.9550436799e+00 -7.0620115041e-05 2.9267032696e+00 -5.0691987617e+00 2.9267032696e+00 5.0691987617e+00 
157200 5.9550436799e+00 -7.0823259006e-05 2.9267032696e+00 -5.0691987617e+00 2.9267032696e+00 5.0691987617e+00 
157300 5.9550436798e+00 -7.0263636873e-05 2.9267044796e+00 -5.0692008574e+00 2.9267044796e+00 5.0692008574e+00 
157400 5.9550436798e+00 -7.0460073977e-05 2.9267044796e+00 -5.0692008574e+00 2.9267044796e+00 5.0692008574e+00 
157500 5.9550436797e+00 -7.0657653166e-05 2.9267044796e+00 -5.0692008574e+00 2.9267044796e+00 5.0692008574e+00 
157600 5.9550436797e+00 -7.0856186442e-05 2.9267044796e+00 -5.0692008574e+00 2.9267044796e+00 5.0692008574e+00 
157700 5.9550436796e+00 -7.0291551225e-05 2.9267056901e+00 -5.0692029540e+00 2.9267056901e+00 5.0692029540e+00 
157800 5.9550436796e+00 -7.0483287315e-05 2.9267056901e+00 -5.0692029540e+00 2.9267056901e+00 5.0692029540e+00 
157900 5.9550436796e+00 -7.0676133552e-05 2.9267056901e+00 -5.0692029540e+00 2.9267056901e+00 5.0692029540e+00 
158000 5.9550436795e+00 -7.0869907696e-05 2.9267056901e+00 -5.0692029540e+00 2.9267056901e+00 5.0692029540e+00 
158100 5.9550436795e+00 -7.0300344139e-05 2.9267069008e+00 -5.0692050511e+00 2.9267069008e+00 5.0692050511e+00 
158200 5.9550436794e+00 -7.0487280883e-05 2.9267069008e+00 -5.0692050511e+00 2.9267069008e+00 5.0692050511e+00 
158300 5.9550436794e+00 -7.0675313944e-05 2.9267069008e+00 -5.0692050511e+00 2.9267069008e+00 5.0692050511e+00 
158400 5.9550436794e+00 -7.0864263919e-05 2.9267069008e+00 -5.0692050511e+00 2.9267069008e+00 5.0692050511e+00 
158500 5.9550436793e+00 -7.0289928563e-05 2.9267081115e+00 -5.0692071480e+00 2.9267081115e+00 5.0692071480e+00 
158600 5.9550436793e+00 -7.0472026680e-05 2.9267081115e+00 -5.0692071480e+00 2.9267081115e+00 5.0692071480e+00 
158700 5.9550436792e+00 -7.0655216193e-05 2.9267081115e+00 -5.0692071480e+00 2.9267081115e+00 5.0692071480e+00 
158800 5.9550436792e+00 -7.0839319163e-05 2.9267081115e+00 -5.0692071480e+00 2.9267081115e+00 5.0692071480e+00 
158900 5.9550436791e+00 -7.0260403696e-05 2.9267093217e+00 -5.0692092442e+00 2.9267093217e+00 5.0692092442e+00 
159000 5.9550436791e+00 -7.0437654460e-05 2.9267093217e+00 -5.0692092442e+00 2.9267093217e+00 5.0692092442e+00 
159100 5.9550436791e+00 -7.0615996236e-05 2.9267093217e+00 -5.0692092442e+00 2.9267093217e+00 5.0692092442e+00 
159200 5.9550436791e+00 -7.0795251942e-05 2.9267093217e+00 -5.0692092442e+00 2.9267093217e+00 5.0692092442e+00 
159300 5.9550436790e+00 -7.0211965741e-05 2.9267105312e+00 -5.0692113390e+00 2.9267105312e+00 5.0692113390e+00 
159400 5.9550436790e+00 -7.0384377582e-05 2.9267105312e+00 -5.0692113390e+00 2.9267105312e+00 5.0692113390e+00 
159500 5.9550436790e+00 -7.0557882612e-05 2.9267105312e+00 -5.0692113390e+00 2.9267105312e+00 5.0692113390e+00 
159600 5.9550436789e+00 -7.0732304373e-05 2.9267105312e+00 -5.0692113390e+00 2.9267105312e+00 5.0692113390e+00 
159700 5.9550436789e+00 -7.0144866484e-05 2.9267117396e+00 -5.0692134320e+00 2.9267117396e+00 5.0692134320e+00 
159800 5.9550436788e+00 -7.0312459070e-05 2.9267117396e+00 -5.0692134320e+00 2.9267117396e+00 5.0692134320e+00 
159900 5.9550436788e+00 -7.0481148776e-05 2.9267117396e+00 -5.0692134320e+00 2.9267117396e+00 5.0692134320e+00 
160000 5.9550436788e+00 -7.0650759714e-05 2.9267117396e+00 -5.0692134320e+00 2.9267117396e+00 5.0692134320e+00 
160100 5.9550436788e+00 -7.0821144565e-05 2.9267117396e+00 -5.0692134320e+00 2.9267117396e+00 5.0692134320e+00 
160200 5.9550436787e+00 -7.0228592893e-05 2.9267129495e+00 -5.0692155277e+00 2.9267129495e+00 5.0692155277e+00 
160300 5.9550436787e+00 -7.0391919969e-05 2.9267129495e+00 -5.0692155277e+00 2.9267129495e+00 5.0692155277e+00 
160400 5.9550436787e+00 -7.0556261709e-05 2.9267129495e+00 -5.0692155277e+00 2.9267129495e+00 5.0692155277e+00 
160500 5.9550436786e+00 -7.0721455560e-05 2.9267129495e+00 -5.0692155277e+00 2.9267129495e+00 5.0692155277e+00 
160600 5.9550436786e+00 -7.0124853942e-05 2.9267141577e+00 -5.0692176203e+00 2.9267141577e+00 5.0692176203e+00 
160700 5.9550436785e+00 -7.0283123762e-05 2.9267141577e+00 -5.0692176203e+00 2.9267141577e+00 5.0692176203e+00 
160800 5.9550436785e+00 -7.0442455524e-05 2.9267141577e+00 -5.0692176203e+00 2.9267141577e+00 5.0692176203e+00 
160900 5.9550436785e+00 -7.0602680248e-05 2.9267141577e+00 -5.0692176203e+00 2.9267141577e+00 5.0692176203e+00 
161000 5.9550436785e+00 -7.0763656445e-05 2.9267141577e+00 -5.0692176203e+00 2.9267141577e+00 5.0692176203e+00 
161100 5.9550436784e+00 -7.0162298717e-05 2.9267153666e+00 -5.0692197143e+00 2.9267153666e+00 5.0692197143e+00 
161200 5.9550436784e+00 -7.0316193150e-05 2.9267153666e+00 -5.0692197143e+00 2.9267153666e+00 5.0692197143e+00 
161300 5.9550436784e+00 -7.0471092039e-05 2.9267153666e+00 -5.0692197143e+00 2.9267153666e+00 5.0692197143e+00 
161400 5.9550436784e+00 -7.0626835961e-05 2.9267153666e+00 -5.0692197143e+00 2.9267153666e+00 5.0692197143e+00 
161500 5.9550436783e+00 -7.0783291364e-05 2.9267153666e+00 -5.0692197143e+00 2.9267153666e+00 5.0692197143e+00 
161600 5.9550436783e+00 -7.0177167831e-05 2.9267165759e+00 -5.0692218088e+00 2.9267165759e+00 5.0692218088e+00 
161700 5.9550436783e+00 -7.0326478018e-05 2.9267165759e+00 -5.0692218088e+00 2.9267165759e+00 5.0692218088e+00 
161800 5.9550436782e+00 -7.0476769564e-05 2.9267165759e+00 -5.0692218088e+00 2.9267165759e+00 5.0692218088e+00 
161900 5.9550436782e+00 -7.0534104432e-05 2.9267165759e+00 -5.0692218088e+00 2.9267165759e+00 5.0692218088e+00 
161900 5.9550436782e+00 -7.0534104432e-05 2.9267165759e+00 -5.0692218088e+00 2.9267165759e+00 5.0692218088e+00 
