# step Hamiltonian StressXX CellTensor1 CellTensor2 CellTensor3 CellTensor4 
0 4.9669263778e+00 -2.1324568504e-02 2.5594246509e+00 -4.4330535334e+00 2.5594246509e+00 4.4330535334e+00 
100 4.9668379241e+00 -1.9981975157e-02 2.5594246509e+00 -4.4330535334e+00 2.5594246509e+00 4.4330535334e+00 
200 4.9667824339e+00 -1.8382326488e-02 2.5598150215e+00 -4.4337296751e+00 2.5598150215e+00 4.4337296751e+00 
300 4.9667577561e+00 -1.6659469703e-02 2.5601740856e+00 -4.4343515925e+00 2.5601740856e+00 4.4343515925e+00 
400 4.9667551677e+00 -1.4827249553e-02 2.5604994506e+00 -4.4349151413e+00 2.5604994506e+00 4.4349151413e+00 
500 4.9667665201e+00 -1.2899372900e-02 2.5607889943e+00 -4.4354166456e+00 2.5607889943e+00 4.4354166456e+00 
600 4.9667843249e+00 -1.0889364864e-02 2.5610408617e+00 -4.4358528927e+00 2.5610408617e+00 4.4358528927e+00 
700 4.9668018193e+00 -8.8105284532e-03 2.5612534611e+00 -4.4362211257e+00 2.5612534611e+00 4.4362211257e+00 
800 4.9668130130e+00 -6.6759069763e-03 2.5614254595e+00 -4.4365190356e+00 2.5614254595e+00 4.4365190356e+00 
900 4.9668127184e+00 -4.4982488171e-03 2.5615557768e+00 -4.4367447519e+00 2.5615557768e+00 4.4367447519e+00 
1000 4.9667965659e+00 -2.2899743072e-03 2.5616435804e+00 -4.4368968321e+00 2.5616435804e+00 4.4368968321e+00 
1100 4.9667610036e+00 -6.3144572315e-05 2.5616882779e+00 -4.4369742504e+00 2.5616882779e+00 4.4369742504e+00 
1200 4.9667032814e+00 2.1701865608e-03 2.5616882779e+00 -4.4369742504e+00 2.5616882779e+00 4.4369742504e+00 
1300 4.9666214397e+00 4.3995190409e-03 2.5616459195e+00 -4.4369008835e+00 2.5616459195e+00 4.4369008835e+00 
1400 4.9665142625e+00 6.6136607919e-03 2.5615600471e+00 -4.4367521481e+00 2.5615600471e+00 4.4367521481e+00 
1500 4.9663812393e+00 8.8022607588e-03 2.5614309537e+00 -4.4365285520e+00 2.5614309537e+00 4.4365285520e+00 
1600 4.9662225139e+00 1.0955454055e-02 2.5612591326e+00 -4.4362309489e+00 2.5612591326e+00 4.4362309489e+00 
1700 4.9660388278e+00 1.3063881510e-02 2.5610452670e+00 -4.4358605229e+00 2.5610452670e+00 4.4358605229e+00 
1800 4.9658314592e+00 1.5118707260e-02 2.5607902214e+00 -4.4354187711e+00 2.5607902214e+00 4.4354187711e+00 
1900 4.9656021570e+00 1.7111634369e-02 2.5604950310e+00 -4.4349074862e+00 2.5604950310e+00 4.4349074862e+00 
2000 4.9653530736e+00 1.9034918508e-02 2.5601608913e+00 -4.4343287392e+00 2.5601608913e+00 4.4343287392e+00 
2100 4.9650866957e+00 2.0881379676e-02 2.5597891479e+00 -4.4336848608e+00 2.5597891479e+00 4.4336848608e+00 
2200 4.9648057752e+00 2.2644411971e-02 2.5593812857e+00 -4.4329784227e+00 2.5593812857e+00 4.4329784227e+00 
2300 4.9645132607e+00 2.4317991394e-02 2.5589389178e+00 -4.4322122191e+00 2.5589389178e+00 4.4322122191e+00 
2400 4.9642122314e+00 2.5896681662e-02 2.5584637748e+00 -4.4313892473e+00 2.5584637748e+00 4.4313892473e+00 
2500 4.9639058328e+00 2.7375637998e-02 2.5579576932e+00 -4.4305126883e+00 2.5579576932e+00 4.4305126883e+00 
2600 4.9635972163e+00 2.8750608866e-02 2.5574226046e+00 -4.4295858875e+00 2.5574226046e+00 4.4295858875e+00 
2700 4.9632894829e+00 3.0017935596e-02 2.5568605239e+00 -4.4286123353e+00 2.5568605239e+00 4.4286123353e+00 
2800 4.9629856311e+00 3.1174549856e-02 2.5562735387e+00 -4.4275956471e+00 2.5562735387e+00 4.4275956471e+00 
2900 4.9626885101e+00 3.2217968954e-02 2.5556637974e+00 -4.4265395442e+00 2.5556637974e+00 4.4265395442e+00 
3000 4.9624007790e+00 3.3146288905e-02 2.5550334985e+00 -4.4254478344e+00 2.5550334985e+00 4.4254478344e+00 
3100 4.9621248706e+00 3.3958175293e-02 2.5543848791e+00 -4.4243243926e+00 2.5543848791e+00 4.4243243926e+00 
3200 4.9618629625e+00 3.4652851892e-02 2.5537202043e+00 -4.4231731422e+00 2.5537202043e+00 4.4231731422e+00 
3300 4.9616169531e+00 3.5230087114e-02 2.5530417565e+00 -4.4219980361e+00 2.5530417565e+00 4.4219980361e+00 
3400 4.9613884448e+00 3.5690178298e-02 2.5523518246e+00 -4.4208030390e+00 2.5523518246e+00 4.4208030390e+00 
3500 4.9611787318e+00 3.6033933956e-02 2.5516526939e+00 -4.4195921092e+00 2.5516526939e+00 4.4195921092e+00 
3600 4.9609887955e+00 3.6262654038e-02 2.5509466364e+00 -4.4183691817e+00 2.5509466364e+00 4.4183691817e+00 
3700 4.9608193038e+00 3.6378108377e-02 2.5502359009e+00 -4.4171381516e+00 2.5502359009e+00 4.4171381516e+00 
3800 4.9606706167e+00 3.6382513438e-02 2.5495227039e+00 -4.4159028581e+00 2.5495227039e+00 4.4159028581e+00 
3900 4.9605427966e+00 3.6278507544e-02 2.5488092210e+00 -4.4146670695e+00 2.5488092210e+00 4.4146670695e+00 
4000 4.9604356228e+00 3.6069124766e-02 2.5480975785e+00 -4.4134344686e+00 2.5480975785e+00 4.4134344686e+00 
4100 4.9603486101e+00 3.5757767649e-02 2.5473898455e+00 -4.4122086391e+00 2.5473898455e+00 4.4122086391e+00 
4200 4.9602810309e+00 3.5348179008e-02 2.5466880266e+00 -4.4109930531e+00 2.5466880266e+00 4.4109930531e+00 
4300 4.9602319397e+00 3.4844412961e-02 2.5459940552e+00 -4.4097910594e+00 2.5459940552e+00 4.4097910594e+00 
4400 4.9602002007e+00 3.4250805427e-02 2.5453097871e+00 -4.4086058722e+00 2.5453097871e+00 4.4086058722e+00 
4500 4.9601845156e+00 3.3571944295e-02 2.5446369948e+00 -4.4074405618e+00 2.5446369948e+00 4.4074405618e+00 
4600 4.9601834542e+00 3.2812639431e-02 2.5439773625e+00 -4.4062980452e+00 2.5439773625e+00 4.4062980452e+00 
4700 4.9601954838e+00 3.1977892758e-02 2.5433324815e+00 -4.4051810786e+00 2.5433324815e+00 4.4051810786e+00 
4800 4.9602189996e+00 3.1072868538e-02 2.5427038462e+00 -4.4040922502e+00 2.5427038462e+00 4.4040922502e+00 
4900 4.9602523540e+00 3.0102864068e-02 2.5420928504e+00 -4.4030339745e+00 2.5420928504e+00 4.4030339745e+00 
5000 4.9602938849e+00 2.9073280909e-02 2.5415007852e+00 -4.4020084875e+00 2.5415007852e+00 4.4020084875e+00 
5100 4.9603419425e+00 2.7989596819e-02 2.5409288360e+00 -4.4010178423e+00 2.5409288360e+00 4.4010178423e+00 
5200 4.9603949140e+00 2.6857338494e-02 2.5403780810e+00 -4.4000639067e+00 2.5403780810e+00 4.4000639067e+00 
5300 4.9604512464e+00 2.5682055243e-02 2.5398494902e+00 -4.3991483606e+00 2.5398494902e+00 4.3991483606e+00 
5400 4.9605094666e+00 2.4469293692e-02 2.5393439248e+00 -4.3982726956e+00 2.5393439248e+00 4.3982726956e+00 
5500 4.9605681990e+00 2.3224573609e-02 2.5388621365e+00 -4.3974382139e+00 2.5388621365e+00 4.3974382139e+00 
5600 4.9606261799e+00 2.1953364904e-02 2.5384047687e+00 -4.3966460296e+00 2.5384047687e+00 4.3966460296e+00 
5700 4.9606822698e+00 2.0661065887e-02 2.5379723566e+00 -4.3958970698e+00 2.5379723566e+00 4.3958970698e+00 
5800 4.9607354619e+00 1.9352982808e-02 2.5375653286e+00 -4.3951920767e+00 2.5375653286e+00 4.3951920767e+00 
5900 4.9607848887e+00 1.8034310729e-02 2.5371840084e+00 -4.3945316108e+00 2.5371840084e+00 4.3945316108e+00 
6000 4.9608298253e+00 1.6710115744e-02 2.5368286166e+00 -4.3939160541e+00 2.5368286166e+00 4.3939160541e+00 
6100 4.9608696900e+00 1.5385318565e-02 2.5364992732e+00 -4.3933456146e+00 2.5364992732e+00 4.3933456146e+00 
6200 4.9609040430e+00 1.4064679473e-02 2.5361960007e+00 -4.3928203311e+00 2.5361960007e+00 4.3928203311e+00 
6300 4.9609325823e+00 1.2752784633e-02 2.5359187267e+00 -4.3923400785e+00 2.5359187267e+00 4.3923400785e+00 
6400 4.9609551381e+00 1.1454033764e-02 2.5356672878e+00 -4.3919045735e+00 2.5356672878e+00 4.3919045735e+00 
6500 4.9609716652e+00 1.0172629140e-02 2.5354414328e+00 -4.3915133811e+00 2.5354414328e+00 4.3915133811e+00 
6600 4.9609822337e+00 8.9125658947e-03 2.5352408268e+00 -4.3911659214e+00 2.5352408268e+00 4.3911659214e+00 
6700 4.9609870188e+00 7.6776236119e-03 2.5350650552e+00 -4.3908614762e+00 2.5350650552e+00 4.3908614762e+00 
6800 4.9609862896e+00 6.4713591504e-03 2.5349136282e+00 -4.3905991969e+00 2.5349136282e+00 4.3905991969e+00 
6900 4.9609803968e+00 5.2971006765e-03 2.5347859847e+00 -4.3903781118e+00 2.5347859847e+00 4.3903781118e+00 
7000 4.9609697605e+00 4.1579428569e-03 2.5346814973e+00 -4.3901971343e+00 2.5346814973e+00 4.3901971343e+00 
7100 4.9609548574e+00 3.0567431695e-03 2.5345994767e+00 -4.3900550705e+00 2.5345994767e+00 4.3900550705e+00 
7200 4.9609362082e+00 1.9961192838e-03 2.5345391767e+00 -4.3899506277e+00 2.5345391767e+00 4.3899506277e+00 
7300 4.9609143649e+00 9.7844746630e-04 2.5344997984e+00 -4.3898824226e+00 2.5344997984e+00 4.3898824226e+00 
7400 4.9608898990e+00 5.8619602240e-06 2.5344804959e+00 -4.3898489896e+00 2.5344804959e+00 4.3898489896e+00 
7500 4.9608633898e+00 -9.1970594943e-04 2.5344804959e+00 -4.3898489896e+00 2.5344804959e+00 4.3898489896e+00 
7600 4.9608354141e+00 -1.7966815422e-03 2.5344986398e+00 -4.3898804158e+00 2.5344986398e+00 4.3898804158e+00 
7700 4.9608065357e+00 -2.6236127562e-03 2.5345340844e+00 -4.3899418076e+00 2.5345340844e+00 4.3899418076e+00 
7800 4.9607772970e+00 -3.3993218308e-03 2.5345858418e+00 -4.3900314542e+00 2.5345858418e+00 4.3900314542e+00 
7900 4.9607482104e+00 -4.1228631845e-03 2.5346529008e+00 -4.3901476038e+00 2.5346529008e+00 4.3901476038e+00 
8000 4.9607197521e+00 -4.7935191852e-03 2.5347342312e+00 -4.3902884722e+00 2.5347342312e+00 4.3902884722e+00 
8100 4.9606923560e+00 -5.4107952692e-03 2.5348287884e+00 -4.3904522501e+00 2.5348287884e+00 4.3904522501e+00 
8200 4.9606664092e+00 -5.9744144539e-03 2.5349355182e+00 -4.3906371114e+00 2.5349355182e+00 4.3906371114e+00 
8300 4.9606422484e+00 -6.4843112821e-03 2.5350533607e+00 -4.3908412206e+00 2.5350533607e+00 4.3908412206e+00 
8400 4.9606201576e+00 -6.9406252391e-03 2.5351812547e+00 -4.3910627396e+00 2.5351812547e+00 4.3910627396e+00 
8500 4.9606003668e+00 -7.3436936784e-03 2.5353181421e+00 -4.3912998355e+00 2.5353181421e+00 4.3912998355e+00 
8600 4.9605830513e+00 -7.6940442941e-03 2.5354629714e+00 -4.3915506871e+00 2.5354629714e+00 4.3915506871e+00 
8700 4.9605683329e+00 -7.9923871751e-03 2.5356147015e+00 -4.3918134914e+00 2.5356147015e+00 4.3918134914e+00 
8800 4.9605562809e+00 -8.2396064745e-03 2.5357723057e+00 -4.3920864698e+00 2.5357723057e+00 4.3920864698e+00 
8900 4.9605469146e+00 -8.4367517298e-03 2.5359347748e+00 -4.3923678746e+00 2.5359347748e+00 4.3923678746e+00 
9000 4.9605402061e+00 -8.5850288654e-03 2.5361011206e+00 -4.3926559941e+00 2.5361011206e+00 4.3926559941e+00 
9100 4.9605360839e+00 -8.6857909104e-03 2.5362703790e+00 -4.3929491581e+00 2.5362703790e+00 4.3929491581e+00 
9200 4.9605344369e+00 -8.7405284651e-03 2.5364416124e+00 -4.3932457432e+00 2.5364416124e+00 4.3932457432e+00 
9300 4.9605351191e+00 -8.7508599466e-03 2.5366139134e+00 -4.3935441772e+00 2.5366139134e+00 4.3935441772e+00 
9400 4.9605379538e+00 -8.7185216475e-03 2.5367864063e+00 -4.3938429437e+00 2.5367864063e+00 4.3938429437e+00 
9500 4.9605427391e+00 -8.6453576386e-03 2.5369582501e+00 -4.3941405859e+00 2.5369582501e+00 4.3941405859e+00 
9600 4.9605492529e+00 -8.5333095495e-03 2.5371286403e+00 -4.3944357103e+00 2.5371286403e+00 4.3944357103e+00 
9700 4.9605572575e+00 -8.3844062583e-03 2.5372968108e+00 -4.3947269902e+00 2.5372968108e+00 4.3947269902e+00 
9800 4.9605665053e+00 -8.2007535252e-03 2.5374620358e+00 -4.3950131683e+00 2.5374620358e+00 4.3950131683e+00 
9900 4.9605767429e+00 -7.9845236018e-03 2.5376236311e+00 -4.3952930596e+00 2.5376236311e+00 4.3952930596e+00 
10000 4.9605877165e+00 -7.7379448514e-03 2.5377809556e+00 -4.3955655536e+00 2.5377809556e+00 4.3955655536e+00 
10100 4.9605991760e+00 -7.4632914131e-03 2.5379334121e+00 -4.3958296159e+00 2.5379334121e+00 4.3958296159e+00 
10200 4.9606108788e+00 -7.1628729434e-03 2.5380804483e+00 -4.3960842902e+00 2.5380804483e+00 4.3960842902e+00 
10300 4.9606225937e+00 -6.8390244714e-03 2.5382215577e+00 -4.3963286988e+00 2.5382215577e+00 4.3963286988e+00 
10400 4.9606341042e+00 -6.4940963994e-03 2.5383562797e+00 -4.3965620441e+00 2.5383562797e+00 4.3965620441e+00 
10500 4.9606452111e+00 -6.1304446840e-03 2.5384842001e+00 -4.3967836087e+00 2.5384842001e+00 4.3967836087e+00 
10600 4.9606557350e+00 -5.7504212308e-03 2.5386049511e+00 -4.3969927557e+00 2.5386049511e+00 4.3969927557e+00 
10700 4.9606655181e+00 -5.3563645356e-03 2.5387182115e+00 -4.3971889283e+00 2.5387182115e+00 4.3971889283e+00 
10800 4.9606744256e+00 -4.9505906040e-03 2.5388237057e+00 -4.3973716497e+00 2.5388237057e+00 4.3973716497e+00 
10900 4.9606823463e+00 -4.5353841811e-03 2.5389212040e+00 -4.3975405218e+00 2.5389212040e+00 4.3975405218e+00 
11000 4.9606891937e+00 -4.1129903204e-03 2.5390105217e+00 -4.3976952245e+00 2.5390105217e+00 4.3976952245e+00 
11100 4.9606949053e+00 -3.6856063210e-03 2.5390915181e+00 -4.3978355143e+00 2.5390915181e+00 4.3978355143e+00 
11200 4.9606994426e+00 -3.2553740611e-03 2.5391640957e+00 -4.3979612224e+00 2.5391640957e+00 4.3979612224e+00 
11300 4.9607027902e+00 -2.8243727512e-03 2.5392281992e+00 -4.3980722530e+00 2.5392281992e+00 4.3980722530e+00 
11400 4.9607049545e+00 -2.3946121323e-03 2.5392838142e+00 -4.3981685810e+00 2.5392838142e+00 4.3981685810e+00 
11500 4.9607059626e+00 -1.9680261393e-03 2.5393309657e+00 -4.3982502498e+00 2.5393309657e+00 4.3982502498e+00 
11600 4.9607058601e+00 -1.5464670493e-03 2.5393697166e+00 -4.3983173684e+00 2.5393697166e+00 4.3983173684e+00 
11700 4.9607047096e+00 -1.1317001315e-03 2.5394001665e+00 -4.3983701092e+00 2.5394001665e+00 4.3983701092e+00 
11800 4.9607025884e+00 -7.2539881252e-04 2.5394224494e+00 -4.3984087042e+00 2.5394224494e+00 4.3984087042e+00 
11900 4.9606995864e+00 -3.2914036891e-04 2.5394367321e+00 -4.3984334427e+00 2.5394367321e+00 4.3984334427e+00 
12000 4.9606958033e+00 5.5597843662e-05 2.5394432127e+00 -4.3984446674e+00 2.5394432127e+00 4.3984446674e+00 
12100 4.9606913478e+00 4.2780443621e-04 2.5394432127e+00 -4.3984446674e+00 2.5394432127e+00 4.3984446674e+00 
12200 4.9606863322e+00 7.8548848394e-04 2.5394347895e+00 -4.3984300780e+00 2.5394347895e+00 4.3984300780e+00 
12300 4.9606808730e+00 1.1278499540e-03 2.5394193237e+00 -4.3984032904e+00 2.5394193237e+00 4.3984032904e+00 
12400 4.9606750875e+00 1.4538379815e-03 2.5393971169e+00 -4.3983648271e+00 2.5393971169e+00 4.3983648271e+00 
12500 4.9606690920e+00 1.7625123157e-03 2.5393684913e+00 -4.3983152461e+00 2.5393684913e+00 4.3983152461e+00 
12600 4.9606629997e+00 2.0530438458e-03 2.5393337876e+00 -4.3982551376e+00 2.5393337876e+00 4.3982551376e+00 
12700 4.9606569187e+00 2.3247146060e-03 2.5392933629e+00 -4.3981851199e+00 2.5392933629e+00 4.3981851199e+00 
12800 4.9606509510e+00 2.5769172753e-03 2.5392475882e+00 -4.3981058358e+00 2.5392475882e+00 4.3981058358e+00 
12900 4.9606451905e+00 2.8091541849e-03 2.5391968466e+00 -4.3980179488e+00 2.5391968466e+00 4.3980179488e+00 
13000 4.9606397223e+00 3.0210358543e-03 2.5391415310e+00 -4.3979221393e+00 2.5391415310e+00 4.3979221393e+00 
13100 4.9606346212e+00 3.2122790744e-03 2.5390820419e+00 -4.3978191012e+00 2.5390820419e+00 4.3978191012e+00 
13200 4.9606299519e+00 3.3827045603e-03 2.5390187855e+00 -4.3977095379e+00 2.5390187855e+00 4.3977095379e+00 
13300 4.9606257675e+00 3.5322341985e-03 2.5389521714e+00 -4.3975941588e+00 2.5389521714e+00 4.3975941588e+00 
13400 4.9606221101e+00 3.6608879138e-03 2.5388826108e+00 -4.3974736764e+00 2.5388826108e+00 4.3974736764e+00 
13500 4.9606190101e+00 3.7687801836e-03 2.5388105147e+00 -4.3973488023e+00 2.5388105147e+00 4.3973488023e+00 
13600 4.9606164868e+00 3.8561162263e-03 2.5387362918e+00 -4.3972202444e+00 2.5387362918e+00 4.3972202444e+00 
13700 4.9606145485e+00 3.9231878964e-03 2.5386603466e+00 -4.3970887034e+00 2.5386603466e+00 4.3970887034e+00 
13800 4.9606131933e+00 3.9703693127e-03 2.5385830781e+00 -4.3969548705e+00 2.5385830781e+00 4.3969548705e+00 
13900 4.9606124093e+00 3.9981122534e-03 2.5385048780e+00 -4.3968194239e+00 2.5385048780e+00 4.3968194239e+00 
14000 4.9606121759e+00 4.0069413467e-03 2.5384261290e+00 -4.3966830268e+00 2.5384261290e+00 4.3966830268e+00 
14100 4.9606124641e+00 3.9974490897e-03 2.5383472038e+00 -4.3965463241e+00 2.5383472038e+00 4.3965463241e+00 
14200 4.9606132383e+00 3.9702907253e-03 2.5382684630e+00 -4.3964099411e+00 2.5382684630e+00 4.3964099411e+00 
14300 4.9606144564e+00 3.9261790084e-03 2.5381902547e+00 -4.3962744805e+00 2.5381902547e+00 4.3962744805e+00 
14400 4.9606160717e+00 3.8658788910e-03 2.5381129130e+00 -4.3961405207e+00 2.5381129130e+00 4.3961405207e+00 
14500 4.9606180334e+00 3.7902021562e-03 2.5380367569e+00 -4.3960086144e+00 2.5380367569e+00 4.3960086144e+00 
14600 4.9606202882e+00 3.7000020284e-03 2.5379620892e+00 -4.3958792862e+00 2.5379620892e+00 4.3958792862e+00 
14700 4.9606227808e+00 3.5961677891e-03 2.5378891964e+00 -4.3957530322e+00 2.5378891964e+00 4.3957530322e+00 
14800 4.9606254556e+00 3.4796194227e-03 2.5378183472e+00 -4.3956303177e+00 2.5378183472e+00 4.3956303177e+00 
14900 4.9606282571e+00 3.3513023185e-03 2.5377497921e+00 -4.3955115769e+00 2.5377497921e+00 4.3955115769e+00 
15000 4.9606311310e+00 3.2121820526e-03 2.5376837634e+00 -4.3953972118e+00 2.5376837634e+00 4.3953972118e+00 
15100 4.9606340254e+00 3.0632392715e-03 2.5376204740e+00 -4.3952875913e+00 2.5376204740e+00 4.3952875913e+00 
15200 4.9606368911e+00 2.9054646985e-03 2.5375601177e+00 -4.3951830512e+00 2.5375601177e+00 4.3951830512e+00 
15300 4.9606396822e+00 2.7398542822e-03 2.5375028688e+00 -4.3950838931e+00 2.5375028688e+00 4.3950838931e+00 
15400 4.9606423571e+00 2.5674045041e-03 2.5374488817e+00 -4.3949903848e+00 2.5374488817e+00 4.3949903848e+00 
15500 4.9606448787e+00 2.3891078621e-03 2.5373982916e+00 -4.3949027602e+00 2.5373982916e+00 4.3949027602e+00 
15600 4.9606472145e+00 2.2059485437e-03 2.5373512139e+00 -4.3948212191e+00 2.5373512139e+00 4.3948212191e+00 
15700 4.9606493374e+00 2.0188983013e-03 2.5373077445e+00 -4.3947459279e+00 2.5373077445e+00 4.3947459279e+00 
15800 4.9606512252e+00 1.8289125415e-03 2.5372679603e+00 -4.3946770197e+00 2.5372679603e+00 4.3946770197e+00 
15900 4.9606528612e+00 1.6369266372e-03 2.5372319194e+00 -4.3946145951e+00 2.5372319194e+00 4.3946145951e+00 
16000 4.9606542338e+00 1.4438524704e-03 2.5371996614e+00 -4.3945587225e+00 2.5371996614e+00 4.3945587225e+00 
16100 4.9606553365e+00 1.2505752125e-03 2.5371712078e+00 -4.3945094394e+00 2.5371712078e+00 4.3945094394e+00 
16200 4.9606561677e+00 1.0579503473e-03 2.5371465628e+00 -4.3944667529e+00 2.5371465628e+00 4.3944667529e+00 
16300 4.9606567302e+00 8.6680093829e-04 2.5371257136e+00 -4.3944306411e+00 2.5371257136e+00 4.3944306411e+00 
16400 4.9606570313e+00 6.7791514587e-04 2.5371086312e+00 -4.3944010536e+00 2.5371086312e+00 4.3944010536e+00 
16500 4.9606570821e+00 4.9204399179e-04 2.5370952713e+00 -4.3943779135e+00 2.5370952713e+00 4.3943779135e+00 
16600 4.9606568969e+00 3.0989937298e-04 2.5370855743e+00 -4.3943611178e+00 2.5370855743e+00 4.3943611178e+00 
16700 4.9606564932e+00 1.3215232243e-04 2.5370794669e+00 -4.3943505395e+00 2.5370794669e+00 4.3943505395e+00 
16800 4.9606558910e+00 -4.0568485419e-05 2.5370768625e+00 -4.3943460285e+00 2.5370768625e+00 4.3943460285e+00 
16900 4.9606551123e+00 -2.0794412368e-04 2.5370768625e+00 -4.3943460285e+00 2.5370768625e+00 4.3943460285e+00 
17000 4.9606541804e+00 -3.6890394024e-04 2.5370809606e+00 -4.3943531266e+00 2.5370809606e+00 4.3943531266e+00 
17100 4.9606531197e+00 -5.2321745598e-04 2.5370882308e+00 -4.3943657191e+00 2.5370882308e+00 4.3943657191e+00 
17200 4.9606519553e+00 -6.7043560122e-04 2.5370985422e+00 -4.3943835789e+00 2.5370985422e+00 4.3943835789e+00 
17300 4.9606507123e+00 -8.1015561437e-04 2.5371117549e+00 -4.3944064639e+00 2.5371117549e+00 4.3944064639e+00 
17400 4.9606494156e+00 -9.4202117044e-04 2.5371277210e+00 -4.3944341180e+00 2.5371277210e+00 4.3944341180e+00 
17500 4.9606480893e+00 -1.0657223054e-03 2.5371462857e+00 -4.3944662731e+00 2.5371462857e+00 4.3944662731e+00 
17600 4.9606467564e+00 -1.1809951447e-03 2.5371672881e+00 -4.3945026503e+00 2.5371672881e+00 4.3945026503e+00 
17700 4.9606454387e+00 -1.2876214451e-03 2.5371905621e+00 -4.3945429620e+00 2.5371905621e+00 4.3945429620e+00 
17800 4.9606441564e+00 -1.3854279584e-03 2.5372159370e+00 -4.3945869127e+00 2.5372159370e+00 4.3945869127e+00 
17900 4.9606429276e+00 -1.4742856263e-03 2.5372432392e+00 -4.3946342015e+00 2.5372432392e+00 4.3946342015e+00 
18000 4.9606417685e+00 -1.5541086175e-03 2.5372722922e+00 -4.3946845227e+00 2.5372722922e+00 4.3946845227e+00 
18100 4.9606406932e+00 -1.6248532147e-03 2.5373029178e+00 -4.3947375679e+00 2.5373029178e+00 4.3947375679e+00 
18200 4.9606397136e+00 -1.6865165636e-03 2.5373349372e+00 -4.3947930270e+00 2.5373349372e+00 4.3947930270e+00 
18300 4.9606388389e+00 -1.7391352931e-03 2.5373681713e+00 -4.3948505902e+00 2.5373681713e+00 4.3948505902e+00 
18400 4.9606380765e+00 -1.7827840168e-03 2.5374024418e+00 -4.3949099485e+00 2.5374024418e+00 4.3949099485e+00 
18500 4.9606374312e+00 -1.8175737274e-03 2.5374375720e+00 -4.3949707957e+00 2.5374375720e+00 4.3949707957e+00 
18600 4.9606369056e+00 -1.8436500924e-03 2.5374733872e+00 -4.3950328295e+00 2.5374733872e+00 4.3950328295e+00 
18700 4.9606365004e+00 -1.8611916633e-03 2.5375097158e+00 -4.3950957524e+00 2.5375097158e+00 4.3950957524e+00 
18800 4.9606362141e+00 -1.8704080072e-03 2.5375463894e+00 -4.3951592731e+00 2.5375463894e+00 4.3951592731e+00 
18900 4.9606360433e+00 -1.8715377720e-03 2.5375832442e+00 -4.3952231074e+00 2.5375832442e+00 4.3952231074e+00 
19000 4.9606359834e+00 -1.8648466947e-03 2.5376201207e+00 -4.3952869793e+00 2.5376201207e+00 4.3952869793e+00 
19100 4.9606360277e+00 -1.8506255626e-03 2.5376568648e+00 -4.3953506219e+00 2.5376568648e+00 4.3953506219e+00 
19200 4.9606361687e+00 -1.8291881377e-03 2.5376933281e+00 -4.3954137783e+00 2.5376933281e+00 4.3954137783e+00 
19300 4.9606363976e+00 -1.8008690535e-03 2.5377293686e+00 -4.3954762022e+00 2.5377293686e+00 4.3954762022e+00 
19400 4.9606367048e+00 -1.7660216941e-03 2.5377648505e+00 -4.3955376588e+00 2.5377648505e+00 4.3955376588e+00 
19500 4.9606370802e+00 -1.7250160633e-03 2.5377996455e+00 -4.3955979254e+00 2.5377996455e+00 4.3955979254e+00 
19600 4.9606375130e+00 -1.6782366550e-03 2.5378336320e+00 -4.3956567917e+00 2.5378336320e+00 4.3956567917e+00 
19700 4.9606379924e+00 -1.6260803310e-03 2.5378666964e+00 -4.3957140610e+00 2.5378666964e+00 4.3957140610e+00 
19800 4.9606385075e+00 -1.5689542162e-03 2.5378987328e+00 -4.3957695497e+00 2.5378987328e+00 4.3957695497e+00 
19900 4.9606390474e+00 -1.5072736185e-03 2.5379296434e+00 -4.3958230884e+00 2.5379296434e+00 4.3958230884e+00 
20000 4.9606396018e+00 -1.4414599808e-03 2.5379593384e+00 -4.3958745216e+00 2.5379593384e+00 4.3958745216e+00 
20100 4.9606401607e+00 -1.3719388737e-03 2.5379877365e+00 -4.3959237085e+00 2.5379877365e+00 4.3959237085e+00 
20200 4.9606407146e+00 -1.2991380342e-03 2.5380147646e+00 -4.3959705226e+00 2.5380147646e+00 4.3959705226e+00 
20300 4.9606412549e+00 -1.2234854579e-03 2.5380403582e+00 -4.3960148521e+00 2.5380403582e+00 4.3960148521e+00 
20400 4.9606417737e+00 -1.1454075511e-03 2.5380644612e+00 -4.3960565997e+00 2.5380644612e+00 4.3960565997e+00 
20500 4.9606422640e+00 -1.0653273475e-03 2.5380870258e+00 -4.3960956828e+00 2.5380870258e+00 4.3960956828e+00 
20600 4.9606427198e+00 -9.8366279640e-04 2.5381080127e+00 -4.3961320331e+00 2.5381080127e+00 4.3961320331e+00 
20700 4.9606431360e+00 -9.0082512603e-04 2.5381273906e+00 -4.3961655966e+00 2.5381273906e+00 4.3961655966e+00 
20800 4.9606435085e+00 -8.1721728699e-04 2.5381451365e+00 -4.3961963333e+00 2.5381451365e+00 4.3961963333e+00 
20900 4.9606438343e+00 -7.3323248004e-04 2.5381612352e+00 -4.3962242172e+00 2.5381612352e+00 4.3962242172e+00 
21000 4.9606441112e+00 -6.4925277164e-04 2.5381756794e+00 -4.3962492352e+00 2.5381756794e+00 4.3962492352e+00 
21100 4.9606443382e+00 -5.6564780042e-04 2.5381884691e+00 -4.3962713877e+00 2.5381884691e+00 4.3962713877e+00 
21200 4.9606445150e+00 -4.8277357732e-04 2.5381996119e+00 -4.3962906875e+00 2.5381996119e+00 4.3962906875e+00 
21300 4.9606446422e+00 -4.0097138166e-04 2.5382091221e+00 -4.3963071596e+00 2.5382091221e+00 4.3963071596e+00 
21400 4.9606447213e+00 -3.2056675494e-04 2.5382170208e+00 -4.3963208406e+00 2.5382170208e+00 4.3963208406e+00 
21500 4.9606447543e+00 -2.4186859365e-04 2.5382233356e+00 -4.3963317782e+00 2.5382233356e+00 4.3963317782e+00 
21600 4.9606447440e+00 -1.6516834206e-04 2.5382281001e+00 -4.3963400306e+00 2.5382281001e+00 4.3963400306e+00 
21700 4.9606446937e+00 -9.0739285388e-05 2.5382313537e+00 -4.3963456660e+00 2.5382313537e+00 4.3963456660e+00 
21800 4.9606446071e+00 -1.8835943384e-05 2.5382331412e+00 -4.3963487620e+00 2.5382331412e+00 4.3963487620e+00 
21900 4.9606444882e+00 5.0183014881e-05 2.5382331412e+00 -4.3963487620e+00 2.5382331412e+00 4.3963487620e+00 
22000 4.9606443416e+00 1.1667672608e-04 2.5382331412e+00 -4.3963487620e+00 2.5382331412e+00 4.3963487620e+00 
22100 4.9606441715e+00 1.7967189792e-04 2.5382308428e+00 -4.3963447810e+00 2.5382308428e+00 4.3963447810e+00 
22200 4.9606439827e+00 2.3931994269e-04 2.5382273035e+00 -4.3963386508e+00 2.5382273035e+00 4.3963386508e+00 
22300 4.9606437797e+00 2.9546578821e-04 2.5382225892e+00 -4.3963304853e+00 2.5382225892e+00 4.3963304853e+00 
22400 4.9606435670e+00 3.4797470613e-04 2.5382167688e+00 -4.3963204042e+00 2.5382167688e+00 4.3963204042e+00 
22500 4.9606433490e+00 3.9673224966e-04 2.5382099141e+00 -4.3963085315e+00 2.5382099141e+00 4.3963085315e+00 
22600 4.9606431299e+00 4.4164410490e-04 2.5382020989e+00 -4.3962949952e+00 2.5382020989e+00 4.3962949952e+00 
22700 4.9606429136e+00 4.8263585925e-04 2.5381933990e+00 -4.3962799265e+00 2.5381933990e+00 4.3962799265e+00 
22800 4.9606427036e+00 5.1965269026e-04 2.5381838915e+00 -4.3962634591e+00 2.5381838915e+00 4.3962634591e+00 
22900 4.9606425031e+00 5.5265897883e-04 2.5381736548e+00 -4.3962457286e+00 2.5381736548e+00 4.3962457286e+00 
23000 4.9606423151e+00 5.8163785079e-04 2.5381627679e+00 -4.3962268719e+00 2.5381627679e+00 4.3962268719e+00 
23100 4.9606421418e+00 6.0659065111e-04 2.5381513101e+00 -4.3962070263e+00 2.5381513101e+00 4.3962070263e+00 
23200 4.9606419854e+00 6.2753635508e-04 2.5381393606e+00 -4.3961863293e+00 2.5381393606e+00 4.3961863293e+00 
23300 4.9606418474e+00 6.4451092115e-04 2.5381269985e+00 -4.3961649174e+00 2.5381269985e+00 4.3961649174e+00 
23400 4.9606417289e+00 6.5756658990e-04 2.5381143019e+00 -4.3961429263e+00 2.5381143019e+00 4.3961429263e+00 
23500 4.9606416307e+00 6.6677113419e-04 2.5381013481e+00 -4.3961204896e+00 2.5381013481e+00 4.3961204896e+00 
23600 4.9606415531e+00 6.7220706519e-04 2.5380882129e+00 -4.3960977388e+00 2.5380882129e+00 4.3960977388e+00 
23700 4.9606414960e+00 6.7397079915e-04 2.5380749705e+00 -4.3960748023e+00 2.5380749705e+00 4.3960748023e+00 
23800 4.9606414590e+00 6.7217178998e-04 2.5380616933e+00 -4.3960518055e+00 2.5380616933e+00 4.3960518055e+00 
23900 4.9606414414e+00 6.6693163253e-04 2.5380484515e+00 -4.3960288700e+00 2.5380484515e+00 4.3960288700e+00 
24000 4.9606414422e+00 6.5838314136e-04 2.5380353128e+00 -4.3960061132e+00 2.5380353128e+00 4.3960061132e+00 
24100 4.9606414602e+00 6.4666941005e-04 2.5380223425e+00 -4.3959836479e+00 2.5380223425e+00 4.3959836479e+00 
24200 4.9606414937e+00 6.3194285572e-04 2.5380096029e+00 -4.3959615823e+00 2.5380096029e+00 4.3959615823e+00 
24300 4.9606415412e+00 6.1436425345e-04 2.5379971533e+00 -4.3959400190e+00 2.5379971533e+00 4.3959400190e+00 
24400 4.9606416008e+00 5.9410176533e-04 2.5379850500e+00 -4.3959190554e+00 2.5379850500e+00 4.3959190554e+00 
24500 4.9606416707e+00 5.7132996847e-04 2.5379733458e+00 -4.3958987832e+00 2.5379733458e+00 4.3958987832e+00 
24600 4.9606417490e+00 5.4622888640e-04 2.5379620902e+00 -4.3958792879e+00 2.5379620902e+00 4.3958792879e+00 
24700 4.9606418336e+00 5.1898302799e-04 2.5379513290e+00 -4.3958606490e+00 2.5379513290e+00 4.3958606490e+00 
24800 4.9606419226e+00 4.8978043791e-04 2.5379411046e+00 -4.3958429397e+00 2.5379411046e+00 4.3958429397e+00 
24900 4.9606420142e+00 4.5881176241e-04 2.5379314554e+00 -4.3958262269e+00 2.5379314554e+00 4.3958262269e+00 
25000 4.9606421065e+00 4.2626933412e-04 2.5379224163e+00 -4.3958105707e+00 2.5379224163e+00 4.3958105707e+00 
25100 4.9606421978e+00 3.9234627919e-04 2.5379140183e+00 -4.3957960250e+00 2.5379140183e+00 4.3957960250e+00 
25200 4.9606422866e+00 3.5723565002e-04 2.5379062886e+00 -4.3957826367e+00 2.5379062886e+00 4.3957826367e+00 
25300 4.9606423714e+00 3.2112958656e-04 2.5378992506e+00 -4.3957704466e+00 2.5378992506e+00 4.3957704466e+00 
25400 4.9606424509e+00 2.8421850890e-04 2.5378929240e+00 -4.3957594885e+00 2.5378929240e+00 4.3957594885e+00 
25500 4.9606425241e+00 2.4669034365e-04 2.5378873245e+00 -4.3957497898e+00 2.5378873245e+00 4.3957497898e+00 
25600 4.9606425900e+00 2.0872978649e-04 2.5378824643e+00 -4.3957413718e+00 2.5378824643e+00 4.3957413718e+00 
25700 4.9606426479e+00 1.7051760270e-04 2.5378783520e+00 -4.3957342491e+00 2.5378783520e+00 4.3957342491e+00 
25800 4.9606426973e+00 1.3222996777e-04 2.5378749926e+00 -4.3957284304e+00 2.5378749926e+00 4.3957284304e+00 
25900 4.9606427378e+00 9.4037849389e-05 2.5378723874e+00 -4.3957239182e+00 2.5378723874e+00 4.3957239182e+00 
26000 4.9606427693e+00 5.6106432265e-05 2.5378705348e+00 -4.3957207092e+00 2.5378705348e+00 4.3957207092e+00 
26100 4.9606427917e+00 1.8962275224e-05 2.5378705348e+00 -4.3957207092e+00 2.5378705348e+00 4.3957207092e+00 
26200 4.9606428051e+00 -1.7850764280e-05 2.5378705348e+00 -4.3957207092e+00 2.5378705348e+00 4.3957207092e+00 
26300 4.9606428100e+00 -5.4186942981e-05 2.5378705348e+00 -4.3957207092e+00 2.5378705348e+00 4.3957207092e+00 
26400 4.9606428067e+00 -8.9907633226e-05 2.5378705348e+00 -4.3957207092e+00 2.5378705348e+00 4.3957207092e+00 
26500 4.9606427958e+00 -1.2429264795e-04 2.5378723061e+00 -4.3957237772e+00 2.5378723061e+00 4.3957237772e+00 
26600 4.9606427778e+00 -1.5757395838e-04 2.5378747548e+00 -4.3957280186e+00 2.5378747548e+00 4.3957280186e+00 
26700 4.9606427536e+00 -1.8963921482e-04 2.5378778593e+00 -4.3957333957e+00 2.5378778593e+00 4.3957333957e+00 
26800 4.9606427240e+00 -2.2038482605e-04 2.5378815955e+00 -4.3957398669e+00 2.5378815955e+00 4.3957398669e+00 
26900 4.9606426896e+00 -2.4971612704e-04 2.5378859374e+00 -4.3957473873e+00 2.5378859374e+00 4.3957473873e+00 
27000 4.9606426515e+00 -2.7754750256e-04 2.5378908571e+00 -4.3957559086e+00 2.5378908571e+00 4.3957559086e+00 
27100 4.9606426105e+00 -3.0380246775e-04 2.5378963252e+00 -4.3957653796e+00 2.5378963252e+00 4.3957653796e+00 
27200 4.9606425675e+00 -3.2841370671e-04 2.5379023105e+00 -4.3957757465e+00 2.5379023105e+00 4.3957757465e+00 
27300 4.9606425233e+00 -3.5132307027e-04 2.5379087807e+00 -4.3957869532e+00 2.5379087807e+00 4.3957869532e+00 
27400 4.9606424788e+00 -3.7248153446e-04 2.5379157022e+00 -4.3957989416e+00 2.5379157022e+00 4.3957989416e+00 
27500 4.9606424347e+00 -3.9184912089e-04 2.5379230406e+00 -4.3958116520e+00 2.5379230406e+00 4.3958116520e+00 
27600 4.9606423917e+00 -4.0939478093e-04 2.5379307604e+00 -4.3958250232e+00 2.5379307604e+00 4.3958250232e+00 
27700 4.9606423506e+00 -4.2509624518e-04 2.5379388260e+00 -4.3958389931e+00 2.5379388260e+00 4.3958389931e+00 
27800 4.9606423119e+00 -4.3893984013e-04 2.5379472008e+00 -4.3958534987e+00 2.5379472008e+00 4.3958534987e+00 
27900 4.9606422761e+00 -4.5092027378e-04 2.5379558483e+00 -4.3958684767e+00 2.5379558483e+00 4.3958684767e+00 
28000 4.9606422437e+00 -4.6104039219e-04 2.5379647319e+00 -4.3958838634e+00 2.5379647319e+00 4.3958838634e+00 
28100 4.9606422150e+00 -4.6931090910e-04 2.5379738148e+00 -4.3958995955e+00 2.5379738148e+00 4.3958995955e+00 
28200 4.9606421902e+00 -4.7575011033e-04 2.5379830606e+00 -4.3959156096e+00 2.5379830606e+00 4.3959156096e+00 
28300 4.9606421696e+00 -4.8038353541e-04 2.5379924332e+00 -4.3959318435e+00 2.5379924332e+00 4.3959318435e+00 
28400 4.9606421533e+00 -4.8324363828e-04 2.5380018970e+00 -4.3959482353e+00 2.5380018970e+00 4.3959482353e+00 
28500 4.9606421413e+00 -4.8436942935e-04 2.5380114172e+00 -4.3959647247e+00 2.5380114172e+00 4.3959647247e+00 
28600 4.9606421335e+00 -4.8380610091e-04 2.5380209595e+00 -4.3959812525e+00 2.5380209595e+00 4.3959812525e+00 
28700 4.9606421298e+00 -4.8160463823e-04 2.5380304907e+00 -4.3959977610e+00 2.5380304907e+00 4.3959977610e+00 
28800 4.9606421301e+00 -4.7782141818e-04 2.5380399784e+00 -4.3960141943e+00 2.5380399784e+00 4.3960141943e+00 
28900 4.9606421341e+00 -4.7251779788e-04 2.5380493916e+00 -4.3960304984e+00 2.5380493916e+00 4.3960304984e+00 
29000 4.9606421415e+00 -4.6575969499e-04 2.5380587003e+00 -4.3960466215e+00 2.5380587003e+00 4.3960466215e+00 
29100 4.9606421520e+00 -4.5761716216e-04 2.5380678758e+00 -4.3960625140e+00 2.5380678758e+00 4.3960625140e+00 
29200 4.9606421653e+00 -4.4816395726e-04 2.5380768909e+00 -4.3960781286e+00 2.5380768909e+00 4.3960781286e+00 
29300 4.9606421809e+00 -4.3747711161e-04 2.5380857197e+00 -4.3960934205e+00 2.5380857197e+00 4.3960934205e+00 
29400 4.9606421986e+00 -4.2563649802e-04 2.5380943380e+00 -4.3961083478e+00 2.5380943380e+00 4.3961083478e+00 
29500 4.9606422177e+00 -4.1272440041e-04 2.5381027229e+00 -4.3961228710e+00 2.5381027229e+00 4.3961228710e+00 
29600 4.9606422381e+00 -3.9882508699e-04 2.5381108535e+00 -4.3961369535e+00 2.5381108535e+00 4.3961369535e+00 
29700 4.9606422592e+00 -3.8402438849e-04 2.5381187103e+00 -4.3961505618e+00 2.5381187103e+00 4.3961505618e+00 
29800 4.9606422807e+00 -3.6840928321e-04 2.5381262754e+00 -4.3961636650e+00 2.5381262754e+00 4.3961636650e+00 
29900 4.9606423022e+00 -3.5206749045e-04 2.5381335329e+00 -4.3961762354e+00 2.5381335329e+00 4.3961762354e+00 
30000 4.9606423234e+00 -3.3508707359e-04 2.5381404685e+00 -4.3961882481e+00 2.5381404685e+00 4.3961882481e+00 
30100 4.9606423439e+00 -3.1755605451e-04 2.5381470695e+00 -4.3961996815e+00 2.5381470695e+00 4.3961996815e+00 
30200 4.9606423635e+00 -2.9956204039e-04 2.5381533252e+00 -4.3962105166e+00 2.5381533252e+00 4.3962105166e+00 
30300 4.9606423818e+00 -2.8119186415e-04 2.5381592264e+00 -4.3962207378e+00 2.5381592264e+00 4.3962207378e+00 
30400 4.9606423987e+00 -2.6253123970e-04 2.5381647656e+00 -4.3962303321e+00 2.5381647656e+00 4.3962303321e+00 
30500 4.9606424140e+00 -2.4366443288e-04 2.5381699373e+00 -4.3962392897e+00 2.5381699373e+00 4.3962392897e+00 
30600 4.9606424276e+00 -2.2467394909e-04 2.5381747373e+00 -4.3962476035e+00 2.5381747373e+00 4.3962476035e+00 
30700 4.9606424392e+00 -2.0564023838e-04 2.5381791632e+00 -4.3962552694e+00 2.5381791632e+00 4.3962552694e+00 
30800 4.9606424489e+00 -1.8664141867e-04 2.5381832142e+00 -4.3962622859e+00 2.5381832142e+00 4.3962622859e+00 
30900 4.9606424567e+00 -1.6775301772e-04 2.5381868908e+00 -4.3962686540e+00 2.5381868908e+00 4.3962686540e+00 
31000 4.9606424624e+00 -1.4904773444e-04 2.5381901954e+00 -4.3962743778e+00 2.5381901954e+00 4.3962743778e+00 
31100 4.9606424662e+00 -1.3059521978e-04 2.5381931315e+00 -4.3962794632e+00 2.5381931315e+00 4.3962794632e+00 
31200 4.9606424682e+00 -1.1246187763e-04 2.5381957041e+00 -4.3962839191e+00 2.5381957041e+00 4.3962839191e+00 
31300 4.9606424683e+00 -9.4710685943e-05 2.5381979195e+00 -4.3962877563e+00 2.5381979195e+00 4.3962877563e+00 
31400 4.9606424668e+00 -7.7401038124e-05 2.5381997852e+00 -4.3962909878e+00 2.5381997852e+00 4.3962909878e+00 
31500 4.9606424637e+00 -6.0588604802e-05 2.5382013100e+00 -4.3962936287e+00 2.5382013100e+00 4.3962936287e+00 
31600 4.9606424592e+00 -4.4722029465e-05 2.5382013100e+00 -4.3962936287e+00 2.5382013100e+00 4.3962936287e+00 
31700 4.9606424535e+00 -2.9351653797e-05 2.5382013100e+00 -4.3962936287e+00 2.5382013100e+00 4.3962936287e+00 
31800 4.9606424466e+00 -1.4524452215e-05 2.5382013100e+00 -4.3962936287e+00 2.5382013100e+00 4.3962936287e+00 
31900 4.9606424389e+00 -2.8344985380e-07 2.5382013100e+00 -4.3962936287e+00 2.5382013100e+00 4.3962936287e+00 
32000 4.9606424305e+00 1.3332331834e-05 2.5382013100e+00 -4.3962936287e+00 2.5382013100e+00 4.3962936287e+00 
32100 4.9606424216e+00 2.6287908964e-05 2.5382013100e+00 -4.3962936287e+00 2.5382013100e+00 4.3962936287e+00 
32200 4.9606424124e+00 3.8552349239e-05 2.5382013100e+00 -4.3962936287e+00 2.5382013100e+00 4.3962936287e+00 
32300 4.9606424030e+00 5.0098766895e-05 2.5382013100e+00 -4.3962936287e+00 2.5382013100e+00 4.3962936287e+00 
32400 4.9606423937e+00 6.0904299331e-05 2.5382013100e+00 -4.3962936287e+00 2.5382013100e+00 4.3962936287e+00 
32500 4.9606423846e+00 7.0950066311e-05 2.5382013100e+00 -4.3962936287e+00 2.5382013100e+00 4.3962936287e+00 
32600 4.9606423757e+00 7.9756328966e-05 2.5381999123e+00 -4.3962912079e+00 2.5381999123e+00 4.3962912079e+00 
32700 4.9606423673e+00 8.7712317693e-05 2.5381983412e+00 -4.3962884866e+00 2.5381983412e+00 4.3962884866e+00 
32800 4.9606423593e+00 9.4814552719e-05 2.5381966133e+00 -4.3962854939e+00 2.5381966133e+00 4.3962854939e+00 
32900 4.9606423520e+00 1.0106323592e-04 2.5381947456e+00 -4.3962822589e+00 2.5381947456e+00 4.3962822589e+00 
33000 4.9606423454e+00 1.0646213248e-04 2.5381927547e+00 -4.3962788106e+00 2.5381927547e+00 4.3962788106e+00 
33100 4.9606423396e+00 1.1101844109e-04 2.5381906575e+00 -4.3962751782e+00 2.5381906575e+00 4.3962751782e+00 
33200 4.9606423346e+00 1.1474265367e-04 2.5381884706e+00 -4.3962713902e+00 2.5381884706e+00 4.3962713902e+00 
33300 4.9606423304e+00 1.1764840548e-04 2.5381862103e+00 -4.3962674752e+00 2.5381862103e+00 4.3962674752e+00 
33400 4.9606423271e+00 1.1975231669e-04 2.5381838927e+00 -4.3962634611e+00 2.5381838927e+00 4.3962634611e+00 
33500 4.9606423246e+00 1.2107382621e-04 2.5381815337e+00 -4.3962593751e+00 2.5381815337e+00 4.3962593751e+00 
33600 4.9606423230e+00 1.2163501896e-04 2.5381791486e+00 -4.3962552441e+00 2.5381791486e+00 4.3962552441e+00 
33700 4.9606423222e+00 1.2146044730e-04 2.5381767525e+00 -4.3962510939e+00 2.5381767525e+00 4.3962510939e+00 
33800 4.9606423222e+00 1.2057694771e-04 2.5381743598e+00 -4.3962469497e+00 2.5381743598e+00 4.3962469497e+00 
33900 4.9606423228e+00 1.1901345373e-04 2.5381719846e+00 -4.3962428356e+00 2.5381719846e+00 4.3962428356e+00 
34000 4.9606423242e+00 1.1680080587e-04 2.5381696401e+00 -4.3962387749e+00 2.5381696401e+00 4.3962387749e+00 
34100 4.9606423261e+00 1.1397155961e-04 2.5381673392e+00 -4.3962347896e+00 2.5381673392e+00 4.3962347896e+00 
34200 4.9606423285e+00 1.1055979227e-04 2.5381650941e+00 -4.3962309009e+00 2.5381650941e+00 4.3962309009e+00 
34300 4.9606423314e+00 1.0660090967e-04 2.5381629161e+00 -4.3962271286e+00 2.5381629161e+00 4.3962271286e+00 
34400 4.9606423346e+00 1.0213145332e-04 2.5381608162e+00 -4.3962234914e+00 2.5381608162e+00 4.3962234914e+00 
34500 4.9606423382e+00 9.7188909065e-05 2.5381588042e+00 -4.3962200066e+00 2.5381588042e+00 4.3962200066e+00 
34600 4.9606423419e+00 9.1811517942e-05 2.5381568897e+00 -4.3962166905e+00 2.5381568897e+00 4.3962166905e+00 
34700 4.9606423458e+00 8.6038089848e-05 2.5381550811e+00 -4.3962135579e+00 2.5381550811e+00 4.3962135579e+00 
34800 4.9606423497e+00 7.9907820935e-05 2.5381533862e+00 -4.3962106222e+00 2.5381533862e+00 4.3962106222e+00 
34900 4.9606423536e+00 7.3460115234e-05 2.5381518120e+00 -4.3962078958e+00 2.5381518120e+00 4.3962078958e+00 
35000 4.9606423575e+00 6.6734411194e-05 2.5381503649e+00 -4.3962053893e+00 2.5381503649e+00 4.3962053893e+00 
35100 4.9606423612e+00 6.0207210193e-05 2.5381503649e+00 -4.3962053893e+00 2.5381503649e+00 4.3962053893e+00 
35200 4.9606423648e+00 5.3441036303e-05 2.5381503649e+00 -4.3962053893e+00 2.5381503649e+00 4.3962053893e+00 
35300 4.9606423681e+00 4.6473299275e-05 2.5381503649e+00 -4.3962053893e+00 2.5381503649e+00 4.3962053893e+00 
35400 4.9606423710e+00 3.9340936244e-05 2.5381503649e+00 -4.3962053893e+00 2.5381503649e+00 4.3962053893e+00 
35500 4.9606423737e+00 3.2080264116e-05 2.5381503649e+00 -4.3962053893e+00 2.5381503649e+00 4.3962053893e+00 
35600 4.9606423760e+00 2.4726840533e-05 2.5381503649e+00 -4.3962053893e+00 2.5381503649e+00 4.3962053893e+00 
35700 4.9606423780e+00 1.7315333684e-05 2.5381503649e+00 -4.3962053893e+00 2.5381503649e+00 4.3962053893e+00 
35800 4.9606423795e+00 9.8794011247e-06 2.5381503649e+00 -4.3962053893e+00 2.5381503649e+00 4.3962053893e+00 
35900 4.9606423808e+00 2.4515778424e-06 2.5381503649e+00 -4.3962053893e+00 2.5381503649e+00 4.3962053893e+00 
36000 4.9606423816e+00 -4.9368263794e-06 2.5381503649e+00 -4.3962053893e+00 2.5381503649e+00 4.3962053893e+00 
36100 4.9606423821e+00 -1.2255820158e-05 2.5381503649e+00 -4.3962053893e+00 2.5381503649e+00 4.3962053893e+00 
36200 4.9606423823e+00 -1.9476814306e-05 2.5381503649e+00 -4.3962053893e+00 2.5381503649e+00 4.3962053893e+00 
36300 4.9606423822e+00 -2.6572696130e-05 2.5381503649e+00 -4.3962053893e+00 2.5381503649e+00 4.3962053893e+00 
36400 4.9606423818e+00 -3.3517894369e-05 2.5381503649e+00 -4.3962053893e+00 2.5381503649e+00 4.3962053893e+00 
36500 4.9606423812e+00 -4.0288434799e-05 2.5381503649e+00 -4.3962053893e+00 2.5381503649e+00 4.3962053893e+00 
36600 4.9606423803e+00 -4.6861986636e-05 2.5381503649e+00 -4.3962053893e+00 2.5381503649e+00 4.3962053893e+00 
36700 4.9606423792e+00 -5.3217899895e-05 2.5381503649e+00 -4.3962053893e+00 2.5381503649e+00 4.3962053893e+00 
36800 4.9606423780e+00 -5.9337233874e-05 2.5381503649e+00 -4.3962053893e+00 2.5381503649e+00 4.3962053893e+00 
36900 4.9606423767e+00 -6.5202776995e-05 2.5381503649e+00 -4.3962053893e+00 2.5381503649e+00 4.3962053893e+00 
37000 4.9606423753e+00 -7.0799058237e-05 2.5381503649e+00 -4.3962053893e+00 2.5381503649e+00 4.3962053893e+00 
37100 4.9606423738e+00 -7.5648644520e-05 2.5381517596e+00 -4.3962078050e+00 2.5381517596e+00 4.3962078050e+00 
37200 4.9606423722e+00 -8.0164768480e-05 2.5381532498e+00 -4.3962103861e+00 2.5381532498e+00 4.3962103861e+00 
37300 4.9606423706e+00 -8.4338022378e-05 2.5381548290e+00 -4.3962131214e+00 2.5381548290e+00 4.3962131214e+00 
37400 4.9606423690e+00 -8.8160762791e-05 2.5381564904e+00 -4.3962159990e+00 2.5381564904e+00 4.3962159990e+00 
37500 4.9606423674e+00 -9.1627085984e-05 2.5381582271e+00 -4.3962190071e+00 2.5381582271e+00 4.3962190071e+00 
37600 4.9606423659e+00 -9.4732796553e-05 2.5381600321e+00 -4.3962221334e+00 2.5381600321e+00 4.3962221334e+00 
37700 4.9606423645e+00 -9.7475369810e-05 2.5381618983e+00 -4.3962253657e+00 2.5381618983e+00 4.3962253657e+00 
37800 4.9606423632e+00 -9.9853908137e-05 2.5381638185e+00 -4.3962286916e+00 2.5381638185e+00 4.3962286916e+00 
37900 4.9606423621e+00 -1.0186909185e-04 2.5381657856e+00 -4.3962320986e+00 2.5381657856e+00 4.3962320986e+00 
38000 4.9606423610e+00 -1.0352312486e-04 2.5381677923e+00 -4.3962355744e+00 2.5381677923e+00 4.3962355744e+00 
38100 4.9606423602e+00 -1.0481967557e-04 2.5381698316e+00 -4.3962391066e+00 2.5381698316e+00 4.3962391066e+00 
38200 4.9606423594e+00 -1.0576381348e-04 2.5381718965e+00 -4.3962426831e+00 2.5381718965e+00 4.3962426831e+00 
38300 4.9606423588e+00 -1.0636194183e-04 2.5381739800e+00 -4.3962462917e+00 2.5381739800e+00 4.3962462917e+00 
38400 4.9606423584e+00 -1.0662172671e-04 2.5381760752e+00 -4.3962499208e+00 2.5381760752e+00 4.3962499208e+00 
38500 4.9606423581e+00 -1.0655202320e-04 2.5381781756e+00 -4.3962535587e+00 2.5381781756e+00 4.3962535587e+00 
38600 4.9606423579e+00 -1.0616279870e-04 2.5381802746e+00 -4.3962571943e+00 2.5381802746e+00 4.3962571943e+00 
38700 4.9606423579e+00 -1.0546505410e-04 2.5381823659e+00 -4.3962608166e+00 2.5381823659e+00 4.3962608166e+00 
38800 4.9606423581e+00 -1.0447074314e-04 2.5381844434e+00 -4.3962644150e+00 2.5381844434e+00 4.3962644150e+00 
38900 4.9606423583e+00 -1.0319269025e-04 2.5381865014e+00 -4.3962679796e+00 2.5381865014e+00 4.3962679796e+00 
39000 4.9606423587e+00 -1.0164450748e-04 2.5381885342e+00 -4.3962715005e+00 2.5381885342e+00 4.3962715005e+00 
39100 4.9606423591e+00 -9.9840510652e-05 2.5381905365e+00 -4.3962749686e+00 2.5381905365e+00 4.3962749686e+00 
39200 4.9606423597e+00 -9.7795635387e-05 2.5381925033e+00 -4.3962783751e+00 2.5381925033e+00 4.3962783751e+00 
39300 4.9606423603e+00 -9.5525353143e-05 2.5381944298e+00 -4.3962817119e+00 2.5381944298e+00 4.3962817119e+00 
39400 4.9606423609e+00 -9.3045587794e-05 2.5381963115e+00 -4.3962849712e+00 2.5381963115e+00 4.3962849712e+00 
39500 4.9606423616e+00 -9.0372632945e-05 2.5381981444e+00 -4.3962881459e+00 2.5381981444e+00 4.3962881459e+00 
39600 4.9606423623e+00 -8.7523070435e-05 2.5381999247e+00 -4.3962912293e+00 2.5381999247e+00 4.3962912293e+00 
39700 4.9606423630e+00 -8.4513690254e-05 2.5382016488e+00 -4.3962942156e+00 2.5382016488e+00 4.3962942156e+00 
39800 4.9606423638e+00 -8.1361412223e-05 2.5382033136e+00 -4.3962970992e+00 2.5382033136e+00 4.3962970992e+00 
39900 4.9606423645e+00 -7.8083209664e-05 2.5382049164e+00 -4.3962998752e+00 2.5382049164e+00 4.3962998752e+00 
40000 4.9606423652e+00 -7.4696035379e-05 2.5382064545e+00 -4.3963025394e+00 2.5382064545e+00 4.3963025394e+00 
40100 4.9606423658e+00 -7.1216750123e-05 2.5382079260e+00 -4.3963050880e+00 2.5382079260e+00 4.3963050880e+00 
40200 4.9606423664e+00 -6.7662053827e-05 2.5382093289e+00 -4.3963075179e+00 2.5382093289e+00 4.3963075179e+00 
40300 4.9606423670e+00 -6.4491525934e-05 2.5382093289e+00 -4.3963075179e+00 2.5382093289e+00 4.3963075179e+00 
40400 4.9606423676e+00 -6.1261016318e-05 2.5382093289e+00 -4.3963075179e+00 2.5382093289e+00 4.3963075179e+00 
40500 4.9606423680e+00 -5.7986568456e-05 2.5382093289e+00 -4.3963075179e+00 2.5382093289e+00 4.3963075179e+00 
40600 4.9606423684e+00 -5.4683854535e-05 2.5382093289e+00 -4.3963075179e+00 2.5382093289e+00 4.3963075179e+00 
40700 4.9606423688e+00 -5.1368116449e-05 2.5382093289e+00 -4.3963075179e+00 2.5382093289e+00 4.3963075179e+00 
40800 4.9606423690e+00 -4.8054111242e-05 2.5382093289e+00 -4.3963075179e+00 2.5382093289e+00 4.3963075179e+00 
40900 4.9606423692e+00 -4.4756061113e-05 2.5382093289e+00 -4.3963075179e+00 2.5382093289e+00 4.3963075179e+00 
41000 4.9606423692e+00 -4.1487607936e-05 2.5382093289e+00 -4.3963075179e+00 2.5382093289e+00 4.3963075179e+00 
41100 4.9606423693e+00 -3.8261772332e-05 2.5382093289e+00 -4.3963075179e+00 2.5382093289e+00 4.3963075179e+00 
41200 4.9606423692e+00 -3.5090917257e-05 2.5382093289e+00 -4.3963075179e+00 2.5382093289e+00 4.3963075179e+00 
41300 4.9606423691e+00 -3.1986716101e-05 2.5382093289e+00 -4.3963075179e+00 2.5382093289e+00 4.3963075179e+00 
41400 4.9606423690e+00 -2.8960125193e-05 2.5382093289e+00 -4.3963075179e+00 2.5382093289e+00 4.3963075179e+00 
41500 4.9606423688e+00 -2.6021360726e-05 2.5382093289e+00 -4.3963075179e+00 2.5382093289e+00 4.3963075179e+00 
41600 4.9606423685e+00 -2.3179879954e-05 2.5382093289e+00 -4.3963075179e+00 2.5382093289e+00 4.3963075179e+00 
41700 4.9606423683e+00 -2.0444366595e-05 2.5382093289e+00 -4.3963075179e+00 2.5382093289e+00 4.3963075179e+00 
41800 4.9606423680e+00 -1.7822720342e-05 2.5382093289e+00 -4.3963075179e+00 2.5382093289e+00 4.3963075179e+00 
41900 4.9606423677e+00 -1.5322050338e-05 2.5382093289e+00 -4.3963075179e+00 2.5382093289e+00 4.3963075179e+00 
42000 4.9606423673e+00 -1.2948672515e-05 2.5382093289e+00 -4.3963075179e+00 2.5382093289e+00 4.3963075179e+00 
42100 4.9606423670e+00 -1.0708110620e-05 2.5382093289e+00 -4.3963075179e+00 2.5382093289e+00 4.3963075179e+00 
42200 4.9606423667e+00 -8.6051007922e-06 2.5382093289e+00 -4.3963075179e+00 2.5382093289e+00 4.3963075179e+00 
42300 4.9606423664e+00 -6.6435995508e-06 2.5382093289e+00 -4.3963075179e+00 2.5382093289e+00 4.3963075179e+00 
42400 4.9606423661e+00 -4.8267949704e-06 2.5382093289e+00 -4.3963075179e+00 2.5382093289e+00 4.3963075179e+00 
42500 4.9606423658e+00 -3.1571209282e-06 2.5382093289e+00 -4.3963075179e+00 2.5382093289e+00 4.3963075179e+00 
42600 4.9606423656e+00 -1.6362741934e-06 2.5382093289e+00 -4.3963075179e+00 2.5382093289e+00 4.3963075179e+00 
42700 4.9606423654e+00 -2.6523420043e-07 2.5382093289e+00 -4.3963075179e+00 2.5382093289e+00 4.3963075179e+00 
42800 4.9606423652e+00 9.5571470842e-07 2.5382093289e+00 -4.3963075179e+00 2.5382093289e+00 4.3963075179e+00 
42900 4.9606423650e+00 2.0269587582e-06 2.5382093289e+00 -4.3963075179e+00 2.5382093289e+00 4.3963075179e+00 
43000 4.9606423649e+00 2.9495281076e-06 2.5382093289e+00 -4.3963075179e+00 2.5382093289e+00 4.3963075179e+00 
43100 4.9606423648e+00 3.7250683662e-06 2.5382093289e+00 -4.3963075179e+00 2.5382093289e+00 4.3963075179e+00 
43200 4.9606423647e+00 4.3558103987e-06 2.5382093289e+00 -4.3963075179e+00 2.5382093289e+00 4.3963075179e+00 
43300 4.9606423646e+00 4.8445386418e-06 2.5382093289e+00 -4.3963075179e+00 2.5382093289e+00 4.3963075179e+00 
43400 4.9606423646e+00 5.1945581590e-06 2.5382093289e+00 -4.3963075179e+00 2.5382093289e+00 4.3963075179e+00 
43500 4.9606423646e+00 5.4096605750e-06 2.5382093289e+00 -4.3963075179e+00 2.5382093289e+00 4.3963075179e+00 
43600 4.9606423647e+00 5.4940891320e-06 2.5382093289e+00 -4.3963075179e+00 2.5382093289e+00 4.3963075179e+00 
43700 4.9606423647e+00 5.4525030286e-06 2.5382093289e+00 -4.3963075179e+00 2.5382093289e+00 4.3963075179e+00 
43800 4.9606423648e+00 5.2899412505e-06 2.5382093289e+00 -4.3963075179e+00 2.5382093289e+00 4.3963075179e+00 
43900 4.9606423649e+00 5.0117860377e-06 2.5382093289e+00 -4.3963075179e+00 2.5382093289e+00 4.3963075179e+00 
44000 4.9606423651e+00 4.6237262238e-06 2.5382093289e+00 -4.3963075179e+00 2.5382093289e+00 4.3963075179e+00 
44100 4.9606423652e+00 4.1317205522e-06 2.5382093289e+00 -4.3963075179e+00 2.5382093289e+00 4.3963075179e+00 
44200 4.9606423653e+00 3.5419611730e-06 2.5382093289e+00 -4.3963075179e+00 2.5382093289e+00 4.3963075179e+00 
44300 4.9606423655e+00 2.8608374697e-06 2.5382093289e+00 -4.3963075179e+00 2.5382093289e+00 4.3963075179e+00 
44400 4.9606423656e+00 2.0949003623e-06 2.5382093289e+00 -4.3963075179e+00 2.5382093289e+00 4.3963075179e+00 
44500 4.9606423658e+00 1.2508272228e-06 2.5382093289e+00 -4.3963075179e+00 2.5382093289e+00 4.3963075179e+00 
44600 4.9606423659e+00 3.3538752689e-07 2.5382093289e+00 -4.3963075179e+00 2.5382093289e+00 4.3963075179e+00 
44700 4.9606423661e+00 -6.4459057856e-07 2.5382093289e+00 -4.3963075179e+00 2.5382093289e+00 4.3963075179e+00 
44800 4.9606423662e+00 -1.6822527609e-06 2.5382093289e+00 -4.3963075179e+00 2.5382093289e+00 4.3963075179e+00 
44900 4.9606423664e+00 -2.7707498699e-06 2.5382093289e+00 -4.3963075179e+00 2.5382093289e+00 4.3963075179e+00 
45000 4.9606423665e+00 -3.9032680956e-06 2.5382093289e+00 -4.3963075179e+00 2.5382093289e+00 4.3963075179e+00 
45100 4.9606423666e+00 -5.0730578688e-06 2.5382093289e+00 -4.3963075179e+00 2.5382093289e+00 4.3963075179e+00 
45200 4.9606423667e+00 -6.2734613717e-06 2.5382093289e+00 -4.3963075179e+00 2.5382093289e+00 4.3963075179e+00 
45300 4.9606423668e+00 -7.4979386200e-06 2.5382093289e+00 -4.3963075179e+00 2.5382093289e+00 4.3963075179e+00 
45400 4.9606423669e+00 -8.7400920415e-06 2.5382093289e+00 -4.3963075179e+00 2.5382093289e+00 4.3963075179e+00 
45500 4.9606423670e+00 -9.9936895124e-06 2.5382093289e+00 -4.3963075179e+00 2.5382093289e+00 4.3963075179e+00 
45600 4.9606423670e+00 -1.1252685781e-05 2.5382093289e+00 -4.3963075179e+00 2.5382093289e+00 4.3963075179e+00 
45700 4.9606423671e+00 -1.2033404838e-05 2.5382093289e+00 -4.3963075179e+00 2.5382093289e+00 4.3963075179e+00 
45700 4.9606423671e+00 -1.2033404839e-05 2.5382093289e+00 -4.3963075179e+00 2.5382093289e+00 4.3963075179e+00 
