# step Hamiltonian StressXX CellTensor1 CellTensor2 CellTensor3 CellTensor4 
0 6.7629589315e+00 -1.9536185354e-01 1.5077760783e+00 -2.6115447740e+00 1.5077760783e+00 2.6115447740e+00 
100 6.7524710884e+00 -1.9748089752e-01 1.5077760783e+00 -2.6115447740e+00 1.5077760783e+00 2.6115447740e+00 
200 6.7406858506e+00 -1.9594469091e-01 1.5143295458e+00 -2.6228957128e+00 1.5143295458e+00 2.6228957128e+00 
300 6.7293597270e+00 -1.9442301651e-01 1.5208038176e+00 -2.6341094804e+00 1.5208038176e+00 2.6341094804e+00 
400 6.7185058028e+00 -1.9290252098e-01 1.5272003903e+00 -2.6451886693e+00 1.5272003903e+00 2.6451886693e+00 
500 6.7081339420e+00 -1.9137303227e-01 1.5335202854e+00 -2.6561350488e+00 1.5335202854e+00 2.6561350488e+00 
600 6.6982510097e+00 -1.8982708121e-01 1.5397641639e+00 -2.6669497635e+00 1.5397641639e+00 2.6669497635e+00 
700 6.6888610208e+00 -1.8825952057e-01 1.5459324212e+00 -2.6776334986e+00 1.5459324212e+00 2.6776334986e+00 
800 6.6799652465e+00 -1.8666721383e-01 1.5520252689e+00 -2.6881866204e+00 1.5520252689e+00 2.6881866204e+00 
900 6.6715622968e+00 -1.8504877354e-01 1.5580428029e+00 -2.6986092950e+00 1.5580428029e+00 2.6986092950e+00 
1000 6.6636481952e+00 -1.8340433519e-01 1.5639850620e+00 -2.7089015896e+00 1.5639850620e+00 2.7089015896e+00 
1100 6.6562164578e+00 -1.8173535625e-01 1.5698520778e+00 -2.7190635592e+00 1.5698520778e+00 2.7190635592e+00 
1200 6.6492581823e+00 -1.8004443359e-01 1.5756439174e+00 -2.7290953196e+00 1.5756439174e+00 2.7290953196e+00 
1300 6.6427621540e+00 -1.7833513443e-01 1.5813607182e+00 -2.7389971090e+00 1.5813607182e+00 2.7389971090e+00 
1400 6.6367149709e+00 -1.7661183775e-01 1.5870027181e+00 -2.7487693395e+00 1.5870027181e+00 2.7487693395e+00 
1500 6.6311011885e+00 -1.7487958451e-01 1.5925702789e+00 -2.7584126377e+00 1.5925702789e+00 2.7584126377e+00 
1600 6.6259034852e+00 -1.7314393551e-01 1.5980639053e+00 -2.7679278778e+00 1.5980639053e+00 2.7679278778e+00 
1700 6.6211028453e+00 -1.7141083669e-01 1.6034842589e+00 -2.7773162056e+00 1.6034842589e+00 2.7773162056e+00 
1800 6.6166787594e+00 -1.6968649188e-01 1.6088321676e+00 -2.7865790552e+00 1.6088321676e+00 2.7865790552e+00 
1900 6.6126094372e+00 -1.6797724333e-01 1.6141086314e+00 -2.7957181585e+00 1.6141086314e+00 2.7957181585e+00 
2000 6.6088720309e+00 -1.6628946036e-01 1.6193148238e+00 -2.8047355484e+00 1.6193148238e+00 2.8047355484e+00 
2100 6.6054428649e+00 -1.6462943667e-01 1.6244520911e+00 -2.8136335563e+00 1.6244520911e+00 2.8136335563e+00 
2200 6.6022976693e+00 -1.6300329666e-01 1.6295219470e+00 -2.8224148043e+00 1.6295219470e+00 2.8224148043e+00 
2300 6.5994118120e+00 -1.6141691117e-01 1.6345260658e+00 -2.8310821922e+00 1.6345260658e+00 2.8310821922e+00 
2400 6.5967605272e+00 -1.5987582283e-01 1.6394662726e+00 -2.8396388815e+00 1.6394662726e+00 2.8396388815e+00 
2500 6.5943191372e+00 -1.5838518128e-01 1.6443445320e+00 -2.8480882746e+00 1.6443445320e+00 2.8480882746e+00 
2600 6.5920632635e+00 -1.5694968802e-01 1.6491629343e+00 -2.8564339922e+00 1.6491629343e+00 2.8564339922e+00 
2700 6.5899690262e+00 -1.5557355113e-01 1.6539236812e+00 -2.8646798478e+00 1.6539236812e+00 2.8646798478e+00 
2800 6.5880132277e+00 -1.5426044931e-01 1.6586290699e+00 -2.8728298200e+00 1.6586290699e+00 2.8728298200e+00 
2900 6.5861735214e+00 -1.5301350514e-01 1.6632814763e+00 -2.8808880243e+00 1.6632814763e+00 2.8808880243e+00 
3000 6.5844285612e+00 -1.5183526701e-01 1.6678833383e+00 -2.8888586830e+00 1.6678833383e+00 2.8888586830e+00 
3100 6.5827581329e+00 -1.5072769930e-01 1.6724371382e+00 -2.8967460958e+00 1.6724371382e+00 2.8967460958e+00 
3200 6.5811432664e+00 -1.4969218017e-01 1.6769453855e+00 -2.9045546092e+00 1.6769453855e+00 2.9045546092e+00 
3300 6.5795663279e+00 -1.4872950636e-01 1.6814105997e+00 -2.9122885870e+00 1.6814105997e+00 2.9122885870e+00 
3400 6.5780110928e+00 -1.4783990444e-01 1.6858352934e+00 -2.9199523813e+00 1.6858352934e+00 2.9199523813e+00 
3500 6.5764627992e+00 -1.4702304765e-01 1.6902219564e+00 -2.9275503045e+00 1.6902219564e+00 2.9275503045e+00 
3600 6.5749081836e+00 -1.4627807774e-01 1.6945730399e+00 -2.9350866022e+00 1.6945730399e+00 2.9350866022e+00 
3700 6.5733354985e+00 -1.4560363116e-01 1.6988909421e+00 -2.9425654283e+00 1.6988909421e+00 2.9425654283e+00 
3800 6.5717345131e+00 -1.4499786878e-01 1.7031779945e+00 -2.9499908208e+00 1.7031779945e+00 2.9499908208e+00 
3900 6.5700964999e+00 -1.4445850860e-01 1.7074364489e+00 -2.9573666802e+00 1.7074364489e+00 2.9573666802e+00 
4000 6.5684142056e+00 -1.4398286071e-01 1.7116684662e+00 -2.9646967492e+00 1.7116684662e+00 2.9646967492e+00 
4100 6.5666818114e+00 -1.4356786397e-01 1.7158761058e+00 -2.9719845948e+00 1.7158761058e+00 2.9719845948e+00 
4200 6.5648948803e+00 -1.4321012379e-01 1.7200613166e+00 -2.9792335924e+00 1.7200613166e+00 2.9792335924e+00 
4300 6.5630502956e+00 -1.4290595052e-01 1.7242259283e+00 -2.9864469115e+00 1.7242259283e+00 2.9864469115e+00 
4400 6.5611461915e+00 -1.4265139801e-01 1.7283716454e+00 -2.9936275041e+00 1.7283716454e+00 2.9936275041e+00 
4500 6.5591818762e+00 -1.4244230173e-01 1.7325000407e+00 -3.0007780947e+00 1.7325000407e+00 3.0007780947e+00 
4600 6.5571577496e+00 -1.4227431637e-01 1.7366125515e+00 -3.0079011722e+00 1.7366125515e+00 3.0079011722e+00 
4700 6.5550752177e+00 -1.4214295233e-01 1.7407104752e+00 -3.0149989844e+00 1.7407104752e+00 3.0149989844e+00 
4800 6.5529366031e+00 -1.4204361092e-01 1.7447949681e+00 -3.0220735335e+00 1.7447949681e+00 3.0220735335e+00 
4900 6.5507450543e+00 -1.4197161812e-01 1.7488670429e+00 -3.0291265739e+00 1.7488670429e+00 3.0291265739e+00 
5000 6.5485044545e+00 -1.4192225653e-01 1.7529275690e+00 -3.0361596116e+00 1.7529275690e+00 3.0361596116e+00 
5100 6.5462193302e+00 -1.4189079552e-01 1.7569772730e+00 -3.0431739046e+00 1.7569772730e+00 3.0431739046e+00 
5200 6.5438947610e+00 -1.4187251944e-01 1.7610167396e+00 -3.0501704660e+00 1.7610167396e+00 3.0501704660e+00 
5300 6.5415362919e+00 -1.4186275377e-01 1.7650464141e+00 -3.0571500669e+00 1.7650464141e+00 3.0571500669e+00 
5400 6.5391498473e+00 -1.4185688918e-01 1.7690666048e+00 -3.0641132414e+00 1.7690666048e+00 3.0641132414e+00 
5500 6.5367416485e+00 -1.4185040360e-01 1.7730774869e+00 -3.0710602930e+00 1.7730774869e+00 3.0710602930e+00 
5600 6.5343181351e+00 -1.4183888214e-01 1.7770791061e+00 -3.0779913009e+00 1.7770791061e+00 3.0779913009e+00 
5700 6.5318858895e+00 -1.4181803505e-01 1.7810713834e+00 -3.0849061280e+00 1.7810713834e+00 3.0849061280e+00 
5800 6.5294515667e+00 -1.4178371370e-01 1.7850541197e+00 -3.0918044295e+00 1.7850541197e+00 3.0918044295e+00 
5900 6.5270218278e+00 -1.4173192467e-01 1.7890270012e+00 -3.0986856622e+00 1.7890270012e+00 3.0986856622e+00 
6000 6.5246032782e+00 -1.4165884205e-01 1.7929896052e+00 -3.1055490937e+00 1.7929896052e+00 3.1055490937e+00 
6100 6.5222024116e+00 -1.4156081795e-01 1.7969414057e+00 -3.1123938130e+00 1.7969414057e+00 3.1123938130e+00 
6200 6.5198255573e+00 -1.4143439157e-01 1.8008817797e+00 -3.1192187408e+00 1.8008817797e+00 3.1192187408e+00 
6300 6.5174788332e+00 -1.4127629653e-01 1.8048100131e+00 -3.1260226407e+00 1.8048100131e+00 3.1260226407e+00 
6400 6.5151681040e+00 -1.4108346699e-01 1.8087253074e+00 -3.1328041294e+00 1.8087253074e+00 3.1328041294e+00 
6500 6.5128989427e+00 -1.4085304239e-01 1.8126267860e+00 -3.1395616884e+00 1.8126267860e+00 3.1395616884e+00 
6600 6.5106765985e+00 -1.4058237099e-01 1.8165135004e+00 -3.1462936753e+00 1.8165135004e+00 3.1462936753e+00 
6700 6.5085059676e+00 -1.4026901240e-01 1.8203844371e+00 -3.1529983344e+00 1.8203844371e+00 3.1529983344e+00 
6800 6.5063915694e+00 -1.3991073901e-01 1.8242385238e+00 -3.1596738083e+00 1.8242385238e+00 3.1596738083e+00 
6900 6.5043375263e+00 -1.3950553668e-01 1.8280746354e+00 -3.1663181486e+00 1.8280746354e+00 3.1663181486e+00 
7000 6.5023475479e+00 -1.3905160448e-01 1.8318916012e+00 -3.1729293272e+00 1.8318916012e+00 3.1729293272e+00 
7100 6.5004249187e+00 -1.3854735387e-01 1.8356882101e+00 -3.1795052468e+00 1.8356882101e+00 3.1795052468e+00 
7200 6.4985724896e+00 -1.3799140712e-01 1.8394632174e+00 -3.1860437511e+00 1.8394632174e+00 3.1860437511e+00 
7300 6.4967926728e+00 -1.3738259529e-01 1.8432153502e+00 -3.1925426359e+00 1.8432153502e+00 3.1925426359e+00 
7400 6.4950874399e+00 -1.3671995564e-01 1.8469433139e+00 -3.1989996584e+00 1.8469433139e+00 3.1989996584e+00 
7500 6.4934583233e+00 -1.3600272863e-01 1.8506457970e+00 -3.2054125472e+00 1.8506457970e+00 3.2054125472e+00 
7600 6.4919064198e+00 -1.3523035461e-01 1.8543214773e+00 -3.2117790122e+00 1.8543214773e+00 3.2117790122e+00 
7700 6.4904323979e+00 -1.3440247007e-01 1.8579690268e+00 -3.2180967533e+00 1.8579690268e+00 3.2180967533e+00 
7800 6.4890365064e+00 -1.3351890373e-01 1.8615871170e+00 -3.2243634694e+00 1.8615871170e+00 3.2243634694e+00 
7900 6.4877185862e+00 -1.3257967227e-01 1.8651744240e+00 -3.2305768674e+00 1.8651744240e+00 3.2305768674e+00 
8000 6.4864780838e+00 -1.3158497593e-01 1.8687296330e+00 -3.2367346700e+00 1.8687296330e+00 3.2367346700e+00 
8100 6.4853140667e+00 -1.3053519386e-01 1.8722514431e+00 -3.2428346239e+00 1.8722514431e+00 3.2428346239e+00 
8200 6.4842252409e+00 -1.2943087928e-01 1.8757385715e+00 -3.2488745076e+00 1.8757385715e+00 3.2488745076e+00 
8300 6.4832099698e+00 -1.2827275453e-01 1.8791897584e+00 -3.2548521385e+00 1.8791897584e+00 3.2548521385e+00 
8400 6.4822662942e+00 -1.2706170592e-01 1.8826037699e+00 -3.2607653801e+00 1.8826037699e+00 3.2607653801e+00 
8500 6.4813919544e+00 -1.2579877843e-01 1.8859794032e+00 -3.2666121484e+00 1.8859794032e+00 3.2666121484e+00 
8600 6.4805844125e+00 -1.2448517026e-01 1.8893154892e+00 -3.2723904188e+00 1.8893154892e+00 3.2723904188e+00 
8700 6.4798408766e+00 -1.2312222728e-01 1.8926108966e+00 -3.2780982319e+00 1.8926108966e+00 3.2780982319e+00 
8800 6.4791583252e+00 -1.2171143721e-01 1.8958645351e+00 -3.2837336991e+00 1.8958645351e+00 3.2837336991e+00 
8900 6.4785335322e+00 -1.2025442376e-01 1.8990753585e+00 -3.2892950084e+00 1.8990753585e+00 3.2892950084e+00 
9000 6.4779630933e+00 -1.1875294050e-01 1.9022423677e+00 -3.2947804292e+00 1.9022423677e+00 3.2947804292e+00 
9100 6.4774434518e+00 -1.1720886466e-01 1.9053646135e+00 -3.3001883176e+00 1.9053646135e+00 3.3001883176e+00 
9200 6.4769709253e+00 -1.1562419061e-01 1.9084411992e+00 -3.3055171202e+00 1.9084411992e+00 3.3055171202e+00 
9300 6.4765417324e+00 -1.1400102331e-01 1.9114712828e+00 -3.3107653791e+00 1.9114712828e+00 3.3107653791e+00 
9400 6.4761520192e+00 -1.1234157138e-01 1.9144540799e+00 -3.3159317351e+00 1.9144540799e+00 3.3159317351e+00 
9500 6.4757978856e+00 -1.1064814017e-01 1.9173888649e+00 -3.3210149319e+00 1.9173888649e+00 3.3210149319e+00 
9600 6.4754754120e+00 -1.0892312445e-01 1.9202749735e+00 -3.3260138186e+00 1.9202749735e+00 3.3260138186e+00 
9700 6.4751806842e+00 -1.0716900100e-01 1.9231118041e+00 -3.3309273534e+00 1.9231118041e+00 3.3309273534e+00 
9800 6.4749098194e+00 -1.0538832101e-01 1.9258988195e+00 -3.3357546056e+00 1.9258988195e+00 3.3357546056e+00 
9900 6.4746589901e+00 -1.0358370222e-01 1.9286355479e+00 -3.3404947582e+00 1.9286355479e+00 3.3404947582e+00 
10000 6.4744244476e+00 -1.0175782093e-01 1.9313215843e+00 -3.3451471098e+00 1.9313215843e+00 3.3451471098e+00 
10100 6.4742025448e+00 -9.9913403905e-02 1.9339565915e+00 -3.3497110760e+00 1.9339565915e+00 3.3497110760e+00 
10200 6.4739897577e+00 -9.8053219993e-02 1.9365403003e+00 -3.3541861911e+00 1.9365403003e+00 3.3541861911e+00 
10300 6.4737827052e+00 -9.6180071780e-02 1.9390725109e+00 -3.3585721084e+00 1.9390725109e+00 3.3585721084e+00 
10400 6.4735781682e+00 -9.4296787060e-02 1.9415530924e+00 -3.3628686016e+00 1.9415530924e+00 3.3628686016e+00 
10500 6.4733731067e+00 -9.2406210274e-02 1.9439819835e+00 -3.3670755644e+00 1.9439819835e+00 3.3670755644e+00 
10600 6.4731646758e+00 -9.0511193925e-02 1.9463591921e+00 -3.3711930106e+00 1.9463591921e+00 3.3711930106e+00 
10700 6.4729502393e+00 -8.8614589988e-02 1.9486847956e+00 -3.3752210739e+00 1.9486847956e+00 3.3752210739e+00 
10800 6.4727273822e+00 -8.6719241379e-02 1.9509589397e+00 -3.3791600071e+00 1.9509589397e+00 3.3791600071e+00 
10900 6.4724939211e+00 -8.4827973497e-02 1.9531818386e+00 -3.3830101808e+00 1.9531818386e+00 3.3830101808e+00 
11000 6.4722479122e+00 -8.2943585894e-02 1.9553537734e+00 -3.3867720824e+00 1.9553537734e+00 3.3867720824e+00 
11100 6.4719876583e+00 -8.1068844105e-02 1.9574750920e+00 -3.3904463139e+00 1.9574750920e+00 3.3904463139e+00 
11200 6.4717117128e+00 -7.9206471676e-02 1.9595462070e+00 -3.3940335904e+00 1.9595462070e+00 3.3940335904e+00 
11300 6.4714188826e+00 -7.7359142432e-02 1.9615675953e+00 -3.3975347375e+00 1.9615675953e+00 3.3975347375e+00 
11400 6.4711082279e+00 -7.5529473004e-02 1.9635397957e+00 -3.4009506889e+00 1.9635397957e+00 3.4009506889e+00 
11500 6.4707790613e+00 -7.3720015675e-02 1.9654634082e+00 -3.4042824833e+00 1.9654634082e+00 3.4042824833e+00 
11600 6.4704309436e+00 -7.1933251543e-02 1.9673390912e+00 -3.4075312617e+00 1.9673390912e+00 3.4075312617e+00 
11700 6.4700636788e+00 -7.0171584047e-02 1.9691675605e+00 -3.4106982634e+00 1.9691675605e+00 3.4106982634e+00 
11800 6.4696773064e+00 -6.8437332870e-02 1.9709495865e+00 -3.4137848230e+00 1.9709495865e+00 3.4137848230e+00 
11900 6.4692720926e+00 -6.6732728249e-02 1.9726859925e+00 -3.4167923663e+00 1.9726859925e+00 3.4167923663e+00 
12000 6.4688485193e+00 -6.5059905688e-02 1.9743776519e+00 -3.4197224064e+00 1.9743776519e+00 3.4197224064e+00 
12100 6.4684072722e+00 -6.3420901108e-02 1.9760254862e+00 -3.4225765392e+00 1.9760254862e+00 3.4225765392e+00 
12200 6.4679492264e+00 -6.1817646433e-02 1.9776304625e+00 -3.4253564396e+00 1.9776304625e+00 3.4253564396e+00 
12300 6.4674754321e+00 -6.0251965613e-02 1.9791935902e+00 -3.4280638563e+00 1.9791935902e+00 3.4280638563e+00 
12400 6.4669870980e+00 -5.8725571105e-02 1.9807159194e+00 -3.4307006078e+00 1.9807159194e+00 3.4307006078e+00 
12500 6.4664855744e+00 -5.7240060800e-02 1.9821985371e+00 -3.4332685770e+00 1.9821985371e+00 3.4332685770e+00 
12600 6.4659723354e+00 -5.5796915393e-02 1.9836425652e+00 -3.4357697069e+00 1.9836425652e+00 3.4357697069e+00 
12700 6.4654489601e+00 -5.4397496210e-02 1.9850491569e+00 -3.4382059952e+00 1.9850491569e+00 3.4382059952e+00 
12800 6.4649171140e+00 -5.3043043471e-02 1.9864194945e+00 -3.4405794896e+00 1.9864194945e+00 3.4405794896e+00 
12900 6.4643785296e+00 -5.1734674991e-02 1.9877547860e+00 -3.4428922823e+00 1.9877547860e+00 3.4428922823e+00 
13000 6.4638349872e+00 -5.0473385313e-02 1.9890562623e+00 -3.4451465054e+00 1.9890562623e+00 3.4451465054e+00 
13100 6.4632882958e+00 -4.9260045255e-02 1.9903251743e+00 -3.4473443255e+00 1.9903251743e+00 3.4473443255e+00 
13200 6.4627402742e+00 -4.8095401873e-02 1.9915627899e+00 -3.4494879385e+00 1.9915627899e+00 3.4494879385e+00 
13300 6.4621927325e+00 -4.6980078820e-02 1.9927703907e+00 -3.4515795646e+00 1.9927703907e+00 3.4515795646e+00 
13400 6.4616474547e+00 -4.5914577085e-02 1.9939492698e+00 -3.4536214431e+00 1.9939492698e+00 3.4536214431e+00 
13500 6.4611061813e+00 -4.4899276106e-02 1.9951007282e+00 -3.4556158275e+00 1.9951007282e+00 3.4556158275e+00 
13600 6.4605705937e+00 -4.3934435231e-02 1.9962260723e+00 -3.4575649806e+00 1.9962260723e+00 3.4575649806e+00 
13700 6.4600422992e+00 -4.3020195517e-02 1.9973266107e+00 -3.4594711690e+00 1.9973266107e+00 3.4594711690e+00 
13800 6.4595228170e+00 -4.2156581842e-02 1.9984036519e+00 -3.4613366591e+00 1.9984036519e+00 3.4613366591e+00 
13900 6.4590135662e+00 -4.1343505307e-02 1.9994585010e+00 -3.4631637114e+00 1.9994585010e+00 3.4631637114e+00 
14000 6.4585158548e+00 -4.0580765916e-02 2.0004924576e+00 -3.4649545768e+00 2.0004924576e+00 3.4649545768e+00 
14100 6.4580308699e+00 -3.9868055501e-02 2.0015068127e+00 -3.4667114913e+00 2.0015068127e+00 3.4667114913e+00 
14200 6.4575596703e+00 -3.9204960872e-02 2.0025028463e+00 -3.4684366721e+00 2.0025028463e+00 3.4684366721e+00 
14300 6.4571031798e+00 -3.8590967172e-02 2.0034818250e+00 -3.4701323129e+00 2.0034818250e+00 3.4701323129e+00 
14400 6.4566621827e+00 -3.8025461408e-02 2.0044449996e+00 -3.4718005804e+00 2.0044449996e+00 3.4718005804e+00 
14500 6.4562373207e+00 -3.7507736139e-02 2.0053936028e+00 -3.4734436093e+00 2.0053936028e+00 3.4734436093e+00 
14600 6.4558290913e+00 -3.7036993293e-02 2.0063288469e+00 -3.4750634996e+00 2.0063288469e+00 3.4750634996e+00 
14700 6.4554378484e+00 -3.6612348097e-02 2.0072519217e+00 -3.4766623120e+00 2.0072519217e+00 3.4766623120e+00 
14800 6.4550638032e+00 -3.6232833098e-02 2.0081639926e+00 -3.4782420651e+00 2.0081639926e+00 3.4782420651e+00 
14900 6.4547070279e+00 -3.5897402253e-02 2.0090661984e+00 -3.4798047314e+00 2.0090661984e+00 3.4798047314e+00 
15000 6.4543674600e+00 -3.5604935072e-02 2.0099596498e+00 -3.4813522347e+00 2.0099596498e+00 3.4813522347e+00 
15100 6.4540449079e+00 -3.5354240807e-02 2.0108454275e+00 -3.4828864466e+00 2.0108454275e+00 3.4828864466e+00 
15200 6.4537390580e+00 -3.5144062656e-02 2.0117245805e+00 -3.4844091843e+00 2.0117245805e+00 3.4844091843e+00 
15300 6.4534494826e+00 -3.4973081986e-02 2.0125981247e+00 -3.4859222072e+00 2.0125981247e+00 3.4859222072e+00 
15400 6.4531756487e+00 -3.4839922564e-02 2.0134670412e+00 -3.4874272148e+00 2.0134670412e+00 3.4874272148e+00 
15500 6.4529169277e+00 -3.4743154774e-02 2.0143322756e+00 -3.4889258446e+00 2.0143322756e+00 3.4889258446e+00 
15600 6.4526726058e+00 -3.4681299836e-02 2.0151947359e+00 -3.4904196697e+00 2.0151947359e+00 3.4904196697e+00 
15700 6.4524418944e+00 -3.4652833998e-02 2.0160552921e+00 -3.4919101968e+00 2.0160552921e+00 3.4919101968e+00 
15800 6.4522239416e+00 -3.4656192724e-02 2.0169147749e+00 -3.4933988646e+00 2.0169147749e+00 3.4933988646e+00 
15900 6.4520178436e+00 -3.4689774852e-02 2.0177739746e+00 -3.4948870422e+00 2.0177739746e+00 3.4948870422e+00 
16000 6.4518226556e+00 -3.4751946732e-02 2.0186336407e+00 -3.4963760275e+00 2.0186336407e+00 3.4963760275e+00 
16100 6.4516374037e+00 -3.4841046346e-02 2.0194944808e+00 -3.4978670463e+00 2.0194944808e+00 3.4978670463e+00 
16200 6.4514610956e+00 -3.4955387405e-02 2.0203571601e+00 -3.4993612508e+00 2.0203571601e+00 3.4993612508e+00 
16300 6.4512927317e+00 -3.5093263413e-02 2.0212223013e+00 -3.5008597192e+00 2.0212223013e+00 3.5008597192e+00 
16400 6.4511313152e+00 -3.5252951724e-02 2.0220904832e+00 -3.5023634544e+00 2.0220904832e+00 3.5023634544e+00 
16500 6.4509758623e+00 -3.5432717557e-02 2.0229622415e+00 -3.5038733841e+00 2.0229622415e+00 3.5038733841e+00 
16600 6.4508254114e+00 -3.5630817996e-02 2.0238380679e+00 -3.5053903599e+00 2.0238380679e+00 3.5053903599e+00 
16700 6.4506790313e+00 -3.5845505956e-02 2.0247184100e+00 -3.5069151572e+00 2.0247184100e+00 3.5069151572e+00 
16800 6.4505358295e+00 -3.6075034119e-02 2.0256036718e+00 -3.5084484756e+00 2.0256036718e+00 3.5084484756e+00 
16900 6.4503949589e+00 -3.6317658832e-02 2.0264942132e+00 -3.5099909385e+00 2.0264942132e+00 3.5099909385e+00 
17000 6.4502556240e+00 -3.6571643969e-02 2.0273903503e+00 -3.5115430935e+00 2.0273903503e+00 3.5115430935e+00 
17100 6.4501170861e+00 -3.6835264743e-02 2.0282923560e+00 -3.5131054133e+00 2.0282923560e+00 3.5131054133e+00 
17200 6.4499786682e+00 -3.7106811469e-02 2.0292004601e+00 -3.5146782957e+00 2.0292004601e+00 3.5146782957e+00 
17300 6.4498397577e+00 -3.7384593264e-02 2.0301148498e+00 -3.5162620650e+00 2.0301148498e+00 3.5162620650e+00 
17400 6.4496998097e+00 -3.7666941684e-02 2.0310356700e+00 -3.5178569725e+00 2.0310356700e+00 3.5178569725e+00 
17500 6.4495583484e+00 -3.7952214281e-02 2.0319630246e+00 -3.5194631978e+00 2.0319630246e+00 3.5194631978e+00 
17600 6.4494149682e+00 -3.8238798080e-02 2.0328969767e+00 -3.5210808502e+00 2.0328969767e+00 3.5210808502e+00 
17700 6.4492693339e+00 -3.8525112954e-02 2.0338375493e+00 -3.5227099697e+00 2.0338375493e+00 3.5227099697e+00 
17800 6.4491211797e+00 -3.8809614906e-02 2.0347847268e+00 -3.5243505292e+00 2.0347847268e+00 3.5243505292e+00 
17900 6.4489703083e+00 -3.9090799232e-02 2.0357384553e+00 -3.5260024355e+00 2.0357384553e+00 3.5260024355e+00 
18000 6.4488165885e+00 -3.9367203558e-02 2.0366986442e+00 -3.5276655315e+00 2.0366986442e+00 3.5276655315e+00 
18100 6.4486599532e+00 -3.9637410751e-02 2.0376651671e+00 -3.5293395982e+00 2.0376651671e+00 3.5293395982e+00 
18200 6.4485003954e+00 -3.9900051688e-02 2.0386378628e+00 -3.5310243565e+00 2.0386378628e+00 3.5310243565e+00 
18300 6.4483379656e+00 -4.0153807868e-02 2.0396165369e+00 -3.5327194698e+00 2.0396165369e+00 3.5327194698e+00 
18400 6.4481727669e+00 -4.0397413879e-02 2.0406009630e+00 -3.5344245459e+00 2.0406009630e+00 3.5344245459e+00 
18500 6.4480049514e+00 -4.0629659685e-02 2.0415908841e+00 -3.5361391395e+00 2.0415908841e+00 3.5361391395e+00 
18600 6.4478347152e+00 -4.0849392754e-02 2.0425860139e+00 -3.5378627549e+00 2.0425860139e+00 3.5378627549e+00 
18700 6.4476622936e+00 -4.1055519996e-02 2.0435860385e+00 -3.5395948483e+00 2.0435860385e+00 3.5395948483e+00 
18800 6.4474879564e+00 -4.1247009526e-02 2.0445906177e+00 -3.5413348305e+00 2.0445906177e+00 3.5413348305e+00 
18900 6.4473120024e+00 -4.1422892239e-02 2.0455993869e+00 -3.5430820700e+00 2.0455993869e+00 3.5430820700e+00 
19000 6.4471347551e+00 -4.1582263185e-02 2.0466119582e+00 -3.5448358950e+00 2.0466119582e+00 3.5448358950e+00 
19100 6.4469565569e+00 -4.1724282761e-02 2.0476279227e+00 -3.5465955972e+00 2.0476279227e+00 3.5465955972e+00 
19200 6.4467777646e+00 -4.1848177702e-02 2.0486468515e+00 -3.5483604336e+00 2.0486468515e+00 3.5483604336e+00 
19300 6.4465987446e+00 -4.1953241877e-02 2.0496682978e+00 -3.5501296304e+00 2.0496682978e+00 3.5501296304e+00 
19400 6.4464198680e+00 -4.2038836886e-02 2.0506917983e+00 -3.5519023853e+00 2.0506917983e+00 3.5519023853e+00 
19500 6.4462415065e+00 -4.2104392470e-02 2.0517168752e+00 -3.5536778706e+00 2.0517168752e+00 3.5536778706e+00 
19600 6.4460640279e+00 -4.2149406717e-02 2.0527430378e+00 -3.5554552363e+00 2.0527430378e+00 3.5554552363e+00 
19700 6.4458877924e+00 -4.2173446083e-02 2.0537697839e+00 -3.5572336127e+00 2.0537697839e+00 3.5572336127e+00 
19800 6.4457131490e+00 -4.2176145228e-02 2.0547966019e+00 -3.5590121138e+00 2.0547966019e+00 3.5590121138e+00 
19900 6.4455404321e+00 -4.2157206658e-02 2.0558229725e+00 -3.5607898397e+00 2.0558229725e+00 3.5607898397e+00 
20000 6.4453699584e+00 -4.2116400197e-02 2.0568483699e+00 -3.5625658801e+00 2.0568483699e+00 3.5625658801e+00 
20100 6.4452020246e+00 -4.2053562281e-02 2.0578722638e+00 -3.5643393164e+00 2.0578722638e+00 3.5643393164e+00 
20200 6.4450369051e+00 -4.1968595079e-02 2.0588941212e+00 -3.5661092254e+00 2.0588941212e+00 3.5661092254e+00 
20300 6.4448748498e+00 -4.1861465459e-02 2.0599134076e+00 -3.5678746812e+00 2.0599134076e+00 3.5678746812e+00 
20400 6.4447160825e+00 -4.1732203789e-02 2.0609295888e+00 -3.5696347587e+00 2.0609295888e+00 3.5696347587e+00 
20500 6.4445608004e+00 -4.1580902594e-02 2.0619421324e+00 -3.5713885355e+00 2.0619421324e+00 3.5713885355e+00 
20600 6.4444091721e+00 -4.1407715061e-02 2.0629505091e+00 -3.5731350953e+00 2.0629505091e+00 3.5731350953e+00 
20700 6.4442613382e+00 -4.1212853423e-02 2.0639541946e+00 -3.5748735296e+00 2.0639541946e+00 3.5748735296e+00 
20800 6.4441174102e+00 -4.0996587196e-02 2.0649526706e+00 -3.5766029408e+00 2.0649526706e+00 3.5766029408e+00 
20900 6.4439774710e+00 -4.0759241312e-02 2.0659454263e+00 -3.5783224441e+00 2.0659454263e+00 3.5783224441e+00 
21000 6.4438415754e+00 -4.0501194127e-02 2.0669319597e+00 -3.5800311700e+00 2.0669319597e+00 3.5800311700e+00 
21100 6.4437097501e+00 -4.0222875330e-02 2.0679117789e+00 -3.5817282667e+00 2.0679117789e+00 3.5817282667e+00 
21200 6.4435819954e+00 -3.9924763756e-02 2.0688844033e+00 -3.5834129014e+00 2.0688844033e+00 3.5834129014e+00 
21300 6.4434582858e+00 -3.9607385103e-02 2.0698493645e+00 -3.5850842634e+00 2.0698493645e+00 3.5850842634e+00 
21400 6.4433385713e+00 -3.9271309579e-02 2.0708062079e+00 -3.5867415648e+00 2.0708062079e+00 3.5867415648e+00 
21500 6.4432227792e+00 -3.8917149465e-02 2.0717544933e+00 -3.5883840433e+00 2.0717544933e+00 3.5883840433e+00 
21600 6.4431108155e+00 -3.8545556624e-02 2.0726937960e+00 -3.5900109631e+00 2.0726937960e+00 3.5900109631e+00 
21700 6.4430025667e+00 -3.8157219948e-02 2.0736237075e+00 -3.5916216171e+00 2.0736237075e+00 3.5916216171e+00 
21800 6.4428979018e+00 -3.7752862757e-02 2.0745438368e+00 -3.5932153279e+00 2.0745438368e+00 3.5932153279e+00 
21900 6.4427966741e+00 -3.7333240163e-02 2.0754538109e+00 -3.5947914492e+00 2.0754538109e+00 3.5947914492e+00 
22000 6.4426987234e+00 -3.6899136395e-02 2.0763532753e+00 -3.5963493672e+00 2.0763532753e+00 3.5963493672e+00 
22100 6.4426038781e+00 -3.6451362108e-02 2.0772418949e+00 -3.5978885016e+00 2.0772418949e+00 3.5978885016e+00 
22200 6.4425119571e+00 -3.5990751669e-02 2.0781193548e+00 -3.5994083067e+00 2.0781193548e+00 3.5994083067e+00 
22300 6.4424227718e+00 -3.5518160439e-02 2.0789853601e+00 -3.6009082719e+00 2.0789853601e+00 3.6009082719e+00 
22400 6.4423361285e+00 -3.5034462055e-02 2.0798396372e+00 -3.6023879233e+00 2.0798396372e+00 3.6023879233e+00 
22500 6.4422518302e+00 -3.4540545717e-02 2.0806819336e+00 -3.6038468233e+00 2.0806819336e+00 3.6038468233e+00 
22600 6.4421696785e+00 -3.4037313486e-02 2.0815120182e+00 -3.6052845721e+00 2.0815120182e+00 3.6052845721e+00 
22700 6.4420894758e+00 -3.3525677610e-02 2.0823296820e+00 -3.6067008073e+00 2.0823296820e+00 3.6067008073e+00 
22800 6.4420110264e+00 -3.3006557876e-02 2.0831347379e+00 -3.6080952051e+00 2.0831347379e+00 3.6080952051e+00 
22900 6.4419341390e+00 -3.2480878993e-02 2.0839270210e+00 -3.6094674797e+00 2.0839270210e+00 3.6094674797e+00 
23000 6.4418586276e+00 -3.1949568023e-02 2.0847063886e+00 -3.6108173839e+00 2.0847063886e+00 3.6108173839e+00 
23100 6.4417843133e+00 -3.1413551853e-02 2.0854727201e+00 -3.6121447090e+00 2.0854727201e+00 3.6121447090e+00 
23200 6.4417110256e+00 -3.0873754729e-02 2.0862259173e+00 -3.6134492848e+00 2.0862259173e+00 3.6134492848e+00 
23300 6.4416386033e+00 -3.0331095839e-02 2.0869659037e+00 -3.6147309789e+00 2.0869659037e+00 3.6147309789e+00 
23400 6.4415668957e+00 -2.9786486975e-02 2.0876926251e+00 -3.6159896973e+00 2.0876926251e+00 3.6159896973e+00 
23500 6.4414957635e+00 -2.9240830248e-02 2.0884060487e+00 -3.6172253832e+00 2.0884060487e+00 3.6172253832e+00 
23600 6.4414250794e+00 -2.8695015898e-02 2.0891061631e+00 -3.6184380169e+00 2.0891061631e+00 3.6184380169e+00 
23700 6.4413547289e+00 -2.8149920164e-02 2.0897929781e+00 -3.6196276153e+00 2.0897929781e+00 3.6196276153e+00 
23800 6.4412846103e+00 -2.7606403254e-02 2.0904665240e+00 -3.6207942311e+00 2.0904665240e+00 3.6207942311e+00 
23900 6.4412146353e+00 -2.7065307392e-02 2.0911268517e+00 -3.6219379521e+00 2.0911268517e+00 3.6219379521e+00 
24000 6.4411447292e+00 -2.6527454965e-02 2.0917740315e+00 -3.6230589005e+00 2.0917740315e+00 3.6230589005e+00 
24100 6.4410748306e+00 -2.5993646755e-02 2.0924081534e+00 -3.6241572319e+00 2.0924081534e+00 3.6241572319e+00 
24200 6.4410048914e+00 -2.5464660277e-02 2.0930293260e+00 -3.6252331344e+00 2.0930293260e+00 3.6252331344e+00 
24300 6.4409348765e+00 -2.4941248215e-02 2.0936376761e+00 -3.6262868277e+00 2.0936376761e+00 3.6262868277e+00 
24400 6.4408647636e+00 -2.4424136955e-02 2.0942333482e+00 -3.6273185620e+00 2.0942333482e+00 3.6273185620e+00 
24500 6.4407945425e+00 -2.3914025228e-02 2.0948165036e+00 -3.6283286168e+00 2.0948165036e+00 3.6283286168e+00 
24600 6.4407242146e+00 -2.3411582857e-02 2.0953873200e+00 -3.6293172998e+00 2.0953873200e+00 3.6293172998e+00 
24700 6.4406537923e+00 -2.2917449605e-02 2.0959459905e+00 -3.6302849455e+00 2.0959459905e+00 3.6302849455e+00 
24800 6.4405832981e+00 -2.2432234139e-02 2.0964927233e+00 -3.6312319144e+00 2.0964927233e+00 3.6312319144e+00 
24900 6.4405127638e+00 -2.1956513097e-02 2.0970277403e+00 -3.6321585912e+00 2.0970277403e+00 3.6321585912e+00 
25000 6.4404422298e+00 -2.1490830257e-02 2.0975512772e+00 -3.6330653836e+00 2.0975512772e+00 3.6330653836e+00 
25100 6.4403717442e+00 -2.1035695824e-02 2.0980635818e+00 -3.6339527213e+00 2.0980635818e+00 3.6339527213e+00 
25200 6.4403013615e+00 -2.0591585817e-02 2.0985649140e+00 -3.6348210540e+00 2.0985649140e+00 3.6348210540e+00 
25300 6.4402311420e+00 -2.0158941561e-02 2.0990555442e+00 -3.6356708505e+00 2.0990555442e+00 3.6356708505e+00 
25400 6.4401611508e+00 -1.9738169288e-02 2.0995357533e+00 -3.6365025970e+00 2.0995357533e+00 3.6365025970e+00 
25500 6.4400914565e+00 -1.9329639837e-02 2.1000058311e+00 -3.6373167957e+00 2.1000058311e+00 3.6373167957e+00 
25600 6.4400221306e+00 -1.8933688456e-02 2.1004660762e+00 -3.6381139635e+00 2.1004660762e+00 3.6381139635e+00 
25700 6.4399532463e+00 -1.8550614710e-02 2.1009167944e+00 -3.6388946303e+00 2.1009167944e+00 3.6388946303e+00 
25800 6.4398848779e+00 -1.8180682471e-02 2.1013582984e+00 -3.6396593377e+00 2.1013582984e+00 3.6396593377e+00 
25900 6.4398170992e+00 -1.7824120020e-02 2.1017909068e+00 -3.6404086375e+00 2.1017909068e+00 3.6404086375e+00 
26000 6.4397499836e+00 -1.7481120230e-02 2.1022149433e+00 -3.6411430902e+00 2.1022149433e+00 3.6411430902e+00 
26100 6.4396836025e+00 -1.7151840840e-02 2.1026307356e+00 -3.6418632636e+00 2.1026307356e+00 3.6418632636e+00 
26200 6.4396180250e+00 -1.6836404821e-02 2.1030386150e+00 -3.6425697314e+00 2.1030386150e+00 3.6425697314e+00 
26300 6.4395533170e+00 -1.6534900813e-02 2.1034389153e+00 -3.6432630718e+00 2.1034389153e+00 3.6432630718e+00 
26400 6.4394895407e+00 -1.6247383654e-02 2.1038319720e+00 -3.6439438660e+00 2.1038319720e+00 3.6439438660e+00 
26500 6.4394267540e+00 -1.5973874980e-02 2.1042181216e+00 -3.6446126969e+00 2.1042181216e+00 3.6446126969e+00 
26600 6.4393650099e+00 -1.5714363893e-02 2.1045977010e+00 -3.6452701476e+00 2.1045977010e+00 3.6452701476e+00 
26700 6.4393043563e+00 -1.5468807707e-02 2.1049710462e+00 -3.6459168004e+00 2.1049710462e+00 3.6459168004e+00 
26800 6.4392448354e+00 -1.5237132751e-02 2.1053384920e+00 -3.6465532353e+00 2.1053384920e+00 3.6465532353e+00 
26900 6.4391864837e+00 -1.5019235239e-02 2.1057003714e+00 -3.6471800287e+00 2.1057003714e+00 3.6471800287e+00 
27000 6.4391293316e+00 -1.4814982191e-02 2.1060570142e+00 -3.6477977522e+00 2.1060570142e+00 3.6477977522e+00 
27100 6.4390734034e+00 -1.4624212415e-02 2.1064087472e+00 -3.6484069716e+00 2.1064087472e+00 3.6484069716e+00 
27200 6.4390187169e+00 -1.4446737531e-02 2.1067558929e+00 -3.6490082456e+00 2.1067558929e+00 3.6490082456e+00 
27300 6.4389652842e+00 -1.4282343047e-02 2.1070987691e+00 -3.6496021246e+00 2.1070987691e+00 3.6496021246e+00 
27400 6.4389131106e+00 -1.4130789469e-02 2.1074376883e+00 -3.6501891499e+00 2.1074376883e+00 3.6501891499e+00 
27500 6.4388621960e+00 -1.3991813459e-02 2.1077729571e+00 -3.6507698526e+00 2.1077729571e+00 3.6507698526e+00 
27600 6.4388125341e+00 -1.3865129013e-02 2.1081048757e+00 -3.6513447525e+00 2.1081048757e+00 3.6513447525e+00 
27700 6.4387641131e+00 -1.3750428680e-02 2.1084337372e+00 -3.6519143572e+00 2.1084337372e+00 3.6519143572e+00 
27800 6.4387169159e+00 -1.3647384803e-02 2.1087598272e+00 -3.6524791617e+00 2.1087598272e+00 3.6524791617e+00 
27900 6.4386709204e+00 -1.3555650777e-02 2.1090834234e+00 -3.6530396468e+00 2.1090834234e+00 3.6530396468e+00 
28000 6.4386260999e+00 -1.3474862335e-02 2.1094047951e+00 -3.6535962789e+00 2.1094047951e+00 3.6535962789e+00 
28100 6.4385824235e+00 -1.3404638836e-02 2.1097242028e+00 -3.6541495092e+00 2.1097242028e+00 3.6541495092e+00 
28200 6.4385398563e+00 -1.3344584577e-02 2.1100418978e+00 -3.6546997731e+00 2.1100418978e+00 3.6546997731e+00 
28300 6.4384983604e+00 -1.3294290100e-02 2.1103581218e+00 -3.6552474891e+00 2.1103581218e+00 3.6552474891e+00 
28400 6.4384578946e+00 -1.3253333510e-02 2.1106731067e+00 -3.6557930590e+00 2.1106731067e+00 3.6557930590e+00 
28500 6.4384184154e+00 -1.3221281795e-02 2.1109870744e+00 -3.6563368670e+00 2.1109870744e+00 3.6563368670e+00 
28600 6.4383798774e+00 -1.3197692132e-02 2.1113002362e+00 -3.6568792791e+00 2.1113002362e+00 3.6568792791e+00 
28700 6.4383422336e+00 -1.3182113202e-02 2.1116127928e+00 -3.6574206430e+00 2.1116127928e+00 3.6574206430e+00 
28800 6.4383054359e+00 -1.3174086481e-02 2.1119249342e+00 -3.6579612879e+00 2.1119249342e+00 3.6579612879e+00 
28900 6.4382694356e+00 -1.3173147531e-02 2.1122368395e+00 -3.6585015237e+00 2.1122368395e+00 3.6585015237e+00 
29000 6.4382341840e+00 -1.3178827270e-02 2.1125486765e+00 -3.6590416412e+00 2.1125486765e+00 3.6590416412e+00 
29100 6.4381996323e+00 -1.3190653220e-02 2.1128606019e+00 -3.6595819118e+00 2.1128606019e+00 3.6595819118e+00 
29200 6.4381657326e+00 -1.3208150746e-02 2.1131727611e+00 -3.6601225874e+00 2.1131727611e+00 3.6601225874e+00 
29300 6.4381324380e+00 -1.3230844262e-02 2.1134852882e+00 -3.6606639003e+00 2.1134852882e+00 3.6606639003e+00 
29400 6.4380997030e+00 -1.3258258413e-02 2.1137983061e+00 -3.6612060630e+00 2.1137983061e+00 3.6612060630e+00 
29500 6.4380674836e+00 -1.3289919237e-02 2.1141119260e+00 -3.6617492687e+00 2.1141119260e+00 3.6617492687e+00 
29600 6.4380357378e+00 -1.3325355285e-02 2.1144262483e+00 -3.6622936908e+00 2.1144262483e+00 3.6622936908e+00 
29700 6.4380044260e+00 -1.3364098721e-02 2.1147413618e+00 -3.6628394835e+00 2.1147413618e+00 3.6628394835e+00 
29800 6.4379735109e+00 -1.3405686382e-02 2.1150573444e+00 -3.6633867815e+00 2.1150573444e+00 3.6633867815e+00 
29900 6.4379429579e+00 -1.3449660799e-02 2.1153742630e+00 -3.6639357006e+00 2.1153742630e+00 3.6639357006e+00 
30000 6.4379127350e+00 -1.3495571192e-02 2.1156921736e+00 -3.6644863379e+00 2.1156921736e+00 3.6644863379e+00 
30100 6.4378828133e+00 -1.3542974417e-02 2.1160111215e+00 -3.6650387718e+00 2.1160111215e+00 3.6650387718e+00 
30200 6.4378531668e+00 -1.3591435872e-02 2.1163311415e+00 -3.6655930627e+00 2.1163311415e+00 3.6655930627e+00 
30300 6.4378237725e+00 -1.3640530372e-02 2.1166522580e+00 -3.6661492529e+00 2.1166522580e+00 3.6661492529e+00 
30400 6.4377946104e+00 -1.3689842969e-02 2.1169744856e+00 -3.6667073675e+00 2.1169744856e+00 3.6667073675e+00 
30500 6.4377656637e+00 -1.3738969738e-02 2.1172978290e+00 -3.6672674145e+00 2.1172978290e+00 3.6672674145e+00 
30600 6.4377369185e+00 -1.3787518512e-02 2.1176222831e+00 -3.6678293856e+00 2.1176222831e+00 3.6678293856e+00 
30700 6.4377083638e+00 -1.3835109577e-02 2.1179478339e+00 -3.6683932561e+00 2.1179478339e+00 3.6683932561e+00 
30800 6.4376799913e+00 -1.3881376315e-02 2.1182744582e+00 -3.6689589860e+00 2.1182744582e+00 3.6689589860e+00 
30900 6.4376517958e+00 -1.3925965807e-02 2.1186021243e+00 -3.6695265203e+00 2.1186021243e+00 3.6695265203e+00 
31000 6.4376237742e+00 -1.3968539387e-02 2.1189307921e+00 -3.6700957896e+00 2.1189307921e+00 3.6700957896e+00 
31100 6.4375959261e+00 -1.4008773146e-02 2.1192604135e+00 -3.6706667107e+00 2.1192604135e+00 3.6706667107e+00 
31200 6.4375682534e+00 -1.4046358388e-02 2.1195909330e+00 -3.6712391873e+00 2.1195909330e+00 3.6712391873e+00 
31300 6.4375407599e+00 -1.4081002048e-02 2.1199222876e+00 -3.6718131103e+00 2.1199222876e+00 3.6718131103e+00 
31400 6.4375134513e+00 -1.4112427050e-02 2.1202544076e+00 -3.6723883589e+00 2.1202544076e+00 3.6723883589e+00 
31500 6.4374863349e+00 -1.4140372624e-02 2.1205872166e+00 -3.6729648011e+00 2.1205872166e+00 3.6729648011e+00 
31600 6.4374594197e+00 -1.4164594579e-02 2.1209206324e+00 -3.6735422941e+00 2.1209206324e+00 3.6735422941e+00 
31700 6.4374327157e+00 -1.4184865519e-02 2.1212545667e+00 -3.6741206854e+00 2.1212545667e+00 3.6741206854e+00 
31800 6.4374062339e+00 -1.4200975026e-02 2.1215889264e+00 -3.6746998132e+00 2.1215889264e+00 3.6746998132e+00 
31900 6.4373799863e+00 -1.4212729787e-02 2.1219236130e+00 -3.6752795075e+00 2.1219236130e+00 3.6752795075e+00 
32000 6.4373539854e+00 -1.4219953679e-02 2.1222585238e+00 -3.6758595900e+00 2.1222585238e+00 3.6758595900e+00 
32100 6.4373282440e+00 -1.4222487812e-02 2.1225935520e+00 -3.6764398758e+00 2.1225935520e+00 3.6764398758e+00 
32200 6.4373027753e+00 -1.4220190523e-02 2.1229285870e+00 -3.6770201734e+00 2.1229285870e+00 3.6770201734e+00 
32300 6.4372775923e+00 -1.4212937338e-02 2.1232635149e+00 -3.6776002857e+00 2.1232635149e+00 3.6776002857e+00 
32400 6.4372527080e+00 -1.4200620876e-02 2.1235982193e+00 -3.6781800107e+00 2.1235982193e+00 3.6781800107e+00 
32500 6.4372281349e+00 -1.4183150729e-02 2.1239325809e+00 -3.6787591419e+00 2.1239325809e+00 3.6787591419e+00 
32600 6.4372038850e+00 -1.4160453294e-02 2.1242664785e+00 -3.6793374697e+00 2.1242664785e+00 3.6793374697e+00 
32700 6.4371799699e+00 -1.4132471565e-02 2.1245997894e+00 -3.6799147811e+00 2.1245997894e+00 3.6799147811e+00 
32800 6.4371564001e+00 -1.4099164894e-02 2.1249323895e+00 -3.6804908613e+00 2.1249323895e+00 3.6804908613e+00 
32900 6.4371331854e+00 -1.4060508715e-02 2.1252641537e+00 -3.6810654938e+00 2.1252641537e+00 3.6810654938e+00 
33000 6.4371103345e+00 -1.4016494229e-02 2.1255949567e+00 -3.6816384613e+00 2.1255949567e+00 3.6816384613e+00 
33100 6.4370878552e+00 -1.3967128065e-02 2.1259246728e+00 -3.6822095463e+00 2.1259246728e+00 3.6822095463e+00 
33200 6.4370657541e+00 -1.3912431901e-02 2.1262531766e+00 -3.6827785316e+00 2.1262531766e+00 3.6827785316e+00 
33300 6.4370440364e+00 -1.3852442060e-02 2.1265803434e+00 -3.6833452011e+00 2.1265803434e+00 3.6833452011e+00 
33400 6.4370227064e+00 -1.3787209081e-02 2.1269060493e+00 -3.6839093403e+00 2.1269060493e+00 3.6839093403e+00 
33500 6.4370017669e+00 -1.3716797256e-02 2.1272301717e+00 -3.6844707368e+00 2.1272301717e+00 3.6844707368e+00 
33600 6.4369812196e+00 -1.3641284150e-02 2.1275525897e+00 -3.6850291811e+00 2.1275525897e+00 3.6850291811e+00 
33700 6.4369610649e+00 -1.3560760091e-02 2.1278731840e+00 -3.6855844668e+00 2.1278731840e+00 3.6855844668e+00 
33800 6.4369413019e+00 -1.3475327646e-02 2.1281918379e+00 -3.6861363914e+00 2.1281918379e+00 3.6861363914e+00 
33900 6.4369219285e+00 -1.3385101075e-02 2.1285084367e+00 -3.6866847567e+00 2.1285084367e+00 3.6866847567e+00 
34000 6.4369029416e+00 -1.3290205764e-02 2.1288228689e+00 -3.6872293692e+00 2.1288228689e+00 3.6872293692e+00 
34100 6.4368843369e+00 -1.3190777643e-02 2.1291350257e+00 -3.6877700406e+00 2.1291350257e+00 3.6877700406e+00 
34200 6.4368661089e+00 -1.3086962599e-02 2.1294448016e+00 -3.6883065884e+00 2.1294448016e+00 3.6883065884e+00 
34300 6.4368482514e+00 -1.2978915861e-02 2.1297520948e+00 -3.6888388358e+00 2.1297520948e+00 3.6888388358e+00 
34400 6.4368307571e+00 -1.2866801389e-02 2.1300568069e+00 -3.6893666126e+00 2.1300568069e+00 3.6893666126e+00 
34500 6.4368136178e+00 -1.2750791247e-02 2.1303588436e+00 -3.6898897555e+00 2.1303588436e+00 3.6898897555e+00 
34600 6.4367968249e+00 -1.2631064967e-02 2.1306581145e+00 -3.6904081079e+00 2.1306581145e+00 3.6904081079e+00 
34700 6.4367803689e+00 -1.2507808916e-02 2.1309545337e+00 -3.6909215210e+00 2.1309545337e+00 3.6909215210e+00 
34800 6.4367642399e+00 -1.2381215654e-02 2.1312480195e+00 -3.6914298532e+00 2.1312480195e+00 3.6914298532e+00 
34900 6.4367484272e+00 -1.2251483288e-02 2.1315384947e+00 -3.6919329712e+00 2.1315384947e+00 3.6919329712e+00 
35000 6.4367329203e+00 -1.2118814831e-02 2.1318258871e+00 -3.6924307494e+00 2.1318258871e+00 3.6924307494e+00 
35100 6.4367177080e+00 -1.1983417563e-02 2.1321101290e+00 -3.6929230708e+00 2.1321101290e+00 3.6929230708e+00 
35200 6.4367027791e+00 -1.1845502389e-02 2.1323911576e+00 -3.6934098267e+00 2.1323911576e+00 3.6934098267e+00 
35300 6.4366881223e+00 -1.1705283208e-02 2.1326689153e+00 -3.6938909170e+00 2.1326689153e+00 3.6938909170e+00 
35400 6.4366737263e+00 -1.1562976288e-02 2.1329433492e+00 -3.6943662505e+00 2.1329433492e+00 3.6943662505e+00 
35500 6.4366595800e+00 -1.1418799643e-02 2.1332144118e+00 -3.6948357446e+00 2.1332144118e+00 3.6948357446e+00 
35600 6.4366456722e+00 -1.1272972427e-02 2.1334820604e+00 -3.6952993257e+00 2.1334820604e+00 3.6952993257e+00 
35700 6.4366319922e+00 -1.1125714331e-02 2.1337462577e+00 -3.6957569289e+00 2.1337462577e+00 3.6957569289e+00 
35800 6.4366185297e+00 -1.0977245002e-02 2.1340069715e+00 -3.6962084984e+00 2.1340069715e+00 3.6962084984e+00 
35900 6.4366052744e+00 -1.0827783465e-02 2.1342641746e+00 -3.6966539873e+00 2.1342641746e+00 3.6966539873e+00 
36000 6.4365922167e+00 -1.0677547564e-02 2.1345178452e+00 -3.6970933575e+00 2.1345178452e+00 3.6970933575e+00 
36100 6.4365793475e+00 -1.0526753421e-02 2.1347679662e+00 -3.6975265798e+00 2.1347679662e+00 3.6975265798e+00 
36200 6.4365666581e+00 -1.0375614907e-02 2.1350145259e+00 -3.6979536338e+00 2.1350145259e+00 3.6979536338e+00 
36300 6.4365541405e+00 -1.0224343135e-02 2.1352575175e+00 -3.6983745076e+00 2.1352575175e+00 3.6983745076e+00 
36400 6.4365417871e+00 -1.0073145968e-02 2.1354969391e+00 -3.6987891979e+00 2.1354969391e+00 3.6987891979e+00 
36500 6.4365295910e+00 -9.9222275507e-03 2.1357327936e+00 -3.6991977099e+00 2.1357327936e+00 3.6991977099e+00 
36600 6.4365175460e+00 -9.7717878573e-03 2.1359650887e+00 -3.6996000569e+00 2.1359650887e+00 3.6996000569e+00 
36700 6.4365056465e+00 -9.6220222641e-03 2.1361938369e+00 -3.6999962603e+00 2.1361938369e+00 3.6999962603e+00 
36800 6.4364938874e+00 -9.4731211417e-03 2.1364190550e+00 -3.7003863496e+00 2.1364190550e+00 3.7003863496e+00 
36900 6.4364822644e+00 -9.3252694704e-03 2.1366407645e+00 -3.7007703616e+00 2.1366407645e+00 3.7007703616e+00 
37000 6.4364707737e+00 -9.1786464790e-03 2.1368589909e+00 -3.7011483408e+00 2.1368589909e+00 3.7011483408e+00 
37100 6.4364594120e+00 -9.0334253059e-03 2.1370737640e+00 -3.7015203388e+00 2.1370737640e+00 3.7015203388e+00 
37200 6.4364481769e+00 -8.8897726850e-03 2.1372851179e+00 -3.7018864144e+00 2.1372851179e+00 3.7018864144e+00 
37300 6.4364370662e+00 -8.7478486550e-03 2.1374930900e+00 -3.7022466328e+00 2.1374930900e+00 3.7022466328e+00 
37400 6.4364260785e+00 -8.6078062937e-03 2.1376977220e+00 -3.7026010657e+00 2.1376977220e+00 3.7026010657e+00 
37500 6.4364152126e+00 -8.4697914758e-03 2.1378990587e+00 -3.7029497912e+00 2.1378990587e+00 3.7029497912e+00 
37600 6.4364044680e+00 -8.3339426563e-03 2.1380971486e+00 -3.7032928929e+00 2.1380971486e+00 3.7032928929e+00 
37700 6.4363938445e+00 -8.2003906776e-03 2.1382920431e+00 -3.7036304601e+00 2.1382920431e+00 3.7036304601e+00 
37800 6.4363833422e+00 -8.0692586016e-03 2.1384837970e+00 -3.7039625875e+00 2.1384837970e+00 3.7039625875e+00 
37900 6.4363729617e+00 -7.9406615660e-03 2.1386724675e+00 -3.7042893744e+00 2.1386724675e+00 3.7042893744e+00 
38000 6.4363627037e+00 -7.8147066651e-03 2.1388581148e+00 -3.7046109250e+00 2.1388581148e+00 3.7046109250e+00 
38100 6.4363525691e+00 -7.6914928542e-03 2.1390408015e+00 -3.7049273476e+00 2.1390408015e+00 3.7049273476e+00 
38200 6.4363425593e+00 -7.5711108779e-03 2.1392205924e+00 -3.7052387546e+00 2.1392205924e+00 3.7052387546e+00 
38300 6.4363326755e+00 -7.4536432215e-03 2.1393975544e+00 -3.7055452618e+00 2.1393975544e+00 3.7055452618e+00 
38400 6.4363229192e+00 -7.3391640857e-03 2.1395717563e+00 -3.7058469884e+00 2.1395717563e+00 3.7058469884e+00 
38500 6.4363132919e+00 -7.2277393834e-03 2.1397432687e+00 -3.7061440566e+00 2.1397432687e+00 3.7061440566e+00 
38600 6.4363037950e+00 -7.1194267582e-03 2.1399121636e+00 -3.7064365911e+00 2.1399121636e+00 3.7064365911e+00 
38700 6.4362944302e+00 -7.0142756249e-03 2.1400785144e+00 -3.7067247190e+00 2.1400785144e+00 3.7067247190e+00 
38800 6.4362851988e+00 -6.9123272300e-03 2.1402423954e+00 -3.7070085693e+00 2.1402423954e+00 3.7070085693e+00 
38900 6.4362761023e+00 -6.8136147328e-03 2.1404038821e+00 -3.7072882725e+00 2.1404038821e+00 3.7072882725e+00 
39000 6.4362671418e+00 -6.7181633056e-03 2.1405630506e+00 -3.7075639605e+00 2.1405630506e+00 3.7075639605e+00 
39100 6.4362583184e+00 -6.6259902524e-03 2.1407199777e+00 -3.7078357661e+00 2.1407199777e+00 3.7078357661e+00 
39200 6.4362496331e+00 -6.5371051459e-03 2.1408747403e+00 -3.7081038229e+00 2.1408747403e+00 3.7081038229e+00 
39300 6.4362410866e+00 -6.4515099811e-03 2.1410274159e+00 -3.7083682647e+00 2.1410274159e+00 3.7083682647e+00 
39400 6.4362326795e+00 -6.3691993454e-03 2.1411780815e+00 -3.7086292252e+00 2.1411780815e+00 3.7086292252e+00 
39500 6.4362244120e+00 -6.2901606045e-03 2.1413268144e+00 -3.7088868382e+00 2.1413268144e+00 3.7088868382e+00 
39600 6.4362162841e+00 -6.2143741015e-03 2.1414736914e+00 -3.7091412366e+00 2.1414736914e+00 3.7091412366e+00 
39700 6.4362082958e+00 -6.1418133715e-03 2.1416187888e+00 -3.7093925526e+00 2.1416187888e+00 3.7093925526e+00 
39800 6.4362004466e+00 -6.0724453673e-03 2.1417621822e+00 -3.7096409173e+00 2.1417621822e+00 3.7096409173e+00 
39900 6.4361927358e+00 -6.0062306981e-03 2.1419039466e+00 -3.7098864605e+00 2.1419039466e+00 3.7098864605e+00 
40000 6.4361851625e+00 -5.9431238784e-03 2.1420441559e+00 -3.7101293101e+00 2.1420441559e+00 3.7101293101e+00 
40100 6.4361777254e+00 -5.8830735868e-03 2.1421828829e+00 -3.7103695923e+00 2.1421828829e+00 3.7103695923e+00 
40200 6.4361704233e+00 -5.8260229350e-03 2.1423201993e+00 -3.7106074313e+00 2.1423201993e+00 3.7106074313e+00 
40300 6.4361632544e+00 -5.7719097430e-03 2.1424561753e+00 -3.7108429487e+00 2.1424561753e+00 3.7108429487e+00 
40400 6.4361562169e+00 -5.7206668233e-03 2.1425908799e+00 -3.7110762637e+00 2.1425908799e+00 3.7110762637e+00 
40500 6.4361493087e+00 -5.6722222705e-03 2.1427243801e+00 -3.7113074929e+00 2.1427243801e+00 3.7113074929e+00 
40600 6.4361425275e+00 -5.6264997558e-03 2.1428567415e+00 -3.7115367496e+00 2.1428567415e+00 3.7115367496e+00 
40700 6.4361358710e+00 -5.5834188269e-03 2.1429880278e+00 -3.7117641442e+00 2.1429880278e+00 3.7117641442e+00 
40800 6.4361293365e+00 -5.5428952109e-03 2.1431183010e+00 -3.7119897839e+00 2.1431183010e+00 3.7119897839e+00 
40900 6.4361229213e+00 -5.5048411194e-03 2.1432476207e+00 -3.7122137723e+00 2.1432476207e+00 3.7122137723e+00 
41000 6.4361166225e+00 -5.4691655565e-03 2.1433760449e+00 -3.7124362095e+00 2.1433760449e+00 3.7124362095e+00 
41100 6.4361104373e+00 -5.4357746262e-03 2.1435036291e+00 -3.7126571919e+00 2.1435036291e+00 3.7126571919e+00 
41200 6.4361043625e+00 -5.4045718415e-03 2.1436304269e+00 -3.7128768120e+00 2.1436304269e+00 3.7128768120e+00 
41300 6.4360983951e+00 -5.3754584312e-03 2.1437564893e+00 -3.7130951585e+00 2.1437564893e+00 3.7130951585e+00 
41400 6.4360925320e+00 -5.3483336460e-03 2.1438818653e+00 -3.7133123161e+00 2.1438818653e+00 3.7133123161e+00 
41500 6.4360867700e+00 -5.3230950625e-03 2.1440066013e+00 -3.7135283652e+00 2.1440066013e+00 3.7135283652e+00 
41600 6.4360811060e+00 -5.2996388835e-03 2.1441307414e+00 -3.7137433822e+00 2.1441307414e+00 3.7137433822e+00 
41700 6.4360755369e+00 -5.2778602348e-03 2.1442543274e+00 -3.7139574394e+00 2.1442543274e+00 3.7139574394e+00 
41800 6.4360700597e+00 -5.2576534575e-03 2.1443773984e+00 -3.7141706047e+00 2.1443773984e+00 3.7141706047e+00 
41900 6.4360646712e+00 -5.2389123957e-03 2.1444999912e+00 -3.7143829416e+00 2.1444999912e+00 3.7143829416e+00 
42000 6.4360593685e+00 -5.2215306774e-03 2.1446221400e+00 -3.7145945095e+00 2.1446221400e+00 3.7145945095e+00 
42100 6.4360541488e+00 -5.2054019902e-03 2.1447438766e+00 -3.7148053635e+00 2.1447438766e+00 3.7148053635e+00 
42200 6.4360490093e+00 -5.1904203493e-03 2.1448652303e+00 -3.7150155542e+00 2.1448652303e+00 3.7150155542e+00 
42300 6.4360439473e+00 -5.1764803585e-03 2.1449862278e+00 -3.7152251281e+00 2.1449862278e+00 3.7152251281e+00 
42400 6.4360389603e+00 -5.1634774630e-03 2.1451068936e+00 -3.7154341274e+00 2.1451068936e+00 3.7154341274e+00 
42500 6.4360340459e+00 -5.1513081944e-03 2.1452272495e+00 -3.7156425899e+00 2.1452272495e+00 3.7156425899e+00 
42600 6.4360292017e+00 -5.1398704058e-03 2.1453473150e+00 -3.7158505495e+00 2.1453473150e+00 3.7158505495e+00 
42700 6.4360244258e+00 -5.1290634989e-03 2.1454671072e+00 -3.7160580357e+00 2.1454671072e+00 3.7160580357e+00 
42800 6.4360197159e+00 -5.1187886405e-03 2.1455866409e+00 -3.7162650741e+00 2.1455866409e+00 3.7162650741e+00 
42900 6.4360150704e+00 -5.1089489699e-03 2.1457059285e+00 -3.7164716862e+00 2.1457059285e+00 3.7164716862e+00 
43000 6.4360104876e+00 -5.0994497958e-03 2.1458249801e+00 -3.7166778897e+00 2.1458249801e+00 3.7166778897e+00 
43100 6.4360059657e+00 -5.0901987823e-03 2.1459438038e+00 -3.7168836984e+00 2.1459438038e+00 3.7168836984e+00 
43200 6.4360015035e+00 -5.0811061250e-03 2.1460624054e+00 -3.7170891223e+00 2.1460624054e+00 3.7170891223e+00 
43300 6.4359970997e+00 -5.0720847157e-03 2.1461807885e+00 -3.7172941680e+00 2.1461807885e+00 3.7172941680e+00 
43400 6.4359927531e+00 -5.0630502961e-03 2.1462989550e+00 -3.7174988383e+00 2.1462989550e+00 3.7174988383e+00 
43500 6.4359884628e+00 -5.0539216007e-03 2.1464169045e+00 -3.7177031327e+00 2.1464169045e+00 3.7177031327e+00 
43600 6.4359842279e+00 -5.0446204881e-03 2.1465346348e+00 -3.7179070477e+00 2.1465346348e+00 3.7179070477e+00 
43700 6.4359800475e+00 -5.0350720606e-03 2.1466521420e+00 -3.7181105761e+00 2.1466521420e+00 3.7181105761e+00 
43800 6.4359759212e+00 -5.0252047739e-03 2.1467694204e+00 -3.7183137083e+00 2.1467694204e+00 3.7183137083e+00 
43900 6.4359718484e+00 -5.0149505333e-03 2.1468864626e+00 -3.7185164312e+00 2.1468864626e+00 3.7185164312e+00 
44000 6.4359678285e+00 -5.0042447807e-03 2.1470032595e+00 -3.7187187295e+00 2.1470032595e+00 3.7187187295e+00 
44100 6.4359638613e+00 -4.9930265688e-03 2.1471198008e+00 -3.7189205849e+00 2.1471198008e+00 3.7189205849e+00 
44200 6.4359599465e+00 -4.9812386245e-03 2.1472360745e+00 -3.7191219769e+00 2.1472360745e+00 3.7191219769e+00 
44300 6.4359560839e+00 -4.9688274019e-03 2.1473520674e+00 -3.7193228825e+00 2.1473520674e+00 3.7193228825e+00 
44400 6.4359522732e+00 -4.9557431237e-03 2.1474677651e+00 -3.7195232767e+00 2.1474677651e+00 3.7195232767e+00 
44500 6.4359485145e+00 -4.9419398114e-03 2.1475831518e+00 -3.7197231325e+00 2.1475831518e+00 3.7197231325e+00 
44600 6.4359448075e+00 -4.9273753061e-03 2.1476982110e+00 -3.7199224208e+00 2.1476982110e+00 3.7199224208e+00 
44700 6.4359411524e+00 -4.9120112779e-03 2.1478129250e+00 -3.7201211112e+00 2.1478129250e+00 3.7201211112e+00 
44800 6.4359375490e+00 -4.8958132254e-03 2.1479272752e+00 -3.7203191715e+00 2.1479272752e+00 3.7203191715e+00 
44900 6.4359339973e+00 -4.8787504656e-03 2.1480412422e+00 -3.7205165682e+00 2.1480412422e+00 3.7205165682e+00 
45000 6.4359304973e+00 -4.8607961137e-03 2.1481548059e+00 -3.7207132664e+00 2.1481548059e+00 3.7207132664e+00 
45100 6.4359270490e+00 -4.8419270539e-03 2.1482679458e+00 -3.7209092304e+00 2.1482679458e+00 3.7209092304e+00 
45200 6.4359236523e+00 -4.8221239008e-03 2.1483806405e+00 -3.7211044234e+00 2.1483806405e+00 3.7211044234e+00 
45300 6.4359203072e+00 -4.8013709522e-03 2.1484928684e+00 -3.7212988078e+00 2.1484928684e+00 3.7212988078e+00 
45400 6.4359170136e+00 -4.7796561339e-03 2.1486046075e+00 -3.7214923456e+00 2.1486046075e+00 3.7214923456e+00 
45500 6.4359137713e+00 -4.7569709357e-03 2.1487158355e+00 -3.7216849981e+00 2.1487158355e+00 3.7216849981e+00 
45600 6.4359105802e+00 -4.7333103401e-03 2.1488265298e+00 -3.7218767262e+00 2.1488265298e+00 3.7218767262e+00 
45700 6.4359074402e+00 -4.7086727438e-03 2.1489366678e+00 -3.7220674909e+00 2.1489366678e+00 3.7220674909e+00 
45800 6.4359043509e+00 -4.6830598722e-03 2.1490462269e+00 -3.7222572529e+00 2.1490462269e+00 3.7222572529e+00 
45900 6.4359013120e+00 -4.6564766869e-03 2.1491551846e+00 -3.7224459730e+00 2.1491551846e+00 3.7224459730e+00 
46000 6.4358983233e+00 -4.6289312877e-03 2.1492635182e+00 -3.7226336124e+00 2.1492635182e+00 3.7226336124e+00 
46100 6.4358953844e+00 -4.6004348084e-03 2.1493712055e+00 -3.7228201323e+00 2.1493712055e+00 3.7228201323e+00 
46200 6.4358924947e+00 -4.5710013076e-03 2.1494782246e+00 -3.7230054947e+00 2.1494782246e+00 3.7230054947e+00 
46300 6.4358896539e+00 -4.5406476538e-03 2.1495845536e+00 -3.7231896620e+00 2.1495845536e+00 3.7231896620e+00 
46400 6.4358868614e+00 -4.5093934073e-03 2.1496901714e+00 -3.7233725973e+00 2.1496901714e+00 3.7233725973e+00 
46500 6.4358841166e+00 -4.4772606968e-03 2.1497950569e+00 -3.7235542645e+00 2.1497950569e+00 3.7235542645e+00 
46600 6.4358814189e+00 -4.4442740927e-03 2.1498991900e+00 -3.7237346283e+00 2.1498991900e+00 3.7237346283e+00 
46700 6.4358787676e+00 -4.4104604776e-03 2.1500025509e+00 -3.7239136546e+00 2.1500025509e+00 3.7239136546e+00 
46800 6.4358761620e+00 -4.3758489132e-03 2.1501051205e+00 -3.7240913103e+00 2.1501051205e+00 3.7240913103e+00 
46900 6.4358736013e+00 -4.3404705050e-03 2.1502068802e+00 -3.7242675633e+00 2.1502068802e+00 3.7242675633e+00 
47000 6.4358710849e+00 -4.3043582658e-03 2.1503078125e+00 -3.7244423831e+00 2.1503078125e+00 3.7244423831e+00 
47100 6.4358686117e+00 -4.2675469760e-03 2.1504079003e+00 -3.7246157403e+00 2.1504079003e+00 3.7246157403e+00 
47200 6.4358661812e+00 -4.2300730443e-03 2.1505071275e+00 -3.7247876069e+00 2.1505071275e+00 3.7247876069e+00 
47300 6.4358637923e+00 -4.1919743661e-03 2.1506054788e+00 -3.7249579564e+00 2.1506054788e+00 3.7249579564e+00 
47400 6.4358614441e+00 -4.1532901831e-03 2.1507029399e+00 -3.7251267639e+00 2.1507029399e+00 3.7251267639e+00 
47500 6.4358591359e+00 -4.1140609411e-03 2.1507994972e+00 -3.7252940061e+00 2.1507994972e+00 3.7252940061e+00 
47600 6.4358568667e+00 -4.0743281494e-03 2.1508951382e+00 -3.7254596611e+00 2.1508951382e+00 3.7254596611e+00 
47700 6.4358546355e+00 -4.0341342406e-03 2.1509898513e+00 -3.7256237090e+00 2.1509898513e+00 3.7256237090e+00 
47800 6.4358524416e+00 -3.9935224306e-03 2.1510836258e+00 -3.7257861313e+00 2.1510836258e+00 3.7257861313e+00 
47900 6.4358502839e+00 -3.9525365814e-03 2.1511764523e+00 -3.7259469115e+00 2.1511764523e+00 3.7259469115e+00 
48000 6.4358481616e+00 -3.9112210640e-03 2.1512683222e+00 -3.7261060347e+00 2.1512683222e+00 3.7261060347e+00 
48100 6.4358460739e+00 -3.8696206249e-03 2.1513592278e+00 -3.7262634879e+00 2.1513592278e+00 3.7262634879e+00 
48200 6.4358440197e+00 -3.8277802536e-03 2.1514491628e+00 -3.7264192598e+00 2.1514491628e+00 3.7264192598e+00 
48300 6.4358419984e+00 -3.7857450532e-03 2.1515381216e+00 -3.7265733410e+00 2.1515381216e+00 3.7265733410e+00 
48400 6.4358400090e+00 -3.7435601143e-03 2.1516260998e+00 -3.7267257238e+00 2.1516260998e+00 3.7267257238e+00 
48500 6.4358380507e+00 -3.7012703912e-03 2.1517130941e+00 -3.7268764024e+00 2.1517130941e+00 3.7268764024e+00 
48600 6.4358361228e+00 -3.6589205821e-03 2.1517991022e+00 -3.7270253728e+00 2.1517991022e+00 3.7270253728e+00 
48700 6.4358342245e+00 -3.6165550126e-03 2.1518841228e+00 -3.7271726327e+00 2.1518841228e+00 3.7271726327e+00 
48800 6.4358323551e+00 -3.5742175236e-03 2.1519681557e+00 -3.7273181819e+00 2.1519681557e+00 3.7273181819e+00 
48900 6.4358305139e+00 -3.5319513620e-03 2.1520512015e+00 -3.7274620215e+00 2.1520512015e+00 3.7274620215e+00 
49000 6.4358287002e+00 -3.4897990771e-03 2.1521332622e+00 -3.7276041547e+00 2.1521332622e+00 3.7276041547e+00 
49100 6.4358269134e+00 -3.4478024206e-03 2.1522143403e+00 -3.7277445862e+00 2.1522143403e+00 3.7277445862e+00 
49200 6.4358251529e+00 -3.4060022510e-03 2.1522944398e+00 -3.7278833226e+00 2.1522944398e+00 3.7278833226e+00 
49300 6.4358234182e+00 -3.3644384432e-03 2.1523735652e+00 -3.7280203718e+00 2.1523735652e+00 3.7280203718e+00 
49400 6.4358217087e+00 -3.3231498026e-03 2.1524517221e+00 -3.7281557436e+00 2.1524517221e+00 3.7281557436e+00 
49500 6.4358200239e+00 -3.2821739844e-03 2.1525289171e+00 -3.7282894492e+00 2.1525289171e+00 3.7282894492e+00 
49600 6.4358183634e+00 -3.2415474174e-03 2.1526051575e+00 -3.7284215015e+00 2.1526051575e+00 3.7284215015e+00 
49700 6.4358167267e+00 -3.2013052337e-03 2.1526804516e+00 -3.7285519145e+00 2.1526804516e+00 3.7285519145e+00 
49800 6.4358151135e+00 -3.1614812027e-03 2.1527548082e+00 -3.7286807041e+00 2.1527548082e+00 3.7286807041e+00 
49900 6.4358135234e+00 -3.1221076710e-03 2.1528282374e+00 -3.7288078871e+00 2.1528282374e+00 3.7288078871e+00 
50000 6.4358119560e+00 -3.0832155070e-03 2.1529007496e+00 -3.7289334819e+00 2.1529007496e+00 3.7289334819e+00 
50100 6.4358104111e+00 -3.0448340514e-03 2.1529723560e+00 -3.7290575079e+00 2.1529723560e+00 3.7290575079e+00 
50200 6.4358088883e+00 -3.0069910723e-03 2.1530430688e+00 -3.7291799860e+00 2.1530430688e+00 3.7291799860e+00 
50300 6.4358073874e+00 -2.9697127262e-03 2.1531129003e+00 -3.7293009378e+00 2.1531129003e+00 3.7293009378e+00 
50400 6.4358059081e+00 -2.9330235236e-03 2.1531818639e+00 -3.7294203863e+00 2.1531818639e+00 3.7294203863e+00 
50500 6.4358044502e+00 -2.8969463001e-03 2.1532499733e+00 -3.7295383552e+00 2.1532499733e+00 3.7295383552e+00 
50600 6.4358030135e+00 -2.8615021929e-03 2.1533172428e+00 -3.7296548694e+00 2.1533172428e+00 3.7296548694e+00 
50700 6.4358015979e+00 -2.8267106222e-03 2.1533836872e+00 -3.7297699545e+00 2.1533836872e+00 3.7297699545e+00 
50800 6.4358002030e+00 -2.7925892772e-03 2.1534493217e+00 -3.7298836368e+00 2.1534493217e+00 3.7298836368e+00 
50900 6.4357988288e+00 -2.7591541075e-03 2.1535141620e+00 -3.7299959433e+00 2.1535141620e+00 3.7299959433e+00 
51000 6.4357974751e+00 -2.7264193198e-03 2.1535782240e+00 -3.7301069020e+00 2.1535782240e+00 3.7301069020e+00 
51100 6.4357961417e+00 -2.6943973778e-03 2.1536415240e+00 -3.7302165409e+00 2.1536415240e+00 3.7302165409e+00 
51200 6.4357948285e+00 -2.6630990086e-03 2.1537040788e+00 -3.7303248889e+00 2.1537040788e+00 3.7303248889e+00 
51300 6.4357935353e+00 -2.6325332119e-03 2.1537659051e+00 -3.7304319752e+00 2.1537659051e+00 3.7304319752e+00 
51400 6.4357922620e+00 -2.6027072748e-03 2.1538270200e+00 -3.7305378294e+00 2.1538270200e+00 3.7305378294e+00 
51500 6.4357910084e+00 -2.5736267902e-03 2.1538874408e+00 -3.7306424813e+00 2.1538874408e+00 3.7306424813e+00 
51600 6.4357897744e+00 -2.5452956793e-03 2.1539471849e+00 -3.7307459610e+00 2.1539471849e+00 3.7307459610e+00 
51700 6.4357885598e+00 -2.5177162181e-03 2.1540062696e+00 -3.7308482988e+00 2.1540062696e+00 3.7308482988e+00 
51800 6.4357873644e+00 -2.4908890675e-03 2.1540647125e+00 -3.7309495248e+00 2.1540647125e+00 3.7309495248e+00 
51900 6.4357861881e+00 -2.4648133075e-03 2.1541225311e+00 -3.7310496696e+00 2.1541225311e+00 3.7310496696e+00 
52000 6.4357850308e+00 -2.4394864736e-03 2.1541797429e+00 -3.7311487633e+00 2.1541797429e+00 3.7311487633e+00 
52100 6.4357838921e+00 -2.4149045980e-03 2.1542363653e+00 -3.7312468362e+00 2.1542363653e+00 3.7312468362e+00 
52200 6.4357827720e+00 -2.3910622523e-03 2.1542924157e+00 -3.7313439183e+00 2.1542924157e+00 3.7313439183e+00 
52300 6.4357816703e+00 -2.3679525943e-03 2.1543479112e+00 -3.7314400394e+00 2.1543479112e+00 3.7314400394e+00 
52400 6.4357805867e+00 -2.3455674162e-03 2.1544028690e+00 -3.7315352291e+00 2.1544028690e+00 3.7315352291e+00 
52500 6.4357795210e+00 -2.3238971967e-03 2.1544573058e+00 -3.7316295164e+00 2.1544573058e+00 3.7316295164e+00 
52600 6.4357784730e+00 -2.3029311540e-03 2.1545112384e+00 -3.7317229303e+00 2.1545112384e+00 3.7317229303e+00 
52700 6.4357774425e+00 -2.2826573017e-03 2.1545646830e+00 -3.7318154991e+00 2.1545646830e+00 3.7318154991e+00 
52800 6.4357764292e+00 -2.2630625062e-03 2.1546176558e+00 -3.7319072507e+00 2.1546176558e+00 3.7319072507e+00 
52900 6.4357754329e+00 -2.2441325458e-03 2.1546701726e+00 -3.7319982124e+00 2.1546701726e+00 3.7319982124e+00 
53000 6.4357744534e+00 -2.2258521716e-03 2.1547222488e+00 -3.7320884111e+00 2.1547222488e+00 3.7320884111e+00 
53100 6.4357734903e+00 -2.2082051692e-03 2.1547738995e+00 -3.7321778728e+00 2.1547738995e+00 3.7321778728e+00 
53200 6.4357725434e+00 -2.1911744218e-03 2.1548251396e+00 -3.7322666232e+00 2.1548251396e+00 3.7322666232e+00 
53300 6.4357716125e+00 -2.1747419740e-03 2.1548759832e+00 -3.7323546869e+00 2.1548759832e+00 3.7323546869e+00 
53400 6.4357706972e+00 -2.1588890963e-03 2.1549264444e+00 -3.7324420882e+00 2.1549264444e+00 3.7324420882e+00 
53500 6.4357697973e+00 -2.1435963504e-03 2.1549765365e+00 -3.7325288504e+00 2.1549765365e+00 3.7325288504e+00 
53600 6.4357689124e+00 -2.1288436545e-03 2.1550262727e+00 -3.7326149959e+00 2.1550262727e+00 3.7326149959e+00 
53700 6.4357680424e+00 -2.1146103490e-03 2.1550756654e+00 -3.7327005466e+00 2.1550756654e+00 3.7327005466e+00 
53800 6.4357671869e+00 -2.1008752615e-03 2.1551247267e+00 -3.7327855233e+00 2.1551247267e+00 3.7327855233e+00 
53900 6.4357663457e+00 -2.0876167731e-03 2.1551734683e+00 -3.7328699462e+00 2.1551734683e+00 3.7328699462e+00 
54000 6.4357655183e+00 -2.0748128821e-03 2.1552219012e+00 -3.7329538344e+00 2.1552219012e+00 3.7329538344e+00 
54100 6.4357647047e+00 -2.0624412697e-03 2.1552700359e+00 -3.7330372062e+00 2.1552700359e+00 3.7330372062e+00 
54200 6.4357639044e+00 -2.0504793627e-03 2.1553178825e+00 -3.7331200790e+00 2.1553178825e+00 3.7331200790e+00 
54300 6.4357631172e+00 -2.0389043969e-03 2.1553654506e+00 -3.7332024693e+00 2.1553654506e+00 3.7332024693e+00 
54400 6.4357623428e+00 -2.0276934790e-03 2.1554127491e+00 -3.7332843928e+00 2.1554127491e+00 3.7332843928e+00 
54500 6.4357615810e+00 -2.0168236471e-03 2.1554597865e+00 -3.7333658640e+00 2.1554597865e+00 3.7333658640e+00 
54600 6.4357608314e+00 -2.0062719306e-03 2.1555065708e+00 -3.7334468967e+00 2.1555065708e+00 3.7334468967e+00 
54700 6.4357600939e+00 -1.9960154079e-03 2.1555531092e+00 -3.7335275036e+00 2.1555531092e+00 3.7335275036e+00 
54800 6.4357593681e+00 -1.9860312634e-03 2.1555994088e+00 -3.7336076968e+00 2.1555994088e+00 3.7336076968e+00 
54900 6.4357586538e+00 -1.9762968420e-03 2.1556454758e+00 -3.7336874871e+00 2.1556454758e+00 3.7336874871e+00 
55000 6.4357579508e+00 -1.9667897031e-03 2.1556913159e+00 -3.7337668846e+00 2.1556913159e+00 3.7337668846e+00 
55100 6.4357572589e+00 -1.9574876714e-03 2.1557369346e+00 -3.7338458986e+00 2.1557369346e+00 3.7338458986e+00 
55200 6.4357565777e+00 -1.9483688868e-03 2.1557823366e+00 -3.7339245371e+00 2.1557823366e+00 3.7339245371e+00 
55300 6.4357559072e+00 -1.9394118519e-03 2.1558275261e+00 -3.7340028076e+00 2.1558275261e+00 3.7340028076e+00 
55400 6.4357552470e+00 -1.9305954772e-03 2.1558725070e+00 -3.7340807167e+00 2.1558725070e+00 3.7340807167e+00 
55500 6.4357545971e+00 -1.9218991248e-03 2.1559172824e+00 -3.7341582701e+00 2.1559172824e+00 3.7341582701e+00 
55600 6.4357539571e+00 -1.9133026492e-03 2.1559618552e+00 -3.7342354724e+00 2.1559618552e+00 3.7342354724e+00 
55700 6.4357533269e+00 -1.9047864364e-03 2.1560062277e+00 -3.7343123279e+00 2.1560062277e+00 3.7343123279e+00 
55800 6.4357527064e+00 -1.8963314403e-03 2.1560504018e+00 -3.7343888397e+00 2.1560504018e+00 3.7343888397e+00 
55900 6.4357520954e+00 -1.8879192168e-03 2.1560943790e+00 -3.7344650103e+00 2.1560943790e+00 3.7344650103e+00 
56000 6.4357514936e+00 -1.8795319560e-03 2.1561381601e+00 -3.7345408415e+00 2.1561381601e+00 3.7345408415e+00 
56100 6.4357509011e+00 -1.8711525109e-03 2.1561817459e+00 -3.7346163342e+00 2.1561817459e+00 3.7346163342e+00 
56200 6.4357503175e+00 -1.8627644250e-03 2.1562251364e+00 -3.7346914889e+00 2.1562251364e+00 3.7346914889e+00 
56300 6.4357497428e+00 -1.8543519567e-03 2.1562683316e+00 -3.7347663051e+00 2.1562683316e+00 3.7347663051e+00 
56400 6.4357491769e+00 -1.8459001011e-03 2.1563113309e+00 -3.7348407820e+00 2.1563113309e+00 3.7348407820e+00 
56500 6.4357486196e+00 -1.8373946097e-03 2.1563541333e+00 -3.7349149179e+00 2.1563541333e+00 3.7349149179e+00 
56600 6.4357480708e+00 -1.8288220079e-03 2.1563967376e+00 -3.7349887108e+00 2.1563967376e+00 3.7349887108e+00 
56700 6.4357475303e+00 -1.8201696094e-03 2.1564391423e+00 -3.7350621579e+00 2.1564391423e+00 3.7350621579e+00 
56800 6.4357469982e+00 -1.8114255287e-03 2.1564813456e+00 -3.7351352561e+00 2.1564813456e+00 3.7351352561e+00 
56900 6.4357464742e+00 -1.8025786911e-03 2.1565233453e+00 -3.7352080017e+00 2.1565233453e+00 3.7352080017e+00 
57000 6.4357459583e+00 -1.7936188402e-03 2.1565651390e+00 -3.7352803907e+00 2.1565651390e+00 3.7352803907e+00 
57100 6.4357454504e+00 -1.7845365433e-03 2.1566067243e+00 -3.7353524184e+00 2.1566067243e+00 3.7353524184e+00 
57200 6.4357449503e+00 -1.7753231944e-03 2.1566480981e+00 -3.7354240800e+00 2.1566480981e+00 3.7354240800e+00 
57300 6.4357444581e+00 -1.7659710151e-03 2.1566892576e+00 -3.7354953702e+00 2.1566892576e+00 3.7354953702e+00 
57400 6.4357439735e+00 -1.7564730529e-03 2.1567301994e+00 -3.7355662836e+00 2.1567301994e+00 3.7355662836e+00 
57500 6.4357434966e+00 -1.7468231783e-03 2.1567709203e+00 -3.7356368142e+00 2.1567709203e+00 3.7356368142e+00 
57600 6.4357430272e+00 -1.7370160785e-03 2.1568114167e+00 -3.7357069560e+00 2.1568114167e+00 3.7357069560e+00 
57700 6.4357425652e+00 -1.7270472505e-03 2.1568516849e+00 -3.7357767027e+00 2.1568516849e+00 3.7357767027e+00 
57800 6.4357421106e+00 -1.7169129913e-03 2.1568917214e+00 -3.7358460478e+00 2.1568917214e+00 3.7358460478e+00 
57900 6.4357416632e+00 -1.7066103865e-03 2.1569315221e+00 -3.7359149847e+00 2.1569315221e+00 3.7359149847e+00 
58000 6.4357412231e+00 -1.6961372975e-03 2.1569710833e+00 -3.7359835067e+00 2.1569710833e+00 3.7359835067e+00 
58100 6.4357407900e+00 -1.6854923465e-03 2.1570104010e+00 -3.7360516070e+00 2.1570104010e+00 3.7360516070e+00 
58200 6.4357403640e+00 -1.6746748998e-03 2.1570494712e+00 -3.7361192786e+00 2.1570494712e+00 3.7361192786e+00 
58300 6.4357399449e+00 -1.6636850501e-03 2.1570882900e+00 -3.7361865146e+00 2.1570882900e+00 3.7361865146e+00 
58400 6.4357395326e+00 -1.6525235973e-03 2.1571268533e+00 -3.7362533083e+00 2.1571268533e+00 3.7362533083e+00 
58500 6.4357391272e+00 -1.6411920268e-03 2.1571651572e+00 -3.7363196526e+00 2.1571651572e+00 3.7363196526e+00 
58600 6.4357387283e+00 -1.6296924885e-03 2.1572031978e+00 -3.7363855409e+00 2.1572031978e+00 3.7363855409e+00 
58700 6.4357383361e+00 -1.6180277724e-03 2.1572409712e+00 -3.7364509663e+00 2.1572409712e+00 3.7364509663e+00 
58800 6.4357379504e+00 -1.6062012849e-03 2.1572784736e+00 -3.7365159223e+00 2.1572784736e+00 3.7365159223e+00 
58900 6.4357375710e+00 -1.5942170232e-03 2.1573157012e+00 -3.7365804024e+00 2.1573157012e+00 3.7365804024e+00 
59000 6.4357371980e+00 -1.5820795487e-03 2.1573526504e+00 -3.7366444003e+00 2.1573526504e+00 3.7366444003e+00 
59100 6.4357368312e+00 -1.5697939601e-03 2.1573893176e+00 -3.7367079098e+00 2.1573893176e+00 3.7367079098e+00 
59200 6.4357364705e+00 -1.5573658650e-03 2.1574256995e+00 -3.7367709251e+00 2.1574256995e+00 3.7367709251e+00 
59300 6.4357361158e+00 -1.5448013520e-03 2.1574617928e+00 -3.7368334404e+00 2.1574617928e+00 3.7368334404e+00 
59400 6.4357357671e+00 -1.5321069606e-03 2.1574975942e+00 -3.7368954504e+00 2.1574975942e+00 3.7368954504e+00 
59500 6.4357354242e+00 -1.5192896524e-03 2.1575331009e+00 -3.7369569498e+00 2.1575331009e+00 3.7369569498e+00 
59600 6.4357350870e+00 -1.5063567807e-03 2.1575683099e+00 -3.7370179336e+00 2.1575683099e+00 3.7370179336e+00 
59700 6.4357347554e+00 -1.4933160598e-03 2.1576032187e+00 -3.7370783974e+00 2.1576032187e+00 3.7370783974e+00 
59800 6.4357344294e+00 -1.4801755354e-03 2.1576378247e+00 -3.7371383367e+00 2.1576378247e+00 3.7371383367e+00 
59900 6.4357341089e+00 -1.4669435529e-03 2.1576721256e+00 -3.7371977477e+00 2.1576721256e+00 3.7371977477e+00 
60000 6.4357337937e+00 -1.4536287274e-03 2.1577061194e+00 -3.7372566266e+00 2.1577061194e+00 3.7372566266e+00 
60100 6.4357334837e+00 -1.4402399127e-03 2.1577398040e+00 -3.7373149701e+00 2.1577398040e+00 3.7373149701e+00 
60200 6.4357331789e+00 -1.4267861708e-03 2.1577731779e+00 -3.7373727754e+00 2.1577731779e+00 3.7373727754e+00 
60300 6.4357328791e+00 -1.4132767417e-03 2.1578062396e+00 -3.7374300398e+00 2.1578062396e+00 3.7374300398e+00 
60400 6.4357325843e+00 -1.3997210130e-03 2.1578389876e+00 -3.7374867612e+00 2.1578389876e+00 3.7374867612e+00 
60500 6.4357322944e+00 -1.3861284904e-03 2.1578714211e+00 -3.7375429376e+00 2.1578714211e+00 3.7375429376e+00 
60600 6.4357320093e+00 -1.3725087684e-03 2.1579035392e+00 -3.7375985677e+00 2.1579035392e+00 3.7375985677e+00 
60700 6.4357317288e+00 -1.3588715014e-03 2.1579353411e+00 -3.7376536503e+00 2.1579353411e+00 3.7376536503e+00 
60800 6.4357314529e+00 -1.3452263750e-03 2.1579668267e+00 -3.7377081849e+00 2.1579668267e+00 3.7377081849e+00 
60900 6.4357311815e+00 -1.3315830789e-03 2.1579979956e+00 -3.7377621710e+00 2.1579979956e+00 3.7377621710e+00 
61000 6.4357309146e+00 -1.3179512796e-03 2.1580288479e+00 -3.7378156088e+00 2.1580288479e+00 3.7378156088e+00 
61100 6.4357306519e+00 -1.3043405939e-03 2.1580593840e+00 -3.7378684989e+00 2.1580593840e+00 3.7378684989e+00 
61200 6.4357303936e+00 -1.2907605637e-03 2.1580896043e+00 -3.7379208419e+00 2.1580896043e+00 3.7379208419e+00 
61300 6.4357301394e+00 -1.2772206308e-03 2.1581195095e+00 -3.7379726393e+00 2.1581195095e+00 3.7379726393e+00 
61400 6.4357298893e+00 -1.2637301135e-03 2.1581491007e+00 -3.7380238927e+00 2.1581491007e+00 3.7380238927e+00 
61500 6.4357296432e+00 -1.2502981834e-03 2.1581783788e+00 -3.7380746039e+00 2.1581783788e+00 3.7380746039e+00 
61600 6.4357294010e+00 -1.2369338430e-03 2.1582073454e+00 -3.7381247755e+00 2.1582073454e+00 3.7381247755e+00 
61700 6.4357291627e+00 -1.2236459056e-03 2.1582360020e+00 -3.7381744102e+00 2.1582360020e+00 3.7381744102e+00 
61800 6.4357289283e+00 -1.2104429743e-03 2.1582643503e+00 -3.7382235109e+00 2.1582643503e+00 3.7382235109e+00 
61900 6.4357286975e+00 -1.1973334233e-03 2.1582923924e+00 -3.7382720813e+00 2.1582923924e+00 3.7382720813e+00 
62000 6.4357284705e+00 -1.1843253803e-03 2.1583201305e+00 -3.7383201250e+00 2.1583201305e+00 3.7383201250e+00 
62100 6.4357282470e+00 -1.1714267092e-03 2.1583475668e+00 -3.7383676461e+00 2.1583475668e+00 3.7383676461e+00 
62200 6.4357280271e+00 -1.1586449945e-03 2.1583747040e+00 -3.7384146491e+00 2.1583747040e+00 3.7384146491e+00 
62300 6.4357278107e+00 -1.1459875268e-03 2.1584015447e+00 -3.7384611386e+00 2.1584015447e+00 3.7384611386e+00 
62400 6.4357275977e+00 -1.1334612889e-03 2.1584280919e+00 -3.7385071197e+00 2.1584280919e+00 3.7385071197e+00 
62500 6.4357273880e+00 -1.1210729439e-03 2.1584543486e+00 -3.7385525976e+00 2.1584543486e+00 3.7385525976e+00 
62600 6.4357271817e+00 -1.1088288238e-03 2.1584803180e+00 -3.7385975779e+00 2.1584803180e+00 3.7385975779e+00 
62700 6.4357269787e+00 -1.0967349191e-03 2.1585060035e+00 -3.7386420664e+00 2.1585060035e+00 3.7386420664e+00 
62800 6.4357267789e+00 -1.0847968703e-03 2.1585314085e+00 -3.7386860692e+00 2.1585314085e+00 3.7386860692e+00 
62900 6.4357265823e+00 -1.0730199599e-03 2.1585565366e+00 -3.7387295925e+00 2.1585565366e+00 3.7387295925e+00 
63000 6.4357263887e+00 -1.0614091057e-03 2.1585813917e+00 -3.7387726427e+00 2.1585813917e+00 3.7387726427e+00 
63100 6.4357261983e+00 -1.0499688552e-03 2.1586059776e+00 -3.7388152267e+00 2.1586059776e+00 3.7388152267e+00 
63200 6.4357260109e+00 -1.0387033814e-03 2.1586302981e+00 -3.7388573511e+00 2.1586302981e+00 3.7388573511e+00 
63300 6.4357258266e+00 -1.0276164792e-03 2.1586543575e+00 -3.7388990232e+00 2.1586543575e+00 3.7388990232e+00 
63400 6.4357256451e+00 -1.0167115633e-03 2.1586781598e+00 -3.7389402500e+00 2.1586781598e+00 3.7389402500e+00 
63500 6.4357254666e+00 -1.0059916666e-03 2.1587017092e+00 -3.7389810388e+00 2.1587017092e+00 3.7389810388e+00 
63600 6.4357252910e+00 -9.9545944083e-04 2.1587250101e+00 -3.7390213971e+00 2.1587250101e+00 3.7390213971e+00 
63700 6.4357251182e+00 -9.8511715642e-04 2.1587480668e+00 -3.7390613325e+00 2.1587480668e+00 3.7390613325e+00 
63800 6.4357249482e+00 -9.7496670502e-04 2.1587708837e+00 -3.7391008525e+00 2.1587708837e+00 3.7391008525e+00 
63900 6.4357247809e+00 -9.6500960194e-04 2.1587934653e+00 -3.7391399649e+00 2.1587934653e+00 3.7391399649e+00 
64000 6.4357246164e+00 -9.5524698996e-04 2.1588158160e+00 -3.7391786775e+00 2.1588158160e+00 3.7391786775e+00 
64100 6.4357244545e+00 -9.4567964384e-04 2.1588379404e+00 -3.7392169980e+00 2.1588379404e+00 3.7392169980e+00 
64200 6.4357242954e+00 -9.3630797588e-04 2.1588598429e+00 -3.7392549344e+00 2.1588598429e+00 3.7392549344e+00 
64300 6.4357241388e+00 -9.2713204207e-04 2.1588815282e+00 -3.7392924944e+00 2.1588815282e+00 3.7392924944e+00 
64400 6.4357239848e+00 -9.1815154924e-04 2.1589030007e+00 -3.7393296859e+00 2.1589030007e+00 3.7393296859e+00 
64500 6.4357238333e+00 -9.0936586286e-04 2.1589242651e+00 -3.7393665168e+00 2.1589242651e+00 3.7393665168e+00 
64600 6.4357236844e+00 -9.0077401551e-04 2.1589453257e+00 -3.7394029950e+00 2.1589453257e+00 3.7394029950e+00 
64700 6.4357235379e+00 -8.9237471615e-04 2.1589661872e+00 -3.7394391281e+00 2.1589661872e+00 3.7394391281e+00 
64800 6.4357233939e+00 -8.8416635992e-04 2.1589868540e+00 -3.7394749239e+00 2.1589868540e+00 3.7394749239e+00 
64900 6.4357232522e+00 -8.7614703854e-04 2.1590073304e+00 -3.7395103902e+00 2.1590073304e+00 3.7395103902e+00 
65000 6.4357231130e+00 -8.6831455134e-04 2.1590276209e+00 -3.7395455344e+00 2.1590276209e+00 3.7395455344e+00 
65100 6.4357229760e+00 -8.6066641666e-04 2.1590477299e+00 -3.7395803642e+00 2.1590477299e+00 3.7395803642e+00 
65200 6.4357228414e+00 -8.5319988391e-04 2.1590676616e+00 -3.7396148868e+00 2.1590676616e+00 3.7396148868e+00 
65300 6.4357227090e+00 -8.4591194581e-04 2.1590874201e+00 -3.7396491096e+00 2.1590874201e+00 3.7396491096e+00 
65400 6.4357225788e+00 -8.3879935125e-04 2.1591070097e+00 -3.7396830398e+00 2.1591070097e+00 3.7396830398e+00 
65500 6.4357224508e+00 -8.3185861832e-04 2.1591264344e+00 -3.7397166844e+00 2.1591264344e+00 3.7397166844e+00 
65600 6.4357223250e+00 -8.2508604772e-04 2.1591456982e+00 -3.7397500503e+00 2.1591456982e+00 3.7397500503e+00 
65700 6.4357222013e+00 -8.1847773639e-04 2.1591648050e+00 -3.7397831442e+00 2.1591648050e+00 3.7397831442e+00 
65800 6.4357220797e+00 -8.1202959135e-04 2.1591837586e+00 -3.7398159728e+00 2.1591837586e+00 3.7398159728e+00 
65900 6.4357219601e+00 -8.0573734376e-04 2.1592025627e+00 -3.7398485425e+00 2.1592025627e+00 3.7398485425e+00 
66000 6.4357218426e+00 -7.9959656303e-04 2.1592212210e+00 -3.7398808595e+00 2.1592212210e+00 3.7398808595e+00 
66100 6.4357217270e+00 -7.9360267109e-04 2.1592397369e+00 -3.7399129300e+00 2.1592397369e+00 3.7399129300e+00 
66200 6.4357216134e+00 -7.8775095666e-04 2.1592581138e+00 -3.7399447598e+00 2.1592581138e+00 3.7399447598e+00 
66300 6.4357215017e+00 -7.8203658957e-04 2.1592763551e+00 -3.7399763546e+00 2.1592763551e+00 3.7399763546e+00 
66400 6.4357213918e+00 -7.7645463502e-04 2.1592944639e+00 -3.7400077199e+00 2.1592944639e+00 3.7400077199e+00 
66500 6.4357212838e+00 -7.7100006784e-04 2.1593124432e+00 -3.7400388611e+00 2.1593124432e+00 3.7400388611e+00 
66600 6.4357211777e+00 -7.6566778652e-04 2.1593302962e+00 -3.7400697833e+00 2.1593302962e+00 3.7400697833e+00 
66700 6.4357210733e+00 -7.6045262731e-04 2.1593480255e+00 -3.7401004914e+00 2.1593480255e+00 3.7401004914e+00 
66800 6.4357209706e+00 -7.5534937792e-04 2.1593656339e+00 -3.7401309900e+00 2.1593656339e+00 3.7401309900e+00 
66900 6.4357208697e+00 -7.5035279122e-04 2.1593831240e+00 -3.7401612838e+00 2.1593831240e+00 3.7401612838e+00 
67000 6.4357207704e+00 -7.4545759861e-04 2.1594004983e+00 -3.7401913769e+00 2.1594004983e+00 3.7401913769e+00 
67100 6.4357206728e+00 -7.4065852312e-04 2.1594177590e+00 -3.7402212734e+00 2.1594177590e+00 3.7402212734e+00 
67200 6.4357205768e+00 -7.3595029231e-04 2.1594349085e+00 -3.7402509772e+00 2.1594349085e+00 3.7402509772e+00 
67300 6.4357204825e+00 -7.3132765076e-04 2.1594519489e+00 -3.7402804920e+00 2.1594519489e+00 3.7402804920e+00 
67400 6.4357203896e+00 -7.2678537228e-04 2.1594688821e+00 -3.7403098212e+00 2.1594688821e+00 3.7403098212e+00 
67500 6.4357202984e+00 -7.2231827174e-04 2.1594857100e+00 -3.7403389680e+00 2.1594857100e+00 3.7403389680e+00 
67600 6.4357202086e+00 -7.1792121650e-04 2.1595024343e+00 -3.7403679354e+00 2.1595024343e+00 3.7403679354e+00 
67700 6.4357201203e+00 -7.1358913748e-04 2.1595190567e+00 -3.7403967262e+00 2.1595190567e+00 3.7403967262e+00 
67800 6.4357200335e+00 -7.0931703976e-04 2.1595355787e+00 -3.7404253431e+00 2.1595355787e+00 3.7404253431e+00 
67900 6.4357199481e+00 -7.0510001278e-04 2.1595520016e+00 -3.7404537884e+00 2.1595520016e+00 3.7404537884e+00 
68000 6.4357198641e+00 -7.0093324002e-04 2.1595683268e+00 -3.7404820644e+00 2.1595683268e+00 3.7404820644e+00 
68100 6.4357197815e+00 -6.9681200828e-04 2.1595845554e+00 -3.7405101731e+00 2.1595845554e+00 3.7405101731e+00 
68200 6.4357197002e+00 -6.9273171643e-04 2.1596006884e+00 -3.7405381164e+00 2.1596006884e+00 3.7405381164e+00 
68300 6.4357196203e+00 -6.8868788368e-04 2.1596167268e+00 -3.7405658958e+00 2.1596167268e+00 3.7405658958e+00 
68400 6.4357195416e+00 -6.8467615736e-04 2.1596326715e+00 -3.7405935128e+00 2.1596326715e+00 3.7405935128e+00 
68500 6.4357194643e+00 -6.8069232011e-04 2.1596485232e+00 -3.7406209687e+00 2.1596485232e+00 3.7406209687e+00 
68600 6.4357193882e+00 -6.7673229670e-04 2.1596642826e+00 -3.7406482647e+00 2.1596642826e+00 3.7406482647e+00 
68700 6.4357193134e+00 -6.7279216016e-04 2.1596799501e+00 -3.7406754017e+00 2.1596799501e+00 3.7406754017e+00 
68800 6.4357192398e+00 -6.6886813749e-04 2.1596955264e+00 -3.7407023805e+00 2.1596955264e+00 3.7407023805e+00 
68900 6.4357191674e+00 -6.6495661477e-04 2.1597110116e+00 -3.7407292018e+00 2.1597110116e+00 3.7407292018e+00 
69000 6.4357190962e+00 -6.6105414185e-04 2.1597264062e+00 -3.7407558660e+00 2.1597264062e+00 3.7407558660e+00 
69100 6.4357190262e+00 -6.5715743635e-04 2.1597417104e+00 -3.7407823736e+00 2.1597417104e+00 3.7407823736e+00 
69200 6.4357189573e+00 -6.5326338726e-04 2.1597569242e+00 -3.7408087247e+00 2.1597569242e+00 3.7408087247e+00 
69300 6.4357188895e+00 -6.4936905797e-04 2.1597720477e+00 -3.7408349194e+00 2.1597720477e+00 3.7408349194e+00 
69400 6.4357188229e+00 -6.4547168876e-04 2.1597870810e+00 -3.7408609579e+00 2.1597870810e+00 3.7408609579e+00 
69500 6.4357187573e+00 -6.4156869883e-04 2.1598020240e+00 -3.7408868398e+00 2.1598020240e+00 3.7408868398e+00 
69600 6.4357186928e+00 -6.3765768775e-04 2.1598168765e+00 -3.7409125651e+00 2.1598168765e+00 3.7409125651e+00 
69700 6.4357186294e+00 -6.3373643649e-04 2.1598316384e+00 -3.7409381334e+00 2.1598316384e+00 3.7409381334e+00 
69800 6.4357185671e+00 -6.2980290791e-04 2.1598463093e+00 -3.7409635443e+00 2.1598463093e+00 3.7409635443e+00 
69900 6.4357185057e+00 -6.2585524677e-04 2.1598608892e+00 -3.7409887973e+00 2.1598608892e+00 3.7409887973e+00 
70000 6.4357184454e+00 -6.2189177931e-04 2.1598753775e+00 -3.7410138919e+00 2.1598753775e+00 3.7410138919e+00 
70100 6.4357183861e+00 -6.1791101234e-04 2.1598897740e+00 -3.7410388273e+00 2.1598897740e+00 3.7410388273e+00 
70200 6.4357183278e+00 -6.1391163191e-04 2.1599040782e+00 -3.7410636030e+00 2.1599040782e+00 3.7410636030e+00 
70300 6.4357182704e+00 -6.0989250154e-04 2.1599182898e+00 -3.7410882181e+00 2.1599182898e+00 3.7410882181e+00 
70400 6.4357182140e+00 -6.0585266004e-04 2.1599324082e+00 -3.7411126720e+00 2.1599324082e+00 3.7411126720e+00 
70500 6.4357181586e+00 -6.0179131895e-04 2.1599464331e+00 -3.7411369637e+00 2.1599464331e+00 3.7411369637e+00 
70600 6.4357181040e+00 -5.9770785956e-04 2.1599603638e+00 -3.7411610924e+00 2.1599603638e+00 3.7411610924e+00 
70700 6.4357180504e+00 -5.9360182962e-04 2.1599741999e+00 -3.7411850572e+00 2.1599741999e+00 3.7411850572e+00 
70800 6.4357179977e+00 -5.8947293966e-04 2.1599879408e+00 -3.7412088572e+00 2.1599879408e+00 3.7412088572e+00 
70900 6.4357179459e+00 -5.8532105903e-04 2.1600015861e+00 -3.7412324916e+00 2.1600015861e+00 3.7412324916e+00 
71000 6.4357178949e+00 -5.8114621153e-04 2.1600151352e+00 -3.7412559593e+00 2.1600151352e+00 3.7412559593e+00 
71100 6.4357178448e+00 -5.7694857090e-04 2.1600285876e+00 -3.7412792595e+00 2.1600285876e+00 3.7412792595e+00 
71200 6.4357177956e+00 -5.7272845588e-04 2.1600419427e+00 -3.7413023913e+00 2.1600419427e+00 3.7413023913e+00 
71300 6.4357177472e+00 -5.6848632517e-04 2.1600552001e+00 -3.7413253537e+00 2.1600552001e+00 3.7413253537e+00 
71400 6.4357176996e+00 -5.6422277200e-04 2.1600683592e+00 -3.7413481459e+00 2.1600683592e+00 3.7413481459e+00 
71500 6.4357176528e+00 -5.5993851863e-04 2.1600814195e+00 -3.7413707670e+00 2.1600814195e+00 3.7413707670e+00 
71600 6.4357176068e+00 -5.5563441057e-04 2.1600943806e+00 -3.7413932163e+00 2.1600943806e+00 3.7413932163e+00 
71700 6.4357175616e+00 -5.5131141062e-04 2.1601072419e+00 -3.7414154928e+00 2.1601072419e+00 3.7414154928e+00 
71800 6.4357175172e+00 -5.4697059283e-04 2.1601200031e+00 -3.7414375959e+00 2.1601200031e+00 3.7414375959e+00 
71900 6.4357174735e+00 -5.4261313623e-04 2.1601326638e+00 -3.7414595248e+00 2.1601326638e+00 3.7414595248e+00 
72000 6.4357174306e+00 -5.3824031854e-04 2.1601452235e+00 -3.7414812789e+00 2.1601452235e+00 3.7414812789e+00 
72100 6.4357173883e+00 -5.3385350969e-04 2.1601576820e+00 -3.7415028575e+00 2.1601576820e+00 3.7415028575e+00 
72200 6.4357173469e+00 -5.2945416534e-04 2.1601700388e+00 -3.7415242602e+00 2.1601700388e+00 3.7415242602e+00 
72300 6.4357173061e+00 -5.2504382028e-04 2.1601822937e+00 -3.7415454863e+00 2.1601822937e+00 3.7415454863e+00 
72400 6.4357172660e+00 -5.2062408185e-04 2.1601944465e+00 -3.7415665356e+00 2.1601944465e+00 3.7415665356e+00 
72500 6.4357172266e+00 -5.1619662330e-04 2.1602064969e+00 -3.7415874075e+00 2.1602064969e+00 3.7415874075e+00 
72600 6.4357171878e+00 -5.1176317711e-04 2.1602184448e+00 -3.7416081018e+00 2.1602184448e+00 3.7416081018e+00 
72700 6.4357171498e+00 -5.0732552845e-04 2.1602302900e+00 -3.7416286183e+00 2.1602302900e+00 3.7416286183e+00 
72800 6.4357171123e+00 -5.0288550850e-04 2.1602420324e+00 -3.7416489567e+00 2.1602420324e+00 3.7416489567e+00 
72900 6.4357170756e+00 -4.9844498798e-04 2.1602536719e+00 -3.7416691170e+00 2.1602536719e+00 3.7416691170e+00 
73000 6.4357170394e+00 -4.9400587060e-04 2.1602652087e+00 -3.7416890992e+00 2.1602652087e+00 3.7416890992e+00 
73100 6.4357170038e+00 -4.8957008670e-04 2.1602766426e+00 -3.7417089034e+00 2.1602766426e+00 3.7417089034e+00 
73200 6.4357169689e+00 -4.8513958691e-04 2.1602879738e+00 -3.7417285296e+00 2.1602879738e+00 3.7417285296e+00 
73300 6.4357169345e+00 -4.8071633596e-04 2.1602992024e+00 -3.7417479781e+00 2.1602992024e+00 3.7417479781e+00 
73400 6.4357169008e+00 -4.7630230660e-04 2.1603103286e+00 -3.7417672492e+00 2.1603103286e+00 3.7417672492e+00 
73500 6.4357168676e+00 -4.7189947362e-04 2.1603213525e+00 -3.7417863432e+00 2.1603213525e+00 3.7417863432e+00 
73600 6.4357168349e+00 -4.6750980806e-04 2.1603322745e+00 -3.7418052606e+00 2.1603322745e+00 3.7418052606e+00 
73700 6.4357168029e+00 -4.6313527158e-04 2.1603430948e+00 -3.7418240020e+00 2.1603430948e+00 3.7418240020e+00 
73800 6.4357167713e+00 -4.5877781094e-04 2.1603538138e+00 -3.7418425679e+00 2.1603538138e+00 3.7418425679e+00 
73900 6.4357167403e+00 -4.5443935273e-04 2.1603644320e+00 -3.7418609590e+00 2.1603644320e+00 3.7418609590e+00 
74000 6.4357167098e+00 -4.5012179822e-04 2.1603749496e+00 -3.7418791762e+00 2.1603749496e+00 3.7418791762e+00 
74100 6.4357166799e+00 -4.4582701847e-04 2.1603853673e+00 -3.7418972201e+00 2.1603853673e+00 3.7418972201e+00 
74200 6.4357166504e+00 -4.4155684963e-04 2.1603956856e+00 -3.7419150918e+00 2.1603956856e+00 3.7419150918e+00 
74300 6.4357166214e+00 -4.3731308837e-04 2.1604059049e+00 -3.7419327923e+00 2.1604059049e+00 3.7419327923e+00 
74400 6.4357165929e+00 -4.3309748767e-04 2.1604160260e+00 -3.7419503225e+00 2.1604160260e+00 3.7419503225e+00 
74500 6.4357165649e+00 -4.2891175271e-04 2.1604260495e+00 -3.7419676837e+00 2.1604260495e+00 3.7419676837e+00 
74600 6.4357165374e+00 -4.2475753708e-04 2.1604359761e+00 -3.7419848770e+00 2.1604359761e+00 3.7419848770e+00 
74700 6.4357165104e+00 -4.2063643913e-04 2.1604458064e+00 -3.7420019037e+00 2.1604458064e+00 3.7420019037e+00 
74800 6.4357164837e+00 -4.1654999865e-04 2.1604555414e+00 -3.7420187652e+00 2.1604555414e+00 3.7420187652e+00 
74900 6.4357164576e+00 -4.1249969375e-04 2.1604651817e+00 -3.7420354627e+00 2.1604651817e+00 3.7420354627e+00 
75000 6.4357164319e+00 -4.0848693795e-04 2.1604747283e+00 -3.7420519978e+00 2.1604747283e+00 3.7420519978e+00 
75100 6.4357164066e+00 -4.0451307757e-04 2.1604841819e+00 -3.7420683720e+00 2.1604841819e+00 3.7420683720e+00 
75200 6.4357163817e+00 -4.0057938934e-04 2.1604935436e+00 -3.7420845869e+00 2.1604935436e+00 3.7420845869e+00 
75300 6.4357163573e+00 -3.9668707825e-04 2.1605028141e+00 -3.7421006439e+00 2.1605028141e+00 3.7421006439e+00 
75400 6.4357163332e+00 -3.9283727565e-04 2.1605119946e+00 -3.7421165449e+00 2.1605119946e+00 3.7421165449e+00 
75500 6.4357163096e+00 -3.8903103761e-04 2.1605210859e+00 -3.7421322915e+00 2.1605210859e+00 3.7421322915e+00 
75600 6.4357162864e+00 -3.8526934347e-04 2.1605300890e+00 -3.7421478855e+00 2.1605300890e+00 3.7421478855e+00 
75700 6.4357162636e+00 -3.8155309470e-04 2.1605390051e+00 -3.7421633286e+00 2.1605390051e+00 3.7421633286e+00 
75800 6.4357162411e+00 -3.7788311395e-04 2.1605478352e+00 -3.7421786227e+00 2.1605478352e+00 3.7421786227e+00 
75900 6.4357162190e+00 -3.7426014435e-04 2.1605565803e+00 -3.7421937696e+00 2.1605565803e+00 3.7421937696e+00 
76000 6.4357161973e+00 -3.7068484902e-04 2.1605652415e+00 -3.7422087713e+00 2.1605652415e+00 3.7422087713e+00 
76100 6.4357161760e+00 -3.6715781084e-04 2.1605738199e+00 -3.7422236296e+00 2.1605738199e+00 3.7422236296e+00 
76200 6.4357161551e+00 -3.6367953242e-04 2.1605823167e+00 -3.7422383464e+00 2.1605823167e+00 3.7422383464e+00 
76300 6.4357161344e+00 -3.6025043626e-04 2.1605907329e+00 -3.7422529238e+00 2.1605907329e+00 3.7422529238e+00 
76400 6.4357161142e+00 -3.5687086519e-04 2.1605990698e+00 -3.7422673636e+00 2.1605990698e+00 3.7422673636e+00 
76500 6.4357160943e+00 -3.5354108291e-04 2.1606073284e+00 -3.7422816680e+00 2.1606073284e+00 3.7422816680e+00 
76600 6.4357160747e+00 -3.5026127484e-04 2.1606155099e+00 -3.7422958388e+00 2.1606155099e+00 3.7422958388e+00 
76700 6.4357160555e+00 -3.4703154908e-04 2.1606236155e+00 -3.7423098781e+00 2.1606236155e+00 3.7423098781e+00 
76800 6.4357160366e+00 -3.4385193755e-04 2.1606316463e+00 -3.7423237879e+00 2.1606316463e+00 3.7423237879e+00 
76900 6.4357160180e+00 -3.4072239737e-04 2.1606396035e+00 -3.7423375702e+00 2.1606396035e+00 3.7423375702e+00 
77000 6.4357159997e+00 -3.3764281236e-04 2.1606474883e+00 -3.7423512270e+00 2.1606474883e+00 3.7423512270e+00 
77100 6.4357159818e+00 -3.3461299469e-04 2.1606553018e+00 -3.7423647603e+00 2.1606553018e+00 3.7423647603e+00 
77200 6.4357159641e+00 -3.3163268669e-04 2.1606630451e+00 -3.7423781721e+00 2.1606630451e+00 3.7423781721e+00 
77300 6.4357159468e+00 -3.2870156284e-04 2.1606707194e+00 -3.7423914645e+00 2.1606707194e+00 3.7423914645e+00 
77400 6.4357159298e+00 -3.2581923183e-04 2.1606783259e+00 -3.7424046393e+00 2.1606783259e+00 3.7424046393e+00 
77500 6.4357159130e+00 -3.2298523880e-04 2.1606858657e+00 -3.7424176985e+00 2.1606858657e+00 3.7424176985e+00 
77600 6.4357158965e+00 -3.2019906765e-04 2.1606933398e+00 -3.7424306441e+00 2.1606933398e+00 3.7424306441e+00 
77700 6.4357158804e+00 -3.1746014350e-04 2.1607007494e+00 -3.7424434780e+00 2.1607007494e+00 3.7424434780e+00 
77800 6.4357158645e+00 -3.1476783520e-04 2.1607080957e+00 -3.7424562020e+00 2.1607080957e+00 3.7424562020e+00 
77900 6.4357158489e+00 -3.1212145797e-04 2.1607153796e+00 -3.7424688181e+00 2.1607153796e+00 3.7424688181e+00 
78000 6.4357158335e+00 -3.0952027612e-04 2.1607226022e+00 -3.7424813281e+00 2.1607226022e+00 3.7424813281e+00 
78100 6.4357158184e+00 -3.0696350579e-04 2.1607297647e+00 -3.7424937338e+00 2.1607297647e+00 3.7424937338e+00 
78200 6.4357158036e+00 -3.0445031780e-04 2.1607368679e+00 -3.7425060370e+00 2.1607368679e+00 3.7425060370e+00 
78300 6.4357157891e+00 -3.0197984055e-04 2.1607439130e+00 -3.7425182394e+00 2.1607439130e+00 3.7425182394e+00 
78400 6.4357157747e+00 -2.9955116295e-04 2.1607509008e+00 -3.7425303427e+00 2.1607509008e+00 3.7425303427e+00 
78500 6.4357157607e+00 -2.9716333735e-04 2.1607578325e+00 -3.7425423487e+00 2.1607578325e+00 3.7425423487e+00 
78600 6.4357157469e+00 -2.9481538260e-04 2.1607647088e+00 -3.7425542589e+00 2.1607647088e+00 3.7425542589e+00 
78700 6.4357157333e+00 -2.9250628698e-04 2.1607715309e+00 -3.7425660750e+00 2.1607715309e+00 3.7425660750e+00 
78800 6.4357157199e+00 -2.9023501130e-04 2.1607782994e+00 -3.7425777985e+00 2.1607782994e+00 3.7425777985e+00 
78900 6.4357157068e+00 -2.8800049184e-04 2.1607850154e+00 -3.7425894309e+00 2.1607850154e+00 3.7425894309e+00 
79000 6.4357156940e+00 -2.8580164344e-04 2.1607916797e+00 -3.7426009738e+00 2.1607916797e+00 3.7426009738e+00 
79100 6.4357156813e+00 -2.8363736245e-04 2.1607982930e+00 -3.7426124284e+00 2.1607982930e+00 3.7426124284e+00 
79200 6.4357156689e+00 -2.8150652970e-04 2.1608048563e+00 -3.7426237963e+00 2.1608048563e+00 3.7426237963e+00 
79300 6.4357156566e+00 -2.7940801350e-04 2.1608113702e+00 -3.7426350788e+00 2.1608113702e+00 3.7426350788e+00 
79400 6.4357156446e+00 -2.7734067250e-04 2.1608178356e+00 -3.7426462771e+00 2.1608178356e+00 3.7426462771e+00 
79500 6.4357156328e+00 -2.7530335856e-04 2.1608242531e+00 -3.7426573925e+00 2.1608242531e+00 3.7426573925e+00 
79600 6.4357156212e+00 -2.7329491962e-04 2.1608306234e+00 -3.7426684263e+00 2.1608306234e+00 3.7426684263e+00 
79700 6.4357156098e+00 -2.7131420237e-04 2.1608369473e+00 -3.7426793795e+00 2.1608369473e+00 3.7426793795e+00 
79800 6.4357155986e+00 -2.6936005504e-04 2.1608432252e+00 -3.7426902533e+00 2.1608432252e+00 3.7426902533e+00 
79900 6.4357155876e+00 -2.6743133000e-04 2.1608494580e+00 -3.7427010488e+00 2.1608494580e+00 3.7427010488e+00 
80000 6.4357155768e+00 -2.6552688629e-04 2.1608556461e+00 -3.7427117669e+00 2.1608556461e+00 3.7427117669e+00 
80100 6.4357155662e+00 -2.6364559213e-04 2.1608617901e+00 -3.7427224086e+00 2.1608617901e+00 3.7427224086e+00 
80200 6.4357155557e+00 -2.6178632733e-04 2.1608678906e+00 -3.7427329750e+00 2.1608678906e+00 3.7427329750e+00 
80300 6.4357155455e+00 -2.5994798556e-04 2.1608739480e+00 -3.7427434668e+00 2.1608739480e+00 3.7427434668e+00 
80400 6.4357155354e+00 -2.5812947663e-04 2.1608799629e+00 -3.7427538849e+00 2.1608799629e+00 3.7427538849e+00 
80500 6.4357155255e+00 -2.5632972856e-04 2.1608859357e+00 -3.7427642300e+00 2.1608859357e+00 3.7427642300e+00 
80600 6.4357155157e+00 -2.5454768967e-04 2.1608918668e+00 -3.7427745030e+00 2.1608918668e+00 3.7427745030e+00 
80700 6.4357155062e+00 -2.5278233045e-04 2.1608977567e+00 -3.7427847046e+00 2.1608977567e+00 3.7427847046e+00 
80800 6.4357154967e+00 -2.5103264542e-04 2.1609036057e+00 -3.7427948354e+00 2.1609036057e+00 3.7427948354e+00 
80900 6.4357154875e+00 -2.4929765484e-04 2.1609094143e+00 -3.7428048960e+00 2.1609094143e+00 3.7428048960e+00 
81000 6.4357154784e+00 -2.4757640635e-04 2.1609151826e+00 -3.7428148871e+00 2.1609151826e+00 3.7428148871e+00 
81100 6.4357154695e+00 -2.4586797643e-04 2.1609209111e+00 -3.7428248092e+00 2.1609209111e+00 3.7428248092e+00 
81200 6.4357154607e+00 -2.4417147183e-04 2.1609266001e+00 -3.7428346628e+00 2.1609266001e+00 3.7428346628e+00 
81300 6.4357154521e+00 -2.4248603084e-04 2.1609322498e+00 -3.7428444483e+00 2.1609322498e+00 3.7428444483e+00 
81400 6.4357154436e+00 -2.4081082448e-04 2.1609378605e+00 -3.7428541663e+00 2.1609378605e+00 3.7428541663e+00 
81500 6.4357154353e+00 -2.3914505751e-04 2.1609434324e+00 -3.7428638171e+00 2.1609434324e+00 3.7428638171e+00 
81600 6.4357154271e+00 -2.3748796942e-04 2.1609489657e+00 -3.7428734012e+00 2.1609489657e+00 3.7428734012e+00 
81700 6.4357154191e+00 -2.3583883528e-04 2.1609544607e+00 -3.7428829188e+00 2.1609544607e+00 3.7428829188e+00 
81800 6.4357154112e+00 -2.3419696640e-04 2.1609599175e+00 -3.7428923703e+00 2.1609599175e+00 3.7428923703e+00 
81900 6.4357154034e+00 -2.3256171100e-04 2.1609653364e+00 -3.7429017560e+00 2.1609653364e+00 3.7429017560e+00 
82000 6.4357153958e+00 -2.3093245468e-04 2.1609707173e+00 -3.7429110761e+00 2.1609707173e+00 3.7429110761e+00 
82100 6.4357153883e+00 -2.2930862085e-04 2.1609760606e+00 -3.7429203309e+00 2.1609760606e+00 3.7429203309e+00 
82200 6.4357153809e+00 -2.2768967096e-04 2.1609813663e+00 -3.7429295206e+00 2.1609813663e+00 3.7429295206e+00 
82300 6.4357153737e+00 -2.2607510474e-04 2.1609866345e+00 -3.7429386454e+00 2.1609866345e+00 3.7429386454e+00 
82400 6.4357153666e+00 -2.2446446025e-04 2.1609918653e+00 -3.7429477054e+00 2.1609918653e+00 3.7429477054e+00 
82500 6.4357153596e+00 -2.2285731387e-04 2.1609970589e+00 -3.7429567009e+00 2.1609970589e+00 3.7429567009e+00 
82600 6.4357153527e+00 -2.2125328016e-04 2.1610022152e+00 -3.7429656320e+00 2.1610022152e+00 3.7429656320e+00 
82700 6.4357153460e+00 -2.1965201168e-04 2.1610073344e+00 -3.7429744988e+00 2.1610073344e+00 3.7429744988e+00 
82800 6.4357153393e+00 -2.1805319867e-04 2.1610124166e+00 -3.7429833014e+00 2.1610124166e+00 3.7429833014e+00 
82900 6.4357153328e+00 -2.1645656863e-04 2.1610174618e+00 -3.7429920398e+00 2.1610174618e+00 3.7429920398e+00 
83000 6.4357153264e+00 -2.1486188587e-04 2.1610224700e+00 -3.7430007143e+00 2.1610224700e+00 3.7430007143e+00 
83100 6.4357153201e+00 -2.1326895095e-04 2.1610274413e+00 -3.7430093249e+00 2.1610274413e+00 3.7430093249e+00 
83200 6.4357153140e+00 -2.1167760000e-04 2.1610323757e+00 -3.7430178716e+00 2.1610323757e+00 3.7430178716e+00 
83300 6.4357153079e+00 -2.1008770402e-04 2.1610372733e+00 -3.7430263545e+00 2.1610372733e+00 3.7430263545e+00 
83400 6.4357153019e+00 -2.0849916808e-04 2.1610421341e+00 -3.7430347736e+00 2.1610421341e+00 3.7430347736e+00 
83500 6.4357152961e+00 -2.0691193050e-04 2.1610469582e+00 -3.7430431291e+00 2.1610469582e+00 3.7430431291e+00 
83600 6.4357152903e+00 -2.0532596187e-04 2.1610517455e+00 -3.7430514210e+00 2.1610517455e+00 3.7430514210e+00 
83700 6.4357152847e+00 -2.0374126408e-04 2.1610564961e+00 -3.7430596493e+00 2.1610564961e+00 3.7430596493e+00 
83800 6.4357152791e+00 -2.0215786931e-04 2.1610612100e+00 -3.7430678140e+00 2.1610612100e+00 3.7430678140e+00 
83900 6.4357152736e+00 -2.0057583889e-04 2.1610658873e+00 -3.7430759153e+00 2.1610658873e+00 3.7430759153e+00 
84000 6.4357152683e+00 -1.9899526221e-04 2.1610705280e+00 -3.7430839532e+00 2.1610705280e+00 3.7430839532e+00 
84100 6.4357152630e+00 -1.9741625548e-04 2.1610751321e+00 -3.7430919277e+00 2.1610751321e+00 3.7430919277e+00 
84200 6.4357152579e+00 -1.9583896057e-04 2.1610796996e+00 -3.7430998390e+00 2.1610796996e+00 3.7430998390e+00 
84300 6.4357152528e+00 -1.9426354367e-04 2.1610842307e+00 -3.7431076870e+00 2.1610842307e+00 3.7431076870e+00 
84400 6.4357152478e+00 -1.9269019408e-04 2.1610887253e+00 -3.7431154718e+00 2.1610887253e+00 3.7431154718e+00 
84500 6.4357152429e+00 -1.9111912284e-04 2.1610931834e+00 -3.7431231936e+00 2.1610931834e+00 3.7431231936e+00 
84600 6.4357152381e+00 -1.8955056139e-04 2.1610976052e+00 -3.7431308524e+00 2.1610976052e+00 3.7431308524e+00 
84700 6.4357152333e+00 -1.8798476024e-04 2.1611019908e+00 -3.7431384483e+00 2.1611019908e+00 3.7431384483e+00 
84800 6.4357152287e+00 -1.8642198756e-04 2.1611063400e+00 -3.7431459815e+00 2.1611063400e+00 3.7431459815e+00 
84900 6.4357152241e+00 -1.8486252783e-04 2.1611106532e+00 -3.7431534521e+00 2.1611106532e+00 3.7431534521e+00 
85000 6.4357152196e+00 -1.8330668040e-04 2.1611149302e+00 -3.7431608601e+00 2.1611149302e+00 3.7431608601e+00 
85100 6.4357152152e+00 -1.8175475813e-04 2.1611191712e+00 -3.7431682058e+00 2.1611191712e+00 3.7431682058e+00 
85200 6.4357152109e+00 -1.8020708599e-04 2.1611233763e+00 -3.7431754892e+00 2.1611233763e+00 3.7431754892e+00 
85300 6.4357152067e+00 -1.7866399964e-04 2.1611275456e+00 -3.7431827106e+00 2.1611275456e+00 3.7431827106e+00 
85400 6.4357152025e+00 -1.7712584409e-04 2.1611316792e+00 -3.7431898702e+00 2.1611316792e+00 3.7431898702e+00 
85500 6.4357151984e+00 -1.7559297226e-04 2.1611357772e+00 -3.7431969681e+00 2.1611357772e+00 3.7431969681e+00 
85600 6.4357151944e+00 -1.7406574370e-04 2.1611398397e+00 -3.7432040046e+00 2.1611398397e+00 3.7432040046e+00 
85700 6.4357151904e+00 -1.7254452320e-04 2.1611438669e+00 -3.7432109799e+00 2.1611438669e+00 3.7432109799e+00 
85800 6.4357151865e+00 -1.7102967945e-04 2.1611478589e+00 -3.7432178942e+00 2.1611478589e+00 3.7432178942e+00 
85900 6.4357151827e+00 -1.6952158381e-04 2.1611518158e+00 -3.7432247478e+00 2.1611518158e+00 3.7432247478e+00 
86000 6.4357151790e+00 -1.6802060897e-04 2.1611557378e+00 -3.7432315409e+00 2.1611557378e+00 3.7432315409e+00 
86100 6.4357151753e+00 -1.6652712775e-04 2.1611596251e+00 -3.7432382739e+00 2.1611596251e+00 3.7432382739e+00 
86200 6.4357151717e+00 -1.6504151188e-04 2.1611634778e+00 -3.7432449470e+00 2.1611634778e+00 3.7432449470e+00 
86300 6.4357151681e+00 -1.6356413081e-04 2.1611672962e+00 -3.7432515606e+00 2.1611672962e+00 3.7432515606e+00 
86400 6.4357151646e+00 -1.6209535060e-04 2.1611710803e+00 -3.7432581150e+00 2.1611710803e+00 3.7432581150e+00 
86500 6.4357151612e+00 -1.6063553279e-04 2.1611748305e+00 -3.7432646105e+00 2.1611748305e+00 3.7432646105e+00 
86600 6.4357151578e+00 -1.5918503333e-04 2.1611785469e+00 -3.7432710474e+00 2.1611785469e+00 3.7432710474e+00 
86700 6.4357151545e+00 -1.5774420163e-04 2.1611822297e+00 -3.7432774263e+00 2.1611822297e+00 3.7432774263e+00 
86800 6.4357151513e+00 -1.5631337949e-04 2.1611858792e+00 -3.7432837474e+00 2.1611858792e+00 3.7432837474e+00 
86900 6.4357151481e+00 -1.5489290024e-04 2.1611894956e+00 -3.7432900111e+00 2.1611894956e+00 3.7432900111e+00 
87000 6.4357151450e+00 -1.5348308783e-04 2.1611930791e+00 -3.7432962180e+00 2.1611930791e+00 3.7432962180e+00 
87100 6.4357151419e+00 -1.5208425600e-04 2.1611966300e+00 -3.7433023683e+00 2.1611966300e+00 3.7433023683e+00 
87200 6.4357151389e+00 -1.5069670748e-04 2.1612001485e+00 -3.7433084625e+00 2.1612001485e+00 3.7433084625e+00 
87300 6.4357151359e+00 -1.4932073330e-04 2.1612036349e+00 -3.7433145012e+00 2.1612036349e+00 3.7433145012e+00 
87400 6.4357151330e+00 -1.4795661202e-04 2.1612070895e+00 -3.7433204847e+00 2.1612070895e+00 3.7433204847e+00 
87500 6.4357151301e+00 -1.4660460920e-04 2.1612105125e+00 -3.7433264135e+00 2.1612105125e+00 3.7433264135e+00 
87600 6.4357151273e+00 -1.4526497673e-04 2.1612139042e+00 -3.7433322882e+00 2.1612139042e+00 3.7433322882e+00 
87700 6.4357151245e+00 -1.4393795232e-04 2.1612172650e+00 -3.7433381091e+00 2.1612172650e+00 3.7433381091e+00 
87800 6.4357151218e+00 -1.4262375905e-04 2.1612205950e+00 -3.7433438769e+00 2.1612205950e+00 3.7433438769e+00 
87900 6.4357151192e+00 -1.4132260491e-04 2.1612238946e+00 -3.7433495920e+00 2.1612238946e+00 3.7433495920e+00 
88000 6.4357151165e+00 -1.4003468245e-04 2.1612271641e+00 -3.7433552549e+00 2.1612271641e+00 3.7433552549e+00 
88100 6.4357151140e+00 -1.3876016841e-04 2.1612304038e+00 -3.7433608663e+00 2.1612304038e+00 3.7433608663e+00 
88200 6.4357151114e+00 -1.3749922349e-04 2.1612336140e+00 -3.7433664265e+00 2.1612336140e+00 3.7433664265e+00 
88300 6.4357151090e+00 -1.3625199210e-04 2.1612367951e+00 -3.7433719362e+00 2.1612367951e+00 3.7433719362e+00 
88400 6.4357151065e+00 -1.3501860221e-04 2.1612399472e+00 -3.7433773960e+00 2.1612399472e+00 3.7433773960e+00 
88500 6.4357151041e+00 -1.3379916520e-04 2.1612430709e+00 -3.7433828063e+00 2.1612430709e+00 3.7433828063e+00 
88600 6.4357151018e+00 -1.3259377579e-04 2.1612461663e+00 -3.7433881677e+00 2.1612461663e+00 3.7433881677e+00 
88700 6.4357150995e+00 -1.3140251201e-04 2.1612492338e+00 -3.7433934808e+00 2.1612492338e+00 3.7433934808e+00 
88800 6.4357150972e+00 -1.3022543522e-04 2.1612522738e+00 -3.7433987462e+00 2.1612522738e+00 3.7433987462e+00 
88900 6.4357150950e+00 -1.2906259016e-04 2.1612552865e+00 -3.7434039644e+00 2.1612552865e+00 3.7434039644e+00 
89000 6.4357150928e+00 -1.2791400509e-04 2.1612582723e+00 -3.7434091360e+00 2.1612582723e+00 3.7434091360e+00 
89100 6.4357150907e+00 -1.2677969187e-04 2.1612612316e+00 -3.7434142616e+00 2.1612612316e+00 3.7434142616e+00 
89200 6.4357150886e+00 -1.2565964622e-04 2.1612641646e+00 -3.7434193417e+00 2.1612641646e+00 3.7434193417e+00 
89300 6.4357150865e+00 -1.2455384790e-04 2.1612670717e+00 -3.7434243769e+00 2.1612670717e+00 3.7434243769e+00 
89400 6.4357150845e+00 -1.2346226100e-04 2.1612699532e+00 -3.7434293678e+00 2.1612699532e+00 3.7434293678e+00 
89500 6.4357150825e+00 -1.2238483420e-04 2.1612728094e+00 -3.7434343150e+00 2.1612728094e+00 3.7434343150e+00 
89600 6.4357150805e+00 -1.2132150117e-04 2.1612756407e+00 -3.7434392189e+00 2.1612756407e+00 3.7434392189e+00 
89700 6.4357150786e+00 -1.2027218089e-04 2.1612784475e+00 -3.7434440803e+00 2.1612784475e+00 3.7434440803e+00 
89800 6.4357150767e+00 -1.1923677806e-04 2.1612812299e+00 -3.7434488996e+00 2.1612812299e+00 3.7434488996e+00 
89900 6.4357150748e+00 -1.1821518355e-04 2.1612839884e+00 -3.7434536774e+00 2.1612839884e+00 3.7434536774e+00 
90000 6.4357150730e+00 -1.1720727480e-04 2.1612867232e+00 -3.7434584143e+00 2.1612867232e+00 3.7434584143e+00 
90100 6.4357150712e+00 -1.1621291637e-04 2.1612894347e+00 -3.7434631108e+00 2.1612894347e+00 3.7434631108e+00 
90200 6.4357150695e+00 -1.1523196042e-04 2.1612921232e+00 -3.7434677674e+00 2.1612921232e+00 3.7434677674e+00 
90300 6.4357150677e+00 -1.1426424720e-04 2.1612947890e+00 -3.7434723848e+00 2.1612947890e+00 3.7434723848e+00 
90400 6.4357150661e+00 -1.1330960565e-04 2.1612974325e+00 -3.7434769633e+00 2.1612974325e+00 3.7434769633e+00 
90500 6.4357150644e+00 -1.1236785393e-04 2.1613000538e+00 -3.7434815036e+00 2.1613000538e+00 3.7434815036e+00 
90600 6.4357150628e+00 -1.1143880002e-04 2.1613026533e+00 -3.7434860061e+00 2.1613026533e+00 3.7434860061e+00 
90700 6.4357150612e+00 -1.1052224230e-04 2.1613052314e+00 -3.7434904714e+00 2.1613052314e+00 3.7434904714e+00 
90800 6.4357150596e+00 -1.0961797015e-04 2.1613077882e+00 -3.7434949000e+00 2.1613077882e+00 3.7434949000e+00 
90900 6.4357150580e+00 -1.0872576459e-04 2.1613103241e+00 -3.7434992923e+00 2.1613103241e+00 3.7434992923e+00 
91000 6.4357150565e+00 -1.0784539890e-04 2.1613128394e+00 -3.7435036489e+00 2.1613128394e+00 3.7435036489e+00 
91100 6.4357150550e+00 -1.0697663923e-04 2.1613153343e+00 -3.7435079702e+00 2.1613153343e+00 3.7435079702e+00 
91200 6.4357150536e+00 -1.0611924524e-04 2.1613178091e+00 -3.7435122567e+00 2.1613178091e+00 3.7435122567e+00 
91300 6.4357150521e+00 -1.0527297077e-04 2.1613202641e+00 -3.7435165088e+00 2.1613202641e+00 3.7435165088e+00 
91400 6.4357150507e+00 -1.0443756445e-04 2.1613226995e+00 -3.7435207271e+00 2.1613226995e+00 3.7435207271e+00 
91500 6.4357150494e+00 -1.0361277032e-04 2.1613251155e+00 -3.7435249118e+00 2.1613251155e+00 3.7435249118e+00 
91600 6.4357150480e+00 -1.0279832853e-04 2.1613275125e+00 -3.7435290635e+00 2.1613275125e+00 3.7435290635e+00 
91700 6.4357150467e+00 -1.0199397591e-04 2.1613298906e+00 -3.7435331825e+00 2.1613298906e+00 3.7435331825e+00 
91800 6.4357150454e+00 -1.0119944664e-04 2.1613322502e+00 -3.7435372693e+00 2.1613322502e+00 3.7435372693e+00 
91900 6.4357150441e+00 -1.0041447284e-04 2.1613345913e+00 -3.7435413243e+00 2.1613345913e+00 3.7435413243e+00 
92000 6.4357150428e+00 -9.9638785199e-05 2.1613369143e+00 -3.7435453478e+00 2.1613369143e+00 3.7435453478e+00 
92100 6.4357150416e+00 -9.8872113567e-05 2.1613392193e+00 -3.7435493402e+00 2.1613392193e+00 3.7435493402e+00 
92200 6.4357150404e+00 -9.8114187561e-05 2.1613415066e+00 -3.7435533019e+00 2.1613415066e+00 3.7435533019e+00 
92300 6.4357150392e+00 -9.7364737125e-05 2.1613437763e+00 -3.7435572332e+00 2.1613437763e+00 3.7435572332e+00 
92400 6.4357150380e+00 -9.6623493107e-05 2.1613460288e+00 -3.7435611345e+00 2.1613460288e+00 3.7435611345e+00 
92500 6.4357150369e+00 -9.5890187800e-05 2.1613482640e+00 -3.7435650061e+00 2.1613482640e+00 3.7435650061e+00 
92600 6.4357150357e+00 -9.5164555479e-05 2.1613504823e+00 -3.7435688483e+00 2.1613504823e+00 3.7435688483e+00 
92700 6.4357150346e+00 -9.4446332922e-05 2.1613526838e+00 -3.7435726615e+00 2.1613526838e+00 3.7435726615e+00 
92800 6.4357150335e+00 -9.3735259904e-05 2.1613548687e+00 -3.7435764458e+00 2.1613548687e+00 3.7435764458e+00 
92900 6.4357150325e+00 -9.3031079671e-05 2.1613570371e+00 -3.7435802016e+00 2.1613570371e+00 3.7435802016e+00 
93000 6.4357150314e+00 -9.2333539409e-05 2.1613591893e+00 -3.7435839293e+00 2.1613591893e+00 3.7435839293e+00 
93100 6.4357150304e+00 -9.1642390681e-05 2.1613613253e+00 -3.7435876289e+00 2.1613613253e+00 3.7435876289e+00 
93200 6.4357150294e+00 -9.0957389843e-05 2.1613634453e+00 -3.7435913009e+00 2.1613634453e+00 3.7435913009e+00 
93300 6.4357150284e+00 -9.0278298442e-05 2.1613655495e+00 -3.7435949454e+00 2.1613655495e+00 3.7435949454e+00 
93400 6.4357150274e+00 -8.9604883594e-05 2.1613676379e+00 -3.7435985627e+00 2.1613676379e+00 3.7435985627e+00 
93500 6.4357150265e+00 -8.8936918327e-05 2.1613697108e+00 -3.7436021531e+00 2.1613697108e+00 3.7436021531e+00 
93600 6.4357150255e+00 -8.8274181922e-05 2.1613717682e+00 -3.7436057166e+00 2.1613717682e+00 3.7436057166e+00 
93700 6.4357150246e+00 -8.7616460209e-05 2.1613738103e+00 -3.7436092536e+00 2.1613738103e+00 3.7436092536e+00 
93800 6.4357150237e+00 -8.6963545854e-05 2.1613758372e+00 -3.7436127643e+00 2.1613758372e+00 3.7436127643e+00 
93900 6.4357150228e+00 -8.6315238619e-05 2.1613778490e+00 -3.7436162487e+00 2.1613778490e+00 3.7436162487e+00 
94000 6.4357150220e+00 -8.5671345585e-05 2.1613798457e+00 -3.7436197072e+00 2.1613798457e+00 3.7436197072e+00 
94100 6.4357150211e+00 -8.5031681377e-05 2.1613818276e+00 -3.7436231399e+00 2.1613818276e+00 3.7436231399e+00 
94200 6.4357150203e+00 -8.4396068349e-05 2.1613837947e+00 -3.7436265470e+00 2.1613837947e+00 3.7436265470e+00 
94300 6.4357150194e+00 -8.3764336728e-05 2.1613857470e+00 -3.7436299286e+00 2.1613857470e+00 3.7436299286e+00 
94400 6.4357150186e+00 -8.3136324783e-05 2.1613876848e+00 -3.7436332849e+00 2.1613876848e+00 3.7436332849e+00 
94500 6.4357150178e+00 -8.2511878917e-05 2.1613896080e+00 -3.7436366160e+00 2.1613896080e+00 3.7436366160e+00 
94600 6.4357150171e+00 -8.1890853769e-05 2.1613915168e+00 -3.7436399221e+00 2.1613915168e+00 3.7436399221e+00 
94700 6.4357150163e+00 -8.1273112283e-05 2.1613934112e+00 -3.7436432033e+00 2.1613934112e+00 3.7436432033e+00 
94800 6.4357150156e+00 -8.0658525757e-05 2.1613952913e+00 -3.7436464597e+00 2.1613952913e+00 3.7436464597e+00 
94900 6.4357150148e+00 -8.0046973863e-05 2.1613971572e+00 -3.7436496915e+00 2.1613971572e+00 3.7436496915e+00 
95000 6.4357150141e+00 -7.9438344650e-05 2.1613990089e+00 -3.7436528988e+00 2.1613990089e+00 3.7436528988e+00 
95100 6.4357150134e+00 -7.8832534534e-05 2.1614008466e+00 -3.7436560818e+00 2.1614008466e+00 3.7436560818e+00 
95200 6.4357150127e+00 -7.8229448253e-05 2.1614026702e+00 -3.7436592404e+00 2.1614026702e+00 3.7436592404e+00 
95300 6.4357150120e+00 -7.7628998811e-05 2.1614044799e+00 -3.7436623749e+00 2.1614044799e+00 3.7436623749e+00 
95400 6.4357150114e+00 -7.7031107401e-05 2.1614062757e+00 -3.7436654853e+00 2.1614062757e+00 3.7436654853e+00 
95500 6.4357150107e+00 -7.6435703300e-05 2.1614080577e+00 -3.7436685718e+00 2.1614080577e+00 3.7436685718e+00 
95600 6.4357150101e+00 -7.5842723772e-05 2.1614098259e+00 -3.7436716344e+00 2.1614098259e+00 3.7436716344e+00 
95700 6.4357150094e+00 -7.5252113919e-05 2.1614115803e+00 -3.7436746732e+00 2.1614115803e+00 3.7436746732e+00 
95800 6.4357150088e+00 -7.4663826540e-05 2.1614133211e+00 -3.7436776884e+00 2.1614133211e+00 3.7436776884e+00 
95900 6.4357150082e+00 -7.4077821969e-05 2.1614150483e+00 -3.7436806800e+00 2.1614150483e+00 3.7436806800e+00 
96000 6.4357150076e+00 -7.3494067895e-05 2.1614167620e+00 -3.7436836481e+00 2.1614167620e+00 3.7436836481e+00 
96100 6.4357150070e+00 -7.2912539166e-05 2.1614184621e+00 -3.7436865928e+00 2.1614184621e+00 3.7436865928e+00 
96200 6.4357150064e+00 -7.2333217584e-05 2.1614201488e+00 -3.7436895142e+00 2.1614201488e+00 3.7436895142e+00 
96300 6.4357150059e+00 -7.1756091690e-05 2.1614218221e+00 -3.7436924124e+00 2.1614218221e+00 3.7436924124e+00 
96400 6.4357150053e+00 -7.1181156524e-05 2.1614234820e+00 -3.7436952875e+00 2.1614234820e+00 3.7436952875e+00 
96500 6.4357150048e+00 -7.0608413400e-05 2.1614251286e+00 -3.7436981395e+00 2.1614251286e+00 3.7436981395e+00 
96600 6.4357150044e+00 -7.0870403680e-05 2.1614251286e+00 -3.7436981395e+00 2.1614251286e+00 3.7436981395e+00 
96700 6.4357150038e+00 -7.0297718597e-05 2.1614267681e+00 -3.7437009791e+00 2.1614267681e+00 3.7437009791e+00 
96800 6.4357150034e+00 -7.0556434131e-05 2.1614267681e+00 -3.7437009791e+00 2.1614267681e+00 3.7437009791e+00 
96900 6.4357150030e+00 -7.0816426426e-05 2.1614267681e+00 -3.7437009791e+00 2.1614267681e+00 3.7437009791e+00 
97000 6.4357150025e+00 -7.0243028042e-05 2.1614284063e+00 -3.7437038166e+00 2.1614284063e+00 3.7437038166e+00 
97100 6.4357150021e+00 -7.0501081186e-05 2.1614284063e+00 -3.7437038166e+00 2.1614284063e+00 3.7437038166e+00 
97200 6.4357150018e+00 -7.0761107532e-05 2.1614284063e+00 -3.7437038166e+00 2.1614284063e+00 3.7437038166e+00 
97300 6.4357150013e+00 -7.0189096678e-05 2.1614300432e+00 -3.7437066518e+00 2.1614300432e+00 3.7437066518e+00 
97400 6.4357150009e+00 -7.0448598792e-05 2.1614300432e+00 -3.7437066518e+00 2.1614300432e+00 3.7437066518e+00 
97500 6.4357150006e+00 -7.0710773401e-05 2.1614300432e+00 -3.7437066518e+00 2.1614300432e+00 3.7437066518e+00 
97600 6.4357150001e+00 -7.0142187341e-05 2.1614316789e+00 -3.7437094849e+00 2.1614316789e+00 3.7437094849e+00 
97700 6.4357149998e+00 -7.0405196393e-05 2.1614316789e+00 -3.7437094849e+00 2.1614316789e+00 3.7437094849e+00 
97800 6.4357149995e+00 -7.0671522777e-05 2.1614316789e+00 -3.7437094849e+00 2.1614316789e+00 3.7437094849e+00 
97900 6.4357149991e+00 -7.0941459694e-05 2.1614316789e+00 -3.7437094849e+00 2.1614316789e+00 3.7437094849e+00 
98000 6.4357149987e+00 -7.0378815564e-05 2.1614333200e+00 -3.7437123274e+00 2.1614333200e+00 3.7437123274e+00 
98100 6.4357149984e+00 -7.0651338887e-05 2.1614333200e+00 -3.7437123274e+00 2.1614333200e+00 3.7437123274e+00 
98200 6.4357149981e+00 -7.0927997569e-05 2.1614333200e+00 -3.7437123274e+00 2.1614333200e+00 3.7437123274e+00 
98300 6.4357149977e+00 -7.0372710415e-05 2.1614349607e+00 -3.7437151693e+00 2.1614349607e+00 3.7437151693e+00 
98400 6.4357149974e+00 -7.0652868444e-05 2.1614349607e+00 -3.7437151693e+00 2.1614349607e+00 3.7437151693e+00 
98500 6.4357149971e+00 -7.0937545934e-05 2.1614349607e+00 -3.7437151693e+00 2.1614349607e+00 3.7437151693e+00 
98600 6.4357149967e+00 -7.0390497210e-05 2.1614366017e+00 -3.7437180115e+00 2.1614366017e+00 3.7437180115e+00 
98700 6.4357149965e+00 -7.0679293363e-05 2.1614366017e+00 -3.7437180115e+00 2.1614366017e+00 3.7437180115e+00 
98800 6.4357149962e+00 -7.0972843714e-05 2.1614366017e+00 -3.7437180115e+00 2.1614366017e+00 3.7437180115e+00 
98900 6.4357149958e+00 -7.0434433611e-05 2.1614382435e+00 -3.7437208552e+00 2.1614382435e+00 3.7437208552e+00 
99000 6.4357149956e+00 -7.0732418663e-05 2.1614382435e+00 -3.7437208552e+00 2.1614382435e+00 3.7437208552e+00 
99100 6.4357149952e+00 -7.0201218913e-05 2.1614398798e+00 -3.7437236892e+00 2.1614398798e+00 3.7437236892e+00 
99200 6.4357149950e+00 -7.0503501164e-05 2.1614398798e+00 -3.7437236892e+00 2.1614398798e+00 3.7437236892e+00 
99300 6.4357149948e+00 -7.0810488593e-05 2.1614398798e+00 -3.7437236892e+00 2.1614398798e+00 3.7437236892e+00 
99400 6.4357149944e+00 -7.0287294558e-05 2.1614415178e+00 -3.7437265264e+00 2.1614415178e+00 3.7437265264e+00 
99500 6.4357149942e+00 -7.0598383630e-05 2.1614415178e+00 -3.7437265264e+00 2.1614415178e+00 3.7437265264e+00 
99600 6.4357149940e+00 -7.0914021053e-05 2.1614415178e+00 -3.7437265264e+00 2.1614415178e+00 3.7437265264e+00 
99700 6.4357149937e+00 -7.0398057626e-05 2.1614431582e+00 -3.7437293677e+00 2.1614431582e+00 3.7437293677e+00 
99800 6.4357149935e+00 -7.0717356536e-05 2.1614431582e+00 -3.7437293677e+00 2.1614431582e+00 3.7437293677e+00 
99900 6.4357149931e+00 -7.0207080349e-05 2.1614447941e+00 -3.7437322012e+00 2.1614447941e+00 3.7437322012e+00 
100000 6.4357149929e+00 -7.0529440253e-05 2.1614447941e+00 -3.7437322012e+00 2.1614447941e+00 3.7437322012e+00 
100100 6.4357149928e+00 -7.0855725613e-05 2.1614447941e+00 -3.7437322012e+00 2.1614447941e+00 3.7437322012e+00 
100200 6.4357149925e+00 -7.0350412022e-05 2.1614464332e+00 -3.7437350401e+00 2.1614464332e+00 3.7437350401e+00 
100300 6.4357149923e+00 -7.0678939727e-05 2.1614464332e+00 -3.7437350401e+00 2.1614464332e+00 3.7437350401e+00 
100400 6.4357149921e+00 -7.1010949630e-05 2.1614464332e+00 -3.7437350401e+00 2.1614464332e+00 3.7437350401e+00 
100500 6.4357149918e+00 -7.0509061692e-05 2.1614480759e+00 -3.7437378853e+00 2.1614480759e+00 3.7437378853e+00 
100600 6.4357149916e+00 -7.0842345158e-05 2.1614480759e+00 -3.7437378853e+00 2.1614480759e+00 3.7437378853e+00 
100700 6.4357149914e+00 -7.0343272968e-05 2.1614497146e+00 -3.7437407238e+00 2.1614497146e+00 3.7437407238e+00 
100800 6.4357149912e+00 -7.0676932600e-05 2.1614497146e+00 -3.7437407238e+00 2.1614497146e+00 3.7437407238e+00 
100900 6.4357149910e+00 -7.1013083472e-05 2.1614497146e+00 -3.7437407238e+00 2.1614497146e+00 3.7437407238e+00 
101000 6.4357149908e+00 -7.0514286990e-05 2.1614513574e+00 -3.7437435690e+00 2.1614513574e+00 3.7437435690e+00 
101100 6.4357149906e+00 -7.0849636969e-05 2.1614513574e+00 -3.7437435690e+00 2.1614513574e+00 3.7437435690e+00 
101200 6.4357149904e+00 -7.0351469363e-05 2.1614529963e+00 -3.7437464078e+00 2.1614529963e+00 3.7437464078e+00 
101300 6.4357149902e+00 -7.0685025500e-05 2.1614529963e+00 -3.7437464078e+00 2.1614529963e+00 3.7437464078e+00 
101400 6.4357149901e+00 -7.1019962637e-05 2.1614529963e+00 -3.7437464078e+00 2.1614529963e+00 3.7437464078e+00 
101500 6.4357149898e+00 -7.0518748691e-05 2.1614546392e+00 -3.7437492533e+00 2.1614546392e+00 3.7437492533e+00 
101600 6.4357149897e+00 -7.0850633000e-05 2.1614546392e+00 -3.7437492533e+00 2.1614546392e+00 3.7437492533e+00 
101700 6.4357149894e+00 -7.0347853547e-05 2.1614562781e+00 -3.7437520921e+00 2.1614562781e+00 3.7437520921e+00 
101800 6.4357149893e+00 -7.0675675941e-05 2.1614562781e+00 -3.7437520921e+00 2.1614562781e+00 3.7437520921e+00 
101900 6.4357149892e+00 -7.1003747979e-05 2.1614562781e+00 -3.7437520921e+00 2.1614562781e+00 3.7437520921e+00 
102000 6.4357149890e+00 -7.0494734697e-05 2.1614579206e+00 -3.7437549369e+00 2.1614579206e+00 3.7437549369e+00 
102100 6.4357149888e+00 -7.0817514867e-05 2.1614579206e+00 -3.7437549369e+00 2.1614579206e+00 3.7437549369e+00 
102200 6.4357149886e+00 -7.0304918761e-05 2.1614595588e+00 -3.7437577744e+00 2.1614595588e+00 3.7437577744e+00 
102300 6.4357149885e+00 -7.0621449948e-05 2.1614595588e+00 -3.7437577744e+00 2.1614595588e+00 3.7437577744e+00 
102400 6.4357149884e+00 -7.0937162308e-05 2.1614595588e+00 -3.7437577744e+00 2.1614595588e+00 3.7437577744e+00 
102500 6.4357149882e+00 -7.0415526994e-05 2.1614611998e+00 -3.7437606166e+00 2.1614611998e+00 3.7437606166e+00 
102600 6.4357149881e+00 -7.0723881841e-05 2.1614611998e+00 -3.7437606166e+00 2.1614611998e+00 3.7437606166e+00 
102700 6.4357149878e+00 -7.0196967138e-05 2.1614628358e+00 -3.7437634503e+00 2.1614628358e+00 3.7437634503e+00 
102800 6.4357149877e+00 -7.0497114253e-05 2.1614628358e+00 -3.7437634503e+00 2.1614628358e+00 3.7437634503e+00 
102900 6.4357149876e+00 -7.0795504526e-05 2.1614628358e+00 -3.7437634503e+00 2.1614628358e+00 3.7437634503e+00 
103000 6.4357149874e+00 -7.0257311894e-05 2.1614644735e+00 -3.7437662868e+00 2.1614644735e+00 3.7437662868e+00 
103100 6.4357149873e+00 -7.0546578822e-05 2.1614644735e+00 -3.7437662868e+00 2.1614644735e+00 3.7437662868e+00 
103200 6.4357149873e+00 -7.0833673047e-05 2.1614644735e+00 -3.7437662868e+00 2.1614644735e+00 3.7437662868e+00 
103300 6.4357149871e+00 -7.0283344027e-05 2.1614661120e+00 -3.7437691249e+00 2.1614661120e+00 3.7437691249e+00 
103400 6.4357149870e+00 -7.0560558066e-05 2.1614661120e+00 -3.7437691249e+00 2.1614661120e+00 3.7437691249e+00 
103500 6.4357149869e+00 -7.0835260657e-05 2.1614661120e+00 -3.7437691249e+00 2.1614661120e+00 3.7437691249e+00 
103600 6.4357149867e+00 -7.0272207477e-05 2.1614677506e+00 -3.7437719630e+00 2.1614677506e+00 3.7437719630e+00 
103700 6.4357149866e+00 -7.0536428008e-05 2.1614677506e+00 -3.7437719630e+00 2.1614677506e+00 3.7437719630e+00 
103800 6.4357149865e+00 -7.0797873522e-05 2.1614677506e+00 -3.7437719630e+00 2.1614677506e+00 3.7437719630e+00 
103900 6.4357149863e+00 -7.0221764773e-05 2.1614693883e+00 -3.7437747996e+00 2.1614693883e+00 3.7437747996e+00 
104000 6.4357149863e+00 -7.0472277435e-05 2.1614693883e+00 -3.7437747996e+00 2.1614693883e+00 3.7437747996e+00 
104100 6.4357149862e+00 -7.0719824486e-05 2.1614693883e+00 -3.7437747996e+00 2.1614693883e+00 3.7437747996e+00 
104200 6.4357149860e+00 -7.0130570378e-05 2.1614710243e+00 -3.7437776331e+00 2.1614710243e+00 3.7437776331e+00 
104300 6.4357149860e+00 -7.0366880157e-05 2.1614710243e+00 -3.7437776331e+00 2.1614710243e+00 3.7437776331e+00 
104400 6.4357149859e+00 -7.0600104011e-05 2.1614710243e+00 -3.7437776331e+00 2.1614710243e+00 3.7437776331e+00 
104500 6.4357149858e+00 -7.0830314655e-05 2.1614710243e+00 -3.7437776331e+00 2.1614710243e+00 3.7437776331e+00 
104600 6.4357149856e+00 -7.0222408690e-05 2.1614726627e+00 -3.7437804710e+00 2.1614726627e+00 3.7437804710e+00 
104700 6.4357149856e+00 -7.0441384439e-05 2.1614726627e+00 -3.7437804710e+00 2.1614726627e+00 3.7437804710e+00 
104800 6.4357149855e+00 -7.0657327592e-05 2.1614726627e+00 -3.7437804710e+00 2.1614726627e+00 3.7437804710e+00 
104900 6.4357149855e+00 -7.0870340242e-05 2.1614726627e+00 -3.7437804710e+00 2.1614726627e+00 3.7437804710e+00 
105000 6.4357149853e+00 -7.0244873316e-05 2.1614743021e+00 -3.7437833106e+00 2.1614743021e+00 3.7437833106e+00 
105100 6.4357149852e+00 -7.0446893648e-05 2.1614743021e+00 -3.7437833106e+00 2.1614743021e+00 3.7437833106e+00 
105200 6.4357149852e+00 -7.0646040343e-05 2.1614743021e+00 -3.7437833106e+00 2.1614743021e+00 3.7437833106e+00 
105300 6.4357149851e+00 -7.0842437359e-05 2.1614743021e+00 -3.7437833106e+00 2.1614743021e+00 3.7437833106e+00 
105400 6.4357149850e+00 -7.0200883836e-05 2.1614759409e+00 -3.7437861490e+00 2.1614759409e+00 3.7437861490e+00 
105500 6.4357149849e+00 -7.0386711411e-05 2.1614759409e+00 -3.7437861490e+00 2.1614759409e+00 3.7437861490e+00 
105600 6.4357149849e+00 -7.0569902130e-05 2.1614759409e+00 -3.7437861490e+00 2.1614759409e+00 3.7437861490e+00 
105700 6.4357149848e+00 -7.0750595526e-05 2.1614759409e+00 -3.7437861490e+00 2.1614759409e+00 3.7437861490e+00 
105800 6.4357149847e+00 -7.0094686901e-05 2.1614775775e+00 -3.7437889837e+00 2.1614775775e+00 3.7437889837e+00 
105900 6.4357149846e+00 -7.0265363802e-05 2.1614775775e+00 -3.7437889837e+00 2.1614775775e+00 3.7437889837e+00 
106000 6.4357149846e+00 -7.0433694949e-05 2.1614775775e+00 -3.7437889837e+00 2.1614775775e+00 3.7437889837e+00 
106100 6.4357149845e+00 -7.0599830047e-05 2.1614775775e+00 -3.7437889837e+00 2.1614775775e+00 3.7437889837e+00 
106200 6.4357149845e+00 -7.0763926021e-05 2.1614775775e+00 -3.7437889837e+00 2.1614775775e+00 3.7437889837e+00 
106300 6.4357149844e+00 -7.0091733777e-05 2.1614792145e+00 -3.7437918189e+00 2.1614792145e+00 3.7437918189e+00 
106400 6.4357149843e+00 -7.0246769396e-05 2.1614792145e+00 -3.7437918189e+00 2.1614792145e+00 3.7437918189e+00 
106500 6.4357149843e+00 -7.0399952757e-05 2.1614792145e+00 -3.7437918189e+00 2.1614792145e+00 3.7437918189e+00 
106600 6.4357149842e+00 -7.0551440324e-05 2.1614792145e+00 -3.7437918189e+00 2.1614792145e+00 3.7437918189e+00 
106700 6.4357149842e+00 -7.0701393528e-05 2.1614792145e+00 -3.7437918189e+00 2.1614792145e+00 3.7437918189e+00 
106800 6.4357149842e+00 -7.0849977235e-05 2.1614792145e+00 -3.7437918189e+00 2.1614792145e+00 3.7437918189e+00 
106900 6.4357149840e+00 -7.0161929772e-05 2.1614808534e+00 -3.7437946576e+00 2.1614808534e+00 3.7437946576e+00 
107000 6.4357149840e+00 -7.0302795863e-05 2.1614808534e+00 -3.7437946576e+00 2.1614808534e+00 3.7437946576e+00 
107100 6.4357149840e+00 -7.0442482693e-05 2.1614808534e+00 -3.7437946576e+00 2.1614808534e+00 3.7437946576e+00 
107200 6.4357149839e+00 -7.0581142098e-05 2.1614808534e+00 -3.7437946576e+00 2.1614808534e+00 3.7437946576e+00 
107300 6.4357149839e+00 -7.0718928330e-05 2.1614808534e+00 -3.7437946576e+00 2.1614808534e+00 3.7437946576e+00 
107400 6.4357149838e+00 -7.0022112071e-05 2.1614824893e+00 -3.7437974911e+00 2.1614824893e+00 3.7437974911e+00 
107500 6.4357149838e+00 -7.0153148002e-05 2.1614824893e+00 -3.7437974911e+00 2.1614824893e+00 3.7437974911e+00 
107600 6.4357149837e+00 -7.0283464324e-05 2.1614824893e+00 -3.7437974911e+00 2.1614824893e+00 3.7437974911e+00 
107700 6.4357149837e+00 -7.0413198927e-05 2.1614824893e+00 -3.7437974911e+00 2.1614824893e+00 3.7437974911e+00 
107800 6.4357149837e+00 -7.0542491432e-05 2.1614824893e+00 -3.7437974911e+00 2.1614824893e+00 3.7437974911e+00 
107900 6.4357149836e+00 -7.0671481930e-05 2.1614824893e+00 -3.7437974911e+00 2.1614824893e+00 3.7437974911e+00 
108000 6.4357149836e+00 -7.0800309847e-05 2.1614824893e+00 -3.7437974911e+00 2.1614824893e+00 3.7437974911e+00 
108100 6.4357149835e+00 -7.0094266029e-05 2.1614841270e+00 -3.7438003278e+00 2.1614841270e+00 3.7438003278e+00 
108200 6.4357149835e+00 -7.0217703334e-05 2.1614841270e+00 -3.7438003278e+00 2.1614841270e+00 3.7438003278e+00 
108300 6.4357149835e+00 -7.0341071173e-05 2.1614841270e+00 -3.7438003278e+00 2.1614841270e+00 3.7438003278e+00 
108400 6.4357149834e+00 -7.0464483076e-05 2.1614841270e+00 -3.7438003278e+00 2.1614841270e+00 3.7438003278e+00 
108500 6.4357149834e+00 -7.0588052561e-05 2.1614841270e+00 -3.7438003278e+00 2.1614841270e+00 3.7438003278e+00 
108600 6.4357149834e+00 -7.0711892091e-05 2.1614841270e+00 -3.7438003278e+00 2.1614841270e+00 3.7438003278e+00 
108700 6.4357149833e+00 -7.0002306264e-05 2.1614857628e+00 -3.7438031609e+00 2.1614857628e+00 3.7438031609e+00 
108800 6.4357149832e+00 -7.0121545459e-05 2.1614857628e+00 -3.7438031609e+00 2.1614857628e+00 3.7438031609e+00 
108900 6.4357149832e+00 -7.0241065981e-05 2.1614857628e+00 -3.7438031609e+00 2.1614857628e+00 3.7438031609e+00 
109000 6.4357149832e+00 -7.0360953827e-05 2.1614857628e+00 -3.7438031609e+00 2.1614857628e+00 3.7438031609e+00 
109100 6.4357149832e+00 -7.0481295050e-05 2.1614857628e+00 -3.7438031609e+00 2.1614857628e+00 3.7438031609e+00 
109200 6.4357149832e+00 -7.0602174790e-05 2.1614857628e+00 -3.7438031609e+00 2.1614857628e+00 3.7438031609e+00 
109300 6.4357149832e+00 -7.0723676420e-05 2.1614857628e+00 -3.7438031609e+00 2.1614857628e+00 3.7438031609e+00 
109400 6.4357149830e+00 -7.0011934004e-05 2.1614873988e+00 -3.7438059946e+00 2.1614873988e+00 3.7438059946e+00 
109500 6.4357149830e+00 -7.0129448931e-05 2.1614873988e+00 -3.7438059946e+00 2.1614873988e+00 3.7438059946e+00 
109600 6.4357149830e+00 -7.0247507088e-05 2.1614873988e+00 -3.7438059946e+00 2.1614873988e+00 3.7438059946e+00 
109700 6.4357149830e+00 -7.0366164157e-05 2.1614873988e+00 -3.7438059946e+00 2.1614873988e+00 3.7438059946e+00 
109800 6.4357149830e+00 -7.0485475912e-05 2.1614873988e+00 -3.7438059946e+00 2.1614873988e+00 3.7438059946e+00 
109900 6.4357149830e+00 -7.0605497395e-05 2.1614873988e+00 -3.7438059946e+00 2.1614873988e+00 3.7438059946e+00 
110000 6.4357149830e+00 -7.0726282163e-05 2.1614873988e+00 -3.7438059946e+00 2.1614873988e+00 3.7438059946e+00 
110100 6.4357149829e+00 -7.0013902550e-05 2.1614890348e+00 -3.7438088283e+00 2.1614890348e+00 3.7438088283e+00 
110200 6.4357149828e+00 -7.0130895560e-05 2.1614890348e+00 -3.7438088283e+00 2.1614890348e+00 3.7438088283e+00 
110300 6.4357149828e+00 -7.0248486496e-05 2.1614890348e+00 -3.7438088283e+00 2.1614890348e+00 3.7438088283e+00 
110400 6.4357149828e+00 -7.0366703369e-05 2.1614890348e+00 -3.7438088283e+00 2.1614890348e+00 3.7438088283e+00 
110500 6.4357149828e+00 -7.0485575039e-05 2.1614890348e+00 -3.7438088283e+00 2.1614890348e+00 3.7438088283e+00 
110600 6.4357149828e+00 -7.0605130448e-05 2.1614890348e+00 -3.7438088283e+00 2.1614890348e+00 3.7438088283e+00 
110700 6.4357149828e+00 -7.0725397945e-05 2.1614890348e+00 -3.7438088283e+00 2.1614890348e+00 3.7438088283e+00 
110800 6.4357149827e+00 -7.0012434769e-05 2.1614906709e+00 -3.7438116620e+00 2.1614906709e+00 3.7438116620e+00 
110900 6.4357149827e+00 -7.0128736479e-05 2.1614906709e+00 -3.7438116620e+00 2.1614906709e+00 3.7438116620e+00 
111000 6.4357149827e+00 -7.0245515145e-05 2.1614906709e+00 -3.7438116620e+00 2.1614906709e+00 3.7438116620e+00 
111100 6.4357149827e+00 -7.0362777634e-05 2.1614906709e+00 -3.7438116620e+00 2.1614906709e+00 3.7438116620e+00 
111200 6.4357149827e+00 -7.0480532792e-05 2.1614906709e+00 -3.7438116620e+00 2.1614906709e+00 3.7438116620e+00 
111300 6.4357149826e+00 -7.0598790692e-05 2.1614906709e+00 -3.7438116620e+00 2.1614906709e+00 3.7438116620e+00 
111400 6.4357149826e+00 -7.0717561988e-05 2.1614906709e+00 -3.7438116620e+00 2.1614906709e+00 3.7438116620e+00 
111500 6.4357149825e+00 -7.0002978877e-05 2.1614923067e+00 -3.7438144954e+00 2.1614923067e+00 3.7438144954e+00 
111600 6.4357149825e+00 -7.0117339453e-05 2.1614923067e+00 -3.7438144954e+00 2.1614923067e+00 3.7438144954e+00 
111700 6.4357149825e+00 -7.0231932503e-05 2.1614923067e+00 -3.7438144954e+00 2.1614923067e+00 3.7438144954e+00 
111800 6.4357149825e+00 -7.0346752085e-05 2.1614923067e+00 -3.7438144954e+00 2.1614923067e+00 3.7438144954e+00 
111900 6.4357149825e+00 -7.0461795463e-05 2.1614923067e+00 -3.7438144954e+00 2.1614923067e+00 3.7438144954e+00 
112000 6.4357149825e+00 -7.0577062374e-05 2.1614923067e+00 -3.7438144954e+00 2.1614923067e+00 3.7438144954e+00 
112100 6.4357149825e+00 -7.0692554369e-05 2.1614923067e+00 -3.7438144954e+00 2.1614923067e+00 3.7438144954e+00 
112200 6.4357149825e+00 -7.0808274228e-05 2.1614923067e+00 -3.7438144954e+00 2.1614923067e+00 3.7438144954e+00 
112300 6.4357149824e+00 -7.0089276198e-05 2.1614939447e+00 -3.7438173324e+00 2.1614939447e+00 3.7438173324e+00 
112400 6.4357149824e+00 -7.0199986612e-05 2.1614939447e+00 -3.7438173324e+00 2.1614939447e+00 3.7438173324e+00 
112500 6.4357149824e+00 -7.0310624372e-05 2.1614939447e+00 -3.7438173324e+00 2.1614939447e+00 3.7438173324e+00 
112600 6.4357149824e+00 -7.0421178739e-05 2.1614939447e+00 -3.7438173324e+00 2.1614939447e+00 3.7438173324e+00 
112700 6.4357149824e+00 -7.0531643051e-05 2.1614939447e+00 -3.7438173324e+00 2.1614939447e+00 3.7438173324e+00 
112800 6.4357149824e+00 -7.0642013993e-05 2.1614939447e+00 -3.7438173324e+00 2.1614939447e+00 3.7438173324e+00 
112900 6.4357149824e+00 -7.0752290967e-05 2.1614939447e+00 -3.7438173324e+00 2.1614939447e+00 3.7438173324e+00 
113000 6.4357149823e+00 -7.0028185949e-05 2.1614955813e+00 -3.7438201672e+00 2.1614955813e+00 3.7438201672e+00 
113100 6.4357149823e+00 -7.0132809670e-05 2.1614955813e+00 -3.7438201672e+00 2.1614955813e+00 3.7438201672e+00 
113200 6.4357149823e+00 -7.0237037252e-05 2.1614955813e+00 -3.7438201672e+00 2.1614955813e+00 3.7438201672e+00 
113300 6.4357149823e+00 -7.0340859892e-05 2.1614955813e+00 -3.7438201672e+00 2.1614955813e+00 3.7438201672e+00 
113400 6.4357149823e+00 -7.0444274041e-05 2.1614955813e+00 -3.7438201672e+00 2.1614955813e+00 3.7438201672e+00 
113500 6.4357149823e+00 -7.0446338157e-05 2.1614955813e+00 -3.7438201672e+00 2.1614955813e+00 3.7438201672e+00 
113500 6.4357149823e+00 -7.0446338156e-05 2.1614955813e+00 -3.7438201672e+00 2.1614955813e+00 3.7438201672e+00 
