# step Hamiltonian StressXX CellTensor1 CellTensor2 CellTensor3 CellTensor4 
0 6.4228420824e+00 2.1073698351e-01 2.8378601290e+00 -4.9153179282e+00 2.8378601290e+00 4.9153179282e+00 
100 6.4586379174e+00 2.5033435260e-01 2.8378601290e+00 -4.9153179282e+00 2.8378601290e+00 4.9153179282e+00 
200 6.4927354012e+00 2.8687611507e-01 2.8334506550e+00 -4.9076804953e+00 2.8334506550e+00 4.9076804953e+00 
300 6.5258736013e+00 3.2082398864e-01 2.8283898551e+00 -4.8989149326e+00 2.8283898551e+00 4.8989149326e+00 
400 6.5581669483e+00 3.5252881411e-01 2.8227202591e+00 -4.8890949044e+00 2.8227202591e+00 4.8890949044e+00 
500 6.5896539584e+00 3.8226936619e-01 2.8164780793e+00 -4.8782831318e+00 2.8164780793e+00 4.8782831318e+00 
600 6.6202948632e+00 4.1023055363e-01 2.8096945101e+00 -4.8665336452e+00 2.8096945101e+00 4.8665336452e+00 
700 6.6499625553e+00 4.3646712745e-01 2.8023974099e+00 -4.8538946970e+00 2.8023974099e+00 4.8538946970e+00 
800 6.6784251674e+00 4.6084767215e-01 2.7946136385e+00 -4.8404128094e+00 2.7946136385e+00 4.8404128094e+00 
900 6.7053211775e+00 4.8297891971e-01 2.7863724208e+00 -4.8261386016e+00 2.7863724208e+00 4.8261386016e+00 
1000 6.7301357627e+00 5.0213026588e-01 2.7777101229e+00 -4.8111350615e+00 2.7777101229e+00 4.8111350615e+00 
1100 6.7522035833e+00 5.1722396640e-01 2.7686764758e+00 -4.7954883258e+00 2.7686764758e+00 4.7954883258e+00 
1200 6.7707842754e+00 5.2701773890e-01 2.7593411099e+00 -4.7793189978e+00 2.7593411099e+00 4.7793189978e+00 
1300 6.7852538102e+00 5.3059491994e-01 2.7497969349e+00 -4.7627880017e+00 2.7497969349e+00 4.7627880017e+00 
1400 6.7953753092e+00 5.2803221103e-01 2.7401547037e+00 -4.7460871674e+00 2.7401547037e+00 4.7460871674e+00 
1500 6.8014747653e+00 5.2071588006e-01 2.7305252899e+00 -4.7294085334e+00 2.7305252899e+00 4.7294085334e+00 
1600 6.8043395306e+00 5.1084326794e-01 2.7209957726e+00 -4.7129029253e+00 2.7209957726e+00 4.7129029253e+00 
1700 6.8048959832e+00 5.0044253012e-01 2.7116141239e+00 -4.6966534331e+00 2.7116141239e+00 4.6966534331e+00 
1800 6.8039215111e+00 4.9072693032e-01 2.7023916147e+00 -4.6806795787e+00 2.7023916147e+00 4.6806795787e+00 
1900 6.8019430630e+00 4.8209084592e-01 2.6933172228e+00 -4.6649622708e+00 2.6933172228e+00 4.6649622708e+00 
2000 6.7992758816e+00 4.7443822859e-01 2.6843724361e+00 -4.6494694457e+00 2.6843724361e+00 4.6494694457e+00 
2100 6.7961006474e+00 4.6749339651e-01 2.6755402589e+00 -4.6341716662e+00 2.6755402589e+00 4.6341716662e+00 
2200 6.7925246793e+00 4.6097540931e-01 2.6668085991e+00 -4.6190479878e+00 2.6668085991e+00 4.6190479878e+00 
2300 6.7886181488e+00 4.5466278283e-01 2.6581704538e+00 -4.6040862812e+00 2.6581704538e+00 4.6040862812e+00 
2400 6.7844325761e+00 4.4840195954e-01 2.6496228794e+00 -4.5892814480e+00 2.6496228794e+00 4.5892814480e+00 
2500 6.7800095730e+00 4.4209532533e-01 2.6411657790e+00 -4.5746333205e+00 2.6411657790e+00 4.5746333205e+00 
2600 6.7753848408e+00 4.3568559976e-01 2.6328008914e+00 -4.5601449101e+00 2.6328008914e+00 4.5601449101e+00 
2700 6.7705900051e+00 4.2914255499e-01 2.6245310546e+00 -4.5458211326e+00 2.6245310546e+00 4.5458211326e+00 
2800 6.7656535011e+00 4.2245326558e-01 2.6163597080e+00 -4.5316679452e+00 2.6163597080e+00 4.5316679452e+00 
2900 6.7606010457e+00 4.1561545115e-01 2.6082905704e+00 -4.5176917888e+00 2.6082905704e+00 4.5176917888e+00 
3000 6.7554559320e+00 4.0863311870e-01 2.6003274389e+00 -4.5038992405e+00 2.6003274389e+00 4.5038992405e+00 
3100 6.7502392466e+00 4.0151379083e-01 2.5924740683e+00 -4.4902968035e+00 2.5924740683e+00 4.4902968035e+00 
3200 6.7449700509e+00 3.9426678430e-01 2.5847341007e+00 -4.4768907865e+00 2.5847341007e+00 4.4768907865e+00 
3300 6.7396655440e+00 3.8690216726e-01 2.5771110281e+00 -4.4636872374e+00 2.5771110281e+00 4.4636872374e+00 
3400 6.7343412143e+00 3.7943014773e-01 2.5696081734e+00 -4.4506919118e+00 2.5696081734e+00 4.4506919118e+00 
3500 6.7290109823e+00 3.7186073217e-01 2.5622286840e+00 -4.4379102612e+00 2.5622286840e+00 4.4379102612e+00 
3600 6.7236873339e+00 3.6420355085e-01 2.5549755315e+00 -4.4253474326e+00 2.5549755315e+00 4.4253474326e+00 
3700 6.7183814460e+00 3.5646778408e-01 2.5478515152e+00 -4.4130082744e+00 2.5478515152e+00 4.4130082744e+00 
3800 6.7131033030e+00 3.4866214792e-01 2.5408592668e+00 -4.4008973449e+00 2.5408592668e+00 4.4008973449e+00 
3900 6.7078618045e+00 3.4079491321e-01 2.5340012559e+00 -4.3890189217e+00 2.5340012559e+00 4.3890189217e+00 
4000 6.7026648646e+00 3.3287394180e-01 2.5272797955e+00 -4.3773770107e+00 2.5272797955e+00 4.3773770107e+00 
4100 6.6975195023e+00 3.2490673021e-01 2.5206970460e+00 -4.3659753541e+00 2.5206970460e+00 4.3659753541e+00 
4200 6.6924319245e+00 3.1690045455e-01 2.5142550198e+00 -4.3548174375e+00 2.5142550198e+00 4.3548174375e+00 
4300 6.6874076004e+00 3.0886201355e-01 2.5079555846e+00 -4.3439064956e+00 2.5079555846e+00 4.3439064956e+00 
4400 6.6824513301e+00 3.0079806766e-01 2.5018004653e+00 -4.3332455163e+00 2.5018004653e+00 4.3332455163e+00 
4500 6.6775673050e+00 2.9271507344e-01 2.4957912468e+00 -4.3228372446e+00 2.4957912468e+00 4.3228372446e+00 
4600 6.6727591634e+00 2.8461931292e-01 2.4899293749e+00 -4.3126841845e+00 2.4899293749e+00 4.3126841845e+00 
4700 6.6680300398e+00 2.7651691800e-01 2.4842161571e+00 -4.3027886010e+00 2.4842161571e+00 4.3027886010e+00 
4800 6.6633826099e+00 2.6841389019e-01 2.4786527636e+00 -4.2931525209e+00 2.4786527636e+00 4.2931525209e+00 
4900 6.6588191304e+00 2.6031611602e-01 2.4732402275e+00 -4.2837777333e+00 2.4732402275e+00 4.2837777333e+00 
5000 6.6543414755e+00 2.5222937861e-01 2.4679794445e+00 -4.2746657900e+00 2.4679794445e+00 4.2746657900e+00 
5100 6.6499511693e+00 2.4415936580e-01 2.4628711735e+00 -4.2658180050e+00 2.4628711735e+00 4.2658180050e+00 
5200 6.6456494156e+00 2.3611167526e-01 2.4579160361e+00 -4.2572354553e+00 2.4579160361e+00 4.2572354553e+00 
5300 6.6414371244e+00 2.2809181702e-01 2.4531145168e+00 -4.2489189799e+00 2.4531145168e+00 4.2489189799e+00 
5400 6.6373149364e+00 2.2010521374e-01 2.4484669630e+00 -4.2408691806e+00 2.4484669630e+00 4.2408691806e+00 
5500 6.6332832450e+00 2.1215719917e-01 2.4439735851e+00 -4.2330864217e+00 2.4439735851e+00 4.2330864217e+00 
5600 6.6293422173e+00 2.0425301495e-01 2.4396344570e+00 -4.2255708314e+00 2.4396344570e+00 4.2255708314e+00 
5700 6.6254918119e+00 1.9639780615e-01 2.4354495164e+00 -4.2183223018e+00 2.4354495164e+00 4.2183223018e+00 
5800 6.6217317970e+00 1.8859661584e-01 2.4314185660e+00 -4.2113404908e+00 2.4314185660e+00 4.2113404908e+00 
5900 6.6180617659e+00 1.8085437873e-01 2.4275412740e+00 -4.2046248240e+00 2.4275412740e+00 4.2046248240e+00 
6000 6.6144811521e+00 1.7317591425e-01 2.4238171755e+00 -4.1981744963e+00 2.4238171755e+00 4.1981744963e+00 
6100 6.6109892435e+00 1.6556591922e-01 2.4202456745e+00 -4.1919884750e+00 2.4202456745e+00 4.1919884750e+00 
6200 6.6075851946e+00 1.5802896015e-01 2.4168260451e+00 -4.1860655031e+00 2.4168260451e+00 4.1860655031e+00 
6300 6.6042680396e+00 1.5056946548e-01 2.4135574341e+00 -4.1804041028e+00 2.4135574341e+00 4.1804041028e+00 
6400 6.6010367033e+00 1.4319171772e-01 2.4104388633e+00 -4.1750025799e+00 2.4104388633e+00 4.1750025799e+00 
6500 6.5978900119e+00 1.3589984576e-01 2.4074692325e+00 -4.1698590283e+00 2.4074692325e+00 4.1698590283e+00 
6600 6.5948267034e+00 1.2869781727e-01 2.4046473218e+00 -4.1649713357e+00 2.4046473218e+00 4.1649713357e+00 
6700 6.5918454367e+00 1.2158943145e-01 2.4019717960e+00 -4.1603371890e+00 2.4019717960e+00 4.1603371890e+00 
6800 6.5889448009e+00 1.1457831204e-01 2.3994412073e+00 -4.1559540808e+00 2.3994412073e+00 4.1559540808e+00 
6900 6.5861233234e+00 1.0766790083e-01 2.3970539996e+00 -4.1518193157e+00 2.3970539996e+00 4.1518193157e+00 
7000 6.5833794781e+00 1.0086145156e-01 2.3948085126e+00 -4.1479300182e+00 2.3948085126e+00 4.1479300182e+00 
7100 6.5807116923e+00 9.4162024378e-02 2.3927029860e+00 -4.1442831392e+00 2.3927029860e+00 4.1442831392e+00 
7200 6.5781183538e+00 8.7572480875e-02 2.3907355645e+00 -4.1408754652e+00 2.3907355645e+00 4.1408754652e+00 
7300 6.5755978173e+00 8.1095479682e-02 2.3889043019e+00 -4.1377036254e+00 2.3889043019e+00 4.1377036254e+00 
7400 6.5731484102e+00 7.4733472748e-02 2.3872071668e+00 -4.1347641010e+00 2.3872071668e+00 4.1347641010e+00 
7500 6.5707684378e+00 6.8488702264e-02 2.3856420471e+00 -4.1320532342e+00 2.3856420471e+00 4.1320532342e+00 
7600 6.5684561889e+00 6.2363198279e-02 2.3842067557e+00 -4.1295672366e+00 2.3842067557e+00 4.1295672366e+00 
7700 6.5662099397e+00 5.6358777032e-02 2.3828990357e+00 -4.1273021992e+00 2.3828990357e+00 4.1273021992e+00 
7800 6.5640279583e+00 5.0477039989e-02 2.3817165661e+00 -4.1252541018e+00 2.3817165661e+00 4.1252541018e+00 
7900 6.5619085086e+00 4.4719373625e-02 2.3806569670e+00 -4.1234188223e+00 2.3806569670e+00 4.1234188223e+00 
8000 6.5598498534e+00 3.9086949924e-02 2.3797178054e+00 -4.1217921467e+00 2.3797178054e+00 4.1217921467e+00 
8100 6.5578502577e+00 3.3580727615e-02 2.3788966009e+00 -4.1203697787e+00 2.3788966009e+00 4.1203697787e+00 
8200 6.5559079914e+00 2.8201454124e-02 2.3781908311e+00 -4.1191473496e+00 2.3781908311e+00 4.1191473496e+00 
8300 6.5540213319e+00 2.2949668236e-02 2.3775979375e+00 -4.1181204278e+00 2.3775979375e+00 4.1181204278e+00 
8400 6.5521885658e+00 1.7825703455e-02 2.3771153309e+00 -4.1172845285e+00 2.3771153309e+00 4.1172845285e+00 
8500 6.5504079914e+00 1.2829692021e-02 2.3767403967e+00 -4.1166351235e+00 2.3767403967e+00 4.1166351235e+00 
8600 6.5486779202e+00 7.9615695853e-03 2.3764705008e+00 -4.1161676501e+00 2.3764705008e+00 4.1161676501e+00 
8700 6.5469966785e+00 3.2210804891e-03 2.3763029945e+00 -4.1158775207e+00 2.3763029945e+00 4.1158775207e+00 
8800 6.5453626085e+00 -1.3922163758e-03 2.3762352198e+00 -4.1157601314e+00 2.3762352198e+00 4.1157601314e+00 
8900 6.5437740698e+00 -5.8789411657e-03 2.3762645144e+00 -4.1158108712e+00 2.3762645144e+00 4.1158108712e+00 
9000 6.5422294402e+00 -1.0239886187e-02 2.3763882168e+00 -4.1160251301e+00 2.3763882168e+00 4.1160251301e+00 
9100 6.5407271171e+00 -1.4476008543e-02 2.3766036707e+00 -4.1163983071e+00 2.3766036707e+00 4.1163983071e+00 
9200 6.5392655178e+00 -1.8588422374e-02 2.3769082296e+00 -4.1169258187e+00 2.3769082296e+00 4.1169258187e+00 
9300 6.5378430807e+00 -2.2578390747e-02 2.3772992614e+00 -4.1176031055e+00 2.3772992614e+00 4.1176031055e+00 
9400 6.5364582660e+00 -2.6447317228e-02 2.3777741520e+00 -4.1184256402e+00 2.3777741520e+00 4.1184256402e+00 
9500 6.5351095563e+00 -3.0196737209e-02 2.3783303097e+00 -4.1193889336e+00 2.3783303097e+00 4.1193889336e+00 
9600 6.5337954574e+00 -3.3828309035e-02 2.3789651686e+00 -4.1204885414e+00 2.3789651686e+00 4.1204885414e+00 
9700 6.5325144988e+00 -3.7343804976e-02 2.3796761919e+00 -4.1217200699e+00 2.3796761919e+00 4.1217200699e+00 
9800 6.5312652346e+00 -4.0745102107e-02 2.3804608754e+00 -4.1230791817e+00 2.3804608754e+00 4.1230791817e+00 
9900 6.5300462438e+00 -4.4034173143e-02 2.3813167505e+00 -4.1245616008e+00 2.3813167505e+00 4.1245616008e+00 
10000 6.5288561313e+00 -4.7213077278e-02 2.3822413865e+00 -4.1261631172e+00 2.3822413865e+00 4.1261631172e+00 
10100 6.5276935285e+00 -5.0283951076e-02 2.3832323933e+00 -4.1278795914e+00 2.3832323933e+00 4.1278795914e+00 
10200 6.5265570935e+00 -5.3248999463e-02 2.3842874238e+00 -4.1297069579e+00 2.3842874238e+00 4.1297069579e+00 
10300 6.5254455125e+00 -5.6110486859e-02 2.3854041758e+00 -4.1316412291e+00 2.3854041758e+00 4.1316412291e+00 
10400 6.5243574997e+00 -5.8870728490e-02 2.3865803936e+00 -4.1336784980e+00 2.3865803936e+00 4.1336784980e+00 
10500 6.5232917987e+00 -6.1532081924e-02 2.3878138696e+00 -4.1358149412e+00 2.3878138696e+00 4.1358149412e+00 
10600 6.5222471823e+00 -6.4096938858e-02 2.3891024461e+00 -4.1380468211e+00 2.3891024461e+00 4.1380468211e+00 
10700 6.5212224540e+00 -6.6567717185e-02 2.3904440154e+00 -4.1403704874e+00 2.3904440154e+00 4.1403704874e+00 
10800 6.5202164480e+00 -6.8946853372e-02 2.3918365219e+00 -4.1427823794e+00 2.3918365219e+00 4.1427823794e+00 
10900 6.5192280300e+00 -7.1236795180e-02 2.3932779619e+00 -4.1452790266e+00 2.3932779619e+00 4.1452790266e+00 
11000 6.5182560980e+00 -7.3439994720e-02 2.3947663843e+00 -4.1478570499e+00 2.3947663843e+00 4.1478570499e+00 
11100 6.5172995824e+00 -7.5558901894e-02 2.3962998915e+00 -4.1505131622e+00 2.3962998915e+00 4.1505131622e+00 
11200 6.5163574469e+00 -7.7595958206e-02 2.3978766386e+00 -4.1532441684e+00 2.3978766386e+00 4.1532441684e+00 
11300 6.5154286887e+00 -7.9553590964e-02 2.3994948345e+00 -4.1560469658e+00 2.3994948345e+00 4.1560469658e+00 
11400 6.5145123392e+00 -8.1434207886e-02 2.4011527406e+00 -4.1589185435e+00 2.4011527406e+00 4.1589185435e+00 
11500 6.5136074641e+00 -8.3240192093e-02 2.4028486716e+00 -4.1618559821e+00 2.4028486716e+00 4.1618559821e+00 
11600 6.5127131638e+00 -8.4973897506e-02 2.4045809943e+00 -4.1648564530e+00 2.4045809943e+00 4.1648564530e+00 
11700 6.5118285739e+00 -8.6637644637e-02 2.4063481274e+00 -4.1679172174e+00 2.4063481274e+00 4.1679172174e+00 
11800 6.5109528648e+00 -8.8233716775e-02 2.4081485411e+00 -4.1710356253e+00 2.4081485411e+00 4.1710356253e+00 
11900 6.5100852426e+00 -8.9764356543e-02 2.4099807556e+00 -4.1742091140e+00 2.4099807556e+00 4.1742091140e+00 
12000 6.5092249485e+00 -9.1231762836e-02 2.4118433412e+00 -4.1774352068e+00 2.4118433412e+00 4.1774352068e+00 
12100 6.5083712592e+00 -9.2638088126e-02 2.4137349167e+00 -4.1807115118e+00 2.4137349167e+00 4.1807115118e+00 
12200 6.5075234866e+00 -9.3985436102e-02 2.4156541489e+00 -4.1840357194e+00 2.4156541489e+00 4.1840357194e+00 
12300 6.5066809778e+00 -9.5275859659e-02 2.4175997511e+00 -4.1874056012e+00 2.4175997511e+00 4.1874056012e+00 
12400 6.5058431149e+00 -9.6511359199e-02 2.4195704824e+00 -4.1908190080e+00 2.4195704824e+00 4.1908190080e+00 
12500 6.5050093145e+00 -9.7693881243e-02 2.4215651465e+00 -4.1942738676e+00 2.4215651465e+00 4.1942738676e+00 
12600 6.5041790276e+00 -9.8825317326e-02 2.4235825903e+00 -4.1977681828e+00 2.4235825903e+00 4.1977681828e+00 
12700 6.5033517392e+00 -9.9907503168e-02 2.4256217030e+00 -4.2013000296e+00 2.4256217030e+00 4.2013000296e+00 
12800 6.5025269676e+00 -1.0094221810e-01 2.4276814148e+00 -4.2048675549e+00 2.4276814148e+00 4.2048675549e+00 
12900 6.5017042642e+00 -1.0193118471e-01 2.4297606953e+00 -4.2084689744e+00 2.4297606953e+00 4.2084689744e+00 
13000 6.5008832125e+00 -1.0287606877e-01 2.4318585528e+00 -4.2121025703e+00 2.4318585528e+00 4.2121025703e+00 
13100 6.5000634279e+00 -1.0377847925e-01 2.4339740330e+00 -4.2157666894e+00 2.4339740330e+00 4.2157666894e+00 
13200 6.4992445568e+00 -1.0463996866e-01 2.4361062171e+00 -4.2194597406e+00 2.4361062171e+00 4.2194597406e+00 
13300 6.4984262758e+00 -1.0546203347e-01 2.4382542213e+00 -4.2231801931e+00 2.4382542213e+00 4.2231801931e+00 
13400 6.4976082911e+00 -1.0624611469e-01 2.4404171954e+00 -4.2269265740e+00 2.4404171954e+00 4.2269265740e+00 
13500 6.4967903376e+00 -1.0699359863e-01 2.4425943210e+00 -4.2306974662e+00 2.4425943210e+00 4.2306974662e+00 
13600 6.4959721780e+00 -1.0770581776e-01 2.4447848111e+00 -4.2344915063e+00 2.4447848111e+00 4.2344915063e+00 
13700 6.4951536023e+00 -1.0838405169e-01 2.4469879084e+00 -4.2383073828e+00 2.4469879084e+00 4.2383073828e+00 
13800 6.4943344262e+00 -1.0902952822e-01 2.4492028843e+00 -4.2421438336e+00 2.4492028843e+00 4.2421438336e+00 
13900 6.4935144908e+00 -1.0964342454e-01 2.4514290377e+00 -4.2459996445e+00 2.4514290377e+00 4.2459996445e+00 
14000 6.4926936616e+00 -1.1022686840e-01 2.4536656939e+00 -4.2498736467e+00 2.4536656939e+00 4.2498736467e+00 
14100 6.4918718273e+00 -1.1078093949e-01 2.4559122035e+00 -4.2537647154e+00 2.4559122035e+00 4.2537647154e+00 
14200 6.4910488988e+00 -1.1130667068e-01 2.4581679413e+00 -4.2576717679e+00 2.4581679413e+00 4.2576717679e+00 
14300 6.4902248086e+00 -1.1180504949e-01 2.4604323053e+00 -4.2615937614e+00 2.4604323053e+00 4.2615937614e+00 
14400 6.4893995096e+00 -1.1227701946e-01 2.4627047158e+00 -4.2655296918e+00 2.4627047158e+00 4.2655296918e+00 
14500 6.4885729741e+00 -1.1272348162e-01 2.4649846141e+00 -4.2694785914e+00 2.4649846141e+00 4.2694785914e+00 
14600 6.4877451928e+00 -1.1314529593e-01 2.4672714618e+00 -4.2734395280e+00 2.4672714618e+00 4.2734395280e+00 
14700 6.4869161740e+00 -1.1354328275e-01 2.4695647402e+00 -4.2774116026e+00 2.4695647402e+00 4.2774116026e+00 
14800 6.4860859427e+00 -1.1391822432e-01 2.4718639486e+00 -4.2813939485e+00 2.4718639486e+00 4.2813939485e+00 
14900 6.4852545394e+00 -1.1427086620e-01 2.4741686044e+00 -4.2853857292e+00 2.4741686044e+00 4.2853857292e+00 
15000 6.4844220191e+00 -1.1460191876e-01 2.4764782413e+00 -4.2893861378e+00 2.4764782413e+00 4.2893861378e+00 
15100 6.4835884509e+00 -1.1491205860e-01 2.4787924096e+00 -4.2933943948e+00 2.4787924096e+00 4.2933943948e+00 
15200 6.4827539165e+00 -1.1520193001e-01 2.4811106745e+00 -4.2974097475e+00 2.4811106745e+00 4.2974097475e+00 
15300 6.4819185098e+00 -1.1547214631e-01 2.4834326161e+00 -4.3014314682e+00 2.4834326161e+00 4.3014314682e+00 
15400 6.4810823358e+00 -1.1572329129e-01 2.4857578281e+00 -4.3054588535e+00 2.4857578281e+00 4.3054588535e+00 
15500 6.4802455095e+00 -1.1595592056e-01 2.4880859176e+00 -4.3094912229e+00 2.4880859176e+00 4.3094912229e+00 
15600 6.4794081557e+00 -1.1617056282e-01 2.4904165044e+00 -4.3135279176e+00 2.4904165044e+00 4.3135279176e+00 
15700 6.4785704077e+00 -1.1636772121e-01 2.4927492202e+00 -4.3175682999e+00 2.4927492202e+00 4.3175682999e+00 
15800 6.4777324068e+00 -1.1654787453e-01 2.4950837082e+00 -4.3216117518e+00 2.4950837082e+00 4.3216117518e+00 
15900 6.4768943012e+00 -1.1671147846e-01 2.4974196227e+00 -4.3256576743e+00 2.4974196227e+00 4.3256576743e+00 
16000 6.4760562457e+00 -1.1685896677e-01 2.4997566280e+00 -4.3297054863e+00 2.4997566280e+00 4.3297054863e+00 
16100 6.4752184009e+00 -1.1699075243e-01 2.5020943988e+00 -4.3337546241e+00 2.5020943988e+00 4.3337546241e+00 
16200 6.4743809322e+00 -1.1710722875e-01 2.5044326190e+00 -4.3378045403e+00 2.5044326190e+00 4.3378045403e+00 
16300 6.4735440097e+00 -1.1720877042e-01 2.5067709817e+00 -4.3418547032e+00 2.5067709817e+00 4.3418547032e+00 
16400 6.4727078070e+00 -1.1729573457e-01 2.5091091883e+00 -4.3459045959e+00 2.5091091883e+00 4.3459045959e+00 
16500 6.4718725010e+00 -1.1736846172e-01 2.5114469489e+00 -4.3499537159e+00 2.5114469489e+00 4.3499537159e+00 
16600 6.4710382713e+00 -1.1742727676e-01 2.5137839810e+00 -4.3540015743e+00 2.5137839810e+00 4.3540015743e+00 
16700 6.4702052994e+00 -1.1747248987e-01 2.5161200100e+00 -4.3580476952e+00 2.5161200100e+00 4.3580476952e+00 
16800 6.4693737686e+00 -1.1750439735e-01 2.5184547682e+00 -4.3620916151e+00 2.5184547682e+00 4.3620916151e+00 
16900 6.4685438630e+00 -1.1752328251e-01 2.5207879950e+00 -4.3661328824e+00 2.5207879950e+00 4.3661328824e+00 
17000 6.4677157676e+00 -1.1752941643e-01 2.5231194361e+00 -4.3701710570e+00 2.5231194361e+00 4.3701710570e+00 
17100 6.4668896672e+00 -1.1752305873e-01 2.5254488439e+00 -4.3742057096e+00 2.5254488439e+00 4.3742057096e+00 
17200 6.4660657466e+00 -1.1750445831e-01 2.5277759766e+00 -4.3782364216e+00 2.5277759766e+00 4.3782364216e+00 
17300 6.4652441900e+00 -1.1747385401e-01 2.5301005981e+00 -4.3822627842e+00 2.5301005981e+00 4.3822627842e+00 
17400 6.4644251805e+00 -1.1743147532e-01 2.5324224782e+00 -4.3862843984e+00 2.5324224782e+00 4.3862843984e+00 
17500 6.4636088996e+00 -1.1737754293e-01 2.5347413917e+00 -4.3903008746e+00 2.5347413917e+00 4.3903008746e+00 
17600 6.4627955275e+00 -1.1731226938e-01 2.5370571190e+00 -4.3943118319e+00 2.5370571190e+00 4.3943118319e+00 
17700 6.4619852421e+00 -1.1723585961e-01 2.5393694452e+00 -4.3983168983e+00 2.5393694452e+00 4.3983168983e+00 
17800 6.4611782191e+00 -1.1714851145e-01 2.5416781602e+00 -4.4023157099e+00 2.5416781602e+00 4.4023157099e+00 
17900 6.4603746317e+00 -1.1705041616e-01 2.5439830586e+00 -4.4063079110e+00 2.5439830586e+00 4.4063079110e+00 
18000 6.4595746503e+00 -1.1694175890e-01 2.5462839395e+00 -4.4102931537e+00 2.5462839395e+00 4.4102931537e+00 
18100 6.4587784421e+00 -1.1682271916e-01 2.5485806064e+00 -4.4142710974e+00 2.5485806064e+00 4.4142710974e+00 
18200 6.4579861711e+00 -1.1669347115e-01 2.5508728669e+00 -4.4182414091e+00 2.5508728669e+00 4.4182414091e+00 
18300 6.4571979981e+00 -1.1655418427e-01 2.5531605327e+00 -4.4222037626e+00 2.5531605327e+00 4.4222037626e+00 
18400 6.4564140800e+00 -1.1640502341e-01 2.5554434196e+00 -4.4261578387e+00 2.5554434196e+00 4.4261578387e+00 
18500 6.4556345699e+00 -1.1624614932e-01 2.5577213472e+00 -4.4301033249e+00 2.5577213472e+00 4.4301033249e+00 
18600 6.4548596171e+00 -1.1607771893e-01 2.5599941387e+00 -4.4340399153e+00 2.5599941387e+00 4.4340399153e+00 
18700 6.4540893669e+00 -1.1589988567e-01 2.5622616212e+00 -4.4379673102e+00 2.5622616212e+00 4.4379673102e+00 
18800 6.4533239602e+00 -1.1571279973e-01 2.5645236252e+00 -4.4418852161e+00 2.5645236252e+00 4.4418852161e+00 
18900 6.4525635337e+00 -1.1551660834e-01 2.5667799848e+00 -4.4457933455e+00 2.5667799848e+00 4.4457933455e+00 
19000 6.4518082197e+00 -1.1531145599e-01 2.5690305375e+00 -4.4496914171e+00 2.5690305375e+00 4.4496914171e+00 
19100 6.4510581459e+00 -1.1509748470e-01 2.5712751241e+00 -4.4535791552e+00 2.5712751241e+00 4.4535791552e+00 
19200 6.4503134358e+00 -1.1487483420e-01 2.5735135887e+00 -4.4574562896e+00 2.5735135887e+00 4.4574562896e+00 
19300 6.4495742078e+00 -1.1464364214e-01 2.5757457787e+00 -4.4613225560e+00 2.5757457787e+00 4.4613225560e+00 
19400 6.4488405761e+00 -1.1440404427e-01 2.5779715445e+00 -4.4651776955e+00 2.5779715445e+00 4.4651776955e+00 
19500 6.4481126497e+00 -1.1415617461e-01 2.5801907397e+00 -4.4690214543e+00 2.5801907397e+00 4.4690214543e+00 
19600 6.4473905333e+00 -1.1390016559e-01 2.5824032209e+00 -4.4728535842e+00 2.5824032209e+00 4.4728535842e+00 
19700 6.4466743267e+00 -1.1363614821e-01 2.5846088479e+00 -4.4766738422e+00 2.5846088479e+00 4.4766738422e+00 
19800 6.4459641248e+00 -1.1336425219e-01 2.5868074831e+00 -4.4804819902e+00 2.5868074831e+00 4.4804819902e+00 
19900 6.4452600177e+00 -1.1308460604e-01 2.5889989922e+00 -4.4842777953e+00 2.5889989922e+00 4.4842777953e+00 
20000 6.4445620909e+00 -1.1279733721e-01 2.5911832436e+00 -4.4880610296e+00 2.5911832436e+00 4.4880610296e+00 
20100 6.4438704251e+00 -1.1250257218e-01 2.5933601085e+00 -4.4918314702e+00 2.5933601085e+00 4.4918314702e+00 
20200 6.4431850959e+00 -1.1220043656e-01 2.5955294609e+00 -4.4955888988e+00 2.5955294609e+00 4.4955888988e+00 
20300 6.4425061746e+00 -1.1189105515e-01 2.5976911778e+00 -4.4993331023e+00 2.5976911778e+00 4.4993331023e+00 
20400 6.4418337275e+00 -1.1157455205e-01 2.5998451386e+00 -4.5030638719e+00 2.5998451386e+00 4.5030638719e+00 
20500 6.4411678162e+00 -1.1125105068e-01 2.6019912258e+00 -4.5067810040e+00 2.6019912258e+00 4.5067810040e+00 
20600 6.4405084978e+00 -1.1092067390e-01 2.6041293244e+00 -4.5104842993e+00 2.6041293244e+00 4.5104842993e+00 
20700 6.4398558247e+00 -1.1058354403e-01 2.6062593219e+00 -4.5141735632e+00 2.6062593219e+00 4.5141735632e+00 
20800 6.4392098446e+00 -1.1023978291e-01 2.6083811087e+00 -4.5178486058e+00 2.6083811087e+00 4.5178486058e+00 
20900 6.4385706010e+00 -1.0988951191e-01 2.6104945778e+00 -4.5215092416e+00 2.6104945778e+00 4.5215092416e+00 
21000 6.4379381326e+00 -1.0953285205e-01 2.6125996246e+00 -4.5251552897e+00 2.6125996246e+00 4.5251552897e+00 
21100 6.4373124739e+00 -1.0916992394e-01 2.6146961473e+00 -4.5287865735e+00 2.6146961473e+00 4.5287865735e+00 
21200 6.4366936549e+00 -1.0880084789e-01 2.6167840465e+00 -4.5324029210e+00 2.6167840465e+00 4.5324029210e+00 
21300 6.4360817015e+00 -1.0842574386e-01 2.6188632254e+00 -4.5360041645e+00 2.6188632254e+00 4.5360041645e+00 
21400 6.4354766353e+00 -1.0804473155e-01 2.6209335897e+00 -4.5395901406e+00 2.6209335897e+00 4.5395901406e+00 
21500 6.4348784737e+00 -1.0765793039e-01 2.6229950475e+00 -4.5431606903e+00 2.6229950475e+00 4.5431606903e+00 
21600 6.4342872302e+00 -1.0726545955e-01 2.6250475096e+00 -4.5467156589e+00 2.6250475096e+00 4.5467156589e+00 
21700 6.4337029141e+00 -1.0686743796e-01 2.6270908891e+00 -4.5502548959e+00 2.6270908891e+00 4.5502548959e+00 
21800 6.4331255311e+00 -1.0646398432e-01 2.6291251015e+00 -4.5537782552e+00 2.6291251015e+00 4.5537782552e+00 
21900 6.4325550827e+00 -1.0605521711e-01 2.6311500648e+00 -4.5572855945e+00 2.6311500648e+00 4.5572855945e+00 
22000 6.4319915671e+00 -1.0564125460e-01 2.6331656995e+00 -4.5607767762e+00 2.6331656995e+00 4.5607767762e+00 
22100 6.4314349784e+00 -1.0522221484e-01 2.6351719283e+00 -4.5642516664e+00 2.6351719283e+00 4.5642516664e+00 
22200 6.4308853075e+00 -1.0479821566e-01 2.6371686764e+00 -4.5677101356e+00 2.6371686764e+00 4.5677101356e+00 
22300 6.4303425416e+00 -1.0436937470e-01 2.6391558713e+00 -4.5711520582e+00 2.6391558713e+00 4.5711520582e+00 
22400 6.4298066647e+00 -1.0393580937e-01 2.6411334430e+00 -4.5745773128e+00 2.6411334430e+00 4.5745773128e+00 
22500 6.4292776574e+00 -1.0349763688e-01 2.6431013236e+00 -4.5779857820e+00 2.6431013236e+00 4.5779857820e+00 
22600 6.4287554972e+00 -1.0305497422e-01 2.6450594476e+00 -4.5813773523e+00 2.6450594476e+00 4.5813773523e+00 
22700 6.4282401585e+00 -1.0260793814e-01 2.6470077520e+00 -4.5847519144e+00 2.6470077520e+00 4.5847519144e+00 
22800 6.4277316125e+00 -1.0215664518e-01 2.6489461756e+00 -4.5881093627e+00 2.6489461756e+00 4.5881093627e+00 
22900 6.4272298279e+00 -1.0170121163e-01 2.6508746601e+00 -4.5914495958e+00 2.6508746601e+00 4.5914495958e+00 
23000 6.4267347702e+00 -1.0124175352e-01 2.6527931489e+00 -4.5947725159e+00 2.6527931489e+00 4.5947725159e+00 
23100 6.4262464026e+00 -1.0077838665e-01 2.6547015880e+00 -4.5980780294e+00 2.6547015880e+00 4.5980780294e+00 
23200 6.4257646853e+00 -1.0031122655e-01 2.6565999254e+00 -4.6013660462e+00 2.6565999254e+00 4.6013660462e+00 
23300 6.4252895763e+00 -9.9840388461e-02 2.6584881115e+00 -4.6046364804e+00 2.6584881115e+00 4.6046364804e+00 
23400 6.4248210310e+00 -9.9365987337e-02 2.6603660987e+00 -4.6078892497e+00 2.6603660987e+00 4.6078892497e+00 
23500 6.4243590028e+00 -9.8888137838e-02 2.6622338417e+00 -4.6111242755e+00 2.6622338417e+00 4.6111242755e+00 
23600 6.4239034426e+00 -9.8406954309e-02 2.6640912974e+00 -4.6143414831e+00 2.6640912974e+00 4.6143414831e+00 
23700 6.4234542994e+00 -9.7922550767e-02 2.6659384247e+00 -4.6175408015e+00 2.6659384247e+00 4.6175408015e+00 
23800 6.4230115201e+00 -9.7435040887e-02 2.6677751848e+00 -4.6207221633e+00 2.6677751848e+00 4.6207221633e+00 
23900 6.4225750498e+00 -9.6944537991e-02 2.6696015409e+00 -4.6238855049e+00 2.6696015409e+00 4.6238855049e+00 
24000 6.4221448317e+00 -9.6451155029e-02 2.6714174584e+00 -4.6270307661e+00 2.6714174584e+00 4.6270307661e+00 
24100 6.4217208076e+00 -9.5955004565e-02 2.6732229046e+00 -4.6301578907e+00 2.6732229046e+00 4.6301578907e+00 
24200 6.4213029173e+00 -9.5456198760e-02 2.6750178491e+00 -4.6332668258e+00 2.6750178491e+00 4.6332668258e+00 
24300 6.4208910993e+00 -9.4954849357e-02 2.6768022634e+00 -4.6363575220e+00 2.6768022634e+00 4.6363575220e+00 
24400 6.4204852910e+00 -9.4451067662e-02 2.6785761211e+00 -4.6394299338e+00 2.6785761211e+00 4.6394299338e+00 
24500 6.4200854279e+00 -9.3944964527e-02 2.6803393979e+00 -4.6424840188e+00 2.6803393979e+00 4.6424840188e+00 
24600 6.4196914449e+00 -9.3436650334e-02 2.6820920714e+00 -4.6455197383e+00 2.6820920714e+00 4.6455197383e+00 
24700 6.4193032754e+00 -9.2926234971e-02 2.6838341212e+00 -4.6485370570e+00 2.6838341212e+00 4.6485370570e+00 
24800 6.4189208520e+00 -9.2413827820e-02 2.6855655288e+00 -4.6515359430e+00 2.6855655288e+00 4.6515359430e+00 
24900 6.4185441063e+00 -9.1899537731e-02 2.6872862779e+00 -4.6545163679e+00 2.6872862779e+00 4.6545163679e+00 
25000 6.4181729691e+00 -9.1383473005e-02 2.6889963540e+00 -4.6574783064e+00 2.6889963540e+00 4.6574783064e+00 
25100 6.4178073705e+00 -9.0865741375e-02 2.6906957444e+00 -4.6604217369e+00 2.6906957444e+00 4.6604217369e+00 
25200 6.4174472398e+00 -9.0346449982e-02 2.6923844384e+00 -4.6633466409e+00 2.6923844384e+00 4.6633466409e+00 
25300 6.4170925060e+00 -8.9825705355e-02 2.6940624274e+00 -4.6662530030e+00 2.6940624274e+00 4.6662530030e+00 
25400 6.4167430975e+00 -8.9303613390e-02 2.6957297044e+00 -4.6691408114e+00 2.6957297044e+00 4.6691408114e+00 
25500 6.4163989422e+00 -8.8780279324e-02 2.6973862642e+00 -4.6720100573e+00 2.6973862642e+00 4.6720100573e+00 
25600 6.4160599678e+00 -8.8255807718e-02 2.6990321038e+00 -4.6748607350e+00 2.6990321038e+00 4.6748607350e+00 
25700 6.4157261019e+00 -8.7730302430e-02 2.7006672217e+00 -4.6776928423e+00 2.7006672217e+00 4.6776928423e+00 
25800 6.4153972717e+00 -8.7203866591e-02 2.7022916182e+00 -4.6805063796e+00 2.7022916182e+00 4.6805063796e+00 
25900 6.4150734044e+00 -8.6676602582e-02 2.7039052957e+00 -4.6833013509e+00 2.7039052957e+00 4.6833013509e+00 
26000 6.4147544274e+00 -8.6148612012e-02 2.7055082579e+00 -4.6860777629e+00 2.7055082579e+00 4.6860777629e+00 
26100 6.4144402679e+00 -8.5619995689e-02 2.7071005106e+00 -4.6888356255e+00 2.7071005106e+00 4.6888356255e+00 
26200 6.4141308534e+00 -8.5090853598e-02 2.7086820611e+00 -4.6915749514e+00 2.7086820611e+00 4.6915749514e+00 
26300 6.4138261116e+00 -8.4561284873e-02 2.7102529187e+00 -4.6942957565e+00 2.7102529187e+00 4.6942957565e+00 
26400 6.4135259703e+00 -8.4031387775e-02 2.7118130940e+00 -4.6969980594e+00 2.7118130940e+00 4.6969980594e+00 
26500 6.4132303578e+00 -8.3501259662e-02 2.7133625994e+00 -4.6996818816e+00 2.7133625994e+00 4.6996818816e+00 
26600 6.4129392027e+00 -8.2970996965e-02 2.7149014492e+00 -4.7023472475e+00 2.7149014492e+00 4.7023472475e+00 
26700 6.4126524342e+00 -8.2440695161e-02 2.7164296589e+00 -4.7049941844e+00 2.7164296589e+00 4.7049941844e+00 
26800 6.4123699818e+00 -8.1910448748e-02 2.7179472459e+00 -4.7076227222e+00 2.7179472459e+00 4.7076227222e+00 
26900 6.4120917758e+00 -8.1380351212e-02 2.7194542290e+00 -4.7102328936e+00 2.7194542290e+00 4.7102328936e+00 
27000 6.4118177467e+00 -8.0850495010e-02 2.7209506287e+00 -4.7128247339e+00 2.7209506287e+00 4.7128247339e+00 
27100 6.4115478261e+00 -8.0320971534e-02 2.7224364670e+00 -4.7153982811e+00 2.7224364670e+00 4.7153982811e+00 
27200 6.4112819460e+00 -7.9791871089e-02 2.7239117672e+00 -4.7179535761e+00 2.7239117672e+00 4.7179535761e+00 
27300 6.4110200392e+00 -7.9263282863e-02 2.7253765543e+00 -4.7204906618e+00 2.7253765543e+00 4.7204906618e+00 
27400 6.4107620394e+00 -7.8735294902e-02 2.7268308548e+00 -4.7230095841e+00 2.7268308548e+00 4.7230095841e+00 
27500 6.4105078810e+00 -7.8207994084e-02 2.7282746964e+00 -4.7255103912e+00 2.7282746964e+00 4.7255103912e+00 
27600 6.4102574992e+00 -7.7681466088e-02 2.7297081085e+00 -4.7279931337e+00 2.7297081085e+00 4.7279931337e+00 
27700 6.4100108301e+00 -7.7155795371e-02 2.7311311216e+00 -4.7304578648e+00 2.7311311216e+00 4.7304578648e+00 
27800 6.4097678109e+00 -7.6631065141e-02 2.7325437679e+00 -4.7329046399e+00 2.7325437679e+00 4.7329046399e+00 
27900 6.4095283794e+00 -7.6107357330e-02 2.7339460806e+00 -4.7353335167e+00 2.7339460806e+00 4.7353335167e+00 
28000 6.4092924746e+00 -7.5584752568e-02 2.7353380943e+00 -4.7377445553e+00 2.7353380943e+00 4.7377445553e+00 
28100 6.4090600364e+00 -7.5063330159e-02 2.7367198452e+00 -4.7401378179e+00 2.7367198452e+00 4.7401378179e+00 
28200 6.4088310057e+00 -7.4543168054e-02 2.7380913702e+00 -4.7425133689e+00 2.7380913702e+00 4.7425133689e+00 
28300 6.4086053244e+00 -7.4024342830e-02 2.7394527079e+00 -4.7448712750e+00 2.7394527079e+00 4.7448712750e+00 
28400 6.4083829355e+00 -7.3506929659e-02 2.7408038980e+00 -4.7472116049e+00 2.7408038980e+00 4.7472116049e+00 
28500 6.4081637829e+00 -7.2991002294e-02 2.7421449812e+00 -4.7495344291e+00 2.7421449812e+00 4.7495344291e+00 
28600 6.4079478117e+00 -7.2476633038e-02 2.7434759995e+00 -4.7518398204e+00 2.7434759995e+00 4.7518398204e+00 
28700 6.4077349679e+00 -7.1963892725e-02 2.7447969960e+00 -4.7541278536e+00 2.7447969960e+00 4.7541278536e+00 
28800 6.4075251987e+00 -7.1452850701e-02 2.7461080150e+00 -4.7563986050e+00 2.7461080150e+00 4.7563986050e+00 
28900 6.4073184523e+00 -7.0943574798e-02 2.7474091016e+00 -4.7586521532e+00 2.7474091016e+00 4.7586521532e+00 
29000 6.4071146779e+00 -7.0436131319e-02 2.7487003023e+00 -4.7608885783e+00 2.7487003023e+00 4.7608885783e+00 
29100 6.4069138260e+00 -6.9930585017e-02 2.7499816643e+00 -4.7631079624e+00 2.7499816643e+00 4.7631079624e+00 
29200 6.4067158480e+00 -6.9426999076e-02 2.7512532359e+00 -4.7653103890e+00 2.7512532359e+00 4.7653103890e+00 
29300 6.4065206962e+00 -6.8925435095e-02 2.7525150663e+00 -4.7674959435e+00 2.7525150663e+00 4.7674959435e+00 
29400 6.4063283242e+00 -6.8425953072e-02 2.7537672058e+00 -4.7696647127e+00 2.7537672058e+00 4.7696647127e+00 
29500 6.4061386867e+00 -6.7928611389e-02 2.7550097055e+00 -4.7718167853e+00 2.7550097055e+00 4.7718167853e+00 
29600 6.4059517392e+00 -6.7433466796e-02 2.7562426172e+00 -4.7739522510e+00 2.7562426172e+00 4.7739522510e+00 
29700 6.4057674383e+00 -6.6940574402e-02 2.7574659938e+00 -4.7760712014e+00 2.7574659938e+00 4.7760712014e+00 
29800 6.4055857417e+00 -6.6449987659e-02 2.7586798888e+00 -4.7781737292e+00 2.7586798888e+00 4.7781737292e+00 
29900 6.4054066081e+00 -6.5961758352e-02 2.7598843566e+00 -4.7802599286e+00 2.7598843566e+00 4.7802599286e+00 
30000 6.4052299971e+00 -6.5475936594e-02 2.7610794522e+00 -4.7823298950e+00 2.7610794522e+00 4.7823298950e+00 
30100 6.4050558693e+00 -6.4992570811e-02 2.7622652316e+00 -4.7843837251e+00 2.7622652316e+00 4.7843837251e+00 
30200 6.4048841863e+00 -6.4511707742e-02 2.7634417512e+00 -4.7864215168e+00 2.7634417512e+00 4.7864215168e+00 
30300 6.4047149106e+00 -6.4033392425e-02 2.7646090681e+00 -4.7884433690e+00 2.7646090681e+00 4.7884433690e+00 
30400 6.4045480056e+00 -6.3557668203e-02 2.7657672402e+00 -4.7904493819e+00 2.7657672402e+00 4.7904493819e+00 
30500 6.4043834358e+00 -6.3084576710e-02 2.7669163258e+00 -4.7924396566e+00 2.7669163258e+00 4.7924396566e+00 
30600 6.4042211662e+00 -6.2614157879e-02 2.7680563839e+00 -4.7944142951e+00 2.7680563839e+00 4.7944142951e+00 
30700 6.4040611630e+00 -6.2146449933e-02 2.7691874739e+00 -4.7963734005e+00 2.7691874739e+00 4.7963734005e+00 
30800 6.4039033931e+00 -6.1681489393e-02 2.7703096559e+00 -4.7983170767e+00 2.7703096559e+00 4.7983170767e+00 
30900 6.4037478243e+00 -6.1219311074e-02 2.7714229903e+00 -4.8002454284e+00 2.7714229903e+00 4.8002454284e+00 
31000 6.4035944250e+00 -6.0759948095e-02 2.7725275379e+00 -4.8021585611e+00 2.7725275379e+00 4.8021585611e+00 
31100 6.4034431646e+00 -6.0303431879e-02 2.7736233602e+00 -4.8040565809e+00 2.7736233602e+00 4.8040565809e+00 
31200 6.4032940131e+00 -5.9849792158e-02 2.7747105188e+00 -4.8059395949e+00 2.7747105188e+00 4.8059395949e+00 
31300 6.4031469414e+00 -5.9399056988e-02 2.7757890758e+00 -4.8078077104e+00 2.7757890758e+00 4.8078077104e+00 
31400 6.4030019209e+00 -5.8951252750e-02 2.7768590935e+00 -4.8096610355e+00 2.7768590935e+00 4.8096610355e+00 
31500 6.4028589238e+00 -5.8506404163e-02 2.7779206347e+00 -4.8114996788e+00 2.7779206347e+00 4.8114996788e+00 
31600 6.4027179230e+00 -5.8064534298e-02 2.7789737624e+00 -4.8133237493e+00 2.7789737624e+00 4.8133237493e+00 
31700 6.4025788919e+00 -5.7625664587e-02 2.7800185396e+00 -4.8151333566e+00 2.7800185396e+00 4.8151333566e+00 
31800 6.4024418045e+00 -5.7189814839e-02 2.7810550299e+00 -4.8169286104e+00 2.7810550299e+00 4.8169286104e+00 
31900 6.4023066357e+00 -5.6757003253e-02 2.7820832968e+00 -4.8187096210e+00 2.7820832968e+00 4.8187096210e+00 
32000 6.4021733605e+00 -5.6327246438e-02 2.7831034041e+00 -4.8204764986e+00 2.7831034041e+00 4.8204764986e+00 
32100 6.4020419549e+00 -5.5900559430e-02 2.7841154157e+00 -4.8222293542e+00 2.7841154157e+00 4.8222293542e+00 
32200 6.4019123951e+00 -5.5476955706e-02 2.7851193956e+00 -4.8239682983e+00 2.7851193956e+00 4.8239682983e+00 
32300 6.4017846580e+00 -5.5056447209e-02 2.7861154079e+00 -4.8256934422e+00 2.7861154079e+00 4.8256934422e+00 
32400 6.4016587208e+00 -5.4639044369e-02 2.7871035166e+00 -4.8274048967e+00 2.7871035166e+00 4.8274048967e+00 
32500 6.4015345614e+00 -5.4224756123e-02 2.7880837860e+00 -4.8291027731e+00 2.7880837860e+00 4.8291027731e+00 
32600 6.4014121578e+00 -5.3813589935e-02 2.7890562802e+00 -4.8307871825e+00 2.7890562802e+00 4.8307871825e+00 
32700 6.4012914888e+00 -5.3405551829e-02 2.7900210634e+00 -4.8324582360e+00 2.7900210634e+00 4.8324582360e+00 
32800 6.4011725334e+00 -5.3000646405e-02 2.7909781996e+00 -4.8341160446e+00 2.7909781996e+00 4.8341160446e+00 
32900 6.4010552709e+00 -5.2598876869e-02 2.7919277529e+00 -4.8357607191e+00 2.7919277529e+00 4.8357607191e+00 
33000 6.4009396811e+00 -5.2200245060e-02 2.7928697872e+00 -4.8373923703e+00 2.7928697872e+00 4.8373923703e+00 
33100 6.4008257442e+00 -5.1804751477e-02 2.7938043663e+00 -4.8390111089e+00 2.7938043663e+00 4.8390111089e+00 
33200 6.4007134406e+00 -5.1412395305e-02 2.7947315539e+00 -4.8406170449e+00 2.7947315539e+00 4.8406170449e+00 
33300 6.4006027511e+00 -5.1023174449e-02 2.7956514135e+00 -4.8422102885e+00 2.7956514135e+00 4.8422102885e+00 
33400 6.4004936567e+00 -5.0637085559e-02 2.7965640085e+00 -4.8437909494e+00 2.7965640085e+00 4.8437909494e+00 
33500 6.4003861387e+00 -5.0254124062e-02 2.7974694020e+00 -4.8453591369e+00 2.7974694020e+00 4.8453591369e+00 
33600 6.4002801789e+00 -4.9874284194e-02 2.7983676569e+00 -4.8469149601e+00 2.7983676569e+00 4.8469149601e+00 
33700 6.4001757589e+00 -4.9497559031e-02 2.7992588359e+00 -4.8484585274e+00 2.7992588359e+00 4.8484585274e+00 
33800 6.4000728610e+00 -4.9123940519e-02 2.8001430015e+00 -4.8499899470e+00 2.8001430015e+00 4.8499899470e+00 
33900 6.3999714674e+00 -4.8753419510e-02 2.8010202157e+00 -4.8515093266e+00 2.8010202157e+00 4.8515093266e+00 
34000 6.3998715608e+00 -4.8385985792e-02 2.8018905404e+00 -4.8530167732e+00 2.8018905404e+00 4.8530167732e+00 
34100 6.3997731238e+00 -4.8021628121e-02 2.8027540372e+00 -4.8545123936e+00 2.8027540372e+00 4.8545123936e+00 
34200 6.3996761394e+00 -4.7660334260e-02 2.8036107673e+00 -4.8559962936e+00 2.8036107673e+00 4.8559962936e+00 
34300 6.3995805908e+00 -4.7302091006e-02 2.8044607915e+00 -4.8574685787e+00 2.8044607915e+00 4.8574685787e+00 
34400 6.3994864612e+00 -4.6946884229e-02 2.8053041704e+00 -4.8589293538e+00 2.8053041704e+00 4.8589293538e+00 
34500 6.3993937342e+00 -4.6594698903e-02 2.8061409641e+00 -4.8603787231e+00 2.8061409641e+00 4.8603787231e+00 
34600 6.3993023933e+00 -4.6245519141e-02 2.8069712324e+00 -4.8618167899e+00 2.8069712324e+00 4.8618167899e+00 
34700 6.3992124224e+00 -4.5899328230e-02 2.8077950346e+00 -4.8632436571e+00 2.8077950346e+00 4.8632436571e+00 
34800 6.3991238053e+00 -4.5556108664e-02 2.8086124296e+00 -4.8646594268e+00 2.8086124296e+00 4.8646594268e+00 
34900 6.3990365262e+00 -4.5215842180e-02 2.8094234760e+00 -4.8660642004e+00 2.8094234760e+00 4.8660642004e+00 
35000 6.3989505692e+00 -4.4878509789e-02 2.8102282319e+00 -4.8674580785e+00 2.8102282319e+00 4.8674580785e+00 
35100 6.3988659186e+00 -4.4544091815e-02 2.8110267548e+00 -4.8688411608e+00 2.8110267548e+00 4.8688411608e+00 
35200 6.3987825590e+00 -4.4212567922e-02 2.8118191020e+00 -4.8702135464e+00 2.8118191020e+00 4.8702135464e+00 
35300 6.3987004747e+00 -4.3883917156e-02 2.8126053302e+00 -4.8715753335e+00 2.8126053302e+00 4.8715753335e+00 
35400 6.3986196506e+00 -4.3558117971e-02 2.8133854956e+00 -4.8729266196e+00 2.8133854956e+00 4.8729266196e+00 
35500 6.3985400714e+00 -4.3235148266e-02 2.8141596539e+00 -4.8742675011e+00 2.8141596539e+00 4.8742675011e+00 
35600 6.3984617219e+00 -4.2914985417e-02 2.8149278604e+00 -4.8755980738e+00 2.8149278604e+00 4.8755980738e+00 
35700 6.3983845872e+00 -4.2597606311e-02 2.8156901698e+00 -4.8769184325e+00 2.8156901698e+00 4.8769184325e+00 
35800 6.3983086523e+00 -4.2282987375e-02 2.8164466364e+00 -4.8782286711e+00 2.8164466364e+00 4.8782286711e+00 
35900 6.3982339024e+00 -4.1971104612e-02 2.8171973140e+00 -4.8795288828e+00 2.8171973140e+00 4.8795288828e+00 
36000 6.3981603228e+00 -4.1661933627e-02 2.8179422557e+00 -4.8808191596e+00 2.8179422557e+00 4.8808191596e+00 
36100 6.3980878988e+00 -4.1355449664e-02 2.8186815141e+00 -4.8820995929e+00 2.8186815141e+00 4.8820995929e+00 
36200 6.3980166159e+00 -4.1051627632e-02 2.8194151416e+00 -4.8833702729e+00 2.8194151416e+00 4.8833702729e+00 
36300 6.3979464596e+00 -4.0750442136e-02 2.8201431897e+00 -4.8846312891e+00 2.8201431897e+00 4.8846312891e+00 
36400 6.3978774156e+00 -4.0451867507e-02 2.8208657094e+00 -4.8858827300e+00 2.8208657094e+00 4.8858827300e+00 
36500 6.3978094697e+00 -4.0155877830e-02 2.8215827513e+00 -4.8871246831e+00 2.8215827513e+00 4.8871246831e+00 
36600 6.3977426076e+00 -3.9862446972e-02 2.8222943655e+00 -4.8883572349e+00 2.8222943655e+00 4.8883572349e+00 
36700 6.3976768152e+00 -3.9571548611e-02 2.8230006013e+00 -4.8895804713e+00 2.8230006013e+00 4.8895804713e+00 
36800 6.3976120786e+00 -3.9283156262e-02 2.8237015078e+00 -4.8907944769e+00 2.8237015078e+00 4.8907944769e+00 
36900 6.3975483838e+00 -3.8997243303e-02 2.8243971332e+00 -4.8919993354e+00 2.8243971332e+00 4.8919993354e+00 
37000 6.3974857171e+00 -3.8713782999e-02 2.8250875253e+00 -4.8931951296e+00 2.8250875253e+00 4.8931951296e+00 
37100 6.3974240647e+00 -3.8432748533e-02 2.8257727315e+00 -4.8943819415e+00 2.8257727315e+00 4.8943819415e+00 
37200 6.3973634129e+00 -3.8154113022e-02 2.8264527983e+00 -4.8955598519e+00 2.8264527983e+00 4.8955598519e+00 
37300 6.3973037483e+00 -3.7877849548e-02 2.8271277721e+00 -4.8967289408e+00 2.8271277721e+00 4.8967289408e+00 
37400 6.3972450573e+00 -3.7603931174e-02 2.8277976984e+00 -4.8978892872e+00 2.8277976984e+00 4.8978892872e+00 
37500 6.3971873267e+00 -3.7332330974e-02 2.8284626223e+00 -4.8990409692e+00 2.8284626223e+00 4.8990409692e+00 
37600 6.3971305432e+00 -3.7063022047e-02 2.8291225883e+00 -4.9001840638e+00 2.8291225883e+00 4.9001840638e+00 
37700 6.3970746936e+00 -3.6795977542e-02 2.8297776404e+00 -4.9013186472e+00 2.8297776404e+00 4.9013186472e+00 
37800 6.3970197649e+00 -3.6531170675e-02 2.8304278220e+00 -4.9024447948e+00 2.8304278220e+00 4.9024447948e+00 
37900 6.3969657441e+00 -3.6268574753e-02 2.8310731760e+00 -4.9035625807e+00 2.8310731760e+00 4.9035625807e+00 
38000 6.3969126184e+00 -3.6008163188e-02 2.8317137447e+00 -4.9046720784e+00 2.8317137447e+00 4.9046720784e+00 
38100 6.3968603750e+00 -3.5749909514e-02 2.8323495701e+00 -4.9057733603e+00 2.8323495701e+00 4.9057733603e+00 
38200 6.3968090012e+00 -3.5493787411e-02 2.8329806935e+00 -4.9068664979e+00 2.8329806935e+00 4.9068664979e+00 
38300 6.3967584845e+00 -3.5239770711e-02 2.8336071555e+00 -4.9079515619e+00 2.8336071555e+00 4.9079515619e+00 
38400 6.3967088125e+00 -3.4987833422e-02 2.8342289964e+00 -4.9090286221e+00 2.8342289964e+00 4.9090286221e+00 
38500 6.3966599729e+00 -3.4737949740e-02 2.8348462560e+00 -4.9100977471e+00 2.8348462560e+00 4.9100977471e+00 
38600 6.3966119534e+00 -3.4490094061e-02 2.8354589736e+00 -4.9111590050e+00 2.8354589736e+00 4.9111590050e+00 
38700 6.3965647418e+00 -3.4244240996e-02 2.8360671878e+00 -4.9122124629e+00 2.8360671878e+00 4.9122124629e+00 
38800 6.3965183263e+00 -3.4000365385e-02 2.8366709368e+00 -4.9132581869e+00 2.8366709368e+00 4.9132581869e+00 
38900 6.3964726949e+00 -3.3758442307e-02 2.8372702584e+00 -4.9142962423e+00 2.8372702584e+00 4.9142962423e+00 
39000 6.3964278358e+00 -3.3518447092e-02 2.8378651897e+00 -4.9153266937e+00 2.8378651897e+00 4.9153266937e+00 
39100 6.3963837374e+00 -3.3280355329e-02 2.8384557676e+00 -4.9163496046e+00 2.8384557676e+00 4.9163496046e+00 
39200 6.3963403881e+00 -3.3044142880e-02 2.8390420283e+00 -4.9173650379e+00 2.8390420283e+00 4.9173650379e+00 
39300 6.3962977765e+00 -3.2809785888e-02 2.8396240076e+00 -4.9183730555e+00 2.8396240076e+00 4.9183730555e+00 
39400 6.3962558913e+00 -3.2577260782e-02 2.8402017407e+00 -4.9193737187e+00 2.8402017407e+00 4.9193737187e+00 
39500 6.3962147212e+00 -3.2346544290e-02 2.8407752626e+00 -4.9203670877e+00 2.8407752626e+00 4.9203670877e+00 
39600 6.3961742553e+00 -3.2117613441e-02 2.8413446076e+00 -4.9213532222e+00 2.8413446076e+00 4.9213532222e+00 
39700 6.3961344824e+00 -3.1890445577e-02 2.8419098097e+00 -4.9223321809e+00 2.8419098097e+00 4.9223321809e+00 
39800 6.3960953919e+00 -3.1665018354e-02 2.8424709024e+00 -4.9233040219e+00 2.8424709024e+00 4.9233040219e+00 
39900 6.3960569729e+00 -3.1441309750e-02 2.8430279187e+00 -4.9242688025e+00 2.8430279187e+00 4.9242688025e+00 
40000 6.3960192149e+00 -3.1219298072e-02 2.8435808912e+00 -4.9252265790e+00 2.8435808912e+00 4.9252265790e+00 
40100 6.3959821073e+00 -3.0998961954e-02 2.8441298523e+00 -4.9261774075e+00 2.8441298523e+00 4.9261774075e+00 
40200 6.3959456399e+00 -3.0780280366e-02 2.8446748336e+00 -4.9271213428e+00 2.8446748336e+00 4.9271213428e+00 
40300 6.3959098024e+00 -3.0563232615e-02 2.8452158665e+00 -4.9280584393e+00 2.8452158665e+00 4.9280584393e+00 
40400 6.3958745847e+00 -3.0347798348e-02 2.8457529821e+00 -4.9289887507e+00 2.8457529821e+00 4.9289887507e+00 
40500 6.3958399767e+00 -3.0133957556e-02 2.8462862108e+00 -4.9299123300e+00 2.8462862108e+00 4.9299123300e+00 
40600 6.3958059686e+00 -2.9921690572e-02 2.8468155829e+00 -4.9308292294e+00 2.8468155829e+00 4.9308292294e+00 
40700 6.3957725507e+00 -2.9710978074e-02 2.8473411282e+00 -4.9317395006e+00 2.8473411282e+00 4.9317395006e+00 
40800 6.3957397133e+00 -2.9501801087e-02 2.8478628761e+00 -4.9326431945e+00 2.8478628761e+00 4.9326431945e+00 
40900 6.3957074470e+00 -2.9294140981e-02 2.8483808557e+00 -4.9335403614e+00 2.8483808557e+00 4.9335403614e+00 
41000 6.3956757423e+00 -2.9087979472e-02 2.8488950956e+00 -4.9344310510e+00 2.8488950956e+00 4.9344310510e+00 
41100 6.3956445900e+00 -2.8883298623e-02 2.8494056242e+00 -4.9353153125e+00 2.8494056242e+00 4.9353153125e+00 
41200 6.3956139809e+00 -2.8680080840e-02 2.8499124695e+00 -4.9361931942e+00 2.8499124695e+00 4.9361931942e+00 
41300 6.3955839060e+00 -2.8478308872e-02 2.8504156590e+00 -4.9370647441e+00 2.8504156590e+00 4.9370647441e+00 
41400 6.3955543565e+00 -2.8277965812e-02 2.8509152202e+00 -4.9379300095e+00 2.8509152202e+00 4.9379300095e+00 
41500 6.3955253235e+00 -2.8079035089e-02 2.8514111800e+00 -4.9387890370e+00 2.8514111800e+00 4.9387890370e+00 
41600 6.3954967985e+00 -2.7881500472e-02 2.8519035650e+00 -4.9396418729e+00 2.8519035650e+00 4.9396418729e+00 
41700 6.3954687727e+00 -2.7685346064e-02 2.8523924016e+00 -4.9404885627e+00 2.8523924016e+00 4.9404885627e+00 
41800 6.3954412380e+00 -2.7490556300e-02 2.8528777158e+00 -4.9413291516e+00 2.8528777158e+00 4.9413291516e+00 
41900 6.3954141858e+00 -2.7297115945e-02 2.8533595334e+00 -4.9421636840e+00 2.8533595334e+00 4.9421636840e+00 
42000 6.3953876081e+00 -2.7105010086e-02 2.8538378796e+00 -4.9429922041e+00 2.8538378796e+00 4.9429922041e+00 
42100 6.3953614968e+00 -2.6914224135e-02 2.8543127798e+00 -4.9438147553e+00 2.8543127798e+00 4.9438147553e+00 
42200 6.3953358440e+00 -2.6724743821e-02 2.8547842587e+00 -4.9446313807e+00 2.8547842587e+00 4.9446313807e+00 
42300 6.3953106418e+00 -2.6536555186e-02 2.8552523409e+00 -4.9454421229e+00 2.8552523409e+00 4.9454421229e+00 
42400 6.3952858824e+00 -2.6349644582e-02 2.8557170507e+00 -4.9462470239e+00 2.8557170507e+00 4.9462470239e+00 
42500 6.3952615584e+00 -2.6163998667e-02 2.8561784121e+00 -4.9470461253e+00 2.8561784121e+00 4.9470461253e+00 
42600 6.3952376621e+00 -2.5979604396e-02 2.8566364490e+00 -4.9478394683e+00 2.8566364490e+00 4.9478394683e+00 
42700 6.3952141863e+00 -2.5796449024e-02 2.8570911847e+00 -4.9486270937e+00 2.8570911847e+00 4.9486270937e+00 
42800 6.3951911236e+00 -2.5614520094e-02 2.8575426426e+00 -4.9494090418e+00 2.8575426426e+00 4.9494090418e+00 
42900 6.3951684669e+00 -2.5433805435e-02 2.8579908457e+00 -4.9501853523e+00 2.8579908457e+00 4.9501853523e+00 
43000 6.3951462092e+00 -2.5254293159e-02 2.8584358168e+00 -4.9509560648e+00 2.8584358168e+00 4.9509560648e+00 
43100 6.3951243435e+00 -2.5075971649e-02 2.8588775784e+00 -4.9517212184e+00 2.8588775784e+00 4.9517212184e+00 
43200 6.3951028629e+00 -2.4898829561e-02 2.8593161528e+00 -4.9524808516e+00 2.8593161528e+00 4.9524808516e+00 
43300 6.3950817609e+00 -2.4722855814e-02 2.8597515622e+00 -4.9532350027e+00 2.8597515622e+00 4.9532350027e+00 
43400 6.3950610306e+00 -2.4548039588e-02 2.8601838284e+00 -4.9539837098e+00 2.8601838284e+00 4.9539837098e+00 
43500 6.3950406658e+00 -2.4374370314e-02 2.8606129731e+00 -4.9547270101e+00 2.8606129731e+00 4.9547270101e+00 
43600 6.3950206598e+00 -2.4201837673e-02 2.8610390177e+00 -4.9554649411e+00 2.8610390177e+00 4.9554649411e+00 
43700 6.3950010064e+00 -2.4030431585e-02 2.8614619835e+00 -4.9561975393e+00 2.8614619835e+00 4.9561975393e+00 
43800 6.3949816995e+00 -2.3860142210e-02 2.8618818916e+00 -4.9569248414e+00 2.8618818916e+00 4.9569248414e+00 
43900 6.3949627328e+00 -2.3690959938e-02 2.8622987627e+00 -4.9576468835e+00 2.8622987627e+00 4.9576468835e+00 
44000 6.3949441005e+00 -2.3522875382e-02 2.8627126177e+00 -4.9583637013e+00 2.8627126177e+00 4.9583637013e+00 
44100 6.3949257965e+00 -2.3355879378e-02 2.8631234769e+00 -4.9590753304e+00 2.8631234769e+00 4.9590753304e+00 
44200 6.3949078151e+00 -2.3189962972e-02 2.8635313607e+00 -4.9597818058e+00 2.8635313607e+00 4.9597818058e+00 
44300 6.3948901506e+00 -2.3025117421e-02 2.8639362892e+00 -4.9604831626e+00 2.8639362892e+00 4.9604831626e+00 
44400 6.3948727973e+00 -2.2861334183e-02 2.8643382824e+00 -4.9611794352e+00 2.8643382824e+00 4.9611794352e+00 
44500 6.3948557498e+00 -2.2698604914e-02 2.8647373600e+00 -4.9618706578e+00 2.8647373600e+00 4.9618706578e+00 
44600 6.3948390025e+00 -2.2536921460e-02 2.8651335417e+00 -4.9625568646e+00 2.8651335417e+00 4.9625568646e+00 
44700 6.3948225501e+00 -2.2376275853e-02 2.8655268468e+00 -4.9632380892e+00 2.8655268468e+00 4.9632380892e+00 
44800 6.3948063874e+00 -2.2216660306e-02 2.8659172948e+00 -4.9639143649e+00 2.8659172948e+00 4.9639143649e+00 
44900 6.3947905092e+00 -2.2058067207e-02 2.8663049048e+00 -4.9645857250e+00 2.8663049048e+00 4.9645857250e+00 
45000 6.3947749105e+00 -2.1900489112e-02 2.8666896957e+00 -4.9652522024e+00 2.8666896957e+00 4.9652522024e+00 
45100 6.3947595862e+00 -2.1743918742e-02 2.8670716863e+00 -4.9659138297e+00 2.8670716863e+00 4.9659138297e+00 
45200 6.3947445314e+00 -2.1588348977e-02 2.8674508955e+00 -4.9665706393e+00 2.8674508955e+00 4.9665706393e+00 
45300 6.3947297414e+00 -2.1433772852e-02 2.8678273418e+00 -4.9672226633e+00 2.8678273418e+00 4.9672226633e+00 
45400 6.3947152113e+00 -2.1280183547e-02 2.8682010434e+00 -4.9678699336e+00 2.8682010434e+00 4.9678699336e+00 
45500 6.3947009366e+00 -2.1127574390e-02 2.8685720189e+00 -4.9685124818e+00 2.8685720189e+00 4.9685124818e+00 
45600 6.3946869125e+00 -2.0975938845e-02 2.8689402862e+00 -4.9691503396e+00 2.8689402862e+00 4.9691503396e+00 
45700 6.3946731348e+00 -2.0825270510e-02 2.8693058634e+00 -4.9697835379e+00 2.8693058634e+00 4.9697835379e+00 
45800 6.3946595988e+00 -2.0675563114e-02 2.8696687684e+00 -4.9704121078e+00 2.8696687684e+00 4.9704121078e+00 
45900 6.3946463003e+00 -2.0526810508e-02 2.8700290190e+00 -4.9710360801e+00 2.8700290190e+00 4.9710360801e+00 
46000 6.3946332351e+00 -2.0379006664e-02 2.8703866327e+00 -4.9716554852e+00 2.8703866327e+00 4.9716554852e+00 
46100 6.3946203988e+00 -2.0232145671e-02 2.8707416272e+00 -4.9722703537e+00 2.8707416272e+00 4.9722703537e+00 
46200 6.3946077875e+00 -2.0086221727e-02 2.8710940197e+00 -4.9728807155e+00 2.8710940197e+00 4.9728807155e+00 
46300 6.3945953970e+00 -1.9941229137e-02 2.8714438277e+00 -4.9734866006e+00 2.8714438277e+00 4.9734866006e+00 
46400 6.3945832235e+00 -1.9797162310e-02 2.8717910682e+00 -4.9740880388e+00 2.8717910682e+00 4.9740880388e+00 
46500 6.3945712629e+00 -1.9654015752e-02 2.8721357582e+00 -4.9746850595e+00 2.8721357582e+00 4.9746850595e+00 
46600 6.3945595115e+00 -1.9511784065e-02 2.8724779149e+00 -4.9752776922e+00 2.8724779149e+00 4.9752776922e+00 
46700 6.3945479654e+00 -1.9370461941e-02 2.8728175549e+00 -4.9758659659e+00 2.8728175549e+00 4.9758659659e+00 
46800 6.3945366211e+00 -1.9230044159e-02 2.8731546950e+00 -4.9764499097e+00 2.8731546950e+00 4.9764499097e+00 
46900 6.3945254748e+00 -1.9090525583e-02 2.8734893518e+00 -4.9770295524e+00 2.8734893518e+00 4.9770295524e+00 
47000 6.3945145230e+00 -1.8951901153e-02 2.8738215419e+00 -4.9776049225e+00 2.8738215419e+00 4.9776049225e+00 
47100 6.3945037622e+00 -1.8814165890e-02 2.8741512817e+00 -4.9781760485e+00 2.8741512817e+00 4.9781760485e+00 
47200 6.3944931890e+00 -1.8677314885e-02 2.8744785874e+00 -4.9787429586e+00 2.8744785874e+00 4.9787429586e+00 
47300 6.3944828000e+00 -1.8541343299e-02 2.8748034753e+00 -4.9793056810e+00 2.8748034753e+00 4.9793056810e+00 
47400 6.3944725918e+00 -1.8406246362e-02 2.8751259615e+00 -4.9798642435e+00 2.8751259615e+00 4.9798642435e+00 
47500 6.3944625612e+00 -1.8272019364e-02 2.8754460621e+00 -4.9804186739e+00 2.8754460621e+00 4.9804186739e+00 
47600 6.3944527050e+00 -1.8138657658e-02 2.8757637929e+00 -4.9809689998e+00 2.8757637929e+00 4.9809689998e+00 
47700 6.3944430201e+00 -1.8006156656e-02 2.8760791698e+00 -4.9815152486e+00 2.8760791698e+00 4.9815152486e+00 
47800 6.3944335034e+00 -1.7874511822e-02 2.8763922085e+00 -4.9820574476e+00 2.8763922085e+00 4.9820574476e+00 
47900 6.3944241518e+00 -1.7743718675e-02 2.8767029247e+00 -4.9825956238e+00 2.8767029247e+00 4.9825956238e+00 
48000 6.3944149625e+00 -1.7613772782e-02 2.8770113339e+00 -4.9831298043e+00 2.8770113339e+00 4.9831298043e+00 
48100 6.3944059324e+00 -1.7484669759e-02 2.8773174517e+00 -4.9836600158e+00 2.8773174517e+00 4.9836600158e+00 
48200 6.3943970587e+00 -1.7356405267e-02 2.8776212933e+00 -4.9841862850e+00 2.8776212933e+00 4.9841862850e+00 
48300 6.3943883386e+00 -1.7228975010e-02 2.8779228742e+00 -4.9847086383e+00 2.8779228742e+00 4.9847086383e+00 
48400 6.3943797694e+00 -1.7102374730e-02 2.8782222094e+00 -4.9852271021e+00 2.8782222094e+00 4.9852271021e+00 
48500 6.3943713483e+00 -1.6976600212e-02 2.8785193141e+00 -4.9857417026e+00 2.8785193141e+00 4.9857417026e+00 
48600 6.3943630726e+00 -1.6851647274e-02 2.8788142034e+00 -4.9862524659e+00 2.8788142034e+00 4.9862524659e+00 
48700 6.3943549398e+00 -1.6727511770e-02 2.8791068922e+00 -4.9867594177e+00 2.8791068922e+00 4.9867594177e+00 
48800 6.3943469473e+00 -1.6604189588e-02 2.8793973954e+00 -4.9872625839e+00 2.8793973954e+00 4.9872625839e+00 
48900 6.3943390926e+00 -1.6481676646e-02 2.8796857277e+00 -4.9877619902e+00 2.8796857277e+00 4.9877619902e+00 
49000 6.3943313732e+00 -1.6359968890e-02 2.8799719039e+00 -4.9882576619e+00 2.8799719039e+00 4.9882576619e+00 
49100 6.3943237867e+00 -1.6239062296e-02 2.8802559385e+00 -4.9887496244e+00 2.8802559385e+00 4.9887496244e+00 
49200 6.3943163307e+00 -1.6118952866e-02 2.8805378463e+00 -4.9892379028e+00 2.8805378463e+00 4.9892379028e+00 
49300 6.3943090028e+00 -1.5999636626e-02 2.8808176415e+00 -4.9897225224e+00 2.8808176415e+00 4.9897225224e+00 
49400 6.3943018008e+00 -1.5881109626e-02 2.8810953386e+00 -4.9902035078e+00 2.8810953386e+00 4.9902035078e+00 
49500 6.3942947224e+00 -1.5763367939e-02 2.8813709518e+00 -4.9906808840e+00 2.8813709518e+00 4.9906808840e+00 
49600 6.3942877654e+00 -1.5646407657e-02 2.8816444955e+00 -4.9911546756e+00 2.8816444955e+00 4.9911546756e+00 
49700 6.3942809277e+00 -1.5530224893e-02 2.8819159838e+00 -4.9916249071e+00 2.8819159838e+00 4.9916249071e+00 
49800 6.3942742071e+00 -1.5414815780e-02 2.8821854307e+00 -4.9920916028e+00 2.8821854307e+00 4.9920916028e+00 
49900 6.3942676015e+00 -1.5300176465e-02 2.8824528502e+00 -4.9925547870e+00 2.8824528502e+00 4.9925547870e+00 
50000 6.3942611089e+00 -1.5186303115e-02 2.8827182563e+00 -4.9930144839e+00 2.8827182563e+00 4.9930144839e+00 
50100 6.3942547272e+00 -1.5073191912e-02 2.8829816628e+00 -4.9934707173e+00 2.8829816628e+00 4.9934707173e+00 
50200 6.3942484545e+00 -1.4960839051e-02 2.8832430835e+00 -4.9939235112e+00 2.8832430835e+00 4.9939235112e+00 
50300 6.3942422888e+00 -1.4849240744e-02 2.8835025320e+00 -4.9943728892e+00 2.8835025320e+00 4.9943728892e+00 
50400 6.3942362282e+00 -1.4738393214e-02 2.8837600220e+00 -4.9948188750e+00 2.8837600220e+00 4.9948188750e+00 
50500 6.3942302710e+00 -1.4628292697e-02 2.8840155671e+00 -4.9952614920e+00 2.8840155671e+00 4.9952614920e+00 
50600 6.3942244151e+00 -1.4518935440e-02 2.8842691806e+00 -4.9957007635e+00 2.8842691806e+00 4.9957007635e+00 
50700 6.3942186588e+00 -1.4410317705e-02 2.8845208760e+00 -4.9961367127e+00 2.8845208760e+00 4.9961367127e+00 
50800 6.3942130004e+00 -1.4302435759e-02 2.8847706666e+00 -4.9965693628e+00 2.8847706666e+00 4.9965693628e+00 
50900 6.3942074382e+00 -1.4195285885e-02 2.8850185657e+00 -4.9969987366e+00 2.8850185657e+00 4.9969987366e+00 
51000 6.3942019703e+00 -1.4088864370e-02 2.8852645865e+00 -4.9974248570e+00 2.8852645865e+00 4.9974248570e+00 
51100 6.3941965952e+00 -1.3983167514e-02 2.8855087419e+00 -4.9978477467e+00 2.8855087419e+00 4.9978477467e+00 
51200 6.3941913111e+00 -1.3878191624e-02 2.8857510452e+00 -4.9982674283e+00 2.8857510452e+00 4.9982674283e+00 
51300 6.3941861166e+00 -1.3773933017e-02 2.8859915092e+00 -4.9986839241e+00 2.8859915092e+00 4.9986839241e+00 
51400 6.3941810099e+00 -1.3670388016e-02 2.8862301468e+00 -4.9990972566e+00 2.8862301468e+00 4.9990972566e+00 
51500 6.3941759896e+00 -1.3567552953e-02 2.8864669709e+00 -4.9995074479e+00 2.8864669709e+00 4.9995074479e+00 
51600 6.3941710541e+00 -1.3465424167e-02 2.8867019941e+00 -4.9999145201e+00 2.8867019941e+00 4.9999145201e+00 
51700 6.3941662020e+00 -1.3363998004e-02 2.8869352292e+00 -5.0003184952e+00 2.8869352292e+00 5.0003184952e+00 
51800 6.3941614316e+00 -1.3263270817e-02 2.8871666888e+00 -5.0007193950e+00 2.8871666888e+00 5.0007193950e+00 
51900 6.3941567417e+00 -1.3163238967e-02 2.8873963854e+00 -5.0011172411e+00 2.8873963854e+00 5.0011172411e+00 
52000 6.3941521308e+00 -1.3063898818e-02 2.8876243315e+00 -5.0015120553e+00 2.8876243315e+00 5.0015120553e+00 
52100 6.3941475975e+00 -1.2965246744e-02 2.8878505394e+00 -5.0019038589e+00 2.8878505394e+00 5.0019038589e+00 
52200 6.3941431404e+00 -1.2867279125e-02 2.8880750215e+00 -5.0022926732e+00 2.8880750215e+00 5.0022926732e+00 
52300 6.3941387583e+00 -1.2769992344e-02 2.8882977900e+00 -5.0026785197e+00 2.8882977900e+00 5.0026785197e+00 
52400 6.3941344497e+00 -1.2673382794e-02 2.8885188571e+00 -5.0030614192e+00 2.8885188571e+00 5.0030614192e+00 
52500 6.3941302133e+00 -1.2577446870e-02 2.8887382350e+00 -5.0034413928e+00 2.8887382350e+00 5.0034413928e+00 
52600 6.3941260480e+00 -1.2482180977e-02 2.8889559357e+00 -5.0038184615e+00 2.8889559357e+00 5.0038184615e+00 
52700 6.3941219525e+00 -1.2387581524e-02 2.8891719711e+00 -5.0041926458e+00 2.8891719711e+00 5.0041926458e+00 
52800 6.3941179256e+00 -1.2293644924e-02 2.8893863532e+00 -5.0045639665e+00 2.8893863532e+00 5.0045639665e+00 
52900 6.3941139659e+00 -1.2200367599e-02 2.8895990938e+00 -5.0049324440e+00 2.8895990938e+00 5.0049324440e+00 
53000 6.3941100725e+00 -1.2107745975e-02 2.8898102047e+00 -5.0052980988e+00 2.8898102047e+00 5.0052980988e+00 
53100 6.3941062440e+00 -1.2015776485e-02 2.8900196976e+00 -5.0056609510e+00 2.8900196976e+00 5.0056609510e+00 
53200 6.3941024795e+00 -1.1924455567e-02 2.8902275840e+00 -5.0060210210e+00 2.8902275840e+00 5.0060210210e+00 
53300 6.3940987777e+00 -1.1833779665e-02 2.8904338757e+00 -5.0063783286e+00 2.8904338757e+00 5.0063783286e+00 
53400 6.3940951375e+00 -1.1743745231e-02 2.8906385841e+00 -5.0067328939e+00 2.8906385841e+00 5.0067328939e+00 
53500 6.3940915580e+00 -1.1654348719e-02 2.8908417205e+00 -5.0070847366e+00 2.8908417205e+00 5.0070847366e+00 
53600 6.3940880380e+00 -1.1565586593e-02 2.8910432965e+00 -5.0074338764e+00 2.8910432965e+00 5.0074338764e+00 
53700 6.3940845765e+00 -1.1477455321e-02 2.8912433233e+00 -5.0077803329e+00 2.8912433233e+00 5.0077803329e+00 
53800 6.3940811724e+00 -1.1389951380e-02 2.8914418120e+00 -5.0081241256e+00 2.8914418120e+00 5.0081241256e+00 
53900 6.3940778248e+00 -1.1303071249e-02 2.8916387740e+00 -5.0084652737e+00 2.8916387740e+00 5.0084652737e+00 
54000 6.3940745328e+00 -1.1216811418e-02 2.8918342202e+00 -5.0088037965e+00 2.8918342202e+00 5.0088037965e+00 
54100 6.3940712952e+00 -1.1131168381e-02 2.8920281618e+00 -5.0091397131e+00 2.8920281618e+00 5.0091397131e+00 
54200 6.3940681113e+00 -1.1046138639e-02 2.8922206096e+00 -5.0094730426e+00 2.8922206096e+00 5.0094730426e+00 
54300 6.3940649800e+00 -1.0961718700e-02 2.8924115747e+00 -5.0098038037e+00 2.8924115747e+00 5.0098038037e+00 
54400 6.3940619004e+00 -1.0877905081e-02 2.8926010677e+00 -5.0101320153e+00 2.8926010677e+00 5.0101320153e+00 
54500 6.3940588717e+00 -1.0794694302e-02 2.8927890996e+00 -5.0104576961e+00 2.8927890996e+00 5.0104576961e+00 
54600 6.3940558929e+00 -1.0712082894e-02 2.8929756809e+00 -5.0107808644e+00 2.8929756809e+00 5.0107808644e+00 
54700 6.3940529633e+00 -1.0630067393e-02 2.8931608224e+00 -5.0111015389e+00 2.8931608224e+00 5.0111015389e+00 
54800 6.3940500818e+00 -1.0548644343e-02 2.8933445347e+00 -5.0114197378e+00 2.8933445347e+00 5.0114197378e+00 
54900 6.3940472478e+00 -1.0467810296e-02 2.8935268281e+00 -5.0117354793e+00 2.8935268281e+00 5.0117354793e+00 
55000 6.3940444604e+00 -1.0387561812e-02 2.8937077132e+00 -5.0120487816e+00 2.8937077132e+00 5.0120487816e+00 
55100 6.3940417188e+00 -1.0307895457e-02 2.8938872004e+00 -5.0123596625e+00 2.8938872004e+00 5.0123596625e+00 
55200 6.3940390222e+00 -1.0228807807e-02 2.8940653000e+00 -5.0126681400e+00 2.8940653000e+00 5.0126681400e+00 
55300 6.3940363698e+00 -1.0150295445e-02 2.8942420222e+00 -5.0129742318e+00 2.8942420222e+00 5.0129742318e+00 
55400 6.3940337609e+00 -1.0072354962e-02 2.8944173772e+00 -5.0132779557e+00 2.8944173772e+00 5.0132779557e+00 
55500 6.3940311946e+00 -9.9949829592e-03 2.8945913752e+00 -5.0135793290e+00 2.8945913752e+00 5.0135793290e+00 
55600 6.3940286704e+00 -9.9181760436e-03 2.8947640262e+00 -5.0138783693e+00 2.8947640262e+00 5.0138783693e+00 
55700 6.3940261874e+00 -9.8419308323e-03 2.8949353402e+00 -5.0141750939e+00 2.8949353402e+00 5.0141750939e+00 
55800 6.3940237449e+00 -9.7662439509e-03 2.8951053272e+00 -5.0144695200e+00 2.8951053272e+00 5.0144695200e+00 
55900 6.3940213424e+00 -9.6911120338e-03 2.8952739971e+00 -5.0147616648e+00 2.8952739971e+00 5.0147616648e+00 
56000 6.3940189789e+00 -9.6165317242e-03 2.8954413596e+00 -5.0150515451e+00 2.8954413596e+00 5.0150515451e+00 
56100 6.3940166540e+00 -9.5424996747e-03 2.8956074245e+00 -5.0153391779e+00 2.8956074245e+00 5.0153391779e+00 
56200 6.3940143669e+00 -9.4690125469e-03 2.8957722015e+00 -5.0156245801e+00 2.8957722015e+00 5.0156245801e+00 
56300 6.3940121169e+00 -9.3960670116e-03 2.8959357002e+00 -5.0159077682e+00 2.8959357002e+00 5.0159077682e+00 
56400 6.3940099036e+00 -9.3236597493e-03 2.8960979302e+00 -5.0161887589e+00 2.8960979302e+00 5.0161887589e+00 
56500 6.3940077261e+00 -9.2517874500e-03 2.8962589011e+00 -5.0164675685e+00 2.8962589011e+00 5.0164675685e+00 
56600 6.3940055839e+00 -9.1804468132e-03 2.8964186222e+00 -5.0167442136e+00 2.8964186222e+00 5.0167442136e+00 
56700 6.3940034765e+00 -9.1096345483e-03 2.8965771029e+00 -5.0170187102e+00 2.8965771029e+00 5.0170187102e+00 
56800 6.3940014031e+00 -9.0393473746e-03 2.8967343526e+00 -5.0172910747e+00 2.8967343526e+00 5.0172910747e+00 
56900 6.3939993633e+00 -8.9695820214e-03 2.8968903805e+00 -5.0175613230e+00 2.8968903805e+00 5.0175613230e+00 
57000 6.3939973565e+00 -8.9003352280e-03 2.8970451958e+00 -5.0178294710e+00 2.8970451958e+00 5.0178294710e+00 
57100 6.3939953820e+00 -8.8316037441e-03 2.8971988078e+00 -5.0180955347e+00 2.8971988078e+00 5.0180955347e+00 
57200 6.3939934394e+00 -8.7633843295e-03 2.8973512254e+00 -5.0183595297e+00 2.8973512254e+00 5.0183595297e+00 
57300 6.3939915281e+00 -8.6956737545e-03 2.8975024576e+00 -5.0186214717e+00 2.8975024576e+00 5.0186214717e+00 
57400 6.3939896475e+00 -8.6284687999e-03 2.8976525136e+00 -5.0188813762e+00 2.8976525136e+00 5.0188813762e+00 
57500 6.3939877972e+00 -8.5617662570e-03 2.8978014021e+00 -5.0191392586e+00 2.8978014021e+00 5.0191392586e+00 
57600 6.3939859766e+00 -8.4955629280e-03 2.8979491320e+00 -5.0193951343e+00 2.8979491320e+00 5.0193951343e+00 
57700 6.3939841852e+00 -8.4298556256e-03 2.8980957121e+00 -5.0196490185e+00 2.8980957121e+00 5.0196490185e+00 
57800 6.3939824226e+00 -8.3646411736e-03 2.8982411512e+00 -5.0199009264e+00 2.8982411512e+00 5.0199009264e+00 
57900 6.3939806882e+00 -8.2999164065e-03 2.8983854578e+00 -5.0201508729e+00 2.8983854578e+00 5.0201508729e+00 
58000 6.3939789815e+00 -8.2356781701e-03 2.8985286407e+00 -5.0203988729e+00 2.8985286407e+00 5.0203988729e+00 
58100 6.3939773022e+00 -8.1719233210e-03 2.8986707084e+00 -5.0206449414e+00 2.8986707084e+00 5.0206449414e+00 
58200 6.3939756497e+00 -8.1086487274e-03 2.8988116694e+00 -5.0208890930e+00 2.8988116694e+00 5.0208890930e+00 
58300 6.3939740235e+00 -8.0458512683e-03 2.8989515321e+00 -5.0211313423e+00 2.8989515321e+00 5.0211313423e+00 
58400 6.3939724233e+00 -7.9835278343e-03 2.8990903050e+00 -5.0213717039e+00 2.8990903050e+00 5.0213717039e+00 
58500 6.3939708486e+00 -7.9216753275e-03 2.8992279963e+00 -5.0216101923e+00 2.8992279963e+00 5.0216101923e+00 
58600 6.3939692989e+00 -7.8602906612e-03 2.8993646143e+00 -5.0218468217e+00 2.8993646143e+00 5.0218468217e+00 
58700 6.3939677738e+00 -7.7993707604e-03 2.8995001673e+00 -5.0220816064e+00 2.8995001673e+00 5.0220816064e+00 
58800 6.3939662730e+00 -7.7389125617e-03 2.8996346635e+00 -5.0223145605e+00 2.8996346635e+00 5.0223145605e+00 
58900 6.3939647960e+00 -7.6789130135e-03 2.8997681108e+00 -5.0225456981e+00 2.8997681108e+00 5.0225456981e+00 
59000 6.3939633424e+00 -7.6193690757e-03 2.8999005175e+00 -5.0227750332e+00 2.8999005175e+00 5.0227750332e+00 
59100 6.3939619119e+00 -7.5602777202e-03 2.9000318914e+00 -5.0230025795e+00 2.9000318914e+00 5.0230025795e+00 
59200 6.3939605039e+00 -7.5016359307e-03 2.9001622406e+00 -5.0232283509e+00 2.9001622406e+00 5.0232283509e+00 
59300 6.3939591182e+00 -7.4434407027e-03 2.9002915729e+00 -5.0234523609e+00 2.9002915729e+00 5.0234523609e+00 
59400 6.3939577544e+00 -7.3856890439e-03 2.9004198961e+00 -5.0236746233e+00 2.9004198961e+00 5.0236746233e+00 
59500 6.3939564121e+00 -7.3283779738e-03 2.9005472180e+00 -5.0238951514e+00 2.9005472180e+00 5.0238951514e+00 
59600 6.3939550909e+00 -7.2715045242e-03 2.9006735465e+00 -5.0241139587e+00 2.9006735465e+00 5.0241139587e+00 
59700 6.3939537906e+00 -7.2150657389e-03 2.9007988890e+00 -5.0243310583e+00 2.9007988890e+00 5.0243310583e+00 
59800 6.3939525106e+00 -7.1590586740e-03 2.9009232533e+00 -5.0245464636e+00 2.9009232533e+00 5.0245464636e+00 
59900 6.3939512508e+00 -7.1034803976e-03 2.9010466470e+00 -5.0247601877e+00 2.9010466470e+00 5.0247601877e+00 
60000 6.3939500108e+00 -7.0483279903e-03 2.9011690775e+00 -5.0249722435e+00 2.9011690775e+00 5.0249722435e+00 
60100 6.3939487901e+00 -6.9935985450e-03 2.9012905522e+00 -5.0251826440e+00 2.9012905522e+00 5.0251826440e+00 
60200 6.3939475886e+00 -6.9392891668e-03 2.9014110787e+00 -5.0253914020e+00 2.9014110787e+00 5.0253914020e+00 
60300 6.3939464059e+00 -6.8853969735e-03 2.9015306643e+00 -5.0255985302e+00 2.9015306643e+00 5.0255985302e+00 
60400 6.3939452417e+00 -6.8319190951e-03 2.9016493162e+00 -5.0258040414e+00 2.9016493162e+00 5.0258040414e+00 
60500 6.3939440956e+00 -6.7788526743e-03 2.9017670417e+00 -5.0260079480e+00 2.9017670417e+00 5.0260079480e+00 
60600 6.3939429675e+00 -6.7261948661e-03 2.9018838481e+00 -5.0262102626e+00 2.9018838481e+00 5.0262102626e+00 
60700 6.3939418568e+00 -6.6739428383e-03 2.9019997425e+00 -5.0264109975e+00 2.9019997425e+00 5.0264109975e+00 
60800 6.3939407635e+00 -6.6220937712e-03 2.9021147319e+00 -5.0266101651e+00 2.9021147319e+00 5.0266101651e+00 
60900 6.3939396872e+00 -6.5706448577e-03 2.9022288235e+00 -5.0268077775e+00 2.9022288235e+00 5.0268077775e+00 
61000 6.3939386275e+00 -6.5195933036e-03 2.9023420242e+00 -5.0270038469e+00 2.9023420242e+00 5.0270038469e+00 
61100 6.3939375843e+00 -6.4689363272e-03 2.9024543410e+00 -5.0271983853e+00 2.9024543410e+00 5.0271983853e+00 
61200 6.3939365573e+00 -6.4186711596e-03 2.9025657808e+00 -5.0273914047e+00 2.9025657808e+00 5.0273914047e+00 
61300 6.3939355462e+00 -6.3687950448e-03 2.9026763504e+00 -5.0275829169e+00 2.9026763504e+00 5.0275829169e+00 
61400 6.3939345507e+00 -6.3193052395e-03 2.9027860567e+00 -5.0277729337e+00 2.9027860567e+00 5.0277729337e+00 
61500 6.3939335705e+00 -6.2701990133e-03 2.9028949063e+00 -5.0279614668e+00 2.9028949063e+00 5.0279614668e+00 
61600 6.3939326055e+00 -6.2214736487e-03 2.9030029061e+00 -5.0281485278e+00 2.9030029061e+00 5.0281485278e+00 
61700 6.3939316554e+00 -6.1731264410e-03 2.9031100626e+00 -5.0283341283e+00 2.9031100626e+00 5.0283341283e+00 
61800 6.3939307199e+00 -6.1251546986e-03 2.9032163824e+00 -5.0285182797e+00 2.9032163824e+00 5.0285182797e+00 
61900 6.3939297987e+00 -6.0775557427e-03 2.9033218722e+00 -5.0287009933e+00 2.9033218722e+00 5.0287009933e+00 
62000 6.3939288917e+00 -6.0303269076e-03 2.9034265383e+00 -5.0288822804e+00 2.9034265383e+00 5.0288822804e+00 
62100 6.3939279987e+00 -5.9834655406e-03 2.9035303874e+00 -5.0290621523e+00 2.9035303874e+00 5.0290621523e+00 
62200 6.3939271193e+00 -5.9369690020e-03 2.9036334258e+00 -5.0292406200e+00 2.9036334258e+00 5.0292406200e+00 
62300 6.3939262534e+00 -5.8908346651e-03 2.9037356598e+00 -5.0294176946e+00 2.9037356598e+00 5.0294176946e+00 
62400 6.3939254007e+00 -5.8450599166e-03 2.9038370959e+00 -5.0295933869e+00 2.9038370959e+00 5.0295933869e+00 
62500 6.3939245610e+00 -5.7996421559e-03 2.9039377402e+00 -5.0297677080e+00 2.9039377402e+00 5.0297677080e+00 
62600 6.3939237342e+00 -5.7545787959e-03 2.9040375990e+00 -5.0299406685e+00 2.9040375990e+00 5.0299406685e+00 
62700 6.3939229200e+00 -5.7098672623e-03 2.9041366785e+00 -5.0301122793e+00 2.9041366785e+00 5.0301122793e+00 
62800 6.3939221181e+00 -5.6655049942e-03 2.9042349848e+00 -5.0302825508e+00 2.9042349848e+00 5.0302825508e+00 
62900 6.3939213285e+00 -5.6214894439e-03 2.9043325240e+00 -5.0304514937e+00 2.9043325240e+00 5.0304514937e+00 
63000 6.3939205508e+00 -5.5778180768e-03 2.9044293022e+00 -5.0306191184e+00 2.9044293022e+00 5.0306191184e+00 
63100 6.3939197850e+00 -5.5344883716e-03 2.9045253254e+00 -5.0307854354e+00 2.9045253254e+00 5.0307854354e+00 
63200 6.3939190307e+00 -5.4914978202e-03 2.9046205994e+00 -5.0309504549e+00 2.9046205994e+00 5.0309504549e+00 
63300 6.3939182879e+00 -5.4488439279e-03 2.9047151303e+00 -5.0311141872e+00 2.9047151303e+00 5.0311141872e+00 
63400 6.3939175563e+00 -5.4065242131e-03 2.9048089239e+00 -5.0312766425e+00 2.9048089239e+00 5.0312766425e+00 
63500 6.3939168358e+00 -5.3645362076e-03 2.9049019860e+00 -5.0314378308e+00 2.9049019860e+00 5.0314378308e+00 
63600 6.3939161261e+00 -5.3228774564e-03 2.9049943224e+00 -5.0315977622e+00 2.9049943224e+00 5.0315977622e+00 
63700 6.3939154271e+00 -5.2815455180e-03 2.9050859389e+00 -5.0317564465e+00 2.9050859389e+00 5.0317564465e+00 
63800 6.3939147387e+00 -5.2405379641e-03 2.9051768411e+00 -5.0319138937e+00 2.9051768411e+00 5.0319138937e+00 
63900 6.3939140606e+00 -5.1998523798e-03 2.9052670346e+00 -5.0320701135e+00 2.9052670346e+00 5.0320701135e+00 
64000 6.3939133927e+00 -5.1594863634e-03 2.9053565252e+00 -5.0322251157e+00 2.9053565252e+00 5.0322251157e+00 
64100 6.3939127348e+00 -5.1194375269e-03 2.9054453183e+00 -5.0323789099e+00 2.9054453183e+00 5.0323789099e+00 
64200 6.3939120868e+00 -5.0797034953e-03 2.9055334195e+00 -5.0325315056e+00 2.9055334195e+00 5.0325315056e+00 
64300 6.3939114485e+00 -5.0402819071e-03 2.9056208342e+00 -5.0326829124e+00 2.9056208342e+00 5.0326829124e+00 
64400 6.3939108197e+00 -5.0011704145e-03 2.9057075679e+00 -5.0328331396e+00 2.9057075679e+00 5.0328331396e+00 
64500 6.3939102004e+00 -4.9623666826e-03 2.9057936261e+00 -5.0329821967e+00 2.9057936261e+00 5.0329821967e+00 
64600 6.3939095902e+00 -4.9238683902e-03 2.9058790140e+00 -5.0331300928e+00 2.9058790140e+00 5.0331300928e+00 
64700 6.3939089892e+00 -4.8856732295e-03 2.9059637369e+00 -5.0332768373e+00 2.9059637369e+00 5.0332768373e+00 
64800 6.3939083971e+00 -4.8477789059e-03 2.9060478002e+00 -5.0334224391e+00 2.9060478002e+00 5.0334224391e+00 
64900 6.3939078138e+00 -4.8101831386e-03 2.9061312090e+00 -5.0335669075e+00 2.9061312090e+00 5.0335669075e+00 
65000 6.3939072392e+00 -4.7728836598e-03 2.9062139686e+00 -5.0337102513e+00 2.9062139686e+00 5.0337102513e+00 
65100 6.3939066731e+00 -4.7358782153e-03 2.9062960842e+00 -5.0338524796e+00 2.9062960842e+00 5.0338524796e+00 
65200 6.3939061154e+00 -4.6991645643e-03 2.9063775607e+00 -5.0339936012e+00 2.9063775607e+00 5.0339936012e+00 
65300 6.3939055660e+00 -4.6627404795e-03 2.9064584034e+00 -5.0341336248e+00 2.9064584034e+00 5.0341336248e+00 
65400 6.3939050247e+00 -4.6266037469e-03 2.9065386172e+00 -5.0342725592e+00 2.9065386172e+00 5.0342725592e+00 
65500 6.3939044914e+00 -4.5907521660e-03 2.9066182072e+00 -5.0344104130e+00 2.9066182072e+00 5.0344104130e+00 
65600 6.3939039659e+00 -4.5551835495e-03 2.9066971782e+00 -5.0345471948e+00 2.9066971782e+00 5.0345471948e+00 
65700 6.3939034482e+00 -4.5198957237e-03 2.9067755352e+00 -5.0346829132e+00 2.9067755352e+00 5.0346829132e+00 
65800 6.3939029381e+00 -4.4848865283e-03 2.9068532832e+00 -5.0348175766e+00 2.9068532832e+00 5.0348175766e+00 
65900 6.3939024356e+00 -4.4501538163e-03 2.9069304268e+00 -5.0349511933e+00 2.9069304268e+00 5.0349511933e+00 
66000 6.3939019404e+00 -4.4156954541e-03 2.9070069710e+00 -5.0350837718e+00 2.9070069710e+00 5.0350837718e+00 
66100 6.3939014525e+00 -4.3815093215e-03 2.9070829205e+00 -5.0352153202e+00 2.9070829205e+00 5.0352153202e+00 
66200 6.3939009717e+00 -4.3475933117e-03 2.9071582801e+00 -5.0353458467e+00 2.9071582801e+00 5.0353458467e+00 
66300 6.3939004980e+00 -4.3139453310e-03 2.9072330543e+00 -5.0354753595e+00 2.9072330543e+00 5.0354753595e+00 
66400 6.3939000312e+00 -4.2805632994e-03 2.9073072480e+00 -5.0356038667e+00 2.9073072480e+00 5.0356038667e+00 
66500 6.3938995713e+00 -4.2474451501e-03 2.9073808656e+00 -5.0357313762e+00 2.9073808656e+00 5.0357313762e+00 
66600 6.3938991180e+00 -4.2145888294e-03 2.9074539118e+00 -5.0358578959e+00 2.9074539118e+00 5.0358578959e+00 
66700 6.3938986714e+00 -4.1819922971e-03 2.9075263911e+00 -5.0359834338e+00 2.9075263911e+00 5.0359834338e+00 
66800 6.3938982312e+00 -4.1496535264e-03 2.9075983081e+00 -5.0361079976e+00 2.9075983081e+00 5.0361079976e+00 
66900 6.3938977975e+00 -4.1175705034e-03 2.9076696672e+00 -5.0362315952e+00 2.9076696672e+00 5.0362315952e+00 
67000 6.3938973701e+00 -4.0857412279e-03 2.9077404728e+00 -5.0363542341e+00 2.9077404728e+00 5.0363542341e+00 
67100 6.3938969489e+00 -4.0541637124e-03 2.9078107294e+00 -5.0364759221e+00 2.9078107294e+00 5.0364759221e+00 
67200 6.3938965338e+00 -4.0228359831e-03 2.9078804413e+00 -5.0365966666e+00 2.9078804413e+00 5.0365966666e+00 
67300 6.3938961247e+00 -3.9917560790e-03 2.9079496128e+00 -5.0367164752e+00 2.9079496128e+00 5.0367164752e+00 
67400 6.3938957215e+00 -3.9609220525e-03 2.9080182483e+00 -5.0368353554e+00 2.9080182483e+00 5.0368353554e+00 
67500 6.3938953242e+00 -3.9303319692e-03 2.9080863520e+00 -5.0369533145e+00 2.9080863520e+00 5.0369533145e+00 
67600 6.3938949326e+00 -3.8999839074e-03 2.9081539282e+00 -5.0370703599e+00 2.9081539282e+00 5.0370703599e+00 
67700 6.3938945467e+00 -3.8698759590e-03 2.9082209810e+00 -5.0371864988e+00 2.9082209810e+00 5.0371864988e+00 
67800 6.3938941663e+00 -3.8400062286e-03 2.9082875147e+00 -5.0373017385e+00 2.9082875147e+00 5.0373017385e+00 
67900 6.3938937914e+00 -3.8103728341e-03 2.9083535333e+00 -5.0374160860e+00 2.9083535333e+00 5.0374160860e+00 
68000 6.3938934219e+00 -3.7809739061e-03 2.9084190409e+00 -5.0375295486e+00 2.9084190409e+00 5.0375295486e+00 
68100 6.3938930577e+00 -3.7518075883e-03 2.9084840417e+00 -5.0376421331e+00 2.9084840417e+00 5.0376421331e+00 
68200 6.3938926987e+00 -3.7228720376e-03 2.9085485395e+00 -5.0377538468e+00 2.9085485395e+00 5.0377538468e+00 
68300 6.3938923449e+00 -3.6941654234e-03 2.9086125386e+00 -5.0378646963e+00 2.9086125386e+00 5.0378646963e+00 
68400 6.3938919962e+00 -3.6656859282e-03 2.9086760427e+00 -5.0379746887e+00 2.9086760427e+00 5.0379746887e+00 
68500 6.3938916524e+00 -3.6374317473e-03 2.9087390559e+00 -5.0380838308e+00 2.9087390559e+00 5.0380838308e+00 
68600 6.3938913136e+00 -3.6094010889e-03 2.9088015820e+00 -5.0381921292e+00 2.9088015820e+00 5.0381921292e+00 
68700 6.3938909796e+00 -3.5815921737e-03 2.9088636250e+00 -5.0382995908e+00 2.9088636250e+00 5.0382995908e+00 
68800 6.3938906504e+00 -3.5540032355e-03 2.9089251887e+00 -5.0384062222e+00 2.9089251887e+00 5.0384062222e+00 
68900 6.3938903258e+00 -3.5266325206e-03 2.9089862768e+00 -5.0385120299e+00 2.9089862768e+00 5.0385120299e+00 
69000 6.3938900059e+00 -3.4994782879e-03 2.9090468932e+00 -5.0386170206e+00 2.9090468932e+00 5.0386170206e+00 
69100 6.3938896906e+00 -3.4725388090e-03 2.9091070416e+00 -5.0387212007e+00 2.9091070416e+00 5.0387212007e+00 
69200 6.3938893797e+00 -3.4458123681e-03 2.9091667257e+00 -5.0388245766e+00 2.9091667257e+00 5.0388245766e+00 
69300 6.3938890732e+00 -3.4192972618e-03 2.9092259493e+00 -5.0389271548e+00 2.9092259493e+00 5.0389271548e+00 
69400 6.3938887711e+00 -3.3929917994e-03 2.9092847159e+00 -5.0390289416e+00 2.9092847159e+00 5.0390289416e+00 
69500 6.3938884733e+00 -3.3668943025e-03 2.9093430293e+00 -5.0391299433e+00 2.9093430293e+00 5.0391299433e+00 
69600 6.3938881797e+00 -3.3410031051e-03 2.9094008929e+00 -5.0392301662e+00 2.9094008929e+00 5.0392301662e+00 
69700 6.3938878903e+00 -3.3153165536e-03 2.9094583105e+00 -5.0393296163e+00 2.9094583105e+00 5.0393296163e+00 
69800 6.3938876049e+00 -3.2898330068e-03 2.9095152855e+00 -5.0394282999e+00 2.9095152855e+00 5.0394282999e+00 
69900 6.3938873236e+00 -3.2645508355e-03 2.9095718214e+00 -5.0395262230e+00 2.9095718214e+00 5.0395262230e+00 
70000 6.3938870463e+00 -3.2394684229e-03 2.9096279218e+00 -5.0396233917e+00 2.9096279218e+00 5.0396233917e+00 
70100 6.3938867728e+00 -3.2145841644e-03 2.9096835901e+00 -5.0397198120e+00 2.9096835901e+00 5.0397198120e+00 
70200 6.3938865033e+00 -3.1898964675e-03 2.9097388297e+00 -5.0398154897e+00 2.9097388297e+00 5.0398154897e+00 
70300 6.3938862375e+00 -3.1654037515e-03 2.9097936440e+00 -5.0399104309e+00 2.9097936440e+00 5.0399104309e+00 
70400 6.3938859754e+00 -3.1411044481e-03 2.9098480364e+00 -5.0400046413e+00 2.9098480364e+00 5.0400046413e+00 
70500 6.3938857170e+00 -3.1169970007e-03 2.9099020102e+00 -5.0400981268e+00 2.9099020102e+00 5.0400981268e+00 
70600 6.3938854623e+00 -3.0930798647e-03 2.9099555688e+00 -5.0401908930e+00 2.9099555688e+00 5.0401908930e+00 
70700 6.3938852111e+00 -3.0693515074e-03 2.9100087155e+00 -5.0402829457e+00 2.9100087155e+00 5.0402829457e+00 
70800 6.3938849635e+00 -3.0458104076e-03 2.9100614535e+00 -5.0403742906e+00 2.9100614535e+00 5.0403742906e+00 
70900 6.3938847193e+00 -3.0224550563e-03 2.9101137861e+00 -5.0404649333e+00 2.9101137861e+00 5.0404649333e+00 
71000 6.3938844786e+00 -2.9992839558e-03 2.9101657164e+00 -5.0405548793e+00 2.9101657164e+00 5.0405548793e+00 
71100 6.3938842412e+00 -2.9762956202e-03 2.9102172477e+00 -5.0406441341e+00 2.9102172477e+00 5.0406441341e+00 
71200 6.3938840071e+00 -2.9534885752e-03 2.9102683832e+00 -5.0407327033e+00 2.9102683832e+00 5.0407327033e+00 
71300 6.3938837763e+00 -2.9308613578e-03 2.9103191259e+00 -5.0408205922e+00 2.9103191259e+00 5.0408205922e+00 
71400 6.3938835487e+00 -2.9084125167e-03 2.9103694789e+00 -5.0409078063e+00 2.9103694789e+00 5.0409078063e+00 
71500 6.3938833243e+00 -2.8861406119e-03 2.9104194454e+00 -5.0409943508e+00 2.9104194454e+00 5.0409943508e+00 
71600 6.3938831030e+00 -2.8640442147e-03 2.9104690285e+00 -5.0410802312e+00 2.9104690285e+00 5.0410802312e+00 
71700 6.3938828848e+00 -2.8421219076e-03 2.9105182311e+00 -5.0411654526e+00 2.9105182311e+00 5.0411654526e+00 
71800 6.3938826697e+00 -2.8203722845e-03 2.9105670562e+00 -5.0412500202e+00 2.9105670562e+00 5.0412500202e+00 
71900 6.3938824575e+00 -2.7987939502e-03 2.9106155069e+00 -5.0413339393e+00 2.9106155069e+00 5.0413339393e+00 
72000 6.3938822482e+00 -2.7773855209e-03 2.9106635861e+00 -5.0414172149e+00 2.9106635861e+00 5.0414172149e+00 
72100 6.3938820419e+00 -2.7561456235e-03 2.9107112968e+00 -5.0414998522e+00 2.9107112968e+00 5.0414998522e+00 
72200 6.3938818384e+00 -2.7350728961e-03 2.9107586418e+00 -5.0415818561e+00 2.9107586418e+00 5.0415818561e+00 
72300 6.3938816378e+00 -2.7141659875e-03 2.9108056240e+00 -5.0416632318e+00 2.9108056240e+00 5.0416632318e+00 
72400 6.3938814399e+00 -2.6934235574e-03 2.9108522464e+00 -5.0417439841e+00 2.9108522464e+00 5.0417439841e+00 
72500 6.3938812448e+00 -2.6728442763e-03 2.9108985117e+00 -5.0418241180e+00 2.9108985117e+00 5.0418241180e+00 
72600 6.3938810523e+00 -2.6524268255e-03 2.9109444229e+00 -5.0419036384e+00 2.9109444229e+00 5.0419036384e+00 
72700 6.3938808626e+00 -2.6321698967e-03 2.9109899825e+00 -5.0419825501e+00 2.9109899825e+00 5.0419825501e+00 
72800 6.3938806754e+00 -2.6120721923e-03 2.9110351936e+00 -5.0420608579e+00 2.9110351936e+00 5.0420608579e+00 
72900 6.3938804908e+00 -2.5921324252e-03 2.9110800587e+00 -5.0421385665e+00 2.9110800587e+00 5.0421385665e+00 
73000 6.3938803088e+00 -2.5723493187e-03 2.9111245806e+00 -5.0422156808e+00 2.9111245806e+00 5.0422156808e+00 
73100 6.3938801293e+00 -2.5527216065e-03 2.9111687621e+00 -5.0422922054e+00 2.9111687621e+00 5.0422922054e+00 
73200 6.3938799522e+00 -2.5332480325e-03 2.9112126058e+00 -5.0423681449e+00 2.9112126058e+00 5.0423681449e+00 
73300 6.3938797776e+00 -2.5139273510e-03 2.9112561144e+00 -5.0424435039e+00 2.9112561144e+00 5.0424435039e+00 
73400 6.3938796054e+00 -2.4947583264e-03 2.9112992905e+00 -5.0425182871e+00 2.9112992905e+00 5.0425182871e+00 
73500 6.3938794356e+00 -2.4757397332e-03 2.9113421367e+00 -5.0425924990e+00 2.9113421367e+00 5.0425924990e+00 
73600 6.3938792681e+00 -2.4568703558e-03 2.9113846557e+00 -5.0426661440e+00 2.9113846557e+00 5.0426661440e+00 
73700 6.3938791029e+00 -2.4381489887e-03 2.9114268500e+00 -5.0427392267e+00 2.9114268500e+00 5.0427392267e+00 
73800 6.3938789399e+00 -2.4195744363e-03 2.9114687221e+00 -5.0428117514e+00 2.9114687221e+00 5.0428117514e+00 
73900 6.3938787792e+00 -2.4011455127e-03 2.9115102747e+00 -5.0428837226e+00 2.9115102747e+00 5.0428837226e+00 
74000 6.3938786207e+00 -2.3828610420e-03 2.9115515102e+00 -5.0429551445e+00 2.9115515102e+00 5.0429551445e+00 
74100 6.3938784644e+00 -2.3647198576e-03 2.9115924311e+00 -5.0430260216e+00 2.9115924311e+00 5.0430260216e+00 
74200 6.3938783102e+00 -2.3467208030e-03 2.9116330399e+00 -5.0430963581e+00 2.9116330399e+00 5.0430963581e+00 
74300 6.3938781581e+00 -2.3288627308e-03 2.9116733390e+00 -5.0431661583e+00 2.9116733390e+00 5.0431661583e+00 
74400 6.3938780081e+00 -2.3111445033e-03 2.9117133310e+00 -5.0432354263e+00 2.9117133310e+00 5.0432354263e+00 
74500 6.3938778601e+00 -2.2935649922e-03 2.9117530181e+00 -5.0433041664e+00 2.9117530181e+00 5.0433041664e+00 
74600 6.3938777142e+00 -2.2761230786e-03 2.9117924028e+00 -5.0433723827e+00 2.9117924028e+00 5.0433723827e+00 
74700 6.3938775702e+00 -2.2588176526e-03 2.9118314874e+00 -5.0434400793e+00 2.9118314874e+00 5.0434400793e+00 
74800 6.3938774283e+00 -2.2416476139e-03 2.9118702744e+00 -5.0435072603e+00 2.9118702744e+00 5.0435072603e+00 
74900 6.3938772882e+00 -2.2246118710e-03 2.9119087660e+00 -5.0435739298e+00 2.9119087660e+00 5.0435739298e+00 
75000 6.3938771501e+00 -2.2077093415e-03 2.9119469646e+00 -5.0436400917e+00 2.9119469646e+00 5.0436400917e+00 
75100 6.3938770139e+00 -2.1909389523e-03 2.9119848725e+00 -5.0437057500e+00 2.9119848725e+00 5.0437057500e+00 
75200 6.3938768795e+00 -2.1742996389e-03 2.9120224919e+00 -5.0437709088e+00 2.9120224919e+00 5.0437709088e+00 
75300 6.3938767469e+00 -2.1577903457e-03 2.9120598252e+00 -5.0438355719e+00 2.9120598252e+00 5.0438355719e+00 
75400 6.3938766161e+00 -2.1414100260e-03 2.9120968744e+00 -5.0438997431e+00 2.9120968744e+00 5.0438997431e+00 
75500 6.3938764872e+00 -2.1251576419e-03 2.9121336420e+00 -5.0439634264e+00 2.9121336420e+00 5.0439634264e+00 
75600 6.3938763599e+00 -2.1090321638e-03 2.9121701301e+00 -5.0440266256e+00 2.9121701301e+00 5.0440266256e+00 
75700 6.3938762344e+00 -2.0930325710e-03 2.9122063408e+00 -5.0440893444e+00 2.9122063408e+00 5.0440893444e+00 
75800 6.3938761106e+00 -2.0771578513e-03 2.9122422764e+00 -5.0441515867e+00 2.9122422764e+00 5.0441515867e+00 
75900 6.3938759885e+00 -2.0614070007e-03 2.9122779390e+00 -5.0442133561e+00 2.9122779390e+00 5.0442133561e+00 
76000 6.3938758681e+00 -2.0457790239e-03 2.9123133307e+00 -5.0442746564e+00 2.9123133307e+00 5.0442746564e+00 
76100 6.3938757493e+00 -2.0302729336e-03 2.9123484537e+00 -5.0443354912e+00 2.9123484537e+00 5.0443354912e+00 
76200 6.3938756321e+00 -2.0148877511e-03 2.9123833101e+00 -5.0443958642e+00 2.9123833101e+00 5.0443958642e+00 
76300 6.3938755164e+00 -1.9996225054e-03 2.9124179019e+00 -5.0444557789e+00 2.9124179019e+00 5.0444557789e+00 
76400 6.3938754024e+00 -1.9844762340e-03 2.9124522312e+00 -5.0445152390e+00 2.9124522312e+00 5.0445152390e+00 
76500 6.3938752899e+00 -1.9694479824e-03 2.9124863001e+00 -5.0445742481e+00 2.9124863001e+00 5.0445742481e+00 
76600 6.3938751789e+00 -1.9545368039e-03 2.9125201106e+00 -5.0446328096e+00 2.9125201106e+00 5.0446328096e+00 
76700 6.3938750694e+00 -1.9397417598e-03 2.9125536647e+00 -5.0446909270e+00 2.9125536647e+00 5.0446909270e+00 
76800 6.3938749614e+00 -1.9250619193e-03 2.9125869644e+00 -5.0447486038e+00 2.9125869644e+00 5.0447486038e+00 
76900 6.3938748549e+00 -1.9104963592e-03 2.9126200118e+00 -5.0448058435e+00 2.9126200118e+00 5.0448058435e+00 
77000 6.3938747498e+00 -1.8960441642e-03 2.9126528087e+00 -5.0448626495e+00 2.9126528087e+00 5.0448626495e+00 
77100 6.3938746461e+00 -1.8817044266e-03 2.9126853572e+00 -5.0449190251e+00 2.9126853572e+00 5.0449190251e+00 
77200 6.3938745438e+00 -1.8674762462e-03 2.9127176591e+00 -5.0449749737e+00 2.9127176591e+00 5.0449749737e+00 
77300 6.3938744430e+00 -1.8533587304e-03 2.9127497164e+00 -5.0450304986e+00 2.9127497164e+00 5.0450304986e+00 
77400 6.3938743434e+00 -1.8393509941e-03 2.9127815311e+00 -5.0450856032e+00 2.9127815311e+00 5.0450856032e+00 
77500 6.3938742452e+00 -1.8254521593e-03 2.9128131049e+00 -5.0451402907e+00 2.9128131049e+00 5.0451402907e+00 
77600 6.3938741484e+00 -1.8116613558e-03 2.9128444399e+00 -5.0451945644e+00 2.9128444399e+00 5.0451945644e+00 
77700 6.3938740528e+00 -1.7979777202e-03 2.9128755377e+00 -5.0452484275e+00 2.9128755377e+00 5.0452484275e+00 
77800 6.3938739586e+00 -1.7844003966e-03 2.9129064004e+00 -5.0453018831e+00 2.9129064004e+00 5.0453018831e+00 
77900 6.3938738656e+00 -1.7709285360e-03 2.9129370296e+00 -5.0453549346e+00 2.9129370296e+00 5.0453549346e+00 
78000 6.3938737739e+00 -1.7575612968e-03 2.9129674273e+00 -5.0454075849e+00 2.9129674273e+00 5.0454075849e+00 
78100 6.3938736834e+00 -1.7442978441e-03 2.9129975953e+00 -5.0454598373e+00 2.9129975953e+00 5.0454598373e+00 
78200 6.3938735941e+00 -1.7311373502e-03 2.9130275352e+00 -5.0455116949e+00 2.9130275352e+00 5.0455116949e+00 
78300 6.3938735060e+00 -1.7180789940e-03 2.9130572490e+00 -5.0455631606e+00 2.9130572490e+00 5.0455631606e+00 
78400 6.3938734191e+00 -1.7051219614e-03 2.9130867383e+00 -5.0456142376e+00 2.9130867383e+00 5.0456142376e+00 
78500 6.3938733334e+00 -1.6922654452e-03 2.9131160050e+00 -5.0456649289e+00 2.9131160050e+00 5.0456649289e+00 
78600 6.3938732489e+00 -1.6795086447e-03 2.9131450506e+00 -5.0457152375e+00 2.9131450506e+00 5.0457152375e+00 
78700 6.3938731654e+00 -1.6668507659e-03 2.9131738771e+00 -5.0457651663e+00 2.9131738771e+00 5.0457651663e+00 
78800 6.3938730832e+00 -1.6542910215e-03 2.9132024859e+00 -5.0458147184e+00 2.9132024859e+00 5.0458147184e+00 
78900 6.3938730020e+00 -1.6418286306e-03 2.9132308790e+00 -5.0458638966e+00 2.9132308790e+00 5.0458638966e+00 
79000 6.3938729219e+00 -1.6294628189e-03 2.9132590579e+00 -5.0459127038e+00 2.9132590579e+00 5.0459127038e+00 
79100 6.3938728429e+00 -1.6171928184e-03 2.9132870242e+00 -5.0459611430e+00 2.9132870242e+00 5.0459611430e+00 
79200 6.3938727649e+00 -1.6050178674e-03 2.9133147797e+00 -5.0460092169e+00 2.9133147797e+00 5.0460092169e+00 
79300 6.3938726880e+00 -1.5929372108e-03 2.9133423260e+00 -5.0460569285e+00 2.9133423260e+00 5.0460569285e+00 
79400 6.3938726121e+00 -1.5809500995e-03 2.9133696647e+00 -5.0461042805e+00 2.9133696647e+00 5.0461042805e+00 
79500 6.3938725373e+00 -1.5690557907e-03 2.9133967974e+00 -5.0461512758e+00 2.9133967974e+00 5.0461512758e+00 
79600 6.3938724635e+00 -1.5572535476e-03 2.9134237258e+00 -5.0461979170e+00 2.9134237258e+00 5.0461979170e+00 
79700 6.3938723906e+00 -1.5455426396e-03 2.9134504513e+00 -5.0462442070e+00 2.9134504513e+00 5.0462442070e+00 
79800 6.3938723188e+00 -1.5339223423e-03 2.9134769756e+00 -5.0462901484e+00 2.9134769756e+00 5.0462901484e+00 
79900 6.3938722479e+00 -1.5223919368e-03 2.9135033003e+00 -5.0463357441e+00 2.9135033003e+00 5.0463357441e+00 
80000 6.3938721779e+00 -1.5109507107e-03 2.9135294268e+00 -5.0463809965e+00 2.9135294268e+00 5.0463809965e+00 
80100 6.3938721089e+00 -1.4995979569e-03 2.9135553567e+00 -5.0464259085e+00 2.9135553567e+00 5.0464259085e+00 
80200 6.3938720408e+00 -1.4883329746e-03 2.9135810916e+00 -5.0464704826e+00 2.9135810916e+00 5.0464704826e+00 
80300 6.3938719737e+00 -1.4771550685e-03 2.9136066329e+00 -5.0465147215e+00 2.9136066329e+00 5.0465147215e+00 
80400 6.3938719074e+00 -1.4660635491e-03 2.9136319822e+00 -5.0465586278e+00 2.9136319822e+00 5.0465586278e+00 
80500 6.3938718421e+00 -1.4550577324e-03 2.9136571410e+00 -5.0466022040e+00 2.9136571410e+00 5.0466022040e+00 
80600 6.3938717776e+00 -1.4441369403e-03 2.9136821106e+00 -5.0466454527e+00 2.9136821106e+00 5.0466454527e+00 
80700 6.3938717140e+00 -1.4333005000e-03 2.9137068926e+00 -5.0466883764e+00 2.9137068926e+00 5.0466883764e+00 
80800 6.3938716512e+00 -1.4225477444e-03 2.9137314885e+00 -5.0467309777e+00 2.9137314885e+00 5.0467309777e+00 
80900 6.3938715893e+00 -1.4118780118e-03 2.9137558996e+00 -5.0467732590e+00 2.9137558996e+00 5.0467732590e+00 
81000 6.3938715282e+00 -1.4012906457e-03 2.9137801275e+00 -5.0468152228e+00 2.9137801275e+00 5.0468152228e+00 
81100 6.3938714680e+00 -1.3907849954e-03 2.9138041734e+00 -5.0468568717e+00 2.9138041734e+00 5.0468568717e+00 
81200 6.3938714085e+00 -1.3803604151e-03 2.9138280389e+00 -5.0468982079e+00 2.9138280389e+00 5.0468982079e+00 
81300 6.3938713499e+00 -1.3700162644e-03 2.9138517253e+00 -5.0469392339e+00 2.9138517253e+00 5.0469392339e+00 
81400 6.3938712920e+00 -1.3597519083e-03 2.9138752340e+00 -5.0469799522e+00 2.9138752340e+00 5.0469799522e+00 
81500 6.3938712349e+00 -1.3495667168e-03 2.9138985664e+00 -5.0470203651e+00 2.9138985664e+00 5.0470203651e+00 
81600 6.3938711786e+00 -1.3394600650e-03 2.9139217239e+00 -5.0470604750e+00 2.9139217239e+00 5.0470604750e+00 
81700 6.3938711230e+00 -1.3294313332e-03 2.9139447077e+00 -5.0471002842e+00 2.9139447077e+00 5.0471002842e+00 
81800 6.3938710682e+00 -1.3194799067e-03 2.9139675193e+00 -5.0471397950e+00 2.9139675193e+00 5.0471397950e+00 
81900 6.3938710142e+00 -1.3096051757e-03 2.9139901599e+00 -5.0471790097e+00 2.9139901599e+00 5.0471790097e+00 
82000 6.3938709608e+00 -1.2998065354e-03 2.9140126309e+00 -5.0472179306e+00 2.9140126309e+00 5.0472179306e+00 
82100 6.3938709082e+00 -1.2900833861e-03 2.9140349336e+00 -5.0472565601e+00 2.9140349336e+00 5.0472565601e+00 
82200 6.3938708563e+00 -1.2804351326e-03 2.9140570694e+00 -5.0472949003e+00 2.9140570694e+00 5.0472949003e+00 
82300 6.3938708051e+00 -1.2708611849e-03 2.9140790394e+00 -5.0473329534e+00 2.9140790394e+00 5.0473329534e+00 
82400 6.3938707545e+00 -1.2613609574e-03 2.9141008449e+00 -5.0473707218e+00 2.9141008449e+00 5.0473707218e+00 
82500 6.3938707047e+00 -1.2519338694e-03 2.9141224873e+00 -5.0474082075e+00 2.9141224873e+00 5.0474082075e+00 
82600 6.3938706555e+00 -1.2425793451e-03 2.9141439678e+00 -5.0474454128e+00 2.9141439678e+00 5.0474454128e+00 
82700 6.3938706070e+00 -1.2332968130e-03 2.9141652876e+00 -5.0474823398e+00 2.9141652876e+00 5.0474823398e+00 
82800 6.3938705591e+00 -1.2240857065e-03 2.9141864480e+00 -5.0475189907e+00 2.9141864480e+00 5.0475189907e+00 
82900 6.3938705119e+00 -1.2149454633e-03 2.9142074502e+00 -5.0475553676e+00 2.9142074502e+00 5.0475553676e+00 
83000 6.3938704653e+00 -1.2058755258e-03 2.9142282955e+00 -5.0475914726e+00 2.9142282955e+00 5.0475914726e+00 
83100 6.3938704194e+00 -1.1968753409e-03 2.9142489850e+00 -5.0476273078e+00 2.9142489850e+00 5.0476273078e+00 
83200 6.3938703741e+00 -1.1879443599e-03 2.9142695199e+00 -5.0476628753e+00 2.9142695199e+00 5.0476628753e+00 
83300 6.3938703293e+00 -1.1790820385e-03 2.9142899014e+00 -5.0476981772e+00 2.9142899014e+00 5.0476981772e+00 
83400 6.3938702852e+00 -1.1702878367e-03 2.9143101307e+00 -5.0477332155e+00 2.9143101307e+00 5.0477332155e+00 
83500 6.3938702417e+00 -1.1615612191e-03 2.9143302091e+00 -5.0477679921e+00 2.9143302091e+00 5.0477679921e+00 
83600 6.3938701988e+00 -1.1529016542e-03 2.9143501375e+00 -5.0478025092e+00 2.9143501375e+00 5.0478025092e+00 
83700 6.3938701564e+00 -1.1443086151e-03 2.9143699173e+00 -5.0478367688e+00 2.9143699173e+00 5.0478367688e+00 
83800 6.3938701146e+00 -1.1357815791e-03 2.9143895495e+00 -5.0478707728e+00 2.9143895495e+00 5.0478707728e+00 
83900 6.3938700734e+00 -1.1273200274e-03 2.9144090353e+00 -5.0479045231e+00 2.9144090353e+00 5.0479045231e+00 
84000 6.3938700327e+00 -1.1189234456e-03 2.9144283757e+00 -5.0479380218e+00 2.9144283757e+00 5.0479380218e+00 
84100 6.3938699926e+00 -1.1105913234e-03 2.9144475720e+00 -5.0479712708e+00 2.9144475720e+00 5.0479712708e+00 
84200 6.3938699531e+00 -1.1023231544e-03 2.9144666253e+00 -5.0480042719e+00 2.9144666253e+00 5.0480042719e+00 
84300 6.3938699140e+00 -1.0941184365e-03 2.9144855365e+00 -5.0480370272e+00 2.9144855365e+00 5.0480370272e+00 
84400 6.3938698755e+00 -1.0859766715e-03 2.9145043069e+00 -5.0480695384e+00 2.9145043069e+00 5.0480695384e+00 
84500 6.3938698375e+00 -1.0778973650e-03 2.9145229375e+00 -5.0481018075e+00 2.9145229375e+00 5.0481018075e+00 
84600 6.3938698000e+00 -1.0698800268e-03 2.9145414293e+00 -5.0481338363e+00 2.9145414293e+00 5.0481338363e+00 
84700 6.3938697631e+00 -1.0619241706e-03 2.9145597835e+00 -5.0481656267e+00 2.9145597835e+00 5.0481656267e+00 
84800 6.3938697266e+00 -1.0540293137e-03 2.9145780011e+00 -5.0481971805e+00 2.9145780011e+00 5.0481971805e+00 
84900 6.3938696906e+00 -1.0461949775e-03 2.9145960831e+00 -5.0482284996e+00 2.9145960831e+00 5.0482284996e+00 
85000 6.3938696551e+00 -1.0384206871e-03 2.9146140307e+00 -5.0482595856e+00 2.9146140307e+00 5.0482595856e+00 
85100 6.3938696201e+00 -1.0307059715e-03 2.9146318447e+00 -5.0482904404e+00 2.9146318447e+00 5.0482904404e+00 
85200 6.3938695856e+00 -1.0230503632e-03 2.9146495263e+00 -5.0483210659e+00 2.9146495263e+00 5.0483210659e+00 
85300 6.3938695515e+00 -1.0154533987e-03 2.9146670765e+00 -5.0483514636e+00 2.9146670765e+00 5.0483514636e+00 
85400 6.3938695179e+00 -1.0079146180e-03 2.9146844962e+00 -5.0483816355e+00 2.9146844962e+00 5.0483816355e+00 
85500 6.3938694848e+00 -1.0004335648e-03 2.9147017865e+00 -5.0484115832e+00 2.9147017865e+00 5.0484115832e+00 
85600 6.3938694521e+00 -9.9300978647e-04 2.9147189484e+00 -5.0484413084e+00 2.9147189484e+00 5.0484413084e+00 
85700 6.3938694198e+00 -9.8564283382e-04 2.9147359828e+00 -5.0484708129e+00 2.9147359828e+00 5.0484708129e+00 
85800 6.3938693880e+00 -9.7833226137e-04 2.9147528908e+00 -5.0485000983e+00 2.9147528908e+00 5.0485000983e+00 
85900 6.3938693566e+00 -9.7107762713e-04 2.9147696732e+00 -5.0485291663e+00 2.9147696732e+00 5.0485291663e+00 
86000 6.3938693257e+00 -9.6387849260e-04 2.9147863311e+00 -5.0485580186e+00 2.9147863311e+00 5.0485580186e+00 
86100 6.3938692951e+00 -9.5673442276e-04 2.9148028654e+00 -5.0485866569e+00 2.9148028654e+00 5.0485866569e+00 
86200 6.3938692650e+00 -9.4964498603e-04 2.9148192771e+00 -5.0486150827e+00 2.9148192771e+00 5.0486150827e+00 
86300 6.3938692353e+00 -9.4260975426e-04 2.9148355670e+00 -5.0486432978e+00 2.9148355670e+00 5.0486432978e+00 
86400 6.3938692060e+00 -9.3562830267e-04 2.9148517362e+00 -5.0486713036e+00 2.9148517362e+00 5.0486713036e+00 
86500 6.3938691771e+00 -9.2870020984e-04 2.9148677856e+00 -5.0486991019e+00 2.9148677856e+00 5.0486991019e+00 
86600 6.3938691485e+00 -9.2182505770e-04 2.9148837160e+00 -5.0487266942e+00 2.9148837160e+00 5.0487266942e+00 
86700 6.3938691204e+00 -9.1500243147e-04 2.9148995284e+00 -5.0487540821e+00 2.9148995284e+00 5.0487540821e+00 
86800 6.3938690926e+00 -9.0823191966e-04 2.9149152236e+00 -5.0487812671e+00 2.9149152236e+00 5.0487812671e+00 
86900 6.3938690653e+00 -9.0151311402e-04 2.9149308027e+00 -5.0488082508e+00 2.9149308027e+00 5.0488082508e+00 
87000 6.3938690383e+00 -8.9484560954e-04 2.9149462664e+00 -5.0488350348e+00 2.9149462664e+00 5.0488350348e+00 
87100 6.3938690116e+00 -8.8822900438e-04 2.9149616157e+00 -5.0488616205e+00 2.9149616157e+00 5.0488616205e+00 
87200 6.3938689854e+00 -8.8166289990e-04 2.9149768514e+00 -5.0488880095e+00 2.9149768514e+00 5.0488880095e+00 
87300 6.3938689595e+00 -8.7514690061e-04 2.9149919744e+00 -5.0489142033e+00 2.9149919744e+00 5.0489142033e+00 
87400 6.3938689339e+00 -8.6868061412e-04 2.9150069856e+00 -5.0489402034e+00 2.9150069856e+00 5.0489402034e+00 
87500 6.3938689087e+00 -8.6226365115e-04 2.9150218857e+00 -5.0489660112e+00 2.9150218857e+00 5.0489660112e+00 
87600 6.3938688838e+00 -8.5589562550e-04 2.9150366757e+00 -5.0489916283e+00 2.9150366757e+00 5.0489916283e+00 
87700 6.3938688593e+00 -8.4957615400e-04 2.9150513564e+00 -5.0490170560e+00 2.9150513564e+00 5.0490170560e+00 
87800 6.3938688351e+00 -8.4330485651e-04 2.9150659287e+00 -5.0490422959e+00 2.9150659287e+00 5.0490422959e+00 
87900 6.3938688113e+00 -8.3708135589e-04 2.9150803933e+00 -5.0490673493e+00 2.9150803933e+00 5.0490673493e+00 
88000 6.3938687877e+00 -8.3090527797e-04 2.9150947511e+00 -5.0490922177e+00 2.9150947511e+00 5.0490922177e+00 
88100 6.3938687645e+00 -8.2477625154e-04 2.9151090029e+00 -5.0491169026e+00 2.9151090029e+00 5.0491169026e+00 
88200 6.3938687416e+00 -8.1869390831e-04 2.9151231495e+00 -5.0491414052e+00 2.9151231495e+00 5.0491414052e+00 
88300 6.3938687191e+00 -8.1265788289e-04 2.9151371916e+00 -5.0491657270e+00 2.9151371916e+00 5.0491657270e+00 
88400 6.3938686968e+00 -8.0666781279e-04 2.9151511302e+00 -5.0491898693e+00 2.9151511302e+00 5.0491898693e+00 
88500 6.3938686748e+00 -8.0072333835e-04 2.9151649660e+00 -5.0492138336e+00 2.9151649660e+00 5.0492138336e+00 
88600 6.3938686532e+00 -7.9482410277e-04 2.9151786998e+00 -5.0492376212e+00 2.9151786998e+00 5.0492376212e+00 
88700 6.3938686318e+00 -7.8896975205e-04 2.9151923323e+00 -5.0492612334e+00 2.9151923323e+00 5.0492612334e+00 
88800 6.3938686107e+00 -7.8315993498e-04 2.9152058644e+00 -5.0492846716e+00 2.9152058644e+00 5.0492846716e+00 
88900 6.3938685900e+00 -7.7739430312e-04 2.9152192967e+00 -5.0493079371e+00 2.9152192967e+00 5.0493079371e+00 
89000 6.3938685695e+00 -7.7167251079e-04 2.9152326301e+00 -5.0493310312e+00 2.9152326301e+00 5.0493310312e+00 
89100 6.3938685492e+00 -7.6599421502e-04 2.9152458653e+00 -5.0493539552e+00 2.9152458653e+00 5.0493539552e+00 
89200 6.3938685293e+00 -7.6035907555e-04 2.9152590030e+00 -5.0493767105e+00 2.9152590030e+00 5.0493767105e+00 
89300 6.3938685096e+00 -7.5476675480e-04 2.9152720441e+00 -5.0493992982e+00 2.9152720441e+00 5.0493992982e+00 
89400 6.3938684902e+00 -7.4921691785e-04 2.9152849891e+00 -5.0494217197e+00 2.9152849891e+00 5.0494217197e+00 
89500 6.3938684711e+00 -7.4370923242e-04 2.9152978389e+00 -5.0494439762e+00 2.9152978389e+00 5.0494439762e+00 
89600 6.3938684523e+00 -7.3824336886e-04 2.9153105942e+00 -5.0494660690e+00 2.9153105942e+00 5.0494660690e+00 
89700 6.3938684337e+00 -7.3281900011e-04 2.9153232557e+00 -5.0494879994e+00 2.9153232557e+00 5.0494879994e+00 
89800 6.3938684153e+00 -7.2743580169e-04 2.9153358241e+00 -5.0495097685e+00 2.9153358241e+00 5.0495097685e+00 
89900 6.3938683972e+00 -7.2209345169e-04 2.9153483002e+00 -5.0495313776e+00 2.9153483002e+00 5.0495313776e+00 
90000 6.3938683794e+00 -7.1679163072e-04 2.9153606845e+00 -5.0495528280e+00 2.9153606845e+00 5.0495528280e+00 
90100 6.3938683618e+00 -7.1153002192e-04 2.9153729779e+00 -5.0495741207e+00 2.9153729779e+00 5.0495741207e+00 
90200 6.3938683444e+00 -7.0630831093e-04 2.9153851810e+00 -5.0495952571e+00 2.9153851810e+00 5.0495952571e+00 
90300 6.3938683273e+00 -7.0112618587e-04 2.9153972944e+00 -5.0496162382e+00 2.9153972944e+00 5.0496162382e+00 
90400 6.3938683104e+00 -6.9598333732e-04 2.9154093190e+00 -5.0496370653e+00 2.9154093190e+00 5.0496370653e+00 
90500 6.3938682938e+00 -6.9087945830e-04 2.9154212553e+00 -5.0496577396e+00 2.9154212553e+00 5.0496577396e+00 
90600 6.3938682774e+00 -6.8581424426e-04 2.9154331040e+00 -5.0496782622e+00 2.9154331040e+00 5.0496782622e+00 
90700 6.3938682612e+00 -6.8078739304e-04 2.9154448658e+00 -5.0496986342e+00 2.9154448658e+00 5.0496986342e+00 
90800 6.3938682452e+00 -6.7579860489e-04 2.9154565413e+00 -5.0497188568e+00 2.9154565413e+00 5.0497188568e+00 
90900 6.3938682295e+00 -6.7084758238e-04 2.9154681313e+00 -5.0497389312e+00 2.9154681313e+00 5.0497389312e+00 
91000 6.3938682140e+00 -6.6593403049e-04 2.9154796362e+00 -5.0497588584e+00 2.9154796362e+00 5.0497588584e+00 
91100 6.3938681987e+00 -6.6105765649e-04 2.9154910569e+00 -5.0497786396e+00 2.9154910569e+00 5.0497786396e+00 
91200 6.3938681836e+00 -6.5621816996e-04 2.9155023939e+00 -5.0497982758e+00 2.9155023939e+00 5.0497982758e+00 
91300 6.3938681687e+00 -6.5141528281e-04 2.9155136479e+00 -5.0498177683e+00 2.9155136479e+00 5.0498177683e+00 
91400 6.3938681540e+00 -6.4664870917e-04 2.9155248194e+00 -5.0498371179e+00 2.9155248194e+00 5.0498371179e+00 
91500 6.3938681395e+00 -6.4191816549e-04 2.9155359092e+00 -5.0498563260e+00 2.9155359092e+00 5.0498563260e+00 
91600 6.3938681253e+00 -6.3722337043e-04 2.9155469177e+00 -5.0498753934e+00 2.9155469177e+00 5.0498753934e+00 
91700 6.3938681112e+00 -6.3256404486e-04 2.9155578458e+00 -5.0498943213e+00 2.9155578458e+00 5.0498943213e+00 
91800 6.3938680973e+00 -6.2793991189e-04 2.9155686939e+00 -5.0499131107e+00 2.9155686939e+00 5.0499131107e+00 
91900 6.3938680836e+00 -6.2335069680e-04 2.9155794626e+00 -5.0499317627e+00 2.9155794626e+00 5.0499317627e+00 
92000 6.3938680701e+00 -6.1879612705e-04 2.9155901526e+00 -5.0499502784e+00 2.9155901526e+00 5.0499502784e+00 
92100 6.3938680568e+00 -6.1427593225e-04 2.9156007645e+00 -5.0499686586e+00 2.9156007645e+00 5.0499686586e+00 
92200 6.3938680437e+00 -6.0978984416e-04 2.9156112988e+00 -5.0499869046e+00 2.9156112988e+00 5.0499869046e+00 
92300 6.3938680308e+00 -6.0533759665e-04 2.9156217561e+00 -5.0500050172e+00 2.9156217561e+00 5.0500050172e+00 
92400 6.3938680180e+00 -6.0091892570e-04 2.9156321370e+00 -5.0500229975e+00 2.9156321370e+00 5.0500229975e+00 
92500 6.3938680054e+00 -5.9653356939e-04 2.9156424422e+00 -5.0500408465e+00 2.9156424422e+00 5.0500408465e+00 
92600 6.3938679930e+00 -5.9218126787e-04 2.9156526721e+00 -5.0500585652e+00 2.9156526721e+00 5.0500585652e+00 
92700 6.3938679808e+00 -5.8786176334e-04 2.9156628273e+00 -5.0500761546e+00 2.9156628273e+00 5.0500761546e+00 
92800 6.3938679688e+00 -5.8357480005e-04 2.9156729084e+00 -5.0500936156e+00 2.9156729084e+00 5.0500936156e+00 
92900 6.3938679569e+00 -5.7932012428e-04 2.9156829159e+00 -5.0501109492e+00 2.9156829159e+00 5.0501109492e+00 
93000 6.3938679452e+00 -5.7509748430e-04 2.9156928505e+00 -5.0501281563e+00 2.9156928505e+00 5.0501281563e+00 
93100 6.3938679336e+00 -5.7090663042e-04 2.9157027126e+00 -5.0501452380e+00 2.9157027126e+00 5.0501452380e+00 
93200 6.3938679222e+00 -5.6674731487e-04 2.9157125028e+00 -5.0501621951e+00 2.9157125028e+00 5.0501621951e+00 
93300 6.3938679110e+00 -5.6261929189e-04 2.9157222217e+00 -5.0501790287e+00 2.9157222217e+00 5.0501790287e+00 
93400 6.3938678999e+00 -5.5852231766e-04 2.9157318697e+00 -5.0501957396e+00 2.9157318697e+00 5.0501957396e+00 
93500 6.3938678890e+00 -5.5445615028e-04 2.9157414474e+00 -5.0502123287e+00 2.9157414474e+00 5.0502123287e+00 
93600 6.3938678782e+00 -5.5042054978e-04 2.9157509554e+00 -5.0502287970e+00 2.9157509554e+00 5.0502287970e+00 
93700 6.3938678676e+00 -5.4641527810e-04 2.9157603942e+00 -5.0502451454e+00 2.9157603942e+00 5.0502451454e+00 
93800 6.3938678571e+00 -5.4244009906e-04 2.9157697642e+00 -5.0502613748e+00 2.9157697642e+00 5.0502613748e+00 
93900 6.3938678468e+00 -5.3849477835e-04 2.9157790660e+00 -5.0502774860e+00 2.9157790660e+00 5.0502774860e+00 
94000 6.3938678366e+00 -5.3457908354e-04 2.9157883002e+00 -5.0502934801e+00 2.9157883002e+00 5.0502934801e+00 
94100 6.3938678266e+00 -5.3069278403e-04 2.9157974672e+00 -5.0503093577e+00 2.9157974672e+00 5.0503093577e+00 
94200 6.3938678167e+00 -5.2683565105e-04 2.9158065675e+00 -5.0503251199e+00 2.9158065675e+00 5.0503251199e+00 
94300 6.3938678070e+00 -5.2300745766e-04 2.9158156016e+00 -5.0503407675e+00 2.9158156016e+00 5.0503407675e+00 
94400 6.3938677974e+00 -5.1920797872e-04 2.9158245701e+00 -5.0503563014e+00 2.9158245701e+00 5.0503563014e+00 
94500 6.3938677879e+00 -5.1543699087e-04 2.9158334734e+00 -5.0503717223e+00 2.9158334734e+00 5.0503717223e+00 
94600 6.3938677786e+00 -5.1169427254e-04 2.9158423120e+00 -5.0503870312e+00 2.9158423120e+00 5.0503870312e+00 
94700 6.3938677694e+00 -5.0797960391e-04 2.9158510864e+00 -5.0504022289e+00 2.9158510864e+00 5.0504022289e+00 
94800 6.3938677603e+00 -5.0429276691e-04 2.9158597970e+00 -5.0504173162e+00 2.9158597970e+00 5.0504173162e+00 
94900 6.3938677513e+00 -5.0063354521e-04 2.9158684444e+00 -5.0504322939e+00 2.9158684444e+00 5.0504322939e+00 
95000 6.3938677425e+00 -4.9700172420e-04 2.9158770291e+00 -5.0504471630e+00 2.9158770291e+00 5.0504471630e+00 
95100 6.3938677338e+00 -4.9339709097e-04 2.9158855514e+00 -5.0504619241e+00 2.9158855514e+00 5.0504619241e+00 
95200 6.3938677253e+00 -4.8981943432e-04 2.9158940119e+00 -5.0504765781e+00 2.9158940119e+00 5.0504765781e+00 
95300 6.3938677168e+00 -4.8626854470e-04 2.9159024111e+00 -5.0504911259e+00 2.9159024111e+00 5.0504911259e+00 
95400 6.3938677085e+00 -4.8274421426e-04 2.9159107493e+00 -5.0505055681e+00 2.9159107493e+00 5.0505055681e+00 
95500 6.3938677003e+00 -4.7924623680e-04 2.9159190270e+00 -5.0505199056e+00 2.9159190270e+00 5.0505199056e+00 
95600 6.3938676922e+00 -4.7577440774e-04 2.9159272448e+00 -5.0505341392e+00 2.9159272448e+00 5.0505341392e+00 
95700 6.3938676842e+00 -4.7232852415e-04 2.9159354030e+00 -5.0505482696e+00 2.9159354030e+00 5.0505482696e+00 
95800 6.3938676763e+00 -4.6890838472e-04 2.9159435021e+00 -5.0505622976e+00 2.9159435021e+00 5.0505622976e+00 
95900 6.3938676686e+00 -4.6551378972e-04 2.9159515425e+00 -5.0505762241e+00 2.9159515425e+00 5.0505762241e+00 
96000 6.3938676609e+00 -4.6214454103e-04 2.9159595247e+00 -5.0505900496e+00 2.9159595247e+00 5.0505900496e+00 
96100 6.3938676534e+00 -4.5880044210e-04 2.9159674491e+00 -5.0506037751e+00 2.9159674491e+00 5.0506037751e+00 
96200 6.3938676460e+00 -4.5548129795e-04 2.9159753162e+00 -5.0506174012e+00 2.9159753162e+00 5.0506174012e+00 
96300 6.3938676387e+00 -4.5218691516e-04 2.9159831263e+00 -5.0506309287e+00 2.9159831263e+00 5.0506309287e+00 
96400 6.3938676315e+00 -4.4891710183e-04 2.9159908799e+00 -5.0506443583e+00 2.9159908799e+00 5.0506443583e+00 
96500 6.3938676243e+00 -4.4567166763e-04 2.9159985774e+00 -5.0506576908e+00 2.9159985774e+00 5.0506576908e+00 
96600 6.3938676173e+00 -4.4245042369e-04 2.9160062192e+00 -5.0506709269e+00 2.9160062192e+00 5.0506709269e+00 
96700 6.3938676104e+00 -4.3925318271e-04 2.9160138058e+00 -5.0506840672e+00 2.9160138058e+00 5.0506840672e+00 
96800 6.3938676036e+00 -4.3607975882e-04 2.9160213375e+00 -5.0506971126e+00 2.9160213375e+00 5.0506971126e+00 
96900 6.3938675969e+00 -4.3292996769e-04 2.9160288149e+00 -5.0507100637e+00 2.9160288149e+00 5.0507100637e+00 
97000 6.3938675903e+00 -4.2980362641e-04 2.9160362381e+00 -5.0507229212e+00 2.9160362381e+00 5.0507229212e+00 
97100 6.3938675838e+00 -4.2670055357e-04 2.9160436078e+00 -5.0507356858e+00 2.9160436078e+00 5.0507356858e+00 
97200 6.3938675774e+00 -4.2362056918e-04 2.9160509242e+00 -5.0507483582e+00 2.9160509242e+00 5.0507483582e+00 
97300 6.3938675710e+00 -4.2056349470e-04 2.9160581878e+00 -5.0507609391e+00 2.9160581878e+00 5.0507609391e+00 
97400 6.3938675648e+00 -4.1752915299e-04 2.9160653990e+00 -5.0507734293e+00 2.9160653990e+00 5.0507734293e+00 
97500 6.3938675586e+00 -4.1451736837e-04 2.9160725581e+00 -5.0507858292e+00 2.9160725581e+00 5.0507858292e+00 
97600 6.3938675526e+00 -4.1152796651e-04 2.9160796656e+00 -5.0507981397e+00 2.9160796656e+00 5.0507981397e+00 
97700 6.3938675466e+00 -4.0856077451e-04 2.9160867218e+00 -5.0508103614e+00 2.9160867218e+00 5.0508103614e+00 
97800 6.3938675407e+00 -4.0561562082e-04 2.9160937271e+00 -5.0508224949e+00 2.9160937271e+00 5.0508224949e+00 
97900 6.3938675349e+00 -4.0269233528e-04 2.9161006818e+00 -5.0508345409e+00 2.9161006818e+00 5.0508345409e+00 
98000 6.3938675292e+00 -3.9979074908e-04 2.9161075865e+00 -5.0508465001e+00 2.9161075865e+00 5.0508465001e+00 
98100 6.3938675236e+00 -3.9691069475e-04 2.9161144414e+00 -5.0508583731e+00 2.9161144414e+00 5.0508583731e+00 
98200 6.3938675180e+00 -3.9405200617e-04 2.9161212468e+00 -5.0508701605e+00 2.9161212468e+00 5.0508701605e+00 
98300 6.3938675125e+00 -3.9121451854e-04 2.9161280033e+00 -5.0508818630e+00 2.9161280033e+00 5.0508818630e+00 
98400 6.3938675071e+00 -3.8839806836e-04 2.9161347110e+00 -5.0508934813e+00 2.9161347110e+00 5.0508934813e+00 
98500 6.3938675018e+00 -3.8560249346e-04 2.9161413705e+00 -5.0509050158e+00 2.9161413705e+00 5.0509050158e+00 
98600 6.3938674966e+00 -3.8282763295e-04 2.9161479820e+00 -5.0509164673e+00 2.9161479820e+00 5.0509164673e+00 
98700 6.3938674914e+00 -3.8007332723e-04 2.9161545460e+00 -5.0509278363e+00 2.9161545460e+00 5.0509278363e+00 
98800 6.3938674863e+00 -3.7733941796e-04 2.9161610627e+00 -5.0509391236e+00 2.9161610627e+00 5.0509391236e+00 
98900 6.3938674813e+00 -3.7462574807e-04 2.9161675325e+00 -5.0509503296e+00 2.9161675325e+00 5.0509503296e+00 
99000 6.3938674764e+00 -3.7193216176e-04 2.9161739557e+00 -5.0509614550e+00 2.9161739557e+00 5.0509614550e+00 
99100 6.3938674715e+00 -3.6925850445e-04 2.9161803328e+00 -5.0509725004e+00 2.9161803328e+00 5.0509725004e+00 
99200 6.3938674667e+00 -3.6660462280e-04 2.9161866640e+00 -5.0509834664e+00 2.9161866640e+00 5.0509834664e+00 
99300 6.3938674620e+00 -3.6397036470e-04 2.9161929497e+00 -5.0509943535e+00 2.9161929497e+00 5.0509943535e+00 
99400 6.3938674574e+00 -3.6135557924e-04 2.9161991902e+00 -5.0510051624e+00 2.9161991902e+00 5.0510051624e+00 
99500 6.3938674528e+00 -3.5876011673e-04 2.9162053858e+00 -5.0510158936e+00 2.9162053858e+00 5.0510158936e+00 
99600 6.3938674482e+00 -3.5618382867e-04 2.9162115370e+00 -5.0510265477e+00 2.9162115370e+00 5.0510265477e+00 
99700 6.3938674438e+00 -3.5362656773e-04 2.9162176439e+00 -5.0510371252e+00 2.9162176439e+00 5.0510371252e+00 
99800 6.3938674394e+00 -3.5108818778e-04 2.9162237071e+00 -5.0510476269e+00 2.9162237071e+00 5.0510476269e+00 
99900 6.3938674351e+00 -3.4856854382e-04 2.9162297266e+00 -5.0510580531e+00 2.9162297266e+00 5.0510580531e+00 
100000 6.3938674308e+00 -3.4606749205e-04 2.9162357030e+00 -5.0510684044e+00 2.9162357030e+00 5.0510684044e+00 
100100 6.3938674266e+00 -3.4358488978e-04 2.9162416364e+00 -5.0510786815e+00 2.9162416364e+00 5.0510786815e+00 
100200 6.3938674225e+00 -3.4112059547e-04 2.9162475273e+00 -5.0510888848e+00 2.9162475273e+00 5.0510888848e+00 
100300 6.3938674184e+00 -3.3867446872e-04 2.9162533760e+00 -5.0510990149e+00 2.9162533760e+00 5.0510990149e+00 
100400 6.3938674144e+00 -3.3624637023e-04 2.9162591826e+00 -5.0511090724e+00 2.9162591826e+00 5.0511090724e+00 
100500 6.3938674104e+00 -3.3383616182e-04 2.9162649477e+00 -5.0511190577e+00 2.9162649477e+00 5.0511190577e+00 
100600 6.3938674065e+00 -3.3144370641e-04 2.9162706714e+00 -5.0511289714e+00 2.9162706714e+00 5.0511289714e+00 
100700 6.3938674027e+00 -3.2906886802e-04 2.9162763540e+00 -5.0511388141e+00 2.9162763540e+00 5.0511388141e+00 
100800 6.3938673989e+00 -3.2671151173e-04 2.9162819960e+00 -5.0511485862e+00 2.9162819960e+00 5.0511485862e+00 
100900 6.3938673952e+00 -3.2437150373e-04 2.9162875975e+00 -5.0511582883e+00 2.9162875975e+00 5.0511582883e+00 
101000 6.3938673915e+00 -3.2204871124e-04 2.9162931588e+00 -5.0511679209e+00 2.9162931588e+00 5.0511679209e+00 
101100 6.3938673879e+00 -3.1974300256e-04 2.9162986804e+00 -5.0511774845e+00 2.9162986804e+00 5.0511774845e+00 
101200 6.3938673843e+00 -3.1745424704e-04 2.9163041624e+00 -5.0511869796e+00 2.9163041624e+00 5.0511869796e+00 
101300 6.3938673808e+00 -3.1518231504e-04 2.9163096051e+00 -5.0511964067e+00 2.9163096051e+00 5.0511964067e+00 
101400 6.3938673774e+00 -3.1292707800e-04 2.9163150089e+00 -5.0512057664e+00 2.9163150089e+00 5.0512057664e+00 
101500 6.3938673740e+00 -3.1068840834e-04 2.9163203740e+00 -5.0512150590e+00 2.9163203740e+00 5.0512150590e+00 
101600 6.3938673706e+00 -3.0846617953e-04 2.9163257008e+00 -5.0512242851e+00 2.9163257008e+00 5.0512242851e+00 
101700 6.3938673673e+00 -3.0626026601e-04 2.9163309894e+00 -5.0512334453e+00 2.9163309894e+00 5.0512334453e+00 
101800 6.3938673640e+00 -3.0407054325e-04 2.9163362402e+00 -5.0512425399e+00 2.9163362402e+00 5.0512425399e+00 
101900 6.3938673608e+00 -3.0189688769e-04 2.9163414534e+00 -5.0512515695e+00 2.9163414534e+00 5.0512515695e+00 
102000 6.3938673577e+00 -2.9973917677e-04 2.9163466293e+00 -5.0512605345e+00 2.9163466293e+00 5.0512605345e+00 
102100 6.3938673546e+00 -2.9759728890e-04 2.9163517683e+00 -5.0512694354e+00 2.9163517683e+00 5.0512694354e+00 
102200 6.3938673515e+00 -2.9547110344e-04 2.9163568705e+00 -5.0512782727e+00 2.9163568705e+00 5.0512782727e+00 
102300 6.3938673485e+00 -2.9336050072e-04 2.9163619363e+00 -5.0512870469e+00 2.9163619363e+00 5.0512870469e+00 
102400 6.3938673455e+00 -2.9126536204e-04 2.9163669658e+00 -5.0512957583e+00 2.9163669658e+00 5.0512957583e+00 
102500 6.3938673426e+00 -2.8918556961e-04 2.9163719595e+00 -5.0513044076e+00 2.9163719595e+00 5.0513044076e+00 
102600 6.3938673397e+00 -2.8712100658e-04 2.9163769174e+00 -5.0513129950e+00 2.9163769174e+00 5.0513129950e+00 
102700 6.3938673368e+00 -2.8507155707e-04 2.9163818400e+00 -5.0513215212e+00 2.9163818400e+00 5.0513215212e+00 
102800 6.3938673340e+00 -2.8303710606e-04 2.9163867274e+00 -5.0513299864e+00 2.9163867274e+00 5.0513299864e+00 
102900 6.3938673313e+00 -2.8101753948e-04 2.9163915800e+00 -5.0513383913e+00 2.9163915800e+00 5.0513383913e+00 
103000 6.3938673286e+00 -2.7901274416e-04 2.9163963979e+00 -5.0513467361e+00 2.9163963979e+00 5.0513467361e+00 
103100 6.3938673259e+00 -2.7702260782e-04 2.9164011814e+00 -5.0513550214e+00 2.9164011814e+00 5.0513550214e+00 
103200 6.3938673232e+00 -2.7504701908e-04 2.9164059308e+00 -5.0513632476e+00 2.9164059308e+00 5.0513632476e+00 
103300 6.3938673206e+00 -2.7308586744e-04 2.9164106463e+00 -5.0513714151e+00 2.9164106463e+00 5.0513714151e+00 
103400 6.3938673181e+00 -2.7113904326e-04 2.9164153282e+00 -5.0513795244e+00 2.9164153282e+00 5.0513795244e+00 
103500 6.3938673156e+00 -2.6920643779e-04 2.9164199767e+00 -5.0513875758e+00 2.9164199767e+00 5.0513875758e+00 
103600 6.3938673131e+00 -2.6728794314e-04 2.9164245920e+00 -5.0513955698e+00 2.9164245920e+00 5.0513955698e+00 
103700 6.3938673106e+00 -2.6538345226e-04 2.9164291745e+00 -5.0514035069e+00 2.9164291745e+00 5.0514035069e+00 
103800 6.3938673082e+00 -2.6349285897e-04 2.9164337243e+00 -5.0514113874e+00 2.9164337243e+00 5.0514113874e+00 
103900 6.3938673059e+00 -2.6161605791e-04 2.9164382417e+00 -5.0514192117e+00 2.9164382417e+00 5.0514192117e+00 
104000 6.3938673035e+00 -2.5975294456e-04 2.9164427269e+00 -5.0514269803e+00 2.9164427269e+00 5.0514269803e+00 
104100 6.3938673012e+00 -2.5790341524e-04 2.9164471801e+00 -5.0514346936e+00 2.9164471801e+00 5.0514346936e+00 
104200 6.3938672990e+00 -2.5606736706e-04 2.9164516017e+00 -5.0514423519e+00 2.9164516017e+00 5.0514423519e+00 
104300 6.3938672968e+00 -2.5424469799e-04 2.9164559917e+00 -5.0514499557e+00 2.9164559917e+00 5.0514499557e+00 
104400 6.3938672946e+00 -2.5243530675e-04 2.9164603505e+00 -5.0514575053e+00 2.9164603505e+00 5.0514575053e+00 
104500 6.3938672924e+00 -2.5063909292e-04 2.9164646783e+00 -5.0514650013e+00 2.9164646783e+00 5.0514650013e+00 
104600 6.3938672903e+00 -2.4885595682e-04 2.9164689752e+00 -5.0514724438e+00 2.9164689752e+00 5.0514724438e+00 
104700 6.3938672882e+00 -2.4708579960e-04 2.9164732416e+00 -5.0514798334e+00 2.9164732416e+00 5.0514798334e+00 
104800 6.3938672861e+00 -2.4532852316e-04 2.9164774777e+00 -5.0514871705e+00 2.9164774777e+00 5.0514871705e+00 
104900 6.3938672841e+00 -2.4358403020e-04 2.9164816836e+00 -5.0514944553e+00 2.9164816836e+00 5.0514944553e+00 
105000 6.3938672821e+00 -2.4185222416e-04 2.9164858596e+00 -5.0515016883e+00 2.9164858596e+00 5.0515016883e+00 
105100 6.3938672801e+00 -2.4013300927e-04 2.9164900059e+00 -5.0515088699e+00 2.9164900059e+00 5.0515088699e+00 
105200 6.3938672782e+00 -2.3842629049e-04 2.9164941227e+00 -5.0515160005e+00 2.9164941227e+00 5.0515160005e+00 
105300 6.3938672763e+00 -2.3673197356e-04 2.9164982102e+00 -5.0515230803e+00 2.9164982102e+00 5.0515230803e+00 
105400 6.3938672744e+00 -2.3504996493e-04 2.9165022687e+00 -5.0515301098e+00 2.9165022687e+00 5.0515301098e+00 
105500 6.3938672725e+00 -2.3338017181e-04 2.9165062984e+00 -5.0515370894e+00 2.9165062984e+00 5.0515370894e+00 
105600 6.3938672707e+00 -2.3172250214e-04 2.9165102994e+00 -5.0515440194e+00 2.9165102994e+00 5.0515440194e+00 
105700 6.3938672689e+00 -2.3007686457e-04 2.9165142720e+00 -5.0515509001e+00 2.9165142720e+00 5.0515509001e+00 
105800 6.3938672671e+00 -2.2844316848e-04 2.9165182164e+00 -5.0515577320e+00 2.9165182164e+00 5.0515577320e+00 
105900 6.3938672654e+00 -2.2682132396e-04 2.9165221328e+00 -5.0515645153e+00 2.9165221328e+00 5.0515645153e+00 
106000 6.3938672637e+00 -2.2521124182e-04 2.9165260213e+00 -5.0515712505e+00 2.9165260213e+00 5.0515712505e+00 
106100 6.3938672620e+00 -2.2361283355e-04 2.9165298823e+00 -5.0515779379e+00 2.9165298823e+00 5.0515779379e+00 
106200 6.3938672603e+00 -2.2202601135e-04 2.9165337158e+00 -5.0515845778e+00 2.9165337158e+00 5.0515845778e+00 
106300 6.3938672587e+00 -2.2045068811e-04 2.9165375222e+00 -5.0515911706e+00 2.9165375222e+00 5.0515911706e+00 
106400 6.3938672571e+00 -2.1888677740e-04 2.9165413015e+00 -5.0515977165e+00 2.9165413015e+00 5.0515977165e+00 
106500 6.3938672555e+00 -2.1733419347e-04 2.9165450540e+00 -5.0516042161e+00 2.9165450540e+00 5.0516042161e+00 
106600 6.3938672539e+00 -2.1579285126e-04 2.9165487799e+00 -5.0516106695e+00 2.9165487799e+00 5.0516106695e+00 
106700 6.3938672524e+00 -2.1426266634e-04 2.9165524793e+00 -5.0516170771e+00 2.9165524793e+00 5.0516170771e+00 
106800 6.3938672509e+00 -2.1274355498e-04 2.9165561525e+00 -5.0516234393e+00 2.9165561525e+00 5.0516234393e+00 
106900 6.3938672494e+00 -2.1123543409e-04 2.9165597997e+00 -5.0516297564e+00 2.9165597997e+00 5.0516297564e+00 
107000 6.3938672479e+00 -2.0973822123e-04 2.9165634210e+00 -5.0516360287e+00 2.9165634210e+00 5.0516360287e+00 
107100 6.3938672465e+00 -2.0825183462e-04 2.9165670167e+00 -5.0516422565e+00 2.9165670167e+00 5.0516422565e+00 
107200 6.3938672451e+00 -2.0677619310e-04 2.9165705868e+00 -5.0516484402e+00 2.9165705868e+00 5.0516484402e+00 
107300 6.3938672437e+00 -2.0531121617e-04 2.9165741317e+00 -5.0516545801e+00 2.9165741317e+00 5.0516545801e+00 
107400 6.3938672423e+00 -2.0385682394e-04 2.9165776514e+00 -5.0516606765e+00 2.9165776514e+00 5.0516606765e+00 
107500 6.3938672410e+00 -2.0241293715e-04 2.9165811462e+00 -5.0516667296e+00 2.9165811462e+00 5.0516667296e+00 
107600 6.3938672396e+00 -2.0097947718e-04 2.9165846162e+00 -5.0516727399e+00 2.9165846162e+00 5.0516727399e+00 
107700 6.3938672383e+00 -1.9955636600e-04 2.9165880617e+00 -5.0516787076e+00 2.9165880617e+00 5.0516787076e+00 
107800 6.3938672370e+00 -1.9814352620e-04 2.9165914828e+00 -5.0516846331e+00 2.9165914828e+00 5.0516846331e+00 
107900 6.3938672357e+00 -1.9674088097e-04 2.9165948796e+00 -5.0516905166e+00 2.9165948796e+00 5.0516905166e+00 
108000 6.3938672345e+00 -1.9534835412e-04 2.9165982524e+00 -5.0516963584e+00 2.9165982524e+00 5.0516963584e+00 
108100 6.3938672333e+00 -1.9396587003e-04 2.9166016013e+00 -5.0517021589e+00 2.9166016013e+00 5.0517021589e+00 
108200 6.3938672321e+00 -1.9259335368e-04 2.9166049265e+00 -5.0517079183e+00 2.9166049265e+00 5.0517079183e+00 
108300 6.3938672309e+00 -1.9123073066e-04 2.9166082282e+00 -5.0517136370e+00 2.9166082282e+00 5.0517136370e+00 
108400 6.3938672297e+00 -1.8987792709e-04 2.9166115065e+00 -5.0517193151e+00 2.9166115065e+00 5.0517193151e+00 
108500 6.3938672285e+00 -1.8853486972e-04 2.9166147616e+00 -5.0517249532e+00 2.9166147616e+00 5.0517249532e+00 
108600 6.3938672274e+00 -1.8720148583e-04 2.9166179937e+00 -5.0517305513e+00 2.9166179937e+00 5.0517305513e+00 
108700 6.3938672263e+00 -1.8587770329e-04 2.9166212029e+00 -5.0517361098e+00 2.9166212029e+00 5.0517361098e+00 
108800 6.3938672252e+00 -1.8456345052e-04 2.9166243894e+00 -5.0517416291e+00 2.9166243894e+00 5.0517416291e+00 
108900 6.3938672241e+00 -1.8325865652e-04 2.9166275534e+00 -5.0517471093e+00 2.9166275534e+00 5.0517471093e+00 
109000 6.3938672230e+00 -1.8196325081e-04 2.9166306950e+00 -5.0517525507e+00 2.9166306950e+00 5.0517525507e+00 
109100 6.3938672220e+00 -1.8067716349e-04 2.9166338144e+00 -5.0517579537e+00 2.9166338144e+00 5.0517579537e+00 
109200 6.3938672209e+00 -1.7940032518e-04 2.9166369118e+00 -5.0517633185e+00 2.9166369118e+00 5.0517633185e+00 
109300 6.3938672199e+00 -1.7813266705e-04 2.9166399873e+00 -5.0517686453e+00 2.9166399873e+00 5.0517686453e+00 
109400 6.3938672189e+00 -1.7687412082e-04 2.9166430410e+00 -5.0517739345e+00 2.9166430410e+00 5.0517739345e+00 
109500 6.3938672179e+00 -1.7562461871e-04 2.9166460731e+00 -5.0517791864e+00 2.9166460731e+00 5.0517791864e+00 
109600 6.3938672170e+00 -1.7438409349e-04 2.9166490839e+00 -5.0517844011e+00 2.9166490839e+00 5.0517844011e+00 
109700 6.3938672160e+00 -1.7315247845e-04 2.9166520733e+00 -5.0517895790e+00 2.9166520733e+00 5.0517895790e+00 
109800 6.3938672151e+00 -1.7192970739e-04 2.9166550417e+00 -5.0517947203e+00 2.9166550417e+00 5.0517947203e+00 
109900 6.3938672142e+00 -1.7071571462e-04 2.9166579891e+00 -5.0517998253e+00 2.9166579891e+00 5.0517998253e+00 
110000 6.3938672133e+00 -1.6951043498e-04 2.9166609156e+00 -5.0518048943e+00 2.9166609156e+00 5.0518048943e+00 
110100 6.3938672124e+00 -1.6831380381e-04 2.9166638215e+00 -5.0518099275e+00 2.9166638215e+00 5.0518099275e+00 
110200 6.3938672115e+00 -1.6712575693e-04 2.9166667069e+00 -5.0518149251e+00 2.9166667069e+00 5.0518149251e+00 
110300 6.3938672106e+00 -1.6594623067e-04 2.9166695719e+00 -5.0518198874e+00 2.9166695719e+00 5.0518198874e+00 
110400 6.3938672098e+00 -1.6477516187e-04 2.9166724167e+00 -5.0518248148e+00 2.9166724167e+00 5.0518248148e+00 
110500 6.3938672089e+00 -1.6361248785e-04 2.9166752414e+00 -5.0518297073e+00 2.9166752414e+00 5.0518297073e+00 
110600 6.3938672081e+00 -1.6245814639e-04 2.9166780462e+00 -5.0518345653e+00 2.9166780462e+00 5.0518345653e+00 
110700 6.3938672073e+00 -1.6131207579e-04 2.9166808312e+00 -5.0518393891e+00 2.9166808312e+00 5.0518393891e+00 
110800 6.3938672065e+00 -1.6017421481e-04 2.9166835965e+00 -5.0518441788e+00 2.9166835965e+00 5.0518441788e+00 
110900 6.3938672057e+00 -1.5904450268e-04 2.9166863423e+00 -5.0518489347e+00 2.9166863423e+00 5.0518489347e+00 
111000 6.3938672049e+00 -1.5792287910e-04 2.9166890688e+00 -5.0518536571e+00 2.9166890688e+00 5.0518536571e+00 
111100 6.3938672042e+00 -1.5680928425e-04 2.9166917760e+00 -5.0518583461e+00 2.9166917760e+00 5.0518583461e+00 
111200 6.3938672034e+00 -1.5570365876e-04 2.9166944642e+00 -5.0518630021e+00 2.9166944642e+00 5.0518630021e+00 
111300 6.3938672027e+00 -1.5460594372e-04 2.9166971334e+00 -5.0518676253e+00 2.9166971334e+00 5.0518676253e+00 
111400 6.3938672020e+00 -1.5351608069e-04 2.9166997837e+00 -5.0518722158e+00 2.9166997837e+00 5.0518722158e+00 
111500 6.3938672013e+00 -1.5243401164e-04 2.9167024154e+00 -5.0518767740e+00 2.9167024154e+00 5.0518767740e+00 
111600 6.3938672006e+00 -1.5135967904e-04 2.9167050285e+00 -5.0518813001e+00 2.9167050285e+00 5.0518813001e+00 
111700 6.3938671999e+00 -1.5029302578e-04 2.9167076232e+00 -5.0518857942e+00 2.9167076232e+00 5.0518857942e+00 
111800 6.3938671992e+00 -1.4923399518e-04 2.9167101996e+00 -5.0518902567e+00 2.9167101996e+00 5.0518902567e+00 
111900 6.3938671986e+00 -1.4818253100e-04 2.9167127579e+00 -5.0518946877e+00 2.9167127579e+00 5.0518946877e+00 
112000 6.3938671979e+00 -1.4713857746e-04 2.9167152981e+00 -5.0518990876e+00 2.9167152981e+00 5.0518990876e+00 
112100 6.3938671973e+00 -1.4610207918e-04 2.9167178205e+00 -5.0519034564e+00 2.9167178205e+00 5.0519034564e+00 
112200 6.3938671966e+00 -1.4507298122e-04 2.9167203250e+00 -5.0519077944e+00 2.9167203250e+00 5.0519077944e+00 
112300 6.3938671960e+00 -1.4405122906e-04 2.9167228119e+00 -5.0519121019e+00 2.9167228119e+00 5.0519121019e+00 
112400 6.3938671954e+00 -1.4303676860e-04 2.9167252813e+00 -5.0519163790e+00 2.9167252813e+00 5.0519163790e+00 
112500 6.3938671948e+00 -1.4202954615e-04 2.9167277333e+00 -5.0519206260e+00 2.9167277333e+00 5.0519206260e+00 
112600 6.3938671942e+00 -1.4102950844e-04 2.9167301681e+00 -5.0519248431e+00 2.9167301681e+00 5.0519248431e+00 
112700 6.3938671936e+00 -1.4003660262e-04 2.9167325857e+00 -5.0519290305e+00 2.9167325857e+00 5.0519290305e+00 
112800 6.3938671930e+00 -1.3905077622e-04 2.9167349863e+00 -5.0519331884e+00 2.9167349863e+00 5.0519331884e+00 
112900 6.3938671925e+00 -1.3807197719e-04 2.9167373699e+00 -5.0519373171e+00 2.9167373699e+00 5.0519373171e+00 
113000 6.3938671919e+00 -1.3710015388e-04 2.9167397368e+00 -5.0519414166e+00 2.9167397368e+00 5.0519414166e+00 
113100 6.3938671914e+00 -1.3613525503e-04 2.9167420871e+00 -5.0519454874e+00 2.9167420871e+00 5.0519454874e+00 
113200 6.3938671908e+00 -1.3517722978e-04 2.9167444207e+00 -5.0519495294e+00 2.9167444207e+00 5.0519495294e+00 
113300 6.3938671903e+00 -1.3422602766e-04 2.9167467380e+00 -5.0519535430e+00 2.9167467380e+00 5.0519535430e+00 
113400 6.3938671898e+00 -1.3328159858e-04 2.9167490390e+00 -5.0519575284e+00 2.9167490390e+00 5.0519575284e+00 
113500 6.3938671893e+00 -1.3234389285e-04 2.9167513237e+00 -5.0519614857e+00 2.9167513237e+00 5.0519614857e+00 
113600 6.3938671888e+00 -1.3141286112e-04 2.9167535924e+00 -5.0519654152e+00 2.9167535924e+00 5.0519654152e+00 
113700 6.3938671883e+00 -1.3048845447e-04 2.9167558451e+00 -5.0519693170e+00 2.9167558451e+00 5.0519693170e+00 
113800 6.3938671878e+00 -1.2957062433e-04 2.9167580820e+00 -5.0519731914e+00 2.9167580820e+00 5.0519731914e+00 
113900 6.3938671873e+00 -1.2865932250e-04 2.9167603032e+00 -5.0519770386e+00 2.9167603032e+00 5.0519770386e+00 
114000 6.3938671869e+00 -1.2775450114e-04 2.9167625087e+00 -5.0519808586e+00 2.9167625087e+00 5.0519808586e+00 
114100 6.3938671864e+00 -1.2685611281e-04 2.9167646987e+00 -5.0519846518e+00 2.9167646987e+00 5.0519846518e+00 
114200 6.3938671860e+00 -1.2596411040e-04 2.9167668733e+00 -5.0519884184e+00 2.9167668733e+00 5.0519884184e+00 
114300 6.3938671855e+00 -1.2507844716e-04 2.9167690326e+00 -5.0519921584e+00 2.9167690326e+00 5.0519921584e+00 
114400 6.3938671851e+00 -1.2419907672e-04 2.9167711767e+00 -5.0519958721e+00 2.9167711767e+00 5.0519958721e+00 
114500 6.3938671847e+00 -1.2332595305e-04 2.9167733058e+00 -5.0519995598e+00 2.9167733058e+00 5.0519995598e+00 
114600 6.3938671842e+00 -1.2245903047e-04 2.9167754198e+00 -5.0520032214e+00 2.9167754198e+00 5.0520032214e+00 
114700 6.3938671838e+00 -1.2159826366e-04 2.9167775191e+00 -5.0520068574e+00 2.9167775191e+00 5.0520068574e+00 
114800 6.3938671834e+00 -1.2074360764e-04 2.9167796035e+00 -5.0520104678e+00 2.9167796035e+00 5.0520104678e+00 
114900 6.3938671830e+00 -1.1989501775e-04 2.9167816733e+00 -5.0520140528e+00 2.9167816733e+00 5.0520140528e+00 
115000 6.3938671826e+00 -1.1905244971e-04 2.9167837286e+00 -5.0520176126e+00 2.9167837286e+00 5.0520176126e+00 
115100 6.3938671822e+00 -1.1821585956e-04 2.9167857694e+00 -5.0520211474e+00 2.9167857694e+00 5.0520211474e+00 
115200 6.3938671819e+00 -1.1738520366e-04 2.9167877959e+00 -5.0520246574e+00 2.9167877959e+00 5.0520246574e+00 
115300 6.3938671815e+00 -1.1656043872e-04 2.9167898081e+00 -5.0520281427e+00 2.9167898081e+00 5.0520281427e+00 
115400 6.3938671811e+00 -1.1574152179e-04 2.9167918062e+00 -5.0520316035e+00 2.9167918062e+00 5.0520316035e+00 
115500 6.3938671808e+00 -1.1492841022e-04 2.9167937903e+00 -5.0520350400e+00 2.9167937903e+00 5.0520350400e+00 
115600 6.3938671804e+00 -1.1412106170e-04 2.9167957604e+00 -5.0520384523e+00 2.9167957604e+00 5.0520384523e+00 
115700 6.3938671801e+00 -1.1331943423e-04 2.9167977167e+00 -5.0520418407e+00 2.9167977167e+00 5.0520418407e+00 
115800 6.3938671797e+00 -1.1252348616e-04 2.9167996592e+00 -5.0520452052e+00 2.9167996592e+00 5.0520452052e+00 
115900 6.3938671794e+00 -1.1173317611e-04 2.9168015881e+00 -5.0520485462e+00 2.9168015881e+00 5.0520485462e+00 
116000 6.3938671790e+00 -1.1094846305e-04 2.9168035034e+00 -5.0520518636e+00 2.9168035034e+00 5.0520518636e+00 
116100 6.3938671787e+00 -1.1016930626e-04 2.9168054053e+00 -5.0520551578e+00 2.9168054053e+00 5.0520551578e+00 
116200 6.3938671784e+00 -1.0939566530e-04 2.9168072938e+00 -5.0520584288e+00 2.9168072938e+00 5.0520584288e+00 
116300 6.3938671781e+00 -1.0862750008e-04 2.9168091691e+00 -5.0520616769e+00 2.9168091691e+00 5.0520616769e+00 
116400 6.3938671778e+00 -1.0786477077e-04 2.9168110312e+00 -5.0520649021e+00 2.9168110312e+00 5.0520649021e+00 
116500 6.3938671775e+00 -1.0710743787e-04 2.9168128802e+00 -5.0520681047e+00 2.9168128802e+00 5.0520681047e+00 
116600 6.3938671772e+00 -1.0635546217e-04 2.9168147163e+00 -5.0520712848e+00 2.9168147163e+00 5.0520712848e+00 
116700 6.3938671769e+00 -1.0560880476e-04 2.9168165394e+00 -5.0520744426e+00 2.9168165394e+00 5.0520744426e+00 
116800 6.3938671766e+00 -1.0486742704e-04 2.9168183497e+00 -5.0520775782e+00 2.9168183497e+00 5.0520775782e+00 
116900 6.3938671763e+00 -1.0413129066e-04 2.9168201474e+00 -5.0520806918e+00 2.9168201474e+00 5.0520806918e+00 
117000 6.3938671760e+00 -1.0340035760e-04 2.9168219324e+00 -5.0520837835e+00 2.9168219324e+00 5.0520837835e+00 
117100 6.3938671758e+00 -1.0267459012e-04 2.9168237049e+00 -5.0520868536e+00 2.9168237049e+00 5.0520868536e+00 
117200 6.3938671755e+00 -1.0195395075e-04 2.9168254649e+00 -5.0520899020e+00 2.9168254649e+00 5.0520899020e+00 
117300 6.3938671752e+00 -1.0123840231e-04 2.9168272126e+00 -5.0520929291e+00 2.9168272126e+00 5.0520929291e+00 
117400 6.3938671750e+00 -1.0052790792e-04 2.9168289480e+00 -5.0520959350e+00 2.9168289480e+00 5.0520959350e+00 
117500 6.3938671747e+00 -9.9822430949e-05 2.9168306713e+00 -5.0520989197e+00 2.9168306713e+00 5.0520989197e+00 
117600 6.3938671745e+00 -9.9121935061e-05 2.9168323824e+00 -5.0521018835e+00 2.9168323824e+00 5.0521018835e+00 
117700 6.3938671742e+00 -9.8426384188e-05 2.9168340815e+00 -5.0521048265e+00 2.9168340815e+00 5.0521048265e+00 
117800 6.3938671740e+00 -9.7735742540e-05 2.9168357688e+00 -5.0521077488e+00 2.9168357688e+00 5.0521077488e+00 
117900 6.3938671738e+00 -9.7049974588e-05 2.9168374441e+00 -5.0521106507e+00 2.9168374441e+00 5.0521106507e+00 
118000 6.3938671735e+00 -9.6369045084e-05 2.9168391077e+00 -5.0521135321e+00 2.9168391077e+00 5.0521135321e+00 
118100 6.3938671733e+00 -9.5692919029e-05 2.9168407597e+00 -5.0521163934e+00 2.9168407597e+00 5.0521163934e+00 
118200 6.3938671731e+00 -9.5021561700e-05 2.9168424000e+00 -5.0521192345e+00 2.9168424000e+00 5.0521192345e+00 
118300 6.3938671729e+00 -9.4354938635e-05 2.9168440289e+00 -5.0521220558e+00 2.9168440289e+00 5.0521220558e+00 
118400 6.3938671726e+00 -9.3693015626e-05 2.9168456463e+00 -5.0521248572e+00 2.9168456463e+00 5.0521248572e+00 
118500 6.3938671724e+00 -9.3035758725e-05 2.9168472524e+00 -5.0521276390e+00 2.9168472524e+00 5.0521276390e+00 
118600 6.3938671722e+00 -9.2383134241e-05 2.9168488472e+00 -5.0521304013e+00 2.9168488472e+00 5.0521304013e+00 
118700 6.3938671720e+00 -9.1735108731e-05 2.9168504308e+00 -5.0521331442e+00 2.9168504308e+00 5.0521331442e+00 
118800 6.3938671718e+00 -9.1091649016e-05 2.9168520033e+00 -5.0521358678e+00 2.9168520033e+00 5.0521358678e+00 
118900 6.3938671716e+00 -9.0452722153e-05 2.9168535648e+00 -5.0521385724e+00 2.9168535648e+00 5.0521385724e+00 
119000 6.3938671714e+00 -8.9818295451e-05 2.9168551153e+00 -5.0521412580e+00 2.9168551153e+00 5.0521412580e+00 
119100 6.3938671712e+00 -8.9188336468e-05 2.9168566549e+00 -5.0521439247e+00 2.9168566549e+00 5.0521439247e+00 
119200 6.3938671711e+00 -8.8562813002e-05 2.9168581838e+00 -5.0521465727e+00 2.9168581838e+00 5.0521465727e+00 
119300 6.3938671709e+00 -8.7941693093e-05 2.9168597019e+00 -5.0521492022e+00 2.9168597019e+00 5.0521492022e+00 
119400 6.3938671707e+00 -8.7324945022e-05 2.9168612094e+00 -5.0521518132e+00 2.9168612094e+00 5.0521518132e+00 
119500 6.3938671705e+00 -8.6712537306e-05 2.9168627063e+00 -5.0521544059e+00 2.9168627063e+00 5.0521544059e+00 
119600 6.3938671703e+00 -8.6104438702e-05 2.9168641927e+00 -5.0521569805e+00 2.9168641927e+00 5.0521569805e+00 
119700 6.3938671702e+00 -8.5500618198e-05 2.9168656686e+00 -5.0521595369e+00 2.9168656686e+00 5.0521595369e+00 
119800 6.3938671700e+00 -8.4901045015e-05 2.9168671343e+00 -5.0521620755e+00 2.9168671343e+00 5.0521620755e+00 
119900 6.3938671699e+00 -8.4305688605e-05 2.9168685896e+00 -5.0521645962e+00 2.9168685896e+00 5.0521645962e+00 
120000 6.3938671697e+00 -8.3714518647e-05 2.9168700347e+00 -5.0521670992e+00 2.9168700347e+00 5.0521670992e+00 
120100 6.3938671695e+00 -8.3127505051e-05 2.9168714697e+00 -5.0521695847e+00 2.9168714697e+00 5.0521695847e+00 
120200 6.3938671694e+00 -8.2544617947e-05 2.9168728947e+00 -5.0521720528e+00 2.9168728947e+00 5.0521720528e+00 
120300 6.3938671692e+00 -8.1965827692e-05 2.9168743096e+00 -5.0521745036e+00 2.9168743096e+00 5.0521745036e+00 
120400 6.3938671691e+00 -8.1391104862e-05 2.9168757147e+00 -5.0521769372e+00 2.9168757147e+00 5.0521769372e+00 
120500 6.3938671689e+00 -8.0820420257e-05 2.9168771098e+00 -5.0521793537e+00 2.9168771098e+00 5.0521793537e+00 
120600 6.3938671688e+00 -8.0253744891e-05 2.9168784952e+00 -5.0521817533e+00 2.9168784952e+00 5.0521817533e+00 
120700 6.3938671687e+00 -7.9691049997e-05 2.9168798709e+00 -5.0521841360e+00 2.9168798709e+00 5.0521841360e+00 
120800 6.3938671685e+00 -7.9132307021e-05 2.9168812369e+00 -5.0521865020e+00 2.9168812369e+00 5.0521865020e+00 
120900 6.3938671684e+00 -7.8577487623e-05 2.9168825934e+00 -5.0521888515e+00 2.9168825934e+00 5.0521888515e+00 
121000 6.3938671682e+00 -7.8026563674e-05 2.9168839403e+00 -5.0521911845e+00 2.9168839403e+00 5.0521911845e+00 
121100 6.3938671681e+00 -7.7479507254e-05 2.9168852778e+00 -5.0521935011e+00 2.9168852778e+00 5.0521935011e+00 
121200 6.3938671680e+00 -7.6936290658e-05 2.9168866060e+00 -5.0521958014e+00 2.9168866060e+00 5.0521958014e+00 
121300 6.3938671679e+00 -7.6396886376e-05 2.9168879248e+00 -5.0521980857e+00 2.9168879248e+00 5.0521980857e+00 
121400 6.3938671677e+00 -7.5861267109e-05 2.9168892343e+00 -5.0522003539e+00 2.9168892343e+00 5.0522003539e+00 
121500 6.3938671676e+00 -7.5329405765e-05 2.9168905347e+00 -5.0522026062e+00 2.9168905347e+00 5.0522026062e+00 
121600 6.3938671675e+00 -7.4801275444e-05 2.9168918260e+00 -5.0522048428e+00 2.9168918260e+00 5.0522048428e+00 
121700 6.3938671674e+00 -7.4276849457e-05 2.9168931082e+00 -5.0522070636e+00 2.9168931082e+00 5.0522070636e+00 
121800 6.3938671673e+00 -7.3756101303e-05 2.9168943814e+00 -5.0522092689e+00 2.9168943814e+00 5.0522092689e+00 
121900 6.3938671672e+00 -7.3239004686e-05 2.9168956457e+00 -5.0522114587e+00 2.9168956457e+00 5.0522114587e+00 
122000 6.3938671671e+00 -7.2725533503e-05 2.9168969011e+00 -5.0522136332e+00 2.9168969011e+00 5.0522136332e+00 
122100 6.3938671670e+00 -7.2215661845e-05 2.9168981477e+00 -5.0522157924e+00 2.9168981477e+00 5.0522157924e+00 
122200 6.3938671668e+00 -7.1709363995e-05 2.9168993856e+00 -5.0522179365e+00 2.9168993856e+00 5.0522179365e+00 
122300 6.3938671667e+00 -7.1206614426e-05 2.9169006148e+00 -5.0522200655e+00 2.9169006148e+00 5.0522200655e+00 
122400 6.3938671666e+00 -7.0707387800e-05 2.9169018354e+00 -5.0522221796e+00 2.9169018354e+00 5.0522221796e+00 
122500 6.3938671666e+00 -7.1001469594e-05 2.9169018354e+00 -5.0522221796e+00 2.9169018354e+00 5.0522221796e+00 
122600 6.3938671665e+00 -7.0508203062e-05 2.9169030525e+00 -5.0522242877e+00 2.9169030525e+00 5.0522242877e+00 
122700 6.3938671665e+00 -7.0805462935e-05 2.9169030525e+00 -5.0522242877e+00 2.9169030525e+00 5.0522242877e+00 
122800 6.3938671664e+00 -7.0317113240e-05 2.9169042662e+00 -5.0522263899e+00 2.9169042662e+00 5.0522263899e+00 
122900 6.3938671663e+00 -7.0616728385e-05 2.9169042662e+00 -5.0522263899e+00 2.9169042662e+00 5.0522263899e+00 
123000 6.3938671663e+00 -7.0921292599e-05 2.9169042662e+00 -5.0522263899e+00 2.9169042662e+00 5.0522263899e+00 
123100 6.3938671662e+00 -7.0438224291e-05 2.9169054819e+00 -5.0522284955e+00 2.9169054819e+00 5.0522284955e+00 
123200 6.3938671662e+00 -7.0743762790e-05 2.9169054819e+00 -5.0522284955e+00 2.9169054819e+00 5.0522284955e+00 
123300 6.3938671661e+00 -7.0263462091e-05 2.9169066946e+00 -5.0522305959e+00 2.9169066946e+00 5.0522305959e+00 
123400 6.3938671661e+00 -7.0569630332e-05 2.9169066946e+00 -5.0522305959e+00 2.9169066946e+00 5.0522305959e+00 
123500 6.3938671661e+00 -7.0880015732e-05 2.9169066946e+00 -5.0522305959e+00 2.9169066946e+00 5.0522305959e+00 
123600 6.3938671660e+00 -7.0402566773e-05 2.9169079095e+00 -5.0522327003e+00 2.9169079095e+00 5.0522327003e+00 
123700 6.3938671659e+00 -7.0712669114e-05 2.9169079095e+00 -5.0522327003e+00 2.9169079095e+00 5.0522327003e+00 
123800 6.3938671659e+00 -7.0236725913e-05 2.9169091217e+00 -5.0522347998e+00 2.9169091217e+00 5.0522347998e+00 
123900 6.3938671658e+00 -7.0546399876e-05 2.9169091217e+00 -5.0522347998e+00 2.9169091217e+00 5.0522347998e+00 
124000 6.3938671658e+00 -7.0859815462e-05 2.9169091217e+00 -5.0522347998e+00 2.9169091217e+00 5.0522347998e+00 
124100 6.3938671657e+00 -7.0385174007e-05 2.9169103363e+00 -5.0522369036e+00 2.9169103363e+00 5.0522369036e+00 
124200 6.3938671657e+00 -7.0697439921e-05 2.9169103363e+00 -5.0522369036e+00 2.9169103363e+00 5.0522369036e+00 
124300 6.3938671657e+00 -7.1013133048e-05 2.9169103363e+00 -5.0522369036e+00 2.9169103363e+00 5.0522369036e+00 
124400 6.3938671656e+00 -7.0538760326e-05 2.9169115536e+00 -5.0522390120e+00 2.9169115536e+00 5.0522390120e+00 
124500 6.3938671656e+00 -7.0852713081e-05 2.9169115536e+00 -5.0522390120e+00 2.9169115536e+00 5.0522390120e+00 
124600 6.3938671655e+00 -7.0378386072e-05 2.9169127681e+00 -5.0522411156e+00 2.9169127681e+00 5.0522411156e+00 
124700 6.3938671655e+00 -7.0690588758e-05 2.9169127681e+00 -5.0522411156e+00 2.9169127681e+00 5.0522411156e+00 
124800 6.3938671655e+00 -7.1005917473e-05 2.9169127681e+00 -5.0522411156e+00 2.9169127681e+00 5.0522411156e+00 
124900 6.3938671654e+00 -7.0530958177e-05 2.9169139852e+00 -5.0522432237e+00 2.9169139852e+00 5.0522432237e+00 
125000 6.3938671654e+00 -7.0843944424e-05 2.9169139852e+00 -5.0522432237e+00 2.9169139852e+00 5.0522432237e+00 
125100 6.3938671654e+00 -7.0368445771e-05 2.9169151996e+00 -5.0522453270e+00 2.9169151996e+00 5.0522453270e+00 
125200 6.3938671654e+00 -7.0679079439e-05 2.9169151996e+00 -5.0522453270e+00 2.9169151996e+00 5.0522453270e+00 
125300 6.3938671654e+00 -7.0992537425e-05 2.9169151996e+00 -5.0522453270e+00 2.9169151996e+00 5.0522453270e+00 
125400 6.3938671653e+00 -7.0515554511e-05 2.9169164165e+00 -5.0522474348e+00 2.9169164165e+00 5.0522474348e+00 
125500 6.3938671653e+00 -7.0826069881e-05 2.9169164165e+00 -5.0522474348e+00 2.9169164165e+00 5.0522474348e+00 
125600 6.3938671652e+00 -7.0347999285e-05 2.9169176306e+00 -5.0522495376e+00 2.9169176306e+00 5.0522495376e+00 
125700 6.3938671652e+00 -7.0655566031e-05 2.9169176306e+00 -5.0522495376e+00 2.9169176306e+00 5.0522495376e+00 
125800 6.3938671652e+00 -7.0965659996e-05 2.9169176306e+00 -5.0522495376e+00 2.9169176306e+00 5.0522495376e+00 
125900 6.3938671651e+00 -7.0485317175e-05 2.9169188470e+00 -5.0522516446e+00 2.9169188470e+00 5.0522516446e+00 
126000 6.3938671651e+00 -7.0791883364e-05 2.9169188470e+00 -5.0522516446e+00 2.9169188470e+00 5.0522516446e+00 
126100 6.3938671651e+00 -7.0309953833e-05 2.9169200605e+00 -5.0522537464e+00 2.9169200605e+00 5.0522537464e+00 
126200 6.3938671651e+00 -7.0612996478e-05 2.9169200605e+00 -5.0522537464e+00 2.9169200605e+00 5.0522537464e+00 
126300 6.3938671651e+00 -7.0918281088e-05 2.9169200605e+00 -5.0522537464e+00 2.9169200605e+00 5.0522537464e+00 
126400 6.3938671650e+00 -7.0433375592e-05 2.9169212761e+00 -5.0522558519e+00 2.9169212761e+00 5.0522558519e+00 
126500 6.3938671650e+00 -7.0734577739e-05 2.9169212761e+00 -5.0522558519e+00 2.9169212761e+00 5.0522558519e+00 
126600 6.3938671650e+00 -7.0247649014e-05 2.9169224886e+00 -5.0522579520e+00 2.9169224886e+00 5.0522579520e+00 
126700 6.3938671650e+00 -7.0544788995e-05 2.9169224886e+00 -5.0522579520e+00 2.9169224886e+00 5.0522579520e+00 
126800 6.3938671650e+00 -7.0843904496e-05 2.9169224886e+00 -5.0522579520e+00 2.9169224886e+00 5.0522579520e+00 
126900 6.3938671649e+00 -7.0353398435e-05 2.9169237030e+00 -5.0522600553e+00 2.9169237030e+00 5.0522600553e+00 
127000 6.3938671649e+00 -7.0647921247e-05 2.9169237030e+00 -5.0522600553e+00 2.9169237030e+00 5.0522600553e+00 
127100 6.3938671649e+00 -7.0944187414e-05 2.9169237030e+00 -5.0522600553e+00 2.9169237030e+00 5.0522600553e+00 
127200 6.3938671649e+00 -7.0449493819e-05 2.9169249190e+00 -5.0522621616e+00 2.9169249190e+00 5.0522621616e+00 
127300 6.3938671649e+00 -7.0740734193e-05 2.9169249190e+00 -5.0522621616e+00 2.9169249190e+00 5.0522621616e+00 
127400 6.3938671648e+00 -7.0243329209e-05 2.9169261316e+00 -5.0522642619e+00 2.9169261316e+00 5.0522642619e+00 
127500 6.3938671648e+00 -7.0529632838e-05 2.9169261316e+00 -5.0522642619e+00 2.9169261316e+00 5.0522642619e+00 
127600 6.3938671648e+00 -7.0817497235e-05 2.9169261316e+00 -5.0522642619e+00 2.9169261316e+00 5.0522642619e+00 
127700 6.3938671648e+00 -7.0315633453e-05 2.9169273455e+00 -5.0522663644e+00 2.9169273455e+00 5.0522663644e+00 
127800 6.3938671648e+00 -7.0598119959e-05 2.9169273455e+00 -5.0522663644e+00 2.9169273455e+00 5.0522663644e+00 
127900 6.3938671648e+00 -7.0881974880e-05 2.9169273455e+00 -5.0522663644e+00 2.9169273455e+00 5.0522663644e+00 
128000 6.3938671647e+00 -7.0375201870e-05 2.9169285605e+00 -5.0522684689e+00 2.9169285605e+00 5.0522684689e+00 
128100 6.3938671648e+00 -7.0653325229e-05 2.9169285605e+00 -5.0522684689e+00 2.9169285605e+00 5.0522684689e+00 
128200 6.3938671648e+00 -7.0932660347e-05 2.9169285605e+00 -5.0522684689e+00 2.9169285605e+00 5.0522684689e+00 
128300 6.3938671647e+00 -7.0420653758e-05 2.9169297764e+00 -5.0522705749e+00 2.9169297764e+00 5.0522705749e+00 
128400 6.3938671647e+00 -7.0693965650e-05 2.9169297764e+00 -5.0522705749e+00 2.9169297764e+00 5.0522705749e+00 
128500 6.3938671647e+00 -7.0968358445e-05 2.9169297764e+00 -5.0522705749e+00 2.9169297764e+00 5.0522705749e+00 
128600 6.3938671647e+00 -7.0450886695e-05 2.9169309929e+00 -5.0522726819e+00 2.9169309929e+00 5.0522726819e+00 
128700 6.3938671647e+00 -7.0719011231e-05 2.9169309929e+00 -5.0522726819e+00 2.9169309929e+00 5.0522726819e+00 
128800 6.3938671646e+00 -7.0198151064e-05 2.9169322051e+00 -5.0522747815e+00 2.9169322051e+00 5.0522747815e+00 
128900 6.3938671647e+00 -7.0460203926e-05 2.9169322051e+00 -5.0522747815e+00 2.9169322051e+00 5.0522747815e+00 
129000 6.3938671647e+00 -7.0723283709e-05 2.9169322051e+00 -5.0522747815e+00 2.9169322051e+00 5.0522747815e+00 
129100 6.3938671646e+00 -7.0197175325e-05 2.9169334174e+00 -5.0522768813e+00 2.9169334174e+00 5.0522768813e+00 
129200 6.3938671646e+00 -7.0453886298e-05 2.9169334174e+00 -5.0522768813e+00 2.9169334174e+00 5.0522768813e+00 
129300 6.3938671646e+00 -7.0711495601e-05 2.9169334174e+00 -5.0522768813e+00 2.9169334174e+00 5.0522768813e+00 
129400 6.3938671646e+00 -7.0179930820e-05 2.9169346295e+00 -5.0522789807e+00 2.9169346295e+00 5.0522789807e+00 
129500 6.3938671646e+00 -7.0430947754e-05 2.9169346295e+00 -5.0522789807e+00 2.9169346295e+00 5.0522789807e+00 
129600 6.3938671646e+00 -7.0682764316e-05 2.9169346295e+00 -5.0522789807e+00 2.9169346295e+00 5.0522789807e+00 
129700 6.3938671646e+00 -7.0935186998e-05 2.9169346295e+00 -5.0522789807e+00 2.9169346295e+00 5.0522789807e+00 
129800 6.3938671646e+00 -7.0395677422e-05 2.9169358454e+00 -5.0522810867e+00 2.9169358454e+00 5.0522810867e+00 
129900 6.3938671646e+00 -7.0640994020e-05 2.9169358454e+00 -5.0522810867e+00 2.9169358454e+00 5.0522810867e+00 
130000 6.3938671646e+00 -7.0886906145e-05 2.9169358454e+00 -5.0522810867e+00 2.9169358454e+00 5.0522810867e+00 
130100 6.3938671646e+00 -7.0341410700e-05 2.9169370605e+00 -5.0522831913e+00 2.9169370605e+00 5.0522831913e+00 
130200 6.3938671646e+00 -7.0580190134e-05 2.9169370605e+00 -5.0522831913e+00 2.9169370605e+00 5.0522831913e+00 
130300 6.3938671646e+00 -7.0819545355e-05 2.9169370605e+00 -5.0522831913e+00 2.9169370605e+00 5.0522831913e+00 
130400 6.3938671646e+00 -7.0268224487e-05 2.9169382745e+00 -5.0522852939e+00 2.9169382745e+00 5.0522852939e+00 
130500 6.3938671646e+00 -7.0500412067e-05 2.9169382745e+00 -5.0522852939e+00 2.9169382745e+00 5.0522852939e+00 
130600 6.3938671646e+00 -7.0733153381e-05 2.9169382745e+00 -5.0522852939e+00 2.9169382745e+00 5.0522852939e+00 
130700 6.3938671645e+00 -7.0176161959e-05 2.9169394869e+00 -5.0522873939e+00 2.9169394869e+00 5.0522873939e+00 
130800 6.3938671646e+00 -7.0401702613e-05 2.9169394869e+00 -5.0522873939e+00 2.9169394869e+00 5.0522873939e+00 
130900 6.3938671646e+00 -7.0627776487e-05 2.9169394869e+00 -5.0522873939e+00 2.9169394869e+00 5.0522873939e+00 
131000 6.3938671646e+00 -7.0854211827e-05 2.9169394869e+00 -5.0522873939e+00 2.9169394869e+00 5.0522873939e+00 
131100 6.3938671645e+00 -7.0289394432e-05 2.9169407014e+00 -5.0522894976e+00 2.9169407014e+00 5.0522894976e+00 
131200 6.3938671646e+00 -7.0508302557e-05 2.9169407014e+00 -5.0522894976e+00 2.9169407014e+00 5.0522894976e+00 
131300 6.3938671646e+00 -7.0727617194e-05 2.9169407014e+00 -5.0522894976e+00 2.9169407014e+00 5.0522894976e+00 
131400 6.3938671645e+00 -7.0157130642e-05 2.9169419138e+00 -5.0522915974e+00 2.9169419138e+00 5.0522915974e+00 
131500 6.3938671646e+00 -7.0369000745e-05 2.9169419138e+00 -5.0522915974e+00 2.9169419138e+00 5.0522915974e+00 
131600 6.3938671646e+00 -7.0581303025e-05 2.9169419138e+00 -5.0522915974e+00 2.9169419138e+00 5.0522915974e+00 
131700 6.3938671646e+00 -7.0793878039e-05 2.9169419138e+00 -5.0522915974e+00 2.9169419138e+00 5.0522915974e+00 
131800 6.3938671645e+00 -7.0215796438e-05 2.9169431273e+00 -5.0522936993e+00 2.9169431273e+00 5.0522936993e+00 
131900 6.3938671646e+00 -7.0420705920e-05 2.9169431273e+00 -5.0522936993e+00 2.9169431273e+00 5.0522936993e+00 
132000 6.3938671646e+00 -7.0625963171e-05 2.9169431273e+00 -5.0522936993e+00 2.9169431273e+00 5.0522936993e+00 
132100 6.3938671646e+00 -7.0831420838e-05 2.9169431273e+00 -5.0522936993e+00 2.9169431273e+00 5.0522936993e+00 
132200 6.3938671645e+00 -7.0245740505e-05 2.9169443414e+00 -5.0522958022e+00 2.9169443414e+00 5.0522958022e+00 
132300 6.3938671646e+00 -7.0443414226e-05 2.9169443414e+00 -5.0522958022e+00 2.9169443414e+00 5.0522958022e+00 
132400 6.3938671646e+00 -7.0641391424e-05 2.9169443414e+00 -5.0522958022e+00 2.9169443414e+00 5.0522958022e+00 
132500 6.3938671646e+00 -7.0839531817e-05 2.9169443414e+00 -5.0522958022e+00 2.9169443414e+00 5.0522958022e+00 
132600 6.3938671646e+00 -7.0246412452e-05 2.9169455557e+00 -5.0522979054e+00 2.9169455557e+00 5.0522979054e+00 
132700 6.3938671646e+00 -7.0436711703e-05 2.9169455557e+00 -5.0522979054e+00 2.9169455557e+00 5.0522979054e+00 
132800 6.3938671646e+00 -7.0627293982e-05 2.9169455557e+00 -5.0522979054e+00 2.9169455557e+00 5.0522979054e+00 
132900 6.3938671646e+00 -7.0818023421e-05 2.9169455557e+00 -5.0522979054e+00 2.9169455557e+00 5.0522979054e+00 
133000 6.3938671646e+00 -7.0217721157e-05 2.9169467696e+00 -5.0523000079e+00 2.9169467696e+00 5.0523000079e+00 
133100 6.3938671646e+00 -7.0400591383e-05 2.9169467696e+00 -5.0523000079e+00 2.9169467696e+00 5.0523000079e+00 
133200 6.3938671646e+00 -7.0583739271e-05 2.9169467696e+00 -5.0523000079e+00 2.9169467696e+00 5.0523000079e+00 
133300 6.3938671646e+00 -7.0767031941e-05 2.9169467696e+00 -5.0523000079e+00 2.9169467696e+00 5.0523000079e+00 
133400 6.3938671646e+00 -7.0159862766e-05 2.9169479826e+00 -5.0523021090e+00 2.9169479826e+00 5.0523021090e+00 
133500 6.3938671646e+00 -7.0335305188e-05 2.9169479826e+00 -5.0523021090e+00 2.9169479826e+00 5.0523021090e+00 
133600 6.3938671646e+00 -7.0511030173e-05 2.9169479826e+00 -5.0523021090e+00 2.9169479826e+00 5.0523021090e+00 
133700 6.3938671646e+00 -7.0686907056e-05 2.9169479826e+00 -5.0523021090e+00 2.9169479826e+00 5.0523021090e+00 
133800 6.3938671646e+00 -7.0862824361e-05 2.9169479826e+00 -5.0523021090e+00 2.9169479826e+00 5.0523021090e+00 
133900 6.3938671646e+00 -7.0247123267e-05 2.9169491973e+00 -5.0523042129e+00 2.9169491973e+00 5.0523042129e+00 
134000 6.3938671646e+00 -7.0415023159e-05 2.9169491973e+00 -5.0523042129e+00 2.9169491973e+00 5.0523042129e+00 
134100 6.3938671646e+00 -7.0583148924e-05 2.9169491973e+00 -5.0523042129e+00 2.9169491973e+00 5.0523042129e+00 
134200 6.3938671646e+00 -7.0751381229e-05 2.9169491973e+00 -5.0523042129e+00 2.9169491973e+00 5.0523042129e+00 
134300 6.3938671646e+00 -7.0129299676e-05 2.9169504101e+00 -5.0523063134e+00 2.9169504101e+00 5.0523063134e+00 
134400 6.3938671646e+00 -7.0289641062e-05 2.9169504101e+00 -5.0523063134e+00 2.9169504101e+00 5.0523063134e+00 
134500 6.3938671646e+00 -7.0450257770e-05 2.9169504101e+00 -5.0523063134e+00 2.9169504101e+00 5.0523063134e+00 
134600 6.3938671646e+00 -7.0611027094e-05 2.9169504101e+00 -5.0523063134e+00 2.9169504101e+00 5.0523063134e+00 
134700 6.3938671647e+00 -7.0771844581e-05 2.9169504101e+00 -5.0523063134e+00 2.9169504101e+00 5.0523063134e+00 
134800 6.3938671646e+00 -7.0142073638e-05 2.9169516232e+00 -5.0523084146e+00 2.9169516232e+00 5.0523084146e+00 
134900 6.3938671646e+00 -7.0294917431e-05 2.9169516232e+00 -5.0523084146e+00 2.9169516232e+00 5.0523084146e+00 
135000 6.3938671647e+00 -7.0448010994e-05 2.9169516232e+00 -5.0523084146e+00 2.9169516232e+00 5.0523084146e+00 
135100 6.3938671647e+00 -7.0601239536e-05 2.9169516232e+00 -5.0523084146e+00 2.9169516232e+00 5.0523084146e+00 
135200 6.3938671647e+00 -7.0754505398e-05 2.9169516232e+00 -5.0523084146e+00 2.9169516232e+00 5.0523084146e+00 
135300 6.3938671646e+00 -7.0117371317e-05 2.9169528360e+00 -5.0523105153e+00 2.9169528360e+00 5.0523105153e+00 
135400 6.3938671647e+00 -7.0262660572e-05 2.9169528360e+00 -5.0523105153e+00 2.9169528360e+00 5.0523105153e+00 
135500 6.3938671647e+00 -7.0408203909e-05 2.9169528360e+00 -5.0523105153e+00 2.9169528360e+00 5.0523105153e+00 
135600 6.3938671647e+00 -7.0553890334e-05 2.9169528360e+00 -5.0523105153e+00 2.9169528360e+00 5.0523105153e+00 
135700 6.3938671647e+00 -7.0699625498e-05 2.9169528360e+00 -5.0523105153e+00 2.9169528360e+00 5.0523105153e+00 
135800 6.3938671647e+00 -7.0845329043e-05 2.9169528360e+00 -5.0523105153e+00 2.9169528360e+00 5.0523105153e+00 
135900 6.3938671647e+00 -7.0199563392e-05 2.9169540504e+00 -5.0523126186e+00 2.9169540504e+00 5.0523126186e+00 
136000 6.3938671647e+00 -7.0337184286e-05 2.9169540504e+00 -5.0523126186e+00 2.9169540504e+00 5.0523126186e+00 
136100 6.3938671647e+00 -7.0475028503e-05 2.9169540504e+00 -5.0523126186e+00 2.9169540504e+00 5.0523126186e+00 
136200 6.3938671647e+00 -7.0612993938e-05 2.9169540504e+00 -5.0523126186e+00 2.9169540504e+00 5.0523126186e+00 
136300 6.3938671647e+00 -7.0750993782e-05 2.9169540504e+00 -5.0523126186e+00 2.9169540504e+00 5.0523126186e+00 
136400 6.3938671647e+00 -7.0098638772e-05 2.9169552631e+00 -5.0523147192e+00 2.9169552631e+00 5.0523147192e+00 
136500 6.3938671647e+00 -7.0228683334e-05 2.9169552631e+00 -5.0523147192e+00 2.9169552631e+00 5.0523147192e+00 
136600 6.3938671647e+00 -7.0359003129e-05 2.9169552631e+00 -5.0523147192e+00 2.9169552631e+00 5.0523147192e+00 
136700 6.3938671647e+00 -7.0489493062e-05 2.9169552631e+00 -5.0523147192e+00 2.9169552631e+00 5.0523147192e+00 
136800 6.3938671648e+00 -7.0620063870e-05 2.9169552631e+00 -5.0523147192e+00 2.9169552631e+00 5.0523147192e+00 
136900 6.3938671648e+00 -7.0750639605e-05 2.9169552631e+00 -5.0523147192e+00 2.9169552631e+00 5.0523147192e+00 
137000 6.3938671647e+00 -7.0090843849e-05 2.9169564759e+00 -5.0523168197e+00 2.9169564759e+00 5.0523168197e+00 
137100 6.3938671647e+00 -7.0213431654e-05 2.9169564759e+00 -5.0523168197e+00 2.9169564759e+00 5.0523168197e+00 
137200 6.3938671648e+00 -7.0336288807e-05 2.9169564759e+00 -5.0523168197e+00 2.9169564759e+00 5.0523168197e+00 
137300 6.3938671648e+00 -7.0459315858e-05 2.9169564759e+00 -5.0523168197e+00 2.9169564759e+00 5.0523168197e+00 
137400 6.3938671648e+00 -7.0582428348e-05 2.9169564759e+00 -5.0523168197e+00 2.9169564759e+00 5.0523168197e+00 
137500 6.3938671648e+00 -7.0705554435e-05 2.9169564759e+00 -5.0523168197e+00 2.9169564759e+00 5.0523168197e+00 
137600 6.3938671648e+00 -7.0828632871e-05 2.9169564759e+00 -5.0523168197e+00 2.9169564759e+00 5.0523168197e+00 
137700 6.3938671648e+00 -7.0160427998e-05 2.9169576900e+00 -5.0523189226e+00 2.9169576900e+00 5.0523189226e+00 
137800 6.3938671648e+00 -7.0275440212e-05 2.9169576900e+00 -5.0523189226e+00 2.9169576900e+00 5.0523189226e+00 
137900 6.3938671648e+00 -7.0390701464e-05 2.9169576900e+00 -5.0523189226e+00 2.9169576900e+00 5.0523189226e+00 
138000 6.3938671648e+00 -7.0506119733e-05 2.9169576900e+00 -5.0523189226e+00 2.9169576900e+00 5.0523189226e+00 
138100 6.3938671648e+00 -7.0621616844e-05 2.9169576900e+00 -5.0523189226e+00 2.9169576900e+00 5.0523189226e+00 
138200 6.3938671648e+00 -7.0737126253e-05 2.9169576900e+00 -5.0523189226e+00 2.9169576900e+00 5.0523189226e+00 
138300 6.3938671648e+00 -7.0062429886e-05 2.9169589025e+00 -5.0523210227e+00 2.9169589025e+00 5.0523210227e+00 
138400 6.3938671648e+00 -7.0169990548e-05 2.9169589025e+00 -5.0523210227e+00 2.9169589025e+00 5.0523210227e+00 
138500 6.3938671648e+00 -7.0277848335e-05 2.9169589025e+00 -5.0523210227e+00 2.9169589025e+00 5.0523210227e+00 
138600 6.3938671648e+00 -7.0385908707e-05 2.9169589025e+00 -5.0523210227e+00 2.9169589025e+00 5.0523210227e+00 
138700 6.3938671649e+00 -7.0494091397e-05 2.9169589025e+00 -5.0523210227e+00 2.9169589025e+00 5.0523210227e+00 
138800 6.3938671649e+00 -7.0602328134e-05 2.9169589025e+00 -5.0523210227e+00 2.9169589025e+00 5.0523210227e+00 
138900 6.3938671649e+00 -7.0710560735e-05 2.9169589025e+00 -5.0523210227e+00 2.9169589025e+00 5.0523210227e+00 
139000 6.3938671649e+00 -7.0818739508e-05 2.9169589025e+00 -5.0523210227e+00 2.9169589025e+00 5.0523210227e+00 
139100 6.3938671649e+00 -7.0135748450e-05 2.9169601164e+00 -5.0523231253e+00 2.9169601164e+00 5.0523231253e+00 
139200 6.3938671649e+00 -7.0235877789e-05 2.9169601164e+00 -5.0523231253e+00 2.9169601164e+00 5.0523231253e+00 
139300 6.3938671649e+00 -7.0336274972e-05 2.9169601164e+00 -5.0523231253e+00 2.9169601164e+00 5.0523231253e+00 
139400 6.3938671649e+00 -7.0436853949e-05 2.9169601164e+00 -5.0523231253e+00 2.9169601164e+00 5.0523231253e+00 
139500 6.3938671649e+00 -7.0537541613e-05 2.9169601164e+00 -5.0523231253e+00 2.9169601164e+00 5.0523231253e+00 
139600 6.3938671649e+00 -7.0638275734e-05 2.9169601164e+00 -5.0523231253e+00 2.9169601164e+00 5.0523231253e+00 
139700 6.3938671649e+00 -7.0739003222e-05 2.9169601164e+00 -5.0523231253e+00 2.9169601164e+00 5.0523231253e+00 
139800 6.3938671649e+00 -7.0049495731e-05 2.9169613290e+00 -5.0523252255e+00 2.9169613290e+00 5.0523252255e+00 
139900 6.3938671649e+00 -7.0116257365e-05 2.9169613290e+00 -5.0523252255e+00 2.9169613290e+00 5.0523252255e+00 
139900 6.3938671649e+00 -7.0116257365e-05 2.9169613290e+00 -5.0523252255e+00 2.9169613290e+00 5.0523252255e+00 
