# step Hamiltonian StressXX CellTensor1 CellTensor2 CellTensor3 CellTensor4 
0 5.8598332399e+00 1.3213427591e-01 2.8378601290e+00 -4.9153179282e+00 2.8378601290e+00 4.9153179282e+00 
100 5.8707744380e+00 1.5181793166e-01 2.8378601290e+00 -4.9153179282e+00 2.8378601290e+00 4.9153179282e+00 
200 5.8818142791e+00 1.7063287886e-01 2.8351856832e+00 -4.9106856523e+00 2.8351856832e+00 4.9106856523e+00 
300 5.8930909321e+00 1.8875585682e-01 2.8321770150e+00 -4.9054744860e+00 2.8321770150e+00 4.9054744860e+00 
400 5.9045079176e+00 2.0628529356e-01 2.8288453236e+00 -4.8997038272e+00 2.8288453236e+00 4.8997038272e+00 
500 5.9159539619e+00 2.2329244706e-01 2.8252000037e+00 -4.8933899479e+00 2.8252000037e+00 4.8933899479e+00 
600 5.9273070659e+00 2.3982271738e-01 2.8212491273e+00 -4.8865468293e+00 2.8212491273e+00 4.8865468293e+00 
700 5.9384380940e+00 2.5589652013e-01 2.8169999030e+00 -4.8791869568e+00 2.8169999030e+00 4.8791869568e+00 
800 5.9492141346e+00 2.7151006209e-01 2.8124591211e+00 -4.8713220919e+00 2.8124591211e+00 4.8713220919e+00 
900 5.9595018852e+00 2.8663643744e-01 2.8076335884e+00 -4.8629640242e+00 2.8076335884e+00 4.8629640242e+00 
1000 5.9691713069e+00 3.0122754895e-01 2.8025305468e+00 -4.8541252968e+00 2.8025305468e+00 4.8541252968e+00 
1100 5.9780997332e+00 3.1521740365e-01 2.7971580614e+00 -4.8448198791e+00 2.7971580614e+00 4.8448198791e+00 
1200 5.9861765065e+00 3.2852726516e-01 2.7915253557e+00 -4.8350637467e+00 2.7915253557e+00 4.8350637467e+00 
1300 5.9933080123e+00 3.4107289389e-01 2.7856430591e+00 -4.8248753101e+00 2.7856430591e+00 4.8248753101e+00 
1400 5.9994227262e+00 3.5277363048e-01 2.7795233287e+00 -4.8142756261e+00 2.7795233287e+00 4.8142756261e+00 
1500 6.0044756146e+00 3.6356243174e-01 2.7731798114e+00 -4.8032883319e+00 2.7731798114e+00 4.8032883319e+00 
1600 6.0084510601e+00 3.7339533262e-01 2.7666274258e+00 -4.7919392672e+00 2.7666274258e+00 4.7919392672e+00 
1700 6.0113635189e+00 3.8225847313e-01 2.7598819717e+00 -4.7802557979e+00 2.7598819717e+00 4.7802557979e+00 
1800 6.0132554405e+00 3.9017106135e-01 2.7529596067e+00 -4.7682659100e+00 2.7529596067e+00 4.7682659100e+00 
1900 6.0141925323e+00 3.9718350236e-01 2.7458762620e+00 -4.7559971970e+00 2.7458762620e+00 4.7559971970e+00 
2000 6.0142570647e+00 4.0337114874e-01 2.7386470818e+00 -4.7434758897e+00 2.7386470818e+00 4.7434758897e+00 
2100 6.0135403470e+00 4.0882523012e-01 2.7312859676e+00 -4.7307260659e+00 2.7312859676e+00 4.7307260659e+00 
2200 6.0121355890e+00 4.1364305027e-01 2.7238052787e+00 -4.7177691327e+00 2.7238052787e+00 4.7177691327e+00 
2300 6.0101321090e+00 4.1791934991e-01 2.7162157067e+00 -4.7046236083e+00 2.7162157067e+00 4.7046236083e+00 
2400 6.0076113792e+00 4.2174002275e-01 2.7085263042e+00 -4.6913051726e+00 2.7085263042e+00 4.6913051726e+00 
2500 6.0046449297e+00 4.2517852241e-01 2.7007446298e+00 -4.6778269171e+00 2.7007446298e+00 4.6778269171e+00 
2600 6.0012937951e+00 4.2829463237e-01 2.6928769592e+00 -4.6641997118e+00 2.6928769592e+00 4.6641997118e+00 
2700 5.9976090428e+00 4.3113493203e-01 2.6849285231e+00 -4.6504326167e+00 2.6849285231e+00 4.6504326167e+00 
2800 5.9936329235e+00 4.3373424584e-01 2.6769037393e+00 -4.6365332835e+00 2.6769037393e+00 4.6365332835e+00 
2900 5.9894002826e+00 4.3611749415e-01 2.6688064215e+00 -4.6225083177e+00 2.6688064215e+00 4.6225083177e+00 
3000 5.9849399844e+00 4.3830155675e-01 2.6606399566e+00 -4.6083635855e+00 2.6606399566e+00 4.6083635855e+00 
3100 5.9802762135e+00 4.4029693747e-01 2.6524074503e+00 -4.5941044663e+00 2.6524074503e+00 4.5941044663e+00 
3200 5.9754295933e+00 4.4210914815e-01 2.6441118435e+00 -4.5797360538e+00 2.6441118435e+00 4.5797360538e+00 
3300 5.9704181096e+00 4.4373980980e-01 2.6357560050e+00 -4.5652633170e+00 2.6357560050e+00 4.5652633170e+00 
3400 5.9652578575e+00 4.4518750867e-01 2.6273428048e+00 -4.5506912267e+00 2.6273428048e+00 4.5506912267e+00 
3500 5.9599636366e+00 4.4644845901e-01 2.6188751721e+00 -4.5360248568e+00 2.6188751721e+00 4.5360248568e+00 
3600 5.9545494223e+00 4.4751702357e-01 2.6103561427e+00 -4.5212694650e+00 2.6103561427e+00 4.5212694650e+00 
3700 5.9490287388e+00 4.4838613528e-01 2.6017888962e+00 -4.5064305588e+00 2.6017888962e+00 4.5064305588e+00 
3800 5.9434149536e+00 4.4904765417e-01 2.5931767869e+00 -4.4915139478e+00 2.5931767869e+00 4.4915139478e+00 
3900 5.9377215073e+00 4.4949268412e-01 2.5845233673e+00 -4.4765257856e+00 2.5845233673e+00 4.4765257856e+00 
4000 5.9319620912e+00 4.4971186565e-01 2.5758324075e+00 -4.4614726016e+00 2.5758324075e+00 4.4614726016e+00 
4100 5.9261507776e+00 4.4969565465e-01 2.5671079076e+00 -4.4463613245e+00 2.5671079076e+00 4.4463613245e+00 
4200 5.9203021083e+00 4.4943459155e-01 2.5583541062e+00 -4.4311992957e+00 2.5583541062e+00 4.4311992957e+00 
4300 5.9144311438e+00 4.4891956151e-01 2.5495754831e+00 -4.4159942744e+00 2.5495754831e+00 4.4159942744e+00 
4400 5.9085534743e+00 4.4814204344e-01 2.5407767573e+00 -4.4007544344e+00 2.5407767573e+00 4.4007544344e+00 
4500 5.9026851940e+00 4.4709434385e-01 2.5319628800e+00 -4.3854883511e+00 2.5319628800e+00 4.3854883511e+00 
4600 5.8968428409e+00 4.4576981035e-01 2.5231390224e+00 -4.3702049814e+00 2.5231390224e+00 4.3702049814e+00 
4700 5.8910433024e+00 4.4416301950e-01 2.5143105595e+00 -4.3549136351e+00 2.5143105595e+00 4.3549136351e+00 
4800 5.8853036910e+00 4.4226993399e-01 2.5054830492e+00 -4.3396239387e+00 2.5054830492e+00 4.3396239387e+00 
4900 5.8796411940e+00 4.4008802496e-01 2.4966622082e+00 -4.3243457939e+00 2.4966622082e+00 4.3243457939e+00 
5000 5.8740729003e+00 4.3761635676e-01 2.4878538844e+00 -4.3090893297e+00 2.4878538844e+00 4.3090893297e+00 
5100 5.8686156113e+00 4.3485563265e-01 2.4790640274e+00 -4.2938648507e+00 2.4790640274e+00 4.2938648507e+00 
5200 5.8632856423e+00 4.3180820207e-01 2.4702986565e+00 -4.2786827830e+00 2.4702986565e+00 4.2786827830e+00 
5300 5.8580986193e+00 4.2847803114e-01 2.4615638286e+00 -4.2635536172e+00 2.4615638286e+00 4.2635536172e+00 
5400 5.8530692801e+00 4.2487064002e-01 2.4528656053e+00 -4.2484878524e+00 2.4528656053e+00 4.2484878524e+00 
5500 5.8482112840e+00 4.2099301146e-01 2.4442100204e+00 -4.2334959397e+00 2.4442100204e+00 4.2334959397e+00 
5600 5.8435370379e+00 4.1685347585e-01 2.4356030490e+00 -4.2185882280e+00 2.4356030490e+00 4.2185882280e+00 
5700 5.8390575422e+00 4.1246157861e-01 2.4270505775e+00 -4.2037749128e+00 2.4270505775e+00 4.2037749128e+00 
5800 5.8347822622e+00 4.0782793531e-01 2.4185583758e+00 -4.1890659880e+00 2.4185583758e+00 4.1890659880e+00 
5900 5.8307190267e+00 4.0296408031e-01 2.4101320720e+00 -4.1744712017e+00 2.4101320720e+00 4.1744712017e+00 
6000 5.8268739564e+00 3.9788231364e-01 2.4017771291e+00 -4.1600000161e+00 2.4017771291e+00 4.1600000161e+00 
6100 5.8232514230e+00 3.9259555038e-01 2.3934988251e+00 -4.1456615730e+00 2.3934988251e+00 4.1456615730e+00 
6200 5.8198540382e+00 3.8711717606e-01 2.3853022350e+00 -4.1314646624e+00 2.3853022350e+00 4.1314646624e+00 
6300 5.8166826719e+00 3.8146091061e-01 2.3771922159e+00 -4.1174176972e+00 2.3771922159e+00 4.1174176972e+00 
6400 5.8137364975e+00 3.7564068289e-01 2.3691733943e+00 -4.1035286909e+00 2.3691733943e+00 4.1035286909e+00 
6500 5.8110130618e+00 3.6967051674e-01 2.3612501565e+00 -4.0898052404e+00 2.3612501565e+00 4.0898052404e+00 
6600 5.8085083767e+00 3.6356442943e-01 2.3534266401e+00 -4.0762545125e+00 2.3534266401e+00 4.0762545125e+00 
6700 5.8062170293e+00 3.5733634225e-01 2.3457067287e+00 -4.0628832338e+00 2.3457067287e+00 4.0628832338e+00 
6800 5.8041323068e+00 3.5100000325e-01 2.3380940480e+00 -4.0496976841e+00 2.3380940480e+00 4.0496976841e+00 
6900 5.8022463335e+00 3.4456892131e-01 2.3305919633e+00 -4.0367036922e+00 2.3305919633e+00 4.0367036922e+00 
7000 5.8005502160e+00 3.3805631095e-01 2.3232035789e+00 -4.0239066349e+00 2.3232035789e+00 4.0239066349e+00 
7100 5.7990341934e+00 3.3147504681e-01 2.3159317386e+00 -4.0113114381e+00 2.3159317386e+00 4.0113114381e+00 
7200 5.7976877901e+00 3.2483762705e-01 2.3087790277e+00 -3.9989225794e+00 2.3087790277e+00 3.9989225794e+00 
7300 5.7964999680e+00 3.1815614448e-01 2.3017477753e+00 -3.9867440931e+00 2.3017477753e+00 3.9867440931e+00 
7400 5.7954592757e+00 3.1144226471e-01 2.2948400582e+00 -3.9747795761e+00 2.2948400582e+00 3.9747795761e+00 
7500 5.7945539927e+00 3.0470721023e-01 2.2880577049e+00 -3.9630321955e+00 2.2880577049e+00 3.9630321955e+00 
7600 5.7937722675e+00 2.9796174969e-01 2.2814023005e+00 -3.9515046969e+00 2.2814023005e+00 3.9515046969e+00 
7700 5.7931022463e+00 2.9121619157e-01 2.2748751922e+00 -3.9401994138e+00 2.2748751922e+00 3.9401994138e+00 
7800 5.7925321935e+00 2.8448038156e-01 2.2684774952e+00 -3.9291182776e+00 2.2684774952e+00 3.9291182776e+00 
7900 5.7920506006e+00 2.7776370297e-01 2.2622100986e+00 -3.9182628282e+00 2.2622100986e+00 3.9182628282e+00 
8000 5.7916462847e+00 2.7107507971e-01 2.2560736719e+00 -3.9076342254e+00 2.2560736719e+00 3.9076342254e+00 
8100 5.7913084758e+00 2.6442298127e-01 2.2500686719e+00 -3.8972332602e+00 2.2500686719e+00 3.8972332602e+00 
8200 5.7910268916e+00 2.5781542936e-01 2.2441953491e+00 -3.8870603667e+00 2.2441953491e+00 3.8870603667e+00 
8300 5.7907918013e+00 2.5126000573e-01 2.2384537551e+00 -3.8771156343e+00 2.2384537551e+00 3.8771156343e+00 
8400 5.7905940776e+00 2.4476386099e-01 2.2328437499e+00 -3.8673988202e+00 2.2328437499e+00 3.8673988202e+00 
8500 5.7904252379e+00 2.3833372415e-01 2.2273650083e+00 -3.8579093614e+00 2.2273650083e+00 3.8579093614e+00 
8600 5.7902774743e+00 2.3197591257e-01 2.2220170281e+00 -3.8486463879e+00 2.2220170281e+00 3.8486463879e+00 
8700 5.7901436737e+00 2.2569634231e-01 2.2167991366e+00 -3.8396087348e+00 2.2167991366e+00 3.8396087348e+00 
8800 5.7900174288e+00 2.1950053858e-01 2.2117104987e+00 -3.8307949554e+00 2.2117104987e+00 3.8307949554e+00 
8900 5.7898930399e+00 2.1339364632e-01 2.2067501236e+00 -3.8222033336e+00 2.2067501236e+00 3.8222033336e+00 
9000 5.7897655087e+00 2.0738044073e-01 2.2019168724e+00 -3.8138318971e+00 2.2019168724e+00 3.8138318971e+00 
9100 5.7896305253e+00 2.0146533772e-01 2.1972094658e+00 -3.8056784296e+00 2.1972094658e+00 3.8056784296e+00 
9200 5.7894844488e+00 1.9565240432e-01 2.1926264906e+00 -3.7977404837e+00 2.1926264906e+00 3.7977404837e+00 
9300 5.7893242817e+00 1.8994536882e-01 2.1881664077e+00 -3.7900153936e+00 2.1881664077e+00 3.7900153936e+00 
9400 5.7891476407e+00 1.8434763086e-01 2.1838275592e+00 -3.7825002875e+00 2.1838275592e+00 3.7825002875e+00 
9500 5.7889527225e+00 1.7886227127e-01 2.1796081754e+00 -3.7751921004e+00 2.1796081754e+00 3.7751921004e+00 
9600 5.7887382669e+00 1.7349206180e-01 2.1755063820e+00 -3.7680875858e+00 2.1755063820e+00 3.7680875858e+00 
9700 5.7885035173e+00 1.6823947462e-01 2.1715202074e+00 -3.7611833288e+00 2.1715202074e+00 3.7611833288e+00 
9800 5.7882481797e+00 1.6310669167e-01 2.1676475894e+00 -3.7544757577e+00 2.1676475894e+00 3.7544757577e+00 
9900 5.7879723797e+00 1.5809561390e-01 2.1638863824e+00 -3.7479611561e+00 2.1638863824e+00 3.7479611561e+00 
10000 5.7876766201e+00 1.5320787024e-01 2.1602343640e+00 -3.7416356747e+00 2.1602343640e+00 3.7416356747e+00 
10100 5.7873617371e+00 1.4844482661e-01 2.1566892420e+00 -3.7354953433e+00 2.1566892420e+00 3.7354953433e+00 
10200 5.7870288579e+00 1.4380759456e-01 2.1532486610e+00 -3.7295360821e+00 2.1532486610e+00 3.7295360821e+00 
10300 5.7866793589e+00 1.3929704004e-01 2.1499102085e+00 -3.7237537128e+00 2.1499102085e+00 3.7237537128e+00 
10400 5.7863148244e+00 1.3491379179e-01 2.1466714220e+00 -3.7181439700e+00 2.1466714220e+00 3.7181439700e+00 
10500 5.7859370079e+00 1.3065824983e-01 2.1435297947e+00 -3.7127025120e+00 2.1435297947e+00 3.7127025120e+00 
10600 5.7855477942e+00 1.2653059372e-01 2.1404827822e+00 -3.7074249315e+00 2.1404827822e+00 3.7074249315e+00 
10700 5.7851491640e+00 1.2253079073e-01 2.1375278079e+00 -3.7023067658e+00 2.1375278079e+00 3.7023067658e+00 
10800 5.7847431609e+00 1.1865860389e-01 2.1346622692e+00 -3.6973435073e+00 2.1346622692e+00 3.6973435073e+00 
10900 5.7843318597e+00 1.1491360002e-01 2.1318835434e+00 -3.6925306130e+00 2.1318835434e+00 3.6925306130e+00 
11000 5.7839173385e+00 1.1129515752e-01 2.1291889929e+00 -3.6878635147e+00 2.1291889929e+00 3.6878635147e+00 
11100 5.7835016520e+00 1.0780247417e-01 2.1265759708e+00 -3.6833376275e+00 2.1265759708e+00 3.6833376275e+00 
11200 5.7830868084e+00 1.0443457476e-01 2.1240418259e+00 -3.6789483598e+00 2.1240418259e+00 3.6789483598e+00 
11300 5.7826747481e+00 1.0119031869e-01 2.1215839080e+00 -3.6746911212e+00 2.1215839080e+00 3.6746911212e+00 
11400 5.7822673250e+00 9.8068407366e-02 2.1191995729e+00 -3.6705613317e+00 2.1191995729e+00 3.6705613317e+00 
11500 5.7818662906e+00 9.5067391596e-02 2.1168861867e+00 -3.6665544292e+00 2.1168861867e+00 3.6665544292e+00 
11600 5.7814732805e+00 9.2185678842e-02 2.1146411305e+00 -3.6626658779e+00 2.1146411305e+00 3.6626658779e+00 
11700 5.7810898028e+00 8.9421540381e-02 2.1124618051e+00 -3.6588911754e+00 2.1124618051e+00 3.6588911754e+00 
11800 5.7807172291e+00 8.6773118384e-02 2.1103456344e+00 -3.6552258603e+00 2.1103456344e+00 3.6552258603e+00 
11900 5.7803567877e+00 8.4238432899e-02 2.1082900703e+00 -3.6516655188e+00 2.1082900703e+00 3.6516655188e+00 
12000 5.7800095588e+00 8.1815388757e-02 2.1062925957e+00 -3.6482057914e+00 2.1062925957e+00 3.6482057914e+00 
12100 5.7796764711e+00 7.9501782391e-02 2.1043507287e+00 -3.6448423790e+00 2.1043507287e+00 3.6448423790e+00 
12200 5.7793583013e+00 7.7295308586e-02 2.1024620255e+00 -3.6415710492e+00 2.1024620255e+00 3.6415710492e+00 
12300 5.7790556740e+00 7.5193567151e-02 2.1006240842e+00 -3.6383876415e+00 2.1006240842e+00 3.6383876415e+00 
12400 5.7787690643e+00 7.3194069533e-02 2.0988345475e+00 -3.6352880729e+00 2.0988345475e+00 3.6352880729e+00 
12500 5.7784988007e+00 7.1294245361e-02 2.0970911054e+00 -3.6322683427e+00 2.0970911054e+00 3.6322683427e+00 
12600 5.7782450702e+00 6.9491448946e-02 2.0953914986e+00 -3.6293245374e+00 2.0953914986e+00 3.6293245374e+00 
12700 5.7780079241e+00 6.7782965718e-02 2.0937335203e+00 -3.6264528346e+00 2.0937335203e+00 3.6264528346e+00 
12800 5.7777872843e+00 6.6166018621e-02 2.0921150186e+00 -3.6236495074e+00 2.0921150186e+00 3.6236495074e+00 
12900 5.7775829517e+00 6.4637774463e-02 2.0905338991e+00 -3.6209109281e+00 2.0905338991e+00 3.6209109281e+00 
13000 5.7773946141e+00 6.3195350226e-02 2.0889881264e+00 -3.6182335714e+00 2.0889881264e+00 3.6182335714e+00 
13100 5.7772218554e+00 6.1835819339e-02 2.0874757263e+00 -3.6156140175e+00 2.0874757263e+00 3.6156140175e+00 
13200 5.7770641648e+00 6.0556217904e-02 2.0859947869e+00 -3.6130489552e+00 2.0859947869e+00 3.6130489552e+00 
13300 5.7769209470e+00 5.9353550899e-02 2.0845434604e+00 -3.6105351840e+00 2.0845434604e+00 3.6105351840e+00 
13400 5.7767915321e+00 5.8224798327e-02 2.0831199643e+00 -3.6080696164e+00 2.0831199643e+00 3.6080696164e+00 
13500 5.7766751857e+00 5.7166921335e-02 2.0817225824e+00 -3.6056492799e+00 2.0817225824e+00 3.6056492799e+00 
13600 5.7765711192e+00 5.6176868283e-02 2.0803496657e+00 -3.6032713185e+00 2.0803496657e+00 3.6032713185e+00 
13700 5.7764785000e+00 5.5251580762e-02 2.0789996333e+00 -3.6009329938e+00 2.0789996333e+00 3.6009329938e+00 
13800 5.7763964618e+00 5.4387999562e-02 2.0776709729e+00 -3.5986316864e+00 2.0776709729e+00 3.5986316864e+00 
13900 5.7763241137e+00 5.3583070570e-02 2.0763622410e+00 -3.5963648963e+00 2.0763622410e+00 3.5963648963e+00 
14000 5.7762605504e+00 5.2833750597e-02 2.0750720635e+00 -3.5941302433e+00 2.0750720635e+00 3.5941302433e+00 
14100 5.7762048611e+00 5.2137013128e-02 2.0737991355e+00 -3.5919254674e+00 2.0737991355e+00 3.5919254674e+00 
14200 5.7761561377e+00 5.1489853967e-02 2.0725422215e+00 -3.5897484285e+00 2.0725422215e+00 3.5897484285e+00 
14300 5.7761134836e+00 5.0889296789e-02 2.0713001550e+00 -3.5875971061e+00 2.0713001550e+00 3.5875971061e+00 
14400 5.7760760208e+00 5.0332398560e-02 2.0700718380e+00 -3.5854695987e+00 2.0700718380e+00 3.5854695987e+00 
14500 5.7760428975e+00 4.9816254836e-02 2.0688562408e+00 -3.5833641226e+00 2.0688562408e+00 3.5833641226e+00 
14600 5.7760132935e+00 4.9338004903e-02 2.0676524012e+00 -3.5812790113e+00 2.0676524012e+00 3.5812790113e+00 
14700 5.7759864272e+00 4.8894836762e-02 2.0664594237e+00 -3.5792127136e+00 2.0664594237e+00 3.5792127136e+00 
14800 5.7759615593e+00 4.8483991930e-02 2.0652764784e+00 -3.5771637923e+00 2.0652764784e+00 3.5771637923e+00 
14900 5.7759379984e+00 4.8102770055e-02 2.0641028003e+00 -3.5751309221e+00 2.0641028003e+00 3.5751309221e+00 
15000 5.7759151039e+00 4.7748533316e-02 2.0629376877e+00 -3.5731128880e+00 2.0629376877e+00 3.5731128880e+00 
15100 5.7758922890e+00 4.7418710597e-02 2.0617805014e+00 -3.5711085824e+00 2.0617805014e+00 3.5711085824e+00 
15200 5.7758690234e+00 4.7110801437e-02 2.0606306627e+00 -3.5691170034e+00 2.0606306627e+00 3.5691170034e+00 
15300 5.7758448348e+00 4.6822379713e-02 2.0594876523e+00 -3.5671372514e+00 2.0594876523e+00 3.5671372514e+00 
15400 5.7758193094e+00 4.6551097069e-02 2.0583510087e+00 -3.5651685269e+00 2.0583510087e+00 3.5651685269e+00 
15500 5.7757920929e+00 4.6294686065e-02 2.0572203261e+00 -3.5632101272e+00 2.0572203261e+00 3.5632101272e+00 
15600 5.7757628898e+00 4.6050963048e-02 2.0560952531e+00 -3.5612614435e+00 2.0560952531e+00 3.5612614435e+00 
15700 5.7757314626e+00 4.5817830717e-02 2.0549754902e+00 -3.5593219574e+00 2.0549754902e+00 3.5593219574e+00 
15800 5.7756976306e+00 4.5593280399e-02 2.0538607887e+00 -3.5573912378e+00 2.0538607887e+00 3.5573912378e+00 
15900 5.7756612679e+00 4.5375394007e-02 2.0527509479e+00 -3.5554689370e+00 2.0527509479e+00 3.5554689370e+00 
16000 5.7756223010e+00 4.5162345699e-02 2.0516458133e+00 -3.5535547878e+00 2.0516458133e+00 3.5535547878e+00 
16100 5.7755807064e+00 4.4952403210e-02 2.0505452748e+00 -3.5516485992e+00 2.0505452748e+00 3.5516485992e+00 
16200 5.7755365071e+00 4.4743928883e-02 2.0494492640e+00 -3.5497502528e+00 2.0494492640e+00 3.5497502528e+00 
16300 5.7754897697e+00 4.4535380380e-02 2.0483577523e+00 -3.5478596991e+00 2.0483577523e+00 3.5478596991e+00 
16400 5.7754406003e+00 4.4325311085e-02 2.0472707489e+00 -3.5459769539e+00 2.0472707489e+00 3.5459769539e+00 
16500 5.7753891411e+00 4.4112370206e-02 2.0461882980e+00 -3.5441020939e+00 2.0461882980e+00 3.5441020939e+00 
16600 5.7753355661e+00 4.3895302576e-02 2.0451104769e+00 -3.5422352531e+00 2.0451104769e+00 3.5422352531e+00 
16700 5.7752800773e+00 4.3672948166e-02 2.0440373940e+00 -3.5403766190e+00 2.0440373940e+00 3.5403766190e+00 
16800 5.7752229004e+00 4.3444241317e-02 2.0429691860e+00 -3.5385264285e+00 2.0429691860e+00 3.5385264285e+00 
16900 5.7751642807e+00 4.3208209705e-02 2.0419060160e+00 -3.5366849641e+00 2.0419060160e+00 3.5366849641e+00 
17000 5.7751044789e+00 4.2963973046e-02 2.0408480713e+00 -3.5348525499e+00 2.0408480713e+00 3.5348525499e+00 
17100 5.7750437672e+00 4.2710741560e-02 2.0397955608e+00 -3.5330295484e+00 2.0397955608e+00 3.5330295484e+00 
17200 5.7749824255e+00 4.2447814207e-02 2.0387487136e+00 -3.5312163558e+00 2.0387487136e+00 3.5312163558e+00 
17300 5.7749207374e+00 4.2174576704e-02 2.0377077761e+00 -3.5294133992e+00 2.0377077761e+00 3.5294133992e+00 
17400 5.7748589867e+00 4.1890499351e-02 2.0366730103e+00 -3.5276211323e+00 2.0366730103e+00 3.5276211323e+00 
17500 5.7747974542e+00 4.1595134671e-02 2.0356446918e+00 -3.5258400323e+00 2.0356446918e+00 3.5258400323e+00 
17600 5.7747364144e+00 4.1288114882e-02 2.0346231075e+00 -3.5240705964e+00 2.0346231075e+00 3.5240705964e+00 
17700 5.7746761327e+00 4.0969149228e-02 2.0336085539e+00 -3.5223133381e+00 2.0336085539e+00 3.5223133381e+00 
17800 5.7746168626e+00 4.0638021175e-02 2.0326013354e+00 -3.5205687844e+00 2.0326013354e+00 3.5205687844e+00 
17900 5.7745588440e+00 4.0294585488e-02 2.0316017619e+00 -3.5188374723e+00 2.0316017619e+00 3.5188374723e+00 
18000 5.7745023002e+00 3.9938765221e-02 2.0306101476e+00 -3.5171199461e+00 2.0306101476e+00 3.5171199461e+00 
18100 5.7744474371e+00 3.9570548613e-02 2.0296268092e+00 -3.5154167539e+00 2.0296268092e+00 3.5154167539e+00 
18200 5.7743944415e+00 3.9189985930e-02 2.0286520640e+00 -3.5137284457e+00 2.0286520640e+00 3.5137284457e+00 
18300 5.7743434794e+00 3.8797186248e-02 2.0276862287e+00 -3.5120555700e+00 2.0276862287e+00 3.5120555700e+00 
18400 5.7742946962e+00 3.8392314207e-02 2.0267296179e+00 -3.5103986713e+00 2.0267296179e+00 3.5103986713e+00 
18500 5.7742482152e+00 3.7975586736e-02 2.0257825423e+00 -3.5087582883e+00 2.0257825423e+00 3.5087582883e+00 
18600 5.7742041379e+00 3.7547269779e-02 2.0248453080e+00 -3.5071349509e+00 2.0248453080e+00 3.5071349509e+00 
18700 5.7741625439e+00 3.7107675022e-02 2.0239182149e+00 -3.5055291785e+00 2.0239182149e+00 3.5055291785e+00 
18800 5.7741234906e+00 3.6657156630e-02 2.0230015555e+00 -3.5039414779e+00 2.0230015555e+00 3.5039414779e+00 
18900 5.7740870146e+00 3.6196108022e-02 2.0220956140e+00 -3.5023723413e+00 2.0220956140e+00 3.5023723413e+00 
19000 5.7740531315e+00 3.5724958675e-02 2.0212006653e+00 -3.5008222447e+00 2.0212006653e+00 3.5008222447e+00 
19100 5.7740218372e+00 3.5244170978e-02 2.0203169739e+00 -3.4992916462e+00 2.0203169739e+00 3.4992916462e+00 
19200 5.7739931086e+00 3.4754237140e-02 2.0194447931e+00 -3.4977809847e+00 2.0194447931e+00 3.4977809847e+00 
19300 5.7739669051e+00 3.4255676159e-02 2.0185843643e+00 -3.4962906784e+00 2.0185843643e+00 3.4962906784e+00 
19400 5.7739431696e+00 3.3749030862e-02 2.0177359164e+00 -3.4948211234e+00 2.0177359164e+00 3.4948211234e+00 
19500 5.7739218301e+00 3.3234865018e-02 2.0168996648e+00 -3.4933726932e+00 2.0168996648e+00 3.4933726932e+00 
19600 5.7739028009e+00 3.2713760530e-02 2.0160758112e+00 -3.4919457368e+00 2.0160758112e+00 3.4919457368e+00 
19700 5.7738859843e+00 3.2186314715e-02 2.0152645429e+00 -3.4905405790e+00 2.0152645429e+00 3.4905405790e+00 
19800 5.7738712719e+00 3.1653137670e-02 2.0144660327e+00 -3.4891575187e+00 2.0144660327e+00 3.4891575187e+00 
19900 5.7738585467e+00 3.1114849724e-02 2.0136804379e+00 -3.4877968286e+00 2.0136804379e+00 3.4877968286e+00 
20000 5.7738476840e+00 3.0572078998e-02 2.0129079007e+00 -3.4864587550e+00 2.0129079007e+00 3.4864587550e+00 
20100 5.7738385533e+00 3.0025459045e-02 2.0121485477e+00 -3.4851435169e+00 2.0121485477e+00 3.4851435169e+00 
20200 5.7738310200e+00 2.9475626594e-02 2.0114024894e+00 -3.4838513060e+00 2.0114024894e+00 3.4838513060e+00 
20300 5.7738249465e+00 2.8923219398e-02 2.0106698206e+00 -3.4825822865e+00 2.0106698206e+00 3.4825822865e+00 
20400 5.7738201936e+00 2.8368874173e-02 2.0099506201e+00 -3.4813365947e+00 2.0099506201e+00 3.4813365947e+00 
20500 5.7738166224e+00 2.7813224638e-02 2.0092449507e+00 -3.4801143394e+00 2.0092449507e+00 3.4801143394e+00 
20600 5.7738140948e+00 2.7256899662e-02 2.0085528592e+00 -3.4789156018e+00 2.0085528592e+00 3.4789156018e+00 
20700 5.7738124752e+00 2.6700521496e-02 2.0078743765e+00 -3.4777404354e+00 2.0078743765e+00 3.4777404354e+00 
20800 5.7738116312e+00 2.6144704121e-02 2.0072095180e+00 -3.4765888667e+00 2.0072095180e+00 3.4765888667e+00 
20900 5.7738114351e+00 2.5590051681e-02 2.0065582833e+00 -3.4754608951e+00 2.0065582833e+00 3.4754608951e+00 
21000 5.7738117642e+00 2.5037157015e-02 2.0059206568e+00 -3.4743564935e+00 2.0059206568e+00 3.4743564935e+00 
21100 5.7738125017e+00 2.4486600292e-02 2.0052966077e+00 -3.4732756088e+00 2.0052966077e+00 3.4732756088e+00 
21200 5.7738135378e+00 2.3938947733e-02 2.0046860906e+00 -3.4722181622e+00 2.0046860906e+00 3.4722181622e+00 
21300 5.7738147695e+00 2.3394750429e-02 2.0040890456e+00 -3.4711840498e+00 2.0040890456e+00 3.4711840498e+00 
21400 5.7738161017e+00 2.2854543248e-02 2.0035053985e+00 -3.4701731434e+00 2.0035053985e+00 3.4701731434e+00 
21500 5.7738174471e+00 2.2318843838e-02 2.0029350616e+00 -3.4691852910e+00 2.0029350616e+00 3.4691852910e+00 
21600 5.7738187269e+00 2.1788151710e-02 2.0023779340e+00 -3.4682203177e+00 2.0023779340e+00 3.4682203177e+00 
21700 5.7738198702e+00 2.1262947415e-02 2.0018339017e+00 -3.4672780261e+00 2.0018339017e+00 3.4672780261e+00 
21800 5.7738208149e+00 2.0743691796e-02 2.0013028385e+00 -3.4663581976e+00 2.0013028385e+00 3.4663581976e+00 
21900 5.7738215071e+00 2.0230825335e-02 2.0007846062e+00 -3.4654605929e+00 2.0007846062e+00 3.4654605929e+00 
22000 5.7738219011e+00 1.9724767565e-02 2.0002790552e+00 -3.4645849529e+00 2.0002790552e+00 3.4645849529e+00 
22100 5.7738219594e+00 1.9225916575e-02 1.9997860251e+00 -3.4637309997e+00 1.9997860251e+00 3.4637309997e+00 
22200 5.7738216522e+00 1.8734648580e-02 1.9993053450e+00 -3.4628984374e+00 1.9993053450e+00 3.4628984374e+00 
22300 5.7738209573e+00 1.8251317573e-02 1.9988368343e+00 -3.4620869531e+00 1.9988368343e+00 3.4620869531e+00 
22400 5.7738198597e+00 1.7776255041e-02 1.9983803033e+00 -3.4612962181e+00 1.9983803033e+00 3.4612962181e+00 
22500 5.7738183510e+00 1.7309769755e-02 1.9979355532e+00 -3.4605258884e+00 1.9979355532e+00 3.4605258884e+00 
22600 5.7738164292e+00 1.6852147631e-02 1.9975023775e+00 -3.4597756060e+00 1.9975023775e+00 3.4597756060e+00 
22700 5.7738140982e+00 1.6403651645e-02 1.9970805618e+00 -3.4590449999e+00 1.9970805618e+00 3.4590449999e+00 
22800 5.7738113672e+00 1.5964521822e-02 1.9966698851e+00 -3.4583336870e+00 1.9966698851e+00 3.4583336870e+00 
22900 5.7738082502e+00 1.5534975278e-02 1.9962701198e+00 -3.4576412731e+00 1.9962701198e+00 3.4576412731e+00 
23000 5.7738047655e+00 1.5115206321e-02 1.9958810324e+00 -3.4569673540e+00 1.9958810324e+00 3.4569673540e+00 
23100 5.7738009354e+00 1.4705386611e-02 1.9955023844e+00 -3.4563115163e+00 1.9955023844e+00 3.4563115163e+00 
23200 5.7737967851e+00 1.4305665369e-02 1.9951339324e+00 -3.4556733389e+00 1.9951339324e+00 3.4556733389e+00 
23300 5.7737923430e+00 1.3916169637e-02 1.9947754293e+00 -3.4550523932e+00 1.9947754293e+00 3.4550523932e+00 
23400 5.7737876393e+00 1.3537004589e-02 1.9944266240e+00 -3.4544482447e+00 1.9944266240e+00 3.4544482447e+00 
23500 5.7737827063e+00 1.3168253884e-02 1.9940872628e+00 -3.4538604538e+00 1.9940872628e+00 3.4538604538e+00 
23600 5.7737775773e+00 1.2809980064e-02 1.9937570894e+00 -3.4532885768e+00 1.9937570894e+00 3.4532885768e+00 
23700 5.7737722868e+00 1.2462224993e-02 1.9934358457e+00 -3.4527321665e+00 1.9934358457e+00 3.4527321665e+00 
23800 5.7737668692e+00 1.2125010335e-02 1.9931232724e+00 -3.4521907735e+00 1.9931232724e+00 3.4521907735e+00 
23900 5.7737613592e+00 1.1798338064e-02 1.9928191090e+00 -3.4516639471e+00 1.9928191090e+00 3.4516639471e+00 
24000 5.7737557912e+00 1.1482191011e-02 1.9925230950e+00 -3.4511512359e+00 1.9925230950e+00 3.4511512359e+00 
24100 5.7737501986e+00 1.1176533439e-02 1.9922349700e+00 -3.4506521887e+00 1.9922349700e+00 3.4506521887e+00 
24200 5.7737446140e+00 1.0881311654e-02 1.9919544742e+00 -3.4501663557e+00 1.9919544742e+00 3.4501663557e+00 
24300 5.7737390685e+00 1.0596454627e-02 1.9916813489e+00 -3.4496932888e+00 1.9916813489e+00 3.4496932888e+00 
24400 5.7737335919e+00 1.0321874657e-02 1.9914153370e+00 -3.4492325427e+00 1.9914153370e+00 3.4492325427e+00 
24500 5.7737282120e+00 1.0057468041e-02 1.9911561834e+00 -3.4487836754e+00 1.9911561834e+00 3.4487836754e+00 
24600 5.7737229548e+00 9.8031157723e-03 1.9909036353e+00 -3.4483462493e+00 1.9909036353e+00 3.4483462493e+00 
24700 5.7737178441e+00 9.5586842493e-03 1.9906574427e+00 -3.4479198312e+00 1.9906574427e+00 3.4479198312e+00 
24800 5.7737129017e+00 9.3240260032e-03 1.9904173589e+00 -3.4475039939e+00 1.9904173589e+00 3.4475039939e+00 
24900 5.7737081469e+00 9.0989804342e-03 1.9901831406e+00 -3.4470983159e+00 1.9901831406e+00 3.4470983159e+00 
25000 5.7737035966e+00 8.8833745593e-03 1.9899545484e+00 -3.4467023826e+00 1.9899545484e+00 3.4467023826e+00 
25100 5.7736992657e+00 8.6770237670e-03 1.9897313471e+00 -3.4463157866e+00 1.9897313471e+00 3.4463157866e+00 
25200 5.7736951663e+00 8.4797325786e-03 1.9895133060e+00 -3.4459381283e+00 1.9895133060e+00 3.4459381283e+00 
25300 5.7736913084e+00 8.2912954115e-03 1.9893001991e+00 -3.4455690163e+00 1.9893001991e+00 3.4455690163e+00 
25400 5.7736876997e+00 8.1114973450e-03 1.9890918054e+00 -3.4452080679e+00 1.9890918054e+00 3.4452080679e+00 
25500 5.7736843453e+00 7.9401148857e-03 1.9888879094e+00 -3.4448549096e+00 1.9888879094e+00 3.4448549096e+00 
25600 5.7736812487e+00 7.7769167298e-03 1.9886883008e+00 -3.4445091774e+00 1.9886883008e+00 3.4445091774e+00 
25700 5.7736784108e+00 7.6216645219e-03 1.9884927752e+00 -3.4441705171e+00 1.9884927752e+00 3.4441705171e+00 
25800 5.7736758308e+00 7.4741136074e-03 1.9883011340e+00 -3.4438385849e+00 1.9883011340e+00 3.4438385849e+00 
25900 5.7736735061e+00 7.3340137780e-03 1.9881131847e+00 -3.4435130472e+00 1.9881131847e+00 3.4435130472e+00 
26000 5.7736714321e+00 7.2011100065e-03 1.9879287410e+00 -3.4431935812e+00 1.9879287410e+00 3.4431935812e+00 
26100 5.7736696031e+00 7.0751431728e-03 1.9877476228e+00 -3.4428798754e+00 1.9877476228e+00 3.4428798754e+00 
26200 5.7736680114e+00 6.9558507753e-03 1.9875696566e+00 -3.4425716289e+00 1.9875696566e+00 3.4425716289e+00 
26300 5.7736666486e+00 6.8429676310e-03 1.9873946754e+00 -3.4422685524e+00 1.9873946754e+00 3.4422685524e+00 
26400 5.7736655048e+00 6.7362265582e-03 1.9872225186e+00 -3.4419703682e+00 1.9872225186e+00 3.4419703682e+00 
26500 5.7736645692e+00 6.6353590449e-03 1.9870530325e+00 -3.4416768097e+00 1.9870530325e+00 3.4416768097e+00 
26600 5.7736638303e+00 6.5400958981e-03 1.9868860701e+00 -3.4413876222e+00 1.9868860701e+00 3.4413876222e+00 
26700 5.7736632758e+00 6.4501678760e-03 1.9867214908e+00 -3.4411025625e+00 1.9867214908e+00 3.4411025625e+00 
26800 5.7736628931e+00 6.3653062991e-03 1.9865591610e+00 -3.4408213991e+00 1.9865591610e+00 3.4408213991e+00 
26900 5.7736626690e+00 6.2852436420e-03 1.9863989538e+00 -3.4405439122e+00 1.9863989538e+00 3.4405439122e+00 
27000 5.7736625902e+00 6.2097141031e-03 1.9862407490e+00 -3.4402698933e+00 1.9862407490e+00 3.4402698933e+00 
27100 5.7736626432e+00 6.1384541520e-03 1.9860844328e+00 -3.4399991456e+00 1.9860844328e+00 3.4399991456e+00 
27200 5.7736628146e+00 6.0712030549e-03 1.9859298982e+00 -3.4397314839e+00 1.9859298982e+00 3.4397314839e+00 
27300 5.7736630911e+00 6.0077033752e-03 1.9857770447e+00 -3.4394667339e+00 1.9857770447e+00 3.4394667339e+00 
27400 5.7736634597e+00 5.9477014510e-03 1.9856257783e+00 -3.4392047328e+00 1.9856257783e+00 3.4392047328e+00 
27500 5.7736639076e+00 5.8909478478e-03 1.9854760112e+00 -3.4389453287e+00 1.9854760112e+00 3.4389453287e+00 
27600 5.7736644227e+00 5.8371977861e-03 1.9853276621e+00 -3.4386883804e+00 1.9853276621e+00 3.4386883804e+00 
27700 5.7736649930e+00 5.7862115441e-03 1.9851806555e+00 -3.4384337575e+00 1.9851806555e+00 3.4384337575e+00 
27800 5.7736656075e+00 5.7377548346e-03 1.9850349221e+00 -3.4381813399e+00 1.9850349221e+00 3.4381813399e+00 
27900 5.7736662555e+00 5.6915991566e-03 1.9848903986e+00 -3.4379310178e+00 1.9848903986e+00 3.4379310178e+00 
28000 5.7736669271e+00 5.6475221208e-03 1.9847470272e+00 -3.4376826912e+00 1.9847470272e+00 3.4376826912e+00 
28100 5.7736676132e+00 5.6053077501e-03 1.9846047558e+00 -3.4374362699e+00 1.9846047558e+00 3.4374362699e+00 
28200 5.7736683054e+00 5.5647467535e-03 1.9844635377e+00 -3.4371916731e+00 1.9844635377e+00 3.4371916731e+00 
28300 5.7736689961e+00 5.5256367755e-03 1.9843233315e+00 -3.4369488288e+00 1.9843233315e+00 3.4369488288e+00 
28400 5.7736696782e+00 5.4877826188e-03 1.9841841009e+00 -3.4367076743e+00 1.9841841009e+00 3.4367076743e+00 
28500 5.7736703459e+00 5.4509964436e-03 1.9840458143e+00 -3.4364681550e+00 1.9840458143e+00 3.4364681550e+00 
28600 5.7736709937e+00 5.4150979406e-03 1.9839084452e+00 -3.4362302246e+00 1.9839084452e+00 3.4362302246e+00 
28700 5.7736716171e+00 5.3799144800e-03 1.9837719713e+00 -3.4359938448e+00 1.9837719713e+00 3.4359938448e+00 
28800 5.7736722124e+00 5.3452812371e-03 1.9836363747e+00 -3.4357589847e+00 1.9836363747e+00 3.4357589847e+00 
28900 5.7736727766e+00 5.3110412939e-03 1.9835016418e+00 -3.4355256205e+00 1.9835016418e+00 3.4355256205e+00 
29000 5.7736733073e+00 5.2770457169e-03 1.9833677629e+00 -3.4352937354e+00 1.9833677629e+00 3.4352937354e+00 
29100 5.7736738028e+00 5.2431536141e-03 1.9832347319e+00 -3.4350633190e+00 1.9832347319e+00 3.4350633190e+00 
29200 5.7736742621e+00 5.2092321685e-03 1.9831025465e+00 -3.4348343671e+00 1.9831025465e+00 3.4348343671e+00 
29300 5.7736746849e+00 5.1751566516e-03 1.9829712075e+00 -3.4346068813e+00 1.9829712075e+00 3.4346068813e+00 
29400 5.7736750710e+00 5.1408104152e-03 1.9828407189e+00 -3.4343808685e+00 1.9828407189e+00 3.4343808685e+00 
29500 5.7736754213e+00 5.1060848649e-03 1.9827110879e+00 -3.4341563409e+00 1.9827110879e+00 3.4341563409e+00 
29600 5.7736757368e+00 5.0708794128e-03 1.9825823240e+00 -3.4339333154e+00 1.9825823240e+00 3.4339333154e+00 
29700 5.7736760189e+00 5.0351014132e-03 1.9824544397e+00 -3.4337118133e+00 1.9824544397e+00 3.4337118133e+00 
29800 5.7736762694e+00 4.9986660801e-03 1.9823274495e+00 -3.4334918597e+00 1.9823274495e+00 3.4334918597e+00 
29900 5.7736764906e+00 4.9614963882e-03 1.9822013701e+00 -3.4332734838e+00 1.9822013701e+00 3.4332734838e+00 
30000 5.7736766848e+00 4.9235229582e-03 1.9820762202e+00 -3.4330567179e+00 1.9820762202e+00 3.4330567179e+00 
30100 5.7736768546e+00 4.8846839264e-03 1.9819520203e+00 -3.4328415974e+00 1.9819520203e+00 3.4328415974e+00 
30200 5.7736770028e+00 4.8449248012e-03 1.9818287925e+00 -3.4326281605e+00 1.9818287925e+00 3.4326281605e+00 
30300 5.7736771323e+00 4.8041983052e-03 1.9817065601e+00 -3.4324164477e+00 1.9817065601e+00 3.4324164477e+00 
30400 5.7736772460e+00 4.7624642054e-03 1.9815853476e+00 -3.4322065017e+00 1.9815853476e+00 3.4322065017e+00 
30500 5.7736773471e+00 4.7196891317e-03 1.9814651808e+00 -3.4319983666e+00 1.9814651808e+00 3.4319983666e+00 
30600 5.7736774384e+00 4.6758463848e-03 1.9813460861e+00 -3.4317920885e+00 1.9813460861e+00 3.4317920885e+00 
30700 5.7736775230e+00 4.6309157343e-03 1.9812280905e+00 -3.4315877142e+00 1.9812280905e+00 3.4315877142e+00 
30800 5.7736776038e+00 4.5848832072e-03 1.9811112219e+00 -3.4313852917e+00 1.9811112219e+00 3.4313852917e+00 
30900 5.7736776836e+00 4.5377408691e-03 1.9809955081e+00 -3.4311848695e+00 1.9809955081e+00 3.4311848695e+00 
31000 5.7736777650e+00 4.4894865978e-03 1.9808809773e+00 -3.4309864965e+00 1.9808809773e+00 3.4309864965e+00 
31100 5.7736778506e+00 4.4401238501e-03 1.9807676580e+00 -3.4307902216e+00 1.9807676580e+00 3.4307902216e+00 
31200 5.7736779428e+00 4.3896614235e-03 1.9806555781e+00 -3.4305960936e+00 1.9806555781e+00 3.4305960936e+00 
31300 5.7736780437e+00 4.3381132129e-03 1.9805447658e+00 -3.4304041611e+00 1.9805447658e+00 3.4304041611e+00 
31400 5.7736781553e+00 4.2854979628e-03 1.9804352486e+00 -3.4302144717e+00 1.9804352486e+00 3.4302144717e+00 
31500 5.7736782794e+00 4.2318390173e-03 1.9803270538e+00 -3.4300270727e+00 1.9803270538e+00 3.4300270727e+00 
31600 5.7736784176e+00 4.1771640661e-03 1.9802202078e+00 -3.4298420100e+00 1.9802202078e+00 3.4298420100e+00 
31700 5.7736785712e+00 4.1215048903e-03 1.9801147365e+00 -3.4296593284e+00 1.9801147365e+00 3.4296593284e+00 
31800 5.7736787413e+00 4.0648971058e-03 1.9800106650e+00 -3.4294790713e+00 1.9800106650e+00 3.4294790713e+00 
31900 5.7736789288e+00 4.0073799071e-03 1.9799080175e+00 -3.4293012807e+00 1.9799080175e+00 3.4293012807e+00 
32000 5.7736791343e+00 3.9489958108e-03 1.9798068172e+00 -3.4291259966e+00 1.9798068172e+00 3.4291259966e+00 
32100 5.7736793583e+00 3.8897904008e-03 1.9797070862e+00 -3.4289532575e+00 1.9797070862e+00 3.4289532575e+00 
32200 5.7736796011e+00 3.8298120739e-03 1.9796088455e+00 -3.4287830995e+00 1.9796088455e+00 3.4287830995e+00 
32300 5.7736798627e+00 3.7691117884e-03 1.9795121147e+00 -3.4286155569e+00 1.9795121147e+00 3.4286155569e+00 
32400 5.7736801429e+00 3.7077428147e-03 1.9794169124e+00 -3.4284506617e+00 1.9794169124e+00 3.4284506617e+00 
32500 5.7736804415e+00 3.6457604899e-03 1.9793232557e+00 -3.4282884435e+00 1.9793232557e+00 3.4282884435e+00 
32600 5.7736807578e+00 3.5832219747e-03 1.9792311603e+00 -3.4281289296e+00 1.9792311603e+00 3.4281289296e+00 
32700 5.7736810914e+00 3.5201860161e-03 1.9791406404e+00 -3.4279721446e+00 1.9791406404e+00 3.4279721446e+00 
32800 5.7736814413e+00 3.4567127131e-03 1.9790517089e+00 -3.4278181107e+00 1.9790517089e+00 3.4278181107e+00 
32900 5.7736818067e+00 3.3928632884e-03 1.9789643770e+00 -3.4276668474e+00 1.9789643770e+00 3.4276668474e+00 
33000 5.7736821865e+00 3.3286998655e-03 1.9788786544e+00 -3.4275183715e+00 1.9788786544e+00 3.4275183715e+00 
33100 5.7736825797e+00 3.2642852508e-03 1.9787945493e+00 -3.4273726972e+00 1.9787945493e+00 3.4273726972e+00 
33200 5.7736829851e+00 3.1996827222e-03 1.9787120682e+00 -3.4272298357e+00 1.9787120682e+00 3.4272298357e+00 
33300 5.7736834014e+00 3.1349558248e-03 1.9786312161e+00 -3.4270897958e+00 1.9786312161e+00 3.4270897958e+00 
33400 5.7736838273e+00 3.0701681717e-03 1.9785519963e+00 -3.4269525831e+00 1.9785519963e+00 3.4269525831e+00 
33500 5.7736842614e+00 3.0053832533e-03 1.9784744106e+00 -3.4268182006e+00 1.9784744106e+00 3.4268182006e+00 
33600 5.7736847026e+00 2.9406642530e-03 1.9783984591e+00 -3.4266866487e+00 1.9783984591e+00 3.4266866487e+00 
33700 5.7736851493e+00 2.8760738697e-03 1.9783241402e+00 -3.4265579247e+00 1.9783241402e+00 3.4265579247e+00 
33800 5.7736856003e+00 2.8116741496e-03 1.9782514510e+00 -3.4264320233e+00 1.9782514510e+00 3.4264320233e+00 
33900 5.7736860542e+00 2.7475263236e-03 1.9781803868e+00 -3.4263089365e+00 1.9781803868e+00 3.4263089365e+00 
34000 5.7736865098e+00 2.6836906539e-03 1.9781109414e+00 -3.4261886535e+00 1.9781109414e+00 3.4261886535e+00 
34100 5.7736869658e+00 2.6202262881e-03 1.9780431071e+00 -3.4260711611e+00 1.9780431071e+00 3.4260711611e+00 
34200 5.7736874210e+00 2.5571911214e-03 1.9779768747e+00 -3.4259564431e+00 1.9779768747e+00 3.4259564431e+00 
34300 5.7736878742e+00 2.4946416668e-03 1.9779122335e+00 -3.4258444812e+00 1.9779122335e+00 3.4258444812e+00 
34400 5.7736883244e+00 2.4326329332e-03 1.9778491713e+00 -3.4257352544e+00 1.9778491713e+00 3.4257352544e+00 
34500 5.7736887706e+00 2.3712183122e-03 1.9777876747e+00 -3.4256287391e+00 1.9777876747e+00 3.4256287391e+00 
34600 5.7736892119e+00 2.3104494725e-03 1.9777277288e+00 -3.4255249097e+00 1.9777277288e+00 3.4255249097e+00 
34700 5.7736896474e+00 2.2503762626e-03 1.9776693173e+00 -3.4254237382e+00 1.9776693173e+00 3.4254237382e+00 
34800 5.7736900763e+00 2.1910466216e-03 1.9776124229e+00 -3.4253251942e+00 1.9776124229e+00 3.4253251942e+00 
34900 5.7736904980e+00 2.1325064982e-03 1.9775570269e+00 -3.4252292455e+00 1.9775570269e+00 3.4252292455e+00 
35000 5.7736909119e+00 2.0747997772e-03 1.9775031095e+00 -3.4251358578e+00 1.9775031095e+00 3.4251358578e+00 
35100 5.7736913175e+00 2.0179682143e-03 1.9774506496e+00 -3.4250449946e+00 1.9774506496e+00 3.4250449946e+00 
35200 5.7736917143e+00 1.9620513782e-03 1.9773996254e+00 -3.4249566180e+00 1.9773996254e+00 3.4249566180e+00 
35300 5.7736921020e+00 1.9070866010e-03 1.9773500137e+00 -3.4248706880e+00 1.9773500137e+00 3.4248706880e+00 
35400 5.7736924804e+00 1.8531089352e-03 1.9773017906e+00 -3.4247871631e+00 1.9773017906e+00 3.4247871631e+00 
35500 5.7736928493e+00 1.8001511191e-03 1.9772549312e+00 -3.4247060004e+00 1.9772549312e+00 3.4247060004e+00 
35600 5.7736932085e+00 1.7482435483e-03 1.9772094099e+00 -3.4246271552e+00 1.9772094099e+00 3.4246271552e+00 
35700 5.7736935581e+00 1.6974142550e-03 1.9771652002e+00 -3.4245505817e+00 1.9771652002e+00 3.4245505817e+00 
35800 5.7736938981e+00 1.6476888941e-03 1.9771222749e+00 -3.4244762329e+00 1.9771222749e+00 3.4244762329e+00 
35900 5.7736942285e+00 1.5990907353e-03 1.9770806062e+00 -3.4244040606e+00 1.9770806062e+00 3.4244040606e+00 
36000 5.7736945497e+00 1.5516406625e-03 1.9770401656e+00 -3.4243340154e+00 1.9770401656e+00 3.4243340154e+00 
36100 5.7736948616e+00 1.5053571785e-03 1.9770009242e+00 -3.4242660474e+00 1.9770009242e+00 3.4242660474e+00 
36200 5.7736951647e+00 1.4602564167e-03 1.9769628526e+00 -3.4242001054e+00 1.9769628526e+00 3.4242001054e+00 
36300 5.7736954593e+00 1.4163521580e-03 1.9769259209e+00 -3.4241361378e+00 1.9769259209e+00 3.4241361378e+00 
36400 5.7736957455e+00 1.3736558531e-03 1.9768900990e+00 -3.4240740924e+00 1.9768900990e+00 3.4240740924e+00 
36500 5.7736960239e+00 1.3321766506e-03 1.9768553562e+00 -3.4240139162e+00 1.9768553562e+00 3.4240139162e+00 
36600 5.7736962948e+00 1.2919214300e-03 1.9768216620e+00 -3.4239555560e+00 1.9768216620e+00 3.4239555560e+00 
36700 5.7736965587e+00 1.2528948392e-03 1.9767889853e+00 -3.4238989584e+00 1.9767889853e+00 3.4238989584e+00 
36800 5.7736968159e+00 1.2150993370e-03 1.9767572953e+00 -3.4238440696e+00 1.9767572953e+00 3.4238440696e+00 
36900 5.7736970668e+00 1.1785352400e-03 1.9767265607e+00 -3.4237908358e+00 1.9767265607e+00 3.4237908358e+00 
37000 5.7736973121e+00 1.1432007727e-03 1.9766967505e+00 -3.4237392030e+00 1.9766967505e+00 3.4237392030e+00 
37100 5.7736975520e+00 1.1090921226e-03 1.9766678336e+00 -3.4236891175e+00 1.9766678336e+00 3.4236891175e+00 
37200 5.7736977870e+00 1.0762034983e-03 1.9766397791e+00 -3.4236405256e+00 1.9766397791e+00 3.4236405256e+00 
37300 5.7736980176e+00 1.0445271902e-03 1.9766125561e+00 -3.4235933740e+00 1.9766125561e+00 3.4235933740e+00 
37400 5.7736982442e+00 1.0140536357e-03 1.9765861340e+00 -3.4235476096e+00 1.9765861340e+00 3.4235476096e+00 
37500 5.7736984671e+00 9.8477148571e-04 1.9765604824e+00 -3.4235031797e+00 1.9765604824e+00 3.4235031797e+00 
37600 5.7736986869e+00 9.5666767472e-04 1.9765355712e+00 -3.4234600323e+00 1.9765355712e+00 3.4234600323e+00 
37700 5.7736989038e+00 9.2972749258e-04 1.9765113706e+00 -3.4234181157e+00 1.9765113706e+00 3.4234181157e+00 
37800 5.7736991181e+00 9.0393465842e-04 1.9764878513e+00 -3.4233773790e+00 1.9764878513e+00 3.4233773790e+00 
37900 5.7736993303e+00 8.7927139637e-04 1.9764649841e+00 -3.4233377719e+00 1.9764649841e+00 3.4233377719e+00 
38000 5.7736995407e+00 8.5571851274e-04 1.9764427406e+00 -3.4232992450e+00 1.9764427406e+00 3.4232992450e+00 
38100 5.7736997494e+00 8.3325547451e-04 1.9764210927e+00 -3.4232617498e+00 1.9764210927e+00 3.4232617498e+00 
38200 5.7736999568e+00 8.1186048883e-04 1.9764000129e+00 -3.4232252383e+00 1.9764000129e+00 3.4232252383e+00 
38300 5.7737001630e+00 7.9151058330e-04 1.9763794740e+00 -3.4231896640e+00 1.9763794740e+00 3.4231896640e+00 
38400 5.7737003683e+00 7.7218168688e-04 1.9763594498e+00 -3.4231549811e+00 1.9763594498e+00 3.4231549811e+00 
38500 5.7737005728e+00 7.5384871109e-04 1.9763399144e+00 -3.4231211447e+00 1.9763399144e+00 3.4231211447e+00 
38600 5.7737007767e+00 7.3648563142e-04 1.9763208426e+00 -3.4230881114e+00 1.9763208426e+00 3.4230881114e+00 
38700 5.7737009801e+00 7.2006556860e-04 1.9763022098e+00 -3.4230558386e+00 1.9763022098e+00 3.4230558386e+00 
38800 5.7737011830e+00 7.0456086961e-04 1.9762839924e+00 -3.4230242850e+00 1.9762839924e+00 3.4230242850e+00 
38900 5.7737013856e+00 6.8994318831e-04 1.9762661670e+00 -3.4229934105e+00 1.9762661670e+00 3.4229934105e+00 
39000 5.7737015878e+00 6.7618356529e-04 1.9762487113e+00 -3.4229631764e+00 1.9762487113e+00 3.4229631764e+00 
39100 5.7737017897e+00 6.6325250695e-04 1.9762316036e+00 -3.4229335449e+00 1.9762316036e+00 3.4229335449e+00 
39200 5.7737019913e+00 6.5112006360e-04 1.9762148229e+00 -3.4229044799e+00 1.9762148229e+00 3.4229044799e+00 
39300 5.7737021926e+00 6.3975590633e-04 1.9761983490e+00 -3.4228759463e+00 1.9761983490e+00 3.4228759463e+00 
39400 5.7737023934e+00 6.2912940258e-04 1.9761821625e+00 -3.4228479104e+00 1.9761821625e+00 3.4228479104e+00 
39500 5.7737025938e+00 6.1920969029e-04 1.9761662447e+00 -3.4228203400e+00 1.9761662447e+00 3.4228203400e+00 
39600 5.7737027937e+00 6.0996575030e-04 1.9761505778e+00 -3.4227932041e+00 1.9761505778e+00 3.4227932041e+00 
39700 5.7737029929e+00 6.0136647715e-04 1.9761351446e+00 -3.4227664731e+00 1.9761351446e+00 3.4227664731e+00 
39800 5.7737031915e+00 5.9338074796e-04 1.9761199289e+00 -3.4227401187e+00 1.9761199289e+00 3.4227401187e+00 
39900 5.7737033893e+00 5.8597748925e-04 1.9761049151e+00 -3.4227141141e+00 1.9761049151e+00 3.4227141141e+00 
40000 5.7737035862e+00 5.7912574182e-04 1.9760900886e+00 -3.4226884337e+00 1.9760900886e+00 3.4226884337e+00 
40100 5.7737037820e+00 5.7279472333e-04 1.9760754353e+00 -3.4226630535e+00 1.9760754353e+00 3.4226630535e+00 
40200 5.7737039767e+00 5.6695388865e-04 1.9760609420e+00 -3.4226379505e+00 1.9760609420e+00 3.4226379505e+00 
40300 5.7737041701e+00 5.6157298783e-04 1.9760465965e+00 -3.4226131033e+00 1.9760465965e+00 3.4226131033e+00 
40400 5.7737043622e+00 5.5662212175e-04 1.9760323870e+00 -3.4225884917e+00 1.9760323870e+00 3.4225884917e+00 
40500 5.7737045527e+00 5.5207179508e-04 1.9760183027e+00 -3.4225640970e+00 1.9760183027e+00 3.4225640970e+00 
40600 5.7737047417e+00 5.4789296692e-04 1.9760043334e+00 -3.4225399015e+00 1.9760043334e+00 3.4225399015e+00 
40700 5.7737049289e+00 5.4405709870e-04 1.9759904698e+00 -3.4225158889e+00 1.9759904698e+00 3.4225158889e+00 
40800 5.7737051142e+00 5.4053619954e-04 1.9759767031e+00 -3.4224920443e+00 1.9759767031e+00 3.4224920443e+00 
40900 5.7737052976e+00 5.3730286887e-04 1.9759630254e+00 -3.4224683539e+00 1.9759630254e+00 3.4224683539e+00 
41000 5.7737054790e+00 5.3433033644e-04 1.9759494295e+00 -3.4224448050e+00 1.9759494295e+00 3.4224448050e+00 
41100 5.7737056582e+00 5.3159249963e-04 1.9759359086e+00 -3.4224213862e+00 1.9759359086e+00 3.4224213862e+00 
41200 5.7737058352e+00 5.2906395797e-04 1.9759224570e+00 -3.4223980873e+00 1.9759224570e+00 3.4223980873e+00 
41300 5.7737060099e+00 5.2672004510e-04 1.9759090692e+00 -3.4223748990e+00 1.9759090692e+00 3.4223748990e+00 
41400 5.7737061823e+00 5.2453685787e-04 1.9758957407e+00 -3.4223518133e+00 1.9758957407e+00 3.4223518133e+00 
41500 5.7737063522e+00 5.2249128285e-04 1.9758824673e+00 -3.4223288232e+00 1.9758824673e+00 3.4223288232e+00 
41600 5.7737065196e+00 5.2056102017e-04 1.9758692456e+00 -3.4223059225e+00 1.9758692456e+00 3.4223059225e+00 
41700 5.7737066846e+00 5.1872460468e-04 1.9758560727e+00 -3.4222831063e+00 1.9758560727e+00 3.4222831063e+00 
41800 5.7737068470e+00 5.1696142448e-04 1.9758429461e+00 -3.4222603704e+00 1.9758429461e+00 3.4222603704e+00 
41900 5.7737070068e+00 5.1525173694e-04 1.9758298641e+00 -3.4222377117e+00 1.9758298641e+00 3.4222377117e+00 
42000 5.7737071640e+00 5.1357668213e-04 1.9758168252e+00 -3.4222151277e+00 1.9758168252e+00 3.4222151277e+00 
42100 5.7737073187e+00 5.1191829374e-04 1.9758038286e+00 -3.4221926170e+00 1.9758038286e+00 3.4221926170e+00 
42200 5.7737074708e+00 5.1025950766e-04 1.9757908740e+00 -3.4221701789e+00 1.9757908740e+00 3.4221701789e+00 
42300 5.7737076203e+00 5.0858416805e-04 1.9757779612e+00 -3.4221478133e+00 1.9757779612e+00 3.4221478133e+00 
42400 5.7737077673e+00 5.0687703118e-04 1.9757650907e+00 -3.4221255210e+00 1.9757650907e+00 3.4221255210e+00 
42500 5.7737079117e+00 5.0512376699e-04 1.9757522634e+00 -3.4221033034e+00 1.9757522634e+00 3.4221033034e+00 
42600 5.7737080536e+00 5.0331095844e-04 1.9757394803e+00 -3.4220811624e+00 1.9757394803e+00 3.4220811624e+00 
42700 5.7737081931e+00 5.0142609873e-04 1.9757267431e+00 -3.4220591009e+00 1.9757267431e+00 3.4220591009e+00 
42800 5.7737083302e+00 4.9945758655e-04 1.9757140534e+00 -3.4220371217e+00 1.9757140534e+00 3.4220371217e+00 
42900 5.7737084649e+00 4.9739471927e-04 1.9757014135e+00 -3.4220152288e+00 1.9757014135e+00 3.4220152288e+00 
43000 5.7737085973e+00 4.9522768427e-04 1.9756888257e+00 -3.4219934261e+00 1.9756888257e+00 3.4219934261e+00 
43100 5.7737087274e+00 4.9294754851e-04 1.9756762927e+00 -3.4219717182e+00 1.9756762927e+00 3.4219717182e+00 
43200 5.7737088553e+00 4.9054624629e-04 1.9756638173e+00 -3.4219501102e+00 1.9756638173e+00 3.4219501102e+00 
43300 5.7737089811e+00 4.8801656545e-04 1.9756514026e+00 -3.4219286073e+00 1.9756514026e+00 3.4219286073e+00 
43400 5.7737091048e+00 4.8535213198e-04 1.9756390518e+00 -3.4219072152e+00 1.9756390518e+00 3.4219072152e+00 
43500 5.7737092264e+00 4.8254739314e-04 1.9756267684e+00 -3.4218859397e+00 1.9756267684e+00 3.4218859397e+00 
43600 5.7737093461e+00 4.7959759924e-04 1.9756145559e+00 -3.4218647870e+00 1.9756145559e+00 3.4218647870e+00 
43700 5.7737094639e+00 4.7649878412e-04 1.9756024180e+00 -3.4218437635e+00 1.9756024180e+00 3.4218437635e+00 
43800 5.7737095799e+00 4.7324774443e-04 1.9755903584e+00 -3.4218228757e+00 1.9755903584e+00 3.4218228757e+00 
43900 5.7737096941e+00 4.6984201779e-04 1.9755783811e+00 -3.4218021303e+00 1.9755783811e+00 3.4218021303e+00 
44000 5.7737098067e+00 4.6627985994e-04 1.9755664898e+00 -3.4217815341e+00 1.9755664898e+00 3.4217815341e+00 
44100 5.7737099175e+00 4.6256022091e-04 1.9755546887e+00 -3.4217610939e+00 1.9755546887e+00 3.4217610939e+00 
44200 5.7737100268e+00 4.5868272045e-04 1.9755429816e+00 -3.4217408166e+00 1.9755429816e+00 3.4217408166e+00 
44300 5.7737101346e+00 4.5464762259e-04 1.9755313726e+00 -3.4217207092e+00 1.9755313726e+00 3.4217207092e+00 
44400 5.7737102409e+00 4.5045580957e-04 1.9755198656e+00 -3.4217007786e+00 1.9755198656e+00 3.4217007786e+00 
44500 5.7737103457e+00 4.4610875519e-04 1.9755084647e+00 -3.4216810316e+00 1.9755084647e+00 3.4216810316e+00 
44600 5.7737104492e+00 4.4160849768e-04 1.9754971737e+00 -3.4216614750e+00 1.9754971737e+00 3.4216614750e+00 
44700 5.7737105514e+00 4.3695761209e-04 1.9754859965e+00 -3.4216421157e+00 1.9754859965e+00 3.4216421157e+00 
44800 5.7737106523e+00 4.3215918236e-04 1.9754749371e+00 -3.4216229601e+00 1.9754749371e+00 3.4216229601e+00 
44900 5.7737107519e+00 4.2721677317e-04 1.9754639990e+00 -3.4216040147e+00 1.9754639990e+00 3.4216040147e+00 
45000 5.7737108503e+00 4.2213440157e-04 1.9754531859e+00 -3.4215852859e+00 1.9754531859e+00 3.4215852859e+00 
45100 5.7737109476e+00 4.1691650847e-04 1.9754425014e+00 -3.4215667799e+00 1.9754425014e+00 3.4215667799e+00 
45200 5.7737110437e+00 4.1156793018e-04 1.9754319489e+00 -3.4215485025e+00 1.9754319489e+00 3.4215485025e+00 
45300 5.7737111387e+00 4.0609386987e-04 1.9754215318e+00 -3.4215304594e+00 1.9754215318e+00 3.4215304594e+00 
45400 5.7737112326e+00 4.0049986925e-04 1.9754112531e+00 -3.4215126563e+00 1.9754112531e+00 3.4215126563e+00 
45500 5.7737113254e+00 3.9479178031e-04 1.9754011160e+00 -3.4214950983e+00 1.9754011160e+00 3.4214950983e+00 
45600 5.7737114172e+00 3.8897573737e-04 1.9753911233e+00 -3.4214777904e+00 1.9753911233e+00 3.4214777904e+00 
45700 5.7737115080e+00 3.8305812938e-04 1.9753812778e+00 -3.4214607375e+00 1.9753812778e+00 3.4214607375e+00 
45800 5.7737115977e+00 3.7704557254e-04 1.9753715820e+00 -3.4214439438e+00 1.9753715820e+00 3.4214439438e+00 
45900 5.7737116864e+00 3.7094488342e-04 1.9753620383e+00 -3.4214274138e+00 1.9753620383e+00 3.4214274138e+00 
46000 5.7737117742e+00 3.6476305242e-04 1.9753526491e+00 -3.4214111510e+00 1.9753526491e+00 3.4214111510e+00 
46100 5.7737118609e+00 3.5850721780e-04 1.9753434162e+00 -3.4213951593e+00 1.9753434162e+00 3.4213951593e+00 
46200 5.7737119467e+00 3.5218464025e-04 1.9753343417e+00 -3.4213794417e+00 1.9753343417e+00 3.4213794417e+00 
46300 5.7737120315e+00 3.4580267802e-04 1.9753254271e+00 -3.4213640012e+00 1.9753254271e+00 3.4213640012e+00 
46400 5.7737121153e+00 3.3936876276e-04 1.9753166741e+00 -3.4213488405e+00 1.9753166741e+00 3.4213488405e+00 
46500 5.7737121982e+00 3.3289037592e-04 1.9753080838e+00 -3.4213339618e+00 1.9753080838e+00 3.4213339618e+00 
46600 5.7737122801e+00 3.2637502598e-04 1.9752996575e+00 -3.4213193670e+00 1.9752996575e+00 3.4213193670e+00 
46700 5.7737123610e+00 3.1983022631e-04 1.9752913961e+00 -3.4213050579e+00 1.9752913961e+00 3.4213050579e+00 
46800 5.7737124410e+00 3.1326347386e-04 1.9752833004e+00 -3.4212910356e+00 1.9752833004e+00 3.4212910356e+00 
46900 5.7737125200e+00 3.0668222861e-04 1.9752753708e+00 -3.4212773012e+00 1.9752753708e+00 3.4212773012e+00 
47000 5.7737125980e+00 3.0009389389e-04 1.9752676078e+00 -3.4212638552e+00 1.9752676078e+00 3.4212638552e+00 
47100 5.7737126750e+00 2.9350579746e-04 1.9752600115e+00 -3.4212506981e+00 1.9752600115e+00 3.4212506981e+00 
47200 5.7737127511e+00 2.8692517350e-04 1.9752525820e+00 -3.4212378297e+00 1.9752525820e+00 3.4212378297e+00 
47300 5.7737128262e+00 2.8035914548e-04 1.9752453190e+00 -3.4212252499e+00 1.9752453190e+00 3.4212252499e+00 
47400 5.7737129004e+00 2.7381470985e-04 1.9752382221e+00 -3.4212129578e+00 1.9752382221e+00 3.4212129578e+00 
47500 5.7737129736e+00 2.6729872067e-04 1.9752312910e+00 -3.4212009527e+00 1.9752312910e+00 3.4212009527e+00 
47600 5.7737130458e+00 2.6081787515e-04 1.9752245247e+00 -3.4211892332e+00 1.9752245247e+00 3.4211892332e+00 
47700 5.7737131170e+00 2.5437870008e-04 1.9752179225e+00 -3.4211777978e+00 1.9752179225e+00 3.4211777978e+00 
47800 5.7737131873e+00 2.4798753913e-04 1.9752114832e+00 -3.4211666446e+00 1.9752114832e+00 3.4211666446e+00 
47900 5.7737132566e+00 2.4165054113e-04 1.9752052057e+00 -3.4211557717e+00 1.9752052057e+00 3.4211557717e+00 
48000 5.7737133250e+00 2.3537364922e-04 1.9751990886e+00 -3.4211451766e+00 1.9751990886e+00 3.4211451766e+00 
48100 5.7737133924e+00 2.2916259089e-04 1.9751931304e+00 -3.4211348566e+00 1.9751931304e+00 3.4211348566e+00 
48200 5.7737134588e+00 2.2302286892e-04 1.9751873294e+00 -3.4211248090e+00 1.9751873294e+00 3.4211248090e+00 
48300 5.7737135243e+00 2.1695975327e-04 1.9751816838e+00 -3.4211150305e+00 1.9751816838e+00 3.4211150305e+00 
48400 5.7737135889e+00 2.1097827374e-04 1.9751761917e+00 -3.4211055178e+00 1.9751761917e+00 3.4211055178e+00 
48500 5.7737136525e+00 2.0508321358e-04 1.9751708509e+00 -3.4210962674e+00 1.9751708509e+00 3.4210962674e+00 
48600 5.7737137152e+00 1.9927910395e-04 1.9751656594e+00 -3.4210872754e+00 1.9751656594e+00 3.4210872754e+00 
48700 5.7737137770e+00 1.9357021915e-04 1.9751606148e+00 -3.4210785379e+00 1.9751606148e+00 3.4210785379e+00 
48800 5.7737138379e+00 1.8796057277e-04 1.9751557147e+00 -3.4210700506e+00 1.9751557147e+00 3.4210700506e+00 
48900 5.7737138979e+00 1.8245391454e-04 1.9751509565e+00 -3.4210618093e+00 1.9751509565e+00 3.4210618093e+00 
49000 5.7737139571e+00 1.7705372806e-04 1.9751463378e+00 -3.4210538095e+00 1.9751463378e+00 3.4210538095e+00 
49100 5.7737140153e+00 1.7176322923e-04 1.9751418558e+00 -3.4210460463e+00 1.9751418558e+00 3.4210460463e+00 
49200 5.7737140727e+00 1.6658536543e-04 1.9751375076e+00 -3.4210385152e+00 1.9751375076e+00 3.4210385152e+00 
49300 5.7737141292e+00 1.6152281543e-04 1.9751332906e+00 -3.4210312110e+00 1.9751332906e+00 3.4210312110e+00 
49400 5.7737141849e+00 1.5657799003e-04 1.9751292017e+00 -3.4210241288e+00 1.9751292017e+00 3.4210241288e+00 
49500 5.7737142398e+00 1.5175303327e-04 1.9751252379e+00 -3.4210172634e+00 1.9751252379e+00 3.4210172634e+00 
49600 5.7737142939e+00 1.4704982438e-04 1.9751213963e+00 -3.4210106096e+00 1.9751213963e+00 3.4210106096e+00 
49700 5.7737143472e+00 1.4246998031e-04 1.9751176738e+00 -3.4210041619e+00 1.9751176738e+00 3.4210041619e+00 
49800 5.7737143997e+00 1.3801485883e-04 1.9751140672e+00 -3.4209979151e+00 1.9751140672e+00 3.4209979151e+00 
49900 5.7737144514e+00 1.3368556224e-04 1.9751105733e+00 -3.4209918636e+00 1.9751105733e+00 3.4209918636e+00 
50000 5.7737145024e+00 1.2948294156e-04 1.9751071891e+00 -3.4209860019e+00 1.9751071891e+00 3.4209860019e+00 
50100 5.7737145526e+00 1.2540760128e-04 1.9751039112e+00 -3.4209803244e+00 1.9751039112e+00 3.4209803244e+00 
50200 5.7737146022e+00 1.2145990451e-04 1.9751007365e+00 -3.4209748257e+00 1.9751007365e+00 3.4209748257e+00 
50300 5.7737146510e+00 1.1763997868e-04 1.9750976617e+00 -3.4209695000e+00 1.9750976617e+00 3.4209695000e+00 
50400 5.7737146991e+00 1.1394772157e-04 1.9750946836e+00 -3.4209643418e+00 1.9750946836e+00 3.4209643418e+00 
50500 5.7737147466e+00 1.1038280778e-04 1.9750917990e+00 -3.4209593455e+00 1.9750917990e+00 3.4209593455e+00 
50600 5.7737147933e+00 1.0694469553e-04 1.9750890046e+00 -3.4209545055e+00 1.9750890046e+00 3.4209545055e+00 
50700 5.7737148395e+00 1.0363263380e-04 1.9750862973e+00 -3.4209498163e+00 1.9750862973e+00 3.4209498163e+00 
50800 5.7737148850e+00 1.0044566980e-04 1.9750836738e+00 -3.4209452722e+00 1.9750836738e+00 3.4209452722e+00 
50900 5.7737149298e+00 9.7382656660e-05 1.9750811310e+00 -3.4209408680e+00 1.9750811310e+00 3.4209408680e+00 
51000 5.7737149741e+00 9.4442261415e-05 1.9750786657e+00 -3.4209365980e+00 1.9750786657e+00 3.4209365980e+00 
51100 5.7737150178e+00 9.1622973178e-05 1.9750762749e+00 -3.4209324569e+00 1.9750762749e+00 3.4209324569e+00 
51200 5.7737150608e+00 8.8923111499e-05 1.9750739554e+00 -3.4209284394e+00 1.9750739554e+00 3.4209284394e+00 
51300 5.7737151033e+00 8.6340834916e-05 1.9750717043e+00 -3.4209245404e+00 1.9750717043e+00 3.4209245404e+00 
51400 5.7737151452e+00 8.3874149607e-05 1.9750695185e+00 -3.4209207545e+00 1.9750695185e+00 3.4209207545e+00 
51500 5.7737151866e+00 8.1520918157e-05 1.9750673952e+00 -3.4209170768e+00 1.9750673952e+00 3.4209170768e+00 
51600 5.7737152274e+00 7.9278868433e-05 1.9750653314e+00 -3.4209135023e+00 1.9750653314e+00 3.4209135023e+00 
51700 5.7737152677e+00 7.7145602492e-05 1.9750633244e+00 -3.4209100261e+00 1.9750633244e+00 3.4209100261e+00 
51800 5.7737153074e+00 7.5118605524e-05 1.9750613714e+00 -3.4209066434e+00 1.9750613714e+00 3.4209066434e+00 
51900 5.7737153467e+00 7.3195254816e-05 1.9750594698e+00 -3.4209033496e+00 1.9750594698e+00 3.4209033496e+00 
52000 5.7737153854e+00 7.1372828703e-05 1.9750576168e+00 -3.4209001401e+00 1.9750576168e+00 3.4209001401e+00 
52100 5.7737154236e+00 6.9648515470e-05 1.9750558099e+00 -3.4208970106e+00 1.9750558099e+00 3.4208970106e+00 
52200 5.7737154615e+00 6.9082910083e-05 1.9750558099e+00 -3.4208970106e+00 1.9750558099e+00 3.4208970106e+00 
52300 5.7737154988e+00 6.8591771512e-05 1.9750558099e+00 -3.4208970106e+00 1.9750558099e+00 3.4208970106e+00 
52400 5.7737155357e+00 6.8173509711e-05 1.9750558099e+00 -3.4208970106e+00 1.9750558099e+00 3.4208970106e+00 
52500 5.7737155721e+00 6.7826424896e-05 1.9750558099e+00 -3.4208970106e+00 1.9750558099e+00 3.4208970106e+00 
52600 5.7737156080e+00 6.7548714694e-05 1.9750558099e+00 -3.4208970106e+00 1.9750558099e+00 3.4208970106e+00 
52700 5.7737156434e+00 6.7338481363e-05 1.9750558099e+00 -3.4208970106e+00 1.9750558099e+00 3.4208970106e+00 
52800 5.7737156784e+00 6.7193739057e-05 1.9750558099e+00 -3.4208970106e+00 1.9750558099e+00 3.4208970106e+00 
52900 5.7737157130e+00 6.7112421104e-05 1.9750558099e+00 -3.4208970106e+00 1.9750558099e+00 3.4208970106e+00 
53000 5.7737157471e+00 6.7092387293e-05 1.9750558099e+00 -3.4208970106e+00 1.9750558099e+00 3.4208970106e+00 
53100 5.7737157807e+00 6.7131431127e-05 1.9750558099e+00 -3.4208970106e+00 1.9750558099e+00 3.4208970106e+00 
53200 5.7737158139e+00 6.7227287029e-05 1.9750558099e+00 -3.4208970106e+00 1.9750558099e+00 3.4208970106e+00 
53300 5.7737158467e+00 6.7377637495e-05 1.9750558099e+00 -3.4208970106e+00 1.9750558099e+00 3.4208970106e+00 
53400 5.7737158791e+00 6.7580120142e-05 1.9750558099e+00 -3.4208970106e+00 1.9750558099e+00 3.4208970106e+00 
53500 5.7737159110e+00 6.7832334674e-05 1.9750558099e+00 -3.4208970106e+00 1.9750558099e+00 3.4208970106e+00 
53600 5.7737159425e+00 6.8131849717e-05 1.9750558099e+00 -3.4208970106e+00 1.9750558099e+00 3.4208970106e+00 
53700 5.7737159736e+00 6.8476209523e-05 1.9750558099e+00 -3.4208970106e+00 1.9750558099e+00 3.4208970106e+00 
53800 5.7737160043e+00 6.8862940525e-05 1.9750558099e+00 -3.4208970106e+00 1.9750558099e+00 3.4208970106e+00 
53900 5.7737160346e+00 6.9289557735e-05 1.9750558099e+00 -3.4208970106e+00 1.9750558099e+00 3.4208970106e+00 
54000 5.7737160645e+00 6.9753570961e-05 1.9750558099e+00 -3.4208970106e+00 1.9750558099e+00 3.4208970106e+00 
54100 5.7737160940e+00 7.0252490845e-05 1.9750558099e+00 -3.4208970106e+00 1.9750558099e+00 3.4208970106e+00 
54200 5.7737161231e+00 7.0783834698e-05 1.9750558099e+00 -3.4208970106e+00 1.9750558099e+00 3.4208970106e+00 
54300 5.7737161517e+00 7.0264321080e-05 1.9750540180e+00 -3.4208939068e+00 1.9750540180e+00 3.4208939068e+00 
54400 5.7737161801e+00 7.0845915037e-05 1.9750540180e+00 -3.4208939068e+00 1.9750540180e+00 3.4208939068e+00 
54500 5.7737162079e+00 7.0370617148e-05 1.9750522244e+00 -3.4208908003e+00 1.9750522244e+00 3.4208908003e+00 
54600 5.7737162355e+00 7.0992356261e-05 1.9750522244e+00 -3.4208908003e+00 1.9750522244e+00 3.4208908003e+00 
54700 5.7737162625e+00 7.0550019433e-05 1.9750504272e+00 -3.4208876875e+00 1.9750504272e+00 3.4208876875e+00 
54800 5.7737162894e+00 7.1202087787e-05 1.9750504272e+00 -3.4208876875e+00 1.9750504272e+00 3.4208876875e+00 
54900 5.7737163157e+00 7.0782107370e-05 1.9750486247e+00 -3.4208845654e+00 1.9750486247e+00 3.4208845654e+00 
55000 5.7737163417e+00 7.0374251135e-05 1.9750468328e+00 -3.4208814617e+00 1.9750468328e+00 3.4208814617e+00 
55100 5.7737163674e+00 7.1050608094e-05 1.9750468328e+00 -3.4208814617e+00 1.9750468328e+00 3.4208814617e+00 
55200 5.7737163927e+00 7.0650384467e-05 1.9750450341e+00 -3.4208783462e+00 1.9750450341e+00 3.4208783462e+00 
55300 5.7737164177e+00 7.1334157878e-05 1.9750450341e+00 -3.4208783462e+00 1.9750450341e+00 3.4208783462e+00 
55400 5.7737164423e+00 7.0932852393e-05 1.9750432282e+00 -3.4208752184e+00 1.9750432282e+00 3.4208752184e+00 
55500 5.7737164665e+00 7.0532702468e-05 1.9750414325e+00 -3.4208721081e+00 1.9750414325e+00 3.4208721081e+00 
55600 5.7737164906e+00 7.1208740847e-05 1.9750414325e+00 -3.4208721081e+00 1.9750414325e+00 3.4208721081e+00 
55700 5.7737165141e+00 7.0795796695e-05 1.9750396297e+00 -3.4208689857e+00 1.9750396297e+00 3.4208689857e+00 
55800 5.7737165374e+00 7.0378622184e-05 1.9750378375e+00 -3.4208658814e+00 1.9750378375e+00 3.4208658814e+00 
55900 5.7737165604e+00 7.1030229148e-05 1.9750378375e+00 -3.4208658814e+00 1.9750378375e+00 3.4208658814e+00 
56000 5.7737165830e+00 7.0590473657e-05 1.9750360393e+00 -3.4208627668e+00 1.9750360393e+00 3.4208627668e+00 
56100 5.7737166054e+00 7.1219983524e-05 1.9750360393e+00 -3.4208627668e+00 1.9750360393e+00 3.4208627668e+00 
56200 5.7737166274e+00 7.0752313382e-05 1.9750342363e+00 -3.4208596439e+00 1.9750342363e+00 3.4208596439e+00 
56300 5.7737166491e+00 7.0273650762e-05 1.9750324451e+00 -3.4208565415e+00 1.9750324451e+00 3.4208565415e+00 
56400 5.7737166706e+00 7.0855946392e-05 1.9750324451e+00 -3.4208565415e+00 1.9750324451e+00 3.4208565415e+00 
56500 5.7737166916e+00 7.0342765766e-05 1.9750306513e+00 -3.4208534346e+00 1.9750306513e+00 3.4208534346e+00 
56600 5.7737167125e+00 7.0889886137e-05 1.9750306513e+00 -3.4208534346e+00 1.9750306513e+00 3.4208534346e+00 
56700 5.7737167331e+00 7.0338938623e-05 1.9750288567e+00 -3.4208503262e+00 1.9750288567e+00 3.4208503262e+00 
56800 5.7737167534e+00 7.0846910570e-05 1.9750288567e+00 -3.4208503262e+00 1.9750288567e+00 3.4208503262e+00 
56900 5.7737167733e+00 7.0255728593e-05 1.9750270631e+00 -3.4208472196e+00 1.9750270631e+00 3.4208472196e+00 
57000 5.7737167931e+00 7.0721245744e-05 1.9750270631e+00 -3.4208472196e+00 1.9750270631e+00 3.4208472196e+00 
57100 5.7737168125e+00 7.0088110374e-05 1.9750252727e+00 -3.4208441186e+00 1.9750252727e+00 3.4208441186e+00 
57200 5.7737168318e+00 7.0508519646e-05 1.9750252727e+00 -3.4208441186e+00 1.9750252727e+00 3.4208441186e+00 
57300 5.7737168508e+00 7.0909119199e-05 1.9750252727e+00 -3.4208441186e+00 1.9750252727e+00 3.4208441186e+00 
57400 5.7737168695e+00 7.0206763682e-05 1.9750234776e+00 -3.4208410093e+00 1.9750234776e+00 3.4208410093e+00 
57500 5.7737168880e+00 7.0559601203e-05 1.9750234776e+00 -3.4208410093e+00 1.9750234776e+00 3.4208410093e+00 
57600 5.7737169062e+00 7.0891637170e-05 1.9750234776e+00 -3.4208410093e+00 1.9750234776e+00 3.4208410093e+00 
57700 5.7737169241e+00 7.0120198077e-05 1.9750216829e+00 -3.4208379008e+00 1.9750216829e+00 3.4208379008e+00 
57800 5.7737169419e+00 7.0403114499e-05 1.9750216829e+00 -3.4208379008e+00 1.9750216829e+00 3.4208379008e+00 
57900 5.7737169594e+00 7.0664849585e-05 1.9750216829e+00 -3.4208379008e+00 1.9750216829e+00 3.4208379008e+00 
58000 5.7737169767e+00 7.0905473519e-05 1.9750216829e+00 -3.4208379008e+00 1.9750216829e+00 3.4208379008e+00 
58100 5.7737169937e+00 7.0042342803e-05 1.9750198878e+00 -3.4208347916e+00 1.9750198878e+00 3.4208347916e+00 
58200 5.7737170105e+00 7.0233956643e-05 1.9750198878e+00 -3.4208347916e+00 1.9750198878e+00 3.4208347916e+00 
58300 5.7737170272e+00 7.0404790445e-05 1.9750198878e+00 -3.4208347916e+00 1.9750198878e+00 3.4208347916e+00 
58400 5.7737170436e+00 7.0555132111e-05 1.9750198878e+00 -3.4208347916e+00 1.9750198878e+00 3.4208347916e+00 
58500 5.7737170598e+00 7.0685314694e-05 1.9750198878e+00 -3.4208347916e+00 1.9750198878e+00 3.4208347916e+00 
58600 5.7737170757e+00 7.0795713635e-05 1.9750198878e+00 -3.4208347916e+00 1.9750198878e+00 3.4208347916e+00 
58700 5.7737170914e+00 6.9805646683e-05 1.9750180955e+00 -3.4208316873e+00 1.9750180955e+00 3.4208316873e+00 
58800 5.7737171070e+00 6.9870555900e-05 1.9750180955e+00 -3.4208316873e+00 1.9750180955e+00 3.4208316873e+00 
58900 5.7737171223e+00 6.9916835687e-05 1.9750180955e+00 -3.4208316873e+00 1.9750180955e+00 3.4208316873e+00 
59000 5.7737171375e+00 6.9945017003e-05 1.9750180955e+00 -3.4208316873e+00 1.9750180955e+00 3.4208316873e+00 
59100 5.7737171525e+00 6.9955660361e-05 1.9750180955e+00 -3.4208316873e+00 1.9750180955e+00 3.4208316873e+00 
59200 5.7737171672e+00 6.9949353108e-05 1.9750180955e+00 -3.4208316873e+00 1.9750180955e+00 3.4208316873e+00 
59300 5.7737171818e+00 6.9926706752e-05 1.9750180955e+00 -3.4208316873e+00 1.9750180955e+00 3.4208316873e+00 
59400 5.7737171962e+00 6.9888354337e-05 1.9750180955e+00 -3.4208316873e+00 1.9750180955e+00 3.4208316873e+00 
59500 5.7737172104e+00 6.9834947874e-05 1.9750180955e+00 -3.4208316873e+00 1.9750180955e+00 3.4208316873e+00 
59600 5.7737172244e+00 6.9767155839e-05 1.9750180955e+00 -3.4208316873e+00 1.9750180955e+00 3.4208316873e+00 
59700 5.7737172382e+00 6.9685660712e-05 1.9750180955e+00 -3.4208316873e+00 1.9750180955e+00 3.4208316873e+00 
59800 5.7737172519e+00 6.9591156613e-05 1.9750180955e+00 -3.4208316873e+00 1.9750180955e+00 3.4208316873e+00 
59900 5.7737172654e+00 6.9484346967e-05 1.9750180955e+00 -3.4208316873e+00 1.9750180955e+00 3.4208316873e+00 
60000 5.7737172787e+00 6.9365942272e-05 1.9750180955e+00 -3.4208316873e+00 1.9750180955e+00 3.4208316873e+00 
60100 5.7737172918e+00 6.9236657923e-05 1.9750180955e+00 -3.4208316873e+00 1.9750180955e+00 3.4208316873e+00 
60200 5.7737173047e+00 6.9097212112e-05 1.9750180955e+00 -3.4208316873e+00 1.9750180955e+00 3.4208316873e+00 
60300 5.7737173175e+00 6.8948323809e-05 1.9750180955e+00 -3.4208316873e+00 1.9750180955e+00 3.4208316873e+00 
60400 5.7737173301e+00 6.8790710822e-05 1.9750180955e+00 -3.4208316873e+00 1.9750180955e+00 3.4208316873e+00 
60500 5.7737173426e+00 6.8625087933e-05 1.9750180955e+00 -3.4208316873e+00 1.9750180955e+00 3.4208316873e+00 
60600 5.7737173549e+00 6.8452165118e-05 1.9750180955e+00 -3.4208316873e+00 1.9750180955e+00 3.4208316873e+00 
60700 5.7737173670e+00 6.8272645849e-05 1.9750180955e+00 -3.4208316873e+00 1.9750180955e+00 3.4208316873e+00 
60800 5.7737173790e+00 6.8087225481e-05 1.9750180955e+00 -3.4208316873e+00 1.9750180955e+00 3.4208316873e+00 
60900 5.7737173908e+00 6.7896589718e-05 1.9750180955e+00 -3.4208316873e+00 1.9750180955e+00 3.4208316873e+00 
61000 5.7737174024e+00 6.7701413172e-05 1.9750180955e+00 -3.4208316873e+00 1.9750180955e+00 3.4208316873e+00 
61100 5.7737174139e+00 6.7502357997e-05 1.9750180955e+00 -3.4208316873e+00 1.9750180955e+00 3.4208316873e+00 
61200 5.7737174253e+00 6.7300072613e-05 1.9750180955e+00 -3.4208316873e+00 1.9750180955e+00 3.4208316873e+00 
61300 5.7737174365e+00 6.7095190523e-05 1.9750180955e+00 -3.4208316873e+00 1.9750180955e+00 3.4208316873e+00 
61400 5.7737174476e+00 6.6888329190e-05 1.9750180955e+00 -3.4208316873e+00 1.9750180955e+00 3.4208316873e+00 
61500 5.7737174585e+00 6.6680089028e-05 1.9750180955e+00 -3.4208316873e+00 1.9750180955e+00 3.4208316873e+00 
61600 5.7737174692e+00 6.6471052451e-05 1.9750180955e+00 -3.4208316873e+00 1.9750180955e+00 3.4208316873e+00 
61700 5.7737174799e+00 6.6261783024e-05 1.9750180955e+00 -3.4208316873e+00 1.9750180955e+00 3.4208316873e+00 
61800 5.7737174904e+00 6.6052824678e-05 1.9750180955e+00 -3.4208316873e+00 1.9750180955e+00 3.4208316873e+00 
61900 5.7737175007e+00 6.5844701019e-05 1.9750180955e+00 -3.4208316873e+00 1.9750180955e+00 3.4208316873e+00 
62000 5.7737175109e+00 6.5637914702e-05 1.9750180955e+00 -3.4208316873e+00 1.9750180955e+00 3.4208316873e+00 
62100 5.7737175210e+00 6.5432946903e-05 1.9750180955e+00 -3.4208316873e+00 1.9750180955e+00 3.4208316873e+00 
62200 5.7737175310e+00 6.5230256840e-05 1.9750180955e+00 -3.4208316873e+00 1.9750180955e+00 3.4208316873e+00 
62300 5.7737175408e+00 6.5030281389e-05 1.9750180955e+00 -3.4208316873e+00 1.9750180955e+00 3.4208316873e+00 
62400 5.7737175505e+00 6.4833434765e-05 1.9750180955e+00 -3.4208316873e+00 1.9750180955e+00 3.4208316873e+00 
62500 5.7737175600e+00 6.4640108276e-05 1.9750180955e+00 -3.4208316873e+00 1.9750180955e+00 3.4208316873e+00 
62600 5.7737175695e+00 6.4450670132e-05 1.9750180955e+00 -3.4208316873e+00 1.9750180955e+00 3.4208316873e+00 
62700 5.7737175788e+00 6.4265465344e-05 1.9750180955e+00 -3.4208316873e+00 1.9750180955e+00 3.4208316873e+00 
62800 5.7737175880e+00 6.4084815662e-05 1.9750180955e+00 -3.4208316873e+00 1.9750180955e+00 3.4208316873e+00 
62900 5.7737175971e+00 6.3909019596e-05 1.9750180955e+00 -3.4208316873e+00 1.9750180955e+00 3.4208316873e+00 
63000 5.7737176060e+00 6.3738352478e-05 1.9750180955e+00 -3.4208316873e+00 1.9750180955e+00 3.4208316873e+00 
63100 5.7737176149e+00 6.3573066597e-05 1.9750180955e+00 -3.4208316873e+00 1.9750180955e+00 3.4208316873e+00 
63200 5.7737176236e+00 6.3413391377e-05 1.9750180955e+00 -3.4208316873e+00 1.9750180955e+00 3.4208316873e+00 
63300 5.7737176322e+00 6.3259533607e-05 1.9750180955e+00 -3.4208316873e+00 1.9750180955e+00 3.4208316873e+00 
63400 5.7737176407e+00 6.3111677735e-05 1.9750180955e+00 -3.4208316873e+00 1.9750180955e+00 3.4208316873e+00 
63500 5.7737176491e+00 6.2969986187e-05 1.9750180955e+00 -3.4208316873e+00 1.9750180955e+00 3.4208316873e+00 
63600 5.7737176574e+00 6.2834599748e-05 1.9750180955e+00 -3.4208316873e+00 1.9750180955e+00 3.4208316873e+00 
63700 5.7737176656e+00 6.2705637978e-05 1.9750180955e+00 -3.4208316873e+00 1.9750180955e+00 3.4208316873e+00 
63800 5.7737176737e+00 6.2583199666e-05 1.9750180955e+00 -3.4208316873e+00 1.9750180955e+00 3.4208316873e+00 
63900 5.7737176816e+00 6.2467363319e-05 1.9750180955e+00 -3.4208316873e+00 1.9750180955e+00 3.4208316873e+00 
64000 5.7737176895e+00 6.2358187695e-05 1.9750180955e+00 -3.4208316873e+00 1.9750180955e+00 3.4208316873e+00 
64100 5.7737176972e+00 6.2255712353e-05 1.9750180955e+00 -3.4208316873e+00 1.9750180955e+00 3.4208316873e+00 
64200 5.7737177049e+00 6.2159958244e-05 1.9750180955e+00 -3.4208316873e+00 1.9750180955e+00 3.4208316873e+00 
64300 5.7737177125e+00 6.2070928321e-05 1.9750180955e+00 -3.4208316873e+00 1.9750180955e+00 3.4208316873e+00 
64400 5.7737177199e+00 6.1988608176e-05 1.9750180955e+00 -3.4208316873e+00 1.9750180955e+00 3.4208316873e+00 
64500 5.7737177273e+00 6.1912966694e-05 1.9750180955e+00 -3.4208316873e+00 1.9750180955e+00 3.4208316873e+00 
64600 5.7737177346e+00 6.1843956734e-05 1.9750180955e+00 -3.4208316873e+00 1.9750180955e+00 3.4208316873e+00 
64700 5.7737177418e+00 6.1781515818e-05 1.9750180955e+00 -3.4208316873e+00 1.9750180955e+00 3.4208316873e+00 
64800 5.7737177489e+00 6.1725566841e-05 1.9750180955e+00 -3.4208316873e+00 1.9750180955e+00 3.4208316873e+00 
64900 5.7737177559e+00 6.1676018781e-05 1.9750180955e+00 -3.4208316873e+00 1.9750180955e+00 3.4208316873e+00 
65000 5.7737177628e+00 6.1632767437e-05 1.9750180955e+00 -3.4208316873e+00 1.9750180955e+00 3.4208316873e+00 
65100 5.7737177696e+00 6.1595696156e-05 1.9750180955e+00 -3.4208316873e+00 1.9750180955e+00 3.4208316873e+00 
65200 5.7737177763e+00 6.1564676578e-05 1.9750180955e+00 -3.4208316873e+00 1.9750180955e+00 3.4208316873e+00 
65300 5.7737177830e+00 6.1539569380e-05 1.9750180955e+00 -3.4208316873e+00 1.9750180955e+00 3.4208316873e+00 
65400 5.7737177896e+00 6.1520225012e-05 1.9750180955e+00 -3.4208316873e+00 1.9750180955e+00 3.4208316873e+00 
65500 5.7737177960e+00 6.1506484451e-05 1.9750180955e+00 -3.4208316873e+00 1.9750180955e+00 3.4208316873e+00 
65600 5.7737178024e+00 6.1498179940e-05 1.9750180955e+00 -3.4208316873e+00 1.9750180955e+00 3.4208316873e+00 
65700 5.7737178088e+00 6.1495135717e-05 1.9750180955e+00 -3.4208316873e+00 1.9750180955e+00 3.4208316873e+00 
65800 5.7737178150e+00 6.1497168751e-05 1.9750180955e+00 -3.4208316873e+00 1.9750180955e+00 3.4208316873e+00 
65900 5.7737178212e+00 6.1504089467e-05 1.9750180955e+00 -3.4208316873e+00 1.9750180955e+00 3.4208316873e+00 
66000 5.7737178272e+00 6.1515702455e-05 1.9750180955e+00 -3.4208316873e+00 1.9750180955e+00 3.4208316873e+00 
66100 5.7737178332e+00 6.1531807174e-05 1.9750180955e+00 -3.4208316873e+00 1.9750180955e+00 3.4208316873e+00 
66200 5.7737178392e+00 6.1552198641e-05 1.9750180955e+00 -3.4208316873e+00 1.9750180955e+00 3.4208316873e+00 
66300 5.7737178450e+00 6.1576668111e-05 1.9750180955e+00 -3.4208316873e+00 1.9750180955e+00 3.4208316873e+00 
66400 5.7737178508e+00 6.1605003738e-05 1.9750180955e+00 -3.4208316873e+00 1.9750180955e+00 3.4208316873e+00 
66500 5.7737178565e+00 6.1636991221e-05 1.9750180955e+00 -3.4208316873e+00 1.9750180955e+00 3.4208316873e+00 
66600 5.7737178621e+00 6.1672414430e-05 1.9750180955e+00 -3.4208316873e+00 1.9750180955e+00 3.4208316873e+00 
66700 5.7737178677e+00 6.1711056027e-05 1.9750180955e+00 -3.4208316873e+00 1.9750180955e+00 3.4208316873e+00 
66800 5.7737178732e+00 6.1752698048e-05 1.9750180955e+00 -3.4208316873e+00 1.9750180955e+00 3.4208316873e+00 
66900 5.7737178786e+00 6.1797122484e-05 1.9750180955e+00 -3.4208316873e+00 1.9750180955e+00 3.4208316873e+00 
67000 5.7737178840e+00 6.1844111831e-05 1.9750180955e+00 -3.4208316873e+00 1.9750180955e+00 3.4208316873e+00 
67100 5.7737178892e+00 6.1893449622e-05 1.9750180955e+00 -3.4208316873e+00 1.9750180955e+00 3.4208316873e+00 
67200 5.7737178945e+00 6.1944920939e-05 1.9750180955e+00 -3.4208316873e+00 1.9750180955e+00 3.4208316873e+00 
67300 5.7737178996e+00 6.1998312898e-05 1.9750180955e+00 -3.4208316873e+00 1.9750180955e+00 3.4208316873e+00 
67400 5.7737179047e+00 6.2053415119e-05 1.9750180955e+00 -3.4208316873e+00 1.9750180955e+00 3.4208316873e+00 
67500 5.7737179097e+00 6.2110020167e-05 1.9750180955e+00 -3.4208316873e+00 1.9750180955e+00 3.4208316873e+00 
67600 5.7737179147e+00 6.2167923969e-05 1.9750180955e+00 -3.4208316873e+00 1.9750180955e+00 3.4208316873e+00 
67700 5.7737179196e+00 6.2226926217e-05 1.9750180955e+00 -3.4208316873e+00 1.9750180955e+00 3.4208316873e+00 
67800 5.7737179244e+00 6.2286830735e-05 1.9750180955e+00 -3.4208316873e+00 1.9750180955e+00 3.4208316873e+00 
67900 5.7737179292e+00 6.2347445827e-05 1.9750180955e+00 -3.4208316873e+00 1.9750180955e+00 3.4208316873e+00 
68000 5.7737179339e+00 6.2408584611e-05 1.9750180955e+00 -3.4208316873e+00 1.9750180955e+00 3.4208316873e+00 
68100 5.7737179385e+00 6.2470065312e-05 1.9750180955e+00 -3.4208316873e+00 1.9750180955e+00 3.4208316873e+00 
68200 5.7737179431e+00 6.2531711545e-05 1.9750180955e+00 -3.4208316873e+00 1.9750180955e+00 3.4208316873e+00 
68300 5.7737179477e+00 6.2593352563e-05 1.9750180955e+00 -3.4208316873e+00 1.9750180955e+00 3.4208316873e+00 
68400 5.7737179521e+00 6.2654823501e-05 1.9750180955e+00 -3.4208316873e+00 1.9750180955e+00 3.4208316873e+00 
68500 5.7737179566e+00 6.2715965574e-05 1.9750180955e+00 -3.4208316873e+00 1.9750180955e+00 3.4208316873e+00 
68600 5.7737179609e+00 6.2776626265e-05 1.9750180955e+00 -3.4208316873e+00 1.9750180955e+00 3.4208316873e+00 
68700 5.7737179652e+00 6.2836659492e-05 1.9750180955e+00 -3.4208316873e+00 1.9750180955e+00 3.4208316873e+00 
68800 5.7737179695e+00 6.2895925746e-05 1.9750180955e+00 -3.4208316873e+00 1.9750180955e+00 3.4208316873e+00 
68900 5.7737179737e+00 6.2954292213e-05 1.9750180955e+00 -3.4208316873e+00 1.9750180955e+00 3.4208316873e+00 
69000 5.7737179778e+00 6.3011632875e-05 1.9750180955e+00 -3.4208316873e+00 1.9750180955e+00 3.4208316873e+00 
69100 5.7737179819e+00 6.3067828583e-05 1.9750180955e+00 -3.4208316873e+00 1.9750180955e+00 3.4208316873e+00 
69200 5.7737179860e+00 6.3122767120e-05 1.9750180955e+00 -3.4208316873e+00 1.9750180955e+00 3.4208316873e+00 
69300 5.7737179900e+00 6.3176343238e-05 1.9750180955e+00 -3.4208316873e+00 1.9750180955e+00 3.4208316873e+00 
69400 5.7737179939e+00 6.3228458681e-05 1.9750180955e+00 -3.4208316873e+00 1.9750180955e+00 3.4208316873e+00 
69500 5.7737179978e+00 6.3279022183e-05 1.9750180955e+00 -3.4208316873e+00 1.9750180955e+00 3.4208316873e+00 
69600 5.7737180017e+00 6.3327949455e-05 1.9750180955e+00 -3.4208316873e+00 1.9750180955e+00 3.4208316873e+00 
69700 5.7737180055e+00 6.3375163155e-05 1.9750180955e+00 -3.4208316873e+00 1.9750180955e+00 3.4208316873e+00 
69800 5.7737180092e+00 6.3420592832e-05 1.9750180955e+00 -3.4208316873e+00 1.9750180955e+00 3.4208316873e+00 
69900 5.7737180129e+00 6.3464174867e-05 1.9750180955e+00 -3.4208316873e+00 1.9750180955e+00 3.4208316873e+00 
70000 5.7737180166e+00 6.3505852395e-05 1.9750180955e+00 -3.4208316873e+00 1.9750180955e+00 3.4208316873e+00 
70100 5.7737180202e+00 6.3545575210e-05 1.9750180955e+00 -3.4208316873e+00 1.9750180955e+00 3.4208316873e+00 
70200 5.7737180237e+00 6.3583299657e-05 1.9750180955e+00 -3.4208316873e+00 1.9750180955e+00 3.4208316873e+00 
70300 5.7737180273e+00 6.3618988516e-05 1.9750180955e+00 -3.4208316873e+00 1.9750180955e+00 3.4208316873e+00 
70400 5.7737180307e+00 6.3652610868e-05 1.9750180955e+00 -3.4208316873e+00 1.9750180955e+00 3.4208316873e+00 
70500 5.7737180342e+00 6.3684141955e-05 1.9750180955e+00 -3.4208316873e+00 1.9750180955e+00 3.4208316873e+00 
70600 5.7737180376e+00 6.3713563029e-05 1.9750180955e+00 -3.4208316873e+00 1.9750180955e+00 3.4208316873e+00 
70700 5.7737180409e+00 6.3740861186e-05 1.9750180955e+00 -3.4208316873e+00 1.9750180955e+00 3.4208316873e+00 
70800 5.7737180442e+00 6.3766029198e-05 1.9750180955e+00 -3.4208316873e+00 1.9750180955e+00 3.4208316873e+00 
70900 5.7737180475e+00 6.3789065334e-05 1.9750180955e+00 -3.4208316873e+00 1.9750180955e+00 3.4208316873e+00 
71000 5.7737180507e+00 6.3809973173e-05 1.9750180955e+00 -3.4208316873e+00 1.9750180955e+00 3.4208316873e+00 
71100 5.7737180539e+00 6.3828761409e-05 1.9750180955e+00 -3.4208316873e+00 1.9750180955e+00 3.4208316873e+00 
71200 5.7737180570e+00 6.3845443657e-05 1.9750180955e+00 -3.4208316873e+00 1.9750180955e+00 3.4208316873e+00 
71300 5.7737180602e+00 6.3860038243e-05 1.9750180955e+00 -3.4208316873e+00 1.9750180955e+00 3.4208316873e+00 
71400 5.7737180632e+00 6.3872568002e-05 1.9750180955e+00 -3.4208316873e+00 1.9750180955e+00 3.4208316873e+00 
71500 5.7737180663e+00 6.3883060056e-05 1.9750180955e+00 -3.4208316873e+00 1.9750180955e+00 3.4208316873e+00 
71600 5.7737180692e+00 6.3891545612e-05 1.9750180955e+00 -3.4208316873e+00 1.9750180955e+00 3.4208316873e+00 
71700 5.7737180722e+00 6.3898059728e-05 1.9750180955e+00 -3.4208316873e+00 1.9750180955e+00 3.4208316873e+00 
71800 5.7737180751e+00 6.3902641105e-05 1.9750180955e+00 -3.4208316873e+00 1.9750180955e+00 3.4208316873e+00 
71900 5.7737180780e+00 6.3905331859e-05 1.9750180955e+00 -3.4208316873e+00 1.9750180955e+00 3.4208316873e+00 
72000 5.7737180808e+00 6.3906177302e-05 1.9750180955e+00 -3.4208316873e+00 1.9750180955e+00 3.4208316873e+00 
72100 5.7737180837e+00 6.3905225721e-05 1.9750180955e+00 -3.4208316873e+00 1.9750180955e+00 3.4208316873e+00 
72200 5.7737180864e+00 6.3902528147e-05 1.9750180955e+00 -3.4208316873e+00 1.9750180955e+00 3.4208316873e+00 
72300 5.7737180892e+00 6.3898138150e-05 1.9750180955e+00 -3.4208316873e+00 1.9750180955e+00 3.4208316873e+00 
72400 5.7737180919e+00 6.3892111607e-05 1.9750180955e+00 -3.4208316873e+00 1.9750180955e+00 3.4208316873e+00 
72500 5.7737180946e+00 6.3884506489e-05 1.9750180955e+00 -3.4208316873e+00 1.9750180955e+00 3.4208316873e+00 
72600 5.7737180972e+00 6.3875382647e-05 1.9750180955e+00 -3.4208316873e+00 1.9750180955e+00 3.4208316873e+00 
72700 5.7737180998e+00 6.3864801597e-05 1.9750180955e+00 -3.4208316873e+00 1.9750180955e+00 3.4208316873e+00 
72800 5.7737181024e+00 6.3852826316e-05 1.9750180955e+00 -3.4208316873e+00 1.9750180955e+00 3.4208316873e+00 
72900 5.7737181049e+00 6.3839521033e-05 1.9750180955e+00 -3.4208316873e+00 1.9750180955e+00 3.4208316873e+00 
73000 5.7737181074e+00 6.3824951033e-05 1.9750180955e+00 -3.4208316873e+00 1.9750180955e+00 3.4208316873e+00 
73100 5.7737181099e+00 6.3809182456e-05 1.9750180955e+00 -3.4208316873e+00 1.9750180955e+00 3.4208316873e+00 
73200 5.7737181124e+00 6.3792282107e-05 1.9750180955e+00 -3.4208316873e+00 1.9750180955e+00 3.4208316873e+00 
73300 5.7737181148e+00 6.3774317271e-05 1.9750180955e+00 -3.4208316873e+00 1.9750180955e+00 3.4208316873e+00 
73400 5.7737181172e+00 6.3755355532e-05 1.9750180955e+00 -3.4208316873e+00 1.9750180955e+00 3.4208316873e+00 
73500 5.7737181196e+00 6.3735464597e-05 1.9750180955e+00 -3.4208316873e+00 1.9750180955e+00 3.4208316873e+00 
73600 5.7737181219e+00 6.3714712127e-05 1.9750180955e+00 -3.4208316873e+00 1.9750180955e+00 3.4208316873e+00 
73700 5.7737181242e+00 6.3693165572e-05 1.9750180955e+00 -3.4208316873e+00 1.9750180955e+00 3.4208316873e+00 
73800 5.7737181265e+00 6.3670892017e-05 1.9750180955e+00 -3.4208316873e+00 1.9750180955e+00 3.4208316873e+00 
73900 5.7737181287e+00 6.3647958028e-05 1.9750180955e+00 -3.4208316873e+00 1.9750180955e+00 3.4208316873e+00 
74000 5.7737181309e+00 6.3624429512e-05 1.9750180955e+00 -3.4208316873e+00 1.9750180955e+00 3.4208316873e+00 
74100 5.7737181331e+00 6.3600371574e-05 1.9750180955e+00 -3.4208316873e+00 1.9750180955e+00 3.4208316873e+00 
74200 5.7737181353e+00 6.3575848397e-05 1.9750180955e+00 -3.4208316873e+00 1.9750180955e+00 3.4208316873e+00 
74300 5.7737181374e+00 6.3550923103e-05 1.9750180955e+00 -3.4208316873e+00 1.9750180955e+00 3.4208316873e+00 
74400 5.7737181395e+00 6.3525657652e-05 1.9750180955e+00 -3.4208316873e+00 1.9750180955e+00 3.4208316873e+00 
74500 5.7737181416e+00 6.3500112722e-05 1.9750180955e+00 -3.4208316873e+00 1.9750180955e+00 3.4208316873e+00 
74600 5.7737181437e+00 6.3474347610e-05 1.9750180955e+00 -3.4208316873e+00 1.9750180955e+00 3.4208316873e+00 
74700 5.7737181457e+00 6.3448420136e-05 1.9750180955e+00 -3.4208316873e+00 1.9750180955e+00 3.4208316873e+00 
74800 5.7737181477e+00 6.3422386556e-05 1.9750180955e+00 -3.4208316873e+00 1.9750180955e+00 3.4208316873e+00 
74900 5.7737181497e+00 6.3396301478e-05 1.9750180955e+00 -3.4208316873e+00 1.9750180955e+00 3.4208316873e+00 
75000 5.7737181517e+00 6.3370217789e-05 1.9750180955e+00 -3.4208316873e+00 1.9750180955e+00 3.4208316873e+00 
75100 5.7737181536e+00 6.3344186586e-05 1.9750180955e+00 -3.4208316873e+00 1.9750180955e+00 3.4208316873e+00 
75200 5.7737181555e+00 6.3318257117e-05 1.9750180955e+00 -3.4208316873e+00 1.9750180955e+00 3.4208316873e+00 
75300 5.7737181574e+00 6.3292476728e-05 1.9750180955e+00 -3.4208316873e+00 1.9750180955e+00 3.4208316873e+00 
75400 5.7737181593e+00 6.3266890805e-05 1.9750180955e+00 -3.4208316873e+00 1.9750180955e+00 3.4208316873e+00 
75500 5.7737181611e+00 6.3241542749e-05 1.9750180955e+00 -3.4208316873e+00 1.9750180955e+00 3.4208316873e+00 
75600 5.7737181630e+00 6.3216473928e-05 1.9750180955e+00 -3.4208316873e+00 1.9750180955e+00 3.4208316873e+00 
75700 5.7737181648e+00 6.3191723658e-05 1.9750180955e+00 -3.4208316873e+00 1.9750180955e+00 3.4208316873e+00 
75800 5.7737181665e+00 6.3167329173e-05 1.9750180955e+00 -3.4208316873e+00 1.9750180955e+00 3.4208316873e+00 
75900 5.7737181683e+00 6.3143325611e-05 1.9750180955e+00 -3.4208316873e+00 1.9750180955e+00 3.4208316873e+00 
76000 5.7737181700e+00 6.3119746004e-05 1.9750180955e+00 -3.4208316873e+00 1.9750180955e+00 3.4208316873e+00 
76100 5.7737181717e+00 6.3096621274e-05 1.9750180955e+00 -3.4208316873e+00 1.9750180955e+00 3.4208316873e+00 
76200 5.7737181734e+00 6.3073980229e-05 1.9750180955e+00 -3.4208316873e+00 1.9750180955e+00 3.4208316873e+00 
76300 5.7737181751e+00 6.3051849571e-05 1.9750180955e+00 -3.4208316873e+00 1.9750180955e+00 3.4208316873e+00 
76400 5.7737181768e+00 6.3030253907e-05 1.9750180955e+00 -3.4208316873e+00 1.9750180955e+00 3.4208316873e+00 
76500 5.7737181784e+00 6.3009215761e-05 1.9750180955e+00 -3.4208316873e+00 1.9750180955e+00 3.4208316873e+00 
76600 5.7737181800e+00 6.2988755597e-05 1.9750180955e+00 -3.4208316873e+00 1.9750180955e+00 3.4208316873e+00 
76700 5.7737181816e+00 6.2968891840e-05 1.9750180955e+00 -3.4208316873e+00 1.9750180955e+00 3.4208316873e+00 
76800 5.7737181832e+00 6.2949640906e-05 1.9750180955e+00 -3.4208316873e+00 1.9750180955e+00 3.4208316873e+00 
76900 5.7737181847e+00 6.2931017233e-05 1.9750180955e+00 -3.4208316873e+00 1.9750180955e+00 3.4208316873e+00 
77000 5.7737181863e+00 6.2913033317e-05 1.9750180955e+00 -3.4208316873e+00 1.9750180955e+00 3.4208316873e+00 
77100 5.7737181878e+00 6.2895699753e-05 1.9750180955e+00 -3.4208316873e+00 1.9750180955e+00 3.4208316873e+00 
77200 5.7737181893e+00 6.2879025273e-05 1.9750180955e+00 -3.4208316873e+00 1.9750180955e+00 3.4208316873e+00 
77300 5.7737181908e+00 6.2863016797e-05 1.9750180955e+00 -3.4208316873e+00 1.9750180955e+00 3.4208316873e+00 
77400 5.7737181922e+00 6.2847679475e-05 1.9750180955e+00 -3.4208316873e+00 1.9750180955e+00 3.4208316873e+00 
77500 5.7737181937e+00 6.2833016747e-05 1.9750180955e+00 -3.4208316873e+00 1.9750180955e+00 3.4208316873e+00 
77600 5.7737181951e+00 6.2819030386e-05 1.9750180955e+00 -3.4208316873e+00 1.9750180955e+00 3.4208316873e+00 
77700 5.7737181965e+00 6.2805720561e-05 1.9750180955e+00 -3.4208316873e+00 1.9750180955e+00 3.4208316873e+00 
77800 5.7737181979e+00 6.2793085890e-05 1.9750180955e+00 -3.4208316873e+00 1.9750180955e+00 3.4208316873e+00 
77900 5.7737181993e+00 6.2781123504e-05 1.9750180955e+00 -3.4208316873e+00 1.9750180955e+00 3.4208316873e+00 
78000 5.7737182006e+00 6.2769829103e-05 1.9750180955e+00 -3.4208316873e+00 1.9750180955e+00 3.4208316873e+00 
78100 5.7737182020e+00 6.2759197019e-05 1.9750180955e+00 -3.4208316873e+00 1.9750180955e+00 3.4208316873e+00 
78200 5.7737182033e+00 6.2749220281e-05 1.9750180955e+00 -3.4208316873e+00 1.9750180955e+00 3.4208316873e+00 
78300 5.7737182046e+00 6.2739890677e-05 1.9750180955e+00 -3.4208316873e+00 1.9750180955e+00 3.4208316873e+00 
78400 5.7737182059e+00 6.2731198822e-05 1.9750180955e+00 -3.4208316873e+00 1.9750180955e+00 3.4208316873e+00 
78500 5.7737182072e+00 6.2723134220e-05 1.9750180955e+00 -3.4208316873e+00 1.9750180955e+00 3.4208316873e+00 
78600 5.7737182084e+00 6.2715685329e-05 1.9750180955e+00 -3.4208316873e+00 1.9750180955e+00 3.4208316873e+00 
78700 5.7737182097e+00 6.2708839635e-05 1.9750180955e+00 -3.4208316873e+00 1.9750180955e+00 3.4208316873e+00 
78800 5.7737182109e+00 6.2702583704e-05 1.9750180955e+00 -3.4208316873e+00 1.9750180955e+00 3.4208316873e+00 
78900 5.7737182121e+00 6.2696903261e-05 1.9750180955e+00 -3.4208316873e+00 1.9750180955e+00 3.4208316873e+00 
79000 5.7737182133e+00 6.2691783251e-05 1.9750180955e+00 -3.4208316873e+00 1.9750180955e+00 3.4208316873e+00 
79100 5.7737182145e+00 6.2687207899e-05 1.9750180955e+00 -3.4208316873e+00 1.9750180955e+00 3.4208316873e+00 
79200 5.7737182157e+00 6.2683160782e-05 1.9750180955e+00 -3.4208316873e+00 1.9750180955e+00 3.4208316873e+00 
79300 5.7737182168e+00 6.2679624889e-05 1.9750180955e+00 -3.4208316873e+00 1.9750180955e+00 3.4208316873e+00 
79400 5.7737182180e+00 6.2676582685e-05 1.9750180955e+00 -3.4208316873e+00 1.9750180955e+00 3.4208316873e+00 
79500 5.7737182191e+00 6.2674016170e-05 1.9750180955e+00 -3.4208316873e+00 1.9750180955e+00 3.4208316873e+00 
79600 5.7737182202e+00 6.2671906945e-05 1.9750180955e+00 -3.4208316873e+00 1.9750180955e+00 3.4208316873e+00 
79700 5.7737182213e+00 6.2670236268e-05 1.9750180955e+00 -3.4208316873e+00 1.9750180955e+00 3.4208316873e+00 
79800 5.7737182224e+00 6.2668985111e-05 1.9750180955e+00 -3.4208316873e+00 1.9750180955e+00 3.4208316873e+00 
79900 5.7737182235e+00 6.2668134222e-05 1.9750180955e+00 -3.4208316873e+00 1.9750180955e+00 3.4208316873e+00 
80000 5.7737182246e+00 6.2667664173e-05 1.9750180955e+00 -3.4208316873e+00 1.9750180955e+00 3.4208316873e+00 
80100 5.7737182256e+00 6.2667555423e-05 1.9750180955e+00 -3.4208316873e+00 1.9750180955e+00 3.4208316873e+00 
80200 5.7737182267e+00 6.2667788363e-05 1.9750180955e+00 -3.4208316873e+00 1.9750180955e+00 3.4208316873e+00 
80300 5.7737182277e+00 6.2668343365e-05 1.9750180955e+00 -3.4208316873e+00 1.9750180955e+00 3.4208316873e+00 
80400 5.7737182287e+00 6.2669200837e-05 1.9750180955e+00 -3.4208316873e+00 1.9750180955e+00 3.4208316873e+00 
80500 5.7737182297e+00 6.2670341268e-05 1.9750180955e+00 -3.4208316873e+00 1.9750180955e+00 3.4208316873e+00 
80600 5.7737182307e+00 6.2671745268e-05 1.9750180955e+00 -3.4208316873e+00 1.9750180955e+00 3.4208316873e+00 
80700 5.7737182317e+00 6.2673393617e-05 1.9750180955e+00 -3.4208316873e+00 1.9750180955e+00 3.4208316873e+00 
80800 5.7737182326e+00 6.2675267301e-05 1.9750180955e+00 -3.4208316873e+00 1.9750180955e+00 3.4208316873e+00 
80900 5.7737182336e+00 6.2677347554e-05 1.9750180955e+00 -3.4208316873e+00 1.9750180955e+00 3.4208316873e+00 
81000 5.7737182345e+00 6.2679615895e-05 1.9750180955e+00 -3.4208316873e+00 1.9750180955e+00 3.4208316873e+00 
81100 5.7737182355e+00 6.2682054159e-05 1.9750180955e+00 -3.4208316873e+00 1.9750180955e+00 3.4208316873e+00 
81200 5.7737182364e+00 6.2684644533e-05 1.9750180955e+00 -3.4208316873e+00 1.9750180955e+00 3.4208316873e+00 
81300 5.7737182373e+00 6.2687369589e-05 1.9750180955e+00 -3.4208316873e+00 1.9750180955e+00 3.4208316873e+00 
81400 5.7737182382e+00 6.2690212307e-05 1.9750180955e+00 -3.4208316873e+00 1.9750180955e+00 3.4208316873e+00 
81500 5.7737182391e+00 6.2693156103e-05 1.9750180955e+00 -3.4208316873e+00 1.9750180955e+00 3.4208316873e+00 
81600 5.7737182400e+00 6.2696184857e-05 1.9750180955e+00 -3.4208316873e+00 1.9750180955e+00 3.4208316873e+00 
81700 5.7737182408e+00 6.2699282934e-05 1.9750180955e+00 -3.4208316873e+00 1.9750180955e+00 3.4208316873e+00 
81800 5.7737182417e+00 6.2702435199e-05 1.9750180955e+00 -3.4208316873e+00 1.9750180955e+00 3.4208316873e+00 
81900 5.7737182425e+00 6.2705627045e-05 1.9750180955e+00 -3.4208316873e+00 1.9750180955e+00 3.4208316873e+00 
82000 5.7737182434e+00 6.2708844400e-05 1.9750180955e+00 -3.4208316873e+00 1.9750180955e+00 3.4208316873e+00 
82100 5.7737182442e+00 6.2712073750e-05 1.9750180955e+00 -3.4208316873e+00 1.9750180955e+00 3.4208316873e+00 
82200 5.7737182450e+00 6.2715302144e-05 1.9750180955e+00 -3.4208316873e+00 1.9750180955e+00 3.4208316873e+00 
82300 5.7737182458e+00 6.2718517212e-05 1.9750180955e+00 -3.4208316873e+00 1.9750180955e+00 3.4208316873e+00 
82400 5.7737182466e+00 6.2721707166e-05 1.9750180955e+00 -3.4208316873e+00 1.9750180955e+00 3.4208316873e+00 
82500 5.7737182474e+00 6.2724860812e-05 1.9750180955e+00 -3.4208316873e+00 1.9750180955e+00 3.4208316873e+00 
82600 5.7737182482e+00 6.2727967556e-05 1.9750180955e+00 -3.4208316873e+00 1.9750180955e+00 3.4208316873e+00 
82700 5.7737182490e+00 6.2731017406e-05 1.9750180955e+00 -3.4208316873e+00 1.9750180955e+00 3.4208316873e+00 
82800 5.7737182497e+00 6.2734000973e-05 1.9750180955e+00 -3.4208316873e+00 1.9750180955e+00 3.4208316873e+00 
82900 5.7737182505e+00 6.2736909475e-05 1.9750180955e+00 -3.4208316873e+00 1.9750180955e+00 3.4208316873e+00 
83000 5.7737182512e+00 6.2739734731e-05 1.9750180955e+00 -3.4208316873e+00 1.9750180955e+00 3.4208316873e+00 
83100 5.7737182520e+00 6.2742469162e-05 1.9750180955e+00 -3.4208316873e+00 1.9750180955e+00 3.4208316873e+00 
83200 5.7737182527e+00 6.2745105787e-05 1.9750180955e+00 -3.4208316873e+00 1.9750180955e+00 3.4208316873e+00 
83300 5.7737182534e+00 6.2747638218e-05 1.9750180955e+00 -3.4208316873e+00 1.9750180955e+00 3.4208316873e+00 
83400 5.7737182541e+00 6.2750060649e-05 1.9750180955e+00 -3.4208316873e+00 1.9750180955e+00 3.4208316873e+00 
83500 5.7737182548e+00 6.2752367854e-05 1.9750180955e+00 -3.4208316873e+00 1.9750180955e+00 3.4208316873e+00 
83600 5.7737182555e+00 6.2754555175e-05 1.9750180955e+00 -3.4208316873e+00 1.9750180955e+00 3.4208316873e+00 
83700 5.7737182562e+00 6.2756618512e-05 1.9750180955e+00 -3.4208316873e+00 1.9750180955e+00 3.4208316873e+00 
83800 5.7737182568e+00 6.2758554315e-05 1.9750180955e+00 -3.4208316873e+00 1.9750180955e+00 3.4208316873e+00 
83900 5.7737182575e+00 6.2760359566e-05 1.9750180955e+00 -3.4208316873e+00 1.9750180955e+00 3.4208316873e+00 
84000 5.7737182582e+00 6.2762031772e-05 1.9750180955e+00 -3.4208316873e+00 1.9750180955e+00 3.4208316873e+00 
84100 5.7737182588e+00 6.2763568949e-05 1.9750180955e+00 -3.4208316873e+00 1.9750180955e+00 3.4208316873e+00 
84200 5.7737182595e+00 6.2764969604e-05 1.9750180955e+00 -3.4208316873e+00 1.9750180955e+00 3.4208316873e+00 
84300 5.7737182601e+00 6.2766232728e-05 1.9750180955e+00 -3.4208316873e+00 1.9750180955e+00 3.4208316873e+00 
84400 5.7737182607e+00 6.2767357773e-05 1.9750180955e+00 -3.4208316873e+00 1.9750180955e+00 3.4208316873e+00 
84500 5.7737182613e+00 6.2768344635e-05 1.9750180955e+00 -3.4208316873e+00 1.9750180955e+00 3.4208316873e+00 
84600 5.7737182620e+00 6.2769193644e-05 1.9750180955e+00 -3.4208316873e+00 1.9750180955e+00 3.4208316873e+00 
84700 5.7737182626e+00 6.2769905541e-05 1.9750180955e+00 -3.4208316873e+00 1.9750180955e+00 3.4208316873e+00 
84800 5.7737182632e+00 6.2770481461e-05 1.9750180955e+00 -3.4208316873e+00 1.9750180955e+00 3.4208316873e+00 
84900 5.7737182637e+00 6.2770922918e-05 1.9750180955e+00 -3.4208316873e+00 1.9750180955e+00 3.4208316873e+00 
85000 5.7737182643e+00 6.2771231779e-05 1.9750180955e+00 -3.4208316873e+00 1.9750180955e+00 3.4208316873e+00 
85100 5.7737182649e+00 6.2771410254e-05 1.9750180955e+00 -3.4208316873e+00 1.9750180955e+00 3.4208316873e+00 
85200 5.7737182655e+00 6.2771460873e-05 1.9750180955e+00 -3.4208316873e+00 1.9750180955e+00 3.4208316873e+00 
85300 5.7737182660e+00 6.2771386469e-05 1.9750180955e+00 -3.4208316873e+00 1.9750180955e+00 3.4208316873e+00 
85400 5.7737182666e+00 6.2771190155e-05 1.9750180955e+00 -3.4208316873e+00 1.9750180955e+00 3.4208316873e+00 
85500 5.7737182671e+00 6.2770875310e-05 1.9750180955e+00 -3.4208316873e+00 1.9750180955e+00 3.4208316873e+00 
85600 5.7737182677e+00 6.2770445555e-05 1.9750180955e+00 -3.4208316873e+00 1.9750180955e+00 3.4208316873e+00 
85700 5.7737182682e+00 6.2769904739e-05 1.9750180955e+00 -3.4208316873e+00 1.9750180955e+00 3.4208316873e+00 
85800 5.7737182688e+00 6.2769256920e-05 1.9750180955e+00 -3.4208316873e+00 1.9750180955e+00 3.4208316873e+00 
85900 5.7737182693e+00 6.2768506340e-05 1.9750180955e+00 -3.4208316873e+00 1.9750180955e+00 3.4208316873e+00 
86000 5.7737182698e+00 6.2767657415e-05 1.9750180955e+00 -3.4208316873e+00 1.9750180955e+00 3.4208316873e+00 
86100 5.7737182703e+00 6.2766714710e-05 1.9750180955e+00 -3.4208316873e+00 1.9750180955e+00 3.4208316873e+00 
86200 5.7737182708e+00 6.2765682924e-05 1.9750180955e+00 -3.4208316873e+00 1.9750180955e+00 3.4208316873e+00 
86300 5.7737182713e+00 6.2764566878e-05 1.9750180955e+00 -3.4208316873e+00 1.9750180955e+00 3.4208316873e+00 
86400 5.7737182718e+00 6.2763371486e-05 1.9750180955e+00 -3.4208316873e+00 1.9750180955e+00 3.4208316873e+00 
86500 5.7737182723e+00 6.2762101748e-05 1.9750180955e+00 -3.4208316873e+00 1.9750180955e+00 3.4208316873e+00 
86600 5.7737182728e+00 6.2760762729e-05 1.9750180955e+00 -3.4208316873e+00 1.9750180955e+00 3.4208316873e+00 
86700 5.7737182733e+00 6.2759359546e-05 1.9750180955e+00 -3.4208316873e+00 1.9750180955e+00 3.4208316873e+00 
86800 5.7737182737e+00 6.2757897350e-05 1.9750180955e+00 -3.4208316873e+00 1.9750180955e+00 3.4208316873e+00 
86900 5.7737182742e+00 6.2756381309e-05 1.9750180955e+00 -3.4208316873e+00 1.9750180955e+00 3.4208316873e+00 
87000 5.7737182747e+00 6.2754816602e-05 1.9750180955e+00 -3.4208316873e+00 1.9750180955e+00 3.4208316873e+00 
87100 5.7737182751e+00 6.2753208395e-05 1.9750180955e+00 -3.4208316873e+00 1.9750180955e+00 3.4208316873e+00 
87200 5.7737182756e+00 6.2751561833e-05 1.9750180955e+00 -3.4208316873e+00 1.9750180955e+00 3.4208316873e+00 
87300 5.7737182760e+00 6.2749882026e-05 1.9750180955e+00 -3.4208316873e+00 1.9750180955e+00 3.4208316873e+00 
87400 5.7737182764e+00 6.2748174037e-05 1.9750180955e+00 -3.4208316873e+00 1.9750180955e+00 3.4208316873e+00 
87500 5.7737182769e+00 6.2746442870e-05 1.9750180955e+00 -3.4208316873e+00 1.9750180955e+00 3.4208316873e+00 
87600 5.7737182773e+00 6.2744693456e-05 1.9750180955e+00 -3.4208316873e+00 1.9750180955e+00 3.4208316873e+00 
87700 5.7737182777e+00 6.2742930650e-05 1.9750180955e+00 -3.4208316873e+00 1.9750180955e+00 3.4208316873e+00 
87800 5.7737182782e+00 6.2741159211e-05 1.9750180955e+00 -3.4208316873e+00 1.9750180955e+00 3.4208316873e+00 
87900 5.7737182786e+00 6.2739383802e-05 1.9750180955e+00 -3.4208316873e+00 1.9750180955e+00 3.4208316873e+00 
88000 5.7737182790e+00 6.2737608973e-05 1.9750180955e+00 -3.4208316873e+00 1.9750180955e+00 3.4208316873e+00 
88100 5.7737182794e+00 6.2735839159e-05 1.9750180955e+00 -3.4208316873e+00 1.9750180955e+00 3.4208316873e+00 
88200 5.7737182798e+00 6.2734078670e-05 1.9750180955e+00 -3.4208316873e+00 1.9750180955e+00 3.4208316873e+00 
88300 5.7737182802e+00 6.2732331683e-05 1.9750180955e+00 -3.4208316873e+00 1.9750180955e+00 3.4208316873e+00 
88400 5.7737182806e+00 6.2730602239e-05 1.9750180955e+00 -3.4208316873e+00 1.9750180955e+00 3.4208316873e+00 
88500 5.7737182809e+00 6.2728894230e-05 1.9750180955e+00 -3.4208316873e+00 1.9750180955e+00 3.4208316873e+00 
88600 5.7737182813e+00 6.2727211403e-05 1.9750180955e+00 -3.4208316873e+00 1.9750180955e+00 3.4208316873e+00 
88700 5.7737182817e+00 6.2725557349e-05 1.9750180955e+00 -3.4208316873e+00 1.9750180955e+00 3.4208316873e+00 
88800 5.7737182821e+00 6.2723935501e-05 1.9750180955e+00 -3.4208316873e+00 1.9750180955e+00 3.4208316873e+00 
88900 5.7737182824e+00 6.2722349129e-05 1.9750180955e+00 -3.4208316873e+00 1.9750180955e+00 3.4208316873e+00 
89000 5.7737182828e+00 6.2720801338e-05 1.9750180955e+00 -3.4208316873e+00 1.9750180955e+00 3.4208316873e+00 
89100 5.7737182832e+00 6.2719295069e-05 1.9750180955e+00 -3.4208316873e+00 1.9750180955e+00 3.4208316873e+00 
89200 5.7737182835e+00 6.2717833091e-05 1.9750180955e+00 -3.4208316873e+00 1.9750180955e+00 3.4208316873e+00 
89300 5.7737182839e+00 6.2716418001e-05 1.9750180955e+00 -3.4208316873e+00 1.9750180955e+00 3.4208316873e+00 
89400 5.7737182842e+00 6.2715052226e-05 1.9750180955e+00 -3.4208316873e+00 1.9750180955e+00 3.4208316873e+00 
89500 5.7737182846e+00 6.2713738020e-05 1.9750180955e+00 -3.4208316873e+00 1.9750180955e+00 3.4208316873e+00 
89600 5.7737182849e+00 6.2712477465e-05 1.9750180955e+00 -3.4208316873e+00 1.9750180955e+00 3.4208316873e+00 
89700 5.7737182852e+00 6.2711272470e-05 1.9750180955e+00 -3.4208316873e+00 1.9750180955e+00 3.4208316873e+00 
89800 5.7737182856e+00 6.2710124774e-05 1.9750180955e+00 -3.4208316873e+00 1.9750180955e+00 3.4208316873e+00 
89900 5.7737182859e+00 6.2709035946e-05 1.9750180955e+00 -3.4208316873e+00 1.9750180955e+00 3.4208316873e+00 
90000 5.7737182862e+00 6.2708007385e-05 1.9750180955e+00 -3.4208316873e+00 1.9750180955e+00 3.4208316873e+00 
90100 5.7737182865e+00 6.2707040324e-05 1.9750180955e+00 -3.4208316873e+00 1.9750180955e+00 3.4208316873e+00 
90200 5.7737182868e+00 6.2706135832e-05 1.9750180955e+00 -3.4208316873e+00 1.9750180955e+00 3.4208316873e+00 
90300 5.7737182872e+00 6.2705294820e-05 1.9750180955e+00 -3.4208316873e+00 1.9750180955e+00 3.4208316873e+00 
90400 5.7737182875e+00 6.2704518034e-05 1.9750180955e+00 -3.4208316873e+00 1.9750180955e+00 3.4208316873e+00 
90500 5.7737182878e+00 6.2703806070e-05 1.9750180955e+00 -3.4208316873e+00 1.9750180955e+00 3.4208316873e+00 
90600 5.7737182881e+00 6.2703159369e-05 1.9750180955e+00 -3.4208316873e+00 1.9750180955e+00 3.4208316873e+00 
90700 5.7737182884e+00 6.2702578226e-05 1.9750180955e+00 -3.4208316873e+00 1.9750180955e+00 3.4208316873e+00 
90800 5.7737182887e+00 6.2702062792e-05 1.9750180955e+00 -3.4208316873e+00 1.9750180955e+00 3.4208316873e+00 
90900 5.7737182890e+00 6.2701613079e-05 1.9750180955e+00 -3.4208316873e+00 1.9750180955e+00 3.4208316873e+00 
91000 5.7737182892e+00 6.2701228960e-05 1.9750180955e+00 -3.4208316873e+00 1.9750180955e+00 3.4208316873e+00 
91100 5.7737182895e+00 6.2700910186e-05 1.9750180955e+00 -3.4208316873e+00 1.9750180955e+00 3.4208316873e+00 
91200 5.7737182898e+00 6.2700656373e-05 1.9750180955e+00 -3.4208316873e+00 1.9750180955e+00 3.4208316873e+00 
91300 5.7737182901e+00 6.2700467019e-05 1.9750180955e+00 -3.4208316873e+00 1.9750180955e+00 3.4208316873e+00 
91400 5.7737182904e+00 6.2700341512e-05 1.9750180955e+00 -3.4208316873e+00 1.9750180955e+00 3.4208316873e+00 
91500 5.7737182906e+00 6.2700279123e-05 1.9750180955e+00 -3.4208316873e+00 1.9750180955e+00 3.4208316873e+00 
91600 5.7737182909e+00 6.2700279020e-05 1.9750180955e+00 -3.4208316873e+00 1.9750180955e+00 3.4208316873e+00 
91700 5.7737182912e+00 6.2700340271e-05 1.9750180955e+00 -3.4208316873e+00 1.9750180955e+00 3.4208316873e+00 
91800 5.7737182914e+00 6.2700461852e-05 1.9750180955e+00 -3.4208316873e+00 1.9750180955e+00 3.4208316873e+00 
91900 5.7737182917e+00 6.2700642649e-05 1.9750180955e+00 -3.4208316873e+00 1.9750180955e+00 3.4208316873e+00 
92000 5.7737182919e+00 6.2700881463e-05 1.9750180955e+00 -3.4208316873e+00 1.9750180955e+00 3.4208316873e+00 
92100 5.7737182922e+00 6.2701177019e-05 1.9750180955e+00 -3.4208316873e+00 1.9750180955e+00 3.4208316873e+00 
92200 5.7737182924e+00 6.2701527967e-05 1.9750180955e+00 -3.4208316873e+00 1.9750180955e+00 3.4208316873e+00 
92300 5.7737182927e+00 6.2701932897e-05 1.9750180955e+00 -3.4208316873e+00 1.9750180955e+00 3.4208316873e+00 
92400 5.7737182929e+00 6.2702390330e-05 1.9750180955e+00 -3.4208316873e+00 1.9750180955e+00 3.4208316873e+00 
92500 5.7737182932e+00 6.2702898735e-05 1.9750180955e+00 -3.4208316873e+00 1.9750180955e+00 3.4208316873e+00 
92600 5.7737182934e+00 6.2703456533e-05 1.9750180955e+00 -3.4208316873e+00 1.9750180955e+00 3.4208316873e+00 
92700 5.7737182936e+00 6.2704062095e-05 1.9750180955e+00 -3.4208316873e+00 1.9750180955e+00 3.4208316873e+00 
92800 5.7737182939e+00 6.2704713754e-05 1.9750180955e+00 -3.4208316873e+00 1.9750180955e+00 3.4208316873e+00 
92900 5.7737182941e+00 6.2705409812e-05 1.9750180955e+00 -3.4208316873e+00 1.9750180955e+00 3.4208316873e+00 
93000 5.7737182943e+00 6.2706148535e-05 1.9750180955e+00 -3.4208316873e+00 1.9750180955e+00 3.4208316873e+00 
93100 5.7737182945e+00 6.2706928169e-05 1.9750180955e+00 -3.4208316873e+00 1.9750180955e+00 3.4208316873e+00 
93200 5.7737182948e+00 6.2707746941e-05 1.9750180955e+00 -3.4208316873e+00 1.9750180955e+00 3.4208316873e+00 
93300 5.7737182950e+00 6.2708603061e-05 1.9750180955e+00 -3.4208316873e+00 1.9750180955e+00 3.4208316873e+00 
93400 5.7737182952e+00 6.2709494728e-05 1.9750180955e+00 -3.4208316873e+00 1.9750180955e+00 3.4208316873e+00 
93500 5.7737182954e+00 6.2710420136e-05 1.9750180955e+00 -3.4208316873e+00 1.9750180955e+00 3.4208316873e+00 
93600 5.7737182956e+00 6.2711377480e-05 1.9750180955e+00 -3.4208316873e+00 1.9750180955e+00 3.4208316873e+00 
93700 5.7737182958e+00 6.2712364955e-05 1.9750180955e+00 -3.4208316873e+00 1.9750180955e+00 3.4208316873e+00 
93800 5.7737182960e+00 6.2713380763e-05 1.9750180955e+00 -3.4208316873e+00 1.9750180955e+00 3.4208316873e+00 
93900 5.7737182963e+00 6.2714423115e-05 1.9750180955e+00 -3.4208316873e+00 1.9750180955e+00 3.4208316873e+00 
94000 5.7737182965e+00 6.2715490241e-05 1.9750180955e+00 -3.4208316873e+00 1.9750180955e+00 3.4208316873e+00 
94100 5.7737182967e+00 6.2716580388e-05 1.9750180955e+00 -3.4208316873e+00 1.9750180955e+00 3.4208316873e+00 
94200 5.7737182969e+00 6.2717691817e-05 1.9750180955e+00 -3.4208316873e+00 1.9750180955e+00 3.4208316873e+00 
94300 5.7737182970e+00 6.2718822824e-05 1.9750180955e+00 -3.4208316873e+00 1.9750180955e+00 3.4208316873e+00 
94400 5.7737182972e+00 6.2719971725e-05 1.9750180955e+00 -3.4208316873e+00 1.9750180955e+00 3.4208316873e+00 
94500 5.7737182974e+00 6.2721136871e-05 1.9750180955e+00 -3.4208316873e+00 1.9750180955e+00 3.4208316873e+00 
94600 5.7737182976e+00 6.2722316641e-05 1.9750180955e+00 -3.4208316873e+00 1.9750180955e+00 3.4208316873e+00 
94700 5.7737182978e+00 6.2723509456e-05 1.9750180955e+00 -3.4208316873e+00 1.9750180955e+00 3.4208316873e+00 
94800 5.7737182980e+00 6.2724713770e-05 1.9750180955e+00 -3.4208316873e+00 1.9750180955e+00 3.4208316873e+00 
94900 5.7737182982e+00 6.2725928079e-05 1.9750180955e+00 -3.4208316873e+00 1.9750180955e+00 3.4208316873e+00 
95000 5.7737182983e+00 6.2727150921e-05 1.9750180955e+00 -3.4208316873e+00 1.9750180955e+00 3.4208316873e+00 
95100 5.7737182985e+00 6.2728380878e-05 1.9750180955e+00 -3.4208316873e+00 1.9750180955e+00 3.4208316873e+00 
95200 5.7737182987e+00 6.2729616578e-05 1.9750180955e+00 -3.4208316873e+00 1.9750180955e+00 3.4208316873e+00 
95300 5.7737182989e+00 6.2730856695e-05 1.9750180955e+00 -3.4208316873e+00 1.9750180955e+00 3.4208316873e+00 
95400 5.7737182990e+00 6.2732099952e-05 1.9750180955e+00 -3.4208316873e+00 1.9750180955e+00 3.4208316873e+00 
95500 5.7737182992e+00 6.2733345121e-05 1.9750180955e+00 -3.4208316873e+00 1.9750180955e+00 3.4208316873e+00 
95600 5.7737182994e+00 6.2734591025e-05 1.9750180955e+00 -3.4208316873e+00 1.9750180955e+00 3.4208316873e+00 
95700 5.7737182996e+00 6.2735836539e-05 1.9750180955e+00 -3.4208316873e+00 1.9750180955e+00 3.4208316873e+00 
95800 5.7737182997e+00 6.2737080590e-05 1.9750180955e+00 -3.4208316873e+00 1.9750180955e+00 3.4208316873e+00 
95900 5.7737182999e+00 6.2738322154e-05 1.9750180955e+00 -3.4208316873e+00 1.9750180955e+00 3.4208316873e+00 
96000 5.7737183000e+00 6.2739560266e-05 1.9750180955e+00 -3.4208316873e+00 1.9750180955e+00 3.4208316873e+00 
96100 5.7737183002e+00 6.2740794008e-05 1.9750180955e+00 -3.4208316873e+00 1.9750180955e+00 3.4208316873e+00 
96200 5.7737183004e+00 6.2742022520e-05 1.9750180955e+00 -3.4208316873e+00 1.9750180955e+00 3.4208316873e+00 
96300 5.7737183005e+00 6.2743244993e-05 1.9750180955e+00 -3.4208316873e+00 1.9750180955e+00 3.4208316873e+00 
96400 5.7737183007e+00 6.2744460670e-05 1.9750180955e+00 -3.4208316873e+00 1.9750180955e+00 3.4208316873e+00 
96500 5.7737183008e+00 6.2745668850e-05 1.9750180955e+00 -3.4208316873e+00 1.9750180955e+00 3.4208316873e+00 
96600 5.7737183010e+00 6.2746868881e-05 1.9750180955e+00 -3.4208316873e+00 1.9750180955e+00 3.4208316873e+00 
96700 5.7737183011e+00 6.2748060164e-05 1.9750180955e+00 -3.4208316873e+00 1.9750180955e+00 3.4208316873e+00 
96800 5.7737183013e+00 6.2749242153e-05 1.9750180955e+00 -3.4208316873e+00 1.9750180955e+00 3.4208316873e+00 
96900 5.7737183014e+00 6.2750414349e-05 1.9750180955e+00 -3.4208316873e+00 1.9750180955e+00 3.4208316873e+00 
97000 5.7737183015e+00 6.2751576307e-05 1.9750180955e+00 -3.4208316873e+00 1.9750180955e+00 3.4208316873e+00 
97100 5.7737183017e+00 6.2752727627e-05 1.9750180955e+00 -3.4208316873e+00 1.9750180955e+00 3.4208316873e+00 
97200 5.7737183018e+00 6.2753867957e-05 1.9750180955e+00 -3.4208316873e+00 1.9750180955e+00 3.4208316873e+00 
97300 5.7737183020e+00 6.2754996994e-05 1.9750180955e+00 -3.4208316873e+00 1.9750180955e+00 3.4208316873e+00 
97400 5.7737183021e+00 6.2756114478e-05 1.9750180955e+00 -3.4208316873e+00 1.9750180955e+00 3.4208316873e+00 
97500 5.7737183022e+00 6.2757220195e-05 1.9750180955e+00 -3.4208316873e+00 1.9750180955e+00 3.4208316873e+00 
97600 5.7737183024e+00 6.2758313975e-05 1.9750180955e+00 -3.4208316873e+00 1.9750180955e+00 3.4208316873e+00 
97700 5.7737183025e+00 6.2759395686e-05 1.9750180955e+00 -3.4208316873e+00 1.9750180955e+00 3.4208316873e+00 
97800 5.7737183026e+00 6.2760465238e-05 1.9750180955e+00 -3.4208316873e+00 1.9750180955e+00 3.4208316873e+00 
97900 5.7737183027e+00 6.2761522582e-05 1.9750180955e+00 -3.4208316873e+00 1.9750180955e+00 3.4208316873e+00 
98000 5.7737183029e+00 6.2762567703e-05 1.9750180955e+00 -3.4208316873e+00 1.9750180955e+00 3.4208316873e+00 
98100 5.7737183030e+00 6.2763600623e-05 1.9750180955e+00 -3.4208316873e+00 1.9750180955e+00 3.4208316873e+00 
98200 5.7737183031e+00 6.2764621399e-05 1.9750180955e+00 -3.4208316873e+00 1.9750180955e+00 3.4208316873e+00 
98300 5.7737183032e+00 6.2765630118e-05 1.9750180955e+00 -3.4208316873e+00 1.9750180955e+00 3.4208316873e+00 
98400 5.7737183034e+00 6.2766626901e-05 1.9750180955e+00 -3.4208316873e+00 1.9750180955e+00 3.4208316873e+00 
98500 5.7737183035e+00 6.2767611899e-05 1.9750180955e+00 -3.4208316873e+00 1.9750180955e+00 3.4208316873e+00 
98600 5.7737183036e+00 6.2768585287e-05 1.9750180955e+00 -3.4208316873e+00 1.9750180955e+00 3.4208316873e+00 
98700 5.7737183037e+00 6.2769547268e-05 1.9750180955e+00 -3.4208316873e+00 1.9750180955e+00 3.4208316873e+00 
98800 5.7737183038e+00 6.2770498072e-05 1.9750180955e+00 -3.4208316873e+00 1.9750180955e+00 3.4208316873e+00 
98900 5.7737183040e+00 6.2771437948e-05 1.9750180955e+00 -3.4208316873e+00 1.9750180955e+00 3.4208316873e+00 
99000 5.7737183041e+00 6.2772367168e-05 1.9750180955e+00 -3.4208316873e+00 1.9750180955e+00 3.4208316873e+00 
99100 5.7737183042e+00 6.2773286022e-05 1.9750180955e+00 -3.4208316873e+00 1.9750180955e+00 3.4208316873e+00 
99200 5.7737183043e+00 6.2774194821e-05 1.9750180955e+00 -3.4208316873e+00 1.9750180955e+00 3.4208316873e+00 
99300 5.7737183044e+00 6.2775093891e-05 1.9750180955e+00 -3.4208316873e+00 1.9750180955e+00 3.4208316873e+00 
99400 5.7737183045e+00 6.2775983570e-05 1.9750180955e+00 -3.4208316873e+00 1.9750180955e+00 3.4208316873e+00 
99500 5.7737183046e+00 6.2776864214e-05 1.9750180955e+00 -3.4208316873e+00 1.9750180955e+00 3.4208316873e+00 
99600 5.7737183047e+00 6.2777736188e-05 1.9750180955e+00 -3.4208316873e+00 1.9750180955e+00 3.4208316873e+00 
99700 5.7737183048e+00 6.2778599865e-05 1.9750180955e+00 -3.4208316873e+00 1.9750180955e+00 3.4208316873e+00 
99800 5.7737183049e+00 6.2779455629e-05 1.9750180955e+00 -3.4208316873e+00 1.9750180955e+00 3.4208316873e+00 
99900 5.7737183050e+00 6.2780303874e-05 1.9750180955e+00 -3.4208316873e+00 1.9750180955e+00 3.4208316873e+00 
100000 5.7737183051e+00 6.2781144995e-05 1.9750180955e+00 -3.4208316873e+00 1.9750180955e+00 3.4208316873e+00 
100100 5.7737183052e+00 6.2781979395e-05 1.9750180955e+00 -3.4208316873e+00 1.9750180955e+00 3.4208316873e+00 
100200 5.7737183053e+00 6.2782807478e-05 1.9750180955e+00 -3.4208316873e+00 1.9750180955e+00 3.4208316873e+00 
100300 5.7737183054e+00 6.2783629651e-05 1.9750180955e+00 -3.4208316873e+00 1.9750180955e+00 3.4208316873e+00 
100400 5.7737183055e+00 6.2784446322e-05 1.9750180955e+00 -3.4208316873e+00 1.9750180955e+00 3.4208316873e+00 
100500 5.7737183056e+00 6.2785257894e-05 1.9750180955e+00 -3.4208316873e+00 1.9750180955e+00 3.4208316873e+00 
100600 5.7737183057e+00 6.2786064775e-05 1.9750180955e+00 -3.4208316873e+00 1.9750180955e+00 3.4208316873e+00 
100700 5.7737183058e+00 6.2786867365e-05 1.9750180955e+00 -3.4208316873e+00 1.9750180955e+00 3.4208316873e+00 
100800 5.7737183059e+00 6.2787666064e-05 1.9750180955e+00 -3.4208316873e+00 1.9750180955e+00 3.4208316873e+00 
100900 5.7737183060e+00 6.2788461265e-05 1.9750180955e+00 -3.4208316873e+00 1.9750180955e+00 3.4208316873e+00 
101000 5.7737183061e+00 6.2789253354e-05 1.9750180955e+00 -3.4208316873e+00 1.9750180955e+00 3.4208316873e+00 
101100 5.7737183062e+00 6.2790042714e-05 1.9750180955e+00 -3.4208316873e+00 1.9750180955e+00 3.4208316873e+00 
101200 5.7737183062e+00 6.2790829715e-05 1.9750180955e+00 -3.4208316873e+00 1.9750180955e+00 3.4208316873e+00 
101300 5.7737183063e+00 6.2791614724e-05 1.9750180955e+00 -3.4208316873e+00 1.9750180955e+00 3.4208316873e+00 
101400 5.7737183064e+00 6.2792398095e-05 1.9750180955e+00 -3.4208316873e+00 1.9750180955e+00 3.4208316873e+00 
101500 5.7737183065e+00 6.2793180176e-05 1.9750180955e+00 -3.4208316873e+00 1.9750180955e+00 3.4208316873e+00 
101600 5.7737183066e+00 6.2793961301e-05 1.9750180955e+00 -3.4208316873e+00 1.9750180955e+00 3.4208316873e+00 
101700 5.7737183067e+00 6.2794741793e-05 1.9750180955e+00 -3.4208316873e+00 1.9750180955e+00 3.4208316873e+00 
101800 5.7737183068e+00 6.2795521966e-05 1.9750180955e+00 -3.4208316873e+00 1.9750180955e+00 3.4208316873e+00 
101900 5.7737183068e+00 6.2796302121e-05 1.9750180955e+00 -3.4208316873e+00 1.9750180955e+00 3.4208316873e+00 
102000 5.7737183069e+00 6.2797082545e-05 1.9750180955e+00 -3.4208316873e+00 1.9750180955e+00 3.4208316873e+00 
102100 5.7737183070e+00 6.2797863514e-05 1.9750180955e+00 -3.4208316873e+00 1.9750180955e+00 3.4208316873e+00 
102200 5.7737183071e+00 6.2798645288e-05 1.9750180955e+00 -3.4208316873e+00 1.9750180955e+00 3.4208316873e+00 
102300 5.7737183071e+00 6.2799428118e-05 1.9750180955e+00 -3.4208316873e+00 1.9750180955e+00 3.4208316873e+00 
102400 5.7737183072e+00 6.2800212236e-05 1.9750180955e+00 -3.4208316873e+00 1.9750180955e+00 3.4208316873e+00 
102500 5.7737183073e+00 6.2800997864e-05 1.9750180955e+00 -3.4208316873e+00 1.9750180955e+00 3.4208316873e+00 
102600 5.7737183074e+00 6.2801785207e-05 1.9750180955e+00 -3.4208316873e+00 1.9750180955e+00 3.4208316873e+00 
102700 5.7737183074e+00 6.2802574458e-05 1.9750180955e+00 -3.4208316873e+00 1.9750180955e+00 3.4208316873e+00 
102800 5.7737183075e+00 6.2803365795e-05 1.9750180955e+00 -3.4208316873e+00 1.9750180955e+00 3.4208316873e+00 
102900 5.7737183076e+00 6.2804159379e-05 1.9750180955e+00 -3.4208316873e+00 1.9750180955e+00 3.4208316873e+00 
103000 5.7737183077e+00 6.2804955362e-05 1.9750180955e+00 -3.4208316873e+00 1.9750180955e+00 3.4208316873e+00 
103100 5.7737183077e+00 6.2805753877e-05 1.9750180955e+00 -3.4208316873e+00 1.9750180955e+00 3.4208316873e+00 
103200 5.7737183078e+00 6.2806555045e-05 1.9750180955e+00 -3.4208316873e+00 1.9750180955e+00 3.4208316873e+00 
103300 5.7737183079e+00 6.2807358970e-05 1.9750180955e+00 -3.4208316873e+00 1.9750180955e+00 3.4208316873e+00 
103400 5.7737183079e+00 6.2808165746e-05 1.9750180955e+00 -3.4208316873e+00 1.9750180955e+00 3.4208316873e+00 
103500 5.7737183080e+00 6.2808975451e-05 1.9750180955e+00 -3.4208316873e+00 1.9750180955e+00 3.4208316873e+00 
103600 5.7737183081e+00 6.2809788149e-05 1.9750180955e+00 -3.4208316873e+00 1.9750180955e+00 3.4208316873e+00 
103700 5.7737183081e+00 6.2810603892e-05 1.9750180955e+00 -3.4208316873e+00 1.9750180955e+00 3.4208316873e+00 
103800 5.7737183082e+00 6.2811422718e-05 1.9750180955e+00 -3.4208316873e+00 1.9750180955e+00 3.4208316873e+00 
103900 5.7737183083e+00 6.2812244652e-05 1.9750180955e+00 -3.4208316873e+00 1.9750180955e+00 3.4208316873e+00 
104000 5.7737183083e+00 6.2813069705e-05 1.9750180955e+00 -3.4208316873e+00 1.9750180955e+00 3.4208316873e+00 
104100 5.7737183084e+00 6.2813897880e-05 1.9750180955e+00 -3.4208316873e+00 1.9750180955e+00 3.4208316873e+00 
104200 5.7737183085e+00 6.2814729166e-05 1.9750180955e+00 -3.4208316873e+00 1.9750180955e+00 3.4208316873e+00 
104300 5.7737183085e+00 6.2815563538e-05 1.9750180955e+00 -3.4208316873e+00 1.9750180955e+00 3.4208316873e+00 
104400 5.7737183086e+00 6.2816400964e-05 1.9750180955e+00 -3.4208316873e+00 1.9750180955e+00 3.4208316873e+00 
104500 5.7737183086e+00 6.2817241397e-05 1.9750180955e+00 -3.4208316873e+00 1.9750180955e+00 3.4208316873e+00 
104600 5.7737183087e+00 6.2818084786e-05 1.9750180955e+00 -3.4208316873e+00 1.9750180955e+00 3.4208316873e+00 
104700 5.7737183088e+00 6.2818931062e-05 1.9750180955e+00 -3.4208316873e+00 1.9750180955e+00 3.4208316873e+00 
104800 5.7737183088e+00 6.2819780154e-05 1.9750180955e+00 -3.4208316873e+00 1.9750180955e+00 3.4208316873e+00 
104900 5.7737183089e+00 6.2820631979e-05 1.9750180955e+00 -3.4208316873e+00 1.9750180955e+00 3.4208316873e+00 
105000 5.7737183089e+00 6.2821486443e-05 1.9750180955e+00 -3.4208316873e+00 1.9750180955e+00 3.4208316873e+00 
105100 5.7737183090e+00 6.2822343449e-05 1.9750180955e+00 -3.4208316873e+00 1.9750180955e+00 3.4208316873e+00 
105200 5.7737183090e+00 6.2823202888e-05 1.9750180955e+00 -3.4208316873e+00 1.9750180955e+00 3.4208316873e+00 
105300 5.7737183091e+00 6.2824064647e-05 1.9750180955e+00 -3.4208316873e+00 1.9750180955e+00 3.4208316873e+00 
105400 5.7737183092e+00 6.2824928605e-05 1.9750180955e+00 -3.4208316873e+00 1.9750180955e+00 3.4208316873e+00 
105500 5.7737183092e+00 6.2825794636e-05 1.9750180955e+00 -3.4208316873e+00 1.9750180955e+00 3.4208316873e+00 
105600 5.7737183093e+00 6.2826662605e-05 1.9750180955e+00 -3.4208316873e+00 1.9750180955e+00 3.4208316873e+00 
105700 5.7737183093e+00 6.2827532376e-05 1.9750180955e+00 -3.4208316873e+00 1.9750180955e+00 3.4208316873e+00 
105800 5.7737183094e+00 6.2828403805e-05 1.9750180955e+00 -3.4208316873e+00 1.9750180955e+00 3.4208316873e+00 
105900 5.7737183094e+00 6.2829276747e-05 1.9750180955e+00 -3.4208316873e+00 1.9750180955e+00 3.4208316873e+00 
106000 5.7737183095e+00 6.2830151049e-05 1.9750180955e+00 -3.4208316873e+00 1.9750180955e+00 3.4208316873e+00 
106100 5.7737183095e+00 6.2830887026e-05 1.9750180955e+00 -3.4208316873e+00 1.9750180955e+00 3.4208316873e+00 
106100 5.7737183095e+00 6.2830887026e-05 1.9750180955e+00 -3.4208316873e+00 1.9750180955e+00 3.4208316873e+00 
