# step Hamiltonian StressXX CellTensor1 CellTensor2 CellTensor3 CellTensor4 
0 5.4715147366e+00 1.1544046961e-01 1.7439943123e+00 -3.0206867570e+00 1.7439943123e+00 3.0206867570e+00 
100 5.4728210931e+00 1.1587980908e-01 1.7439943123e+00 -3.0206867570e+00 1.7439943123e+00 3.0206867570e+00 
200 5.4733503057e+00 1.1370846651e-01 1.7406731160e+00 -3.0149342763e+00 1.7406731160e+00 3.0149342763e+00 
300 5.4736107664e+00 1.1134813982e-01 1.7374079183e+00 -3.0092787879e+00 1.7374079183e+00 3.0092787879e+00 
400 5.4736518609e+00 1.0884340908e-01 1.7342044723e+00 -3.0037302567e+00 1.7342044723e+00 3.0037302567e+00 
500 5.4735152800e+00 1.0623216705e-01 1.7310672839e+00 -2.9982964870e+00 1.7310672839e+00 2.9982964870e+00 
600 5.4732361478e+00 1.0354653235e-01 1.7279997911e+00 -2.9929834337e+00 1.7279997911e+00 2.9929834337e+00 
700 5.4728439916e+00 1.0081364500e-01 1.7250045200e+00 -2.9877954719e+00 1.7250045200e+00 2.9877954719e+00 
800 5.4723635704e+00 9.8056357131e-02 1.7220832194e+00 -2.9827356309e+00 1.7220832194e+00 2.9827356309e+00 
900 5.4718155858e+00 9.5293831187e-02 1.7192369779e+00 -2.9778057960e+00 1.7192369779e+00 2.9778057960e+00 
1000 5.4712172877e+00 9.2542056807e-02 1.7164663248e+00 -2.9730068840e+00 1.7164663248e+00 2.9730068840e+00 
1100 5.4705829936e+00 8.9814296828e-02 1.7137713172e+00 -2.9683389939e+00 1.7137713172e+00 2.9683389939e+00 
1200 5.4699245306e+00 8.7121471627e-02 1.7111516160e+00 -2.9638015384e+00 1.7111516160e+00 2.9638015384e+00 
1300 5.4692516137e+00 8.4472490120e-02 1.7086065511e+00 -2.9593933567e+00 1.7086065511e+00 2.9593933567e+00 
1400 5.4685721683e+00 8.1874534693e-02 1.7061351778e+00 -2.9551128126e+00 1.7061351778e+00 2.9551128126e+00 
1500 5.4678926058e+00 7.9333306471e-02 1.7037363258e+00 -2.9509578790e+00 1.7037363258e+00 2.9509578790e+00 
1600 5.4672180590e+00 7.6853236493e-02 1.7014086413e+00 -2.9469262112e+00 1.7014086413e+00 2.9469262112e+00 
1700 5.4665525828e+00 7.4437667619e-02 1.6991506238e+00 -2.9430152101e+00 1.6991506238e+00 2.9430152101e+00 
1800 5.4658993258e+00 7.2089011320e-02 1.6969606574e+00 -2.9392220771e+00 1.6969606574e+00 2.9392220771e+00 
1900 5.4652606773e+00 6.9808882957e-02 1.6948370385e+00 -2.9355438613e+00 1.6948370385e+00 2.9355438613e+00 
2000 5.4646383925e+00 6.7598218599e-02 1.6927779990e+00 -2.9319775003e+00 1.6927779990e+00 2.9319775003e+00 
2100 5.4640336990e+00 6.5457376029e-02 1.6907817268e+00 -2.9285198554e+00 1.6907817268e+00 2.9285198554e+00 
2200 5.4634473892e+00 6.3386222182e-02 1.6888463832e+00 -2.9251677419e+00 1.6888463832e+00 2.9251677419e+00 
2300 5.4628798973e+00 6.1384208929e-02 1.6869701181e+00 -2.9219179555e+00 1.6869701181e+00 2.9219179555e+00 
2400 5.4623313669e+00 5.9450438864e-02 1.6851510828e+00 -2.9187672939e+00 1.6851510828e+00 2.9187672939e+00 
2500 5.4618017070e+00 5.7583722473e-02 1.6833874411e+00 -2.9157125768e+00 1.6833874411e+00 2.9157125768e+00 
2600 5.4612906409e+00 5.5782627888e-02 1.6816773784e+00 -2.9127506613e+00 1.6816773784e+00 2.9127506613e+00 
2700 5.4607977470e+00 5.4045524242e-02 1.6800191100e+00 -2.9098784562e+00 1.6800191100e+00 2.9098784562e+00 
2800 5.4603224936e+00 5.2370619482e-02 1.6784108874e+00 -2.9070929330e+00 1.6784108874e+00 2.9070929330e+00 
2900 5.4598642686e+00 5.0755993390e-02 1.6768510042e+00 -2.9043911361e+00 1.6768510042e+00 2.9043911361e+00 
3000 5.4594224038e+00 4.9199626438e-02 1.6753378003e+00 -2.9017701899e+00 1.6753378003e+00 2.9017701899e+00 
3100 5.4589961961e+00 4.7699425015e-02 1.6738696655e+00 -2.8992273059e+00 1.6738696655e+00 2.8992273059e+00 
3200 5.4585849249e+00 4.6253243490e-02 1.6724450429e+00 -2.8967597872e+00 1.6724450429e+00 2.8967597872e+00 
3300 5.4581878655e+00 4.4858903510e-02 1.6710624305e+00 -2.8943650323e+00 1.6710624305e+00 2.8943650323e+00 
3400 5.4578043020e+00 4.3514210860e-02 1.6697203833e+00 -2.8920405383e+00 1.6697203833e+00 2.8920405383e+00 
3500 5.4574335358e+00 4.2216970192e-02 1.6684175141e+00 -2.8897839026e+00 1.6684175141e+00 2.8897839026e+00 
3600 5.4570748933e+00 4.0964997861e-02 1.6671524941e+00 -2.8875928237e+00 1.6671524941e+00 2.8875928237e+00 
3700 5.4567277319e+00 3.9756133095e-02 1.6659240533e+00 -2.8854651018e+00 1.6659240533e+00 2.8854651018e+00 
3800 5.4563914443e+00 3.8588247676e-02 1.6647309802e+00 -2.8833986386e+00 1.6647309802e+00 2.8833986386e+00 
3900 5.4560654614e+00 3.7459254312e-02 1.6635721212e+00 -2.8813914360e+00 1.6635721212e+00 2.8813914360e+00 
4000 5.4557492544e+00 3.6367113815e-02 1.6624463802e+00 -2.8794415954e+00 1.6624463802e+00 2.8794415954e+00 
4100 5.4554423362e+00 3.5309841240e-02 1.6613527172e+00 -2.8775473155e+00 1.6613527172e+00 2.8775473155e+00 
4200 5.4551442610e+00 3.4285511068e-02 1.6602901471e+00 -2.8757068901e+00 1.6602901471e+00 2.8757068901e+00 
4300 5.4548546249e+00 3.3292261541e-02 1.6592577385e+00 -2.8739187060e+00 1.6592577385e+00 2.8739187060e+00 
4400 5.4545730642e+00 3.2328298235e-02 1.6582546121e+00 -2.8721812401e+00 1.6582546121e+00 2.8721812401e+00 
4500 5.4542992547e+00 3.1391896936e-02 1.6572799389e+00 -2.8704930565e+00 1.6572799389e+00 2.8704930565e+00 
4600 5.4540329092e+00 3.0481405898e-02 1.6563329382e+00 -2.8688528032e+00 1.6563329382e+00 2.8688528032e+00 
4700 5.4537737764e+00 2.9595247529e-02 1.6554128761e+00 -2.8672592089e+00 1.6554128761e+00 2.8672592089e+00 
4800 5.4535216378e+00 2.8731919574e-02 1.6545190634e+00 -2.8657110798e+00 1.6545190634e+00 2.8657110798e+00 
4900 5.4532763059e+00 2.7889995831e-02 1.6536508532e+00 -2.8642072957e+00 1.6536508532e+00 2.8642072957e+00 
5000 5.4530376212e+00 2.7068126450e-02 1.6528076394e+00 -2.8627468066e+00 1.6528076394e+00 2.8627468066e+00 
5100 5.4528054498e+00 2.6265037853e-02 1.6519888542e+00 -2.8613286289e+00 1.6519888542e+00 2.8613286289e+00 
5200 5.4525796804e+00 2.5479532320e-02 1.6511939659e+00 -2.8599518421e+00 1.6511939659e+00 2.8599518421e+00 
5300 5.4523602223e+00 2.4710487254e-02 1.6504224773e+00 -2.8586155846e+00 1.6504224773e+00 2.8586155846e+00 
5400 5.4521470018e+00 2.3956854183e-02 1.6496739229e+00 -2.8573190505e+00 1.6496739229e+00 2.8573190505e+00 
5500 5.4519399605e+00 2.3217657510e-02 1.6489478675e+00 -2.8560614855e+00 1.6489478675e+00 2.8560614855e+00 
5600 5.4517390521e+00 2.2491993039e-02 1.6482439033e+00 -2.8548421838e+00 1.6482439033e+00 2.8548421838e+00 
5700 5.4515442405e+00 2.1779026308e-02 1.6475616487e+00 -2.8536604841e+00 1.6475616487e+00 2.8536604841e+00 
5800 5.4513554972e+00 2.1077990755e-02 1.6469007456e+00 -2.8525157665e+00 1.6469007456e+00 2.8525157665e+00 
5900 5.4511727989e+00 2.0388185721e-02 1.6462608581e+00 -2.8514074487e+00 1.6462608581e+00 2.8514074487e+00 
6000 5.4509961263e+00 1.9708974333e-02 1.6456416699e+00 -2.8503349833e+00 1.6456416699e+00 2.8503349833e+00 
6100 5.4508254613e+00 1.9039781273e-02 1.6450428828e+00 -2.8492978536e+00 1.6450428828e+00 2.8492978536e+00 
6200 5.4506607857e+00 1.8380090444e-02 1.6444642151e+00 -2.8482955717e+00 1.6444642151e+00 2.8482955717e+00 
6300 5.4505020798e+00 1.7729442574e-02 1.6439053994e+00 -2.8473276745e+00 1.6439053994e+00 2.8473276745e+00 
6400 5.4503493207e+00 1.7087432741e-02 1.6433661812e+00 -2.8463937213e+00 1.6433661812e+00 2.8463937213e+00 
6500 5.4502024813e+00 1.6453707863e-02 1.6428463174e+00 -2.8454932908e+00 1.6428463174e+00 2.8454932908e+00 
6600 5.4500615289e+00 1.5827964148e-02 1.6423455745e+00 -2.8446259787e+00 1.6423455745e+00 2.8446259787e+00 
6700 5.4499264247e+00 1.5209944519e-02 1.6418637274e+00 -2.8437913950e+00 1.6418637274e+00 2.8437913950e+00 
6800 5.4497971230e+00 1.4599436036e-02 1.6414005577e+00 -2.8429891616e+00 1.6414005577e+00 2.8429891616e+00 
6900 5.4496735703e+00 1.3996267310e-02 1.6409558529e+00 -2.8422189102e+00 1.6409558529e+00 2.8422189102e+00 
7000 5.4495557050e+00 1.3400305935e-02 1.6405294044e+00 -2.8414802798e+00 1.6405294044e+00 2.8414802798e+00 
7100 5.4494434574e+00 1.2811455930e-02 1.6401210073e+00 -2.8407729152e+00 1.6401210073e+00 2.8407729152e+00 
7200 5.4493367489e+00 1.2229655218e-02 1.6397304585e+00 -2.8400964648e+00 1.6397304585e+00 2.8400964648e+00 
7300 5.4492354928e+00 1.1654873133e-02 1.6393575560e+00 -2.8394505787e+00 1.6393575560e+00 2.8394505787e+00 
7400 5.4491395934e+00 1.1087107971e-02 1.6390020981e+00 -2.8388349076e+00 1.6390020981e+00 2.8388349076e+00 
7500 5.4490489470e+00 1.0526384592e-02 1.6386638823e+00 -2.8382491007e+00 1.6386638823e+00 2.8382491007e+00 
7600 5.4489634417e+00 9.9727520687e-03 1.6383427048e+00 -2.8376928049e+00 1.6383427048e+00 2.8376928049e+00 
7700 5.4488829578e+00 9.4262813992e-03 1.6380383593e+00 -2.8371656631e+00 1.6380383593e+00 2.8371656631e+00 
7800 5.4488073683e+00 8.8870632828e-03 1.6377506370e+00 -2.8366673134e+00 1.6377506370e+00 2.8366673134e+00 
7900 5.4487365398e+00 8.3552059582e-03 1.6374793253e+00 -2.8361973877e+00 1.6374793253e+00 2.8361973877e+00 
8000 5.4486703320e+00 7.8308331151e-03 1.6372242079e+00 -2.8357555114e+00 1.6372242079e+00 2.8357555114e+00 
8100 5.4486085995e+00 7.3140818763e-03 1.6369850640e+00 -2.8353413021e+00 1.6369850640e+00 2.8353413021e+00 
8200 5.4485511918e+00 6.8051008557e-03 1.6367616681e+00 -2.8349543691e+00 1.6367616681e+00 2.8349543691e+00 
8300 5.4484979538e+00 6.3040482920e-03 1.6365537894e+00 -2.8345943126e+00 1.6365537894e+00 2.8345943126e+00 
8400 5.4484487271e+00 5.8110902611e-03 1.6363611919e+00 -2.8342607239e+00 1.6363611919e+00 2.8342607239e+00 
8500 5.4484033502e+00 5.3263989669e-03 1.6361836338e+00 -2.8339531842e+00 1.6361836338e+00 2.8339531842e+00 
8600 5.4483616594e+00 4.8501511122e-03 1.6360208675e+00 -2.8336712647e+00 1.6360208675e+00 2.8336712647e+00 
8700 5.4483234895e+00 4.3825263493e-03 1.6358726396e+00 -2.8334145265e+00 1.6358726396e+00 2.8334145265e+00 
8800 5.4482886745e+00 3.9237058106e-03 1.6357386907e+00 -2.8331825202e+00 1.6357386907e+00 2.8331825202e+00 
8900 5.4482570482e+00 3.4738707191e-03 1.6356187554e+00 -2.8329747861e+00 1.6356187554e+00 2.8329747861e+00 
9000 5.4482284449e+00 3.0332010782e-03 1.6355125621e+00 -2.8327908540e+00 1.6355125621e+00 2.8327908540e+00 
9100 5.4482027004e+00 2.6018744398e-03 1.6354198336e+00 -2.8326302435e+00 1.6354198336e+00 2.8326302435e+00 
9200 5.4481796517e+00 2.1800647504e-03 1.6353402867e+00 -2.8324924642e+00 1.6353402867e+00 2.8324924642e+00 
9300 5.4481591385e+00 1.7679412734e-03 1.6352736323e+00 -2.8323770155e+00 1.6352736323e+00 2.8323770155e+00 
9400 5.4481410034e+00 1.3656675871e-03 1.6352195762e+00 -2.8322833875e+00 1.6352195762e+00 2.8322833875e+00 
9500 5.4481250922e+00 9.7340065604e-04 1.6351778185e+00 -2.8322110610e+00 1.6351778185e+00 2.8322110610e+00 
9600 5.4481112545e+00 5.9128997542e-04 1.6351480542e+00 -2.8321595077e+00 1.6351480542e+00 2.8321595077e+00 
9700 5.4480993444e+00 2.1947678564e-04 1.6351299736e+00 -2.8321281912e+00 1.6351299736e+00 2.8321281912e+00 
9800 5.4480892202e+00 -1.4190664371e-04 1.6351232623e+00 -2.8321165669e+00 1.6351232623e+00 2.8321165669e+00 
9900 5.4480807455e+00 -4.9273766274e-04 1.6351276016e+00 -2.8321240829e+00 1.6351276016e+00 2.8321240829e+00 
10000 5.4480737888e+00 -8.3290382468e-04 1.6351426689e+00 -2.8321501802e+00 1.6351426689e+00 2.8321501802e+00 
10100 5.4480682243e+00 -1.1623034058e-03 1.6351681378e+00 -2.8321942936e+00 1.6351681378e+00 2.8321942936e+00 
10200 5.4480639315e+00 -1.4808458639e-03 1.6352036787e+00 -2.8322558523e+00 1.6352036787e+00 2.8322558523e+00 
10300 5.4480607958e+00 -1.7884522367e-03 1.6352489591e+00 -2.8323342802e+00 1.6352489591e+00 2.8323342802e+00 
10400 5.4480587087e+00 -2.0850554833e-03 1.6353036438e+00 -2.8324289969e+00 1.6353036438e+00 2.8324289969e+00 
10500 5.4480575671e+00 -2.3706007696e-03 1.6353673956e+00 -2.8325394181e+00 1.6353673956e+00 2.8325394181e+00 
10600 5.4480572744e+00 -2.6450457003e-03 1.6354398752e+00 -2.8326649566e+00 1.6354398752e+00 2.8326649566e+00 
10700 5.4480577395e+00 -2.9083604992e-03 1.6355207424e+00 -2.8328050227e+00 1.6355207424e+00 2.8328050227e+00 
10800 5.4480588775e+00 -3.1605281401e-03 1.6356096556e+00 -2.8329590248e+00 1.6356096556e+00 2.8329590248e+00 
10900 5.4480606092e+00 -3.4015444302e-03 1.6357062727e+00 -2.8331263706e+00 1.6357062727e+00 2.8331263706e+00 
11000 5.4480628610e+00 -3.6314180484e-03 1.6358102517e+00 -2.8333064675e+00 1.6358102517e+00 2.8333064675e+00 
11100 5.4480655652e+00 -3.8501705388e-03 1.6359212505e+00 -2.8334987230e+00 1.6359212505e+00 2.8334987230e+00 
11200 5.4480686591e+00 -4.0578362648e-03 1.6360389278e+00 -2.8337025461e+00 1.6360389278e+00 2.8337025461e+00 
11300 5.4480720857e+00 -4.2544623215e-03 1.6361629434e+00 -2.8339173475e+00 1.6361629434e+00 2.8339173475e+00 
11400 5.4480757927e+00 -4.4401084122e-03 1.6362929585e+00 -2.8341425403e+00 1.6362929585e+00 2.8341425403e+00 
11500 5.4480797330e+00 -4.6148466884e-03 1.6364286363e+00 -2.8343775410e+00 1.6364286363e+00 2.8343775410e+00 
11600 5.4480838638e+00 -4.7787615563e-03 1.6365696419e+00 -2.8346217699e+00 1.6365696419e+00 2.8346217699e+00 
11700 5.4480881469e+00 -4.9319494520e-03 1.6367156434e+00 -2.8348746519e+00 1.6367156434e+00 2.8348746519e+00 
11800 5.4480925482e+00 -5.0745185855e-03 1.6368663117e+00 -2.8351356171e+00 1.6368663117e+00 2.8351356171e+00 
11900 5.4480970376e+00 -5.2065886582e-03 1.6370213213e+00 -2.8354041016e+00 1.6370213213e+00 2.8354041016e+00 
12000 5.4481015886e+00 -5.3282905534e-03 1.6371803502e+00 -2.8356795477e+00 1.6371803502e+00 2.8356795477e+00 
12100 5.4481061781e+00 -5.4397660019e-03 1.6373430805e+00 -2.8359614049e+00 1.6373430805e+00 2.8359614049e+00 
12200 5.4481107863e+00 -5.5411672259e-03 1.6375091990e+00 -2.8362491305e+00 1.6375091990e+00 2.8362491305e+00 
12300 5.4481153960e+00 -5.6326565614e-03 1.6376783969e+00 -2.8365421899e+00 1.6376783969e+00 2.8365421899e+00 
12400 5.4481199932e+00 -5.7144060618e-03 1.6378503707e+00 -2.8368400572e+00 1.6378503707e+00 2.8368400572e+00 
12500 5.4481245658e+00 -5.7865970836e-03 1.6380248221e+00 -2.8371422160e+00 1.6380248221e+00 2.8371422160e+00 
12600 5.4481291043e+00 -5.8494198570e-03 1.6382014587e+00 -2.8374481595e+00 1.6382014587e+00 2.8374481595e+00 
12700 5.4481336010e+00 -5.9030730416e-03 1.6383799937e+00 -2.8377573912e+00 1.6383799937e+00 2.8377573912e+00 
12800 5.4481380498e+00 -5.9477632703e-03 1.6385601467e+00 -2.8380694253e+00 1.6385601467e+00 2.8380694253e+00 
12900 5.4481424466e+00 -5.9837046815e-03 1.6387416436e+00 -2.8383837872e+00 1.6387416436e+00 2.8383837872e+00 
13000 5.4481467883e+00 -6.0111184431e-03 1.6389242171e+00 -2.8387000138e+00 1.6389242171e+00 2.8387000138e+00 
13100 5.4481510731e+00 -6.0302322672e-03 1.6391076066e+00 -2.8390176538e+00 1.6391076066e+00 2.8390176538e+00 
13200 5.4481553001e+00 -6.0412799199e-03 1.6392915587e+00 -2.8393362681e+00 1.6392915587e+00 2.8393362681e+00 
13300 5.4481594694e+00 -6.0445007250e-03 1.6394758271e+00 -2.8396554304e+00 1.6394758271e+00 2.8396554304e+00 
13400 5.4481635816e+00 -6.0401390650e-03 1.6396601731e+00 -2.8399747269e+00 1.6396601731e+00 2.8399747269e+00 
13500 5.4481676382e+00 -6.0284438796e-03 1.6398443653e+00 -2.8402937571e+00 1.6398443653e+00 2.8402937571e+00 
13600 5.4481716406e+00 -6.0096681637e-03 1.6400281802e+00 -2.8406121339e+00 1.6400281802e+00 2.8406121339e+00 
13700 5.4481755909e+00 -5.9840684658e-03 1.6402114020e+00 -2.8409294834e+00 1.6402114020e+00 2.8409294834e+00 
13800 5.4481794914e+00 -5.9519043882e-03 1.6403938230e+00 -2.8412454458e+00 1.6403938230e+00 2.8412454458e+00 
13900 5.4481833443e+00 -5.9134380901e-03 1.6405752433e+00 -2.8415596750e+00 1.6405752433e+00 2.8415596750e+00 
14000 5.4481871519e+00 -5.8689337954e-03 1.6407554711e+00 -2.8418718387e+00 1.6407554711e+00 2.8418718387e+00 
14100 5.4481909166e+00 -5.8186573051e-03 1.6409343229e+00 -2.8421816191e+00 1.6409343229e+00 2.8421816191e+00 
14200 5.4481946405e+00 -5.7628755167e-03 1.6411116231e+00 -2.8424887122e+00 1.6411116231e+00 2.8424887122e+00 
14300 5.4481983258e+00 -5.7018559505e-03 1.6412872047e+00 -2.8427928283e+00 1.6412872047e+00 2.8427928283e+00 
14400 5.4482019743e+00 -5.6358662848e-03 1.6414609085e+00 -2.8430936921e+00 1.6414609085e+00 2.8430936921e+00 
14500 5.4482055877e+00 -5.5651739005e-03 1.6416325837e+00 -2.8433910424e+00 1.6416325837e+00 2.8433910424e+00 
14600 5.4482091674e+00 -5.4900454350e-03 1.6418020879e+00 -2.8436846321e+00 1.6418020879e+00 2.8436846321e+00 
14700 5.4482127145e+00 -5.4107463484e-03 1.6419692864e+00 -2.8439742285e+00 1.6419692864e+00 2.8439742285e+00 
14800 5.4482162299e+00 -5.3275405011e-03 1.6421340531e+00 -2.8442596128e+00 1.6421340531e+00 2.8442596128e+00 
14900 5.4482197143e+00 -5.2406897434e-03 1.6422962697e+00 -2.8445405802e+00 1.6422962697e+00 2.8445405802e+00 
15000 5.4482231679e+00 -5.1504535193e-03 1.6424558260e+00 -2.8448169398e+00 1.6424558260e+00 2.8448169398e+00 
15100 5.4482265908e+00 -5.0570884834e-03 1.6426126197e+00 -2.8450885145e+00 1.6426126197e+00 2.8450885145e+00 
15200 5.4482299829e+00 -4.9608481331e-03 1.6427665564e+00 -2.8453551407e+00 1.6427665564e+00 2.8453551407e+00 
15300 5.4482333436e+00 -4.8619824547e-03 1.6429175494e+00 -2.8456166682e+00 1.6429175494e+00 2.8456166682e+00 
15400 5.4482366724e+00 -4.7607375861e-03 1.6430655196e+00 -2.8458729601e+00 1.6430655196e+00 2.8458729601e+00 
15500 5.4482399682e+00 -4.6573554945e-03 1.6432103953e+00 -2.8461238923e+00 1.6432103953e+00 2.8461238923e+00 
15600 5.4482432302e+00 -4.5520736705e-03 1.6433521125e+00 -2.8463693536e+00 1.6433521125e+00 2.8463693536e+00 
15700 5.4482464570e+00 -4.4451248394e-03 1.6434906141e+00 -2.8466092454e+00 1.6434906141e+00 2.8466092454e+00 
15800 5.4482496473e+00 -4.3367366881e-03 1.6436258502e+00 -2.8468434812e+00 1.6436258502e+00 2.8468434812e+00 
15900 5.4482527995e+00 -4.2271316102e-03 1.6437577779e+00 -2.8470719866e+00 1.6437577779e+00 2.8470719866e+00 
16000 5.4482559122e+00 -4.1165264674e-03 1.6438863609e+00 -2.8472946990e+00 1.6438863609e+00 2.8472946990e+00 
16100 5.4482589837e+00 -4.0051323688e-03 1.6440115696e+00 -2.8475115669e+00 1.6440115696e+00 2.8475115669e+00 
16200 5.4482620123e+00 -3.8931544667e-03 1.6441333809e+00 -2.8477225501e+00 1.6441333809e+00 2.8477225501e+00 
16300 5.4482649963e+00 -3.7807917709e-03 1.6442517776e+00 -2.8479276193e+00 1.6442517776e+00 2.8479276193e+00 
16400 5.4482679339e+00 -3.6682369792e-03 1.6443667490e+00 -2.8481267555e+00 1.6443667490e+00 2.8481267555e+00 
16500 5.4482708237e+00 -3.5556763259e-03 1.6444782897e+00 -2.8483199497e+00 1.6444782897e+00 2.8483199497e+00 
16600 5.4482736639e+00 -3.4432894469e-03 1.6445864005e+00 -2.8485072030e+00 1.6445864005e+00 2.8485072030e+00 
16700 5.4482764530e+00 -3.3312492623e-03 1.6446910871e+00 -2.8486885257e+00 1.6446910871e+00 2.8486885257e+00 
16800 5.4482791896e+00 -3.2197218753e-03 1.6447923610e+00 -2.8488639371e+00 1.6447923610e+00 2.8488639371e+00 
16900 5.4482818722e+00 -3.1088664878e-03 1.6448902382e+00 -2.8490334654e+00 1.6448902382e+00 2.8490334654e+00 
17000 5.4482844997e+00 -2.9988353326e-03 1.6449847398e+00 -2.8491971471e+00 1.6449847398e+00 2.8491971471e+00 
17100 5.4482870710e+00 -2.8897736207e-03 1.6450758915e+00 -2.8493550264e+00 1.6450758915e+00 2.8493550264e+00 
17200 5.4482895849e+00 -2.7818195051e-03 1.6451637233e+00 -2.8495071556e+00 1.6451637233e+00 2.8495071556e+00 
17300 5.4482920409e+00 -2.6751040597e-03 1.6452482694e+00 -2.8496535937e+00 1.6452482694e+00 2.8496535937e+00 
17400 5.4482944380e+00 -2.5697512726e-03 1.6453295680e+00 -2.8497944069e+00 1.6453295680e+00 2.8497944069e+00 
17500 5.4482967759e+00 -2.4658780542e-03 1.6454076609e+00 -2.8499296678e+00 1.6454076609e+00 2.8499296678e+00 
17600 5.4482990542e+00 -2.3635942593e-03 1.6454825936e+00 -2.8500594551e+00 1.6454825936e+00 2.8500594551e+00 
17700 5.4483012726e+00 -2.2630027228e-03 1.6455544148e+00 -2.8501838531e+00 1.6455544148e+00 2.8501838531e+00 
17800 5.4483034311e+00 -2.1641993080e-03 1.6456231764e+00 -2.8503029516e+00 1.6456231764e+00 2.8503029516e+00 
17900 5.4483055299e+00 -2.0672729681e-03 1.6456889330e+00 -2.8504168455e+00 1.6456889330e+00 2.8504168455e+00 
18000 5.4483075693e+00 -1.9723058191e-03 1.6457517422e+00 -2.8505256341e+00 1.6457517422e+00 2.8505256341e+00 
18100 5.4483095495e+00 -1.8793732249e-03 1.6458116637e+00 -2.8506294212e+00 1.6458116637e+00 2.8506294212e+00 
18200 5.4483114713e+00 -1.7885438924e-03 1.6458687596e+00 -2.8507283143e+00 1.6458687596e+00 2.8507283143e+00 
18300 5.4483133354e+00 -1.6998799778e-03 1.6459230943e+00 -2.8508224246e+00 1.6459230943e+00 2.8508224246e+00 
18400 5.4483151426e+00 -1.6134372025e-03 1.6459747337e+00 -2.8509118667e+00 1.6459747337e+00 2.8509118667e+00 
18500 5.4483168938e+00 -1.5292649777e-03 1.6460237455e+00 -2.8509967577e+00 1.6460237455e+00 2.8509967577e+00 
18600 5.4483185902e+00 -1.4474065388e-03 1.6460701990e+00 -2.8510772175e+00 1.6460701990e+00 2.8510772175e+00 
18700 5.4483202330e+00 -1.3678990867e-03 1.6461141647e+00 -2.8511533684e+00 1.6461141647e+00 2.8511533684e+00 
18800 5.4483218235e+00 -1.2907739374e-03 1.6461557143e+00 -2.8512253343e+00 1.6461557143e+00 2.8512253343e+00 
18900 5.4483233629e+00 -1.2160566780e-03 1.6461949201e+00 -2.8512932408e+00 1.6461949201e+00 2.8512932408e+00 
19000 5.4483248529e+00 -1.1437673297e-03 1.6462318556e+00 -2.8513572150e+00 1.6462318556e+00 2.8513572150e+00 
19100 5.4483262950e+00 -1.0739205159e-03 1.6462665947e+00 -2.8514173848e+00 1.6462665947e+00 2.8514173848e+00 
19200 5.4483276906e+00 -1.0065256359e-03 1.6462992117e+00 -2.8514738791e+00 1.6462992117e+00 2.8514738791e+00 
19300 5.4483290414e+00 -9.4158704312e-04 1.6463297811e+00 -2.8515268269e+00 1.6463297811e+00 2.8515268269e+00 
19400 5.4483303491e+00 -8.7910422755e-04 1.6463583777e+00 -2.8515763577e+00 1.6463583777e+00 2.8515763577e+00 
19500 5.4483316154e+00 -8.1907200164e-04 1.6463850762e+00 -2.8516226009e+00 1.6463850762e+00 2.8516226009e+00 
19600 5.4483328420e+00 -7.6148068914e-04 1.6464099512e+00 -2.8516656855e+00 1.6464099512e+00 2.8516656855e+00 
19700 5.4483340305e+00 -7.0631631662e-04 1.6464330767e+00 -2.8517057401e+00 1.6464330767e+00 2.8517057401e+00 
19800 5.4483351826e+00 -6.5356080681e-04 1.6464545267e+00 -2.8517428925e+00 1.6464545267e+00 2.8517428925e+00 
19900 5.4483363001e+00 -6.0319217355e-04 1.6464743742e+00 -2.8517772695e+00 1.6464743742e+00 2.8517772695e+00 
20000 5.4483373846e+00 -5.5518471763e-04 1.6464926919e+00 -2.8518089967e+00 1.6464926919e+00 2.8518089967e+00 
20100 5.4483384376e+00 -5.0950922327e-04 1.6465095516e+00 -2.8518381985e+00 1.6465095516e+00 2.8518381985e+00 
20200 5.4483394610e+00 -4.6613315459e-04 1.6465250240e+00 -2.8518649975e+00 1.6465250240e+00 2.8518649975e+00 
20300 5.4483404561e+00 -4.2502085180e-04 1.6465391791e+00 -2.8518895148e+00 1.6465391791e+00 2.8518895148e+00 
20400 5.4483414245e+00 -3.8613372658e-04 1.6465520856e+00 -2.8519118696e+00 1.6465520856e+00 2.8519118696e+00 
20500 5.4483423677e+00 -3.4943045627e-04 1.6465638111e+00 -2.8519321788e+00 1.6465638111e+00 2.8519321788e+00 
20600 5.4483432870e+00 -3.1486717656e-04 1.6465744220e+00 -2.8519505574e+00 1.6465744220e+00 2.8519505574e+00 
20700 5.4483441839e+00 -2.8239767215e-04 1.6465839833e+00 -2.8519671181e+00 1.6465839833e+00 2.8519671181e+00 
20800 5.4483450595e+00 -2.5197356524e-04 1.6465925586e+00 -2.8519819709e+00 1.6465925586e+00 2.8519819709e+00 
20900 5.4483459152e+00 -2.2354450133e-04 1.6466002100e+00 -2.8519952234e+00 1.6466002100e+00 2.8519952234e+00 
21000 5.4483467520e+00 -1.9705833218e-04 1.6466069980e+00 -2.8520069807e+00 1.6466069980e+00 2.8520069807e+00 
21100 5.4483475711e+00 -1.7246129546e-04 1.6466129818e+00 -2.8520173449e+00 1.6466129818e+00 2.8520173449e+00 
21200 5.4483483735e+00 -1.4969819101e-04 1.6466182187e+00 -2.8520264154e+00 1.6466182187e+00 2.8520264154e+00 
21300 5.4483491601e+00 -1.2871255329e-04 1.6466227643e+00 -2.8520342887e+00 1.6466227643e+00 2.8520342887e+00 
21400 5.4483499318e+00 -1.0944681987e-04 1.6466266727e+00 -2.8520410582e+00 1.6466266727e+00 2.8520410582e+00 
21500 5.4483506894e+00 -9.1842495751e-05 1.6466299960e+00 -2.8520468144e+00 1.6466299960e+00 2.8520468144e+00 
21600 5.4483514337e+00 -7.5840313233e-05 1.6466327848e+00 -2.8520516448e+00 1.6466327848e+00 2.8520516448e+00 
21700 5.4483521653e+00 -6.1380387239e-05 1.6466350877e+00 -2.8520556335e+00 1.6466350877e+00 2.8520556335e+00 
21800 5.4483528850e+00 -5.0185912323e-05 1.6466350877e+00 -2.8520556335e+00 1.6466350877e+00 2.8520556335e+00 
21900 5.4483535931e+00 -4.0045328777e-05 1.6466350877e+00 -2.8520556335e+00 1.6466350877e+00 2.8520556335e+00 
22000 5.4483542901e+00 -3.0937806506e-05 1.6466350877e+00 -2.8520556335e+00 1.6466350877e+00 2.8520556335e+00 
22100 5.4483549766e+00 -2.2840701329e-05 1.6466350877e+00 -2.8520556335e+00 1.6466350877e+00 2.8520556335e+00 
22200 5.4483556530e+00 -1.5729706412e-05 1.6466350877e+00 -2.8520556335e+00 1.6466350877e+00 2.8520556335e+00 
22300 5.4483563195e+00 -9.5789997851e-06 1.6466350877e+00 -2.8520556335e+00 1.6466350877e+00 2.8520556335e+00 
22400 5.4483569765e+00 -4.3613878032e-06 1.6466350877e+00 -2.8520556335e+00 1.6466350877e+00 2.8520556335e+00 
22500 5.4483576243e+00 -4.8444439408e-08 1.6466350877e+00 -2.8520556335e+00 1.6466350877e+00 2.8520556335e+00 
22600 5.4483582629e+00 3.3893536970e-06 1.6466350877e+00 -2.8520556335e+00 1.6466350877e+00 2.8520556335e+00 
22700 5.4483588927e+00 5.9824966725e-06 1.6466350877e+00 -2.8520556335e+00 1.6466350877e+00 2.8520556335e+00 
22800 5.4483595137e+00 7.7623149959e-06 1.6466350877e+00 -2.8520556335e+00 1.6466350877e+00 2.8520556335e+00 
22900 5.4483601261e+00 8.7608578358e-06 1.6466350877e+00 -2.8520556335e+00 1.6466350877e+00 2.8520556335e+00 
23000 5.4483607298e+00 9.0107757798e-06 1.6466350877e+00 -2.8520556335e+00 1.6466350877e+00 2.8520556335e+00 
23100 5.4483613250e+00 8.5452081641e-06 1.6466350877e+00 -2.8520556335e+00 1.6466350877e+00 2.8520556335e+00 
23200 5.4483619117e+00 7.3976749665e-06 1.6466350877e+00 -2.8520556335e+00 1.6466350877e+00 2.8520556335e+00 
23300 5.4483624898e+00 5.6019733124e-06 1.6466350877e+00 -2.8520556335e+00 1.6466350877e+00 2.8520556335e+00 
23400 5.4483630594e+00 3.1920785745e-06 1.6466350877e+00 -2.8520556335e+00 1.6466350877e+00 2.8520556335e+00 
23500 5.4483636205e+00 2.0205005979e-07 1.6466350877e+00 -2.8520556335e+00 1.6466350877e+00 2.8520556335e+00 
23600 5.4483641731e+00 -3.3340587272e-06 1.6466350877e+00 -2.8520556335e+00 1.6466350877e+00 2.8520556335e+00 
23700 5.4483647170e+00 -7.3822852781e-06 1.6466350877e+00 -2.8520556335e+00 1.6466350877e+00 2.8520556335e+00 
23800 5.4483652523e+00 -1.1908838769e-05 1.6466350877e+00 -2.8520556335e+00 1.6466350877e+00 2.8520556335e+00 
23900 5.4483657790e+00 -1.6880176273e-05 1.6466350877e+00 -2.8520556335e+00 1.6466350877e+00 2.8520556335e+00 
24000 5.4483662969e+00 -2.2263074564e-05 1.6466350877e+00 -2.8520556335e+00 1.6466350877e+00 2.8520556335e+00 
24100 5.4483668061e+00 -2.8024697563e-05 1.6466350877e+00 -2.8520556335e+00 1.6466350877e+00 2.8520556335e+00 
24200 5.4483673066e+00 -3.4132659485e-05 1.6466350877e+00 -2.8520556335e+00 1.6466350877e+00 2.8520556335e+00 
24300 5.4483677982e+00 -4.0555083770e-05 1.6466350877e+00 -2.8520556335e+00 1.6466350877e+00 2.8520556335e+00 
24400 5.4483682811e+00 -4.7260657866e-05 1.6466350877e+00 -2.8520556335e+00 1.6466350877e+00 2.8520556335e+00 
24500 5.4483687551e+00 -5.4218683942e-05 1.6466350877e+00 -2.8520556335e+00 1.6466350877e+00 2.8520556335e+00 
24600 5.4483692202e+00 -6.1399125638e-05 1.6466350877e+00 -2.8520556335e+00 1.6466350877e+00 2.8520556335e+00 
24700 5.4483696766e+00 -6.8772650905e-05 1.6466350877e+00 -2.8520556335e+00 1.6466350877e+00 2.8520556335e+00 
24800 5.4483701241e+00 -7.6310671086e-05 1.6466350877e+00 -2.8520556335e+00 1.6466350877e+00 2.8520556335e+00 
24900 5.4483705625e+00 -8.1767677066e-05 1.6466374049e+00 -2.8520596469e+00 1.6466374049e+00 2.8520596469e+00 
25000 5.4483709921e+00 -8.7163784468e-05 1.6466398878e+00 -2.8520639474e+00 1.6466398878e+00 2.8520639474e+00 
25100 5.4483714129e+00 -9.2472746963e-05 1.6466425345e+00 -2.8520685316e+00 1.6466425345e+00 2.8520685316e+00 
25200 5.4483718248e+00 -9.7669958760e-05 1.6466453424e+00 -2.8520733951e+00 1.6466453424e+00 2.8520733951e+00 
25300 5.4483722281e+00 -1.0273243738e-04 1.6466483081e+00 -2.8520785319e+00 1.6466483081e+00 2.8520785319e+00 
25400 5.4483726226e+00 -1.0763880368e-04 1.6466514276e+00 -2.8520839349e+00 1.6466514276e+00 2.8520839349e+00 
25500 5.4483730086e+00 -1.1236925908e-04 1.6466546960e+00 -2.8520895960e+00 1.6466546960e+00 2.8520895960e+00 
25600 5.4483733860e+00 -1.1690556041e-04 1.6466581080e+00 -2.8520955058e+00 1.6466581080e+00 2.8520955058e+00 
25700 5.4483737551e+00 -1.2123099227e-04 1.6466616578e+00 -2.8521016542e+00 1.6466616578e+00 2.8521016542e+00 
25800 5.4483741157e+00 -1.2533033722e-04 1.6466653389e+00 -2.8521080301e+00 1.6466653389e+00 2.8521080301e+00 
25900 5.4483744682e+00 -1.2918984395e-04 1.6466691445e+00 -2.8521146216e+00 1.6466691445e+00 2.8521146216e+00 
26000 5.4483748126e+00 -1.3279719347e-04 1.6466730673e+00 -2.8521214160e+00 1.6466730673e+00 2.8521214160e+00 
26100 5.4483751490e+00 -1.3614146351e-04 1.6466770996e+00 -2.8521284001e+00 1.6466770996e+00 2.8521284001e+00 
26200 5.4483754775e+00 -1.3921309145e-04 1.6466812334e+00 -2.8521355601e+00 1.6466812334e+00 2.8521355601e+00 
26300 5.4483757983e+00 -1.4200383558e-04 1.6466854605e+00 -2.8521428816e+00 1.6466854605e+00 2.8521428816e+00 
26400 5.4483761115e+00 -1.4450673519e-04 1.6466897723e+00 -2.8521503499e+00 1.6466897723e+00 2.8521503499e+00 
26500 5.4483764173e+00 -1.4671606935e-04 1.6466941601e+00 -2.8521579498e+00 1.6466941601e+00 2.8521579498e+00 
26600 5.4483767159e+00 -1.4862731473e-04 1.6466986150e+00 -2.8521656659e+00 1.6466986150e+00 2.8521656659e+00 
26700 5.4483770073e+00 -1.5023710242e-04 1.6467031278e+00 -2.8521734824e+00 1.6467031278e+00 2.8521734824e+00 
26800 5.4483772917e+00 -1.5154317401e-04 1.6467076896e+00 -2.8521813836e+00 1.6467076896e+00 2.8521813836e+00 
26900 5.4483775693e+00 -1.5254433699e-04 1.6467122910e+00 -2.8521893535e+00 1.6467122910e+00 2.8521893535e+00 
27000 5.4483778402e+00 -1.5324041956e-04 1.6467169228e+00 -2.8521973760e+00 1.6467169228e+00 2.8521973760e+00 
27100 5.4483781047e+00 -1.5363222512e-04 1.6467215757e+00 -2.8522054350e+00 1.6467215757e+00 2.8522054350e+00 
27200 5.4483783628e+00 -1.5372148638e-04 1.6467262405e+00 -2.8522135147e+00 1.6467262405e+00 2.8522135147e+00 
27300 5.4483786147e+00 -1.5351081927e-04 1.6467309080e+00 -2.8522215990e+00 1.6467309080e+00 2.8522215990e+00 
27400 5.4483788605e+00 -1.5300367683e-04 1.6467355691e+00 -2.8522296723e+00 1.6467355691e+00 2.8522296723e+00 
27500 5.4483791006e+00 -1.5220430307e-04 1.6467402147e+00 -2.8522377188e+00 1.6467402147e+00 2.8522377188e+00 
27600 5.4483793348e+00 -1.5111768693e-04 1.6467448361e+00 -2.8522457233e+00 1.6467448361e+00 2.8522457233e+00 
27700 5.4483795636e+00 -1.4974951657e-04 1.6467494245e+00 -2.8522536706e+00 1.6467494245e+00 2.8522536706e+00 
27800 5.4483797869e+00 -1.4810613381e-04 1.6467539713e+00 -2.8522615459e+00 1.6467539713e+00 2.8522615459e+00 
27900 5.4483800049e+00 -1.4619448911e-04 1.6467584682e+00 -2.8522693348e+00 1.6467584682e+00 2.8522693348e+00 
28000 5.4483802178e+00 -1.4402209693e-04 1.6467629071e+00 -2.8522770231e+00 1.6467629071e+00 2.8522770231e+00 
28100 5.4483804257e+00 -1.4159699174e-04 1.6467672800e+00 -2.8522845972e+00 1.6467672800e+00 2.8522845972e+00 
28200 5.4483806288e+00 -1.3892768457e-04 1.6467715792e+00 -2.8522920437e+00 1.6467715792e+00 2.8522920437e+00 
28300 5.4483808272e+00 -1.3602312035e-04 1.6467757974e+00 -2.8522993498e+00 1.6467757974e+00 2.8522993498e+00 
28400 5.4483810209e+00 -1.3289263599e-04 1.6467799274e+00 -2.8523065031e+00 1.6467799274e+00 2.8523065031e+00 
28500 5.4483812102e+00 -1.2954591929e-04 1.6467839623e+00 -2.8523134918e+00 1.6467839623e+00 2.8523134918e+00 
28600 5.4483813952e+00 -1.2599296874e-04 1.6467878956e+00 -2.8523203045e+00 1.6467878956e+00 2.8523203045e+00 
28700 5.4483815759e+00 -1.2224405432e-04 1.6467917210e+00 -2.8523269303e+00 1.6467917210e+00 2.8523269303e+00 
28800 5.4483817525e+00 -1.1830967923e-04 1.6467954326e+00 -2.8523333590e+00 1.6467954326e+00 2.8523333590e+00 
28900 5.4483819251e+00 -1.1420054268e-04 1.6467990247e+00 -2.8523395807e+00 1.6467990247e+00 2.8523395807e+00 
29000 5.4483820938e+00 -1.0992750382e-04 1.6468024921e+00 -2.8523455863e+00 1.6468024921e+00 2.8523455863e+00 
29100 5.4483822587e+00 -1.0550154674e-04 1.6468058297e+00 -2.8523513672e+00 1.6468058297e+00 2.8523513672e+00 
29200 5.4483824199e+00 -1.0093374663e-04 1.6468090329e+00 -2.8523569154e+00 1.6468090329e+00 2.8523569154e+00 
29300 5.4483825774e+00 -9.6235237128e-05 1.6468120974e+00 -2.8523622233e+00 1.6468120974e+00 2.8523622233e+00 
29400 5.4483827315e+00 -9.1417178932e-05 1.6468150193e+00 -2.8523672841e+00 1.6468150193e+00 2.8523672841e+00 
29500 5.4483828821e+00 -8.6490729570e-05 1.6468177949e+00 -2.8523720915e+00 1.6468177949e+00 2.8523720915e+00 
29600 5.4483830293e+00 -8.1467014480e-05 1.6468204209e+00 -2.8523766399e+00 1.6468204209e+00 2.8523766399e+00 
29700 5.4483831733e+00 -7.6357099336e-05 1.6468228943e+00 -2.8523809241e+00 1.6468228943e+00 2.8523809241e+00 
29800 5.4483833141e+00 -7.1171963660e-05 1.6468252127e+00 -2.8523849395e+00 1.6468252127e+00 2.8523849395e+00 
29900 5.4483834517e+00 -6.5922475740e-05 1.6468273735e+00 -2.8523886823e+00 1.6468273735e+00 2.8523886823e+00 
30000 5.4483835864e+00 -6.2532935617e-05 1.6468273735e+00 -2.8523886823e+00 1.6468273735e+00 2.8523886823e+00 
30100 5.4483837181e+00 -5.8956894867e-05 1.6468273735e+00 -2.8523886823e+00 1.6468273735e+00 2.8523886823e+00 
30200 5.4483838468e+00 -5.5203525323e-05 1.6468273735e+00 -2.8523886823e+00 1.6468273735e+00 2.8523886823e+00 
30300 5.4483839726e+00 -5.1281959214e-05 1.6468273735e+00 -2.8523886823e+00 1.6468273735e+00 2.8523886823e+00 
30400 5.4483840956e+00 -4.7201272411e-05 1.6468273735e+00 -2.8523886823e+00 1.6468273735e+00 2.8523886823e+00 
30500 5.4483842158e+00 -4.2970468562e-05 1.6468273735e+00 -2.8523886823e+00 1.6468273735e+00 2.8523886823e+00 
30600 5.4483843332e+00 -3.8598464082e-05 1.6468273735e+00 -2.8523886823e+00 1.6468273735e+00 2.8523886823e+00 
30700 5.4483844480e+00 -3.4094074031e-05 1.6468273735e+00 -2.8523886823e+00 1.6468273735e+00 2.8523886823e+00 
30800 5.4483845602e+00 -2.9465998835e-05 1.6468273735e+00 -2.8523886823e+00 1.6468273735e+00 2.8523886823e+00 
30900 5.4483846699e+00 -2.4722811861e-05 1.6468273735e+00 -2.8523886823e+00 1.6468273735e+00 2.8523886823e+00 
31000 5.4483847770e+00 -1.9872947827e-05 1.6468273735e+00 -2.8523886823e+00 1.6468273735e+00 2.8523886823e+00 
31100 5.4483848817e+00 -1.4924692031e-05 1.6468273735e+00 -2.8523886823e+00 1.6468273735e+00 2.8523886823e+00 
31200 5.4483849840e+00 -9.8861703861e-06 1.6468273735e+00 -2.8523886823e+00 1.6468273735e+00 2.8523886823e+00 
31300 5.4483850840e+00 -4.7653402557e-06 1.6468273735e+00 -2.8523886823e+00 1.6468273735e+00 2.8523886823e+00 
31400 5.4483851817e+00 4.3001795053e-07 1.6468273735e+00 -2.8523886823e+00 1.6468273735e+00 2.8523886823e+00 
31500 5.4483852772e+00 5.6923084134e-06 1.6468273735e+00 -2.8523886823e+00 1.6468273735e+00 2.8523886823e+00 
31600 5.4483853704e+00 1.1014126806e-05 1.6468273735e+00 -2.8523886823e+00 1.6468273735e+00 2.8523886823e+00 
31700 5.4483854616e+00 1.6388266475e-05 1.6468273735e+00 -2.8523886823e+00 1.6468273735e+00 2.8523886823e+00 
31800 5.4483855506e+00 2.1807723925e-05 1.6468273735e+00 -2.8523886823e+00 1.6468273735e+00 2.8523886823e+00 
31900 5.4483856376e+00 2.7265703629e-05 1.6468273735e+00 -2.8523886823e+00 1.6468273735e+00 2.8523886823e+00 
32000 5.4483857227e+00 3.2755622166e-05 1.6468273735e+00 -2.8523886823e+00 1.6468273735e+00 2.8523886823e+00 
32100 5.4483858057e+00 3.8271111741e-05 1.6468273735e+00 -2.8523886823e+00 1.6468273735e+00 2.8523886823e+00 
32200 5.4483858869e+00 4.3806023082e-05 1.6468273735e+00 -2.8523886823e+00 1.6468273735e+00 2.8523886823e+00 
32300 5.4483859662e+00 4.9354427741e-05 1.6468273735e+00 -2.8523886823e+00 1.6468273735e+00 2.8523886823e+00 
32400 5.4483860436e+00 5.4910619841e-05 1.6468273735e+00 -2.8523886823e+00 1.6468273735e+00 2.8523886823e+00 
32500 5.4483861193e+00 6.0469117261e-05 1.6468273735e+00 -2.8523886823e+00 1.6468273735e+00 2.8523886823e+00 
32600 5.4483861933e+00 6.6024662301e-05 1.6468273735e+00 -2.8523886823e+00 1.6468273735e+00 2.8523886823e+00 
32700 5.4483862656e+00 7.1572221862e-05 1.6468273735e+00 -2.8523886823e+00 1.6468273735e+00 2.8523886823e+00 
32800 5.4483863360e+00 7.5029670741e-05 1.6468252005e+00 -2.8523849185e+00 1.6468252005e+00 2.8523849185e+00 
32900 5.4483864047e+00 7.8357952981e-05 1.6468229225e+00 -2.8523809728e+00 1.6468229225e+00 2.8523809728e+00 
33000 5.4483864718e+00 8.1554966702e-05 1.6468205434e+00 -2.8523768522e+00 1.6468205434e+00 2.8523768522e+00 
33100 5.4483865374e+00 8.4618938653e-05 1.6468180673e+00 -2.8523725634e+00 1.6468180673e+00 2.8523725634e+00 
33200 5.4483866013e+00 8.7548416846e-05 1.6468154981e+00 -2.8523681135e+00 1.6468154981e+00 2.8523681135e+00 
33300 5.4483866638e+00 9.0342262691e-05 1.6468128400e+00 -2.8523635095e+00 1.6468128400e+00 2.8523635095e+00 
33400 5.4483867248e+00 9.2999642730e-05 1.6468100971e+00 -2.8523587586e+00 1.6468100971e+00 2.8523587586e+00 
33500 5.4483867843e+00 9.5520019944e-05 1.6468072735e+00 -2.8523538679e+00 1.6468072735e+00 2.8523538679e+00 
33600 5.4483868425e+00 9.7903144738e-05 1.6468043733e+00 -2.8523488447e+00 1.6468043733e+00 2.8523488447e+00 
33700 5.4483868992e+00 1.0014904556e-04 1.6468014008e+00 -2.8523436961e+00 1.6468014008e+00 2.8523436961e+00 
33800 5.4483869547e+00 1.0225801925e-04 1.6467983601e+00 -2.8523384295e+00 1.6467983601e+00 2.8523384295e+00 
33900 5.4483870088e+00 1.0423062115e-04 1.6467952553e+00 -2.8523330519e+00 1.6467952553e+00 2.8523330519e+00 
34000 5.4483870617e+00 1.0606765492e-04 1.6467920907e+00 -2.8523275705e+00 1.6467920907e+00 2.8523275705e+00 
34100 5.4483871133e+00 1.0777016228e-04 1.6467888702e+00 -2.8523219926e+00 1.6467888702e+00 2.8523219926e+00 
34200 5.4483871637e+00 1.0933941245e-04 1.6467855981e+00 -2.8523163251e+00 1.6467855981e+00 2.8523163251e+00 
34300 5.4483872129e+00 1.1077689157e-04 1.6467822783e+00 -2.8523105751e+00 1.6467822783e+00 2.8523105751e+00 
34400 5.4483872610e+00 1.1208429195e-04 1.6467789149e+00 -2.8523047494e+00 1.6467789149e+00 2.8523047494e+00 
34500 5.4483873080e+00 1.1326350130e-04 1.6467755118e+00 -2.8522988550e+00 1.6467755118e+00 2.8522988550e+00 
34600 5.4483873539e+00 1.1431659185e-04 1.6467720728e+00 -2.8522928986e+00 1.6467720728e+00 2.8522928986e+00 
34700 5.4483873987e+00 1.1524580954e-04 1.6467686019e+00 -2.8522868868e+00 1.6467686019e+00 2.8522868868e+00 
34800 5.4483874426e+00 1.1605356310e-04 1.6467651027e+00 -2.8522808261e+00 1.6467651027e+00 2.8522808261e+00 
34900 5.4483874854e+00 1.1674241327e-04 1.6467615790e+00 -2.8522747229e+00 1.6467615790e+00 2.8522747229e+00 
35000 5.4483875272e+00 1.1731506204e-04 1.6467580344e+00 -2.8522685834e+00 1.6467580344e+00 2.8522685834e+00 
35100 5.4483875681e+00 1.1777434193e-04 1.6467544724e+00 -2.8522624139e+00 1.6467544724e+00 2.8522624139e+00 
35200 5.4483876081e+00 1.1812320538e-04 1.6467508965e+00 -2.8522562201e+00 1.6467508965e+00 2.8522562201e+00 
35300 5.4483876471e+00 1.1836471435e-04 1.6467473099e+00 -2.8522500080e+00 1.6467473099e+00 2.8522500080e+00 
35400 5.4483876853e+00 1.1850202993e-04 1.6467437160e+00 -2.8522437832e+00 1.6467437160e+00 2.8522437832e+00 
35500 5.4483877227e+00 1.1853840216e-04 1.6467401180e+00 -2.8522375512e+00 1.6467401180e+00 2.8522375512e+00 
35600 5.4483877592e+00 1.1847716006e-04 1.6467365188e+00 -2.8522313172e+00 1.6467365188e+00 2.8522313172e+00 
35700 5.4483877949e+00 1.1832170182e-04 1.6467329215e+00 -2.8522250865e+00 1.6467329215e+00 2.8522250865e+00 
35800 5.4483878299e+00 1.1807548518e-04 1.6467293288e+00 -2.8522188639e+00 1.6467293288e+00 2.8522188639e+00 
35900 5.4483878640e+00 1.1774201804e-04 1.6467257437e+00 -2.8522126542e+00 1.6467257437e+00 2.8522126542e+00 
36000 5.4483878974e+00 1.1732484934e-04 1.6467221687e+00 -2.8522064621e+00 1.6467221687e+00 2.8522064621e+00 
36100 5.4483879301e+00 1.1682756013e-04 1.6467186063e+00 -2.8522002919e+00 1.6467186063e+00 2.8522002919e+00 
36200 5.4483879621e+00 1.1625375493e-04 1.6467150590e+00 -2.8521941478e+00 1.6467150590e+00 2.8521941478e+00 
36300 5.4483879934e+00 1.1560705336e-04 1.6467115291e+00 -2.8521880339e+00 1.6467115291e+00 2.8521880339e+00 
36400 5.4483880240e+00 1.1489108200e-04 1.6467080189e+00 -2.8521819540e+00 1.6467080189e+00 2.8521819540e+00 
36500 5.4483880540e+00 1.1410946662e-04 1.6467045304e+00 -2.8521759117e+00 1.6467045304e+00 2.8521759117e+00 
36600 5.4483880833e+00 1.1326582459e-04 1.6467010656e+00 -2.8521699105e+00 1.6467010656e+00 2.8521699105e+00 
36700 5.4483881120e+00 1.1236375767e-04 1.6466976264e+00 -2.8521639537e+00 1.6466976264e+00 2.8521639537e+00 
36800 5.4483881401e+00 1.1140684508e-04 1.6466942147e+00 -2.8521580443e+00 1.6466942147e+00 2.8521580443e+00 
36900 5.4483881676e+00 1.1039863686e-04 1.6466908319e+00 -2.8521521852e+00 1.6466908319e+00 2.8521521852e+00 
37000 5.4483881945e+00 1.0934264754e-04 1.6466874798e+00 -2.8521463792e+00 1.6466874798e+00 2.8521463792e+00 
37100 5.4483882209e+00 1.0824235016e-04 1.6466841597e+00 -2.8521406286e+00 1.6466841597e+00 2.8521406286e+00 
37200 5.4483882467e+00 1.0710117052e-04 1.6466808730e+00 -2.8521349359e+00 1.6466808730e+00 2.8521349359e+00 
37300 5.4483882720e+00 1.0592248187e-04 1.6466776210e+00 -2.8521293032e+00 1.6466776210e+00 2.8521293032e+00 
37400 5.4483882967e+00 1.0470959979e-04 1.6466744047e+00 -2.8521237325e+00 1.6466744047e+00 2.8521237325e+00 
37500 5.4483883209e+00 1.0346577744e-04 1.6466712253e+00 -2.8521182256e+00 1.6466712253e+00 2.8521182256e+00 
37600 5.4483883446e+00 1.0219420115e-04 1.6466680837e+00 -2.8521127841e+00 1.6466680837e+00 2.8521127841e+00 
37700 5.4483883678e+00 1.0089798627e-04 1.6466649806e+00 -2.8521074094e+00 1.6466649806e+00 2.8521074094e+00 
37800 5.4483883906e+00 9.9580173356e-05 1.6466619169e+00 -2.8521021029e+00 1.6466619169e+00 2.8521021029e+00 
37900 5.4483884128e+00 9.8243724654e-05 1.6466588932e+00 -2.8520968657e+00 1.6466588932e+00 2.8520968657e+00 
38000 5.4483884346e+00 9.6891520884e-05 1.6466559101e+00 -2.8520916988e+00 1.6466559101e+00 2.8520916988e+00 
38100 5.4483884560e+00 9.5526358334e-05 1.6466529680e+00 -2.8520866030e+00 1.6466529680e+00 2.8520866030e+00 
38200 5.4483884769e+00 9.4150946238e-05 1.6466500674e+00 -2.8520815790e+00 1.6466500674e+00 2.8520815790e+00 
38300 5.4483884974e+00 9.2767904426e-05 1.6466472085e+00 -2.8520766273e+00 1.6466472085e+00 2.8520766273e+00 
38400 5.4483885174e+00 9.1379761299e-05 1.6466443916e+00 -2.8520717483e+00 1.6466443916e+00 2.8520717483e+00 
38500 5.4483885370e+00 8.9988952030e-05 1.6466416169e+00 -2.8520669424e+00 1.6466416169e+00 2.8520669424e+00 
38600 5.4483885563e+00 8.8597817063e-05 1.6466388844e+00 -2.8520622095e+00 1.6466388844e+00 2.8520622095e+00 
38700 5.4483885751e+00 8.7208600883e-05 1.6466361942e+00 -2.8520575499e+00 1.6466361942e+00 2.8520575499e+00 
38800 5.4483885936e+00 8.5823451011e-05 1.6466335461e+00 -2.8520529633e+00 1.6466335461e+00 2.8520529633e+00 
38900 5.4483886116e+00 8.4444417272e-05 1.6466309401e+00 -2.8520484495e+00 1.6466309401e+00 2.8520484495e+00 
39000 5.4483886293e+00 8.3073451298e-05 1.6466283759e+00 -2.8520440082e+00 1.6466283759e+00 2.8520440082e+00 
39100 5.4483886467e+00 8.1712406256e-05 1.6466258534e+00 -2.8520396391e+00 1.6466258534e+00 2.8520396391e+00 
39200 5.4483886637e+00 8.0363036799e-05 1.6466233722e+00 -2.8520353415e+00 1.6466233722e+00 2.8520353415e+00 
39300 5.4483886803e+00 7.9026999251e-05 1.6466209319e+00 -2.8520311149e+00 1.6466209319e+00 2.8520311149e+00 
39400 5.4483886966e+00 7.7705851984e-05 1.6466185322e+00 -2.8520269585e+00 1.6466185322e+00 2.8520269585e+00 
39500 5.4483887125e+00 7.6401055985e-05 1.6466161727e+00 -2.8520228717e+00 1.6466161727e+00 2.8520228717e+00 
39600 5.4483887282e+00 7.5113975638e-05 1.6466138527e+00 -2.8520188534e+00 1.6466138527e+00 2.8520188534e+00 
39700 5.4483887435e+00 7.3845879662e-05 1.6466115719e+00 -2.8520149028e+00 1.6466115719e+00 2.8520149028e+00 
39800 5.4483887585e+00 7.2597942239e-05 1.6466093295e+00 -2.8520110190e+00 1.6466093295e+00 2.8520110190e+00 
39900 5.4483887732e+00 7.1371244287e-05 1.6466071251e+00 -2.8520072007e+00 1.6466071251e+00 2.8520072007e+00 
40000 5.4483887876e+00 7.0166774902e-05 1.6466049578e+00 -2.8520034470e+00 1.6466049578e+00 2.8520034470e+00 
40100 5.4483888018e+00 7.1022192455e-05 1.6466049578e+00 -2.8520034470e+00 1.6466049578e+00 2.8520034470e+00 
40200 5.4483888156e+00 6.9816904672e-05 1.6466028012e+00 -2.8519997116e+00 1.6466028012e+00 2.8519997116e+00 
40300 5.4483888293e+00 7.0664846354e-05 1.6466028012e+00 -2.8519997116e+00 1.6466028012e+00 2.8519997116e+00 
40400 5.4483888428e+00 7.1516878245e-05 1.6466028012e+00 -2.8519997116e+00 1.6466028012e+00 2.8519997116e+00 
40500 5.4483888558e+00 7.0299004627e-05 1.6466006296e+00 -2.8519959502e+00 1.6466006296e+00 2.8519959502e+00 
40600 5.4483888686e+00 7.1153401306e-05 1.6466006296e+00 -2.8519959502e+00 1.6466006296e+00 2.8519959502e+00 
40700 5.4483888811e+00 6.9950952337e-05 1.6465984690e+00 -2.8519922079e+00 1.6465984690e+00 2.8519922079e+00 
40800 5.4483888935e+00 7.0812568046e-05 1.6465984690e+00 -2.8519922079e+00 1.6465984690e+00 2.8519922079e+00 
40900 5.4483889054e+00 6.9629344868e-05 1.6465963187e+00 -2.8519884835e+00 1.6465963187e+00 2.8519884835e+00 
41000 5.4483889173e+00 7.0502249362e-05 1.6465963187e+00 -2.8519884835e+00 1.6465963187e+00 2.8519884835e+00 
41100 5.4483889290e+00 7.1387500856e-05 1.6465963187e+00 -2.8519884835e+00 1.6465963187e+00 2.8519884835e+00 
41200 5.4483889402e+00 7.0214175614e-05 1.6465941510e+00 -2.8519847289e+00 1.6465941510e+00 2.8519847289e+00 
41300 5.4483889514e+00 7.1116185566e-05 1.6465941510e+00 -2.8519847289e+00 1.6465941510e+00 2.8519847289e+00 
41400 5.4483889622e+00 6.9968621535e-05 1.6465919915e+00 -2.8519809886e+00 1.6465919915e+00 2.8519809886e+00 
41500 5.4483889730e+00 7.0889509083e-05 1.6465919915e+00 -2.8519809886e+00 1.6465919915e+00 2.8519809886e+00 
41600 5.4483889833e+00 6.9768211693e-05 1.6465898389e+00 -2.8519772601e+00 1.6465898389e+00 2.8519772601e+00 
41700 5.4483889937e+00 7.0709465927e-05 1.6465898389e+00 -2.8519772601e+00 1.6465898389e+00 2.8519772601e+00 
41800 5.4483890038e+00 7.1666703649e-05 1.6465898389e+00 -2.8519772601e+00 1.6465898389e+00 2.8519772601e+00 
41900 5.4483890136e+00 7.0560347454e-05 1.6465876626e+00 -2.8519734908e+00 1.6465876626e+00 2.8519734908e+00 
42000 5.4483890233e+00 7.1539859742e-05 1.6465876626e+00 -2.8519734908e+00 1.6465876626e+00 2.8519734908e+00 
42100 5.4483890327e+00 7.0459493199e-05 1.6465854903e+00 -2.8519697282e+00 1.6465854903e+00 2.8519697282e+00 
42200 5.4483890421e+00 7.1461236973e-05 1.6465854903e+00 -2.8519697282e+00 1.6465854903e+00 2.8519697282e+00 
42300 5.4483890511e+00 7.0405187092e-05 1.6465833203e+00 -2.8519659696e+00 1.6465833203e+00 2.8519659696e+00 
42400 5.4483890602e+00 7.1428664641e-05 1.6465833203e+00 -2.8519659696e+00 1.6465833203e+00 2.8519659696e+00 
42500 5.4483890688e+00 7.0394890817e-05 1.6465811513e+00 -2.8519622128e+00 1.6465811513e+00 2.8519622128e+00 
42600 5.4483890775e+00 7.1439197978e-05 1.6465811513e+00 -2.8519622128e+00 1.6465811513e+00 2.8519622128e+00 
42700 5.4483890859e+00 7.0425362305e-05 1.6465789820e+00 -2.8519584555e+00 1.6465789820e+00 2.8519584555e+00 
42800 5.4483890942e+00 7.1489235966e-05 1.6465789820e+00 -2.8519584555e+00 1.6465789820e+00 2.8519584555e+00 
42900 5.4483891023e+00 7.0492769242e-05 1.6465768111e+00 -2.8519546954e+00 1.6465768111e+00 2.8519546954e+00 
43000 5.4483891103e+00 7.1574633815e-05 1.6465768111e+00 -2.8519546954e+00 1.6465768111e+00 2.8519546954e+00 
43100 5.4483891180e+00 7.0592797139e-05 1.6465746377e+00 -2.8519509309e+00 1.6465746377e+00 2.8519509309e+00 
43200 5.4483891258e+00 7.1690809703e-05 1.6465746377e+00 -2.8519509309e+00 1.6465746377e+00 2.8519509309e+00 
43300 5.4483891332e+00 7.0720751499e-05 1.6465724607e+00 -2.8519471603e+00 1.6465724607e+00 2.8519471603e+00 
43400 5.4483891405e+00 6.9780118347e-05 1.6465703132e+00 -2.8519434407e+00 1.6465703132e+00 2.8519434407e+00 
43500 5.4483891478e+00 7.0892598882e-05 1.6465703132e+00 -2.8519434407e+00 1.6465703132e+00 2.8519434407e+00 
43600 5.4483891548e+00 6.9958072214e-05 1.6465681605e+00 -2.8519397121e+00 1.6465681605e+00 2.8519397121e+00 
43700 5.4483891619e+00 7.1080534709e-05 1.6465681605e+00 -2.8519397121e+00 1.6465681605e+00 2.8519397121e+00 
43800 5.4483891686e+00 7.0149419098e-05 1.6465660020e+00 -2.8519359735e+00 1.6465660020e+00 2.8519359735e+00 
43900 5.4483891754e+00 7.1279572424e-05 1.6465660020e+00 -2.8519359735e+00 1.6465660020e+00 2.8519359735e+00 
44000 5.4483891819e+00 7.0349202136e-05 1.6465638375e+00 -2.8519322245e+00 1.6465638375e+00 2.8519322245e+00 
44100 5.4483891885e+00 7.1484658115e-05 1.6465638375e+00 -2.8519322245e+00 1.6465638375e+00 2.8519322245e+00 
44200 5.4483891947e+00 7.0552433768e-05 1.6465616668e+00 -2.8519284647e+00 1.6465616668e+00 2.8519284647e+00 
44300 5.4483892011e+00 7.1690740767e-05 1.6465616668e+00 -2.8519284647e+00 1.6465616668e+00 2.8519284647e+00 
44400 5.4483892071e+00 7.0754161694e-05 1.6465594898e+00 -2.8519246941e+00 1.6465594898e+00 2.8519246941e+00 
44500 5.4483892130e+00 6.9839137211e-05 1.6465573413e+00 -2.8519209727e+00 1.6465573413e+00 2.8519209727e+00 
44600 5.4483892190e+00 7.0971238298e-05 1.6465573413e+00 -2.8519209727e+00 1.6465573413e+00 2.8519209727e+00 
44700 5.4483892247e+00 7.0047056947e-05 1.6465551862e+00 -2.8519172399e+00 1.6465551862e+00 2.8519172399e+00 
44800 5.4483892304e+00 7.1175131219e-05 1.6465551862e+00 -2.8519172399e+00 1.6465551862e+00 2.8519172399e+00 
44900 5.4483892359e+00 7.0239872047e-05 1.6465530248e+00 -2.8519134963e+00 1.6465530248e+00 2.8519134963e+00 
45000 5.4483892415e+00 7.1361632944e-05 1.6465530248e+00 -2.8519134963e+00 1.6465530248e+00 2.8519134963e+00 
45100 5.4483892467e+00 7.0413533936e-05 1.6465508578e+00 -2.8519097430e+00 1.6465508578e+00 2.8519097430e+00 
45200 5.4483892521e+00 7.1526742800e-05 1.6465508578e+00 -2.8519097430e+00 1.6465508578e+00 2.8519097430e+00 
45300 5.4483892572e+00 7.0564215888e-05 1.6465486858e+00 -2.8519059809e+00 1.6465486858e+00 2.8519059809e+00 
45400 5.4483892623e+00 7.1666701815e-05 1.6465486858e+00 -2.8519059809e+00 1.6465486858e+00 2.8519059809e+00 
45500 5.4483892672e+00 7.0688344583e-05 1.6465465095e+00 -2.8519022115e+00 1.6465465095e+00 2.8519022115e+00 
45600 5.4483892722e+00 7.1778021961e-05 1.6465465095e+00 -2.8519022115e+00 1.6465465095e+00 2.8519022115e+00 
45700 5.4483892769e+00 7.0782626198e-05 1.6465443299e+00 -2.8518984363e+00 1.6465443299e+00 2.8518984363e+00 
45800 5.4483892815e+00 6.9802971410e-05 1.6465421804e+00 -2.8518947133e+00 1.6465421804e+00 2.8518947133e+00 
45900 5.4483892862e+00 7.0863920276e-05 1.6465421804e+00 -2.8518947133e+00 1.6465421804e+00 2.8518947133e+00 
46000 5.4483892907e+00 6.9864493066e-05 1.6465400285e+00 -2.8518909861e+00 1.6465400285e+00 2.8518909861e+00 
46100 5.4483892953e+00 7.0907216905e-05 1.6465400285e+00 -2.8518909861e+00 1.6465400285e+00 2.8518909861e+00 
46200 5.4483892995e+00 6.9887532344e-05 1.6465378753e+00 -2.8518872567e+00 1.6465378753e+00 2.8518872567e+00 
46300 5.4483893039e+00 7.0910507309e-05 1.6465378753e+00 -2.8518872567e+00 1.6465378753e+00 2.8518872567e+00 
46400 5.4483893081e+00 6.9870262375e-05 1.6465357220e+00 -2.8518835270e+00 1.6465357220e+00 2.8518835270e+00 
46500 5.4483893123e+00 7.0872091840e-05 1.6465357220e+00 -2.8518835270e+00 1.6465357220e+00 2.8518835270e+00 
46600 5.4483893163e+00 6.9811162999e-05 1.6465335699e+00 -2.8518797994e+00 1.6465335699e+00 2.8518797994e+00 
46700 5.4483893204e+00 7.0790583219e-05 1.6465335699e+00 -2.8518797994e+00 1.6465335699e+00 2.8518797994e+00 
46800 5.4483893242e+00 6.9709022201e-05 1.6465314202e+00 -2.8518760760e+00 1.6465314202e+00 2.8518760760e+00 
46900 5.4483893281e+00 7.0664906305e-05 1.6465314202e+00 -2.8518760760e+00 1.6465314202e+00 2.8518760760e+00 
47000 5.4483893320e+00 7.1614071103e-05 1.6465314202e+00 -2.8518760760e+00 1.6465314202e+00 2.8518760760e+00 
47100 5.4483893357e+00 7.0478072701e-05 1.6465292455e+00 -2.8518723093e+00 1.6465292455e+00 2.8518723093e+00 
47200 5.4483893394e+00 7.1403024507e-05 1.6465292455e+00 -2.8518723093e+00 1.6465292455e+00 2.8518723093e+00 
47300 5.4483893429e+00 7.0248432352e-05 1.6465270772e+00 -2.8518685537e+00 1.6465270772e+00 2.8518685537e+00 
47400 5.4483893465e+00 7.1148232163e-05 1.6465270772e+00 -2.8518685537e+00 1.6465270772e+00 2.8518685537e+00 
47500 5.4483893499e+00 6.9975448309e-05 1.6465249166e+00 -2.8518648115e+00 1.6465249166e+00 2.8518648115e+00 
47600 5.4483893534e+00 7.0849306176e-05 1.6465249166e+00 -2.8518648115e+00 1.6465249166e+00 2.8518648115e+00 
47700 5.4483893566e+00 6.9658892287e-05 1.6465227652e+00 -2.8518610851e+00 1.6465227652e+00 2.8518610851e+00 
47800 5.4483893600e+00 7.0506165606e-05 1.6465227652e+00 -2.8518610851e+00 1.6465227652e+00 2.8518610851e+00 
47900 5.4483893633e+00 7.1345371014e-05 1.6465227652e+00 -2.8518610851e+00 1.6465227652e+00 2.8518610851e+00 
48000 5.4483893663e+00 7.0105967061e-05 1.6465205986e+00 -2.8518573325e+00 1.6465205986e+00 2.8518573325e+00 
48100 5.4483893695e+00 7.0918644269e-05 1.6465205986e+00 -2.8518573325e+00 1.6465205986e+00 2.8518573325e+00 
48200 5.4483893725e+00 6.9664819583e-05 1.6465184450e+00 -2.8518536024e+00 1.6465184450e+00 2.8518536024e+00 
48300 5.4483893756e+00 7.0450517820e-05 1.6465184450e+00 -2.8518536024e+00 1.6465184450e+00 2.8518536024e+00 
48400 5.4483893786e+00 7.1228020566e-05 1.6465184450e+00 -2.8518536024e+00 1.6465184450e+00 2.8518536024e+00 
48500 5.4483893814e+00 6.9930230319e-05 1.6465162820e+00 -2.8518498560e+00 1.6465162820e+00 2.8518498560e+00 
48600 5.4483893843e+00 7.0681093917e-05 1.6465162820e+00 -2.8518498560e+00 1.6465162820e+00 2.8518498560e+00 
48700 5.4483893872e+00 7.1423966792e-05 1.6465162820e+00 -2.8518498560e+00 1.6465162820e+00 2.8518498560e+00 
48800 5.4483893899e+00 7.0086071658e-05 1.6465141131e+00 -2.8518460992e+00 1.6465141131e+00 2.8518460992e+00 
48900 5.4483893926e+00 7.0802710304e-05 1.6465141131e+00 -2.8518460992e+00 1.6465141131e+00 2.8518460992e+00 
49000 5.4483893952e+00 6.9456432856e-05 1.6465119630e+00 -2.8518423752e+00 1.6465119630e+00 2.8518423752e+00 
49100 5.4483893979e+00 7.0146611545e-05 1.6465119630e+00 -2.8518423752e+00 1.6465119630e+00 2.8518423752e+00 
49200 5.4483894005e+00 7.0828917034e-05 1.6465119630e+00 -2.8518423752e+00 1.6465119630e+00 2.8518423752e+00 
49300 5.4483894029e+00 6.9447874908e-05 1.6465098121e+00 -2.8518386498e+00 1.6465098121e+00 2.8518386498e+00 
49400 5.4483894055e+00 7.0104382375e-05 1.6465098121e+00 -2.8518386498e+00 1.6465098121e+00 2.8518386498e+00 
49500 5.4483894080e+00 7.0753356889e-05 1.6465098121e+00 -2.8518386498e+00 1.6465098121e+00 2.8518386498e+00 
49600 5.4483894103e+00 6.9341520126e-05 1.6465076635e+00 -2.8518349283e+00 1.6465076635e+00 2.8518349283e+00 
49700 5.4483894127e+00 6.9965401668e-05 1.6465076635e+00 -2.8518349283e+00 1.6465076635e+00 2.8518349283e+00 
49800 5.4483894151e+00 7.0582103292e-05 1.6465076635e+00 -2.8518349283e+00 1.6465076635e+00 2.8518349283e+00 
49900 5.4483894175e+00 7.1192073983e-05 1.6465076635e+00 -2.8518349283e+00 1.6465076635e+00 2.8518349283e+00 
50000 5.4483894196e+00 6.9729281376e-05 1.6465055016e+00 -2.8518311838e+00 1.6465055016e+00 2.8518311838e+00 
50100 5.4483894218e+00 7.0315632217e-05 1.6465055016e+00 -2.8518311838e+00 1.6465055016e+00 2.8518311838e+00 
50200 5.4483894241e+00 7.0895539029e-05 1.6465055016e+00 -2.8518311838e+00 1.6465055016e+00 2.8518311838e+00 
50300 5.4483894261e+00 6.9411578174e-05 1.6465033487e+00 -2.8518274548e+00 1.6465033487e+00 2.8518274548e+00 
50400 5.4483894282e+00 6.9968495738e-05 1.6465033487e+00 -2.8518274548e+00 1.6465033487e+00 2.8518274548e+00 
50500 5.4483894303e+00 7.0519268932e-05 1.6465033487e+00 -2.8518274548e+00 1.6465033487e+00 2.8518274548e+00 
50600 5.4483894324e+00 7.1064329042e-05 1.6465033487e+00 -2.8518274548e+00 1.6465033487e+00 2.8518274548e+00 
50700 5.4483894343e+00 6.9541331879e-05 1.6465011907e+00 -2.8518237170e+00 1.6465011907e+00 2.8518237170e+00 
50800 5.4483894363e+00 7.0064773882e-05 1.6465011907e+00 -2.8518237170e+00 1.6465011907e+00 2.8518237170e+00 
50900 5.4483894383e+00 7.0582737071e-05 1.6465011907e+00 -2.8518237170e+00 1.6465011907e+00 2.8518237170e+00 
51000 5.4483894402e+00 7.1095632073e-05 1.6465011907e+00 -2.8518237170e+00 1.6465011907e+00 2.8518237170e+00 
51100 5.4483894420e+00 6.9540185340e-05 1.6464990317e+00 -2.8518199775e+00 1.6464990317e+00 2.8518199775e+00 
51200 5.4483894439e+00 7.0032685594e-05 1.6464990317e+00 -2.8518199775e+00 1.6464990317e+00 2.8518199775e+00 
51300 5.4483894457e+00 7.0520290860e-05 1.6464990317e+00 -2.8518199775e+00 1.6464990317e+00 2.8518199775e+00 
51400 5.4483894475e+00 7.1003392077e-05 1.6464990317e+00 -2.8518199775e+00 1.6464990317e+00 2.8518199775e+00 
51500 5.4483894491e+00 6.9421373187e-05 1.6464968755e+00 -2.8518162429e+00 1.6464968755e+00 2.8518162429e+00 
51600 5.4483894509e+00 6.9885164722e-05 1.6464968755e+00 -2.8518162429e+00 1.6464968755e+00 2.8518162429e+00 
51700 5.4483894526e+00 7.0344569548e-05 1.6464968755e+00 -2.8518162429e+00 1.6464968755e+00 2.8518162429e+00 
51800 5.4483894543e+00 7.0799960213e-05 1.6464968755e+00 -2.8518162429e+00 1.6464968755e+00 2.8518162429e+00 
51900 5.4483894558e+00 6.9196606794e-05 1.6464947255e+00 -2.8518125189e+00 1.6464947255e+00 2.8518125189e+00 
52000 5.4483894575e+00 6.9633646395e-05 1.6464947255e+00 -2.8518125189e+00 1.6464947255e+00 2.8518125189e+00 
52100 5.4483894591e+00 7.0066739125e-05 1.6464947255e+00 -2.8518125189e+00 1.6464947255e+00 2.8518125189e+00 
52200 5.4483894607e+00 7.0496240630e-05 1.6464947255e+00 -2.8518125189e+00 1.6464947255e+00 2.8518125189e+00 
52300 5.4483894623e+00 7.0922484606e-05 1.6464947255e+00 -2.8518125189e+00 1.6464947255e+00 2.8518125189e+00 
52400 5.4483894636e+00 6.9287147333e-05 1.6464925717e+00 -2.8518087885e+00 1.6464925717e+00 2.8518087885e+00 
52500 5.4483894651e+00 6.9696420575e-05 1.6464925717e+00 -2.8518087885e+00 1.6464925717e+00 2.8518087885e+00 
52600 5.4483894666e+00 7.0102390883e-05 1.6464925717e+00 -2.8518087885e+00 1.6464925717e+00 2.8518087885e+00 
52700 5.4483894681e+00 7.0505378890e-05 1.6464925717e+00 -2.8518087885e+00 1.6464925717e+00 2.8518087885e+00 
52800 5.4483894695e+00 7.0905684288e-05 1.6464925717e+00 -2.8518087885e+00 1.6464925717e+00 2.8518087885e+00 
52900 5.4483894708e+00 6.9245438186e-05 1.6464904185e+00 -2.8518050590e+00 1.6464904185e+00 2.8518050590e+00 
53000 5.4483894722e+00 6.9629827245e-05 1.6464904185e+00 -2.8518050590e+00 1.6464904185e+00 2.8518050590e+00 
53100 5.4483894735e+00 7.0011392783e-05 1.6464904185e+00 -2.8518050590e+00 1.6464904185e+00 2.8518050590e+00 
53200 5.4483894749e+00 7.0390425632e-05 1.6464904185e+00 -2.8518050590e+00 1.6464904185e+00 2.8518050590e+00 
53300 5.4483894762e+00 7.0767196776e-05 1.6464904185e+00 -2.8518050590e+00 1.6464904185e+00 2.8518050590e+00 
53400 5.4483894773e+00 6.9087829224e-05 1.6464882695e+00 -2.8518013368e+00 1.6464882695e+00 2.8518013368e+00 
53500 5.4483894786e+00 6.9449466085e-05 1.6464882695e+00 -2.8518013368e+00 1.6464882695e+00 2.8518013368e+00 
53600 5.4483894799e+00 6.9808622640e-05 1.6464882695e+00 -2.8518013368e+00 1.6464882695e+00 2.8518013368e+00 
53700 5.4483894811e+00 7.0165565287e-05 1.6464882695e+00 -2.8518013368e+00 1.6464882695e+00 2.8518013368e+00 
53800 5.4483894824e+00 7.0520541672e-05 1.6464882695e+00 -2.8518013368e+00 1.6464882695e+00 2.8518013368e+00 
53900 5.4483894836e+00 7.0873781135e-05 1.6464882695e+00 -2.8518013368e+00 1.6464882695e+00 2.8518013368e+00 
54000 5.4483894846e+00 6.9168273457e-05 1.6464861172e+00 -2.8517976090e+00 1.6464861172e+00 2.8517976090e+00 
54100 5.4483894857e+00 6.9507292129e-05 1.6464861172e+00 -2.8517976090e+00 1.6464861172e+00 2.8517976090e+00 
54200 5.4483894869e+00 6.9844238377e-05 1.6464861172e+00 -2.8517976090e+00 1.6464861172e+00 2.8517976090e+00 
54300 5.4483894880e+00 7.0179343328e-05 1.6464861172e+00 -2.8517976090e+00 1.6464861172e+00 2.8517976090e+00 
54400 5.4483894891e+00 7.0512820931e-05 1.6464861172e+00 -2.8517976090e+00 1.6464861172e+00 2.8517976090e+00 
54500 5.4483894902e+00 7.0844868395e-05 1.6464861172e+00 -2.8517976090e+00 1.6464861172e+00 2.8517976090e+00 
54600 5.4483894911e+00 6.9119284112e-05 1.6464839658e+00 -2.8517938826e+00 1.6464839658e+00 2.8517938826e+00 
54700 5.4483894922e+00 6.9437638547e-05 1.6464839658e+00 -2.8517938826e+00 1.6464839658e+00 2.8517938826e+00 
54800 5.4483894932e+00 6.9754140654e-05 1.6464839658e+00 -2.8517938826e+00 1.6464839658e+00 2.8517938826e+00 
54900 5.4483894942e+00 7.0068995552e-05 1.6464839658e+00 -2.8517938826e+00 1.6464839658e+00 2.8517938826e+00 
55000 5.4483894952e+00 7.0382392678e-05 1.6464839658e+00 -2.8517938826e+00 1.6464839658e+00 2.8517938826e+00 
55100 5.4483894962e+00 7.0694506197e-05 1.6464839658e+00 -2.8517938826e+00 1.6464839658e+00 2.8517938826e+00 
55200 5.4483894972e+00 7.1005495435e-05 1.6464839658e+00 -2.8517938826e+00 1.6464839658e+00 2.8517938826e+00 
55300 5.4483894980e+00 6.9254460809e-05 1.6464818095e+00 -2.8517901479e+00 1.6464818095e+00 2.8517901479e+00 
55400 5.4483894989e+00 6.9552236575e-05 1.6464818095e+00 -2.8517901479e+00 1.6464818095e+00 2.8517901479e+00 
55500 5.4483894999e+00 6.9848361448e-05 1.6464818095e+00 -2.8517901479e+00 1.6464818095e+00 2.8517901479e+00 
55600 5.4483895008e+00 7.0143010269e-05 1.6464818095e+00 -2.8517901479e+00 1.6464818095e+00 2.8517901479e+00 
55700 5.4483895017e+00 7.0436343996e-05 1.6464818095e+00 -2.8517901479e+00 1.6464818095e+00 2.8517901479e+00 
55800 5.4483895026e+00 7.0728510098e-05 1.6464818095e+00 -2.8517901479e+00 1.6464818095e+00 2.8517901479e+00 
55900 5.4483895033e+00 6.8966636975e-05 1.6464796617e+00 -2.8517864276e+00 1.6464796617e+00 2.8517864276e+00 
56000 5.4483895041e+00 6.9245516742e-05 1.6464796617e+00 -2.8517864276e+00 1.6464796617e+00 2.8517864276e+00 
56100 5.4483895050e+00 6.9522677979e-05 1.6464796617e+00 -2.8517864276e+00 1.6464796617e+00 2.8517864276e+00 
56200 5.4483895058e+00 6.9798288346e-05 1.6464796617e+00 -2.8517864276e+00 1.6464796617e+00 2.8517864276e+00 
56300 5.4483895066e+00 7.0072502753e-05 1.6464796617e+00 -2.8517864276e+00 1.6464796617e+00 2.8517864276e+00 
56400 5.4483895074e+00 7.0345463699e-05 1.6464796617e+00 -2.8517864276e+00 1.6464796617e+00 2.8517864276e+00 
56500 5.4483895082e+00 7.0617301628e-05 1.6464796617e+00 -2.8517864276e+00 1.6464796617e+00 2.8517864276e+00 
56600 5.4483895090e+00 7.0888135272e-05 1.6464796617e+00 -2.8517864276e+00 1.6464796617e+00 2.8517864276e+00 
56700 5.4483895096e+00 6.9100432717e-05 1.6464775090e+00 -2.8517826990e+00 1.6464775090e+00 2.8517826990e+00 
56800 5.4483895103e+00 6.9358201670e-05 1.6464775090e+00 -2.8517826990e+00 1.6464775090e+00 2.8517826990e+00 
56900 5.4483895111e+00 6.9614337675e-05 1.6464775090e+00 -2.8517826990e+00 1.6464775090e+00 2.8517826990e+00 
57000 5.4483895118e+00 6.9868986681e-05 1.6464775090e+00 -2.8517826990e+00 1.6464775090e+00 2.8517826990e+00 
57100 5.4483895125e+00 7.0122283517e-05 1.6464775090e+00 -2.8517826990e+00 1.6464775090e+00 2.8517826990e+00 
57200 5.4483895132e+00 7.0374352192e-05 1.6464775090e+00 -2.8517826990e+00 1.6464775090e+00 2.8517826990e+00 
57300 5.4483895139e+00 7.0625306200e-05 1.6464775090e+00 -2.8517826990e+00 1.6464775090e+00 2.8517826990e+00 
57400 5.4483895146e+00 7.0875248836e-05 1.6464775090e+00 -2.8517826990e+00 1.6464775090e+00 2.8517826990e+00 
57500 5.4483895151e+00 6.9067007367e-05 1.6464753566e+00 -2.8517789711e+00 1.6464753566e+00 2.8517789711e+00 
57600 5.4483895158e+00 6.9303832447e-05 1.6464753566e+00 -2.8517789711e+00 1.6464753566e+00 2.8517789711e+00 
57700 5.4483895164e+00 6.9538979964e-05 1.6464753566e+00 -2.8517789711e+00 1.6464753566e+00 2.8517789711e+00 
57800 5.4483895170e+00 6.9772585991e-05 1.6464753566e+00 -2.8517789711e+00 1.6464753566e+00 2.8517789711e+00 
57900 5.4483895177e+00 7.0004776757e-05 1.6464753566e+00 -2.8517789711e+00 1.6464753566e+00 2.8517789711e+00 
58000 5.4483895183e+00 7.0235668901e-05 1.6464753566e+00 -2.8517789711e+00 1.6464753566e+00 2.8517789711e+00 
58100 5.4483895189e+00 7.0465369728e-05 1.6464753566e+00 -2.8517789711e+00 1.6464753566e+00 2.8517789711e+00 
58200 5.4483895195e+00 7.0693977484e-05 1.6464753566e+00 -2.8517789711e+00 1.6464753566e+00 2.8517789711e+00 
58300 5.4483895201e+00 7.0921581624e-05 1.6464753566e+00 -2.8517789711e+00 1.6464753566e+00 2.8517789711e+00 
58400 5.4483895205e+00 6.9089651164e-05 1.6464732029e+00 -2.8517752407e+00 1.6464732029e+00 2.8517752407e+00 
58500 5.4483895211e+00 6.9304109492e-05 1.6464732029e+00 -2.8517752407e+00 1.6464732029e+00 2.8517752407e+00 
58600 5.4483895217e+00 6.9516863952e-05 1.6464732029e+00 -2.8517752407e+00 1.6464732029e+00 2.8517752407e+00 
58700 5.4483895222e+00 6.9728042018e-05 1.6464732029e+00 -2.8517752407e+00 1.6464732029e+00 2.8517752407e+00 
58800 5.4483895228e+00 6.9937762511e-05 1.6464732029e+00 -2.8517752407e+00 1.6464732029e+00 2.8517752407e+00 
58900 5.4483895233e+00 7.0146135800e-05 1.6464732029e+00 -2.8517752407e+00 1.6464732029e+00 2.8517752407e+00 
59000 5.4483895238e+00 7.0353264018e-05 1.6464732029e+00 -2.8517752407e+00 1.6464732029e+00 2.8517752407e+00 
59100 5.4483895244e+00 7.0559241285e-05 1.6464732029e+00 -2.8517752407e+00 1.6464732029e+00 2.8517752407e+00 
59200 5.4483895249e+00 7.0764153927e-05 1.6464732029e+00 -2.8517752407e+00 1.6464732029e+00 2.8517752407e+00 
59300 5.4483895252e+00 6.8914036681e-05 1.6464710539e+00 -2.8517715186e+00 1.6464710539e+00 2.8517715186e+00 
59400 5.4483895257e+00 6.9105700942e-05 1.6464710539e+00 -2.8517715186e+00 1.6464710539e+00 2.8517715186e+00 
59500 5.4483895262e+00 6.9295598549e-05 1.6464710539e+00 -2.8517715186e+00 1.6464710539e+00 2.8517715186e+00 
59600 5.4483895267e+00 6.9483857230e-05 1.6464710539e+00 -2.8517715186e+00 1.6464710539e+00 2.8517715186e+00 
59700 5.4483895272e+00 6.9670596826e-05 1.6464710539e+00 -2.8517715186e+00 1.6464710539e+00 2.8517715186e+00 
59800 5.4483895276e+00 6.9855929454e-05 1.6464710539e+00 -2.8517715186e+00 1.6464710539e+00 2.8517715186e+00 
59900 5.4483895281e+00 7.0039959676e-05 1.6464710539e+00 -2.8517715186e+00 1.6464710539e+00 2.8517715186e+00 
60000 5.4483895285e+00 7.0222784676e-05 1.6464710539e+00 -2.8517715186e+00 1.6464710539e+00 2.8517715186e+00 
60100 5.4483895290e+00 7.0404494441e-05 1.6464710539e+00 -2.8517715186e+00 1.6464710539e+00 2.8517715186e+00 
60200 5.4483895294e+00 7.0585171961e-05 1.6464710539e+00 -2.8517715186e+00 1.6464710539e+00 2.8517715186e+00 
60300 5.4483895299e+00 7.0764893423e-05 1.6464710539e+00 -2.8517715186e+00 1.6464710539e+00 2.8517715186e+00 
60400 5.4483895301e+00 6.8889661732e-05 1.6464689049e+00 -2.8517677964e+00 1.6464689049e+00 2.8517677964e+00 
60500 5.4483895305e+00 6.9056324969e-05 1.6464689049e+00 -2.8517677964e+00 1.6464689049e+00 2.8517677964e+00 
60600 5.4483895310e+00 6.9221305317e-05 1.6464689049e+00 -2.8517677964e+00 1.6464689049e+00 2.8517677964e+00 
60700 5.4483895314e+00 6.9384723989e-05 1.6464689049e+00 -2.8517677964e+00 1.6464689049e+00 2.8517677964e+00 
60800 5.4483895318e+00 6.9546695137e-05 1.6464689049e+00 -2.8517677964e+00 1.6464689049e+00 2.8517677964e+00 
60900 5.4483895322e+00 6.9707325983e-05 1.6464689049e+00 -2.8517677964e+00 1.6464689049e+00 2.8517677964e+00 
61000 5.4483895325e+00 6.9866716955e-05 1.6464689049e+00 -2.8517677964e+00 1.6464689049e+00 2.8517677964e+00 
61100 5.4483895329e+00 7.0024961830e-05 1.6464689049e+00 -2.8517677964e+00 1.6464689049e+00 2.8517677964e+00 
61200 5.4483895333e+00 7.0182147884e-05 1.6464689049e+00 -2.8517677964e+00 1.6464689049e+00 2.8517677964e+00 
61300 5.4483895337e+00 7.0338356055e-05 1.6464689049e+00 -2.8517677964e+00 1.6464689049e+00 2.8517677964e+00 
61400 5.4483895340e+00 7.0493661106e-05 1.6464689049e+00 -2.8517677964e+00 1.6464689049e+00 2.8517677964e+00 
61500 5.4483895344e+00 7.0648131794e-05 1.6464689049e+00 -2.8517677964e+00 1.6464689049e+00 2.8517677964e+00 
61600 5.4483895348e+00 7.0801831055e-05 1.6464689049e+00 -2.8517677964e+00 1.6464689049e+00 2.8517677964e+00 
61700 5.4483895349e+00 6.8899676260e-05 1.6464667548e+00 -2.8517640723e+00 1.6464667548e+00 2.8517640723e+00 
61800 5.4483895353e+00 6.9040644432e-05 1.6464667548e+00 -2.8517640723e+00 1.6464667548e+00 2.8517640723e+00 
61900 5.4483895356e+00 6.9180079753e-05 1.6464667548e+00 -2.8517640723e+00 1.6464667548e+00 2.8517640723e+00 
62000 5.4483895359e+00 6.9318093873e-05 1.6464667548e+00 -2.8517640723e+00 1.6464667548e+00 2.8517640723e+00 
62100 5.4483895363e+00 6.9454792232e-05 1.6464667548e+00 -2.8517640723e+00 1.6464667548e+00 2.8517640723e+00 
62200 5.4483895366e+00 6.9590274163e-05 1.6464667548e+00 -2.8517640723e+00 1.6464667548e+00 2.8517640723e+00 
62300 5.4483895369e+00 6.9724632994e-05 1.6464667548e+00 -2.8517640723e+00 1.6464667548e+00 2.8517640723e+00 
62400 5.4483895372e+00 6.9857956167e-05 1.6464667548e+00 -2.8517640723e+00 1.6464667548e+00 2.8517640723e+00 
62500 5.4483895375e+00 6.9990325365e-05 1.6464667548e+00 -2.8517640723e+00 1.6464667548e+00 2.8517640723e+00 
62600 5.4483895378e+00 7.0121816634e-05 1.6464667548e+00 -2.8517640723e+00 1.6464667548e+00 2.8517640723e+00 
62700 5.4483895381e+00 7.0252500523e-05 1.6464667548e+00 -2.8517640723e+00 1.6464667548e+00 2.8517640723e+00 
62800 5.4483895384e+00 7.0382442228e-05 1.6464667548e+00 -2.8517640723e+00 1.6464667548e+00 2.8517640723e+00 
62900 5.4483895387e+00 7.0511701739e-05 1.6464667548e+00 -2.8517640723e+00 1.6464667548e+00 2.8517640723e+00 
63000 5.4483895390e+00 7.0640333986e-05 1.6464667548e+00 -2.8517640723e+00 1.6464667548e+00 2.8517640723e+00 
63100 5.4483895393e+00 7.0768389001e-05 1.6464667548e+00 -2.8517640723e+00 1.6464667548e+00 2.8517640723e+00 
63200 5.4483895394e+00 6.8841741604e-05 1.6464646057e+00 -2.8517603500e+00 1.6464646057e+00 2.8517603500e+00 
63300 5.4483895397e+00 6.8957423975e-05 1.6464646057e+00 -2.8517603500e+00 1.6464646057e+00 2.8517603500e+00 
63400 5.4483895399e+00 6.9071734790e-05 1.6464646057e+00 -2.8517603500e+00 1.6464646057e+00 2.8517603500e+00 
63500 5.4483895402e+00 6.9184776237e-05 1.6464646057e+00 -2.8517603500e+00 1.6464646057e+00 2.8517603500e+00 
63600 5.4483895405e+00 6.9296645104e-05 1.6464646057e+00 -2.8517603500e+00 1.6464646057e+00 2.8517603500e+00 
63700 5.4483895407e+00 6.9407432851e-05 1.6464646057e+00 -2.8517603500e+00 1.6464646057e+00 2.8517603500e+00 
63800 5.4483895410e+00 6.9517225695e-05 1.6464646057e+00 -2.8517603500e+00 1.6464646057e+00 2.8517603500e+00 
63900 5.4483895412e+00 6.9626104695e-05 1.6464646057e+00 -2.8517603500e+00 1.6464646057e+00 2.8517603500e+00 
64000 5.4483895415e+00 6.9734145847e-05 1.6464646057e+00 -2.8517603500e+00 1.6464646057e+00 2.8517603500e+00 
64100 5.4483895417e+00 6.9841420192e-05 1.6464646057e+00 -2.8517603500e+00 1.6464646057e+00 2.8517603500e+00 
64200 5.4483895419e+00 6.9947993920e-05 1.6464646057e+00 -2.8517603500e+00 1.6464646057e+00 2.8517603500e+00 
64300 5.4483895422e+00 7.0053928485e-05 1.6464646057e+00 -2.8517603500e+00 1.6464646057e+00 2.8517603500e+00 
64400 5.4483895424e+00 7.0159280728e-05 1.6464646057e+00 -2.8517603500e+00 1.6464646057e+00 2.8517603500e+00 
64500 5.4483895426e+00 7.0264102995e-05 1.6464646057e+00 -2.8517603500e+00 1.6464646057e+00 2.8517603500e+00 
64600 5.4483895429e+00 7.0368443273e-05 1.6464646057e+00 -2.8517603500e+00 1.6464646057e+00 2.8517603500e+00 
64700 5.4483895431e+00 7.0472345310e-05 1.6464646057e+00 -2.8517603500e+00 1.6464646057e+00 2.8517603500e+00 
64800 5.4483895433e+00 7.0575848765e-05 1.6464646057e+00 -2.8517603500e+00 1.6464646057e+00 2.8517603500e+00 
64900 5.4483895435e+00 7.0678989328e-05 1.6464646057e+00 -2.8517603500e+00 1.6464646057e+00 2.8517603500e+00 
65000 5.4483895437e+00 7.0781798872e-05 1.6464646057e+00 -2.8517603500e+00 1.6464646057e+00 2.8517603500e+00 
65100 5.4483895437e+00 6.8829744782e-05 1.6464624562e+00 -2.8517566269e+00 1.6464624562e+00 2.8517566269e+00 
65200 5.4483895439e+00 6.8920621487e-05 1.6464624562e+00 -2.8517566269e+00 1.6464624562e+00 2.8517566269e+00 
65300 5.4483895441e+00 6.9010324518e-05 1.6464624562e+00 -2.8517566269e+00 1.6464624562e+00 2.8517566269e+00 
65400 5.4483895443e+00 6.9098942039e-05 1.6464624562e+00 -2.8517566269e+00 1.6464624562e+00 2.8517566269e+00 
65500 5.4483895445e+00 6.9186557788e-05 1.6464624562e+00 -2.8517566269e+00 1.6464624562e+00 2.8517566269e+00 
65600 5.4483895447e+00 6.9273251128e-05 1.6464624562e+00 -2.8517566269e+00 1.6464624562e+00 2.8517566269e+00 
65700 5.4483895449e+00 6.9359097102e-05 1.6464624562e+00 -2.8517566269e+00 1.6464624562e+00 2.8517566269e+00 
65800 5.4483895451e+00 6.9444166498e-05 1.6464624562e+00 -2.8517566269e+00 1.6464624562e+00 2.8517566269e+00 
65900 5.4483895453e+00 6.9528525912e-05 1.6464624562e+00 -2.8517566269e+00 1.6464624562e+00 2.8517566269e+00 
66000 5.4483895455e+00 6.9612237832e-05 1.6464624562e+00 -2.8517566269e+00 1.6464624562e+00 2.8517566269e+00 
66100 5.4483895457e+00 6.9695360711e-05 1.6464624562e+00 -2.8517566269e+00 1.6464624562e+00 2.8517566269e+00 
66200 5.4483895458e+00 6.9777949058e-05 1.6464624562e+00 -2.8517566269e+00 1.6464624562e+00 2.8517566269e+00 
66300 5.4483895460e+00 6.9860053526e-05 1.6464624562e+00 -2.8517566269e+00 1.6464624562e+00 2.8517566269e+00 
66400 5.4483895462e+00 6.9941721008e-05 1.6464624562e+00 -2.8517566269e+00 1.6464624562e+00 2.8517566269e+00 
66500 5.4483895463e+00 7.0022994735e-05 1.6464624562e+00 -2.8517566269e+00 1.6464624562e+00 2.8517566269e+00 
66600 5.4483895465e+00 7.0103914378e-05 1.6464624562e+00 -2.8517566269e+00 1.6464624562e+00 2.8517566269e+00 
66700 5.4483895467e+00 7.0184516153e-05 1.6464624562e+00 -2.8517566269e+00 1.6464624562e+00 2.8517566269e+00 
66800 5.4483895468e+00 7.0264832927e-05 1.6464624562e+00 -2.8517566269e+00 1.6464624562e+00 2.8517566269e+00 
66900 5.4483895470e+00 7.0344894330e-05 1.6464624562e+00 -2.8517566269e+00 1.6464624562e+00 2.8517566269e+00 
67000 5.4483895471e+00 7.0424726868e-05 1.6464624562e+00 -2.8517566269e+00 1.6464624562e+00 2.8517566269e+00 
67100 5.4483895473e+00 7.0504354031e-05 1.6464624562e+00 -2.8517566269e+00 1.6464624562e+00 2.8517566269e+00 
67200 5.4483895475e+00 7.0583796411e-05 1.6464624562e+00 -2.8517566269e+00 1.6464624562e+00 2.8517566269e+00 
67300 5.4483895476e+00 7.0663071817e-05 1.6464624562e+00 -2.8517566269e+00 1.6464624562e+00 2.8517566269e+00 
67400 5.4483895477e+00 7.0742195389e-05 1.6464624562e+00 -2.8517566269e+00 1.6464624562e+00 2.8517566269e+00 
67500 5.4483895477e+00 6.8767767092e-05 1.6464603079e+00 -2.8517529059e+00 1.6464603079e+00 2.8517529059e+00 
67600 5.4483895479e+00 6.8835276637e-05 1.6464603079e+00 -2.8517529059e+00 1.6464603079e+00 2.8517529059e+00 
67700 5.4483895480e+00 6.8901748717e-05 1.6464603079e+00 -2.8517529059e+00 1.6464603079e+00 2.8517529059e+00 
67800 5.4483895481e+00 6.8967259077e-05 1.6464603079e+00 -2.8517529059e+00 1.6464603079e+00 2.8517529059e+00 
67900 5.4483895483e+00 6.9031880057e-05 1.6464603079e+00 -2.8517529059e+00 1.6464603079e+00 2.8517529059e+00 
68000 5.4483895484e+00 6.9095680612e-05 1.6464603079e+00 -2.8517529059e+00 1.6464603079e+00 2.8517529059e+00 
68100 5.4483895485e+00 6.9158726334e-05 1.6464603079e+00 -2.8517529059e+00 1.6464603079e+00 2.8517529059e+00 
68200 5.4483895487e+00 6.9221079479e-05 1.6464603079e+00 -2.8517529059e+00 1.6464603079e+00 2.8517529059e+00 
68300 5.4483895488e+00 6.9282799015e-05 1.6464603079e+00 -2.8517529059e+00 1.6464603079e+00 2.8517529059e+00 
68400 5.4483895489e+00 6.9343940656e-05 1.6464603079e+00 -2.8517529059e+00 1.6464603079e+00 2.8517529059e+00 
68500 5.4483895490e+00 6.9404556915e-05 1.6464603079e+00 -2.8517529059e+00 1.6464603079e+00 2.8517529059e+00 
68600 5.4483895492e+00 6.9464697151e-05 1.6464603079e+00 -2.8517529059e+00 1.6464603079e+00 2.8517529059e+00 
68700 5.4483895493e+00 6.9524407635e-05 1.6464603079e+00 -2.8517529059e+00 1.6464603079e+00 2.8517529059e+00 
68800 5.4483895494e+00 6.9583731603e-05 1.6464603079e+00 -2.8517529059e+00 1.6464603079e+00 2.8517529059e+00 
68900 5.4483895495e+00 6.9642709325e-05 1.6464603079e+00 -2.8517529059e+00 1.6464603079e+00 2.8517529059e+00 
69000 5.4483895496e+00 6.9701378175e-05 1.6464603079e+00 -2.8517529059e+00 1.6464603079e+00 2.8517529059e+00 
69100 5.4483895498e+00 6.9759772699e-05 1.6464603079e+00 -2.8517529059e+00 1.6464603079e+00 2.8517529059e+00 
69200 5.4483895499e+00 6.9817924695e-05 1.6464603079e+00 -2.8517529059e+00 1.6464603079e+00 2.8517529059e+00 
69300 5.4483895500e+00 6.9875863283e-05 1.6464603079e+00 -2.8517529059e+00 1.6464603079e+00 2.8517529059e+00 
69400 5.4483895501e+00 6.9933614990e-05 1.6464603079e+00 -2.8517529059e+00 1.6464603079e+00 2.8517529059e+00 
69500 5.4483895502e+00 6.9991203829e-05 1.6464603079e+00 -2.8517529059e+00 1.6464603079e+00 2.8517529059e+00 
69600 5.4483895503e+00 7.0048651384e-05 1.6464603079e+00 -2.8517529059e+00 1.6464603079e+00 2.8517529059e+00 
69700 5.4483895504e+00 7.0105976891e-05 1.6464603079e+00 -2.8517529059e+00 1.6464603079e+00 2.8517529059e+00 
69800 5.4483895505e+00 7.0163197326e-05 1.6464603079e+00 -2.8517529059e+00 1.6464603079e+00 2.8517529059e+00 
69900 5.4483895506e+00 7.0220327491e-05 1.6464603079e+00 -2.8517529059e+00 1.6464603079e+00 2.8517529059e+00 
70000 5.4483895507e+00 7.0277380099e-05 1.6464603079e+00 -2.8517529059e+00 1.6464603079e+00 2.8517529059e+00 
70100 5.4483895508e+00 7.0334365864e-05 1.6464603079e+00 -2.8517529059e+00 1.6464603079e+00 2.8517529059e+00 
70200 5.4483895509e+00 7.0391293587e-05 1.6464603079e+00 -2.8517529059e+00 1.6464603079e+00 2.8517529059e+00 
70300 5.4483895510e+00 7.0448170245e-05 1.6464603079e+00 -2.8517529059e+00 1.6464603079e+00 2.8517529059e+00 
70400 5.4483895511e+00 7.0505001079e-05 1.6464603079e+00 -2.8517529059e+00 1.6464603079e+00 2.8517529059e+00 
70500 5.4483895512e+00 7.0561789675e-05 1.6464603079e+00 -2.8517529059e+00 1.6464603079e+00 2.8517529059e+00 
70600 5.4483895513e+00 7.0618538059e-05 1.6464603079e+00 -2.8517529059e+00 1.6464603079e+00 2.8517529059e+00 
70700 5.4483895514e+00 7.0675246776e-05 1.6464603079e+00 -2.8517529059e+00 1.6464603079e+00 2.8517529059e+00 
70800 5.4483895515e+00 7.0731914978e-05 1.6464603079e+00 -2.8517529059e+00 1.6464603079e+00 2.8517529059e+00 
70900 5.4483895514e+00 6.8735424746e-05 1.6464581599e+00 -2.8517491855e+00 1.6464581599e+00 2.8517491855e+00 
71000 5.4483895515e+00 6.8780659957e-05 1.6464581599e+00 -2.8517491855e+00 1.6464581599e+00 2.8517491855e+00 
71100 5.4483895515e+00 6.8824928537e-05 1.6464581599e+00 -2.8517491855e+00 1.6464581599e+00 2.8517491855e+00 
71200 5.4483895516e+00 6.8868294990e-05 1.6464581599e+00 -2.8517491855e+00 1.6464581599e+00 2.8517491855e+00 
71300 5.4483895517e+00 6.8910821518e-05 1.6464581599e+00 -2.8517491855e+00 1.6464581599e+00 2.8517491855e+00 
71400 5.4483895518e+00 6.8952568004e-05 1.6464581599e+00 -2.8517491855e+00 1.6464581599e+00 2.8517491855e+00 
71500 5.4483895519e+00 6.8993591988e-05 1.6464581599e+00 -2.8517491855e+00 1.6464581599e+00 2.8517491855e+00 
71600 5.4483895519e+00 6.9033948674e-05 1.6464581599e+00 -2.8517491855e+00 1.6464581599e+00 2.8517491855e+00 
71700 5.4483895520e+00 6.9073690919e-05 1.6464581599e+00 -2.8517491855e+00 1.6464581599e+00 2.8517491855e+00 
71800 5.4483895521e+00 6.9112869241e-05 1.6464581599e+00 -2.8517491855e+00 1.6464581599e+00 2.8517491855e+00 
71900 5.4483895522e+00 6.9151531831e-05 1.6464581599e+00 -2.8517491855e+00 1.6464581599e+00 2.8517491855e+00 
72000 5.4483895522e+00 6.9189724560e-05 1.6464581599e+00 -2.8517491855e+00 1.6464581599e+00 2.8517491855e+00 
72100 5.4483895523e+00 6.9227491002e-05 1.6464581599e+00 -2.8517491855e+00 1.6464581599e+00 2.8517491855e+00 
72200 5.4483895524e+00 6.9264872457e-05 1.6464581599e+00 -2.8517491855e+00 1.6464581599e+00 2.8517491855e+00 
72300 5.4483895525e+00 6.9301907976e-05 1.6464581599e+00 -2.8517491855e+00 1.6464581599e+00 2.8517491855e+00 
72400 5.4483895525e+00 6.9338634390e-05 1.6464581599e+00 -2.8517491855e+00 1.6464581599e+00 2.8517491855e+00 
72500 5.4483895526e+00 6.9375086348e-05 1.6464581599e+00 -2.8517491855e+00 1.6464581599e+00 2.8517491855e+00 
72600 5.4483895527e+00 6.9411296352e-05 1.6464581599e+00 -2.8517491855e+00 1.6464581599e+00 2.8517491855e+00 
72700 5.4483895527e+00 6.9447294795e-05 1.6464581599e+00 -2.8517491855e+00 1.6464581599e+00 2.8517491855e+00 
72800 5.4483895528e+00 6.9483110009e-05 1.6464581599e+00 -2.8517491855e+00 1.6464581599e+00 2.8517491855e+00 
72900 5.4483895529e+00 6.9518768303e-05 1.6464581599e+00 -2.8517491855e+00 1.6464581599e+00 2.8517491855e+00 
73000 5.4483895529e+00 6.9554294019e-05 1.6464581599e+00 -2.8517491855e+00 1.6464581599e+00 2.8517491855e+00 
73100 5.4483895530e+00 6.9589709575e-05 1.6464581599e+00 -2.8517491855e+00 1.6464581599e+00 2.8517491855e+00 
73200 5.4483895531e+00 6.9625035523e-05 1.6464581599e+00 -2.8517491855e+00 1.6464581599e+00 2.8517491855e+00 
73300 5.4483895531e+00 6.9660290597e-05 1.6464581599e+00 -2.8517491855e+00 1.6464581599e+00 2.8517491855e+00 
73400 5.4483895532e+00 6.9695491767e-05 1.6464581599e+00 -2.8517491855e+00 1.6464581599e+00 2.8517491855e+00 
73500 5.4483895532e+00 6.9730654304e-05 1.6464581599e+00 -2.8517491855e+00 1.6464581599e+00 2.8517491855e+00 
73600 5.4483895533e+00 6.9765791826e-05 1.6464581599e+00 -2.8517491855e+00 1.6464581599e+00 2.8517491855e+00 
73700 5.4483895534e+00 6.9800916364e-05 1.6464581599e+00 -2.8517491855e+00 1.6464581599e+00 2.8517491855e+00 
73800 5.4483895534e+00 6.9836038418e-05 1.6464581599e+00 -2.8517491855e+00 1.6464581599e+00 2.8517491855e+00 
73900 5.4483895535e+00 6.9871167013e-05 1.6464581599e+00 -2.8517491855e+00 1.6464581599e+00 2.8517491855e+00 
74000 5.4483895535e+00 6.9906309765e-05 1.6464581599e+00 -2.8517491855e+00 1.6464581599e+00 2.8517491855e+00 
74100 5.4483895536e+00 6.9941472940e-05 1.6464581599e+00 -2.8517491855e+00 1.6464581599e+00 2.8517491855e+00 
74200 5.4483895536e+00 6.9976661506e-05 1.6464581599e+00 -2.8517491855e+00 1.6464581599e+00 2.8517491855e+00 
74300 5.4483895537e+00 7.0011879205e-05 1.6464581599e+00 -2.8517491855e+00 1.6464581599e+00 2.8517491855e+00 
74400 5.4483895537e+00 7.0047128605e-05 1.6464581599e+00 -2.8517491855e+00 1.6464581599e+00 2.8517491855e+00 
74500 5.4483895538e+00 7.0082411162e-05 1.6464581599e+00 -2.8517491855e+00 1.6464581599e+00 2.8517491855e+00 
74600 5.4483895539e+00 7.0117727281e-05 1.6464581599e+00 -2.8517491855e+00 1.6464581599e+00 2.8517491855e+00 
74700 5.4483895539e+00 7.0153076365e-05 1.6464581599e+00 -2.8517491855e+00 1.6464581599e+00 2.8517491855e+00 
74800 5.4483895540e+00 7.0188456891e-05 1.6464581599e+00 -2.8517491855e+00 1.6464581599e+00 2.8517491855e+00 
74900 5.4483895540e+00 7.0223866452e-05 1.6464581599e+00 -2.8517491855e+00 1.6464581599e+00 2.8517491855e+00 
75000 5.4483895540e+00 7.0248668720e-05 1.6464581599e+00 -2.8517491855e+00 1.6464581599e+00 2.8517491855e+00 
75000 5.4483895540e+00 7.0248668720e-05 1.6464581599e+00 -2.8517491855e+00 1.6464581599e+00 2.8517491855e+00 
