# step Hamiltonian StressXX CellTensor1 CellTensor2 CellTensor3 CellTensor4 
0 6.1660254269e+00 -4.9967191339e-02 1.6087831444e+00 -2.7864941444e+00 1.6087831444e+00 2.7864941444e+00 
100 6.1625181239e+00 -5.1440299470e-02 1.6087831444e+00 -2.7864941444e+00 1.6087831444e+00 2.7864941444e+00 
200 6.1591033249e+00 -5.1208130427e-02 1.6103821420e+00 -2.7892636896e+00 1.6103821420e+00 2.7892636896e+00 
300 6.1558786031e+00 -5.1150873063e-02 1.6119723406e+00 -2.7920179944e+00 1.6119723406e+00 2.7920179944e+00 
400 6.1528378465e+00 -5.1256762050e-02 1.6135591934e+00 -2.7947665040e+00 1.6135591934e+00 2.7947665040e+00 
500 6.1499735616e+00 -5.1514460059e-02 1.6151477674e+00 -2.7975179949e+00 1.6151477674e+00 2.7975179949e+00 
600 6.1472771380e+00 -5.1913038696e-02 1.6167427586e+00 -2.8002806006e+00 1.6167427586e+00 2.8002806006e+00 
700 6.1447390846e+00 -5.2441962541e-02 1.6183485064e+00 -2.8030618374e+00 1.6183485064e+00 2.8030618374e+00 
800 6.1423492420e+00 -5.3091075279e-02 1.6199690073e+00 -2.8058686273e+00 1.6199690073e+00 2.8058686273e+00 
900 6.1400969734e+00 -5.3850587224e-02 1.6216079280e+00 -2.8087073213e+00 1.6216079280e+00 2.8087073213e+00 
1000 6.1379713353e+00 -5.4711063748e-02 1.6232686182e+00 -2.8115837211e+00 1.6232686182e+00 2.8115837211e+00 
1100 6.1359612300e+00 -5.5663414262e-02 1.6249541224e+00 -2.8145030999e+00 1.6249541224e+00 2.8145030999e+00 
1200 6.1340555420e+00 -5.6698881542e-02 1.6266671918e+00 -2.8174702231e+00 1.6266671918e+00 2.8174702231e+00 
1300 6.1322432584e+00 -5.7809031278e-02 1.6284102955e+00 -2.8204893675e+00 1.6284102955e+00 2.8204893675e+00 
1400 6.1305135752e+00 -5.8985741760e-02 1.6301856320e+00 -2.8235643403e+00 1.6301856320e+00 2.8235643403e+00 
1500 6.1288559903e+00 -6.0221193701e-02 1.6319951388e+00 -2.8266984981e+00 1.6319951388e+00 2.8266984981e+00 
1600 6.1272603839e+00 -6.1507860191e-02 1.6338405036e+00 -2.8298947637e+00 1.6338405036e+00 2.8298947637e+00 
1700 6.1257170873e+00 -6.2838496827e-02 1.6357231738e+00 -2.8331556441e+00 1.6357231738e+00 2.8331556441e+00 
1800 6.1242169404e+00 -6.4206132039e-02 1.6376443663e+00 -2.8364832471e+00 1.6376443663e+00 2.8364832471e+00 
1900 6.1227513400e+00 -6.5604057684e-02 1.6396050766e+00 -2.8398792971e+00 1.6396050766e+00 2.8398792971e+00 
2000 6.1213122772e+00 -6.7025819941e-02 1.6416060885e+00 -2.8433451512e+00 1.6416060885e+00 2.8433451512e+00 
2100 6.1198923673e+00 -6.8465210549e-02 1.6436479819e+00 -2.8468818145e+00 1.6436479819e+00 2.8468818145e+00 
2200 6.1184848709e+00 -6.9916258447e-02 1.6457311424e+00 -2.8504899543e+00 1.6457311424e+00 2.8504899543e+00 
2300 6.1170837071e+00 -7.1373221826e-02 1.6478557689e+00 -2.8541699153e+00 1.6478557689e+00 2.8541699153e+00 
2400 6.1156834608e+00 -7.2830580646e-02 1.6500218819e+00 -2.8579217330e+00 1.6500218819e+00 2.8579217330e+00 
2500 6.1142793829e+00 -7.4283029616e-02 1.6522293312e+00 -2.8617451474e+00 1.6522293312e+00 2.8617451474e+00 
2600 6.1128673846e+00 -7.5725471665e-02 1.6544778039e+00 -2.8656396164e+00 1.6544778039e+00 2.8656396164e+00 
2700 6.1114440272e+00 -7.7153011901e-02 1.6567668315e+00 -2.8696043284e+00 1.6567668315e+00 2.8696043284e+00 
2800 6.1100065069e+00 -7.8560952064e-02 1.6590957970e+00 -2.8736382151e+00 1.6590957970e+00 2.8736382151e+00 
2900 6.1085526351e+00 -7.9944785454e-02 1.6614639427e+00 -2.8777399637e+00 1.6614639427e+00 2.8777399637e+00 
3000 6.1070808159e+00 -8.1300192332e-02 1.6638703762e+00 -2.8819080289e+00 1.6638703762e+00 2.8819080289e+00 
3100 6.1055900196e+00 -8.2623035777e-02 1.6663140780e+00 -2.8861406445e+00 1.6663140780e+00 2.8861406445e+00 
3200 6.1040797540e+00 -8.3909357962e-02 1.6687939074e+00 -2.8904358350e+00 1.6687939074e+00 2.8904358350e+00 
3300 6.1025500336e+00 -8.5155376847e-02 1.6713086096e+00 -2.8947914270e+00 1.6713086096e+00 2.8947914270e+00 
3400 6.1010013463e+00 -8.6357483239e-02 1.6738568218e+00 -2.8992050599e+00 1.6738568218e+00 2.8992050599e+00 
3500 6.0994346191e+00 -8.7512238206e-02 1.6764370792e+00 -2.9036741969e+00 1.6764370792e+00 2.9036741969e+00 
3600 6.0978511830e+00 -8.8616370809e-02 1.6790478217e+00 -2.9081961356e+00 1.6790478217e+00 2.9081961356e+00 
3700 6.0962527363e+00 -8.9666776116e-02 1.6816873995e+00 -2.9127680184e+00 1.6816873995e+00 2.9127680184e+00 
3800 6.0946413082e+00 -9.0660513480e-02 1.6843540791e+00 -2.9173868430e+00 1.6843540791e+00 2.9173868430e+00 
3900 6.0930192222e+00 -9.1594805027e-02 1.6870460493e+00 -2.9220494720e+00 1.6870460493e+00 2.9220494720e+00 
4000 6.0913890587e+00 -9.2467034354e-02 1.6897614265e+00 -2.9267526434e+00 1.6897614265e+00 2.9267526434e+00 
4100 6.0897536196e+00 -9.3274745386e-02 1.6924982611e+00 -2.9314929799e+00 1.6924982611e+00 2.9314929799e+00 
4200 6.0881158917e+00 -9.4015641366e-02 1.6952545420e+00 -2.9362669985e+00 1.6952545420e+00 2.9362669985e+00 
4300 6.0864790123e+00 -9.4687583964e-02 1.6980282030e+00 -2.9410711204e+00 1.6980282030e+00 2.9410711204e+00 
4400 6.0848462350e+00 -9.5288592472e-02 1.7008171277e+00 -2.9459016796e+00 1.7008171277e+00 2.9459016796e+00 
4500 6.0832208967e+00 -9.5816843061e-02 1.7036191546e+00 -2.9507549325e+00 1.7036191546e+00 2.9507549325e+00 
4600 6.0816063860e+00 -9.6270668088e-02 1.7064320826e+00 -2.9556270667e+00 1.7064320826e+00 2.9556270667e+00 
4700 6.0800061133e+00 -9.6648555423e-02 1.7092536759e+00 -2.9605142097e+00 1.7092536759e+00 2.9605142097e+00 
4800 6.0784234813e+00 -9.6949147793e-02 1.7120816691e+00 -2.9654124376e+00 1.7120816691e+00 2.9654124376e+00 
4900 6.0768618585e+00 -9.7171242115e-02 1.7149137719e+00 -2.9703177835e+00 1.7149137719e+00 2.9703177835e+00 
5000 6.0753245532e+00 -9.7313788819e-02 1.7177476739e+00 -2.9752262458e+00 1.7177476739e+00 2.9752262458e+00 
5100 6.0738147897e+00 -9.7375891135e-02 1.7205810496e+00 -2.9801337965e+00 1.7205810496e+00 2.9801337965e+00 
5200 6.0723356862e+00 -9.7356804351e-02 1.7234115626e+00 -2.9850363887e+00 1.7234115626e+00 2.9850363887e+00 
5300 6.0708902343e+00 -9.7255935020e-02 1.7262368701e+00 -2.9899299650e+00 1.7262368701e+00 2.9899299650e+00 
5400 6.0694812807e+00 -9.7072840120e-02 1.7290546278e+00 -2.9948104644e+00 1.7290546278e+00 2.9948104644e+00 
5500 6.0681115099e+00 -9.6807226155e-02 1.7318624935e+00 -2.9996738305e+00 1.7318624935e+00 2.9996738305e+00 
5600 6.0667834296e+00 -9.6458948197e-02 1.7346581318e+00 -3.0045160180e+00 1.7346581318e+00 3.0045160180e+00 
5700 6.0654993575e+00 -9.6028008864e-02 1.7374392180e+00 -3.0093330006e+00 1.7374392180e+00 3.0093330006e+00 
5800 6.0642614094e+00 -9.5514557233e-02 1.7402034420e+00 -3.0141207770e+00 1.7402034420e+00 3.0141207770e+00 
5900 6.0630714901e+00 -9.4918887677e-02 1.7429485125e+00 -3.0188753786e+00 1.7429485125e+00 3.0188753786e+00 
6000 6.0619312847e+00 -9.4241438644e-02 1.7456721605e+00 -3.0235928753e+00 1.7456721605e+00 3.0235928753e+00 
6100 6.0608422531e+00 -9.3482791350e-02 1.7483721430e+00 -3.0282693823e+00 1.7483721430e+00 3.0282693823e+00 
6200 6.0598056244e+00 -9.2643668403e-02 1.7510462470e+00 -3.0329010663e+00 1.7510462470e+00 3.0329010663e+00 
6300 6.0588223946e+00 -9.1724932351e-02 1.7536922925e+00 -3.0374841515e+00 1.7536922925e+00 3.0374841515e+00 
6400 6.0578933243e+00 -9.0727584146e-02 1.7563081361e+00 -3.0420149255e+00 1.7563081361e+00 3.0420149255e+00 
6500 6.0570189393e+00 -8.9652761522e-02 1.7588916745e+00 -3.0464897453e+00 1.7588916745e+00 3.0464897453e+00 
6600 6.0561995311e+00 -8.8501737295e-02 1.7614408474e+00 -3.0509050423e+00 1.7614408474e+00 3.0509050423e+00 
6700 6.0554351604e+00 -8.7275917558e-02 1.7639536410e+00 -3.0552573284e+00 1.7639536410e+00 3.0552573284e+00 
6800 6.0547256605e+00 -8.5976839783e-02 1.7664280907e+00 -3.0595432009e+00 1.7664280907e+00 3.0595432009e+00 
6900 6.0540706424e+00 -8.4606170820e-02 1.7688622841e+00 -3.0637593477e+00 1.7688622841e+00 3.0637593477e+00 
7000 6.0534695016e+00 -8.3165704777e-02 1.7712543644e+00 -3.0679025522e+00 1.7712543644e+00 3.0679025522e+00 
7100 6.0529214252e+00 -8.1657360779e-02 1.7736025322e+00 -3.0719696983e+00 1.7736025322e+00 3.0719696983e+00 
7200 6.0524254004e+00 -8.0083180603e-02 1.7759050493e+00 -3.0759577748e+00 1.7759050493e+00 3.0759577748e+00 
7300 6.0519802237e+00 -7.8445326153e-02 1.7781602404e+00 -3.0798638804e+00 1.7781602404e+00 3.0798638804e+00 
7400 6.0515845115e+00 -7.6746076801e-02 1.7803664961e+00 -3.0836852274e+00 1.7803664961e+00 3.0836852274e+00 
7500 6.0512367106e+00 -7.4987826545e-02 1.7825222754e+00 -3.0874191466e+00 1.7825222754e+00 3.0874191466e+00 
7600 6.0509351105e+00 -7.3173080997e-02 1.7846261076e+00 -3.0910630909e+00 1.7846261076e+00 3.0910630909e+00 
7700 6.0506778553e+00 -7.1304454167e-02 1.7866765952e+00 -3.0946146397e+00 1.7866765952e+00 3.0946146397e+00 
7800 6.0504629568e+00 -6.9384665046e-02 1.7886724157e+00 -3.0980715020e+00 1.7886724157e+00 3.0980715020e+00 
7900 6.0502883081e+00 -6.7416533966e-02 1.7906123234e+00 -3.1014315209e+00 1.7906123234e+00 3.1014315209e+00 
8000 6.0501516968e+00 -6.5402978716e-02 1.7924951524e+00 -3.1046926763e+00 1.7924951524e+00 3.1046926763e+00 
8100 6.0500508198e+00 -6.3347010409e-02 1.7943198173e+00 -3.1078530887e+00 1.7943198173e+00 3.1078530887e+00 
8200 6.0499832973e+00 -6.1251729084e-02 1.7960853161e+00 -3.1109110221e+00 1.7960853161e+00 3.1109110221e+00 
8300 6.0499466871e+00 -5.9120319025e-02 1.7977907309e+00 -3.1138648873e+00 1.7977907309e+00 3.1138648873e+00 
8400 6.0499384996e+00 -5.6956043789e-02 1.7994352305e+00 -3.1167132442e+00 1.7994352305e+00 3.1167132442e+00 
8500 6.0499562122e+00 -5.4762240934e-02 1.8010180712e+00 -3.1194548046e+00 1.8010180712e+00 3.1194548046e+00 
8600 6.0499972836e+00 -5.2542316425e-02 1.8025385984e+00 -3.1220884350e+00 1.8025385984e+00 3.1220884350e+00 
8700 6.0500591685e+00 -5.0299738728e-02 1.8039962479e+00 -3.1246131581e+00 1.8039962479e+00 3.1246131581e+00 
8800 6.0501393313e+00 -4.8038032574e-02 1.8053905472e+00 -3.1270281552e+00 1.8053905472e+00 3.1270281552e+00 
8900 6.0502352601e+00 -4.5760772393e-02 1.8067211160e+00 -3.1293327680e+00 1.8067211160e+00 3.1293327680e+00 
9000 6.0503444803e+00 -4.3471575418e-02 1.8079876677e+00 -3.1315264999e+00 1.8079876677e+00 3.1315264999e+00 
9100 6.0504645670e+00 -4.1174094460e-02 1.8091900097e+00 -3.1336090174e+00 1.8091900097e+00 3.1336090174e+00 
9200 6.0505931576e+00 -3.8872010368e-02 1.8103280441e+00 -3.1355801507e+00 1.8103280441e+00 3.1355801507e+00 
9300 6.0507279640e+00 -3.6569024164e-02 1.8114017680e+00 -3.1374398951e+00 1.8114017680e+00 3.1374398951e+00 
9400 6.0508667831e+00 -3.4268848890e-02 1.8124112740e+00 -3.1391884107e+00 1.8124112740e+00 3.1391884107e+00 
9500 6.0510075077e+00 -3.1975201163e-02 1.8133567500e+00 -3.1408260232e+00 1.8133567500e+00 3.1408260232e+00 
9600 6.0511481357e+00 -2.9691792474e-02 1.8142384791e+00 -3.1423532229e+00 1.8142384791e+00 3.1423532229e+00 
9700 6.0512867793e+00 -2.7422320237e-02 1.8150568397e+00 -3.1437706649e+00 1.8150568397e+00 3.1437706649e+00 
9800 6.0514216725e+00 -2.5170458641e-02 1.8158123042e+00 -3.1450791679e+00 1.8158123042e+00 3.1450791679e+00 
9900 6.0515511786e+00 -2.2939849310e-02 1.8165054392e+00 -3.1462797128e+00 1.8165054392e+00 3.1462797128e+00 
10000 6.0516737957e+00 -2.0734091830e-02 1.8171369038e+00 -3.1473734416e+00 1.8171369038e+00 3.1473734416e+00 
10100 6.0517881619e+00 -1.8556734160e-02 1.8177074490e+00 -3.1483616550e+00 1.8177074490e+00 3.1483616550e+00 
10200 6.0518930596e+00 -1.6411262995e-02 1.8182179163e+00 -3.1492458102e+00 1.8182179163e+00 3.1492458102e+00 
10300 6.0519874181e+00 -1.4301094096e-02 1.8186692357e+00 -3.1500275184e+00 1.8186692357e+00 3.1500275184e+00 
10400 6.0520703158e+00 -1.2229562667e-02 1.8190624245e+00 -3.1507085414e+00 1.8190624245e+00 3.1507085414e+00 
10500 6.0521409810e+00 -1.0199913804e-02 1.8193985851e+00 -3.1512907885e+00 1.8193985851e+00 3.1512907885e+00 
10600 6.0521987917e+00 -8.2152930792e-03 1.8196789023e+00 -3.1517763122e+00 1.8196789023e+00 3.1517763122e+00 
10700 6.0522432747e+00 -6.2787373181e-03 1.8199046417e+00 -3.1521673043e+00 1.8199046417e+00 3.1521673043e+00 
10800 6.0522741033e+00 -4.3931656109e-03 1.8200771462e+00 -3.1524660909e+00 1.8200771462e+00 3.1524660909e+00 
10900 6.0522910939e+00 -2.5613706263e-03 1.8201978338e+00 -3.1526751279e+00 1.8201978338e+00 3.1526751279e+00 
11000 6.0522942023e+00 -7.8601027387e-04 1.8202681939e+00 -3.1527969953e+00 1.8202681939e+00 3.1527969953e+00 
11100 6.0522835187e+00 9.3040022907e-04 1.8202897845e+00 -3.1528343912e+00 1.8202897845e+00 3.1528343912e+00 
11200 6.0522592617e+00 2.5854958340e-03 1.8202642281e+00 -3.1527901263e+00 1.8202642281e+00 3.1527901263e+00 
11300 6.0522217716e+00 4.1770686316e-03 1.8201932088e+00 -3.1526671173e+00 1.8201932088e+00 3.1526671173e+00 
11400 6.0521715033e+00 5.7030742692e-03 1.8200784676e+00 -3.1524683796e+00 1.8200784676e+00 3.1524683796e+00 
11500 6.0521090183e+00 7.1616377706e-03 1.8199217987e+00 -3.1521970212e+00 1.8199217987e+00 3.1521970212e+00 
11600 6.0520349756e+00 8.5510587191e-03 1.8197250455e+00 -3.1518562346e+00 1.8197250455e+00 3.1518562346e+00 
11700 6.0519501234e+00 9.8698157666e-03 1.8194900959e+00 -3.1514492899e+00 1.8194900959e+00 3.1514492899e+00 
11800 6.0518552889e+00 1.1116570439e-02 1.8192188778e+00 -3.1509795265e+00 1.8192188778e+00 3.1509795265e+00 
11900 6.0517513686e+00 1.2290170212e-02 1.8189133550e+00 -3.1504503454e+00 1.8189133550e+00 3.1504503454e+00 
12000 6.0516393183e+00 1.3389650832e-02 1.8185755217e+00 -3.1498652010e+00 1.8185755217e+00 3.1498652010e+00 
12100 6.0515201426e+00 1.4414237880e-02 1.8182073984e+00 -3.1492275928e+00 1.8182073984e+00 3.1492275928e+00 
12200 6.0513948845e+00 1.5363347546e-02 1.8178110269e+00 -3.1485410571e+00 1.8178110269e+00 3.1485410571e+00 
12300 6.0512646152e+00 1.6236586642e-02 1.8173884650e+00 -3.1478091585e+00 1.8173884650e+00 3.1478091585e+00 
12400 6.0511304237e+00 1.7033751827e-02 1.8169417823e+00 -3.1470354813e+00 1.8169417823e+00 3.1470354813e+00 
12500 6.0509934065e+00 1.7754828074e-02 1.8164730545e+00 -3.1462236211e+00 1.8164730545e+00 3.1462236211e+00 
12600 6.0508546580e+00 1.8399986377e-02 1.8159843594e+00 -3.1453771762e+00 1.8159843594e+00 3.1453771762e+00 
12700 6.0507152609e+00 1.8969580738e-02 1.8154777710e+00 -3.1444997394e+00 1.8154777710e+00 3.1444997394e+00 
12800 6.0505762770e+00 1.9464144437e-02 1.8149553556e+00 -3.1435948894e+00 1.8149553556e+00 3.1435948894e+00 
12900 6.0504387385e+00 1.9884385637e-02 1.8144191665e+00 -3.1426661827e+00 1.8144191665e+00 3.1426661827e+00 
13000 6.0503036403e+00 2.0231182346e-02 1.8138712396e+00 -3.1417171453e+00 1.8138712396e+00 3.1417171453e+00 
13100 6.0501719318e+00 2.0505576779e-02 1.8133135885e+00 -3.1407512653e+00 1.8133135885e+00 3.1407512653e+00 
13200 6.0500445110e+00 2.0708769163e-02 1.8127482006e+00 -3.1397719847e+00 1.8127482006e+00 3.1397719847e+00 
13300 6.0499222172e+00 2.0842111040e-02 1.8121770324e+00 -3.1387826924e+00 1.8121770324e+00 3.1387826924e+00 
13400 6.0498058267e+00 2.0907098102e-02 1.8116020056e+00 -3.1377867168e+00 1.8116020056e+00 3.1377867168e+00 
13500 6.0496960471e+00 2.0905362623e-02 1.8110250028e+00 -3.1367873186e+00 1.8110250028e+00 3.1367873186e+00 
13600 6.0495935142e+00 2.0838665530e-02 1.8104478641e+00 -3.1357876851e+00 1.8104478641e+00 3.1357876851e+00 
13700 6.0494987881e+00 2.0708888179e-02 1.8098723833e+00 -3.1347909230e+00 1.8098723833e+00 3.1347909230e+00 
13800 6.0494123515e+00 2.0518023881e-02 1.8093003044e+00 -3.1338000533e+00 1.8093003044e+00 3.1338000533e+00 
13900 6.0493346076e+00 2.0268169229e-02 1.8087333185e+00 -3.1328180051e+00 1.8087333185e+00 3.1328180051e+00 
14000 6.0492658795e+00 1.9961515295e-02 1.8081730612e+00 -3.1318476109e+00 1.8081730612e+00 3.1318476109e+00 
14100 6.0492064101e+00 1.9600338730e-02 1.8076211091e+00 -3.1308916017e+00 1.8076211091e+00 3.1308916017e+00 
14200 6.0491563625e+00 1.9186992829e-02 1.8070789778e+00 -3.1299526028e+00 1.8070789778e+00 3.1299526028e+00 
14300 6.0491158216e+00 1.8723898610e-02 1.8065481196e+00 -3.1290331295e+00 1.8065481196e+00 3.1290331295e+00 
14400 6.0490847960e+00 1.8213535942e-02 1.8060299213e+00 -3.1281355837e+00 1.8060299213e+00 3.1281355837e+00 
14500 6.0490632204e+00 1.7658434779e-02 1.8055257024e+00 -3.1272622510e+00 1.8055257024e+00 3.1272622510e+00 
14600 6.0490509587e+00 1.7061166531e-02 1.8050367136e+00 -3.1264152975e+00 1.8050367136e+00 3.1264152975e+00 
14700 6.0490478078e+00 1.6424335609e-02 1.8045641354e+00 -3.1255967680e+00 1.8045641354e+00 3.1255967680e+00 
14800 6.0490535018e+00 1.5750571182e-02 1.8041090769e+00 -3.1248085835e+00 1.8041090769e+00 3.1248085835e+00 
14900 6.0490677159e+00 1.5042519174e-02 1.8036725751e+00 -3.1240525403e+00 1.8036725751e+00 3.1240525403e+00 
15000 6.0490900719e+00 1.4302834526e-02 1.8032555942e+00 -3.1233303082e+00 1.8032555942e+00 3.1233303082e+00 
15100 6.0491201430e+00 1.3534173744e-02 1.8028590251e+00 -3.1226434303e+00 1.8028590251e+00 3.1226434303e+00 
15200 6.0491574588e+00 1.2739187762e-02 1.8024836850e+00 -3.1219933223e+00 1.8024836850e+00 3.1219933223e+00 
15300 6.0492015116e+00 1.1920515120e-02 1.8021303179e+00 -3.1213812724e+00 1.8021303179e+00 3.1213812724e+00 
15400 6.0492517612e+00 1.1080775486e-02 1.8017995940e+00 -3.1208084418e+00 1.8017995940e+00 3.1208084418e+00 
15500 6.0493076410e+00 1.0222563521e-02 1.8014921108e+00 -3.1202758654e+00 1.8014921108e+00 3.1202758654e+00 
15600 6.0493685635e+00 9.3484430928e-03 1.8012083934e+00 -3.1197844524e+00 1.8012083934e+00 3.1197844524e+00 
15700 6.0494339258e+00 8.4609418533e-03 1.8009488949e+00 -3.1193349877e+00 1.8009488949e+00 3.1193349877e+00 
15800 6.0495031156e+00 7.5625461643e-03 1.8007139976e+00 -3.1189281338e+00 1.8007139976e+00 3.1189281338e+00 
15900 6.0495755158e+00 6.6556963836e-03 1.8005040143e+00 -3.1185644320e+00 1.8005040143e+00 3.1185644320e+00 
16000 6.0496505103e+00 5.7427825007e-03 1.8003191887e+00 -3.1182443047e+00 1.8003191887e+00 3.1182443047e+00 
16100 6.0497274885e+00 4.8261401195e-03 1.8001596976e+00 -3.1179680581e+00 1.8001596976e+00 3.1179680581e+00 
16200 6.0498058504e+00 3.9080467785e-03 1.8000256518e+00 -3.1177358838e+00 1.8000256518e+00 3.1177358838e+00 
16300 6.0498850106e+00 2.9907186029e-03 1.7999170975e+00 -3.1175478623e+00 1.7999170975e+00 3.1175478623e+00 
16400 6.0499644026e+00 2.0763072754e-03 1.7998340188e+00 -3.1174039658e+00 1.7998340188e+00 3.1174039658e+00 
16500 6.0500434824e+00 1.1668973171e-03 1.7997763386e+00 -3.1173040607e+00 1.7997763386e+00 3.1173040607e+00 
16600 6.0501217321e+00 2.6450366661e-04 1.7997439209e+00 -3.1172479116e+00 1.7997439209e+00 3.1172479116e+00 
16700 6.0501986626e+00 -6.2893045678e-04 1.7997365725e+00 -3.1172351838e+00 1.7997365725e+00 3.1172351838e+00 
16800 6.0502738167e+00 -1.5115354161e-03 1.7997540454e+00 -3.1172654477e+00 1.7997540454e+00 3.1172654477e+00 
16900 6.0503467707e+00 -2.3815167606e-03 1.7997960384e+00 -3.1173381817e+00 1.7997960384e+00 3.1173381817e+00 
17000 6.0504171369e+00 -3.2371565832e-03 1.7998621995e+00 -3.1174527762e+00 1.7998621995e+00 3.1174527762e+00 
17100 6.0504845648e+00 -4.0768146442e-03 1.7999521282e+00 -3.1176085372e+00 1.7999521282e+00 3.1176085372e+00 
17200 6.0505487423e+00 -4.8989292746e-03 1.8000653772e+00 -3.1178046903e+00 1.8000653772e+00 3.1178046903e+00 
17300 6.0506093962e+00 -5.7020180721e-03 1.8002014554e+00 -3.1180403846e+00 1.8002014554e+00 3.1180403846e+00 
17400 6.0506662931e+00 -6.4846784011e-03 1.8003598294e+00 -3.1183146963e+00 1.8003598294e+00 3.1183146963e+00 
17500 6.0507192390e+00 -7.2455877095e-03 1.8005399263e+00 -3.1186266334e+00 1.8005399263e+00 3.1186266334e+00 
17600 6.0507680791e+00 -7.9835036742e-03 1.8007411360e+00 -3.1189751389e+00 1.8007411360e+00 3.1189751389e+00 
17700 6.0508126977e+00 -8.6972641851e-03 1.8009628133e+00 -3.1193590952e+00 1.8009628133e+00 3.1193590952e+00 
17800 6.0508530166e+00 -9.3857871796e-03 1.8012042802e+00 -3.1197773281e+00 1.8012042802e+00 3.1197773281e+00 
17900 6.0508889943e+00 -1.0048070336e-02 1.8014648285e+00 -3.1202286110e+00 1.8014648285e+00 3.1202286110e+00 
18000 6.0509206250e+00 -1.0683190635e-02 1.8017437218e+00 -3.1207116683e+00 1.8017437218e+00 3.1207116683e+00 
18100 6.0509479363e+00 -1.1290303806e-02 1.8020401980e+00 -3.1212251802e+00 1.8020401980e+00 3.1212251802e+00 
18200 6.0509709880e+00 -1.1868643644e-02 1.8023534716e+00 -3.1217677860e+00 1.8023534716e+00 3.1217677860e+00 
18300 6.0509898698e+00 -1.2417521242e-02 1.8026827356e+00 -3.1223380881e+00 1.8026827356e+00 3.1223380881e+00 
18400 6.0510046994e+00 -1.2936324103e-02 1.8030271644e+00 -3.1229346562e+00 1.8030271644e+00 3.1229346562e+00 
18500 6.0510156200e+00 -1.3424515174e-02 1.8033859153e+00 -3.1235560310e+00 1.8033859153e+00 3.1235560310e+00 
18600 6.0510227982e+00 -1.3881631789e-02 1.8037581312e+00 -3.1242007278e+00 1.8037581312e+00 3.1242007278e+00 
18700 6.0510264218e+00 -1.4307284529e-02 1.8041429424e+00 -3.1248672403e+00 1.8041429424e+00 3.1248672403e+00 
18800 6.0510266966e+00 -1.4701156011e-02 1.8045394688e+00 -3.1255540443e+00 1.8045394688e+00 3.1255540443e+00 
18900 6.0510238449e+00 -1.5062999603e-02 1.8049468223e+00 -3.1262596012e+00 1.8049468223e+00 3.1262596012e+00 
19000 6.0510181020e+00 -1.5392638072e-02 1.8053641083e+00 -3.1269823617e+00 1.8053641083e+00 3.1269823617e+00 
19100 6.0510097148e+00 -1.5689962174e-02 1.8057904279e+00 -3.1277207690e+00 1.8057904279e+00 3.1277207690e+00 
19200 6.0509989381e+00 -1.5954929183e-02 1.8062248801e+00 -3.1284732622e+00 1.8062248801e+00 3.1284732622e+00 
19300 6.0509860335e+00 -1.6187561361e-02 1.8066665632e+00 -3.1292382798e+00 1.8066665632e+00 3.1292382798e+00 
19400 6.0509712659e+00 -1.6387944382e-02 1.8071145770e+00 -3.1300142624e+00 1.8071145770e+00 3.1300142624e+00 
19500 6.0509549022e+00 -1.6556225705e-02 1.8075680244e+00 -3.1307996564e+00 1.8075680244e+00 3.1307996564e+00 
19600 6.0509372083e+00 -1.6692612898e-02 1.8080260134e+00 -3.1315929166e+00 1.8080260134e+00 3.1315929166e+00 
19700 6.0509184478e+00 -1.6797371918e-02 1.8084876584e+00 -3.1323925092e+00 1.8084876584e+00 3.1323925092e+00 
19800 6.0508988795e+00 -1.6870825356e-02 1.8089520821e+00 -3.1331969146e+00 1.8089520821e+00 3.1331969146e+00 
19900 6.0508787558e+00 -1.6913350632e-02 1.8094184170e+00 -3.1340046304e+00 1.8094184170e+00 3.1340046304e+00 
20000 6.0508583211e+00 -1.6925378164e-02 1.8098858069e+00 -3.1348141734e+00 1.8098858069e+00 3.1348141734e+00 
20100 6.0508378100e+00 -1.6907389489e-02 1.8103534084e+00 -3.1356240830e+00 1.8103534084e+00 3.1356240830e+00 
20200 6.0508174463e+00 -1.6859915366e-02 1.8108203923e+00 -3.1364329228e+00 1.8108203923e+00 3.1364329228e+00 
20300 6.0507974414e+00 -1.6783533828e-02 1.8112859447e+00 -3.1372392833e+00 1.8112859447e+00 3.1372392833e+00 
20400 6.0507779933e+00 -1.6678868228e-02 1.8117492688e+00 -3.1380417842e+00 1.8117492688e+00 3.1380417842e+00 
20500 6.0507592859e+00 -1.6546585231e-02 1.8122095857e+00 -3.1388390764e+00 1.8122095857e+00 3.1388390764e+00 
20600 6.0507414877e+00 -1.6387392806e-02 1.8126661355e+00 -3.1396298439e+00 1.8126661355e+00 3.1396298439e+00 
20700 6.0507247517e+00 -1.6202038169e-02 1.8131181789e+00 -3.1404128059e+00 1.8131181789e+00 3.1404128059e+00 
20800 6.0507092147e+00 -1.5991305726e-02 1.8135649976e+00 -3.1411867187e+00 1.8135649976e+00 3.1411867187e+00 
20900 6.0506949969e+00 -1.5756014976e-02 1.8140058959e+00 -3.1419503769e+00 1.8140058959e+00 3.1419503769e+00 
21000 6.0506822017e+00 -1.5497018410e-02 1.8144402011e+00 -3.1427026155e+00 1.8144402011e+00 3.1427026155e+00 
21100 6.0506709158e+00 -1.5215199385e-02 1.8148672646e+00 -3.1434423113e+00 1.8148672646e+00 3.1434423113e+00 
21200 6.0506612093e+00 -1.4911469985e-02 1.8152864629e+00 -3.1441683841e+00 1.8152864629e+00 3.1441683841e+00 
21300 6.0506531355e+00 -1.4586768870e-02 1.8156971979e+00 -3.1448797979e+00 1.8156971979e+00 3.1448797979e+00 
21400 6.0506467316e+00 -1.4242059116e-02 1.8160988978e+00 -3.1455755625e+00 1.8160988978e+00 3.1455755625e+00 
21500 6.0506420191e+00 -1.3878326042e-02 1.8164910177e+00 -3.1462547341e+00 1.8164910177e+00 3.1462547341e+00 
21600 6.0506390044e+00 -1.3496575032e-02 1.8168730403e+00 -3.1469164167e+00 1.8168730403e+00 3.1469164167e+00 
21700 6.0506376788e+00 -1.3097829360e-02 1.8172444761e+00 -3.1475597624e+00 1.8172444761e+00 3.1475597624e+00 
21800 6.0506380201e+00 -1.2683128004e-02 1.8176048641e+00 -3.1481839727e+00 1.8176048641e+00 3.1481839727e+00 
21900 6.0506399930e+00 -1.2253523465e-02 1.8179537720e+00 -3.1487882989e+00 1.8179537720e+00 3.1487882989e+00 
22000 6.0506435496e+00 -1.1810079592e-02 1.8182907966e+00 -3.1493720426e+00 1.8182907966e+00 3.1493720426e+00 
22100 6.0506486308e+00 -1.1353869411e-02 1.8186155640e+00 -3.1499345562e+00 1.8186155640e+00 3.1499345562e+00 
22200 6.0506551673e+00 -1.0885972964e-02 1.8189277298e+00 -3.1504752434e+00 1.8189277298e+00 3.1504752434e+00 
22300 6.0506630800e+00 -1.0407475157e-02 1.8192269795e+00 -3.1509935591e+00 1.8192269795e+00 3.1509935591e+00 
22400 6.0506722818e+00 -9.9194636308e-03 1.8195130282e+00 -3.1514890098e+00 1.8195130282e+00 3.1514890098e+00 
22500 6.0506826780e+00 -9.4230266423e-03 1.8197856206e+00 -3.1519611538e+00 1.8197856206e+00 3.1519611538e+00 
22600 6.0506941678e+00 -8.9192509702e-03 1.8200445316e+00 -3.1524096008e+00 1.8200445316e+00 3.1524096008e+00 
22700 6.0507066450e+00 -8.4092198459e-03 1.8202895655e+00 -3.1528340119e+00 1.8202895655e+00 3.1528340119e+00 
22800 6.0507199995e+00 -7.8940109108e-03 1.8205205562e+00 -3.1532340995e+00 1.8205205562e+00 3.1532340995e+00 
22900 6.0507341179e+00 -7.3746942053e-03 1.8207373669e+00 -3.1536096267e+00 1.8207373669e+00 3.1536096267e+00 
23000 6.0507488850e+00 -6.8523301925e-03 1.8209398901e+00 -3.1539604072e+00 1.8209398901e+00 3.1539604072e+00 
23100 6.0507641842e+00 -6.3279678191e-03 1.8211280470e+00 -3.1542863045e+00 1.8211280470e+00 3.1542863045e+00 
23200 6.0507798991e+00 -5.8026426186e-03 1.8213017873e+00 -3.1545872316e+00 1.8213017873e+00 3.1545872316e+00 
23300 6.0507959140e+00 -5.2773748579e-03 1.8214610890e+00 -3.1548631501e+00 1.8214610890e+00 3.1548631501e+00 
23400 6.0508121149e+00 -4.7531677333e-03 1.8216059574e+00 -3.1551140696e+00 1.8216059574e+00 3.1551140696e+00 
23500 6.0508283906e+00 -4.2310056176e-03 1.8217364254e+00 -3.1553400468e+00 1.8217364254e+00 3.1553400468e+00 
23600 6.0508446330e+00 -3.7118523621e-03 1.8218525522e+00 -3.1555411844e+00 1.8218525522e+00 3.1555411844e+00 
23700 6.0508607381e+00 -3.1966496571e-03 1.8219544235e+00 -3.1557176305e+00 1.8219544235e+00 3.1557176305e+00 
23800 6.0508766069e+00 -2.6863154541e-03 1.8220421500e+00 -3.1558695774e+00 1.8220421500e+00 3.1558695774e+00 
23900 6.0508921455e+00 -2.1817424524e-03 1.8221158677e+00 -3.1559972601e+00 1.8221158677e+00 3.1559972601e+00 
24000 6.0509072659e+00 -1.6837966544e-03 1.8221757364e+00 -3.1561009557e+00 1.8221757364e+00 3.1561009557e+00 
24100 6.0509218865e+00 -1.1933159908e-03 1.8222219395e+00 -3.1561809819e+00 1.8222219395e+00 3.1561809819e+00 
24200 6.0509359326e+00 -7.1110902051e-04 1.8222546830e+00 -3.1562376953e+00 1.8222546830e+00 3.1562376953e+00 
24300 6.0509493364e+00 -2.3795370661e-04 1.8222741948e+00 -3.1562714908e+00 1.8222741948e+00 3.1562714908e+00 
24400 6.0509620375e+00 2.2540372874e-04 1.8222807239e+00 -3.1562827994e+00 1.8222807239e+00 3.1562827994e+00 
24500 6.0509739830e+00 6.7824986779e-04 1.8222745392e+00 -3.1562720873e+00 1.8222745392e+00 3.1562720873e+00 
24600 6.0509851278e+00 1.1199050771e-03 1.8222559293e+00 -3.1562398539e+00 1.8222559293e+00 3.1562398539e+00 
24700 6.0509954344e+00 1.5497244022e-03 1.8222252008e+00 -3.1561866307e+00 1.8222252008e+00 3.1561866307e+00 
24800 6.0510048730e+00 1.9670983744e-03 1.8221826781e+00 -3.1561129792e+00 1.8221826781e+00 3.1561129792e+00 
24900 6.0510134217e+00 2.3714537297e-03 1.8221287020e+00 -3.1560194897e+00 1.8221287020e+00 3.1560194897e+00 
25000 6.0510210659e+00 2.7622540369e-03 1.8220636286e+00 -3.1559067794e+00 1.8220636286e+00 3.1559067794e+00 
25100 6.0510277985e+00 3.1390002355e-03 1.8219878290e+00 -3.1557754906e+00 1.8219878290e+00 3.1557754906e+00 
25200 6.0510336196e+00 3.5012310809e-03 1.8219016875e+00 -3.1556262892e+00 1.8219016875e+00 3.1556262892e+00 
25300 6.0510385359e+00 3.8485234988e-03 1.8218056011e+00 -3.1554598626e+00 1.8218056011e+00 3.1554598626e+00 
25400 6.0510425609e+00 4.1804928464e-03 1.8216999782e+00 -3.1552769184e+00 1.8216999782e+00 3.1552769184e+00 
25500 6.0510457144e+00 4.4967930814e-03 1.8215852379e+00 -3.1550781824e+00 1.8215852379e+00 3.1550781824e+00 
25600 6.0510480216e+00 4.7971168407e-03 1.8214618085e+00 -3.1548643964e+00 1.8214618085e+00 3.1548643964e+00 
25700 6.0510495133e+00 5.0811954260e-03 1.8213301270e+00 -3.1546363173e+00 1.8213301270e+00 3.1546363173e+00 
25800 6.0510502254e+00 5.3487987017e-03 1.8211906374e+00 -3.1543947143e+00 1.8211906374e+00 3.1543947143e+00 
25900 6.0510501979e+00 5.5997349024e-03 1.8210437904e+00 -3.1541403678e+00 1.8210437904e+00 3.1541403678e+00 
26000 6.0510494750e+00 5.8338503545e-03 1.8208900419e+00 -3.1538740676e+00 1.8208900419e+00 3.1538740676e+00 
26100 6.0510481043e+00 6.0510291120e-03 1.8207298520e+00 -3.1535966105e+00 1.8207298520e+00 3.1535966105e+00 
26200 6.0510461362e+00 6.2511925097e-03 1.8205636841e+00 -3.1533087992e+00 1.8205636841e+00 3.1533087992e+00 
26300 6.0510436238e+00 6.4342986351e-03 1.8203920039e+00 -3.1530114404e+00 1.8203920039e+00 3.1530114404e+00 
26400 6.0510406218e+00 6.6003417232e-03 1.8202152784e+00 -3.1527053428e+00 1.8202152784e+00 3.1527053428e+00 
26500 6.0510371865e+00 6.7493514750e-03 1.8200339748e+00 -3.1523913158e+00 1.8200339748e+00 3.1523913158e+00 
26600 6.0510333752e+00 6.8813923049e-03 1.8198485596e+00 -3.1520701673e+00 1.8198485596e+00 3.1520701673e+00 
26700 6.0510292454e+00 6.9965625186e-03 1.8196594979e+00 -3.1517427029e+00 1.8196594979e+00 3.1517427029e+00 
26800 6.0510248545e+00 7.0949934259e-03 1.8194672521e+00 -3.1514097233e+00 1.8194672521e+00 3.1514097233e+00 
26900 6.0510202597e+00 7.1768483919e-03 1.8192722811e+00 -3.1510720237e+00 1.8192722811e+00 3.1510720237e+00 
27000 6.0510155171e+00 7.2423218297e-03 1.8190750396e+00 -3.1507303914e+00 1.8190750396e+00 3.1507303914e+00 
27100 6.0510106813e+00 7.2916381397e-03 1.8188759772e+00 -3.1503856052e+00 1.8188759772e+00 3.1503856052e+00 
27200 6.0510058053e+00 7.3250505987e-03 1.8186755374e+00 -3.1500384332e+00 1.8186755374e+00 3.1500384332e+00 
27300 6.0510009401e+00 7.3428402023e-03 1.8184741569e+00 -3.1496896320e+00 1.8184741569e+00 3.1496896320e+00 
27400 6.0509961341e+00 7.3453144668e-03 1.8182722650e+00 -3.1493399449e+00 1.8182722650e+00 3.1493399449e+00 
27500 6.0509914333e+00 7.3328061929e-03 1.8180702826e+00 -3.1489901012e+00 1.8180702826e+00 3.1489901012e+00 
27600 6.0509868805e+00 7.3056721954e-03 1.8178686218e+00 -3.1486408144e+00 1.8178686218e+00 3.1486408144e+00 
27700 6.0509825154e+00 7.2642920055e-03 1.8176676849e+00 -3.1482927815e+00 1.8176676849e+00 3.1482927815e+00 
27800 6.0509783744e+00 7.2090665468e-03 1.8174678640e+00 -3.1479466816e+00 1.8174678640e+00 3.1479466816e+00 
27900 6.0509744904e+00 7.1404167916e-03 1.8172695404e+00 -3.1476031751e+00 1.8172695404e+00 3.1476031751e+00 
28000 6.0509708927e+00 7.0587824005e-03 1.8170730839e+00 -3.1472629024e+00 1.8170730839e+00 3.1472629024e+00 
28100 6.0509676067e+00 6.9646203497e-03 1.8168788524e+00 -3.1469264836e+00 1.8168788524e+00 3.1469264836e+00 
28200 6.0509646543e+00 6.8584035502e-03 1.8166871914e+00 -3.1465945169e+00 1.8166871914e+00 3.1465945169e+00 
28300 6.0509620535e+00 6.7406194625e-03 1.8164984334e+00 -3.1462675785e+00 1.8164984334e+00 3.1462675785e+00 
28400 6.0509598185e+00 6.6117687114e-03 1.8163128977e+00 -3.1459462213e+00 1.8163128977e+00 3.1459462213e+00 
28500 6.0509579600e+00 6.4723637030e-03 1.8161308900e+00 -3.1456309747e+00 1.8161308900e+00 3.1456309747e+00 
28600 6.0509564849e+00 6.3229272496e-03 1.8159527019e+00 -3.1453223439e+00 1.8159527019e+00 3.1453223439e+00 
28700 6.0509553964e+00 6.1639912041e-03 1.8157786108e+00 -3.1450208092e+00 1.8157786108e+00 3.1450208092e+00 
28800 6.0509546947e+00 5.9960951086e-03 1.8156088793e+00 -3.1447268257e+00 1.8156088793e+00 3.1447268257e+00 
28900 6.0509543762e+00 5.8197848589e-03 1.8154437555e+00 -3.1444408229e+00 1.8154437555e+00 3.1444408229e+00 
29000 6.0509544347e+00 5.6356113894e-03 1.8152834724e+00 -3.1441632044e+00 1.8152834724e+00 3.1441632044e+00 
29100 6.0509548608e+00 5.4441293802e-03 1.8151282479e+00 -3.1438943476e+00 1.8151282479e+00 3.1438943476e+00 
29200 6.0509556423e+00 5.2458959887e-03 1.8149782845e+00 -3.1436346035e+00 1.8149782845e+00 3.1436346035e+00 
29300 6.0509567647e+00 5.0414696098e-03 1.8148337697e+00 -3.1433842964e+00 1.8148337697e+00 3.1433842964e+00 
29400 6.0509582111e+00 4.8314086648e-03 1.8146948753e+00 -3.1431437242e+00 1.8146948753e+00 3.1431437242e+00 
29500 6.0509599626e+00 4.6162704229e-03 1.8145617579e+00 -3.1429131581e+00 1.8145617579e+00 3.1429131581e+00 
29600 6.0509619985e+00 4.3966098563e-03 1.8144345587e+00 -3.1426928426e+00 1.8144345587e+00 3.1426928426e+00 
29700 6.0509642965e+00 4.1729785303e-03 1.8143134035e+00 -3.1424829958e+00 1.8143134035e+00 3.1424829958e+00 
29800 6.0509668330e+00 3.9459235315e-03 1.8141984032e+00 -3.1422838093e+00 1.8141984032e+00 3.1422838093e+00 
29900 6.0509695833e+00 3.7159864332e-03 1.8140896531e+00 -3.1420954486e+00 1.8140896531e+00 3.1420954486e+00 
30000 6.0509725219e+00 3.4837023018e-03 1.8139872339e+00 -3.1419180534e+00 1.8139872339e+00 3.1419180534e+00 
30100 6.0509756229e+00 3.2495987428e-03 1.8138912114e+00 -3.1417517376e+00 1.8138912114e+00 3.1417517376e+00 
30200 6.0509788597e+00 3.0141949891e-03 1.8138016368e+00 -3.1415965898e+00 1.8138016368e+00 3.1415965898e+00 
30300 6.0509822059e+00 2.7780010316e-03 1.8137185469e+00 -3.1414526739e+00 1.8137185469e+00 3.1414526739e+00 
30400 6.0509856351e+00 2.5415167926e-03 1.8136419644e+00 -3.1413200291e+00 1.8136419644e+00 3.1413200291e+00 
30500 6.0509891213e+00 2.3052313427e-03 1.8135718982e+00 -3.1411986709e+00 1.8135718982e+00 3.1411986709e+00 
30600 6.0509926390e+00 2.0696221620e-03 1.8135083436e+00 -3.1410885910e+00 1.8135083436e+00 3.1410885910e+00 
30700 6.0509961632e+00 1.8351544442e-03 1.8134512826e+00 -3.1409897585e+00 1.8134512826e+00 3.1409897585e+00 
30800 6.0509996700e+00 1.6022804462e-03 1.8134006844e+00 -3.1409021199e+00 1.8134006844e+00 3.1409021199e+00 
30900 6.0510031366e+00 1.3714388807e-03 1.8133565057e+00 -3.1408256001e+00 1.8133565057e+00 3.1408256001e+00 
31000 6.0510065412e+00 1.1430543528e-03 1.8133186909e+00 -3.1407601030e+00 1.8133186909e+00 3.1407601030e+00 
31100 6.0510098635e+00 9.1753684132e-04 1.8132871727e+00 -3.1407055119e+00 1.8132871727e+00 3.1407055119e+00 
31200 6.0510130843e+00 6.9528122196e-04 1.8132618724e+00 -3.1406616904e+00 1.8132618724e+00 3.1406616904e+00 
31300 6.0510161863e+00 4.7666683482e-04 1.8132427003e+00 -3.1406284834e+00 1.8132427003e+00 3.1406284834e+00 
31400 6.0510191535e+00 2.6205709364e-04 1.8132295563e+00 -3.1406057173e+00 1.8132295563e+00 3.1406057173e+00 
31500 6.0510219718e+00 5.1799137229e-05 1.8132223301e+00 -3.1405932011e+00 1.8132223301e+00 3.1405932011e+00 
31600 6.0510246281e+00 -1.5231076480e-04 1.8132223301e+00 -3.1405932011e+00 1.8132223301e+00 3.1405932011e+00 
31700 6.0510271120e+00 -3.5292333030e-04 1.8132265301e+00 -3.1406004757e+00 1.8132265301e+00 3.1406004757e+00 
31800 6.0510294147e+00 -5.4824120078e-04 1.8132362620e+00 -3.1406173319e+00 1.8132362620e+00 3.1406173319e+00 
31900 6.0510315288e+00 -7.3798515965e-04 1.8132513798e+00 -3.1406435166e+00 1.8132513798e+00 3.1406435166e+00 
32000 6.0510334488e+00 -9.2189339570e-04 1.8132717296e+00 -3.1406787635e+00 1.8132717296e+00 3.1406787635e+00 
32100 6.0510351710e+00 -1.0997216151e-03 1.8132971503e+00 -3.1407227936e+00 1.8132971503e+00 3.1407227936e+00 
32200 6.0510366929e+00 -1.2712431166e-03 1.8133274742e+00 -3.1407753161e+00 1.8133274742e+00 3.1407753161e+00 
32300 6.0510380143e+00 -1.4362488320e-03 1.8133625271e+00 -3.1408360295e+00 1.8133625271e+00 3.1408360295e+00 
32400 6.0510391359e+00 -1.5945473302e-03 1.8134021291e+00 -3.1409046221e+00 1.8134021291e+00 3.1409046221e+00 
32500 6.0510400604e+00 -1.7459647896e-03 1.8134460949e+00 -3.1409807731e+00 1.8134460949e+00 3.1409807731e+00 
32600 6.0510407916e+00 -1.8903449364e-03 1.8134942345e+00 -3.1410641534e+00 1.8134942345e+00 3.1410641534e+00 
32700 6.0510413346e+00 -2.0275489518e-03 1.8135463536e+00 -3.1411544264e+00 1.8135463536e+00 3.1411544264e+00 
32800 6.0510416960e+00 -2.1574553483e-03 1.8136022540e+00 -3.1412512487e+00 1.8136022540e+00 3.1412512487e+00 
32900 6.0510418831e+00 -2.2799598165e-03 1.8136617342e+00 -3.1413542714e+00 1.8136617342e+00 3.1413542714e+00 
33000 6.0510419047e+00 -2.3949750437e-03 1.8137245897e+00 -3.1414631403e+00 1.8137245897e+00 3.1414631403e+00 
33100 6.0510417700e+00 -2.5024305042e-03 1.8137906138e+00 -3.1415774974e+00 1.8137906138e+00 3.1415774974e+00 
33200 6.0510414894e+00 -2.6022722241e-03 1.8138595977e+00 -3.1416969809e+00 1.8138595977e+00 3.1416969809e+00 
33300 6.0510410736e+00 -2.6944625200e-03 1.8139313311e+00 -3.1418212270e+00 1.8139313311e+00 3.1418212270e+00 
33400 6.0510405343e+00 -2.7789797138e-03 1.8140056030e+00 -3.1419498696e+00 1.8140056030e+00 3.1419498696e+00 
33500 6.0510398833e+00 -2.8558178244e-03 1.8140822014e+00 -3.1420825420e+00 1.8140822014e+00 3.1420825420e+00 
33600 6.0510391328e+00 -2.9249862369e-03 1.8141609145e+00 -3.1422188770e+00 1.8141609145e+00 3.1422188770e+00 
33700 6.0510382953e+00 -2.9865093510e-03 1.8142415305e+00 -3.1423585080e+00 1.8142415305e+00 3.1423585080e+00 
33800 6.0510373835e+00 -3.0404262096e-03 1.8143238385e+00 -3.1425010696e+00 1.8143238385e+00 3.1425010696e+00 
33900 6.0510364098e+00 -3.0867901079e-03 1.8144076286e+00 -3.1426461984e+00 1.8144076286e+00 3.1426461984e+00 
34000 6.0510353869e+00 -3.1256681855e-03 1.8144926926e+00 -3.1427935335e+00 1.8144926926e+00 3.1427935335e+00 
34100 6.0510343270e+00 -3.1571410013e-03 1.8145788239e+00 -3.1429427173e+00 1.8145788239e+00 3.1429427173e+00 
34200 6.0510332422e+00 -3.1813020926e-03 1.8146658184e+00 -3.1430933962e+00 1.8146658184e+00 3.1430933962e+00 
34300 6.0510321443e+00 -3.1982575197e-03 1.8147534744e+00 -3.1432452209e+00 1.8147534744e+00 3.1432452209e+00 
34400 6.0510310445e+00 -3.2081253975e-03 1.8148415933e+00 -3.1433978474e+00 1.8148415933e+00 3.1433978474e+00 
34500 6.0510299535e+00 -3.2110354138e-03 1.8149299799e+00 -3.1435509373e+00 1.8149299799e+00 3.1435509373e+00 
34600 6.0510288817e+00 -3.2071283366e-03 1.8150184423e+00 -3.1437041587e+00 1.8150184423e+00 3.1437041587e+00 
34700 6.0510278385e+00 -3.1965555110e-03 1.8151067928e+00 -3.1438571862e+00 1.8151067928e+00 3.1438571862e+00 
34800 6.0510268330e+00 -3.1794783466e-03 1.8151948477e+00 -3.1440097018e+00 1.8151948477e+00 3.1440097018e+00 
34900 6.0510258733e+00 -3.1560677972e-03 1.8152824279e+00 -3.1441613952e+00 1.8152824279e+00 3.1441613952e+00 
35000 6.0510249669e+00 -3.1265038320e-03 1.8153693591e+00 -3.1443119644e+00 1.8153693591e+00 3.1443119644e+00 
35100 6.0510241205e+00 -3.0909749021e-03 1.8154554718e+00 -3.1444611161e+00 1.8154554718e+00 3.1444611161e+00 
35200 6.0510233400e+00 -3.0496774006e-03 1.8155406019e+00 -3.1446085658e+00 1.8155406019e+00 3.1446085658e+00 
35300 6.0510226305e+00 -3.0028151190e-03 1.8156245907e+00 -3.1447540386e+00 1.8156245907e+00 3.1447540386e+00 
35400 6.0510219962e+00 -2.9505987005e-03 1.8157072851e+00 -3.1448972694e+00 1.8157072851e+00 3.1448972694e+00 
35500 6.0510214407e+00 -2.8932450905e-03 1.8157885377e+00 -3.1450380032e+00 1.8157885377e+00 3.1450380032e+00 
35600 6.0510209666e+00 -2.8309769869e-03 1.8158682074e+00 -3.1451759951e+00 1.8158682074e+00 3.1451759951e+00 
35700 6.0510205757e+00 -2.7640222890e-03 1.8159461590e+00 -3.1453110113e+00 1.8159461590e+00 3.1453110113e+00 
35800 6.0510202693e+00 -2.6926135480e-03 1.8160222638e+00 -3.1454428285e+00 1.8160222638e+00 3.1454428285e+00 
35900 6.0510200476e+00 -2.6169874186e-03 1.8160963992e+00 -3.1455712349e+00 1.8160963992e+00 3.1455712349e+00 
36000 6.0510199104e+00 -2.5373841137e-03 1.8161684495e+00 -3.1456960296e+00 1.8161684495e+00 3.1456960296e+00 
36100 6.0510198565e+00 -2.4540468619e-03 1.8162383053e+00 -3.1458170235e+00 1.8162383053e+00 3.1458170235e+00 
36200 6.0510198843e+00 -2.3672213703e-03 1.8163058643e+00 -3.1459340390e+00 1.8163058643e+00 3.1459340390e+00 
36300 6.0510199914e+00 -2.2771552920e-03 1.8163710305e+00 -3.1460469102e+00 1.8163710305e+00 3.1460469102e+00 
36400 6.0510201751e+00 -2.1840976999e-03 1.8164337150e+00 -3.1461554830e+00 1.8164337150e+00 3.1461554830e+00 
36500 6.0510204320e+00 -2.0882985676e-03 1.8164938359e+00 -3.1462596153e+00 1.8164938359e+00 3.1462596153e+00 
36600 6.0510207582e+00 -1.9900082585e-03 1.8165513177e+00 -3.1463591769e+00 1.8165513177e+00 3.1463591769e+00 
36700 6.0510211494e+00 -1.8894770230e-03 1.8166060924e+00 -3.1464540493e+00 1.8166060924e+00 3.1464540493e+00 
36800 6.0510216011e+00 -1.7869545053e-03 1.8166580983e+00 -3.1465441262e+00 1.8166580983e+00 3.1465441262e+00 
36900 6.0510221083e+00 -1.6826892611e-03 1.8167072810e+00 -3.1466293131e+00 1.8167072810e+00 3.1466293131e+00 
37000 6.0510226659e+00 -1.5769282854e-03 1.8167535927e+00 -3.1467095274e+00 1.8167535927e+00 3.1467095274e+00 
37100 6.0510232684e+00 -1.4699165526e-03 1.8167969925e+00 -3.1467846980e+00 1.8167969925e+00 3.1467846980e+00 
37200 6.0510239104e+00 -1.3618965685e-03 1.8168374461e+00 -3.1468547658e+00 1.8168374461e+00 3.1468547658e+00 
37300 6.0510245860e+00 -1.2531079362e-03 1.8168749261e+00 -3.1469196831e+00 1.8168749261e+00 3.1469196831e+00 
37400 6.0510252897e+00 -1.1437869345e-03 1.8169094115e+00 -3.1469794135e+00 1.8169094115e+00 3.1469794135e+00 
37500 6.0510260157e+00 -1.0341661115e-03 1.8169408878e+00 -3.1470339320e+00 1.8169408878e+00 3.1470339320e+00 
37600 6.0510267584e+00 -9.2447389286e-04 1.8169693468e+00 -3.1470832245e+00 1.8169693468e+00 3.1470832245e+00 
37700 6.0510275122e+00 -8.1493420504e-04 1.8169947869e+00 -3.1471272880e+00 1.8169947869e+00 3.1471272880e+00 
37800 6.0510282715e+00 -7.0576611483e-04 1.8170172123e+00 -3.1471661299e+00 1.8170172123e+00 3.1471661299e+00 
37900 6.0510290311e+00 -5.9718348502e-04 1.8170366333e+00 -3.1471997681e+00 1.8170366333e+00 3.1471997681e+00 
38000 6.0510297859e+00 -4.8939464687e-04 1.8170530662e+00 -3.1472282308e+00 1.8170530662e+00 3.1472282308e+00 
38100 6.0510305311e+00 -3.8260208972e-04 1.8170665330e+00 -3.1472515558e+00 1.8170665330e+00 3.1472515558e+00 
38200 6.0510312620e+00 -2.7700216810e-04 1.8170770610e+00 -3.1472697909e+00 1.8170770610e+00 3.1472697909e+00 
38300 6.0510319743e+00 -1.7278482656e-04 1.8170846832e+00 -3.1472829929e+00 1.8170846832e+00 3.1472829929e+00 
38400 6.0510326639e+00 -7.0133342725e-05 1.8170894376e+00 -3.1472912279e+00 1.8170894376e+00 3.1472912279e+00 
38500 6.0510333271e+00 2.8814542766e-05 1.8170894376e+00 -3.1472912279e+00 1.8170894376e+00 3.1472912279e+00 
38600 6.0510339606e+00 1.2866088117e-04 1.8170894376e+00 -3.1472912279e+00 1.8170894376e+00 3.1472912279e+00 
38700 6.0510345616e+00 2.2560774528e-04 1.8170858973e+00 -3.1472850959e+00 1.8170858973e+00 3.1472850959e+00 
38800 6.0510351274e+00 3.2032545251e-04 1.8170796894e+00 -3.1472743434e+00 1.8170796894e+00 3.1472743434e+00 
38900 6.0510356557e+00 4.1266738164e-04 1.8170708751e+00 -3.1472590766e+00 1.8170708751e+00 3.1472590766e+00 
39000 6.0510361448e+00 5.0249472599e-04 1.8170595198e+00 -3.1472394087e+00 1.8170595198e+00 3.1472394087e+00 
39100 6.0510365932e+00 5.8967661998e-04 1.8170456927e+00 -3.1472154594e+00 1.8170456927e+00 3.1472154594e+00 
39200 6.0510369996e+00 6.7409024688e-04 1.8170294665e+00 -3.1471873548e+00 1.8170294665e+00 3.1471873548e+00 
39300 6.0510373635e+00 7.5562092796e-04 1.8170109173e+00 -3.1471552266e+00 1.8170109173e+00 3.1471552266e+00 
39400 6.0510376845e+00 8.3416219304e-04 1.8169901243e+00 -3.1471192122e+00 1.8169901243e+00 3.1471192122e+00 
39500 6.0510379623e+00 9.0961583276e-04 1.8169671699e+00 -3.1470794539e+00 1.8169671699e+00 3.1470794539e+00 
39600 6.0510381975e+00 9.8189193262e-04 1.8169421388e+00 -3.1470360988e+00 1.8169421388e+00 3.1470360988e+00 
39700 6.0510383905e+00 1.0509088893e-03 1.8169151184e+00 -3.1469892981e+00 1.8169151184e+00 3.1469892981e+00 
39800 6.0510385424e+00 1.1165934091e-03 1.8168861983e+00 -3.1469392071e+00 1.8168861983e+00 3.1469392071e+00 
39900 6.0510386542e+00 1.1788804894e-03 1.8168554702e+00 -3.1468859844e+00 1.8168554702e+00 3.1468859844e+00 
40000 6.0510387274e+00 1.2377133833e-03 1.8168230274e+00 -3.1468297919e+00 1.8168230274e+00 3.1468297919e+00 
40100 6.0510387637e+00 1.2930435469e-03 1.8167889650e+00 -3.1467707939e+00 1.8167889650e+00 3.1467707939e+00 
40200 6.0510387650e+00 1.3448305719e-03 1.8167533791e+00 -3.1467091574e+00 1.8167533791e+00 3.1467091574e+00 
40300 6.0510387334e+00 1.3930421010e-03 1.8167163673e+00 -3.1466450511e+00 1.8167163673e+00 3.1466450511e+00 
40400 6.0510386711e+00 1.4376537295e-03 1.8166780279e+00 -3.1465786453e+00 1.8166780279e+00 3.1465786453e+00 
40500 6.0510385805e+00 1.4786488913e-03 1.8166384598e+00 -3.1465101114e+00 1.8166384598e+00 3.1465101114e+00 
40600 6.0510384641e+00 1.5160187309e-03 1.8165977626e+00 -3.1464396217e+00 1.8165977626e+00 3.1464396217e+00 
40700 6.0510383246e+00 1.5497619626e-03 1.8165560359e+00 -3.1463673490e+00 1.8165560359e+00 3.1463673490e+00 
40800 6.0510381645e+00 1.5798847157e-03 1.8165133795e+00 -3.1462934658e+00 1.8165133795e+00 3.1462934658e+00 
40900 6.0510379866e+00 1.6064003676e-03 1.8164698929e+00 -3.1462181449e+00 1.8164698929e+00 3.1462181449e+00 
41000 6.0510377936e+00 1.6293293655e-03 1.8164256754e+00 -3.1461415580e+00 1.8164256754e+00 3.1461415580e+00 
41100 6.0510375883e+00 1.6486990368e-03 1.8163808257e+00 -3.1460638761e+00 1.8163808257e+00 3.1460638761e+00 
41200 6.0510373732e+00 1.6645433884e-03 1.8163354417e+00 -3.1459852687e+00 1.8163354417e+00 3.1459852687e+00 
41300 6.0510371512e+00 1.6769028968e-03 1.8162896205e+00 -3.1459059039e+00 1.8162896205e+00 3.1459059039e+00 
41400 6.0510369248e+00 1.6858242890e-03 1.8162434578e+00 -3.1458259478e+00 1.8162434578e+00 3.1458259478e+00 
41500 6.0510366964e+00 1.6913603143e-03 1.8161970483e+00 -3.1457455643e+00 1.8161970483e+00 3.1457455643e+00 
41600 6.0510364686e+00 1.6935695089e-03 1.8161504853e+00 -3.1456649147e+00 1.8161504853e+00 3.1456649147e+00 
41700 6.0510362436e+00 1.6925159529e-03 1.8161038602e+00 -3.1455841578e+00 1.8161038602e+00 3.1455841578e+00 
41800 6.0510360235e+00 1.6882690210e-03 1.8160572630e+00 -3.1455034490e+00 1.8160572630e+00 3.1455034490e+00 
41900 6.0510358105e+00 1.6809031275e-03 1.8160107815e+00 -3.1454229406e+00 1.8160107815e+00 3.1454229406e+00 
42000 6.0510356064e+00 1.6704974658e-03 1.8159645016e+00 -3.1453427815e+00 1.8159645016e+00 3.1453427815e+00 
42100 6.0510354129e+00 1.6571357440e-03 1.8159185070e+00 -3.1452631166e+00 1.8159185070e+00 3.1452631166e+00 
42200 6.0510352316e+00 1.6409059162e-03 1.8158728792e+00 -3.1451840868e+00 1.8158728792e+00 3.1451840868e+00 
42300 6.0510350639e+00 1.6218999115e-03 1.8158276971e+00 -3.1451058291e+00 1.8158276971e+00 3.1451058291e+00 
42400 6.0510349110e+00 1.6002133592e-03 1.8157830372e+00 -3.1450284759e+00 1.8157830372e+00 3.1450284759e+00 
42500 6.0510347739e+00 1.5759453137e-03 1.8157389734e+00 -3.1449521551e+00 1.8157389734e+00 3.1449521551e+00 
42600 6.0510346536e+00 1.5491979777e-03 1.8156955767e+00 -3.1448769900e+00 1.8156955767e+00 3.1448769900e+00 
42700 6.0510345506e+00 1.5200764241e-03 1.8156529156e+00 -3.1448030988e+00 1.8156529156e+00 3.1448030988e+00 
42800 6.0510344656e+00 1.4886883193e-03 1.8156110554e+00 -3.1447305948e+00 1.8156110554e+00 3.1447305948e+00 
42900 6.0510343988e+00 1.4551436466e-03 1.8155700587e+00 -3.1446595864e+00 1.8155700587e+00 3.1446595864e+00 
43000 6.0510343505e+00 1.4195544303e-03 1.8155299848e+00 -3.1445901764e+00 1.8155299848e+00 3.1445901764e+00 
43100 6.0510343206e+00 1.3820344627e-03 1.8154908902e+00 -3.1445224625e+00 1.8154908902e+00 3.1445224625e+00 
43200 6.0510343090e+00 1.3426990326e-03 1.8154528281e+00 -3.1444565370e+00 1.8154528281e+00 3.1444565370e+00 
43300 6.0510343154e+00 1.3016646573e-03 1.8154158485e+00 -3.1443924864e+00 1.8154158485e+00 3.1443924864e+00 
43400 6.0510343394e+00 1.2590488177e-03 1.8153799983e+00 -3.1443303920e+00 1.8153799983e+00 3.1443303920e+00 
43500 6.0510343804e+00 1.2149696972e-03 1.8153453211e+00 -3.1442703294e+00 1.8153453211e+00 3.1442703294e+00 
43600 6.0510344378e+00 1.1695459254e-03 1.8153118573e+00 -3.1442123685e+00 1.8153118573e+00 3.1442123685e+00 
43700 6.0510345107e+00 1.1228963258e-03 1.8152796441e+00 -3.1441565735e+00 1.8152796441e+00 3.1441565735e+00 
43800 6.0510345984e+00 1.0751396700e-03 1.8152487151e+00 -3.1441030030e+00 1.8152487151e+00 3.1441030030e+00 
43900 6.0510346998e+00 1.0263944359e-03 1.8152191011e+00 -3.1440517100e+00 1.8152191011e+00 3.1440517100e+00 
44000 6.0510348138e+00 9.7677857363e-04 1.8151908293e+00 -3.1440027417e+00 1.8151908293e+00 3.1440027417e+00 
44100 6.0510349395e+00 9.2640927606e-04 1.8151639236e+00 -3.1439561398e+00 1.8151639236e+00 3.1439561398e+00 
44200 6.0510350755e+00 8.7540275755e-04 1.8151384051e+00 -3.1439119404e+00 1.8151384051e+00 3.1439119404e+00 
44300 6.0510352208e+00 8.2387403866e-04 1.8151142912e+00 -3.1438701739e+00 1.8151142912e+00 3.1438701739e+00 
44400 6.0510353741e+00 7.7193673862e-04 1.8150915964e+00 -3.1438308654e+00 1.8150915964e+00 3.1438308654e+00 
44500 6.0510355341e+00 7.1970287509e-04 1.8150703321e+00 -3.1437940345e+00 1.8150703321e+00 3.1437940345e+00 
44600 6.0510356996e+00 6.6728267181e-04 1.8150505063e+00 -3.1437596953e+00 1.8150505063e+00 3.1437596953e+00 
44700 6.0510358694e+00 6.1478437419e-04 1.8150321244e+00 -3.1437278569e+00 1.8150321244e+00 3.1437278569e+00 
44800 6.0510360422e+00 5.6231407304e-04 1.8150151886e+00 -3.1436985231e+00 1.8150151886e+00 3.1436985231e+00 
44900 6.0510362168e+00 5.0997553668e-04 1.8149996980e+00 -3.1436716926e+00 1.8149996980e+00 3.1436716926e+00 
45000 6.0510363920e+00 4.5787005153e-04 1.8149856491e+00 -3.1436473592e+00 1.8149856491e+00 3.1436473592e+00 
45100 6.0510365667e+00 4.0609627127e-04 1.8149730355e+00 -3.1436255118e+00 1.8149730355e+00 3.1436255118e+00 
45200 6.0510367398e+00 3.5475007475e-04 1.8149618481e+00 -3.1436061347e+00 1.8149618481e+00 3.1436061347e+00 
45300 6.0510369103e+00 3.0392443272e-04 1.8149520752e+00 -3.1435892075e+00 1.8149520752e+00 3.1435892075e+00 
45400 6.0510370771e+00 2.5370928333e-04 1.8149437024e+00 -3.1435747054e+00 1.8149437024e+00 3.1435747054e+00 
45500 6.0510372394e+00 2.0419141666e-04 1.8149367129e+00 -3.1435625993e+00 1.8149367129e+00 3.1435625993e+00 
45600 6.0510373963e+00 1.5545436810e-04 1.8149310876e+00 -3.1435528560e+00 1.8149310876e+00 3.1435528560e+00 
45700 6.0510375471e+00 1.0757832065e-04 1.8149268050e+00 -3.1435454383e+00 1.8149268050e+00 3.1435454383e+00 
45800 6.0510376910e+00 6.0640016209e-05 1.8149238413e+00 -3.1435403050e+00 1.8149238413e+00 3.1435403050e+00 
45900 6.0510378274e+00 1.6418801149e-05 1.8149238413e+00 -3.1435403050e+00 1.8149238413e+00 3.1435403050e+00 
46000 6.0510379556e+00 -2.8003690079e-05 1.8149238413e+00 -3.1435403050e+00 1.8149238413e+00 3.1435403050e+00 
46100 6.0510380756e+00 -7.2537253300e-05 1.8149238413e+00 -3.1435403050e+00 1.8149238413e+00 3.1435403050e+00 
46200 6.0510381867e+00 -1.1505400469e-04 1.8149258396e+00 -3.1435437662e+00 1.8149258396e+00 3.1435437662e+00 
46300 6.0510382887e+00 -1.5630193383e-04 1.8149290093e+00 -3.1435492562e+00 1.8149290093e+00 3.1435492562e+00 
46400 6.0510383815e+00 -1.9622644122e-04 1.8149333153e+00 -3.1435567145e+00 1.8149333153e+00 3.1435567145e+00 
46500 6.0510384648e+00 -2.3477673854e-04 1.8149387212e+00 -3.1435660777e+00 1.8149387212e+00 3.1435660777e+00 
46600 6.0510385387e+00 -2.7190586862e-04 1.8149451891e+00 -3.1435772805e+00 1.8149451891e+00 3.1435772805e+00 
46700 6.0510386032e+00 -3.0757071730e-04 1.8149526799e+00 -3.1435902548e+00 1.8149526799e+00 3.1435902548e+00 
46800 6.0510386584e+00 -3.4173201742e-04 1.8149611531e+00 -3.1436049309e+00 1.8149611531e+00 3.1436049309e+00 
46900 6.0510387043e+00 -3.7435434499e-04 1.8149705674e+00 -3.1436212370e+00 1.8149705674e+00 3.1436212370e+00 
47000 6.0510387414e+00 -4.0540610781e-04 1.8149808804e+00 -3.1436390996e+00 1.8149808804e+00 3.1436390996e+00 
47100 6.0510387698e+00 -4.3485952675e-04 1.8149920487e+00 -3.1436584437e+00 1.8149920487e+00 3.1436584437e+00 
47200 6.0510387898e+00 -4.6269060978e-04 1.8150040284e+00 -3.1436791931e+00 1.8150040284e+00 3.1436791931e+00 
47300 6.0510388020e+00 -4.8887911908e-04 1.8150167747e+00 -3.1437012703e+00 1.8150167747e+00 3.1437012703e+00 
47400 6.0510388066e+00 -5.1340853142e-04 1.8150302423e+00 -3.1437245970e+00 1.8150302423e+00 3.1437245970e+00 
47500 6.0510388043e+00 -5.3626599198e-04 1.8150443856e+00 -3.1437490938e+00 1.8150443856e+00 3.1437490938e+00 
47600 6.0510387954e+00 -5.5744226190e-04 1.8150591584e+00 -3.1437746811e+00 1.8150591584e+00 3.1437746811e+00 
47700 6.0510387805e+00 -5.7693165979e-04 1.8150745145e+00 -3.1438012786e+00 1.8150745145e+00 3.1438012786e+00 
47800 6.0510387602e+00 -5.9473199748e-04 1.8150904073e+00 -3.1438288057e+00 1.8150904073e+00 3.1438288057e+00 
47900 6.0510387350e+00 -6.1084451014e-04 1.8151067903e+00 -3.1438571819e+00 1.8151067903e+00 3.1438571819e+00 
48000 6.0510387055e+00 -6.2527378122e-04 1.8151236170e+00 -3.1438863266e+00 1.8151236170e+00 3.1438863266e+00 
48100 6.0510386724e+00 -6.3802766226e-04 1.8151408410e+00 -3.1439161595e+00 1.8151408410e+00 3.1439161595e+00 
48200 6.0510386362e+00 -6.4911718802e-04 1.8151584162e+00 -3.1439466007e+00 1.8151584162e+00 3.1439466007e+00 
48300 6.0510385974e+00 -6.5855648707e-04 1.8151762967e+00 -3.1439775706e+00 1.8151762967e+00 3.1439775706e+00 
48400 6.0510385568e+00 -6.6636268816e-04 1.8151944370e+00 -3.1440089905e+00 1.8151944370e+00 3.1440089905e+00 
48500 6.0510385147e+00 -6.7255582266e-04 1.8152127922e+00 -3.1440407826e+00 1.8152127922e+00 3.1440407826e+00 
48600 6.0510384719e+00 -6.7715872331e-04 1.8152313177e+00 -3.1440728698e+00 1.8152313177e+00 3.1440728698e+00 
48700 6.0510384289e+00 -6.8019691951e-04 1.8152499699e+00 -3.1441051763e+00 1.8152499699e+00 3.1441051763e+00 
48800 6.0510383861e+00 -6.8169852960e-04 1.8152687056e+00 -3.1441376274e+00 1.8152687056e+00 3.1441376274e+00 
48900 6.0510383440e+00 -6.8169415020e-04 1.8152874824e+00 -3.1441701498e+00 1.8152874824e+00 3.1441701498e+00 
49000 6.0510383031e+00 -6.8021674293e-04 1.8153062589e+00 -3.1442026717e+00 1.8153062589e+00 3.1442026717e+00 
49100 6.0510382639e+00 -6.7730151897e-04 1.8153249945e+00 -3.1442351228e+00 1.8153249945e+00 3.1442351228e+00 
49200 6.0510382266e+00 -6.7298582143e-04 1.8153436497e+00 -3.1442674344e+00 1.8153436497e+00 3.1442674344e+00 
49300 6.0510381918e+00 -6.6730900605e-04 1.8153621857e+00 -3.1442995398e+00 1.8153621857e+00 3.1442995398e+00 
49400 6.0510381597e+00 -6.6031232038e-04 1.8153805653e+00 -3.1443313741e+00 1.8153805653e+00 3.1443313741e+00 
49500 6.0510381305e+00 -6.5203878175e-04 1.8153987519e+00 -3.1443628743e+00 1.8153987519e+00 3.1443628743e+00 
49600 6.0510381046e+00 -6.4253305420e-04 1.8154167105e+00 -3.1443939795e+00 1.8154167105e+00 3.1443939795e+00 
49700 6.0510380821e+00 -6.3184132484e-04 1.8154344071e+00 -3.1444246309e+00 1.8154344071e+00 3.1444246309e+00 
49800 6.0510380633e+00 -6.2001117959e-04 1.8154518091e+00 -3.1444547720e+00 1.8154518091e+00 3.1444547720e+00 
49900 6.0510380481e+00 -6.0709147890e-04 1.8154688850e+00 -3.1444843484e+00 1.8154688850e+00 3.1444843484e+00 
50000 6.0510380369e+00 -5.9313223336e-04 1.8154856050e+00 -3.1445133083e+00 1.8154856050e+00 3.1445133083e+00 
50100 6.0510380295e+00 -5.7818447968e-04 1.8155019404e+00 -3.1445416020e+00 1.8155019404e+00 3.1445416020e+00 
50200 6.0510380261e+00 -5.6230015722e-04 1.8155178640e+00 -3.1445691824e+00 1.8155178640e+00 3.1445691824e+00 
50300 6.0510380266e+00 -5.4553198519e-04 1.8155333499e+00 -3.1445960049e+00 1.8155333499e+00 3.1445960049e+00 
50400 6.0510380309e+00 -5.2793334091e-04 1.8155483740e+00 -3.1446220273e+00 1.8155483740e+00 3.1446220273e+00 
50500 6.0510380391e+00 -5.0955813924e-04 1.8155629132e+00 -3.1446472100e+00 1.8155629132e+00 3.1446472100e+00 
50600 6.0510380510e+00 -4.9046071342e-04 1.8155769463e+00 -3.1446715160e+00 1.8155769463e+00 3.1446715160e+00 
50700 6.0510380664e+00 -4.7069569754e-04 1.8155904533e+00 -3.1446949109e+00 1.8155904533e+00 3.1446949109e+00 
50800 6.0510380852e+00 -4.5031791085e-04 1.8156034160e+00 -3.1447173628e+00 1.8156034160e+00 3.1447173628e+00 
50900 6.0510381073e+00 -4.2938224401e-04 1.8156158173e+00 -3.1447388426e+00 1.8156158173e+00 3.1447388426e+00 
51000 6.0510381324e+00 -4.0794354761e-04 1.8156276420e+00 -3.1447593236e+00 1.8156276420e+00 3.1447593236e+00 
51100 6.0510381603e+00 -3.8605652305e-04 1.8156388763e+00 -3.1447787819e+00 1.8156388763e+00 3.1447787819e+00 
51200 6.0510381908e+00 -3.6377561588e-04 1.8156495077e+00 -3.1447971961e+00 1.8156495077e+00 3.1447971961e+00 
51300 6.0510382237e+00 -3.4115491198e-04 1.8156595255e+00 -3.1448145474e+00 1.8156595255e+00 3.1448145474e+00 
51400 6.0510382586e+00 -3.1824803643e-04 1.8156689203e+00 -3.1448308196e+00 1.8156689203e+00 3.1448308196e+00 
51500 6.0510382954e+00 -2.9510805554e-04 1.8156776842e+00 -3.1448459992e+00 1.8156776842e+00 3.1448459992e+00 
51600 6.0510383337e+00 -2.7178738185e-04 1.8156858109e+00 -3.1448600750e+00 1.8156858109e+00 3.1448600750e+00 
51700 6.0510383734e+00 -2.4833768251e-04 1.8156932953e+00 -3.1448730385e+00 1.8156932953e+00 3.1448730385e+00 
51800 6.0510384140e+00 -2.2480979098e-04 1.8157001340e+00 -3.1448848834e+00 1.8157001340e+00 3.1448848834e+00 
51900 6.0510384554e+00 -2.0125362223e-04 1.8157063247e+00 -3.1448956060e+00 1.8157063247e+00 3.1448956060e+00 
52000 6.0510384973e+00 -1.7771809151e-04 1.8157118667e+00 -3.1449052051e+00 1.8157118667e+00 3.1449052051e+00 
52100 6.0510385395e+00 -1.5425103679e-04 1.8157167606e+00 -3.1449136815e+00 1.8157167606e+00 3.1449136815e+00 
52200 6.0510385816e+00 -1.3089914497e-04 1.8157210083e+00 -3.1449210387e+00 1.8157210083e+00 3.1449210387e+00 
52300 6.0510386235e+00 -1.0770788197e-04 1.8157246129e+00 -3.1449272821e+00 1.8157246129e+00 3.1449272821e+00 
52400 6.0510386648e+00 -8.4721426566e-05 1.8157275789e+00 -3.1449324193e+00 1.8157275789e+00 3.1449324193e+00 
52500 6.0510387055e+00 -6.1982608353e-05 1.8157299119e+00 -3.1449364601e+00 1.8157299119e+00 3.1449364601e+00 
52600 6.0510387452e+00 -4.1272568638e-05 1.8157299119e+00 -3.1449364601e+00 1.8157299119e+00 3.1449364601e+00 
52700 6.0510387838e+00 -2.0272131936e-05 1.8157299119e+00 -3.1449364601e+00 1.8157299119e+00 3.1449364601e+00 
52800 6.0510388210e+00 9.7332895916e-07 1.8157299119e+00 -3.1449364601e+00 1.8157299119e+00 3.1449364601e+00 
52900 6.0510388567e+00 2.2419513849e-05 1.8157299119e+00 -3.1449364601e+00 1.8157299119e+00 3.1449364601e+00 
53000 6.0510388909e+00 4.4023236935e-05 1.8157299119e+00 -3.1449364601e+00 1.8157299119e+00 3.1449364601e+00 
53100 6.0510389235e+00 6.5742465387e-05 1.8157299119e+00 -3.1449364601e+00 1.8157299119e+00 3.1449364601e+00 
53200 6.0510389545e+00 8.7536354723e-05 1.8157299119e+00 -3.1449364601e+00 1.8157299119e+00 3.1449364601e+00 
53300 6.0510389834e+00 1.0690797433e-04 1.8157275014e+00 -3.1449322850e+00 1.8157275014e+00 3.1449322850e+00 
53400 6.0510390103e+00 1.2571729746e-04 1.8157245574e+00 -3.1449271860e+00 1.8157245574e+00 3.1449271860e+00 
53500 6.0510390351e+00 1.4393741510e-04 1.8157210955e+00 -3.1449211898e+00 1.8157210955e+00 3.1449211898e+00 
53600 6.0510390579e+00 1.6154318627e-04 1.8157171319e+00 -3.1449143246e+00 1.8157171319e+00 3.1449143246e+00 
53700 6.0510390786e+00 1.7851125154e-04 1.8157126834e+00 -3.1449066196e+00 1.8157126834e+00 3.1449066196e+00 
53800 6.0510390973e+00 1.9482004276e-04 1.8157077677e+00 -3.1448981053e+00 1.8157077677e+00 3.1448981053e+00 
53900 6.0510391138e+00 2.1044978884e-04 1.8157024028e+00 -3.1448888131e+00 1.8157024028e+00 3.1448888131e+00 
54000 6.0510391282e+00 2.2538251789e-04 1.8156966075e+00 -3.1448787754e+00 1.8156966075e+00 3.1448787754e+00 
54100 6.0510391407e+00 2.3960205559e-04 1.8156904010e+00 -3.1448680254e+00 1.8156904010e+00 3.1448680254e+00 
54200 6.0510391512e+00 2.5309402002e-04 1.8156838030e+00 -3.1448565972e+00 1.8156838030e+00 3.1448565972e+00 
54300 6.0510391597e+00 2.6584581289e-04 1.8156768333e+00 -3.1448445254e+00 1.8156768333e+00 3.1448445254e+00 
54400 6.0510391665e+00 2.7784660742e-04 1.8156695125e+00 -3.1448318453e+00 1.8156695125e+00 3.1448318453e+00 
54500 6.0510391715e+00 2.8908733284e-04 1.8156618611e+00 -3.1448185928e+00 1.8156618611e+00 3.1448185928e+00 
54600 6.0510391749e+00 2.9956065564e-04 1.8156539002e+00 -3.1448048041e+00 1.8156539002e+00 3.1448048041e+00 
54700 6.0510391768e+00 3.0926095773e-04 1.8156456508e+00 -3.1447905157e+00 1.8156456508e+00 3.1447905157e+00 
54800 6.0510391772e+00 3.1818431154e-04 1.8156371342e+00 -3.1447757646e+00 1.8156371342e+00 3.1447757646e+00 
54900 6.0510391764e+00 3.2632845222e-04 1.8156283719e+00 -3.1447605878e+00 1.8156283719e+00 3.1447605878e+00 
55000 6.0510391743e+00 3.3369274709e-04 1.8156193853e+00 -3.1447450225e+00 1.8156193853e+00 3.1447450225e+00 
55100 6.0510391713e+00 3.4027816232e-04 1.8156101958e+00 -3.1447291058e+00 1.8156101958e+00 3.1447291058e+00 
55200 6.0510391673e+00 3.4608722717e-04 1.8156008249e+00 -3.1447128750e+00 1.8156008249e+00 3.1447128750e+00 
55300 6.0510391625e+00 3.5112399574e-04 1.8155912940e+00 -3.1446963669e+00 1.8155912940e+00 3.1446963669e+00 
55400 6.0510391570e+00 3.5539400646e-04 1.8155816243e+00 -3.1446796186e+00 1.8155816243e+00 3.1446796186e+00 
55500 6.0510391510e+00 3.5890423940e-04 1.8155718370e+00 -3.1446626664e+00 1.8155718370e+00 3.1446626664e+00 
55600 6.0510391446e+00 3.6166307155e-04 1.8155619529e+00 -3.1446455467e+00 1.8155619529e+00 3.1446455467e+00 
55700 6.0510391379e+00 3.6368023024e-04 1.8155519928e+00 -3.1446282954e+00 1.8155519928e+00 3.1446282954e+00 
55800 6.0510391311e+00 3.6496674473e-04 1.8155419772e+00 -3.1446109477e+00 1.8155419772e+00 3.1446109477e+00 
55900 6.0510391242e+00 3.6553489628e-04 1.8155319260e+00 -3.1445935386e+00 1.8155319260e+00 3.1445935386e+00 
56000 6.0510391173e+00 3.6539816661e-04 1.8155218591e+00 -3.1445761022e+00 1.8155218591e+00 3.1445761022e+00 
56100 6.0510391106e+00 3.6457118511e-04 1.8155117960e+00 -3.1445586723e+00 1.8155117960e+00 3.1445586723e+00 
56200 6.0510391042e+00 3.6306967481e-04 1.8155017555e+00 -3.1445412818e+00 1.8155017555e+00 3.1445412818e+00 
56300 6.0510390981e+00 3.6091039724e-04 1.8154917564e+00 -3.1445239627e+00 1.8154917564e+00 3.1445239627e+00 
56400 6.0510390925e+00 3.5811109641e-04 1.8154818166e+00 -3.1445067466e+00 1.8154818166e+00 3.1445067466e+00 
56500 6.0510390874e+00 3.5469044188e-04 1.8154719539e+00 -3.1444896639e+00 1.8154719539e+00 3.1444896639e+00 
56600 6.0510390828e+00 3.5066797135e-04 1.8154621854e+00 -3.1444727443e+00 1.8154621854e+00 3.1444727443e+00 
56700 6.0510390789e+00 3.4606403245e-04 1.8154525276e+00 -3.1444560165e+00 1.8154525276e+00 3.1444560165e+00 
56800 6.0510390757e+00 3.4089972435e-04 1.8154429965e+00 -3.1444395082e+00 1.8154429965e+00 3.1444395082e+00 
56900 6.0510390732e+00 3.3519683898e-04 1.8154336077e+00 -3.1444232462e+00 1.8154336077e+00 3.1444232462e+00 
57000 6.0510390715e+00 3.2897780210e-04 1.8154243758e+00 -3.1444072562e+00 1.8154243758e+00 3.1444072562e+00 
57100 6.0510390706e+00 3.2226561436e-04 1.8154153152e+00 -3.1443915627e+00 1.8154153152e+00 3.1443915627e+00 
57200 6.0510390705e+00 3.1508379244e-04 1.8154064394e+00 -3.1443761894e+00 1.8154064394e+00 3.1443761894e+00 
57300 6.0510390712e+00 3.0745631042e-04 1.8153977613e+00 -3.1443611586e+00 1.8153977613e+00 3.1443611586e+00 
57400 6.0510390727e+00 2.9940754143e-04 1.8153892933e+00 -3.1443464915e+00 1.8153892933e+00 3.1443464915e+00 
57500 6.0510390751e+00 2.9096219979e-04 1.8153810470e+00 -3.1443322084e+00 1.8153810470e+00 3.1443322084e+00 
57600 6.0510390782e+00 2.8214528363e-04 1.8153730332e+00 -3.1443183281e+00 1.8153730332e+00 3.1443183281e+00 
57700 6.0510390822e+00 2.7298201826e-04 1.8153652622e+00 -3.1443048684e+00 1.8153652622e+00 3.1443048684e+00 
57800 6.0510390869e+00 2.6349780017e-04 1.8153577435e+00 -3.1442918457e+00 1.8153577435e+00 3.1442918457e+00 
57900 6.0510390924e+00 2.5371814198e-04 1.8153504861e+00 -3.1442792754e+00 1.8153504861e+00 3.1442792754e+00 
58000 6.0510390986e+00 2.4366861825e-04 1.8153434979e+00 -3.1442671716e+00 1.8153434979e+00 3.1442671716e+00 
58100 6.0510391054e+00 2.3337481244e-04 1.8153367866e+00 -3.1442555472e+00 1.8153367866e+00 3.1442555472e+00 
58200 6.0510391128e+00 2.2286226484e-04 1.8153303587e+00 -3.1442444138e+00 1.8153303587e+00 3.1442444138e+00 
58300 6.0510391209e+00 2.1215642183e-04 1.8153242204e+00 -3.1442337819e+00 1.8153242204e+00 3.1442337819e+00 
58400 6.0510391294e+00 2.0128258634e-04 1.8153183769e+00 -3.1442236607e+00 1.8153183769e+00 3.1442236607e+00 
58500 6.0510391384e+00 1.9026586972e-04 1.8153128329e+00 -3.1442140582e+00 1.8153128329e+00 3.1442140582e+00 
58600 6.0510391478e+00 1.7913114493e-04 1.8153075923e+00 -3.1442049812e+00 1.8153075923e+00 3.1442049812e+00 
58700 6.0510391576e+00 1.6790300137e-04 1.8153026584e+00 -3.1441964355e+00 1.8153026584e+00 3.1441964355e+00 
58800 6.0510391676e+00 1.5660570109e-04 1.8152980338e+00 -3.1441884253e+00 1.8152980338e+00 3.1441884253e+00 
58900 6.0510391779e+00 1.4526313671e-04 1.8152937203e+00 -3.1441809541e+00 1.8152937203e+00 3.1441809541e+00 
59000 6.0510391884e+00 1.3389879095e-04 1.8152897192e+00 -3.1441740241e+00 1.8152897192e+00 3.1441740241e+00 
59100 6.0510391990e+00 1.2253569785e-04 1.8152860311e+00 -3.1441676361e+00 1.8152860311e+00 3.1441676361e+00 
59200 6.0510392097e+00 1.1119640574e-04 1.8152826560e+00 -3.1441617903e+00 1.8152826560e+00 3.1441617903e+00 
59300 6.0510392203e+00 9.9902941974e-05 1.8152795932e+00 -3.1441564854e+00 1.8152795932e+00 3.1441564854e+00 
59400 6.0510392309e+00 8.8676779493e-05 1.8152768415e+00 -3.1441517192e+00 1.8152768415e+00 3.1441517192e+00 
59500 6.0510392415e+00 7.7538805197e-05 1.8152743990e+00 -3.1441474887e+00 1.8152743990e+00 3.1441474887e+00 
59600 6.0510392519e+00 6.6509290186e-05 1.8152722632e+00 -3.1441437895e+00 1.8152722632e+00 3.1441437895e+00 
59700 6.0510392621e+00 5.7477194674e-05 1.8152722632e+00 -3.1441437895e+00 1.8152722632e+00 3.1441437895e+00 
59800 6.0510392721e+00 4.8297143253e-05 1.8152722632e+00 -3.1441437895e+00 1.8152722632e+00 3.1441437895e+00 
59900 6.0510392818e+00 3.8991356394e-05 1.8152722632e+00 -3.1441437895e+00 1.8152722632e+00 3.1441437895e+00 
60000 6.0510392911e+00 2.9581517487e-05 1.8152722632e+00 -3.1441437895e+00 1.8152722632e+00 3.1441437895e+00 
60100 6.0510393000e+00 2.0088753219e-05 1.8152722632e+00 -3.1441437895e+00 1.8152722632e+00 3.1441437895e+00 
60200 6.0510393085e+00 1.0533615522e-05 1.8152722632e+00 -3.1441437895e+00 1.8152722632e+00 3.1441437895e+00 
60300 6.0510393166e+00 9.3606508579e-07 1.8152722632e+00 -3.1441437895e+00 1.8152722632e+00 3.1441437895e+00 
60400 6.0510393243e+00 -8.6845436246e-06 1.8152722632e+00 -3.1441437895e+00 1.8152722632e+00 3.1441437895e+00 
60500 6.0510393316e+00 -1.8309475808e-05 1.8152722632e+00 -3.1441437895e+00 1.8152722632e+00 3.1441437895e+00 
60600 6.0510393384e+00 -2.7920628296e-05 1.8152722632e+00 -3.1441437895e+00 1.8152722632e+00 3.1441437895e+00 
60700 6.0510393449e+00 -3.7500540051e-05 1.8152722632e+00 -3.1441437895e+00 1.8152722632e+00 3.1441437895e+00 
60800 6.0510393509e+00 -4.7032401238e-05 1.8152722632e+00 -3.1441437895e+00 1.8152722632e+00 3.1441437895e+00 
60900 6.0510393565e+00 -5.6500060867e-05 1.8152722632e+00 -3.1441437895e+00 1.8152722632e+00 3.1441437895e+00 
61000 6.0510393617e+00 -6.5888033082e-05 1.8152722632e+00 -3.1441437895e+00 1.8152722632e+00 3.1441437895e+00 
61100 6.0510393664e+00 -7.5181502093e-05 1.8152722632e+00 -3.1441437895e+00 1.8152722632e+00 3.1441437895e+00 
61200 6.0510393706e+00 -8.2253546597e-05 1.8152743340e+00 -3.1441473762e+00 1.8152743340e+00 3.1441473762e+00 
61300 6.0510393744e+00 -8.8991871415e-05 1.8152765996e+00 -3.1441513003e+00 1.8152765996e+00 3.1441513003e+00 
61400 6.0510393777e+00 -9.5389946445e-05 1.8152790508e+00 -3.1441555459e+00 1.8152790508e+00 3.1441555459e+00 
61500 6.0510393806e+00 -1.0144207319e-04 1.8152816782e+00 -3.1441600968e+00 1.8152816782e+00 3.1441600968e+00 
61600 6.0510393831e+00 -1.0714337818e-04 1.8152844724e+00 -3.1441649363e+00 1.8152844724e+00 3.1441649363e+00 
61700 6.0510393852e+00 -1.1248980487e-04 1.8152874235e+00 -3.1441700478e+00 1.8152874235e+00 3.1441700478e+00 
61800 6.0510393869e+00 -1.1747810412e-04 1.8152905219e+00 -3.1441754144e+00 1.8152905219e+00 3.1441754144e+00 
61900 6.0510393883e+00 -1.2210582325e-04 1.8152937577e+00 -3.1441810190e+00 1.8152937577e+00 3.1441810190e+00 
62000 6.0510393894e+00 -1.2637129378e-04 1.8152971210e+00 -3.1441868443e+00 1.8152971210e+00 3.1441868443e+00 
62100 6.0510393902e+00 -1.3027361779e-04 1.8153006017e+00 -3.1441928731e+00 1.8153006017e+00 3.1441928731e+00 
62200 6.0510393907e+00 -1.3381265318e-04 1.8153041899e+00 -3.1441990881e+00 1.8153041899e+00 3.1441990881e+00 
62300 6.0510393910e+00 -1.3698899758e-04 1.8153078756e+00 -3.1442054719e+00 1.8153078756e+00 3.1442054719e+00 
62400 6.0510393911e+00 -1.3980397123e-04 1.8153116487e+00 -3.1442120072e+00 1.8153116487e+00 3.1442120072e+00 
62500 6.0510393910e+00 -1.4225959877e-04 1.8153154994e+00 -3.1442186768e+00 1.8153154994e+00 3.1442186768e+00 
62600 6.0510393908e+00 -1.4435859003e-04 1.8153194178e+00 -3.1442254635e+00 1.8153194178e+00 3.1442254635e+00 
62700 6.0510393904e+00 -1.4610431976e-04 1.8153233939e+00 -3.1442323504e+00 1.8153233939e+00 3.1442323504e+00 
62800 6.0510393900e+00 -1.4750080664e-04 1.8153274181e+00 -3.1442393205e+00 1.8153274181e+00 3.1442393205e+00 
62900 6.0510393895e+00 -1.4855269128e-04 1.8153314807e+00 -3.1442463572e+00 1.8153314807e+00 3.1442463572e+00 
63000 6.0510393889e+00 -1.4926521359e-04 1.8153355723e+00 -3.1442534441e+00 1.8153355723e+00 3.1442534441e+00 
63100 6.0510393883e+00 -1.4964418931e-04 1.8153396836e+00 -3.1442605649e+00 1.8153396836e+00 3.1442605649e+00 
63200 6.0510393878e+00 -1.4969598600e-04 1.8153438052e+00 -3.1442677039e+00 1.8153438052e+00 3.1442677039e+00 
63300 6.0510393872e+00 -1.4942749835e-04 1.8153479283e+00 -3.1442748452e+00 1.8153479283e+00 3.1442748452e+00 
63400 6.0510393868e+00 -1.4884612304e-04 1.8153520440e+00 -3.1442819738e+00 1.8153520440e+00 3.1442819738e+00 
63500 6.0510393863e+00 -1.4795973304e-04 1.8153561436e+00 -3.1442890746e+00 1.8153561436e+00 3.1442890746e+00 
63600 6.0510393860e+00 -1.4677665162e-04 1.8153602189e+00 -3.1442961331e+00 1.8153602189e+00 3.1442961331e+00 
63700 6.0510393858e+00 -1.4530562587e-04 1.8153642615e+00 -3.1443031351e+00 1.8153642615e+00 3.1443031351e+00 
63800 6.0510393857e+00 -1.4355580009e-04 1.8153682636e+00 -3.1443100670e+00 1.8153682636e+00 3.1443100670e+00 
63900 6.0510393857e+00 -1.4153668879e-04 1.8153722175e+00 -3.1443169154e+00 1.8153722175e+00 3.1443169154e+00 
64000 6.0510393858e+00 -1.3925814969e-04 1.8153761158e+00 -3.1443236674e+00 1.8153761158e+00 3.1443236674e+00 
64100 6.0510393861e+00 -1.3673035642e-04 1.8153799513e+00 -3.1443303107e+00 1.8153799513e+00 3.1443303107e+00 
64200 6.0510393866e+00 -1.3396377137e-04 1.8153837172e+00 -3.1443368334e+00 1.8153837172e+00 3.1443368334e+00 
64300 6.0510393872e+00 -1.3096911832e-04 1.8153874069e+00 -3.1443432241e+00 1.8153874069e+00 3.1443432241e+00 
64400 6.0510393880e+00 -1.2775735535e-04 1.8153910141e+00 -3.1443494720e+00 1.8153910141e+00 3.1443494720e+00 
64500 6.0510393890e+00 -1.2433964766e-04 1.8153945328e+00 -3.1443555666e+00 1.8153945328e+00 3.1443555666e+00 
64600 6.0510393901e+00 -1.2072734063e-04 1.8153979574e+00 -3.1443614982e+00 1.8153979574e+00 3.1443614982e+00 
64700 6.0510393914e+00 -1.1693193318e-04 1.8154012825e+00 -3.1443672574e+00 1.8154012825e+00 3.1443672574e+00 
64800 6.0510393929e+00 -1.1296505118e-04 1.8154045030e+00 -3.1443728356e+00 1.8154045030e+00 3.1443728356e+00 
64900 6.0510393945e+00 -1.0883842137e-04 1.8154076143e+00 -3.1443782245e+00 1.8154076143e+00 3.1443782245e+00 
65000 6.0510393963e+00 -1.0456384551e-04 1.8154106120e+00 -3.1443834165e+00 1.8154106120e+00 3.1443834165e+00 
65100 6.0510393982e+00 -1.0015317495e-04 1.8154134919e+00 -3.1443884046e+00 1.8154134919e+00 3.1443884046e+00 
65200 6.0510394002e+00 -9.5618285692e-05 1.8154162503e+00 -3.1443931824e+00 1.8154162503e+00 3.1443931824e+00 
65300 6.0510394024e+00 -9.0971053824e-05 1.8154188838e+00 -3.1443977437e+00 1.8154188838e+00 3.1443977437e+00 
65400 6.0510394047e+00 -8.6223331599e-05 1.8154213893e+00 -3.1444020834e+00 1.8154213893e+00 3.1444020834e+00 
65500 6.0510394072e+00 -8.1386923955e-05 1.8154237640e+00 -3.1444061966e+00 1.8154237640e+00 3.1444061966e+00 
65600 6.0510394097e+00 -7.6473565706e-05 1.8154260056e+00 -3.1444100791e+00 1.8154260056e+00 3.1444100791e+00 
65700 6.0510394123e+00 -7.1494899306e-05 1.8154281118e+00 -3.1444137271e+00 1.8154281118e+00 3.1444137271e+00 
65800 6.0510394150e+00 -6.6462453298e-05 1.8154300809e+00 -3.1444171377e+00 1.8154300809e+00 3.1444171377e+00 
65900 6.0510394179e+00 -6.3254556411e-05 1.8154300809e+00 -3.1444171377e+00 1.8154300809e+00 3.1444171377e+00 
66000 6.0510394208e+00 -5.9884386537e-05 1.8154300809e+00 -3.1444171377e+00 1.8154300809e+00 3.1444171377e+00 
66100 6.0510394237e+00 -5.6362951229e-05 1.8154300809e+00 -3.1444171377e+00 1.8154300809e+00 3.1444171377e+00 
66200 6.0510394266e+00 -5.2701158038e-05 1.8154300809e+00 -3.1444171377e+00 1.8154300809e+00 3.1444171377e+00 
66300 6.0510394295e+00 -4.8909798990e-05 1.8154300809e+00 -3.1444171377e+00 1.8154300809e+00 3.1444171377e+00 
66400 6.0510394323e+00 -4.4999535714e-05 1.8154300809e+00 -3.1444171377e+00 1.8154300809e+00 3.1444171377e+00 
66500 6.0510394352e+00 -4.0980885297e-05 1.8154300809e+00 -3.1444171377e+00 1.8154300809e+00 3.1444171377e+00 
66600 6.0510394379e+00 -3.6864206802e-05 1.8154300809e+00 -3.1444171377e+00 1.8154300809e+00 3.1444171377e+00 
66700 6.0510394407e+00 -3.2659688484e-05 1.8154300809e+00 -3.1444171377e+00 1.8154300809e+00 3.1444171377e+00 
66800 6.0510394434e+00 -2.8377335706e-05 1.8154300809e+00 -3.1444171377e+00 1.8154300809e+00 3.1444171377e+00 
66900 6.0510394460e+00 -2.4026959556e-05 1.8154300809e+00 -3.1444171377e+00 1.8154300809e+00 3.1444171377e+00 
67000 6.0510394485e+00 -1.9618166133e-05 1.8154300809e+00 -3.1444171377e+00 1.8154300809e+00 3.1444171377e+00 
67100 6.0510394510e+00 -1.5160346555e-05 1.8154300809e+00 -3.1444171377e+00 1.8154300809e+00 3.1444171377e+00 
67200 6.0510394534e+00 -1.0662667630e-05 1.8154300809e+00 -3.1444171377e+00 1.8154300809e+00 3.1444171377e+00 
67300 6.0510394558e+00 -6.1340632203e-06 1.8154300809e+00 -3.1444171377e+00 1.8154300809e+00 3.1444171377e+00 
67400 6.0510394580e+00 -1.5832262762e-06 1.8154300809e+00 -3.1444171377e+00 1.8154300809e+00 3.1444171377e+00 
67500 6.0510394602e+00 2.9813984519e-06 1.8154300809e+00 -3.1444171377e+00 1.8154300809e+00 3.1444171377e+00 
67600 6.0510394623e+00 7.5516210505e-06 1.8154300809e+00 -3.1444171377e+00 1.8154300809e+00 3.1444171377e+00 
67700 6.0510394642e+00 1.2119512426e-05 1.8154300809e+00 -3.1444171377e+00 1.8154300809e+00 3.1444171377e+00 
67800 6.0510394662e+00 1.6677409628e-05 1.8154300809e+00 -3.1444171377e+00 1.8154300809e+00 3.1444171377e+00 
67900 6.0510394680e+00 2.1217920568e-05 1.8154300809e+00 -3.1444171377e+00 1.8154300809e+00 3.1444171377e+00 
68000 6.0510394697e+00 2.5733928093e-05 1.8154300809e+00 -3.1444171377e+00 1.8154300809e+00 3.1444171377e+00 
68100 6.0510394713e+00 3.0218593473e-05 1.8154300809e+00 -3.1444171377e+00 1.8154300809e+00 3.1444171377e+00 
68200 6.0510394729e+00 3.4665359261e-05 1.8154300809e+00 -3.1444171377e+00 1.8154300809e+00 3.1444171377e+00 
68300 6.0510394744e+00 3.9067951610e-05 1.8154300809e+00 -3.1444171377e+00 1.8154300809e+00 3.1444171377e+00 
68400 6.0510394758e+00 4.3420381982e-05 1.8154300809e+00 -3.1444171377e+00 1.8154300809e+00 3.1444171377e+00 
68500 6.0510394771e+00 4.7716948337e-05 1.8154300809e+00 -3.1444171377e+00 1.8154300809e+00 3.1444171377e+00 
68600 6.0510394784e+00 5.1952235762e-05 1.8154300809e+00 -3.1444171377e+00 1.8154300809e+00 3.1444171377e+00 
68700 6.0510394796e+00 5.6121116584e-05 1.8154300809e+00 -3.1444171377e+00 1.8154300809e+00 3.1444171377e+00 
68800 6.0510394807e+00 6.0218749977e-05 1.8154300809e+00 -3.1444171377e+00 1.8154300809e+00 3.1444171377e+00 
68900 6.0510394817e+00 6.4240581081e-05 1.8154300809e+00 -3.1444171377e+00 1.8154300809e+00 3.1444171377e+00 
69000 6.0510394827e+00 6.8182339641e-05 1.8154300809e+00 -3.1444171377e+00 1.8154300809e+00 3.1444171377e+00 
69100 6.0510394837e+00 7.2040038194e-05 1.8154300809e+00 -3.1444171377e+00 1.8154300809e+00 3.1444171377e+00 
69200 6.0510394844e+00 7.3786098408e-05 1.8154280968e+00 -3.1444137011e+00 1.8154280968e+00 3.1444137011e+00 
69300 6.0510394850e+00 7.5379506600e-05 1.8154260646e+00 -3.1444101813e+00 1.8154260646e+00 3.1444101813e+00 
69400 6.0510394856e+00 7.6819265270e-05 1.8154239885e+00 -3.1444065854e+00 1.8154239885e+00 3.1444065854e+00 
69500 6.0510394861e+00 7.8104748423e-05 1.8154218728e+00 -3.1444029208e+00 1.8154218728e+00 3.1444029208e+00 
69600 6.0510394866e+00 7.9235693213e-05 1.8154197216e+00 -3.1443991949e+00 1.8154197216e+00 3.1443991949e+00 
69700 6.0510394870e+00 8.0212191095e-05 1.8154175393e+00 -3.1443954151e+00 1.8154175393e+00 3.1443954151e+00 
69800 6.0510394873e+00 8.1034678549e-05 1.8154153301e+00 -3.1443915886e+00 1.8154153301e+00 3.1443915886e+00 
69900 6.0510394877e+00 8.1703927360e-05 1.8154130983e+00 -3.1443877230e+00 1.8154130983e+00 3.1443877230e+00 
70000 6.0510394880e+00 8.2221034489e-05 1.8154108480e+00 -3.1443838254e+00 1.8154108480e+00 3.1443838254e+00 
70100 6.0510394883e+00 8.2587411578e-05 1.8154085835e+00 -3.1443799031e+00 1.8154085835e+00 3.1443799031e+00 
70200 6.0510394885e+00 8.2804774104e-05 1.8154063089e+00 -3.1443759633e+00 1.8154063089e+00 3.1443759633e+00 
70300 6.0510394887e+00 8.2875130204e-05 1.8154040282e+00 -3.1443720132e+00 1.8154040282e+00 3.1443720132e+00 
70400 6.0510394890e+00 8.2800769203e-05 1.8154017457e+00 -3.1443680597e+00 1.8154017457e+00 3.1443680597e+00 
70500 6.0510394892e+00 8.2584249874e-05 1.8153994652e+00 -3.1443641097e+00 1.8153994652e+00 3.1443641097e+00 
70600 6.0510394894e+00 8.2228388448e-05 1.8153971906e+00 -3.1443601701e+00 1.8153971906e+00 3.1443601701e+00 
70700 6.0510394897e+00 8.1736246426e-05 1.8153949259e+00 -3.1443562474e+00 1.8153949259e+00 3.1443562474e+00 
70800 6.0510394899e+00 8.1111118176e-05 1.8153926747e+00 -3.1443523482e+00 1.8153926747e+00 3.1443523482e+00 
70900 6.0510394902e+00 8.0356518389e-05 1.8153904407e+00 -3.1443484789e+00 1.8153904407e+00 3.1443484789e+00 
71000 6.0510394905e+00 7.9476169383e-05 1.8153882275e+00 -3.1443446455e+00 1.8153882275e+00 3.1443446455e+00 
71100 6.0510394907e+00 7.8473988314e-05 1.8153860385e+00 -3.1443408541e+00 1.8153860385e+00 3.1443408541e+00 
71200 6.0510394911e+00 7.7354074297e-05 1.8153838772e+00 -3.1443371105e+00 1.8153838772e+00 3.1443371105e+00 
71300 6.0510394914e+00 7.6120695461e-05 1.8153817467e+00 -3.1443334204e+00 1.8153817467e+00 3.1443334204e+00 
71400 6.0510394918e+00 7.4778275999e-05 1.8153796501e+00 -3.1443297890e+00 1.8153796501e+00 3.1443297890e+00 
71500 6.0510394922e+00 7.3331383176e-05 1.8153775905e+00 -3.1443262218e+00 1.8153775905e+00 3.1443262218e+00 
71600 6.0510394926e+00 7.1784714383e-05 1.8153755708e+00 -3.1443227235e+00 1.8153755708e+00 3.1443227235e+00 
71700 6.0510394931e+00 7.0143084244e-05 1.8153735937e+00 -3.1443192990e+00 1.8153735937e+00 3.1443192990e+00 
71800 6.0510394937e+00 7.0382301382e-05 1.8153735937e+00 -3.1443192990e+00 1.8153735937e+00 3.1443192990e+00 
71900 6.0510394944e+00 7.0499891426e-05 1.8153735937e+00 -3.1443192990e+00 1.8153735937e+00 3.1443192990e+00 
72000 6.0510394950e+00 7.0500038975e-05 1.8153735937e+00 -3.1443192990e+00 1.8153735937e+00 3.1443192990e+00 
72100 6.0510394957e+00 7.0386991761e-05 1.8153735937e+00 -3.1443192990e+00 1.8153735937e+00 3.1443192990e+00 
72200 6.0510394965e+00 7.0165051370e-05 1.8153735937e+00 -3.1443192990e+00 1.8153735937e+00 3.1443192990e+00 
72300 6.0510394972e+00 6.9838564175e-05 1.8153735937e+00 -3.1443192990e+00 1.8153735937e+00 3.1443192990e+00 
72400 6.0510394979e+00 6.9411912456e-05 1.8153735937e+00 -3.1443192990e+00 1.8153735937e+00 3.1443192990e+00 
72500 6.0510394987e+00 6.8889505732e-05 1.8153735937e+00 -3.1443192990e+00 1.8153735937e+00 3.1443192990e+00 
72600 6.0510394995e+00 6.8275772321e-05 1.8153735937e+00 -3.1443192990e+00 1.8153735937e+00 3.1443192990e+00 
72700 6.0510395003e+00 6.7575151120e-05 1.8153735937e+00 -3.1443192990e+00 1.8153735937e+00 3.1443192990e+00 
72800 6.0510395010e+00 6.6792083622e-05 1.8153735937e+00 -3.1443192990e+00 1.8153735937e+00 3.1443192990e+00 
72900 6.0510395018e+00 6.5931006188e-05 1.8153735937e+00 -3.1443192990e+00 1.8153735937e+00 3.1443192990e+00 
73000 6.0510395026e+00 6.4996342542e-05 1.8153735937e+00 -3.1443192990e+00 1.8153735937e+00 3.1443192990e+00 
73100 6.0510395034e+00 6.3992496544e-05 1.8153735937e+00 -3.1443192990e+00 1.8153735937e+00 3.1443192990e+00 
73200 6.0510395042e+00 6.2923845224e-05 1.8153735937e+00 -3.1443192990e+00 1.8153735937e+00 3.1443192990e+00 
73300 6.0510395050e+00 6.1794732056e-05 1.8153735937e+00 -3.1443192990e+00 1.8153735937e+00 3.1443192990e+00 
73400 6.0510395057e+00 6.0609460520e-05 1.8153735937e+00 -3.1443192990e+00 1.8153735937e+00 3.1443192990e+00 
73500 6.0510395065e+00 5.9372287934e-05 1.8153735937e+00 -3.1443192990e+00 1.8153735937e+00 3.1443192990e+00 
73600 6.0510395073e+00 5.8087419544e-05 1.8153735937e+00 -3.1443192990e+00 1.8153735937e+00 3.1443192990e+00 
73700 6.0510395080e+00 5.6759002915e-05 1.8153735937e+00 -3.1443192990e+00 1.8153735937e+00 3.1443192990e+00 
73800 6.0510395088e+00 5.5391122570e-05 1.8153735937e+00 -3.1443192990e+00 1.8153735937e+00 3.1443192990e+00 
73900 6.0510395095e+00 5.3987794929e-05 1.8153735937e+00 -3.1443192990e+00 1.8153735937e+00 3.1443192990e+00 
74000 6.0510395102e+00 5.2552963519e-05 1.8153735937e+00 -3.1443192990e+00 1.8153735937e+00 3.1443192990e+00 
74100 6.0510395109e+00 5.1090494451e-05 1.8153735937e+00 -3.1443192990e+00 1.8153735937e+00 3.1443192990e+00 
74200 6.0510395116e+00 4.9604172202e-05 1.8153735937e+00 -3.1443192990e+00 1.8153735937e+00 3.1443192990e+00 
74300 6.0510395123e+00 4.8097695639e-05 1.8153735937e+00 -3.1443192990e+00 1.8153735937e+00 3.1443192990e+00 
74400 6.0510395129e+00 4.6574674347e-05 1.8153735937e+00 -3.1443192990e+00 1.8153735937e+00 3.1443192990e+00 
74500 6.0510395136e+00 4.5038625209e-05 1.8153735937e+00 -3.1443192990e+00 1.8153735937e+00 3.1443192990e+00 
74600 6.0510395142e+00 4.3492969271e-05 1.8153735937e+00 -3.1443192990e+00 1.8153735937e+00 3.1443192990e+00 
74700 6.0510395148e+00 4.1941028866e-05 1.8153735937e+00 -3.1443192990e+00 1.8153735937e+00 3.1443192990e+00 
74800 6.0510395154e+00 4.0386025006e-05 1.8153735937e+00 -3.1443192990e+00 1.8153735937e+00 3.1443192990e+00 
74900 6.0510395159e+00 3.8831075027e-05 1.8153735937e+00 -3.1443192990e+00 1.8153735937e+00 3.1443192990e+00 
75000 6.0510395165e+00 3.7279190509e-05 1.8153735937e+00 -3.1443192990e+00 1.8153735937e+00 3.1443192990e+00 
75100 6.0510395170e+00 3.5733275426e-05 1.8153735937e+00 -3.1443192990e+00 1.8153735937e+00 3.1443192990e+00 
75200 6.0510395175e+00 3.4196124555e-05 1.8153735937e+00 -3.1443192990e+00 1.8153735937e+00 3.1443192990e+00 
75300 6.0510395180e+00 3.2670422131e-05 1.8153735937e+00 -3.1443192990e+00 1.8153735937e+00 3.1443192990e+00 
75400 6.0510395185e+00 3.1158740737e-05 1.8153735937e+00 -3.1443192990e+00 1.8153735937e+00 3.1443192990e+00 
75500 6.0510395190e+00 2.9663540414e-05 1.8153735937e+00 -3.1443192990e+00 1.8153735937e+00 3.1443192990e+00 
75600 6.0510395194e+00 2.8187168019e-05 1.8153735937e+00 -3.1443192990e+00 1.8153735937e+00 3.1443192990e+00 
75700 6.0510395199e+00 2.6731856782e-05 1.8153735937e+00 -3.1443192990e+00 1.8153735937e+00 3.1443192990e+00 
75800 6.0510395203e+00 2.5299726100e-05 1.8153735937e+00 -3.1443192990e+00 1.8153735937e+00 3.1443192990e+00 
75900 6.0510395207e+00 2.3892781511e-05 1.8153735937e+00 -3.1443192990e+00 1.8153735937e+00 3.1443192990e+00 
76000 6.0510395211e+00 2.2512914899e-05 1.8153735937e+00 -3.1443192990e+00 1.8153735937e+00 3.1443192990e+00 
76100 6.0510395215e+00 2.1161904866e-05 1.8153735937e+00 -3.1443192990e+00 1.8153735937e+00 3.1443192990e+00 
76200 6.0510395219e+00 1.9841417322e-05 1.8153735937e+00 -3.1443192990e+00 1.8153735937e+00 3.1443192990e+00 
76300 6.0510395222e+00 1.8553006217e-05 1.8153735937e+00 -3.1443192990e+00 1.8153735937e+00 3.1443192990e+00 
76400 6.0510395226e+00 1.7298114487e-05 1.8153735937e+00 -3.1443192990e+00 1.8153735937e+00 3.1443192990e+00 
76500 6.0510395229e+00 1.6078075140e-05 1.8153735937e+00 -3.1443192990e+00 1.8153735937e+00 3.1443192990e+00 
76600 6.0510395232e+00 1.4894112516e-05 1.8153735937e+00 -3.1443192990e+00 1.8153735937e+00 3.1443192990e+00 
76700 6.0510395235e+00 1.3747343687e-05 1.8153735937e+00 -3.1443192990e+00 1.8153735937e+00 3.1443192990e+00 
76800 6.0510395239e+00 1.2638780006e-05 1.8153735937e+00 -3.1443192990e+00 1.8153735937e+00 3.1443192990e+00 
76900 6.0510395242e+00 1.1569328802e-05 1.8153735937e+00 -3.1443192990e+00 1.8153735937e+00 3.1443192990e+00 
77000 6.0510395245e+00 1.0539795200e-05 1.8153735937e+00 -3.1443192990e+00 1.8153735937e+00 3.1443192990e+00 
77100 6.0510395247e+00 9.5508840541e-06 1.8153735937e+00 -3.1443192990e+00 1.8153735937e+00 3.1443192990e+00 
77200 6.0510395250e+00 8.6032020117e-06 1.8153735937e+00 -3.1443192990e+00 1.8153735937e+00 3.1443192990e+00 
77300 6.0510395253e+00 7.6972596726e-06 1.8153735937e+00 -3.1443192990e+00 1.8153735937e+00 3.1443192990e+00 
77400 6.0510395256e+00 6.8334738604e-06 1.8153735937e+00 -3.1443192990e+00 1.8153735937e+00 3.1443192990e+00 
77500 6.0510395259e+00 6.0121699746e-06 1.8153735937e+00 -3.1443192990e+00 1.8153735937e+00 3.1443192990e+00 
77600 6.0510395261e+00 5.2335844462e-06 1.8153735937e+00 -3.1443192990e+00 1.8153735937e+00 3.1443192990e+00 
77700 6.0510395264e+00 4.4978672471e-06 1.8153735937e+00 -3.1443192990e+00 1.8153735937e+00 3.1443192990e+00 
77800 6.0510395266e+00 3.8050845060e-06 1.8153735937e+00 -3.1443192990e+00 1.8153735937e+00 3.1443192990e+00 
77900 6.0510395269e+00 3.1552211520e-06 1.8153735937e+00 -3.1443192990e+00 1.8153735937e+00 3.1443192990e+00 
78000 6.0510395271e+00 2.5481836464e-06 1.8153735937e+00 -3.1443192990e+00 1.8153735937e+00 3.1443192990e+00 
78100 6.0510395274e+00 1.9838027508e-06 1.8153735937e+00 -3.1443192990e+00 1.8153735937e+00 3.1443192990e+00 
78200 6.0510395277e+00 1.4618363414e-06 1.8153735937e+00 -3.1443192990e+00 1.8153735937e+00 3.1443192990e+00 
78300 6.0510395279e+00 9.8197227273e-07 1.8153735937e+00 -3.1443192990e+00 1.8153735937e+00 3.1443192990e+00 
78400 6.0510395281e+00 5.4383125799e-07 1.8153735937e+00 -3.1443192990e+00 1.8153735937e+00 3.1443192990e+00 
78500 6.0510395284e+00 1.4696978466e-07 1.8153735937e+00 -3.1443192990e+00 1.8153735937e+00 3.1443192990e+00 
78600 6.0510395286e+00 -2.0911695379e-07 1.8153735937e+00 -3.1443192990e+00 1.8153735937e+00 3.1443192990e+00 
78700 6.0510395289e+00 -5.2499210349e-07 1.8153735937e+00 -3.1443192990e+00 1.8153735937e+00 3.1443192990e+00 
78800 6.0510395291e+00 -8.0127420012e-07 1.8153735937e+00 -3.1443192990e+00 1.8153735937e+00 3.1443192990e+00 
78900 6.0510395294e+00 -1.0386342097e-06 1.8153735937e+00 -3.1443192990e+00 1.8153735937e+00 3.1443192990e+00 
79000 6.0510395296e+00 -1.2377925668e-06 1.8153735937e+00 -3.1443192990e+00 1.8153735937e+00 3.1443192990e+00 
79100 6.0510395299e+00 -1.3995162345e-06 1.8153735937e+00 -3.1443192990e+00 1.8153735937e+00 3.1443192990e+00 
79200 6.0510395301e+00 -1.5246157597e-06 1.8153735937e+00 -3.1443192990e+00 1.8153735937e+00 3.1443192990e+00 
79300 6.0510395303e+00 -1.6139423637e-06 1.8153735937e+00 -3.1443192990e+00 1.8153735937e+00 3.1443192990e+00 
79400 6.0510395306e+00 -1.6683850461e-06 1.8153735937e+00 -3.1443192990e+00 1.8153735937e+00 3.1443192990e+00 
79500 6.0510395308e+00 -1.6888677028e-06 1.8153735937e+00 -3.1443192990e+00 1.8153735937e+00 3.1443192990e+00 
79600 6.0510395311e+00 -1.6763463070e-06 1.8153735937e+00 -3.1443192990e+00 1.8153735937e+00 3.1443192990e+00 
79700 6.0510395313e+00 -1.6318060984e-06 1.8153735937e+00 -3.1443192990e+00 1.8153735937e+00 3.1443192990e+00 
79800 6.0510395315e+00 -1.5562588163e-06 1.8153735937e+00 -3.1443192990e+00 1.8153735937e+00 3.1443192990e+00 
79900 6.0510395318e+00 -1.4507399846e-06 1.8153735937e+00 -3.1443192990e+00 1.8153735937e+00 3.1443192990e+00 
80000 6.0510395320e+00 -1.3163062421e-06 1.8153735937e+00 -3.1443192990e+00 1.8153735937e+00 3.1443192990e+00 
80100 6.0510395322e+00 -1.1540327080e-06 1.8153735937e+00 -3.1443192990e+00 1.8153735937e+00 3.1443192990e+00 
80200 6.0510395325e+00 -9.6501041545e-07 1.8153735937e+00 -3.1443192990e+00 1.8153735937e+00 3.1443192990e+00 
80300 6.0510395327e+00 -7.5034379908e-07 1.8153735937e+00 -3.1443192990e+00 1.8153735937e+00 3.1443192990e+00 
80400 6.0510395329e+00 -5.1114823120e-07 1.8153735937e+00 -3.1443192990e+00 1.8153735937e+00 3.1443192990e+00 
80500 6.0510395332e+00 -2.4854762798e-07 1.8153735937e+00 -3.1443192990e+00 1.8153735937e+00 3.1443192990e+00 
80600 6.0510395334e+00 3.6327880190e-08 1.8153735937e+00 -3.1443192990e+00 1.8153735937e+00 3.1443192990e+00 
80700 6.0510395336e+00 3.4234422056e-07 1.8153735937e+00 -3.1443192990e+00 1.8153735937e+00 3.1443192990e+00 
80800 6.0510395338e+00 6.6836557576e-07 1.8153735937e+00 -3.1443192990e+00 1.8153735937e+00 3.1443192990e+00 
80900 6.0510395340e+00 1.0132565192e-06 1.8153735937e+00 -3.1443192990e+00 1.8153735937e+00 3.1443192990e+00 
81000 6.0510395343e+00 1.3758840654e-06 1.8153735937e+00 -3.1443192990e+00 1.8153735937e+00 3.1443192990e+00 
81100 6.0510395345e+00 1.7551196753e-06 1.8153735937e+00 -3.1443192990e+00 1.8153735937e+00 3.1443192990e+00 
81200 6.0510395347e+00 2.1498411492e-06 1.8153735937e+00 -3.1443192990e+00 1.8153735937e+00 3.1443192990e+00 
81300 6.0510395349e+00 2.5589344870e-06 1.8153735937e+00 -3.1443192990e+00 1.8153735937e+00 3.1443192990e+00 
81400 6.0510395351e+00 2.9812956381e-06 1.8153735937e+00 -3.1443192990e+00 1.8153735937e+00 3.1443192990e+00 
81500 6.0510395353e+00 3.4158321968e-06 1.8153735937e+00 -3.1443192990e+00 1.8153735937e+00 3.1443192990e+00 
81600 6.0510395355e+00 3.8614650152e-06 1.8153735937e+00 -3.1443192990e+00 1.8153735937e+00 3.1443192990e+00 
81700 6.0510395357e+00 4.3171297324e-06 1.8153735937e+00 -3.1443192990e+00 1.8153735937e+00 3.1443192990e+00 
81800 6.0510395359e+00 4.7817782383e-06 1.8153735937e+00 -3.1443192990e+00 1.8153735937e+00 3.1443192990e+00 
81900 6.0510395361e+00 5.2543800438e-06 1.8153735937e+00 -3.1443192990e+00 1.8153735937e+00 3.1443192990e+00 
82000 6.0510395363e+00 5.7339235943e-06 1.8153735937e+00 -3.1443192990e+00 1.8153735937e+00 3.1443192990e+00 
82100 6.0510395365e+00 6.2194174872e-06 1.8153735937e+00 -3.1443192990e+00 1.8153735937e+00 3.1443192990e+00 
82200 6.0510395367e+00 6.7098916221e-06 1.8153735937e+00 -3.1443192990e+00 1.8153735937e+00 3.1443192990e+00 
82300 6.0510395369e+00 7.2043982694e-06 1.8153735937e+00 -3.1443192990e+00 1.8153735937e+00 3.1443192990e+00 
82400 6.0510395370e+00 7.7020130737e-06 1.8153735937e+00 -3.1443192990e+00 1.8153735937e+00 3.1443192990e+00 
82500 6.0510395372e+00 8.2018359592e-06 1.8153735937e+00 -3.1443192990e+00 1.8153735937e+00 3.1443192990e+00 
82600 6.0510395374e+00 8.7029919896e-06 1.8153735937e+00 -3.1443192990e+00 1.8153735937e+00 3.1443192990e+00 
82700 6.0510395376e+00 9.2046321301e-06 1.8153735937e+00 -3.1443192990e+00 1.8153735937e+00 3.1443192990e+00 
82800 6.0510395377e+00 9.7059339495e-06 1.8153735937e+00 -3.1443192990e+00 1.8153735937e+00 3.1443192990e+00 
82900 6.0510395379e+00 1.0206102253e-05 1.8153735937e+00 -3.1443192990e+00 1.8153735937e+00 3.1443192990e+00 
83000 6.0510395380e+00 1.0704369624e-05 1.8153735937e+00 -3.1443192990e+00 1.8153735937e+00 3.1443192990e+00 
83100 6.0510395382e+00 1.1199996930e-05 1.8153735937e+00 -3.1443192990e+00 1.8153735937e+00 3.1443192990e+00 
83200 6.0510395384e+00 1.1692273736e-05 1.8153735937e+00 -3.1443192990e+00 1.8153735937e+00 3.1443192990e+00 
83300 6.0510395385e+00 1.2180518649e-05 1.8153735937e+00 -3.1443192990e+00 1.8153735937e+00 3.1443192990e+00 
83400 6.0510395387e+00 1.2664079622e-05 1.8153735937e+00 -3.1443192990e+00 1.8153735937e+00 3.1443192990e+00 
83500 6.0510395388e+00 1.3142334175e-05 1.8153735937e+00 -3.1443192990e+00 1.8153735937e+00 3.1443192990e+00 
83600 6.0510395390e+00 1.3614689551e-05 1.8153735937e+00 -3.1443192990e+00 1.8153735937e+00 3.1443192990e+00 
83700 6.0510395391e+00 1.4080582838e-05 1.8153735937e+00 -3.1443192990e+00 1.8153735937e+00 3.1443192990e+00 
83800 6.0510395392e+00 1.4539481001e-05 1.8153735937e+00 -3.1443192990e+00 1.8153735937e+00 3.1443192990e+00 
83900 6.0510395394e+00 1.4990880880e-05 1.8153735937e+00 -3.1443192990e+00 1.8153735937e+00 3.1443192990e+00 
84000 6.0510395395e+00 1.5434309125e-05 1.8153735937e+00 -3.1443192990e+00 1.8153735937e+00 3.1443192990e+00 
84100 6.0510395396e+00 1.5869322076e-05 1.8153735937e+00 -3.1443192990e+00 1.8153735937e+00 3.1443192990e+00 
84200 6.0510395398e+00 1.6295505605e-05 1.8153735937e+00 -3.1443192990e+00 1.8153735937e+00 3.1443192990e+00 
84300 6.0510395399e+00 1.6712474898e-05 1.8153735937e+00 -3.1443192990e+00 1.8153735937e+00 3.1443192990e+00 
84400 6.0510395400e+00 1.7119874188e-05 1.8153735937e+00 -3.1443192990e+00 1.8153735937e+00 3.1443192990e+00 
84500 6.0510395402e+00 1.7517376451e-05 1.8153735937e+00 -3.1443192990e+00 1.8153735937e+00 3.1443192990e+00 
84600 6.0510395403e+00 1.7904683066e-05 1.8153735937e+00 -3.1443192990e+00 1.8153735937e+00 3.1443192990e+00 
84700 6.0510395404e+00 1.8281523412e-05 1.8153735937e+00 -3.1443192990e+00 1.8153735937e+00 3.1443192990e+00 
84800 6.0510395405e+00 1.8647654455e-05 1.8153735937e+00 -3.1443192990e+00 1.8153735937e+00 3.1443192990e+00 
84900 6.0510395406e+00 1.9002860268e-05 1.8153735937e+00 -3.1443192990e+00 1.8153735937e+00 3.1443192990e+00 
85000 6.0510395408e+00 1.9346951551e-05 1.8153735937e+00 -3.1443192990e+00 1.8153735937e+00 3.1443192990e+00 
85100 6.0510395409e+00 1.9679765081e-05 1.8153735937e+00 -3.1443192990e+00 1.8153735937e+00 3.1443192990e+00 
85200 6.0510395410e+00 2.0001163169e-05 1.8153735937e+00 -3.1443192990e+00 1.8153735937e+00 3.1443192990e+00 
85300 6.0510395411e+00 2.0311033056e-05 1.8153735937e+00 -3.1443192990e+00 1.8153735937e+00 3.1443192990e+00 
85400 6.0510395412e+00 2.0609286307e-05 1.8153735937e+00 -3.1443192990e+00 1.8153735937e+00 3.1443192990e+00 
85500 6.0510395413e+00 2.0895858166e-05 1.8153735937e+00 -3.1443192990e+00 1.8153735937e+00 3.1443192990e+00 
85600 6.0510395414e+00 2.1170706900e-05 1.8153735937e+00 -3.1443192990e+00 1.8153735937e+00 3.1443192990e+00 
85700 6.0510395415e+00 2.1433813104e-05 1.8153735937e+00 -3.1443192990e+00 1.8153735937e+00 3.1443192990e+00 
85800 6.0510395416e+00 2.1685179018e-05 1.8153735937e+00 -3.1443192990e+00 1.8153735937e+00 3.1443192990e+00 
85900 6.0510395417e+00 2.1924827792e-05 1.8153735937e+00 -3.1443192990e+00 1.8153735937e+00 3.1443192990e+00 
86000 6.0510395418e+00 2.2152802765e-05 1.8153735937e+00 -3.1443192990e+00 1.8153735937e+00 3.1443192990e+00 
86100 6.0510395419e+00 2.2369166716e-05 1.8153735937e+00 -3.1443192990e+00 1.8153735937e+00 3.1443192990e+00 
86200 6.0510395420e+00 2.2574001108e-05 1.8153735937e+00 -3.1443192990e+00 1.8153735937e+00 3.1443192990e+00 
86300 6.0510395421e+00 2.2767405322e-05 1.8153735937e+00 -3.1443192990e+00 1.8153735937e+00 3.1443192990e+00 
86400 6.0510395422e+00 2.2949495881e-05 1.8153735937e+00 -3.1443192990e+00 1.8153735937e+00 3.1443192990e+00 
86500 6.0510395423e+00 2.3120405678e-05 1.8153735937e+00 -3.1443192990e+00 1.8153735937e+00 3.1443192990e+00 
86600 6.0510395424e+00 2.3280283188e-05 1.8153735937e+00 -3.1443192990e+00 1.8153735937e+00 3.1443192990e+00 
86700 6.0510395425e+00 2.3429291679e-05 1.8153735937e+00 -3.1443192990e+00 1.8153735937e+00 3.1443192990e+00 
86800 6.0510395426e+00 2.3567608427e-05 1.8153735937e+00 -3.1443192990e+00 1.8153735937e+00 3.1443192990e+00 
86900 6.0510395427e+00 2.3695423933e-05 1.8153735937e+00 -3.1443192990e+00 1.8153735937e+00 3.1443192990e+00 
87000 6.0510395428e+00 2.3812941129e-05 1.8153735937e+00 -3.1443192990e+00 1.8153735937e+00 3.1443192990e+00 
87100 6.0510395429e+00 2.3920374604e-05 1.8153735937e+00 -3.1443192990e+00 1.8153735937e+00 3.1443192990e+00 
87200 6.0510395430e+00 2.4017949814e-05 1.8153735937e+00 -3.1443192990e+00 1.8153735937e+00 3.1443192990e+00 
87300 6.0510395431e+00 2.4105902322e-05 1.8153735937e+00 -3.1443192990e+00 1.8153735937e+00 3.1443192990e+00 
87400 6.0510395431e+00 2.4184477025e-05 1.8153735937e+00 -3.1443192990e+00 1.8153735937e+00 3.1443192990e+00 
87500 6.0510395432e+00 2.4253927401e-05 1.8153735937e+00 -3.1443192990e+00 1.8153735937e+00 3.1443192990e+00 
87600 6.0510395433e+00 2.4314514758e-05 1.8153735937e+00 -3.1443192990e+00 1.8153735937e+00 3.1443192990e+00 
87700 6.0510395434e+00 2.4366507497e-05 1.8153735937e+00 -3.1443192990e+00 1.8153735937e+00 3.1443192990e+00 
87800 6.0510395435e+00 2.4410180379e-05 1.8153735937e+00 -3.1443192990e+00 1.8153735937e+00 3.1443192990e+00 
87900 6.0510395436e+00 2.4445813823e-05 1.8153735937e+00 -3.1443192990e+00 1.8153735937e+00 3.1443192990e+00 
88000 6.0510395437e+00 2.4473693193e-05 1.8153735937e+00 -3.1443192990e+00 1.8153735937e+00 3.1443192990e+00 
88100 6.0510395437e+00 2.4494108117e-05 1.8153735937e+00 -3.1443192990e+00 1.8153735937e+00 3.1443192990e+00 
88200 6.0510395438e+00 2.4507351815e-05 1.8153735937e+00 -3.1443192990e+00 1.8153735937e+00 3.1443192990e+00 
88300 6.0510395439e+00 2.4513720441e-05 1.8153735937e+00 -3.1443192990e+00 1.8153735937e+00 3.1443192990e+00 
88400 6.0510395440e+00 2.4513512436e-05 1.8153735937e+00 -3.1443192990e+00 1.8153735937e+00 3.1443192990e+00 
88500 6.0510395440e+00 2.4507027915e-05 1.8153735937e+00 -3.1443192990e+00 1.8153735937e+00 3.1443192990e+00 
88600 6.0510395441e+00 2.4494568059e-05 1.8153735937e+00 -3.1443192990e+00 1.8153735937e+00 3.1443192990e+00 
88700 6.0510395442e+00 2.4476434515e-05 1.8153735937e+00 -3.1443192990e+00 1.8153735937e+00 3.1443192990e+00 
88800 6.0510395443e+00 2.4452928843e-05 1.8153735937e+00 -3.1443192990e+00 1.8153735937e+00 3.1443192990e+00 
88900 6.0510395443e+00 2.4424351954e-05 1.8153735937e+00 -3.1443192990e+00 1.8153735937e+00 3.1443192990e+00 
89000 6.0510395444e+00 2.4391003582e-05 1.8153735937e+00 -3.1443192990e+00 1.8153735937e+00 3.1443192990e+00 
89100 6.0510395445e+00 2.4353181779e-05 1.8153735937e+00 -3.1443192990e+00 1.8153735937e+00 3.1443192990e+00 
89200 6.0510395446e+00 2.4311182411e-05 1.8153735937e+00 -3.1443192990e+00 1.8153735937e+00 3.1443192990e+00 
89300 6.0510395446e+00 2.4265298690e-05 1.8153735937e+00 -3.1443192990e+00 1.8153735937e+00 3.1443192990e+00 
89400 6.0510395447e+00 2.4215820736e-05 1.8153735937e+00 -3.1443192990e+00 1.8153735937e+00 3.1443192990e+00 
89500 6.0510395448e+00 2.4163035130e-05 1.8153735937e+00 -3.1443192990e+00 1.8153735937e+00 3.1443192990e+00 
89600 6.0510395448e+00 2.4107224512e-05 1.8153735937e+00 -3.1443192990e+00 1.8153735937e+00 3.1443192990e+00 
89700 6.0510395449e+00 2.4048667194e-05 1.8153735937e+00 -3.1443192990e+00 1.8153735937e+00 3.1443192990e+00 
89800 6.0510395450e+00 2.3987636789e-05 1.8153735937e+00 -3.1443192990e+00 1.8153735937e+00 3.1443192990e+00 
89900 6.0510395450e+00 2.3924401860e-05 1.8153735937e+00 -3.1443192990e+00 1.8153735937e+00 3.1443192990e+00 
90000 6.0510395451e+00 2.3859225604e-05 1.8153735937e+00 -3.1443192990e+00 1.8153735937e+00 3.1443192990e+00 
90100 6.0510395452e+00 2.3792365534e-05 1.8153735937e+00 -3.1443192990e+00 1.8153735937e+00 3.1443192990e+00 
90200 6.0510395452e+00 2.3724073206e-05 1.8153735937e+00 -3.1443192990e+00 1.8153735937e+00 3.1443192990e+00 
90300 6.0510395453e+00 2.3654593941e-05 1.8153735937e+00 -3.1443192990e+00 1.8153735937e+00 3.1443192990e+00 
90400 6.0510395453e+00 2.3584166596e-05 1.8153735937e+00 -3.1443192990e+00 1.8153735937e+00 3.1443192990e+00 
90500 6.0510395454e+00 2.3513023324e-05 1.8153735937e+00 -3.1443192990e+00 1.8153735937e+00 3.1443192990e+00 
90600 6.0510395455e+00 2.3441389379e-05 1.8153735937e+00 -3.1443192990e+00 1.8153735937e+00 3.1443192990e+00 
90700 6.0510395455e+00 2.3369482929e-05 1.8153735937e+00 -3.1443192990e+00 1.8153735937e+00 3.1443192990e+00 
90800 6.0510395456e+00 2.3297514886e-05 1.8153735937e+00 -3.1443192990e+00 1.8153735937e+00 3.1443192990e+00 
90900 6.0510395456e+00 2.3225688764e-05 1.8153735937e+00 -3.1443192990e+00 1.8153735937e+00 3.1443192990e+00 
91000 6.0510395457e+00 2.3154200545e-05 1.8153735937e+00 -3.1443192990e+00 1.8153735937e+00 3.1443192990e+00 
91100 6.0510395457e+00 2.3083238576e-05 1.8153735937e+00 -3.1443192990e+00 1.8153735937e+00 3.1443192990e+00 
91200 6.0510395458e+00 2.3012983468e-05 1.8153735937e+00 -3.1443192990e+00 1.8153735937e+00 3.1443192990e+00 
91300 6.0510395458e+00 2.2943608022e-05 1.8153735937e+00 -3.1443192990e+00 1.8153735937e+00 3.1443192990e+00 
91400 6.0510395459e+00 2.2875277182e-05 1.8153735937e+00 -3.1443192990e+00 1.8153735937e+00 3.1443192990e+00 
91500 6.0510395459e+00 2.2808147973e-05 1.8153735937e+00 -3.1443192990e+00 1.8153735937e+00 3.1443192990e+00 
91600 6.0510395460e+00 2.2742369484e-05 1.8153735937e+00 -3.1443192990e+00 1.8153735937e+00 3.1443192990e+00 
91700 6.0510395460e+00 2.2678082871e-05 1.8153735937e+00 -3.1443192990e+00 1.8153735937e+00 3.1443192990e+00 
91800 6.0510395461e+00 2.2615421339e-05 1.8153735937e+00 -3.1443192990e+00 1.8153735937e+00 3.1443192990e+00 
91900 6.0510395461e+00 2.2554510173e-05 1.8153735937e+00 -3.1443192990e+00 1.8153735937e+00 3.1443192990e+00 
92000 6.0510395461e+00 2.2552111822e-05 1.8153735937e+00 -3.1443192990e+00 1.8153735937e+00 3.1443192990e+00 
92000 6.0510395461e+00 2.2552111821e-05 1.8153735937e+00 -3.1443192990e+00 1.8153735937e+00 3.1443192990e+00 
