# step Hamiltonian StressXX CellTensor1 CellTensor2 CellTensor3 CellTensor4 
0 4.9155558538e+00 -1.6528177571e-03 2.8378601290e+00 -4.9153179282e+00 2.8378601290e+00 4.9153179282e+00 
100 4.9148296595e+00 1.5226180384e-03 2.8378601290e+00 -4.9153179282e+00 2.8378601290e+00 4.9153179282e+00 
200 4.9144607910e+00 5.1562429424e-03 2.8378333022e+00 -4.9152714628e+00 2.8378333022e+00 4.9152714628e+00 
300 4.9143989654e+00 9.2065977215e-03 2.8377424544e+00 -4.9151141099e+00 2.8377424544e+00 4.9151141099e+00 
400 4.9145948878e+00 1.3638107373e-02 2.8375802390e+00 -4.9148331446e+00 2.8375802390e+00 4.9148331446e+00 
500 4.9150006995e+00 1.8415367801e-02 2.8373399301e+00 -4.9144169174e+00 2.8373399301e+00 4.9144169174e+00 
600 4.9155703596e+00 2.3503136142e-02 2.8370154182e+00 -4.9138548461e+00 2.8370154182e+00 4.9138548461e+00 
700 4.9162599983e+00 2.8866333477e-02 2.8366012053e+00 -4.9131374084e+00 2.8366012053e+00 4.9131374084e+00 
800 4.9170282386e+00 3.4470061716e-02 2.8360924015e+00 -4.9122561344e+00 2.8360924015e+00 4.9122561344e+00 
900 4.9178364851e+00 4.0279635901e-02 2.8354847198e+00 -4.9112035987e+00 2.8354847198e+00 4.9112035987e+00 
1000 4.9186491757e+00 4.6260632401e-02 2.8347744717e+00 -4.9099734129e+00 2.8347744717e+00 4.9099734129e+00 
1100 4.9194339951e+00 5.2378952882e-02 2.8339585617e+00 -4.9085602155e+00 2.8339585617e+00 4.9085602155e+00 
1200 4.9201620470e+00 5.8600903167e-02 2.8330344814e+00 -4.9069596614e+00 2.8330344814e+00 4.9069596614e+00 
1300 4.9208079827e+00 6.4893285555e-02 2.8320003017e+00 -4.9051684096e+00 2.8320003017e+00 4.9051684096e+00 
1400 4.9213500852e+00 7.1223502537e-02 2.8308546643e+00 -4.9031841075e+00 2.8308546643e+00 4.9031841075e+00 
1500 4.9217703073e+00 7.7559669464e-02 2.8295967717e+00 -4.9010053735e+00 2.8295967717e+00 4.9010053735e+00 
1600 4.9220542638e+00 8.3870733402e-02 2.8282263749e+00 -4.8986317767e+00 2.8282263749e+00 4.8986317767e+00 
1700 4.9221911775e+00 9.0126595253e-02 2.8267437602e+00 -4.8960638126e+00 2.8267437602e+00 4.8960638126e+00 
1800 4.9221737815e+00 9.6298232269e-02 2.8251497332e+00 -4.8933028768e+00 2.8251497332e+00 4.8933028768e+00 
1900 4.9219981796e+00 1.0235781822e-01 2.8234456015e+00 -4.8903512342e+00 2.8234456015e+00 4.8903512342e+00 
2000 4.9216636669e+00 1.0827883876e-01 2.8216331554e+00 -4.8872119854e+00 2.8216331554e+00 4.8872119854e+00 
2100 4.9211725164e+00 1.1403619989e-01 2.8197146466e+00 -4.8838890308e+00 2.8197146466e+00 4.8838890308e+00 
2200 4.9205297345e+00 1.1960632786e-01 2.8176927654e+00 -4.8803870298e+00 2.8176927654e+00 4.8803870298e+00 
2300 4.9197427906e+00 1.2496725907e-01 2.8155706160e+00 -4.8767113592e+00 2.8155706160e+00 4.8767113592e+00 
2400 4.9188213268e+00 1.3009871909e-01 2.8133516905e+00 -4.8728680675e+00 2.8133516905e+00 4.8728680675e+00 
2500 4.9177768522e+00 1.3498219007e-01 2.8110398415e+00 -4.8688638276e+00 2.8110398415e+00 4.8688638276e+00 
2600 4.9166224279e+00 1.3960096596e-01 2.8086392537e+00 -4.8647058876e+00 2.8086392537e+00 4.8647058876e+00 
2700 4.9153723474e+00 1.4394019533e-01 2.8061544141e+00 -4.8604020192e+00 2.8061544141e+00 4.8604020192e+00 
2800 4.9140418186e+00 1.4798691128e-01 2.8035900818e+00 -4.8559604653e+00 2.8035900818e+00 4.8559604653e+00 
2900 4.9126466504e+00 1.5173004854e-01 2.8009512568e+00 -4.8513898864e+00 2.8009512568e+00 4.8513898864e+00 
3000 4.9112029505e+00 1.5516044729e-01 2.7982431488e+00 -4.8466993057e+00 2.7982431488e+00 4.8466993057e+00 
3100 4.9097268372e+00 1.5827084391e-01 2.7954711453e+00 -4.8418980547e+00 2.7954711453e+00 4.8418980547e+00 
3200 4.9082341692e+00 1.6105584855e-01 2.7926407797e+00 -4.8369957177e+00 2.7926407797e+00 4.8369957177e+00 
3300 4.9067402969e+00 1.6351190973e-01 2.7897577003e+00 -4.8320020777e+00 2.7897577003e+00 4.8320020777e+00 
3400 4.9052598382e+00 1.6563726640e-01 2.7868276384e+00 -4.8269270617e+00 2.7868276384e+00 4.8269270617e+00 
3500 4.9038064804e+00 1.6743188806e-01 2.7838563783e+00 -4.8217806882e+00 2.7838563783e+00 4.8217806882e+00 
3600 4.9023928115e+00 1.6889740363e-01 2.7808497270e+00 -4.8165730153e+00 2.7808497270e+00 4.8165730153e+00 
3700 4.9010301803e+00 1.7003702021e-01 2.7778134854e+00 -4.8113140907e+00 2.7778134854e+00 4.8113140907e+00 
3800 4.8997285879e+00 1.7085543289e-01 2.7747534210e+00 -4.8060139037e+00 2.7747534210e+00 4.8060139037e+00 
3900 4.8984966095e+00 1.7135872690e-01 2.7716752412e+00 -4.8006823398e+00 2.7716752412e+00 4.8006823398e+00 
4000 4.8973413465e+00 1.7155427365e-01 2.7685845681e+00 -4.7953291371e+00 2.7685845681e+00 4.7953291371e+00 
4100 4.8962684080e+00 1.7145062209e-01 2.7654869160e+00 -4.7899638461e+00 2.7654869160e+00 4.7899638461e+00 
4200 4.8952819197e+00 1.7105738695e-01 2.7623876687e+00 -4.7845957923e+00 2.7623876687e+00 4.7845957923e+00 
4300 4.8943845594e+00 1.7038513537e-01 2.7592920605e+00 -4.7792340417e+00 2.7592920605e+00 4.7792340417e+00 
4400 4.8935776147e+00 1.6944527317e-01 2.7562051578e+00 -4.7738873693e+00 2.7562051578e+00 4.7738873693e+00 
4500 4.8928610624e+00 1.6824993227e-01 2.7531318426e+00 -4.7685642313e+00 2.7531318426e+00 4.7685642313e+00 
4600 4.8922336641e+00 1.6681186017e-01 2.7500767987e+00 -4.7632727400e+00 2.7500767987e+00 4.7632727400e+00 
4700 4.8916930780e+00 1.6514431273e-01 2.7470444985e+00 -4.7580206421e+00 2.7470444985e+00 4.7580206421e+00 
4800 4.8912359800e+00 1.6326095080e-01 2.7440391929e+00 -4.7528153001e+00 2.7440391929e+00 4.7528153001e+00 
4900 4.8908581938e+00 1.6117574173e-01 2.7410649020e+00 -4.7476636770e+00 2.7410649020e+00 4.7476636770e+00 
5000 4.8905548254e+00 1.5890286603e-01 2.7381254076e+00 -4.7425723234e+00 2.7381254076e+00 4.7425723234e+00 
5100 4.8903203995e+00 1.5645662965e-01 2.7352242481e+00 -4.7375473678e+00 2.7352242481e+00 4.7375473678e+00 
5200 4.8901489946e+00 1.5385138226e-01 2.7323647141e+00 -4.7325945096e+00 2.7323647141e+00 4.7325945096e+00 
5300 4.8900343745e+00 1.5110144158e-01 2.7295498458e+00 -4.7277190147e+00 2.7295498458e+00 4.7277190147e+00 
5400 4.8899701145e+00 1.4822102380e-01 2.7267824320e+00 -4.7229257134e+00 2.7267824320e+00 4.7229257134e+00 
5500 4.8899497192e+00 1.4522418015e-01 2.7240650099e+00 -4.7182190003e+00 2.7240650099e+00 4.7182190003e+00 
5600 4.8899667320e+00 1.4212473960e-01 2.7213998666e+00 -4.7136028367e+00 2.7213998666e+00 4.7136028367e+00 
5700 4.8900148331e+00 1.3893625724e-01 2.7187890414e+00 -4.7090807547e+00 2.7187890414e+00 4.7090807547e+00 
5800 4.8900879273e+00 1.3567196862e-01 2.7162343291e+00 -4.7046558632e+00 2.7162343291e+00 4.7046558632e+00 
5900 4.8901802190e+00 1.3234474930e-01 2.7137372846e+00 -4.7003308553e+00 2.7137372846e+00 4.7003308553e+00 
6000 4.8902862758e+00 1.2896707987e-01 2.7112992278e+00 -4.6961080171e+00 2.7112992278e+00 4.6961080171e+00 
6100 4.8904010795e+00 1.2555101576e-01 2.7089212496e+00 -4.6919892381e+00 2.7089212496e+00 4.6919892381e+00 
6200 4.8905200655e+00 1.2210816178e-01 2.7066042184e+00 -4.6879760223e+00 2.7066042184e+00 4.6879760223e+00 
6300 4.8906391507e+00 1.1864965108e-01 2.7043487874e+00 -4.6840695011e+00 2.7043487874e+00 4.6840695011e+00 
6400 4.8907547507e+00 1.1518612815e-01 2.7021554017e+00 -4.6802704457e+00 2.7021554017e+00 4.6802704457e+00 
6500 4.8908637870e+00 1.1172773564e-01 2.7000243071e+00 -4.6765792816e+00 2.7000243071e+00 4.6765792816e+00 
6600 4.8909636848e+00 1.0828410469e-01 2.6979555581e+00 -4.6729961031e+00 2.6979555581e+00 4.6729961031e+00 
6700 4.8910523633e+00 1.0486434842e-01 2.6959490263e+00 -4.6695206881e+00 2.6959490263e+00 4.6695206881e+00 
6800 4.8911282179e+00 1.0147705844e-01 2.6940044099e+00 -4.6661525138e+00 2.6940044099e+00 4.6661525138e+00 
6900 4.8911900969e+00 9.8130303886e-02 2.6921212425e+00 -4.6628907722e+00 2.6921212425e+00 4.6628907722e+00 
7000 4.8912372732e+00 9.4831632953e-02 2.6902989022e+00 -4.6597343861e+00 2.6902989022e+00 4.6597343861e+00 
7100 4.8912694109e+00 9.1588076461e-02 2.6885366208e+00 -4.6566820252e+00 2.6885366208e+00 4.6566820252e+00 
7200 4.8912865300e+00 8.8406153329e-02 2.6868334936e+00 -4.6537321223e+00 2.6868334936e+00 4.6537321223e+00 
7300 4.8912889681e+00 8.5291877676e-02 2.6851884879e+00 -4.6508828889e+00 2.6851884879e+00 4.6508828889e+00 
7400 4.8912773405e+00 8.2250767322e-02 2.6836004529e+00 -4.6481323317e+00 2.6836004529e+00 4.6481323317e+00 
7500 4.8912525004e+00 7.9287853491e-02 2.6820681284e+00 -4.6454782678e+00 2.6820681284e+00 4.6454782678e+00 
7600 4.8912154983e+00 7.6407691516e-02 2.6805901539e+00 -4.6429183408e+00 2.6805901539e+00 4.6429183408e+00 
7700 4.8911675431e+00 7.3614372356e-02 2.6791650775e+00 -4.6404500360e+00 2.6791650775e+00 4.6404500360e+00 
7800 4.8911099635e+00 7.0911534767e-02 2.6777913645e+00 -4.6380706953e+00 2.6777913645e+00 4.6380706953e+00 
7900 4.8910441715e+00 6.8302377971e-02 2.6764674061e+00 -4.6357775321e+00 2.6764674061e+00 4.6357775321e+00 
8000 4.8909716284e+00 6.5789674690e-02 2.6751915275e+00 -4.6335676456e+00 2.6751915275e+00 4.6335676456e+00 
8100 4.8908938127e+00 6.3375784421e-02 2.6739619962e+00 -4.6314380350e+00 2.6739619962e+00 4.6314380350e+00 
8200 4.8908121908e+00 6.1062666854e-02 2.6727770298e+00 -4.6293856130e+00 2.6727770298e+00 4.6293856130e+00 
8300 4.8907281909e+00 5.8851895340e-02 2.6716348037e+00 -4.6274072193e+00 2.6716348037e+00 4.6274072193e+00 
8400 4.8906431794e+00 5.6744670328e-02 2.6705334584e+00 -4.6254996332e+00 2.6705334584e+00 4.6254996332e+00 
8500 4.8905584411e+00 5.4741832732e-02 2.6694711069e+00 -4.6236595864e+00 2.6694711069e+00 4.6236595864e+00 
8600 4.8904751616e+00 5.2843877154e-02 2.6684458415e+00 -4.6218837747e+00 2.6684458415e+00 4.6218837747e+00 
8700 4.8903944139e+00 5.1050964959e-02 2.6674557407e+00 -4.6201688697e+00 2.6674557407e+00 4.6201688697e+00 
8800 4.8903171469e+00 4.9362937161e-02 2.6664988754e+00 -4.6185115306e+00 2.6664988754e+00 4.6185115306e+00 
8900 4.8902441775e+00 4.7779327114e-02 2.6655733157e+00 -4.6169084141e+00 2.6655733157e+00 4.6169084141e+00 
9000 4.8901761859e+00 4.6299373023e-02 2.6646771361e+00 -4.6153561855e+00 2.6646771361e+00 4.6153561855e+00 
9100 4.8901137122e+00 4.4922030270e-02 2.6638084219e+00 -4.6138515284e+00 2.6638084219e+00 4.6138515284e+00 
9200 4.8900571571e+00 4.3645983572e-02 2.6629652746e+00 -4.6123911544e+00 2.6629652746e+00 4.6123911544e+00 
9300 4.8900067841e+00 4.2469659016e-02 2.6621458169e+00 -4.6109718121e+00 2.6621458169e+00 4.6109718121e+00 
9400 4.8899627232e+00 4.1391235977e-02 2.6613481984e+00 -4.6095902963e+00 2.6613481984e+00 4.6095902963e+00 
9500 4.8899249782e+00 4.0408658969e-02 2.6605705997e+00 -4.6082434558e+00 2.6605705997e+00 4.6082434558e+00 
9600 4.8898934338e+00 3.9519649467e-02 2.6598112374e+00 -4.6069282018e+00 2.6598112374e+00 4.6069282018e+00 
9700 4.8898678653e+00 3.8721717726e-02 2.6590683688e+00 -4.6056415155e+00 2.6590683688e+00 4.6056415155e+00 
9800 4.8898479494e+00 3.8012174662e-02 2.6583402952e+00 -4.6043804550e+00 2.6583402952e+00 4.6043804550e+00 
9900 4.8898332753e+00 3.7388143805e-02 2.6576253666e+00 -4.6031421624e+00 2.6576253666e+00 4.6031421624e+00 
10000 4.8898233572e+00 3.6846573392e-02 2.6569219850e+00 -4.6019238697e+00 2.6569219850e+00 4.6019238697e+00 
10100 4.8898176472e+00 3.6384248614e-02 2.6562286080e+00 -4.6007229056e+00 2.6562286080e+00 4.6007229056e+00 
10200 4.8898155483e+00 3.5997804053e-02 2.6555437520e+00 -4.5995367001e+00 2.6555437520e+00 4.5995367001e+00 
10300 4.8898164277e+00 3.5683736342e-02 2.6548659949e+00 -4.5983627904e+00 2.6548659949e+00 4.5983627904e+00 
10400 4.8898196296e+00 3.5438417061e-02 2.6541939792e+00 -4.5971988251e+00 2.6541939792e+00 4.5971988251e+00 
10500 4.8898244881e+00 3.5258105892e-02 2.6535264144e+00 -4.5960425689e+00 2.6535264144e+00 4.5960425689e+00 
10600 4.8898303398e+00 3.5138964020e-02 2.6528620789e+00 -4.5948919061e+00 2.6528620789e+00 4.5948919061e+00 
10700 4.8898365348e+00 3.5077067807e-02 2.6521998224e+00 -4.5937448443e+00 2.6521998224e+00 4.5937448443e+00 
10800 4.8898424480e+00 3.5068422703e-02 2.6515385674e+00 -4.5925995170e+00 2.6515385674e+00 4.5925995170e+00 
10900 4.8898474887e+00 3.5108977397e-02 2.6508773105e+00 -4.5914541864e+00 2.6508773105e+00 4.5914541864e+00 
11000 4.8898511097e+00 3.5194638161e-02 2.6502151238e+00 -4.5903072453e+00 2.6502151238e+00 4.5903072453e+00 
11100 4.8898528148e+00 3.5321283377e-02 2.6495511556e+00 -4.5891572188e+00 2.6495511556e+00 4.5891572188e+00 
11200 4.8898521654e+00 3.5484778179e-02 2.6488846314e+00 -4.5880027649e+00 2.6488846314e+00 4.5880027649e+00 
11300 4.8898487857e+00 3.5680989180e-02 2.6482148536e+00 -4.5868426757e+00 2.6482148536e+00 4.5868426757e+00 
11400 4.8898423667e+00 3.5905799212e-02 2.6475412021e+00 -4.5856758772e+00 2.6475412021e+00 4.5856758772e+00 
11500 4.8898326690e+00 3.6155122020e-02 2.6468631340e+00 -4.5845014287e+00 2.6468631340e+00 4.5845014287e+00 
11600 4.8898195240e+00 3.6424916846e-02 2.6461801828e+00 -4.5833185226e+00 2.6461801828e+00 4.5833185226e+00 
11700 4.8898028340e+00 3.6711202815e-02 2.6454919580e+00 -4.5821264822e+00 2.6454919580e+00 4.5821264822e+00 
11800 4.8897825714e+00 3.7010073058e-02 2.6447981438e+00 -4.5809247608e+00 2.6447981438e+00 4.5809247608e+00 
11900 4.8897587760e+00 3.7317708482e-02 2.6440984979e+00 -4.5797129386e+00 2.6440984979e+00 4.5797129386e+00 
12000 4.8897315523e+00 3.7630391116e-02 2.6433928501e+00 -4.5784907207e+00 2.6433928501e+00 4.5784907207e+00 
12100 4.8897010647e+00 3.7944516930e-02 2.6426811000e+00 -4.5772579334e+00 2.6426811000e+00 4.5772579334e+00 
12200 4.8896675328e+00 3.8256608075e-02 2.6419632154e+00 -4.5760145209e+00 2.6419632154e+00 4.5760145209e+00 
12300 4.8896312254e+00 3.8563324444e-02 2.6412392300e+00 -4.5747605412e+00 2.6412392300e+00 4.5747605412e+00 
12400 4.8895924542e+00 3.8861474483e-02 2.6405092403e+00 -4.5734961620e+00 2.6405092403e+00 4.5734961620e+00 
12500 4.8895515666e+00 3.9148025191e-02 2.6397734036e+00 -4.5722216556e+00 2.6397734036e+00 4.5722216556e+00 
12600 4.8895089391e+00 3.9420111240e-02 2.6390319349e+00 -4.5709373940e+00 2.6390319349e+00 4.5709373940e+00 
12700 4.8894649691e+00 3.9675043152e-02 2.6382851032e+00 -4.5696438436e+00 2.6382851032e+00 4.5696438436e+00 
12800 4.8894200680e+00 3.9910314491e-02 2.6375332292e+00 -4.5683415597e+00 2.6375332292e+00 4.5683415597e+00 
12900 4.8893746537e+00 4.0123608033e-02 2.6367766813e+00 -4.5670311802e+00 2.6367766813e+00 4.5670311802e+00 
13000 4.8893291434e+00 4.0312800867e-02 2.6360158721e+00 -4.5657134201e+00 2.6360158721e+00 4.5657134201e+00 
13100 4.8892839466e+00 4.0475968417e-02 2.6352512551e+00 -4.5643890646e+00 2.6352512551e+00 4.5643890646e+00 
13200 4.8892394587e+00 4.0611387370e-02 2.6344833207e+00 -4.5630589632e+00 2.6344833207e+00 4.5630589632e+00 
13300 4.8891960553e+00 4.0717537504e-02 2.6337125926e+00 -4.5617240230e+00 2.6337125926e+00 4.5617240230e+00 
13400 4.8891540867e+00 4.0793102415e-02 2.6329396240e+00 -4.5603852020e+00 2.6329396240e+00 4.5603852020e+00 
13500 4.8891138731e+00 4.0836969177e-02 2.6321649936e+00 -4.5590435028e+00 2.6321649936e+00 4.5590435028e+00 
13600 4.8890757011e+00 4.0848226938e-02 2.6313893020e+00 -4.5576999656e+00 2.6313893020e+00 4.5576999656e+00 
13700 4.8890398201e+00 4.0826164502e-02 2.6306131679e+00 -4.5563556619e+00 2.6306131679e+00 4.5563556619e+00 
13800 4.8890064402e+00 4.0770266923e-02 2.6298372242e+00 -4.5550116880e+00 2.6298372242e+00 4.5550116880e+00 
13900 4.8889757301e+00 4.0680211174e-02 2.6290621142e+00 -4.5536691580e+00 2.6290621142e+00 4.5536691580e+00 
14000 4.8889478169e+00 4.0555860932e-02 2.6282884882e+00 -4.5523291985e+00 2.6282884882e+00 4.5523291985e+00 
14100 4.8889227854e+00 4.0397260546e-02 2.6275169999e+00 -4.5509929416e+00 2.6275169999e+00 4.5509929416e+00 
14200 4.8889006792e+00 4.0204628249e-02 2.6267483029e+00 -4.5496615193e+00 2.6267483029e+00 4.5496615193e+00 
14300 4.8888815013e+00 3.9978348692e-02 2.6259830473e+00 -4.5483360577e+00 2.6259830473e+00 4.5483360577e+00 
14400 4.8888652165e+00 3.9718964851e-02 2.6252218768e+00 -4.5470176718e+00 2.6252218768e+00 4.5470176718e+00 
14500 4.8888517538e+00 3.9427169404e-02 2.6244654254e+00 -4.5457074595e+00 2.6244654254e+00 4.5457074595e+00 
14600 4.8888410088e+00 3.9103795640e-02 2.6237143145e+00 -4.5444064973e+00 2.6237143145e+00 4.5444064973e+00 
14700 4.8888328472e+00 3.8749807972e-02 2.6229691506e+00 -4.5431158356e+00 2.6229691506e+00 4.5431158356e+00 
14800 4.8888271087e+00 3.8366292143e-02 2.6222305223e+00 -4.5418364937e+00 2.6222305223e+00 4.5418364937e+00 
14900 4.8888236101e+00 3.7954445175e-02 2.6214989980e+00 -4.5405694564e+00 2.6214989980e+00 4.5405694564e+00 
15000 4.8888221499e+00 3.7515565166e-02 2.6207751240e+00 -4.5393156699e+00 2.6207751240e+00 4.5393156699e+00 
15100 4.8888225121e+00 3.7051040968e-02 2.6200594224e+00 -4.5380760385e+00 2.6200594224e+00 4.5380760385e+00 
15200 4.8888244699e+00 3.6562341839e-02 2.6193523893e+00 -4.5368514212e+00 2.6193523893e+00 4.5368514212e+00 
15300 4.8888277903e+00 3.6051007127e-02 2.6186544932e+00 -4.5356426297e+00 2.6186544932e+00 4.5356426297e+00 
15400 4.8888322375e+00 3.5518636028e-02 2.6179661735e+00 -4.5344504251e+00 2.6179661735e+00 4.5344504251e+00 
15500 4.8888375767e+00 3.4966877504e-02 2.6172878397e+00 -4.5332755164e+00 2.6172878397e+00 4.5332755164e+00 
15600 4.8888435775e+00 3.4397420382e-02 2.6166198698e+00 -4.5321185586e+00 2.6166198698e+00 4.5321185586e+00 
15700 4.8888500169e+00 3.3811983707e-02 2.6159626100e+00 -4.5309801512e+00 2.6159626100e+00 4.5309801512e+00 
15800 4.8888566824e+00 3.3212307365e-02 2.6153163739e+00 -4.5298608374e+00 2.6153163739e+00 4.5298608374e+00 
15900 4.8888633745e+00 3.2600143039e-02 2.6146814418e+00 -4.5287611029e+00 2.6146814418e+00 4.5287611029e+00 
16000 4.8888699086e+00 3.1977245520e-02 2.6140580610e+00 -4.5276813756e+00 2.6140580610e+00 4.5276813756e+00 
16100 4.8888761166e+00 3.1345364394e-02 2.6134464449e+00 -4.5266220255e+00 2.6134464449e+00 4.5266220255e+00 
16200 4.8888818490e+00 3.0706236146e-02 2.6128467738e+00 -4.5255833647e+00 2.6128467738e+00 4.5255833647e+00 
16300 4.8888869751e+00 3.0061576686e-02 2.6122591947e+00 -4.5245656478e+00 2.6122591947e+00 4.5245656478e+00 
16400 4.8888913843e+00 2.9413074331e-02 2.6116838216e+00 -4.5235690723e+00 2.6116838216e+00 4.5235690723e+00 
16500 4.8888949859e+00 2.8762383234e-02 2.6111207363e+00 -4.5225937799e+00 2.6111207363e+00 4.5225937799e+00 
16600 4.8888977093e+00 2.8111117283e-02 2.6105699886e+00 -4.5216398570e+00 2.6105699886e+00 4.5216398570e+00 
16700 4.8888995038e+00 2.7460844474e-02 2.6100315976e+00 -4.5207073364e+00 2.6100315976e+00 4.5207073364e+00 
16800 4.8889003378e+00 2.6813081757e-02 2.6095055518e+00 -4.5197961983e+00 2.6095055518e+00 4.5197961983e+00 
16900 4.8889001978e+00 2.6169290354e-02 2.6089918108e+00 -4.5189063728e+00 2.6089918108e+00 4.5189063728e+00 
17000 4.8888990878e+00 2.5530871545e-02 2.6084903057e+00 -4.5180377405e+00 2.6084903057e+00 4.5180377405e+00 
17100 4.8888970274e+00 2.4899162927e-02 2.6080009408e+00 -4.5171901356e+00 2.6080009408e+00 4.5171901356e+00 
17200 4.8888940509e+00 2.4275435115e-02 2.6075235943e+00 -4.5163633472e+00 2.6075235943e+00 4.5163633472e+00 
17300 4.8888902053e+00 2.3660888902e-02 2.6070581198e+00 -4.5155571218e+00 2.6070581198e+00 4.5155571218e+00 
17400 4.8888855492e+00 2.3056652843e-02 2.6066043478e+00 -4.5147711655e+00 2.6066043478e+00 4.5147711655e+00 
17500 4.8888801505e+00 2.2463781271e-02 2.6061620865e+00 -4.5140051466e+00 2.6061620865e+00 4.5140051466e+00 
17600 4.8888740852e+00 2.1883252711e-02 2.6057311240e+00 -4.5132586977e+00 2.6057311240e+00 4.5132586977e+00 
17700 4.8888674354e+00 2.1315968691e-02 2.6053112291e+00 -4.5125314184e+00 2.6053112291e+00 4.5125314184e+00 
17800 4.8888602877e+00 2.0762752928e-02 2.6049021530e+00 -4.5118228778e+00 2.6049021530e+00 4.5118228778e+00 
17900 4.8888527313e+00 2.0224350876e-02 2.6045036309e+00 -4.5111326172e+00 2.6045036309e+00 4.5111326172e+00 
18000 4.8888448571e+00 1.9701429611e-02 2.6041153832e+00 -4.5104601525e+00 2.6041153832e+00 4.5104601525e+00 
18100 4.8888367555e+00 1.9194578045e-02 2.6037371175e+00 -4.5098049771e+00 2.6037371175e+00 4.5098049771e+00 
18200 4.8888285153e+00 1.8704307448e-02 2.6033685295e+00 -4.5091665639e+00 2.6033685295e+00 4.5091665639e+00 
18300 4.8888202227e+00 1.8231052257e-02 2.6030093050e+00 -4.5085443688e+00 2.6030093050e+00 4.5085443688e+00 
18400 4.8888119599e+00 1.7775171159e-02 2.6026591210e+00 -4.5079378323e+00 2.6026591210e+00 4.5079378323e+00 
18500 4.8888038040e+00 1.7336948426e-02 2.6023176475e+00 -4.5073463829e+00 2.6023176475e+00 4.5073463829e+00 
18600 4.8887958267e+00 1.6916595491e-02 2.6019845487e+00 -4.5067694388e+00 2.6019845487e+00 4.5067694388e+00 
18700 4.8887880931e+00 1.6514252740e-02 2.6016594844e+00 -4.5062064110e+00 2.6016594844e+00 4.5062064110e+00 
18800 4.8887806612e+00 1.6129991510e-02 2.6013421117e+00 -4.5056567053e+00 2.6013421117e+00 4.5056567053e+00 
18900 4.8887735819e+00 1.5763816272e-02 2.6010320857e+00 -4.5051197246e+00 2.6010320857e+00 4.5051197246e+00 
19000 4.8887668983e+00 1.5415666984e-02 2.6007290616e+00 -4.5045948714e+00 2.6007290616e+00 4.5045948714e+00 
19100 4.8887606458e+00 1.5085421605e-02 2.6004326952e+00 -4.5040815497e+00 2.6004326952e+00 4.5040815497e+00 
19200 4.8887548520e+00 1.4772898735e-02 2.6001426446e+00 -4.5035791673e+00 2.6001426446e+00 4.5035791673e+00 
19300 4.8887495367e+00 1.4477860398e-02 2.5998585711e+00 -4.5030871377e+00 2.5998585711e+00 4.5030871377e+00 
19400 4.8887447127e+00 1.4200014918e-02 2.5995801406e+00 -4.5026048818e+00 2.5995801406e+00 4.5026048818e+00 
19500 4.8887403851e+00 1.3939019900e-02 2.5993070240e+00 -4.5021318301e+00 2.5993070240e+00 4.5021318301e+00 
19600 4.8887365527e+00 1.3694485296e-02 2.5990388991e+00 -4.5016674241e+00 2.5990388991e+00 4.5016674241e+00 
19700 4.8887332078e+00 1.3465976532e-02 2.5987754507e+00 -4.5012111180e+00 2.5987754507e+00 4.5012111180e+00 
19800 4.8887303372e+00 1.3253017694e-02 2.5985163719e+00 -4.5007623804e+00 2.5985163719e+00 4.5007623804e+00 
19900 4.8887279223e+00 1.3055094766e-02 2.5982613648e+00 -4.5003206952e+00 2.5982613648e+00 4.5003206952e+00 
20000 4.8887259401e+00 1.2871658883e-02 2.5980101413e+00 -4.4998855634e+00 2.5980101413e+00 4.4998855634e+00 
20100 4.8887243637e+00 1.2702129622e-02 2.5977624238e+00 -4.4994565040e+00 2.5977624238e+00 4.4994565040e+00 
20200 4.8887231630e+00 1.2545898288e-02 2.5975179455e+00 -4.4990330552e+00 2.5975179455e+00 4.4990330552e+00 
20300 4.8887223053e+00 1.2402331201e-02 2.5972764514e+00 -4.4986147752e+00 2.5972764514e+00 4.4986147752e+00 
20400 4.8887217560e+00 1.2270772976e-02 2.5970376986e+00 -4.4982012432e+00 2.5970376986e+00 4.4982012432e+00 
20500 4.8887214791e+00 1.2150549766e-02 2.5968014566e+00 -4.4977920600e+00 2.5968014566e+00 4.4977920600e+00 
20600 4.8887214381e+00 1.2040972486e-02 2.5965675079e+00 -4.4973868490e+00 2.5965675079e+00 4.4973868490e+00 
20700 4.8887215963e+00 1.1941339978e-02 2.5963356481e+00 -4.4969852560e+00 2.5963356481e+00 4.4969852560e+00 
20800 4.8887219175e+00 1.1850942135e-02 2.5961056862e+00 -4.4965869504e+00 2.5961056862e+00 4.4965869504e+00 
20900 4.8887223664e+00 1.1769062957e-02 2.5958774450e+00 -4.4961916249e+00 2.5958774450e+00 4.4961916249e+00 
21000 4.8887229091e+00 1.1694983535e-02 2.5956507607e+00 -4.4957989962e+00 2.5956507607e+00 4.4957989962e+00 
21100 4.8887235136e+00 1.1627984960e-02 2.5954254836e+00 -4.4954088048e+00 2.5954254836e+00 4.4954088048e+00 
21200 4.8887241498e+00 1.1567351137e-02 2.5952014776e+00 -4.4950208150e+00 2.5952014776e+00 4.4950208150e+00 
21300 4.8887247904e+00 1.1512371513e-02 2.5949786204e+00 -4.4946348151e+00 2.5949786204e+00 4.4946348151e+00 
21400 4.8887254104e+00 1.1462343696e-02 2.5947568034e+00 -4.4942506168e+00 2.5947568034e+00 4.4942506168e+00 
21500 4.8887259879e+00 1.1416575970e-02 2.5945359314e+00 -4.4938680553e+00 2.5945359314e+00 4.4938680553e+00 
21600 4.8887265036e+00 1.1374389688e-02 2.5943159226e+00 -4.4934869889e+00 2.5943159226e+00 4.4934869889e+00 
21700 4.8887269416e+00 1.1335121552e-02 2.5940967082e+00 -4.4931072984e+00 2.5940967082e+00 4.4931072984e+00 
21800 4.8887272888e+00 1.1298125759e-02 2.5938782321e+00 -4.4927288867e+00 2.5938782321e+00 4.4927288867e+00 
21900 4.8887275352e+00 1.1262776024e-02 2.5936604507e+00 -4.4923516782e+00 2.5936604507e+00 4.4923516782e+00 
22000 4.8887276736e+00 1.1228467460e-02 2.5934433325e+00 -4.4919756185e+00 2.5934433325e+00 4.4919756185e+00 
22100 4.8887276997e+00 1.1194618324e-02 2.5932268575e+00 -4.4916006728e+00 2.5932268575e+00 4.4916006728e+00 
22200 4.8887276119e+00 1.1160671615e-02 2.5930110171e+00 -4.4912268263e+00 2.5930110171e+00 4.4912268263e+00 
22300 4.8887274109e+00 1.1126096536e-02 2.5927958133e+00 -4.4908540823e+00 2.5927958133e+00 4.4908540823e+00 
22400 4.8887270997e+00 1.1090389800e-02 2.5925812584e+00 -4.4904824623e+00 2.5925812584e+00 4.4904824623e+00 
22500 4.8887266835e+00 1.1053076793e-02 2.5923673743e+00 -4.4901120042e+00 2.5923673743e+00 4.4901120042e+00 
22600 4.8887261691e+00 1.1013712585e-02 2.5921541922e+00 -4.4897427620e+00 2.5921541922e+00 4.4897427620e+00 
22700 4.8887255648e+00 1.0971882796e-02 2.5919417519e+00 -4.4893748045e+00 2.5919417519e+00 4.4893748045e+00 
22800 4.8887248803e+00 1.0927204306e-02 2.5917301010e+00 -4.4890082145e+00 2.5917301010e+00 4.4890082145e+00 
22900 4.8887241262e+00 1.0879325824e-02 2.5915192948e+00 -4.4886430874e+00 2.5915192948e+00 4.4886430874e+00 
23000 4.8887233138e+00 1.0827928307e-02 2.5913093952e+00 -4.4882795306e+00 2.5913093952e+00 4.4882795306e+00 
23100 4.8887224549e+00 1.0772725233e-02 2.5911004703e+00 -4.4879176620e+00 2.5911004703e+00 4.4879176620e+00 
23200 4.8887215617e+00 1.0713462738e-02 2.5908925937e+00 -4.4875576092e+00 2.5908925937e+00 4.4875576092e+00 
23300 4.8887206461e+00 1.0649919607e-02 2.5906858441e+00 -4.4871995084e+00 2.5906858441e+00 4.4871995084e+00 
23400 4.8887197200e+00 1.0581907139e-02 2.5904803043e+00 -4.4868435031e+00 2.5904803043e+00 4.4868435031e+00 
23500 4.8887187948e+00 1.0509268871e-02 2.5902760610e+00 -4.4864897432e+00 2.5902760610e+00 4.4864897432e+00 
23600 4.8887178812e+00 1.0431880189e-02 2.5900732036e+00 -4.4861383840e+00 2.5900732036e+00 4.4861383840e+00 
23700 4.8887169895e+00 1.0349647805e-02 2.5898718243e+00 -4.4857895847e+00 2.5898718243e+00 4.4857895847e+00 
23800 4.8887161287e+00 1.0262509132e-02 2.5896720168e+00 -4.4854435080e+00 2.5896720168e+00 4.4854435080e+00 
23900 4.8887153072e+00 1.0170431537e-02 2.5894738763e+00 -4.4851003186e+00 2.5894738763e+00 4.4851003186e+00 
24000 4.8887145319e+00 1.0073411502e-02 2.5892774985e+00 -4.4847601823e+00 2.5892774985e+00 4.4847601823e+00 
24100 4.8887138091e+00 9.9714736797e-03 2.5890829793e+00 -4.4844232651e+00 2.5890829793e+00 4.4844232651e+00 
24200 4.8887131435e+00 9.8646698690e-03 2.5888904140e+00 -4.4840897322e+00 2.5888904140e+00 4.4840897322e+00 
24300 4.8887125388e+00 9.7530778989e-03 2.5886998971e+00 -4.4837597472e+00 2.5886998971e+00 4.4837597472e+00 
24400 4.8887119975e+00 9.6368004420e-03 2.5885115214e+00 -4.4834334711e+00 2.5885115214e+00 4.4834334711e+00 
24500 4.8887115212e+00 9.5159637590e-03 2.5883253781e+00 -4.4831110613e+00 2.5883253781e+00 4.4831110613e+00 
24600 4.8887111100e+00 9.3907163821e-03 2.5881415555e+00 -4.4827926713e+00 2.5881415555e+00 4.4827926713e+00 
24700 4.8887107632e+00 9.2612277453e-03 2.5879601395e+00 -4.4824784496e+00 2.5879601395e+00 4.4824784496e+00 
24800 4.8887104792e+00 9.1276867694e-03 2.5877812125e+00 -4.4821685388e+00 2.5877812125e+00 4.4821685388e+00 
24900 4.8887102553e+00 8.9903004082e-03 2.5876048532e+00 -4.4818630757e+00 2.5876048532e+00 4.4818630757e+00 
25000 4.8887100884e+00 8.8492921644e-03 2.5874311366e+00 -4.4815621896e+00 2.5874311366e+00 4.4815621896e+00 
25100 4.8887099743e+00 8.7049005816e-03 2.5872601331e+00 -4.4812660029e+00 2.5872601331e+00 4.4812660029e+00 
25200 4.8887099085e+00 8.5573777205e-03 2.5870919087e+00 -4.4809746297e+00 2.5870919087e+00 4.4809746297e+00 
25300 4.8887098859e+00 8.4069876254e-03 2.5869265244e+00 -4.4806881757e+00 2.5869265244e+00 4.4806881757e+00 
25400 4.8887099014e+00 8.2540047886e-03 2.5867640362e+00 -4.4804067379e+00 2.5867640362e+00 4.4804067379e+00 
25500 4.8887099491e+00 8.0987126192e-03 2.5866044948e+00 -4.4801304041e+00 2.5866044948e+00 4.4801304041e+00 
25600 4.8887100236e+00 7.9414019222e-03 2.5864479453e+00 -4.4798592525e+00 2.5864479453e+00 4.4798592525e+00 
25700 4.8887101189e+00 7.7823693946e-03 2.5862944274e+00 -4.4795933516e+00 2.5862944274e+00 4.4795933516e+00 
25800 4.8887102296e+00 7.6219161448e-03 2.5861439748e+00 -4.4793327601e+00 2.5861439748e+00 4.4793327601e+00 
25900 4.8887103501e+00 7.4603462393e-03 2.5859966156e+00 -4.4790775264e+00 2.5859966156e+00 4.4790775264e+00 
26000 4.8887104752e+00 7.2979652837e-03 2.5858523718e+00 -4.4788276889e+00 2.5858523718e+00 4.4788276889e+00 
26100 4.8887106000e+00 7.1350790419e-03 2.5857112598e+00 -4.4785832756e+00 2.5857112598e+00 4.4785832756e+00 
26200 4.8887107200e+00 6.9719920984e-03 2.5855732897e+00 -4.4783443045e+00 2.5855732897e+00 4.4783443045e+00 
26300 4.8887108311e+00 6.8090065677e-03 2.5854384660e+00 -4.4781107829e+00 2.5854384660e+00 4.4781107829e+00 
26400 4.8887109298e+00 6.6464208556e-03 2.5853067872e+00 -4.4778827086e+00 2.5853067872e+00 4.4778827086e+00 
26500 4.8887110130e+00 6.4845284743e-03 2.5851782460e+00 -4.4776600688e+00 2.5851782460e+00 4.4776600688e+00 
26600 4.8887110781e+00 6.3236169159e-03 2.5850528296e+00 -4.4774428412e+00 2.5850528296e+00 4.4774428412e+00 
26700 4.8887111231e+00 6.1639665869e-03 2.5849305194e+00 -4.4772309937e+00 2.5849305194e+00 4.4772309937e+00 
26800 4.8887111466e+00 6.0058498052e-03 2.5848112915e+00 -4.4770244848e+00 2.5848112915e+00 4.4770244848e+00 
26900 4.8887111477e+00 5.8495298628e-03 2.5846951166e+00 -4.4768232639e+00 2.5846951166e+00 4.4768232639e+00 
27000 4.8887111260e+00 5.6952601552e-03 2.5845819603e+00 -4.4766272716e+00 2.5845819603e+00 4.4766272716e+00 
27100 4.8887110815e+00 5.5432833798e-03 2.5844717835e+00 -4.4764364398e+00 2.5844717835e+00 4.4764364398e+00 
27200 4.8887110149e+00 5.3938308029e-03 2.5843645422e+00 -4.4762506923e+00 2.5843645422e+00 4.4762506923e+00 
27300 4.8887109272e+00 5.2471215975e-03 2.5842601878e+00 -4.4760699452e+00 2.5842601878e+00 4.4760699452e+00 
27400 4.8887108196e+00 5.1033622517e-03 2.5841586677e+00 -4.4758941073e+00 2.5841586677e+00 4.4758941073e+00 
27500 4.8887106941e+00 4.9627460472e-03 2.5840599251e+00 -4.4757230801e+00 2.5840599251e+00 4.4757230801e+00 
27600 4.8887105525e+00 4.8254526094e-03 2.5839638996e+00 -4.4755567590e+00 2.5839638996e+00 4.4755567590e+00 
27700 4.8887103971e+00 4.6916475264e-03 2.5838705271e+00 -4.4753950331e+00 2.5838705271e+00 4.4753950331e+00 
27800 4.8887102304e+00 4.5614820383e-03 2.5837797404e+00 -4.4752377859e+00 2.5837797404e+00 4.4752377859e+00 
27900 4.8887100550e+00 4.4350927938e-03 2.5836914694e+00 -4.4750848961e+00 2.5836914694e+00 4.4750848961e+00 
28000 4.8887098735e+00 4.3126016752e-03 2.5836056413e+00 -4.4749362374e+00 2.5836056413e+00 4.4749362374e+00 
28100 4.8887096887e+00 4.1941156877e-03 2.5835221808e+00 -4.4747916796e+00 2.5835221808e+00 4.4747916796e+00 
28200 4.8887095033e+00 4.0797269136e-03 2.5834410107e+00 -4.4746510889e+00 2.5834410107e+00 4.4746510889e+00 
28300 4.8887093198e+00 3.9695125280e-03 2.5833620520e+00 -4.4745143284e+00 2.5833620520e+00 4.4745143284e+00 
28400 4.8887091409e+00 3.8635348747e-03 2.5832852239e+00 -4.4743812583e+00 2.5832852239e+00 4.4743812583e+00 
28500 4.8887089689e+00 3.7618416000e-03 2.5832104448e+00 -4.4742517370e+00 2.5832104448e+00 4.4742517370e+00 
28600 4.8887088062e+00 3.6644658418e-03 2.5831376318e+00 -4.4741256213e+00 2.5831376318e+00 4.4741256213e+00 
28700 4.8887086547e+00 3.5714264714e-03 2.5830667017e+00 -4.4740027666e+00 2.5830667017e+00 4.4740027666e+00 
28800 4.8887085163e+00 3.4827283859e-03 2.5829975704e+00 -4.4738830278e+00 2.5829975704e+00 4.4738830278e+00 
28900 4.8887083926e+00 3.3983628480e-03 2.5829301543e+00 -4.4737662597e+00 2.5829301543e+00 4.4737662597e+00 
29000 4.8887082849e+00 3.3183078698e-03 2.5828643696e+00 -4.4736523172e+00 2.5828643696e+00 4.4736523172e+00 
29100 4.8887081943e+00 3.2425286396e-03 2.5828001329e+00 -4.4735410559e+00 2.5828001329e+00 4.4735410559e+00 
29200 4.8887081217e+00 3.1709779863e-03 2.5827373615e+00 -4.4734323328e+00 2.5827373615e+00 4.4734323328e+00 
29300 4.8887080675e+00 3.1035968798e-03 2.5826759739e+00 -4.4733260062e+00 2.5826759739e+00 4.4733260062e+00 
29400 4.8887080321e+00 3.0403149643e-03 2.5826158892e+00 -4.4732219365e+00 2.5826158892e+00 4.4732219365e+00 
29500 4.8887080154e+00 2.9810511205e-03 2.5825570283e+00 -4.4731199864e+00 2.5825570283e+00 4.4731199864e+00 
29600 4.8887080173e+00 2.9257140548e-03 2.5824993134e+00 -4.4730200213e+00 2.5824993134e+00 4.4730200213e+00 
29700 4.8887080373e+00 2.8742029113e-03 2.5824426686e+00 -4.4729219096e+00 2.5824426686e+00 4.4729219096e+00 
29800 4.8887080747e+00 2.8264079036e-03 2.5823870198e+00 -4.4728255232e+00 2.5823870198e+00 4.4728255232e+00 
29900 4.8887081288e+00 2.7822109644e-03 2.5823322953e+00 -4.4727307375e+00 2.5823322953e+00 4.4727307375e+00 
30000 4.8887081984e+00 2.7414864080e-03 2.5822784254e+00 -4.4726374321e+00 2.5822784254e+00 4.4726374321e+00 
30100 4.8887082824e+00 2.7041016047e-03 2.5822253429e+00 -4.4725454904e+00 2.5822253429e+00 4.4725454904e+00 
30200 4.8887083795e+00 2.6699176620e-03 2.5821729831e+00 -4.4724548007e+00 2.5821729831e+00 4.4724548007e+00 
30300 4.8887084882e+00 2.6387901115e-03 2.5821212843e+00 -4.4723652556e+00 2.5821212843e+00 4.4723652556e+00 
30400 4.8887086073e+00 2.6105695976e-03 2.5820701871e+00 -4.4722767528e+00 2.5820701871e+00 4.4722767528e+00 
30500 4.8887087350e+00 2.5851025655e-03 2.5820196354e+00 -4.4721891946e+00 2.5820196354e+00 4.4721891946e+00 
30600 4.8887088699e+00 2.5622319459e-03 2.5819695758e+00 -4.4721024890e+00 2.5819695758e+00 4.4721024890e+00 
30700 4.8887090104e+00 2.5417978335e-03 2.5819199582e+00 -4.4720165487e+00 2.5819199582e+00 4.4720165487e+00 
30800 4.8887091549e+00 2.5236381575e-03 2.5818707354e+00 -4.4719312922e+00 2.5818707354e+00 4.4719312922e+00 
30900 4.8887093021e+00 2.5075893402e-03 2.5818218632e+00 -4.4718466432e+00 2.5818218632e+00 4.4718466432e+00 
31000 4.8887094504e+00 2.4934869436e-03 2.5817733010e+00 -4.4717625309e+00 2.5817733010e+00 4.4717625309e+00 
31100 4.8887095985e+00 2.4811663002e-03 2.5817250109e+00 -4.4716788901e+00 2.5817250109e+00 4.4716788901e+00 
31200 4.8887097450e+00 2.4704631258e-03 2.5816769586e+00 -4.4715956610e+00 2.5816769586e+00 4.4715956610e+00 
31300 4.8887098889e+00 2.4612141141e-03 2.5816291127e+00 -4.4715127894e+00 2.5816291127e+00 4.4715127894e+00 
31400 4.8887100291e+00 2.4532575095e-03 2.5815814450e+00 -4.4714302265e+00 2.5815814450e+00 4.4714302265e+00 
31500 4.8887101646e+00 2.4464336571e-03 2.5815339305e+00 -4.4713479291e+00 2.5815339305e+00 4.4713479291e+00 
31600 4.8887102947e+00 2.4405855294e-03 2.5814865473e+00 -4.4712658590e+00 2.5814865473e+00 4.4712658590e+00 
31700 4.8887104185e+00 2.4355592260e-03 2.5814392765e+00 -4.4711839836e+00 2.5814392765e+00 4.4711839836e+00 
31800 4.8887105356e+00 2.4312044476e-03 2.5813921022e+00 -4.4711022753e+00 2.5813921022e+00 4.4711022753e+00 
31900 4.8887106456e+00 2.4273749418e-03 2.5813450114e+00 -4.4710207116e+00 2.5813450114e+00 4.4710207116e+00 
32000 4.8887107482e+00 2.4239289196e-03 2.5812979939e+00 -4.4709392749e+00 2.5812979939e+00 4.4709392749e+00 
32100 4.8887108431e+00 2.4207294429e-03 2.5812510423e+00 -4.4708579523e+00 2.5812510423e+00 4.4708579523e+00 
32200 4.8887109303e+00 2.4176447811e-03 2.5812041518e+00 -4.4707767356e+00 2.5812041518e+00 4.4707767356e+00 
32300 4.8887110099e+00 2.4145487375e-03 2.5811573202e+00 -4.4706956210e+00 2.5811573202e+00 4.4706956210e+00 
32400 4.8887110821e+00 2.4113209438e-03 2.5811105478e+00 -4.4706146087e+00 2.5811105478e+00 4.4706146087e+00 
32500 4.8887111471e+00 2.4078471235e-03 2.5810638370e+00 -4.4705337032e+00 2.5810638370e+00 4.4705337032e+00 
32600 4.8887112052e+00 2.4040193238e-03 2.5810171927e+00 -4.4704529129e+00 2.5810171927e+00 4.4704529129e+00 
32700 4.8887112568e+00 2.3997361160e-03 2.5809706216e+00 -4.4703722495e+00 2.5809706216e+00 4.4703722495e+00 
32800 4.8887113025e+00 2.3949027639e-03 2.5809241328e+00 -4.4702917284e+00 2.5809241328e+00 4.4702917284e+00 
32900 4.8887113427e+00 2.3894313621e-03 2.5808777367e+00 -4.4702113680e+00 2.5808777367e+00 4.4702113680e+00 
33000 4.8887113780e+00 2.3832409424e-03 2.5808314457e+00 -4.4701311898e+00 2.5808314457e+00 4.4701311898e+00 
33100 4.8887114090e+00 2.3762575510e-03 2.5807852739e+00 -4.4700512179e+00 2.5807852739e+00 4.4700512179e+00 
33200 4.8887114364e+00 2.3684142955e-03 2.5807392366e+00 -4.4699714788e+00 2.5807392366e+00 4.4699714788e+00 
33300 4.8887114607e+00 2.3596513628e-03 2.5806933504e+00 -4.4698920016e+00 2.5806933504e+00 4.4698920016e+00 
33400 4.8887114825e+00 2.3499160098e-03 2.5806476331e+00 -4.4698128170e+00 2.5806476331e+00 4.4698128170e+00 
33500 4.8887115024e+00 2.3391625256e-03 2.5806021036e+00 -4.4697339576e+00 2.5806021036e+00 4.4697339576e+00 
33600 4.8887115211e+00 2.3273521685e-03 2.5805567818e+00 -4.4696554578e+00 2.5805567818e+00 4.4696554578e+00 
33700 4.8887115391e+00 2.3144530773e-03 2.5805116879e+00 -4.4695773530e+00 2.5805116879e+00 4.4695773530e+00 
33800 4.8887115569e+00 2.3004401588e-03 2.5804668432e+00 -4.4694996796e+00 2.5804668432e+00 4.4694996796e+00 
33900 4.8887115751e+00 2.2852949524e-03 2.5804222692e+00 -4.4694224752e+00 2.5804222692e+00 4.4694224752e+00 
34000 4.8887115939e+00 2.2690054728e-03 2.5803779879e+00 -4.4693457778e+00 2.5803779879e+00 4.4693457778e+00 
34100 4.8887116138e+00 2.2515660325e-03 2.5803340215e+00 -4.4692696257e+00 2.5803340215e+00 4.4692696257e+00 
34200 4.8887116353e+00 2.2329770460e-03 2.5802903923e+00 -4.4691940577e+00 2.5802903923e+00 4.4691940577e+00 
34300 4.8887116584e+00 2.2132448150e-03 2.5802471225e+00 -4.4691191123e+00 2.5802471225e+00 4.4691191123e+00 
34400 4.8887116836e+00 2.1923812990e-03 2.5802042344e+00 -4.4690448279e+00 2.5802042344e+00 4.4690448279e+00 
34500 4.8887117109e+00 2.1704038697e-03 2.5801617499e+00 -4.4689712425e+00 2.5801617499e+00 4.4689712425e+00 
34600 4.8887117405e+00 2.1473350531e-03 2.5801196905e+00 -4.4688983936e+00 2.5801196905e+00 4.4688983936e+00 
34700 4.8887117725e+00 2.1232022589e-03 2.5800780775e+00 -4.4688263178e+00 2.5800780775e+00 4.4688263178e+00 
34800 4.8887118068e+00 2.0980375003e-03 2.5800369316e+00 -4.4687550509e+00 2.5800369316e+00 4.4687550509e+00 
34900 4.8887118436e+00 2.0718771042e-03 2.5799962726e+00 -4.4686846275e+00 2.5799962726e+00 4.4686846275e+00 
35000 4.8887118827e+00 2.0447614140e-03 2.5799561200e+00 -4.4686150812e+00 2.5799561200e+00 4.4686150812e+00 
35100 4.8887119240e+00 2.0167344861e-03 2.5799164923e+00 -4.4685464439e+00 2.5799164923e+00 4.4685464439e+00 
35200 4.8887119674e+00 1.9878437822e-03 2.5798774071e+00 -4.4684787464e+00 2.5798774071e+00 4.4684787464e+00 
35300 4.8887120128e+00 1.9581398578e-03 2.5798388813e+00 -4.4684120177e+00 2.5798388813e+00 4.4684120177e+00 
35400 4.8887120599e+00 1.9276760487e-03 2.5798009305e+00 -4.4683462851e+00 2.5798009305e+00 4.4683462851e+00 
35500 4.8887121086e+00 1.8965081569e-03 2.5797635697e+00 -4.4682815742e+00 2.5797635697e+00 4.4682815742e+00 
35600 4.8887121587e+00 1.8646941372e-03 2.5797268124e+00 -4.4682179087e+00 2.5797268124e+00 4.4682179087e+00 
35700 4.8887122098e+00 1.8322937853e-03 2.5796906711e+00 -4.4681553102e+00 2.5796906711e+00 4.4681553102e+00 
35800 4.8887122619e+00 1.7993684292e-03 2.5796551574e+00 -4.4680937986e+00 2.5796551574e+00 4.4680937986e+00 
35900 4.8887123146e+00 1.7659806242e-03 2.5796202813e+00 -4.4680333915e+00 2.5796202813e+00 4.4680333915e+00 
36000 4.8887123677e+00 1.7321938540e-03 2.5795860519e+00 -4.4679741045e+00 2.5795860519e+00 4.4679741045e+00 
36100 4.8887124209e+00 1.6980722366e-03 2.5795524770e+00 -4.4679159509e+00 2.5795524770e+00 4.4679159509e+00 
36200 4.8887124741e+00 1.6636802388e-03 2.5795195630e+00 -4.4678589422e+00 2.5795195630e+00 4.4678589422e+00 
36300 4.8887125271e+00 1.6290823979e-03 2.5794873152e+00 -4.4678030873e+00 2.5794873152e+00 4.4678030873e+00 
36400 4.8887125795e+00 1.5943430522e-03 2.5794557376e+00 -4.4677483934e+00 2.5794557376e+00 4.4677483934e+00 
36500 4.8887126314e+00 1.5595260819e-03 2.5794248330e+00 -4.4676948651e+00 2.5794248330e+00 4.4676948651e+00 
36600 4.8887126824e+00 1.5246946597e-03 2.5793946030e+00 -4.4676425051e+00 2.5793946030e+00 4.4676425051e+00 
36700 4.8887127326e+00 1.4899110124e-03 2.5793650477e+00 -4.4675913139e+00 2.5793650477e+00 4.4675913139e+00 
36800 4.8887127816e+00 1.4552361948e-03 2.5793361664e+00 -4.4675412901e+00 2.5793361664e+00 4.4675412901e+00 
36900 4.8887128295e+00 1.4207298751e-03 2.5793079570e+00 -4.4674924298e+00 2.5793079570e+00 4.4674924298e+00 
37000 4.8887128761e+00 1.3864501327e-03 2.5792804161e+00 -4.4674447277e+00 2.5792804161e+00 4.4674447277e+00 
37100 4.8887129215e+00 1.3524532698e-03 2.5792535395e+00 -4.4673981760e+00 2.5792535395e+00 4.4673981760e+00 
37200 4.8887129654e+00 1.3187936352e-03 2.5792273216e+00 -4.4673527653e+00 2.5792273216e+00 4.4673527653e+00 
37300 4.8887130081e+00 1.2855234628e-03 2.5792017560e+00 -4.4673084843e+00 2.5792017560e+00 4.4673084843e+00 
37400 4.8887130494e+00 1.2526927225e-03 2.5791768351e+00 -4.4672653200e+00 2.5791768351e+00 4.4672653200e+00 
37500 4.8887130893e+00 1.2203489862e-03 2.5791525504e+00 -4.4672232577e+00 2.5791525504e+00 4.4672232577e+00 
37600 4.8887131279e+00 1.1885373071e-03 2.5791288924e+00 -4.4671822810e+00 2.5791288924e+00 4.4671822810e+00 
37700 4.8887131653e+00 1.1573001129e-03 2.5791058510e+00 -4.4671423721e+00 2.5791058510e+00 4.4671423721e+00 
37800 4.8887132014e+00 1.1266771131e-03 2.5790834150e+00 -4.4671035117e+00 2.5790834150e+00 4.4671035117e+00 
37900 4.8887132364e+00 1.0967052203e-03 2.5790615724e+00 -4.4670656793e+00 2.5790615724e+00 4.4670656793e+00 
38000 4.8887132704e+00 1.0674184848e-03 2.5790403107e+00 -4.4670288530e+00 2.5790403107e+00 4.4670288530e+00 
38100 4.8887133034e+00 1.0388480432e-03 2.5790196167e+00 -4.4669930098e+00 2.5790196167e+00 4.4669930098e+00 
38200 4.8887133355e+00 1.0110220796e-03 2.5789994763e+00 -4.4669581257e+00 2.5789994763e+00 4.4669581257e+00 
38300 4.8887133669e+00 9.8396580027e-04 2.5789798753e+00 -4.4669241757e+00 2.5789798753e+00 4.4669241757e+00 
38400 4.8887133975e+00 9.5770142105e-04 2.5789607987e+00 -4.4668911340e+00 2.5789607987e+00 4.4668911340e+00 
38500 4.8887134275e+00 9.3224816664e-04 2.5789422311e+00 -4.4668589741e+00 2.5789422311e+00 4.4668589741e+00 
38600 4.8887134571e+00 9.0762228207e-04 2.5789241569e+00 -4.4668276686e+00 2.5789241569e+00 4.4668276686e+00 
38700 4.8887134862e+00 8.8383705556e-04 2.5789065600e+00 -4.4667971899e+00 2.5789065600e+00 4.4667971899e+00 
38800 4.8887135150e+00 8.6090285240e-04 2.5788894241e+00 -4.4667675097e+00 2.5788894241e+00 4.4667675097e+00 
38900 4.8887135436e+00 8.3882715931e-04 2.5788727328e+00 -4.4667385995e+00 2.5788727328e+00 4.4667385995e+00 
39000 4.8887135720e+00 8.1761463883e-04 2.5788564694e+00 -4.4667104304e+00 2.5788564694e+00 4.4667104304e+00 
39100 4.8887136002e+00 7.9726719315e-04 2.5788406171e+00 -4.4666829735e+00 2.5788406171e+00 4.4666829735e+00 
39200 4.8887136284e+00 7.7778403682e-04 2.5788251593e+00 -4.4666561997e+00 2.5788251593e+00 4.4666561997e+00 
39300 4.8887136566e+00 7.5916177786e-04 2.5788100791e+00 -4.4666300801e+00 2.5788100791e+00 4.4666300801e+00 
39400 4.8887136848e+00 7.4139450650e-04 2.5787953599e+00 -4.4666045856e+00 2.5787953599e+00 4.4666045856e+00 
39500 4.8887137131e+00 7.2447389117e-04 2.5787809851e+00 -4.4665796877e+00 2.5787809851e+00 4.4665796877e+00 
39600 4.8887137415e+00 7.0838928090e-04 2.5787669383e+00 -4.4665553579e+00 2.5787669383e+00 4.4665553579e+00 
39700 4.8887137699e+00 6.9312781374e-04 2.5787532032e+00 -4.4665315682e+00 2.5787532032e+00 4.4665315682e+00 
39800 4.8887137985e+00 6.7867453041e-04 2.5787397640e+00 -4.4665082908e+00 2.5787397640e+00 4.4665082908e+00 
39900 4.8887138271e+00 6.6501249267e-04 2.5787266050e+00 -4.4664854987e+00 2.5787266050e+00 4.4664854987e+00 
40000 4.8887138558e+00 6.5212290572e-04 2.5787137108e+00 -4.4664631653e+00 2.5787137108e+00 4.4664631653e+00 
40100 4.8887138846e+00 6.3998524403e-04 2.5787010665e+00 -4.4664412647e+00 2.5787010665e+00 4.4664412647e+00 
40200 4.8887139135e+00 6.2857738008e-04 2.5786886574e+00 -4.4664197716e+00 2.5786886574e+00 4.4664197716e+00 
40300 4.8887139423e+00 6.1787571528e-04 2.5786764695e+00 -4.4663986615e+00 2.5786764695e+00 4.4663986615e+00 
40400 4.8887139712e+00 6.0785531252e-04 2.5786644890e+00 -4.4663779107e+00 2.5786644890e+00 4.4663779107e+00 
40500 4.8887140000e+00 5.9849002988e-04 2.5786527028e+00 -4.4663574963e+00 2.5786527028e+00 4.4663574963e+00 
40600 4.8887140287e+00 5.8975265479e-04 2.5786410981e+00 -4.4663373964e+00 2.5786410981e+00 4.4663373964e+00 
40700 4.8887140572e+00 5.8161503815e-04 2.5786296628e+00 -4.4663175899e+00 2.5786296628e+00 4.4663175899e+00 
40800 4.8887140857e+00 5.7404822789e-04 2.5786183852e+00 -4.4662980565e+00 2.5786183852e+00 4.4662980565e+00 
40900 4.8887141139e+00 5.6702260151e-04 2.5786072543e+00 -4.4662787772e+00 2.5786072543e+00 4.4662787772e+00 
41000 4.8887141418e+00 5.6050799697e-04 2.5785962595e+00 -4.4662597337e+00 2.5785962595e+00 4.4662597337e+00 
41100 4.8887141695e+00 5.5447384162e-04 2.5785853911e+00 -4.4662409090e+00 2.5785853911e+00 4.4662409090e+00 
41200 4.8887141968e+00 5.4888927858e-04 2.5785746396e+00 -4.4662222868e+00 2.5785746396e+00 4.4662222868e+00 
41300 4.8887142238e+00 5.4372329030e-04 2.5785639963e+00 -4.4662038522e+00 2.5785639963e+00 4.4662038522e+00 
41400 4.8887142504e+00 5.3894481876e-04 2.5785534532e+00 -4.4661855909e+00 2.5785534532e+00 4.4661855909e+00 
41500 4.8887142766e+00 5.3452288201e-04 2.5785430027e+00 -4.4661674901e+00 2.5785430027e+00 4.4661674901e+00 
41600 4.8887143023e+00 5.3042668673e-04 2.5785326378e+00 -4.4661495377e+00 2.5785326378e+00 4.4661495377e+00 
41700 4.8887143275e+00 5.2662573645e-04 2.5785223524e+00 -4.4661317228e+00 2.5785223524e+00 4.4661317228e+00 
41800 4.8887143523e+00 5.2308993508e-04 2.5785121406e+00 -4.4661140355e+00 2.5785121406e+00 4.4661140355e+00 
41900 4.8887143765e+00 5.1978968565e-04 2.5785019974e+00 -4.4660964669e+00 2.5785019974e+00 4.4660964669e+00 
42000 4.8887144003e+00 5.1669598391e-04 2.5784919181e+00 -4.4660790091e+00 2.5784919181e+00 4.4660790091e+00 
42100 4.8887144235e+00 5.1378050649e-04 2.5784818988e+00 -4.4660616551e+00 2.5784818988e+00 4.4660616551e+00 
42200 4.8887144462e+00 5.1101569371e-04 2.5784719359e+00 -4.4660443989e+00 2.5784719359e+00 4.4660443989e+00 
42300 4.8887144684e+00 5.0837482665e-04 2.5784620267e+00 -4.4660272356e+00 2.5784620267e+00 4.4660272356e+00 
42400 4.8887144901e+00 5.0583209837e-04 2.5784521686e+00 -4.4660101608e+00 2.5784521686e+00 4.4660101608e+00 
42500 4.8887145113e+00 5.0336267936e-04 2.5784423597e+00 -4.4659931715e+00 2.5784423597e+00 4.4659931715e+00 
42600 4.8887145320e+00 5.0094277699e-04 2.5784325988e+00 -4.4659762649e+00 2.5784325988e+00 4.4659762649e+00 
42700 4.8887145522e+00 4.9854968889e-04 2.5784228847e+00 -4.4659594397e+00 2.5784228847e+00 4.4659594397e+00 
42800 4.8887145719e+00 4.9616185041e-04 2.5784132170e+00 -4.4659426947e+00 2.5784132170e+00 4.4659426947e+00 
42900 4.8887145913e+00 4.9375887600e-04 2.5784035955e+00 -4.4659260298e+00 2.5784035955e+00 4.4659260298e+00 
43000 4.8887146102e+00 4.9132159458e-04 2.5783940206e+00 -4.4659094456e+00 2.5783940206e+00 4.4659094456e+00 
43100 4.8887146287e+00 4.8883207908e-04 2.5783844930e+00 -4.4658929432e+00 2.5783844930e+00 4.4658929432e+00 
43200 4.8887146469e+00 4.8627366996e-04 2.5783750135e+00 -4.4658765244e+00 2.5783750135e+00 4.4658765244e+00 
43300 4.8887146647e+00 4.8363099306e-04 2.5783655837e+00 -4.4658601914e+00 2.5783655837e+00 4.4658601914e+00 
43400 4.8887146822e+00 4.8088997181e-04 2.5783562051e+00 -4.4658439472e+00 2.5783562051e+00 4.4658439472e+00 
43500 4.8887146994e+00 4.7803783381e-04 2.5783468796e+00 -4.4658277949e+00 2.5783468796e+00 4.4658277949e+00 
43600 4.8887147164e+00 4.7506311222e-04 2.5783376093e+00 -4.4658117384e+00 2.5783376093e+00 4.4658117384e+00 
43700 4.8887147331e+00 4.7195564172e-04 2.5783283967e+00 -4.4657957817e+00 2.5783283967e+00 4.4657957817e+00 
43800 4.8887147495e+00 4.6870654965e-04 2.5783192444e+00 -4.4657799294e+00 2.5783192444e+00 4.4657799294e+00 
43900 4.8887147658e+00 4.6530824225e-04 2.5783101550e+00 -4.4657641861e+00 2.5783101550e+00 4.4657641861e+00 
44000 4.8887147819e+00 4.6175438629e-04 2.5783011315e+00 -4.4657485570e+00 2.5783011315e+00 4.4657485570e+00 
44100 4.8887147978e+00 4.5803988632e-04 2.5782921769e+00 -4.4657330471e+00 2.5782921769e+00 4.4657330471e+00 
44200 4.8887148136e+00 4.5416085780e-04 2.5782832943e+00 -4.4657176620e+00 2.5782832943e+00 4.4657176620e+00 
44300 4.8887148292e+00 4.5011459628e-04 2.5782744868e+00 -4.4657024071e+00 2.5782744868e+00 4.4657024071e+00 
44400 4.8887148447e+00 4.4589954295e-04 2.5782657579e+00 -4.4656872880e+00 2.5782657579e+00 4.4656872880e+00 
44500 4.8887148601e+00 4.4151524680e-04 2.5782571106e+00 -4.4656723105e+00 2.5782571106e+00 4.4656723105e+00 
44600 4.8887148754e+00 4.3696232363e-04 2.5782485483e+00 -4.4656574802e+00 2.5782485483e+00 4.4656574802e+00 
44700 4.8887148906e+00 4.3224241213e-04 2.5782400743e+00 -4.4656428028e+00 2.5782400743e+00 4.4656428028e+00 
44800 4.8887149057e+00 4.2735812753e-04 2.5782316918e+00 -4.4656282839e+00 2.5782316918e+00 4.4656282839e+00 
44900 4.8887149206e+00 4.2231301272e-04 2.5782234040e+00 -4.4656139290e+00 2.5782234040e+00 4.4656139290e+00 
45000 4.8887149355e+00 4.1711148745e-04 2.5782152140e+00 -4.4655997435e+00 2.5782152140e+00 4.4655997435e+00 
45100 4.8887149503e+00 4.1175879571e-04 2.5782071248e+00 -4.4655857327e+00 2.5782071248e+00 4.4655857327e+00 
45200 4.8887149650e+00 4.0626095157e-04 2.5781991395e+00 -4.4655719016e+00 2.5781991395e+00 4.4655719016e+00 
45300 4.8887149797e+00 4.0062468381e-04 2.5781912607e+00 -4.4655582552e+00 2.5781912607e+00 4.4655582552e+00 
45400 4.8887149941e+00 3.9485737953e-04 2.5781834912e+00 -4.4655447980e+00 2.5781834912e+00 4.4655447980e+00 
45500 4.8887150085e+00 3.8896702709e-04 2.5781758336e+00 -4.4655315346e+00 2.5781758336e+00 4.4655315346e+00 
45600 4.8887150228e+00 3.8296215853e-04 2.5781682901e+00 -4.4655184689e+00 2.5781682901e+00 4.4655184689e+00 
45700 4.8887150369e+00 3.7685179178e-04 2.5781608631e+00 -4.4655056050e+00 2.5781608631e+00 4.4655056050e+00 
45800 4.8887150510e+00 3.7064537290e-04 2.5781535546e+00 -4.4654929462e+00 2.5781535546e+00 4.4654929462e+00 
45900 4.8887150648e+00 3.6435271857e-04 2.5781463664e+00 -4.4654804959e+00 2.5781463664e+00 4.4654804959e+00 
46000 4.8887150786e+00 3.5798395903e-04 2.5781393002e+00 -4.4654682569e+00 2.5781393002e+00 4.4654682569e+00 
46100 4.8887150921e+00 3.5154948173e-04 2.5781323575e+00 -4.4654562319e+00 2.5781323575e+00 4.4654562319e+00 
46200 4.8887151055e+00 3.4505987585e-04 2.5781255396e+00 -4.4654444229e+00 2.5781255396e+00 4.4654444229e+00 
46300 4.8887151188e+00 3.3852587793e-04 2.5781188475e+00 -4.4654328319e+00 2.5781188475e+00 4.4654328319e+00 
46400 4.8887151319e+00 3.3195831876e-04 2.5781122822e+00 -4.4654214604e+00 2.5781122822e+00 4.4654214604e+00 
46500 4.8887151447e+00 3.2536807171e-04 2.5781058442e+00 -4.4654103094e+00 2.5781058442e+00 4.4654103094e+00 
46600 4.8887151574e+00 3.1876600265e-04 2.5780995340e+00 -4.4653993798e+00 2.5780995340e+00 4.4653993798e+00 
46700 4.8887151700e+00 3.1216292163e-04 2.5780933518e+00 -4.4653886719e+00 2.5780933518e+00 4.4653886719e+00 
46800 4.8887151823e+00 3.0556953648e-04 2.5780872976e+00 -4.4653781858e+00 2.5780872976e+00 4.4653781858e+00 
46900 4.8887151944e+00 2.9899640838e-04 2.5780813713e+00 -4.4653679212e+00 2.5780813713e+00 4.4653679212e+00 
47000 4.8887152063e+00 2.9245390955e-04 2.5780755725e+00 -4.4653578774e+00 2.5780755725e+00 4.4653578774e+00 
47100 4.8887152180e+00 2.8595218323e-04 2.5780699006e+00 -4.4653480533e+00 2.5780699006e+00 4.4653480533e+00 
47200 4.8887152296e+00 2.7950110590e-04 2.5780643547e+00 -4.4653384476e+00 2.5780643547e+00 4.4653384476e+00 
47300 4.8887152409e+00 2.7311025197e-04 2.5780589340e+00 -4.4653290586e+00 2.5780589340e+00 4.4653290586e+00 
47400 4.8887152520e+00 2.6678886082e-04 2.5780536372e+00 -4.4653198842e+00 2.5780536372e+00 4.4653198842e+00 
47500 4.8887152629e+00 2.6054580646e-04 2.5780484629e+00 -4.4653109222e+00 2.5780484629e+00 4.4653109222e+00 
47600 4.8887152737e+00 2.5438956968e-04 2.5780434098e+00 -4.4653021699e+00 2.5780434098e+00 4.4653021699e+00 
47700 4.8887152842e+00 2.4832821276e-04 2.5780384760e+00 -4.4652936243e+00 2.5780384760e+00 4.4652936243e+00 
47800 4.8887152946e+00 2.4236935681e-04 2.5780336598e+00 -4.4652852824e+00 2.5780336598e+00 4.4652852824e+00 
47900 4.8887153047e+00 2.3652016169e-04 2.5780289591e+00 -4.4652771406e+00 2.5780289591e+00 4.4652771406e+00 
48000 4.8887153147e+00 2.3078730851e-04 2.5780243719e+00 -4.4652691953e+00 2.5780243719e+00 4.4652691953e+00 
48100 4.8887153246e+00 2.2517698478e-04 2.5780198958e+00 -4.4652614425e+00 2.5780198958e+00 4.4652614425e+00 
48200 4.8887153342e+00 2.1969487200e-04 2.5780155286e+00 -4.4652538782e+00 2.5780155286e+00 4.4652538782e+00 
48300 4.8887153437e+00 2.1434613587e-04 2.5780112677e+00 -4.4652464981e+00 2.5780112677e+00 4.4652464981e+00 
48400 4.8887153531e+00 2.0913541893e-04 2.5780071105e+00 -4.4652392976e+00 2.5780071105e+00 4.4652392976e+00 
48500 4.8887153623e+00 2.0406683561e-04 2.5780030543e+00 -4.4652322722e+00 2.5780030543e+00 4.4652322722e+00 
48600 4.8887153713e+00 1.9914396971e-04 2.5779990965e+00 -4.4652254170e+00 2.5779990965e+00 4.4652254170e+00 
48700 4.8887153802e+00 1.9436987413e-04 2.5779952341e+00 -4.4652187272e+00 2.5779952341e+00 4.4652187272e+00 
48800 4.8887153890e+00 1.8974707277e-04 2.5779914643e+00 -4.4652121977e+00 2.5779914643e+00 4.4652121977e+00 
48900 4.8887153977e+00 1.8527756472e-04 2.5779877842e+00 -4.4652058235e+00 2.5779877842e+00 4.4652058235e+00 
49000 4.8887154062e+00 1.8096283035e-04 2.5779841907e+00 -4.4651995995e+00 2.5779841907e+00 4.4651995995e+00 
49100 4.8887154146e+00 1.7680383944e-04 2.5779806810e+00 -4.4651935204e+00 2.5779806810e+00 4.4651935204e+00 
49200 4.8887154229e+00 1.7280106118e-04 2.5779772519e+00 -4.4651875810e+00 2.5779772519e+00 4.4651875810e+00 
49300 4.8887154312e+00 1.6895447588e-04 2.5779739004e+00 -4.4651817760e+00 2.5779739004e+00 4.4651817760e+00 
49400 4.8887154393e+00 1.6526358842e-04 2.5779706235e+00 -4.4651761003e+00 2.5779706235e+00 4.4651761003e+00 
49500 4.8887154473e+00 1.6172744312e-04 2.5779674182e+00 -4.4651705485e+00 2.5779674182e+00 4.4651705485e+00 
49600 4.8887154552e+00 1.5834464022e-04 2.5779642815e+00 -4.4651651156e+00 2.5779642815e+00 4.4651651156e+00 
49700 4.8887154630e+00 1.5511335348e-04 2.5779612103e+00 -4.4651597963e+00 2.5779612103e+00 4.4651597963e+00 
49800 4.8887154707e+00 1.5203134918e-04 2.5779582019e+00 -4.4651545855e+00 2.5779582019e+00 4.4651545855e+00 
49900 4.8887154783e+00 1.4909600608e-04 2.5779552532e+00 -4.4651494782e+00 2.5779552532e+00 4.4651494782e+00 
50000 4.8887154859e+00 1.4630433641e-04 2.5779523615e+00 -4.4651444696e+00 2.5779523615e+00 4.4651444696e+00 
50100 4.8887154934e+00 1.4365300768e-04 2.5779495239e+00 -4.4651395547e+00 2.5779495239e+00 4.4651395547e+00 
50200 4.8887155008e+00 1.4113836527e-04 2.5779467377e+00 -4.4651347289e+00 2.5779467377e+00 4.4651347289e+00 
50300 4.8887155081e+00 1.3875645563e-04 2.5779440003e+00 -4.4651299875e+00 2.5779440003e+00 4.4651299875e+00 
50400 4.8887155153e+00 1.3650304996e-04 2.5779413090e+00 -4.4651253262e+00 2.5779413090e+00 4.4651253262e+00 
50500 4.8887155224e+00 1.3437366832e-04 2.5779386615e+00 -4.4651207405e+00 2.5779386615e+00 4.4651207405e+00 
50600 4.8887155295e+00 1.3236360401e-04 2.5779360553e+00 -4.4651162264e+00 2.5779360553e+00 4.4651162264e+00 
50700 4.8887155364e+00 1.3046794809e-04 2.5779334881e+00 -4.4651117798e+00 2.5779334881e+00 4.4651117798e+00 
50800 4.8887155433e+00 1.2868161408e-04 2.5779309576e+00 -4.4651073969e+00 2.5779309576e+00 4.4651073969e+00 
50900 4.8887155501e+00 1.2699936245e-04 2.5779284617e+00 -4.4651030740e+00 2.5779284617e+00 4.4651030740e+00 
51000 4.8887155568e+00 1.2541582515e-04 2.5779259985e+00 -4.4650988076e+00 2.5779259985e+00 4.4650988076e+00 
51100 4.8887155635e+00 1.2392552982e-04 2.5779235660e+00 -4.4650945944e+00 2.5779235660e+00 4.4650945944e+00 
51200 4.8887155700e+00 1.2252292366e-04 2.5779211625e+00 -4.4650904313e+00 2.5779211625e+00 4.4650904313e+00 
51300 4.8887155765e+00 1.2120239696e-04 2.5779187861e+00 -4.4650863152e+00 2.5779187861e+00 4.4650863152e+00 
51400 4.8887155829e+00 1.1995830611e-04 2.5779164353e+00 -4.4650822436e+00 2.5779164353e+00 4.4650822436e+00 
51500 4.8887155892e+00 1.1878499601e-04 2.5779141086e+00 -4.4650782137e+00 2.5779141086e+00 4.4650782137e+00 
51600 4.8887155954e+00 1.1767682190e-04 2.5779118047e+00 -4.4650742232e+00 2.5779118047e+00 4.4650742232e+00 
51700 4.8887156015e+00 1.1662817041e-04 2.5779095223e+00 -4.4650702700e+00 2.5779095223e+00 4.4650702700e+00 
51800 4.8887156076e+00 1.1563347989e-04 2.5779072603e+00 -4.4650663520e+00 2.5779072603e+00 4.4650663520e+00 
51900 4.8887156135e+00 1.1468725988e-04 2.5779050175e+00 -4.4650624674e+00 2.5779050175e+00 4.4650624674e+00 
52000 4.8887156194e+00 1.1378410971e-04 2.5779027931e+00 -4.4650586145e+00 2.5779027931e+00 4.4650586145e+00 
52100 4.8887156252e+00 1.1291873613e-04 2.5779005861e+00 -4.4650547921e+00 2.5779005861e+00 4.4650547921e+00 
52200 4.8887156309e+00 1.1208597005e-04 2.5778983960e+00 -4.4650509986e+00 2.5778983960e+00 4.4650509986e+00 
52300 4.8887156365e+00 1.1128078213e-04 2.5778962220e+00 -4.4650472332e+00 2.5778962220e+00 4.4650472332e+00 
52400 4.8887156420e+00 1.1049829748e-04 2.5778940637e+00 -4.4650434948e+00 2.5778940637e+00 4.4650434948e+00 
52500 4.8887156474e+00 1.0973380916e-04 2.5778919205e+00 -4.4650397827e+00 2.5778919205e+00 4.4650397827e+00 
52600 4.8887156528e+00 1.0898279069e-04 2.5778897921e+00 -4.4650360963e+00 2.5778897921e+00 4.4650360963e+00 
52700 4.8887156581e+00 1.0824090735e-04 2.5778876783e+00 -4.4650324351e+00 2.5778876783e+00 4.4650324351e+00 
52800 4.8887156633e+00 1.0750402646e-04 2.5778855789e+00 -4.4650287988e+00 2.5778855789e+00 4.4650287988e+00 
52900 4.8887156684e+00 1.0676822645e-04 2.5778834938e+00 -4.4650251872e+00 2.5778834938e+00 4.4650251872e+00 
53000 4.8887156735e+00 1.0602980486e-04 2.5778814229e+00 -4.4650216004e+00 2.5778814229e+00 4.4650216004e+00 
53100 4.8887156785e+00 1.0528528519e-04 2.5778793664e+00 -4.4650180384e+00 2.5778793664e+00 4.4650180384e+00 
53200 4.8887156834e+00 1.0453142265e-04 2.5778773243e+00 -4.4650145014e+00 2.5778773243e+00 4.4650145014e+00 
53300 4.8887156882e+00 1.0376520877e-04 2.5778752968e+00 -4.4650109897e+00 2.5778752968e+00 4.4650109897e+00 
53400 4.8887156930e+00 1.0298387494e-04 2.5778732842e+00 -4.4650075038e+00 2.5778732842e+00 4.4650075038e+00 
53500 4.8887156976e+00 1.0218489491e-04 2.5778712868e+00 -4.4650040441e+00 2.5778712868e+00 4.4650040441e+00 
53600 4.8887157023e+00 1.0136598618e-04 2.5778693048e+00 -4.4650006112e+00 2.5778693048e+00 4.4650006112e+00 
53700 4.8887157068e+00 1.0052511046e-04 2.5778673387e+00 -4.4649972059e+00 2.5778673387e+00 4.4649972059e+00 
53800 4.8887157113e+00 9.9660473020e-05 2.5778653890e+00 -4.4649938288e+00 2.5778653890e+00 4.4649938288e+00 
53900 4.8887157158e+00 9.8770521219e-05 2.5778634560e+00 -4.4649904807e+00 2.5778634560e+00 4.4649904807e+00 
54000 4.8887157201e+00 9.7853942003e-05 2.5778615402e+00 -4.4649871625e+00 2.5778615402e+00 4.4649871625e+00 
54100 4.8887157244e+00 9.6909658592e-05 2.5778596423e+00 -4.4649838752e+00 2.5778596423e+00 4.4649838752e+00 
54200 4.8887157287e+00 9.5936826297e-05 2.5778577626e+00 -4.4649806195e+00 2.5778577626e+00 4.4649806195e+00 
54300 4.8887157329e+00 9.4934827543e-05 2.5778559018e+00 -4.4649773965e+00 2.5778559018e+00 4.4649773965e+00 
54400 4.8887157370e+00 9.3903266165e-05 2.5778540605e+00 -4.4649742072e+00 2.5778540605e+00 4.4649742072e+00 
54500 4.8887157411e+00 9.2841960952e-05 2.5778522391e+00 -4.4649710526e+00 2.5778522391e+00 4.4649710526e+00 
54600 4.8887157452e+00 9.1750938586e-05 2.5778504384e+00 -4.4649679335e+00 2.5778504384e+00 4.4649679335e+00 
54700 4.8887157491e+00 9.0630425945e-05 2.5778486588e+00 -4.4649648512e+00 2.5778486588e+00 4.4649648512e+00 
54800 4.8887157531e+00 8.9480841849e-05 2.5778469009e+00 -4.4649618065e+00 2.5778469009e+00 4.4649618065e+00 
54900 4.8887157570e+00 8.8302788307e-05 2.5778451653e+00 -4.4649588004e+00 2.5778451653e+00 4.4649588004e+00 
55000 4.8887157608e+00 8.7097041309e-05 2.5778434526e+00 -4.4649558338e+00 2.5778434526e+00 4.4649558338e+00 
55100 4.8887157646e+00 8.5864541215e-05 2.5778417632e+00 -4.4649529078e+00 2.5778417632e+00 4.4649529078e+00 
55200 4.8887157683e+00 8.4606382784e-05 2.5778400978e+00 -4.4649500232e+00 2.5778400978e+00 4.4649500232e+00 
55300 4.8887157720e+00 8.3323804901e-05 2.5778384568e+00 -4.4649471808e+00 2.5778384568e+00 4.4649471808e+00 
55400 4.8887157756e+00 8.2018180082e-05 2.5778368406e+00 -4.4649443816e+00 2.5778368406e+00 4.4649443816e+00 
55500 4.8887157792e+00 8.0691003721e-05 2.5778352498e+00 -4.4649416262e+00 2.5778352498e+00 4.4649416262e+00 
55600 4.8887157828e+00 7.9343883265e-05 2.5778336847e+00 -4.4649389154e+00 2.5778336847e+00 4.4649389154e+00 
55700 4.8887157863e+00 7.7978527199e-05 2.5778321457e+00 -4.4649362498e+00 2.5778321457e+00 4.4649362498e+00 
55800 4.8887157897e+00 7.6596734051e-05 2.5778306332e+00 -4.4649336301e+00 2.5778306332e+00 4.4649336301e+00 
55900 4.8887157931e+00 7.5200381357e-05 2.5778291476e+00 -4.4649310568e+00 2.5778291476e+00 4.4649310568e+00 
56000 4.8887157965e+00 7.3791414653e-05 2.5778276890e+00 -4.4649285305e+00 2.5778276890e+00 4.4649285305e+00 
56100 4.8887157998e+00 7.2371836561e-05 2.5778262577e+00 -4.4649260514e+00 2.5778262577e+00 4.4649260514e+00 
56200 4.8887158031e+00 7.0943695998e-05 2.5778248540e+00 -4.4649236201e+00 2.5778248540e+00 4.4649236201e+00 
56300 4.8887158063e+00 6.9509077524e-05 2.5778234779e+00 -4.4649212367e+00 2.5778234779e+00 4.4649212367e+00 
56400 4.8887158096e+00 6.8545324844e-05 2.5778234779e+00 -4.4649212367e+00 2.5778234779e+00 4.4649212367e+00 
56500 4.8887158128e+00 6.7580643849e-05 2.5778234779e+00 -4.4649212367e+00 2.5778234779e+00 4.4649212367e+00 
56600 4.8887158160e+00 6.6617578523e-05 2.5778234779e+00 -4.4649212367e+00 2.5778234779e+00 4.4649212367e+00 
56700 4.8887158191e+00 6.5658635150e-05 2.5778234779e+00 -4.4649212367e+00 2.5778234779e+00 4.4649212367e+00 
56800 4.8887158221e+00 6.4706271121e-05 2.5778234779e+00 -4.4649212367e+00 2.5778234779e+00 4.4649212367e+00 
56900 4.8887158252e+00 6.3762884403e-05 2.5778234779e+00 -4.4649212367e+00 2.5778234779e+00 4.4649212367e+00 
57000 4.8887158281e+00 6.2830803709e-05 2.5778234779e+00 -4.4649212367e+00 2.5778234779e+00 4.4649212367e+00 
57100 4.8887158311e+00 6.1912279391e-05 2.5778234779e+00 -4.4649212367e+00 2.5778234779e+00 4.4649212367e+00 
57200 4.8887158340e+00 6.1009475041e-05 2.5778234779e+00 -4.4649212367e+00 2.5778234779e+00 4.4649212367e+00 
57300 4.8887158368e+00 6.0124459817e-05 2.5778234779e+00 -4.4649212367e+00 2.5778234779e+00 4.4649212367e+00 
57400 4.8887158396e+00 5.9259201503e-05 2.5778234779e+00 -4.4649212367e+00 2.5778234779e+00 4.4649212367e+00 
57500 4.8887158424e+00 5.8415560280e-05 2.5778234779e+00 -4.4649212367e+00 2.5778234779e+00 4.4649212367e+00 
57600 4.8887158451e+00 5.7595283254e-05 2.5778234779e+00 -4.4649212367e+00 2.5778234779e+00 4.4649212367e+00 
57700 4.8887158478e+00 5.6799999661e-05 2.5778234779e+00 -4.4649212367e+00 2.5778234779e+00 4.4649212367e+00 
57800 4.8887158504e+00 5.6031216823e-05 2.5778234779e+00 -4.4649212367e+00 2.5778234779e+00 4.4649212367e+00 
57900 4.8887158530e+00 5.5290316771e-05 2.5778234779e+00 -4.4649212367e+00 2.5778234779e+00 4.4649212367e+00 
58000 4.8887158556e+00 5.4578553579e-05 2.5778234779e+00 -4.4649212367e+00 2.5778234779e+00 4.4649212367e+00 
58100 4.8887158581e+00 5.3897051357e-05 2.5778234779e+00 -4.4649212367e+00 2.5778234779e+00 4.4649212367e+00 
58200 4.8887158606e+00 5.3246802896e-05 2.5778234779e+00 -4.4649212367e+00 2.5778234779e+00 4.4649212367e+00 
58300 4.8887158631e+00 5.2628668957e-05 2.5778234779e+00 -4.4649212367e+00 2.5778234779e+00 4.4649212367e+00 
58400 4.8887158655e+00 5.2043378167e-05 2.5778234779e+00 -4.4649212367e+00 2.5778234779e+00 4.4649212367e+00 
58500 4.8887158679e+00 5.1491527498e-05 2.5778234779e+00 -4.4649212367e+00 2.5778234779e+00 4.4649212367e+00 
58600 4.8887158702e+00 5.0973583334e-05 2.5778234779e+00 -4.4649212367e+00 2.5778234779e+00 4.4649212367e+00 
58700 4.8887158726e+00 5.0489883042e-05 2.5778234779e+00 -4.4649212367e+00 2.5778234779e+00 4.4649212367e+00 
58800 4.8887158748e+00 5.0040637096e-05 2.5778234779e+00 -4.4649212367e+00 2.5778234779e+00 4.4649212367e+00 
58900 4.8887158771e+00 4.9625931648e-05 2.5778234779e+00 -4.4649212367e+00 2.5778234779e+00 4.4649212367e+00 
59000 4.8887158793e+00 4.9245731578e-05 2.5778234779e+00 -4.4649212367e+00 2.5778234779e+00 4.4649212367e+00 
59100 4.8887158815e+00 4.8899883961e-05 2.5778234779e+00 -4.4649212367e+00 2.5778234779e+00 4.4649212367e+00 
59200 4.8887158837e+00 4.8588121922e-05 2.5778234779e+00 -4.4649212367e+00 2.5778234779e+00 4.4649212367e+00 
59300 4.8887158859e+00 4.8310068869e-05 2.5778234779e+00 -4.4649212367e+00 2.5778234779e+00 4.4649212367e+00 
59400 4.8887158880e+00 4.8065243043e-05 2.5778234779e+00 -4.4649212367e+00 2.5778234779e+00 4.4649212367e+00 
59500 4.8887158901e+00 4.7853062379e-05 2.5778234779e+00 -4.4649212367e+00 2.5778234779e+00 4.4649212367e+00 
59600 4.8887158921e+00 4.7672849624e-05 2.5778234779e+00 -4.4649212367e+00 2.5778234779e+00 4.4649212367e+00 
59700 4.8887158942e+00 4.7523837714e-05 2.5778234779e+00 -4.4649212367e+00 2.5778234779e+00 4.4649212367e+00 
59800 4.8887158962e+00 4.7405175320e-05 2.5778234779e+00 -4.4649212367e+00 2.5778234779e+00 4.4649212367e+00 
59900 4.8887158982e+00 4.7315932610e-05 2.5778234779e+00 -4.4649212367e+00 2.5778234779e+00 4.4649212367e+00 
60000 4.8887159001e+00 4.7255107130e-05 2.5778234779e+00 -4.4649212367e+00 2.5778234779e+00 4.4649212367e+00 
60100 4.8887159021e+00 4.7221629798e-05 2.5778234779e+00 -4.4649212367e+00 2.5778234779e+00 4.4649212367e+00 
60200 4.8887159040e+00 4.7214370999e-05 2.5778234779e+00 -4.4649212367e+00 2.5778234779e+00 4.4649212367e+00 
60300 4.8887159058e+00 4.7232146713e-05 2.5778234779e+00 -4.4649212367e+00 2.5778234779e+00 4.4649212367e+00 
60400 4.8887159077e+00 4.7273724696e-05 2.5778234779e+00 -4.4649212367e+00 2.5778234779e+00 4.4649212367e+00 
60500 4.8887159095e+00 4.7337830637e-05 2.5778234779e+00 -4.4649212367e+00 2.5778234779e+00 4.4649212367e+00 
60600 4.8887159113e+00 4.7423154310e-05 2.5778234779e+00 -4.4649212367e+00 2.5778234779e+00 4.4649212367e+00 
60700 4.8887159131e+00 4.7528355661e-05 2.5778234779e+00 -4.4649212367e+00 2.5778234779e+00 4.4649212367e+00 
60800 4.8887159149e+00 4.7652070828e-05 2.5778234779e+00 -4.4649212367e+00 2.5778234779e+00 4.4649212367e+00 
60900 4.8887159166e+00 4.7792918066e-05 2.5778234779e+00 -4.4649212367e+00 2.5778234779e+00 4.4649212367e+00 
61000 4.8887159183e+00 4.7949503547e-05 2.5778234779e+00 -4.4649212367e+00 2.5778234779e+00 4.4649212367e+00 
61100 4.8887159200e+00 4.8120427026e-05 2.5778234779e+00 -4.4649212367e+00 2.5778234779e+00 4.4649212367e+00 
61200 4.8887159217e+00 4.8304287347e-05 2.5778234779e+00 -4.4649212367e+00 2.5778234779e+00 4.4649212367e+00 
61300 4.8887159233e+00 4.8499687776e-05 2.5778234779e+00 -4.4649212367e+00 2.5778234779e+00 4.4649212367e+00 
61400 4.8887159250e+00 4.8705241147e-05 2.5778234779e+00 -4.4649212367e+00 2.5778234779e+00 4.4649212367e+00 
61500 4.8887159266e+00 4.8919574794e-05 2.5778234779e+00 -4.4649212367e+00 2.5778234779e+00 4.4649212367e+00 
61600 4.8887159281e+00 4.9141335265e-05 2.5778234779e+00 -4.4649212367e+00 2.5778234779e+00 4.4649212367e+00 
61700 4.8887159297e+00 4.9369192816e-05 2.5778234779e+00 -4.4649212367e+00 2.5778234779e+00 4.4649212367e+00 
61800 4.8887159312e+00 4.9601845645e-05 2.5778234779e+00 -4.4649212367e+00 2.5778234779e+00 4.4649212367e+00 
61900 4.8887159327e+00 4.9838023890e-05 2.5778234779e+00 -4.4649212367e+00 2.5778234779e+00 4.4649212367e+00 
62000 4.8887159342e+00 5.0076493358e-05 2.5778234779e+00 -4.4649212367e+00 2.5778234779e+00 4.4649212367e+00 
62100 4.8887159357e+00 5.0316059003e-05 2.5778234779e+00 -4.4649212367e+00 2.5778234779e+00 4.4649212367e+00 
62200 4.8887159372e+00 5.0555568112e-05 2.5778234779e+00 -4.4649212367e+00 2.5778234779e+00 4.4649212367e+00 
62300 4.8887159386e+00 5.0793913235e-05 2.5778234779e+00 -4.4649212367e+00 2.5778234779e+00 4.4649212367e+00 
62400 4.8887159400e+00 5.1030034826e-05 2.5778234779e+00 -4.4649212367e+00 2.5778234779e+00 4.4649212367e+00 
62500 4.8887159414e+00 5.1262923610e-05 2.5778234779e+00 -4.4649212367e+00 2.5778234779e+00 4.4649212367e+00 
62600 4.8887159428e+00 5.1491622688e-05 2.5778234779e+00 -4.4649212367e+00 2.5778234779e+00 4.4649212367e+00 
62700 4.8887159441e+00 5.1715229323e-05 2.5778234779e+00 -4.4649212367e+00 2.5778234779e+00 4.4649212367e+00 
62800 4.8887159455e+00 5.1932896497e-05 2.5778234779e+00 -4.4649212367e+00 2.5778234779e+00 4.4649212367e+00 
62900 4.8887159468e+00 5.2143834166e-05 2.5778234779e+00 -4.4649212367e+00 2.5778234779e+00 4.4649212367e+00 
63000 4.8887159481e+00 5.2347310253e-05 2.5778234779e+00 -4.4649212367e+00 2.5778234779e+00 4.4649212367e+00 
63100 4.8887159494e+00 5.2542651393e-05 2.5778234779e+00 -4.4649212367e+00 2.5778234779e+00 4.4649212367e+00 
63200 4.8887159506e+00 5.2729243400e-05 2.5778234779e+00 -4.4649212367e+00 2.5778234779e+00 4.4649212367e+00 
63300 4.8887159519e+00 5.2906531496e-05 2.5778234779e+00 -4.4649212367e+00 2.5778234779e+00 4.4649212367e+00 
63400 4.8887159531e+00 5.3074020296e-05 2.5778234779e+00 -4.4649212367e+00 2.5778234779e+00 4.4649212367e+00 
63500 4.8887159543e+00 5.3231273559e-05 2.5778234779e+00 -4.4649212367e+00 2.5778234779e+00 4.4649212367e+00 
63600 4.8887159555e+00 5.3377913720e-05 2.5778234779e+00 -4.4649212367e+00 2.5778234779e+00 4.4649212367e+00 
63700 4.8887159567e+00 5.3513621186e-05 2.5778234779e+00 -4.4649212367e+00 2.5778234779e+00 4.4649212367e+00 
63800 4.8887159579e+00 5.3638133459e-05 2.5778234779e+00 -4.4649212367e+00 2.5778234779e+00 4.4649212367e+00 
63900 4.8887159590e+00 5.3751244044e-05 2.5778234779e+00 -4.4649212367e+00 2.5778234779e+00 4.4649212367e+00 
64000 4.8887159602e+00 5.3852801172e-05 2.5778234779e+00 -4.4649212367e+00 2.5778234779e+00 4.4649212367e+00 
64100 4.8887159613e+00 5.3942706368e-05 2.5778234779e+00 -4.4649212367e+00 2.5778234779e+00 4.4649212367e+00 
64200 4.8887159624e+00 5.4020912845e-05 2.5778234779e+00 -4.4649212367e+00 2.5778234779e+00 4.4649212367e+00 
64300 4.8887159635e+00 5.4087423755e-05 2.5778234779e+00 -4.4649212367e+00 2.5778234779e+00 4.4649212367e+00 
64400 4.8887159646e+00 5.4142290309e-05 2.5778234779e+00 -4.4649212367e+00 2.5778234779e+00 4.4649212367e+00 
64500 4.8887159656e+00 5.4185609764e-05 2.5778234779e+00 -4.4649212367e+00 2.5778234779e+00 4.4649212367e+00 
64600 4.8887159667e+00 5.4217523311e-05 2.5778234779e+00 -4.4649212367e+00 2.5778234779e+00 4.4649212367e+00 
64700 4.8887159677e+00 5.4238213859e-05 2.5778234779e+00 -4.4649212367e+00 2.5778234779e+00 4.4649212367e+00 
64800 4.8887159687e+00 5.4247903727e-05 2.5778234779e+00 -4.4649212367e+00 2.5778234779e+00 4.4649212367e+00 
64900 4.8887159697e+00 5.4246852278e-05 2.5778234779e+00 -4.4649212367e+00 2.5778234779e+00 4.4649212367e+00 
65000 4.8887159707e+00 5.4235353477e-05 2.5778234779e+00 -4.4649212367e+00 2.5778234779e+00 4.4649212367e+00 
65100 4.8887159717e+00 5.4213733404e-05 2.5778234779e+00 -4.4649212367e+00 2.5778234779e+00 4.4649212367e+00 
65200 4.8887159727e+00 5.4182347733e-05 2.5778234779e+00 -4.4649212367e+00 2.5778234779e+00 4.4649212367e+00 
65300 4.8887159736e+00 5.4141579187e-05 2.5778234779e+00 -4.4649212367e+00 2.5778234779e+00 4.4649212367e+00 
65400 4.8887159746e+00 5.4091834958e-05 2.5778234779e+00 -4.4649212367e+00 2.5778234779e+00 4.4649212367e+00 
65500 4.8887159755e+00 5.4033544163e-05 2.5778234779e+00 -4.4649212367e+00 2.5778234779e+00 4.4649212367e+00 
65600 4.8887159764e+00 5.3967155253e-05 2.5778234779e+00 -4.4649212367e+00 2.5778234779e+00 4.4649212367e+00 
65700 4.8887159773e+00 5.3893133489e-05 2.5778234779e+00 -4.4649212367e+00 2.5778234779e+00 4.4649212367e+00 
65800 4.8887159782e+00 5.3811958414e-05 2.5778234779e+00 -4.4649212367e+00 2.5778234779e+00 4.4649212367e+00 
65900 4.8887159791e+00 5.3724121367e-05 2.5778234779e+00 -4.4649212367e+00 2.5778234779e+00 4.4649212367e+00 
66000 4.8887159800e+00 5.3630123045e-05 2.5778234779e+00 -4.4649212367e+00 2.5778234779e+00 4.4649212367e+00 
66100 4.8887159808e+00 5.3530471114e-05 2.5778234779e+00 -4.4649212367e+00 2.5778234779e+00 4.4649212367e+00 
66200 4.8887159817e+00 5.3425677883e-05 2.5778234779e+00 -4.4649212367e+00 2.5778234779e+00 4.4649212367e+00 
66300 4.8887159825e+00 5.3316258045e-05 2.5778234779e+00 -4.4649212367e+00 2.5778234779e+00 4.4649212367e+00 
66400 4.8887159833e+00 5.3202726483e-05 2.5778234779e+00 -4.4649212367e+00 2.5778234779e+00 4.4649212367e+00 
66500 4.8887159842e+00 5.3085596168e-05 2.5778234779e+00 -4.4649212367e+00 2.5778234779e+00 4.4649212367e+00 
66600 4.8887159850e+00 5.2965376143e-05 2.5778234779e+00 -4.4649212367e+00 2.5778234779e+00 4.4649212367e+00 
66700 4.8887159858e+00 5.2842569583e-05 2.5778234779e+00 -4.4649212367e+00 2.5778234779e+00 4.4649212367e+00 
66800 4.8887159865e+00 5.2717671968e-05 2.5778234779e+00 -4.4649212367e+00 2.5778234779e+00 4.4649212367e+00 
66900 4.8887159873e+00 5.2591169349e-05 2.5778234779e+00 -4.4649212367e+00 2.5778234779e+00 4.4649212367e+00 
67000 4.8887159881e+00 5.2463536707e-05 2.5778234779e+00 -4.4649212367e+00 2.5778234779e+00 4.4649212367e+00 
67100 4.8887159888e+00 5.2335236438e-05 2.5778234779e+00 -4.4649212367e+00 2.5778234779e+00 4.4649212367e+00 
67200 4.8887159896e+00 5.2206716917e-05 2.5778234779e+00 -4.4649212367e+00 2.5778234779e+00 4.4649212367e+00 
67300 4.8887159903e+00 5.2078411211e-05 2.5778234779e+00 -4.4649212367e+00 2.5778234779e+00 4.4649212367e+00 
67400 4.8887159910e+00 5.1950735862e-05 2.5778234779e+00 -4.4649212367e+00 2.5778234779e+00 4.4649212367e+00 
67500 4.8887159917e+00 5.1824089806e-05 2.5778234779e+00 -4.4649212367e+00 2.5778234779e+00 4.4649212367e+00 
67600 4.8887159924e+00 5.1698853400e-05 2.5778234779e+00 -4.4649212367e+00 2.5778234779e+00 4.4649212367e+00 
67700 4.8887159931e+00 5.1575387564e-05 2.5778234779e+00 -4.4649212367e+00 2.5778234779e+00 4.4649212367e+00 
67800 4.8887159938e+00 5.1454033023e-05 2.5778234779e+00 -4.4649212367e+00 2.5778234779e+00 4.4649212367e+00 
67900 4.8887159945e+00 5.1335109669e-05 2.5778234779e+00 -4.4649212367e+00 2.5778234779e+00 4.4649212367e+00 
68000 4.8887159952e+00 5.1218916029e-05 2.5778234779e+00 -4.4649212367e+00 2.5778234779e+00 4.4649212367e+00 
68100 4.8887159958e+00 5.1105728840e-05 2.5778234779e+00 -4.4649212367e+00 2.5778234779e+00 4.4649212367e+00 
68200 4.8887159965e+00 5.0995802737e-05 2.5778234779e+00 -4.4649212367e+00 2.5778234779e+00 4.4649212367e+00 
68300 4.8887159971e+00 5.0889370020e-05 2.5778234779e+00 -4.4649212367e+00 2.5778234779e+00 4.4649212367e+00 
68400 4.8887159977e+00 5.0786640553e-05 2.5778234779e+00 -4.4649212367e+00 2.5778234779e+00 4.4649212367e+00 
68500 4.8887159984e+00 5.0687801733e-05 2.5778234779e+00 -4.4649212367e+00 2.5778234779e+00 4.4649212367e+00 
68600 4.8887159990e+00 5.0593018566e-05 2.5778234779e+00 -4.4649212367e+00 2.5778234779e+00 4.4649212367e+00 
68700 4.8887159996e+00 5.0502433819e-05 2.5778234779e+00 -4.4649212367e+00 2.5778234779e+00 4.4649212367e+00 
68800 4.8887160002e+00 5.0416168278e-05 2.5778234779e+00 -4.4649212367e+00 2.5778234779e+00 4.4649212367e+00 
68900 4.8887160008e+00 5.0334321064e-05 2.5778234779e+00 -4.4649212367e+00 2.5778234779e+00 4.4649212367e+00 
69000 4.8887160014e+00 5.0256970046e-05 2.5778234779e+00 -4.4649212367e+00 2.5778234779e+00 4.4649212367e+00 
69100 4.8887160019e+00 5.0184172311e-05 2.5778234779e+00 -4.4649212367e+00 2.5778234779e+00 4.4649212367e+00 
69200 4.8887160025e+00 5.0115964709e-05 2.5778234779e+00 -4.4649212367e+00 2.5778234779e+00 4.4649212367e+00 
69300 4.8887160031e+00 5.0052364453e-05 2.5778234779e+00 -4.4649212367e+00 2.5778234779e+00 4.4649212367e+00 
69400 4.8887160036e+00 4.9993369799e-05 2.5778234779e+00 -4.4649212367e+00 2.5778234779e+00 4.4649212367e+00 
69500 4.8887160042e+00 4.9938960747e-05 2.5778234779e+00 -4.4649212367e+00 2.5778234779e+00 4.4649212367e+00 
69600 4.8887160047e+00 4.9889099816e-05 2.5778234779e+00 -4.4649212367e+00 2.5778234779e+00 4.4649212367e+00 
69700 4.8887160052e+00 4.9843732855e-05 2.5778234779e+00 -4.4649212367e+00 2.5778234779e+00 4.4649212367e+00 
69800 4.8887160058e+00 4.9802789883e-05 2.5778234779e+00 -4.4649212367e+00 2.5778234779e+00 4.4649212367e+00 
69900 4.8887160063e+00 4.9766185976e-05 2.5778234779e+00 -4.4649212367e+00 2.5778234779e+00 4.4649212367e+00 
70000 4.8887160068e+00 4.9733822182e-05 2.5778234779e+00 -4.4649212367e+00 2.5778234779e+00 4.4649212367e+00 
70100 4.8887160073e+00 4.9705586442e-05 2.5778234779e+00 -4.4649212367e+00 2.5778234779e+00 4.4649212367e+00 
70200 4.8887160078e+00 4.9681354558e-05 2.5778234779e+00 -4.4649212367e+00 2.5778234779e+00 4.4649212367e+00 
70300 4.8887160083e+00 4.9660991147e-05 2.5778234779e+00 -4.4649212367e+00 2.5778234779e+00 4.4649212367e+00 
70400 4.8887160088e+00 4.9644350633e-05 2.5778234779e+00 -4.4649212367e+00 2.5778234779e+00 4.4649212367e+00 
70500 4.8887160093e+00 4.9631278223e-05 2.5778234779e+00 -4.4649212367e+00 2.5778234779e+00 4.4649212367e+00 
70600 4.8887160097e+00 4.9621610890e-05 2.5778234779e+00 -4.4649212367e+00 2.5778234779e+00 4.4649212367e+00 
70700 4.8887160102e+00 4.9615178362e-05 2.5778234779e+00 -4.4649212367e+00 2.5778234779e+00 4.4649212367e+00 
70800 4.8887160107e+00 4.9611804094e-05 2.5778234779e+00 -4.4649212367e+00 2.5778234779e+00 4.4649212367e+00 
70900 4.8887160111e+00 4.9611306230e-05 2.5778234779e+00 -4.4649212367e+00 2.5778234779e+00 4.4649212367e+00 
71000 4.8887160116e+00 4.9613498558e-05 2.5778234779e+00 -4.4649212367e+00 2.5778234779e+00 4.4649212367e+00 
71100 4.8887160120e+00 4.9618191454e-05 2.5778234779e+00 -4.4649212367e+00 2.5778234779e+00 4.4649212367e+00 
71200 4.8887160124e+00 4.9625192772e-05 2.5778234779e+00 -4.4649212367e+00 2.5778234779e+00 4.4649212367e+00 
71300 4.8887160129e+00 4.9634308756e-05 2.5778234779e+00 -4.4649212367e+00 2.5778234779e+00 4.4649212367e+00 
71400 4.8887160133e+00 4.9645344892e-05 2.5778234779e+00 -4.4649212367e+00 2.5778234779e+00 4.4649212367e+00 
71500 4.8887160137e+00 4.9658106740e-05 2.5778234779e+00 -4.4649212367e+00 2.5778234779e+00 4.4649212367e+00 
71600 4.8887160141e+00 4.9672400747e-05 2.5778234779e+00 -4.4649212367e+00 2.5778234779e+00 4.4649212367e+00 
71700 4.8887160146e+00 4.9688035007e-05 2.5778234779e+00 -4.4649212367e+00 2.5778234779e+00 4.4649212367e+00 
71800 4.8887160150e+00 4.9704819997e-05 2.5778234779e+00 -4.4649212367e+00 2.5778234779e+00 4.4649212367e+00 
71900 4.8887160154e+00 4.9722569277e-05 2.5778234779e+00 -4.4649212367e+00 2.5778234779e+00 4.4649212367e+00 
72000 4.8887160158e+00 4.9741100143e-05 2.5778234779e+00 -4.4649212367e+00 2.5778234779e+00 4.4649212367e+00 
72100 4.8887160161e+00 4.9760234248e-05 2.5778234779e+00 -4.4649212367e+00 2.5778234779e+00 4.4649212367e+00 
72200 4.8887160165e+00 4.9779798177e-05 2.5778234779e+00 -4.4649212367e+00 2.5778234779e+00 4.4649212367e+00 
72300 4.8887160169e+00 4.9799623982e-05 2.5778234779e+00 -4.4649212367e+00 2.5778234779e+00 4.4649212367e+00 
72400 4.8887160173e+00 4.9819549673e-05 2.5778234779e+00 -4.4649212367e+00 2.5778234779e+00 4.4649212367e+00 
72500 4.8887160176e+00 4.9839419675e-05 2.5778234779e+00 -4.4649212367e+00 2.5778234779e+00 4.4649212367e+00 
72600 4.8887160180e+00 4.9859085215e-05 2.5778234779e+00 -4.4649212367e+00 2.5778234779e+00 4.4649212367e+00 
72700 4.8887160184e+00 4.9878404707e-05 2.5778234779e+00 -4.4649212367e+00 2.5778234779e+00 4.4649212367e+00 
72800 4.8887160187e+00 4.9897244053e-05 2.5778234779e+00 -4.4649212367e+00 2.5778234779e+00 4.4649212367e+00 
72900 4.8887160191e+00 4.9915476932e-05 2.5778234779e+00 -4.4649212367e+00 2.5778234779e+00 4.4649212367e+00 
73000 4.8887160194e+00 4.9932985018e-05 2.5778234779e+00 -4.4649212367e+00 2.5778234779e+00 4.4649212367e+00 
73100 4.8887160198e+00 4.9949658187e-05 2.5778234779e+00 -4.4649212367e+00 2.5778234779e+00 4.4649212367e+00 
73200 4.8887160201e+00 4.9965394656e-05 2.5778234779e+00 -4.4649212367e+00 2.5778234779e+00 4.4649212367e+00 
73300 4.8887160204e+00 4.9980101097e-05 2.5778234779e+00 -4.4649212367e+00 2.5778234779e+00 4.4649212367e+00 
73400 4.8887160208e+00 4.9993692707e-05 2.5778234779e+00 -4.4649212367e+00 2.5778234779e+00 4.4649212367e+00 
73500 4.8887160211e+00 5.0006093239e-05 2.5778234779e+00 -4.4649212367e+00 2.5778234779e+00 4.4649212367e+00 
73600 4.8887160214e+00 5.0017234996e-05 2.5778234779e+00 -4.4649212367e+00 2.5778234779e+00 4.4649212367e+00 
73700 4.8887160217e+00 5.0027058793e-05 2.5778234779e+00 -4.4649212367e+00 2.5778234779e+00 4.4649212367e+00 
73800 4.8887160220e+00 5.0035513883e-05 2.5778234779e+00 -4.4649212367e+00 2.5778234779e+00 4.4649212367e+00 
73900 4.8887160223e+00 5.0042557848e-05 2.5778234779e+00 -4.4649212367e+00 2.5778234779e+00 4.4649212367e+00 
74000 4.8887160226e+00 5.0048156460e-05 2.5778234779e+00 -4.4649212367e+00 2.5778234779e+00 4.4649212367e+00 
74100 4.8887160229e+00 5.0052283517e-05 2.5778234779e+00 -4.4649212367e+00 2.5778234779e+00 4.4649212367e+00 
74200 4.8887160232e+00 5.0054920649e-05 2.5778234779e+00 -4.4649212367e+00 2.5778234779e+00 4.4649212367e+00 
74300 4.8887160235e+00 5.0056057098e-05 2.5778234779e+00 -4.4649212367e+00 2.5778234779e+00 4.4649212367e+00 
74400 4.8887160238e+00 5.0055689466e-05 2.5778234779e+00 -4.4649212367e+00 2.5778234779e+00 4.4649212367e+00 
74500 4.8887160241e+00 5.0053821467e-05 2.5778234779e+00 -4.4649212367e+00 2.5778234779e+00 4.4649212367e+00 
74600 4.8887160244e+00 5.0050463627e-05 2.5778234779e+00 -4.4649212367e+00 2.5778234779e+00 4.4649212367e+00 
74700 4.8887160247e+00 5.0045632983e-05 2.5778234779e+00 -4.4649212367e+00 2.5778234779e+00 4.4649212367e+00 
74800 4.8887160249e+00 5.0039352773e-05 2.5778234779e+00 -4.4649212367e+00 2.5778234779e+00 4.4649212367e+00 
74900 4.8887160252e+00 5.0031652088e-05 2.5778234779e+00 -4.4649212367e+00 2.5778234779e+00 4.4649212367e+00 
75000 4.8887160255e+00 5.0022565542e-05 2.5778234779e+00 -4.4649212367e+00 2.5778234779e+00 4.4649212367e+00 
75100 4.8887160257e+00 5.0012132900e-05 2.5778234779e+00 -4.4649212367e+00 2.5778234779e+00 4.4649212367e+00 
75200 4.8887160260e+00 5.0000398732e-05 2.5778234779e+00 -4.4649212367e+00 2.5778234779e+00 4.4649212367e+00 
75300 4.8887160263e+00 4.9987412023e-05 2.5778234779e+00 -4.4649212367e+00 2.5778234779e+00 4.4649212367e+00 
75400 4.8887160265e+00 4.9973225812e-05 2.5778234779e+00 -4.4649212367e+00 2.5778234779e+00 4.4649212367e+00 
75500 4.8887160268e+00 4.9957896799e-05 2.5778234779e+00 -4.4649212367e+00 2.5778234779e+00 4.4649212367e+00 
75600 4.8887160270e+00 4.9941484980e-05 2.5778234779e+00 -4.4649212367e+00 2.5778234779e+00 4.4649212367e+00 
75700 4.8887160273e+00 4.9924053251e-05 2.5778234779e+00 -4.4649212367e+00 2.5778234779e+00 4.4649212367e+00 
75800 4.8887160275e+00 4.9905667044e-05 2.5778234779e+00 -4.4649212367e+00 2.5778234779e+00 4.4649212367e+00 
75900 4.8887160277e+00 4.9886393940e-05 2.5778234779e+00 -4.4649212367e+00 2.5778234779e+00 4.4649212367e+00 
76000 4.8887160280e+00 4.9866303310e-05 2.5778234779e+00 -4.4649212367e+00 2.5778234779e+00 4.4649212367e+00 
76100 4.8887160282e+00 4.9845465935e-05 2.5778234779e+00 -4.4649212367e+00 2.5778234779e+00 4.4649212367e+00 
76200 4.8887160284e+00 4.9823953663e-05 2.5778234779e+00 -4.4649212367e+00 2.5778234779e+00 4.4649212367e+00 
76300 4.8887160287e+00 4.9801839054e-05 2.5778234779e+00 -4.4649212367e+00 2.5778234779e+00 4.4649212367e+00 
76400 4.8887160289e+00 4.9779195052e-05 2.5778234779e+00 -4.4649212367e+00 2.5778234779e+00 4.4649212367e+00 
76500 4.8887160291e+00 4.9756094635e-05 2.5778234779e+00 -4.4649212367e+00 2.5778234779e+00 4.4649212367e+00 
76600 4.8887160293e+00 4.9732610521e-05 2.5778234779e+00 -4.4649212367e+00 2.5778234779e+00 4.4649212367e+00 
76700 4.8887160295e+00 4.9708814855e-05 2.5778234779e+00 -4.4649212367e+00 2.5778234779e+00 4.4649212367e+00 
76800 4.8887160297e+00 4.9684778920e-05 2.5778234779e+00 -4.4649212367e+00 2.5778234779e+00 4.4649212367e+00 
76900 4.8887160300e+00 4.9660572866e-05 2.5778234779e+00 -4.4649212367e+00 2.5778234779e+00 4.4649212367e+00 
77000 4.8887160302e+00 4.9636265439e-05 2.5778234779e+00 -4.4649212367e+00 2.5778234779e+00 4.4649212367e+00 
77100 4.8887160304e+00 4.9611923750e-05 2.5778234779e+00 -4.4649212367e+00 2.5778234779e+00 4.4649212367e+00 
77200 4.8887160306e+00 4.9587613036e-05 2.5778234779e+00 -4.4649212367e+00 2.5778234779e+00 4.4649212367e+00 
77300 4.8887160308e+00 4.9563396446e-05 2.5778234779e+00 -4.4649212367e+00 2.5778234779e+00 4.4649212367e+00 
77400 4.8887160310e+00 4.9539334852e-05 2.5778234779e+00 -4.4649212367e+00 2.5778234779e+00 4.4649212367e+00 
77500 4.8887160312e+00 4.9515486661e-05 2.5778234779e+00 -4.4649212367e+00 2.5778234779e+00 4.4649212367e+00 
77600 4.8887160313e+00 4.9491907658e-05 2.5778234779e+00 -4.4649212367e+00 2.5778234779e+00 4.4649212367e+00 
77700 4.8887160315e+00 4.9468650862e-05 2.5778234779e+00 -4.4649212367e+00 2.5778234779e+00 4.4649212367e+00 
77800 4.8887160317e+00 4.9445766385e-05 2.5778234779e+00 -4.4649212367e+00 2.5778234779e+00 4.4649212367e+00 
77900 4.8887160319e+00 4.9423301333e-05 2.5778234779e+00 -4.4649212367e+00 2.5778234779e+00 4.4649212367e+00 
78000 4.8887160321e+00 4.9401299707e-05 2.5778234779e+00 -4.4649212367e+00 2.5778234779e+00 4.4649212367e+00 
78100 4.8887160323e+00 4.9379802316e-05 2.5778234779e+00 -4.4649212367e+00 2.5778234779e+00 4.4649212367e+00 
78200 4.8887160324e+00 4.9358846730e-05 2.5778234779e+00 -4.4649212367e+00 2.5778234779e+00 4.4649212367e+00 
78300 4.8887160326e+00 4.9338467217e-05 2.5778234779e+00 -4.4649212367e+00 2.5778234779e+00 4.4649212367e+00 
78400 4.8887160328e+00 4.9318694726e-05 2.5778234779e+00 -4.4649212367e+00 2.5778234779e+00 4.4649212367e+00 
78500 4.8887160330e+00 4.9299556861e-05 2.5778234779e+00 -4.4649212367e+00 2.5778234779e+00 4.4649212367e+00 
78600 4.8887160331e+00 4.9281077885e-05 2.5778234779e+00 -4.4649212367e+00 2.5778234779e+00 4.4649212367e+00 
78700 4.8887160333e+00 4.9263278734e-05 2.5778234779e+00 -4.4649212367e+00 2.5778234779e+00 4.4649212367e+00 
78800 4.8887160335e+00 4.9246177035e-05 2.5778234779e+00 -4.4649212367e+00 2.5778234779e+00 4.4649212367e+00 
78900 4.8887160336e+00 4.9229787158e-05 2.5778234779e+00 -4.4649212367e+00 2.5778234779e+00 4.4649212367e+00 
79000 4.8887160338e+00 4.9214120252e-05 2.5778234779e+00 -4.4649212367e+00 2.5778234779e+00 4.4649212367e+00 
79100 4.8887160339e+00 4.9199184331e-05 2.5778234779e+00 -4.4649212367e+00 2.5778234779e+00 4.4649212367e+00 
79200 4.8887160341e+00 4.9184984318e-05 2.5778234779e+00 -4.4649212367e+00 2.5778234779e+00 4.4649212367e+00 
79300 4.8887160342e+00 4.9171522163e-05 2.5778234779e+00 -4.4649212367e+00 2.5778234779e+00 4.4649212367e+00 
79400 4.8887160344e+00 4.9158796911e-05 2.5778234779e+00 -4.4649212367e+00 2.5778234779e+00 4.4649212367e+00 
79500 4.8887160345e+00 4.9146804816e-05 2.5778234779e+00 -4.4649212367e+00 2.5778234779e+00 4.4649212367e+00 
79600 4.8887160347e+00 4.9135539455e-05 2.5778234779e+00 -4.4649212367e+00 2.5778234779e+00 4.4649212367e+00 
79700 4.8887160348e+00 4.9124991835e-05 2.5778234779e+00 -4.4649212367e+00 2.5778234779e+00 4.4649212367e+00 
79800 4.8887160350e+00 4.9115150534e-05 2.5778234779e+00 -4.4649212367e+00 2.5778234779e+00 4.4649212367e+00 
79900 4.8887160351e+00 4.9106001814e-05 2.5778234779e+00 -4.4649212367e+00 2.5778234779e+00 4.4649212367e+00 
80000 4.8887160353e+00 4.9097529770e-05 2.5778234779e+00 -4.4649212367e+00 2.5778234779e+00 4.4649212367e+00 
80100 4.8887160354e+00 4.9089716470e-05 2.5778234779e+00 -4.4649212367e+00 2.5778234779e+00 4.4649212367e+00 
80200 4.8887160355e+00 4.9082542086e-05 2.5778234779e+00 -4.4649212367e+00 2.5778234779e+00 4.4649212367e+00 
80300 4.8887160357e+00 4.9075985053e-05 2.5778234779e+00 -4.4649212367e+00 2.5778234779e+00 4.4649212367e+00 
80400 4.8887160358e+00 4.9070022220e-05 2.5778234779e+00 -4.4649212367e+00 2.5778234779e+00 4.4649212367e+00 
80500 4.8887160359e+00 4.9064628987e-05 2.5778234779e+00 -4.4649212367e+00 2.5778234779e+00 4.4649212367e+00 
80600 4.8887160361e+00 4.9059779462e-05 2.5778234779e+00 -4.4649212367e+00 2.5778234779e+00 4.4649212367e+00 
80700 4.8887160362e+00 4.9055446616e-05 2.5778234779e+00 -4.4649212367e+00 2.5778234779e+00 4.4649212367e+00 
80800 4.8887160363e+00 4.9051602428e-05 2.5778234779e+00 -4.4649212367e+00 2.5778234779e+00 4.4649212367e+00 
80900 4.8887160365e+00 4.9048218040e-05 2.5778234779e+00 -4.4649212367e+00 2.5778234779e+00 4.4649212367e+00 
81000 4.8887160366e+00 4.9045263894e-05 2.5778234779e+00 -4.4649212367e+00 2.5778234779e+00 4.4649212367e+00 
81100 4.8887160367e+00 4.9042709894e-05 2.5778234779e+00 -4.4649212367e+00 2.5778234779e+00 4.4649212367e+00 
81200 4.8887160368e+00 4.9040525527e-05 2.5778234779e+00 -4.4649212367e+00 2.5778234779e+00 4.4649212367e+00 
81300 4.8887160369e+00 4.9038680019e-05 2.5778234779e+00 -4.4649212367e+00 2.5778234779e+00 4.4649212367e+00 
81400 4.8887160371e+00 4.9037142470e-05 2.5778234779e+00 -4.4649212367e+00 2.5778234779e+00 4.4649212367e+00 
81500 4.8887160372e+00 4.9035881968e-05 2.5778234779e+00 -4.4649212367e+00 2.5778234779e+00 4.4649212367e+00 
81600 4.8887160373e+00 4.9034867739e-05 2.5778234779e+00 -4.4649212367e+00 2.5778234779e+00 4.4649212367e+00 
81700 4.8887160374e+00 4.9034069256e-05 2.5778234779e+00 -4.4649212367e+00 2.5778234779e+00 4.4649212367e+00 
81800 4.8887160375e+00 4.9033456350e-05 2.5778234779e+00 -4.4649212367e+00 2.5778234779e+00 4.4649212367e+00 
81900 4.8887160376e+00 4.9032999332e-05 2.5778234779e+00 -4.4649212367e+00 2.5778234779e+00 4.4649212367e+00 
82000 4.8887160377e+00 4.9032669096e-05 2.5778234779e+00 -4.4649212367e+00 2.5778234779e+00 4.4649212367e+00 
82100 4.8887160378e+00 4.9032437213e-05 2.5778234779e+00 -4.4649212367e+00 2.5778234779e+00 4.4649212367e+00 
82200 4.8887160379e+00 4.9032276020e-05 2.5778234779e+00 -4.4649212367e+00 2.5778234779e+00 4.4649212367e+00 
82300 4.8887160381e+00 4.9032158724e-05 2.5778234779e+00 -4.4649212367e+00 2.5778234779e+00 4.4649212367e+00 
82400 4.8887160382e+00 4.9032059462e-05 2.5778234779e+00 -4.4649212367e+00 2.5778234779e+00 4.4649212367e+00 
82500 4.8887160383e+00 4.9031953380e-05 2.5778234779e+00 -4.4649212367e+00 2.5778234779e+00 4.4649212367e+00 
82600 4.8887160384e+00 4.9031816712e-05 2.5778234779e+00 -4.4649212367e+00 2.5778234779e+00 4.4649212367e+00 
82700 4.8887160385e+00 4.9031626816e-05 2.5778234779e+00 -4.4649212367e+00 2.5778234779e+00 4.4649212367e+00 
82800 4.8887160386e+00 4.9031362248e-05 2.5778234779e+00 -4.4649212367e+00 2.5778234779e+00 4.4649212367e+00 
82900 4.8887160387e+00 4.9031002792e-05 2.5778234779e+00 -4.4649212367e+00 2.5778234779e+00 4.4649212367e+00 
83000 4.8887160387e+00 4.9030529511e-05 2.5778234779e+00 -4.4649212367e+00 2.5778234779e+00 4.4649212367e+00 
83100 4.8887160388e+00 4.9029924781e-05 2.5778234779e+00 -4.4649212367e+00 2.5778234779e+00 4.4649212367e+00 
83200 4.8887160389e+00 4.9029172297e-05 2.5778234779e+00 -4.4649212367e+00 2.5778234779e+00 4.4649212367e+00 
83300 4.8887160390e+00 4.9028257119e-05 2.5778234779e+00 -4.4649212367e+00 2.5778234779e+00 4.4649212367e+00 
83400 4.8887160391e+00 4.9027165668e-05 2.5778234779e+00 -4.4649212367e+00 2.5778234779e+00 4.4649212367e+00 
83500 4.8887160392e+00 4.9025885742e-05 2.5778234779e+00 -4.4649212367e+00 2.5778234779e+00 4.4649212367e+00 
83600 4.8887160393e+00 4.9024406508e-05 2.5778234779e+00 -4.4649212367e+00 2.5778234779e+00 4.4649212367e+00 
83700 4.8887160394e+00 4.9022718512e-05 2.5778234779e+00 -4.4649212367e+00 2.5778234779e+00 4.4649212367e+00 
83800 4.8887160395e+00 4.9020813654e-05 2.5778234779e+00 -4.4649212367e+00 2.5778234779e+00 4.4649212367e+00 
83900 4.8887160396e+00 4.9018685185e-05 2.5778234779e+00 -4.4649212367e+00 2.5778234779e+00 4.4649212367e+00 
84000 4.8887160396e+00 4.9016327678e-05 2.5778234779e+00 -4.4649212367e+00 2.5778234779e+00 4.4649212367e+00 
84100 4.8887160397e+00 4.9013737010e-05 2.5778234779e+00 -4.4649212367e+00 2.5778234779e+00 4.4649212367e+00 
84200 4.8887160398e+00 4.9010910330e-05 2.5778234779e+00 -4.4649212367e+00 2.5778234779e+00 4.4649212367e+00 
84300 4.8887160399e+00 4.9007846024e-05 2.5778234779e+00 -4.4649212367e+00 2.5778234779e+00 4.4649212367e+00 
84400 4.8887160400e+00 4.9004543680e-05 2.5778234779e+00 -4.4649212367e+00 2.5778234779e+00 4.4649212367e+00 
84500 4.8887160401e+00 4.9001004044e-05 2.5778234779e+00 -4.4649212367e+00 2.5778234779e+00 4.4649212367e+00 
84600 4.8887160401e+00 4.8997228977e-05 2.5778234779e+00 -4.4649212367e+00 2.5778234779e+00 4.4649212367e+00 
84700 4.8887160402e+00 4.8993221412e-05 2.5778234779e+00 -4.4649212367e+00 2.5778234779e+00 4.4649212367e+00 
84800 4.8887160403e+00 4.8988985299e-05 2.5778234779e+00 -4.4649212367e+00 2.5778234779e+00 4.4649212367e+00 
84900 4.8887160404e+00 4.8984525550e-05 2.5778234779e+00 -4.4649212367e+00 2.5778234779e+00 4.4649212367e+00 
85000 4.8887160404e+00 4.8979847991e-05 2.5778234779e+00 -4.4649212367e+00 2.5778234779e+00 4.4649212367e+00 
85100 4.8887160405e+00 4.8974959301e-05 2.5778234779e+00 -4.4649212367e+00 2.5778234779e+00 4.4649212367e+00 
85200 4.8887160406e+00 4.8969866955e-05 2.5778234779e+00 -4.4649212367e+00 2.5778234779e+00 4.4649212367e+00 
85300 4.8887160407e+00 4.8964579166e-05 2.5778234779e+00 -4.4649212367e+00 2.5778234779e+00 4.4649212367e+00 
85400 4.8887160407e+00 4.8959104821e-05 2.5778234779e+00 -4.4649212367e+00 2.5778234779e+00 4.4649212367e+00 
85500 4.8887160408e+00 4.8953453426e-05 2.5778234779e+00 -4.4649212367e+00 2.5778234779e+00 4.4649212367e+00 
85600 4.8887160409e+00 4.8947635042e-05 2.5778234779e+00 -4.4649212367e+00 2.5778234779e+00 4.4649212367e+00 
85700 4.8887160409e+00 4.8941660219e-05 2.5778234779e+00 -4.4649212367e+00 2.5778234779e+00 4.4649212367e+00 
85800 4.8887160410e+00 4.8935539941e-05 2.5778234779e+00 -4.4649212367e+00 2.5778234779e+00 4.4649212367e+00 
85900 4.8887160411e+00 4.8929285563e-05 2.5778234779e+00 -4.4649212367e+00 2.5778234779e+00 4.4649212367e+00 
86000 4.8887160411e+00 4.8922908754e-05 2.5778234779e+00 -4.4649212367e+00 2.5778234779e+00 4.4649212367e+00 
86100 4.8887160412e+00 4.8916421425e-05 2.5778234779e+00 -4.4649212367e+00 2.5778234779e+00 4.4649212367e+00 
86200 4.8887160413e+00 4.8909835688e-05 2.5778234779e+00 -4.4649212367e+00 2.5778234779e+00 4.4649212367e+00 
86300 4.8887160413e+00 4.8903163790e-05 2.5778234779e+00 -4.4649212367e+00 2.5778234779e+00 4.4649212367e+00 
86400 4.8887160414e+00 4.8896418053e-05 2.5778234779e+00 -4.4649212367e+00 2.5778234779e+00 4.4649212367e+00 
86500 4.8887160414e+00 4.8889610830e-05 2.5778234779e+00 -4.4649212367e+00 2.5778234779e+00 4.4649212367e+00 
86600 4.8887160415e+00 4.8882754445e-05 2.5778234779e+00 -4.4649212367e+00 2.5778234779e+00 4.4649212367e+00 
86700 4.8887160416e+00 4.8875861144e-05 2.5778234779e+00 -4.4649212367e+00 2.5778234779e+00 4.4649212367e+00 
86800 4.8887160416e+00 4.8868943049e-05 2.5778234779e+00 -4.4649212367e+00 2.5778234779e+00 4.4649212367e+00 
86900 4.8887160417e+00 4.8862012112e-05 2.5778234779e+00 -4.4649212367e+00 2.5778234779e+00 4.4649212367e+00 
87000 4.8887160417e+00 4.8855080069e-05 2.5778234779e+00 -4.4649212367e+00 2.5778234779e+00 4.4649212367e+00 
87100 4.8887160418e+00 4.8848158401e-05 2.5778234779e+00 -4.4649212367e+00 2.5778234779e+00 4.4649212367e+00 
87200 4.8887160419e+00 4.8841258290e-05 2.5778234779e+00 -4.4649212367e+00 2.5778234779e+00 4.4649212367e+00 
87300 4.8887160419e+00 4.8834390592e-05 2.5778234779e+00 -4.4649212367e+00 2.5778234779e+00 4.4649212367e+00 
87400 4.8887160420e+00 4.8827565792e-05 2.5778234779e+00 -4.4649212367e+00 2.5778234779e+00 4.4649212367e+00 
87500 4.8887160420e+00 4.8820793985e-05 2.5778234779e+00 -4.4649212367e+00 2.5778234779e+00 4.4649212367e+00 
87600 4.8887160421e+00 4.8814084838e-05 2.5778234779e+00 -4.4649212367e+00 2.5778234779e+00 4.4649212367e+00 
87700 4.8887160421e+00 4.8807447568e-05 2.5778234779e+00 -4.4649212367e+00 2.5778234779e+00 4.4649212367e+00 
87800 4.8887160422e+00 4.8800890921e-05 2.5778234779e+00 -4.4649212367e+00 2.5778234779e+00 4.4649212367e+00 
87900 4.8887160422e+00 4.8794423150e-05 2.5778234779e+00 -4.4649212367e+00 2.5778234779e+00 4.4649212367e+00 
88000 4.8887160423e+00 4.8788051998e-05 2.5778234779e+00 -4.4649212367e+00 2.5778234779e+00 4.4649212367e+00 
88100 4.8887160423e+00 4.8781784677e-05 2.5778234779e+00 -4.4649212367e+00 2.5778234779e+00 4.4649212367e+00 
88200 4.8887160424e+00 4.8775627871e-05 2.5778234779e+00 -4.4649212367e+00 2.5778234779e+00 4.4649212367e+00 
88300 4.8887160424e+00 4.8774045972e-05 2.5778234779e+00 -4.4649212367e+00 2.5778234779e+00 4.4649212367e+00 
88300 4.8887160424e+00 4.8774045972e-05 2.5778234779e+00 -4.4649212367e+00 2.5778234779e+00 4.4649212367e+00 
