# step Hamiltonian StressXX CellTensor1 CellTensor2 CellTensor3 CellTensor4 
0 5.4813107716e+00 -8.5229663827e-03 2.5594246509e+00 -4.4330535334e+00 2.5594246509e+00 4.4330535334e+00 
100 5.4780059522e+00 -4.7832125459e-03 2.5594246509e+00 -4.4330535334e+00 2.5594246509e+00 4.4330535334e+00 
200 5.4747365813e+00 -1.2084034321e-03 2.5595180945e+00 -4.4332153826e+00 2.5595180945e+00 4.4332153826e+00 
300 5.4715115356e+00 2.1626345973e-03 2.5595417007e+00 -4.4332562696e+00 2.5595417007e+00 4.4332562696e+00 
400 5.4683380409e+00 5.3348283687e-03 2.5594994543e+00 -4.4331830967e+00 2.5594994543e+00 4.4331830967e+00 
500 5.4652228492e+00 8.3122981245e-03 2.5593952387e+00 -4.4330025901e+00 2.5593952387e+00 4.4330025901e+00 
600 5.4621722681e+00 1.1098496178e-02 2.5592328525e+00 -4.4327213289e+00 2.5592328525e+00 4.4327213289e+00 
700 5.4591921784e+00 1.3696331407e-02 2.5590160231e+00 -4.4323457694e+00 2.5590160231e+00 4.4323457694e+00 
800 5.4562880409e+00 1.6108281129e-02 2.5587484184e+00 -4.4318822645e+00 2.5587484184e+00 4.4318822645e+00 
900 5.4534648959e+00 1.8336491678e-02 2.5584336561e+00 -4.4313370802e+00 2.5584336561e+00 4.4313370802e+00 
1000 5.4507273578e+00 2.0382868767e-02 2.5580753106e+00 -4.4307164076e+00 2.5580753106e+00 4.4307164076e+00 
1100 5.4480796042e+00 2.2249158562e-02 2.5576769185e+00 -4.4300263722e+00 2.5576769185e+00 4.4300263722e+00 
1200 5.4455253644e+00 2.3937020235e-02 2.5572419823e+00 -4.4292730405e+00 2.5572419823e+00 4.4292730405e+00 
1300 5.4430679054e+00 2.5448090624e-02 2.5567739724e+00 -4.4284624237e+00 2.5567739724e+00 4.4284624237e+00 
1400 5.4407100178e+00 2.6784041559e-02 2.5562763284e+00 -4.4276004790e+00 2.5562763284e+00 4.4276004790e+00 
1500 5.4384540039e+00 2.7946630301e-02 2.5557524585e+00 -4.4266931096e+00 2.5557524585e+00 4.4266931096e+00 
1600 5.4363016655e+00 2.8937743502e-02 2.5552057382e+00 -4.4257461623e+00 2.5552057382e+00 4.4257461623e+00 
1700 5.4342542956e+00 2.9759435060e-02 2.5546395083e+00 -4.4247654235e+00 2.5546395083e+00 4.4247654235e+00 
1800 5.4323126728e+00 3.0413958179e-02 2.5540570719e+00 -4.4237566139e+00 2.5540570719e+00 4.4237566139e+00 
1900 5.4304770583e+00 3.0903791966e-02 2.5534616902e+00 -4.4227253826e+00 2.5534616902e+00 4.4227253826e+00 
2000 5.4287471983e+00 3.1231662871e-02 2.5528565789e+00 -4.4216772991e+00 2.5528565789e+00 4.4216772991e+00 
2100 5.4271223293e+00 3.1400561256e-02 2.5522449030e+00 -4.4206178454e+00 2.5522449030e+00 4.4206178454e+00 
2200 5.4256011887e+00 3.1413753415e-02 2.5516297720e+00 -4.4195524072e+00 2.5516297720e+00 4.4195524072e+00 
2300 5.4241820292e+00 3.1274789336e-02 2.5510142342e+00 -4.4184862645e+00 2.5510142342e+00 4.4184862645e+00 
2400 5.4228626387e+00 3.0987506509e-02 2.5504012714e+00 -4.4174245818e+00 2.5504012714e+00 4.4174245818e+00 
2500 5.4216403634e+00 3.0556030106e-02 2.5497937930e+00 -4.4163723983e+00 2.5497937930e+00 4.4163723983e+00 
2600 5.4205121361e+00 2.9984769820e-02 2.5491946302e+00 -4.4153346178e+00 2.5491946302e+00 4.4153346178e+00 
2700 5.4194745084e+00 2.9278413678e-02 2.5486065304e+00 -4.4143159991e+00 2.5486065304e+00 4.4143159991e+00 
2800 5.4185236856e+00 2.8441919135e-02 2.5480321515e+00 -4.4133211458e+00 2.5480321515e+00 4.4133211458e+00 
2900 5.4176555659e+00 2.7480501738e-02 2.5474740565e+00 -4.4123544968e+00 2.5474740565e+00 4.4123544968e+00 
3000 5.4168657816e+00 2.6399621651e-02 2.5469347079e+00 -4.4114203177e+00 2.5469347079e+00 4.4114203177e+00 
3100 5.4161497429e+00 2.5204968308e-02 2.5464164629e+00 -4.4105226909e+00 2.5464164629e+00 4.4105226909e+00 
3200 5.4155026823e+00 2.3902443472e-02 2.5459215683e+00 -4.4096655084e+00 2.5459215683e+00 4.4096655084e+00 
3300 5.4149197014e+00 2.2498142939e-02 2.5454521566e+00 -4.4088524635e+00 2.5454521566e+00 4.4088524635e+00 
3400 5.4143958169e+00 2.0998337125e-02 2.5450102412e+00 -4.4080870435e+00 2.5450102412e+00 4.4080870435e+00 
3500 5.4139260066e+00 1.9409450751e-02 2.5445977130e+00 -4.4073725237e+00 2.5445977130e+00 4.4073725237e+00 
3600 5.4135052548e+00 1.7738041845e-02 2.5442163370e+00 -4.4067119612e+00 2.5442163370e+00 4.4067119612e+00 
3700 5.4131285957e+00 1.5990780232e-02 2.5438677496e+00 -4.4061081901e+00 2.5438677496e+00 4.4061081901e+00 
3800 5.4127911557e+00 1.4174425695e-02 2.5435534555e+00 -4.4055638168e+00 2.5435534555e+00 4.4055638168e+00 
3900 5.4124881922e+00 1.2295805971e-02 2.5432748263e+00 -4.4050812168e+00 2.5432748263e+00 4.4050812168e+00 
4000 5.4122151299e+00 1.0361794721e-02 2.5430330984e+00 -4.4046625317e+00 2.5430330984e+00 4.4046625317e+00 
4100 5.4119675940e+00 8.3792896100e-03 2.5428293720e+00 -4.4043096674e+00 2.5428293720e+00 4.4043096674e+00 
4200 5.4117414396e+00 6.3551906142e-03 2.5426646107e+00 -4.4040242924e+00 2.5426646107e+00 4.4040242924e+00 
4300 5.4115327771e+00 4.2963786767e-03 2.5425396407e+00 -4.4038078379e+00 2.5425396407e+00 4.4038078379e+00 
4400 5.4113379934e+00 2.2096947958e-03 2.5424551512e+00 -4.4036614979e+00 2.5424551512e+00 4.4036614979e+00 
4500 5.4111537694e+00 1.0191964430e-04 2.5424116954e+00 -4.4035862302e+00 2.5424116954e+00 4.4035862302e+00 
4600 5.4109770930e+00 -2.0202462040e-03 2.5424096910e+00 -4.4035827585e+00 2.5424096910e+00 4.4035827585e+00 
4700 5.4108052679e+00 -4.1502013693e-03 2.5424494221e+00 -4.4036515747e+00 2.5424494221e+00 4.4036515747e+00 
4800 5.4106359181e+00 -6.2814620207e-03 2.5425310407e+00 -4.4037929423e+00 2.5425310407e+00 4.4037929423e+00 
4900 5.4104669890e+00 -8.4076794353e-03 2.5426545694e+00 -4.4040069003e+00 2.5426545694e+00 4.4040069003e+00 
5000 5.4102967437e+00 -1.0522656717e-02 2.5428199039e+00 -4.4042932681e+00 2.5428199039e+00 4.4042932681e+00 
5100 5.4101237572e+00 -1.2620364635e-02 2.5430268159e+00 -4.4046516502e+00 2.5430268159e+00 4.4046516502e+00 
5200 5.4099469056e+00 -1.4694956542e-02 2.5432749566e+00 -4.4050814425e+00 2.5432749566e+00 4.4050814425e+00 
5300 5.4097653541e+00 -1.6740782366e-02 2.5435638604e+00 -4.4055818385e+00 2.5435638604e+00 4.4055818385e+00 
5400 5.4095785405e+00 -1.8752401626e-02 2.5438929487e+00 -4.4061518362e+00 2.5438929487e+00 4.4061518362e+00 
5500 5.4093861581e+00 -2.0724595488e-02 2.5442615345e+00 -4.4067902455e+00 2.5442615345e+00 4.4067902455e+00 
5600 5.4091881358e+00 -2.2652377828e-02 2.5446688265e+00 -4.4074956960e+00 2.5446688265e+00 4.4074956960e+00 
5700 5.4089846165e+00 -2.4531005316e-02 2.5451139343e+00 -4.4082666453e+00 2.5451139343e+00 4.4082666453e+00 
5800 5.4087759348e+00 -2.6355986514e-02 2.5455958730e+00 -4.4091013876e+00 2.5455958730e+00 4.4091013876e+00 
5900 5.4085625935e+00 -2.8123089992e-02 2.5461135687e+00 -4.4099980628e+00 2.5461135687e+00 4.4099980628e+00 
6000 5.4083452399e+00 -2.9828351475e-02 2.5466658635e+00 -4.4109546655e+00 2.5466658635e+00 4.4109546655e+00 
6100 5.4081246418e+00 -3.1468080037e-02 2.5472515213e+00 -4.4119690546e+00 2.5472515213e+00 4.4119690546e+00 
6200 5.4079016638e+00 -3.3038863349e-02 2.5478692332e+00 -4.4130389630e+00 2.5478692332e+00 4.4130389630e+00 
6300 5.4076772437e+00 -3.4537572002e-02 2.5485176233e+00 -4.4141620076e+00 2.5485176233e+00 4.4141620076e+00 
6400 5.4074523700e+00 -3.5961362928e-02 2.5491952545e+00 -4.4153356993e+00 2.5491952545e+00 4.4153356993e+00 
6500 5.4072280605e+00 -3.7307681936e-02 2.5499006344e+00 -4.4165574531e+00 2.5499006344e+00 4.4165574531e+00 
6600 5.4070053421e+00 -3.8574265386e-02 2.5506322211e+00 -4.4178245983e+00 2.5506322211e+00 4.4178245983e+00 
6700 5.4067852311e+00 -3.9759141021e-02 2.5513884291e+00 -4.4191343890e+00 2.5513884291e+00 4.4191343890e+00 
6800 5.4065687166e+00 -4.0860627985e-02 2.5521676355e+00 -4.4204840141e+00 2.5521676355e+00 4.4204840141e+00 
6900 5.4063567443e+00 -4.1877336038e-02 2.5529681856e+00 -4.4218706076e+00 2.5529681856e+00 4.4218706076e+00 
7000 5.4061502027e+00 -4.2808164004e-02 2.5537883991e+00 -4.4232912590e+00 2.5537883991e+00 4.4232912590e+00 
7100 5.4059499111e+00 -4.3652297460e-02 2.5546265755e+00 -4.4247430232e+00 2.5546265755e+00 4.4247430232e+00 
7200 5.4057566094e+00 -4.4409205689e-02 2.5554810004e+00 -4.4262229305e+00 2.5554810004e+00 4.4262229305e+00 
7300 5.4055709496e+00 -4.5078637920e-02 2.5563499508e+00 -4.4277279966e+00 2.5563499508e+00 4.4277279966e+00 
7400 5.4053934899e+00 -4.5660618872e-02 2.5572317007e+00 -4.4292552323e+00 2.5572317007e+00 4.4292552323e+00 
7500 5.4052246898e+00 -4.6155443609e-02 2.5581245270e+00 -4.4308016529e+00 2.5581245270e+00 4.4308016529e+00 
7600 5.4050649075e+00 -4.6563671735e-02 2.5590267144e+00 -4.4323642873e+00 2.5590267144e+00 4.4323642873e+00 
7700 5.4049143992e+00 -4.6886120941e-02 2.5599365609e+00 -4.4339401877e+00 2.5599365609e+00 4.4339401877e+00 
7800 5.4047733196e+00 -4.7123859907e-02 2.5608523827e+00 -4.4355264376e+00 2.5608523827e+00 4.4355264376e+00 
7900 5.4046417241e+00 -4.7278200597e-02 2.5617725194e+00 -4.4371201610e+00 2.5617725194e+00 4.4371201610e+00 
8000 5.4045195724e+00 -4.7350689937e-02 2.5626953382e+00 -4.4387185300e+00 2.5626953382e+00 4.4387185300e+00 
8100 5.4044067338e+00 -4.7343100911e-02 2.5636192391e+00 -4.4403187735e+00 2.5636192391e+00 4.4403187735e+00 
8200 5.4043029924e+00 -4.7257423083e-02 2.5645426591e+00 -4.4419181837e+00 2.5645426591e+00 4.4419181837e+00 
8300 5.4042080552e+00 -4.7095852563e-02 2.5654640758e+00 -4.4435141243e+00 2.5654640758e+00 4.4435141243e+00 
8400 5.4041215586e+00 -4.6860781440e-02 2.5663820123e+00 -4.4451040369e+00 2.5663820123e+00 4.4451040369e+00 
8500 5.4040430781e+00 -4.6554786701e-02 2.5672950400e+00 -4.4466854473e+00 2.5672950400e+00 4.4466854473e+00 
8600 5.4039721362e+00 -4.6180618667e-02 2.5682017828e+00 -4.4482559719e+00 2.5682017828e+00 4.4482559719e+00 
8700 5.4039082123e+00 -4.5741188959e-02 2.5691009200e+00 -4.4498133231e+00 2.5691009200e+00 4.4498133231e+00 
8800 5.4038507519e+00 -4.5239558039e-02 2.5699911892e+00 -4.4513553147e+00 2.5699911892e+00 4.4513553147e+00 
8900 5.4037991760e+00 -4.4678922359e-02 2.5708713895e+00 -4.4528798663e+00 2.5708713895e+00 4.4528798663e+00 
9000 5.4037528903e+00 -4.4062601134e-02 2.5717403835e+00 -4.4543850081e+00 2.5717403835e+00 4.4543850081e+00 
9100 5.4037112946e+00 -4.3394022814e-02 2.5725971000e+00 -4.4558688846e+00 2.5725971000e+00 4.4558688846e+00 
9200 5.4036737913e+00 -4.2676711257e-02 2.5734405354e+00 -4.4573297576e+00 2.5734405354e+00 4.4573297576e+00 
9300 5.4036397933e+00 -4.1914271693e-02 2.5742697561e+00 -4.4587660100e+00 2.5742697561e+00 4.4587660100e+00 
9400 5.4036087321e+00 -4.1110376492e-02 2.5750838992e+00 -4.4601761472e+00 2.5750838992e+00 4.4601761472e+00 
9500 5.4035800641e+00 -4.0268750813e-02 2.5758821742e+00 -4.4615588000e+00 2.5758821742e+00 4.4615588000e+00 
9600 5.4035532774e+00 -3.9393158176e-02 2.5766638634e+00 -4.4629127255e+00 2.5766638634e+00 4.4629127255e+00 
9700 5.4035278964e+00 -3.8487386028e-02 2.5774283230e+00 -4.4642368082e+00 2.5774283230e+00 4.4642368082e+00 
9800 5.4035034867e+00 -3.7555231345e-02 2.5781749828e+00 -4.4655300610e+00 2.5781749828e+00 4.4655300610e+00 
9900 5.4034796586e+00 -3.6600486353e-02 2.5789033468e+00 -4.4667916245e+00 2.5789033468e+00 4.4667916245e+00 
10000 5.4034560700e+00 -3.5626924410e-02 2.5796129927e+00 -4.4680207673e+00 2.5796129927e+00 4.4680207673e+00 
10100 5.4034324274e+00 -3.4638286131e-02 2.5803035714e+00 -4.4692168846e+00 2.5803035714e+00 4.4692168846e+00 
10200 5.4034084878e+00 -3.3638265802e-02 2.5809748061e+00 -4.4703794973e+00 2.5809748061e+00 4.4703794973e+00 
10300 5.4033840582e+00 -3.2630498159e-02 2.5816264917e+00 -4.4715082498e+00 2.5816264917e+00 4.4715082498e+00 
10400 5.4033589950e+00 -3.1618545586e-02 2.5822584931e+00 -4.4726029083e+00 2.5822584931e+00 4.4726029083e+00 
10500 5.4033332023e+00 -3.0605885792e-02 2.5828707438e+00 -4.4736633577e+00 2.5828707438e+00 4.4736633577e+00 
10600 5.4033066301e+00 -2.9595900026e-02 2.5834632446e+00 -4.4746895991e+00 2.5834632446e+00 4.4746895991e+00 
10700 5.4032792713e+00 -2.8591861891e-02 2.5840360608e+00 -4.4756817459e+00 2.5840360608e+00 4.4756817459e+00 
10800 5.4032511582e+00 -2.7596926790e-02 2.5845893209e+00 -4.4766400205e+00 2.5845893209e+00 4.4766400205e+00 
10900 5.4032223589e+00 -2.6614122072e-02 2.5851232138e+00 -4.4775647501e+00 2.5851232138e+00 4.4775647501e+00 
11000 5.4031929733e+00 -2.5646337910e-02 2.5856379862e+00 -4.4784563622e+00 2.5856379862e+00 4.4784563622e+00 
11100 5.4031631280e+00 -2.4696318949e-02 2.5861339404e+00 -4.4793153799e+00 2.5861339404e+00 4.4793153799e+00 
11200 5.4031329725e+00 -2.3766656762e-02 2.5866114307e+00 -4.4801424174e+00 2.5866114307e+00 4.4801424174e+00 
11300 5.4031026738e+00 -2.2859783141e-02 2.5870708612e+00 -4.4809381743e+00 2.5870708612e+00 4.4809381743e+00 
11400 5.4030724119e+00 -2.1977964244e-02 2.5875126819e+00 -4.4817034303e+00 2.5875126819e+00 4.4817034303e+00 
11500 5.4030423750e+00 -2.1123295614e-02 2.5879373864e+00 -4.4824390401e+00 2.5879373864e+00 4.4824390401e+00 
11600 5.4030127550e+00 -2.0297698089e-02 2.5883455078e+00 -4.4831459270e+00 2.5883455078e+00 4.4831459270e+00 
11700 5.4029837431e+00 -1.9502914594e-02 2.5887376156e+00 -4.4838250777e+00 2.5887376156e+00 4.4838250777e+00 
11800 5.4029555257e+00 -1.8740507834e-02 2.5891143125e+00 -4.4844775359e+00 2.5891143125e+00 4.4844775359e+00 
11900 5.4029282806e+00 -1.8011858858e-02 2.5894762306e+00 -4.4851043963e+00 2.5894762306e+00 4.4851043963e+00 
12000 5.4029021737e+00 -1.7318166507e-02 2.5898240280e+00 -4.4857067991e+00 2.5898240280e+00 4.4857067991e+00 
12100 5.4028773559e+00 -1.6660447712e-02 2.5901583854e+00 -4.4862859232e+00 2.5901583854e+00 4.4862859232e+00 
12200 5.4028539605e+00 -1.6039538620e-02 2.5904800027e+00 -4.4868429806e+00 2.5904800027e+00 4.4868429806e+00 
12300 5.4028321016e+00 -1.5456096536e-02 2.5907895950e+00 -4.4873792103e+00 2.5907895950e+00 4.4873792103e+00 
12400 5.4028118717e+00 -1.4910602626e-02 2.5910878901e+00 -4.4878958725e+00 2.5910878901e+00 4.4878958725e+00 
12500 5.4027933413e+00 -1.4403365370e-02 2.5913756240e+00 -4.4883942423e+00 2.5913756240e+00 4.4883942423e+00 
12600 5.4027765578e+00 -1.3934524701e-02 2.5916535386e+00 -4.4888756045e+00 2.5916535386e+00 4.4888756045e+00 
12700 5.4027615455e+00 -1.3504056811e-02 2.5919223779e+00 -4.4893412478e+00 2.5919223779e+00 4.4893412478e+00 
12800 5.4027483058e+00 -1.3111779552e-02 2.5921828850e+00 -4.4897924593e+00 2.5921828850e+00 4.4897924593e+00 
12900 5.4027368176e+00 -1.2757358415e-02 2.5924357991e+00 -4.4902305194e+00 2.5924357991e+00 4.4902305194e+00 
13000 5.4027270388e+00 -1.2440313003e-02 2.5926818527e+00 -4.4906566967e+00 2.5926818527e+00 4.4906566967e+00 
13100 5.4027189070e+00 -1.2160023977e-02 2.5929217684e+00 -4.4910722429e+00 2.5929217684e+00 4.4910722429e+00 
13200 5.4027123418e+00 -1.1915740400e-02 2.5931562569e+00 -4.4914783890e+00 2.5931562569e+00 4.4914783890e+00 
13300 5.4027072460e+00 -1.1706587442e-02 2.5933860139e+00 -4.4918763398e+00 2.5933860139e+00 4.4918763398e+00 
13400 5.4027035083e+00 -1.1531574380e-02 2.5936117180e+00 -4.4922672707e+00 2.5936117180e+00 4.4922672707e+00 
13500 5.4027010052e+00 -1.1389602852e-02 2.5938340285e+00 -4.4926523237e+00 2.5938340285e+00 4.4926523237e+00 
13600 5.4026996034e+00 -1.1279475303e-02 2.5940535831e+00 -4.4930326034e+00 2.5940535831e+00 4.4930326034e+00 
13700 5.4026991621e+00 -1.1199903582e-02 2.5942709963e+00 -4.4934091742e+00 2.5942709963e+00 4.4934091742e+00 
13800 5.4026995359e+00 -1.1149517634e-02 2.5944868577e+00 -4.4937830571e+00 2.5944868577e+00 4.4937830571e+00 
13900 5.4027005765e+00 -1.1126874238e-02 2.5947017301e+00 -4.4941552270e+00 2.5947017301e+00 4.4941552270e+00 
14000 5.4027021355e+00 -1.1130465752e-02 2.5949161483e+00 -4.4945266103e+00 2.5949161483e+00 4.4945266103e+00 
14100 5.4027040667e+00 -1.1158728820e-02 2.5951306181e+00 -4.4948980828e+00 2.5951306181e+00 4.4948980828e+00 
14200 5.4027062277e+00 -1.1210052993e-02 2.5953456146e+00 -4.4952704677e+00 2.5953456146e+00 4.4952704677e+00 
14300 5.4027084825e+00 -1.1282789233e-02 2.5955615822e+00 -4.4956445345e+00 2.5955615822e+00 4.4956445345e+00 
14400 5.4027107026e+00 -1.1375258267e-02 2.5957789329e+00 -4.4960209971e+00 2.5957789329e+00 4.4960209971e+00 
14500 5.4027127691e+00 -1.1485758744e-02 2.5959980467e+00 -4.4964005133e+00 2.5959980467e+00 4.4964005133e+00 
14600 5.4027145737e+00 -1.1612575183e-02 2.5962192703e+00 -4.4967836838e+00 2.5962192703e+00 4.4967836838e+00 
14700 5.4027160197e+00 -1.1753985668e-02 2.5964429175e+00 -4.4971710521e+00 2.5964429175e+00 4.4971710521e+00 
14800 5.4027170233e+00 -1.1908269278e-02 2.5966692686e+00 -4.4975631037e+00 2.5966692686e+00 4.4975631037e+00 
14900 5.4027175137e+00 -1.2073713223e-02 2.5968985709e+00 -4.4979602670e+00 2.5968985709e+00 4.4979602670e+00 
15000 5.4027174339e+00 -1.2248619670e-02 2.5971310385e+00 -4.4983629126e+00 2.5971310385e+00 4.4983629126e+00 
15100 5.4027167405e+00 -1.2431312240e-02 2.5973668527e+00 -4.4987713547e+00 2.5973668527e+00 4.4987713547e+00 
15200 5.4027154041e+00 -1.2620142169e-02 2.5976061624e+00 -4.4991858513e+00 2.5976061624e+00 4.4991858513e+00 
15300 5.4027134083e+00 -1.2813494110e-02 2.5978490849e+00 -4.4996066054e+00 2.5978490849e+00 4.4996066054e+00 
15400 5.4027107500e+00 -1.3009791579e-02 2.5980957061e+00 -4.5000337660e+00 2.5980957061e+00 4.5000337660e+00 
15500 5.4027074383e+00 -1.3207502032e-02 2.5983460818e+00 -4.5004674294e+00 2.5983460818e+00 4.5004674294e+00 
15600 5.4027034937e+00 -1.3405141568e-02 2.5986002381e+00 -4.5009076409e+00 2.5986002381e+00 4.5009076409e+00 
15700 5.4026989476e+00 -1.3601279261e-02 2.5988581724e+00 -4.5013543962e+00 2.5988581724e+00 4.5013543962e+00 
15800 5.4026938405e+00 -1.3794541111e-02 2.5991198548e+00 -4.5018076434e+00 2.5991198548e+00 4.5018076434e+00 
15900 5.4026882216e+00 -1.3983613626e-02 2.5993852287e+00 -4.5022672846e+00 2.5993852287e+00 4.5022672846e+00 
16000 5.4026821473e+00 -1.4167247027e-02 2.5996542126e+00 -4.5027331784e+00 2.5996542126e+00 4.5027331784e+00 
16100 5.4026756797e+00 -1.4344258090e-02 2.5999267007e+00 -4.5032051415e+00 2.5999267007e+00 4.5032051415e+00 
16200 5.4026688858e+00 -1.4513532619e-02 2.6002025645e+00 -4.5036829516e+00 2.6002025645e+00 4.5036829516e+00 
16300 5.4026618358e+00 -1.4674027565e-02 2.6004816541e+00 -4.5041663490e+00 2.6004816541e+00 4.5041663490e+00 
16400 5.4026546020e+00 -1.4824772800e-02 2.6007637998e+00 -4.5046550397e+00 2.6007637998e+00 4.5046550397e+00 
16500 5.4026472578e+00 -1.4964872542e-02 2.6010488130e+00 -4.5051486971e+00 2.6010488130e+00 4.5051486971e+00 
16600 5.4026398760e+00 -1.5093506449e-02 2.6013364883e+00 -4.5056469653e+00 2.6013364883e+00 4.5056469653e+00 
16700 5.4026325280e+00 -1.5209930401e-02 2.6016266043e+00 -4.5061494610e+00 2.6016266043e+00 4.5061494610e+00 
16800 5.4026252830e+00 -1.5313476952e-02 2.6019189256e+00 -4.5066557763e+00 2.6019189256e+00 4.5066557763e+00 
16900 5.4026182065e+00 -1.5403555498e-02 2.6022132039e+00 -4.5071654812e+00 2.6022132039e+00 4.5071654812e+00 
17000 5.4026113596e+00 -1.5479652142e-02 2.6025091798e+00 -4.5076781265e+00 2.6025091798e+00 4.5076781265e+00 
17100 5.4026047989e+00 -1.5541329286e-02 2.6028065840e+00 -4.5081932458e+00 2.6028065840e+00 4.5081932458e+00 
17200 5.4025985747e+00 -1.5588224956e-02 2.6031051392e+00 -4.5087103585e+00 2.6031051392e+00 4.5087103585e+00 
17300 5.4025927316e+00 -1.5620051869e-02 2.6034045609e+00 -4.5092289721e+00 2.6034045609e+00 4.5092289721e+00 
17400 5.4025873075e+00 -1.5636596259e-02 2.6037045594e+00 -4.5097485848e+00 2.6037045594e+00 4.5097485848e+00 
17500 5.4025823334e+00 -1.5637716472e-02 2.6040048411e+00 -4.5102686880e+00 2.6040048411e+00 4.5102686880e+00 
17600 5.4025778332e+00 -1.5623341343e-02 2.6043051097e+00 -4.5107887685e+00 2.6043051097e+00 4.5107887685e+00 
17700 5.4025738239e+00 -1.5593468365e-02 2.6046050677e+00 -4.5113083109e+00 2.6046050677e+00 4.5113083109e+00 
17800 5.4025703155e+00 -1.5548161670e-02 2.6049044176e+00 -4.5118268002e+00 2.6049044176e+00 4.5118268002e+00 
17900 5.4025673110e+00 -1.5487549819e-02 2.6052028635e+00 -4.5123437236e+00 2.6052028635e+00 4.5123437236e+00 
18000 5.4025648069e+00 -1.5411823438e-02 2.6055001118e+00 -4.5128585728e+00 2.6055001118e+00 4.5128585728e+00 
18100 5.4025627933e+00 -1.5321232681e-02 2.6057958730e+00 -4.5133708462e+00 2.6057958730e+00 4.5133708462e+00 
18200 5.4025612545e+00 -1.5216084565e-02 2.6060898623e+00 -4.5138800505e+00 2.6060898623e+00 4.5138800505e+00 
18300 5.4025601696e+00 -1.5096740168e-02 2.6063818009e+00 -4.5143857031e+00 2.6063818009e+00 4.5143857031e+00 
18400 5.4025595125e+00 -1.4963611702e-02 2.6066714174e+00 -4.5148873335e+00 2.6066714174e+00 4.5148873335e+00 
18500 5.4025592530e+00 -1.4817159491e-02 2.6069584479e+00 -4.5153844850e+00 2.6069584479e+00 4.5153844850e+00 
18600 5.4025593574e+00 -1.4657888848e-02 2.6072426379e+00 -4.5158767164e+00 2.6072426379e+00 4.5158767164e+00 
18700 5.4025597886e+00 -1.4486346875e-02 2.6075237424e+00 -4.5163636037e+00 2.6075237424e+00 4.5163636037e+00 
18800 5.4025605075e+00 -1.4303119189e-02 2.6078015271e+00 -4.5168447409e+00 2.6078015271e+00 4.5168447409e+00 
18900 5.4025614730e+00 -1.4108826595e-02 2.6080757690e+00 -4.5173197419e+00 2.6080757690e+00 4.5173197419e+00 
19000 5.4025626431e+00 -1.3904121713e-02 2.6083462571e+00 -4.5177882410e+00 2.6083462571e+00 4.5177882410e+00 
19100 5.4025639753e+00 -1.3689685571e-02 2.6086127930e+00 -4.5182498948e+00 2.6086127930e+00 4.5182498948e+00 
19200 5.4025654274e+00 -1.3466224180e-02 2.6088751914e+00 -4.5187043821e+00 2.6088751914e+00 4.5187043821e+00 
19300 5.4025669578e+00 -1.3234465100e-02 2.6091332805e+00 -4.5191514055e+00 2.6091332805e+00 4.5191514055e+00 
19400 5.4025685264e+00 -1.2995154004e-02 2.6093869026e+00 -4.5195906920e+00 2.6093869026e+00 4.5195906920e+00 
19500 5.4025700947e+00 -1.2749051264e-02 2.6096359144e+00 -4.5200219930e+00 2.6096359144e+00 4.5200219930e+00 
19600 5.4025716265e+00 -1.2496928558e-02 2.6098801870e+00 -4.5204450855e+00 2.6098801870e+00 4.5204450855e+00 
19700 5.4025730884e+00 -1.2239565515e-02 2.6101196064e+00 -4.5208597721e+00 2.6101196064e+00 4.5208597721e+00 
19800 5.4025744499e+00 -1.1977746409e-02 2.6103540736e+00 -4.5212658812e+00 2.6103540736e+00 4.5212658812e+00 
19900 5.4025756837e+00 -1.1712256914e-02 2.6105835046e+00 -4.5216632673e+00 2.6105835046e+00 4.5216632673e+00 
20000 5.4025767661e+00 -1.1443880922e-02 2.6108078304e+00 -4.5220518110e+00 2.6108078304e+00 4.5220518110e+00 
20100 5.4025776769e+00 -1.1173397453e-02 2.6110269970e+00 -4.5224314188e+00 2.6110269970e+00 4.5224314188e+00 
20200 5.4025783998e+00 -1.0901577637e-02 2.6112409655e+00 -4.5228020231e+00 2.6112409655e+00 4.5228020231e+00 
20300 5.4025789223e+00 -1.0629181813e-02 2.6114497116e+00 -4.5231635818e+00 2.6114497116e+00 4.5231635818e+00 
20400 5.4025792354e+00 -1.0356956723e-02 2.6116532253e+00 -4.5235160780e+00 2.6116532253e+00 4.5235160780e+00 
20500 5.4025793342e+00 -1.0085632828e-02 2.6118515114e+00 -4.5238595195e+00 2.6118515114e+00 4.5238595195e+00 
20600 5.4025792170e+00 -9.8159217512e-03 2.6120445881e+00 -4.5241939383e+00 2.6120445881e+00 4.5241939383e+00 
20700 5.4025788858e+00 -9.5485138433e-03 2.6122324877e+00 -4.5245193898e+00 2.6122324877e+00 4.5245193898e+00 
20800 5.4025783457e+00 -9.2840758986e-03 2.6124152552e+00 -4.5248359525e+00 2.6124152552e+00 4.5248359525e+00 
20900 5.4025776045e+00 -9.0232490092e-03 2.6125929486e+00 -4.5251437265e+00 2.6125929486e+00 4.5251437265e+00 
21000 5.4025766732e+00 -8.7666465723e-03 2.6127656382e+00 -4.5254428336e+00 2.6127656382e+00 4.5254428336e+00 
21100 5.4025755648e+00 -8.5148524536e-03 2.6129334056e+00 -4.5257334153e+00 2.6129334056e+00 4.5257334153e+00 
21200 5.4025742944e+00 -8.2684193114e-03 2.6130963440e+00 -4.5260156328e+00 2.6130963440e+00 4.5260156328e+00 
21300 5.4025728791e+00 -8.0278670850e-03 2.6132545567e+00 -4.5262896653e+00 2.6132545567e+00 4.5262896653e+00 
21400 5.4025713370e+00 -7.7936816498e-03 2.6134081572e+00 -4.5265557092e+00 2.6134081572e+00 4.5265557092e+00 
21500 5.4025696876e+00 -7.5663136422e-03 2.6135572682e+00 -4.5268139770e+00 2.6135572682e+00 4.5268139770e+00 
21600 5.4025679510e+00 -7.3461774563e-03 2.6137020208e+00 -4.5270646958e+00 2.6137020208e+00 4.5270646958e+00 
21700 5.4025661474e+00 -7.1336504108e-03 2.6138425541e+00 -4.5273081066e+00 2.6138425541e+00 4.5273081066e+00 
21800 5.4025642975e+00 -6.9290720890e-03 2.6139790143e+00 -4.5275444627e+00 2.6139790143e+00 4.5275444627e+00 
21900 5.4025624214e+00 -6.7327438497e-03 2.6141115542e+00 -4.5277740286e+00 2.6141115542e+00 4.5277740286e+00 
22000 5.4025605389e+00 -6.5449285066e-03 2.6142403322e+00 -4.5279970786e+00 2.6142403322e+00 4.5279970786e+00 
22100 5.4025586687e+00 -6.3658501771e-03 2.6143655116e+00 -4.5282138956e+00 2.6143655116e+00 4.5282138956e+00 
22200 5.4025568288e+00 -6.1956942933e-03 2.6144872601e+00 -4.5284247702e+00 2.6144872601e+00 4.5284247702e+00 
22300 5.4025550357e+00 -6.0346077764e-03 2.6146057487e+00 -4.5286299985e+00 2.6146057487e+00 4.5286299985e+00 
22400 5.4025533046e+00 -5.8826993655e-03 2.6147211514e+00 -4.5288298819e+00 2.6147211514e+00 4.5288298819e+00 
22500 5.4025516490e+00 -5.7400400998e-03 2.6148336441e+00 -4.5290247250e+00 2.6148336441e+00 4.5290247250e+00 
22600 5.4025500808e+00 -5.6066639471e-03 2.6149434041e+00 -4.5292148348e+00 2.6149434041e+00 4.5292148348e+00 
22700 5.4025486101e+00 -5.4825685711e-03 2.6150506091e+00 -4.5294005194e+00 2.6150506091e+00 4.5294005194e+00 
22800 5.4025472453e+00 -5.3677162350e-03 2.6151554370e+00 -4.5295820866e+00 2.6151554370e+00 4.5295820866e+00 
22900 5.4025459926e+00 -5.2620348291e-03 2.6152580648e+00 -4.5297598431e+00 2.6152580648e+00 4.5297598431e+00 
23000 5.4025448568e+00 -5.1654190201e-03 2.6153586680e+00 -4.5299340930e+00 2.6153586680e+00 4.5299340930e+00 
23100 5.4025438405e+00 -5.0777315102e-03 2.6154574203e+00 -4.5301051370e+00 2.6154574203e+00 4.5301051370e+00 
23200 5.4025429447e+00 -4.9988043999e-03 2.6155544925e+00 -4.5302732709e+00 2.6155544925e+00 4.5302732709e+00 
23300 5.4025421689e+00 -4.9284406460e-03 2.6156500522e+00 -4.5304387853e+00 2.6156500522e+00 4.5304387853e+00 
23400 5.4025415107e+00 -4.8664156048e-03 2.6157442634e+00 -4.5306019638e+00 2.6157442634e+00 4.5306019638e+00 
23500 5.4025409666e+00 -4.8124786530e-03 2.6158372856e+00 -4.5307630830e+00 2.6158372856e+00 4.5307630830e+00 
23600 5.4025405315e+00 -4.7663548763e-03 2.6159292735e+00 -4.5309224107e+00 2.6159292735e+00 4.5309224107e+00 
23700 5.4025401994e+00 -4.7277468174e-03 2.6160203765e+00 -4.5310802058e+00 2.6160203765e+00 4.5310802058e+00 
23800 5.4025399631e+00 -4.6963362727e-03 2.6161107385e+00 -4.5312367172e+00 2.6161107385e+00 4.5312367172e+00 
23900 5.4025398147e+00 -4.6717861311e-03 2.6162004970e+00 -4.5313921835e+00 2.6162004970e+00 4.5313921835e+00 
24000 5.4025397456e+00 -4.6537422428e-03 2.6162897832e+00 -4.5315468318e+00 2.6162897832e+00 4.5315468318e+00 
24100 5.4025397467e+00 -4.6418353115e-03 2.6163787215e+00 -4.5317008775e+00 2.6163787215e+00 4.5317008775e+00 
24200 5.4025398084e+00 -4.6356828000e-03 2.6164674292e+00 -4.5318545238e+00 2.6164674292e+00 4.5318545238e+00 
24300 5.4025399214e+00 -4.6348908407e-03 2.6165560164e+00 -4.5320079613e+00 2.6165560164e+00 4.5320079613e+00 
24400 5.4025400758e+00 -4.6390561428e-03 2.6166445855e+00 -4.5321613674e+00 2.6166445855e+00 4.5321613674e+00 
24500 5.4025402623e+00 -4.6477678879e-03 2.6167332311e+00 -4.5323149061e+00 2.6167332311e+00 4.5323149061e+00 
24600 5.4025404716e+00 -4.6606096059e-03 2.6168220402e+00 -4.5324687280e+00 2.6168220402e+00 4.5324687280e+00 
24700 5.4025406950e+00 -4.6771610244e-03 2.6169110916e+00 -4.5326229696e+00 2.6169110916e+00 4.5326229696e+00 
24800 5.4025409241e+00 -4.6969998832e-03 2.6170004563e+00 -4.5327777537e+00 2.6170004563e+00 4.5327777537e+00 
24900 5.4025411511e+00 -4.7197037088e-03 2.6170901970e+00 -4.5329331891e+00 2.6170901970e+00 4.5329331891e+00 
25000 5.4025413692e+00 -4.7448515401e-03 2.6171803683e+00 -4.5330893705e+00 2.6171803683e+00 4.5330893705e+00 
25100 5.4025415718e+00 -4.7720256022e-03 2.6172710170e+00 -4.5332463786e+00 2.6172710170e+00 4.5332463786e+00 
25200 5.4025417537e+00 -4.8008129201e-03 2.6173621817e+00 -4.5334042804e+00 2.6173621817e+00 4.5334042804e+00 
25300 5.4025419099e+00 -4.8308068690e-03 2.6174538931e+00 -4.5335631293e+00 2.6174538931e+00 4.5335631293e+00 
25400 5.4025420369e+00 -4.8616086551e-03 2.6175461743e+00 -4.5337229650e+00 2.6175461743e+00 4.5337229650e+00 
25500 5.4025421315e+00 -4.8928287241e-03 2.6176390406e+00 -4.5338838142e+00 2.6176390406e+00 4.5338838142e+00 
25600 5.4025421915e+00 -4.9240880924e-03 2.6177325000e+00 -4.5340456906e+00 2.6177325000e+00 4.5340456906e+00 
25700 5.4025422158e+00 -4.9550195985e-03 2.6178265531e+00 -4.5342085953e+00 2.6178265531e+00 4.5342085953e+00 
25800 5.4025422037e+00 -4.9852690711e-03 2.6179211936e+00 -4.5343725175e+00 2.6179211936e+00 4.5343725175e+00 
25900 5.4025421555e+00 -5.0144964120e-03 2.6180164084e+00 -4.5345374345e+00 2.6180164084e+00 4.5345374345e+00 
26000 5.4025420719e+00 -5.0423765917e-03 2.6181121780e+00 -4.5347033123e+00 2.6181121780e+00 4.5347033123e+00 
26100 5.4025419546e+00 -5.0686005562e-03 2.6182084766e+00 -4.5348701062e+00 2.6182084766e+00 4.5348701062e+00 
26200 5.4025418056e+00 -5.0928760430e-03 2.6183052724e+00 -4.5350377615e+00 2.6183052724e+00 4.5350377615e+00 
26300 5.4025416274e+00 -5.1149283075e-03 2.6184025282e+00 -4.5352062135e+00 2.6184025282e+00 4.5352062135e+00 
26400 5.4025414231e+00 -5.1345007579e-03 2.6185002015e+00 -4.5353753886e+00 2.6185002015e+00 4.5353753886e+00 
26500 5.4025411960e+00 -5.1513554988e-03 2.6185982449e+00 -4.5355452047e+00 2.6185982449e+00 4.5355452047e+00 
26600 5.4025409495e+00 -5.1652737848e-03 2.6186966064e+00 -4.5357155719e+00 2.6186966064e+00 4.5357155719e+00 
26700 5.4025406874e+00 -5.1760563847e-03 2.6187952300e+00 -4.5358863930e+00 2.6187952300e+00 4.5358863930e+00 
26800 5.4025404136e+00 -5.1835238564e-03 2.6188940558e+00 -4.5360575643e+00 2.6188940558e+00 4.5360575643e+00 
26900 5.4025401320e+00 -5.1875167353e-03 2.6189930204e+00 -4.5362289760e+00 2.6189930204e+00 4.5362289760e+00 
27000 5.4025398463e+00 -5.1878956379e-03 2.6190920575e+00 -4.5364005133e+00 2.6190920575e+00 4.5364005133e+00 
27100 5.4025395604e+00 -5.1845412807e-03 2.6191910981e+00 -4.5365720566e+00 2.6191910981e+00 4.5365720566e+00 
27200 5.4025392777e+00 -5.1773544201e-03 2.6192900709e+00 -4.5367434826e+00 2.6192900709e+00 4.5367434826e+00 
27300 5.4025390016e+00 -5.1662557125e-03 2.6193889028e+00 -4.5369146644e+00 2.6193889028e+00 4.5369146644e+00 
27400 5.4025387352e+00 -5.1511854998e-03 2.6194875191e+00 -4.5370854728e+00 2.6194875191e+00 4.5370854728e+00 
27500 5.4025384814e+00 -5.1321035216e-03 2.6195858440e+00 -4.5372557765e+00 2.6195858440e+00 4.5372557765e+00 
27600 5.4025382425e+00 -5.1089885590e-03 2.6196838010e+00 -4.5374254431e+00 2.6196838010e+00 4.5374254431e+00 
27700 5.4025380206e+00 -5.0818380117e-03 2.6197813131e+00 -4.5375943391e+00 2.6197813131e+00 4.5375943391e+00 
27800 5.4025378176e+00 -5.0506674126e-03 2.6198783035e+00 -4.5377623312e+00 2.6198783035e+00 4.5377623312e+00 
27900 5.4025376347e+00 -5.0155098842e-03 2.6199746953e+00 -4.5379292868e+00 2.6199746953e+00 4.5379292868e+00 
28000 5.4025374729e+00 -4.9764155397e-03 2.6200704127e+00 -4.5380950741e+00 2.6200704127e+00 4.5380950741e+00 
28100 5.4025373328e+00 -4.9334508323e-03 2.6201653804e+00 -4.5382595632e+00 2.6201653804e+00 4.5382595632e+00 
28200 5.4025372146e+00 -4.8866978585e-03 2.6202595249e+00 -4.5384226261e+00 2.6202595249e+00 4.5384226261e+00 
28300 5.4025371182e+00 -4.8362536170e-03 2.6203527738e+00 -4.5385841380e+00 2.6203527738e+00 4.5385841380e+00 
28400 5.4025370431e+00 -4.7822292288e-03 2.6204450568e+00 -4.5387439769e+00 2.6204450568e+00 4.5387439769e+00 
28500 5.4025369885e+00 -4.7247491229e-03 2.6205363058e+00 -4.5389020247e+00 2.6205363058e+00 4.5389020247e+00 
28600 5.4025369533e+00 -4.6639501900e-03 2.6206264548e+00 -4.5390581674e+00 2.6206264548e+00 4.5390581674e+00 
28700 5.4025369362e+00 -4.5999809101e-03 2.6207154407e+00 -4.5392122955e+00 2.6207154407e+00 4.5392122955e+00 
28800 5.4025369357e+00 -4.5330004567e-03 2.6208032031e+00 -4.5393643045e+00 2.6208032031e+00 4.5393643045e+00 
28900 5.4025369501e+00 -4.4631777833e-03 2.6208896847e+00 -4.5395140950e+00 2.6208896847e+00 4.5395140950e+00 
29000 5.4025369774e+00 -4.3906906942e-03 2.6209748314e+00 -4.5396615734e+00 2.6209748314e+00 4.5396615734e+00 
29100 5.4025370158e+00 -4.3157249053e-03 2.6210585925e+00 -4.5398066519e+00 2.6210585925e+00 4.5398066519e+00 
29200 5.4025370632e+00 -4.2384730980e-03 2.6211409209e+00 -4.5399492487e+00 2.6211409209e+00 4.5399492487e+00 
29300 5.4025371175e+00 -4.1591339701e-03 2.6212217730e+00 -4.5400892887e+00 2.6212217730e+00 4.5400892887e+00 
29400 5.4025371766e+00 -4.0779112878e-03 2.6213011091e+00 -4.5402267030e+00 2.6213011091e+00 4.5402267030e+00 
29500 5.4025372386e+00 -3.9950129417e-03 2.6213788936e+00 -4.5403614297e+00 2.6213788936e+00 4.5403614297e+00 
29600 5.4025373015e+00 -3.9106500118e-03 2.6214550946e+00 -4.5404934136e+00 2.6214550946e+00 4.5404934136e+00 
29700 5.4025373634e+00 -3.8250358427e-03 2.6215296843e+00 -4.5406226067e+00 2.6215296843e+00 4.5406226067e+00 
29800 5.4025374225e+00 -3.7383851345e-03 2.6216026389e+00 -4.5407489678e+00 2.6216026389e+00 4.5407489678e+00 
29900 5.4025374774e+00 -3.6509130515e-03 2.6216739388e+00 -4.5408724629e+00 2.6216739388e+00 4.5408724629e+00 
30000 5.4025375265e+00 -3.5628343511e-03 2.6217435685e+00 -4.5409930651e+00 2.6217435685e+00 4.5409930651e+00 
30100 5.4025375686e+00 -3.4743625377e-03 2.6218115166e+00 -4.5411107547e+00 2.6218115166e+00 4.5411107547e+00 
30200 5.4025376026e+00 -3.3857090416e-03 2.6218777757e+00 -4.5412255188e+00 2.6218777757e+00 4.5412255188e+00 
30300 5.4025376276e+00 -3.2970824282e-03 2.6219423425e+00 -4.5413373517e+00 2.6219423425e+00 4.5413373517e+00 
30400 5.4025376431e+00 -3.2086876374e-03 2.6220052176e+00 -4.5414462545e+00 2.6220052176e+00 4.5414462545e+00 
30500 5.4025376485e+00 -3.1207252577e-03 2.6220664055e+00 -4.5415522351e+00 2.6220664055e+00 4.5415522351e+00 
30600 5.4025376435e+00 -3.0333908345e-03 2.6221259146e+00 -4.5416553079e+00 2.6221259146e+00 4.5416553079e+00 
30700 5.4025376282e+00 -2.9468742166e-03 2.6221837570e+00 -4.5417554939e+00 2.6221837570e+00 4.5417554939e+00 
30800 5.4025376025e+00 -2.8613589414e-03 2.6222399484e+00 -4.5418528203e+00 2.6222399484e+00 4.5418528203e+00 
30900 5.4025375669e+00 -2.7770216603e-03 2.6222945080e+00 -4.5419473203e+00 2.6222945080e+00 4.5419473203e+00 
31000 5.4025375218e+00 -2.6940316056e-03 2.6223474584e+00 -4.5420390331e+00 2.6223474584e+00 4.5420390331e+00 
31100 5.4025374678e+00 -2.6125501005e-03 2.6223988254e+00 -4.5421280033e+00 2.6223988254e+00 4.5421280033e+00 
31200 5.4025374056e+00 -2.5327301121e-03 2.6224486378e+00 -4.5422142809e+00 2.6224486378e+00 4.5422142809e+00 
31300 5.4025373361e+00 -2.4547158486e-03 2.6224969273e+00 -4.5422979209e+00 2.6224969273e+00 4.5422979209e+00 
31400 5.4025372603e+00 -2.3786424014e-03 2.6225437286e+00 -4.5423789830e+00 2.6225437286e+00 4.5423789830e+00 
31500 5.4025371791e+00 -2.3046354319e-03 2.6225890786e+00 -4.5424575316e+00 2.6225890786e+00 4.5424575316e+00 
31600 5.4025370938e+00 -2.2328109032e-03 2.6226330169e+00 -4.5425336349e+00 2.6226330169e+00 4.5425336349e+00 
31700 5.4025370053e+00 -2.1632748570e-03 2.6226755852e+00 -4.5426073653e+00 2.6226755852e+00 4.5426073653e+00 
31800 5.4025369148e+00 -2.0961232353e-03 2.6227168270e+00 -4.5426787983e+00 2.6227168270e+00 4.5426787983e+00 
31900 5.4025368235e+00 -2.0314417454e-03 2.6227567880e+00 -4.5427480128e+00 2.6227567880e+00 4.5427480128e+00 
32000 5.4025367325e+00 -1.9693057701e-03 2.6227955154e+00 -4.5428150905e+00 2.6227955154e+00 4.5428150905e+00 
32100 5.4025366429e+00 -1.9097803196e-03 2.6228330576e+00 -4.5428801155e+00 2.6228330576e+00 4.5428801155e+00 
32200 5.4025365557e+00 -1.8529200258e-03 2.6228694645e+00 -4.5429431741e+00 2.6228694645e+00 4.5429431741e+00 
32300 5.4025364719e+00 -1.7987691779e-03 2.6229047869e+00 -4.5430043544e+00 2.6229047869e+00 4.5430043544e+00 
32400 5.4025363924e+00 -1.7473617972e-03 2.6229390767e+00 -4.5430637459e+00 2.6229390767e+00 4.5430637459e+00 
32500 5.4025363179e+00 -1.6987217511e-03 2.6229723860e+00 -4.5431214393e+00 2.6229723860e+00 4.5431214393e+00 
32600 5.4025362492e+00 -1.6528629034e-03 2.6230047676e+00 -4.5431775261e+00 2.6230047676e+00 4.5431775261e+00 
32700 5.4025361870e+00 -1.6097893008e-03 2.6230362748e+00 -4.5432320980e+00 2.6230362748e+00 4.5432320980e+00 
32800 5.4025361316e+00 -1.5694953928e-03 2.6230669604e+00 -4.5432852471e+00 2.6230669604e+00 4.5432852471e+00 
32900 5.4025360835e+00 -1.5319662840e-03 2.6230968777e+00 -4.5433370653e+00 2.6230968777e+00 4.5433370653e+00 
33000 5.4025360430e+00 -1.4971780164e-03 2.6231260792e+00 -4.5433876438e+00 2.6231260792e+00 4.5433876438e+00 
33100 5.4025360103e+00 -1.4650978807e-03 2.6231546173e+00 -4.5434370733e+00 2.6231546173e+00 4.5434370733e+00 
33200 5.4025359853e+00 -1.4356847531e-03 2.6231825436e+00 -4.5434854431e+00 2.6231825436e+00 4.5434854431e+00 
33300 5.4025359681e+00 -1.4088894575e-03 2.6232099090e+00 -4.5435328413e+00 2.6232099090e+00 4.5435328413e+00 
33400 5.4025359586e+00 -1.3846551492e-03 2.6232367633e+00 -4.5435793544e+00 2.6232367633e+00 4.5435793544e+00 
33500 5.4025359564e+00 -1.3629177197e-03 2.6232631555e+00 -4.5436250669e+00 2.6232631555e+00 4.5436250669e+00 
33600 5.4025359613e+00 -1.3436062186e-03 2.6232891331e+00 -4.5436700614e+00 2.6232891331e+00 4.5436700614e+00 
33700 5.4025359728e+00 -1.3266432925e-03 2.6233147423e+00 -4.5437144179e+00 2.6233147423e+00 4.5437144179e+00 
33800 5.4025359906e+00 -1.3119456366e-03 2.6233400280e+00 -4.5437582139e+00 2.6233400280e+00 4.5437582139e+00 
33900 5.4025360141e+00 -1.2994244594e-03 2.6233650332e+00 -4.5438015244e+00 2.6233650332e+00 4.5438015244e+00 
34000 5.4025360427e+00 -1.2889859554e-03 2.6233897997e+00 -4.5438444211e+00 2.6233897997e+00 4.5438444211e+00 
34100 5.4025360758e+00 -1.2805317862e-03 2.6234143669e+00 -4.5438869727e+00 2.6234143669e+00 4.5438869727e+00 
34200 5.4025361128e+00 -1.2739595664e-03 2.6234387727e+00 -4.5439292449e+00 2.6234387727e+00 4.5439292449e+00 
34300 5.4025361530e+00 -1.2691633532e-03 2.6234630531e+00 -4.5439712998e+00 2.6234630531e+00 4.5439712998e+00 
34400 5.4025361958e+00 -1.2660341367e-03 2.6234872419e+00 -4.5440131959e+00 2.6234872419e+00 4.5440131959e+00 
34500 5.4025362406e+00 -1.2644603298e-03 2.6235113707e+00 -4.5440549883e+00 2.6235113707e+00 4.5440549883e+00 
34600 5.4025362866e+00 -1.2643282551e-03 2.6235354694e+00 -4.5440967284e+00 2.6235354694e+00 4.5440967284e+00 
34700 5.4025363333e+00 -1.2655226278e-03 2.6235595653e+00 -4.5441384638e+00 2.6235595653e+00 4.5441384638e+00 
34800 5.4025363801e+00 -1.2679270319e-03 2.6235836838e+00 -4.5441802382e+00 2.6235836838e+00 4.5441802382e+00 
34900 5.4025364265e+00 -1.2714243886e-03 2.6236078478e+00 -4.5442220916e+00 2.6236078478e+00 4.5442220916e+00 
35000 5.4025364719e+00 -1.2758974148e-03 2.6236320783e+00 -4.5442640601e+00 2.6236320783e+00 4.5442640601e+00 
35100 5.4025365158e+00 -1.2812290705e-03 2.6236563939e+00 -4.5443061758e+00 2.6236563939e+00 4.5443061758e+00 
35200 5.4025365578e+00 -1.2873029940e-03 2.6236808108e+00 -4.5443484671e+00 2.6236808108e+00 4.5443484671e+00 
35300 5.4025365977e+00 -1.2940039227e-03 2.6237053432e+00 -4.5443909585e+00 2.6237053432e+00 4.5443909585e+00 
35400 5.4025366350e+00 -1.3012180983e-03 2.6237300031e+00 -4.5444336707e+00 2.6237300031e+00 4.5444336707e+00 
35500 5.4025366695e+00 -1.3088336564e-03 2.6237548002e+00 -4.5444766206e+00 2.6237548002e+00 4.5444766206e+00 
35600 5.4025367011e+00 -1.3167409976e-03 2.6237797423e+00 -4.5445198215e+00 2.6237797423e+00 4.5445198215e+00 
35700 5.4025367295e+00 -1.3248331408e-03 2.6238048347e+00 -4.5445632829e+00 2.6238048347e+00 4.5445632829e+00 
35800 5.4025367548e+00 -1.3330060568e-03 2.6238300812e+00 -4.5446070110e+00 2.6238300812e+00 4.5446070110e+00 
35900 5.4025367769e+00 -1.3411589815e-03 2.6238554831e+00 -4.5446510085e+00 2.6238554831e+00 4.5446510085e+00 
36000 5.4025367958e+00 -1.3491947087e-03 2.6238810402e+00 -4.5446952747e+00 2.6238810402e+00 4.5446952747e+00 
36100 5.4025368116e+00 -1.3570198609e-03 2.6239067502e+00 -4.5447398056e+00 2.6239067502e+00 4.5447398056e+00 
36200 5.4025368244e+00 -1.3645451386e-03 2.6239326090e+00 -4.5447845944e+00 2.6239326090e+00 4.5447845944e+00 
36300 5.4025368343e+00 -1.3716855472e-03 2.6239586109e+00 -4.5448296311e+00 2.6239586109e+00 4.5448296311e+00 
36400 5.4025368416e+00 -1.3783606008e-03 2.6239847487e+00 -4.5448749030e+00 2.6239847487e+00 4.5448749030e+00 
36500 5.4025368465e+00 -1.3844945040e-03 2.6240110134e+00 -4.5449203948e+00 2.6240110134e+00 4.5449203948e+00 
36600 5.4025368493e+00 -1.3900163103e-03 2.6240373947e+00 -4.5449660885e+00 2.6240373947e+00 4.5449660885e+00 
36700 5.4025368501e+00 -1.3948600574e-03 2.6240638809e+00 -4.5450119641e+00 2.6240638809e+00 4.5450119641e+00 
36800 5.4025368492e+00 -1.3989648807e-03 2.6240904592e+00 -4.5450579990e+00 2.6240904592e+00 4.5450579990e+00 
36900 5.4025368471e+00 -1.4022751027e-03 2.6241171155e+00 -4.5451041690e+00 2.6241171155e+00 4.5451041690e+00 
37000 5.4025368438e+00 -1.4047403014e-03 2.6241438345e+00 -4.5451504477e+00 2.6241438345e+00 4.5451504477e+00 
37100 5.4025368398e+00 -1.4063153558e-03 2.6241706002e+00 -4.5451968073e+00 2.6241706002e+00 4.5451968073e+00 
37200 5.4025368353e+00 -1.4069604701e-03 2.6241973957e+00 -4.5452432184e+00 2.6241973957e+00 4.5452432184e+00 
37300 5.4025368306e+00 -1.4066411768e-03 2.6242242032e+00 -4.5452896504e+00 2.6242242032e+00 4.5452896504e+00 
37400 5.4025368260e+00 -1.4053283191e-03 2.6242510043e+00 -4.5453360713e+00 2.6242510043e+00 4.5453360713e+00 
37500 5.4025368217e+00 -1.4029980132e-03 2.6242777802e+00 -4.5453824484e+00 2.6242777802e+00 4.5453824484e+00 
37600 5.4025368178e+00 -1.3996315918e-03 2.6243045113e+00 -4.5454287482e+00 2.6243045113e+00 4.5454287482e+00 
37700 5.4025368147e+00 -1.3952155285e-03 2.6243311781e+00 -4.5454749363e+00 2.6243311781e+00 4.5454749363e+00 
37800 5.4025368126e+00 -1.3897413447e-03 2.6243577604e+00 -4.5455209783e+00 2.6243577604e+00 4.5455209783e+00 
37900 5.4025368115e+00 -1.3832054995e-03 2.6243842382e+00 -4.5455668392e+00 2.6243842382e+00 4.5455668392e+00 
38000 5.4025368116e+00 -1.3756092639e-03 2.6244105912e+00 -4.5456124839e+00 2.6244105912e+00 4.5456124839e+00 
38100 5.4025368130e+00 -1.3669585790e-03 2.6244367992e+00 -4.5456578775e+00 2.6244367992e+00 4.5456578775e+00 
38200 5.4025368157e+00 -1.3572639012e-03 2.6244628422e+00 -4.5457029852e+00 2.6244628422e+00 4.5457029852e+00 
38300 5.4025368199e+00 -1.3465400328e-03 2.6244887001e+00 -4.5457477725e+00 2.6244887001e+00 4.5457477725e+00 
38400 5.4025368256e+00 -1.3348059420e-03 2.6245143536e+00 -4.5457922056e+00 2.6245143536e+00 4.5457922056e+00 
38500 5.4025368327e+00 -1.3220845702e-03 2.6245397832e+00 -4.5458362510e+00 2.6245397832e+00 4.5458362510e+00 
38600 5.4025368412e+00 -1.3084026302e-03 2.6245649702e+00 -4.5458798762e+00 2.6245649702e+00 4.5458798762e+00 
38700 5.4025368511e+00 -1.2937903945e-03 2.6245898963e+00 -4.5459230495e+00 2.6245898963e+00 4.5459230495e+00 
38800 5.4025368623e+00 -1.2782814767e-03 2.6246145438e+00 -4.5459657402e+00 2.6246145438e+00 4.5459657402e+00 
38900 5.4025368748e+00 -1.2619126044e-03 2.6246388957e+00 -4.5460079188e+00 2.6246388957e+00 4.5460079188e+00 
39000 5.4025368884e+00 -1.2447233879e-03 2.6246629355e+00 -4.5460495570e+00 2.6246629355e+00 4.5460495570e+00 
39100 5.4025369030e+00 -1.2267560823e-03 2.6246866476e+00 -4.5460906275e+00 2.6246866476e+00 4.5460906275e+00 
39200 5.4025369185e+00 -1.2080553473e-03 2.6247100172e+00 -4.5461311049e+00 2.6247100172e+00 4.5461311049e+00 
39300 5.4025369348e+00 -1.1886680031e-03 2.6247330303e+00 -4.5461709648e+00 2.6247330303e+00 4.5461709648e+00 
39400 5.4025369518e+00 -1.1686427855e-03 2.6247556739e+00 -4.5462101847e+00 2.6247556739e+00 4.5462101847e+00 
39500 5.4025369692e+00 -1.1480300992e-03 2.6247779359e+00 -4.5462487436e+00 2.6247779359e+00 4.5462487436e+00 
39600 5.4025369870e+00 -1.1268817723e-03 2.6247998050e+00 -4.5462866220e+00 2.6247998050e+00 4.5462866220e+00 
39700 5.4025370051e+00 -1.1052508113e-03 2.6248212711e+00 -4.5463238024e+00 2.6248212711e+00 4.5463238024e+00 
39800 5.4025370232e+00 -1.0831911585e-03 2.6248423250e+00 -4.5463602687e+00 2.6248423250e+00 4.5463602687e+00 
39900 5.4025370413e+00 -1.0607574520e-03 2.6248629584e+00 -4.5463960069e+00 2.6248629584e+00 4.5463960069e+00 
40000 5.4025370592e+00 -1.0380047902e-03 2.6248831644e+00 -4.5464310047e+00 2.6248831644e+00 4.5464310047e+00 
40100 5.4025370769e+00 -1.0149885000e-03 2.6249029369e+00 -4.5464652516e+00 2.6249029369e+00 4.5464652516e+00 
40200 5.4025370942e+00 -9.9176391124e-04 2.6249222707e+00 -4.5464987388e+00 2.6249222707e+00 4.5464987388e+00 
40300 5.4025371110e+00 -9.6838613672e-04 2.6249411620e+00 -4.5465314595e+00 2.6249411620e+00 4.5465314595e+00 
40400 5.4025371273e+00 -9.4490985936e-04 2.6249596079e+00 -4.5465634087e+00 2.6249596079e+00 4.5465634087e+00 
40500 5.4025371430e+00 -9.2138912666e-04 2.6249776065e+00 -4.5465945832e+00 2.6249776065e+00 4.5465945832e+00 
40600 5.4025371580e+00 -8.9787715329e-04 2.6249951569e+00 -4.5466249814e+00 2.6249951569e+00 4.5466249814e+00 
40700 5.4025371724e+00 -8.7442613234e-04 2.6250122594e+00 -4.5466546038e+00 2.6250122594e+00 4.5466546038e+00 
40800 5.4025371859e+00 -8.5108705559e-04 2.6250289151e+00 -4.5466834523e+00 2.6250289151e+00 4.5466834523e+00 
40900 5.4025371988e+00 -8.2790954350e-04 2.6250451261e+00 -4.5467115306e+00 2.6250451261e+00 4.5467115306e+00 
41000 5.4025372108e+00 -8.0494168508e-04 2.6250608956e+00 -4.5467388441e+00 2.6250608956e+00 4.5467388441e+00 
41100 5.4025372221e+00 -7.8222988819e-04 2.6250762274e+00 -4.5467653997e+00 2.6250762274e+00 4.5467653997e+00 
41200 5.4025372327e+00 -7.5981874040e-04 2.6250911266e+00 -4.5467912058e+00 2.6250911266e+00 4.5467912058e+00 
41300 5.4025372426e+00 -7.3775088089e-04 2.6251055989e+00 -4.5468162725e+00 2.6251055989e+00 4.5468162725e+00 
41400 5.4025372518e+00 -7.1606688331e-04 2.6251196507e+00 -4.5468406110e+00 2.6251196507e+00 4.5468406110e+00 
41500 5.4025372604e+00 -6.9480515008e-04 2.6251332895e+00 -4.5468642340e+00 2.6251332895e+00 4.5468642340e+00 
41600 5.4025372684e+00 -6.7400181796e-04 2.6251465232e+00 -4.5468871555e+00 2.6251465232e+00 4.5468871555e+00 
41700 5.4025372759e+00 -6.5369067509e-04 2.6251593606e+00 -4.5469093906e+00 2.6251593606e+00 4.5469093906e+00 
41800 5.4025372829e+00 -6.3390308957e-04 2.6251718111e+00 -4.5469309555e+00 2.6251718111e+00 4.5469309555e+00 
41900 5.4025372895e+00 -6.1466794937e-04 2.6251838847e+00 -4.5469518675e+00 2.6251838847e+00 4.5469518675e+00 
42000 5.4025372958e+00 -5.9601161368e-04 2.6251955919e+00 -4.5469721449e+00 2.6251955919e+00 4.5469721449e+00 
42100 5.4025373018e+00 -5.7795787545e-04 2.6252069436e+00 -4.5469918067e+00 2.6252069436e+00 4.5469918067e+00 
42200 5.4025373077e+00 -5.6052793506e-04 2.6252179515e+00 -4.5470108729e+00 2.6252179515e+00 4.5470108729e+00 
42300 5.4025373133e+00 -5.4374038488e-04 2.6252286273e+00 -4.5470293640e+00 2.6252286273e+00 4.5470293640e+00 
42400 5.4025373189e+00 -5.2761120441e-04 2.6252389834e+00 -4.5470473012e+00 2.6252389834e+00 4.5470473012e+00 
42500 5.4025373245e+00 -5.1215376591e-04 2.6252490322e+00 -4.5470647063e+00 2.6252490322e+00 4.5470647063e+00 
42600 5.4025373301e+00 -4.9737885006e-04 2.6252587866e+00 -4.5470816014e+00 2.6252587866e+00 4.5470816014e+00 
42700 5.4025373359e+00 -4.8329467130e-04 2.6252682596e+00 -4.5470980091e+00 2.6252682596e+00 4.5470980091e+00 
42800 5.4025373417e+00 -4.6990691269e-04 2.6252774642e+00 -4.5471139520e+00 2.6252774642e+00 4.5471139520e+00 
42900 5.4025373477e+00 -4.5721876964e-04 2.6252864139e+00 -4.5471294533e+00 2.6252864139e+00 4.5471294533e+00 
43000 5.4025373539e+00 -4.4523100221e-04 2.6252951219e+00 -4.5471445360e+00 2.6252951219e+00 4.5471445360e+00 
43100 5.4025373603e+00 -4.3394199562e-04 2.6253036015e+00 -4.5471592231e+00 2.6253036015e+00 4.5471592231e+00 
43200 5.4025373670e+00 -4.2334782834e-04 2.6253118661e+00 -4.5471735379e+00 2.6253118661e+00 4.5471735379e+00 
43300 5.4025373740e+00 -4.1344234743e-04 2.6253199290e+00 -4.5471875031e+00 2.6253199290e+00 4.5471875031e+00 
43400 5.4025373812e+00 -4.0421725050e-04 2.6253278031e+00 -4.5472011415e+00 2.6253278031e+00 4.5472011415e+00 
43500 5.4025373887e+00 -3.9566217399e-04 2.6253355015e+00 -4.5472144755e+00 2.6253355015e+00 4.5472144755e+00 
43600 5.4025373964e+00 -3.8776478696e-04 2.6253430370e+00 -4.5472275273e+00 2.6253430370e+00 4.5472275273e+00 
43700 5.4025374044e+00 -3.8051089015e-04 2.6253504220e+00 -4.5472403186e+00 2.6253504220e+00 4.5472403186e+00 
43800 5.4025374127e+00 -3.7388451955e-04 2.6253576689e+00 -4.5472528705e+00 2.6253576689e+00 4.5472528705e+00 
43900 5.4025374212e+00 -3.6786805421e-04 2.6253647895e+00 -4.5472652038e+00 2.6253647895e+00 4.5472652038e+00 
44000 5.4025374299e+00 -3.6244232739e-04 2.6253717956e+00 -4.5472773387e+00 2.6253717956e+00 4.5472773387e+00 
44100 5.4025374387e+00 -3.5758674088e-04 2.6253786982e+00 -4.5472892945e+00 2.6253786982e+00 4.5472892945e+00 
44200 5.4025374478e+00 -3.5327938170e-04 2.6253855084e+00 -4.5473010901e+00 2.6253855084e+00 4.5473010901e+00 
44300 5.4025374569e+00 -3.4949714079e-04 2.6253922366e+00 -4.5473127436e+00 2.6253922366e+00 4.5473127436e+00 
44400 5.4025374662e+00 -3.4621583311e-04 2.6253988927e+00 -4.5473242723e+00 2.6253988927e+00 4.5473242723e+00 
44500 5.4025374755e+00 -3.4341031865e-04 2.6254054863e+00 -4.5473356927e+00 2.6254054863e+00 4.5473356927e+00 
44600 5.4025374848e+00 -3.4105462385e-04 2.6254120264e+00 -4.5473470205e+00 2.6254120264e+00 4.5473470205e+00 
44700 5.4025374941e+00 -3.3912206300e-04 2.6254185217e+00 -4.5473582707e+00 2.6254185217e+00 4.5473582707e+00 
44800 5.4025375034e+00 -3.3758535894e-04 2.6254249801e+00 -4.5473694570e+00 2.6254249801e+00 4.5473694570e+00 
44900 5.4025375126e+00 -3.3641676293e-04 2.6254314093e+00 -4.5473805927e+00 2.6254314093e+00 4.5473805927e+00 
45000 5.4025375216e+00 -3.3558817290e-04 2.6254378162e+00 -4.5473916897e+00 2.6254378162e+00 4.5473916897e+00 
45100 5.4025375306e+00 -3.3507124994e-04 2.6254442073e+00 -4.5474027594e+00 2.6254442073e+00 4.5474027594e+00 
45200 5.4025375394e+00 -3.3483753242e-04 2.6254505885e+00 -4.5474138120e+00 2.6254505885e+00 4.5474138120e+00 
45300 5.4025375480e+00 -3.3485854749e-04 2.6254569653e+00 -4.5474248569e+00 2.6254569653e+00 4.5474248569e+00 
45400 5.4025375565e+00 -3.3510591951e-04 2.6254633424e+00 -4.5474359025e+00 2.6254633424e+00 4.5474359025e+00 
45500 5.4025375647e+00 -3.3555147507e-04 2.6254697242e+00 -4.5474469561e+00 2.6254697242e+00 4.5474469561e+00 
45600 5.4025375727e+00 -3.3616734441e-04 2.6254761146e+00 -4.5474580245e+00 2.6254761146e+00 4.5474580245e+00 
45700 5.4025375804e+00 -3.3692605874e-04 2.6254825166e+00 -4.5474691131e+00 2.6254825166e+00 4.5474691131e+00 
45800 5.4025375879e+00 -3.3780064334e-04 2.6254889331e+00 -4.5474802268e+00 2.6254889331e+00 4.5474802268e+00 
45900 5.4025375951e+00 -3.3876470614e-04 2.6254953662e+00 -4.5474913692e+00 2.6254953662e+00 4.5474913692e+00 
46000 5.4025376021e+00 -3.3979252158e-04 2.6255018176e+00 -4.5475025435e+00 2.6255018176e+00 4.5475025435e+00 
46100 5.4025376088e+00 -3.4085910947e-04 2.6255082886e+00 -4.5475137516e+00 2.6255082886e+00 4.5475137516e+00 
46200 5.4025376153e+00 -3.4194030885e-04 2.6255147799e+00 -4.5475249948e+00 2.6255147799e+00 4.5475249948e+00 
46300 5.4025376216e+00 -3.4301284649e-04 2.6255212918e+00 -4.5475362737e+00 2.6255212918e+00 4.5475362737e+00 
46400 5.4025376276e+00 -3.4405440006e-04 2.6255278241e+00 -4.5475475880e+00 2.6255278241e+00 4.5475475880e+00 
46500 5.4025376333e+00 -3.4504365582e-04 2.6255343762e+00 -4.5475589365e+00 2.6255343762e+00 4.5475589365e+00 
46600 5.4025376389e+00 -3.4596036074e-04 2.6255409471e+00 -4.5475703177e+00 2.6255409471e+00 4.5475703177e+00 
46700 5.4025376443e+00 -3.4678536908e-04 2.6255475355e+00 -4.5475817291e+00 2.6255475355e+00 4.5475817291e+00 
46800 5.4025376495e+00 -3.4750068322e-04 2.6255541395e+00 -4.5475931677e+00 2.6255541395e+00 4.5475931677e+00 
46900 5.4025376546e+00 -3.4808948898e-04 2.6255607572e+00 -4.5476046298e+00 2.6255607572e+00 4.5476046298e+00 
47000 5.4025376595e+00 -3.4853618527e-04 2.6255673861e+00 -4.5476161113e+00 2.6255673861e+00 4.5476161113e+00 
47100 5.4025376642e+00 -3.4882640815e-04 2.6255740234e+00 -4.5476276076e+00 2.6255740234e+00 4.5476276076e+00 
47200 5.4025376689e+00 -3.4894704943e-04 2.6255806663e+00 -4.5476391133e+00 2.6255806663e+00 4.5476391133e+00 
47300 5.4025376735e+00 -3.4888626975e-04 2.6255873114e+00 -4.5476506231e+00 2.6255873114e+00 4.5476506231e+00 
47400 5.4025376780e+00 -3.4863350642e-04 2.6255939554e+00 -4.5476621308e+00 2.6255939554e+00 4.5476621308e+00 
47500 5.4025376824e+00 -3.4817947600e-04 2.6256005945e+00 -4.5476736301e+00 2.6256005945e+00 4.5476736301e+00 
47600 5.4025376868e+00 -3.4751617177e-04 2.6256072250e+00 -4.5476851144e+00 2.6256072250e+00 4.5476851144e+00 
47700 5.4025376912e+00 -3.4663685633e-04 2.6256138428e+00 -4.5476965768e+00 2.6256138428e+00 4.5476965768e+00 
47800 5.4025376955e+00 -3.4553604937e-04 2.6256204439e+00 -4.5477080102e+00 2.6256204439e+00 4.5477080102e+00 
47900 5.4025376999e+00 -3.4420951094e-04 2.6256270240e+00 -4.5477194072e+00 2.6256270240e+00 4.5477194072e+00 
48000 5.4025377042e+00 -3.4265422023e-04 2.6256335788e+00 -4.5477307605e+00 2.6256335788e+00 4.5477307605e+00 
48100 5.4025377086e+00 -3.4086835027e-04 2.6256401040e+00 -4.5477420624e+00 2.6256401040e+00 4.5477420624e+00 
48200 5.4025377130e+00 -3.3885123851e-04 2.6256465951e+00 -4.5477533054e+00 2.6256465951e+00 4.5477533054e+00 
48300 5.4025377174e+00 -3.3660335390e-04 2.6256530478e+00 -4.5477644819e+00 2.6256530478e+00 4.5477644819e+00 
48400 5.4025377218e+00 -3.3412626018e-04 2.6256594577e+00 -4.5477755842e+00 2.6256594577e+00 4.5477755842e+00 
48500 5.4025377263e+00 -3.3142257609e-04 2.6256658204e+00 -4.5477866047e+00 2.6256658204e+00 4.5477866047e+00 
48600 5.4025377308e+00 -3.2849593252e-04 2.6256721317e+00 -4.5477975360e+00 2.6256721317e+00 4.5477975360e+00 
48700 5.4025377353e+00 -3.2535092683e-04 2.6256783871e+00 -4.5478083708e+00 2.6256783871e+00 4.5478083708e+00 
48800 5.4025377399e+00 -3.2199307477e-04 2.6256845827e+00 -4.5478191019e+00 2.6256845827e+00 4.5478191019e+00 
48900 5.4025377445e+00 -3.1842876000e-04 2.6256907143e+00 -4.5478297221e+00 2.6256907143e+00 4.5478297221e+00 
49000 5.4025377491e+00 -3.1466518177e-04 2.6256967780e+00 -4.5478402248e+00 2.6256967780e+00 4.5478402248e+00 
49100 5.4025377537e+00 -3.1071030076e-04 2.6257027700e+00 -4.5478506033e+00 2.6257027700e+00 4.5478506033e+00 
49200 5.4025377584e+00 -3.0657278351e-04 2.6257086867e+00 -4.5478608513e+00 2.6257086867e+00 4.5478608513e+00 
49300 5.4025377630e+00 -3.0226194563e-04 2.6257145247e+00 -4.5478709629e+00 2.6257145247e+00 4.5478709629e+00 
49400 5.4025377676e+00 -2.9778769401e-04 2.6257202805e+00 -4.5478809322e+00 2.6257202805e+00 4.5478809322e+00 
49500 5.4025377722e+00 -2.9316046841e-04 2.6257259511e+00 -4.5478907540e+00 2.6257259511e+00 4.5478907540e+00 
49600 5.4025377768e+00 -2.8839118255e-04 2.6257315335e+00 -4.5479004231e+00 2.6257315335e+00 4.5479004231e+00 
49700 5.4025377814e+00 -2.8349116502e-04 2.6257370252e+00 -4.5479099349e+00 2.6257370252e+00 4.5479099349e+00 
49800 5.4025377859e+00 -2.7847210020e-04 2.6257424235e+00 -4.5479192851e+00 2.6257424235e+00 4.5479192851e+00 
49900 5.4025377904e+00 -2.7334596949e-04 2.6257477262e+00 -4.5479284697e+00 2.6257477262e+00 4.5479284697e+00 
50000 5.4025377948e+00 -2.6812499297e-04 2.6257529313e+00 -4.5479374852e+00 2.6257529313e+00 4.5479374852e+00 
50100 5.4025377992e+00 -2.6282157184e-04 2.6257580370e+00 -4.5479463285e+00 2.6257580370e+00 4.5479463285e+00 
50200 5.4025378034e+00 -2.5744823173e-04 2.6257630417e+00 -4.5479549968e+00 2.6257630417e+00 4.5479549968e+00 
50300 5.4025378077e+00 -2.5201756713e-04 2.6257679440e+00 -4.5479634880e+00 2.6257679440e+00 4.5479634880e+00 
50400 5.4025378118e+00 -2.4654218716e-04 2.6257727430e+00 -4.5479717999e+00 2.6257727430e+00 4.5479717999e+00 
50500 5.4025378158e+00 -2.4103466274e-04 2.6257774376e+00 -4.5479799313e+00 2.6257774376e+00 4.5479799313e+00 
50600 5.4025378198e+00 -2.3550747554e-04 2.6257820274e+00 -4.5479878811e+00 2.6257820274e+00 4.5479878811e+00 
50700 5.4025378237e+00 -2.2997296860e-04 2.6257865119e+00 -4.5479956485e+00 2.6257865119e+00 4.5479956485e+00 
50800 5.4025378274e+00 -2.2444329902e-04 2.6257908911e+00 -4.5480032334e+00 2.6257908911e+00 4.5480032334e+00 
50900 5.4025378311e+00 -2.1893039261e-04 2.6257951649e+00 -4.5480106358e+00 2.6257951649e+00 4.5480106358e+00 
51000 5.4025378347e+00 -2.1344590091e-04 2.6257993337e+00 -4.5480178565e+00 2.6257993337e+00 4.5480178565e+00 
51100 5.4025378382e+00 -2.0800116035e-04 2.6258033981e+00 -4.5480248962e+00 2.6258033981e+00 4.5480248962e+00 
51200 5.4025378416e+00 -2.0260715398e-04 2.6258073588e+00 -4.5480317564e+00 2.6258073588e+00 4.5480317564e+00 
51300 5.4025378448e+00 -1.9727447558e-04 2.6258112168e+00 -4.5480384386e+00 2.6258112168e+00 4.5480384386e+00 
51400 5.4025378480e+00 -1.9201329644e-04 2.6258149733e+00 -4.5480449450e+00 2.6258149733e+00 4.5480449450e+00 
51500 5.4025378512e+00 -1.8683333470e-04 2.6258186295e+00 -4.5480512778e+00 2.6258186295e+00 4.5480512778e+00 
51600 5.4025378542e+00 -1.8174382737e-04 2.6258221872e+00 -4.5480574398e+00 2.6258221872e+00 4.5480574398e+00 
51700 5.4025378571e+00 -1.7675350522e-04 2.6258256479e+00 -4.5480634339e+00 2.6258256479e+00 4.5480634339e+00 
51800 5.4025378600e+00 -1.7187057013e-04 2.6258290135e+00 -4.5480692634e+00 2.6258290135e+00 4.5480692634e+00 
51900 5.4025378628e+00 -1.6710267550e-04 2.6258322862e+00 -4.5480749319e+00 2.6258322862e+00 4.5480749319e+00 
52000 5.4025378655e+00 -1.6245690922e-04 2.6258354681e+00 -4.5480804431e+00 2.6258354681e+00 4.5480804431e+00 
52100 5.4025378682e+00 -1.5793977946e-04 2.6258385616e+00 -4.5480858011e+00 2.6258385616e+00 4.5480858011e+00 
52200 5.4025378708e+00 -1.5355720321e-04 2.6258415690e+00 -4.5480910101e+00 2.6258415690e+00 4.5480910101e+00 
52300 5.4025378733e+00 -1.4931449747e-04 2.6258444929e+00 -4.5480960746e+00 2.6258444929e+00 4.5480960746e+00 
52400 5.4025378758e+00 -1.4521637317e-04 2.6258473361e+00 -4.5481009991e+00 2.6258473361e+00 4.5481009991e+00 
52500 5.4025378783e+00 -1.4126693162e-04 2.6258501013e+00 -4.5481057884e+00 2.6258501013e+00 4.5481057884e+00 
52600 5.4025378807e+00 -1.3746966361e-04 2.6258527912e+00 -4.5481104475e+00 2.6258527912e+00 4.5481104475e+00 
52700 5.4025378831e+00 -1.3382745090e-04 2.6258554088e+00 -4.5481149814e+00 2.6258554088e+00 4.5481149814e+00 
52800 5.4025378855e+00 -1.3034257023e-04 2.6258579571e+00 -4.5481193951e+00 2.6258579571e+00 4.5481193951e+00 
52900 5.4025378878e+00 -1.2701669955e-04 2.6258604390e+00 -4.5481236939e+00 2.6258604390e+00 4.5481236939e+00 
53000 5.4025378901e+00 -1.2385092658e-04 2.6258628575e+00 -4.5481278830e+00 2.6258628575e+00 4.5481278830e+00 
53100 5.4025378924e+00 -1.2084575945e-04 2.6258652158e+00 -4.5481319677e+00 2.6258652158e+00 4.5481319677e+00 
53200 5.4025378946e+00 -1.1800113947e-04 2.6258675169e+00 -4.5481359532e+00 2.6258675169e+00 4.5481359532e+00 
53300 5.4025378969e+00 -1.1531645573e-04 2.6258697638e+00 -4.5481398450e+00 2.6258697638e+00 4.5481398450e+00 
53400 5.4025378991e+00 -1.1279056161e-04 2.6258719596e+00 -4.5481436482e+00 2.6258719596e+00 4.5481436482e+00 
53500 5.4025379014e+00 -1.1042179294e-04 2.6258741073e+00 -4.5481473680e+00 2.6258741073e+00 4.5481473680e+00 
53600 5.4025379036e+00 -1.0820798782e-04 2.6258762098e+00 -4.5481510098e+00 2.6258762098e+00 4.5481510098e+00 
53700 5.4025379058e+00 -1.0614650782e-04 2.6258782702e+00 -4.5481545786e+00 2.6258782702e+00 4.5481545786e+00 
53800 5.4025379080e+00 -1.0423426059e-04 2.6258802914e+00 -4.5481580793e+00 2.6258802914e+00 4.5481580793e+00 
53900 5.4025379102e+00 -1.0246772365e-04 2.6258822762e+00 -4.5481615170e+00 2.6258822762e+00 4.5481615170e+00 
54000 5.4025379123e+00 -1.0084296929e-04 2.6258842273e+00 -4.5481648964e+00 2.6258842273e+00 4.5481648964e+00 
54100 5.4025379145e+00 -9.9355690392e-05 2.6258861474e+00 -4.5481682223e+00 2.6258861474e+00 4.5481682223e+00 
54200 5.4025379167e+00 -9.8001227105e-05 2.6258880393e+00 -4.5481714990e+00 2.6258880393e+00 4.5481714990e+00 
54300 5.4025379188e+00 -9.6774594230e-05 2.6258899053e+00 -4.5481747311e+00 2.6258899053e+00 4.5481747311e+00 
54400 5.4025379209e+00 -9.5670509130e-05 2.6258917480e+00 -4.5481779228e+00 2.6258917480e+00 4.5481779228e+00 
54500 5.4025379230e+00 -9.4683420122e-05 2.6258935697e+00 -4.5481810780e+00 2.6258935697e+00 4.5481810780e+00 
54600 5.4025379251e+00 -9.3807535169e-05 2.6258953726e+00 -4.5481842007e+00 2.6258953726e+00 4.5481842007e+00 
54700 5.4025379272e+00 -9.3036850762e-05 2.6258971588e+00 -4.5481872945e+00 2.6258971588e+00 4.5481872945e+00 
54800 5.4025379292e+00 -9.2365180895e-05 2.6258989303e+00 -4.5481903629e+00 2.6258989303e+00 4.5481903629e+00 
54900 5.4025379312e+00 -9.1786185951e-05 2.6259006891e+00 -4.5481934091e+00 2.6259006891e+00 4.5481934091e+00 
55000 5.4025379332e+00 -9.1293401483e-05 2.6259024368e+00 -4.5481964362e+00 2.6259024368e+00 4.5481964362e+00 
55100 5.4025379352e+00 -9.0880266671e-05 2.6259041751e+00 -4.5481994471e+00 2.6259041751e+00 4.5481994471e+00 
55200 5.4025379371e+00 -9.0540152452e-05 2.6259059056e+00 -4.5482024443e+00 2.6259059056e+00 4.5482024443e+00 
55300 5.4025379390e+00 -9.0266389138e-05 2.6259076295e+00 -4.5482054303e+00 2.6259076295e+00 4.5482054303e+00 
55400 5.4025379409e+00 -9.0052293451e-05 2.6259093483e+00 -4.5482084073e+00 2.6259093483e+00 4.5482084073e+00 
55500 5.4025379428e+00 -8.9891194931e-05 2.6259110630e+00 -4.5482113773e+00 2.6259110630e+00 4.5482113773e+00 
55600 5.4025379446e+00 -8.9776461528e-05 2.6259127746e+00 -4.5482143419e+00 2.6259127746e+00 4.5482143419e+00 
55700 5.4025379464e+00 -8.9701524423e-05 2.6259144840e+00 -4.5482173027e+00 2.6259144840e+00 4.5482173027e+00 
55800 5.4025379481e+00 -8.9659901871e-05 2.6259161920e+00 -4.5482202610e+00 2.6259161920e+00 4.5482202610e+00 
55900 5.4025379498e+00 -8.9645222112e-05 2.6259178993e+00 -4.5482232180e+00 2.6259178993e+00 4.5482232180e+00 
56000 5.4025379515e+00 -8.9651245200e-05 2.6259196062e+00 -4.5482261745e+00 2.6259196062e+00 4.5482261745e+00 
56100 5.4025379531e+00 -8.9671883723e-05 2.6259213132e+00 -4.5482291312e+00 2.6259213132e+00 4.5482291312e+00 
56200 5.4025379548e+00 -8.9701222392e-05 2.6259230207e+00 -4.5482320886e+00 2.6259230207e+00 4.5482320886e+00 
56300 5.4025379563e+00 -8.9733536390e-05 2.6259247287e+00 -4.5482350469e+00 2.6259247287e+00 4.5482350469e+00 
56400 5.4025379579e+00 -8.9763308480e-05 2.6259264373e+00 -4.5482380063e+00 2.6259264373e+00 4.5482380063e+00 
56500 5.4025379594e+00 -8.9785244852e-05 2.6259281465e+00 -4.5482409667e+00 2.6259281465e+00 4.5482409667e+00 
56600 5.4025379608e+00 -8.9794289628e-05 2.6259298560e+00 -4.5482439278e+00 2.6259298560e+00 4.5482439278e+00 
56700 5.4025379623e+00 -8.9785638066e-05 2.6259315658e+00 -4.5482468892e+00 2.6259315658e+00 4.5482468892e+00 
56800 5.4025379637e+00 -8.9754748369e-05 2.6259332754e+00 -4.5482498503e+00 2.6259332754e+00 4.5482498503e+00 
56900 5.4025379651e+00 -8.9697352175e-05 2.6259349844e+00 -4.5482528104e+00 2.6259349844e+00 4.5482528104e+00 
57000 5.4025379664e+00 -8.9609463681e-05 2.6259366923e+00 -4.5482557686e+00 2.6259366923e+00 4.5482557686e+00 
57100 5.4025379677e+00 -8.9487387349e-05 2.6259383986e+00 -4.5482587238e+00 2.6259383986e+00 4.5482587238e+00 
57200 5.4025379690e+00 -8.9327724325e-05 2.6259401025e+00 -4.5482616751e+00 2.6259401025e+00 4.5482616751e+00 
57300 5.4025379703e+00 -8.9127377456e-05 2.6259418033e+00 -4.5482646211e+00 2.6259418033e+00 4.5482646211e+00 
57400 5.4025379716e+00 -8.8883554993e-05 2.6259435004e+00 -4.5482675605e+00 2.6259435004e+00 4.5482675605e+00 
57500 5.4025379728e+00 -8.8593772993e-05 2.6259451928e+00 -4.5482704918e+00 2.6259451928e+00 4.5482704918e+00 
57600 5.4025379740e+00 -8.8255856409e-05 2.6259468797e+00 -4.5482734136e+00 2.6259468797e+00 4.5482734136e+00 
57700 5.4025379752e+00 -8.7867938961e-05 2.6259485602e+00 -4.5482763243e+00 2.6259485602e+00 4.5482763243e+00 
57800 5.4025379764e+00 -8.7428461757e-05 2.6259502332e+00 -4.5482792221e+00 2.6259502332e+00 4.5482792221e+00 
57900 5.4025379775e+00 -8.6936170735e-05 2.6259518979e+00 -4.5482821055e+00 2.6259518979e+00 4.5482821055e+00 
58000 5.4025379787e+00 -8.6390112981e-05 2.6259535533e+00 -4.5482849726e+00 2.6259535533e+00 4.5482849726e+00 
58100 5.4025379798e+00 -8.5789631935e-05 2.6259551982e+00 -4.5482878217e+00 2.6259551982e+00 4.5482878217e+00 
58200 5.4025379809e+00 -8.5134361554e-05 2.6259568317e+00 -4.5482906510e+00 2.6259568317e+00 4.5482906510e+00 
58300 5.4025379820e+00 -8.4424219485e-05 2.6259584527e+00 -4.5482934586e+00 2.6259584527e+00 4.5482934586e+00 
58400 5.4025379831e+00 -8.3659399291e-05 2.6259600602e+00 -4.5482962429e+00 2.6259600602e+00 4.5482962429e+00 
58500 5.4025379842e+00 -8.2840361781e-05 2.6259616531e+00 -4.5482990019e+00 2.6259616531e+00 4.5482990019e+00 
58600 5.4025379852e+00 -8.1967825552e-05 2.6259632305e+00 -4.5483017340e+00 2.6259632305e+00 4.5483017340e+00 
58700 5.4025379863e+00 -8.1042756688e-05 2.6259647912e+00 -4.5483044372e+00 2.6259647912e+00 4.5483044372e+00 
58800 5.4025379873e+00 -8.0066357844e-05 2.6259663343e+00 -4.5483071099e+00 2.6259663343e+00 4.5483071099e+00 
58900 5.4025379883e+00 -7.9040056614e-05 2.6259678588e+00 -4.5483097505e+00 2.6259678588e+00 4.5483097505e+00 
59000 5.4025379893e+00 -7.7965493352e-05 2.6259693638e+00 -4.5483123572e+00 2.6259693638e+00 4.5483123572e+00 
59100 5.4025379903e+00 -7.6844508460e-05 2.6259708483e+00 -4.5483149284e+00 2.6259708483e+00 4.5483149284e+00 
59200 5.4025379913e+00 -7.5679129250e-05 2.6259723114e+00 -4.5483174627e+00 2.6259723114e+00 4.5483174627e+00 
59300 5.4025379923e+00 -7.4471556364e-05 2.6259737524e+00 -4.5483199585e+00 2.6259737524e+00 4.5483199585e+00 
59400 5.4025379933e+00 -7.3224149950e-05 2.6259751704e+00 -4.5483224145e+00 2.6259751704e+00 4.5483224145e+00 
59500 5.4025379942e+00 -7.1939415492e-05 2.6259765646e+00 -4.5483248294e+00 2.6259765646e+00 4.5483248294e+00 
59600 5.4025379952e+00 -7.0619989493e-05 2.6259779344e+00 -4.5483272019e+00 2.6259779344e+00 4.5483272019e+00 
59700 5.4025379962e+00 -6.9687321225e-05 2.6259779344e+00 -4.5483272019e+00 2.6259779344e+00 4.5483272019e+00 
59800 5.4025379972e+00 -6.8724629688e-05 2.6259779344e+00 -4.5483272019e+00 2.6259779344e+00 4.5483272019e+00 
59900 5.4025379982e+00 -6.7735562790e-05 2.6259779344e+00 -4.5483272019e+00 2.6259779344e+00 4.5483272019e+00 
60000 5.4025379991e+00 -6.6723820678e-05 2.6259779344e+00 -4.5483272019e+00 2.6259779344e+00 4.5483272019e+00 
60100 5.4025380000e+00 -6.5693134249e-05 2.6259779344e+00 -4.5483272019e+00 2.6259779344e+00 4.5483272019e+00 
60200 5.4025380010e+00 -6.4647244662e-05 2.6259779344e+00 -4.5483272019e+00 2.6259779344e+00 4.5483272019e+00 
60300 5.4025380019e+00 -6.3589883872e-05 2.6259779344e+00 -4.5483272019e+00 2.6259779344e+00 4.5483272019e+00 
60400 5.4025380027e+00 -6.2524756217e-05 2.6259779344e+00 -4.5483272019e+00 2.6259779344e+00 4.5483272019e+00 
60500 5.4025380036e+00 -6.1455521018e-05 2.6259779344e+00 -4.5483272019e+00 2.6259779344e+00 4.5483272019e+00 
60600 5.4025380044e+00 -6.0385776219e-05 2.6259779344e+00 -4.5483272019e+00 2.6259779344e+00 4.5483272019e+00 
60700 5.4025380053e+00 -5.9319043075e-05 2.6259779344e+00 -4.5483272019e+00 2.6259779344e+00 4.5483272019e+00 
60800 5.4025380061e+00 -5.8258751865e-05 2.6259779344e+00 -4.5483272019e+00 2.6259779344e+00 4.5483272019e+00 
60900 5.4025380069e+00 -5.7208228669e-05 2.6259779344e+00 -4.5483272019e+00 2.6259779344e+00 4.5483272019e+00 
61000 5.4025380076e+00 -5.6170683166e-05 2.6259779344e+00 -4.5483272019e+00 2.6259779344e+00 4.5483272019e+00 
61100 5.4025380084e+00 -5.5149197469e-05 2.6259779344e+00 -4.5483272019e+00 2.6259779344e+00 4.5483272019e+00 
61200 5.4025380091e+00 -5.4146716002e-05 2.6259779344e+00 -4.5483272019e+00 2.6259779344e+00 4.5483272019e+00 
61300 5.4025380099e+00 -5.3166036382e-05 2.6259779344e+00 -4.5483272019e+00 2.6259779344e+00 4.5483272019e+00 
61400 5.4025380106e+00 -5.2209801337e-05 2.6259779344e+00 -4.5483272019e+00 2.6259779344e+00 4.5483272019e+00 
61500 5.4025380113e+00 -5.1280491616e-05 2.6259779344e+00 -4.5483272019e+00 2.6259779344e+00 4.5483272019e+00 
61600 5.4025380119e+00 -5.0380419872e-05 2.6259779344e+00 -4.5483272019e+00 2.6259779344e+00 4.5483272019e+00 
61700 5.4025380126e+00 -4.9511725534e-05 2.6259779344e+00 -4.5483272019e+00 2.6259779344e+00 4.5483272019e+00 
61800 5.4025380133e+00 -4.8676370626e-05 2.6259779344e+00 -4.5483272019e+00 2.6259779344e+00 4.5483272019e+00 
61900 5.4025380139e+00 -4.7876136500e-05 2.6259779344e+00 -4.5483272019e+00 2.6259779344e+00 4.5483272019e+00 
62000 5.4025380145e+00 -4.7112621498e-05 2.6259779344e+00 -4.5483272019e+00 2.6259779344e+00 4.5483272019e+00 
62100 5.4025380152e+00 -4.6387239472e-05 2.6259779344e+00 -4.5483272019e+00 2.6259779344e+00 4.5483272019e+00 
62200 5.4025380158e+00 -4.5701219177e-05 2.6259779344e+00 -4.5483272019e+00 2.6259779344e+00 4.5483272019e+00 
62300 5.4025380164e+00 -4.5055604468e-05 2.6259779344e+00 -4.5483272019e+00 2.6259779344e+00 4.5483272019e+00 
62400 5.4025380170e+00 -4.4451255288e-05 2.6259779344e+00 -4.5483272019e+00 2.6259779344e+00 4.5483272019e+00 
62500 5.4025380175e+00 -4.3888849428e-05 2.6259779344e+00 -4.5483272019e+00 2.6259779344e+00 4.5483272019e+00 
62600 5.4025380181e+00 -4.3368884994e-05 2.6259779344e+00 -4.5483272019e+00 2.6259779344e+00 4.5483272019e+00 
62700 5.4025380187e+00 -4.2891683554e-05 2.6259779344e+00 -4.5483272019e+00 2.6259779344e+00 4.5483272019e+00 
62800 5.4025380192e+00 -4.2457393951e-05 2.6259779344e+00 -4.5483272019e+00 2.6259779344e+00 4.5483272019e+00 
62900 5.4025380198e+00 -4.2065996716e-05 2.6259779344e+00 -4.5483272019e+00 2.6259779344e+00 4.5483272019e+00 
63000 5.4025380203e+00 -4.1717309049e-05 2.6259779344e+00 -4.5483272019e+00 2.6259779344e+00 4.5483272019e+00 
63100 5.4025380209e+00 -4.1410990307e-05 2.6259779344e+00 -4.5483272019e+00 2.6259779344e+00 4.5483272019e+00 
63200 5.4025380214e+00 -4.1146548028e-05 2.6259779344e+00 -4.5483272019e+00 2.6259779344e+00 4.5483272019e+00 
63300 5.4025380219e+00 -4.0923344344e-05 2.6259779344e+00 -4.5483272019e+00 2.6259779344e+00 4.5483272019e+00 
63400 5.4025380224e+00 -4.0740602847e-05 2.6259779344e+00 -4.5483272019e+00 2.6259779344e+00 4.5483272019e+00 
63500 5.4025380229e+00 -4.0597415769e-05 2.6259779344e+00 -4.5483272019e+00 2.6259779344e+00 4.5483272019e+00 
63600 5.4025380234e+00 -4.0492751523e-05 2.6259779344e+00 -4.5483272019e+00 2.6259779344e+00 4.5483272019e+00 
63700 5.4025380239e+00 -4.0425462491e-05 2.6259779344e+00 -4.5483272019e+00 2.6259779344e+00 4.5483272019e+00 
63800 5.4025380244e+00 -4.0394293061e-05 2.6259779344e+00 -4.5483272019e+00 2.6259779344e+00 4.5483272019e+00 
63900 5.4025380249e+00 -4.0397887860e-05 2.6259779344e+00 -4.5483272019e+00 2.6259779344e+00 4.5483272019e+00 
64000 5.4025380254e+00 -4.0434800124e-05 2.6259779344e+00 -4.5483272019e+00 2.6259779344e+00 4.5483272019e+00 
64100 5.4025380259e+00 -4.0503500210e-05 2.6259779344e+00 -4.5483272019e+00 2.6259779344e+00 4.5483272019e+00 
64200 5.4025380263e+00 -4.0602384159e-05 2.6259779344e+00 -4.5483272019e+00 2.6259779344e+00 4.5483272019e+00 
64300 5.4025380268e+00 -4.0729782299e-05 2.6259779344e+00 -4.5483272019e+00 2.6259779344e+00 4.5483272019e+00 
64400 5.4025380272e+00 -4.0883967869e-05 2.6259779344e+00 -4.5483272019e+00 2.6259779344e+00 4.5483272019e+00 
64500 5.4025380277e+00 -4.1063165581e-05 2.6259779344e+00 -4.5483272019e+00 2.6259779344e+00 4.5483272019e+00 
64600 5.4025380281e+00 -4.1265560127e-05 2.6259779344e+00 -4.5483272019e+00 2.6259779344e+00 4.5483272019e+00 
64700 5.4025380285e+00 -4.1489304591e-05 2.6259779344e+00 -4.5483272019e+00 2.6259779344e+00 4.5483272019e+00 
64800 5.4025380290e+00 -4.1732528709e-05 2.6259779344e+00 -4.5483272019e+00 2.6259779344e+00 4.5483272019e+00 
64900 5.4025380294e+00 -4.1993346990e-05 2.6259779344e+00 -4.5483272019e+00 2.6259779344e+00 4.5483272019e+00 
65000 5.4025380298e+00 -4.2269866614e-05 2.6259779344e+00 -4.5483272019e+00 2.6259779344e+00 4.5483272019e+00 
65100 5.4025380302e+00 -4.2560195160e-05 2.6259779344e+00 -4.5483272019e+00 2.6259779344e+00 4.5483272019e+00 
65200 5.4025380306e+00 -4.2862448033e-05 2.6259779344e+00 -4.5483272019e+00 2.6259779344e+00 4.5483272019e+00 
65300 5.4025380310e+00 -4.3174755688e-05 2.6259779344e+00 -4.5483272019e+00 2.6259779344e+00 4.5483272019e+00 
65400 5.4025380314e+00 -4.3495270518e-05 2.6259779344e+00 -4.5483272019e+00 2.6259779344e+00 4.5483272019e+00 
65500 5.4025380317e+00 -4.3822173475e-05 2.6259779344e+00 -4.5483272019e+00 2.6259779344e+00 4.5483272019e+00 
65600 5.4025380321e+00 -4.4153680347e-05 2.6259779344e+00 -4.5483272019e+00 2.6259779344e+00 4.5483272019e+00 
65700 5.4025380325e+00 -4.4488047702e-05 2.6259779344e+00 -4.5483272019e+00 2.6259779344e+00 4.5483272019e+00 
65800 5.4025380328e+00 -4.4823578495e-05 2.6259779344e+00 -4.5483272019e+00 2.6259779344e+00 4.5483272019e+00 
65900 5.4025380332e+00 -4.5158627291e-05 2.6259779344e+00 -4.5483272019e+00 2.6259779344e+00 4.5483272019e+00 
66000 5.4025380335e+00 -4.5491605128e-05 2.6259779344e+00 -4.5483272019e+00 2.6259779344e+00 4.5483272019e+00 
66100 5.4025380338e+00 -4.5820984016e-05 2.6259779344e+00 -4.5483272019e+00 2.6259779344e+00 4.5483272019e+00 
66200 5.4025380342e+00 -4.6145301022e-05 2.6259779344e+00 -4.5483272019e+00 2.6259779344e+00 4.5483272019e+00 
66300 5.4025380345e+00 -4.6463161972e-05 2.6259779344e+00 -4.5483272019e+00 2.6259779344e+00 4.5483272019e+00 
66400 5.4025380348e+00 -4.6773244785e-05 2.6259779344e+00 -4.5483272019e+00 2.6259779344e+00 4.5483272019e+00 
66500 5.4025380351e+00 -4.7074302378e-05 2.6259779344e+00 -4.5483272019e+00 2.6259779344e+00 4.5483272019e+00 
66600 5.4025380354e+00 -4.7365165206e-05 2.6259779344e+00 -4.5483272019e+00 2.6259779344e+00 4.5483272019e+00 
66700 5.4025380357e+00 -4.7644743381e-05 2.6259779344e+00 -4.5483272019e+00 2.6259779344e+00 4.5483272019e+00 
66800 5.4025380360e+00 -4.7912028450e-05 2.6259779344e+00 -4.5483272019e+00 2.6259779344e+00 4.5483272019e+00 
66900 5.4025380363e+00 -4.8166094745e-05 2.6259779344e+00 -4.5483272019e+00 2.6259779344e+00 4.5483272019e+00 
67000 5.4025380366e+00 -4.8406100384e-05 2.6259779344e+00 -4.5483272019e+00 2.6259779344e+00 4.5483272019e+00 
67100 5.4025380369e+00 -4.8631287897e-05 2.6259779344e+00 -4.5483272019e+00 2.6259779344e+00 4.5483272019e+00 
67200 5.4025380371e+00 -4.8840984503e-05 2.6259779344e+00 -4.5483272019e+00 2.6259779344e+00 4.5483272019e+00 
67300 5.4025380374e+00 -4.9034602017e-05 2.6259779344e+00 -4.5483272019e+00 2.6259779344e+00 4.5483272019e+00 
67400 5.4025380377e+00 -4.9211636450e-05 2.6259779344e+00 -4.5483272019e+00 2.6259779344e+00 4.5483272019e+00 
67500 5.4025380379e+00 -4.9371667267e-05 2.6259779344e+00 -4.5483272019e+00 2.6259779344e+00 4.5483272019e+00 
67600 5.4025380382e+00 -4.9514356343e-05 2.6259779344e+00 -4.5483272019e+00 2.6259779344e+00 4.5483272019e+00 
67700 5.4025380385e+00 -4.9639446610e-05 2.6259779344e+00 -4.5483272019e+00 2.6259779344e+00 4.5483272019e+00 
67800 5.4025380387e+00 -4.9746760446e-05 2.6259779344e+00 -4.5483272019e+00 2.6259779344e+00 4.5483272019e+00 
67900 5.4025380390e+00 -4.9836197769e-05 2.6259779344e+00 -4.5483272019e+00 2.6259779344e+00 4.5483272019e+00 
68000 5.4025380392e+00 -4.9907733909e-05 2.6259779344e+00 -4.5483272019e+00 2.6259779344e+00 4.5483272019e+00 
68100 5.4025380394e+00 -4.9961417228e-05 2.6259779344e+00 -4.5483272019e+00 2.6259779344e+00 4.5483272019e+00 
68200 5.4025380397e+00 -4.9997366539e-05 2.6259779344e+00 -4.5483272019e+00 2.6259779344e+00 4.5483272019e+00 
68300 5.4025380399e+00 -5.0015768310e-05 2.6259779344e+00 -4.5483272019e+00 2.6259779344e+00 4.5483272019e+00 
68400 5.4025380401e+00 -5.0016873702e-05 2.6259779344e+00 -4.5483272019e+00 2.6259779344e+00 4.5483272019e+00 
68500 5.4025380404e+00 -5.0000995436e-05 2.6259779344e+00 -4.5483272019e+00 2.6259779344e+00 4.5483272019e+00 
68600 5.4025380406e+00 -4.9968504519e-05 2.6259779344e+00 -4.5483272019e+00 2.6259779344e+00 4.5483272019e+00 
68700 5.4025380408e+00 -4.9919826838e-05 2.6259779344e+00 -4.5483272019e+00 2.6259779344e+00 4.5483272019e+00 
68800 5.4025380410e+00 -4.9855439649e-05 2.6259779344e+00 -4.5483272019e+00 2.6259779344e+00 4.5483272019e+00 
68900 5.4025380412e+00 -4.9775867978e-05 2.6259779344e+00 -4.5483272019e+00 2.6259779344e+00 4.5483272019e+00 
69000 5.4025380414e+00 -4.9681680930e-05 2.6259779344e+00 -4.5483272019e+00 2.6259779344e+00 4.5483272019e+00 
69100 5.4025380416e+00 -4.9573487968e-05 2.6259779344e+00 -4.5483272019e+00 2.6259779344e+00 4.5483272019e+00 
69200 5.4025380419e+00 -4.9451935124e-05 2.6259779344e+00 -4.5483272019e+00 2.6259779344e+00 4.5483272019e+00 
69300 5.4025380421e+00 -4.9317701213e-05 2.6259779344e+00 -4.5483272019e+00 2.6259779344e+00 4.5483272019e+00 
69400 5.4025380423e+00 -4.9171494022e-05 2.6259779344e+00 -4.5483272019e+00 2.6259779344e+00 4.5483272019e+00 
69500 5.4025380424e+00 -4.9014046502e-05 2.6259779344e+00 -4.5483272019e+00 2.6259779344e+00 4.5483272019e+00 
69600 5.4025380426e+00 -4.8846113006e-05 2.6259779344e+00 -4.5483272019e+00 2.6259779344e+00 4.5483272019e+00 
69700 5.4025380428e+00 -4.8668465549e-05 2.6259779344e+00 -4.5483272019e+00 2.6259779344e+00 4.5483272019e+00 
69800 5.4025380430e+00 -4.8481890119e-05 2.6259779344e+00 -4.5483272019e+00 2.6259779344e+00 4.5483272019e+00 
69900 5.4025380432e+00 -4.8287183055e-05 2.6259779344e+00 -4.5483272019e+00 2.6259779344e+00 4.5483272019e+00 
70000 5.4025380434e+00 -4.8085147509e-05 2.6259779344e+00 -4.5483272019e+00 2.6259779344e+00 4.5483272019e+00 
70100 5.4025380436e+00 -4.7876589991e-05 2.6259779344e+00 -4.5483272019e+00 2.6259779344e+00 4.5483272019e+00 
70200 5.4025380437e+00 -4.7662317007e-05 2.6259779344e+00 -4.5483272019e+00 2.6259779344e+00 4.5483272019e+00 
70300 5.4025380439e+00 -4.7443131818e-05 2.6259779344e+00 -4.5483272019e+00 2.6259779344e+00 4.5483272019e+00 
70400 5.4025380441e+00 -4.7219831326e-05 2.6259779344e+00 -4.5483272019e+00 2.6259779344e+00 4.5483272019e+00 
70500 5.4025380442e+00 -4.6993203058e-05 2.6259779344e+00 -4.5483272019e+00 2.6259779344e+00 4.5483272019e+00 
70600 5.4025380444e+00 -4.6764022332e-05 2.6259779344e+00 -4.5483272019e+00 2.6259779344e+00 4.5483272019e+00 
70700 5.4025380446e+00 -4.6533049518e-05 2.6259779344e+00 -4.5483272019e+00 2.6259779344e+00 4.5483272019e+00 
70800 5.4025380447e+00 -4.6301027492e-05 2.6259779344e+00 -4.5483272019e+00 2.6259779344e+00 4.5483272019e+00 
70900 5.4025380449e+00 -4.6068679214e-05 2.6259779344e+00 -4.5483272019e+00 2.6259779344e+00 4.5483272019e+00 
71000 5.4025380450e+00 -4.5836705479e-05 2.6259779344e+00 -4.5483272019e+00 2.6259779344e+00 4.5483272019e+00 
71100 5.4025380452e+00 -4.5605782835e-05 2.6259779344e+00 -4.5483272019e+00 2.6259779344e+00 4.5483272019e+00 
71200 5.4025380453e+00 -4.5376561661e-05 2.6259779344e+00 -4.5483272019e+00 2.6259779344e+00 4.5483272019e+00 
71300 5.4025380455e+00 -4.5149664426e-05 2.6259779344e+00 -4.5483272019e+00 2.6259779344e+00 4.5483272019e+00 
71400 5.4025380456e+00 -4.4925684096e-05 2.6259779344e+00 -4.5483272019e+00 2.6259779344e+00 4.5483272019e+00 
71500 5.4025380457e+00 -4.4705182736e-05 2.6259779344e+00 -4.5483272019e+00 2.6259779344e+00 4.5483272019e+00 
71600 5.4025380459e+00 -4.4488690266e-05 2.6259779344e+00 -4.5483272019e+00 2.6259779344e+00 4.5483272019e+00 
71700 5.4025380460e+00 -4.4276703410e-05 2.6259779344e+00 -4.5483272019e+00 2.6259779344e+00 4.5483272019e+00 
71800 5.4025380462e+00 -4.4069684795e-05 2.6259779344e+00 -4.5483272019e+00 2.6259779344e+00 4.5483272019e+00 
71900 5.4025380463e+00 -4.3868062213e-05 2.6259779344e+00 -4.5483272019e+00 2.6259779344e+00 4.5483272019e+00 
72000 5.4025380464e+00 -4.3672228080e-05 2.6259779344e+00 -4.5483272019e+00 2.6259779344e+00 4.5483272019e+00 
72100 5.4025380465e+00 -4.3482539013e-05 2.6259779344e+00 -4.5483272019e+00 2.6259779344e+00 4.5483272019e+00 
72200 5.4025380467e+00 -4.3299315618e-05 2.6259779344e+00 -4.5483272019e+00 2.6259779344e+00 4.5483272019e+00 
72300 5.4025380468e+00 -4.3122842370e-05 2.6259779344e+00 -4.5483272019e+00 2.6259779344e+00 4.5483272019e+00 
72400 5.4025380469e+00 -4.2953367705e-05 2.6259779344e+00 -4.5483272019e+00 2.6259779344e+00 4.5483272019e+00 
72500 5.4025380470e+00 -4.2791104203e-05 2.6259779344e+00 -4.5483272019e+00 2.6259779344e+00 4.5483272019e+00 
72600 5.4025380471e+00 -4.2636228952e-05 2.6259779344e+00 -4.5483272019e+00 2.6259779344e+00 4.5483272019e+00 
72700 5.4025380473e+00 -4.2488884012e-05 2.6259779344e+00 -4.5483272019e+00 2.6259779344e+00 4.5483272019e+00 
72800 5.4025380474e+00 -4.2349177030e-05 2.6259779344e+00 -4.5483272019e+00 2.6259779344e+00 4.5483272019e+00 
72900 5.4025380475e+00 -4.2217181954e-05 2.6259779344e+00 -4.5483272019e+00 2.6259779344e+00 4.5483272019e+00 
73000 5.4025380476e+00 -4.2092939884e-05 2.6259779344e+00 -4.5483272019e+00 2.6259779344e+00 4.5483272019e+00 
73100 5.4025380477e+00 -4.1976459998e-05 2.6259779344e+00 -4.5483272019e+00 2.6259779344e+00 4.5483272019e+00 
73200 5.4025380478e+00 -4.1867720608e-05 2.6259779344e+00 -4.5483272019e+00 2.6259779344e+00 4.5483272019e+00 
73300 5.4025380479e+00 -4.1766670289e-05 2.6259779344e+00 -4.5483272019e+00 2.6259779344e+00 4.5483272019e+00 
73400 5.4025380480e+00 -4.1673229080e-05 2.6259779344e+00 -4.5483272019e+00 2.6259779344e+00 4.5483272019e+00 
73500 5.4025380481e+00 -4.1587289800e-05 2.6259779344e+00 -4.5483272019e+00 2.6259779344e+00 4.5483272019e+00 
73600 5.4025380482e+00 -4.1508719390e-05 2.6259779344e+00 -4.5483272019e+00 2.6259779344e+00 4.5483272019e+00 
73700 5.4025380483e+00 -4.1437360334e-05 2.6259779344e+00 -4.5483272019e+00 2.6259779344e+00 4.5483272019e+00 
73800 5.4025380484e+00 -4.1373032132e-05 2.6259779344e+00 -4.5483272019e+00 2.6259779344e+00 4.5483272019e+00 
73900 5.4025380485e+00 -4.1315532824e-05 2.6259779344e+00 -4.5483272019e+00 2.6259779344e+00 4.5483272019e+00 
74000 5.4025380486e+00 -4.1264640532e-05 2.6259779344e+00 -4.5483272019e+00 2.6259779344e+00 4.5483272019e+00 
74100 5.4025380487e+00 -4.1220115052e-05 2.6259779344e+00 -4.5483272019e+00 2.6259779344e+00 4.5483272019e+00 
74200 5.4025380488e+00 -4.1181699449e-05 2.6259779344e+00 -4.5483272019e+00 2.6259779344e+00 4.5483272019e+00 
74300 5.4025380489e+00 -4.1149121681e-05 2.6259779344e+00 -4.5483272019e+00 2.6259779344e+00 4.5483272019e+00 
74400 5.4025380490e+00 -4.1122096229e-05 2.6259779344e+00 -4.5483272019e+00 2.6259779344e+00 4.5483272019e+00 
74500 5.4025380491e+00 -4.1100325721e-05 2.6259779344e+00 -4.5483272019e+00 2.6259779344e+00 4.5483272019e+00 
74600 5.4025380492e+00 -4.1083502557e-05 2.6259779344e+00 -4.5483272019e+00 2.6259779344e+00 4.5483272019e+00 
74700 5.4025380493e+00 -4.1071310509e-05 2.6259779344e+00 -4.5483272019e+00 2.6259779344e+00 4.5483272019e+00 
74800 5.4025380493e+00 -4.1063426330e-05 2.6259779344e+00 -4.5483272019e+00 2.6259779344e+00 4.5483272019e+00 
74900 5.4025380494e+00 -4.1059521299e-05 2.6259779344e+00 -4.5483272019e+00 2.6259779344e+00 4.5483272019e+00 
75000 5.4025380495e+00 -4.1059262774e-05 2.6259779344e+00 -4.5483272019e+00 2.6259779344e+00 4.5483272019e+00 
75100 5.4025380496e+00 -4.1062315689e-05 2.6259779344e+00 -4.5483272019e+00 2.6259779344e+00 4.5483272019e+00 
75200 5.4025380497e+00 -4.1068344006e-05 2.6259779344e+00 -4.5483272019e+00 2.6259779344e+00 4.5483272019e+00 
75300 5.4025380497e+00 -4.1077012148e-05 2.6259779344e+00 -4.5483272019e+00 2.6259779344e+00 4.5483272019e+00 
75400 5.4025380498e+00 -4.1087986346e-05 2.6259779344e+00 -4.5483272019e+00 2.6259779344e+00 4.5483272019e+00 
75500 5.4025380499e+00 -4.1100935967e-05 2.6259779344e+00 -4.5483272019e+00 2.6259779344e+00 4.5483272019e+00 
75600 5.4025380500e+00 -4.1115534773e-05 2.6259779344e+00 -4.5483272019e+00 2.6259779344e+00 4.5483272019e+00 
75700 5.4025380500e+00 -4.1131462102e-05 2.6259779344e+00 -4.5483272019e+00 2.6259779344e+00 4.5483272019e+00 
75800 5.4025380501e+00 -4.1148404019e-05 2.6259779344e+00 -4.5483272019e+00 2.6259779344e+00 4.5483272019e+00 
75900 5.4025380502e+00 -4.1166054371e-05 2.6259779344e+00 -4.5483272019e+00 2.6259779344e+00 4.5483272019e+00 
76000 5.4025380503e+00 -4.1184115801e-05 2.6259779344e+00 -4.5483272019e+00 2.6259779344e+00 4.5483272019e+00 
76100 5.4025380503e+00 -4.1202300663e-05 2.6259779344e+00 -4.5483272019e+00 2.6259779344e+00 4.5483272019e+00 
76200 5.4025380504e+00 -4.1220331898e-05 2.6259779344e+00 -4.5483272019e+00 2.6259779344e+00 4.5483272019e+00 
76300 5.4025380505e+00 -4.1237943814e-05 2.6259779344e+00 -4.5483272019e+00 2.6259779344e+00 4.5483272019e+00 
76400 5.4025380505e+00 -4.1254882799e-05 2.6259779344e+00 -4.5483272019e+00 2.6259779344e+00 4.5483272019e+00 
76500 5.4025380506e+00 -4.1270907960e-05 2.6259779344e+00 -4.5483272019e+00 2.6259779344e+00 4.5483272019e+00 
76600 5.4025380507e+00 -4.1285791699e-05 2.6259779344e+00 -4.5483272019e+00 2.6259779344e+00 4.5483272019e+00 
76700 5.4025380507e+00 -4.1299320207e-05 2.6259779344e+00 -4.5483272019e+00 2.6259779344e+00 4.5483272019e+00 
76800 5.4025380508e+00 -4.1311293869e-05 2.6259779344e+00 -4.5483272019e+00 2.6259779344e+00 4.5483272019e+00 
76900 5.4025380509e+00 -4.1321527621e-05 2.6259779344e+00 -4.5483272019e+00 2.6259779344e+00 4.5483272019e+00 
77000 5.4025380509e+00 -4.1329851243e-05 2.6259779344e+00 -4.5483272019e+00 2.6259779344e+00 4.5483272019e+00 
77100 5.4025380510e+00 -4.1336109528e-05 2.6259779344e+00 -4.5483272019e+00 2.6259779344e+00 4.5483272019e+00 
77200 5.4025380510e+00 -4.1340162445e-05 2.6259779344e+00 -4.5483272019e+00 2.6259779344e+00 4.5483272019e+00 
77300 5.4025380511e+00 -4.1341885204e-05 2.6259779344e+00 -4.5483272019e+00 2.6259779344e+00 4.5483272019e+00 
77400 5.4025380511e+00 -4.1341168262e-05 2.6259779344e+00 -4.5483272019e+00 2.6259779344e+00 4.5483272019e+00 
77500 5.4025380512e+00 -4.1337917254e-05 2.6259779344e+00 -4.5483272019e+00 2.6259779344e+00 4.5483272019e+00 
77600 5.4025380513e+00 -4.1332052881e-05 2.6259779344e+00 -4.5483272019e+00 2.6259779344e+00 4.5483272019e+00 
77700 5.4025380513e+00 -4.1323510731e-05 2.6259779344e+00 -4.5483272019e+00 2.6259779344e+00 4.5483272019e+00 
77800 5.4025380514e+00 -4.1312241048e-05 2.6259779344e+00 -4.5483272019e+00 2.6259779344e+00 4.5483272019e+00 
77900 5.4025380514e+00 -4.1298208434e-05 2.6259779344e+00 -4.5483272019e+00 2.6259779344e+00 4.5483272019e+00 
78000 5.4025380515e+00 -4.1281391529e-05 2.6259779344e+00 -4.5483272019e+00 2.6259779344e+00 4.5483272019e+00 
78100 5.4025380515e+00 -4.1261782621e-05 2.6259779344e+00 -4.5483272019e+00 2.6259779344e+00 4.5483272019e+00 
78200 5.4025380516e+00 -4.1239387214e-05 2.6259779344e+00 -4.5483272019e+00 2.6259779344e+00 4.5483272019e+00 
78300 5.4025380516e+00 -4.1214223564e-05 2.6259779344e+00 -4.5483272019e+00 2.6259779344e+00 4.5483272019e+00 
78400 5.4025380517e+00 -4.1186322173e-05 2.6259779344e+00 -4.5483272019e+00 2.6259779344e+00 4.5483272019e+00 
78500 5.4025380517e+00 -4.1155725254e-05 2.6259779344e+00 -4.5483272019e+00 2.6259779344e+00 4.5483272019e+00 
78600 5.4025380518e+00 -4.1122486154e-05 2.6259779344e+00 -4.5483272019e+00 2.6259779344e+00 4.5483272019e+00 
78700 5.4025380518e+00 -4.1089627365e-05 2.6259779344e+00 -4.5483272019e+00 2.6259779344e+00 4.5483272019e+00 
78700 5.4025380518e+00 -4.1089627365e-05 2.6259779344e+00 -4.5483272019e+00 2.6259779344e+00 4.5483272019e+00 
