# step Hamiltonian StressXX CellTensor1 CellTensor2 CellTensor3 CellTensor4 
0 6.2848753777e+00 1.2463027924e-01 2.0436807272e+00 -3.5397588540e+00 2.0436807272e+00 3.5397588540e+00 
100 6.2956090179e+00 1.3103592127e-01 2.0436807272e+00 -3.5397588540e+00 2.0436807272e+00 3.5397588540e+00 
200 6.3036762870e+00 1.3536285588e-01 2.0404756863e+00 -3.5342075602e+00 2.0404756863e+00 3.5342075602e+00 
300 6.3096135162e+00 1.3823447080e-01 2.0371596428e+00 -3.5284640044e+00 2.0371596428e+00 3.5284640044e+00 
400 6.3136394301e+00 1.3977180060e-01 2.0337677624e+00 -3.5225890953e+00 2.0337677624e+00 3.5225890953e+00 
500 6.3160131264e+00 1.4015365594e-01 2.0303324544e+00 -3.5166389672e+00 2.0303324544e+00 3.5166389672e+00 
600 6.3170139736e+00 1.3959684290e-01 2.0268819387e+00 -3.5106624988e+00 2.0268819387e+00 3.5106624988e+00 
700 6.3169201516e+00 1.3833129774e-01 2.0234392802e+00 -3.5046996394e+00 2.0234392802e+00 3.5046996394e+00 
800 6.3159900765e+00 1.3657632378e-01 2.0200220221e+00 -3.4987807747e+00 2.0200220221e+00 3.4987807747e+00 
900 6.3144495479e+00 1.3452277579e-01 2.0166424014e+00 -3.4929270999e+00 2.0166424014e+00 3.4929270999e+00 
1000 6.3124854765e+00 1.3232334618e-01 2.0133080067e+00 -3.4871517590e+00 2.0133080067e+00 3.4871517590e+00 
1100 6.3102453561e+00 1.3009048261e-01 2.0100226850e+00 -3.4814614149e+00 2.0100226850e+00 3.4814614149e+00 
1200 6.3078407348e+00 1.2789985386e-01 2.0067875096e+00 -3.4758579267e+00 2.0067875096e+00 3.4758579267e+00 
1300 6.3053528020e+00 1.2579684933e-01 2.0036016728e+00 -3.4703398954e+00 2.0036016728e+00 3.4703398954e+00 
1400 6.3028385733e+00 1.2380398847e-01 2.0004632259e+00 -3.4649039460e+00 2.0004632259e+00 3.4649039460e+00 
1500 6.3003366915e+00 1.2192783977e-01 1.9973696419e+00 -3.4595457013e+00 1.9973696419e+00 3.4595457013e+00 
1600 6.2978723496e+00 1.2016474759e-01 1.9943182103e+00 -3.4542604666e+00 1.9943182103e+00 3.4542604666e+00 
1700 6.2954611968e+00 1.1850517388e-01 1.9913062925e+00 -3.4490436721e+00 1.9913062925e+00 3.4490436721e+00 
1800 6.2931122850e+00 1.1693675798e-01 1.9883314710e+00 -3.4438911301e+00 1.9883314710e+00 3.4438911301e+00 
1900 6.2908302116e+00 1.1544632863e-01 1.9853916218e+00 -3.4387991620e+00 1.9853916218e+00 3.4387991620e+00 
2000 6.2886166333e+00 1.1402112874e-01 1.9824849381e+00 -3.4337646380e+00 1.9824849381e+00 3.4337646380e+00 
2100 6.2864713100e+00 1.1264948617e-01 1.9796099220e+00 -3.4287849641e+00 1.9796099220e+00 3.4287849641e+00 
2200 6.2843928134e+00 1.1132111689e-01 1.9767653600e+00 -3.4238580382e+00 1.9767653600e+00 3.4238580382e+00 
2300 6.2823789992e+00 1.1002719850e-01 1.9739502902e+00 -3.4189821942e+00 1.9739502902e+00 3.4189821942e+00 
2400 6.2804273182e+00 1.0876031026e-01 1.9711639669e+00 -3.4141561408e+00 1.9711639669e+00 3.4141561408e+00 
2500 6.2785350181e+00 1.0751430381e-01 1.9684058274e+00 -3.4093789030e+00 1.9684058274e+00 3.4093789030e+00 
2600 6.2766992740e+00 1.0628414493e-01 1.9656754604e+00 -3.4046497685e+00 1.9656754604e+00 3.4046497685e+00 
2700 6.2749172694e+00 1.0506575080e-01 1.9629725791e+00 -3.3999682408e+00 1.9629725791e+00 3.3999682408e+00 
2800 6.2731862474e+00 1.0385583622e-01 1.9602969980e+00 -3.3953339985e+00 1.9602969980e+00 3.3953339985e+00 
2900 6.2715035409e+00 1.0265177540e-01 1.9576486132e+00 -3.3907468615e+00 1.9576486132e+00 3.3907468615e+00 
3000 6.2698665892e+00 1.0145148186e-01 1.9550273861e+00 -3.3862067630e+00 1.9550273861e+00 3.3862067630e+00 
3100 6.2682729474e+00 1.0025330642e-01 1.9524333301e+00 -3.3817137262e+00 1.9524333301e+00 3.3817137262e+00 
3200 6.2667202892e+00 9.9055952026e-02 1.9498664997e+00 -3.3772678454e+00 1.9498664997e+00 3.3772678454e+00 
3300 6.2652064071e+00 9.7858403524e-02 1.9473269818e+00 -3.3728692714e+00 1.9473269818e+00 3.3728692714e+00 
3400 6.2637292102e+00 9.6659870388e-02 1.9448148887e+00 -3.3685181986e+00 1.9448148887e+00 3.3685181986e+00 
3500 6.2622867206e+00 9.5459740353e-02 1.9423303526e+00 -3.3642148557e+00 1.9423303526e+00 3.3642148557e+00 
3600 6.2608770695e+00 9.4257542134e-02 1.9398735206e+00 -3.3599594979e+00 1.9398735206e+00 3.3599594979e+00 
3700 6.2594984924e+00 9.3052915641e-02 1.9374445518e+00 -3.3557524006e+00 1.9374445518e+00 3.3557524006e+00 
3800 6.2581493245e+00 9.1845588284e-02 1.9350436143e+00 -3.3515938547e+00 1.9350436143e+00 3.3515938547e+00 
3900 6.2568279958e+00 9.0635356223e-02 1.9326708824e+00 -3.3474841627e+00 1.9326708824e+00 3.3474841627e+00 
4000 6.2555330264e+00 8.9422069588e-02 1.9303265359e+00 -3.3434236353e+00 1.9303265359e+00 3.3434236353e+00 
4100 6.2542630219e+00 8.8205620882e-02 1.9280107576e+00 -3.3394125897e+00 1.9280107576e+00 3.3394125897e+00 
4200 6.2530166689e+00 8.6985935922e-02 1.9257237331e+00 -3.3354513470e+00 1.9257237331e+00 3.3354513470e+00 
4300 6.2517927309e+00 8.5762966787e-02 1.9234656492e+00 -3.3315402311e+00 1.9234656492e+00 3.3315402311e+00 
4400 6.2505900436e+00 8.4536686365e-02 1.9212366939e+00 -3.3276795672e+00 1.9212366939e+00 3.3276795672e+00 
4500 6.2494075117e+00 8.3307084146e-02 1.9190370551e+00 -3.3238696811e+00 1.9190370551e+00 3.3238696811e+00 
4600 6.2482441046e+00 8.2074163004e-02 1.9168669208e+00 -3.3201108983e+00 1.9168669208e+00 3.3201108983e+00 
4700 6.2470988528e+00 8.0837936745e-02 1.9147264783e+00 -3.3164035431e+00 1.9147264783e+00 3.3164035431e+00 
4800 6.2459708447e+00 7.9598428256e-02 1.9126159141e+00 -3.3127479385e+00 1.9126159141e+00 3.3127479385e+00 
4900 6.2448592234e+00 7.8355668110e-02 1.9105354132e+00 -3.3091444054e+00 1.9105354132e+00 3.3091444054e+00 
5000 6.2437631833e+00 7.7109693536e-02 1.9084851598e+00 -3.3055932623e+00 1.9084851598e+00 3.3055932623e+00 
5100 6.2426819672e+00 7.5860547656e-02 1.9064653360e+00 -3.3020948248e+00 1.9064653360e+00 3.3020948248e+00 
5200 6.2416148639e+00 7.4608278921e-02 1.9044761223e+00 -3.2986494056e+00 1.9044761223e+00 3.2986494056e+00 
5300 6.2405612051e+00 7.3352940718e-02 1.9025176972e+00 -3.2952573138e+00 1.9025176972e+00 3.2952573138e+00 
5400 6.2395203630e+00 7.2094591072e-02 1.9005902371e+00 -3.2919188550e+00 1.9005902371e+00 3.2919188550e+00 
5500 6.2384917482e+00 7.0833292443e-02 1.8986939159e+00 -3.2886343304e+00 1.8986939159e+00 3.2886343304e+00 
5600 6.2374748070e+00 6.9569111576e-02 1.8968289054e+00 -3.2854040374e+00 1.8968289054e+00 3.2854040374e+00 
5700 6.2364690196e+00 6.8302119390e-02 1.8949953744e+00 -3.2822282686e+00 1.8949953744e+00 3.2822282686e+00 
5800 6.2354738978e+00 6.7032390895e-02 1.8931934892e+00 -3.2791073119e+00 1.8931934892e+00 3.2791073119e+00 
5900 6.2344889836e+00 6.5760005121e-02 1.8914234130e+00 -3.2760414500e+00 1.8914234130e+00 3.2760414500e+00 
6000 6.2335138466e+00 6.4485045057e-02 1.8896853061e+00 -3.2730309605e+00 1.8896853061e+00 3.2730309605e+00 
6100 6.2325480829e+00 6.3207597581e-02 1.8879793254e+00 -3.2700761153e+00 1.8879793254e+00 3.2700761153e+00 
6200 6.2315913134e+00 6.1927753402e-02 1.8863056247e+00 -3.2671771805e+00 1.8863056247e+00 3.2671771805e+00 
6300 6.2306431817e+00 6.0645606980e-02 1.8846643540e+00 -3.2643344163e+00 1.8846643540e+00 3.2643344163e+00 
6400 6.2297033536e+00 5.9361256446e-02 1.8830556598e+00 -3.2615480762e+00 1.8830556598e+00 3.2615480762e+00 
6500 6.2287715149e+00 5.8074803511e-02 1.8814796849e+00 -3.2588184077e+00 1.8814796849e+00 3.2588184077e+00 
6600 6.2278473703e+00 5.6786353360e-02 1.8799365681e+00 -3.2561456510e+00 1.8799365681e+00 3.2561456510e+00 
6700 6.2269306424e+00 5.5496014542e-02 1.8784264442e+00 -3.2535300397e+00 1.8784264442e+00 3.2535300397e+00 
6800 6.2260210705e+00 5.4203898844e-02 1.8769494437e+00 -3.2509717998e+00 1.8769494437e+00 3.2509717998e+00 
6900 6.2251184091e+00 5.2910121159e-02 1.8755056930e+00 -3.2484711501e+00 1.8755056930e+00 3.2484711501e+00 
7000 6.2242224272e+00 5.1614799337e-02 1.8740953138e+00 -3.2460283017e+00 1.8740953138e+00 3.2460283017e+00 
7100 6.2233329074e+00 5.0318054042e-02 1.8727184235e+00 -3.2436434577e+00 1.8727184235e+00 3.2436434577e+00 
7200 6.2224496447e+00 4.9020008580e-02 1.8713751347e+00 -3.2413168133e+00 1.8713751347e+00 3.2413168133e+00 
7300 6.2215724458e+00 4.7720788743e-02 1.8700655553e+00 -3.2390485552e+00 1.8700655553e+00 3.2390485552e+00 
7400 6.2207011281e+00 4.6420522625e-02 1.8687897883e+00 -3.2368388620e+00 1.8687897883e+00 3.2368388620e+00 
7500 6.2198355191e+00 4.5119340451e-02 1.8675479317e+00 -3.2346879033e+00 1.8675479317e+00 3.2346879033e+00 
7600 6.2189754554e+00 4.3817374388e-02 1.8663400786e+00 -3.2325958403e+00 1.8663400786e+00 3.2325958403e+00 
7700 6.2181207826e+00 4.2514758360e-02 1.8651663166e+00 -3.2305628250e+00 1.8651663166e+00 3.2305628250e+00 
7800 6.2172713537e+00 4.1211627862e-02 1.8640267286e+00 -3.2285890005e+00 1.8640267286e+00 3.2285890005e+00 
7900 6.2164270293e+00 3.9908119763e-02 1.8629213916e+00 -3.2266745008e+00 1.8629213916e+00 3.2266745008e+00 
8000 6.2155876767e+00 3.8604372120e-02 1.8618503777e+00 -3.2248194503e+00 1.8618503777e+00 3.2248194503e+00 
8100 6.2147531693e+00 3.7300523982e-02 1.8608137534e+00 -3.2230239644e+00 1.8608137534e+00 3.2230239644e+00 
8200 6.2139233861e+00 3.5996715202e-02 1.8598115797e+00 -3.2212881485e+00 1.8598115797e+00 3.2212881485e+00 
8300 6.2130982114e+00 3.4693086249e-02 1.8588439120e+00 -3.2196120989e+00 1.8588439120e+00 3.2196120989e+00 
8400 6.2122775339e+00 3.3389778017e-02 1.8579108002e+00 -3.2179959019e+00 1.8579108002e+00 3.2179959019e+00 
8500 6.2114612468e+00 3.2086931648e-02 1.8570122887e+00 -3.2164396343e+00 1.8570122887e+00 3.2164396343e+00 
8600 6.2106492472e+00 3.0784688345e-02 1.8561484161e+00 -3.2149433630e+00 1.8561484161e+00 3.2149433630e+00 
8700 6.2098414354e+00 2.9483189205e-02 1.8553192153e+00 -3.2135071451e+00 1.8553192153e+00 3.2135071451e+00 
8800 6.2090377149e+00 2.8182575040e-02 1.8545247136e+00 -3.2121310279e+00 1.8545247136e+00 3.2121310279e+00 
8900 6.2082379921e+00 2.6882986219e-02 1.8537649327e+00 -3.2108150487e+00 1.8537649327e+00 3.2108150487e+00 
9000 6.2074421758e+00 2.5584562507e-02 1.8530398884e+00 -3.2095592352e+00 1.8530398884e+00 3.2095592352e+00 
9100 6.2066501768e+00 2.4287442912e-02 1.8523495910e+00 -3.2083636050e+00 1.8523495910e+00 3.2083636050e+00 
9200 6.2058619079e+00 2.2991765541e-02 1.8516940449e+00 -3.2072281659e+00 1.8516940449e+00 3.2072281659e+00 
9300 6.2050772834e+00 2.1697667462e-02 1.8510732490e+00 -3.2061529159e+00 1.8510732490e+00 3.2061529159e+00 
9400 6.2042962192e+00 2.0405284574e-02 1.8504871965e+00 -3.2051378432e+00 1.8504871965e+00 3.2051378432e+00 
9500 6.2035186321e+00 1.9114751486e-02 1.8499358750e+00 -3.2041829262e+00 1.8499358750e+00 3.2041829262e+00 
9600 6.2027444399e+00 1.7826201402e-02 1.8494192662e+00 -3.2032881335e+00 1.8494192662e+00 3.2032881335e+00 
9700 6.2019735611e+00 1.6539766015e-02 1.8489373466e+00 -3.2024534244e+00 1.8489373466e+00 3.2024534244e+00 
9800 6.2012059148e+00 1.5255575417e-02 1.8484900870e+00 -3.2016787480e+00 1.8484900870e+00 3.2016787480e+00 
9900 6.2004414204e+00 1.3973758006e-02 1.8480774527e+00 -3.2009640445e+00 1.8480774527e+00 3.2009640445e+00 
10000 6.1996799976e+00 1.2694440411e-02 1.8476994036e+00 -3.2003092442e+00 1.8476994036e+00 3.2003092442e+00 
10100 6.1989215660e+00 1.1417747423e-02 1.8473558941e+00 -3.1997142682e+00 1.8473558941e+00 3.1997142682e+00 
10200 6.1981660452e+00 1.0143801939e-02 1.8470468733e+00 -3.1991790284e+00 1.8470468733e+00 3.1991790284e+00 
10300 6.1974133545e+00 8.8727249114e-03 1.8467722849e+00 -3.1987034275e+00 1.8467722849e+00 3.1987034275e+00 
10400 6.1966634131e+00 7.6046353075e-03 1.8465320676e+00 -3.1982873590e+00 1.8465320676e+00 3.1982873590e+00 
10500 6.1959161395e+00 6.3396500822e-03 1.8463261548e+00 -3.1979307074e+00 1.8463261548e+00 3.1979307074e+00 
10600 6.1951714517e+00 5.0778841566e-03 1.8461544746e+00 -3.1976333486e+00 1.8461544746e+00 3.1976333486e+00 
10700 6.1944292672e+00 3.8194504084e-03 1.8460169503e+00 -3.1973951496e+00 1.8460169503e+00 3.1973951496e+00 
10800 6.1936895025e+00 2.5644596709e-03 1.8459135002e+00 -3.1972159687e+00 1.8459135002e+00 3.1972159687e+00 
10900 6.1929520735e+00 1.3130207418e-03 1.8458440375e+00 -3.1970956557e+00 1.8458440375e+00 3.1970956557e+00 
11000 6.1922168952e+00 6.5240400826e-05 1.8458084706e+00 -3.1970340522e+00 1.8458084706e+00 3.1970340522e+00 
11100 6.1914838770e+00 -1.1780949433e-03 1.8458084706e+00 -3.1970340522e+00 1.8458084706e+00 3.1970340522e+00 
11200 6.1907529364e+00 -2.4182478202e-03 1.8458403834e+00 -3.1970893267e+00 1.8458403834e+00 3.1970893267e+00 
11300 6.1900239855e+00 -3.6544363282e-03 1.8459058891e+00 -3.1972027860e+00 1.8459058891e+00 3.1972027860e+00 
11400 6.1892969351e+00 -4.8865608063e-03 1.8460048776e+00 -3.1973742391e+00 1.8460048776e+00 3.1973742391e+00 
11500 6.1885716949e+00 -6.1145235069e-03 1.8461372343e+00 -3.1976034875e+00 1.8461372343e+00 3.1976034875e+00 
11600 6.1878481734e+00 -7.3382285011e-03 1.8463028399e+00 -3.1978903249e+00 1.8463028399e+00 3.1978903249e+00 
11700 6.1871262779e+00 -8.5575815815e-03 1.8465015711e+00 -3.1982345374e+00 1.8465015711e+00 3.1982345374e+00 
11800 6.1864059145e+00 -9.7724901614e-03 1.8467333002e+00 -3.1986359039e+00 1.8467333002e+00 3.1986359039e+00 
11900 6.1856869877e+00 -1.0982863170e-02 1.8469978950e+00 -3.1990941957e+00 1.8469978950e+00 3.1990941957e+00 
12000 6.1849694013e+00 -1.2188610943e-02 1.8472952196e+00 -3.1996091770e+00 1.8472952196e+00 3.1996091770e+00 
12100 6.1842530573e+00 -1.3389645108e-02 1.8476251337e+00 -3.2001806049e+00 1.8476251337e+00 3.2001806049e+00 
12200 6.1835378566e+00 -1.4585878469e-02 1.8479874930e+00 -3.2008082296e+00 1.8479874930e+00 3.2008082296e+00 
12300 6.1828236988e+00 -1.5777224881e-02 1.8483821493e+00 -3.2014917943e+00 1.8483821493e+00 3.2014917943e+00 
12400 6.1821104821e+00 -1.6963599124e-02 1.8488089504e+00 -3.2022310356e+00 1.8488089504e+00 3.2022310356e+00 
12500 6.1813981036e+00 -1.8144916772e-02 1.8492677404e+00 -3.2030256831e+00 1.8492677404e+00 3.2030256831e+00 
12600 6.1806864587e+00 -1.9321094058e-02 1.8497583594e+00 -3.2038754602e+00 1.8497583594e+00 3.2038754602e+00 
12700 6.1799754420e+00 -2.0492047735e-02 1.8502806439e+00 -3.2047800835e+00 1.8502806439e+00 3.2047800835e+00 
12800 6.1792649466e+00 -2.1657694937e-02 1.8508344267e+00 -3.2057392634e+00 1.8508344267e+00 3.2057392634e+00 
12900 6.1785548641e+00 -2.2817953032e-02 1.8514195367e+00 -3.2067527037e+00 1.8514195367e+00 3.2067527037e+00 
13000 6.1778450854e+00 -2.3972739476e-02 1.8520357994e+00 -3.2078201021e+00 1.8520357994e+00 3.2078201021e+00 
13100 6.1771354998e+00 -2.5121971665e-02 1.8526830368e+00 -3.2089411501e+00 1.8526830368e+00 3.2089411501e+00 
13200 6.1764259956e+00 -2.6265566787e-02 1.8533610671e+00 -3.2101155329e+00 1.8533610671e+00 3.2101155329e+00 
13300 6.1757164600e+00 -2.7403441666e-02 1.8540697050e+00 -3.2113429299e+00 1.8540697050e+00 3.2113429299e+00 
13400 6.1750067789e+00 -2.8535512617e-02 1.8548087620e+00 -3.2126230140e+00 1.8548087620e+00 3.2126230140e+00 
13500 6.1742968374e+00 -2.9661695292e-02 1.8555780457e+00 -3.2139554525e+00 1.8555780457e+00 3.2139554525e+00 
13600 6.1735865194e+00 -3.0781904527e-02 1.8563773606e+00 -3.2153399066e+00 1.8563773606e+00 3.2153399066e+00 
13700 6.1728757081e+00 -3.1896054197e-02 1.8572065076e+00 -3.2167760313e+00 1.8572065076e+00 3.2167760313e+00 
13800 6.1721642856e+00 -3.3004057064e-02 1.8580652842e+00 -3.2182634761e+00 1.8580652842e+00 3.2182634761e+00 
13900 6.1714521331e+00 -3.4105824635e-02 1.8589534846e+00 -3.2198018842e+00 1.8589534846e+00 3.2198018842e+00 
14000 6.1707391314e+00 -3.5201267014e-02 1.8598708994e+00 -3.2213908932e+00 1.8598708994e+00 3.2213908932e+00 
14100 6.1700251601e+00 -3.6290292766e-02 1.8608173159e+00 -3.2230301347e+00 1.8608173159e+00 3.2230301347e+00 
14200 6.1693100985e+00 -3.7372808781e-02 1.8617925180e+00 -3.2247192344e+00 1.8617925180e+00 3.2247192344e+00 
14300 6.1685938253e+00 -3.8448720138e-02 1.8627962863e+00 -3.2264578120e+00 1.8627962863e+00 3.2264578120e+00 
14400 6.1678762187e+00 -3.9517929980e-02 1.8638283978e+00 -3.2282454815e+00 1.8638283978e+00 3.2282454815e+00 
14500 6.1671571563e+00 -4.0580339393e-02 1.8648886261e+00 -3.2300818509e+00 1.8648886261e+00 3.2300818509e+00 
14600 6.1664365157e+00 -4.1635847288e-02 1.8659767416e+00 -3.2319665222e+00 1.8659767416e+00 3.2319665222e+00 
14700 6.1657141740e+00 -4.2684350292e-02 1.8670925110e+00 -3.2338990914e+00 1.8670925110e+00 3.2338990914e+00 
14800 6.1649900085e+00 -4.3725742645e-02 1.8682356976e+00 -3.2358791487e+00 1.8682356976e+00 3.2358791487e+00 
14900 6.1642638960e+00 -4.4759916100e-02 1.8694060613e+00 -3.2379062781e+00 1.8694060613e+00 3.2379062781e+00 
15000 6.1635357138e+00 -4.5786759843e-02 1.8706033584e+00 -3.2399800575e+00 1.8706033584e+00 3.2399800575e+00 
15100 6.1628053391e+00 -4.6806160404e-02 1.8718273418e+00 -3.2421000590e+00 1.8718273418e+00 3.2421000590e+00 
15200 6.1620726496e+00 -4.7818001592e-02 1.8730777607e+00 -3.2442658481e+00 1.8730777607e+00 3.2442658481e+00 
15300 6.1613375231e+00 -4.8822164427e-02 1.8743543609e+00 -3.2464769845e+00 1.8743543609e+00 3.2464769845e+00 
15400 6.1605998381e+00 -4.9818527093e-02 1.8756568845e+00 -3.2487330215e+00 1.8756568845e+00 3.2487330215e+00 
15500 6.1598594737e+00 -5.0806964888e-02 1.8769850699e+00 -3.2510335061e+00 1.8769850699e+00 3.2510335061e+00 
15600 6.1591163098e+00 -5.1787350197e-02 1.8783386520e+00 -3.2533779790e+00 1.8783386520e+00 3.2533779790e+00 
15700 6.1583702270e+00 -5.2759552464e-02 1.8797173618e+00 -3.2557659745e+00 1.8797173618e+00 3.2557659745e+00 
15800 6.1576211070e+00 -5.3723438184e-02 1.8811209269e+00 -3.2581970206e+00 1.8811209269e+00 3.2581970206e+00 
15900 6.1568688326e+00 -5.4678870898e-02 1.8825490709e+00 -3.2606706385e+00 1.8825490709e+00 3.2606706385e+00 
16000 6.1561132879e+00 -5.5625711207e-02 1.8840015136e+00 -3.2631863431e+00 1.8840015136e+00 3.2631863431e+00 
16100 6.1553543582e+00 -5.6563816791e-02 1.8854779713e+00 -3.2657436428e+00 1.8854779713e+00 3.2657436428e+00 
16200 6.1545919306e+00 -5.7493042444e-02 1.8869781562e+00 -3.2683420393e+00 1.8869781562e+00 3.2683420393e+00 
16300 6.1538258937e+00 -5.8413240117e-02 1.8885017767e+00 -3.2709810274e+00 1.8885017767e+00 3.2709810274e+00 
16400 6.1530561379e+00 -5.9324258979e-02 1.8900485374e+00 -3.2736600955e+00 1.8900485374e+00 3.2736600955e+00 
16500 6.1522825556e+00 -6.0225945480e-02 1.8916181389e+00 -3.2763787251e+00 1.8916181389e+00 3.2763787251e+00 
16600 6.1515050413e+00 -6.1118143438e-02 1.8932102781e+00 -3.2791363910e+00 1.8932102781e+00 3.2791363910e+00 
16700 6.1507234916e+00 -6.2000694126e-02 1.8948246476e+00 -3.2819325611e+00 1.8948246476e+00 3.2819325611e+00 
16800 6.1499378056e+00 -6.2873436385e-02 1.8964609365e+00 -3.2847666965e+00 1.8964609365e+00 3.2847666965e+00 
16900 6.1491478849e+00 -6.3736206733e-02 1.8981188295e+00 -3.2876382515e+00 1.8981188295e+00 3.2876382515e+00 
17000 6.1483536338e+00 -6.4588839496e-02 1.8997980077e+00 -3.2905466734e+00 1.8997980077e+00 3.2905466734e+00 
17100 6.1475549594e+00 -6.5431166951e-02 1.9014981480e+00 -3.2934914028e+00 1.9014981480e+00 3.2934914028e+00 
17200 6.1467517716e+00 -6.6263019476e-02 1.9032189234e+00 -3.2964718732e+00 1.9032189234e+00 3.2964718732e+00 
17300 6.1459439837e+00 -6.7084225710e-02 1.9049600030e+00 -3.2994875115e+00 1.9049600030e+00 3.2994875115e+00 
17400 6.1451315120e+00 -6.7894612733e-02 1.9067210518e+00 -3.3025377375e+00 1.9067210518e+00 3.3025377375e+00 
17500 6.1443142763e+00 -6.8694006243e-02 1.9085017309e+00 -3.3056219643e+00 1.9085017309e+00 3.3056219643e+00 
17600 6.1434921999e+00 -6.9482230757e-02 1.9103016977e+00 -3.3087395981e+00 1.9103016977e+00 3.3087395981e+00 
17700 6.1426652100e+00 -7.0259109814e-02 1.9121206052e+00 -3.3118900385e+00 1.9121206052e+00 3.3118900385e+00 
17800 6.1418332372e+00 -7.1024466183e-02 1.9139581031e+00 -3.3150726781e+00 1.9139581031e+00 3.3150726781e+00 
17900 6.1409962164e+00 -7.1778122096e-02 1.9158138368e+00 -3.3182869031e+00 1.9158138368e+00 3.3182869031e+00 
18000 6.1401540864e+00 -7.2519899470e-02 1.9176874481e+00 -3.3215320931e+00 1.9176874481e+00 3.3215320931e+00 
18100 6.1393067903e+00 -7.3249620152e-02 1.9195785749e+00 -3.3248076209e+00 1.9195785749e+00 3.3248076209e+00 
18200 6.1384542756e+00 -7.3967106163e-02 1.9214868517e+00 -3.3281128531e+00 1.9214868517e+00 3.3281128531e+00 
18300 6.1375964941e+00 -7.4672179952e-02 1.9234119089e+00 -3.3314471500e+00 1.9234119089e+00 3.3314471500e+00 
18400 6.1367334024e+00 -7.5364664654e-02 1.9253533736e+00 -3.3348098656e+00 1.9253533736e+00 3.3348098656e+00 
18500 6.1358649616e+00 -7.6044384358e-02 1.9273108693e+00 -3.3382003476e+00 1.9273108693e+00 3.3382003476e+00 
18600 6.1349911378e+00 -7.6711164374e-02 1.9292840161e+00 -3.3416179381e+00 1.9292840161e+00 3.3416179381e+00 
18700 6.1341119019e+00 -7.7364831504e-02 1.9312724306e+00 -3.3450619730e+00 1.9312724306e+00 3.3450619730e+00 
18800 6.1332272299e+00 -7.8005214328e-02 1.9332757261e+00 -3.3485317827e+00 1.9332757261e+00 3.3485317827e+00 
18900 6.1323371029e+00 -7.8632143473e-02 1.9352935130e+00 -3.3520266921e+00 1.9352935130e+00 3.3520266921e+00 
19000 6.1314415072e+00 -7.9245451902e-02 1.9373253982e+00 -3.3555460205e+00 1.9373253982e+00 3.3555460205e+00 
19100 6.1305404345e+00 -7.9844975194e-02 1.9393709859e+00 -3.3590890824e+00 1.9393709859e+00 3.3590890824e+00 
19200 6.1296338817e+00 -8.0430551828e-02 1.9414298774e+00 -3.3626551869e+00 1.9414298774e+00 3.3626551869e+00 
19300 6.1287218513e+00 -8.1002023464e-02 1.9435016709e+00 -3.3662436387e+00 1.9435016709e+00 3.3662436387e+00 
19400 6.1278043514e+00 -8.1559235229e-02 1.9455859625e+00 -3.3698537376e+00 1.9455859625e+00 3.3698537376e+00 
19500 6.1268813955e+00 -8.2102035989e-02 1.9476823454e+00 -3.3734847793e+00 1.9476823454e+00 3.3734847793e+00 
19600 6.1259530029e+00 -8.2630278636e-02 1.9497904107e+00 -3.3771360554e+00 1.9497904107e+00 3.3771360554e+00 
19700 6.1250191985e+00 -8.3143820353e-02 1.9519097469e+00 -3.3808068534e+00 1.9519097469e+00 3.3808068534e+00 
19800 6.1240800130e+00 -8.3642522889e-02 1.9540399408e+00 -3.3844964574e+00 1.9540399408e+00 3.3844964574e+00 
19900 6.1231354827e+00 -8.4126252821e-02 1.9561805770e+00 -3.3882041482e+00 1.9561805770e+00 3.3882041482e+00 
20000 6.1221856501e+00 -8.4594881816e-02 1.9583312386e+00 -3.3919292033e+00 1.9583312386e+00 3.3919292033e+00 
20100 6.1212305630e+00 -8.5048286879e-02 1.9604915068e+00 -3.3956708976e+00 1.9604915068e+00 3.3956708976e+00 
20200 6.1202702754e+00 -8.5486350605e-02 1.9626609616e+00 -3.3994285035e+00 1.9626609616e+00 3.3994285035e+00 
20300 6.1193048469e+00 -8.5908961412e-02 1.9648391815e+00 -3.4032012910e+00 1.9648391815e+00 3.4032012910e+00 
20400 6.1183343432e+00 -8.6316013777e-02 1.9670257440e+00 -3.4069885284e+00 1.9670257440e+00 3.4069885284e+00 
20500 6.1173588356e+00 -8.6707408452e-02 1.9692202257e+00 -3.4107894823e+00 1.9692202257e+00 3.4107894823e+00 
20600 6.1163784012e+00 -8.7083052680e-02 1.9714222026e+00 -3.4146034181e+00 1.9714222026e+00 3.4146034181e+00 
20700 6.1153931230e+00 -8.7442860396e-02 1.9736312498e+00 -3.4184296001e+00 1.9736312498e+00 3.4184296001e+00 
20800 6.1144030897e+00 -8.7786752420e-02 1.9758469423e+00 -3.4222672921e+00 1.9758469423e+00 3.4222672921e+00 
20900 6.1134083956e+00 -8.8114656636e-02 1.9780688549e+00 -3.4261157576e+00 1.9780688549e+00 3.4261157576e+00 
21000 6.1124091408e+00 -8.8426508168e-02 1.9802965624e+00 -3.4299742601e+00 1.9802965624e+00 3.4299742601e+00 
21100 6.1114054309e+00 -8.8722249531e-02 1.9825296397e+00 -3.4338420634e+00 1.9825296397e+00 3.4338420634e+00 
21200 6.1103973772e+00 -8.9001830786e-02 1.9847676622e+00 -3.4377184321e+00 1.9847676622e+00 3.4377184321e+00 
21300 6.1093850963e+00 -8.9265209669e-02 1.9870102060e+00 -3.4416026320e+00 1.9870102060e+00 3.4416026320e+00 
21400 6.1083687101e+00 -8.9512351715e-02 1.9892568479e+00 -3.4454939299e+00 1.9892568479e+00 3.4454939299e+00 
21500 6.1073483462e+00 -8.9743230369e-02 1.9915071658e+00 -3.4493915949e+00 1.9915071658e+00 3.4493915949e+00 
21600 6.1063241369e+00 -8.9957827082e-02 1.9937607388e+00 -3.4532948977e+00 1.9937607388e+00 3.4532948977e+00 
21700 6.1052962201e+00 -9.0156131395e-02 1.9960171473e+00 -3.4572031119e+00 1.9960171473e+00 3.4572031119e+00 
21800 6.1042647383e+00 -9.0338141012e-02 1.9982759734e+00 -3.4611155135e+00 1.9982759734e+00 3.4611155135e+00 
21900 6.1032298393e+00 -9.0503861854e-02 2.0005368011e+00 -3.4650313819e+00 2.0005368011e+00 3.4650313819e+00 
22000 6.1021916753e+00 -9.0653308108e-02 2.0027992163e+00 -3.4689500000e+00 2.0027992163e+00 3.4689500000e+00 
22100 6.1011504034e+00 -9.0786502256e-02 2.0050628072e+00 -3.4728706545e+00 2.0050628072e+00 3.4728706545e+00 
22200 6.1001061851e+00 -9.0903475096e-02 2.0073271644e+00 -3.4767926361e+00 2.0073271644e+00 3.4767926361e+00 
22300 6.0990591865e+00 -9.1004265748e-02 2.0095918811e+00 -3.4807152405e+00 2.0095918811e+00 3.4807152405e+00 
22400 6.0980095776e+00 -9.1088921642e-02 2.0118565532e+00 -3.4846377677e+00 2.0118565532e+00 3.4846377677e+00 
22500 6.0969575329e+00 -9.1157498506e-02 2.0141207799e+00 -3.4885595234e+00 2.0141207799e+00 3.4885595234e+00 
22600 6.0959032306e+00 -9.1210060329e-02 2.0163841633e+00 -3.4924798183e+00 2.0163841633e+00 3.4924798183e+00 
22700 6.0948468526e+00 -9.1246679319e-02 2.0186463089e+00 -3.4963979695e+00 2.0186463089e+00 3.4963979695e+00 
22800 6.0937885848e+00 -9.1267435844e-02 2.0209068259e+00 -3.5003132999e+00 2.0209068259e+00 3.5003132999e+00 
22900 6.0927286163e+00 -9.1272418367e-02 2.0231653272e+00 -3.5042251388e+00 2.0231653272e+00 3.5042251388e+00 
23000 6.0916671394e+00 -9.1261723363e-02 2.0254214295e+00 -3.5081328227e+00 2.0254214295e+00 3.5081328227e+00 
23100 6.0906043497e+00 -9.1235455232e-02 2.0276747537e+00 -3.5120356947e+00 2.0276747537e+00 3.5120356947e+00 
23200 6.0895404458e+00 -9.1193726197e-02 2.0299249250e+00 -3.5159331056e+00 2.0299249250e+00 3.5159331056e+00 
23300 6.0884756288e+00 -9.1136656187e-02 2.0321715727e+00 -3.5198244137e+00 2.0321715727e+00 3.5198244137e+00 
23400 6.0874101026e+00 -9.1064372721e-02 2.0344143312e+00 -3.5237089852e+00 2.0344143312e+00 3.5237089852e+00 
23500 6.0863440733e+00 -9.0977010773e-02 2.0366528391e+00 -3.5275861947e+00 2.0366528391e+00 3.5275861947e+00 
23600 6.0852777492e+00 -9.0874712632e-02 2.0388867402e+00 -3.5314554249e+00 2.0388867402e+00 3.5314554249e+00 
23700 6.0842113408e+00 -9.0757627751e-02 2.0411156832e+00 -3.5353160675e+00 2.0411156832e+00 3.5353160675e+00 
23800 6.0831450601e+00 -9.0625912588e-02 2.0433393222e+00 -3.5391675231e+00 2.0433393222e+00 3.5391675231e+00 
23900 6.0820791208e+00 -9.0479730440e-02 2.0455573162e+00 -3.5430092014e+00 2.0455573162e+00 3.5430092014e+00 
24000 6.0810137381e+00 -9.0319251270e-02 2.0477693299e+00 -3.5468405216e+00 2.0477693299e+00 3.5468405216e+00 
24100 6.0799491281e+00 -9.0144651521e-02 2.0499750335e+00 -3.5506609123e+00 2.0499750335e+00 3.5506609123e+00 
24200 6.0788855082e+00 -8.9956113934e-02 2.0521741030e+00 -3.5544698123e+00 2.0521741030e+00 3.5544698123e+00 
24300 6.0778230962e+00 -8.9753827345e-02 2.0543662198e+00 -3.5582666701e+00 2.0543662198e+00 3.5582666701e+00 
24400 6.0767621109e+00 -8.9537986494e-02 2.0565510717e+00 -3.5620509445e+00 2.0565510717e+00 3.5620509445e+00 
24500 6.0757027710e+00 -8.9308791808e-02 2.0587283520e+00 -3.5658221047e+00 2.0587283520e+00 3.5658221047e+00 
24600 6.0746452956e+00 -8.9066449201e-02 2.0608977606e+00 -3.5695796306e+00 2.0608977606e+00 3.5695796306e+00 
24700 6.0735899037e+00 -8.8811169848e-02 2.0630590031e+00 -3.5733230124e+00 2.0630590031e+00 3.5733230124e+00 
24800 6.0725368139e+00 -8.8543169972e-02 2.0652117917e+00 -3.5770517516e+00 2.0652117917e+00 3.5770517516e+00 
24900 6.0714862445e+00 -8.8262670618e-02 2.0673558447e+00 -3.5807653604e+00 2.0673558447e+00 3.5807653604e+00 
25000 6.0704384130e+00 -8.7969897425e-02 2.0694908870e+00 -3.5844633621e+00 2.0694908870e+00 3.5844633621e+00 
25100 6.0693935359e+00 -8.7665080397e-02 2.0716166499e+00 -3.5881452915e+00 2.0716166499e+00 3.5881452915e+00 
25200 6.0683518288e+00 -8.7348453673e-02 2.0737328713e+00 -3.5918106944e+00 2.0737328713e+00 3.5918106944e+00 
25300 6.0673135058e+00 -8.7020255287e-02 2.0758392955e+00 -3.5954591282e+00 2.0758392955e+00 3.5954591282e+00 
25400 6.0662787796e+00 -8.6680726937e-02 2.0779356737e+00 -3.5990901618e+00 2.0779356737e+00 3.5990901618e+00 
25500 6.0652478612e+00 -8.6330113746e-02 2.0800217637e+00 -3.6027033755e+00 2.0800217637e+00 3.6027033755e+00 
25600 6.0642209596e+00 -8.5968664023e-02 2.0820973298e+00 -3.6062983615e+00 2.0820973298e+00 3.6062983615e+00 
25700 6.0631982818e+00 -8.5596629027e-02 2.0841621434e+00 -3.6098747236e+00 2.0841621434e+00 3.6098747236e+00 
25800 6.0621800325e+00 -8.5214262722e-02 2.0862159824e+00 -3.6134320771e+00 2.0862159824e+00 3.6134320771e+00 
25900 6.0611664137e+00 -8.4821821547e-02 2.0882586317e+00 -3.6169700495e+00 2.0882586317e+00 3.6169700495e+00 
26000 6.0601576251e+00 -8.4419564170e-02 2.0902898829e+00 -3.6204882798e+00 2.0902898829e+00 3.6204882798e+00 
26100 6.0591538633e+00 -8.4007751254e-02 2.0923095345e+00 -3.6239864189e+00 2.0923095345e+00 3.6239864189e+00 
26200 6.0581553220e+00 -8.3586645224e-02 2.0943173916e+00 -3.6274641294e+00 2.0943173916e+00 3.6274641294e+00 
26300 6.0571621916e+00 -8.3156510025e-02 2.0963132664e+00 -3.6309210860e+00 2.0963132664e+00 3.6309210860e+00 
26400 6.0561746593e+00 -8.2717610896e-02 2.0982969778e+00 -3.6343569749e+00 2.0982969778e+00 3.6343569749e+00 
26500 6.0551929087e+00 -8.2270214138e-02 2.1002683515e+00 -3.6377714943e+00 2.1002683515e+00 3.6377714943e+00 
26600 6.0542171196e+00 -8.1814586882e-02 2.1022272200e+00 -3.6411643540e+00 2.1022272200e+00 3.6411643540e+00 
26700 6.0532474683e+00 -8.1350996868e-02 2.1041734225e+00 -3.6445352756e+00 2.1041734225e+00 3.6445352756e+00 
26800 6.0522841268e+00 -8.0879712219e-02 2.1061068050e+00 -3.6478839923e+00 2.1061068050e+00 3.6478839923e+00 
26900 6.0513272631e+00 -8.0401001226e-02 2.1080272202e+00 -3.6512102491e+00 2.1080272202e+00 3.6512102491e+00 
27000 6.0503770411e+00 -7.9915132125e-02 2.1099345274e+00 -3.6545138021e+00 2.1099345274e+00 3.6545138021e+00 
27100 6.0494336201e+00 -7.9422372892e-02 2.1118285927e+00 -3.6577944195e+00 2.1118285927e+00 3.6577944195e+00 
27200 6.0484971551e+00 -7.8922991030e-02 2.1137092887e+00 -3.6610518804e+00 2.1137092887e+00 3.6610518804e+00 
27300 6.0475677965e+00 -7.8417253364e-02 2.1155764943e+00 -3.6642859755e+00 2.1155764943e+00 3.6642859755e+00 
27400 6.0466456897e+00 -7.7905425845e-02 2.1174300953e+00 -3.6674965065e+00 2.1174300953e+00 3.6674965065e+00 
27500 6.0457309757e+00 -7.7387773350e-02 2.1192699836e+00 -3.6706832865e+00 2.1192699836e+00 3.6706832865e+00 
27600 6.0448237903e+00 -7.6864559491e-02 2.1210960576e+00 -3.6738461395e+00 2.1210960576e+00 3.6738461395e+00 
27700 6.0439242644e+00 -7.6336046432e-02 2.1229082219e+00 -3.6769849002e+00 2.1229082219e+00 3.6769849002e+00 
27800 6.0430325239e+00 -7.5802494705e-02 2.1247063876e+00 -3.6800994144e+00 2.1247063876e+00 3.6800994144e+00 
27900 6.0421486895e+00 -7.5264163034e-02 2.1264904716e+00 -3.6831895385e+00 2.1264904716e+00 3.6831895385e+00 
28000 6.0412728766e+00 -7.4721308162e-02 2.1282603970e+00 -3.6862551394e+00 2.1282603970e+00 3.6862551394e+00 
28100 6.0404051956e+00 -7.4174184689e-02 2.1300160932e+00 -3.6892960943e+00 2.1300160932e+00 3.6892960943e+00 
28200 6.0395457512e+00 -7.3623044907e-02 2.1317574951e+00 -3.6923122909e+00 2.1317574951e+00 3.6923122909e+00 
28300 6.0386946431e+00 -7.3068138650e-02 2.1334845437e+00 -3.6953036269e+00 2.1334845437e+00 3.6953036269e+00 
28400 6.0378519655e+00 -7.2509713139e-02 2.1351971857e+00 -3.6982700099e+00 2.1351971857e+00 3.6982700099e+00 
28500 6.0370178071e+00 -7.1948012843e-02 2.1368953735e+00 -3.7012113574e+00 2.1368953735e+00 3.7012113574e+00 
28600 6.0361922513e+00 -7.1383279338e-02 2.1385790650e+00 -3.7041275967e+00 2.1385790650e+00 3.7041275967e+00 
28700 6.0353753759e+00 -7.0815751179e-02 2.1402482237e+00 -3.7070186643e+00 2.1402482237e+00 3.7070186643e+00 
28800 6.0345672534e+00 -7.0245663766e-02 2.1419028184e+00 -3.7098845064e+00 2.1419028184e+00 3.7098845064e+00 
28900 6.0337679508e+00 -6.9673249233e-02 2.1435428233e+00 -3.7127250781e+00 2.1435428233e+00 3.7127250781e+00 
29000 6.0329775297e+00 -6.9098736326e-02 2.1451682176e+00 -3.7155403437e+00 2.1451682176e+00 3.7155403437e+00 
29100 6.0321960462e+00 -6.8522350300e-02 2.1467789858e+00 -3.7183302761e+00 2.1467789858e+00 3.7183302761e+00 
29200 6.0314235510e+00 -6.7944312812e-02 2.1483751174e+00 -3.7210948570e+00 2.1483751174e+00 3.7210948570e+00 
29300 6.0306600895e+00 -6.7364841827e-02 2.1499566066e+00 -3.7238340767e+00 2.1499566066e+00 3.7238340767e+00 
29400 6.0299057019e+00 -6.6784151528e-02 2.1515234526e+00 -3.7265479336e+00 2.1515234526e+00 3.7265479336e+00 
29500 6.0291604228e+00 -6.6202452229e-02 2.1530756591e+00 -3.7292364341e+00 2.1530756591e+00 3.7292364341e+00 
29600 6.0284242819e+00 -6.5619950299e-02 2.1546132346e+00 -3.7318995929e+00 2.1546132346e+00 3.7318995929e+00 
29700 6.0276973034e+00 -6.5036848084e-02 2.1561361918e+00 -3.7345374321e+00 2.1561361918e+00 3.7345374321e+00 
29800 6.0269795068e+00 -6.4453343849e-02 2.1576445479e+00 -3.7371499816e+00 2.1576445479e+00 3.7371499816e+00 
29900 6.0262709062e+00 -6.3869631706e-02 2.1591383244e+00 -3.7397372784e+00 2.1591383244e+00 3.7397372784e+00 
30000 6.0255715109e+00 -6.3285901567e-02 2.1606175469e+00 -3.7422993669e+00 2.1606175469e+00 3.7422993669e+00 
30100 6.0248813252e+00 -6.2702339090e-02 2.1620822449e+00 -3.7448362983e+00 2.1620822449e+00 3.7448362983e+00 
30200 6.0242003489e+00 -6.2119125637e-02 2.1635324521e+00 -3.7473481308e+00 2.1635324521e+00 3.7473481308e+00 
30300 6.0235285766e+00 -6.1536438230e-02 2.1649682057e+00 -3.7498349290e+00 2.1649682057e+00 3.7498349290e+00 
30400 6.0228659988e+00 -6.0954449527e-02 2.1663895468e+00 -3.7522967641e+00 2.1663895468e+00 3.7522967641e+00 
30500 6.0222126011e+00 -6.0373327785e-02 2.1677965200e+00 -3.7547337132e+00 2.1677965200e+00 3.7547337132e+00 
30600 6.0215683648e+00 -5.9793236842e-02 2.1691891735e+00 -3.7571458598e+00 2.1691891735e+00 3.7571458598e+00 
30700 6.0209332670e+00 -5.9214336099e-02 2.1705675587e+00 -3.7595332930e+00 2.1705675587e+00 3.7595332930e+00 
30800 6.0203072804e+00 -5.8636780506e-02 2.1719317304e+00 -3.7618961075e+00 2.1719317304e+00 3.7618961075e+00 
30900 6.0196903739e+00 -5.8060720556e-02 2.1732817463e+00 -3.7642344038e+00 2.1732817463e+00 3.7642344038e+00 
31000 6.0190825122e+00 -5.7486302283e-02 2.1746176676e+00 -3.7665482873e+00 2.1746176676e+00 3.7665482873e+00 
31100 6.0184836561e+00 -5.6913667258e-02 2.1759395579e+00 -3.7688378685e+00 2.1759395579e+00 3.7688378685e+00 
31200 6.0178937630e+00 -5.6342952605e-02 2.1772474841e+00 -3.7711032630e+00 2.1772474841e+00 3.7711032630e+00 
31300 6.0173127862e+00 -5.5774291004e-02 2.1785415154e+00 -3.7733445911e+00 2.1785415154e+00 3.7733445911e+00 
31400 6.0167406761e+00 -5.5207810709e-02 2.1798217240e+00 -3.7755619774e+00 2.1798217240e+00 3.7755619774e+00 
31500 6.0161773792e+00 -5.4643635568e-02 2.1810881843e+00 -3.7777555509e+00 2.1810881843e+00 3.7777555509e+00 
31600 6.0156228392e+00 -5.4081885045e-02 2.1823409732e+00 -3.7799254450e+00 2.1823409732e+00 3.7799254450e+00 
31700 6.0150769965e+00 -5.3522674248e-02 2.1835801700e+00 -3.7820717969e+00 2.1835801700e+00 3.7820717969e+00 
31800 6.0145397884e+00 -5.2966113961e-02 2.1848058561e+00 -3.7841947475e+00 2.1848058561e+00 3.7841947475e+00 
31900 6.0140111498e+00 -5.2412310675e-02 2.1860181151e+00 -3.7862944416e+00 2.1860181151e+00 3.7862944416e+00 
32000 6.0134910124e+00 -5.1861366630e-02 2.1872170324e+00 -3.7883710273e+00 2.1872170324e+00 3.7883710273e+00 
32100 6.0129793057e+00 -5.1313379853e-02 2.1884026955e+00 -3.7904246559e+00 2.1884026955e+00 3.7904246559e+00 
32200 6.0124759566e+00 -5.0768444207e-02 2.1895751935e+00 -3.7924554822e+00 2.1895751935e+00 3.7924554822e+00 
32300 6.0119808897e+00 -5.0226649431e-02 2.1907346176e+00 -3.7944636635e+00 2.1907346176e+00 3.7944636635e+00 
32400 6.0114940274e+00 -4.9688081198e-02 2.1918810601e+00 -3.7964493603e+00 2.1918810601e+00 3.7964493603e+00 
32500 6.0110152901e+00 -4.9152821163e-02 2.1930146153e+00 -3.7984127354e+00 2.1930146153e+00 3.7984127354e+00 
32600 6.0105445962e+00 -4.8620947020e-02 2.1941353785e+00 -3.8003539543e+00 2.1941353785e+00 3.8003539543e+00 
32700 6.0100818625e+00 -4.8092532561e-02 2.1952434468e+00 -3.8022731849e+00 2.1952434468e+00 3.8022731849e+00 
32800 6.0096270038e+00 -4.7567647734e-02 2.1963389183e+00 -3.8041705971e+00 2.1963389183e+00 3.8041705971e+00 
32900 6.0091799337e+00 -4.7046358705e-02 2.1974218922e+00 -3.8060463629e+00 2.1974218922e+00 3.8060463629e+00 
33000 6.0087405641e+00 -4.6528727924e-02 2.1984924690e+00 -3.8079006563e+00 2.1984924690e+00 3.8079006563e+00 
33100 6.0083088058e+00 -4.6014814192e-02 2.1995507500e+00 -3.8097336529e+00 2.1995507500e+00 3.8097336529e+00 
33200 6.0078845682e+00 -4.5504672724e-02 2.2005968377e+00 -3.8115455299e+00 2.2005968377e+00 3.8115455299e+00 
33300 6.0074677598e+00 -4.4998355222e-02 2.2016308353e+00 -3.8133364662e+00 2.2016308353e+00 3.8133364662e+00 
33400 6.0070582881e+00 -4.4495909945e-02 2.2026528466e+00 -3.8151066418e+00 2.2026528466e+00 3.8151066418e+00 
33500 6.0066560596e+00 -4.3997381780e-02 2.2036629765e+00 -3.8168562381e+00 2.2036629765e+00 3.8168562381e+00 
33600 6.0062609803e+00 -4.3502812314e-02 2.2046613302e+00 -3.8185854374e+00 2.2046613302e+00 3.8185854374e+00 
33700 6.0058729554e+00 -4.3012239909e-02 2.2056480136e+00 -3.8202944232e+00 2.2056480136e+00 3.8202944232e+00 
33800 6.0054918896e+00 -4.2525699778e-02 2.2066231331e+00 -3.8219833797e+00 2.2066231331e+00 3.8219833797e+00 
33900 6.0051176872e+00 -4.2043224057e-02 2.2075867955e+00 -3.8236524919e+00 2.2075867955e+00 3.8236524919e+00 
34000 6.0047502521e+00 -4.1564841884e-02 2.2085391079e+00 -3.8253019454e+00 2.2085391079e+00 3.8253019454e+00 
34100 6.0043894878e+00 -4.1090579475e-02 2.2094801778e+00 -3.8269319262e+00 2.2094801778e+00 3.8269319262e+00 
34200 6.0040352981e+00 -4.0620460199e-02 2.2104101128e+00 -3.8285426209e+00 2.2104101128e+00 3.8285426209e+00 
34300 6.0036875862e+00 -4.0154504657e-02 2.2113290208e+00 -3.8301342164e+00 2.2113290208e+00 3.8301342164e+00 
34400 6.0033462557e+00 -3.9692730761e-02 2.2122370099e+00 -3.8317068995e+00 2.2122370099e+00 3.8317068995e+00 
34500 6.0030112101e+00 -3.9235153805e-02 2.2131341880e+00 -3.8332608576e+00 2.2131341880e+00 3.8332608576e+00 
34600 6.0026823531e+00 -3.8781786551e-02 2.2140206632e+00 -3.8347962777e+00 2.2140206632e+00 3.8347962777e+00 
34700 6.0023595886e+00 -3.8332639298e-02 2.2148965435e+00 -3.8363133469e+00 2.2148965435e+00 3.8363133469e+00 
34800 6.0020428210e+00 -3.7887719964e-02 2.2157619369e+00 -3.8378122522e+00 2.2157619369e+00 3.8378122522e+00 
34900 6.0017319548e+00 -3.7447034162e-02 2.2166169510e+00 -3.8392931801e+00 2.2166169510e+00 3.8392931801e+00 
35000 6.0014268953e+00 -3.7010585274e-02 2.2174616935e+00 -3.8407563170e+00 2.2174616935e+00 3.8407563170e+00 
35100 6.0011275479e+00 -3.6578374529e-02 2.2182962718e+00 -3.8422018490e+00 2.2182962718e+00 3.8422018490e+00 
35200 6.0008338189e+00 -3.6150401077e-02 2.2191207928e+00 -3.8436299613e+00 2.2191207928e+00 3.8436299613e+00 
35300 6.0005456151e+00 -3.5726662062e-02 2.2199353634e+00 -3.8450408390e+00 2.2199353634e+00 3.8450408390e+00 
35400 6.0002628440e+00 -3.5307152699e-02 2.2207400900e+00 -3.8464346663e+00 2.2207400900e+00 3.8464346663e+00 
35500 5.9999854136e+00 -3.4891866344e-02 2.2215350786e+00 -3.8478116269e+00 2.2215350786e+00 3.8478116269e+00 
35600 5.9997132331e+00 -3.4480794569e-02 2.2223204346e+00 -3.8491719035e+00 2.2223204346e+00 3.8491719035e+00 
35700 5.9994462122e+00 -3.4073927230e-02 2.2230962633e+00 -3.8505156782e+00 2.2230962633e+00 3.8505156782e+00 
35800 5.9991842615e+00 -3.3671252540e-02 2.2238626693e+00 -3.8518431323e+00 2.2238626693e+00 3.8518431323e+00 
35900 5.9989272926e+00 -3.3272757134e-02 2.2246197566e+00 -3.8531544459e+00 2.2246197566e+00 3.8531544459e+00 
36000 5.9986752178e+00 -3.2878426144e-02 2.2253676287e+00 -3.8544497984e+00 2.2253676287e+00 3.8544497984e+00 
36100 5.9984279507e+00 -3.2488243259e-02 2.2261063885e+00 -3.8557293679e+00 2.2261063885e+00 3.8557293679e+00 
36200 5.9981854055e+00 -3.2102190796e-02 2.2268361384e+00 -3.8569933318e+00 2.2268361384e+00 3.8569933318e+00 
36300 5.9979474977e+00 -3.1720249763e-02 2.2275569800e+00 -3.8582418661e+00 2.2275569800e+00 3.8582418661e+00 
36400 5.9977141438e+00 -3.1342399919e-02 2.2282690143e+00 -3.8594751456e+00 2.2282690143e+00 3.8594751456e+00 
36500 5.9974852611e+00 -3.0968619844e-02 2.2289723416e+00 -3.8606933442e+00 2.2289723416e+00 3.8606933442e+00 
36600 5.9972607684e+00 -3.0598886993e-02 2.2296670614e+00 -3.8618966344e+00 2.2296670614e+00 3.8618966344e+00 
36700 5.9970405852e+00 -3.0233177757e-02 2.2303532728e+00 -3.8630851873e+00 2.2303532728e+00 3.8630851873e+00 
36800 5.9968246324e+00 -2.9871467526e-02 2.2310310737e+00 -3.8642591728e+00 2.2310310737e+00 3.8642591728e+00 
36900 5.9966128319e+00 -2.9513730741e-02 2.2317005614e+00 -3.8654187597e+00 2.2317005614e+00 3.8654187597e+00 
37000 5.9964051066e+00 -2.9159940949e-02 2.2323618327e+00 -3.8665641151e+00 2.2323618327e+00 3.8665641151e+00 
37100 5.9962013809e+00 -2.8810070862e-02 2.2330149831e+00 -3.8676954048e+00 2.2330149831e+00 3.8676954048e+00 
37200 5.9960015800e+00 -2.8464092408e-02 2.2336601077e+00 -3.8688127934e+00 2.2336601077e+00 3.8688127934e+00 
37300 5.9958056304e+00 -2.8121976781e-02 2.2342973006e+00 -3.8699164438e+00 2.2342973006e+00 3.8699164438e+00 
37400 5.9956134598e+00 -2.7783694490e-02 2.2349266550e+00 -3.8710065176e+00 2.2349266550e+00 3.8710065176e+00 
37500 5.9954249970e+00 -2.7449215414e-02 2.2355482633e+00 -3.8720831748e+00 2.2355482633e+00 3.8720831748e+00 
37600 5.9952401719e+00 -2.7118508843e-02 2.2361622172e+00 -3.8731465742e+00 2.2361622172e+00 3.8731465742e+00 
37700 5.9950589158e+00 -2.6791543525e-02 2.2367686074e+00 -3.8741968727e+00 2.2367686074e+00 3.8741968727e+00 
37800 5.9948811609e+00 -2.6468287713e-02 2.2373675235e+00 -3.8752342260e+00 2.2373675235e+00 3.8752342260e+00 
37900 5.9947068407e+00 -2.6148709208e-02 2.2379590547e+00 -3.8762587881e+00 2.2379590547e+00 3.8762587881e+00 
38000 5.9945358898e+00 -2.5832775397e-02 2.2385432890e+00 -3.8772707115e+00 2.2385432890e+00 3.8772707115e+00 
38100 5.9943682440e+00 -2.5520453298e-02 2.2391203135e+00 -3.8782701472e+00 2.2391203135e+00 3.8782701472e+00 
38200 5.9942038402e+00 -2.5211709597e-02 2.2396902144e+00 -3.8792572446e+00 2.2396902144e+00 3.8792572446e+00 
38300 5.9940426163e+00 -2.4906510685e-02 2.2402530772e+00 -3.8802321515e+00 2.2402530772e+00 3.8802321515e+00 
38400 5.9938845116e+00 -2.4604822695e-02 2.2408089863e+00 -3.8811950143e+00 2.2408089863e+00 3.8811950143e+00 
38500 5.9937294664e+00 -2.4306611537e-02 2.2413580252e+00 -3.8821459776e+00 2.2413580252e+00 3.8821459776e+00 
38600 5.9935774219e+00 -2.4011842933e-02 2.2419002766e+00 -3.8830851846e+00 2.2419002766e+00 3.8830851846e+00 
38700 5.9934283207e+00 -2.3720482447e-02 2.2424358222e+00 -3.8840127768e+00 2.2424358222e+00 3.8840127768e+00 
38800 5.9932821063e+00 -2.3432495519e-02 2.2429647430e+00 -3.8849288944e+00 2.2429647430e+00 3.8849288944e+00 
38900 5.9931387234e+00 -2.3147847491e-02 2.2434871186e+00 -3.8858336756e+00 2.2434871186e+00 3.8858336756e+00 
39000 5.9929981175e+00 -2.2866503639e-02 2.2440030283e+00 -3.8867272574e+00 2.2440030283e+00 3.8867272574e+00 
39100 5.9928602354e+00 -2.2588429201e-02 2.2445125501e+00 -3.8876097750e+00 2.2445125501e+00 3.8876097750e+00 
39200 5.9927250248e+00 -2.2313589399e-02 2.2450157612e+00 -3.8884813622e+00 2.2450157612e+00 3.8884813622e+00 
39300 5.9925924345e+00 -2.2041949467e-02 2.2455127380e+00 -3.8893421512e+00 2.2455127380e+00 3.8893421512e+00 
39400 5.9924624142e+00 -2.1773474678e-02 2.2460035558e+00 -3.8901922725e+00 2.2460035558e+00 3.8901922725e+00 
39500 5.9923349146e+00 -2.1508130358e-02 2.2464882891e+00 -3.8910318554e+00 2.2464882891e+00 3.8910318554e+00 
39600 5.9922098875e+00 -2.1245881918e-02 2.2469670117e+00 -3.8918610272e+00 2.2469670117e+00 3.8918610272e+00 
39700 5.9920872854e+00 -2.0986694867e-02 2.2474397963e+00 -3.8926799141e+00 2.2474397963e+00 3.8926799141e+00 
39800 5.9919670619e+00 -2.0730534835e-02 2.2479067147e+00 -3.8934886406e+00 2.2479067147e+00 3.8934886406e+00 
39900 5.9918491715e+00 -2.0477367592e-02 2.2483678380e+00 -3.8942873296e+00 2.2483678380e+00 3.8942873296e+00 
40000 5.9917335697e+00 -2.0227159062e-02 2.2488232364e+00 -3.8950761026e+00 2.2488232364e+00 3.8950761026e+00 
40100 5.9916202127e+00 -1.9979875344e-02 2.2492729790e+00 -3.8958550797e+00 2.2492729790e+00 3.8958550797e+00 
40200 5.9915090576e+00 -1.9735482725e-02 2.2497171343e+00 -3.8966243793e+00 2.2497171343e+00 3.8966243793e+00 
40300 5.9914000624e+00 -1.9493947696e-02 2.2501557700e+00 -3.8973841186e+00 2.2501557700e+00 3.8973841186e+00 
40400 5.9912931861e+00 -1.9255236963e-02 2.2505889527e+00 -3.8981344131e+00 2.2505889527e+00 3.8981344131e+00 
40500 5.9911883882e+00 -1.9019317465e-02 2.2510167485e+00 -3.8988753771e+00 2.2510167485e+00 3.8988753771e+00 
40600 5.9910856292e+00 -1.8786156382e-02 2.2514392223e+00 -3.8996071231e+00 2.2514392223e+00 3.8996071231e+00 
40700 5.9909848704e+00 -1.8555721146e-02 2.2518564384e+00 -3.9003297627e+00 2.2518564384e+00 3.9003297627e+00 
40800 5.9908860738e+00 -1.8327979455e-02 2.2522684604e+00 -3.9010434057e+00 2.2522684604e+00 3.9010434057e+00 
40900 5.9907892022e+00 -1.8102899280e-02 2.2526753509e+00 -3.9017481607e+00 2.2526753509e+00 3.9017481607e+00 
41000 5.9906942191e+00 -1.7880448873e-02 2.2530771717e+00 -3.9024441348e+00 2.2530771717e+00 3.9024441348e+00 
41100 5.9906010888e+00 -1.7660596779e-02 2.2534739840e+00 -3.9031314338e+00 2.2534739840e+00 3.9031314338e+00 
41200 5.9905097763e+00 -1.7443311840e-02 2.2538658480e+00 -3.9038101622e+00 2.2538658480e+00 3.9038101622e+00 
41300 5.9904202471e+00 -1.7228563204e-02 2.2542528234e+00 -3.9044804232e+00 2.2542528234e+00 3.9044804232e+00 
41400 5.9903324677e+00 -1.7016320331e-02 2.2546349689e+00 -3.9051423186e+00 2.2546349689e+00 3.9051423186e+00 
41500 5.9902464050e+00 -1.6806552996e-02 2.2550123425e+00 -3.9057959488e+00 2.2550123425e+00 3.9057959488e+00 
41600 5.9901620267e+00 -1.6599231298e-02 2.2553850015e+00 -3.9064414133e+00 2.2553850015e+00 3.9064414133e+00 
41700 5.9900793011e+00 -1.6394325663e-02 2.2557530026e+00 -3.9070788099e+00 2.2557530026e+00 3.9070788099e+00 
41800 5.9899981971e+00 -1.6191806845e-02 2.2561164016e+00 -3.9077082353e+00 2.2561164016e+00 3.9077082353e+00 
41900 5.9899186842e+00 -1.5991645935e-02 2.2564752535e+00 -3.9083297851e+00 2.2564752535e+00 3.9083297851e+00 
42000 5.9898407326e+00 -1.5793814359e-02 2.2568296129e+00 -3.9089435536e+00 2.2568296129e+00 3.9089435536e+00 
42100 5.9897643129e+00 -1.5598283882e-02 2.2571795335e+00 -3.9095496339e+00 2.2571795335e+00 3.9095496339e+00 
42200 5.9896893964e+00 -1.5405026611e-02 2.2575250683e+00 -3.9101481177e+00 2.2575250683e+00 3.9101481177e+00 
42300 5.9896159549e+00 -1.5214014994e-02 2.2578662697e+00 -3.9107390959e+00 2.2578662697e+00 3.9107390959e+00 
42400 5.9895439609e+00 -1.5025221825e-02 2.2582031894e+00 -3.9113226579e+00 2.2582031894e+00 3.9113226579e+00 
42500 5.9894733871e+00 -1.4838620241e-02 2.2585358785e+00 -3.9118988923e+00 2.2585358785e+00 3.9118988923e+00 
42600 5.9894042071e+00 -1.4654183723e-02 2.2588643874e+00 -3.9124678863e+00 2.2588643874e+00 3.9124678863e+00 
42700 5.9893363946e+00 -1.4471886096e-02 2.2591887657e+00 -3.9130297261e+00 2.2591887657e+00 3.9130297261e+00 
42800 5.9892699243e+00 -1.4291701533e-02 2.2595090627e+00 -3.9135844968e+00 2.2595090627e+00 3.9135844968e+00 
42900 5.9892047709e+00 -1.4113604546e-02 2.2598253269e+00 -3.9141322824e+00 2.2598253269e+00 3.9141322824e+00 
43000 5.9891409099e+00 -1.3937569991e-02 2.2601376061e+00 -3.9146731659e+00 2.2601376061e+00 3.9146731659e+00 
43100 5.9890783170e+00 -1.3763573065e-02 2.2604459477e+00 -3.9152072291e+00 2.2604459477e+00 3.9152072291e+00 
43200 5.9890169686e+00 -1.3591589304e-02 2.2607503982e+00 -3.9157345530e+00 2.2607503982e+00 3.9157345530e+00 
43300 5.9889568415e+00 -1.3421594583e-02 2.2610510040e+00 -3.9162552174e+00 2.2610510040e+00 3.9162552174e+00 
43400 5.9888979128e+00 -1.3253565111e-02 2.2613478104e+00 -3.9167693012e+00 2.2613478104e+00 3.9167693012e+00 
43500 5.9888401600e+00 -1.3087477429e-02 2.2616408624e+00 -3.9172768822e+00 2.2616408624e+00 3.9172768822e+00 
43600 5.9887835613e+00 -1.2923308411e-02 2.2619302045e+00 -3.9177780373e+00 2.2619302045e+00 3.9177780373e+00 
43700 5.9887280950e+00 -1.2761035257e-02 2.2622158804e+00 -3.9182728425e+00 2.2622158804e+00 3.9182728425e+00 
43800 5.9886737399e+00 -1.2600635494e-02 2.2624979335e+00 -3.9187613728e+00 2.2624979335e+00 3.9187613728e+00 
43900 5.9886204753e+00 -1.2442086967e-02 2.2627764066e+00 -3.9192437023e+00 2.2627764066e+00 3.9192437023e+00 
44000 5.9885682807e+00 -1.2285367844e-02 2.2630513418e+00 -3.9197199041e+00 2.2630513418e+00 3.9197199041e+00 
44100 5.9885171360e+00 -1.2130456604e-02 2.2633227809e+00 -3.9201900504e+00 2.2633227809e+00 3.9201900504e+00 
44200 5.9884670217e+00 -1.1977332040e-02 2.2635907651e+00 -3.9206542127e+00 2.2635907651e+00 3.9206542127e+00 
44300 5.9884179183e+00 -1.1825973253e-02 2.2638553351e+00 -3.9211124615e+00 2.2638553351e+00 3.9211124615e+00 
44400 5.9883698069e+00 -1.1676359647e-02 2.2641165312e+00 -3.9215648663e+00 2.2641165312e+00 3.9215648663e+00 
44500 5.9883226689e+00 -1.1528470927e-02 2.2643743929e+00 -3.9220114959e+00 2.2643743929e+00 3.9220114959e+00 
44600 5.9882764859e+00 -1.1382287094e-02 2.2646289596e+00 -3.9224524184e+00 2.2646289596e+00 3.9224524184e+00 
44700 5.9882312399e+00 -1.1237788441e-02 2.2648802701e+00 -3.9228877008e+00 2.2648802701e+00 3.9228877008e+00 
44800 5.9881869134e+00 -1.1094955551e-02 2.2651283625e+00 -3.9233174096e+00 2.2651283625e+00 3.9233174096e+00 
44900 5.9881434889e+00 -1.0953769288e-02 2.2653732748e+00 -3.9237416101e+00 2.2653732748e+00 3.9237416101e+00 
45000 5.9881009495e+00 -1.0814210799e-02 2.2656150443e+00 -3.9241603672e+00 2.2656150443e+00 3.9241603672e+00 
45100 5.9880592784e+00 -1.0676261504e-02 2.2658537080e+00 -3.9245737448e+00 2.2658537080e+00 3.9245737448e+00 
45200 5.9880184592e+00 -1.0539903095e-02 2.2660893024e+00 -3.9249818062e+00 2.2660893024e+00 3.9249818062e+00 
45300 5.9879784757e+00 -1.0405117532e-02 2.2663218634e+00 -3.9253846138e+00 2.2663218634e+00 3.9253846138e+00 
45400 5.9879393121e+00 -1.0271887037e-02 2.2665514269e+00 -3.9257822293e+00 2.2665514269e+00 3.9257822293e+00 
45500 5.9879009528e+00 -1.0140194090e-02 2.2667780279e+00 -3.9261747138e+00 2.2667780279e+00 3.9261747138e+00 
45600 5.9878633825e+00 -1.0010021423e-02 2.2670017014e+00 -3.9265621276e+00 2.2670017014e+00 3.9265621276e+00 
45700 5.9878265862e+00 -9.8813520210e-03 2.2672224816e+00 -3.9269445302e+00 2.2672224816e+00 3.9269445302e+00 
45800 5.9877905490e+00 -9.7541691115e-03 2.2674404027e+00 -3.9273219806e+00 2.2674404027e+00 3.9273219806e+00 
45900 5.9877552565e+00 -9.6284561635e-03 2.2676554981e+00 -3.9276945368e+00 2.2676554981e+00 3.9276945368e+00 
46000 5.9877206945e+00 -9.5041968822e-03 2.2678678013e+00 -3.9280622566e+00 2.2678678013e+00 3.9280622566e+00 
46100 5.9876868488e+00 -9.3813752046e-03 2.2680773448e+00 -3.9284251968e+00 2.2680773448e+00 3.9284251968e+00 
46200 5.9876537058e+00 -9.2599752956e-03 2.2682841614e+00 -3.9287834135e+00 2.2682841614e+00 3.9287834135e+00 
46300 5.9876212519e+00 -9.1399815432e-03 2.2684882829e+00 -3.9291369624e+00 2.2684882829e+00 3.9291369624e+00 
46400 5.9875894739e+00 -9.0213785547e-03 2.2686897413e+00 -3.9294858985e+00 2.2686897413e+00 3.9294858985e+00 
46500 5.9875583587e+00 -8.9041511520e-03 2.2688885677e+00 -3.9298302760e+00 2.2688885677e+00 3.9298302760e+00 
46600 5.9875278934e+00 -8.7882843679e-03 2.2690847933e+00 -3.9301701486e+00 2.2690847933e+00 3.9301701486e+00 
46700 5.9874980655e+00 -8.6737634415e-03 2.2692784487e+00 -3.9305055696e+00 2.2692784487e+00 3.9305055696e+00 
46800 5.9874688626e+00 -8.5605738144e-03 2.2694695641e+00 -3.9308365913e+00 2.2694695641e+00 3.9308365913e+00 
46900 5.9874402726e+00 -8.4487011265e-03 2.2696581697e+00 -3.9311632658e+00 2.2696581697e+00 3.9311632658e+00 
47000 5.9874122834e+00 -8.3381312119e-03 2.2698442950e+00 -3.9314856443e+00 2.2698442950e+00 3.9314856443e+00 
47100 5.9873848834e+00 -8.2288500953e-03 2.2700279694e+00 -3.9318037776e+00 2.2700279694e+00 3.9318037776e+00 
47200 5.9873580610e+00 -8.1208439875e-03 2.2702092218e+00 -3.9321177159e+00 2.2702092218e+00 3.9321177159e+00 
47300 5.9873318049e+00 -8.0140992823e-03 2.2703880808e+00 -3.9324275089e+00 2.2703880808e+00 3.9324275089e+00 
47400 5.9873061039e+00 -7.9086025519e-03 2.2705645750e+00 -3.9327332057e+00 2.2705645750e+00 3.9327332057e+00 
47500 5.9872809472e+00 -7.8043405438e-03 2.2707387322e+00 -3.9330348548e+00 2.2707387322e+00 3.9330348548e+00 
47600 5.9872563240e+00 -7.7013001767e-03 2.2709105802e+00 -3.9333325043e+00 2.2709105802e+00 3.9333325043e+00 
47700 5.9872322238e+00 -7.5994685374e-03 2.2710801464e+00 -3.9336262017e+00 2.2710801464e+00 3.9336262017e+00 
47800 5.9872086361e+00 -7.4988328765e-03 2.2712474581e+00 -3.9339159939e+00 2.2712474581e+00 3.9339159939e+00 
47900 5.9871855508e+00 -7.3993806055e-03 2.2714125419e+00 -3.9342019275e+00 2.2714125419e+00 3.9342019275e+00 
48000 5.9871629580e+00 -7.3010992934e-03 2.2715754244e+00 -3.9344840483e+00 2.2715754244e+00 3.9344840483e+00 
48100 5.9871408478e+00 -7.2039766630e-03 2.2717361319e+00 -3.9347624019e+00 2.2717361319e+00 3.9347624019e+00 
48200 5.9871192105e+00 -7.1080005875e-03 2.2718946904e+00 -3.9350370333e+00 2.2718946904e+00 3.9350370333e+00 
48300 5.9870980367e+00 -7.0131590881e-03 2.2720511255e+00 -3.9353079868e+00 2.2720511255e+00 3.9353079868e+00 
48400 5.9870773170e+00 -6.9194403298e-03 2.2722054627e+00 -3.9355753066e+00 2.2722054627e+00 3.9355753066e+00 
48500 5.9870570425e+00 -6.8268326190e-03 2.2723577270e+00 -3.9358390362e+00 2.2723577270e+00 3.9358390362e+00 
48600 5.9870372040e+00 -6.7353244004e-03 2.2725079434e+00 -3.9360992187e+00 2.2725079434e+00 3.9360992187e+00 
48700 5.9870177928e+00 -6.6449042536e-03 2.2726561365e+00 -3.9363558965e+00 2.2726561365e+00 3.9363558965e+00 
48800 5.9869988002e+00 -6.5555608907e-03 2.2728023305e+00 -3.9366091120e+00 2.2728023305e+00 3.9366091120e+00 
48900 5.9869802178e+00 -6.4672831535e-03 2.2729465496e+00 -3.9368589069e+00 2.2729465496e+00 3.9368589069e+00 
49000 5.9869620372e+00 -6.3800600102e-03 2.2730888176e+00 -3.9371053222e+00 2.2730888176e+00 3.9371053222e+00 
49100 5.9869442502e+00 -6.2938805534e-03 2.2732291581e+00 -3.9373483990e+00 2.2732291581e+00 3.9373483990e+00 
49200 5.9869268488e+00 -6.2087339969e-03 2.2733675943e+00 -3.9375881775e+00 2.2733675943e+00 3.9375881775e+00 
49300 5.9869098251e+00 -6.1246096736e-03 2.2735041493e+00 -3.9378246978e+00 2.2735041493e+00 3.9378246978e+00 
49400 5.9868931714e+00 -6.0414970327e-03 2.2736388460e+00 -3.9380579993e+00 2.2736388460e+00 3.9380579993e+00 
49500 5.9868768801e+00 -5.9593856374e-03 2.2737717069e+00 -3.9382881212e+00 2.2737717069e+00 3.9382881212e+00 
49600 5.9868609437e+00 -5.8782651626e-03 2.2739027545e+00 -3.9385151022e+00 2.2739027545e+00 3.9385151022e+00 
49700 5.9868453548e+00 -5.7981253924e-03 2.2740320107e+00 -3.9387389805e+00 2.2740320107e+00 3.9387389805e+00 
49800 5.9868301064e+00 -5.7189562180e-03 2.2741594974e+00 -3.9389597941e+00 2.2741594974e+00 3.9389597941e+00 
49900 5.9868151914e+00 -5.6407476358e-03 2.2742852364e+00 -3.9391775803e+00 2.2742852364e+00 3.9391775803e+00 
50000 5.9868006028e+00 -5.5634897447e-03 2.2744092490e+00 -3.9393923764e+00 2.2744092490e+00 3.9393923764e+00 
50100 5.9867863338e+00 -5.4871727445e-03 2.2745315563e+00 -3.9396042190e+00 2.2745315563e+00 3.9396042190e+00 
50200 5.9867723779e+00 -5.4117869337e-03 2.2746521794e+00 -3.9398131443e+00 2.2746521794e+00 3.9398131443e+00 
50300 5.9867587284e+00 -5.3373227077e-03 2.2747711390e+00 -3.9400191884e+00 2.2747711390e+00 3.9400191884e+00 
50400 5.9867453790e+00 -5.2637705569e-03 2.2748884556e+00 -3.9402223867e+00 2.2748884556e+00 3.9402223867e+00 
50500 5.9867323234e+00 -5.1911210648e-03 2.2750041495e+00 -3.9404227744e+00 2.2750041495e+00 3.9404227744e+00 
50600 5.9867195554e+00 -5.1193649062e-03 2.2751182409e+00 -3.9406203864e+00 2.2751182409e+00 3.9406203864e+00 
50700 5.9867070689e+00 -5.0484928457e-03 2.2752307495e+00 -3.9408152570e+00 2.2752307495e+00 3.9408152570e+00 
50800 5.9866948581e+00 -4.9784957359e-03 2.2753416950e+00 -3.9410074203e+00 2.2753416950e+00 3.9410074203e+00 
50900 5.9866829170e+00 -4.9093645158e-03 2.2754510969e+00 -3.9411969100e+00 2.2754510969e+00 3.9411969100e+00 
51000 5.9866712401e+00 -4.8410902091e-03 2.2755589745e+00 -3.9413837595e+00 2.2755589745e+00 3.9413837595e+00 
51100 5.9866598217e+00 -4.7736639232e-03 2.2756653468e+00 -3.9415680017e+00 2.2756653468e+00 3.9415680017e+00 
51200 5.9866486563e+00 -4.7070768472e-03 2.2757702326e+00 -3.9417496692e+00 2.2757702326e+00 3.9417496692e+00 
51300 5.9866377385e+00 -4.6413202506e-03 2.2758736506e+00 -3.9419287945e+00 2.2758736506e+00 3.9419287945e+00 
51400 5.9866270631e+00 -4.5763854822e-03 2.2759756193e+00 -3.9421054093e+00 2.2759756193e+00 3.9421054093e+00 
51500 5.9866166248e+00 -4.5122639687e-03 2.2760761568e+00 -3.9422795454e+00 2.2760761568e+00 3.9422795454e+00 
51600 5.9866064187e+00 -4.4489472132e-03 2.2761752813e+00 -3.9424512341e+00 2.2761752813e+00 3.9424512341e+00 
51700 5.9865964397e+00 -4.3864267943e-03 2.2762730105e+00 -3.9426205061e+00 2.2762730105e+00 3.9426205061e+00 
51800 5.9865866830e+00 -4.3246943646e-03 2.2763693623e+00 -3.9427873922e+00 2.2763693623e+00 3.9427873922e+00 
51900 5.9865771438e+00 -4.2637416499e-03 2.2764643540e+00 -3.9429519227e+00 2.2764643540e+00 3.9429519227e+00 
52000 5.9865678174e+00 -4.2035604479e-03 2.2765580030e+00 -3.9431141275e+00 2.2765580030e+00 3.9431141275e+00 
52100 5.9865586992e+00 -4.1441426270e-03 2.2766503263e+00 -3.9432740362e+00 2.2766503263e+00 3.9432740362e+00 
52200 5.9865497847e+00 -4.0854801256e-03 2.2767413409e+00 -3.9434316782e+00 2.2767413409e+00 3.9434316782e+00 
52300 5.9865410696e+00 -4.0275649510e-03 2.2768310636e+00 -3.9435870824e+00 2.2768310636e+00 3.9435870824e+00 
52400 5.9865325495e+00 -3.9703891784e-03 2.2769195109e+00 -3.9437402777e+00 2.2769195109e+00 3.9437402777e+00 
52500 5.9865242201e+00 -3.9139449500e-03 2.2770066992e+00 -3.9438912922e+00 2.2770066992e+00 3.9438912922e+00 
52600 5.9865160774e+00 -3.8582244740e-03 2.2770926447e+00 -3.9440401542e+00 2.2770926447e+00 3.9440401542e+00 
52700 5.9865081172e+00 -3.8032200240e-03 2.2771773635e+00 -3.9441868913e+00 2.2771773635e+00 3.9441868913e+00 
52800 5.9865003357e+00 -3.7489239381e-03 2.2772608713e+00 -3.9443315312e+00 2.2772608713e+00 3.9443315312e+00 
52900 5.9864927288e+00 -3.6953286181e-03 2.2773431839e+00 -3.9444741008e+00 2.2773431839e+00 3.9444741008e+00 
53000 5.9864852929e+00 -3.6424265287e-03 2.2774243169e+00 -3.9446146272e+00 2.2774243169e+00 3.9446146272e+00 
53100 5.9864780240e+00 -3.5902101967e-03 2.2775042854e+00 -3.9447531368e+00 2.2775042854e+00 3.9447531368e+00 
53200 5.9864709186e+00 -3.5386722106e-03 2.2775831048e+00 -3.9448896561e+00 2.2775831048e+00 3.9448896561e+00 
53300 5.9864639732e+00 -3.4878052196e-03 2.2776607901e+00 -3.9450242109e+00 2.2776607901e+00 3.9450242109e+00 
53400 5.9864571841e+00 -3.4376019333e-03 2.2777373560e+00 -3.9451568269e+00 2.2777373560e+00 3.9451568269e+00 
53500 5.9864505479e+00 -3.3880551207e-03 2.2778128173e+00 -3.9452875298e+00 2.2778128173e+00 3.9452875298e+00 
53600 5.9864440614e+00 -3.3391576099e-03 2.2778871885e+00 -3.9454163445e+00 2.2778871885e+00 3.9454163445e+00 
53700 5.9864377210e+00 -3.2909022873e-03 2.2779604840e+00 -3.9455432959e+00 2.2779604840e+00 3.9455432959e+00 
53800 5.9864315238e+00 -3.2432820974e-03 2.2780327179e+00 -3.9456684087e+00 2.2780327179e+00 3.9456684087e+00 
53900 5.9864254664e+00 -3.1962900419e-03 2.2781039043e+00 -3.9457917072e+00 2.2781039043e+00 3.9457917072e+00 
54000 5.9864195458e+00 -3.1499191793e-03 2.2781740571e+00 -3.9459132154e+00 2.2781740571e+00 3.9459132154e+00 
54100 5.9864137590e+00 -3.1041626246e-03 2.2782431900e+00 -3.9460329570e+00 2.2782431900e+00 3.9460329570e+00 
54200 5.9864081030e+00 -3.0590135486e-03 2.2783113166e+00 -3.9461509557e+00 2.2783113166e+00 3.9461509557e+00 
54300 5.9864025748e+00 -3.0144651777e-03 2.2783784502e+00 -3.9462672347e+00 2.2783784502e+00 3.9462672347e+00 
54400 5.9863971717e+00 -2.9705107931e-03 2.2784446043e+00 -3.9463818169e+00 2.2784446043e+00 3.9463818169e+00 
54500 5.9863918909e+00 -2.9271437307e-03 2.2785097919e+00 -3.9464947250e+00 2.2785097919e+00 3.9464947250e+00 
54600 5.9863867296e+00 -2.8843573808e-03 2.2785740259e+00 -3.9466059817e+00 2.2785740259e+00 3.9466059817e+00 
54700 5.9863816852e+00 -2.8421451873e-03 2.2786373192e+00 -3.9467156089e+00 2.2786373192e+00 3.9467156089e+00 
54800 5.9863767550e+00 -2.8005006475e-03 2.2786996845e+00 -3.9468236288e+00 2.2786996845e+00 3.9468236288e+00 
54900 5.9863719366e+00 -2.7594173121e-03 2.2787611343e+00 -3.9469300630e+00 2.2787611343e+00 3.9469300630e+00 
55000 5.9863672274e+00 -2.7188887844e-03 2.2788216810e+00 -3.9470349329e+00 2.2788216810e+00 3.9470349329e+00 
55100 5.9863626250e+00 -2.6789087201e-03 2.2788813369e+00 -3.9471382599e+00 2.2788813369e+00 3.9471382599e+00 
55200 5.9863581270e+00 -2.6394708271e-03 2.2789401140e+00 -3.9472400648e+00 2.2789401140e+00 3.9472400648e+00 
55300 5.9863537310e+00 -2.6005688652e-03 2.2789980243e+00 -3.9473403684e+00 2.2789980243e+00 3.9473403684e+00 
55400 5.9863494348e+00 -2.5621966455e-03 2.2790550796e+00 -3.9474391911e+00 2.2790550796e+00 3.9474391911e+00 
55500 5.9863452361e+00 -2.5243480307e-03 2.2791112917e+00 -3.9475365532e+00 2.2791112917e+00 3.9475365532e+00 
55600 5.9863411328e+00 -2.4870169341e-03 2.2791666720e+00 -3.9476324748e+00 2.2791666720e+00 3.9476324748e+00 
55700 5.9863371226e+00 -2.4501973200e-03 2.2792212320e+00 -3.9477269755e+00 2.2792212320e+00 3.9477269755e+00 
55800 5.9863332035e+00 -2.4138832030e-03 2.2792749829e+00 -3.9478200749e+00 2.2792749829e+00 3.9478200749e+00 
55900 5.9863293735e+00 -2.3780686481e-03 2.2793279360e+00 -3.9479117923e+00 2.2793279360e+00 3.9479117923e+00 
56000 5.9863256305e+00 -2.3427477700e-03 2.2793801022e+00 -3.9480021468e+00 2.2793801022e+00 3.9480021468e+00 
56100 5.9863219726e+00 -2.3079147333e-03 2.2794314924e+00 -3.9480911573e+00 2.2794314924e+00 3.9480911573e+00 
56200 5.9863183979e+00 -2.2735637522e-03 2.2794821174e+00 -3.9481788423e+00 2.2794821174e+00 3.9481788423e+00 
56300 5.9863149044e+00 -2.2396890901e-03 2.2795319878e+00 -3.9482652203e+00 2.2795319878e+00 3.9482652203e+00 
56400 5.9863114904e+00 -2.2062850593e-03 2.2795811140e+00 -3.9483503095e+00 2.2795811140e+00 3.9483503095e+00 
56500 5.9863081541e+00 -2.1733460214e-03 2.2796295065e+00 -3.9484341277e+00 2.2796295065e+00 3.9484341277e+00 
56600 5.9863048936e+00 -2.1408663863e-03 2.2796771755e+00 -3.9485166929e+00 2.2796771755e+00 3.9485166929e+00 
56700 5.9863017074e+00 -2.1088406126e-03 2.2797241312e+00 -3.9485980224e+00 2.2797241312e+00 3.9485980224e+00 
56800 5.9862985936e+00 -2.0772632070e-03 2.2797703834e+00 -3.9486781337e+00 2.2797703834e+00 3.9486781337e+00 
56900 5.9862955507e+00 -2.0461287243e-03 2.2798159422e+00 -3.9487570438e+00 2.2798159422e+00 3.9487570438e+00 
57000 5.9862925771e+00 -2.0154317673e-03 2.2798608172e+00 -3.9488347696e+00 2.2798608172e+00 3.9488347696e+00 
57100 5.9862896712e+00 -1.9851669866e-03 2.2799050181e+00 -3.9489113278e+00 2.2799050181e+00 3.9489113278e+00 
57200 5.9862868314e+00 -1.9553290801e-03 2.2799485544e+00 -3.9489867349e+00 2.2799485544e+00 3.9489867349e+00 
57300 5.9862840563e+00 -1.9259127931e-03 2.2799914356e+00 -3.9490610072e+00 2.2799914356e+00 3.9490610072e+00 
57400 5.9862813443e+00 -1.8969129182e-03 2.2800336708e+00 -3.9491341607e+00 2.2800336708e+00 3.9491341607e+00 
57500 5.9862786942e+00 -1.8683242950e-03 2.2800752693e+00 -3.9492062114e+00 2.2800752693e+00 3.9492062114e+00 
57600 5.9862761044e+00 -1.8401418096e-03 2.2801162400e+00 -3.9492771749e+00 2.2801162400e+00 3.9492771749e+00 
57700 5.9862735736e+00 -1.8123603953e-03 2.2801565921e+00 -3.9493470667e+00 2.2801565921e+00 3.9493470667e+00 
57800 5.9862711004e+00 -1.7849750313e-03 2.2801963342e+00 -3.9494159021e+00 2.2801963342e+00 3.9494159021e+00 
57900 5.9862686836e+00 -1.7579807436e-03 2.2802354752e+00 -3.9494836962e+00 2.2802354752e+00 3.9494836962e+00 
58000 5.9862663219e+00 -1.7313726040e-03 2.2802740235e+00 -3.9495504639e+00 2.2802740235e+00 3.9495504639e+00 
58100 5.9862640139e+00 -1.7051457304e-03 2.2803119877e+00 -3.9496162199e+00 2.2803119877e+00 3.9496162199e+00 
58200 5.9862617586e+00 -1.6792952864e-03 2.2803493763e+00 -3.9496809787e+00 2.2803493763e+00 3.9496809787e+00 
58300 5.9862595546e+00 -1.6538164815e-03 2.2803861974e+00 -3.9497447547e+00 2.2803861974e+00 3.9497447547e+00 
58400 5.9862574009e+00 -1.6287045703e-03 2.2804224592e+00 -3.9498075621e+00 2.2804224592e+00 3.9498075621e+00 
58500 5.9862552963e+00 -1.6039548528e-03 2.2804581699e+00 -3.9498694148e+00 2.2804581699e+00 3.9498694148e+00 
58600 5.9862532396e+00 -1.5795626743e-03 2.2804933374e+00 -3.9499303267e+00 2.2804933374e+00 3.9499303267e+00 
58700 5.9862512298e+00 -1.5555234249e-03 2.2805279695e+00 -3.9499903113e+00 2.2805279695e+00 3.9499903113e+00 
58800 5.9862492658e+00 -1.5318325393e-03 2.2805620741e+00 -3.9500493821e+00 2.2805620741e+00 3.9500493821e+00 
58900 5.9862473466e+00 -1.5084854971e-03 2.2805956587e+00 -3.9501075524e+00 2.2805956587e+00 3.9501075524e+00 
59000 5.9862454712e+00 -1.4854778221e-03 2.2806287309e+00 -3.9501648352e+00 2.2806287309e+00 3.9501648352e+00 
59100 5.9862436385e+00 -1.4628050825e-03 2.2806612983e+00 -3.9502212435e+00 2.2806612983e+00 3.9502212435e+00 
59200 5.9862418476e+00 -1.4404628904e-03 2.2806933681e+00 -3.9502767901e+00 2.2806933681e+00 3.9502767901e+00 
59300 5.9862400975e+00 -1.4184469019e-03 2.2807249477e+00 -3.9503314875e+00 2.2807249477e+00 3.9503314875e+00 
59400 5.9862383873e+00 -1.3967528167e-03 2.2807560442e+00 -3.9503853482e+00 2.2807560442e+00 3.9503853482e+00 
59500 5.9862367161e+00 -1.3753763782e-03 2.2807866646e+00 -3.9504383844e+00 2.2807866646e+00 3.9504383844e+00 
59600 5.9862350831e+00 -1.3543133730e-03 2.2808168161e+00 -3.9504906082e+00 2.2808168161e+00 3.9504906082e+00 
59700 5.9862334873e+00 -1.3335596308e-03 2.2808465053e+00 -3.9505420315e+00 2.2808465053e+00 3.9505420315e+00 
59800 5.9862319278e+00 -1.3131110244e-03 2.2808757393e+00 -3.9505926662e+00 2.2808757393e+00 3.9505926662e+00 
59900 5.9862304040e+00 -1.2929634692e-03 2.2809045246e+00 -3.9506425238e+00 2.2809045246e+00 3.9506425238e+00 
60000 5.9862289149e+00 -1.2731129234e-03 2.2809328679e+00 -3.9506916158e+00 2.2809328679e+00 3.9506916158e+00 
60100 5.9862274598e+00 -1.2535553874e-03 2.2809607756e+00 -3.9507399535e+00 2.2809607756e+00 3.9507399535e+00 
60200 5.9862260379e+00 -1.2342869039e-03 2.2809882544e+00 -3.9507875480e+00 2.2809882544e+00 3.9507875480e+00 
60300 5.9862246484e+00 -1.2153035575e-03 2.2810153104e+00 -3.9508344104e+00 2.2810153104e+00 3.9508344104e+00 
60400 5.9862232906e+00 -1.1966014745e-03 2.2810419500e+00 -3.9508805515e+00 2.2810419500e+00 3.9508805515e+00 
60500 5.9862219638e+00 -1.1781768231e-03 2.2810681793e+00 -3.9509259821e+00 2.2810681793e+00 3.9509259821e+00 
60600 5.9862206673e+00 -1.1600258125e-03 2.2810940045e+00 -3.9509707126e+00 2.2810940045e+00 3.9509707126e+00 
60700 5.9862194004e+00 -1.1421446934e-03 2.2811194315e+00 -3.9510147534e+00 2.2811194315e+00 3.9510147534e+00 
60800 5.9862181624e+00 -1.1245297572e-03 2.2811444663e+00 -3.9510581150e+00 2.2811444663e+00 3.9510581150e+00 
60900 5.9862169527e+00 -1.1071773361e-03 2.2811691147e+00 -3.9511008073e+00 2.2811691147e+00 3.9511008073e+00 
61000 5.9862157706e+00 -1.0900838030e-03 2.2811933825e+00 -3.9511428403e+00 2.2811933825e+00 3.9511428403e+00 
61100 5.9862146155e+00 -1.0732455709e-03 2.2812172754e+00 -3.9511842240e+00 2.2812172754e+00 3.9511842240e+00 
61200 5.9862134867e+00 -1.0566590929e-03 2.2812407989e+00 -3.9512249680e+00 2.2812407989e+00 3.9512249680e+00 
61300 5.9862123838e+00 -1.0403208622e-03 2.2812639587e+00 -3.9512650820e+00 2.2812639587e+00 3.9512650820e+00 
61400 5.9862113060e+00 -1.0242274113e-03 2.2812867602e+00 -3.9513045752e+00 2.2812867602e+00 3.9513045752e+00 
61500 5.9862102529e+00 -1.0083753124e-03 2.2813092087e+00 -3.9513434572e+00 2.2813092087e+00 3.9513434572e+00 
61600 5.9862092238e+00 -9.9276117682e-04 2.2813313095e+00 -3.9513817369e+00 2.2813313095e+00 3.9513817369e+00 
61700 5.9862082183e+00 -9.7738165473e-04 2.2813530679e+00 -3.9514194236e+00 2.2813530679e+00 3.9514194236e+00 
61800 5.9862072358e+00 -9.6223343510e-04 2.2813744890e+00 -3.9514565261e+00 2.2813744890e+00 3.9514565261e+00 
61900 5.9862062757e+00 -9.4731324539e-04 2.2813955780e+00 -3.9514930532e+00 2.2813955780e+00 3.9514930532e+00 
62000 5.9862053375e+00 -9.3261785128e-04 2.2814163397e+00 -3.9515290136e+00 2.2814163397e+00 3.9515290136e+00 
62100 5.9862044209e+00 -9.1814405647e-04 2.2814367792e+00 -3.9515644158e+00 2.2814367792e+00 3.9515644158e+00 
62200 5.9862035252e+00 -9.0388870242e-04 2.2814569013e+00 -3.9515992683e+00 2.2814569013e+00 3.9515992683e+00 
62300 5.9862026500e+00 -8.8984866812e-04 2.2814767108e+00 -3.9516335793e+00 2.2814767108e+00 3.9516335793e+00 
62400 5.9862017948e+00 -8.7602086980e-04 2.2814962124e+00 -3.9516673571e+00 2.2814962124e+00 3.9516673571e+00 
62500 5.9862009592e+00 -8.6240226074e-04 2.2815154108e+00 -3.9517006097e+00 2.2815154108e+00 3.9517006097e+00 
62600 5.9862001428e+00 -8.4898983100e-04 2.2815343106e+00 -3.9517333451e+00 2.2815343106e+00 3.9517333451e+00 
62700 5.9861993450e+00 -8.3578060713e-04 2.2815529163e+00 -3.9517655712e+00 2.2815529163e+00 3.9517655712e+00 
62800 5.9861985656e+00 -8.2277165196e-04 2.2815712324e+00 -3.9517972955e+00 2.2815712324e+00 3.9517972955e+00 
62900 5.9861978040e+00 -8.0996006432e-04 2.2815892632e+00 -3.9518285258e+00 2.2815892632e+00 3.9518285258e+00 
63000 5.9861970598e+00 -7.9734297882e-04 2.2816070131e+00 -3.9518592696e+00 2.2816070131e+00 3.9518592696e+00 
63100 5.9861963327e+00 -7.8491756551e-04 2.2816244864e+00 -3.9518895343e+00 2.2816244864e+00 3.9518895343e+00 
63200 5.9861956224e+00 -7.7268102971e-04 2.2816416873e+00 -3.9519193271e+00 2.2816416873e+00 3.9519193271e+00 
63300 5.9861949283e+00 -7.6063061168e-04 2.2816586199e+00 -3.9519486552e+00 2.2816586199e+00 3.9519486552e+00 
63400 5.9861942501e+00 -7.4876358639e-04 2.2816752883e+00 -3.9519775257e+00 2.2816752883e+00 3.9519775257e+00 
63500 5.9861935875e+00 -7.3707726324e-04 2.2816916965e+00 -3.9520059455e+00 2.2816916965e+00 3.9520059455e+00 
63600 5.9861929402e+00 -7.2556898579e-04 2.2817078485e+00 -3.9520339216e+00 2.2817078485e+00 3.9520339216e+00 
63700 5.9861923077e+00 -7.1423613152e-04 2.2817237482e+00 -3.9520614607e+00 2.2817237482e+00 3.9520614607e+00 
63800 5.9861916898e+00 -7.0307611149e-04 2.2817393995e+00 -3.9520885695e+00 2.2817393995e+00 3.9520885695e+00 
63900 5.9861910861e+00 -6.9208637016e-04 2.2817548061e+00 -3.9521152545e+00 2.2817548061e+00 3.9521152545e+00 
64000 5.9861904963e+00 -6.8126438505e-04 2.2817699717e+00 -3.9521415222e+00 2.2817699717e+00 3.9521415222e+00 
64100 5.9861899200e+00 -6.7060766648e-04 2.2817849002e+00 -3.9521673791e+00 2.2817849002e+00 3.9521673791e+00 
64200 5.9861893571e+00 -6.6011375731e-04 2.2817995950e+00 -3.9521928312e+00 2.2817995950e+00 3.9521928312e+00 
64300 5.9861888071e+00 -6.4978023265e-04 2.2818140598e+00 -3.9522178850e+00 2.2818140598e+00 3.9522178850e+00 
64400 5.9861882698e+00 -6.3960469960e-04 2.2818282980e+00 -3.9522425463e+00 2.2818282980e+00 3.9522425463e+00 
64500 5.9861877449e+00 -6.2958479694e-04 2.2818423132e+00 -3.9522668214e+00 2.2818423132e+00 3.9522668214e+00 
64600 5.9861872321e+00 -6.1971819488e-04 2.2818561088e+00 -3.9522907160e+00 2.2818561088e+00 3.9522907160e+00 
64700 5.9861867311e+00 -6.1000259477e-04 2.2818696880e+00 -3.9523142359e+00 2.2818696880e+00 3.9523142359e+00 
64800 5.9861862418e+00 -6.0043572882e-04 2.2818830543e+00 -3.9523373871e+00 2.2818830543e+00 3.9523373871e+00 
64900 5.9861857637e+00 -5.9101535982e-04 2.2818962109e+00 -3.9523601750e+00 2.2818962109e+00 3.9523601750e+00 
65000 5.9861852967e+00 -5.8173928086e-04 2.2819091610e+00 -3.9523826052e+00 2.2819091610e+00 3.9523826052e+00 
65100 5.9861848405e+00 -5.7260531504e-04 2.2819219078e+00 -3.9524046833e+00 2.2819219078e+00 3.9524046833e+00 
65200 5.9861843949e+00 -5.6361131519e-04 2.2819344544e+00 -3.9524264146e+00 2.2819344544e+00 3.9524264146e+00 
65300 5.9861839596e+00 -5.5475516360e-04 2.2819468038e+00 -3.9524478044e+00 2.2819468038e+00 3.9524478044e+00 
65400 5.9861835345e+00 -5.4603477171e-04 2.2819589591e+00 -3.9524688580e+00 2.2819589591e+00 3.9524688580e+00 
65500 5.9861831191e+00 -5.3744807987e-04 2.2819709233e+00 -3.9524895806e+00 2.2819709233e+00 3.9524895806e+00 
65600 5.9861827135e+00 -5.2899305700e-04 2.2819826993e+00 -3.9525099772e+00 2.2819826993e+00 3.9525099772e+00 
65700 5.9861823173e+00 -5.2066770036e-04 2.2819942899e+00 -3.9525300528e+00 2.2819942899e+00 3.9525300528e+00 
65800 5.9861819302e+00 -5.1247003522e-04 2.2820056981e+00 -3.9525498123e+00 2.2820056981e+00 3.9525498123e+00 
65900 5.9861815522e+00 -5.0439811462e-04 2.2820169266e+00 -3.9525692607e+00 2.2820169266e+00 3.9525692607e+00 
66000 5.9861811830e+00 -4.9645001905e-04 2.2820279782e+00 -3.9525884026e+00 2.2820279782e+00 3.9525884026e+00 
66100 5.9861808225e+00 -4.8862385618e-04 2.2820388556e+00 -3.9526072428e+00 2.2820388556e+00 3.9526072428e+00 
66200 5.9861804703e+00 -4.8091776059e-04 2.2820495615e+00 -3.9526257859e+00 2.2820495615e+00 3.9526257859e+00 
66300 5.9861801263e+00 -4.7332989346e-04 2.2820600985e+00 -3.9526440365e+00 2.2820600985e+00 3.9526440365e+00 
66400 5.9861797904e+00 -4.6585844232e-04 2.2820704692e+00 -3.9526619990e+00 2.2820704692e+00 3.9526619990e+00 
66500 5.9861794624e+00 -4.5850162073e-04 2.2820806761e+00 -3.9526796780e+00 2.2820806761e+00 3.9526796780e+00 
66600 5.9861791421e+00 -4.5125766802e-04 2.2820907218e+00 -3.9526970776e+00 2.2820907218e+00 3.9526970776e+00 
66700 5.9861788292e+00 -4.4412484903e-04 2.2821006087e+00 -3.9527142023e+00 2.2821006087e+00 3.9527142023e+00 
66800 5.9861785237e+00 -4.3710145377e-04 2.2821103394e+00 -3.9527310562e+00 2.2821103394e+00 3.9527310562e+00 
66900 5.9861782254e+00 -4.3018579719e-04 2.2821199161e+00 -3.9527476436e+00 2.2821199161e+00 3.9527476436e+00 
67000 5.9861779341e+00 -4.2337621890e-04 2.2821293412e+00 -3.9527639684e+00 2.2821293412e+00 3.9527639684e+00 
67100 5.9861776496e+00 -4.1667108285e-04 2.2821386171e+00 -3.9527800347e+00 2.2821386171e+00 3.9527800347e+00 
67200 5.9861773719e+00 -4.1006877709e-04 2.2821477461e+00 -3.9527958466e+00 2.2821477461e+00 3.9527958466e+00 
67300 5.9861771007e+00 -4.0356771349e-04 2.2821567304e+00 -3.9528114078e+00 2.2821567304e+00 3.9528114078e+00 
67400 5.9861768359e+00 -3.9716632744e-04 2.2821655722e+00 -3.9528267223e+00 2.2821655722e+00 3.9528267223e+00 
67500 5.9861765774e+00 -3.9086307758e-04 2.2821742737e+00 -3.9528417938e+00 2.2821742737e+00 3.9528417938e+00 
67600 5.9861763249e+00 -3.8465644557e-04 2.2821828371e+00 -3.9528566260e+00 2.2821828371e+00 3.9528566260e+00 
67700 5.9861760785e+00 -3.7854493575e-04 2.2821912645e+00 -3.9528712227e+00 2.2821912645e+00 3.9528712227e+00 
67800 5.9861758379e+00 -3.7252707490e-04 2.2821995579e+00 -3.9528855874e+00 2.2821995579e+00 3.9528855874e+00 
67900 5.9861756031e+00 -3.6660141197e-04 2.2822077195e+00 -3.9528997236e+00 2.2822077195e+00 3.9528997236e+00 
68000 5.9861753738e+00 -3.6076651782e-04 2.2822157513e+00 -3.9529136350e+00 2.2822157513e+00 3.9529136350e+00 
68100 5.9861751500e+00 -3.5502098492e-04 2.2822236551e+00 -3.9529273249e+00 2.2822236551e+00 3.9529273249e+00 
68200 5.9861749315e+00 -3.4936342711e-04 2.2822314331e+00 -3.9529407967e+00 2.2822314331e+00 3.9529407967e+00 
68300 5.9861747182e+00 -3.4379247932e-04 2.2822390871e+00 -3.9529540538e+00 2.2822390871e+00 3.9529540538e+00 
68400 5.9861745100e+00 -3.3830679730e-04 2.2822466190e+00 -3.9529670995e+00 2.2822466190e+00 3.9529670995e+00 
68500 5.9861743069e+00 -3.3290505739e-04 2.2822540307e+00 -3.9529799370e+00 2.2822540307e+00 3.9529799370e+00 
68600 5.9861741085e+00 -3.2758595622e-04 2.2822613240e+00 -3.9529925694e+00 2.2822613240e+00 3.9529925694e+00 
68700 5.9861739150e+00 -3.2234821043e-04 2.2822685008e+00 -3.9530050000e+00 2.2822685008e+00 3.9530050000e+00 
68800 5.9861737261e+00 -3.1719055650e-04 2.2822755629e+00 -3.9530172317e+00 2.2822755629e+00 3.9530172317e+00 
68900 5.9861735418e+00 -3.1211175040e-04 2.2822825119e+00 -3.9530292678e+00 2.2822825119e+00 3.9530292678e+00 
69000 5.9861733619e+00 -3.0711056737e-04 2.2822893496e+00 -3.9530411110e+00 2.2822893496e+00 3.9530411110e+00 
69100 5.9861731863e+00 -3.0218580168e-04 2.2822960777e+00 -3.9530527645e+00 2.2822960777e+00 3.9530527645e+00 
69200 5.9861730150e+00 -2.9733626634e-04 2.2823026979e+00 -3.9530642310e+00 2.2823026979e+00 3.9530642310e+00 
69300 5.9861728479e+00 -2.9256079289e-04 2.2823092119e+00 -3.9530755135e+00 2.2823092119e+00 3.9530755135e+00 
69400 5.9861726848e+00 -2.8785823112e-04 2.2823156212e+00 -3.9530866148e+00 2.2823156212e+00 3.9530866148e+00 
69500 5.9861725256e+00 -2.8322744884e-04 2.2823219275e+00 -3.9530975376e+00 2.2823219275e+00 3.9530975376e+00 
69600 5.9861723704e+00 -2.7866733161e-04 2.2823281323e+00 -3.9531082847e+00 2.2823281323e+00 3.9531082847e+00 
69700 5.9861722189e+00 -2.7417678255e-04 2.2823342372e+00 -3.9531188586e+00 2.2823342372e+00 3.9531188586e+00 
69800 5.9861720712e+00 -2.6975472203e-04 2.2823402437e+00 -3.9531292622e+00 2.2823402437e+00 3.9531292622e+00 
69900 5.9861719270e+00 -2.6540008746e-04 2.2823461533e+00 -3.9531394980e+00 2.2823461533e+00 3.9531394980e+00 
70000 5.9861717864e+00 -2.6111183306e-04 2.2823519675e+00 -3.9531495684e+00 2.2823519675e+00 3.9531495684e+00 
70100 5.9861716493e+00 -2.5688892962e-04 2.2823576877e+00 -3.9531594762e+00 2.2823576877e+00 3.9531594762e+00 
70200 5.9861715155e+00 -2.5273036426e-04 2.2823633154e+00 -3.9531692237e+00 2.2823633154e+00 3.9531692237e+00 
70300 5.9861713850e+00 -2.4863514018e-04 2.2823688520e+00 -3.9531788133e+00 2.2823688520e+00 3.9531788133e+00 
70400 5.9861712578e+00 -2.4460227647e-04 2.2823742989e+00 -3.9531882476e+00 2.2823742989e+00 3.9531882476e+00 
70500 5.9861711337e+00 -2.4063080784e-04 2.2823796574e+00 -3.9531975288e+00 2.2823796574e+00 3.9531975288e+00 
70600 5.9861710127e+00 -2.3671978442e-04 2.2823849289e+00 -3.9532066593e+00 2.2823849289e+00 3.9532066593e+00 
70700 5.9861708947e+00 -2.3286827152e-04 2.2823901147e+00 -3.9532156414e+00 2.2823901147e+00 3.9532156414e+00 
70800 5.9861707797e+00 -2.2907534942e-04 2.2823952161e+00 -3.9532244773e+00 2.2823952161e+00 3.9532244773e+00 
70900 5.9861706675e+00 -2.2534011314e-04 2.2824002344e+00 -3.9532331692e+00 2.2824002344e+00 3.9532331692e+00 
71000 5.9861705581e+00 -2.2166167222e-04 2.2824051709e+00 -3.9532417195e+00 2.2824051709e+00 3.9532417195e+00 
71100 5.9861704515e+00 -2.1803915051e-04 2.2824100268e+00 -3.9532501301e+00 2.2824100268e+00 3.9532501301e+00 
71200 5.9861703475e+00 -2.1447168596e-04 2.2824148033e+00 -3.9532584033e+00 2.2824148033e+00 3.9532584033e+00 
71300 5.9861702462e+00 -2.1095843040e-04 2.2824195016e+00 -3.9532665410e+00 2.2824195016e+00 3.9532665410e+00 
71400 5.9861701475e+00 -2.0749854930e-04 2.2824241230e+00 -3.9532745455e+00 2.2824241230e+00 3.9532745455e+00 
71500 5.9861700512e+00 -2.0409122165e-04 2.2824286686e+00 -3.9532824187e+00 2.2824286686e+00 3.9532824187e+00 
71600 5.9861699574e+00 -2.0073563963e-04 2.2824331395e+00 -3.9532901625e+00 2.2824331395e+00 3.9532901625e+00 
71700 5.9861698660e+00 -1.9743100854e-04 2.2824375369e+00 -3.9532977791e+00 2.2824375369e+00 3.9532977791e+00 
71800 5.9861697769e+00 -1.9417654647e-04 2.2824418619e+00 -3.9533052702e+00 2.2824418619e+00 3.9533052702e+00 
71900 5.9861696901e+00 -1.9097148421e-04 2.2824461156e+00 -3.9533126378e+00 2.2824461156e+00 3.9533126378e+00 
72000 5.9861696055e+00 -1.8781506497e-04 2.2824502991e+00 -3.9533198838e+00 2.2824502991e+00 3.9533198838e+00 
72100 5.9861695231e+00 -1.8470654424e-04 2.2824544135e+00 -3.9533270101e+00 2.2824544135e+00 3.9533270101e+00 
72200 5.9861694428e+00 -1.8164518957e-04 2.2824584597e+00 -3.9533340183e+00 2.2824584597e+00 3.9533340183e+00 
72300 5.9861693646e+00 -1.7863028039e-04 2.2824624388e+00 -3.9533409104e+00 2.2824624388e+00 3.9533409104e+00 
72400 5.9861692885e+00 -1.7566110781e-04 2.2824663519e+00 -3.9533476881e+00 2.2824663519e+00 3.9533476881e+00 
72500 5.9861692143e+00 -1.7273697445e-04 2.2824702000e+00 -3.9533543532e+00 2.2824702000e+00 3.9533543532e+00 
72600 5.9861691420e+00 -1.6985719423e-04 2.2824739840e+00 -3.9533609072e+00 2.2824739840e+00 3.9533609072e+00 
72700 5.9861690717e+00 -1.6702109223e-04 2.2824777049e+00 -3.9533673520e+00 2.2824777049e+00 3.9533673520e+00 
72800 5.9861690032e+00 -1.6422800448e-04 2.2824813637e+00 -3.9533736892e+00 2.2824813637e+00 3.9533736892e+00 
72900 5.9861689365e+00 -1.6147727777e-04 2.2824849612e+00 -3.9533799204e+00 2.2824849612e+00 3.9533799204e+00 
73000 5.9861688715e+00 -1.5876826950e-04 2.2824884986e+00 -3.9533860472e+00 2.2824884986e+00 3.9533860472e+00 
73100 5.9861688083e+00 -1.5610034752e-04 2.2824919765e+00 -3.9533920712e+00 2.2824919765e+00 3.9533920712e+00 
73200 5.9861687468e+00 -1.5347288992e-04 2.2824953960e+00 -3.9533979940e+00 2.2824953960e+00 3.9533979940e+00 
73300 5.9861686869e+00 -1.5088528488e-04 2.2824987580e+00 -3.9534038171e+00 2.2824987580e+00 3.9534038171e+00 
73400 5.9861686286e+00 -1.4833693051e-04 2.2825020633e+00 -3.9534095419e+00 2.2825020633e+00 3.9534095419e+00 
73500 5.9861685719e+00 -1.4582723468e-04 2.2825053127e+00 -3.9534151701e+00 2.2825053127e+00 3.9534151701e+00 
73600 5.9861685167e+00 -1.4335561485e-04 2.2825085071e+00 -3.9534207031e+00 2.2825085071e+00 3.9534207031e+00 
73700 5.9861684630e+00 -1.4092149793e-04 2.2825116475e+00 -3.9534261423e+00 2.2825116475e+00 3.9534261423e+00 
73800 5.9861684108e+00 -1.3852432010e-04 2.2825147344e+00 -3.9534314891e+00 2.2825147344e+00 3.9534314891e+00 
73900 5.9861683600e+00 -1.3616352666e-04 2.2825177689e+00 -3.9534367449e+00 2.2825177689e+00 3.9534367449e+00 
74000 5.9861683106e+00 -1.3383857188e-04 2.2825207517e+00 -3.9534419112e+00 2.2825207517e+00 3.9534419112e+00 
74100 5.9861682625e+00 -1.3154891887e-04 2.2825236835e+00 -3.9534469893e+00 2.2825236835e+00 3.9534469893e+00 
74200 5.9861682158e+00 -1.2929403938e-04 2.2825265651e+00 -3.9534519804e+00 2.2825265651e+00 3.9534519804e+00 
74300 5.9861681703e+00 -1.2707341370e-04 2.2825293974e+00 -3.9534568860e+00 2.2825293974e+00 3.9534568860e+00 
74400 5.9861681262e+00 -1.2488653050e-04 2.2825321810e+00 -3.9534617074e+00 2.2825321810e+00 3.9534617074e+00 
74500 5.9861680832e+00 -1.2273288666e-04 2.2825349167e+00 -3.9534664458e+00 2.2825349167e+00 3.9534664458e+00 
74600 5.9861680415e+00 -1.2061198719e-04 2.2825376052e+00 -3.9534711024e+00 2.2825376052e+00 3.9534711024e+00 
74700 5.9861680010e+00 -1.1852334501e-04 2.2825402473e+00 -3.9534756786e+00 2.2825402473e+00 3.9534756786e+00 
74800 5.9861679616e+00 -1.1646648090e-04 2.2825428436e+00 -3.9534801755e+00 2.2825428436e+00 3.9534801755e+00 
74900 5.9861679233e+00 -1.1444092330e-04 2.2825453948e+00 -3.9534845944e+00 2.2825453948e+00 3.9534845944e+00 
75000 5.9861678861e+00 -1.1244620820e-04 2.2825479017e+00 -3.9534889365e+00 2.2825479017e+00 3.9534889365e+00 
75100 5.9861678500e+00 -1.1048187901e-04 2.2825503649e+00 -3.9534932028e+00 2.2825503649e+00 3.9534932028e+00 
75200 5.9861678149e+00 -1.0854748644e-04 2.2825527850e+00 -3.9534973946e+00 2.2825527850e+00 3.9534973946e+00 
75300 5.9861677809e+00 -1.0664258836e-04 2.2825551628e+00 -3.9535015130e+00 2.2825551628e+00 3.9535015130e+00 
75400 5.9861677478e+00 -1.0476674967e-04 2.2825574988e+00 -3.9535055592e+00 2.2825574988e+00 3.9535055592e+00 
75500 5.9861677157e+00 -1.0291954219e-04 2.2825597938e+00 -3.9535095341e+00 2.2825597938e+00 3.9535095341e+00 
75600 5.9861676845e+00 -1.0110054454e-04 2.2825620482e+00 -3.9535134390e+00 2.2825620482e+00 3.9535134390e+00 
75700 5.9861676543e+00 -9.9309342017e-05 2.2825642629e+00 -3.9535172748e+00 2.2825642629e+00 3.9535172748e+00 
75800 5.9861676250e+00 -9.7545526470e-05 2.2825664383e+00 -3.9535210427e+00 2.2825664383e+00 3.9535210427e+00 
75900 5.9861675966e+00 -9.5808696197e-05 2.2825685750e+00 -3.9535247437e+00 2.2825685750e+00 3.9535247437e+00 
76000 5.9861675690e+00 -9.4098455825e-05 2.2825706737e+00 -3.9535283787e+00 2.2825706737e+00 3.9535283787e+00 
76100 5.9861675422e+00 -9.2414416204e-05 2.2825727350e+00 -3.9535319489e+00 2.2825727350e+00 3.9535319489e+00 
76200 5.9861675163e+00 -9.0756194289e-05 2.2825747593e+00 -3.9535354552e+00 2.2825747593e+00 3.9535354552e+00 
76300 5.9861674912e+00 -8.9123413039e-05 2.2825767473e+00 -3.9535388985e+00 2.2825767473e+00 3.9535388985e+00 
76400 5.9861674668e+00 -8.7515701309e-05 2.2825786996e+00 -3.9535422799e+00 2.2825786996e+00 3.9535422799e+00 
76500 5.9861674432e+00 -8.5932693748e-05 2.2825806166e+00 -3.9535456003e+00 2.2825806166e+00 3.9535456003e+00 
76600 5.9861674203e+00 -8.4374030693e-05 2.2825824990e+00 -3.9535488607e+00 2.2825824990e+00 3.9535488607e+00 
76700 5.9861673982e+00 -8.2839358068e-05 2.2825843472e+00 -3.9535520619e+00 2.2825843472e+00 3.9535520619e+00 
76800 5.9861673767e+00 -8.1328327290e-05 2.2825861618e+00 -3.9535552049e+00 2.2825861618e+00 3.9535552049e+00 
76900 5.9861673560e+00 -7.9840595169e-05 2.2825879433e+00 -3.9535582905e+00 2.2825879433e+00 3.9535582905e+00 
77000 5.9861673359e+00 -7.8375823809e-05 2.2825896922e+00 -3.9535613197e+00 2.2825896922e+00 3.9535613197e+00 
77100 5.9861673165e+00 -7.6933680520e-05 2.2825914090e+00 -3.9535642933e+00 2.2825914090e+00 3.9535642933e+00 
77200 5.9861672977e+00 -7.5513837725e-05 2.2825930942e+00 -3.9535672122e+00 2.2825930942e+00 3.9535672122e+00 
77300 5.9861672795e+00 -7.4115972863e-05 2.2825947484e+00 -3.9535700772e+00 2.2825947484e+00 3.9535700772e+00 
77400 5.9861672619e+00 -7.2739768307e-05 2.2825963719e+00 -3.9535728892e+00 2.2825963719e+00 3.9535728892e+00 
77500 5.9861672449e+00 -7.1384911278e-05 2.2825979652e+00 -3.9535756490e+00 2.2825979652e+00 3.9535756490e+00 
77600 5.9861672285e+00 -7.0051093751e-05 2.2825995289e+00 -3.9535783574e+00 2.2825995289e+00 3.9535783574e+00 
77700 5.9861672128e+00 -7.0175969662e-05 2.2825995289e+00 -3.9535783574e+00 2.2825995289e+00 3.9535783574e+00 
77800 5.9861671976e+00 -7.0303829658e-05 2.2825995289e+00 -3.9535783574e+00 2.2825995289e+00 3.9535783574e+00 
77900 5.9861671829e+00 -7.0434487923e-05 2.2825995289e+00 -3.9535783574e+00 2.2825995289e+00 3.9535783574e+00 
78000 5.9861671687e+00 -7.0567761327e-05 2.2825995289e+00 -3.9535783574e+00 2.2825995289e+00 3.9535783574e+00 
78100 5.9861671550e+00 -7.0703469471e-05 2.2825995289e+00 -3.9535783574e+00 2.2825995289e+00 3.9535783574e+00 
78200 5.9861671418e+00 -7.0841434749e-05 2.2825995289e+00 -3.9535783574e+00 2.2825995289e+00 3.9535783574e+00 
78300 5.9861671290e+00 -6.9527309565e-05 2.2826010807e+00 -3.9535810451e+00 2.2826010807e+00 3.9535810451e+00 
78400 5.9861671168e+00 -6.9659655066e-05 2.2826010807e+00 -3.9535810451e+00 2.2826010807e+00 3.9535810451e+00 
78500 5.9861671050e+00 -6.9793876815e-05 2.2826010807e+00 -3.9535810451e+00 2.2826010807e+00 3.9535810451e+00 
78600 5.9861670937e+00 -6.9929809853e-05 2.2826010807e+00 -3.9535810451e+00 2.2826010807e+00 3.9535810451e+00 
78700 5.9861670827e+00 -7.0067292148e-05 2.2826010807e+00 -3.9535810451e+00 2.2826010807e+00 3.9535810451e+00 
78800 5.9861670722e+00 -7.0206164636e-05 2.2826010807e+00 -3.9535810451e+00 2.2826010807e+00 3.9535810451e+00 
78900 5.9861670621e+00 -7.0346271255e-05 2.2826010807e+00 -3.9535810451e+00 2.2826010807e+00 3.9535810451e+00 
79000 5.9861670524e+00 -7.0487458983e-05 2.2826010807e+00 -3.9535810451e+00 2.2826010807e+00 3.9535810451e+00 
79100 5.9861670431e+00 -7.0629577862e-05 2.2826010807e+00 -3.9535810451e+00 2.2826010807e+00 3.9535810451e+00 
79200 5.9861670342e+00 -7.0772481035e-05 2.2826010807e+00 -3.9535810451e+00 2.2826010807e+00 3.9535810451e+00 
79300 5.9861670255e+00 -6.9463286929e-05 2.2826026309e+00 -3.9535837302e+00 2.2826026309e+00 3.9535837302e+00 
79400 5.9861670173e+00 -6.9597726838e-05 2.2826026309e+00 -3.9535837302e+00 2.2826026309e+00 3.9535837302e+00 
79500 5.9861670094e+00 -6.9732663816e-05 2.2826026309e+00 -3.9535837302e+00 2.2826026309e+00 3.9535837302e+00 
79600 5.9861670019e+00 -6.9867964604e-05 2.2826026309e+00 -3.9535837302e+00 2.2826026309e+00 3.9535837302e+00 
79700 5.9861669947e+00 -7.0003499023e-05 2.2826026309e+00 -3.9535837302e+00 2.2826026309e+00 3.9535837302e+00 
79800 5.9861669878e+00 -7.0139139977e-05 2.2826026309e+00 -3.9535837302e+00 2.2826026309e+00 3.9535837302e+00 
79900 5.9861669812e+00 -7.0274763464e-05 2.2826026309e+00 -3.9535837302e+00 2.2826026309e+00 3.9535837302e+00 
80000 5.9861669749e+00 -7.0410248573e-05 2.2826026309e+00 -3.9535837302e+00 2.2826026309e+00 3.9535837302e+00 
80100 5.9861669690e+00 -7.0545477488e-05 2.2826026309e+00 -3.9535837302e+00 2.2826026309e+00 3.9535837302e+00 
80200 5.9861669633e+00 -7.0680335489e-05 2.2826026309e+00 -3.9535837302e+00 2.2826026309e+00 3.9535837302e+00 
80300 5.9861669578e+00 -7.0814710947e-05 2.2826026309e+00 -3.9535837302e+00 2.2826026309e+00 3.9535837302e+00 
80400 5.9861669526e+00 -6.9494914683e-05 2.2826041821e+00 -3.9535864170e+00 2.2826041821e+00 3.9535864170e+00 
80500 5.9861669477e+00 -6.9618392382e-05 2.2826041821e+00 -3.9535864170e+00 2.2826041821e+00 3.9535864170e+00 
80600 5.9861669431e+00 -6.9741205742e-05 2.2826041821e+00 -3.9535864170e+00 2.2826041821e+00 3.9535864170e+00 
80700 5.9861669387e+00 -6.9863256442e-05 2.2826041821e+00 -3.9535864170e+00 2.2826041821e+00 3.9535864170e+00 
80800 5.9861669345e+00 -6.9984449086e-05 2.2826041821e+00 -3.9535864170e+00 2.2826041821e+00 3.9535864170e+00 
80900 5.9861669306e+00 -7.0104691191e-05 2.2826041821e+00 -3.9535864170e+00 2.2826041821e+00 3.9535864170e+00 
81000 5.9861669270e+00 -7.0223893169e-05 2.2826041821e+00 -3.9535864170e+00 2.2826041821e+00 3.9535864170e+00 
81100 5.9861669235e+00 -7.0341968311e-05 2.2826041821e+00 -3.9535864170e+00 2.2826041821e+00 3.9535864170e+00 
81200 5.9861669202e+00 -7.0458832758e-05 2.2826041821e+00 -3.9535864170e+00 2.2826041821e+00 3.9535864170e+00 
81300 5.9861669172e+00 -7.0574405493e-05 2.2826041821e+00 -3.9535864170e+00 2.2826041821e+00 3.9535864170e+00 
81400 5.9861669144e+00 -7.0688608311e-05 2.2826041821e+00 -3.9535864170e+00 2.2826041821e+00 3.9535864170e+00 
81500 5.9861669117e+00 -7.0801365795e-05 2.2826041821e+00 -3.9535864170e+00 2.2826041821e+00 3.9535864170e+00 
81600 5.9861669092e+00 -6.9459326452e-05 2.2826057330e+00 -3.9535891032e+00 2.2826057330e+00 3.9535891032e+00 
81700 5.9861669069e+00 -6.9559369049e-05 2.2826057330e+00 -3.9535891032e+00 2.2826057330e+00 3.9535891032e+00 
81800 5.9861669048e+00 -6.9657891135e-05 2.2826057330e+00 -3.9535891032e+00 2.2826057330e+00 3.9535891032e+00 
81900 5.9861669029e+00 -6.9754829219e-05 2.2826057330e+00 -3.9535891032e+00 2.2826057330e+00 3.9535891032e+00 
82000 5.9861669012e+00 -6.9850122350e-05 2.2826057330e+00 -3.9535891032e+00 2.2826057330e+00 3.9535891032e+00 
82100 5.9861668996e+00 -6.9943712081e-05 2.2826057330e+00 -3.9535891032e+00 2.2826057330e+00 3.9535891032e+00 
82200 5.9861668982e+00 -7.0035542441e-05 2.2826057330e+00 -3.9535891032e+00 2.2826057330e+00 3.9535891032e+00 
82300 5.9861668969e+00 -7.0125559903e-05 2.2826057330e+00 -3.9535891032e+00 2.2826057330e+00 3.9535891032e+00 
82400 5.9861668958e+00 -7.0213713355e-05 2.2826057330e+00 -3.9535891032e+00 2.2826057330e+00 3.9535891032e+00 
82500 5.9861668948e+00 -7.0299954062e-05 2.2826057330e+00 -3.9535891032e+00 2.2826057330e+00 3.9535891032e+00 
82600 5.9861668940e+00 -7.0384235643e-05 2.2826057330e+00 -3.9535891032e+00 2.2826057330e+00 3.9535891032e+00 
82700 5.9861668933e+00 -7.0466514028e-05 2.2826057330e+00 -3.9535891032e+00 2.2826057330e+00 3.9535891032e+00 
82800 5.9861668927e+00 -7.0546747432e-05 2.2826057330e+00 -3.9535891032e+00 2.2826057330e+00 3.9535891032e+00 
82900 5.9861668923e+00 -7.0624896315e-05 2.2826057330e+00 -3.9535891032e+00 2.2826057330e+00 3.9535891032e+00 
83000 5.9861668919e+00 -7.0700923351e-05 2.2826057330e+00 -3.9535891032e+00 2.2826057330e+00 3.9535891032e+00 
83100 5.9861668917e+00 -7.0774793389e-05 2.2826057330e+00 -3.9535891032e+00 2.2826057330e+00 3.9535891032e+00 
83200 5.9861668916e+00 -6.9393777017e-05 2.2826072833e+00 -3.9535917884e+00 2.2826072833e+00 3.9535917884e+00 
83300 5.9861668916e+00 -6.9453629818e-05 2.2826072833e+00 -3.9535917884e+00 2.2826072833e+00 3.9535917884e+00 
83400 5.9861668917e+00 -6.9511367412e-05 2.2826072833e+00 -3.9535917884e+00 2.2826072833e+00 3.9535917884e+00 
83500 5.9861668920e+00 -6.9566964033e-05 2.2826072833e+00 -3.9535917884e+00 2.2826072833e+00 3.9535917884e+00 
83600 5.9861668923e+00 -6.9620395793e-05 2.2826072833e+00 -3.9535917884e+00 2.2826072833e+00 3.9535917884e+00 
83700 5.9861668927e+00 -6.9671640633e-05 2.2826072833e+00 -3.9535917884e+00 2.2826072833e+00 3.9535917884e+00 
83800 5.9861668933e+00 -6.9720678301e-05 2.2826072833e+00 -3.9535917884e+00 2.2826072833e+00 3.9535917884e+00 
83900 5.9861668939e+00 -6.9767490307e-05 2.2826072833e+00 -3.9535917884e+00 2.2826072833e+00 3.9535917884e+00 
84000 5.9861668946e+00 -6.9812059894e-05 2.2826072833e+00 -3.9535917884e+00 2.2826072833e+00 3.9535917884e+00 
84100 5.9861668954e+00 -6.9854371999e-05 2.2826072833e+00 -3.9535917884e+00 2.2826072833e+00 3.9535917884e+00 
84200 5.9861668962e+00 -6.9894413214e-05 2.2826072833e+00 -3.9535917884e+00 2.2826072833e+00 3.9535917884e+00 
84300 5.9861668972e+00 -6.9932171763e-05 2.2826072833e+00 -3.9535917884e+00 2.2826072833e+00 3.9535917884e+00 
84400 5.9861668982e+00 -6.9967637450e-05 2.2826072833e+00 -3.9535917884e+00 2.2826072833e+00 3.9535917884e+00 
84500 5.9861668993e+00 -7.0000801636e-05 2.2826072833e+00 -3.9535917884e+00 2.2826072833e+00 3.9535917884e+00 
84600 5.9861669005e+00 -7.0031657197e-05 2.2826072833e+00 -3.9535917884e+00 2.2826072833e+00 3.9535917884e+00 
84700 5.9861669017e+00 -7.0060198491e-05 2.2826072833e+00 -3.9535917884e+00 2.2826072833e+00 3.9535917884e+00 
84800 5.9861669030e+00 -7.0086421323e-05 2.2826072833e+00 -3.9535917884e+00 2.2826072833e+00 3.9535917884e+00 
84900 5.9861669044e+00 -7.0110322906e-05 2.2826072833e+00 -3.9535917884e+00 2.2826072833e+00 3.9535917884e+00 
85000 5.9861669058e+00 -7.0131901830e-05 2.2826072833e+00 -3.9535917884e+00 2.2826072833e+00 3.9535917884e+00 
85100 5.9861669073e+00 -7.0151158025e-05 2.2826072833e+00 -3.9535917884e+00 2.2826072833e+00 3.9535917884e+00 
85200 5.9861669088e+00 -7.0168092723e-05 2.2826072833e+00 -3.9535917884e+00 2.2826072833e+00 3.9535917884e+00 
85300 5.9861669104e+00 -7.0182708429e-05 2.2826072833e+00 -3.9535917884e+00 2.2826072833e+00 3.9535917884e+00 
85400 5.9861669120e+00 -7.0195008881e-05 2.2826072833e+00 -3.9535917884e+00 2.2826072833e+00 3.9535917884e+00 
85500 5.9861669137e+00 -7.0204999016e-05 2.2826072833e+00 -3.9535917884e+00 2.2826072833e+00 3.9535917884e+00 
85600 5.9861669154e+00 -7.0212684938e-05 2.2826072833e+00 -3.9535917884e+00 2.2826072833e+00 3.9535917884e+00 
85700 5.9861669172e+00 -7.0218073884e-05 2.2826072833e+00 -3.9535917884e+00 2.2826072833e+00 3.9535917884e+00 
85800 5.9861669190e+00 -7.0221174184e-05 2.2826072833e+00 -3.9535917884e+00 2.2826072833e+00 3.9535917884e+00 
85900 5.9861669209e+00 -7.0221995236e-05 2.2826072833e+00 -3.9535917884e+00 2.2826072833e+00 3.9535917884e+00 
86000 5.9861669227e+00 -7.0220547468e-05 2.2826072833e+00 -3.9535917884e+00 2.2826072833e+00 3.9535917884e+00 
86100 5.9861669247e+00 -7.0216842302e-05 2.2826072833e+00 -3.9535917884e+00 2.2826072833e+00 3.9535917884e+00 
86200 5.9861669266e+00 -7.0210892127e-05 2.2826072833e+00 -3.9535917884e+00 2.2826072833e+00 3.9535917884e+00 
86300 5.9861669286e+00 -7.0202710262e-05 2.2826072833e+00 -3.9535917884e+00 2.2826072833e+00 3.9535917884e+00 
86400 5.9861669307e+00 -7.0192310930e-05 2.2826072833e+00 -3.9535917884e+00 2.2826072833e+00 3.9535917884e+00 
86500 5.9861669327e+00 -7.0179709217e-05 2.2826072833e+00 -3.9535917884e+00 2.2826072833e+00 3.9535917884e+00 
86600 5.9861669348e+00 -7.0164921048e-05 2.2826072833e+00 -3.9535917884e+00 2.2826072833e+00 3.9535917884e+00 
86700 5.9861669369e+00 -7.0147963152e-05 2.2826072833e+00 -3.9535917884e+00 2.2826072833e+00 3.9535917884e+00 
86800 5.9861669391e+00 -7.0128853035e-05 2.2826072833e+00 -3.9535917884e+00 2.2826072833e+00 3.9535917884e+00 
86900 5.9861669412e+00 -7.0107608945e-05 2.2826072833e+00 -3.9535917884e+00 2.2826072833e+00 3.9535917884e+00 
87000 5.9861669434e+00 -7.0084249846e-05 2.2826072833e+00 -3.9535917884e+00 2.2826072833e+00 3.9535917884e+00 
87100 5.9861669456e+00 -7.0058795389e-05 2.2826072833e+00 -3.9535917884e+00 2.2826072833e+00 3.9535917884e+00 
87200 5.9861669478e+00 -7.0031265876e-05 2.2826072833e+00 -3.9535917884e+00 2.2826072833e+00 3.9535917884e+00 
87300 5.9861669501e+00 -7.0001682243e-05 2.2826072833e+00 -3.9535917884e+00 2.2826072833e+00 3.9535917884e+00 
87400 5.9861669524e+00 -6.9970066019e-05 2.2826072833e+00 -3.9535917884e+00 2.2826072833e+00 3.9535917884e+00 
87500 5.9861669546e+00 -6.9936439310e-05 2.2826072833e+00 -3.9535917884e+00 2.2826072833e+00 3.9535917884e+00 
87600 5.9861669569e+00 -6.9900824763e-05 2.2826072833e+00 -3.9535917884e+00 2.2826072833e+00 3.9535917884e+00 
87700 5.9861669592e+00 -6.9863245543e-05 2.2826072833e+00 -3.9535917884e+00 2.2826072833e+00 3.9535917884e+00 
87800 5.9861669616e+00 -6.9823725308e-05 2.2826072833e+00 -3.9535917884e+00 2.2826072833e+00 3.9535917884e+00 
87900 5.9861669639e+00 -6.9782288180e-05 2.2826072833e+00 -3.9535917884e+00 2.2826072833e+00 3.9535917884e+00 
88000 5.9861669662e+00 -6.9738958721e-05 2.2826072833e+00 -3.9535917884e+00 2.2826072833e+00 3.9535917884e+00 
88100 5.9861669686e+00 -6.9693761908e-05 2.2826072833e+00 -3.9535917884e+00 2.2826072833e+00 3.9535917884e+00 
88200 5.9861669709e+00 -6.9646723107e-05 2.2826072833e+00 -3.9535917884e+00 2.2826072833e+00 3.9535917884e+00 
88300 5.9861669733e+00 -6.9597868051e-05 2.2826072833e+00 -3.9535917884e+00 2.2826072833e+00 3.9535917884e+00 
88400 5.9861669757e+00 -6.9547222819e-05 2.2826072833e+00 -3.9535917884e+00 2.2826072833e+00 3.9535917884e+00 
88500 5.9861669781e+00 -6.9494813805e-05 2.2826072833e+00 -3.9535917884e+00 2.2826072833e+00 3.9535917884e+00 
88600 5.9861669804e+00 -6.9440667702e-05 2.2826072833e+00 -3.9535917884e+00 2.2826072833e+00 3.9535917884e+00 
88700 5.9861669828e+00 -6.9384811478e-05 2.2826072833e+00 -3.9535917884e+00 2.2826072833e+00 3.9535917884e+00 
88800 5.9861669852e+00 -6.9327272354e-05 2.2826072833e+00 -3.9535917884e+00 2.2826072833e+00 3.9535917884e+00 
88900 5.9861669876e+00 -6.9268077784e-05 2.2826072833e+00 -3.9535917884e+00 2.2826072833e+00 3.9535917884e+00 
89000 5.9861669900e+00 -6.9207255430e-05 2.2826072833e+00 -3.9535917884e+00 2.2826072833e+00 3.9535917884e+00 
89100 5.9861669924e+00 -6.9144833150e-05 2.2826072833e+00 -3.9535917884e+00 2.2826072833e+00 3.9535917884e+00 
89200 5.9861669948e+00 -6.9080838971e-05 2.2826072833e+00 -3.9535917884e+00 2.2826072833e+00 3.9535917884e+00 
89300 5.9861669972e+00 -6.9015301071e-05 2.2826072833e+00 -3.9535917884e+00 2.2826072833e+00 3.9535917884e+00 
89400 5.9861669996e+00 -6.8948247764e-05 2.2826072833e+00 -3.9535917884e+00 2.2826072833e+00 3.9535917884e+00 
89500 5.9861670020e+00 -6.8879707475e-05 2.2826072833e+00 -3.9535917884e+00 2.2826072833e+00 3.9535917884e+00 
89600 5.9861670044e+00 -6.8809708728e-05 2.2826072833e+00 -3.9535917884e+00 2.2826072833e+00 3.9535917884e+00 
89700 5.9861670068e+00 -6.8738280129e-05 2.2826072833e+00 -3.9535917884e+00 2.2826072833e+00 3.9535917884e+00 
89800 5.9861670092e+00 -6.8665450342e-05 2.2826072833e+00 -3.9535917884e+00 2.2826072833e+00 3.9535917884e+00 
89900 5.9861670115e+00 -6.8591248081e-05 2.2826072833e+00 -3.9535917884e+00 2.2826072833e+00 3.9535917884e+00 
90000 5.9861670139e+00 -6.8515702087e-05 2.2826072833e+00 -3.9535917884e+00 2.2826072833e+00 3.9535917884e+00 
90100 5.9861670163e+00 -6.8438841117e-05 2.2826072833e+00 -3.9535917884e+00 2.2826072833e+00 3.9535917884e+00 
90200 5.9861670187e+00 -6.8360693927e-05 2.2826072833e+00 -3.9535917884e+00 2.2826072833e+00 3.9535917884e+00 
90300 5.9861670210e+00 -6.8281289257e-05 2.2826072833e+00 -3.9535917884e+00 2.2826072833e+00 3.9535917884e+00 
90400 5.9861670234e+00 -6.8200655817e-05 2.2826072833e+00 -3.9535917884e+00 2.2826072833e+00 3.9535917884e+00 
90500 5.9861670257e+00 -6.8118822275e-05 2.2826072833e+00 -3.9535917884e+00 2.2826072833e+00 3.9535917884e+00 
90600 5.9861670281e+00 -6.8035817238e-05 2.2826072833e+00 -3.9535917884e+00 2.2826072833e+00 3.9535917884e+00 
90700 5.9861670304e+00 -6.7951669248e-05 2.2826072833e+00 -3.9535917884e+00 2.2826072833e+00 3.9535917884e+00 
90800 5.9861670327e+00 -6.7866406758e-05 2.2826072833e+00 -3.9535917884e+00 2.2826072833e+00 3.9535917884e+00 
90900 5.9861670350e+00 -6.7780058133e-05 2.2826072833e+00 -3.9535917884e+00 2.2826072833e+00 3.9535917884e+00 
91000 5.9861670373e+00 -6.7692651626e-05 2.2826072833e+00 -3.9535917884e+00 2.2826072833e+00 3.9535917884e+00 
91100 5.9861670396e+00 -6.7604215374e-05 2.2826072833e+00 -3.9535917884e+00 2.2826072833e+00 3.9535917884e+00 
91200 5.9861670419e+00 -6.7514777383e-05 2.2826072833e+00 -3.9535917884e+00 2.2826072833e+00 3.9535917884e+00 
91300 5.9861670442e+00 -6.7424365523e-05 2.2826072833e+00 -3.9535917884e+00 2.2826072833e+00 3.9535917884e+00 
91400 5.9861670464e+00 -6.7333007511e-05 2.2826072833e+00 -3.9535917884e+00 2.2826072833e+00 3.9535917884e+00 
91500 5.9861670487e+00 -6.7240730903e-05 2.2826072833e+00 -3.9535917884e+00 2.2826072833e+00 3.9535917884e+00 
91600 5.9861670509e+00 -6.7147563091e-05 2.2826072833e+00 -3.9535917884e+00 2.2826072833e+00 3.9535917884e+00 
91700 5.9861670532e+00 -6.7053531284e-05 2.2826072833e+00 -3.9535917884e+00 2.2826072833e+00 3.9535917884e+00 
91800 5.9861670554e+00 -6.6958662504e-05 2.2826072833e+00 -3.9535917884e+00 2.2826072833e+00 3.9535917884e+00 
91900 5.9861670576e+00 -6.6862983582e-05 2.2826072833e+00 -3.9535917884e+00 2.2826072833e+00 3.9535917884e+00 
92000 5.9861670598e+00 -6.6766521142e-05 2.2826072833e+00 -3.9535917884e+00 2.2826072833e+00 3.9535917884e+00 
92100 5.9861670620e+00 -6.6669301595e-05 2.2826072833e+00 -3.9535917884e+00 2.2826072833e+00 3.9535917884e+00 
92200 5.9861670642e+00 -6.6571351140e-05 2.2826072833e+00 -3.9535917884e+00 2.2826072833e+00 3.9535917884e+00 
92300 5.9861670663e+00 -6.6472695746e-05 2.2826072833e+00 -3.9535917884e+00 2.2826072833e+00 3.9535917884e+00 
92400 5.9861670685e+00 -6.6373361152e-05 2.2826072833e+00 -3.9535917884e+00 2.2826072833e+00 3.9535917884e+00 
92500 5.9861670706e+00 -6.6273372857e-05 2.2826072833e+00 -3.9535917884e+00 2.2826072833e+00 3.9535917884e+00 
92600 5.9861670727e+00 -6.6172756116e-05 2.2826072833e+00 -3.9535917884e+00 2.2826072833e+00 3.9535917884e+00 
92700 5.9861670748e+00 -6.6071535935e-05 2.2826072833e+00 -3.9535917884e+00 2.2826072833e+00 3.9535917884e+00 
92800 5.9861670769e+00 -6.5969737064e-05 2.2826072833e+00 -3.9535917884e+00 2.2826072833e+00 3.9535917884e+00 
92900 5.9861670790e+00 -6.5867383992e-05 2.2826072833e+00 -3.9535917884e+00 2.2826072833e+00 3.9535917884e+00 
93000 5.9861670811e+00 -6.5764500944e-05 2.2826072833e+00 -3.9535917884e+00 2.2826072833e+00 3.9535917884e+00 
93100 5.9861670832e+00 -6.5661111873e-05 2.2826072833e+00 -3.9535917884e+00 2.2826072833e+00 3.9535917884e+00 
93200 5.9861670852e+00 -6.5557240459e-05 2.2826072833e+00 -3.9535917884e+00 2.2826072833e+00 3.9535917884e+00 
93300 5.9861670872e+00 -6.5452910104e-05 2.2826072833e+00 -3.9535917884e+00 2.2826072833e+00 3.9535917884e+00 
93400 5.9861670892e+00 -6.5348143928e-05 2.2826072833e+00 -3.9535917884e+00 2.2826072833e+00 3.9535917884e+00 
93500 5.9861670912e+00 -6.5242964767e-05 2.2826072833e+00 -3.9535917884e+00 2.2826072833e+00 3.9535917884e+00 
93600 5.9861670932e+00 -6.5137395163e-05 2.2826072833e+00 -3.9535917884e+00 2.2826072833e+00 3.9535917884e+00 
93700 5.9861670952e+00 -6.5031457374e-05 2.2826072833e+00 -3.9535917884e+00 2.2826072833e+00 3.9535917884e+00 
93800 5.9861670971e+00 -6.4925173358e-05 2.2826072833e+00 -3.9535917884e+00 2.2826072833e+00 3.9535917884e+00 
93900 5.9861670991e+00 -6.4818564780e-05 2.2826072833e+00 -3.9535917884e+00 2.2826072833e+00 3.9535917884e+00 
94000 5.9861671010e+00 -6.4711653004e-05 2.2826072833e+00 -3.9535917884e+00 2.2826072833e+00 3.9535917884e+00 
94100 5.9861671029e+00 -6.4604459094e-05 2.2826072833e+00 -3.9535917884e+00 2.2826072833e+00 3.9535917884e+00 
94200 5.9861671048e+00 -6.4497003811e-05 2.2826072833e+00 -3.9535917884e+00 2.2826072833e+00 3.9535917884e+00 
94300 5.9861671067e+00 -6.4389307611e-05 2.2826072833e+00 -3.9535917884e+00 2.2826072833e+00 3.9535917884e+00 
94400 5.9861671086e+00 -6.4281390645e-05 2.2826072833e+00 -3.9535917884e+00 2.2826072833e+00 3.9535917884e+00 
94500 5.9861671104e+00 -6.4173272758e-05 2.2826072833e+00 -3.9535917884e+00 2.2826072833e+00 3.9535917884e+00 
94600 5.9861671123e+00 -6.4064973485e-05 2.2826072833e+00 -3.9535917884e+00 2.2826072833e+00 3.9535917884e+00 
94700 5.9861671141e+00 -6.3956512055e-05 2.2826072833e+00 -3.9535917884e+00 2.2826072833e+00 3.9535917884e+00 
94800 5.9861671159e+00 -6.3847907385e-05 2.2826072833e+00 -3.9535917884e+00 2.2826072833e+00 3.9535917884e+00 
94900 5.9861671177e+00 -6.3739178084e-05 2.2826072833e+00 -3.9535917884e+00 2.2826072833e+00 3.9535917884e+00 
95000 5.9861671195e+00 -6.3630342452e-05 2.2826072833e+00 -3.9535917884e+00 2.2826072833e+00 3.9535917884e+00 
95100 5.9861671212e+00 -6.3521418475e-05 2.2826072833e+00 -3.9535917884e+00 2.2826072833e+00 3.9535917884e+00 
95200 5.9861671230e+00 -6.3412423835e-05 2.2826072833e+00 -3.9535917884e+00 2.2826072833e+00 3.9535917884e+00 
95300 5.9861671247e+00 -6.3303375899e-05 2.2826072833e+00 -3.9535917884e+00 2.2826072833e+00 3.9535917884e+00 
95400 5.9861671264e+00 -6.3194291729e-05 2.2826072833e+00 -3.9535917884e+00 2.2826072833e+00 3.9535917884e+00 
95500 5.9861671281e+00 -6.3085188074e-05 2.2826072833e+00 -3.9535917884e+00 2.2826072833e+00 3.9535917884e+00 
95600 5.9861671298e+00 -6.2976081379e-05 2.2826072833e+00 -3.9535917884e+00 2.2826072833e+00 3.9535917884e+00 
95700 5.9861671315e+00 -6.2866987780e-05 2.2826072833e+00 -3.9535917884e+00 2.2826072833e+00 3.9535917884e+00 
95800 5.9861671331e+00 -6.2757923108e-05 2.2826072833e+00 -3.9535917884e+00 2.2826072833e+00 3.9535917884e+00 
95900 5.9861671348e+00 -6.2648902885e-05 2.2826072833e+00 -3.9535917884e+00 2.2826072833e+00 3.9535917884e+00 
96000 5.9861671364e+00 -6.2539942333e-05 2.2826072833e+00 -3.9535917884e+00 2.2826072833e+00 3.9535917884e+00 
96100 5.9861671380e+00 -6.2431056372e-05 2.2826072833e+00 -3.9535917884e+00 2.2826072833e+00 3.9535917884e+00 
96200 5.9861671396e+00 -6.2322259617e-05 2.2826072833e+00 -3.9535917884e+00 2.2826072833e+00 3.9535917884e+00 
96300 5.9861671412e+00 -6.2213566388e-05 2.2826072833e+00 -3.9535917884e+00 2.2826072833e+00 3.9535917884e+00 
96400 5.9861671428e+00 -6.2104990702e-05 2.2826072833e+00 -3.9535917884e+00 2.2826072833e+00 3.9535917884e+00 
96500 5.9861671443e+00 -6.1996546285e-05 2.2826072833e+00 -3.9535917884e+00 2.2826072833e+00 3.9535917884e+00 
96600 5.9861671459e+00 -6.1888246566e-05 2.2826072833e+00 -3.9535917884e+00 2.2826072833e+00 3.9535917884e+00 
96700 5.9861671474e+00 -6.1780104683e-05 2.2826072833e+00 -3.9535917884e+00 2.2826072833e+00 3.9535917884e+00 
96800 5.9861671489e+00 -6.1672133481e-05 2.2826072833e+00 -3.9535917884e+00 2.2826072833e+00 3.9535917884e+00 
96900 5.9861671504e+00 -6.1564345522e-05 2.2826072833e+00 -3.9535917884e+00 2.2826072833e+00 3.9535917884e+00 
97000 5.9861671519e+00 -6.1456753076e-05 2.2826072833e+00 -3.9535917884e+00 2.2826072833e+00 3.9535917884e+00 
97100 5.9861671534e+00 -6.1349368135e-05 2.2826072833e+00 -3.9535917884e+00 2.2826072833e+00 3.9535917884e+00 
97200 5.9861671548e+00 -6.1242202408e-05 2.2826072833e+00 -3.9535917884e+00 2.2826072833e+00 3.9535917884e+00 
97300 5.9861671562e+00 -6.1135267322e-05 2.2826072833e+00 -3.9535917884e+00 2.2826072833e+00 3.9535917884e+00 
97400 5.9861671577e+00 -6.1028574034e-05 2.2826072833e+00 -3.9535917884e+00 2.2826072833e+00 3.9535917884e+00 
97500 5.9861671591e+00 -6.0922133421e-05 2.2826072833e+00 -3.9535917884e+00 2.2826072833e+00 3.9535917884e+00 
97600 5.9861671605e+00 -6.0815956093e-05 2.2826072833e+00 -3.9535917884e+00 2.2826072833e+00 3.9535917884e+00 
97700 5.9861671619e+00 -6.0710052392e-05 2.2826072833e+00 -3.9535917884e+00 2.2826072833e+00 3.9535917884e+00 
97800 5.9861671632e+00 -6.0604432391e-05 2.2826072833e+00 -3.9535917884e+00 2.2826072833e+00 3.9535917884e+00 
97900 5.9861671646e+00 -6.0499105904e-05 2.2826072833e+00 -3.9535917884e+00 2.2826072833e+00 3.9535917884e+00 
98000 5.9861671659e+00 -6.0394082483e-05 2.2826072833e+00 -3.9535917884e+00 2.2826072833e+00 3.9535917884e+00 
98100 5.9861671673e+00 -6.0289371422e-05 2.2826072833e+00 -3.9535917884e+00 2.2826072833e+00 3.9535917884e+00 
98200 5.9861671686e+00 -6.0184981765e-05 2.2826072833e+00 -3.9535917884e+00 2.2826072833e+00 3.9535917884e+00 
98300 5.9861671699e+00 -6.0080922299e-05 2.2826072833e+00 -3.9535917884e+00 2.2826072833e+00 3.9535917884e+00 
98400 5.9861671712e+00 -5.9977201568e-05 2.2826072833e+00 -3.9535917884e+00 2.2826072833e+00 3.9535917884e+00 
98500 5.9861671724e+00 -5.9873827868e-05 2.2826072833e+00 -3.9535917884e+00 2.2826072833e+00 3.9535917884e+00 
98600 5.9861671737e+00 -5.9770809254e-05 2.2826072833e+00 -3.9535917884e+00 2.2826072833e+00 3.9535917884e+00 
98700 5.9861671750e+00 -5.9668153542e-05 2.2826072833e+00 -3.9535917884e+00 2.2826072833e+00 3.9535917884e+00 
98800 5.9861671762e+00 -5.9565868312e-05 2.2826072833e+00 -3.9535917884e+00 2.2826072833e+00 3.9535917884e+00 
98900 5.9861671774e+00 -5.9463960909e-05 2.2826072833e+00 -3.9535917884e+00 2.2826072833e+00 3.9535917884e+00 
99000 5.9861671786e+00 -5.9362438453e-05 2.2826072833e+00 -3.9535917884e+00 2.2826072833e+00 3.9535917884e+00 
99100 5.9861671798e+00 -5.9261307832e-05 2.2826072833e+00 -3.9535917884e+00 2.2826072833e+00 3.9535917884e+00 
99200 5.9861671810e+00 -5.9160575717e-05 2.2826072833e+00 -3.9535917884e+00 2.2826072833e+00 3.9535917884e+00 
99300 5.9861671822e+00 -5.9060248554e-05 2.2826072833e+00 -3.9535917884e+00 2.2826072833e+00 3.9535917884e+00 
99400 5.9861671833e+00 -5.8960332574e-05 2.2826072833e+00 -3.9535917884e+00 2.2826072833e+00 3.9535917884e+00 
99500 5.9861671845e+00 -5.8860833792e-05 2.2826072833e+00 -3.9535917884e+00 2.2826072833e+00 3.9535917884e+00 
99600 5.9861671856e+00 -5.8761758018e-05 2.2826072833e+00 -3.9535917884e+00 2.2826072833e+00 3.9535917884e+00 
99700 5.9861671867e+00 -5.8663110850e-05 2.2826072833e+00 -3.9535917884e+00 2.2826072833e+00 3.9535917884e+00 
99800 5.9861671879e+00 -5.8564897683e-05 2.2826072833e+00 -3.9535917884e+00 2.2826072833e+00 3.9535917884e+00 
99900 5.9861671890e+00 -5.8467123711e-05 2.2826072833e+00 -3.9535917884e+00 2.2826072833e+00 3.9535917884e+00 
100000 5.9861671900e+00 -5.8369793931e-05 2.2826072833e+00 -3.9535917884e+00 2.2826072833e+00 3.9535917884e+00 
100100 5.9861671911e+00 -5.8272913147e-05 2.2826072833e+00 -3.9535917884e+00 2.2826072833e+00 3.9535917884e+00 
100200 5.9861671922e+00 -5.8176485968e-05 2.2826072833e+00 -3.9535917884e+00 2.2826072833e+00 3.9535917884e+00 
100300 5.9861671932e+00 -5.8080516819e-05 2.2826072833e+00 -3.9535917884e+00 2.2826072833e+00 3.9535917884e+00 
100400 5.9861671943e+00 -5.7985009939e-05 2.2826072833e+00 -3.9535917884e+00 2.2826072833e+00 3.9535917884e+00 
100500 5.9861671953e+00 -5.7889969383e-05 2.2826072833e+00 -3.9535917884e+00 2.2826072833e+00 3.9535917884e+00 
100600 5.9861671963e+00 -5.7795399031e-05 2.2826072833e+00 -3.9535917884e+00 2.2826072833e+00 3.9535917884e+00 
100700 5.9861671973e+00 -5.7701302586e-05 2.2826072833e+00 -3.9535917884e+00 2.2826072833e+00 3.9535917884e+00 
100800 5.9861671983e+00 -5.7607683578e-05 2.2826072833e+00 -3.9535917884e+00 2.2826072833e+00 3.9535917884e+00 
100900 5.9861671993e+00 -5.7514545371e-05 2.2826072833e+00 -3.9535917884e+00 2.2826072833e+00 3.9535917884e+00 
101000 5.9861672003e+00 -5.7421891160e-05 2.2826072833e+00 -3.9535917884e+00 2.2826072833e+00 3.9535917884e+00 
101100 5.9861672012e+00 -5.7329723978e-05 2.2826072833e+00 -3.9535917884e+00 2.2826072833e+00 3.9535917884e+00 
101200 5.9861672022e+00 -5.7238046700e-05 2.2826072833e+00 -3.9535917884e+00 2.2826072833e+00 3.9535917884e+00 
101300 5.9861672031e+00 -5.7146862043e-05 2.2826072833e+00 -3.9535917884e+00 2.2826072833e+00 3.9535917884e+00 
101400 5.9861672040e+00 -5.7056172568e-05 2.2826072833e+00 -3.9535917884e+00 2.2826072833e+00 3.9535917884e+00 
101500 5.9861672050e+00 -5.6965980691e-05 2.2826072833e+00 -3.9535917884e+00 2.2826072833e+00 3.9535917884e+00 
101600 5.9861672059e+00 -5.6876288676e-05 2.2826072833e+00 -3.9535917884e+00 2.2826072833e+00 3.9535917884e+00 
101700 5.9861672068e+00 -5.6787098643e-05 2.2826072833e+00 -3.9535917884e+00 2.2826072833e+00 3.9535917884e+00 
101800 5.9861672077e+00 -5.6698412571e-05 2.2826072833e+00 -3.9535917884e+00 2.2826072833e+00 3.9535917884e+00 
101900 5.9861672085e+00 -5.6610232300e-05 2.2826072833e+00 -3.9535917884e+00 2.2826072833e+00 3.9535917884e+00 
102000 5.9861672094e+00 -5.6522559537e-05 2.2826072833e+00 -3.9535917884e+00 2.2826072833e+00 3.9535917884e+00 
102100 5.9861672103e+00 -5.6435395849e-05 2.2826072833e+00 -3.9535917884e+00 2.2826072833e+00 3.9535917884e+00 
102200 5.9861672111e+00 -5.6348742678e-05 2.2826072833e+00 -3.9535917884e+00 2.2826072833e+00 3.9535917884e+00 
102300 5.9861672119e+00 -5.6262601338e-05 2.2826072833e+00 -3.9535917884e+00 2.2826072833e+00 3.9535917884e+00 
102400 5.9861672128e+00 -5.6176973017e-05 2.2826072833e+00 -3.9535917884e+00 2.2826072833e+00 3.9535917884e+00 
102500 5.9861672136e+00 -5.6091858784e-05 2.2826072833e+00 -3.9535917884e+00 2.2826072833e+00 3.9535917884e+00 
102600 5.9861672144e+00 -5.6007259585e-05 2.2826072833e+00 -3.9535917884e+00 2.2826072833e+00 3.9535917884e+00 
102700 5.9861672152e+00 -5.5923176253e-05 2.2826072833e+00 -3.9535917884e+00 2.2826072833e+00 3.9535917884e+00 
102800 5.9861672160e+00 -5.5839609505e-05 2.2826072833e+00 -3.9535917884e+00 2.2826072833e+00 3.9535917884e+00 
102900 5.9861672168e+00 -5.5756559947e-05 2.2826072833e+00 -3.9535917884e+00 2.2826072833e+00 3.9535917884e+00 
103000 5.9861672175e+00 -5.5674028077e-05 2.2826072833e+00 -3.9535917884e+00 2.2826072833e+00 3.9535917884e+00 
103100 5.9861672183e+00 -5.5592014287e-05 2.2826072833e+00 -3.9535917884e+00 2.2826072833e+00 3.9535917884e+00 
103200 5.9861672190e+00 -5.5510518866e-05 2.2826072833e+00 -3.9535917884e+00 2.2826072833e+00 3.9535917884e+00 
103300 5.9861672198e+00 -5.5429542001e-05 2.2826072833e+00 -3.9535917884e+00 2.2826072833e+00 3.9535917884e+00 
103400 5.9861672205e+00 -5.5349083783e-05 2.2826072833e+00 -3.9535917884e+00 2.2826072833e+00 3.9535917884e+00 
103500 5.9861672213e+00 -5.5269144202e-05 2.2826072833e+00 -3.9535917884e+00 2.2826072833e+00 3.9535917884e+00 
103600 5.9861672220e+00 -5.5189723159e-05 2.2826072833e+00 -3.9535917884e+00 2.2826072833e+00 3.9535917884e+00 
103700 5.9861672227e+00 -5.5110820462e-05 2.2826072833e+00 -3.9535917884e+00 2.2826072833e+00 3.9535917884e+00 
103800 5.9861672234e+00 -5.5032435830e-05 2.2826072833e+00 -3.9535917884e+00 2.2826072833e+00 3.9535917884e+00 
103900 5.9861672241e+00 -5.4954568896e-05 2.2826072833e+00 -3.9535917884e+00 2.2826072833e+00 3.9535917884e+00 
104000 5.9861672248e+00 -5.4877219207e-05 2.2826072833e+00 -3.9535917884e+00 2.2826072833e+00 3.9535917884e+00 
104100 5.9861672254e+00 -5.4800386230e-05 2.2826072833e+00 -3.9535917884e+00 2.2826072833e+00 3.9535917884e+00 
104200 5.9861672261e+00 -5.4724069352e-05 2.2826072833e+00 -3.9535917884e+00 2.2826072833e+00 3.9535917884e+00 
104300 5.9861672268e+00 -5.4648267879e-05 2.2826072833e+00 -3.9535917884e+00 2.2826072833e+00 3.9535917884e+00 
104400 5.9861672274e+00 -5.4572981046e-05 2.2826072833e+00 -3.9535917884e+00 2.2826072833e+00 3.9535917884e+00 
104500 5.9861672280e+00 -5.4498208012e-05 2.2826072833e+00 -3.9535917884e+00 2.2826072833e+00 3.9535917884e+00 
104600 5.9861672287e+00 -5.4423947863e-05 2.2826072833e+00 -3.9535917884e+00 2.2826072833e+00 3.9535917884e+00 
104700 5.9861672293e+00 -5.4350199620e-05 2.2826072833e+00 -3.9535917884e+00 2.2826072833e+00 3.9535917884e+00 
104800 5.9861672299e+00 -5.4276962232e-05 2.2826072833e+00 -3.9535917884e+00 2.2826072833e+00 3.9535917884e+00 
104900 5.9861672305e+00 -5.4204234586e-05 2.2826072833e+00 -3.9535917884e+00 2.2826072833e+00 3.9535917884e+00 
105000 5.9861672312e+00 -5.4132015504e-05 2.2826072833e+00 -3.9535917884e+00 2.2826072833e+00 3.9535917884e+00 
105100 5.9861672317e+00 -5.4060303745e-05 2.2826072833e+00 -3.9535917884e+00 2.2826072833e+00 3.9535917884e+00 
105200 5.9861672323e+00 -5.3989098012e-05 2.2826072833e+00 -3.9535917884e+00 2.2826072833e+00 3.9535917884e+00 
105300 5.9861672329e+00 -5.3918396946e-05 2.2826072833e+00 -3.9535917884e+00 2.2826072833e+00 3.9535917884e+00 
105400 5.9861672335e+00 -5.3848199134e-05 2.2826072833e+00 -3.9535917884e+00 2.2826072833e+00 3.9535917884e+00 
105500 5.9861672341e+00 -5.3778503110e-05 2.2826072833e+00 -3.9535917884e+00 2.2826072833e+00 3.9535917884e+00 
105600 5.9861672346e+00 -5.3709307353e-05 2.2826072833e+00 -3.9535917884e+00 2.2826072833e+00 3.9535917884e+00 
105700 5.9861672352e+00 -5.3640610292e-05 2.2826072833e+00 -3.9535917884e+00 2.2826072833e+00 3.9535917884e+00 
105800 5.9861672357e+00 -5.3572410307e-05 2.2826072833e+00 -3.9535917884e+00 2.2826072833e+00 3.9535917884e+00 
105900 5.9861672363e+00 -5.3504705730e-05 2.2826072833e+00 -3.9535917884e+00 2.2826072833e+00 3.9535917884e+00 
106000 5.9861672368e+00 -5.3437494848e-05 2.2826072833e+00 -3.9535917884e+00 2.2826072833e+00 3.9535917884e+00 
106100 5.9861672373e+00 -5.3370775902e-05 2.2826072833e+00 -3.9535917884e+00 2.2826072833e+00 3.9535917884e+00 
106200 5.9861672379e+00 -5.3304547092e-05 2.2826072833e+00 -3.9535917884e+00 2.2826072833e+00 3.9535917884e+00 
106300 5.9861672384e+00 -5.3238806577e-05 2.2826072833e+00 -3.9535917884e+00 2.2826072833e+00 3.9535917884e+00 
106400 5.9861672389e+00 -5.3173552473e-05 2.2826072833e+00 -3.9535917884e+00 2.2826072833e+00 3.9535917884e+00 
106500 5.9861672394e+00 -5.3108782861e-05 2.2826072833e+00 -3.9535917884e+00 2.2826072833e+00 3.9535917884e+00 
106600 5.9861672399e+00 -5.3044495785e-05 2.2826072833e+00 -3.9535917884e+00 2.2826072833e+00 3.9535917884e+00 
106700 5.9861672404e+00 -5.2980689250e-05 2.2826072833e+00 -3.9535917884e+00 2.2826072833e+00 3.9535917884e+00 
106800 5.9861672409e+00 -5.2917361230e-05 2.2826072833e+00 -3.9535917884e+00 2.2826072833e+00 3.9535917884e+00 
106900 5.9861672413e+00 -5.2854509666e-05 2.2826072833e+00 -3.9535917884e+00 2.2826072833e+00 3.9535917884e+00 
107000 5.9861672418e+00 -5.2792132467e-05 2.2826072833e+00 -3.9535917884e+00 2.2826072833e+00 3.9535917884e+00 
107100 5.9861672423e+00 -5.2730227513e-05 2.2826072833e+00 -3.9535917884e+00 2.2826072833e+00 3.9535917884e+00 
107200 5.9861672427e+00 -5.2668792651e-05 2.2826072833e+00 -3.9535917884e+00 2.2826072833e+00 3.9535917884e+00 
107300 5.9861672432e+00 -5.2607825705e-05 2.2826072833e+00 -3.9535917884e+00 2.2826072833e+00 3.9535917884e+00 
107400 5.9861672436e+00 -5.2547324471e-05 2.2826072833e+00 -3.9535917884e+00 2.2826072833e+00 3.9535917884e+00 
107500 5.9861672441e+00 -5.2487286719e-05 2.2826072833e+00 -3.9535917884e+00 2.2826072833e+00 3.9535917884e+00 
107600 5.9861672445e+00 -5.2427710194e-05 2.2826072833e+00 -3.9535917884e+00 2.2826072833e+00 3.9535917884e+00 
107700 5.9861672449e+00 -5.2368592621e-05 2.2826072833e+00 -3.9535917884e+00 2.2826072833e+00 3.9535917884e+00 
107800 5.9861672454e+00 -5.2309931700e-05 2.2826072833e+00 -3.9535917884e+00 2.2826072833e+00 3.9535917884e+00 
107900 5.9861672458e+00 -5.2251725111e-05 2.2826072833e+00 -3.9535917884e+00 2.2826072833e+00 3.9535917884e+00 
108000 5.9861672462e+00 -5.2193970516e-05 2.2826072833e+00 -3.9535917884e+00 2.2826072833e+00 3.9535917884e+00 
108100 5.9861672466e+00 -5.2136665555e-05 2.2826072833e+00 -3.9535917884e+00 2.2826072833e+00 3.9535917884e+00 
108200 5.9861672470e+00 -5.2079807854e-05 2.2826072833e+00 -3.9535917884e+00 2.2826072833e+00 3.9535917884e+00 
108300 5.9861672474e+00 -5.2023395018e-05 2.2826072833e+00 -3.9535917884e+00 2.2826072833e+00 3.9535917884e+00 
108400 5.9861672478e+00 -5.1967424638e-05 2.2826072833e+00 -3.9535917884e+00 2.2826072833e+00 3.9535917884e+00 
108500 5.9861672482e+00 -5.1911894293e-05 2.2826072833e+00 -3.9535917884e+00 2.2826072833e+00 3.9535917884e+00 
108600 5.9861672486e+00 -5.1856801541e-05 2.2826072833e+00 -3.9535917884e+00 2.2826072833e+00 3.9535917884e+00 
108700 5.9861672490e+00 -5.1802143936e-05 2.2826072833e+00 -3.9535917884e+00 2.2826072833e+00 3.9535917884e+00 
108800 5.9861672493e+00 -5.1747919011e-05 2.2826072833e+00 -3.9535917884e+00 2.2826072833e+00 3.9535917884e+00 
108900 5.9861672497e+00 -5.1694124293e-05 2.2826072833e+00 -3.9535917884e+00 2.2826072833e+00 3.9535917884e+00 
109000 5.9861672501e+00 -5.1640757295e-05 2.2826072833e+00 -3.9535917884e+00 2.2826072833e+00 3.9535917884e+00 
109100 5.9861672504e+00 -5.1587815523e-05 2.2826072833e+00 -3.9535917884e+00 2.2826072833e+00 3.9535917884e+00 
109200 5.9861672508e+00 -5.1535296473e-05 2.2826072833e+00 -3.9535917884e+00 2.2826072833e+00 3.9535917884e+00 
109300 5.9861672511e+00 -5.1483197632e-05 2.2826072833e+00 -3.9535917884e+00 2.2826072833e+00 3.9535917884e+00 
109400 5.9861672515e+00 -5.1431516482e-05 2.2826072833e+00 -3.9535917884e+00 2.2826072833e+00 3.9535917884e+00 
109500 5.9861672518e+00 -5.1380250492e-05 2.2826072833e+00 -3.9535917884e+00 2.2826072833e+00 3.9535917884e+00 
109600 5.9861672522e+00 -5.1329397133e-05 2.2826072833e+00 -3.9535917884e+00 2.2826072833e+00 3.9535917884e+00 
109700 5.9861672525e+00 -5.1278953863e-05 2.2826072833e+00 -3.9535917884e+00 2.2826072833e+00 3.9535917884e+00 
109800 5.9861672528e+00 -5.1228918142e-05 2.2826072833e+00 -3.9535917884e+00 2.2826072833e+00 3.9535917884e+00 
109900 5.9861672531e+00 -5.1179287419e-05 2.2826072833e+00 -3.9535917884e+00 2.2826072833e+00 3.9535917884e+00 
110000 5.9861672535e+00 -5.1130059146e-05 2.2826072833e+00 -3.9535917884e+00 2.2826072833e+00 3.9535917884e+00 
110100 5.9861672538e+00 -5.1081230766e-05 2.2826072833e+00 -3.9535917884e+00 2.2826072833e+00 3.9535917884e+00 
110200 5.9861672541e+00 -5.1032799726e-05 2.2826072833e+00 -3.9535917884e+00 2.2826072833e+00 3.9535917884e+00 
110300 5.9861672544e+00 -5.0984763466e-05 2.2826072833e+00 -3.9535917884e+00 2.2826072833e+00 3.9535917884e+00 
110400 5.9861672547e+00 -5.0937119425e-05 2.2826072833e+00 -3.9535917884e+00 2.2826072833e+00 3.9535917884e+00 
110500 5.9861672550e+00 -5.0889865047e-05 2.2826072833e+00 -3.9535917884e+00 2.2826072833e+00 3.9535917884e+00 
110600 5.9861672553e+00 -5.0842997768e-05 2.2826072833e+00 -3.9535917884e+00 2.2826072833e+00 3.9535917884e+00 
110700 5.9861672556e+00 -5.0796515031e-05 2.2826072833e+00 -3.9535917884e+00 2.2826072833e+00 3.9535917884e+00 
110800 5.9861672559e+00 -5.0750414276e-05 2.2826072833e+00 -3.9535917884e+00 2.2826072833e+00 3.9535917884e+00 
110900 5.9861672562e+00 -5.0704692945e-05 2.2826072833e+00 -3.9535917884e+00 2.2826072833e+00 3.9535917884e+00 
111000 5.9861672564e+00 -5.0659348482e-05 2.2826072833e+00 -3.9535917884e+00 2.2826072833e+00 3.9535917884e+00 
111100 5.9861672567e+00 -5.0614378336e-05 2.2826072833e+00 -3.9535917884e+00 2.2826072833e+00 3.9535917884e+00 
111200 5.9861672570e+00 -5.0569779953e-05 2.2826072833e+00 -3.9535917884e+00 2.2826072833e+00 3.9535917884e+00 
111300 5.9861672573e+00 -5.0525550787e-05 2.2826072833e+00 -3.9535917884e+00 2.2826072833e+00 3.9535917884e+00 
111400 5.9861672575e+00 -5.0481688294e-05 2.2826072833e+00 -3.9535917884e+00 2.2826072833e+00 3.9535917884e+00 
111500 5.9861672578e+00 -5.0438189931e-05 2.2826072833e+00 -3.9535917884e+00 2.2826072833e+00 3.9535917884e+00 
111600 5.9861672581e+00 -5.0395053167e-05 2.2826072833e+00 -3.9535917884e+00 2.2826072833e+00 3.9535917884e+00 
111700 5.9861672583e+00 -5.0352275467e-05 2.2826072833e+00 -3.9535917884e+00 2.2826072833e+00 3.9535917884e+00 
111800 5.9861672586e+00 -5.0309854306e-05 2.2826072833e+00 -3.9535917884e+00 2.2826072833e+00 3.9535917884e+00 
111900 5.9861672588e+00 -5.0267787163e-05 2.2826072833e+00 -3.9535917884e+00 2.2826072833e+00 3.9535917884e+00 
112000 5.9861672591e+00 -5.0226071523e-05 2.2826072833e+00 -3.9535917884e+00 2.2826072833e+00 3.9535917884e+00 
112100 5.9861672593e+00 -5.0184704876e-05 2.2826072833e+00 -3.9535917884e+00 2.2826072833e+00 3.9535917884e+00 
112200 5.9861672595e+00 -5.0143684722e-05 2.2826072833e+00 -3.9535917884e+00 2.2826072833e+00 3.9535917884e+00 
112300 5.9861672598e+00 -5.0103008562e-05 2.2826072833e+00 -3.9535917884e+00 2.2826072833e+00 3.9535917884e+00 
112400 5.9861672600e+00 -5.0062673908e-05 2.2826072833e+00 -3.9535917884e+00 2.2826072833e+00 3.9535917884e+00 
112500 5.9861672602e+00 -5.0022678279e-05 2.2826072833e+00 -3.9535917884e+00 2.2826072833e+00 3.9535917884e+00 
112600 5.9861672605e+00 -4.9983019200e-05 2.2826072833e+00 -3.9535917884e+00 2.2826072833e+00 3.9535917884e+00 
112700 5.9861672607e+00 -4.9943694205e-05 2.2826072833e+00 -3.9535917884e+00 2.2826072833e+00 3.9535917884e+00 
112800 5.9861672609e+00 -4.9904700835e-05 2.2826072833e+00 -3.9535917884e+00 2.2826072833e+00 3.9535917884e+00 
112900 5.9861672611e+00 -4.9866036640e-05 2.2826072833e+00 -3.9535917884e+00 2.2826072833e+00 3.9535917884e+00 
113000 5.9861672613e+00 -4.9827699179e-05 2.2826072833e+00 -3.9535917884e+00 2.2826072833e+00 3.9535917884e+00 
113100 5.9861672616e+00 -4.9789686018e-05 2.2826072833e+00 -3.9535917884e+00 2.2826072833e+00 3.9535917884e+00 
113200 5.9861672618e+00 -4.9751994734e-05 2.2826072833e+00 -3.9535917884e+00 2.2826072833e+00 3.9535917884e+00 
113300 5.9861672620e+00 -4.9714622911e-05 2.2826072833e+00 -3.9535917884e+00 2.2826072833e+00 3.9535917884e+00 
113400 5.9861672622e+00 -4.9677568144e-05 2.2826072833e+00 -3.9535917884e+00 2.2826072833e+00 3.9535917884e+00 
113500 5.9861672624e+00 -4.9640828040e-05 2.2826072833e+00 -3.9535917884e+00 2.2826072833e+00 3.9535917884e+00 
113600 5.9861672626e+00 -4.9604400208e-05 2.2826072833e+00 -3.9535917884e+00 2.2826072833e+00 3.9535917884e+00 
113700 5.9861672628e+00 -4.9568282276e-05 2.2826072833e+00 -3.9535917884e+00 2.2826072833e+00 3.9535917884e+00 
113800 5.9861672630e+00 -4.9532471875e-05 2.2826072833e+00 -3.9535917884e+00 2.2826072833e+00 3.9535917884e+00 
113900 5.9861672632e+00 -4.9496966651e-05 2.2826072833e+00 -3.9535917884e+00 2.2826072833e+00 3.9535917884e+00 
114000 5.9861672634e+00 -4.9461764257e-05 2.2826072833e+00 -3.9535917884e+00 2.2826072833e+00 3.9535917884e+00 
114100 5.9861672635e+00 -4.9426862361e-05 2.2826072833e+00 -3.9535917884e+00 2.2826072833e+00 3.9535917884e+00 
114200 5.9861672637e+00 -4.9392258635e-05 2.2826072833e+00 -3.9535917884e+00 2.2826072833e+00 3.9535917884e+00 
114300 5.9861672639e+00 -4.9357950769e-05 2.2826072833e+00 -3.9535917884e+00 2.2826072833e+00 3.9535917884e+00 
114400 5.9861672641e+00 -4.9323936458e-05 2.2826072833e+00 -3.9535917884e+00 2.2826072833e+00 3.9535917884e+00 
114500 5.9861672643e+00 -4.9290213413e-05 2.2826072833e+00 -3.9535917884e+00 2.2826072833e+00 3.9535917884e+00 
114600 5.9861672644e+00 -4.9256779353e-05 2.2826072833e+00 -3.9535917884e+00 2.2826072833e+00 3.9535917884e+00 
114700 5.9861672646e+00 -4.9223632008e-05 2.2826072833e+00 -3.9535917884e+00 2.2826072833e+00 3.9535917884e+00 
114800 5.9861672648e+00 -4.9190769122e-05 2.2826072833e+00 -3.9535917884e+00 2.2826072833e+00 3.9535917884e+00 
114900 5.9861672649e+00 -4.9158188449e-05 2.2826072833e+00 -3.9535917884e+00 2.2826072833e+00 3.9535917884e+00 
115000 5.9861672651e+00 -4.9125887756e-05 2.2826072833e+00 -3.9535917884e+00 2.2826072833e+00 3.9535917884e+00 
115100 5.9861672653e+00 -4.9093864819e-05 2.2826072833e+00 -3.9535917884e+00 2.2826072833e+00 3.9535917884e+00 
115200 5.9861672654e+00 -4.9062117428e-05 2.2826072833e+00 -3.9535917884e+00 2.2826072833e+00 3.9535917884e+00 
115300 5.9861672656e+00 -4.9030643384e-05 2.2826072833e+00 -3.9535917884e+00 2.2826072833e+00 3.9535917884e+00 
115400 5.9861672657e+00 -4.8999440501e-05 2.2826072833e+00 -3.9535917884e+00 2.2826072833e+00 3.9535917884e+00 
115500 5.9861672659e+00 -4.8968506604e-05 2.2826072833e+00 -3.9535917884e+00 2.2826072833e+00 3.9535917884e+00 
115600 5.9861672660e+00 -4.8937839529e-05 2.2826072833e+00 -3.9535917884e+00 2.2826072833e+00 3.9535917884e+00 
115700 5.9861672662e+00 -4.8907437126e-05 2.2826072833e+00 -3.9535917884e+00 2.2826072833e+00 3.9535917884e+00 
115800 5.9861672663e+00 -4.8877297259e-05 2.2826072833e+00 -3.9535917884e+00 2.2826072833e+00 3.9535917884e+00 
115900 5.9861672665e+00 -4.8847417798e-05 2.2826072833e+00 -3.9535917884e+00 2.2826072833e+00 3.9535917884e+00 
116000 5.9861672666e+00 -4.8817796631e-05 2.2826072833e+00 -3.9535917884e+00 2.2826072833e+00 3.9535917884e+00 
116100 5.9861672668e+00 -4.8788431658e-05 2.2826072833e+00 -3.9535917884e+00 2.2826072833e+00 3.9535917884e+00 
116200 5.9861672669e+00 -4.8759320789e-05 2.2826072833e+00 -3.9535917884e+00 2.2826072833e+00 3.9535917884e+00 
116300 5.9861672671e+00 -4.8730461946e-05 2.2826072833e+00 -3.9535917884e+00 2.2826072833e+00 3.9535917884e+00 
116400 5.9861672672e+00 -4.8701853068e-05 2.2826072833e+00 -3.9535917884e+00 2.2826072833e+00 3.9535917884e+00 
116500 5.9861672673e+00 -4.8673492100e-05 2.2826072833e+00 -3.9535917884e+00 2.2826072833e+00 3.9535917884e+00 
116600 5.9861672675e+00 -4.8645377005e-05 2.2826072833e+00 -3.9535917884e+00 2.2826072833e+00 3.9535917884e+00 
116700 5.9861672676e+00 -4.8617505757e-05 2.2826072833e+00 -3.9535917884e+00 2.2826072833e+00 3.9535917884e+00 
116800 5.9861672677e+00 -4.8589876341e-05 2.2826072833e+00 -3.9535917884e+00 2.2826072833e+00 3.9535917884e+00 
116900 5.9861672678e+00 -4.8562486756e-05 2.2826072833e+00 -3.9535917884e+00 2.2826072833e+00 3.9535917884e+00 
117000 5.9861672680e+00 -4.8535335014e-05 2.2826072833e+00 -3.9535917884e+00 2.2826072833e+00 3.9535917884e+00 
117100 5.9861672681e+00 -4.8508419139e-05 2.2826072833e+00 -3.9535917884e+00 2.2826072833e+00 3.9535917884e+00 
117200 5.9861672682e+00 -4.8481737167e-05 2.2826072833e+00 -3.9535917884e+00 2.2826072833e+00 3.9535917884e+00 
117300 5.9861672683e+00 -4.8455287146e-05 2.2826072833e+00 -3.9535917884e+00 2.2826072833e+00 3.9535917884e+00 
117400 5.9861672685e+00 -4.8429067141e-05 2.2826072833e+00 -3.9535917884e+00 2.2826072833e+00 3.9535917884e+00 
117500 5.9861672686e+00 -4.8403075224e-05 2.2826072833e+00 -3.9535917884e+00 2.2826072833e+00 3.9535917884e+00 
117600 5.9861672687e+00 -4.8377309483e-05 2.2826072833e+00 -3.9535917884e+00 2.2826072833e+00 3.9535917884e+00 
117700 5.9861672688e+00 -4.8351768019e-05 2.2826072833e+00 -3.9535917884e+00 2.2826072833e+00 3.9535917884e+00 
117800 5.9861672689e+00 -4.8326448943e-05 2.2826072833e+00 -3.9535917884e+00 2.2826072833e+00 3.9535917884e+00 
117900 5.9861672690e+00 -4.8301350382e-05 2.2826072833e+00 -3.9535917884e+00 2.2826072833e+00 3.9535917884e+00 
118000 5.9861672691e+00 -4.8276470471e-05 2.2826072833e+00 -3.9535917884e+00 2.2826072833e+00 3.9535917884e+00 
118100 5.9861672692e+00 -4.8251807363e-05 2.2826072833e+00 -3.9535917884e+00 2.2826072833e+00 3.9535917884e+00 
118200 5.9861672693e+00 -4.8227359221e-05 2.2826072833e+00 -3.9535917884e+00 2.2826072833e+00 3.9535917884e+00 
118300 5.9861672695e+00 -4.8203124219e-05 2.2826072833e+00 -3.9535917884e+00 2.2826072833e+00 3.9535917884e+00 
118400 5.9861672696e+00 -4.8179100547e-05 2.2826072833e+00 -3.9535917884e+00 2.2826072833e+00 3.9535917884e+00 
118500 5.9861672697e+00 -4.8155286406e-05 2.2826072833e+00 -3.9535917884e+00 2.2826072833e+00 3.9535917884e+00 
118600 5.9861672698e+00 -4.8131680008e-05 2.2826072833e+00 -3.9535917884e+00 2.2826072833e+00 3.9535917884e+00 
118700 5.9861672699e+00 -4.8108279580e-05 2.2826072833e+00 -3.9535917884e+00 2.2826072833e+00 3.9535917884e+00 
118800 5.9861672700e+00 -4.8085083359e-05 2.2826072833e+00 -3.9535917884e+00 2.2826072833e+00 3.9535917884e+00 
118900 5.9861672701e+00 -4.8062089598e-05 2.2826072833e+00 -3.9535917884e+00 2.2826072833e+00 3.9535917884e+00 
119000 5.9861672701e+00 -4.8039296559e-05 2.2826072833e+00 -3.9535917884e+00 2.2826072833e+00 3.9535917884e+00 
119100 5.9861672702e+00 -4.8016702517e-05 2.2826072833e+00 -3.9535917884e+00 2.2826072833e+00 3.9535917884e+00 
119200 5.9861672703e+00 -4.7994305763e-05 2.2826072833e+00 -3.9535917884e+00 2.2826072833e+00 3.9535917884e+00 
119300 5.9861672704e+00 -4.7972104594e-05 2.2826072833e+00 -3.9535917884e+00 2.2826072833e+00 3.9535917884e+00 
119400 5.9861672705e+00 -4.7950097326e-05 2.2826072833e+00 -3.9535917884e+00 2.2826072833e+00 3.9535917884e+00 
119500 5.9861672706e+00 -4.7928282283e-05 2.2826072833e+00 -3.9535917884e+00 2.2826072833e+00 3.9535917884e+00 
119600 5.9861672707e+00 -4.7906657801e-05 2.2826072833e+00 -3.9535917884e+00 2.2826072833e+00 3.9535917884e+00 
119700 5.9861672708e+00 -4.7885222231e-05 2.2826072833e+00 -3.9535917884e+00 2.2826072833e+00 3.9535917884e+00 
119800 5.9861672709e+00 -4.7863973935e-05 2.2826072833e+00 -3.9535917884e+00 2.2826072833e+00 3.9535917884e+00 
119900 5.9861672710e+00 -4.7842911287e-05 2.2826072833e+00 -3.9535917884e+00 2.2826072833e+00 3.9535917884e+00 
120000 5.9861672710e+00 -4.7822032673e-05 2.2826072833e+00 -3.9535917884e+00 2.2826072833e+00 3.9535917884e+00 
120100 5.9861672711e+00 -4.7801336491e-05 2.2826072833e+00 -3.9535917884e+00 2.2826072833e+00 3.9535917884e+00 
120200 5.9861672712e+00 -4.7780821151e-05 2.2826072833e+00 -3.9535917884e+00 2.2826072833e+00 3.9535917884e+00 
120300 5.9861672713e+00 -4.7760485075e-05 2.2826072833e+00 -3.9535917884e+00 2.2826072833e+00 3.9535917884e+00 
120400 5.9861672714e+00 -4.7740326698e-05 2.2826072833e+00 -3.9535917884e+00 2.2826072833e+00 3.9535917884e+00 
120500 5.9861672714e+00 -4.7720344466e-05 2.2826072833e+00 -3.9535917884e+00 2.2826072833e+00 3.9535917884e+00 
120600 5.9861672715e+00 -4.7700536837e-05 2.2826072833e+00 -3.9535917884e+00 2.2826072833e+00 3.9535917884e+00 
120700 5.9861672716e+00 -4.7680902280e-05 2.2826072833e+00 -3.9535917884e+00 2.2826072833e+00 3.9535917884e+00 
120800 5.9861672717e+00 -4.7661439276e-05 2.2826072833e+00 -3.9535917884e+00 2.2826072833e+00 3.9535917884e+00 
120900 5.9861672717e+00 -4.7642146319e-05 2.2826072833e+00 -3.9535917884e+00 2.2826072833e+00 3.9535917884e+00 
121000 5.9861672718e+00 -4.7623021915e-05 2.2826072833e+00 -3.9535917884e+00 2.2826072833e+00 3.9535917884e+00 
121100 5.9861672719e+00 -4.7604064579e-05 2.2826072833e+00 -3.9535917884e+00 2.2826072833e+00 3.9535917884e+00 
121200 5.9861672720e+00 -4.7585272840e-05 2.2826072833e+00 -3.9535917884e+00 2.2826072833e+00 3.9535917884e+00 
121300 5.9861672720e+00 -4.7566645236e-05 2.2826072833e+00 -3.9535917884e+00 2.2826072833e+00 3.9535917884e+00 
121400 5.9861672721e+00 -4.7548180320e-05 2.2826072833e+00 -3.9535917884e+00 2.2826072833e+00 3.9535917884e+00 
121500 5.9861672722e+00 -4.7529876654e-05 2.2826072833e+00 -3.9535917884e+00 2.2826072833e+00 3.9535917884e+00 
121600 5.9861672722e+00 -4.7511732811e-05 2.2826072833e+00 -3.9535917884e+00 2.2826072833e+00 3.9535917884e+00 
121700 5.9861672723e+00 -4.7493747377e-05 2.2826072833e+00 -3.9535917884e+00 2.2826072833e+00 3.9535917884e+00 
121800 5.9861672724e+00 -4.7475918947e-05 2.2826072833e+00 -3.9535917884e+00 2.2826072833e+00 3.9535917884e+00 
121900 5.9861672724e+00 -4.7458246131e-05 2.2826072833e+00 -3.9535917884e+00 2.2826072833e+00 3.9535917884e+00 
122000 5.9861672725e+00 -4.7440727547e-05 2.2826072833e+00 -3.9535917884e+00 2.2826072833e+00 3.9535917884e+00 
122100 5.9861672725e+00 -4.7423361824e-05 2.2826072833e+00 -3.9535917884e+00 2.2826072833e+00 3.9535917884e+00 
122200 5.9861672726e+00 -4.7406147603e-05 2.2826072833e+00 -3.9535917884e+00 2.2826072833e+00 3.9535917884e+00 
122300 5.9861672727e+00 -4.7389083538e-05 2.2826072833e+00 -3.9535917884e+00 2.2826072833e+00 3.9535917884e+00 
122400 5.9861672727e+00 -4.7372168289e-05 2.2826072833e+00 -3.9535917884e+00 2.2826072833e+00 3.9535917884e+00 
122500 5.9861672728e+00 -4.7355400531e-05 2.2826072833e+00 -3.9535917884e+00 2.2826072833e+00 3.9535917884e+00 
122600 5.9861672728e+00 -4.7338778949e-05 2.2826072833e+00 -3.9535917884e+00 2.2826072833e+00 3.9535917884e+00 
122700 5.9861672729e+00 -4.7322302238e-05 2.2826072833e+00 -3.9535917884e+00 2.2826072833e+00 3.9535917884e+00 
122800 5.9861672730e+00 -4.7305969104e-05 2.2826072833e+00 -3.9535917884e+00 2.2826072833e+00 3.9535917884e+00 
122900 5.9861672730e+00 -4.7289778264e-05 2.2826072833e+00 -3.9535917884e+00 2.2826072833e+00 3.9535917884e+00 
123000 5.9861672731e+00 -4.7273728444e-05 2.2826072833e+00 -3.9535917884e+00 2.2826072833e+00 3.9535917884e+00 
123100 5.9861672731e+00 -4.7257818385e-05 2.2826072833e+00 -3.9535917884e+00 2.2826072833e+00 3.9535917884e+00 
123200 5.9861672732e+00 -4.7242046831e-05 2.2826072833e+00 -3.9535917884e+00 2.2826072833e+00 3.9535917884e+00 
123300 5.9861672732e+00 -4.7226412544e-05 2.2826072833e+00 -3.9535917884e+00 2.2826072833e+00 3.9535917884e+00 
123400 5.9861672733e+00 -4.7210914293e-05 2.2826072833e+00 -3.9535917884e+00 2.2826072833e+00 3.9535917884e+00 
123500 5.9861672733e+00 -4.7195550855e-05 2.2826072833e+00 -3.9535917884e+00 2.2826072833e+00 3.9535917884e+00 
123600 5.9861672734e+00 -4.7180321021e-05 2.2826072833e+00 -3.9535917884e+00 2.2826072833e+00 3.9535917884e+00 
123700 5.9861672734e+00 -4.7165223589e-05 2.2826072833e+00 -3.9535917884e+00 2.2826072833e+00 3.9535917884e+00 
123800 5.9861672735e+00 -4.7150257373e-05 2.2826072833e+00 -3.9535917884e+00 2.2826072833e+00 3.9535917884e+00 
123900 5.9861672735e+00 -4.7135421189e-05 2.2826072833e+00 -3.9535917884e+00 2.2826072833e+00 3.9535917884e+00 
124000 5.9861672736e+00 -4.7120713870e-05 2.2826072833e+00 -3.9535917884e+00 2.2826072833e+00 3.9535917884e+00 
124100 5.9861672736e+00 -4.7116034554e-05 2.2826072833e+00 -3.9535917884e+00 2.2826072833e+00 3.9535917884e+00 
124100 5.9861672736e+00 -4.7116034554e-05 2.2826072833e+00 -3.9535917884e+00 2.2826072833e+00 3.9535917884e+00 
