# step Hamiltonian StressXX CellTensor1 CellTensor2 CellTensor3 CellTensor4 
0 6.5939828855e+00 5.1955881807e-02 1.8596955775e+00 -3.2210872269e+00 1.8596955775e+00 3.2210872269e+00 
100 6.5961359446e+00 6.2008092761e-02 1.8596955775e+00 -3.2210872269e+00 1.8596955775e+00 3.2210872269e+00 
200 6.5977703649e+00 7.0439731813e-02 1.8580286698e+00 -3.2182000580e+00 1.8580286698e+00 3.2182000580e+00 
300 6.5990021955e+00 7.8209605468e-02 1.8561334422e+00 -3.2149174276e+00 1.8561334422e+00 3.2149174276e+00 
400 6.5998659229e+00 8.5346017494e-02 1.8540270529e+00 -3.2112690543e+00 1.8540270529e+00 3.2112690543e+00 
500 6.6003943506e+00 9.1875278219e-02 1.8517258908e+00 -3.2072833245e+00 1.8517258908e+00 3.2072833245e+00 
600 6.6006187066e+00 9.7822041449e-02 1.8492456442e+00 -3.2029874114e+00 1.8492456442e+00 3.2029874114e+00 
700 6.6005687264e+00 1.0320958591e-01 1.8466013581e+00 -3.1984073736e+00 1.8466013581e+00 3.1984073736e+00 
800 6.6002727189e+00 1.0806004988e-01 1.8438074819e+00 -3.1935682380e+00 1.8438074819e+00 3.1935682380e+00 
900 6.5997576164e+00 1.1239462651e-01 1.8408779086e+00 -3.1884940683e+00 1.8408779086e+00 3.1884940683e+00 
1000 6.5990490137e+00 1.1623372572e-01 1.8378260085e+00 -3.1832080222e+00 1.8378260085e+00 3.1832080222e+00 
1100 6.5981711979e+00 1.1959710808e-01 1.8346646555e+00 -3.1777323982e+00 1.8346646555e+00 3.1777323982e+00 
1200 6.5971471724e+00 1.2250399454e-01 1.8314062499e+00 -3.1720886741e+00 1.8314062499e+00 3.1720886741e+00 
1300 6.5959986750e+00 1.2497315578e-01 1.8280627361e+00 -3.1662975383e+00 1.8280627361e+00 3.1662975383e+00 
1400 6.5947461942e+00 1.2702298367e-01 1.8246456177e+00 -3.1603789157e+00 1.8246456177e+00 3.1603789157e+00 
1500 6.5934089820e+00 1.2867154756e-01 1.8211659688e+00 -3.1543519870e+00 1.8211659688e+00 3.1543519870e+00 
1600 6.5920050669e+00 1.2993663719e-01 1.8176344437e+00 -3.1482352061e+00 1.8176344437e+00 3.1482352061e+00 
1700 6.5905512662e+00 1.3083579399e-01 1.8140612839e+00 -3.1420463117e+00 1.8140612839e+00 3.1420463117e+00 
1800 6.5890631994e+00 1.3138633242e-01 1.8104563241e+00 -3.1358023382e+00 1.8104563241e+00 3.1358023382e+00 
1900 6.5875553023e+00 1.3160535249e-01 1.8068289967e+00 -3.1295196229e+00 1.8068289967e+00 3.1295196229e+00 
2000 6.5860408434e+00 1.3150974490e-01 1.8031883353e+00 -3.1232138123e+00 1.8031883353e+00 3.1232138123e+00 
2100 6.5845319425e+00 1.3111618981e-01 1.7995429776e+00 -3.1168998676e+00 1.7995429776e+00 3.1168998676e+00 
2200 6.5830395910e+00 1.3044115031e-01 1.7959011679e+00 -3.1105920682e+00 1.7959011679e+00 3.1105920682e+00 
2300 6.5815736766e+00 1.2950086159e-01 1.7922707594e+00 -3.1043040161e+00 1.7922707594e+00 3.1043040161e+00 
2400 6.5801430094e+00 1.2831131668e-01 1.7886592161e+00 -3.0980486398e+00 1.7886592161e+00 3.0980486398e+00 
2500 6.5787553518e+00 1.2688824954e-01 1.7850736157e+00 -3.0918381976e+00 1.7850736157e+00 3.0918381976e+00 
2600 6.5774174515e+00 1.2524711635e-01 1.7815206513e+00 -3.0856842828e+00 1.7815206513e+00 3.0856842828e+00 
2700 6.5761350771e+00 1.2340307565e-01 1.7780066351e+00 -3.0795978282e+00 1.7780066351e+00 3.0795978282e+00 
2800 6.5749130573e+00 1.2137096784e-01 1.7745375014e+00 -3.0735891124e+00 1.7745375014e+00 3.0735891124e+00 
2900 6.5737553220e+00 1.1916529478e-01 1.7711188104e+00 -3.0676677658e+00 1.7711188104e+00 3.0676677658e+00 
3000 6.5726649467e+00 1.1680019980e-01 1.7677557526e+00 -3.0618427789e+00 1.7677557526e+00 3.0618427789e+00 
3100 6.5716441984e+00 1.1428944859e-01 1.7644531540e+00 -3.0561225104e+00 1.7644531540e+00 3.0561225104e+00 
3200 6.5706945840e+00 1.1164641135e-01 1.7612154818e+00 -3.0505146975e+00 1.7612154818e+00 3.0505146975e+00 
3300 6.5698169001e+00 1.0888404646e-01 1.7580468501e+00 -3.0450264664e+00 1.7580468501e+00 3.0450264664e+00 
3400 6.5690112839e+00 1.0601488579e-01 1.7549510275e+00 -3.0396643444e+00 1.7549510275e+00 3.0396643444e+00 
3500 6.5682772655e+00 1.0305102208e-01 1.7519314440e+00 -3.0344342723e+00 1.7519314440e+00 3.0344342723e+00 
3600 6.5676138197e+00 1.0000409821e-01 1.7489911993e+00 -3.0293416192e+00 1.7489911993e+00 3.0293416192e+00 
3700 6.5670194194e+00 9.6885298645e-02 1.7461330715e+00 -3.0243911966e+00 1.7461330715e+00 3.0243911966e+00 
3800 6.5664920873e+00 9.3705343054e-02 1.7433595256e+00 -3.0195872743e+00 1.7433595256e+00 3.0195872743e+00 
3900 6.5660294483e+00 9.0474482000e-02 1.7406727238e+00 -3.0149335970e+00 1.7406727238e+00 3.0149335970e+00 
4000 6.5656287800e+00 8.7202494795e-02 1.7380745348e+00 -3.0104334016e+00 1.7380745348e+00 3.0104334016e+00 
4100 6.5652870626e+00 8.3898689384e-02 1.7355665443e+00 -3.0060894347e+00 1.7355665443e+00 3.0060894347e+00 
4200 6.5650010275e+00 8.0571904189e-02 1.7331500657e+00 -3.0019039710e+00 1.7331500657e+00 3.0019039710e+00 
4300 6.5647672033e+00 7.7230511813e-02 1.7308261507e+00 -2.9978788321e+00 1.7308261507e+00 2.9978788321e+00 
4400 6.5645819607e+00 7.3882424471e-02 1.7285956003e+00 -2.9940154055e+00 1.7285956003e+00 2.9940154055e+00 
4500 6.5644415549e+00 7.0535101019e-02 1.7264589762e+00 -2.9903146639e+00 1.7264589762e+00 2.9903146639e+00 
4600 6.5643421656e+00 6.7195555432e-02 1.7244166115e+00 -2.9867771846e+00 1.7244166115e+00 2.9867771846e+00 
4700 6.5642799344e+00 6.3870366590e-02 1.7224686227e+00 -2.9834031689e+00 1.7224686227e+00 2.9834031689e+00 
4800 6.5642510002e+00 6.0565689201e-02 1.7206149199e+00 -2.9801924615e+00 1.7206149199e+00 2.9801924615e+00 
4900 6.5642515310e+00 5.7287265720e-02 1.7188552190e+00 -2.9771445701e+00 1.7188552190e+00 2.9771445701e+00 
5000 6.5642777541e+00 5.4040439110e-02 1.7171890519e+00 -2.9742586841e+00 1.7171890519e+00 2.9742586841e+00 
5100 6.5643259825e+00 5.0830166284e-02 1.7156157779e+00 -2.9715336936e+00 1.7156157779e+00 2.9715336936e+00 
5200 6.5643926391e+00 4.7661032103e-02 1.7141345941e+00 -2.9689682080e+00 1.7141345941e+00 2.9689682080e+00 
5300 6.5644742781e+00 4.4537263766e-02 1.7127445462e+00 -2.9665605744e+00 1.7127445462e+00 2.9665605744e+00 
5400 6.5645676038e+00 4.1462745497e-02 1.7114445384e+00 -2.9643088949e+00 1.7114445384e+00 2.9643088949e+00 
5500 6.5646694865e+00 3.8441033368e-02 1.7102333437e+00 -2.9622110441e+00 1.7102333437e+00 2.9622110441e+00 
5600 6.5647769759e+00 3.5475370184e-02 1.7091096134e+00 -2.9602646862e+00 1.7091096134e+00 2.9602646862e+00 
5700 6.5648873123e+00 3.2568700304e-02 1.7080718866e+00 -2.9584672906e+00 1.7080718866e+00 2.9584672906e+00 
5800 6.5649979353e+00 2.9723684317e-02 1.7071185992e+00 -2.9568161483e+00 1.7071185992e+00 2.9568161483e+00 
5900 6.5651064901e+00 2.6942713483e-02 1.7062480927e+00 -2.9553083869e+00 1.7062480927e+00 2.9553083869e+00 
6000 6.5652108318e+00 2.4227923890e-02 1.7054586227e+00 -2.9539409847e+00 1.7054586227e+00 2.9539409847e+00 
6100 6.5653090277e+00 2.1581210231e-02 1.7047483667e+00 -2.9527107853e+00 1.7047483667e+00 2.9527107853e+00 
6200 6.5653993580e+00 1.9004239186e-02 1.7041154324e+00 -2.9516145110e+00 1.7041154324e+00 2.9516145110e+00 
6300 6.5654803141e+00 1.6498462337e-02 1.7035578645e+00 -2.9506487750e+00 1.7035578645e+00 2.9506487750e+00 
6400 6.5655505964e+00 1.4065128606e-02 1.7030736520e+00 -2.9498100943e+00 1.7030736520e+00 2.9498100943e+00 
6500 6.5656091094e+00 1.1705296165e-02 1.7026607350e+00 -2.9490949011e+00 1.7026607350e+00 2.9490949011e+00 
6600 6.5656549564e+00 9.4198438295e-03 1.7023170112e+00 -2.9484995540e+00 1.7023170112e+00 2.9484995540e+00 
6700 6.5656874332e+00 7.2094818980e-03 1.7020403415e+00 -2.9480203481e+00 1.7020403415e+00 2.9480203481e+00 
6800 6.5657060195e+00 5.0747624436e-03 1.7018285565e+00 -2.9476535257e+00 1.7018285565e+00 2.9476535257e+00 
6900 6.5657103713e+00 3.0160890587e-03 1.7016794614e+00 -2.9473952853e+00 1.7016794614e+00 2.9473952853e+00 
7000 6.5657003109e+00 1.0337260545e-03 1.7015908412e+00 -2.9472417906e+00 1.7015908412e+00 2.9472417906e+00 
7100 6.5656758171e+00 -8.7219287568e-04 1.7015604660e+00 -2.9471891793e+00 1.7015604660e+00 2.9471891793e+00 
7200 6.5656370150e+00 -2.7016565143e-03 1.7015860953e+00 -2.9472335705e+00 1.7015860953e+00 2.9472335705e+00 
7300 6.5655841646e+00 -4.4547684854e-03 1.7016654823e+00 -2.9473710728e+00 1.7016654823e+00 2.9473710728e+00 
7400 6.5655176504e+00 -6.1317401079e-03 1.7017963783e+00 -2.9475977914e+00 1.7017963783e+00 2.9475977914e+00 
7500 6.5654379694e+00 -7.7328837173e-03 1.7019765365e+00 -2.9479098344e+00 1.7019765365e+00 2.9479098344e+00 
7600 6.5653457200e+00 -9.2586064342e-03 1.7022037151e+00 -2.9483033195e+00 1.7022037151e+00 2.9483033195e+00 
7700 6.5652415908e+00 -1.0709404354e-02 1.7024756818e+00 -2.9487743795e+00 1.7024756818e+00 2.9487743795e+00 
7800 6.5651263489e+00 -1.2085857139e-02 1.7027902159e+00 -2.9493191686e+00 1.7027902159e+00 2.9493191686e+00 
7900 6.5650008291e+00 -1.3388622980e-02 1.7031451122e+00 -2.9499338669e+00 1.7031451122e+00 2.9499338669e+00 
8000 6.5648659225e+00 -1.4618433914e-02 1.7035381831e+00 -2.9506146858e+00 1.7035381831e+00 2.9506146858e+00 
8100 6.5647225665e+00 -1.5776091464e-02 1.7039672621e+00 -2.9513578723e+00 1.7039672621e+00 2.9513578723e+00 
8200 6.5645717339e+00 -1.6862462580e-02 1.7044302054e+00 -2.9521597137e+00 1.7044302054e+00 2.9521597137e+00 
8300 6.5644144234e+00 -1.7878475859e-02 1.7049248950e+00 -2.9530165412e+00 1.7049248950e+00 2.9530165412e+00 
8400 6.5642516498e+00 -1.8825118020e-02 1.7054492404e+00 -2.9539247342e+00 1.7054492404e+00 2.9539247342e+00 
8500 6.5640844355e+00 -1.9703430611e-02 1.7060011810e+00 -2.9548807233e+00 1.7060011810e+00 2.9548807233e+00 
8600 6.5639138013e+00 -2.0514506924e-02 1.7065786877e+00 -2.9558809942e+00 1.7065786877e+00 2.9558809942e+00 
8700 6.5637407588e+00 -2.1259489107e-02 1.7071797649e+00 -2.9569220905e+00 1.7071797649e+00 2.9569220905e+00 
8800 6.5635663032e+00 -2.1939565441e-02 1.7078024521e+00 -2.9580006164e+00 1.7078024521e+00 2.9580006164e+00 
8900 6.5633914060e+00 -2.2555967767e-02 1.7084448256e+00 -2.9591132399e+00 1.7084448256e+00 2.9591132399e+00 
9000 6.5632170088e+00 -2.3109969062e-02 1.7091049997e+00 -2.9602566950e+00 1.7091049997e+00 2.9602566950e+00 
9100 6.5630440176e+00 -2.3602881113e-02 1.7097811282e+00 -2.9614277839e+00 1.7097811282e+00 2.9614277839e+00 
9200 6.5628732980e+00 -2.4036052315e-02 1.7104714057e+00 -2.9626233796e+00 1.7104714057e+00 2.9626233796e+00 
9300 6.5627056699e+00 -2.4410865543e-02 1.7111740686e+00 -2.9638404275e+00 1.7111740686e+00 2.9638404275e+00 
9400 6.5625419044e+00 -2.4728736111e-02 1.7118873964e+00 -2.9650759475e+00 1.7118873964e+00 2.9650759475e+00 
9500 6.5623827195e+00 -2.4991109785e-02 1.7126097125e+00 -2.9663270355e+00 1.7126097125e+00 2.9663270355e+00 
9600 6.5622287779e+00 -2.5199460863e-02 1.7133393850e+00 -2.9675908654e+00 1.7133393850e+00 2.9675908654e+00 
9700 6.5620806845e+00 -2.5355290281e-02 1.7140748278e+00 -2.9688646897e+00 1.7140748278e+00 2.9688646897e+00 
9800 6.5619389844e+00 -2.5460123773e-02 1.7148145012e+00 -2.9701458417e+00 1.7148145012e+00 2.9701458417e+00 
9900 6.5618041619e+00 -2.5515510036e-02 1.7155569127e+00 -2.9714317361e+00 1.7155569127e+00 2.9714317361e+00 
10000 6.5616766395e+00 -2.5523018931e-02 1.7163006174e+00 -2.9727198703e+00 1.7163006174e+00 2.9727198703e+00 
10100 6.5615567778e+00 -2.5484239687e-02 1.7170442185e+00 -2.9740078252e+00 1.7170442185e+00 2.9740078252e+00 
10200 6.5614448754e+00 -2.5400779113e-02 1.7177863681e+00 -2.9752932661e+00 1.7177863681e+00 2.9752932661e+00 
10300 6.5613411696e+00 -2.5274259810e-02 1.7185257674e+00 -2.9765739432e+00 1.7185257674e+00 2.9765739432e+00 
10400 6.5612458373e+00 -2.5106318385e-02 1.7192611669e+00 -2.9778476926e+00 1.7192611669e+00 2.9778476926e+00 
10500 6.5611589961e+00 -2.4898603656e-02 1.7199913671e+00 -2.9791124363e+00 1.7199913671e+00 2.9791124363e+00 
10600 6.5610807065e+00 -2.4652774842e-02 1.7207152181e+00 -2.9803661830e+00 1.7207152181e+00 2.9803661830e+00 
10700 6.5610109733e+00 -2.4370499753e-02 1.7214316203e+00 -2.9816070281e+00 1.7214316203e+00 2.9816070281e+00 
10800 6.5609497480e+00 -2.4053452956e-02 1.7221395244e+00 -2.9828331539e+00 1.7221395244e+00 2.9828331539e+00 
10900 6.5608969314e+00 -2.3703313933e-02 1.7228379311e+00 -2.9840428300e+00 1.7228379311e+00 2.9840428300e+00 
11000 6.5608523766e+00 -2.3321765225e-02 1.7235258917e+00 -2.9852344126e+00 1.7235258917e+00 2.9852344126e+00 
11100 6.5608158913e+00 -2.2910490555e-02 1.7242025073e+00 -2.9864063452e+00 1.7242025073e+00 2.9864063452e+00 
11200 6.5607872413e+00 -2.2471172942e-02 1.7248669293e+00 -2.9875571578e+00 1.7248669293e+00 2.9875571578e+00 
11300 6.5607661539e+00 -2.2005492802e-02 1.7255183589e+00 -2.9886854670e+00 1.7255183589e+00 2.9886854670e+00 
11400 6.5607523209e+00 -2.1515126035e-02 1.7261560469e+00 -2.9897899750e+00 1.7261560469e+00 2.9897899750e+00 
11500 6.5607454024e+00 -2.1001742103e-02 1.7267792936e+00 -2.9908694699e+00 1.7267792936e+00 2.9908694699e+00 
11600 6.5607450301e+00 -2.0467002098e-02 1.7273874481e+00 -2.9919228245e+00 1.7273874481e+00 2.9919228245e+00 
11700 6.5607508108e+00 -1.9912556812e-02 1.7279799085e+00 -2.9929489960e+00 1.7279799085e+00 2.9929489960e+00 
11800 6.5607623304e+00 -1.9340044796e-02 1.7285561207e+00 -2.9939470248e+00 1.7285561207e+00 2.9939470248e+00 
11900 6.5607791570e+00 -1.8751090429e-02 1.7291155786e+00 -2.9949160343e+00 1.7291155786e+00 2.9949160343e+00 
12000 6.5608008447e+00 -1.8147301985e-02 1.7296578232e+00 -2.9958552295e+00 1.7296578232e+00 2.9958552295e+00 
12100 6.5608269369e+00 -1.7530269716e-02 1.7301824419e+00 -2.9967638958e+00 1.7301824419e+00 2.9967638958e+00 
12200 6.5608569699e+00 -1.6901563940e-02 1.7306890684e+00 -2.9976413986e+00 1.7306890684e+00 2.9976413986e+00 
12300 6.5608904763e+00 -1.6262733159e-02 1.7311773814e+00 -2.9984871815e+00 1.7311773814e+00 2.9984871815e+00 
12400 6.5609269877e+00 -1.5615302185e-02 1.7316471042e+00 -2.9993007652e+00 1.7316471042e+00 2.9993007652e+00 
12500 6.5609660385e+00 -1.4960770309e-02 1.7320980038e+00 -3.0000817462e+00 1.7320980038e+00 3.0000817462e+00 
12600 6.5610071681e+00 -1.4300609487e-02 1.7325298902e+00 -3.0008297954e+00 1.7325298902e+00 3.0008297954e+00 
12700 6.5610499245e+00 -1.3636262578e-02 1.7329426154e+00 -3.0015446565e+00 1.7329426154e+00 3.0015446565e+00 
12800 6.5610938660e+00 -1.2969141614e-02 1.7333360727e+00 -3.0022261446e+00 1.7333360727e+00 3.0022261446e+00 
12900 6.5611385645e+00 -1.2300626122e-02 1.7337101955e+00 -3.0028741441e+00 1.7337101955e+00 3.0028741441e+00 
13000 6.5611836072e+00 -1.1632061502e-02 1.7340649562e+00 -3.0034886077e+00 1.7340649562e+00 3.0034886077e+00 
13100 6.5612285989e+00 -1.0964757459e-02 1.7344003657e+00 -3.0040695540e+00 1.7344003657e+00 3.0040695540e+00 
13200 6.5612731636e+00 -1.0299986498e-02 1.7347164717e+00 -3.0046170658e+00 1.7347164717e+00 3.0046170658e+00 
13300 6.5613169466e+00 -9.6389824936e-03 1.7350133583e+00 -3.0051312884e+00 1.7350133583e+00 3.0051312884e+00 
13400 6.5613596155e+00 -8.9829393231e-03 1.7352911441e+00 -3.0056124274e+00 1.7352911441e+00 3.0056124274e+00 
13500 6.5614008617e+00 -8.3330095868e-03 1.7355499814e+00 -3.0060607468e+00 1.7355499814e+00 3.0060607468e+00 
13600 6.5614404015e+00 -7.6903034043e-03 1.7357900552e+00 -3.0064765669e+00 1.7357900552e+00 3.0064765669e+00 
13700 6.5614779764e+00 -7.0558872993e-03 1.7360115816e+00 -3.0068602619e+00 1.7360115816e+00 3.0068602619e+00 
13800 6.5615133545e+00 -6.4307831742e-03 1.7362148068e+00 -3.0072122582e+00 1.7362148068e+00 3.0072122582e+00 
13900 6.5615463303e+00 -5.8159673782e-03 1.7364000056e+00 -3.0075330319e+00 1.7364000056e+00 3.0075330319e+00 
14000 6.5615767250e+00 -5.2123698722e-03 1.7365674802e+00 -3.0078231066e+00 1.7365674802e+00 3.0078231066e+00 
14100 6.5616043869e+00 -4.6208734934e-03 1.7367175592e+00 -3.0080830509e+00 1.7367175592e+00 3.0080830509e+00 
14200 6.5616291909e+00 -4.0423133214e-03 1.7368505956e+00 -3.0083134767e+00 1.7368505956e+00 3.0083134767e+00 
14300 6.5616510381e+00 -3.4774761489e-03 1.7369669659e+00 -3.0085150361e+00 1.7369669659e+00 3.0085150361e+00 
14400 6.5616698555e+00 -2.9271000570e-03 1.7370670689e+00 -3.0086884194e+00 1.7370670689e+00 3.0086884194e+00 
14500 6.5616855955e+00 -2.3918740981e-03 1.7371513236e+00 -3.0088343530e+00 1.7371513236e+00 3.0088343530e+00 
14600 6.5616982346e+00 -1.8724380856e-03 1.7372201688e+00 -3.0089535963e+00 1.7372201688e+00 3.0089535963e+00 
14700 6.5617077730e+00 -1.3693824906e-03 1.7372740609e+00 -3.0090469401e+00 1.7372740609e+00 3.0090469401e+00 
14800 6.5617142330e+00 -8.8324844662e-04 1.7373134729e+00 -3.0091152037e+00 1.7373134729e+00 3.0091152037e+00 
14900 6.5617176584e+00 -4.1452786047e-04 1.7373388929e+00 -3.0091592324e+00 1.7373388929e+00 3.0091592324e+00 
15000 6.5617181129e+00 3.6336371403e-05 1.7373508228e+00 -3.0091798957e+00 1.7373508228e+00 3.0091798957e+00 
15100 6.5617156798e+00 4.7006400410e-04 1.7373508228e+00 -3.0091798957e+00 1.7373508228e+00 3.0091798957e+00 
15200 6.5617104573e+00 8.8405360110e-04 1.7373372947e+00 -3.0091564643e+00 1.7373372947e+00 3.0091564643e+00 
15300 6.5617025608e+00 1.2791494676e-03 1.7373118520e+00 -3.0091123962e+00 1.7373118520e+00 3.0091123962e+00 
15400 6.5616921195e+00 1.6551004886e-03 1.7372750381e+00 -3.0090486326e+00 1.7372750381e+00 3.0090486326e+00 
15500 6.5616792755e+00 2.0117019693e-03 1.7372274033e+00 -3.0089661268e+00 1.7372274033e+00 3.0089661268e+00 
15600 6.5616641819e+00 2.3487948336e-03 1.7371695038e+00 -3.0088658420e+00 1.7371695038e+00 3.0088658420e+00 
15700 6.5616470012e+00 2.6662647367e-03 1.7371019002e+00 -3.0087487491e+00 1.7371019002e+00 3.0087487491e+00 
15800 6.5616279037e+00 2.9640410961e-03 1.7370251561e+00 -3.0086158245e+00 1.7370251561e+00 3.0086158245e+00 
15900 6.5616070663e+00 3.2420960441e-03 1.7369398374e+00 -3.0084680480e+00 1.7369398374e+00 3.0084680480e+00 
16000 6.5615846703e+00 3.5004433089e-03 1.7368465104e+00 -3.0083064010e+00 1.7368465104e+00 3.0083064010e+00 
16100 6.5615609007e+00 3.7391370259e-03 1.7367457413e+00 -3.0081318638e+00 1.7367457413e+00 3.0081318638e+00 
16200 6.5615359439e+00 3.9582704872e-03 1.7366380946e+00 -3.0079454142e+00 1.7366380946e+00 3.0079454142e+00 
16300 6.5615099870e+00 4.1579748324e-03 1.7365241323e+00 -3.0077480256e+00 1.7365241323e+00 3.0077480256e+00 
16400 6.5614832158e+00 4.3384176868e-03 1.7364044124e+00 -3.0075406648e+00 1.7364044124e+00 3.0075406648e+00 
16500 6.5614558142e+00 4.4998017520e-03 1.7362794886e+00 -3.0073242904e+00 1.7362794886e+00 3.0073242904e+00 
16600 6.5614279625e+00 4.6423633549e-03 1.7361499085e+00 -3.0070998511e+00 1.7361499085e+00 3.0070998511e+00 
16700 6.5613998363e+00 4.7663709591e-03 1.7360162131e+00 -3.0068682839e+00 1.7360162131e+00 3.0068682839e+00 
16800 6.5613716059e+00 4.8721236456e-03 1.7358789360e+00 -3.0066305129e+00 1.7358789360e+00 3.0066305129e+00 
16900 6.5613434348e+00 4.9599495665e-03 1.7357386019e+00 -3.0063874472e+00 1.7357386019e+00 3.0063874472e+00 
17000 6.5613154791e+00 5.0302043789e-03 1.7355957267e+00 -3.0061399800e+00 1.7355957267e+00 3.0061399800e+00 
17100 6.5612878867e+00 5.0832696614e-03 1.7354508158e+00 -3.0058889870e+00 1.7354508158e+00 3.0058889870e+00 
17200 6.5612607967e+00 5.1195513215e-03 1.7353043640e+00 -3.0056353250e+00 1.7353043640e+00 3.0056353250e+00 
17300 6.5612343387e+00 5.1394779949e-03 1.7351568545e+00 -3.0053798310e+00 1.7351568545e+00 3.0053798310e+00 
17400 6.5612086325e+00 5.1434994457e-03 1.7350087582e+00 -3.0051233208e+00 1.7350087582e+00 3.0051233208e+00 
17500 6.5611837874e+00 5.1320849675e-03 1.7348605334e+00 -3.0048665879e+00 1.7348605334e+00 3.0048665879e+00 
17600 6.5611599022e+00 5.1057217937e-03 1.7347126249e+00 -3.0046104029e+00 1.7347126249e+00 3.0046104029e+00 
17700 6.5611370648e+00 5.0649135183e-03 1.7345654637e+00 -3.0043555121e+00 1.7345654637e+00 3.0043555121e+00 
17800 6.5611153523e+00 5.0101785324e-03 1.7344194662e+00 -3.0041026371e+00 1.7344194662e+00 3.0041026371e+00 
17900 6.5610948309e+00 4.9420484798e-03 1.7342750343e+00 -3.0038524738e+00 1.7342750343e+00 3.0038524738e+00 
18000 6.5610755556e+00 4.8610667350e-03 1.7341325546e+00 -3.0036056917e+00 1.7341325546e+00 3.0036056917e+00 
18100 6.5610575710e+00 4.7677869065e-03 1.7339923981e+00 -3.0033629334e+00 1.7339923981e+00 3.0033629334e+00 
18200 6.5610409108e+00 4.6627713695e-03 1.7338549198e+00 -3.0031248141e+00 1.7338549198e+00 3.0031248141e+00 
18300 6.5610255987e+00 4.5465898289e-03 1.7337204590e+00 -3.0028919211e+00 1.7337204590e+00 3.0028919211e+00 
18400 6.5610116482e+00 4.4198179163e-03 1.7335893383e+00 -3.0026648134e+00 1.7335893383e+00 3.0026648134e+00 
18500 6.5609990632e+00 4.2830358233e-03 1.7334618640e+00 -3.0024440214e+00 1.7334618640e+00 3.0024440214e+00 
18600 6.5609878386e+00 4.1368269725e-03 1.7333383255e+00 -3.0022300464e+00 1.7333383255e+00 3.0022300464e+00 
18700 6.5609779606e+00 3.9817767275e-03 1.7332189956e+00 -3.0020233611e+00 1.7332189956e+00 3.0020233611e+00 
18800 6.5609694070e+00 3.8184711451e-03 1.7331041304e+00 -3.0018244086e+00 1.7331041304e+00 3.0018244086e+00 
18900 6.5609621484e+00 3.6474957691e-03 1.7329939688e+00 -3.0016336031e+00 1.7329939688e+00 3.0016336031e+00 
19000 6.5609561480e+00 3.4694344681e-03 1.7328887330e+00 -3.0014513295e+00 1.7328887330e+00 3.0014513295e+00 
19100 6.5609513629e+00 3.2848683179e-03 1.7327886285e+00 -3.0012779433e+00 1.7327886285e+00 3.0012779433e+00 
19200 6.5609477441e+00 3.0943745286e-03 1.7326938437e+00 -3.0011137713e+00 1.7326938437e+00 3.0011137713e+00 
19300 6.5609452377e+00 2.8985254178e-03 1.7326045507e+00 -3.0009591113e+00 1.7326045507e+00 3.0009591113e+00 
19400 6.5609437851e+00 2.6978874299e-03 1.7325209049e+00 -3.0008142325e+00 1.7325209049e+00 3.0008142325e+00 
19500 6.5609433239e+00 2.4930202014e-03 1.7324430454e+00 -3.0006793758e+00 1.7324430454e+00 3.0006793758e+00 
19600 6.5609437884e+00 2.2844756731e-03 1.7323710949e+00 -3.0005547538e+00 1.7323710949e+00 3.0005547538e+00 
19700 6.5609451102e+00 2.0727972480e-03 1.7323051603e+00 -3.0004405519e+00 1.7323051603e+00 3.0004405519e+00 
19800 6.5609472191e+00 1.8585189960e-03 1.7322453330e+00 -3.0003369279e+00 1.7322453330e+00 3.0003369279e+00 
19900 6.5609500432e+00 1.6421649039e-03 1.7321916884e+00 -3.0002440128e+00 1.7321916884e+00 3.0002440128e+00 
20000 6.5609535099e+00 1.4242481709e-03 1.7321442873e+00 -3.0001619116e+00 1.7321442873e+00 3.0001619116e+00 
20100 6.5609575462e+00 1.2052705495e-03 1.7321031752e+00 -3.0000907033e+00 1.7321031752e+00 3.0000907033e+00 
20200 6.5609620795e+00 9.8572173022e-04 1.7320683832e+00 -3.0000304418e+00 1.7320683832e+00 3.0000304418e+00 
20300 6.5609670378e+00 7.6607877007e-04 1.7320399282e+00 -2.9999811564e+00 1.7320399282e+00 2.9999811564e+00 
20400 6.5609723502e+00 5.4680556443e-04 1.7320178133e+00 -2.9999428523e+00 1.7320178133e+00 2.9999428523e+00 
20500 6.5609779477e+00 3.2835236071e-04 1.7320020281e+00 -2.9999155115e+00 1.7320020281e+00 2.9999155115e+00 
20600 6.5609837631e+00 1.1115531362e-04 1.7319925492e+00 -2.9998990935e+00 1.7319925492e+00 2.9998990935e+00 
20700 6.5609897315e+00 -1.0436391906e-04 1.7319893403e+00 -2.9998935355e+00 1.7319893403e+00 2.9998935355e+00 
20800 6.5609957910e+00 -3.1779854110e-04 1.7319923531e+00 -2.9998987539e+00 1.7319923531e+00 2.9998987539e+00 
20900 6.5610018825e+00 -5.2875694368e-04 1.7320015275e+00 -2.9999146444e+00 1.7320015275e+00 2.9999146444e+00 
21000 6.5610079503e+00 -7.3686299350e-04 1.7320167918e+00 -2.9999410830e+00 1.7320167918e+00 2.9999410830e+00 
21100 6.5610139420e+00 -9.4175628405e-04 1.7320380637e+00 -2.9999779270e+00 1.7320380637e+00 2.9999779270e+00 
21200 6.5610198090e+00 -1.1430923511e-03 1.7320652501e+00 -3.0000250153e+00 1.7320652501e+00 3.0000250153e+00 
21300 6.5610255064e+00 -1.3405428531e-03 1.7320982482e+00 -3.0000821696e+00 1.7320982482e+00 3.0000821696e+00 
21400 6.5610309934e+00 -1.5337957183e-03 1.7321369454e+00 -3.0001491951e+00 1.7321369454e+00 3.0001491951e+00 
21500 6.5610362329e+00 -1.7225552581e-03 1.7321812203e+00 -3.0002258814e+00 1.7321812203e+00 3.0002258814e+00 
21600 6.5610411922e+00 -1.9065422496e-03 1.7322309427e+00 -3.0003120031e+00 1.7322309427e+00 3.0003120031e+00 
21700 6.5610458423e+00 -2.0854939860e-03 1.7322859744e+00 -3.0004073208e+00 1.7322859744e+00 3.0004073208e+00 
21800 6.5610501584e+00 -2.2591642983e-03 1.7323461696e+00 -3.0005115820e+00 1.7323461696e+00 3.0005115820e+00 
21900 6.5610541197e+00 -2.4273235474e-03 1.7324113753e+00 -3.0006245216e+00 1.7324113753e+00 3.0006245216e+00 
22000 6.5610577094e+00 -2.5897585883e-03 1.7324814320e+00 -3.0007458634e+00 1.7324814320e+00 3.0007458634e+00 
22100 6.5610609142e+00 -2.7462727072e-03 1.7325561738e+00 -3.0008753200e+00 1.7325561738e+00 3.0008753200e+00 
22200 6.5610637249e+00 -2.8966855331e-03 1.7326354294e+00 -3.0010125947e+00 1.7326354294e+00 3.0010125947e+00 
22300 6.5610661356e+00 -3.0408329239e-03 1.7327190219e+00 -3.0011573812e+00 1.7327190219e+00 3.0011573812e+00 
22400 6.5610681438e+00 -3.1785668279e-03 1.7328067701e+00 -3.0013093655e+00 1.7328067701e+00 3.0013093655e+00 
22500 6.5610697504e+00 -3.3097551231e-03 1.7328984882e+00 -3.0014682259e+00 1.7328984882e+00 3.0014682259e+00 
22600 6.5610709594e+00 -3.4342814333e-03 1.7329939868e+00 -3.0016336343e+00 1.7329939868e+00 3.0016336343e+00 
22700 6.5610717773e+00 -3.5520449235e-03 1.7330930729e+00 -3.0018052565e+00 1.7330930729e+00 3.0018052565e+00 
22800 6.5610722135e+00 -3.6629600738e-03 1.7331955510e+00 -3.0019827537e+00 1.7331955510e+00 3.0019827537e+00 
22900 6.5610722800e+00 -3.7669564350e-03 1.7333012227e+00 -3.0021657826e+00 1.7333012227e+00 3.0021657826e+00 
23000 6.5610719907e+00 -3.8639783643e-03 1.7334098881e+00 -3.0023539965e+00 1.7334098881e+00 3.0023539965e+00 
23100 6.5610713615e+00 -3.9539847438e-03 1.7335213453e+00 -3.0025470460e+00 1.7335213453e+00 3.0025470460e+00 
23200 6.5610704103e+00 -4.0369486822e-03 1.7336353914e+00 -3.0027445797e+00 1.7336353914e+00 3.0027445797e+00 
23300 6.5610691564e+00 -4.1128571994e-03 1.7337518229e+00 -3.0029462449e+00 1.7337518229e+00 3.0029462449e+00 
23400 6.5610676202e+00 -4.1817108971e-03 1.7338704357e+00 -3.0031516884e+00 1.7338704357e+00 3.0031516884e+00 
23500 6.5610658236e+00 -4.2435236144e-03 1.7339910260e+00 -3.0033605569e+00 1.7339910260e+00 3.0033605569e+00 
23600 6.5610637891e+00 -4.2983220693e-03 1.7341133903e+00 -3.0035724982e+00 1.7341133903e+00 3.0035724982e+00 
23700 6.5610615397e+00 -4.3461454888e-03 1.7342373261e+00 -3.0037871612e+00 1.7342373261e+00 3.0037871612e+00 
23800 6.5610590993e+00 -4.3870452261e-03 1.7343626318e+00 -3.0040041971e+00 1.7343626318e+00 3.0040041971e+00 
23900 6.5610564916e+00 -4.4210843669e-03 1.7344891077e+00 -3.0042232596e+00 1.7344891077e+00 3.0042232596e+00 
24000 6.5610537406e+00 -4.4483373261e-03 1.7346165555e+00 -3.0044440058e+00 1.7346165555e+00 3.0044440058e+00 
24100 6.5610508701e+00 -4.4688894342e-03 1.7347447796e+00 -3.0046660964e+00 1.7347447796e+00 3.0046660964e+00 
24200 6.5610479036e+00 -4.4828365161e-03 1.7348735866e+00 -3.0048891967e+00 1.7348735866e+00 3.0048891967e+00 
24300 6.5610448641e+00 -4.4902844618e-03 1.7350027860e+00 -3.0051129766e+00 1.7350027860e+00 3.0051129766e+00 
24400 6.5610417743e+00 -4.4913487894e-03 1.7351321904e+00 -3.0053371116e+00 1.7351321904e+00 3.0053371116e+00 
24500 6.5610386557e+00 -4.4861542036e-03 1.7352616158e+00 -3.0055612830e+00 1.7352616158e+00 3.0055612830e+00 
24600 6.5610355293e+00 -4.4748341473e-03 1.7353908819e+00 -3.0057851785e+00 1.7353908819e+00 3.0057851785e+00 
24700 6.5610324151e+00 -4.4575303499e-03 1.7355198122e+00 -3.0060084923e+00 1.7355198122e+00 3.0060084923e+00 
24800 6.5610293319e+00 -4.4343923708e-03 1.7356482344e+00 -3.0062309261e+00 1.7356482344e+00 3.0062309261e+00 
24900 6.5610262974e+00 -4.4055771411e-03 1.7357759805e+00 -3.0064521888e+00 1.7357759805e+00 3.0064521888e+00 
25000 6.5610233281e+00 -4.3712485021e-03 1.7359028872e+00 -3.0066719976e+00 1.7359028872e+00 3.0066719976e+00 
25100 6.5610204394e+00 -4.3315767433e-03 1.7360287958e+00 -3.0068900777e+00 1.7360287958e+00 3.0068900777e+00 
25200 6.5610176452e+00 -4.2867381388e-03 1.7361535526e+00 -3.0071061628e+00 1.7361535526e+00 3.0071061628e+00 
25300 6.5610149580e+00 -4.2369144852e-03 1.7362770091e+00 -3.0073199958e+00 1.7362770091e+00 3.0073199958e+00 
25400 6.5610123892e+00 -4.1822926387e-03 1.7363990220e+00 -3.0075313283e+00 1.7363990220e+00 3.0075313283e+00 
25500 6.5610099486e+00 -4.1230640554e-03 1.7365194535e+00 -3.0077399217e+00 1.7365194535e+00 3.0077399217e+00 
25600 6.5610076445e+00 -4.0594243326e-03 1.7366381711e+00 -3.0079455468e+00 1.7366381711e+00 3.0079455468e+00 
25700 6.5610054843e+00 -3.9915727543e-03 1.7367550484e+00 -3.0081479841e+00 1.7367550484e+00 3.0081479841e+00 
25800 6.5610034735e+00 -3.9197118395e-03 1.7368699643e+00 -3.0083470243e+00 1.7368699643e+00 3.0083470243e+00 
25900 6.5610016167e+00 -3.8440468953e-03 1.7369828039e+00 -3.0085424683e+00 1.7369828039e+00 3.0085424683e+00 
26000 6.5609999169e+00 -3.7647855752e-03 1.7370934581e+00 -3.0087341269e+00 1.7370934581e+00 3.0087341269e+00 
26100 6.5609983761e+00 -3.6821374430e-03 1.7372018237e+00 -3.0089218217e+00 1.7372018237e+00 3.0089218217e+00 
26200 6.5609969949e+00 -3.5963135430e-03 1.7373078038e+00 -3.0091053845e+00 1.7373078038e+00 3.0091053845e+00 
26300 6.5609957729e+00 -3.5075259770e-03 1.7374113073e+00 -3.0092846579e+00 1.7374113073e+00 3.0092846579e+00 
26400 6.5609947086e+00 -3.4159874895e-03 1.7375122494e+00 -3.0094594948e+00 1.7375122494e+00 3.0094594948e+00 
26500 6.5609937994e+00 -3.3219110602e-03 1.7376105515e+00 -3.0096297589e+00 1.7376105515e+00 3.0096297589e+00 
26600 6.5609930419e+00 -3.2255095061e-03 1.7377061408e+00 -3.0097953245e+00 1.7377061408e+00 3.0097953245e+00 
26700 6.5609924318e+00 -3.1269950916e-03 1.7377989510e+00 -3.0099560766e+00 1.7377989510e+00 3.0099560766e+00 
26800 6.5609919637e+00 -3.0265791498e-03 1.7378889218e+00 -3.0101119105e+00 1.7378889218e+00 3.0101119105e+00 
26900 6.5609916320e+00 -2.9244717129e-03 1.7379759989e+00 -3.0102627323e+00 1.7379759989e+00 3.0102627323e+00 
27000 6.5609914301e+00 -2.8208811537e-03 1.7380601339e+00 -3.0104084586e+00 1.7380601339e+00 3.0104084586e+00 
27100 6.5609913510e+00 -2.7160138382e-03 1.7381412848e+00 -3.0105490161e+00 1.7381412848e+00 3.0105490161e+00 
27200 6.5609913871e+00 -2.6100737896e-03 1.7382194153e+00 -3.0106843419e+00 1.7382194153e+00 3.0106843419e+00 
27300 6.5609915304e+00 -2.5032623645e-03 1.7382944948e+00 -3.0108143834e+00 1.7382944948e+00 3.0108143834e+00 
27400 6.5609917727e+00 -2.3957779405e-03 1.7383664987e+00 -3.0109390979e+00 1.7383664987e+00 3.0109390979e+00 
27500 6.5609921055e+00 -2.2878156180e-03 1.7384354080e+00 -3.0110584523e+00 1.7384354080e+00 3.0110584523e+00 
27600 6.5609925200e+00 -2.1795669330e-03 1.7385012094e+00 -3.0111724237e+00 1.7385012094e+00 3.0111724237e+00 
27700 6.5609930076e+00 -2.0712195842e-03 1.7385638950e+00 -3.0112809984e+00 1.7385638950e+00 3.0112809984e+00 
27800 6.5609935593e+00 -1.9629571734e-03 1.7386234623e+00 -3.0113841720e+00 1.7386234623e+00 3.0113841720e+00 
27900 6.5609941663e+00 -1.8549589590e-03 1.7386799141e+00 -3.0114819493e+00 1.7386799141e+00 3.0114819493e+00 
28000 6.5609948200e+00 -1.7473996240e-03 1.7387332583e+00 -3.0115743441e+00 1.7387332583e+00 3.0115743441e+00 
28100 6.5609955117e+00 -1.6404490570e-03 1.7387835077e+00 -3.0116613787e+00 1.7387835077e+00 3.0116613787e+00 
28200 6.5609962331e+00 -1.5342721480e-03 1.7388306803e+00 -3.0117430840e+00 1.7388306803e+00 3.0117430840e+00 
28300 6.5609969761e+00 -1.4290285985e-03 1.7388747984e+00 -3.0118194988e+00 1.7388747984e+00 3.0118194988e+00 
28400 6.5609977328e+00 -1.3248727445e-03 1.7389158891e+00 -3.0118906701e+00 1.7389158891e+00 3.0118906701e+00 
28500 6.5609984957e+00 -1.2219533956e-03 1.7389539841e+00 -3.0119566524e+00 1.7389539841e+00 3.0119566524e+00 
28600 6.5609992578e+00 -1.1204136870e-03 1.7389891189e+00 -3.0120175078e+00 1.7389891189e+00 3.0120175078e+00 
28700 6.5610000123e+00 -1.0203909461e-03 1.7390213335e+00 -3.0120733051e+00 1.7390213335e+00 3.0120733051e+00 
28800 6.5610007530e+00 -9.2201657308e-04 1.7390506717e+00 -3.0121241203e+00 1.7390506717e+00 3.0121241203e+00 
28900 6.5610014739e+00 -8.2541593645e-04 1.7390771809e+00 -3.0121700357e+00 1.7390771809e+00 3.0121700357e+00 
29000 6.5610021699e+00 -7.3070828129e-04 1.7391009124e+00 -3.0122111398e+00 1.7391009124e+00 3.0122111398e+00 
29100 6.5610028360e+00 -6.3800665219e-04 1.7391219207e+00 -3.0122475272e+00 1.7391219207e+00 3.0122475272e+00 
29200 6.5610034679e+00 -5.4741782967e-04 1.7391402635e+00 -3.0122792979e+00 1.7391402635e+00 3.0122792979e+00 
29300 6.5610040616e+00 -4.5904227999e-04 1.7391560017e+00 -3.0123065573e+00 1.7391560017e+00 3.0123065573e+00 
29400 6.5610046138e+00 -3.7297411837e-04 1.7391691990e+00 -3.0123294156e+00 1.7391691990e+00 3.0123294156e+00 
29500 6.5610051218e+00 -2.8930108521e-04 1.7391799218e+00 -3.0123479880e+00 1.7391799218e+00 3.0123479880e+00 
29600 6.5610055830e+00 -2.0810453512e-04 1.7391882390e+00 -3.0123623938e+00 1.7391882390e+00 3.0123623938e+00 
29700 6.5610059957e+00 -1.2945943848e-04 1.7391942218e+00 -3.0123727563e+00 1.7391942218e+00 3.0123727563e+00 
29800 6.5610063584e+00 -5.3434395190e-05 1.7391979436e+00 -3.0123792027e+00 1.7391979436e+00 3.0123792027e+00 
29900 6.5610066700e+00 1.8264325096e-05 1.7391979436e+00 -3.0123792027e+00 1.7391979436e+00 3.0123792027e+00 
30000 6.5610069303e+00 8.9472496236e-05 1.7391979436e+00 -3.0123792027e+00 1.7391979436e+00 3.0123792027e+00 
30100 6.5610071392e+00 1.5731499244e-04 1.7391953714e+00 -3.0123747475e+00 1.7391953714e+00 3.0123747475e+00 
30200 6.5610072969e+00 2.2232515585e-04 1.7391908487e+00 -3.0123669140e+00 1.7391908487e+00 3.0123669140e+00 
30300 6.5610074043e+00 2.8446567599e-04 1.7391844571e+00 -3.0123558434e+00 1.7391844571e+00 3.0123558434e+00 
30400 6.5610074624e+00 3.4370529053e-04 1.7391762790e+00 -3.0123416785e+00 1.7391762790e+00 3.0123416785e+00 
30500 6.5610074726e+00 4.0001869583e-04 1.7391663977e+00 -3.0123245637e+00 1.7391663977e+00 3.0123245637e+00 
30600 6.5610074366e+00 4.5338644825e-04 1.7391548974e+00 -3.0123046446e+00 1.7391548974e+00 3.0123046446e+00 
30700 6.5610073563e+00 5.0379485665e-04 1.7391418628e+00 -3.0122820679e+00 1.7391418628e+00 3.0122820679e+00 
30800 6.5610072341e+00 5.5123586648e-04 1.7391273788e+00 -3.0122569809e+00 1.7391273788e+00 3.0122569809e+00 
30900 6.5610070723e+00 5.9570693601e-04 1.7391115307e+00 -3.0122295313e+00 1.7391115307e+00 3.0122295313e+00 
31000 6.5610068735e+00 6.3721090504e-04 1.7390944040e+00 -3.0121998669e+00 1.7390944040e+00 3.0121998669e+00 
31100 6.5610066406e+00 6.7575585657e-04 1.7390760838e+00 -3.0121681355e+00 1.7390760838e+00 3.0121681355e+00 
31200 6.5610063765e+00 7.1135497197e-04 1.7390566553e+00 -3.0121344842e+00 1.7390566553e+00 3.0121344842e+00 
31300 6.5610060841e+00 7.4402637997e-04 1.7390362030e+00 -3.0120990598e+00 1.7390362030e+00 3.0120990598e+00 
31400 6.5610057665e+00 7.7379300007e-04 1.7390148111e+00 -3.0120620080e+00 1.7390148111e+00 3.0120620080e+00 
31500 6.5610054270e+00 8.0068238073e-04 1.7389925632e+00 -3.0120234734e+00 1.7389925632e+00 3.0120234734e+00 
31600 6.5610050685e+00 8.2472653286e-04 1.7389695418e+00 -3.0119835992e+00 1.7389695418e+00 3.0119835992e+00 
31700 6.5610046944e+00 8.4596175904e-04 1.7389458287e+00 -3.0119425270e+00 1.7389458287e+00 3.0119425270e+00 
31800 6.5610043076e+00 8.6442847892e-04 1.7389215048e+00 -3.0119003967e+00 1.7389215048e+00 3.0119003967e+00 
31900 6.5610039114e+00 8.8017105129e-04 1.7388966496e+00 -3.0118573462e+00 1.7388966496e+00 3.0118573462e+00 
32000 6.5610035086e+00 8.9323759318e-04 1.7388713413e+00 -3.0118135110e+00 1.7388713413e+00 3.0118135110e+00 
32100 6.5610031022e+00 9.0367979656e-04 1.7388456570e+00 -3.0117690244e+00 1.7388456570e+00 3.0117690244e+00 
32200 6.5610026950e+00 9.1155274291e-04 1.7388196720e+00 -3.0117240171e+00 1.7388196720e+00 3.0117240171e+00 
32300 6.5610022898e+00 9.1691471621e-04 1.7387934602e+00 -3.0116786170e+00 1.7387934602e+00 3.0116786170e+00 
32400 6.5610018890e+00 9.1982701472e-04 1.7387670939e+00 -3.0116329491e+00 1.7387670939e+00 3.0116329491e+00 
32500 6.5610014951e+00 9.2035376195e-04 1.7387406434e+00 -3.0115871355e+00 1.7387406434e+00 3.0115871355e+00 
32600 6.5610011104e+00 9.1856171721e-04 1.7387141774e+00 -3.0115412950e+00 1.7387141774e+00 3.0115412950e+00 
32700 6.5610007369e+00 9.1452008613e-04 1.7386877625e+00 -3.0114955431e+00 1.7386877625e+00 3.0114955431e+00 
32800 6.5610003766e+00 9.0830033155e-04 1.7386614634e+00 -3.0114499917e+00 1.7386614634e+00 3.0114499917e+00 
32900 6.5610000313e+00 8.9997598509e-04 1.7386353428e+00 -3.0114047495e+00 1.7386353428e+00 3.0114047495e+00 
33000 6.5609997024e+00 8.8962245974e-04 1.7386094611e+00 -3.0113599212e+00 1.7386094611e+00 3.0113599212e+00 
33100 6.5609993913e+00 8.7731686395e-04 1.7385838769e+00 -3.0113156080e+00 1.7385838769e+00 3.0113156080e+00 
33200 6.5609990993e+00 8.6313781735e-04 1.7385586462e+00 -3.0112719071e+00 1.7385586462e+00 3.0112719071e+00 
33300 6.5609988274e+00 8.4716526844e-04 1.7385338229e+00 -3.0112289119e+00 1.7385338229e+00 3.0112289119e+00 
33400 6.5609985763e+00 8.2948031475e-04 1.7385094586e+00 -3.0111867117e+00 1.7385094586e+00 3.0111867117e+00 
33500 6.5609983467e+00 8.1016502546e-04 1.7384856025e+00 -3.0111453918e+00 1.7384856025e+00 3.0111453918e+00 
33600 6.5609981391e+00 7.8930226699e-04 1.7384623017e+00 -3.0111050336e+00 1.7384623017e+00 3.0111050336e+00 
33700 6.5609979538e+00 7.6697553163e-04 1.7384396006e+00 -3.0110657141e+00 1.7384396006e+00 3.0110657141e+00 
33800 6.5609977908e+00 7.4326876960e-04 1.7384175413e+00 -3.0110275063e+00 1.7384175413e+00 3.0110275063e+00 
33900 6.5609976502e+00 7.1826622467e-04 1.7383961636e+00 -3.0109904791e+00 1.7383961636e+00 3.0109904791e+00 
34000 6.5609975318e+00 6.9205227358e-04 1.7383755048e+00 -3.0109546969e+00 1.7383755048e+00 3.0109546969e+00 
34100 6.5609974351e+00 6.6471126951e-04 1.7383555997e+00 -3.0109202203e+00 1.7383555997e+00 3.0109202203e+00 
34200 6.5609973599e+00 6.3632738963e-04 1.7383364808e+00 -3.0108871053e+00 1.7383364808e+00 3.0108871053e+00 
34300 6.5609973055e+00 6.0698448716e-04 1.7383181780e+00 -3.0108554041e+00 1.7383181780e+00 3.0108554041e+00 
34400 6.5609972712e+00 5.7676594778e-04 1.7383007191e+00 -3.0108251643e+00 1.7383007191e+00 3.0108251643e+00 
34500 6.5609972561e+00 5.4575455082e-04 1.7382841292e+00 -3.0107964297e+00 1.7382841292e+00 3.0107964297e+00 
34600 6.5609972595e+00 5.1403233517e-04 1.7382684311e+00 -3.0107692399e+00 1.7382684311e+00 3.0107692399e+00 
34700 6.5609972803e+00 4.8168047012e-04 1.7382536454e+00 -3.0107436303e+00 1.7382536454e+00 3.0107436303e+00 
34800 6.5609973175e+00 4.4877913118e-04 1.7382397901e+00 -3.0107196322e+00 1.7382397901e+00 3.0107196322e+00 
34900 6.5609973700e+00 4.1540738103e-04 1.7382268811e+00 -3.0106972732e+00 1.7382268811e+00 3.0106972732e+00 
35000 6.5609974367e+00 3.8164305562e-04 1.7382149320e+00 -3.0106765766e+00 1.7382149320e+00 3.0106765766e+00 
35100 6.5609975162e+00 3.4756265551e-04 1.7382039540e+00 -3.0106575622e+00 1.7382039540e+00 3.0106575622e+00 
35200 6.5609976075e+00 3.1324124250e-04 1.7381939562e+00 -3.0106402456e+00 1.7381939562e+00 3.0106402456e+00 
35300 6.5609977093e+00 2.7875234163e-04 1.7381849457e+00 -3.0106246389e+00 1.7381849457e+00 3.0106246389e+00 
35400 6.5609978203e+00 2.4416784853e-04 1.7381769272e+00 -3.0106107504e+00 1.7381769272e+00 3.0106107504e+00 
35500 6.5609979393e+00 2.0955794212e-04 1.7381699035e+00 -3.0105985851e+00 1.7381699035e+00 3.0105985851e+00 
35600 6.5609980651e+00 1.7499100279e-04 1.7381638754e+00 -3.0105881441e+00 1.7381638754e+00 3.0105881441e+00 
35700 6.5609981964e+00 1.4053353589e-04 1.7381588416e+00 -3.0105794253e+00 1.7381588416e+00 3.0105794253e+00 
35800 6.5609983320e+00 1.0625010070e-04 1.7381547990e+00 -3.0105724233e+00 1.7381547990e+00 3.0105724233e+00 
35900 6.5609984708e+00 7.2203244693e-05 1.7381517426e+00 -3.0105671295e+00 1.7381517426e+00 3.0105671295e+00 
36000 6.5609986117e+00 3.8453443183e-05 1.7381496656e+00 -3.0105635320e+00 1.7381496656e+00 3.0105635320e+00 
36100 6.5609987534e+00 6.2463003963e-06 1.7381496656e+00 -3.0105635320e+00 1.7381496656e+00 3.0105635320e+00 
36200 6.5609988951e+00 -2.6574091275e-05 1.7381496656e+00 -3.0105635320e+00 1.7381496656e+00 3.0105635320e+00 
36300 6.5609990358e+00 -5.9946100069e-05 1.7381496656e+00 -3.0105635320e+00 1.7381496656e+00 3.0105635320e+00 
36400 6.5609991747e+00 -9.3808928312e-05 1.7381496656e+00 -3.0105635320e+00 1.7381496656e+00 3.0105635320e+00 
36500 6.5609993107e+00 -1.2520664401e-04 1.7381523641e+00 -3.0105682060e+00 1.7381523641e+00 3.0105682060e+00 
36600 6.5609994431e+00 -1.5599201015e-04 1.7381559659e+00 -3.0105744443e+00 1.7381559659e+00 3.0105744443e+00 
36700 6.5609995711e+00 -1.8612024116e-04 1.7381604531e+00 -3.0105822165e+00 1.7381604531e+00 3.0105822165e+00 
36800 6.5609996942e+00 -2.1554892283e-04 1.7381658071e+00 -3.0105914899e+00 1.7381658071e+00 3.0105914899e+00 
36900 6.5609998116e+00 -2.4423802725e-04 1.7381720076e+00 -3.0106022294e+00 1.7381720076e+00 3.0106022294e+00 
37000 6.5609999230e+00 -2.7214992294e-04 1.7381790333e+00 -3.0106143983e+00 1.7381790333e+00 3.0106143983e+00 
37100 6.5610000278e+00 -2.9924938053e-04 1.7381868619e+00 -3.0106279578e+00 1.7381868619e+00 3.0106279578e+00 
37200 6.5610001257e+00 -3.2550357408e-04 1.7381954700e+00 -3.0106428675e+00 1.7381954700e+00 3.0106428675e+00 
37300 6.5610002164e+00 -3.5088207794e-04 1.7382048332e+00 -3.0106590851e+00 1.7382048332e+00 3.0106590851e+00 
37400 6.5610002997e+00 -3.7535685955e-04 1.7382149265e+00 -3.0106765672e+00 1.7382149265e+00 3.0106765672e+00 
37500 6.5610003753e+00 -3.9890226812e-04 1.7382257237e+00 -3.0106952685e+00 1.7382257237e+00 3.0106952685e+00 
37600 6.5610004432e+00 -4.2149501941e-04 1.7382371981e+00 -3.0107151427e+00 1.7382371981e+00 3.0107151427e+00 
37700 6.5610005033e+00 -4.4311417660e-04 1.7382493223e+00 -3.0107361425e+00 1.7382493223e+00 3.0107361425e+00 
37800 6.5610005557e+00 -4.6374112763e-04 1.7382620683e+00 -3.0107582192e+00 1.7382620683e+00 3.0107582192e+00 
37900 6.5610006003e+00 -4.8335955887e-04 1.7382754076e+00 -3.0107813235e+00 1.7382754076e+00 3.0107813235e+00 
38000 6.5610006374e+00 -5.0195542542e-04 1.7382893110e+00 -3.0108054049e+00 1.7382893110e+00 3.0108054049e+00 
38100 6.5610006670e+00 -5.1951691821e-04 1.7383037492e+00 -3.0108304127e+00 1.7383037492e+00 3.0108304127e+00 
38200 6.5610006894e+00 -5.3603442787e-04 1.7383186925e+00 -3.0108562951e+00 1.7383186925e+00 3.0108562951e+00 
38300 6.5610007049e+00 -5.5150050569e-04 1.7383341107e+00 -3.0108830002e+00 1.7383341107e+00 3.0108830002e+00 
38400 6.5610007138e+00 -5.6590982170e-04 1.7383499736e+00 -3.0109104756e+00 1.7383499736e+00 3.0109104756e+00 
38500 6.5610007163e+00 -5.7925912012e-04 1.7383662509e+00 -3.0109386686e+00 1.7383662509e+00 3.0109386686e+00 
38600 6.5610007128e+00 -5.9154717216e-04 1.7383829119e+00 -3.0109675264e+00 1.7383829119e+00 3.0109675264e+00 
38700 6.5610007037e+00 -6.0277472656e-04 1.7383999262e+00 -3.0109969961e+00 1.7383999262e+00 3.0109969961e+00 
38800 6.5610006894e+00 -6.1294445773e-04 1.7384172633e+00 -3.0110270248e+00 1.7384172633e+00 3.0110270248e+00 
38900 6.5610006703e+00 -6.2206091187e-04 1.7384348927e+00 -3.0110575598e+00 1.7384348927e+00 3.0110575598e+00 
39000 6.5610006469e+00 -6.3013045117e-04 1.7384527842e+00 -3.0110885487e+00 1.7384527842e+00 3.0110885487e+00 
39100 6.5610006195e+00 -6.3716119607e-04 1.7384709075e+00 -3.0111199393e+00 1.7384709075e+00 3.0111199393e+00 
39200 6.5610005886e+00 -6.4316296598e-04 1.7384892329e+00 -3.0111516797e+00 1.7384892329e+00 3.0111516797e+00 
39300 6.5610005547e+00 -6.4814721839e-04 1.7385077307e+00 -3.0111837188e+00 1.7385077307e+00 3.0111837188e+00 
39400 6.5610005182e+00 -6.5212698671e-04 1.7385263716e+00 -3.0112160059e+00 1.7385263716e+00 3.0112160059e+00 
39500 6.5610004795e+00 -6.5511681672e-04 1.7385451268e+00 -3.0112484909e+00 1.7385451268e+00 3.0112484909e+00 
39600 6.5610004391e+00 -6.5713270208e-04 1.7385639678e+00 -3.0112811244e+00 1.7385639678e+00 3.0112811244e+00 
39700 6.5610003974e+00 -6.5819201882e-04 1.7385828665e+00 -3.0113138580e+00 1.7385828665e+00 3.0113138580e+00 
39800 6.5610003548e+00 -6.5831345901e-04 1.7386017955e+00 -3.0113466440e+00 1.7386017955e+00 3.0113466440e+00 
39900 6.5610003117e+00 -6.5751696374e-04 1.7386207278e+00 -3.0113794357e+00 1.7386207278e+00 3.0113794357e+00 
40000 6.5610002685e+00 -6.5582365566e-04 1.7386396370e+00 -3.0114121874e+00 1.7386396370e+00 3.0114121874e+00 
40100 6.5610002255e+00 -6.5325577094e-04 1.7386584973e+00 -3.0114448544e+00 1.7386584973e+00 3.0114448544e+00 
40200 6.5610001831e+00 -6.4983659112e-04 1.7386772836e+00 -3.0114773931e+00 1.7386772836e+00 3.0114773931e+00 
40300 6.5610001416e+00 -6.4559037466e-04 1.7386959713e+00 -3.0115097611e+00 1.7386959713e+00 3.0115097611e+00 
40400 6.5610001013e+00 -6.4054228858e-04 1.7387145367e+00 -3.0115419173e+00 1.7387145367e+00 3.0115419173e+00 
40500 6.5610000624e+00 -6.3471834009e-04 1.7387329567e+00 -3.0115738218e+00 1.7387329567e+00 3.0115738218e+00 
40600 6.5610000253e+00 -6.2814530853e-04 1.7387512090e+00 -3.0116054358e+00 1.7387512090e+00 3.0116054358e+00 
40700 6.5609999900e+00 -6.2085067750e-04 1.7387692722e+00 -3.0116367221e+00 1.7387692722e+00 3.0116367221e+00 
40800 6.5609999570e+00 -6.1286256756e-04 1.7387871254e+00 -3.0116676447e+00 1.7387871254e+00 3.0116676447e+00 
40900 6.5609999262e+00 -6.0420966943e-04 1.7388047487e+00 -3.0116981692e+00 1.7388047487e+00 3.0116981692e+00 
41000 6.5609998978e+00 -5.9492117776e-04 1.7388221230e+00 -3.0117282624e+00 1.7388221230e+00 3.0117282624e+00 
41100 6.5609998720e+00 -5.8502672579e-04 1.7388392300e+00 -3.0117578926e+00 1.7388392300e+00 3.0117578926e+00 
41200 6.5609998489e+00 -5.7455632073e-04 1.7388560524e+00 -3.0117870298e+00 1.7388560524e+00 3.0117870298e+00 
41300 6.5609998285e+00 -5.6354028015e-04 1.7388725735e+00 -3.0118156452e+00 1.7388725735e+00 3.0118156452e+00 
41400 6.5609998108e+00 -5.5200916941e-04 1.7388887777e+00 -3.0118437118e+00 1.7388887777e+00 3.0118437118e+00 
41500 6.5609997960e+00 -5.3999374015e-04 1.7389046502e+00 -3.0118712037e+00 1.7389046502e+00 3.0118712037e+00 
41600 6.5609997839e+00 -5.2752487005e-04 1.7389201771e+00 -3.0118980970e+00 1.7389201771e+00 3.0118980970e+00 
41700 6.5609997747e+00 -5.1463350380e-04 1.7389353453e+00 -3.0119243691e+00 1.7389353453e+00 3.0119243691e+00 
41800 6.5609997682e+00 -5.0135059549e-04 1.7389501427e+00 -3.0119499990e+00 1.7389501427e+00 3.0119499990e+00 
41900 6.5609997643e+00 -4.8770705235e-04 1.7389645580e+00 -3.0119749671e+00 1.7389645580e+00 3.0119749671e+00 
42000 6.5609997631e+00 -4.7373368005e-04 1.7389785810e+00 -3.0119992555e+00 1.7389785810e+00 3.0119992555e+00 
42100 6.5609997645e+00 -4.5946112950e-04 1.7389922020e+00 -3.0120228479e+00 1.7389922020e+00 3.0120228479e+00 
42200 6.5609997682e+00 -4.4491984528e-04 1.7390054126e+00 -3.0120457292e+00 1.7390054126e+00 3.0120457292e+00 
42300 6.5609997743e+00 -4.3014001570e-04 1.7390182050e+00 -3.0120678863e+00 1.7390182050e+00 3.0120678863e+00 
42400 6.5609997825e+00 -4.1515152464e-04 1.7390305723e+00 -3.0120893072e+00 1.7390305723e+00 3.0120893072e+00 
42500 6.5609997929e+00 -3.9998390505e-04 1.7390425086e+00 -3.0121099814e+00 1.7390425086e+00 3.0121099814e+00 
42600 6.5609998051e+00 -3.8466629432e-04 1.7390540087e+00 -3.0121299003e+00 1.7390540087e+00 3.0121299003e+00 
42700 6.5609998191e+00 -3.6922739145e-04 1.7390650684e+00 -3.0121490561e+00 1.7390650684e+00 3.0121490561e+00 
42800 6.5609998347e+00 -3.5369541610e-04 1.7390756841e+00 -3.0121674431e+00 1.7390756841e+00 3.0121674431e+00 
42900 6.5609998517e+00 -3.3809806947e-04 1.7390858532e+00 -3.0121850564e+00 1.7390858532e+00 3.0121850564e+00 
43000 6.5609998700e+00 -3.2246249723e-04 1.7390955737e+00 -3.0122018929e+00 1.7390955737e+00 3.0122018929e+00 
43100 6.5609998895e+00 -3.0681525422e-04 1.7391048447e+00 -3.0122179508e+00 1.7391048447e+00 3.0122179508e+00 
43200 6.5609999099e+00 -2.9118227124e-04 1.7391136658e+00 -3.0122332293e+00 1.7391136658e+00 3.0122332293e+00 
43300 6.5609999311e+00 -2.7558882373e-04 1.7391220374e+00 -3.0122477293e+00 1.7391220374e+00 3.0122477293e+00 
43400 6.5609999530e+00 -2.6005950243e-04 1.7391299606e+00 -3.0122614528e+00 1.7391299606e+00 3.0122614528e+00 
43500 6.5609999753e+00 -2.4461818607e-04 1.7391374373e+00 -3.0122744028e+00 1.7391374373e+00 3.0122744028e+00 
43600 6.5609999980e+00 -2.2928801596e-04 1.7391444701e+00 -3.0122865839e+00 1.7391444701e+00 3.0122865839e+00 
43700 6.5610000208e+00 -2.1409137260e-04 1.7391510621e+00 -3.0122980015e+00 1.7391510621e+00 3.0122980015e+00 
43800 6.5610000437e+00 -1.9904985429e-04 1.7391572171e+00 -3.0123086624e+00 1.7391572171e+00 3.0123086624e+00 
43900 6.5610000665e+00 -1.8418425761e-04 1.7391629397e+00 -3.0123185742e+00 1.7391629397e+00 3.0123185742e+00 
44000 6.5610000891e+00 -1.6951455994e-04 1.7391682349e+00 -3.0123277458e+00 1.7391682349e+00 3.0123277458e+00 
44100 6.5610001114e+00 -1.5505990385e-04 1.7391731084e+00 -3.0123361868e+00 1.7391731084e+00 3.0123361868e+00 
44200 6.5610001331e+00 -1.4083858341e-04 1.7391775662e+00 -3.0123439081e+00 1.7391775662e+00 3.0123439081e+00 
44300 6.5610001544e+00 -1.2686803243e-04 1.7391816152e+00 -3.0123509212e+00 1.7391816152e+00 3.0123509212e+00 
44400 6.5610001750e+00 -1.1316481451e-04 1.7391852626e+00 -3.0123572386e+00 1.7391852626e+00 3.0123572386e+00 
44500 6.5610001948e+00 -9.9744614941e-05 1.7391885160e+00 -3.0123628736e+00 1.7391885160e+00 3.0123628736e+00 
44600 6.5610002139e+00 -8.6622234403e-05 1.7391913835e+00 -3.0123678404e+00 1.7391913835e+00 3.0123678404e+00 
44700 6.5610002320e+00 -7.3811584461e-05 1.7391938738e+00 -3.0123721537e+00 1.7391938738e+00 3.0123721537e+00 
44800 6.5610002493e+00 -6.1325684764e-05 1.7391959958e+00 -3.0123758291e+00 1.7391959958e+00 3.0123758291e+00 
44900 6.5610002656e+00 -5.1065190559e-05 1.7391959958e+00 -3.0123758291e+00 1.7391959958e+00 3.0123758291e+00 
45000 6.5610002809e+00 -4.0788709115e-05 1.7391959958e+00 -3.0123758291e+00 1.7391959958e+00 3.0123758291e+00 
45100 6.5610002950e+00 -3.0515860818e-05 1.7391959958e+00 -3.0123758291e+00 1.7391959958e+00 3.0123758291e+00 
45200 6.5610003081e+00 -2.0265618717e-05 1.7391959958e+00 -3.0123758291e+00 1.7391959958e+00 3.0123758291e+00 
45300 6.5610003200e+00 -1.0056296658e-05 1.7391959958e+00 -3.0123758291e+00 1.7391959958e+00 3.0123758291e+00 
45400 6.5610003308e+00 9.4461071437e-08 1.7391959958e+00 -3.0123758291e+00 1.7391959958e+00 3.0123758291e+00 
45500 6.5610003406e+00 1.0169688611e-05 1.7391959958e+00 -3.0123758291e+00 1.7391959958e+00 3.0123758291e+00 
45600 6.5610003494e+00 2.0153105943e-05 1.7391959958e+00 -3.0123758291e+00 1.7391959958e+00 3.0123758291e+00 
45700 6.5610003571e+00 3.0029124894e-05 1.7391959958e+00 -3.0123758291e+00 1.7391959958e+00 3.0123758291e+00 
45800 6.5610003638e+00 3.9782853751e-05 1.7391959958e+00 -3.0123758291e+00 1.7391959958e+00 3.0123758291e+00 
45900 6.5610003696e+00 4.9400100528e-05 1.7391959958e+00 -3.0123758291e+00 1.7391959958e+00 3.0123758291e+00 
46000 6.5610003745e+00 5.8867374923e-05 1.7391959958e+00 -3.0123758291e+00 1.7391959958e+00 3.0123758291e+00 
46100 6.5610003785e+00 6.8171889012e-05 1.7391959958e+00 -3.0123758291e+00 1.7391959958e+00 3.0123758291e+00 
46200 6.5610003817e+00 7.7301556696e-05 1.7391959958e+00 -3.0123758291e+00 1.7391959958e+00 3.0123758291e+00 
46300 6.5610003840e+00 8.3864133667e-05 1.7391937735e+00 -3.0123719799e+00 1.7391937735e+00 3.0123719799e+00 
46400 6.5610003854e+00 9.0015004903e-05 1.7391913625e+00 -3.0123678039e+00 1.7391913625e+00 3.0123678039e+00 
46500 6.5610003862e+00 9.5755090155e-05 1.7391887747e+00 -3.0123633217e+00 1.7391887747e+00 3.0123633217e+00 
46600 6.5610003862e+00 1.0108601315e-04 1.7391860218e+00 -3.0123585536e+00 1.7391860218e+00 3.0123585536e+00 
46700 6.5610003856e+00 1.0601008060e-04 1.7391831157e+00 -3.0123535200e+00 1.7391831157e+00 3.0123535200e+00 
46800 6.5610003845e+00 1.1053026036e-04 1.7391800680e+00 -3.0123482412e+00 1.7391800680e+00 3.0123482412e+00 
46900 6.5610003829e+00 1.1465015917e-04 1.7391768903e+00 -3.0123427374e+00 1.7391768903e+00 3.0123427374e+00 
47000 6.5610003809e+00 1.1837399960e-04 1.7391735942e+00 -3.0123370283e+00 1.7391735942e+00 3.0123370283e+00 
47100 6.5610003784e+00 1.2170659658e-04 1.7391701910e+00 -3.0123311339e+00 1.7391701910e+00 3.0123311339e+00 
47200 6.5610003757e+00 1.2465333346e-04 1.7391666921e+00 -3.0123250735e+00 1.7391666921e+00 3.0123250735e+00 
47300 6.5610003727e+00 1.2722013759e-04 1.7391631083e+00 -3.0123188663e+00 1.7391631083e+00 3.0123188663e+00 
47400 6.5610003695e+00 1.2941345566e-04 1.7391594508e+00 -3.0123125313e+00 1.7391594508e+00 3.0123125313e+00 
47500 6.5610003661e+00 1.3124022857e-04 1.7391557303e+00 -3.0123060871e+00 1.7391557303e+00 3.0123060871e+00 
47600 6.5610003627e+00 1.3270786621e-04 1.7391519572e+00 -3.0122995519e+00 1.7391519572e+00 3.0122995519e+00 
47700 6.5610003592e+00 1.3382422194e-04 1.7391481419e+00 -3.0122929436e+00 1.7391481419e+00 3.0122929436e+00 
47800 6.5610003557e+00 1.3459756697e-04 1.7391442945e+00 -3.0122862797e+00 1.7391442945e+00 3.0122862797e+00 
47900 6.5610003523e+00 1.3503656463e-04 1.7391404248e+00 -3.0122795773e+00 1.7391404248e+00 3.0122795773e+00 
48000 6.5610003490e+00 1.3515024457e-04 1.7391365425e+00 -3.0122728530e+00 1.7391365425e+00 3.0122728530e+00 
48100 6.5610003457e+00 1.3494797703e-04 1.7391326570e+00 -3.0122661230e+00 1.7391326570e+00 3.0122661230e+00 
48200 6.5610003427e+00 1.3443944708e-04 1.7391287772e+00 -3.0122594031e+00 1.7391287772e+00 3.0122594031e+00 
48300 6.5610003399e+00 1.3363462903e-04 1.7391249121e+00 -3.0122527085e+00 1.7391249121e+00 3.0122527085e+00 
48400 6.5610003373e+00 1.3254376090e-04 1.7391210701e+00 -3.0122460539e+00 1.7391210701e+00 3.0122460539e+00 
48500 6.5610003349e+00 1.3117731912e-04 1.7391172594e+00 -3.0122394537e+00 1.7391172594e+00 3.0122394537e+00 
48600 6.5610003328e+00 1.2954599349e-04 1.7391134881e+00 -3.0122329214e+00 1.7391134881e+00 3.0122329214e+00 
48700 6.5610003310e+00 1.2766066231e-04 1.7391097636e+00 -3.0122264705e+00 1.7391097636e+00 3.0122264705e+00 
48800 6.5610003296e+00 1.2553236788e-04 1.7391060933e+00 -3.0122201133e+00 1.7391060933e+00 3.0122201133e+00 
48900 6.5610003285e+00 1.2317229233e-04 1.7391024842e+00 -3.0122138622e+00 1.7391024842e+00 3.0122138622e+00 
49000 6.5610003277e+00 1.2059173381e-04 1.7390989429e+00 -3.0122077285e+00 1.7390989429e+00 3.0122077285e+00 
49100 6.5610003272e+00 1.1780208311e-04 1.7390954759e+00 -3.0122017234e+00 1.7390954759e+00 3.0122017234e+00 
49200 6.5610003271e+00 1.1481480066e-04 1.7390920890e+00 -3.0121958571e+00 1.7390920890e+00 3.0121958571e+00 
49300 6.5610003273e+00 1.1164139408e-04 1.7390887880e+00 -3.0121901397e+00 1.7390887880e+00 3.0121901397e+00 
49400 6.5610003279e+00 1.0829339622e-04 1.7390855782e+00 -3.0121845802e+00 1.7390855782e+00 3.0121845802e+00 
49500 6.5610003288e+00 1.0478234362e-04 1.7390824647e+00 -3.0121791874e+00 1.7390824647e+00 3.0121791874e+00 
49600 6.5610003300e+00 1.0111975568e-04 1.7390794521e+00 -3.0121739695e+00 1.7390794521e+00 3.0121739695e+00 
49700 6.5610003316e+00 9.7317114270e-05 1.7390765448e+00 -3.0121689339e+00 1.7390765448e+00 3.0121689339e+00 
49800 6.5610003335e+00 9.3385844029e-05 1.7390737469e+00 -3.0121640877e+00 1.7390737469e+00 3.0121640877e+00 
49900 6.5610003356e+00 8.9337293223e-05 1.7390710620e+00 -3.0121594373e+00 1.7390710620e+00 3.0121594373e+00 
50000 6.5610003381e+00 8.5182715273e-05 1.7390684934e+00 -3.0121549885e+00 1.7390684934e+00 3.0121549885e+00 
50100 6.5610003408e+00 8.0933250918e-05 1.7390660443e+00 -3.0121507465e+00 1.7390660443e+00 3.0121507465e+00 
50200 6.5610003437e+00 7.6599911046e-05 1.7390637174e+00 -3.0121467162e+00 1.7390637174e+00 3.0121467162e+00 
50300 6.5610003469e+00 7.2193560240e-05 1.7390615151e+00 -3.0121429016e+00 1.7390615151e+00 3.0121429016e+00 
50400 6.5610003503e+00 6.7724900946e-05 1.7390594394e+00 -3.0121393065e+00 1.7390594394e+00 3.0121393065e+00 
50500 6.5610003540e+00 6.5291129757e-05 1.7390594394e+00 -3.0121393065e+00 1.7390594394e+00 3.0121393065e+00 
50600 6.5610003578e+00 6.2687667614e-05 1.7390594394e+00 -3.0121393065e+00 1.7390594394e+00 3.0121393065e+00 
50700 6.5610003617e+00 5.9923230986e-05 1.7390594394e+00 -3.0121393065e+00 1.7390594394e+00 3.0121393065e+00 
50800 6.5610003658e+00 5.7006553200e-05 1.7390594394e+00 -3.0121393065e+00 1.7390594394e+00 3.0121393065e+00 
50900 6.5610003699e+00 5.3946368613e-05 1.7390594394e+00 -3.0121393065e+00 1.7390594394e+00 3.0121393065e+00 
51000 6.5610003740e+00 5.0751397304e-05 1.7390594394e+00 -3.0121393065e+00 1.7390594394e+00 3.0121393065e+00 
51100 6.5610003782e+00 4.7430330279e-05 1.7390594394e+00 -3.0121393065e+00 1.7390594394e+00 3.0121393065e+00 
51200 6.5610003824e+00 4.3991815198e-05 1.7390594394e+00 -3.0121393065e+00 1.7390594394e+00 3.0121393065e+00 
51300 6.5610003866e+00 4.0444442635e-05 1.7390594394e+00 -3.0121393065e+00 1.7390594394e+00 3.0121393065e+00 
51400 6.5610003907e+00 3.6796732884e-05 1.7390594394e+00 -3.0121393065e+00 1.7390594394e+00 3.0121393065e+00 
51500 6.5610003949e+00 3.3057123296e-05 1.7390594394e+00 -3.0121393065e+00 1.7390594394e+00 3.0121393065e+00 
51600 6.5610003989e+00 2.9233956184e-05 1.7390594394e+00 -3.0121393065e+00 1.7390594394e+00 3.0121393065e+00 
51700 6.5610004029e+00 2.5335467261e-05 1.7390594394e+00 -3.0121393065e+00 1.7390594394e+00 3.0121393065e+00 
51800 6.5610004069e+00 2.1369774648e-05 1.7390594394e+00 -3.0121393065e+00 1.7390594394e+00 3.0121393065e+00 
51900 6.5610004107e+00 1.7344868430e-05 1.7390594394e+00 -3.0121393065e+00 1.7390594394e+00 3.0121393065e+00 
52000 6.5610004144e+00 1.3268600771e-05 1.7390594394e+00 -3.0121393065e+00 1.7390594394e+00 3.0121393065e+00 
52100 6.5610004181e+00 9.1486765843e-06 1.7390594394e+00 -3.0121393065e+00 1.7390594394e+00 3.0121393065e+00 
52200 6.5610004216e+00 4.9926447549e-06 1.7390594394e+00 -3.0121393065e+00 1.7390594394e+00 3.0121393065e+00 
52300 6.5610004250e+00 8.0788991612e-07 1.7390594394e+00 -3.0121393065e+00 1.7390594394e+00 3.0121393065e+00 
52400 6.5610004283e+00 -3.3983752226e-06 1.7390594394e+00 -3.0121393065e+00 1.7390594394e+00 3.0121393065e+00 
52500 6.5610004314e+00 -7.6191170217e-06 1.7390594394e+00 -3.0121393065e+00 1.7390594394e+00 3.0121393065e+00 
52600 6.5610004344e+00 -1.1847487490e-05 1.7390594394e+00 -3.0121393065e+00 1.7390594394e+00 3.0121393065e+00 
52700 6.5610004373e+00 -1.6076830359e-05 1.7390594394e+00 -3.0121393065e+00 1.7390594394e+00 3.0121393065e+00 
52800 6.5610004400e+00 -2.0300686610e-05 1.7390594394e+00 -3.0121393065e+00 1.7390594394e+00 3.0121393065e+00 
52900 6.5610004426e+00 -2.4512799492e-05 1.7390594394e+00 -3.0121393065e+00 1.7390594394e+00 3.0121393065e+00 
53000 6.5610004450e+00 -2.8707119027e-05 1.7390594394e+00 -3.0121393065e+00 1.7390594394e+00 3.0121393065e+00 
53100 6.5610004473e+00 -3.2877806013e-05 1.7390594394e+00 -3.0121393065e+00 1.7390594394e+00 3.0121393065e+00 
53200 6.5610004495e+00 -3.7019235532e-05 1.7390594394e+00 -3.0121393065e+00 1.7390594394e+00 3.0121393065e+00 
53300 6.5610004515e+00 -4.1125999976e-05 1.7390594394e+00 -3.0121393065e+00 1.7390594394e+00 3.0121393065e+00 
53400 6.5610004534e+00 -4.5192911592e-05 1.7390594394e+00 -3.0121393065e+00 1.7390594394e+00 3.0121393065e+00 
53500 6.5610004552e+00 -4.9215004581e-05 1.7390594394e+00 -3.0121393065e+00 1.7390594394e+00 3.0121393065e+00 
53600 6.5610004569e+00 -5.3187536723e-05 1.7390594394e+00 -3.0121393065e+00 1.7390594394e+00 3.0121393065e+00 
53700 6.5610004584e+00 -5.7105990584e-05 1.7390594394e+00 -3.0121393065e+00 1.7390594394e+00 3.0121393065e+00 
53800 6.5610004598e+00 -6.0966074271e-05 1.7390594394e+00 -3.0121393065e+00 1.7390594394e+00 3.0121393065e+00 
53900 6.5610004611e+00 -6.4763721805e-05 1.7390594394e+00 -3.0121393065e+00 1.7390594394e+00 3.0121393065e+00 
54000 6.5610004623e+00 -6.8495093042e-05 1.7390594394e+00 -3.0121393065e+00 1.7390594394e+00 3.0121393065e+00 
54100 6.5610004634e+00 -7.2156573257e-05 1.7390594394e+00 -3.0121393065e+00 1.7390594394e+00 3.0121393065e+00 
54200 6.5610004643e+00 -7.3521836788e-05 1.7390615140e+00 -3.0121428998e+00 1.7390615140e+00 3.0121428998e+00 
54300 6.5610004650e+00 -7.4756854027e-05 1.7390636279e+00 -3.0121465611e+00 1.7390636279e+00 3.0121465611e+00 
54400 6.5610004656e+00 -7.5861827432e-05 1.7390657772e+00 -3.0121502838e+00 1.7390657772e+00 3.0121502838e+00 
54500 6.5610004661e+00 -7.6837214471e-05 1.7390679583e+00 -3.0121540616e+00 1.7390679583e+00 3.0121540616e+00 
54600 6.5610004666e+00 -7.7683719525e-05 1.7390701675e+00 -3.0121578880e+00 1.7390701675e+00 3.0121578880e+00 
54700 6.5610004669e+00 -7.8402285615e-05 1.7390724010e+00 -3.0121617565e+00 1.7390724010e+00 3.0121617565e+00 
54800 6.5610004672e+00 -7.8994085875e-05 1.7390746551e+00 -3.0121656608e+00 1.7390746551e+00 3.0121656608e+00 
54900 6.5610004675e+00 -7.9460514889e-05 1.7390769262e+00 -3.0121695945e+00 1.7390769262e+00 3.0121695945e+00 
55000 6.5610004677e+00 -7.9803179841e-05 1.7390792108e+00 -3.0121735515e+00 1.7390792108e+00 3.0121735515e+00 
55100 6.5610004678e+00 -8.0023891533e-05 1.7390815052e+00 -3.0121775255e+00 1.7390815052e+00 3.0121775255e+00 
55200 6.5610004679e+00 -8.0124655280e-05 1.7390838060e+00 -3.0121815106e+00 1.7390838060e+00 3.0121815106e+00 
55300 6.5610004680e+00 -8.0107661688e-05 1.7390861096e+00 -3.0121855006e+00 1.7390861096e+00 3.0121855006e+00 
55400 6.5610004681e+00 -7.9975277383e-05 1.7390884128e+00 -3.0121894898e+00 1.7390884128e+00 3.0121894898e+00 
55500 6.5610004681e+00 -7.9730035637e-05 1.7390907121e+00 -3.0121934724e+00 1.7390907121e+00 3.0121934724e+00 
55600 6.5610004682e+00 -7.9374626962e-05 1.7390930044e+00 -3.0121974427e+00 1.7390930044e+00 3.0121974427e+00 
55700 6.5610004682e+00 -7.8911889684e-05 1.7390952865e+00 -3.0122013954e+00 1.7390952865e+00 3.0122013954e+00 
55800 6.5610004683e+00 -7.8344800485e-05 1.7390975552e+00 -3.0122053250e+00 1.7390975552e+00 3.0122053250e+00 
55900 6.5610004683e+00 -7.7676464969e-05 1.7390998077e+00 -3.0122092264e+00 1.7390998077e+00 3.0122092264e+00 
56000 6.5610004684e+00 -7.6910108244e-05 1.7391020409e+00 -3.0122130944e+00 1.7391020409e+00 3.0122130944e+00 
56100 6.5610004685e+00 -7.6049065534e-05 1.7391042521e+00 -3.0122169244e+00 1.7391042521e+00 3.0122169244e+00 
56200 6.5610004686e+00 -7.5096772854e-05 1.7391064386e+00 -3.0122207114e+00 1.7391064386e+00 3.0122207114e+00 
56300 6.5610004687e+00 -7.4056757752e-05 1.7391085976e+00 -3.0122244510e+00 1.7391085976e+00 3.0122244510e+00 
56400 6.5610004689e+00 -7.2932630137e-05 1.7391107268e+00 -3.0122281388e+00 1.7391107268e+00 3.0122281388e+00 
56500 6.5610004691e+00 -7.1728073190e-05 1.7391128236e+00 -3.0122317706e+00 1.7391128236e+00 3.0122317706e+00 
56600 6.5610004693e+00 -7.0446834418e-05 1.7391148858e+00 -3.0122353425e+00 1.7391148858e+00 3.0122353425e+00 
56700 6.5610004697e+00 -7.1262668524e-05 1.7391148858e+00 -3.0122353425e+00 1.7391148858e+00 3.0122353425e+00 
56800 6.5610004700e+00 -6.9784155599e-05 1.7391169347e+00 -3.0122388911e+00 1.7391169347e+00 3.0122388911e+00 
56900 6.5610004705e+00 -7.0392012134e-05 1.7391169347e+00 -3.0122388911e+00 1.7391169347e+00 3.0122388911e+00 
57000 6.5610004711e+00 -7.0904401659e-05 1.7391169347e+00 -3.0122388911e+00 1.7391169347e+00 3.0122388911e+00 
57100 6.5610004714e+00 -6.9139672697e-05 1.7391189732e+00 -3.0122424220e+00 1.7391189732e+00 3.0122424220e+00 
57200 6.5610004720e+00 -6.9456805103e-05 1.7391189732e+00 -3.0122424220e+00 1.7391189732e+00 3.0122424220e+00 
57300 6.5610004727e+00 -6.9685227983e-05 1.7391189732e+00 -3.0122424220e+00 1.7391189732e+00 3.0122424220e+00 
57400 6.5610004733e+00 -6.9827580494e-05 1.7391189732e+00 -3.0122424220e+00 1.7391189732e+00 3.0122424220e+00 
57500 6.5610004740e+00 -6.9886562977e-05 1.7391189732e+00 -3.0122424220e+00 1.7391189732e+00 3.0122424220e+00 
57600 6.5610004747e+00 -6.9864930359e-05 1.7391189732e+00 -3.0122424220e+00 1.7391189732e+00 3.0122424220e+00 
57700 6.5610004754e+00 -6.9765485668e-05 1.7391189732e+00 -3.0122424220e+00 1.7391189732e+00 3.0122424220e+00 
57800 6.5610004761e+00 -6.9591073669e-05 1.7391189732e+00 -3.0122424220e+00 1.7391189732e+00 3.0122424220e+00 
57900 6.5610004769e+00 -6.9344574636e-05 1.7391189732e+00 -3.0122424220e+00 1.7391189732e+00 3.0122424220e+00 
58000 6.5610004776e+00 -6.9028898262e-05 1.7391189732e+00 -3.0122424220e+00 1.7391189732e+00 3.0122424220e+00 
58100 6.5610004784e+00 -6.8646977693e-05 1.7391189732e+00 -3.0122424220e+00 1.7391189732e+00 3.0122424220e+00 
58200 6.5610004792e+00 -6.8201763751e-05 1.7391189732e+00 -3.0122424220e+00 1.7391189732e+00 3.0122424220e+00 
58300 6.5610004800e+00 -6.7696219265e-05 1.7391189732e+00 -3.0122424220e+00 1.7391189732e+00 3.0122424220e+00 
58400 6.5610004808e+00 -6.7133313590e-05 1.7391189732e+00 -3.0122424220e+00 1.7391189732e+00 3.0122424220e+00 
58500 6.5610004816e+00 -6.6516017286e-05 1.7391189732e+00 -3.0122424220e+00 1.7391189732e+00 3.0122424220e+00 
58600 6.5610004824e+00 -6.5847296956e-05 1.7391189732e+00 -3.0122424220e+00 1.7391189732e+00 3.0122424220e+00 
58700 6.5610004832e+00 -6.5130110259e-05 1.7391189732e+00 -3.0122424220e+00 1.7391189732e+00 3.0122424220e+00 
58800 6.5610004840e+00 -6.4367401099e-05 1.7391189732e+00 -3.0122424220e+00 1.7391189732e+00 3.0122424220e+00 
58900 6.5610004848e+00 -6.3562094997e-05 1.7391189732e+00 -3.0122424220e+00 1.7391189732e+00 3.0122424220e+00 
59000 6.5610004855e+00 -6.2717094618e-05 1.7391189732e+00 -3.0122424220e+00 1.7391189732e+00 3.0122424220e+00 
59100 6.5610004863e+00 -6.1835275516e-05 1.7391189732e+00 -3.0122424220e+00 1.7391189732e+00 3.0122424220e+00 
59200 6.5610004871e+00 -6.0919482031e-05 1.7391189732e+00 -3.0122424220e+00 1.7391189732e+00 3.0122424220e+00 
59300 6.5610004878e+00 -5.9972523387e-05 1.7391189732e+00 -3.0122424220e+00 1.7391189732e+00 3.0122424220e+00 
59400 6.5610004885e+00 -5.8997169970e-05 1.7391189732e+00 -3.0122424220e+00 1.7391189732e+00 3.0122424220e+00 
59500 6.5610004893e+00 -5.7996149788e-05 1.7391189732e+00 -3.0122424220e+00 1.7391189732e+00 3.0122424220e+00 
59600 6.5610004900e+00 -5.6972145129e-05 1.7391189732e+00 -3.0122424220e+00 1.7391189732e+00 3.0122424220e+00 
59700 6.5610004907e+00 -5.5927789391e-05 1.7391189732e+00 -3.0122424220e+00 1.7391189732e+00 3.0122424220e+00 
59800 6.5610004913e+00 -5.4865664107e-05 1.7391189732e+00 -3.0122424220e+00 1.7391189732e+00 3.0122424220e+00 
59900 6.5610004920e+00 -5.3788296144e-05 1.7391189732e+00 -3.0122424220e+00 1.7391189732e+00 3.0122424220e+00 
60000 6.5610004926e+00 -5.2698155107e-05 1.7391189732e+00 -3.0122424220e+00 1.7391189732e+00 3.0122424220e+00 
60100 6.5610004932e+00 -5.1597650897e-05 1.7391189732e+00 -3.0122424220e+00 1.7391189732e+00 3.0122424220e+00 
60200 6.5610004938e+00 -5.0489131477e-05 1.7391189732e+00 -3.0122424220e+00 1.7391189732e+00 3.0122424220e+00 
60300 6.5610004944e+00 -4.9374880789e-05 1.7391189732e+00 -3.0122424220e+00 1.7391189732e+00 3.0122424220e+00 
60400 6.5610004950e+00 -4.8257116879e-05 1.7391189732e+00 -3.0122424220e+00 1.7391189732e+00 3.0122424220e+00 
60500 6.5610004955e+00 -4.7137990168e-05 1.7391189732e+00 -3.0122424220e+00 1.7391189732e+00 3.0122424220e+00 
60600 6.5610004960e+00 -4.6019581910e-05 1.7391189732e+00 -3.0122424220e+00 1.7391189732e+00 3.0122424220e+00 
60700 6.5610004965e+00 -4.4903902826e-05 1.7391189732e+00 -3.0122424220e+00 1.7391189732e+00 3.0122424220e+00 
60800 6.5610004970e+00 -4.3792891878e-05 1.7391189732e+00 -3.0122424220e+00 1.7391189732e+00 3.0122424220e+00 
60900 6.5610004974e+00 -4.2688415233e-05 1.7391189732e+00 -3.0122424220e+00 1.7391189732e+00 3.0122424220e+00 
61000 6.5610004979e+00 -4.1592265376e-05 1.7391189732e+00 -3.0122424220e+00 1.7391189732e+00 3.0122424220e+00 
61100 6.5610004983e+00 -4.0506160372e-05 1.7391189732e+00 -3.0122424220e+00 1.7391189732e+00 3.0122424220e+00 
61200 6.5610004987e+00 -3.9431743292e-05 1.7391189732e+00 -3.0122424220e+00 1.7391189732e+00 3.0122424220e+00 
61300 6.5610004991e+00 -3.8370581781e-05 1.7391189732e+00 -3.0122424220e+00 1.7391189732e+00 3.0122424220e+00 
61400 6.5610004994e+00 -3.7324167774e-05 1.7391189732e+00 -3.0122424220e+00 1.7391189732e+00 3.0122424220e+00 
61500 6.5610004998e+00 -3.6293917349e-05 1.7391189732e+00 -3.0122424220e+00 1.7391189732e+00 3.0122424220e+00 
61600 6.5610005001e+00 -3.5281170716e-05 1.7391189732e+00 -3.0122424220e+00 1.7391189732e+00 3.0122424220e+00 
61700 6.5610005004e+00 -3.4287192337e-05 1.7391189732e+00 -3.0122424220e+00 1.7391189732e+00 3.0122424220e+00 
61800 6.5610005007e+00 -3.3313171187e-05 1.7391189732e+00 -3.0122424220e+00 1.7391189732e+00 3.0122424220e+00 
61900 6.5610005010e+00 -3.2360221115e-05 1.7391189732e+00 -3.0122424220e+00 1.7391189732e+00 3.0122424220e+00 
62000 6.5610005013e+00 -3.1429381337e-05 1.7391189732e+00 -3.0122424220e+00 1.7391189732e+00 3.0122424220e+00 
62100 6.5610005016e+00 -3.0521617047e-05 1.7391189732e+00 -3.0122424220e+00 1.7391189732e+00 3.0122424220e+00 
62200 6.5610005018e+00 -2.9637820122e-05 1.7391189732e+00 -3.0122424220e+00 1.7391189732e+00 3.0122424220e+00 
62300 6.5610005021e+00 -2.8778809952e-05 1.7391189732e+00 -3.0122424220e+00 1.7391189732e+00 3.0122424220e+00 
62400 6.5610005023e+00 -2.7945334347e-05 1.7391189732e+00 -3.0122424220e+00 1.7391189732e+00 3.0122424220e+00 
62500 6.5610005025e+00 -2.7138070552e-05 1.7391189732e+00 -3.0122424220e+00 1.7391189732e+00 3.0122424220e+00 
62600 6.5610005028e+00 -2.6357626360e-05 1.7391189732e+00 -3.0122424220e+00 1.7391189732e+00 3.0122424220e+00 
62700 6.5610005030e+00 -2.5604541283e-05 1.7391189732e+00 -3.0122424220e+00 1.7391189732e+00 3.0122424220e+00 
62800 6.5610005032e+00 -2.4879287837e-05 1.7391189732e+00 -3.0122424220e+00 1.7391189732e+00 3.0122424220e+00 
62900 6.5610005034e+00 -2.4182272876e-05 1.7391189732e+00 -3.0122424220e+00 1.7391189732e+00 3.0122424220e+00 
63000 6.5610005036e+00 -2.3513839014e-05 1.7391189732e+00 -3.0122424220e+00 1.7391189732e+00 3.0122424220e+00 
63100 6.5610005038e+00 -2.2874266103e-05 1.7391189732e+00 -3.0122424220e+00 1.7391189732e+00 3.0122424220e+00 
63200 6.5610005040e+00 -2.2263772781e-05 1.7391189732e+00 -3.0122424220e+00 1.7391189732e+00 3.0122424220e+00 
63300 6.5610005042e+00 -2.1682518066e-05 1.7391189732e+00 -3.0122424220e+00 1.7391189732e+00 3.0122424220e+00 
63400 6.5610005043e+00 -2.1130603015e-05 1.7391189732e+00 -3.0122424220e+00 1.7391189732e+00 3.0122424220e+00 
63500 6.5610005045e+00 -2.0608072418e-05 1.7391189732e+00 -3.0122424220e+00 1.7391189732e+00 3.0122424220e+00 
63600 6.5610005047e+00 -2.0114916556e-05 1.7391189732e+00 -3.0122424220e+00 1.7391189732e+00 3.0122424220e+00 
63700 6.5610005049e+00 -1.9651072965e-05 1.7391189732e+00 -3.0122424220e+00 1.7391189732e+00 3.0122424220e+00 
63800 6.5610005050e+00 -1.9216428269e-05 1.7391189732e+00 -3.0122424220e+00 1.7391189732e+00 3.0122424220e+00 
63900 6.5610005052e+00 -1.8810820023e-05 1.7391189732e+00 -3.0122424220e+00 1.7391189732e+00 3.0122424220e+00 
64000 6.5610005054e+00 -1.8434038588e-05 1.7391189732e+00 -3.0122424220e+00 1.7391189732e+00 3.0122424220e+00 
64100 6.5610005056e+00 -1.8085829022e-05 1.7391189732e+00 -3.0122424220e+00 1.7391189732e+00 3.0122424220e+00 
64200 6.5610005057e+00 -1.7765893006e-05 1.7391189732e+00 -3.0122424220e+00 1.7391189732e+00 3.0122424220e+00 
64300 6.5610005059e+00 -1.7473890765e-05 1.7391189732e+00 -3.0122424220e+00 1.7391189732e+00 3.0122424220e+00 
64400 6.5610005061e+00 -1.7209443009e-05 1.7391189732e+00 -3.0122424220e+00 1.7391189732e+00 3.0122424220e+00 
64500 6.5610005062e+00 -1.6972132876e-05 1.7391189732e+00 -3.0122424220e+00 1.7391189732e+00 3.0122424220e+00 
64600 6.5610005064e+00 -1.6761507887e-05 1.7391189732e+00 -3.0122424220e+00 1.7391189732e+00 3.0122424220e+00 
64700 6.5610005066e+00 -1.6577081893e-05 1.7391189732e+00 -3.0122424220e+00 1.7391189732e+00 3.0122424220e+00 
64800 6.5610005068e+00 -1.6418337017e-05 1.7391189732e+00 -3.0122424220e+00 1.7391189732e+00 3.0122424220e+00 
64900 6.5610005069e+00 -1.6284725593e-05 1.7391189732e+00 -3.0122424220e+00 1.7391189732e+00 3.0122424220e+00 
65000 6.5610005071e+00 -1.6175672104e-05 1.7391189732e+00 -3.0122424220e+00 1.7391189732e+00 3.0122424220e+00 
65100 6.5610005073e+00 -1.6090575078e-05 1.7391189732e+00 -3.0122424220e+00 1.7391189732e+00 3.0122424220e+00 
65200 6.5610005074e+00 -1.6028809001e-05 1.7391189732e+00 -3.0122424220e+00 1.7391189732e+00 3.0122424220e+00 
65300 6.5610005076e+00 -1.5989726195e-05 1.7391189732e+00 -3.0122424220e+00 1.7391189732e+00 3.0122424220e+00 
65400 6.5610005078e+00 -1.5972658669e-05 1.7391189732e+00 -3.0122424220e+00 1.7391189732e+00 3.0122424220e+00 
65500 6.5610005080e+00 -1.5976919964e-05 1.7391189732e+00 -3.0122424220e+00 1.7391189732e+00 3.0122424220e+00 
65600 6.5610005081e+00 -1.6001806954e-05 1.7391189732e+00 -3.0122424220e+00 1.7391189732e+00 3.0122424220e+00 
65700 6.5610005083e+00 -1.6046601622e-05 1.7391189732e+00 -3.0122424220e+00 1.7391189732e+00 3.0122424220e+00 
65800 6.5610005085e+00 -1.6110572822e-05 1.7391189732e+00 -3.0122424220e+00 1.7391189732e+00 3.0122424220e+00 
65900 6.5610005086e+00 -1.6192977978e-05 1.7391189732e+00 -3.0122424220e+00 1.7391189732e+00 3.0122424220e+00 
66000 6.5610005088e+00 -1.6293064772e-05 1.7391189732e+00 -3.0122424220e+00 1.7391189732e+00 3.0122424220e+00 
66100 6.5610005090e+00 -1.6410072786e-05 1.7391189732e+00 -3.0122424220e+00 1.7391189732e+00 3.0122424220e+00 
66200 6.5610005092e+00 -1.6543235111e-05 1.7391189732e+00 -3.0122424220e+00 1.7391189732e+00 3.0122424220e+00 
66300 6.5610005093e+00 -1.6691779908e-05 1.7391189732e+00 -3.0122424220e+00 1.7391189732e+00 3.0122424220e+00 
66400 6.5610005095e+00 -1.6854931929e-05 1.7391189732e+00 -3.0122424220e+00 1.7391189732e+00 3.0122424220e+00 
66500 6.5610005097e+00 -1.7031914005e-05 1.7391189732e+00 -3.0122424220e+00 1.7391189732e+00 3.0122424220e+00 
66600 6.5610005098e+00 -1.7221948477e-05 1.7391189732e+00 -3.0122424220e+00 1.7391189732e+00 3.0122424220e+00 
66700 6.5610005100e+00 -1.7424258592e-05 1.7391189732e+00 -3.0122424220e+00 1.7391189732e+00 3.0122424220e+00 
66800 6.5610005101e+00 -1.7638069841e-05 1.7391189732e+00 -3.0122424220e+00 1.7391189732e+00 3.0122424220e+00 
66900 6.5610005103e+00 -1.7862611273e-05 1.7391189732e+00 -3.0122424220e+00 1.7391189732e+00 3.0122424220e+00 
67000 6.5610005105e+00 -1.8097116727e-05 1.7391189732e+00 -3.0122424220e+00 1.7391189732e+00 3.0122424220e+00 
67100 6.5610005106e+00 -1.8340826052e-05 1.7391189732e+00 -3.0122424220e+00 1.7391189732e+00 3.0122424220e+00 
67200 6.5610005108e+00 -1.8592986247e-05 1.7391189732e+00 -3.0122424220e+00 1.7391189732e+00 3.0122424220e+00 
67300 6.5610005109e+00 -1.8852852575e-05 1.7391189732e+00 -3.0122424220e+00 1.7391189732e+00 3.0122424220e+00 
67400 6.5610005111e+00 -1.9119689614e-05 1.7391189732e+00 -3.0122424220e+00 1.7391189732e+00 3.0122424220e+00 
67500 6.5610005112e+00 -1.9392772263e-05 1.7391189732e+00 -3.0122424220e+00 1.7391189732e+00 3.0122424220e+00 
67600 6.5610005113e+00 -1.9671386693e-05 1.7391189732e+00 -3.0122424220e+00 1.7391189732e+00 3.0122424220e+00 
67700 6.5610005115e+00 -1.9954831259e-05 1.7391189732e+00 -3.0122424220e+00 1.7391189732e+00 3.0122424220e+00 
67800 6.5610005116e+00 -2.0242417346e-05 1.7391189732e+00 -3.0122424220e+00 1.7391189732e+00 3.0122424220e+00 
67900 6.5610005117e+00 -2.0533470180e-05 1.7391189732e+00 -3.0122424220e+00 1.7391189732e+00 3.0122424220e+00 
68000 6.5610005119e+00 -2.0827329577e-05 1.7391189732e+00 -3.0122424220e+00 1.7391189732e+00 3.0122424220e+00 
68100 6.5610005120e+00 -2.1123350656e-05 1.7391189732e+00 -3.0122424220e+00 1.7391189732e+00 3.0122424220e+00 
68200 6.5610005121e+00 -2.1420904485e-05 1.7391189732e+00 -3.0122424220e+00 1.7391189732e+00 3.0122424220e+00 
68300 6.5610005123e+00 -2.1719378690e-05 1.7391189732e+00 -3.0122424220e+00 1.7391189732e+00 3.0122424220e+00 
68400 6.5610005124e+00 -2.2018178023e-05 1.7391189732e+00 -3.0122424220e+00 1.7391189732e+00 3.0122424220e+00 
68500 6.5610005125e+00 -2.2316724859e-05 1.7391189732e+00 -3.0122424220e+00 1.7391189732e+00 3.0122424220e+00 
68600 6.5610005126e+00 -2.2614459670e-05 1.7391189732e+00 -3.0122424220e+00 1.7391189732e+00 3.0122424220e+00 
68700 6.5610005127e+00 -2.2910841438e-05 1.7391189732e+00 -3.0122424220e+00 1.7391189732e+00 3.0122424220e+00 
68800 6.5610005128e+00 -2.3205348030e-05 1.7391189732e+00 -3.0122424220e+00 1.7391189732e+00 3.0122424220e+00 
68900 6.5610005129e+00 -2.3497476515e-05 1.7391189732e+00 -3.0122424220e+00 1.7391189732e+00 3.0122424220e+00 
69000 6.5610005130e+00 -2.3786743463e-05 1.7391189732e+00 -3.0122424220e+00 1.7391189732e+00 3.0122424220e+00 
69100 6.5610005131e+00 -2.4072685170e-05 1.7391189732e+00 -3.0122424220e+00 1.7391189732e+00 3.0122424220e+00 
69200 6.5610005132e+00 -2.4354857863e-05 1.7391189732e+00 -3.0122424220e+00 1.7391189732e+00 3.0122424220e+00 
69300 6.5610005133e+00 -2.4632837853e-05 1.7391189732e+00 -3.0122424220e+00 1.7391189732e+00 3.0122424220e+00 
69400 6.5610005134e+00 -2.4906221657e-05 1.7391189732e+00 -3.0122424220e+00 1.7391189732e+00 3.0122424220e+00 
69500 6.5610005135e+00 -2.5174626069e-05 1.7391189732e+00 -3.0122424220e+00 1.7391189732e+00 3.0122424220e+00 
69600 6.5610005136e+00 -2.5437688201e-05 1.7391189732e+00 -3.0122424220e+00 1.7391189732e+00 3.0122424220e+00 
69700 6.5610005137e+00 -2.5695065486e-05 1.7391189732e+00 -3.0122424220e+00 1.7391189732e+00 3.0122424220e+00 
69800 6.5610005138e+00 -2.5946435649e-05 1.7391189732e+00 -3.0122424220e+00 1.7391189732e+00 3.0122424220e+00 
69900 6.5610005139e+00 -2.6191496632e-05 1.7391189732e+00 -3.0122424220e+00 1.7391189732e+00 3.0122424220e+00 
70000 6.5610005140e+00 -2.6429966498e-05 1.7391189732e+00 -3.0122424220e+00 1.7391189732e+00 3.0122424220e+00 
70100 6.5610005140e+00 -2.6661583295e-05 1.7391189732e+00 -3.0122424220e+00 1.7391189732e+00 3.0122424220e+00 
70200 6.5610005141e+00 -2.6886104901e-05 1.7391189732e+00 -3.0122424220e+00 1.7391189732e+00 3.0122424220e+00 
70300 6.5610005142e+00 -2.7103308821e-05 1.7391189732e+00 -3.0122424220e+00 1.7391189732e+00 3.0122424220e+00 
70400 6.5610005143e+00 -2.7312991965e-05 1.7391189732e+00 -3.0122424220e+00 1.7391189732e+00 3.0122424220e+00 
70500 6.5610005143e+00 -2.7514970413e-05 1.7391189732e+00 -3.0122424220e+00 1.7391189732e+00 3.0122424220e+00 
70600 6.5610005144e+00 -2.7709079131e-05 1.7391189732e+00 -3.0122424220e+00 1.7391189732e+00 3.0122424220e+00 
70700 6.5610005145e+00 -2.7895171671e-05 1.7391189732e+00 -3.0122424220e+00 1.7391189732e+00 3.0122424220e+00 
70800 6.5610005146e+00 -2.8073119857e-05 1.7391189732e+00 -3.0122424220e+00 1.7391189732e+00 3.0122424220e+00 
70900 6.5610005146e+00 -2.8242813438e-05 1.7391189732e+00 -3.0122424220e+00 1.7391189732e+00 3.0122424220e+00 
71000 6.5610005147e+00 -2.8404159726e-05 1.7391189732e+00 -3.0122424220e+00 1.7391189732e+00 3.0122424220e+00 
71100 6.5610005148e+00 -2.8557083212e-05 1.7391189732e+00 -3.0122424220e+00 1.7391189732e+00 3.0122424220e+00 
71200 6.5610005148e+00 -2.8701525166e-05 1.7391189732e+00 -3.0122424220e+00 1.7391189732e+00 3.0122424220e+00 
71300 6.5610005149e+00 -2.8837443225e-05 1.7391189732e+00 -3.0122424220e+00 1.7391189732e+00 3.0122424220e+00 
71400 6.5610005149e+00 -2.8964810949e-05 1.7391189732e+00 -3.0122424220e+00 1.7391189732e+00 3.0122424220e+00 
71500 6.5610005150e+00 -2.9083617386e-05 1.7391189732e+00 -3.0122424220e+00 1.7391189732e+00 3.0122424220e+00 
71600 6.5610005151e+00 -2.9193866604e-05 1.7391189732e+00 -3.0122424220e+00 1.7391189732e+00 3.0122424220e+00 
71700 6.5610005151e+00 -2.9295577227e-05 1.7391189732e+00 -3.0122424220e+00 1.7391189732e+00 3.0122424220e+00 
71800 6.5610005152e+00 -2.9388781946e-05 1.7391189732e+00 -3.0122424220e+00 1.7391189732e+00 3.0122424220e+00 
71900 6.5610005152e+00 -2.9473527036e-05 1.7391189732e+00 -3.0122424220e+00 1.7391189732e+00 3.0122424220e+00 
72000 6.5610005153e+00 -2.9549871846e-05 1.7391189732e+00 -3.0122424220e+00 1.7391189732e+00 3.0122424220e+00 
72100 6.5610005154e+00 -2.9617888299e-05 1.7391189732e+00 -3.0122424220e+00 1.7391189732e+00 3.0122424220e+00 
72200 6.5610005154e+00 -2.9677660381e-05 1.7391189732e+00 -3.0122424220e+00 1.7391189732e+00 3.0122424220e+00 
72300 6.5610005155e+00 -2.9729283621e-05 1.7391189732e+00 -3.0122424220e+00 1.7391189732e+00 3.0122424220e+00 
72400 6.5610005155e+00 -2.9772864571e-05 1.7391189732e+00 -3.0122424220e+00 1.7391189732e+00 3.0122424220e+00 
72500 6.5610005156e+00 -2.9808520278e-05 1.7391189732e+00 -3.0122424220e+00 1.7391189732e+00 3.0122424220e+00 
72600 6.5610005156e+00 -2.9836377765e-05 1.7391189732e+00 -3.0122424220e+00 1.7391189732e+00 3.0122424220e+00 
72700 6.5610005157e+00 -2.9856573498e-05 1.7391189732e+00 -3.0122424220e+00 1.7391189732e+00 3.0122424220e+00 
72800 6.5610005157e+00 -2.9869252863e-05 1.7391189732e+00 -3.0122424220e+00 1.7391189732e+00 3.0122424220e+00 
72900 6.5610005158e+00 -2.9874569640e-05 1.7391189732e+00 -3.0122424220e+00 1.7391189732e+00 3.0122424220e+00 
73000 6.5610005158e+00 -2.9872685480e-05 1.7391189732e+00 -3.0122424220e+00 1.7391189732e+00 3.0122424220e+00 
73100 6.5610005159e+00 -2.9863769385e-05 1.7391189732e+00 -3.0122424220e+00 1.7391189732e+00 3.0122424220e+00 
73200 6.5610005159e+00 -2.9847997186e-05 1.7391189732e+00 -3.0122424220e+00 1.7391189732e+00 3.0122424220e+00 
73300 6.5610005160e+00 -2.9825551033e-05 1.7391189732e+00 -3.0122424220e+00 1.7391189732e+00 3.0122424220e+00 
73400 6.5610005160e+00 -2.9796618891e-05 1.7391189732e+00 -3.0122424220e+00 1.7391189732e+00 3.0122424220e+00 
73500 6.5610005161e+00 -2.9761394034e-05 1.7391189732e+00 -3.0122424220e+00 1.7391189732e+00 3.0122424220e+00 
73600 6.5610005161e+00 -2.9720074548e-05 1.7391189732e+00 -3.0122424220e+00 1.7391189732e+00 3.0122424220e+00 
73700 6.5610005162e+00 -2.9672862848e-05 1.7391189732e+00 -3.0122424220e+00 1.7391189732e+00 3.0122424220e+00 
73800 6.5610005162e+00 -2.9619965193e-05 1.7391189732e+00 -3.0122424220e+00 1.7391189732e+00 3.0122424220e+00 
73900 6.5610005163e+00 -2.9561591212e-05 1.7391189732e+00 -3.0122424220e+00 1.7391189732e+00 3.0122424220e+00 
74000 6.5610005163e+00 -2.9497953453e-05 1.7391189732e+00 -3.0122424220e+00 1.7391189732e+00 3.0122424220e+00 
74100 6.5610005164e+00 -2.9429266917e-05 1.7391189732e+00 -3.0122424220e+00 1.7391189732e+00 3.0122424220e+00 
74200 6.5610005164e+00 -2.9355748615e-05 1.7391189732e+00 -3.0122424220e+00 1.7391189732e+00 3.0122424220e+00 
74300 6.5610005164e+00 -2.9312549278e-05 1.7391189732e+00 -3.0122424220e+00 1.7391189732e+00 3.0122424220e+00 
74300 6.5610005164e+00 -2.9312549278e-05 1.7391189732e+00 -3.0122424220e+00 1.7391189732e+00 3.0122424220e+00 
