# step Hamiltonian StressXX CellTensor1 CellTensor2 CellTensor3 CellTensor4 
0 4.9265937596e+00 4.4575014608e-02 1.6387017056e+00 -2.8383146126e+00 1.6387017056e+00 2.8383146126e+00 
100 4.9166607963e+00 4.1941762561e-02 1.6387017056e+00 -2.8383146126e+00 1.6387017056e+00 2.8383146126e+00 
200 4.9070351639e+00 3.8262203818e-02 1.6374221470e+00 -2.8360983520e+00 1.6374221470e+00 2.8360983520e+00 
300 4.8977626365e+00 3.4894527405e-02 1.6362539189e+00 -2.8340749216e+00 1.6362539189e+00 2.8340749216e+00 
400 4.8888185325e+00 3.1816545809e-02 1.6351877416e+00 -2.8322282484e+00 1.6351877416e+00 2.8322282484e+00 
500 4.8801838825e+00 2.9008470494e-02 1.6342149668e+00 -2.8305433530e+00 1.6342149668e+00 2.8305433530e+00 
600 4.8718443903e+00 2.6452628406e-02 1.6333275118e+00 -2.8290062359e+00 1.6333275118e+00 2.8290062359e+00 
700 4.8637895100e+00 2.4133197492e-02 1.6325178016e+00 -2.8276037766e+00 1.6325178016e+00 2.8276037766e+00 
800 4.8560116359e+00 2.2035962126e-02 1.6317787170e+00 -2.8263236445e+00 1.6317787170e+00 2.8263236445e+00 
900 4.8485053959e+00 2.0148088993e-02 1.6311035506e+00 -2.8251542220e+00 1.6311035506e+00 2.8251542220e+00 
1000 4.8412670431e+00 1.8457923580e-02 1.6304859682e+00 -2.8240845379e+00 1.6304859682e+00 2.8240845379e+00 
1100 4.8342939389e+00 1.6954807157e-02 1.6299199757e+00 -2.8231042102e+00 1.6299199757e+00 2.8231042102e+00 
1200 4.8275841183e+00 1.5628913785e-02 1.6293998918e+00 -2.8222033984e+00 1.6293998918e+00 2.8222033984e+00 
1300 4.8211359327e+00 1.4471106700e-02 1.6289203242e+00 -2.8213727630e+00 1.6289203242e+00 2.8213727630e+00 
1400 4.8149477602e+00 1.3472813178e-02 1.6284761512e+00 -2.8206034328e+00 1.6284761512e+00 2.8206034328e+00 
1500 4.8090177778e+00 1.2625916838e-02 1.6280625055e+00 -2.8198869774e+00 1.6280625055e+00 2.8198869774e+00 
1600 4.8033437885e+00 1.1922666239e-02 1.6276747619e+00 -2.8192153859e+00 1.6276747619e+00 2.8192153859e+00 
1700 4.7979230951e+00 1.1355598502e-02 1.6273085272e+00 -2.8185810488e+00 1.6273085272e+00 2.8185810488e+00 
1800 4.7927524164e+00 1.0917476690e-02 1.6269596324e+00 -2.8179767451e+00 1.6269596324e+00 2.8179767451e+00 
1900 4.7878278377e+00 1.0601239629e-02 1.6266241261e+00 -2.8173956313e+00 1.6266241261e+00 2.8173956313e+00 
2000 4.7831447920e+00 1.0399962869e-02 1.6262982707e+00 -2.8168312332e+00 1.6262982707e+00 2.8168312332e+00 
2100 4.7786980651e+00 1.0306829540e-02 1.6259785378e+00 -2.8162774395e+00 1.6259785378e+00 2.8162774395e+00 
2200 4.7744818215e+00 1.0315109869e-02 1.6256616057e+00 -2.8157284970e+00 1.6256616057e+00 2.8157284970e+00 
2300 4.7704896454e+00 1.0418148225e-02 1.6253443572e+00 -2.8151790065e+00 1.6253443572e+00 2.8151790065e+00 
2400 4.7667145944e+00 1.0609356596e-02 1.6250238773e+00 -2.8146239190e+00 1.6250238773e+00 2.8146239190e+00 
2500 4.7631492616e+00 1.0882213505e-02 1.6246974513e+00 -2.8140585325e+00 1.6246974513e+00 2.8140585325e+00 
2600 4.7597858439e+00 1.1230267443e-02 1.6243625631e+00 -2.8134784892e+00 1.6243625631e+00 2.8134784892e+00 
2700 4.7566162139e+00 1.1647143970e-02 1.6240168930e+00 -2.8128797711e+00 1.6240168930e+00 2.8128797711e+00 
2800 4.7536319926e+00 1.2126555712e-02 1.6236583156e+00 -2.8122586968e+00 1.6236583156e+00 2.8122586968e+00 
2900 4.7508246222e+00 1.2662314587e-02 1.6232848968e+00 -2.8116119165e+00 1.6232848968e+00 2.8116119165e+00 
3000 4.7481854367e+00 1.3248345618e-02 1.6228948911e+00 -2.8109364068e+00 1.6228948911e+00 2.8109364068e+00 
3100 4.7457057294e+00 1.3878701792e-02 1.6224867381e+00 -2.8102294650e+00 1.6224867381e+00 2.8102294650e+00 
3200 4.7433768166e+00 1.4547579480e-02 1.6220590584e+00 -2.8094887021e+00 1.6220590584e+00 2.8094887021e+00 
3300 4.7411900959e+00 1.5249333990e-02 1.6216106497e+00 -2.8087120353e+00 1.6216106497e+00 2.8087120353e+00 
3400 4.7391371002e+00 1.5978494865e-02 1.6211404814e+00 -2.8078976800e+00 1.6211404814e+00 2.8078976800e+00 
3500 4.7372095453e+00 1.6729780628e-02 1.6206476899e+00 -2.8070441401e+00 1.6206476899e+00 2.8070441401e+00 
3600 4.7353993719e+00 1.7498112664e-02 1.6201315724e+00 -2.8061501984e+00 1.6201315724e+00 2.8061501984e+00 
3700 4.7336987818e+00 1.8278628040e-02 1.6195915811e+00 -2.8052149060e+00 1.6195915811e+00 2.8052149060e+00 
3800 4.7321002685e+00 1.9066691043e-02 1.6190273164e+00 -2.8042375709e+00 1.6190273164e+00 2.8042375709e+00 
3900 4.7305966417e+00 1.9857903294e-02 1.6184385205e+00 -2.8032177464e+00 1.6184385205e+00 2.8032177464e+00 
4000 4.7291810469e+00 2.0648112323e-02 1.6178250697e+00 -2.8021552184e+00 1.6178250697e+00 2.8021552184e+00 
4100 4.7278469796e+00 2.1433418512e-02 1.6171869675e+00 -2.8010499930e+00 1.6171869675e+00 2.8010499930e+00 
4200 4.7265882946e+00 2.2210180353e-02 1.6165243368e+00 -2.7999022830e+00 1.6165243368e+00 2.7999022830e+00 
4300 4.7253992109e+00 2.2975018003e-02 1.6158374122e+00 -2.7987124947e+00 1.6158374122e+00 2.7987124947e+00 
4400 4.7242743132e+00 2.3724815138e-02 1.6151265321e+00 -2.7974812143e+00 1.6151265321e+00 2.7974812143e+00 
4500 4.7232085490e+00 2.4456719127e-02 1.6143921310e+00 -2.7962091941e+00 1.6143921310e+00 2.7962091941e+00 
4600 4.7221972229e+00 2.5168139592e-02 1.6136347311e+00 -2.7948973392e+00 1.6136347311e+00 2.7948973392e+00 
4700 4.7212359882e+00 2.5856745405e-02 1.6128549354e+00 -2.7935466933e+00 1.6128549354e+00 2.7935466933e+00 
4800 4.7203208357e+00 2.6520460240e-02 1.6120534187e+00 -2.7921584257e+00 1.6120534187e+00 2.7921584257e+00 
4900 4.7194480816e+00 2.7157456754e-02 1.6112309210e+00 -2.7907338179e+00 1.6112309210e+00 2.7907338179e+00 
5000 4.7186143523e+00 2.7766149539e-02 1.6103882396e+00 -2.7892742508e+00 1.6103882396e+00 2.7892742508e+00 
5100 4.7178165695e+00 2.8345186958e-02 1.6095262216e+00 -2.7877811920e+00 1.6095262216e+00 2.7877811920e+00 
5200 4.7170519333e+00 2.8893442009e-02 1.6086457575e+00 -2.7862561834e+00 1.6086457575e+00 2.7862561834e+00 
5300 4.7163179055e+00 2.9410002344e-02 1.6077477739e+00 -2.7847008301e+00 1.6077477739e+00 2.7847008301e+00 
5400 4.7156121917e+00 2.9894159597e-02 1.6068332271e+00 -2.7831167885e+00 1.6068332271e+00 2.7831167885e+00 
5500 4.7149327244e+00 3.0345398142e-02 1.6059030971e+00 -2.7815057562e+00 1.6059030971e+00 2.7815057562e+00 
5600 4.7142776453e+00 3.0763383444e-02 1.6049583819e+00 -2.7798694615e+00 1.6049583819e+00 2.7798694615e+00 
5700 4.7136452887e+00 3.1147950104e-02 1.6040000917e+00 -2.7782096541e+00 1.6040000917e+00 2.7782096541e+00 
5800 4.7130341647e+00 3.1499089746e-02 1.6030292437e+00 -2.7765280960e+00 1.6030292437e+00 2.7765280960e+00 
5900 4.7124429432e+00 3.1816938854e-02 1.6020468577e+00 -2.7748265536e+00 1.6020468577e+00 2.7748265536e+00 
6000 4.7118704391e+00 3.2101766663e-02 1.6010539513e+00 -2.7731067893e+00 1.6010539513e+00 2.7731067893e+00 
6100 4.7113155976e+00 3.2353963213e-02 1.6000515362e+00 -2.7713705554e+00 1.6000515362e+00 2.7713705554e+00 
6200 4.7107774810e+00 3.2574027636e-02 1.5990406139e+00 -2.7696195867e+00 1.5990406139e+00 2.7696195867e+00 
6300 4.7102552553e+00 3.2762556776e-02 1.5980221730e+00 -2.7678555953e+00 1.5980221730e+00 2.7678555953e+00 
6400 4.7097481793e+00 3.2920234178e-02 1.5969971856e+00 -2.7660802650e+00 1.5969971856e+00 2.7660802650e+00 
6500 4.7092555932e+00 3.3047819526e-02 1.5959666049e+00 -2.7642952468e+00 1.5959666049e+00 2.7642952468e+00 
6600 4.7087769086e+00 3.3146138563e-02 1.5949313625e+00 -2.7625021545e+00 1.5949313625e+00 2.7625021545e+00 
6700 4.7083115998e+00 3.3216073527e-02 1.5938923668e+00 -2.7607025611e+00 1.5938923668e+00 2.7607025611e+00 
6800 4.7078591951e+00 3.3258554125e-02 1.5928505006e+00 -2.7588979959e+00 1.5928505006e+00 2.7588979959e+00 
6900 4.7074192696e+00 3.3274549079e-02 1.5918066199e+00 -2.7570899415e+00 1.5918066199e+00 2.7570899415e+00 
7000 4.7069914386e+00 3.3265058226e-02 1.5907615524e+00 -2.7552798316e+00 1.5907615524e+00 2.7552798316e+00 
7100 4.7065753514e+00 3.3231105199e-02 1.5897160968e+00 -2.7534690493e+00 1.5897160968e+00 2.7534690493e+00 
7200 4.7061706863e+00 3.3173730664e-02 1.5886710215e+00 -2.7516589258e+00 1.5886710215e+00 2.7516589258e+00 
7300 4.7057771460e+00 3.3093986127e-02 1.5876270642e+00 -2.7498507387e+00 1.5876270642e+00 2.7498507387e+00 
7400 4.7053944532e+00 3.2992928274e-02 1.5865849315e+00 -2.7480457118e+00 1.5865849315e+00 2.7480457118e+00 
7500 4.7050223477e+00 3.2871613837e-02 1.5855452984e+00 -2.7462450146e+00 1.5855452984e+00 2.7462450146e+00 
7600 4.7046605826e+00 3.2731094974e-02 1.5845088086e+00 -2.7444497616e+00 1.5845088086e+00 2.7444497616e+00 
7700 4.7043089227e+00 3.2572415122e-02 1.5834760742e+00 -2.7426610131e+00 1.5834760742e+00 2.7426610131e+00 
7800 4.7039671413e+00 3.2396605316e-02 1.5824476757e+00 -2.7408797747e+00 1.5824476757e+00 2.7408797747e+00 
7900 4.7036350192e+00 3.2204680938e-02 1.5814241629e+00 -2.7391069985e+00 1.5814241629e+00 2.7391069985e+00 
8000 4.7033123427e+00 3.1997638870e-02 1.5804060546e+00 -2.7373435831e+00 1.5804060546e+00 2.7373435831e+00 
8100 4.7029989026e+00 3.1776455031e-02 1.5793938394e+00 -2.7355903749e+00 1.5793938394e+00 2.7355903749e+00 
8200 4.7026944933e+00 3.1542082268e-02 1.5783879763e+00 -2.7338481689e+00 1.5783879763e+00 2.7338481689e+00 
8300 4.7023989115e+00 3.1295448571e-02 1.5773888951e+00 -2.7321177097e+00 1.5773888951e+00 2.7321177097e+00 
8400 4.7021119564e+00 3.1037455591e-02 1.5763969975e+00 -2.7303996926e+00 1.5763969975e+00 2.7303996926e+00 
8500 4.7018334286e+00 3.0768977435e-02 1.5754126572e+00 -2.7286947651e+00 1.5754126572e+00 2.7286947651e+00 
8600 4.7015631302e+00 3.0490859714e-02 1.5744362210e+00 -2.7270035281e+00 1.5744362210e+00 2.7270035281e+00 
8700 4.7013008644e+00 3.0203918823e-02 1.5734680099e+00 -2.7253265373e+00 1.5734680099e+00 2.7253265373e+00 
8800 4.7010464354e+00 2.9908941423e-02 1.5725083194e+00 -2.7236643046e+00 1.5725083194e+00 2.7236643046e+00 
8900 4.7007996485e+00 2.9606684118e-02 1.5715574207e+00 -2.7220172996e+00 1.5715574207e+00 2.7220172996e+00 
9000 4.7005603104e+00 2.9297873296e-02 1.5706155612e+00 -2.7203859511e+00 1.5706155612e+00 2.7203859511e+00 
9100 4.7003282285e+00 2.8983205121e-02 1.5696829659e+00 -2.7187706488e+00 1.5696829659e+00 2.7187706488e+00 
9200 4.7001032119e+00 2.8663345656e-02 1.5687598381e+00 -2.7171717444e+00 1.5687598381e+00 2.7171717444e+00 
9300 4.6998850710e+00 2.8338931113e-02 1.5678463597e+00 -2.7155895535e+00 1.5678463597e+00 2.7155895535e+00 
9400 4.6996736179e+00 2.8010568192e-02 1.5669426932e+00 -2.7140243571e+00 1.5669426932e+00 2.7140243571e+00 
9500 4.6994686667e+00 2.7678834520e-02 1.5660489814e+00 -2.7124764029e+00 1.5660489814e+00 2.7124764029e+00 
9600 4.6992700333e+00 2.7344279163e-02 1.5651653490e+00 -2.7109459068e+00 1.5651653490e+00 2.7109459068e+00 
9700 4.6990775361e+00 2.7007423210e-02 1.5642919035e+00 -2.7094330547e+00 1.5642919035e+00 2.7094330547e+00 
9800 4.6988909957e+00 2.6668760401e-02 1.5634287354e+00 -2.7079380037e+00 1.5634287354e+00 2.7079380037e+00 
9900 4.6987102356e+00 2.6328757815e-02 1.5625759196e+00 -2.7064608834e+00 1.5625759196e+00 2.7064608834e+00 
10000 4.6985350818e+00 2.5987856590e-02 1.5617335160e+00 -2.7050017976e+00 1.5617335160e+00 2.7050017976e+00 
10100 4.6983653635e+00 2.5646472668e-02 1.5609015704e+00 -2.7035608255e+00 1.5609015704e+00 2.7035608255e+00 
10200 4.6982009129e+00 2.5304997578e-02 1.5600801149e+00 -2.7021380229e+00 1.5600801149e+00 2.7021380229e+00 
10300 4.6980415656e+00 2.4963799221e-02 1.5592691693e+00 -2.7007334238e+00 1.5592691693e+00 2.7007334238e+00 
10400 4.6978871604e+00 2.4623222679e-02 1.5584687410e+00 -2.6993470414e+00 1.5584687410e+00 2.6993470414e+00 
10500 4.6977375397e+00 2.4283591021e-02 1.5576788265e+00 -2.6979788694e+00 1.5576788265e+00 2.6979788694e+00 
10600 4.6975925495e+00 2.3945206122e-02 1.5568994115e+00 -2.6966288830e+00 1.5568994115e+00 2.6966288830e+00 
10700 4.6974520395e+00 2.3608349474e-02 1.5561304718e+00 -2.6952970404e+00 1.5561304718e+00 2.6952970404e+00 
10800 4.6973158630e+00 2.3273282990e-02 1.5553719741e+00 -2.6939832837e+00 1.5553719741e+00 2.6939832837e+00 
10900 4.6971838771e+00 2.2940249814e-02 1.5546238760e+00 -2.6926875398e+00 1.5546238760e+00 2.6926875398e+00 
11000 4.6970559429e+00 2.2609475103e-02 1.5538861273e+00 -2.6914097216e+00 1.5538861273e+00 2.6914097216e+00 
11100 4.6969319251e+00 2.2281166811e-02 1.5531586702e+00 -2.6901497290e+00 1.5531586702e+00 2.6901497290e+00 
11200 4.6968116924e+00 2.1955516453e-02 1.5524414398e+00 -2.6889074495e+00 1.5524414398e+00 2.6889074495e+00 
11300 4.6966951171e+00 2.1632699853e-02 1.5517343649e+00 -2.6876827598e+00 1.5517343649e+00 2.6876827598e+00 
11400 4.6965820757e+00 2.1312877879e-02 1.5510373680e+00 -2.6864755258e+00 1.5510373680e+00 2.6864755258e+00 
11500 4.6964724483e+00 2.0996197153e-02 1.5503503664e+00 -2.6852856041e+00 1.5503503664e+00 2.6852856041e+00 
11600 4.6963661186e+00 2.0682790751e-02 1.5496732721e+00 -2.6841128424e+00 1.5496732721e+00 2.6841128424e+00 
11700 4.6962629742e+00 2.0372778876e-02 1.5490059925e+00 -2.6829570803e+00 1.5490059925e+00 2.6829570803e+00 
11800 4.6961629065e+00 2.0066269514e-02 1.5483484309e+00 -2.6818181502e+00 1.5483484309e+00 2.6818181502e+00 
11900 4.6960658102e+00 1.9763359069e-02 1.5477004867e+00 -2.6806958779e+00 1.5477004867e+00 2.6806958779e+00 
12000 4.6959715838e+00 1.9464132981e-02 1.5470620557e+00 -2.6795900829e+00 1.5470620557e+00 2.6795900829e+00 
12100 4.6958801292e+00 1.9168666315e-02 1.5464330307e+00 -2.6785005797e+00 1.5464330307e+00 2.6785005797e+00 
12200 4.6957913517e+00 1.8877024332e-02 1.5458133018e+00 -2.6774271777e+00 1.5458133018e+00 2.6774271777e+00 
12300 4.6957051599e+00 1.8589263050e-02 1.5452027565e+00 -2.6763696822e+00 1.5452027565e+00 2.6763696822e+00 
12400 4.6956214657e+00 1.8305429765e-02 1.5446012802e+00 -2.6753278947e+00 1.5446012802e+00 2.6753278947e+00 
12500 4.6955401841e+00 1.8025563567e-02 1.5440087564e+00 -2.6743016135e+00 1.5440087564e+00 2.6743016135e+00 
12600 4.6954612334e+00 1.7749695829e-02 1.5434250672e+00 -2.6732906340e+00 1.5434250672e+00 2.6732906340e+00 
12700 4.6953845346e+00 1.7477850679e-02 1.5428500929e+00 -2.6722947494e+00 1.5428500929e+00 2.6722947494e+00 
12800 4.6953100118e+00 1.7210045448e-02 1.5422837132e+00 -2.6713137509e+00 1.5422837132e+00 2.6713137509e+00 
12900 4.6952375919e+00 1.6946291106e-02 1.5417258065e+00 -2.6703474282e+00 1.5417258065e+00 2.6703474282e+00 
13000 4.6951672044e+00 1.6686592673e-02 1.5411762508e+00 -2.6693955698e+00 1.5411762508e+00 2.6693955698e+00 
13100 4.6950987816e+00 1.6430949612e-02 1.5406349235e+00 -2.6684579634e+00 1.5406349235e+00 2.6684579634e+00 
13200 4.6950322583e+00 1.6179356210e-02 1.5401017017e+00 -2.6675343962e+00 1.5401017017e+00 2.6675343962e+00 
13300 4.6949675718e+00 1.5931801937e-02 1.5395764625e+00 -2.6666246552e+00 1.5395764625e+00 2.6666246552e+00 
13400 4.6949046616e+00 1.5688271789e-02 1.5390590829e+00 -2.6657285275e+00 1.5390590829e+00 2.6657285275e+00 
13500 4.6948434698e+00 1.5448746614e-02 1.5385494402e+00 -2.6648458004e+00 1.5385494402e+00 2.6648458004e+00 
13600 4.6947839404e+00 1.5213203423e-02 1.5380474119e+00 -2.6639762619e+00 1.5380474119e+00 2.6639762619e+00 
13700 4.6947260197e+00 1.4981615691e-02 1.5375528762e+00 -2.6631197009e+00 1.5375528762e+00 2.6631197009e+00 
13800 4.6946696560e+00 1.4753953631e-02 1.5370657117e+00 -2.6622759072e+00 1.5370657117e+00 2.6622759072e+00 
13900 4.6946147997e+00 1.4530184467e-02 1.5365857977e+00 -2.6614446718e+00 1.5365857977e+00 2.6614446718e+00 
14000 4.6945614029e+00 1.4310272684e-02 1.5361130145e+00 -2.6606257873e+00 1.5361130145e+00 2.6606257873e+00 
14100 4.6945094195e+00 1.4094180270e-02 1.5356472431e+00 -2.6598190476e+00 1.5356472431e+00 2.6598190476e+00 
14200 4.6944588053e+00 1.3881866944e-02 1.5351883657e+00 -2.6590242486e+00 1.5351883657e+00 2.6590242486e+00 
14300 4.6944095177e+00 1.3673290369e-02 1.5347362653e+00 -2.6582411877e+00 1.5347362653e+00 2.6582411877e+00 
14400 4.6943615157e+00 1.3468406360e-02 1.5342908263e+00 -2.6574696647e+00 1.5342908263e+00 2.6574696647e+00 
14500 4.6943147599e+00 1.3267169071e-02 1.5338519341e+00 -2.6567094812e+00 1.5338519341e+00 2.6567094812e+00 
14600 4.6942692122e+00 1.3069531181e-02 1.5334194756e+00 -2.6559604411e+00 1.5334194756e+00 2.6559604411e+00 
14700 4.6942248360e+00 1.2875444063e-02 1.5329933390e+00 -2.6552223507e+00 1.5329933390e+00 2.6552223507e+00 
14800 4.6941815963e+00 1.2684857947e-02 1.5325734136e+00 -2.6544950186e+00 1.5325734136e+00 2.6544950186e+00 
14900 4.6941394589e+00 1.2497722070e-02 1.5321595904e+00 -2.6537782559e+00 1.5321595904e+00 2.6537782559e+00 
15000 4.6940983913e+00 1.2313984821e-02 1.5317517619e+00 -2.6530718762e+00 1.5317517619e+00 2.6530718762e+00 
15100 4.6940583620e+00 1.2133593873e-02 1.5313498219e+00 -2.6523756957e+00 1.5313498219e+00 2.6523756957e+00 
15200 4.6940193405e+00 1.1956496310e-02 1.5309536658e+00 -2.6516895333e+00 1.5309536658e+00 2.6516895333e+00 
15300 4.6939812976e+00 1.1782638744e-02 1.5305631907e+00 -2.6510132104e+00 1.5305631907e+00 2.6510132104e+00 
15400 4.6939442051e+00 1.1611967427e-02 1.5301782949e+00 -2.6503465515e+00 1.5301782949e+00 2.6503465515e+00 
15500 4.6939080357e+00 1.1444428353e-02 1.5297988788e+00 -2.6496893834e+00 1.5297988788e+00 2.6496893834e+00 
15600 4.6938727632e+00 1.1279967355e-02 1.5294248439e+00 -2.6490415361e+00 1.5294248439e+00 2.6490415361e+00 
15700 4.6938383622e+00 1.1118530193e-02 1.5290560937e+00 -2.6484028420e+00 1.5290560937e+00 2.6484028420e+00 
15800 4.6938048082e+00 1.0960062641e-02 1.5286925332e+00 -2.6477731367e+00 1.5286925332e+00 2.6477731367e+00 
15900 4.6937720775e+00 1.0804510559e-02 1.5283340689e+00 -2.6471522583e+00 1.5283340689e+00 2.6471522583e+00 
16000 4.6937401474e+00 1.0651819972e-02 1.5279806091e+00 -2.6465400479e+00 1.5279806091e+00 2.6465400479e+00 
16100 4.6937089956e+00 1.0501937131e-02 1.5276320636e+00 -2.6459363494e+00 1.5276320636e+00 2.6459363494e+00 
16200 4.6936786010e+00 1.0354808577e-02 1.5272883439e+00 -2.6453410095e+00 1.5272883439e+00 2.6453410095e+00 
16300 4.6936489428e+00 1.0210381198e-02 1.5269493632e+00 -2.6447538777e+00 1.5269493632e+00 2.6447538777e+00 
16400 4.6936200011e+00 1.0068602281e-02 1.5266150362e+00 -2.6441748063e+00 1.5266150362e+00 2.6441748063e+00 
16500 4.6935917566e+00 9.9294195574e-03 1.5262852792e+00 -2.6436036504e+00 1.5262852792e+00 2.6436036504e+00 
16600 4.6935641905e+00 9.7927812515e-03 1.5259600102e+00 -2.6430402680e+00 1.5259600102e+00 2.6430402680e+00 
16700 4.6935372848e+00 9.6586361164e-03 1.5256391486e+00 -2.6424845194e+00 1.5256391486e+00 2.6424845194e+00 
16800 4.6935110221e+00 9.5269334721e-03 1.5253226157e+00 -2.6419362682e+00 1.5253226157e+00 2.6419362682e+00 
16900 4.6934853852e+00 9.3976232378e-03 1.5250103339e+00 -2.6413953804e+00 1.5250103339e+00 2.6413953804e+00 
17000 4.6934603578e+00 9.2706559614e-03 1.5247022276e+00 -2.6408617246e+00 1.5247022276e+00 2.6408617246e+00 
17100 4.6934359239e+00 9.1459828464e-03 1.5243982224e+00 -2.6403351721e+00 1.5243982224e+00 2.6403351721e+00 
17200 4.6934120681e+00 9.0235557747e-03 1.5240982456e+00 -2.6398155970e+00 1.5240982456e+00 2.6398155970e+00 
17300 4.6933887754e+00 8.9033273282e-03 1.5238022258e+00 -2.6393028758e+00 1.5238022258e+00 2.6393028758e+00 
17400 4.6933660313e+00 8.7852508065e-03 1.5235100933e+00 -2.6387968875e+00 1.5235100933e+00 2.6387968875e+00 
17500 4.6933438216e+00 8.6692802429e-03 1.5232217797e+00 -2.6382975137e+00 1.5232217797e+00 2.6382975137e+00 
17600 4.6933221328e+00 8.5553704180e-03 1.5229372181e+00 -2.6378046384e+00 1.5229372181e+00 2.6378046384e+00 
17700 4.6933009515e+00 8.4434768710e-03 1.5226563428e+00 -2.6373181482e+00 1.5226563428e+00 2.6373181482e+00 
17800 4.6932802649e+00 8.3335559094e-03 1.5223790898e+00 -2.6368379319e+00 1.5223790898e+00 2.6368379319e+00 
17900 4.6932600603e+00 8.2255646162e-03 1.5221053963e+00 -2.6363638808e+00 1.5221053963e+00 2.6363638808e+00 
18000 4.6932403258e+00 8.1194608561e-03 1.5218352008e+00 -2.6358958885e+00 1.5218352008e+00 2.6358958885e+00 
18100 4.6932210494e+00 8.0152032792e-03 1.5215684431e+00 -2.6354338507e+00 1.5215684431e+00 2.6354338507e+00 
18200 4.6932022197e+00 7.9127513242e-03 1.5213050645e+00 -2.6349776655e+00 1.5213050645e+00 2.6349776655e+00 
18300 4.6931838256e+00 7.8120652194e-03 1.5210450073e+00 -2.6345272333e+00 1.5210450073e+00 2.6345272333e+00 
18400 4.6931658561e+00 7.7131059827e-03 1.5207882153e+00 -2.6340824564e+00 1.5207882153e+00 2.6340824564e+00 
18500 4.6931483008e+00 7.6158354200e-03 1.5205346332e+00 -2.6336432394e+00 1.5205346332e+00 2.6336432394e+00 
18600 4.6931311495e+00 7.5202161235e-03 1.5202842073e+00 -2.6332094890e+00 1.5202842073e+00 2.6332094890e+00 
18700 4.6931143920e+00 7.4262114674e-03 1.5200368847e+00 -2.6327811137e+00 1.5200368847e+00 2.6327811137e+00 
18800 4.6930980189e+00 7.3337856043e-03 1.5197926139e+00 -2.6323580243e+00 1.5197926139e+00 2.6323580243e+00 
18900 4.6930820205e+00 7.2429034593e-03 1.5195513444e+00 -2.6319401333e+00 1.5195513444e+00 2.6319401333e+00 
19000 4.6930663878e+00 7.1535307239e-03 1.5193130269e+00 -2.6315273552e+00 1.5193130269e+00 2.6315273552e+00 
19100 4.6930511119e+00 7.0656338496e-03 1.5190776131e+00 -2.6311196065e+00 1.5190776131e+00 2.6311196065e+00 
19200 4.6930361839e+00 6.9791800398e-03 1.5188450557e+00 -2.6307168053e+00 1.5188450557e+00 2.6307168053e+00 
19300 4.6930215956e+00 6.8941372420e-03 1.5186153087e+00 -2.6303188717e+00 1.5186153087e+00 2.6303188717e+00 
19400 4.6930073385e+00 6.8104741390e-03 1.5183883267e+00 -2.6299257275e+00 1.5183883267e+00 2.6299257275e+00 
19500 4.6929934048e+00 6.7281601395e-03 1.5181640657e+00 -2.6295372960e+00 1.5181640657e+00 2.6295372960e+00 
19600 4.6929797866e+00 6.6471653683e-03 1.5179424824e+00 -2.6291535024e+00 1.5179424824e+00 2.6291535024e+00 
19700 4.6929664763e+00 6.5674606567e-03 1.5177235345e+00 -2.6287742736e+00 1.5177235345e+00 2.6287742736e+00 
19800 4.6929534665e+00 6.4890175315e-03 1.5175071807e+00 -2.6283995378e+00 1.5175071807e+00 2.6283995378e+00 
19900 4.6929407500e+00 6.4118082045e-03 1.5172933806e+00 -2.6280292251e+00 1.5172933806e+00 2.6280292251e+00 
20000 4.6929283197e+00 6.3358055613e-03 1.5170820945e+00 -2.6276632669e+00 1.5170820945e+00 2.6276632669e+00 
20100 4.6929161689e+00 6.2609831500e-03 1.5168732838e+00 -2.6273015961e+00 1.5168732838e+00 2.6273015961e+00 
20200 4.6929042908e+00 6.1873151698e-03 1.5166669105e+00 -2.6269441472e+00 1.5166669105e+00 2.6269441472e+00 
20300 4.6928926789e+00 6.1147764591e-03 1.5164629377e+00 -2.6265908559e+00 1.5164629377e+00 2.6265908559e+00 
20400 4.6928813270e+00 6.0433424840e-03 1.5162613290e+00 -2.6262416594e+00 1.5162613290e+00 2.6262416594e+00 
20500 4.6928702289e+00 5.9729893259e-03 1.5160620491e+00 -2.6258964964e+00 1.5160620491e+00 2.6258964964e+00 
20600 4.6928593784e+00 5.9036936699e-03 1.5158650631e+00 -2.6255553067e+00 1.5158650631e+00 2.6255553067e+00 
20700 4.6928487699e+00 5.8354327926e-03 1.5156703371e+00 -2.6252180313e+00 1.5156703371e+00 2.6252180313e+00 
20800 4.6928383975e+00 5.7681845497e-03 1.5154778378e+00 -2.6248846128e+00 1.5154778378e+00 2.6248846128e+00 
20900 4.6928282557e+00 5.7019273643e-03 1.5152875327e+00 -2.6245549946e+00 1.5152875327e+00 2.6245549946e+00 
21000 4.6928183391e+00 5.6366402146e-03 1.5150993898e+00 -2.6242291217e+00 1.5150993898e+00 2.6242291217e+00 
21100 4.6928086423e+00 5.5723026217e-03 1.5149133781e+00 -2.6239069400e+00 1.5149133781e+00 2.6239069400e+00 
21200 4.6927991603e+00 5.5088946375e-03 1.5147294669e+00 -2.6235883965e+00 1.5147294669e+00 2.6235883965e+00 
21300 4.6927898879e+00 5.4463968331e-03 1.5145476264e+00 -2.6232734394e+00 1.5145476264e+00 2.6232734394e+00 
21400 4.6927808203e+00 5.3847902866e-03 1.5143678272e+00 -2.6229620181e+00 1.5143678272e+00 2.6229620181e+00 
21500 4.6927719527e+00 5.3240565710e-03 1.5141900406e+00 -2.6226540827e+00 1.5141900406e+00 2.6226540827e+00 
21600 4.6927632805e+00 5.2641777432e-03 1.5140142386e+00 -2.6223495847e+00 1.5140142386e+00 2.6223495847e+00 
21700 4.6927547990e+00 5.2051363317e-03 1.5138403936e+00 -2.6220484763e+00 1.5138403936e+00 2.6220484763e+00 
21800 4.6927465038e+00 5.1469153254e-03 1.5136684786e+00 -2.6217507107e+00 1.5136684786e+00 2.6217507107e+00 
21900 4.6927383907e+00 5.0894981622e-03 1.5134984671e+00 -2.6214562423e+00 1.5134984671e+00 2.6214562423e+00 
22000 4.6927304554e+00 5.0328687180e-03 1.5133303334e+00 -2.6211650260e+00 1.5133303334e+00 2.6211650260e+00 
22100 4.6927226938e+00 4.9770112952e-03 1.5131640519e+00 -2.6208770181e+00 1.5131640519e+00 2.6208770181e+00 
22200 4.6927151018e+00 4.9219106122e-03 1.5129995978e+00 -2.6205921752e+00 1.5129995978e+00 2.6205921752e+00 
22300 4.6927076756e+00 4.8675517925e-03 1.5128369466e+00 -2.6203104551e+00 1.5128369466e+00 2.6203104551e+00 
22400 4.6927004113e+00 4.8139203539e-03 1.5126760745e+00 -2.6200318164e+00 1.5126760745e+00 2.6200318164e+00 
22500 4.6926933052e+00 4.7610021986e-03 1.5125169580e+00 -2.6197562185e+00 1.5125169580e+00 2.6197562185e+00 
22600 4.6926863537e+00 4.7087836025e-03 1.5123595740e+00 -2.6194836214e+00 1.5123595740e+00 2.6194836214e+00 
22700 4.6926795533e+00 4.6572512054e-03 1.5122038999e+00 -2.6192139860e+00 1.5122038999e+00 2.6192139860e+00 
22800 4.6926729004e+00 4.6063920012e-03 1.5120499137e+00 -2.6189472740e+00 1.5120499137e+00 2.6189472740e+00 
22900 4.6926663916e+00 4.5561933278e-03 1.5118975935e+00 -2.6186834477e+00 1.5118975935e+00 2.6186834477e+00 
23000 4.6926600238e+00 4.5066428583e-03 1.5117469180e+00 -2.6184224701e+00 1.5117469180e+00 2.6184224701e+00 
23100 4.6926537937e+00 4.4577285910e-03 1.5115978663e+00 -2.6181643050e+00 1.5115978663e+00 2.6181643050e+00 
23200 4.6926476981e+00 4.4094388407e-03 1.5114504178e+00 -2.6179089168e+00 1.5114504178e+00 2.6179089168e+00 
23300 4.6926417340e+00 4.3617622299e-03 1.5113045524e+00 -2.6176562704e+00 1.5113045524e+00 2.6176562704e+00 
23400 4.6926358983e+00 4.3146876795e-03 1.5111602501e+00 -2.6174063316e+00 1.5111602501e+00 2.6174063316e+00 
23500 4.6926301883e+00 4.2682044010e-03 1.5110174916e+00 -2.6171590666e+00 1.5110174916e+00 2.6171590666e+00 
23600 4.6926246010e+00 4.2223018876e-03 1.5108762577e+00 -2.6169144423e+00 1.5108762577e+00 2.6169144423e+00 
23700 4.6926191337e+00 4.1769699063e-03 1.5107365296e+00 -2.6166724262e+00 1.5107365296e+00 2.6166724262e+00 
23800 4.6926137836e+00 4.1321984898e-03 1.5105982889e+00 -2.6164329862e+00 1.5105982889e+00 2.6164329862e+00 
23900 4.6926085481e+00 4.0879779290e-03 1.5104615174e+00 -2.6161960910e+00 1.5104615174e+00 2.6161960910e+00 
24000 4.6926034247e+00 4.0442987651e-03 1.5103261973e+00 -2.6159617097e+00 1.5103261973e+00 2.6159617097e+00 
24100 4.6925984107e+00 4.0011517824e-03 1.5101923110e+00 -2.6157298118e+00 1.5101923110e+00 2.6157298118e+00 
24200 4.6925935038e+00 3.9585280009e-03 1.5100598413e+00 -2.6155003677e+00 1.5100598413e+00 2.6155003677e+00 
24300 4.6925887016e+00 3.9164186697e-03 1.5099287713e+00 -2.6152733478e+00 1.5099287713e+00 2.6152733478e+00 
24400 4.6925840016e+00 3.8748152595e-03 1.5097990843e+00 -2.6150487233e+00 1.5097990843e+00 2.6150487233e+00 
24500 4.6925794017e+00 3.8337094564e-03 1.5096707639e+00 -2.6148264658e+00 1.5096707639e+00 2.6148264658e+00 
24600 4.6925748996e+00 3.7930931555e-03 1.5095437940e+00 -2.6146065475e+00 1.5095437940e+00 2.6146065475e+00 
24700 4.6925704930e+00 3.7529584541e-03 1.5094181587e+00 -2.6143889407e+00 1.5094181587e+00 2.6143889407e+00 
24800 4.6925661799e+00 3.7132976458e-03 1.5092938423e+00 -2.6141736185e+00 1.5092938423e+00 2.6141736185e+00 
24900 4.6925619582e+00 3.6741032148e-03 1.5091708296e+00 -2.6139605542e+00 1.5091708296e+00 2.6139605542e+00 
25000 4.6925578259e+00 3.6353678295e-03 1.5090491054e+00 -2.6137497216e+00 1.5090491054e+00 2.6137497216e+00 
25100 4.6925537810e+00 3.5970843373e-03 1.5089286547e+00 -2.6135410949e+00 1.5089286547e+00 2.6135410949e+00 
25200 4.6925498215e+00 3.5592457590e-03 1.5088094629e+00 -2.6133346488e+00 1.5088094629e+00 2.6133346488e+00 
25300 4.6925459455e+00 3.5218452832e-03 1.5086915157e+00 -2.6131303581e+00 1.5086915157e+00 2.6131303581e+00 
25400 4.6925421513e+00 3.4848762618e-03 1.5085747986e+00 -2.6129281983e+00 1.5085747986e+00 2.6129281983e+00 
25500 4.6925384369e+00 3.4483322040e-03 1.5084592978e+00 -2.6127281450e+00 1.5084592978e+00 2.6127281450e+00 
25600 4.6925348007e+00 3.4122067721e-03 1.5083449995e+00 -2.6125301744e+00 1.5083449995e+00 2.6125301744e+00 
25700 4.6925312410e+00 3.3764937768e-03 1.5082318899e+00 -2.6123342630e+00 1.5082318899e+00 2.6123342630e+00 
25800 4.6925277559e+00 3.3411871720e-03 1.5081199558e+00 -2.6121403874e+00 1.5081199558e+00 2.6121403874e+00 
25900 4.6925243440e+00 3.3062810509e-03 1.5080091839e+00 -2.6119485248e+00 1.5080091839e+00 2.6119485248e+00 
26000 4.6925210036e+00 3.2717696416e-03 1.5078995612e+00 -2.6117586527e+00 1.5078995612e+00 2.6117586527e+00 
26100 4.6925177331e+00 3.2376473026e-03 1.5077910749e+00 -2.6115707489e+00 1.5077910749e+00 2.6115707489e+00 
26200 4.6925145310e+00 3.2039085191e-03 1.5076837122e+00 -2.6113847913e+00 1.5076837122e+00 2.6113847913e+00 
26300 4.6925113958e+00 3.1705478987e-03 1.5075774608e+00 -2.6112007584e+00 1.5075774608e+00 2.6112007584e+00 
26400 4.6925083261e+00 3.1375601680e-03 1.5074723083e+00 -2.6110186289e+00 1.5074723083e+00 2.6110186289e+00 
26500 4.6925053204e+00 3.1049401684e-03 1.5073682426e+00 -2.6108383818e+00 1.5073682426e+00 2.6108383818e+00 
26600 4.6925023774e+00 3.0726828532e-03 1.5072652516e+00 -2.6106599963e+00 1.5072652516e+00 2.6106599963e+00 
26700 4.6924994956e+00 3.0407832834e-03 1.5071633237e+00 -2.6104834520e+00 1.5071633237e+00 2.6104834520e+00 
26800 4.6924966738e+00 3.0092366249e-03 1.5070624471e+00 -2.6103087286e+00 1.5070624471e+00 2.6103087286e+00 
26900 4.6924939106e+00 2.9780381449e-03 1.5069626104e+00 -2.6101358064e+00 1.5069626104e+00 2.6101358064e+00 
27000 4.6924912048e+00 2.9471832091e-03 1.5068638022e+00 -2.6099646655e+00 1.5068638022e+00 2.6099646655e+00 
27100 4.6924885551e+00 2.9166672783e-03 1.5067660113e+00 -2.6097952867e+00 1.5067660113e+00 2.6097952867e+00 
27200 4.6924859603e+00 2.8864859058e-03 1.5066692267e+00 -2.6096276508e+00 1.5066692267e+00 2.6096276508e+00 
27300 4.6924834193e+00 2.8566347343e-03 1.5065734374e+00 -2.6094617389e+00 1.5065734374e+00 2.6094617389e+00 
27400 4.6924809309e+00 2.8271094932e-03 1.5064786327e+00 -2.6092975323e+00 1.5064786327e+00 2.6092975323e+00 
27500 4.6924784939e+00 2.7979059963e-03 1.5063848020e+00 -2.6091350127e+00 1.5063848020e+00 2.6091350127e+00 
27600 4.6924761073e+00 2.7690201387e-03 1.5062919347e+00 -2.6089741619e+00 1.5062919347e+00 2.6089741619e+00 
27700 4.6924737699e+00 2.7404478947e-03 1.5062000205e+00 -2.6088149618e+00 1.5062000205e+00 2.6088149618e+00 
27800 4.6924714808e+00 2.7121853151e-03 1.5061090492e+00 -2.6086573949e+00 1.5061090492e+00 2.6086573949e+00 
27900 4.6924692388e+00 2.6842285254e-03 1.5060190106e+00 -2.6085014435e+00 1.5060190106e+00 2.6085014435e+00 
28000 4.6924670430e+00 2.6565737229e-03 1.5059298948e+00 -2.6083470904e+00 1.5059298948e+00 2.6083470904e+00 
28100 4.6924648923e+00 2.6292171752e-03 1.5058416919e+00 -2.6081943185e+00 1.5058416919e+00 2.6081943185e+00 
28200 4.6924627859e+00 2.6021552175e-03 1.5057543921e+00 -2.6080431109e+00 1.5057543921e+00 2.6080431109e+00 
28300 4.6924607227e+00 2.5753842513e-03 1.5056679859e+00 -2.6078934510e+00 1.5056679859e+00 2.6078934510e+00 
28400 4.6924587019e+00 2.5489007416e-03 1.5055824638e+00 -2.6077453222e+00 1.5055824638e+00 2.6077453222e+00 
28500 4.6924567226e+00 2.5227012160e-03 1.5054978162e+00 -2.6075987084e+00 1.5054978162e+00 2.6075987084e+00 
28600 4.6924547838e+00 2.4967822620e-03 1.5054140340e+00 -2.6074535934e+00 1.5054140340e+00 2.6074535934e+00 
28700 4.6924528847e+00 2.4711405258e-03 1.5053311080e+00 -2.6073099613e+00 1.5053311080e+00 2.6073099613e+00 
28800 4.6924510245e+00 2.4457727105e-03 1.5052490291e+00 -2.6071677965e+00 1.5052490291e+00 2.6071677965e+00 
28900 4.6924492023e+00 2.4206755744e-03 1.5051677884e+00 -2.6070270835e+00 1.5051677884e+00 2.6070270835e+00 
29000 4.6924474174e+00 2.3958459296e-03 1.5050873770e+00 -2.6068878068e+00 1.5050873770e+00 2.6068878068e+00 
29100 4.6924456689e+00 2.3712806404e-03 1.5050077861e+00 -2.6067499513e+00 1.5050077861e+00 2.6067499513e+00 
29200 4.6924439561e+00 2.3469766216e-03 1.5049290071e+00 -2.6066135021e+00 1.5049290071e+00 2.6066135021e+00 
29300 4.6924422783e+00 2.3229308375e-03 1.5048510315e+00 -2.6064784443e+00 1.5048510315e+00 2.6064784443e+00 
29400 4.6924406346e+00 2.2991403006e-03 1.5047738507e+00 -2.6063447633e+00 1.5047738507e+00 2.6063447633e+00 
29500 4.6924390244e+00 2.2756020696e-03 1.5046974565e+00 -2.6062124446e+00 1.5046974565e+00 2.6062124446e+00 
29600 4.6924374469e+00 2.2523132491e-03 1.5046218405e+00 -2.6060814739e+00 1.5046218405e+00 2.6060814739e+00 
29700 4.6924359015e+00 2.2292709876e-03 1.5045469946e+00 -2.6059518371e+00 1.5045469946e+00 2.6059518371e+00 
29800 4.6924343876e+00 2.2064724769e-03 1.5044729108e+00 -2.6058235201e+00 1.5044729108e+00 2.6058235201e+00 
29900 4.6924329044e+00 2.1839149505e-03 1.5043995810e+00 -2.6056965091e+00 1.5043995810e+00 2.6056965091e+00 
30000 4.6924314512e+00 2.1615956829e-03 1.5043269973e+00 -2.6055707905e+00 1.5043269973e+00 2.6055707905e+00 
30100 4.6924300276e+00 2.1395119883e-03 1.5042551519e+00 -2.6054463506e+00 1.5042551519e+00 2.6054463506e+00 
30200 4.6924286328e+00 2.1176612199e-03 1.5041840371e+00 -2.6053231762e+00 1.5041840371e+00 2.6053231762e+00 
30300 4.6924272663e+00 2.0960407686e-03 1.5041136453e+00 -2.6052012541e+00 1.5041136453e+00 2.6052012541e+00 
30400 4.6924259274e+00 2.0746480620e-03 1.5040439689e+00 -2.6050805710e+00 1.5040439689e+00 2.6050805710e+00 
30500 4.6924246156e+00 2.0534805640e-03 1.5039750004e+00 -2.6049611141e+00 1.5039750004e+00 2.6049611141e+00 
30600 4.6924233304e+00 2.0325357736e-03 1.5039067325e+00 -2.6048428706e+00 1.5039067325e+00 2.6048428706e+00 
30700 4.6924220711e+00 2.0118112239e-03 1.5038391578e+00 -2.6047258278e+00 1.5038391578e+00 2.6047258278e+00 
30800 4.6924208372e+00 1.9913044816e-03 1.5037722692e+00 -2.6046099732e+00 1.5037722692e+00 2.6046099732e+00 
30900 4.6924196282e+00 1.9710131460e-03 1.5037060593e+00 -2.6044952944e+00 1.5037060593e+00 2.6044952944e+00 
31000 4.6924184437e+00 1.9509348487e-03 1.5036405213e+00 -2.6043817792e+00 1.5036405213e+00 2.6043817792e+00 
31100 4.6924172830e+00 1.9310672522e-03 1.5035756481e+00 -2.6042694155e+00 1.5035756481e+00 2.6042694155e+00 
31200 4.6924161456e+00 1.9114080495e-03 1.5035114327e+00 -2.6041581912e+00 1.5035114327e+00 2.6041581912e+00 
31300 4.6924150312e+00 1.8919549638e-03 1.5034478683e+00 -2.6040480945e+00 1.5034478683e+00 2.6040480945e+00 
31400 4.6924139392e+00 1.8727057473e-03 1.5033849482e+00 -2.6039391137e+00 1.5033849482e+00 2.6039391137e+00 
31500 4.6924128692e+00 1.8536581808e-03 1.5033226657e+00 -2.6038312371e+00 1.5033226657e+00 2.6038312371e+00 
31600 4.6924118207e+00 1.8348100731e-03 1.5032610141e+00 -2.6037244534e+00 1.5032610141e+00 2.6037244534e+00 
31700 4.6924107932e+00 1.8161592606e-03 1.5031999868e+00 -2.6036187511e+00 1.5031999868e+00 2.6036187511e+00 
31800 4.6924097864e+00 1.7977036064e-03 1.5031395775e+00 -2.6035141190e+00 1.5031395775e+00 2.6035141190e+00 
31900 4.6924087997e+00 1.7794409999e-03 1.5030797796e+00 -2.6034105460e+00 1.5030797796e+00 2.6034105460e+00 
32000 4.6924078329e+00 1.7613693564e-03 1.5030205868e+00 -2.6033080211e+00 1.5030205868e+00 2.6033080211e+00 
32100 4.6924068854e+00 1.7434866164e-03 1.5029619928e+00 -2.6032065334e+00 1.5029619928e+00 2.6032065334e+00 
32200 4.6924059570e+00 1.7257907454e-03 1.5029039915e+00 -2.6031060722e+00 1.5029039915e+00 2.6031060722e+00 
32300 4.6924050471e+00 1.7082797330e-03 1.5028465767e+00 -2.6030066268e+00 1.5028465767e+00 2.6030066268e+00 
32400 4.6924041554e+00 1.6909515929e-03 1.5027897422e+00 -2.6029081867e+00 1.5027897422e+00 2.6029081867e+00 
32500 4.6924032816e+00 1.6738043621e-03 1.5027334822e+00 -2.6028107414e+00 1.5027334822e+00 2.6028107414e+00 
32600 4.6924024252e+00 1.6568361008e-03 1.5026777905e+00 -2.6027142806e+00 1.5026777905e+00 2.6027142806e+00 
32700 4.6924015859e+00 1.6400448917e-03 1.5026226614e+00 -2.6026187942e+00 1.5026226614e+00 2.6026187942e+00 
32800 4.6924007634e+00 1.6234288398e-03 1.5025680890e+00 -2.6025242720e+00 1.5025680890e+00 2.6025242720e+00 
32900 4.6923999574e+00 1.6069860718e-03 1.5025140675e+00 -2.6024307040e+00 1.5025140675e+00 2.6024307040e+00 
33000 4.6923991674e+00 1.5907147363e-03 1.5024605913e+00 -2.6023380804e+00 1.5024605913e+00 2.6023380804e+00 
33100 4.6923983931e+00 1.5746130025e-03 1.5024076546e+00 -2.6022463914e+00 1.5024076546e+00 2.6022463914e+00 
33200 4.6923976343e+00 1.5586790607e-03 1.5023552519e+00 -2.6021556273e+00 1.5023552519e+00 2.6021556273e+00 
33300 4.6923968907e+00 1.5429111216e-03 1.5023033777e+00 -2.6020657785e+00 1.5023033777e+00 2.6020657785e+00 
33400 4.6923961618e+00 1.5273074160e-03 1.5022520265e+00 -2.6019768356e+00 1.5022520265e+00 2.6019768356e+00 
33500 4.6923954474e+00 1.5118661946e-03 1.5022011928e+00 -2.6018887892e+00 1.5022011928e+00 2.6018887892e+00 
33600 4.6923947473e+00 1.4965857274e-03 1.5021508714e+00 -2.6018016299e+00 1.5021508714e+00 2.6018016299e+00 
33700 4.6923940611e+00 1.4814643039e-03 1.5021010569e+00 -2.6017153487e+00 1.5021010569e+00 2.6017153487e+00 
33800 4.6923933885e+00 1.4665002323e-03 1.5020517441e+00 -2.6016299364e+00 1.5020517441e+00 2.6016299364e+00 
33900 4.6923927293e+00 1.4516918396e-03 1.5020029278e+00 -2.6015453841e+00 1.5020029278e+00 2.6015453841e+00 
34000 4.6923920831e+00 1.4370374711e-03 1.5019546029e+00 -2.6014616828e+00 1.5019546029e+00 2.6014616828e+00 
34100 4.6923914499e+00 1.4225354903e-03 1.5019067642e+00 -2.6013788239e+00 1.5019067642e+00 2.6013788239e+00 
34200 4.6923908291e+00 1.4081842784e-03 1.5018594068e+00 -2.6012967984e+00 1.5018594068e+00 2.6012967984e+00 
34300 4.6923902207e+00 1.3939822345e-03 1.5018125257e+00 -2.6012155980e+00 1.5018125257e+00 2.6012155980e+00 
34400 4.6923896244e+00 1.3799277749e-03 1.5017661159e+00 -2.6011352139e+00 1.5017661159e+00 2.6011352139e+00 
34500 4.6923890399e+00 1.3660193330e-03 1.5017201727e+00 -2.6010556378e+00 1.5017201727e+00 2.6010556378e+00 
34600 4.6923884669e+00 1.3522553594e-03 1.5016746911e+00 -2.6009768614e+00 1.5016746911e+00 2.6009768614e+00 
34700 4.6923879053e+00 1.3386343210e-03 1.5016296664e+00 -2.6008988764e+00 1.5016296664e+00 2.6008988764e+00 
34800 4.6923873548e+00 1.3251547017e-03 1.5015850939e+00 -2.6008216745e+00 1.5015850939e+00 2.6008216745e+00 
34900 4.6923868152e+00 1.3118150011e-03 1.5015409689e+00 -2.6007452478e+00 1.5015409689e+00 2.6007452478e+00 
35000 4.6923862863e+00 1.2986137354e-03 1.5014972869e+00 -2.6006695883e+00 1.5014972869e+00 2.6006695883e+00 
35100 4.6923857679e+00 1.2855494364e-03 1.5014540431e+00 -2.6005946879e+00 1.5014540431e+00 2.6005946879e+00 
35200 4.6923852597e+00 1.2726206517e-03 1.5014112332e+00 -2.6005205389e+00 1.5014112332e+00 2.6005205389e+00 
35300 4.6923847615e+00 1.2598259442e-03 1.5013688525e+00 -2.6004471335e+00 1.5013688525e+00 2.6004471335e+00 
35400 4.6923842732e+00 1.2471638924e-03 1.5013268968e+00 -2.6003744641e+00 1.5013268968e+00 2.6003744641e+00 
35500 4.6923837945e+00 1.2346330896e-03 1.5012853616e+00 -2.6003025230e+00 1.5012853616e+00 2.6003025230e+00 
35600 4.6923833252e+00 1.2222321444e-03 1.5012442426e+00 -2.6002313028e+00 1.5012442426e+00 2.6002313028e+00 
35700 4.6923828652e+00 1.2099596799e-03 1.5012035355e+00 -2.6001607960e+00 1.5012035355e+00 2.6001607960e+00 
35800 4.6923824143e+00 1.1978143340e-03 1.5011632360e+00 -2.6000909952e+00 1.5011632360e+00 2.6000909952e+00 
35900 4.6923819723e+00 1.1857947588e-03 1.5011233400e+00 -2.6000218933e+00 1.5011233400e+00 2.6000218933e+00 
36000 4.6923815390e+00 1.1738996210e-03 1.5010838432e+00 -2.5999534829e+00 1.5010838432e+00 2.5999534829e+00 
36100 4.6923811142e+00 1.1621276011e-03 1.5010447417e+00 -2.5998857570e+00 1.5010447417e+00 2.5998857570e+00 
36200 4.6923806978e+00 1.1504773939e-03 1.5010060312e+00 -2.5998187086e+00 1.5010060312e+00 2.5998187086e+00 
36300 4.6923802896e+00 1.1389477076e-03 1.5009677078e+00 -2.5997523305e+00 1.5009677078e+00 2.5997523305e+00 
36400 4.6923798894e+00 1.1275372644e-03 1.5009297676e+00 -2.5996866160e+00 1.5009297676e+00 2.5996866160e+00 
36500 4.6923794971e+00 1.1162447999e-03 1.5008922064e+00 -2.5996215582e+00 1.5008922064e+00 2.5996215582e+00 
36600 4.6923791125e+00 1.1050690630e-03 1.5008550205e+00 -2.5995571504e+00 1.5008550205e+00 2.5995571504e+00 
36700 4.6923787355e+00 1.0940088160e-03 1.5008182060e+00 -2.5994933858e+00 1.5008182060e+00 2.5994933858e+00 
36800 4.6923783659e+00 1.0830628339e-03 1.5007817591e+00 -2.5994302578e+00 1.5007817591e+00 2.5994302578e+00 
36900 4.6923780035e+00 1.0722299052e-03 1.5007456760e+00 -2.5993677600e+00 1.5007456760e+00 2.5993677600e+00 
37000 4.6923776483e+00 1.0615088306e-03 1.5007099529e+00 -2.5993058858e+00 1.5007099529e+00 2.5993058858e+00 
37100 4.6923773000e+00 1.0508984240e-03 1.5006745861e+00 -2.5992446288e+00 1.5006745861e+00 2.5992446288e+00 
37200 4.6923769586e+00 1.0403975115e-03 1.5006395720e+00 -2.5991839826e+00 1.5006395720e+00 2.5991839826e+00 
37300 4.6923766238e+00 1.0300049318e-03 1.5006049070e+00 -2.5991239411e+00 1.5006049070e+00 2.5991239411e+00 
37400 4.6923762957e+00 1.0197195357e-03 1.5005705875e+00 -2.5990644979e+00 1.5005705875e+00 2.5990644979e+00 
37500 4.6923759739e+00 1.0095401863e-03 1.5005366099e+00 -2.5990056470e+00 1.5005366099e+00 2.5990056470e+00 
37600 4.6923756585e+00 9.9946575881e-04 1.5005029707e+00 -2.5989473822e+00 1.5005029707e+00 2.5989473822e+00 
37700 4.6923753493e+00 9.8949514008e-04 1.5004696665e+00 -2.5988896976e+00 1.5004696665e+00 2.5988896976e+00 
37800 4.6923750461e+00 9.7962722895e-04 1.5004366938e+00 -2.5988325872e+00 1.5004366938e+00 2.5988325872e+00 
37900 4.6923747489e+00 9.6986093587e-04 1.5004040492e+00 -2.5987760450e+00 1.5004040492e+00 2.5987760450e+00 
38000 4.6923744574e+00 9.6019518283e-04 1.5003717293e+00 -2.5987200654e+00 1.5003717293e+00 2.5987200654e+00 
38100 4.6923741717e+00 9.5062890328e-04 1.5003397308e+00 -2.5986646424e+00 1.5003397308e+00 2.5986646424e+00 
38200 4.6923738916e+00 9.4116104195e-04 1.5003080505e+00 -2.5986097704e+00 1.5003080505e+00 2.5986097704e+00 
38300 4.6923736170e+00 9.3179055479e-04 1.5002766850e+00 -2.5985554438e+00 1.5002766850e+00 2.5985554438e+00 
38400 4.6923733477e+00 9.2251640885e-04 1.5002456311e+00 -2.5985016570e+00 1.5002456311e+00 2.5985016570e+00 
38500 4.6923730837e+00 9.1333758214e-04 1.5002148857e+00 -2.5984484044e+00 1.5002148857e+00 2.5984484044e+00 
38600 4.6923728248e+00 9.0425306353e-04 1.5001844456e+00 -2.5983956805e+00 1.5001844456e+00 2.5983956805e+00 
38700 4.6923725711e+00 8.9526185268e-04 1.5001543077e+00 -2.5983434800e+00 1.5001543077e+00 2.5983434800e+00 
38800 4.6923723222e+00 8.8636295987e-04 1.5001244688e+00 -2.5982917976e+00 1.5001244688e+00 2.5982917976e+00 
38900 4.6923720783e+00 8.7755540593e-04 1.5000949259e+00 -2.5982406278e+00 1.5000949259e+00 2.5982406278e+00 
39000 4.6923718391e+00 8.6883822213e-04 1.5000656760e+00 -2.5981899655e+00 1.5000656760e+00 2.5981899655e+00 
39100 4.6923716046e+00 8.6021045007e-04 1.5000367161e+00 -2.5981398054e+00 1.5000367161e+00 2.5981398054e+00 
39200 4.6923713746e+00 8.5167114160e-04 1.5000080432e+00 -2.5980901425e+00 1.5000080432e+00 2.5980901425e+00 
39300 4.6923711491e+00 8.4321935866e-04 1.4999796544e+00 -2.5980409717e+00 1.4999796544e+00 2.5980409717e+00 
39400 4.6923709281e+00 8.3485417323e-04 1.4999515468e+00 -2.5979922879e+00 1.4999515468e+00 2.5979922879e+00 
39500 4.6923707113e+00 8.2657466723e-04 1.4999237175e+00 -2.5979440862e+00 1.4999237175e+00 2.5979440862e+00 
39600 4.6923704988e+00 8.1837993239e-04 1.4998961637e+00 -2.5978963616e+00 1.4998961637e+00 2.5978963616e+00 
39700 4.6923702904e+00 8.1026907015e-04 1.4998688825e+00 -2.5978491093e+00 1.4998688825e+00 2.5978491093e+00 
39800 4.6923700861e+00 8.0224119161e-04 1.4998418713e+00 -2.5978023244e+00 1.4998418713e+00 2.5978023244e+00 
39900 4.6923698858e+00 7.9429541738e-04 1.4998151272e+00 -2.5977560022e+00 1.4998151272e+00 2.5977560022e+00 
40000 4.6923696893e+00 7.8643087750e-04 1.4997886475e+00 -2.5977101381e+00 1.4997886475e+00 2.5977101381e+00 
40100 4.6923694967e+00 7.7864671137e-04 1.4997624295e+00 -2.5976647272e+00 1.4997624295e+00 2.5976647272e+00 
40200 4.6923693079e+00 7.7094206761e-04 1.4997364706e+00 -2.5976197650e+00 1.4997364706e+00 2.5976197650e+00 
40300 4.6923691227e+00 7.6331610401e-04 1.4997107681e+00 -2.5975752469e+00 1.4997107681e+00 2.5975752469e+00 
40400 4.6923689411e+00 7.5576798740e-04 1.4996853194e+00 -2.5975311685e+00 1.4996853194e+00 2.5975311685e+00 
40500 4.6923687631e+00 7.4829689361e-04 1.4996601219e+00 -2.5974875252e+00 1.4996601219e+00 2.5974875252e+00 
40600 4.6923685885e+00 7.4090200729e-04 1.4996351731e+00 -2.5974443126e+00 1.4996351731e+00 2.5974443126e+00 
40700 4.6923684173e+00 7.3358252194e-04 1.4996104704e+00 -2.5974015263e+00 1.4996104704e+00 2.5974015263e+00 
40800 4.6923682495e+00 7.2633763969e-04 1.4995860114e+00 -2.5973591620e+00 1.4995860114e+00 2.5973591620e+00 
40900 4.6923680849e+00 7.1916657133e-04 1.4995617935e+00 -2.5973172154e+00 1.4995617935e+00 2.5973172154e+00 
41000 4.6923679235e+00 7.1206853613e-04 1.4995378143e+00 -2.5972756823e+00 1.4995378143e+00 2.5972756823e+00 
41100 4.6923677653e+00 7.0504276182e-04 1.4995140714e+00 -2.5972345584e+00 1.4995140714e+00 2.5972345584e+00 
41200 4.6923676101e+00 6.9808848445e-04 1.4994905625e+00 -2.5971938397e+00 1.4994905625e+00 2.5971938397e+00 
41300 4.6923674579e+00 6.9120494833e-04 1.4994672850e+00 -2.5971535219e+00 1.4994672850e+00 2.5971535219e+00 
41400 4.6923673087e+00 6.8439140597e-04 1.4994442367e+00 -2.5971136011e+00 1.4994442367e+00 2.5971136011e+00 
41500 4.6923671624e+00 6.7764711792e-04 1.4994214153e+00 -2.5970740732e+00 1.4994214153e+00 2.5970740732e+00 
41600 4.6923670190e+00 6.7097135279e-04 1.4993988184e+00 -2.5970349342e+00 1.4993988184e+00 2.5970349342e+00 
41700 4.6923668783e+00 6.6436338707e-04 1.4993764438e+00 -2.5969961802e+00 1.4993764438e+00 2.5969961802e+00 
41800 4.6923667404e+00 6.5782250511e-04 1.4993542891e+00 -2.5969578074e+00 1.4993542891e+00 2.5969578074e+00 
41900 4.6923666051e+00 6.5134799900e-04 1.4993323523e+00 -2.5969198117e+00 1.4993323523e+00 2.5969198117e+00 
42000 4.6923664725e+00 6.4493916852e-04 1.4993106311e+00 -2.5968821894e+00 1.4993106311e+00 2.5968821894e+00 
42100 4.6923663424e+00 6.3859532106e-04 1.4992891233e+00 -2.5968449368e+00 1.4992891233e+00 2.5968449368e+00 
42200 4.6923662148e+00 6.3231577148e-04 1.4992678268e+00 -2.5968080501e+00 1.4992678268e+00 2.5968080501e+00 
42300 4.6923660898e+00 6.2609984213e-04 1.4992467393e+00 -2.5967715256e+00 1.4992467393e+00 2.5967715256e+00 
42400 4.6923659671e+00 6.1994686269e-04 1.4992258589e+00 -2.5967353596e+00 1.4992258589e+00 2.5967353596e+00 
42500 4.6923658469e+00 6.1385617013e-04 1.4992051834e+00 -2.5966995486e+00 1.4992051834e+00 2.5966995486e+00 
42600 4.6923657289e+00 6.0782710862e-04 1.4991847107e+00 -2.5966640889e+00 1.4991847107e+00 2.5966640889e+00 
42700 4.6923656133e+00 6.0185902947e-04 1.4991644388e+00 -2.5966289770e+00 1.4991644388e+00 2.5966289770e+00 
42800 4.6923654999e+00 5.9595129104e-04 1.4991443657e+00 -2.5965942093e+00 1.4991443657e+00 2.5965942093e+00 
42900 4.6923653887e+00 5.9010325865e-04 1.4991244894e+00 -2.5965597825e+00 1.4991244894e+00 2.5965597825e+00 
43000 4.6923652796e+00 5.8431430454e-04 1.4991048078e+00 -2.5965256930e+00 1.4991048078e+00 2.5965256930e+00 
43100 4.6923651727e+00 5.7858380779e-04 1.4990853191e+00 -2.5964919376e+00 1.4990853191e+00 2.5964919376e+00 
43200 4.6923650678e+00 5.7291115423e-04 1.4990660213e+00 -2.5964585127e+00 1.4990660213e+00 2.5964585127e+00 
43300 4.6923649650e+00 5.6729573636e-04 1.4990469124e+00 -2.5964254151e+00 1.4990469124e+00 2.5964254151e+00 
43400 4.6923648641e+00 5.6173695331e-04 1.4990279905e+00 -2.5963926415e+00 1.4990279905e+00 2.5963926415e+00 
43500 4.6923647652e+00 5.5623421075e-04 1.4990092538e+00 -2.5963601887e+00 1.4990092538e+00 2.5963601887e+00 
43600 4.6923646683e+00 5.5078692082e-04 1.4989907005e+00 -2.5963280533e+00 1.4989907005e+00 2.5963280533e+00 
43700 4.6923645732e+00 5.4539450206e-04 1.4989723286e+00 -2.5962962323e+00 1.4989723286e+00 2.5962962323e+00 
43800 4.6923644799e+00 5.4005637936e-04 1.4989541364e+00 -2.5962647224e+00 1.4989541364e+00 2.5962647224e+00 
43900 4.6923643885e+00 5.3477198386e-04 1.4989361220e+00 -2.5962335205e+00 1.4989361220e+00 2.5962335205e+00 
44000 4.6923642988e+00 5.2954075288e-04 1.4989182836e+00 -2.5962026236e+00 1.4989182836e+00 2.5962026236e+00 
44100 4.6923642108e+00 5.2436212991e-04 1.4989006195e+00 -2.5961720285e+00 1.4989006195e+00 2.5961720285e+00 
44200 4.6923641246e+00 5.1923556448e-04 1.4988831280e+00 -2.5961417323e+00 1.4988831280e+00 2.5961417323e+00 
44300 4.6923640400e+00 5.1416051212e-04 1.4988658073e+00 -2.5961117320e+00 1.4988658073e+00 2.5961117320e+00 
44400 4.6923639570e+00 5.0913643428e-04 1.4988486557e+00 -2.5960820245e+00 1.4988486557e+00 2.5960820245e+00 
44500 4.6923638757e+00 5.0416279831e-04 1.4988316715e+00 -2.5960526070e+00 1.4988316715e+00 2.5960526070e+00 
44600 4.6923637959e+00 4.9923907733e-04 1.4988148530e+00 -2.5960234765e+00 1.4988148530e+00 2.5960234765e+00 
44700 4.6923637177e+00 4.9436475022e-04 1.4987981985e+00 -2.5959946302e+00 1.4987981985e+00 2.5959946302e+00 
44800 4.6923636410e+00 4.8953930152e-04 1.4987817065e+00 -2.5959660652e+00 1.4987817065e+00 2.5959660652e+00 
44900 4.6923635658e+00 4.8476222140e-04 1.4987653753e+00 -2.5959377787e+00 1.4987653753e+00 2.5959377787e+00 
45000 4.6923634920e+00 4.8003300559e-04 1.4987492033e+00 -2.5959097679e+00 1.4987492033e+00 2.5959097679e+00 
45100 4.6923634196e+00 4.7535115528e-04 1.4987331889e+00 -2.5958820301e+00 1.4987331889e+00 2.5958820301e+00 
45200 4.6923633487e+00 4.7071617712e-04 1.4987173305e+00 -2.5958545626e+00 1.4987173305e+00 2.5958545626e+00 
45300 4.6923632791e+00 4.6612758312e-04 1.4987016265e+00 -2.5958273625e+00 1.4987016265e+00 2.5958273625e+00 
45400 4.6923632109e+00 4.6158489061e-04 1.4986860755e+00 -2.5958004274e+00 1.4986860755e+00 2.5958004274e+00 
45500 4.6923631440e+00 4.5708762215e-04 1.4986706759e+00 -2.5957737544e+00 1.4986706759e+00 2.5957737544e+00 
45600 4.6923630783e+00 4.5263530554e-04 1.4986554261e+00 -2.5957473411e+00 1.4986554261e+00 2.5957473411e+00 
45700 4.6923630140e+00 4.4822747367e-04 1.4986403248e+00 -2.5957211848e+00 1.4986403248e+00 2.5957211848e+00 
45800 4.6923629509e+00 4.4386366453e-04 1.4986253703e+00 -2.5956952829e+00 1.4986253703e+00 2.5956952829e+00 
45900 4.6923628890e+00 4.3954342115e-04 1.4986105613e+00 -2.5956696330e+00 1.4986105613e+00 2.5956696330e+00 
46000 4.6923628283e+00 4.3526629150e-04 1.4985958963e+00 -2.5956442325e+00 1.4985958963e+00 2.5956442325e+00 
46100 4.6923627687e+00 4.3103182848e-04 1.4985813739e+00 -2.5956190788e+00 1.4985813739e+00 2.5956190788e+00 
46200 4.6923627104e+00 4.2683958985e-04 1.4985669926e+00 -2.5955941697e+00 1.4985669926e+00 2.5955941697e+00 
46300 4.6923626531e+00 4.2268913817e-04 1.4985527510e+00 -2.5955695026e+00 1.4985527510e+00 2.5955695026e+00 
46400 4.6923625970e+00 4.1858004073e-04 1.4985386478e+00 -2.5955450751e+00 1.4985386478e+00 2.5955450751e+00 
46500 4.6923625419e+00 4.1451186957e-04 1.4985246815e+00 -2.5955208848e+00 1.4985246815e+00 2.5955208848e+00 
46600 4.6923624879e+00 4.1048420131e-04 1.4985108509e+00 -2.5954969294e+00 1.4985108509e+00 2.5954969294e+00 
46700 4.6923624349e+00 4.0649661722e-04 1.4984971545e+00 -2.5954732066e+00 1.4984971545e+00 2.5954732066e+00 
46800 4.6923623830e+00 4.0254870307e-04 1.4984835910e+00 -2.5954497140e+00 1.4984835910e+00 2.5954497140e+00 
46900 4.6923623321e+00 3.9864004915e-04 1.4984701592e+00 -2.5954264494e+00 1.4984701592e+00 2.5954264494e+00 
47000 4.6923622821e+00 3.9477025018e-04 1.4984568577e+00 -2.5954034104e+00 1.4984568577e+00 2.5954034104e+00 
47100 4.6923622331e+00 3.9093890526e-04 1.4984436851e+00 -2.5953805949e+00 1.4984436851e+00 2.5953805949e+00 
47200 4.6923621851e+00 3.8714561785e-04 1.4984306403e+00 -2.5953580006e+00 1.4984306403e+00 2.5953580006e+00 
47300 4.6923621380e+00 3.8338999568e-04 1.4984177219e+00 -2.5953356254e+00 1.4984177219e+00 2.5953356254e+00 
47400 4.6923620918e+00 3.7967165075e-04 1.4984049288e+00 -2.5953134670e+00 1.4984049288e+00 2.5953134670e+00 
47500 4.6923620464e+00 3.7599019925e-04 1.4983922596e+00 -2.5952915233e+00 1.4983922596e+00 2.5952915233e+00 
47600 4.6923620020e+00 3.7234526150e-04 1.4983797132e+00 -2.5952697923e+00 1.4983797132e+00 2.5952697923e+00 
47700 4.6923619584e+00 3.6873646195e-04 1.4983672883e+00 -2.5952482717e+00 1.4983672883e+00 2.5952482717e+00 
47800 4.6923619157e+00 3.6516342909e-04 1.4983549837e+00 -2.5952269595e+00 1.4983549837e+00 2.5952269595e+00 
47900 4.6923618738e+00 3.6162579543e-04 1.4983427982e+00 -2.5952058537e+00 1.4983427982e+00 2.5952058537e+00 
48000 4.6923618326e+00 3.5812319744e-04 1.4983307307e+00 -2.5951849521e+00 1.4983307307e+00 2.5951849521e+00 
48100 4.6923617923e+00 3.5465527550e-04 1.4983187800e+00 -2.5951642529e+00 1.4983187800e+00 2.5951642529e+00 
48200 4.6923617528e+00 3.5122167390e-04 1.4983069449e+00 -2.5951437539e+00 1.4983069449e+00 2.5951437539e+00 
48300 4.6923617140e+00 3.4782204073e-04 1.4982952243e+00 -2.5951234532e+00 1.4982952243e+00 2.5951234532e+00 
48400 4.6923616760e+00 3.4445602789e-04 1.4982836171e+00 -2.5951033489e+00 1.4982836171e+00 2.5951033489e+00 
48500 4.6923616387e+00 3.4112329102e-04 1.4982721220e+00 -2.5950834390e+00 1.4982721220e+00 2.5950834390e+00 
48600 4.6923616021e+00 3.3782348947e-04 1.4982607382e+00 -2.5950637215e+00 1.4982607382e+00 2.5950637215e+00 
48700 4.6923615662e+00 3.3455628624e-04 1.4982494643e+00 -2.5950441946e+00 1.4982494643e+00 2.5950441946e+00 
48800 4.6923615310e+00 3.3132134797e-04 1.4982382994e+00 -2.5950248565e+00 1.4982382994e+00 2.5950248565e+00 
48900 4.6923614965e+00 3.2811834487e-04 1.4982272424e+00 -2.5950057052e+00 1.4982272424e+00 2.5950057052e+00 
49000 4.6923614627e+00 3.2494695070e-04 1.4982162922e+00 -2.5949867388e+00 1.4982162922e+00 2.5949867388e+00 
49100 4.6923614295e+00 3.2180684270e-04 1.4982054478e+00 -2.5949679557e+00 1.4982054478e+00 2.5949679557e+00 
49200 4.6923613970e+00 3.1869770160e-04 1.4981947080e+00 -2.5949493540e+00 1.4981947080e+00 2.5949493540e+00 
49300 4.6923613650e+00 3.1561921154e-04 1.4981840720e+00 -2.5949309318e+00 1.4981840720e+00 2.5949309318e+00 
49400 4.6923613337e+00 3.1257106002e-04 1.4981735386e+00 -2.5949126874e+00 1.4981735386e+00 2.5949126874e+00 
49500 4.6923613030e+00 3.0955293793e-04 1.4981631069e+00 -2.5948946192e+00 1.4981631069e+00 2.5948946192e+00 
49600 4.6923612729e+00 3.0656453944e-04 1.4981527758e+00 -2.5948767252e+00 1.4981527758e+00 2.5948767252e+00 
49700 4.6923612434e+00 3.0360556199e-04 1.4981425444e+00 -2.5948590039e+00 1.4981425444e+00 2.5948590039e+00 
49800 4.6923612144e+00 3.0067570626e-04 1.4981324117e+00 -2.5948414535e+00 1.4981324117e+00 2.5948414535e+00 
49900 4.6923611860e+00 2.9777467612e-04 1.4981223767e+00 -2.5948240724e+00 1.4981223767e+00 2.5948240724e+00 
50000 4.6923611582e+00 2.9490217862e-04 1.4981124384e+00 -2.5948068588e+00 1.4981124384e+00 2.5948068588e+00 
50100 4.6923611309e+00 2.9205792391e-04 1.4981025960e+00 -2.5947898112e+00 1.4981025960e+00 2.5947898112e+00 
50200 4.6923611041e+00 2.8924162525e-04 1.4980928484e+00 -2.5947729279e+00 1.4980928484e+00 2.5947729279e+00 
50300 4.6923610778e+00 2.8645299895e-04 1.4980831947e+00 -2.5947562073e+00 1.4980831947e+00 2.5947562073e+00 
50400 4.6923610520e+00 2.8369176433e-04 1.4980736341e+00 -2.5947396478e+00 1.4980736341e+00 2.5947396478e+00 
50500 4.6923610267e+00 2.8095764370e-04 1.4980641656e+00 -2.5947232478e+00 1.4980641656e+00 2.5947232478e+00 
50600 4.6923610020e+00 2.7825036234e-04 1.4980547882e+00 -2.5947070057e+00 1.4980547882e+00 2.5947070057e+00 
50700 4.6923609777e+00 2.7556964844e-04 1.4980455012e+00 -2.5946909201e+00 1.4980455012e+00 2.5946909201e+00 
50800 4.6923609538e+00 2.7291523306e-04 1.4980363035e+00 -2.5946749893e+00 1.4980363035e+00 2.5946749893e+00 
50900 4.6923609304e+00 2.7028685015e-04 1.4980271945e+00 -2.5946592119e+00 1.4980271945e+00 2.5946592119e+00 
51000 4.6923609075e+00 2.6768423644e-04 1.4980181730e+00 -2.5946435864e+00 1.4980181730e+00 2.5946435864e+00 
51100 4.6923608850e+00 2.6510713148e-04 1.4980092384e+00 -2.5946281112e+00 1.4980092384e+00 2.5946281112e+00 
51200 4.6923608630e+00 2.6255527759e-04 1.4980003898e+00 -2.5946127849e+00 1.4980003898e+00 2.5946127849e+00 
51300 4.6923608413e+00 2.6002841977e-04 1.4979916263e+00 -2.5945976060e+00 1.4979916263e+00 2.5945976060e+00 
51400 4.6923608201e+00 2.5752630577e-04 1.4979829470e+00 -2.5945825732e+00 1.4979829470e+00 2.5945825732e+00 
51500 4.6923607993e+00 2.5504868598e-04 1.4979743513e+00 -2.5945676849e+00 1.4979743513e+00 2.5945676849e+00 
51600 4.6923607789e+00 2.5259531344e-04 1.4979658382e+00 -2.5945529397e+00 1.4979658382e+00 2.5945529397e+00 
51700 4.6923607589e+00 2.5016594378e-04 1.4979574069e+00 -2.5945383363e+00 1.4979574069e+00 2.5945383363e+00 
51800 4.6923607393e+00 2.4776033522e-04 1.4979490567e+00 -2.5945238733e+00 1.4979490567e+00 2.5945238733e+00 
51900 4.6923607200e+00 2.4537824853e-04 1.4979407867e+00 -2.5945095493e+00 1.4979407867e+00 2.5945095493e+00 
52000 4.6923607011e+00 2.4301944701e-04 1.4979325962e+00 -2.5944953629e+00 1.4979325962e+00 2.5944953629e+00 
52100 4.6923606826e+00 2.4068369644e-04 1.4979244844e+00 -2.5944813128e+00 1.4979244844e+00 2.5944813128e+00 
52200 4.6923606645e+00 2.3837076507e-04 1.4979164505e+00 -2.5944673977e+00 1.4979164505e+00 2.5944673977e+00 
52300 4.6923606467e+00 2.3608042358e-04 1.4979084937e+00 -2.5944536162e+00 1.4979084937e+00 2.5944536162e+00 
52400 4.6923606292e+00 2.3381244507e-04 1.4979006134e+00 -2.5944399671e+00 1.4979006134e+00 2.5944399671e+00 
52500 4.6923606121e+00 2.3156660502e-04 1.4978928087e+00 -2.5944264490e+00 1.4978928087e+00 2.5944264490e+00 
52600 4.6923605953e+00 2.2934268128e-04 1.4978850790e+00 -2.5944130607e+00 1.4978850790e+00 2.5944130607e+00 
52700 4.6923605788e+00 2.2714045400e-04 1.4978774235e+00 -2.5943998009e+00 1.4978774235e+00 2.5943998009e+00 
52800 4.6923605627e+00 2.2495970566e-04 1.4978698414e+00 -2.5943866684e+00 1.4978698414e+00 2.5943866684e+00 
52900 4.6923605468e+00 2.2280022102e-04 1.4978623321e+00 -2.5943736619e+00 1.4978623321e+00 2.5943736619e+00 
53000 4.6923605313e+00 2.2066178707e-04 1.4978548948e+00 -2.5943607802e+00 1.4978548948e+00 2.5943607802e+00 
53100 4.6923605160e+00 2.1854419306e-04 1.4978475289e+00 -2.5943480220e+00 1.4978475289e+00 2.5943480220e+00 
53200 4.6923605011e+00 2.1644723041e-04 1.4978402336e+00 -2.5943353862e+00 1.4978402336e+00 2.5943353862e+00 
53300 4.6923604864e+00 2.1437069275e-04 1.4978330083e+00 -2.5943228716e+00 1.4978330083e+00 2.5943228716e+00 
53400 4.6923604721e+00 2.1231437585e-04 1.4978258523e+00 -2.5943104771e+00 1.4978258523e+00 2.5943104771e+00 
53500 4.6923604580e+00 2.1027807761e-04 1.4978187649e+00 -2.5942982013e+00 1.4978187649e+00 2.5942982013e+00 
53600 4.6923604441e+00 2.0826159804e-04 1.4978117454e+00 -2.5942860432e+00 1.4978117454e+00 2.5942860432e+00 
53700 4.6923604306e+00 2.0626473924e-04 1.4978047932e+00 -2.5942740017e+00 1.4978047932e+00 2.5942740017e+00 
53800 4.6923604173e+00 2.0428730536e-04 1.4977979077e+00 -2.5942620755e+00 1.4977979077e+00 2.5942620755e+00 
53900 4.6923604042e+00 2.0232910259e-04 1.4977910881e+00 -2.5942502637e+00 1.4977910881e+00 2.5942502637e+00 
54000 4.6923603914e+00 2.0038993915e-04 1.4977843338e+00 -2.5942385650e+00 1.4977843338e+00 2.5942385650e+00 
54100 4.6923603789e+00 1.9846962525e-04 1.4977776443e+00 -2.5942269783e+00 1.4977776443e+00 2.5942269783e+00 
54200 4.6923603666e+00 1.9656797304e-04 1.4977710188e+00 -2.5942155027e+00 1.4977710188e+00 2.5942155027e+00 
54300 4.6923603545e+00 1.9468479667e-04 1.4977644568e+00 -2.5942041370e+00 1.4977644568e+00 2.5942041370e+00 
54400 4.6923603427e+00 1.9281991218e-04 1.4977579576e+00 -2.5941928801e+00 1.4977579576e+00 2.5941928801e+00 
54500 4.6923603311e+00 1.9097313753e-04 1.4977515207e+00 -2.5941817309e+00 1.4977515207e+00 2.5941817309e+00 
54600 4.6923603197e+00 1.8914429258e-04 1.4977451454e+00 -2.5941706886e+00 1.4977451454e+00 2.5941706886e+00 
54700 4.6923603086e+00 1.8733319902e-04 1.4977388311e+00 -2.5941597519e+00 1.4977388311e+00 2.5941597519e+00 
54800 4.6923602976e+00 1.8553968042e-04 1.4977325772e+00 -2.5941489199e+00 1.4977325772e+00 2.5941489199e+00 
54900 4.6923602869e+00 1.8376356216e-04 1.4977263832e+00 -2.5941381915e+00 1.4977263832e+00 2.5941381915e+00 
55000 4.6923602763e+00 1.8200467143e-04 1.4977202484e+00 -2.5941275658e+00 1.4977202484e+00 2.5941275658e+00 
55100 4.6923602660e+00 1.8026283719e-04 1.4977141724e+00 -2.5941170418e+00 1.4977141724e+00 2.5941170418e+00 
55200 4.6923602559e+00 1.7853789017e-04 1.4977081545e+00 -2.5941066184e+00 1.4977081545e+00 2.5941066184e+00 
55300 4.6923602460e+00 1.7682966287e-04 1.4977021941e+00 -2.5940962948e+00 1.4977021941e+00 2.5940962948e+00 
55400 4.6923602362e+00 1.7513798949e-04 1.4976962907e+00 -2.5940860699e+00 1.4976962907e+00 2.5940860699e+00 
55500 4.6923602267e+00 1.7346270594e-04 1.4976904438e+00 -2.5940759427e+00 1.4976904438e+00 2.5940759427e+00 
55600 4.6923602173e+00 1.7180364984e-04 1.4976846528e+00 -2.5940659124e+00 1.4976846528e+00 2.5940659124e+00 
55700 4.6923602081e+00 1.7016066045e-04 1.4976789172e+00 -2.5940559780e+00 1.4976789172e+00 2.5940559780e+00 
55800 4.6923601991e+00 1.6853357871e-04 1.4976732364e+00 -2.5940461385e+00 1.4976732364e+00 2.5940461385e+00 
55900 4.6923601903e+00 1.6692224718e-04 1.4976676099e+00 -2.5940363931e+00 1.4976676099e+00 2.5940363931e+00 
56000 4.6923601816e+00 1.6532651004e-04 1.4976620371e+00 -2.5940267409e+00 1.4976620371e+00 2.5940267409e+00 
56100 4.6923601731e+00 1.6374621307e-04 1.4976565176e+00 -2.5940171808e+00 1.4976565176e+00 2.5940171808e+00 
56200 4.6923601648e+00 1.6218120363e-04 1.4976510509e+00 -2.5940077122e+00 1.4976510509e+00 2.5940077122e+00 
56300 4.6923601566e+00 1.6063133065e-04 1.4976456364e+00 -2.5939983339e+00 1.4976456364e+00 2.5939983339e+00 
56400 4.6923601486e+00 1.5909644461e-04 1.4976402736e+00 -2.5939890453e+00 1.4976402736e+00 2.5939890453e+00 
56500 4.6923601407e+00 1.5757639750e-04 1.4976349620e+00 -2.5939798454e+00 1.4976349620e+00 2.5939798454e+00 
56600 4.6923601330e+00 1.5607104286e-04 1.4976297012e+00 -2.5939707334e+00 1.4976297012e+00 2.5939707334e+00 
56700 4.6923601255e+00 1.5458023569e-04 1.4976244906e+00 -2.5939617084e+00 1.4976244906e+00 2.5939617084e+00 
56800 4.6923601181e+00 1.5310383250e-04 1.4976193297e+00 -2.5939527695e+00 1.4976193297e+00 2.5939527695e+00 
56900 4.6923601108e+00 1.5164169125e-04 1.4976142182e+00 -2.5939439160e+00 1.4976142182e+00 2.5939439160e+00 
57000 4.6923601037e+00 1.5019367135e-04 1.4976091554e+00 -2.5939351470e+00 1.4976091554e+00 2.5939351470e+00 
57100 4.6923600967e+00 1.4875963367e-04 1.4976041410e+00 -2.5939264618e+00 1.4976041410e+00 2.5939264618e+00 
57200 4.6923600898e+00 1.4733944046e-04 1.4975991744e+00 -2.5939178594e+00 1.4975991744e+00 2.5939178594e+00 
57300 4.6923600831e+00 1.4593295540e-04 1.4975942552e+00 -2.5939093391e+00 1.4975942552e+00 2.5939093391e+00 
57400 4.6923600765e+00 1.4454004355e-04 1.4975893829e+00 -2.5939009001e+00 1.4975893829e+00 2.5939009001e+00 
57500 4.6923600700e+00 1.4316057135e-04 1.4975845572e+00 -2.5938925417e+00 1.4975845572e+00 2.5938925417e+00 
57600 4.6923600637e+00 1.4179440659e-04 1.4975797775e+00 -2.5938842630e+00 1.4975797775e+00 2.5938842630e+00 
57700 4.6923600575e+00 1.4044141840e-04 1.4975750434e+00 -2.5938760632e+00 1.4975750434e+00 2.5938760632e+00 
57800 4.6923600514e+00 1.3910147726e-04 1.4975703544e+00 -2.5938679417e+00 1.4975703544e+00 2.5938679417e+00 
57900 4.6923600454e+00 1.3777445495e-04 1.4975657102e+00 -2.5938598977e+00 1.4975657102e+00 2.5938598977e+00 
58000 4.6923600395e+00 1.3646022455e-04 1.4975611102e+00 -2.5938519303e+00 1.4975611102e+00 2.5938519303e+00 
58100 4.6923600338e+00 1.3515866044e-04 1.4975565541e+00 -2.5938440390e+00 1.4975565541e+00 2.5938440390e+00 
58200 4.6923600281e+00 1.3386963826e-04 1.4975520415e+00 -2.5938362229e+00 1.4975520415e+00 2.5938362229e+00 
58300 4.6923600226e+00 1.3259303492e-04 1.4975475719e+00 -2.5938284813e+00 1.4975475719e+00 2.5938284813e+00 
58400 4.6923600172e+00 1.3132872858e-04 1.4975431449e+00 -2.5938208135e+00 1.4975431449e+00 2.5938208135e+00 
58500 4.6923600118e+00 1.3007659862e-04 1.4975387601e+00 -2.5938132188e+00 1.4975387601e+00 2.5938132188e+00 
58600 4.6923600066e+00 1.2883652564e-04 1.4975344171e+00 -2.5938056964e+00 1.4975344171e+00 2.5938056964e+00 
58700 4.6923600015e+00 1.2760839147e-04 1.4975301154e+00 -2.5937982458e+00 1.4975301154e+00 2.5937982458e+00 
58800 4.6923599965e+00 1.2639207912e-04 1.4975258548e+00 -2.5937908662e+00 1.4975258548e+00 2.5937908662e+00 
58900 4.6923599916e+00 1.2518747277e-04 1.4975216348e+00 -2.5937835569e+00 1.4975216348e+00 2.5937835569e+00 
59000 4.6923599867e+00 1.2399445779e-04 1.4975174550e+00 -2.5937763172e+00 1.4975174550e+00 2.5937763172e+00 
59100 4.6923599820e+00 1.2281292070e-04 1.4975133150e+00 -2.5937691465e+00 1.4975133150e+00 2.5937691465e+00 
59200 4.6923599774e+00 1.2164274915e-04 1.4975092144e+00 -2.5937620442e+00 1.4975092144e+00 2.5937620442e+00 
59300 4.6923599728e+00 1.2048383195e-04 1.4975051529e+00 -2.5937550094e+00 1.4975051529e+00 2.5937550094e+00 
59400 4.6923599684e+00 1.1933605901e-04 1.4975011301e+00 -2.5937480417e+00 1.4975011301e+00 2.5937480417e+00 
59500 4.6923599640e+00 1.1819932135e-04 1.4974971456e+00 -2.5937411404e+00 1.4974971456e+00 2.5937411404e+00 
59600 4.6923599597e+00 1.1707351109e-04 1.4974931990e+00 -2.5937343047e+00 1.4974931990e+00 2.5937343047e+00 
59700 4.6923599555e+00 1.1595852145e-04 1.4974892900e+00 -2.5937275342e+00 1.4974892900e+00 2.5937275342e+00 
59800 4.6923599514e+00 1.1485424671e-04 1.4974854183e+00 -2.5937208281e+00 1.4974854183e+00 2.5937208281e+00 
59900 4.6923599473e+00 1.1376058220e-04 1.4974815834e+00 -2.5937141858e+00 1.4974815834e+00 2.5937141858e+00 
60000 4.6923599433e+00 1.1267742432e-04 1.4974777850e+00 -2.5937076068e+00 1.4974777850e+00 2.5937076068e+00 
60100 4.6923599394e+00 1.1160467051e-04 1.4974740228e+00 -2.5937010904e+00 1.4974740228e+00 2.5937010904e+00 
60200 4.6923599356e+00 1.1054221923e-04 1.4974702963e+00 -2.5936946361e+00 1.4974702963e+00 2.5936946361e+00 
60300 4.6923599319e+00 1.0948996997e-04 1.4974666054e+00 -2.5936882431e+00 1.4974666054e+00 2.5936882431e+00 
60400 4.6923599282e+00 1.0844782322e-04 1.4974629495e+00 -2.5936819110e+00 1.4974629495e+00 2.5936819110e+00 
60500 4.6923599246e+00 1.0741568047e-04 1.4974593285e+00 -2.5936756392e+00 1.4974593285e+00 2.5936756392e+00 
60600 4.6923599211e+00 1.0639344419e-04 1.4974557419e+00 -2.5936694270e+00 1.4974557419e+00 2.5936694270e+00 
60700 4.6923599176e+00 1.0538101783e-04 1.4974521894e+00 -2.5936632739e+00 1.4974521894e+00 2.5936632739e+00 
60800 4.6923599142e+00 1.0437830582e-04 1.4974486707e+00 -2.5936571794e+00 1.4974486707e+00 2.5936571794e+00 
60900 4.6923599109e+00 1.0338521353e-04 1.4974451855e+00 -2.5936511429e+00 1.4974451855e+00 2.5936511429e+00 
61000 4.6923599076e+00 1.0240164728e-04 1.4974417335e+00 -2.5936451637e+00 1.4974417335e+00 2.5936451637e+00 
61100 4.6923599044e+00 1.0142751433e-04 1.4974383143e+00 -2.5936392415e+00 1.4974383143e+00 2.5936392415e+00 
61200 4.6923599013e+00 1.0046272286e-04 1.4974349276e+00 -2.5936333755e+00 1.4974349276e+00 2.5936333755e+00 
61300 4.6923598982e+00 9.9507181971e-05 1.4974315731e+00 -2.5936275654e+00 1.4974315731e+00 2.5936275654e+00 
61400 4.6923598952e+00 9.8560801676e-05 1.4974282505e+00 -2.5936218105e+00 1.4974282505e+00 2.5936218105e+00 
61500 4.6923598923e+00 9.7623492882e-05 1.4974249595e+00 -2.5936161103e+00 1.4974249595e+00 2.5936161103e+00 
61600 4.6923598894e+00 9.6695167380e-05 1.4974216998e+00 -2.5936104643e+00 1.4974216998e+00 2.5936104643e+00 
61700 4.6923598865e+00 9.5775737847e-05 1.4974184710e+00 -2.5936048720e+00 1.4974184710e+00 2.5936048720e+00 
61800 4.6923598837e+00 9.4865117826e-05 1.4974152730e+00 -2.5935993329e+00 1.4974152730e+00 2.5935993329e+00 
61900 4.6923598810e+00 9.3963221722e-05 1.4974121054e+00 -2.5935938464e+00 1.4974121054e+00 2.5935938464e+00 
62000 4.6923598783e+00 9.3069964795e-05 1.4974089679e+00 -2.5935884120e+00 1.4974089679e+00 2.5935884120e+00 
62100 4.6923598757e+00 9.2185263145e-05 1.4974058602e+00 -2.5935830293e+00 1.4974058602e+00 2.5935830293e+00 
62200 4.6923598731e+00 9.1309033708e-05 1.4974027820e+00 -2.5935776978e+00 1.4974027820e+00 2.5935776978e+00 
62300 4.6923598706e+00 9.0441194245e-05 1.4973997331e+00 -2.5935724169e+00 1.4973997331e+00 2.5935724169e+00 
62400 4.6923598681e+00 8.9581663337e-05 1.4973967131e+00 -2.5935671862e+00 1.4973967131e+00 2.5935671862e+00 
62500 4.6923598657e+00 8.8730360371e-05 1.4973937219e+00 -2.5935620053e+00 1.4973937219e+00 2.5935620053e+00 
62600 4.6923598633e+00 8.7887205536e-05 1.4973907591e+00 -2.5935568735e+00 1.4973907591e+00 2.5935568735e+00 
62700 4.6923598609e+00 8.7052119813e-05 1.4973878244e+00 -2.5935517905e+00 1.4973878244e+00 2.5935517905e+00 
62800 4.6923598586e+00 8.6225024968e-05 1.4973849176e+00 -2.5935467558e+00 1.4973849176e+00 2.5935467558e+00 
62900 4.6923598564e+00 8.5405843542e-05 1.4973820384e+00 -2.5935417689e+00 1.4973820384e+00 2.5935417689e+00 
63000 4.6923598542e+00 8.4594498845e-05 1.4973791866e+00 -2.5935368293e+00 1.4973791866e+00 2.5935368293e+00 
63100 4.6923598520e+00 8.3790914946e-05 1.4973763618e+00 -2.5935319367e+00 1.4973763618e+00 2.5935319367e+00 
63200 4.6923598499e+00 8.2995016667e-05 1.4973735639e+00 -2.5935270906e+00 1.4973735639e+00 2.5935270906e+00 
63300 4.6923598478e+00 8.2206729576e-05 1.4973707925e+00 -2.5935222905e+00 1.4973707925e+00 2.5935222905e+00 
63400 4.6923598458e+00 8.1425979975e-05 1.4973680475e+00 -2.5935175359e+00 1.4973680475e+00 2.5935175359e+00 
63500 4.6923598438e+00 8.0652694898e-05 1.4973653285e+00 -2.5935128265e+00 1.4973653285e+00 2.5935128265e+00 
63600 4.6923598418e+00 7.9886802099e-05 1.4973626354e+00 -2.5935081618e+00 1.4973626354e+00 2.5935081618e+00 
63700 4.6923598399e+00 7.9128230049e-05 1.4973599678e+00 -2.5935035415e+00 1.4973599678e+00 2.5935035415e+00 
63800 4.6923598380e+00 7.8376907922e-05 1.4973573255e+00 -2.5934989649e+00 1.4973573255e+00 2.5934989649e+00 
63900 4.6923598362e+00 7.7632765596e-05 1.4973547084e+00 -2.5934944318e+00 1.4973547084e+00 2.5934944318e+00 
64000 4.6923598344e+00 7.6895733640e-05 1.4973521160e+00 -2.5934899418e+00 1.4973521160e+00 2.5934899418e+00 
64100 4.6923598326e+00 7.6165743308e-05 1.4973495483e+00 -2.5934854944e+00 1.4973495483e+00 2.5934854944e+00 
64200 4.6923598309e+00 7.5442726534e-05 1.4973470050e+00 -2.5934810892e+00 1.4973470050e+00 2.5934810892e+00 
64300 4.6923598291e+00 7.4726615922e-05 1.4973444858e+00 -2.5934767258e+00 1.4973444858e+00 2.5934767258e+00 
64400 4.6923598275e+00 7.4017344743e-05 1.4973419904e+00 -2.5934724038e+00 1.4973419904e+00 2.5934724038e+00 
64500 4.6923598258e+00 7.3314846924e-05 1.4973395188e+00 -2.5934681228e+00 1.4973395188e+00 2.5934681228e+00 
64600 4.6923598242e+00 7.2619057046e-05 1.4973370707e+00 -2.5934638824e+00 1.4973370707e+00 2.5934638824e+00 
64700 4.6923598226e+00 7.1929910330e-05 1.4973346457e+00 -2.5934596823e+00 1.4973346457e+00 2.5934596823e+00 
64800 4.6923598211e+00 7.1247342640e-05 1.4973322438e+00 -2.5934555220e+00 1.4973322438e+00 2.5934555220e+00 
64900 4.6923598196e+00 7.0571290469e-05 1.4973298646e+00 -2.5934514013e+00 1.4973298646e+00 2.5934514013e+00 
65000 4.6923598183e+00 7.1038119328e-05 1.4973298646e+00 -2.5934514013e+00 1.4973298646e+00 2.5934514013e+00 
65100 4.6923598169e+00 7.0364044802e-05 1.4973274925e+00 -2.5934472926e+00 1.4973274925e+00 2.5934472926e+00 
65200 4.6923598156e+00 7.0829000866e-05 1.4973274925e+00 -2.5934472926e+00 1.4973274925e+00 2.5934472926e+00 
65300 4.6923598142e+00 7.0156001532e-05 1.4973251273e+00 -2.5934431959e+00 1.4973251273e+00 2.5934431959e+00 
65400 4.6923598131e+00 7.0618250719e-05 1.4973251273e+00 -2.5934431959e+00 1.4973251273e+00 2.5934431959e+00 
65500 4.6923598119e+00 7.1082700369e-05 1.4973251273e+00 -2.5934431959e+00 1.4973251273e+00 2.5934431959e+00 
65600 4.6923598106e+00 7.0404376039e-05 1.4973227536e+00 -2.5934390846e+00 1.4973227536e+00 2.5934390846e+00 
65700 4.6923598095e+00 7.0864603096e-05 1.4973227536e+00 -2.5934390846e+00 1.4973227536e+00 2.5934390846e+00 
65800 4.6923598082e+00 7.0185313759e-05 1.4973203873e+00 -2.5934349860e+00 1.4973203873e+00 2.5934349860e+00 
65900 4.6923598072e+00 7.0640806452e-05 1.4973203873e+00 -2.5934349860e+00 1.4973203873e+00 2.5934349860e+00 
66000 4.6923598062e+00 7.1097594155e-05 1.4973203873e+00 -2.5934349860e+00 1.4973203873e+00 2.5934349860e+00 
66100 4.6923598049e+00 7.0410585963e-05 1.4973180131e+00 -2.5934308738e+00 1.4973180131e+00 2.5934308738e+00 
66200 4.6923598040e+00 7.0861526409e-05 1.4973180131e+00 -2.5934308738e+00 1.4973180131e+00 2.5934308738e+00 
66300 4.6923598028e+00 7.0172331602e-05 1.4973156468e+00 -2.5934267753e+00 1.4973156468e+00 2.5934267753e+00 
66400 4.6923598018e+00 7.0617137680e-05 1.4973156468e+00 -2.5934267753e+00 1.4973156468e+00 2.5934267753e+00 
66500 4.6923598009e+00 7.1062612839e-05 1.4973156468e+00 -2.5934267753e+00 1.4973156468e+00 2.5934267753e+00 
66600 4.6923597998e+00 7.0364330233e-05 1.4973132738e+00 -2.5934226651e+00 1.4973132738e+00 2.5934226651e+00 
66700 4.6923597989e+00 7.0802842282e-05 1.4973132738e+00 -2.5934226651e+00 1.4973132738e+00 2.5934226651e+00 
66800 4.6923597978e+00 7.0101718697e-05 1.4973109095e+00 -2.5934185700e+00 1.4973109095e+00 2.5934185700e+00 
66900 4.6923597970e+00 7.0533140608e-05 1.4973109095e+00 -2.5934185700e+00 1.4973109095e+00 2.5934185700e+00 
67000 4.6923597962e+00 7.0964803393e-05 1.4973109095e+00 -2.5934185700e+00 1.4973109095e+00 2.5934185700e+00 
67100 4.6923597951e+00 7.0253939808e-05 1.4973085398e+00 -2.5934144655e+00 1.4973085398e+00 2.5934144655e+00 
67200 4.6923597944e+00 7.0677888768e-05 1.4973085398e+00 -2.5934144655e+00 1.4973085398e+00 2.5934144655e+00 
67300 4.6923597936e+00 7.1101809773e-05 1.4973085398e+00 -2.5934144655e+00 1.4973085398e+00 2.5934144655e+00 
67400 4.6923597926e+00 7.0380780935e-05 1.4973061654e+00 -2.5934103530e+00 1.4973061654e+00 2.5934103530e+00 
67500 4.6923597919e+00 7.0796495831e-05 1.4973061654e+00 -2.5934103530e+00 1.4973061654e+00 2.5934103530e+00 
67600 4.6923597909e+00 7.0072210286e-05 1.4973038013e+00 -2.5934062582e+00 1.4973038013e+00 2.5934062582e+00 
67700 4.6923597902e+00 7.0479783664e-05 1.4973038013e+00 -2.5934062582e+00 1.4973038013e+00 2.5934062582e+00 
67800 4.6923597895e+00 7.0887134824e-05 1.4973038013e+00 -2.5934062582e+00 1.4973038013e+00 2.5934062582e+00 
67900 4.6923597886e+00 7.0152863678e-05 1.4973014342e+00 -2.5934021582e+00 1.4973014342e+00 2.5934021582e+00 
68000 4.6923597880e+00 7.0551696626e-05 1.4973014342e+00 -2.5934021582e+00 1.4973014342e+00 2.5934021582e+00 
68100 4.6923597873e+00 7.0950147369e-05 1.4973014342e+00 -2.5934021582e+00 1.4973014342e+00 2.5934021582e+00 
68200 4.6923597865e+00 7.0205843364e-05 1.4972990649e+00 -2.5933980545e+00 1.4972990649e+00 2.5933980545e+00 
68300 4.6923597858e+00 7.0595490585e-05 1.4972990649e+00 -2.5933980545e+00 1.4972990649e+00 2.5933980545e+00 
68400 4.6923597852e+00 7.0984635650e-05 1.4972990649e+00 -2.5933980545e+00 1.4972990649e+00 2.5933980545e+00 
68500 4.6923597844e+00 7.0230389378e-05 1.4972966945e+00 -2.5933939488e+00 1.4972966945e+00 2.5933939488e+00 
68600 4.6923597838e+00 7.0610521592e-05 1.4972966945e+00 -2.5933939488e+00 1.4972966945e+00 2.5933939488e+00 
68700 4.6923597833e+00 7.0990064792e-05 1.4972966945e+00 -2.5933939488e+00 1.4972966945e+00 2.5933939488e+00 
68800 4.6923597825e+00 7.0226078056e-05 1.4972943239e+00 -2.5933898428e+00 1.4972943239e+00 2.5933898428e+00 
68900 4.6923597819e+00 7.0596462608e-05 1.4972943239e+00 -2.5933898428e+00 1.4972943239e+00 2.5933898428e+00 
69000 4.6923597814e+00 7.0966198741e-05 1.4972943239e+00 -2.5933898428e+00 1.4972943239e+00 2.5933898428e+00 
69100 4.6923597807e+00 7.0192762872e-05 1.4972919540e+00 -2.5933857382e+00 1.4972919540e+00 2.5933857382e+00 
69200 4.6923597801e+00 7.0553247930e-05 1.4972919540e+00 -2.5933857382e+00 1.4972919540e+00 2.5933857382e+00 
69300 4.6923597797e+00 7.0913048009e-05 1.4972919540e+00 -2.5933857382e+00 1.4972919540e+00 2.5933857382e+00 
69400 4.6923597789e+00 7.0130526070e-05 1.4972895860e+00 -2.5933816366e+00 1.4972895860e+00 2.5933816366e+00 
69500 4.6923597785e+00 7.0481027645e-05 1.4972895860e+00 -2.5933816366e+00 1.4972895860e+00 2.5933816366e+00 
69600 4.6923597780e+00 7.0830826720e-05 1.4972895860e+00 -2.5933816366e+00 1.4972895860e+00 2.5933816366e+00 
69700 4.6923597773e+00 7.0039638790e-05 1.4972872207e+00 -2.5933775398e+00 1.4972872207e+00 2.5933775398e+00 
69800 4.6923597769e+00 7.0380129960e-05 1.4972872207e+00 -2.5933775398e+00 1.4972872207e+00 2.5933775398e+00 
69900 4.6923597764e+00 7.0719916982e-05 1.4972872207e+00 -2.5933775398e+00 1.4972872207e+00 2.5933775398e+00 
70000 4.6923597758e+00 6.9920527906e-05 1.4972848591e+00 -2.5933734494e+00 1.4972848591e+00 2.5933734494e+00 
70100 4.6923597754e+00 7.0251029802e-05 1.4972848591e+00 -2.5933734494e+00 1.4972848591e+00 2.5933734494e+00 
70200 4.6923597750e+00 7.0580839110e-05 1.4972848591e+00 -2.5933734494e+00 1.4972848591e+00 2.5933734494e+00 
70300 4.6923597746e+00 7.0909813016e-05 1.4972848591e+00 -2.5933734494e+00 1.4972848591e+00 2.5933734494e+00 
70400 4.6923597739e+00 7.0096467907e-05 1.4972824912e+00 -2.5933693480e+00 1.4972824912e+00 2.5933693480e+00 
70500 4.6923597736e+00 7.0415917784e-05 1.4972824912e+00 -2.5933693480e+00 1.4972824912e+00 2.5933693480e+00 
70600 4.6923597732e+00 7.0734586573e-05 1.4972824912e+00 -2.5933693480e+00 1.4972824912e+00 2.5933693480e+00 
70700 4.6923597726e+00 6.9913832848e-05 1.4972801291e+00 -2.5933652567e+00 1.4972801291e+00 2.5933652567e+00 
70800 4.6923597722e+00 7.0223108336e-05 1.4972801291e+00 -2.5933652567e+00 1.4972801291e+00 2.5933652567e+00 
70900 4.6923597719e+00 7.0531659620e-05 1.4972801291e+00 -2.5933652567e+00 1.4972801291e+00 2.5933652567e+00 
71000 4.6923597715e+00 7.0839357065e-05 1.4972801291e+00 -2.5933652567e+00 1.4972801291e+00 2.5933652567e+00 
71100 4.6923597710e+00 7.0005911694e-05 1.4972777635e+00 -2.5933611593e+00 1.4972777635e+00 2.5933611593e+00 
71200 4.6923597707e+00 7.0304091857e-05 1.4972777635e+00 -2.5933611593e+00 1.4972777635e+00 2.5933611593e+00 
71300 4.6923597703e+00 7.0601506758e-05 1.4972777635e+00 -2.5933611593e+00 1.4972777635e+00 2.5933611593e+00 
71400 4.6923597700e+00 7.0898035677e-05 1.4972777635e+00 -2.5933611593e+00 1.4972777635e+00 2.5933611593e+00 
71500 4.6923597695e+00 7.0052479906e-05 1.4972753959e+00 -2.5933570586e+00 1.4972753959e+00 2.5933570586e+00 
71600 4.6923597692e+00 7.0339445419e-05 1.4972753959e+00 -2.5933570586e+00 1.4972753959e+00 2.5933570586e+00 
71700 4.6923597689e+00 7.0625637126e-05 1.4972753959e+00 -2.5933570586e+00 1.4972753959e+00 2.5933570586e+00 
71800 4.6923597686e+00 7.0910941007e-05 1.4972753959e+00 -2.5933570586e+00 1.4972753959e+00 2.5933570586e+00 
71900 4.6923597681e+00 7.0053982077e-05 1.4972730279e+00 -2.5933529571e+00 1.4972730279e+00 2.5933529571e+00 
72000 4.6923597678e+00 7.0329735833e-05 1.4972730279e+00 -2.5933529571e+00 1.4972730279e+00 2.5933529571e+00 
72100 4.6923597676e+00 7.0604731528e-05 1.4972730279e+00 -2.5933529571e+00 1.4972730279e+00 2.5933529571e+00 
72200 4.6923597673e+00 7.0878860210e-05 1.4972730279e+00 -2.5933529571e+00 1.4972730279e+00 2.5933529571e+00 
72300 4.6923597668e+00 7.0011291943e-05 1.4972706610e+00 -2.5933488575e+00 1.4972706610e+00 2.5933488575e+00 
72400 4.6923597666e+00 7.0275929370e-05 1.4972706610e+00 -2.5933488575e+00 1.4972706610e+00 2.5933488575e+00 
72500 4.6923597663e+00 7.0539842606e-05 1.4972706610e+00 -2.5933488575e+00 1.4972706610e+00 2.5933488575e+00 
72600 4.6923597661e+00 7.0802926549e-05 1.4972706610e+00 -2.5933488575e+00 1.4972706610e+00 2.5933488575e+00 
72700 4.6923597656e+00 6.9925599798e-05 1.4972682966e+00 -2.5933447622e+00 1.4972682966e+00 2.5933447622e+00 
72800 4.6923597654e+00 7.0179286450e-05 1.4972682966e+00 -2.5933447622e+00 1.4972682966e+00 2.5933447622e+00 
72900 4.6923597652e+00 7.0432296226e-05 1.4972682966e+00 -2.5933447622e+00 1.4972682966e+00 2.5933447622e+00 
73000 4.6923597650e+00 7.0684526955e-05 1.4972682966e+00 -2.5933447622e+00 1.4972682966e+00 2.5933447622e+00 
73100 4.6923597647e+00 7.0935884481e-05 1.4972682966e+00 -2.5933447622e+00 1.4972682966e+00 2.5933447622e+00 
73200 4.6923597643e+00 7.0044685886e-05 1.4972659277e+00 -2.5933406592e+00 1.4972659277e+00 2.5933406592e+00 
73300 4.6923597641e+00 7.0286573913e-05 1.4972659277e+00 -2.5933406592e+00 1.4972659277e+00 2.5933406592e+00 
73400 4.6923597639e+00 7.0527770114e-05 1.4972659277e+00 -2.5933406592e+00 1.4972659277e+00 2.5933406592e+00 
73500 4.6923597637e+00 7.0768180301e-05 1.4972659277e+00 -2.5933406592e+00 1.4972659277e+00 2.5933406592e+00 
73600 4.6923597633e+00 6.9868840974e-05 1.4972635645e+00 -2.5933365660e+00 1.4972635645e+00 2.5933365660e+00 
73700 4.6923597631e+00 7.0099973730e-05 1.4972635645e+00 -2.5933365660e+00 1.4972635645e+00 2.5933365660e+00 
73800 4.6923597629e+00 7.0330500897e-05 1.4972635645e+00 -2.5933365660e+00 1.4972635645e+00 2.5933365660e+00 
73900 4.6923597627e+00 7.0560328394e-05 1.4972635645e+00 -2.5933365660e+00 1.4972635645e+00 2.5933365660e+00 
74000 4.6923597626e+00 7.0789369559e-05 1.4972635645e+00 -2.5933365660e+00 1.4972635645e+00 2.5933365660e+00 
74100 4.6923597622e+00 6.9878352143e-05 1.4972612005e+00 -2.5933324715e+00 1.4972612005e+00 2.5933324715e+00 
74200 4.6923597620e+00 7.0098133331e-05 1.4972612005e+00 -2.5933324715e+00 1.4972612005e+00 2.5933324715e+00 
74300 4.6923597618e+00 7.0317328032e-05 1.4972612005e+00 -2.5933324715e+00 1.4972612005e+00 2.5933324715e+00 
74400 4.6923597617e+00 7.0535847631e-05 1.4972612005e+00 -2.5933324715e+00 1.4972612005e+00 2.5933324715e+00 
74500 4.6923597615e+00 7.0753610517e-05 1.4972612005e+00 -2.5933324715e+00 1.4972612005e+00 2.5933324715e+00 
74600 4.6923597612e+00 6.9831948399e-05 1.4972588377e+00 -2.5933283791e+00 1.4972588377e+00 2.5933283791e+00 
74700 4.6923597610e+00 7.0040527948e-05 1.4972588377e+00 -2.5933283791e+00 1.4972588377e+00 2.5933283791e+00 
74800 4.6923597609e+00 7.0248563358e-05 1.4972588377e+00 -2.5933283791e+00 1.4972588377e+00 2.5933283791e+00 
74900 4.6923597607e+00 7.0455969697e-05 1.4972588377e+00 -2.5933283791e+00 1.4972588377e+00 2.5933283791e+00 
75000 4.6923597606e+00 7.0662668752e-05 1.4972588377e+00 -2.5933283791e+00 1.4972588377e+00 2.5933283791e+00 
75100 4.6923597604e+00 7.0868588512e-05 1.4972588377e+00 -2.5933283791e+00 1.4972588377e+00 2.5933283791e+00 
75200 4.6923597601e+00 6.9933246914e-05 1.4972564711e+00 -2.5933242800e+00 1.4972564711e+00 2.5933242800e+00 
75300 4.6923597600e+00 7.0129951940e-05 1.4972564711e+00 -2.5933242800e+00 1.4972564711e+00 2.5933242800e+00 
75400 4.6923597598e+00 7.0326115496e-05 1.4972564711e+00 -2.5933242800e+00 1.4972564711e+00 2.5933242800e+00 
75500 4.6923597597e+00 7.0521659569e-05 1.4972564711e+00 -2.5933242800e+00 1.4972564711e+00 2.5933242800e+00 
75600 4.6923597596e+00 7.0716512342e-05 1.4972564711e+00 -2.5933242800e+00 1.4972564711e+00 2.5933242800e+00 
75700 4.6923597592e+00 6.9772660018e-05 1.4972541096e+00 -2.5933201897e+00 1.4972541096e+00 2.5933201897e+00 
75800 4.6923597591e+00 6.9958490606e-05 1.4972541096e+00 -2.5933201897e+00 1.4972541096e+00 2.5933201897e+00 
75900 4.6923597590e+00 7.0143867317e-05 1.4972541096e+00 -2.5933201897e+00 1.4972541096e+00 2.5933201897e+00 
76000 4.6923597589e+00 7.0328712329e-05 1.4972541096e+00 -2.5933201897e+00 1.4972541096e+00 2.5933201897e+00 
76100 4.6923597588e+00 7.0512953990e-05 1.4972541096e+00 -2.5933201897e+00 1.4972541096e+00 2.5933201897e+00 
76200 4.6923597587e+00 7.0696526336e-05 1.4972541096e+00 -2.5933201897e+00 1.4972541096e+00 2.5933201897e+00 
76300 4.6923597586e+00 7.0879368645e-05 1.4972541096e+00 -2.5933201897e+00 1.4972541096e+00 2.5933201897e+00 
76400 4.6923597583e+00 6.9920885592e-05 1.4972517426e+00 -2.5933160899e+00 1.4972517426e+00 2.5933160899e+00 
76500 4.6923597582e+00 7.0094640969e-05 1.4972517426e+00 -2.5933160899e+00 1.4972517426e+00 2.5933160899e+00 
76600 4.6923597581e+00 7.0267933043e-05 1.4972517426e+00 -2.5933160899e+00 1.4972517426e+00 2.5933160899e+00 
76700 4.6923597580e+00 7.0440691952e-05 1.4972517426e+00 -2.5933160899e+00 1.4972517426e+00 2.5933160899e+00 
76800 4.6923597579e+00 7.0612853387e-05 1.4972517426e+00 -2.5933160899e+00 1.4972517426e+00 2.5933160899e+00 
76900 4.6923597578e+00 7.0784358156e-05 1.4972517426e+00 -2.5933160899e+00 1.4972517426e+00 2.5933160899e+00 
77000 4.6923597575e+00 6.9816163518e-05 1.4972493788e+00 -2.5933119957e+00 1.4972493788e+00 2.5933119957e+00 
77100 4.6923597574e+00 6.9978742241e-05 1.4972493788e+00 -2.5933119957e+00 1.4972493788e+00 2.5933119957e+00 
77200 4.6923597573e+00 7.0140934375e-05 1.4972493788e+00 -2.5933119957e+00 1.4972493788e+00 2.5933119957e+00 
77300 4.6923597572e+00 7.0302671186e-05 1.4972493788e+00 -2.5933119957e+00 1.4972493788e+00 2.5933119957e+00 
77400 4.6923597572e+00 7.0463889396e-05 1.4972493788e+00 -2.5933119957e+00 1.4972493788e+00 2.5933119957e+00 
77500 4.6923597571e+00 7.0624530758e-05 1.4972493788e+00 -2.5933119957e+00 1.4972493788e+00 2.5933119957e+00 
77600 4.6923597570e+00 7.0784541654e-05 1.4972493788e+00 -2.5933119957e+00 1.4972493788e+00 2.5933119957e+00 
77700 4.6923597567e+00 6.9804906308e-05 1.4972470150e+00 -2.5933079015e+00 1.4972470150e+00 2.5933079015e+00 
77800 4.6923597566e+00 6.9956058523e-05 1.4972470150e+00 -2.5933079015e+00 1.4972470150e+00 2.5933079015e+00 
77900 4.6923597566e+00 7.0106864537e-05 1.4972470150e+00 -2.5933079015e+00 1.4972470150e+00 2.5933079015e+00 
78000 4.6923597565e+00 7.0257259610e-05 1.4972470150e+00 -2.5933079015e+00 1.4972470150e+00 2.5933079015e+00 
78100 4.6923597564e+00 7.0407184135e-05 1.4972470150e+00 -2.5933079015e+00 1.4972470150e+00 2.5933079015e+00 
78200 4.6923597564e+00 7.0556583237e-05 1.4972470150e+00 -2.5933079015e+00 1.4972470150e+00 2.5933079015e+00 
78300 4.6923597563e+00 7.0705406401e-05 1.4972470150e+00 -2.5933079015e+00 1.4972470150e+00 2.5933079015e+00 
78400 4.6923597562e+00 7.0853607135e-05 1.4972470150e+00 -2.5933079015e+00 1.4972470150e+00 2.5933079015e+00 
78500 4.6923597560e+00 6.9861091440e-05 1.4972446489e+00 -2.5933038032e+00 1.4972446489e+00 2.5933038032e+00 
78600 4.6923597559e+00 7.0000461454e-05 1.4972446489e+00 -2.5933038032e+00 1.4972446489e+00 2.5933038032e+00 
78700 4.6923597558e+00 7.0139511880e-05 1.4972446489e+00 -2.5933038032e+00 1.4972446489e+00 2.5933038032e+00 
78800 4.6923597558e+00 7.0278183081e-05 1.4972446489e+00 -2.5933038032e+00 1.4972446489e+00 2.5933038032e+00 
78900 4.6923597557e+00 7.0416420153e-05 1.4972446489e+00 -2.5933038032e+00 1.4972446489e+00 2.5933038032e+00 
79000 4.6923597557e+00 7.0554172552e-05 1.4972446489e+00 -2.5933038032e+00 1.4972446489e+00 2.5933038032e+00 
79100 4.6923597556e+00 7.0691393752e-05 1.4972446489e+00 -2.5933038032e+00 1.4972446489e+00 2.5933038032e+00 
79200 4.6923597556e+00 7.0828040935e-05 1.4972446489e+00 -2.5933038032e+00 1.4972446489e+00 2.5933038032e+00 
79300 4.6923597553e+00 6.9824458981e-05 1.4972422836e+00 -2.5932997064e+00 1.4972422836e+00 2.5932997064e+00 
79400 4.6923597553e+00 6.9952384845e-05 1.4972422836e+00 -2.5932997064e+00 1.4972422836e+00 2.5932997064e+00 
79500 4.6923597552e+00 7.0080048735e-05 1.4972422836e+00 -2.5932997064e+00 1.4972422836e+00 2.5932997064e+00 
79600 4.6923597552e+00 7.0207393653e-05 1.4972422836e+00 -2.5932997064e+00 1.4972422836e+00 2.5932997064e+00 
79700 4.6923597551e+00 7.0334367122e-05 1.4972422836e+00 -2.5932997064e+00 1.4972422836e+00 2.5932997064e+00 
79800 4.6923597551e+00 7.0460920821e-05 1.4972422836e+00 -2.5932997064e+00 1.4972422836e+00 2.5932997064e+00 
79900 4.6923597550e+00 7.0587010266e-05 1.4972422836e+00 -2.5932997064e+00 1.4972422836e+00 2.5932997064e+00 
80000 4.6923597550e+00 7.0712594506e-05 1.4972422836e+00 -2.5932997064e+00 1.4972422836e+00 2.5932997064e+00 
80100 4.6923597547e+00 6.9699899572e-05 1.4972399222e+00 -2.5932956163e+00 1.4972399222e+00 2.5932956163e+00 
80200 4.6923597547e+00 6.9816917256e-05 1.4972399222e+00 -2.5932956163e+00 1.4972399222e+00 2.5932956163e+00 
80300 4.6923597546e+00 6.9933745773e-05 1.4972399222e+00 -2.5932956163e+00 1.4972399222e+00 2.5932956163e+00 
80400 4.6923597546e+00 7.0050329459e-05 1.4972399222e+00 -2.5932956163e+00 1.4972399222e+00 2.5932956163e+00 
80500 4.6923597546e+00 7.0166617041e-05 1.4972399222e+00 -2.5932956163e+00 1.4972399222e+00 2.5932956163e+00 
80600 4.6923597545e+00 7.0282561294e-05 1.4972399222e+00 -2.5932956163e+00 1.4972399222e+00 2.5932956163e+00 
80700 4.6923597545e+00 7.0398118716e-05 1.4972399222e+00 -2.5932956163e+00 1.4972399222e+00 2.5932956163e+00 
80800 4.6923597545e+00 7.0513249243e-05 1.4972399222e+00 -2.5932956163e+00 1.4972399222e+00 2.5932956163e+00 
80900 4.6923597544e+00 7.0627915976e-05 1.4972399222e+00 -2.5932956163e+00 1.4972399222e+00 2.5932956163e+00 
81000 4.6923597544e+00 7.0742084942e-05 1.4972399222e+00 -2.5932956163e+00 1.4972399222e+00 2.5932956163e+00 
81100 4.6923597541e+00 6.9717539730e-05 1.4972375597e+00 -2.5932915245e+00 1.4972375597e+00 2.5932915245e+00 
81200 4.6923597541e+00 6.9823172650e-05 1.4972375597e+00 -2.5932915245e+00 1.4972375597e+00 2.5932915245e+00 
81300 4.6923597541e+00 6.9928641761e-05 1.4972375597e+00 -2.5932915245e+00 1.4972375597e+00 2.5932915245e+00 
81400 4.6923597540e+00 7.0033896385e-05 1.4972375597e+00 -2.5932915245e+00 1.4972375597e+00 2.5932915245e+00 
81500 4.6923597540e+00 7.0138889835e-05 1.4972375597e+00 -2.5932915245e+00 1.4972375597e+00 2.5932915245e+00 
81600 4.6923597540e+00 7.0243579104e-05 1.4972375597e+00 -2.5932915245e+00 1.4972375597e+00 2.5932915245e+00 
81700 4.6923597540e+00 7.0347924571e-05 1.4972375597e+00 -2.5932915245e+00 1.4972375597e+00 2.5932915245e+00 
81800 4.6923597539e+00 7.0451889739e-05 1.4972375597e+00 -2.5932915245e+00 1.4972375597e+00 2.5932915245e+00 
81900 4.6923597539e+00 7.0555440989e-05 1.4972375597e+00 -2.5932915245e+00 1.4972375597e+00 2.5932915245e+00 
82000 4.6923597539e+00 7.0658547364e-05 1.4972375597e+00 -2.5932915245e+00 1.4972375597e+00 2.5932915245e+00 
82100 4.6923597539e+00 7.0761180363e-05 1.4972375597e+00 -2.5932915245e+00 1.4972375597e+00 2.5932915245e+00 
82200 4.6923597536e+00 6.9724846694e-05 1.4972351967e+00 -2.5932874315e+00 1.4972351967e+00 2.5932874315e+00 
82300 4.6923597536e+00 6.9819005146e-05 1.4972351967e+00 -2.5932874315e+00 1.4972351967e+00 2.5932874315e+00 
82400 4.6923597536e+00 6.9913038256e-05 1.4972351967e+00 -2.5932874315e+00 1.4972351967e+00 2.5932874315e+00 
82500 4.6923597535e+00 7.0006899277e-05 1.4972351967e+00 -2.5932874315e+00 1.4972351967e+00 2.5932874315e+00 
82600 4.6923597535e+00 7.0100545149e-05 1.4972351967e+00 -2.5932874315e+00 1.4972351967e+00 2.5932874315e+00 
82700 4.6923597535e+00 7.0193936201e-05 1.4972351967e+00 -2.5932874315e+00 1.4972351967e+00 2.5932874315e+00 
82800 4.6923597535e+00 7.0287035886e-05 1.4972351967e+00 -2.5932874315e+00 1.4972351967e+00 2.5932874315e+00 
82900 4.6923597535e+00 7.0296328510e-05 1.4972351967e+00 -2.5932874315e+00 1.4972351967e+00 2.5932874315e+00 
82900 4.6923597535e+00 7.0296328510e-05 1.4972351967e+00 -2.5932874315e+00 1.4972351967e+00 2.5932874315e+00 
