# step Hamiltonian StressXX CellTensor1 CellTensor2 CellTensor3 CellTensor4 
0 4.7756573721e+00 6.0035470553e-02 1.6387017056e+00 -2.8383146126e+00 1.6387017056e+00 2.8383146126e+00 
100 4.7595815878e+00 5.6753377287e-02 1.6387017056e+00 -2.8383146126e+00 1.6387017056e+00 2.8383146126e+00 
200 4.7440906808e+00 5.2049862252e-02 1.6369703542e+00 -2.8353158239e+00 1.6369703542e+00 2.8353158239e+00 
300 4.7292861515e+00 4.7812569452e-02 1.6353807888e+00 -2.8325626159e+00 1.6353807888e+00 2.8325626159e+00 
400 4.7151355662e+00 4.4005205747e-02 1.6339191891e+00 -2.8300310510e+00 1.6339191891e+00 2.8300310510e+00 
500 4.7016116890e+00 4.0595204924e-02 1.6325727591e+00 -2.8276989658e+00 1.6325727591e+00 2.8276989658e+00 
600 4.6886913503e+00 3.7553274938e-02 1.6313296277e+00 -2.8255457991e+00 1.6313296277e+00 2.8255457991e+00 
700 4.6763544732e+00 3.4852980458e-02 1.6301787611e+00 -2.8235524397e+00 1.6301787611e+00 2.8235524397e+00 
800 4.6645832476e+00 3.2470361876e-02 1.6291098854e+00 -2.8217010927e+00 1.6291098854e+00 2.8217010927e+00 
900 4.6533614393e+00 3.0383591112e-02 1.6281134195e+00 -2.8199751631e+00 1.6281134195e+00 2.8199751631e+00 
1000 4.6426738248e+00 2.8572663884e-02 1.6271804167e+00 -2.8183591549e+00 1.6271804167e+00 2.8183591549e+00 
1100 4.6325057375e+00 2.7019127510e-02 1.6263025149e+00 -2.8168385843e+00 1.6263025149e+00 2.8168385843e+00 
1200 4.6228427149e+00 2.5705842798e-02 1.6254718937e+00 -2.8153999062e+00 1.6254718937e+00 2.8153999062e+00 
1300 4.6136702340e+00 2.4616778213e-02 1.6246812385e+00 -2.8140304512e+00 1.6246812385e+00 2.8140304512e+00 
1400 4.6049735237e+00 2.3736834206e-02 1.6239237095e+00 -2.8127183724e+00 1.6239237095e+00 2.8127183724e+00 
1500 4.5967374435e+00 2.3051695395e-02 1.6231929161e+00 -2.8114526012e+00 1.6231929161e+00 2.8114526012e+00 
1600 4.5889464171e+00 2.2547708168e-02 1.6224828953e+00 -2.8102228091e+00 1.6224828953e+00 2.8102228091e+00 
1700 4.5815844127e+00 2.2211781250e-02 1.6217880930e+00 -2.8090193762e+00 1.6217880930e+00 2.8090193762e+00 
1800 4.5746349604e+00 2.2031306756e-02 1.6211033483e+00 -2.8078333635e+00 1.6211033483e+00 2.8078333635e+00 
1900 4.5680811986e+00 2.1994099360e-02 1.6204238800e+00 -2.8066564899e+00 1.6204238800e+00 2.8066564899e+00 
2000 4.5619059430e+00 2.2088351266e-02 1.6197452747e+00 -2.8054811111e+00 1.6197452747e+00 2.8054811111e+00 
2100 4.5560917710e+00 2.2302600801e-02 1.6190634761e+00 -2.8043002013e+00 1.6190634761e+00 2.8043002013e+00 
2200 4.5506211172e+00 2.2625712610e-02 1.6183747749e+00 -2.8031073358e+00 1.6183747749e+00 2.8031073358e+00 
2300 4.5454763738e+00 2.3046867544e-02 1.6176757995e+00 -2.8018966749e+00 1.6176757995e+00 2.8018966749e+00 
2400 4.5406399944e+00 2.3555560517e-02 1.6169635067e+00 -2.8006629477e+00 1.6169635067e+00 2.8006629477e+00 
2500 4.5360945941e+00 2.4141604731e-02 1.6162351727e+00 -2.7994014361e+00 1.6162351727e+00 2.7994014361e+00 
2600 4.5318230478e+00 2.4795140839e-02 1.6154883833e+00 -2.7981079590e+00 1.6154883833e+00 2.7981079590e+00 
2700 4.5278085805e+00 2.5506649742e-02 1.6147210248e+00 -2.7967788550e+00 1.6147210248e+00 2.7967788550e+00 
2800 4.5240348510e+00 2.6266967855e-02 1.6139312732e+00 -2.7954109651e+00 1.6139312732e+00 2.7954109651e+00 
2900 4.5204860258e+00 2.7067303796e-02 1.6131175843e+00 -2.7940016146e+00 1.6131175843e+00 2.7940016146e+00 
3000 4.5171468434e+00 2.7899255600e-02 1.6122786822e+00 -2.7925485934e+00 1.6122786822e+00 2.7925485934e+00 
3100 4.5140026692e+00 2.8754827636e-02 1.6114135476e+00 -2.7910501365e+00 1.6114135476e+00 2.7910501365e+00 
3200 4.5110395384e+00 2.9626446546e-02 1.6105214063e+00 -2.7895049024e+00 1.6105214063e+00 2.7895049024e+00 
3300 4.5082441906e+00 3.0506975613e-02 1.6096017158e+00 -2.7879119517e+00 1.6096017158e+00 2.7879119517e+00 
3400 4.5056040930e+00 3.1389727078e-02 1.6086541528e+00 -2.7862707245e+00 1.6086541528e+00 2.7862707245e+00 
3500 4.5031074550e+00 3.2268472002e-02 1.6076785997e+00 -2.7845810169e+00 1.6076785997e+00 2.7845810169e+00 
3600 4.5007432335e+00 3.3137447379e-02 1.6066751307e+00 -2.7828429576e+00 1.6066751307e+00 2.7828429576e+00 
3700 4.4985011305e+00 3.3991360303e-02 1.6056439981e+00 -2.7810569836e+00 1.6056439981e+00 2.7810569836e+00 
3800 4.4963715835e+00 3.4825389031e-02 1.6045856183e+00 -2.7792238160e+00 1.6045856183e+00 2.7792238160e+00 
3900 4.4943457488e+00 3.5635180930e-02 1.6035005575e+00 -2.7773444355e+00 1.6035005575e+00 2.7773444355e+00 
4000 4.4924154803e+00 3.6416847304e-02 1.6023895176e+00 -2.7754200579e+00 1.6023895176e+00 2.7754200579e+00 
4100 4.4905733025e+00 3.7166955212e-02 1.6012533225e+00 -2.7734521104e+00 1.6012533225e+00 2.7734521104e+00 
4200 4.4888123807e+00 3.7882516415e-02 1.6000929046e+00 -2.7714422075e+00 1.6000929046e+00 2.7714422075e+00 
4300 4.4871264876e+00 3.8560973664e-02 1.5989092907e+00 -2.7693921282e+00 1.5989092907e+00 2.7693921282e+00 
4400 4.4855099681e+00 3.9200184570e-02 1.5977035900e+00 -2.7673037933e+00 1.5977035900e+00 2.7673037933e+00 
4500 4.4839577021e+00 3.9798403334e-02 1.5964769806e+00 -2.7651792435e+00 1.5964769806e+00 2.7651792435e+00 
4600 4.4824650672e+00 4.0354260646e-02 1.5952306983e+00 -2.7630206192e+00 1.5952306983e+00 2.7630206192e+00 
4700 4.4810279007e+00 4.0866742068e-02 1.5939660247e+00 -2.7608301402e+00 1.5939660247e+00 2.7608301402e+00 
4800 4.4796424623e+00 4.1335165230e-02 1.5926842765e+00 -2.7586100873e+00 1.5926842765e+00 2.7586100873e+00 
4900 4.4783053976e+00 4.1759156166e-02 1.5913867956e+00 -2.7563627845e+00 1.5913867956e+00 2.7563627845e+00 
5000 4.4770137021e+00 4.2138625103e-02 1.5900749394e+00 -2.7540905829e+00 1.5900749394e+00 2.7540905829e+00 
5100 4.4757646878e+00 4.2473742016e-02 1.5887500721e+00 -2.7517958453e+00 1.5887500721e+00 2.7517958453e+00 
5200 4.4745559509e+00 4.2764912220e-02 1.5874135566e+00 -2.7494809326e+00 1.5874135566e+00 2.7494809326e+00 
5300 4.4733853413e+00 4.3012752263e-02 1.5860667475e+00 -2.7471481909e+00 1.5860667475e+00 2.7471481909e+00 
5400 4.4722509343e+00 4.3218066357e-02 1.5847109843e+00 -2.7447999402e+00 1.5847109843e+00 2.7447999402e+00 
5500 4.4711510051e+00 4.3381823539e-02 1.5833475855e+00 -2.7424384641e+00 1.5833475855e+00 2.7424384641e+00 
5600 4.4700840040e+00 4.3505135734e-02 1.5819778432e+00 -2.7400660009e+00 1.5819778432e+00 2.7400660009e+00 
5700 4.4690485351e+00 4.3589236868e-02 1.5806030190e+00 -2.7376847355e+00 1.5806030190e+00 2.7376847355e+00 
5800 4.4680433364e+00 4.3635463135e-02 1.5792243397e+00 -2.7352967929e+00 1.5792243397e+00 2.7352967929e+00 
5900 4.4670672621e+00 4.3645234503e-02 1.5778429940e+00 -2.7329042320e+00 1.5778429940e+00 2.7329042320e+00 
6000 4.4661192663e+00 4.3620037508e-02 1.5764601298e+00 -2.7305090409e+00 1.5764601298e+00 2.7305090409e+00 
6100 4.4651983899e+00 4.3561409376e-02 1.5750768518e+00 -2.7281131331e+00 1.5750768518e+00 2.7281131331e+00 
6200 4.4643037471e+00 4.3470923477e-02 1.5736942199e+00 -2.7257183444e+00 1.5736942199e+00 2.7257183444e+00 
6300 4.4634345157e+00 4.3350176102e-02 1.5723132477e+00 -2.7233264304e+00 1.5723132477e+00 2.7233264304e+00 
6400 4.4625899268e+00 4.3200774535e-02 1.5709349016e+00 -2.7209390650e+00 1.5709349016e+00 2.7209390650e+00 
6500 4.4617692573e+00 4.3024326380e-02 1.5695601003e+00 -2.7185578393e+00 1.5695601003e+00 2.7185578393e+00 
6600 4.4609718229e+00 4.2822430105e-02 1.5681897145e+00 -2.7161842614e+00 1.5681897145e+00 2.7161842614e+00 
6700 4.4601969720e+00 4.2596666720e-02 1.5668245668e+00 -2.7138197563e+00 1.5668245668e+00 2.7138197563e+00 
6800 4.4594440810e+00 4.2348592547e-02 1.5654654324e+00 -2.7114656665e+00 1.5654654324e+00 2.7114656665e+00 
6900 4.4587125500e+00 4.2079732995e-02 1.5641130395e+00 -2.7091232531e+00 1.5641130395e+00 2.7091232531e+00 
7000 4.4580017996e+00 4.1791577285e-02 1.5627680697e+00 -2.7067936971e+00 1.5627680697e+00 2.7067936971e+00 
7100 4.4573112679e+00 4.1485574029e-02 1.5614311594e+00 -2.7044781006e+00 1.5614311594e+00 2.7044781006e+00 
7200 4.4566404083e+00 4.1163127619e-02 1.5601029009e+00 -2.7021774893e+00 1.5601029009e+00 2.7021774893e+00 
7300 4.4559886881e+00 4.0825595326e-02 1.5587838429e+00 -2.6998928140e+00 1.5587838429e+00 2.6998928140e+00 
7400 4.4553555863e+00 4.0474285059e-02 1.5574744929e+00 -2.6976249532e+00 1.5574744929e+00 2.6976249532e+00 
7500 4.4547405932e+00 4.0110453709e-02 1.5561753174e+00 -2.6953747153e+00 1.5561753174e+00 2.6953747153e+00 
7600 4.4541432093e+00 3.9735306018e-02 1.5548867443e+00 -2.6931428412e+00 1.5548867443e+00 2.6931428412e+00 
7700 4.4535629449e+00 3.9349993913e-02 1.5536091639e+00 -2.6909300069e+00 1.5536091639e+00 2.6909300069e+00 
7800 4.4529993192e+00 3.8955616242e-02 1.5523429302e+00 -2.6887368259e+00 1.5523429302e+00 2.6887368259e+00 
7900 4.4524518608e+00 3.8553218877e-02 1.5510883632e+00 -2.6865638521e+00 1.5510883632e+00 2.6865638521e+00 
8000 4.4519201069e+00 3.8143795119e-02 1.5498457497e+00 -2.6844115824e+00 1.5498457497e+00 2.6844115824e+00 
8100 4.4514036034e+00 3.7728286368e-02 1.5486153452e+00 -2.6822804593e+00 1.5486153452e+00 2.6822804593e+00 
8200 4.4509019050e+00 3.7307583023e-02 1.5473973754e+00 -2.6801708737e+00 1.5473973754e+00 2.6801708737e+00 
8300 4.4504145754e+00 3.6882525566e-02 1.5461920374e+00 -2.6780831671e+00 1.5461920374e+00 2.6780831671e+00 
8400 4.4499411869e+00 3.6453905808e-02 1.5449995019e+00 -2.6760176349e+00 1.5449995019e+00 2.6760176349e+00 
8500 4.4494813209e+00 3.6022468253e-02 1.5438199137e+00 -2.6739745282e+00 1.5438199137e+00 2.6739745282e+00 
8600 4.4490345677e+00 3.5588911576e-02 1.5426533940e+00 -2.6719540568e+00 1.5426533940e+00 2.6719540568e+00 
8700 4.4486005269e+00 3.5153890168e-02 1.5415000411e+00 -2.6699563911e+00 1.5415000411e+00 2.6699563911e+00 
8800 4.4481788073e+00 3.4718015742e-02 1.5403599324e+00 -2.6679816649e+00 1.5403599324e+00 2.6679816649e+00 
8900 4.4477690270e+00 3.4281858979e-02 1.5392331250e+00 -2.6660299772e+00 1.5392331250e+00 2.6660299772e+00 
9000 4.4473708133e+00 3.3845951199e-02 1.5381196575e+00 -2.6641013949e+00 1.5381196575e+00 2.6641013949e+00 
9100 4.4469838032e+00 3.3410786035e-02 1.5370195508e+00 -2.6621959542e+00 1.5370195508e+00 2.6621959542e+00 
9200 4.4466076429e+00 3.2976821112e-02 1.5359328097e+00 -2.6603136635e+00 1.5359328097e+00 2.6603136635e+00 
9300 4.4462419883e+00 3.2544479716e-02 1.5348594237e+00 -2.6584545043e+00 1.5348594237e+00 2.6584545043e+00 
9400 4.4458865044e+00 3.2114152428e-02 1.5337993680e+00 -2.6566184339e+00 1.5337993680e+00 2.6566184339e+00 
9500 4.4455408659e+00 3.1686198750e-02 1.5327526047e+00 -2.6548053868e+00 1.5327526047e+00 2.6548053868e+00 
9600 4.4452047566e+00 3.1260948683e-02 1.5317190839e+00 -2.6530152762e+00 1.5317190839e+00 2.6530152762e+00 
9700 4.4448778697e+00 3.0838704270e-02 1.5306987442e+00 -2.6512479960e+00 1.5306987442e+00 2.6512479960e+00 
9800 4.4445599075e+00 3.0419741098e-02 1.5296915140e+00 -2.6495034222e+00 1.5296915140e+00 2.6495034222e+00 
9900 4.4442505813e+00 3.0004309756e-02 1.5286973121e+00 -2.6477814140e+00 1.5286973121e+00 2.6477814140e+00 
10000 4.4439496115e+00 2.9592637235e-02 1.5277160486e+00 -2.6460818158e+00 1.5277160486e+00 2.6460818158e+00 
10100 4.4436567273e+00 2.9184928294e-02 1.5267476256e+00 -2.6444044578e+00 1.5267476256e+00 2.6444044578e+00 
10200 4.4433716662e+00 2.8781366762e-02 1.5257919378e+00 -2.6427491580e+00 1.5257919378e+00 2.6427491580e+00 
10300 4.4430941747e+00 2.8382116793e-02 1.5248488734e+00 -2.6411157227e+00 1.5248488734e+00 2.6411157227e+00 
10400 4.4428240072e+00 2.7987324069e-02 1.5239183147e+00 -2.6395039477e+00 1.5239183147e+00 2.6395039477e+00 
10500 4.4425609265e+00 2.7597116955e-02 1.5230001385e+00 -2.6379136198e+00 1.5230001385e+00 2.6379136198e+00 
10600 4.4423047032e+00 2.7211607595e-02 1.5220942167e+00 -2.6363445173e+00 1.5220942167e+00 2.6363445173e+00 
10700 4.4420551156e+00 2.6830892964e-02 1.5212004172e+00 -2.6347964111e+00 1.5212004172e+00 2.6347964111e+00 
10800 4.4418119499e+00 2.6455055868e-02 1.5203186038e+00 -2.6332690654e+00 1.5203186038e+00 2.6332690654e+00 
10900 4.4415749993e+00 2.6084165895e-02 1.5194486371e+00 -2.6317622389e+00 1.5194486371e+00 2.6317622389e+00 
11000 4.4413440643e+00 2.5718280319e-02 1.5185903748e+00 -2.6302756850e+00 1.5185903748e+00 2.6302756850e+00 
11100 4.4411189525e+00 2.5357444961e-02 1.5177436722e+00 -2.6288091531e+00 1.5177436722e+00 2.6288091531e+00 
11200 4.4408994780e+00 2.5001694997e-02 1.5169083823e+00 -2.6273623886e+00 1.5169083823e+00 2.6273623886e+00 
11300 4.4406854617e+00 2.4651055734e-02 1.5160843566e+00 -2.6259351342e+00 1.5160843566e+00 2.6259351342e+00 
11400 4.4404767307e+00 2.4305543335e-02 1.5152714450e+00 -2.6245271300e+00 1.5152714450e+00 2.6245271300e+00 
11500 4.4402731182e+00 2.3965165511e-02 1.5144694964e+00 -2.6231381142e+00 1.5144694964e+00 2.6231381142e+00 
11600 4.4400744635e+00 2.3629922167e-02 1.5136783587e+00 -2.6217678236e+00 1.5136783587e+00 2.6217678236e+00 
11700 4.4398806116e+00 2.3299806019e-02 1.5128978795e+00 -2.6204159939e+00 1.5128978795e+00 2.6204159939e+00 
11800 4.4396914131e+00 2.2974803171e-02 1.5121279059e+00 -2.6190823605e+00 1.5121279059e+00 2.6190823605e+00 
11900 4.4395067239e+00 2.2654893657e-02 1.5113682850e+00 -2.6177666585e+00 1.5113682850e+00 2.6177666585e+00 
12000 4.4393264051e+00 2.2340051957e-02 1.5106188641e+00 -2.6164686234e+00 1.5106188641e+00 2.6164686234e+00 
12100 4.4391503228e+00 2.2030247472e-02 1.5098794906e+00 -2.6151879911e+00 1.5098794906e+00 2.6151879911e+00 
12200 4.4389783479e+00 2.1725444982e-02 1.5091500128e+00 -2.6139244984e+00 1.5091500128e+00 2.6139244984e+00 
12300 4.4388103560e+00 2.1425605065e-02 1.5084302793e+00 -2.6126778834e+00 1.5084302793e+00 2.6126778834e+00 
12400 4.4386462271e+00 2.1130684498e-02 1.5077201396e+00 -2.6114478854e+00 1.5077201396e+00 2.6114478854e+00 
12500 4.4384858457e+00 2.0840636624e-02 1.5070194444e+00 -2.6102342457e+00 1.5070194444e+00 2.6102342457e+00 
12600 4.4383291001e+00 2.0555411706e-02 1.5063280451e+00 -2.6090367070e+00 1.5063280451e+00 2.6090367070e+00 
12700 4.4381758830e+00 2.0274957248e-02 1.5056457947e+00 -2.6078550146e+00 1.5056457947e+00 2.6078550146e+00 
12800 4.4380260905e+00 1.9999218300e-02 1.5049725472e+00 -2.6066889157e+00 1.5049725472e+00 2.6066889157e+00 
12900 4.4378796229e+00 1.9728137743e-02 1.5043081581e+00 -2.6055381601e+00 1.5043081581e+00 2.6055381601e+00 
13000 4.4377363835e+00 1.9461656551e-02 1.5036524845e+00 -2.6044025001e+00 1.5036524845e+00 2.6044025001e+00 
13100 4.4375962796e+00 1.9199714040e-02 1.5030053848e+00 -2.6032816906e+00 1.5030053848e+00 2.6032816906e+00 
13200 4.4374592212e+00 1.8942248095e-02 1.5023667194e+00 -2.6021754895e+00 1.5023667194e+00 2.6021754895e+00 
13300 4.4373251219e+00 1.8689195383e-02 1.5017363499e+00 -2.6010836575e+00 1.5017363499e+00 2.6010836575e+00 
13400 4.4371938981e+00 1.8440491554e-02 1.5011141400e+00 -2.6000059584e+00 1.5011141400e+00 2.6000059584e+00 
13500 4.4370654692e+00 1.8196071417e-02 1.5004999550e+00 -2.5989421589e+00 1.5004999550e+00 2.5989421589e+00 
13600 4.4369397573e+00 1.7955869120e-02 1.4998936623e+00 -2.5978920290e+00 1.4998936623e+00 2.5978920290e+00 
13700 4.4368166874e+00 1.7719818297e-02 1.4992951307e+00 -2.5968553419e+00 1.4992951307e+00 2.5968553419e+00 
13800 4.4366961870e+00 1.7487852219e-02 1.4987042312e+00 -2.5958318740e+00 1.4987042312e+00 2.5958318740e+00 
13900 4.4365781858e+00 1.7259903927e-02 1.4981208367e+00 -2.5948214051e+00 1.4981208367e+00 2.5948214051e+00 
14000 4.4364626163e+00 1.7035906355e-02 1.4975448218e+00 -2.5938237180e+00 1.4975448218e+00 2.5938237180e+00 
14100 4.4363494131e+00 1.6815792440e-02 1.4969760633e+00 -2.5928385994e+00 1.4969760633e+00 2.5928385994e+00 
14200 4.4362385129e+00 1.6599495233e-02 1.4964144398e+00 -2.5918658388e+00 1.4964144398e+00 2.5918658388e+00 
14300 4.4361298547e+00 1.6386947986e-02 1.4958598317e+00 -2.5909052296e+00 1.4958598317e+00 2.5909052296e+00 
14400 4.4360233795e+00 1.6178084247e-02 1.4953121217e+00 -2.5899565680e+00 1.4953121217e+00 2.5899565680e+00 
14500 4.4359190302e+00 1.5972837932e-02 1.4947711943e+00 -2.5890196541e+00 1.4947711943e+00 2.5890196541e+00 
14600 4.4358167515e+00 1.5771143404e-02 1.4942369357e+00 -2.5880942912e+00 1.4942369357e+00 2.5880942912e+00 
14700 4.4357164900e+00 1.5572935533e-02 1.4937092344e+00 -2.5871802857e+00 1.4937092344e+00 2.5871802857e+00 
14800 4.4356181941e+00 1.5378149760e-02 1.4931879807e+00 -2.5862774479e+00 1.4931879807e+00 2.5862774479e+00 
14900 4.4355218138e+00 1.5186722145e-02 1.4926730668e+00 -2.5853855908e+00 1.4926730668e+00 2.5853855908e+00 
15000 4.4354273006e+00 1.4998589421e-02 1.4921643868e+00 -2.5845045311e+00 1.4921643868e+00 2.5845045311e+00 
15100 4.4353346076e+00 1.4813689033e-02 1.4916618367e+00 -2.5836340888e+00 1.4916618367e+00 2.5836340888e+00 
15200 4.4352436896e+00 1.4631959174e-02 1.4911653144e+00 -2.5827740870e+00 1.4911653144e+00 2.5827740870e+00 
15300 4.4351545025e+00 1.4453338826e-02 1.4906747197e+00 -2.5819243520e+00 1.4906747197e+00 2.5819243520e+00 
15400 4.4350670037e+00 1.4277767784e-02 1.4901899541e+00 -2.5810847135e+00 1.4901899541e+00 2.5810847135e+00 
15500 4.4349811521e+00 1.4105186681e-02 1.4897109211e+00 -2.5802550040e+00 1.4897109211e+00 2.5802550040e+00 
15600 4.4348969074e+00 1.3935537014e-02 1.4892375260e+00 -2.5794350595e+00 1.4892375260e+00 2.5794350595e+00 
15700 4.4348142311e+00 1.3768761160e-02 1.4887696756e+00 -2.5786247189e+00 1.4887696756e+00 2.5786247189e+00 
15800 4.4347330855e+00 1.3604802396e-02 1.4883072787e+00 -2.5778238240e+00 1.4883072787e+00 2.5778238240e+00 
15900 4.4346534341e+00 1.3443604904e-02 1.4878502459e+00 -2.5770322199e+00 1.4878502459e+00 2.5770322199e+00 
16000 4.4345752415e+00 1.3285113791e-02 1.4873984893e+00 -2.5762497545e+00 1.4873984893e+00 2.5762497545e+00 
16100 4.4344984735e+00 1.3129275091e-02 1.4869519227e+00 -2.5754762785e+00 1.4869519227e+00 2.5754762785e+00 
16200 4.4344230967e+00 1.2976035770e-02 1.4865104617e+00 -2.5747116457e+00 1.4865104617e+00 2.5747116457e+00 
16300 4.4343490789e+00 1.2825343737e-02 1.4860740235e+00 -2.5739557124e+00 1.4860740235e+00 2.5739557124e+00 
16400 4.4342763885e+00 1.2677147836e-02 1.4856425267e+00 -2.5732083381e+00 1.4856425267e+00 2.5732083381e+00 
16500 4.4342049951e+00 1.2531397854e-02 1.4852158917e+00 -2.5724693847e+00 1.4852158917e+00 2.5724693847e+00 
16600 4.4341348692e+00 1.2388044517e-02 1.4847940404e+00 -2.5717387168e+00 1.4847940404e+00 2.5717387168e+00 
16700 4.4340659819e+00 1.2247039484e-02 1.4843768962e+00 -2.5710162019e+00 1.4843768962e+00 2.5710162019e+00 
16800 4.4339983054e+00 1.2108335349e-02 1.4839643840e+00 -2.5703017098e+00 1.4839643840e+00 2.5703017098e+00 
16900 4.4339318124e+00 1.1971885629e-02 1.4835564302e+00 -2.5695951129e+00 1.4835564302e+00 2.5695951129e+00 
17000 4.4338664767e+00 1.1837644764e-02 1.4831529624e+00 -2.5688962863e+00 1.4831529624e+00 2.5688962863e+00 
17100 4.4338022724e+00 1.1705568104e-02 1.4827539101e+00 -2.5682051074e+00 1.4827539101e+00 2.5682051074e+00 
17200 4.4337391747e+00 1.1575611903e-02 1.4823592037e+00 -2.5675214559e+00 1.4823592037e+00 2.5675214559e+00 
17300 4.4336771593e+00 1.1447733310e-02 1.4819687753e+00 -2.5668452140e+00 1.4819687753e+00 2.5668452140e+00 
17400 4.4336162027e+00 1.1321890360e-02 1.4815825581e+00 -2.5661762662e+00 1.4815825581e+00 2.5661762662e+00 
17500 4.4335562817e+00 1.1198041960e-02 1.4812004868e+00 -2.5655144993e+00 1.4812004868e+00 2.5655144993e+00 
17600 4.4334973742e+00 1.1076147881e-02 1.4808224972e+00 -2.5648598022e+00 1.4808224972e+00 2.5648598022e+00 
17700 4.4334394583e+00 1.0956168747e-02 1.4804485266e+00 -2.5642120661e+00 1.4804485266e+00 2.5642120661e+00 
17800 4.4333825129e+00 1.0838066019e-02 1.4800785134e+00 -2.5635711843e+00 1.4800785134e+00 2.5635711843e+00 
17900 4.4333265174e+00 1.0721801988e-02 1.4797123970e+00 -2.5629370522e+00 1.4797123970e+00 2.5629370522e+00 
18000 4.4332714517e+00 1.0607339755e-02 1.4793501184e+00 -2.5623095672e+00 1.4793501184e+00 2.5623095672e+00 
18100 4.4332172963e+00 1.0494643227e-02 1.4789916193e+00 -2.5616886287e+00 1.4789916193e+00 2.5616886287e+00 
18200 4.4331640321e+00 1.0383677095e-02 1.4786368430e+00 -2.5610741381e+00 1.4786368430e+00 2.5610741381e+00 
18300 4.4331116406e+00 1.0274406827e-02 1.4782857336e+00 -2.5604659988e+00 1.4782857336e+00 2.5604659988e+00 
18400 4.4330601037e+00 1.0166798652e-02 1.4779382364e+00 -2.5598641159e+00 1.4779382364e+00 2.5598641159e+00 
18500 4.4330094039e+00 1.0060819545e-02 1.4775942977e+00 -2.5592683965e+00 1.4775942977e+00 2.5592683965e+00 
18600 4.4329595240e+00 9.9564372141e-03 1.4772538648e+00 -2.5586787495e+00 1.4772538648e+00 2.5586787495e+00 
18700 4.4329104472e+00 9.8536200886e-03 1.4769168862e+00 -2.5580950855e+00 1.4769168862e+00 2.5580950855e+00 
18800 4.4328621573e+00 9.7523373024e-03 1.4765833113e+00 -2.5575173167e+00 1.4765833113e+00 2.5575173167e+00 
18900 4.4328146383e+00 9.6525586817e-03 1.4762530904e+00 -2.5569453573e+00 1.4762530904e+00 2.5569453573e+00 
19000 4.4327678748e+00 9.5542547308e-03 1.4759261748e+00 -2.5563791230e+00 1.4759261748e+00 2.5563791230e+00 
19100 4.4327218516e+00 9.4573966181e-03 1.4756025168e+00 -2.5558185309e+00 1.4756025168e+00 2.5558185309e+00 
19200 4.4326765540e+00 9.3619561628e-03 1.4752820696e+00 -2.5552635001e+00 1.4752820696e+00 2.5552635001e+00 
19300 4.4326319676e+00 9.2679058211e-03 1.4749647872e+00 -2.5547139508e+00 1.4749647872e+00 2.5547139508e+00 
19400 4.4325880783e+00 9.1752186726e-03 1.4746506246e+00 -2.5541698052e+00 1.4746506246e+00 2.5541698052e+00 
19500 4.4325448725e+00 9.0838684072e-03 1.4743395375e+00 -2.5536309865e+00 1.4743395375e+00 2.5536309865e+00 
19600 4.4325023368e+00 8.9938293116e-03 1.4740314825e+00 -2.5530974197e+00 1.4740314825e+00 2.5530974197e+00 
19700 4.4324604582e+00 8.9050762563e-03 1.4737264171e+00 -2.5525690310e+00 1.4737264171e+00 2.5525690310e+00 
19800 4.4324192239e+00 8.8175846828e-03 1.4734242996e+00 -2.5520457480e+00 1.4734242996e+00 2.5520457480e+00 
19900 4.4323786214e+00 8.7313305905e-03 1.4731250889e+00 -2.5515274999e+00 1.4731250889e+00 2.5515274999e+00 
20000 4.4323386387e+00 8.6462905245e-03 1.4728287448e+00 -2.5510142169e+00 1.4728287448e+00 2.5510142169e+00 
20100 4.4322992639e+00 8.5624415626e-03 1.4725352279e+00 -2.5505058307e+00 1.4725352279e+00 2.5505058307e+00 
20200 4.4322604853e+00 8.4797613039e-03 1.4722444994e+00 -2.5500022741e+00 1.4722444994e+00 2.5500022741e+00 
20300 4.4322222918e+00 8.3982278561e-03 1.4719565213e+00 -2.5495034813e+00 1.4719565213e+00 2.5495034813e+00 
20400 4.4321846721e+00 8.3178198236e-03 1.4716712561e+00 -2.5490093877e+00 1.4716712561e+00 2.5490093877e+00 
20500 4.4321476156e+00 8.2385162966e-03 1.4713886674e+00 -2.5485199297e+00 1.4713886674e+00 2.5485199297e+00 
20600 4.4321111117e+00 8.1602968387e-03 1.4711087191e+00 -2.5480350450e+00 1.4711087191e+00 2.5480350450e+00 
20700 4.4320751501e+00 8.0831414766e-03 1.4708313759e+00 -2.5475546725e+00 1.4708313759e+00 2.5475546725e+00 
20800 4.4320397207e+00 8.0070306881e-03 1.4705566031e+00 -2.5470787520e+00 1.4705566031e+00 2.5470787520e+00 
20900 4.4320048137e+00 7.9319453924e-03 1.4702843666e+00 -2.5466072245e+00 1.4702843666e+00 2.5466072245e+00 
21000 4.4319704194e+00 7.8578669385e-03 1.4700146330e+00 -2.5461400322e+00 1.4700146330e+00 2.5461400322e+00 
21100 4.4319365284e+00 7.7847770954e-03 1.4697473694e+00 -2.5456771180e+00 1.4697473694e+00 2.5456771180e+00 
21200 4.4319031315e+00 7.7126580416e-03 1.4694825435e+00 -2.5452184261e+00 1.4694825435e+00 2.5452184261e+00 
21300 4.4318702198e+00 7.6414923556e-03 1.4692201236e+00 -2.5447639016e+00 1.4692201236e+00 2.5447639016e+00 
21400 4.4318377845e+00 7.5712630055e-03 1.4689600786e+00 -2.5443134904e+00 1.4689600786e+00 2.5443134904e+00 
21500 4.4318058169e+00 7.5019533400e-03 1.4687023779e+00 -2.5438671397e+00 1.4687023779e+00 2.5438671397e+00 
21600 4.4317743086e+00 7.4335470789e-03 1.4684469913e+00 -2.5434247972e+00 1.4684469913e+00 2.5434247972e+00 
21700 4.4317432513e+00 7.3660283036e-03 1.4681938895e+00 -2.5429864119e+00 1.4681938895e+00 2.5429864119e+00 
21800 4.4317126372e+00 7.2993814490e-03 1.4679430432e+00 -2.5425519335e+00 1.4679430432e+00 2.5425519335e+00 
21900 4.4316824582e+00 7.2335912939e-03 1.4676944241e+00 -2.5421213125e+00 1.4676944241e+00 2.5421213125e+00 
22000 4.4316527067e+00 7.1686429529e-03 1.4674480039e+00 -2.5416945003e+00 1.4674480039e+00 2.5416945003e+00 
22100 4.4316233750e+00 7.1045218683e-03 1.4672037553e+00 -2.5412714492e+00 1.4672037553e+00 2.5412714492e+00 
22200 4.4315944560e+00 7.0412138014e-03 1.4669616510e+00 -2.5408521123e+00 1.4669616510e+00 2.5408521123e+00 
22300 4.4315659422e+00 6.9787048251e-03 1.4667216644e+00 -2.5404364434e+00 1.4667216644e+00 2.5404364434e+00 
22400 4.4315378267e+00 6.9169813157e-03 1.4664837694e+00 -2.5400243971e+00 1.4664837694e+00 2.5400243971e+00 
22500 4.4315101024e+00 6.8560299458e-03 1.4662479401e+00 -2.5396159288e+00 1.4662479401e+00 2.5396159288e+00 
22600 4.4314827628e+00 6.7958376765e-03 1.4660141513e+00 -2.5392109947e+00 1.4660141513e+00 2.5392109947e+00 
22700 4.4314558010e+00 6.7363917506e-03 1.4657823780e+00 -2.5388095515e+00 1.4657823780e+00 2.5388095515e+00 
22800 4.4314292107e+00 6.6776796852e-03 1.4655525957e+00 -2.5384115570e+00 1.4655525957e+00 2.5384115570e+00 
22900 4.4314029854e+00 6.6196892650e-03 1.4653247804e+00 -2.5380169693e+00 1.4653247804e+00 2.5380169693e+00 
23000 4.4313771190e+00 6.5624085360e-03 1.4650989083e+00 -2.5376257474e+00 1.4650989083e+00 2.5376257474e+00 
23100 4.4313516053e+00 6.5058257982e-03 1.4648749562e+00 -2.5372378508e+00 1.4648749562e+00 2.5372378508e+00 
23200 4.4313264383e+00 6.4499296001e-03 1.4646529010e+00 -2.5368532400e+00 1.4646529010e+00 2.5368532400e+00 
23300 4.4313016122e+00 6.3947087320e-03 1.4644327202e+00 -2.5364718757e+00 1.4644327202e+00 2.5364718757e+00 
23400 4.4312771213e+00 6.3401522200e-03 1.4642143917e+00 -2.5360937196e+00 1.4642143917e+00 2.5360937196e+00 
23500 4.4312529599e+00 6.2862493206e-03 1.4639978935e+00 -2.5357187337e+00 1.4639978935e+00 2.5357187337e+00 
23600 4.4312291226e+00 6.2329895142e-03 1.4637832041e+00 -2.5353468808e+00 1.4637832041e+00 2.5353468808e+00 
23700 4.4312056040e+00 6.1803625005e-03 1.4635703024e+00 -2.5349781242e+00 1.4635703024e+00 2.5349781242e+00 
23800 4.4311823987e+00 6.1283581920e-03 1.4633591676e+00 -2.5346124279e+00 1.4633591676e+00 2.5346124279e+00 
23900 4.4311595016e+00 6.0769667098e-03 1.4631497790e+00 -2.5342497564e+00 1.4631497790e+00 2.5342497564e+00 
24000 4.4311369076e+00 6.0261783776e-03 1.4629421167e+00 -2.5338900746e+00 1.4629421167e+00 2.5338900746e+00 
24100 4.4311146117e+00 5.9759837172e-03 1.4627361606e+00 -2.5335333482e+00 1.4627361606e+00 2.5335333482e+00 
24200 4.4310926091e+00 5.9263734433e-03 1.4625318912e+00 -2.5331795432e+00 1.4625318912e+00 2.5331795432e+00 
24300 4.4310708950e+00 5.8773384592e-03 1.4623292892e+00 -2.5328286263e+00 1.4623292892e+00 2.5328286263e+00 
24400 4.4310494647e+00 5.8288698515e-03 1.4621283357e+00 -2.5324805647e+00 1.4621283357e+00 2.5324805647e+00 
24500 4.4310283136e+00 5.7809588863e-03 1.4619290120e+00 -2.5321353258e+00 1.4619290120e+00 2.5321353258e+00 
24600 4.4310074372e+00 5.7335970045e-03 1.4617312996e+00 -2.5317928780e+00 1.4617312996e+00 2.5317928780e+00 
24700 4.4309868311e+00 5.6867758174e-03 1.4615351805e+00 -2.5314531897e+00 1.4615351805e+00 2.5314531897e+00 
24800 4.4309664909e+00 5.6404871029e-03 1.4613406368e+00 -2.5311162301e+00 1.4613406368e+00 2.5311162301e+00 
24900 4.4309464125e+00 5.5947228010e-03 1.4611476509e+00 -2.5307819687e+00 1.4611476509e+00 2.5307819687e+00 
25000 4.4309265916e+00 5.5494750105e-03 1.4609562055e+00 -2.5304503755e+00 1.4609562055e+00 2.5304503755e+00 
25100 4.4309070241e+00 5.5047359845e-03 1.4607662835e+00 -2.5301214210e+00 1.4607662835e+00 2.5301214210e+00 
25200 4.4308877061e+00 5.4604981272e-03 1.4605778681e+00 -2.5297950759e+00 1.4605778681e+00 2.5297950759e+00 
25300 4.4308686336e+00 5.4167539899e-03 1.4603909427e+00 -2.5294713116e+00 1.4603909427e+00 2.5294713116e+00 
25400 4.4308498027e+00 5.3734962679e-03 1.4602054910e+00 -2.5291500999e+00 1.4602054910e+00 2.5291500999e+00 
25500 4.4308312097e+00 5.3307177966e-03 1.4600214969e+00 -2.5288314128e+00 1.4600214969e+00 2.5288314128e+00 
25600 4.4308128509e+00 5.2884115485e-03 1.4598389446e+00 -2.5285152229e+00 1.4598389446e+00 2.5285152229e+00 
25700 4.4307947226e+00 5.2465706298e-03 1.4596578184e+00 -2.5282015031e+00 1.4596578184e+00 2.5282015031e+00 
25800 4.4307768212e+00 5.2051882772e-03 1.4594781028e+00 -2.5278902267e+00 1.4594781028e+00 2.5278902267e+00 
25900 4.4307591432e+00 5.1642578550e-03 1.4592997829e+00 -2.5275813674e+00 1.4592997829e+00 2.5275813674e+00 
26000 4.4307416853e+00 5.1237728520e-03 1.4591228434e+00 -2.5272748993e+00 1.4591228434e+00 2.5272748993e+00 
26100 4.4307244439e+00 5.0837268785e-03 1.4589472698e+00 -2.5269707968e+00 1.4589472698e+00 2.5269707968e+00 
26200 4.4307074159e+00 5.0441136638e-03 1.4587730474e+00 -2.5266690348e+00 1.4587730474e+00 2.5266690348e+00 
26300 4.4306905979e+00 5.0049270527e-03 1.4586001619e+00 -2.5263695883e+00 1.4586001619e+00 2.5263695883e+00 
26400 4.4306739867e+00 4.9661610039e-03 1.4584285992e+00 -2.5260724330e+00 1.4584285992e+00 2.5260724330e+00 
26500 4.4306575792e+00 4.9278095864e-03 1.4582583452e+00 -2.5257775445e+00 1.4582583452e+00 2.5257775445e+00 
26600 4.4306413723e+00 4.8898669775e-03 1.4580893863e+00 -2.5254848991e+00 1.4580893863e+00 2.5254848991e+00 
26700 4.4306253631e+00 4.8523274601e-03 1.4579217089e+00 -2.5251944733e+00 1.4579217089e+00 2.5251944733e+00 
26800 4.4306095484e+00 4.8151854205e-03 1.4577552996e+00 -2.5249062439e+00 1.4577552996e+00 2.5249062439e+00 
26900 4.4305939255e+00 4.7784353457e-03 1.4575901452e+00 -2.5246201880e+00 1.4575901452e+00 2.5246201880e+00 
27000 4.4305784914e+00 4.7420718216e-03 1.4574262326e+00 -2.5243362832e+00 1.4574262326e+00 2.5243362832e+00 
27100 4.4305632434e+00 4.7060895303e-03 1.4572635492e+00 -2.5240545072e+00 1.4572635492e+00 2.5240545072e+00 
27200 4.4305481786e+00 4.6704832483e-03 1.4571020820e+00 -2.5237748379e+00 1.4571020820e+00 2.5237748379e+00 
27300 4.4305332944e+00 4.6352478441e-03 1.4569418188e+00 -2.5234972539e+00 1.4569418188e+00 2.5234972539e+00 
27400 4.4305185881e+00 4.6003782765e-03 1.4567827471e+00 -2.5232217336e+00 1.4567827471e+00 2.5232217336e+00 
27500 4.4305040571e+00 4.5658695922e-03 1.4566248549e+00 -2.5229482562e+00 1.4566248549e+00 2.5229482562e+00 
27600 4.4304896988e+00 4.5317169241e-03 1.4564681300e+00 -2.5226768007e+00 1.4564681300e+00 2.5226768007e+00 
27700 4.4304755106e+00 4.4979154893e-03 1.4563125606e+00 -2.5224073467e+00 1.4563125606e+00 2.5224073467e+00 
27800 4.4304614902e+00 4.4644605876e-03 1.4561581351e+00 -2.5221398738e+00 1.4561581351e+00 2.5221398738e+00 
27900 4.4304476350e+00 4.4313475991e-03 1.4560048419e+00 -2.5218743623e+00 1.4560048419e+00 2.5218743623e+00 
28000 4.4304339427e+00 4.3985719829e-03 1.4558526697e+00 -2.5216107922e+00 1.4558526697e+00 2.5216107922e+00 
28100 4.4304204109e+00 4.3661292753e-03 1.4557016071e+00 -2.5213491442e+00 1.4557016071e+00 2.5213491442e+00 
28200 4.4304070373e+00 4.3340150879e-03 1.4555516432e+00 -2.5210893991e+00 1.4555516432e+00 2.5210893991e+00 
28300 4.4303938197e+00 4.3022251065e-03 1.4554027670e+00 -2.5208315379e+00 1.4554027670e+00 2.5208315379e+00 
28400 4.4303807557e+00 4.2707550890e-03 1.4552549676e+00 -2.5205755419e+00 1.4552549676e+00 2.5205755419e+00 
28500 4.4303678432e+00 4.2396008642e-03 1.4551082344e+00 -2.5203213926e+00 1.4551082344e+00 2.5203213926e+00 
28600 4.4303550801e+00 4.2087583301e-03 1.4549625570e+00 -2.5200690718e+00 1.4549625570e+00 2.5200690718e+00 
28700 4.4303424642e+00 4.1782234526e-03 1.4548179248e+00 -2.5198185615e+00 1.4548179248e+00 2.5198185615e+00 
28800 4.4303299934e+00 4.1479922640e-03 1.4546743276e+00 -2.5195698439e+00 1.4546743276e+00 2.5195698439e+00 
28900 4.4303176657e+00 4.1180608615e-03 1.4545317553e+00 -2.5193229014e+00 1.4545317553e+00 2.5193229014e+00 
29000 4.4303054791e+00 4.0884254062e-03 1.4543901979e+00 -2.5190777169e+00 1.4543901979e+00 2.5190777169e+00 
29100 4.4302934316e+00 4.0590821214e-03 1.4542496456e+00 -2.5188342730e+00 1.4542496456e+00 2.5188342730e+00 
29200 4.4302815212e+00 4.0300272916e-03 1.4541100885e+00 -2.5185925531e+00 1.4541100885e+00 2.5185925531e+00 
29300 4.4302697461e+00 4.0012572611e-03 1.4539715170e+00 -2.5183525402e+00 1.4539715170e+00 2.5183525402e+00 
29400 4.4302581043e+00 3.9727684327e-03 1.4538339217e+00 -2.5181142181e+00 1.4538339217e+00 2.5181142181e+00 
29500 4.4302465940e+00 3.9445572668e-03 1.4536972931e+00 -2.5178775704e+00 1.4536972931e+00 2.5178775704e+00 
29600 4.4302352134e+00 3.9166202800e-03 1.4535616219e+00 -2.5176425811e+00 1.4535616219e+00 2.5176425811e+00 
29700 4.4302239606e+00 3.8889540440e-03 1.4534268990e+00 -2.5174092342e+00 1.4534268990e+00 2.5174092342e+00 
29800 4.4302128340e+00 3.8615551847e-03 1.4532931154e+00 -2.5171775142e+00 1.4532931154e+00 2.5171775142e+00 
29900 4.4302018318e+00 3.8344203807e-03 1.4531602621e+00 -2.5169474055e+00 1.4531602621e+00 2.5169474055e+00 
30000 4.4301909522e+00 3.8075463629e-03 1.4530283303e+00 -2.5167188928e+00 1.4530283303e+00 2.5167188928e+00 
30100 4.4301801937e+00 3.7809299127e-03 1.4528973112e+00 -2.5164919611e+00 1.4528973112e+00 2.5164919611e+00 
30200 4.4301695545e+00 3.7545678617e-03 1.4527671962e+00 -2.5162665954e+00 1.4527671962e+00 2.5162665954e+00 
30300 4.4301590331e+00 3.7284570903e-03 1.4526379769e+00 -2.5160427809e+00 1.4526379769e+00 2.5160427809e+00 
30400 4.4301486278e+00 3.7025945268e-03 1.4525096447e+00 -2.5158205032e+00 1.4525096447e+00 2.5158205032e+00 
30500 4.4301383372e+00 3.6769771467e-03 1.4523821915e+00 -2.5155997477e+00 1.4523821915e+00 2.5155997477e+00 
30600 4.4301281595e+00 3.6516019716e-03 1.4522556090e+00 -2.5153805004e+00 1.4522556090e+00 2.5153805004e+00 
30700 4.4301180934e+00 3.6264660683e-03 1.4521298891e+00 -2.5151627471e+00 1.4521298891e+00 2.5151627471e+00 
30800 4.4301081373e+00 3.6015665481e-03 1.4520050238e+00 -2.5149464740e+00 1.4520050238e+00 2.5149464740e+00 
30900 4.4300982897e+00 3.5769005658e-03 1.4518810051e+00 -2.5147316673e+00 1.4518810051e+00 2.5147316673e+00 
31000 4.4300885493e+00 3.5524653189e-03 1.4517578252e+00 -2.5145183135e+00 1.4517578252e+00 2.5145183135e+00 
31100 4.4300789146e+00 3.5282580469e-03 1.4516354764e+00 -2.5143063993e+00 1.4516354764e+00 2.5143063993e+00 
31200 4.4300693841e+00 3.5042760304e-03 1.4515139511e+00 -2.5140959113e+00 1.4515139511e+00 2.5140959113e+00 
31300 4.4300599565e+00 3.4805165904e-03 1.4513932417e+00 -2.5138868365e+00 1.4513932417e+00 2.5138868365e+00 
31400 4.4300506305e+00 3.4569770876e-03 1.4512733408e+00 -2.5136791619e+00 1.4512733408e+00 2.5136791619e+00 
31500 4.4300414047e+00 3.4336549213e-03 1.4511542409e+00 -2.5134728749e+00 1.4511542409e+00 2.5134728749e+00 
31600 4.4300322778e+00 3.4105475295e-03 1.4510359348e+00 -2.5132679627e+00 1.4510359348e+00 2.5132679627e+00 
31700 4.4300232485e+00 3.3876523872e-03 1.4509184153e+00 -2.5130644129e+00 1.4509184153e+00 2.5130644129e+00 
31800 4.4300143156e+00 3.3649670066e-03 1.4508016752e+00 -2.5128622131e+00 1.4508016752e+00 2.5128622131e+00 
31900 4.4300054777e+00 3.3424889356e-03 1.4506857075e+00 -2.5126613512e+00 1.4506857075e+00 2.5126613512e+00 
32000 4.4299967337e+00 3.3202157581e-03 1.4505705052e+00 -2.5124618150e+00 1.4505705052e+00 2.5124618150e+00 
32100 4.4299880822e+00 3.2981450923e-03 1.4504560616e+00 -2.5122635928e+00 1.4504560616e+00 2.5122635928e+00 
32200 4.4299795223e+00 3.2762745912e-03 1.4503423697e+00 -2.5120666727e+00 1.4503423697e+00 2.5120666727e+00 
32300 4.4299710525e+00 3.2546019409e-03 1.4502294228e+00 -2.5118710430e+00 1.4502294228e+00 2.5118710430e+00 
32400 4.4299626719e+00 3.2331248609e-03 1.4501172144e+00 -2.5116766922e+00 1.4501172144e+00 2.5116766922e+00 
32500 4.4299543792e+00 3.2118411030e-03 1.4500057378e+00 -2.5114836091e+00 1.4500057378e+00 2.5114836091e+00 
32600 4.4299461734e+00 3.1907484507e-03 1.4498949865e+00 -2.5112917822e+00 1.4498949865e+00 2.5112917822e+00 
32700 4.4299380533e+00 3.1698447191e-03 1.4497849541e+00 -2.5111012005e+00 1.4497849541e+00 2.5111012005e+00 
32800 4.4299300178e+00 3.1491277538e-03 1.4496756342e+00 -2.5109118530e+00 1.4496756342e+00 2.5109118530e+00 
32900 4.4299220659e+00 3.1285954309e-03 1.4495670207e+00 -2.5107237288e+00 1.4495670207e+00 2.5107237288e+00 
33000 4.4299141964e+00 3.1082456561e-03 1.4494591072e+00 -2.5105368172e+00 1.4494591072e+00 2.5105368172e+00 
33100 4.4299064084e+00 3.0880763642e-03 1.4493518876e+00 -2.5103511075e+00 1.4493518876e+00 2.5103511075e+00 
33200 4.4298987009e+00 3.0680855187e-03 1.4492453559e+00 -2.5101665891e+00 1.4492453559e+00 2.5101665891e+00 
33300 4.4298910728e+00 3.0482711115e-03 1.4491395061e+00 -2.5099832518e+00 1.4491395061e+00 2.5099832518e+00 
33400 4.4298835231e+00 3.0286311621e-03 1.4490343321e+00 -2.5098010852e+00 1.4490343321e+00 2.5098010852e+00 
33500 4.4298760508e+00 3.0091637172e-03 1.4489298283e+00 -2.5096200791e+00 1.4489298283e+00 2.5096200791e+00 
33600 4.4298686551e+00 2.9898668505e-03 1.4488259886e+00 -2.5094402236e+00 1.4488259886e+00 2.5094402236e+00 
33700 4.4298613348e+00 2.9707386618e-03 1.4487228074e+00 -2.5092615085e+00 1.4487228074e+00 2.5092615085e+00 
33800 4.4298540892e+00 2.9517772770e-03 1.4486202790e+00 -2.5090839242e+00 1.4486202790e+00 2.5090839242e+00 
33900 4.4298469172e+00 2.9329808474e-03 1.4485183979e+00 -2.5089074608e+00 1.4485183979e+00 2.5089074608e+00 
34000 4.4298398180e+00 2.9143475494e-03 1.4484171583e+00 -2.5087321088e+00 1.4484171583e+00 2.5087321088e+00 
34100 4.4298327907e+00 2.8958755840e-03 1.4483165549e+00 -2.5085578586e+00 1.4483165549e+00 2.5085578586e+00 
34200 4.4298258343e+00 2.8775631765e-03 1.4482165822e+00 -2.5083847008e+00 1.4482165822e+00 2.5083847008e+00 
34300 4.4298189480e+00 2.8594085760e-03 1.4481172349e+00 -2.5082126261e+00 1.4481172349e+00 2.5082126261e+00 
34400 4.4298121310e+00 2.8414100550e-03 1.4480185075e+00 -2.5080416253e+00 1.4480185075e+00 2.5080416253e+00 
34500 4.4298053824e+00 2.8235659091e-03 1.4479203949e+00 -2.5078716892e+00 1.4479203949e+00 2.5078716892e+00 
34600 4.4297987014e+00 2.8058744568e-03 1.4478228918e+00 -2.5077028089e+00 1.4478228918e+00 2.5077028089e+00 
34700 4.4297920871e+00 2.7883340386e-03 1.4477259931e+00 -2.5075349754e+00 1.4477259931e+00 2.5075349754e+00 
34800 4.4297855388e+00 2.7709430171e-03 1.4476296937e+00 -2.5073681800e+00 1.4476296937e+00 2.5073681800e+00 
34900 4.4297790556e+00 2.7536997766e-03 1.4475339885e+00 -2.5072024138e+00 1.4475339885e+00 2.5072024138e+00 
35000 4.4297726368e+00 2.7366027227e-03 1.4474388726e+00 -2.5070376682e+00 1.4474388726e+00 2.5070376682e+00 
35100 4.4297662816e+00 2.7196502818e-03 1.4473443411e+00 -2.5068739348e+00 1.4473443411e+00 2.5068739348e+00 
35200 4.4297599892e+00 2.7028409009e-03 1.4472503890e+00 -2.5067112050e+00 1.4472503890e+00 2.5067112050e+00 
35300 4.4297537589e+00 2.6861730474e-03 1.4471570115e+00 -2.5065494704e+00 1.4471570115e+00 2.5065494704e+00 
35400 4.4297475899e+00 2.6696452086e-03 1.4470642039e+00 -2.5063887229e+00 1.4470642039e+00 2.5063887229e+00 
35500 4.4297414815e+00 2.6532558914e-03 1.4469719613e+00 -2.5062289542e+00 1.4469719613e+00 2.5062289542e+00 
35600 4.4297354330e+00 2.6370036221e-03 1.4468802793e+00 -2.5060701562e+00 1.4468802793e+00 2.5060701562e+00 
35700 4.4297294437e+00 2.6208869461e-03 1.4467891530e+00 -2.5059123208e+00 1.4467891530e+00 2.5059123208e+00 
35800 4.4297235128e+00 2.6049044274e-03 1.4466985780e+00 -2.5057554403e+00 1.4466985780e+00 2.5057554403e+00 
35900 4.4297176398e+00 2.5890546486e-03 1.4466085496e+00 -2.5055995066e+00 1.4466085496e+00 2.5055995066e+00 
36000 4.4297118238e+00 2.5733362103e-03 1.4465190635e+00 -2.5054445121e+00 1.4465190635e+00 2.5054445121e+00 
36100 4.4297060642e+00 2.5577477311e-03 1.4464301151e+00 -2.5052904490e+00 1.4464301151e+00 2.5052904490e+00 
36200 4.4297003604e+00 2.5422878473e-03 1.4463417002e+00 -2.5051373098e+00 1.4463417002e+00 2.5051373098e+00 
36300 4.4296947118e+00 2.5269552123e-03 1.4462538142e+00 -2.5049850869e+00 1.4462538142e+00 2.5049850869e+00 
36400 4.4296891176e+00 2.5117484969e-03 1.4461664530e+00 -2.5048337728e+00 1.4461664530e+00 2.5048337728e+00 
36500 4.4296835772e+00 2.4966663884e-03 1.4460796123e+00 -2.5046833602e+00 1.4460796123e+00 2.5046833602e+00 
36600 4.4296780901e+00 2.4817075909e-03 1.4459932878e+00 -2.5045338418e+00 1.4459932878e+00 2.5045338418e+00 
36700 4.4296726555e+00 2.4668708247e-03 1.4459074754e+00 -2.5043852104e+00 1.4459074754e+00 2.5043852104e+00 
36800 4.4296672729e+00 2.4521548263e-03 1.4458221709e+00 -2.5042374588e+00 1.4458221709e+00 2.5042374588e+00 
36900 4.4296619418e+00 2.4375583479e-03 1.4457373704e+00 -2.5040905799e+00 1.4457373704e+00 2.5040905799e+00 
37000 4.4296566614e+00 2.4230801574e-03 1.4456530696e+00 -2.5039445667e+00 1.4456530696e+00 2.5039445667e+00 
37100 4.4296514312e+00 2.4087190379e-03 1.4455692647e+00 -2.5037994123e+00 1.4455692647e+00 2.5037994123e+00 
37200 4.4296462506e+00 2.3944737879e-03 1.4454859517e+00 -2.5036551099e+00 1.4454859517e+00 2.5036551099e+00 
37300 4.4296411191e+00 2.3803432207e-03 1.4454031265e+00 -2.5035116526e+00 1.4454031265e+00 2.5035116526e+00 
37400 4.4296360362e+00 2.3663261641e-03 1.4453207855e+00 -2.5033690337e+00 1.4453207855e+00 2.5033690337e+00 
37500 4.4296310011e+00 2.3524214607e-03 1.4452389246e+00 -2.5032272465e+00 1.4452389246e+00 2.5032272465e+00 
37600 4.4296260135e+00 2.3386279671e-03 1.4451575402e+00 -2.5030862845e+00 1.4451575402e+00 2.5030862845e+00 
37700 4.4296210728e+00 2.3249445541e-03 1.4450766284e+00 -2.5029461412e+00 1.4450766284e+00 2.5029461412e+00 
37800 4.4296161784e+00 2.3113701064e-03 1.4449961855e+00 -2.5028068100e+00 1.4449961855e+00 2.5028068100e+00 
37900 4.4296113298e+00 2.2979035223e-03 1.4449162078e+00 -2.5026682846e+00 1.4449162078e+00 2.5026682846e+00 
38000 4.4296065265e+00 2.2845437133e-03 1.4448366917e+00 -2.5025305586e+00 1.4448366917e+00 2.5025305586e+00 
38100 4.4296017680e+00 2.2712896046e-03 1.4447576335e+00 -2.5023936259e+00 1.4447576335e+00 2.5023936259e+00 
38200 4.4295970538e+00 2.2581401342e-03 1.4446790297e+00 -2.5022574801e+00 1.4446790297e+00 2.5022574801e+00 
38300 4.4295923833e+00 2.2450942531e-03 1.4446008767e+00 -2.5021221151e+00 1.4446008767e+00 2.5021221151e+00 
38400 4.4295877562e+00 2.2321509248e-03 1.4445231710e+00 -2.5019875249e+00 1.4445231710e+00 2.5019875249e+00 
38500 4.4295831719e+00 2.2193091254e-03 1.4444459092e+00 -2.5018537035e+00 1.4444459092e+00 2.5018537035e+00 
38600 4.4295786300e+00 2.2065678436e-03 1.4443690877e+00 -2.5017206447e+00 1.4443690877e+00 2.5017206447e+00 
38700 4.4295741299e+00 2.1939260799e-03 1.4442927032e+00 -2.5015883429e+00 1.4442927032e+00 2.5015883429e+00 
38800 4.4295696712e+00 2.1813828469e-03 1.4442167523e+00 -2.5014567921e+00 1.4442167523e+00 2.5014567921e+00 
38900 4.4295652535e+00 2.1689371691e-03 1.4441412316e+00 -2.5013259865e+00 1.4441412316e+00 2.5013259865e+00 
39000 4.4295608763e+00 2.1565880826e-03 1.4440661379e+00 -2.5011959203e+00 1.4440661379e+00 2.5011959203e+00 
39100 4.4295565391e+00 2.1443346350e-03 1.4439914679e+00 -2.5010665880e+00 1.4439914679e+00 2.5010665880e+00 
39200 4.4295522416e+00 2.1321758852e-03 1.4439172183e+00 -2.5009379839e+00 1.4439172183e+00 2.5009379839e+00 
39300 4.4295479832e+00 2.1201109032e-03 1.4438433858e+00 -2.5008101025e+00 1.4438433858e+00 2.5008101025e+00 
39400 4.4295437636e+00 2.1081387702e-03 1.4437699675e+00 -2.5006829381e+00 1.4437699675e+00 2.5006829381e+00 
39500 4.4295395823e+00 2.0962585781e-03 1.4436969600e+00 -2.5005564854e+00 1.4436969600e+00 2.5005564854e+00 
39600 4.4295354389e+00 2.0844694295e-03 1.4436243602e+00 -2.5004307389e+00 1.4436243602e+00 2.5004307389e+00 
39700 4.4295313330e+00 2.0727704377e-03 1.4435521651e+00 -2.5003056933e+00 1.4435521651e+00 2.5003056933e+00 
39800 4.4295272642e+00 2.0611607263e-03 1.4434803716e+00 -2.5001813433e+00 1.4434803716e+00 2.5001813433e+00 
39900 4.4295232321e+00 2.0496394292e-03 1.4434089767e+00 -2.5000576837e+00 1.4434089767e+00 2.5000576837e+00 
40000 4.4295192363e+00 2.0382056904e-03 1.4433379773e+00 -2.4999347092e+00 1.4433379773e+00 2.4999347092e+00 
40100 4.4295152764e+00 2.0268586640e-03 1.4432673705e+00 -2.4998124146e+00 1.4432673705e+00 2.4998124146e+00 
40200 4.4295113520e+00 2.0155975137e-03 1.4431971534e+00 -2.4996907950e+00 1.4431971534e+00 2.4996907950e+00 
40300 4.4295074627e+00 2.0044214133e-03 1.4431273229e+00 -2.4995698451e+00 1.4431273229e+00 2.4995698451e+00 
40400 4.4295036082e+00 1.9933295458e-03 1.4430578764e+00 -2.4994495601e+00 1.4430578764e+00 2.4994495601e+00 
40500 4.4294997881e+00 1.9823211039e-03 1.4429888107e+00 -2.4993299349e+00 1.4429888107e+00 2.4993299349e+00 
40600 4.4294960020e+00 1.9713952895e-03 1.4429201233e+00 -2.4992109647e+00 1.4429201233e+00 2.4992109647e+00 
40700 4.4294922495e+00 1.9605513138e-03 1.4428518111e+00 -2.4990926446e+00 1.4428518111e+00 2.4990926446e+00 
40800 4.4294885304e+00 1.9497883970e-03 1.4427838715e+00 -2.4989749697e+00 1.4427838715e+00 2.4989749697e+00 
40900 4.4294848441e+00 1.9391057683e-03 1.4427163017e+00 -2.4988579354e+00 1.4427163017e+00 2.4988579354e+00 
41000 4.4294811905e+00 1.9285026657e-03 1.4426490989e+00 -2.4987415368e+00 1.4426490989e+00 2.4987415368e+00 
41100 4.4294775692e+00 1.9179783359e-03 1.4425822605e+00 -2.4986257692e+00 1.4425822605e+00 2.4986257692e+00 
41200 4.4294739797e+00 1.9075320343e-03 1.4425157837e+00 -2.4985106281e+00 1.4425157837e+00 2.4985106281e+00 
41300 4.4294704218e+00 1.8971630247e-03 1.4424496660e+00 -2.4983961088e+00 1.4424496660e+00 2.4983961088e+00 
41400 4.4294668952e+00 1.8868705793e-03 1.4423839046e+00 -2.4982822068e+00 1.4423839046e+00 2.4982822068e+00 
41500 4.4294633995e+00 1.8766539784e-03 1.4423184971e+00 -2.4981689176e+00 1.4423184971e+00 2.4981689176e+00 
41600 4.4294599343e+00 1.8665125108e-03 1.4422534407e+00 -2.4980562367e+00 1.4422534407e+00 2.4980562367e+00 
41700 4.4294564995e+00 1.8564454730e-03 1.4421887330e+00 -2.4979441596e+00 1.4421887330e+00 2.4979441596e+00 
41800 4.4294530946e+00 1.8464521696e-03 1.4421243714e+00 -2.4978326821e+00 1.4421243714e+00 2.4978326821e+00 
41900 4.4294497193e+00 1.8365319129e-03 1.4420603534e+00 -2.4977217996e+00 1.4420603534e+00 2.4977217996e+00 
42000 4.4294463734e+00 1.8266840232e-03 1.4419966765e+00 -2.4976115080e+00 1.4419966765e+00 2.4976115080e+00 
42100 4.4294430565e+00 1.8169078282e-03 1.4419333382e+00 -2.4975018030e+00 1.4419333382e+00 2.4975018030e+00 
42200 4.4294397683e+00 1.8072026631e-03 1.4418703362e+00 -2.4973926803e+00 1.4418703362e+00 2.4973926803e+00 
42300 4.4294365086e+00 1.7975678707e-03 1.4418076680e+00 -2.4972841357e+00 1.4418076680e+00 2.4972841357e+00 
42400 4.4294332770e+00 1.7880028010e-03 1.4417453311e+00 -2.4971761651e+00 1.4417453311e+00 2.4971761651e+00 
42500 4.4294300733e+00 1.7785068113e-03 1.4416833233e+00 -2.4970687644e+00 1.4416833233e+00 2.4970687644e+00 
42600 4.4294268971e+00 1.7690792660e-03 1.4416216421e+00 -2.4969619295e+00 1.4416216421e+00 2.4969619295e+00 
42700 4.4294237482e+00 1.7597195365e-03 1.4415602853e+00 -2.4968556563e+00 1.4415602853e+00 2.4968556563e+00 
42800 4.4294206263e+00 1.7504270013e-03 1.4414992505e+00 -2.4967499409e+00 1.4414992505e+00 2.4967499409e+00 
42900 4.4294175312e+00 1.7412010457e-03 1.4414385354e+00 -2.4966447793e+00 1.4414385354e+00 2.4966447793e+00 
43000 4.4294144625e+00 1.7320410617e-03 1.4413781378e+00 -2.4965401676e+00 1.4413781378e+00 2.4965401676e+00 
43100 4.4294114200e+00 1.7229464482e-03 1.4413180554e+00 -2.4964361018e+00 1.4413180554e+00 2.4964361018e+00 
43200 4.4294084034e+00 1.7139166104e-03 1.4412582860e+00 -2.4963325782e+00 1.4412582860e+00 2.4963325782e+00 
43300 4.4294054124e+00 1.7049509603e-03 1.4411988274e+00 -2.4962295928e+00 1.4411988274e+00 2.4962295928e+00 
43400 4.4294024469e+00 1.6960489162e-03 1.4411396773e+00 -2.4961271419e+00 1.4411396773e+00 2.4961271419e+00 
43500 4.4293995065e+00 1.6872099027e-03 1.4410808337e+00 -2.4960252218e+00 1.4410808337e+00 2.4960252218e+00 
43600 4.4293965910e+00 1.6784333509e-03 1.4410222944e+00 -2.4959238287e+00 1.4410222944e+00 2.4959238287e+00 
43700 4.4293937001e+00 1.6697186980e-03 1.4409640572e+00 -2.4958229589e+00 1.4409640572e+00 2.4958229589e+00 
43800 4.4293908337e+00 1.6610653870e-03 1.4409061200e+00 -2.4957226088e+00 1.4409061200e+00 2.4957226088e+00 
43900 4.4293879913e+00 1.6524728675e-03 1.4408484808e+00 -2.4956227747e+00 1.4408484808e+00 2.4956227747e+00 
44000 4.4293851729e+00 1.6439405946e-03 1.4407911374e+00 -2.4955234531e+00 1.4407911374e+00 2.4955234531e+00 
44100 4.4293823781e+00 1.6354680295e-03 1.4407340879e+00 -2.4954246404e+00 1.4407340879e+00 2.4954246404e+00 
44200 4.4293796068e+00 1.6270546392e-03 1.4406773301e+00 -2.4953263330e+00 1.4406773301e+00 2.4953263330e+00 
44300 4.4293768587e+00 1.6186998965e-03 1.4406208621e+00 -2.4952285276e+00 1.4406208621e+00 2.4952285276e+00 
44400 4.4293741335e+00 1.6104032796e-03 1.4405646818e+00 -2.4951312205e+00 1.4405646818e+00 2.4951312205e+00 
44500 4.4293714311e+00 1.6021642726e-03 1.4405087873e+00 -2.4950344084e+00 1.4405087873e+00 2.4950344084e+00 
44600 4.4293687512e+00 1.5939823650e-03 1.4404531766e+00 -2.4949380878e+00 1.4404531766e+00 2.4949380878e+00 
44700 4.4293660935e+00 1.5858570517e-03 1.4403978478e+00 -2.4948422554e+00 1.4403978478e+00 2.4948422554e+00 
44800 4.4293634580e+00 1.5777878332e-03 1.4403427988e+00 -2.4947469079e+00 1.4403427988e+00 2.4947469079e+00 
44900 4.4293608443e+00 1.5697742150e-03 1.4402880279e+00 -2.4946520419e+00 1.4402880279e+00 2.4946520419e+00 
45000 4.4293582522e+00 1.5618157082e-03 1.4402335331e+00 -2.4945576541e+00 1.4402335331e+00 2.4945576541e+00 
45100 4.4293556816e+00 1.5539118288e-03 1.4401793125e+00 -2.4944637413e+00 1.4401793125e+00 2.4944637413e+00 
45200 4.4293531322e+00 1.5460620981e-03 1.4401253643e+00 -2.4943703003e+00 1.4401253643e+00 2.4943703003e+00 
45300 4.4293506038e+00 1.5382660425e-03 1.4400716866e+00 -2.4942773278e+00 1.4400716866e+00 2.4942773278e+00 
45400 4.4293480962e+00 1.5305231933e-03 1.4400182776e+00 -2.4941848206e+00 1.4400182776e+00 2.4941848206e+00 
45500 4.4293456092e+00 1.5228330867e-03 1.4399651354e+00 -2.4940927757e+00 1.4399651354e+00 2.4940927757e+00 
45600 4.4293431426e+00 1.5151952639e-03 1.4399122583e+00 -2.4940011899e+00 1.4399122583e+00 2.4940011899e+00 
45700 4.4293406962e+00 1.5076092708e-03 1.4398596445e+00 -2.4939100600e+00 1.4398596445e+00 2.4939100600e+00 
45800 4.4293382698e+00 1.5000746583e-03 1.4398072922e+00 -2.4938193831e+00 1.4398072922e+00 2.4938193831e+00 
45900 4.4293358632e+00 1.4925909816e-03 1.4397551996e+00 -2.4937291561e+00 1.4397551996e+00 2.4937291561e+00 
46000 4.4293334763e+00 1.4851578010e-03 1.4397033650e+00 -2.4936393760e+00 1.4397033650e+00 2.4936393760e+00 
46100 4.4293311087e+00 1.4777746810e-03 1.4396517867e+00 -2.4935500398e+00 1.4396517867e+00 2.4935500398e+00 
46200 4.4293287605e+00 1.4704411908e-03 1.4396004630e+00 -2.4934611445e+00 1.4396004630e+00 2.4934611445e+00 
46300 4.4293264313e+00 1.4631569043e-03 1.4395493921e+00 -2.4933726872e+00 1.4395493921e+00 2.4933726872e+00 
46400 4.4293241209e+00 1.4559213993e-03 1.4394985725e+00 -2.4932846649e+00 1.4394985725e+00 2.4932846649e+00 
46500 4.4293218293e+00 1.4487342585e-03 1.4394480023e+00 -2.4931970749e+00 1.4394480023e+00 2.4931970749e+00 
46600 4.4293195562e+00 1.4415950686e-03 1.4393976801e+00 -2.4931099141e+00 1.4393976801e+00 2.4931099141e+00 
46700 4.4293173014e+00 1.4345034207e-03 1.4393476040e+00 -2.4930231799e+00 1.4393476040e+00 2.4930231799e+00 
46800 4.4293150648e+00 1.4274589101e-03 1.4392977726e+00 -2.4929368693e+00 1.4392977726e+00 2.4929368693e+00 
46900 4.4293128462e+00 1.4204611361e-03 1.4392481841e+00 -2.4928509796e+00 1.4392481841e+00 2.4928509796e+00 
47000 4.4293106455e+00 1.4135097024e-03 1.4391988371e+00 -2.4927655080e+00 1.4391988371e+00 2.4927655080e+00 
47100 4.4293084623e+00 1.4066042166e-03 1.4391497298e+00 -2.4926804518e+00 1.4391497298e+00 2.4926804518e+00 
47200 4.4293062967e+00 1.3997442902e-03 1.4391008608e+00 -2.4925958082e+00 1.4391008608e+00 2.4925958082e+00 
47300 4.4293041484e+00 1.3929295390e-03 1.4390522285e+00 -2.4925115745e+00 1.4390522285e+00 2.4925115745e+00 
47400 4.4293020172e+00 1.3861595825e-03 1.4390038313e+00 -2.4924277481e+00 1.4390038313e+00 2.4924277481e+00 
47500 4.4292999031e+00 1.3794340439e-03 1.4389556677e+00 -2.4923443264e+00 1.4389556677e+00 2.4923443264e+00 
47600 4.4292978058e+00 1.3727525507e-03 1.4389077362e+00 -2.4922613065e+00 1.4389077362e+00 2.4922613065e+00 
47700 4.4292957251e+00 1.3661147337e-03 1.4388600353e+00 -2.4921786861e+00 1.4388600353e+00 2.4921786861e+00 
47800 4.4292936610e+00 1.3595202278e-03 1.4388125634e+00 -2.4920964624e+00 1.4388125634e+00 2.4920964624e+00 
47900 4.4292916133e+00 1.3529686713e-03 1.4387653192e+00 -2.4920146330e+00 1.4387653192e+00 2.4920146330e+00 
48000 4.4292895817e+00 1.3464597065e-03 1.4387183010e+00 -2.4919331952e+00 1.4387183010e+00 2.4919331952e+00 
48100 4.4292875663e+00 1.3399929789e-03 1.4386715076e+00 -2.4918521465e+00 1.4386715076e+00 2.4918521465e+00 
48200 4.4292855667e+00 1.3335681379e-03 1.4386249373e+00 -2.4917714845e+00 1.4386249373e+00 2.4917714845e+00 
48300 4.4292835830e+00 1.3271848363e-03 1.4385785888e+00 -2.4916912066e+00 1.4385785888e+00 2.4916912066e+00 
48400 4.4292816148e+00 1.3208427304e-03 1.4385324608e+00 -2.4916113104e+00 1.4385324608e+00 2.4916113104e+00 
48500 4.4292796622e+00 1.3145414798e-03 1.4384865516e+00 -2.4915317934e+00 1.4384865516e+00 2.4915317934e+00 
48600 4.4292777248e+00 1.3082807478e-03 1.4384408600e+00 -2.4914526533e+00 1.4384408600e+00 2.4914526533e+00 
48700 4.4292758027e+00 1.3020602007e-03 1.4383953846e+00 -2.4913738875e+00 1.4383953846e+00 2.4913738875e+00 
48800 4.4292738956e+00 1.2958795085e-03 1.4383501240e+00 -2.4912954938e+00 1.4383501240e+00 2.4912954938e+00 
48900 4.4292720034e+00 1.2897383441e-03 1.4383050768e+00 -2.4912174698e+00 1.4383050768e+00 2.4912174698e+00 
49000 4.4292701260e+00 1.2836363840e-03 1.4382602417e+00 -2.4911398131e+00 1.4382602417e+00 2.4911398131e+00 
49100 4.4292682632e+00 1.2775733077e-03 1.4382156173e+00 -2.4910625214e+00 1.4382156173e+00 2.4910625214e+00 
49200 4.4292664150e+00 1.2715487979e-03 1.4381712023e+00 -2.4909855924e+00 1.4381712023e+00 2.4909855924e+00 
49300 4.4292645811e+00 1.2655625406e-03 1.4381269954e+00 -2.4909090237e+00 1.4381269954e+00 2.4909090237e+00 
49400 4.4292627615e+00 1.2596142245e-03 1.4380829952e+00 -2.4908328132e+00 1.4380829952e+00 2.4908328132e+00 
49500 4.4292609560e+00 1.2537035419e-03 1.4380392006e+00 -2.4907569586e+00 1.4380392006e+00 2.4907569586e+00 
49600 4.4292591644e+00 1.2478301876e-03 1.4379956100e+00 -2.4906814577e+00 1.4379956100e+00 2.4906814577e+00 
49700 4.4292573868e+00 1.2419938599e-03 1.4379522224e+00 -2.4906063081e+00 1.4379522224e+00 2.4906063081e+00 
49800 4.4292556228e+00 1.2361942596e-03 1.4379090364e+00 -2.4905315078e+00 1.4379090364e+00 2.4905315078e+00 
49900 4.4292538725e+00 1.2304310908e-03 1.4378660508e+00 -2.4904570545e+00 1.4378660508e+00 2.4904570545e+00 
50000 4.4292521356e+00 1.2247040601e-03 1.4378232643e+00 -2.4903829461e+00 1.4378232643e+00 2.4903829461e+00 
50100 4.4292504122e+00 1.2190128774e-03 1.4377806757e+00 -2.4903091805e+00 1.4377806757e+00 2.4903091805e+00 
50200 4.4292487019e+00 1.2133572551e-03 1.4377382838e+00 -2.4902357555e+00 1.4377382838e+00 2.4902357555e+00 
50300 4.4292470048e+00 1.2077369086e-03 1.4376960872e+00 -2.4901626689e+00 1.4376960872e+00 2.4901626689e+00 
50400 4.4292453207e+00 1.2021515559e-03 1.4376540849e+00 -2.4900899188e+00 1.4376540849e+00 2.4900899188e+00 
50500 4.4292436495e+00 1.1966009178e-03 1.4376122756e+00 -2.4900175030e+00 1.4376122756e+00 2.4900175030e+00 
50600 4.4292419910e+00 1.1910847178e-03 1.4375706582e+00 -2.4899454195e+00 1.4375706582e+00 2.4899454195e+00 
50700 4.4292403452e+00 1.1856026820e-03 1.4375292314e+00 -2.4898736661e+00 1.4375292314e+00 2.4898736661e+00 
50800 4.4292387120e+00 1.1801545394e-03 1.4374879941e+00 -2.4898022410e+00 1.4374879941e+00 2.4898022410e+00 
50900 4.4292370912e+00 1.1747400213e-03 1.4374469451e+00 -2.4897311420e+00 1.4374469451e+00 2.4897311420e+00 
51000 4.4292354827e+00 1.1693588618e-03 1.4374060832e+00 -2.4896603673e+00 1.4374060832e+00 2.4896603673e+00 
51100 4.4292338865e+00 1.1640107973e-03 1.4373654074e+00 -2.4895899147e+00 1.4373654074e+00 2.4895899147e+00 
51200 4.4292323023e+00 1.1586955670e-03 1.4373249165e+00 -2.4895197823e+00 1.4373249165e+00 2.4895197823e+00 
51300 4.4292307301e+00 1.1534129124e-03 1.4372846093e+00 -2.4894499683e+00 1.4372846093e+00 2.4894499683e+00 
51400 4.4292291699e+00 1.1481625777e-03 1.4372444848e+00 -2.4893804705e+00 1.4372444848e+00 2.4893804705e+00 
51500 4.4292276214e+00 1.1429443092e-03 1.4372045418e+00 -2.4893112872e+00 1.4372045418e+00 2.4893112872e+00 
51600 4.4292260846e+00 1.1377578559e-03 1.4371647792e+00 -2.4892424164e+00 1.4371647792e+00 2.4892424164e+00 
51700 4.4292245594e+00 1.1326029691e-03 1.4371251960e+00 -2.4891738562e+00 1.4371251960e+00 2.4891738562e+00 
51800 4.4292230456e+00 1.1274794024e-03 1.4370857910e+00 -2.4891056048e+00 1.4370857910e+00 2.4891056048e+00 
51900 4.4292215433e+00 1.1223869119e-03 1.4370465632e+00 -2.4890376603e+00 1.4370465632e+00 2.4890376603e+00 
52000 4.4292200522e+00 1.1173252557e-03 1.4370075115e+00 -2.4889700208e+00 1.4370075115e+00 2.4889700208e+00 
52100 4.4292185723e+00 1.1122941944e-03 1.4369686349e+00 -2.4889026845e+00 1.4369686349e+00 2.4889026845e+00 
52200 4.4292171035e+00 1.1072934910e-03 1.4369299322e+00 -2.4888356495e+00 1.4369299322e+00 2.4888356495e+00 
52300 4.4292156456e+00 1.1023229104e-03 1.4368914026e+00 -2.4887689142e+00 1.4368914026e+00 2.4887689142e+00 
52400 4.4292141987e+00 1.0973822200e-03 1.4368530448e+00 -2.4887024767e+00 1.4368530448e+00 2.4887024767e+00 
52500 4.4292127625e+00 1.0924711891e-03 1.4368148580e+00 -2.4886363351e+00 1.4368148580e+00 2.4886363351e+00 
52600 4.4292113371e+00 1.0875895895e-03 1.4367768411e+00 -2.4885704878e+00 1.4367768411e+00 2.4885704878e+00 
52700 4.4292099222e+00 1.0827371948e-03 1.4367389930e+00 -2.4885049330e+00 1.4367389930e+00 2.4885049330e+00 
52800 4.4292085179e+00 1.0779137809e-03 1.4367013128e+00 -2.4884396690e+00 1.4367013128e+00 2.4884396690e+00 
52900 4.4292071240e+00 1.0731191257e-03 1.4366637994e+00 -2.4883746940e+00 1.4366637994e+00 2.4883746940e+00 
53000 4.4292057404e+00 1.0683530094e-03 1.4366264520e+00 -2.4883100063e+00 1.4366264520e+00 2.4883100063e+00 
53100 4.4292043671e+00 1.0636152139e-03 1.4365892694e+00 -2.4882456043e+00 1.4365892694e+00 2.4882456043e+00 
53200 4.4292030040e+00 1.0589055233e-03 1.4365522508e+00 -2.4881814862e+00 1.4365522508e+00 2.4881814862e+00 
53300 4.4292016509e+00 1.0542237238e-03 1.4365153952e+00 -2.4881176504e+00 1.4365153952e+00 2.4881176504e+00 
53400 4.4292003077e+00 1.0495696034e-03 1.4364787016e+00 -2.4880540951e+00 1.4364787016e+00 2.4880540951e+00 
53500 4.4291989745e+00 1.0449429521e-03 1.4364421690e+00 -2.4879908189e+00 1.4364421690e+00 2.4879908189e+00 
53600 4.4291976511e+00 1.0403435619e-03 1.4364057966e+00 -2.4879278199e+00 1.4364057966e+00 2.4879278199e+00 
53700 4.4291963374e+00 1.0357712267e-03 1.4363695833e+00 -2.4878650967e+00 1.4363695833e+00 2.4878650967e+00 
53800 4.4291950334e+00 1.0312257422e-03 1.4363335283e+00 -2.4878026475e+00 1.4363335283e+00 2.4878026475e+00 
53900 4.4291937389e+00 1.0267069060e-03 1.4362976305e+00 -2.4877404709e+00 1.4362976305e+00 2.4877404709e+00 
54000 4.4291924540e+00 1.0222145178e-03 1.4362618893e+00 -2.4876785652e+00 1.4362618893e+00 2.4876785652e+00 
54100 4.4291911784e+00 1.0177483788e-03 1.4362263035e+00 -2.4876169288e+00 1.4362263035e+00 2.4876169288e+00 
54200 4.4291899121e+00 1.0133082922e-03 1.4361908723e+00 -2.4875555601e+00 1.4361908723e+00 2.4875555601e+00 
54300 4.4291886551e+00 1.0088940629e-03 1.4361555948e+00 -2.4874944577e+00 1.4361555948e+00 2.4874944577e+00 
54400 4.4291874072e+00 1.0045054977e-03 1.4361204701e+00 -2.4874336200e+00 1.4361204701e+00 2.4874336200e+00 
54500 4.4291861685e+00 1.0001424050e-03 1.4360854974e+00 -2.4873730455e+00 1.4360854974e+00 2.4873730455e+00 
54600 4.4291849387e+00 9.9580459508e-04 1.4360506757e+00 -2.4873127325e+00 1.4360506757e+00 2.4873127325e+00 
54700 4.4291837179e+00 9.9149187984e-04 1.4360160042e+00 -2.4872526797e+00 1.4360160042e+00 2.4872526797e+00 
54800 4.4291825059e+00 9.8720407294e-04 1.4359814820e+00 -2.4871928856e+00 1.4359814820e+00 2.4871928856e+00 
54900 4.4291813027e+00 9.8294098972e-04 1.4359471083e+00 -2.4871333486e+00 1.4359471083e+00 2.4871333486e+00 
55000 4.4291801082e+00 9.7870244716e-04 1.4359128822e+00 -2.4870740672e+00 1.4359128822e+00 2.4870740672e+00 
55100 4.4291789224e+00 9.7448826391e-04 1.4358788029e+00 -2.4870150401e+00 1.4358788029e+00 2.4870150401e+00 
55200 4.4291777451e+00 9.7029826024e-04 1.4358448695e+00 -2.4869562658e+00 1.4358448695e+00 2.4869562658e+00 
55300 4.4291765764e+00 9.6613225805e-04 1.4358110812e+00 -2.4868977428e+00 1.4358110812e+00 2.4868977428e+00 
55400 4.4291754160e+00 9.6199008082e-04 1.4357774372e+00 -2.4868394697e+00 1.4357774372e+00 2.4868394697e+00 
55500 4.4291742640e+00 9.5787155362e-04 1.4357439367e+00 -2.4867814450e+00 1.4357439367e+00 2.4867814450e+00 
55600 4.4291731203e+00 9.5377650308e-04 1.4357105788e+00 -2.4867236675e+00 1.4357105788e+00 2.4867236675e+00 
55700 4.4291719848e+00 9.4970475738e-04 1.4356773628e+00 -2.4866661356e+00 1.4356773628e+00 2.4866661356e+00 
55800 4.4291708574e+00 9.4565614623e-04 1.4356442877e+00 -2.4866088480e+00 1.4356442877e+00 2.4866088480e+00 
55900 4.4291697381e+00 9.4163050086e-04 1.4356113530e+00 -2.4865518033e+00 1.4356113530e+00 2.4865518033e+00 
56000 4.4291686268e+00 9.3762765399e-04 1.4355785576e+00 -2.4864950001e+00 1.4355785576e+00 2.4864950001e+00 
56100 4.4291675235e+00 9.3364743984e-04 1.4355459010e+00 -2.4864384371e+00 1.4355459010e+00 2.4864384371e+00 
56200 4.4291664280e+00 9.2968969409e-04 1.4355133822e+00 -2.4863821129e+00 1.4355133822e+00 2.4863821129e+00 
56300 4.4291653404e+00 9.2575425386e-04 1.4354810005e+00 -2.4863260262e+00 1.4354810005e+00 2.4863260262e+00 
56400 4.4291642605e+00 9.2184095773e-04 1.4354487552e+00 -2.4862701757e+00 1.4354487552e+00 2.4862701757e+00 
56500 4.4291631883e+00 9.1794964570e-04 1.4354166455e+00 -2.4862145600e+00 1.4354166455e+00 2.4862145600e+00 
56600 4.4291621237e+00 9.1408015917e-04 1.4353846706e+00 -2.4861591778e+00 1.4353846706e+00 2.4861591778e+00 
56700 4.4291610667e+00 9.1023234093e-04 1.4353528297e+00 -2.4861040279e+00 1.4353528297e+00 2.4861040279e+00 
56800 4.4291600171e+00 9.0640603518e-04 1.4353211222e+00 -2.4860491089e+00 1.4353211222e+00 2.4860491089e+00 
56900 4.4291589750e+00 9.0260108744e-04 1.4352895473e+00 -2.4859944196e+00 1.4352895473e+00 2.4859944196e+00 
57000 4.4291579403e+00 8.9881734463e-04 1.4352581043e+00 -2.4859399586e+00 1.4352581043e+00 2.4859399586e+00 
57100 4.4291569129e+00 8.9505465496e-04 1.4352267923e+00 -2.4858857247e+00 1.4352267923e+00 2.4858857247e+00 
57200 4.4291558928e+00 8.9131286801e-04 1.4351956108e+00 -2.4858317167e+00 1.4351956108e+00 2.4858317167e+00 
57300 4.4291548798e+00 8.8759183465e-04 1.4351645590e+00 -2.4857779333e+00 1.4351645590e+00 2.4857779333e+00 
57400 4.4291538740e+00 8.8389140703e-04 1.4351336361e+00 -2.4857243733e+00 1.4351336361e+00 2.4857243733e+00 
57500 4.4291528753e+00 8.8021143862e-04 1.4351028414e+00 -2.4856710355e+00 1.4351028414e+00 2.4856710355e+00 
57600 4.4291518835e+00 8.7655178412e-04 1.4350721744e+00 -2.4856179185e+00 1.4350721744e+00 2.4856179185e+00 
57700 4.4291508988e+00 8.7291229954e-04 1.4350416341e+00 -2.4855650213e+00 1.4350416341e+00 2.4855650213e+00 
57800 4.4291499210e+00 8.6929284209e-04 1.4350112201e+00 -2.4855123426e+00 1.4350112201e+00 2.4855123426e+00 
57900 4.4291489500e+00 8.6569327022e-04 1.4349809315e+00 -2.4854598812e+00 1.4349809315e+00 2.4854598812e+00 
58000 4.4291479858e+00 8.6211344363e-04 1.4349507676e+00 -2.4854076359e+00 1.4349507676e+00 2.4854076359e+00 
58100 4.4291470283e+00 8.5855322320e-04 1.4349207279e+00 -2.4853556056e+00 1.4349207279e+00 2.4853556056e+00 
58200 4.4291460776e+00 8.5501247101e-04 1.4348908116e+00 -2.4853037890e+00 1.4348908116e+00 2.4853037890e+00 
58300 4.4291451335e+00 8.5149105033e-04 1.4348610181e+00 -2.4852521851e+00 1.4348610181e+00 2.4852521851e+00 
58400 4.4291441959e+00 8.4798882560e-04 1.4348313466e+00 -2.4852007926e+00 1.4348313466e+00 2.4852007926e+00 
58500 4.4291432649e+00 8.4450566242e-04 1.4348017966e+00 -2.4851496105e+00 1.4348017966e+00 2.4851496105e+00 
58600 4.4291423404e+00 8.4104142754e-04 1.4347723674e+00 -2.4850986376e+00 1.4347723674e+00 2.4850986376e+00 
58700 4.4291414223e+00 8.3759598884e-04 1.4347430582e+00 -2.4850478727e+00 1.4347430582e+00 2.4850478727e+00 
58800 4.4291405105e+00 8.3416921533e-04 1.4347138686e+00 -2.4849973147e+00 1.4347138686e+00 2.4849973147e+00 
58900 4.4291396051e+00 8.3076097714e-04 1.4346847977e+00 -2.4849469625e+00 1.4346847977e+00 2.4849469625e+00 
59000 4.4291387060e+00 8.2737114550e-04 1.4346558451e+00 -2.4848968151e+00 1.4346558451e+00 2.4848968151e+00 
59100 4.4291378131e+00 8.2399959272e-04 1.4346270100e+00 -2.4848468713e+00 1.4346270100e+00 2.4848468713e+00 
59200 4.4291369263e+00 8.2064619222e-04 1.4345982919e+00 -2.4847971300e+00 1.4345982919e+00 2.4847971300e+00 
59300 4.4291360457e+00 8.1731081846e-04 1.4345696900e+00 -2.4847475901e+00 1.4345696900e+00 2.4847475901e+00 
59400 4.4291351712e+00 8.1399334697e-04 1.4345412038e+00 -2.4846982506e+00 1.4345412038e+00 2.4846982506e+00 
59500 4.4291343026e+00 8.1069365434e-04 1.4345128327e+00 -2.4846491104e+00 1.4345128327e+00 2.4846491104e+00 
59600 4.4291334401e+00 8.0741161820e-04 1.4344845761e+00 -2.4846001684e+00 1.4344845761e+00 2.4846001684e+00 
59700 4.4291325835e+00 8.0414711718e-04 1.4344564332e+00 -2.4845514236e+00 1.4344564332e+00 2.4845514236e+00 
59800 4.4291317328e+00 8.0090003096e-04 1.4344284036e+00 -2.4845028749e+00 1.4344284036e+00 2.4845028749e+00 
59900 4.4291308879e+00 7.9767024023e-04 1.4344004867e+00 -2.4844545213e+00 1.4344004867e+00 2.4844545213e+00 
60000 4.4291300488e+00 7.9445762665e-04 1.4343726818e+00 -2.4844063618e+00 1.4343726818e+00 2.4844063618e+00 
60100 4.4291292155e+00 7.9126207289e-04 1.4343449883e+00 -2.4843583953e+00 1.4343449883e+00 2.4843583953e+00 
60200 4.4291283878e+00 7.8808346260e-04 1.4343174057e+00 -2.4843106208e+00 1.4343174057e+00 2.4843106208e+00 
60300 4.4291275658e+00 7.8492168039e-04 1.4342899334e+00 -2.4842630374e+00 1.4342899334e+00 2.4842630374e+00 
60400 4.4291267495e+00 7.8177661183e-04 1.4342625707e+00 -2.4842156439e+00 1.4342625707e+00 2.4842156439e+00 
60500 4.4291259387e+00 7.7864814347e-04 1.4342353172e+00 -2.4841684394e+00 1.4342353172e+00 2.4841684394e+00 
60600 4.4291251334e+00 7.7553616275e-04 1.4342081722e+00 -2.4841214229e+00 1.4342081722e+00 2.4841214229e+00 
60700 4.4291243336e+00 7.7244055809e-04 1.4341811352e+00 -2.4840745935e+00 1.4341811352e+00 2.4840745935e+00 
60800 4.4291235393e+00 7.6936121881e-04 1.4341542056e+00 -2.4840279500e+00 1.4341542056e+00 2.4840279500e+00 
60900 4.4291227503e+00 7.6629803513e-04 1.4341273829e+00 -2.4839814917e+00 1.4341273829e+00 2.4839814917e+00 
61000 4.4291219667e+00 7.6325089822e-04 1.4341006665e+00 -2.4839352175e+00 1.4341006665e+00 2.4839352175e+00 
61100 4.4291211884e+00 7.6021970011e-04 1.4340740558e+00 -2.4838891264e+00 1.4340740558e+00 2.4838891264e+00 
61200 4.4291204154e+00 7.5720433372e-04 1.4340475502e+00 -2.4838432175e+00 1.4340475502e+00 2.4838432175e+00 
61300 4.4291196476e+00 7.5420469287e-04 1.4340211494e+00 -2.4837974898e+00 1.4340211494e+00 2.4837974898e+00 
61400 4.4291188851e+00 7.5122067223e-04 1.4339948526e+00 -2.4837519425e+00 1.4339948526e+00 2.4837519425e+00 
61500 4.4291181276e+00 7.4825216735e-04 1.4339686594e+00 -2.4837065745e+00 1.4339686594e+00 2.4837065745e+00 
61600 4.4291173753e+00 7.4529907463e-04 1.4339425692e+00 -2.4836613850e+00 1.4339425692e+00 2.4836613850e+00 
61700 4.4291166281e+00 7.4236129129e-04 1.4339165815e+00 -2.4836163730e+00 1.4339165815e+00 2.4836163730e+00 
61800 4.4291158858e+00 7.3943871543e-04 1.4338906958e+00 -2.4835715377e+00 1.4338906958e+00 2.4835715377e+00 
61900 4.4291151486e+00 7.3653124596e-04 1.4338649116e+00 -2.4835268780e+00 1.4338649116e+00 2.4835268780e+00 
62000 4.4291144163e+00 7.3363878260e-04 1.4338392282e+00 -2.4834823931e+00 1.4338392282e+00 2.4834823931e+00 
62100 4.4291136890e+00 7.3076122591e-04 1.4338136453e+00 -2.4834380822e+00 1.4338136453e+00 2.4834380822e+00 
62200 4.4291129665e+00 7.2789847724e-04 1.4337881622e+00 -2.4833939442e+00 1.4337881622e+00 2.4833939442e+00 
62300 4.4291122489e+00 7.2505043873e-04 1.4337627785e+00 -2.4833499784e+00 1.4337627785e+00 2.4833499784e+00 
62400 4.4291115361e+00 7.2221701334e-04 1.4337374937e+00 -2.4833061838e+00 1.4337374937e+00 2.4833061838e+00 
62500 4.4291108280e+00 7.1939810478e-04 1.4337123073e+00 -2.4832625597e+00 1.4337123073e+00 2.4832625597e+00 
62600 4.4291101247e+00 7.1659361756e-04 1.4336872187e+00 -2.4832191050e+00 1.4336872187e+00 2.4832191050e+00 
62700 4.4291094261e+00 7.1380345696e-04 1.4336622275e+00 -2.4831758189e+00 1.4336622275e+00 2.4831758189e+00 
62800 4.4291087321e+00 7.1102752900e-04 1.4336373332e+00 -2.4831327007e+00 1.4336373332e+00 2.4831327007e+00 
62900 4.4291080428e+00 7.0826574048e-04 1.4336125352e+00 -2.4830897493e+00 1.4336125352e+00 2.4830897493e+00 
63000 4.4291073581e+00 7.0551799892e-04 1.4335878331e+00 -2.4830469641e+00 1.4335878331e+00 2.4830469641e+00 
63100 4.4291066779e+00 7.0278421261e-04 1.4335632265e+00 -2.4830043441e+00 1.4335632265e+00 2.4830043441e+00 
63200 4.4291060022e+00 7.0006429055e-04 1.4335387148e+00 -2.4829618886e+00 1.4335387148e+00 2.4829618886e+00 
63300 4.4291053310e+00 6.9735814248e-04 1.4335142975e+00 -2.4829195966e+00 1.4335142975e+00 2.4829195966e+00 
63400 4.4291046643e+00 6.9466567885e-04 1.4334899742e+00 -2.4828774674e+00 1.4334899742e+00 2.4828774674e+00 
63500 4.4291040020e+00 6.9198681082e-04 1.4334657444e+00 -2.4828355002e+00 1.4334657444e+00 2.4828355002e+00 
63600 4.4291033441e+00 6.8932145028e-04 1.4334416076e+00 -2.4827936940e+00 1.4334416076e+00 2.4827936940e+00 
63700 4.4291026905e+00 6.8666950979e-04 1.4334175634e+00 -2.4827520482e+00 1.4334175634e+00 2.4827520482e+00 
63800 4.4291020412e+00 6.8403090262e-04 1.4333936113e+00 -2.4827105620e+00 1.4333936113e+00 2.4827105620e+00 
63900 4.4291013963e+00 6.8140554272e-04 1.4333697508e+00 -2.4826692344e+00 1.4333697508e+00 2.4826692344e+00 
64000 4.4291007556e+00 6.7879334473e-04 1.4333459815e+00 -2.4826280648e+00 1.4333459815e+00 2.4826280648e+00 
64100 4.4291001191e+00 6.7619422395e-04 1.4333223029e+00 -2.4825870523e+00 1.4333223029e+00 2.4825870523e+00 
64200 4.4290994868e+00 6.7360809636e-04 1.4332987147e+00 -2.4825461962e+00 1.4332987147e+00 2.4825461962e+00 
64300 4.4290988587e+00 6.7103487858e-04 1.4332752162e+00 -2.4825054957e+00 1.4332752162e+00 2.4825054957e+00 
64400 4.4290982347e+00 6.6847448792e-04 1.4332518071e+00 -2.4824649500e+00 1.4332518071e+00 2.4824649500e+00 
64500 4.4290976148e+00 6.6592684231e-04 1.4332284870e+00 -2.4824245583e+00 1.4332284870e+00 2.4824245583e+00 
64600 4.4290969989e+00 6.6339186033e-04 1.4332052553e+00 -2.4823843199e+00 1.4332052553e+00 2.4823843199e+00 
64700 4.4290963871e+00 6.6086946121e-04 1.4331821117e+00 -2.4823442340e+00 1.4331821117e+00 2.4823442340e+00 
64800 4.4290957794e+00 6.5835956479e-04 1.4331590558e+00 -2.4823043000e+00 1.4331590558e+00 2.4823043000e+00 
64900 4.4290951755e+00 6.5586209156e-04 1.4331360870e+00 -2.4822645169e+00 1.4331360870e+00 2.4822645169e+00 
65000 4.4290945757e+00 6.5337696261e-04 1.4331132050e+00 -2.4822248841e+00 1.4331132050e+00 2.4822248841e+00 
65100 4.4290939797e+00 6.5090409965e-04 1.4330904094e+00 -2.4821854009e+00 1.4330904094e+00 2.4821854009e+00 
65200 4.4290933877e+00 6.4844342501e-04 1.4330676996e+00 -2.4821460664e+00 1.4330676996e+00 2.4821460664e+00 
65300 4.4290927995e+00 6.4599486160e-04 1.4330450754e+00 -2.4821068801e+00 1.4330450754e+00 2.4821068801e+00 
65400 4.4290922151e+00 6.4355833295e-04 1.4330225362e+00 -2.4820678411e+00 1.4330225362e+00 2.4820678411e+00 
65500 4.4290916346e+00 6.4113376317e-04 1.4330000817e+00 -2.4820289487e+00 1.4330000817e+00 2.4820289487e+00 
65600 4.4290910578e+00 6.3872107695e-04 1.4329777114e+00 -2.4819902023e+00 1.4329777114e+00 2.4819902023e+00 
65700 4.4290904848e+00 6.3632019959e-04 1.4329554250e+00 -2.4819516010e+00 1.4329554250e+00 2.4819516010e+00 
65800 4.4290899154e+00 6.3393105693e-04 1.4329332219e+00 -2.4819131443e+00 1.4329332219e+00 2.4819131443e+00 
65900 4.4290893498e+00 6.3155357540e-04 1.4329111020e+00 -2.4818748313e+00 1.4329111020e+00 2.4818748313e+00 
66000 4.4290887879e+00 6.2918768200e-04 1.4328890646e+00 -2.4818366615e+00 1.4328890646e+00 2.4818366615e+00 
66100 4.4290882296e+00 6.2683330428e-04 1.4328671094e+00 -2.4817986340e+00 1.4328671094e+00 2.4817986340e+00 
66200 4.4290876749e+00 6.2449037035e-04 1.4328452361e+00 -2.4817607483e+00 1.4328452361e+00 2.4817607483e+00 
66300 4.4290871237e+00 6.2215880886e-04 1.4328234442e+00 -2.4817230036e+00 1.4328234442e+00 2.4817230036e+00 
66400 4.4290865762e+00 6.1983854902e-04 1.4328017333e+00 -2.4816853992e+00 1.4328017333e+00 2.4816853992e+00 
66500 4.4290860322e+00 6.1752952059e-04 1.4327801030e+00 -2.4816479346e+00 1.4327801030e+00 2.4816479346e+00 
66600 4.4290854917e+00 6.1523165383e-04 1.4327585531e+00 -2.4816106089e+00 1.4327585531e+00 2.4816106089e+00 
66700 4.4290849546e+00 6.1294487956e-04 1.4327370829e+00 -2.4815734215e+00 1.4327370829e+00 2.4815734215e+00 
66800 4.4290844211e+00 6.1066912912e-04 1.4327156923e+00 -2.4815363718e+00 1.4327156923e+00 2.4815363718e+00 
66900 4.4290838909e+00 6.0840433436e-04 1.4326943807e+00 -2.4814994592e+00 1.4326943807e+00 2.4814994592e+00 
67000 4.4290833642e+00 6.0615042767e-04 1.4326731479e+00 -2.4814626828e+00 1.4326731479e+00 2.4814626828e+00 
67100 4.4290828408e+00 6.0390734193e-04 1.4326519935e+00 -2.4814260422e+00 1.4326519935e+00 2.4814260422e+00 
67200 4.4290823208e+00 6.0167501054e-04 1.4326309170e+00 -2.4813895367e+00 1.4326309170e+00 2.4813895367e+00 
67300 4.4290818042e+00 5.9945336740e-04 1.4326099180e+00 -2.4813531655e+00 1.4326099180e+00 2.4813531655e+00 
67400 4.4290812908e+00 5.9724234690e-04 1.4325889964e+00 -2.4813169281e+00 1.4325889964e+00 2.4813169281e+00 
67500 4.4290807808e+00 5.9504188393e-04 1.4325681516e+00 -2.4812808238e+00 1.4325681516e+00 2.4812808238e+00 
67600 4.4290802740e+00 5.9285191388e-04 1.4325473833e+00 -2.4812448520e+00 1.4325473833e+00 2.4812448520e+00 
67700 4.4290797704e+00 5.9067237261e-04 1.4325266911e+00 -2.4812090121e+00 1.4325266911e+00 2.4812090121e+00 
67800 4.4290792701e+00 5.8850319647e-04 1.4325060747e+00 -2.4811733035e+00 1.4325060747e+00 2.4811733035e+00 
67900 4.4290787729e+00 5.8634432229e-04 1.4324855337e+00 -2.4811377255e+00 1.4324855337e+00 2.4811377255e+00 
68000 4.4290782789e+00 5.8419568736e-04 1.4324650678e+00 -2.4811022774e+00 1.4324650678e+00 2.4811022774e+00 
68100 4.4290777881e+00 5.8205722944e-04 1.4324446765e+00 -2.4810669588e+00 1.4324446765e+00 2.4810669588e+00 
68200 4.4290773003e+00 5.7992888678e-04 1.4324243597e+00 -2.4810317689e+00 1.4324243597e+00 2.4810317689e+00 
68300 4.4290768157e+00 5.7781059805e-04 1.4324041168e+00 -2.4809967073e+00 1.4324041168e+00 2.4809967073e+00 
68400 4.4290763342e+00 5.7570230241e-04 1.4323839476e+00 -2.4809617732e+00 1.4323839476e+00 2.4809617732e+00 
68500 4.4290758557e+00 5.7360393945e-04 1.4323638517e+00 -2.4809269660e+00 1.4323638517e+00 2.4809269660e+00 
68600 4.4290753802e+00 5.7151544922e-04 1.4323438287e+00 -2.4808922853e+00 1.4323438287e+00 2.4808922853e+00 
68700 4.4290749078e+00 5.6943677221e-04 1.4323238784e+00 -2.4808577303e+00 1.4323238784e+00 2.4808577303e+00 
68800 4.4290744384e+00 5.6736784935e-04 1.4323040004e+00 -2.4808233006e+00 1.4323040004e+00 2.4808233006e+00 
68900 4.4290739719e+00 5.6530862201e-04 1.4322841943e+00 -2.4807889955e+00 1.4322841943e+00 2.4807889955e+00 
69000 4.4290735084e+00 5.6325903200e-04 1.4322644599e+00 -2.4807548144e+00 1.4322644599e+00 2.4807548144e+00 
69100 4.4290730478e+00 5.6121902154e-04 1.4322447967e+00 -2.4807207567e+00 1.4322447967e+00 2.4807207567e+00 
69200 4.4290725901e+00 5.5918853329e-04 1.4322252044e+00 -2.4806868220e+00 1.4322252044e+00 2.4806868220e+00 
69300 4.4290721353e+00 5.5716751032e-04 1.4322056828e+00 -2.4806530095e+00 1.4322056828e+00 2.4806530095e+00 
69400 4.4290716833e+00 5.5515589613e-04 1.4321862315e+00 -2.4806193188e+00 1.4321862315e+00 2.4806193188e+00 
69500 4.4290712342e+00 5.5315363463e-04 1.4321668501e+00 -2.4805857493e+00 1.4321668501e+00 2.4805857493e+00 
69600 4.4290707880e+00 5.5116067014e-04 1.4321475384e+00 -2.4805523004e+00 1.4321475384e+00 2.4805523004e+00 
69700 4.4290703445e+00 5.4917694739e-04 1.4321282960e+00 -2.4805189716e+00 1.4321282960e+00 2.4805189716e+00 
69800 4.4290699038e+00 5.4720241150e-04 1.4321091225e+00 -2.4804857622e+00 1.4321091225e+00 2.4804857622e+00 
69900 4.4290694659e+00 5.4523700801e-04 1.4320900178e+00 -2.4804526719e+00 1.4320900178e+00 2.4804526719e+00 
70000 4.4290690308e+00 5.4328068285e-04 1.4320709814e+00 -2.4804196999e+00 1.4320709814e+00 2.4804196999e+00 
70100 4.4290685983e+00 5.4133338234e-04 1.4320520131e+00 -2.4803868458e+00 1.4320520131e+00 2.4803868458e+00 
70200 4.4290681686e+00 5.3939505318e-04 1.4320331126e+00 -2.4803541091e+00 1.4320331126e+00 2.4803541091e+00 
70300 4.4290677416e+00 5.3746564248e-04 1.4320142794e+00 -2.4803214891e+00 1.4320142794e+00 2.4803214891e+00 
70400 4.4290673172e+00 5.3554509772e-04 1.4319955134e+00 -2.4802889854e+00 1.4319955134e+00 2.4802889854e+00 
70500 4.4290668955e+00 5.3363336676e-04 1.4319768142e+00 -2.4802565974e+00 1.4319768142e+00 2.4802565974e+00 
70600 4.4290664764e+00 5.3173039784e-04 1.4319581814e+00 -2.4802243246e+00 1.4319581814e+00 2.4802243246e+00 
70700 4.4290660599e+00 5.2983613957e-04 1.4319396149e+00 -2.4801921664e+00 1.4319396149e+00 2.4801921664e+00 
70800 4.4290656461e+00 5.2795054093e-04 1.4319211143e+00 -2.4801601225e+00 1.4319211143e+00 2.4801601225e+00 
70900 4.4290652348e+00 5.2607355127e-04 1.4319026793e+00 -2.4801281921e+00 1.4319026793e+00 2.4801281921e+00 
71000 4.4290648260e+00 5.2420512030e-04 1.4318843096e+00 -2.4800963748e+00 1.4318843096e+00 2.4800963748e+00 
71100 4.4290644198e+00 5.2234519810e-04 1.4318660049e+00 -2.4800646702e+00 1.4318660049e+00 2.4800646702e+00 
71200 4.4290640162e+00 5.2049373510e-04 1.4318477650e+00 -2.4800330776e+00 1.4318477650e+00 2.4800330776e+00 
71300 4.4290636150e+00 5.1865068209e-04 1.4318295894e+00 -2.4800015966e+00 1.4318295894e+00 2.4800015966e+00 
71400 4.4290632163e+00 5.1681599021e-04 1.4318114780e+00 -2.4799702267e+00 1.4318114780e+00 2.4799702267e+00 
71500 4.4290628201e+00 5.1498961095e-04 1.4317934304e+00 -2.4799389674e+00 1.4317934304e+00 2.4799389674e+00 
71600 4.4290624264e+00 5.1317149614e-04 1.4317754463e+00 -2.4799078181e+00 1.4317754463e+00 2.4799078181e+00 
71700 4.4290620351e+00 5.1136159795e-04 1.4317575256e+00 -2.4798767784e+00 1.4317575256e+00 2.4798767784e+00 
71800 4.4290616462e+00 5.0955986891e-04 1.4317396678e+00 -2.4798458478e+00 1.4317396678e+00 2.4798458478e+00 
71900 4.4290612597e+00 5.0776626187e-04 1.4317218727e+00 -2.4798150258e+00 1.4317218727e+00 2.4798150258e+00 
72000 4.4290608756e+00 5.0598073003e-04 1.4317041400e+00 -2.4797843119e+00 1.4317041400e+00 2.4797843119e+00 
72100 4.4290604939e+00 5.0420322689e-04 1.4316864695e+00 -2.4797537056e+00 1.4316864695e+00 2.4797537056e+00 
72200 4.4290601145e+00 5.0243370632e-04 1.4316688608e+00 -2.4797232065e+00 1.4316688608e+00 2.4797232065e+00 
72300 4.4290597375e+00 5.0067212249e-04 1.4316513137e+00 -2.4796928140e+00 1.4316513137e+00 2.4796928140e+00 
72400 4.4290593628e+00 4.9891842990e-04 1.4316338279e+00 -2.4796625278e+00 1.4316338279e+00 2.4796625278e+00 
72500 4.4290589904e+00 4.9717258337e-04 1.4316164032e+00 -2.4796323472e+00 1.4316164032e+00 2.4796323472e+00 
72600 4.4290586203e+00 4.9543453804e-04 1.4315990392e+00 -2.4796022719e+00 1.4315990392e+00 2.4796022719e+00 
72700 4.4290582524e+00 4.9370424936e-04 1.4315817357e+00 -2.4795723013e+00 1.4315817357e+00 2.4795723013e+00 
72800 4.4290578868e+00 4.9198167311e-04 1.4315644924e+00 -2.4795424351e+00 1.4315644924e+00 2.4795424351e+00 
72900 4.4290575235e+00 4.9026676535e-04 1.4315473091e+00 -2.4795126727e+00 1.4315473091e+00 2.4795126727e+00 
73000 4.4290571624e+00 4.8855948248e-04 1.4315301854e+00 -2.4794830137e+00 1.4315301854e+00 2.4794830137e+00 
73100 4.4290568035e+00 4.8685978118e-04 1.4315131212e+00 -2.4794534576e+00 1.4315131212e+00 2.4794534576e+00 
73200 4.4290564468e+00 4.8516761845e-04 1.4314961162e+00 -2.4794240040e+00 1.4314961162e+00 2.4794240040e+00 
73300 4.4290560923e+00 4.8348295159e-04 1.4314791700e+00 -2.4793946525e+00 1.4314791700e+00 2.4793946525e+00 
73400 4.4290557400e+00 4.8180573817e-04 1.4314622825e+00 -2.4793654025e+00 1.4314622825e+00 2.4793654025e+00 
73500 4.4290553898e+00 4.8013593610e-04 1.4314454534e+00 -2.4793362536e+00 1.4314454534e+00 2.4793362536e+00 
73600 4.4290550417e+00 4.7847350354e-04 1.4314286824e+00 -2.4793072054e+00 1.4314286824e+00 2.4793072054e+00 
73700 4.4290546958e+00 4.7681839897e-04 1.4314119693e+00 -2.4792782574e+00 1.4314119693e+00 2.4792782574e+00 
73800 4.4290543520e+00 4.7517058114e-04 1.4313953138e+00 -2.4792494093e+00 1.4313953138e+00 2.4792494093e+00 
73900 4.4290540102e+00 4.7353000910e-04 1.4313787157e+00 -2.4792206605e+00 1.4313787157e+00 2.4792206605e+00 
74000 4.4290536706e+00 4.7189664217e-04 1.4313621747e+00 -2.4791920106e+00 1.4313621747e+00 2.4791920106e+00 
74100 4.4290533330e+00 4.7027043996e-04 1.4313456905e+00 -2.4791634592e+00 1.4313456905e+00 2.4791634592e+00 
74200 4.4290529975e+00 4.6865136235e-04 1.4313292630e+00 -2.4791350059e+00 1.4313292630e+00 2.4791350059e+00 
74300 4.4290526640e+00 4.6703936952e-04 1.4313128918e+00 -2.4791066502e+00 1.4313128918e+00 2.4791066502e+00 
74400 4.4290523325e+00 4.6543442188e-04 1.4312965768e+00 -2.4790783917e+00 1.4312965768e+00 2.4790783917e+00 
74500 4.4290520031e+00 4.6383648016e-04 1.4312803177e+00 -2.4790502300e+00 1.4312803177e+00 2.4790502300e+00 
74600 4.4290516756e+00 4.6224550533e-04 1.4312641141e+00 -2.4790221647e+00 1.4312641141e+00 2.4790221647e+00 
74700 4.4290513502e+00 4.6066145863e-04 1.4312479660e+00 -2.4789941954e+00 1.4312479660e+00 2.4789941954e+00 
74800 4.4290510267e+00 4.5908430158e-04 1.4312318730e+00 -2.4789663215e+00 1.4312318730e+00 2.4789663215e+00 
74900 4.4290507051e+00 4.5751399595e-04 1.4312158350e+00 -2.4789385428e+00 1.4312158350e+00 2.4789385428e+00 
75000 4.4290503855e+00 4.5595050377e-04 1.4311998516e+00 -2.4789108588e+00 1.4311998516e+00 2.4789108588e+00 
75100 4.4290500679e+00 4.5439378734e-04 1.4311839227e+00 -2.4788832691e+00 1.4311839227e+00 2.4788832691e+00 
75200 4.4290497521e+00 4.5284380921e-04 1.4311680480e+00 -2.4788557732e+00 1.4311680480e+00 2.4788557732e+00 
75300 4.4290494383e+00 4.5130053219e-04 1.4311522272e+00 -2.4788283709e+00 1.4311522272e+00 2.4788283709e+00 
75400 4.4290491263e+00 4.4976391933e-04 1.4311364602e+00 -2.4788010616e+00 1.4311364602e+00 2.4788010616e+00 
75500 4.4290488163e+00 4.4823393394e-04 1.4311207467e+00 -2.4787738451e+00 1.4311207467e+00 2.4787738451e+00 
75600 4.4290485081e+00 4.4671053958e-04 1.4311050865e+00 -2.4787467208e+00 1.4311050865e+00 2.4787467208e+00 
75700 4.4290482017e+00 4.4519370006e-04 1.4310894793e+00 -2.4787196884e+00 1.4310894793e+00 2.4787196884e+00 
75800 4.4290478972e+00 4.4368337942e-04 1.4310739250e+00 -2.4786927475e+00 1.4310739250e+00 2.4786927475e+00 
75900 4.4290475945e+00 4.4217954196e-04 1.4310584233e+00 -2.4786658977e+00 1.4310584233e+00 2.4786658977e+00 
76000 4.4290472937e+00 4.4068215221e-04 1.4310429739e+00 -2.4786391386e+00 1.4310429739e+00 2.4786391386e+00 
76100 4.4290469946e+00 4.3919117493e-04 1.4310275767e+00 -2.4786124699e+00 1.4310275767e+00 2.4786124699e+00 
76200 4.4290466974e+00 4.3770657515e-04 1.4310122314e+00 -2.4785858911e+00 1.4310122314e+00 2.4785858911e+00 
76300 4.4290464019e+00 4.3622831810e-04 1.4309969378e+00 -2.4785594018e+00 1.4309969378e+00 2.4785594018e+00 
76400 4.4290461082e+00 4.3475636926e-04 1.4309816958e+00 -2.4785330018e+00 1.4309816958e+00 2.4785330018e+00 
76500 4.4290458162e+00 4.3329069435e-04 1.4309665049e+00 -2.4785066905e+00 1.4309665049e+00 2.4785066905e+00 
76600 4.4290455260e+00 4.3183125928e-04 1.4309513652e+00 -2.4784804676e+00 1.4309513652e+00 2.4784804676e+00 
76700 4.4290452376e+00 4.3037803025e-04 1.4309362762e+00 -2.4784543329e+00 1.4309362762e+00 2.4784543329e+00 
76800 4.4290449508e+00 4.2893097362e-04 1.4309212379e+00 -2.4784282857e+00 1.4309212379e+00 2.4784282857e+00 
76900 4.4290446658e+00 4.2749005603e-04 1.4309062500e+00 -2.4784023259e+00 1.4309062500e+00 2.4784023259e+00 
77000 4.4290443825e+00 4.2605524431e-04 1.4308913123e+00 -2.4783764530e+00 1.4308913123e+00 2.4783764530e+00 
77100 4.4290441008e+00 4.2462650552e-04 1.4308764246e+00 -2.4783506667e+00 1.4308764246e+00 2.4783506667e+00 
77200 4.4290438208e+00 4.2320380693e-04 1.4308615866e+00 -2.4783249666e+00 1.4308615866e+00 2.4783249666e+00 
77300 4.4290435426e+00 4.2178711605e-04 1.4308467982e+00 -2.4782993524e+00 1.4308467982e+00 2.4782993524e+00 
77400 4.4290432659e+00 4.2037640057e-04 1.4308320592e+00 -2.4782738236e+00 1.4308320592e+00 2.4782738236e+00 
77500 4.4290429909e+00 4.1897162844e-04 1.4308173693e+00 -2.4782483799e+00 1.4308173693e+00 2.4782483799e+00 
77600 4.4290427176e+00 4.1757276778e-04 1.4308027283e+00 -2.4782230210e+00 1.4308027283e+00 2.4782230210e+00 
77700 4.4290424458e+00 4.1617978693e-04 1.4307881361e+00 -2.4781977466e+00 1.4307881361e+00 2.4781977466e+00 
77800 4.4290421757e+00 4.1479265447e-04 1.4307735924e+00 -2.4781725561e+00 1.4307735924e+00 2.4781725561e+00 
77900 4.4290419072e+00 4.1341133914e-04 1.4307590970e+00 -2.4781474494e+00 1.4307590970e+00 2.4781474494e+00 
78000 4.4290416402e+00 4.1203580992e-04 1.4307446498e+00 -2.4781224260e+00 1.4307446498e+00 2.4781224260e+00 
78100 4.4290413749e+00 4.1066603598e-04 1.4307302504e+00 -2.4780974857e+00 1.4307302504e+00 2.4780974857e+00 
78200 4.4290411111e+00 4.0930198669e-04 1.4307158988e+00 -2.4780726280e+00 1.4307158988e+00 2.4780726280e+00 
78300 4.4290408489e+00 4.0794363163e-04 1.4307015948e+00 -2.4780478526e+00 1.4307015948e+00 2.4780478526e+00 
78400 4.4290405882e+00 4.0659094058e-04 1.4306873380e+00 -2.4780231592e+00 1.4306873380e+00 2.4780231592e+00 
78500 4.4290403291e+00 4.0524388351e-04 1.4306731284e+00 -2.4779985474e+00 1.4306731284e+00 2.4779985474e+00 
78600 4.4290400715e+00 4.0390243058e-04 1.4306589657e+00 -2.4779740169e+00 1.4306589657e+00 2.4779740169e+00 
78700 4.4290398154e+00 4.0256655216e-04 1.4306448498e+00 -2.4779495674e+00 1.4306448498e+00 2.4779495674e+00 
78800 4.4290395609e+00 4.0123621880e-04 1.4306307804e+00 -2.4779251985e+00 1.4306307804e+00 2.4779251985e+00 
78900 4.4290393078e+00 3.9991140126e-04 1.4306167574e+00 -2.4779009099e+00 1.4306167574e+00 2.4779009099e+00 
79000 4.4290390562e+00 3.9859207046e-04 1.4306027805e+00 -2.4778767013e+00 1.4306027805e+00 2.4778767013e+00 
79100 4.4290388061e+00 3.9727819755e-04 1.4305888496e+00 -2.4778525723e+00 1.4305888496e+00 2.4778525723e+00 
79200 4.4290385575e+00 3.9596975383e-04 1.4305749645e+00 -2.4778285226e+00 1.4305749645e+00 2.4778285226e+00 
79300 4.4290383104e+00 3.9466671080e-04 1.4305611250e+00 -2.4778045518e+00 1.4305611250e+00 2.4778045518e+00 
79400 4.4290380646e+00 3.9336904015e-04 1.4305473309e+00 -2.4777806598e+00 1.4305473309e+00 2.4777806598e+00 
79500 4.4290378204e+00 3.9207671374e-04 1.4305335820e+00 -2.4777568460e+00 1.4305335820e+00 2.4777568460e+00 
79600 4.4290375776e+00 3.9078970362e-04 1.4305198782e+00 -2.4777331103e+00 1.4305198782e+00 2.4777331103e+00 
79700 4.4290373361e+00 3.8950798202e-04 1.4305062192e+00 -2.4777094522e+00 1.4305062192e+00 2.4777094522e+00 
79800 4.4290370962e+00 3.8823152136e-04 1.4304926049e+00 -2.4776858715e+00 1.4304926049e+00 2.4776858715e+00 
79900 4.4290368576e+00 3.8696029420e-04 1.4304790350e+00 -2.4776623679e+00 1.4304790350e+00 2.4776623679e+00 
80000 4.4290366204e+00 3.8569427333e-04 1.4304655095e+00 -2.4776389410e+00 1.4304655095e+00 2.4776389410e+00 
80100 4.4290363846e+00 3.8443343166e-04 1.4304520281e+00 -2.4776155905e+00 1.4304520281e+00 2.4776155905e+00 
80200 4.4290361502e+00 3.8317774232e-04 1.4304385907e+00 -2.4775923161e+00 1.4304385907e+00 2.4775923161e+00 
80300 4.4290359171e+00 3.8192717858e-04 1.4304251970e+00 -2.4775691176e+00 1.4304251970e+00 2.4775691176e+00 
80400 4.4290356854e+00 3.8068171389e-04 1.4304118469e+00 -2.4775459945e+00 1.4304118469e+00 2.4775459945e+00 
80500 4.4290354551e+00 3.7944132188e-04 1.4303985402e+00 -2.4775229466e+00 1.4303985402e+00 2.4775229466e+00 
80600 4.4290352261e+00 3.7820597634e-04 1.4303852767e+00 -2.4774999736e+00 1.4303852767e+00 2.4774999736e+00 
80700 4.4290349984e+00 3.7697565123e-04 1.4303720563e+00 -2.4774770752e+00 1.4303720563e+00 2.4774770752e+00 
80800 4.4290347721e+00 3.7575032065e-04 1.4303588788e+00 -2.4774542511e+00 1.4303588788e+00 2.4774542511e+00 
80900 4.4290345471e+00 3.7452995892e-04 1.4303457440e+00 -2.4774315009e+00 1.4303457440e+00 2.4774315009e+00 
81000 4.4290343234e+00 3.7331454046e-04 1.4303326517e+00 -2.4774088245e+00 1.4303326517e+00 2.4774088245e+00 
81100 4.4290341010e+00 3.7210403991e-04 1.4303196018e+00 -2.4773862214e+00 1.4303196018e+00 2.4773862214e+00 
81200 4.4290338799e+00 3.7089843202e-04 1.4303065941e+00 -2.4773636914e+00 1.4303065941e+00 2.4773636914e+00 
81300 4.4290336600e+00 3.6969769174e-04 1.4302936284e+00 -2.4773412342e+00 1.4302936284e+00 2.4773412342e+00 
81400 4.4290334415e+00 3.6850179414e-04 1.4302807046e+00 -2.4773188495e+00 1.4302807046e+00 2.4773188495e+00 
81500 4.4290332242e+00 3.6731071449e-04 1.4302678225e+00 -2.4772965369e+00 1.4302678225e+00 2.4772965369e+00 
81600 4.4290330082e+00 3.6612442819e-04 1.4302549819e+00 -2.4772742964e+00 1.4302549819e+00 2.4772742964e+00 
81700 4.4290327934e+00 3.6494291078e-04 1.4302421826e+00 -2.4772521274e+00 1.4302421826e+00 2.4772521274e+00 
81800 4.4290325799e+00 3.6376613800e-04 1.4302294245e+00 -2.4772300298e+00 1.4302294245e+00 2.4772300298e+00 
81900 4.4290323676e+00 3.6259408569e-04 1.4302167075e+00 -2.4772080032e+00 1.4302167075e+00 2.4772080032e+00 
82000 4.4290321565e+00 3.6142672989e-04 1.4302040313e+00 -2.4771860475e+00 1.4302040313e+00 2.4771860475e+00 
82100 4.4290319467e+00 3.6026404674e-04 1.4301913959e+00 -2.4771641622e+00 1.4301913959e+00 2.4771641622e+00 
82200 4.4290317381e+00 3.5910601258e-04 1.4301788009e+00 -2.4771423471e+00 1.4301788009e+00 2.4771423471e+00 
82300 4.4290315306e+00 3.5795260386e-04 1.4301662464e+00 -2.4771206020e+00 1.4301662464e+00 2.4771206020e+00 
82400 4.4290313244e+00 3.5680379720e-04 1.4301537320e+00 -2.4770989265e+00 1.4301537320e+00 2.4770989265e+00 
82500 4.4290311194e+00 3.5565956935e-04 1.4301412577e+00 -2.4770773203e+00 1.4301412577e+00 2.4770773203e+00 
82600 4.4290309155e+00 3.5451989721e-04 1.4301288233e+00 -2.4770557833e+00 1.4301288233e+00 2.4770557833e+00 
82700 4.4290307129e+00 3.5338475783e-04 1.4301164286e+00 -2.4770343151e+00 1.4301164286e+00 2.4770343151e+00 
82800 4.4290305113e+00 3.5225412839e-04 1.4301040735e+00 -2.4770129155e+00 1.4301040735e+00 2.4770129155e+00 
82900 4.4290303110e+00 3.5112798623e-04 1.4300917579e+00 -2.4769915841e+00 1.4300917579e+00 2.4769915841e+00 
83000 4.4290301118e+00 3.5000630882e-04 1.4300794815e+00 -2.4769703208e+00 1.4300794815e+00 2.4769703208e+00 
83100 4.4290299137e+00 3.4888907376e-04 1.4300672442e+00 -2.4769491252e+00 1.4300672442e+00 2.4769491252e+00 
83200 4.4290297168e+00 3.4777625880e-04 1.4300550459e+00 -2.4769279971e+00 1.4300550459e+00 2.4769279971e+00 
83300 4.4290295210e+00 3.4666784183e-04 1.4300428863e+00 -2.4769069362e+00 1.4300428863e+00 2.4769069362e+00 
83400 4.4290293264e+00 3.4556380086e-04 1.4300307655e+00 -2.4768859422e+00 1.4300307655e+00 2.4768859422e+00 
83500 4.4290291328e+00 3.4446411406e-04 1.4300186831e+00 -2.4768650149e+00 1.4300186831e+00 2.4768650149e+00 
83600 4.4290289404e+00 3.4336875972e-04 1.4300066391e+00 -2.4768441540e+00 1.4300066391e+00 2.4768441540e+00 
83700 4.4290287491e+00 3.4227771627e-04 1.4299946332e+00 -2.4768233593e+00 1.4299946332e+00 2.4768233593e+00 
83800 4.4290285588e+00 3.4119096225e-04 1.4299826655e+00 -2.4768026305e+00 1.4299826655e+00 2.4768026305e+00 
83900 4.4290283697e+00 3.4010847636e-04 1.4299707356e+00 -2.4767819674e+00 1.4299707356e+00 2.4767819674e+00 
84000 4.4290281816e+00 3.3903023742e-04 1.4299588435e+00 -2.4767613696e+00 1.4299588435e+00 2.4767613696e+00 
84100 4.4290279946e+00 3.3795622438e-04 1.4299469889e+00 -2.4767408370e+00 1.4299469889e+00 2.4767408370e+00 
84200 4.4290278087e+00 3.3688641632e-04 1.4299351719e+00 -2.4767203692e+00 1.4299351719e+00 2.4767203692e+00 
84300 4.4290276239e+00 3.3582079244e-04 1.4299233921e+00 -2.4766999660e+00 1.4299233921e+00 2.4766999660e+00 
84400 4.4290274401e+00 3.3475933207e-04 1.4299116495e+00 -2.4766796273e+00 1.4299116495e+00 2.4766796273e+00 
84500 4.4290272573e+00 3.3370201468e-04 1.4298999439e+00 -2.4766593526e+00 1.4298999439e+00 2.4766593526e+00 
84600 4.4290270756e+00 3.3264881985e-04 1.4298882752e+00 -2.4766391418e+00 1.4298882752e+00 2.4766391418e+00 
84700 4.4290268949e+00 3.3159972728e-04 1.4298766432e+00 -2.4766189946e+00 1.4298766432e+00 2.4766189946e+00 
84800 4.4290267153e+00 3.3055471680e-04 1.4298650479e+00 -2.4765989109e+00 1.4298650479e+00 2.4765989109e+00 
84900 4.4290265367e+00 3.2951376838e-04 1.4298534889e+00 -2.4765788902e+00 1.4298534889e+00 2.4765788902e+00 
85000 4.4290263591e+00 3.2847686208e-04 1.4298419663e+00 -2.4765589324e+00 1.4298419663e+00 2.4765589324e+00 
85100 4.4290261825e+00 3.2744397809e-04 1.4298304798e+00 -2.4765390373e+00 1.4298304798e+00 2.4765390373e+00 
85200 4.4290260069e+00 3.2641509674e-04 1.4298190294e+00 -2.4765192046e+00 1.4298190294e+00 2.4765192046e+00 
85300 4.4290258323e+00 3.2539019846e-04 1.4298076149e+00 -2.4764994340e+00 1.4298076149e+00 2.4764994340e+00 
85400 4.4290256587e+00 3.2436926380e-04 1.4297962361e+00 -2.4764797253e+00 1.4297962361e+00 2.4764797253e+00 
85500 4.4290254860e+00 3.2335227343e-04 1.4297848929e+00 -2.4764600784e+00 1.4297848929e+00 2.4764600784e+00 
85600 4.4290253144e+00 3.2233920812e-04 1.4297735852e+00 -2.4764404928e+00 1.4297735852e+00 2.4764404928e+00 
85700 4.4290251437e+00 3.2133004880e-04 1.4297623128e+00 -2.4764209685e+00 1.4297623128e+00 2.4764209685e+00 
85800 4.4290249740e+00 3.2032477646e-04 1.4297510756e+00 -2.4764015052e+00 1.4297510756e+00 2.4764015052e+00 
85900 4.4290248053e+00 3.1932337223e-04 1.4297398735e+00 -2.4763821026e+00 1.4297398735e+00 2.4763821026e+00 
86000 4.4290246375e+00 3.1832581737e-04 1.4297287064e+00 -2.4763627605e+00 1.4297287064e+00 2.4763627605e+00 
86100 4.4290244707e+00 3.1733209323e-04 1.4297175740e+00 -2.4763434786e+00 1.4297175740e+00 2.4763434786e+00 
86200 4.4290243048e+00 3.1634218126e-04 1.4297064763e+00 -2.4763242568e+00 1.4297064763e+00 2.4763242568e+00 
86300 4.4290241398e+00 3.1535606305e-04 1.4296954131e+00 -2.4763050949e+00 1.4296954131e+00 2.4763050949e+00 
86400 4.4290239758e+00 3.1437372028e-04 1.4296843843e+00 -2.4762859925e+00 1.4296843843e+00 2.4762859925e+00 
86500 4.4290238127e+00 3.1339513475e-04 1.4296733898e+00 -2.4762669494e+00 1.4296733898e+00 2.4762669494e+00 
86600 4.4290236506e+00 3.1242028836e-04 1.4296624295e+00 -2.4762479655e+00 1.4296624295e+00 2.4762479655e+00 
86700 4.4290234893e+00 3.1144916312e-04 1.4296515031e+00 -2.4762290405e+00 1.4296515031e+00 2.4762290405e+00 
86800 4.4290233289e+00 3.1048174115e-04 1.4296406107e+00 -2.4762101742e+00 1.4296406107e+00 2.4762101742e+00 
86900 4.4290231695e+00 3.0951800468e-04 1.4296297519e+00 -2.4761913664e+00 1.4296297519e+00 2.4761913664e+00 
87000 4.4290230109e+00 3.0855793603e-04 1.4296189268e+00 -2.4761726167e+00 1.4296189268e+00 2.4761726167e+00 
87100 4.4290228533e+00 3.0760151763e-04 1.4296081352e+00 -2.4761539251e+00 1.4296081352e+00 2.4761539251e+00 
87200 4.4290226965e+00 3.0664873203e-04 1.4295973770e+00 -2.4761352913e+00 1.4295973770e+00 2.4761352913e+00 
87300 4.4290225406e+00 3.0569956187e-04 1.4295866520e+00 -2.4761167151e+00 1.4295866520e+00 2.4761167151e+00 
87400 4.4290223856e+00 3.0475398988e-04 1.4295759601e+00 -2.4760981962e+00 1.4295759601e+00 2.4760981962e+00 
87500 4.4290222315e+00 3.0381199891e-04 1.4295653013e+00 -2.4760797345e+00 1.4295653013e+00 2.4760797345e+00 
87600 4.4290220782e+00 3.0287357191e-04 1.4295546752e+00 -2.4760613297e+00 1.4295546752e+00 2.4760613297e+00 
87700 4.4290219258e+00 3.0193869192e-04 1.4295440820e+00 -2.4760429816e+00 1.4295440820e+00 2.4760429816e+00 
87800 4.4290217742e+00 3.0100734208e-04 1.4295335213e+00 -2.4760246901e+00 1.4295335213e+00 2.4760246901e+00 
87900 4.4290216235e+00 3.0007950565e-04 1.4295229932e+00 -2.4760064548e+00 1.4295229932e+00 2.4760064548e+00 
88000 4.4290214736e+00 2.9915516596e-04 1.4295124974e+00 -2.4759882755e+00 1.4295124974e+00 2.4759882755e+00 
88100 4.4290213246e+00 2.9823430645e-04 1.4295020339e+00 -2.4759701522e+00 1.4295020339e+00 2.4759701522e+00 
88200 4.4290211764e+00 2.9731691067e-04 1.4294916025e+00 -2.4759520845e+00 1.4294916025e+00 2.4759520845e+00 
88300 4.4290210291e+00 2.9640296223e-04 1.4294812031e+00 -2.4759340722e+00 1.4294812031e+00 2.4759340722e+00 
88400 4.4290208825e+00 2.9549244487e-04 1.4294708356e+00 -2.4759161152e+00 1.4294708356e+00 2.4759161152e+00 
88500 4.4290207368e+00 2.9458534241e-04 1.4294604999e+00 -2.4758982132e+00 1.4294604999e+00 2.4758982132e+00 
88600 4.4290205919e+00 2.9368163876e-04 1.4294501958e+00 -2.4758803661e+00 1.4294501958e+00 2.4758803661e+00 
88700 4.4290204478e+00 2.9278131794e-04 1.4294399233e+00 -2.4758625735e+00 1.4294399233e+00 2.4758625735e+00 
88800 4.4290203045e+00 2.9188436406e-04 1.4294296822e+00 -2.4758448354e+00 1.4294296822e+00 2.4758448354e+00 
88900 4.4290201620e+00 2.9099076129e-04 1.4294194724e+00 -2.4758271515e+00 1.4294194724e+00 2.4758271515e+00 
89000 4.4290200203e+00 2.9010049394e-04 1.4294092938e+00 -2.4758095216e+00 1.4294092938e+00 2.4758095216e+00 
89100 4.4290198794e+00 2.8921354637e-04 1.4293991462e+00 -2.4757919455e+00 1.4293991462e+00 2.4757919455e+00 
89200 4.4290197393e+00 2.8832990307e-04 1.4293890296e+00 -2.4757744231e+00 1.4293890296e+00 2.4757744231e+00 
89300 4.4290195999e+00 2.8744954857e-04 1.4293789438e+00 -2.4757569540e+00 1.4293789438e+00 2.4757569540e+00 
89400 4.4290194613e+00 2.8657246753e-04 1.4293688888e+00 -2.4757395382e+00 1.4293688888e+00 2.4757395382e+00 
89500 4.4290193235e+00 2.8569864469e-04 1.4293588644e+00 -2.4757221754e+00 1.4293588644e+00 2.4757221754e+00 
89600 4.4290191865e+00 2.8482806486e-04 1.4293488704e+00 -2.4757048654e+00 1.4293488704e+00 2.4757048654e+00 
89700 4.4290190502e+00 2.8396071296e-04 1.4293389069e+00 -2.4756876080e+00 1.4293389069e+00 2.4756876080e+00 
89800 4.4290189147e+00 2.8309657398e-04 1.4293289736e+00 -2.4756704030e+00 1.4293289736e+00 2.4756704030e+00 
89900 4.4290187800e+00 2.8223563300e-04 1.4293190705e+00 -2.4756532503e+00 1.4293190705e+00 2.4756532503e+00 
90000 4.4290186459e+00 2.8137787520e-04 1.4293091974e+00 -2.4756361497e+00 1.4293091974e+00 2.4756361497e+00 
90100 4.4290185127e+00 2.8052328582e-04 1.4292993543e+00 -2.4756191009e+00 1.4292993543e+00 2.4756191009e+00 
90200 4.4290183801e+00 2.7967185020e-04 1.4292895410e+00 -2.4756021037e+00 1.4292895410e+00 2.4756021037e+00 
90300 4.4290182483e+00 2.7882355377e-04 1.4292797574e+00 -2.4755851581e+00 1.4292797574e+00 2.4755851581e+00 
90400 4.4290181173e+00 2.7797838202e-04 1.4292700034e+00 -2.4755682637e+00 1.4292700034e+00 2.4755682637e+00 
90500 4.4290179869e+00 2.7713632054e-04 1.4292602790e+00 -2.4755514204e+00 1.4292602790e+00 2.4755514204e+00 
90600 4.4290178573e+00 2.7629735501e-04 1.4292505839e+00 -2.4755346280e+00 1.4292505839e+00 2.4755346280e+00 
90700 4.4290177284e+00 2.7546147117e-04 1.4292409181e+00 -2.4755178864e+00 1.4292409181e+00 2.4755178864e+00 
90800 4.4290176002e+00 2.7462865484e-04 1.4292312815e+00 -2.4755011952e+00 1.4292312815e+00 2.4755011952e+00 
90900 4.4290174727e+00 2.7379889195e-04 1.4292216739e+00 -2.4754845545e+00 1.4292216739e+00 2.4754845545e+00 
91000 4.4290173460e+00 2.7297216849e-04 1.4292120953e+00 -2.4754679639e+00 1.4292120953e+00 2.4754679639e+00 
91100 4.4290172199e+00 2.7214847052e-04 1.4292025456e+00 -2.4754514232e+00 1.4292025456e+00 2.4754514232e+00 
91200 4.4290170945e+00 2.7132778419e-04 1.4291930246e+00 -2.4754349324e+00 1.4291930246e+00 2.4754349324e+00 
91300 4.4290169698e+00 2.7051009573e-04 1.4291835323e+00 -2.4754184912e+00 1.4291835323e+00 2.4754184912e+00 
91400 4.4290168458e+00 2.6969539145e-04 1.4291740685e+00 -2.4754020995e+00 1.4291740685e+00 2.4754020995e+00 
91500 4.4290167225e+00 2.6888365772e-04 1.4291646331e+00 -2.4753857570e+00 1.4291646331e+00 2.4753857570e+00 
91600 4.4290165998e+00 2.6807488101e-04 1.4291552261e+00 -2.4753694635e+00 1.4291552261e+00 2.4753694635e+00 
91700 4.4290164779e+00 2.6726904785e-04 1.4291458473e+00 -2.4753532190e+00 1.4291458473e+00 2.4753532190e+00 
91800 4.4290163566e+00 2.6646614485e-04 1.4291364967e+00 -2.4753370232e+00 1.4291364967e+00 2.4753370232e+00 
91900 4.4290162359e+00 2.6566615869e-04 1.4291271741e+00 -2.4753208760e+00 1.4291271741e+00 2.4753208760e+00 
92000 4.4290161160e+00 2.6486907615e-04 1.4291178794e+00 -2.4753047771e+00 1.4291178794e+00 2.4753047771e+00 
92100 4.4290159967e+00 2.6407488404e-04 1.4291086125e+00 -2.4752887264e+00 1.4291086125e+00 2.4752887264e+00 
92200 4.4290158780e+00 2.6328356928e-04 1.4290993734e+00 -2.4752727238e+00 1.4290993734e+00 2.4752727238e+00 
92300 4.4290157600e+00 2.6249511885e-04 1.4290901619e+00 -2.4752567690e+00 1.4290901619e+00 2.4752567690e+00 
92400 4.4290156427e+00 2.6170951981e-04 1.4290809779e+00 -2.4752408618e+00 1.4290809779e+00 2.4752408618e+00 
92500 4.4290155260e+00 2.6092675928e-04 1.4290718213e+00 -2.4752250022e+00 1.4290718213e+00 2.4752250022e+00 
92600 4.4290154099e+00 2.6014682445e-04 1.4290626921e+00 -2.4752091899e+00 1.4290626921e+00 2.4752091899e+00 
92700 4.4290152945e+00 2.5936970260e-04 1.4290535901e+00 -2.4751934248e+00 1.4290535901e+00 2.4751934248e+00 
92800 4.4290151797e+00 2.5859538106e-04 1.4290445152e+00 -2.4751777067e+00 1.4290445152e+00 2.4751777067e+00 
92900 4.4290150655e+00 2.5782384725e-04 1.4290354674e+00 -2.4751620354e+00 1.4290354674e+00 2.4751620354e+00 
93000 4.4290149519e+00 2.5705508865e-04 1.4290264465e+00 -2.4751464107e+00 1.4290264465e+00 2.4751464107e+00 
93100 4.4290148390e+00 2.5628909280e-04 1.4290174525e+00 -2.4751308326e+00 1.4290174525e+00 2.4751308326e+00 
93200 4.4290147267e+00 2.5552584732e-04 1.4290084851e+00 -2.4751153007e+00 1.4290084851e+00 2.4751153007e+00 
93300 4.4290146150e+00 2.5476533990e-04 1.4289995445e+00 -2.4750998150e+00 1.4289995445e+00 2.4750998150e+00 
93400 4.4290145039e+00 2.5400755829e-04 1.4289906304e+00 -2.4750843754e+00 1.4289906304e+00 2.4750843754e+00 
93500 4.4290143935e+00 2.5325249031e-04 1.4289817427e+00 -2.4750689815e+00 1.4289817427e+00 2.4750689815e+00 
93600 4.4290142836e+00 2.5250012386e-04 1.4289728815e+00 -2.4750536333e+00 1.4289728815e+00 2.4750536333e+00 
93700 4.4290141743e+00 2.5175044689e-04 1.4289640464e+00 -2.4750383306e+00 1.4289640464e+00 2.4750383306e+00 
93800 4.4290140656e+00 2.5100344742e-04 1.4289552376e+00 -2.4750230733e+00 1.4289552376e+00 2.4750230733e+00 
93900 4.4290139576e+00 2.5025911354e-04 1.4289464549e+00 -2.4750078611e+00 1.4289464549e+00 2.4750078611e+00 
94000 4.4290138501e+00 2.4951743339e-04 1.4289376981e+00 -2.4749926939e+00 1.4289376981e+00 2.4749926939e+00 
94100 4.4290137432e+00 2.4877839521e-04 1.4289289672e+00 -2.4749775716e+00 1.4289289672e+00 2.4749775716e+00 
94200 4.4290136368e+00 2.4804198727e-04 1.4289202622e+00 -2.4749624940e+00 1.4289202622e+00 2.4749624940e+00 
94300 4.4290135311e+00 2.4730819791e-04 1.4289115828e+00 -2.4749474610e+00 1.4289115828e+00 2.4749474610e+00 
94400 4.4290134259e+00 2.4657701555e-04 1.4289029291e+00 -2.4749324723e+00 1.4289029291e+00 2.4749324723e+00 
94500 4.4290133213e+00 2.4584842867e-04 1.4288943009e+00 -2.4749175279e+00 1.4288943009e+00 2.4749175279e+00 
94600 4.4290132173e+00 2.4512242579e-04 1.4288856982e+00 -2.4749026275e+00 1.4288856982e+00 2.4749026275e+00 
94700 4.4290131138e+00 2.4439899552e-04 1.4288771208e+00 -2.4748877710e+00 1.4288771208e+00 2.4748877710e+00 
94800 4.4290130109e+00 2.4367812651e-04 1.4288685687e+00 -2.4748729583e+00 1.4288685687e+00 2.4748729583e+00 
94900 4.4290129085e+00 2.4295980749e-04 1.4288600417e+00 -2.4748581892e+00 1.4288600417e+00 2.4748581892e+00 
95000 4.4290128068e+00 2.4224402725e-04 1.4288515398e+00 -2.4748434635e+00 1.4288515398e+00 2.4748434635e+00 
95100 4.4290127055e+00 2.4153077462e-04 1.4288430630e+00 -2.4748287811e+00 1.4288430630e+00 2.4748287811e+00 
95200 4.4290126048e+00 2.4082003851e-04 1.4288346110e+00 -2.4748141419e+00 1.4288346110e+00 2.4748141419e+00 
95300 4.4290125047e+00 2.4011180789e-04 1.4288261839e+00 -2.4747995457e+00 1.4288261839e+00 2.4747995457e+00 
95400 4.4290124051e+00 2.3940607178e-04 1.4288177815e+00 -2.4747849923e+00 1.4288177815e+00 2.4747849923e+00 
95500 4.4290123060e+00 2.3870281926e-04 1.4288094037e+00 -2.4747704816e+00 1.4288094037e+00 2.4747704816e+00 
95600 4.4290122075e+00 2.3800203948e-04 1.4288010505e+00 -2.4747560134e+00 1.4288010505e+00 2.4747560134e+00 
95700 4.4290121095e+00 2.3730372164e-04 1.4287927218e+00 -2.4747415876e+00 1.4287927218e+00 2.4747415876e+00 
95800 4.4290120120e+00 2.3660785499e-04 1.4287844175e+00 -2.4747272041e+00 1.4287844175e+00 2.4747272041e+00 
95900 4.4290119151e+00 2.3591442886e-04 1.4287761374e+00 -2.4747128627e+00 1.4287761374e+00 2.4747128627e+00 
96000 4.4290118187e+00 2.3522343261e-04 1.4287678816e+00 -2.4746985632e+00 1.4287678816e+00 2.4746985632e+00 
96100 4.4290117228e+00 2.3453485569e-04 1.4287596499e+00 -2.4746843055e+00 1.4287596499e+00 2.4746843055e+00 
96200 4.4290116274e+00 2.3384868757e-04 1.4287514423e+00 -2.4746700894e+00 1.4287514423e+00 2.4746700894e+00 
96300 4.4290115326e+00 2.3316491781e-04 1.4287432586e+00 -2.4746559149e+00 1.4287432586e+00 2.4746559149e+00 
96400 4.4290114382e+00 2.3248353600e-04 1.4287350988e+00 -2.4746417818e+00 1.4287350988e+00 2.4746417818e+00 
96500 4.4290113444e+00 2.3180453180e-04 1.4287269629e+00 -2.4746276898e+00 1.4287269629e+00 2.4746276898e+00 
96600 4.4290112510e+00 2.3112789491e-04 1.4287188506e+00 -2.4746136390e+00 1.4287188506e+00 2.4746136390e+00 
96700 4.4290111582e+00 2.3045361511e-04 1.4287107620e+00 -2.4745996290e+00 1.4287107620e+00 2.4745996290e+00 
96800 4.4290110659e+00 2.2978168222e-04 1.4287026969e+00 -2.4745856599e+00 1.4287026969e+00 2.4745856599e+00 
96900 4.4290109740e+00 2.2911208611e-04 1.4286946553e+00 -2.4745717314e+00 1.4286946553e+00 2.4745717314e+00 
97000 4.4290108827e+00 2.2844481671e-04 1.4286866370e+00 -2.4745578435e+00 1.4286866370e+00 2.4745578435e+00 
97100 4.4290107919e+00 2.2777986399e-04 1.4286786421e+00 -2.4745439958e+00 1.4286786421e+00 2.4745439958e+00 
97200 4.4290107015e+00 2.2711721801e-04 1.4286706704e+00 -2.4745301885e+00 1.4286706704e+00 2.4745301885e+00 
97300 4.4290106116e+00 2.2645686884e-04 1.4286627219e+00 -2.4745164212e+00 1.4286627219e+00 2.4745164212e+00 
97400 4.4290105222e+00 2.2579880662e-04 1.4286547964e+00 -2.4745026939e+00 1.4286547964e+00 2.4745026939e+00 
97500 4.4290104333e+00 2.2514302155e-04 1.4286468939e+00 -2.4744890064e+00 1.4286468939e+00 2.4744890064e+00 
97600 4.4290103449e+00 2.2448950387e-04 1.4286390143e+00 -2.4744753585e+00 1.4286390143e+00 2.4744753585e+00 
97700 4.4290102569e+00 2.2383824388e-04 1.4286311576e+00 -2.4744617502e+00 1.4286311576e+00 2.4744617502e+00 
97800 4.4290101695e+00 2.2318923192e-04 1.4286233236e+00 -2.4744481813e+00 1.4286233236e+00 2.4744481813e+00 
97900 4.4290100824e+00 2.2254245839e-04 1.4286155123e+00 -2.4744346517e+00 1.4286155123e+00 2.4744346517e+00 
98000 4.4290099959e+00 2.2189791375e-04 1.4286077235e+00 -2.4744211612e+00 1.4286077235e+00 2.4744211612e+00 
98100 4.4290099098e+00 2.2125558848e-04 1.4285999573e+00 -2.4744077097e+00 1.4285999573e+00 2.4744077097e+00 
98200 4.4290098242e+00 2.2061547314e-04 1.4285922135e+00 -2.4743942971e+00 1.4285922135e+00 2.4743942971e+00 
98300 4.4290097390e+00 2.1997755833e-04 1.4285844921e+00 -2.4743809232e+00 1.4285844921e+00 2.4743809232e+00 
98400 4.4290096543e+00 2.1934183469e-04 1.4285767929e+00 -2.4743675879e+00 1.4285767929e+00 2.4743675879e+00 
98500 4.4290095701e+00 2.1870829293e-04 1.4285691160e+00 -2.4743542911e+00 1.4285691160e+00 2.4743542911e+00 
98600 4.4290094863e+00 2.1807692377e-04 1.4285614612e+00 -2.4743410326e+00 1.4285614612e+00 2.4743410326e+00 
98700 4.4290094029e+00 2.1744771803e-04 1.4285538285e+00 -2.4743278123e+00 1.4285538285e+00 2.4743278123e+00 
98800 4.4290093200e+00 2.1682066653e-04 1.4285462177e+00 -2.4743146301e+00 1.4285462177e+00 2.4743146301e+00 
98900 4.4290092375e+00 2.1619576017e-04 1.4285386289e+00 -2.4743014858e+00 1.4285386289e+00 2.4743014858e+00 
99000 4.4290091555e+00 2.1557298989e-04 1.4285310619e+00 -2.4742883793e+00 1.4285310619e+00 2.4742883793e+00 
99100 4.4290090739e+00 2.1495234667e-04 1.4285235166e+00 -2.4742753106e+00 1.4285235166e+00 2.4742753106e+00 
99200 4.4290089927e+00 2.1433382153e-04 1.4285159930e+00 -2.4742622793e+00 1.4285159930e+00 2.4742622793e+00 
99300 4.4290089120e+00 2.1371740557e-04 1.4285084911e+00 -2.4742492855e+00 1.4285084911e+00 2.4742492855e+00 
99400 4.4290088317e+00 2.1310308989e-04 1.4285010106e+00 -2.4742363291e+00 1.4285010106e+00 2.4742363291e+00 
99500 4.4290087519e+00 2.1249086568e-04 1.4284935517e+00 -2.4742234097e+00 1.4284935517e+00 2.4742234097e+00 
99600 4.4290086724e+00 2.1188072414e-04 1.4284861141e+00 -2.4742105275e+00 1.4284861141e+00 2.4742105275e+00 
99700 4.4290085934e+00 2.1127265654e-04 1.4284786978e+00 -2.4741976821e+00 1.4284786978e+00 2.4741976821e+00 
99800 4.4290085148e+00 2.1066665418e-04 1.4284713028e+00 -2.4741848736e+00 1.4284713028e+00 2.4741848736e+00 
99900 4.4290084366e+00 2.1006270841e-04 1.4284639289e+00 -2.4741721017e+00 1.4284639289e+00 2.4741721017e+00 
100000 4.4290083589e+00 2.0946081063e-04 1.4284565762e+00 -2.4741593664e+00 1.4284565762e+00 2.4741593664e+00 
100100 4.4290082815e+00 2.0886095227e-04 1.4284492445e+00 -2.4741466675e+00 1.4284492445e+00 2.4741466675e+00 
100200 4.4290082046e+00 2.0826312483e-04 1.4284419337e+00 -2.4741340049e+00 1.4284419337e+00 2.4741340049e+00 
100300 4.4290081281e+00 2.0766731983e-04 1.4284346439e+00 -2.4741213785e+00 1.4284346439e+00 2.4741213785e+00 
100400 4.4290080519e+00 2.0707352884e-04 1.4284273748e+00 -2.4741087881e+00 1.4284273748e+00 2.4741087881e+00 
100500 4.4290079762e+00 2.0648174347e-04 1.4284201265e+00 -2.4740962337e+00 1.4284201265e+00 2.4740962337e+00 
100600 4.4290079009e+00 2.0589195538e-04 1.4284128989e+00 -2.4740837151e+00 1.4284128989e+00 2.4740837151e+00 
100700 4.4290078260e+00 2.0530415627e-04 1.4284056919e+00 -2.4740712322e+00 1.4284056919e+00 2.4740712322e+00 
100800 4.4290077515e+00 2.0471833789e-04 1.4283985054e+00 -2.4740587849e+00 1.4283985054e+00 2.4740587849e+00 
100900 4.4290076774e+00 2.0413449202e-04 1.4283913394e+00 -2.4740463730e+00 1.4283913394e+00 2.4740463730e+00 
101000 4.4290076036e+00 2.0355261048e-04 1.4283841938e+00 -2.4740339964e+00 1.4283841938e+00 2.4740339964e+00 
101100 4.4290075303e+00 2.0297268514e-04 1.4283770686e+00 -2.4740216551e+00 1.4283770686e+00 2.4740216551e+00 
101200 4.4290074574e+00 2.0239470791e-04 1.4283699636e+00 -2.4740093489e+00 1.4283699636e+00 2.4740093489e+00 
101300 4.4290073848e+00 2.0181867075e-04 1.4283628787e+00 -2.4739970776e+00 1.4283628787e+00 2.4739970776e+00 
101400 4.4290073126e+00 2.0124456565e-04 1.4283558141e+00 -2.4739848412e+00 1.4283558141e+00 2.4739848412e+00 
101500 4.4290072408e+00 2.0067238463e-04 1.4283487694e+00 -2.4739726396e+00 1.4283487694e+00 2.4739726396e+00 
101600 4.4290071694e+00 2.0010211977e-04 1.4283417448e+00 -2.4739604726e+00 1.4283417448e+00 2.4739604726e+00 
101700 4.4290070984e+00 1.9953376318e-04 1.4283347401e+00 -2.4739483401e+00 1.4283347401e+00 2.4739483401e+00 
101800 4.4290070277e+00 1.9896730703e-04 1.4283277553e+00 -2.4739362420e+00 1.4283277553e+00 2.4739362420e+00 
101900 4.4290069574e+00 1.9840274349e-04 1.4283207903e+00 -2.4739241782e+00 1.4283207903e+00 2.4739241782e+00 
102000 4.4290068875e+00 1.9784006480e-04 1.4283138449e+00 -2.4739121486e+00 1.4283138449e+00 2.4739121486e+00 
102100 4.4290068179e+00 1.9727926323e-04 1.4283069193e+00 -2.4739001530e+00 1.4283069193e+00 2.4739001530e+00 
102200 4.4290067488e+00 1.9672033110e-04 1.4283000133e+00 -2.4738881914e+00 1.4283000133e+00 2.4738881914e+00 
102300 4.4290066799e+00 1.9616326074e-04 1.4282931267e+00 -2.4738762636e+00 1.4282931267e+00 2.4738762636e+00 
102400 4.4290066115e+00 1.9560804456e-04 1.4282862597e+00 -2.4738643695e+00 1.4282862597e+00 2.4738643695e+00 
102500 4.4290065434e+00 1.9505467497e-04 1.4282794121e+00 -2.4738525091e+00 1.4282794121e+00 2.4738525091e+00 
102600 4.4290064757e+00 1.9450314445e-04 1.4282725837e+00 -2.4738406821e+00 1.4282725837e+00 2.4738406821e+00 
102700 4.4290064083e+00 1.9395344548e-04 1.4282657747e+00 -2.4738288885e+00 1.4282657747e+00 2.4738288885e+00 
102800 4.4290063413e+00 1.9340557061e-04 1.4282589849e+00 -2.4738171282e+00 1.4282589849e+00 2.4738171282e+00 
102900 4.4290062746e+00 1.9285951242e-04 1.4282522142e+00 -2.4738054011e+00 1.4282522142e+00 2.4738054011e+00 
103000 4.4290062083e+00 1.9231526353e-04 1.4282454626e+00 -2.4737937070e+00 1.4282454626e+00 2.4737937070e+00 
103100 4.4290061423e+00 1.9177281657e-04 1.4282387301e+00 -2.4737820458e+00 1.4282387301e+00 2.4737820458e+00 
103200 4.4290060767e+00 1.9123216424e-04 1.4282320165e+00 -2.4737704175e+00 1.4282320165e+00 2.4737704175e+00 
103300 4.4290060114e+00 1.9069329927e-04 1.4282253218e+00 -2.4737588219e+00 1.4282253218e+00 2.4737588219e+00 
103400 4.4290059465e+00 1.9015621441e-04 1.4282186459e+00 -2.4737472590e+00 1.4282186459e+00 2.4737472590e+00 
103500 4.4290058819e+00 1.8962090246e-04 1.4282119888e+00 -2.4737357285e+00 1.4282119888e+00 2.4737357285e+00 
103600 4.4290058176e+00 1.8908735625e-04 1.4282053504e+00 -2.4737242305e+00 1.4282053504e+00 2.4737242305e+00 
103700 4.4290057537e+00 1.8855556866e-04 1.4281987306e+00 -2.4737127648e+00 1.4281987306e+00 2.4737127648e+00 
103800 4.4290056901e+00 1.8802553257e-04 1.4281921295e+00 -2.4737013312e+00 1.4281921295e+00 2.4737013312e+00 
103900 4.4290056269e+00 1.8749724094e-04 1.4281855468e+00 -2.4736899298e+00 1.4281855468e+00 2.4736899298e+00 
104000 4.4290055640e+00 1.8697068673e-04 1.4281789827e+00 -2.4736785603e+00 1.4281789827e+00 2.4736785603e+00 
104100 4.4290055014e+00 1.8644586296e-04 1.4281724369e+00 -2.4736672227e+00 1.4281724369e+00 2.4736672227e+00 
104200 4.4290054391e+00 1.8592276266e-04 1.4281659095e+00 -2.4736559168e+00 1.4281659095e+00 2.4736559168e+00 
104300 4.4290053772e+00 1.8540137892e-04 1.4281594003e+00 -2.4736446427e+00 1.4281594003e+00 2.4736446427e+00 
104400 4.4290053156e+00 1.8488170484e-04 1.4281529094e+00 -2.4736334001e+00 1.4281529094e+00 2.4736334001e+00 
104500 4.4290052543e+00 1.8436373357e-04 1.4281464367e+00 -2.4736221890e+00 1.4281464367e+00 2.4736221890e+00 
104600 4.4290051933e+00 1.8384745829e-04 1.4281399820e+00 -2.4736110092e+00 1.4281399820e+00 2.4736110092e+00 
104700 4.4290051327e+00 1.8333287221e-04 1.4281335454e+00 -2.4735998607e+00 1.4281335454e+00 2.4735998607e+00 
104800 4.4290050724e+00 1.8281996858e-04 1.4281271268e+00 -2.4735887433e+00 1.4281271268e+00 2.4735887433e+00 
104900 4.4290050123e+00 1.8230874068e-04 1.4281207261e+00 -2.4735776570e+00 1.4281207261e+00 2.4735776570e+00 
105000 4.4290049527e+00 1.8179918181e-04 1.4281143433e+00 -2.4735666016e+00 1.4281143433e+00 2.4735666016e+00 
105100 4.4290048933e+00 1.8129128533e-04 1.4281079783e+00 -2.4735555771e+00 1.4281079783e+00 2.4735555771e+00 
105200 4.4290048342e+00 1.8078504462e-04 1.4281016311e+00 -2.4735445834e+00 1.4281016311e+00 2.4735445834e+00 
105300 4.4290047754e+00 1.8028045307e-04 1.4280953015e+00 -2.4735336202e+00 1.4280953015e+00 2.4735336202e+00 
105400 4.4290047170e+00 1.7977750414e-04 1.4280889896e+00 -2.4735226877e+00 1.4280889896e+00 2.4735226877e+00 
105500 4.4290046588e+00 1.7927619129e-04 1.4280826953e+00 -2.4735117856e+00 1.4280826953e+00 2.4735117856e+00 
105600 4.4290046010e+00 1.7877650805e-04 1.4280764184e+00 -2.4735009138e+00 1.4280764184e+00 2.4735009138e+00 
105700 4.4290045434e+00 1.7827844793e-04 1.4280701591e+00 -2.4734900723e+00 1.4280701591e+00 2.4734900723e+00 
105800 4.4290044862e+00 1.7778200451e-04 1.4280639172e+00 -2.4734792610e+00 1.4280639172e+00 2.4734792610e+00 
105900 4.4290044292e+00 1.7728717140e-04 1.4280576926e+00 -2.4734684797e+00 1.4280576926e+00 2.4734684797e+00 
106000 4.4290043726e+00 1.7679394222e-04 1.4280514853e+00 -2.4734577284e+00 1.4280514853e+00 2.4734577284e+00 
106100 4.4290043162e+00 1.7630231064e-04 1.4280452953e+00 -2.4734470069e+00 1.4280452953e+00 2.4734470069e+00 
106200 4.4290042601e+00 1.7581227034e-04 1.4280391224e+00 -2.4734363152e+00 1.4280391224e+00 2.4734363152e+00 
106300 4.4290042044e+00 1.7532381506e-04 1.4280329667e+00 -2.4734256532e+00 1.4280329667e+00 2.4734256532e+00 
106400 4.4290041489e+00 1.7483693855e-04 1.4280268281e+00 -2.4734150208e+00 1.4280268281e+00 2.4734150208e+00 
106500 4.4290040937e+00 1.7435163459e-04 1.4280207064e+00 -2.4734044178e+00 1.4280207064e+00 2.4734044178e+00 
106600 4.4290040388e+00 1.7386789700e-04 1.4280146018e+00 -2.4733938442e+00 1.4280146018e+00 2.4733938442e+00 
106700 4.4290039842e+00 1.7338571961e-04 1.4280085140e+00 -2.4733833000e+00 1.4280085140e+00 2.4733833000e+00 
106800 4.4290039298e+00 1.7290509632e-04 1.4280024432e+00 -2.4733727849e+00 1.4280024432e+00 2.4733727849e+00 
106900 4.4290038758e+00 1.7242602101e-04 1.4279963891e+00 -2.4733622989e+00 1.4279963891e+00 2.4733622989e+00 
107000 4.4290038220e+00 1.7194848762e-04 1.4279903517e+00 -2.4733518419e+00 1.4279903517e+00 2.4733518419e+00 
107100 4.4290037685e+00 1.7147249011e-04 1.4279843311e+00 -2.4733414139e+00 1.4279843311e+00 2.4733414139e+00 
107200 4.4290037153e+00 1.7099802248e-04 1.4279783271e+00 -2.4733310146e+00 1.4279783271e+00 2.4733310146e+00 
107300 4.4290036623e+00 1.7052507875e-04 1.4279723397e+00 -2.4733206441e+00 1.4279723397e+00 2.4733206441e+00 
107400 4.4290036097e+00 1.7005365296e-04 1.4279663688e+00 -2.4733103023e+00 1.4279663688e+00 2.4733103023e+00 
107500 4.4290035573e+00 1.6958373919e-04 1.4279604144e+00 -2.4732999889e+00 1.4279604144e+00 2.4732999889e+00 
107600 4.4290035051e+00 1.6911533154e-04 1.4279544764e+00 -2.4732897041e+00 1.4279544764e+00 2.4732897041e+00 
107700 4.4290034533e+00 1.6864842416e-04 1.4279485548e+00 -2.4732794476e+00 1.4279485548e+00 2.4732794476e+00 
107800 4.4290034017e+00 1.6818301119e-04 1.4279426496e+00 -2.4732692194e+00 1.4279426496e+00 2.4732692194e+00 
107900 4.4290033504e+00 1.6771908684e-04 1.4279367606e+00 -2.4732590193e+00 1.4279367606e+00 2.4732590193e+00 
108000 4.4290032993e+00 1.6725664532e-04 1.4279308878e+00 -2.4732488474e+00 1.4279308878e+00 2.4732488474e+00 
108100 4.4290032486e+00 1.6679568087e-04 1.4279250312e+00 -2.4732387035e+00 1.4279250312e+00 2.4732387035e+00 
108200 4.4290031980e+00 1.6633618776e-04 1.4279191907e+00 -2.4732285874e+00 1.4279191907e+00 2.4732285874e+00 
108300 4.4290031478e+00 1.6587816031e-04 1.4279133663e+00 -2.4732184992e+00 1.4279133663e+00 2.4732184992e+00 
108400 4.4290030978e+00 1.6542159282e-04 1.4279075579e+00 -2.4732084388e+00 1.4279075579e+00 2.4732084388e+00 
108500 4.4290030480e+00 1.6496647966e-04 1.4279017655e+00 -2.4731984060e+00 1.4279017655e+00 2.4731984060e+00 
108600 4.4290029985e+00 1.6451281520e-04 1.4278959889e+00 -2.4731884007e+00 1.4278959889e+00 2.4731884007e+00 
108700 4.4290029493e+00 1.6406059386e-04 1.4278902283e+00 -2.4731784230e+00 1.4278902283e+00 2.4731784230e+00 
108800 4.4290029003e+00 1.6360981006e-04 1.4278844834e+00 -2.4731684726e+00 1.4278844834e+00 2.4731684726e+00 
108900 4.4290028516e+00 1.6316045827e-04 1.4278787543e+00 -2.4731585495e+00 1.4278787543e+00 2.4731585495e+00 
109000 4.4290028031e+00 1.6271253297e-04 1.4278730409e+00 -2.4731486536e+00 1.4278730409e+00 2.4731486536e+00 
109100 4.4290027549e+00 1.6226602867e-04 1.4278673432e+00 -2.4731387849e+00 1.4278673432e+00 2.4731387849e+00 
109200 4.4290027070e+00 1.6182093992e-04 1.4278616611e+00 -2.4731289432e+00 1.4278616611e+00 2.4731289432e+00 
109300 4.4290026592e+00 1.6137726127e-04 1.4278559945e+00 -2.4731191284e+00 1.4278559945e+00 2.4731191284e+00 
109400 4.4290026118e+00 1.6093498731e-04 1.4278503435e+00 -2.4731093406e+00 1.4278503435e+00 2.4731093406e+00 
109500 4.4290025645e+00 1.6049411266e-04 1.4278447080e+00 -2.4730995795e+00 1.4278447080e+00 2.4730995795e+00 
109600 4.4290025175e+00 1.6005463197e-04 1.4278390878e+00 -2.4730898451e+00 1.4278390878e+00 2.4730898451e+00 
109700 4.4290024708e+00 1.5961653988e-04 1.4278334830e+00 -2.4730801373e+00 1.4278334830e+00 2.4730801373e+00 
109800 4.4290024243e+00 1.5917983110e-04 1.4278278936e+00 -2.4730704561e+00 1.4278278936e+00 2.4730704561e+00 
109900 4.4290023780e+00 1.5874450034e-04 1.4278223194e+00 -2.4730608013e+00 1.4278223194e+00 2.4730608013e+00 
110000 4.4290023320e+00 1.5831054233e-04 1.4278167604e+00 -2.4730511729e+00 1.4278167604e+00 2.4730511729e+00 
110100 4.4290022862e+00 1.5787795185e-04 1.4278112166e+00 -2.4730415708e+00 1.4278112166e+00 2.4730415708e+00 
110200 4.4290022406e+00 1.5744672368e-04 1.4278056879e+00 -2.4730319948e+00 1.4278056879e+00 2.4730319948e+00 
110300 4.4290021953e+00 1.5701685263e-04 1.4278001743e+00 -2.4730224450e+00 1.4278001743e+00 2.4730224450e+00 
110400 4.4290021502e+00 1.5658833355e-04 1.4277946758e+00 -2.4730129213e+00 1.4277946758e+00 2.4730129213e+00 
110500 4.4290021054e+00 1.5616116128e-04 1.4277891922e+00 -2.4730034234e+00 1.4277891922e+00 2.4730034234e+00 
110600 4.4290020607e+00 1.5573533073e-04 1.4277837236e+00 -2.4729939515e+00 1.4277837236e+00 2.4729939515e+00 
110700 4.4290020163e+00 1.5531083679e-04 1.4277782699e+00 -2.4729845053e+00 1.4277782699e+00 2.4729845053e+00 
110800 4.4290019722e+00 1.5488767440e-04 1.4277728310e+00 -2.4729750849e+00 1.4277728310e+00 2.4729750849e+00 
110900 4.4290019282e+00 1.5446583852e-04 1.4277674069e+00 -2.4729656901e+00 1.4277674069e+00 2.4729656901e+00 
111000 4.4290018845e+00 1.5404532412e-04 1.4277619975e+00 -2.4729563208e+00 1.4277619975e+00 2.4729563208e+00 
111100 4.4290018410e+00 1.5362612621e-04 1.4277566029e+00 -2.4729469770e+00 1.4277566029e+00 2.4729469770e+00 
111200 4.4290017977e+00 1.5320823981e-04 1.4277512229e+00 -2.4729376586e+00 1.4277512229e+00 2.4729376586e+00 
111300 4.4290017547e+00 1.5279165998e-04 1.4277458575e+00 -2.4729283655e+00 1.4277458575e+00 2.4729283655e+00 
111400 4.4290017119e+00 1.5237638178e-04 1.4277405067e+00 -2.4729190977e+00 1.4277405067e+00 2.4729190977e+00 
111500 4.4290016692e+00 1.5196240031e-04 1.4277351705e+00 -2.4729098550e+00 1.4277351705e+00 2.4729098550e+00 
111600 4.4290016269e+00 1.5154971069e-04 1.4277298487e+00 -2.4729006374e+00 1.4277298487e+00 2.4729006374e+00 
111700 4.4290015847e+00 1.5113830805e-04 1.4277245413e+00 -2.4728914447e+00 1.4277245413e+00 2.4728914447e+00 
111800 4.4290015427e+00 1.5072818756e-04 1.4277192483e+00 -2.4728822770e+00 1.4277192483e+00 2.4728822770e+00 
111900 4.4290015010e+00 1.5031934441e-04 1.4277139697e+00 -2.4728731342e+00 1.4277139697e+00 2.4728731342e+00 
112000 4.4290014595e+00 1.4991177379e-04 1.4277087054e+00 -2.4728640161e+00 1.4277087054e+00 2.4728640161e+00 
112100 4.4290014181e+00 1.4950547094e-04 1.4277034553e+00 -2.4728549227e+00 1.4277034553e+00 2.4728549227e+00 
112200 4.4290013770e+00 1.4910043111e-04 1.4276982194e+00 -2.4728458539e+00 1.4276982194e+00 2.4728458539e+00 
112300 4.4290013361e+00 1.4869664956e-04 1.4276929977e+00 -2.4728368096e+00 1.4276929977e+00 2.4728368096e+00 
112400 4.4290012955e+00 1.4829412160e-04 1.4276877901e+00 -2.4728277898e+00 1.4276877901e+00 2.4728277898e+00 
112500 4.4290012550e+00 1.4789284254e-04 1.4276825966e+00 -2.4728187944e+00 1.4276825966e+00 2.4728187944e+00 
112600 4.4290012147e+00 1.4749280772e-04 1.4276774172e+00 -2.4728098233e+00 1.4276774172e+00 2.4728098233e+00 
112700 4.4290011747e+00 1.4709401248e-04 1.4276722517e+00 -2.4728008765e+00 1.4276722517e+00 2.4728008765e+00 
112800 4.4290011348e+00 1.4669645223e-04 1.4276671001e+00 -2.4727919537e+00 1.4276671001e+00 2.4727919537e+00 
112900 4.4290010951e+00 1.4630012234e-04 1.4276619625e+00 -2.4727830551e+00 1.4276619625e+00 2.4727830551e+00 
113000 4.4290010557e+00 1.4590501824e-04 1.4276568388e+00 -2.4727741805e+00 1.4276568388e+00 2.4727741805e+00 
113100 4.4290010164e+00 1.4551113539e-04 1.4276517288e+00 -2.4727653298e+00 1.4276517288e+00 2.4727653298e+00 
113200 4.4290009774e+00 1.4511846923e-04 1.4276466326e+00 -2.4727565030e+00 1.4276466326e+00 2.4727565030e+00 
113300 4.4290009385e+00 1.4472701525e-04 1.4276415502e+00 -2.4727477000e+00 1.4276415502e+00 2.4727477000e+00 
113400 4.4290008999e+00 1.4433676896e-04 1.4276364815e+00 -2.4727389206e+00 1.4276364815e+00 2.4727389206e+00 
113500 4.4290008614e+00 1.4394772587e-04 1.4276314264e+00 -2.4727301650e+00 1.4276314264e+00 2.4727301650e+00 
113600 4.4290008231e+00 1.4355988154e-04 1.4276263849e+00 -2.4727214329e+00 1.4276263849e+00 2.4727214329e+00 
113700 4.4290007851e+00 1.4317323153e-04 1.4276213570e+00 -2.4727127242e+00 1.4276213570e+00 2.4727127242e+00 
113800 4.4290007472e+00 1.4278777142e-04 1.4276163426e+00 -2.4727040391e+00 1.4276163426e+00 2.4727040391e+00 
113900 4.4290007095e+00 1.4240349682e-04 1.4276113417e+00 -2.4726953772e+00 1.4276113417e+00 2.4726953772e+00 
114000 4.4290006720e+00 1.4202040336e-04 1.4276063542e+00 -2.4726867387e+00 1.4276063542e+00 2.4726867387e+00 
114100 4.4290006347e+00 1.4163848666e-04 1.4276013801e+00 -2.4726781233e+00 1.4276013801e+00 2.4726781233e+00 
114200 4.4290005976e+00 1.4125774241e-04 1.4275964194e+00 -2.4726695311e+00 1.4275964194e+00 2.4726695311e+00 
114300 4.4290005607e+00 1.4087816628e-04 1.4275914720e+00 -2.4726609620e+00 1.4275914720e+00 2.4726609620e+00 
114400 4.4290005240e+00 1.4049975398e-04 1.4275865379e+00 -2.4726524158e+00 1.4275865379e+00 2.4726524158e+00 
114500 4.4290004874e+00 1.4012250123e-04 1.4275816170e+00 -2.4726438926e+00 1.4275816170e+00 2.4726438926e+00 
114600 4.4290004511e+00 1.3974640376e-04 1.4275767093e+00 -2.4726353923e+00 1.4275767093e+00 2.4726353923e+00 
114700 4.4290004149e+00 1.3937145734e-04 1.4275718148e+00 -2.4726269147e+00 1.4275718148e+00 2.4726269147e+00 
114800 4.4290003789e+00 1.3899765775e-04 1.4275669334e+00 -2.4726184598e+00 1.4275669334e+00 2.4726184598e+00 
114900 4.4290003431e+00 1.3862500079e-04 1.4275620650e+00 -2.4726100276e+00 1.4275620650e+00 2.4726100276e+00 
115000 4.4290003075e+00 1.3825348227e-04 1.4275572097e+00 -2.4726016180e+00 1.4275572097e+00 2.4726016180e+00 
115100 4.4290002720e+00 1.3788309803e-04 1.4275523674e+00 -2.4725932309e+00 1.4275523674e+00 2.4725932309e+00 
115200 4.4290002368e+00 1.3751384393e-04 1.4275475381e+00 -2.4725848662e+00 1.4275475381e+00 2.4725848662e+00 
115300 4.4290002017e+00 1.3714571583e-04 1.4275427217e+00 -2.4725765239e+00 1.4275427217e+00 2.4725765239e+00 
115400 4.4290001668e+00 1.3677870962e-04 1.4275379181e+00 -2.4725682039e+00 1.4275379181e+00 2.4725682039e+00 
115500 4.4290001321e+00 1.3641282123e-04 1.4275331274e+00 -2.4725599061e+00 1.4275331274e+00 2.4725599061e+00 
115600 4.4290000975e+00 1.3604804656e-04 1.4275283495e+00 -2.4725516305e+00 1.4275283495e+00 2.4725516305e+00 
115700 4.4290000631e+00 1.3568438158e-04 1.4275235843e+00 -2.4725433770e+00 1.4275235843e+00 2.4725433770e+00 
115800 4.4290000289e+00 1.3532182224e-04 1.4275188319e+00 -2.4725351456e+00 1.4275188319e+00 2.4725351456e+00 
115900 4.4289999949e+00 1.3496036453e-04 1.4275140921e+00 -2.4725269361e+00 1.4275140921e+00 2.4725269361e+00 
116000 4.4289999610e+00 1.3460000444e-04 1.4275093650e+00 -2.4725187485e+00 1.4275093650e+00 2.4725187485e+00 
116100 4.4289999273e+00 1.3424073799e-04 1.4275046505e+00 -2.4725105827e+00 1.4275046505e+00 2.4725105827e+00 
116200 4.4289998938e+00 1.3388256121e-04 1.4274999486e+00 -2.4725024387e+00 1.4274999486e+00 2.4725024387e+00 
116300 4.4289998605e+00 1.3352547017e-04 1.4274952592e+00 -2.4724943164e+00 1.4274952592e+00 2.4724943164e+00 
116400 4.4289998273e+00 1.3316946092e-04 1.4274905823e+00 -2.4724862158e+00 1.4274905823e+00 2.4724862158e+00 
116500 4.4289997943e+00 1.3281452956e-04 1.4274859178e+00 -2.4724781367e+00 1.4274859178e+00 2.4724781367e+00 
116600 4.4289997614e+00 1.3246067219e-04 1.4274812658e+00 -2.4724700791e+00 1.4274812658e+00 2.4724700791e+00 
116700 4.4289997287e+00 1.3210788493e-04 1.4274766261e+00 -2.4724620430e+00 1.4274766261e+00 2.4724620430e+00 
116800 4.4289996962e+00 1.3175616392e-04 1.4274719988e+00 -2.4724540283e+00 1.4274719988e+00 2.4724540283e+00 
116900 4.4289996639e+00 1.3140550531e-04 1.4274673838e+00 -2.4724460348e+00 1.4274673838e+00 2.4724460348e+00 
117000 4.4289996317e+00 1.3105590528e-04 1.4274627810e+00 -2.4724380626e+00 1.4274627810e+00 2.4724380626e+00 
117100 4.4289995997e+00 1.3070736002e-04 1.4274581905e+00 -2.4724301116e+00 1.4274581905e+00 2.4724301116e+00 
117200 4.4289995678e+00 1.3035986573e-04 1.4274536122e+00 -2.4724221817e+00 1.4274536122e+00 2.4724221817e+00 
117300 4.4289995361e+00 1.3001341863e-04 1.4274490460e+00 -2.4724142729e+00 1.4274490460e+00 2.4724142729e+00 
117400 4.4289995046e+00 1.2966801497e-04 1.4274444920e+00 -2.4724063851e+00 1.4274444920e+00 2.4724063851e+00 
117500 4.4289994732e+00 1.2932365099e-04 1.4274399500e+00 -2.4723985181e+00 1.4274399500e+00 2.4723985181e+00 
117600 4.4289994420e+00 1.2898032298e-04 1.4274354201e+00 -2.4723906721e+00 1.4274354201e+00 2.4723906721e+00 
117700 4.4289994109e+00 1.2863802722e-04 1.4274309022e+00 -2.4723828469e+00 1.4274309022e+00 2.4723828469e+00 
117800 4.4289993800e+00 1.2829676001e-04 1.4274263963e+00 -2.4723750424e+00 1.4274263963e+00 2.4723750424e+00 
117900 4.4289993492e+00 1.2795651767e-04 1.4274219023e+00 -2.4723672586e+00 1.4274219023e+00 2.4723672586e+00 
118000 4.4289993186e+00 1.2761729655e-04 1.4274174202e+00 -2.4723594954e+00 1.4274174202e+00 2.4723594954e+00 
118100 4.4289992882e+00 1.2727909299e-04 1.4274129500e+00 -2.4723517527e+00 1.4274129500e+00 2.4723517527e+00 
118200 4.4289992579e+00 1.2694190335e-04 1.4274084916e+00 -2.4723440306e+00 1.4274084916e+00 2.4723440306e+00 
118300 4.4289992278e+00 1.2660572404e-04 1.4274040450e+00 -2.4723363289e+00 1.4274040450e+00 2.4723363289e+00 
118400 4.4289991978e+00 1.2627055144e-04 1.4273996102e+00 -2.4723286475e+00 1.4273996102e+00 2.4723286475e+00 
118500 4.4289991679e+00 1.2593638197e-04 1.4273951871e+00 -2.4723209865e+00 1.4273951871e+00 2.4723209865e+00 
118600 4.4289991383e+00 1.2560321206e-04 1.4273907757e+00 -2.4723133457e+00 1.4273907757e+00 2.4723133457e+00 
118700 4.4289991087e+00 1.2527103816e-04 1.4273863759e+00 -2.4723057252e+00 1.4273863759e+00 2.4723057252e+00 
118800 4.4289990793e+00 1.2493985672e-04 1.4273819878e+00 -2.4722981247e+00 1.4273819878e+00 2.4722981247e+00 
118900 4.4289990501e+00 1.2460966424e-04 1.4273776113e+00 -2.4722905443e+00 1.4273776113e+00 2.4722905443e+00 
119000 4.4289990210e+00 1.2428045719e-04 1.4273732463e+00 -2.4722829839e+00 1.4273732463e+00 2.4722829839e+00 
119100 4.4289989921e+00 1.2395223209e-04 1.4273688928e+00 -2.4722754435e+00 1.4273688928e+00 2.4722754435e+00 
119200 4.4289989633e+00 1.2362498545e-04 1.4273645509e+00 -2.4722679230e+00 1.4273645509e+00 2.4722679230e+00 
119300 4.4289989346e+00 1.2329871382e-04 1.4273602203e+00 -2.4722604223e+00 1.4273602203e+00 2.4722604223e+00 
119400 4.4289989061e+00 1.2297341375e-04 1.4273559012e+00 -2.4722529414e+00 1.4273559012e+00 2.4722529414e+00 
119500 4.4289988777e+00 1.2264908180e-04 1.4273515935e+00 -2.4722454802e+00 1.4273515935e+00 2.4722454802e+00 
119600 4.4289988495e+00 1.2232571456e-04 1.4273472971e+00 -2.4722380386e+00 1.4273472971e+00 2.4722380386e+00 
119700 4.4289988214e+00 1.2200330862e-04 1.4273430120e+00 -2.4722306166e+00 1.4273430120e+00 2.4722306166e+00 
119800 4.4289987935e+00 1.2168186060e-04 1.4273387382e+00 -2.4722232142e+00 1.4273387382e+00 2.4722232142e+00 
119900 4.4289987657e+00 1.2136136711e-04 1.4273344757e+00 -2.4722158313e+00 1.4273344757e+00 2.4722158313e+00 
120000 4.4289987380e+00 1.2104182480e-04 1.4273302244e+00 -2.4722084678e+00 1.4273302244e+00 2.4722084678e+00 
120100 4.4289987105e+00 1.2072323033e-04 1.4273259842e+00 -2.4722011236e+00 1.4273259842e+00 2.4722011236e+00 
120200 4.4289986831e+00 1.2040558036e-04 1.4273217552e+00 -2.4721937988e+00 1.4273217552e+00 2.4721937988e+00 
120300 4.4289986558e+00 1.2008887158e-04 1.4273175373e+00 -2.4721864932e+00 1.4273175373e+00 2.4721864932e+00 
120400 4.4289986287e+00 1.1977310068e-04 1.4273133305e+00 -2.4721792068e+00 1.4273133305e+00 2.4721792068e+00 
120500 4.4289986017e+00 1.1945826437e-04 1.4273091348e+00 -2.4721719396e+00 1.4273091348e+00 2.4721719396e+00 
120600 4.4289985749e+00 1.1914435938e-04 1.4273049500e+00 -2.4721646914e+00 1.4273049500e+00 2.4721646914e+00 
120700 4.4289985482e+00 1.1883138245e-04 1.4273007763e+00 -2.4721574622e+00 1.4273007763e+00 2.4721574622e+00 
120800 4.4289985216e+00 1.1851933033e-04 1.4272966135e+00 -2.4721502520e+00 1.4272966135e+00 2.4721502520e+00 
120900 4.4289984952e+00 1.1820819978e-04 1.4272924616e+00 -2.4721430608e+00 1.4272924616e+00 2.4721430608e+00 
121000 4.4289984689e+00 1.1789798759e-04 1.4272883206e+00 -2.4721358884e+00 1.4272883206e+00 2.4721358884e+00 
121100 4.4289984427e+00 1.1758869056e-04 1.4272841905e+00 -2.4721287348e+00 1.4272841905e+00 2.4721287348e+00 
121200 4.4289984166e+00 1.1728030549e-04 1.4272800712e+00 -2.4721215999e+00 1.4272800712e+00 2.4721215999e+00 
121300 4.4289983907e+00 1.1697282919e-04 1.4272759627e+00 -2.4721144837e+00 1.4272759627e+00 2.4721144837e+00 
121400 4.4289983649e+00 1.1666625851e-04 1.4272718649e+00 -2.4721073862e+00 1.4272718649e+00 2.4721073862e+00 
121500 4.4289983393e+00 1.1636059030e-04 1.4272677779e+00 -2.4721003072e+00 1.4272677779e+00 2.4721003072e+00 
121600 4.4289983137e+00 1.1605582141e-04 1.4272637015e+00 -2.4720932468e+00 1.4272637015e+00 2.4720932468e+00 
121700 4.4289982883e+00 1.1575194871e-04 1.4272596358e+00 -2.4720862049e+00 1.4272596358e+00 2.4720862049e+00 
121800 4.4289982631e+00 1.1544896911e-04 1.4272555808e+00 -2.4720791813e+00 1.4272555808e+00 2.4720791813e+00 
121900 4.4289982379e+00 1.1514687949e-04 1.4272515364e+00 -2.4720721762e+00 1.4272515364e+00 2.4720721762e+00 
122000 4.4289982129e+00 1.1484567678e-04 1.4272475025e+00 -2.4720651893e+00 1.4272475025e+00 2.4720651893e+00 
122100 4.4289981880e+00 1.1454535789e-04 1.4272434792e+00 -2.4720582207e+00 1.4272434792e+00 2.4720582207e+00 
122200 4.4289981632e+00 1.1424591977e-04 1.4272394664e+00 -2.4720512703e+00 1.4272394664e+00 2.4720512703e+00 
122300 4.4289981386e+00 1.1394735937e-04 1.4272354640e+00 -2.4720443380e+00 1.4272354640e+00 2.4720443380e+00 
122400 4.4289981140e+00 1.1364967366e-04 1.4272314721e+00 -2.4720374239e+00 1.4272314721e+00 2.4720374239e+00 
122500 4.4289980896e+00 1.1335285961e-04 1.4272274907e+00 -2.4720305278e+00 1.4272274907e+00 2.4720305278e+00 
122600 4.4289980653e+00 1.1305691422e-04 1.4272235196e+00 -2.4720236497e+00 1.4272235196e+00 2.4720236497e+00 
122700 4.4289980412e+00 1.1276183448e-04 1.4272195588e+00 -2.4720167895e+00 1.4272195588e+00 2.4720167895e+00 
122800 4.4289980171e+00 1.1246761742e-04 1.4272156084e+00 -2.4720099472e+00 1.4272156084e+00 2.4720099472e+00 
122900 4.4289979932e+00 1.1217426006e-04 1.4272116683e+00 -2.4720031227e+00 1.4272116683e+00 2.4720031227e+00 
123000 4.4289979694e+00 1.1188175945e-04 1.4272077385e+00 -2.4719963160e+00 1.4272077385e+00 2.4719963160e+00 
123100 4.4289979457e+00 1.1159011263e-04 1.4272038189e+00 -2.4719895271e+00 1.4272038189e+00 2.4719895271e+00 
123200 4.4289979222e+00 1.1129931667e-04 1.4271999095e+00 -2.4719827558e+00 1.4271999095e+00 2.4719827558e+00 
123300 4.4289978987e+00 1.1100936865e-04 1.4271960103e+00 -2.4719760022e+00 1.4271960103e+00 2.4719760022e+00 
123400 4.4289978754e+00 1.1072026566e-04 1.4271921212e+00 -2.4719692661e+00 1.4271921212e+00 2.4719692661e+00 
123500 4.4289978522e+00 1.1043200480e-04 1.4271882423e+00 -2.4719625476e+00 1.4271882423e+00 2.4719625476e+00 
123600 4.4289978291e+00 1.1014458319e-04 1.4271843734e+00 -2.4719558465e+00 1.4271843734e+00 2.4719558465e+00 
123700 4.4289978061e+00 1.0985799794e-04 1.4271805146e+00 -2.4719491629e+00 1.4271805146e+00 2.4719491629e+00 
123800 4.4289977832e+00 1.0957224620e-04 1.4271766658e+00 -2.4719424966e+00 1.4271766658e+00 2.4719424966e+00 
123900 4.4289977604e+00 1.0928732512e-04 1.4271728270e+00 -2.4719358476e+00 1.4271728270e+00 2.4719358476e+00 
124000 4.4289977378e+00 1.0900323186e-04 1.4271689982e+00 -2.4719292159e+00 1.4271689982e+00 2.4719292159e+00 
124100 4.4289977153e+00 1.0871996359e-04 1.4271651794e+00 -2.4719226015e+00 1.4271651794e+00 2.4719226015e+00 
124200 4.4289976928e+00 1.0843751750e-04 1.4271613704e+00 -2.4719160042e+00 1.4271613704e+00 2.4719160042e+00 
124300 4.4289976705e+00 1.0815589078e-04 1.4271575714e+00 -2.4719094240e+00 1.4271575714e+00 2.4719094240e+00 
124400 4.4289976483e+00 1.0787508064e-04 1.4271537822e+00 -2.4719028609e+00 1.4271537822e+00 2.4719028609e+00 
124500 4.4289976263e+00 1.0759508430e-04 1.4271500028e+00 -2.4718963149e+00 1.4271500028e+00 2.4718963149e+00 
124600 4.4289976043e+00 1.0731589899e-04 1.4271462332e+00 -2.4718897858e+00 1.4271462332e+00 2.4718897858e+00 
124700 4.4289975824e+00 1.0703752195e-04 1.4271424734e+00 -2.4718832736e+00 1.4271424734e+00 2.4718832736e+00 
124800 4.4289975606e+00 1.0675995044e-04 1.4271387234e+00 -2.4718767783e+00 1.4271387234e+00 2.4718767783e+00 
124900 4.4289975390e+00 1.0648318173e-04 1.4271349830e+00 -2.4718702998e+00 1.4271349830e+00 2.4718702998e+00 
125000 4.4289975174e+00 1.0620721308e-04 1.4271312523e+00 -2.4718638381e+00 1.4271312523e+00 2.4718638381e+00 
125100 4.4289974960e+00 1.0593204178e-04 1.4271275313e+00 -2.4718573932e+00 1.4271275313e+00 2.4718573932e+00 
125200 4.4289974747e+00 1.0565766514e-04 1.4271238200e+00 -2.4718509649e+00 1.4271238200e+00 2.4718509649e+00 
125300 4.4289974534e+00 1.0538408047e-04 1.4271201182e+00 -2.4718445532e+00 1.4271201182e+00 2.4718445532e+00 
125400 4.4289974323e+00 1.0511128508e-04 1.4271164260e+00 -2.4718381582e+00 1.4271164260e+00 2.4718381582e+00 
125500 4.4289974113e+00 1.0483927630e-04 1.4271127434e+00 -2.4718317796e+00 1.4271127434e+00 2.4718317796e+00 
125600 4.4289973904e+00 1.0456805148e-04 1.4271090702e+00 -2.4718254176e+00 1.4271090702e+00 2.4718254176e+00 
125700 4.4289973696e+00 1.0429760797e-04 1.4271054066e+00 -2.4718190720e+00 1.4271054066e+00 2.4718190720e+00 
125800 4.4289973489e+00 1.0402794313e-04 1.4271017524e+00 -2.4718127428e+00 1.4271017524e+00 2.4718127428e+00 
125900 4.4289973283e+00 1.0375905434e-04 1.4270981077e+00 -2.4718064300e+00 1.4270981077e+00 2.4718064300e+00 
126000 4.4289973078e+00 1.0349093899e-04 1.4270944724e+00 -2.4718001334e+00 1.4270944724e+00 2.4718001334e+00 
126100 4.4289972874e+00 1.0322359447e-04 1.4270908465e+00 -2.4717938531e+00 1.4270908465e+00 2.4717938531e+00 
126200 4.4289972671e+00 1.0295701819e-04 1.4270872299e+00 -2.4717875890e+00 1.4270872299e+00 2.4717875890e+00 
126300 4.4289972469e+00 1.0269120756e-04 1.4270836227e+00 -2.4717813411e+00 1.4270836227e+00 2.4717813411e+00 
126400 4.4289972268e+00 1.0242616001e-04 1.4270800247e+00 -2.4717751093e+00 1.4270800247e+00 2.4717751093e+00 
126500 4.4289972068e+00 1.0216187298e-04 1.4270764361e+00 -2.4717688935e+00 1.4270764361e+00 2.4717688935e+00 
126600 4.4289971869e+00 1.0189834392e-04 1.4270728567e+00 -2.4717626938e+00 1.4270728567e+00 2.4717626938e+00 
126700 4.4289971671e+00 1.0163557028e-04 1.4270692865e+00 -2.4717565101e+00 1.4270692865e+00 2.4717565101e+00 
126800 4.4289971474e+00 1.0137354955e-04 1.4270657255e+00 -2.4717503423e+00 1.4270657255e+00 2.4717503423e+00 
126900 4.4289971278e+00 1.0111227918e-04 1.4270621737e+00 -2.4717441903e+00 1.4270621737e+00 2.4717441903e+00 
127000 4.4289971083e+00 1.0085175669e-04 1.4270586310e+00 -2.4717380543e+00 1.4270586310e+00 2.4717380543e+00 
127100 4.4289970889e+00 1.0059197955e-04 1.4270550974e+00 -2.4717319340e+00 1.4270550974e+00 2.4717319340e+00 
127200 4.4289970695e+00 1.0033294529e-04 1.4270515730e+00 -2.4717258294e+00 1.4270515730e+00 2.4717258294e+00 
127300 4.4289970503e+00 1.0007465142e-04 1.4270480576e+00 -2.4717197406e+00 1.4270480576e+00 2.4717197406e+00 
127400 4.4289970312e+00 9.9817095479e-05 1.4270445512e+00 -2.4717136674e+00 1.4270445512e+00 2.4717136674e+00 
127500 4.4289970122e+00 9.9560274997e-05 1.4270410539e+00 -2.4717076098e+00 1.4270410539e+00 2.4717076098e+00 
127600 4.4289969932e+00 9.9304187528e-05 1.4270375656e+00 -2.4717015679e+00 1.4270375656e+00 2.4717015679e+00 
127700 4.4289969744e+00 9.9048830629e-05 1.4270340862e+00 -2.4716955414e+00 1.4270340862e+00 2.4716955414e+00 
127800 4.4289969556e+00 9.8794201870e-05 1.4270306157e+00 -2.4716895304e+00 1.4270306157e+00 2.4716895304e+00 
127900 4.4289969370e+00 9.8540298830e-05 1.4270271542e+00 -2.4716835349e+00 1.4270271542e+00 2.4716835349e+00 
128000 4.4289969184e+00 9.8287119098e-05 1.4270237016e+00 -2.4716775547e+00 1.4270237016e+00 2.4716775547e+00 
128100 4.4289968999e+00 9.8034660272e-05 1.4270202578e+00 -2.4716715899e+00 1.4270202578e+00 2.4716715899e+00 
128200 4.4289968815e+00 9.7782919959e-05 1.4270168228e+00 -2.4716656404e+00 1.4270168228e+00 2.4716656404e+00 
128300 4.4289968632e+00 9.7531895776e-05 1.4270133967e+00 -2.4716597062e+00 1.4270133967e+00 2.4716597062e+00 
128400 4.4289968450e+00 9.7281585351e-05 1.4270099794e+00 -2.4716537872e+00 1.4270099794e+00 2.4716537872e+00 
128500 4.4289968269e+00 9.7031986320e-05 1.4270065708e+00 -2.4716478834e+00 1.4270065708e+00 2.4716478834e+00 
128600 4.4289968089e+00 9.6783096329e-05 1.4270031710e+00 -2.4716419947e+00 1.4270031710e+00 2.4716419947e+00 
128700 4.4289967910e+00 9.6534913032e-05 1.4269997798e+00 -2.4716361210e+00 1.4269997798e+00 2.4716361210e+00 
128800 4.4289967731e+00 9.6287434094e-05 1.4269963974e+00 -2.4716302625e+00 1.4269963974e+00 2.4716302625e+00 
128900 4.4289967554e+00 9.6040657188e-05 1.4269930236e+00 -2.4716244189e+00 1.4269930236e+00 2.4716244189e+00 
129000 4.4289967377e+00 9.5794579998e-05 1.4269896585e+00 -2.4716185903e+00 1.4269896585e+00 2.4716185903e+00 
129100 4.4289967201e+00 9.5549200216e-05 1.4269863019e+00 -2.4716127767e+00 1.4269863019e+00 2.4716127767e+00 
129200 4.4289967026e+00 9.5304515543e-05 1.4269829540e+00 -2.4716069779e+00 1.4269829540e+00 2.4716069779e+00 
129300 4.4289966852e+00 9.5060523690e-05 1.4269796146e+00 -2.4716011939e+00 1.4269796146e+00 2.4716011939e+00 
129400 4.4289966679e+00 9.4817222375e-05 1.4269762838e+00 -2.4715954247e+00 1.4269762838e+00 2.4715954247e+00 
129500 4.4289966506e+00 9.4574609328e-05 1.4269729615e+00 -2.4715896703e+00 1.4269729615e+00 2.4715896703e+00 
129600 4.4289966335e+00 9.4332682286e-05 1.4269696477e+00 -2.4715839306e+00 1.4269696477e+00 2.4715839306e+00 
129700 4.4289966164e+00 9.4091438995e-05 1.4269663423e+00 -2.4715782056e+00 1.4269663423e+00 2.4715782056e+00 
129800 4.4289965994e+00 9.3850877211e-05 1.4269630454e+00 -2.4715724952e+00 1.4269630454e+00 2.4715724952e+00 
129900 4.4289965825e+00 9.3610994697e-05 1.4269597569e+00 -2.4715667994e+00 1.4269597569e+00 2.4715667994e+00 
130000 4.4289965657e+00 9.3371789227e-05 1.4269564769e+00 -2.4715611181e+00 1.4269564769e+00 2.4715611181e+00 
130100 4.4289965489e+00 9.3133258582e-05 1.4269532051e+00 -2.4715554513e+00 1.4269532051e+00 2.4715554513e+00 
130200 4.4289965323e+00 9.2895400553e-05 1.4269499418e+00 -2.4715497990e+00 1.4269499418e+00 2.4715497990e+00 
130300 4.4289965157e+00 9.2658212940e-05 1.4269466868e+00 -2.4715441611e+00 1.4269466868e+00 2.4715441611e+00 
130400 4.4289964992e+00 9.2421693549e-05 1.4269434400e+00 -2.4715385377e+00 1.4269434400e+00 2.4715385377e+00 
130500 4.4289964828e+00 9.2185840197e-05 1.4269402016e+00 -2.4715329285e+00 1.4269402016e+00 2.4715329285e+00 
130600 4.4289964664e+00 9.1950650710e-05 1.4269369714e+00 -2.4715273336e+00 1.4269369714e+00 2.4715273336e+00 
130700 4.4289964502e+00 9.1716122921e-05 1.4269337494e+00 -2.4715217530e+00 1.4269337494e+00 2.4715217530e+00 
130800 4.4289964340e+00 9.1482254671e-05 1.4269305357e+00 -2.4715161867e+00 1.4269305357e+00 2.4715161867e+00 
130900 4.4289964179e+00 9.1249043812e-05 1.4269273301e+00 -2.4715106345e+00 1.4269273301e+00 2.4715106345e+00 
131000 4.4289964019e+00 9.1016488201e-05 1.4269241327e+00 -2.4715050964e+00 1.4269241327e+00 2.4715050964e+00 
131100 4.4289963860e+00 9.0784585707e-05 1.4269209435e+00 -2.4714995725e+00 1.4269209435e+00 2.4714995725e+00 
131200 4.4289963701e+00 9.0553334204e-05 1.4269177623e+00 -2.4714940626e+00 1.4269177623e+00 2.4714940626e+00 
131300 4.4289963543e+00 9.0322731577e-05 1.4269145893e+00 -2.4714885667e+00 1.4269145893e+00 2.4714885667e+00 
131400 4.4289963386e+00 9.0092775718e-05 1.4269114243e+00 -2.4714830848e+00 1.4269114243e+00 2.4714830848e+00 
131500 4.4289963230e+00 8.9863464526e-05 1.4269082674e+00 -2.4714776169e+00 1.4269082674e+00 2.4714776169e+00 
131600 4.4289963075e+00 8.9634795911e-05 1.4269051185e+00 -2.4714721629e+00 1.4269051185e+00 2.4714721629e+00 
131700 4.4289962920e+00 8.9406767789e-05 1.4269019777e+00 -2.4714667227e+00 1.4269019777e+00 2.4714667227e+00 
131800 4.4289962766e+00 8.9179378085e-05 1.4268988448e+00 -2.4714612964e+00 1.4268988448e+00 2.4714612964e+00 
131900 4.4289962613e+00 8.8952624730e-05 1.4268957198e+00 -2.4714558838e+00 1.4268957198e+00 2.4714558838e+00 
132000 4.4289962460e+00 8.8726505667e-05 1.4268926028e+00 -2.4714504850e+00 1.4268926028e+00 2.4714504850e+00 
132100 4.4289962308e+00 8.8501018844e-05 1.4268894937e+00 -2.4714450999e+00 1.4268894937e+00 2.4714450999e+00 
132200 4.4289962158e+00 8.8276162217e-05 1.4268863926e+00 -2.4714397285e+00 1.4268863926e+00 2.4714397285e+00 
132300 4.4289962007e+00 8.8051933752e-05 1.4268832992e+00 -2.4714343708e+00 1.4268832992e+00 2.4714343708e+00 
132400 4.4289961858e+00 8.7828331420e-05 1.4268802138e+00 -2.4714290266e+00 1.4268802138e+00 2.4714290266e+00 
132500 4.4289961709e+00 8.7605353202e-05 1.4268771361e+00 -2.4714236960e+00 1.4268771361e+00 2.4714236960e+00 
132600 4.4289961561e+00 8.7382997086e-05 1.4268740663e+00 -2.4714183789e+00 1.4268740663e+00 2.4714183789e+00 
132700 4.4289961414e+00 8.7161261068e-05 1.4268710043e+00 -2.4714130753e+00 1.4268710043e+00 2.4714130753e+00 
132800 4.4289961267e+00 8.6940143152e-05 1.4268679500e+00 -2.4714077851e+00 1.4268679500e+00 2.4714077851e+00 
132900 4.4289961121e+00 8.6719641348e-05 1.4268649035e+00 -2.4714025083e+00 1.4268649035e+00 2.4714025083e+00 
133000 4.4289960976e+00 8.6499753676e-05 1.4268618646e+00 -2.4713972449e+00 1.4268618646e+00 2.4713972449e+00 
133100 4.4289960831e+00 8.6280478162e-05 1.4268588335e+00 -2.4713919949e+00 1.4268588335e+00 2.4713919949e+00 
133200 4.4289960688e+00 8.6061812841e-05 1.4268558101e+00 -2.4713867581e+00 1.4268558101e+00 2.4713867581e+00 
133300 4.4289960545e+00 8.5843755755e-05 1.4268527943e+00 -2.4713815347e+00 1.4268527943e+00 2.4713815347e+00 
133400 4.4289960402e+00 8.5626304951e-05 1.4268497862e+00 -2.4713763244e+00 1.4268497862e+00 2.4713763244e+00 
133500 4.4289960261e+00 8.5409458488e-05 1.4268467856e+00 -2.4713711273e+00 1.4268467856e+00 2.4713711273e+00 
133600 4.4289960120e+00 8.5193214429e-05 1.4268437927e+00 -2.4713659434e+00 1.4268437927e+00 2.4713659434e+00 
133700 4.4289959979e+00 8.4977570845e-05 1.4268408073e+00 -2.4713607726e+00 1.4268408073e+00 2.4713607726e+00 
133800 4.4289959840e+00 8.4762525817e-05 1.4268378295e+00 -2.4713556148e+00 1.4268378295e+00 2.4713556148e+00 
133900 4.4289959701e+00 8.4548077430e-05 1.4268348592e+00 -2.4713504701e+00 1.4268348592e+00 2.4713504701e+00 
134000 4.4289959563e+00 8.4334223777e-05 1.4268318964e+00 -2.4713453384e+00 1.4268318964e+00 2.4713453384e+00 
134100 4.4289959425e+00 8.4120962960e-05 1.4268289411e+00 -2.4713402197e+00 1.4268289411e+00 2.4713402197e+00 
134200 4.4289959288e+00 8.3908293087e-05 1.4268259933e+00 -2.4713351139e+00 1.4268259933e+00 2.4713351139e+00 
134300 4.4289959152e+00 8.3696212273e-05 1.4268230529e+00 -2.4713300210e+00 1.4268230529e+00 2.4713300210e+00 
134400 4.4289959016e+00 8.3484718640e-05 1.4268201199e+00 -2.4713249410e+00 1.4268201199e+00 2.4713249410e+00 
134500 4.4289958881e+00 8.3273810318e-05 1.4268171944e+00 -2.4713198738e+00 1.4268171944e+00 2.4713198738e+00 
134600 4.4289958747e+00 8.3063485445e-05 1.4268142762e+00 -2.4713148194e+00 1.4268142762e+00 2.4713148194e+00 
134700 4.4289958614e+00 8.2853742164e-05 1.4268113654e+00 -2.4713097777e+00 1.4268113654e+00 2.4713097777e+00 
134800 4.4289958481e+00 8.2644578625e-05 1.4268084620e+00 -2.4713047488e+00 1.4268084620e+00 2.4713047488e+00 
134900 4.4289958348e+00 8.2435992987e-05 1.4268055658e+00 -2.4712997326e+00 1.4268055658e+00 2.4712997326e+00 
135000 4.4289958217e+00 8.2227983415e-05 1.4268026770e+00 -2.4712947290e+00 1.4268026770e+00 2.4712947290e+00 
135100 4.4289958086e+00 8.2020548080e-05 1.4267997955e+00 -2.4712897380e+00 1.4267997955e+00 2.4712897380e+00 
135200 4.4289957955e+00 8.1813685161e-05 1.4267969212e+00 -2.4712847596e+00 1.4267969212e+00 2.4712847596e+00 
135300 4.4289957826e+00 8.1607392844e-05 1.4267940541e+00 -2.4712797937e+00 1.4267940541e+00 2.4712797937e+00 
135400 4.4289957697e+00 8.1401669322e-05 1.4267911943e+00 -2.4712748404e+00 1.4267911943e+00 2.4712748404e+00 
135500 4.4289957568e+00 8.1196512794e-05 1.4267883417e+00 -2.4712698995e+00 1.4267883417e+00 2.4712698995e+00 
135600 4.4289957440e+00 8.0991921465e-05 1.4267854963e+00 -2.4712649711e+00 1.4267854963e+00 2.4712649711e+00 
135700 4.4289957313e+00 8.0787893550e-05 1.4267826580e+00 -2.4712600550e+00 1.4267826580e+00 2.4712600550e+00 
135800 4.4289957186e+00 8.0584427267e-05 1.4267798269e+00 -2.4712551514e+00 1.4267798269e+00 2.4712551514e+00 
135900 4.4289957060e+00 8.0381520843e-05 1.4267770029e+00 -2.4712502601e+00 1.4267770029e+00 2.4712502601e+00 
136000 4.4289956935e+00 8.0179172511e-05 1.4267741860e+00 -2.4712453811e+00 1.4267741860e+00 2.4712453811e+00 
136100 4.4289956810e+00 7.9977380511e-05 1.4267713762e+00 -2.4712405144e+00 1.4267713762e+00 2.4712405144e+00 
136200 4.4289956686e+00 7.9776143089e-05 1.4267685735e+00 -2.4712356599e+00 1.4267685735e+00 2.4712356599e+00 
136300 4.4289956563e+00 7.9575458497e-05 1.4267657778e+00 -2.4712308176e+00 1.4267657778e+00 2.4712308176e+00 
136400 4.4289956440e+00 7.9375324996e-05 1.4267629891e+00 -2.4712259875e+00 1.4267629891e+00 2.4712259875e+00 
136500 4.4289956317e+00 7.9175740852e-05 1.4267602075e+00 -2.4712211695e+00 1.4267602075e+00 2.4712211695e+00 
136600 4.4289956195e+00 7.8976704336e-05 1.4267574328e+00 -2.4712163637e+00 1.4267574328e+00 2.4712163637e+00 
136700 4.4289956074e+00 7.8778213727e-05 1.4267546651e+00 -2.4712115699e+00 1.4267546651e+00 2.4712115699e+00 
136800 4.4289955954e+00 7.8580267312e-05 1.4267519043e+00 -2.4712067881e+00 1.4267519043e+00 2.4712067881e+00 
136900 4.4289955834e+00 7.8382863382e-05 1.4267491505e+00 -2.4712020184e+00 1.4267491505e+00 2.4712020184e+00 
137000 4.4289955714e+00 7.8186000234e-05 1.4267464036e+00 -2.4711972606e+00 1.4267464036e+00 2.4711972606e+00 
137100 4.4289955595e+00 7.7989676174e-05 1.4267436636e+00 -2.4711925148e+00 1.4267436636e+00 2.4711925148e+00 
137200 4.4289955477e+00 7.7793889513e-05 1.4267409305e+00 -2.4711877808e+00 1.4267409305e+00 2.4711877808e+00 
137300 4.4289955359e+00 7.7598638567e-05 1.4267382042e+00 -2.4711830588e+00 1.4267382042e+00 2.4711830588e+00 
137400 4.4289955242e+00 7.7403921659e-05 1.4267354848e+00 -2.4711783486e+00 1.4267354848e+00 2.4711783486e+00 
137500 4.4289955126e+00 7.7209737121e-05 1.4267327721e+00 -2.4711736502e+00 1.4267327721e+00 2.4711736502e+00 
137600 4.4289955010e+00 7.7016083286e-05 1.4267300663e+00 -2.4711689635e+00 1.4267300663e+00 2.4711689635e+00 
137700 4.4289954894e+00 7.6822958498e-05 1.4267273673e+00 -2.4711642887e+00 1.4267273673e+00 2.4711642887e+00 
137800 4.4289954780e+00 7.6630361105e-05 1.4267246750e+00 -2.4711596255e+00 1.4267246750e+00 2.4711596255e+00 
137900 4.4289954665e+00 7.6438289461e-05 1.4267219895e+00 -2.4711549740e+00 1.4267219895e+00 2.4711549740e+00 
138000 4.4289954552e+00 7.6246741926e-05 1.4267193107e+00 -2.4711503342e+00 1.4267193107e+00 2.4711503342e+00 
138100 4.4289954438e+00 7.6055716867e-05 1.4267166386e+00 -2.4711457060e+00 1.4267166386e+00 2.4711457060e+00 
138200 4.4289954326e+00 7.5865212656e-05 1.4267139731e+00 -2.4711410894e+00 1.4267139731e+00 2.4711410894e+00 
138300 4.4289954214e+00 7.5675227672e-05 1.4267113144e+00 -2.4711364843e+00 1.4267113144e+00 2.4711364843e+00 
138400 4.4289954102e+00 7.5485760300e-05 1.4267086623e+00 -2.4711318907e+00 1.4267086623e+00 2.4711318907e+00 
138500 4.4289953991e+00 7.5296808930e-05 1.4267060169e+00 -2.4711273087e+00 1.4267060169e+00 2.4711273087e+00 
138600 4.4289953881e+00 7.5108371958e-05 1.4267033780e+00 -2.4711227381e+00 1.4267033780e+00 2.4711227381e+00 
138700 4.4289953771e+00 7.4920447788e-05 1.4267007458e+00 -2.4711181789e+00 1.4267007458e+00 2.4711181789e+00 
138800 4.4289953661e+00 7.4733034826e-05 1.4266981201e+00 -2.4711136312e+00 1.4266981201e+00 2.4711136312e+00 
138900 4.4289953552e+00 7.4546131488e-05 1.4266955011e+00 -2.4711090948e+00 1.4266955011e+00 2.4711090948e+00 
139000 4.4289953444e+00 7.4359736193e-05 1.4266928885e+00 -2.4711045697e+00 1.4266928885e+00 2.4711045697e+00 
139100 4.4289953336e+00 7.4173847368e-05 1.4266902825e+00 -2.4711000559e+00 1.4266902825e+00 2.4711000559e+00 
139200 4.4289953229e+00 7.3988463443e-05 1.4266876830e+00 -2.4710955535e+00 1.4266876830e+00 2.4710955535e+00 
139300 4.4289953122e+00 7.3803582857e-05 1.4266850900e+00 -2.4710910622e+00 1.4266850900e+00 2.4710910622e+00 
139400 4.4289953016e+00 7.3619204051e-05 1.4266825034e+00 -2.4710865822e+00 1.4266825034e+00 2.4710865822e+00 
139500 4.4289952910e+00 7.3435325475e-05 1.4266799234e+00 -2.4710821134e+00 1.4266799234e+00 2.4710821134e+00 
139600 4.4289952805e+00 7.3251945584e-05 1.4266773497e+00 -2.4710776557e+00 1.4266773497e+00 2.4710776557e+00 
139700 4.4289952700e+00 7.3069062837e-05 1.4266747825e+00 -2.4710732091e+00 1.4266747825e+00 2.4710732091e+00 
139800 4.4289952596e+00 7.2886675701e-05 1.4266722217e+00 -2.4710687737e+00 1.4266722217e+00 2.4710687737e+00 
139900 4.4289952492e+00 7.2704782646e-05 1.4266696672e+00 -2.4710643493e+00 1.4266696672e+00 2.4710643493e+00 
140000 4.4289952389e+00 7.2523382150e-05 1.4266671192e+00 -2.4710599359e+00 1.4266671192e+00 2.4710599359e+00 
140100 4.4289952286e+00 7.2342472695e-05 1.4266645775e+00 -2.4710555336e+00 1.4266645775e+00 2.4710555336e+00 
140200 4.4289952184e+00 7.2162052769e-05 1.4266620421e+00 -2.4710511422e+00 1.4266620421e+00 2.4710511422e+00 
140300 4.4289952082e+00 7.1982120866e-05 1.4266595131e+00 -2.4710467617e+00 1.4266595131e+00 2.4710467617e+00 
140400 4.4289951981e+00 7.1802675485e-05 1.4266569903e+00 -2.4710423922e+00 1.4266569903e+00 2.4710423922e+00 
140500 4.4289951880e+00 7.1623715131e-05 1.4266544738e+00 -2.4710380335e+00 1.4266544738e+00 2.4710380335e+00 
140600 4.4289951780e+00 7.1445238312e-05 1.4266519636e+00 -2.4710336858e+00 1.4266519636e+00 2.4710336858e+00 
140700 4.4289951680e+00 7.1267243546e-05 1.4266494597e+00 -2.4710293488e+00 1.4266494597e+00 2.4710293488e+00 
140800 4.4289951581e+00 7.1089729352e-05 1.4266469620e+00 -2.4710250226e+00 1.4266469620e+00 2.4710250226e+00 
140900 4.4289951482e+00 7.0912694256e-05 1.4266444705e+00 -2.4710207072e+00 1.4266444705e+00 2.4710207072e+00 
141000 4.4289951384e+00 7.0736136791e-05 1.4266419852e+00 -2.4710164026e+00 1.4266419852e+00 2.4710164026e+00 
141100 4.4289951286e+00 7.0560055493e-05 1.4266395061e+00 -2.4710121086e+00 1.4266395061e+00 2.4710121086e+00 
141200 4.4289951191e+00 7.0856321525e-05 1.4266395061e+00 -2.4710121086e+00 1.4266395061e+00 2.4710121086e+00 
141300 4.4289951094e+00 7.0680419058e-05 1.4266370228e+00 -2.4710078074e+00 1.4266370228e+00 2.4710078074e+00 
141400 4.4289951000e+00 7.0977346353e-05 1.4266370228e+00 -2.4710078074e+00 1.4266370228e+00 2.4710078074e+00 
141500 4.4289950904e+00 7.0801135616e-05 1.4266345352e+00 -2.4710034988e+00 1.4266345352e+00 2.4710034988e+00 
141600 4.4289950808e+00 7.0624940414e-05 1.4266320538e+00 -2.4709992008e+00 1.4266320538e+00 2.4709992008e+00 
141700 4.4289950716e+00 7.0920963949e-05 1.4266320538e+00 -2.4709992008e+00 1.4266320538e+00 2.4709992008e+00 
141800 4.4289950621e+00 7.0744187386e-05 1.4266295682e+00 -2.4709948956e+00 1.4266295682e+00 2.4709948956e+00 
141900 4.4289950527e+00 7.0567313752e-05 1.4266270887e+00 -2.4709906012e+00 1.4266270887e+00 2.4709906012e+00 
142000 4.4289950435e+00 7.0862081528e-05 1.4266270887e+00 -2.4709906012e+00 1.4266270887e+00 2.4709906012e+00 
142100 4.4289950342e+00 7.0684442263e-05 1.4266246052e+00 -2.4709862995e+00 1.4266246052e+00 2.4709862995e+00 
142200 4.4289950252e+00 7.0979021159e-05 1.4266246052e+00 -2.4709862995e+00 1.4266246052e+00 2.4709862995e+00 
142300 4.4289950159e+00 7.0800345660e-05 1.4266221175e+00 -2.4709819908e+00 1.4266221175e+00 2.4709819908e+00 
142400 4.4289950067e+00 7.0621386358e-05 1.4266196361e+00 -2.4709776929e+00 1.4266196361e+00 2.4709776929e+00 
142500 4.4289949978e+00 7.0914112046e-05 1.4266196361e+00 -2.4709776929e+00 1.4266196361e+00 2.4709776929e+00 
142600 4.4289949887e+00 7.0734081347e-05 1.4266171508e+00 -2.4709733881e+00 1.4266171508e+00 2.4709733881e+00 
142700 4.4289949797e+00 7.0553752746e-05 1.4266146717e+00 -2.4709690942e+00 1.4266146717e+00 2.4709690942e+00 
142800 4.4289949709e+00 7.0844554122e-05 1.4266146717e+00 -2.4709690942e+00 1.4266146717e+00 2.4709690942e+00 
142900 4.4289949619e+00 7.0663133967e-05 1.4266121887e+00 -2.4709647935e+00 1.4266121887e+00 2.4709647935e+00 
143000 4.4289949532e+00 7.0953412355e-05 1.4266121887e+00 -2.4709647935e+00 1.4266121887e+00 2.4709647935e+00 
143100 4.4289949443e+00 7.0770710644e-05 1.4266097019e+00 -2.4709604863e+00 1.4266097019e+00 2.4709604863e+00 
143200 4.4289949355e+00 7.0587626038e-05 1.4266072216e+00 -2.4709561902e+00 1.4266072216e+00 2.4709561902e+00 
143300 4.4289949269e+00 7.0875673253e-05 1.4266072216e+00 -2.4709561902e+00 1.4266072216e+00 2.4709561902e+00 
143400 4.4289949181e+00 7.0691361692e-05 1.4266047375e+00 -2.4709518877e+00 1.4266047375e+00 2.4709518877e+00 
143500 4.4289949096e+00 7.0978732788e-05 1.4266047375e+00 -2.4709518877e+00 1.4266047375e+00 2.4709518877e+00 
143600 4.4289949010e+00 7.0793041045e-05 1.4266022498e+00 -2.4709475789e+00 1.4266022498e+00 2.4709475789e+00 
143700 4.4289948923e+00 7.0606927885e-05 1.4265997686e+00 -2.4709432813e+00 1.4265997686e+00 2.4709432813e+00 
143800 4.4289948840e+00 7.0891894138e-05 1.4265997686e+00 -2.4709432813e+00 1.4265997686e+00 2.4709432813e+00 
143900 4.4289948754e+00 7.0704496651e-05 1.4265972840e+00 -2.4709389778e+00 1.4265972840e+00 2.4709389778e+00 
144000 4.4289948671e+00 7.0988699625e-05 1.4265972840e+00 -2.4709389778e+00 1.4265972840e+00 2.4709389778e+00 
144100 4.4289948586e+00 7.0799885169e-05 1.4265947959e+00 -2.4709346684e+00 1.4265947959e+00 2.4709346684e+00 
144200 4.4289948502e+00 7.0610636717e-05 1.4265923145e+00 -2.4709303704e+00 1.4265923145e+00 2.4709303704e+00 
144300 4.4289948420e+00 7.0892336153e-05 1.4265923145e+00 -2.4709303704e+00 1.4265923145e+00 2.4709303704e+00 
144400 4.4289948337e+00 7.0701789949e-05 1.4265898298e+00 -2.4709260669e+00 1.4265898298e+00 2.4709260669e+00 
144500 4.4289948256e+00 7.0982676646e-05 1.4265898298e+00 -2.4709260669e+00 1.4265898298e+00 2.4709260669e+00 
144600 4.4289948173e+00 7.0790711927e-05 1.4265873420e+00 -2.4709217578e+00 1.4265873420e+00 2.4709217578e+00 
144700 4.4289948091e+00 7.0598315531e-05 1.4265848609e+00 -2.4709174604e+00 1.4265848609e+00 2.4709174604e+00 
144800 4.4289948011e+00 7.0876643755e-05 1.4265848609e+00 -2.4709174604e+00 1.4265848609e+00 2.4709174604e+00 
144900 4.4289947930e+00 7.0682961678e-05 1.4265823767e+00 -2.4709131577e+00 1.4265823767e+00 2.4709131577e+00 
145000 4.4289947851e+00 7.0960450090e-05 1.4265823767e+00 -2.4709131577e+00 1.4265823767e+00 2.4709131577e+00 
145100 4.4289947770e+00 7.0765368670e-05 1.4265798897e+00 -2.4709088500e+00 1.4265798897e+00 2.4709088500e+00 
145200 4.4289947689e+00 7.0569866711e-05 1.4265774094e+00 -2.4709045541e+00 1.4265774094e+00 2.4709045541e+00 
145300 4.4289947612e+00 7.0844768368e-05 1.4265774094e+00 -2.4709045541e+00 1.4265774094e+00 2.4709045541e+00 
145400 4.4289947532e+00 7.0648008063e-05 1.4265749264e+00 -2.4709002533e+00 1.4265749264e+00 2.4709002533e+00 
145500 4.4289947455e+00 7.0922056716e-05 1.4265749264e+00 -2.4709002533e+00 1.4265749264e+00 2.4709002533e+00 
145600 4.4289947376e+00 7.0723928799e-05 1.4265724406e+00 -2.4708959479e+00 1.4265724406e+00 2.4708959479e+00 
145700 4.4289947297e+00 7.0525396854e-05 1.4265699618e+00 -2.4708916545e+00 1.4265699618e+00 2.4708916545e+00 
145800 4.4289947222e+00 7.0796847473e-05 1.4265699618e+00 -2.4708916545e+00 1.4265699618e+00 2.4708916545e+00 
145900 4.4289947144e+00 7.0597093910e-05 1.4265674805e+00 -2.4708873566e+00 1.4265674805e+00 2.4708873566e+00 
146000 4.4289947069e+00 7.0867687332e-05 1.4265674805e+00 -2.4708873566e+00 1.4265674805e+00 2.4708873566e+00 
146100 4.4289946992e+00 7.0666605702e-05 1.4265649966e+00 -2.4708830544e+00 1.4265649966e+00 2.4708830544e+00 
146200 4.4289946917e+00 7.0936236067e-05 1.4265649966e+00 -2.4708830544e+00 1.4265649966e+00 2.4708830544e+00 
146300 4.4289946841e+00 7.0733748103e-05 1.4265625104e+00 -2.4708787481e+00 1.4265625104e+00 2.4708787481e+00 
146400 4.4289946765e+00 7.0530845423e-05 1.4265600312e+00 -2.4708744541e+00 1.4265600312e+00 2.4708744541e+00 
146500 4.4289946692e+00 7.0797760605e-05 1.4265600312e+00 -2.4708744541e+00 1.4265600312e+00 2.4708744541e+00 
146600 4.4289946616e+00 7.0593631750e-05 1.4265575498e+00 -2.4708701561e+00 1.4265575498e+00 2.4708701561e+00 
146700 4.4289946544e+00 7.0859635441e-05 1.4265575498e+00 -2.4708701561e+00 1.4265575498e+00 2.4708701561e+00 
146800 4.4289946469e+00 7.0654190731e-05 1.4265550662e+00 -2.4708658544e+00 1.4265550662e+00 2.4708658544e+00 
146900 4.4289946397e+00 7.0919191662e-05 1.4265550662e+00 -2.4708658544e+00 1.4265550662e+00 2.4708658544e+00 
147000 4.4289946323e+00 7.0712365998e-05 1.4265525805e+00 -2.4708615491e+00 1.4265525805e+00 2.4708615491e+00 
147100 4.4289946250e+00 7.0505141464e-05 1.4265501021e+00 -2.4708572563e+00 1.4265501021e+00 2.4708572563e+00 
147200 4.4289946179e+00 7.0767389385e-05 1.4265501021e+00 -2.4708572563e+00 1.4265501021e+00 2.4708572563e+00 
147300 4.4289946106e+00 7.0558978554e-05 1.4265476217e+00 -2.4708529602e+00 1.4265476217e+00 2.4708529602e+00 
147400 4.4289946036e+00 7.0820299896e-05 1.4265476217e+00 -2.4708529602e+00 1.4265476217e+00 2.4708529602e+00 
147500 4.4289945964e+00 7.0610620387e-05 1.4265451395e+00 -2.4708486609e+00 1.4265451395e+00 2.4708486609e+00 
147600 4.4289945894e+00 7.0870930596e-05 1.4265451395e+00 -2.4708486609e+00 1.4265451395e+00 2.4708486609e+00 
147700 4.4289945823e+00 7.0659923077e-05 1.4265426555e+00 -2.4708443585e+00 1.4265426555e+00 2.4708443585e+00 
147800 4.4289945754e+00 7.0919156919e-05 1.4265426555e+00 -2.4708443585e+00 1.4265426555e+00 2.4708443585e+00 
147900 4.4289945683e+00 7.0706779894e-05 1.4265401698e+00 -2.4708400531e+00 1.4265401698e+00 2.4708400531e+00 
148000 4.4289945615e+00 7.0964887129e-05 1.4265401698e+00 -2.4708400531e+00 1.4265401698e+00 2.4708400531e+00 
148100 4.4289945545e+00 7.0751112932e-05 1.4265376825e+00 -2.4708357450e+00 1.4265376825e+00 2.4708357450e+00 
148200 4.4289945475e+00 7.0536942076e-05 1.4265352027e+00 -2.4708314498e+00 1.4265352027e+00 2.4708314498e+00 
148300 4.4289945408e+00 7.0792168491e-05 1.4265352027e+00 -2.4708314498e+00 1.4265352027e+00 2.4708314498e+00 
148400 4.4289945339e+00 7.0576836274e-05 1.4265327214e+00 -2.4708271521e+00 1.4265327214e+00 2.4708271521e+00 
148500 4.4289945272e+00 7.0831080052e-05 1.4265327214e+00 -2.4708271521e+00 1.4265327214e+00 2.4708271521e+00 
148600 4.4289945204e+00 7.0614524137e-05 1.4265302388e+00 -2.4708228521e+00 1.4265302388e+00 2.4708228521e+00 
148700 4.4289945138e+00 7.0867718389e-05 1.4265302388e+00 -2.4708228521e+00 1.4265302388e+00 2.4708228521e+00 
148800 4.4289945070e+00 7.0649895099e-05 1.4265277548e+00 -2.4708185498e+00 1.4265277548e+00 2.4708185498e+00 
148900 4.4289945005e+00 7.0901988599e-05 1.4265277548e+00 -2.4708185498e+00 1.4265277548e+00 2.4708185498e+00 
149000 4.4289944938e+00 7.0682868674e-05 1.4265252697e+00 -2.4708142454e+00 1.4265252697e+00 2.4708142454e+00 
149100 4.4289944873e+00 7.0933822351e-05 1.4265252697e+00 -2.4708142454e+00 1.4265252697e+00 2.4708142454e+00 
149200 4.4289944807e+00 7.0713387693e-05 1.4265227835e+00 -2.4708099391e+00 1.4265227835e+00 2.4708099391e+00 
149300 4.4289944740e+00 7.0492599178e-05 1.4265203050e+00 -2.4708056462e+00 1.4265203050e+00 2.4708056462e+00 
149400 4.4289944677e+00 7.0740669609e-05 1.4265203050e+00 -2.4708056462e+00 1.4265203050e+00 2.4708056462e+00 
149500 4.4289944611e+00 7.0518812453e-05 1.4265178255e+00 -2.4708013516e+00 1.4265178255e+00 2.4708013516e+00 
149600 4.4289944548e+00 7.0765905982e-05 1.4265178255e+00 -2.4708013516e+00 1.4265178255e+00 2.4708013516e+00 
149700 4.4289944483e+00 7.0542923070e-05 1.4265153451e+00 -2.4707970555e+00 1.4265153451e+00 2.4707970555e+00 
149800 4.4289944420e+00 7.0788978121e-05 1.4265153451e+00 -2.4707970555e+00 1.4265153451e+00 2.4707970555e+00 
149900 4.4289944356e+00 7.0564829830e-05 1.4265128639e+00 -2.4707927580e+00 1.4265128639e+00 2.4707927580e+00 
150000 4.4289944294e+00 7.0809799521e-05 1.4265128639e+00 -2.4707927580e+00 1.4265128639e+00 2.4707927580e+00 
150100 4.4289944230e+00 7.0584459723e-05 1.4265103820e+00 -2.4707884591e+00 1.4265103820e+00 2.4707884591e+00 
150200 4.4289944169e+00 7.0828308549e-05 1.4265103820e+00 -2.4707884591e+00 1.4265103820e+00 2.4707884591e+00 
150300 4.4289944106e+00 7.0601761543e-05 1.4265078994e+00 -2.4707841592e+00 1.4265078994e+00 2.4707841592e+00 
150400 4.4289944045e+00 7.0844462824e-05 1.4265078994e+00 -2.4707841592e+00 1.4265078994e+00 2.4707841592e+00 
150500 4.4289943982e+00 7.0616700963e-05 1.4265054163e+00 -2.4707798583e+00 1.4265054163e+00 2.4707798583e+00 
150600 4.4289943923e+00 7.0858234882e-05 1.4265054163e+00 -2.4707798583e+00 1.4265054163e+00 2.4707798583e+00 
150700 4.4289943860e+00 7.0629256754e-05 1.4265029327e+00 -2.4707755565e+00 1.4265029327e+00 2.4707755565e+00 
150800 4.4289943801e+00 7.0869608842e-05 1.4265029327e+00 -2.4707755565e+00 1.4265029327e+00 2.4707755565e+00 
150900 4.4289943739e+00 7.0639417865e-05 1.4265004486e+00 -2.4707712540e+00 1.4265004486e+00 2.4707712540e+00 
151000 4.4289943681e+00 7.0878577833e-05 1.4265004486e+00 -2.4707712540e+00 1.4265004486e+00 2.4707712540e+00 
151100 4.4289943620e+00 7.0647181167e-05 1.4264979643e+00 -2.4707669510e+00 1.4264979643e+00 2.4707669510e+00 
151200 4.4289943561e+00 7.0885142007e-05 1.4264979643e+00 -2.4707669510e+00 1.4264979643e+00 2.4707669510e+00 
151300 4.4289943501e+00 7.0652549715e-05 1.4264954797e+00 -2.4707626476e+00 1.4264954797e+00 2.4707626476e+00 
151400 4.4289943443e+00 7.0889306999e-05 1.4264954797e+00 -2.4707626476e+00 1.4264954797e+00 2.4707626476e+00 
151500 4.4289943383e+00 7.0655531395e-05 1.4264929949e+00 -2.4707583439e+00 1.4264929949e+00 2.4707583439e+00 
151600 4.4289943326e+00 7.0891082733e-05 1.4264929949e+00 -2.4707583439e+00 1.4264929949e+00 2.4707583439e+00 
151700 4.4289943267e+00 7.0656137879e-05 1.4264905101e+00 -2.4707540401e+00 1.4264905101e+00 2.4707540401e+00 
151800 4.4289943210e+00 7.0890482499e-05 1.4264905101e+00 -2.4707540401e+00 1.4264905101e+00 2.4707540401e+00 
151900 4.4289943152e+00 7.0654383807e-05 1.4264880254e+00 -2.4707497363e+00 1.4264880254e+00 2.4707497363e+00 
152000 4.4289943095e+00 7.0887522228e-05 1.4264880254e+00 -2.4707497363e+00 1.4264880254e+00 2.4707497363e+00 
152100 4.4289943037e+00 7.0650286157e-05 1.4264855407e+00 -2.4707454327e+00 1.4264855407e+00 2.4707454327e+00 
152200 4.4289942982e+00 7.0882219931e-05 1.4264855407e+00 -2.4707454327e+00 1.4264855407e+00 2.4707454327e+00 
152300 4.4289942924e+00 7.0643863742e-05 1.4264830562e+00 -2.4707411294e+00 1.4264830562e+00 2.4707411294e+00 
152400 4.4289942869e+00 7.0874595254e-05 1.4264830562e+00 -2.4707411294e+00 1.4264830562e+00 2.4707411294e+00 
152500 4.4289942812e+00 7.0635136823e-05 1.4264805719e+00 -2.4707368266e+00 1.4264805719e+00 2.4707368266e+00 
152600 4.4289942758e+00 7.0864669130e-05 1.4264805719e+00 -2.4707368266e+00 1.4264805719e+00 2.4707368266e+00 
152700 4.4289942701e+00 7.0624126800e-05 1.4264780880e+00 -2.4707325244e+00 1.4264780880e+00 2.4707325244e+00 
152800 4.4289942647e+00 7.0852463509e-05 1.4264780880e+00 -2.4707325244e+00 1.4264780880e+00 2.4707325244e+00 
152900 4.4289942591e+00 7.0610855967e-05 1.4264756046e+00 -2.4707282228e+00 1.4264756046e+00 2.4707282228e+00 
153000 4.4289942537e+00 7.0838001133e-05 1.4264756046e+00 -2.4707282228e+00 1.4264756046e+00 2.4707282228e+00 
153100 4.4289942482e+00 7.0595347320e-05 1.4264731216e+00 -2.4707239222e+00 1.4264731216e+00 2.4707239222e+00 
153200 4.4289942429e+00 7.0821305365e-05 1.4264731216e+00 -2.4707239222e+00 1.4264731216e+00 2.4707239222e+00 
153300 4.4289942374e+00 7.0577624399e-05 1.4264706392e+00 -2.4707196226e+00 1.4264706392e+00 2.4707196226e+00 
153400 4.4289942322e+00 7.0802400050e-05 1.4264706392e+00 -2.4707196226e+00 1.4264706392e+00 2.4707196226e+00 
153500 4.4289942267e+00 7.0557711165e-05 1.4264681575e+00 -2.4707153241e+00 1.4264681575e+00 2.4707153241e+00 
153600 4.4289942215e+00 7.0781309401e-05 1.4264681575e+00 -2.4707153241e+00 1.4264681575e+00 2.4707153241e+00 
153700 4.4289942161e+00 7.0535631897e-05 1.4264656765e+00 -2.4707110269e+00 1.4264656765e+00 2.4707110269e+00 
153800 4.4289942110e+00 7.0758057906e-05 1.4264656765e+00 -2.4707110269e+00 1.4264656765e+00 2.4707110269e+00 
153900 4.4289942056e+00 7.0511411110e-05 1.4264631963e+00 -2.4707067311e+00 1.4264631963e+00 2.4707067311e+00 
154000 4.4289942005e+00 7.0732670256e-05 1.4264631963e+00 -2.4707067311e+00 1.4264631963e+00 2.4707067311e+00 
154100 4.4289941952e+00 7.0485073487e-05 1.4264607170e+00 -2.4707024368e+00 1.4264607170e+00 2.4707024368e+00 
154200 4.4289941902e+00 7.0705171280e-05 1.4264607170e+00 -2.4707024368e+00 1.4264607170e+00 2.4707024368e+00 
154300 4.4289941852e+00 7.0925941672e-05 1.4264607170e+00 -2.4707024368e+00 1.4264607170e+00 2.4707024368e+00 
154400 4.4289941799e+00 7.0676517019e-05 1.4264582309e+00 -2.4706981308e+00 1.4264582309e+00 2.4706981308e+00 
154500 4.4289941750e+00 7.0895882868e-05 1.4264582309e+00 -2.4706981308e+00 1.4264582309e+00 2.4706981308e+00 
154600 4.4289941698e+00 7.0645329742e-05 1.4264557459e+00 -2.4706938266e+00 1.4264557459e+00 2.4706938266e+00 
154700 4.4289941649e+00 7.0863350652e-05 1.4264557459e+00 -2.4706938266e+00 1.4264557459e+00 2.4706938266e+00 
154800 4.4289941597e+00 7.0611738316e-05 1.4264532620e+00 -2.4706895243e+00 1.4264532620e+00 2.4706895243e+00 
154900 4.4289941549e+00 7.0828461797e-05 1.4264532620e+00 -2.4706895243e+00 1.4264532620e+00 2.4706895243e+00 
155000 4.4289941498e+00 7.0575848133e-05 1.4264507793e+00 -2.4706852242e+00 1.4264507793e+00 2.4706852242e+00 
155100 4.4289941449e+00 7.0791312399e-05 1.4264507793e+00 -2.4706852242e+00 1.4264507793e+00 2.4706852242e+00 
155200 4.4289941399e+00 7.0537746504e-05 1.4264482979e+00 -2.4706809264e+00 1.4264482979e+00 2.4706809264e+00 
155300 4.4289941351e+00 7.0751982621e-05 1.4264482979e+00 -2.4706809264e+00 1.4264482979e+00 2.4706809264e+00 
155400 4.4289941301e+00 7.0497506789e-05 1.4264458179e+00 -2.4706766309e+00 1.4264458179e+00 2.4706766309e+00 
155500 4.4289941254e+00 7.0710540327e-05 1.4264458179e+00 -2.4706766309e+00 1.4264458179e+00 2.4706766309e+00 
155600 4.4289941207e+00 7.0924231378e-05 1.4264458179e+00 -2.4706766309e+00 1.4264458179e+00 2.4706766309e+00 
155700 4.4289941158e+00 7.0668020897e-05 1.4264433319e+00 -2.4706723249e+00 1.4264433319e+00 2.4706723249e+00 
155800 4.4289941111e+00 7.0880288565e-05 1.4264433319e+00 -2.4706723249e+00 1.4264433319e+00 2.4706723249e+00 
155900 4.4289941062e+00 7.0623026799e-05 1.4264408473e+00 -2.4706680216e+00 1.4264408473e+00 2.4706680216e+00 
156000 4.4289941016e+00 7.0833941607e-05 1.4264408473e+00 -2.4706680216e+00 1.4264408473e+00 2.4706680216e+00 
156100 4.4289940967e+00 7.0575707039e-05 1.4264383645e+00 -2.4706637211e+00 1.4264383645e+00 2.4706637211e+00 
156200 4.4289940922e+00 7.0785325112e-05 1.4264383645e+00 -2.4706637211e+00 1.4264383645e+00 2.4706637211e+00 
156300 4.4289940874e+00 7.0526182700e-05 1.4264358833e+00 -2.4706594236e+00 1.4264358833e+00 2.4706594236e+00 
156400 4.4289940829e+00 7.0734549084e-05 1.4264358833e+00 -2.4706594236e+00 1.4264358833e+00 2.4706594236e+00 
156500 4.4289940781e+00 7.0474553333e-05 1.4264334039e+00 -2.4706551291e+00 1.4264334039e+00 2.4706551291e+00 
156600 4.4289940736e+00 7.0681704535e-05 1.4264334039e+00 -2.4706551291e+00 1.4264334039e+00 2.4706551291e+00 
156700 4.4289940691e+00 7.0889509218e-05 1.4264334039e+00 -2.4706551291e+00 1.4264334039e+00 2.4706551291e+00 
156800 4.4289940645e+00 7.0627881822e-05 1.4264309190e+00 -2.4706508252e+00 1.4264309190e+00 2.4706508252e+00 
156900 4.4289940600e+00 7.0834262931e-05 1.4264309190e+00 -2.4706508252e+00 1.4264309190e+00 2.4706508252e+00 
157000 4.4289940554e+00 7.0571660577e-05 1.4264284361e+00 -2.4706465247e+00 1.4264284361e+00 2.4706465247e+00 
157100 4.4289940510e+00 7.0776694601e-05 1.4264284361e+00 -2.4706465247e+00 1.4264284361e+00 2.4706465247e+00 
157200 4.4289940464e+00 7.0513200522e-05 1.4264259552e+00 -2.4706422276e+00 1.4264259552e+00 2.4706422276e+00 
157300 4.4289940421e+00 7.0716948316e-05 1.4264259552e+00 -2.4706422276e+00 1.4264259552e+00 2.4706422276e+00 
157400 4.4289940375e+00 7.0452631066e-05 1.4264234764e+00 -2.4706379342e+00 1.4264234764e+00 2.4706379342e+00 
157500 4.4289940332e+00 7.0655141434e-05 1.4264234764e+00 -2.4706379342e+00 1.4264234764e+00 2.4706379342e+00 
157600 4.4289940289e+00 7.0858296977e-05 1.4264234764e+00 -2.4706379342e+00 1.4264234764e+00 2.4706379342e+00 
157700 4.4289940244e+00 7.0592413767e-05 1.4264209926e+00 -2.4706336321e+00 1.4264209926e+00 2.4706336321e+00 
157800 4.4289940202e+00 7.0794137271e-05 1.4264209926e+00 -2.4706336321e+00 1.4264209926e+00 2.4706336321e+00 
157900 4.4289940158e+00 7.0527331915e-05 1.4264185111e+00 -2.4706293340e+00 1.4264185111e+00 2.4706293340e+00 
158000 4.4289940116e+00 7.0727706470e-05 1.4264185111e+00 -2.4706293340e+00 1.4264185111e+00 2.4706293340e+00 
158100 4.4289940071e+00 7.0460067707e-05 1.4264160319e+00 -2.4706250399e+00 1.4264160319e+00 2.4706250399e+00 
158200 4.4289940030e+00 7.0659159353e-05 1.4264160319e+00 -2.4706250399e+00 1.4264160319e+00 2.4706250399e+00 
158300 4.4289939989e+00 7.0858878383e-05 1.4264160319e+00 -2.4706250399e+00 1.4264160319e+00 2.4706250399e+00 
158400 4.4289939945e+00 7.0589686908e-05 1.4264135480e+00 -2.4706207378e+00 1.4264135480e+00 2.4706207378e+00 
158500 4.4289939904e+00 7.0787947403e-05 1.4264135480e+00 -2.4706207378e+00 1.4264135480e+00 2.4706207378e+00 
158600 4.4289939861e+00 7.0517856037e-05 1.4264110667e+00 -2.4706164400e+00 1.4264110667e+00 2.4706164400e+00 
158700 4.4289939820e+00 7.0714750276e-05 1.4264110667e+00 -2.4706164400e+00 1.4264110667e+00 2.4706164400e+00 
158800 4.4289939778e+00 7.0443855836e-05 1.4264085880e+00 -2.4706121467e+00 1.4264085880e+00 2.4706121467e+00 
158900 4.4289939737e+00 7.0639457040e-05 1.4264085880e+00 -2.4706121467e+00 1.4264085880e+00 2.4706121467e+00 
159000 4.4289939697e+00 7.0835682070e-05 1.4264085880e+00 -2.4706121467e+00 1.4264085880e+00 2.4706121467e+00 
159100 4.4289939655e+00 7.0563292350e-05 1.4264061050e+00 -2.4706078460e+00 1.4264061050e+00 2.4706078460e+00 
159200 4.4289939616e+00 7.0758056844e-05 1.4264061050e+00 -2.4706078460e+00 1.4264061050e+00 2.4706078460e+00 
159300 4.4289939574e+00 7.0484810637e-05 1.4264036247e+00 -2.4706035500e+00 1.4264036247e+00 2.4706035500e+00 
159400 4.4289939535e+00 7.0678210777e-05 1.4264036247e+00 -2.4706035500e+00 1.4264036247e+00 2.4706035500e+00 
159500 4.4289939496e+00 7.0872206471e-05 1.4264036247e+00 -2.4706035500e+00 1.4264036247e+00 2.4706035500e+00 
159600 4.4289939454e+00 7.0597422941e-05 1.4264011404e+00 -2.4705992471e+00 1.4264011404e+00 2.4705992471e+00 
159700 4.4289939416e+00 7.0789911820e-05 1.4264011404e+00 -2.4705992471e+00 1.4264011404e+00 2.4705992471e+00 
159800 4.4289939375e+00 7.0514262234e-05 1.4263986589e+00 -2.4705949491e+00 1.4263986589e+00 2.4705949491e+00 
159900 4.4289939337e+00 7.0705352668e-05 1.4263986589e+00 -2.4705949491e+00 1.4263986589e+00 2.4705949491e+00 
160000 4.4289939298e+00 7.0897025554e-05 1.4263986589e+00 -2.4705949491e+00 1.4263986589e+00 2.4705949491e+00 
160100 4.4289939258e+00 7.0619844445e-05 1.4263961738e+00 -2.4705906447e+00 1.4263961738e+00 2.4705906447e+00 
160200 4.4289939220e+00 7.0809989811e-05 1.4263961738e+00 -2.4705906447e+00 1.4263961738e+00 2.4705906447e+00 
160300 4.4289939180e+00 7.0531956121e-05 1.4263936916e+00 -2.4705863455e+00 1.4263936916e+00 2.4705863455e+00 
160400 4.4289939143e+00 7.0720688903e-05 1.4263936916e+00 -2.4705863455e+00 1.4263936916e+00 2.4705863455e+00 
160500 4.4289939103e+00 7.0441919460e-05 1.4263912126e+00 -2.4705820518e+00 1.4263912126e+00 2.4705820518e+00 
160600 4.4289939066e+00 7.0629330609e-05 1.4263912126e+00 -2.4705820518e+00 1.4263912126e+00 2.4705820518e+00 
160700 4.4289939030e+00 7.0817355728e-05 1.4263912126e+00 -2.4705820518e+00 1.4263912126e+00 2.4705820518e+00 
160800 4.4289938990e+00 7.0537221317e-05 1.4263887302e+00 -2.4705777521e+00 1.4263887302e+00 2.4705777521e+00 
160900 4.4289938954e+00 7.0723777265e-05 1.4263887302e+00 -2.4705777521e+00 1.4263887302e+00 2.4705777521e+00 
161000 4.4289938915e+00 7.0442886086e-05 1.4263862511e+00 -2.4705734582e+00 1.4263862511e+00 2.4705734582e+00 
161100 4.4289938879e+00 7.0628078757e-05 1.4263862511e+00 -2.4705734582e+00 1.4263862511e+00 2.4705734582e+00 
161200 4.4289938843e+00 7.0813868837e-05 1.4263862511e+00 -2.4705734582e+00 1.4263862511e+00 2.4705734582e+00 
161300 4.4289938805e+00 7.0531605993e-05 1.4263837688e+00 -2.4705691587e+00 1.4263837688e+00 2.4705691587e+00 
161400 4.4289938769e+00 7.0715901644e-05 1.4263837688e+00 -2.4705691587e+00 1.4263837688e+00 2.4705691587e+00 
161500 4.4289938732e+00 7.0432889307e-05 1.4263812900e+00 -2.4705648652e+00 1.4263812900e+00 2.4705648652e+00 
161600 4.4289938696e+00 7.0615804303e-05 1.4263812900e+00 -2.4705648652e+00 1.4263812900e+00 2.4705648652e+00 
161700 4.4289938661e+00 7.0799309967e-05 1.4263812900e+00 -2.4705648652e+00 1.4263812900e+00 2.4705648652e+00 
161800 4.4289938624e+00 7.0514949990e-05 1.4263788082e+00 -2.4705605667e+00 1.4263788082e+00 2.4705605667e+00 
161900 4.4289938589e+00 7.0696952611e-05 1.4263788082e+00 -2.4705605667e+00 1.4263788082e+00 2.4705605667e+00 
162000 4.4289938554e+00 7.0879496877e-05 1.4263788082e+00 -2.4705605667e+00 1.4263788082e+00 2.4705605667e+00 
162100 4.4289938518e+00 7.0593659577e-05 1.4263763236e+00 -2.4705562632e+00 1.4263763236e+00 2.4705562632e+00 
162200 4.4289938483e+00 7.0774617460e-05 1.4263763236e+00 -2.4705562632e+00 1.4263763236e+00 2.4705562632e+00 
162300 4.4289938447e+00 7.0487995707e-05 1.4263738427e+00 -2.4705519661e+00 1.4263738427e+00 2.4705519661e+00 
162400 4.4289938413e+00 7.0667504199e-05 1.4263738427e+00 -2.4705519661e+00 1.4263738427e+00 2.4705519661e+00 
162500 4.4289938379e+00 7.0847576586e-05 1.4263738427e+00 -2.4705519661e+00 1.4263738427e+00 2.4705519661e+00 
162600 4.4289938343e+00 7.0559593186e-05 1.4263713592e+00 -2.4705476646e+00 1.4263713592e+00 2.4705476646e+00 
162700 4.4289938310e+00 7.0738119204e-05 1.4263713592e+00 -2.4705476646e+00 1.4263713592e+00 2.4705476646e+00 
162800 4.4289938274e+00 7.0449417427e-05 1.4263688796e+00 -2.4705433697e+00 1.4263688796e+00 2.4705433697e+00 
162900 4.4289938241e+00 7.0626527496e-05 1.4263688796e+00 -2.4705433697e+00 1.4263688796e+00 2.4705433697e+00 
163000 4.4289938208e+00 7.0804215275e-05 1.4263688796e+00 -2.4705433697e+00 1.4263688796e+00 2.4705433697e+00 
163100 4.4289938172e+00 7.0514240070e-05 1.4263663976e+00 -2.4705390708e+00 1.4263663976e+00 2.4705390708e+00 
163200 4.4289938140e+00 7.0690408058e-05 1.4263663976e+00 -2.4705390708e+00 1.4263663976e+00 2.4705390708e+00 
163300 4.4289938107e+00 7.0867112155e-05 1.4263663976e+00 -2.4705390708e+00 1.4263663976e+00 2.4705390708e+00 
163400 4.4289938073e+00 7.0575756687e-05 1.4263639134e+00 -2.4705347681e+00 1.4263639134e+00 2.4705347681e+00 
163500 4.4289938040e+00 7.0750870657e-05 1.4263639134e+00 -2.4705347681e+00 1.4263639134e+00 2.4705347681e+00 
163600 4.4289938006e+00 7.0458803679e-05 1.4263614333e+00 -2.4705304724e+00 1.4263614333e+00 2.4705304724e+00 
163700 4.4289937974e+00 7.0632470846e-05 1.4263614333e+00 -2.4705304724e+00 1.4263614333e+00 2.4705304724e+00 
163800 4.4289937942e+00 7.0806703972e-05 1.4263614333e+00 -2.4705304724e+00 1.4263614333e+00 2.4705304724e+00 
163900 4.4289937908e+00 7.0513395242e-05 1.4263589512e+00 -2.4705261733e+00 1.4263589512e+00 2.4705261733e+00 
164000 4.4289937877e+00 7.0686091999e-05 1.4263589512e+00 -2.4705261733e+00 1.4263589512e+00 2.4705261733e+00 
164100 4.4289937846e+00 7.0859318858e-05 1.4263589512e+00 -2.4705261733e+00 1.4263589512e+00 2.4705261733e+00 
164200 4.4289937812e+00 7.0564679345e-05 1.4263564673e+00 -2.4705218711e+00 1.4263564673e+00 2.4705218711e+00 
164300 4.4289937781e+00 7.0736309409e-05 1.4263564673e+00 -2.4705218711e+00 1.4263564673e+00 2.4705218711e+00 
164400 4.4289937748e+00 7.0440997903e-05 1.4263539877e+00 -2.4705175762e+00 1.4263539877e+00 2.4705175762e+00 
164500 4.4289937717e+00 7.0611179298e-05 1.4263539877e+00 -2.4705175762e+00 1.4263539877e+00 2.4705175762e+00 
164600 4.4289937687e+00 7.0781926479e-05 1.4263539877e+00 -2.4705175762e+00 1.4263539877e+00 2.4705175762e+00 
164700 4.4289937654e+00 7.0485440459e-05 1.4263515065e+00 -2.4705132786e+00 1.4263515065e+00 2.4705132786e+00 
164800 4.4289937623e+00 7.0654654935e-05 1.4263515065e+00 -2.4705132786e+00 1.4263515065e+00 2.4705132786e+00 
164900 4.4289937593e+00 7.0824401479e-05 1.4263515065e+00 -2.4705132786e+00 1.4263515065e+00 2.4705132786e+00 
165000 4.4289937561e+00 7.0526658226e-05 1.4263490238e+00 -2.4705089785e+00 1.4263490238e+00 2.4705089785e+00 
165100 4.4289937531e+00 7.0694815585e-05 1.4263490238e+00 -2.4705089785e+00 1.4263490238e+00 2.4705089785e+00 
165200 4.4289937501e+00 7.0863482573e-05 1.4263490238e+00 -2.4705089785e+00 1.4263490238e+00 2.4705089785e+00 
165300 4.4289937469e+00 7.0564435173e-05 1.4263465397e+00 -2.4705046759e+00 1.4263465397e+00 2.4705046759e+00 
165400 4.4289937440e+00 7.0731475261e-05 1.4263465397e+00 -2.4705046759e+00 1.4263465397e+00 2.4705046759e+00 
165500 4.4289937408e+00 7.0431789572e-05 1.4263440602e+00 -2.4705003813e+00 1.4263440602e+00 2.4705003813e+00 
165600 4.4289937379e+00 7.0597361883e-05 1.4263440602e+00 -2.4705003813e+00 1.4263440602e+00 2.4705003813e+00 
165700 4.4289937350e+00 7.0763493078e-05 1.4263440602e+00 -2.4705003813e+00 1.4263440602e+00 2.4705003813e+00 
165800 4.4289937319e+00 7.0462701664e-05 1.4263415796e+00 -2.4704960848e+00 1.4263415796e+00 2.4704960848e+00 
165900 4.4289937290e+00 7.0627293383e-05 1.4263415796e+00 -2.4704960848e+00 1.4263415796e+00 2.4704960848e+00 
166000 4.4289937262e+00 7.0792415167e-05 1.4263415796e+00 -2.4704960848e+00 1.4263415796e+00 2.4704960848e+00 
166100 4.4289937231e+00 7.0490450258e-05 1.4263390980e+00 -2.4704917866e+00 1.4263390980e+00 2.4704917866e+00 
166200 4.4289937203e+00 7.0653984731e-05 1.4263390980e+00 -2.4704917866e+00 1.4263390980e+00 2.4704917866e+00 
166300 4.4289937175e+00 7.0818030209e-05 1.4263390980e+00 -2.4704917866e+00 1.4263390980e+00 2.4704917866e+00 
166400 4.4289937144e+00 7.0514854985e-05 1.4263366155e+00 -2.4704874867e+00 1.4263366155e+00 2.4704874867e+00 
166500 4.4289937116e+00 7.0677281560e-05 1.4263366155e+00 -2.4704874867e+00 1.4263366155e+00 2.4704874867e+00 
166600 4.4289937088e+00 7.0840206717e-05 1.4263366155e+00 -2.4704874867e+00 1.4263366155e+00 2.4704874867e+00 
166700 4.4289937058e+00 7.0535805360e-05 1.4263341322e+00 -2.4704831855e+00 1.4263341322e+00 2.4704831855e+00 
166800 4.4289937031e+00 7.0697091126e-05 1.4263341322e+00 -2.4704831855e+00 1.4263341322e+00 2.4704831855e+00 
166900 4.4289937004e+00 7.0858867576e-05 1.4263341322e+00 -2.4704831855e+00 1.4263341322e+00 2.4704831855e+00 
167000 4.4289936974e+00 7.0553238558e-05 1.4263316483e+00 -2.4704788832e+00 1.4263316483e+00 2.4704788832e+00 
167100 4.4289936947e+00 7.0713362769e-05 1.4263316483e+00 -2.4704788832e+00 1.4263316483e+00 2.4704788832e+00 
167200 4.4289936917e+00 7.0407163391e-05 1.4263291694e+00 -2.4704745897e+00 1.4263291694e+00 2.4704745897e+00 
167300 4.4289936891e+00 7.0565806550e-05 1.4263291694e+00 -2.4704745897e+00 1.4263291694e+00 2.4704745897e+00 
167400 4.4289936864e+00 7.0725004406e-05 1.4263291694e+00 -2.4704745897e+00 1.4263291694e+00 2.4704745897e+00 
167500 4.4289936835e+00 7.0417821207e-05 1.4263266901e+00 -2.4704702955e+00 1.4263266901e+00 2.4704702955e+00 
167600 4.4289936808e+00 7.0575480026e-05 1.4263266901e+00 -2.4704702955e+00 1.4263266901e+00 2.4704702955e+00 
167700 4.4289936782e+00 7.0733670104e-05 1.4263266901e+00 -2.4704702955e+00 1.4263266901e+00 2.4704702955e+00 
167800 4.4289936753e+00 7.0425451469e-05 1.4263242106e+00 -2.4704660008e+00 1.4263242106e+00 2.4704660008e+00 
167900 4.4289936727e+00 7.0582064390e-05 1.4263242106e+00 -2.4704660008e+00 1.4263242106e+00 2.4704660008e+00 
168000 4.4289936701e+00 7.0739193241e-05 1.4263242106e+00 -2.4704660008e+00 1.4263242106e+00 2.4704660008e+00 
168100 4.4289936673e+00 7.0429913224e-05 1.4263217308e+00 -2.4704617057e+00 1.4263217308e+00 2.4704617057e+00 
168200 4.4289936647e+00 7.0585440287e-05 1.4263217308e+00 -2.4704617057e+00 1.4263217308e+00 2.4704617057e+00 
168300 4.4289936622e+00 7.0741473448e-05 1.4263217308e+00 -2.4704617057e+00 1.4263217308e+00 2.4704617057e+00 
168400 4.4289936594e+00 7.0431123464e-05 1.4263192509e+00 -2.4704574104e+00 1.4263192509e+00 2.4704574104e+00 
168500 4.4289936569e+00 7.0585539409e-05 1.4263192509e+00 -2.4704574104e+00 1.4263192509e+00 2.4704574104e+00 
168600 4.4289936543e+00 7.0740455359e-05 1.4263192509e+00 -2.4704574104e+00 1.4263192509e+00 2.4704574104e+00 
168700 4.4289936516e+00 7.0429038581e-05 1.4263167711e+00 -2.4704531152e+00 1.4263167711e+00 2.4704531152e+00 
168800 4.4289936491e+00 7.0582328196e-05 1.4263167711e+00 -2.4704531152e+00 1.4263167711e+00 2.4704531152e+00 
168900 4.4289936466e+00 7.0736114272e-05 1.4263167711e+00 -2.4704531152e+00 1.4263167711e+00 2.4704531152e+00 
169000 4.4289936439e+00 7.0423641853e-05 1.4263142914e+00 -2.4704488203e+00 1.4263142914e+00 2.4704488203e+00 
169100 4.4289936414e+00 7.0575796827e-05 1.4263142914e+00 -2.4704488203e+00 1.4263142914e+00 2.4704488203e+00 
169200 4.4289936390e+00 7.0728446469e-05 1.4263142914e+00 -2.4704488203e+00 1.4263142914e+00 2.4704488203e+00 
169300 4.4289936363e+00 7.0414934974e-05 1.4263118120e+00 -2.4704445259e+00 1.4263118120e+00 2.4704445259e+00 
169400 4.4289936339e+00 7.0565951772e-05 1.4263118120e+00 -2.4704445259e+00 1.4263118120e+00 2.4704445259e+00 
169500 4.4289936314e+00 7.0717462648e-05 1.4263118120e+00 -2.4704445259e+00 1.4263118120e+00 2.4704445259e+00 
169600 4.4289936288e+00 7.0402932317e-05 1.4263093330e+00 -2.4704402320e+00 1.4263093330e+00 2.4704402320e+00 
169700 4.4289936264e+00 7.0552810731e-05 1.4263093330e+00 -2.4704402320e+00 1.4263093330e+00 2.4704402320e+00 
169800 4.4289936240e+00 7.0703183462e-05 1.4263093330e+00 -2.4704402320e+00 1.4263093330e+00 2.4704402320e+00 
169900 4.4289936217e+00 7.0853960042e-05 1.4263093330e+00 -2.4704402320e+00 1.4263093330e+00 2.4704402320e+00 
170000 4.4289936190e+00 7.0537779351e-05 1.4263068492e+00 -2.4704359299e+00 1.4263068492e+00 2.4704359299e+00 
170100 4.4289936167e+00 7.0686769716e-05 1.4263068492e+00 -2.4704359299e+00 1.4263068492e+00 2.4704359299e+00 
170200 4.4289936144e+00 7.0836193115e-05 1.4263068492e+00 -2.4704359299e+00 1.4263068492e+00 2.4704359299e+00 
170300 4.4289936118e+00 7.0518849333e-05 1.4263043660e+00 -2.4704316289e+00 1.4263043660e+00 2.4704316289e+00 
170400 4.4289936095e+00 7.0666536365e-05 1.4263043660e+00 -2.4704316289e+00 1.4263043660e+00 2.4704316289e+00 
170500 4.4289936072e+00 7.0814676943e-05 1.4263043660e+00 -2.4704316289e+00 1.4263043660e+00 2.4704316289e+00 
170600 4.4289936046e+00 7.0496257186e-05 1.4263018835e+00 -2.4704273292e+00 1.4263018835e+00 2.4704273292e+00 
170700 4.4289936024e+00 7.0642697122e-05 1.4263018835e+00 -2.4704273292e+00 1.4263018835e+00 2.4704273292e+00 
170800 4.4289936001e+00 7.0789605279e-05 1.4263018835e+00 -2.4704273292e+00 1.4263018835e+00 2.4704273292e+00 
170900 4.4289935976e+00 7.0470177909e-05 1.4262994019e+00 -2.4704230310e+00 1.4262994019e+00 2.4704230310e+00 
171000 4.4289935953e+00 7.0615411680e-05 1.4262994019e+00 -2.4704230310e+00 1.4262994019e+00 2.4704230310e+00 
171100 4.4289935931e+00 7.0761124417e-05 1.4262994019e+00 -2.4704230310e+00 1.4262994019e+00 2.4704230310e+00 
171200 4.4289935906e+00 7.0440745090e-05 1.4262969214e+00 -2.4704187345e+00 1.4262969214e+00 2.4704187345e+00 
171300 4.4289935884e+00 7.0584803344e-05 1.4262969214e+00 -2.4704187345e+00 1.4262969214e+00 2.4704187345e+00 
171400 4.4289935862e+00 7.0729348648e-05 1.4262969214e+00 -2.4704187345e+00 1.4262969214e+00 2.4704187345e+00 
171500 4.4289935838e+00 7.0408064368e-05 1.4262944419e+00 -2.4704144399e+00 1.4262944419e+00 2.4704144399e+00 
171600 4.4289935816e+00 7.0550970825e-05 1.4262944419e+00 -2.4704144399e+00 1.4262944419e+00 2.4704144399e+00 
171700 4.4289935794e+00 7.0694370613e-05 1.4262944419e+00 -2.4704144399e+00 1.4262944419e+00 2.4704144399e+00 
171800 4.4289935772e+00 7.0838174907e-05 1.4262944419e+00 -2.4704144399e+00 1.4262944419e+00 2.4704144399e+00 
171900 4.4289935748e+00 7.0515420462e-05 1.4262919586e+00 -2.4704101387e+00 1.4262919586e+00 2.4704101387e+00 
172000 4.4289935727e+00 7.0657446054e-05 1.4262919586e+00 -2.4704101387e+00 1.4262919586e+00 2.4704101387e+00 
172100 4.4289935706e+00 7.0799909085e-05 1.4262919586e+00 -2.4704101387e+00 1.4262919586e+00 2.4704101387e+00 
172200 4.4289935682e+00 7.0476139677e-05 1.4262894766e+00 -2.4704058398e+00 1.4262894766e+00 2.4704058398e+00 
172300 4.4289935661e+00 7.0616880901e-05 1.4262894766e+00 -2.4704058398e+00 1.4262894766e+00 2.4704058398e+00 
172400 4.4289935640e+00 7.0758082716e-05 1.4262894766e+00 -2.4704058398e+00 1.4262894766e+00 2.4704058398e+00 
172500 4.4289935616e+00 7.0433392907e-05 1.4262869961e+00 -2.4704015435e+00 1.4262869961e+00 2.4704015435e+00 
172600 4.4289935596e+00 7.0572913834e-05 1.4262869961e+00 -2.4704015435e+00 1.4262869961e+00 2.4704015435e+00 
172700 4.4289935575e+00 7.0712911901e-05 1.4262869961e+00 -2.4704015435e+00 1.4262869961e+00 2.4704015435e+00 
172800 4.4289935552e+00 7.0387375020e-05 1.4262845172e+00 -2.4703972499e+00 1.4262845172e+00 2.4703972499e+00 
172900 4.4289935531e+00 7.0525722346e-05 1.4262845172e+00 -2.4703972499e+00 1.4262845172e+00 2.4703972499e+00 
173000 4.4289935511e+00 7.0664558881e-05 1.4262845172e+00 -2.4703972499e+00 1.4262845172e+00 2.4703972499e+00 
173100 4.4289935490e+00 7.0803797366e-05 1.4262845172e+00 -2.4703972499e+00 1.4262845172e+00 2.4703972499e+00 
173200 4.4289935468e+00 7.0476894839e-05 1.4262820351e+00 -2.4703929507e+00 1.4262820351e+00 2.4703929507e+00 
173300 4.4289935448e+00 7.0614355604e-05 1.4262820351e+00 -2.4703929507e+00 1.4262820351e+00 2.4703929507e+00 
173400 4.4289935428e+00 7.0752254743e-05 1.4262820351e+00 -2.4703929507e+00 1.4262820351e+00 2.4703929507e+00 
173500 4.4289935405e+00 7.0424428187e-05 1.4262795548e+00 -2.4703886547e+00 1.4262795548e+00 2.4703886547e+00 
173600 4.4289935385e+00 7.0560612787e-05 1.4262795548e+00 -2.4703886547e+00 1.4262795548e+00 2.4703886547e+00 
173700 4.4289935365e+00 7.0697261317e-05 1.4262795548e+00 -2.4703886547e+00 1.4262795548e+00 2.4703886547e+00 
173800 4.4289935346e+00 7.0834289956e-05 1.4262795548e+00 -2.4703886547e+00 1.4262795548e+00 2.4703886547e+00 
173900 4.4289935324e+00 7.0505059182e-05 1.4262770716e+00 -2.4703843537e+00 1.4262770716e+00 2.4703843537e+00 
174000 4.4289935304e+00 7.0640274612e-05 1.4262770716e+00 -2.4703843537e+00 1.4262770716e+00 2.4703843537e+00 
174100 4.4289935285e+00 7.0775914667e-05 1.4262770716e+00 -2.4703843537e+00 1.4262770716e+00 2.4703843537e+00 
174200 4.4289935263e+00 7.0445761968e-05 1.4262745905e+00 -2.4703800563e+00 1.4262745905e+00 2.4703800563e+00 
174300 4.4289935244e+00 7.0579665663e-05 1.4262745905e+00 -2.4703800563e+00 1.4262745905e+00 2.4703800563e+00 
174400 4.4289935225e+00 7.0714025085e-05 1.4262745905e+00 -2.4703800563e+00 1.4262745905e+00 2.4703800563e+00 
174500 4.4289935203e+00 7.0383069402e-05 1.4262721115e+00 -2.4703757626e+00 1.4262721115e+00 2.4703757626e+00 
174600 4.4289935184e+00 7.0515747327e-05 1.4262721115e+00 -2.4703757626e+00 1.4262721115e+00 2.4703757626e+00 
174700 4.4289935166e+00 7.0648902999e-05 1.4262721115e+00 -2.4703757626e+00 1.4262721115e+00 2.4703757626e+00 
174800 4.4289935147e+00 7.0782451794e-05 1.4262721115e+00 -2.4703757626e+00 1.4262721115e+00 2.4703757626e+00 
174900 4.4289935126e+00 7.0450236340e-05 1.4262696301e+00 -2.4703714647e+00 1.4262696301e+00 2.4703714647e+00 
175000 4.4289935107e+00 7.0581998370e-05 1.4262696301e+00 -2.4703714647e+00 1.4262696301e+00 2.4703714647e+00 
175100 4.4289935089e+00 7.0714195958e-05 1.4262696301e+00 -2.4703714647e+00 1.4262696301e+00 2.4703714647e+00 
175200 4.4289935068e+00 7.0381158018e-05 1.4262671511e+00 -2.4703671709e+00 1.4262671511e+00 2.4703671709e+00 
175300 4.4289935049e+00 7.0511642639e-05 1.4262671511e+00 -2.4703671709e+00 1.4262671511e+00 2.4703671709e+00 
175400 4.4289935031e+00 7.0642592528e-05 1.4262671511e+00 -2.4703671709e+00 1.4262671511e+00 2.4703671709e+00 
175500 4.4289935013e+00 7.0773925053e-05 1.4262671511e+00 -2.4703671709e+00 1.4262671511e+00 2.4703671709e+00 
175600 4.4289934992e+00 7.0439637825e-05 1.4262646700e+00 -2.4703628736e+00 1.4262646700e+00 2.4703628736e+00 
175700 4.4289934975e+00 7.0569168440e-05 1.4262646700e+00 -2.4703628736e+00 1.4262646700e+00 2.4703628736e+00 
175800 4.4289934957e+00 7.0699128722e-05 1.4262646700e+00 -2.4703628736e+00 1.4262646700e+00 2.4703628736e+00 
175900 4.4289934939e+00 7.0829440414e-05 1.4262646700e+00 -2.4703628736e+00 1.4262646700e+00 2.4703628736e+00 
176000 4.4289934919e+00 7.0493794477e-05 1.4262621870e+00 -2.4703585728e+00 1.4262621870e+00 2.4703585728e+00 
176100 4.4289934901e+00 7.0622251294e-05 1.4262621870e+00 -2.4703585728e+00 1.4262621870e+00 2.4703585728e+00 
176200 4.4289934883e+00 7.0751116920e-05 1.4262621870e+00 -2.4703585728e+00 1.4262621870e+00 2.4703585728e+00 
176300 4.4289934864e+00 7.0414631848e-05 1.4262597067e+00 -2.4703542768e+00 1.4262597067e+00 2.4703542768e+00 
176400 4.4289934846e+00 7.0541741531e-05 1.4262597067e+00 -2.4703542768e+00 1.4262597067e+00 2.4703542768e+00 
176500 4.4289934829e+00 7.0669299951e-05 1.4262597067e+00 -2.4703542768e+00 1.4262597067e+00 2.4703542768e+00 
176600 4.4289934812e+00 7.0797227104e-05 1.4262597067e+00 -2.4703542768e+00 1.4262597067e+00 2.4703542768e+00 
176700 4.4289934792e+00 7.0459518978e-05 1.4262572248e+00 -2.4703499780e+00 1.4262572248e+00 2.4703499780e+00 
176800 4.4289934775e+00 7.0585623057e-05 1.4262572248e+00 -2.4703499780e+00 1.4262572248e+00 2.4703499780e+00 
176900 4.4289934758e+00 7.0712149091e-05 1.4262572248e+00 -2.4703499780e+00 1.4262572248e+00 2.4703499780e+00 
177000 4.4289934739e+00 7.0373686762e-05 1.4262547459e+00 -2.4703456844e+00 1.4262547459e+00 2.4703456844e+00 
177100 4.4289934722e+00 7.0498482043e-05 1.4262547459e+00 -2.4703456844e+00 1.4262547459e+00 2.4703456844e+00 
177200 4.4289934705e+00 7.0623736400e-05 1.4262547459e+00 -2.4703456844e+00 1.4262547459e+00 2.4703456844e+00 
177300 4.4289934688e+00 7.0749369194e-05 1.4262547459e+00 -2.4703456844e+00 1.4262547459e+00 2.4703456844e+00 
177400 4.4289934669e+00 7.0409783654e-05 1.4262522656e+00 -2.4703413884e+00 1.4262522656e+00 2.4703413884e+00 
177500 4.4289934653e+00 7.0533613228e-05 1.4262522656e+00 -2.4703413884e+00 1.4262522656e+00 2.4703413884e+00 
177600 4.4289934636e+00 7.0657872780e-05 1.4262522656e+00 -2.4703413884e+00 1.4262522656e+00 2.4703413884e+00 
177700 4.4289934620e+00 7.0782485322e-05 1.4262522656e+00 -2.4703413884e+00 1.4262522656e+00 2.4703413884e+00 
177800 4.4289934601e+00 7.0441691974e-05 1.4262497842e+00 -2.4703370905e+00 1.4262497842e+00 2.4703370905e+00 
177900 4.4289934585e+00 7.0564458808e-05 1.4262497842e+00 -2.4703370905e+00 1.4262497842e+00 2.4703370905e+00 
178000 4.4289934569e+00 7.0687638782e-05 1.4262497842e+00 -2.4703370905e+00 1.4262497842e+00 2.4703370905e+00 
178100 4.4289934553e+00 7.0811157089e-05 1.4262497842e+00 -2.4703370905e+00 1.4262497842e+00 2.4703370905e+00 
178200 4.4289934535e+00 7.0469120214e-05 1.4262473018e+00 -2.4703327908e+00 1.4262473018e+00 2.4703327908e+00 
178300 4.4289934519e+00 7.0590768329e-05 1.4262473018e+00 -2.4703327908e+00 1.4262473018e+00 2.4703327908e+00 
178400 4.4289934503e+00 7.0712820103e-05 1.4262473018e+00 -2.4703327908e+00 1.4262473018e+00 2.4703327908e+00 
178500 4.4289934485e+00 7.0370059821e-05 1.4262448228e+00 -2.4703284971e+00 1.4262448228e+00 2.4703284971e+00 
178600 4.4289934469e+00 7.0490354248e-05 1.4262448228e+00 -2.4703284971e+00 1.4262448228e+00 2.4703284971e+00 
178700 4.4289934453e+00 7.0611097728e-05 1.4262448228e+00 -2.4703284971e+00 1.4262448228e+00 2.4703284971e+00 
178800 4.4289934438e+00 7.0732211804e-05 1.4262448228e+00 -2.4703284971e+00 1.4262448228e+00 2.4703284971e+00 
178900 4.4289934420e+00 7.0388408541e-05 1.4262423431e+00 -2.4703242022e+00 1.4262423431e+00 2.4703242022e+00 
179000 4.4289934405e+00 7.0507710809e-05 1.4262423431e+00 -2.4703242022e+00 1.4262423431e+00 2.4703242022e+00 
179100 4.4289934389e+00 7.0627440211e-05 1.4262423431e+00 -2.4703242022e+00 1.4262423431e+00 2.4703242022e+00 
179200 4.4289934374e+00 7.0747521125e-05 1.4262423431e+00 -2.4703242022e+00 1.4262423431e+00 2.4703242022e+00 
179300 4.4289934357e+00 7.0402618076e-05 1.4262398629e+00 -2.4703199063e+00 1.4262398629e+00 2.4703199063e+00 
179400 4.4289934342e+00 7.0520855934e-05 1.4262398629e+00 -2.4703199063e+00 1.4262398629e+00 2.4703199063e+00 
179500 4.4289934327e+00 7.0639508481e-05 1.4262398629e+00 -2.4703199063e+00 1.4262398629e+00 2.4703199063e+00 
179600 4.4289934312e+00 7.0758501795e-05 1.4262398629e+00 -2.4703199063e+00 1.4262398629e+00 2.4703199063e+00 
179700 4.4289934294e+00 7.0412479843e-05 1.4262373823e+00 -2.4703156098e+00 1.4262373823e+00 2.4703156098e+00 
179800 4.4289934279e+00 7.0529612785e-05 1.4262373823e+00 -2.4703156098e+00 1.4262373823e+00 2.4703156098e+00 
179900 4.4289934265e+00 7.0647153648e-05 1.4262373823e+00 -2.4703156098e+00 1.4262373823e+00 2.4703156098e+00 
180000 4.4289934250e+00 7.0765029530e-05 1.4262373823e+00 -2.4703156098e+00 1.4262373823e+00 2.4703156098e+00 
180100 4.4289934233e+00 7.0417892059e-05 1.4262349015e+00 -2.4703113129e+00 1.4262349015e+00 2.4703113129e+00 
180200 4.4289934219e+00 7.0533898704e-05 1.4262349015e+00 -2.4703113129e+00 1.4262349015e+00 2.4703113129e+00 
180300 4.4289934204e+00 7.0650309925e-05 1.4262349015e+00 -2.4703113129e+00 1.4262349015e+00 2.4703113129e+00 
180400 4.4289934190e+00 7.0767053444e-05 1.4262349015e+00 -2.4703113129e+00 1.4262349015e+00 2.4703113129e+00 
180500 4.4289934173e+00 7.0418817333e-05 1.4262324206e+00 -2.4703070159e+00 1.4262324206e+00 2.4703070159e+00 
180600 4.4289934159e+00 7.0533687942e-05 1.4262324206e+00 -2.4703070159e+00 1.4262324206e+00 2.4703070159e+00 
180700 4.4289934145e+00 7.0648961865e-05 1.4262324206e+00 -2.4703070159e+00 1.4262324206e+00 2.4703070159e+00 
180800 4.4289934130e+00 7.0764567214e-05 1.4262324206e+00 -2.4703070159e+00 1.4262324206e+00 2.4703070159e+00 
180900 4.4289934114e+00 7.0415257467e-05 1.4262299398e+00 -2.4703027189e+00 1.4262299398e+00 2.4703027189e+00 
181000 4.4289934100e+00 7.0528989481e-05 1.4262299398e+00 -2.4703027189e+00 1.4262299398e+00 2.4703027189e+00 
181100 4.4289934086e+00 7.0643124830e-05 1.4262299398e+00 -2.4703027189e+00 1.4262299398e+00 2.4703027189e+00 
181200 4.4289934072e+00 7.0757591875e-05 1.4262299398e+00 -2.4703027189e+00 1.4262299398e+00 2.4703027189e+00 
181300 4.4289934056e+00 7.0407238403e-05 1.4262274592e+00 -2.4702984225e+00 1.4262274592e+00 2.4702984225e+00 
181400 4.4289934042e+00 7.0519833763e-05 1.4262274592e+00 -2.4702984225e+00 1.4262274592e+00 2.4702984225e+00 
181500 4.4289934029e+00 7.0632833277e-05 1.4262274592e+00 -2.4702984225e+00 1.4262274592e+00 2.4702984225e+00 
181600 4.4289934015e+00 7.0746165471e-05 1.4262274592e+00 -2.4702984225e+00 1.4262274592e+00 2.4702984225e+00 
181700 4.4289933999e+00 7.0394801143e-05 1.4262249790e+00 -2.4702941267e+00 1.4262249790e+00 2.4702941267e+00 
181800 4.4289933986e+00 7.0506264665e-05 1.4262249790e+00 -2.4702941267e+00 1.4262249790e+00 2.4702941267e+00 
181900 4.4289933972e+00 7.0618133661e-05 1.4262249790e+00 -2.4702941267e+00 1.4262249790e+00 2.4702941267e+00 
182000 4.4289933959e+00 7.0730336773e-05 1.4262249790e+00 -2.4702941267e+00 1.4262249790e+00 2.4702941267e+00 
182100 4.4289933943e+00 7.0377996218e-05 1.4262224994e+00 -2.4702898318e+00 1.4262224994e+00 2.4702898318e+00 
182200 4.4289933930e+00 7.0488334592e-05 1.4262224994e+00 -2.4702898318e+00 1.4262224994e+00 2.4702898318e+00 
182300 4.4289933917e+00 7.0599080078e-05 1.4262224994e+00 -2.4702898318e+00 1.4262224994e+00 2.4702898318e+00 
182400 4.4289933904e+00 7.0710161407e-05 1.4262224994e+00 -2.4702898318e+00 1.4262224994e+00 2.4702898318e+00 
182500 4.4289933891e+00 7.0821515619e-05 1.4262224994e+00 -2.4702898318e+00 1.4262224994e+00 2.4702898318e+00 
182600 4.4289933875e+00 7.0467732023e-05 1.4262200165e+00 -2.4702855314e+00 1.4262200165e+00 2.4702855314e+00 
182700 4.4289933862e+00 7.0577117515e-05 1.4262200165e+00 -2.4702855314e+00 1.4262200165e+00 2.4702855314e+00 
182800 4.4289933850e+00 7.0686868726e-05 1.4262200165e+00 -2.4702855314e+00 1.4262200165e+00 2.4702855314e+00 
182900 4.4289933837e+00 7.0796919369e-05 1.4262200165e+00 -2.4702855314e+00 1.4262200165e+00 2.4702855314e+00 
183000 4.4289933822e+00 7.0442063740e-05 1.4262175346e+00 -2.4702812325e+00 1.4262175346e+00 2.4702812325e+00 
183100 4.4289933809e+00 7.0550191426e-05 1.4262175346e+00 -2.4702812325e+00 1.4262175346e+00 2.4702812325e+00 
183200 4.4289933796e+00 7.0658703570e-05 1.4262175346e+00 -2.4702812325e+00 1.4262175346e+00 2.4702812325e+00 
183300 4.4289933784e+00 7.0767531939e-05 1.4262175346e+00 -2.4702812325e+00 1.4262175346e+00 2.4702812325e+00 
183400 4.4289933769e+00 7.0411708023e-05 1.4262150536e+00 -2.4702769354e+00 1.4262150536e+00 2.4702769354e+00 
183500 4.4289933756e+00 7.0518643323e-05 1.4262150536e+00 -2.4702769354e+00 1.4262150536e+00 2.4702769354e+00 
183600 4.4289933744e+00 7.0625975244e-05 1.4262150536e+00 -2.4702769354e+00 1.4262150536e+00 2.4702769354e+00 
183700 4.4289933732e+00 7.0733634421e-05 1.4262150536e+00 -2.4702769354e+00 1.4262150536e+00 2.4702769354e+00 
183800 4.4289933717e+00 7.0376919391e-05 1.4262125738e+00 -2.4702726403e+00 1.4262125738e+00 2.4702726403e+00 
183900 4.4289933705e+00 7.0482706052e-05 1.4262125738e+00 -2.4702726403e+00 1.4262125738e+00 2.4702726403e+00 
184000 4.4289933693e+00 7.0588897596e-05 1.4262125738e+00 -2.4702726403e+00 1.4262125738e+00 2.4702726403e+00 
184100 4.4289933681e+00 7.0695424003e-05 1.4262125738e+00 -2.4702726403e+00 1.4262125738e+00 2.4702726403e+00 
184200 4.4289933669e+00 7.0802223430e-05 1.4262125738e+00 -2.4702726403e+00 1.4262125738e+00 2.4702726403e+00 
184300 4.4289933654e+00 7.0444206974e-05 1.4262100917e+00 -2.4702683410e+00 1.4262100917e+00 2.4702683410e+00 
184400 4.4289933642e+00 7.0549042419e-05 1.4262100917e+00 -2.4702683410e+00 1.4262100917e+00 2.4702683410e+00 
184500 4.4289933631e+00 7.0654246222e-05 1.4262100917e+00 -2.4702683410e+00 1.4262100917e+00 2.4702683410e+00 
184600 4.4289933619e+00 7.0759752825e-05 1.4262100917e+00 -2.4702683410e+00 1.4262100917e+00 2.4702683410e+00 
184700 4.4289933605e+00 7.0400793394e-05 1.4262076110e+00 -2.4702640443e+00 1.4262076110e+00 2.4702640443e+00 
184800 4.4289933593e+00 7.0504387844e-05 1.4262076110e+00 -2.4702640443e+00 1.4262076110e+00 2.4702640443e+00 
184900 4.4289933581e+00 7.0608371653e-05 1.4262076110e+00 -2.4702640443e+00 1.4262076110e+00 2.4702640443e+00 
185000 4.4289933570e+00 7.0712677090e-05 1.4262076110e+00 -2.4702640443e+00 1.4262076110e+00 2.4702640443e+00 
185100 4.4289933556e+00 7.0352886494e-05 1.4262051319e+00 -2.4702597505e+00 1.4262051319e+00 2.4702597505e+00 
185200 4.4289933544e+00 7.0455313722e-05 1.4262051319e+00 -2.4702597505e+00 1.4262051319e+00 2.4702597505e+00 
185300 4.4289933533e+00 7.0558143901e-05 1.4262051319e+00 -2.4702597505e+00 1.4262051319e+00 2.4702597505e+00 
185400 4.4289933522e+00 7.0661308028e-05 1.4262051319e+00 -2.4702597505e+00 1.4262051319e+00 2.4702597505e+00 
185500 4.4289933510e+00 7.0764745164e-05 1.4262051319e+00 -2.4702597505e+00 1.4262051319e+00 2.4702597505e+00 
185600 4.4289933497e+00 7.0403756406e-05 1.4262026511e+00 -2.4702554535e+00 1.4262026511e+00 2.4702554535e+00 
185700 4.4289933485e+00 7.0505233793e-05 1.4262026511e+00 -2.4702554535e+00 1.4262026511e+00 2.4702554535e+00 
185800 4.4289933474e+00 7.0607081462e-05 1.4262026511e+00 -2.4702554535e+00 1.4262026511e+00 2.4702554535e+00 
185900 4.4289933463e+00 7.0709234444e-05 1.4262026511e+00 -2.4702554535e+00 1.4262026511e+00 2.4702554535e+00 
186000 4.4289933452e+00 7.0811635342e-05 1.4262026511e+00 -2.4702554535e+00 1.4262026511e+00 2.4702554535e+00 
186100 4.4289933439e+00 7.0449334573e-05 1.4262001685e+00 -2.4702511537e+00 1.4262001685e+00 2.4702511537e+00 
186200 4.4289933428e+00 7.0549733224e-05 1.4262001685e+00 -2.4702511537e+00 1.4262001685e+00 2.4702511537e+00 
186300 4.4289933417e+00 7.0650485480e-05 1.4262001685e+00 -2.4702511537e+00 1.4262001685e+00 2.4702511537e+00 
186400 4.4289933406e+00 7.0751528487e-05 1.4262001685e+00 -2.4702511537e+00 1.4262001685e+00 2.4702511537e+00 
186500 4.4289933393e+00 7.0388344944e-05 1.4261976881e+00 -2.4702468574e+00 1.4261976881e+00 2.4702468574e+00 
186600 4.4289933382e+00 7.0487459815e-05 1.4261976881e+00 -2.4702468574e+00 1.4261976881e+00 2.4702468574e+00 
186700 4.4289933371e+00 7.0586958231e-05 1.4261976881e+00 -2.4702468574e+00 1.4261976881e+00 2.4702468574e+00 
186800 4.4289933361e+00 7.0686774136e-05 1.4261976881e+00 -2.4702468574e+00 1.4261976881e+00 2.4702468574e+00 
186900 4.4289933350e+00 7.0786849189e-05 1.4261976881e+00 -2.4702468574e+00 1.4261976881e+00 2.4702468574e+00 
187000 4.4289933337e+00 7.0422491076e-05 1.4261952064e+00 -2.4702425591e+00 1.4261952064e+00 2.4702425591e+00 
187100 4.4289933327e+00 7.0520585276e-05 1.4261952064e+00 -2.4702425591e+00 1.4261952064e+00 2.4702425591e+00 
187200 4.4289933316e+00 7.0619042019e-05 1.4261952064e+00 -2.4702425591e+00 1.4261952064e+00 2.4702425591e+00 
187300 4.4289933306e+00 7.0717797928e-05 1.4261952064e+00 -2.4702425591e+00 1.4261952064e+00 2.4702425591e+00 
187400 4.4289933293e+00 7.0352651025e-05 1.4261927272e+00 -2.4702382649e+00 1.4261927272e+00 2.4702382649e+00 
187500 4.4289933283e+00 7.0449495911e-05 1.4261927272e+00 -2.4702382649e+00 1.4261927272e+00 2.4702382649e+00 
187600 4.4289933273e+00 7.0546731406e-05 1.4261927272e+00 -2.4702382649e+00 1.4261927272e+00 2.4702382649e+00 
187700 4.4289933263e+00 7.0644291178e-05 1.4261927272e+00 -2.4702382649e+00 1.4261927272e+00 2.4702382649e+00 
187800 4.4289933252e+00 7.0742116650e-05 1.4261927272e+00 -2.4702382649e+00 1.4261927272e+00 2.4702382649e+00 
187900 4.4289933240e+00 7.0375902161e-05 1.4261902471e+00 -2.4702339692e+00 1.4261902471e+00 2.4702339692e+00 
188000 4.4289933230e+00 7.0471761241e-05 1.4261902471e+00 -2.4702339692e+00 1.4261902471e+00 2.4702339692e+00 
188100 4.4289933220e+00 7.0567988679e-05 1.4261902471e+00 -2.4702339692e+00 1.4261902471e+00 2.4702339692e+00 
188200 4.4289933210e+00 7.0664520994e-05 1.4261902471e+00 -2.4702339692e+00 1.4261902471e+00 2.4702339692e+00 
188300 4.4289933200e+00 7.0761302115e-05 1.4261902471e+00 -2.4702339692e+00 1.4261902471e+00 2.4702339692e+00 
188400 4.4289933188e+00 7.0393953779e-05 1.4261877663e+00 -2.4702296724e+00 1.4261877663e+00 2.4702296724e+00 
188500 4.4289933178e+00 7.0488740682e-05 1.4261877663e+00 -2.4702296724e+00 1.4261877663e+00 2.4702296724e+00 
188600 4.4289933168e+00 7.0583884940e-05 1.4261877663e+00 -2.4702296724e+00 1.4261877663e+00 2.4702296724e+00 
188700 4.4289933158e+00 7.0679324574e-05 1.4261877663e+00 -2.4702296724e+00 1.4261877663e+00 2.4702296724e+00 
188800 4.4289933149e+00 7.0775004837e-05 1.4261877663e+00 -2.4702296724e+00 1.4261877663e+00 2.4702296724e+00 
188900 4.4289933137e+00 7.0406509210e-05 1.4261852851e+00 -2.4702253747e+00 1.4261852851e+00 2.4702253747e+00 
189000 4.4289933127e+00 7.0500182059e-05 1.4261852851e+00 -2.4702253747e+00 1.4261852851e+00 2.4702253747e+00 
189100 4.4289933118e+00 7.0594207215e-05 1.4261852851e+00 -2.4702253747e+00 1.4261852851e+00 2.4702253747e+00 
189200 4.4289933108e+00 7.0688523503e-05 1.4261852851e+00 -2.4702253747e+00 1.4261852851e+00 2.4702253747e+00 
189300 4.4289933099e+00 7.0783076887e-05 1.4261852851e+00 -2.4702253747e+00 1.4261852851e+00 2.4702253747e+00 
189400 4.4289933087e+00 7.0413448395e-05 1.4261828035e+00 -2.4702210765e+00 1.4261828035e+00 2.4702210765e+00 
189500 4.4289933077e+00 7.0505989090e-05 1.4261828035e+00 -2.4702210765e+00 1.4261828035e+00 2.4702210765e+00 
189600 4.4289933068e+00 7.0598880242e-05 1.4261828035e+00 -2.4702210765e+00 1.4261828035e+00 2.4702210765e+00 
189700 4.4289933059e+00 7.0692061114e-05 1.4261828035e+00 -2.4702210765e+00 1.4261828035e+00 2.4702210765e+00 
189800 4.4289933050e+00 7.0785478064e-05 1.4261828035e+00 -2.4702210765e+00 1.4261828035e+00 2.4702210765e+00 
189900 4.4289933038e+00 7.0414745995e-05 1.4261803219e+00 -2.4702167782e+00 1.4261803219e+00 2.4702167782e+00 
190000 4.4289933029e+00 7.0506149387e-05 1.4261803219e+00 -2.4702167782e+00 1.4261803219e+00 2.4702167782e+00 
190100 4.4289933020e+00 7.0597903135e-05 1.4261803219e+00 -2.4702167782e+00 1.4261803219e+00 2.4702167782e+00 
190200 4.4289933011e+00 7.0689946753e-05 1.4261803219e+00 -2.4702167782e+00 1.4261803219e+00 2.4702167782e+00 
190300 4.4289933002e+00 7.0782226822e-05 1.4261803219e+00 -2.4702167782e+00 1.4261803219e+00 2.4702167782e+00 
190400 4.4289932990e+00 7.0410428450e-05 1.4261778403e+00 -2.4702124801e+00 1.4261778403e+00 2.4702124801e+00 
190500 4.4289932981e+00 7.0500696633e-05 1.4261778403e+00 -2.4702124801e+00 1.4261778403e+00 2.4702124801e+00 
190600 4.4289932973e+00 7.0591316049e-05 1.4261778403e+00 -2.4702124801e+00 1.4261778403e+00 2.4702124801e+00 
190700 4.4289932964e+00 7.0682226360e-05 1.4261778403e+00 -2.4702124801e+00 1.4261778403e+00 2.4702124801e+00 
190800 4.4289932955e+00 7.0773374284e-05 1.4261778403e+00 -2.4702124801e+00 1.4261778403e+00 2.4702124801e+00 
190900 4.4289932944e+00 7.0400551198e-05 1.4261753591e+00 -2.4702081825e+00 1.4261753591e+00 2.4702081825e+00 
191000 4.4289932935e+00 7.0489690441e-05 1.4261753591e+00 -2.4702081825e+00 1.4261753591e+00 2.4702081825e+00 
191100 4.4289932926e+00 7.0579182351e-05 1.4261753591e+00 -2.4702081825e+00 1.4261753591e+00 2.4702081825e+00 
191200 4.4289932918e+00 7.0668966690e-05 1.4261753591e+00 -2.4702081825e+00 1.4261753591e+00 2.4702081825e+00 
191300 4.4289932909e+00 7.0758990260e-05 1.4261753591e+00 -2.4702081825e+00 1.4261753591e+00 2.4702081825e+00 
191400 4.4289932898e+00 7.0385186348e-05 1.4261728784e+00 -2.4702038857e+00 1.4261728784e+00 2.4702038857e+00 
191500 4.4289932890e+00 7.0473205417e-05 1.4261728784e+00 -2.4702038857e+00 1.4261728784e+00 2.4702038857e+00 
191600 4.4289932881e+00 7.0561578913e-05 1.4261728784e+00 -2.4702038857e+00 1.4261728784e+00 2.4702038857e+00 
191700 4.4289932873e+00 7.0650246666e-05 1.4261728784e+00 -2.4702038857e+00 1.4261728784e+00 2.4702038857e+00 
191800 4.4289932864e+00 7.0739155541e-05 1.4261728784e+00 -2.4702038857e+00 1.4261728784e+00 2.4702038857e+00 
191900 4.4289932854e+00 7.0364415856e-05 1.4261703983e+00 -2.4701995902e+00 1.4261703983e+00 2.4701995902e+00 
192000 4.4289932845e+00 7.0451325061e-05 1.4261703983e+00 -2.4701995902e+00 1.4261703983e+00 2.4701995902e+00 
192100 4.4289932837e+00 7.0538590644e-05 1.4261703983e+00 -2.4701995902e+00 1.4261703983e+00 2.4701995902e+00 
192200 4.4289932829e+00 7.0626152488e-05 1.4261703983e+00 -2.4701995902e+00 1.4261703983e+00 2.4701995902e+00 
192300 4.4289932821e+00 7.0713957505e-05 1.4261703983e+00 -2.4701995902e+00 1.4261703983e+00 2.4701995902e+00 
192400 4.4289932810e+00 7.0338327604e-05 1.4261679192e+00 -2.4701952962e+00 1.4261679192e+00 2.4701952962e+00 
192500 4.4289932802e+00 7.0424138243e-05 1.4261679192e+00 -2.4701952962e+00 1.4261679192e+00 2.4701952962e+00 
192600 4.4289932794e+00 7.0510307320e-05 1.4261679192e+00 -2.4701952962e+00 1.4261679192e+00 2.4701952962e+00 
192700 4.4289932786e+00 7.0596774760e-05 1.4261679192e+00 -2.4701952962e+00 1.4261679192e+00 2.4701952962e+00 
192800 4.4289932778e+00 7.0683487521e-05 1.4261679192e+00 -2.4701952962e+00 1.4261679192e+00 2.4701952962e+00 
192900 4.4289932770e+00 7.0770398726e-05 1.4261679192e+00 -2.4701952962e+00 1.4261679192e+00 2.4701952962e+00 
193000 4.4289932759e+00 7.0393520883e-05 1.4261654381e+00 -2.4701909987e+00 1.4261654381e+00 2.4701909987e+00 
193100 4.4289932751e+00 7.0478362355e-05 1.4261654381e+00 -2.4701909987e+00 1.4261654381e+00 2.4701909987e+00 
193200 4.4289932744e+00 7.0563532166e-05 1.4261654381e+00 -2.4701909987e+00 1.4261654381e+00 2.4701909987e+00 
193300 4.4289932736e+00 7.0648973935e-05 1.4261654381e+00 -2.4701909987e+00 1.4261654381e+00 2.4701909987e+00 
193400 4.4289932728e+00 7.0734637866e-05 1.4261654381e+00 -2.4701909987e+00 1.4261654381e+00 2.4701909987e+00 
193500 4.4289932718e+00 7.0356813442e-05 1.4261629582e+00 -2.4701867034e+00 1.4261629582e+00 2.4701867034e+00 
193600 4.4289932710e+00 7.0440449119e-05 1.4261629582e+00 -2.4701867034e+00 1.4261629582e+00 2.4701867034e+00 
193700 4.4289932702e+00 7.0524429938e-05 1.4261629582e+00 -2.4701867034e+00 1.4261629582e+00 2.4701867034e+00 
193800 4.4289932695e+00 7.0608697812e-05 1.4261629582e+00 -2.4701867034e+00 1.4261629582e+00 2.4701867034e+00 
193900 4.4289932687e+00 7.0693201450e-05 1.4261629582e+00 -2.4701867034e+00 1.4261629582e+00 2.4701867034e+00 
194000 4.4289932680e+00 7.0777895530e-05 1.4261629582e+00 -2.4701867034e+00 1.4261629582e+00 2.4701867034e+00 
194100 4.4289932670e+00 7.0398843656e-05 1.4261604768e+00 -2.4701824055e+00 1.4261604768e+00 2.4701824055e+00 
194200 4.4289932662e+00 7.0481456184e-05 1.4261604768e+00 -2.4701824055e+00 1.4261604768e+00 2.4701824055e+00 
194300 4.4289932655e+00 7.0564392678e-05 1.4261604768e+00 -2.4701824055e+00 1.4261604768e+00 2.4701824055e+00 
194400 4.4289932647e+00 7.0647597714e-05 1.4261604768e+00 -2.4701824055e+00 1.4261604768e+00 2.4701824055e+00 
194500 4.4289932640e+00 7.0731022348e-05 1.4261604768e+00 -2.4701824055e+00 1.4261604768e+00 2.4701824055e+00 
194600 4.4289932630e+00 7.0351078130e-05 1.4261579970e+00 -2.4701781104e+00 1.4261579970e+00 2.4701781104e+00 
194700 4.4289932623e+00 7.0432472159e-05 1.4261579970e+00 -2.4701781104e+00 1.4261579970e+00 2.4701781104e+00 
194800 4.4289932615e+00 7.0514210724e-05 1.4261579970e+00 -2.4701781104e+00 1.4261579970e+00 2.4701781104e+00 
194900 4.4289932608e+00 7.0596236280e-05 1.4261579970e+00 -2.4701781104e+00 1.4261579970e+00 2.4701781104e+00 
195000 4.4289932601e+00 7.0678498022e-05 1.4261579970e+00 -2.4701781104e+00 1.4261579970e+00 2.4701781104e+00 
195100 4.4289932594e+00 7.0760951059e-05 1.4261579970e+00 -2.4701781104e+00 1.4261579970e+00 2.4701781104e+00 
195200 4.4289932584e+00 7.0379866678e-05 1.4261555162e+00 -2.4701738135e+00 1.4261555162e+00 2.4701738135e+00 
195300 4.4289932577e+00 7.0460242022e-05 1.4261555162e+00 -2.4701738135e+00 1.4261555162e+00 2.4701738135e+00 
195400 4.4289932570e+00 7.0540943119e-05 1.4261555162e+00 -2.4701738135e+00 1.4261555162e+00 2.4701738135e+00 
195500 4.4289932563e+00 7.0621914838e-05 1.4261555162e+00 -2.4701738135e+00 1.4261555162e+00 2.4701738135e+00 
195600 4.4289932556e+00 7.0703108498e-05 1.4261555162e+00 -2.4701738135e+00 1.4261555162e+00 2.4701738135e+00 
195700 4.4289932549e+00 7.0784481079e-05 1.4261555162e+00 -2.4701738135e+00 1.4261555162e+00 2.4701738135e+00 
195800 4.4289932540e+00 7.0402202899e-05 1.4261530345e+00 -2.4701695151e+00 1.4261530345e+00 2.4701695151e+00 
195900 4.4289932533e+00 7.0481477260e-05 1.4261530345e+00 -2.4701695151e+00 1.4261530345e+00 2.4701695151e+00 
196000 4.4289932526e+00 7.0561069435e-05 1.4261530345e+00 -2.4701695151e+00 1.4261530345e+00 2.4701695151e+00 
196100 4.4289932519e+00 7.0640925419e-05 1.4261530345e+00 -2.4701695151e+00 1.4261530345e+00 2.4701695151e+00 
196200 4.4289932512e+00 7.0720997527e-05 1.4261530345e+00 -2.4701695151e+00 1.4261530345e+00 2.4701695151e+00 
196300 4.4289932503e+00 7.0337910047e-05 1.4261505551e+00 -2.4701652206e+00 1.4261505551e+00 2.4701652206e+00 
196400 4.4289932496e+00 7.0415948871e-05 1.4261505551e+00 -2.4701652206e+00 1.4261505551e+00 2.4701652206e+00 
196500 4.4289932489e+00 7.0494331631e-05 1.4261505551e+00 -2.4701652206e+00 1.4261505551e+00 2.4701652206e+00 
196600 4.4289932483e+00 7.0573001584e-05 1.4261505551e+00 -2.4701652206e+00 1.4261505551e+00 2.4701652206e+00 
196700 4.4289932476e+00 7.0651908635e-05 1.4261505551e+00 -2.4701652206e+00 1.4261505551e+00 2.4701652206e+00 
196800 4.4289932469e+00 7.0731008531e-05 1.4261505551e+00 -2.4701652206e+00 1.4261505551e+00 2.4701652206e+00 
196900 4.4289932460e+00 7.0346913168e-05 1.4261480753e+00 -2.4701609255e+00 1.4261480753e+00 2.4701609255e+00 
197000 4.4289932454e+00 7.0423941810e-05 1.4261480753e+00 -2.4701609255e+00 1.4261480753e+00 2.4701609255e+00 
197100 4.4289932447e+00 7.0501299105e-05 1.4261480753e+00 -2.4701609255e+00 1.4261480753e+00 2.4701609255e+00 
197200 4.4289932441e+00 7.0578930352e-05 1.4261480753e+00 -2.4701609255e+00 1.4261480753e+00 2.4701609255e+00 
197300 4.4289932434e+00 7.0656787253e-05 1.4261480753e+00 -2.4701609255e+00 1.4261480753e+00 2.4701609255e+00 
197400 4.4289932428e+00 7.0734827138e-05 1.4261480753e+00 -2.4701609255e+00 1.4261480753e+00 2.4701609255e+00 
197500 4.4289932419e+00 7.0349687732e-05 1.4261455954e+00 -2.4701566302e+00 1.4261455954e+00 2.4701566302e+00 
197600 4.4289932413e+00 7.0425640762e-05 1.4261455954e+00 -2.4701566302e+00 1.4261455954e+00 2.4701566302e+00 
197700 4.4289932406e+00 7.0501916265e-05 1.4261455954e+00 -2.4701566302e+00 1.4261455954e+00 2.4701566302e+00 
197800 4.4289932400e+00 7.0578460493e-05 1.4261455954e+00 -2.4701566302e+00 1.4261455954e+00 2.4701566302e+00 
197900 4.4289932394e+00 7.0655225993e-05 1.4261455954e+00 -2.4701566302e+00 1.4261455954e+00 2.4701566302e+00 
198000 4.4289932387e+00 7.0732170834e-05 1.4261455954e+00 -2.4701566302e+00 1.4261455954e+00 2.4701566302e+00 
198100 4.4289932379e+00 7.0345999535e-05 1.4261431155e+00 -2.4701523350e+00 1.4261431155e+00 2.4701523350e+00 
198200 4.4289932372e+00 7.0420852458e-05 1.4261431155e+00 -2.4701523350e+00 1.4261431155e+00 2.4701523350e+00 
198300 4.4289932366e+00 7.0496025928e-05 1.4261431155e+00 -2.4701523350e+00 1.4261431155e+00 2.4701523350e+00 
198400 4.4289932360e+00 7.0571466654e-05 1.4261431155e+00 -2.4701523350e+00 1.4261431155e+00 2.4701523350e+00 
198500 4.4289932354e+00 7.0647127591e-05 1.4261431155e+00 -2.4701523350e+00 1.4261431155e+00 2.4701523350e+00 
198600 4.4289932348e+00 7.0722967169e-05 1.4261431155e+00 -2.4701523350e+00 1.4261431155e+00 2.4701523350e+00 
198700 4.4289932339e+00 7.0335798533e-05 1.4261406360e+00 -2.4701480403e+00 1.4261406360e+00 2.4701480403e+00 
198800 4.4289932333e+00 7.0409546260e-05 1.4261406360e+00 -2.4701480403e+00 1.4261406360e+00 2.4701480403e+00 
198900 4.4289932327e+00 7.0483614634e-05 1.4261406360e+00 -2.4701480403e+00 1.4261406360e+00 2.4701480403e+00 
199000 4.4289932321e+00 7.0557950600e-05 1.4261406360e+00 -2.4701480403e+00 1.4261406360e+00 2.4701480403e+00 
199100 4.4289932315e+00 7.0632507318e-05 1.4261406360e+00 -2.4701480403e+00 1.4261406360e+00 2.4701480403e+00 
199200 4.4289932309e+00 7.0707243406e-05 1.4261406360e+00 -2.4701480403e+00 1.4261406360e+00 2.4701480403e+00 
199300 4.4289932304e+00 7.0782122275e-05 1.4261406360e+00 -2.4701480403e+00 1.4261406360e+00 2.4701480403e+00 
199400 4.4289932295e+00 7.0393629501e-05 1.4261381544e+00 -2.4701437421e+00 1.4261381544e+00 2.4701437421e+00 
199500 4.4289932289e+00 7.0466355707e-05 1.4261381544e+00 -2.4701437421e+00 1.4261381544e+00 2.4701437421e+00 
199600 4.4289932284e+00 7.0539378485e-05 1.4261381544e+00 -2.4701437421e+00 1.4261381544e+00 2.4701437421e+00 
199700 4.4289932278e+00 7.0612647743e-05 1.4261381544e+00 -2.4701437421e+00 1.4261381544e+00 2.4701437421e+00 
199800 4.4289932272e+00 7.0686119252e-05 1.4261381544e+00 -2.4701437421e+00 1.4261381544e+00 2.4701437421e+00 
199900 4.4289932266e+00 7.0759753933e-05 1.4261381544e+00 -2.4701437421e+00 1.4261381544e+00 2.4701437421e+00 
200000 4.4289932258e+00 7.0370228196e-05 1.4261356736e+00 -2.4701394452e+00 1.4261356736e+00 2.4701394452e+00 
200100 4.4289932253e+00 7.0441745693e-05 1.4261356736e+00 -2.4701394452e+00 1.4261356736e+00 2.4701394452e+00 
200200 4.4289932247e+00 7.0513574288e-05 1.4261356736e+00 -2.4701394452e+00 1.4261356736e+00 2.4701394452e+00 
200300 4.4289932241e+00 7.0585662437e-05 1.4261356736e+00 -2.4701394452e+00 1.4261356736e+00 2.4701394452e+00 
200400 4.4289932236e+00 7.0657964639e-05 1.4261356736e+00 -2.4701394452e+00 1.4261356736e+00 2.4701394452e+00 
200500 4.4289932230e+00 7.0730440703e-05 1.4261356736e+00 -2.4701394452e+00 1.4261356736e+00 2.4701394452e+00 
200600 4.4289932222e+00 7.0340003844e-05 1.4261331938e+00 -2.4701351500e+00 1.4261331938e+00 2.4701351500e+00 
200700 4.4289932217e+00 7.0410382491e-05 1.4261331938e+00 -2.4701351500e+00 1.4261331938e+00 2.4701351500e+00 
200800 4.4289932211e+00 7.0481080219e-05 1.4261331938e+00 -2.4701351500e+00 1.4261331938e+00 2.4701351500e+00 
200900 4.4289932206e+00 7.0552044841e-05 1.4261331938e+00 -2.4701351500e+00 1.4261331938e+00 2.4701351500e+00 
201000 4.4289932200e+00 7.0623230293e-05 1.4261331938e+00 -2.4701351500e+00 1.4261331938e+00 2.4701351500e+00 
201100 4.4289932195e+00 7.0694595889e-05 1.4261331938e+00 -2.4701351500e+00 1.4261331938e+00 2.4701351500e+00 
201200 4.4289932189e+00 7.0766105662e-05 1.4261331938e+00 -2.4701351500e+00 1.4261331938e+00 2.4701351500e+00 
201300 4.4289932182e+00 7.0374496000e-05 1.4261307128e+00 -2.4701308527e+00 1.4261307128e+00 2.4701308527e+00 
201400 4.4289932176e+00 7.0443858752e-05 1.4261307128e+00 -2.4701308527e+00 1.4261307128e+00 2.4701308527e+00 
201500 4.4289932171e+00 7.0513520841e-05 1.4261307128e+00 -2.4701308527e+00 1.4261307128e+00 2.4701308527e+00 
201600 4.4289932166e+00 7.0583432593e-05 1.4261307128e+00 -2.4701308527e+00 1.4261307128e+00 2.4701308527e+00 
201700 4.4289932160e+00 7.0653550160e-05 1.4261307128e+00 -2.4701308527e+00 1.4261307128e+00 2.4701308527e+00 
201800 4.4289932155e+00 7.0723834802e-05 1.4261307128e+00 -2.4701308527e+00 1.4261307128e+00 2.4701308527e+00 
201900 4.4289932147e+00 7.0331341610e-05 1.4261282332e+00 -2.4701265580e+00 1.4261282332e+00 2.4701265580e+00 
202000 4.4289932142e+00 7.0399519662e-05 1.4261282332e+00 -2.4701265580e+00 1.4261282332e+00 2.4701265580e+00 
202100 4.4289932137e+00 7.0468013354e-05 1.4261282332e+00 -2.4701265580e+00 1.4261282332e+00 2.4701265580e+00 
202200 4.4289932132e+00 7.0536771393e-05 1.4261282332e+00 -2.4701265580e+00 1.4261282332e+00 2.4701265580e+00 
202300 4.4289932127e+00 7.0605748508e-05 1.4261282332e+00 -2.4701265580e+00 1.4261282332e+00 2.4701265580e+00 
202400 4.4289932122e+00 7.0674904715e-05 1.4261282332e+00 -2.4701265580e+00 1.4261282332e+00 2.4701265580e+00 
202500 4.4289932117e+00 7.0744204669e-05 1.4261282332e+00 -2.4701265580e+00 1.4261282332e+00 2.4701265580e+00 
202600 4.4289932109e+00 7.0350624405e-05 1.4261257529e+00 -2.4701222620e+00 1.4261257529e+00 2.4701222620e+00 
202700 4.4289932104e+00 7.0417779269e-05 1.4261257529e+00 -2.4701222620e+00 1.4261257529e+00 2.4701222620e+00 
202800 4.4289932099e+00 7.0485234392e-05 1.4261257529e+00 -2.4701222620e+00 1.4261257529e+00 2.4701222620e+00 
202900 4.4289932094e+00 7.0552940503e-05 1.4261257529e+00 -2.4701222620e+00 1.4261257529e+00 2.4701222620e+00 
203000 4.4289932089e+00 7.0620854112e-05 1.4261257529e+00 -2.4701222620e+00 1.4261257529e+00 2.4701222620e+00 
203100 4.4289932084e+00 7.0688936802e-05 1.4261257529e+00 -2.4701222620e+00 1.4261257529e+00 2.4701222620e+00 
203200 4.4289932079e+00 7.0757154612e-05 1.4261257529e+00 -2.4701222620e+00 1.4261257529e+00 2.4701222620e+00 
203300 4.4289932072e+00 7.0362450474e-05 1.4261232722e+00 -2.4701179652e+00 1.4261232722e+00 2.4701179652e+00 
203400 4.4289932067e+00 7.0428509264e-05 1.4261232722e+00 -2.4701179652e+00 1.4261232722e+00 2.4701179652e+00 
203500 4.4289932062e+00 7.0494862941e-05 1.4261232722e+00 -2.4701179652e+00 1.4261232722e+00 2.4701179652e+00 
203600 4.4289932057e+00 7.0561463072e-05 1.4261232722e+00 -2.4701179652e+00 1.4261232722e+00 2.4701179652e+00 
203700 4.4289932053e+00 7.0628266907e-05 1.4261232722e+00 -2.4701179652e+00 1.4261232722e+00 2.4701179652e+00 
203800 4.4289932048e+00 7.0695236683e-05 1.4261232722e+00 -2.4701179652e+00 1.4261232722e+00 2.4701179652e+00 
203900 4.4289932043e+00 7.0762339018e-05 1.4261232722e+00 -2.4701179652e+00 1.4261232722e+00 2.4701179652e+00 
204000 4.4289932036e+00 7.0366533024e-05 1.4261207912e+00 -2.4701136681e+00 1.4261207912e+00 2.4701136681e+00 
204100 4.4289932031e+00 7.0431472776e-05 1.4261207912e+00 -2.4701136681e+00 1.4261207912e+00 2.4701136681e+00 
204200 4.4289932027e+00 7.0496706221e-05 1.4261207912e+00 -2.4701136681e+00 1.4261207912e+00 2.4701136681e+00 
204300 4.4289932022e+00 7.0562185289e-05 1.4261207912e+00 -2.4701136681e+00 1.4261207912e+00 2.4701136681e+00 
204400 4.4289932017e+00 7.0627867551e-05 1.4261207912e+00 -2.4701136681e+00 1.4261207912e+00 2.4701136681e+00 
204500 4.4289932013e+00 7.0693715532e-05 1.4261207912e+00 -2.4701136681e+00 1.4261207912e+00 2.4701136681e+00 
204600 4.4289932008e+00 7.0759696109e-05 1.4261207912e+00 -2.4701136681e+00 1.4261207912e+00 2.4701136681e+00 
204700 4.4289932001e+00 7.0362834664e-05 1.4261183104e+00 -2.4701093712e+00 1.4261183104e+00 2.4701093712e+00 
204800 4.4289931997e+00 7.0426653716e-05 1.4261183104e+00 -2.4701093712e+00 1.4261183104e+00 2.4701093712e+00 
204900 4.4289931992e+00 7.0490767079e-05 1.4261183104e+00 -2.4701093712e+00 1.4261183104e+00 2.4701093712e+00 
205000 4.4289931987e+00 7.0555126850e-05 1.4261183104e+00 -2.4701093712e+00 1.4261183104e+00 2.4701093712e+00 
205100 4.4289931983e+00 7.0619690753e-05 1.4261183104e+00 -2.4701093712e+00 1.4261183104e+00 2.4701093712e+00 
205200 4.4289931979e+00 7.0684421452e-05 1.4261183104e+00 -2.4701093712e+00 1.4261183104e+00 2.4701093712e+00 
205300 4.4289931974e+00 7.0749285944e-05 1.4261183104e+00 -2.4701093712e+00 1.4261183104e+00 2.4701093712e+00 
205400 4.4289931967e+00 7.0351425759e-05 1.4261158299e+00 -2.4701050749e+00 1.4261158299e+00 2.4701050749e+00 
205500 4.4289931963e+00 7.0414132027e-05 1.4261158299e+00 -2.4701050749e+00 1.4261158299e+00 2.4701050749e+00 
205600 4.4289931958e+00 7.0477134043e-05 1.4261158299e+00 -2.4701050749e+00 1.4261158299e+00 2.4701050749e+00 
205700 4.4289931954e+00 7.0540383996e-05 1.4261158299e+00 -2.4701050749e+00 1.4261158299e+00 2.4701050749e+00 
205800 4.4289931950e+00 7.0603839692e-05 1.4261158299e+00 -2.4701050749e+00 1.4261158299e+00 2.4701050749e+00 
205900 4.4289931945e+00 7.0667463866e-05 1.4261158299e+00 -2.4701050749e+00 1.4261158299e+00 2.4701050749e+00 
206000 4.4289931941e+00 7.0731223583e-05 1.4261158299e+00 -2.4701050749e+00 1.4261158299e+00 2.4701050749e+00 
206100 4.4289931934e+00 7.0332425703e-05 1.4261133500e+00 -2.4701007796e+00 1.4261133500e+00 2.4701007796e+00 
206200 4.4289931930e+00 7.0394031701e-05 1.4261133500e+00 -2.4701007796e+00 1.4261133500e+00 2.4701007796e+00 
206300 4.4289931926e+00 7.0455935276e-05 1.4261133500e+00 -2.4701007796e+00 1.4261133500e+00 2.4701007796e+00 
206400 4.4289931922e+00 7.0518088672e-05 1.4261133500e+00 -2.4701007796e+00 1.4261133500e+00 2.4701007796e+00 
206500 4.4289931917e+00 7.0580449745e-05 1.4261133500e+00 -2.4701007796e+00 1.4261133500e+00 2.4701007796e+00 
206600 4.4289931913e+00 7.0642981278e-05 1.4261133500e+00 -2.4701007796e+00 1.4261133500e+00 2.4701007796e+00 
206700 4.4289931909e+00 7.0705650378e-05 1.4261133500e+00 -2.4701007796e+00 1.4261133500e+00 2.4701007796e+00 
206800 4.4289931905e+00 7.0768427953e-05 1.4261133500e+00 -2.4701007796e+00 1.4261133500e+00 2.4701007796e+00 
206900 4.4289931898e+00 7.0368433994e-05 1.4261108689e+00 -2.4700964821e+00 1.4261108689e+00 2.4700964821e+00 
207000 4.4289931894e+00 7.0429012460e-05 1.4261108689e+00 -2.4700964821e+00 1.4261108689e+00 2.4700964821e+00 
207100 4.4289931890e+00 7.0489870491e-05 1.4261108689e+00 -2.4700964821e+00 1.4261108689e+00 2.4700964821e+00 
207200 4.4289931886e+00 7.0550962621e-05 1.4261108689e+00 -2.4700964821e+00 1.4261108689e+00 2.4700964821e+00 
207300 4.4289931882e+00 7.0612248723e-05 1.4261108689e+00 -2.4700964821e+00 1.4261108689e+00 2.4700964821e+00 
207400 4.4289931878e+00 7.0673693356e-05 1.4261108689e+00 -2.4700964821e+00 1.4261108689e+00 2.4700964821e+00 
207500 4.4289931874e+00 7.0735265197e-05 1.4261108689e+00 -2.4700964821e+00 1.4261108689e+00 2.4700964821e+00 
207600 4.4289931868e+00 7.0334344604e-05 1.4261083889e+00 -2.4700921866e+00 1.4261083889e+00 2.4700921866e+00 
207700 4.4289931864e+00 7.0393750500e-05 1.4261083889e+00 -2.4700921866e+00 1.4261083889e+00 2.4700921866e+00 
207800 4.4289931860e+00 7.0453449386e-05 1.4261083889e+00 -2.4700921866e+00 1.4261083889e+00 2.4700921866e+00 
207900 4.4289931856e+00 7.0513394496e-05 1.4261083889e+00 -2.4700921866e+00 1.4261083889e+00 2.4700921866e+00 
208000 4.4289931852e+00 7.0573544563e-05 1.4261083889e+00 -2.4700921866e+00 1.4261083889e+00 2.4700921866e+00 
208100 4.4289931848e+00 7.0633863146e-05 1.4261083889e+00 -2.4700921866e+00 1.4261083889e+00 2.4700921866e+00 
208200 4.4289931844e+00 7.0694318047e-05 1.4261083889e+00 -2.4700921866e+00 1.4261083889e+00 2.4700921866e+00 
208300 4.4289931840e+00 7.0754880786e-05 1.4261083889e+00 -2.4700921866e+00 1.4261083889e+00 2.4700921866e+00 
208400 4.4289931834e+00 7.0352857156e-05 1.4261059082e+00 -2.4700878899e+00 1.4261059082e+00 2.4700878899e+00 
208500 4.4289931830e+00 7.0411222014e-05 1.4261059082e+00 -2.4700878899e+00 1.4261059082e+00 2.4700878899e+00 
208600 4.4289931826e+00 7.0469867169e-05 1.4261059082e+00 -2.4700878899e+00 1.4261059082e+00 2.4700878899e+00 
208700 4.4289931822e+00 7.0528747553e-05 1.4261059082e+00 -2.4700878899e+00 1.4261059082e+00 2.4700878899e+00 
208800 4.4289931819e+00 7.0587823397e-05 1.4261059082e+00 -2.4700878899e+00 1.4261059082e+00 2.4700878899e+00 
208900 4.4289931815e+00 7.0647059580e-05 1.4261059082e+00 -2.4700878899e+00 1.4261059082e+00 2.4700878899e+00 
209000 4.4289931811e+00 7.0706425065e-05 1.4261059082e+00 -2.4700878899e+00 1.4261059082e+00 2.4700878899e+00 
209100 4.4289931807e+00 7.0765892402e-05 1.4261059082e+00 -2.4700878899e+00 1.4261059082e+00 2.4700878899e+00 
209200 4.4289931801e+00 7.0362746521e-05 1.4261034271e+00 -2.4700835926e+00 1.4261034271e+00 2.4700835926e+00 
209300 4.4289931798e+00 7.0420006497e-05 1.4261034271e+00 -2.4700835926e+00 1.4261034271e+00 2.4700835926e+00 
209400 4.4289931794e+00 7.0477543209e-05 1.4261034271e+00 -2.4700835926e+00 1.4261034271e+00 2.4700835926e+00 
209500 4.4289931790e+00 7.0535312214e-05 1.4261034271e+00 -2.4700835926e+00 1.4261034271e+00 2.4700835926e+00 
209600 4.4289931787e+00 7.0593274298e-05 1.4261034271e+00 -2.4700835926e+00 1.4261034271e+00 2.4700835926e+00 
209700 4.4289931783e+00 7.0651394833e-05 1.4261034271e+00 -2.4700835926e+00 1.4261034271e+00 2.4700835926e+00 
209800 4.4289931779e+00 7.0709643220e-05 1.4261034271e+00 -2.4700835926e+00 1.4261034271e+00 2.4700835926e+00 
209900 4.4289931776e+00 7.0767992396e-05 1.4261034271e+00 -2.4700835926e+00 1.4261034271e+00 2.4700835926e+00 
210000 4.4289931770e+00 7.0363763183e-05 1.4261009459e+00 -2.4700792951e+00 1.4261009459e+00 2.4700792951e+00 
210100 4.4289931766e+00 7.0419904045e-05 1.4261009459e+00 -2.4700792951e+00 1.4261009459e+00 2.4700792951e+00 
210200 4.4289931763e+00 7.0476321487e-05 1.4261009459e+00 -2.4700792951e+00 1.4261009459e+00 2.4700792951e+00 
210300 4.4289931759e+00 7.0532971316e-05 1.4261009459e+00 -2.4700792951e+00 1.4261009459e+00 2.4700792951e+00 
210400 4.4289931756e+00 7.0589814537e-05 1.4261009459e+00 -2.4700792951e+00 1.4261009459e+00 2.4700792951e+00 
210500 4.4289931752e+00 7.0646816723e-05 1.4261009459e+00 -2.4700792951e+00 1.4261009459e+00 2.4700792951e+00 
210600 4.4289931749e+00 7.0703947450e-05 1.4261009459e+00 -2.4700792951e+00 1.4261009459e+00 2.4700792951e+00 
210700 4.4289931745e+00 7.0761179818e-05 1.4261009459e+00 -2.4700792951e+00 1.4261009459e+00 2.4700792951e+00 
210800 4.4289931739e+00 7.0355927654e-05 1.4260984650e+00 -2.4700749980e+00 1.4260984650e+00 2.4700749980e+00 
210900 4.4289931736e+00 7.0410954286e-05 1.4260984650e+00 -2.4700749980e+00 1.4260984650e+00 2.4700749980e+00 
211000 4.4289931733e+00 7.0466258686e-05 1.4260984650e+00 -2.4700749980e+00 1.4260984650e+00 2.4700749980e+00 
211100 4.4289931729e+00 7.0521796773e-05 1.4260984650e+00 -2.4700749980e+00 1.4260984650e+00 2.4700749980e+00 
211200 4.4289931726e+00 7.0577529652e-05 1.4260984650e+00 -2.4700749980e+00 1.4260984650e+00 2.4700749980e+00 
211300 4.4289931722e+00 7.0633422987e-05 1.4260984650e+00 -2.4700749980e+00 1.4260984650e+00 2.4700749980e+00 
211400 4.4289931719e+00 7.0689446437e-05 1.4260984650e+00 -2.4700749980e+00 1.4260984650e+00 2.4700749980e+00 
211500 4.4289931716e+00 7.0745573174e-05 1.4260984650e+00 -2.4700749980e+00 1.4260984650e+00 2.4700749980e+00 
211600 4.4289931710e+00 7.0339366507e-05 1.4260959846e+00 -2.4700707018e+00 1.4260959846e+00 2.4700707018e+00 
211700 4.4289931707e+00 7.0393291748e-05 1.4260959846e+00 -2.4700707018e+00 1.4260959846e+00 2.4700707018e+00 
211800 4.4289931703e+00 7.0447496512e-05 1.4260959846e+00 -2.4700707018e+00 1.4260959846e+00 2.4700707018e+00 
211900 4.4289931700e+00 7.0501936776e-05 1.4260959846e+00 -2.4700707018e+00 1.4260959846e+00 2.4700707018e+00 
212000 4.4289931697e+00 7.0556573701e-05 1.4260959846e+00 -2.4700707018e+00 1.4260959846e+00 2.4700707018e+00 
212100 4.4289931694e+00 7.0611372998e-05 1.4260959846e+00 -2.4700707018e+00 1.4260959846e+00 2.4700707018e+00 
212200 4.4289931690e+00 7.0666304374e-05 1.4260959846e+00 -2.4700707018e+00 1.4260959846e+00 2.4700707018e+00 
212300 4.4289931687e+00 7.0721341042e-05 1.4260959846e+00 -2.4700707018e+00 1.4260959846e+00 2.4700707018e+00 
212400 4.4289931682e+00 7.0314251205e-05 1.4260935051e+00 -2.4700664071e+00 1.4260935051e+00 2.4700664071e+00 
212500 4.4289931678e+00 7.0367091525e-05 1.4260935051e+00 -2.4700664071e+00 1.4260935051e+00 2.4700664071e+00 
212600 4.4289931675e+00 7.0420213367e-05 1.4260935051e+00 -2.4700664071e+00 1.4260935051e+00 2.4700664071e+00 
212700 4.4289931672e+00 7.0473572749e-05 1.4260935051e+00 -2.4700664071e+00 1.4260935051e+00 2.4700664071e+00 
212800 4.4289931669e+00 7.0527130869e-05 1.4260935051e+00 -2.4700664071e+00 1.4260935051e+00 2.4700664071e+00 
212900 4.4289931666e+00 7.0580853473e-05 1.4260935051e+00 -2.4700664071e+00 1.4260935051e+00 2.4700664071e+00 
213000 4.4289931663e+00 7.0634710297e-05 1.4260935051e+00 -2.4700664071e+00 1.4260935051e+00 2.4700664071e+00 
213100 4.4289931660e+00 7.0688674583e-05 1.4260935051e+00 -2.4700664071e+00 1.4260935051e+00 2.4700664071e+00 
213200 4.4289931657e+00 7.0742722653e-05 1.4260935051e+00 -2.4700664071e+00 1.4260935051e+00 2.4700664071e+00 
213300 4.4289931651e+00 7.0334537118e-05 1.4260910248e+00 -2.4700621111e+00 1.4260910248e+00 2.4700621111e+00 
213400 4.4289931648e+00 7.0386353230e-05 1.4260910248e+00 -2.4700621111e+00 1.4260910248e+00 2.4700621111e+00 
213500 4.4289931645e+00 7.0438436648e-05 1.4260910248e+00 -2.4700621111e+00 1.4260910248e+00 2.4700621111e+00 
213600 4.4289931642e+00 7.0490745247e-05 1.4260910248e+00 -2.4700621111e+00 1.4260910248e+00 2.4700621111e+00 
213700 4.4289931639e+00 7.0543241860e-05 1.4260910248e+00 -2.4700621111e+00 1.4260910248e+00 2.4700621111e+00 
213800 4.4289931636e+00 7.0595893675e-05 1.4260910248e+00 -2.4700621111e+00 1.4260910248e+00 2.4700621111e+00 
213900 4.4289931633e+00 7.0648671700e-05 1.4260910248e+00 -2.4700621111e+00 1.4260910248e+00 2.4700621111e+00 
214000 4.4289931630e+00 7.0701550302e-05 1.4260910248e+00 -2.4700621111e+00 1.4260910248e+00 2.4700621111e+00 
214100 4.4289931627e+00 7.0754506793e-05 1.4260910248e+00 -2.4700621111e+00 1.4260910248e+00 2.4700621111e+00 
214200 4.4289931622e+00 7.0345197972e-05 1.4260885440e+00 -2.4700578144e+00 1.4260885440e+00 2.4700578144e+00 
214300 4.4289931619e+00 7.0395913102e-05 1.4260885440e+00 -2.4700578144e+00 1.4260885440e+00 2.4700578144e+00 
214400 4.4289931616e+00 7.0446891995e-05 1.4260885440e+00 -2.4700578144e+00 1.4260885440e+00 2.4700578144e+00 
214500 4.4289931613e+00 7.0498093133e-05 1.4260885440e+00 -2.4700578144e+00 1.4260885440e+00 2.4700578144e+00 
214600 4.4289931610e+00 7.0549479891e-05 1.4260885440e+00 -2.4700578144e+00 1.4260885440e+00 2.4700578144e+00 
214700 4.4289931607e+00 7.0601019934e-05 1.4260885440e+00 -2.4700578144e+00 1.4260885440e+00 2.4700578144e+00 
214800 4.4289931604e+00 7.0652684698e-05 1.4260885440e+00 -2.4700578144e+00 1.4260885440e+00 2.4700578144e+00 
214900 4.4289931602e+00 7.0704448928e-05 1.4260885440e+00 -2.4700578144e+00 1.4260885440e+00 2.4700578144e+00 
215000 4.4289931599e+00 7.0756290276e-05 1.4260885440e+00 -2.4700578144e+00 1.4260885440e+00 2.4700578144e+00 
215100 4.4289931594e+00 7.0345903426e-05 1.4260860633e+00 -2.4700535175e+00 1.4260860633e+00 2.4700535175e+00 
215200 4.4289931591e+00 7.0395502925e-05 1.4260860633e+00 -2.4700535175e+00 1.4260860633e+00 2.4700535175e+00 
215300 4.4289931588e+00 7.0445366207e-05 1.4260860633e+00 -2.4700535175e+00 1.4260860633e+00 2.4700535175e+00 
215400 4.4289931585e+00 7.0495451973e-05 1.4260860633e+00 -2.4700535175e+00 1.4260860633e+00 2.4700535175e+00 
215500 4.4289931582e+00 7.0545723794e-05 1.4260860633e+00 -2.4700535175e+00 1.4260860633e+00 2.4700535175e+00 
215600 4.4289931580e+00 7.0596149513e-05 1.4260860633e+00 -2.4700535175e+00 1.4260860633e+00 2.4700535175e+00 
215700 4.4289931577e+00 7.0646700724e-05 1.4260860633e+00 -2.4700535175e+00 1.4260860633e+00 2.4700535175e+00 
215800 4.4289931574e+00 7.0697352316e-05 1.4260860633e+00 -2.4700535175e+00 1.4260860633e+00 2.4700535175e+00 
215900 4.4289931572e+00 7.0748082071e-05 1.4260860633e+00 -2.4700535175e+00 1.4260860633e+00 2.4700535175e+00 
216000 4.4289931566e+00 7.0336686592e-05 1.4260835828e+00 -2.4700492212e+00 1.4260835828e+00 2.4700492212e+00 
216100 4.4289931564e+00 7.0385177434e-05 1.4260835828e+00 -2.4700492212e+00 1.4260835828e+00 2.4700492212e+00 
216200 4.4289931561e+00 7.0433933368e-05 1.4260835828e+00 -2.4700492212e+00 1.4260835828e+00 2.4700492212e+00 
216300 4.4289931558e+00 7.0482913188e-05 1.4260835828e+00 -2.4700492212e+00 1.4260835828e+00 2.4700492212e+00 
216400 4.4289931556e+00 7.0532080550e-05 1.4260835828e+00 -2.4700492212e+00 1.4260835828e+00 2.4700492212e+00 
216500 4.4289931553e+00 7.0581403375e-05 1.4260835828e+00 -2.4700492212e+00 1.4260835828e+00 2.4700492212e+00 
216600 4.4289931550e+00 7.0630853327e-05 1.4260835828e+00 -2.4700492212e+00 1.4260835828e+00 2.4700492212e+00 
216700 4.4289931548e+00 7.0680405360e-05 1.4260835828e+00 -2.4700492212e+00 1.4260835828e+00 2.4700492212e+00 
216800 4.4289931545e+00 7.0730037315e-05 1.4260835828e+00 -2.4700492212e+00 1.4260835828e+00 2.4700492212e+00 
216900 4.4289931540e+00 7.0317710857e-05 1.4260811029e+00 -2.4700449259e+00 1.4260811029e+00 2.4700449259e+00 
217000 4.4289931538e+00 7.0365108398e-05 1.4260811029e+00 -2.4700449259e+00 1.4260811029e+00 2.4700449259e+00 
217100 4.4289931535e+00 7.0412772850e-05 1.4260811029e+00 -2.4700449259e+00 1.4260811029e+00 2.4700449259e+00 
217200 4.4289931533e+00 7.0460663057e-05 1.4260811029e+00 -2.4700449259e+00 1.4260811029e+00 2.4700449259e+00 
217300 4.4289931530e+00 7.0508742723e-05 1.4260811029e+00 -2.4700449259e+00 1.4260811029e+00 2.4700449259e+00 
217400 4.4289931528e+00 7.0556979809e-05 1.4260811029e+00 -2.4700449259e+00 1.4260811029e+00 2.4700449259e+00 
217500 4.4289931525e+00 7.0605346021e-05 1.4260811029e+00 -2.4700449259e+00 1.4260811029e+00 2.4700449259e+00 
217600 4.4289931523e+00 7.0653816347e-05 1.4260811029e+00 -2.4700449259e+00 1.4260811029e+00 2.4700449259e+00 
217700 4.4289931520e+00 7.0702368661e-05 1.4260811029e+00 -2.4700449259e+00 1.4260811029e+00 2.4700449259e+00 
217800 4.4289931518e+00 7.0750983372e-05 1.4260811029e+00 -2.4700449259e+00 1.4260811029e+00 2.4700449259e+00 
217900 4.4289931513e+00 7.0337538944e-05 1.4260786223e+00 -2.4700406294e+00 1.4260786223e+00 2.4700406294e+00 
218000 4.4289931510e+00 7.0383890257e-05 1.4260786223e+00 -2.4700406294e+00 1.4260786223e+00 2.4700406294e+00 
218100 4.4289931508e+00 7.0430496996e-05 1.4260786223e+00 -2.4700406294e+00 1.4260786223e+00 2.4700406294e+00 
218200 4.4289931505e+00 7.0477319543e-05 1.4260786223e+00 -2.4700406294e+00 1.4260786223e+00 2.4700406294e+00 
218300 4.4289931503e+00 7.0524322957e-05 1.4260786223e+00 -2.4700406294e+00 1.4260786223e+00 2.4700406294e+00 
218400 4.4289931500e+00 7.0571476396e-05 1.4260786223e+00 -2.4700406294e+00 1.4260786223e+00 2.4700406294e+00 
218500 4.4289931498e+00 7.0618752620e-05 1.4260786223e+00 -2.4700406294e+00 1.4260786223e+00 2.4700406294e+00 
218600 4.4289931496e+00 7.0666127551e-05 1.4260786223e+00 -2.4700406294e+00 1.4260786223e+00 2.4700406294e+00 
218700 4.4289931493e+00 7.0713579888e-05 1.4260786223e+00 -2.4700406294e+00 1.4260786223e+00 2.4700406294e+00 
218800 4.4289931488e+00 7.0299275890e-05 1.4260761430e+00 -2.4700363351e+00 1.4260761430e+00 2.4700363351e+00 
218900 4.4289931486e+00 7.0344491989e-05 1.4260761430e+00 -2.4700363351e+00 1.4260761430e+00 2.4700363351e+00 
219000 4.4289931484e+00 7.0389974403e-05 1.4260761430e+00 -2.4700363351e+00 1.4260761430e+00 2.4700363351e+00 
219100 4.4289931481e+00 7.0435682520e-05 1.4260761430e+00 -2.4700363351e+00 1.4260761430e+00 2.4700363351e+00 
219200 4.4289931479e+00 7.0481580527e-05 1.4260761430e+00 -2.4700363351e+00 1.4260761430e+00 2.4700363351e+00 
219300 4.4289931477e+00 7.0527636820e-05 1.4260761430e+00 -2.4700363351e+00 1.4260761430e+00 2.4700363351e+00 
219400 4.4289931475e+00 7.0573823485e-05 1.4260761430e+00 -2.4700363351e+00 1.4260761430e+00 2.4700363351e+00 
219500 4.4289931472e+00 7.0620115855e-05 1.4260761430e+00 -2.4700363351e+00 1.4260761430e+00 2.4700363351e+00 
219600 4.4289931470e+00 7.0666492111e-05 1.4260761430e+00 -2.4700363351e+00 1.4260761430e+00 2.4700363351e+00 
219700 4.4289931468e+00 7.0712932938e-05 1.4260761430e+00 -2.4700363351e+00 1.4260761430e+00 2.4700363351e+00 
219800 4.4289931463e+00 7.0297659602e-05 1.4260736637e+00 -2.4700320409e+00 1.4260736637e+00 2.4700320409e+00 
219900 4.4289931461e+00 7.0341843804e-05 1.4260736637e+00 -2.4700320409e+00 1.4260736637e+00 2.4700320409e+00 
220000 4.4289931459e+00 7.0386286086e-05 1.4260736637e+00 -2.4700320409e+00 1.4260736637e+00 2.4700320409e+00 
220100 4.4289931456e+00 7.0430947028e-05 1.4260736637e+00 -2.4700320409e+00 1.4260736637e+00 2.4700320409e+00 
220200 4.4289931454e+00 7.0475791868e-05 1.4260736637e+00 -2.4700320409e+00 1.4260736637e+00 2.4700320409e+00 
220300 4.4289931452e+00 7.0520789924e-05 1.4260736637e+00 -2.4700320409e+00 1.4260736637e+00 2.4700320409e+00 
220400 4.4289931450e+00 7.0565914102e-05 1.4260736637e+00 -2.4700320409e+00 1.4260736637e+00 2.4700320409e+00 
220500 4.4289931448e+00 7.0611140453e-05 1.4260736637e+00 -2.4700320409e+00 1.4260736637e+00 2.4700320409e+00 
220600 4.4289931445e+00 7.0656447796e-05 1.4260736637e+00 -2.4700320409e+00 1.4260736637e+00 2.4700320409e+00 
220700 4.4289931443e+00 7.0701817377e-05 1.4260736637e+00 -2.4700320409e+00 1.4260736637e+00 2.4700320409e+00 
220800 4.4289931441e+00 7.0747232579e-05 1.4260736637e+00 -2.4700320409e+00 1.4260736637e+00 2.4700320409e+00 
220900 4.4289931436e+00 7.0330745831e-05 1.4260711832e+00 -2.4700277445e+00 1.4260711832e+00 2.4700277445e+00 
221000 4.4289931434e+00 7.0373872476e-05 1.4260711832e+00 -2.4700277445e+00 1.4260711832e+00 2.4700277445e+00 
221100 4.4289931432e+00 7.0417244651e-05 1.4260711832e+00 -2.4700277445e+00 1.4260711832e+00 2.4700277445e+00 
221200 4.4289931430e+00 7.0460824555e-05 1.4260711832e+00 -2.4700277445e+00 1.4260711832e+00 2.4700277445e+00 
221300 4.4289931428e+00 7.0504578852e-05 1.4260711832e+00 -2.4700277445e+00 1.4260711832e+00 2.4700277445e+00 
221400 4.4289931426e+00 7.0548478127e-05 1.4260711832e+00 -2.4700277445e+00 1.4260711832e+00 2.4700277445e+00 
221500 4.4289931424e+00 7.0592496398e-05 1.4260711832e+00 -2.4700277445e+00 1.4260711832e+00 2.4700277445e+00 
221600 4.4289931422e+00 7.0636610707e-05 1.4260711832e+00 -2.4700277445e+00 1.4260711832e+00 2.4700277445e+00 
221700 4.4289931420e+00 7.0680800747e-05 1.4260711832e+00 -2.4700277445e+00 1.4260711832e+00 2.4700277445e+00 
221800 4.4289931418e+00 7.0725048541e-05 1.4260711832e+00 -2.4700277445e+00 1.4260711832e+00 2.4700277445e+00 
221900 4.4289931413e+00 7.0307596792e-05 1.4260687035e+00 -2.4700234495e+00 1.4260687035e+00 2.4700234495e+00 
222000 4.4289931411e+00 7.0349577836e-05 1.4260687035e+00 -2.4700234495e+00 1.4260687035e+00 2.4700234495e+00 
222100 4.4289931409e+00 7.0391813301e-05 1.4260687035e+00 -2.4700234495e+00 1.4260687035e+00 2.4700234495e+00 
222200 4.4289931407e+00 7.0434264599e-05 1.4260687035e+00 -2.4700234495e+00 1.4260687035e+00 2.4700234495e+00 
222300 4.4289931405e+00 7.0476897708e-05 1.4260687035e+00 -2.4700234495e+00 1.4260687035e+00 2.4700234495e+00 
222400 4.4289931403e+00 7.0519682609e-05 1.4260687035e+00 -2.4700234495e+00 1.4260687035e+00 2.4700234495e+00 
222500 4.4289931401e+00 7.0562592797e-05 1.4260687035e+00 -2.4700234495e+00 1.4260687035e+00 2.4700234495e+00 
222600 4.4289931399e+00 7.0605604851e-05 1.4260687035e+00 -2.4700234495e+00 1.4260687035e+00 2.4700234495e+00 
222700 4.4289931397e+00 7.0648698060e-05 1.4260687035e+00 -2.4700234495e+00 1.4260687035e+00 2.4700234495e+00 
222800 4.4289931395e+00 7.0691854094e-05 1.4260687035e+00 -2.4700234495e+00 1.4260687035e+00 2.4700234495e+00 
222900 4.4289931393e+00 7.0735056715e-05 1.4260687035e+00 -2.4700234495e+00 1.4260687035e+00 2.4700234495e+00 
223000 4.4289931389e+00 7.0316534973e-05 1.4260662234e+00 -2.4700191539e+00 1.4260662234e+00 2.4700191539e+00 
223100 4.4289931387e+00 7.0357452833e-05 1.4260662234e+00 -2.4700191539e+00 1.4260662234e+00 2.4700191539e+00 
223200 4.4289931385e+00 7.0398618016e-05 1.4260662234e+00 -2.4700191539e+00 1.4260662234e+00 2.4700191539e+00 
223300 4.4289931383e+00 7.0439992982e-05 1.4260662234e+00 -2.4700191539e+00 1.4260662234e+00 2.4700191539e+00 
223400 4.4289931381e+00 7.0481544631e-05 1.4260662234e+00 -2.4700191539e+00 1.4260662234e+00 2.4700191539e+00 
223500 4.4289931379e+00 7.0523243757e-05 1.4260662234e+00 -2.4700191539e+00 1.4260662234e+00 2.4700191539e+00 
223600 4.4289931377e+00 7.0565064575e-05 1.4260662234e+00 -2.4700191539e+00 1.4260662234e+00 2.4700191539e+00 
223700 4.4289931375e+00 7.0606984300e-05 1.4260662234e+00 -2.4700191539e+00 1.4260662234e+00 2.4700191539e+00 
223800 4.4289931374e+00 7.0648982785e-05 1.4260662234e+00 -2.4700191539e+00 1.4260662234e+00 2.4700191539e+00 
223900 4.4289931372e+00 7.0691042197e-05 1.4260662234e+00 -2.4700191539e+00 1.4260662234e+00 2.4700191539e+00 
224000 4.4289931370e+00 7.0733146742e-05 1.4260662234e+00 -2.4700191539e+00 1.4260662234e+00 2.4700191539e+00 
224100 4.4289931366e+00 7.0313587170e-05 1.4260637434e+00 -2.4700148584e+00 1.4260637434e+00 2.4700148584e+00 
224200 4.4289931364e+00 7.0353405476e-05 1.4260637434e+00 -2.4700148584e+00 1.4260637434e+00 2.4700148584e+00 
224300 4.4289931362e+00 7.0393470665e-05 1.4260637434e+00 -2.4700148584e+00 1.4260637434e+00 2.4700148584e+00 
224400 4.4289931360e+00 7.0433745476e-05 1.4260637434e+00 -2.4700148584e+00 1.4260637434e+00 2.4700148584e+00 
224500 4.4289931358e+00 7.0474197058e-05 1.4260637434e+00 -2.4700148584e+00 1.4260637434e+00 2.4700148584e+00 
224600 4.4289931356e+00 7.0514796428e-05 1.4260637434e+00 -2.4700148584e+00 1.4260637434e+00 2.4700148584e+00 
224700 4.4289931355e+00 7.0555517998e-05 1.4260637434e+00 -2.4700148584e+00 1.4260637434e+00 2.4700148584e+00 
224800 4.4289931353e+00 7.0596339162e-05 1.4260637434e+00 -2.4700148584e+00 1.4260637434e+00 2.4700148584e+00 
224900 4.4289931351e+00 7.0637239931e-05 1.4260637434e+00 -2.4700148584e+00 1.4260637434e+00 2.4700148584e+00 
225000 4.4289931349e+00 7.0678202616e-05 1.4260637434e+00 -2.4700148584e+00 1.4260637434e+00 2.4700148584e+00 
225100 4.4289931348e+00 7.0719211550e-05 1.4260637434e+00 -2.4700148584e+00 1.4260637434e+00 2.4700148584e+00 
225200 4.4289931343e+00 7.0298696112e-05 1.4260612639e+00 -2.4700105638e+00 1.4260612639e+00 2.4700105638e+00 
225300 4.4289931342e+00 7.0337422067e-05 1.4260612639e+00 -2.4700105638e+00 1.4260612639e+00 2.4700105638e+00 
225400 4.4289931340e+00 7.0376396260e-05 1.4260612639e+00 -2.4700105638e+00 1.4260612639e+00 2.4700105638e+00 
225500 4.4289931338e+00 7.0415581521e-05 1.4260612639e+00 -2.4700105638e+00 1.4260612639e+00 2.4700105638e+00 
225600 4.4289931336e+00 7.0454945084e-05 1.4260612639e+00 -2.4700105638e+00 1.4260612639e+00 2.4700105638e+00 
225700 4.4289931335e+00 7.0494458042e-05 1.4260612639e+00 -2.4700105638e+00 1.4260612639e+00 2.4700105638e+00 
225800 4.4289931333e+00 7.0534094875e-05 1.4260612639e+00 -2.4700105638e+00 1.4260612639e+00 2.4700105638e+00 
225900 4.4289931331e+00 7.0573833039e-05 1.4260612639e+00 -2.4700105638e+00 1.4260612639e+00 2.4700105638e+00 
226000 4.4289931330e+00 7.0613652602e-05 1.4260612639e+00 -2.4700105638e+00 1.4260612639e+00 2.4700105638e+00 
226100 4.4289931328e+00 7.0653535927e-05 1.4260612639e+00 -2.4700105638e+00 1.4260612639e+00 2.4700105638e+00 
226200 4.4289931326e+00 7.0693467391e-05 1.4260612639e+00 -2.4700105638e+00 1.4260612639e+00 2.4700105638e+00 
226300 4.4289931325e+00 7.0733433150e-05 1.4260612639e+00 -2.4700105638e+00 1.4260612639e+00 2.4700105638e+00 
226400 4.4289931320e+00 7.0311821974e-05 1.4260587839e+00 -2.4700062682e+00 1.4260587839e+00 2.4700062682e+00 
226500 4.4289931319e+00 7.0349485235e-05 1.4260587839e+00 -2.4700062682e+00 1.4260587839e+00 2.4700062682e+00 
226600 4.4289931317e+00 7.0387389056e-05 1.4260587839e+00 -2.4700062682e+00 1.4260587839e+00 2.4700062682e+00 
226700 4.4289931316e+00 7.0425497364e-05 1.4260587839e+00 -2.4700062682e+00 1.4260587839e+00 2.4700062682e+00 
226800 4.4289931314e+00 7.0463778358e-05 1.4260587839e+00 -2.4700062682e+00 1.4260587839e+00 2.4700062682e+00 
226900 4.4289931312e+00 7.0502203985e-05 1.4260587839e+00 -2.4700062682e+00 1.4260587839e+00 2.4700062682e+00 
227000 4.4289931311e+00 7.0540749482e-05 1.4260587839e+00 -2.4700062682e+00 1.4260587839e+00 2.4700062682e+00 
227100 4.4289931309e+00 7.0579392972e-05 1.4260587839e+00 -2.4700062682e+00 1.4260587839e+00 2.4700062682e+00 
227200 4.4289931307e+00 7.0618115116e-05 1.4260587839e+00 -2.4700062682e+00 1.4260587839e+00 2.4700062682e+00 
227300 4.4289931306e+00 7.0656898800e-05 1.4260587839e+00 -2.4700062682e+00 1.4260587839e+00 2.4700062682e+00 
227400 4.4289931304e+00 7.0695728871e-05 1.4260587839e+00 -2.4700062682e+00 1.4260587839e+00 2.4700062682e+00 
227500 4.4289931303e+00 7.0734591895e-05 1.4260587839e+00 -2.4700062682e+00 1.4260587839e+00 2.4700062682e+00 
227600 4.4289931299e+00 7.0311918616e-05 1.4260563038e+00 -2.4700019726e+00 1.4260563038e+00 2.4700019726e+00 
227700 4.4289931297e+00 7.0348477725e-05 1.4260563038e+00 -2.4700019726e+00 1.4260563038e+00 2.4700019726e+00 
227800 4.4289931296e+00 7.0385277017e-05 1.4260563038e+00 -2.4700019726e+00 1.4260563038e+00 2.4700019726e+00 
227900 4.4289931294e+00 7.0422280682e-05 1.4260563038e+00 -2.4700019726e+00 1.4260563038e+00 2.4700019726e+00 
228000 4.4289931293e+00 7.0459457152e-05 1.4260563038e+00 -2.4700019726e+00 1.4260563038e+00 2.4700019726e+00 
228100 4.4289931291e+00 7.0496778587e-05 1.4260563038e+00 -2.4700019726e+00 1.4260563038e+00 2.4700019726e+00 
228200 4.4289931289e+00 7.0534220412e-05 1.4260563038e+00 -2.4700019726e+00 1.4260563038e+00 2.4700019726e+00 
228300 4.4289931288e+00 7.0571760919e-05 1.4260563038e+00 -2.4700019726e+00 1.4260563038e+00 2.4700019726e+00 
228400 4.4289931286e+00 7.0609380921e-05 1.4260563038e+00 -2.4700019726e+00 1.4260563038e+00 2.4700019726e+00 
228500 4.4289931285e+00 7.0647063443e-05 1.4260563038e+00 -2.4700019726e+00 1.4260563038e+00 2.4700019726e+00 
228600 4.4289931283e+00 7.0684793453e-05 1.4260563038e+00 -2.4700019726e+00 1.4260563038e+00 2.4700019726e+00 
228700 4.4289931282e+00 7.0722557630e-05 1.4260563038e+00 -2.4700019726e+00 1.4260563038e+00 2.4700019726e+00 
228800 4.4289931278e+00 7.0298913104e-05 1.4260538241e+00 -2.4699976777e+00 1.4260538241e+00 2.4699976777e+00 
228900 4.4289931277e+00 7.0334376717e-05 1.4260538241e+00 -2.4699976777e+00 1.4260538241e+00 2.4699976777e+00 
229000 4.4289931275e+00 7.0370081933e-05 1.4260538241e+00 -2.4699976777e+00 1.4260538241e+00 2.4699976777e+00 
229100 4.4289931274e+00 7.0405993024e-05 1.4260538241e+00 -2.4699976777e+00 1.4260538241e+00 2.4699976777e+00 
229200 4.4289931272e+00 7.0442078499e-05 1.4260538241e+00 -2.4699976777e+00 1.4260538241e+00 2.4699976777e+00 
229300 4.4289931271e+00 7.0478310584e-05 1.4260538241e+00 -2.4699976777e+00 1.4260538241e+00 2.4699976777e+00 
229400 4.4289931269e+00 7.0514664767e-05 1.4260538241e+00 -2.4699976777e+00 1.4260538241e+00 2.4699976777e+00 
229500 4.4289931268e+00 7.0551119396e-05 1.4260538241e+00 -2.4699976777e+00 1.4260538241e+00 2.4699976777e+00 
229600 4.4289931266e+00 7.0587655337e-05 1.4260538241e+00 -2.4699976777e+00 1.4260538241e+00 2.4699976777e+00 
229700 4.4289931265e+00 7.0624255659e-05 1.4260538241e+00 -2.4699976777e+00 1.4260538241e+00 2.4699976777e+00 
229800 4.4289931264e+00 7.0660905377e-05 1.4260538241e+00 -2.4699976777e+00 1.4260538241e+00 2.4699976777e+00 
229900 4.4289931262e+00 7.0697591206e-05 1.4260538241e+00 -2.4699976777e+00 1.4260538241e+00 2.4699976777e+00 
230000 4.4289931261e+00 7.0734301366e-05 1.4260538241e+00 -2.4699976777e+00 1.4260538241e+00 2.4699976777e+00 
230100 4.4289931257e+00 7.0309568060e-05 1.4260513441e+00 -2.4699933821e+00 1.4260513441e+00 2.4699933821e+00 
230200 4.4289931256e+00 7.0343961749e-05 1.4260513441e+00 -2.4699933821e+00 1.4260513441e+00 2.4699933821e+00 
230300 4.4289931254e+00 7.0378590821e-05 1.4260513441e+00 -2.4699933821e+00 1.4260513441e+00 2.4699933821e+00 
230400 4.4289931253e+00 7.0413420478e-05 1.4260513441e+00 -2.4699933821e+00 1.4260513441e+00 2.4699933821e+00 
230500 4.4289931251e+00 7.0448420049e-05 1.4260513441e+00 -2.4699933821e+00 1.4260513441e+00 2.4699933821e+00 
230600 4.4289931250e+00 7.0483562487e-05 1.4260513441e+00 -2.4699933821e+00 1.4260513441e+00 2.4699933821e+00 
230700 4.4289931249e+00 7.0518823920e-05 1.4260513441e+00 -2.4699933821e+00 1.4260513441e+00 2.4699933821e+00 
230800 4.4289931247e+00 7.0554183266e-05 1.4260513441e+00 -2.4699933821e+00 1.4260513441e+00 2.4699933821e+00 
230900 4.4289931246e+00 7.0589621895e-05 1.4260513441e+00 -2.4699933821e+00 1.4260513441e+00 2.4699933821e+00 
231000 4.4289931245e+00 7.0625123324e-05 1.4260513441e+00 -2.4699933821e+00 1.4260513441e+00 2.4699933821e+00 
231100 4.4289931243e+00 7.0660672963e-05 1.4260513441e+00 -2.4699933821e+00 1.4260513441e+00 2.4699933821e+00 
231200 4.4289931242e+00 7.0696257883e-05 1.4260513441e+00 -2.4699933821e+00 1.4260513441e+00 2.4699933821e+00 
231300 4.4289931241e+00 7.0731866616e-05 1.4260513441e+00 -2.4699933821e+00 1.4260513441e+00 2.4699933821e+00 
231400 4.4289931237e+00 7.0306096318e-05 1.4260488641e+00 -2.4699890867e+00 1.4260488641e+00 2.4699890867e+00 
231500 4.4289931236e+00 7.0339388676e-05 1.4260488641e+00 -2.4699890867e+00 1.4260488641e+00 2.4699890867e+00 
231600 4.4289931234e+00 7.0372916617e-05 1.4260488641e+00 -2.4699890867e+00 1.4260488641e+00 2.4699890867e+00 
231700 4.4289931233e+00 7.0406645546e-05 1.4260488641e+00 -2.4699890867e+00 1.4260488641e+00 2.4699890867e+00 
231800 4.4289931232e+00 7.0440544976e-05 1.4260488641e+00 -2.4699890867e+00 1.4260488641e+00 2.4699890867e+00 
231900 4.4289931230e+00 7.0474588023e-05 1.4260488641e+00 -2.4699890867e+00 1.4260488641e+00 2.4699890867e+00 
232000 4.4289931229e+00 7.0508750962e-05 1.4260488641e+00 -2.4699890867e+00 1.4260488641e+00 2.4699890867e+00 
232100 4.4289931228e+00 7.0543012844e-05 1.4260488641e+00 -2.4699890867e+00 1.4260488641e+00 2.4699890867e+00 
232200 4.4289931227e+00 7.0577355157e-05 1.4260488641e+00 -2.4699890867e+00 1.4260488641e+00 2.4699890867e+00 
232300 4.4289931225e+00 7.0611761526e-05 1.4260488641e+00 -2.4699890867e+00 1.4260488641e+00 2.4699890867e+00 
232400 4.4289931224e+00 7.0646217460e-05 1.4260488641e+00 -2.4699890867e+00 1.4260488641e+00 2.4699890867e+00 
232500 4.4289931223e+00 7.0680710115e-05 1.4260488641e+00 -2.4699890867e+00 1.4260488641e+00 2.4699890867e+00 
232600 4.4289931222e+00 7.0715228106e-05 1.4260488641e+00 -2.4699890867e+00 1.4260488641e+00 2.4699890867e+00 
232700 4.4289931218e+00 7.0288524469e-05 1.4260463847e+00 -2.4699847922e+00 1.4260463847e+00 2.4699847922e+00 
232800 4.4289931217e+00 7.0320730117e-05 1.4260463847e+00 -2.4699847922e+00 1.4260463847e+00 2.4699847922e+00 
232900 4.4289931215e+00 7.0353172985e-05 1.4260463847e+00 -2.4699847922e+00 1.4260463847e+00 2.4699847922e+00 
233000 4.4289931214e+00 7.0385818540e-05 1.4260463847e+00 -2.4699847922e+00 1.4260463847e+00 2.4699847922e+00 
233100 4.4289931213e+00 7.0418636353e-05 1.4260463847e+00 -2.4699847922e+00 1.4260463847e+00 2.4699847922e+00 
233200 4.4289931212e+00 7.0451599593e-05 1.4260463847e+00 -2.4699847922e+00 1.4260463847e+00 2.4699847922e+00 
233300 4.4289931211e+00 7.0484684582e-05 1.4260463847e+00 -2.4699847922e+00 1.4260463847e+00 2.4699847922e+00 
233400 4.4289931209e+00 7.0517870416e-05 1.4260463847e+00 -2.4699847922e+00 1.4260463847e+00 2.4699847922e+00 
233500 4.4289931208e+00 7.0551138623e-05 1.4260463847e+00 -2.4699847922e+00 1.4260463847e+00 2.4699847922e+00 
233600 4.4289931207e+00 7.0584472864e-05 1.4260463847e+00 -2.4699847922e+00 1.4260463847e+00 2.4699847922e+00 
233700 4.4289931206e+00 7.0617858680e-05 1.4260463847e+00 -2.4699847922e+00 1.4260463847e+00 2.4699847922e+00 
233800 4.4289931205e+00 7.0651283261e-05 1.4260463847e+00 -2.4699847922e+00 1.4260463847e+00 2.4699847922e+00 
233900 4.4289931204e+00 7.0684735247e-05 1.4260463847e+00 -2.4699847922e+00 1.4260463847e+00 2.4699847922e+00 
234000 4.4289931202e+00 7.0718204556e-05 1.4260463847e+00 -2.4699847922e+00 1.4260463847e+00 2.4699847922e+00 
234100 4.4289931199e+00 7.0290475361e-05 1.4260439052e+00 -2.4699804976e+00 1.4260439052e+00 2.4699804976e+00 
234200 4.4289931198e+00 7.0321619754e-05 1.4260439052e+00 -2.4699804976e+00 1.4260439052e+00 2.4699804976e+00 
234300 4.4289931196e+00 7.0352996391e-05 1.4260439052e+00 -2.4699804976e+00 1.4260439052e+00 2.4699804976e+00 
234400 4.4289931195e+00 7.0384571530e-05 1.4260439052e+00 -2.4699804976e+00 1.4260439052e+00 2.4699804976e+00 
234500 4.4289931194e+00 7.0416315442e-05 1.4260439052e+00 -2.4699804976e+00 1.4260439052e+00 2.4699804976e+00 
234600 4.4289931193e+00 7.0448201911e-05 1.4260439052e+00 -2.4699804976e+00 1.4260439052e+00 2.4699804976e+00 
234700 4.4289931192e+00 7.0480207809e-05 1.4260439052e+00 -2.4699804976e+00 1.4260439052e+00 2.4699804976e+00 
234800 4.4289931191e+00 7.0512312714e-05 1.4260439052e+00 -2.4699804976e+00 1.4260439052e+00 2.4699804976e+00 
234900 4.4289931190e+00 7.0544498583e-05 1.4260439052e+00 -2.4699804976e+00 1.4260439052e+00 2.4699804976e+00 
235000 4.4289931189e+00 7.0576749460e-05 1.4260439052e+00 -2.4699804976e+00 1.4260439052e+00 2.4699804976e+00 
235100 4.4289931187e+00 7.0609051224e-05 1.4260439052e+00 -2.4699804976e+00 1.4260439052e+00 2.4699804976e+00 
235200 4.4289931186e+00 7.0641391366e-05 1.4260439052e+00 -2.4699804976e+00 1.4260439052e+00 2.4699804976e+00 
235300 4.4289931185e+00 7.0673758793e-05 1.4260439052e+00 -2.4699804976e+00 1.4260439052e+00 2.4699804976e+00 
235400 4.4289931184e+00 7.0706143663e-05 1.4260439052e+00 -2.4699804976e+00 1.4260439052e+00 2.4699804976e+00 
235500 4.4289931183e+00 7.0738537230e-05 1.4260439052e+00 -2.4699804976e+00 1.4260439052e+00 2.4699804976e+00 
235600 4.4289931180e+00 7.0309643480e-05 1.4260414249e+00 -2.4699762017e+00 1.4260414249e+00 2.4699762017e+00 
235700 4.4289931179e+00 7.0339697861e-05 1.4260414249e+00 -2.4699762017e+00 1.4260414249e+00 2.4699762017e+00 
235800 4.4289931177e+00 7.0369979043e-05 1.4260414249e+00 -2.4699762017e+00 1.4260414249e+00 2.4699762017e+00 
235900 4.4289931176e+00 7.0400454098e-05 1.4260414249e+00 -2.4699762017e+00 1.4260414249e+00 2.4699762017e+00 
236000 4.4289931175e+00 7.0431094013e-05 1.4260414249e+00 -2.4699762017e+00 1.4260414249e+00 2.4699762017e+00 
236100 4.4289931174e+00 7.0461873211e-05 1.4260414249e+00 -2.4699762017e+00 1.4260414249e+00 2.4699762017e+00 
236200 4.4289931173e+00 7.0492769129e-05 1.4260414249e+00 -2.4699762017e+00 1.4260414249e+00 2.4699762017e+00 
236300 4.4289931172e+00 7.0523761849e-05 1.4260414249e+00 -2.4699762017e+00 1.4260414249e+00 2.4699762017e+00 
236400 4.4289931171e+00 7.0554833774e-05 1.4260414249e+00 -2.4699762017e+00 1.4260414249e+00 2.4699762017e+00 
236500 4.4289931170e+00 7.0585969349e-05 1.4260414249e+00 -2.4699762017e+00 1.4260414249e+00 2.4699762017e+00 
236600 4.4289931169e+00 7.0617154806e-05 1.4260414249e+00 -2.4699762017e+00 1.4260414249e+00 2.4699762017e+00 
236700 4.4289931168e+00 7.0648377954e-05 1.4260414249e+00 -2.4699762017e+00 1.4260414249e+00 2.4699762017e+00 
236800 4.4289931167e+00 7.0679627987e-05 1.4260414249e+00 -2.4699762017e+00 1.4260414249e+00 2.4699762017e+00 
236900 4.4289931166e+00 7.0710895315e-05 1.4260414249e+00 -2.4699762017e+00 1.4260414249e+00 2.4699762017e+00 
237000 4.4289931163e+00 7.0281109507e-05 1.4260389456e+00 -2.4699719074e+00 1.4260389456e+00 2.4699719074e+00 
237100 4.4289931162e+00 7.0310053857e-05 1.4260389456e+00 -2.4699719074e+00 1.4260389456e+00 2.4699719074e+00 
237200 4.4289931161e+00 7.0339231534e-05 1.4260389456e+00 -2.4699719074e+00 1.4260389456e+00 2.4699719074e+00 
237300 4.4289931160e+00 7.0368609124e-05 1.4260389456e+00 -2.4699719074e+00 1.4260389456e+00 2.4699719074e+00 
237400 4.4289931159e+00 7.0398157191e-05 1.4260389456e+00 -2.4699719074e+00 1.4260389456e+00 2.4699719074e+00 
237500 4.4289931158e+00 7.0427849784e-05 1.4260389456e+00 -2.4699719074e+00 1.4260389456e+00 2.4699719074e+00 
237600 4.4289931157e+00 7.0457664016e-05 1.4260389456e+00 -2.4699719074e+00 1.4260389456e+00 2.4699719074e+00 
237700 4.4289931156e+00 7.0487579680e-05 1.4260389456e+00 -2.4699719074e+00 1.4260389456e+00 2.4699719074e+00 
237800 4.4289931155e+00 7.0517578931e-05 1.4260389456e+00 -2.4699719074e+00 1.4260389456e+00 2.4699719074e+00 
237900 4.4289931154e+00 7.0547645989e-05 1.4260389456e+00 -2.4699719074e+00 1.4260389456e+00 2.4699719074e+00 
238000 4.4289931153e+00 7.0577766895e-05 1.4260389456e+00 -2.4699719074e+00 1.4260389456e+00 2.4699719074e+00 
238100 4.4289931152e+00 7.0607929287e-05 1.4260389456e+00 -2.4699719074e+00 1.4260389456e+00 2.4699719074e+00 
238200 4.4289931151e+00 7.0638122207e-05 1.4260389456e+00 -2.4699719074e+00 1.4260389456e+00 2.4699719074e+00 
238300 4.4289931150e+00 7.0668335933e-05 1.4260389456e+00 -2.4699719074e+00 1.4260389456e+00 2.4699719074e+00 
238400 4.4289931149e+00 7.0698561830e-05 1.4260389456e+00 -2.4699719074e+00 1.4260389456e+00 2.4699719074e+00 
238500 4.4289931148e+00 7.0728792222e-05 1.4260389456e+00 -2.4699719074e+00 1.4260389456e+00 2.4699719074e+00 
238600 4.4289931145e+00 7.0297892678e-05 1.4260364657e+00 -2.4699676121e+00 1.4260364657e+00 2.4699676121e+00 
238700 4.4289931144e+00 7.0325779002e-05 1.4260364657e+00 -2.4699676121e+00 1.4260364657e+00 2.4699676121e+00 
238800 4.4289931143e+00 7.0353890359e-05 1.4260364657e+00 -2.4699676121e+00 1.4260364657e+00 2.4699676121e+00 
238900 4.4289931142e+00 7.0382194489e-05 1.4260364657e+00 -2.4699676121e+00 1.4260364657e+00 2.4699676121e+00 
239000 4.4289931141e+00 7.0410662970e-05 1.4260364657e+00 -2.4699676121e+00 1.4260364657e+00 2.4699676121e+00 
239100 4.4289931140e+00 7.0439270751e-05 1.4260364657e+00 -2.4699676121e+00 1.4260364657e+00 2.4699676121e+00 
239200 4.4289931139e+00 7.0467995738e-05 1.4260364657e+00 -2.4699676121e+00 1.4260364657e+00 2.4699676121e+00 
239300 4.4289931138e+00 7.0496818431e-05 1.4260364657e+00 -2.4699676121e+00 1.4260364657e+00 2.4699676121e+00 
239400 4.4289931137e+00 7.0525721605e-05 1.4260364657e+00 -2.4699676121e+00 1.4260364657e+00 2.4699676121e+00 
239500 4.4289931136e+00 7.0554690034e-05 1.4260364657e+00 -2.4699676121e+00 1.4260364657e+00 2.4699676121e+00 
239600 4.4289931135e+00 7.0583710252e-05 1.4260364657e+00 -2.4699676121e+00 1.4260364657e+00 2.4699676121e+00 
239700 4.4289931134e+00 7.0612770331e-05 1.4260364657e+00 -2.4699676121e+00 1.4260364657e+00 2.4699676121e+00 
239800 4.4289931134e+00 7.0641859703e-05 1.4260364657e+00 -2.4699676121e+00 1.4260364657e+00 2.4699676121e+00 
239900 4.4289931133e+00 7.0670968993e-05 1.4260364657e+00 -2.4699676121e+00 1.4260364657e+00 2.4699676121e+00 
240000 4.4289931132e+00 7.0700089874e-05 1.4260364657e+00 -2.4699676121e+00 1.4260364657e+00 2.4699676121e+00 
240100 4.4289931131e+00 7.0729214946e-05 1.4260364657e+00 -2.4699676121e+00 1.4260364657e+00 2.4699676121e+00 
240200 4.4289931128e+00 7.0297256356e-05 1.4260339858e+00 -2.4699633168e+00 1.4260339858e+00 2.4699633168e+00 
240300 4.4289931127e+00 7.0324037692e-05 1.4260339858e+00 -2.4699633168e+00 1.4260339858e+00 2.4699633168e+00 
240400 4.4289931126e+00 7.0351044399e-05 1.4260339858e+00 -2.4699633168e+00 1.4260339858e+00 2.4699633168e+00 
240500 4.4289931125e+00 7.0378244393e-05 1.4260339858e+00 -2.4699633168e+00 1.4260339858e+00 2.4699633168e+00 
240600 4.4289931124e+00 7.0405609417e-05 1.4260339858e+00 -2.4699633168e+00 1.4260339858e+00 2.4699633168e+00 
240700 4.4289931123e+00 7.0433114568e-05 1.4260339858e+00 -2.4699633168e+00 1.4260339858e+00 2.4699633168e+00 
240800 4.4289931122e+00 7.0460737884e-05 1.4260339858e+00 -2.4699633168e+00 1.4260339858e+00 2.4699633168e+00 
240900 4.4289931122e+00 7.0488459982e-05 1.4260339858e+00 -2.4699633168e+00 1.4260339858e+00 2.4699633168e+00 
241000 4.4289931121e+00 7.0516263748e-05 1.4260339858e+00 -2.4699633168e+00 1.4260339858e+00 2.4699633168e+00 
241100 4.4289931120e+00 7.0544134055e-05 1.4260339858e+00 -2.4699633168e+00 1.4260339858e+00 2.4699633168e+00 
241200 4.4289931119e+00 7.0572057524e-05 1.4260339858e+00 -2.4699633168e+00 1.4260339858e+00 2.4699633168e+00 
241300 4.4289931118e+00 7.0600022309e-05 1.4260339858e+00 -2.4699633168e+00 1.4260339858e+00 2.4699633168e+00 
241400 4.4289931117e+00 7.0628017918e-05 1.4260339858e+00 -2.4699633168e+00 1.4260339858e+00 2.4699633168e+00 
241500 4.4289931117e+00 7.0656035040e-05 1.4260339858e+00 -2.4699633168e+00 1.4260339858e+00 2.4699633168e+00 
241600 4.4289931116e+00 7.0684065414e-05 1.4260339858e+00 -2.4699633168e+00 1.4260339858e+00 2.4699633168e+00 
241700 4.4289931115e+00 7.0712101693e-05 1.4260339858e+00 -2.4699633168e+00 1.4260339858e+00 2.4699633168e+00 
241800 4.4289931112e+00 7.0279214863e-05 1.4260315065e+00 -2.4699590224e+00 1.4260315065e+00 2.4699590224e+00 
241900 4.4289931111e+00 7.0304911783e-05 1.4260315065e+00 -2.4699590224e+00 1.4260315065e+00 2.4699590224e+00 
242000 4.4289931110e+00 7.0330835845e-05 1.4260315065e+00 -2.4699590224e+00 1.4260315065e+00 2.4699590224e+00 
242100 4.4289931109e+00 7.0356955017e-05 1.4260315065e+00 -2.4699590224e+00 1.4260315065e+00 2.4699590224e+00 
242200 4.4289931109e+00 7.0383241086e-05 1.4260315065e+00 -2.4699590224e+00 1.4260315065e+00 2.4699590224e+00 
242300 4.4289931108e+00 7.0409669189e-05 1.4260315065e+00 -2.4699590224e+00 1.4260315065e+00 2.4699590224e+00 
242400 4.4289931107e+00 7.0436217403e-05 1.4260315065e+00 -2.4699590224e+00 1.4260315065e+00 2.4699590224e+00 
242500 4.4289931106e+00 7.0462866379e-05 1.4260315065e+00 -2.4699590224e+00 1.4260315065e+00 2.4699590224e+00 
242600 4.4289931105e+00 7.0489599035e-05 1.4260315065e+00 -2.4699590224e+00 1.4260315065e+00 2.4699590224e+00 
242700 4.4289931105e+00 7.0516400273e-05 1.4260315065e+00 -2.4699590224e+00 1.4260315065e+00 2.4699590224e+00 
242800 4.4289931104e+00 7.0543256741e-05 1.4260315065e+00 -2.4699590224e+00 1.4260315065e+00 2.4699590224e+00 
242900 4.4289931103e+00 7.0570156619e-05 1.4260315065e+00 -2.4699590224e+00 1.4260315065e+00 2.4699590224e+00 
243000 4.4289931102e+00 7.0597089434e-05 1.4260315065e+00 -2.4699590224e+00 1.4260315065e+00 2.4699590224e+00 
243100 4.4289931102e+00 7.0624045899e-05 1.4260315065e+00 -2.4699590224e+00 1.4260315065e+00 2.4699590224e+00 
243200 4.4289931101e+00 7.0651017770e-05 1.4260315065e+00 -2.4699590224e+00 1.4260315065e+00 2.4699590224e+00 
243300 4.4289931100e+00 7.0677997720e-05 1.4260315065e+00 -2.4699590224e+00 1.4260315065e+00 2.4699590224e+00 
243400 4.4289931099e+00 7.0704979230e-05 1.4260315065e+00 -2.4699590224e+00 1.4260315065e+00 2.4699590224e+00 
243500 4.4289931099e+00 7.0731956495e-05 1.4260315065e+00 -2.4699590224e+00 1.4260315065e+00 2.4699590224e+00 
243600 4.4289931095e+00 7.0297923642e-05 1.4260290265e+00 -2.4699547269e+00 1.4260290265e+00 2.4699547269e+00 
243700 4.4289931095e+00 7.0322544750e-05 1.4260290265e+00 -2.4699547269e+00 1.4260290265e+00 2.4699547269e+00 
243800 4.4289931094e+00 7.0347386498e-05 1.4260290265e+00 -2.4699547269e+00 1.4260290265e+00 2.4699547269e+00 
243900 4.4289931093e+00 7.0372417787e-05 1.4260290265e+00 -2.4699547269e+00 1.4260290265e+00 2.4699547269e+00 
244000 4.4289931092e+00 7.0397611226e-05 1.4260290265e+00 -2.4699547269e+00 1.4260290265e+00 2.4699547269e+00 
244100 4.4289931092e+00 7.0422942683e-05 1.4260290265e+00 -2.4699547269e+00 1.4260290265e+00 2.4699547269e+00 
244200 4.4289931091e+00 7.0448390880e-05 1.4260290265e+00 -2.4699547269e+00 1.4260290265e+00 2.4699547269e+00 
244300 4.4289931090e+00 7.0473937045e-05 1.4260290265e+00 -2.4699547269e+00 1.4260290265e+00 2.4699547269e+00 
244400 4.4289931090e+00 7.0499564604e-05 1.4260290265e+00 -2.4699547269e+00 1.4260290265e+00 2.4699547269e+00 
244500 4.4289931089e+00 7.0525258915e-05 1.4260290265e+00 -2.4699547269e+00 1.4260290265e+00 2.4699547269e+00 
244600 4.4289931088e+00 7.0551007027e-05 1.4260290265e+00 -2.4699547269e+00 1.4260290265e+00 2.4699547269e+00 
244700 4.4289931087e+00 7.0576797484e-05 1.4260290265e+00 -2.4699547269e+00 1.4260290265e+00 2.4699547269e+00 
244800 4.4289931087e+00 7.0602620133e-05 1.4260290265e+00 -2.4699547269e+00 1.4260290265e+00 2.4699547269e+00 
244900 4.4289931086e+00 7.0628465976e-05 1.4260290265e+00 -2.4699547269e+00 1.4260290265e+00 2.4699547269e+00 
245000 4.4289931085e+00 7.0654327026e-05 1.4260290265e+00 -2.4699547269e+00 1.4260290265e+00 2.4699547269e+00 
245100 4.4289931085e+00 7.0680196186e-05 1.4260290265e+00 -2.4699547269e+00 1.4260290265e+00 2.4699547269e+00 
245200 4.4289931084e+00 7.0706067147e-05 1.4260290265e+00 -2.4699547269e+00 1.4260290265e+00 2.4699547269e+00 
245300 4.4289931083e+00 7.0731934290e-05 1.4260290265e+00 -2.4699547269e+00 1.4260290265e+00 2.4699547269e+00 
245400 4.4289931080e+00 7.0296841090e-05 1.4260265464e+00 -2.4699504314e+00 1.4260265464e+00 2.4699504314e+00 
245500 4.4289931079e+00 7.0320353655e-05 1.4260265464e+00 -2.4699504314e+00 1.4260265464e+00 2.4699504314e+00 
245600 4.4289931079e+00 7.0344087716e-05 1.4260265464e+00 -2.4699504314e+00 1.4260265464e+00 2.4699504314e+00 
245700 4.4289931078e+00 7.0368012298e-05 1.4260265464e+00 -2.4699504314e+00 1.4260265464e+00 2.4699504314e+00 
245800 4.4289931077e+00 7.0392100126e-05 1.4260265464e+00 -2.4699504314e+00 1.4260265464e+00 2.4699504314e+00 
245900 4.4289931077e+00 7.0416327172e-05 1.4260265464e+00 -2.4699504314e+00 1.4260265464e+00 2.4699504314e+00 
246000 4.4289931076e+00 7.0440672253e-05 1.4260265464e+00 -2.4699504314e+00 1.4260265464e+00 2.4699504314e+00 
246100 4.4289931075e+00 7.0465116684e-05 1.4260265464e+00 -2.4699504314e+00 1.4260265464e+00 2.4699504314e+00 
246200 4.4289931075e+00 7.0489643970e-05 1.4260265464e+00 -2.4699504314e+00 1.4260265464e+00 2.4699504314e+00 
246300 4.4289931074e+00 7.0514239540e-05 1.4260265464e+00 -2.4699504314e+00 1.4260265464e+00 2.4699504314e+00 
246400 4.4289931073e+00 7.0538890510e-05 1.4260265464e+00 -2.4699504314e+00 1.4260265464e+00 2.4699504314e+00 
246500 4.4289931073e+00 7.0563585483e-05 1.4260265464e+00 -2.4699504314e+00 1.4260265464e+00 2.4699504314e+00 
246600 4.4289931072e+00 7.0588314364e-05 1.4260265464e+00 -2.4699504314e+00 1.4260265464e+00 2.4699504314e+00 
246700 4.4289931072e+00 7.0613068203e-05 1.4260265464e+00 -2.4699504314e+00 1.4260265464e+00 2.4699504314e+00 
246800 4.4289931071e+00 7.0637839061e-05 1.4260265464e+00 -2.4699504314e+00 1.4260265464e+00 2.4699504314e+00 
246900 4.4289931070e+00 7.0662619885e-05 1.4260265464e+00 -2.4699504314e+00 1.4260265464e+00 2.4699504314e+00 
247000 4.4289931070e+00 7.0687404405e-05 1.4260265464e+00 -2.4699504314e+00 1.4260265464e+00 2.4699504314e+00 
247100 4.4289931069e+00 7.0712187037e-05 1.4260265464e+00 -2.4699504314e+00 1.4260265464e+00 2.4699504314e+00 
247200 4.4289931066e+00 7.0276186937e-05 1.4260240671e+00 -2.4699461370e+00 1.4260240671e+00 2.4699461370e+00 
247300 4.4289931065e+00 7.0298619835e-05 1.4260240671e+00 -2.4699461370e+00 1.4260240671e+00 2.4699461370e+00 
247400 4.4289931065e+00 7.0321276159e-05 1.4260240671e+00 -2.4699461370e+00 1.4260240671e+00 2.4699461370e+00 
247500 4.4289931064e+00 7.0344124973e-05 1.4260240671e+00 -2.4699461370e+00 1.4260240671e+00 2.4699461370e+00 
247600 4.4289931063e+00 7.0367139034e-05 1.4260240671e+00 -2.4699461370e+00 1.4260240671e+00 2.4699461370e+00 
247700 4.4289931063e+00 7.0390294347e-05 1.4260240671e+00 -2.4699461370e+00 1.4260240671e+00 2.4699461370e+00 
247800 4.4289931062e+00 7.0413569756e-05 1.4260240671e+00 -2.4699461370e+00 1.4260240671e+00 2.4699461370e+00 
247900 4.4289931062e+00 7.0436946603e-05 1.4260240671e+00 -2.4699461370e+00 1.4260240671e+00 2.4699461370e+00 
248000 4.4289931061e+00 7.0460408414e-05 1.4260240671e+00 -2.4699461370e+00 1.4260240671e+00 2.4699461370e+00 
248100 4.4289931060e+00 7.0483940643e-05 1.4260240671e+00 -2.4699461370e+00 1.4260240671e+00 2.4699461370e+00 
248200 4.4289931060e+00 7.0507530425e-05 1.4260240671e+00 -2.4699461370e+00 1.4260240671e+00 2.4699461370e+00 
248300 4.4289931059e+00 7.0531166380e-05 1.4260240671e+00 -2.4699461370e+00 1.4260240671e+00 2.4699461370e+00 
248400 4.4289931059e+00 7.0554838431e-05 1.4260240671e+00 -2.4699461370e+00 1.4260240671e+00 2.4699461370e+00 
248500 4.4289931058e+00 7.0578537644e-05 1.4260240671e+00 -2.4699461370e+00 1.4260240671e+00 2.4699461370e+00 
248600 4.4289931057e+00 7.0602256093e-05 1.4260240671e+00 -2.4699461370e+00 1.4260240671e+00 2.4699461370e+00 
248700 4.4289931057e+00 7.0625986739e-05 1.4260240671e+00 -2.4699461370e+00 1.4260240671e+00 2.4699461370e+00 
248800 4.4289931056e+00 7.0649723322e-05 1.4260240671e+00 -2.4699461370e+00 1.4260240671e+00 2.4699461370e+00 
248900 4.4289931056e+00 7.0673460271e-05 1.4260240671e+00 -2.4699461370e+00 1.4260240671e+00 2.4699461370e+00 
249000 4.4289931055e+00 7.0697192621e-05 1.4260240671e+00 -2.4699461370e+00 1.4260240671e+00 2.4699461370e+00 
249100 4.4289931054e+00 7.0720915940e-05 1.4260240671e+00 -2.4699461370e+00 1.4260240671e+00 2.4699461370e+00 
249200 4.4289931051e+00 7.0283843539e-05 1.4260215874e+00 -2.4699418421e+00 1.4260215874e+00 2.4699418421e+00 
249300 4.4289931051e+00 7.0305205725e-05 1.4260215874e+00 -2.4699418421e+00 1.4260215874e+00 2.4699418421e+00 
249400 4.4289931050e+00 7.0326786904e-05 1.4260215874e+00 -2.4699418421e+00 1.4260215874e+00 2.4699418421e+00 
249500 4.4289931050e+00 7.0348556842e-05 1.4260215874e+00 -2.4699418421e+00 1.4260215874e+00 2.4699418421e+00 
249600 4.4289931049e+00 7.0370488919e-05 1.4260215874e+00 -2.4699418421e+00 1.4260215874e+00 2.4699418421e+00 
249700 4.4289931049e+00 7.0392559691e-05 1.4260215874e+00 -2.4699418421e+00 1.4260215874e+00 2.4699418421e+00 
249800 4.4289931048e+00 7.0414748493e-05 1.4260215874e+00 -2.4699418421e+00 1.4260215874e+00 2.4699418421e+00 
249900 4.4289931048e+00 7.0437037100e-05 1.4260215874e+00 -2.4699418421e+00 1.4260215874e+00 2.4699418421e+00 
250000 4.4289931047e+00 7.0459409429e-05 1.4260215874e+00 -2.4699418421e+00 1.4260215874e+00 2.4699418421e+00 
250100 4.4289931046e+00 7.0481851276e-05 1.4260215874e+00 -2.4699418421e+00 1.4260215874e+00 2.4699418421e+00 
250200 4.4289931046e+00 7.0504350084e-05 1.4260215874e+00 -2.4699418421e+00 1.4260215874e+00 2.4699418421e+00 
250300 4.4289931045e+00 7.0526894750e-05 1.4260215874e+00 -2.4699418421e+00 1.4260215874e+00 2.4699418421e+00 
250400 4.4289931045e+00 7.0549475440e-05 1.4260215874e+00 -2.4699418421e+00 1.4260215874e+00 2.4699418421e+00 
250500 4.4289931044e+00 7.0572083442e-05 1.4260215874e+00 -2.4699418421e+00 1.4260215874e+00 2.4699418421e+00 
250600 4.4289931044e+00 7.0594711026e-05 1.4260215874e+00 -2.4699418421e+00 1.4260215874e+00 2.4699418421e+00 
250700 4.4289931043e+00 7.0617351331e-05 1.4260215874e+00 -2.4699418421e+00 1.4260215874e+00 2.4699418421e+00 
250800 4.4289931043e+00 7.0639998256e-05 1.4260215874e+00 -2.4699418421e+00 1.4260215874e+00 2.4699418421e+00 
250900 4.4289931042e+00 7.0662646374e-05 1.4260215874e+00 -2.4699418421e+00 1.4260215874e+00 2.4699418421e+00 
251000 4.4289931042e+00 7.0685290849e-05 1.4260215874e+00 -2.4699418421e+00 1.4260215874e+00 2.4699418421e+00 
251100 4.4289931041e+00 7.0707927366e-05 1.4260215874e+00 -2.4699418421e+00 1.4260215874e+00 2.4699418421e+00 
251200 4.4289931041e+00 7.0730552074e-05 1.4260215874e+00 -2.4699418421e+00 1.4260215874e+00 2.4699418421e+00 
251300 4.4289931038e+00 7.0292366090e-05 1.4260191074e+00 -2.4699375467e+00 1.4260191074e+00 2.4699375467e+00 
251400 4.4289931037e+00 7.0312625515e-05 1.4260191074e+00 -2.4699375467e+00 1.4260191074e+00 2.4699375467e+00 
251500 4.4289931037e+00 7.0333102532e-05 1.4260191074e+00 -2.4699375467e+00 1.4260191074e+00 2.4699375467e+00 
251600 4.4289931036e+00 7.0353767267e-05 1.4260191074e+00 -2.4699375467e+00 1.4260191074e+00 2.4699375467e+00 
251700 4.4289931036e+00 7.0374593424e-05 1.4260191074e+00 -2.4699375467e+00 1.4260191074e+00 2.4699375467e+00 
251800 4.4289931035e+00 7.0395557845e-05 1.4260191074e+00 -2.4699375467e+00 1.4260191074e+00 2.4699375467e+00 
251900 4.4289931034e+00 7.0416640121e-05 1.4260191074e+00 -2.4699375467e+00 1.4260191074e+00 2.4699375467e+00 
252000 4.4289931034e+00 7.0437822260e-05 1.4260191074e+00 -2.4699375467e+00 1.4260191074e+00 2.4699375467e+00 
252100 4.4289931033e+00 7.0459088384e-05 1.4260191074e+00 -2.4699375467e+00 1.4260191074e+00 2.4699375467e+00 
252200 4.4289931033e+00 7.0480424474e-05 1.4260191074e+00 -2.4699375467e+00 1.4260191074e+00 2.4699375467e+00 
252300 4.4289931032e+00 7.0501818143e-05 1.4260191074e+00 -2.4699375467e+00 1.4260191074e+00 2.4699375467e+00 
252400 4.4289931032e+00 7.0523258437e-05 1.4260191074e+00 -2.4699375467e+00 1.4260191074e+00 2.4699375467e+00 
252500 4.4289931032e+00 7.0544735658e-05 1.4260191074e+00 -2.4699375467e+00 1.4260191074e+00 2.4699375467e+00 
252600 4.4289931031e+00 7.0566241217e-05 1.4260191074e+00 -2.4699375467e+00 1.4260191074e+00 2.4699375467e+00 
252700 4.4289931031e+00 7.0587767496e-05 1.4260191074e+00 -2.4699375467e+00 1.4260191074e+00 2.4699375467e+00 
252800 4.4289931030e+00 7.0609307734e-05 1.4260191074e+00 -2.4699375467e+00 1.4260191074e+00 2.4699375467e+00 
252900 4.4289931030e+00 7.0626545915e-05 1.4260191074e+00 -2.4699375467e+00 1.4260191074e+00 2.4699375467e+00 
252900 4.4289931030e+00 7.0626545915e-05 1.4260191074e+00 -2.4699375467e+00 1.4260191074e+00 2.4699375467e+00 
