# step Hamiltonian StressXX CellTensor1 CellTensor2 CellTensor3 CellTensor4 
0 6.1371847033e+00 -7.8165332048e-02 1.6087831444e+00 -2.7864941444e+00 1.6087831444e+00 2.7864941444e+00 
100 6.1362370903e+00 -7.8767203797e-02 1.6087831444e+00 -2.7864941444e+00 1.6087831444e+00 2.7864941444e+00 
200 6.1352173297e+00 -7.6960560543e-02 1.6112318010e+00 -2.7907353420e+00 1.6112318010e+00 2.7907353420e+00 
300 6.1343607648e+00 -7.5267614485e-02 1.6136206424e+00 -2.7948729367e+00 1.6136206424e+00 2.7948729367e+00 
400 6.1336546938e+00 -7.3682913730e-02 1.6159534621e+00 -2.7989134989e+00 1.6159534621e+00 2.7989134989e+00 
500 6.1330865552e+00 -7.2201190536e-02 1.6182338562e+00 -2.8028632574e+00 1.6182338562e+00 2.8028632574e+00 
600 6.1326439891e+00 -7.0817349061e-02 1.6204652319e+00 -2.8067281136e+00 1.6204652319e+00 2.8067281136e+00 
700 6.1323148950e+00 -6.9526454123e-02 1.6226508155e+00 -2.8105136554e+00 1.6226508155e+00 2.8105136554e+00 
800 6.1320874843e+00 -6.8323720903e-02 1.6247936589e+00 -2.8142251691e+00 1.6247936589e+00 2.8142251691e+00 
900 6.1319503284e+00 -6.7204505542e-02 1.6268966471e+00 -2.8178676515e+00 1.6268966471e+00 2.8178676515e+00 
1000 6.1318924017e+00 -6.6164296578e-02 1.6289625038e+00 -2.8214458203e+00 1.6289625038e+00 2.8214458203e+00 
1100 6.1319031204e+00 -6.5198707207e-02 1.6309937976e+00 -2.8249641243e+00 1.6309937976e+00 2.8249641243e+00 
1200 6.1319723754e+00 -6.4303468322e-02 1.6329929471e+00 -2.8284267527e+00 1.6329929471e+00 2.8284267527e+00 
1300 6.1320905612e+00 -6.3474422328e-02 1.6349622261e+00 -2.8318376440e+00 1.6349622261e+00 2.8318376440e+00 
1400 6.1322485995e+00 -6.2707517693e-02 1.6369037684e+00 -2.8352004940e+00 1.6369037684e+00 2.8352004940e+00 
1500 6.1324379580e+00 -6.1998804222e-02 1.6388195723e+00 -2.8385187637e+00 1.6388195723e+00 2.8385187637e+00 
1600 6.1326506650e+00 -6.1344429020e-02 1.6407115047e+00 -2.8417956868e+00 1.6407115047e+00 2.8417956868e+00 
1700 6.1328793188e+00 -6.0740633119e-02 1.6425813053e+00 -2.8450342763e+00 1.6425813053e+00 2.8450342763e+00 
1800 6.1331170935e+00 -6.0183748738e-02 1.6444305902e+00 -2.8482373317e+00 1.6444305902e+00 2.8482373317e+00 
1900 6.1333577402e+00 -5.9670197137e-02 1.6462608559e+00 -2.8514074449e+00 1.6462608559e+00 2.8514074449e+00 
2000 6.1335955843e+00 -5.9196487026e-02 1.6480734827e+00 -2.8545470067e+00 1.6480734827e+00 2.8545470067e+00 
2100 6.1338255199e+00 -5.8759213497e-02 1.6498697384e+00 -2.8576582128e+00 1.6498697384e+00 2.8576582128e+00 
2200 6.1340429993e+00 -5.8355057423e-02 1.6516507812e+00 -2.8607430694e+00 1.6516507812e+00 2.8607430694e+00 
2300 6.1342440215e+00 -5.7980785293e-02 1.6534176634e+00 -2.8638033992e+00 1.6534176634e+00 2.8638033992e+00 
2400 6.1344251157e+00 -5.7633249423e-02 1.6551713347e+00 -2.8668408470e+00 1.6551713347e+00 2.8668408470e+00 
2500 6.1345833240e+00 -5.7309388507e-02 1.6569126452e+00 -2.8698568852e+00 1.6569126452e+00 2.8698568852e+00 
2600 6.1347161811e+00 -5.7006228453e-02 1.6586423485e+00 -2.8728528193e+00 1.6586423485e+00 2.8728528193e+00 
2700 6.1348216920e+00 -5.6720883469e-02 1.6603611055e+00 -2.8758297937e+00 1.6603611055e+00 2.8758297937e+00 
2800 6.1348983085e+00 -5.6450557330e-02 1.6620694869e+00 -2.8787887969e+00 1.6620694869e+00 2.8787887969e+00 
2900 6.1349449041e+00 -5.6192544810e-02 1.6637679766e+00 -2.8817306675e+00 1.6637679766e+00 2.8817306675e+00 
3000 6.1349607477e+00 -5.5944233211e-02 1.6654569754e+00 -2.8846560992e+00 1.6654569754e+00 2.8846560992e+00 
3100 6.1349454768e+00 -5.5703103959e-02 1.6671368034e+00 -2.8875656467e+00 1.6671368034e+00 2.8875656467e+00 
3200 6.1348990698e+00 -5.5466734233e-02 1.6688077040e+00 -2.8904597315e+00 1.6688077040e+00 2.8904597315e+00 
3300 6.1348218187e+00 -5.5232798570e-02 1.6704698467e+00 -2.8933386471e+00 1.6704698467e+00 2.8933386471e+00 
3400 6.1347143005e+00 -5.4999070440e-02 1.6721233306e+00 -2.8962025652e+00 1.6721233306e+00 2.8962025652e+00 
3500 6.1345773499e+00 -5.4763423733e-02 1.6737681877e+00 -2.8990515412e+00 1.6737681877e+00 2.8990515412e+00 
3600 6.1344120316e+00 -5.4523834152e-02 1.6754043861e+00 -2.9018855199e+00 1.6754043861e+00 2.9018855199e+00 
3700 6.1342196134e+00 -5.4278380470e-02 1.6770318335e+00 -2.9047043416e+00 1.6770318335e+00 2.9047043416e+00 
3800 6.1340015397e+00 -5.4025245639e-02 1.6786503807e+00 -2.9075077474e+00 1.6786503807e+00 2.9075077474e+00 
3900 6.1337594061e+00 -5.3762717732e-02 1.6802598245e+00 -2.9102953859e+00 1.6802598245e+00 2.9102953859e+00 
4000 6.1334949346e+00 -5.3489190694e-02 1.6818599115e+00 -2.9130668180e+00 1.6818599115e+00 2.9130668180e+00 
4100 6.1332099500e+00 -5.3203164900e-02 1.6834503416e+00 -2.9158215237e+00 1.6834503416e+00 2.9158215237e+00 
4200 6.1329063571e+00 -5.2903247504e-02 1.6850307708e+00 -2.9185589073e+00 1.6850307708e+00 2.9185589073e+00 
4300 6.1325861195e+00 -5.2588152566e-02 1.6866008149e+00 -2.9212783036e+00 1.6866008149e+00 2.9212783036e+00 
4400 6.1322512396e+00 -5.2256700963e-02 1.6881600531e+00 -2.9239789832e+00 1.6881600531e+00 2.9239789832e+00 
4500 6.1319037392e+00 -5.1907820075e-02 1.6897080307e+00 -2.9266601591e+00 1.6897080307e+00 2.9266601591e+00 
4600 6.1315456422e+00 -5.1540543246e-02 1.6912442629e+00 -2.9293209913e+00 1.6912442629e+00 2.9293209913e+00 
4700 6.1311789585e+00 -5.1154009018e-02 1.6927682377e+00 -2.9319605932e+00 1.6927682377e+00 2.9319605932e+00 
4800 6.1308056689e+00 -5.0747460147e-02 1.6942794196e+00 -2.9345780369e+00 1.6942794196e+00 2.9345780369e+00 
4900 6.1304277113e+00 -5.0320242400e-02 1.6957772519e+00 -2.9371723586e+00 1.6957772519e+00 2.9371723586e+00 
5000 6.1300469690e+00 -4.9871803145e-02 1.6972611606e+00 -2.9397425640e+00 1.6972611606e+00 2.9397425640e+00 
5100 6.1296652593e+00 -4.9401689732e-02 1.6987305571e+00 -2.9422876333e+00 1.6987305571e+00 2.9422876333e+00 
5200 6.1292843241e+00 -4.8909547677e-02 1.7001848411e+00 -2.9448065270e+00 1.7001848411e+00 2.9448065270e+00 
5300 6.1289058215e+00 -4.8395118663e-02 1.7016234034e+00 -2.9472981901e+00 1.7016234034e+00 2.9472981901e+00 
5400 6.1285313186e+00 -4.7858238358e-02 1.7030456292e+00 -2.9497615574e+00 1.7030456292e+00 2.9497615574e+00 
5500 6.1281622854e+00 -4.7298834068e-02 1.7044509003e+00 -2.9521955582e+00 1.7044509003e+00 2.9521955582e+00 
5600 6.1278000900e+00 -4.6716922224e-02 1.7058385978e+00 -2.9545991209e+00 1.7058385978e+00 2.9545991209e+00 
5700 6.1274459949e+00 -4.6112605728e-02 1.7072081051e+00 -2.9569711771e+00 1.7072081051e+00 2.9569711771e+00 
5800 6.1271011542e+00 -4.5486071162e-02 1.7085588098e+00 -2.9593106662e+00 1.7085588098e+00 2.9593106662e+00 
5900 6.1267666115e+00 -4.4837585858e-02 1.7098901064e+00 -2.9616165397e+00 1.7098901064e+00 2.9616165397e+00 
6000 6.1264432996e+00 -4.4167494870e-02 1.7112013986e+00 -2.9638877644e+00 1.7112013986e+00 2.9638877644e+00 
6100 6.1261320395e+00 -4.3476217824e-02 1.7124921013e+00 -2.9661233269e+00 1.7124921013e+00 2.9661233269e+00 
6200 6.1258335422e+00 -4.2764245681e-02 1.7137616424e+00 -2.9683222368e+00 1.7137616424e+00 2.9683222368e+00 
6300 6.1255484091e+00 -4.2032137412e-02 1.7150094656e+00 -2.9704835300e+00 1.7150094656e+00 2.9704835300e+00 
6400 6.1252771348e+00 -4.1280516603e-02 1.7162350315e+00 -2.9726062722e+00 1.7162350315e+00 2.9726062722e+00 
6500 6.1250201096e+00 -4.0510067988e-02 1.7174378194e+00 -2.9746895620e+00 1.7174378194e+00 2.9746895620e+00 
6600 6.1247776226e+00 -3.9721533932e-02 1.7186173293e+00 -2.9767325332e+00 1.7186173293e+00 2.9767325332e+00 
6700 6.1245498655e+00 -3.8915710864e-02 1.7197730835e+00 -2.9787343581e+00 1.7197730835e+00 2.9787343581e+00 
6800 6.1243369369e+00 -3.8093445680e-02 1.7209046274e+00 -2.9806942497e+00 1.7209046274e+00 2.9806942497e+00 
6900 6.1241388466e+00 -3.7255632111e-02 1.7220115315e+00 -2.9826114637e+00 1.7220115315e+00 2.9826114637e+00 
7000 6.1239555206e+00 -3.6403207073e-02 1.7230933921e+00 -2.9844853013e+00 1.7230933921e+00 2.9844853013e+00 
7100 6.1237868059e+00 -3.5537147014e-02 1.7241498329e+00 -2.9863151105e+00 1.7241498329e+00 2.9863151105e+00 
7200 6.1236324763e+00 -3.4658464243e-02 1.7251805057e+00 -2.9881002881e+00 1.7251805057e+00 2.9881002881e+00 
7300 6.1234922376e+00 -3.3768203284e-02 1.7261850912e+00 -2.9898402812e+00 1.7261850912e+00 2.9898402812e+00 
7400 6.1233657331e+00 -3.2867437222e-02 1.7271633000e+00 -2.9915345886e+00 1.7271633000e+00 2.9915345886e+00 
7500 6.1232525496e+00 -3.1957264087e-02 1.7281148734e+00 -2.9931827621e+00 1.7281148734e+00 2.9931827621e+00 
7600 6.1231522229e+00 -3.1038803255e-02 1.7290395837e+00 -2.9947844073e+00 1.7290395837e+00 2.9947844073e+00 
7700 6.1230642436e+00 -3.0113191887e-02 1.7299372349e+00 -2.9963391847e+00 1.7299372349e+00 2.9963391847e+00 
7800 6.1229880627e+00 -2.9181581411e-02 1.7308076629e+00 -2.9978468102e+00 1.7308076629e+00 2.9978468102e+00 
7900 6.1229230973e+00 -2.8245134051e-02 1.7316507360e+00 -2.9993070557e+00 1.7316507360e+00 2.9993070557e+00 
8000 6.1228687363e+00 -2.7305019412e-02 1.7324663552e+00 -3.0007197495e+00 1.7324663552e+00 3.0007197495e+00 
8100 6.1228243454e+00 -2.6362411124e-02 1.7332544538e+00 -3.0020847765e+00 1.7332544538e+00 3.0020847765e+00 
8200 6.1227892727e+00 -2.5418483560e-02 1.7340149982e+00 -3.0034020779e+00 1.7340149982e+00 3.0034020779e+00 
8300 6.1227628535e+00 -2.4474408619e-02 1.7347479870e+00 -3.0046716519e+00 1.7347479870e+00 3.0046716519e+00 
8400 6.1227444152e+00 -2.3531352602e-02 1.7354534517e+00 -3.0058935525e+00 1.7354534517e+00 3.0058935525e+00 
8500 6.1227332820e+00 -2.2590473158e-02 1.7361314556e+00 -3.0070678897e+00 1.7361314556e+00 3.0070678897e+00 
8600 6.1227287794e+00 -2.1652916339e-02 1.7367820942e+00 -3.0081948288e+00 1.7367820942e+00 3.0081948288e+00 
8700 6.1227302381e+00 -2.0719813736e-02 1.7374054945e+00 -3.0092745899e+00 1.7374054945e+00 3.0092745899e+00 
8800 6.1227369980e+00 -1.9792279732e-02 1.7380018147e+00 -3.0103074467e+00 1.7380018147e+00 3.0103074467e+00 
8900 6.1227484117e+00 -1.8871408847e-02 1.7385712433e+00 -3.0112937260e+00 1.7385712433e+00 3.0112937260e+00 
9000 6.1227638481e+00 -1.7958273215e-02 1.7391139991e+00 -3.0122338065e+00 1.7391139991e+00 3.0122338065e+00 
9100 6.1227826950e+00 -1.7053920157e-02 1.7396303298e+00 -3.0131281177e+00 1.7396303298e+00 3.0131281177e+00 
9200 6.1228043624e+00 -1.6159369891e-02 1.7401205122e+00 -3.0139771384e+00 1.7401205122e+00 3.0139771384e+00 
9300 6.1228282842e+00 -1.5275613360e-02 1.7405848504e+00 -3.0147813957e+00 1.7405848504e+00 3.0147813957e+00 
9400 6.1228539211e+00 -1.4403610189e-02 1.7410236757e+00 -3.0155414635e+00 1.7410236757e+00 3.0155414635e+00 
9500 6.1228807622e+00 -1.3544286774e-02 1.7414373456e+00 -3.0162579607e+00 1.7414373456e+00 3.0162579607e+00 
9600 6.1229083263e+00 -1.2698534512e-02 1.7418262424e+00 -3.0169315499e+00 1.7418262424e+00 3.0169315499e+00 
9700 6.1229361635e+00 -1.1867208156e-02 1.7421907730e+00 -3.0175629353e+00 1.7421907730e+00 3.0175629353e+00 
9800 6.1229638562e+00 -1.1051124323e-02 1.7425313670e+00 -3.0181528614e+00 1.7425313670e+00 3.0181528614e+00 
9900 6.1229910198e+00 -1.0251060134e-02 1.7428484763e+00 -3.0187021109e+00 1.7428484763e+00 3.0187021109e+00 
10000 6.1230173032e+00 -9.4677519982e-03 1.7431425739e+00 -3.0192115028e+00 1.7431425739e+00 3.0192115028e+00 
10100 6.1230423888e+00 -8.7018945419e-03 1.7434141523e+00 -3.0196818904e+00 1.7434141523e+00 3.0196818904e+00 
10200 6.1230659932e+00 -7.9541396797e-03 1.7436637230e+00 -3.0201141595e+00 1.7436637230e+00 3.0201141595e+00 
10300 6.1230878660e+00 -7.2250958280e-03 1.7438918149e+00 -3.0205092263e+00 1.7438918149e+00 3.0205092263e+00 
10400 6.1231077904e+00 -6.5153272610e-03 1.7440989734e+00 -3.0208680353e+00 1.7440989734e+00 3.0208680353e+00 
10500 6.1231255817e+00 -5.8253536077e-03 1.7442857588e+00 -3.0211915571e+00 1.7442857588e+00 3.0211915571e+00 
10600 6.1231410871e+00 -5.1556494882e-03 1.7444527453e+00 -3.0214807863e+00 1.7444527453e+00 3.0214807863e+00 
10700 6.1231541844e+00 -4.5066442867e-03 1.7446005201e+00 -3.0217367398e+00 1.7446005201e+00 3.0217367398e+00 
10800 6.1231647811e+00 -3.8787220593e-03 1.7447296815e+00 -3.0219604538e+00 1.7447296815e+00 3.0219604538e+00 
10900 6.1231728129e+00 -3.2722215724e-03 1.7448408381e+00 -3.0221529826e+00 1.7448408381e+00 3.0221529826e+00 
11000 6.1231782426e+00 -2.6874364701e-03 1.7449346074e+00 -3.0223153959e+00 1.7449346074e+00 3.0223153959e+00 
11100 6.1231810584e+00 -2.1246155639e-03 1.7450116147e+00 -3.0224487765e+00 1.7450116147e+00 3.0224487765e+00 
11200 6.1231812724e+00 -1.5839632430e-03 1.7450724919e+00 -3.0225542189e+00 1.7450724919e+00 3.0225542189e+00 
11300 6.1231789190e+00 -1.0656399989e-03 1.7451178760e+00 -3.0226328264e+00 1.7451178760e+00 3.0226328264e+00 
11400 6.1231740530e+00 -5.6976305986e-04 1.7451484081e+00 -3.0226857096e+00 1.7451484081e+00 3.0226857096e+00 
11500 6.1231667483e+00 -9.6407130018e-05 1.7451647324e+00 -3.0227139840e+00 1.7451647324e+00 3.0227139840e+00 
11600 6.1231570957e+00 3.5439477318e-04 1.7451674945e+00 -3.0227187682e+00 1.7451674945e+00 3.0227187682e+00 
11700 6.1231452012e+00 7.8265038801e-04 1.7451573409e+00 -3.0227011816e+00 1.7451573409e+00 3.0227011816e+00 
11800 6.1231311843e+00 1.1884071908e-03 1.7451349174e+00 -3.0226623431e+00 1.7451349174e+00 3.0226623431e+00 
11900 6.1231151764e+00 1.5717512975e-03 1.7451008684e+00 -3.0226033684e+00 1.7451008684e+00 3.0226033684e+00 
12000 6.1230973187e+00 1.9328062905e-03 1.7450558353e+00 -3.0225253689e+00 1.7450558353e+00 3.0225253689e+00 
12100 6.1230777604e+00 2.2717319779e-03 1.7450004561e+00 -3.0224294493e+00 1.7450004561e+00 3.0224294493e+00 
12200 6.1230566577e+00 2.5887230909e-03 1.7449353640e+00 -3.0223167063e+00 1.7449353640e+00 3.0223167063e+00 
12300 6.1230341713e+00 2.8840079262e-03 1.7448611863e+00 -3.0221882268e+00 1.7448611863e+00 3.0221882268e+00 
12400 6.1230104657e+00 3.1578469397e-03 1.7447785440e+00 -3.0220450862e+00 1.7447785440e+00 3.0220450862e+00 
12500 6.1229857070e+00 3.4105312983e-03 1.7446880506e+00 -3.0218883470e+00 1.7446880506e+00 3.0218883470e+00 
12600 6.1229600617e+00 3.6423813957e-03 1.7445903111e+00 -3.0217190572e+00 1.7445903111e+00 3.0217190572e+00 
12700 6.1229336958e+00 3.8537453388e-03 1.7444859214e+00 -3.0215382489e+00 1.7444859214e+00 3.0215382489e+00 
12800 6.1229067728e+00 4.0449974104e-03 1.7443754675e+00 -3.0213469372e+00 1.7443754675e+00 3.0213469372e+00 
12900 6.1228794533e+00 4.2165365143e-03 1.7442595248e+00 -3.0211461185e+00 1.7442595248e+00 3.0211461185e+00 
13000 6.1228518933e+00 4.3687846094e-03 1.7441386572e+00 -3.0209367698e+00 1.7441386572e+00 3.0209367698e+00 
13100 6.1228242437e+00 4.5021851366e-03 1.7440134168e+00 -3.0207198471e+00 1.7440134168e+00 3.0207198471e+00 
13200 6.1227966493e+00 4.6172014451e-03 1.7438843430e+00 -3.0204962846e+00 1.7438843430e+00 3.0204962846e+00 
13300 6.1227692479e+00 4.7143152234e-03 1.7437519620e+00 -3.0202669940e+00 1.7437519620e+00 3.0202669940e+00 
13400 6.1227421698e+00 4.7940249382e-03 1.7436167864e+00 -3.0200328630e+00 1.7436167864e+00 3.0200328630e+00 
13500 6.1227155372e+00 4.8568442878e-03 1.7434793146e+00 -3.0197947549e+00 1.7434793146e+00 3.0197947549e+00 
13600 6.1226894635e+00 4.9033006725e-03 1.7433400305e+00 -3.0195535077e+00 1.7433400305e+00 3.0195535077e+00 
13700 6.1226640534e+00 4.9339336873e-03 1.7431994029e+00 -3.0193099336e+00 1.7431994029e+00 3.0193099336e+00 
13800 6.1226394021e+00 4.9492936392e-03 1.7430578854e+00 -3.0190648180e+00 1.7430578854e+00 3.0190648180e+00 
13900 6.1226155956e+00 4.9499400943e-03 1.7429159157e+00 -3.0188189193e+00 1.7429159157e+00 3.0188189193e+00 
14000 6.1225927099e+00 4.9364404558e-03 1.7427739159e+00 -3.0185729685e+00 1.7427739159e+00 3.0185729685e+00 
14100 6.1225708118e+00 4.9093685768e-03 1.7426322919e+00 -3.0183276685e+00 1.7426322919e+00 3.0183276685e+00 
14200 6.1225499582e+00 4.8693034109e-03 1.7424914331e+00 -3.0180836939e+00 1.7424914331e+00 3.0180836939e+00 
14300 6.1225301967e+00 4.8168277012e-03 1.7423517125e+00 -3.0178416907e+00 1.7423517125e+00 3.0178416907e+00 
14400 6.1225115656e+00 4.7525267113e-03 1.7422134866e+00 -3.0176022764e+00 1.7422134866e+00 3.0176022764e+00 
14500 6.1224940939e+00 4.6769869986e-03 1.7420770950e+00 -3.0173660392e+00 1.7420770950e+00 3.0173660392e+00 
14600 6.1224778021e+00 4.5907952329e-03 1.7419428608e+00 -3.0171335388e+00 1.7419428608e+00 3.0171335388e+00 
14700 6.1224627021e+00 4.4945370592e-03 1.7418110902e+00 -3.0169053054e+00 1.7418110902e+00 3.0169053054e+00 
14800 6.1224487977e+00 4.3887960085e-03 1.7416820727e+00 -3.0166818405e+00 1.7416820727e+00 3.0166818405e+00 
14900 6.1224360852e+00 4.2741524542e-03 1.7415560812e+00 -3.0164636168e+00 1.7415560812e+00 3.0164636168e+00 
15000 6.1224245535e+00 4.1511826174e-03 1.7414333719e+00 -3.0162510781e+00 1.7414333719e+00 3.0162510781e+00 
15100 6.1224141849e+00 4.0204576194e-03 1.7413141846e+00 -3.0160446396e+00 1.7413141846e+00 3.0160446396e+00 
15200 6.1224049554e+00 3.8825425825e-03 1.7411987427e+00 -3.0158446884e+00 1.7411987427e+00 3.0158446884e+00 
15300 6.1223968355e+00 3.7379957788e-03 1.7410872533e+00 -3.0156515832e+00 1.7410872533e+00 3.0156515832e+00 
15400 6.1223897903e+00 3.5873678264e-03 1.7409799078e+00 -3.0154656553e+00 1.7409799078e+00 3.0154656553e+00 
15500 6.1223837803e+00 3.4312009334e-03 1.7408768816e+00 -3.0152872087e+00 1.7408768816e+00 3.0152872087e+00 
15600 6.1223787619e+00 3.2700281889e-03 1.7407783345e+00 -3.0151165200e+00 1.7407783345e+00 3.0151165200e+00 
15700 6.1223746880e+00 3.1043728993e-03 1.7406844110e+00 -3.0149538398e+00 1.7406844110e+00 3.0149538398e+00 
15800 6.1223715085e+00 2.9347479716e-03 1.7405952407e+00 -3.0147993923e+00 1.7405952407e+00 3.0147993923e+00 
15900 6.1223691707e+00 2.7616553398e-03 1.7405109384e+00 -3.0146533764e+00 1.7405109384e+00 3.0146533764e+00 
16000 6.1223676198e+00 2.5855854368e-03 1.7404316044e+00 -3.0145159659e+00 1.7404316044e+00 3.0145159659e+00 
16100 6.1223667997e+00 2.4070167077e-03 1.7403573249e+00 -3.0143873101e+00 1.7403573249e+00 3.0143873101e+00 
16200 6.1223666532e+00 2.2264151656e-03 1.7402881724e+00 -3.0142675344e+00 1.7402881724e+00 3.0142675344e+00 
16300 6.1223671223e+00 2.0442339885e-03 1.7402242060e+00 -3.0141567413e+00 1.7402242060e+00 3.0141567413e+00 
16400 6.1223681493e+00 1.8609131550e-03 1.7401654715e+00 -3.0140550102e+00 1.7401654715e+00 3.0140550102e+00 
16500 6.1223696762e+00 1.6768791193e-03 1.7401120023e+00 -3.0139623989e+00 1.7401120023e+00 3.0139623989e+00 
16600 6.1223716461e+00 1.4925445226e-03 1.7400638195e+00 -3.0138789438e+00 1.7400638195e+00 3.0138789438e+00 
16700 6.1223740029e+00 1.3083079420e-03 1.7400209320e+00 -3.0138046605e+00 1.7400209320e+00 3.0138046605e+00 
16800 6.1223766918e+00 1.1245536727e-03 1.7399833376e+00 -3.0137395450e+00 1.7399833376e+00 3.0137395450e+00 
16900 6.1223796597e+00 9.4165154540e-04 1.7399510226e+00 -3.0136835738e+00 1.7399510226e+00 3.0136835738e+00 
17000 6.1223828551e+00 7.5995677517e-04 1.7399239629e+00 -3.0136367051e+00 1.7399239629e+00 3.0136367051e+00 
17100 6.1223862291e+00 5.7980984228e-04 1.7399021242e+00 -3.0135988793e+00 1.7399021242e+00 3.0135988793e+00 
17200 6.1223897345e+00 4.0153640290e-04 1.7398854621e+00 -3.0135700197e+00 1.7398854621e+00 3.0135700197e+00 
17300 6.1223933272e+00 2.2544722887e-04 1.7398739229e+00 -3.0135500333e+00 1.7398739229e+00 3.0135500333e+00 
17400 6.1223969653e+00 5.1838175212e-05 1.7398674441e+00 -3.0135388116e+00 1.7398674441e+00 3.0135388116e+00 
17500 6.1224006094e+00 -1.1756313558e-04 1.7398674441e+00 -3.0135388116e+00 1.7398674441e+00 3.0135388116e+00 
17600 6.1224042238e+00 -2.8541603533e-04 1.7398708226e+00 -3.0135446634e+00 1.7398708226e+00 3.0135446634e+00 
17700 6.1224077752e+00 -4.4998980106e-04 1.7398790248e+00 -3.0135588700e+00 1.7398790248e+00 3.0135588700e+00 
17800 6.1224112335e+00 -6.1104809522e-04 1.7398919565e+00 -3.0135812683e+00 1.7398919565e+00 3.0135812683e+00 
17900 6.1224145714e+00 -7.6836927944e-04 1.7399095165e+00 -3.0136116831e+00 1.7399095165e+00 3.0136116831e+00 
18000 6.1224177646e+00 -9.2174630333e-04 1.7399315972e+00 -3.0136499281e+00 1.7399315972e+00 3.0136499281e+00 
18100 6.1224207918e+00 -1.0709865730e-03 1.7399580853e+00 -3.0136958068e+00 1.7399580853e+00 3.0136958068e+00 
18200 6.1224236344e+00 -1.2159118003e-03 1.7399888616e+00 -3.0137491129e+00 1.7399888616e+00 3.0137491129e+00 
18300 6.1224262768e+00 -1.3563578336e-03 1.7400238020e+00 -3.0138096314e+00 1.7400238020e+00 3.0138096314e+00 
18400 6.1224287063e+00 -1.4921744713e-03 1.7400627774e+00 -3.0138771388e+00 1.7400627774e+00 3.0138771388e+00 
18500 6.1224309125e+00 -1.6232252589e-03 1.7401056546e+00 -3.0139514042e+00 1.7401056546e+00 3.0139514042e+00 
18600 6.1224328879e+00 -1.7493872700e-03 1.7401522963e+00 -3.0140321902e+00 1.7401522963e+00 3.0140321902e+00 
18700 6.1224346273e+00 -1.8705508730e-03 1.7402025619e+00 -3.0141192527e+00 1.7402025619e+00 3.0141192527e+00 
18800 6.1224361279e+00 -1.9866194840e-03 1.7402563074e+00 -3.0142123426e+00 1.7402563074e+00 3.0142123426e+00 
18900 6.1224373888e+00 -2.0975093059e-03 1.7403133861e+00 -3.0143112058e+00 1.7403133861e+00 3.0143112058e+00 
19000 6.1224384115e+00 -2.2031490563e-03 1.7403736488e+00 -3.0144155839e+00 1.7403736488e+00 3.0144155839e+00 
19100 6.1224391991e+00 -2.3034796827e-03 1.7404369445e+00 -3.0145252153e+00 1.7404369445e+00 3.0145252153e+00 
19200 6.1224397567e+00 -2.3984540679e-03 1.7405031203e+00 -3.0146398350e+00 1.7405031203e+00 3.0146398350e+00 
19300 6.1224400907e+00 -2.4880367255e-03 1.7405720219e+00 -3.0147591761e+00 1.7405720219e+00 3.0147591761e+00 
19400 6.1224402090e+00 -2.5722034850e-03 1.7406434942e+00 -3.0148829698e+00 1.7406434942e+00 3.0148829698e+00 
19500 6.1224401210e+00 -2.6509411701e-03 1.7407173813e+00 -3.0150109460e+00 1.7407173813e+00 3.0150109460e+00 
19600 6.1224398369e+00 -2.7242472680e-03 1.7407935269e+00 -3.0151428341e+00 1.7407935269e+00 3.0151428341e+00 
19700 6.1224393680e+00 -2.7921295918e-03 1.7408717748e+00 -3.0152783634e+00 1.7408717748e+00 3.0152783634e+00 
19800 6.1224387263e+00 -2.8546059370e-03 1.7409519688e+00 -3.0154172635e+00 1.7409519688e+00 3.0154172635e+00 
19900 6.1224379246e+00 -2.9117037319e-03 1.7410339535e+00 -3.0155592652e+00 1.7410339535e+00 3.0155592652e+00 
20000 6.1224369762e+00 -2.9634596831e-03 1.7411175741e+00 -3.0157041004e+00 1.7411175741e+00 3.0157041004e+00 
20100 6.1224358946e+00 -3.0099194161e-03 1.7412026771e+00 -3.0158515030e+00 1.7412026771e+00 3.0158515030e+00 
20200 6.1224346938e+00 -3.0511371132e-03 1.7412891100e+00 -3.0160012092e+00 1.7412891100e+00 3.0160012092e+00 
20300 6.1224333878e+00 -3.0871751468e-03 1.7413767222e+00 -3.0161529579e+00 1.7413767222e+00 3.0161529579e+00 
20400 6.1224319905e+00 -3.1181037117e-03 1.7414653647e+00 -3.0163064913e+00 1.7414653647e+00 3.0163064913e+00 
20500 6.1224305160e+00 -3.1440004541e-03 1.7415548908e+00 -3.0164615550e+00 1.7415548908e+00 3.0164615550e+00 
20600 6.1224289779e+00 -3.1649501003e-03 1.7416451557e+00 -3.0166178985e+00 1.7416451557e+00 3.0166178985e+00 
20700 6.1224273897e+00 -3.1810440842e-03 1.7417360174e+00 -3.0167752756e+00 1.7417360174e+00 3.0167752756e+00 
20800 6.1224257644e+00 -3.1923801743e-03 1.7418273364e+00 -3.0169334447e+00 1.7418273364e+00 3.0169334447e+00 
20900 6.1224241147e+00 -3.1990621021e-03 1.7419189761e+00 -3.0170921692e+00 1.7419189761e+00 3.0170921692e+00 
21000 6.1224224526e+00 -3.2011991902e-03 1.7420108027e+00 -3.0172512176e+00 1.7420108027e+00 3.0172512176e+00 
21100 6.1224207897e+00 -3.1989059828e-03 1.7421026858e+00 -3.0174103638e+00 1.7421026858e+00 3.0174103638e+00 
21200 6.1224191368e+00 -3.1923018777e-03 1.7421944982e+00 -3.0175693876e+00 1.7421944982e+00 3.0175693876e+00 
21300 6.1224175042e+00 -3.1815107614e-03 1.7422861163e+00 -3.0177280748e+00 1.7422861163e+00 3.0177280748e+00 
21400 6.1224159013e+00 -3.1666606460e-03 1.7423774199e+00 -3.0178862172e+00 1.7423774199e+00 3.0178862172e+00 
21500 6.1224143369e+00 -3.1478833114e-03 1.7424682925e+00 -3.0180436132e+00 1.7424682925e+00 3.0180436132e+00 
21600 6.1224128190e+00 -3.1253139496e-03 1.7425586215e+00 -3.0182000677e+00 1.7425586215e+00 3.0182000677e+00 
21700 6.1224113549e+00 -3.0990908150e-03 1.7426482983e+00 -3.0183553924e+00 1.7426482983e+00 3.0183553924e+00 
21800 6.1224099510e+00 -3.0693548785e-03 1.7427372181e+00 -3.0185094059e+00 1.7427372181e+00 3.0185094059e+00 
21900 6.1224086130e+00 -3.0362494876e-03 1.7428252801e+00 -3.0186619339e+00 1.7428252801e+00 3.0186619339e+00 
22000 6.1224073458e+00 -2.9999200318e-03 1.7429123880e+00 -3.0188128091e+00 1.7429123880e+00 3.0188128091e+00 
22100 6.1224061534e+00 -2.9605136143e-03 1.7429984492e+00 -3.0189618716e+00 1.7429984492e+00 3.0189618716e+00 
22200 6.1224050394e+00 -2.9181787304e-03 1.7430833758e+00 -3.0191089687e+00 1.7430833758e+00 3.0191089687e+00 
22300 6.1224040063e+00 -2.8730649523e-03 1.7431670839e+00 -3.0192539553e+00 1.7431670839e+00 3.0192539553e+00 
22400 6.1224030561e+00 -2.8253226218e-03 1.7432494938e+00 -3.0193966936e+00 1.7432494938e+00 3.0193966936e+00 
22500 6.1224021901e+00 -2.7751025496e-03 1.7433305306e+00 -3.0195370533e+00 1.7433305306e+00 3.0195370533e+00 
22600 6.1224014088e+00 -2.7225557237e-03 1.7434101231e+00 -3.0196749117e+00 1.7434101231e+00 3.0196749117e+00 
22700 6.1224007124e+00 -2.6678330251e-03 1.7434882051e+00 -3.0198101536e+00 1.7434882051e+00 3.0198101536e+00 
22800 6.1224001001e+00 -2.6110849516e-03 1.7435647141e+00 -3.0199426711e+00 1.7435647141e+00 3.0199426711e+00 
22900 6.1223995710e+00 -2.5524613519e-03 1.7436395924e+00 -3.0200723642e+00 1.7436395924e+00 3.0200723642e+00 
23000 6.1223991233e+00 -2.4921111666e-03 1.7437127864e+00 -3.0201991399e+00 1.7437127864e+00 3.0201991399e+00 
23100 6.1223987551e+00 -2.4301821800e-03 1.7437842468e+00 -3.0203229129e+00 1.7437842468e+00 3.0203229129e+00 
23200 6.1223984638e+00 -2.3668207802e-03 1.7438539286e+00 -3.0204436053e+00 1.7438539286e+00 3.0204436053e+00 
23300 6.1223982466e+00 -2.3021717293e-03 1.7439217908e+00 -3.0205611461e+00 1.7439217908e+00 3.0205611461e+00 
23400 6.1223981004e+00 -2.2363779431e-03 1.7439877968e+00 -3.0206754718e+00 1.7439877968e+00 3.0206754718e+00 
23500 6.1223980215e+00 -2.1695802803e-03 1.7440519140e+00 -3.0207865260e+00 1.7440519140e+00 3.0207865260e+00 
23600 6.1223980064e+00 -2.1019173426e-03 1.7441141138e+00 -3.0208942592e+00 1.7441141138e+00 3.0208942592e+00 
23700 6.1223980510e+00 -2.0335252833e-03 1.7441743716e+00 -3.0209986288e+00 1.7441743716e+00 3.0209986288e+00 
23800 6.1223981512e+00 -1.9645376278e-03 1.7442326667e+00 -3.0210995989e+00 1.7442326667e+00 3.0210995989e+00 
23900 6.1223983029e+00 -1.8950851027e-03 1.7442889822e+00 -3.0211971403e+00 1.7442889822e+00 3.0211971403e+00 
24000 6.1223985017e+00 -1.8252954758e-03 1.7443433051e+00 -3.0212912302e+00 1.7443433051e+00 3.0212912302e+00 
24100 6.1223987433e+00 -1.7552934067e-03 1.7443956257e+00 -3.0213818523e+00 1.7443956257e+00 3.0213818523e+00 
24200 6.1223990233e+00 -1.6852003068e-03 1.7444459383e+00 -3.0214689963e+00 1.7444459383e+00 3.0214689963e+00 
24300 6.1223993372e+00 -1.6151342098e-03 1.7444942404e+00 -3.0215526580e+00 1.7444942404e+00 3.0215526580e+00 
24400 6.1223996807e+00 -1.5452096527e-03 1.7445405330e+00 -3.0216328390e+00 1.7445405330e+00 3.0216328390e+00 
24500 6.1224000496e+00 -1.4755375668e-03 1.7445848202e+00 -3.0217095467e+00 1.7445848202e+00 3.0217095467e+00 
24600 6.1224004398e+00 -1.4062251777e-03 1.7446271094e+00 -3.0217827938e+00 1.7446271094e+00 3.0217827938e+00 
24700 6.1224008470e+00 -1.3373759170e-03 1.7446674112e+00 -3.0218525985e+00 1.7446674112e+00 3.0218525985e+00 
24800 6.1224012675e+00 -1.2690893424e-03 1.7447057389e+00 -3.0219189840e+00 1.7447057389e+00 3.0219189840e+00 
24900 6.1224016975e+00 -1.2014610681e-03 1.7447421087e+00 -3.0219819784e+00 1.7447421087e+00 3.0219819784e+00 
25000 6.1224021334e+00 -1.1345827044e-03 1.7447765397e+00 -3.0220416147e+00 1.7447765397e+00 3.0220416147e+00 
25100 6.1224025718e+00 -1.0685418071e-03 1.7448090535e+00 -3.0220979302e+00 1.7448090535e+00 3.0220979302e+00 
25200 6.1224030094e+00 -1.0034218360e-03 1.7448396742e+00 -3.0221509668e+00 1.7448396742e+00 3.0221509668e+00 
25300 6.1224034435e+00 -9.3930212197e-04 1.7448684283e+00 -3.0222007703e+00 1.7448684283e+00 3.0222007703e+00 
25400 6.1224038711e+00 -8.7625784349e-04 1.7448953445e+00 -3.0222473905e+00 1.7448953445e+00 3.0222473905e+00 
25500 6.1224042897e+00 -8.1436001150e-04 1.7449204537e+00 -3.0222908810e+00 1.7449204537e+00 3.0222908810e+00 
25600 6.1224046971e+00 -7.5367546259e-04 1.7449437889e+00 -3.0223312988e+00 1.7449437889e+00 3.0223312988e+00 
25700 6.1224050912e+00 -6.9426686047e-04 1.7449653850e+00 -3.0223687042e+00 1.7449653850e+00 3.0223687042e+00 
25800 6.1224054701e+00 -6.3619270532e-04 1.7449852784e+00 -3.0224031607e+00 1.7449852784e+00 3.0224031607e+00 
25900 6.1224058322e+00 -5.7950735080e-04 1.7450035076e+00 -3.0224347346e+00 1.7450035076e+00 3.0224347346e+00 
26000 6.1224061762e+00 -5.2426102844e-04 1.7450201124e+00 -3.0224634949e+00 1.7450201124e+00 3.0224634949e+00 
26100 6.1224065008e+00 -4.7049987920e-04 1.7450351341e+00 -3.0224895132e+00 1.7450351341e+00 3.0224895132e+00 
26200 6.1224068052e+00 -4.1826599187e-04 1.7450486152e+00 -3.0225128632e+00 1.7450486152e+00 3.0225128632e+00 
26300 6.1224070886e+00 -3.6759744803e-04 1.7450605996e+00 -3.0225336207e+00 1.7450605996e+00 3.0225336207e+00 
26400 6.1224073504e+00 -3.1852837328e-04 1.7450711321e+00 -3.0225518636e+00 1.7450711321e+00 3.0225518636e+00 
26500 6.1224075904e+00 -2.7108899455e-04 1.7450802586e+00 -3.0225676712e+00 1.7450802586e+00 3.0225676712e+00 
26600 6.1224078083e+00 -2.2530570295e-04 1.7450880258e+00 -3.0225811244e+00 1.7450880258e+00 3.0225811244e+00 
26700 6.1224080042e+00 -1.8120112221e-04 1.7450944813e+00 -3.0225923056e+00 1.7450944813e+00 3.0225923056e+00 
26800 6.1224081783e+00 -1.3879418202e-04 1.7450996730e+00 -3.0226012979e+00 1.7450996730e+00 3.0226012979e+00 
26900 6.1224083308e+00 -9.8100196327e-05 1.7451036497e+00 -3.0226081857e+00 1.7451036497e+00 3.0226081857e+00 
27000 6.1224084623e+00 -5.9130946010e-05 1.7451064604e+00 -3.0226130541e+00 1.7451064604e+00 3.0226130541e+00 
27100 6.1224085732e+00 -2.3528625366e-05 1.7451064604e+00 -3.0226130541e+00 1.7451064604e+00 3.0226130541e+00 
27200 6.1224086643e+00 1.1354564471e-05 1.7451064604e+00 -3.0226130541e+00 1.7451064604e+00 3.0226130541e+00 
27300 6.1224087364e+00 4.5474961273e-05 1.7451064604e+00 -3.0226130541e+00 1.7451064604e+00 3.0226130541e+00 
27400 6.1224087906e+00 7.8791917299e-05 1.7451064604e+00 -3.0226130541e+00 1.7451064604e+00 3.0226130541e+00 
27500 6.1224088276e+00 1.0909016894e-04 1.7451042029e+00 -3.0226091439e+00 1.7451042029e+00 3.0226091439e+00 
27600 6.1224088485e+00 1.3766182313e-04 1.7451010773e+00 -3.0226037302e+00 1.7451010773e+00 3.0226037302e+00 
27700 6.1224088544e+00 1.6451721473e-04 1.7450971331e+00 -3.0225968986e+00 1.7450971331e+00 3.0225968986e+00 
27800 6.1224088465e+00 1.8966942352e-04 1.7450924194e+00 -3.0225887343e+00 1.7450924194e+00 3.0225887343e+00 
27900 6.1224088258e+00 2.1313416451e-04 1.7450869850e+00 -3.0225793217e+00 1.7450869850e+00 3.0225793217e+00 
28000 6.1224087936e+00 2.3492967669e-04 1.7450808783e+00 -3.0225687446e+00 1.7450808783e+00 3.0225687446e+00 
28100 6.1224087510e+00 2.5507661056e-04 1.7450741471e+00 -3.0225570858e+00 1.7450741471e+00 3.0225570858e+00 
28200 6.1224086992e+00 2.7359791450e-04 1.7450668387e+00 -3.0225444272e+00 1.7450668387e+00 3.0225444272e+00 
28300 6.1224086395e+00 2.9051872045e-04 1.7450589995e+00 -3.0225308493e+00 1.7450589995e+00 3.0225308493e+00 
28400 6.1224085729e+00 3.0586622907e-04 1.7450506755e+00 -3.0225164317e+00 1.7450506755e+00 3.0225164317e+00 
28500 6.1224085006e+00 3.1966959458e-04 1.7450419116e+00 -3.0225012523e+00 1.7450419116e+00 3.0225012523e+00 
28600 6.1224084237e+00 3.3195980956e-04 1.7450327523e+00 -3.0224853878e+00 1.7450327523e+00 3.0224853878e+00 
28700 6.1224083433e+00 3.4276958994e-04 1.7450232407e+00 -3.0224689133e+00 1.7450232407e+00 3.0224689133e+00 
28800 6.1224082604e+00 3.5213326037e-04 1.7450134194e+00 -3.0224519023e+00 1.7450134194e+00 3.0224519023e+00 
28900 6.1224081760e+00 3.6008664024e-04 1.7450033297e+00 -3.0224344264e+00 1.7450033297e+00 3.0224344264e+00 
29000 6.1224080909e+00 3.6666693046e-04 1.7449930121e+00 -3.0224165557e+00 1.7449930121e+00 3.0224165557e+00 
29100 6.1224080062e+00 3.7191260126e-04 1.7449825058e+00 -3.0223983584e+00 1.7449825058e+00 3.0223983584e+00 
29200 6.1224079226e+00 3.7586328120e-04 1.7449718492e+00 -3.0223799006e+00 1.7449718492e+00 3.0223799006e+00 
29300 6.1224078408e+00 3.7855964754e-04 1.7449610793e+00 -3.0223612466e+00 1.7449610793e+00 3.0223612466e+00 
29400 6.1224077616e+00 3.8004331811e-04 1.7449502321e+00 -3.0223424587e+00 1.7449502321e+00 3.0223424587e+00 
29500 6.1224076855e+00 3.8035674492e-04 1.7449393423e+00 -3.0223235970e+00 1.7449393423e+00 3.0223235970e+00 
29600 6.1224076132e+00 3.7954310957e-04 1.7449284435e+00 -3.0223047196e+00 1.7449284435e+00 3.0223047196e+00 
29700 6.1224075451e+00 3.7764622069e-04 1.7449175679e+00 -3.0222858826e+00 1.7449175679e+00 3.0222858826e+00 
29800 6.1224074816e+00 3.7471041346e-04 1.7449067466e+00 -3.0222671395e+00 1.7449067466e+00 3.0222671395e+00 
29900 6.1224074233e+00 3.7078045134e-04 1.7448960093e+00 -3.0222485420e+00 1.7448960093e+00 3.0222485420e+00 
30000 6.1224073702e+00 3.6590143025e-04 1.7448853846e+00 -3.0222301395e+00 1.7448853846e+00 3.0222301395e+00 
30100 6.1224073228e+00 3.6011868511e-04 1.7448748996e+00 -3.0222119790e+00 1.7448748996e+00 3.0222119790e+00 
30200 6.1224072811e+00 3.5347769897e-04 1.7448645803e+00 -3.0221941055e+00 1.7448645803e+00 3.0221941055e+00 
30300 6.1224072454e+00 3.4602401480e-04 1.7448544512e+00 -3.0221765614e+00 1.7448544512e+00 3.0221765614e+00 
30400 6.1224072157e+00 3.3780315002e-04 1.7448445357e+00 -3.0221593871e+00 1.7448445357e+00 3.0221593871e+00 
30500 6.1224071920e+00 3.2886051375e-04 1.7448348557e+00 -3.0221426208e+00 1.7448348557e+00 3.0221426208e+00 
30600 6.1224071743e+00 3.1924132701e-04 1.7448254319e+00 -3.0221262983e+00 1.7448254319e+00 3.0221262983e+00 
30700 6.1224071625e+00 3.0899054578e-04 1.7448162836e+00 -3.0221104531e+00 1.7448162836e+00 3.0221104531e+00 
30800 6.1224071566e+00 2.9815278710e-04 1.7448074291e+00 -3.0220951166e+00 1.7448074291e+00 3.0220951166e+00 
30900 6.1224071564e+00 2.8677225806e-04 1.7447988851e+00 -3.0220803180e+00 1.7447988851e+00 3.0220803180e+00 
31000 6.1224071617e+00 2.7489268795e-04 1.7447906672e+00 -3.0220660842e+00 1.7447906672e+00 3.0220660842e+00 
31100 6.1224071723e+00 2.6255726343e-04 1.7447827897e+00 -3.0220524399e+00 1.7447827897e+00 3.0220524399e+00 
31200 6.1224071880e+00 2.4980856680e-04 1.7447752656e+00 -3.0220394078e+00 1.7447752656e+00 3.0220394078e+00 
31300 6.1224072085e+00 2.3668851733e-04 1.7447681069e+00 -3.0220270085e+00 1.7447681069e+00 3.0220270085e+00 
31400 6.1224072335e+00 2.2323831579e-04 1.7447613241e+00 -3.0220152604e+00 1.7447613241e+00 3.0220152604e+00 
31500 6.1224072628e+00 2.0949839205e-04 1.7447549267e+00 -3.0220041798e+00 1.7447549267e+00 3.0220041798e+00 
31600 6.1224072959e+00 1.9550835575e-04 1.7447489230e+00 -3.0219937811e+00 1.7447489230e+00 3.0219937811e+00 
31700 6.1224073326e+00 1.8130695012e-04 1.7447433203e+00 -3.0219840769e+00 1.7447433203e+00 3.0219840769e+00 
31800 6.1224073725e+00 1.6693200888e-04 1.7447381245e+00 -3.0219750775e+00 1.7447381245e+00 3.0219750775e+00 
31900 6.1224074153e+00 1.5242041616e-04 1.7447333406e+00 -3.0219667916e+00 1.7447333406e+00 3.0219667916e+00 
32000 6.1224074607e+00 1.3780806952e-04 1.7447289726e+00 -3.0219592259e+00 1.7447289726e+00 3.0219592259e+00 
32100 6.1224075083e+00 1.2312984591e-04 1.7447250233e+00 -3.0219523856e+00 1.7447250233e+00 3.0219523856e+00 
32200 6.1224075578e+00 1.0841957063e-04 1.7447214947e+00 -3.0219462738e+00 1.7447214947e+00 3.0219462738e+00 
32300 6.1224076088e+00 9.3709989204e-05 1.7447183876e+00 -3.0219408922e+00 1.7447183876e+00 3.0219408922e+00 
32400 6.1224076610e+00 7.9032742202e-05 1.7447157021e+00 -3.0219362407e+00 1.7447157021e+00 3.0219362407e+00 
32500 6.1224077141e+00 6.4418342781e-05 1.7447134372e+00 -3.0219323178e+00 1.7447134372e+00 3.0219323178e+00 
32600 6.1224077679e+00 5.1679077455e-05 1.7447134372e+00 -3.0219323178e+00 1.7447134372e+00 3.0219323178e+00 
32700 6.1224078218e+00 3.8668993968e-05 1.7447134372e+00 -3.0219323178e+00 1.7447134372e+00 3.0219323178e+00 
32800 6.1224078757e+00 2.5416341697e-05 1.7447134372e+00 -3.0219323178e+00 1.7447134372e+00 3.0219323178e+00 
32900 6.1224079293e+00 1.1948857564e-05 1.7447134372e+00 -3.0219323178e+00 1.7447134372e+00 3.0219323178e+00 
33000 6.1224079823e+00 -1.7062652231e-06 1.7447134372e+00 -3.0219323178e+00 1.7447134372e+00 3.0219323178e+00 
33100 6.1224080347e+00 -1.5522406382e-05 1.7447134372e+00 -3.0219323178e+00 1.7447134372e+00 3.0219323178e+00 
33200 6.1224080861e+00 -2.9473545708e-05 1.7447134372e+00 -3.0219323178e+00 1.7447134372e+00 3.0219323178e+00 
33300 6.1224081364e+00 -4.3534288222e-05 1.7447134372e+00 -3.0219323178e+00 1.7447134372e+00 3.0219323178e+00 
33400 6.1224081854e+00 -5.7679887312e-05 1.7447134372e+00 -3.0219323178e+00 1.7447134372e+00 3.0219323178e+00 
33500 6.1224082331e+00 -7.1886265927e-05 1.7447134372e+00 -3.0219323178e+00 1.7447134372e+00 3.0219323178e+00 
33600 6.1224082790e+00 -8.4140699176e-05 1.7447154973e+00 -3.0219358860e+00 1.7447154973e+00 3.0219358860e+00 
33700 6.1224083232e+00 -9.6058813797e-05 1.7447179086e+00 -3.0219400625e+00 1.7447179086e+00 3.0219400625e+00 
33800 6.1224083656e+00 -1.0762559646e-04 1.7447206614e+00 -3.0219448306e+00 1.7447206614e+00 3.0219448306e+00 
33900 6.1224084060e+00 -1.1882721024e-04 1.7447237457e+00 -3.0219501728e+00 1.7447237457e+00 3.0219501728e+00 
34000 6.1224084444e+00 -1.2965098213e-04 1.7447271511e+00 -3.0219560710e+00 1.7447271511e+00 3.0219560710e+00 
34100 6.1224084807e+00 -1.4008538882e-04 1.7447308666e+00 -3.0219625065e+00 1.7447308666e+00 3.0219625065e+00 
34200 6.1224085150e+00 -1.5012004090e-04 1.7447348811e+00 -3.0219694598e+00 1.7447348811e+00 3.0219694598e+00 
34300 6.1224085472e+00 -1.5974566543e-04 1.7447391832e+00 -3.0219769113e+00 1.7447391832e+00 3.0219769113e+00 
34400 6.1224085772e+00 -1.6895408703e-04 1.7447437611e+00 -3.0219848405e+00 1.7447437611e+00 3.0219848405e+00 
34500 6.1224086051e+00 -1.7773820758e-04 1.7447486029e+00 -3.0219932267e+00 1.7447486029e+00 3.0219932267e+00 
34600 6.1224086310e+00 -1.8609198463e-04 1.7447536965e+00 -3.0220020490e+00 1.7447536965e+00 3.0220020490e+00 
34700 6.1224086548e+00 -1.9401040848e-04 1.7447590294e+00 -3.0220112858e+00 1.7447590294e+00 3.0220112858e+00 
34800 6.1224086766e+00 -2.0148947819e-04 1.7447645892e+00 -3.0220209157e+00 1.7447645892e+00 3.0220209157e+00 
34900 6.1224086964e+00 -2.0852617650e-04 1.7447703633e+00 -3.0220309168e+00 1.7447703633e+00 3.0220309168e+00 
35000 6.1224087144e+00 -2.1511844365e-04 1.7447763390e+00 -3.0220412671e+00 1.7447763390e+00 3.0220412671e+00 
35100 6.1224087305e+00 -2.2126515043e-04 1.7447825037e+00 -3.0220519445e+00 1.7447825037e+00 3.0220519445e+00 
35200 6.1224087449e+00 -2.2696607025e-04 1.7447888445e+00 -3.0220629271e+00 1.7447888445e+00 3.0220629271e+00 
35300 6.1224087577e+00 -2.3222185054e-04 1.7447953486e+00 -3.0220741925e+00 1.7447953486e+00 3.0220741925e+00 
35400 6.1224087689e+00 -2.3703398340e-04 1.7448020033e+00 -3.0220857188e+00 1.7448020033e+00 3.0220857188e+00 
35500 6.1224087786e+00 -2.4140477566e-04 1.7448087959e+00 -3.0220974839e+00 1.7448087959e+00 3.0220974839e+00 
35600 6.1224087870e+00 -2.4533731841e-04 1.7448157137e+00 -3.0221094659e+00 1.7448157137e+00 3.0221094659e+00 
35700 6.1224087941e+00 -2.4883545601e-04 1.7448227441e+00 -3.0221216430e+00 1.7448227441e+00 3.0221216430e+00 
35800 6.1224088000e+00 -2.5190375476e-04 1.7448298748e+00 -3.0221339937e+00 1.7448298748e+00 3.0221339937e+00 
35900 6.1224088049e+00 -2.5454747120e-04 1.7448370934e+00 -3.0221464967e+00 1.7448370934e+00 3.0221464967e+00 
36000 6.1224088088e+00 -2.5677252018e-04 1.7448443877e+00 -3.0221591308e+00 1.7448443877e+00 3.0221591308e+00 
36100 6.1224088119e+00 -2.5858544269e-04 1.7448517457e+00 -3.0221718753e+00 1.7448517457e+00 3.0221718753e+00 
36200 6.1224088142e+00 -2.5999337363e-04 1.7448591557e+00 -3.0221847097e+00 1.7448591557e+00 3.0221847097e+00 
36300 6.1224088158e+00 -2.6100400939e-04 1.7448666060e+00 -3.0221976140e+00 1.7448666060e+00 3.0221976140e+00 
36400 6.1224088169e+00 -2.6162557559e-04 1.7448740852e+00 -3.0222105683e+00 1.7448740852e+00 3.0222105683e+00 
36500 6.1224088175e+00 -2.6186679472e-04 1.7448815822e+00 -3.0222235535e+00 1.7448815822e+00 3.0222235535e+00 
36600 6.1224088177e+00 -2.6173685394e-04 1.7448890860e+00 -3.0222365506e+00 1.7448890860e+00 3.0222365506e+00 
36700 6.1224088177e+00 -2.6124537312e-04 1.7448965861e+00 -3.0222495411e+00 1.7448965861e+00 3.0222495411e+00 
36800 6.1224088174e+00 -2.6040237296e-04 1.7449040721e+00 -3.0222625072e+00 1.7449040721e+00 3.0222625072e+00 
36900 6.1224088169e+00 -2.5921824345e-04 1.7449115339e+00 -3.0222754315e+00 1.7449115339e+00 3.0222754315e+00 
37000 6.1224088164e+00 -2.5770371269e-04 1.7449189618e+00 -3.0222882969e+00 1.7449189618e+00 3.0222882969e+00 
37100 6.1224088159e+00 -2.5586981600e-04 1.7449263462e+00 -3.0223010870e+00 1.7449263462e+00 3.0223010870e+00 
37200 6.1224088155e+00 -2.5372786543e-04 1.7449336780e+00 -3.0223137861e+00 1.7449336780e+00 3.0223137861e+00 
37300 6.1224088152e+00 -2.5128941983e-04 1.7449409484e+00 -3.0223263789e+00 1.7449409484e+00 3.0223263789e+00 
37400 6.1224088150e+00 -2.4856625526e-04 1.7449481489e+00 -3.0223388505e+00 1.7449481489e+00 3.0223388505e+00 
37500 6.1224088150e+00 -2.4557033606e-04 1.7449552714e+00 -3.0223511870e+00 1.7449552714e+00 3.0223511870e+00 
37600 6.1224088153e+00 -2.4231378644e-04 1.7449623080e+00 -3.0223633747e+00 1.7449623080e+00 3.0223633747e+00 
37700 6.1224088159e+00 -2.3880886262e-04 1.7449692512e+00 -3.0223754008e+00 1.7449692512e+00 3.0223754008e+00 
37800 6.1224088167e+00 -2.3506792568e-04 1.7449760940e+00 -3.0223872528e+00 1.7449760940e+00 3.0223872528e+00 
37900 6.1224088179e+00 -2.3110341508e-04 1.7449828296e+00 -3.0223989192e+00 1.7449828296e+00 3.0223989192e+00 
38000 6.1224088195e+00 -2.2692782274e-04 1.7449894515e+00 -3.0224103887e+00 1.7449894515e+00 3.0224103887e+00 
38100 6.1224088214e+00 -2.2255366804e-04 1.7449959538e+00 -3.0224216510e+00 1.7449959538e+00 3.0224216510e+00 
38200 6.1224088237e+00 -2.1799347338e-04 1.7450023307e+00 -3.0224326961e+00 1.7450023307e+00 3.0224326961e+00 
38300 6.1224088264e+00 -2.1325974060e-04 1.7450085769e+00 -3.0224435149e+00 1.7450085769e+00 3.0224435149e+00 
38400 6.1224088295e+00 -2.0836492814e-04 1.7450146875e+00 -3.0224540987e+00 1.7450146875e+00 3.0224540987e+00 
38500 6.1224088329e+00 -2.0332142905e-04 1.7450206578e+00 -3.0224644396e+00 1.7450206578e+00 3.0224644396e+00 
38600 6.1224088367e+00 -1.9814154976e-04 1.7450264836e+00 -3.0224745301e+00 1.7450264836e+00 3.0224745301e+00 
38700 6.1224088409e+00 -1.9283748968e-04 1.7450321609e+00 -3.0224843635e+00 1.7450321609e+00 3.0224843635e+00 
38800 6.1224088455e+00 -1.8742132170e-04 1.7450376862e+00 -3.0224939336e+00 1.7450376862e+00 3.0224939336e+00 
38900 6.1224088504e+00 -1.8190497346e-04 1.7450430563e+00 -3.0225032350e+00 1.7450430563e+00 3.0225032350e+00 
39000 6.1224088556e+00 -1.7630020956e-04 1.7450482684e+00 -3.0225122625e+00 1.7450482684e+00 3.0225122625e+00 
39100 6.1224088611e+00 -1.7061861453e-04 1.7450533198e+00 -3.0225210119e+00 1.7450533198e+00 3.0225210119e+00 
39200 6.1224088669e+00 -1.6487157680e-04 1.7450582085e+00 -3.0225294792e+00 1.7450582085e+00 3.0225294792e+00 
39300 6.1224088729e+00 -1.5907027342e-04 1.7450629324e+00 -3.0225376614e+00 1.7450629324e+00 3.0225376614e+00 
39400 6.1224088792e+00 -1.5322565571e-04 1.7450674902e+00 -3.0225455556e+00 1.7450674902e+00 3.0225455556e+00 
39500 6.1224088858e+00 -1.4734843579e-04 1.7450718804e+00 -3.0225531597e+00 1.7450718804e+00 3.0225531597e+00 
39600 6.1224088925e+00 -1.4144907394e-04 1.7450761023e+00 -3.0225604722e+00 1.7450761023e+00 3.0225604722e+00 
39700 6.1224088993e+00 -1.3553776687e-04 1.7450801551e+00 -3.0225674918e+00 1.7450801551e+00 3.0225674918e+00 
39800 6.1224089063e+00 -1.2962443680e-04 1.7450840385e+00 -3.0225742181e+00 1.7450840385e+00 3.0225742181e+00 
39900 6.1224089135e+00 -1.2371872142e-04 1.7450877525e+00 -3.0225806510e+00 1.7450877525e+00 3.0225806510e+00 
40000 6.1224089207e+00 -1.1782996472e-04 1.7450912973e+00 -3.0225867907e+00 1.7450912973e+00 3.0225867907e+00 
40100 6.1224089279e+00 -1.1196720860e-04 1.7450946733e+00 -3.0225926382e+00 1.7450946733e+00 3.0225926382e+00 
40200 6.1224089352e+00 -1.0613918535e-04 1.7450978813e+00 -3.0225981947e+00 1.7450978813e+00 3.0225981947e+00 
40300 6.1224089425e+00 -1.0035431090e-04 1.7451009224e+00 -3.0226034620e+00 1.7451009224e+00 3.0226034620e+00 
40400 6.1224089498e+00 -9.4620678933e-05 1.7451037977e+00 -3.0226084422e+00 1.7451037977e+00 3.0226084422e+00 
40500 6.1224089571e+00 -8.8946055716e-05 1.7451065088e+00 -3.0226131378e+00 1.7451065088e+00 3.0226131378e+00 
40600 6.1224089643e+00 -8.3337875744e-05 1.7451090572e+00 -3.0226175518e+00 1.7451090572e+00 3.0226175518e+00 
40700 6.1224089714e+00 -7.7803238122e-05 1.7451114450e+00 -3.0226216875e+00 1.7451114450e+00 3.0226216875e+00 
40800 6.1224089785e+00 -7.2348903694e-05 1.7451136741e+00 -3.0226255486e+00 1.7451136741e+00 3.0226255486e+00 
40900 6.1224089854e+00 -6.6981292881e-05 1.7451157470e+00 -3.0226291390e+00 1.7451157470e+00 3.0226291390e+00 
41000 6.1224089923e+00 -6.3558045964e-05 1.7451157470e+00 -3.0226291390e+00 1.7451157470e+00 3.0226291390e+00 
41100 6.1224089990e+00 -6.0098706029e-05 1.7451157470e+00 -3.0226291390e+00 1.7451157470e+00 3.0226291390e+00 
41200 6.1224090056e+00 -5.6610825016e-05 1.7451157470e+00 -3.0226291390e+00 1.7451157470e+00 3.0226291390e+00 
41300 6.1224090120e+00 -5.3101727627e-05 1.7451157470e+00 -3.0226291390e+00 1.7451157470e+00 3.0226291390e+00 
41400 6.1224090181e+00 -4.9578506760e-05 1.7451157470e+00 -3.0226291390e+00 1.7451157470e+00 3.0226291390e+00 
41500 6.1224090240e+00 -4.6048019479e-05 1.7451157470e+00 -3.0226291390e+00 1.7451157470e+00 3.0226291390e+00 
41600 6.1224090298e+00 -4.2516883566e-05 1.7451157470e+00 -3.0226291390e+00 1.7451157470e+00 3.0226291390e+00 
41700 6.1224090353e+00 -3.8991474593e-05 1.7451157470e+00 -3.0226291390e+00 1.7451157470e+00 3.0226291390e+00 
41800 6.1224090405e+00 -3.5477923530e-05 1.7451157470e+00 -3.0226291390e+00 1.7451157470e+00 3.0226291390e+00 
41900 6.1224090456e+00 -3.1982114846e-05 1.7451157470e+00 -3.0226291390e+00 1.7451157470e+00 3.0226291390e+00 
42000 6.1224090504e+00 -2.8509685135e-05 1.7451157470e+00 -3.0226291390e+00 1.7451157470e+00 3.0226291390e+00 
42100 6.1224090551e+00 -2.5066022193e-05 1.7451157470e+00 -3.0226291390e+00 1.7451157470e+00 3.0226291390e+00 
42200 6.1224090595e+00 -2.1656264584e-05 1.7451157470e+00 -3.0226291390e+00 1.7451157470e+00 3.0226291390e+00 
42300 6.1224090637e+00 -1.8285301647e-05 1.7451157470e+00 -3.0226291390e+00 1.7451157470e+00 3.0226291390e+00 
42400 6.1224090677e+00 -1.4957773934e-05 1.7451157470e+00 -3.0226291390e+00 1.7451157470e+00 3.0226291390e+00 
42500 6.1224090715e+00 -1.1678074080e-05 1.7451157470e+00 -3.0226291390e+00 1.7451157470e+00 3.0226291390e+00 
42600 6.1224090751e+00 -8.4503480599e-06 1.7451157470e+00 -3.0226291390e+00 1.7451157470e+00 3.0226291390e+00 
42700 6.1224090785e+00 -5.2784968418e-06 1.7451157470e+00 -3.0226291390e+00 1.7451157470e+00 3.0226291390e+00 
42800 6.1224090818e+00 -2.1661784086e-06 1.7451157470e+00 -3.0226291390e+00 1.7451157470e+00 3.0226291390e+00 
42900 6.1224090848e+00 8.8318986934e-07 1.7451157470e+00 -3.0226291390e+00 1.7451157470e+00 3.0226291390e+00 
43000 6.1224090877e+00 3.8664285258e-06 1.7451157470e+00 -3.0226291390e+00 1.7451157470e+00 3.0226291390e+00 
43100 6.1224090905e+00 6.7805929682e-06 1.7451157470e+00 -3.0226291390e+00 1.7451157470e+00 3.0226291390e+00 
43200 6.1224090931e+00 9.6229701412e-06 1.7451157470e+00 -3.0226291390e+00 1.7451157470e+00 3.0226291390e+00 
43300 6.1224090956e+00 1.2391074916e-05 1.7451157470e+00 -3.0226291390e+00 1.7451157470e+00 3.0226291390e+00 
43400 6.1224090979e+00 1.5082646186e-05 1.7451157470e+00 -3.0226291390e+00 1.7451157470e+00 3.0226291390e+00 
43500 6.1224091001e+00 1.7695642742e-05 1.7451157470e+00 -3.0226291390e+00 1.7451157470e+00 3.0226291390e+00 
43600 6.1224091022e+00 2.0228238872e-05 1.7451157470e+00 -3.0226291390e+00 1.7451157470e+00 3.0226291390e+00 
43700 6.1224091042e+00 2.2678819770e-05 1.7451157470e+00 -3.0226291390e+00 1.7451157470e+00 3.0226291390e+00 
43800 6.1224091061e+00 2.5045976729e-05 1.7451157470e+00 -3.0226291390e+00 1.7451157470e+00 3.0226291390e+00 
43900 6.1224091079e+00 2.7328502135e-05 1.7451157470e+00 -3.0226291390e+00 1.7451157470e+00 3.0226291390e+00 
44000 6.1224091097e+00 2.9525384304e-05 1.7451157470e+00 -3.0226291390e+00 1.7451157470e+00 3.0226291390e+00 
44100 6.1224091113e+00 3.1635802142e-05 1.7451157470e+00 -3.0226291390e+00 1.7451157470e+00 3.0226291390e+00 
44200 6.1224091129e+00 3.3659119684e-05 1.7451157470e+00 -3.0226291390e+00 1.7451157470e+00 3.0226291390e+00 
44300 6.1224091145e+00 3.5594880477e-05 1.7451157470e+00 -3.0226291390e+00 1.7451157470e+00 3.0226291390e+00 
44400 6.1224091160e+00 3.7442801865e-05 1.7451157470e+00 -3.0226291390e+00 1.7451157470e+00 3.0226291390e+00 
44500 6.1224091174e+00 3.9202769177e-05 1.7451157470e+00 -3.0226291390e+00 1.7451157470e+00 3.0226291390e+00 
44600 6.1224091188e+00 4.0874829815e-05 1.7451157470e+00 -3.0226291390e+00 1.7451157470e+00 3.0226291390e+00 
44700 6.1224091202e+00 4.2459187277e-05 1.7451157470e+00 -3.0226291390e+00 1.7451157470e+00 3.0226291390e+00 
44800 6.1224091215e+00 4.3956195121e-05 1.7451157470e+00 -3.0226291390e+00 1.7451157470e+00 3.0226291390e+00 
44900 6.1224091228e+00 4.5366350873e-05 1.7451157470e+00 -3.0226291390e+00 1.7451157470e+00 3.0226291390e+00 
45000 6.1224091241e+00 4.6690289914e-05 1.7451157470e+00 -3.0226291390e+00 1.7451157470e+00 3.0226291390e+00 
45100 6.1224091254e+00 4.7928779329e-05 1.7451157470e+00 -3.0226291390e+00 1.7451157470e+00 3.0226291390e+00 
45200 6.1224091267e+00 4.9082711755e-05 1.7451157470e+00 -3.0226291390e+00 1.7451157470e+00 3.0226291390e+00 
45300 6.1224091280e+00 5.0153099234e-05 1.7451157470e+00 -3.0226291390e+00 1.7451157470e+00 3.0226291390e+00 
45400 6.1224091292e+00 5.1141067055e-05 1.7451157470e+00 -3.0226291390e+00 1.7451157470e+00 3.0226291390e+00 
45500 6.1224091305e+00 5.2047847643e-05 1.7451157470e+00 -3.0226291390e+00 1.7451157470e+00 3.0226291390e+00 
45600 6.1224091318e+00 5.2874774462e-05 1.7451157470e+00 -3.0226291390e+00 1.7451157470e+00 3.0226291390e+00 
45700 6.1224091330e+00 5.3623275967e-05 1.7451157470e+00 -3.0226291390e+00 1.7451157470e+00 3.0226291390e+00 
45800 6.1224091343e+00 5.4294869607e-05 1.7451157470e+00 -3.0226291390e+00 1.7451157470e+00 3.0226291390e+00 
45900 6.1224091355e+00 5.4891155879e-05 1.7451157470e+00 -3.0226291390e+00 1.7451157470e+00 3.0226291390e+00 
46000 6.1224091368e+00 5.5413812459e-05 1.7451157470e+00 -3.0226291390e+00 1.7451157470e+00 3.0226291390e+00 
46100 6.1224091381e+00 5.5864588404e-05 1.7451157470e+00 -3.0226291390e+00 1.7451157470e+00 3.0226291390e+00 
46200 6.1224091394e+00 5.6245298433e-05 1.7451157470e+00 -3.0226291390e+00 1.7451157470e+00 3.0226291390e+00 
46300 6.1224091407e+00 5.6557817306e-05 1.7451157470e+00 -3.0226291390e+00 1.7451157470e+00 3.0226291390e+00 
46400 6.1224091420e+00 5.6804074291e-05 1.7451157470e+00 -3.0226291390e+00 1.7451157470e+00 3.0226291390e+00 
46500 6.1224091432e+00 5.6986047750e-05 1.7451157470e+00 -3.0226291390e+00 1.7451157470e+00 3.0226291390e+00 
46600 6.1224091446e+00 5.7105759808e-05 1.7451157470e+00 -3.0226291390e+00 1.7451157470e+00 3.0226291390e+00 
46700 6.1224091459e+00 5.7165271161e-05 1.7451157470e+00 -3.0226291390e+00 1.7451157470e+00 3.0226291390e+00 
46800 6.1224091472e+00 5.7166675990e-05 1.7451157470e+00 -3.0226291390e+00 1.7451157470e+00 3.0226291390e+00 
46900 6.1224091485e+00 5.7112097004e-05 1.7451157470e+00 -3.0226291390e+00 1.7451157470e+00 3.0226291390e+00 
47000 6.1224091498e+00 5.7003680610e-05 1.7451157470e+00 -3.0226291390e+00 1.7451157470e+00 3.0226291390e+00 
47100 6.1224091511e+00 5.6843592217e-05 1.7451157470e+00 -3.0226291390e+00 1.7451157470e+00 3.0226291390e+00 
47200 6.1224091524e+00 5.6634011673e-05 1.7451157470e+00 -3.0226291390e+00 1.7451157470e+00 3.0226291390e+00 
47300 6.1224091537e+00 5.6377128845e-05 1.7451157470e+00 -3.0226291390e+00 1.7451157470e+00 3.0226291390e+00 
47400 6.1224091550e+00 5.6075139339e-05 1.7451157470e+00 -3.0226291390e+00 1.7451157470e+00 3.0226291390e+00 
47500 6.1224091563e+00 5.5730240361e-05 1.7451157470e+00 -3.0226291390e+00 1.7451157470e+00 3.0226291390e+00 
47600 6.1224091576e+00 5.5344626732e-05 1.7451157470e+00 -3.0226291390e+00 1.7451157470e+00 3.0226291390e+00 
47700 6.1224091589e+00 5.4920487053e-05 1.7451157470e+00 -3.0226291390e+00 1.7451157470e+00 3.0226291390e+00 
47800 6.1224091602e+00 5.4460000000e-05 1.7451157470e+00 -3.0226291390e+00 1.7451157470e+00 3.0226291390e+00 
47900 6.1224091615e+00 5.3965330799e-05 1.7451157470e+00 -3.0226291390e+00 1.7451157470e+00 3.0226291390e+00 
48000 6.1224091627e+00 5.3438627835e-05 1.7451157470e+00 -3.0226291390e+00 1.7451157470e+00 3.0226291390e+00 
48100 6.1224091640e+00 5.2882019410e-05 1.7451157470e+00 -3.0226291390e+00 1.7451157470e+00 3.0226291390e+00 
48200 6.1224091652e+00 5.2297610670e-05 1.7451157470e+00 -3.0226291390e+00 1.7451157470e+00 3.0226291390e+00 
48300 6.1224091664e+00 5.1687480672e-05 1.7451157470e+00 -3.0226291390e+00 1.7451157470e+00 3.0226291390e+00 
48400 6.1224091676e+00 5.1053679606e-05 1.7451157470e+00 -3.0226291390e+00 1.7451157470e+00 3.0226291390e+00 
48500 6.1224091688e+00 5.0398226169e-05 1.7451157470e+00 -3.0226291390e+00 1.7451157470e+00 3.0226291390e+00 
48600 6.1224091700e+00 4.9723105096e-05 1.7451157470e+00 -3.0226291390e+00 1.7451157470e+00 3.0226291390e+00 
48700 6.1224091711e+00 4.9030264829e-05 1.7451157470e+00 -3.0226291390e+00 1.7451157470e+00 3.0226291390e+00 
48800 6.1224091723e+00 4.8321615347e-05 1.7451157470e+00 -3.0226291390e+00 1.7451157470e+00 3.0226291390e+00 
48900 6.1224091734e+00 4.7599026133e-05 1.7451157470e+00 -3.0226291390e+00 1.7451157470e+00 3.0226291390e+00 
49000 6.1224091745e+00 4.6864324297e-05 1.7451157470e+00 -3.0226291390e+00 1.7451157470e+00 3.0226291390e+00 
49100 6.1224091755e+00 4.6119292830e-05 1.7451157470e+00 -3.0226291390e+00 1.7451157470e+00 3.0226291390e+00 
49200 6.1224091766e+00 4.5365669015e-05 1.7451157470e+00 -3.0226291390e+00 1.7451157470e+00 3.0226291390e+00 
49300 6.1224091776e+00 4.4605142960e-05 1.7451157470e+00 -3.0226291390e+00 1.7451157470e+00 3.0226291390e+00 
49400 6.1224091786e+00 4.3839356281e-05 1.7451157470e+00 -3.0226291390e+00 1.7451157470e+00 3.0226291390e+00 
49500 6.1224091796e+00 4.3069900917e-05 1.7451157470e+00 -3.0226291390e+00 1.7451157470e+00 3.0226291390e+00 
49600 6.1224091806e+00 4.2298318070e-05 1.7451157470e+00 -3.0226291390e+00 1.7451157470e+00 3.0226291390e+00 
49700 6.1224091815e+00 4.1526097282e-05 1.7451157470e+00 -3.0226291390e+00 1.7451157470e+00 3.0226291390e+00 
49800 6.1224091825e+00 4.0754675633e-05 1.7451157470e+00 -3.0226291390e+00 1.7451157470e+00 3.0226291390e+00 
49900 6.1224091834e+00 3.9985437061e-05 1.7451157470e+00 -3.0226291390e+00 1.7451157470e+00 3.0226291390e+00 
50000 6.1224091842e+00 3.9219711804e-05 1.7451157470e+00 -3.0226291390e+00 1.7451157470e+00 3.0226291390e+00 
50100 6.1224091851e+00 3.8458775959e-05 1.7451157470e+00 -3.0226291390e+00 1.7451157470e+00 3.0226291390e+00 
50200 6.1224091859e+00 3.7703851148e-05 1.7451157470e+00 -3.0226291390e+00 1.7451157470e+00 3.0226291390e+00 
50300 6.1224091867e+00 3.6956104303e-05 1.7451157470e+00 -3.0226291390e+00 1.7451157470e+00 3.0226291390e+00 
50400 6.1224091875e+00 3.6216647544e-05 1.7451157470e+00 -3.0226291390e+00 1.7451157470e+00 3.0226291390e+00 
50500 6.1224091883e+00 3.5486538169e-05 1.7451157470e+00 -3.0226291390e+00 1.7451157470e+00 3.0226291390e+00 
50600 6.1224091891e+00 3.4766778742e-05 1.7451157470e+00 -3.0226291390e+00 1.7451157470e+00 3.0226291390e+00 
50700 6.1224091898e+00 3.4058317269e-05 1.7451157470e+00 -3.0226291390e+00 1.7451157470e+00 3.0226291390e+00 
50800 6.1224091905e+00 3.3362047470e-05 1.7451157470e+00 -3.0226291390e+00 1.7451157470e+00 3.0226291390e+00 
50900 6.1224091912e+00 3.2678809140e-05 1.7451157470e+00 -3.0226291390e+00 1.7451157470e+00 3.0226291390e+00 
51000 6.1224091919e+00 3.2009388588e-05 1.7451157470e+00 -3.0226291390e+00 1.7451157470e+00 3.0226291390e+00 
51100 6.1224091926e+00 3.1354519158e-05 1.7451157470e+00 -3.0226291390e+00 1.7451157470e+00 3.0226291390e+00 
51200 6.1224091932e+00 3.0714881830e-05 1.7451157470e+00 -3.0226291390e+00 1.7451157470e+00 3.0226291390e+00 
51300 6.1224091939e+00 3.0091105882e-05 1.7451157470e+00 -3.0226291390e+00 1.7451157470e+00 3.0226291390e+00 
51400 6.1224091945e+00 2.9483769640e-05 1.7451157470e+00 -3.0226291390e+00 1.7451157470e+00 3.0226291390e+00 
51500 6.1224091951e+00 2.8893401267e-05 1.7451157470e+00 -3.0226291390e+00 1.7451157470e+00 3.0226291390e+00 
51600 6.1224091957e+00 2.8320479633e-05 1.7451157470e+00 -3.0226291390e+00 1.7451157470e+00 3.0226291390e+00 
51700 6.1224091962e+00 2.7765435235e-05 1.7451157470e+00 -3.0226291390e+00 1.7451157470e+00 3.0226291390e+00 
51800 6.1224091968e+00 2.7228651165e-05 1.7451157470e+00 -3.0226291390e+00 1.7451157470e+00 3.0226291390e+00 
51900 6.1224091974e+00 2.6710464142e-05 1.7451157470e+00 -3.0226291390e+00 1.7451157470e+00 3.0226291390e+00 
52000 6.1224091979e+00 2.6211165571e-05 1.7451157470e+00 -3.0226291390e+00 1.7451157470e+00 3.0226291390e+00 
52100 6.1224091984e+00 2.5731002659e-05 1.7451157470e+00 -3.0226291390e+00 1.7451157470e+00 3.0226291390e+00 
52200 6.1224091989e+00 2.5270179569e-05 1.7451157470e+00 -3.0226291390e+00 1.7451157470e+00 3.0226291390e+00 
52300 6.1224091994e+00 2.4828858598e-05 1.7451157470e+00 -3.0226291390e+00 1.7451157470e+00 3.0226291390e+00 
52400 6.1224091999e+00 2.4407161399e-05 1.7451157470e+00 -3.0226291390e+00 1.7451157470e+00 3.0226291390e+00 
52500 6.1224092004e+00 2.4005170229e-05 1.7451157470e+00 -3.0226291390e+00 1.7451157470e+00 3.0226291390e+00 
52600 6.1224092009e+00 2.3622929220e-05 1.7451157470e+00 -3.0226291390e+00 1.7451157470e+00 3.0226291390e+00 
52700 6.1224092014e+00 2.3260445671e-05 1.7451157470e+00 -3.0226291390e+00 1.7451157470e+00 3.0226291390e+00 
52800 6.1224092018e+00 2.2917691364e-05 1.7451157470e+00 -3.0226291390e+00 1.7451157470e+00 3.0226291390e+00 
52900 6.1224092023e+00 2.2594603895e-05 1.7451157470e+00 -3.0226291390e+00 1.7451157470e+00 3.0226291390e+00 
53000 6.1224092027e+00 2.2291088014e-05 1.7451157470e+00 -3.0226291390e+00 1.7451157470e+00 3.0226291390e+00 
53100 6.1224092032e+00 2.2007016983e-05 1.7451157470e+00 -3.0226291390e+00 1.7451157470e+00 3.0226291390e+00 
53200 6.1224092036e+00 2.1742233928e-05 1.7451157470e+00 -3.0226291390e+00 1.7451157470e+00 3.0226291390e+00 
53300 6.1224092040e+00 2.1496553216e-05 1.7451157470e+00 -3.0226291390e+00 1.7451157470e+00 3.0226291390e+00 
53400 6.1224092044e+00 2.1269761815e-05 1.7451157470e+00 -3.0226291390e+00 1.7451157470e+00 3.0226291390e+00 
53500 6.1224092049e+00 2.1061620663e-05 1.7451157470e+00 -3.0226291390e+00 1.7451157470e+00 3.0226291390e+00 
53600 6.1224092053e+00 2.0871866032e-05 1.7451157470e+00 -3.0226291390e+00 1.7451157470e+00 3.0226291390e+00 
53700 6.1224092057e+00 2.0700210895e-05 1.7451157470e+00 -3.0226291390e+00 1.7451157470e+00 3.0226291390e+00 
53800 6.1224092061e+00 2.0546346268e-05 1.7451157470e+00 -3.0226291390e+00 1.7451157470e+00 3.0226291390e+00 
53900 6.1224092065e+00 2.0409942558e-05 1.7451157470e+00 -3.0226291390e+00 1.7451157470e+00 3.0226291390e+00 
54000 6.1224092068e+00 2.0290650895e-05 1.7451157470e+00 -3.0226291390e+00 1.7451157470e+00 3.0226291390e+00 
54100 6.1224092072e+00 2.0188104448e-05 1.7451157470e+00 -3.0226291390e+00 1.7451157470e+00 3.0226291390e+00 
54200 6.1224092076e+00 2.0101919729e-05 1.7451157470e+00 -3.0226291390e+00 1.7451157470e+00 3.0226291390e+00 
54300 6.1224092080e+00 2.0031697878e-05 1.7451157470e+00 -3.0226291390e+00 1.7451157470e+00 3.0226291390e+00 
54400 6.1224092083e+00 1.9977025923e-05 1.7451157470e+00 -3.0226291390e+00 1.7451157470e+00 3.0226291390e+00 
54500 6.1224092087e+00 1.9937478040e-05 1.7451157470e+00 -3.0226291390e+00 1.7451157470e+00 3.0226291390e+00 
54600 6.1224092091e+00 1.9912616763e-05 1.7451157470e+00 -3.0226291390e+00 1.7451157470e+00 3.0226291390e+00 
54700 6.1224092094e+00 1.9901994195e-05 1.7451157470e+00 -3.0226291390e+00 1.7451157470e+00 3.0226291390e+00 
54800 6.1224092098e+00 1.9905153173e-05 1.7451157470e+00 -3.0226291390e+00 1.7451157470e+00 3.0226291390e+00 
54900 6.1224092101e+00 1.9921628432e-05 1.7451157470e+00 -3.0226291390e+00 1.7451157470e+00 3.0226291390e+00 
55000 6.1224092105e+00 1.9950947716e-05 1.7451157470e+00 -3.0226291390e+00 1.7451157470e+00 3.0226291390e+00 
55100 6.1224092108e+00 1.9992632883e-05 1.7451157470e+00 -3.0226291390e+00 1.7451157470e+00 3.0226291390e+00 
55200 6.1224092111e+00 2.0046200960e-05 1.7451157470e+00 -3.0226291390e+00 1.7451157470e+00 3.0226291390e+00 
55300 6.1224092115e+00 2.0111165194e-05 1.7451157470e+00 -3.0226291390e+00 1.7451157470e+00 3.0226291390e+00 
55400 6.1224092118e+00 2.0187036046e-05 1.7451157470e+00 -3.0226291390e+00 1.7451157470e+00 3.0226291390e+00 
55500 6.1224092121e+00 2.0273322169e-05 1.7451157470e+00 -3.0226291390e+00 1.7451157470e+00 3.0226291390e+00 
55600 6.1224092124e+00 2.0369531355e-05 1.7451157470e+00 -3.0226291390e+00 1.7451157470e+00 3.0226291390e+00 
55700 6.1224092127e+00 2.0475171436e-05 1.7451157470e+00 -3.0226291390e+00 1.7451157470e+00 3.0226291390e+00 
55800 6.1224092130e+00 2.0589751173e-05 1.7451157470e+00 -3.0226291390e+00 1.7451157470e+00 3.0226291390e+00 
55900 6.1224092133e+00 2.0712781090e-05 1.7451157470e+00 -3.0226291390e+00 1.7451157470e+00 3.0226291390e+00 
56000 6.1224092136e+00 2.0843774291e-05 1.7451157470e+00 -3.0226291390e+00 1.7451157470e+00 3.0226291390e+00 
56100 6.1224092139e+00 2.0982247232e-05 1.7451157470e+00 -3.0226291390e+00 1.7451157470e+00 3.0226291390e+00 
56200 6.1224092142e+00 2.1127720467e-05 1.7451157470e+00 -3.0226291390e+00 1.7451157470e+00 3.0226291390e+00 
56300 6.1224092145e+00 2.1279719355e-05 1.7451157470e+00 -3.0226291390e+00 1.7451157470e+00 3.0226291390e+00 
56400 6.1224092148e+00 2.1437774731e-05 1.7451157470e+00 -3.0226291390e+00 1.7451157470e+00 3.0226291390e+00 
56500 6.1224092151e+00 2.1601423553e-05 1.7451157470e+00 -3.0226291390e+00 1.7451157470e+00 3.0226291390e+00 
56600 6.1224092153e+00 2.1770209506e-05 1.7451157470e+00 -3.0226291390e+00 1.7451157470e+00 3.0226291390e+00 
56700 6.1224092156e+00 2.1943683568e-05 1.7451157470e+00 -3.0226291390e+00 1.7451157470e+00 3.0226291390e+00 
56800 6.1224092159e+00 2.2121404556e-05 1.7451157470e+00 -3.0226291390e+00 1.7451157470e+00 3.0226291390e+00 
56900 6.1224092161e+00 2.2302939627e-05 1.7451157470e+00 -3.0226291390e+00 1.7451157470e+00 3.0226291390e+00 
57000 6.1224092164e+00 2.2487864753e-05 1.7451157470e+00 -3.0226291390e+00 1.7451157470e+00 3.0226291390e+00 
57100 6.1224092167e+00 2.2675765158e-05 1.7451157470e+00 -3.0226291390e+00 1.7451157470e+00 3.0226291390e+00 
57200 6.1224092169e+00 2.2866235723e-05 1.7451157470e+00 -3.0226291390e+00 1.7451157470e+00 3.0226291390e+00 
57300 6.1224092172e+00 2.3058881365e-05 1.7451157470e+00 -3.0226291390e+00 1.7451157470e+00 3.0226291390e+00 
57400 6.1224092174e+00 2.3253317376e-05 1.7451157470e+00 -3.0226291390e+00 1.7451157470e+00 3.0226291390e+00 
57500 6.1224092176e+00 2.3449169739e-05 1.7451157470e+00 -3.0226291390e+00 1.7451157470e+00 3.0226291390e+00 
57600 6.1224092179e+00 2.3646075406e-05 1.7451157470e+00 -3.0226291390e+00 1.7451157470e+00 3.0226291390e+00 
57700 6.1224092181e+00 2.3843682554e-05 1.7451157470e+00 -3.0226291390e+00 1.7451157470e+00 3.0226291390e+00 
57800 6.1224092183e+00 2.4041650807e-05 1.7451157470e+00 -3.0226291390e+00 1.7451157470e+00 3.0226291390e+00 
57900 6.1224092185e+00 2.4239651424e-05 1.7451157470e+00 -3.0226291390e+00 1.7451157470e+00 3.0226291390e+00 
58000 6.1224092188e+00 2.4437367478e-05 1.7451157470e+00 -3.0226291390e+00 1.7451157470e+00 3.0226291390e+00 
58100 6.1224092190e+00 2.4634493982e-05 1.7451157470e+00 -3.0226291390e+00 1.7451157470e+00 3.0226291390e+00 
58200 6.1224092192e+00 2.4830738013e-05 1.7451157470e+00 -3.0226291390e+00 1.7451157470e+00 3.0226291390e+00 
58300 6.1224092194e+00 2.5025818790e-05 1.7451157470e+00 -3.0226291390e+00 1.7451157470e+00 3.0226291390e+00 
58400 6.1224092196e+00 2.5219467744e-05 1.7451157470e+00 -3.0226291390e+00 1.7451157470e+00 3.0226291390e+00 
58500 6.1224092198e+00 2.5411428549e-05 1.7451157470e+00 -3.0226291390e+00 1.7451157470e+00 3.0226291390e+00 
58600 6.1224092200e+00 2.5601457146e-05 1.7451157470e+00 -3.0226291390e+00 1.7451157470e+00 3.0226291390e+00 
58700 6.1224092202e+00 2.5789321726e-05 1.7451157470e+00 -3.0226291390e+00 1.7451157470e+00 3.0226291390e+00 
58800 6.1224092204e+00 2.5974802707e-05 1.7451157470e+00 -3.0226291390e+00 1.7451157470e+00 3.0226291390e+00 
58900 6.1224092206e+00 2.6157692679e-05 1.7451157470e+00 -3.0226291390e+00 1.7451157470e+00 3.0226291390e+00 
59000 6.1224092207e+00 2.6337796341e-05 1.7451157470e+00 -3.0226291390e+00 1.7451157470e+00 3.0226291390e+00 
59100 6.1224092209e+00 2.6514930403e-05 1.7451157470e+00 -3.0226291390e+00 1.7451157470e+00 3.0226291390e+00 
59200 6.1224092211e+00 2.6688923486e-05 1.7451157470e+00 -3.0226291390e+00 1.7451157470e+00 3.0226291390e+00 
59300 6.1224092213e+00 2.6859615992e-05 1.7451157470e+00 -3.0226291390e+00 1.7451157470e+00 3.0226291390e+00 
59400 6.1224092214e+00 2.7026859965e-05 1.7451157470e+00 -3.0226291390e+00 1.7451157470e+00 3.0226291390e+00 
59500 6.1224092216e+00 2.7190518933e-05 1.7451157470e+00 -3.0226291390e+00 1.7451157470e+00 3.0226291390e+00 
59600 6.1224092218e+00 2.7350467737e-05 1.7451157470e+00 -3.0226291390e+00 1.7451157470e+00 3.0226291390e+00 
59700 6.1224092219e+00 2.7506592341e-05 1.7451157470e+00 -3.0226291390e+00 1.7451157470e+00 3.0226291390e+00 
59800 6.1224092221e+00 2.7658789636e-05 1.7451157470e+00 -3.0226291390e+00 1.7451157470e+00 3.0226291390e+00 
59900 6.1224092223e+00 2.7806967228e-05 1.7451157470e+00 -3.0226291390e+00 1.7451157470e+00 3.0226291390e+00 
60000 6.1224092224e+00 2.7951043213e-05 1.7451157470e+00 -3.0226291390e+00 1.7451157470e+00 3.0226291390e+00 
60100 6.1224092226e+00 2.8090945942e-05 1.7451157470e+00 -3.0226291390e+00 1.7451157470e+00 3.0226291390e+00 
60200 6.1224092227e+00 2.8226613781e-05 1.7451157470e+00 -3.0226291390e+00 1.7451157470e+00 3.0226291390e+00 
60300 6.1224092229e+00 2.8357994853e-05 1.7451157470e+00 -3.0226291390e+00 1.7451157470e+00 3.0226291390e+00 
60400 6.1224092230e+00 2.8485046782e-05 1.7451157470e+00 -3.0226291390e+00 1.7451157470e+00 3.0226291390e+00 
60500 6.1224092231e+00 2.8607736416e-05 1.7451157470e+00 -3.0226291390e+00 1.7451157470e+00 3.0226291390e+00 
60600 6.1224092233e+00 2.8726039559e-05 1.7451157470e+00 -3.0226291390e+00 1.7451157470e+00 3.0226291390e+00 
60700 6.1224092234e+00 2.8839940686e-05 1.7451157470e+00 -3.0226291390e+00 1.7451157470e+00 3.0226291390e+00 
60800 6.1224092236e+00 2.8949432655e-05 1.7451157470e+00 -3.0226291390e+00 1.7451157470e+00 3.0226291390e+00 
60900 6.1224092237e+00 2.9054516412e-05 1.7451157470e+00 -3.0226291390e+00 1.7451157470e+00 3.0226291390e+00 
61000 6.1224092238e+00 2.9155200704e-05 1.7451157470e+00 -3.0226291390e+00 1.7451157470e+00 3.0226291390e+00 
61100 6.1224092240e+00 2.9251501769e-05 1.7451157470e+00 -3.0226291390e+00 1.7451157470e+00 3.0226291390e+00 
61200 6.1224092241e+00 2.9343443041e-05 1.7451157470e+00 -3.0226291390e+00 1.7451157470e+00 3.0226291390e+00 
61300 6.1224092242e+00 2.9431054846e-05 1.7451157470e+00 -3.0226291390e+00 1.7451157470e+00 3.0226291390e+00 
61400 6.1224092243e+00 2.9514374094e-05 1.7451157470e+00 -3.0226291390e+00 1.7451157470e+00 3.0226291390e+00 
61500 6.1224092244e+00 2.9593443972e-05 1.7451157470e+00 -3.0226291390e+00 1.7451157470e+00 3.0226291390e+00 
61600 6.1224092246e+00 2.9668313643e-05 1.7451157470e+00 -3.0226291390e+00 1.7451157470e+00 3.0226291390e+00 
61700 6.1224092247e+00 2.9739037938e-05 1.7451157470e+00 -3.0226291390e+00 1.7451157470e+00 3.0226291390e+00 
61800 6.1224092248e+00 2.9805677046e-05 1.7451157470e+00 -3.0226291390e+00 1.7451157470e+00 3.0226291390e+00 
61900 6.1224092249e+00 2.9868296217e-05 1.7451157470e+00 -3.0226291390e+00 1.7451157470e+00 3.0226291390e+00 
62000 6.1224092250e+00 2.9926965456e-05 1.7451157470e+00 -3.0226291390e+00 1.7451157470e+00 3.0226291390e+00 
62100 6.1224092251e+00 2.9981759228e-05 1.7451157470e+00 -3.0226291390e+00 1.7451157470e+00 3.0226291390e+00 
62200 6.1224092252e+00 3.0032756157e-05 1.7451157470e+00 -3.0226291390e+00 1.7451157470e+00 3.0226291390e+00 
62300 6.1224092254e+00 3.0080038737e-05 1.7451157470e+00 -3.0226291390e+00 1.7451157470e+00 3.0226291390e+00 
62400 6.1224092255e+00 3.0123693039e-05 1.7451157470e+00 -3.0226291390e+00 1.7451157470e+00 3.0226291390e+00 
62500 6.1224092256e+00 3.0163808424e-05 1.7451157470e+00 -3.0226291390e+00 1.7451157470e+00 3.0226291390e+00 
62600 6.1224092257e+00 3.0200477270e-05 1.7451157470e+00 -3.0226291390e+00 1.7451157470e+00 3.0226291390e+00 
62700 6.1224092258e+00 3.0233794686e-05 1.7451157470e+00 -3.0226291390e+00 1.7451157470e+00 3.0226291390e+00 
62800 6.1224092259e+00 3.0263858247e-05 1.7451157470e+00 -3.0226291390e+00 1.7451157470e+00 3.0226291390e+00 
62900 6.1224092260e+00 3.0290767727e-05 1.7451157470e+00 -3.0226291390e+00 1.7451157470e+00 3.0226291390e+00 
63000 6.1224092261e+00 3.0314624836e-05 1.7451157470e+00 -3.0226291390e+00 1.7451157470e+00 3.0226291390e+00 
63100 6.1224092262e+00 3.0335532968e-05 1.7451157470e+00 -3.0226291390e+00 1.7451157470e+00 3.0226291390e+00 
63200 6.1224092263e+00 3.0353596955e-05 1.7451157470e+00 -3.0226291390e+00 1.7451157470e+00 3.0226291390e+00 
63300 6.1224092264e+00 3.0368922822e-05 1.7451157470e+00 -3.0226291390e+00 1.7451157470e+00 3.0226291390e+00 
63400 6.1224092264e+00 3.0381617549e-05 1.7451157470e+00 -3.0226291390e+00 1.7451157470e+00 3.0226291390e+00 
63500 6.1224092265e+00 3.0391788852e-05 1.7451157470e+00 -3.0226291390e+00 1.7451157470e+00 3.0226291390e+00 
63600 6.1224092266e+00 3.0399544956e-05 1.7451157470e+00 -3.0226291390e+00 1.7451157470e+00 3.0226291390e+00 
63700 6.1224092267e+00 3.0404994376e-05 1.7451157470e+00 -3.0226291390e+00 1.7451157470e+00 3.0226291390e+00 
63800 6.1224092268e+00 3.0408245719e-05 1.7451157470e+00 -3.0226291390e+00 1.7451157470e+00 3.0226291390e+00 
63900 6.1224092269e+00 3.0409407480e-05 1.7451157470e+00 -3.0226291390e+00 1.7451157470e+00 3.0226291390e+00 
64000 6.1224092270e+00 3.0408587849e-05 1.7451157470e+00 -3.0226291390e+00 1.7451157470e+00 3.0226291390e+00 
64100 6.1224092271e+00 3.0405894527e-05 1.7451157470e+00 -3.0226291390e+00 1.7451157470e+00 3.0226291390e+00 
64200 6.1224092271e+00 3.0401434549e-05 1.7451157470e+00 -3.0226291390e+00 1.7451157470e+00 3.0226291390e+00 
64300 6.1224092272e+00 3.0395314116e-05 1.7451157470e+00 -3.0226291390e+00 1.7451157470e+00 3.0226291390e+00 
64400 6.1224092273e+00 3.0387638432e-05 1.7451157470e+00 -3.0226291390e+00 1.7451157470e+00 3.0226291390e+00 
64500 6.1224092274e+00 3.0378511546e-05 1.7451157470e+00 -3.0226291390e+00 1.7451157470e+00 3.0226291390e+00 
64600 6.1224092274e+00 3.0368036208e-05 1.7451157470e+00 -3.0226291390e+00 1.7451157470e+00 3.0226291390e+00 
64700 6.1224092275e+00 3.0356313739e-05 1.7451157470e+00 -3.0226291390e+00 1.7451157470e+00 3.0226291390e+00 
64800 6.1224092276e+00 3.0343443878e-05 1.7451157470e+00 -3.0226291390e+00 1.7451157470e+00 3.0226291390e+00 
64900 6.1224092277e+00 3.0329524684e-05 1.7451157470e+00 -3.0226291390e+00 1.7451157470e+00 3.0226291390e+00 
65000 6.1224092277e+00 3.0314652401e-05 1.7451157470e+00 -3.0226291390e+00 1.7451157470e+00 3.0226291390e+00 
65100 6.1224092278e+00 3.0298921354e-05 1.7451157470e+00 -3.0226291390e+00 1.7451157470e+00 3.0226291390e+00 
65200 6.1224092279e+00 3.0282423856e-05 1.7451157470e+00 -3.0226291390e+00 1.7451157470e+00 3.0226291390e+00 
65300 6.1224092280e+00 3.0265250097e-05 1.7451157470e+00 -3.0226291390e+00 1.7451157470e+00 3.0226291390e+00 
65400 6.1224092280e+00 3.0247488078e-05 1.7451157470e+00 -3.0226291390e+00 1.7451157470e+00 3.0226291390e+00 
65500 6.1224092281e+00 3.0229223511e-05 1.7451157470e+00 -3.0226291390e+00 1.7451157470e+00 3.0226291390e+00 
65600 6.1224092282e+00 3.0210539761e-05 1.7451157470e+00 -3.0226291390e+00 1.7451157470e+00 3.0226291390e+00 
65700 6.1224092282e+00 3.0191517774e-05 1.7451157470e+00 -3.0226291390e+00 1.7451157470e+00 3.0226291390e+00 
65800 6.1224092283e+00 3.0172236019e-05 1.7451157470e+00 -3.0226291390e+00 1.7451157470e+00 3.0226291390e+00 
65900 6.1224092283e+00 3.0152770430e-05 1.7451157470e+00 -3.0226291390e+00 1.7451157470e+00 3.0226291390e+00 
66000 6.1224092284e+00 3.0133194372e-05 1.7451157470e+00 -3.0226291390e+00 1.7451157470e+00 3.0226291390e+00 
66100 6.1224092285e+00 3.0113578593e-05 1.7451157470e+00 -3.0226291390e+00 1.7451157470e+00 3.0226291390e+00 
66200 6.1224092285e+00 3.0093991187e-05 1.7451157470e+00 -3.0226291390e+00 1.7451157470e+00 3.0226291390e+00 
66300 6.1224092286e+00 3.0074497576e-05 1.7451157470e+00 -3.0226291390e+00 1.7451157470e+00 3.0226291390e+00 
66400 6.1224092286e+00 3.0055160479e-05 1.7451157470e+00 -3.0226291390e+00 1.7451157470e+00 3.0226291390e+00 
66500 6.1224092287e+00 3.0036039905e-05 1.7451157470e+00 -3.0226291390e+00 1.7451157470e+00 3.0226291390e+00 
66600 6.1224092288e+00 3.0017193135e-05 1.7451157470e+00 -3.0226291390e+00 1.7451157470e+00 3.0226291390e+00 
66700 6.1224092288e+00 2.9998674720e-05 1.7451157470e+00 -3.0226291390e+00 1.7451157470e+00 3.0226291390e+00 
66800 6.1224092289e+00 2.9980536479e-05 1.7451157470e+00 -3.0226291390e+00 1.7451157470e+00 3.0226291390e+00 
66900 6.1224092289e+00 2.9962827506e-05 1.7451157470e+00 -3.0226291390e+00 1.7451157470e+00 3.0226291390e+00 
67000 6.1224092290e+00 2.9945594178e-05 1.7451157470e+00 -3.0226291390e+00 1.7451157470e+00 3.0226291390e+00 
67100 6.1224092290e+00 2.9928880168e-05 1.7451157470e+00 -3.0226291390e+00 1.7451157470e+00 3.0226291390e+00 
67200 6.1224092291e+00 2.9912726470e-05 1.7451157470e+00 -3.0226291390e+00 1.7451157470e+00 3.0226291390e+00 
67300 6.1224092291e+00 2.9897171409e-05 1.7451157470e+00 -3.0226291390e+00 1.7451157470e+00 3.0226291390e+00 
67400 6.1224092292e+00 2.9882250681e-05 1.7451157470e+00 -3.0226291390e+00 1.7451157470e+00 3.0226291390e+00 
67500 6.1224092292e+00 2.9867997376e-05 1.7451157470e+00 -3.0226291390e+00 1.7451157470e+00 3.0226291390e+00 
67600 6.1224092293e+00 2.9854442011e-05 1.7451157470e+00 -3.0226291390e+00 1.7451157470e+00 3.0226291390e+00 
67700 6.1224092293e+00 2.9848706059e-05 1.7451157470e+00 -3.0226291390e+00 1.7451157470e+00 3.0226291390e+00 
67700 6.1224092293e+00 2.9848706059e-05 1.7451157470e+00 -3.0226291390e+00 1.7451157470e+00 3.0226291390e+00 
