# step Hamiltonian StressXX CellTensor1 CellTensor2 CellTensor3 CellTensor4 
0 4.6062685340e+00 -3.8405920914e-01 1.7438352029e+00 -3.0204111715e+00 1.7438352029e+00 3.0204111715e+00 
100 4.5998405821e+00 -3.8307739536e-01 1.7438352029e+00 -3.0204111715e+00 1.7438352029e+00 3.0204111715e+00 
200 4.5904779673e+00 -3.7209207800e-01 1.7548304225e+00 -3.0394554505e+00 1.7548304225e+00 3.0394554505e+00 
300 4.5830158688e+00 -3.6186696452e-01 1.7654429721e+00 -3.0578369256e+00 1.7654429721e+00 3.0578369256e+00 
400 4.5771816599e+00 -3.5235152348e-01 1.7757014472e+00 -3.0756051257e+00 1.7757014472e+00 3.0756051257e+00 
500 4.5727109534e+00 -3.4350394972e-01 1.7856321093e+00 -3.0928055369e+00 1.7856321093e+00 3.0928055369e+00 
600 4.5693506948e+00 -3.3528895865e-01 1.7952592515e+00 -3.1094802363e+00 1.7952592515e+00 3.1094802363e+00 
700 4.5668621081e+00 -3.2767584003e-01 1.8046054817e+00 -3.1256683819e+00 1.8046054817e+00 3.1256683819e+00 
800 4.5650233497e+00 -3.2063678930e-01 1.8136919336e+00 -3.1414065782e+00 1.8136919336e+00 3.1414065782e+00 
900 4.5636317559e+00 -3.1414552430e-01 1.8225384187e+00 -3.1567291399e+00 1.8225384187e+00 3.1567291399e+00 
1000 4.5625056068e+00 -3.0817618634e-01 1.8311635303e+00 -3.1716682714e+00 1.8311635303e+00 3.1716682714e+00 
1100 4.5614853578e+00 -3.0270251611e-01 1.8395847097e+00 -3.1862541820e+00 1.8395847097e+00 3.1862541820e+00 
1200 4.5604343204e+00 -2.9769728731e-01 1.8478182840e+00 -3.2005151511e+00 1.8478182840e+00 3.2005151511e+00 
1300 4.5592388004e+00 -2.9313197436e-01 1.8558794837e+00 -3.2144775586e+00 1.8558794837e+00 3.2144775586e+00 
1400 4.5578077244e+00 -2.8897662521e-01 1.8637824481e+00 -3.2281658944e+00 1.8637824481e+00 3.2281658944e+00 
1500 4.5560718035e+00 -2.8519990673e-01 1.8715402240e+00 -3.2416027563e+00 1.8715402240e+00 3.2416027563e+00 
1600 4.5539822964e+00 -2.8176928798e-01 1.8791647632e+00 -3.2548088457e+00 1.8791647632e+00 3.2548088457e+00 
1700 4.5515094457e+00 -2.7865132640e-01 1.8866669235e+00 -3.2678029684e+00 1.8866669235e+00 3.2678029684e+00 
1800 4.5486406614e+00 -2.7581202329e-01 1.8940564737e+00 -3.2806020448e+00 1.8940564737e+00 3.2806020448e+00 
1900 4.5453785306e+00 -2.7321721766e-01 1.9013421080e+00 -3.2932211335e+00 1.9013421080e+00 3.2932211335e+00 
2000 4.5417387271e+00 -2.7083299132e-01 1.9085314676e+00 -3.3056734697e+00 1.9085314676e+00 3.3056734697e+00 
2100 4.5377478870e+00 -2.6862606243e-01 1.9156311719e+00 -3.3179705183e+00 1.9156311719e+00 3.3179705183e+00 
2200 4.5334415131e+00 -2.6656414991e-01 1.9226468578e+00 -3.3301220427e+00 1.9226468578e+00 3.3301220427e+00 
2300 4.5288619561e+00 -2.6461629559e-01 1.9295832267e+00 -3.3421361861e+00 1.9295832267e+00 3.3421361861e+00 
2400 4.5240565150e+00 -2.6275313604e-01 1.9364440985e+00 -3.3540195646e+00 1.9364440985e+00 3.3540195646e+00 
2500 4.5190756868e+00 -2.6094711966e-01 1.9432324697e+00 -3.3657773684e+00 1.9432324697e+00 3.3657773684e+00 
2600 4.5139715876e+00 -2.5917266852e-01 1.9499505767e+00 -3.3774134711e+00 1.9499505767e+00 3.3774134711e+00 
2700 4.5087965566e+00 -2.5740628689e-01 1.9565999602e+00 -3.3889305411e+00 1.9565999602e+00 3.3889305411e+00 
2800 4.5036019503e+00 -2.5562662077e-01 1.9631815312e+00 -3.4003301565e+00 1.9631815312e+00 3.4003301565e+00 
2900 4.4984371243e+00 -2.5381447374e-01 1.9696956370e+00 -3.4116129187e+00 1.9696956370e+00 3.4116129187e+00 
3000 4.4933485978e+00 -2.5195278583e-01 1.9761421252e+00 -3.4227785639e+00 1.9761421252e+00 3.4227785639e+00 
3100 4.4883793906e+00 -2.5002658165e-01 1.9825204067e+00 -3.4338260714e+00 1.9825204067e+00 3.4338260714e+00 
3200 4.4835685203e+00 -2.4802289475e-01 1.9888295146e+00 -3.4447537669e+00 1.9888295146e+00 3.4447537669e+00 
3300 4.4789506447e+00 -2.4593067413e-01 1.9950681612e+00 -3.4555594198e+00 1.9950681612e+00 3.4555594198e+00 
3400 4.4745558352e+00 -2.4374067859e-01 2.0012347904e+00 -3.4662403349e+00 2.0012347904e+00 3.4662403349e+00 
3500 4.4704094642e+00 -2.4144536386e-01 2.0073276268e+00 -3.4767934370e+00 2.0073276268e+00 3.4767934370e+00 
3600 4.4665321923e+00 -2.3903876654e-01 2.0133447205e+00 -3.4872153490e+00 2.0133447205e+00 3.4872153490e+00 
3700 4.4629400392e+00 -2.3651638827e-01 2.0192839887e+00 -3.4975024634e+00 2.0192839887e+00 3.4975024634e+00 
3800 4.4596445261e+00 -2.3387508275e-01 2.0251432533e+00 -3.5076510074e+00 2.0251432533e+00 3.5076510074e+00 
3900 4.4566528748e+00 -2.3111294752e-01 2.0309202745e+00 -3.5176571015e+00 2.0309202745e+00 3.5176571015e+00 
4000 4.4539682536e+00 -2.2822922194e-01 2.0366127816e+00 -3.5275168130e+00 2.0366127816e+00 3.5275168130e+00 
4100 4.4515900580e+00 -2.2522419203e-01 2.0422185007e+00 -3.5372262034e+00 2.0422185007e+00 3.5372262034e+00 
4200 4.4495142186e+00 -2.2209910270e-01 2.0477351796e+00 -3.5467813716e+00 2.0477351796e+00 3.5467813716e+00 
4300 4.4477335271e+00 -2.1885607736e-01 2.0531606096e+00 -3.5561784919e+00 2.0531606096e+00 3.5561784919e+00 
4400 4.4462379735e+00 -2.1549804451e-01 2.0584926454e+00 -3.5654138488e+00 2.0584926454e+00 3.5654138488e+00 
4500 4.4450150890e+00 -2.1202867102e-01 2.0637292233e+00 -3.5744838678e+00 2.0637292233e+00 3.5744838678e+00 
4600 4.4440502895e+00 -2.0845230125e-01 2.0688683766e+00 -3.5833851424e+00 2.0688683766e+00 3.5833851424e+00 
4700 4.4433272154e+00 -2.0477390136e-01 2.0739082500e+00 -3.5921144592e+00 2.0739082500e+00 3.5921144592e+00 
4800 4.4428280632e+00 -2.0099900793e-01 2.0788471124e+00 -3.6006688199e+00 2.0788471124e+00 3.6006688199e+00 
4900 4.4425339086e+00 -1.9713367999e-01 2.0836833683e+00 -3.6090454608e+00 2.0836833683e+00 3.6090454608e+00 
5000 4.4424250154e+00 -1.9318445367e-01 2.0884155676e+00 -3.6172418705e+00 2.0884155676e+00 3.6172418705e+00 
5100 4.4424811303e+00 -1.8915829860e-01 2.0930424150e+00 -3.6252558053e+00 2.0930424150e+00 3.6252558053e+00 
5200 4.4426817615e+00 -1.8506257528e-01 2.0975627777e+00 -3.6330853030e+00 2.0975627777e+00 3.6330853030e+00 
5300 4.4430064398e+00 -1.8090499282e-01 2.1019756923e+00 -3.6407286953e+00 2.1019756923e+00 3.6407286953e+00 
5400 4.4434349601e+00 -1.7669356641e-01 2.1062803708e+00 -3.6481846172e+00 2.1062803708e+00 3.6481846172e+00 
5500 4.4439476038e+00 -1.7243657405e-01 2.1104762057e+00 -3.6554520164e+00 2.1104762057e+00 3.6554520164e+00 
5600 4.4445253405e+00 -1.6814251233e-01 2.1145627739e+00 -3.6625301601e+00 2.1145627739e+00 3.6625301601e+00 
5700 4.4451500081e+00 -1.6382005101e-01 2.1185398396e+00 -3.6694186401e+00 2.1185398396e+00 3.6694186401e+00 
5800 4.4458044716e+00 -1.5947798634e-01 2.1224073569e+00 -3.6761173765e+00 2.1224073569e+00 3.6761173765e+00 
5900 4.4464727593e+00 -1.5512519333e-01 2.1261654704e+00 -3.6826266200e+00 2.1261654704e+00 3.6826266200e+00 
6000 4.4471401770e+00 -1.5077057716e-01 2.1298145155e+00 -3.6889469516e+00 2.1298145155e+00 3.6889469516e+00 
6100 4.4477933991e+00 -1.4642302415e-01 2.1333550180e+00 -3.6950792817e+00 2.1333550180e+00 3.6950792817e+00 
6200 4.4484205384e+00 -1.4209135266e-01 2.1367876913e+00 -3.7010248463e+00 2.1367876913e+00 3.7010248463e+00 
6300 4.4490111923e+00 -1.3778426465e-01 2.1401134345e+00 -3.7067852026e+00 2.1401134345e+00 3.7067852026e+00 
6400 4.4495564681e+00 -1.3351029837e-01 2.1433333282e+00 -3.7123622220e+00 2.1433333282e+00 3.7123622220e+00 
6500 4.4500489880e+00 -1.2927778279e-01 2.1464486296e+00 -3.7177580823e+00 2.1464486296e+00 3.7177580823e+00 
6600 4.4504828722e+00 -1.2509479448e-01 2.1494607672e+00 -3.7229752576e+00 2.1494607672e+00 3.7229752576e+00 
6700 4.4508537054e+00 -1.2096911740e-01 2.1523713339e+00 -3.7280165071e+00 2.1523713339e+00 3.7280165071e+00 
6800 4.4511584842e+00 -1.1690820609e-01 2.1551820805e+00 -3.7328848629e+00 2.1551820805e+00 3.7328848629e+00 
6900 4.4513955489e+00 -1.1291915269e-01 2.1578949069e+00 -3.7375836161e+00 2.1578949069e+00 3.7375836161e+00 
7000 4.4515645022e+00 -1.0900865797e-01 2.1605118541e+00 -3.7421163017e+00 2.1605118541e+00 3.7421163017e+00 
7100 4.4516661146e+00 -1.0518300663e-01 2.1630350953e+00 -3.7464866835e+00 2.1630350953e+00 3.7464866835e+00 
7200 4.4517022203e+00 -1.0144804682e-01 2.1654669257e+00 -3.7506987373e+00 2.1654669257e+00 3.7506987373e+00 
7300 4.4516756048e+00 -9.7809173830e-02 2.1678097533e+00 -3.7547566339e+00 2.1678097533e+00 3.7547566339e+00 
7400 4.4515898869e+00 -9.4271317789e-02 2.1700660888e+00 -3.7586647216e+00 2.1700660888e+00 3.7586647216e+00 
7500 4.4514493970e+00 -9.0838935154e-02 2.1722385348e+00 -3.7624275084e+00 2.1722385348e+00 3.7624275084e+00 
7600 4.4512590526e+00 -8.7516003658e-02 2.1743297760e+00 -3.7660496444e+00 2.1743297760e+00 3.7660496444e+00 
7700 4.4510242358e+00 -8.4306020423e-02 2.1763425685e+00 -3.7695359032e+00 2.1763425685e+00 3.7695359032e+00 
7800 4.4507506709e+00 -8.1212002920e-02 2.1782797293e+00 -3.7728911643e+00 2.1782797293e+00 3.7728911643e+00 
7900 4.4504443069e+00 -7.8236492450e-02 2.1801441266e+00 -3.7761203951e+00 2.1801441266e+00 3.7761203951e+00 
8000 4.4501112047e+00 -7.5381559852e-02 2.1819386689e+00 -3.7792286335e+00 2.1819386689e+00 3.7792286335e+00 
8100 4.4497574306e+00 -7.2648813190e-02 2.1836662953e+00 -3.7822209703e+00 2.1836662953e+00 3.7822209703e+00 
8200 4.4493889576e+00 -7.0039407189e-02 2.1853299660e+00 -3.7851025323e+00 2.1853299660e+00 3.7851025323e+00 
8300 4.4490115750e+00 -6.7554054227e-02 2.1869326521e+00 -3.7878784662e+00 2.1869326521e+00 3.7878784662e+00 
8400 4.4486308077e+00 -6.5193036741e-02 2.1884773270e+00 -3.7905539216e+00 2.1884773270e+00 3.7905539216e+00 
8500 4.4482518451e+00 -6.2956220893e-02 2.1899669569e+00 -3.7931340363e+00 2.1899669569e+00 3.7931340363e+00 
8600 4.4478794804e+00 -6.0843071416e-02 2.1914044924e+00 -3.7956239208e+00 2.1914044924e+00 3.7956239208e+00 
8700 4.4475180605e+00 -5.8852667509e-02 2.1927928598e+00 -3.7980286437e+00 2.1927928598e+00 3.7980286437e+00 
8800 4.4471714466e+00 -5.6983719710e-02 2.1941349534e+00 -3.8003532180e+00 2.1941349534e+00 3.8003532180e+00 
8900 4.4468429858e+00 -5.5234587645e-02 2.1954336278e+00 -3.8026025880e+00 2.1954336278e+00 3.8026025880e+00 
9000 4.4465354923e+00 -5.3603298553e-02 2.1966916904e+00 -3.8047816164e+00 2.1966916904e+00 3.8047816164e+00 
9100 4.4462512398e+00 -5.2087566495e-02 2.1979118948e+00 -3.8068950724e+00 2.1979118948e+00 3.8068950724e+00 
9200 4.4459919625e+00 -5.0684812129e-02 2.1990969343e+00 -3.8089476209e+00 2.1990969343e+00 3.8089476209e+00 
9300 4.4457588658e+00 -4.9392182950e-02 2.2002494354e+00 -3.8109438115e+00 2.2002494354e+00 3.8109438115e+00 
9400 4.4455526448e+00 -4.8206573872e-02 2.2013719532e+00 -3.8128880693e+00 2.2013719532e+00 3.8128880693e+00 
9500 4.4453735104e+00 -4.7124648045e-02 2.2024669650e+00 -3.8147846854e+00 2.2024669650e+00 3.8147846854e+00 
9600 4.4452212220e+00 -4.6142857790e-02 2.2035368667e+00 -3.8166378095e+00 2.2035368667e+00 3.8166378095e+00 
9700 4.4450951255e+00 -4.5257465553e-02 2.2045839676e+00 -3.8184514415e+00 2.2045839676e+00 3.8184514415e+00 
9800 4.4449941959e+00 -4.4464564768e-02 2.2056104873e+00 -3.8202294257e+00 2.2056104873e+00 3.8202294257e+00 
9900 4.4449170833e+00 -4.3760100552e-02 2.2066185517e+00 -3.8219754445e+00 2.2066185517e+00 3.8219754445e+00 
10000 4.4448621612e+00 -4.3139890144e-02 2.2076101906e+00 -3.8236930135e+00 2.2076101906e+00 3.8236930135e+00 
10100 4.4448275764e+00 -4.2599643018e-02 2.2085873349e+00 -3.8253854770e+00 2.2085873349e+00 3.8253854770e+00 
10200 4.4448112986e+00 -4.2134980617e-02 2.2095518143e+00 -3.8270560044e+00 2.2095518143e+00 3.8270560044e+00 
10300 4.4448111700e+00 -4.1741455647e-02 2.2105053563e+00 -3.8287075876e+00 2.2105053563e+00 3.8287075876e+00 
10400 4.4448249531e+00 -4.1414570894e-02 2.2114495844e+00 -3.8303430386e+00 2.2114495844e+00 3.8303430386e+00 
10500 4.4448503763e+00 -4.1149797529e-02 2.2123860176e+00 -3.8319649884e+00 2.2123860176e+00 3.8319649884e+00 
10600 4.4448851760e+00 -4.0942592863e-02 2.2133160695e+00 -3.8335758856e+00 2.2133160695e+00 3.8335758856e+00 
10700 4.4449271363e+00 -4.0788417524e-02 2.2142410491e+00 -3.8351779972e+00 2.2142410491e+00 3.8351779972e+00 
10800 4.4449741233e+00 -4.0682752040e-02 2.2151621603e+00 -3.8367734086e+00 2.2151621603e+00 3.8367734086e+00 
10900 4.4450241160e+00 -4.0621112783e-02 2.2160805030e+00 -3.8383640249e+00 2.2160805030e+00 3.8383640249e+00 
11000 4.4450752321e+00 -4.0599067271e-02 2.2169970742e+00 -3.8399515728e+00 2.2169970742e+00 3.8399515728e+00 
11100 4.4451257497e+00 -4.0612248785e-02 2.2179127692e+00 -3.8415376030e+00 2.2179127692e+00 3.8415376030e+00 
11200 4.4451741232e+00 -4.0656370284e-02 2.2188283832e+00 -3.8431234930e+00 2.2188283832e+00 3.8431234930e+00 
11300 4.4452189959e+00 -4.0727237585e-02 2.2197446138e+00 -3.8447104509e+00 2.2197446138e+00 3.8447104509e+00 
11400 4.4452592068e+00 -4.0820761790e-02 2.2206620626e+00 -3.8462995189e+00 2.2206620626e+00 3.8462995189e+00 
11500 4.4452937943e+00 -4.0932970929e-02 2.2215812384e+00 -3.8478915781e+00 2.2215812384e+00 3.8478915781e+00 
11600 4.4453219953e+00 -4.1060020783e-02 2.2225025596e+00 -3.8494873532e+00 2.2225025596e+00 3.8494873532e+00 
11700 4.4453432408e+00 -4.1198204883e-02 2.2234263575e+00 -3.8510874181e+00 2.2234263575e+00 3.8510874181e+00 
11800 4.4453571488e+00 -4.1343963646e-02 2.2243528794e+00 -3.8526922011e+00 2.2243528794e+00 3.8526922011e+00 
11900 4.4453635138e+00 -4.1493892636e-02 2.2252822923e+00 -3.8543019914e+00 2.2252822923e+00 3.8543019914e+00 
12000 4.4453622947e+00 -4.1644749936e-02 2.2262146861e+00 -3.8559169448e+00 2.2262146861e+00 3.8559169448e+00 
12100 4.4453536004e+00 -4.1793462612e-02 2.2271500780e+00 -3.8575370912e+00 2.2271500780e+00 3.8575370912e+00 
12200 4.4453376739e+00 -4.1937132271e-02 2.2280884161e+00 -3.8591623404e+00 2.2280884161e+00 3.8591623404e+00 
12300 4.4453148760e+00 -4.2073039706e-02 2.2290295835e+00 -3.8607924902e+00 2.2290295835e+00 3.8607924902e+00 
12400 4.4452856676e+00 -4.2198648631e-02 2.2299734024e+00 -3.8624272326e+00 2.2299734024e+00 3.8624272326e+00 
12500 4.4452505927e+00 -4.2311608519e-02 2.2309196387e+00 -3.8640661617e+00 2.2309196387e+00 3.8640661617e+00 
12600 4.4452102605e+00 -4.2409756547e-02 2.2318680055e+00 -3.8657087813e+00 2.2318680055e+00 3.8657087813e+00 
12700 4.4451653290e+00 -4.2491118678e-02 2.2328181684e+00 -3.8673545118e+00 2.2328181684e+00 3.8673545118e+00 
12800 4.4451164884e+00 -4.2553909892e-02 2.2337697492e+00 -3.8690026980e+00 2.2337697492e+00 3.8690026980e+00 
12900 4.4450644459e+00 -4.2596533603e-02 2.2347223302e+00 -3.8706526167e+00 2.2347223302e+00 3.8706526167e+00 
13000 4.4450099117e+00 -4.2617580282e-02 2.2356754589e+00 -3.8723034840e+00 2.2356754589e+00 3.8723034840e+00 
13100 4.4449535859e+00 -4.2615825332e-02 2.2366286519e+00 -3.8739544628e+00 2.2366286519e+00 3.8739544628e+00 
13200 4.4448961467e+00 -4.2590226245e-02 2.2375813995e+00 -3.8756046700e+00 2.2375813995e+00 3.8756046700e+00 
13300 4.4448382410e+00 -4.2539919083e-02 2.2385331692e+00 -3.8772531835e+00 2.2385331692e+00 3.8772531835e+00 
13400 4.4447804749e+00 -4.2464214326e-02 2.2394834104e+00 -3.8788990495e+00 2.2394834104e+00 3.8788990495e+00 
13500 4.4447234075e+00 -4.2362592131e-02 2.2404315578e+00 -3.8805412890e+00 2.2404315578e+00 3.8805412890e+00 
13600 4.4446675444e+00 -4.2234697049e-02 2.2413770357e+00 -3.8821789048e+00 2.2413770357e+00 3.8821789048e+00 
13700 4.4446133341e+00 -4.2080332234e-02 2.2423192613e+00 -3.8838108873e+00 2.2423192613e+00 3.8838108873e+00 
13800 4.4445611652e+00 -4.1899453210e-02 2.2432576483e+00 -3.8854362213e+00 2.2432576483e+00 3.8854362213e+00 
13900 4.4445113643e+00 -4.1692161228e-02 2.2441916105e+00 -3.8870538914e+00 2.2441916105e+00 3.8870538914e+00 
14000 4.4444641965e+00 -4.1458696263e-02 2.2451205650e+00 -3.8886628877e+00 2.2451205650e+00 3.8886628877e+00 
14100 4.4444198655e+00 -4.1199429695e-02 2.2460439349e+00 -3.8902622113e+00 2.2460439349e+00 3.8902622113e+00 
14200 4.4443785158e+00 -4.0914856726e-02 2.2469611528e+00 -3.8918508793e+00 2.2469611528e+00 3.8918508793e+00 
14300 4.4443402353e+00 -4.0605588569e-02 2.2478716630e+00 -3.8934279291e+00 2.2478716630e+00 3.8934279291e+00 
14400 4.4443050584e+00 -4.0272344461e-02 2.2487749242e+00 -3.8949924235e+00 2.2487749242e+00 3.8949924235e+00 
14500 4.4442729703e+00 -3.9915943531e-02 2.2496704121e+00 -3.8965434541e+00 2.2496704121e+00 3.8965434541e+00 
14600 4.4442439112e+00 -3.9537296575e-02 2.2505576213e+00 -3.8980801455e+00 2.2505576213e+00 3.8980801455e+00 
14700 4.4442177814e+00 -3.9137397776e-02 2.2514360673e+00 -3.8996016586e+00 2.2514360673e+00 3.8996016586e+00 
14800 4.4441944462e+00 -3.8717316400e-02 2.2523052884e+00 -3.9011071937e+00 2.2523052884e+00 3.9011071937e+00 
14900 4.4441737414e+00 -3.8278188513e-02 2.2531648473e+00 -3.9025959933e+00 2.2531648473e+00 3.9025959933e+00 
15000 4.4441554782e+00 -3.7821208752e-02 2.2540143322e+00 -3.9040673444e+00 2.2540143322e+00 3.9040673444e+00 
15100 4.4441394487e+00 -3.7347622182e-02 2.2548533587e+00 -3.9055205809e+00 2.2548533587e+00 3.9055205809e+00 
15200 4.4441254312e+00 -3.6858716273e-02 2.2556815702e+00 -3.9069550852e+00 2.2556815702e+00 3.9069550852e+00 
15300 4.4441131945e+00 -3.6355813027e-02 2.2564986390e+00 -3.9083702899e+00 2.2564986390e+00 3.9083702899e+00 
15400 4.4441025031e+00 -3.5840261282e-02 2.2573042671e+00 -3.9097656787e+00 2.2573042671e+00 3.9097656787e+00 
15500 4.4440931212e+00 -3.5313429227e-02 2.2580981867e+00 -3.9111407878e+00 2.2580981867e+00 3.9111407878e+00 
15600 4.4440848170e+00 -3.4776697135e-02 2.2588801603e+00 -3.9124952059e+00 2.2588801603e+00 3.9124952059e+00 
15700 4.4440773657e+00 -3.4231450364e-02 2.2596499814e+00 -3.9138285752e+00 2.2596499814e+00 3.9138285752e+00 
15800 4.4440705529e+00 -3.3679072616e-02 2.2604074740e+00 -3.9151405908e+00 2.2604074740e+00 3.9151405908e+00 
15900 4.4440641773e+00 -3.3120939505e-02 2.2611524928e+00 -3.9164310012e+00 2.2611524928e+00 3.9164310012e+00 
16000 4.4440580530e+00 -3.2558412420e-02 2.2618849230e+00 -3.9176996075e+00 2.2618849230e+00 3.9176996075e+00 
16100 4.4440520109e+00 -3.1992832720e-02 2.2626046798e+00 -3.9189462628e+00 2.2626046798e+00 3.9189462628e+00 
16200 4.4440459005e+00 -3.1425516267e-02 2.2633117078e+00 -3.9201708712e+00 2.2633117078e+00 3.9201708712e+00 
16300 4.4440395904e+00 -3.0857748304e-02 2.2640059807e+00 -3.9213733873e+00 2.2640059807e+00 3.9213733873e+00 
16400 4.4440329691e+00 -3.0290778693e-02 2.2646875005e+00 -3.9225538141e+00 2.2646875005e+00 3.9225538141e+00 
16500 4.4440259449e+00 -2.9725817510e-02 2.2653562963e+00 -3.9237122024e+00 2.2653562963e+00 3.9237122024e+00 
16600 4.4440184459e+00 -2.9164031021e-02 2.2660124238e+00 -3.9248486486e+00 2.2660124238e+00 3.9248486486e+00 
16700 4.4440104191e+00 -2.8606538017e-02 2.2666559642e+00 -3.9259632933e+00 2.2666559642e+00 3.9259632933e+00 
16800 4.4440018302e+00 -2.8054406530e-02 2.2672870230e+00 -3.9270563192e+00 2.2672870230e+00 3.9270563192e+00 
16900 4.4439926618e+00 -2.7508650920e-02 2.2679057290e+00 -3.9281279495e+00 2.2679057290e+00 3.9281279495e+00 
17000 4.4439829128e+00 -2.6970229326e-02 2.2685122330e+00 -3.9291784452e+00 2.2685122330e+00 3.9291784452e+00 
17100 4.4439725964e+00 -2.6440041496e-02 2.2691067065e+00 -3.9302081034e+00 2.2691067065e+00 3.9302081034e+00 
17200 4.4439617390e+00 -2.5918926963e-02 2.2696893404e+00 -3.9312172550e+00 2.2696893404e+00 3.9312172550e+00 
17300 4.4439503783e+00 -2.5407663585e-02 2.2702603440e+00 -3.9322062622e+00 2.2702603440e+00 3.9322062622e+00 
17400 4.4439385617e+00 -2.4906966426e-02 2.2708199430e+00 -3.9331755160e+00 2.2708199430e+00 3.9331755160e+00 
17500 4.4439263445e+00 -2.4417486975e-02 2.2713683785e+00 -3.9341254343e+00 2.2713683785e+00 3.9341254343e+00 
17600 4.4439137881e+00 -2.3939812689e-02 2.2719059058e+00 -3.9350564589e+00 2.2719059058e+00 3.9350564589e+00 
17700 4.4439009588e+00 -2.3474466851e-02 2.2724327925e+00 -3.9359690533e+00 2.2724327925e+00 3.9359690533e+00 
17800 4.4438879255e+00 -2.3021908727e-02 2.2729493172e+00 -3.9368637005e+00 2.2729493172e+00 3.9368637005e+00 
17900 4.4438747587e+00 -2.2582534015e-02 2.2734557685e+00 -3.9377408999e+00 2.2734557685e+00 3.9377408999e+00 
18000 4.4438615288e+00 -2.2156675559e-02 2.2739524432e+00 -3.9386011656e+00 2.2739524432e+00 3.9386011656e+00 
18100 4.4438483048e+00 -2.1744604331e-02 2.2744396448e+00 -3.9394450235e+00 2.2744396448e+00 3.9394450235e+00 
18200 4.4438351535e+00 -2.1346530646e-02 2.2749176827e+00 -3.9402730094e+00 2.2749176827e+00 3.9402730094e+00 
18300 4.4438221381e+00 -2.0962605612e-02 2.2753868703e+00 -3.9410856662e+00 2.2753868703e+00 3.9410856662e+00 
18400 4.4438093173e+00 -2.0592922786e-02 2.2758475241e+00 -3.9418835420e+00 2.2758475241e+00 3.9418835420e+00 
18500 4.4437967448e+00 -2.0237520025e-02 2.2762999623e+00 -3.9426671879e+00 2.2762999623e+00 3.9426671879e+00 
18600 4.4437844687e+00 -1.9896381511e-02 2.2767445034e+00 -3.9434371557e+00 2.2767445034e+00 3.9434371557e+00 
18700 4.4437725309e+00 -1.9569439942e-02 2.2771814654e+00 -3.9441939961e+00 2.2771814654e+00 3.9441939961e+00 
18800 4.4437609670e+00 -1.9256578861e-02 2.2776111645e+00 -3.9449382568e+00 2.2776111645e+00 3.9449382568e+00 
18900 4.4437498062e+00 -1.8957635113e-02 2.2780339139e+00 -3.9456704802e+00 2.2780339139e+00 3.9456704802e+00 
19000 4.4437390708e+00 -1.8672401414e-02 2.2784500229e+00 -3.9463912022e+00 2.2784500229e+00 3.9463912022e+00 
19100 4.4437287771e+00 -1.8400629007e-02 2.2788597963e+00 -3.9471009505e+00 2.2788597963e+00 3.9471009505e+00 
19200 4.4437189350e+00 -1.8142030403e-02 2.2792635327e+00 -3.9478002424e+00 2.2792635327e+00 3.9478002424e+00 
19300 4.4437095484e+00 -1.7896282176e-02 2.2796615243e+00 -3.9484895842e+00 2.2796615243e+00 3.9484895842e+00 
19400 4.4437006157e+00 -1.7663027807e-02 2.2800540562e+00 -3.9491694693e+00 2.2800540562e+00 3.9491694693e+00 
19500 4.4436921303e+00 -1.7441880560e-02 2.2804414051e+00 -3.9498403773e+00 2.2804414051e+00 3.9498403773e+00 
19600 4.4436840808e+00 -1.7232426370e-02 2.2808238391e+00 -3.9505027724e+00 2.2808238391e+00 3.9505027724e+00 
19700 4.4436764519e+00 -1.7034226736e-02 2.2812016171e+00 -3.9511571032e+00 2.2812016171e+00 3.9511571032e+00 
19800 4.4436692248e+00 -1.6846821605e-02 2.2815749881e+00 -3.9518038007e+00 2.2815749881e+00 3.9518038007e+00 
19900 4.4436623775e+00 -1.6669732225e-02 2.2819441909e+00 -3.9524432787e+00 2.2819441909e+00 3.9524432787e+00 
20000 4.4436558861e+00 -1.6502463971e-02 2.2823094535e+00 -3.9530759320e+00 2.2823094535e+00 3.9530759320e+00 
20100 4.4436497245e+00 -1.6344509116e-02 2.2826709930e+00 -3.9537021368e+00 2.2826709930e+00 3.9537021368e+00 
20200 4.4436438656e+00 -1.6195349550e-02 2.2830290151e+00 -3.9543222494e+00 2.2830290151e+00 3.9543222494e+00 
20300 4.4436382818e+00 -1.6054459428e-02 2.2833837143e+00 -3.9549366063e+00 2.2833837143e+00 3.9549366063e+00 
20400 4.4436329448e+00 -1.5921307740e-02 2.2837352731e+00 -3.9555455240e+00 2.2837352731e+00 3.9555455240e+00 
20500 4.4436278272e+00 -1.5795360803e-02 2.2840838623e+00 -3.9561492983e+00 2.2840838623e+00 3.9561492983e+00 
20600 4.4436229017e+00 -1.5676084646e-02 2.2844296412e+00 -3.9567482049e+00 2.2844296412e+00 3.9567482049e+00 
20700 4.4436181426e+00 -1.5562947314e-02 2.2847727570e+00 -3.9573424989e+00 2.2847727570e+00 3.9573424989e+00 
20800 4.4436135252e+00 -1.5455421045e-02 2.2851133452e+00 -3.9579324150e+00 2.2851133452e+00 3.9579324150e+00 
20900 4.4436090267e+00 -1.5352984355e-02 2.2854515298e+00 -3.9585181679e+00 2.2854515298e+00 3.9585181679e+00 
21000 4.4436046260e+00 -1.5255123993e-02 2.2857874232e+00 -3.9590999522e+00 2.2857874232e+00 3.9590999522e+00 
21100 4.4436003040e+00 -1.5161336784e-02 2.2861211265e+00 -3.9596779433e+00 2.2861211265e+00 3.9596779433e+00 
21200 4.4435960441e+00 -1.5071131344e-02 2.2864527297e+00 -3.9602522969e+00 2.2864527297e+00 3.9602522969e+00 
21300 4.4435918315e+00 -1.4984029674e-02 2.2867823121e+00 -3.9608231505e+00 2.2867823121e+00 3.9608231505e+00 
21400 4.4435876539e+00 -1.4899568623e-02 2.2871099425e+00 -3.9613906229e+00 2.2871099425e+00 3.9613906229e+00 
21500 4.4435835012e+00 -1.4817301223e-02 2.2874356794e+00 -3.9619548158e+00 2.2874356794e+00 3.9619548158e+00 
21600 4.4435793655e+00 -1.4736797898e-02 2.2877595716e+00 -3.9625158135e+00 2.2877595716e+00 3.9625158135e+00 
21700 4.4435752408e+00 -1.4657647541e-02 2.2880816584e+00 -3.9630736842e+00 2.2880816584e+00 3.9630736842e+00 
21800 4.4435711233e+00 -1.4579458463e-02 2.2884019702e+00 -3.9636284805e+00 2.2884019702e+00 3.9636284805e+00 
21900 4.4435670109e+00 -1.4501859216e-02 2.2887205286e+00 -3.9641802399e+00 2.2887205286e+00 3.9641802399e+00 
22000 4.4435629034e+00 -1.4424499292e-02 2.2890373474e+00 -3.9647289862e+00 2.2890373474e+00 3.9647289862e+00 
22100 4.4435588018e+00 -1.4347049696e-02 2.2893524325e+00 -3.9652747296e+00 2.2893524325e+00 3.9652747296e+00 
22200 4.4435547086e+00 -1.4269203401e-02 2.2896657826e+00 -3.9658174679e+00 2.2896657826e+00 3.9658174679e+00 
22300 4.4435506275e+00 -1.4190675686e-02 2.2899773898e+00 -3.9663571874e+00 2.2899773898e+00 3.9663571874e+00 
22400 4.4435465630e+00 -1.4111204361e-02 2.2902872400e+00 -3.9668938635e+00 2.2902872400e+00 3.9668938635e+00 
22500 4.4435425203e+00 -1.4030549879e-02 2.2905953131e+00 -3.9674274619e+00 2.2905953131e+00 3.9674274619e+00 
22600 4.4435385052e+00 -1.3948495345e-02 2.2909015842e+00 -3.9679579390e+00 2.2909015842e+00 3.9679579390e+00 
22700 4.4435345241e+00 -1.3864846426e-02 2.2912060234e+00 -3.9684852431e+00 2.2912060234e+00 3.9684852431e+00 
22800 4.4435305834e+00 -1.3779431161e-02 2.2915085966e+00 -3.9690093153e+00 2.2915085966e+00 3.9690093153e+00 
22900 4.4435266894e+00 -1.3692099684e-02 2.2918092661e+00 -3.9695300901e+00 2.2918092661e+00 3.9695300901e+00 
23000 4.4435228485e+00 -1.3602723856e-02 2.2921079907e+00 -3.9700474963e+00 2.2921079907e+00 3.9700474963e+00 
23100 4.4435190669e+00 -1.3511196822e-02 2.2924047266e+00 -3.9705614581e+00 2.2924047266e+00 3.9705614581e+00 
23200 4.4435153503e+00 -1.3417432488e-02 2.2926994278e+00 -3.9710718954e+00 2.2926994278e+00 3.9710718954e+00 
23300 4.4435117041e+00 -1.3321364931e-02 2.2929920461e+00 -3.9715787253e+00 2.2929920461e+00 3.9715787253e+00 
23400 4.4435081331e+00 -1.3222947745e-02 2.2932825322e+00 -3.9720818619e+00 2.2932825322e+00 3.9720818619e+00 
23500 4.4435046415e+00 -1.3122153329e-02 2.2935708357e+00 -3.9725812181e+00 2.2935708357e+00 3.9725812181e+00 
23600 4.4435012329e+00 -1.3018972121e-02 2.2938569054e+00 -3.9730767055e+00 2.2938569054e+00 3.9730767055e+00 
23700 4.4434979101e+00 -1.2913411788e-02 2.2941406904e+00 -3.9735682355e+00 2.2941406904e+00 3.9735682355e+00 
23800 4.4434946755e+00 -1.2805496369e-02 2.2944221395e+00 -3.9740557196e+00 2.2944221395e+00 3.9740557196e+00 
23900 4.4434915305e+00 -1.2695265391e-02 2.2947012022e+00 -3.9745390705e+00 2.2947012022e+00 3.9745390705e+00 
24000 4.4434884761e+00 -1.2582772947e-02 2.2949778291e+00 -3.9750182023e+00 2.2949778291e+00 3.9750182023e+00 
24100 4.4434855124e+00 -1.2468086755e-02 2.2952519717e+00 -3.9754930312e+00 2.2952519717e+00 3.9754930312e+00 
24200 4.4434826389e+00 -1.2351287195e-02 2.2955235831e+00 -3.9759634759e+00 2.2955235831e+00 3.9759634759e+00 
24300 4.4434798548e+00 -1.2232466328e-02 2.2957926182e+00 -3.9764294584e+00 2.2957926182e+00 3.9764294584e+00 
24400 4.4434771585e+00 -1.2111726918e-02 2.2960590339e+00 -3.9768909039e+00 2.2960590339e+00 3.9768909039e+00 
24500 4.4434745479e+00 -1.1989181433e-02 2.2963227893e+00 -3.9773477416e+00 2.2963227893e+00 3.9773477416e+00 
24600 4.4434720206e+00 -1.1864951059e-02 2.2965838460e+00 -3.9777999051e+00 2.2965838460e+00 3.9777999051e+00 
24700 4.4434695738e+00 -1.1739164715e-02 2.2968421682e+00 -3.9782473323e+00 2.2968421682e+00 3.9782473323e+00 
24800 4.4434672044e+00 -1.1611958074e-02 2.2970977230e+00 -3.9786899663e+00 2.2970977230e+00 3.9786899663e+00 
24900 4.4434649091e+00 -1.1483472597e-02 2.2973504805e+00 -3.9791277550e+00 2.2973504805e+00 3.9791277550e+00 
25000 4.4434626842e+00 -1.1353854590e-02 2.2976004136e+00 -3.9795606519e+00 2.2976004136e+00 3.9795606519e+00 
25100 4.4434605263e+00 -1.1223254275e-02 2.2978474988e+00 -3.9799886159e+00 2.2978474988e+00 3.9799886159e+00 
25200 4.4434584316e+00 -1.1091824882e-02 2.2980917154e+00 -3.9804116116e+00 2.2980917154e+00 3.9804116116e+00 
25300 4.4434563963e+00 -1.0959721778e-02 2.2983330465e+00 -3.9808296093e+00 2.2983330465e+00 3.9808296093e+00 
25400 4.4434544168e+00 -1.0827101611e-02 2.2985714783e+00 -3.9812425852e+00 2.2985714783e+00 3.9812425852e+00 
25500 4.4434524895e+00 -1.0694121501e-02 2.2988070003e+00 -3.9816505214e+00 2.2988070003e+00 3.9816505214e+00 
25600 4.4434506110e+00 -1.0560938252e-02 2.2990396058e+00 -3.9820534059e+00 2.2990396058e+00 3.9820534059e+00 
25700 4.4434487779e+00 -1.0427707606e-02 2.2992692911e+00 -3.9824512325e+00 2.2992692911e+00 3.9824512325e+00 
25800 4.4434469873e+00 -1.0294583538e-02 2.2994960562e+00 -3.9828440012e+00 2.2994960562e+00 3.9828440012e+00 
25900 4.4434452361e+00 -1.0161717580e-02 2.2997199042e+00 -3.9832317172e+00 2.2997199042e+00 3.9832317172e+00 
26000 4.4434435217e+00 -1.0029258201e-02 2.2999408415e+00 -3.9836143919e+00 2.2999408415e+00 3.9836143919e+00 
26100 4.4434418417e+00 -9.8973502124e-03 2.3001588779e+00 -3.9839920421e+00 2.3001588779e+00 3.9839920421e+00 
26200 4.4434401939e+00 -9.7661342286e-03 2.3003740262e+00 -3.9843646898e+00 2.3003740262e+00 3.9843646898e+00 
26300 4.4434385764e+00 -9.6357461641e-03 2.3005863022e+00 -3.9847323626e+00 2.3005863022e+00 3.9847323626e+00 
26400 4.4434369876e+00 -9.5063167765e-03 2.3007957248e+00 -3.9850950931e+00 2.3007957248e+00 3.9850950931e+00 
26500 4.4434354261e+00 -9.3779712529e-03 2.3010023154e+00 -3.9854529187e+00 2.3010023154e+00 3.9854529187e+00 
26600 4.4434338905e+00 -9.2508288399e-03 2.3012060986e+00 -3.9858058814e+00 2.3012060986e+00 3.9858058814e+00 
26700 4.4434323801e+00 -9.1250025172e-03 2.3014071011e+00 -3.9861540280e+00 2.3014071011e+00 3.9861540280e+00 
26800 4.4434308941e+00 -9.0005987140e-03 2.3016053523e+00 -3.9864974091e+00 2.3016053523e+00 3.9864974091e+00 
26900 4.4434294318e+00 -8.8777170685e-03 2.3018008837e+00 -3.9868360795e+00 2.3018008837e+00 3.9868360795e+00 
27000 4.4434279929e+00 -8.7564502281e-03 2.3019937293e+00 -3.9871700978e+00 2.3019937293e+00 3.9871700978e+00 
27100 4.4434265773e+00 -8.6368836916e-03 2.3021839247e+00 -3.9874995259e+00 2.3021839247e+00 3.9874995259e+00 
27200 4.4434251847e+00 -8.5190956899e-03 2.3023715074e+00 -3.9878244288e+00 2.3023715074e+00 3.9878244288e+00 
27300 4.4434238153e+00 -8.4031571064e-03 2.3025565169e+00 -3.9881448745e+00 2.3025565169e+00 3.9881448745e+00 
27400 4.4434224690e+00 -8.2891314337e-03 2.3027389938e+00 -3.9884609338e+00 2.3027389938e+00 3.9884609338e+00 
27500 4.4434211462e+00 -8.1770747664e-03 2.3029189803e+00 -3.9887726796e+00 2.3029189803e+00 3.9887726796e+00 
27600 4.4434198470e+00 -8.0670358284e-03 2.3030965198e+00 -3.9890801870e+00 2.3030965198e+00 3.9890801870e+00 
27700 4.4434185717e+00 -7.9590560327e-03 2.3032716565e+00 -3.9893835328e+00 2.3032716565e+00 3.9893835328e+00 
27800 4.4434173205e+00 -7.8531695720e-03 2.3034444359e+00 -3.9896827954e+00 2.3034444359e+00 3.9896827954e+00 
27900 4.4434160938e+00 -7.7494035383e-03 2.3036149038e+00 -3.9899780544e+00 2.3036149038e+00 3.9899780544e+00 
28000 4.4434148917e+00 -7.6477780707e-03 2.3037831068e+00 -3.9902693905e+00 2.3037831068e+00 3.9902693905e+00 
28100 4.4434137145e+00 -7.5483065276e-03 2.3039490918e+00 -3.9905568850e+00 2.3039490918e+00 3.9905568850e+00 
28200 4.4434125624e+00 -7.4509956834e-03 2.3041129061e+00 -3.9908406197e+00 2.3041129061e+00 3.9908406197e+00 
28300 4.4434114355e+00 -7.3558459463e-03 2.3042745970e+00 -3.9911206766e+00 2.3042745970e+00 3.9911206766e+00 
28400 4.4434103339e+00 -7.2628515963e-03 2.3044342119e+00 -3.9913971377e+00 2.3044342119e+00 3.9913971377e+00 
28500 4.4434092577e+00 -7.1720010403e-03 2.3045917980e+00 -3.9916700848e+00 2.3045917980e+00 3.9916700848e+00 
28600 4.4434082067e+00 -7.0832770841e-03 2.3047474021e+00 -3.9919395991e+00 2.3047474021e+00 3.9919395991e+00 
28700 4.4434071808e+00 -6.9966572172e-03 2.3049010709e+00 -3.9922057613e+00 2.3049010709e+00 3.9922057613e+00 
28800 4.4434061799e+00 -6.9121139105e-03 2.3050528504e+00 -3.9924686511e+00 2.3050528504e+00 3.9924686511e+00 
28900 4.4434052038e+00 -6.8296149234e-03 2.3052027860e+00 -3.9927283471e+00 2.3052027860e+00 3.9927283471e+00 
29000 4.4434042520e+00 -6.7491236200e-03 2.3053509224e+00 -3.9929849269e+00 2.3053509224e+00 3.9929849269e+00 
29100 4.4434033243e+00 -6.6705992913e-03 2.3054973035e+00 -3.9932384663e+00 2.3054973035e+00 3.9932384663e+00 
29200 4.4434024201e+00 -6.5939974820e-03 2.3056419722e+00 -3.9934890400e+00 2.3056419722e+00 3.9934890400e+00 
29300 4.4434015391e+00 -6.5192703207e-03 2.3057849707e+00 -3.9937367206e+00 2.3057849707e+00 3.9937367206e+00 
29400 4.4434006806e+00 -6.4463668515e-03 2.3059263399e+00 -3.9939815791e+00 2.3059263399e+00 3.9939815791e+00 
29500 4.4433998442e+00 -6.3752333651e-03 2.3060661195e+00 -3.9942236846e+00 2.3060661195e+00 3.9942236846e+00 
29600 4.4433990292e+00 -6.3058137288e-03 2.3062043484e+00 -3.9944631040e+00 2.3062043484e+00 3.9944631040e+00 
29700 4.4433982349e+00 -6.2380497128e-03 2.3063410638e+00 -3.9946999021e+00 2.3063410638e+00 3.9946999021e+00 
29800 4.4433974608e+00 -6.1718813125e-03 2.3064763021e+00 -3.9949341417e+00 2.3064763021e+00 3.9949341417e+00 
29900 4.4433967061e+00 -6.1072470648e-03 2.3066100980e+00 -3.9951658829e+00 2.3066100980e+00 3.9951658829e+00 
30000 4.4433959702e+00 -6.0440843580e-03 2.3067424850e+00 -3.9953951840e+00 2.3067424850e+00 3.9953951840e+00 
30100 4.4433952525e+00 -5.9823297327e-03 2.3068734953e+00 -3.9956221005e+00 2.3068734953e+00 3.9956221005e+00 
30200 4.4433945522e+00 -5.9219191750e-03 2.3070031597e+00 -3.9958466858e+00 2.3070031597e+00 3.9958466858e+00 
30300 4.4433938688e+00 -5.8627883986e-03 2.3071315075e+00 -3.9960689907e+00 2.3071315075e+00 3.9960689907e+00 
30400 4.4433932014e+00 -5.8048731166e-03 2.3072585666e+00 -3.9962890635e+00 2.3072585666e+00 3.9962890635e+00 
30500 4.4433925497e+00 -5.7481093018e-03 2.3073843636e+00 -3.9965069504e+00 2.3073843636e+00 3.9965069504e+00 
30600 4.4433919129e+00 -5.6924334343e-03 2.3075089237e+00 -3.9967226948e+00 2.3075089237e+00 3.9967226948e+00 
30700 4.4433912905e+00 -5.6377827369e-03 2.3076322707e+00 -3.9969363380e+00 2.3076322707e+00 3.9969363380e+00 
30800 4.4433906819e+00 -5.5840953963e-03 2.3077544269e+00 -3.9971479188e+00 2.3077544269e+00 3.9971479188e+00 
30900 4.4433900866e+00 -5.5313107715e-03 2.3078754134e+00 -3.9973574736e+00 2.3078754134e+00 3.9973574736e+00 
31000 4.4433895042e+00 -5.4793695874e-03 2.3079952500e+00 -3.9975650367e+00 2.3079952500e+00 3.9975650367e+00 
31100 4.4433889342e+00 -5.4282141140e-03 2.3081139551e+00 -3.9977706400e+00 2.3081139551e+00 3.9977706400e+00 
31200 4.4433883763e+00 -5.3777883317e-03 2.3082315460e+00 -3.9979743132e+00 2.3082315460e+00 3.9979743132e+00 
31300 4.4433878299e+00 -5.3280380807e-03 2.3083480385e+00 -3.9981760842e+00 2.3083480385e+00 3.9981760842e+00 
31400 4.4433872948e+00 -5.2789111973e-03 2.3084634475e+00 -3.9983759784e+00 2.3084634475e+00 3.9983759784e+00 
31500 4.4433867706e+00 -5.2303576338e-03 2.3085777866e+00 -3.9985740196e+00 2.3085777866e+00 3.9985740196e+00 
31600 4.4433862571e+00 -5.1823295654e-03 2.3086910685e+00 -3.9987702296e+00 2.3086910685e+00 3.9987702296e+00 
31700 4.4433857540e+00 -5.1347814813e-03 2.3088033046e+00 -3.9989646283e+00 2.3088033046e+00 3.9989646283e+00 
31800 4.4433852610e+00 -5.0876702621e-03 2.3089145056e+00 -3.9991572340e+00 2.3089145056e+00 3.9991572340e+00 
31900 4.4433847781e+00 -5.0409552440e-03 2.3090246810e+00 -3.9993480634e+00 2.3090246810e+00 3.9993480634e+00 
32000 4.4433843048e+00 -4.9945982679e-03 2.3091338395e+00 -3.9995371315e+00 2.3091338395e+00 3.9995371315e+00 
32100 4.4433838412e+00 -4.9485637163e-03 2.3092419891e+00 -3.9997244521e+00 2.3092419891e+00 3.9997244521e+00 
32200 4.4433833869e+00 -4.9028185369e-03 2.3093491368e+00 -3.9999100374e+00 2.3093491368e+00 3.9999100374e+00 
32300 4.4433829420e+00 -4.8573322542e-03 2.3094552892e+00 -4.0000938987e+00 2.3094552892e+00 4.0000938987e+00 
32400 4.4433825062e+00 -4.8120769686e-03 2.3095604518e+00 -4.0002760457e+00 2.3095604518e+00 4.0002760457e+00 
32500 4.4433820794e+00 -4.7670273445e-03 2.3096646299e+00 -4.0004564875e+00 2.3096646299e+00 4.0004564875e+00 
32600 4.4433816616e+00 -4.7221605877e-03 2.3097678281e+00 -4.0006352320e+00 2.3097678281e+00 4.0006352320e+00 
32700 4.4433812525e+00 -4.6774564121e-03 2.3098700504e+00 -4.0008122862e+00 2.3098700504e+00 4.0008122862e+00 
32800 4.4433808522e+00 -4.6328969968e-03 2.3099713005e+00 -4.0009876565e+00 2.3099713005e+00 4.0009876565e+00 
32900 4.4433804604e+00 -4.5884669350e-03 2.3100715816e+00 -4.0011613485e+00 2.3100715816e+00 4.0011613485e+00 
33000 4.4433800771e+00 -4.5441531729e-03 2.3101708967e+00 -4.0013333673e+00 2.3101708967e+00 4.0013333673e+00 
33100 4.4433797022e+00 -4.4999449425e-03 2.3102692484e+00 -4.0015037174e+00 2.3102692484e+00 4.0015037174e+00 
33200 4.4433793355e+00 -4.4558336860e-03 2.3103666392e+00 -4.0016724031e+00 2.3103666392e+00 4.0016724031e+00 
33300 4.4433789770e+00 -4.4118129743e-03 2.3104630711e+00 -4.0018394282e+00 2.3104630711e+00 4.0018394282e+00 
33400 4.4433786266e+00 -4.3678784198e-03 2.3105585465e+00 -4.0020047963e+00 2.3105585465e+00 4.0020047963e+00 
33500 4.4433782840e+00 -4.3240275837e-03 2.3106530671e+00 -4.0021685108e+00 2.3106530671e+00 4.0021685108e+00 
33600 4.4433779492e+00 -4.2802598786e-03 2.3107466349e+00 -4.0023305751e+00 2.3107466349e+00 4.0023305751e+00 
33700 4.4433776220e+00 -4.2365764679e-03 2.3108392519e+00 -4.0024909924e+00 2.3108392519e+00 4.0024909924e+00 
33800 4.4433773024e+00 -4.1929801612e-03 2.3109309200e+00 -4.0026497662e+00 2.3109309200e+00 4.0026497662e+00 
33900 4.4433769902e+00 -4.1494753076e-03 2.3110216412e+00 -4.0028068999e+00 2.3110216412e+00 4.0028068999e+00 
34000 4.4433766852e+00 -4.1060676864e-03 2.3111114175e+00 -4.0029623971e+00 2.3111114175e+00 4.0029623971e+00 
34100 4.4433763872e+00 -4.0627643967e-03 2.3112002513e+00 -4.0031162617e+00 2.3112002513e+00 4.0031162617e+00 
34200 4.4433760962e+00 -4.0195737465e-03 2.3112881448e+00 -4.0032684977e+00 2.3112881448e+00 4.0032684977e+00 
34300 4.4433758120e+00 -3.9765051400e-03 2.3113751006e+00 -4.0034191096e+00 2.3113751006e+00 4.0034191096e+00 
34400 4.4433755344e+00 -3.9335689667e-03 2.3114611215e+00 -4.0035681022e+00 2.3114611215e+00 4.0035681022e+00 
34500 4.4433752632e+00 -3.8907764906e-03 2.3115462104e+00 -4.0037154804e+00 2.3115462104e+00 4.0037154804e+00 
34600 4.4433749984e+00 -3.8481397394e-03 2.3116303705e+00 -4.0038612500e+00 2.3116303705e+00 4.0038612500e+00 
34700 4.4433747397e+00 -3.8056713974e-03 2.3117136053e+00 -4.0040054170e+00 2.3117136053e+00 4.0040054170e+00 
34800 4.4433744870e+00 -3.7633846983e-03 2.3117959186e+00 -4.0041479877e+00 2.3117959186e+00 4.0041479877e+00 
34900 4.4433742401e+00 -3.7212933220e-03 2.3118773143e+00 -4.0042889693e+00 2.3118773143e+00 4.0042889693e+00 
35000 4.4433739989e+00 -3.6794112929e-03 2.3119577969e+00 -4.0044283691e+00 2.3119577969e+00 4.0044283691e+00 
35100 4.4433737632e+00 -3.6377528822e-03 2.3120373708e+00 -4.0045661953e+00 2.3120373708e+00 4.0045661953e+00 
35200 4.4433735329e+00 -3.5963325131e-03 2.3121160411e+00 -4.0047024562e+00 2.3121160411e+00 4.0047024562e+00 
35300 4.4433733078e+00 -3.5551646697e-03 2.3121938130e+00 -4.0048371611e+00 2.3121938130e+00 4.0048371611e+00 
35400 4.4433730878e+00 -3.5142638101e-03 2.3122706920e+00 -4.0049703195e+00 2.3122706920e+00 4.0049703195e+00 
35500 4.4433728727e+00 -3.4736442833e-03 2.3123466841e+00 -4.0051019415e+00 2.3123466841e+00 4.0051019415e+00 
35600 4.4433726625e+00 -3.4333202505e-03 2.3124217953e+00 -4.0052320380e+00 2.3124217953e+00 4.0052320380e+00 
35700 4.4433724569e+00 -3.3933056114e-03 2.3124960321e+00 -4.0053606200e+00 2.3124960321e+00 4.0053606200e+00 
35800 4.4433722559e+00 -3.3536139341e-03 2.3125694014e+00 -4.0054876993e+00 2.3125694014e+00 4.0054876993e+00 
35900 4.4433720594e+00 -3.3142583909e-03 2.3126419102e+00 -4.0056132882e+00 2.3126419102e+00 4.0056132882e+00 
36000 4.4433718671e+00 -3.2752516979e-03 2.3127135658e+00 -4.0057373993e+00 2.3127135658e+00 4.0057373993e+00 
36100 4.4433716791e+00 -3.2366060604e-03 2.3127843759e+00 -4.0058600460e+00 2.3127843759e+00 4.0058600460e+00 
36200 4.4433714952e+00 -3.1983331225e-03 2.3128543483e+00 -4.0059812418e+00 2.3128543483e+00 4.0059812418e+00 
36300 4.4433713153e+00 -3.1604439219e-03 2.3129234912e+00 -4.0061010008e+00 2.3129234912e+00 4.0061010008e+00 
36400 4.4433711393e+00 -3.1229488499e-03 2.3129918130e+00 -4.0062193375e+00 2.3129918130e+00 4.0062193375e+00 
36500 4.4433709672e+00 -3.0858576156e-03 2.3130593221e+00 -4.0063362669e+00 2.3130593221e+00 4.0063362669e+00 
36600 4.4433707987e+00 -3.0491792155e-03 2.3131260276e+00 -4.0064518041e+00 2.3131260276e+00 4.0064518041e+00 
36700 4.4433706340e+00 -3.0129219079e-03 2.3131919382e+00 -4.0065659647e+00 2.3131919382e+00 4.0065659647e+00 
36800 4.4433704728e+00 -2.9770931912e-03 2.3132570633e+00 -4.0066787646e+00 2.3132570633e+00 4.0066787646e+00 
36900 4.4433703151e+00 -2.9416997879e-03 2.3133214121e+00 -4.0067902201e+00 2.3133214121e+00 4.0067902201e+00 
37000 4.4433701609e+00 -2.9067476319e-03 2.3133849942e+00 -4.0069003474e+00 2.3133849942e+00 4.0069003474e+00 
37100 4.4433700100e+00 -2.8722418606e-03 2.3134478190e+00 -4.0070091632e+00 2.3134478190e+00 4.0070091632e+00 
37200 4.4433698624e+00 -2.8381868116e-03 2.3135098964e+00 -4.0071166843e+00 2.3135098964e+00 4.0071166843e+00 
37300 4.4433697180e+00 -2.8045860220e-03 2.3135712360e+00 -4.0072229278e+00 2.3135712360e+00 4.0072229278e+00 
37400 4.4433695768e+00 -2.7714422331e-03 2.3136318479e+00 -4.0073279106e+00 2.3136318479e+00 4.0073279106e+00 
37500 4.4433694387e+00 -2.7387573975e-03 2.3136917419e+00 -4.0074316501e+00 2.3136917419e+00 4.0074316501e+00 
37600 4.4433693037e+00 -2.7065326904e-03 2.3137509281e+00 -4.0075341635e+00 2.3137509281e+00 4.0075341635e+00 
37700 4.4433691716e+00 -2.6747685231e-03 2.3138094163e+00 -4.0076354681e+00 2.3138094163e+00 4.0076354681e+00 
37800 4.4433690425e+00 -2.6434645608e-03 2.3138672167e+00 -4.0077355812e+00 2.3138672167e+00 4.0077355812e+00 
37900 4.4433689162e+00 -2.6126197422e-03 2.3139243391e+00 -4.0078345202e+00 2.3139243391e+00 4.0078345202e+00 
38000 4.4433687928e+00 -2.5822323018e-03 2.3139807936e+00 -4.0079323023e+00 2.3139807936e+00 4.0079323023e+00 
38100 4.4433686721e+00 -2.5522997953e-03 2.3140365902e+00 -4.0080289448e+00 2.3140365902e+00 4.0080289448e+00 
38200 4.4433685541e+00 -2.5228191260e-03 2.3140917386e+00 -4.0081244647e+00 2.3140917386e+00 4.0081244647e+00 
38300 4.4433684388e+00 -2.4937865738e-03 2.3141462488e+00 -4.0082188790e+00 2.3141462488e+00 4.0082188790e+00 
38400 4.4433683261e+00 -2.4651978261e-03 2.3142001303e+00 -4.0083122046e+00 2.3142001303e+00 4.0083122046e+00 
38500 4.4433682160e+00 -2.4370480096e-03 2.3142533929e+00 -4.0084044582e+00 2.3142533929e+00 4.0084044582e+00 
38600 4.4433681083e+00 -2.4093317236e-03 2.3143060461e+00 -4.0084956562e+00 2.3143060461e+00 4.0084956562e+00 
38700 4.4433680031e+00 -2.3820430747e-03 2.3143580993e+00 -4.0085858150e+00 2.3143580993e+00 4.0085858150e+00 
38800 4.4433679003e+00 -2.3551757119e-03 2.3144095618e+00 -4.0086749506e+00 2.3144095618e+00 4.0086749506e+00 
38900 4.4433677999e+00 -2.3287228621e-03 2.3144604427e+00 -4.0087630789e+00 2.3144604427e+00 4.0087630789e+00 
39000 4.4433677017e+00 -2.3026773675e-03 2.3145107510e+00 -4.0088502154e+00 2.3145107510e+00 4.0088502154e+00 
39100 4.4433676058e+00 -2.2770317213e-03 2.3145604956e+00 -4.0089363755e+00 2.3145604956e+00 4.0089363755e+00 
39200 4.4433675120e+00 -2.2517781050e-03 2.3146096850e+00 -4.0090215741e+00 2.3146096850e+00 4.0090215741e+00 
39300 4.4433674204e+00 -2.2269084249e-03 2.3146583279e+00 -4.0091058261e+00 2.3146583279e+00 4.0091058261e+00 
39400 4.4433673309e+00 -2.2024143487e-03 2.3147064325e+00 -4.0091891458e+00 2.3147064325e+00 4.0091891458e+00 
39500 4.4433672434e+00 -2.1782873413e-03 2.3147540071e+00 -4.0092715473e+00 2.3147540071e+00 4.0092715473e+00 
39600 4.4433671580e+00 -2.1545187007e-03 2.3148010595e+00 -4.0093530444e+00 2.3148010595e+00 4.0093530444e+00 
39700 4.4433670744e+00 -2.1310995926e-03 2.3148475975e+00 -4.0094336507e+00 2.3148475975e+00 4.0094336507e+00 
39800 4.4433669928e+00 -2.1080210845e-03 2.3148936288e+00 -4.0095133792e+00 2.3148936288e+00 4.0095133792e+00 
39900 4.4433669130e+00 -2.0852741788e-03 2.3149391606e+00 -4.0095922426e+00 2.3149391606e+00 4.0095922426e+00 
40000 4.4433668351e+00 -2.0628498448e-03 2.3149842003e+00 -4.0096702536e+00 2.3149842003e+00 4.0096702536e+00 
40100 4.4433667589e+00 -2.0407390497e-03 2.3150287547e+00 -4.0097474242e+00 2.3150287547e+00 4.0097474242e+00 
40200 4.4433666844e+00 -2.0189327882e-03 2.3150728307e+00 -4.0098237661e+00 2.3150728307e+00 4.0098237661e+00 
40300 4.4433666116e+00 -1.9974221110e-03 2.3151164350e+00 -4.0098992908e+00 2.3151164350e+00 4.0098992908e+00 
40400 4.4433665405e+00 -1.9761981518e-03 2.3151595738e+00 -4.0099740095e+00 2.3151595738e+00 4.0099740095e+00 
40500 4.4433664709e+00 -1.9552521525e-03 2.3152022535e+00 -4.0100479328e+00 2.3152022535e+00 4.0100479328e+00 
40600 4.4433664029e+00 -1.9345754877e-03 2.3152444800e+00 -4.0101210712e+00 2.3152444800e+00 4.0101210712e+00 
40700 4.4433663364e+00 -1.9141596868e-03 2.3152862592e+00 -4.0101934349e+00 2.3152862592e+00 4.0101934349e+00 
40800 4.4433662715e+00 -1.8939964552e-03 2.3153275967e+00 -4.0102650337e+00 2.3153275967e+00 4.0102650337e+00 
40900 4.4433662080e+00 -1.8740776933e-03 2.3153684981e+00 -4.0103358770e+00 2.3153684981e+00 4.0103358770e+00 
41000 4.4433661459e+00 -1.8543955145e-03 2.3154089686e+00 -4.0104059739e+00 2.3154089686e+00 4.0104059739e+00 
41100 4.4433660851e+00 -1.8349422610e-03 2.3154490134e+00 -4.0104753335e+00 2.3154490134e+00 4.0104753335e+00 
41200 4.4433660258e+00 -1.8157105182e-03 2.3154886374e+00 -4.0105439643e+00 2.3154886374e+00 4.0105439643e+00 
41300 4.4433659677e+00 -1.7966931276e-03 2.3155278455e+00 -4.0106118747e+00 2.3155278455e+00 4.0106118747e+00 
41400 4.4433659110e+00 -1.7778831976e-03 2.3155666422e+00 -4.0106790726e+00 2.3155666422e+00 4.0106790726e+00 
41500 4.4433658555e+00 -1.7592741137e-03 2.3156050321e+00 -4.0107455659e+00 2.3156050321e+00 4.0107455659e+00 
41600 4.4433658013e+00 -1.7408595459e-03 2.3156430196e+00 -4.0108113621e+00 2.3156430196e+00 4.0108113621e+00 
41700 4.4433657482e+00 -1.7226334552e-03 2.3156806088e+00 -4.0108764685e+00 2.3156806088e+00 4.0108764685e+00 
41800 4.4433656964e+00 -1.7045900987e-03 2.3157178038e+00 -4.0109408922e+00 2.3157178038e+00 4.0109408922e+00 
41900 4.4433656457e+00 -1.6867240332e-03 2.3157546087e+00 -4.0110046402e+00 2.3157546087e+00 4.0110046402e+00 
42000 4.4433655961e+00 -1.6690301168e-03 2.3157910273e+00 -4.0110677190e+00 2.3157910273e+00 4.0110677190e+00 
42100 4.4433655476e+00 -1.6515035099e-03 2.3158270632e+00 -4.0111301350e+00 2.3158270632e+00 4.0111301350e+00 
42200 4.4433655003e+00 -1.6341396748e-03 2.3158627202e+00 -4.0111918947e+00 2.3158627202e+00 4.0111918947e+00 
42300 4.4433654539e+00 -1.6169343733e-03 2.3158980017e+00 -4.0112530042e+00 2.3158980017e+00 4.0112530042e+00 
42400 4.4433654087e+00 -1.5998836640e-03 2.3159329113e+00 -4.0113134692e+00 2.3159329113e+00 4.0113134692e+00 
42500 4.4433653644e+00 -1.5829838982e-03 2.3159674522e+00 -4.0113732958e+00 2.3159674522e+00 4.0113732958e+00 
42600 4.4433653211e+00 -1.5662317146e-03 2.3160016277e+00 -4.0114324896e+00 2.3160016277e+00 4.0114324896e+00 
42700 4.4433652788e+00 -1.5496240330e-03 2.3160354410e+00 -4.0114910560e+00 2.3160354410e+00 4.0114910560e+00 
42800 4.4433652374e+00 -1.5331580474e-03 2.3160688953e+00 -4.0115490006e+00 2.3160688953e+00 4.0115490006e+00 
42900 4.4433651970e+00 -1.5168312179e-03 2.3161019937e+00 -4.0116063286e+00 2.3161019937e+00 4.0116063286e+00 
43000 4.4433651575e+00 -1.5006412621e-03 2.3161347391e+00 -4.0116630454e+00 2.3161347391e+00 4.0116630454e+00 
43100 4.4433651188e+00 -1.4845861457e-03 2.3161671346e+00 -4.0117191559e+00 2.3161671346e+00 4.0117191559e+00 
43200 4.4433650811e+00 -1.4686640723e-03 2.3161991830e+00 -4.0117746654e+00 2.3161991830e+00 4.0117746654e+00 
43300 4.4433650442e+00 -1.4528734730e-03 2.3162308873e+00 -4.0118295788e+00 2.3162308873e+00 4.0118295788e+00 
43400 4.4433650081e+00 -1.4372129955e-03 2.3162622502e+00 -4.0118839010e+00 2.3162622502e+00 4.0118839010e+00 
43500 4.4433649728e+00 -1.4216814921e-03 2.3162932747e+00 -4.0119376370e+00 2.3162932747e+00 4.0119376370e+00 
43600 4.4433649384e+00 -1.4062780086e-03 2.3163239635e+00 -4.0119907915e+00 2.3163239635e+00 4.0119907915e+00 
43700 4.4433649047e+00 -1.3910017715e-03 2.3163543193e+00 -4.0120433694e+00 2.3163543193e+00 4.0120433694e+00 
43800 4.4433648718e+00 -1.3758521765e-03 2.3163843451e+00 -4.0120953755e+00 2.3163843451e+00 4.0120953755e+00 
43900 4.4433648396e+00 -1.3608287754e-03 2.3164140434e+00 -4.0121468146e+00 2.3164140434e+00 4.0121468146e+00 
44000 4.4433648082e+00 -1.3459312638e-03 2.3164434171e+00 -4.0121976912e+00 2.3164434171e+00 4.0121976912e+00 
44100 4.4433647775e+00 -1.3311594689e-03 2.3164724688e+00 -4.0122480103e+00 2.3164724688e+00 4.0122480103e+00 
44200 4.4433647474e+00 -1.3165133366e-03 2.3165012013e+00 -4.0122977765e+00 2.3165012013e+00 4.0122977765e+00 
44300 4.4433647181e+00 -1.3019929193e-03 2.3165296174e+00 -4.0123469946e+00 2.3165296174e+00 4.0123469946e+00 
44400 4.4433646894e+00 -1.2875983637e-03 2.3165577197e+00 -4.0123956691e+00 2.3165577197e+00 4.0123956691e+00 
44500 4.4433646614e+00 -1.2733298985e-03 2.3165855109e+00 -4.0124438050e+00 2.3165855109e+00 4.0124438050e+00 
44600 4.4433646340e+00 -1.2591878228e-03 2.3166129939e+00 -4.0124914069e+00 2.3166129939e+00 4.0124914069e+00 
44700 4.4433646072e+00 -1.2451724946e-03 2.3166401713e+00 -4.0125384795e+00 2.3166401713e+00 4.0125384795e+00 
44800 4.4433645810e+00 -1.2312843194e-03 2.3166670459e+00 -4.0125850277e+00 2.3166670459e+00 4.0125850277e+00 
44900 4.4433645554e+00 -1.2175237393e-03 2.3166936204e+00 -4.0126310561e+00 2.3166936204e+00 4.0126310561e+00 
45000 4.4433645304e+00 -1.2038912227e-03 2.3167198976e+00 -4.0126765696e+00 2.3167198976e+00 4.0126765696e+00 
45100 4.4433645060e+00 -1.1903872541e-03 2.3167458804e+00 -4.0127215730e+00 2.3167458804e+00 4.0127215730e+00 
45200 4.4433644821e+00 -1.1770123246e-03 2.3167715713e+00 -4.0127660711e+00 2.3167715713e+00 4.0127660711e+00 
45300 4.4433644588e+00 -1.1637669225e-03 2.3167969734e+00 -4.0128100687e+00 2.3167969734e+00 4.0128100687e+00 
45400 4.4433644360e+00 -1.1506515250e-03 2.3168220893e+00 -4.0128535707e+00 2.3168220893e+00 4.0128535707e+00 
45500 4.4433644137e+00 -1.1376665897e-03 2.3168469219e+00 -4.0128965820e+00 2.3168469219e+00 4.0128965820e+00 
45600 4.4433643919e+00 -1.1248125469e-03 2.3168714740e+00 -4.0129391075e+00 2.3168714740e+00 4.0129391075e+00 
45700 4.4433643706e+00 -1.1120897931e-03 2.3168957484e+00 -4.0129811520e+00 2.3168957484e+00 4.0129811520e+00 
45800 4.4433643498e+00 -1.0994986835e-03 2.3169197480e+00 -4.0130227206e+00 2.3169197480e+00 4.0130227206e+00 
45900 4.4433643295e+00 -1.0870395269e-03 2.3169434756e+00 -4.0130638180e+00 2.3169434756e+00 4.0130638180e+00 
46000 4.4433643096e+00 -1.0747125793e-03 2.3169669341e+00 -4.0131044494e+00 2.3169669341e+00 4.0131044494e+00 
46100 4.4433642902e+00 -1.0625180398e-03 2.3169901264e+00 -4.0131446196e+00 2.3169901264e+00 4.0131446196e+00 
46200 4.4433642712e+00 -1.0504560457e-03 2.3170130553e+00 -4.0131843336e+00 2.3170130553e+00 4.0131843336e+00 
46300 4.4433642526e+00 -1.0385266685e-03 2.3170357236e+00 -4.0132235963e+00 2.3170357236e+00 4.0132235963e+00 
46400 4.4433642345e+00 -1.0267299113e-03 2.3170581344e+00 -4.0132624128e+00 2.3170581344e+00 4.0132624128e+00 
46500 4.4433642167e+00 -1.0150657050e-03 2.3170802903e+00 -4.0133007880e+00 2.3170802903e+00 4.0133007880e+00 
46600 4.4433641994e+00 -1.0035339069e-03 2.3171021943e+00 -4.0133387269e+00 2.3171021943e+00 4.0133387269e+00 
46700 4.4433641825e+00 -9.9213429848e-04 2.3171238493e+00 -4.0133762344e+00 2.3171238493e+00 4.0133762344e+00 
46800 4.4433641659e+00 -9.8086658396e-04 2.3171452581e+00 -4.0134133155e+00 2.3171452581e+00 4.0134133155e+00 
46900 4.4433641497e+00 -9.6973038980e-04 2.3171664235e+00 -4.0134499751e+00 2.3171664235e+00 4.0134499751e+00 
47000 4.4433641339e+00 -9.5872526410e-04 2.3171873484e+00 -4.0134862182e+00 2.3171873484e+00 4.0134862182e+00 
47100 4.4433641185e+00 -9.4785067671e-04 2.3172080357e+00 -4.0135220496e+00 2.3172080357e+00 4.0135220496e+00 
47200 4.4433641034e+00 -9.3710601966e-04 2.3172284882e+00 -4.0135574743e+00 2.3172284882e+00 4.0135574743e+00 
47300 4.4433640886e+00 -9.2649060803e-04 2.3172487086e+00 -4.0135924971e+00 2.3172487086e+00 4.0135924971e+00 
47400 4.4433640742e+00 -9.1600368114e-04 2.3172686998e+00 -4.0136271229e+00 2.3172686998e+00 4.0136271229e+00 
47500 4.4433640601e+00 -9.0564440414e-04 2.3172884646e+00 -4.0136613565e+00 2.3172884646e+00 4.0136613565e+00 
47600 4.4433640463e+00 -8.9541186986e-04 2.3173080057e+00 -4.0136952026e+00 2.3173080057e+00 4.0136952026e+00 
47700 4.4433640328e+00 -8.8530510105e-04 2.3173273258e+00 -4.0137286660e+00 2.3173273258e+00 4.0137286660e+00 
47800 4.4433640197e+00 -8.7532305280e-04 2.3173464277e+00 -4.0137617514e+00 2.3173464277e+00 4.0137617514e+00 
47900 4.4433640068e+00 -8.6546461530e-04 2.3173653140e+00 -4.0137944636e+00 2.3173653140e+00 4.0137944636e+00 
48000 4.4433639943e+00 -8.5572861673e-04 2.3173839875e+00 -4.0138268070e+00 2.3173839875e+00 4.0138268070e+00 
48100 4.4433639820e+00 -8.4611382647e-04 2.3174024508e+00 -4.0138587863e+00 2.3174024508e+00 4.0138587863e+00 
48200 4.4433639700e+00 -8.3661895840e-04 2.3174207064e+00 -4.0138904061e+00 2.3174207064e+00 4.0138904061e+00 
48300 4.4433639583e+00 -8.2724267440e-04 2.3174387571e+00 -4.0139216707e+00 2.3174387571e+00 4.0139216707e+00 
48400 4.4433639468e+00 -8.1798358797e-04 2.3174566053e+00 -4.0139525848e+00 2.3174566053e+00 4.0139525848e+00 
48500 4.4433639356e+00 -8.0884026795e-04 2.3174742537e+00 -4.0139831526e+00 2.3174742537e+00 4.0139831526e+00 
48600 4.4433639247e+00 -7.9981124238e-04 2.3174917046e+00 -4.0140133785e+00 2.3174917046e+00 4.0140133785e+00 
48700 4.4433639140e+00 -7.9089500234e-04 2.3175089606e+00 -4.0140432667e+00 2.3175089606e+00 4.0140432667e+00 
48800 4.4433639036e+00 -7.8209000594e-04 2.3175260241e+00 -4.0140728216e+00 2.3175260241e+00 4.0140728216e+00 
48900 4.4433638934e+00 -7.7339468223e-04 2.3175428975e+00 -4.0141020472e+00 2.3175428975e+00 4.0141020472e+00 
49000 4.4433638834e+00 -7.6480743518e-04 2.3175595832e+00 -4.0141309476e+00 2.3175595832e+00 4.0141309476e+00 
49100 4.4433638736e+00 -7.5632664766e-04 2.3175760835e+00 -4.0141595269e+00 2.3175760835e+00 4.0141595269e+00 
49200 4.4433638641e+00 -7.4795068532e-04 2.3175924007e+00 -4.0141877892e+00 2.3175924007e+00 4.0141877892e+00 
49300 4.4433638548e+00 -7.3967790047e-04 2.3176085371e+00 -4.0142157382e+00 2.3176085371e+00 4.0142157382e+00 
49400 4.4433638457e+00 -7.3150663591e-04 2.3176244949e+00 -4.0142433780e+00 2.3176244949e+00 4.0142433780e+00 
49500 4.4433638369e+00 -7.2343522864e-04 2.3176402763e+00 -4.0142707122e+00 2.3176402763e+00 4.0142707122e+00 
49600 4.4433638282e+00 -7.1546201351e-04 2.3176558834e+00 -4.0142977446e+00 2.3176558834e+00 4.0142977446e+00 
49700 4.4433638197e+00 -7.0758532674e-04 2.3176713185e+00 -4.0143244789e+00 2.3176713185e+00 4.0143244789e+00 
49800 4.4433638114e+00 -6.9980350931e-04 2.3176865835e+00 -4.0143509187e+00 2.3176865835e+00 4.0143509187e+00 
49900 4.4433638033e+00 -6.9211491030e-04 2.3177016805e+00 -4.0143770675e+00 2.3177016805e+00 4.0143770675e+00 
50000 4.4433637954e+00 -6.8451788997e-04 2.3177166116e+00 -4.0144029289e+00 2.3177166116e+00 4.0144029289e+00 
50100 4.4433637877e+00 -6.7701082283e-04 2.3177313787e+00 -4.0144285062e+00 2.3177313787e+00 4.0144285062e+00 
50200 4.4433637801e+00 -6.6959210040e-04 2.3177459838e+00 -4.0144538029e+00 2.3177459838e+00 4.0144538029e+00 
50300 4.4433637728e+00 -6.6226013397e-04 2.3177604287e+00 -4.0144788222e+00 2.3177604287e+00 4.0144788222e+00 
50400 4.4433637656e+00 -6.5501335706e-04 2.3177747153e+00 -4.0145035675e+00 2.3177747153e+00 4.0145035675e+00 
50500 4.4433637585e+00 -6.4785022781e-04 2.3177888456e+00 -4.0145280417e+00 2.3177888456e+00 4.0145280417e+00 
50600 4.4433637516e+00 -6.4076923112e-04 2.3178028212e+00 -4.0145522482e+00 2.3178028212e+00 4.0145522482e+00 
50700 4.4433637449e+00 -6.3376888065e-04 2.3178166440e+00 -4.0145761900e+00 2.3178166440e+00 4.0145761900e+00 
50800 4.4433637383e+00 -6.2684772064e-04 2.3178303157e+00 -4.0145998701e+00 2.3178303157e+00 4.0145998701e+00 
50900 4.4433637319e+00 -6.2000432755e-04 2.3178438380e+00 -4.0146232914e+00 2.3178438380e+00 4.0146232914e+00 
51000 4.4433637256e+00 -6.1323731148e-04 2.3178572126e+00 -4.0146464569e+00 2.3178572126e+00 4.0146464569e+00 
51100 4.4433637195e+00 -6.0654531751e-04 2.3178704411e+00 -4.0146693694e+00 2.3178704411e+00 4.0146693694e+00 
51200 4.4433637135e+00 -5.9992702675e-04 2.3178835253e+00 -4.0146920318e+00 2.3178835253e+00 4.0146920318e+00 
51300 4.4433637077e+00 -5.9338115726e-04 2.3178964665e+00 -4.0147144467e+00 2.3178964665e+00 4.0147144467e+00 
51400 4.4433637020e+00 -5.8690646487e-04 2.3179092665e+00 -4.0147366170e+00 2.3179092665e+00 4.0147366170e+00 
51500 4.4433636964e+00 -5.8050174368e-04 2.3179219268e+00 -4.0147585452e+00 2.3179219268e+00 4.0147585452e+00 
51600 4.4433636909e+00 -5.7416582653e-04 2.3179344488e+00 -4.0147802340e+00 2.3179344488e+00 4.0147802340e+00 
51700 4.4433636856e+00 -5.6789758528e-04 2.3179468341e+00 -4.0148016860e+00 2.3179468341e+00 4.0148016860e+00 
51800 4.4433636804e+00 -5.6169593088e-04 2.3179590842e+00 -4.0148229036e+00 2.3179590842e+00 4.0148229036e+00 
51900 4.4433636753e+00 -5.5555981335e-04 2.3179712004e+00 -4.0148438895e+00 2.3179712004e+00 4.0148438895e+00 
52000 4.4433636703e+00 -5.4948822162e-04 2.3179831841e+00 -4.0148646460e+00 2.3179831841e+00 4.0148646460e+00 
52100 4.4433636655e+00 -5.4348018322e-04 2.3179950369e+00 -4.0148851755e+00 2.3179950369e+00 4.0148851755e+00 
52200 4.4433636607e+00 -5.3753476380e-04 2.3180067599e+00 -4.0149054805e+00 2.3180067599e+00 4.0149054805e+00 
52300 4.4433636561e+00 -5.3165106663e-04 2.3180183547e+00 -4.0149255632e+00 2.3180183547e+00 4.0149255632e+00 
52400 4.4433636516e+00 -5.2582823189e-04 2.3180298225e+00 -4.0149454260e+00 2.3180298225e+00 4.0149454260e+00 
52500 4.4433636471e+00 -5.2006543591e-04 2.3180411646e+00 -4.0149650712e+00 2.3180411646e+00 4.0149650712e+00 
52600 4.4433636428e+00 -5.1436189030e-04 2.3180523824e+00 -4.0149845010e+00 2.3180523824e+00 4.0149845010e+00 
52700 4.4433636386e+00 -5.0871684099e-04 2.3180634771e+00 -4.0150037176e+00 2.3180634771e+00 4.0150037176e+00 
52800 4.4433636345e+00 -5.0312956716e-04 2.3180744500e+00 -4.0150227232e+00 2.3180744500e+00 4.0150227232e+00 
52900 4.4433636304e+00 -4.9759938019e-04 2.3180853024e+00 -4.0150415200e+00 2.3180853024e+00 4.0150415200e+00 
53000 4.4433636265e+00 -4.9212562241e-04 2.3180960354e+00 -4.0150601101e+00 2.3180960354e+00 4.0150601101e+00 
53100 4.4433636226e+00 -4.8670766589e-04 2.3181066502e+00 -4.0150784956e+00 2.3181066502e+00 4.0150784956e+00 
53200 4.4433636189e+00 -4.8134491118e-04 2.3181171482e+00 -4.0150966786e+00 2.3181171482e+00 4.0150966786e+00 
53300 4.4433636152e+00 -4.7603678593e-04 2.3181275304e+00 -4.0151146611e+00 2.3181275304e+00 4.0151146611e+00 
53400 4.4433636116e+00 -4.7078274357e-04 2.3181377981e+00 -4.0151324453e+00 2.3181377981e+00 4.0151324453e+00 
53500 4.4433636081e+00 -4.6558226190e-04 2.3181479525e+00 -4.0151500332e+00 2.3181479525e+00 4.0151500332e+00 
53600 4.4433636047e+00 -4.6043484167e-04 2.3181579946e+00 -4.0151674266e+00 2.3181579946e+00 4.0151674266e+00 
53700 4.4433636014e+00 -4.5534000519e-04 2.3181679257e+00 -4.0151846277e+00 2.3181679257e+00 4.0151846277e+00 
53800 4.4433635981e+00 -4.5029729489e-04 2.3181777468e+00 -4.0152016384e+00 2.3181777468e+00 4.0152016384e+00 
53900 4.4433635949e+00 -4.4530627186e-04 2.3181874591e+00 -4.0152184606e+00 2.3181874591e+00 4.0152184606e+00 
54000 4.4433635918e+00 -4.4036651449e-04 2.3181970637e+00 -4.0152350963e+00 2.3181970637e+00 4.0152350963e+00 
54100 4.4433635887e+00 -4.3547761700e-04 2.3182065618e+00 -4.0152515474e+00 2.3182065618e+00 4.0152515474e+00 
54200 4.4433635858e+00 -4.3063918811e-04 2.3182159543e+00 -4.0152678158e+00 2.3182159543e+00 4.0152678158e+00 
54300 4.4433635829e+00 -4.2585084961e-04 2.3182252425e+00 -4.0152839034e+00 2.3182252425e+00 4.0152839034e+00 
54400 4.4433635800e+00 -4.2111223507e-04 2.3182344274e+00 -4.0152998120e+00 2.3182344274e+00 4.0152998120e+00 
54500 4.4433635773e+00 -4.1642298853e-04 2.3182435100e+00 -4.0153155436e+00 2.3182435100e+00 4.0153155436e+00 
54600 4.4433635746e+00 -4.1178276319e-04 2.3182524914e+00 -4.0153310999e+00 2.3182524914e+00 4.0153310999e+00 
54700 4.4433635719e+00 -4.0719122024e-04 2.3182613727e+00 -4.0153464828e+00 2.3182613727e+00 4.0153464828e+00 
54800 4.4433635693e+00 -4.0264802763e-04 2.3182701550e+00 -4.0153616941e+00 2.3182701550e+00 4.0153616941e+00 
54900 4.4433635668e+00 -3.9815285895e-04 2.3182788392e+00 -4.0153767357e+00 2.3182788392e+00 4.0153767357e+00 
55000 4.4433635644e+00 -3.9370539236e-04 2.3182874265e+00 -4.0153916092e+00 2.3182874265e+00 4.0153916092e+00 
55100 4.4433635619e+00 -3.8930530952e-04 2.3182959178e+00 -4.0154063166e+00 2.3182959178e+00 4.0154063166e+00 
55200 4.4433635596e+00 -3.8495229466e-04 2.3183043142e+00 -4.0154208595e+00 2.3183043142e+00 4.0154208595e+00 
55300 4.4433635573e+00 -3.8064603361e-04 2.3183126166e+00 -4.0154352398e+00 2.3183126166e+00 4.0154352398e+00 
55400 4.4433635551e+00 -3.7638621296e-04 2.3183208262e+00 -4.0154494592e+00 2.3183208262e+00 4.0154494592e+00 
55500 4.4433635529e+00 -3.7217251925e-04 2.3183289438e+00 -4.0154635194e+00 2.3183289438e+00 4.0154635194e+00 
55600 4.4433635507e+00 -3.6800463824e-04 2.3183369706e+00 -4.0154774221e+00 2.3183369706e+00 4.0154774221e+00 
55700 4.4433635486e+00 -3.6388225420e-04 2.3183449074e+00 -4.0154911691e+00 2.3183449074e+00 4.0154911691e+00 
55800 4.4433635466e+00 -3.5980504928e-04 2.3183527553e+00 -4.0155047620e+00 2.3183527553e+00 4.0155047620e+00 
55900 4.4433635446e+00 -3.5577270300e-04 2.3183605152e+00 -4.0155182026e+00 2.3183605152e+00 4.0155182026e+00 
56000 4.4433635427e+00 -3.5178489168e-04 2.3183681882e+00 -4.0155314926e+00 2.3183681882e+00 4.0155314926e+00 
56100 4.4433635408e+00 -3.4784128804e-04 2.3183757751e+00 -4.0155446335e+00 2.3183757751e+00 4.0155446335e+00 
56200 4.4433635389e+00 -3.4394156078e-04 2.3183832769e+00 -4.0155576270e+00 2.3183832769e+00 4.0155576270e+00 
56300 4.4433635371e+00 -3.4008537429e-04 2.3183906946e+00 -4.0155704749e+00 2.3183906946e+00 4.0155704749e+00 
56400 4.4433635353e+00 -3.3627238834e-04 2.3183980291e+00 -4.0155831786e+00 2.3183980291e+00 4.0155831786e+00 
56500 4.4433635336e+00 -3.3250225791e-04 2.3184052814e+00 -4.0155957399e+00 2.3184052814e+00 4.0155957399e+00 
56600 4.4433635319e+00 -3.2877463295e-04 2.3184124523e+00 -4.0156081603e+00 2.3184124523e+00 4.0156081603e+00 
56700 4.4433635303e+00 -3.2508915836e-04 2.3184195429e+00 -4.0156204415e+00 2.3184195429e+00 4.0156204415e+00 
56800 4.4433635287e+00 -3.2144547385e-04 2.3184265539e+00 -4.0156325849e+00 2.3184265539e+00 4.0156325849e+00 
56900 4.4433635271e+00 -3.1784321395e-04 2.3184334863e+00 -4.0156445922e+00 2.3184334863e+00 4.0156445922e+00 
57000 4.4433635256e+00 -3.1428200807e-04 2.3184403410e+00 -4.0156564649e+00 2.3184403410e+00 4.0156564649e+00 
57100 4.4433635241e+00 -3.1076148052e-04 2.3184471189e+00 -4.0156682045e+00 2.3184471189e+00 4.0156682045e+00 
57200 4.4433635226e+00 -3.0728125064e-04 2.3184538208e+00 -4.0156798126e+00 2.3184538208e+00 4.0156798126e+00 
57300 4.4433635212e+00 -3.0384093297e-04 2.3184604476e+00 -4.0156912907e+00 2.3184604476e+00 4.0156912907e+00 
57400 4.4433635198e+00 -3.0044013739e-04 2.3184670003e+00 -4.0157026402e+00 2.3184670003e+00 4.0157026402e+00 
57500 4.4433635184e+00 -2.9707846938e-04 2.3184734796e+00 -4.0157138626e+00 2.3184734796e+00 4.0157138626e+00 
57600 4.4433635171e+00 -2.9375553024e-04 2.3184798864e+00 -4.0157249595e+00 2.3184798864e+00 4.0157249595e+00 
57700 4.4433635158e+00 -2.9047091738e-04 2.3184862214e+00 -4.0157359322e+00 2.3184862214e+00 4.0157359322e+00 
57800 4.4433635145e+00 -2.8722422460e-04 2.3184924857e+00 -4.0157467822e+00 2.3184924857e+00 4.0157467822e+00 
57900 4.4433635133e+00 -2.8401504242e-04 2.3184986799e+00 -4.0157575109e+00 2.3184986799e+00 4.0157575109e+00 
58000 4.4433635121e+00 -2.8084295842e-04 2.3185048049e+00 -4.0157681196e+00 2.3185048049e+00 4.0157681196e+00 
58100 4.4433635109e+00 -2.7770755759e-04 2.3185108614e+00 -4.0157786099e+00 2.3185108614e+00 4.0157786099e+00 
58200 4.4433635097e+00 -2.7460842271e-04 2.3185168504e+00 -4.0157889830e+00 2.3185168504e+00 4.0157889830e+00 
58300 4.4433635086e+00 -2.7154513471e-04 2.3185227724e+00 -4.0157992403e+00 2.3185227724e+00 4.0157992403e+00 
58400 4.4433635075e+00 -2.6851727309e-04 2.3185286284e+00 -4.0158093832e+00 2.3185286284e+00 4.0158093832e+00 
58500 4.4433635065e+00 -2.6552441630e-04 2.3185344191e+00 -4.0158194130e+00 2.3185344191e+00 4.0158194130e+00 
58600 4.4433635054e+00 -2.6256614214e-04 2.3185401452e+00 -4.0158293309e+00 2.3185401452e+00 4.0158293309e+00 
58700 4.4433635044e+00 -2.5964202818e-04 2.3185458076e+00 -4.0158391384e+00 2.3185458076e+00 4.0158391384e+00 
58800 4.4433635034e+00 -2.5675165213e-04 2.3185514068e+00 -4.0158488365e+00 2.3185514068e+00 4.0158488365e+00 
58900 4.4433635024e+00 -2.5389459230e-04 2.3185569437e+00 -4.0158584267e+00 2.3185569437e+00 4.0158584267e+00 
59000 4.4433635015e+00 -2.5107042794e-04 2.3185624190e+00 -4.0158679102e+00 2.3185624190e+00 4.0158679102e+00 
59100 4.4433635005e+00 -2.4827873966e-04 2.3185678333e+00 -4.0158772881e+00 2.3185678333e+00 4.0158772881e+00 
59200 4.4433634996e+00 -2.4551910983e-04 2.3185731875e+00 -4.0158865618e+00 2.3185731875e+00 4.0158865618e+00 
59300 4.4433634987e+00 -2.4279112292e-04 2.3185784821e+00 -4.0158957323e+00 2.3185784821e+00 4.0158957323e+00 
59400 4.4433634979e+00 -2.4009436591e-04 2.3185837179e+00 -4.0159048010e+00 2.3185837179e+00 4.0159048010e+00 
59500 4.4433634970e+00 -2.3742842861e-04 2.3185888955e+00 -4.0159137688e+00 2.3185888955e+00 4.0159137688e+00 
59600 4.4433634962e+00 -2.3479290401e-04 2.3185940156e+00 -4.0159226371e+00 2.3185940156e+00 4.0159226371e+00 
59700 4.4433634954e+00 -2.3218738862e-04 2.3185990788e+00 -4.0159314069e+00 2.3185990788e+00 4.0159314069e+00 
59800 4.4433634946e+00 -2.2961148277e-04 2.3186040859e+00 -4.0159400794e+00 2.3186040859e+00 4.0159400794e+00 
59900 4.4433634939e+00 -2.2706479090e-04 2.3186090374e+00 -4.0159486557e+00 2.3186090374e+00 4.0159486557e+00 
60000 4.4433634931e+00 -2.2454692188e-04 2.3186139340e+00 -4.0159571368e+00 2.3186139340e+00 4.0159571368e+00 
60100 4.4433634924e+00 -2.2205748919e-04 2.3186187763e+00 -4.0159655239e+00 2.3186187763e+00 4.0159655239e+00 
60200 4.4433634917e+00 -2.1959611126e-04 2.3186235648e+00 -4.0159738179e+00 2.3186235648e+00 4.0159738179e+00 
60300 4.4433634910e+00 -2.1716241163e-04 2.3186283003e+00 -4.0159820200e+00 2.3186283003e+00 4.0159820200e+00 
60400 4.4433634903e+00 -2.1475601915e-04 2.3186329833e+00 -4.0159901312e+00 2.3186329833e+00 4.0159901312e+00 
60500 4.4433634896e+00 -2.1237656823e-04 2.3186376144e+00 -4.0159981525e+00 2.3186376144e+00 4.0159981525e+00 
60600 4.4433634890e+00 -2.1002369894e-04 2.3186421942e+00 -4.0160060849e+00 2.3186421942e+00 4.0160060849e+00 
60700 4.4433634884e+00 -2.0769705719e-04 2.3186467232e+00 -4.0160139294e+00 2.3186467232e+00 4.0160139294e+00 
60800 4.4433634878e+00 -2.0539629485e-04 2.3186512020e+00 -4.0160216870e+00 2.3186512020e+00 4.0160216870e+00 
60900 4.4433634872e+00 -2.0312106985e-04 2.3186556313e+00 -4.0160293586e+00 2.3186556313e+00 4.0160293586e+00 
61000 4.4433634866e+00 -2.0087104631e-04 2.3186600114e+00 -4.0160369453e+00 2.3186600114e+00 4.0160369453e+00 
61100 4.4433634860e+00 -1.9864589454e-04 2.3186643430e+00 -4.0160444478e+00 2.3186643430e+00 4.0160444478e+00 
61200 4.4433634854e+00 -1.9644529117e-04 2.3186686267e+00 -4.0160518673e+00 2.3186686267e+00 4.0160518673e+00 
61300 4.4433634849e+00 -1.9426891912e-04 2.3186728628e+00 -4.0160592046e+00 2.3186728628e+00 4.0160592046e+00 
61400 4.4433634844e+00 -1.9211646765e-04 2.3186770521e+00 -4.0160664605e+00 2.3186770521e+00 4.0160664605e+00 
61500 4.4433634838e+00 -1.8998763236e-04 2.3186811949e+00 -4.0160736361e+00 2.3186811949e+00 4.0160736361e+00 
61600 4.4433634833e+00 -1.8788211517e-04 2.3186852918e+00 -4.0160807321e+00 2.3186852918e+00 4.0160807321e+00 
61700 4.4433634828e+00 -1.8579962427e-04 2.3186893432e+00 -4.0160877495e+00 2.3186893432e+00 4.0160877495e+00 
61800 4.4433634824e+00 -1.8373987410e-04 2.3186933498e+00 -4.0160946890e+00 2.3186933498e+00 4.0160946890e+00 
61900 4.4433634819e+00 -1.8170258528e-04 2.3186973120e+00 -4.0161015517e+00 2.3186973120e+00 4.0161015517e+00 
62000 4.4433634814e+00 -1.7968748451e-04 2.3187012302e+00 -4.0161083382e+00 2.3187012302e+00 4.0161083382e+00 
62100 4.4433634810e+00 -1.7769430453e-04 2.3187051049e+00 -4.0161150495e+00 2.3187051049e+00 4.0161150495e+00 
62200 4.4433634806e+00 -1.7572278398e-04 2.3187089367e+00 -4.0161216863e+00 2.3187089367e+00 4.0161216863e+00 
62300 4.4433634801e+00 -1.7377266732e-04 2.3187127259e+00 -4.0161282494e+00 2.3187127259e+00 4.0161282494e+00 
62400 4.4433634797e+00 -1.7184370468e-04 2.3187164731e+00 -4.0161347397e+00 2.3187164731e+00 4.0161347397e+00 
62500 4.4433634793e+00 -1.6993565176e-04 2.3187201787e+00 -4.0161411580e+00 2.3187201787e+00 4.0161411580e+00 
62600 4.4433634789e+00 -1.6804826966e-04 2.3187238431e+00 -4.0161475049e+00 2.3187238431e+00 4.0161475049e+00 
62700 4.4433634785e+00 -1.6618132476e-04 2.3187274668e+00 -4.0161537814e+00 2.3187274668e+00 4.0161537814e+00 
62800 4.4433634782e+00 -1.6433458857e-04 2.3187310503e+00 -4.0161599882e+00 2.3187310503e+00 4.0161599882e+00 
62900 4.4433634778e+00 -1.6250783755e-04 2.3187345939e+00 -4.0161661259e+00 2.3187345939e+00 4.0161661259e+00 
63000 4.4433634774e+00 -1.6070085298e-04 2.3187380981e+00 -4.0161721954e+00 2.3187380981e+00 4.0161721954e+00 
63100 4.4433634771e+00 -1.5891342074e-04 2.3187415634e+00 -4.0161781974e+00 2.3187415634e+00 4.0161781974e+00 
63200 4.4433634767e+00 -1.5714533120e-04 2.3187449901e+00 -4.0161841327e+00 2.3187449901e+00 4.0161841327e+00 
63300 4.4433634764e+00 -1.5539637902e-04 2.3187483787e+00 -4.0161900019e+00 2.3187483787e+00 4.0161900019e+00 
63400 4.4433634761e+00 -1.5366636297e-04 2.3187517296e+00 -4.0161958058e+00 2.3187517296e+00 4.0161958058e+00 
63500 4.4433634758e+00 -1.5195508577e-04 2.3187550431e+00 -4.0162015450e+00 2.3187550431e+00 4.0162015450e+00 
63600 4.4433634755e+00 -1.5026235389e-04 2.3187583198e+00 -4.0162072204e+00 2.3187583198e+00 4.0162072204e+00 
63700 4.4433634752e+00 -1.4858797741e-04 2.3187615599e+00 -4.0162128325e+00 2.3187615599e+00 4.0162128325e+00 
63800 4.4433634749e+00 -1.4693176982e-04 2.3187647640e+00 -4.0162183820e+00 2.3187647640e+00 4.0162183820e+00 
63900 4.4433634746e+00 -1.4529354788e-04 2.3187679323e+00 -4.0162238697e+00 2.3187679323e+00 4.0162238697e+00 
64000 4.4433634743e+00 -1.4367313139e-04 2.3187710653e+00 -4.0162292962e+00 2.3187710653e+00 4.0162292962e+00 
64100 4.4433634740e+00 -1.4207034309e-04 2.3187741633e+00 -4.0162346622e+00 2.3187741633e+00 4.0162346622e+00 
64200 4.4433634738e+00 -1.4048500846e-04 2.3187772268e+00 -4.0162399683e+00 2.3187772268e+00 4.0162399683e+00 
64300 4.4433634735e+00 -1.3891695558e-04 2.3187802561e+00 -4.0162452152e+00 2.3187802561e+00 4.0162452152e+00 
64400 4.4433634732e+00 -1.3736601495e-04 2.3187832516e+00 -4.0162504035e+00 2.3187832516e+00 4.0162504035e+00 
64500 4.4433634730e+00 -1.3583201937e-04 2.3187862136e+00 -4.0162555339e+00 2.3187862136e+00 4.0162555339e+00 
64600 4.4433634728e+00 -1.3431480378e-04 2.3187891426e+00 -4.0162606069e+00 2.3187891426e+00 4.0162606069e+00 
64700 4.4433634725e+00 -1.3281420512e-04 2.3187920388e+00 -4.0162656234e+00 2.3187920388e+00 4.0162656234e+00 
64800 4.4433634723e+00 -1.3133006220e-04 2.3187949027e+00 -4.0162705837e+00 2.3187949027e+00 4.0162705837e+00 
64900 4.4433634721e+00 -1.2986221558e-04 2.3187977345e+00 -4.0162754887e+00 2.3187977345e+00 4.0162754887e+00 
65000 4.4433634719e+00 -1.2841050743e-04 2.3188005347e+00 -4.0162803388e+00 2.3188005347e+00 4.0162803388e+00 
65100 4.4433634717e+00 -1.2697478143e-04 2.3188033036e+00 -4.0162851346e+00 2.3188033036e+00 4.0162851346e+00 
65200 4.4433634714e+00 -1.2555488269e-04 2.3188060416e+00 -4.0162898769e+00 2.3188060416e+00 4.0162898769e+00 
65300 4.4433634712e+00 -1.2415065757e-04 2.3188087489e+00 -4.0162945661e+00 2.3188087489e+00 4.0162945661e+00 
65400 4.4433634710e+00 -1.2276195366e-04 2.3188114259e+00 -4.0162992028e+00 2.3188114259e+00 4.0162992028e+00 
65500 4.4433634709e+00 -1.2138861968e-04 2.3188140730e+00 -4.0163037877e+00 2.3188140730e+00 4.0163037877e+00 
65600 4.4433634707e+00 -1.2003050537e-04 2.3188166905e+00 -4.0163083213e+00 2.3188166905e+00 4.0163083213e+00 
65700 4.4433634705e+00 -1.1868746143e-04 2.3188192787e+00 -4.0163128042e+00 2.3188192787e+00 4.0163128042e+00 
65800 4.4433634703e+00 -1.1735933946e-04 2.3188218379e+00 -4.0163172369e+00 2.3188218379e+00 4.0163172369e+00 
65900 4.4433634701e+00 -1.1604599191e-04 2.3188243685e+00 -4.0163216200e+00 2.3188243685e+00 4.0163216200e+00 
66000 4.4433634700e+00 -1.1474727198e-04 2.3188268707e+00 -4.0163259540e+00 2.3188268707e+00 4.0163259540e+00 
66100 4.4433634698e+00 -1.1346303364e-04 2.3188293450e+00 -4.0163302396e+00 2.3188293450e+00 4.0163302396e+00 
66200 4.4433634697e+00 -1.1219313152e-04 2.3188317915e+00 -4.0163344771e+00 2.3188317915e+00 4.0163344771e+00 
66300 4.4433634695e+00 -1.1093742092e-04 2.3188342107e+00 -4.0163386673e+00 2.3188342107e+00 4.0163386673e+00 
66400 4.4433634693e+00 -1.0969575778e-04 2.3188366028e+00 -4.0163428105e+00 2.3188366028e+00 4.0163428105e+00 
66500 4.4433634692e+00 -1.0846799863e-04 2.3188389681e+00 -4.0163469074e+00 2.3188389681e+00 4.0163469074e+00 
66600 4.4433634691e+00 -1.0725400059e-04 2.3188413070e+00 -4.0163509584e+00 2.3188413070e+00 4.0163509584e+00 
66700 4.4433634689e+00 -1.0605362135e-04 2.3188436196e+00 -4.0163549640e+00 2.3188436196e+00 4.0163549640e+00 
66800 4.4433634688e+00 -1.0486671917e-04 2.3188459064e+00 -4.0163589248e+00 2.3188459064e+00 4.0163589248e+00 
66900 4.4433634686e+00 -1.0369315288e-04 2.3188481676e+00 -4.0163628413e+00 2.3188481676e+00 4.0163628413e+00 
67000 4.4433634685e+00 -1.0253278186e-04 2.3188504035e+00 -4.0163667140e+00 2.3188504035e+00 4.0163667140e+00 
67100 4.4433634684e+00 -1.0138546606e-04 2.3188526143e+00 -4.0163705433e+00 2.3188526143e+00 4.0163705433e+00 
67200 4.4433634683e+00 -1.0025106603e-04 2.3188548004e+00 -4.0163743297e+00 2.3188548004e+00 4.0163743297e+00 
67300 4.4433634681e+00 -9.9129442880e-05 2.3188569621e+00 -4.0163780738e+00 2.3188569621e+00 4.0163780738e+00 
67400 4.4433634680e+00 -9.8020458353e-05 2.3188590995e+00 -4.0163817760e+00 2.3188590995e+00 4.0163817760e+00 
67500 4.4433634679e+00 -9.6923974811e-05 2.3188612131e+00 -4.0163854368e+00 2.3188612131e+00 4.0163854368e+00 
67600 4.4433634678e+00 -9.5839855264e-05 2.3188633030e+00 -4.0163890566e+00 2.3188633030e+00 4.0163890566e+00 
67700 4.4433634677e+00 -9.4767963400e-05 2.3188653695e+00 -4.0163926359e+00 2.3188653695e+00 4.0163926359e+00 
67800 4.4433634676e+00 -9.3708163606e-05 2.3188674129e+00 -4.0163961752e+00 2.3188674129e+00 4.0163961752e+00 
67900 4.4433634675e+00 -9.2660320993e-05 2.3188694335e+00 -4.0163996749e+00 2.3188694335e+00 4.0163996749e+00 
68000 4.4433634674e+00 -9.1624301443e-05 2.3188714315e+00 -4.0164031355e+00 2.3188714315e+00 4.0164031355e+00 
68100 4.4433634673e+00 -9.0599971615e-05 2.3188734071e+00 -4.0164065574e+00 2.3188734071e+00 4.0164065574e+00 
68200 4.4433634672e+00 -8.9587199002e-05 2.3188753606e+00 -4.0164099410e+00 2.3188753606e+00 4.0164099410e+00 
68300 4.4433634671e+00 -8.8585851949e-05 2.3188772923e+00 -4.0164132868e+00 2.3188772923e+00 4.0164132868e+00 
68400 4.4433634670e+00 -8.7595799688e-05 2.3188792024e+00 -4.0164165952e+00 2.3188792024e+00 4.0164165952e+00 
68500 4.4433634669e+00 -8.6616912378e-05 2.3188810912e+00 -4.0164198666e+00 2.3188810912e+00 4.0164198666e+00 
68600 4.4433634668e+00 -8.5649061132e-05 2.3188829588e+00 -4.0164231015e+00 2.3188829588e+00 4.0164231015e+00 
68700 4.4433634668e+00 -8.4692118066e-05 2.3188848056e+00 -4.0164263002e+00 2.3188848056e+00 4.0164263002e+00 
68800 4.4433634667e+00 -8.3745956307e-05 2.3188866317e+00 -4.0164294632e+00 2.3188866317e+00 4.0164294632e+00 
68900 4.4433634666e+00 -8.2810450046e-05 2.3188884375e+00 -4.0164325908e+00 2.3188884375e+00 4.0164325908e+00 
69000 4.4433634665e+00 -8.1885474567e-05 2.3188902230e+00 -4.0164356835e+00 2.3188902230e+00 4.0164356835e+00 
69100 4.4433634665e+00 -8.0970906270e-05 2.3188919887e+00 -4.0164387416e+00 2.3188919887e+00 4.0164387416e+00 
69200 4.4433634664e+00 -8.0066622714e-05 2.3188937345e+00 -4.0164417656e+00 2.3188937345e+00 4.0164417656e+00 
69300 4.4433634663e+00 -7.9172502629e-05 2.3188954609e+00 -4.0164447558e+00 2.3188954609e+00 4.0164447558e+00 
69400 4.4433634662e+00 -7.8288425962e-05 2.3188971681e+00 -4.0164477126e+00 2.3188971681e+00 4.0164477126e+00 
69500 4.4433634662e+00 -7.7414273889e-05 2.3188988561e+00 -4.0164506364e+00 2.3188988561e+00 4.0164506364e+00 
69600 4.4433634661e+00 -7.6549928846e-05 2.3189005253e+00 -4.0164535275e+00 2.3189005253e+00 4.0164535275e+00 
69700 4.4433634661e+00 -7.5695274550e-05 2.3189021759e+00 -4.0164563864e+00 2.3189021759e+00 4.0164563864e+00 
69800 4.4433634660e+00 -7.4850196014e-05 2.3189038080e+00 -4.0164592134e+00 2.3189038080e+00 4.0164592134e+00 
69900 4.4433634659e+00 -7.4014579587e-05 2.3189054219e+00 -4.0164620087e+00 2.3189054219e+00 4.0164620087e+00 
70000 4.4433634659e+00 -7.3188312943e-05 2.3189070178e+00 -4.0164647729e+00 2.3189070178e+00 4.0164647729e+00 
70100 4.4433634658e+00 -7.2371285112e-05 2.3189085959e+00 -4.0164675062e+00 2.3189085959e+00 4.0164675062e+00 
70200 4.4433634658e+00 -7.1563386494e-05 2.3189101564e+00 -4.0164702090e+00 2.3189101564e+00 4.0164702090e+00 
70300 4.4433634657e+00 -7.0764508865e-05 2.3189116994e+00 -4.0164728816e+00 2.3189116994e+00 4.0164728816e+00 
70400 4.4433634657e+00 -6.9974545387e-05 2.3189132252e+00 -4.0164755244e+00 2.3189132252e+00 4.0164755244e+00 
70500 4.4433634657e+00 -6.9879760542e-05 2.3189132252e+00 -4.0164755244e+00 2.3189132252e+00 4.0164755244e+00 
70500 4.4433634657e+00 -6.9879760542e-05 2.3189132252e+00 -4.0164755244e+00 2.3189132252e+00 4.0164755244e+00 
