# step Hamiltonian StressXX CellTensor1 CellTensor2 CellTensor3 CellTensor4 
0 6.1311918432e+00 9.5835292647e-02 1.7439943123e+00 -3.0206867570e+00 1.7439943123e+00 3.0206867570e+00 
100 6.1276540398e+00 9.7417892951e-02 1.7439943123e+00 -3.0206867570e+00 1.7439943123e+00 3.0206867570e+00 
200 6.1236413316e+00 9.6608888231e-02 1.7412021057e+00 -3.0158505133e+00 1.7412021057e+00 3.0158505133e+00 
300 6.1195033237e+00 9.5472276418e-02 1.7384286426e+00 -3.0110467344e+00 1.7384286426e+00 3.0110467344e+00 
400 6.1152734808e+00 9.4045265670e-02 1.7356834307e+00 -3.0062918878e+00 1.7356834307e+00 3.0062918878e+00 
500 6.1109805208e+00 9.2360939550e-02 1.7329749655e+00 -3.0016006885e+00 1.7329749655e+00 3.0016006885e+00 
600 6.1066491047e+00 9.0448840222e-02 1.7303108407e+00 -2.9969862889e+00 1.7303108407e+00 2.9969862889e+00 
700 6.1023004174e+00 8.8335462032e-02 1.7276978410e+00 -2.9924604407e+00 1.7276978410e+00 2.9924604407e+00 
800 6.0979526555e+00 8.6044668092e-02 1.7251420224e+00 -2.9880336330e+00 1.7251420224e+00 2.9880336330e+00 
900 6.0936214388e+00 8.3598041082e-02 1.7226487811e+00 -2.9837152124e+00 1.7226487811e+00 2.9837152124e+00 
1000 6.0893201573e+00 8.1015178186e-02 1.7202229126e+00 -2.9795134849e+00 1.7202229126e+00 2.9795134849e+00 
1100 6.0850602641e+00 7.8313938796e-02 1.7178686633e+00 -2.9754358056e+00 1.7178686633e+00 2.9754358056e+00 
1200 6.0808515240e+00 7.5510652480e-02 1.7155897756e+00 -2.9714886563e+00 1.7155897756e+00 2.9714886563e+00 
1300 6.0767022252e+00 7.2620293646e-02 1.7133895268e+00 -2.9676777135e+00 1.7133895268e+00 2.9676777135e+00 
1400 6.0726193592e+00 6.9656628403e-02 1.7112707644e+00 -2.9640079094e+00 1.7112707644e+00 2.9640079094e+00 
1500 6.0686087763e+00 6.6632338319e-02 1.7092359372e+00 -2.9604834854e+00 1.7092359372e+00 2.9604834854e+00 
1600 6.0646753186e+00 6.3559125019e-02 1.7072871232e+00 -2.9571080405e+00 1.7072871232e+00 2.9571080405e+00 
1700 6.0608229357e+00 6.0447798977e-02 1.7054260548e+00 -2.9538845754e+00 1.7054260548e+00 2.9538845754e+00 
1800 6.0570547857e+00 5.7308355298e-02 1.7036541422e+00 -2.9508155327e+00 1.7036541422e+00 2.9508155327e+00 
1900 6.0533733235e+00 5.4150038835e-02 1.7019724946e+00 -2.9479028337e+00 1.7019724946e+00 2.9479028337e+00 
2000 6.0497803787e+00 5.0981400581e-02 1.7003819402e+00 -2.9451479128e+00 1.7003819402e+00 2.9451479128e+00 
2100 6.0462772250e+00 4.7810346962e-02 1.6988830446e+00 -2.9425517493e+00 1.6988830446e+00 2.9425517493e+00 
2200 6.0428646421e+00 4.4644183333e-02 1.6974761278e+00 -2.9401148979e+00 1.6974761278e+00 2.9401148979e+00 
2300 6.0395429705e+00 4.1489652787e-02 1.6961612812e+00 -2.9378375168e+00 1.6961612812e+00 2.9378375168e+00 
2400 6.0363121622e+00 3.8352971153e-02 1.6949383826e+00 -2.9357193944e+00 1.6949383826e+00 2.9357193944e+00 
2500 6.0331718258e+00 3.5239858886e-02 1.6938071114e+00 -2.9337599751e+00 1.6938071114e+00 2.9337599751e+00 
2600 6.0301212673e+00 3.2155570439e-02 1.6927669620e+00 -2.9319583835e+00 1.6927669620e+00 2.9319583835e+00 
2700 6.0271595282e+00 2.9104921554e-02 1.6918172576e+00 -2.9303134474e+00 1.6918172576e+00 2.9303134474e+00 
2800 6.0242854197e+00 2.6092314849e-02 1.6909571631e+00 -2.9288237200e+00 1.6909571631e+00 2.9288237200e+00 
2900 6.0214975540e+00 2.3121763953e-02 1.6901856968e+00 -2.9274875011e+00 1.6901856968e+00 2.9274875011e+00 
3000 6.0187943737e+00 2.0196916421e-02 1.6895017423e+00 -2.9263028571e+00 1.6895017423e+00 2.9263028571e+00 
3100 6.0161741777e+00 1.7321075580e-02 1.6889040594e+00 -2.9252676400e+00 1.6889040594e+00 2.9252676400e+00 
3200 6.0136351463e+00 1.4497221419e-02 1.6883912950e+00 -2.9243795060e+00 1.6883912950e+00 2.9243795060e+00 
3300 6.0111753630e+00 1.1728030606e-02 1.6879619926e+00 -2.9236359325e+00 1.6879619926e+00 2.9236359325e+00 
3400 6.0087928354e+00 9.0158957015e-03 1.6876146025e+00 -2.9230342351e+00 1.6876146025e+00 2.9230342351e+00 
3500 6.0064855137e+00 6.3629435815e-03 1.6873474900e+00 -2.9225715827e+00 1.6873474900e+00 2.9225715827e+00 
3600 6.0042513079e+00 3.7710531150e-03 1.6871589448e+00 -2.9222450129e+00 1.6871589448e+00 2.9222450129e+00 
3700 6.0020881035e+00 1.2418720934e-03 1.6870471885e+00 -2.9220514453e+00 1.6870471885e+00 2.9220514453e+00 
3800 5.9999937755e+00 -1.2231665785e-03 1.6870103826e+00 -2.9219876956e+00 1.6870103826e+00 2.9219876956e+00 
3900 5.9979662009e+00 -3.6228294324e-03 1.6870466352e+00 -2.9220504869e+00 1.6870466352e+00 2.9220504869e+00 
4000 5.9960032707e+00 -5.9560677275e-03 1.6871540083e+00 -2.9222364626e+00 1.6871540083e+00 2.9222364626e+00 
4100 5.9941028993e+00 -8.2220034875e-03 1.6873305236e+00 -2.9225421961e+00 1.6873305236e+00 2.9225421961e+00 
4200 5.9922630341e+00 -1.0419916285e-02 1.6875741689e+00 -2.9229642021e+00 1.6875741689e+00 2.9229642021e+00 
4300 5.9904816630e+00 -1.2549230774e-02 1.6878829030e+00 -2.9234989452e+00 1.6878829030e+00 2.9234989452e+00 
4400 5.9887568213e+00 -1.4609504967e-02 1.6882546613e+00 -2.9241428496e+00 1.6882546613e+00 2.9241428496e+00 
4500 5.9870865976e+00 -1.6600419258e-02 1.6886873605e+00 -2.9248923066e+00 1.6886873605e+00 2.9248923066e+00 
4600 5.9854691384e+00 -1.8521766172e-02 1.6891789028e+00 -2.9257436828e+00 1.6891789028e+00 2.9257436828e+00 
4700 5.9839026524e+00 -2.0373440842e-02 1.6897271801e+00 -2.9266933268e+00 1.6897271801e+00 2.9266933268e+00 
4800 5.9823854133e+00 -2.2155432199e-02 1.6903300778e+00 -2.9277375762e+00 1.6903300778e+00 2.9277375762e+00 
4900 5.9809157623e+00 -2.3867814840e-02 1.6909854783e+00 -2.9288727632e+00 1.6909854783e+00 2.9288727632e+00 
5000 5.9794921097e+00 -2.5510741584e-02 1.6916912642e+00 -2.9300952202e+00 1.6916912642e+00 2.9300952202e+00 
5100 5.9781129360e+00 -2.7084436667e-02 1.6924453212e+00 -2.9314012854e+00 1.6924453212e+00 2.9314012854e+00 
5200 5.9767767919e+00 -2.8589189565e-02 1.6932455412e+00 -2.9327873070e+00 1.6932455412e+00 2.9327873070e+00 
5300 5.9754822983e+00 -3.0025349415e-02 1.6940898241e+00 -2.9342496478e+00 1.6940898241e+00 2.9342496478e+00 
5400 5.9742281457e+00 -3.1393320006e-02 1.6949760807e+00 -2.9357846893e+00 1.6949760807e+00 2.9357846893e+00 
5500 5.9730130925e+00 -3.2693555311e-02 1.6959022346e+00 -2.9373888351e+00 1.6959022346e+00 2.9373888351e+00 
5600 5.9718359636e+00 -3.3926555528e-02 1.6968662245e+00 -2.9390585145e+00 1.6968662245e+00 2.9390585145e+00 
5700 5.9706956485e+00 -3.5092863597e-02 1.6978660053e+00 -2.9407901856e+00 1.6978660053e+00 2.9407901856e+00 
5800 5.9695910987e+00 -3.6193062165e-02 1.6988995504e+00 -2.9425803382e+00 1.6988995504e+00 2.9425803382e+00 
5900 5.9685213251e+00 -3.7227770966e-02 1.6999648529e+00 -2.9444254964e+00 1.6999648529e+00 2.9444254964e+00 
6000 5.9674853953e+00 -3.8197644581e-02 1.7010599275e+00 -2.9463222211e+00 1.7010599275e+00 2.9463222211e+00 
6100 5.9664824300e+00 -3.9103370546e-02 1.7021828110e+00 -2.9482671125e+00 1.7021828110e+00 2.9482671125e+00 
6200 5.9655116004e+00 -3.9945667782e-02 1.7033315644e+00 -2.9502568117e+00 1.7033315644e+00 2.9502568117e+00 
6300 5.9645721244e+00 -4.0725285309e-02 1.7045042735e+00 -2.9522880034e+00 1.7045042735e+00 2.9522880034e+00 
6400 5.9636632630e+00 -4.1443001222e-02 1.7056990502e+00 -2.9543574173e+00 1.7056990502e+00 2.9543574173e+00 
6500 5.9627843170e+00 -4.2099621886e-02 1.7069140335e+00 -2.9564618301e+00 1.7069140335e+00 2.9564618301e+00 
6600 5.9619346236e+00 -4.2695981340e-02 1.7081473905e+00 -2.9585980671e+00 1.7081473905e+00 2.9585980671e+00 
6700 5.9611135524e+00 -4.3232940868e-02 1.7093973173e+00 -2.9607630038e+00 1.7093973173e+00 2.9607630038e+00 
6800 5.9603205022e+00 -4.3711388717e-02 1.7106620398e+00 -2.9629535676e+00 1.7106620398e+00 2.9629535676e+00 
6900 5.9595548975e+00 -4.4132239939e-02 1.7119398149e+00 -2.9651667389e+00 1.7119398149e+00 2.9651667389e+00 
7000 5.9588161849e+00 -4.4496436325e-02 1.7132289307e+00 -2.9673995530e+00 1.7132289307e+00 2.9673995530e+00 
7100 5.9581038304e+00 -4.4804946421e-02 1.7145277079e+00 -2.9696491011e+00 1.7145277079e+00 2.9696491011e+00 
7200 5.9574173158e+00 -4.5058765594e-02 1.7158345002e+00 -2.9719125318e+00 1.7158345002e+00 2.9719125318e+00 
7300 5.9567561356e+00 -4.5258916133e-02 1.7171476953e+00 -2.9741870524e+00 1.7171476953e+00 2.9741870524e+00 
7400 5.9561197948e+00 -4.5406447371e-02 1.7184657153e+00 -2.9764699300e+00 1.7184657153e+00 2.9764699300e+00 
7500 5.9555078058e+00 -4.5502435798e-02 1.7197870178e+00 -2.9787584931e+00 1.7197870178e+00 2.9787584931e+00 
7600 5.9549196861e+00 -4.5547985161e-02 1.7211100963e+00 -2.9810501323e+00 1.7211100963e+00 2.9810501323e+00 
7700 5.9543549561e+00 -4.5544226539e-02 1.7224334811e+00 -2.9833423019e+00 1.7224334811e+00 2.9833423019e+00 
7800 5.9538131369e+00 -4.5492318358e-02 1.7237557396e+00 -2.9856325209e+00 1.7237557396e+00 2.9856325209e+00 
7900 5.9532937490e+00 -4.5393446367e-02 1.7250754776e+00 -2.9879183741e+00 1.7250754776e+00 2.9879183741e+00 
8000 5.9527963100e+00 -4.5248823531e-02 1.7263913392e+00 -2.9901975133e+00 1.7263913392e+00 2.9901975133e+00 
8100 5.9523203337e+00 -4.5059689855e-02 1.7277020080e+00 -2.9924676582e+00 1.7277020080e+00 2.9924676582e+00 
8200 5.9518653290e+00 -4.4827312122e-02 1.7290062073e+00 -2.9947265976e+00 1.7290062073e+00 2.9947265976e+00 
8300 5.9514307987e+00 -4.4552983530e-02 1.7303027009e+00 -2.9969721904e+00 1.7303027009e+00 2.9969721904e+00 
8400 5.9510162390e+00 -4.4238023234e-02 1.7315902936e+00 -2.9992023664e+00 1.7315902936e+00 2.9992023664e+00 
8500 5.9506211389e+00 -4.3883775784e-02 1.7328678319e+00 -3.0014151277e+00 1.7328678319e+00 3.0014151277e+00 
8600 5.9502449801e+00 -4.3491610449e-02 1.7341342042e+00 -3.0036085488e+00 1.7341342042e+00 3.0036085488e+00 
8700 5.9498872365e+00 -4.3062920423e-02 1.7353883415e+00 -3.0057807784e+00 1.7353883415e+00 3.0057807784e+00 
8800 5.9495473749e+00 -4.2599121927e-02 1.7366292179e+00 -3.0079300393e+00 1.7366292179e+00 3.0079300393e+00 
8900 5.9492248549e+00 -4.2101653182e-02 1.7378558509e+00 -3.0100546299e+00 1.7378558509e+00 3.0100546299e+00 
9000 5.9489191293e+00 -4.1571973263e-02 1.7390673018e+00 -3.0121529244e+00 1.7390673018e+00 3.0121529244e+00 
9100 5.9486296452e+00 -4.1011560845e-02 1.7402626762e+00 -3.0142233737e+00 1.7402626762e+00 3.0142233737e+00 
9200 5.9483558440e+00 -4.0421912817e-02 1.7414411243e+00 -3.0162645057e+00 1.7414411243e+00 3.0162645057e+00 
9300 5.9480971631e+00 -3.9804542790e-02 1.7426018411e+00 -3.0182749262e+00 1.7426018411e+00 3.0182749262e+00 
9400 5.9478530363e+00 -3.9160979489e-02 1.7437440667e+00 -3.0202533189e+00 1.7437440667e+00 3.0202533189e+00 
9500 5.9476228954e+00 -3.8492765030e-02 1.7448670864e+00 -3.0221984462e+00 1.7448670864e+00 3.0221984462e+00 
9600 5.9474061708e+00 -3.7801453095e-02 1.7459702312e+00 -3.0241091489e+00 1.7459702312e+00 3.0241091489e+00 
9700 5.9472022935e+00 -3.7088607007e-02 1.7470528772e+00 -3.0259843469e+00 1.7470528772e+00 3.0259843469e+00 
9800 5.9470106959e+00 -3.6355797701e-02 1.7481144467e+00 -3.0278230392e+00 1.7481144467e+00 3.0278230392e+00 
9900 5.9468308133e+00 -3.5604601610e-02 1.7491544072e+00 -3.0296243036e+00 1.7491544072e+00 3.0296243036e+00 
10000 5.9466620856e+00 -3.4836598466e-02 1.7501722720e+00 -3.0313872971e+00 1.7501722720e+00 3.0313872971e+00 
10100 5.9465039584e+00 -3.4053369025e-02 1.7511675997e+00 -3.0331112552e+00 1.7511675997e+00 3.0331112552e+00 
10200 5.9463558843e+00 -3.3256492717e-02 1.7521399943e+00 -3.0347954921e+00 1.7521399943e+00 3.0347954921e+00 
10300 5.9462173250e+00 -3.2447545239e-02 1.7530891049e+00 -3.0364393999e+00 1.7530891049e+00 3.0364393999e+00 
10400 5.9460877516e+00 -3.1628096098e-02 1.7540146254e+00 -3.0380424484e+00 1.7540146254e+00 3.0380424484e+00 
10500 5.9459666472e+00 -3.0799706103e-02 1.7549162942e+00 -3.0396041846e+00 1.7549162942e+00 3.0396041846e+00 
10600 5.9458535070e+00 -2.9963924827e-02 1.7557938936e+00 -3.0411242314e+00 1.7557938936e+00 3.0411242314e+00 
10700 5.9457478404e+00 -2.9122288044e-02 1.7566472498e+00 -3.0426022876e+00 1.7566472498e+00 3.0426022876e+00 
10800 5.9456491717e+00 -2.8276315148e-02 1.7574762317e+00 -3.0440381265e+00 1.7574762317e+00 3.0440381265e+00 
10900 5.9455570413e+00 -2.7427506570e-02 1.7582807511e+00 -3.0454315948e+00 1.7582807511e+00 3.0454315948e+00 
11000 5.9454710067e+00 -2.6577341199e-02 1.7590607611e+00 -3.0467826119e+00 1.7590607611e+00 3.0467826119e+00 
11100 5.9453906432e+00 -2.5727273820e-02 1.7598162564e+00 -3.0480911681e+00 1.7598162564e+00 3.0480911681e+00 
11200 5.9453155450e+00 -2.4878732572e-02 1.7605472718e+00 -3.0493573238e+00 1.7605472718e+00 3.0493573238e+00 
11300 5.9452453254e+00 -2.4033116456e-02 1.7612538815e+00 -3.0505812078e+00 1.7612538815e+00 3.0505812078e+00 
11400 5.9451796181e+00 -2.3191792872e-02 1.7619361984e+00 -3.0517630154e+00 1.7619361984e+00 3.0517630154e+00 
11500 5.9451180766e+00 -2.2356095229e-02 1.7625943731e+00 -3.0529030074e+00 1.7625943731e+00 3.0529030074e+00 
11600 5.9450603754e+00 -2.1527320610e-02 1.7632285926e+00 -3.0540015078e+00 1.7632285926e+00 3.0540015078e+00 
11700 5.9450062098e+00 -2.0706727523e-02 1.7638390796e+00 -3.0550589023e+00 1.7638390796e+00 3.0550589023e+00 
11800 5.9449552958e+00 -1.9895533732e-02 1.7644260911e+00 -3.0560756360e+00 1.7644260911e+00 3.0560756360e+00 
11900 5.9449073707e+00 -1.9094914187e-02 1.7649899173e+00 -3.0570522116e+00 1.7649899173e+00 3.0570522116e+00 
12000 5.9448621920e+00 -1.8305999056e-02 1.7655308804e+00 -3.0579891872e+00 1.7655308804e+00 3.0579891872e+00 
12100 5.9448195381e+00 -1.7529871869e-02 1.7660493334e+00 -3.0588871741e+00 1.7660493334e+00 3.0588871741e+00 
12200 5.9447792070e+00 -1.6767567786e-02 1.7665456585e+00 -3.0597468344e+00 1.7665456585e+00 3.0597468344e+00 
12300 5.9447410168e+00 -1.6020071987e-02 1.7670202661e+00 -3.0605688788e+00 1.7670202661e+00 3.0605688788e+00 
12400 5.9447048039e+00 -1.5288318199e-02 1.7674735930e+00 -3.0613540641e+00 1.7674735930e+00 3.0613540641e+00 
12500 5.9446704237e+00 -1.4573187359e-02 1.7679061013e+00 -3.0621031905e+00 1.7679061013e+00 3.0621031905e+00 
12600 5.9446377486e+00 -1.3875506429e-02 1.7683182769e+00 -3.0628170995e+00 1.7683182769e+00 3.0628170995e+00 
12700 5.9446066680e+00 -1.3196047350e-02 1.7687106276e+00 -3.0634966709e+00 1.7687106276e+00 3.0634966709e+00 
12800 5.9445770870e+00 -1.2535526159e-02 1.7690836822e+00 -3.0641428204e+00 1.7690836822e+00 3.0641428204e+00 
12900 5.9445489256e+00 -1.1894602255e-02 1.7694379883e+00 -3.0647564966e+00 1.7694379883e+00 3.0647564966e+00 
13000 5.9445221176e+00 -1.1273877826e-02 1.7697741114e+00 -3.0653386788e+00 1.7697741114e+00 3.0653386788e+00 
13100 5.9444966096e+00 -1.0673897435e-02 1.7700926327e+00 -3.0658903740e+00 1.7700926327e+00 3.0658903740e+00 
13200 5.9444723599e+00 -1.0095147769e-02 1.7703941480e+00 -3.0664126138e+00 1.7703941480e+00 3.0664126138e+00 
13300 5.9444493374e+00 -9.5380575431e-03 1.7706792658e+00 -3.0669064524e+00 1.7706792658e+00 3.0669064524e+00 
13400 5.9444275207e+00 -9.0029975672e-03 1.7709486060e+00 -3.0673729631e+00 1.7709486060e+00 3.0673729631e+00 
13500 5.9444068965e+00 -8.4902809715e-03 1.7712027978e+00 -3.0678132363e+00 1.7712027978e+00 3.0678132363e+00 
13600 5.9443874588e+00 -8.0001635851e-03 1.7714424788e+00 -3.0682283759e+00 1.7714424788e+00 3.0682283759e+00 
13700 5.9443692080e+00 -7.5328444677e-03 1.7716682929e+00 -3.0686194974e+00 1.7716682929e+00 3.0686194974e+00 
13800 5.9443521493e+00 -7.0884665901e-03 1.7718808889e+00 -3.0689877246e+00 1.7718808889e+00 3.0689877246e+00 
13900 5.9443362921e+00 -6.6671176592e-03 1.7720809193e+00 -3.0693341874e+00 1.7720809193e+00 3.0693341874e+00 
14000 5.9443216489e+00 -6.2688310818e-03 1.7722690381e+00 -3.0696600188e+00 1.7722690381e+00 3.0696600188e+00 
14100 5.9443082341e+00 -5.8935870624e-03 1.7724459000e+00 -3.0699663525e+00 1.7724459000e+00 3.0699663525e+00 
14200 5.9442960632e+00 -5.5413138286e-03 1.7726121584e+00 -3.0702543204e+00 1.7726121584e+00 3.0702543204e+00 
14300 5.9442851523e+00 -5.2118889780e-03 1.7727684643e+00 -3.0705250502e+00 1.7727684643e+00 3.0705250502e+00 
14400 5.9442755166e+00 -4.9051409390e-03 1.7729154649e+00 -3.0707796627e+00 1.7729154649e+00 3.0707796627e+00 
14500 5.9442671703e+00 -4.6208505390e-03 1.7730538021e+00 -3.0710192698e+00 1.7730538021e+00 3.0710192698e+00 
14600 5.9442601255e+00 -4.3587526715e-03 1.7731841114e+00 -3.0712449721e+00 1.7731841114e+00 3.0712449721e+00 
14700 5.9442543918e+00 -4.1185380548e-03 1.7733070203e+00 -3.0714578566e+00 1.7733070203e+00 3.0714578566e+00 
14800 5.9442499757e+00 -3.8998550748e-03 1.7734231475e+00 -3.0716589948e+00 1.7734231475e+00 3.0716589948e+00 
14900 5.9442468804e+00 -3.7023117018e-03 1.7735331014e+00 -3.0718494405e+00 1.7735331014e+00 3.0718494405e+00 
15000 5.9442451046e+00 -3.5254774753e-03 1.7736374791e+00 -3.0720302281e+00 1.7736374791e+00 3.0720302281e+00 
15100 5.9442446434e+00 -3.3688855466e-03 1.7737368656e+00 -3.0722023705e+00 1.7737368656e+00 3.0722023705e+00 
15200 5.9442454870e+00 -3.2320347718e-03 1.7738318322e+00 -3.0723668575e+00 1.7738318322e+00 3.0723668575e+00 
15300 5.9442476209e+00 -3.1143918463e-03 1.7739229362e+00 -3.0725246542e+00 1.7739229362e+00 3.0725246542e+00 
15400 5.9442510261e+00 -3.0153934733e-03 1.7740107195e+00 -3.0726766994e+00 1.7740107195e+00 3.0726766994e+00 
15500 5.9442556786e+00 -2.9344485576e-03 1.7740957082e+00 -3.0728239041e+00 1.7740957082e+00 3.0728239041e+00 
15600 5.9442615497e+00 -2.8709404162e-03 1.7741784115e+00 -3.0729671504e+00 1.7741784115e+00 3.0729671504e+00 
15700 5.9442686057e+00 -2.8242289999e-03 1.7742593211e+00 -3.0731072900e+00 1.7742593211e+00 3.0731072900e+00 
15800 5.9442768088e+00 -2.7936531162e-03 1.7743389107e+00 -3.0732451432e+00 1.7743389107e+00 3.0732451432e+00 
15900 5.9442861164e+00 -2.7785326477e-03 1.7744176351e+00 -3.0733814978e+00 1.7744176351e+00 3.0733814978e+00 
16000 5.9442964820e+00 -2.7781707589e-03 1.7744959298e+00 -3.0735171083e+00 1.7744959298e+00 3.0735171083e+00 
16100 5.9443078550e+00 -2.7918560839e-03 1.7745742110e+00 -3.0736526952e+00 1.7745742110e+00 3.0736526952e+00 
16200 5.9443201815e+00 -2.8188648903e-03 1.7746528743e+00 -3.0737889440e+00 1.7746528743e+00 3.0737889440e+00 
16300 5.9443334042e+00 -2.8584632119e-03 1.7747322950e+00 -3.0739265048e+00 1.7747322950e+00 3.0739265048e+00 
16400 5.9443474630e+00 -2.9099089455e-03 1.7748128279e+00 -3.0740659918e+00 1.7748128279e+00 3.0740659918e+00 
16500 5.9443622954e+00 -2.9724539071e-03 1.7748948064e+00 -3.0742079828e+00 1.7748948064e+00 3.0742079828e+00 
16600 5.9443778369e+00 -3.0453458407e-03 1.7749785431e+00 -3.0743530191e+00 1.7749785431e+00 3.0743530191e+00 
16700 5.9443940213e+00 -3.1278303782e-03 1.7750643293e+00 -3.0745016050e+00 1.7750643293e+00 3.0745016050e+00 
16800 5.9444107813e+00 -3.2191529443e-03 1.7751524347e+00 -3.0746542081e+00 1.7751524347e+00 3.0746542081e+00 
16900 5.9444280489e+00 -3.3185606030e-03 1.7752431080e+00 -3.0748112589e+00 1.7752431080e+00 3.0748112589e+00 
17000 5.9444457558e+00 -3.4253038437e-03 1.7753365766e+00 -3.0749731513e+00 1.7753365766e+00 3.0749731513e+00 
17100 5.9444638337e+00 -3.5386383025e-03 1.7754330466e+00 -3.0751402422e+00 1.7754330466e+00 3.0751402422e+00 
17200 5.9444822150e+00 -3.6578264175e-03 1.7755327032e+00 -3.0753128525e+00 1.7755327032e+00 3.0753128525e+00 
17300 5.9445008331e+00 -3.7821390146e-03 1.7756357107e+00 -3.0754912666e+00 1.7756357107e+00 3.0754912666e+00 
17400 5.9445196226e+00 -3.9108568236e-03 1.7757422127e+00 -3.0756757336e+00 1.7757422127e+00 3.0756757336e+00 
17500 5.9445385199e+00 -4.0432719213e-03 1.7758523328e+00 -3.0758664671e+00 1.7758523328e+00 3.0758664671e+00 
17600 5.9445574635e+00 -4.1786891021e-03 1.7759661743e+00 -3.0760636465e+00 1.7759661743e+00 3.0760636465e+00 
17700 5.9445763943e+00 -4.3164271741e-03 1.7760838211e+00 -3.0762674167e+00 1.7760838211e+00 3.0762674167e+00 
17800 5.9445952557e+00 -4.4558201802e-03 1.7762053378e+00 -3.0764778898e+00 1.7762053378e+00 3.0764778898e+00 
17900 5.9446139941e+00 -4.5962185446e-03 1.7763307702e+00 -3.0766951450e+00 1.7763307702e+00 3.0766951450e+00 
18000 5.9446325594e+00 -4.7369901438e-03 1.7764601457e+00 -3.0769192300e+00 1.7764601457e+00 3.0769192300e+00 
18100 5.9446509043e+00 -4.8775213024e-03 1.7765934740e+00 -3.0771501614e+00 1.7765934740e+00 3.0771501614e+00 
18200 5.9446689856e+00 -5.0172177143e-03 1.7767307475e+00 -3.0773879261e+00 1.7767307475e+00 3.0773879261e+00 
18300 5.9446867634e+00 -5.1555052899e-03 1.7768719418e+00 -3.0776324818e+00 1.7768719418e+00 3.0776324818e+00 
18400 5.9447042017e+00 -5.2918309290e-03 1.7770170163e+00 -3.0778837581e+00 1.7770170163e+00 3.0778837581e+00 
18500 5.9447212685e+00 -5.4256632223e-03 1.7771659148e+00 -3.0781416580e+00 1.7771659148e+00 3.0781416580e+00 
18600 5.9447379354e+00 -5.5564930801e-03 1.7773185663e+00 -3.0784060581e+00 1.7773185663e+00 3.0784060581e+00 
18700 5.9447541783e+00 -5.6838342912e-03 1.7774748854e+00 -3.0786768106e+00 1.7774748854e+00 3.0786768106e+00 
18800 5.9447699766e+00 -5.8072240127e-03 1.7776347728e+00 -3.0789537439e+00 1.7776347728e+00 3.0789537439e+00 
18900 5.9447853139e+00 -5.9262231918e-03 1.7777981167e+00 -3.0792366637e+00 1.7777981167e+00 3.0792366637e+00 
19000 5.9448001773e+00 -6.0404169214e-03 1.7779647924e+00 -3.0795253545e+00 1.7779647924e+00 3.0795253545e+00 
19100 5.9448145577e+00 -6.1494147309e-03 1.7781346639e+00 -3.0798195807e+00 1.7781346639e+00 3.0798195807e+00 
19200 5.9448284495e+00 -6.2528508141e-03 1.7783075843e+00 -3.0801190875e+00 1.7783075843e+00 3.0801190875e+00 
19300 5.9448418505e+00 -6.3503841958e-03 1.7784833963e+00 -3.0804236027e+00 1.7784833963e+00 3.0804236027e+00 
19400 5.9448547619e+00 -6.4416988385e-03 1.7786619329e+00 -3.0807328373e+00 1.7786619329e+00 3.0807328373e+00 
19500 5.9448671878e+00 -6.5265036917e-03 1.7788430187e+00 -3.0810464871e+00 1.7788430187e+00 3.0810464871e+00 
19600 5.9448791351e+00 -6.6045326846e-03 1.7790264699e+00 -3.0813642338e+00 1.7790264699e+00 3.0813642338e+00 
19700 5.9448906136e+00 -6.6755446656e-03 1.7792120952e+00 -3.0816857463e+00 1.7792120952e+00 3.0816857463e+00 
19800 5.9449016352e+00 -6.7393232888e-03 1.7793996968e+00 -3.0820106819e+00 1.7793996968e+00 3.0820106819e+00 
19900 5.9449122144e+00 -6.7956768507e-03 1.7795890709e+00 -3.0823386874e+00 1.7795890709e+00 3.0823386874e+00 
20000 5.9449223675e+00 -6.8444380782e-03 1.7797800082e+00 -3.0826694005e+00 1.7797800082e+00 3.0826694005e+00 
20100 5.9449321123e+00 -6.8854638701e-03 1.7799722949e+00 -3.0830024509e+00 1.7799722949e+00 3.0830024509e+00 
20200 5.9449414685e+00 -6.9186349946e-03 1.7801657133e+00 -3.0833374614e+00 1.7801657133e+00 3.0833374614e+00 
20300 5.9449504569e+00 -6.9438557436e-03 1.7803600425e+00 -3.0836740493e+00 1.7803600425e+00 3.0836740493e+00 
20400 5.9449590992e+00 -6.9610535466e-03 1.7805550587e+00 -3.0840118273e+00 1.7805550587e+00 3.0840118273e+00 
20500 5.9449674180e+00 -6.9701785459e-03 1.7807505365e+00 -3.0843504049e+00 1.7807505365e+00 3.0843504049e+00 
20600 5.9449754365e+00 -6.9712031347e-03 1.7809462491e+00 -3.0846893890e+00 1.7809462491e+00 3.0846893890e+00 
20700 5.9449831782e+00 -6.9641214606e-03 1.7811419690e+00 -3.0850283858e+00 1.7811419690e+00 3.0850283858e+00 
20800 5.9449906666e+00 -6.9489488960e-03 1.7813374685e+00 -3.0853670009e+00 1.7813374685e+00 3.0853670009e+00 
20900 5.9449979254e+00 -6.9257214768e-03 1.7815325207e+00 -3.0857048412e+00 1.7815325207e+00 3.0857048412e+00 
21000 5.9450049777e+00 -6.8944953130e-03 1.7817268996e+00 -3.0860415154e+00 1.7817268996e+00 3.0860415154e+00 
21100 5.9450118463e+00 -6.8553459705e-03 1.7819203810e+00 -3.0863766350e+00 1.7819203810e+00 3.0863766350e+00 
21200 5.9450185535e+00 -6.8083678285e-03 1.7821127429e+00 -3.0867098155e+00 1.7821127429e+00 3.0867098155e+00 
21300 5.9450251207e+00 -6.7536734122e-03 1.7823037658e+00 -3.0870406770e+00 1.7823037658e+00 3.0870406770e+00 
21400 5.9450315683e+00 -6.6913927043e-03 1.7824932339e+00 -3.0873688453e+00 1.7824932339e+00 3.0873688453e+00 
21500 5.9450379159e+00 -6.6216724360e-03 1.7826809348e+00 -3.0876939527e+00 1.7826809348e+00 3.0876939527e+00 
21600 5.9450441817e+00 -6.5446753596e-03 1.7828666603e+00 -3.0880156388e+00 1.7828666603e+00 3.0880156388e+00 
21700 5.9450503828e+00 -6.4605795050e-03 1.7830502071e+00 -3.0883335511e+00 1.7830502071e+00 3.0883335511e+00 
21800 5.9450565351e+00 -6.3695774205e-03 1.7832313766e+00 -3.0886473460e+00 1.7832313766e+00 3.0886473460e+00 
21900 5.9450626528e+00 -6.2718754016e-03 1.7834099761e+00 -3.0889566893e+00 1.7834099761e+00 3.0889566893e+00 
22000 5.9450687490e+00 -6.1676927073e-03 1.7835858184e+00 -3.0892612571e+00 1.7835858184e+00 3.0892612571e+00 
22100 5.9450748351e+00 -6.0572607679e-03 1.7837587227e+00 -3.0895607361e+00 1.7837587227e+00 3.0895607361e+00 
22200 5.9450809211e+00 -5.9408223838e-03 1.7839285146e+00 -3.0898548244e+00 1.7839285146e+00 3.0898548244e+00 
22300 5.9450870156e+00 -5.8186309186e-03 1.7840950267e+00 -3.0901432319e+00 1.7840950267e+00 3.0901432319e+00 
22400 5.9450931255e+00 -5.6909494876e-03 1.7842580988e+00 -3.0904256809e+00 1.7842580988e+00 3.0904256809e+00 
22500 5.9450992564e+00 -5.5580501426e-03 1.7844175778e+00 -3.0907019066e+00 1.7844175778e+00 3.0907019066e+00 
22600 5.9451054124e+00 -5.4202130563e-03 1.7845733185e+00 -3.0909716575e+00 1.7845733185e+00 3.0909716575e+00 
22700 5.9451115963e+00 -5.2777257058e-03 1.7847251837e+00 -3.0912346957e+00 1.7847251837e+00 3.0912346957e+00 
22800 5.9451178095e+00 -5.1308820588e-03 1.7848730439e+00 -3.0914907972e+00 1.7848730439e+00 3.0914907972e+00 
22900 5.9451240521e+00 -4.9799817626e-03 1.7850167783e+00 -3.0917397524e+00 1.7850167783e+00 3.0917397524e+00 
23000 5.9451303229e+00 -4.8253293378e-03 1.7851562741e+00 -3.0919813662e+00 1.7851562741e+00 3.0919813662e+00 
23100 5.9451366198e+00 -4.6672333786e-03 1.7852914272e+00 -3.0922154583e+00 1.7852914272e+00 3.0922154583e+00 
23200 5.9451429394e+00 -4.5060057610e-03 1.7854221423e+00 -3.0924418635e+00 1.7854221423e+00 3.0924418635e+00 
23300 5.9451492775e+00 -4.3419608593e-03 1.7855483326e+00 -3.0926604315e+00 1.7855483326e+00 3.0926604315e+00 
23400 5.9451556290e+00 -4.1754147744e-03 1.7856699202e+00 -3.0928710273e+00 1.7856699202e+00 3.0928710273e+00 
23500 5.9451619879e+00 -4.0066845733e-03 1.7857868360e+00 -3.0930735314e+00 1.7857868360e+00 3.0930735314e+00 
23600 5.9451683477e+00 -3.8360875422e-03 1.7858990198e+00 -3.0932678394e+00 1.7858990198e+00 3.0932678394e+00 
23700 5.9451747013e+00 -3.6639404535e-03 1.7860064202e+00 -3.0934538624e+00 1.7860064202e+00 3.0934538624e+00 
23800 5.9451810408e+00 -3.4905588501e-03 1.7861089947e+00 -3.0936315267e+00 1.7861089947e+00 3.0936315267e+00 
23900 5.9451873584e+00 -3.3162563447e-03 1.7862067097e+00 -3.0938007740e+00 1.7862067097e+00 3.0938007740e+00 
24000 5.9451936457e+00 -3.1413439396e-03 1.7862995400e+00 -3.0939615609e+00 1.7862995400e+00 3.0939615609e+00 
24100 5.9451998941e+00 -2.9661293636e-03 1.7863874696e+00 -3.0941138593e+00 1.7863874696e+00 3.0941138593e+00 
24200 5.9452060951e+00 -2.7909164306e-03 1.7864704906e+00 -3.0942576559e+00 1.7864704906e+00 3.0942576559e+00 
24300 5.9452122400e+00 -2.6160044198e-03 1.7865486037e+00 -3.0943929518e+00 1.7865486037e+00 3.0943929518e+00 
24400 5.9452183202e+00 -2.4416874770e-03 1.7866218181e+00 -3.0945197629e+00 1.7866218181e+00 3.0945197629e+00 
24500 5.9452243274e+00 -2.2682540402e-03 1.7866901511e+00 -3.0946381190e+00 1.7866901511e+00 3.0946381190e+00 
24600 5.9452302534e+00 -2.0959862891e-03 1.7867536279e+00 -3.0947480641e+00 1.7867536279e+00 3.0947480641e+00 
24700 5.9452360902e+00 -1.9251596194e-03 1.7868122817e+00 -3.0948496554e+00 1.7868122817e+00 3.0948496554e+00 
24800 5.9452418304e+00 -1.7560421424e-03 1.7868661533e+00 -3.0949429638e+00 1.7868661533e+00 3.0949429638e+00 
24900 5.9452474669e+00 -1.5888942115e-03 1.7869152910e+00 -3.0950280728e+00 1.7869152910e+00 3.0950280728e+00 
25000 5.9452529931e+00 -1.4239679751e-03 1.7869597503e+00 -3.0951050786e+00 1.7869597503e+00 3.0951050786e+00 
25100 5.9452584029e+00 -1.2615069574e-03 1.7869995938e+00 -3.0951740895e+00 1.7869995938e+00 3.0951740895e+00 
25200 5.9452636908e+00 -1.1017456661e-03 1.7870348907e+00 -3.0952352256e+00 1.7870348907e+00 3.0952352256e+00 
25300 5.9452688518e+00 -9.4490922978e-04 1.7870657169e+00 -3.0952886181e+00 1.7870657169e+00 3.0952886181e+00 
25400 5.9452738816e+00 -7.9121306252e-04 1.7870921544e+00 -3.0953344092e+00 1.7870921544e+00 3.0953344092e+00 
25500 5.9452787765e+00 -6.4086255828e-04 1.7871142913e+00 -3.0953727515e+00 1.7871142913e+00 3.0953727515e+00 
25600 5.9452835336e+00 -4.9405281388e-04 1.7871322214e+00 -3.0954038074e+00 1.7871322214e+00 3.0954038074e+00 
25700 5.9452881503e+00 -3.5096838128e-04 1.7871460439e+00 -3.0954277487e+00 1.7871460439e+00 3.0954277487e+00 
25800 5.9452926250e+00 -2.1178304902e-04 1.7871558632e+00 -3.0954447561e+00 1.7871558632e+00 3.0954447561e+00 
25900 5.9452969567e+00 -7.6659652806e-05 1.7871617883e+00 -3.0954550188e+00 1.7871617883e+00 3.0954550188e+00 
26000 5.9453011448e+00 5.4250084767e-05 1.7871639331e+00 -3.0954587335e+00 1.7871639331e+00 3.0954587335e+00 
26100 5.9453051902e+00 1.8229834174e-04 1.7871639331e+00 -3.0954587335e+00 1.7871639331e+00 3.0954587335e+00 
26200 5.9453090929e+00 3.0433714594e-04 1.7871588329e+00 -3.0954498997e+00 1.7871588329e+00 3.0954498997e+00 
26300 5.9453128545e+00 4.2177716187e-04 1.7871503183e+00 -3.0954351521e+00 1.7871503183e+00 3.0954351521e+00 
26400 5.9453164769e+00 5.3451198053e-04 1.7871385181e+00 -3.0954147134e+00 1.7871385181e+00 3.0954147134e+00 
26500 5.9453199625e+00 6.4244668670e-04 1.7871235637e+00 -3.0953888117e+00 1.7871235637e+00 3.0953888117e+00 
26600 5.9453233143e+00 7.4549785048e-04 1.7871055894e+00 -3.0953576793e+00 1.7871055894e+00 3.0953576793e+00 
26700 5.9453265357e+00 8.4359349233e-04 1.7870847317e+00 -3.0953215528e+00 1.7870847317e+00 3.0953215528e+00 
26800 5.9453296304e+00 9.3667302220e-04 1.7870611293e+00 -3.0952806721e+00 1.7870611293e+00 3.0952806721e+00 
26900 5.9453326026e+00 1.0246871533e-03 1.7870349223e+00 -3.0952352803e+00 1.7870349223e+00 3.0952352803e+00 
27000 5.9453354568e+00 1.1075977917e-03 1.7870062523e+00 -3.0951856224e+00 1.7870062523e+00 3.0951856224e+00 
27100 5.9453381978e+00 1.1853779012e-03 1.7869752621e+00 -3.0951319458e+00 1.7869752621e+00 3.0951319458e+00 
27200 5.9453408304e+00 1.2580113466e-03 1.7869420950e+00 -3.0950744988e+00 1.7869420950e+00 3.0950744988e+00 
27300 5.9453433599e+00 1.3254927140e-03 1.7869068950e+00 -3.0950135306e+00 1.7869068950e+00 3.0950135306e+00 
27400 5.9453457917e+00 1.3878271096e-03 1.7868698061e+00 -3.0949492907e+00 1.7868698061e+00 3.0949492907e+00 
27500 5.9453481310e+00 1.4450299391e-03 1.7868309722e+00 -3.0948820285e+00 1.7868309722e+00 3.0948820285e+00 
27600 5.9453503834e+00 1.4971266673e-03 1.7867905368e+00 -3.0948119923e+00 1.7867905368e+00 3.0948119923e+00 
27700 5.9453525543e+00 1.5441525593e-03 1.7867486427e+00 -3.0947394295e+00 1.7867486427e+00 3.0947394295e+00 
27800 5.9453546493e+00 1.5861524046e-03 1.7867054316e+00 -3.0946645858e+00 1.7867054316e+00 3.0946645858e+00 
27900 5.9453566736e+00 1.6231802250e-03 1.7866610442e+00 -3.0945877044e+00 1.7866610442e+00 3.0945877044e+00 
28000 5.9453586327e+00 1.6552989671e-03 1.7866156194e+00 -3.0945090264e+00 1.7866156194e+00 3.0945090264e+00 
28100 5.9453605316e+00 1.6825801811e-03 1.7865692946e+00 -3.0944287895e+00 1.7865692946e+00 3.0944287895e+00 
28200 5.9453623753e+00 1.7051036862e-03 1.7865222051e+00 -3.0943472282e+00 1.7865222051e+00 3.0943472282e+00 
28300 5.9453641687e+00 1.7229572240e-03 1.7864744840e+00 -3.0942645728e+00 1.7864744840e+00 3.0942645728e+00 
28400 5.9453659164e+00 1.7362361020e-03 1.7864262620e+00 -3.0941810497e+00 1.7864262620e+00 3.0941810497e+00 
28500 5.9453676226e+00 1.7450428264e-03 1.7863776670e+00 -3.0940968807e+00 1.7863776670e+00 3.0940968807e+00 
28600 5.9453692916e+00 1.7494867268e-03 1.7863288241e+00 -3.0940122824e+00 1.7863288241e+00 3.0940122824e+00 
28700 5.9453709271e+00 1.7496835737e-03 1.7862798556e+00 -3.0939274664e+00 1.7862798556e+00 3.0939274664e+00 
28800 5.9453725327e+00 1.7457551890e-03 1.7862308802e+00 -3.0938426385e+00 1.7862308802e+00 3.0938426385e+00 
28900 5.9453741117e+00 1.7378290519e-03 1.7861820134e+00 -3.0937579988e+00 1.7861820134e+00 3.0937579988e+00 
29000 5.9453756669e+00 1.7260379002e-03 1.7861333671e+00 -3.0936737410e+00 1.7861333671e+00 3.0936737410e+00 
29100 5.9453772010e+00 1.7105193285e-03 1.7860850496e+00 -3.0935900526e+00 1.7860850496e+00 3.0935900526e+00 
29200 5.9453787164e+00 1.6914153848e-03 1.7860371653e+00 -3.0935071144e+00 1.7860371653e+00 3.0935071144e+00 
29300 5.9453802151e+00 1.6688721650e-03 1.7859898144e+00 -3.0934251003e+00 1.7859898144e+00 3.0934251003e+00 
29400 5.9453816987e+00 1.6430394083e-03 1.7859430934e+00 -3.0933441772e+00 1.7859430934e+00 3.0933441772e+00 
29500 5.9453831687e+00 1.6140700933e-03 1.7858970944e+00 -3.0932645045e+00 1.7858970944e+00 3.0932645045e+00 
29600 5.9453846264e+00 1.5821200354e-03 1.7858519052e+00 -3.0931862346e+00 1.7858519052e+00 3.0931862346e+00 
29700 5.9453860724e+00 1.5473474872e-03 1.7858076095e+00 -3.0931095121e+00 1.7858076095e+00 3.0931095121e+00 
29800 5.9453875074e+00 1.5099127431e-03 1.7857642862e+00 -3.0930344740e+00 1.7857642862e+00 3.0930344740e+00 
29900 5.9453889317e+00 1.4699777473e-03 1.7857220100e+00 -3.0929612495e+00 1.7857220100e+00 3.0929612495e+00 
30000 5.9453903456e+00 1.4277057081e-03 1.7856808509e+00 -3.0928899599e+00 1.7856808509e+00 3.0928899599e+00 
30100 5.9453917487e+00 1.3832607172e-03 1.7856408746e+00 -3.0928207188e+00 1.7856408746e+00 3.0928207188e+00 
30200 5.9453931409e+00 1.3368073768e-03 1.7856021418e+00 -3.0927536317e+00 1.7856021418e+00 3.0927536317e+00 
30300 5.9453945216e+00 1.2885104336e-03 1.7855647090e+00 -3.0926887962e+00 1.7855647090e+00 3.0926887962e+00 
30400 5.9453958901e+00 1.2385344210e-03 1.7855286278e+00 -3.0926263017e+00 1.7855286278e+00 3.0926263017e+00 
30500 5.9453972457e+00 1.1870433102e-03 1.7854939453e+00 -3.0925662299e+00 1.7854939453e+00 3.0925662299e+00 
30600 5.9453985875e+00 1.1342001708e-03 1.7854607041e+00 -3.0925086545e+00 1.7854607041e+00 3.0925086545e+00 
30700 5.9453999144e+00 1.0801668406e-03 1.7854289421e+00 -3.0924536410e+00 1.7854289421e+00 3.0924536410e+00 
30800 5.9454012252e+00 1.0251036070e-03 1.7853986927e+00 -3.0924012475e+00 1.7853986927e+00 3.0924012475e+00 
30900 5.9454025189e+00 9.6916889824e-04 1.7853699848e+00 -3.0923515240e+00 1.7853699848e+00 3.0923515240e+00 
31000 5.9454037942e+00 9.1251898635e-04 1.7853428429e+00 -3.0923045128e+00 1.7853428429e+00 3.0923045128e+00 
31100 5.9454050498e+00 8.5530770202e-04 1.7853172871e+00 -3.0922602489e+00 1.7853172871e+00 3.0922602489e+00 
31200 5.9454062845e+00 7.9768616115e-04 1.7852933332e+00 -3.0922187596e+00 1.7852933332e+00 3.0922187596e+00 
31300 5.9454074971e+00 7.3980250406e-04 1.7852709928e+00 -3.0921800648e+00 1.7852709928e+00 3.0921800648e+00 
31400 5.9454086863e+00 6.8180164715e-04 1.7852502732e+00 -3.0921441774e+00 1.7852502732e+00 3.0921441774e+00 
31500 5.9454098510e+00 6.2382504766e-04 1.7852311778e+00 -3.0921111033e+00 1.7852311778e+00 3.0921111033e+00 
31600 5.9454109901e+00 5.6601048135e-04 1.7852137060e+00 -3.0920808412e+00 1.7852137060e+00 3.0920808412e+00 
31700 5.9454121024e+00 5.0849183351e-04 1.7851978533e+00 -3.0920533835e+00 1.7851978533e+00 3.0920533835e+00 
31800 5.9454131871e+00 4.5139890344e-04 1.7851836115e+00 -3.0920287159e+00 1.7851836115e+00 3.0920287159e+00 
31900 5.9454142432e+00 3.9485722231e-04 1.7851709685e+00 -3.0920068177e+00 1.7851709685e+00 3.0920068177e+00 
32000 5.9454152700e+00 3.3898788467e-04 1.7851599092e+00 -3.0919876624e+00 1.7851599092e+00 3.0919876624e+00 
32100 5.9454162668e+00 2.8390739351e-04 1.7851504146e+00 -3.0919712172e+00 1.7851504146e+00 3.0919712172e+00 
32200 5.9454172330e+00 2.2972751898e-04 1.7851424627e+00 -3.0919574441e+00 1.7851424627e+00 3.0919574441e+00 
32300 5.9454181681e+00 1.7655517061e-04 1.7851360283e+00 -3.0919462994e+00 1.7851360283e+00 3.0919462994e+00 
32400 5.9454190719e+00 1.2449228313e-04 1.7851310831e+00 -3.0919377341e+00 1.7851310831e+00 3.0919377341e+00 
32500 5.9454199440e+00 7.3635715651e-05 1.7851275962e+00 -3.0919316946e+00 1.7851275962e+00 3.0919316946e+00 
32600 5.9454207846e+00 2.4077164264e-05 1.7851255337e+00 -3.0919281223e+00 1.7851255337e+00 3.0919281223e+00 
32700 5.9454215934e+00 -2.3431500138e-05 1.7851255337e+00 -3.0919281223e+00 1.7851255337e+00 3.0919281223e+00 
32800 5.9454223708e+00 -7.0802575858e-05 1.7851255337e+00 -3.0919281223e+00 1.7851255337e+00 3.0919281223e+00 
32900 5.9454231170e+00 -1.1596900285e-04 1.7851275168e+00 -3.0919315571e+00 1.7851275168e+00 3.0919315571e+00 
33000 5.9454238323e+00 -1.5952359859e-04 1.7851307650e+00 -3.0919371832e+00 1.7851307650e+00 3.0919371832e+00 
33100 5.9454245173e+00 -2.0140133745e-04 1.7851352332e+00 -3.0919449222e+00 1.7851352332e+00 3.0919449222e+00 
33200 5.9454251726e+00 -2.4154261094e-04 1.7851408742e+00 -3.0919546928e+00 1.7851408742e+00 3.0919546928e+00 
33300 5.9454257989e+00 -2.7989322706e-04 1.7851476396e+00 -3.0919664108e+00 1.7851476396e+00 3.0919664108e+00 
33400 5.9454263969e+00 -3.1640439793e-04 1.7851554791e+00 -3.0919799892e+00 1.7851554791e+00 3.0919799892e+00 
33500 5.9454269676e+00 -3.5103271620e-04 1.7851643412e+00 -3.0919953388e+00 1.7851643412e+00 3.0919953388e+00 
33600 5.9454275118e+00 -3.8374012038e-04 1.7851741732e+00 -3.0920123683e+00 1.7851741732e+00 3.0920123683e+00 
33700 5.9454280306e+00 -4.1449384961e-04 1.7851849211e+00 -3.0920309843e+00 1.7851849211e+00 3.0920309843e+00 
33800 5.9454285251e+00 -4.4326638804e-04 1.7851965304e+00 -3.0920510922e+00 1.7851965304e+00 3.0920510922e+00 
33900 5.9454289964e+00 -4.7003539932e-04 1.7852089455e+00 -3.0920725957e+00 1.7852089455e+00 3.0920725957e+00 
34000 5.9454294456e+00 -4.9478365145e-04 1.7852221102e+00 -3.0920953977e+00 1.7852221102e+00 3.0920953977e+00 
34100 5.9454298740e+00 -5.1749893249e-04 1.7852359680e+00 -3.0921194001e+00 1.7852359680e+00 3.0921194001e+00 
34200 5.9454302827e+00 -5.3817395746e-04 1.7852504619e+00 -3.0921445042e+00 1.7852504619e+00 3.0921445042e+00 
34300 5.9454306730e+00 -5.5680626675e-04 1.7852655347e+00 -3.0921706111e+00 1.7852655347e+00 3.0921706111e+00 
34400 5.9454310462e+00 -5.7339811663e-04 1.7852811292e+00 -3.0921976216e+00 1.7852811292e+00 3.0921976216e+00 
34500 5.9454314034e+00 -5.8795636214e-04 1.7852971883e+00 -3.0922254367e+00 1.7852971883e+00 3.0922254367e+00 
34600 5.9454317460e+00 -6.0049233280e-04 1.7853136549e+00 -3.0922539578e+00 1.7853136549e+00 3.0922539578e+00 
34700 5.9454320750e+00 -6.1102170155e-04 1.7853304725e+00 -3.0922830867e+00 1.7853304725e+00 3.0922830867e+00 
34800 5.9454323917e+00 -6.1956434749e-04 1.7853475848e+00 -3.0923127261e+00 1.7853475848e+00 3.0923127261e+00 
34900 5.9454326972e+00 -6.2614421260e-04 1.7853649362e+00 -3.0923427796e+00 1.7853649362e+00 3.0923427796e+00 
35000 5.9454329927e+00 -6.3078915309e-04 1.7853824717e+00 -3.0923731519e+00 1.7853824717e+00 3.0923731519e+00 
35100 5.9454332792e+00 -6.3353078576e-04 1.7854001371e+00 -3.0924037493e+00 1.7854001371e+00 3.0924037493e+00 
35200 5.9454335577e+00 -6.3440432971e-04 1.7854178791e+00 -3.0924344794e+00 1.7854178791e+00 3.0924344794e+00 
35300 5.9454338292e+00 -6.3344844398e-04 1.7854356454e+00 -3.0924652515e+00 1.7854356454e+00 3.0924652515e+00 
35400 5.9454340945e+00 -6.3070506145e-04 1.7854533848e+00 -3.0924959770e+00 1.7854533848e+00 3.0924959770e+00 
35500 5.9454343546e+00 -6.2621921948e-04 1.7854710471e+00 -3.0925265691e+00 1.7854710471e+00 3.0925265691e+00 
35600 5.9454346102e+00 -6.2003888771e-04 1.7854885837e+00 -3.0925569433e+00 1.7854885837e+00 3.0925569433e+00 
35700 5.9454348620e+00 -6.1221479343e-04 1.7855059470e+00 -3.0925870174e+00 1.7855059470e+00 3.0925870174e+00 
35800 5.9454351107e+00 -6.0280024502e-04 1.7855230910e+00 -3.0926167118e+00 1.7855230910e+00 3.0926167118e+00 
35900 5.9454353568e+00 -5.9185095372e-04 1.7855399713e+00 -3.0926459492e+00 1.7855399713e+00 3.0926459492e+00 
36000 5.9454356008e+00 -5.7942485429e-04 1.7855565448e+00 -3.0926746553e+00 1.7855565448e+00 3.0926746553e+00 
36100 5.9454358433e+00 -5.6558192498e-04 1.7855727701e+00 -3.0927027584e+00 1.7855727701e+00 3.0927027584e+00 
36200 5.9454360845e+00 -5.5038400700e-04 1.7855886077e+00 -3.0927301899e+00 1.7855886077e+00 3.0927301899e+00 
36300 5.9454363248e+00 -5.3389462418e-04 1.7856040195e+00 -3.0927568840e+00 1.7856040195e+00 3.0927568840e+00 
36400 5.9454365644e+00 -5.1617880295e-04 1.7856189695e+00 -3.0927827782e+00 1.7856189695e+00 3.0927827782e+00 
36500 5.9454368036e+00 -4.9730289316e-04 1.7856334233e+00 -3.0928078129e+00 1.7856334233e+00 3.0928078129e+00 
36600 5.9454370424e+00 -4.7733439002e-04 1.7856473485e+00 -3.0928319319e+00 1.7856473485e+00 3.0928319319e+00 
36700 5.9454372809e+00 -4.5634175766e-04 1.7856607143e+00 -3.0928550823e+00 1.7856607143e+00 3.0928550823e+00 
36800 5.9454375191e+00 -4.3439425442e-04 1.7856734923e+00 -3.0928772144e+00 1.7856734923e+00 3.0928772144e+00 
36900 5.9454377570e+00 -4.1156176045e-04 1.7856856556e+00 -3.0928982819e+00 1.7856856556e+00 3.0928982819e+00 
37000 5.9454379946e+00 -3.8791460777e-04 1.7856971796e+00 -3.0929182419e+00 1.7856971796e+00 3.0929182419e+00 
37100 5.9454382316e+00 -3.6352341319e-04 1.7857080413e+00 -3.0929370550e+00 1.7857080413e+00 3.0929370550e+00 
37200 5.9454384680e+00 -3.3845891434e-04 1.7857182200e+00 -3.0929546850e+00 1.7857182200e+00 3.0929546850e+00 
37300 5.9454387036e+00 -3.1279180917e-04 1.7857276968e+00 -3.0929710994e+00 1.7857276968e+00 3.0929710994e+00 
37400 5.9454389381e+00 -2.8659259911e-04 1.7857364549e+00 -3.0929862689e+00 1.7857364549e+00 3.0929862689e+00 
37500 5.9454391713e+00 -2.5993143615e-04 1.7857444794e+00 -3.0930001677e+00 1.7857444794e+00 3.0930001677e+00 
37600 5.9454394029e+00 -2.3287797421e-04 1.7857517574e+00 -3.0930127735e+00 1.7857517574e+00 3.0930127735e+00 
37700 5.9454396327e+00 -2.0550122488e-04 1.7857582779e+00 -3.0930240673e+00 1.7857582779e+00 3.0930240673e+00 
37800 5.9454398604e+00 -1.7786941782e-04 1.7857640317e+00 -3.0930340333e+00 1.7857640317e+00 3.0930340333e+00 
37900 5.9454400857e+00 -1.5004986604e-04 1.7857690120e+00 -3.0930426593e+00 1.7857690120e+00 3.0930426593e+00 
38000 5.9454403083e+00 -1.2210883620e-04 1.7857732132e+00 -3.0930499361e+00 1.7857732132e+00 3.0930499361e+00 
38100 5.9454405278e+00 -9.4111424183e-05 1.7857766322e+00 -3.0930558579e+00 1.7857766322e+00 3.0930558579e+00 
38200 5.9454407441e+00 -6.6121435958e-05 1.7857792672e+00 -3.0930604219e+00 1.7857792672e+00 3.0930604219e+00 
38300 5.9454409568e+00 -4.0023345615e-05 1.7857792672e+00 -3.0930604219e+00 1.7857792672e+00 3.0930604219e+00 
38400 5.9454411654e+00 -1.3295882476e-05 1.7857792672e+00 -3.0930604219e+00 1.7857792672e+00 3.0930604219e+00 
38500 5.9454413698e+00 1.4000242579e-05 1.7857792672e+00 -3.0930604219e+00 1.7857792672e+00 3.0930604219e+00 
38600 5.9454415699e+00 4.1805216004e-05 1.7857792672e+00 -3.0930604219e+00 1.7857792672e+00 3.0930604219e+00 
38700 5.9454417655e+00 7.0060210600e-05 1.7857792672e+00 -3.0930604219e+00 1.7857792672e+00 3.0930604219e+00 
38800 5.9454419565e+00 9.8707469495e-05 1.7857792672e+00 -3.0930604219e+00 1.7857792672e+00 3.0930604219e+00 
38900 5.9454421423e+00 1.2497002365e-04 1.7857765035e+00 -3.0930556350e+00 1.7857765035e+00 3.0930556350e+00 
39000 5.9454423229e+00 1.5077509574e-04 1.7857730044e+00 -3.0930495745e+00 1.7857730044e+00 3.0930495745e+00 
39100 5.9454424982e+00 1.7607482368e-04 1.7857687829e+00 -3.0930422625e+00 1.7857687829e+00 3.0930422625e+00 
39200 5.9454426680e+00 2.0082350733e-04 1.7857638529e+00 -3.0930337236e+00 1.7857638529e+00 3.0930337236e+00 
39300 5.9454428323e+00 2.2497766209e-04 1.7857582300e+00 -3.0930239845e+00 1.7857582300e+00 3.0930239845e+00 
39400 5.9454429910e+00 2.4849606629e-04 1.7857519308e+00 -3.0930130739e+00 1.7857519308e+00 3.0930130739e+00 
39500 5.9454431440e+00 2.7133980256e-04 1.7857449731e+00 -3.0930010227e+00 1.7857449731e+00 3.0930010227e+00 
39600 5.9454432913e+00 2.9347229304e-04 1.7857373757e+00 -3.0929878637e+00 1.7857373757e+00 3.0929878637e+00 
39700 5.9454434330e+00 3.1485932863e-04 1.7857291586e+00 -3.0929736312e+00 1.7857291586e+00 3.0929736312e+00 
39800 5.9454435691e+00 3.3546909227e-04 1.7857203426e+00 -3.0929583615e+00 1.7857203426e+00 3.0929583615e+00 
39900 5.9454436996e+00 3.5527217639e-04 1.7857109495e+00 -3.0929420922e+00 1.7857109495e+00 3.0929420922e+00 
40000 5.9454438247e+00 3.7424159451e-04 1.7857010019e+00 -3.0929248624e+00 1.7857010019e+00 3.0929248624e+00 
40100 5.9454439443e+00 3.9235278724e-04 1.7856905231e+00 -3.0929067125e+00 1.7856905231e+00 3.0929067125e+00 
40200 5.9454440588e+00 4.0958362269e-04 1.7856795370e+00 -3.0928876842e+00 1.7856795370e+00 3.0928876842e+00 
40300 5.9454441681e+00 4.2591439145e-04 1.7856680685e+00 -3.0928678201e+00 1.7856680685e+00 3.0928678201e+00 
40400 5.9454442725e+00 4.4132779623e-04 1.7856561426e+00 -3.0928471638e+00 1.7856561426e+00 3.0928471638e+00 
40500 5.9454443721e+00 4.5580893641e-04 1.7856437850e+00 -3.0928257599e+00 1.7856437850e+00 3.0928257599e+00 
40600 5.9454444671e+00 4.6934528751e-04 1.7856310219e+00 -3.0928036535e+00 1.7856310219e+00 3.0928036535e+00 
40700 5.9454445578e+00 4.8192667583e-04 1.7856178796e+00 -3.0927808904e+00 1.7856178796e+00 3.0927808904e+00 
40800 5.9454446443e+00 4.9354524844e-04 1.7856043850e+00 -3.0927575170e+00 1.7856043850e+00 3.0927575170e+00 
40900 5.9454447268e+00 5.0419543860e-04 1.7855905649e+00 -3.0927335799e+00 1.7855905649e+00 3.0927335799e+00 
41000 5.9454448057e+00 5.1387392687e-04 1.7855764464e+00 -3.0927091260e+00 1.7855764464e+00 3.0927091260e+00 
41100 5.9454448811e+00 5.2257959812e-04 1.7855620569e+00 -3.0926842026e+00 1.7855620569e+00 3.0926842026e+00 
41200 5.9454449532e+00 5.3031349451e-04 1.7855474234e+00 -3.0926588567e+00 1.7855474234e+00 3.0926588567e+00 
41300 5.9454450224e+00 5.3707876474e-04 1.7855325733e+00 -3.0926331355e+00 1.7855325733e+00 3.0926331355e+00 
41400 5.9454450888e+00 5.4288060980e-04 1.7855175336e+00 -3.0926070859e+00 1.7855175336e+00 3.0926070859e+00 
41500 5.9454451527e+00 5.4772622526e-04 1.7855023312e+00 -3.0925807548e+00 1.7855023312e+00 3.0925807548e+00 
41600 5.9454452143e+00 5.5162474050e-04 1.7854869931e+00 -3.0925541883e+00 1.7854869931e+00 3.0925541883e+00 
41700 5.9454452738e+00 5.5458715498e-04 1.7854715457e+00 -3.0925274326e+00 1.7854715457e+00 3.0925274326e+00 
41800 5.9454453315e+00 5.5662627174e-04 1.7854560151e+00 -3.0925005329e+00 1.7854560151e+00 3.0925005329e+00 
41900 5.9454453875e+00 5.5775662846e-04 1.7854404274e+00 -3.0924735341e+00 1.7854404274e+00 3.0924735341e+00 
42000 5.9454454421e+00 5.5799442616e-04 1.7854248078e+00 -3.0924464802e+00 1.7854248078e+00 3.0924464802e+00 
42100 5.9454454955e+00 5.5735745585e-04 1.7854091815e+00 -3.0924194146e+00 1.7854091815e+00 3.0924194146e+00 
42200 5.9454455478e+00 5.5586502328e-04 1.7853935728e+00 -3.0923923796e+00 1.7853935728e+00 3.0923923796e+00 
42300 5.9454455992e+00 5.5353787207e-04 1.7853780058e+00 -3.0923654168e+00 1.7853780058e+00 3.0923654168e+00 
42400 5.9454456499e+00 5.5039810532e-04 1.7853625039e+00 -3.0923385666e+00 1.7853625039e+00 3.0923385666e+00 
42500 5.9454457001e+00 5.4646910612e-04 1.7853470897e+00 -3.0923118685e+00 1.7853470897e+00 3.0923118685e+00 
42600 5.9454457497e+00 5.4177545685e-04 1.7853317854e+00 -3.0922853608e+00 1.7853317854e+00 3.0922853608e+00 
42700 5.9454457991e+00 5.3634285779e-04 1.7853166125e+00 -3.0922590804e+00 1.7853166125e+00 3.0922590804e+00 
42800 5.9454458482e+00 5.3019804510e-04 1.7853015916e+00 -3.0922330634e+00 1.7853015916e+00 3.0922330634e+00 
42900 5.9454458972e+00 5.2336870827e-04 1.7852867426e+00 -3.0922073443e+00 1.7852867426e+00 3.0922073443e+00 
43000 5.9454459461e+00 5.1588340749e-04 1.7852720848e+00 -3.0921819562e+00 1.7852720848e+00 3.0921819562e+00 
43100 5.9454459950e+00 5.0777149089e-04 1.7852576365e+00 -3.0921569310e+00 1.7852576365e+00 3.0921569310e+00 
43200 5.9454460440e+00 4.9906301193e-04 1.7852434153e+00 -3.0921322992e+00 1.7852434153e+00 3.0921322992e+00 
43300 5.9454460930e+00 4.8978864719e-04 1.7852294379e+00 -3.0921080895e+00 1.7852294379e+00 3.0921080895e+00 
43400 5.9454461422e+00 4.7997961459e-04 1.7852157201e+00 -3.0920843296e+00 1.7852157201e+00 3.0920843296e+00 
43500 5.9454461916e+00 4.6966759237e-04 1.7852022769e+00 -3.0920610454e+00 1.7852022769e+00 3.0920610454e+00 
43600 5.9454462410e+00 4.5888463881e-04 1.7851891225e+00 -3.0920382612e+00 1.7851891225e+00 3.0920382612e+00 
43700 5.9454462906e+00 4.4766311308e-04 1.7851762699e+00 -3.0920160000e+00 1.7851762699e+00 3.0920160000e+00 
43800 5.9454463404e+00 4.3603559717e-04 1.7851637316e+00 -3.0919942830e+00 1.7851637316e+00 3.0919942830e+00 
43900 5.9454463902e+00 4.2403481913e-04 1.7851515188e+00 -3.0919731299e+00 1.7851515188e+00 3.0919731299e+00 
44000 5.9454464400e+00 4.1169357779e-04 1.7851396421e+00 -3.0919525588e+00 1.7851396421e+00 3.0919525588e+00 
44100 5.9454464899e+00 3.9904466904e-04 1.7851281110e+00 -3.0919325863e+00 1.7851281110e+00 3.0919325863e+00 
44200 5.9454465398e+00 3.8612081382e-04 1.7851169341e+00 -3.0919132273e+00 1.7851169341e+00 3.0919132273e+00 
44300 5.9454465896e+00 3.7295458797e-04 1.7851061191e+00 -3.0918944952e+00 1.7851061191e+00 3.0918944952e+00 
44400 5.9454466392e+00 3.5957835392e-04 1.7850956728e+00 -3.0918764017e+00 1.7850956728e+00 3.0918764017e+00 
44500 5.9454466887e+00 3.4602419459e-04 1.7850856012e+00 -3.0918589571e+00 1.7850856012e+00 3.0918589571e+00 
44600 5.9454467379e+00 3.3232384928e-04 1.7850759091e+00 -3.0918421699e+00 1.7850759091e+00 3.0918421699e+00 
44700 5.9454467868e+00 3.1850865194e-04 1.7850666007e+00 -3.0918260473e+00 1.7850666007e+00 3.0918260473e+00 
44800 5.9454468352e+00 3.0460947159e-04 1.7850576792e+00 -3.0918105949e+00 1.7850576792e+00 3.0918105949e+00 
44900 5.9454468833e+00 2.9065665535e-04 1.7850491470e+00 -3.0917958167e+00 1.7850491470e+00 3.0917958167e+00 
45000 5.9454469308e+00 2.7667997375e-04 1.7850410056e+00 -3.0917817153e+00 1.7850410056e+00 3.0917817153e+00 
45100 5.9454469777e+00 2.6270856868e-04 1.7850332557e+00 -3.0917682920e+00 1.7850332557e+00 3.0917682920e+00 
45200 5.9454470240e+00 2.4877090395e-04 1.7850258970e+00 -3.0917555465e+00 1.7850258970e+00 3.0917555465e+00 
45300 5.9454470695e+00 2.3489471836e-04 1.7850189288e+00 -3.0917434771e+00 1.7850189288e+00 3.0917434771e+00 
45400 5.9454471143e+00 2.2110698158e-04 1.7850123492e+00 -3.0917320809e+00 1.7850123492e+00 3.0917320809e+00 
45500 5.9454471583e+00 2.0743385272e-04 1.7850061557e+00 -3.0917213535e+00 1.7850061557e+00 3.0917213535e+00 
45600 5.9454472014e+00 1.9390064155e-04 1.7850003453e+00 -3.0917112896e+00 1.7850003453e+00 3.0917112896e+00 
45700 5.9454472436e+00 1.8053177261e-04 1.7849949139e+00 -3.0917018821e+00 1.7849949139e+00 3.0917018821e+00 
45800 5.9454472849e+00 1.6735075200e-04 1.7849898570e+00 -3.0916931233e+00 1.7849898570e+00 3.0916931233e+00 
45900 5.9454473251e+00 1.5438013701e-04 1.7849851692e+00 -3.0916850039e+00 1.7849851692e+00 3.0916850039e+00 
46000 5.9454473644e+00 1.4164150851e-04 1.7849808448e+00 -3.0916775138e+00 1.7849808448e+00 3.0916775138e+00 
46100 5.9454474026e+00 1.2915544614e-04 1.7849768772e+00 -3.0916706417e+00 1.7849768772e+00 3.0916706417e+00 
46200 5.9454474397e+00 1.1694150627e-04 1.7849732594e+00 -3.0916643754e+00 1.7849732594e+00 3.0916643754e+00 
46300 5.9454474757e+00 1.0501820269e-04 1.7849699837e+00 -3.0916587017e+00 1.7849699837e+00 3.0916587017e+00 
46400 5.9454475106e+00 9.3402990052e-05 1.7849670419e+00 -3.0916536065e+00 1.7849670419e+00 3.0916536065e+00 
46500 5.9454475445e+00 8.2112250051e-05 1.7849644256e+00 -3.0916490748e+00 1.7849644256e+00 3.0916490748e+00 
46600 5.9454475772e+00 7.1161280210e-05 1.7849621255e+00 -3.0916450909e+00 1.7849621255e+00 3.0916450909e+00 
46700 5.9454476089e+00 6.0564285363e-05 1.7849601321e+00 -3.0916416383e+00 1.7849601321e+00 3.0916416383e+00 
46800 5.9454476395e+00 5.2006630011e-05 1.7849601321e+00 -3.0916416383e+00 1.7849601321e+00 3.0916416383e+00 
46900 5.9454476691e+00 4.3554074237e-05 1.7849601321e+00 -3.0916416383e+00 1.7849601321e+00 3.0916416383e+00 
47000 5.9454476975e+00 3.5228168069e-05 1.7849601321e+00 -3.0916416383e+00 1.7849601321e+00 3.0916416383e+00 
47100 5.9454477249e+00 2.7049364249e-05 1.7849601321e+00 -3.0916416383e+00 1.7849601321e+00 3.0916416383e+00 
47200 5.9454477512e+00 1.9037016162e-05 1.7849601321e+00 -3.0916416383e+00 1.7849601321e+00 3.0916416383e+00 
47300 5.9454477766e+00 1.1209378036e-05 1.7849601321e+00 -3.0916416383e+00 1.7849601321e+00 3.0916416383e+00 
47400 5.9454478011e+00 3.5836073472e-06 1.7849601321e+00 -3.0916416383e+00 1.7849601321e+00 3.0916416383e+00 
47500 5.9454478247e+00 -3.8242306499e-06 1.7849601321e+00 -3.0916416383e+00 1.7849601321e+00 3.0916416383e+00 
47600 5.9454478475e+00 -1.0999156373e-05 1.7849601321e+00 -3.0916416383e+00 1.7849601321e+00 3.0916416383e+00 
47700 5.9454478695e+00 -1.7927267380e-05 1.7849601321e+00 -3.0916416383e+00 1.7849601321e+00 3.0916416383e+00 
47800 5.9454478907e+00 -2.4595727999e-05 1.7849601321e+00 -3.0916416383e+00 1.7849601321e+00 3.0916416383e+00 
47900 5.9454479112e+00 -3.0992757155e-05 1.7849601321e+00 -3.0916416383e+00 1.7849601321e+00 3.0916416383e+00 
48000 5.9454479312e+00 -3.7107614502e-05 1.7849601321e+00 -3.0916416383e+00 1.7849601321e+00 3.0916416383e+00 
48100 5.9454479505e+00 -4.2930584948e-05 1.7849601321e+00 -3.0916416383e+00 1.7849601321e+00 3.0916416383e+00 
48200 5.9454479692e+00 -4.8452961645e-05 1.7849601321e+00 -3.0916416383e+00 1.7849601321e+00 3.0916416383e+00 
48300 5.9454479875e+00 -5.3667027562e-05 1.7849601321e+00 -3.0916416383e+00 1.7849601321e+00 3.0916416383e+00 
48400 5.9454480053e+00 -5.8566035677e-05 1.7849601321e+00 -3.0916416383e+00 1.7849601321e+00 3.0916416383e+00 
48500 5.9454480227e+00 -6.3144187932e-05 1.7849601321e+00 -3.0916416383e+00 1.7849601321e+00 3.0916416383e+00 
48600 5.9454480397e+00 -6.7396613002e-05 1.7849601321e+00 -3.0916416383e+00 1.7849601321e+00 3.0916416383e+00 
48700 5.9454480563e+00 -7.1319342961e-05 1.7849601321e+00 -3.0916416383e+00 1.7849601321e+00 3.0916416383e+00 
48800 5.9454480725e+00 -7.2940487075e-05 1.7849621299e+00 -3.0916450986e+00 1.7849621299e+00 3.0916450986e+00 
48900 5.9454480884e+00 -7.4171865831e-05 1.7849641731e+00 -3.0916486375e+00 1.7849641731e+00 3.0916486375e+00 
49000 5.9454481040e+00 -7.5020707425e-05 1.7849662508e+00 -3.0916522361e+00 1.7849662508e+00 3.0916522361e+00 
49100 5.9454481194e+00 -7.5494944198e-05 1.7849683522e+00 -3.0916558760e+00 1.7849683522e+00 3.0916558760e+00 
49200 5.9454481347e+00 -7.5603177469e-05 1.7849704670e+00 -3.0916595388e+00 1.7849704670e+00 3.0916595388e+00 
49300 5.9454481497e+00 -7.5354641735e-05 1.7849725847e+00 -3.0916632069e+00 1.7849725847e+00 3.0916632069e+00 
49400 5.9454481647e+00 -7.4759168378e-05 1.7849746956e+00 -3.0916668629e+00 1.7849746956e+00 3.0916668629e+00 
49500 5.9454481795e+00 -7.3827148976e-05 1.7849767897e+00 -3.0916704901e+00 1.7849767897e+00 3.0916704901e+00 
49600 5.9454481942e+00 -7.2569498230e-05 1.7849788577e+00 -3.0916740720e+00 1.7849788577e+00 3.0916740720e+00 
49700 5.9454482089e+00 -7.0997616712e-05 1.7849808905e+00 -3.0916775928e+00 1.7849808905e+00 3.0916775928e+00 
49800 5.9454482235e+00 -6.9123353384e-05 1.7849828792e+00 -3.0916810375e+00 1.7849828792e+00 3.0916810375e+00 
49900 5.9454482383e+00 -6.8866962749e-05 1.7849828792e+00 -3.0916810375e+00 1.7849828792e+00 3.0916810375e+00 
50000 5.9454482530e+00 -6.8283048977e-05 1.7849828792e+00 -3.0916810375e+00 1.7849828792e+00 3.0916810375e+00 
50100 5.9454482677e+00 -6.7378456732e-05 1.7849828792e+00 -3.0916810375e+00 1.7849828792e+00 3.0916810375e+00 
50200 5.9454482823e+00 -6.6160501943e-05 1.7849828792e+00 -3.0916810375e+00 1.7849828792e+00 3.0916810375e+00 
50300 5.9454482970e+00 -6.4636939904e-05 1.7849828792e+00 -3.0916810375e+00 1.7849828792e+00 3.0916810375e+00 
50400 5.9454483116e+00 -6.2815933601e-05 1.7849828792e+00 -3.0916810375e+00 1.7849828792e+00 3.0916810375e+00 
50500 5.9454483261e+00 -6.0706022310e-05 1.7849828792e+00 -3.0916810375e+00 1.7849828792e+00 3.0916810375e+00 
50600 5.9454483407e+00 -5.8316090544e-05 1.7849828792e+00 -3.0916810375e+00 1.7849828792e+00 3.0916810375e+00 
50700 5.9454483551e+00 -5.5655337378e-05 1.7849828792e+00 -3.0916810375e+00 1.7849828792e+00 3.0916810375e+00 
50800 5.9454483696e+00 -5.2733246207e-05 1.7849828792e+00 -3.0916810375e+00 1.7849828792e+00 3.0916810375e+00 
50900 5.9454483840e+00 -4.9559555006e-05 1.7849828792e+00 -3.0916810375e+00 1.7849828792e+00 3.0916810375e+00 
51000 5.9454483983e+00 -4.6144227086e-05 1.7849828792e+00 -3.0916810375e+00 1.7849828792e+00 3.0916810375e+00 
51100 5.9454484126e+00 -4.2497422448e-05 1.7849828792e+00 -3.0916810375e+00 1.7849828792e+00 3.0916810375e+00 
51200 5.9454484268e+00 -3.8629469720e-05 1.7849828792e+00 -3.0916810375e+00 1.7849828792e+00 3.0916810375e+00 
51300 5.9454484409e+00 -3.4550838747e-05 1.7849828792e+00 -3.0916810375e+00 1.7849828792e+00 3.0916810375e+00 
51400 5.9454484550e+00 -3.0272113849e-05 1.7849828792e+00 -3.0916810375e+00 1.7849828792e+00 3.0916810375e+00 
51500 5.9454484689e+00 -2.5803967804e-05 1.7849828792e+00 -3.0916810375e+00 1.7849828792e+00 3.0916810375e+00 
51600 5.9454484827e+00 -2.1157136532e-05 1.7849828792e+00 -3.0916810375e+00 1.7849828792e+00 3.0916810375e+00 
51700 5.9454484964e+00 -1.6342394573e-05 1.7849828792e+00 -3.0916810375e+00 1.7849828792e+00 3.0916810375e+00 
51800 5.9454485100e+00 -1.1370531325e-05 1.7849828792e+00 -3.0916810375e+00 1.7849828792e+00 3.0916810375e+00 
51900 5.9454485235e+00 -6.2523281057e-06 1.7849828792e+00 -3.0916810375e+00 1.7849828792e+00 3.0916810375e+00 
52000 5.9454485368e+00 -9.9853602867e-07 1.7849828792e+00 -3.0916810375e+00 1.7849828792e+00 3.0916810375e+00 
52100 5.9454485499e+00 4.3801452902e-06 1.7849828792e+00 -3.0916810375e+00 1.7849828792e+00 3.0916810375e+00 
52200 5.9454485629e+00 9.8730881564e-06 1.7849828792e+00 -3.0916810375e+00 1.7849828792e+00 3.0916810375e+00 
52300 5.9454485757e+00 1.5469756359e-05 1.7849828792e+00 -3.0916810375e+00 1.7849828792e+00 3.0916810375e+00 
52400 5.9454485884e+00 2.1159723865e-05 1.7849828792e+00 -3.0916810375e+00 1.7849828792e+00 3.0916810375e+00 
52500 5.9454486008e+00 2.6932692621e-05 1.7849828792e+00 -3.0916810375e+00 1.7849828792e+00 3.0916810375e+00 
52600 5.9454486131e+00 3.2778509472e-05 1.7849828792e+00 -3.0916810375e+00 1.7849828792e+00 3.0916810375e+00 
52700 5.9454486252e+00 3.8687182182e-05 1.7849828792e+00 -3.0916810375e+00 1.7849828792e+00 3.0916810375e+00 
52800 5.9454486371e+00 4.4648894577e-05 1.7849828792e+00 -3.0916810375e+00 1.7849828792e+00 3.0916810375e+00 
52900 5.9454486489e+00 5.0654020777e-05 1.7849828792e+00 -3.0916810375e+00 1.7849828792e+00 3.0916810375e+00 
53000 5.9454486604e+00 5.6693138546e-05 1.7849828792e+00 -3.0916810375e+00 1.7849828792e+00 3.0916810375e+00 
53100 5.9454486717e+00 6.2757041757e-05 1.7849828792e+00 -3.0916810375e+00 1.7849828792e+00 3.0916810375e+00 
53200 5.9454486828e+00 6.8836751965e-05 1.7849828792e+00 -3.0916810375e+00 1.7849828792e+00 3.0916810375e+00 
53300 5.9454486938e+00 7.4923529126e-05 1.7849828792e+00 -3.0916810375e+00 1.7849828792e+00 3.0916810375e+00 
53400 5.9454487043e+00 7.8940636237e-05 1.7849807805e+00 -3.0916774024e+00 1.7849807805e+00 3.0916774024e+00 
53500 5.9454487146e+00 8.2826613978e-05 1.7849785693e+00 -3.0916735724e+00 1.7849785693e+00 3.0916735724e+00 
53600 5.9454487246e+00 8.6574555133e-05 1.7849762492e+00 -3.0916695539e+00 1.7849762492e+00 3.0916695539e+00 
53700 5.9454487344e+00 9.0178023969e-05 1.7849738241e+00 -3.0916653535e+00 1.7849738241e+00 3.0916653535e+00 
53800 5.9454487439e+00 9.3631059666e-05 1.7849712980e+00 -3.0916609783e+00 1.7849712980e+00 3.0916609783e+00 
53900 5.9454487532e+00 9.6928178637e-05 1.7849686753e+00 -3.0916564355e+00 1.7849686753e+00 3.0916564355e+00 
54000 5.9454487622e+00 1.0006437574e-04 1.7849659602e+00 -3.0916517328e+00 1.7849659602e+00 3.0916517328e+00 
54100 5.9454487710e+00 1.0303512437e-04 1.7849631572e+00 -3.0916468779e+00 1.7849631572e+00 3.0916468779e+00 
54200 5.9454487796e+00 1.0583637558e-04 1.7849602710e+00 -3.0916418788e+00 1.7849602710e+00 3.0916418788e+00 
54300 5.9454487879e+00 1.0846455604e-04 1.7849573063e+00 -3.0916367439e+00 1.7849573063e+00 3.0916367439e+00 
54400 5.9454487960e+00 1.1091656509e-04 1.7849542680e+00 -3.0916314814e+00 1.7849542680e+00 3.0916314814e+00 
54500 5.9454488040e+00 1.1318977080e-04 1.7849511610e+00 -3.0916260999e+00 1.7849511610e+00 3.0916260999e+00 
54600 5.9454488117e+00 1.1528200504e-04 1.7849479904e+00 -3.0916206082e+00 1.7849479904e+00 3.0916206082e+00 
54700 5.9454488192e+00 1.1719155769e-04 1.7849447611e+00 -3.0916150149e+00 1.7849447611e+00 3.0916150149e+00 
54800 5.9454488265e+00 1.1891716993e-04 1.7849414783e+00 -3.0916093290e+00 1.7849414783e+00 3.0916093290e+00 
54900 5.9454488336e+00 1.2045802669e-04 1.7849381472e+00 -3.0916035593e+00 1.7849381472e+00 3.0916035593e+00 
55000 5.9454488406e+00 1.2181374836e-04 1.7849347729e+00 -3.0915977149e+00 1.7849347729e+00 3.0915977149e+00 
55100 5.9454488474e+00 1.2298438157e-04 1.7849313606e+00 -3.0915918046e+00 1.7849313606e+00 3.0915918046e+00 
55200 5.9454488541e+00 1.2397038944e-04 1.7849279156e+00 -3.0915858376e+00 1.7849279156e+00 3.0915858376e+00 
55300 5.9454488606e+00 1.2477264097e-04 1.7849244429e+00 -3.0915798227e+00 1.7849244429e+00 3.0915798227e+00 
55400 5.9454488670e+00 1.2539239985e-04 1.7849209477e+00 -3.0915737689e+00 1.7849209477e+00 3.0915737689e+00 
55500 5.9454488732e+00 1.2583131262e-04 1.7849174351e+00 -3.0915676850e+00 1.7849174351e+00 3.0915676850e+00 
55600 5.9454488794e+00 1.2609139633e-04 1.7849139103e+00 -3.0915615797e+00 1.7849139103e+00 3.0915615797e+00 
55700 5.9454488854e+00 1.2617502551e-04 1.7849103781e+00 -3.0915554619e+00 1.7849103781e+00 3.0915554619e+00 
55800 5.9454488913e+00 1.2608491883e-04 1.7849068436e+00 -3.0915493400e+00 1.7849068436e+00 3.0915493400e+00 
55900 5.9454488972e+00 1.2582412516e-04 1.7849033117e+00 -3.0915432224e+00 1.7849033117e+00 3.0915432224e+00 
56000 5.9454489029e+00 1.2539600929e-04 1.7848997870e+00 -3.0915371175e+00 1.7848997870e+00 3.0915371175e+00 
56100 5.9454489086e+00 1.2480423728e-04 1.7848962743e+00 -3.0915310333e+00 1.7848962743e+00 3.0915310333e+00 
56200 5.9454489142e+00 1.2405276144e-04 1.7848927782e+00 -3.0915249779e+00 1.7848927782e+00 3.0915249779e+00 
56300 5.9454489198e+00 1.2314580503e-04 1.7848893031e+00 -3.0915189589e+00 1.7848893031e+00 3.0915189589e+00 
56400 5.9454489252e+00 1.2208784676e-04 1.7848858534e+00 -3.0915129839e+00 1.7848858534e+00 3.0915129839e+00 
56500 5.9454489307e+00 1.2088360501e-04 1.7848824334e+00 -3.0915070602e+00 1.7848824334e+00 3.0915070602e+00 
56600 5.9454489361e+00 1.1953802192e-04 1.7848790471e+00 -3.0915011949e+00 1.7848790471e+00 3.0915011949e+00 
56700 5.9454489414e+00 1.1805624736e-04 1.7848756985e+00 -3.0914953949e+00 1.7848756985e+00 3.0914953949e+00 
56800 5.9454489467e+00 1.1644362277e-04 1.7848723913e+00 -3.0914896668e+00 1.7848723913e+00 3.0914896668e+00 
56900 5.9454489520e+00 1.1470566495e-04 1.7848691294e+00 -3.0914840169e+00 1.7848691294e+00 3.0914840169e+00 
57000 5.9454489572e+00 1.1284804990e-04 1.7848659161e+00 -3.0914784514e+00 1.7848659161e+00 3.0914784514e+00 
57100 5.9454489624e+00 1.1087659659e-04 1.7848627548e+00 -3.0914729759e+00 1.7848627548e+00 3.0914729759e+00 
57200 5.9454489675e+00 1.0879725082e-04 1.7848596488e+00 -3.0914675961e+00 1.7848596488e+00 3.0914675961e+00 
57300 5.9454489727e+00 1.0661606919e-04 1.7848566010e+00 -3.0914623172e+00 1.7848566010e+00 3.0914623172e+00 
57400 5.9454489778e+00 1.0433920316e-04 1.7848536144e+00 -3.0914571441e+00 1.7848536144e+00 3.0914571441e+00 
57500 5.9454489829e+00 1.0197288327e-04 1.7848506914e+00 -3.0914520815e+00 1.7848506914e+00 3.0914520815e+00 
57600 5.9454489879e+00 9.9523403598e-05 1.7848478348e+00 -3.0914471337e+00 1.7848478348e+00 3.0914471337e+00 
57700 5.9454489929e+00 9.6997106322e-05 1.7848450468e+00 -3.0914423047e+00 1.7848450468e+00 3.0914423047e+00 
57800 5.9454489979e+00 9.4400366652e-05 1.7848423296e+00 -3.0914375983e+00 1.7848423296e+00 3.0914375983e+00 
57900 5.9454490029e+00 9.1739577957e-05 1.7848396851e+00 -3.0914330179e+00 1.7848396851e+00 3.0914330179e+00 
58000 5.9454490078e+00 8.9021137199e-05 1.7848371151e+00 -3.0914285666e+00 1.7848371151e+00 3.0914285666e+00 
58100 5.9454490127e+00 8.6251430741e-05 1.7848346213e+00 -3.0914242472e+00 1.7848346213e+00 3.0914242472e+00 
58200 5.9454490176e+00 8.3436820435e-05 1.7848322051e+00 -3.0914200622e+00 1.7848322051e+00 3.0914200622e+00 
58300 5.9454490224e+00 8.0583630126e-05 1.7848298677e+00 -3.0914160137e+00 1.7848298677e+00 3.0914160137e+00 
58400 5.9454490272e+00 7.7698132556e-05 1.7848276102e+00 -3.0914121036e+00 1.7848276102e+00 3.0914121036e+00 
58500 5.9454490319e+00 7.4786536625e-05 1.7848254336e+00 -3.0914083336e+00 1.7848254336e+00 3.0914083336e+00 
58600 5.9454490366e+00 7.1854975163e-05 1.7848233385e+00 -3.0914047049e+00 1.7848233385e+00 3.0914047049e+00 
58700 5.9454490413e+00 6.8909493071e-05 1.7848213256e+00 -3.0914012183e+00 1.7848213256e+00 3.0914012183e+00 
58800 5.9454490460e+00 6.7858997667e-05 1.7848213256e+00 -3.0914012183e+00 1.7848213256e+00 3.0914012183e+00 
58900 5.9454490507e+00 6.6734508061e-05 1.7848213256e+00 -3.0914012183e+00 1.7848213256e+00 3.0914012183e+00 
59000 5.9454490553e+00 6.5543091627e-05 1.7848213256e+00 -3.0914012183e+00 1.7848213256e+00 3.0914012183e+00 
59100 5.9454490598e+00 6.4291676170e-05 1.7848213256e+00 -3.0914012183e+00 1.7848213256e+00 3.0914012183e+00 
59200 5.9454490643e+00 6.2987041198e-05 1.7848213256e+00 -3.0914012183e+00 1.7848213256e+00 3.0914012183e+00 
59300 5.9454490687e+00 6.1635809788e-05 1.7848213256e+00 -3.0914012183e+00 1.7848213256e+00 3.0914012183e+00 
59400 5.9454490730e+00 6.0244441029e-05 1.7848213256e+00 -3.0914012183e+00 1.7848213256e+00 3.0914012183e+00 
59500 5.9454490772e+00 5.8819223046e-05 1.7848213256e+00 -3.0914012183e+00 1.7848213256e+00 3.0914012183e+00 
59600 5.9454490814e+00 5.7366266625e-05 1.7848213256e+00 -3.0914012183e+00 1.7848213256e+00 3.0914012183e+00 
59700 5.9454490854e+00 5.5891499384e-05 1.7848213256e+00 -3.0914012183e+00 1.7848213256e+00 3.0914012183e+00 
59800 5.9454490894e+00 5.4400660515e-05 1.7848213256e+00 -3.0914012183e+00 1.7848213256e+00 3.0914012183e+00 
59900 5.9454490933e+00 5.2899296093e-05 1.7848213256e+00 -3.0914012183e+00 1.7848213256e+00 3.0914012183e+00 
60000 5.9454490972e+00 5.1392754918e-05 1.7848213256e+00 -3.0914012183e+00 1.7848213256e+00 3.0914012183e+00 
60100 5.9454491009e+00 4.9886184896e-05 1.7848213256e+00 -3.0914012183e+00 1.7848213256e+00 3.0914012183e+00 
60200 5.9454491046e+00 4.8384529951e-05 1.7848213256e+00 -3.0914012183e+00 1.7848213256e+00 3.0914012183e+00 
60300 5.9454491082e+00 4.6892527447e-05 1.7848213256e+00 -3.0914012183e+00 1.7848213256e+00 3.0914012183e+00 
60400 5.9454491118e+00 4.5414706110e-05 1.7848213256e+00 -3.0914012183e+00 1.7848213256e+00 3.0914012183e+00 
60500 5.9454491153e+00 4.3955384443e-05 1.7848213256e+00 -3.0914012183e+00 1.7848213256e+00 3.0914012183e+00 
60600 5.9454491187e+00 4.2518669614e-05 1.7848213256e+00 -3.0914012183e+00 1.7848213256e+00 3.0914012183e+00 
60700 5.9454491220e+00 4.1108456800e-05 1.7848213256e+00 -3.0914012183e+00 1.7848213256e+00 3.0914012183e+00 
60800 5.9454491252e+00 3.9728428996e-05 1.7848213256e+00 -3.0914012183e+00 1.7848213256e+00 3.0914012183e+00 
60900 5.9454491284e+00 3.8382057233e-05 1.7848213256e+00 -3.0914012183e+00 1.7848213256e+00 3.0914012183e+00 
61000 5.9454491316e+00 3.7072601228e-05 1.7848213256e+00 -3.0914012183e+00 1.7848213256e+00 3.0914012183e+00 
61100 5.9454491347e+00 3.5803110428e-05 1.7848213256e+00 -3.0914012183e+00 1.7848213256e+00 3.0914012183e+00 
61200 5.9454491377e+00 3.4576425454e-05 1.7848213256e+00 -3.0914012183e+00 1.7848213256e+00 3.0914012183e+00 
61300 5.9454491406e+00 3.3395179891e-05 1.7848213256e+00 -3.0914012183e+00 1.7848213256e+00 3.0914012183e+00 
61400 5.9454491436e+00 3.2261802453e-05 1.7848213256e+00 -3.0914012183e+00 1.7848213256e+00 3.0914012183e+00 
61500 5.9454491464e+00 3.1178519461e-05 1.7848213256e+00 -3.0914012183e+00 1.7848213256e+00 3.0914012183e+00 
61600 5.9454491492e+00 3.0147357676e-05 1.7848213256e+00 -3.0914012183e+00 1.7848213256e+00 3.0914012183e+00 
61700 5.9454491520e+00 2.9170147399e-05 1.7848213256e+00 -3.0914012183e+00 1.7848213256e+00 3.0914012183e+00 
61800 5.9454491547e+00 2.8248525876e-05 1.7848213256e+00 -3.0914012183e+00 1.7848213256e+00 3.0914012183e+00 
61900 5.9454491574e+00 2.7383940975e-05 1.7848213256e+00 -3.0914012183e+00 1.7848213256e+00 3.0914012183e+00 
62000 5.9454491600e+00 2.6577655112e-05 1.7848213256e+00 -3.0914012183e+00 1.7848213256e+00 3.0914012183e+00 
62100 5.9454491626e+00 2.5830749407e-05 1.7848213256e+00 -3.0914012183e+00 1.7848213256e+00 3.0914012183e+00 
62200 5.9454491651e+00 2.5144128066e-05 1.7848213256e+00 -3.0914012183e+00 1.7848213256e+00 3.0914012183e+00 
62300 5.9454491677e+00 2.4518522968e-05 1.7848213256e+00 -3.0914012183e+00 1.7848213256e+00 3.0914012183e+00 
62400 5.9454491701e+00 2.3954498449e-05 1.7848213256e+00 -3.0914012183e+00 1.7848213256e+00 3.0914012183e+00 
62500 5.9454491726e+00 2.3452456218e-05 1.7848213256e+00 -3.0914012183e+00 1.7848213256e+00 3.0914012183e+00 
62600 5.9454491750e+00 2.3012640486e-05 1.7848213256e+00 -3.0914012183e+00 1.7848213256e+00 3.0914012183e+00 
62700 5.9454491774e+00 2.2635143175e-05 1.7848213256e+00 -3.0914012183e+00 1.7848213256e+00 3.0914012183e+00 
62800 5.9454491797e+00 2.2319909303e-05 1.7848213256e+00 -3.0914012183e+00 1.7848213256e+00 3.0914012183e+00 
62900 5.9454491820e+00 2.2066742437e-05 1.7848213256e+00 -3.0914012183e+00 1.7848213256e+00 3.0914012183e+00 
63000 5.9454491843e+00 2.1875310270e-05 1.7848213256e+00 -3.0914012183e+00 1.7848213256e+00 3.0914012183e+00 
63100 5.9454491866e+00 2.1745150254e-05 1.7848213256e+00 -3.0914012183e+00 1.7848213256e+00 3.0914012183e+00 
63200 5.9454491888e+00 2.1675675311e-05 1.7848213256e+00 -3.0914012183e+00 1.7848213256e+00 3.0914012183e+00 
63300 5.9454491910e+00 2.1666179602e-05 1.7848213256e+00 -3.0914012183e+00 1.7848213256e+00 3.0914012183e+00 
63400 5.9454491932e+00 2.1715844304e-05 1.7848213256e+00 -3.0914012183e+00 1.7848213256e+00 3.0914012183e+00 
63500 5.9454491954e+00 2.1823743453e-05 1.7848213256e+00 -3.0914012183e+00 1.7848213256e+00 3.0914012183e+00 
63600 5.9454491975e+00 2.1988849767e-05 1.7848213256e+00 -3.0914012183e+00 1.7848213256e+00 3.0914012183e+00 
63700 5.9454491997e+00 2.2210040479e-05 1.7848213256e+00 -3.0914012183e+00 1.7848213256e+00 3.0914012183e+00 
63800 5.9454492018e+00 2.2486103167e-05 1.7848213256e+00 -3.0914012183e+00 1.7848213256e+00 3.0914012183e+00 
63900 5.9454492038e+00 2.2815741539e-05 1.7848213256e+00 -3.0914012183e+00 1.7848213256e+00 3.0914012183e+00 
64000 5.9454492059e+00 2.3197581214e-05 1.7848213256e+00 -3.0914012183e+00 1.7848213256e+00 3.0914012183e+00 
64100 5.9454492079e+00 2.3630175429e-05 1.7848213256e+00 -3.0914012183e+00 1.7848213256e+00 3.0914012183e+00 
64200 5.9454492099e+00 2.4112010700e-05 1.7848213256e+00 -3.0914012183e+00 1.7848213256e+00 3.0914012183e+00 
64300 5.9454492119e+00 2.4641512428e-05 1.7848213256e+00 -3.0914012183e+00 1.7848213256e+00 3.0914012183e+00 
64400 5.9454492139e+00 2.5217050430e-05 1.7848213256e+00 -3.0914012183e+00 1.7848213256e+00 3.0914012183e+00 
64500 5.9454492158e+00 2.5836944364e-05 1.7848213256e+00 -3.0914012183e+00 1.7848213256e+00 3.0914012183e+00 
64600 5.9454492177e+00 2.6499469102e-05 1.7848213256e+00 -3.0914012183e+00 1.7848213256e+00 3.0914012183e+00 
64700 5.9454492196e+00 2.7202859966e-05 1.7848213256e+00 -3.0914012183e+00 1.7848213256e+00 3.0914012183e+00 
64800 5.9454492215e+00 2.7945317891e-05 1.7848213256e+00 -3.0914012183e+00 1.7848213256e+00 3.0914012183e+00 
64900 5.9454492234e+00 2.8725014451e-05 1.7848213256e+00 -3.0914012183e+00 1.7848213256e+00 3.0914012183e+00 
65000 5.9454492252e+00 2.9540096784e-05 1.7848213256e+00 -3.0914012183e+00 1.7848213256e+00 3.0914012183e+00 
65100 5.9454492270e+00 3.0388692374e-05 1.7848213256e+00 -3.0914012183e+00 1.7848213256e+00 3.0914012183e+00 
65200 5.9454492288e+00 3.1268913733e-05 1.7848213256e+00 -3.0914012183e+00 1.7848213256e+00 3.0914012183e+00 
65300 5.9454492306e+00 3.2178862909e-05 1.7848213256e+00 -3.0914012183e+00 1.7848213256e+00 3.0914012183e+00 
65400 5.9454492323e+00 3.3116635882e-05 1.7848213256e+00 -3.0914012183e+00 1.7848213256e+00 3.0914012183e+00 
65500 5.9454492341e+00 3.4080326815e-05 1.7848213256e+00 -3.0914012183e+00 1.7848213256e+00 3.0914012183e+00 
65600 5.9454492358e+00 3.5068032146e-05 1.7848213256e+00 -3.0914012183e+00 1.7848213256e+00 3.0914012183e+00 
65700 5.9454492375e+00 3.6077854536e-05 1.7848213256e+00 -3.0914012183e+00 1.7848213256e+00 3.0914012183e+00 
65800 5.9454492391e+00 3.7107906668e-05 1.7848213256e+00 -3.0914012183e+00 1.7848213256e+00 3.0914012183e+00 
65900 5.9454492408e+00 3.8156314878e-05 1.7848213256e+00 -3.0914012183e+00 1.7848213256e+00 3.0914012183e+00 
66000 5.9454492424e+00 3.9221222649e-05 1.7848213256e+00 -3.0914012183e+00 1.7848213256e+00 3.0914012183e+00 
66100 5.9454492440e+00 4.0300793924e-05 1.7848213256e+00 -3.0914012183e+00 1.7848213256e+00 3.0914012183e+00 
66200 5.9454492456e+00 4.1393216277e-05 1.7848213256e+00 -3.0914012183e+00 1.7848213256e+00 3.0914012183e+00 
66300 5.9454492471e+00 4.2496703904e-05 1.7848213256e+00 -3.0914012183e+00 1.7848213256e+00 3.0914012183e+00 
66400 5.9454492486e+00 4.3609500473e-05 1.7848213256e+00 -3.0914012183e+00 1.7848213256e+00 3.0914012183e+00 
66500 5.9454492501e+00 4.4729881806e-05 1.7848213256e+00 -3.0914012183e+00 1.7848213256e+00 3.0914012183e+00 
66600 5.9454492516e+00 4.5856158382e-05 1.7848213256e+00 -3.0914012183e+00 1.7848213256e+00 3.0914012183e+00 
66700 5.9454492531e+00 4.6986677705e-05 1.7848213256e+00 -3.0914012183e+00 1.7848213256e+00 3.0914012183e+00 
66800 5.9454492546e+00 4.8119826501e-05 1.7848213256e+00 -3.0914012183e+00 1.7848213256e+00 3.0914012183e+00 
66900 5.9454492560e+00 4.9254032748e-05 1.7848213256e+00 -3.0914012183e+00 1.7848213256e+00 3.0914012183e+00 
67000 5.9454492574e+00 5.0387767566e-05 1.7848213256e+00 -3.0914012183e+00 1.7848213256e+00 3.0914012183e+00 
67100 5.9454492588e+00 5.1519546930e-05 1.7848213256e+00 -3.0914012183e+00 1.7848213256e+00 3.0914012183e+00 
67200 5.9454492601e+00 5.2647933254e-05 1.7848213256e+00 -3.0914012183e+00 1.7848213256e+00 3.0914012183e+00 
67300 5.9454492615e+00 5.3771536803e-05 1.7848213256e+00 -3.0914012183e+00 1.7848213256e+00 3.0914012183e+00 
67400 5.9454492628e+00 5.4889016961e-05 1.7848213256e+00 -3.0914012183e+00 1.7848213256e+00 3.0914012183e+00 
67500 5.9454492641e+00 5.5999083360e-05 1.7848213256e+00 -3.0914012183e+00 1.7848213256e+00 3.0914012183e+00 
67600 5.9454492654e+00 5.7100496859e-05 1.7848213256e+00 -3.0914012183e+00 1.7848213256e+00 3.0914012183e+00 
67700 5.9454492666e+00 5.8192070377e-05 1.7848213256e+00 -3.0914012183e+00 1.7848213256e+00 3.0914012183e+00 
67800 5.9454492679e+00 5.9272669603e-05 1.7848213256e+00 -3.0914012183e+00 1.7848213256e+00 3.0914012183e+00 
67900 5.9454492691e+00 6.0341213563e-05 1.7848213256e+00 -3.0914012183e+00 1.7848213256e+00 3.0914012183e+00 
68000 5.9454492703e+00 6.1396675057e-05 1.7848213256e+00 -3.0914012183e+00 1.7848213256e+00 3.0914012183e+00 
68100 5.9454492715e+00 6.2438080962e-05 1.7848213256e+00 -3.0914012183e+00 1.7848213256e+00 3.0914012183e+00 
68200 5.9454492727e+00 6.3464512437e-05 1.7848213256e+00 -3.0914012183e+00 1.7848213256e+00 3.0914012183e+00 
68300 5.9454492738e+00 6.4475104980e-05 1.7848213256e+00 -3.0914012183e+00 1.7848213256e+00 3.0914012183e+00 
68400 5.9454492750e+00 6.5469048383e-05 1.7848213256e+00 -3.0914012183e+00 1.7848213256e+00 3.0914012183e+00 
68500 5.9454492761e+00 6.6445586579e-05 1.7848213256e+00 -3.0914012183e+00 1.7848213256e+00 3.0914012183e+00 
68600 5.9454492772e+00 6.7404017381e-05 1.7848213256e+00 -3.0914012183e+00 1.7848213256e+00 3.0914012183e+00 
68700 5.9454492783e+00 6.8343692113e-05 1.7848213256e+00 -3.0914012183e+00 1.7848213256e+00 3.0914012183e+00 
68800 5.9454492794e+00 6.9264015154e-05 1.7848213256e+00 -3.0914012183e+00 1.7848213256e+00 3.0914012183e+00 
68900 5.9454492804e+00 7.0164443367e-05 1.7848213256e+00 -3.0914012183e+00 1.7848213256e+00 3.0914012183e+00 
69000 5.9454492815e+00 7.1044485476e-05 1.7848213256e+00 -3.0914012183e+00 1.7848213256e+00 3.0914012183e+00 
69100 5.9454492823e+00 6.9941882391e-05 1.7848193353e+00 -3.0913977711e+00 1.7848193353e+00 3.0913977711e+00 
69200 5.9454492833e+00 7.0769865960e-05 1.7848193353e+00 -3.0913977711e+00 1.7848193353e+00 3.0913977711e+00 
69300 5.9454492842e+00 6.9620162670e-05 1.7848173528e+00 -3.0913943373e+00 1.7848173528e+00 3.0913943373e+00 
69400 5.9454492852e+00 7.0391087038e-05 1.7848173528e+00 -3.0913943373e+00 1.7848173528e+00 3.0913943373e+00 
69500 5.9454492861e+00 7.1136340207e-05 1.7848173528e+00 -3.0913943373e+00 1.7848173528e+00 3.0913943373e+00 
69600 5.9454492869e+00 6.9891528613e-05 1.7848153600e+00 -3.0913908856e+00 1.7848153600e+00 3.0913908856e+00 
69700 5.9454492878e+00 7.0575408290e-05 1.7848153600e+00 -3.0913908856e+00 1.7848153600e+00 3.0913908856e+00 
69800 5.9454492888e+00 7.1231817474e-05 1.7848153600e+00 -3.0913908856e+00 1.7848153600e+00 3.0913908856e+00 
69900 5.9454492895e+00 6.9893938026e-05 1.7848133645e+00 -3.0913874293e+00 1.7848133645e+00 3.0913874293e+00 
70000 5.9454492904e+00 7.0486026049e-05 1.7848133645e+00 -3.0913874293e+00 1.7848133645e+00 3.0913874293e+00 
70100 5.9454492913e+00 7.1049496764e-05 1.7848133645e+00 -3.0913874293e+00 1.7848133645e+00 3.0913874293e+00 
70200 5.9454492920e+00 6.9622765187e-05 1.7848113741e+00 -3.0913839818e+00 1.7848113741e+00 3.0913839818e+00 
70300 5.9454492929e+00 7.0120268126e-05 1.7848113741e+00 -3.0913839818e+00 1.7848113741e+00 3.0913839818e+00 
70400 5.9454492937e+00 7.0588622186e-05 1.7848113741e+00 -3.0913839818e+00 1.7848113741e+00 3.0913839818e+00 
70500 5.9454492946e+00 7.1028435265e-05 1.7848113741e+00 -3.0913839818e+00 1.7848113741e+00 3.0913839818e+00 
70600 5.9454492952e+00 6.9478915941e-05 1.7848093843e+00 -3.0913805354e+00 1.7848093843e+00 3.0913805354e+00 
70700 5.9454492961e+00 6.9853574944e-05 1.7848093843e+00 -3.0913805354e+00 1.7848093843e+00 3.0913805354e+00 
70800 5.9454492969e+00 7.0199803471e-05 1.7848093843e+00 -3.0913805354e+00 1.7848093843e+00 3.0913805354e+00 
70900 5.9454492977e+00 7.0518406622e-05 1.7848093843e+00 -3.0913805354e+00 1.7848093843e+00 3.0913805354e+00 
71000 5.9454492984e+00 7.0810210858e-05 1.7848093843e+00 -3.0913805354e+00 1.7848093843e+00 3.0913805354e+00 
71100 5.9454492991e+00 6.9120649579e-05 1.7848074006e+00 -3.0913770996e+00 1.7848074006e+00 3.0913770996e+00 
71200 5.9454492998e+00 6.9351427186e-05 1.7848074006e+00 -3.0913770996e+00 1.7848074006e+00 3.0913770996e+00 
71300 5.9454493006e+00 6.9556112762e-05 1.7848074006e+00 -3.0913770996e+00 1.7848074006e+00 3.0913770996e+00 
71400 5.9454493013e+00 6.9735686197e-05 1.7848074006e+00 -3.0913770996e+00 1.7848074006e+00 3.0913770996e+00 
71500 5.9454493021e+00 6.9891137873e-05 1.7848074006e+00 -3.0913770996e+00 1.7848074006e+00 3.0913770996e+00 
71600 5.9454493028e+00 7.0023466375e-05 1.7848074006e+00 -3.0913770996e+00 1.7848074006e+00 3.0913770996e+00 
71700 5.9454493035e+00 7.0133676288e-05 1.7848074006e+00 -3.0913770996e+00 1.7848074006e+00 3.0913770996e+00 
71800 5.9454493042e+00 7.0222776028e-05 1.7848074006e+00 -3.0913770996e+00 1.7848074006e+00 3.0913770996e+00 
71900 5.9454493050e+00 7.0291775759e-05 1.7848074006e+00 -3.0913770996e+00 1.7848074006e+00 3.0913770996e+00 
72000 5.9454493056e+00 7.0341685371e-05 1.7848074006e+00 -3.0913770996e+00 1.7848074006e+00 3.0913770996e+00 
72100 5.9454493063e+00 7.0373512515e-05 1.7848074006e+00 -3.0913770996e+00 1.7848074006e+00 3.0913770996e+00 
72200 5.9454493070e+00 7.0388260722e-05 1.7848074006e+00 -3.0913770996e+00 1.7848074006e+00 3.0913770996e+00 
72300 5.9454493077e+00 7.0386927601e-05 1.7848074006e+00 -3.0913770996e+00 1.7848074006e+00 3.0913770996e+00 
72400 5.9454493083e+00 7.0370503079e-05 1.7848074006e+00 -3.0913770996e+00 1.7848074006e+00 3.0913770996e+00 
72500 5.9454493090e+00 7.0339967751e-05 1.7848074006e+00 -3.0913770996e+00 1.7848074006e+00 3.0913770996e+00 
72600 5.9454493096e+00 7.0296291292e-05 1.7848074006e+00 -3.0913770996e+00 1.7848074006e+00 3.0913770996e+00 
72700 5.9454493103e+00 7.0240430922e-05 1.7848074006e+00 -3.0913770996e+00 1.7848074006e+00 3.0913770996e+00 
72800 5.9454493109e+00 7.0173329988e-05 1.7848074006e+00 -3.0913770996e+00 1.7848074006e+00 3.0913770996e+00 
72900 5.9454493115e+00 7.0095916599e-05 1.7848074006e+00 -3.0913770996e+00 1.7848074006e+00 3.0913770996e+00 
73000 5.9454493121e+00 7.0009102337e-05 1.7848074006e+00 -3.0913770996e+00 1.7848074006e+00 3.0913770996e+00 
73100 5.9454493127e+00 6.9913781052e-05 1.7848074006e+00 -3.0913770996e+00 1.7848074006e+00 3.0913770996e+00 
73200 5.9454493133e+00 6.9810827729e-05 1.7848074006e+00 -3.0913770996e+00 1.7848074006e+00 3.0913770996e+00 
73300 5.9454493139e+00 6.9701097442e-05 1.7848074006e+00 -3.0913770996e+00 1.7848074006e+00 3.0913770996e+00 
73400 5.9454493145e+00 6.9585424365e-05 1.7848074006e+00 -3.0913770996e+00 1.7848074006e+00 3.0913770996e+00 
73500 5.9454493150e+00 6.9464620877e-05 1.7848074006e+00 -3.0913770996e+00 1.7848074006e+00 3.0913770996e+00 
73600 5.9454493156e+00 6.9339476730e-05 1.7848074006e+00 -3.0913770996e+00 1.7848074006e+00 3.0913770996e+00 
73700 5.9454493161e+00 6.9210758303e-05 1.7848074006e+00 -3.0913770996e+00 1.7848074006e+00 3.0913770996e+00 
73800 5.9454493167e+00 6.9079207909e-05 1.7848074006e+00 -3.0913770996e+00 1.7848074006e+00 3.0913770996e+00 
73900 5.9454493172e+00 6.8945543192e-05 1.7848074006e+00 -3.0913770996e+00 1.7848074006e+00 3.0913770996e+00 
74000 5.9454493177e+00 6.8810456592e-05 1.7848074006e+00 -3.0913770996e+00 1.7848074006e+00 3.0913770996e+00 
74100 5.9454493183e+00 6.8674614868e-05 1.7848074006e+00 -3.0913770996e+00 1.7848074006e+00 3.0913770996e+00 
74200 5.9454493188e+00 6.8538658700e-05 1.7848074006e+00 -3.0913770996e+00 1.7848074006e+00 3.0913770996e+00 
74300 5.9454493193e+00 6.8403202352e-05 1.7848074006e+00 -3.0913770996e+00 1.7848074006e+00 3.0913770996e+00 
74400 5.9454493198e+00 6.8268833405e-05 1.7848074006e+00 -3.0913770996e+00 1.7848074006e+00 3.0913770996e+00 
74500 5.9454493203e+00 6.8136112544e-05 1.7848074006e+00 -3.0913770996e+00 1.7848074006e+00 3.0913770996e+00 
74600 5.9454493208e+00 6.8005573411e-05 1.7848074006e+00 -3.0913770996e+00 1.7848074006e+00 3.0913770996e+00 
74700 5.9454493212e+00 6.7877722528e-05 1.7848074006e+00 -3.0913770996e+00 1.7848074006e+00 3.0913770996e+00 
74800 5.9454493217e+00 6.7753039247e-05 1.7848074006e+00 -3.0913770996e+00 1.7848074006e+00 3.0913770996e+00 
74900 5.9454493222e+00 6.7631975803e-05 1.7848074006e+00 -3.0913770996e+00 1.7848074006e+00 3.0913770996e+00 
75000 5.9454493226e+00 6.7514957371e-05 1.7848074006e+00 -3.0913770996e+00 1.7848074006e+00 3.0913770996e+00 
75100 5.9454493231e+00 6.7402382208e-05 1.7848074006e+00 -3.0913770996e+00 1.7848074006e+00 3.0913770996e+00 
75200 5.9454493235e+00 6.7294621833e-05 1.7848074006e+00 -3.0913770996e+00 1.7848074006e+00 3.0913770996e+00 
75300 5.9454493240e+00 6.7192021258e-05 1.7848074006e+00 -3.0913770996e+00 1.7848074006e+00 3.0913770996e+00 
75400 5.9454493244e+00 6.7094899255e-05 1.7848074006e+00 -3.0913770996e+00 1.7848074006e+00 3.0913770996e+00 
75500 5.9454493248e+00 6.7003548677e-05 1.7848074006e+00 -3.0913770996e+00 1.7848074006e+00 3.0913770996e+00 
75600 5.9454493252e+00 6.6918236824e-05 1.7848074006e+00 -3.0913770996e+00 1.7848074006e+00 3.0913770996e+00 
75700 5.9454493257e+00 6.6839205826e-05 1.7848074006e+00 -3.0913770996e+00 1.7848074006e+00 3.0913770996e+00 
75800 5.9454493261e+00 6.6766673085e-05 1.7848074006e+00 -3.0913770996e+00 1.7848074006e+00 3.0913770996e+00 
75900 5.9454493265e+00 6.6700831753e-05 1.7848074006e+00 -3.0913770996e+00 1.7848074006e+00 3.0913770996e+00 
76000 5.9454493269e+00 6.6641851213e-05 1.7848074006e+00 -3.0913770996e+00 1.7848074006e+00 3.0913770996e+00 
76100 5.9454493273e+00 6.6589877631e-05 1.7848074006e+00 -3.0913770996e+00 1.7848074006e+00 3.0913770996e+00 
76200 5.9454493277e+00 6.6545034503e-05 1.7848074006e+00 -3.0913770996e+00 1.7848074006e+00 3.0913770996e+00 
76300 5.9454493280e+00 6.6507423251e-05 1.7848074006e+00 -3.0913770996e+00 1.7848074006e+00 3.0913770996e+00 
76400 5.9454493284e+00 6.6477123824e-05 1.7848074006e+00 -3.0913770996e+00 1.7848074006e+00 3.0913770996e+00 
76500 5.9454493288e+00 6.6454195335e-05 1.7848074006e+00 -3.0913770996e+00 1.7848074006e+00 3.0913770996e+00 
76600 5.9454493292e+00 6.6438676715e-05 1.7848074006e+00 -3.0913770996e+00 1.7848074006e+00 3.0913770996e+00 
76700 5.9454493295e+00 6.6430587378e-05 1.7848074006e+00 -3.0913770996e+00 1.7848074006e+00 3.0913770996e+00 
76800 5.9454493299e+00 6.6429927913e-05 1.7848074006e+00 -3.0913770996e+00 1.7848074006e+00 3.0913770996e+00 
76900 5.9454493302e+00 6.6436680775e-05 1.7848074006e+00 -3.0913770996e+00 1.7848074006e+00 3.0913770996e+00 
77000 5.9454493306e+00 6.6450811004e-05 1.7848074006e+00 -3.0913770996e+00 1.7848074006e+00 3.0913770996e+00 
77100 5.9454493309e+00 6.6472266947e-05 1.7848074006e+00 -3.0913770996e+00 1.7848074006e+00 3.0913770996e+00 
77200 5.9454493313e+00 6.6500980986e-05 1.7848074006e+00 -3.0913770996e+00 1.7848074006e+00 3.0913770996e+00 
77300 5.9454493316e+00 6.6536870267e-05 1.7848074006e+00 -3.0913770996e+00 1.7848074006e+00 3.0913770996e+00 
77400 5.9454493319e+00 6.6579837460e-05 1.7848074006e+00 -3.0913770996e+00 1.7848074006e+00 3.0913770996e+00 
77500 5.9454493322e+00 6.6629771486e-05 1.7848074006e+00 -3.0913770996e+00 1.7848074006e+00 3.0913770996e+00 
77600 5.9454493326e+00 6.6686548276e-05 1.7848074006e+00 -3.0913770996e+00 1.7848074006e+00 3.0913770996e+00 
77700 5.9454493329e+00 6.6750031502e-05 1.7848074006e+00 -3.0913770996e+00 1.7848074006e+00 3.0913770996e+00 
77800 5.9454493332e+00 6.6820073339e-05 1.7848074006e+00 -3.0913770996e+00 1.7848074006e+00 3.0913770996e+00 
77900 5.9454493335e+00 6.6896515192e-05 1.7848074006e+00 -3.0913770996e+00 1.7848074006e+00 3.0913770996e+00 
78000 5.9454493338e+00 6.6979188445e-05 1.7848074006e+00 -3.0913770996e+00 1.7848074006e+00 3.0913770996e+00 
78100 5.9454493341e+00 6.7067915183e-05 1.7848074006e+00 -3.0913770996e+00 1.7848074006e+00 3.0913770996e+00 
78200 5.9454493344e+00 6.7162508920e-05 1.7848074006e+00 -3.0913770996e+00 1.7848074006e+00 3.0913770996e+00 
78300 5.9454493347e+00 6.7262775311e-05 1.7848074006e+00 -3.0913770996e+00 1.7848074006e+00 3.0913770996e+00 
78400 5.9454493350e+00 6.7368512867e-05 1.7848074006e+00 -3.0913770996e+00 1.7848074006e+00 3.0913770996e+00 
78500 5.9454493353e+00 6.7479513643e-05 1.7848074006e+00 -3.0913770996e+00 1.7848074006e+00 3.0913770996e+00 
78600 5.9454493356e+00 6.7595563926e-05 1.7848074006e+00 -3.0913770996e+00 1.7848074006e+00 3.0913770996e+00 
78700 5.9454493359e+00 6.7716444894e-05 1.7848074006e+00 -3.0913770996e+00 1.7848074006e+00 3.0913770996e+00 
78800 5.9454493361e+00 6.7841933298e-05 1.7848074006e+00 -3.0913770996e+00 1.7848074006e+00 3.0913770996e+00 
78900 5.9454493364e+00 6.7971802085e-05 1.7848074006e+00 -3.0913770996e+00 1.7848074006e+00 3.0913770996e+00 
79000 5.9454493367e+00 6.8105821030e-05 1.7848074006e+00 -3.0913770996e+00 1.7848074006e+00 3.0913770996e+00 
79100 5.9454493369e+00 6.8243757359e-05 1.7848074006e+00 -3.0913770996e+00 1.7848074006e+00 3.0913770996e+00 
79200 5.9454493372e+00 6.8385376332e-05 1.7848074006e+00 -3.0913770996e+00 1.7848074006e+00 3.0913770996e+00 
79300 5.9454493375e+00 6.8530441825e-05 1.7848074006e+00 -3.0913770996e+00 1.7848074006e+00 3.0913770996e+00 
79400 5.9454493377e+00 6.8678716890e-05 1.7848074006e+00 -3.0913770996e+00 1.7848074006e+00 3.0913770996e+00 
79500 5.9454493380e+00 6.8829964298e-05 1.7848074006e+00 -3.0913770996e+00 1.7848074006e+00 3.0913770996e+00 
79600 5.9454493382e+00 6.8983947069e-05 1.7848074006e+00 -3.0913770996e+00 1.7848074006e+00 3.0913770996e+00 
79700 5.9454493384e+00 6.9140428958e-05 1.7848074006e+00 -3.0913770996e+00 1.7848074006e+00 3.0913770996e+00 
79800 5.9454493387e+00 6.9299174959e-05 1.7848074006e+00 -3.0913770996e+00 1.7848074006e+00 3.0913770996e+00 
79900 5.9454493389e+00 6.9459951753e-05 1.7848074006e+00 -3.0913770996e+00 1.7848074006e+00 3.0913770996e+00 
80000 5.9454493392e+00 6.9622528164e-05 1.7848074006e+00 -3.0913770996e+00 1.7848074006e+00 3.0913770996e+00 
80100 5.9454493394e+00 6.9786675576e-05 1.7848074006e+00 -3.0913770996e+00 1.7848074006e+00 3.0913770996e+00 
80200 5.9454493396e+00 6.9952168338e-05 1.7848074006e+00 -3.0913770996e+00 1.7848074006e+00 3.0913770996e+00 
80300 5.9454493399e+00 7.0118784147e-05 1.7848074006e+00 -3.0913770996e+00 1.7848074006e+00 3.0913770996e+00 
80400 5.9454493401e+00 7.0286304412e-05 1.7848074006e+00 -3.0913770996e+00 1.7848074006e+00 3.0913770996e+00 
80500 5.9454493403e+00 7.0454514592e-05 1.7848074006e+00 -3.0913770996e+00 1.7848074006e+00 3.0913770996e+00 
80600 5.9454493405e+00 7.0623204514e-05 1.7848074006e+00 -3.0913770996e+00 1.7848074006e+00 3.0913770996e+00 
80700 5.9454493407e+00 7.0792168682e-05 1.7848074006e+00 -3.0913770996e+00 1.7848074006e+00 3.0913770996e+00 
80800 5.9454493408e+00 6.9006295806e-05 1.7848054174e+00 -3.0913736646e+00 1.7848054174e+00 3.0913736646e+00 
80900 5.9454493410e+00 6.9165231336e-05 1.7848054174e+00 -3.0913736646e+00 1.7848054174e+00 3.0913736646e+00 
81000 5.9454493412e+00 6.9321978278e-05 1.7848054174e+00 -3.0913736646e+00 1.7848054174e+00 3.0913736646e+00 
81100 5.9454493414e+00 6.9476443157e-05 1.7848054174e+00 -3.0913736646e+00 1.7848054174e+00 3.0913736646e+00 
81200 5.9454493416e+00 6.9628538672e-05 1.7848054174e+00 -3.0913736646e+00 1.7848054174e+00 3.0913736646e+00 
81300 5.9454493418e+00 6.9778183688e-05 1.7848054174e+00 -3.0913736646e+00 1.7848054174e+00 3.0913736646e+00 
81400 5.9454493420e+00 6.9925303232e-05 1.7848054174e+00 -3.0913736646e+00 1.7848054174e+00 3.0913736646e+00 
81500 5.9454493422e+00 7.0069828442e-05 1.7848054174e+00 -3.0913736646e+00 1.7848054174e+00 3.0913736646e+00 
81600 5.9454493424e+00 7.0211696544e-05 1.7848054174e+00 -3.0913736646e+00 1.7848054174e+00 3.0913736646e+00 
81700 5.9454493426e+00 7.0350850780e-05 1.7848054174e+00 -3.0913736646e+00 1.7848054174e+00 3.0913736646e+00 
81800 5.9454493427e+00 7.0487240363e-05 1.7848054174e+00 -3.0913736646e+00 1.7848054174e+00 3.0913736646e+00 
81900 5.9454493429e+00 7.0620820374e-05 1.7848054174e+00 -3.0913736646e+00 1.7848054174e+00 3.0913736646e+00 
82000 5.9454493431e+00 7.0751551695e-05 1.7848054174e+00 -3.0913736646e+00 1.7848054174e+00 3.0913736646e+00 
82100 5.9454493431e+00 6.8925600973e-05 1.7848034354e+00 -3.0913702316e+00 1.7848034354e+00 3.0913702316e+00 
82200 5.9454493433e+00 6.9040565349e-05 1.7848034354e+00 -3.0913702316e+00 1.7848034354e+00 3.0913702316e+00 
82300 5.9454493435e+00 6.9150721470e-05 1.7848034354e+00 -3.0913702316e+00 1.7848034354e+00 3.0913702316e+00 
82400 5.9454493436e+00 6.9256143040e-05 1.7848034354e+00 -3.0913702316e+00 1.7848034354e+00 3.0913702316e+00 
82500 5.9454493438e+00 6.9356909292e-05 1.7848034354e+00 -3.0913702316e+00 1.7848034354e+00 3.0913702316e+00 
82600 5.9454493440e+00 6.9453104675e-05 1.7848034354e+00 -3.0913702316e+00 1.7848034354e+00 3.0913702316e+00 
82700 5.9454493441e+00 6.9544818531e-05 1.7848034354e+00 -3.0913702316e+00 1.7848034354e+00 3.0913702316e+00 
82800 5.9454493443e+00 6.9632144770e-05 1.7848034354e+00 -3.0913702316e+00 1.7848034354e+00 3.0913702316e+00 
82900 5.9454493445e+00 6.9715181559e-05 1.7848034354e+00 -3.0913702316e+00 1.7848034354e+00 3.0913702316e+00 
83000 5.9454493446e+00 6.9794030992e-05 1.7848034354e+00 -3.0913702316e+00 1.7848034354e+00 3.0913702316e+00 
83100 5.9454493448e+00 6.9868798781e-05 1.7848034354e+00 -3.0913702316e+00 1.7848034354e+00 3.0913702316e+00 
83200 5.9454493449e+00 6.9939593942e-05 1.7848034354e+00 -3.0913702316e+00 1.7848034354e+00 3.0913702316e+00 
83300 5.9454493451e+00 7.0006528484e-05 1.7848034354e+00 -3.0913702316e+00 1.7848034354e+00 3.0913702316e+00 
83400 5.9454493452e+00 7.0069717091e-05 1.7848034354e+00 -3.0913702316e+00 1.7848034354e+00 3.0913702316e+00 
83500 5.9454493454e+00 7.0129276838e-05 1.7848034354e+00 -3.0913702316e+00 1.7848034354e+00 3.0913702316e+00 
83600 5.9454493455e+00 7.0185326877e-05 1.7848034354e+00 -3.0913702316e+00 1.7848034354e+00 3.0913702316e+00 
83700 5.9454493457e+00 7.0237988159e-05 1.7848034354e+00 -3.0913702316e+00 1.7848034354e+00 3.0913702316e+00 
83800 5.9454493458e+00 7.0287383132e-05 1.7848034354e+00 -3.0913702316e+00 1.7848034354e+00 3.0913702316e+00 
83900 5.9454493460e+00 7.0333635469e-05 1.7848034354e+00 -3.0913702316e+00 1.7848034354e+00 3.0913702316e+00 
84000 5.9454493461e+00 7.0376869796e-05 1.7848034354e+00 -3.0913702316e+00 1.7848034354e+00 3.0913702316e+00 
84100 5.9454493462e+00 7.0417211418e-05 1.7848034354e+00 -3.0913702316e+00 1.7848034354e+00 3.0913702316e+00 
84200 5.9454493464e+00 7.0454786067e-05 1.7848034354e+00 -3.0913702316e+00 1.7848034354e+00 3.0913702316e+00 
84300 5.9454493465e+00 7.0489719643e-05 1.7848034354e+00 -3.0913702316e+00 1.7848034354e+00 3.0913702316e+00 
84400 5.9454493466e+00 7.0522137969e-05 1.7848034354e+00 -3.0913702316e+00 1.7848034354e+00 3.0913702316e+00 
84500 5.9454493468e+00 7.0552166564e-05 1.7848034354e+00 -3.0913702316e+00 1.7848034354e+00 3.0913702316e+00 
84600 5.9454493469e+00 7.0579930403e-05 1.7848034354e+00 -3.0913702316e+00 1.7848034354e+00 3.0913702316e+00 
84700 5.9454493470e+00 7.0605553708e-05 1.7848034354e+00 -3.0913702316e+00 1.7848034354e+00 3.0913702316e+00 
84800 5.9454493471e+00 7.0629159725e-05 1.7848034354e+00 -3.0913702316e+00 1.7848034354e+00 3.0913702316e+00 
84900 5.9454493473e+00 7.0650870537e-05 1.7848034354e+00 -3.0913702316e+00 1.7848034354e+00 3.0913702316e+00 
85000 5.9454493474e+00 7.0670806856e-05 1.7848034354e+00 -3.0913702316e+00 1.7848034354e+00 3.0913702316e+00 
85100 5.9454493475e+00 7.0689087853e-05 1.7848034354e+00 -3.0913702316e+00 1.7848034354e+00 3.0913702316e+00 
85200 5.9454493476e+00 7.0705830965e-05 1.7848034354e+00 -3.0913702316e+00 1.7848034354e+00 3.0913702316e+00 
85300 5.9454493477e+00 7.0721151751e-05 1.7848034354e+00 -3.0913702316e+00 1.7848034354e+00 3.0913702316e+00 
85400 5.9454493477e+00 6.8782194536e-05 1.7848014542e+00 -3.0913668000e+00 1.7848014542e+00 3.0913668000e+00 
85500 5.9454493478e+00 6.8785038425e-05 1.7848014542e+00 -3.0913668000e+00 1.7848014542e+00 3.0913668000e+00 
85600 5.9454493479e+00 6.8784918656e-05 1.7848014542e+00 -3.0913668000e+00 1.7848014542e+00 3.0913668000e+00 
85700 5.9454493480e+00 6.8782032404e-05 1.7848014542e+00 -3.0913668000e+00 1.7848014542e+00 3.0913668000e+00 
85800 5.9454493481e+00 6.8776574573e-05 1.7848014542e+00 -3.0913668000e+00 1.7848014542e+00 3.0913668000e+00 
85900 5.9454493483e+00 6.8768737496e-05 1.7848014542e+00 -3.0913668000e+00 1.7848014542e+00 3.0913668000e+00 
86000 5.9454493484e+00 6.8758710657e-05 1.7848014542e+00 -3.0913668000e+00 1.7848014542e+00 3.0913668000e+00 
86100 5.9454493485e+00 6.8746680425e-05 1.7848014542e+00 -3.0913668000e+00 1.7848014542e+00 3.0913668000e+00 
86200 5.9454493486e+00 6.8732829805e-05 1.7848014542e+00 -3.0913668000e+00 1.7848014542e+00 3.0913668000e+00 
86300 5.9454493487e+00 6.8717338208e-05 1.7848014542e+00 -3.0913668000e+00 1.7848014542e+00 3.0913668000e+00 
86400 5.9454493488e+00 6.8700381216e-05 1.7848014542e+00 -3.0913668000e+00 1.7848014542e+00 3.0913668000e+00 
86500 5.9454493489e+00 6.8682130388e-05 1.7848014542e+00 -3.0913668000e+00 1.7848014542e+00 3.0913668000e+00 
86600 5.9454493490e+00 6.8662753062e-05 1.7848014542e+00 -3.0913668000e+00 1.7848014542e+00 3.0913668000e+00 
86700 5.9454493491e+00 6.8642412190e-05 1.7848014542e+00 -3.0913668000e+00 1.7848014542e+00 3.0913668000e+00 
86800 5.9454493492e+00 6.8621266154e-05 1.7848014542e+00 -3.0913668000e+00 1.7848014542e+00 3.0913668000e+00 
86900 5.9454493493e+00 6.8599468644e-05 1.7848014542e+00 -3.0913668000e+00 1.7848014542e+00 3.0913668000e+00 
87000 5.9454493494e+00 6.8577168503e-05 1.7848014542e+00 -3.0913668000e+00 1.7848014542e+00 3.0913668000e+00 
87100 5.9454493494e+00 6.8554509623e-05 1.7848014542e+00 -3.0913668000e+00 1.7848014542e+00 3.0913668000e+00 
87200 5.9454493495e+00 6.8531630825e-05 1.7848014542e+00 -3.0913668000e+00 1.7848014542e+00 3.0913668000e+00 
87300 5.9454493496e+00 6.8508665783e-05 1.7848014542e+00 -3.0913668000e+00 1.7848014542e+00 3.0913668000e+00 
87400 5.9454493497e+00 6.8485742928e-05 1.7848014542e+00 -3.0913668000e+00 1.7848014542e+00 3.0913668000e+00 
87500 5.9454493498e+00 6.8462985394e-05 1.7848014542e+00 -3.0913668000e+00 1.7848014542e+00 3.0913668000e+00 
87600 5.9454493499e+00 6.8440510967e-05 1.7848014542e+00 -3.0913668000e+00 1.7848014542e+00 3.0913668000e+00 
87700 5.9454493500e+00 6.8418432020e-05 1.7848014542e+00 -3.0913668000e+00 1.7848014542e+00 3.0913668000e+00 
87800 5.9454493501e+00 6.8396855519e-05 1.7848014542e+00 -3.0913668000e+00 1.7848014542e+00 3.0913668000e+00 
87900 5.9454493501e+00 6.8375882983e-05 1.7848014542e+00 -3.0913668000e+00 1.7848014542e+00 3.0913668000e+00 
88000 5.9454493502e+00 6.8355610481e-05 1.7848014542e+00 -3.0913668000e+00 1.7848014542e+00 3.0913668000e+00 
88100 5.9454493503e+00 6.8336128642e-05 1.7848014542e+00 -3.0913668000e+00 1.7848014542e+00 3.0913668000e+00 
88200 5.9454493504e+00 6.8317522668e-05 1.7848014542e+00 -3.0913668000e+00 1.7848014542e+00 3.0913668000e+00 
88300 5.9454493505e+00 6.8299872358e-05 1.7848014542e+00 -3.0913668000e+00 1.7848014542e+00 3.0913668000e+00 
88400 5.9454493505e+00 6.8283252149e-05 1.7848014542e+00 -3.0913668000e+00 1.7848014542e+00 3.0913668000e+00 
88500 5.9454493506e+00 6.8267731153e-05 1.7848014542e+00 -3.0913668000e+00 1.7848014542e+00 3.0913668000e+00 
88600 5.9454493507e+00 6.8253373219e-05 1.7848014542e+00 -3.0913668000e+00 1.7848014542e+00 3.0913668000e+00 
88700 5.9454493508e+00 6.8240236993e-05 1.7848014542e+00 -3.0913668000e+00 1.7848014542e+00 3.0913668000e+00 
88800 5.9454493508e+00 6.8228375986e-05 1.7848014542e+00 -3.0913668000e+00 1.7848014542e+00 3.0913668000e+00 
88900 5.9454493509e+00 6.8217838651e-05 1.7848014542e+00 -3.0913668000e+00 1.7848014542e+00 3.0913668000e+00 
89000 5.9454493510e+00 6.8208668481e-05 1.7848014542e+00 -3.0913668000e+00 1.7848014542e+00 3.0913668000e+00 
89100 5.9454493511e+00 6.8200904084e-05 1.7848014542e+00 -3.0913668000e+00 1.7848014542e+00 3.0913668000e+00 
89200 5.9454493511e+00 6.8194579299e-05 1.7848014542e+00 -3.0913668000e+00 1.7848014542e+00 3.0913668000e+00 
89300 5.9454493512e+00 6.8189723288e-05 1.7848014542e+00 -3.0913668000e+00 1.7848014542e+00 3.0913668000e+00 
89400 5.9454493513e+00 6.8186360658e-05 1.7848014542e+00 -3.0913668000e+00 1.7848014542e+00 3.0913668000e+00 
89500 5.9454493513e+00 6.8184511567e-05 1.7848014542e+00 -3.0913668000e+00 1.7848014542e+00 3.0913668000e+00 
89600 5.9454493514e+00 6.8184191853e-05 1.7848014542e+00 -3.0913668000e+00 1.7848014542e+00 3.0913668000e+00 
89700 5.9454493515e+00 6.8185413154e-05 1.7848014542e+00 -3.0913668000e+00 1.7848014542e+00 3.0913668000e+00 
89800 5.9454493515e+00 6.8188183042e-05 1.7848014542e+00 -3.0913668000e+00 1.7848014542e+00 3.0913668000e+00 
89900 5.9454493516e+00 6.8192505152e-05 1.7848014542e+00 -3.0913668000e+00 1.7848014542e+00 3.0913668000e+00 
90000 5.9454493517e+00 6.8198379321e-05 1.7848014542e+00 -3.0913668000e+00 1.7848014542e+00 3.0913668000e+00 
90100 5.9454493517e+00 6.8205801724e-05 1.7848014542e+00 -3.0913668000e+00 1.7848014542e+00 3.0913668000e+00 
90200 5.9454493518e+00 6.8214765024e-05 1.7848014542e+00 -3.0913668000e+00 1.7848014542e+00 3.0913668000e+00 
90300 5.9454493519e+00 6.8225258504e-05 1.7848014542e+00 -3.0913668000e+00 1.7848014542e+00 3.0913668000e+00 
90400 5.9454493519e+00 6.8237268218e-05 1.7848014542e+00 -3.0913668000e+00 1.7848014542e+00 3.0913668000e+00 
90500 5.9454493520e+00 6.8250777141e-05 1.7848014542e+00 -3.0913668000e+00 1.7848014542e+00 3.0913668000e+00 
90600 5.9454493520e+00 6.8265765311e-05 1.7848014542e+00 -3.0913668000e+00 1.7848014542e+00 3.0913668000e+00 
90700 5.9454493521e+00 6.8282209982e-05 1.7848014542e+00 -3.0913668000e+00 1.7848014542e+00 3.0913668000e+00 
90800 5.9454493521e+00 6.8300085768e-05 1.7848014542e+00 -3.0913668000e+00 1.7848014542e+00 3.0913668000e+00 
90900 5.9454493522e+00 6.8319364796e-05 1.7848014542e+00 -3.0913668000e+00 1.7848014542e+00 3.0913668000e+00 
91000 5.9454493523e+00 6.8340016856e-05 1.7848014542e+00 -3.0913668000e+00 1.7848014542e+00 3.0913668000e+00 
91100 5.9454493523e+00 6.8362009543e-05 1.7848014542e+00 -3.0913668000e+00 1.7848014542e+00 3.0913668000e+00 
91200 5.9454493524e+00 6.8385308412e-05 1.7848014542e+00 -3.0913668000e+00 1.7848014542e+00 3.0913668000e+00 
91300 5.9454493524e+00 6.8409877117e-05 1.7848014542e+00 -3.0913668000e+00 1.7848014542e+00 3.0913668000e+00 
91400 5.9454493525e+00 6.8435677560e-05 1.7848014542e+00 -3.0913668000e+00 1.7848014542e+00 3.0913668000e+00 
91500 5.9454493525e+00 6.8462670035e-05 1.7848014542e+00 -3.0913668000e+00 1.7848014542e+00 3.0913668000e+00 
91600 5.9454493526e+00 6.8490813371e-05 1.7848014542e+00 -3.0913668000e+00 1.7848014542e+00 3.0913668000e+00 
91700 5.9454493526e+00 6.8520065066e-05 1.7848014542e+00 -3.0913668000e+00 1.7848014542e+00 3.0913668000e+00 
91800 5.9454493527e+00 6.8550381423e-05 1.7848014542e+00 -3.0913668000e+00 1.7848014542e+00 3.0913668000e+00 
91900 5.9454493527e+00 6.8581717695e-05 1.7848014542e+00 -3.0913668000e+00 1.7848014542e+00 3.0913668000e+00 
92000 5.9454493528e+00 6.8614028208e-05 1.7848014542e+00 -3.0913668000e+00 1.7848014542e+00 3.0913668000e+00 
92100 5.9454493528e+00 6.8627877990e-05 1.7848014542e+00 -3.0913668000e+00 1.7848014542e+00 3.0913668000e+00 
92100 5.9454493528e+00 6.8627877990e-05 1.7848014542e+00 -3.0913668000e+00 1.7848014542e+00 3.0913668000e+00 
