# step Hamiltonian StressXX CellTensor1 CellTensor2 CellTensor3 CellTensor4 
0 6.9308450912e+00 1.5665858378e-01 2.5594246509e+00 -4.4330535334e+00 2.5594246509e+00 4.4330535334e+00 
100 6.9533994130e+00 1.7311605803e-01 2.5594246509e+00 -4.4330535334e+00 2.5594246509e+00 4.4330535334e+00 
200 6.9747657606e+00 1.8885206669e-01 2.5560434636e+00 -4.4271971452e+00 2.5560434636e+00 4.4271971452e+00 
300 6.9951885982e+00 2.0436139450e-01 2.5523501283e+00 -4.4208001009e+00 2.5523501283e+00 4.4208001009e+00 
400 7.0145373578e+00 2.1956907379e-01 2.5483477799e+00 -4.4138678302e+00 2.5483477799e+00 4.4138678302e+00 
500 7.0326830444e+00 2.3437695944e-01 2.5440409285e+00 -4.4064081447e+00 2.5440409285e+00 4.4064081447e+00 
600 7.0495016472e+00 2.4866558006e-01 2.5394359299e+00 -4.3984320531e+00 2.5394359299e+00 4.3984320531e+00 
700 7.0648789307e+00 2.6229858809e-01 2.5345414271e+00 -4.3899545257e+00 2.5345414271e+00 4.3899545257e+00 
800 7.0787167353e+00 2.7513071970e-01 2.5293687132e+00 -4.3809951224e+00 2.5293687132e+00 4.3809951224e+00 
900 7.0909405192e+00 2.8701964335e-01 2.5239319434e+00 -4.3715783609e+00 2.5239319434e+00 4.3715783609e+00 
1000 7.1015073093e+00 2.9784103820e-01 2.5182481207e+00 -4.3617336912e+00 2.5182481207e+00 4.3617336912e+00 
1100 7.1104126373e+00 3.0750483835e-01 2.5123367852e+00 -4.3514949577e+00 2.5123367852e+00 4.3514949577e+00 
1200 7.1176946824e+00 3.1596929618e-01 2.5062193790e+00 -4.3408992994e+00 2.5062193790e+00 4.3408992994e+00 
1300 7.1234340220e+00 3.2324909646e-01 2.4999183244e+00 -4.3299855526e+00 2.4999183244e+00 4.3299855526e+00 
1400 7.1277482490e+00 3.2941477800e-01 2.4934559251e+00 -4.3187923487e+00 2.4934559251e+00 4.3187923487e+00 
1500 7.1307820422e+00 3.3458309152e-01 2.4868532629e+00 -4.3073562023e+00 2.4868532629e+00 4.3073562023e+00 
1600 7.1326945556e+00 3.3890068525e-01 2.4801292667e+00 -4.2957098992e+00 2.4801292667e+00 4.2957098992e+00 
1700 7.1336466324e+00 3.4252535399e-01 2.4733000933e+00 -4.2838814240e+00 2.4733000933e+00 4.2838814240e+00 
1800 7.1337901050e+00 3.4560920264e-01 2.4663788734e+00 -4.2718935194e+00 2.4663788734e+00 4.2718935194e+00 
1900 7.1332605225e+00 3.4828665962e-01 2.4593757907e+00 -4.2597638244e+00 2.4593757907e+00 4.2597638244e+00 
2000 7.1321735457e+00 3.5066825351e-01 2.4522984044e+00 -4.2475054317e+00 2.4522984044e+00 4.2475054317e+00 
2100 7.1306244052e+00 3.5283939619e-01 2.4451521012e+00 -4.2351276715e+00 2.4451521012e+00 4.2351276715e+00 
2200 7.1286894344e+00 3.5486257115e-01 2.4379405793e+00 -4.2226369492e+00 2.4379405793e+00 4.2226369492e+00 
2300 7.1264286901e+00 3.5678125241e-01 2.4306662945e+00 -4.2100375183e+00 2.4306662945e+00 4.2100375183e+00 
2400 7.1238889006e+00 3.5862425710e-01 2.4233308333e+00 -4.1973321269e+00 2.4233308333e+00 4.1973321269e+00 
2500 7.1211062619e+00 3.6040973794e-01 2.4159352027e+00 -4.1845225189e+00 2.4159352027e+00 4.1845225189e+00 
2600 7.1181088476e+00 3.6214845284e-01 2.4084800419e+00 -4.1716098016e+00 2.4084800419e+00 4.1716098016e+00 
2700 7.1149185591e+00 3.6384623704e-01 2.4009657706e+00 -4.1585947018e+00 2.4009657706e+00 4.1585947018e+00 
2800 7.1115526401e+00 3.6550575829e-01 2.3933926876e+00 -4.1454777374e+00 2.3933926876e+00 4.1454777374e+00 
2900 7.1080248212e+00 3.6712769596e-01 2.3857610359e+00 -4.1322593289e+00 2.3857610359e+00 4.1322593289e+00 
3000 7.1043461698e+00 3.6871149062e-01 2.3780710427e+00 -4.1189398699e+00 2.3780710427e+00 4.1189398699e+00 
3100 7.1005257167e+00 3.7025579085e-01 2.3703229456e+00 -4.1055197721e+00 2.3703229456e+00 4.1055197721e+00 
3200 7.0965709176e+00 3.7175869618e-01 2.3625170095e+00 -4.0919994942e+00 2.3625170095e+00 4.0919994942e+00 
3300 7.0924879964e+00 3.7321786853e-01 2.3546535389e+00 -4.0783795635e+00 2.3546535389e+00 4.0783795635e+00 
3400 7.0882822044e+00 3.7463056263e-01 2.3467328873e+00 -4.0646605926e+00 2.3467328873e+00 4.0646605926e+00 
3500 7.0839580204e+00 3.7599360937e-01 2.3387554676e+00 -4.0508432963e+00 2.3387554676e+00 4.0508432963e+00 
3600 7.0795193114e+00 3.7730337416e-01 2.3307217614e+00 -4.0369285091e+00 2.3307217614e+00 4.0369285091e+00 
3700 7.0749694651e+00 3.7855570436e-01 2.3226323310e+00 -4.0229172046e+00 2.3226323310e+00 4.0229172046e+00 
3800 7.0703115038e+00 3.7974587491e-01 2.3144878315e+00 -4.0088105177e+00 2.3144878315e+00 4.0088105177e+00 
3900 7.0655481882e+00 3.8086853746e-01 2.3062890253e+00 -3.9946097688e+00 2.3062890253e+00 3.9946097688e+00 
4000 7.0606821118e+00 3.8191767681e-01 2.2980367975e+00 -3.9803164909e+00 2.2980367975e+00 3.9803164909e+00 
4100 7.0557157932e+00 3.8288657712e-01 2.2897321725e+00 -3.9659324585e+00 2.2897321725e+00 3.9659324585e+00 
4200 7.0506517652e+00 3.8376779974e-01 2.2813763327e+00 -3.9514597194e+00 2.2813763327e+00 3.9514597194e+00 
4300 7.0454926645e+00 3.8455317420e-01 2.2729706367e+00 -3.9369006269e+00 2.2729706367e+00 3.9369006269e+00 
4400 7.0402413203e+00 3.8523380395e-01 2.2645166394e+00 -3.9222578740e+00 2.2645166394e+00 3.9222578740e+00 
4500 7.0349008444e+00 3.8580008817e-01 2.2560161117e+00 -3.9075345282e+00 2.2560161117e+00 3.9075345282e+00 
4600 7.0294747214e+00 3.8624176082e-01 2.2474710606e+00 -3.8927340655e+00 2.2474710606e+00 3.8927340655e+00 
4700 7.0239668977e+00 3.8654794821e-01 2.2388837488e+00 -3.8778604052e+00 2.2388837488e+00 3.8778604052e+00 
4800 7.0183818694e+00 3.8670724579e-01 2.2302567135e+00 -3.8629179418e+00 2.2302567135e+00 3.8629179418e+00 
4900 7.0127247676e+00 3.8670781466e-01 2.2215927842e+00 -3.8479115760e+00 2.2215927842e+00 3.8479115760e+00 
5000 7.0070014379e+00 3.8653749769e-01 2.2128950983e+00 -3.8328467421e+00 2.2128950983e+00 3.8328467421e+00 
5100 7.0012185136e+00 3.8618395452e-01 2.2041671150e+00 -3.8177294316e+00 2.2041671150e+00 3.8177294316e+00 
5200 6.9953834794e+00 3.8563481399e-01 2.1954126263e+00 -3.8025662123e+00 2.1954126263e+00 3.8025662123e+00 
5300 6.9895047232e+00 3.8487784165e-01 2.1866357646e+00 -3.7873642419e+00 2.1866357646e+00 3.7873642419e+00 
5400 6.9835915737e+00 3.8390111926e-01 2.1778410071e+00 -3.7721312751e+00 2.1778410071e+00 3.7721312751e+00 
5500 6.9776543203e+00 3.8269323226e-01 2.1690331758e+00 -3.7568756638e+00 2.1690331758e+00 3.7568756638e+00 
5600 6.9717042146e+00 3.8124346060e-01 2.1602174332e+00 -3.7416063497e+00 2.1602174332e+00 3.7416063497e+00 
5700 6.9657534500e+00 3.7954196758e-01 2.1513992736e+00 -3.7263328493e+00 2.1513992736e+00 3.7263328493e+00 
5800 6.9598151190e+00 3.7757998122e-01 2.1425845095e+00 -3.7110652299e+00 2.1425845095e+00 3.7110652299e+00 
5900 6.9539031467e+00 3.7534996244e-01 2.1337792532e+00 -3.6958140786e+00 2.1337792532e+00 3.6958140786e+00 
6000 6.9480322007e+00 3.7284575464e-01 2.1249898943e+00 -3.6805904625e+00 2.1249898943e+00 3.6805904625e+00 
6100 6.9422175784e+00 3.7006270989e-01 2.1162230727e+00 -3.6654058821e+00 2.1162230727e+00 3.6654058821e+00 
6200 6.9364750726e+00 3.6699778750e-01 2.1074856473e+00 -3.6502722173e+00 2.1074856473e+00 3.6502722173e+00 
6300 6.9308208189e+00 3.6364962229e-01 2.0987846620e+00 -3.6352016687e+00 2.0987846620e+00 3.6352016687e+00 
6400 6.9252711271e+00 3.6001856059e-01 2.0901273087e+00 -3.6202066929e+00 2.0901273087e+00 3.6202066929e+00 
6500 6.9198423006e+00 3.5610666369e-01 2.0815208880e+00 -3.6052999351e+00 2.0815208880e+00 3.6052999351e+00 
6600 6.9145504494e+00 3.5191767974e-01 2.0729727693e+00 -3.5904941591e+00 2.0729727693e+00 3.5904941591e+00 
6700 6.9094112992e+00 3.4745698610e-01 2.0644903490e+00 -3.5758021762e+00 2.0644903490e+00 3.5758021762e+00 
6800 6.9044400025e+00 3.4273150532e-01 2.0560810102e+00 -3.5612367742e+00 2.0560810102e+00 3.5612367742e+00 
6900 6.8996509569e+00 3.3774959878e-01 2.0477520823e+00 -3.5468106478e+00 2.0477520823e+00 3.5468106478e+00 
7000 6.8950576331e+00 3.3252094228e-01 2.0395108019e+00 -3.5325363314e+00 2.0395108019e+00 3.5325363314e+00 
7100 6.8906724172e+00 3.2705638832e-01 2.0313642763e+00 -3.5184261352e+00 2.0313642763e+00 3.5184261352e+00 
7200 6.8865064714e+00 3.2136781974e-01 2.0233194486e+00 -3.5044920849e+00 2.0233194486e+00 3.5044920849e+00 
7300 6.8825696131e+00 3.1546799883e-01 2.0153830656e+00 -3.4907458663e+00 2.0153830656e+00 3.4907458663e+00 
7400 6.8788702171e+00 3.0937041615e-01 2.0075616487e+00 -3.4771987749e+00 2.0075616487e+00 3.4771987749e+00 
7500 6.8754151393e+00 3.0308914213e-01 1.9998614678e+00 -3.4638616704e+00 1.9998614678e+00 3.4638616704e+00 
7600 6.8722096641e+00 2.9663868439e-01 1.9922885181e+00 -3.4507449367e+00 1.9922885181e+00 3.4507449367e+00 
7700 6.8692574743e+00 2.9003385281e-01 1.9848485001e+00 -3.4378584476e+00 1.9848485001e+00 3.4378584476e+00 
7800 6.8665606431e+00 2.8328963386e-01 1.9775468028e+00 -3.4252115368e+00 1.9775468028e+00 3.4252115368e+00 
7900 6.8641196469e+00 2.7642107526e-01 1.9703884893e+00 -3.4128129741e+00 1.9703884893e+00 3.4128129741e+00 
8000 6.8619333973e+00 2.6944318146e-01 1.9633782858e+00 -3.4006709455e+00 1.9633782858e+00 3.4006709455e+00 
8100 6.8599992912e+00 2.6237082004e-01 1.9565205730e+00 -3.3887930385e+00 1.9565205730e+00 3.3887930385e+00 
8200 6.8583132754e+00 2.5521863898e-01 1.9498193798e+00 -3.3771862315e+00 1.9498193798e+00 3.3771862315e+00 
8300 6.8568699262e+00 2.4800099439e-01 1.9432783796e+00 -3.3658568866e+00 1.9432783796e+00 3.3658568866e+00 
8400 6.8556625391e+00 2.4073188815e-01 1.9369008881e+00 -3.3548107475e+00 1.9369008881e+00 3.3548107475e+00 
8500 6.8546832293e+00 2.3342491502e-01 1.9306898644e+00 -3.3440529389e+00 1.9306898644e+00 3.3440529389e+00 
8600 6.8539230388e+00 2.2609321830e-01 1.9246479121e+00 -3.3335879705e+00 1.9246479121e+00 3.3335879705e+00 
8700 6.8533720495e+00 2.1874945361e-01 1.9187772834e+00 -3.3234197432e+00 1.9187772834e+00 3.3234197432e+00 
8800 6.8530194998e+00 2.1140576001e-01 1.9130798837e+00 -3.3135515575e+00 1.9130798837e+00 3.3135515575e+00 
8900 6.8528539041e+00 2.0407373780e-01 1.9075572783e+00 -3.3039861244e+00 1.9075572783e+00 3.3039861244e+00 
9000 6.8528631722e+00 1.9676443244e-01 1.9022106999e+00 -3.2947255789e+00 1.9022106999e+00 3.2947255789e+00 
9100 6.8530347282e+00 1.8948832395e-01 1.8970410563e+00 -3.2857714936e+00 1.8970410563e+00 3.2857714936e+00 
9200 6.8533556277e+00 1.8225532124e-01 1.8920489409e+00 -3.2771248960e+00 1.8920489409e+00 3.2771248960e+00 
9300 6.8538126716e+00 1.7507476095e-01 1.8872346415e+00 -3.2687862849e+00 1.8872346415e+00 3.2687862849e+00 
9400 6.8543925161e+00 1.6795541012e-01 1.8825981521e+00 -3.2607556497e+00 1.8825981521e+00 3.2607556497e+00 
9500 6.8550817776e+00 1.6090547244e-01 1.8781391834e+00 -3.2530324893e+00 1.8781391834e+00 3.2530324893e+00 
9600 6.8558671321e+00 1.5393259750e-01 1.8738571747e+00 -3.2456158326e+00 1.8738571747e+00 3.2456158326e+00 
9700 6.8567354087e+00 1.4704389273e-01 1.8697513057e+00 -3.2385042590e+00 1.8697513057e+00 3.2385042590e+00 
9800 6.8576736761e+00 1.4024593755e-01 1.8658205091e+00 -3.2316959195e+00 1.8658205091e+00 3.2316959195e+00 
9900 6.8586693223e+00 1.3354479954e-01 1.8620634821e+00 -3.2251885579e+00 1.8620634821e+00 3.2251885579e+00 
10000 6.8597101273e+00 1.2694605205e-01 1.8584786995e+00 -3.2189795323e+00 1.8584786995e+00 3.2189795323e+00 
10100 6.8607843279e+00 1.2045479322e-01 1.8550644258e+00 -3.2130658368e+00 1.8550644258e+00 3.2130658368e+00 
10200 6.8618806753e+00 1.1407566581e-01 1.8518187273e+00 -3.2074441221e+00 1.8518187273e+00 3.2074441221e+00 
10300 6.8629884856e+00 1.0781287790e-01 1.8487394845e+00 -3.2021107172e+00 1.8487394845e+00 3.2021107172e+00 
10400 6.8640976822e+00 1.0167022389e-01 1.8458244039e+00 -3.1970616494e+00 1.8458244039e+00 3.1970616494e+00 
10500 6.8651988313e+00 9.5651105786e-02 1.8430710298e+00 -3.1922926655e+00 1.8430710298e+00 3.1922926655e+00 
10600 6.8662831709e+00 8.9758554519e-02 1.8404767557e+00 -3.1877992510e+00 1.8404767557e+00 3.1877992510e+00 
10700 6.8673426316e+00 8.3995251031e-02 1.8380388355e+00 -3.1835766494e+00 1.8380388355e+00 3.1835766494e+00 
10800 6.8683698525e+00 7.8363547062e-02 1.8357543945e+00 -3.1796198814e+00 1.8357543945e+00 3.1796198814e+00 
10900 6.8693581896e+00 7.2865485441e-02 1.8336204395e+00 -3.1759237630e+00 1.8336204395e+00 3.1759237630e+00 
11000 6.8703017192e+00 6.7502819775e-02 1.8316338694e+00 -3.1724829226e+00 1.8316338694e+00 3.1724829226e+00 
11100 6.8711952354e+00 6.2277033420e-02 1.8297914845e+00 -3.1692918185e+00 1.8297914845e+00 3.1692918185e+00 
11200 6.8720342425e+00 5.7189357663e-02 1.8280899964e+00 -3.1663447545e+00 1.8280899964e+00 3.1663447545e+00 
11300 6.8728149431e+00 5.2240789040e-02 1.8265260363e+00 -3.1636358962e+00 1.8265260363e+00 3.1636358962e+00 
11400 6.8735342214e+00 4.7432105736e-02 1.8250961643e+00 -3.1611592853e+00 1.8250961643e+00 3.1611592853e+00 
11500 6.8741896231e+00 4.2763883041e-02 1.8237968774e+00 -3.1589088543e+00 1.8237968774e+00 3.1589088543e+00 
11600 6.8747793315e+00 3.8236507833e-02 1.8226246169e+00 -3.1568784397e+00 1.8226246169e+00 3.1568784397e+00 
11700 6.8753021410e+00 3.3850192083e-02 1.8215757768e+00 -3.1550617952e+00 1.8215757768e+00 3.1550617952e+00 
11800 6.8757574277e+00 2.9604985382e-02 1.8206467099e+00 -3.1534526042e+00 1.8206467099e+00 3.1534526042e+00 
11900 6.8761451174e+00 2.5500786508e-02 1.8198337356e+00 -3.1520444914e+00 1.8198337356e+00 3.1520444914e+00 
12000 6.8764656526e+00 2.1537354050e-02 1.8191331455e+00 -3.1508310338e+00 1.8191331455e+00 3.1508310338e+00 
12100 6.8767199573e+00 1.7714316125e-02 1.8185412101e+00 -3.1498057716e+00 1.8185412101e+00 3.1498057716e+00 
12200 6.8769094009e+00 1.4031179208e-02 1.8180541844e+00 -3.1489622184e+00 1.8180541844e+00 3.1489622184e+00 
12300 6.8770357614e+00 1.0487336142e-02 1.8176683136e+00 -3.1482938704e+00 1.8176683136e+00 3.1482938704e+00 
12400 6.8771011877e+00 7.0820733396e-03 1.8173798380e+00 -3.1477942161e+00 1.8173798380e+00 3.1477942161e+00 
12500 6.8771081622e+00 3.8145772573e-03 1.8171849985e+00 -3.1474567442e+00 1.8171849985e+00 3.1474567442e+00 
12600 6.8770594630e+00 6.8394016311e-04 1.8170800411e+00 -3.1472749526e+00 1.8170800411e+00 3.1472749526e+00 
12700 6.8769581269e+00 -2.3108347338e-03 1.8170612214e+00 -3.1472423559e+00 1.8170612214e+00 3.1472423559e+00 
12800 6.8768074120e+00 -5.1708287473e-03 1.8171248089e+00 -3.1473524927e+00 1.8171248089e+00 3.1473524927e+00 
12900 6.8766107625e+00 -7.8972037213e-03 1.8172670913e+00 -3.1475989330e+00 1.8172670913e+00 3.1475989330e+00 
13000 6.8763717729e+00 -1.0491198528e-02 1.8174843780e+00 -3.1479752847e+00 1.8174843780e+00 3.1479752847e+00 
13100 6.8760941544e+00 -1.2954126008e-02 1.8177730043e+00 -3.1484752001e+00 1.8177730043e+00 3.1484752001e+00 
13200 6.8757817019e+00 -1.5287370312e-02 1.8181293345e+00 -3.1490923822e+00 1.8181293345e+00 3.1490923822e+00 
13300 6.8754382630e+00 -1.7492384584e-02 1.8185497656e+00 -3.1498205900e+00 1.8185497656e+00 3.1498205900e+00 
13400 6.8750677075e+00 -1.9570688960e-02 1.8190307300e+00 -3.1506536449e+00 1.8190307300e+00 3.1506536449e+00 
13500 6.8746738997e+00 -2.1523868827e-02 1.8195686993e+00 -3.1515854350e+00 1.8195686993e+00 3.1515854350e+00 
13600 6.8742606715e+00 -2.3353573317e-02 1.8201601866e+00 -3.1526099210e+00 1.8201601866e+00 3.1526099210e+00 
13700 6.8738317973e+00 -2.5061513986e-02 1.8208017495e+00 -3.1537211406e+00 1.8208017495e+00 3.1537211406e+00 
13800 6.8733909713e+00 -2.6649463653e-02 1.8214899928e+00 -3.1549132129e+00 1.8214899928e+00 3.1549132129e+00 
13900 6.8729417861e+00 -2.8119255370e-02 1.8222215709e+00 -3.1561803435e+00 1.8222215709e+00 3.1561803435e+00 
14000 6.8724877128e+00 -2.9472781485e-02 1.8229931906e+00 -3.1575168279e+00 1.8229931906e+00 3.1575168279e+00 
14100 6.8720320839e+00 -3.0711992782e-02 1.8238016126e+00 -3.1589170560e+00 1.8238016126e+00 3.1589170560e+00 
14200 6.8715780773e+00 -3.1838897663e-02 1.8246436547e+00 -3.1603755157e+00 1.8246436547e+00 3.1603755157e+00 
14300 6.8711287025e+00 -3.2855561359e-02 1.8255161932e+00 -3.1618867966e+00 1.8255161932e+00 3.1618867966e+00 
14400 6.8706867881e+00 -3.3764105145e-02 1.8264161649e+00 -3.1634455934e+00 1.8264161649e+00 3.1634455934e+00 
14500 6.8702549720e+00 -3.4566705542e-02 1.8273405695e+00 -3.1650467092e+00 1.8273405695e+00 3.1650467092e+00 
14600 6.8698356926e+00 -3.5265593489e-02 1.8282864711e+00 -3.1666850587e+00 1.8282864711e+00 3.1666850587e+00 
14700 6.8694311818e+00 -3.5863053463e-02 1.8292509997e+00 -3.1683556713e+00 1.8292509997e+00 3.1683556713e+00 
14800 6.8690434601e+00 -3.6361422550e-02 1.8302313533e+00 -3.1700536935e+00 1.8302313533e+00 3.1700536935e+00 
14900 6.8686743327e+00 -3.6763089435e-02 1.8312247990e+00 -3.1717743919e+00 1.8312247990e+00 3.1717743919e+00 
15000 6.8683253878e+00 -3.7070493310e-02 1.8322286748e+00 -3.1735131559e+00 1.8322286748e+00 3.1735131559e+00 
15100 6.8679979959e+00 -3.7286122689e-02 1.8332403909e+00 -3.1752654995e+00 1.8332403909e+00 3.1752654995e+00 
15200 6.8676933105e+00 -3.7412514115e-02 1.8342574306e+00 -3.1770270640e+00 1.8342574306e+00 3.1770270640e+00 
15300 6.8674122705e+00 -3.7452250759e-02 1.8352773523e+00 -3.1787936202e+00 1.8352773523e+00 3.1787936202e+00 
15400 6.8671556039e+00 -3.7407960894e-02 1.8362977899e+00 -3.1805610699e+00 1.8362977899e+00 3.1805610699e+00 
15500 6.8669238318e+00 -3.7282316241e-02 1.8373164541e+00 -3.1823254481e+00 1.8373164541e+00 3.1823254481e+00 
15600 6.8667172751e+00 -3.7078030180e-02 1.8383311336e+00 -3.1840829245e+00 1.8383311336e+00 3.1840829245e+00 
15700 6.8665360604e+00 -3.6797855826e-02 1.8393396956e+00 -3.1858298051e+00 1.8393396956e+00 3.1858298051e+00 
15800 6.8663801285e+00 -3.6444583948e-02 1.8403400869e+00 -3.1875625337e+00 1.8403400869e+00 3.1875625337e+00 
15900 6.8662492426e+00 -3.6021040751e-02 1.8413303346e+00 -3.1892776930e+00 1.8413303346e+00 3.1892776930e+00 
16000 6.8661429979e+00 -3.5530085495e-02 1.8423085466e+00 -3.1909720059e+00 1.8423085466e+00 3.1909720059e+00 
16100 6.8660608316e+00 -3.4974607962e-02 1.8432729123e+00 -3.1926423363e+00 1.8432729123e+00 3.1926423363e+00 
16200 6.8660020338e+00 -3.4357525765e-02 1.8442217031e+00 -3.1942856901e+00 1.8442217031e+00 3.1942856901e+00 
16300 6.8659657587e+00 -3.3681781494e-02 1.8451532726e+00 -3.1958992159e+00 1.8451532726e+00 3.1958992159e+00 
16400 6.8659510358e+00 -3.2950339707e-02 1.8460660574e+00 -3.1974802056e+00 1.8460660574e+00 3.1974802056e+00 
16500 6.8659567828e+00 -3.2166183760e-02 1.8469585768e+00 -3.1990260944e+00 1.8469585768e+00 3.1990260944e+00 
16600 6.8659818172e+00 -3.1332312483e-02 1.8478294331e+00 -3.2005344618e+00 1.8478294331e+00 3.2005344618e+00 
16700 6.8660248690e+00 -3.0451736699e-02 1.8486773118e+00 -3.2020030309e+00 1.8486773118e+00 3.2020030309e+00 
16800 6.8660845936e+00 -2.9527475596e-02 1.8495009817e+00 -3.2034296690e+00 1.8495009817e+00 3.2034296690e+00 
16900 6.8661595836e+00 -2.8562552958e-02 1.8502992943e+00 -3.2048123870e+00 1.8502992943e+00 3.2048123870e+00 
17000 6.8662483825e+00 -2.7559993256e-02 1.8510711840e+00 -3.2061493391e+00 1.8510711840e+00 3.2061493391e+00 
17100 6.8663494961e+00 -2.6522817615e-02 1.8518156675e+00 -3.2074388224e+00 1.8518156675e+00 3.2074388224e+00 
17200 6.8664614053e+00 -2.5454039662e-02 1.8525318437e+00 -3.2086792760e+00 1.8525318437e+00 3.2086792760e+00 
17300 6.8665825777e+00 -2.4356661263e-02 1.8532188930e+00 -3.2098692802e+00 1.8532188930e+00 3.2098692802e+00 
17400 6.8667114797e+00 -2.3233668176e-02 1.8538760765e+00 -3.2110075555e+00 1.8538760765e+00 3.2110075555e+00 
17500 6.8668465869e+00 -2.2088025612e-02 1.8545027359e+00 -3.2120929614e+00 1.8545027359e+00 3.2120929614e+00 
17600 6.8669863958e+00 -2.0922673739e-02 1.8550982920e+00 -3.2131244948e+00 1.8550982920e+00 3.2131244948e+00 
17700 6.8671294331e+00 -1.9740523137e-02 1.8556622441e+00 -3.2141012885e+00 1.8556622441e+00 3.2141012885e+00 
17800 6.8672742657e+00 -1.8544450221e-02 1.8561941692e+00 -3.2150226098e+00 1.8561941692e+00 3.2150226098e+00 
17900 6.8674195099e+00 -1.7337292651e-02 1.8566937205e+00 -3.2158878579e+00 1.8566937205e+00 3.2158878579e+00 
18000 6.8675638391e+00 -1.6121844751e-02 1.8571606262e+00 -3.2166965624e+00 1.8571606262e+00 3.2166965624e+00 
18100 6.8677059921e+00 -1.4900852959e-02 1.8575946886e+00 -3.2174483806e+00 1.8575946886e+00 3.2174483806e+00 
18200 6.8678447793e+00 -1.3677011321e-02 1.8579957823e+00 -3.2181430952e+00 1.8579957823e+00 3.2181430952e+00 
18300 6.8679790894e+00 -1.2452957059e-02 1.8583638526e+00 -3.2187806117e+00 1.8583638526e+00 3.2187806117e+00 
18400 6.8681078942e+00 -1.1231266232e-02 1.8586989143e+00 -3.2193609556e+00 1.8586989143e+00 3.2193609556e+00 
18500 6.8682302533e+00 -1.0014449507e-02 1.8590010496e+00 -3.2198842692e+00 1.8590010496e+00 3.2198842692e+00 
18600 6.8683453179e+00 -8.8049480670e-03 1.8592704064e+00 -3.2203508089e+00 1.8592704064e+00 3.2203508089e+00 
18700 6.8684523334e+00 -7.6051296777e-03 1.8595071965e+00 -3.2207609413e+00 1.8595071965e+00 3.2207609413e+00 
18800 6.8685506417e+00 -6.4172849250e-03 1.8597116934e+00 -3.2211151403e+00 1.8597116934e+00 3.2211151403e+00 
18900 6.8686396822e+00 -5.2436236526e-03 1.8598842304e+00 -3.2214139833e+00 1.8598842304e+00 3.2214139833e+00 
19000 6.8687189924e+00 -4.0862716110e-03 1.8600251986e+00 -3.2216581473e+00 1.8600251986e+00 3.2216581473e+00 
19100 6.8687882076e+00 -2.9472673395e-03 1.8601350442e+00 -3.2218484055e+00 1.8601350442e+00 3.2218484055e+00 
19200 6.8688470598e+00 -1.8285592930e-03 1.8602142666e+00 -3.2219856228e+00 1.8602142666e+00 3.2219856228e+00 
19300 6.8688953759e+00 -7.3200323161e-04 1.8602634160e+00 -3.2220707520e+00 1.8602634160e+00 3.2220707520e+00 
19400 6.8689330753e+00 3.4064011798e-04 1.8602830908e+00 -3.2221048297e+00 1.8602830908e+00 3.2221048297e+00 
19500 6.8689601668e+00 1.3877071163e-03 1.8602739352e+00 -3.2220889717e+00 1.8602739352e+00 3.2220889717e+00 
19600 6.8689767449e+00 2.4076329727e-03 1.8602366368e+00 -3.2220243691e+00 1.8602366368e+00 3.2220243691e+00 
19700 6.8689829857e+00 3.3989532077e-03 1.8601719241e+00 -3.2219122834e+00 1.8601719241e+00 3.2219122834e+00 
19800 6.8689791421e+00 4.3603048109e-03 1.8600805636e+00 -3.2217540424e+00 1.8600805636e+00 3.2217540424e+00 
19900 6.8689655387e+00 5.2904270928e-03 1.8599633574e+00 -3.2215510353e+00 1.8599633574e+00 3.2215510353e+00 
20000 6.8689425661e+00 6.1881622290e-03 1.8598211407e+00 -3.2213047086e+00 1.8598211407e+00 3.2213047086e+00 
20100 6.8689106756e+00 7.0524554982e-03 1.8596547787e+00 -3.2210165612e+00 1.8596547787e+00 3.2210165612e+00 
20200 6.8688703726e+00 7.8823552182e-03 1.8594651646e+00 -3.2206881400e+00 1.8594651646e+00 3.2206881400e+00 
20300 6.8688222103e+00 8.6770123830e-03 1.8592532164e+00 -3.2203210349e+00 1.8592532164e+00 3.2203210349e+00 
20400 6.8687667836e+00 9.4356800106e-03 1.8590198746e+00 -3.2199168750e+00 1.8590198746e+00 3.2199168750e+00 
20500 6.8687047225e+00 1.0157712208e-02 1.8587660993e+00 -3.2194773234e+00 1.8587660993e+00 3.2194773234e+00 
20600 6.8686366853e+00 1.0842562963e-02 1.8584928680e+00 -3.2190040728e+00 1.8584928680e+00 3.2190040728e+00 
20700 6.8685633524e+00 1.1489784677e-02 1.8582011725e+00 -3.2184988414e+00 1.8582011725e+00 3.2184988414e+00 
20800 6.8684854195e+00 1.2099026452e-02 1.8578920169e+00 -3.2179633682e+00 1.8578920169e+00 3.2179633682e+00 
20900 6.8684035920e+00 1.2670032136e-02 1.8575664147e+00 -3.2173994087e+00 1.8575664147e+00 3.2173994087e+00 
21000 6.8683185778e+00 1.3202638157e-02 1.8572253867e+00 -3.2168087308e+00 1.8572253867e+00 3.2168087308e+00 
21100 6.8682310826e+00 1.3696771150e-02 1.8568699582e+00 -3.2161931106e+00 1.8568699582e+00 3.2161931106e+00 
21200 6.8681418034e+00 1.4152445399e-02 1.8565011570e+00 -3.2155543282e+00 1.8565011570e+00 3.2155543282e+00 
21300 6.8680514236e+00 1.4569760100e-02 1.8561200109e+00 -3.2148941639e+00 1.8561200109e+00 3.2148941639e+00 
21400 6.8679606080e+00 1.4948896483e-02 1.8557275458e+00 -3.2142143944e+00 1.8557275458e+00 3.2142143944e+00 
21500 6.8678699980e+00 1.5290114787e-02 1.8553247832e+00 -3.2135167890e+00 1.8553247832e+00 3.2135167890e+00 
21600 6.8677802076e+00 1.5593751115e-02 1.8549127381e+00 -3.2128031060e+00 1.8549127381e+00 3.2128031060e+00 
21700 6.8676918195e+00 1.5860214200e-02 1.8544924175e+00 -3.2120750893e+00 1.8544924175e+00 3.2120750893e+00 
21800 6.8676053817e+00 1.6089982062e-02 1.8540648179e+00 -3.2113344651e+00 1.8540648179e+00 3.2113344651e+00 
21900 6.8675214046e+00 1.6283598619e-02 1.8536309238e+00 -3.2105829385e+00 1.8536309238e+00 3.2105829385e+00 
22000 6.8674403584e+00 1.6441670227e-02 1.8531917060e+00 -3.2098221909e+00 1.8531917060e+00 3.2098221909e+00 
22100 6.8673626713e+00 1.6564862189e-02 1.8527481195e+00 -3.2090538766e+00 1.8527481195e+00 3.2090538766e+00 
22200 6.8672887275e+00 1.6653895240e-02 1.8523011026e+00 -3.2082796206e+00 1.8523011026e+00 3.2082796206e+00 
22300 6.8672188664e+00 1.6709542018e-02 1.8518515747e+00 -3.2075010154e+00 1.8518515747e+00 3.2075010154e+00 
22400 6.8671533814e+00 1.6732623542e-02 1.8514004353e+00 -3.2067196190e+00 1.8514004353e+00 3.2067196190e+00 
22500 6.8670925200e+00 1.6724005700e-02 1.8509485627e+00 -3.2059369527e+00 1.8509485627e+00 3.2059369527e+00 
22600 6.8670364838e+00 1.6684595772e-02 1.8504968125e+00 -3.2051544986e+00 1.8504968125e+00 3.2051544986e+00 
22700 6.8669854285e+00 1.6615338979e-02 1.8500460169e+00 -3.2043736976e+00 1.8500460169e+00 3.2043736976e+00 
22800 6.8669394652e+00 1.6517215083e-02 1.8495969830e+00 -3.2035959481e+00 1.8495969830e+00 3.2035959481e+00 
22900 6.8668986614e+00 1.6391235045e-02 1.8491504925e+00 -3.2028226038e+00 1.8491504925e+00 3.2028226038e+00 
23000 6.8668630420e+00 1.6238437742e-02 1.8487073003e+00 -3.2020549725e+00 1.8487073003e+00 3.2020549725e+00 
23100 6.8668325919e+00 1.6059886751e-02 1.8482681341e+00 -3.2012943144e+00 1.8482681341e+00 3.2012943144e+00 
23200 6.8668072569e+00 1.5856667211e-02 1.8478336935e+00 -3.2005418410e+00 1.8478336935e+00 3.2005418410e+00 
23300 6.8667869468e+00 1.5629882769e-02 1.8474046491e+00 -3.1997987143e+00 1.8474046491e+00 3.1997987143e+00 
23400 6.8667715372e+00 1.5380652602e-02 1.8469816425e+00 -3.1990660455e+00 1.8469816425e+00 3.1990660455e+00 
23500 6.8667608725e+00 1.5110108534e-02 1.8465652855e+00 -3.1983448940e+00 1.8465652855e+00 3.1983448940e+00 
23600 6.8667547680e+00 1.4819392244e-02 1.8461561597e+00 -3.1976362673e+00 1.8461561597e+00 3.1976362673e+00 
23700 6.8667530132e+00 1.4509652560e-02 1.8457548162e+00 -3.1969411200e+00 1.8457548162e+00 3.1969411200e+00 
23800 6.8667553745e+00 1.4182042862e-02 1.8453617754e+00 -3.1962603534e+00 1.8453617754e+00 3.1962603534e+00 
23900 6.8667615981e+00 1.3837718565e-02 1.8449775269e+00 -3.1955948155e+00 1.8449775269e+00 3.1955948155e+00 
24000 6.8667714128e+00 1.3477834712e-02 1.8446025291e+00 -3.1949453002e+00 1.8446025291e+00 3.1949453002e+00 
24100 6.8667845333e+00 1.3103543659e-02 1.8442372095e+00 -3.1943125481e+00 1.8442372095e+00 3.1943125481e+00 
24200 6.8668006627e+00 1.2715992857e-02 1.8438819645e+00 -3.1936972456e+00 1.8438819645e+00 3.1936972456e+00 
24300 6.8668194955e+00 1.2316322732e-02 1.8435371594e+00 -3.1931000258e+00 1.8435371594e+00 3.1931000258e+00 
24400 6.8668407203e+00 1.1905664661e-02 1.8432031290e+00 -3.1925214681e+00 1.8432031290e+00 3.1925214681e+00 
24500 6.8668640229e+00 1.1485139041e-02 1.8428801771e+00 -3.1919620991e+00 1.8428801771e+00 3.1919620991e+00 
24600 6.8668890882e+00 1.1055853456e-02 1.8425685775e+00 -3.1914223927e+00 1.8425685775e+00 3.1914223927e+00 
24700 6.8669156033e+00 1.0618900934e-02 1.8422685737e+00 -3.1909027708e+00 1.8422685737e+00 3.1909027708e+00 
24800 6.8669432592e+00 1.0175358295e-02 1.8419803794e+00 -3.1904036037e+00 1.8419803794e+00 3.1904036037e+00 
24900 6.8669717536e+00 9.7262845890e-03 1.8417041793e+00 -3.1899252111e+00 1.8417041793e+00 3.1899252111e+00 
25000 6.8670007925e+00 9.2727196242e-03 1.8414401290e+00 -3.1894678625e+00 1.8414401290e+00 3.1894678625e+00 
25100 6.8670300920e+00 8.8156825790e-03 1.8411883557e+00 -3.1890317784e+00 1.8411883557e+00 3.1890317784e+00 
25200 6.8670593803e+00 8.3561706996e-03 1.8409489589e+00 -3.1886171310e+00 1.8409489589e+00 3.1886171310e+00 
25300 6.8670883989e+00 7.8951580816e-03 1.8407220108e+00 -3.1882240452e+00 1.8407220108e+00 3.1882240452e+00 
25400 6.8671169041e+00 7.4335945315e-03 1.8405075567e+00 -3.1878526000e+00 1.8405075567e+00 3.1878526000e+00 
25500 6.8671446680e+00 6.9724045096e-03 1.8403056163e+00 -3.1875028289e+00 1.8403056163e+00 3.1875028289e+00 
25600 6.8671714793e+00 6.5124861492e-03 1.8401161835e+00 -3.1871747216e+00 1.8401161835e+00 3.1871747216e+00 
25700 6.8671971447e+00 6.0547103538e-03 1.8399392278e+00 -3.1868682253e+00 1.8399392278e+00 3.1868682253e+00 
25800 6.8672214887e+00 5.5999199678e-03 1.8397746946e+00 -3.1865832455e+00 1.8397746946e+00 3.1865832455e+00 
25900 6.8672443545e+00 5.1489290216e-03 1.8396225063e+00 -3.1863196477e+00 1.8396225063e+00 3.1863196477e+00 
26000 6.8672656041e+00 4.7025220473e-03 1.8394825628e+00 -3.1860772585e+00 1.8394825628e+00 3.1860772585e+00 
26100 6.8672851188e+00 4.2614534653e-03 1.8393547425e+00 -3.1858558671e+00 1.8393547425e+00 3.1858558671e+00 
26200 6.8673027984e+00 3.8264470394e-03 1.8392389027e+00 -3.1856552267e+00 1.8392389027e+00 3.1856552267e+00 
26300 6.8673185616e+00 3.3981953987e-03 1.8391348811e+00 -3.1854750560e+00 1.8391348811e+00 3.1854750560e+00 
26400 6.8673323456e+00 2.9773596257e-03 1.8390424962e+00 -3.1853150406e+00 1.8390424962e+00 3.1853150406e+00 
26500 6.8673441055e+00 2.5645689084e-03 1.8389615481e+00 -3.1851748345e+00 1.8389615481e+00 3.1851748345e+00 
26600 6.8673538140e+00 2.1604202555e-03 1.8388918198e+00 -3.1850540616e+00 1.8388918198e+00 3.1850540616e+00 
26700 6.8673614602e+00 1.7654782729e-03 1.8388330777e+00 -3.1849523172e+00 1.8388330777e+00 3.1849523172e+00 
26800 6.8673670498e+00 1.3802750002e-03 1.8387850725e+00 -3.1848691698e+00 1.8387850725e+00 3.1848691698e+00 
26900 6.8673706031e+00 1.0053098062e-03 1.8387475404e+00 -3.1848041622e+00 1.8387475404e+00 3.1848041622e+00 
27000 6.8673721552e+00 6.4104934132e-04 1.8387202036e+00 -3.1847568136e+00 1.8387202036e+00 3.1847568136e+00 
27100 6.8673717542e+00 2.8792754569e-04 1.8387027717e+00 -3.1847266206e+00 1.8387027717e+00 3.1847266206e+00 
27200 6.8673694608e+00 -5.3654287765e-05 1.8386949421e+00 -3.1847130593e+00 1.8386949421e+00 3.1847130593e+00 
27300 6.8673653480e+00 -3.8470383650e-04 1.8386949421e+00 -3.1847130593e+00 1.8386949421e+00 3.1847130593e+00 
27400 6.8673594965e+00 -7.0210235661e-04 1.8387054034e+00 -3.1847311789e+00 1.8387054034e+00 3.1847311789e+00 
27500 6.8673519977e+00 -1.0069524098e-03 1.8387244958e+00 -3.1847642478e+00 1.8387244958e+00 3.1847642478e+00 
27600 6.8673429506e+00 -1.2989815948e-03 1.8387518777e+00 -3.1848116746e+00 1.8387518777e+00 3.1848116746e+00 
27700 6.8673324614e+00 -1.5779490791e-03 1.8387872001e+00 -3.1848728549e+00 1.8387872001e+00 3.1848728549e+00 
27800 6.8673206419e+00 -1.8436452404e-03 1.8388301076e+00 -3.1849471729e+00 1.8388301076e+00 3.1849471729e+00 
27900 6.8673076085e+00 -2.0958912644e-03 1.8388802388e+00 -3.1850340026e+00 1.8388802388e+00 3.1850340026e+00 
28000 6.8672934816e+00 -2.3345387006e-03 1.8389372273e+00 -3.1851327097e+00 1.8389372273e+00 3.1851327097e+00 
28100 6.8672783836e+00 -2.5594689761e-03 1.8390007029e+00 -3.1852426526e+00 1.8390007029e+00 3.1852426526e+00 
28200 6.8672624388e+00 -2.7705928717e-03 1.8390702919e+00 -3.1853631843e+00 1.8390702919e+00 3.1853631843e+00 
28300 6.8672457721e+00 -2.9678499593e-03 1.8391456184e+00 -3.1854936535e+00 1.8391456184e+00 3.1854936535e+00 
28400 6.8672285079e+00 -3.1512080038e-03 1.8392263045e+00 -3.1856334060e+00 1.8392263045e+00 3.1856334060e+00 
28500 6.8672107694e+00 -3.3206623307e-03 1.8393119719e+00 -3.1857817862e+00 1.8393119719e+00 3.1857817862e+00 
28600 6.8671926778e+00 -3.4762351616e-03 1.8394022417e+00 -3.1859381382e+00 1.8394022417e+00 3.1859381382e+00 
28700 6.8671743513e+00 -3.6179749176e-03 1.8394967362e+00 -3.1861018074e+00 1.8394967362e+00 3.1861018074e+00 
28800 6.8671559048e+00 -3.7459554948e-03 1.8395950785e+00 -3.1862721413e+00 1.8395950785e+00 3.1862721413e+00 
28900 6.8671374487e+00 -3.8602755120e-03 1.8396968941e+00 -3.1864484911e+00 1.8396968941e+00 3.1864484911e+00 
29000 6.8671190890e+00 -3.9610575320e-03 1.8398018111e+00 -3.1866302128e+00 1.8398018111e+00 3.1866302128e+00 
29100 6.8671009261e+00 -4.0484472596e-03 1.8399094612e+00 -3.1868166682e+00 1.8399094612e+00 3.1868166682e+00 
29200 6.8670830546e+00 -4.1226127174e-03 1.8400194799e+00 -3.1870072261e+00 1.8400194799e+00 3.1870072261e+00 
29300 6.8670655631e+00 -4.1837434005e-03 1.8401315074e+00 -3.1872012634e+00 1.8401315074e+00 3.1872012634e+00 
29400 6.8670485335e+00 -4.2320494129e-03 1.8402451891e+00 -3.1873981659e+00 1.8402451891e+00 3.1873981659e+00 
29500 6.8670320410e+00 -4.2677605867e-03 1.8403601763e+00 -3.1875973296e+00 1.8403601763e+00 3.1875973296e+00 
29600 6.8670161538e+00 -4.2911255860e-03 1.8404761266e+00 -3.1877981614e+00 1.8404761266e+00 3.1877981614e+00 
29700 6.8670009328e+00 -4.3024109971e-03 1.8405927043e+00 -3.1880000799e+00 1.8405927043e+00 3.1880000799e+00 
29800 6.8669864319e+00 -4.3019004072e-03 1.8407095812e+00 -3.1882025167e+00 1.8407095812e+00 3.1882025167e+00 
29900 6.8669726976e+00 -4.2898934728e-03 1.8408264369e+00 -3.1884049166e+00 1.8408264369e+00 3.1884049166e+00 
30000 6.8669597689e+00 -4.2667049793e-03 1.8409429590e+00 -3.1886067388e+00 1.8409429590e+00 3.1886067388e+00 
30100 6.8669476778e+00 -4.2326638950e-03 1.8410588439e+00 -3.1888074573e+00 1.8410588439e+00 3.1888074573e+00 
30200 6.8669364492e+00 -4.1881124185e-03 1.8411737970e+00 -3.1890065619e+00 1.8411737970e+00 3.1890065619e+00 
30300 6.8669261010e+00 -4.1334050242e-03 1.8412875330e+00 -3.1892035585e+00 1.8412875330e+00 3.1892035585e+00 
30400 6.8669166444e+00 -4.0689075055e-03 1.8413997764e+00 -3.1893979697e+00 1.8413997764e+00 3.1893979697e+00 
30500 6.8669080839e+00 -3.9949960177e-03 1.8415102616e+00 -3.1895893357e+00 1.8415102616e+00 3.1895893357e+00 
30600 6.8669004180e+00 -3.9120561230e-03 1.8416187333e+00 -3.1897772142e+00 1.8416187333e+00 3.1897772142e+00 
30700 6.8668936391e+00 -3.8204818386e-03 1.8417249467e+00 -3.1899611813e+00 1.8417249467e+00 3.1899611813e+00 
30800 6.8668877341e+00 -3.7206746891e-03 1.8418286679e+00 -3.1901408316e+00 1.8418286679e+00 3.1901408316e+00 
30900 6.8668826846e+00 -3.6130427655e-03 1.8419296737e+00 -3.1903157789e+00 1.8419296737e+00 3.1903157789e+00 
31000 6.8668784672e+00 -3.4979997926e-03 1.8420277523e+00 -3.1904856559e+00 1.8420277523e+00 3.1904856559e+00 
31100 6.8668750542e+00 -3.3759642045e-03 1.8421227028e+00 -3.1906501150e+00 1.8421227028e+00 3.1906501150e+00 
31200 6.8668724138e+00 -3.2473582320e-03 1.8422143360e+00 -3.1908088283e+00 1.8422143360e+00 3.1908088283e+00 
31300 6.8668705103e+00 -3.1126070019e-03 1.8423024740e+00 -3.1909614880e+00 1.8423024740e+00 3.1909614880e+00 
31400 6.8668693049e+00 -2.9721376494e-03 1.8423869507e+00 -3.1911078058e+00 1.8423869507e+00 3.1911078058e+00 
31500 6.8668687561e+00 -2.8263784465e-03 1.8424676113e+00 -3.1912475140e+00 1.8424676113e+00 3.1912475140e+00 
31600 6.8668688198e+00 -2.6757579456e-03 1.8425443127e+00 -3.1913803648e+00 1.8425443127e+00 3.1913803648e+00 
31700 6.8668694500e+00 -2.5207041418e-03 1.8426169236e+00 -3.1915061305e+00 1.8426169236e+00 3.1915061305e+00 
31800 6.8668705990e+00 -2.3616436531e-03 1.8426853241e+00 -3.1916246037e+00 1.8426853241e+00 3.1916246037e+00 
31900 6.8668722183e+00 -2.1990009212e-03 1.8427494061e+00 -3.1917355969e+00 1.8427494061e+00 3.1917355969e+00 
32000 6.8668742581e+00 -2.0331974330e-03 1.8428090727e+00 -3.1918389425e+00 1.8428090727e+00 3.1918389425e+00 
32100 6.8668766687e+00 -1.8646509653e-03 1.8428642387e+00 -3.1919344928e+00 1.8428642387e+00 3.1919344928e+00 
32200 6.8668794002e+00 -1.6937748513e-03 1.8429148300e+00 -3.1920221196e+00 1.8429148300e+00 3.1920221196e+00 
32300 6.8668824030e+00 -1.5209772727e-03 1.8429607839e+00 -3.1921017141e+00 1.8429607839e+00 3.1921017141e+00 
32400 6.8668856282e+00 -1.3466605768e-03 1.8430020486e+00 -3.1921731865e+00 1.8430020486e+00 3.1921731865e+00 
32500 6.8668890279e+00 -1.1712206187e-03 1.8430385831e+00 -3.1922364662e+00 1.8430385831e+00 3.1922364662e+00 
32600 6.8668925555e+00 -9.9504613193e-04 1.8430703574e+00 -3.1922915009e+00 1.8430703574e+00 3.1922915009e+00 
32700 6.8668961660e+00 -8.1851812539e-04 1.8430973517e+00 -3.1923382564e+00 1.8430973517e+00 3.1923382564e+00 
32800 6.8668998160e+00 -6.4200930937e-04 1.8431195567e+00 -3.1923767166e+00 1.8431195567e+00 3.1923767166e+00 
32900 6.8669034644e+00 -4.6588355027e-04 1.8431369731e+00 -3.1924068827e+00 1.8431369731e+00 3.1924068827e+00 
33000 6.8669070720e+00 -2.9049535484e-04 1.8431496114e+00 -3.1924287730e+00 1.8431496114e+00 3.1924287730e+00 
33100 6.8669106022e+00 -1.1618938434e-04 1.8431574919e+00 -3.1924424222e+00 1.8431574919e+00 3.1924424222e+00 
33200 6.8669140209e+00 5.6700000790e-05 1.8431606438e+00 -3.1924478815e+00 1.8431606438e+00 3.1924478815e+00 
33300 6.8669172973e+00 2.2928736544e-04 1.8431606438e+00 -3.1924478815e+00 1.8431606438e+00 3.1924478815e+00 
33400 6.8669204018e+00 3.9835460740e-04 1.8431544238e+00 -3.1924371083e+00 1.8431544238e+00 3.1924371083e+00 
33500 6.8669233088e+00 5.6506895296e-04 1.8431436175e+00 -3.1924183912e+00 1.8431436175e+00 3.1924183912e+00 
33600 6.8669259952e+00 7.2914114447e-04 1.8431282886e+00 -3.1923918407e+00 1.8431282886e+00 3.1923918407e+00 
33700 6.8669284408e+00 8.9029403752e-04 1.8431085086e+00 -3.1923575808e+00 1.8431085086e+00 3.1923575808e+00 
33800 6.8669306285e+00 1.0482628695e-03 1.8430843567e+00 -3.1923157485e+00 1.8430843567e+00 3.1923157485e+00 
33900 6.8669325440e+00 1.2027954971e-03 1.8430559190e+00 -3.1922664930e+00 1.8430559190e+00 3.1922664930e+00 
34000 6.8669341758e+00 1.3536526021e-03 1.8430232887e+00 -3.1922099755e+00 1.8430232887e+00 3.1922099755e+00 
34100 6.8669355153e+00 1.5006078673e-03 1.8429865651e+00 -3.1921463684e+00 1.8429865651e+00 3.1921463684e+00 
34200 6.8669365566e+00 1.6434481210e-03 1.8429458539e+00 -3.1920758546e+00 1.8429458539e+00 3.1920758546e+00 
34300 6.8669372964e+00 1.7819734514e-03 1.8429012666e+00 -3.1919986271e+00 1.8429012666e+00 3.1919986271e+00 
34400 6.8669377340e+00 1.9159972916e-03 1.8428529198e+00 -3.1919148881e+00 1.8428529198e+00 3.1919148881e+00 
34500 6.8669378710e+00 2.0453464749e-03 1.8428009355e+00 -3.1918248486e+00 1.8428009355e+00 3.1918248486e+00 
34600 6.8669377115e+00 2.1698612616e-03 1.8427454402e+00 -3.1917287279e+00 1.8427454402e+00 3.1917287279e+00 
34700 6.8669372615e+00 2.2893953373e-03 1.8426865648e+00 -3.1916267526e+00 1.8426865648e+00 3.1916267526e+00 
34800 6.8669365292e+00 2.4038157841e-03 1.8426244440e+00 -3.1915191563e+00 1.8426244440e+00 3.1915191563e+00 
34900 6.8669355245e+00 2.5130030250e-03 1.8425592163e+00 -3.1914061787e+00 1.8425592163e+00 3.1914061787e+00 
35000 6.8669342590e+00 2.6168507415e-03 1.8424910235e+00 -3.1912880652e+00 1.8424910235e+00 3.1912880652e+00 
35100 6.8669327460e+00 2.7152657672e-03 1.8424200100e+00 -3.1911650662e+00 1.8424200100e+00 3.1911650662e+00 
35200 6.8669309999e+00 2.8081679561e-03 1.8423463230e+00 -3.1910374366e+00 1.8423463230e+00 3.1910374366e+00 
35300 6.8669290364e+00 2.8954900275e-03 1.8422701118e+00 -3.1909054349e+00 1.8422701118e+00 3.1909054349e+00 
35400 6.8669268721e+00 2.9771773890e-03 1.8421915275e+00 -3.1907693230e+00 1.8421915275e+00 3.1907693230e+00 
35500 6.8669245244e+00 3.0531879367e-03 1.8421107228e+00 -3.1906293651e+00 1.8421107228e+00 3.1906293651e+00 
35600 6.8669220116e+00 3.1234918362e-03 1.8420278514e+00 -3.1904858276e+00 1.8420278514e+00 3.1904858276e+00 
35700 6.8669193521e+00 3.1880712826e-03 1.8419430680e+00 -3.1903389785e+00 1.8419430680e+00 3.1903389785e+00 
35800 6.8669165649e+00 3.2469202425e-03 1.8418565277e+00 -3.1901890863e+00 1.8418565277e+00 3.1901890863e+00 
35900 6.8669136691e+00 3.3000441789e-03 1.8417683858e+00 -3.1900364200e+00 1.8417683858e+00 3.1900364200e+00 
36000 6.8669106837e+00 3.3474597586e-03 1.8416787975e+00 -3.1898812486e+00 1.8416787975e+00 3.1898812486e+00 
36100 6.8669076278e+00 3.3891945448e-03 1.8415879176e+00 -3.1897238399e+00 1.8415879176e+00 3.1897238399e+00 
36200 6.8669045199e+00 3.4252866753e-03 1.8414959001e+00 -3.1895644610e+00 1.8414959001e+00 3.1895644610e+00 
36300 6.8669013783e+00 3.4557845271e-03 1.8414028981e+00 -3.1894033767e+00 1.8414028981e+00 3.1894033767e+00 
36400 6.8668982209e+00 3.4807463691e-03 1.8413090632e+00 -3.1892408500e+00 1.8413090632e+00 3.1892408500e+00 
36500 6.8668950646e+00 3.5002400035e-03 1.8412145458e+00 -3.1890771409e+00 1.8412145458e+00 3.1890771409e+00 
36600 6.8668919260e+00 3.5143423971e-03 1.8411194941e+00 -3.1889125066e+00 1.8411194941e+00 3.1889125066e+00 
36700 6.8668888205e+00 3.5231393040e-03 1.8410240546e+00 -3.1887472005e+00 1.8410240546e+00 3.1887472005e+00 
36800 6.8668857629e+00 3.5267248794e-03 1.8409283712e+00 -3.1885814720e+00 1.8409283712e+00 3.1885814720e+00 
36900 6.8668827667e+00 3.5252012877e-03 1.8408325854e+00 -3.1884155662e+00 1.8408325854e+00 3.1884155662e+00 
37000 6.8668798448e+00 3.5186783038e-03 1.8407368361e+00 -3.1882497234e+00 1.8407368361e+00 3.1882497234e+00 
37100 6.8668770087e+00 3.5072729098e-03 1.8406412589e+00 -3.1880841790e+00 1.8406412589e+00 3.1880841790e+00 
37200 6.8668742689e+00 3.4911088881e-03 1.8405459866e+00 -3.1879191625e+00 1.8405459866e+00 3.1879191625e+00 
37300 6.8668716347e+00 3.4703164107e-03 1.8404511485e+00 -3.1877548980e+00 1.8404511485e+00 3.1877548980e+00 
37400 6.8668691144e+00 3.4450316276e-03 1.8403568703e+00 -3.1875916035e+00 1.8403568703e+00 3.1875916035e+00 
37500 6.8668667148e+00 3.4153962530e-03 1.8402632743e+00 -3.1874294904e+00 1.8402632743e+00 3.1874294904e+00 
37600 6.8668644420e+00 3.3815571521e-03 1.8401704787e+00 -3.1872687636e+00 1.8401704787e+00 3.1872687636e+00 
37700 6.8668623006e+00 3.3436659282e-03 1.8400785978e+00 -3.1871096213e+00 1.8400785978e+00 3.1871096213e+00 
37800 6.8668602941e+00 3.3018785109e-03 1.8399877419e+00 -3.1869522543e+00 1.8399877419e+00 3.1869522543e+00 
37900 6.8668584250e+00 3.2563547472e-03 1.8398980171e+00 -3.1867968464e+00 1.8398980171e+00 3.1867968464e+00 
38000 6.8668566948e+00 3.2072579948e-03 1.8398095250e+00 -3.1866435736e+00 1.8398095250e+00 3.1866435736e+00 
38100 6.8668551037e+00 3.1547547204e-03 1.8397223629e+00 -3.1864926044e+00 1.8397223629e+00 3.1864926044e+00 
38200 6.8668536510e+00 3.0990141005e-03 1.8396366236e+00 -3.1863440996e+00 1.8396366236e+00 3.1863440996e+00 
38300 6.8668523353e+00 3.0402076293e-03 1.8395523953e+00 -3.1861982118e+00 1.8395523953e+00 3.1861982118e+00 
38400 6.8668511540e+00 2.9785087308e-03 1.8394697615e+00 -3.1860550859e+00 1.8394697615e+00 3.1860550859e+00 
38500 6.8668501037e+00 2.9140923780e-03 1.8393888010e+00 -3.1859148582e+00 1.8393888010e+00 3.1859148582e+00 
38600 6.8668491805e+00 2.8471347187e-03 1.8393095880e+00 -3.1857776572e+00 1.8393095880e+00 3.1857776572e+00 
38700 6.8668483796e+00 2.7778127086e-03 1.8392321917e+00 -3.1856436029e+00 1.8392321917e+00 3.1856436029e+00 
38800 6.8668476955e+00 2.7063037529e-03 1.8391566766e+00 -3.1855128070e+00 1.8391566766e+00 3.1855128070e+00 
38900 6.8668471223e+00 2.6327853553e-03 1.8390831025e+00 -3.1853853730e+00 1.8390831025e+00 3.1853853730e+00 
39000 6.8668466536e+00 2.5574347766e-03 1.8390115243e+00 -3.1852613957e+00 1.8390115243e+00 3.1852613957e+00 
39100 6.8668462825e+00 2.4804287020e-03 1.8389419918e+00 -3.1851409620e+00 1.8389419918e+00 3.1851409620e+00 
39200 6.8668460017e+00 2.4019429188e-03 1.8388745505e+00 -3.1850241502e+00 1.8388745505e+00 3.1850241502e+00 
39300 6.8668458039e+00 2.3221520026e-03 1.8388092408e+00 -3.1849110304e+00 1.8388092408e+00 3.1849110304e+00 
39400 6.8668456813e+00 2.2412290150e-03 1.8387460983e+00 -3.1848016645e+00 1.8387460983e+00 3.1848016645e+00 
39500 6.8668456260e+00 2.1593452115e-03 1.8386851542e+00 -3.1846961061e+00 1.8386851542e+00 3.1846961061e+00 
39600 6.8668456302e+00 2.0766697598e-03 1.8386264346e+00 -3.1845944009e+00 1.8386264346e+00 3.1845944009e+00 
39700 6.8668456859e+00 1.9933694694e-03 1.8385699615e+00 -3.1844965866e+00 1.8385699615e+00 3.1844965866e+00 
39800 6.8668457852e+00 1.9096085322e-03 1.8385157520e+00 -3.1844026930e+00 1.8385157520e+00 3.1844026930e+00 
39900 6.8668459205e+00 1.8255482751e-03 1.8384638188e+00 -3.1843127421e+00 1.8384638188e+00 3.1843127421e+00 
40000 6.8668460839e+00 1.7413469231e-03 1.8384141703e+00 -3.1842267483e+00 1.8384141703e+00 3.1842267483e+00 
40100 6.8668462682e+00 1.6571593746e-03 1.8383668105e+00 -3.1841447187e+00 1.8383668105e+00 3.1841447187e+00 
40200 6.8668464661e+00 1.5731369888e-03 1.8383217392e+00 -3.1840666529e+00 1.8383217392e+00 3.1840666529e+00 
40300 6.8668466709e+00 1.4894273842e-03 1.8382789520e+00 -3.1839925434e+00 1.8382789520e+00 3.1839925434e+00 
40400 6.8668468759e+00 1.4061742494e-03 1.8382384407e+00 -3.1839223757e+00 1.8382384407e+00 3.1839223757e+00 
40500 6.8668470749e+00 1.3235171657e-03 1.8382001930e+00 -3.1838561287e+00 1.8382001930e+00 3.1838561287e+00 
40600 6.8668472623e+00 1.2415914415e-03 1.8381641927e+00 -3.1837937745e+00 1.8381641927e+00 3.1837937745e+00 
40700 6.8668474325e+00 1.1605279590e-03 1.8381304202e+00 -3.1837352788e+00 1.8381304202e+00 3.1837352788e+00 
40800 6.8668475808e+00 1.0804530321e-03 1.8380988522e+00 -3.1836806013e+00 1.8380988522e+00 3.1836806013e+00 
40900 6.8668477026e+00 1.0014882769e-03 1.8380694617e+00 -3.1836296956e+00 1.8380694617e+00 3.1836296956e+00 
41000 6.8668477938e+00 9.2375049324e-04 1.8380422189e+00 -3.1835825095e+00 1.8380422189e+00 3.1835825095e+00 
41100 6.8668478510e+00 8.4735155846e-04 1.8380170903e+00 -3.1835389855e+00 1.8380170903e+00 3.1835389855e+00 
41200 6.8668478711e+00 7.7239833250e-04 1.8379940396e+00 -3.1834990606e+00 1.8379940396e+00 3.1834990606e+00 
41300 6.8668478515e+00 6.9899257438e-04 1.8379730277e+00 -3.1834626669e+00 1.8379730277e+00 3.1834626669e+00 
41400 6.8668477901e+00 6.2723087020e-04 1.8379540124e+00 -3.1834297314e+00 1.8379540124e+00 3.1834297314e+00 
41500 6.8668476852e+00 5.5720457222e-04 1.8379369491e+00 -3.1834001770e+00 1.8379369491e+00 3.1834001770e+00 
41600 6.8668475357e+00 4.8899974888e-04 1.8379217907e+00 -3.1833739219e+00 1.8379217907e+00 3.1833739219e+00 
41700 6.8668473408e+00 4.2269714583e-04 1.8379084877e+00 -3.1833508803e+00 1.8379084877e+00 3.1833508803e+00 
41800 6.8668471002e+00 3.5837215746e-04 1.8378969883e+00 -3.1833309628e+00 1.8378969883e+00 3.1833309628e+00 
41900 6.8668468140e+00 2.9609480895e-04 1.8378872388e+00 -3.1833140761e+00 1.8378872388e+00 3.1833140761e+00 
42000 6.8668464827e+00 2.3592974857e-04 1.8378791835e+00 -3.1833001240e+00 1.8378791835e+00 3.1833001240e+00 
42100 6.8668461071e+00 1.7793624990e-04 1.8378727649e+00 -3.1832890067e+00 1.8378727649e+00 3.1832890067e+00 
42200 6.8668456884e+00 1.2216822393e-04 1.8378679241e+00 -3.1832806222e+00 1.8378679241e+00 3.1832806222e+00 
42300 6.8668452282e+00 6.8674240661e-05 1.8378646005e+00 -3.1832748655e+00 1.8378646005e+00 3.1832748655e+00 
42400 6.8668447282e+00 1.9260724916e-05 1.8378646005e+00 -3.1832748655e+00 1.8378646005e+00 3.1832748655e+00 
42500 6.8668441902e+00 -2.9102810536e-05 1.8378646005e+00 -3.1832748655e+00 1.8378646005e+00 3.1832748655e+00 
42600 6.8668436171e+00 -7.6329042947e-05 1.8378646005e+00 -3.1832748655e+00 1.8378646005e+00 3.1832748655e+00 
42700 6.8668430110e+00 -1.2037566905e-04 1.8378666771e+00 -3.1832784622e+00 1.8378666771e+00 3.1832784622e+00 
42800 6.8668423748e+00 -1.6198330145e-04 1.8378699519e+00 -3.1832841345e+00 1.8378699519e+00 3.1832841345e+00 
42900 6.8668417113e+00 -2.0113449819e-04 1.8378743588e+00 -3.1832917673e+00 1.8378743588e+00 3.1832917673e+00 
43000 6.8668410234e+00 -2.3781676270e-04 1.8378798307e+00 -3.1833012450e+00 1.8378798307e+00 3.1833012450e+00 
43100 6.8668403142e+00 -2.7202245583e-04 1.8378863006e+00 -3.1833124511e+00 1.8378863006e+00 3.1833124511e+00 
43200 6.8668395868e+00 -3.0374870102e-04 1.8378937010e+00 -3.1833252690e+00 1.8378937010e+00 3.1833252690e+00 
43300 6.8668388444e+00 -3.3299728281e-04 1.8379019645e+00 -3.1833395818e+00 1.8379019645e+00 3.1833395818e+00 
43400 6.8668380902e+00 -3.5977453913e-04 1.8379110237e+00 -3.1833552728e+00 1.8379110237e+00 3.1833552728e+00 
43500 6.8668373272e+00 -3.8409124754e-04 1.8379208113e+00 -3.1833722254e+00 1.8379208113e+00 3.1833722254e+00 
43600 6.8668365586e+00 -4.0596250598e-04 1.8379312604e+00 -3.1833903237e+00 1.8379312604e+00 3.1833903237e+00 
43700 6.8668357876e+00 -4.2540760811e-04 1.8379423044e+00 -3.1834094525e+00 1.8379423044e+00 3.1834094525e+00 
43800 6.8668350170e+00 -4.4244991378e-04 1.8379538773e+00 -3.1834294975e+00 1.8379538773e+00 3.1834294975e+00 
43900 6.8668342497e+00 -4.5711671486e-04 1.8379659138e+00 -3.1834503453e+00 1.8379659138e+00 3.1834503453e+00 
44000 6.8668334886e+00 -4.6943909682e-04 1.8379783492e+00 -3.1834718841e+00 1.8379783492e+00 3.1834718841e+00 
44100 6.8668327363e+00 -4.7945179633e-04 1.8379911198e+00 -3.1834940033e+00 1.8379911198e+00 3.1834940033e+00 
44200 6.8668319952e+00 -4.8719305534e-04 1.8380041626e+00 -3.1835165941e+00 1.8380041626e+00 3.1835165941e+00 
44300 6.8668312677e+00 -4.9270447184e-04 1.8380174159e+00 -3.1835395496e+00 1.8380174159e+00 3.1835395496e+00 
44400 6.8668305561e+00 -4.9603084777e-04 1.8380308191e+00 -3.1835627646e+00 1.8380308191e+00 3.1835627646e+00 
44500 6.8668298622e+00 -4.9722003435e-04 1.8380443127e+00 -3.1835861361e+00 1.8380443127e+00 3.1835861361e+00 
44600 6.8668291879e+00 -4.9632277511e-04 1.8380578385e+00 -3.1836095635e+00 1.8380578385e+00 3.1836095635e+00 
44700 6.8668285348e+00 -4.9339254709e-04 1.8380713398e+00 -3.1836329484e+00 1.8380713398e+00 3.1836329484e+00 
44800 6.8668279044e+00 -4.8848540045e-04 1.8380847613e+00 -3.1836561951e+00 1.8380847613e+00 3.1836561951e+00 
44900 6.8668272979e+00 -4.8165979679e-04 1.8380980492e+00 -3.1836792104e+00 1.8380980492e+00 3.1836792104e+00 
45000 6.8668267163e+00 -4.7297644665e-04 1.8381111513e+00 -3.1837019040e+00 1.8381111513e+00 3.1837019040e+00 
45100 6.8668261605e+00 -4.6249814625e-04 1.8381240171e+00 -3.1837241883e+00 1.8381240171e+00 3.1837241883e+00 
45200 6.8668256311e+00 -4.5028961406e-04 1.8381365979e+00 -3.1837459788e+00 1.8381365979e+00 3.1837459788e+00 
45300 6.8668251286e+00 -4.3641732739e-04 1.8381488464e+00 -3.1837671939e+00 1.8381488464e+00 3.1837671939e+00 
45400 6.8668246532e+00 -4.2094935917e-04 1.8381607175e+00 -3.1837877553e+00 1.8381607175e+00 3.1837877553e+00 
45500 6.8668242052e+00 -4.0395521551e-04 1.8381721678e+00 -3.1838075878e+00 1.8381721678e+00 3.1838075878e+00 
45600 6.8668237843e+00 -3.8550567402e-04 1.8381831558e+00 -3.1838266195e+00 1.8381831558e+00 3.1838266195e+00 
45700 6.8668233904e+00 -3.6567262340e-04 1.8381936419e+00 -3.1838447819e+00 1.8381936419e+00 3.1838447819e+00 
45800 6.8668230230e+00 -3.4452890447e-04 1.8382035884e+00 -3.1838620098e+00 1.8382035884e+00 3.1838620098e+00 
45900 6.8668226817e+00 -3.2214815286e-04 1.8382129598e+00 -3.1838782414e+00 1.8382129598e+00 3.1838782414e+00 
46000 6.8668223657e+00 -2.9860464375e-04 1.8382217223e+00 -3.1838934186e+00 1.8382217223e+00 3.1838934186e+00 
46100 6.8668220743e+00 -2.7397313885e-04 1.8382298444e+00 -3.1839074865e+00 1.8382298444e+00 3.1839074865e+00 
46200 6.8668218066e+00 -2.4832873576e-04 1.8382372965e+00 -3.1839203939e+00 1.8382372965e+00 3.1839203939e+00 
46300 6.8668215615e+00 -2.2174672010e-04 1.8382440510e+00 -3.1839320931e+00 1.8382440510e+00 3.1839320931e+00 
46400 6.8668213379e+00 -1.9430242055e-04 1.8382500825e+00 -3.1839425400e+00 1.8382500825e+00 3.1839425400e+00 
46500 6.8668211347e+00 -1.6607106698e-04 1.8382553675e+00 -3.1839516938e+00 1.8382553675e+00 3.1839516938e+00 
46600 6.8668209506e+00 -1.3712765196e-04 1.8382598846e+00 -3.1839595176e+00 1.8382598846e+00 3.1839595176e+00 
46700 6.8668207843e+00 -1.0754679574e-04 1.8382636144e+00 -3.1839659779e+00 1.8382636144e+00 3.1839659779e+00 
46800 6.8668206345e+00 -7.7402615001e-05 1.8382665397e+00 -3.1839710445e+00 1.8382665397e+00 3.1839710445e+00 
46900 6.8668204998e+00 -4.6768595371e-05 1.8382686450e+00 -3.1839746910e+00 1.8382686450e+00 3.1839746910e+00 
47000 6.8668203787e+00 -1.6916157065e-05 1.8382686450e+00 -3.1839746910e+00 1.8382686450e+00 3.1839746910e+00 
47100 6.8668202699e+00 1.4071316347e-05 1.8382686450e+00 -3.1839746910e+00 1.8382686450e+00 3.1839746910e+00 
47200 6.8668201719e+00 4.6135612689e-05 1.8382686450e+00 -3.1839746910e+00 1.8382686450e+00 3.1839746910e+00 
47300 6.8668200835e+00 7.9218026488e-05 1.8382686450e+00 -3.1839746910e+00 1.8382686450e+00 3.1839746910e+00 
47400 6.8668200032e+00 1.1122890961e-04 1.8382664903e+00 -3.1839709590e+00 1.8382664903e+00 3.1839709590e+00 
47500 6.8668199297e+00 1.4330862284e-04 1.8382634649e+00 -3.1839657189e+00 1.8382634649e+00 3.1839657189e+00 
47600 6.8668198616e+00 1.7539131134e-04 1.8382595670e+00 -3.1839589675e+00 1.8382595670e+00 3.1839589675e+00 
47700 6.8668197976e+00 2.0741261448e-04 1.8382547964e+00 -3.1839507046e+00 1.8382547964e+00 3.1839507046e+00 
47800 6.8668197366e+00 2.3930975268e-04 1.8382491548e+00 -3.1839409331e+00 1.8382491548e+00 3.1839409331e+00 
47900 6.8668196774e+00 2.7102160924e-04 1.8382426457e+00 -3.1839296589e+00 1.8382426457e+00 3.1839296589e+00 
48000 6.8668196189e+00 3.0248880725e-04 1.8382352739e+00 -3.1839168907e+00 1.8382352739e+00 3.1839168907e+00 
48100 6.8668195601e+00 3.3365378141e-04 1.8382270462e+00 -3.1839026399e+00 1.8382270462e+00 3.1839026399e+00 
48200 6.8668195000e+00 3.6446084479e-04 1.8382179708e+00 -3.1838869208e+00 1.8382179708e+00 3.1838869208e+00 
48300 6.8668194377e+00 3.9485625055e-04 1.8382080574e+00 -3.1838697503e+00 1.8382080574e+00 3.1838697503e+00 
48400 6.8668193725e+00 4.2478824851e-04 1.8381973171e+00 -3.1838511476e+00 1.8381973171e+00 3.1838511476e+00 
48500 6.8668193035e+00 4.5420713675e-04 1.8381857627e+00 -3.1838311347e+00 1.8381857627e+00 3.1838311347e+00 
48600 6.8668192302e+00 4.8306530802e-04 1.8381734079e+00 -3.1838097356e+00 1.8381734079e+00 3.1838097356e+00 
48700 6.8668191520e+00 5.1131729125e-04 1.8381602681e+00 -3.1837869768e+00 1.8381602681e+00 3.1837869768e+00 
48800 6.8668190684e+00 5.3891978790e-04 1.8381463597e+00 -3.1837628868e+00 1.8381463597e+00 3.1837628868e+00 
48900 6.8668189790e+00 5.6583170356e-04 1.8381317004e+00 -3.1837374961e+00 1.8381317004e+00 3.1837374961e+00 
49000 6.8668188835e+00 5.9201417442e-04 1.8381163090e+00 -3.1837108373e+00 1.8381163090e+00 3.1837108373e+00 
49100 6.8668187816e+00 6.1743058906e-04 1.8381002052e+00 -3.1836829447e+00 1.8381002052e+00 3.1836829447e+00 
49200 6.8668186733e+00 6.4204660541e-04 1.8380834098e+00 -3.1836538544e+00 1.8380834098e+00 3.1836538544e+00 
49300 6.8668185583e+00 6.6583016299e-04 1.8380659448e+00 -3.1836236040e+00 1.8380659448e+00 3.1836236040e+00 
49400 6.8668184367e+00 6.8875149058e-04 1.8380478325e+00 -3.1835922327e+00 1.8380478325e+00 3.1835922327e+00 
49500 6.8668183085e+00 7.1078310935e-04 1.8380290966e+00 -3.1835597811e+00 1.8380290966e+00 3.1835597811e+00 
49600 6.8668181739e+00 7.3189983158e-04 1.8380097612e+00 -3.1835262912e+00 1.8380097612e+00 3.1835262912e+00 
49700 6.8668180329e+00 7.5207875502e-04 1.8379898511e+00 -3.1834918059e+00 1.8379898511e+00 3.1834918059e+00 
49800 6.8668178858e+00 7.7129925315e-04 1.8379693919e+00 -3.1834563695e+00 1.8379693919e+00 3.1834563695e+00 
49900 6.8668177330e+00 7.8954296120e-04 1.8379484095e+00 -3.1834200270e+00 1.8379484095e+00 3.1834200270e+00 
50000 6.8668175746e+00 8.0679375838e-04 1.8379269306e+00 -3.1833828245e+00 1.8379269306e+00 3.1833828245e+00 
50100 6.8668174111e+00 8.2303774614e-04 1.8379049822e+00 -3.1833448087e+00 1.8379049822e+00 3.1833448087e+00 
50200 6.8668172429e+00 8.3826322279e-04 1.8378825916e+00 -3.1833060270e+00 1.8378825916e+00 3.1833060270e+00 
50300 6.8668170703e+00 8.5246065453e-04 1.8378597865e+00 -3.1832665275e+00 1.8378597865e+00 3.1832665275e+00 
50400 6.8668168939e+00 8.6562264309e-04 1.8378365949e+00 -3.1832263584e+00 1.8378365949e+00 3.1832263584e+00 
50500 6.8668167142e+00 8.7774389003e-04 1.8378130449e+00 -3.1831855686e+00 1.8378130449e+00 3.1831855686e+00 
50600 6.8668165315e+00 8.8882115797e-04 1.8377891648e+00 -3.1831442071e+00 1.8377891648e+00 3.1831442071e+00 
50700 6.8668163465e+00 8.9885322877e-04 1.8377649831e+00 -3.1831023231e+00 1.8377649831e+00 3.1831023231e+00 
50800 6.8668161596e+00 9.0784085893e-04 1.8377405281e+00 -3.1830599658e+00 1.8377405281e+00 3.1830599658e+00 
50900 6.8668159714e+00 9.1578673227e-04 1.8377158282e+00 -3.1830171844e+00 1.8377158282e+00 3.1830171844e+00 
51000 6.8668157823e+00 9.2269541012e-04 1.8376909118e+00 -3.1829740279e+00 1.8376909118e+00 3.1829740279e+00 
51100 6.8668155930e+00 9.2857327910e-04 1.8376658071e+00 -3.1829305453e+00 1.8376658071e+00 3.1829305453e+00 
51200 6.8668154038e+00 9.3342849674e-04 1.8376405422e+00 -3.1828867851e+00 1.8376405422e+00 3.1828867851e+00 
51300 6.8668152153e+00 9.3727093501e-04 1.8376151448e+00 -3.1828427955e+00 1.8376151448e+00 3.1828427955e+00 
51400 6.8668150280e+00 9.4011212193e-04 1.8375896425e+00 -3.1827986242e+00 1.8375896425e+00 3.1827986242e+00 
51500 6.8668148423e+00 9.4196518150e-04 1.8375640625e+00 -3.1827543184e+00 1.8375640625e+00 3.1827543184e+00 
51600 6.8668146586e+00 9.4284477204e-04 1.8375384317e+00 -3.1827099246e+00 1.8375384317e+00 3.1827099246e+00 
51700 6.8668144775e+00 9.4276702304e-04 1.8375127767e+00 -3.1826654888e+00 1.8375127767e+00 3.1826654888e+00 
51800 6.8668142991e+00 9.4174947083e-04 1.8374871234e+00 -3.1826210560e+00 1.8374871234e+00 3.1826210560e+00 
51900 6.8668141240e+00 9.3981099303e-04 1.8374614974e+00 -3.1825766705e+00 1.8374614974e+00 3.1825766705e+00 
52000 6.8668139525e+00 9.3697174217e-04 1.8374359239e+00 -3.1825323758e+00 1.8374359239e+00 3.1825323758e+00 
52100 6.8668137848e+00 9.3325307834e-04 1.8374104272e+00 -3.1824882143e+00 1.8374104272e+00 3.1824882143e+00 
52200 6.8668136213e+00 9.2867750132e-04 1.8373850314e+00 -3.1824442274e+00 1.8373850314e+00 3.1824442274e+00 
52300 6.8668134621e+00 9.2326858206e-04 1.8373597597e+00 -3.1824004556e+00 1.8373597597e+00 3.1824004556e+00 
52400 6.8668133076e+00 9.1705089389e-04 1.8373346349e+00 -3.1823569382e+00 1.8373346349e+00 3.1823569382e+00 
52500 6.8668131577e+00 9.1004994341e-04 1.8373096790e+00 -3.1823137132e+00 1.8373096790e+00 3.1823137132e+00 
52600 6.8668130128e+00 9.0229210129e-04 1.8372849132e+00 -3.1822708176e+00 1.8372849132e+00 3.1822708176e+00 
52700 6.8668128729e+00 8.9380453319e-04 1.8372603582e+00 -3.1822282871e+00 1.8372603582e+00 3.1822282871e+00 
52800 6.8668127380e+00 8.8461513069e-04 1.8372360339e+00 -3.1821861562e+00 1.8372360339e+00 3.1821861562e+00 
52900 6.8668126083e+00 8.7475244262e-04 1.8372119593e+00 -3.1821444578e+00 1.8372119593e+00 3.1821444578e+00 
53000 6.8668124838e+00 8.6424560680e-04 1.8371881528e+00 -3.1821032238e+00 1.8371881528e+00 3.1821032238e+00 
53100 6.8668123644e+00 8.5312428219e-04 1.8371646320e+00 -3.1820624845e+00 1.8371646320e+00 3.1820624845e+00 
53200 6.8668122501e+00 8.4141858187e-04 1.8371414136e+00 -3.1820222690e+00 1.8371414136e+00 3.1820222690e+00 
53300 6.8668121408e+00 8.2915900658e-04 1.8371185134e+00 -3.1819826047e+00 1.8371185134e+00 3.1819826047e+00 
53400 6.8668120365e+00 8.1637637926e-04 1.8370959466e+00 -3.1819435179e+00 1.8370959466e+00 3.1819435179e+00 
53500 6.8668119371e+00 8.0310178050e-04 1.8370737274e+00 -3.1819050332e+00 1.8370737274e+00 3.1819050332e+00 
53600 6.8668118423e+00 7.8936648504e-04 1.8370518693e+00 -3.1818671738e+00 1.8370518693e+00 3.1818671738e+00 
53700 6.8668117522e+00 7.7520189942e-04 1.8370303847e+00 -3.1818299614e+00 1.8370303847e+00 3.1818299614e+00 
53800 6.8668116664e+00 7.6063950093e-04 1.8370092855e+00 -3.1817934164e+00 1.8370092855e+00 3.1817934164e+00 
53900 6.8668115848e+00 7.4571077780e-04 1.8369885823e+00 -3.1817575575e+00 1.8369885823e+00 3.1817575575e+00 
54000 6.8668115073e+00 7.3044717084e-04 1.8369682852e+00 -3.1817224019e+00 1.8369682852e+00 3.1817224019e+00 
54100 6.8668114336e+00 7.1488001657e-04 1.8369484034e+00 -3.1816879656e+00 1.8369484034e+00 3.1816879656e+00 
54200 6.8668113634e+00 6.9904049184e-04 1.8369289451e+00 -3.1816542628e+00 1.8369289451e+00 3.1816542628e+00 
54300 6.8668112966e+00 6.8295956019e-04 1.8369099177e+00 -3.1816213064e+00 1.8369099177e+00 3.1816213064e+00 
54400 6.8668112330e+00 6.6666791969e-04 1.8368913278e+00 -3.1815891078e+00 1.8368913278e+00 3.1815891078e+00 
54500 6.8668111722e+00 6.5019595271e-04 1.8368731812e+00 -3.1815576769e+00 1.8368731812e+00 3.1815576769e+00 
54600 6.8668111141e+00 6.3357367735e-04 1.8368554828e+00 -3.1815270224e+00 1.8368554828e+00 3.1815270224e+00 
54700 6.8668110585e+00 6.1683070073e-04 1.8368382367e+00 -3.1814971512e+00 1.8368382367e+00 3.1814971512e+00 
54800 6.8668110050e+00 5.9999617416e-04 1.8368214461e+00 -3.1814680692e+00 1.8368214461e+00 3.1814680692e+00 
54900 6.8668109535e+00 5.8309875023e-04 1.8368051137e+00 -3.1814397806e+00 1.8368051137e+00 3.1814397806e+00 
55000 6.8668109037e+00 5.6616654179e-04 1.8367892411e+00 -3.1814122884e+00 1.8367892411e+00 3.1814122884e+00 
55100 6.8668108554e+00 5.4922708298e-04 1.8367738293e+00 -3.1813855943e+00 1.8367738293e+00 3.1813855943e+00 
55200 6.8668108084e+00 5.3230729219e-04 1.8367588784e+00 -3.1813596987e+00 1.8367588784e+00 3.1813596987e+00 
55300 6.8668107625e+00 5.1543343708e-04 1.8367443880e+00 -3.1813346006e+00 1.8367443880e+00 3.1813346006e+00 
55400 6.8668107174e+00 4.9863110158e-04 1.8367303569e+00 -3.1813102980e+00 1.8367303569e+00 3.1813102980e+00 
55500 6.8668106731e+00 4.8192515501e-04 1.8367167830e+00 -3.1812867873e+00 1.8367167830e+00 3.1812867873e+00 
55600 6.8668106293e+00 4.6533972318e-04 1.8367036639e+00 -3.1812640642e+00 1.8367036639e+00 3.1812640642e+00 
55700 6.8668105858e+00 4.4889816158e-04 1.8366909961e+00 -3.1812421230e+00 1.8366909961e+00 3.1812421230e+00 
55800 6.8668105426e+00 4.3262303064e-04 1.8366787758e+00 -3.1812209568e+00 1.8366787758e+00 3.1812209568e+00 
55900 6.8668104994e+00 4.1653607300e-04 1.8366669985e+00 -3.1812005580e+00 1.8366669985e+00 3.1812005580e+00 
56000 6.8668104561e+00 4.0065819287e-04 1.8366556590e+00 -3.1811809175e+00 1.8366556590e+00 3.1811809175e+00 
56100 6.8668104127e+00 3.8500943739e-04 1.8366447518e+00 -3.1811620255e+00 1.8366447518e+00 3.1811620255e+00 
56200 6.8668103690e+00 3.6960898001e-04 1.8366342705e+00 -3.1811438714e+00 1.8366342705e+00 3.1811438714e+00 
56300 6.8668103249e+00 3.5447510593e-04 1.8366242083e+00 -3.1811264433e+00 1.8366242083e+00 3.1811264433e+00 
56400 6.8668102804e+00 3.3962519942e-04 1.8366145582e+00 -3.1811097287e+00 1.8366145582e+00 3.1811097287e+00 
56500 6.8668102353e+00 3.2507573320e-04 1.8366053122e+00 -3.1810937142e+00 1.8366053122e+00 3.1810937142e+00 
56600 6.8668101898e+00 3.1084225966e-04 1.8365964623e+00 -3.1810783857e+00 1.8365964623e+00 3.1810783857e+00 
56700 6.8668101436e+00 2.9693940407e-04 1.8365879999e+00 -3.1810637283e+00 1.8365879999e+00 3.1810637283e+00 
56800 6.8668100968e+00 2.8338085957e-04 1.8365799159e+00 -3.1810497265e+00 1.8365799159e+00 3.1810497265e+00 
56900 6.8668100494e+00 2.7017938405e-04 1.8365722010e+00 -3.1810363639e+00 1.8365722010e+00 3.1810363639e+00 
57000 6.8668100014e+00 2.5734679880e-04 1.8365648454e+00 -3.1810236237e+00 1.8365648454e+00 3.1810236237e+00 
57100 6.8668099528e+00 2.4489398893e-04 1.8365578393e+00 -3.1810114886e+00 1.8365578393e+00 3.1810114886e+00 
57200 6.8668099036e+00 2.3283090550e-04 1.8365511721e+00 -3.1809999407e+00 1.8365511721e+00 3.1809999407e+00 
57300 6.8668098538e+00 2.2116656929e-04 1.8365448333e+00 -3.1809889616e+00 1.8365448333e+00 3.1809889616e+00 
57400 6.8668098035e+00 2.0990907624e-04 1.8365388120e+00 -3.1809785324e+00 1.8365388120e+00 3.1809785324e+00 
57500 6.8668097528e+00 1.9906560440e-04 1.8365330972e+00 -3.1809686341e+00 1.8365330972e+00 3.1809686341e+00 
57600 6.8668097016e+00 1.8864242248e-04 1.8365276776e+00 -3.1809592471e+00 1.8365276776e+00 3.1809592471e+00 
57700 6.8668096500e+00 1.7864489981e-04 1.8365225417e+00 -3.1809503515e+00 1.8365225417e+00 3.1809503515e+00 
57800 6.8668095981e+00 1.6907751774e-04 1.8365176781e+00 -3.1809419274e+00 1.8365176781e+00 3.1809419274e+00 
57900 6.8668095460e+00 1.5994388242e-04 1.8365130749e+00 -3.1809339544e+00 1.8365130749e+00 3.1809339544e+00 
58000 6.8668094937e+00 1.5124673883e-04 1.8365087203e+00 -3.1809264121e+00 1.8365087203e+00 3.1809264121e+00 
58100 6.8668094414e+00 1.4298798617e-04 1.8365046025e+00 -3.1809192799e+00 1.8365046025e+00 3.1809192799e+00 
58200 6.8668093890e+00 1.3516869434e-04 1.8365007096e+00 -3.1809125372e+00 1.8365007096e+00 3.1809125372e+00 
58300 6.8668093367e+00 1.2778912160e-04 1.8364970295e+00 -3.1809061631e+00 1.8364970295e+00 3.1809061631e+00 
58400 6.8668092845e+00 1.2084873331e-04 1.8364935504e+00 -3.1809001370e+00 1.8364935504e+00 3.1809001370e+00 
58500 6.8668092325e+00 1.1434622168e-04 1.8364902602e+00 -3.1808944382e+00 1.8364902602e+00 3.1808944382e+00 
58600 6.8668091808e+00 1.0827952650e-04 1.8364871470e+00 -3.1808890461e+00 1.8364871470e+00 3.1808890461e+00 
58700 6.8668091295e+00 1.0264585668e-04 1.8364841990e+00 -3.1808839400e+00 1.8364841990e+00 3.1808839400e+00 
58800 6.8668090787e+00 9.7441712790e-05 1.8364814044e+00 -3.1808790995e+00 1.8364814044e+00 3.1808790995e+00 
58900 6.8668090284e+00 9.2662910197e-05 1.8364787514e+00 -3.1808745045e+00 1.8364787514e+00 3.1808745045e+00 
59000 6.8668089786e+00 8.8304603034e-05 1.8364762286e+00 -3.1808701348e+00 1.8364762286e+00 3.1808701348e+00 
59100 6.8668089296e+00 8.4361308778e-05 1.8364738244e+00 -3.1808659706e+00 1.8364738244e+00 3.1808659706e+00 
59200 6.8668088812e+00 8.0826933430e-05 1.8364715276e+00 -3.1808619924e+00 1.8364715276e+00 3.1808619924e+00 
59300 6.8668088336e+00 7.7694797236e-05 1.8364693270e+00 -3.1808581809e+00 1.8364693270e+00 3.1808581809e+00 
59400 6.8668087869e+00 7.4957660847e-05 1.8364672116e+00 -3.1808545170e+00 1.8364672116e+00 3.1808545170e+00 
59500 6.8668087410e+00 7.2607751952e-05 1.8364651708e+00 -3.1808509822e+00 1.8364651708e+00 3.1808509822e+00 
59600 6.8668086961e+00 7.0636792208e-05 1.8364631940e+00 -3.1808475582e+00 1.8364631940e+00 3.1808475582e+00 
59700 6.8668086522e+00 7.0853398637e-05 1.8364631940e+00 -3.1808475582e+00 1.8364631940e+00 3.1808475582e+00 
59800 6.8668086093e+00 6.9576074556e-05 1.8364612649e+00 -3.1808442170e+00 1.8364612649e+00 3.1808442170e+00 
59900 6.8668085675e+00 7.0441262321e-05 1.8364612649e+00 -3.1808442170e+00 1.8364612649e+00 3.1808442170e+00 
60000 6.8668085267e+00 7.1634098234e-05 1.8364612649e+00 -3.1808442170e+00 1.8364612649e+00 3.1808442170e+00 
60100 6.8668084869e+00 7.1310183148e-05 1.8364593146e+00 -3.1808408389e+00 1.8364593146e+00 3.1808408389e+00 
60200 6.8668084482e+00 7.1309536807e-05 1.8364573731e+00 -3.1808374761e+00 1.8364573731e+00 3.1808374761e+00 
60300 6.8668084106e+00 7.1620985429e-05 1.8364554316e+00 -3.1808341134e+00 1.8364554316e+00 3.1808341134e+00 
60400 6.8668083740e+00 7.2233072151e-05 1.8364534816e+00 -3.1808307359e+00 1.8364534816e+00 3.1808307359e+00 
60500 6.8668083386e+00 7.3134084969e-05 1.8364515150e+00 -3.1808273296e+00 1.8364515150e+00 3.1808273296e+00 
60600 6.8668083043e+00 7.4312084483e-05 1.8364495238e+00 -3.1808238807e+00 1.8364495238e+00 3.1808238807e+00 
60700 6.8668082711e+00 7.5754931400e-05 1.8364475005e+00 -3.1808203764e+00 1.8364475005e+00 3.1808203764e+00 
60800 6.8668082389e+00 7.7450313714e-05 1.8364454380e+00 -3.1808168039e+00 1.8364454380e+00 3.1808168039e+00 
60900 6.8668082078e+00 7.9385773596e-05 1.8364433293e+00 -3.1808131516e+00 1.8364433293e+00 3.1808131516e+00 
61000 6.8668081777e+00 8.1548733875e-05 1.8364411679e+00 -3.1808094079e+00 1.8364411679e+00 3.1808094079e+00 
61100 6.8668081486e+00 8.3926524104e-05 1.8364389476e+00 -3.1808055622e+00 1.8364389476e+00 3.1808055622e+00 
61200 6.8668081205e+00 8.6506406188e-05 1.8364366626e+00 -3.1808016044e+00 1.8364366626e+00 3.1808016044e+00 
61300 6.8668080933e+00 8.9275599507e-05 1.8364343073e+00 -3.1807975250e+00 1.8364343073e+00 3.1807975250e+00 
61400 6.8668080670e+00 9.2221305528e-05 1.8364318766e+00 -3.1807933149e+00 1.8364318766e+00 3.1807933149e+00 
61500 6.8668080416e+00 9.5330731847e-05 1.8364293657e+00 -3.1807889660e+00 1.8364293657e+00 3.1807889660e+00 
61600 6.8668080170e+00 9.8591115643e-05 1.8364267702e+00 -3.1807844703e+00 1.8364267702e+00 3.1807844703e+00 
61700 6.8668079932e+00 1.0198974653e-04 1.8364240859e+00 -3.1807798210e+00 1.8364240859e+00 3.1807798210e+00 
61800 6.8668079702e+00 1.0551398875e-04 1.8364213090e+00 -3.1807750113e+00 1.8364213090e+00 3.1807750113e+00 
61900 6.8668079479e+00 1.0915130269e-04 1.8364184362e+00 -3.1807700354e+00 1.8364184362e+00 3.1807700354e+00 
62000 6.8668079262e+00 1.1288926573e-04 1.8364154643e+00 -3.1807648880e+00 1.8364154643e+00 3.1807648880e+00 
62100 6.8668079052e+00 1.1671559235e-04 1.8364123907e+00 -3.1807595644e+00 1.8364123907e+00 3.1807595644e+00 
62200 6.8668078847e+00 1.2061815350e-04 1.8364092129e+00 -3.1807540602e+00 1.8364092129e+00 3.1807540602e+00 
62300 6.8668078648e+00 1.2458499524e-04 1.8364059288e+00 -3.1807483720e+00 1.8364059288e+00 3.1807483720e+00 
62400 6.8668078454e+00 1.2860435657e-04 1.8364025367e+00 -3.1807424968e+00 1.8364025367e+00 3.1807424968e+00 
62500 6.8668078264e+00 1.3266468654e-04 1.8363990352e+00 -3.1807364320e+00 1.8363990352e+00 3.1807364320e+00 
62600 6.8668078079e+00 1.3675466045e-04 1.8363954231e+00 -3.1807301756e+00 1.8363954231e+00 3.1807301756e+00 
62700 6.8668077897e+00 1.4086319537e-04 1.8363916997e+00 -3.1807237264e+00 1.8363916997e+00 3.1807237264e+00 
62800 6.8668077719e+00 1.4497946474e-04 1.8363878643e+00 -3.1807170834e+00 1.8363878643e+00 3.1807170834e+00 
62900 6.8668077543e+00 1.4909291219e-04 1.8363839169e+00 -3.1807102463e+00 1.8363839169e+00 3.1807102463e+00 
63000 6.8668077371e+00 1.5319326449e-04 1.8363798575e+00 -3.1807032152e+00 1.8363798575e+00 3.1807032152e+00 
63100 6.8668077201e+00 1.5727054374e-04 1.8363756865e+00 -3.1806959907e+00 1.8363756865e+00 3.1806959907e+00 
63200 6.8668077033e+00 1.6131507863e-04 1.8363714044e+00 -3.1806885739e+00 1.8363714044e+00 3.1806885739e+00 
63300 6.8668076866e+00 1.6531751487e-04 1.8363670121e+00 -3.1806809664e+00 1.8363670121e+00 3.1806809664e+00 
63400 6.8668076702e+00 1.6926882488e-04 1.8363625109e+00 -3.1806731701e+00 1.8363625109e+00 3.1806731701e+00 
63500 6.8668076538e+00 1.7316031646e-04 1.8363579021e+00 -3.1806651874e+00 1.8363579021e+00 3.1806651874e+00 
63600 6.8668076376e+00 1.7698364084e-04 1.8363531874e+00 -3.1806570211e+00 1.8363531874e+00 3.1806570211e+00 
63700 6.8668076215e+00 1.8073079971e-04 1.8363483685e+00 -3.1806486746e+00 1.8363483685e+00 3.1806486746e+00 
63800 6.8668076054e+00 1.8439415152e-04 1.8363434475e+00 -3.1806401513e+00 1.8363434475e+00 3.1806401513e+00 
63900 6.8668075895e+00 1.8796641699e-04 1.8363384269e+00 -3.1806314552e+00 1.8363384269e+00 3.1806314552e+00 
64000 6.8668075735e+00 1.9144068370e-04 1.8363333089e+00 -3.1806225906e+00 1.8363333089e+00 3.1806225906e+00 
64100 6.8668075576e+00 1.9481041005e-04 1.8363280963e+00 -3.1806135622e+00 1.8363280963e+00 3.1806135622e+00 
64200 6.8668075418e+00 1.9806942824e-04 1.8363227920e+00 -3.1806043748e+00 1.8363227920e+00 3.1806043748e+00 
64300 6.8668075260e+00 2.0121194667e-04 1.8363173989e+00 -3.1805950337e+00 1.8363173989e+00 3.1805950337e+00 
64400 6.8668075102e+00 2.0423255143e-04 1.8363119202e+00 -3.1805855443e+00 1.8363119202e+00 3.1805855443e+00 
64500 6.8668074944e+00 2.0712620716e-04 1.8363063593e+00 -3.1805759125e+00 1.8363063593e+00 3.1805759125e+00 
64600 6.8668074786e+00 2.0988825709e-04 1.8363007195e+00 -3.1805661442e+00 1.8363007195e+00 3.1805661442e+00 
64700 6.8668074629e+00 2.1251442247e-04 1.8362950045e+00 -3.1805562455e+00 1.8362950045e+00 3.1805562455e+00 
64800 6.8668074472e+00 2.1500080121e-04 1.8362892180e+00 -3.1805462230e+00 1.8362892180e+00 3.1805462230e+00 
64900 6.8668074315e+00 2.1734386592e-04 1.8362833638e+00 -3.1805360832e+00 1.8362833638e+00 3.1805360832e+00 
65000 6.8668074159e+00 2.1954046127e-04 1.8362774458e+00 -3.1805258329e+00 1.8362774458e+00 3.1805258329e+00 
65100 6.8668074003e+00 2.2158780072e-04 1.8362714679e+00 -3.1805154789e+00 1.8362714679e+00 3.1805154789e+00 
65200 6.8668073847e+00 2.2348346265e-04 1.8362654343e+00 -3.1805050284e+00 1.8362654343e+00 3.1805050284e+00 
65300 6.8668073692e+00 2.2522538588e-04 1.8362593490e+00 -3.1804944884e+00 1.8362593490e+00 3.1804944884e+00 
65400 6.8668073538e+00 2.2681186468e-04 1.8362532163e+00 -3.1804838662e+00 1.8362532163e+00 3.1804838662e+00 
65500 6.8668073385e+00 2.2824154314e-04 1.8362470404e+00 -3.1804731692e+00 1.8362470404e+00 3.1804731692e+00 
65600 6.8668073233e+00 2.2951340912e-04 1.8362408255e+00 -3.1804624047e+00 1.8362408255e+00 3.1804624047e+00 
65700 6.8668073081e+00 2.3062678764e-04 1.8362345759e+00 -3.1804515801e+00 1.8362345759e+00 3.1804515801e+00 
65800 6.8668072931e+00 2.3158133384e-04 1.8362282961e+00 -3.1804407031e+00 1.8362282961e+00 3.1804407031e+00 
65900 6.8668072782e+00 2.3237702547e-04 1.8362219902e+00 -3.1804297809e+00 1.8362219902e+00 3.1804297809e+00 
66000 6.8668072635e+00 2.3301415496e-04 1.8362156626e+00 -3.1804188212e+00 1.8362156626e+00 3.1804188212e+00 
66100 6.8668072489e+00 2.3349332109e-04 1.8362093176e+00 -3.1804078315e+00 1.8362093176e+00 3.1804078315e+00 
66200 6.8668072344e+00 2.3381542033e-04 1.8362029596e+00 -3.1803968191e+00 1.8362029596e+00 3.1803968191e+00 
66300 6.8668072201e+00 2.3398163775e-04 1.8361965928e+00 -3.1803857914e+00 1.8361965928e+00 3.1803857914e+00 
66400 6.8668072061e+00 2.3399343768e-04 1.8361902214e+00 -3.1803747559e+00 1.8361902214e+00 3.1803747559e+00 
66500 6.8668071922e+00 2.3385255409e-04 1.8361838497e+00 -3.1803637198e+00 1.8361838497e+00 3.1803637198e+00 
66600 6.8668071785e+00 2.3356098061e-04 1.8361774818e+00 -3.1803526902e+00 1.8361774818e+00 3.1803526902e+00 
66700 6.8668071650e+00 2.3312096036e-04 1.8361711219e+00 -3.1803416744e+00 1.8361711219e+00 3.1803416744e+00 
66800 6.8668071517e+00 2.3253497559e-04 1.8361647738e+00 -3.1803306794e+00 1.8361647738e+00 3.1803306794e+00 
66900 6.8668071387e+00 2.3180573707e-04 1.8361584418e+00 -3.1803197119e+00 1.8361584418e+00 3.1803197119e+00 
67000 6.8668071259e+00 2.3093617334e-04 1.8361521295e+00 -3.1803087788e+00 1.8361521295e+00 3.1803087788e+00 
67100 6.8668071133e+00 2.2992941978e-04 1.8361458409e+00 -3.1802978866e+00 1.8361458409e+00 3.1802978866e+00 
67200 6.8668071010e+00 2.2878880761e-04 1.8361395797e+00 -3.1802870419e+00 1.8361395797e+00 3.1802870419e+00 
67300 6.8668070889e+00 2.2751785273e-04 1.8361333496e+00 -3.1802762510e+00 1.8361333496e+00 3.1802762510e+00 
67400 6.8668070771e+00 2.2612024453e-04 1.8361271540e+00 -3.1802655199e+00 1.8361271540e+00 3.1802655199e+00 
67500 6.8668070656e+00 2.2459983465e-04 1.8361209965e+00 -3.1802548548e+00 1.8361209965e+00 3.1802548548e+00 
67600 6.8668070543e+00 2.2296062565e-04 1.8361148803e+00 -3.1802442613e+00 1.8361148803e+00 3.1802442613e+00 
67700 6.8668070432e+00 2.2120675974e-04 1.8361088088e+00 -3.1802337451e+00 1.8361088088e+00 3.1802337451e+00 
67800 6.8668070325e+00 2.1934250750e-04 1.8361027850e+00 -3.1802233116e+00 1.8361027850e+00 3.1802233116e+00 
67900 6.8668070219e+00 2.1737225659e-04 1.8360968120e+00 -3.1802129660e+00 1.8360968120e+00 3.1802129660e+00 
68000 6.8668070117e+00 2.1530050058e-04 1.8360908926e+00 -3.1802027133e+00 1.8360908926e+00 3.1802027133e+00 
68100 6.8668070017e+00 2.1313182783e-04 1.8360850296e+00 -3.1801925582e+00 1.8360850296e+00 3.1801925582e+00 
68200 6.8668069919e+00 2.1087091044e-04 1.8360792256e+00 -3.1801825054e+00 1.8360792256e+00 3.1801825054e+00 
68300 6.8668069824e+00 2.0852249331e-04 1.8360734832e+00 -3.1801725593e+00 1.8360734832e+00 3.1801725593e+00 
68400 6.8668069731e+00 2.0609138339e-04 1.8360678047e+00 -3.1801627239e+00 1.8360678047e+00 3.1801627239e+00 
68500 6.8668069641e+00 2.0358243900e-04 1.8360621924e+00 -3.1801530031e+00 1.8360621924e+00 3.1801530031e+00 
68600 6.8668069553e+00 2.0100055933e-04 1.8360566484e+00 -3.1801434006e+00 1.8360566484e+00 3.1801434006e+00 
68700 6.8668069468e+00 1.9835067418e-04 1.8360511747e+00 -3.1801339199e+00 1.8360511747e+00 3.1801339199e+00 
68800 6.8668069384e+00 1.9563773380e-04 1.8360457731e+00 -3.1801245641e+00 1.8360457731e+00 3.1801245641e+00 
68900 6.8668069303e+00 1.9286669898e-04 1.8360404454e+00 -3.1801153363e+00 1.8360404454e+00 3.1801153363e+00 
69000 6.8668069224e+00 1.9004253139e-04 1.8360351932e+00 -3.1801062391e+00 1.8360351932e+00 3.1801062391e+00 
69100 6.8668069147e+00 1.8717018410e-04 1.8360300179e+00 -3.1800972751e+00 1.8360300179e+00 3.1800972751e+00 
69200 6.8668069072e+00 1.8425459239e-04 1.8360249207e+00 -3.1800884466e+00 1.8360249207e+00 3.1800884466e+00 
69300 6.8668068998e+00 1.8130066476e-04 1.8360199030e+00 -3.1800797556e+00 1.8360199030e+00 3.1800797556e+00 
69400 6.8668068927e+00 1.7831327429e-04 1.8360149656e+00 -3.1800712039e+00 1.8360149656e+00 3.1800712039e+00 
69500 6.8668068857e+00 1.7529725021e-04 1.8360101096e+00 -3.1800627931e+00 1.8360101096e+00 3.1800627931e+00 
69600 6.8668068789e+00 1.7225736976e-04 1.8360053358e+00 -3.1800545245e+00 1.8360053358e+00 3.1800545245e+00 
69700 6.8668068722e+00 1.6919835041e-04 1.8360006447e+00 -3.1800463993e+00 1.8360006447e+00 3.1800463993e+00 
69800 6.8668068657e+00 1.6612484225e-04 1.8359960369e+00 -3.1800384184e+00 1.8359960369e+00 3.1800384184e+00 
69900 6.8668068593e+00 1.6304142089e-04 1.8359915128e+00 -3.1800305824e+00 1.8359915128e+00 3.1800305824e+00 
70000 6.8668068530e+00 1.5995258045e-04 1.8359870727e+00 -3.1800228919e+00 1.8359870727e+00 3.1800228919e+00 
70100 6.8668068469e+00 1.5686272703e-04 1.8359827166e+00 -3.1800153470e+00 1.8359827166e+00 3.1800153470e+00 
70200 6.8668068409e+00 1.5377617246e-04 1.8359784447e+00 -3.1800079478e+00 1.8359784447e+00 3.1800079478e+00 
70300 6.8668068349e+00 1.5069712835e-04 1.8359742569e+00 -3.1800006943e+00 1.8359742569e+00 3.1800006943e+00 
70400 6.8668068291e+00 1.4762970049e-04 1.8359701529e+00 -3.1799935859e+00 1.8359701529e+00 3.1799935859e+00 
70500 6.8668068234e+00 1.4457788362e-04 1.8359661324e+00 -3.1799866222e+00 1.8359661324e+00 3.1799866222e+00 
70600 6.8668068178e+00 1.4154555647e-04 1.8359621950e+00 -3.1799798025e+00 1.8359621950e+00 3.1799798025e+00 
70700 6.8668068123e+00 1.3853647718e-04 1.8359583402e+00 -3.1799731258e+00 1.8359583402e+00 3.1799731258e+00 
70800 6.8668068068e+00 1.3555427908e-04 1.8359545673e+00 -3.1799665910e+00 1.8359545673e+00 3.1799665910e+00 
70900 6.8668068014e+00 1.3260246674e-04 1.8359508757e+00 -3.1799601969e+00 1.8359508757e+00 3.1799601969e+00 
71000 6.8668067961e+00 1.2968441239e-04 1.8359472644e+00 -3.1799539420e+00 1.8359472644e+00 3.1799539420e+00 
71100 6.8668067908e+00 1.2680335273e-04 1.8359437326e+00 -3.1799478247e+00 1.8359437326e+00 3.1799478247e+00 
71200 6.8668067856e+00 1.2396238598e-04 1.8359402792e+00 -3.1799418433e+00 1.8359402792e+00 3.1799418433e+00 
71300 6.8668067805e+00 1.2116446931e-04 1.8359369032e+00 -3.1799359959e+00 1.8359369032e+00 3.1799359959e+00 
71400 6.8668067754e+00 1.1841241659e-04 1.8359336034e+00 -3.1799302805e+00 1.8359336034e+00 3.1799302805e+00 
71500 6.8668067704e+00 1.1570889650e-04 1.8359303786e+00 -3.1799246949e+00 1.8359303786e+00 3.1799246949e+00 
71600 6.8668067654e+00 1.1305643087e-04 1.8359272274e+00 -3.1799192368e+00 1.8359272274e+00 3.1799192368e+00 
71700 6.8668067604e+00 1.1045739345e-04 1.8359241484e+00 -3.1799139038e+00 1.8359241484e+00 3.1799139038e+00 
71800 6.8668067555e+00 1.0791400887e-04 1.8359211401e+00 -3.1799086934e+00 1.8359211401e+00 3.1799086934e+00 
71900 6.8668067507e+00 1.0542835203e-04 1.8359182012e+00 -3.1799036030e+00 1.8359182012e+00 3.1799036030e+00 
72000 6.8668067459e+00 1.0300234767e-04 1.8359153299e+00 -3.1798986298e+00 1.8359153299e+00 3.1798986298e+00 
72100 6.8668067411e+00 1.0063777032e-04 1.8359125247e+00 -3.1798937710e+00 1.8359125247e+00 3.1798937710e+00 
72200 6.8668067364e+00 9.8336244496e-05 1.8359097839e+00 -3.1798890238e+00 1.8359097839e+00 3.1798890238e+00 
72300 6.8668067317e+00 9.6099245157e-05 1.8359071058e+00 -3.1798843852e+00 1.8359071058e+00 3.1798843852e+00 
72400 6.8668067271e+00 9.3928098481e-05 1.8359044885e+00 -3.1798798520e+00 1.8359044885e+00 3.1798798520e+00 
72500 6.8668067225e+00 9.1823982869e-05 1.8359019305e+00 -3.1798754213e+00 1.8359019305e+00 3.1798754213e+00 
72600 6.8668067179e+00 8.9787930203e-05 1.8358994297e+00 -3.1798710898e+00 1.8358994297e+00 3.1798710898e+00 
72700 6.8668067134e+00 8.7820827375e-05 1.8358969843e+00 -3.1798668543e+00 1.8358969843e+00 3.1798668543e+00 
72800 6.8668067089e+00 8.5923418019e-05 1.8358945926e+00 -3.1798627117e+00 1.8358945926e+00 3.1798627117e+00 
72900 6.8668067045e+00 8.4096304493e-05 1.8358922525e+00 -3.1798586585e+00 1.8358922525e+00 3.1798586585e+00 
73000 6.8668067001e+00 8.2339950084e-05 1.8358899621e+00 -3.1798546915e+00 1.8358899621e+00 3.1798546915e+00 
73100 6.8668066958e+00 8.0654681404e-05 1.8358877196e+00 -3.1798508074e+00 1.8358877196e+00 3.1798508074e+00 
73200 6.8668066915e+00 7.9040690999e-05 1.8358855230e+00 -3.1798470027e+00 1.8358855230e+00 3.1798470027e+00 
73300 6.8668066873e+00 7.7498040149e-05 1.8358833704e+00 -3.1798432742e+00 1.8358833704e+00 3.1798432742e+00 
73400 6.8668066831e+00 7.6026661839e-05 1.8358812597e+00 -3.1798396185e+00 1.8358812597e+00 3.1798396185e+00 
73500 6.8668066789e+00 7.4626363909e-05 1.8358791891e+00 -3.1798360321e+00 1.8358791891e+00 3.1798360321e+00 
73600 6.8668066749e+00 7.3296832363e-05 1.8358771567e+00 -3.1798325118e+00 1.8358771567e+00 3.1798325118e+00 
73700 6.8668066708e+00 7.2037634829e-05 1.8358751605e+00 -3.1798290543e+00 1.8358751605e+00 3.1798290543e+00 
73800 6.8668066669e+00 7.0848224151e-05 1.8358731985e+00 -3.1798256561e+00 1.8358731985e+00 3.1798256561e+00 
73900 6.8668066630e+00 6.9727942135e-05 1.8358712690e+00 -3.1798223140e+00 1.8358712690e+00 3.1798223140e+00 
74000 6.8668066593e+00 7.0471943179e-05 1.8358712690e+00 -3.1798223140e+00 1.8358712690e+00 3.1798223140e+00 
74100 6.8668066556e+00 7.1265498288e-05 1.8358712690e+00 -3.1798223140e+00 1.8358712690e+00 3.1798223140e+00 
74200 6.8668066519e+00 7.0274076287e-05 1.8358693280e+00 -3.1798189522e+00 1.8358693280e+00 3.1798189522e+00 
74300 6.8668066484e+00 7.1160215905e-05 1.8358693280e+00 -3.1798189522e+00 1.8358693280e+00 3.1798189522e+00 
74400 6.8668066448e+00 7.0265319307e-05 1.8358673900e+00 -3.1798155954e+00 1.8358673900e+00 3.1798155954e+00 
74500 6.8668066414e+00 7.1246279668e-05 1.8358673900e+00 -3.1798155954e+00 1.8358673900e+00 3.1798155954e+00 
74600 6.8668066379e+00 7.0444741665e-05 1.8358654496e+00 -3.1798122346e+00 1.8358654496e+00 3.1798122346e+00 
74700 6.8668066346e+00 7.1521793912e-05 1.8358654496e+00 -3.1798122346e+00 1.8358654496e+00 3.1798122346e+00 
74800 6.8668066313e+00 7.0809547888e-05 1.8358635017e+00 -3.1798088607e+00 1.8358635017e+00 3.1798088607e+00 
74900 6.8668066280e+00 7.0159247548e-05 1.8358615732e+00 -3.1798055204e+00 1.8358615732e+00 3.1798055204e+00 
75000 6.8668066249e+00 7.1376125981e-05 1.8358615732e+00 -3.1798055204e+00 1.8358615732e+00 3.1798055204e+00 
75100 6.8668066218e+00 7.0806909410e-05 1.8358596292e+00 -3.1798021534e+00 1.8358596292e+00 3.1798021534e+00 
75200 6.8668066187e+00 7.0295127763e-05 1.8358577008e+00 -3.1797988133e+00 1.8358577008e+00 3.1797988133e+00 
75300 6.8668066159e+00 7.1649326149e-05 1.8358577008e+00 -3.1797988133e+00 1.8358577008e+00 3.1797988133e+00 
75400 6.8668066129e+00 7.1208958005e-05 1.8358557494e+00 -3.1797954334e+00 1.8358557494e+00 3.1797954334e+00 
75500 6.8668066100e+00 7.0820969000e-05 1.8358538100e+00 -3.1797920742e+00 1.8358538100e+00 3.1797920742e+00 
75600 6.8668066072e+00 7.0483201250e-05 1.8358518812e+00 -3.1797887334e+00 1.8358518812e+00 3.1797887334e+00 
75700 6.8668066046e+00 7.2008880913e-05 1.8358518812e+00 -3.1797887334e+00 1.8358518812e+00 3.1797887334e+00 
75800 6.8668066019e+00 7.1727480318e-05 1.8358499200e+00 -3.1797853365e+00 1.8358499200e+00 3.1797853365e+00 
75900 6.8668065993e+00 7.1490767643e-05 1.8358479665e+00 -3.1797819529e+00 1.8358479665e+00 3.1797819529e+00 
76000 6.8668065967e+00 7.1296463269e-05 1.8358460194e+00 -3.1797785805e+00 1.8358460194e+00 3.1797785805e+00 
76100 6.8668065942e+00 7.1142279502e-05 1.8358440776e+00 -3.1797752172e+00 1.8358440776e+00 3.1797752172e+00 
76200 6.8668065917e+00 7.1025925066e-05 1.8358421400e+00 -3.1797718612e+00 1.8358421400e+00 3.1797718612e+00 
76300 6.8668065893e+00 7.0945109462e-05 1.8358402056e+00 -3.1797685107e+00 1.8358402056e+00 3.1797685107e+00 
76400 6.8668065870e+00 7.0897547225e-05 1.8358382734e+00 -3.1797651640e+00 1.8358382734e+00 3.1797651640e+00 
76500 6.8668065847e+00 7.0880962025e-05 1.8358363425e+00 -3.1797618195e+00 1.8358363425e+00 3.1797618195e+00 
76600 6.8668065825e+00 7.0893090689e-05 1.8358344120e+00 -3.1797584758e+00 1.8358344120e+00 3.1797584758e+00 
76700 6.8668065803e+00 7.0931687022e-05 1.8358324812e+00 -3.1797551316e+00 1.8358324812e+00 3.1797551316e+00 
76800 6.8668065781e+00 7.0994525550e-05 1.8358305493e+00 -3.1797517855e+00 1.8358305493e+00 3.1797517855e+00 
76900 6.8668065760e+00 7.1079405095e-05 1.8358286157e+00 -3.1797484364e+00 1.8358286157e+00 3.1797484364e+00 
77000 6.8668065740e+00 7.1184152211e-05 1.8358266798e+00 -3.1797450833e+00 1.8358266798e+00 3.1797450833e+00 
77100 6.8668065720e+00 7.1306624496e-05 1.8358247411e+00 -3.1797417253e+00 1.8358247411e+00 3.1797417253e+00 
77200 6.8668065700e+00 7.1444713731e-05 1.8358227990e+00 -3.1797383615e+00 1.8358227990e+00 3.1797383615e+00 
77300 6.8668065680e+00 7.1596348891e-05 1.8358208531e+00 -3.1797349912e+00 1.8358208531e+00 3.1797349912e+00 
77400 6.8668065661e+00 7.1759499015e-05 1.8358189032e+00 -3.1797316138e+00 1.8358189032e+00 3.1797316138e+00 
77500 6.8668065643e+00 7.1932175899e-05 1.8358169487e+00 -3.1797282286e+00 1.8358169487e+00 3.1797282286e+00 
77600 6.8668065625e+00 7.2112436673e-05 1.8358149896e+00 -3.1797248353e+00 1.8358149896e+00 3.1797248353e+00 
77700 6.8668065607e+00 7.2298386202e-05 1.8358130255e+00 -3.1797214334e+00 1.8358130255e+00 3.1797214334e+00 
77800 6.8668065589e+00 7.2488179352e-05 1.8358110564e+00 -3.1797180228e+00 1.8358110564e+00 3.1797180228e+00 
77900 6.8668065572e+00 7.2680023101e-05 1.8358090822e+00 -3.1797146033e+00 1.8358090822e+00 3.1797146033e+00 
78000 6.8668065554e+00 7.2872178489e-05 1.8358071026e+00 -3.1797111747e+00 1.8358071026e+00 3.1797111747e+00 
78100 6.8668065538e+00 7.3062962440e-05 1.8358051179e+00 -3.1797077370e+00 1.8358051179e+00 3.1797077370e+00 
78200 6.8668065521e+00 7.3250749414e-05 1.8358031280e+00 -3.1797042903e+00 1.8358031280e+00 3.1797042903e+00 
78300 6.8668065505e+00 7.3433972916e-05 1.8358011329e+00 -3.1797008348e+00 1.8358011329e+00 3.1797008348e+00 
78400 6.8668065489e+00 7.3611126870e-05 1.8357991328e+00 -3.1796973706e+00 1.8357991328e+00 3.1796973706e+00 
78500 6.8668065473e+00 7.3780766824e-05 1.8357971280e+00 -3.1796938980e+00 1.8357971280e+00 3.1796938980e+00 
78600 6.8668065457e+00 7.3941511025e-05 1.8357951185e+00 -3.1796904175e+00 1.8357951185e+00 3.1796904175e+00 
78700 6.8668065442e+00 7.4092041350e-05 1.8357931046e+00 -3.1796869293e+00 1.8357931046e+00 3.1796869293e+00 
78800 6.8668065427e+00 7.4231104099e-05 1.8357910866e+00 -3.1796834341e+00 1.8357910866e+00 3.1796834341e+00 
78900 6.8668065412e+00 7.4357510626e-05 1.8357890648e+00 -3.1796799323e+00 1.8357890648e+00 3.1796799323e+00 
79000 6.8668065397e+00 7.4470137877e-05 1.8357870396e+00 -3.1796764245e+00 1.8357870396e+00 3.1796764245e+00 
79100 6.8668065382e+00 7.4567928735e-05 1.8357850113e+00 -3.1796729114e+00 1.8357850113e+00 3.1796729114e+00 
79200 6.8668065368e+00 7.4649892297e-05 1.8357829804e+00 -3.1796693937e+00 1.8357829804e+00 3.1796693937e+00 
79300 6.8668065354e+00 7.4715103965e-05 1.8357809472e+00 -3.1796658721e+00 1.8357809472e+00 3.1796658721e+00 
79400 6.8668065339e+00 7.4762705453e-05 1.8357789122e+00 -3.1796623474e+00 1.8357789122e+00 3.1796623474e+00 
79500 6.8668065326e+00 7.4791904646e-05 1.8357768759e+00 -3.1796588205e+00 1.8357768759e+00 3.1796588205e+00 
79600 6.8668065312e+00 7.4801975349e-05 1.8357748389e+00 -3.1796552922e+00 1.8357748389e+00 3.1796552922e+00 
79700 6.8668065298e+00 7.4792256925e-05 1.8357728015e+00 -3.1796517634e+00 1.8357728015e+00 3.1796517634e+00 
79800 6.8668065285e+00 7.4762153809e-05 1.8357707645e+00 -3.1796482351e+00 1.8357707645e+00 3.1796482351e+00 
79900 6.8668065272e+00 7.4711134916e-05 1.8357687282e+00 -3.1796447082e+00 1.8357687282e+00 3.1796447082e+00 
80000 6.8668065259e+00 7.4638732951e-05 1.8357666933e+00 -3.1796411837e+00 1.8357666933e+00 3.1796411837e+00 
80100 6.8668065246e+00 7.4544543615e-05 1.8357646604e+00 -3.1796376626e+00 1.8357646604e+00 3.1796376626e+00 
80200 6.8668065233e+00 7.4428224699e-05 1.8357626301e+00 -3.1796341459e+00 1.8357626301e+00 3.1796341459e+00 
80300 6.8668065221e+00 7.4289495115e-05 1.8357606029e+00 -3.1796306348e+00 1.8357606029e+00 3.1796306348e+00 
80400 6.8668065208e+00 7.4128133803e-05 1.8357585795e+00 -3.1796271301e+00 1.8357585795e+00 3.1796271301e+00 
80500 6.8668065196e+00 7.3943978583e-05 1.8357565605e+00 -3.1796236331e+00 1.8357565605e+00 3.1796236331e+00 
80600 6.8668065184e+00 7.3736924904e-05 1.8357545465e+00 -3.1796201448e+00 1.8357545465e+00 3.1796201448e+00 
80700 6.8668065172e+00 7.3506924527e-05 1.8357525382e+00 -3.1796166662e+00 1.8357525382e+00 3.1796166662e+00 
80800 6.8668065161e+00 7.3253984136e-05 1.8357505361e+00 -3.1796131985e+00 1.8357505361e+00 3.1796131985e+00 
80900 6.8668065149e+00 7.2978163879e-05 1.8357485409e+00 -3.1796097427e+00 1.8357485409e+00 3.1796097427e+00 
81000 6.8668065138e+00 7.2679575838e-05 1.8357465532e+00 -3.1796062999e+00 1.8357465532e+00 3.1796062999e+00 
81100 6.8668065127e+00 7.2358382460e-05 1.8357445736e+00 -3.1796028712e+00 1.8357445736e+00 3.1796028712e+00 
81200 6.8668065116e+00 7.2014794910e-05 1.8357426028e+00 -3.1795994576e+00 1.8357426028e+00 3.1795994576e+00 
81300 6.8668065105e+00 7.1649071384e-05 1.8357406413e+00 -3.1795960603e+00 1.8357406413e+00 3.1795960603e+00 
81400 6.8668065094e+00 7.1261515379e-05 1.8357386898e+00 -3.1795926802e+00 1.8357386898e+00 3.1795926802e+00 
81500 6.8668065084e+00 7.0852473914e-05 1.8357367489e+00 -3.1795893184e+00 1.8357367489e+00 3.1795893184e+00 
81600 6.8668065074e+00 7.0422335726e-05 1.8357348191e+00 -3.1795859758e+00 1.8357348191e+00 3.1795859758e+00 
81700 6.8668065065e+00 7.1785794164e-05 1.8357348191e+00 -3.1795859758e+00 1.8357348191e+00 3.1795859758e+00 
81800 6.8668065055e+00 7.1277306569e-05 1.8357328638e+00 -3.1795825893e+00 1.8357328638e+00 3.1795825893e+00 
81900 6.8668065046e+00 7.0750201605e-05 1.8357309224e+00 -3.1795792267e+00 1.8357309224e+00 3.1795792267e+00 
82000 6.8668065036e+00 7.0204973799e-05 1.8357289954e+00 -3.1795758890e+00 1.8357289954e+00 3.1795758890e+00 
82100 6.8668065028e+00 7.1450834141e-05 1.8357289954e+00 -3.1795758890e+00 1.8357289954e+00 3.1795758890e+00 
82200 6.8668065019e+00 7.0833607690e-05 1.8357270493e+00 -3.1795725182e+00 1.8357270493e+00 3.1795725182e+00 
82300 6.8668065010e+00 7.0201007839e-05 1.8357251200e+00 -3.1795691766e+00 1.8357251200e+00 3.1795691766e+00 
82400 6.8668065003e+00 7.1362199915e-05 1.8357251200e+00 -3.1795691766e+00 1.8357251200e+00 3.1795691766e+00 
82500 6.8668064994e+00 7.0663229462e-05 1.8357231763e+00 -3.1795658100e+00 1.8357231763e+00 3.1795658100e+00 
82600 6.8668064987e+00 7.1772260042e-05 1.8357231763e+00 -3.1795658100e+00 1.8357231763e+00 3.1795658100e+00 
82700 6.8668064979e+00 7.1011265965e-05 1.8357212214e+00 -3.1795624240e+00 1.8357212214e+00 3.1795624240e+00 
82800 6.8668064971e+00 7.0240069825e-05 1.8357192873e+00 -3.1795590740e+00 1.8357192873e+00 3.1795590740e+00 
82900 6.8668064964e+00 7.1268886017e-05 1.8357192873e+00 -3.1795590740e+00 1.8357192873e+00 3.1795590740e+00 
83000 6.8668064956e+00 7.0441707336e-05 1.8357173461e+00 -3.1795557118e+00 1.8357173461e+00 3.1795557118e+00 
83100 6.8668064950e+00 7.1422062604e-05 1.8357173461e+00 -3.1795557118e+00 1.8357173461e+00 3.1795557118e+00 
83200 6.8668064943e+00 7.0543423684e-05 1.8357154007e+00 -3.1795523423e+00 1.8357154007e+00 3.1795523423e+00 
83300 6.8668064937e+00 7.1477241028e-05 1.8357154007e+00 -3.1795523423e+00 1.8357154007e+00 3.1795523423e+00 
83400 6.8668064929e+00 7.0551661651e-05 1.8357134539e+00 -3.1795489703e+00 1.8357134539e+00 3.1795489703e+00 
83500 6.8668064924e+00 7.1441014602e-05 1.8357134539e+00 -3.1795489703e+00 1.8357134539e+00 3.1795489703e+00 
83600 6.8668064917e+00 7.0472983272e-05 1.8357115080e+00 -3.1795455999e+00 1.8357115080e+00 3.1795455999e+00 
83700 6.8668064911e+00 7.1320071305e-05 1.8357115080e+00 -3.1795455999e+00 1.8357115080e+00 3.1795455999e+00 
83800 6.8668064904e+00 7.0314018614e-05 1.8357095655e+00 -3.1795422353e+00 1.8357095655e+00 3.1795422353e+00 
83900 6.8668064899e+00 7.1121143332e-05 1.8357095655e+00 -3.1795422353e+00 1.8357095655e+00 3.1795422353e+00 
84000 6.8668064893e+00 7.0081417429e-05 1.8357076283e+00 -3.1795388801e+00 1.8357076283e+00 3.1795388801e+00 
84100 6.8668064888e+00 7.0850959636e-05 1.8357076283e+00 -3.1795388801e+00 1.8357076283e+00 3.1795388801e+00 
84200 6.8668064881e+00 6.9781803814e-05 1.8357056985e+00 -3.1795355375e+00 1.8357056985e+00 3.1795355375e+00 
84300 6.8668064877e+00 7.0516201479e-05 1.8357056985e+00 -3.1795355375e+00 1.8357056985e+00 3.1795355375e+00 
84400 6.8668064872e+00 7.1238503247e-05 1.8357056985e+00 -3.1795355375e+00 1.8357056985e+00 3.1795355375e+00 
84500 6.8668064866e+00 7.0114121119e-05 1.8357037581e+00 -3.1795321768e+00 1.8357037581e+00 3.1795321768e+00 
84600 6.8668064861e+00 7.0805232529e-05 1.8357037581e+00 -3.1795321768e+00 1.8357037581e+00 3.1795321768e+00 
84700 6.8668064856e+00 6.9662022538e-05 1.8357018296e+00 -3.1795288364e+00 1.8357018296e+00 3.1795288364e+00 
84800 6.8668064851e+00 7.0324405978e-05 1.8357018296e+00 -3.1795288364e+00 1.8357018296e+00 3.1795288364e+00 
84900 6.8668064847e+00 7.0977884833e-05 1.8357018296e+00 -3.1795288364e+00 1.8357018296e+00 3.1795288364e+00 
85000 6.8668064842e+00 6.9794558291e-05 1.8356998963e+00 -3.1795254879e+00 1.8356998963e+00 3.1795254879e+00 
85100 6.8668064837e+00 7.0423204491e-05 1.8356998963e+00 -3.1795254879e+00 1.8356998963e+00 3.1795254879e+00 
85200 6.8668064834e+00 7.1044872422e-05 1.8356998963e+00 -3.1795254879e+00 1.8356998963e+00 3.1795254879e+00 
85300 6.8668064828e+00 6.9829905231e-05 1.8356979612e+00 -3.1795221362e+00 1.8356979612e+00 3.1795221362e+00 
85400 6.8668064824e+00 7.0430503978e-05 1.8356979612e+00 -3.1795221362e+00 1.8356979612e+00 3.1795221362e+00 
85500 6.8668064821e+00 7.1025964391e-05 1.8356979612e+00 -3.1795221362e+00 1.8356979612e+00 3.1795221362e+00 
85600 6.8668064816e+00 6.9787077852e-05 1.8356960267e+00 -3.1795187854e+00 1.8356960267e+00 3.1795187854e+00 
85700 6.8668064812e+00 7.0365045484e-05 1.8356960267e+00 -3.1795187854e+00 1.8356960267e+00 3.1795187854e+00 
85800 6.8668064809e+00 7.0939604148e-05 1.8356960267e+00 -3.1795187854e+00 1.8356960267e+00 3.1795187854e+00 
85900 6.8668064804e+00 6.9683724014e-05 1.8356940944e+00 -3.1795154387e+00 1.8356940944e+00 3.1795154387e+00 
86000 6.8668064800e+00 7.0244132810e-05 1.8356940944e+00 -3.1795154387e+00 1.8356940944e+00 3.1795154387e+00 
86100 6.8668064797e+00 7.0802731514e-05 1.8356940944e+00 -3.1795154387e+00 1.8356940944e+00 3.1795154387e+00 
86200 6.8668064792e+00 6.9535964629e-05 1.8356921659e+00 -3.1795120985e+00 1.8356921659e+00 3.1795120985e+00 
86300 6.8668064789e+00 7.0083485074e-05 1.8356921659e+00 -3.1795120985e+00 1.8356921659e+00 3.1795120985e+00 
86400 6.8668064786e+00 7.0630648030e-05 1.8356921659e+00 -3.1795120985e+00 1.8356921659e+00 3.1795120985e+00 
86500 6.8668064783e+00 7.1178024869e-05 1.8356921659e+00 -3.1795120985e+00 1.8356921659e+00 3.1795120985e+00 
86600 6.8668064778e+00 6.9892313787e-05 1.8356902272e+00 -3.1795087405e+00 1.8356902272e+00 3.1795087405e+00 
86700 6.8668064775e+00 7.0432389922e-05 1.8356902272e+00 -3.1795087405e+00 1.8356902272e+00 3.1795087405e+00 
86800 6.8668064773e+00 7.0973906440e-05 1.8356902272e+00 -3.1795087405e+00 1.8356902272e+00 3.1795087405e+00 
86900 6.8668064768e+00 6.9688758739e-05 1.8356882940e+00 -3.1795053921e+00 1.8356882940e+00 3.1795053921e+00 
87000 6.8668064765e+00 7.0225283270e-05 1.8356882940e+00 -3.1795053921e+00 1.8356882940e+00 3.1795053921e+00 
87100 6.8668064763e+00 7.0764303934e-05 1.8356882940e+00 -3.1795053921e+00 1.8356882940e+00 3.1795053921e+00 
87200 6.8668064759e+00 6.9483053322e-05 1.8356863666e+00 -3.1795020537e+00 1.8356863666e+00 3.1795020537e+00 
87300 6.8668064756e+00 7.0019046652e-05 1.8356863666e+00 -3.1795020537e+00 1.8356863666e+00 3.1795020537e+00 
87400 6.8668064753e+00 7.0558418587e-05 1.8356863666e+00 -3.1795020537e+00 1.8356863666e+00 3.1795020537e+00 
87500 6.8668064751e+00 7.1101546498e-05 1.8356863666e+00 -3.1795020537e+00 1.8356863666e+00 3.1795020537e+00 
87600 6.8668064747e+00 6.9816888860e-05 1.8356844299e+00 -3.1794986993e+00 1.8356844299e+00 3.1794986993e+00 
87700 6.8668064744e+00 7.0359223097e-05 1.8356844299e+00 -3.1794986993e+00 1.8356844299e+00 3.1794986993e+00 
87800 6.8668064742e+00 7.0905952774e-05 1.8356844299e+00 -3.1794986993e+00 1.8356844299e+00 3.1794986993e+00 
87900 6.8668064738e+00 6.9630512438e-05 1.8356824986e+00 -3.1794953542e+00 1.8356824986e+00 3.1794953542e+00 
88000 6.8668064736e+00 7.0177580028e-05 1.8356824986e+00 -3.1794953542e+00 1.8356824986e+00 3.1794953542e+00 
88100 6.8668064734e+00 7.0729512150e-05 1.8356824986e+00 -3.1794953542e+00 1.8356824986e+00 3.1794953542e+00 
88200 6.8668064730e+00 6.9464228140e-05 1.8356805721e+00 -3.1794920173e+00 1.8356805721e+00 3.1794920173e+00 
88300 6.8668064728e+00 7.0017293623e-05 1.8356805721e+00 -3.1794920173e+00 1.8356805721e+00 3.1794920173e+00 
88400 6.8668064726e+00 7.0575529874e-05 1.8356805721e+00 -3.1794920173e+00 1.8356805721e+00 3.1794920173e+00 
88500 6.8668064724e+00 7.1139126064e-05 1.8356805721e+00 -3.1794920173e+00 1.8356805721e+00 3.1794920173e+00 
88600 6.8668064720e+00 6.9875370114e-05 1.8356786344e+00 -3.1794886612e+00 1.8356786344e+00 3.1794886612e+00 
88700 6.8668064719e+00 7.0440820499e-05 1.8356786344e+00 -3.1794886612e+00 1.8356786344e+00 3.1794886612e+00 
88800 6.8668064717e+00 7.1011721681e-05 1.8356786344e+00 -3.1794886612e+00 1.8356786344e+00 3.1794886612e+00 
88900 6.8668064713e+00 6.9758589473e-05 1.8356767002e+00 -3.1794853110e+00 1.8356767002e+00 3.1794853110e+00 
89000 6.8668064712e+00 7.0331398638e-05 1.8356767002e+00 -3.1794853110e+00 1.8356767002e+00 3.1794853110e+00 
89100 6.8668064710e+00 7.0909608645e-05 1.8356767002e+00 -3.1794853110e+00 1.8356767002e+00 3.1794853110e+00 
89200 6.8668064707e+00 6.9666316009e-05 1.8356747688e+00 -3.1794819657e+00 1.8356747688e+00 3.1794819657e+00 
89300 6.8668064705e+00 7.0246216575e-05 1.8356747688e+00 -3.1794819657e+00 1.8356747688e+00 3.1794819657e+00 
89400 6.8668064703e+00 7.0831341045e-05 1.8356747688e+00 -3.1794819657e+00 1.8356747688e+00 3.1794819657e+00 
89500 6.8668064700e+00 6.9596757013e-05 1.8356728395e+00 -3.1794786241e+00 1.8356728395e+00 3.1794786241e+00 
89600 6.8668064699e+00 7.0183112183e-05 1.8356728395e+00 -3.1794786241e+00 1.8356728395e+00 3.1794786241e+00 
89700 6.8668064697e+00 7.0774402028e-05 1.8356728395e+00 -3.1794786241e+00 1.8356728395e+00 3.1794786241e+00 
89800 6.8668064694e+00 6.9547120677e-05 1.8356709117e+00 -3.1794752851e+00 1.8356709117e+00 3.1794752851e+00 
89900 6.8668064693e+00 7.0138969280e-05 1.8356709117e+00 -3.1794752851e+00 1.8356709117e+00 3.1794752851e+00 
90000 6.8668064691e+00 7.0735366318e-05 1.8356709117e+00 -3.1794752851e+00 1.8356709117e+00 3.1794752851e+00 
90100 6.8668064689e+00 6.9513776279e-05 1.8356689850e+00 -3.1794719480e+00 1.8356689850e+00 3.1794719480e+00 
90200 6.8668064687e+00 7.0109879387e-05 1.8356689850e+00 -3.1794719480e+00 1.8356689850e+00 3.1794719480e+00 
90300 6.8668064686e+00 7.0710063248e-05 1.8356689850e+00 -3.1794719480e+00 1.8356689850e+00 3.1794719480e+00 
90400 6.8668064685e+00 7.1314278393e-05 1.8356689850e+00 -3.1794719480e+00 1.8356689850e+00 3.1794719480e+00 
90500 6.8668064682e+00 7.0085033394e-05 1.8356670426e+00 -3.1794685835e+00 1.8356670426e+00 3.1794685835e+00 
90600 6.8668064681e+00 7.0687745259e-05 1.8356670426e+00 -3.1794685835e+00 1.8356670426e+00 3.1794685835e+00 
90700 6.8668064680e+00 7.1293923015e-05 1.8356670426e+00 -3.1794685835e+00 1.8356670426e+00 3.1794685835e+00 
90800 6.8668064677e+00 7.0066575042e-05 1.8356651007e+00 -3.1794652201e+00 1.8356651007e+00 3.1794652201e+00 
90900 6.8668064676e+00 7.0670069408e-05 1.8356651007e+00 -3.1794652201e+00 1.8356651007e+00 3.1794652201e+00 
91000 6.8668064675e+00 7.1276416117e-05 1.8356651007e+00 -3.1794652201e+00 1.8356651007e+00 3.1794652201e+00 
91100 6.8668064672e+00 7.0049055190e-05 1.8356631592e+00 -3.1794618574e+00 1.8356631592e+00 3.1794618574e+00 
91200 6.8668064671e+00 7.0651457507e-05 1.8356631592e+00 -3.1794618574e+00 1.8356631592e+00 3.1794618574e+00 
91300 6.8668064670e+00 7.1256066065e-05 1.8356631592e+00 -3.1794618574e+00 1.8356631592e+00 3.1794618574e+00 
91400 6.8668064668e+00 7.0026830772e-05 1.8356612184e+00 -3.1794584957e+00 1.8356612184e+00 3.1794584957e+00 
91500 6.8668064667e+00 7.0626184211e-05 1.8356612184e+00 -3.1794584957e+00 1.8356612184e+00 3.1794584957e+00 
91600 6.8668064666e+00 7.1227080050e-05 1.8356612184e+00 -3.1794584957e+00 1.8356612184e+00 3.1794584957e+00 
91700 6.8668064664e+00 6.9994205277e-05 1.8356592783e+00 -3.1794551353e+00 1.8356592783e+00 3.1794551353e+00 
91800 6.8668064663e+00 7.0588514980e-05 1.8356592783e+00 -3.1794551353e+00 1.8356592783e+00 3.1794551353e+00 
91900 6.8668064662e+00 7.1183699348e-05 1.8356592783e+00 -3.1794551353e+00 1.8356592783e+00 3.1794551353e+00 
92000 6.8668064660e+00 6.9945557694e-05 1.8356573394e+00 -3.1794517771e+00 1.8356573394e+00 3.1794517771e+00 
92100 6.8668064659e+00 7.0532831978e-05 1.8356573394e+00 -3.1794517771e+00 1.8356573394e+00 3.1794517771e+00 
92200 6.8668064658e+00 7.1120322066e-05 1.8356573394e+00 -3.1794517771e+00 1.8356573394e+00 3.1794517771e+00 
92300 6.8668064656e+00 6.9875458774e-05 1.8356554022e+00 -3.1794484217e+00 1.8356554022e+00 3.1794484217e+00 
92400 6.8668064655e+00 7.0453746934e-05 1.8356554022e+00 -3.1794484217e+00 1.8356554022e+00 3.1794484217e+00 
92500 6.8668064654e+00 7.1031612460e-05 1.8356554022e+00 -3.1794484217e+00 1.8356554022e+00 3.1794484217e+00 
92600 6.8668064652e+00 6.9778773931e-05 1.8356534674e+00 -3.1794450706e+00 1.8356534674e+00 3.1794450706e+00 
92700 6.8668064652e+00 7.0346200321e-05 1.8356534674e+00 -3.1794450706e+00 1.8356534674e+00 3.1794450706e+00 
92800 6.8668064651e+00 7.0912596331e-05 1.8356534674e+00 -3.1794450706e+00 1.8356534674e+00 3.1794450706e+00 
92900 6.8668064649e+00 6.9650752307e-05 1.8356515359e+00 -3.1794417251e+00 1.8356515359e+00 3.1794417251e+00 
93000 6.8668064648e+00 7.0205546436e-05 1.8356515359e+00 -3.1794417251e+00 1.8356515359e+00 3.1794417251e+00 
93100 6.8668064648e+00 7.0758742066e-05 1.8356515359e+00 -3.1794417251e+00 1.8356515359e+00 3.1794417251e+00 
93200 6.8668064645e+00 6.9487101617e-05 1.8356496085e+00 -3.1794383868e+00 1.8356496085e+00 3.1794383868e+00 
93300 6.8668064645e+00 7.0027624144e-05 1.8356496085e+00 -3.1794383868e+00 1.8356496085e+00 3.1794383868e+00 
93400 6.8668064644e+00 7.0566027226e-05 1.8356496085e+00 -3.1794383868e+00 1.8356496085e+00 3.1794383868e+00 
93500 6.8668064644e+00 7.1102270465e-05 1.8356496085e+00 -3.1794383868e+00 1.8356496085e+00 3.1794383868e+00 
93600 6.8668064642e+00 6.9804277778e-05 1.8356476718e+00 -3.1794350324e+00 1.8356476718e+00 3.1794350324e+00 
93700 6.8668064641e+00 7.0326739757e-05 1.8356476718e+00 -3.1794350324e+00 1.8356476718e+00 3.1794350324e+00 
93800 6.8668064641e+00 7.0846579864e-05 1.8356476718e+00 -3.1794350324e+00 1.8356476718e+00 3.1794350324e+00 
93900 6.8668064639e+00 6.9538321347e-05 1.8356457421e+00 -3.1794316899e+00 1.8356457421e+00 3.1794316899e+00 
94000 6.8668064638e+00 7.0043544078e-05 1.8356457421e+00 -3.1794316899e+00 1.8356457421e+00 3.1794316899e+00 
94100 6.8668064638e+00 7.0545739596e-05 1.8356457421e+00 -3.1794316899e+00 1.8356457421e+00 3.1794316899e+00 
94200 6.8668064637e+00 7.1044907775e-05 1.8356457421e+00 -3.1794316899e+00 1.8356457421e+00 3.1794316899e+00 
94300 6.8668064635e+00 6.9710477813e-05 1.8356438069e+00 -3.1794283382e+00 1.8356438069e+00 3.1794283382e+00 
94400 6.8668064635e+00 7.0194260384e-05 1.8356438069e+00 -3.1794283382e+00 1.8356438069e+00 3.1794283382e+00 
94500 6.8668064635e+00 7.0674678288e-05 1.8356438069e+00 -3.1794283382e+00 1.8356438069e+00 3.1794283382e+00 
94600 6.8668064634e+00 7.1151754438e-05 1.8356438069e+00 -3.1794283382e+00 1.8356438069e+00 3.1794283382e+00 
94700 6.8668064632e+00 6.9792181163e-05 1.8356418689e+00 -3.1794249814e+00 1.8356418689e+00 3.1794249814e+00 
94800 6.8668064632e+00 7.0253297563e-05 1.8356418689e+00 -3.1794249814e+00 1.8356418689e+00 3.1794249814e+00 
94900 6.8668064632e+00 7.0710803057e-05 1.8356418689e+00 -3.1794249814e+00 1.8356418689e+00 3.1794249814e+00 
95000 6.8668064630e+00 6.9342764201e-05 1.8356399428e+00 -3.1794216453e+00 1.8356399428e+00 3.1794216453e+00 
95100 6.8668064629e+00 6.9783887024e-05 1.8356399428e+00 -3.1794216453e+00 1.8356399428e+00 3.1794216453e+00 
95200 6.8668064629e+00 7.0221189777e-05 1.8356399428e+00 -3.1794216453e+00 1.8356399428e+00 3.1794216453e+00 
95300 6.8668064629e+00 7.0654737473e-05 1.8356399428e+00 -3.1794216453e+00 1.8356399428e+00 3.1794216453e+00 
95400 6.8668064629e+00 7.1084598581e-05 1.8356399428e+00 -3.1794216453e+00 1.8356399428e+00 3.1794216453e+00 
95500 6.8668064627e+00 6.9679227503e-05 1.8356380066e+00 -3.1794182917e+00 1.8356380066e+00 3.1794182917e+00 
95600 6.8668064626e+00 7.0092582173e-05 1.8356380066e+00 -3.1794182917e+00 1.8356380066e+00 3.1794182917e+00 
95700 6.8668064626e+00 7.0502114610e-05 1.8356380066e+00 -3.1794182917e+00 1.8356380066e+00 3.1794182917e+00 
95800 6.8668064626e+00 7.0907913431e-05 1.8356380066e+00 -3.1794182917e+00 1.8356380066e+00 3.1794182917e+00 
95900 6.8668064624e+00 6.9482998891e-05 1.8356360751e+00 -3.1794149464e+00 1.8356360751e+00 3.1794149464e+00 
96000 6.8668064624e+00 6.9872279317e-05 1.8356360751e+00 -3.1794149464e+00 1.8356360751e+00 3.1794149464e+00 
96100 6.8668064624e+00 7.0257749540e-05 1.8356360751e+00 -3.1794149464e+00 1.8356360751e+00 3.1794149464e+00 
96200 6.8668064623e+00 7.0639516700e-05 1.8356360751e+00 -3.1794149464e+00 1.8356360751e+00 3.1794149464e+00 
96300 6.8668064623e+00 7.1017690147e-05 1.8356360751e+00 -3.1794149464e+00 1.8356360751e+00 3.1794149464e+00 
96400 6.8668064622e+00 6.9562474963e-05 1.8356341407e+00 -3.1794115959e+00 1.8356341407e+00 3.1794115959e+00 
96500 6.8668064621e+00 6.9924453845e-05 1.8356341407e+00 -3.1794115959e+00 1.8356341407e+00 3.1794115959e+00 
96600 6.8668064621e+00 7.0282818728e-05 1.8356341407e+00 -3.1794115959e+00 1.8356341407e+00 3.1794115959e+00 
96700 6.8668064621e+00 7.0637693937e-05 1.8356341407e+00 -3.1794115959e+00 1.8356341407e+00 3.1794115959e+00 
96800 6.8668064621e+00 7.0989205136e-05 1.8356341407e+00 -3.1794115959e+00 1.8356341407e+00 3.1794115959e+00 
96900 6.8668064619e+00 6.9508300486e-05 1.8356322071e+00 -3.1794082467e+00 1.8356322071e+00 3.1794082467e+00 
97000 6.8668064619e+00 6.9844125581e-05 1.8356322071e+00 -3.1794082467e+00 1.8356322071e+00 3.1794082467e+00 
97100 6.8668064619e+00 7.0176610262e-05 1.8356322071e+00 -3.1794082467e+00 1.8356322071e+00 3.1794082467e+00 
97200 6.8668064619e+00 7.0505891722e-05 1.8356322071e+00 -3.1794082467e+00 1.8356322071e+00 3.1794082467e+00 
97300 6.8668064619e+00 7.0832107647e-05 1.8356322071e+00 -3.1794082467e+00 1.8356322071e+00 3.1794082467e+00 
97400 6.8668064617e+00 6.9330259092e-05 1.8356302777e+00 -3.1794049049e+00 1.8356302777e+00 3.1794049049e+00 
97500 6.8668064617e+00 6.9641439134e-05 1.8356302777e+00 -3.1794049049e+00 1.8356302777e+00 3.1794049049e+00 
97600 6.8668064617e+00 6.9949609152e-05 1.8356302777e+00 -3.1794049049e+00 1.8356302777e+00 3.1794049049e+00 
97700 6.8668064617e+00 7.0254915071e-05 1.8356302777e+00 -3.1794049049e+00 1.8356302777e+00 3.1794049049e+00 
97800 6.8668064617e+00 7.0557502523e-05 1.8356302777e+00 -3.1794049049e+00 1.8356302777e+00 3.1794049049e+00 
97900 6.8668064617e+00 7.0857516431e-05 1.8356302777e+00 -3.1794049049e+00 1.8356302777e+00 3.1794049049e+00 
98000 6.8668064615e+00 6.9329303164e-05 1.8356283477e+00 -3.1794015620e+00 1.8356283477e+00 3.1794015620e+00 
98100 6.8668064615e+00 6.9615278748e-05 1.8356283477e+00 -3.1794015620e+00 1.8356283477e+00 3.1794015620e+00 
98200 6.8668064615e+00 6.9898751051e-05 1.8356283477e+00 -3.1794015620e+00 1.8356283477e+00 3.1794015620e+00 
98300 6.8668064615e+00 7.0179868803e-05 1.8356283477e+00 -3.1794015620e+00 1.8356283477e+00 3.1794015620e+00 
98400 6.8668064615e+00 7.0458779417e-05 1.8356283477e+00 -3.1794015620e+00 1.8356283477e+00 3.1794015620e+00 
98500 6.8668064615e+00 7.0735628616e-05 1.8356283477e+00 -3.1794015620e+00 1.8356283477e+00 3.1794015620e+00 
98600 6.8668064613e+00 6.9187897345e-05 1.8356264209e+00 -3.1793982248e+00 1.8356264209e+00 3.1793982248e+00 
98700 6.8668064613e+00 6.9451747020e-05 1.8356264209e+00 -3.1793982248e+00 1.8356264209e+00 3.1793982248e+00 
98800 6.8668064613e+00 6.9713603055e-05 1.8356264209e+00 -3.1793982248e+00 1.8356264209e+00 3.1793982248e+00 
98900 6.8668064613e+00 6.9973611403e-05 1.8356264209e+00 -3.1793982248e+00 1.8356264209e+00 3.1793982248e+00 
99000 6.8668064613e+00 7.0231915907e-05 1.8356264209e+00 -3.1793982248e+00 1.8356264209e+00 3.1793982248e+00 
99100 6.8668064613e+00 7.0488657954e-05 1.8356264209e+00 -3.1793982248e+00 1.8356264209e+00 3.1793982248e+00 
99200 6.8668064613e+00 7.0743976166e-05 1.8356264209e+00 -3.1793982248e+00 1.8356264209e+00 3.1793982248e+00 
99300 6.8668064611e+00 6.9175122409e-05 1.8356244940e+00 -3.1793948871e+00 1.8356244940e+00 3.1793948871e+00 
99400 6.8668064611e+00 6.9418689630e-05 1.8356244940e+00 -3.1793948871e+00 1.8356244940e+00 3.1793948871e+00 
99500 6.8668064611e+00 6.9660873565e-05 1.8356244940e+00 -3.1793948871e+00 1.8356244940e+00 3.1793948871e+00 
99600 6.8668064611e+00 6.9901809330e-05 1.8356244940e+00 -3.1793948871e+00 1.8356244940e+00 3.1793948871e+00 
99700 6.8668064611e+00 7.0141629142e-05 1.8356244940e+00 -3.1793948871e+00 1.8356244940e+00 3.1793948871e+00 
99800 6.8668064611e+00 7.0380462029e-05 1.8356244940e+00 -3.1793948871e+00 1.8356244940e+00 3.1793948871e+00 
99900 6.8668064611e+00 7.0618433562e-05 1.8356244940e+00 -3.1793948871e+00 1.8356244940e+00 3.1793948871e+00 
100000 6.8668064611e+00 7.0855665627e-05 1.8356244940e+00 -3.1793948871e+00 1.8356244940e+00 3.1793948871e+00 
100100 6.8668064610e+00 6.9266508744e-05 1.8356225639e+00 -3.1793915443e+00 1.8356225639e+00 3.1793915443e+00 
100200 6.8668064610e+00 6.9493290100e-05 1.8356225639e+00 -3.1793915443e+00 1.8356225639e+00 3.1793915443e+00 
100300 6.8668064610e+00 6.9719316962e-05 1.8356225639e+00 -3.1793915443e+00 1.8356225639e+00 3.1793915443e+00 
100400 6.8668064610e+00 6.9944704756e-05 1.8356225639e+00 -3.1793915443e+00 1.8356225639e+00 3.1793915443e+00 
100500 6.8668064610e+00 7.0169565431e-05 1.8356225639e+00 -3.1793915443e+00 1.8356225639e+00 3.1793915443e+00 
100600 6.8668064610e+00 7.0394007246e-05 1.8356225639e+00 -3.1793915443e+00 1.8356225639e+00 3.1793915443e+00 
100700 6.8668064610e+00 7.0618134568e-05 1.8356225639e+00 -3.1793915443e+00 1.8356225639e+00 3.1793915443e+00 
100800 6.8668064610e+00 7.0842047692e-05 1.8356225639e+00 -3.1793915443e+00 1.8356225639e+00 3.1793915443e+00 
100900 6.8668064608e+00 6.9240420202e-05 1.8356206343e+00 -3.1793882020e+00 1.8356206343e+00 3.1793882020e+00 
101000 6.8668064608e+00 6.9454868774e-05 1.8356206343e+00 -3.1793882020e+00 1.8356206343e+00 3.1793882020e+00 
101100 6.8668064609e+00 6.9669021764e-05 1.8356206343e+00 -3.1793882020e+00 1.8356206343e+00 3.1793882020e+00 
101200 6.8668064609e+00 6.9882972077e-05 1.8356206343e+00 -3.1793882020e+00 1.8356206343e+00 3.1793882020e+00 
101300 6.8668064609e+00 7.0096809048e-05 1.8356206343e+00 -3.1793882020e+00 1.8356206343e+00 3.1793882020e+00 
101400 6.8668064609e+00 7.0310618280e-05 1.8356206343e+00 -3.1793882020e+00 1.8356206343e+00 3.1793882020e+00 
101500 6.8668064609e+00 7.0524481482e-05 1.8356206343e+00 -3.1793882020e+00 1.8356206343e+00 3.1793882020e+00 
101600 6.8668064609e+00 7.0738476351e-05 1.8356206343e+00 -3.1793882020e+00 1.8356206343e+00 3.1793882020e+00 
101700 6.8668064607e+00 6.9129916698e-05 1.8356187075e+00 -3.1793848646e+00 1.8356187075e+00 3.1793848646e+00 
101800 6.8668064607e+00 6.9335084814e-05 1.8356187075e+00 -3.1793848646e+00 1.8356187075e+00 3.1793848646e+00 
101900 6.8668064607e+00 6.9540236701e-05 1.8356187075e+00 -3.1793848646e+00 1.8356187075e+00 3.1793848646e+00 
102000 6.8668064607e+00 6.9745443302e-05 1.8356187075e+00 -3.1793848646e+00 1.8356187075e+00 3.1793848646e+00 
102100 6.8668064607e+00 6.9950772250e-05 1.8356187075e+00 -3.1793848646e+00 1.8356187075e+00 3.1793848646e+00 
102200 6.8668064608e+00 7.0156287731e-05 1.8356187075e+00 -3.1793848646e+00 1.8356187075e+00 3.1793848646e+00 
102300 6.8668064608e+00 7.0362050389e-05 1.8356187075e+00 -3.1793848646e+00 1.8356187075e+00 3.1793848646e+00 
102400 6.8668064608e+00 7.0568117211e-05 1.8356187075e+00 -3.1793848646e+00 1.8356187075e+00 3.1793848646e+00 
102500 6.8668064608e+00 7.0774541450e-05 1.8356187075e+00 -3.1793848646e+00 1.8356187075e+00 3.1793848646e+00 
102600 6.8668064606e+00 6.9157677350e-05 1.8356167797e+00 -3.1793815256e+00 1.8356167797e+00 3.1793815256e+00 
102700 6.8668064606e+00 6.9355649409e-05 1.8356167797e+00 -3.1793815256e+00 1.8356167797e+00 3.1793815256e+00 
102800 6.8668064606e+00 6.9553759634e-05 1.8356167797e+00 -3.1793815256e+00 1.8356167797e+00 3.1793815256e+00 
102900 6.8668064606e+00 6.9752056094e-05 1.8356167797e+00 -3.1793815256e+00 1.8356167797e+00 3.1793815256e+00 
103000 6.8668064607e+00 6.9950584036e-05 1.8356167797e+00 -3.1793815256e+00 1.8356167797e+00 3.1793815256e+00 
103100 6.8668064607e+00 7.0149385784e-05 1.8356167797e+00 -3.1793815256e+00 1.8356167797e+00 3.1793815256e+00 
103200 6.8668064607e+00 7.0348500667e-05 1.8356167797e+00 -3.1793815256e+00 1.8356167797e+00 3.1793815256e+00 
103300 6.8668064607e+00 7.0547964942e-05 1.8356167797e+00 -3.1793815256e+00 1.8356167797e+00 3.1793815256e+00 
103400 6.8668064607e+00 7.0747811743e-05 1.8356167797e+00 -3.1793815256e+00 1.8356167797e+00 3.1793815256e+00 
103500 6.8668064605e+00 6.9125058262e-05 1.8356148526e+00 -3.1793781878e+00 1.8356148526e+00 3.1793781878e+00 
103600 6.8668064605e+00 6.9316448609e-05 1.8356148526e+00 -3.1793781878e+00 1.8356148526e+00 3.1793781878e+00 
103700 6.8668064606e+00 6.9507945893e-05 1.8356148526e+00 -3.1793781878e+00 1.8356148526e+00 3.1793781878e+00 
103800 6.8668064606e+00 6.9699580709e-05 1.8356148526e+00 -3.1793781878e+00 1.8356148526e+00 3.1793781878e+00 
103900 6.8668064606e+00 6.9891381544e-05 1.8356148526e+00 -3.1793781878e+00 1.8356148526e+00 3.1793781878e+00 
104000 6.8668064606e+00 7.0083374684e-05 1.8356148526e+00 -3.1793781878e+00 1.8356148526e+00 3.1793781878e+00 
104100 6.8668064606e+00 7.0275584159e-05 1.8356148526e+00 -3.1793781878e+00 1.8356148526e+00 3.1793781878e+00 
104200 6.8668064606e+00 7.0468031667e-05 1.8356148526e+00 -3.1793781878e+00 1.8356148526e+00 3.1793781878e+00 
104300 6.8668064606e+00 7.0660736537e-05 1.8356148526e+00 -3.1793781878e+00 1.8356148526e+00 3.1793781878e+00 
104400 6.8668064606e+00 7.0853715690e-05 1.8356148526e+00 -3.1793781878e+00 1.8356148526e+00 3.1793781878e+00 
104500 6.8668064605e+00 6.9221235456e-05 1.8356129226e+00 -3.1793748450e+00 1.8356129226e+00 3.1793748450e+00 
104600 6.8668064605e+00 6.9405481860e-05 1.8356129226e+00 -3.1793748450e+00 1.8356129226e+00 3.1793748450e+00 
104700 6.8668064605e+00 6.9589682260e-05 1.8356129226e+00 -3.1793748450e+00 1.8356129226e+00 3.1793748450e+00 
104800 6.8668064605e+00 6.9773854070e-05 1.8356129226e+00 -3.1793748450e+00 1.8356129226e+00 3.1793748450e+00 
104900 6.8668064605e+00 6.9958013373e-05 1.8356129226e+00 -3.1793748450e+00 1.8356129226e+00 3.1793748450e+00 
105000 6.8668064605e+00 7.0142174840e-05 1.8356129226e+00 -3.1793748450e+00 1.8356129226e+00 3.1793748450e+00 
105100 6.8668064605e+00 7.0326351668e-05 1.8356129226e+00 -3.1793748450e+00 1.8356129226e+00 3.1793748450e+00 
105200 6.8668064605e+00 7.0510555517e-05 1.8356129226e+00 -3.1793748450e+00 1.8356129226e+00 3.1793748450e+00 
105300 6.8668064605e+00 7.0694796476e-05 1.8356129226e+00 -3.1793748450e+00 1.8356129226e+00 3.1793748450e+00 
105400 6.8668064605e+00 7.0879083002e-05 1.8356129226e+00 -3.1793748450e+00 1.8356129226e+00 3.1793748450e+00 
105500 6.8668064604e+00 6.9237013471e-05 1.8356109919e+00 -3.1793715010e+00 1.8356109919e+00 3.1793715010e+00 
105600 6.8668064604e+00 6.9412084091e-05 1.8356109919e+00 -3.1793715010e+00 1.8356109919e+00 3.1793715010e+00 
105700 6.8668064604e+00 6.9586859214e-05 1.8356109919e+00 -3.1793715010e+00 1.8356109919e+00 3.1793715010e+00 
105800 6.8668064604e+00 6.9761350906e-05 1.8356109919e+00 -3.1793715010e+00 1.8356109919e+00 3.1793715010e+00 
105900 6.8668064604e+00 6.9935570675e-05 1.8356109919e+00 -3.1793715010e+00 1.8356109919e+00 3.1793715010e+00 
106000 6.8668064605e+00 7.0109529353e-05 1.8356109919e+00 -3.1793715010e+00 1.8356109919e+00 3.1793715010e+00 
106100 6.8668064605e+00 7.0283237044e-05 1.8356109919e+00 -3.1793715010e+00 1.8356109919e+00 3.1793715010e+00 
106200 6.8668064605e+00 7.0456703034e-05 1.8356109919e+00 -3.1793715010e+00 1.8356109919e+00 3.1793715010e+00 
106300 6.8668064605e+00 7.0629935742e-05 1.8356109919e+00 -3.1793715010e+00 1.8356109919e+00 3.1793715010e+00 
106400 6.8668064605e+00 7.0802942663e-05 1.8356109919e+00 -3.1793715010e+00 1.8356109919e+00 3.1793715010e+00 
106500 6.8668064603e+00 6.9151277183e-05 1.8356090633e+00 -3.1793681605e+00 1.8356090633e+00 3.1793681605e+00 
106600 6.8668064604e+00 6.9314535135e-05 1.8356090633e+00 -3.1793681605e+00 1.8356090633e+00 3.1793681605e+00 
106700 6.8668064604e+00 6.9477227709e-05 1.8356090633e+00 -3.1793681605e+00 1.8356090633e+00 3.1793681605e+00 
106800 6.8668064604e+00 6.9639368601e-05 1.8356090633e+00 -3.1793681605e+00 1.8356090633e+00 3.1793681605e+00 
106900 6.8668064604e+00 6.9800971540e-05 1.8356090633e+00 -3.1793681605e+00 1.8356090633e+00 3.1793681605e+00 
107000 6.8668064604e+00 6.9962050174e-05 1.8356090633e+00 -3.1793681605e+00 1.8356090633e+00 3.1793681605e+00 
107100 6.8668064604e+00 7.0122617976e-05 1.8356090633e+00 -3.1793681605e+00 1.8356090633e+00 3.1793681605e+00 
107200 6.8668064604e+00 7.0282688151e-05 1.8356090633e+00 -3.1793681605e+00 1.8356090633e+00 3.1793681605e+00 
107300 6.8668064604e+00 7.0442273554e-05 1.8356090633e+00 -3.1793681605e+00 1.8356090633e+00 3.1793681605e+00 
107400 6.8668064604e+00 7.0601386613e-05 1.8356090633e+00 -3.1793681605e+00 1.8356090633e+00 3.1793681605e+00 
107500 6.8668064604e+00 7.0760039259e-05 1.8356090633e+00 -3.1793681605e+00 1.8356090633e+00 3.1793681605e+00 
107600 6.8668064603e+00 6.9094888607e-05 1.8356071359e+00 -3.1793648221e+00 1.8356071359e+00 3.1793648221e+00 
107700 6.8668064603e+00 6.9243343487e-05 1.8356071359e+00 -3.1793648221e+00 1.8356071359e+00 3.1793648221e+00 
107800 6.8668064603e+00 6.9391014320e-05 1.8356071359e+00 -3.1793648221e+00 1.8356071359e+00 3.1793648221e+00 
107900 6.8668064603e+00 6.9537920794e-05 1.8356071359e+00 -3.1793648221e+00 1.8356071359e+00 3.1793648221e+00 
108000 6.8668064603e+00 6.9684082964e-05 1.8356071359e+00 -3.1793648221e+00 1.8356071359e+00 3.1793648221e+00 
108100 6.8668064603e+00 6.9829521141e-05 1.8356071359e+00 -3.1793648221e+00 1.8356071359e+00 3.1793648221e+00 
108200 6.8668064603e+00 6.9899080302e-05 1.8356071359e+00 -3.1793648221e+00 1.8356071359e+00 3.1793648221e+00 
108200 6.8668064603e+00 6.9899080302e-05 1.8356071359e+00 -3.1793648221e+00 1.8356071359e+00 3.1793648221e+00 
