# step Hamiltonian StressXX CellTensor1 CellTensor2 CellTensor3 CellTensor4 
0 7.4192501137e+00 -1.9179750249e-02 1.7438352029e+00 -3.0204111715e+00 1.7438352029e+00 3.0204111715e+00 
100 7.4119637899e+00 -1.2141540327e-02 1.7438352029e+00 -3.0204111715e+00 1.7438352029e+00 3.0204111715e+00 
200 7.4045600933e+00 -5.2651550027e-03 1.7441833420e+00 -3.0210141661e+00 1.7441833420e+00 3.0210141661e+00 
300 7.3970928012e+00 1.0415007680e-03 1.7443342789e+00 -3.0212755964e+00 1.7443342789e+00 3.0212755964e+00 
400 7.3895997193e+00 6.8062689222e-03 1.7443044251e+00 -3.0212238882e+00 1.7443044251e+00 3.0212238882e+00 
500 7.3821154081e+00 1.2055290507e-02 1.7441093290e+00 -3.0208859717e+00 1.7441093290e+00 3.0208859717e+00 
600 7.3746713404e+00 1.6813224668e-02 1.7437637402e+00 -3.0202873944e+00 1.7437637402e+00 3.0202873944e+00 
700 7.3672960480e+00 2.1103437076e-02 1.7432816666e+00 -3.0194524184e+00 1.7432816666e+00 3.0194524184e+00 
800 7.3600152596e+00 2.4948160490e-02 1.7426764226e+00 -3.0184041051e+00 1.7426764226e+00 3.0184041051e+00 
900 7.3528520305e+00 2.8368630303e-02 1.7419606715e+00 -3.0171643878e+00 1.7419606715e+00 3.0171643878e+00 
1000 7.3458268642e+00 3.1385197893e-02 1.7411464619e+00 -3.0157541355e+00 1.7411464619e+00 3.0157541355e+00 
1100 7.3389578297e+00 3.4017424598e-02 1.7402452601e+00 -3.0141932081e+00 1.7402452601e+00 3.0141932081e+00 
1200 7.3322606735e+00 3.6284158928e-02 1.7392679772e+00 -3.0125005045e+00 1.7392679772e+00 3.0125005045e+00 
1300 7.3257489283e+00 3.8203599486e-02 1.7382249944e+00 -3.0106940053e+00 1.7382249944e+00 3.0106940053e+00 
1400 7.3194340201e+00 3.9793345826e-02 1.7371261847e+00 -3.0087908110e+00 1.7371261847e+00 3.0087908110e+00 
1500 7.3133253737e+00 4.1070439256e-02 1.7359809320e+00 -3.0068071751e+00 1.7359809320e+00 3.0068071751e+00 
1600 7.3074305172e+00 4.2051395329e-02 1.7347981490e+00 -3.0047585350e+00 1.7347981490e+00 3.0047585350e+00 
1700 7.3017551871e+00 4.2752229566e-02 1.7335862935e+00 -3.0026595396e+00 1.7335862935e+00 3.0026595396e+00 
1800 7.2963034330e+00 4.3188477720e-02 1.7323533823e+00 -3.0005240748e+00 1.7323533823e+00 3.0005240748e+00 
1900 7.2910777223e+00 4.3375211689e-02 1.7311070057e+00 -2.9983652872e+00 1.7311070057e+00 2.9983652872e+00 
2000 7.2860790458e+00 4.3327052024e-02 1.7298543398e+00 -2.9961956062e+00 1.7298543398e+00 2.9961956062e+00 
2100 7.2813070230e+00 4.3058177811e-02 1.7286021586e+00 -2.9940267648e+00 1.7286021586e+00 2.9940267648e+00 
2200 7.2767600071e+00 4.2582334576e-02 1.7273568459e+00 -2.9918698199e+00 1.7273568459e+00 2.9918698199e+00 
2300 7.2724351900e+00 4.1912840740e-02 1.7261244061e+00 -2.9897351716e+00 1.7261244061e+00 2.9897351716e+00 
2400 7.2683287058e+00 4.1062593073e-02 1.7249104750e+00 -2.9876325811e+00 1.7249104750e+00 2.9876325811e+00 
2500 7.2644357342e+00 4.0044071476e-02 1.7237203301e+00 -2.9855711897e+00 1.7237203301e+00 2.9855711897e+00 
2600 7.2607506010e+00 3.8869343402e-02 1.7225589012e+00 -2.9835595359e+00 1.7225589012e+00 2.9835595359e+00 
2700 7.2572668777e+00 3.7550068113e-02 1.7214307802e+00 -2.9816055730e+00 1.7214307802e+00 2.9816055730e+00 
2800 7.2539774780e+00 3.6097500967e-02 1.7203402310e+00 -2.9797166864e+00 1.7203402310e+00 2.9797166864e+00 
2900 7.2508747520e+00 3.4522497857e-02 1.7192911992e+00 -2.9778997101e+00 1.7192911992e+00 2.9778997101e+00 
3000 7.2479505766e+00 3.2835519916e-02 1.7182873223e+00 -2.9761609442e+00 1.7182873223e+00 2.9761609442e+00 
3100 7.2451964436e+00 3.1046638539e-02 1.7173319386e+00 -2.9745061711e+00 1.7173319386e+00 2.9745061711e+00 
3200 7.2426035424e+00 2.9165540796e-02 1.7164280972e+00 -2.9729406719e+00 1.7164280972e+00 2.9729406719e+00 
3300 7.2401628402e+00 2.7201535232e-02 1.7155785675e+00 -2.9714692432e+00 1.7155785675e+00 2.9714692432e+00 
3400 7.2378651570e+00 2.5163558098e-02 1.7147858483e+00 -2.9700962134e+00 1.7147858483e+00 2.9700962134e+00 
3500 7.2357012364e+00 2.3060179974e-02 1.7140521776e+00 -2.9688254585e+00 1.7140521776e+00 2.9688254585e+00 
3600 7.2336618122e+00 2.0899612804e-02 1.7133795414e+00 -2.9676604184e+00 1.7133795414e+00 2.9676604184e+00 
3700 7.2317376697e+00 1.8689717284e-02 1.7127696832e+00 -2.9666041129e+00 1.7127696832e+00 2.9666041129e+00 
3800 7.2299197025e+00 1.6438010606e-02 1.7122241129e+00 -2.9656591575e+00 1.7122241129e+00 2.9656591575e+00 
3900 7.2281989649e+00 1.4151674489e-02 1.7117441161e+00 -2.9648277786e+00 1.7117441161e+00 2.9648277786e+00 
4000 7.2265667187e+00 1.1837563478e-02 1.7113307627e+00 -2.9641118296e+00 1.7113307627e+00 2.9641118296e+00 
4100 7.2250144761e+00 9.5022134521e-03 1.7109849159e+00 -2.9635128054e+00 1.7109849159e+00 2.9635128054e+00 
4200 7.2235340375e+00 7.1518503141e-03 1.7107072409e+00 -2.9630318581e+00 1.7107072409e+00 2.9630318581e+00 
4300 7.2221175244e+00 4.7923987901e-03 1.7104982132e+00 -2.9626698114e+00 1.7104982132e+00 2.9626698114e+00 
4400 7.2207574087e+00 2.4294913168e-03 1.7103581273e+00 -2.9624271756e+00 1.7103581273e+00 2.9624271756e+00 
4500 7.2194465367e+00 6.8476960161e-05 1.7102871049e+00 -2.9623041612e+00 1.7102871049e+00 2.9623041612e+00 
4600 7.2181781387e+00 -2.2832363898e-03 1.7102871049e+00 -2.9623041612e+00 1.7102871049e+00 2.9623041612e+00 
4700 7.2169458775e+00 -4.6255729633e-03 1.7103538554e+00 -2.9624197765e+00 1.7103538554e+00 2.9624197765e+00 
4800 7.2157438291e+00 -6.9515791924e-03 1.7104890799e+00 -2.9626539921e+00 1.7104890799e+00 2.9626539921e+00 
4900 7.2145665011e+00 -9.2569510252e-03 1.7106922883e+00 -2.9630059595e+00 1.7106922883e+00 2.9630059595e+00 
5000 7.2134088387e+00 -1.1537624079e-02 1.7109628570e+00 -2.9634745982e+00 1.7109628570e+00 2.9634745982e+00 
5100 7.2122662266e+00 -1.3789765309e-02 1.7113000356e+00 -2.9640586087e+00 1.7113000356e+00 2.9640586087e+00 
5200 7.2111344883e+00 -1.6009764882e-02 1.7117029547e+00 -2.9647564849e+00 1.7117029547e+00 2.9647564849e+00 
5300 7.2100098820e+00 -1.8194228266e-02 1.7121706320e+00 -2.9655665258e+00 1.7121706320e+00 2.9655665258e+00 
5400 7.2088890948e+00 -2.0339968555e-02 1.7127019800e+00 -2.9664868476e+00 1.7127019800e+00 2.9664868476e+00 
5500 7.2077692342e+00 -2.2443999051e-02 1.7132958120e+00 -2.9675153947e+00 1.7132958120e+00 2.9675153947e+00 
5600 7.2066478168e+00 -2.4503526091e-02 1.7139508485e+00 -2.9686499513e+00 1.7139508485e+00 2.9686499513e+00 
5700 7.2055227565e+00 -2.6515942153e-02 1.7146657240e+00 -2.9698881520e+00 1.7146657240e+00 2.9698881520e+00 
5800 7.2043923496e+00 -2.8478819219e-02 1.7154389923e+00 -2.9712274920e+00 1.7154389923e+00 2.9712274920e+00 
5900 7.2032552595e+00 -3.0389902410e-02 1.7162691331e+00 -2.9726653379e+00 1.7162691331e+00 2.9726653379e+00 
6000 7.2021104992e+00 -3.2247103892e-02 1.7171545569e+00 -2.9741989371e+00 1.7171545569e+00 2.9741989371e+00 
6100 7.2009574137e+00 -3.4048497042e-02 1.7180936116e+00 -2.9758254275e+00 1.7180936116e+00 2.9758254275e+00 
6200 7.1997956605e+00 -3.5792310871e-02 1.7190845870e+00 -2.9775418472e+00 1.7190845870e+00 2.9775418472e+00 
6300 7.1986251901e+00 -3.7476924703e-02 1.7201257202e+00 -2.9793451428e+00 1.7201257202e+00 2.9793451428e+00 
6400 7.1974462255e+00 -3.9100863090e-02 1.7212152010e+00 -2.9812321788e+00 1.7212152010e+00 2.9812321788e+00 
6500 7.1962592417e+00 -4.0662790965e-02 1.7223511763e+00 -2.9831997459e+00 1.7223511763e+00 2.9831997459e+00 
6600 7.1950649444e+00 -4.2161509021e-02 1.7235317553e+00 -2.9852445687e+00 1.7235317553e+00 2.9852445687e+00 
6700 7.1938642490e+00 -4.3595949290e-02 1.7247550137e+00 -2.9873633143e+00 1.7247550137e+00 2.9873633143e+00 
6800 7.1926582598e+00 -4.4965170939e-02 1.7260189981e+00 -2.9895525995e+00 1.7260189981e+00 2.9895525995e+00 
6900 7.1914482485e+00 -4.6268356243e-02 1.7273217306e+00 -2.9918089985e+00 1.7273217306e+00 2.9918089985e+00 
7000 7.1902356338e+00 -4.7504806736e-02 1.7286612127e+00 -2.9941290495e+00 1.7286612127e+00 2.9941290495e+00 
7100 7.1890219611e+00 -4.8673939539e-02 1.7300354292e+00 -2.9965092623e+00 1.7300354292e+00 2.9965092623e+00 
7200 7.1878088822e+00 -4.9775283830e-02 1.7314423522e+00 -2.9989461243e+00 1.7314423522e+00 2.9989461243e+00 
7300 7.1865981364e+00 -5.0808477463e-02 1.7328799445e+00 -3.0014361073e+00 1.7328799445e+00 3.0014361073e+00 
7400 7.1853915313e+00 -5.1773263718e-02 1.7343461637e+00 -3.0039756734e+00 1.7343461637e+00 3.0039756734e+00 
7500 7.1841909247e+00 -5.2669488174e-02 1.7358389649e+00 -3.0065612810e+00 1.7358389649e+00 3.0065612810e+00 
7600 7.1829982074e+00 -5.3497095696e-02 1.7373563048e+00 -3.0091893908e+00 1.7373563048e+00 3.0091893908e+00 
7700 7.1818152863e+00 -5.4256127519e-02 1.7388961441e+00 -3.0118564707e+00 1.7388961441e+00 3.0118564707e+00 
7800 7.1806440687e+00 -5.4946718432e-02 1.7404564510e+00 -3.0145590015e+00 1.7404564510e+00 3.0145590015e+00 
7900 7.1794864475e+00 -5.5569094042e-02 1.7420352040e+00 -3.0172934819e+00 1.7420352040e+00 3.0172934819e+00 
8000 7.1783442868e+00 -5.6123568121e-02 1.7436303947e+00 -3.0200564332e+00 1.7436303947e+00 3.0200564332e+00 
8100 7.1772194090e+00 -5.6610540021e-02 1.7452400303e+00 -3.0228444040e+00 1.7452400303e+00 3.0228444040e+00 
8200 7.1761135824e+00 -5.7030492148e-02 1.7468621367e+00 -3.0256539746e+00 1.7468621367e+00 3.0256539746e+00 
8300 7.1750285101e+00 -5.7383987503e-02 1.7484947603e+00 -3.0284817616e+00 1.7484947603e+00 3.0284817616e+00 
8400 7.1739658196e+00 -5.7671667261e-02 1.7501359707e+00 -3.0313244214e+00 1.7501359707e+00 3.0313244214e+00 
8500 7.1729270533e+00 -5.7894248412e-02 1.7517838629e+00 -3.0341786543e+00 1.7517838629e+00 3.0341786543e+00 
8600 7.1719136603e+00 -5.8052521426e-02 1.7534365594e+00 -3.0370412087e+00 1.7534365594e+00 3.0370412087e+00 
8700 7.1709269889e+00 -5.8147347967e-02 1.7550922123e+00 -3.0399088837e+00 1.7550922123e+00 3.0399088837e+00 
8800 7.1699682798e+00 -5.8179658626e-02 1.7567490052e+00 -3.0427785331e+00 1.7567490052e+00 3.0427785331e+00 
8900 7.1690386611e+00 -5.8150450695e-02 1.7584051550e+00 -3.0456470687e+00 1.7584051550e+00 3.0456470687e+00 
9000 7.1681391429e+00 -5.8060785951e-02 1.7600589137e+00 -3.0485114628e+00 1.7600589137e+00 3.0485114628e+00 
9100 7.1672706139e+00 -5.7911788464e-02 1.7617085700e+00 -3.0513687513e+00 1.7617085700e+00 3.0513687513e+00 
9200 7.1664338386e+00 -5.7704642424e-02 1.7633524510e+00 -3.0542160367e+00 1.7633524510e+00 3.0542160367e+00 
9300 7.1656294550e+00 -5.7440589969e-02 1.7649889235e+00 -3.0570504904e+00 1.7649889235e+00 3.0570504904e+00 
9400 7.1648579731e+00 -5.7120929034e-02 1.7666163957e+00 -3.0598693549e+00 1.7666163957e+00 3.0598693549e+00 
9500 7.1641197751e+00 -5.6747011190e-02 1.7682333182e+00 -3.0626699467e+00 1.7682333182e+00 3.0626699467e+00 
9600 7.1634151151e+00 -5.6320239497e-02 1.7698381852e+00 -3.0654496579e+00 1.7698381852e+00 3.0654496579e+00 
9700 7.1627441205e+00 -5.5842066344e-02 1.7714295360e+00 -3.0682059584e+00 1.7714295360e+00 3.0682059584e+00 
9800 7.1621067932e+00 -5.5313991284e-02 1.7730059561e+00 -3.0709363980e+00 1.7730059561e+00 3.0709363980e+00 
9900 7.1615030127e+00 -5.4737558869e-02 1.7745660776e+00 -3.0736386078e+00 1.7745660776e+00 3.0736386078e+00 
10000 7.1609325385e+00 -5.4114356455e-02 1.7761085809e+00 -3.0763103019e+00 1.7761085809e+00 3.0763103019e+00 
10100 7.1603950139e+00 -5.3446012006e-02 1.7776321951e+00 -3.0789492791e+00 1.7776321951e+00 3.0789492791e+00 
10200 7.1598899701e+00 -5.2734191865e-02 1.7791356990e+00 -3.0815534242e+00 1.7791356990e+00 3.0815534242e+00 
10300 7.1594168309e+00 -5.1980598515e-02 1.7806179217e+00 -3.0841207093e+00 1.7806179217e+00 3.0841207093e+00 
10400 7.1589749176e+00 -5.1186968300e-02 1.7820777434e+00 -3.0866491947e+00 1.7820777434e+00 3.0866491947e+00 
10500 7.1585634548e+00 -5.0355069123e-02 1.7835140960e+00 -3.0891370303e+00 1.7835140960e+00 3.0891370303e+00 
10600 7.1581815761e+00 -4.9486698116e-02 1.7849259633e+00 -3.0915824563e+00 1.7849259633e+00 3.0915824563e+00 
10700 7.1578283305e+00 -4.8583679265e-02 1.7863123822e+00 -3.0939838041e+00 1.7863123822e+00 3.0939838041e+00 
10800 7.1575026889e+00 -4.7647861004e-02 1.7876724421e+00 -3.0963394970e+00 1.7876724421e+00 3.0963394970e+00 
10900 7.1572035508e+00 -4.6681113770e-02 1.7890052863e+00 -3.0986480509e+00 1.7890052863e+00 3.0986480509e+00 
11000 7.1569297517e+00 -4.5685327511e-02 1.7903101115e+00 -3.1009080744e+00 1.7903101115e+00 3.1009080744e+00 
11100 7.1566800700e+00 -4.4662409158e-02 1.7915861684e+00 -3.1031182697e+00 1.7915861684e+00 3.1031182697e+00 
11200 7.1564532345e+00 -4.3614280047e-02 1.7928327616e+00 -3.1052774326e+00 1.7928327616e+00 3.1052774326e+00 
11300 7.1562479318e+00 -4.2542873304e-02 1.7940492501e+00 -3.1073844525e+00 1.7940492501e+00 3.1073844525e+00 
11400 7.1560628139e+00 -4.1450131178e-02 1.7952350469e+00 -3.1094383127e+00 1.7952350469e+00 3.1094383127e+00 
11500 7.1558965058e+00 -4.0338002337e-02 1.7963896191e+00 -3.1114380905e+00 1.7963896191e+00 3.1114380905e+00 
11600 7.1557476127e+00 -3.9208439117e-02 1.7975124880e+00 -3.1133829565e+00 1.7975124880e+00 3.1133829565e+00 
11700 7.1556147280e+00 -3.8063394735e-02 1.7986032288e+00 -3.1152721749e+00 1.7986032288e+00 3.1152721749e+00 
11800 7.1554964400e+00 -3.6904820459e-02 1.7996614701e+00 -3.1171051026e+00 1.7996614701e+00 3.1171051026e+00 
11900 7.1553913396e+00 -3.5734662749e-02 1.8006868941e+00 -3.1188811891e+00 1.8006868941e+00 3.1188811891e+00 
12000 7.1552980271e+00 -3.4554860362e-02 1.8016792361e+00 -3.1205999758e+00 1.8016792361e+00 3.1205999758e+00 
12100 7.1552151191e+00 -3.3367341435e-02 1.8026382837e+00 -3.1222610950e+00 1.8026382837e+00 3.1222610950e+00 
12200 7.1551412553e+00 -3.2174020544e-02 1.8035638769e+00 -3.1238642695e+00 1.8035638769e+00 3.1238642695e+00 
12300 7.1550751042e+00 -3.0976795748e-02 1.8044559072e+00 -3.1254093112e+00 1.8044559072e+00 3.1254093112e+00 
12400 7.1550153698e+00 -2.9777545632e-02 1.8053143169e+00 -3.1268961205e+00 1.8053143169e+00 3.1268961205e+00 
12500 7.1549607968e+00 -2.8578126335e-02 1.8061390988e+00 -3.1283246847e+00 1.8061390988e+00 3.1283246847e+00 
12600 7.1549101763e+00 -2.7380368603e-02 1.8069302951e+00 -3.1296950769e+00 1.8069302951e+00 3.1296950769e+00 
12700 7.1548623503e+00 -2.6186074841e-02 1.8076879968e+00 -3.1310074546e+00 1.8076879968e+00 3.1310074546e+00 
12800 7.1548162165e+00 -2.4997016202e-02 1.8084123425e+00 -3.1322620583e+00 1.8084123425e+00 3.1322620583e+00 
12900 7.1547707326e+00 -2.3814929704e-02 1.8091035181e+00 -3.1334592095e+00 1.8091035181e+00 3.1334592095e+00 
13000 7.1547249194e+00 -2.2641515396e-02 1.8097617550e+00 -3.1345993092e+00 1.8097617550e+00 3.1345993092e+00 
13100 7.1546778645e+00 -2.1478433572e-02 1.8103873296e+00 -3.1356828362e+00 1.8103873296e+00 3.1356828362e+00 
13200 7.1546287250e+00 -2.0327302055e-02 1.8109805619e+00 -3.1367103447e+00 1.8109805619e+00 3.1367103447e+00 
13300 7.1545767296e+00 -1.9189693558e-02 1.8115418145e+00 -3.1376824628e+00 1.8115418145e+00 3.1376824628e+00 
13400 7.1545211805e+00 -1.8067133128e-02 1.8120714912e+00 -3.1385998897e+00 1.8120714912e+00 3.1385998897e+00 
13500 7.1544614546e+00 -1.6961095685e-02 1.8125700356e+00 -3.1394633939e+00 1.8125700356e+00 3.1394633939e+00 
13600 7.1543970046e+00 -1.5873003676e-02 1.8130379299e+00 -3.1402738106e+00 1.8130379299e+00 3.1402738106e+00 
13700 7.1543273593e+00 -1.4804224838e-02 1.8134756936e+00 -3.1410320395e+00 1.8134756936e+00 3.1410320395e+00 
13800 7.1542521233e+00 -1.3756070092e-02 1.8138838815e+00 -3.1417390419e+00 1.8138838815e+00 3.1417390419e+00 
13900 7.1541709765e+00 -1.2729791574e-02 1.8142630830e+00 -3.1423958381e+00 1.8142630830e+00 3.1423958381e+00 
14000 7.1540836736e+00 -1.1726580814e-02 1.8146139197e+00 -3.1430035051e+00 1.8146139197e+00 3.1430035051e+00 
14100 7.1539900418e+00 -1.0747567060e-02 1.8149370444e+00 -3.1435631734e+00 1.8149370444e+00 3.1435631734e+00 
14200 7.1538899796e+00 -9.7938157695e-03 1.8152331389e+00 -3.1440760242e+00 1.8152331389e+00 3.1440760242e+00 
14300 7.1537834545e+00 -8.8663272705e-03 1.8155029130e+00 -3.1445432866e+00 1.8155029130e+00 3.1445432866e+00 
14400 7.1536705001e+00 -7.9660355886e-03 1.8157471023e+00 -3.1449662348e+00 1.8157471023e+00 3.1449662348e+00 
14500 7.1535512136e+00 -7.0938074571e-03 1.8159664664e+00 -3.1453461847e+00 1.8159664664e+00 3.1453461847e+00 
14600 7.1534257520e+00 -6.2504415078e-03 1.8161617876e+00 -3.1456844909e+00 1.8161617876e+00 3.1456844909e+00 
14700 7.1532943292e+00 -5.4366676456e-03 1.8163338686e+00 -3.1459825440e+00 1.8163338686e+00 3.1459825440e+00 
14800 7.1531572116e+00 -4.6531466104e-03 1.8164835312e+00 -3.1462417671e+00 1.8164835312e+00 3.1462417671e+00 
14900 7.1530147145e+00 -3.9004697250e-03 1.8166116138e+00 -3.1464636128e+00 1.8166116138e+00 3.1464636128e+00 
15000 7.1528671977e+00 -3.1791588309e-03 1.8167189705e+00 -3.1466495600e+00 1.8167189705e+00 3.1466495600e+00 
15100 7.1527150610e+00 -2.4896664079e-03 1.8168064685e+00 -3.1468011110e+00 1.8168064685e+00 3.1468011110e+00 
15200 7.1525587402e+00 -1.8323758775e-03 1.8168749866e+00 -3.1469197878e+00 1.8168749866e+00 3.1469197878e+00 
15300 7.1523987019e+00 -1.2076020851e-03 1.8169254134e+00 -3.1470071296e+00 1.8169254134e+00 3.1470071296e+00 
15400 7.1522354393e+00 -6.1559195739e-04 1.8169586455e+00 -3.1470646893e+00 1.8169586455e+00 3.1470646893e+00 
15500 7.1520694674e+00 -5.6525328766e-05 1.8169755857e+00 -3.1470940306e+00 1.8169755857e+00 3.1470940306e+00 
15600 7.1519013167e+00 4.6774077126e-04 1.8169755857e+00 -3.1470940306e+00 1.8169755857e+00 3.1470940306e+00 
15700 7.1517315337e+00 9.6068770679e-04 1.8169627143e+00 -3.1470717367e+00 1.8169627143e+00 3.1470717367e+00 
15800 7.1515606711e+00 1.4205420488e-03 1.8169362778e+00 -3.1470259472e+00 1.8169362778e+00 3.1470259472e+00 
15900 7.1513892853e+00 1.8473809749e-03 1.8168971862e+00 -3.1469582386e+00 1.8168971862e+00 3.1469582386e+00 
16000 7.1512179319e+00 2.2413423159e-03 1.8168463475e+00 -3.1468701835e+00 1.8168463475e+00 3.1468701835e+00 
16100 7.1510471619e+00 2.6026228650e-03 1.8167846657e+00 -3.1467633474e+00 1.8167846657e+00 3.1467633474e+00 
16200 7.1508775173e+00 2.9314765754e-03 1.8167130390e+00 -3.1466392863e+00 1.8167130390e+00 3.1466392863e+00 
16300 7.1507095276e+00 3.2282126539e-03 1.8166323588e+00 -3.1464995441e+00 1.8166323588e+00 3.1464995441e+00 
16400 7.1505437066e+00 3.4931935624e-03 1.8165435080e+00 -3.1463456499e+00 1.8165435080e+00 3.1463456499e+00 
16500 7.1503805486e+00 3.7268329363e-03 1.8164473593e+00 -3.1461791157e+00 1.8164473593e+00 3.1461791157e+00 
16600 7.1502205256e+00 3.9295934314e-03 1.8163447745e+00 -3.1460014336e+00 1.8163447745e+00 3.1460014336e+00 
16700 7.1500640848e+00 4.1019845076e-03 1.8162366025e+00 -3.1458140741e+00 1.8162366025e+00 3.1458140741e+00 
16800 7.1499116458e+00 4.2445601613e-03 1.8161236783e+00 -3.1456184836e+00 1.8161236783e+00 3.1456184836e+00 
16900 7.1497635986e+00 4.3579166153e-03 1.8160068218e+00 -3.1454160823e+00 1.8160068218e+00 3.1454160823e+00 
17000 7.1496203018e+00 4.4426899762e-03 1.8158868369e+00 -3.1452082624e+00 1.8158868369e+00 3.1452082624e+00 
17100 7.1494820810e+00 4.4995538681e-03 1.8157645099e+00 -3.1449963858e+00 1.8157645099e+00 3.1449963858e+00 
17200 7.1493492273e+00 4.5292170524e-03 1.8156406089e+00 -3.1447817828e+00 1.8156406089e+00 3.1447817828e+00 
17300 7.1492219967e+00 4.5324210410e-03 1.8155158825e+00 -3.1445657504e+00 1.8155158825e+00 3.1445657504e+00 
17400 7.1491006092e+00 4.5099377122e-03 1.8153910593e+00 -3.1443495504e+00 1.8153910593e+00 3.1443495504e+00 
17500 7.1489852485e+00 4.4625669357e-03 1.8152668468e+00 -3.1441344079e+00 1.8152668468e+00 3.1441344079e+00 
17600 7.1488760618e+00 4.3911342147e-03 1.8151439305e+00 -3.1439215107e+00 1.8151439305e+00 3.1439215107e+00 
17700 7.1487731600e+00 4.2964883505e-03 1.8150229736e+00 -3.1437120071e+00 1.8150229736e+00 3.1437120071e+00 
17800 7.1486766183e+00 4.1794991373e-03 1.8149046158e+00 -3.1435070055e+00 1.8149046158e+00 3.1435070055e+00 
17900 7.1485864763e+00 4.0410550906e-03 1.8147894732e+00 -3.1433075727e+00 1.8147894732e+00 3.1433075727e+00 
18000 7.1485027397e+00 3.8820612155e-03 1.8146781376e+00 -3.1431147338e+00 1.8146781376e+00 3.1431147338e+00 
18100 7.1484253808e+00 3.7034368194e-03 1.8145711759e+00 -3.1429294706e+00 1.8145711759e+00 3.1429294706e+00 
18200 7.1483543397e+00 3.5061133720e-03 1.8144691297e+00 -3.1427527214e+00 1.8144691297e+00 3.1427527214e+00 
18300 7.1482895264e+00 3.2910324165e-03 1.8143725151e+00 -3.1425853801e+00 1.8143725151e+00 3.1425853801e+00 
18400 7.1482308220e+00 3.0591435353e-03 1.8142818225e+00 -3.1424282958e+00 1.8142818225e+00 3.1424282958e+00 
18500 7.1481780802e+00 2.8114023718e-03 1.8141975159e+00 -3.1422822724e+00 1.8141975159e+00 3.1422822724e+00 
18600 7.1481311299e+00 2.5487687116e-03 1.8141200330e+00 -3.1421480683e+00 1.8141200330e+00 3.1421480683e+00 
18700 7.1480897766e+00 2.2722046229e-03 1.8140497854e+00 -3.1420263958e+00 1.8140497854e+00 3.1420263958e+00 
18800 7.1480538048e+00 1.9826726592e-03 1.8139871578e+00 -3.1419179216e+00 1.8139871578e+00 3.1419179216e+00 
18900 7.1480229800e+00 1.6811341240e-03 1.8139325085e+00 -3.1418232663e+00 1.8139325085e+00 3.1418232663e+00 
19000 7.1479970509e+00 1.3685473989e-03 1.8138861692e+00 -3.1417430043e+00 1.8138861692e+00 3.1417430043e+00 
19100 7.1479757515e+00 1.0458663350e-03 1.8138484452e+00 -3.1416776643e+00 1.8138484452e+00 3.1416776643e+00 
19200 7.1479588038e+00 7.1403870685e-04 1.8138196152e+00 -3.1416277293e+00 1.8138196152e+00 3.1416277293e+00 
19300 7.1479459194e+00 3.7400473124e-04 1.8137999320e+00 -3.1415936369e+00 1.8137999320e+00 3.1415936369e+00 
19400 7.1479368022e+00 2.6695647638e-05 1.8137896220e+00 -3.1415757796e+00 1.8137896220e+00 3.1415757796e+00 
19500 7.1479311495e+00 -3.2612979036e-04 1.8137896220e+00 -3.1415757796e+00 1.8137896220e+00 3.1415757796e+00 
19600 7.1479286564e+00 -6.8526021073e-04 1.8137986123e+00 -3.1415913512e+00 1.8137986123e+00 3.1415913512e+00 
19700 7.1479290156e+00 -1.0489383747e-03 1.8138175025e+00 -3.1416240700e+00 1.8138175025e+00 3.1416240700e+00 
19800 7.1479319203e+00 -1.4162819359e-03 1.8138464178e+00 -3.1416741528e+00 1.8138464178e+00 3.1416741528e+00 
19900 7.1479370661e+00 -1.7864236974e-03 1.8138854588e+00 -3.1417417738e+00 1.8138854588e+00 3.1417417738e+00 
20000 7.1479441523e+00 -2.1585126671e-03 1.8139347020e+00 -3.1418270655e+00 1.8139347020e+00 3.1418270655e+00 
20100 7.1479528843e+00 -2.5317150566e-03 1.8139942004e+00 -3.1419301198e+00 1.8139942004e+00 3.1419301198e+00 
20200 7.1479629747e+00 -2.9052152237e-03 1.8140639838e+00 -3.1420509881e+00 1.8140639838e+00 3.1420509881e+00 
20300 7.1479741447e+00 -3.2782165592e-03 1.8141440591e+00 -3.1421896827e+00 1.8141440591e+00 3.1421896827e+00 
20400 7.1479861259e+00 -3.6499423199e-03 1.8142344115e+00 -3.1423461775e+00 1.8142344115e+00 3.1423461775e+00 
20500 7.1479986609e+00 -4.0196364082e-03 1.8143350042e+00 -3.1425204093e+00 1.8143350042e+00 3.1425204093e+00 
20600 7.1480115049e+00 -4.3865640998e-03 1.8144457797e+00 -3.1427122781e+00 1.8144457797e+00 3.1427122781e+00 
20700 7.1480244265e+00 -4.7500127201e-03 1.8145666600e+00 -3.1429216488e+00 1.8145666600e+00 3.1429216488e+00 
20800 7.1480372081e+00 -5.1092922702e-03 1.8146975471e+00 -3.1431483520e+00 1.8146975471e+00 3.1431483520e+00 
20900 7.1480496473e+00 -5.4637360042e-03 1.8148383243e+00 -3.1433921852e+00 1.8148383243e+00 3.1433921852e+00 
21000 7.1480615571e+00 -5.8127009573e-03 1.8149888559e+00 -3.1436529136e+00 1.8149888559e+00 3.1436529136e+00 
21100 7.1480727660e+00 -6.1555684276e-03 1.8151489887e+00 -3.1439302718e+00 1.8151489887e+00 3.1439302718e+00 
21200 7.1480831190e+00 -6.4917444099e-03 1.8153185524e+00 -3.1442239646e+00 1.8153185524e+00 3.1442239646e+00 
21300 7.1480924772e+00 -6.8206599853e-03 1.8154973598e+00 -3.1445336682e+00 1.8154973598e+00 3.1445336682e+00 
21400 7.1481007182e+00 -7.1417716641e-03 1.8156852086e+00 -3.1448590318e+00 1.8156852086e+00 3.1448590318e+00 
21500 7.1481077359e+00 -7.4545616859e-03 1.8158818809e+00 -3.1451996783e+00 1.8158818809e+00 3.1451996783e+00 
21600 7.1481134405e+00 -7.7585382757e-03 1.8160871449e+00 -3.1455552059e+00 1.8160871449e+00 3.1455552059e+00 
21700 7.1481177582e+00 -8.0532358568e-03 1.8163007549e+00 -3.1459251894e+00 1.8163007549e+00 3.1459251894e+00 
21800 7.1481206306e+00 -8.3382152227e-03 1.8165224528e+00 -3.1463091813e+00 1.8165224528e+00 3.1463091813e+00 
21900 7.1481220148e+00 -8.6130636667e-03 1.8167519680e+00 -3.1467067133e+00 1.8167519680e+00 3.1467067133e+00 
22000 7.1481218824e+00 -8.8773950717e-03 1.8169890188e+00 -3.1471172974e+00 1.8169890188e+00 3.1471172974e+00 
22100 7.1481202193e+00 -9.1308499599e-03 1.8172333129e+00 -3.1475404272e+00 1.8172333129e+00 3.1475404272e+00 
22200 7.1481170247e+00 -9.3730955025e-03 1.8174845481e+00 -3.1479755794e+00 1.8174845481e+00 3.1479755794e+00 
22300 7.1481123107e+00 -9.6038254928e-03 1.8177424133e+00 -3.1484222148e+00 1.8177424133e+00 3.1484222148e+00 
22400 7.1481061016e+00 -9.8227602795e-03 1.8180065887e+00 -3.1488797801e+00 1.8180065887e+00 3.1488797801e+00 
22500 7.1480984328e+00 -1.0029646665e-02 1.8182767473e+00 -3.1493477086e+00 1.8182767473e+00 3.1493477086e+00 
22600 7.1480893501e+00 -1.0224257764e-02 1.8185525552e+00 -3.1498254218e+00 1.8185525552e+00 3.1498254218e+00 
22700 7.1480789090e+00 -1.0406392833e-02 1.8188336722e+00 -3.1503123308e+00 1.8188336722e+00 3.1503123308e+00 
22800 7.1480671738e+00 -1.0575877057e-02 1.8191197529e+00 -3.1508078371e+00 1.8191197529e+00 3.1508078371e+00 
22900 7.1480542163e+00 -1.0732561311e-02 1.8194104473e+00 -3.1513113346e+00 1.8194104473e+00 3.1513113346e+00 
23000 7.1480401155e+00 -1.0876321878e-02 1.8197054014e+00 -3.1518222101e+00 1.8197054014e+00 3.1518222101e+00 
23100 7.1480249563e+00 -1.1007060146e-02 1.8200042580e+00 -3.1523398449e+00 1.8200042580e+00 3.1523398449e+00 
23200 7.1480088289e+00 -1.1124702265e-02 1.8203066575e+00 -3.1528636161e+00 1.8203066575e+00 3.1528636161e+00 
23300 7.1479918275e+00 -1.1229198780e-02 1.8206122382e+00 -3.1533928975e+00 1.8206122382e+00 3.1533928975e+00 
23400 7.1479740500e+00 -1.1320524228e-02 1.8209206377e+00 -3.1539270610e+00 1.8209206377e+00 3.1539270610e+00 
23500 7.1479555963e+00 -1.1398676712e-02 1.8212314927e+00 -3.1544654776e+00 1.8212314927e+00 3.1544654776e+00 
23600 7.1479365686e+00 -1.1463677443e-02 1.8215444403e+00 -3.1550075189e+00 1.8215444403e+00 3.1550075189e+00 
23700 7.1479170697e+00 -1.1515570263e-02 1.8218591186e+00 -3.1555525576e+00 1.8218591186e+00 3.1555525576e+00 
23800 7.1478972023e+00 -1.1554421130e-02 1.8221751667e+00 -3.1560999690e+00 1.8221751667e+00 3.1560999690e+00 
23900 7.1478770691e+00 -1.1580317592e-02 1.8224922261e+00 -3.1566491320e+00 1.8224922261e+00 3.1566491320e+00 
24000 7.1478567709e+00 -1.1593368226e-02 1.8228099409e+00 -3.1571994302e+00 1.8228099409e+00 3.1571994302e+00 
24100 7.1478364069e+00 -1.1593702063e-02 1.8231279583e+00 -3.1577502524e+00 1.8231279583e+00 3.1577502524e+00 
24200 7.1478160737e+00 -1.1581467990e-02 1.8234459293e+00 -3.1583009945e+00 1.8234459293e+00 3.1583009945e+00 
24300 7.1477958648e+00 -1.1556834126e-02 1.8237635095e+00 -3.1588510594e+00 1.8237635095e+00 3.1588510594e+00 
24400 7.1477758701e+00 -1.1519987189e-02 1.8240803589e+00 -3.1593998587e+00 1.8240803589e+00 3.1593998587e+00 
24500 7.1477561752e+00 -1.1471131834e-02 1.8243961432e+00 -3.1599468132e+00 1.8243961432e+00 3.1599468132e+00 
24600 7.1477368616e+00 -1.1410489987e-02 1.8247105339e+00 -3.1604913538e+00 1.8247105339e+00 3.1604913538e+00 
24700 7.1477180055e+00 -1.1338300151e-02 1.8250232086e+00 -3.1610329222e+00 1.8250232086e+00 3.1610329222e+00 
24800 7.1476996782e+00 -1.1254816707e-02 1.8253338518e+00 -3.1615709720e+00 1.8253338518e+00 3.1615709720e+00 
24900 7.1476819454e+00 -1.1160309199e-02 1.8256421552e+00 -3.1621049692e+00 1.8256421552e+00 3.1621049692e+00 
25000 7.1476648673e+00 -1.1055061605e-02 1.8259478181e+00 -3.1626343929e+00 1.8259478181e+00 3.1626343929e+00 
25100 7.1476484979e+00 -1.0939371600e-02 1.8262505476e+00 -3.1631587358e+00 1.8262505476e+00 3.1631587358e+00 
25200 7.1476328856e+00 -1.0813549809e-02 1.8265500594e+00 -3.1636775054e+00 1.8265500594e+00 3.1636775054e+00 
25300 7.1476180725e+00 -1.0677919054e-02 1.8268460776e+00 -3.1641902240e+00 1.8268460776e+00 3.1641902240e+00 
25400 7.1476040947e+00 -1.0532813589e-02 1.8271383355e+00 -3.1646964295e+00 1.8271383355e+00 3.1646964295e+00 
25500 7.1475909821e+00 -1.0378578335e-02 1.8274265756e+00 -3.1651956760e+00 1.8274265756e+00 3.1651956760e+00 
25600 7.1475787585e+00 -1.0215568107e-02 1.8277105500e+00 -3.1656875341e+00 1.8277105500e+00 3.1656875341e+00 
25700 7.1475674420e+00 -1.0044146838e-02 1.8279900206e+00 -3.1661715914e+00 1.8279900206e+00 3.1661715914e+00 
25800 7.1475570445e+00 -9.8646868045e-03 1.8282647595e+00 -3.1666474531e+00 1.8282647595e+00 3.1666474531e+00 
25900 7.1475475725e+00 -9.6775678466e-03 1.8285345489e+00 -3.1671147421e+00 1.8285345489e+00 3.1671147421e+00 
26000 7.1475390266e+00 -9.4831765914e-03 1.8287991816e+00 -3.1675730994e+00 1.8287991816e+00 3.1675730994e+00 
26100 7.1475314025e+00 -9.2819056777e-03 1.8290584610e+00 -3.1680221846e+00 1.8290584610e+00 3.1680221846e+00 
26200 7.1475246904e+00 -9.0741529828e-03 1.8293122014e+00 -3.1684616758e+00 1.8293122014e+00 3.1684616758e+00 
26300 7.1475188761e+00 -8.8603208539e-03 1.8295602279e+00 -3.1688912703e+00 1.8295602279e+00 3.1688912703e+00 
26400 7.1475139405e+00 -8.6408153446e-03 1.8298023767e+00 -3.1693106843e+00 1.8298023767e+00 3.1693106843e+00 
26500 7.1475098604e+00 -8.4160454577e-03 1.8300384952e+00 -3.1697196534e+00 1.8300384952e+00 3.1697196534e+00 
26600 7.1475066086e+00 -8.1864223951e-03 1.8302684417e+00 -3.1701179326e+00 1.8302684417e+00 3.1701179326e+00 
26700 7.1475041544e+00 -7.9523588173e-03 1.8304920862e+00 -3.1705052962e+00 1.8304920862e+00 3.1705052962e+00 
26800 7.1475024637e+00 -7.7142681108e-03 1.8307093097e+00 -3.1708815383e+00 1.8307093097e+00 3.1708815383e+00 
26900 7.1475014996e+00 -7.4725636681e-03 1.8309200044e+00 -3.1712464722e+00 1.8309200044e+00 3.1712464722e+00 
27000 7.1475012224e+00 -7.2276581783e-03 1.8311240740e+00 -3.1715999312e+00 1.8311240740e+00 3.1715999312e+00 
27100 7.1475015904e+00 -6.9799629306e-03 1.8313214333e+00 -3.1719417675e+00 1.8313214333e+00 3.1719417675e+00 
27200 7.1475025599e+00 -6.7298871318e-03 1.8315120084e+00 -3.1722718532e+00 1.8315120084e+00 3.1722718532e+00 
27300 7.1475040856e+00 -6.4778372386e-03 1.8316957364e+00 -3.1725900794e+00 1.8316957364e+00 3.1725900794e+00 
27400 7.1475061211e+00 -6.2242163051e-03 1.8318725654e+00 -3.1728963563e+00 1.8318725654e+00 3.1728963563e+00 
27500 7.1475086191e+00 -5.9694233473e-03 1.8320424548e+00 -3.1731906133e+00 1.8320424548e+00 3.1731906133e+00 
27600 7.1475115318e+00 -5.7138527249e-03 1.8322053744e+00 -3.1734727983e+00 1.8322053744e+00 3.1734727983e+00 
27700 7.1475148111e+00 -5.4578935411e-03 1.8323613049e+00 -3.1737428779e+00 1.8323613049e+00 3.1737428779e+00 
27800 7.1475184091e+00 -5.2019290616e-03 1.8325102375e+00 -3.1740008367e+00 1.8325102375e+00 3.1740008367e+00 
27900 7.1475222783e+00 -4.9463361538e-03 1.8326521738e+00 -3.1742466777e+00 1.8326521738e+00 3.1742466777e+00 
28000 7.1475263717e+00 -4.6914847456e-03 1.8327871257e+00 -3.1744804212e+00 1.8327871257e+00 3.1744804212e+00 
28100 7.1475306434e+00 -4.4377373062e-03 1.8329151149e+00 -3.1747021050e+00 1.8329151149e+00 3.1747021050e+00 
28200 7.1475350487e+00 -4.1854483483e-03 1.8330361731e+00 -3.1749117839e+00 1.8330361731e+00 3.1749117839e+00 
28300 7.1475395441e+00 -3.9349639528e-03 1.8331503413e+00 -3.1751095291e+00 1.8331503413e+00 3.1751095291e+00 
28400 7.1475440880e+00 -3.6866213165e-03 1.8332576703e+00 -3.1752954283e+00 1.8332576703e+00 3.1752954283e+00 
28500 7.1475486405e+00 -3.4407483232e-03 1.8333582196e+00 -3.1754695848e+00 1.8333582196e+00 3.1754695848e+00 
28600 7.1475531637e+00 -3.1976631383e-03 1.8334520577e+00 -3.1756321172e+00 1.8334520577e+00 3.1756321172e+00 
28700 7.1475576217e+00 -2.9576738285e-03 1.8335392617e+00 -3.1757831590e+00 1.8335392617e+00 3.1757831590e+00 
28800 7.1475619811e+00 -2.7210780051e-03 1.8336199171e+00 -3.1759228582e+00 1.8336199171e+00 3.1759228582e+00 
28900 7.1475662109e+00 -2.4881624930e-03 1.8336941172e+00 -3.1760513766e+00 1.8336941172e+00 3.1760513766e+00 
29000 7.1475702823e+00 -2.2592030242e-03 1.8337619633e+00 -3.1761688894e+00 1.8337619633e+00 3.1761688894e+00 
29100 7.1475741694e+00 -2.0344639574e-03 1.8338235638e+00 -3.1762755847e+00 1.8338235638e+00 3.1762755847e+00 
29200 7.1475778488e+00 -1.8141980224e-03 1.8338790347e+00 -3.1763716630e+00 1.8338790347e+00 3.1763716630e+00 
29300 7.1475812995e+00 -1.5986460898e-03 1.8339284983e+00 -3.1764573365e+00 1.8339284983e+00 3.1764573365e+00 
29400 7.1475845037e+00 -1.3880369677e-03 1.8339720838e+00 -3.1765328287e+00 1.8339720838e+00 3.1765328287e+00 
29500 7.1475874458e+00 -1.1825872219e-03 1.8340099263e+00 -3.1765983739e+00 1.8340099263e+00 3.1765983739e+00 
29600 7.1475901129e+00 -9.8250102329e-04 1.8340421668e+00 -3.1766542162e+00 1.8340421668e+00 3.1766542162e+00 
29700 7.1475924951e+00 -7.8797001974e-04 1.8340689520e+00 -3.1767006095e+00 1.8340689520e+00 3.1767006095e+00 
29800 7.1475945846e+00 -5.9917323322e-04 1.8340904335e+00 -3.1767378166e+00 1.8340904335e+00 3.1767378166e+00 
29900 7.1475963763e+00 -4.1627698200e-04 1.8341067679e+00 -3.1767661085e+00 1.8341067679e+00 3.1767661085e+00 
30000 7.1475978675e+00 -2.3943482738e-04 1.8341181161e+00 -3.1767857642e+00 1.8341181161e+00 3.1767857642e+00 
30100 7.1475990580e+00 -6.8787544777e-05 1.8341246434e+00 -3.1767970698e+00 1.8341246434e+00 3.1767970698e+00 
30200 7.1475999491e+00 9.3459164589e-05 1.8341246434e+00 -3.1767970698e+00 1.8341246434e+00 3.1767970698e+00 
30300 7.1476005451e+00 2.5139713812e-04 1.8341220956e+00 -3.1767926569e+00 1.8341220956e+00 3.1767926569e+00 
30400 7.1476008523e+00 4.0279273618e-04 1.8341152423e+00 -3.1767807865e+00 1.8341152423e+00 3.1767807865e+00 
30500 7.1476008785e+00 5.4755623234e-04 1.8341042617e+00 -3.1767617677e+00 1.8341042617e+00 3.1767617677e+00 
30600 7.1476006333e+00 6.8561047804e-04 1.8340893347e+00 -3.1767359132e+00 1.8340893347e+00 3.1767359132e+00 
30700 7.1476001279e+00 8.1689079530e-04 1.8340706439e+00 -3.1767035399e+00 1.8340706439e+00 3.1767035399e+00 
30800 7.1475993749e+00 9.4134484877e-04 1.8340483741e+00 -3.1766649675e+00 1.8340483741e+00 3.1766649675e+00 
30900 7.1475983883e+00 1.0589324976e-03 1.8340227111e+00 -3.1766205179e+00 1.8340227111e+00 3.1766205179e+00 
31000 7.1475971831e+00 1.1696256279e-03 1.8339938421e+00 -3.1765705152e+00 1.8339938421e+00 3.1765705152e+00 
31100 7.1475957753e+00 1.2734079667e-03 1.8339619548e+00 -3.1765152848e+00 1.8339619548e+00 3.1765152848e+00 
31200 7.1475941819e+00 1.3702748782e-03 1.8339272375e+00 -3.1764551527e+00 1.8339272375e+00 3.1764551527e+00 
31300 7.1475924205e+00 1.4602331421e-03 1.8338898786e+00 -3.1763904452e+00 1.8338898786e+00 3.1763904452e+00 
31400 7.1475905090e+00 1.5433007166e-03 1.8338500663e+00 -3.1763214882e+00 1.8338500663e+00 3.1763214882e+00 
31500 7.1475884661e+00 1.6195064853e-03 1.8338079883e+00 -3.1762486070e+00 1.8338079883e+00 3.1762486070e+00 
31600 7.1475863104e+00 1.6888899898e-03 1.8337638315e+00 -3.1761721253e+00 1.8337638315e+00 3.1761721253e+00 
31700 7.1475840608e+00 1.7515011480e-03 1.8337177819e+00 -3.1760923650e+00 1.8337177819e+00 3.1760923650e+00 
31800 7.1475817361e+00 1.8073999598e-03 1.8336700239e+00 -3.1760096457e+00 1.8336700239e+00 3.1760096457e+00 
31900 7.1475793548e+00 1.8566562009e-03 1.8336207404e+00 -3.1759242842e+00 1.8336207404e+00 3.1759242842e+00 
32000 7.1475769354e+00 1.8993491047e-03 1.8335701125e+00 -3.1758365941e+00 1.8335701125e+00 3.1758365941e+00 
32100 7.1475744957e+00 1.9355670347e-03 1.8335183190e+00 -3.1757468852e+00 1.8335183190e+00 3.1757468852e+00 
32200 7.1475720532e+00 1.9654071470e-03 1.8334655364e+00 -3.1756554630e+00 1.8334655364e+00 3.1756554630e+00 
32300 7.1475696248e+00 1.9889750439e-03 1.8334119385e+00 -3.1755626287e+00 1.8334119385e+00 3.1755626287e+00 
32400 7.1475672265e+00 2.0063844207e-03 1.8333576963e+00 -3.1754686785e+00 1.8333576963e+00 3.1754686785e+00 
32500 7.1475648737e+00 2.0177567047e-03 1.8333029778e+00 -3.1753739032e+00 1.8333029778e+00 3.1753739032e+00 
32600 7.1475625810e+00 2.0232206889e-03 1.8332479474e+00 -3.1752785878e+00 1.8332479474e+00 3.1752785878e+00 
32700 7.1475603617e+00 2.0229121604e-03 1.8331927664e+00 -3.1751830114e+00 1.8331927664e+00 3.1751830114e+00 
32800 7.1475582287e+00 2.0169735243e-03 1.8331375921e+00 -3.1750874468e+00 1.8331375921e+00 3.1750874468e+00 
32900 7.1475561933e+00 2.0055534242e-03 1.8330825781e+00 -3.1749921598e+00 1.8330825781e+00 3.1749921598e+00 
33000 7.1475542662e+00 1.9888063604e-03 1.8330278740e+00 -3.1748974095e+00 1.8330278740e+00 3.1748974095e+00 
33100 7.1475524566e+00 1.9668923058e-03 1.8329736251e+00 -3.1748034475e+00 1.8329736251e+00 3.1748034475e+00 
33200 7.1475507730e+00 1.9399763211e-03 1.8329199723e+00 -3.1747105182e+00 1.8329199723e+00 3.1747105182e+00 
33300 7.1475492224e+00 1.9082281690e-03 1.8328670521e+00 -3.1746188578e+00 1.8328670521e+00 3.1746188578e+00 
33400 7.1475478110e+00 1.8718219297e-03 1.8328149966e+00 -3.1745286949e+00 1.8328149966e+00 3.1745286949e+00 
33500 7.1475465435e+00 1.8309356169e-03 1.8327639327e+00 -3.1744402497e+00 1.8327639327e+00 3.1744402497e+00 
33600 7.1475454238e+00 1.7857507954e-03 1.8327139828e+00 -3.1743537339e+00 1.8327139828e+00 3.1743537339e+00 
33700 7.1475444546e+00 1.7364522021e-03 1.8326652642e+00 -3.1742693509e+00 1.8326652642e+00 3.1742693509e+00 
33800 7.1475436374e+00 1.6832273686e-03 1.8326178894e+00 -3.1741872953e+00 1.8326178894e+00 3.1741872953e+00 
33900 7.1475429729e+00 1.6262662490e-03 1.8325719655e+00 -3.1741077527e+00 1.8325719655e+00 3.1741077527e+00 
34000 7.1475424605e+00 1.5657608512e-03 1.8325275945e+00 -3.1740309000e+00 1.8325275945e+00 3.1740309000e+00 
34100 7.1475420989e+00 1.5019048728e-03 1.8324848733e+00 -3.1739569047e+00 1.8324848733e+00 3.1739569047e+00 
34200 7.1475418858e+00 1.4348933428e-03 1.8324438935e+00 -3.1738859255e+00 1.8324438935e+00 3.1738859255e+00 
34300 7.1475418178e+00 1.3649222693e-03 1.8324047412e+00 -3.1738181117e+00 1.8324047412e+00 3.1738181117e+00 
34400 7.1475418911e+00 1.2921882930e-03 1.8323674973e+00 -3.1737536034e+00 1.8323674973e+00 3.1737536034e+00 
34500 7.1475421008e+00 1.2168883479e-03 1.8323322373e+00 -3.1736925314e+00 1.8323322373e+00 3.1736925314e+00 
34600 7.1475424415e+00 1.1392193292e-03 1.8322990314e+00 -3.1736350171e+00 1.8322990314e+00 3.1736350171e+00 
34700 7.1475429070e+00 1.0593777683e-03 1.8322679443e+00 -3.1735811727e+00 1.8322679443e+00 3.1735811727e+00 
34800 7.1475434908e+00 9.7755951673e-04 1.8322390355e+00 -3.1735311011e+00 1.8322390355e+00 3.1735311011e+00 
34900 7.1475441855e+00 8.9395943730e-04 1.8322123589e+00 -3.1734848959e+00 1.8322123589e+00 3.1734848959e+00 
35000 7.1475449837e+00 8.0877110488e-04 1.8321879634e+00 -3.1734426415e+00 1.8321879634e+00 3.1734426415e+00 
35100 7.1475458773e+00 7.2218651540e-04 1.8321658922e+00 -3.1734044132e+00 1.8321658922e+00 3.1734044132e+00 
35200 7.1475468581e+00 6.3439580444e-04 1.8321461837e+00 -3.1733702771e+00 1.8321461837e+00 3.1733702771e+00 
35300 7.1475479176e+00 5.4558697505e-04 1.8321288708e+00 -3.1733402903e+00 1.8321288708e+00 3.1733402903e+00 
35400 7.1475490470e+00 4.5594563537e-04 1.8321139814e+00 -3.1733145011e+00 1.8321139814e+00 3.1733145011e+00 
35500 7.1475502376e+00 3.6565474603e-04 1.8321015383e+00 -3.1732929489e+00 1.8321015383e+00 3.1732929489e+00 
35600 7.1475514806e+00 2.7489437758e-04 1.8320915592e+00 -3.1732756646e+00 1.8320915592e+00 3.1732756646e+00 
35700 7.1475527671e+00 1.8384147813e-04 1.8320840570e+00 -3.1732626704e+00 1.8320840570e+00 3.1732626704e+00 
35800 7.1475540883e+00 9.2669651238e-05 1.8320790397e+00 -3.1732539802e+00 1.8320790397e+00 3.1732539802e+00 
35900 7.1475554357e+00 1.5489442964e-06 1.8320765106e+00 -3.1732495997e+00 1.8320765106e+00 3.1732495997e+00 
36000 7.1475568008e+00 -8.9307309891e-05 1.8320765106e+00 -3.1732495997e+00 1.8320765106e+00 3.1732495997e+00 
36100 7.1475581753e+00 -1.7983204390e-04 1.8320789479e+00 -3.1732538213e+00 1.8320789479e+00 3.1732538213e+00 
36200 7.1475595513e+00 -2.6981876955e-04 1.8320838558e+00 -3.1732623220e+00 1.8320838558e+00 3.1732623220e+00 
36300 7.1475609211e+00 -3.5911357187e-04 1.8320912195e+00 -3.1732750763e+00 1.8320912195e+00 3.1732750763e+00 
36400 7.1475622774e+00 -4.4756699179e-04 1.8321010202e+00 -3.1732920516e+00 1.8321010202e+00 3.1732920516e+00 
36500 7.1475636133e+00 -5.3503417405e-04 1.8321132348e+00 -3.1733132079e+00 1.8321132348e+00 3.1733132079e+00 
36600 7.1475649222e+00 -6.2137500463e-04 1.8321278364e+00 -3.1733384985e+00 1.8321278364e+00 3.1733384985e+00 
36700 7.1475661981e+00 -7.0645423753e-04 1.8321447941e+00 -3.1733678702e+00 1.8321447941e+00 3.1733678702e+00 
36800 7.1475674353e+00 -7.9014161092e-04 1.8321640736e+00 -3.1734012633e+00 1.8321640736e+00 3.1734012633e+00 
36900 7.1475686286e+00 -8.7231195292e-04 1.8321856367e+00 -3.1734386117e+00 1.8321856367e+00 3.1734386117e+00 
37000 7.1475697735e+00 -9.5284527686e-04 1.8322094420e+00 -3.1734798436e+00 1.8322094420e+00 3.1734798436e+00 
37100 7.1475708656e+00 -1.0316268663e-03 1.8322354447e+00 -3.1735248816e+00 1.8322354447e+00 3.1735248816e+00 
37200 7.1475719014e+00 -1.1085473499e-03 1.8322635969e+00 -3.1735736427e+00 1.8322635969e+00 3.1735736427e+00 
37300 7.1475728776e+00 -1.1835027659e-03 1.8322938477e+00 -3.1736260387e+00 1.8322938477e+00 3.1736260387e+00 
37400 7.1475737916e+00 -1.2563946169e-03 1.8323261435e+00 -3.1736819765e+00 1.8323261435e+00 3.1736819765e+00 
37500 7.1475746413e+00 -1.3271299151e-03 1.8323604277e+00 -3.1737413586e+00 1.8323604277e+00 3.1737413586e+00 
37600 7.1475754250e+00 -1.3956212167e-03 1.8323966415e+00 -3.1738040827e+00 1.8323966415e+00 3.1738040827e+00 
37700 7.1475761415e+00 -1.4617866486e-03 1.8324347235e+00 -3.1738700427e+00 1.8324347235e+00 3.1738700427e+00 
37800 7.1475767901e+00 -1.5255499239e-03 1.8324746101e+00 -3.1739391283e+00 1.8324746101e+00 3.1739391283e+00 
37900 7.1475773706e+00 -1.5868403495e-03 1.8325162357e+00 -3.1740112259e+00 1.8325162357e+00 3.1740112259e+00 
38000 7.1475778832e+00 -1.6455928239e-03 1.8325595326e+00 -3.1740862184e+00 1.8325595326e+00 3.1740862184e+00 
38100 7.1475783286e+00 -1.7017478270e-03 1.8326044315e+00 -3.1741639856e+00 1.8326044315e+00 3.1741639856e+00 
38200 7.1475787077e+00 -1.7552514008e-03 1.8326508615e+00 -3.1742444047e+00 1.8326508615e+00 3.1742444047e+00 
38300 7.1475790220e+00 -1.8060551216e-03 1.8326987500e+00 -3.1743273500e+00 1.8326987500e+00 3.1743273500e+00 
38400 7.1475792732e+00 -1.8541160643e-03 1.8327480234e+00 -3.1744126939e+00 1.8327480234e+00 3.1744126939e+00 
38500 7.1475794635e+00 -1.8993967587e-03 1.8327986065e+00 -3.1745003066e+00 1.8327986065e+00 3.1745003066e+00 
38600 7.1475795952e+00 -1.9418651385e-03 1.8328504236e+00 -3.1745900564e+00 1.8328504236e+00 3.1745900564e+00 
38700 7.1475796709e+00 -1.9814944817e-03 1.8329033978e+00 -3.1746818103e+00 1.8329033978e+00 3.1746818103e+00 
38800 7.1475796936e+00 -2.0182633452e-03 1.8329574515e+00 -3.1747754341e+00 1.8329574515e+00 3.1747754341e+00 
38900 7.1475796665e+00 -2.0521554912e-03 1.8330125066e+00 -3.1748707923e+00 1.8330125066e+00 3.1748707923e+00 
39000 7.1475795927e+00 -2.0831598076e-03 1.8330684846e+00 -3.1749677490e+00 1.8330684846e+00 3.1749677490e+00 
39100 7.1475794758e+00 -2.1112702219e-03 1.8331253065e+00 -3.1750661675e+00 1.8331253065e+00 3.1750661675e+00 
39200 7.1475793193e+00 -2.1364856080e-03 1.8331828934e+00 -3.1751659110e+00 1.8331828934e+00 3.1751659110e+00 
39300 7.1475791269e+00 -2.1588096885e-03 1.8332411663e+00 -3.1752668426e+00 1.8332411663e+00 3.1752668426e+00 
39400 7.1475789025e+00 -2.1782509300e-03 1.8333000462e+00 -3.1753688256e+00 1.8333000462e+00 3.1753688256e+00 
39500 7.1475786497e+00 -2.1948224337e-03 1.8333594545e+00 -3.1754717237e+00 1.8333594545e+00 3.1754717237e+00 
39600 7.1475783724e+00 -2.2085418205e-03 1.8334193127e+00 -3.1755754012e+00 1.8334193127e+00 3.1755754012e+00 
39700 7.1475780744e+00 -2.2194311117e-03 1.8334795432e+00 -3.1756797235e+00 1.8334795432e+00 3.1756797235e+00 
39800 7.1475777596e+00 -2.2275166041e-03 1.8335400686e+00 -3.1757845566e+00 1.8335400686e+00 3.1757845566e+00 
39900 7.1475774315e+00 -2.2328287421e-03 1.8336008126e+00 -3.1758897682e+00 1.8336008126e+00 3.1758897682e+00 
40000 7.1475770938e+00 -2.2354019847e-03 1.8336616994e+00 -3.1759952272e+00 1.8336616994e+00 3.1759952272e+00 
40100 7.1475767502e+00 -2.2352746692e-03 1.8337226543e+00 -3.1761008042e+00 1.8337226543e+00 3.1761008042e+00 
40200 7.1475764039e+00 -2.2324888712e-03 1.8337836037e+00 -3.1762063717e+00 1.8337836037e+00 3.1762063717e+00 
40300 7.1475760583e+00 -2.2270902617e-03 1.8338444752e+00 -3.1763118042e+00 1.8338444752e+00 3.1763118042e+00 
40400 7.1475757166e+00 -2.2191279610e-03 1.8339051974e+00 -3.1764169782e+00 1.8339051974e+00 3.1764169782e+00 
40500 7.1475753817e+00 -2.2086543898e-03 1.8339657005e+00 -3.1765217727e+00 1.8339657005e+00 3.1765217727e+00 
40600 7.1475750564e+00 -2.1957251185e-03 1.8340259161e+00 -3.1766260691e+00 1.8340259161e+00 3.1766260691e+00 
40700 7.1475747433e+00 -2.1803987136e-03 1.8340857772e+00 -3.1767297516e+00 1.8340857772e+00 3.1767297516e+00 
40800 7.1475744448e+00 -2.1627365833e-03 1.8341452186e+00 -3.1768327071e+00 1.8341452186e+00 3.1768327071e+00 
40900 7.1475741632e+00 -2.1428028203e-03 1.8342041765e+00 -3.1769348252e+00 1.8342041765e+00 3.1769348252e+00 
41000 7.1475739004e+00 -2.1206640446e-03 1.8342625892e+00 -3.1770359989e+00 1.8342625892e+00 3.1770359989e+00 
41100 7.1475736582e+00 -2.0963892442e-03 1.8343203965e+00 -3.1771361240e+00 1.8343203965e+00 3.1771361240e+00 
41200 7.1475734383e+00 -2.0700496161e-03 1.8343775402e+00 -3.1772351000e+00 1.8343775402e+00 3.1772351000e+00 
41300 7.1475732419e+00 -2.0417184057e-03 1.8344339643e+00 -3.1773328293e+00 1.8344339643e+00 3.1773328293e+00 
41400 7.1475730701e+00 -2.0114707468e-03 1.8344896144e+00 -3.1774292181e+00 1.8344896144e+00 3.1774292181e+00 
41500 7.1475729240e+00 -1.9793835017e-03 1.8345444384e+00 -3.1775241760e+00 1.8345444384e+00 3.1775241760e+00 
41600 7.1475728042e+00 -1.9455351008e-03 1.8345983862e+00 -3.1776176164e+00 1.8345983862e+00 3.1776176164e+00 
41700 7.1475727111e+00 -1.9100053835e-03 1.8346514099e+00 -3.1777094561e+00 1.8346514099e+00 3.1777094561e+00 
41800 7.1475726452e+00 -1.8728754396e-03 1.8347034638e+00 -3.1777996161e+00 1.8347034638e+00 3.1777996161e+00 
41900 7.1475726064e+00 -1.8342274518e-03 1.8347545043e+00 -3.1778880209e+00 1.8347545043e+00 3.1778880209e+00 
42000 7.1475725947e+00 -1.7941445393e-03 1.8348044902e+00 -3.1779745989e+00 1.8348044902e+00 3.1779745989e+00 
42100 7.1475726099e+00 -1.7527106030e-03 1.8348533824e+00 -3.1780592827e+00 1.8348533824e+00 3.1780592827e+00 
42200 7.1475726514e+00 -1.7100101724e-03 1.8349011442e+00 -3.1781420086e+00 1.8349011442e+00 3.1781420086e+00 
42300 7.1475727187e+00 -1.6661282545e-03 1.8349477412e+00 -3.1782227169e+00 1.8349477412e+00 3.1782227169e+00 
42400 7.1475728111e+00 -1.6211501847e-03 1.8349931412e+00 -3.1783013522e+00 1.8349931412e+00 3.1783013522e+00 
42500 7.1475729275e+00 -1.5751614798e-03 1.8350373146e+00 -3.1783778627e+00 1.8350373146e+00 3.1783778627e+00 
42600 7.1475730671e+00 -1.5282476944e-03 1.8350802338e+00 -3.1784522010e+00 1.8350802338e+00 3.1784522010e+00 
42700 7.1475732286e+00 -1.4804942789e-03 1.8351218738e+00 -3.1785243235e+00 1.8351218738e+00 3.1785243235e+00 
42800 7.1475734109e+00 -1.4319864409e-03 1.8351622117e+00 -3.1785941908e+00 1.8351622117e+00 3.1785941908e+00 
42900 7.1475736126e+00 -1.3828090102e-03 1.8352012271e+00 -3.1786617675e+00 1.8352012271e+00 3.1786617675e+00 
43000 7.1475738323e+00 -1.3330463060e-03 1.8352389018e+00 -3.1787270220e+00 1.8352389018e+00 3.1787270220e+00 
43100 7.1475740685e+00 -1.2827820081e-03 1.8352752200e+00 -3.1787899269e+00 1.8352752200e+00 3.1787899269e+00 
43200 7.1475743198e+00 -1.2320990318e-03 1.8353101681e+00 -3.1788504587e+00 1.8353101681e+00 3.1788504587e+00 
43300 7.1475745844e+00 -1.1810794062e-03 1.8353437347e+00 -3.1789085978e+00 1.8353437347e+00 3.1789085978e+00 
43400 7.1475748610e+00 -1.1298041561e-03 1.8353759107e+00 -3.1789643284e+00 1.8353759107e+00 3.1789643284e+00 
43500 7.1475751477e+00 -1.0783531883e-03 1.8354066894e+00 -3.1790176385e+00 1.8354066894e+00 3.1790176385e+00 
43600 7.1475754431e+00 -1.0268051819e-03 1.8354360659e+00 -3.1790685201e+00 1.8354360659e+00 3.1790685201e+00 
43700 7.1475757455e+00 -9.7523748238e-04 1.8354640376e+00 -3.1791169686e+00 1.8354640376e+00 3.1791169686e+00 
43800 7.1475760533e+00 -9.2372600040e-04 1.8354906042e+00 -3.1791629833e+00 1.8354906042e+00 3.1791629833e+00 
43900 7.1475763650e+00 -8.7234511467e-04 1.8355157672e+00 -3.1792065668e+00 1.8355157672e+00 3.1792065668e+00 
44000 7.1475766789e+00 -8.2116757936e-04 1.8355395302e+00 -3.1792477255e+00 1.8355395302e+00 3.1792477255e+00 
44100 7.1475769937e+00 -7.7026443606e-04 1.8355618988e+00 -3.1792864691e+00 1.8355618988e+00 3.1792864691e+00 
44200 7.1475773078e+00 -7.1970493024e-04 1.8355828805e+00 -3.1793228106e+00 1.8355828805e+00 3.1793228106e+00 
44300 7.1475776199e+00 -6.6955643237e-04 1.8356024848e+00 -3.1793567662e+00 1.8356024848e+00 3.1793567662e+00 
44400 7.1475779287e+00 -6.1988436368e-04 1.8356207229e+00 -3.1793883555e+00 1.8356207229e+00 3.1793883555e+00 
44500 7.1475782329e+00 -5.7075212672e-04 1.8356376078e+00 -3.1794176010e+00 1.8356376078e+00 3.1794176010e+00 
44600 7.1475785314e+00 -5.2222104056e-04 1.8356531542e+00 -3.1794445282e+00 1.8356531542e+00 3.1794445282e+00 
44700 7.1475788230e+00 -4.7435028077e-04 1.8356673787e+00 -3.1794691656e+00 1.8356673787e+00 3.1794691656e+00 
44800 7.1475791067e+00 -4.2719682423e-04 1.8356802991e+00 -3.1794915444e+00 1.8356802991e+00 3.1794915444e+00 
44900 7.1475793817e+00 -3.8081539865e-04 1.8356919350e+00 -3.1795116984e+00 1.8356919350e+00 3.1795116984e+00 
45000 7.1475796471e+00 -3.3525843685e-04 1.8357023075e+00 -3.1795296642e+00 1.8357023075e+00 3.1795296642e+00 
45100 7.1475799022e+00 -2.9057603585e-04 1.8357114391e+00 -3.1795454806e+00 1.8357114391e+00 3.1795454806e+00 
45200 7.1475801463e+00 -2.4681592060e-04 1.8357193537e+00 -3.1795591890e+00 1.8357193537e+00 3.1795591890e+00 
45300 7.1475803788e+00 -2.0402341254e-04 1.8357260763e+00 -3.1795708329e+00 1.8357260763e+00 3.1795708329e+00 
45400 7.1475805994e+00 -1.6224140264e-04 1.8357316333e+00 -3.1795804580e+00 1.8357316333e+00 3.1795804580e+00 
45500 7.1475808077e+00 -1.2151032923e-04 1.8357360523e+00 -3.1795881119e+00 1.8357360523e+00 3.1795881119e+00 
45600 7.1475810033e+00 -8.1868160292e-05 1.8357393619e+00 -3.1795938442e+00 1.8357393619e+00 3.1795938442e+00 
45700 7.1475811861e+00 -4.3350380274e-05 1.8357415917e+00 -3.1795977064e+00 1.8357415917e+00 3.1795977064e+00 
45800 7.1475813560e+00 -7.2952347549e-06 1.8357415917e+00 -3.1795977064e+00 1.8357415917e+00 3.1795977064e+00 
45900 7.1475815129e+00 2.8690090322e-05 1.8357415917e+00 -3.1795977064e+00 1.8357415917e+00 3.1795977064e+00 
46000 7.1475816570e+00 6.4547398836e-05 1.8357415917e+00 -3.1795977064e+00 1.8357415917e+00 3.1795977064e+00 
46100 7.1475817886e+00 1.0022029777e-04 1.8357415917e+00 -3.1795977064e+00 1.8357415917e+00 3.1795977064e+00 
46200 7.1475819077e+00 1.3263635270e-04 1.8357388620e+00 -3.1795929785e+00 1.8357388620e+00 3.1795929785e+00 
46300 7.1475820144e+00 1.6376872552e-04 1.8357352494e+00 -3.1795867212e+00 1.8357352494e+00 3.1795867212e+00 
46400 7.1475821093e+00 1.9359926477e-04 1.8357307888e+00 -3.1795789953e+00 1.8357307888e+00 3.1795789953e+00 
46500 7.1475821927e+00 2.2211225701e-04 1.8357255158e+00 -3.1795698620e+00 1.8357255158e+00 3.1795698620e+00 
46600 7.1475822651e+00 2.4929440322e-04 1.8357194660e+00 -3.1795593836e+00 1.8357194660e+00 3.1795593836e+00 
46700 7.1475823270e+00 2.7513479161e-04 1.8357126760e+00 -3.1795476228e+00 1.8357126760e+00 3.1795476228e+00 
46800 7.1475823788e+00 2.9962486691e-04 1.8357051820e+00 -3.1795346430e+00 1.8357051820e+00 3.1795346430e+00 
46900 7.1475824213e+00 3.2275839642e-04 1.8356970210e+00 -3.1795205076e+00 1.8356970210e+00 3.1795205076e+00 
47000 7.1475824550e+00 3.4453143282e-04 1.8356882298e+00 -3.1795052809e+00 1.8356882298e+00 3.1795052809e+00 
47100 7.1475824805e+00 3.6494227389e-04 1.8356788456e+00 -3.1794890269e+00 1.8356788456e+00 3.1794890269e+00 
47200 7.1475824986e+00 3.8399141931e-04 1.8356689053e+00 -3.1794718099e+00 1.8356689053e+00 3.1794718099e+00 
47300 7.1475825098e+00 4.0168152467e-04 1.8356584462e+00 -3.1794536941e+00 1.8356584462e+00 3.1794536941e+00 
47400 7.1475825149e+00 4.1801735280e-04 1.8356475051e+00 -3.1794347436e+00 1.8356475051e+00 3.1794347436e+00 
47500 7.1475825146e+00 4.3300572255e-04 1.8356361190e+00 -3.1794150223e+00 1.8356361190e+00 3.1794150223e+00 
47600 7.1475825096e+00 4.4665545526e-04 1.8356243246e+00 -3.1793945938e+00 1.8356243246e+00 3.1793945938e+00 
47700 7.1475825006e+00 4.5897731886e-04 1.8356121583e+00 -3.1793735212e+00 1.8356121583e+00 3.1793735212e+00 
47800 7.1475824882e+00 4.6998397002e-04 1.8355996563e+00 -3.1793518671e+00 1.8355996563e+00 3.1793518671e+00 
47900 7.1475824731e+00 4.7968989424e-04 1.8355868544e+00 -3.1793296935e+00 1.8355868544e+00 3.1793296935e+00 
48000 7.1475824560e+00 4.8811134413e-04 1.8355737880e+00 -3.1793070619e+00 1.8355737880e+00 3.1793070619e+00 
48100 7.1475824376e+00 4.9526627612e-04 1.8355604922e+00 -3.1792840328e+00 1.8355604922e+00 3.1792840328e+00 
48200 7.1475824184e+00 5.0117428550e-04 1.8355470013e+00 -3.1792606659e+00 1.8355470013e+00 3.1792606659e+00 
48300 7.1475823990e+00 5.0585654023e-04 1.8355333494e+00 -3.1792370202e+00 1.8355333494e+00 3.1792370202e+00 
48400 7.1475823800e+00 5.0933571339e-04 1.8355195699e+00 -3.1792131533e+00 1.8355195699e+00 3.1792131533e+00 
48500 7.1475823619e+00 5.1163591461e-04 1.8355056955e+00 -3.1791891221e+00 1.8355056955e+00 3.1791891221e+00 
48600 7.1475823452e+00 5.1278262049e-04 1.8354917583e+00 -3.1791649822e+00 1.8354917583e+00 3.1791649822e+00 
48700 7.1475823304e+00 5.1280260430e-04 1.8354777898e+00 -3.1791407880e+00 1.8354777898e+00 3.1791407880e+00 
48800 7.1475823179e+00 5.1172386488e-04 1.8354638206e+00 -3.1791165927e+00 1.8354638206e+00 3.1791165927e+00 
48900 7.1475823081e+00 5.0957555509e-04 1.8354498807e+00 -3.1790924481e+00 1.8354498807e+00 3.1790924481e+00 
49000 7.1475823012e+00 5.0638790980e-04 1.8354359992e+00 -3.1790684047e+00 1.8354359992e+00 3.1790684047e+00 
49100 7.1475822978e+00 5.0219217364e-04 1.8354222045e+00 -3.1790445115e+00 1.8354222045e+00 3.1790445115e+00 
49200 7.1475822979e+00 4.9702052858e-04 1.8354085240e+00 -3.1790208161e+00 1.8354085240e+00 3.1790208161e+00 
49300 7.1475823019e+00 4.9090602147e-04 1.8353949842e+00 -3.1789973646e+00 1.8353949842e+00 3.1789973646e+00 
49400 7.1475823099e+00 4.8388249175e-04 1.8353816109e+00 -3.1789742014e+00 1.8353816109e+00 3.1789742014e+00 
49500 7.1475823220e+00 4.7598449929e-04 1.8353684288e+00 -3.1789513694e+00 1.8353684288e+00 3.1789513694e+00 
49600 7.1475823385e+00 4.6724725266e-04 1.8353554619e+00 -3.1789289099e+00 1.8353554619e+00 3.1789289099e+00 
49700 7.1475823593e+00 4.5770653777e-04 1.8353427328e+00 -3.1789068625e+00 1.8353427328e+00 3.1789068625e+00 
49800 7.1475823845e+00 4.4739864709e-04 1.8353302636e+00 -3.1788852652e+00 1.8353302636e+00 3.1788852652e+00 
49900 7.1475824140e+00 4.3636030967e-04 1.8353180751e+00 -3.1788641541e+00 1.8353180751e+00 3.1788641541e+00 
50000 7.1475824480e+00 4.2462862167e-04 1.8353061872e+00 -3.1788435637e+00 1.8353061872e+00 3.1788435637e+00 
50100 7.1475824862e+00 4.1224097808e-04 1.8352946189e+00 -3.1788235268e+00 1.8352946189e+00 3.1788235268e+00 
50200 7.1475825287e+00 3.9923500509e-04 1.8352833880e+00 -3.1788040743e+00 1.8352833880e+00 3.1788040743e+00 
50300 7.1475825752e+00 3.8564849384e-04 1.8352725114e+00 -3.1787852354e+00 1.8352725114e+00 3.1787852354e+00 
50400 7.1475826257e+00 3.7151933503e-04 1.8352620048e+00 -3.1787670375e+00 1.8352620048e+00 3.1787670375e+00 
50500 7.1475826799e+00 3.5688545495e-04 1.8352518831e+00 -3.1787495062e+00 1.8352518831e+00 3.1787495062e+00 
50600 7.1475827377e+00 3.4178475277e-04 1.8352421601e+00 -3.1787326654e+00 1.8352421601e+00 3.1787326654e+00 
50700 7.1475827988e+00 3.2625503923e-04 1.8352328484e+00 -3.1787165371e+00 1.8352328484e+00 3.1787165371e+00 
50800 7.1475828631e+00 3.1033397675e-04 1.8352239597e+00 -3.1787011415e+00 1.8352239597e+00 3.1787011415e+00 
50900 7.1475829302e+00 2.9405902109e-04 1.8352155048e+00 -3.1786864971e+00 1.8352155048e+00 3.1786864971e+00 
51000 7.1475830000e+00 2.7746736469e-04 1.8352074932e+00 -3.1786726207e+00 1.8352074932e+00 3.1786726207e+00 
51100 7.1475830721e+00 2.6059588148e-04 1.8351999337e+00 -3.1786595271e+00 1.8351999337e+00 3.1786595271e+00 
51200 7.1475831463e+00 2.4348107359e-04 1.8351928337e+00 -3.1786472297e+00 1.8351928337e+00 3.1786472297e+00 
51300 7.1475832223e+00 2.2615901971e-04 1.8351862001e+00 -3.1786357399e+00 1.8351862001e+00 3.1786357399e+00 
51400 7.1475832998e+00 2.0866532525e-04 1.8351800383e+00 -3.1786250674e+00 1.8351800383e+00 3.1786250674e+00 
51500 7.1475833785e+00 1.9103507444e-04 1.8351743532e+00 -3.1786152205e+00 1.8351743532e+00 3.1786152205e+00 
51600 7.1475834581e+00 1.7330278419e-04 1.8351691484e+00 -3.1786062055e+00 1.8351691484e+00 3.1786062055e+00 
51700 7.1475835384e+00 1.5550236000e-04 1.8351644267e+00 -3.1785980272e+00 1.8351644267e+00 3.1785980272e+00 
51800 7.1475836190e+00 1.3766705377e-04 1.8351601899e+00 -3.1785906890e+00 1.8351601899e+00 3.1785906890e+00 
51900 7.1475836998e+00 1.1982942351e-04 1.8351564391e+00 -3.1785841924e+00 1.8351564391e+00 3.1785841924e+00 
52000 7.1475837803e+00 1.0202129525e-04 1.8351531743e+00 -3.1785785375e+00 1.8351531743e+00 3.1785785375e+00 
52100 7.1475838604e+00 8.4273726744e-05 1.8351503946e+00 -3.1785737230e+00 1.8351503946e+00 3.1785737230e+00 
52200 7.1475839398e+00 6.6616973413e-05 1.8351480985e+00 -3.1785697461e+00 1.8351480985e+00 3.1785697461e+00 
52300 7.1475840183e+00 5.1088952332e-05 1.8351480985e+00 -3.1785697461e+00 1.8351480985e+00 3.1785697461e+00 
52400 7.1475840956e+00 3.5191401764e-05 1.8351480985e+00 -3.1785697461e+00 1.8351480985e+00 3.1785697461e+00 
52500 7.1475841714e+00 1.8954320984e-05 1.8351480985e+00 -3.1785697461e+00 1.8351480985e+00 3.1785697461e+00 
52600 7.1475842457e+00 2.4074765543e-06 1.8351480985e+00 -3.1785697461e+00 1.8351480985e+00 3.1785697461e+00 
52700 7.1475843182e+00 -1.4419638953e-05 1.8351480985e+00 -3.1785697461e+00 1.8351480985e+00 3.1785697461e+00 
52800 7.1475843888e+00 -3.1497846687e-05 1.8351480985e+00 -3.1785697461e+00 1.8351480985e+00 3.1785697461e+00 
52900 7.1475844574e+00 -4.8798319649e-05 1.8351480985e+00 -3.1785697461e+00 1.8351480985e+00 3.1785697461e+00 
53000 7.1475845239e+00 -6.6292619238e-05 1.8351480985e+00 -3.1785697461e+00 1.8351480985e+00 3.1785697461e+00 
53100 7.1475845883e+00 -8.3952730142e-05 1.8351480985e+00 -3.1785697461e+00 1.8351480985e+00 3.1785697461e+00 
53200 7.1475846501e+00 -9.9220260338e-05 1.8351503859e+00 -3.1785737079e+00 1.8351503859e+00 3.1785737079e+00 
53300 7.1475847095e+00 -1.1412564748e-04 1.8351530892e+00 -3.1785783902e+00 1.8351530892e+00 3.1785783902e+00 
53400 7.1475847663e+00 -1.2865015527e-04 1.8351561987e+00 -3.1785837759e+00 1.8351561987e+00 3.1785837759e+00 
53500 7.1475848205e+00 -1.4277610754e-04 1.8351597038e+00 -3.1785898470e+00 1.8351597038e+00 3.1785898470e+00 
53600 7.1475848721e+00 -1.5648689420e-04 1.8351635938e+00 -3.1785965847e+00 1.8351635938e+00 3.1785965847e+00 
53700 7.1475849210e+00 -1.6976697527e-04 1.8351678574e+00 -3.1786039694e+00 1.8351678574e+00 3.1786039694e+00 
53800 7.1475849673e+00 -1.8260188316e-04 1.8351724828e+00 -3.1786119808e+00 1.8351724828e+00 3.1786119808e+00 
53900 7.1475850110e+00 -1.9497822298e-04 1.8351774578e+00 -3.1786205979e+00 1.8351774578e+00 3.1786205979e+00 
54000 7.1475850521e+00 -2.0688367129e-04 1.8351827701e+00 -3.1786297990e+00 1.8351827701e+00 3.1786297990e+00 
54100 7.1475850907e+00 -2.1830697297e-04 1.8351884067e+00 -3.1786395618e+00 1.8351884067e+00 3.1786395618e+00 
54200 7.1475851267e+00 -2.2923793647e-04 1.8351943545e+00 -3.1786498638e+00 1.8351943545e+00 3.1786498638e+00 
54300 7.1475851603e+00 -2.3966742746e-04 1.8352006001e+00 -3.1786606815e+00 1.8352006001e+00 3.1786606815e+00 
54400 7.1475851916e+00 -2.4958736079e-04 1.8352071298e+00 -3.1786719913e+00 1.8352071298e+00 3.1786719913e+00 
54500 7.1475852206e+00 -2.5899069098e-04 1.8352139298e+00 -3.1786837692e+00 1.8352139298e+00 3.1786837692e+00 
54600 7.1475852474e+00 -2.6787140120e-04 1.8352209860e+00 -3.1786959908e+00 1.8352209860e+00 3.1786959908e+00 
54700 7.1475852721e+00 -2.7622449077e-04 1.8352282841e+00 -3.1787086315e+00 1.8352282841e+00 3.1787086315e+00 
54800 7.1475852949e+00 -2.8404596130e-04 1.8352358097e+00 -3.1787216662e+00 1.8352358097e+00 3.1787216662e+00 
54900 7.1475853158e+00 -2.9133280148e-04 1.8352435484e+00 -3.1787350700e+00 1.8352435484e+00 3.1787350700e+00 
55000 7.1475853350e+00 -2.9808297056e-04 1.8352514855e+00 -3.1787488176e+00 1.8352514855e+00 3.1787488176e+00 
55100 7.1475853527e+00 -3.0429538058e-04 1.8352596066e+00 -3.1787628837e+00 1.8352596066e+00 3.1787628837e+00 
55200 7.1475853688e+00 -3.0996987748e-04 1.8352678968e+00 -3.1787772428e+00 1.8352678968e+00 3.1787772428e+00 
55300 7.1475853836e+00 -3.1510722104e-04 1.8352763417e+00 -3.1787918697e+00 1.8352763417e+00 3.1787918697e+00 
55400 7.1475853972e+00 -3.1970906373e-04 1.8352849264e+00 -3.1788067389e+00 1.8352849264e+00 3.1788067389e+00 
55500 7.1475854097e+00 -3.2377792858e-04 1.8352936365e+00 -3.1788218252e+00 1.8352936365e+00 3.1788218252e+00 
55600 7.1475854213e+00 -3.2731718610e-04 1.8353024574e+00 -3.1788371034e+00 1.8353024574e+00 3.1788371034e+00 
55700 7.1475854321e+00 -3.3033103031e-04 1.8353113746e+00 -3.1788525485e+00 1.8353113746e+00 3.1788525485e+00 
55800 7.1475854421e+00 -3.3282445384e-04 1.8353203739e+00 -3.1788681358e+00 1.8353203739e+00 3.1788681358e+00 
55900 7.1475854516e+00 -3.3480322240e-04 1.8353294412e+00 -3.1788838407e+00 1.8353294412e+00 3.1788838407e+00 
56000 7.1475854607e+00 -3.3627384840e-04 1.8353385622e+00 -3.1788996389e+00 1.8353385622e+00 3.1788996389e+00 
56100 7.1475854695e+00 -3.3724356394e-04 1.8353477233e+00 -3.1789155063e+00 1.8353477233e+00 3.1789155063e+00 
56200 7.1475854780e+00 -3.3772029327e-04 1.8353569108e+00 -3.1789314195e+00 1.8353569108e+00 3.1789314195e+00 
56300 7.1475854864e+00 -3.3771262455e-04 1.8353661112e+00 -3.1789473551e+00 1.8353661112e+00 3.1789473551e+00 
56400 7.1475854948e+00 -3.3722978126e-04 1.8353753113e+00 -3.1789632902e+00 1.8353753113e+00 3.1789632902e+00 
56500 7.1475855033e+00 -3.3628159308e-04 1.8353844983e+00 -3.1789792025e+00 1.8353844983e+00 3.1789792025e+00 
56600 7.1475855120e+00 -3.3487846647e-04 1.8353936594e+00 -3.1789950699e+00 1.8353936594e+00 3.1789950699e+00 
56700 7.1475855210e+00 -3.3303135488e-04 1.8354027822e+00 -3.1790108711e+00 1.8354027822e+00 3.1790108711e+00 
56800 7.1475855303e+00 -3.3075172864e-04 1.8354118546e+00 -3.1790265850e+00 1.8354118546e+00 3.1790265850e+00 
56900 7.1475855400e+00 -3.2805154478e-04 1.8354208649e+00 -3.1790421913e+00 1.8354208649e+00 3.1790421913e+00 
57000 7.1475855501e+00 -3.2494321657e-04 1.8354298016e+00 -3.1790576701e+00 1.8354298016e+00 3.1790576701e+00 
57100 7.1475855608e+00 -3.2143958301e-04 1.8354386536e+00 -3.1790730022e+00 1.8354386536e+00 3.1790730022e+00 
57200 7.1475855720e+00 -3.1755387824e-04 1.8354474101e+00 -3.1790881688e+00 1.8354474101e+00 3.1790881688e+00 
57300 7.1475855839e+00 -3.1329970097e-04 1.8354560606e+00 -3.1791031521e+00 1.8354560606e+00 3.1791031521e+00 
57400 7.1475855963e+00 -3.0869098393e-04 1.8354645953e+00 -3.1791179346e+00 1.8354645953e+00 3.1791179346e+00 
57500 7.1475856094e+00 -3.0374196348e-04 1.8354730044e+00 -3.1791324995e+00 1.8354730044e+00 3.1791324995e+00 
57600 7.1475856232e+00 -2.9846714930e-04 1.8354812786e+00 -3.1791468309e+00 1.8354812786e+00 3.1791468309e+00 
57700 7.1475856377e+00 -2.9288129427e-04 1.8354894091e+00 -3.1791609133e+00 1.8354894091e+00 3.1791609133e+00 
57800 7.1475856529e+00 -2.8699936467e-04 1.8354973874e+00 -3.1791747321e+00 1.8354973874e+00 3.1791747321e+00 
57900 7.1475856687e+00 -2.8083651054e-04 1.8355052054e+00 -3.1791882734e+00 1.8355052054e+00 3.1791882734e+00 
58000 7.1475856852e+00 -2.7440803650e-04 1.8355128555e+00 -3.1792015237e+00 1.8355128555e+00 3.1792015237e+00 
58100 7.1475857024e+00 -2.6772937279e-04 1.8355203305e+00 -3.1792144708e+00 1.8355203305e+00 3.1792144708e+00 
58200 7.1475857202e+00 -2.6081604687e-04 1.8355276235e+00 -3.1792271027e+00 1.8355276235e+00 3.1792271027e+00 
58300 7.1475857386e+00 -2.5368365531e-04 1.8355347282e+00 -3.1792394083e+00 1.8355347282e+00 3.1792394083e+00 
58400 7.1475857576e+00 -2.4634783630e-04 1.8355416386e+00 -3.1792513774e+00 1.8355416386e+00 3.1792513774e+00 
58500 7.1475857772e+00 -2.3882424258e-04 1.8355483491e+00 -3.1792630003e+00 1.8355483491e+00 3.1792630003e+00 
58600 7.1475857972e+00 -2.3112851494e-04 1.8355548546e+00 -3.1792742682e+00 1.8355548546e+00 3.1792742682e+00 
58700 7.1475858178e+00 -2.2327625636e-04 1.8355611505e+00 -3.1792851730e+00 1.8355611505e+00 3.1792851730e+00 
58800 7.1475858388e+00 -2.1528300668e-04 1.8355672324e+00 -3.1792957073e+00 1.8355672324e+00 3.1792957073e+00 
58900 7.1475858601e+00 -2.0716421799e-04 1.8355730966e+00 -3.1793058644e+00 1.8355730966e+00 3.1793058644e+00 
59000 7.1475858818e+00 -1.9893523059e-04 1.8355787397e+00 -3.1793156384e+00 1.8355787397e+00 3.1793156384e+00 
59100 7.1475859038e+00 -1.9061124980e-04 1.8355841586e+00 -3.1793250242e+00 1.8355841586e+00 3.1793250242e+00 
59200 7.1475859260e+00 -1.8220732330e-04 1.8355893507e+00 -3.1793340172e+00 1.8355893507e+00 3.1793340172e+00 
59300 7.1475859484e+00 -1.7373831937e-04 1.8355943139e+00 -3.1793426137e+00 1.8355943139e+00 3.1793426137e+00 
59400 7.1475859709e+00 -1.6521890578e-04 1.8355990463e+00 -3.1793508106e+00 1.8355990463e+00 3.1793508106e+00 
59500 7.1475859935e+00 -1.5666352960e-04 1.8356035467e+00 -3.1793586055e+00 1.8356035467e+00 3.1793586055e+00 
59600 7.1475860161e+00 -1.4808639759e-04 1.8356078141e+00 -3.1793659968e+00 1.8356078141e+00 3.1793659968e+00 
59700 7.1475860387e+00 -1.3950145768e-04 1.8356118478e+00 -3.1793729834e+00 1.8356118478e+00 3.1793729834e+00 
59800 7.1475860612e+00 -1.3092238098e-04 1.8356156477e+00 -3.1793795650e+00 1.8356156477e+00 3.1793795650e+00 
59900 7.1475860836e+00 -1.2236254491e-04 1.8356192139e+00 -3.1793857418e+00 1.8356192139e+00 3.1793857418e+00 
60000 7.1475861058e+00 -1.1383501700e-04 1.8356225469e+00 -3.1793915147e+00 1.8356225469e+00 3.1793915147e+00 
60100 7.1475861278e+00 -1.0535253958e-04 1.8356256476e+00 -3.1793968853e+00 1.8356256476e+00 3.1793968853e+00 
60200 7.1475861496e+00 -9.6927515407e-05 1.8356285173e+00 -3.1794018557e+00 1.8356285173e+00 3.1794018557e+00 
60300 7.1475861710e+00 -8.8571994095e-05 1.8356311574e+00 -3.1794064286e+00 1.8356311574e+00 3.1794064286e+00 
60400 7.1475861921e+00 -8.0297659447e-05 1.8356335700e+00 -3.1794106073e+00 1.8356335700e+00 3.1794106073e+00 
60500 7.1475862128e+00 -7.2115817677e-05 1.8356357572e+00 -3.1794143956e+00 1.8356357572e+00 3.1794143956e+00 
60600 7.1475862331e+00 -6.4037386484e-05 1.8356377215e+00 -3.1794177980e+00 1.8356377215e+00 3.1794177980e+00 
60700 7.1475862531e+00 -5.8000984259e-05 1.8356377215e+00 -3.1794177980e+00 1.8356377215e+00 3.1794177980e+00 
60800 7.1475862725e+00 -5.1858874054e-05 1.8356377215e+00 -3.1794177980e+00 1.8356377215e+00 3.1794177980e+00 
60900 7.1475862915e+00 -4.5623795561e-05 1.8356377215e+00 -3.1794177980e+00 1.8356377215e+00 3.1794177980e+00 
61000 7.1475863098e+00 -3.9308287164e-05 1.8356377215e+00 -3.1794177980e+00 1.8356377215e+00 3.1794177980e+00 
61100 7.1475863276e+00 -3.2924671214e-05 1.8356377215e+00 -3.1794177980e+00 1.8356377215e+00 3.1794177980e+00 
61200 7.1475863449e+00 -2.6485040033e-05 1.8356377215e+00 -3.1794177980e+00 1.8356377215e+00 3.1794177980e+00 
61300 7.1475863615e+00 -2.0001242705e-05 1.8356377215e+00 -3.1794177980e+00 1.8356377215e+00 3.1794177980e+00 
61400 7.1475863776e+00 -1.3484872603e-05 1.8356377215e+00 -3.1794177980e+00 1.8356377215e+00 3.1794177980e+00 
61500 7.1475863931e+00 -6.9472556783e-06 1.8356377215e+00 -3.1794177980e+00 1.8356377215e+00 3.1794177980e+00 
61600 7.1475864080e+00 -3.9943947565e-07 1.8356377215e+00 -3.1794177980e+00 1.8356377215e+00 3.1794177980e+00 
61700 7.1475864224e+00 6.1478170470e-06 1.8356377215e+00 -3.1794177980e+00 1.8356377215e+00 3.1794177980e+00 
61800 7.1475864362e+00 1.2684053018e-05 1.8356377215e+00 -3.1794177980e+00 1.8356377215e+00 3.1794177980e+00 
61900 7.1475864495e+00 1.9199114358e-05 1.8356377215e+00 -3.1794177980e+00 1.8356377215e+00 3.1794177980e+00 
62000 7.1475864622e+00 2.5683161805e-05 1.8356377215e+00 -3.1794177980e+00 1.8356377215e+00 3.1794177980e+00 
62100 7.1475864744e+00 3.2126678145e-05 1.8356377215e+00 -3.1794177980e+00 1.8356377215e+00 3.1794177980e+00 
62200 7.1475864861e+00 3.8520474792e-05 1.8356377215e+00 -3.1794177980e+00 1.8356377215e+00 3.1794177980e+00 
62300 7.1475864973e+00 4.4855697620e-05 1.8356377215e+00 -3.1794177980e+00 1.8356377215e+00 3.1794177980e+00 
62400 7.1475865080e+00 5.1123832095e-05 1.8356377215e+00 -3.1794177980e+00 1.8356377215e+00 3.1794177980e+00 
62500 7.1475865183e+00 5.7316707742e-05 1.8356377215e+00 -3.1794177980e+00 1.8356377215e+00 3.1794177980e+00 
62600 7.1475865282e+00 6.3426501907e-05 1.8356377215e+00 -3.1794177980e+00 1.8356377215e+00 3.1794177980e+00 
62700 7.1475865377e+00 6.9445742875e-05 1.8356377215e+00 -3.1794177980e+00 1.8356377215e+00 3.1794177980e+00 
62800 7.1475865467e+00 7.5367312332e-05 1.8356377215e+00 -3.1794177980e+00 1.8356377215e+00 3.1794177980e+00 
62900 7.1475865553e+00 7.8915023970e-05 1.8356356686e+00 -3.1794142423e+00 1.8356356686e+00 3.1794142423e+00 
63000 7.1475865634e+00 8.2233222472e-05 1.8356335191e+00 -3.1794105192e+00 1.8356335191e+00 3.1794105192e+00 
63100 7.1475865712e+00 8.5321553081e-05 1.8356312792e+00 -3.1794066395e+00 1.8356312792e+00 3.1794066395e+00 
63200 7.1475865787e+00 8.8180056857e-05 1.8356289552e+00 -3.1794026142e+00 1.8356289552e+00 3.1794026142e+00 
63300 7.1475865858e+00 9.0809161925e-05 1.8356265532e+00 -3.1793984539e+00 1.8356265532e+00 3.1793984539e+00 
63400 7.1475865927e+00 9.3209674255e-05 1.8356240797e+00 -3.1793941697e+00 1.8356240797e+00 3.1793941697e+00 
63500 7.1475865993e+00 9.5382768006e-05 1.8356215408e+00 -3.1793897722e+00 1.8356215408e+00 3.1793897722e+00 
63600 7.1475866057e+00 9.7329975505e-05 1.8356189427e+00 -3.1793852721e+00 1.8356189427e+00 3.1793852721e+00 
63700 7.1475866119e+00 9.9053176793e-05 1.8356162916e+00 -3.1793806802e+00 1.8356162916e+00 3.1793806802e+00 
63800 7.1475866180e+00 1.0055458886e-04 1.8356135935e+00 -3.1793760070e+00 1.8356135935e+00 3.1793760070e+00 
63900 7.1475866238e+00 1.0183675453e-04 1.8356108545e+00 -3.1793712629e+00 1.8356108545e+00 3.1793712629e+00 
64000 7.1475866296e+00 1.0290253107e-04 1.8356080806e+00 -3.1793664583e+00 1.8356080806e+00 3.1793664583e+00 
64100 7.1475866352e+00 1.0375507846e-04 1.8356052776e+00 -3.1793616035e+00 1.8356052776e+00 3.1793616035e+00 
64200 7.1475866407e+00 1.0439784753e-04 1.8356024514e+00 -3.1793567084e+00 1.8356024514e+00 3.1793567084e+00 
64300 7.1475866462e+00 1.0483456772e-04 1.8355996077e+00 -3.1793517830e+00 1.8355996077e+00 3.1793517830e+00 
64400 7.1475866516e+00 1.0506923478e-04 1.8355967521e+00 -3.1793468369e+00 1.8355967521e+00 3.1793468369e+00 
64500 7.1475866569e+00 1.0510609817e-04 1.8355938902e+00 -3.1793418798e+00 1.8355938902e+00 3.1793418798e+00 
64600 7.1475866623e+00 1.0494964841e-04 1.8355910272e+00 -3.1793369210e+00 1.8355910272e+00 3.1793369210e+00 
64700 7.1475866677e+00 1.0460460426e-04 1.8355881684e+00 -3.1793319695e+00 1.8355881684e+00 3.1793319695e+00 
64800 7.1475866730e+00 1.0407589977e-04 1.8355853191e+00 -3.1793270343e+00 1.8355853191e+00 3.1793270343e+00 
64900 7.1475866784e+00 1.0336867132e-04 1.8355824841e+00 -3.1793221240e+00 1.8355824841e+00 3.1793221240e+00 
65000 7.1475866839e+00 1.0248824451e-04 1.8355796684e+00 -3.1793172471e+00 1.8355796684e+00 3.1793172471e+00 
65100 7.1475866893e+00 1.0144012112e-04 1.8355768767e+00 -3.1793124117e+00 1.8355768767e+00 3.1793124117e+00 
65200 7.1475866949e+00 1.0022996599e-04 1.8355741135e+00 -3.1793076257e+00 1.8355741135e+00 3.1793076257e+00 
65300 7.1475867005e+00 9.8863593898e-05 1.8355713833e+00 -3.1793028969e+00 1.8355713833e+00 3.1793028969e+00 
65400 7.1475867062e+00 9.7346956573e-05 1.8355686903e+00 -3.1792982325e+00 1.8355686903e+00 3.1792982325e+00 
65500 7.1475867119e+00 9.5686129624e-05 1.8355660387e+00 -3.1792936396e+00 1.8355660387e+00 3.1792936396e+00 
65600 7.1475867177e+00 9.3887299657e-05 1.8355634322e+00 -3.1792891251e+00 1.8355634322e+00 3.1792891251e+00 
65700 7.1475867236e+00 9.1956751419e-05 1.8355608748e+00 -3.1792846955e+00 1.8355608748e+00 3.1792846955e+00 
65800 7.1475867296e+00 8.9900855080e-05 1.8355583699e+00 -3.1792803569e+00 1.8355583699e+00 3.1792803569e+00 
65900 7.1475867357e+00 8.7726053658e-05 1.8355559210e+00 -3.1792761154e+00 1.8355559210e+00 3.1792761154e+00 
66000 7.1475867418e+00 8.5438850572e-05 1.8355535314e+00 -3.1792719764e+00 1.8355535314e+00 3.1792719764e+00 
66100 7.1475867480e+00 8.3045797374e-05 1.8355512041e+00 -3.1792679453e+00 1.8355512041e+00 3.1792679453e+00 
66200 7.1475867543e+00 8.0553481671e-05 1.8355489419e+00 -3.1792640272e+00 1.8355489419e+00 3.1792640272e+00 
66300 7.1475867607e+00 7.7968515242e-05 1.8355467477e+00 -3.1792602266e+00 1.8355467477e+00 3.1792602266e+00 
66400 7.1475867671e+00 7.5297522362e-05 1.8355446238e+00 -3.1792565480e+00 1.8355446238e+00 3.1792565480e+00 
66500 7.1475867736e+00 7.2547128382e-05 1.8355425727e+00 -3.1792529954e+00 1.8355425727e+00 3.1792529954e+00 
66600 7.1475867801e+00 6.9723948528e-05 1.8355405965e+00 -3.1792495726e+00 1.8355405965e+00 3.1792495726e+00 
66700 7.1475867868e+00 6.8934483724e-05 1.8355405965e+00 -3.1792495726e+00 1.8355405965e+00 3.1792495726e+00 
66800 7.1475867935e+00 6.8009304667e-05 1.8355405965e+00 -3.1792495726e+00 1.8355405965e+00 3.1792495726e+00 
66900 7.1475868002e+00 6.6953290593e-05 1.8355405965e+00 -3.1792495726e+00 1.8355405965e+00 3.1792495726e+00 
67000 7.1475868070e+00 6.5771409303e-05 1.8355405965e+00 -3.1792495726e+00 1.8355405965e+00 3.1792495726e+00 
67100 7.1475868137e+00 6.4468706653e-05 1.8355405965e+00 -3.1792495726e+00 1.8355405965e+00 3.1792495726e+00 
67200 7.1475868204e+00 6.3050296187e-05 1.8355405965e+00 -3.1792495726e+00 1.8355405965e+00 3.1792495726e+00 
67300 7.1475868271e+00 6.1521348971e-05 1.8355405965e+00 -3.1792495726e+00 1.8355405965e+00 3.1792495726e+00 
67400 7.1475868337e+00 5.9887083580e-05 1.8355405965e+00 -3.1792495726e+00 1.8355405965e+00 3.1792495726e+00 
67500 7.1475868404e+00 5.8152756298e-05 1.8355405965e+00 -3.1792495726e+00 1.8355405965e+00 3.1792495726e+00 
67600 7.1475868469e+00 5.6323651527e-05 1.8355405965e+00 -3.1792495726e+00 1.8355405965e+00 3.1792495726e+00 
67700 7.1475868534e+00 5.4405072383e-05 1.8355405965e+00 -3.1792495726e+00 1.8355405965e+00 3.1792495726e+00 
67800 7.1475868598e+00 5.2402331551e-05 1.8355405965e+00 -3.1792495726e+00 1.8355405965e+00 3.1792495726e+00 
67900 7.1475868662e+00 5.0320742351e-05 1.8355405965e+00 -3.1792495726e+00 1.8355405965e+00 3.1792495726e+00 
68000 7.1475868724e+00 4.8165610050e-05 1.8355405965e+00 -3.1792495726e+00 1.8355405965e+00 3.1792495726e+00 
68100 7.1475868786e+00 4.5942223425e-05 1.8355405965e+00 -3.1792495726e+00 1.8355405965e+00 3.1792495726e+00 
68200 7.1475868847e+00 4.3655846582e-05 1.8355405965e+00 -3.1792495726e+00 1.8355405965e+00 3.1792495726e+00 
68300 7.1475868907e+00 4.1311711025e-05 1.8355405965e+00 -3.1792495726e+00 1.8355405965e+00 3.1792495726e+00 
68400 7.1475868966e+00 3.8915008011e-05 1.8355405965e+00 -3.1792495726e+00 1.8355405965e+00 3.1792495726e+00 
68500 7.1475869024e+00 3.6470881159e-05 1.8355405965e+00 -3.1792495726e+00 1.8355405965e+00 3.1792495726e+00 
68600 7.1475869080e+00 3.3984419349e-05 1.8355405965e+00 -3.1792495726e+00 1.8355405965e+00 3.1792495726e+00 
68700 7.1475869136e+00 3.1460649896e-05 1.8355405965e+00 -3.1792495726e+00 1.8355405965e+00 3.1792495726e+00 
68800 7.1475869190e+00 2.8904532003e-05 1.8355405965e+00 -3.1792495726e+00 1.8355405965e+00 3.1792495726e+00 
68900 7.1475869243e+00 2.6320950518e-05 1.8355405965e+00 -3.1792495726e+00 1.8355405965e+00 3.1792495726e+00 
69000 7.1475869295e+00 2.3714709958e-05 1.8355405965e+00 -3.1792495726e+00 1.8355405965e+00 3.1792495726e+00 
69100 7.1475869346e+00 2.1090528841e-05 1.8355405965e+00 -3.1792495726e+00 1.8355405965e+00 3.1792495726e+00 
69200 7.1475869395e+00 1.8453034307e-05 1.8355405965e+00 -3.1792495726e+00 1.8355405965e+00 3.1792495726e+00 
69300 7.1475869444e+00 1.5806757028e-05 1.8355405965e+00 -3.1792495726e+00 1.8355405965e+00 3.1792495726e+00 
69400 7.1475869491e+00 1.3156126405e-05 1.8355405965e+00 -3.1792495726e+00 1.8355405965e+00 3.1792495726e+00 
69500 7.1475869537e+00 1.0505466088e-05 1.8355405965e+00 -3.1792495726e+00 1.8355405965e+00 3.1792495726e+00 
69600 7.1475869581e+00 7.8589897528e-06 1.8355405965e+00 -3.1792495726e+00 1.8355405965e+00 3.1792495726e+00 
69700 7.1475869625e+00 5.2207971779e-06 1.8355405965e+00 -3.1792495726e+00 1.8355405965e+00 3.1792495726e+00 
69800 7.1475869667e+00 2.5948706452e-06 1.8355405965e+00 -3.1792495726e+00 1.8355405965e+00 3.1792495726e+00 
69900 7.1475869708e+00 -1.4928430766e-08 1.8355405965e+00 -3.1792495726e+00 1.8355405965e+00 3.1792495726e+00 
70000 7.1475869748e+00 -2.6048625351e-06 1.8355405965e+00 -3.1792495726e+00 1.8355405965e+00 3.1792495726e+00 
70100 7.1475869787e+00 -5.1713208221e-06 1.8355405965e+00 -3.1792495726e+00 1.8355405965e+00 3.1792495726e+00 
70200 7.1475869824e+00 -7.7108216182e-06 1.8355405965e+00 -3.1792495726e+00 1.8355405965e+00 3.1792495726e+00 
70300 7.1475869861e+00 -1.0220014614e-05 1.8355405965e+00 -3.1792495726e+00 1.8355405965e+00 3.1792495726e+00 
70400 7.1475869897e+00 -1.2695682828e-05 1.8355405965e+00 -3.1792495726e+00 1.8355405965e+00 3.1792495726e+00 
70500 7.1475869931e+00 -1.5134744266e-05 1.8355405965e+00 -3.1792495726e+00 1.8355405965e+00 3.1792495726e+00 
70600 7.1475869965e+00 -1.7534253334e-05 1.8355405965e+00 -3.1792495726e+00 1.8355405965e+00 3.1792495726e+00 
70700 7.1475869998e+00 -1.9891401990e-05 1.8355405965e+00 -3.1792495726e+00 1.8355405965e+00 3.1792495726e+00 
70800 7.1475870030e+00 -2.2203520635e-05 1.8355405965e+00 -3.1792495726e+00 1.8355405965e+00 3.1792495726e+00 
70900 7.1475870061e+00 -2.4468078770e-05 1.8355405965e+00 -3.1792495726e+00 1.8355405965e+00 3.1792495726e+00 
71000 7.1475870092e+00 -2.6682685391e-05 1.8355405965e+00 -3.1792495726e+00 1.8355405965e+00 3.1792495726e+00 
71100 7.1475870121e+00 -2.8845089166e-05 1.8355405965e+00 -3.1792495726e+00 1.8355405965e+00 3.1792495726e+00 
71200 7.1475870150e+00 -3.0953178371e-05 1.8355405965e+00 -3.1792495726e+00 1.8355405965e+00 3.1792495726e+00 
71300 7.1475870178e+00 -3.3004980602e-05 1.8355405965e+00 -3.1792495726e+00 1.8355405965e+00 3.1792495726e+00 
71400 7.1475870206e+00 -3.4998662278e-05 1.8355405965e+00 -3.1792495726e+00 1.8355405965e+00 3.1792495726e+00 
71500 7.1475870233e+00 -3.6932527920e-05 1.8355405965e+00 -3.1792495726e+00 1.8355405965e+00 3.1792495726e+00 
71600 7.1475870260e+00 -3.8805019225e-05 1.8355405965e+00 -3.1792495726e+00 1.8355405965e+00 3.1792495726e+00 
71700 7.1475870286e+00 -4.0614713968e-05 1.8355405965e+00 -3.1792495726e+00 1.8355405965e+00 3.1792495726e+00 
71800 7.1475870311e+00 -4.2360324673e-05 1.8355405965e+00 -3.1792495726e+00 1.8355405965e+00 3.1792495726e+00 
71900 7.1475870336e+00 -4.4040697144e-05 1.8355405965e+00 -3.1792495726e+00 1.8355405965e+00 3.1792495726e+00 
72000 7.1475870361e+00 -4.5654808784e-05 1.8355405965e+00 -3.1792495726e+00 1.8355405965e+00 3.1792495726e+00 
72100 7.1475870385e+00 -4.7201766774e-05 1.8355405965e+00 -3.1792495726e+00 1.8355405965e+00 3.1792495726e+00 
72200 7.1475870409e+00 -4.8680806068e-05 1.8355405965e+00 -3.1792495726e+00 1.8355405965e+00 3.1792495726e+00 
72300 7.1475870433e+00 -5.0091287252e-05 1.8355405965e+00 -3.1792495726e+00 1.8355405965e+00 3.1792495726e+00 
72400 7.1475870456e+00 -5.1432694251e-05 1.8355405965e+00 -3.1792495726e+00 1.8355405965e+00 3.1792495726e+00 
72500 7.1475870479e+00 -5.2704631894e-05 1.8355405965e+00 -3.1792495726e+00 1.8355405965e+00 3.1792495726e+00 
72600 7.1475870502e+00 -5.3906823366e-05 1.8355405965e+00 -3.1792495726e+00 1.8355405965e+00 3.1792495726e+00 
72700 7.1475870524e+00 -5.5039107506e-05 1.8355405965e+00 -3.1792495726e+00 1.8355405965e+00 3.1792495726e+00 
72800 7.1475870547e+00 -5.6101436029e-05 1.8355405965e+00 -3.1792495726e+00 1.8355405965e+00 3.1792495726e+00 
72900 7.1475870569e+00 -5.7093870600e-05 1.8355405965e+00 -3.1792495726e+00 1.8355405965e+00 3.1792495726e+00 
73000 7.1475870591e+00 -5.8016579850e-05 1.8355405965e+00 -3.1792495726e+00 1.8355405965e+00 3.1792495726e+00 
73100 7.1475870613e+00 -5.8869836257e-05 1.8355405965e+00 -3.1792495726e+00 1.8355405965e+00 3.1792495726e+00 
73200 7.1475870634e+00 -5.9654012984e-05 1.8355405965e+00 -3.1792495726e+00 1.8355405965e+00 3.1792495726e+00 
73300 7.1475870656e+00 -6.0369580612e-05 1.8355405965e+00 -3.1792495726e+00 1.8355405965e+00 3.1792495726e+00 
73400 7.1475870677e+00 -6.1017103805e-05 1.8355405965e+00 -3.1792495726e+00 1.8355405965e+00 3.1792495726e+00 
73500 7.1475870698e+00 -6.1597237926e-05 1.8355405965e+00 -3.1792495726e+00 1.8355405965e+00 3.1792495726e+00 
73600 7.1475870719e+00 -6.2110725590e-05 1.8355405965e+00 -3.1792495726e+00 1.8355405965e+00 3.1792495726e+00 
73700 7.1475870740e+00 -6.2558393163e-05 1.8355405965e+00 -3.1792495726e+00 1.8355405965e+00 3.1792495726e+00 
73800 7.1475870761e+00 -6.2941147238e-05 1.8355405965e+00 -3.1792495726e+00 1.8355405965e+00 3.1792495726e+00 
73900 7.1475870782e+00 -6.3259971047e-05 1.8355405965e+00 -3.1792495726e+00 1.8355405965e+00 3.1792495726e+00 
74000 7.1475870803e+00 -6.3515920873e-05 1.8355405965e+00 -3.1792495726e+00 1.8355405965e+00 3.1792495726e+00 
74100 7.1475870823e+00 -6.3710122431e-05 1.8355405965e+00 -3.1792495726e+00 1.8355405965e+00 3.1792495726e+00 
74200 7.1475870844e+00 -6.3843767224e-05 1.8355405965e+00 -3.1792495726e+00 1.8355405965e+00 3.1792495726e+00 
74300 7.1475870864e+00 -6.3918108909e-05 1.8355405965e+00 -3.1792495726e+00 1.8355405965e+00 3.1792495726e+00 
74400 7.1475870884e+00 -6.3934459641e-05 1.8355405965e+00 -3.1792495726e+00 1.8355405965e+00 3.1792495726e+00 
74500 7.1475870904e+00 -6.3894186445e-05 1.8355405965e+00 -3.1792495726e+00 1.8355405965e+00 3.1792495726e+00 
74600 7.1475870924e+00 -6.3798707561e-05 1.8355405965e+00 -3.1792495726e+00 1.8355405965e+00 3.1792495726e+00 
74700 7.1475870944e+00 -6.3649488854e-05 1.8355405965e+00 -3.1792495726e+00 1.8355405965e+00 3.1792495726e+00 
74800 7.1475870963e+00 -6.3448040191e-05 1.8355405965e+00 -3.1792495726e+00 1.8355405965e+00 3.1792495726e+00 
74900 7.1475870983e+00 -6.3195911881e-05 1.8355405965e+00 -3.1792495726e+00 1.8355405965e+00 3.1792495726e+00 
75000 7.1475871002e+00 -6.2894691132e-05 1.8355405965e+00 -3.1792495726e+00 1.8355405965e+00 3.1792495726e+00 
75100 7.1475871021e+00 -6.2545998546e-05 1.8355405965e+00 -3.1792495726e+00 1.8355405965e+00 3.1792495726e+00 
75200 7.1475871040e+00 -6.2151484657e-05 1.8355405965e+00 -3.1792495726e+00 1.8355405965e+00 3.1792495726e+00 
75300 7.1475871059e+00 -6.1712826499e-05 1.8355405965e+00 -3.1792495726e+00 1.8355405965e+00 3.1792495726e+00 
75400 7.1475871077e+00 -6.1231724245e-05 1.8355405965e+00 -3.1792495726e+00 1.8355405965e+00 3.1792495726e+00 
75500 7.1475871096e+00 -6.0709897888e-05 1.8355405965e+00 -3.1792495726e+00 1.8355405965e+00 3.1792495726e+00 
75600 7.1475871114e+00 -6.0149083974e-05 1.8355405965e+00 -3.1792495726e+00 1.8355405965e+00 3.1792495726e+00 
75700 7.1475871132e+00 -5.9551032417e-05 1.8355405965e+00 -3.1792495726e+00 1.8355405965e+00 3.1792495726e+00 
75800 7.1475871149e+00 -5.8917503343e-05 1.8355405965e+00 -3.1792495726e+00 1.8355405965e+00 3.1792495726e+00 
75900 7.1475871167e+00 -5.8250264041e-05 1.8355405965e+00 -3.1792495726e+00 1.8355405965e+00 3.1792495726e+00 
76000 7.1475871184e+00 -5.7551085957e-05 1.8355405965e+00 -3.1792495726e+00 1.8355405965e+00 3.1792495726e+00 
76100 7.1475871201e+00 -5.6821741775e-05 1.8355405965e+00 -3.1792495726e+00 1.8355405965e+00 3.1792495726e+00 
76200 7.1475871218e+00 -5.6064002568e-05 1.8355405965e+00 -3.1792495726e+00 1.8355405965e+00 3.1792495726e+00 
76300 7.1475871235e+00 -5.5279635040e-05 1.8355405965e+00 -3.1792495726e+00 1.8355405965e+00 3.1792495726e+00 
76400 7.1475871251e+00 -5.4470398826e-05 1.8355405965e+00 -3.1792495726e+00 1.8355405965e+00 3.1792495726e+00 
76500 7.1475871267e+00 -5.3638043905e-05 1.8355405965e+00 -3.1792495726e+00 1.8355405965e+00 3.1792495726e+00 
76600 7.1475871283e+00 -5.2784308082e-05 1.8355405965e+00 -3.1792495726e+00 1.8355405965e+00 3.1792495726e+00 
76700 7.1475871299e+00 -5.1910914547e-05 1.8355405965e+00 -3.1792495726e+00 1.8355405965e+00 3.1792495726e+00 
76800 7.1475871314e+00 -5.1019569550e-05 1.8355405965e+00 -3.1792495726e+00 1.8355405965e+00 3.1792495726e+00 
76900 7.1475871329e+00 -5.0111960144e-05 1.8355405965e+00 -3.1792495726e+00 1.8355405965e+00 3.1792495726e+00 
77000 7.1475871344e+00 -4.9189752032e-05 1.8355405965e+00 -3.1792495726e+00 1.8355405965e+00 3.1792495726e+00 
77100 7.1475871359e+00 -4.8254587499e-05 1.8355405965e+00 -3.1792495726e+00 1.8355405965e+00 3.1792495726e+00 
77200 7.1475871373e+00 -4.7308083437e-05 1.8355405965e+00 -3.1792495726e+00 1.8355405965e+00 3.1792495726e+00 
77300 7.1475871387e+00 -4.6351829470e-05 1.8355405965e+00 -3.1792495726e+00 1.8355405965e+00 3.1792495726e+00 
77400 7.1475871401e+00 -4.5387386174e-05 1.8355405965e+00 -3.1792495726e+00 1.8355405965e+00 3.1792495726e+00 
77500 7.1475871415e+00 -4.4416283383e-05 1.8355405965e+00 -3.1792495726e+00 1.8355405965e+00 3.1792495726e+00 
77600 7.1475871428e+00 -4.3440018598e-05 1.8355405965e+00 -3.1792495726e+00 1.8355405965e+00 3.1792495726e+00 
77700 7.1475871441e+00 -4.2460055493e-05 1.8355405965e+00 -3.1792495726e+00 1.8355405965e+00 3.1792495726e+00 
77800 7.1475871454e+00 -4.1477822497e-05 1.8355405965e+00 -3.1792495726e+00 1.8355405965e+00 3.1792495726e+00 
77900 7.1475871466e+00 -4.0494711500e-05 1.8355405965e+00 -3.1792495726e+00 1.8355405965e+00 3.1792495726e+00 
78000 7.1475871479e+00 -3.9512076632e-05 1.8355405965e+00 -3.1792495726e+00 1.8355405965e+00 3.1792495726e+00 
78100 7.1475871491e+00 -3.8531233146e-05 1.8355405965e+00 -3.1792495726e+00 1.8355405965e+00 3.1792495726e+00 
78200 7.1475871503e+00 -3.7553456380e-05 1.8355405965e+00 -3.1792495726e+00 1.8355405965e+00 3.1792495726e+00 
78300 7.1475871514e+00 -3.6579980827e-05 1.8355405965e+00 -3.1792495726e+00 1.8355405965e+00 3.1792495726e+00 
78400 7.1475871526e+00 -3.5611999292e-05 1.8355405965e+00 -3.1792495726e+00 1.8355405965e+00 3.1792495726e+00 
78500 7.1475871537e+00 -3.4650662128e-05 1.8355405965e+00 -3.1792495726e+00 1.8355405965e+00 3.1792495726e+00 
78600 7.1475871548e+00 -3.3697076577e-05 1.8355405965e+00 -3.1792495726e+00 1.8355405965e+00 3.1792495726e+00 
78700 7.1475871559e+00 -3.2752306189e-05 1.8355405965e+00 -3.1792495726e+00 1.8355405965e+00 3.1792495726e+00 
78800 7.1475871569e+00 -3.1817370328e-05 1.8355405965e+00 -3.1792495726e+00 1.8355405965e+00 3.1792495726e+00 
78900 7.1475871580e+00 -3.0893243753e-05 1.8355405965e+00 -3.1792495726e+00 1.8355405965e+00 3.1792495726e+00 
79000 7.1475871590e+00 -2.9980856312e-05 1.8355405965e+00 -3.1792495726e+00 1.8355405965e+00 3.1792495726e+00 
79100 7.1475871600e+00 -2.9081092682e-05 1.8355405965e+00 -3.1792495726e+00 1.8355405965e+00 3.1792495726e+00 
79200 7.1475871610e+00 -2.8194792204e-05 1.8355405965e+00 -3.1792495726e+00 1.8355405965e+00 3.1792495726e+00 
79300 7.1475871619e+00 -2.7322748803e-05 1.8355405965e+00 -3.1792495726e+00 1.8355405965e+00 3.1792495726e+00 
79400 7.1475871629e+00 -2.6465710963e-05 1.8355405965e+00 -3.1792495726e+00 1.8355405965e+00 3.1792495726e+00 
79500 7.1475871638e+00 -2.5624381800e-05 1.8355405965e+00 -3.1792495726e+00 1.8355405965e+00 3.1792495726e+00 
79600 7.1475871647e+00 -2.4799419184e-05 1.8355405965e+00 -3.1792495726e+00 1.8355405965e+00 3.1792495726e+00 
79700 7.1475871656e+00 -2.3991435946e-05 1.8355405965e+00 -3.1792495726e+00 1.8355405965e+00 3.1792495726e+00 
79800 7.1475871665e+00 -2.3201000147e-05 1.8355405965e+00 -3.1792495726e+00 1.8355405965e+00 3.1792495726e+00 
79900 7.1475871674e+00 -2.2428635403e-05 1.8355405965e+00 -3.1792495726e+00 1.8355405965e+00 3.1792495726e+00 
80000 7.1475871682e+00 -2.1674821286e-05 1.8355405965e+00 -3.1792495726e+00 1.8355405965e+00 3.1792495726e+00 
80100 7.1475871691e+00 -2.0939993786e-05 1.8355405965e+00 -3.1792495726e+00 1.8355405965e+00 3.1792495726e+00 
80200 7.1475871699e+00 -2.0224545809e-05 1.8355405965e+00 -3.1792495726e+00 1.8355405965e+00 3.1792495726e+00 
80300 7.1475871707e+00 -1.9528827759e-05 1.8355405965e+00 -3.1792495726e+00 1.8355405965e+00 3.1792495726e+00 
80400 7.1475871715e+00 -1.8853148157e-05 1.8355405965e+00 -3.1792495726e+00 1.8355405965e+00 3.1792495726e+00 
80500 7.1475871723e+00 -1.8197774301e-05 1.8355405965e+00 -3.1792495726e+00 1.8355405965e+00 3.1792495726e+00 
80600 7.1475871731e+00 -1.7562933011e-05 1.8355405965e+00 -3.1792495726e+00 1.8355405965e+00 3.1792495726e+00 
80700 7.1475871739e+00 -1.6948811368e-05 1.8355405965e+00 -3.1792495726e+00 1.8355405965e+00 3.1792495726e+00 
80800 7.1475871747e+00 -1.6355557546e-05 1.8355405965e+00 -3.1792495726e+00 1.8355405965e+00 3.1792495726e+00 
80900 7.1475871754e+00 -1.5783281639e-05 1.8355405965e+00 -3.1792495726e+00 1.8355405965e+00 3.1792495726e+00 
81000 7.1475871762e+00 -1.5232056570e-05 1.8355405965e+00 -3.1792495726e+00 1.8355405965e+00 3.1792495726e+00 
81100 7.1475871769e+00 -1.4701919002e-05 1.8355405965e+00 -3.1792495726e+00 1.8355405965e+00 3.1792495726e+00 
81200 7.1475871776e+00 -1.4192870299e-05 1.8355405965e+00 -3.1792495726e+00 1.8355405965e+00 3.1792495726e+00 
81300 7.1475871783e+00 -1.3704877514e-05 1.8355405965e+00 -3.1792495726e+00 1.8355405965e+00 3.1792495726e+00 
81400 7.1475871790e+00 -1.3237874403e-05 1.8355405965e+00 -3.1792495726e+00 1.8355405965e+00 3.1792495726e+00 
81500 7.1475871797e+00 -1.2791762467e-05 1.8355405965e+00 -3.1792495726e+00 1.8355405965e+00 3.1792495726e+00 
81600 7.1475871804e+00 -1.2366412018e-05 1.8355405965e+00 -3.1792495726e+00 1.8355405965e+00 3.1792495726e+00 
81700 7.1475871811e+00 -1.1961663269e-05 1.8355405965e+00 -3.1792495726e+00 1.8355405965e+00 3.1792495726e+00 
81800 7.1475871818e+00 -1.1577327428e-05 1.8355405965e+00 -3.1792495726e+00 1.8355405965e+00 3.1792495726e+00 
81900 7.1475871825e+00 -1.1213187840e-05 1.8355405965e+00 -3.1792495726e+00 1.8355405965e+00 3.1792495726e+00 
82000 7.1475871831e+00 -1.0869001106e-05 1.8355405965e+00 -3.1792495726e+00 1.8355405965e+00 3.1792495726e+00 
82100 7.1475871838e+00 -1.0544498233e-05 1.8355405965e+00 -3.1792495726e+00 1.8355405965e+00 3.1792495726e+00 
82200 7.1475871844e+00 -1.0239385807e-05 1.8355405965e+00 -3.1792495726e+00 1.8355405965e+00 3.1792495726e+00 
82300 7.1475871851e+00 -9.9533471355e-06 1.8355405965e+00 -3.1792495726e+00 1.8355405965e+00 3.1792495726e+00 
82400 7.1475871857e+00 -9.6860434439e-06 1.8355405965e+00 -3.1792495726e+00 1.8355405965e+00 3.1792495726e+00 
82500 7.1475871863e+00 -9.4371150274e-06 1.8355405965e+00 -3.1792495726e+00 1.8355405965e+00 3.1792495726e+00 
82600 7.1475871869e+00 -9.2061824507e-06 1.8355405965e+00 -3.1792495726e+00 1.8355405965e+00 3.1792495726e+00 
82700 7.1475871875e+00 -8.9928477104e-06 1.8355405965e+00 -3.1792495726e+00 1.8355405965e+00 3.1792495726e+00 
82800 7.1475871881e+00 -8.7966954082e-06 1.8355405965e+00 -3.1792495726e+00 1.8355405965e+00 3.1792495726e+00 
82900 7.1475871887e+00 -8.6172939278e-06 1.8355405965e+00 -3.1792495726e+00 1.8355405965e+00 3.1792495726e+00 
83000 7.1475871893e+00 -8.4541965965e-06 1.8355405965e+00 -3.1792495726e+00 1.8355405965e+00 3.1792495726e+00 
83100 7.1475871899e+00 -8.3069428456e-06 1.8355405965e+00 -3.1792495726e+00 1.8355405965e+00 3.1792495726e+00 
83200 7.1475871905e+00 -8.1750593417e-06 1.8355405965e+00 -3.1792495726e+00 1.8355405965e+00 3.1792495726e+00 
83300 7.1475871910e+00 -8.0580611486e-06 1.8355405965e+00 -3.1792495726e+00 1.8355405965e+00 3.1792495726e+00 
83400 7.1475871916e+00 -7.9554528328e-06 1.8355405965e+00 -3.1792495726e+00 1.8355405965e+00 3.1792495726e+00 
83500 7.1475871922e+00 -7.8667295789e-06 1.8355405965e+00 -3.1792495726e+00 1.8355405965e+00 3.1792495726e+00 
83600 7.1475871927e+00 -7.7913782855e-06 1.8355405965e+00 -3.1792495726e+00 1.8355405965e+00 3.1792495726e+00 
83700 7.1475871932e+00 -7.7288786420e-06 1.8355405965e+00 -3.1792495726e+00 1.8355405965e+00 3.1792495726e+00 
83800 7.1475871938e+00 -7.6787041894e-06 1.8355405965e+00 -3.1792495726e+00 1.8355405965e+00 3.1792495726e+00 
83900 7.1475871943e+00 -7.6403233622e-06 1.8355405965e+00 -3.1792495726e+00 1.8355405965e+00 3.1792495726e+00 
84000 7.1475871948e+00 -7.6132005107e-06 1.8355405965e+00 -3.1792495726e+00 1.8355405965e+00 3.1792495726e+00 
84100 7.1475871953e+00 -7.5967968940e-06 1.8355405965e+00 -3.1792495726e+00 1.8355405965e+00 3.1792495726e+00 
84200 7.1475871958e+00 -7.5905716545e-06 1.8355405965e+00 -3.1792495726e+00 1.8355405965e+00 3.1792495726e+00 
84300 7.1475871963e+00 -7.5939827879e-06 1.8355405965e+00 -3.1792495726e+00 1.8355405965e+00 3.1792495726e+00 
84400 7.1475871968e+00 -7.6064880563e-06 1.8355405965e+00 -3.1792495726e+00 1.8355405965e+00 3.1792495726e+00 
84500 7.1475871973e+00 -7.6275458919e-06 1.8355405965e+00 -3.1792495726e+00 1.8355405965e+00 3.1792495726e+00 
84600 7.1475871978e+00 -7.6566162847e-06 1.8355405965e+00 -3.1792495726e+00 1.8355405965e+00 3.1792495726e+00 
84700 7.1475871983e+00 -7.6931616277e-06 1.8355405965e+00 -3.1792495726e+00 1.8355405965e+00 3.1792495726e+00 
84800 7.1475871987e+00 -7.7366475343e-06 1.8355405965e+00 -3.1792495726e+00 1.8355405965e+00 3.1792495726e+00 
84900 7.1475871992e+00 -7.7865436432e-06 1.8355405965e+00 -3.1792495726e+00 1.8355405965e+00 3.1792495726e+00 
85000 7.1475871996e+00 -7.8423243792e-06 1.8355405965e+00 -3.1792495726e+00 1.8355405965e+00 3.1792495726e+00 
85100 7.1475872001e+00 -7.9034697019e-06 1.8355405965e+00 -3.1792495726e+00 1.8355405965e+00 3.1792495726e+00 
85200 7.1475872005e+00 -7.9694657943e-06 1.8355405965e+00 -3.1792495726e+00 1.8355405965e+00 3.1792495726e+00 
85300 7.1475872009e+00 -8.0398057656e-06 1.8355405965e+00 -3.1792495726e+00 1.8355405965e+00 3.1792495726e+00 
85400 7.1475872014e+00 -8.1139902738e-06 1.8355405965e+00 -3.1792495726e+00 1.8355405965e+00 3.1792495726e+00 
85500 7.1475872018e+00 -8.1915281736e-06 1.8355405965e+00 -3.1792495726e+00 1.8355405965e+00 3.1792495726e+00 
85600 7.1475872022e+00 -8.2719370790e-06 1.8355405965e+00 -3.1792495726e+00 1.8355405965e+00 3.1792495726e+00 
85700 7.1475872026e+00 -8.3547439330e-06 1.8355405965e+00 -3.1792495726e+00 1.8355405965e+00 3.1792495726e+00 
85800 7.1475872030e+00 -8.4394855406e-06 1.8355405965e+00 -3.1792495726e+00 1.8355405965e+00 3.1792495726e+00 
85900 7.1475872034e+00 -8.5257090495e-06 1.8355405965e+00 -3.1792495726e+00 1.8355405965e+00 3.1792495726e+00 
86000 7.1475872038e+00 -8.6129724278e-06 1.8355405965e+00 -3.1792495726e+00 1.8355405965e+00 3.1792495726e+00 
86100 7.1475872041e+00 -8.7008448952e-06 1.8355405965e+00 -3.1792495726e+00 1.8355405965e+00 3.1792495726e+00 
86200 7.1475872045e+00 -8.7889073252e-06 1.8355405965e+00 -3.1792495726e+00 1.8355405965e+00 3.1792495726e+00 
86300 7.1475872049e+00 -8.8767526283e-06 1.8355405965e+00 -3.1792495726e+00 1.8355405965e+00 3.1792495726e+00 
86400 7.1475872052e+00 -8.9639860854e-06 1.8355405965e+00 -3.1792495726e+00 1.8355405965e+00 3.1792495726e+00 
86500 7.1475872056e+00 -9.0502256740e-06 1.8355405965e+00 -3.1792495726e+00 1.8355405965e+00 3.1792495726e+00 
86600 7.1475872060e+00 -9.1351023401e-06 1.8355405965e+00 -3.1792495726e+00 1.8355405965e+00 3.1792495726e+00 
86700 7.1475872063e+00 -9.2182602660e-06 1.8355405965e+00 -3.1792495726e+00 1.8355405965e+00 3.1792495726e+00 
86800 7.1475872066e+00 -9.2993570923e-06 1.8355405965e+00 -3.1792495726e+00 1.8355405965e+00 3.1792495726e+00 
86900 7.1475872070e+00 -9.3780641186e-06 1.8355405965e+00 -3.1792495726e+00 1.8355405965e+00 3.1792495726e+00 
87000 7.1475872073e+00 -9.4540664741e-06 1.8355405965e+00 -3.1792495726e+00 1.8355405965e+00 3.1792495726e+00 
87100 7.1475872076e+00 -9.5270632615e-06 1.8355405965e+00 -3.1792495726e+00 1.8355405965e+00 3.1792495726e+00 
87200 7.1475872079e+00 -9.5967676716e-06 1.8355405965e+00 -3.1792495726e+00 1.8355405965e+00 3.1792495726e+00 
87300 7.1475872083e+00 -9.6629070795e-06 1.8355405965e+00 -3.1792495726e+00 1.8355405965e+00 3.1792495726e+00 
87400 7.1475872086e+00 -9.7252230983e-06 1.8355405965e+00 -3.1792495726e+00 1.8355405965e+00 3.1792495726e+00 
87500 7.1475872089e+00 -9.7834716365e-06 1.8355405965e+00 -3.1792495726e+00 1.8355405965e+00 3.1792495726e+00 
87600 7.1475872092e+00 -9.8374228962e-06 1.8355405965e+00 -3.1792495726e+00 1.8355405965e+00 3.1792495726e+00 
87700 7.1475872095e+00 -9.8868613699e-06 1.8355405965e+00 -3.1792495726e+00 1.8355405965e+00 3.1792495726e+00 
87800 7.1475872097e+00 -9.9315858125e-06 1.8355405965e+00 -3.1792495726e+00 1.8355405965e+00 3.1792495726e+00 
87900 7.1475872100e+00 -9.9714091782e-06 1.8355405965e+00 -3.1792495726e+00 1.8355405965e+00 3.1792495726e+00 
88000 7.1475872103e+00 -1.0006158554e-05 1.8355405965e+00 -3.1792495726e+00 1.8355405965e+00 3.1792495726e+00 
88100 7.1475872106e+00 -1.0035675050e-05 1.8355405965e+00 -3.1792495726e+00 1.8355405965e+00 3.1792495726e+00 
88200 7.1475872109e+00 -1.0059813693e-05 1.8355405965e+00 -3.1792495726e+00 1.8355405965e+00 3.1792495726e+00 
88300 7.1475872111e+00 -1.0078443283e-05 1.8355405965e+00 -3.1792495726e+00 1.8355405965e+00 3.1792495726e+00 
88400 7.1475872114e+00 -1.0091446235e-05 1.8355405965e+00 -3.1792495726e+00 1.8355405965e+00 3.1792495726e+00 
88500 7.1475872117e+00 -1.0098718408e-05 1.8355405965e+00 -3.1792495726e+00 1.8355405965e+00 3.1792495726e+00 
88600 7.1475872119e+00 -1.0100168909e-05 1.8355405965e+00 -3.1792495726e+00 1.8355405965e+00 3.1792495726e+00 
88700 7.1475872122e+00 -1.0095719889e-05 1.8355405965e+00 -3.1792495726e+00 1.8355405965e+00 3.1792495726e+00 
88800 7.1475872124e+00 -1.0085306314e-05 1.8355405965e+00 -3.1792495726e+00 1.8355405965e+00 3.1792495726e+00 
88900 7.1475872127e+00 -1.0068875733e-05 1.8355405965e+00 -3.1792495726e+00 1.8355405965e+00 3.1792495726e+00 
89000 7.1475872129e+00 -1.0046388012e-05 1.8355405965e+00 -3.1792495726e+00 1.8355405965e+00 3.1792495726e+00 
89100 7.1475872132e+00 -1.0017815073e-05 1.8355405965e+00 -3.1792495726e+00 1.8355405965e+00 3.1792495726e+00 
89200 7.1475872134e+00 -9.9831406225e-06 1.8355405965e+00 -3.1792495726e+00 1.8355405965e+00 3.1792495726e+00 
89300 7.1475872136e+00 -9.9423598482e-06 1.8355405965e+00 -3.1792495726e+00 1.8355405965e+00 3.1792495726e+00 
89400 7.1475872139e+00 -9.8954791250e-06 1.8355405965e+00 -3.1792495726e+00 1.8355405965e+00 3.1792495726e+00 
89500 7.1475872141e+00 -9.8425156938e-06 1.8355405965e+00 -3.1792495726e+00 1.8355405965e+00 3.1792495726e+00 
89600 7.1475872143e+00 -9.7834973519e-06 1.8355405965e+00 -3.1792495726e+00 1.8355405965e+00 3.1792495726e+00 
89700 7.1475872146e+00 -9.7184621088e-06 1.8355405965e+00 -3.1792495726e+00 1.8355405965e+00 3.1792495726e+00 
89800 7.1475872148e+00 -9.6474578658e-06 1.8355405965e+00 -3.1792495726e+00 1.8355405965e+00 3.1792495726e+00 
89900 7.1475872150e+00 -9.5705420488e-06 1.8355405965e+00 -3.1792495726e+00 1.8355405965e+00 3.1792495726e+00 
90000 7.1475872152e+00 -9.4877812728e-06 1.8355405965e+00 -3.1792495726e+00 1.8355405965e+00 3.1792495726e+00 
90100 7.1475872154e+00 -9.3992509767e-06 1.8355405965e+00 -3.1792495726e+00 1.8355405965e+00 3.1792495726e+00 
90200 7.1475872156e+00 -9.3050350681e-06 1.8355405965e+00 -3.1792495726e+00 1.8355405965e+00 3.1792495726e+00 
90300 7.1475872158e+00 -9.2052255487e-06 1.8355405965e+00 -3.1792495726e+00 1.8355405965e+00 3.1792495726e+00 
90400 7.1475872160e+00 -9.0999221534e-06 1.8355405965e+00 -3.1792495726e+00 1.8355405965e+00 3.1792495726e+00 
90500 7.1475872162e+00 -8.9892319671e-06 1.8355405965e+00 -3.1792495726e+00 1.8355405965e+00 3.1792495726e+00 
90600 7.1475872164e+00 -8.8732690638e-06 1.8355405965e+00 -3.1792495726e+00 1.8355405965e+00 3.1792495726e+00 
90700 7.1475872166e+00 -8.7521541189e-06 1.8355405965e+00 -3.1792495726e+00 1.8355405965e+00 3.1792495726e+00 
90800 7.1475872168e+00 -8.6260140423e-06 1.8355405965e+00 -3.1792495726e+00 1.8355405965e+00 3.1792495726e+00 
90900 7.1475872170e+00 -8.4949815952e-06 1.8355405965e+00 -3.1792495726e+00 1.8355405965e+00 3.1792495726e+00 
91000 7.1475872172e+00 -8.3591950170e-06 1.8355405965e+00 -3.1792495726e+00 1.8355405965e+00 3.1792495726e+00 
91100 7.1475872174e+00 -8.2187976458e-06 1.8355405965e+00 -3.1792495726e+00 1.8355405965e+00 3.1792495726e+00 
91200 7.1475872176e+00 -8.0739375598e-06 1.8355405965e+00 -3.1792495726e+00 1.8355405965e+00 3.1792495726e+00 
91300 7.1475872177e+00 -7.9247671916e-06 1.8355405965e+00 -3.1792495726e+00 1.8355405965e+00 3.1792495726e+00 
91400 7.1475872179e+00 -7.7714429625e-06 1.8355405965e+00 -3.1792495726e+00 1.8355405965e+00 3.1792495726e+00 
91500 7.1475872181e+00 -7.6141249208e-06 1.8355405965e+00 -3.1792495726e+00 1.8355405965e+00 3.1792495726e+00 
91600 7.1475872183e+00 -7.4529763877e-06 1.8355405965e+00 -3.1792495726e+00 1.8355405965e+00 3.1792495726e+00 
91700 7.1475872184e+00 -7.2881635861e-06 1.8355405965e+00 -3.1792495726e+00 1.8355405965e+00 3.1792495726e+00 
91800 7.1475872186e+00 -7.1198553001e-06 1.8355405965e+00 -3.1792495726e+00 1.8355405965e+00 3.1792495726e+00 
91900 7.1475872188e+00 -6.9482225310e-06 1.8355405965e+00 -3.1792495726e+00 1.8355405965e+00 3.1792495726e+00 
92000 7.1475872190e+00 -6.7734381430e-06 1.8355405965e+00 -3.1792495726e+00 1.8355405965e+00 3.1792495726e+00 
92100 7.1475872191e+00 -6.5956765439e-06 1.8355405965e+00 -3.1792495726e+00 1.8355405965e+00 3.1792495726e+00 
92200 7.1475872193e+00 -6.4151133506e-06 1.8355405965e+00 -3.1792495726e+00 1.8355405965e+00 3.1792495726e+00 
92300 7.1475872194e+00 -6.2319250641e-06 1.8355405965e+00 -3.1792495726e+00 1.8355405965e+00 3.1792495726e+00 
92400 7.1475872196e+00 -6.0462887604e-06 1.8355405965e+00 -3.1792495726e+00 1.8355405965e+00 3.1792495726e+00 
92500 7.1475872197e+00 -5.8583817855e-06 1.8355405965e+00 -3.1792495726e+00 1.8355405965e+00 3.1792495726e+00 
92600 7.1475872199e+00 -5.6683814482e-06 1.8355405965e+00 -3.1792495726e+00 1.8355405965e+00 3.1792495726e+00 
92700 7.1475872200e+00 -5.4764647425e-06 1.8355405965e+00 -3.1792495726e+00 1.8355405965e+00 3.1792495726e+00 
92800 7.1475872202e+00 -5.2828080537e-06 1.8355405965e+00 -3.1792495726e+00 1.8355405965e+00 3.1792495726e+00 
92900 7.1475872203e+00 -5.0875868878e-06 1.8355405965e+00 -3.1792495726e+00 1.8355405965e+00 3.1792495726e+00 
93000 7.1475872205e+00 -4.8909756123e-06 1.8355405965e+00 -3.1792495726e+00 1.8355405965e+00 3.1792495726e+00 
93100 7.1475872206e+00 -4.6931471897e-06 1.8355405965e+00 -3.1792495726e+00 1.8355405965e+00 3.1792495726e+00 
93200 7.1475872208e+00 -4.4942729402e-06 1.8355405965e+00 -3.1792495726e+00 1.8355405965e+00 3.1792495726e+00 
93300 7.1475872209e+00 -4.2945222967e-06 1.8355405965e+00 -3.1792495726e+00 1.8355405965e+00 3.1792495726e+00 
93400 7.1475872210e+00 -4.0940625808e-06 1.8355405965e+00 -3.1792495726e+00 1.8355405965e+00 3.1792495726e+00 
93500 7.1475872212e+00 -3.8930587887e-06 1.8355405965e+00 -3.1792495726e+00 1.8355405965e+00 3.1792495726e+00 
93600 7.1475872213e+00 -3.6916733649e-06 1.8355405965e+00 -3.1792495726e+00 1.8355405965e+00 3.1792495726e+00 
93700 7.1475872214e+00 -3.4900660254e-06 1.8355405965e+00 -3.1792495726e+00 1.8355405965e+00 3.1792495726e+00 
93800 7.1475872216e+00 -3.2883935537e-06 1.8355405965e+00 -3.1792495726e+00 1.8355405965e+00 3.1792495726e+00 
93900 7.1475872217e+00 -3.0868096243e-06 1.8355405965e+00 -3.1792495726e+00 1.8355405965e+00 3.1792495726e+00 
94000 7.1475872218e+00 -2.8854646374e-06 1.8355405965e+00 -3.1792495726e+00 1.8355405965e+00 3.1792495726e+00 
94100 7.1475872219e+00 -2.6845055480e-06 1.8355405965e+00 -3.1792495726e+00 1.8355405965e+00 3.1792495726e+00 
94200 7.1475872221e+00 -2.4840757350e-06 1.8355405965e+00 -3.1792495726e+00 1.8355405965e+00 3.1792495726e+00 
94300 7.1475872222e+00 -2.2843148370e-06 1.8355405965e+00 -3.1792495726e+00 1.8355405965e+00 3.1792495726e+00 
94400 7.1475872223e+00 -2.0853586405e-06 1.8355405965e+00 -3.1792495726e+00 1.8355405965e+00 3.1792495726e+00 
94500 7.1475872224e+00 -1.8873389514e-06 1.8355405965e+00 -3.1792495726e+00 1.8355405965e+00 3.1792495726e+00 
94600 7.1475872225e+00 -1.6903834913e-06 1.8355405965e+00 -3.1792495726e+00 1.8355405965e+00 3.1792495726e+00 
94700 7.1475872226e+00 -1.4946157858e-06 1.8355405965e+00 -3.1792495726e+00 1.8355405965e+00 3.1792495726e+00 
94800 7.1475872228e+00 -1.3001550752e-06 1.8355405965e+00 -3.1792495726e+00 1.8355405965e+00 3.1792495726e+00 
94900 7.1475872229e+00 -1.1071162372e-06 1.8355405965e+00 -3.1792495726e+00 1.8355405965e+00 3.1792495726e+00 
95000 7.1475872230e+00 -9.1560971806e-07 1.8355405965e+00 -3.1792495726e+00 1.8355405965e+00 3.1792495726e+00 
95100 7.1475872231e+00 -7.2574145309e-07 1.8355405965e+00 -3.1792495726e+00 1.8355405965e+00 3.1792495726e+00 
95200 7.1475872232e+00 -5.3761282212e-07 1.8355405965e+00 -3.1792495726e+00 1.8355405965e+00 3.1792495726e+00 
95300 7.1475872233e+00 -3.5132061057e-07 1.8355405965e+00 -3.1792495726e+00 1.8355405965e+00 3.1792495726e+00 
95400 7.1475872234e+00 -1.6695695567e-07 1.8355405965e+00 -3.1792495726e+00 1.8355405965e+00 3.1792495726e+00 
95500 7.1475872235e+00 1.5390669905e-08 1.8355405965e+00 -3.1792495726e+00 1.8355405965e+00 3.1792495726e+00 
95600 7.1475872236e+00 1.9563948505e-07 1.8355405965e+00 -3.1792495726e+00 1.8355405965e+00 3.1792495726e+00 
95700 7.1475872237e+00 3.7371140615e-07 1.8355405965e+00 -3.1792495726e+00 1.8355405965e+00 3.1792495726e+00 
95800 7.1475872238e+00 5.4953305667e-07 1.8355405965e+00 -3.1792495726e+00 1.8355405965e+00 3.1792495726e+00 
95900 7.1475872239e+00 7.2303576074e-07 1.8355405965e+00 -3.1792495726e+00 1.8355405965e+00 3.1792495726e+00 
96000 7.1475872240e+00 8.9415553381e-07 1.8355405965e+00 -3.1792495726e+00 1.8355405965e+00 3.1792495726e+00 
96100 7.1475872241e+00 1.0628330622e-06 1.8355405965e+00 -3.1792495726e+00 1.8355405965e+00 3.1792495726e+00 
96200 7.1475872242e+00 1.2290136857e-06 1.8355405965e+00 -3.1792495726e+00 1.8355405965e+00 3.1792495726e+00 
96300 7.1475872243e+00 1.3926473456e-06 1.8355405965e+00 -3.1792495726e+00 1.8355405965e+00 3.1792495726e+00 
96400 7.1475872243e+00 1.5536885707e-06 1.8355405965e+00 -3.1792495726e+00 1.8355405965e+00 3.1792495726e+00 
96500 7.1475872244e+00 1.7120964112e-06 1.8355405965e+00 -3.1792495726e+00 1.8355405965e+00 3.1792495726e+00 
96600 7.1475872245e+00 1.8678344008e-06 1.8355405965e+00 -3.1792495726e+00 1.8355405965e+00 3.1792495726e+00 
96700 7.1475872246e+00 2.0208704948e-06 1.8355405965e+00 -3.1792495726e+00 1.8355405965e+00 3.1792495726e+00 
96800 7.1475872247e+00 2.1711770003e-06 1.8355405965e+00 -3.1792495726e+00 1.8355405965e+00 3.1792495726e+00 
96900 7.1475872248e+00 2.3187305254e-06 1.8355405965e+00 -3.1792495726e+00 1.8355405965e+00 3.1792495726e+00 
97000 7.1475872249e+00 2.4635118843e-06 1.8355405965e+00 -3.1792495726e+00 1.8355405965e+00 3.1792495726e+00 
97100 7.1475872249e+00 2.6055060325e-06 1.8355405965e+00 -3.1792495726e+00 1.8355405965e+00 3.1792495726e+00 
97200 7.1475872250e+00 2.7447019785e-06 1.8355405965e+00 -3.1792495726e+00 1.8355405965e+00 3.1792495726e+00 
97300 7.1475872251e+00 2.8810927034e-06 1.8355405965e+00 -3.1792495726e+00 1.8355405965e+00 3.1792495726e+00 
97400 7.1475872252e+00 3.0146750589e-06 1.8355405965e+00 -3.1792495726e+00 1.8355405965e+00 3.1792495726e+00 
97500 7.1475872252e+00 3.1454496821e-06 1.8355405965e+00 -3.1792495726e+00 1.8355405965e+00 3.1792495726e+00 
97600 7.1475872253e+00 3.2734208897e-06 1.8355405965e+00 -3.1792495726e+00 1.8355405965e+00 3.1792495726e+00 
97700 7.1475872254e+00 3.3985965763e-06 1.8355405965e+00 -3.1792495726e+00 1.8355405965e+00 3.1792495726e+00 
97800 7.1475872255e+00 3.5209881144e-06 1.8355405965e+00 -3.1792495726e+00 1.8355405965e+00 3.1792495726e+00 
97900 7.1475872255e+00 3.6406102423e-06 1.8355405965e+00 -3.1792495726e+00 1.8355405965e+00 3.1792495726e+00 
98000 7.1475872256e+00 3.7574809528e-06 1.8355405965e+00 -3.1792495726e+00 1.8355405965e+00 3.1792495726e+00 
98100 7.1475872257e+00 3.8716213805e-06 1.8355405965e+00 -3.1792495726e+00 1.8355405965e+00 3.1792495726e+00 
98200 7.1475872258e+00 3.9830556898e-06 1.8355405965e+00 -3.1792495726e+00 1.8355405965e+00 3.1792495726e+00 
98300 7.1475872258e+00 4.0918109584e-06 1.8355405965e+00 -3.1792495726e+00 1.8355405965e+00 3.1792495726e+00 
98400 7.1475872259e+00 4.1979170561e-06 1.8355405965e+00 -3.1792495726e+00 1.8355405965e+00 3.1792495726e+00 
98500 7.1475872260e+00 4.3014065182e-06 1.8355405965e+00 -3.1792495726e+00 1.8355405965e+00 3.1792495726e+00 
98600 7.1475872260e+00 4.4023144405e-06 1.8355405965e+00 -3.1792495726e+00 1.8355405965e+00 3.1792495726e+00 
98700 7.1475872261e+00 4.5006783450e-06 1.8355405965e+00 -3.1792495726e+00 1.8355405965e+00 3.1792495726e+00 
98800 7.1475872262e+00 4.5965380621e-06 1.8355405965e+00 -3.1792495726e+00 1.8355405965e+00 3.1792495726e+00 
98900 7.1475872262e+00 4.6899356130e-06 1.8355405965e+00 -3.1792495726e+00 1.8355405965e+00 3.1792495726e+00 
99000 7.1475872263e+00 4.7809150690e-06 1.8355405965e+00 -3.1792495726e+00 1.8355405965e+00 3.1792495726e+00 
99100 7.1475872264e+00 4.8695224488e-06 1.8355405965e+00 -3.1792495726e+00 1.8355405965e+00 3.1792495726e+00 
99200 7.1475872264e+00 4.9558055838e-06 1.8355405965e+00 -3.1792495726e+00 1.8355405965e+00 3.1792495726e+00 
99300 7.1475872265e+00 5.0398140020e-06 1.8355405965e+00 -3.1792495726e+00 1.8355405965e+00 3.1792495726e+00 
99400 7.1475872265e+00 5.1215987923e-06 1.8355405965e+00 -3.1792495726e+00 1.8355405965e+00 3.1792495726e+00 
99500 7.1475872266e+00 5.2012125022e-06 1.8355405965e+00 -3.1792495726e+00 1.8355405965e+00 3.1792495726e+00 
99600 7.1475872267e+00 5.2787090069e-06 1.8355405965e+00 -3.1792495726e+00 1.8355405965e+00 3.1792495726e+00 
99700 7.1475872267e+00 5.3541433876e-06 1.8355405965e+00 -3.1792495726e+00 1.8355405965e+00 3.1792495726e+00 
99800 7.1475872268e+00 5.4275718202e-06 1.8355405965e+00 -3.1792495726e+00 1.8355405965e+00 3.1792495726e+00 
99900 7.1475872268e+00 5.4990514538e-06 1.8355405965e+00 -3.1792495726e+00 1.8355405965e+00 3.1792495726e+00 
100000 7.1475872269e+00 5.5686402976e-06 1.8355405965e+00 -3.1792495726e+00 1.8355405965e+00 3.1792495726e+00 
100100 7.1475872269e+00 5.6363971045e-06 1.8355405965e+00 -3.1792495726e+00 1.8355405965e+00 3.1792495726e+00 
100200 7.1475872270e+00 5.7023812623e-06 1.8355405965e+00 -3.1792495726e+00 1.8355405965e+00 3.1792495726e+00 
100300 7.1475872270e+00 5.7666526841e-06 1.8355405965e+00 -3.1792495726e+00 1.8355405965e+00 3.1792495726e+00 
100400 7.1475872271e+00 5.8292716998e-06 1.8355405965e+00 -3.1792495726e+00 1.8355405965e+00 3.1792495726e+00 
100500 7.1475872271e+00 5.8902989489e-06 1.8355405965e+00 -3.1792495726e+00 1.8355405965e+00 3.1792495726e+00 
100600 7.1475872272e+00 5.9497952847e-06 1.8355405965e+00 -3.1792495726e+00 1.8355405965e+00 3.1792495726e+00 
100700 7.1475872272e+00 6.0078216643e-06 1.8355405965e+00 -3.1792495726e+00 1.8355405965e+00 3.1792495726e+00 
100800 7.1475872273e+00 6.0644390526e-06 1.8355405965e+00 -3.1792495726e+00 1.8355405965e+00 3.1792495726e+00 
100900 7.1475872273e+00 6.1197083319e-06 1.8355405965e+00 -3.1792495726e+00 1.8355405965e+00 3.1792495726e+00 
101000 7.1475872274e+00 6.1736902063e-06 1.8355405965e+00 -3.1792495726e+00 1.8355405965e+00 3.1792495726e+00 
101100 7.1475872274e+00 6.2264451080e-06 1.8355405965e+00 -3.1792495726e+00 1.8355405965e+00 3.1792495726e+00 
101200 7.1475872275e+00 6.2780331144e-06 1.8355405965e+00 -3.1792495726e+00 1.8355405965e+00 3.1792495726e+00 
101300 7.1475872275e+00 6.3285138626e-06 1.8355405965e+00 -3.1792495726e+00 1.8355405965e+00 3.1792495726e+00 
101400 7.1475872276e+00 6.3779464744e-06 1.8355405965e+00 -3.1792495726e+00 1.8355405965e+00 3.1792495726e+00 
101500 7.1475872276e+00 6.4263894636e-06 1.8355405965e+00 -3.1792495726e+00 1.8355405965e+00 3.1792495726e+00 
101600 7.1475872277e+00 6.4739006716e-06 1.8355405965e+00 -3.1792495726e+00 1.8355405965e+00 3.1792495726e+00 
101700 7.1475872277e+00 6.5205371932e-06 1.8355405965e+00 -3.1792495726e+00 1.8355405965e+00 3.1792495726e+00 
101800 7.1475872278e+00 6.5663553098e-06 1.8355405965e+00 -3.1792495726e+00 1.8355405965e+00 3.1792495726e+00 
101900 7.1475872278e+00 6.6114104203e-06 1.8355405965e+00 -3.1792495726e+00 1.8355405965e+00 3.1792495726e+00 
102000 7.1475872278e+00 6.6194435271e-06 1.8355405965e+00 -3.1792495726e+00 1.8355405965e+00 3.1792495726e+00 
102000 7.1475872278e+00 6.6194435270e-06 1.8355405965e+00 -3.1792495726e+00 1.8355405965e+00 3.1792495726e+00 
