# step Hamiltonian StressXX CellTensor1 CellTensor2 CellTensor3 CellTensor4 
0 5.4526995861e+00 -1.5134260323e-01 1.7865676565e+00 -3.0944259522e+00 1.7865676565e+00 3.0944259522e+00 
100 5.4506060832e+00 -1.4907450584e-01 1.7865676565e+00 -3.0944259522e+00 1.7865676565e+00 3.0944259522e+00 
200 5.4481946555e+00 -1.4496678779e-01 1.7907413689e+00 -3.1016550342e+00 1.7907413689e+00 3.1016550342e+00 
300 5.4462683170e+00 -1.4130026819e-01 1.7947905655e+00 -3.1086684484e+00 1.7947905655e+00 3.1086684484e+00 
400 5.4448601908e+00 -1.3799089739e-01 1.7987284012e+00 -3.1154889798e+00 1.7987284012e+00 3.1154889798e+00 
500 5.4439795782e+00 -1.3497668857e-01 1.8025655518e+00 -3.1221351197e+00 1.8025655518e+00 3.1221351197e+00 
600 5.4436176226e+00 -1.3221153173e-01 1.8063108613e+00 -3.1286221860e+00 1.8063108613e+00 3.1286221860e+00 
700 5.4437514720e+00 -1.2966099400e-01 1.8099718061e+00 -3.1349631284e+00 1.8099718061e+00 3.1349631284e+00 
800 5.4443474872e+00 -1.2729937408e-01 1.8135548363e+00 -3.1411691188e+00 1.8135548363e+00 3.1411691188e+00 
900 5.4453638266e+00 -1.2510756879e-01 1.8170656305e+00 -3.1472499927e+00 1.8170656305e+00 3.1472499927e+00 
1000 5.4467526037e+00 -1.2307147937e-01 1.8205092870e+00 -3.1532145807e+00 1.8205092870e+00 3.1532145807e+00 
1100 5.4484617386e+00 -1.2118078744e-01 1.8238904698e+00 -3.1590709611e+00 1.8238904698e+00 3.1590709611e+00 
1200 5.4504365739e+00 -1.1942799288e-01 1.8272135177e+00 -3.1648266489e+00 1.8272135177e+00 3.1648266489e+00 
1300 5.4526212961e+00 -1.1780764431e-01 1.8304825261e+00 -3.1704887376e+00 1.8304825261e+00 3.1704887376e+00 
1400 5.4549601860e+00 -1.1631571673e-01 1.8337014069e+00 -3.1760640027e+00 1.8337014069e+00 3.1760640027e+00 
1500 5.4573987117e+00 -1.1494910620e-01 1.8368739297e+00 -3.1815589733e+00 1.8368739297e+00 3.1815589733e+00 
1600 5.4598844714e+00 -1.1370522050e-01 1.8400037494e+00 -3.1869799801e+00 1.8400037494e+00 3.1869799801e+00 
1700 5.4623679914e+00 -1.1258165080e-01 1.8430944222e+00 -3.1923331824e+00 1.8430944222e+00 3.1923331824e+00 
1800 5.4648033833e+00 -1.1157591290e-01 1.8461494120e+00 -3.1976245799e+00 1.8461494120e+00 3.1976245799e+00 
1900 5.4671488651e+00 -1.1068524912e-01 1.8491720899e+00 -3.2028600117e+00 1.8491720899e+00 3.2028600117e+00 
2000 5.4693671529e+00 -1.0990648295e-01 1.8521657285e+00 -3.2080451458e+00 1.8521657285e+00 3.2080451458e+00 
2100 5.4714257283e+00 -1.0923591972e-01 1.8551334915e+00 -3.2131854621e+00 1.8551334915e+00 3.2131854621e+00 
2200 5.4732969925e+00 -1.0866928717e-01 1.8580784215e+00 -3.2182862306e+00 1.8580784215e+00 3.2182862306e+00 
2300 5.4749583146e+00 -1.0820170995e-01 1.8610034258e+00 -3.2233524866e+00 1.8610034258e+00 3.2233524866e+00 
2400 5.4763919854e+00 -1.0782771275e-01 1.8639112613e+00 -3.2283890054e+00 1.8639112613e+00 3.2283890054e+00 
2500 5.4775850880e+00 -1.0754124693e-01 1.8668045202e+00 -3.2334002769e+00 1.8668045202e+00 3.2334002769e+00 
2600 5.4785292972e+00 -1.0733573587e-01 1.8696856162e+00 -3.2383904814e+00 1.8696856162e+00 3.2383904814e+00 
2700 5.4792206186e+00 -1.0720413464e-01 1.8725567716e+00 -3.2433634684e+00 1.8725567716e+00 3.2433634684e+00 
2800 5.4796590797e+00 -1.0713900019e-01 1.8754200067e+00 -3.2483227371e+00 1.8754200067e+00 3.2483227371e+00 
2900 5.4798483838e+00 -1.0713256825e-01 1.8782771308e+00 -3.2532714213e+00 1.8782771308e+00 3.2532714213e+00 
3000 5.4797955377e+00 -1.0717683405e-01 1.8811297354e+00 -3.2582122773e+00 1.8811297354e+00 3.2582122773e+00 
3100 5.4795104626e+00 -1.0726363407e-01 1.8839791892e+00 -3.2631476760e+00 1.8839791892e+00 3.2631476760e+00 
3200 5.4790055970e+00 -1.0738472667e-01 1.8868266358e+00 -3.2680795984e+00 1.8868266358e+00 3.2680795984e+00 
3300 5.4782954998e+00 -1.0753186967e-01 1.8896729938e+00 -3.2730096349e+00 1.8896729938e+00 3.2730096349e+00 
3400 5.4773964602e+00 -1.0769689360e-01 1.8925189574e+00 -3.2779389886e+00 1.8925189574e+00 3.2779389886e+00 
3500 5.4763261209e+00 -1.0787176947e-01 1.8953650013e+00 -3.2828684811e+00 1.8953650013e+00 3.2828684811e+00 
3600 5.4751031176e+00 -1.0804867030e-01 1.8982113850e+00 -3.2877985624e+00 1.8982113850e+00 3.2877985624e+00 
3700 5.4737467411e+00 -1.0822002612e-01 1.9010581604e+00 -3.2927293220e+00 1.9010581604e+00 3.2927293220e+00 
3800 5.4722766230e+00 -1.0837857196e-01 1.9039051799e+00 -3.2976605043e+00 1.9039051799e+00 3.2976605043e+00 
3900 5.4707124474e+00 -1.0851738918e-01 1.9067521057e+00 -3.3025915244e+00 1.9067521057e+00 3.3025915244e+00 
4000 5.4690736913e+00 -1.0862993995e-01 1.9095984206e+00 -3.3075214866e+00 1.9095984206e+00 3.3075214866e+00 
4100 5.4673793921e+00 -1.0871009543e-01 1.9124434394e+00 -3.3124492036e+00 1.9124434394e+00 3.3124492036e+00 
4200 5.4656479442e+00 -1.0875215792e-01 1.9152863204e+00 -3.3173732179e+00 1.9152863204e+00 3.3173732179e+00 
4300 5.4638969238e+00 -1.0875087742e-01 1.9181260782e+00 -3.3222918227e+00 1.9181260782e+00 3.3222918227e+00 
4400 5.4621429398e+00 -1.0870146320e-01 1.9209615963e+00 -3.3272030842e+00 1.9209615963e+00 3.3272030842e+00 
4500 5.4604015125e+00 -1.0859959067e-01 1.9237916401e+00 -3.3321048638e+00 1.9237916401e+00 3.3321048638e+00 
4600 5.4586869757e+00 -1.0844140438e-01 1.9266148696e+00 -3.3369948408e+00 1.9266148696e+00 3.3369948408e+00 
4700 5.4570124030e+00 -1.0822351730e-01 1.9294298527e+00 -3.3418705346e+00 1.9294298527e+00 3.3418705346e+00 
4800 5.4553895552e+00 -1.0794300714e-01 1.9322350777e+00 -3.3467293268e+00 1.9322350777e+00 3.3467293268e+00 
4900 5.4538288479e+00 -1.0759740992e-01 1.9350289660e+00 -3.3515684832e+00 1.9350289660e+00 3.3515684832e+00 
5000 5.4523393375e+00 -1.0718471142e-01 1.9378098840e+00 -3.3563851745e+00 1.9378098840e+00 3.3563851745e+00 
5100 5.4509287230e+00 -1.0670333659e-01 1.9405761556e+00 -3.3611764975e+00 1.9405761556e+00 3.3611764975e+00 
5200 5.4496033636e+00 -1.0615213755e-01 1.9433260734e+00 -3.3659394948e+00 1.9433260734e+00 3.3659394948e+00 
5300 5.4483683081e+00 -1.0553038018e-01 1.9460579095e+00 -3.3706711737e+00 1.9460579095e+00 3.3706711737e+00 
5400 5.4472273369e+00 -1.0483772970e-01 1.9487699267e+00 -3.3753685254e+00 1.9487699267e+00 3.3753685254e+00 
5500 5.4461830131e+00 -1.0407423536e-01 1.9514603884e+00 -3.3800285416e+00 1.9514603884e+00 3.3800285416e+00 
5600 5.4452367429e+00 -1.0324031444e-01 1.9541275679e+00 -3.3846482321e+00 1.9541275679e+00 3.3846482321e+00 
5700 5.4443888424e+00 -1.0233673560e-01 1.9567697583e+00 -3.3892246402e+00 1.9567697583e+00 3.3892246402e+00 
5800 5.4436386106e+00 -1.0136460181e-01 1.9593852806e+00 -3.3937548576e+00 1.9593852806e+00 3.3937548576e+00 
5900 5.4429844075e+00 -1.0032533277e-01 1.9619724919e+00 -3.3982360391e+00 1.9619724919e+00 3.3982360391e+00 
6000 5.4424237349e+00 -9.9220647028e-02 1.9645297932e+00 -3.4026654148e+00 1.9645297932e+00 3.4026654148e+00 
6100 5.4419533206e+00 -9.8052543646e-02 1.9670556362e+00 -3.4070403032e+00 1.9670556362e+00 3.4070403032e+00 
6200 5.4415692041e+00 -9.6823283636e-02 1.9695485302e+00 -3.4113581222e+00 1.9695485302e+00 3.4113581222e+00 
6300 5.4412668225e+00 -9.5535371015e-02 1.9720070479e+00 -3.4156163998e+00 1.9720070479e+00 3.4156163998e+00 
6400 5.4410410976e+00 -9.4191533585e-02 1.9744298309e+00 -3.4198127831e+00 1.9744298309e+00 3.4198127831e+00 
6500 5.4408865208e+00 -9.2794703413e-02 1.9768155950e+00 -3.4239450478e+00 1.9768155950e+00 3.4239450478e+00 
6600 5.4407972377e+00 -9.1347997037e-02 1.9791631343e+00 -3.4280111050e+00 1.9791631343e+00 3.4280111050e+00 
6700 5.4407671302e+00 -8.9854695433e-02 1.9814713252e+00 -3.4320090090e+00 1.9814713252e+00 3.4320090090e+00 
6800 5.4407898957e+00 -8.8318223774e-02 1.9837391302e+00 -3.4359369625e+00 1.9837391302e+00 3.4359369625e+00 
6900 5.4408591240e+00 -8.6742131041e-02 1.9859656005e+00 -3.4397933221e+00 1.9859656005e+00 3.4397933221e+00 
7000 5.4409683694e+00 -8.5130069540e-02 1.9881498783e+00 -3.4435766023e+00 1.9881498783e+00 3.4435766023e+00 
7100 5.4411112195e+00 -8.3485774436e-02 1.9902911990e+00 -3.4472854786e+00 1.9902911990e+00 3.4472854786e+00 
7200 5.4412813593e+00 -8.1813043371e-02 1.9923888926e+00 -3.4509187905e+00 1.9923888926e+00 3.4509187905e+00 
7300 5.4414726305e+00 -8.0115716311e-02 1.9944423843e+00 -3.4544755424e+00 1.9944423843e+00 3.4544755424e+00 
7400 5.4416790853e+00 -7.8397655729e-02 1.9964511951e+00 -3.4579549048e+00 1.9964511951e+00 3.4579549048e+00 
7500 5.4418950353e+00 -7.6662727268e-02 1.9984149419e+00 -3.4613562140e+00 1.9984149419e+00 3.4613562140e+00 
7600 5.4421150945e+00 -7.4914781031e-02 2.0003333368e+00 -3.4646789714e+00 2.0003333368e+00 3.4646789714e+00 
7700 5.4423342169e+00 -7.3157633637e-02 2.0022061861e+00 -3.4679228416e+00 2.0022061861e+00 3.4679228416e+00 
7800 5.4425477276e+00 -7.1395051192e-02 2.0040333893e+00 -3.4710876503e+00 2.0040333893e+00 3.4710876503e+00 
7900 5.4427513490e+00 -6.9630733301e-02 2.0058149369e+00 -3.4741733813e+00 2.0058149369e+00 3.4741733813e+00 
8000 5.4429412204e+00 -6.7868298262e-02 2.0075509088e+00 -3.4771801728e+00 2.0075509088e+00 3.4771801728e+00 
8100 5.4431139127e+00 -6.6111269520e-02 2.0092414715e+00 -3.4801083133e+00 2.0092414715e+00 3.4801083133e+00 
8200 5.4432664367e+00 -6.4363063499e-02 2.0108868756e+00 -3.4829582368e+00 2.0108868756e+00 3.4829582368e+00 
8300 5.4433962466e+00 -6.2626978846e-02 2.0124874528e+00 -3.4857305179e+00 2.0124874528e+00 3.4857305179e+00 
8400 5.4435012388e+00 -6.0906187136e-02 2.0140436127e+00 -3.4884258658e+00 2.0140436127e+00 3.4884258658e+00 
8500 5.4435797451e+00 -5.9203725036e-02 2.0155558392e+00 -3.4910451189e+00 2.0155558392e+00 3.4910451189e+00 
8600 5.4436305224e+00 -5.7522487914e-02 2.0170246873e+00 -3.4935892385e+00 2.0170246873e+00 3.4935892385e+00 
8700 5.4436527378e+00 -5.5865224840e-02 2.0184507794e+00 -3.4960593026e+00 2.0184507794e+00 3.4960593026e+00 
8800 5.4436459505e+00 -5.4234534901e-02 2.0198348014e+00 -3.4984564989e+00 2.0198348014e+00 3.4984564989e+00 
8900 5.4436100906e+00 -5.2632864744e-02 2.0211774988e+00 -3.5007821191e+00 2.0211774988e+00 3.5007821191e+00 
9000 5.4435454349e+00 -5.1062507229e-02 2.0224796732e+00 -3.5030375513e+00 2.0224796732e+00 3.5030375513e+00 
9100 5.4434525812e+00 -4.9525601068e-02 2.0237421783e+00 -3.5052242742e+00 2.0237421783e+00 3.5052242742e+00 
9200 5.4433324198e+00 -4.8024131319e-02 2.0249659159e+00 -3.5073438499e+00 2.0249659159e+00 3.5073438499e+00 
9300 5.4431861046e+00 -4.6559930593e-02 2.0261518325e+00 -3.5093979178e+00 2.0261518325e+00 3.5093979178e+00 
9400 5.4430150231e+00 -4.5134680854e-02 2.0273009154e+00 -3.5113881878e+00 2.0273009154e+00 3.5113881878e+00 
9500 5.4428207652e+00 -4.3749915668e-02 2.0284141890e+00 -3.5133164341e+00 2.0284141890e+00 3.5133164341e+00 
9600 5.4426050929e+00 -4.2407022793e-02 2.0294927111e+00 -3.5151844891e+00 2.0294927111e+00 3.5151844891e+00 
9700 5.4423699096e+00 -4.1107247014e-02 2.0305375697e+00 -3.5169942374e+00 2.0305375697e+00 3.5169942374e+00 
9800 5.4421172298e+00 -3.9851693115e-02 2.0315498795e+00 -3.5187476093e+00 2.0315498795e+00 3.5187476093e+00 
9900 5.4418491498e+00 -3.8641328935e-02 2.0325307783e+00 -3.5204465760e+00 2.0325307783e+00 3.5204465760e+00 
10000 5.4415678196e+00 -3.7476988443e-02 2.0334814242e+00 -3.5220931429e+00 2.0334814242e+00 3.5220931429e+00 
10100 5.4412754159e+00 -3.6359374795e-02 2.0344029919e+00 -3.5236893450e+00 2.0344029919e+00 3.5236893450e+00 
10200 5.4409741162e+00 -3.5289063352e-02 2.0352966702e+00 -3.5252372412e+00 2.0352966702e+00 3.5252372412e+00 
10300 5.4406660750e+00 -3.4266504644e-02 2.0361636585e+00 -3.5267389090e+00 2.0361636585e+00 3.5267389090e+00 
10400 5.4403534014e+00 -3.3292027296e-02 2.0370051641e+00 -3.5281964395e+00 2.0370051641e+00 3.5281964395e+00 
10500 5.4400381388e+00 -3.2365840905e-02 2.0378223994e+00 -3.5296119326e+00 2.0378223994e+00 3.5296119326e+00 
10600 5.4397222465e+00 -3.1488038904e-02 2.0386165791e+00 -3.5309874922e+00 2.0386165791e+00 3.5309874922e+00 
10700 5.4394075827e+00 -3.0658601436e-02 2.0393889172e+00 -3.5323252211e+00 2.0393889172e+00 3.5323252211e+00 
10800 5.4390958906e+00 -2.9877398249e-02 2.0401406249e+00 -3.5336272169e+00 2.0401406249e+00 3.5336272169e+00 
10900 5.4387887856e+00 -2.9144191652e-02 2.0408729074e+00 -3.5348955673e+00 2.0408729074e+00 3.5348955673e+00 
11000 5.4384877452e+00 -2.8458639547e-02 2.0415869619e+00 -3.5361323460e+00 2.0415869619e+00 3.5361323460e+00 
11100 5.4381941008e+00 -2.7820298569e-02 2.0422839750e+00 -3.5373396082e+00 2.0422839750e+00 3.5373396082e+00 
11200 5.4379090313e+00 -2.7228627341e-02 2.0429651203e+00 -3.5385193865e+00 2.0429651203e+00 3.5385193865e+00 
11300 5.4376335589e+00 -2.6682989861e-02 2.0436315563e+00 -3.5396736874e+00 2.0436315563e+00 3.5396736874e+00 
11400 5.4373685475e+00 -2.6182659038e-02 2.0442844237e+00 -3.5408044870e+00 2.0442844237e+00 3.5408044870e+00 
11500 5.4371147015e+00 -2.5726820374e-02 2.0449248440e+00 -3.5419137275e+00 2.0449248440e+00 3.5419137275e+00 
11600 5.4368725680e+00 -2.5314575793e-02 2.0455539170e+00 -3.5430033139e+00 2.0455539170e+00 3.5430033139e+00 
11700 5.4366425397e+00 -2.4944947615e-02 2.0461727189e+00 -3.5440751101e+00 2.0461727189e+00 3.5440751101e+00 
11800 5.4364248598e+00 -2.4616882670e-02 2.0467823005e+00 -3.5451309365e+00 2.0467823005e+00 3.5451309365e+00 
11900 5.4362196278e+00 -2.4329256542e-02 2.0473836856e+00 -3.5461725660e+00 2.0473836856e+00 3.5461725660e+00 
12000 5.4360268079e+00 -2.4080877921e-02 2.0479778691e+00 -3.5472017221e+00 2.0479778691e+00 3.5472017221e+00 
12100 5.4358462370e+00 -2.3870493066e-02 2.0485658156e+00 -3.5482200753e+00 2.0485658156e+00 3.5482200753e+00 
12200 5.4356776347e+00 -2.3696790348e-02 2.0491484580e+00 -3.5492292415e+00 2.0491484580e+00 3.5492292415e+00 
12300 5.4355206139e+00 -2.3558404871e-02 2.0497266959e+00 -3.5502307789e+00 2.0497266959e+00 3.5502307789e+00 
12400 5.4353746921e+00 -2.3453923142e-02 2.0503013946e+00 -3.5512261862e+00 2.0503013946e+00 3.5512261862e+00 
12500 5.4352393029e+00 -2.3381887791e-02 2.0508733840e+00 -3.5522169009e+00 2.0508733840e+00 3.5522169009e+00 
12600 5.4351138087e+00 -2.3340802304e-02 2.0514434574e+00 -3.5532042972e+00 2.0514434574e+00 3.5532042972e+00 
12700 5.4349975121e+00 -2.3329135784e-02 2.0520123710e+00 -3.5541896844e+00 2.0520123710e+00 3.5541896844e+00 
12800 5.4348896689e+00 -2.3345327699e-02 2.0525808426e+00 -3.5551743060e+00 2.0525808426e+00 3.5551743060e+00 
12900 5.4347895001e+00 -2.3387792622e-02 2.0531495511e+00 -3.5561593381e+00 2.0531495511e+00 3.5561593381e+00 
13000 5.4346962031e+00 -2.3454924946e-02 2.0537191364e+00 -3.5571458886e+00 2.0537191364e+00 3.5571458886e+00 
13100 5.4346089641e+00 -2.3545103561e-02 2.0542901982e+00 -3.5581349967e+00 2.0542901982e+00 3.5581349967e+00 
13200 5.4345269681e+00 -2.3656696491e-02 2.0548632963e+00 -3.5591276318e+00 2.0548632963e+00 3.5591276318e+00 
13300 5.4344494092e+00 -2.3788065469e-02 2.0554389502e+00 -3.5601246936e+00 2.0554389502e+00 3.5601246936e+00 
13400 5.4343755005e+00 -2.3937570454e-02 2.0560176388e+00 -3.5611270116e+00 2.0560176388e+00 3.5611270116e+00 
13500 5.4343044819e+00 -2.4103574068e-02 2.0565998006e+00 -3.5621353455e+00 2.0565998006e+00 3.5621353455e+00 
13600 5.4342356283e+00 -2.4284445956e-02 2.0571858339e+00 -3.5631503849e+00 2.0571858339e+00 3.5631503849e+00 
13700 5.4341682561e+00 -2.4478567046e-02 2.0577760967e+00 -3.5641727501e+00 2.0577760967e+00 3.5641727501e+00 
13800 5.4341017290e+00 -2.4684333721e-02 2.0583709075e+00 -3.5652029925e+00 2.0583709075e+00 3.5652029925e+00 
13900 5.4340354625e+00 -2.4900161864e-02 2.0589705451e+00 -3.5662415953e+00 2.0589705451e+00 3.5662415953e+00 
14000 5.4339689279e+00 -2.5124490797e-02 2.0595752497e+00 -3.5672889745e+00 2.0595752497e+00 3.5672889745e+00 
14100 5.4339016548e+00 -2.5355787083e-02 2.0601852233e+00 -3.5683454797e+00 2.0601852233e+00 3.5683454797e+00 
14200 5.4338332333e+00 -2.5592548187e-02 2.0608006303e+00 -3.5694113959e+00 2.0608006303e+00 3.5694113959e+00 
14300 5.4337633142e+00 -2.5833305993e-02 2.0614215985e+00 -3.5704869444e+00 2.0614215985e+00 3.5704869444e+00 
14400 5.4336916098e+00 -2.6076630160e-02 2.0620482198e+00 -3.5715722844e+00 2.0620482198e+00 3.5715722844e+00 
14500 5.4336178925e+00 -2.6321131308e-02 2.0626805513e+00 -3.5726675147e+00 2.0626805513e+00 3.5726675147e+00 
14600 5.4335419936e+00 -2.6565464026e-02 2.0633186164e+00 -3.5737726758e+00 2.0633186164e+00 3.5737726758e+00 
14700 5.4334638010e+00 -2.6808329694e-02 2.0639624056e+00 -3.5748877514e+00 2.0639624056e+00 3.5748877514e+00 
14800 5.4333832567e+00 -2.7048479113e-02 2.0646118781e+00 -3.5760126707e+00 2.0646118781e+00 3.5760126707e+00 
14900 5.4333003529e+00 -2.7284714925e-02 2.0652669627e+00 -3.5771473106e+00 2.0652669627e+00 3.5771473106e+00 
15000 5.4332151288e+00 -2.7515893829e-02 2.0659275593e+00 -3.5782914975e+00 2.0659275593e+00 3.5782914975e+00 
15100 5.4331276665e+00 -2.7740928582e-02 2.0665935404e+00 -3.5794450105e+00 2.0665935404e+00 3.5794450105e+00 
15200 5.4330380863e+00 -2.7958789770e-02 2.0672647519e+00 -3.5806075831e+00 2.0672647519e+00 3.5806075831e+00 
15300 5.4329465427e+00 -2.8168507367e-02 2.0679410154e+00 -3.5817789058e+00 2.0679410154e+00 3.5817789058e+00 
15400 5.4328532193e+00 -2.8369172053e-02 2.0686221290e+00 -3.5829586291e+00 2.0686221290e+00 3.5829586291e+00 
15500 5.4327583244e+00 -2.8559936312e-02 2.0693078690e+00 -3.5841463656e+00 2.0693078690e+00 3.5841463656e+00 
15600 5.4326620860e+00 -2.8740015288e-02 2.0699979916e+00 -3.5853416930e+00 2.0699979916e+00 3.5853416930e+00 
15700 5.4325647477e+00 -2.8908687423e-02 2.0706922343e+00 -3.5865441567e+00 2.0706922343e+00 3.5865441567e+00 
15800 5.4324665639e+00 -2.9065294855e-02 2.0713903176e+00 -3.5877532723e+00 2.0713903176e+00 3.5877532723e+00 
15900 5.4323677956e+00 -2.9209243596e-02 2.0720919462e+00 -3.5889685288e+00 2.0720919462e+00 3.5889685288e+00 
16000 5.4322687064e+00 -2.9340003481e-02 2.0727968111e+00 -3.5901893907e+00 2.0727968111e+00 3.5901893907e+00 
16100 5.4321695587e+00 -2.9457107907e-02 2.0735045909e+00 -3.5914153012e+00 2.0735045909e+00 3.5914153012e+00 
16200 5.4320706104e+00 -2.9560153354e-02 2.0742149532e+00 -3.5926456847e+00 2.0742149532e+00 3.5926456847e+00 
16300 5.4319721113e+00 -2.9648798700e-02 2.0749275564e+00 -3.5938799497e+00 2.0749275564e+00 3.5938799497e+00 
16400 5.4318743008e+00 -2.9722764344e-02 2.0756420512e+00 -3.5951174910e+00 2.0756420512e+00 3.5951174910e+00 
16500 5.4317774052e+00 -2.9781831132e-02 2.0763580820e+00 -3.5963576928e+00 2.0763580820e+00 3.5963576928e+00 
16600 5.4316816355e+00 -2.9825839114e-02 2.0770752884e+00 -3.5975999306e+00 2.0770752884e+00 3.5975999306e+00 
16700 5.4315871857e+00 -2.9854686115e-02 2.0777933066e+00 -3.5988435746e+00 2.0777933066e+00 3.5988435746e+00 
16800 5.4314942315e+00 -2.9868326162e-02 2.0785117709e+00 -3.6000879913e+00 2.0785117709e+00 3.6000879913e+00 
16900 5.4314029290e+00 -2.9866767755e-02 2.0792303149e+00 -3.6013325461e+00 2.0792303149e+00 3.6013325461e+00 
17000 5.4313134142e+00 -2.9850071997e-02 2.0799485732e+00 -3.6025766059e+00 2.0799485732e+00 3.6025766059e+00 
17100 5.4312258025e+00 -2.9818350606e-02 2.0806661820e+00 -3.6038195408e+00 2.0806661820e+00 3.6038195408e+00 
17200 5.4311401885e+00 -2.9771763806e-02 2.0813827809e+00 -3.6050607265e+00 2.0813827809e+00 3.6050607265e+00 
17300 5.4310566462e+00 -2.9710518122e-02 2.0820980138e+00 -3.6062995462e+00 2.0820980138e+00 3.6062995462e+00 
17400 5.4309752294e+00 -2.9634864077e-02 2.0828115300e+00 -3.6075353925e+00 2.0828115300e+00 3.6075353925e+00 
17500 5.4308959725e+00 -2.9545093821e-02 2.0835229854e+00 -3.6087676695e+00 2.0835229854e+00 3.6087676695e+00 
17600 5.4308188910e+00 -2.9441538685e-02 2.0842320433e+00 -3.6099957938e+00 2.0842320433e+00 3.6099957938e+00 
17700 5.4307439829e+00 -2.9324566685e-02 2.0849383754e+00 -3.6112191969e+00 2.0849383754e+00 3.6112191969e+00 
17800 5.4306712296e+00 -2.9194579986e-02 2.0856416628e+00 -3.6124373263e+00 2.0856416628e+00 3.6124373263e+00 
17900 5.4306005973e+00 -2.9052012327e-02 2.0863415963e+00 -3.6136496468e+00 2.0863415963e+00 3.6136496468e+00 
18000 5.4305320383e+00 -2.8897326438e-02 2.0870378780e+00 -3.6148556420e+00 2.0870378780e+00 3.6148556420e+00 
18100 5.4304654926e+00 -2.8731011433e-02 2.0877302210e+00 -3.6160548153e+00 2.0877302210e+00 3.6160548153e+00 
18200 5.4304008897e+00 -2.8553580219e-02 2.0884183509e+00 -3.6172466912e+00 2.0884183509e+00 3.6172466912e+00 
18300 5.4303381494e+00 -2.8365566908e-02 2.0891020055e+00 -3.6184308157e+00 2.0891020055e+00 3.6184308157e+00 
18400 5.4302771839e+00 -2.8167524246e-02 2.0897809360e+00 -3.6196067579e+00 2.0897809360e+00 3.6196067579e+00 
18500 5.4302178995e+00 -2.7960021087e-02 2.0904549071e+00 -3.6207741100e+00 2.0904549071e+00 3.6207741100e+00 
18600 5.4301601975e+00 -2.7743639884e-02 2.0911236972e+00 -3.6219324885e+00 2.0911236972e+00 3.6219324885e+00 
18700 5.4301039762e+00 -2.7518974245e-02 2.0917870991e+00 -3.6230815342e+00 2.0917870991e+00 3.6230815342e+00 
18800 5.4300491321e+00 -2.7286626530e-02 2.0924449197e+00 -3.6242209130e+00 2.0924449197e+00 3.6242209130e+00 
18900 5.4299955611e+00 -2.7047205516e-02 2.0930969809e+00 -3.6253503162e+00 2.0930969809e+00 3.6253503162e+00 
19000 5.4299431600e+00 -2.6801324121e-02 2.0937431191e+00 -3.6264694603e+00 2.0937431191e+00 3.6264694603e+00 
19100 5.4298918275e+00 -2.6549597209e-02 2.0943831854e+00 -3.6275780877e+00 2.0943831854e+00 3.6275780877e+00 
19200 5.4298414650e+00 -2.6292639462e-02 2.0950170459e+00 -3.6286759663e+00 2.0950170459e+00 3.6286759663e+00 
19300 5.4297919779e+00 -2.6031063344e-02 2.0956445814e+00 -3.6297628897e+00 2.0956445814e+00 3.6297628897e+00 
19400 5.4297432763e+00 -2.5765477143e-02 2.0962656874e+00 -3.6308386768e+00 2.0962656874e+00 3.6308386768e+00 
19500 5.4296952754e+00 -2.5496483104e-02 2.0968802740e+00 -3.6319031720e+00 2.0968802740e+00 3.6319031720e+00 
19600 5.4296478965e+00 -2.5224675656e-02 2.0974882657e+00 -3.6329562445e+00 2.0974882657e+00 3.6329562445e+00 
19700 5.4296010674e+00 -2.4950639731e-02 2.0980896011e+00 -3.6339977880e+00 2.0980896011e+00 3.6339977880e+00 
19800 5.4295547222e+00 -2.4674949180e-02 2.0986842330e+00 -3.6350277206e+00 2.0986842330e+00 3.6350277206e+00 
19900 5.4295088023e+00 -2.4398165285e-02 2.0992721276e+00 -3.6360459838e+00 2.0992721276e+00 3.6360459838e+00 
20000 5.4294632562e+00 -2.4120835373e-02 2.0998532645e+00 -3.6370525425e+00 2.0998532645e+00 3.6370525425e+00 
20100 5.4294180394e+00 -2.3843491523e-02 2.1004276364e+00 -3.6380473838e+00 2.1004276364e+00 3.6380473838e+00 
20200 5.4293731146e+00 -2.3566649382e-02 2.1009952485e+00 -3.6390305169e+00 2.1009952485e+00 3.6390305169e+00 
20300 5.4293284514e+00 -2.3290807064e-02 2.1015561184e+00 -3.6400019720e+00 2.1015561184e+00 3.6400019720e+00 
20400 5.4292840262e+00 -2.3016444166e-02 2.1021102751e+00 -3.6409617996e+00 2.1021102751e+00 3.6409617996e+00 
20500 5.4292398219e+00 -2.2744020866e-02 2.1026577593e+00 -3.6419100701e+00 2.1026577593e+00 3.6419100701e+00 
20600 5.4291958274e+00 -2.2473977127e-02 2.1031986223e+00 -3.6428468723e+00 2.1031986223e+00 3.6428468723e+00 
20700 5.4291520374e+00 -2.2206731988e-02 2.1037329258e+00 -3.6437723131e+00 2.1037329258e+00 3.6437723131e+00 
20800 5.4291084522e+00 -2.1942682957e-02 2.1042607414e+00 -3.6446865165e+00 2.1042607414e+00 3.6446865165e+00 
20900 5.4290650765e+00 -2.1682205485e-02 2.1047821499e+00 -3.6455896225e+00 2.1047821499e+00 3.6455896225e+00 
21000 5.4290219197e+00 -2.1425652541e-02 2.1052972410e+00 -3.6464817864e+00 2.1052972410e+00 3.6464817864e+00 
21100 5.4289789948e+00 -2.1173354260e-02 2.1058061125e+00 -3.6473631777e+00 2.1058061125e+00 3.6473631777e+00 
21200 5.4289363183e+00 -2.0925617685e-02 2.1063088700e+00 -3.6482339793e+00 2.1063088700e+00 3.6482339793e+00 
21300 5.4288939093e+00 -2.0682726593e-02 2.1068056262e+00 -3.6490943863e+00 2.1068056262e+00 3.6490943863e+00 
21400 5.4288517894e+00 -2.0444941387e-02 2.1072965004e+00 -3.6499446053e+00 2.1072965004e+00 3.6499446053e+00 
21500 5.4288099818e+00 -2.0212499081e-02 2.1077816178e+00 -3.6507848533e+00 2.1077816178e+00 3.6507848533e+00 
21600 5.4287685110e+00 -1.9985613344e-02 2.1082611093e+00 -3.6516153569e+00 2.1082611093e+00 3.6516153569e+00 
21700 5.4287274022e+00 -1.9764474627e-02 2.1087351104e+00 -3.6524363509e+00 2.1087351104e+00 3.6524363509e+00 
21800 5.4286866811e+00 -1.9549250346e-02 2.1092037611e+00 -3.6532480778e+00 2.1092037611e+00 3.6532480778e+00 
21900 5.4286463730e+00 -1.9340085139e-02 2.1096672054e+00 -3.6540507868e+00 2.1096672054e+00 3.6540507868e+00 
22000 5.4286065029e+00 -1.9137101179e-02 2.1101255901e+00 -3.6548447324e+00 2.1101255901e+00 3.6548447324e+00 
22100 5.4285670950e+00 -1.8940398545e-02 2.1105790652e+00 -3.6556301743e+00 2.1105790652e+00 3.6556301743e+00 
22200 5.4285281721e+00 -1.8750055655e-02 2.1110277825e+00 -3.6564073755e+00 2.1110277825e+00 3.6564073755e+00 
22300 5.4284897558e+00 -1.8566129740e-02 2.1114718959e+00 -3.6571766024e+00 2.1114718959e+00 3.6571766024e+00 
22400 5.4284518657e+00 -1.8388657376e-02 2.1119115601e+00 -3.6579381233e+00 2.1119115601e+00 3.6579381233e+00 
22500 5.4284145197e+00 -1.8217655055e-02 2.1123469309e+00 -3.6586922075e+00 2.1123469309e+00 3.6586922075e+00 
22600 5.4283777334e+00 -1.8053119804e-02 2.1127781639e+00 -3.6594391250e+00 2.1127781639e+00 3.6594391250e+00 
22700 5.4283415205e+00 -1.7895029838e-02 2.1132054148e+00 -3.6601791452e+00 2.1132054148e+00 3.6601791452e+00 
22800 5.4283058920e+00 -1.7743345249e-02 2.1136288385e+00 -3.6609125367e+00 2.1136288385e+00 3.6609125367e+00 
22900 5.4282708568e+00 -1.7598008733e-02 2.1140485890e+00 -3.6616395658e+00 2.1140485890e+00 3.6616395658e+00 
23000 5.4282364214e+00 -1.7458946341e-02 2.1144648184e+00 -3.6623604963e+00 2.1144648184e+00 3.6623604963e+00 
23100 5.4282025897e+00 -1.7326068256e-02 2.1148776774e+00 -3.6630755890e+00 2.1148776774e+00 3.6630755890e+00 
23200 5.4281693636e+00 -1.7199269596e-02 2.1152873140e+00 -3.6637851005e+00 2.1152873140e+00 3.6637851005e+00 
23300 5.4281367425e+00 -1.7078431237e-02 2.1156938739e+00 -3.6644892829e+00 2.1156938739e+00 3.6644892829e+00 
23400 5.4281047236e+00 -1.6963420646e-02 2.1160974998e+00 -3.6651883834e+00 2.1160974998e+00 3.6651883834e+00 
23500 5.4280733022e+00 -1.6854092744e-02 2.1164983309e+00 -3.6658826433e+00 2.1164983309e+00 3.6658826433e+00 
23600 5.4280424715e+00 -1.6750290756e-02 2.1168965032e+00 -3.6665722980e+00 2.1168965032e+00 3.6665722980e+00 
23700 5.4280122231e+00 -1.6651847093e-02 2.1172921488e+00 -3.6672575761e+00 2.1172921488e+00 3.6672575761e+00 
23800 5.4279825469e+00 -1.6558584224e-02 2.1176853954e+00 -3.6679386994e+00 2.1176853954e+00 3.6679386994e+00 
23900 5.4279534312e+00 -1.6470315554e-02 2.1180763670e+00 -3.6686158819e+00 2.1180763670e+00 3.6686158819e+00 
24000 5.4279248633e+00 -1.6386846302e-02 2.1184651825e+00 -3.6692893301e+00 2.1184651825e+00 3.6692893301e+00 
24100 5.4278968292e+00 -1.6307974381e-02 2.1188519565e+00 -3.6699592423e+00 2.1188519565e+00 3.6699592423e+00 
24200 5.4278693141e+00 -1.6233491264e-02 2.1192367986e+00 -3.6706258084e+00 2.1192367986e+00 3.6706258084e+00 
24300 5.4278423025e+00 -1.6163182843e-02 2.1196198133e+00 -3.6712892094e+00 2.1196198133e+00 3.6712892094e+00 
24400 5.4278157782e+00 -1.6096830290e-02 2.1200011003e+00 -3.6719496178e+00 2.1200011003e+00 3.6719496178e+00 
24500 5.4277897248e+00 -1.6034210885e-02 2.1203807536e+00 -3.6726071967e+00 2.1203807536e+00 3.6726071967e+00 
24600 5.4277641258e+00 -1.5975098847e-02 2.1207588623e+00 -3.6732621001e+00 2.1207588623e+00 3.6732621001e+00 
24700 5.4277389643e+00 -1.5919266141e-02 2.1211355098e+00 -3.6739144728e+00 2.1211355098e+00 3.6739144728e+00 
24800 5.4277142238e+00 -1.5866483262e-02 2.1215107743e+00 -3.6745644499e+00 2.1215107743e+00 3.6745644499e+00 
24900 5.4276898882e+00 -1.5816520006e-02 2.1218847283e+00 -3.6752121573e+00 2.1218847283e+00 3.6752121573e+00 
25000 5.4276659413e+00 -1.5769146216e-02 2.1222574390e+00 -3.6758577111e+00 2.1222574390e+00 3.6758577111e+00 
25100 5.4276423678e+00 -1.5724132500e-02 2.1226289681e+00 -3.6765012183e+00 2.1226289681e+00 3.6765012183e+00 
25200 5.4276191530e+00 -1.5681250929e-02 2.1229993717e+00 -3.6771427763e+00 2.1229993717e+00 3.6771427763e+00 
25300 5.4275962825e+00 -1.5640275706e-02 2.1233687007e+00 -3.6777824729e+00 2.1233687007e+00 3.6777824729e+00 
25400 5.4275737432e+00 -1.5600983804e-02 2.1237370006e+00 -3.6784203869e+00 2.1237370006e+00 3.6784203869e+00 
25500 5.4275515223e+00 -1.5563155580e-02 2.1241043115e+00 -3.6790565880e+00 2.1241043115e+00 3.6790565880e+00 
25600 5.4275296083e+00 -1.5526575351e-02 2.1244706683e+00 -3.6796911367e+00 2.1244706683e+00 3.6796911367e+00 
25700 5.4275079902e+00 -1.5491031950e-02 2.1248361010e+00 -3.6803240847e+00 2.1248361010e+00 3.6803240847e+00 
25800 5.4274866583e+00 -1.5456319239e-02 2.1252006344e+00 -3.6809554750e+00 2.1252006344e+00 3.6809554750e+00 
25900 5.4274656035e+00 -1.5422236594e-02 2.1255642885e+00 -3.6815853425e+00 2.1255642885e+00 3.6815853425e+00 
26000 5.4274448178e+00 -1.5388589358e-02 2.1259270787e+00 -3.6822137134e+00 2.1259270787e+00 3.6822137134e+00 
26100 5.4274242939e+00 -1.5355189255e-02 2.1262890155e+00 -3.6828406064e+00 2.1262890155e+00 3.6828406064e+00 
26200 5.4274040257e+00 -1.5321854782e-02 2.1266501052e+00 -3.6834660322e+00 2.1266501052e+00 3.6834660322e+00 
26300 5.4273840077e+00 -1.5288411549e-02 2.1270103499e+00 -3.6840899943e+00 2.1270103499e+00 3.6840899943e+00 
26400 5.4273642352e+00 -1.5254692602e-02 2.1273697474e+00 -3.6847124889e+00 2.1273697474e+00 3.6847124889e+00 
26500 5.4273447044e+00 -1.5220538700e-02 2.1277282915e+00 -3.6853335057e+00 2.1277282915e+00 3.6853335057e+00 
26600 5.4273254120e+00 -1.5185798568e-02 2.1280859727e+00 -3.6859530275e+00 2.1280859727e+00 3.6859530275e+00 
26700 5.4273063555e+00 -1.5150329104e-02 2.1284427774e+00 -3.6865710315e+00 2.1284427774e+00 3.6865710315e+00 
26800 5.4272875329e+00 -1.5113995566e-02 2.1287986890e+00 -3.6871874885e+00 2.1287986890e+00 3.6871874885e+00 
26900 5.4272689428e+00 -1.5076671719e-02 2.1291536878e+00 -3.6878023643e+00 2.1291536878e+00 3.6878023643e+00 
27000 5.4272505841e+00 -1.5038239945e-02 2.1295077507e+00 -3.6884156194e+00 2.1295077507e+00 3.6884156194e+00 
27100 5.4272324563e+00 -1.4998591337e-02 2.1298608524e+00 -3.6890272094e+00 2.1298608524e+00 3.6890272094e+00 
27200 5.4272145590e+00 -1.4957625745e-02 2.1302129647e+00 -3.6896370858e+00 2.1302129647e+00 3.6896370858e+00 
27300 5.4271968922e+00 -1.4915251800e-02 2.1305640572e+00 -3.6902451959e+00 2.1305640572e+00 3.6902451959e+00 
27400 5.4271794560e+00 -1.4871386914e-02 2.1309140974e+00 -3.6908514833e+00 2.1309140974e+00 3.6908514833e+00 
27500 5.4271622508e+00 -1.4825957239e-02 2.1312630508e+00 -3.6914558882e+00 2.1312630508e+00 3.6914558882e+00 
27600 5.4271452768e+00 -1.4778897610e-02 2.1316108811e+00 -3.6920583481e+00 2.1316108811e+00 3.6920583481e+00 
27700 5.4271285345e+00 -1.4730151458e-02 2.1319575508e+00 -3.6926587976e+00 2.1319575508e+00 3.6926587976e+00 
27800 5.4271120242e+00 -1.4679670696e-02 2.1323030209e+00 -3.6932571693e+00 2.1323030209e+00 3.6932571693e+00 
27900 5.4270957462e+00 -1.4627415588e-02 2.1326472512e+00 -3.6938533936e+00 2.1326472512e+00 3.6938533936e+00 
28000 5.4270797008e+00 -1.4573354583e-02 2.1329902007e+00 -3.6944473996e+00 2.1329902007e+00 3.6944473996e+00 
28100 5.4270638878e+00 -1.4517464144e-02 2.1333318278e+00 -3.6950391151e+00 2.1333318278e+00 3.6950391151e+00 
28200 5.4270483073e+00 -1.4459728543e-02 2.1336720901e+00 -3.6956284668e+00 2.1336720901e+00 3.6956284668e+00 
28300 5.4270329589e+00 -1.4400139646e-02 2.1340109452e+00 -3.6962153809e+00 2.1340109452e+00 3.6962153809e+00 
28400 5.4270178419e+00 -1.4338696676e-02 2.1343483502e+00 -3.6967997835e+00 2.1343483502e+00 3.6967997835e+00 
28500 5.4270029557e+00 -1.4275405965e-02 2.1346842623e+00 -3.6973816005e+00 2.1346842623e+00 3.6973816005e+00 
28600 5.4269882992e+00 -1.4210280684e-02 2.1350186392e+00 -3.6979607581e+00 2.1350186392e+00 3.6979607581e+00 
28700 5.4269738710e+00 -1.4143340567e-02 2.1353514384e+00 -3.6985371833e+00 2.1353514384e+00 3.6985371833e+00 
28800 5.4269596697e+00 -1.4074611621e-02 2.1356826182e+00 -3.6991108035e+00 2.1356826182e+00 3.6991108035e+00 
28900 5.4269456934e+00 -1.4004125822e-02 2.1360121375e+00 -3.6996815477e+00 2.1360121375e+00 3.6996815477e+00 
29000 5.4269319401e+00 -1.3931920806e-02 2.1363399559e+00 -3.7002493459e+00 2.1363399559e+00 3.7002493459e+00 
29100 5.4269184074e+00 -1.3858039552e-02 2.1366660341e+00 -3.7008141298e+00 2.1366660341e+00 3.7008141298e+00 
29200 5.4269050929e+00 -1.3782530057e-02 2.1369903335e+00 -3.7013758329e+00 2.1369903335e+00 3.7013758329e+00 
29300 5.4268919938e+00 -1.3705445006e-02 2.1373128168e+00 -3.7019343904e+00 2.1373128168e+00 3.7019343904e+00 
29400 5.4268791072e+00 -1.3626841436e-02 2.1376334481e+00 -3.7024897401e+00 2.1376334481e+00 3.7024897401e+00 
29500 5.4268664300e+00 -1.3546780403e-02 2.1379521927e+00 -3.7030418219e+00 2.1379521927e+00 3.7030418219e+00 
29600 5.4268539587e+00 -1.3465326644e-02 2.1382690172e+00 -3.7035905781e+00 2.1382690172e+00 3.7035905781e+00 
29700 5.4268416901e+00 -1.3382548237e-02 2.1385838901e+00 -3.7041359539e+00 2.1385838901e+00 3.7041359539e+00 
29800 5.4268296206e+00 -1.3298516264e-02 2.1388967811e+00 -3.7046778971e+00 2.1388967811e+00 3.7046778971e+00 
29900 5.4268177466e+00 -1.3213304475e-02 2.1392076619e+00 -3.7052163584e+00 2.1392076619e+00 3.7052163584e+00 
30000 5.4268060642e+00 -1.3126988958e-02 2.1395165058e+00 -3.7057512916e+00 2.1395165058e+00 3.7057512916e+00 
30100 5.4267945698e+00 -1.3039647808e-02 2.1398232877e+00 -3.7062826536e+00 2.1398232877e+00 3.7062826536e+00 
30200 5.4267832596e+00 -1.2951360803e-02 2.1401279848e+00 -3.7068104044e+00 2.1401279848e+00 3.7068104044e+00 
30300 5.4267721296e+00 -1.2862209088e-02 2.1404305757e+00 -3.7073345072e+00 2.1404305757e+00 3.7073345072e+00 
30400 5.4267611762e+00 -1.2772274862e-02 2.1407310412e+00 -3.7078549287e+00 2.1407310412e+00 3.7078549287e+00 
30500 5.4267503954e+00 -1.2681641073e-02 2.1410293639e+00 -3.7083716387e+00 2.1410293639e+00 3.7083716387e+00 
30600 5.4267397837e+00 -1.2590391125e-02 2.1413255283e+00 -3.7088846105e+00 2.1413255283e+00 3.7088846105e+00 
30700 5.4267293373e+00 -1.2498608588e-02 2.1416195209e+00 -3.7093938207e+00 2.1416195209e+00 3.7093938207e+00 
30800 5.4267190525e+00 -1.2406376921e-02 2.1419113303e+00 -3.7098992493e+00 2.1419113303e+00 3.7098992493e+00 
30900 5.4267089259e+00 -1.2313779207e-02 2.1422009467e+00 -3.7104008798e+00 2.1422009467e+00 3.7104008798e+00 
31000 5.4266989541e+00 -1.2220897890e-02 2.1424883627e+00 -3.7108986988e+00 2.1424883627e+00 3.7108986988e+00 
31100 5.4266891338e+00 -1.2127814538e-02 2.1427735724e+00 -3.7113926965e+00 2.1427735724e+00 3.7113926965e+00 
31200 5.4266794616e+00 -1.2034609598e-02 2.1430565720e+00 -3.7118828662e+00 2.1430565720e+00 3.7118828662e+00 
31300 5.4266699347e+00 -1.1941362181e-02 2.1433373596e+00 -3.7123692045e+00 2.1433373596e+00 3.7123692045e+00 
31400 5.4266605500e+00 -1.1848149847e-02 2.1436159349e+00 -3.7128517112e+00 2.1436159349e+00 3.7128517112e+00 
31500 5.4266513047e+00 -1.1755048409e-02 2.1438922998e+00 -3.7133303893e+00 2.1438922998e+00 3.7133303893e+00 
31600 5.4266421961e+00 -1.1662131746e-02 2.1441664577e+00 -3.7138052447e+00 2.1441664577e+00 3.7138052447e+00 
31700 5.4266332217e+00 -1.1569471632e-02 2.1444384137e+00 -3.7142762862e+00 2.1444384137e+00 3.7142762862e+00 
31800 5.4266243790e+00 -1.1477137571e-02 2.1447081746e+00 -3.7147435259e+00 2.1447081746e+00 3.7147435259e+00 
31900 5.4266156658e+00 -1.1385196656e-02 2.1449757490e+00 -3.7152069782e+00 2.1449757490e+00 3.7152069782e+00 
32000 5.4266070798e+00 -1.1293713431e-02 2.1452411466e+00 -3.7156666604e+00 2.1452411466e+00 3.7156666604e+00 
32100 5.4265986191e+00 -1.1202749769e-02 2.1455043791e+00 -3.7161225925e+00 2.1455043791e+00 3.7161225925e+00 
32200 5.4265902817e+00 -1.1112364769e-02 2.1457654594e+00 -3.7165747968e+00 2.1457654594e+00 3.7165747968e+00 
32300 5.4265820656e+00 -1.1022614653e-02 2.1460244017e+00 -3.7170232980e+00 2.1460244017e+00 3.7170232980e+00 
32400 5.4265739693e+00 -1.0933552688e-02 2.1462812216e+00 -3.7174681231e+00 2.1462812216e+00 3.7174681231e+00 
32500 5.4265659910e+00 -1.0845229115e-02 2.1465359358e+00 -3.7179093011e+00 2.1465359358e+00 3.7179093011e+00 
32600 5.4265581292e+00 -1.0757691089e-02 2.1467885624e+00 -3.7183468632e+00 2.1467885624e+00 3.7183468632e+00 
32700 5.4265503824e+00 -1.0670982632e-02 2.1470391204e+00 -3.7187808424e+00 2.1470391204e+00 3.7187808424e+00 
32800 5.4265427493e+00 -1.0585144604e-02 2.1472876298e+00 -3.7192112733e+00 2.1472876298e+00 3.7192112733e+00 
32900 5.4265352283e+00 -1.0500214674e-02 2.1475341116e+00 -3.7196381924e+00 2.1475341116e+00 3.7196381924e+00 
33000 5.4265278183e+00 -1.0416227309e-02 2.1477785877e+00 -3.7200616373e+00 2.1477785877e+00 3.7200616373e+00 
33100 5.4265205180e+00 -1.0333213778e-02 2.1480210807e+00 -3.7204816474e+00 2.1480210807e+00 3.7204816474e+00 
33200 5.4265133261e+00 -1.0251202154e-02 2.1482616138e+00 -3.7208982631e+00 2.1482616138e+00 3.7208982631e+00 
33300 5.4265062415e+00 -1.0170217338e-02 2.1485002112e+00 -3.7213115259e+00 2.1485002112e+00 3.7213115259e+00 
33400 5.4264992630e+00 -1.0090281086e-02 2.1487368973e+00 -3.7217214783e+00 2.1487368973e+00 3.7217214783e+00 
33500 5.4264923895e+00 -1.0011412048e-02 2.1489716973e+00 -3.7221281637e+00 2.1489716973e+00 3.7221281637e+00 
33600 5.4264856198e+00 -9.9336258146e-03 2.1492046364e+00 -3.7225316261e+00 2.1492046364e+00 3.7225316261e+00 
33700 5.4264789528e+00 -9.8569349710e-03 2.1494357406e+00 -3.7229319103e+00 2.1494357406e+00 3.7229319103e+00 
33800 5.4264723873e+00 -9.7813491607e-03 2.1496650359e+00 -3.7233290614e+00 2.1496650359e+00 3.7233290614e+00 
33900 5.4264659223e+00 -9.7068751549e-03 2.1498925486e+00 -3.7237231250e+00 2.1498925486e+00 3.7237231250e+00 
34000 5.4264595565e+00 -9.6335169302e-03 2.1501183051e+00 -3.7241141467e+00 2.1501183051e+00 3.7241141467e+00 
34100 5.4264532889e+00 -9.5612757511e-03 2.1503423320e+00 -3.7245021726e+00 2.1503423320e+00 3.7245021726e+00 
34200 5.4264471182e+00 -9.4901502596e-03 2.1505646556e+00 -3.7248872485e+00 2.1505646556e+00 3.7248872485e+00 
34300 5.4264410433e+00 -9.4201365694e-03 2.1507853026e+00 -3.7252694203e+00 2.1507853026e+00 3.7252694203e+00 
34400 5.4264350630e+00 -9.3512283655e-03 2.1510042993e+00 -3.7256487337e+00 2.1510042993e+00 3.7256487337e+00 
34500 5.4264291761e+00 -9.2834170076e-03 2.1512216718e+00 -3.7260252340e+00 2.1512216718e+00 3.7260252340e+00 
34600 5.4264233813e+00 -9.2166916379e-03 2.1514374463e+00 -3.7263989662e+00 2.1514374463e+00 3.7263989662e+00 
34700 5.4264176775e+00 -9.1510392919e-03 2.1516516483e+00 -3.7267699750e+00 2.1516516483e+00 3.7267699750e+00 
34800 5.4264120633e+00 -9.0864450124e-03 2.1518643033e+00 -3.7271383043e+00 2.1518643033e+00 3.7271383043e+00 
34900 5.4264065376e+00 -9.0228919662e-03 2.1520754363e+00 -3.7275039975e+00 2.1520754363e+00 3.7275039975e+00 
35000 5.4264010990e+00 -8.9603615617e-03 2.1522850721e+00 -3.7278670972e+00 2.1522850721e+00 3.7278670972e+00 
35100 5.4263957462e+00 -8.8988335696e-03 2.1524932347e+00 -3.7282276454e+00 2.1524932347e+00 3.7282276454e+00 
35200 5.4263904779e+00 -8.8382862431e-03 2.1526999479e+00 -3.7285856832e+00 2.1526999479e+00 3.7285856832e+00 
35300 5.4263852929e+00 -8.7786964403e-03 2.1529052349e+00 -3.7289412508e+00 2.1529052349e+00 3.7289412508e+00 
35400 5.4263801898e+00 -8.7200397452e-03 2.1531091184e+00 -3.7292943873e+00 2.1531091184e+00 3.7292943873e+00 
35500 5.4263751673e+00 -8.6622905904e-03 2.1533116203e+00 -3.7296451310e+00 2.1533116203e+00 3.7296451310e+00 
35600 5.4263702241e+00 -8.6054223774e-03 2.1535127623e+00 -3.7299935190e+00 2.1535127623e+00 3.7299935190e+00 
35700 5.4263653589e+00 -8.5494075973e-03 2.1537125650e+00 -3.7303395875e+00 2.1537125650e+00 3.7303395875e+00 
35800 5.4263605703e+00 -8.4942179493e-03 2.1539110488e+00 -3.7306833715e+00 2.1539110488e+00 3.7306833715e+00 
35900 5.4263558572e+00 -8.4398244587e-03 2.1541082330e+00 -3.7310249046e+00 2.1541082330e+00 3.7310249046e+00 
36000 5.4263512181e+00 -8.3861975916e-03 2.1543041367e+00 -3.7313642197e+00 2.1543041367e+00 3.7313642197e+00 
36100 5.4263466519e+00 -8.3333073683e-03 2.1544987778e+00 -3.7317013480e+00 2.1544987778e+00 3.7317013480e+00 
36200 5.4263421573e+00 -8.2811234737e-03 2.1546921739e+00 -3.7320363198e+00 2.1546921739e+00 3.7320363198e+00 
36300 5.4263377330e+00 -8.2296153651e-03 2.1548843416e+00 -3.7323691641e+00 2.1548843416e+00 3.7323691641e+00 
36400 5.4263333778e+00 -8.1787523770e-03 2.1550752970e+00 -3.7326999086e+00 2.1550752970e+00 3.7326999086e+00 
36500 5.4263290905e+00 -8.1285038219e-03 2.1552650554e+00 -3.7330285798e+00 2.1552650554e+00 3.7330285798e+00 
36600 5.4263248699e+00 -8.0788390887e-03 2.1554536314e+00 -3.7333552029e+00 2.1554536314e+00 3.7333552029e+00 
36700 5.4263207149e+00 -8.0297277366e-03 2.1556410387e+00 -3.7336798019e+00 2.1556410387e+00 3.7336798019e+00 
36800 5.4263166244e+00 -7.9811395851e-03 2.1558272906e+00 -3.7340023996e+00 2.1558272906e+00 3.7340023996e+00 
36900 5.4263125971e+00 -7.9330448003e-03 2.1560123994e+00 -3.7343230175e+00 2.1560123994e+00 3.7343230175e+00 
37000 5.4263086322e+00 -7.8854139768e-03 2.1561963769e+00 -3.7346416760e+00 2.1561963769e+00 3.7346416760e+00 
37100 5.4263047284e+00 -7.8382182153e-03 2.1563792343e+00 -3.7349583941e+00 2.1563792343e+00 3.7349583941e+00 
37200 5.4263008848e+00 -7.7914291962e-03 2.1565609817e+00 -3.7352731899e+00 2.1565609817e+00 3.7352731899e+00 
37300 5.4262971004e+00 -7.7450192474e-03 2.1567416290e+00 -3.7355860802e+00 2.1567416290e+00 3.7355860802e+00 
37400 5.4262933741e+00 -7.6989614096e-03 2.1569211852e+00 -3.7358970807e+00 2.1569211852e+00 3.7358970807e+00 
37500 5.4262897051e+00 -7.6532294949e-03 2.1570996587e+00 -3.7362062059e+00 2.1570996587e+00 3.7362062059e+00 
37600 5.4262860924e+00 -7.6077981420e-03 2.1572770575e+00 -3.7365134695e+00 2.1572770575e+00 3.7365134695e+00 
37700 5.4262825352e+00 -7.5626428667e-03 2.1574533886e+00 -3.7368188840e+00 2.1574533886e+00 3.7368188840e+00 
37800 5.4262790325e+00 -7.5177401070e-03 2.1576286588e+00 -3.7371224609e+00 2.1576286588e+00 3.7371224609e+00 
37900 5.4262755834e+00 -7.4730672641e-03 2.1578028741e+00 -3.7374242107e+00 2.1578028741e+00 3.7374242107e+00 
38000 5.4262721873e+00 -7.4286027390e-03 2.1579760403e+00 -3.7377241433e+00 2.1579760403e+00 3.7377241433e+00 
38100 5.4262688432e+00 -7.3843259638e-03 2.1581481622e+00 -3.7380222672e+00 2.1581481622e+00 3.7380222672e+00 
38200 5.4262655504e+00 -7.3402174290e-03 2.1583192446e+00 -3.7383185907e+00 2.1583192446e+00 3.7383185907e+00 
38300 5.4262623081e+00 -7.2962587065e-03 2.1584892916e+00 -3.7386131207e+00 2.1584892916e+00 3.7386131207e+00 
38400 5.4262591156e+00 -7.2524324675e-03 2.1586583069e+00 -3.7389058638e+00 2.1586583069e+00 3.7389058638e+00 
38500 5.4262559721e+00 -7.2087224970e-03 2.1588262938e+00 -3.7391968256e+00 2.1588262938e+00 3.7391968256e+00 
38600 5.4262528769e+00 -7.1651137034e-03 2.1589932553e+00 -3.7394860113e+00 2.1589932553e+00 3.7394860113e+00 
38700 5.4262498294e+00 -7.1215921247e-03 2.1591591938e+00 -3.7397734254e+00 2.1591591938e+00 3.7397734254e+00 
38800 5.4262468288e+00 -7.0781449301e-03 2.1593241118e+00 -3.7400590717e+00 2.1593241118e+00 3.7400590717e+00 
38900 5.4262438745e+00 -7.0347604187e-03 2.1594880111e+00 -3.7403429536e+00 2.1594880111e+00 3.7403429536e+00 
39000 5.4262409659e+00 -6.9914280132e-03 2.1596508934e+00 -3.7406250741e+00 2.1596508934e+00 3.7406250741e+00 
39100 5.4262381022e+00 -6.9481382516e-03 2.1598127602e+00 -3.7409054356e+00 2.1598127602e+00 3.7409054356e+00 
39200 5.4262352828e+00 -6.9048827746e-03 2.1599736127e+00 -3.7411840402e+00 2.1599736127e+00 3.7411840402e+00 
39300 5.4262325071e+00 -6.8616543100e-03 2.1601334519e+00 -3.7414608898e+00 2.1601334519e+00 3.7414608898e+00 
39400 5.4262297746e+00 -6.8184466539e-03 2.1602922786e+00 -3.7417359858e+00 2.1602922786e+00 3.7417359858e+00 
39500 5.4262270845e+00 -6.7752546499e-03 2.1604500936e+00 -3.7420093293e+00 2.1604500936e+00 3.7420093293e+00 
39600 5.4262244363e+00 -6.7320741644e-03 2.1606068974e+00 -3.7422809215e+00 2.1606068974e+00 3.7422809215e+00 
39700 5.4262218294e+00 -6.6889020600e-03 2.1607626906e+00 -3.7425507632e+00 2.1607626906e+00 3.7425507632e+00 
39800 5.4262192631e+00 -6.6457361670e-03 2.1609174735e+00 -3.7428188550e+00 2.1609174735e+00 3.7428188550e+00 
39900 5.4262167370e+00 -6.6025752518e-03 2.1610712464e+00 -3.7430851976e+00 2.1610712464e+00 3.7430851976e+00 
40000 5.4262142503e+00 -6.5594189837e-03 2.1612240099e+00 -3.7433497916e+00 2.1612240099e+00 3.7433497916e+00 
40100 5.4262118027e+00 -6.5162679007e-03 2.1613757641e+00 -3.7436126376e+00 2.1613757641e+00 3.7436126376e+00 
40200 5.4262093934e+00 -6.4731233723e-03 2.1615265093e+00 -3.7438737361e+00 2.1615265093e+00 3.7438737361e+00 
40300 5.4262070219e+00 -6.4299875616e-03 2.1616762461e+00 -3.7441330877e+00 2.1616762461e+00 3.7441330877e+00 
40400 5.4262046876e+00 -6.3868633865e-03 2.1618249747e+00 -3.7443906932e+00 2.1618249747e+00 3.7443906932e+00 
40500 5.4262023901e+00 -6.3437544791e-03 2.1619726956e+00 -3.7446465533e+00 2.1619726956e+00 3.7446465533e+00 
40600 5.4262001286e+00 -6.3006651443e-03 2.1621194094e+00 -3.7449006692e+00 2.1621194094e+00 3.7449006692e+00 
40700 5.4261979028e+00 -6.2576003184e-03 2.1622651168e+00 -3.7451530418e+00 2.1622651168e+00 3.7451530418e+00 
40800 5.4261957120e+00 -6.2145655258e-03 2.1624098186e+00 -3.7454036725e+00 2.1624098186e+00 3.7454036725e+00 
40900 5.4261935557e+00 -6.1715668365e-03 2.1625535155e+00 -3.7456525630e+00 2.1625535155e+00 3.7456525630e+00 
41000 5.4261914334e+00 -6.1286108229e-03 2.1626962087e+00 -3.7458997149e+00 2.1626962087e+00 3.7458997149e+00 
41100 5.4261893445e+00 -6.0857045161e-03 2.1628378994e+00 -3.7461451303e+00 2.1628378994e+00 3.7461451303e+00 
41200 5.4261872886e+00 -6.0428553628e-03 2.1629785889e+00 -3.7463888116e+00 2.1629785889e+00 3.7463888116e+00 
41300 5.4261852650e+00 -6.0000711821e-03 2.1631182787e+00 -3.7466307615e+00 2.1631182787e+00 3.7466307615e+00 
41400 5.4261832734e+00 -5.9573601227e-03 2.1632569705e+00 -3.7468709827e+00 2.1632569705e+00 3.7468709827e+00 
41500 5.4261813131e+00 -5.9147306204e-03 2.1633946662e+00 -3.7471094786e+00 2.1633946662e+00 3.7471094786e+00 
41600 5.4261793837e+00 -5.8721913565e-03 2.1635313678e+00 -3.7473462529e+00 2.1635313678e+00 3.7473462529e+00 
41700 5.4261774847e+00 -5.8297512162e-03 2.1636670777e+00 -3.7475813093e+00 2.1636670777e+00 3.7475813093e+00 
41800 5.4261756156e+00 -5.7874192490e-03 2.1638017984e+00 -3.7478146523e+00 2.1638017984e+00 3.7478146523e+00 
41900 5.4261737759e+00 -5.7452046284e-03 2.1639355324e+00 -3.7480462864e+00 2.1639355324e+00 3.7480462864e+00 
42000 5.4261719651e+00 -5.7031166140e-03 2.1640682827e+00 -3.7482762167e+00 2.1640682827e+00 3.7482762167e+00 
42100 5.4261701829e+00 -5.6611645139e-03 2.1642000525e+00 -3.7485044486e+00 2.1642000525e+00 3.7485044486e+00 
42200 5.4261684286e+00 -5.6193576489e-03 2.1643308450e+00 -3.7487309878e+00 2.1643308450e+00 3.7487309878e+00 
42300 5.4261667020e+00 -5.5777053169e-03 2.1644606637e+00 -3.7489558405e+00 2.1644606637e+00 3.7489558405e+00 
42400 5.4261650024e+00 -5.5362167599e-03 2.1645895124e+00 -3.7491790131e+00 2.1645895124e+00 3.7491790131e+00 
42500 5.4261633296e+00 -5.4949011315e-03 2.1647173951e+00 -3.7494005124e+00 2.1647173951e+00 3.7494005124e+00 
42600 5.4261616830e+00 -5.4537674662e-03 2.1648443160e+00 -3.7496203457e+00 2.1648443160e+00 3.7496203457e+00 
42700 5.4261600622e+00 -5.4128246498e-03 2.1649702793e+00 -3.7498385206e+00 2.1649702793e+00 3.7498385206e+00 
42800 5.4261584669e+00 -5.3720813922e-03 2.1650952897e+00 -3.7500550450e+00 2.1650952897e+00 3.7500550450e+00 
42900 5.4261568966e+00 -5.3315462010e-03 2.1652193520e+00 -3.7502699272e+00 2.1652193520e+00 3.7502699272e+00 
43000 5.4261553510e+00 -5.2912273565e-03 2.1653424711e+00 -3.7504831757e+00 2.1653424711e+00 3.7504831757e+00 
43100 5.4261538295e+00 -5.2511328896e-03 2.1654646522e+00 -3.7506947995e+00 2.1654646522e+00 3.7506947995e+00 
43200 5.4261523319e+00 -5.2112705595e-03 2.1655859005e+00 -3.7509048079e+00 2.1655859005e+00 3.7509048079e+00 
43300 5.4261508578e+00 -5.1716478351e-03 2.1657062218e+00 -3.7511132104e+00 2.1657062218e+00 3.7511132104e+00 
43400 5.4261494067e+00 -5.1322718760e-03 2.1658256215e+00 -3.7513200168e+00 2.1658256215e+00 3.7513200168e+00 
43500 5.4261479785e+00 -5.0931495171e-03 2.1659441056e+00 -3.7515252373e+00 2.1659441056e+00 3.7515252373e+00 
43600 5.4261465725e+00 -5.0542872532e-03 2.1660616801e+00 -3.7517288823e+00 2.1660616801e+00 3.7517288823e+00 
43700 5.4261451887e+00 -5.0156912265e-03 2.1661783511e+00 -3.7519309624e+00 2.1661783511e+00 3.7519309624e+00 
43800 5.4261438265e+00 -4.9773672149e-03 2.1662941250e+00 -3.7521314886e+00 2.1662941250e+00 3.7521314886e+00 
43900 5.4261424857e+00 -4.9393206224e-03 2.1664090081e+00 -3.7523304719e+00 2.1664090081e+00 3.7523304719e+00 
44000 5.4261411659e+00 -4.9015564709e-03 2.1665230069e+00 -3.7525279238e+00 2.1665230069e+00 3.7525279238e+00 
44100 5.4261398668e+00 -4.8640793935e-03 2.1666361283e+00 -3.7527238557e+00 2.1666361283e+00 3.7527238557e+00 
44200 5.4261385880e+00 -4.8268936292e-03 2.1667483788e+00 -3.7529182793e+00 2.1667483788e+00 3.7529182793e+00 
44300 5.4261373294e+00 -4.7900030200e-03 2.1668597654e+00 -3.7531112066e+00 2.1668597654e+00 3.7531112066e+00 
44400 5.4261360905e+00 -4.7534110078e-03 2.1669702950e+00 -3.7533026495e+00 2.1669702950e+00 3.7533026495e+00 
44500 5.4261348711e+00 -4.7171206342e-03 2.1670799747e+00 -3.7534926202e+00 2.1670799747e+00 3.7534926202e+00 
44600 5.4261336708e+00 -4.6811345409e-03 2.1671888115e+00 -3.7536811311e+00 2.1671888115e+00 3.7536811311e+00 
44700 5.4261324894e+00 -4.6454549718e-03 2.1672968125e+00 -3.7538681944e+00 2.1672968125e+00 3.7538681944e+00 
44800 5.4261313266e+00 -4.6100837755e-03 2.1674039850e+00 -3.7540538226e+00 2.1674039850e+00 3.7540538226e+00 
44900 5.4261301821e+00 -4.5750224106e-03 2.1675103363e+00 -3.7542380283e+00 2.1675103363e+00 3.7542380283e+00 
45000 5.4261290556e+00 -4.5402719503e-03 2.1676158735e+00 -3.7544208241e+00 2.1676158735e+00 3.7544208241e+00 
45100 5.4261279468e+00 -4.5058330892e-03 2.1677206039e+00 -3.7546022226e+00 2.1677206039e+00 3.7546022226e+00 
45200 5.4261268556e+00 -4.4717061514e-03 2.1678245350e+00 -3.7547822365e+00 2.1678245350e+00 3.7547822365e+00 
45300 5.4261257815e+00 -4.4378910981e-03 2.1679276739e+00 -3.7549608783e+00 2.1679276739e+00 3.7549608783e+00 
45400 5.4261247244e+00 -4.4043875378e-03 2.1680300280e+00 -3.7551381608e+00 2.1680300280e+00 3.7551381608e+00 
45500 5.4261236839e+00 -4.3711947361e-03 2.1681316046e+00 -3.7553140967e+00 2.1681316046e+00 3.7553140967e+00 
45600 5.4261226599e+00 -4.3383116271e-03 2.1682324109e+00 -3.7554886984e+00 2.1682324109e+00 3.7554886984e+00 
45700 5.4261216521e+00 -4.3057368247e-03 2.1683324543e+00 -3.7556619786e+00 2.1683324543e+00 3.7556619786e+00 
45800 5.4261206602e+00 -4.2734686355e-03 2.1684317419e+00 -3.7558339497e+00 2.1684317419e+00 3.7558339497e+00 
45900 5.4261196839e+00 -4.2415050712e-03 2.1685302809e+00 -3.7560046242e+00 2.1685302809e+00 3.7560046242e+00 
46000 5.4261187231e+00 -4.2098438627e-03 2.1686280784e+00 -3.7561740144e+00 2.1686280784e+00 3.7561740144e+00 
46100 5.4261177775e+00 -4.1784824734e-03 2.1687251415e+00 -3.7563421327e+00 2.1687251415e+00 3.7563421327e+00 
46200 5.4261168469e+00 -4.1474181141e-03 2.1688214772e+00 -3.7565089910e+00 2.1688214772e+00 3.7565089910e+00 
46300 5.4261159310e+00 -4.1166477573e-03 2.1689170924e+00 -3.7566746015e+00 2.1689170924e+00 3.7566746015e+00 
46400 5.4261150296e+00 -4.0861681521e-03 2.1690119941e+00 -3.7568389760e+00 2.1690119941e+00 3.7568389760e+00 
46500 5.4261141425e+00 -4.0559758398e-03 2.1691061890e+00 -3.7570021264e+00 2.1691061890e+00 3.7570021264e+00 
46600 5.4261132695e+00 -4.0260671686e-03 2.1691996839e+00 -3.7571640642e+00 2.1691996839e+00 3.7571640642e+00 
46700 5.4261124102e+00 -3.9964383095e-03 2.1692924853e+00 -3.7573248010e+00 2.1692924853e+00 3.7573248010e+00 
46800 5.4261115646e+00 -3.9670852714e-03 2.1693845998e+00 -3.7574843480e+00 2.1693845998e+00 3.7574843480e+00 
46900 5.4261107324e+00 -3.9380039166e-03 2.1694760339e+00 -3.7576427165e+00 2.1694760339e+00 3.7576427165e+00 
47000 5.4261099134e+00 -3.9091899764e-03 2.1695667938e+00 -3.7577999173e+00 2.1695667938e+00 3.7577999173e+00 
47100 5.4261091073e+00 -3.8806390662e-03 2.1696568859e+00 -3.7579559614e+00 2.1696568859e+00 3.7579559614e+00 
47200 5.4261083140e+00 -3.8523467007e-03 2.1697463163e+00 -3.7581108594e+00 2.1697463163e+00 3.7581108594e+00 
47300 5.4261075333e+00 -3.8243083086e-03 2.1698350911e+00 -3.7582646218e+00 2.1698350911e+00 3.7582646218e+00 
47400 5.4261067650e+00 -3.7965192476e-03 2.1699232161e+00 -3.7584172588e+00 2.1699232161e+00 3.7584172588e+00 
47500 5.4261060088e+00 -3.7689748187e-03 2.1700106972e+00 -3.7585687804e+00 2.1700106972e+00 3.7585687804e+00 
47600 5.4261052647e+00 -3.7416702801e-03 2.1700975400e+00 -3.7587191967e+00 2.1700975400e+00 3.7587191967e+00 
47700 5.4261045323e+00 -3.7146008612e-03 2.1701837503e+00 -3.7588685174e+00 2.1701837503e+00 3.7588685174e+00 
47800 5.4261038115e+00 -3.6877617760e-03 2.1702693335e+00 -3.7590167518e+00 2.1702693335e+00 3.7590167518e+00 
47900 5.4261031022e+00 -3.6611482357e-03 2.1703542950e+00 -3.7591639094e+00 2.1703542950e+00 3.7591639094e+00 
48000 5.4261024041e+00 -3.6347554615e-03 2.1704386400e+00 -3.7593099993e+00 2.1704386400e+00 3.7593099993e+00 
48100 5.4261017170e+00 -3.6085786965e-03 2.1705223738e+00 -3.7594550304e+00 2.1705223738e+00 3.7594550304e+00 
48200 5.4261010408e+00 -3.5826132174e-03 2.1706055013e+00 -3.7595990114e+00 2.1706055013e+00 3.7595990114e+00 
48300 5.4261003754e+00 -3.5568543451e-03 2.1706880275e+00 -3.7597419510e+00 2.1706880275e+00 3.7597419510e+00 
48400 5.4260997204e+00 -3.5312974559e-03 2.1707699572e+00 -3.7598838574e+00 2.1707699572e+00 3.7598838574e+00 
48500 5.4260990759e+00 -3.5059379909e-03 2.1708512951e+00 -3.7600247388e+00 2.1708512951e+00 3.7600247388e+00 
48600 5.4260984416e+00 -3.4807714656e-03 2.1709320459e+00 -3.7601646033e+00 2.1709320459e+00 3.7601646033e+00 
48700 5.4260978173e+00 -3.4557934786e-03 2.1710122141e+00 -3.7603034587e+00 2.1710122141e+00 3.7603034587e+00 
48800 5.4260972029e+00 -3.4309997202e-03 2.1710918040e+00 -3.7604413125e+00 2.1710918040e+00 3.7604413125e+00 
48900 5.4260965982e+00 -3.4063859796e-03 2.1711708201e+00 -3.7605781722e+00 2.1711708201e+00 3.7605781722e+00 
49000 5.4260960031e+00 -3.3819481523e-03 2.1712492664e+00 -3.7607140452e+00 2.1712492664e+00 3.7607140452e+00 
49100 5.4260954174e+00 -3.3576822466e-03 2.1713271471e+00 -3.7608489386e+00 2.1713271471e+00 3.7608489386e+00 
49200 5.4260948410e+00 -3.3335843893e-03 2.1714044662e+00 -3.7609828592e+00 2.1714044662e+00 3.7609828592e+00 
49300 5.4260942738e+00 -3.3096508311e-03 2.1714812277e+00 -3.7611158140e+00 2.1714812277e+00 3.7611158140e+00 
49400 5.4260937155e+00 -3.2858779514e-03 2.1715574353e+00 -3.7612478095e+00 2.1715574353e+00 3.7612478095e+00 
49500 5.4260931660e+00 -3.2622622624e-03 2.1716330929e+00 -3.7613788523e+00 2.1716330929e+00 3.7613788523e+00 
49600 5.4260926253e+00 -3.2388004125e-03 2.1717082042e+00 -3.7615089488e+00 2.1717082042e+00 3.7615089488e+00 
49700 5.4260920931e+00 -3.2154891897e-03 2.1717827726e+00 -3.7616381052e+00 2.1717827726e+00 3.7616381052e+00 
49800 5.4260915694e+00 -3.1923255235e-03 2.1718568018e+00 -3.7617663276e+00 2.1718568018e+00 3.7617663276e+00 
49900 5.4260910540e+00 -3.1693064874e-03 2.1719302953e+00 -3.7618936219e+00 2.1719302953e+00 3.7618936219e+00 
50000 5.4260905467e+00 -3.1464292997e-03 2.1720032563e+00 -3.7620199941e+00 2.1720032563e+00 3.7620199941e+00 
50100 5.4260900475e+00 -3.1236913250e-03 2.1720756882e+00 -3.7621454498e+00 2.1720756882e+00 3.7621454498e+00 
50200 5.4260895562e+00 -3.1010900740e-03 2.1721475942e+00 -3.7622699948e+00 2.1721475942e+00 3.7622699948e+00 
50300 5.4260890727e+00 -3.0786232034e-03 2.1722189777e+00 -3.7623936345e+00 2.1722189777e+00 3.7623936345e+00 
50400 5.4260885968e+00 -3.0562885160e-03 2.1722898416e+00 -3.7625163744e+00 2.1722898416e+00 3.7625163744e+00 
50500 5.4260881285e+00 -3.0340839588e-03 2.1723601892e+00 -3.7626382200e+00 2.1723601892e+00 3.7626382200e+00 
50600 5.4260876677e+00 -3.0120076220e-03 2.1724300233e+00 -3.7627591763e+00 2.1724300233e+00 3.7627591763e+00 
50700 5.4260872141e+00 -2.9900577372e-03 2.1724993472e+00 -3.7628792487e+00 2.1724993472e+00 3.7628792487e+00 
50800 5.4260867678e+00 -2.9682326747e-03 2.1725681636e+00 -3.7629984423e+00 2.1725681636e+00 3.7629984423e+00 
50900 5.4260863285e+00 -2.9465309414e-03 2.1726364756e+00 -3.7631167621e+00 2.1726364756e+00 3.7631167621e+00 
51000 5.4260858962e+00 -2.9249511777e-03 2.1727042860e+00 -3.7632342131e+00 2.1727042860e+00 3.7632342131e+00 
51100 5.4260854708e+00 -2.9034921539e-03 2.1727715976e+00 -3.7633508003e+00 2.1727715976e+00 3.7633508003e+00 
51200 5.4260850521e+00 -2.8821527670e-03 2.1728384134e+00 -3.7634665286e+00 2.1728384134e+00 3.7634665286e+00 
51300 5.4260846401e+00 -2.8609320366e-03 2.1729047360e+00 -3.7635814028e+00 2.1729047360e+00 3.7635814028e+00 
51400 5.4260842347e+00 -2.8398291010e-03 2.1729705683e+00 -3.7636954277e+00 2.1729705683e+00 3.7636954277e+00 
51500 5.4260838357e+00 -2.8188432128e-03 2.1730359130e+00 -3.7638086081e+00 2.1730359130e+00 3.7638086081e+00 
51600 5.4260834430e+00 -2.7979737340e-03 2.1731007729e+00 -3.7639209487e+00 2.1731007729e+00 3.7639209487e+00 
51700 5.4260830566e+00 -2.7772201317e-03 2.1731651507e+00 -3.7640324542e+00 2.1731651507e+00 3.7640324542e+00 
51800 5.4260826763e+00 -2.7565819733e-03 2.1732290491e+00 -3.7641431294e+00 2.1732290491e+00 3.7641431294e+00 
51900 5.4260823021e+00 -2.7360589207e-03 2.1732924707e+00 -3.7642529790e+00 2.1732924707e+00 3.7642529790e+00 
52000 5.4260819338e+00 -2.7156507261e-03 2.1733554183e+00 -3.7643620075e+00 2.1733554183e+00 3.7643620075e+00 
52100 5.4260815714e+00 -2.6953572260e-03 2.1734178946e+00 -3.7644702196e+00 2.1734178946e+00 3.7644702196e+00 
52200 5.4260812148e+00 -2.6751783361e-03 2.1734799023e+00 -3.7645776199e+00 2.1734799023e+00 3.7645776199e+00 
52300 5.4260808638e+00 -2.6551140463e-03 2.1735414439e+00 -3.7646842132e+00 2.1735414439e+00 3.7646842132e+00 
52400 5.4260805184e+00 -2.6351644144e-03 2.1736025223e+00 -3.7647900040e+00 2.1736025223e+00 3.7647900040e+00 
52500 5.4260801785e+00 -2.6153295615e-03 2.1736631400e+00 -3.7648949970e+00 2.1736631400e+00 3.7648949970e+00 
52600 5.4260798441e+00 -2.5956096660e-03 2.1737232998e+00 -3.7649991968e+00 2.1737232998e+00 3.7649991968e+00 
52700 5.4260795149e+00 -2.5760049586e-03 2.1737830043e+00 -3.7651026080e+00 2.1737830043e+00 3.7651026080e+00 
52800 5.4260791910e+00 -2.5565157162e-03 2.1738422562e+00 -3.7652052354e+00 2.1738422562e+00 3.7652052354e+00 
52900 5.4260788723e+00 -2.5371422575e-03 2.1739010582e+00 -3.7653070835e+00 2.1739010582e+00 3.7653070835e+00 
53000 5.4260785586e+00 -2.5178849369e-03 2.1739594131e+00 -3.7654081571e+00 2.1739594131e+00 3.7654081571e+00 
53100 5.4260782499e+00 -2.4987441398e-03 2.1740173235e+00 -3.7655084608e+00 2.1740173235e+00 3.7655084608e+00 
53200 5.4260779462e+00 -2.4797202772e-03 2.1740747921e+00 -3.7656079993e+00 2.1740747921e+00 3.7656079993e+00 
53300 5.4260776473e+00 -2.4608137808e-03 2.1741318216e+00 -3.7657067774e+00 2.1741318216e+00 3.7657067774e+00 
53400 5.4260773531e+00 -2.4420250984e-03 2.1741884149e+00 -3.7658047999e+00 2.1741884149e+00 3.7658047999e+00 
53500 5.4260770636e+00 -2.4233546888e-03 2.1742445746e+00 -3.7659020713e+00 2.1742445746e+00 3.7659020713e+00 
53600 5.4260767788e+00 -2.4048030172e-03 2.1743003035e+00 -3.7659985966e+00 2.1743003035e+00 3.7659985966e+00 
53700 5.4260764985e+00 -2.3863705511e-03 2.1743556044e+00 -3.7660943805e+00 2.1743556044e+00 3.7660943805e+00 
53800 5.4260762226e+00 -2.3680577559e-03 2.1744104800e+00 -3.7661894278e+00 2.1744104800e+00 3.7661894278e+00 
53900 5.4260759512e+00 -2.3498650905e-03 2.1744649330e+00 -3.7662837433e+00 2.1744649330e+00 3.7662837433e+00 
54000 5.4260756841e+00 -2.3317930038e-03 2.1745189665e+00 -3.7663773319e+00 2.1745189665e+00 3.7663773319e+00 
54100 5.4260754212e+00 -2.3138419309e-03 2.1745725830e+00 -3.7664701984e+00 2.1745725830e+00 3.7664701984e+00 
54200 5.4260751625e+00 -2.2960122893e-03 2.1746257854e+00 -3.7665623478e+00 2.1746257854e+00 3.7665623478e+00 
54300 5.4260749079e+00 -2.2783044758e-03 2.1746785766e+00 -3.7666537848e+00 2.1746785766e+00 3.7666537848e+00 
54400 5.4260746574e+00 -2.2607188633e-03 2.1747309594e+00 -3.7667445144e+00 2.1747309594e+00 3.7667445144e+00 
54500 5.4260744109e+00 -2.2432557978e-03 2.1747829365e+00 -3.7668345415e+00 2.1747829365e+00 3.7668345415e+00 
54600 5.4260741684e+00 -2.2259155958e-03 2.1748345110e+00 -3.7669238711e+00 2.1748345110e+00 3.7669238711e+00 
54700 5.4260739297e+00 -2.2086985415e-03 2.1748856856e+00 -3.7670125081e+00 2.1748856856e+00 3.7670125081e+00 
54800 5.4260736948e+00 -2.1916048850e-03 2.1749364631e+00 -3.7671004573e+00 2.1749364631e+00 3.7671004573e+00 
54900 5.4260734636e+00 -2.1746348397e-03 2.1749868465e+00 -3.7671877239e+00 2.1749868465e+00 3.7671877239e+00 
55000 5.4260732361e+00 -2.1577885806e-03 2.1750368386e+00 -3.7672743128e+00 2.1750368386e+00 3.7672743128e+00 
55100 5.4260730123e+00 -2.1410662426e-03 2.1750864423e+00 -3.7673602289e+00 2.1750864423e+00 3.7673602289e+00 
55200 5.4260727920e+00 -2.1244679190e-03 2.1751356604e+00 -3.7674454772e+00 2.1751356604e+00 3.7674454772e+00 
55300 5.4260725753e+00 -2.1079936603e-03 2.1751844959e+00 -3.7675300627e+00 2.1751844959e+00 3.7675300627e+00 
55400 5.4260723620e+00 -2.0916434728e-03 2.1752329516e+00 -3.7676139905e+00 2.1752329516e+00 3.7676139905e+00 
55500 5.4260721521e+00 -2.0754173184e-03 2.1752810304e+00 -3.7676972654e+00 2.1752810304e+00 3.7676972654e+00 
55600 5.4260719455e+00 -2.0593151131e-03 2.1753287351e+00 -3.7677798924e+00 2.1753287351e+00 3.7677798924e+00 
55700 5.4260717423e+00 -2.0433367270e-03 2.1753760687e+00 -3.7678618766e+00 2.1753760687e+00 3.7678618766e+00 
55800 5.4260715423e+00 -2.0274819838e-03 2.1754230340e+00 -3.7679432229e+00 2.1754230340e+00 3.7679432229e+00 
55900 5.4260713454e+00 -2.0117506608e-03 2.1754696339e+00 -3.7680239363e+00 2.1754696339e+00 3.7680239363e+00 
56000 5.4260711518e+00 -1.9961424885e-03 2.1755158712e+00 -3.7681040217e+00 2.1755158712e+00 3.7681040217e+00 
56100 5.4260709612e+00 -1.9806571516e-03 2.1755617489e+00 -3.7681834840e+00 2.1755617489e+00 3.7681834840e+00 
56200 5.4260707737e+00 -1.9652942883e-03 2.1756072696e+00 -3.7682623283e+00 2.1756072696e+00 3.7682623283e+00 
56300 5.4260705891e+00 -1.9500534918e-03 2.1756524363e+00 -3.7683405593e+00 2.1756524363e+00 3.7683405593e+00 
56400 5.4260704075e+00 -1.9349343103e-03 2.1756972519e+00 -3.7684181821e+00 2.1756972519e+00 3.7684181821e+00 
56500 5.4260702288e+00 -1.9199362478e-03 2.1757417190e+00 -3.7684952015e+00 2.1757417190e+00 3.7684952015e+00 
56600 5.4260700530e+00 -1.9050587655e-03 2.1757858406e+00 -3.7685716223e+00 2.1757858406e+00 3.7685716223e+00 
56700 5.4260698800e+00 -1.8903012824e-03 2.1758296194e+00 -3.7686474493e+00 2.1758296194e+00 3.7686474493e+00 
56800 5.4260697097e+00 -1.8756631762e-03 2.1758730581e+00 -3.7687226875e+00 2.1758730581e+00 3.7687226875e+00 
56900 5.4260695421e+00 -1.8611437855e-03 2.1759161597e+00 -3.7687973416e+00 2.1759161597e+00 3.7687973416e+00 
57000 5.4260693773e+00 -1.8467424102e-03 2.1759589267e+00 -3.7688714162e+00 2.1759589267e+00 3.7688714162e+00 
57100 5.4260692150e+00 -1.8324583131e-03 2.1760013620e+00 -3.7689449163e+00 2.1760013620e+00 3.7689449163e+00 
57200 5.4260690554e+00 -1.8182907221e-03 2.1760434682e+00 -3.7690178464e+00 2.1760434682e+00 3.7690178464e+00 
57300 5.4260688983e+00 -1.8042388310e-03 2.1760852481e+00 -3.7690902113e+00 2.1760852481e+00 3.7690902113e+00 
57400 5.4260687437e+00 -1.7903018015e-03 2.1761267043e+00 -3.7691620155e+00 2.1761267043e+00 3.7691620155e+00 
57500 5.4260685916e+00 -1.7764787648e-03 2.1761678395e+00 -3.7692332638e+00 2.1761678395e+00 3.7692332638e+00 
57600 5.4260684420e+00 -1.7627688238e-03 2.1762086563e+00 -3.7693039605e+00 2.1762086563e+00 3.7693039605e+00 
57700 5.4260682947e+00 -1.7491710541e-03 2.1762491573e+00 -3.7693741104e+00 2.1762491573e+00 3.7693741104e+00 
57800 5.4260681498e+00 -1.7356845068e-03 2.1762893452e+00 -3.7694437178e+00 2.1762893452e+00 3.7694437178e+00 
57900 5.4260680072e+00 -1.7223082094e-03 2.1763292225e+00 -3.7695127873e+00 2.1763292225e+00 3.7695127873e+00 
58000 5.4260678669e+00 -1.7090411688e-03 2.1763687917e+00 -3.7695813232e+00 2.1763687917e+00 3.7695813232e+00 
58100 5.4260677288e+00 -1.6958823720e-03 2.1764080554e+00 -3.7696493300e+00 2.1764080554e+00 3.7696493300e+00 
58200 5.4260675929e+00 -1.6828307891e-03 2.1764470161e+00 -3.7697168119e+00 2.1764470161e+00 3.7697168119e+00 
58300 5.4260674592e+00 -1.6698853745e-03 2.1764856763e+00 -3.7697837732e+00 2.1764856763e+00 3.7697837732e+00 
58400 5.4260673277e+00 -1.6570450691e-03 2.1765240383e+00 -3.7698502183e+00 2.1765240383e+00 3.7698502183e+00 
58500 5.4260671982e+00 -1.6443088023e-03 2.1765621048e+00 -3.7699161513e+00 2.1765621048e+00 3.7699161513e+00 
58600 5.4260670709e+00 -1.6316754937e-03 2.1765998780e+00 -3.7699815764e+00 2.1765998780e+00 3.7699815764e+00 
58700 5.4260669455e+00 -1.6191440549e-03 2.1766373603e+00 -3.7700464976e+00 2.1766373603e+00 3.7700464976e+00 
58800 5.4260668222e+00 -1.6067133915e-03 2.1766745541e+00 -3.7701109192e+00 2.1766745541e+00 3.7701109192e+00 
58900 5.4260667008e+00 -1.5943824050e-03 2.1767114617e+00 -3.7701748451e+00 2.1767114617e+00 3.7701748451e+00 
59000 5.4260665814e+00 -1.5821499941e-03 2.1767480855e+00 -3.7702382793e+00 2.1767480855e+00 3.7702382793e+00 
59100 5.4260664639e+00 -1.5700150571e-03 2.1767844276e+00 -3.7703012258e+00 2.1767844276e+00 3.7703012258e+00 
59200 5.4260663483e+00 -1.5579764928e-03 2.1768204904e+00 -3.7703636884e+00 2.1768204904e+00 3.7703636884e+00 
59300 5.4260662345e+00 -1.5460332028e-03 2.1768562761e+00 -3.7704256710e+00 2.1768562761e+00 3.7704256710e+00 
59400 5.4260661226e+00 -1.5341840926e-03 2.1768917869e+00 -3.7704871775e+00 2.1768917869e+00 3.7704871775e+00 
59500 5.4260660124e+00 -1.5224280733e-03 2.1769270250e+00 -3.7705482116e+00 2.1769270250e+00 3.7705482116e+00 
59600 5.4260659041e+00 -1.5107640632e-03 2.1769619924e+00 -3.7706087770e+00 2.1769619924e+00 3.7706087770e+00 
59700 5.4260657974e+00 -1.4991909887e-03 2.1769966914e+00 -3.7706688774e+00 2.1769966914e+00 3.7706688774e+00 
59800 5.4260656925e+00 -1.4877077862e-03 2.1770311241e+00 -3.7707285165e+00 2.1770311241e+00 3.7707285165e+00 
59900 5.4260655892e+00 -1.4763134029e-03 2.1770652924e+00 -3.7707876979e+00 2.1770652924e+00 3.7707876979e+00 
60000 5.4260654876e+00 -1.4650067982e-03 2.1770991985e+00 -3.7708464250e+00 2.1770991985e+00 3.7708464250e+00 
60100 5.4260653876e+00 -1.4537869447e-03 2.1771328445e+00 -3.7709047015e+00 2.1771328445e+00 3.7709047015e+00 
60200 5.4260652892e+00 -1.4426528293e-03 2.1771662322e+00 -3.7709625307e+00 2.1771662322e+00 3.7709625307e+00 
60300 5.4260651924e+00 -1.4316034543e-03 2.1771993637e+00 -3.7710199162e+00 2.1771993637e+00 3.7710199162e+00 
60400 5.4260650972e+00 -1.4206378380e-03 2.1772322410e+00 -3.7710768613e+00 2.1772322410e+00 3.7710768613e+00 
60500 5.4260650034e+00 -1.4097550156e-03 2.1772648659e+00 -3.7711333693e+00 2.1772648659e+00 3.7711333693e+00 
60600 5.4260649112e+00 -1.3989540403e-03 2.1772972405e+00 -3.7711894437e+00 2.1772972405e+00 3.7711894437e+00 
60700 5.4260648205e+00 -1.3882339832e-03 2.1773293665e+00 -3.7712450875e+00 2.1773293665e+00 3.7712450875e+00 
60800 5.4260647312e+00 -1.3775939349e-03 2.1773612458e+00 -3.7713003042e+00 2.1773612458e+00 3.7713003042e+00 
60900 5.4260646433e+00 -1.3670330050e-03 2.1773928804e+00 -3.7713550969e+00 2.1773928804e+00 3.7713550969e+00 
61000 5.4260645568e+00 -1.3565503234e-03 2.1774242720e+00 -3.7714094687e+00 2.1774242720e+00 3.7714094687e+00 
61100 5.4260644718e+00 -1.3461450401e-03 2.1774554224e+00 -3.7714634228e+00 2.1774554224e+00 3.7714634228e+00 
61200 5.4260643881e+00 -1.3358163260e-03 2.1774863334e+00 -3.7715169623e+00 2.1774863334e+00 3.7715169623e+00 
61300 5.4260643057e+00 -1.3255633725e-03 2.1775170069e+00 -3.7715700902e+00 2.1775170069e+00 3.7715700902e+00 
61400 5.4260642247e+00 -1.3153853924e-03 2.1775474444e+00 -3.7716228096e+00 2.1775474444e+00 3.7716228096e+00 
61500 5.4260641449e+00 -1.3052816194e-03 2.1775776479e+00 -3.7716751235e+00 2.1775776479e+00 3.7716751235e+00 
61600 5.4260640665e+00 -1.2952513087e-03 2.1776076189e+00 -3.7717270349e+00 2.1776076189e+00 3.7717270349e+00 
61700 5.4260639892e+00 -1.2852937364e-03 2.1776373592e+00 -3.7717785466e+00 2.1776373592e+00 3.7717785466e+00 
61800 5.4260639133e+00 -1.2754081999e-03 2.1776668705e+00 -3.7718296616e+00 2.1776668705e+00 3.7718296616e+00 
61900 5.4260638385e+00 -1.2655940176e-03 2.1776961544e+00 -3.7718803828e+00 2.1776961544e+00 3.7718803828e+00 
62000 5.4260637650e+00 -1.2558505288e-03 2.1777252125e+00 -3.7719307130e+00 2.1777252125e+00 3.7719307130e+00 
62100 5.4260636926e+00 -1.2461770931e-03 2.1777540466e+00 -3.7719806551e+00 2.1777540466e+00 3.7719806551e+00 
62200 5.4260636214e+00 -1.2365730908e-03 2.1777826582e+00 -3.7720302118e+00 2.1777826582e+00 3.7720302118e+00 
62300 5.4260635513e+00 -1.2270379219e-03 2.1778110489e+00 -3.7720793859e+00 2.1778110489e+00 3.7720793859e+00 
62400 5.4260634824e+00 -1.2175710062e-03 2.1778392203e+00 -3.7721281802e+00 2.1778392203e+00 3.7721281802e+00 
62500 5.4260634145e+00 -1.2081717826e-03 2.1778671740e+00 -3.7721765975e+00 2.1778671740e+00 3.7721765975e+00 
62600 5.4260633478e+00 -1.1988397087e-03 2.1778949115e+00 -3.7722246403e+00 2.1778949115e+00 3.7722246403e+00 
62700 5.4260632821e+00 -1.1895742606e-03 2.1779224345e+00 -3.7722723115e+00 2.1779224345e+00 3.7722723115e+00 
62800 5.4260632175e+00 -1.1803749320e-03 2.1779497444e+00 -3.7723196136e+00 2.1779497444e+00 3.7723196136e+00 
62900 5.4260631539e+00 -1.1712412338e-03 2.1779768428e+00 -3.7723665494e+00 2.1779768428e+00 3.7723665494e+00 
63000 5.4260630913e+00 -1.1621726936e-03 2.1780037311e+00 -3.7724131213e+00 2.1780037311e+00 3.7724131213e+00 
63100 5.4260630298e+00 -1.1531688550e-03 2.1780304109e+00 -3.7724593322e+00 2.1780304109e+00 3.7724593322e+00 
63200 5.4260629692e+00 -1.1442292771e-03 2.1780568837e+00 -3.7725051844e+00 2.1780568837e+00 3.7725051844e+00 
63300 5.4260629096e+00 -1.1353535336e-03 2.1780831510e+00 -3.7725506806e+00 2.1780831510e+00 3.7725506806e+00 
63400 5.4260628510e+00 -1.1265412127e-03 2.1781092142e+00 -3.7725958234e+00 2.1781092142e+00 3.7725958234e+00 
63500 5.4260627933e+00 -1.1177919156e-03 2.1781350748e+00 -3.7726406152e+00 2.1781350748e+00 3.7726406152e+00 
63600 5.4260627365e+00 -1.1091052567e-03 2.1781607342e+00 -3.7726850587e+00 2.1781607342e+00 3.7726850587e+00 
63700 5.4260626806e+00 -1.1004808624e-03 2.1781861939e+00 -3.7727291562e+00 2.1781861939e+00 3.7727291562e+00 
63800 5.4260626256e+00 -1.0919183704e-03 2.1782114554e+00 -3.7727729103e+00 2.1782114554e+00 3.7727729103e+00 
63900 5.4260625716e+00 -1.0834174292e-03 2.1782365200e+00 -3.7728163235e+00 2.1782365200e+00 3.7728163235e+00 
64000 5.4260625183e+00 -1.0749776974e-03 2.1782613892e+00 -3.7728593982e+00 2.1782613892e+00 3.7728593982e+00 
64100 5.4260624660e+00 -1.0665988429e-03 2.1782860643e+00 -3.7729021369e+00 2.1782860643e+00 3.7729021369e+00 
64200 5.4260624145e+00 -1.0582805423e-03 2.1783105469e+00 -3.7729445419e+00 2.1783105469e+00 3.7729445419e+00 
64300 5.4260623638e+00 -1.0500224801e-03 2.1783348383e+00 -3.7729866158e+00 2.1783348383e+00 3.7729866158e+00 
64400 5.4260623139e+00 -1.0418243483e-03 2.1783589398e+00 -3.7730283609e+00 2.1783589398e+00 3.7730283609e+00 
64500 5.4260622648e+00 -1.0336858454e-03 2.1783828529e+00 -3.7730697796e+00 2.1783828529e+00 3.7730697796e+00 
64600 5.4260622165e+00 -1.0256066758e-03 2.1784065789e+00 -3.7731108743e+00 2.1784065789e+00 3.7731108743e+00 
64700 5.4260621690e+00 -1.0175865495e-03 2.1784301193e+00 -3.7731516473e+00 2.1784301193e+00 3.7731516473e+00 
64800 5.4260621223e+00 -1.0096251810e-03 2.1784534753e+00 -3.7731921011e+00 2.1784534753e+00 3.7731921011e+00 
64900 5.4260620763e+00 -1.0017222891e-03 2.1784766483e+00 -3.7732322380e+00 2.1784766483e+00 3.7732322380e+00 
65000 5.4260620310e+00 -9.9387759604e-04 2.1784996397e+00 -3.7732720602e+00 2.1784996397e+00 3.7732720602e+00 
65100 5.4260619865e+00 -9.8609082705e-04 2.1785224508e+00 -3.7733115702e+00 2.1785224508e+00 3.7733115702e+00 
65200 5.4260619427e+00 -9.7836170977e-04 2.1785450829e+00 -3.7733507702e+00 2.1785450829e+00 3.7733507702e+00 
65300 5.4260618996e+00 -9.7068997373e-04 2.1785675374e+00 -3.7733896626e+00 2.1785675374e+00 3.7733896626e+00 
65400 5.4260618571e+00 -9.6307534981e-04 2.1785898156e+00 -3.7734282496e+00 2.1785898156e+00 3.7734282496e+00 
65500 5.4260618154e+00 -9.5551756979e-04 2.1786119189e+00 -3.7734665335e+00 2.1786119189e+00 3.7734665335e+00 
65600 5.4260617743e+00 -9.4801636589e-04 2.1786338484e+00 -3.7735045165e+00 2.1786338484e+00 3.7735045165e+00 
65700 5.4260617339e+00 -9.4057147029e-04 2.1786556056e+00 -3.7735422010e+00 2.1786556056e+00 3.7735422010e+00 
65800 5.4260616942e+00 -9.3318261478e-04 2.1786771917e+00 -3.7735795892e+00 2.1786771917e+00 3.7735795892e+00 
65900 5.4260616551e+00 -9.2584953029e-04 2.1786986080e+00 -3.7736166834e+00 2.1786986080e+00 3.7736166834e+00 
66000 5.4260616166e+00 -9.1857194663e-04 2.1787198558e+00 -3.7736534856e+00 2.1787198558e+00 3.7736534856e+00 
66100 5.4260615787e+00 -9.1134959205e-04 2.1787409363e+00 -3.7736899983e+00 2.1787409363e+00 3.7736899983e+00 
66200 5.4260615415e+00 -9.0418219300e-04 2.1787618510e+00 -3.7737262235e+00 2.1787618510e+00 3.7737262235e+00 
66300 5.4260615048e+00 -8.9706947382e-04 2.1787826009e+00 -3.7737621634e+00 2.1787826009e+00 3.7737621634e+00 
66400 5.4260614687e+00 -8.9001115647e-04 2.1788031874e+00 -3.7737978203e+00 2.1788031874e+00 3.7737978203e+00 
66500 5.4260614333e+00 -8.8300696033e-04 2.1788236118e+00 -3.7738331963e+00 2.1788236118e+00 3.7738331963e+00 
66600 5.4260613983e+00 -8.7605660195e-04 2.1788438752e+00 -3.7738682936e+00 2.1788438752e+00 3.7738682936e+00 
66700 5.4260613640e+00 -8.6915979490e-04 2.1788639789e+00 -3.7739031143e+00 2.1788639789e+00 3.7739031143e+00 
66800 5.4260613302e+00 -8.6231624960e-04 2.1788839242e+00 -3.7739376605e+00 2.1788839242e+00 3.7739376605e+00 
66900 5.4260612969e+00 -8.5552567315e-04 2.1789037123e+00 -3.7739719344e+00 2.1789037123e+00 3.7739719344e+00 
67000 5.4260612642e+00 -8.4878776931e-04 2.1789233443e+00 -3.7740059381e+00 2.1789233443e+00 3.7740059381e+00 
67100 5.4260612320e+00 -8.4210223832e-04 2.1789428216e+00 -3.7740396737e+00 2.1789428216e+00 3.7740396737e+00 
67200 5.4260612003e+00 -8.3546877688e-04 2.1789621452e+00 -3.7740731433e+00 2.1789621452e+00 3.7740731433e+00 
67300 5.4260611692e+00 -8.2888707811e-04 2.1789813165e+00 -3.7741063490e+00 2.1789813165e+00 3.7741063490e+00 
67400 5.4260611385e+00 -8.2235683153e-04 2.1790003366e+00 -3.7741392927e+00 2.1790003366e+00 3.7741392927e+00 
67500 5.4260611083e+00 -8.1587772304e-04 2.1790192067e+00 -3.7741719766e+00 2.1790192067e+00 3.7741719766e+00 
67600 5.4260610786e+00 -8.0944943494e-04 2.1790379279e+00 -3.7742044028e+00 2.1790379279e+00 3.7742044028e+00 
67700 5.4260610494e+00 -8.0307164602e-04 2.1790565015e+00 -3.7742365732e+00 2.1790565015e+00 3.7742365732e+00 
67800 5.4260610207e+00 -7.9674403154e-04 2.1790749286e+00 -3.7742684898e+00 2.1790749286e+00 3.7742684898e+00 
67900 5.4260609924e+00 -7.9046626336e-04 2.1790932103e+00 -3.7743001547e+00 2.1790932103e+00 3.7743001547e+00 
68000 5.4260609646e+00 -7.8423801003e-04 2.1791113478e+00 -3.7743315698e+00 2.1791113478e+00 3.7743315698e+00 
68100 5.4260609372e+00 -7.7805893685e-04 2.1791293423e+00 -3.7743627371e+00 2.1791293423e+00 3.7743627371e+00 
68200 5.4260609103e+00 -7.7192870605e-04 2.1791471949e+00 -3.7743936587e+00 2.1791471949e+00 3.7743936587e+00 
68300 5.4260608838e+00 -7.6584697688e-04 2.1791649066e+00 -3.7744243363e+00 2.1791649066e+00 3.7744243363e+00 
68400 5.4260608577e+00 -7.5981340577e-04 2.1791824786e+00 -3.7744547720e+00 2.1791824786e+00 3.7744547720e+00 
68500 5.4260608321e+00 -7.5382764650e-04 2.1791999121e+00 -3.7744849676e+00 2.1791999121e+00 3.7744849676e+00 
68600 5.4260608068e+00 -7.4788935037e-04 2.1792172081e+00 -3.7745149252e+00 2.1792172081e+00 3.7745149252e+00 
68700 5.4260607820e+00 -7.4199816634e-04 2.1792343677e+00 -3.7745446465e+00 2.1792343677e+00 3.7745446465e+00 
68800 5.4260607576e+00 -7.3615374127e-04 2.1792513920e+00 -3.7745741335e+00 2.1792513920e+00 3.7745741335e+00 
68900 5.4260607335e+00 -7.3035572006e-04 2.1792682821e+00 -3.7746033879e+00 2.1792682821e+00 3.7746033879e+00 
69000 5.4260607099e+00 -7.2460374593e-04 2.1792850390e+00 -3.7746324118e+00 2.1792850390e+00 3.7746324118e+00 
69100 5.4260606866e+00 -7.1889746052e-04 2.1793016639e+00 -3.7746612068e+00 2.1793016639e+00 3.7746612068e+00 
69200 5.4260606637e+00 -7.1323650421e-04 2.1793181576e+00 -3.7746897749e+00 2.1793181576e+00 3.7746897749e+00 
69300 5.4260606412e+00 -7.0762051625e-04 2.1793345214e+00 -3.7747181178e+00 2.1793345214e+00 3.7747181178e+00 
69400 5.4260606190e+00 -7.0204913503e-04 2.1793507562e+00 -3.7747462373e+00 2.1793507562e+00 3.7747462373e+00 
69500 5.4260605972e+00 -6.9652199827e-04 2.1793668631e+00 -3.7747741352e+00 2.1793668631e+00 3.7747741352e+00 
69600 5.4260605758e+00 -6.9103874327e-04 2.1793828430e+00 -3.7748018132e+00 2.1793828430e+00 3.7748018132e+00 
69700 5.4260605547e+00 -6.8559900711e-04 2.1793986970e+00 -3.7748292732e+00 2.1793986970e+00 3.7748292732e+00 
69800 5.4260605339e+00 -6.8020242688e-04 2.1794144261e+00 -3.7748565168e+00 2.1794144261e+00 3.7748565168e+00 
69900 5.4260605135e+00 -6.7484863989e-04 2.1794300313e+00 -3.7748835458e+00 2.1794300313e+00 3.7748835458e+00 
70000 5.4260604934e+00 -6.6953728393e-04 2.1794455136e+00 -3.7749103618e+00 2.1794455136e+00 3.7749103618e+00 
70100 5.4260604736e+00 -6.6426799741e-04 2.1794608739e+00 -3.7749369666e+00 2.1794608739e+00 3.7749369666e+00 
70200 5.4260604541e+00 -6.5904041966e-04 2.1794761131e+00 -3.7749633619e+00 2.1794761131e+00 3.7749633619e+00 
70300 5.4260604350e+00 -6.5385419106e-04 2.1794912324e+00 -3.7749895492e+00 2.1794912324e+00 3.7749895492e+00 
70400 5.4260604161e+00 -6.4870895331e-04 2.1795062326e+00 -3.7750155302e+00 2.1795062326e+00 3.7750155302e+00 
70500 5.4260603976e+00 -6.4360434958e-04 2.1795211146e+00 -3.7750413067e+00 2.1795211146e+00 3.7750413067e+00 
70600 5.4260603794e+00 -6.3854002475e-04 2.1795358794e+00 -3.7750668801e+00 2.1795358794e+00 3.7750668801e+00 
70700 5.4260603614e+00 -6.3351562554e-04 2.1795505280e+00 -3.7750922521e+00 2.1795505280e+00 3.7750922521e+00 
70800 5.4260603438e+00 -6.2853080075e-04 2.1795650612e+00 -3.7751174244e+00 2.1795650612e+00 3.7751174244e+00 
70900 5.4260603264e+00 -6.2358520140e-04 2.1795794799e+00 -3.7751423983e+00 2.1795794799e+00 3.7751423983e+00 
71000 5.4260603093e+00 -6.1867848091e-04 2.1795937851e+00 -3.7751671757e+00 2.1795937851e+00 3.7751671757e+00 
71100 5.4260602925e+00 -6.1381029525e-04 2.1796079776e+00 -3.7751917578e+00 2.1796079776e+00 3.7751917578e+00 
71200 5.4260602760e+00 -6.0898030311e-04 2.1796220584e+00 -3.7752161464e+00 2.1796220584e+00 3.7752161464e+00 
71300 5.4260602597e+00 -6.0418816603e-04 2.1796360283e+00 -3.7752403430e+00 2.1796360283e+00 3.7752403430e+00 
71400 5.4260602437e+00 -5.9943354853e-04 2.1796498881e+00 -3.7752643489e+00 2.1796498881e+00 3.7752643489e+00 
71500 5.4260602279e+00 -5.9471611826e-04 2.1796636388e+00 -3.7752881659e+00 2.1796636388e+00 3.7752881659e+00 
71600 5.4260602124e+00 -5.9003554609e-04 2.1796772812e+00 -3.7753117952e+00 2.1796772812e+00 3.7753117952e+00 
71700 5.4260601972e+00 -5.8539150623e-04 2.1796908162e+00 -3.7753352384e+00 2.1796908162e+00 3.7753352384e+00 
71800 5.4260601822e+00 -5.8078367636e-04 2.1797042445e+00 -3.7753584969e+00 2.1797042445e+00 3.7753584969e+00 
71900 5.4260601674e+00 -5.7621173767e-04 2.1797175670e+00 -3.7753815723e+00 2.1797175670e+00 3.7753815723e+00 
72000 5.4260601529e+00 -5.7167537499e-04 2.1797307846e+00 -3.7754044658e+00 2.1797307846e+00 3.7754044658e+00 
72100 5.4260601386e+00 -5.6717427683e-04 2.1797438981e+00 -3.7754271790e+00 2.1797438981e+00 3.7754271790e+00 
72200 5.4260601246e+00 -5.6270813545e-04 2.1797569082e+00 -3.7754497132e+00 2.1797569082e+00 3.7754497132e+00 
72300 5.4260601107e+00 -5.5827664695e-04 2.1797698158e+00 -3.7754720698e+00 2.1797698158e+00 3.7754720698e+00 
72400 5.4260600971e+00 -5.5387951127e-04 2.1797826217e+00 -3.7754942502e+00 2.1797826217e+00 3.7754942502e+00 
72500 5.4260600837e+00 -5.4951643227e-04 2.1797953266e+00 -3.7755162558e+00 2.1797953266e+00 3.7755162558e+00 
72600 5.4260600706e+00 -5.4518711771e-04 2.1798079314e+00 -3.7755380879e+00 2.1798079314e+00 3.7755380879e+00 
72700 5.4260600576e+00 -5.4089127933e-04 2.1798204368e+00 -3.7755597479e+00 2.1798204368e+00 3.7755597479e+00 
72800 5.4260600449e+00 -5.3662863284e-04 2.1798328436e+00 -3.7755812371e+00 2.1798328436e+00 3.7755812371e+00 
72900 5.4260600323e+00 -5.3239889791e-04 2.1798451526e+00 -3.7756025569e+00 2.1798451526e+00 3.7756025569e+00 
73000 5.4260600200e+00 -5.2820179817e-04 2.1798573644e+00 -3.7756237084e+00 2.1798573644e+00 3.7756237084e+00 
73100 5.4260600078e+00 -5.2403706125e-04 2.1798694800e+00 -3.7756446931e+00 2.1798694800e+00 3.7756446931e+00 
73200 5.4260599959e+00 -5.1990441869e-04 2.1798814999e+00 -3.7756655123e+00 2.1798814999e+00 3.7756655123e+00 
73300 5.4260599842e+00 -5.1580360598e-04 2.1798934250e+00 -3.7756861671e+00 2.1798934250e+00 3.7756861671e+00 
73400 5.4260599726e+00 -5.1173436249e-04 2.1799052559e+00 -3.7757066589e+00 2.1799052559e+00 3.7757066589e+00 
73500 5.4260599612e+00 -5.0769643144e-04 2.1799169934e+00 -3.7757269889e+00 2.1799169934e+00 3.7757269889e+00 
73600 5.4260599500e+00 -5.0368955988e-04 2.1799286383e+00 -3.7757471584e+00 2.1799286383e+00 3.7757471584e+00 
73700 5.4260599390e+00 -4.9971349863e-04 2.1799401912e+00 -3.7757671686e+00 2.1799401912e+00 3.7757671686e+00 
73800 5.4260599282e+00 -4.9576800222e-04 2.1799516529e+00 -3.7757870208e+00 2.1799516529e+00 3.7757870208e+00 
73900 5.4260599175e+00 -4.9185282884e-04 2.1799630239e+00 -3.7758067161e+00 2.1799630239e+00 3.7758067161e+00 
74000 5.4260599070e+00 -4.8796774026e-04 2.1799743052e+00 -3.7758262558e+00 2.1799743052e+00 3.7758262558e+00 
74100 5.4260598967e+00 -4.8411250181e-04 2.1799854972e+00 -3.7758456410e+00 2.1799854972e+00 3.7758456410e+00 
74200 5.4260598866e+00 -4.8028688226e-04 2.1799966008e+00 -3.7758648729e+00 2.1799966008e+00 3.7758648729e+00 
74300 5.4260598766e+00 -4.7649065374e-04 2.1800076166e+00 -3.7758839528e+00 2.1800076166e+00 3.7758839528e+00 
74400 5.4260598668e+00 -4.7272359172e-04 2.1800185453e+00 -3.7759028818e+00 2.1800185453e+00 3.7759028818e+00 
74500 5.4260598571e+00 -4.6898547487e-04 2.1800293875e+00 -3.7759216611e+00 2.1800293875e+00 3.7759216611e+00 
74600 5.4260598476e+00 -4.6527608503e-04 2.1800401439e+00 -3.7759402917e+00 2.1800401439e+00 3.7759402917e+00 
74700 5.4260598382e+00 -4.6159520706e-04 2.1800508152e+00 -3.7759587749e+00 2.1800508152e+00 3.7759587749e+00 
74800 5.4260598290e+00 -4.5794262880e-04 2.1800614020e+00 -3.7759771118e+00 2.1800614020e+00 3.7759771118e+00 
74900 5.4260598200e+00 -4.5431814098e-04 2.1800719049e+00 -3.7759953035e+00 2.1800719049e+00 3.7759953035e+00 
75000 5.4260598111e+00 -4.5072153710e-04 2.1800823247e+00 -3.7760133511e+00 2.1800823247e+00 3.7760133511e+00 
75100 5.4260598023e+00 -4.4715261337e-04 2.1800926620e+00 -3.7760312558e+00 2.1800926620e+00 3.7760312558e+00 
75200 5.4260597937e+00 -4.4361116860e-04 2.1801029174e+00 -3.7760490186e+00 2.1801029174e+00 3.7760490186e+00 
75300 5.4260597852e+00 -4.4009700409e-04 2.1801130915e+00 -3.7760666407e+00 2.1801130915e+00 3.7760666407e+00 
75400 5.4260597769e+00 -4.3660992359e-04 2.1801231849e+00 -3.7760841231e+00 2.1801231849e+00 3.7760841231e+00 
75500 5.4260597686e+00 -4.3314973316e-04 2.1801331984e+00 -3.7761014668e+00 2.1801331984e+00 3.7761014668e+00 
75600 5.4260597606e+00 -4.2971624110e-04 2.1801431324e+00 -3.7761186731e+00 2.1801431324e+00 3.7761186731e+00 
75700 5.4260597526e+00 -4.2630925783e-04 2.1801529876e+00 -3.7761357428e+00 2.1801529876e+00 3.7761357428e+00 
75800 5.4260597448e+00 -4.2292859585e-04 2.1801627647e+00 -3.7761526772e+00 2.1801627647e+00 3.7761526772e+00 
75900 5.4260597371e+00 -4.1957406962e-04 2.1801724642e+00 -3.7761694772e+00 2.1801724642e+00 3.7761694772e+00 
76000 5.4260597295e+00 -4.1624549545e-04 2.1801820867e+00 -3.7761861439e+00 2.1801820867e+00 3.7761861439e+00 
76100 5.4260597221e+00 -4.1294269146e-04 2.1801916328e+00 -3.7762026782e+00 2.1801916328e+00 3.7762026782e+00 
76200 5.4260597148e+00 -4.0966547747e-04 2.1802011031e+00 -3.7762190813e+00 2.1802011031e+00 3.7762190813e+00 
76300 5.4260597076e+00 -4.0641367492e-04 2.1802104983e+00 -3.7762353542e+00 2.1802104983e+00 3.7762353542e+00 
76400 5.4260597005e+00 -4.0318710679e-04 2.1802198188e+00 -3.7762514978e+00 2.1802198188e+00 3.7762514978e+00 
76500 5.4260596935e+00 -3.9998559752e-04 2.1802290653e+00 -3.7762675132e+00 2.1802290653e+00 3.7762675132e+00 
76600 5.4260596866e+00 -3.9680897295e-04 2.1802382383e+00 -3.7762834013e+00 2.1802382383e+00 3.7762834013e+00 
76700 5.4260596799e+00 -3.9365706022e-04 2.1802473384e+00 -3.7762991632e+00 2.1802473384e+00 3.7762991632e+00 
76800 5.4260596732e+00 -3.9052968773e-04 2.1802563662e+00 -3.7763147999e+00 2.1802563662e+00 3.7763147999e+00 
76900 5.4260596667e+00 -3.8742668504e-04 2.1802653223e+00 -3.7763303122e+00 2.1802653223e+00 3.7763303122e+00 
77000 5.4260596603e+00 -3.8434788283e-04 2.1802742072e+00 -3.7763457012e+00 2.1802742072e+00 3.7763457012e+00 
77100 5.4260596540e+00 -3.8129311284e-04 2.1802830214e+00 -3.7763609679e+00 2.1802830214e+00 3.7763609679e+00 
77200 5.4260596477e+00 -3.7826220779e-04 2.1802917655e+00 -3.7763761132e+00 2.1802917655e+00 3.7763761132e+00 
77300 5.4260596416e+00 -3.7525500135e-04 2.1803004401e+00 -3.7763911380e+00 2.1803004401e+00 3.7763911380e+00 
77400 5.4260596356e+00 -3.7227132806e-04 2.1803090457e+00 -3.7764060433e+00 2.1803090457e+00 3.7764060433e+00 
77500 5.4260596297e+00 -3.6931102331e-04 2.1803175828e+00 -3.7764208300e+00 2.1803175828e+00 3.7764208300e+00 
77600 5.4260596238e+00 -3.6637392327e-04 2.1803260520e+00 -3.7764354991e+00 2.1803260520e+00 3.7764354991e+00 
77700 5.4260596181e+00 -3.6345986487e-04 2.1803344538e+00 -3.7764500515e+00 2.1803344538e+00 3.7764500515e+00 
77800 5.4260596125e+00 -3.6056868574e-04 2.1803427888e+00 -3.7764644881e+00 2.1803427888e+00 3.7764644881e+00 
77900 5.4260596069e+00 -3.5770022417e-04 2.1803510574e+00 -3.7764788098e+00 2.1803510574e+00 3.7764788098e+00 
78000 5.4260596015e+00 -3.5485431911e-04 2.1803592602e+00 -3.7764930175e+00 2.1803592602e+00 3.7764930175e+00 
78100 5.4260595961e+00 -3.5203081011e-04 2.1803673978e+00 -3.7765071121e+00 2.1803673978e+00 3.7765071121e+00 
78200 5.4260595908e+00 -3.4922953731e-04 2.1803754705e+00 -3.7765210945e+00 2.1803754705e+00 3.7765210945e+00 
78300 5.4260595856e+00 -3.4645034139e-04 2.1803834790e+00 -3.7765349656e+00 2.1803834790e+00 3.7765349656e+00 
78400 5.4260595805e+00 -3.4369306358e-04 2.1803914237e+00 -3.7765487262e+00 2.1803914237e+00 3.7765487262e+00 
78500 5.4260595754e+00 -3.4095754563e-04 2.1803993052e+00 -3.7765623773e+00 2.1803993052e+00 3.7765623773e+00 
78600 5.4260595705e+00 -3.3824362980e-04 2.1804071239e+00 -3.7765759197e+00 2.1804071239e+00 3.7765759197e+00 
78700 5.4260595656e+00 -3.3555115881e-04 2.1804148803e+00 -3.7765893542e+00 2.1804148803e+00 3.7765893542e+00 
78800 5.4260595608e+00 -3.3287997591e-04 2.1804225750e+00 -3.7766026818e+00 2.1804225750e+00 3.7766026818e+00 
78900 5.4260595561e+00 -3.3022992479e-04 2.1804302083e+00 -3.7766159032e+00 2.1804302083e+00 3.7766159032e+00 
79000 5.4260595515e+00 -3.2760084962e-04 2.1804377809e+00 -3.7766290193e+00 2.1804377809e+00 3.7766290193e+00 
79100 5.4260595469e+00 -3.2499259505e-04 2.1804452932e+00 -3.7766420310e+00 2.1804452932e+00 3.7766420310e+00 
79200 5.4260595424e+00 -3.2240500617e-04 2.1804527457e+00 -3.7766549390e+00 2.1804527457e+00 3.7766549390e+00 
79300 5.4260595380e+00 -3.1983792858e-04 2.1804601387e+00 -3.7766677442e+00 2.1804601387e+00 3.7766677442e+00 
79400 5.4260595337e+00 -3.1729120831e-04 2.1804674729e+00 -3.7766804474e+00 2.1804674729e+00 3.7766804474e+00 
79500 5.4260595294e+00 -3.1476469191e-04 2.1804747487e+00 -3.7766930493e+00 2.1804747487e+00 3.7766930493e+00 
79600 5.4260595252e+00 -3.1225822639e-04 2.1804819665e+00 -3.7767055510e+00 2.1804819665e+00 3.7767055510e+00 
79700 5.4260595211e+00 -3.0977165929e-04 2.1804891268e+00 -3.7767179530e+00 2.1804891268e+00 3.7767179530e+00 
79800 5.4260595170e+00 -3.0730483862e-04 2.1804962301e+00 -3.7767302562e+00 2.1804962301e+00 3.7767302562e+00 
79900 5.4260595130e+00 -3.0485761295e-04 2.1805032767e+00 -3.7767424614e+00 2.1805032767e+00 3.7767424614e+00 
80000 5.4260595090e+00 -3.0242983137e-04 2.1805102673e+00 -3.7767545694e+00 2.1805102673e+00 3.7767545694e+00 
80100 5.4260595052e+00 -3.0002134351e-04 2.1805172021e+00 -3.7767665809e+00 2.1805172021e+00 3.7767665809e+00 
80200 5.4260595014e+00 -2.9763199960e-04 2.1805240817e+00 -3.7767784967e+00 2.1805240817e+00 3.7767784967e+00 
80300 5.4260594976e+00 -2.9526165044e-04 2.1805309065e+00 -3.7767903175e+00 2.1805309065e+00 3.7767903175e+00 
80400 5.4260594939e+00 -2.9291014743e-04 2.1805376769e+00 -3.7768020442e+00 2.1805376769e+00 3.7768020442e+00 
80500 5.4260594903e+00 -2.9057734259e-04 2.1805443934e+00 -3.7768136775e+00 2.1805443934e+00 3.7768136775e+00 
80600 5.4260594867e+00 -2.8826308860e-04 2.1805510563e+00 -3.7768252181e+00 2.1805510563e+00 3.7768252181e+00 
80700 5.4260594832e+00 -2.8596723879e-04 2.1805576662e+00 -3.7768366667e+00 2.1805576662e+00 3.7768366667e+00 
80800 5.4260594798e+00 -2.8368964720e-04 2.1805642234e+00 -3.7768480241e+00 2.1805642234e+00 3.7768480241e+00 
80900 5.4260594764e+00 -2.8143016853e-04 2.1805707284e+00 -3.7768592911e+00 2.1805707284e+00 3.7768592911e+00 
81000 5.4260594730e+00 -2.7918865826e-04 2.1805771815e+00 -3.7768704682e+00 2.1805771815e+00 3.7768704682e+00 
81100 5.4260594697e+00 -2.7696497257e-04 2.1805835832e+00 -3.7768815563e+00 2.1805835832e+00 3.7768815563e+00 
81200 5.4260594665e+00 -2.7475896845e-04 2.1805899339e+00 -3.7768925561e+00 2.1805899339e+00 3.7768925561e+00 
81300 5.4260594633e+00 -2.7257050365e-04 2.1805962341e+00 -3.7769034682e+00 2.1805962341e+00 3.7769034682e+00 
81400 5.4260594602e+00 -2.7039943676e-04 2.1806024840e+00 -3.7769142933e+00 2.1806024840e+00 3.7769142933e+00 
81500 5.4260594571e+00 -2.6824562717e-04 2.1806086841e+00 -3.7769250322e+00 2.1806086841e+00 3.7769250322e+00 
81600 5.4260594541e+00 -2.6610893516e-04 2.1806148348e+00 -3.7769356856e+00 2.1806148348e+00 3.7769356856e+00 
81700 5.4260594511e+00 -2.6398922185e-04 2.1806209365e+00 -3.7769462540e+00 2.1806209365e+00 3.7769462540e+00 
81800 5.4260594481e+00 -2.6188634928e-04 2.1806269896e+00 -3.7769567383e+00 2.1806269896e+00 3.7769567383e+00 
81900 5.4260594452e+00 -2.5980018038e-04 2.1806329944e+00 -3.7769671390e+00 2.1806329944e+00 3.7769671390e+00 
82000 5.4260594424e+00 -2.5773057903e-04 2.1806389514e+00 -3.7769774568e+00 2.1806389514e+00 3.7769774568e+00 
82100 5.4260594396e+00 -2.5567741004e-04 2.1806448609e+00 -3.7769876924e+00 2.1806448609e+00 3.7769876924e+00 
82200 5.4260594369e+00 -2.5364053920e-04 2.1806507233e+00 -3.7769978464e+00 2.1806507233e+00 3.7769978464e+00 
82300 5.4260594342e+00 -2.5161983328e-04 2.1806565391e+00 -3.7770079195e+00 2.1806565391e+00 3.7770079195e+00 
82400 5.4260594315e+00 -2.4961516004e-04 2.1806623084e+00 -3.7770179123e+00 2.1806623084e+00 3.7770179123e+00 
82500 5.4260594289e+00 -2.4762638824e-04 2.1806680318e+00 -3.7770278255e+00 2.1806680318e+00 3.7770278255e+00 
82600 5.4260594263e+00 -2.4565338769e-04 2.1806737096e+00 -3.7770376597e+00 2.1806737096e+00 3.7770376597e+00 
82700 5.4260594238e+00 -2.4369602921e-04 2.1806793421e+00 -3.7770474155e+00 2.1806793421e+00 3.7770474155e+00 
82800 5.4260594213e+00 -2.4175418470e-04 2.1806849297e+00 -3.7770570935e+00 2.1806849297e+00 3.7770570935e+00 
82900 5.4260594188e+00 -2.3982772709e-04 2.1806904728e+00 -3.7770666944e+00 2.1806904728e+00 3.7770666944e+00 
83000 5.4260594164e+00 -2.3791653040e-04 2.1806959717e+00 -3.7770762188e+00 2.1806959717e+00 3.7770762188e+00 
83100 5.4260594141e+00 -2.3602046971e-04 2.1807014267e+00 -3.7770856673e+00 2.1807014267e+00 3.7770856673e+00 
83200 5.4260594117e+00 -2.3413942119e-04 2.1807068383e+00 -3.7770950404e+00 2.1807068383e+00 3.7770950404e+00 
83300 5.4260594094e+00 -2.3227326210e-04 2.1807122067e+00 -3.7771043388e+00 2.1807122067e+00 3.7771043388e+00 
83400 5.4260594072e+00 -2.3042187082e-04 2.1807175324e+00 -3.7771135630e+00 2.1807175324e+00 3.7771135630e+00 
83500 5.4260594050e+00 -2.2858512678e-04 2.1807228155e+00 -3.7771227138e+00 2.1807228155e+00 3.7771227138e+00 
83600 5.4260594028e+00 -2.2676291056e-04 2.1807280566e+00 -3.7771317915e+00 2.1807280566e+00 3.7771317915e+00 
83700 5.4260594006e+00 -2.2495510383e-04 2.1807332558e+00 -3.7771407969e+00 2.1807332558e+00 3.7771407969e+00 
83800 5.4260593985e+00 -2.2316158936e-04 2.1807384136e+00 -3.7771497304e+00 2.1807384136e+00 3.7771497304e+00 
83900 5.4260593964e+00 -2.2138225103e-04 2.1807435303e+00 -3.7771585927e+00 2.1807435303e+00 3.7771585927e+00 
84000 5.4260593944e+00 -2.1961697384e-04 2.1807486061e+00 -3.7771673843e+00 2.1807486061e+00 3.7771673843e+00 
84100 5.4260593924e+00 -2.1786564387e-04 2.1807536415e+00 -3.7771761058e+00 2.1807536415e+00 3.7771761058e+00 
84200 5.4260593904e+00 -2.1612814833e-04 2.1807586367e+00 -3.7771847578e+00 2.1807586367e+00 3.7771847578e+00 
84300 5.4260593884e+00 -2.1440437550e-04 2.1807635920e+00 -3.7771933407e+00 2.1807635920e+00 3.7771933407e+00 
84400 5.4260593865e+00 -2.1269421477e-04 2.1807685078e+00 -3.7772018551e+00 2.1807685078e+00 3.7772018551e+00 
84500 5.4260593846e+00 -2.1099755661e-04 2.1807733844e+00 -3.7772103016e+00 2.1807733844e+00 3.7772103016e+00 
84600 5.4260593828e+00 -2.0931429258e-04 2.1807782221e+00 -3.7772186807e+00 2.1807782221e+00 3.7772186807e+00 
84700 5.4260593809e+00 -2.0764431529e-04 2.1807830212e+00 -3.7772269930e+00 2.1807830212e+00 3.7772269930e+00 
84800 5.4260593792e+00 -2.0598751845e-04 2.1807877820e+00 -3.7772352389e+00 2.1807877820e+00 3.7772352389e+00 
84900 5.4260593774e+00 -2.0434379680e-04 2.1807925047e+00 -3.7772434190e+00 2.1807925047e+00 3.7772434190e+00 
85000 5.4260593757e+00 -2.0271304614e-04 2.1807971898e+00 -3.7772515338e+00 2.1807971898e+00 3.7772515338e+00 
85100 5.4260593739e+00 -2.0109516330e-04 2.1808018375e+00 -3.7772595838e+00 2.1808018375e+00 3.7772595838e+00 
85200 5.4260593723e+00 -1.9949004614e-04 2.1808064481e+00 -3.7772675696e+00 2.1808064481e+00 3.7772675696e+00 
85300 5.4260593706e+00 -1.9789759354e-04 2.1808110219e+00 -3.7772754916e+00 2.1808110219e+00 3.7772754916e+00 
85400 5.4260593690e+00 -1.9631770537e-04 2.1808155591e+00 -3.7772833503e+00 2.1808155591e+00 3.7772833503e+00 
85500 5.4260593674e+00 -1.9475028249e-04 2.1808200601e+00 -3.7772911463e+00 2.1808200601e+00 3.7772911463e+00 
85600 5.4260593658e+00 -1.9319522675e-04 2.1808245252e+00 -3.7772988800e+00 2.1808245252e+00 3.7772988800e+00 
85700 5.4260593643e+00 -1.9165244096e-04 2.1808289546e+00 -3.7773065520e+00 2.1808289546e+00 3.7773065520e+00 
85800 5.4260593627e+00 -1.9012182889e-04 2.1808333486e+00 -3.7773141627e+00 2.1808333486e+00 3.7773141627e+00 
85900 5.4260593612e+00 -1.8860329522e-04 2.1808377076e+00 -3.7773217125e+00 2.1808377076e+00 3.7773217125e+00 
86000 5.4260593598e+00 -1.8709674557e-04 2.1808420317e+00 -3.7773292021e+00 2.1808420317e+00 3.7773292021e+00 
86100 5.4260593583e+00 -1.8560208647e-04 2.1808463212e+00 -3.7773366318e+00 2.1808463212e+00 3.7773366318e+00 
86200 5.4260593569e+00 -1.8411922533e-04 2.1808505765e+00 -3.7773440022e+00 2.1808505765e+00 3.7773440022e+00 
86300 5.4260593555e+00 -1.8264807046e-04 2.1808547978e+00 -3.7773513137e+00 2.1808547978e+00 3.7773513137e+00 
86400 5.4260593541e+00 -1.8118853100e-04 2.1808589853e+00 -3.7773585667e+00 2.1808589853e+00 3.7773585667e+00 
86500 5.4260593527e+00 -1.7974051696e-04 2.1808631394e+00 -3.7773657617e+00 2.1808631394e+00 3.7773657617e+00 
86600 5.4260593514e+00 -1.7830393918e-04 2.1808672602e+00 -3.7773728993e+00 2.1808672602e+00 3.7773728993e+00 
86700 5.4260593501e+00 -1.7687870932e-04 2.1808713481e+00 -3.7773799797e+00 2.1808713481e+00 3.7773799797e+00 
86800 5.4260593488e+00 -1.7546473982e-04 2.1808754034e+00 -3.7773870036e+00 2.1808754034e+00 3.7773870036e+00 
86900 5.4260593475e+00 -1.7406194392e-04 2.1808794262e+00 -3.7773939713e+00 2.1808794262e+00 3.7773939713e+00 
87000 5.4260593463e+00 -1.7267023564e-04 2.1808834168e+00 -3.7774008833e+00 2.1808834168e+00 3.7774008833e+00 
87100 5.4260593450e+00 -1.7128952975e-04 2.1808873755e+00 -3.7774077400e+00 2.1808873755e+00 3.7774077400e+00 
87200 5.4260593438e+00 -1.6991974175e-04 2.1808913026e+00 -3.7774145419e+00 2.1808913026e+00 3.7774145419e+00 
87300 5.4260593426e+00 -1.6856078787e-04 2.1808951982e+00 -3.7774212893e+00 2.1808951982e+00 3.7774212893e+00 
87400 5.4260593415e+00 -1.6721258506e-04 2.1808990627e+00 -3.7774279828e+00 2.1808990627e+00 3.7774279828e+00 
87500 5.4260593403e+00 -1.6587505097e-04 2.1809028963e+00 -3.7774346228e+00 2.1809028963e+00 3.7774346228e+00 
87600 5.4260593392e+00 -1.6454810391e-04 2.1809066992e+00 -3.7774412096e+00 2.1809066992e+00 3.7774412096e+00 
87700 5.4260593381e+00 -1.6323166288e-04 2.1809104717e+00 -3.7774477437e+00 2.1809104717e+00 3.7774477437e+00 
87800 5.4260593370e+00 -1.6192564753e-04 2.1809142140e+00 -3.7774542255e+00 2.1809142140e+00 3.7774542255e+00 
87900 5.4260593359e+00 -1.6062997816e-04 2.1809179263e+00 -3.7774606555e+00 2.1809179263e+00 3.7774606555e+00 
88000 5.4260593348e+00 -1.5934457568e-04 2.1809216089e+00 -3.7774670340e+00 2.1809216089e+00 3.7774670340e+00 
88100 5.4260593338e+00 -1.5806936164e-04 2.1809252621e+00 -3.7774733614e+00 2.1809252621e+00 3.7774733614e+00 
88200 5.4260593328e+00 -1.5680425817e-04 2.1809288860e+00 -3.7774796382e+00 2.1809288860e+00 3.7774796382e+00 
88300 5.4260593317e+00 -1.5554918801e-04 2.1809324809e+00 -3.7774858647e+00 2.1809324809e+00 3.7774858647e+00 
88400 5.4260593308e+00 -1.5430407448e-04 2.1809360470e+00 -3.7774920414e+00 2.1809360470e+00 3.7774920414e+00 
88500 5.4260593298e+00 -1.5306884147e-04 2.1809395846e+00 -3.7774981687e+00 2.1809395846e+00 3.7774981687e+00 
88600 5.4260593288e+00 -1.5184341342e-04 2.1809430938e+00 -3.7775042469e+00 2.1809430938e+00 3.7775042469e+00 
88700 5.4260593279e+00 -1.5062771532e-04 2.1809465749e+00 -3.7775102764e+00 2.1809465749e+00 3.7775102764e+00 
88800 5.4260593269e+00 -1.4942167272e-04 2.1809500282e+00 -3.7775162576e+00 2.1809500282e+00 3.7775162576e+00 
88900 5.4260593260e+00 -1.4822521168e-04 2.1809534538e+00 -3.7775221910e+00 2.1809534538e+00 3.7775221910e+00 
89000 5.4260593251e+00 -1.4703825878e-04 2.1809568520e+00 -3.7775280768e+00 2.1809568520e+00 3.7775280768e+00 
89100 5.4260593242e+00 -1.4586074113e-04 2.1809602230e+00 -3.7775339154e+00 2.1809602230e+00 3.7775339154e+00 
89200 5.4260593234e+00 -1.4469258633e-04 2.1809635669e+00 -3.7775397073e+00 2.1809635669e+00 3.7775397073e+00 
89300 5.4260593225e+00 -1.4353372247e-04 2.1809668841e+00 -3.7775454529e+00 2.1809668841e+00 3.7775454529e+00 
89400 5.4260593217e+00 -1.4238407814e-04 2.1809701747e+00 -3.7775511523e+00 2.1809701747e+00 3.7775511523e+00 
89500 5.4260593208e+00 -1.4124358241e-04 2.1809734389e+00 -3.7775568062e+00 2.1809734389e+00 3.7775568062e+00 
89600 5.4260593200e+00 -1.4011216483e-04 2.1809766770e+00 -3.7775624147e+00 2.1809766770e+00 3.7775624147e+00 
89700 5.4260593192e+00 -1.3898975542e-04 2.1809798891e+00 -3.7775679783e+00 2.1809798891e+00 3.7775679783e+00 
89800 5.4260593184e+00 -1.3787628464e-04 2.1809830756e+00 -3.7775734973e+00 2.1809830756e+00 3.7775734973e+00 
89900 5.4260593176e+00 -1.3677168344e-04 2.1809862364e+00 -3.7775789721e+00 2.1809862364e+00 3.7775789721e+00 
90000 5.4260593169e+00 -1.3567588321e-04 2.1809893720e+00 -3.7775844030e+00 2.1809893720e+00 3.7775844030e+00 
90100 5.4260593161e+00 -1.3458881578e-04 2.1809924824e+00 -3.7775897904e+00 2.1809924824e+00 3.7775897904e+00 
90200 5.4260593154e+00 -1.3351041344e-04 2.1809955679e+00 -3.7775951347e+00 2.1809955679e+00 3.7775951347e+00 
90300 5.4260593147e+00 -1.3244060890e-04 2.1809986287e+00 -3.7776004361e+00 2.1809986287e+00 3.7776004361e+00 
90400 5.4260593139e+00 -1.3137933533e-04 2.1810016649e+00 -3.7776056950e+00 2.1810016649e+00 3.7776056950e+00 
90500 5.4260593132e+00 -1.3032652632e-04 2.1810046768e+00 -3.7776109118e+00 2.1810046768e+00 3.7776109118e+00 
90600 5.4260593125e+00 -1.2928211590e-04 2.1810076646e+00 -3.7776160867e+00 2.1810076646e+00 3.7776160867e+00 
90700 5.4260593119e+00 -1.2824603850e-04 2.1810106284e+00 -3.7776212202e+00 2.1810106284e+00 3.7776212202e+00 
90800 5.4260593112e+00 -1.2721822901e-04 2.1810135684e+00 -3.7776263125e+00 2.1810135684e+00 3.7776263125e+00 
90900 5.4260593105e+00 -1.2619862273e-04 2.1810164849e+00 -3.7776313641e+00 2.1810164849e+00 3.7776313641e+00 
91000 5.4260593099e+00 -1.2518715537e-04 2.1810193781e+00 -3.7776363751e+00 2.1810193781e+00 3.7776363751e+00 
91100 5.4260593092e+00 -1.2418376307e-04 2.1810222480e+00 -3.7776413459e+00 2.1810222480e+00 3.7776413459e+00 
91200 5.4260593086e+00 -1.2318838241e-04 2.1810250949e+00 -3.7776462769e+00 2.1810250949e+00 3.7776462769e+00 
91300 5.4260593080e+00 -1.2220095033e-04 2.1810279190e+00 -3.7776511684e+00 2.1810279190e+00 3.7776511684e+00 
91400 5.4260593074e+00 -1.2122140424e-04 2.1810307204e+00 -3.7776560207e+00 2.1810307204e+00 3.7776560207e+00 
91500 5.4260593068e+00 -1.2024968194e-04 2.1810334994e+00 -3.7776608340e+00 2.1810334994e+00 3.7776608340e+00 
91600 5.4260593062e+00 -1.1928572165e-04 2.1810362562e+00 -3.7776656088e+00 2.1810362562e+00 3.7776656088e+00 
91700 5.4260593056e+00 -1.1832946200e-04 2.1810389908e+00 -3.7776703453e+00 2.1810389908e+00 3.7776703453e+00 
91800 5.4260593051e+00 -1.1738084204e-04 2.1810417035e+00 -3.7776750438e+00 2.1810417035e+00 3.7776750438e+00 
91900 5.4260593045e+00 -1.1643980122e-04 2.1810443944e+00 -3.7776797046e+00 2.1810443944e+00 3.7776797046e+00 
92000 5.4260593040e+00 -1.1550627942e-04 2.1810470637e+00 -3.7776843281e+00 2.1810470637e+00 3.7776843281e+00 
92100 5.4260593034e+00 -1.1458021692e-04 2.1810497117e+00 -3.7776889145e+00 2.1810497117e+00 3.7776889145e+00 
92200 5.4260593029e+00 -1.1366155441e-04 2.1810523384e+00 -3.7776934641e+00 2.1810523384e+00 3.7776934641e+00 
92300 5.4260593024e+00 -1.1275023301e-04 2.1810549441e+00 -3.7776979773e+00 2.1810549441e+00 3.7776979773e+00 
92400 5.4260593018e+00 -1.1184619423e-04 2.1810575288e+00 -3.7777024542e+00 2.1810575288e+00 3.7777024542e+00 
92500 5.4260593013e+00 -1.1094938001e-04 2.1810600929e+00 -3.7777068952e+00 2.1810600929e+00 3.7777068952e+00 
92600 5.4260593008e+00 -1.1005973269e-04 2.1810626364e+00 -3.7777113007e+00 2.1810626364e+00 3.7777113007e+00 
92700 5.4260593003e+00 -1.0917719504e-04 2.1810651594e+00 -3.7777156708e+00 2.1810651594e+00 3.7777156708e+00 
92800 5.4260592999e+00 -1.0830171022e-04 2.1810676623e+00 -3.7777200058e+00 2.1810676623e+00 3.7777200058e+00 
92900 5.4260592994e+00 -1.0743322181e-04 2.1810701450e+00 -3.7777243061e+00 2.1810701450e+00 3.7777243061e+00 
93000 5.4260592989e+00 -1.0657167382e-04 2.1810726079e+00 -3.7777285719e+00 2.1810726079e+00 3.7777285719e+00 
93100 5.4260592985e+00 -1.0571701066e-04 2.1810750510e+00 -3.7777328035e+00 2.1810750510e+00 3.7777328035e+00 
93200 5.4260592980e+00 -1.0486917714e-04 2.1810774745e+00 -3.7777370011e+00 2.1810774745e+00 3.7777370011e+00 
93300 5.4260592976e+00 -1.0402811852e-04 2.1810798786e+00 -3.7777411651e+00 2.1810798786e+00 3.7777411651e+00 
93400 5.4260592971e+00 -1.0319378043e-04 2.1810822634e+00 -3.7777452956e+00 2.1810822634e+00 3.7777452956e+00 
93500 5.4260592967e+00 -1.0236610894e-04 2.1810846290e+00 -3.7777493931e+00 2.1810846290e+00 3.7777493931e+00 
93600 5.4260592963e+00 -1.0154505053e-04 2.1810869757e+00 -3.7777534576e+00 2.1810869757e+00 3.7777534576e+00 
93700 5.4260592959e+00 -1.0073055209e-04 2.1810893036e+00 -3.7777574896e+00 2.1810893036e+00 3.7777574896e+00 
93800 5.4260592955e+00 -9.9922560909e-05 2.1810916127e+00 -3.7777614892e+00 2.1810916127e+00 3.7777614892e+00 
93900 5.4260592951e+00 -9.9121024706e-05 2.1810939034e+00 -3.7777654568e+00 2.1810939034e+00 3.7777654568e+00 
94000 5.4260592947e+00 -9.8325891606e-05 2.1810961757e+00 -3.7777693925e+00 2.1810961757e+00 3.7777693925e+00 
94100 5.4260592943e+00 -9.7537110140e-05 2.1810984297e+00 -3.7777732966e+00 2.1810984297e+00 3.7777732966e+00 
94200 5.4260592939e+00 -9.6754629250e-05 2.1811006657e+00 -3.7777771694e+00 2.1811006657e+00 3.7777771694e+00 
94300 5.4260592935e+00 -9.5978398289e-05 2.1811028837e+00 -3.7777810111e+00 2.1811028837e+00 3.7777810111e+00 
94400 5.4260592931e+00 -9.5208367015e-05 2.1811050839e+00 -3.7777848220e+00 2.1811050839e+00 3.7777848220e+00 
94500 5.4260592928e+00 -9.4444485597e-05 2.1811072665e+00 -3.7777886023e+00 2.1811072665e+00 3.7777886023e+00 
94600 5.4260592924e+00 -9.3686704606e-05 2.1811094316e+00 -3.7777923523e+00 2.1811094316e+00 3.7777923523e+00 
94700 5.4260592921e+00 -9.2934975016e-05 2.1811115792e+00 -3.7777960722e+00 2.1811115792e+00 3.7777960722e+00 
94800 5.4260592917e+00 -9.2189248203e-05 2.1811137097e+00 -3.7777997623e+00 2.1811137097e+00 3.7777997623e+00 
94900 5.4260592914e+00 -9.1449475953e-05 2.1811158230e+00 -3.7778034227e+00 2.1811158230e+00 3.7778034227e+00 
95000 5.4260592910e+00 -9.0715610439e-05 2.1811179194e+00 -3.7778070538e+00 2.1811179194e+00 3.7778070538e+00 
95100 5.4260592907e+00 -8.9987604238e-05 2.1811199990e+00 -3.7778106557e+00 2.1811199990e+00 3.7778106557e+00 
95200 5.4260592904e+00 -8.9265410327e-05 2.1811220619e+00 -3.7778142287e+00 2.1811220619e+00 3.7778142287e+00 
95300 5.4260592901e+00 -8.8548982070e-05 2.1811241082e+00 -3.7778177730e+00 2.1811241082e+00 3.7778177730e+00 
95400 5.4260592898e+00 -8.7838273226e-05 2.1811261381e+00 -3.7778212889e+00 2.1811261381e+00 3.7778212889e+00 
95500 5.4260592894e+00 -8.7133237942e-05 2.1811281517e+00 -3.7778247766e+00 2.1811281517e+00 3.7778247766e+00 
95600 5.4260592891e+00 -8.6433830755e-05 2.1811301491e+00 -3.7778282362e+00 2.1811301491e+00 3.7778282362e+00 
95700 5.4260592888e+00 -8.5740006584e-05 2.1811321305e+00 -3.7778316681e+00 2.1811321305e+00 3.7778316681e+00 
95800 5.4260592885e+00 -8.5051720730e-05 2.1811340960e+00 -3.7778350724e+00 2.1811340960e+00 3.7778350724e+00 
95900 5.4260592883e+00 -8.4368928879e-05 2.1811360457e+00 -3.7778384494e+00 2.1811360457e+00 3.7778384494e+00 
96000 5.4260592880e+00 -8.3691587087e-05 2.1811379798e+00 -3.7778417993e+00 2.1811379798e+00 3.7778417993e+00 
96100 5.4260592877e+00 -8.3019651790e-05 2.1811398983e+00 -3.7778451223e+00 2.1811398983e+00 3.7778451223e+00 
96200 5.4260592874e+00 -8.2353079791e-05 2.1811418015e+00 -3.7778484186e+00 2.1811418015e+00 3.7778484186e+00 
96300 5.4260592871e+00 -8.1691828267e-05 2.1811436893e+00 -3.7778516885e+00 2.1811436893e+00 3.7778516885e+00 
96400 5.4260592869e+00 -8.1035854753e-05 2.1811455620e+00 -3.7778549321e+00 2.1811455620e+00 3.7778549321e+00 
96500 5.4260592866e+00 -8.0385117154e-05 2.1811474196e+00 -3.7778581496e+00 2.1811474196e+00 3.7778581496e+00 
96600 5.4260592864e+00 -7.9739573730e-05 2.1811492624e+00 -3.7778613413e+00 2.1811492624e+00 3.7778613413e+00 
96700 5.4260592861e+00 -7.9099183097e-05 2.1811510903e+00 -3.7778645073e+00 2.1811510903e+00 3.7778645073e+00 
96800 5.4260592859e+00 -7.8463904228e-05 2.1811529035e+00 -3.7778676480e+00 2.1811529035e+00 3.7778676480e+00 
96900 5.4260592856e+00 -7.7833696437e-05 2.1811547022e+00 -3.7778707634e+00 2.1811547022e+00 3.7778707634e+00 
97000 5.4260592854e+00 -7.7208519398e-05 2.1811564864e+00 -3.7778738538e+00 2.1811564864e+00 3.7778738538e+00 
97100 5.4260592851e+00 -7.6588333111e-05 2.1811582563e+00 -3.7778769193e+00 2.1811582563e+00 3.7778769193e+00 
97200 5.4260592849e+00 -7.5973097931e-05 2.1811600120e+00 -3.7778799602e+00 2.1811600120e+00 3.7778799602e+00 
97300 5.4260592847e+00 -7.5362774537e-05 2.1811617536e+00 -3.7778829767e+00 2.1811617536e+00 3.7778829767e+00 
97400 5.4260592844e+00 -7.4757323949e-05 2.1811634812e+00 -3.7778859690e+00 2.1811634812e+00 3.7778859690e+00 
97500 5.4260592842e+00 -7.4156707509e-05 2.1811651949e+00 -3.7778889372e+00 2.1811651949e+00 3.7778889372e+00 
97600 5.4260592840e+00 -7.3560886893e-05 2.1811668948e+00 -3.7778918816e+00 2.1811668948e+00 3.7778918816e+00 
97700 5.4260592838e+00 -7.2969824086e-05 2.1811685811e+00 -3.7778948023e+00 2.1811685811e+00 3.7778948023e+00 
97800 5.4260592836e+00 -7.2383481407e-05 2.1811702538e+00 -3.7778976996e+00 2.1811702538e+00 3.7778976996e+00 
97900 5.4260592834e+00 -7.1801821477e-05 2.1811719131e+00 -3.7779005735e+00 2.1811719131e+00 3.7779005735e+00 
98000 5.4260592832e+00 -7.1224807235e-05 2.1811735590e+00 -3.7779034244e+00 2.1811735590e+00 3.7779034244e+00 
98100 5.4260592830e+00 -7.0652401927e-05 2.1811751918e+00 -3.7779062523e+00 2.1811751918e+00 3.7779062523e+00 
98200 5.4260592829e+00 -7.0691997751e-05 2.1811751918e+00 -3.7779062523e+00 2.1811751918e+00 3.7779062523e+00 
98300 5.4260592828e+00 -7.0735145831e-05 2.1811751918e+00 -3.7779062523e+00 2.1811751918e+00 3.7779062523e+00 
98400 5.4260592826e+00 -7.0173875912e-05 2.1811768132e+00 -3.7779090608e+00 2.1811768132e+00 3.7779090608e+00 
98500 5.4260592825e+00 -7.0220746603e-05 2.1811768132e+00 -3.7779090608e+00 2.1811768132e+00 3.7779090608e+00 
98600 5.4260592824e+00 -7.0271498411e-05 2.1811768132e+00 -3.7779090608e+00 2.1811768132e+00 3.7779090608e+00 
98700 5.4260592823e+00 -7.0326301891e-05 2.1811768132e+00 -3.7779090608e+00 2.1811768132e+00 3.7779090608e+00 
98800 5.4260592822e+00 -7.0385326787e-05 2.1811768132e+00 -3.7779090608e+00 2.1811768132e+00 3.7779090608e+00 
98900 5.4260592822e+00 -7.0448738843e-05 2.1811768132e+00 -3.7779090608e+00 2.1811768132e+00 3.7779090608e+00 
99000 5.4260592821e+00 -7.0516697017e-05 2.1811768132e+00 -3.7779090608e+00 2.1811768132e+00 3.7779090608e+00 
99100 5.4260592820e+00 -7.0589351069e-05 2.1811768132e+00 -3.7779090608e+00 2.1811768132e+00 3.7779090608e+00 
99200 5.4260592819e+00 -7.0666839495e-05 2.1811768132e+00 -3.7779090608e+00 2.1811768132e+00 3.7779090608e+00 
99300 5.4260592819e+00 -7.0749287773e-05 2.1811768132e+00 -3.7779090608e+00 2.1811768132e+00 3.7779090608e+00 
99400 5.4260592817e+00 -7.0228536613e-05 2.1811784351e+00 -3.7779118699e+00 2.1811784351e+00 3.7779118699e+00 
99500 5.4260592816e+00 -7.0317318465e-05 2.1811784351e+00 -3.7779118699e+00 2.1811784351e+00 3.7779118699e+00 
99600 5.4260592815e+00 -7.0411144949e-05 2.1811784351e+00 -3.7779118699e+00 2.1811784351e+00 3.7779118699e+00 
99700 5.4260592815e+00 -7.0510070007e-05 2.1811784351e+00 -3.7779118699e+00 2.1811784351e+00 3.7779118699e+00 
99800 5.4260592814e+00 -7.0614133699e-05 2.1811784351e+00 -3.7779118699e+00 2.1811784351e+00 3.7779118699e+00 
99900 5.4260592813e+00 -7.0723361402e-05 2.1811784351e+00 -3.7779118699e+00 2.1811784351e+00 3.7779118699e+00 
100000 5.4260592812e+00 -7.0229713519e-05 2.1811800563e+00 -3.7779146779e+00 2.1811800563e+00 3.7779146779e+00 
100100 5.4260592811e+00 -7.0345382057e-05 2.1811800563e+00 -3.7779146779e+00 2.1811800563e+00 3.7779146779e+00 
100200 5.4260592810e+00 -7.0465997509e-05 2.1811800563e+00 -3.7779146779e+00 2.1811800563e+00 3.7779146779e+00 
100300 5.4260592810e+00 -7.0591515042e-05 2.1811800563e+00 -3.7779146779e+00 2.1811800563e+00 3.7779146779e+00 
100400 5.4260592809e+00 -7.0721877909e-05 2.1811800563e+00 -3.7779146779e+00 2.1811800563e+00 3.7779146779e+00 
100500 5.4260592808e+00 -7.0248979122e-05 2.1811816775e+00 -3.7779174859e+00 2.1811816775e+00 3.7779174859e+00 
100600 5.4260592807e+00 -7.0384911927e-05 2.1811816775e+00 -3.7779174859e+00 2.1811816775e+00 3.7779174859e+00 
100700 5.4260592807e+00 -7.0525246216e-05 2.1811816775e+00 -3.7779174859e+00 2.1811816775e+00 3.7779174859e+00 
100800 5.4260592806e+00 -7.0669868955e-05 2.1811816775e+00 -3.7779174859e+00 2.1811816775e+00 3.7779174859e+00 
100900 5.4260592806e+00 -7.0818659216e-05 2.1811816775e+00 -3.7779174859e+00 2.1811816775e+00 3.7779174859e+00 
101000 5.4260592804e+00 -7.0362617265e-05 2.1811833009e+00 -3.7779202977e+00 2.1811833009e+00 3.7779202977e+00 
101100 5.4260592804e+00 -7.0515440911e-05 2.1811833009e+00 -3.7779202977e+00 2.1811833009e+00 3.7779202977e+00 
101200 5.4260592803e+00 -7.0671820930e-05 2.1811833009e+00 -3.7779202977e+00 2.1811833009e+00 3.7779202977e+00 
101300 5.4260592803e+00 -7.0831597438e-05 2.1811833009e+00 -3.7779202977e+00 2.1811833009e+00 3.7779202977e+00 
101400 5.4260592801e+00 -7.0385625229e-05 2.1811849246e+00 -3.7779231100e+00 2.1811849246e+00 3.7779231100e+00 
101500 5.4260592801e+00 -7.0547793962e-05 2.1811849246e+00 -3.7779231100e+00 2.1811849246e+00 3.7779231100e+00 
101600 5.4260592800e+00 -7.0712658512e-05 2.1811849246e+00 -3.7779231100e+00 2.1811849246e+00 3.7779231100e+00 
101700 5.4260592799e+00 -7.0272079226e-05 2.1811865455e+00 -3.7779259176e+00 2.1811865455e+00 3.7779259176e+00 
101800 5.4260592798e+00 -7.0437892541e-05 2.1811865455e+00 -3.7779259176e+00 2.1811865455e+00 3.7779259176e+00 
101900 5.4260592798e+00 -7.0605660975e-05 2.1811865455e+00 -3.7779259176e+00 2.1811865455e+00 3.7779259176e+00 
102000 5.4260592798e+00 -7.0775198143e-05 2.1811865455e+00 -3.7779259176e+00 2.1811865455e+00 3.7779259176e+00 
102100 5.4260592796e+00 -7.0337826100e-05 2.1811881679e+00 -3.7779287277e+00 2.1811881679e+00 3.7779287277e+00 
102200 5.4260592796e+00 -7.0506454644e-05 2.1811881679e+00 -3.7779287277e+00 2.1811881679e+00 3.7779287277e+00 
102300 5.4260592795e+00 -7.0676117491e-05 2.1811881679e+00 -3.7779287277e+00 2.1811881679e+00 3.7779287277e+00 
102400 5.4260592795e+00 -7.0846636485e-05 2.1811881679e+00 -3.7779287277e+00 2.1811881679e+00 3.7779287277e+00 
102500 5.4260592794e+00 -7.0408731086e-05 2.1811897920e+00 -3.7779315406e+00 2.1811897920e+00 3.7779315406e+00 
102600 5.4260592793e+00 -7.0576548267e-05 2.1811897920e+00 -3.7779315406e+00 2.1811897920e+00 3.7779315406e+00 
102700 5.4260592793e+00 -7.0744528106e-05 2.1811897920e+00 -3.7779315406e+00 2.1811897920e+00 3.7779315406e+00 
102800 5.4260592792e+00 -7.0304280298e-05 2.1811914137e+00 -3.7779343495e+00 2.1811914137e+00 3.7779343495e+00 
102900 5.4260592791e+00 -7.0468214193e-05 2.1811914137e+00 -3.7779343495e+00 2.1811914137e+00 3.7779343495e+00 
103000 5.4260592791e+00 -7.0631660168e-05 2.1811914137e+00 -3.7779343495e+00 2.1811914137e+00 3.7779343495e+00 
103100 5.4260592791e+00 -7.0794478055e-05 2.1811914137e+00 -3.7779343495e+00 2.1811914137e+00 3.7779343495e+00 
103200 5.4260592789e+00 -7.0347879733e-05 2.1811930365e+00 -3.7779371603e+00 2.1811930365e+00 3.7779371603e+00 
103300 5.4260592789e+00 -7.0505161513e-05 2.1811930365e+00 -3.7779371603e+00 2.1811930365e+00 3.7779371603e+00 
103400 5.4260592789e+00 -7.0614561740e-05 2.1811930365e+00 -3.7779371603e+00 2.1811930365e+00 3.7779371603e+00 
103400 5.4260592789e+00 -7.0614561740e-05 2.1811930365e+00 -3.7779371603e+00 2.1811930365e+00 3.7779371603e+00 
