# step Hamiltonian StressXX CellTensor1 CellTensor2 CellTensor3 CellTensor4 
0 4.8537584411e+00 5.9625565149e-02 1.6387017056e+00 -2.8383146126e+00 1.6387017056e+00 2.8383146126e+00 
100 4.8496214906e+00 5.7814381434e-02 1.6387017056e+00 -2.8383146126e+00 1.6387017056e+00 2.8383146126e+00 
200 4.8451202982e+00 5.4142054351e-02 1.6369379924e+00 -2.8352597717e+00 1.6369379924e+00 2.8352597717e+00 
300 4.8403914985e+00 5.0610713087e-02 1.6352845110e+00 -2.8323958580e+00 1.6352845110e+00 2.8323958580e+00 
400 4.8354434189e+00 4.7216167807e-02 1.6337372964e+00 -2.8297160036e+00 1.6337372964e+00 2.8297160036e+00 
500 4.8302927488e+00 4.3956614591e-02 1.6322924741e+00 -2.8272134979e+00 1.6322924741e+00 2.8272134979e+00 
600 4.8249625894e+00 4.0832132797e-02 1.6309461907e+00 -2.8248816666e+00 1.6309461907e+00 2.8248816666e+00 
700 4.8194807189e+00 3.7844220220e-02 1.6296945581e+00 -2.8227137755e+00 1.6296945581e+00 2.8227137755e+00 
800 4.8138780701e+00 3.4995371807e-02 1.6285336129e+00 -2.8207029594e+00 1.6285336129e+00 2.8207029594e+00 
900 4.8081874144e+00 3.2288705511e-02 1.6274592869e+00 -2.8188421721e+00 1.6274592869e+00 2.8188421721e+00 
1000 4.8024422416e+00 2.9727636877e-02 1.6264673904e+00 -2.8171241570e+00 1.6264673904e+00 2.8171241570e+00 
1100 4.7966758249e+00 2.7315602236e-02 1.6255536047e+00 -2.8155414338e+00 1.6255536047e+00 2.8155414338e+00 
1200 4.7909204553e+00 2.5055828990e-02 1.6247134833e+00 -2.8140863008e+00 1.6247134833e+00 2.8140863008e+00 
1300 4.7852068332e+00 2.2951150355e-02 1.6239424598e+00 -2.8127508489e+00 1.6239424598e+00 2.8127508489e+00 
1400 4.7795635986e+00 2.1003861171e-02 1.6232358619e+00 -2.8115269855e+00 1.6232358619e+00 2.8115269855e+00 
1500 4.7740169865e+00 1.9215610837e-02 1.6225889299e+00 -2.8104064664e+00 1.6225889299e+00 2.8104064664e+00 
1600 4.7685905913e+00 1.7587329181e-02 1.6219968378e+00 -2.8093809328e+00 1.6219968378e+00 2.8093809328e+00 
1700 4.7633052246e+00 1.6119181005e-02 1.6214547175e+00 -2.8084419528e+00 1.6214547175e+00 2.8084419528e+00 
1800 4.7581788534e+00 1.4810545111e-02 1.6209576836e+00 -2.8075810650e+00 1.6209576836e+00 2.8075810650e+00 
1900 4.7532266043e+00 1.3660013860e-02 1.6205008596e+00 -2.8067898225e+00 1.6205008596e+00 2.8067898225e+00 
2000 4.7484608234e+00 1.2665409567e-02 1.6200794028e+00 -2.8060598379e+00 1.6200794028e+00 2.8060598379e+00 
2100 4.7438911792e+00 1.1823814423e-02 1.6196885300e+00 -2.8053828263e+00 1.6196885300e+00 2.8053828263e+00 
2200 4.7395248005e+00 1.1131610974e-02 1.6193235410e+00 -2.8047506468e+00 1.6193235410e+00 2.8047506468e+00 
2300 4.7353664393e+00 1.0584530583e-02 1.6189798414e+00 -2.8041553417e+00 1.6189798414e+00 2.8041553417e+00 
2400 4.7314186524e+00 1.0177707660e-02 1.6186529635e+00 -2.8035891725e+00 1.6186529635e+00 2.8035891725e+00 
2500 4.7276819951e+00 9.9057377852e-03 1.6183385855e+00 -2.8030446538e+00 1.6183385855e+00 2.8030446538e+00 
2600 4.7241552205e+00 9.7627381851e-03 1.6180325486e+00 -2.8025145824e+00 1.6180325486e+00 2.8025145824e+00 
2700 4.7208354822e+00 9.7424092700e-03 1.6177308725e+00 -2.8019920641e+00 1.6177308725e+00 2.8019920641e+00 
2800 4.7177185338e+00 9.8380962183e-03 1.6174297684e+00 -2.8014705366e+00 1.6174297684e+00 2.8014705366e+00 
2900 4.7147989243e+00 1.0042849784e-02 1.6171256505e+00 -2.8009437889e+00 1.6171256505e+00 2.8009437889e+00 
3000 4.7120701866e+00 1.0349485686e-02 1.6168151450e+00 -2.8004059776e+00 1.6168151450e+00 2.8004059776e+00 
3100 4.7095250157e+00 1.0750642091e-02 1.6164950978e+00 -2.7998516395e+00 1.6164950978e+00 2.7998516395e+00 
3200 4.7071554372e+00 1.1238834803e-02 1.6161625798e+00 -2.7992757015e+00 1.6161625798e+00 2.7992757015e+00 
3300 4.7049529643e+00 1.1806509881e-02 1.6158148910e+00 -2.7986734869e+00 1.6158148910e+00 2.7986734869e+00 
3400 4.7029087421e+00 1.2446093483e-02 1.6154495625e+00 -2.7980407193e+00 1.6154495625e+00 2.7980407193e+00 
3500 4.7010136789e+00 1.3150038768e-02 1.6150643571e+00 -2.7973735239e+00 1.6150643571e+00 2.7973735239e+00 
3600 4.6992585659e+00 1.3910869755e-02 1.6146572685e+00 -2.7966684258e+00 1.6146572685e+00 2.7966684258e+00 
3700 4.6976341830e+00 1.4721222061e-02 1.6142265191e+00 -2.7959223460e+00 1.6142265191e+00 2.7959223460e+00 
3800 4.6961313925e+00 1.5573880453e-02 1.6137705568e+00 -2.7951325962e+00 1.6137705568e+00 2.7951325962e+00 
3900 4.6947412208e+00 1.6461813185e-02 1.6132880501e+00 -2.7942968699e+00 1.6132880501e+00 2.7942968699e+00 
4000 4.6934549284e+00 1.7378203105e-02 1.6127778825e+00 -2.7934132338e+00 1.6127778825e+00 2.7934132338e+00 
4100 4.6922640685e+00 1.8316475501e-02 1.6122391463e+00 -2.7924801154e+00 1.6122391463e+00 2.7924801154e+00 
4200 4.6911605353e+00 1.9270322712e-02 1.6116711351e+00 -2.7914962910e+00 1.6116711351e+00 2.7914962910e+00 
4300 4.6901366031e+00 2.0233725509e-02 1.6110733354e+00 -2.7904608715e+00 1.6110733354e+00 2.7904608715e+00 
4400 4.6891849551e+00 2.1200971279e-02 1.6104454182e+00 -2.7893732872e+00 1.6104454182e+00 2.7893732872e+00 
4500 4.6882987052e+00 2.2166669057e-02 1.6097872299e+00 -2.7882332716e+00 1.6097872299e+00 2.7882332716e+00 
4600 4.6874714115e+00 2.3125761463e-02 1.6090987822e+00 -2.7870408451e+00 1.6090987822e+00 2.7870408451e+00 
4700 4.6866970830e+00 2.4073533629e-02 1.6083802421e+00 -2.7857962972e+00 1.6083802421e+00 2.7857962972e+00 
4800 4.6859701811e+00 2.5005619214e-02 1.6076319220e+00 -2.7845001687e+00 1.6076319220e+00 2.7845001687e+00 
4900 4.6852856146e+00 2.5918003613e-02 1.6068542688e+00 -2.7831532339e+00 1.6068542688e+00 2.7831532339e+00 
5000 4.6846387312e+00 2.6807024504e-02 1.6060478536e+00 -2.7817564818e+00 1.6060478536e+00 2.7817564818e+00 
5100 4.6840253046e+00 2.7669369882e-02 1.6052133609e+00 -2.7803110981e+00 1.6052133609e+00 2.7803110981e+00 
5200 4.6834415183e+00 2.8502073753e-02 1.6043515785e+00 -2.7788184472e+00 1.6043515785e+00 2.7788184472e+00 
5300 4.6828839473e+00 2.9302509657e-02 1.6034633866e+00 -2.7772800537e+00 1.6034633866e+00 2.7772800537e+00 
5400 4.6823495373e+00 3.0068382243e-02 1.6025497479e+00 -2.7756975850e+00 1.6025497479e+00 2.7756975850e+00 
5500 4.6818355824e+00 3.0797717072e-02 1.6016116975e+00 -2.7740728342e+00 1.6016116975e+00 2.7740728342e+00 
5600 4.6813397023e+00 3.1488848888e-02 1.6006503336e+00 -2.7724077030e+00 1.6006503336e+00 2.7724077030e+00 
5700 4.6808598185e+00 3.2140408544e-02 1.5996668077e+00 -2.7707041861e+00 1.5996668077e+00 2.7707041861e+00 
5800 4.6803941298e+00 3.2751308839e-02 1.5986623160e+00 -2.7689643554e+00 1.5986623160e+00 2.7689643554e+00 
5900 4.6799410895e+00 3.3320729434e-02 1.5976380906e+00 -2.7671903451e+00 1.5976380906e+00 2.7671903451e+00 
6000 4.6794993810e+00 3.3848101096e-02 1.5965953919e+00 -2.7653843380e+00 1.5965953919e+00 2.7653843380e+00 
6100 4.6790678959e+00 3.4333089445e-02 1.5955355006e+00 -2.7635485523e+00 1.5955355006e+00 2.7635485523e+00 
6200 4.6786457116e+00 3.4775578405e-02 1.5944597104e+00 -2.7616852291e+00 1.5944597104e+00 2.7616852291e+00 
6300 4.6782320707e+00 3.5175653522e-02 1.5933693219e+00 -2.7597966207e+00 1.5933693219e+00 2.7597966207e+00 
6400 4.6778263614e+00 3.5533585335e-02 1.5922656359e+00 -2.7578849804e+00 1.5922656359e+00 2.7578849804e+00 
6500 4.6774280988e+00 3.5849812916e-02 1.5911499479e+00 -2.7559525522e+00 1.5911499479e+00 2.7559525522e+00 
6600 4.6770369082e+00 3.6124927732e-02 1.5900235431e+00 -2.7540015618e+00 1.5900235431e+00 2.7540015618e+00 
6700 4.6766525086e+00 3.6359657936e-02 1.5888876912e+00 -2.7520342087e+00 1.5888876912e+00 2.7520342087e+00 
6800 4.6762746991e+00 3.6554853172e-02 1.5877436427e+00 -2.7500526586e+00 1.5877436427e+00 2.7500526586e+00 
6900 4.6759033450e+00 3.6711469996e-02 1.5865926247e+00 -2.7480590368e+00 1.5865926247e+00 2.7480590368e+00 
7000 4.6755383660e+00 3.6830557951e-02 1.5854358373e+00 -2.7460554224e+00 1.5854358373e+00 2.7460554224e+00 
7100 4.6751797260e+00 3.6913246374e-02 1.5842744514e+00 -2.7440438430e+00 1.5842744514e+00 2.7440438430e+00 
7200 4.6748274232e+00 3.6960731947e-02 1.5831096053e+00 -2.7420262703e+00 1.5831096053e+00 2.7420262703e+00 
7300 4.6744814821e+00 3.6974267027e-02 1.5819424029e+00 -2.7400046164e+00 1.5819424029e+00 2.7400046164e+00 
7400 4.6741419457e+00 3.6955148769e-02 1.5807739118e+00 -2.7379807306e+00 1.5807739118e+00 2.7379807306e+00 
7500 4.6738088699e+00 3.6904709035e-02 1.5796051618e+00 -2.7359563961e+00 1.5796051618e+00 2.7359563961e+00 
7600 4.6734823174e+00 3.6824305091e-02 1.5784371434e+00 -2.7339333290e+00 1.5784371434e+00 2.7339333290e+00 
7700 4.6731623537e+00 3.6715311071e-02 1.5772708073e+00 -2.7319131755e+00 1.5772708073e+00 2.7319131755e+00 
7800 4.6728490430e+00 3.6579110195e-02 1.5761070632e+00 -2.7298975116e+00 1.5761070632e+00 2.7298975116e+00 
7900 4.6725424451e+00 3.6417087709e-02 1.5749467797e+00 -2.7278878417e+00 1.5749467797e+00 2.7278878417e+00 
8000 4.6722426128e+00 3.6230624519e-02 1.5737907842e+00 -2.7258855987e+00 1.5737907842e+00 2.7258855987e+00 
8100 4.6719495901e+00 3.6021091492e-02 1.5726398623e+00 -2.7238921435e+00 1.5726398623e+00 2.7238921435e+00 
8200 4.6716634106e+00 3.5789844378e-02 1.5714947586e+00 -2.7219087656e+00 1.5714947586e+00 2.7219087656e+00 
8300 4.6713840963e+00 3.5538219332e-02 1.5703561764e+00 -2.7199366834e+00 1.5703561764e+00 2.7199366834e+00 
8400 4.6711116571e+00 3.5267528983e-02 1.5692247786e+00 -2.7179770451e+00 1.5692247786e+00 2.7179770451e+00 
8500 4.6708460903e+00 3.4979059024e-02 1.5681011883e+00 -2.7160309295e+00 1.5681011883e+00 2.7160309295e+00 
8600 4.6705873803e+00 3.4674065286e-02 1.5669859889e+00 -2.7140993475e+00 1.5669859889e+00 2.7140993475e+00 
8700 4.6703354991e+00 3.4353771249e-02 1.5658797256e+00 -2.7121832432e+00 1.5658797256e+00 2.7121832432e+00 
8800 4.6700904061e+00 3.4019365971e-02 1.5647829058e+00 -2.7102834956e+00 1.5647829058e+00 2.7102834956e+00 
8900 4.6698520488e+00 3.3672002384e-02 1.5636960002e+00 -2.7084009200e+00 1.5636960002e+00 2.7084009200e+00 
9000 4.6696203633e+00 3.3312795937e-02 1.5626194439e+00 -2.7065362698e+00 1.5626194439e+00 2.7065362698e+00 
9100 4.6693952750e+00 3.2942823552e-02 1.5615536372e+00 -2.7046902384e+00 1.5615536372e+00 2.7046902384e+00 
9200 4.6691766992e+00 3.2563122860e-02 1.5604989468e+00 -2.7028634611e+00 1.5604989468e+00 2.7028634611e+00 
9300 4.6689645419e+00 3.2174691689e-02 1.5594557070e+00 -2.7010565168e+00 1.5594557070e+00 2.7010565168e+00 
9400 4.6687587006e+00 3.1778487785e-02 1.5584242208e+00 -2.6992699302e+00 1.5584242208e+00 2.6992699302e+00 
9500 4.6685590654e+00 3.1375428736e-02 1.5574047609e+00 -2.6975041738e+00 1.5574047609e+00 2.6975041738e+00 
9600 4.6683655195e+00 3.0966392074e-02 1.5563975711e+00 -2.6957596699e+00 1.5563975711e+00 2.6957596699e+00 
9700 4.6681779398e+00 3.0552215545e-02 1.5554028673e+00 -2.6940367924e+00 1.5554028673e+00 2.6940367924e+00 
9800 4.6679961984e+00 3.0133697511e-02 1.5544208388e+00 -2.6923358692e+00 1.5544208388e+00 2.6923358692e+00 
9900 4.6678201629e+00 2.9711597481e-02 1.5534516494e+00 -2.6906571839e+00 1.5534516494e+00 2.6906571839e+00 
10000 4.6676496973e+00 2.9286636750e-02 1.5524954385e+00 -2.6890009781e+00 1.5524954385e+00 2.6890009781e+00 
10100 4.6674846625e+00 2.8859499128e-02 1.5515523224e+00 -2.6873674530e+00 1.5515523224e+00 2.6873674530e+00 
10200 4.6673249174e+00 2.8430831748e-02 1.5506223952e+00 -2.6857567719e+00 1.5506223952e+00 2.6857567719e+00 
10300 4.6671703191e+00 2.8001245937e-02 1.5497057301e+00 -2.6841690613e+00 1.5497057301e+00 2.6841690613e+00 
10400 4.6670207240e+00 2.7571318149e-02 1.5488023804e+00 -2.6826044138e+00 1.5488023804e+00 2.6826044138e+00 
10500 4.6668759879e+00 2.7141590936e-02 1.5479123806e+00 -2.6810628889e+00 1.5479123806e+00 2.6810628889e+00 
10600 4.6667359667e+00 2.6712573955e-02 1.5470357475e+00 -2.6795445157e+00 1.5470357475e+00 2.6795445157e+00 
10700 4.6666005170e+00 2.6284745007e-02 1.5461724808e+00 -2.6780492940e+00 1.5461724808e+00 2.6780492940e+00 
10800 4.6664694962e+00 2.5858551093e-02 1.5453225648e+00 -2.6765771962e+00 1.5453225648e+00 2.6765771962e+00 
10900 4.6663427634e+00 2.5434409477e-02 1.5444859687e+00 -2.6751281693e+00 1.5444859687e+00 2.6751281693e+00 
11000 4.6662201793e+00 2.5012708768e-02 1.5436626479e+00 -2.6737021359e+00 1.5436626479e+00 2.6737021359e+00 
11100 4.6661016067e+00 2.4593809994e-02 1.5428525447e+00 -2.6722989960e+00 1.5428525447e+00 2.6722989960e+00 
11200 4.6659869108e+00 2.4178047679e-02 1.5420555894e+00 -2.6709186289e+00 1.5420555894e+00 2.6709186289e+00 
11300 4.6658759592e+00 2.3765730907e-02 1.5412717007e+00 -2.6695608939e+00 1.5412717007e+00 2.6695608939e+00 
11400 4.6657686225e+00 2.3357144384e-02 1.5405007870e+00 -2.6682256322e+00 1.5405007870e+00 2.6682256322e+00 
11500 4.6656647743e+00 2.2952549482e-02 1.5397427469e+00 -2.6669126683e+00 1.5397427469e+00 2.6669126683e+00 
11600 4.6655642913e+00 2.2552185264e-02 1.5389974699e+00 -2.6656218106e+00 1.5389974699e+00 2.6656218106e+00 
11700 4.6654670532e+00 2.2156269495e-02 1.5382648373e+00 -2.6643528537e+00 1.5382648373e+00 2.6643528537e+00 
11800 4.6653729434e+00 2.1764999633e-02 1.5375447227e+00 -2.6631055786e+00 1.5375447227e+00 2.6631055786e+00 
11900 4.6652818485e+00 2.1378553793e-02 1.5368369927e+00 -2.6618797544e+00 1.5368369927e+00 2.6618797544e+00 
12000 4.6651936585e+00 2.0997091694e-02 1.5361415078e+00 -2.6606751391e+00 1.5361415078e+00 2.6606751391e+00 
12100 4.6651082672e+00 2.0620755574e-02 1.5354581224e+00 -2.6594914808e+00 1.5354581224e+00 2.6594914808e+00 
12200 4.6650255715e+00 2.0249671090e-02 1.5347866859e+00 -2.6583285187e+00 1.5347866859e+00 2.6583285187e+00 
12300 4.6649454720e+00 1.9883948178e-02 1.5341270431e+00 -2.6571859839e+00 1.5341270431e+00 2.6571859839e+00 
12400 4.6648678727e+00 1.9523681900e-02 1.5334790346e+00 -2.6560636002e+00 1.5334790346e+00 2.6560636002e+00 
12500 4.6647926813e+00 1.9168953258e-02 1.5328424973e+00 -2.6549610854e+00 1.5328424973e+00 2.6549610854e+00 
12600 4.6647198084e+00 1.8819829976e-02 1.5322172651e+00 -2.6538781514e+00 1.5322172651e+00 2.6538781514e+00 
12700 4.6646491684e+00 1.8476367266e-02 1.5316031690e+00 -2.6528145058e+00 1.5316031690e+00 2.6528145058e+00 
12800 4.6645806788e+00 1.8138608556e-02 1.5310000378e+00 -2.6517698519e+00 1.5310000378e+00 2.6517698519e+00 
12900 4.6645142602e+00 1.7806586201e-02 1.5304076982e+00 -2.6507438896e+00 1.5304076982e+00 2.6507438896e+00 
13000 4.6644498365e+00 1.7480322157e-02 1.5298259755e+00 -2.6497363164e+00 1.5298259755e+00 2.6497363164e+00 
13100 4.6643873347e+00 1.7159828635e-02 1.5292546938e+00 -2.6487468273e+00 1.5292546938e+00 2.6487468273e+00 
13200 4.6643266845e+00 1.6845108731e-02 1.5286936761e+00 -2.6477751162e+00 1.5286936761e+00 2.6477751162e+00 
13300 4.6642678187e+00 1.6536157024e-02 1.5281427450e+00 -2.6468208756e+00 1.5281427450e+00 2.6468208756e+00 
13400 4.6642106729e+00 1.6232960150e-02 1.5276017229e+00 -2.6458837978e+00 1.5276017229e+00 2.6458837978e+00 
13500 4.6641551853e+00 1.5935497358e-02 1.5270704320e+00 -2.6449635749e+00 1.5270704320e+00 2.6449635749e+00 
13600 4.6641012967e+00 1.5643741034e-02 1.5265486947e+00 -2.6440598995e+00 1.5265486947e+00 2.6440598995e+00 
13700 4.6640489505e+00 1.5357657205e-02 1.5260363342e+00 -2.6431724651e+00 1.5260363342e+00 2.6431724651e+00 
13800 4.6639980923e+00 1.5077206021e-02 1.5255331741e+00 -2.6423009662e+00 1.5255331741e+00 2.6423009662e+00 
13900 4.6639486703e+00 1.4802342213e-02 1.5250390389e+00 -2.6414450989e+00 1.5250390389e+00 2.6414450989e+00 
14000 4.6639006348e+00 1.4533015527e-02 1.5245537544e+00 -2.6406045615e+00 1.5245537544e+00 2.6406045615e+00 
14100 4.6638539381e+00 1.4269171146e-02 1.5240771475e+00 -2.6397790541e+00 1.5240771475e+00 2.6397790541e+00 
14200 4.6638085348e+00 1.4010750079e-02 1.5236090465e+00 -2.6389682794e+00 1.5236090465e+00 2.6389682794e+00 
14300 4.6637643811e+00 1.3757689540e-02 1.5231492814e+00 -2.6381719429e+00 1.5231492814e+00 2.6381719429e+00 
14400 4.6637214355e+00 1.3509923305e-02 1.5226976838e+00 -2.6373897530e+00 1.5226976838e+00 2.6373897530e+00 
14500 4.6636796579e+00 1.3267382049e-02 1.5222540873e+00 -2.6366214213e+00 1.5222540873e+00 2.6366214213e+00 
14600 4.6636390100e+00 1.3029993666e-02 1.5218183273e+00 -2.6358666628e+00 1.5218183273e+00 2.6358666628e+00 
14700 4.6635994554e+00 1.2797683576e-02 1.5213902413e+00 -2.6351251961e+00 1.5213902413e+00 2.6351251961e+00 
14800 4.6635609588e+00 1.2570375004e-02 1.5209696690e+00 -2.6343967434e+00 1.5209696690e+00 2.6343967434e+00 
14900 4.6635234867e+00 1.2347989260e-02 1.5205564521e+00 -2.6336810309e+00 1.5205564521e+00 2.6336810309e+00 
15000 4.6634870069e+00 1.2130445989e-02 1.5201504350e+00 -2.6329777885e+00 1.5201504350e+00 2.6329777885e+00 
15100 4.6634514884e+00 1.1917663412e-02 1.5197514641e+00 -2.6322867507e+00 1.5197514641e+00 2.6322867507e+00 
15200 4.6634169016e+00 1.1709558555e-02 1.5193593885e+00 -2.6316076558e+00 1.5193593885e+00 2.6316076558e+00 
15300 4.6633832181e+00 1.1506047460e-02 1.5189740595e+00 -2.6309402464e+00 1.5189740595e+00 2.6309402464e+00 
15400 4.6633504105e+00 1.1307045388e-02 1.5185953312e+00 -2.6302842698e+00 1.5185953312e+00 2.6302842698e+00 
15500 4.6633184528e+00 1.1112467004e-02 1.5182230601e+00 -2.6296394773e+00 1.5182230601e+00 2.6296394773e+00 
15600 4.6632873197e+00 1.0922226551e-02 1.5178571053e+00 -2.6290056250e+00 1.5178571053e+00 2.6290056250e+00 
15700 4.6632569870e+00 1.0736238022e-02 1.5174973285e+00 -2.6283824733e+00 1.5174973285e+00 2.6283824733e+00 
15800 4.6632274315e+00 1.0554415304e-02 1.5171435941e+00 -2.6277697873e+00 1.5171435941e+00 2.6277697873e+00 
15900 4.6631986308e+00 1.0376672329e-02 1.5167957690e+00 -2.6271673366e+00 1.5167957690e+00 2.6271673366e+00 
16000 4.6631705632e+00 1.0202923200e-02 1.5164537229e+00 -2.6265748954e+00 1.5164537229e+00 2.6265748954e+00 
16100 4.6631432081e+00 1.0033082323e-02 1.5161173280e+00 -2.6259922423e+00 1.5161173280e+00 2.6259922423e+00 
16200 4.6631165454e+00 9.8670645136e-03 1.5157864592e+00 -2.6254191608e+00 1.5157864592e+00 2.6254191608e+00 
16300 4.6630905559e+00 9.7047851072e-03 1.5154609941e+00 -2.6248554387e+00 1.5154609941e+00 2.6248554387e+00 
16400 4.6630652209e+00 9.5461600562e-03 1.5151408129e+00 -2.6243008686e+00 1.5151408129e+00 2.6243008686e+00 
16500 4.6630405226e+00 9.3911060198e-03 1.5148257983e+00 -2.6237552473e+00 1.5148257983e+00 2.6237552473e+00 
16600 4.6630164434e+00 9.2395404463e-03 1.5145158358e+00 -2.6232183764e+00 1.5145158358e+00 2.6232183764e+00 
16700 4.6629929668e+00 9.0913816490e-03 1.5142108132e+00 -2.6226900618e+00 1.5142108132e+00 2.6226900618e+00 
16800 4.6629700765e+00 8.9465488751e-03 1.5139106211e+00 -2.6221701139e+00 1.5139106211e+00 2.6221701139e+00 
16900 4.6629477568e+00 8.8049623678e-03 1.5136151526e+00 -2.6216583475e+00 1.5136151526e+00 2.6216583475e+00 
17000 4.6629259926e+00 8.6665434233e-03 1.5133243033e+00 -2.6211545816e+00 1.5133243033e+00 2.6211545816e+00 
17100 4.6629047691e+00 8.5312144414e-03 1.5130379710e+00 -2.6206586396e+00 1.5130379710e+00 2.6206586396e+00 
17200 4.6628840723e+00 8.3988989713e-03 1.5127560565e+00 -2.6201703492e+00 1.5127560565e+00 2.6201703492e+00 
17300 4.6628638883e+00 8.2695217513e-03 1.5124784624e+00 -2.6196895422e+00 1.5124784624e+00 2.6196895422e+00 
17400 4.6628442037e+00 8.1430087455e-03 1.5122050941e+00 -2.6192160545e+00 1.5122050941e+00 2.6192160545e+00 
17500 4.6628250057e+00 8.0192871741e-03 1.5119358592e+00 -2.6187497260e+00 1.5119358592e+00 2.6187497260e+00 
17600 4.6628062816e+00 7.8982855403e-03 1.5116706677e+00 -2.6182904007e+00 1.5116706677e+00 2.6182904007e+00 
17700 4.6627880192e+00 7.7799336536e-03 1.5114094316e+00 -2.6178379266e+00 1.5114094316e+00 2.6178379266e+00 
17800 4.6627702068e+00 7.6641626487e-03 1.5111520655e+00 -2.6173921553e+00 1.5111520655e+00 2.6173921553e+00 
17900 4.6627528328e+00 7.5509050009e-03 1.5108984858e+00 -2.6169529425e+00 1.5108984858e+00 2.6169529425e+00 
18000 4.6627358861e+00 7.4400945385e-03 1.5106486114e+00 -2.6165201473e+00 1.5106486114e+00 2.6165201473e+00 
18100 4.6627193557e+00 7.3316664518e-03 1.5104023631e+00 -2.6160936328e+00 1.5104023631e+00 2.6160936328e+00 
18200 4.6627032312e+00 7.2255572998e-03 1.5101596639e+00 -2.6156732654e+00 1.5101596639e+00 2.6156732654e+00 
18300 4.6626875023e+00 7.1217050131e-03 1.5099204386e+00 -2.6152589151e+00 1.5099204386e+00 2.6152589151e+00 
18400 4.6626721590e+00 7.0200488955e-03 1.5096846143e+00 -2.6148504554e+00 1.5096846143e+00 2.6148504554e+00 
18500 4.6626571915e+00 6.9205296223e-03 1.5094521198e+00 -2.6144477630e+00 1.5094521198e+00 2.6144477630e+00 
18600 4.6626425905e+00 6.8230892369e-03 1.5092228858e+00 -2.6140507181e+00 1.5092228858e+00 2.6140507181e+00 
18700 4.6626283466e+00 6.7276711453e-03 1.5089968450e+00 -2.6136592040e+00 1.5089968450e+00 2.6136592040e+00 
18800 4.6626144511e+00 6.6342201086e-03 1.5087739318e+00 -2.6132731070e+00 1.5087739318e+00 2.6132731070e+00 
18900 4.6626008951e+00 6.5426822341e-03 1.5085540825e+00 -2.6128923168e+00 1.5085540825e+00 2.6128923168e+00 
19000 4.6625876701e+00 6.4530049644e-03 1.5083372349e+00 -2.6125167258e+00 1.5083372349e+00 2.6125167258e+00 
19100 4.6625747680e+00 6.3651370649e-03 1.5081233288e+00 -2.6121462295e+00 1.5081233288e+00 2.6121462295e+00 
19200 4.6625621805e+00 6.2790286110e-03 1.5079123053e+00 -2.6117807261e+00 1.5079123053e+00 2.6117807261e+00 
19300 4.6625498999e+00 6.1946309727e-03 1.5077041074e+00 -2.6114201167e+00 1.5077041074e+00 2.6114201167e+00 
19400 4.6625379185e+00 6.1118967990e-03 1.5074986794e+00 -2.6110643051e+00 1.5074986794e+00 2.6110643051e+00 
19500 4.6625262289e+00 6.0307800011e-03 1.5072959675e+00 -2.6107131978e+00 1.5072959675e+00 2.6107131978e+00 
19600 4.6625148238e+00 5.9512357345e-03 1.5070959190e+00 -2.6103667036e+00 1.5070959190e+00 2.6103667036e+00 
19700 4.6625036961e+00 5.8732203804e-03 1.5068984828e+00 -2.6100247340e+00 1.5068984828e+00 2.6100247340e+00 
19800 4.6624928389e+00 5.7966915266e-03 1.5067036092e+00 -2.6096872031e+00 1.5067036092e+00 2.6096872031e+00 
19900 4.6624822455e+00 5.7216079472e-03 1.5065112499e+00 -2.6093540271e+00 1.5065112499e+00 2.6093540271e+00 
20000 4.6624719093e+00 5.6479295823e-03 1.5063213580e+00 -2.6090251245e+00 1.5063213580e+00 2.6090251245e+00 
20100 4.6624618240e+00 5.5756175172e-03 1.5061338876e+00 -2.6087004163e+00 1.5061338876e+00 2.6087004163e+00 
20200 4.6624519832e+00 5.5046339605e-03 1.5059487944e+00 -2.6083798255e+00 1.5059487944e+00 2.6083798255e+00 
20300 4.6624423810e+00 5.4349422228e-03 1.5057660351e+00 -2.6080632771e+00 1.5057660351e+00 2.6080632771e+00 
20400 4.6624330114e+00 5.3665066943e-03 1.5055855677e+00 -2.6077506984e+00 1.5055855677e+00 2.6077506984e+00 
20500 4.6624238687e+00 5.2992928228e-03 1.5054073513e+00 -2.6074420185e+00 1.5054073513e+00 2.6074420185e+00 
20600 4.6624149471e+00 5.2332670910e-03 1.5052313461e+00 -2.6071371686e+00 1.5052313461e+00 2.6071371686e+00 
20700 4.6624062413e+00 5.1683969940e-03 1.5050575135e+00 -2.6068360817e+00 1.5050575135e+00 2.6068360817e+00 
20800 4.6623977458e+00 5.1046510167e-03 1.5048858158e+00 -2.6065386925e+00 1.5048858158e+00 2.6065386925e+00 
20900 4.6623894555e+00 5.0419986110e-03 1.5047162164e+00 -2.6062449377e+00 1.5047162164e+00 2.6062449377e+00 
21000 4.6623813652e+00 4.9804101730e-03 1.5045486796e+00 -2.6059547556e+00 1.5045486796e+00 2.6059547556e+00 
21100 4.6623734700e+00 4.9198570207e-03 1.5043831709e+00 -2.6056680860e+00 1.5043831709e+00 2.6056680860e+00 
21200 4.6623657651e+00 4.8603113710e-03 1.5042196564e+00 -2.6053848707e+00 1.5042196564e+00 2.6053848707e+00 
21300 4.6623582458e+00 4.8017463174e-03 1.5040581034e+00 -2.6051050527e+00 1.5040581034e+00 2.6051050527e+00 
21400 4.6623509074e+00 4.7441358079e-03 1.5038984799e+00 -2.6048285766e+00 1.5038984799e+00 2.6048285766e+00 
21500 4.6623437455e+00 4.6874546224e-03 1.5037407547e+00 -2.6045553886e+00 1.5037407547e+00 2.6045553886e+00 
21600 4.6623367557e+00 4.6316783512e-03 1.5035848976e+00 -2.6042854362e+00 1.5035848976e+00 2.6042854362e+00 
21700 4.6623299337e+00 4.5767833730e-03 1.5034308791e+00 -2.6040186682e+00 1.5034308791e+00 2.6040186682e+00 
21800 4.6623232755e+00 4.5227468332e-03 1.5032786703e+00 -2.6037550350e+00 1.5032786703e+00 2.6037550350e+00 
21900 4.6623167769e+00 4.4695466231e-03 1.5031282434e+00 -2.6034944879e+00 1.5031282434e+00 2.6034944879e+00 
22000 4.6623104340e+00 4.4171613590e-03 1.5029795711e+00 -2.6032369798e+00 1.5029795711e+00 2.6032369798e+00 
22100 4.6623042430e+00 4.3655703607e-03 1.5028326266e+00 -2.6029824646e+00 1.5028326266e+00 2.6029824646e+00 
22200 4.6622982001e+00 4.3147536323e-03 1.5026873842e+00 -2.6027308974e+00 1.5026873842e+00 2.6027308974e+00 
22300 4.6622923017e+00 4.2646918411e-03 1.5025438186e+00 -2.6024822344e+00 1.5025438186e+00 2.6024822344e+00 
22400 4.6622865442e+00 4.2153662987e-03 1.5024019051e+00 -2.6022364331e+00 1.5024019051e+00 2.6022364331e+00 
22500 4.6622809241e+00 4.1667589412e-03 1.5022616197e+00 -2.6019934517e+00 1.5022616197e+00 2.6019934517e+00 
22600 4.6622754381e+00 4.1188523102e-03 1.5021229390e+00 -2.6017532496e+00 1.5021229390e+00 2.6017532496e+00 
22700 4.6622700827e+00 4.0716295344e-03 1.5019858401e+00 -2.6015157872e+00 1.5019858401e+00 2.6015157872e+00 
22800 4.6622648550e+00 4.0250743110e-03 1.5018503006e+00 -2.6012810259e+00 1.5018503006e+00 2.6012810259e+00 
22900 4.6622597516e+00 3.9791708880e-03 1.5017162987e+00 -2.6010489279e+00 1.5017162987e+00 2.6010489279e+00 
23000 4.6622547695e+00 3.9339040465e-03 1.5015838132e+00 -2.6008194563e+00 1.5015838132e+00 2.6008194563e+00 
23100 4.6622499059e+00 3.8892590836e-03 1.5014528233e+00 -2.6005925751e+00 1.5014528233e+00 2.6005925751e+00 
23200 4.6622451576e+00 3.8452217957e-03 1.5013233086e+00 -2.6003682491e+00 1.5013233086e+00 2.6003682491e+00 
23300 4.6622405220e+00 3.8017784619e-03 1.5011952494e+00 -2.6001464440e+00 1.5011952494e+00 2.6001464440e+00 
23400 4.6622359963e+00 3.7589158281e-03 1.5010686261e+00 -2.5999271260e+00 1.5010686261e+00 2.5999271260e+00 
23500 4.6622315777e+00 3.7166210912e-03 1.5009434198e+00 -2.5997102625e+00 1.5009434198e+00 2.5997102625e+00 
23600 4.6622272638e+00 3.6748818841e-03 1.5008196120e+00 -2.5994958211e+00 1.5008196120e+00 2.5994958211e+00 
23700 4.6622230518e+00 3.6336862606e-03 1.5006971845e+00 -2.5992837704e+00 1.5006971845e+00 2.5992837704e+00 
23800 4.6622189393e+00 3.5930226808e-03 1.5005761196e+00 -2.5990740797e+00 1.5005761196e+00 2.5990740797e+00 
23900 4.6622149239e+00 3.5528799974e-03 1.5004563997e+00 -2.5988667189e+00 1.5004563997e+00 2.5988667189e+00 
24000 4.6622110032e+00 3.5132474414e-03 1.5003380080e+00 -2.5986616583e+00 1.5003380080e+00 2.5986616583e+00 
24100 4.6622071750e+00 3.4741146091e-03 1.5002209276e+00 -2.5984588692e+00 1.5002209276e+00 2.5984588692e+00 
24200 4.6622034369e+00 3.4354714488e-03 1.5001051423e+00 -2.5982583232e+00 1.5001051423e+00 2.5982583232e+00 
24300 4.6621997868e+00 3.3973082485e-03 1.4999906361e+00 -2.5980599926e+00 1.4999906361e+00 2.5980599926e+00 
24400 4.6621962225e+00 3.3596156232e-03 1.4998773932e+00 -2.5978638502e+00 1.4998773932e+00 2.5978638502e+00 
24500 4.6621927420e+00 3.3223845032e-03 1.4997653983e+00 -2.5976698692e+00 1.4997653983e+00 2.5976698692e+00 
24600 4.6621893432e+00 3.2856061224e-03 1.4996546362e+00 -2.5974780236e+00 1.4996546362e+00 2.5974780236e+00 
24700 4.6621860242e+00 3.2492720071e-03 1.4995450921e+00 -2.5972882877e+00 1.4995450921e+00 2.5972882877e+00 
24800 4.6621827830e+00 3.2133739651e-03 1.4994367515e+00 -2.5971006363e+00 1.4994367515e+00 2.5971006363e+00 
24900 4.6621796177e+00 3.1779040750e-03 1.4993296000e+00 -2.5969150445e+00 1.4993296000e+00 2.5969150445e+00 
25000 4.6621765266e+00 3.1428546761e-03 1.4992236238e+00 -2.5967314883e+00 1.4992236238e+00 2.5967314883e+00 
25100 4.6621735077e+00 3.1082183583e-03 1.4991188089e+00 -2.5965499436e+00 1.4991188089e+00 2.5965499436e+00 
25200 4.6621705595e+00 3.0739879526e-03 1.4990151419e+00 -2.5963703872e+00 1.4990151419e+00 2.5963703872e+00 
25300 4.6621676801e+00 3.0401565218e-03 1.4989126095e+00 -2.5961927958e+00 1.4989126095e+00 2.5961927958e+00 
25400 4.6621648679e+00 3.0067173514e-03 1.4988111986e+00 -2.5960171469e+00 1.4988111986e+00 2.5960171469e+00 
25500 4.6621621214e+00 2.9736639408e-03 1.4987108963e+00 -2.5958434183e+00 1.4987108963e+00 2.5958434183e+00 
25600 4.6621594389e+00 2.9409899954e-03 1.4986116900e+00 -2.5956715879e+00 1.4986116900e+00 2.5956715879e+00 
25700 4.6621568188e+00 2.9086894177e-03 1.4985135673e+00 -2.5955016343e+00 1.4985135673e+00 2.5955016343e+00 
25800 4.6621542598e+00 2.8767562998e-03 1.4984165158e+00 -2.5953335363e+00 1.4984165158e+00 2.5953335363e+00 
25900 4.6621517603e+00 2.8451849162e-03 1.4983205236e+00 -2.5951672730e+00 1.4983205236e+00 2.5951672730e+00 
26000 4.6621493190e+00 2.8139697157e-03 1.4982255788e+00 -2.5950028238e+00 1.4982255788e+00 2.5950028238e+00 
26100 4.6621469344e+00 2.7831053150e-03 1.4981316697e+00 -2.5948401684e+00 1.4981316697e+00 2.5948401684e+00 
26200 4.6621446051e+00 2.7525864914e-03 1.4980387848e+00 -2.5946792870e+00 1.4980387848e+00 2.5946792870e+00 
26300 4.6621423299e+00 2.7224081766e-03 1.4979469128e+00 -2.5945201599e+00 1.4979469128e+00 2.5945201599e+00 
26400 4.6621401075e+00 2.6925654501e-03 1.4978560424e+00 -2.5943627678e+00 1.4978560424e+00 2.5943627678e+00 
26500 4.6621379366e+00 2.6630535335e-03 1.4977661626e+00 -2.5942070915e+00 1.4977661626e+00 2.5942070915e+00 
26600 4.6621358159e+00 2.6338677839e-03 1.4976772627e+00 -2.5940531123e+00 1.4976772627e+00 2.5940531123e+00 
26700 4.6621337444e+00 2.6050036891e-03 1.4975893318e+00 -2.5939008115e+00 1.4975893318e+00 2.5939008115e+00 
26800 4.6621317208e+00 2.5764568615e-03 1.4975023594e+00 -2.5937501709e+00 1.4975023594e+00 2.5937501709e+00 
26900 4.6621297440e+00 2.5482230332e-03 1.4974163351e+00 -2.5936011724e+00 1.4974163351e+00 2.5936011724e+00 
27000 4.6621278129e+00 2.5202980510e-03 1.4973312485e+00 -2.5934537982e+00 1.4973312485e+00 2.5934537982e+00 
27100 4.6621259264e+00 2.4926778713e-03 1.4972470897e+00 -2.5933080308e+00 1.4972470897e+00 2.5933080308e+00 
27200 4.6621240834e+00 2.4653585558e-03 1.4971638484e+00 -2.5931638527e+00 1.4971638484e+00 2.5931638527e+00 
27300 4.6621222830e+00 2.4383362668e-03 1.4970815149e+00 -2.5930212468e+00 1.4970815149e+00 2.5930212468e+00 
27400 4.6621205240e+00 2.4116072628e-03 1.4970000793e+00 -2.5928801962e+00 1.4970000793e+00 2.5928801962e+00 
27500 4.6621188057e+00 2.3851678950e-03 1.4969195320e+00 -2.5927406842e+00 1.4969195320e+00 2.5927406842e+00 
27600 4.6621171269e+00 2.3590146025e-03 1.4968398635e+00 -2.5926026944e+00 1.4968398635e+00 2.5926026944e+00 
27700 4.6621154867e+00 2.3331439092e-03 1.4967610643e+00 -2.5924662102e+00 1.4967610643e+00 2.5924662102e+00 
27800 4.6621138843e+00 2.3075524201e-03 1.4966831253e+00 -2.5923312158e+00 1.4966831253e+00 2.5923312158e+00 
27900 4.6621123188e+00 2.2822368173e-03 1.4966060370e+00 -2.5921976951e+00 1.4966060370e+00 2.5921976951e+00 
28000 4.6621107893e+00 2.2571938575e-03 1.4965297906e+00 -2.5920656324e+00 1.4965297906e+00 2.5920656324e+00 
28100 4.6621092949e+00 2.2324203681e-03 1.4964543770e+00 -2.5919350121e+00 1.4964543770e+00 2.5919350121e+00 
28200 4.6621078348e+00 2.2079132446e-03 1.4963797873e+00 -2.5918058190e+00 1.4963797873e+00 2.5918058190e+00 
28300 4.6621064082e+00 2.1836694473e-03 1.4963060127e+00 -2.5916780377e+00 1.4963060127e+00 2.5916780377e+00 
28400 4.6621050144e+00 2.1596859993e-03 1.4962330446e+00 -2.5915516533e+00 1.4962330446e+00 2.5915516533e+00 
28500 4.6621036526e+00 2.1359599826e-03 1.4961608744e+00 -2.5914266508e+00 1.4961608744e+00 2.5914266508e+00 
28600 4.6621023220e+00 2.1124885370e-03 1.4960894937e+00 -2.5913030157e+00 1.4960894937e+00 2.5913030157e+00 
28700 4.6621010218e+00 2.0892688564e-03 1.4960188939e+00 -2.5911807333e+00 1.4960188939e+00 2.5911807333e+00 
28800 4.6620997515e+00 2.0662981873e-03 1.4959490668e+00 -2.5910597892e+00 1.4959490668e+00 2.5910597892e+00 
28900 4.6620985102e+00 2.0435738264e-03 1.4958800042e+00 -2.5909401693e+00 1.4958800042e+00 2.5909401693e+00 
29000 4.6620972974e+00 2.0210931181e-03 1.4958116980e+00 -2.5908218594e+00 1.4958116980e+00 2.5908218594e+00 
29100 4.6620961123e+00 1.9988534534e-03 1.4957441401e+00 -2.5907048457e+00 1.4957441401e+00 2.5907048457e+00 
29200 4.6620949543e+00 1.9768522668e-03 1.4956773225e+00 -2.5905891144e+00 1.4956773225e+00 2.5905891144e+00 
29300 4.6620938228e+00 1.9550870355e-03 1.4956112375e+00 -2.5904746517e+00 1.4956112375e+00 2.5904746517e+00 
29400 4.6620927171e+00 1.9335552772e-03 1.4955458772e+00 -2.5903614443e+00 1.4955458772e+00 2.5903614443e+00 
29500 4.6620916367e+00 1.9122545485e-03 1.4954812339e+00 -2.5902494788e+00 1.4954812339e+00 2.5902494788e+00 
29600 4.6620905810e+00 1.8911824433e-03 1.4954172999e+00 -2.5901387419e+00 1.4954172999e+00 2.5901387419e+00 
29700 4.6620895494e+00 1.8703365916e-03 1.4953540677e+00 -2.5900292206e+00 1.4953540677e+00 2.5900292206e+00 
29800 4.6620885413e+00 1.8497146575e-03 1.4952915299e+00 -2.5899209019e+00 1.4952915299e+00 2.5899209019e+00 
29900 4.6620875562e+00 1.8293143387e-03 1.4952296790e+00 -2.5898137731e+00 1.4952296790e+00 2.5898137731e+00 
30000 4.6620865936e+00 1.8091333643e-03 1.4951685078e+00 -2.5897078213e+00 1.4951685078e+00 2.5897078213e+00 
30100 4.6620856529e+00 1.7891694942e-03 1.4951080089e+00 -2.5896030342e+00 1.4951080089e+00 2.5896030342e+00 
30200 4.6620847337e+00 1.7694205181e-03 1.4950481751e+00 -2.5894993991e+00 1.4950481751e+00 2.5894993991e+00 
30300 4.6620838354e+00 1.7498842535e-03 1.4949889995e+00 -2.5893969039e+00 1.4949889995e+00 2.5893969039e+00 
30400 4.6620829575e+00 1.7305585459e-03 1.4949304749e+00 -2.5892955363e+00 1.4949304749e+00 2.5892955363e+00 
30500 4.6620820997e+00 1.7114412669e-03 1.4948725944e+00 -2.5891952843e+00 1.4948725944e+00 2.5891952843e+00 
30600 4.6620812614e+00 1.6925303135e-03 1.4948153510e+00 -2.5890961359e+00 1.4948153510e+00 2.5890961359e+00 
30700 4.6620804421e+00 1.6738236077e-03 1.4947587380e+00 -2.5889980793e+00 1.4947587380e+00 2.5889980793e+00 
30800 4.6620796415e+00 1.6553190948e-03 1.4947027486e+00 -2.5889011028e+00 1.4947027486e+00 2.5889011028e+00 
30900 4.6620788591e+00 1.6370147436e-03 1.4946473761e+00 -2.5888051948e+00 1.4946473761e+00 2.5888051948e+00 
31000 4.6620780944e+00 1.6189085450e-03 1.4945926139e+00 -2.5887103438e+00 1.4945926139e+00 2.5887103438e+00 
31100 4.6620773472e+00 1.6009985114e-03 1.4945384553e+00 -2.5886165385e+00 1.4945384553e+00 2.5886165385e+00 
31200 4.6620766169e+00 1.5832826763e-03 1.4944848940e+00 -2.5885237676e+00 1.4944848940e+00 2.5885237676e+00 
31300 4.6620759032e+00 1.5657590935e-03 1.4944319235e+00 -2.5884320199e+00 1.4944319235e+00 2.5884320199e+00 
31400 4.6620752058e+00 1.5484258365e-03 1.4943795373e+00 -2.5883412845e+00 1.4943795373e+00 2.5883412845e+00 
31500 4.6620745241e+00 1.5312809981e-03 1.4943277293e+00 -2.5882515504e+00 1.4943277293e+00 2.5882515504e+00 
31600 4.6620738580e+00 1.5143226899e-03 1.4942764932e+00 -2.5881628067e+00 1.4942764932e+00 2.5881628067e+00 
31700 4.6620732069e+00 1.4975490414e-03 1.4942258227e+00 -2.5880750429e+00 1.4942258227e+00 2.5880750429e+00 
31800 4.6620725707e+00 1.4809582002e-03 1.4941757118e+00 -2.5879882482e+00 1.4941757118e+00 2.5879882482e+00 
31900 4.6620719488e+00 1.4645483312e-03 1.4941261543e+00 -2.5879024122e+00 1.4941261543e+00 2.5879024122e+00 
32000 4.6620713411e+00 1.4483176160e-03 1.4940771444e+00 -2.5878175246e+00 1.4940771444e+00 2.5878175246e+00 
32100 4.6620707471e+00 1.4322642530e-03 1.4940286760e+00 -2.5877335749e+00 1.4940286760e+00 2.5877335749e+00 
32200 4.6620701666e+00 1.4163864569e-03 1.4939807433e+00 -2.5876505530e+00 1.4939807433e+00 2.5876505530e+00 
32300 4.6620695993e+00 1.4006824582e-03 1.4939333405e+00 -2.5875684488e+00 1.4939333405e+00 2.5875684488e+00 
32400 4.6620690448e+00 1.3851505029e-03 1.4938864617e+00 -2.5874872524e+00 1.4938864617e+00 2.5874872524e+00 
32500 4.6620685029e+00 1.3697888524e-03 1.4938401013e+00 -2.5874069539e+00 1.4938401013e+00 2.5874069539e+00 
32600 4.6620679732e+00 1.3545957832e-03 1.4937942536e+00 -2.5873275434e+00 1.4937942536e+00 2.5873275434e+00 
32700 4.6620674556e+00 1.3395695865e-03 1.4937489131e+00 -2.5872490112e+00 1.4937489131e+00 2.5872490112e+00 
32800 4.6620669496e+00 1.3247085681e-03 1.4937040741e+00 -2.5871713479e+00 1.4937040741e+00 2.5871713479e+00 
32900 4.6620664552e+00 1.3100110483e-03 1.4936597313e+00 -2.5870945438e+00 1.4936597313e+00 2.5870945438e+00 
33000 4.6620659719e+00 1.2954753612e-03 1.4936158791e+00 -2.5870185896e+00 1.4936158791e+00 2.5870185896e+00 
33100 4.6620654995e+00 1.2810998551e-03 1.4935725122e+00 -2.5869434760e+00 1.4935725122e+00 2.5869434760e+00 
33200 4.6620650378e+00 1.2668828919e-03 1.4935296253e+00 -2.5868691937e+00 1.4935296253e+00 2.5868691937e+00 
33300 4.6620645866e+00 1.2528228474e-03 1.4934872132e+00 -2.5867957337e+00 1.4934872132e+00 2.5867957337e+00 
33400 4.6620641456e+00 1.2389181106e-03 1.4934452705e+00 -2.5867230868e+00 1.4934452705e+00 2.5867230868e+00 
33500 4.6620637146e+00 1.2251670839e-03 1.4934037922e+00 -2.5866512442e+00 1.4934037922e+00 2.5866512442e+00 
33600 4.6620632933e+00 1.2115681828e-03 1.4933627731e+00 -2.5865801971e+00 1.4933627731e+00 2.5865801971e+00 
33700 4.6620628815e+00 1.1981198359e-03 1.4933222081e+00 -2.5865099366e+00 1.4933222081e+00 2.5865099366e+00 
33800 4.6620624790e+00 1.1848204848e-03 1.4932820924e+00 -2.5864404541e+00 1.4932820924e+00 2.5864404541e+00 
33900 4.6620620857e+00 1.1716685839e-03 1.4932424209e+00 -2.5863717410e+00 1.4932424209e+00 2.5863717410e+00 
34000 4.6620617012e+00 1.1586626003e-03 1.4932031887e+00 -2.5863037889e+00 1.4932031887e+00 2.5863037889e+00 
34100 4.6620613254e+00 1.1458010137e-03 1.4931643910e+00 -2.5862365892e+00 1.4931643910e+00 2.5862365892e+00 
34200 4.6620609581e+00 1.1330823165e-03 1.4931260229e+00 -2.5861701338e+00 1.4931260229e+00 2.5861701338e+00 
34300 4.6620605991e+00 1.1205050134e-03 1.4930880798e+00 -2.5861044144e+00 1.4930880798e+00 2.5861044144e+00 
34400 4.6620602482e+00 1.1080676216e-03 1.4930505569e+00 -2.5860394228e+00 1.4930505569e+00 2.5860394228e+00 
34500 4.6620599052e+00 1.0957686706e-03 1.4930134495e+00 -2.5859751510e+00 1.4930134495e+00 2.5859751510e+00 
34600 4.6620595700e+00 1.0836067021e-03 1.4929767531e+00 -2.5859115910e+00 1.4929767531e+00 2.5859115910e+00 
34700 4.6620592423e+00 1.0715802700e-03 1.4929404632e+00 -2.5858487349e+00 1.4929404632e+00 2.5858487349e+00 
34800 4.6620589221e+00 1.0596879404e-03 1.4929045750e+00 -2.5857865748e+00 1.4929045750e+00 2.5857865748e+00 
34900 4.6620586091e+00 1.0479282913e-03 1.4928690844e+00 -2.5857251032e+00 1.4928690844e+00 2.5857251032e+00 
35000 4.6620583031e+00 1.0362999130e-03 1.4928339867e+00 -2.5856643123e+00 1.4928339867e+00 2.5856643123e+00 
35100 4.6620580041e+00 1.0248014076e-03 1.4927992777e+00 -2.5856041945e+00 1.4927992777e+00 2.5856041945e+00 
35200 4.6620577118e+00 1.0134313889e-03 1.4927649530e+00 -2.5855447424e+00 1.4927649530e+00 2.5855447424e+00 
35300 4.6620574261e+00 1.0021884831e-03 1.4927310084e+00 -2.5854859485e+00 1.4927310084e+00 2.5854859485e+00 
35400 4.6620571468e+00 9.9107132763e-04 1.4926974395e+00 -2.5854278056e+00 1.4926974395e+00 2.5854278056e+00 
35500 4.6620568739e+00 9.8007857213e-04 1.4926642423e+00 -2.5853703064e+00 1.4926642423e+00 2.5853703064e+00 
35600 4.6620566071e+00 9.6920887780e-04 1.4926314126e+00 -2.5853134436e+00 1.4926314126e+00 2.5853134436e+00 
35700 4.6620563463e+00 9.5846091754e-04 1.4925989463e+00 -2.5852572103e+00 1.4925989463e+00 2.5852572103e+00 
35800 4.6620560914e+00 9.4783337595e-04 1.4925668393e+00 -2.5852015993e+00 1.4925668393e+00 2.5852015993e+00 
35900 4.6620558423e+00 9.3732494920e-04 1.4925350876e+00 -2.5851466038e+00 1.4925350876e+00 2.5851466038e+00 
36000 4.6620555987e+00 9.2693434505e-04 1.4925036873e+00 -2.5850922169e+00 1.4925036873e+00 2.5850922169e+00 
36100 4.6620553607e+00 9.1666028281e-04 1.4924726344e+00 -2.5850384317e+00 1.4924726344e+00 2.5850384317e+00 
36200 4.6620551281e+00 9.0650149326e-04 1.4924419250e+00 -2.5849852415e+00 1.4924419250e+00 2.5849852415e+00 
36300 4.6620549007e+00 8.9645671864e-04 1.4924115554e+00 -2.5849326398e+00 1.4924115554e+00 2.5849326398e+00 
36400 4.6620546784e+00 8.8652471261e-04 1.4923815217e+00 -2.5848806198e+00 1.4923815217e+00 2.5848806198e+00 
36500 4.6620544611e+00 8.7670424022e-04 1.4923518201e+00 -2.5848291752e+00 1.4923518201e+00 2.5848291752e+00 
36600 4.6620542488e+00 8.6699407783e-04 1.4923224469e+00 -2.5847782994e+00 1.4923224469e+00 2.5847782994e+00 
36700 4.6620540412e+00 8.5739301311e-04 1.4922933986e+00 -2.5847279861e+00 1.4922933986e+00 2.5847279861e+00 
36800 4.6620538383e+00 8.4789984498e-04 1.4922646713e+00 -2.5846782290e+00 1.4922646713e+00 2.5846782290e+00 
36900 4.6620536400e+00 8.3851338358e-04 1.4922362615e+00 -2.5846290219e+00 1.4922362615e+00 2.5846290219e+00 
37000 4.6620534462e+00 8.2923245021e-04 1.4922081658e+00 -2.5845803586e+00 1.4922081658e+00 2.5845803586e+00 
37100 4.6620532567e+00 8.2005587732e-04 1.4921803804e+00 -2.5845322330e+00 1.4921803804e+00 2.5845322330e+00 
37200 4.6620530715e+00 8.1098250841e-04 1.4921529021e+00 -2.5844846391e+00 1.4921529021e+00 2.5844846391e+00 
37300 4.6620528905e+00 8.0201119804e-04 1.4921257273e+00 -2.5844375709e+00 1.4921257273e+00 2.5844375709e+00 
37400 4.6620527136e+00 7.9314081178e-04 1.4920988525e+00 -2.5843910225e+00 1.4920988525e+00 2.5843910225e+00 
37500 4.6620525406e+00 7.8437022613e-04 1.4920722746e+00 -2.5843449882e+00 1.4920722746e+00 2.5843449882e+00 
37600 4.6620523716e+00 7.7569832848e-04 1.4920459901e+00 -2.5842994621e+00 1.4920459901e+00 2.5842994621e+00 
37700 4.6620522064e+00 7.6712401710e-04 1.4920199957e+00 -2.5842544385e+00 1.4920199957e+00 2.5842544385e+00 
37800 4.6620520449e+00 7.5864620105e-04 1.4919942882e+00 -2.5842099118e+00 1.4919942882e+00 2.5842099118e+00 
37900 4.6620518870e+00 7.5026380015e-04 1.4919688644e+00 -2.5841658764e+00 1.4919688644e+00 2.5841658764e+00 
38000 4.6620517327e+00 7.4197574492e-04 1.4919437210e+00 -2.5841223269e+00 1.4919437210e+00 2.5841223269e+00 
38100 4.6620515819e+00 7.3378097652e-04 1.4919188550e+00 -2.5840792577e+00 1.4919188550e+00 2.5840792577e+00 
38200 4.6620514345e+00 7.2567844674e-04 1.4918942633e+00 -2.5840366635e+00 1.4918942633e+00 2.5840366635e+00 
38300 4.6620512904e+00 7.1766711788e-04 1.4918699426e+00 -2.5839945389e+00 1.4918699426e+00 2.5839945389e+00 
38400 4.6620511496e+00 7.0974596274e-04 1.4918458901e+00 -2.5839528787e+00 1.4918458901e+00 2.5839528787e+00 
38500 4.6620510119e+00 7.0191396458e-04 1.4918221026e+00 -2.5839116776e+00 1.4918221026e+00 2.5839116776e+00 
38600 4.6620508774e+00 6.9417011699e-04 1.4917985773e+00 -2.5838709305e+00 1.4917985773e+00 2.5838709305e+00 
38700 4.6620507459e+00 6.8651342391e-04 1.4917753111e+00 -2.5838306324e+00 1.4917753111e+00 2.5838306324e+00 
38800 4.6620506173e+00 6.7894289953e-04 1.4917523013e+00 -2.5837907781e+00 1.4917523013e+00 2.5837907781e+00 
38900 4.6620504917e+00 6.7145756824e-04 1.4917295448e+00 -2.5837513627e+00 1.4917295448e+00 2.5837513627e+00 
39000 4.6620503689e+00 6.6405646457e-04 1.4917070388e+00 -2.5837123812e+00 1.4917070388e+00 2.5837123812e+00 
39100 4.6620502489e+00 6.5673863312e-04 1.4916847806e+00 -2.5836738289e+00 1.4916847806e+00 2.5836738289e+00 
39200 4.6620501316e+00 6.4950312851e-04 1.4916627673e+00 -2.5836357008e+00 1.4916627673e+00 2.5836357008e+00 
39300 4.6620500169e+00 6.4234901530e-04 1.4916409963e+00 -2.5835979922e+00 1.4916409963e+00 2.5835979922e+00 
39400 4.6620499048e+00 6.3527536796e-04 1.4916194647e+00 -2.5835606984e+00 1.4916194647e+00 2.5835606984e+00 
39500 4.6620497953e+00 6.2828127074e-04 1.4915981699e+00 -2.5835238148e+00 1.4915981699e+00 2.5835238148e+00 
39600 4.6620496882e+00 6.2136581769e-04 1.4915771093e+00 -2.5834873367e+00 1.4915771093e+00 2.5834873367e+00 
39700 4.6620495835e+00 6.1452811251e-04 1.4915562802e+00 -2.5834512596e+00 1.4915562802e+00 2.5834512596e+00 
39800 4.6620494812e+00 6.0776726854e-04 1.4915356800e+00 -2.5834155791e+00 1.4915356800e+00 2.5834155791e+00 
39900 4.6620493812e+00 6.0108240867e-04 1.4915153062e+00 -2.5833802906e+00 1.4915153062e+00 2.5833802906e+00 
40000 4.6620492835e+00 5.9447266526e-04 1.4914951562e+00 -2.5833453897e+00 1.4914951562e+00 2.5833453897e+00 
40100 4.6620491880e+00 5.8793718011e-04 1.4914752275e+00 -2.5833108722e+00 1.4914752275e+00 2.5833108722e+00 
40200 4.6620490947e+00 5.8147510433e-04 1.4914555176e+00 -2.5832767337e+00 1.4914555176e+00 2.5832767337e+00 
40300 4.6620490034e+00 5.7508559832e-04 1.4914360241e+00 -2.5832429700e+00 1.4914360241e+00 2.5832429700e+00 
40400 4.6620489142e+00 5.6876783169e-04 1.4914167445e+00 -2.5832095768e+00 1.4914167445e+00 2.5832095768e+00 
40500 4.6620488271e+00 5.6252098315e-04 1.4913976765e+00 -2.5831765500e+00 1.4913976765e+00 2.5831765500e+00 
40600 4.6620487419e+00 5.5634424051e-04 1.4913788177e+00 -2.5831438856e+00 1.4913788177e+00 2.5831438856e+00 
40700 4.6620486586e+00 5.5023680051e-04 1.4913601658e+00 -2.5831115795e+00 1.4913601658e+00 2.5831115795e+00 
40800 4.6620485772e+00 5.4419786886e-04 1.4913417183e+00 -2.5830796276e+00 1.4913417183e+00 2.5830796276e+00 
40900 4.6620484977e+00 5.3822666006e-04 1.4913234731e+00 -2.5830480259e+00 1.4913234731e+00 2.5830480259e+00 
41000 4.6620484200e+00 5.3232239739e-04 1.4913054279e+00 -2.5830167707e+00 1.4913054279e+00 2.5830167707e+00 
41100 4.6620483440e+00 5.2648431282e-04 1.4912875804e+00 -2.5829858579e+00 1.4912875804e+00 2.5829858579e+00 
41200 4.6620482697e+00 5.2071164695e-04 1.4912699284e+00 -2.5829552838e+00 1.4912699284e+00 2.5829552838e+00 
41300 4.6620481971e+00 5.1500364889e-04 1.4912524698e+00 -2.5829250446e+00 1.4912524698e+00 2.5829250446e+00 
41400 4.6620481262e+00 5.0935957623e-04 1.4912352023e+00 -2.5828951364e+00 1.4912352023e+00 2.5828951364e+00 
41500 4.6620480569e+00 5.0377869496e-04 1.4912181239e+00 -2.5828655558e+00 1.4912181239e+00 2.5828655558e+00 
41600 4.6620479891e+00 4.9826027936e-04 1.4912012324e+00 -2.5828362989e+00 1.4912012324e+00 2.5828362989e+00 
41700 4.6620479229e+00 4.9280361197e-04 1.4911845258e+00 -2.5828073621e+00 1.4911845258e+00 2.5828073621e+00 
41800 4.6620478582e+00 4.8740798348e-04 1.4911680019e+00 -2.5827787419e+00 1.4911680019e+00 2.5827787419e+00 
41900 4.6620477949e+00 4.8207269268e-04 1.4911516588e+00 -2.5827504348e+00 1.4911516588e+00 2.5827504348e+00 
42000 4.6620477331e+00 4.7679704637e-04 1.4911354944e+00 -2.5827224372e+00 1.4911354944e+00 2.5827224372e+00 
42100 4.6620476727e+00 4.7158035926e-04 1.4911195067e+00 -2.5826947457e+00 1.4911195067e+00 2.5826947457e+00 
42200 4.6620476136e+00 4.6642195396e-04 1.4911036937e+00 -2.5826673569e+00 1.4911036937e+00 2.5826673569e+00 
42300 4.6620475559e+00 4.6132116083e-04 1.4910880536e+00 -2.5826402674e+00 1.4910880536e+00 2.5826402674e+00 
42400 4.6620474995e+00 4.5627731796e-04 1.4910725844e+00 -2.5826134739e+00 1.4910725844e+00 2.5826134739e+00 
42500 4.6620474444e+00 4.5128977107e-04 1.4910572841e+00 -2.5825869730e+00 1.4910572841e+00 2.5825869730e+00 
42600 4.6620473905e+00 4.4635787342e-04 1.4910421509e+00 -2.5825607616e+00 1.4910421509e+00 2.5825607616e+00 
42700 4.6620473379e+00 4.4148098578e-04 1.4910271829e+00 -2.5825348363e+00 1.4910271829e+00 2.5825348363e+00 
42800 4.6620472864e+00 4.3665847630e-04 1.4910123784e+00 -2.5825091940e+00 1.4910123784e+00 2.5825091940e+00 
42900 4.6620472361e+00 4.3188972048e-04 1.4909977354e+00 -2.5824838316e+00 1.4909977354e+00 2.5824838316e+00 
43000 4.6620471870e+00 4.2717410107e-04 1.4909832521e+00 -2.5824587460e+00 1.4909832521e+00 2.5824587460e+00 
43100 4.6620471390e+00 4.2251100800e-04 1.4909689269e+00 -2.5824339339e+00 1.4909689269e+00 2.5824339339e+00 
43200 4.6620470920e+00 4.1789983831e-04 1.4909547579e+00 -2.5824093925e+00 1.4909547579e+00 2.5824093925e+00 
43300 4.6620470462e+00 4.1333999608e-04 1.4909407435e+00 -2.5823851187e+00 1.4909407435e+00 2.5823851187e+00 
43400 4.6620470014e+00 4.0883089233e-04 1.4909268818e+00 -2.5823611096e+00 1.4909268818e+00 2.5823611096e+00 
43500 4.6620469576e+00 4.0437194500e-04 1.4909131712e+00 -2.5823373621e+00 1.4909131712e+00 2.5823373621e+00 
43600 4.6620469148e+00 3.9996257880e-04 1.4908996100e+00 -2.5823138734e+00 1.4908996100e+00 2.5823138734e+00 
43700 4.6620468729e+00 3.9560222521e-04 1.4908861965e+00 -2.5822906407e+00 1.4908861965e+00 2.5822906407e+00 
43800 4.6620468320e+00 3.9129032237e-04 1.4908729292e+00 -2.5822676610e+00 1.4908729292e+00 2.5822676610e+00 
43900 4.6620467921e+00 3.8702631502e-04 1.4908598063e+00 -2.5822449315e+00 1.4908598063e+00 2.5822449315e+00 
44000 4.6620467531e+00 3.8280965440e-04 1.4908468264e+00 -2.5822224496e+00 1.4908468264e+00 2.5822224496e+00 
44100 4.6620467149e+00 3.7863979823e-04 1.4908339877e+00 -2.5822002124e+00 1.4908339877e+00 2.5822002124e+00 
44200 4.6620466776e+00 3.7451621060e-04 1.4908212888e+00 -2.5821782173e+00 1.4908212888e+00 2.5821782173e+00 
44300 4.6620466412e+00 3.7043836190e-04 1.4908087281e+00 -2.5821564615e+00 1.4908087281e+00 2.5821564615e+00 
44400 4.6620466056e+00 3.6640572877e-04 1.4907963041e+00 -2.5821349424e+00 1.4907963041e+00 2.5821349424e+00 
44500 4.6620465708e+00 3.6241779402e-04 1.4907840151e+00 -2.5821136573e+00 1.4907840151e+00 2.5821136573e+00 
44600 4.6620465368e+00 3.5847404656e-04 1.4907718599e+00 -2.5820926038e+00 1.4907718599e+00 2.5820926038e+00 
44700 4.6620465036e+00 3.5457398133e-04 1.4907598368e+00 -2.5820717792e+00 1.4907598368e+00 2.5820717792e+00 
44800 4.6620464712e+00 3.5071709923e-04 1.4907479444e+00 -2.5820511810e+00 1.4907479444e+00 2.5820511810e+00 
44900 4.6620464395e+00 3.4690290705e-04 1.4907361813e+00 -2.5820308067e+00 1.4907361813e+00 2.5820308067e+00 
45000 4.6620464085e+00 3.4313091743e-04 1.4907245460e+00 -2.5820106538e+00 1.4907245460e+00 2.5820106538e+00 
45100 4.6620463782e+00 3.3940064875e-04 1.4907130372e+00 -2.5819907199e+00 1.4907130372e+00 2.5819907199e+00 
45200 4.6620463486e+00 3.3571162510e-04 1.4907016534e+00 -2.5819710026e+00 1.4907016534e+00 2.5819710026e+00 
45300 4.6620463197e+00 3.3206337618e-04 1.4906903932e+00 -2.5819514994e+00 1.4906903932e+00 2.5819514994e+00 
45400 4.6620462914e+00 3.2845543727e-04 1.4906792553e+00 -2.5819322080e+00 1.4906792553e+00 2.5819322080e+00 
45500 4.6620462638e+00 3.2488734915e-04 1.4906682384e+00 -2.5819131261e+00 1.4906682384e+00 2.5819131261e+00 
45600 4.6620462369e+00 3.2135865801e-04 1.4906573410e+00 -2.5818942513e+00 1.4906573410e+00 2.5818942513e+00 
45700 4.6620462105e+00 3.1786891544e-04 1.4906465619e+00 -2.5818755814e+00 1.4906465619e+00 2.5818755814e+00 
45800 4.6620461848e+00 3.1441767833e-04 1.4906358998e+00 -2.5818571141e+00 1.4906358998e+00 2.5818571141e+00 
45900 4.6620461596e+00 3.1100450881e-04 1.4906253534e+00 -2.5818388471e+00 1.4906253534e+00 2.5818388471e+00 
46000 4.6620461350e+00 3.0762897418e-04 1.4906149214e+00 -2.5818207784e+00 1.4906149214e+00 2.5818207784e+00 
46100 4.6620461110e+00 3.0429064689e-04 1.4906046025e+00 -2.5818029056e+00 1.4906046025e+00 2.5818029056e+00 
46200 4.6620460875e+00 3.0098910444e-04 1.4905943956e+00 -2.5817852267e+00 1.4905943956e+00 2.5817852267e+00 
46300 4.6620460646e+00 2.9772392931e-04 1.4905842993e+00 -2.5817677394e+00 1.4905842993e+00 2.5817677394e+00 
46400 4.6620460422e+00 2.9449470896e-04 1.4905743125e+00 -2.5817504417e+00 1.4905743125e+00 2.5817504417e+00 
46500 4.6620460203e+00 2.9130103569e-04 1.4905644340e+00 -2.5817333316e+00 1.4905644340e+00 2.5817333316e+00 
46600 4.6620459989e+00 2.8814250665e-04 1.4905546625e+00 -2.5817164069e+00 1.4905546625e+00 2.5817164069e+00 
46700 4.6620459781e+00 2.8501872374e-04 1.4905449969e+00 -2.5816996656e+00 1.4905449969e+00 2.5816996656e+00 
46800 4.6620459576e+00 2.8192929359e-04 1.4905354360e+00 -2.5816831056e+00 1.4905354360e+00 2.5816831056e+00 
46900 4.6620459377e+00 2.7887382745e-04 1.4905259787e+00 -2.5816667251e+00 1.4905259787e+00 2.5816667251e+00 
47000 4.6620459182e+00 2.7585194118e-04 1.4905166238e+00 -2.5816505220e+00 1.4905166238e+00 2.5816505220e+00 
47100 4.6620458992e+00 2.7286325519e-04 1.4905073703e+00 -2.5816344944e+00 1.4905073703e+00 2.5816344944e+00 
47200 4.6620458806e+00 2.6990739435e-04 1.4904982169e+00 -2.5816186403e+00 1.4904982169e+00 2.5816186403e+00 
47300 4.6620458624e+00 2.6698398798e-04 1.4904891626e+00 -2.5816029578e+00 1.4904891626e+00 2.5816029578e+00 
47400 4.6620458447e+00 2.6409266975e-04 1.4904802064e+00 -2.5815874452e+00 1.4904802064e+00 2.5815874452e+00 
47500 4.6620458274e+00 2.6123307769e-04 1.4904713471e+00 -2.5815721004e+00 1.4904713471e+00 2.5815721004e+00 
47600 4.6620458104e+00 2.5840485406e-04 1.4904625837e+00 -2.5815569217e+00 1.4904625837e+00 2.5815569217e+00 
47700 4.6620457939e+00 2.5560764535e-04 1.4904539151e+00 -2.5815419072e+00 1.4904539151e+00 2.5815419072e+00 
47800 4.6620457777e+00 2.5284110224e-04 1.4904453402e+00 -2.5815270552e+00 1.4904453402e+00 2.5815270552e+00 
47900 4.6620457619e+00 2.5010487948e-04 1.4904368582e+00 -2.5815123639e+00 1.4904368582e+00 2.5815123639e+00 
48000 4.6620457465e+00 2.4739863592e-04 1.4904284679e+00 -2.5814978314e+00 1.4904284679e+00 2.5814978314e+00 
48100 4.6620457314e+00 2.4472203441e-04 1.4904201683e+00 -2.5814834561e+00 1.4904201683e+00 2.5814834561e+00 
48200 4.6620457167e+00 2.4207474176e-04 1.4904119585e+00 -2.5814692363e+00 1.4904119585e+00 2.5814692363e+00 
48300 4.6620457023e+00 2.3945642870e-04 1.4904038374e+00 -2.5814551702e+00 1.4904038374e+00 2.5814551702e+00 
48400 4.6620456883e+00 2.3686676984e-04 1.4903958041e+00 -2.5814412562e+00 1.4903958041e+00 2.5814412562e+00 
48500 4.6620456746e+00 2.3430544359e-04 1.4903878577e+00 -2.5814274925e+00 1.4903878577e+00 2.5814274925e+00 
48600 4.6620456612e+00 2.3177213215e-04 1.4903799972e+00 -2.5814138777e+00 1.4903799972e+00 2.5814138777e+00 
48700 4.6620456481e+00 2.2926652142e-04 1.4903722216e+00 -2.5814004099e+00 1.4903722216e+00 2.5814004099e+00 
48800 4.6620456353e+00 2.2678830102e-04 1.4903645300e+00 -2.5813870877e+00 1.4903645300e+00 2.5813870877e+00 
48900 4.6620456228e+00 2.2433716417e-04 1.4903569215e+00 -2.5813739095e+00 1.4903569215e+00 2.5813739095e+00 
49000 4.6620456106e+00 2.2191280771e-04 1.4903493952e+00 -2.5813608736e+00 1.4903493952e+00 2.5813608736e+00 
49100 4.6620455987e+00 2.1951493199e-04 1.4903419502e+00 -2.5813479785e+00 1.4903419502e+00 2.5813479785e+00 
49200 4.6620455871e+00 2.1714324090e-04 1.4903345857e+00 -2.5813352227e+00 1.4903345857e+00 2.5813352227e+00 
49300 4.6620455757e+00 2.1479744177e-04 1.4903273006e+00 -2.5813226046e+00 1.4903273006e+00 2.5813226046e+00 
49400 4.6620455646e+00 2.1247724533e-04 1.4903200942e+00 -2.5813101228e+00 1.4903200942e+00 2.5813101228e+00 
49500 4.6620455538e+00 2.1018236573e-04 1.4903129657e+00 -2.5812977757e+00 1.4903129657e+00 2.5812977757e+00 
49600 4.6620455432e+00 2.0791252040e-04 1.4903059141e+00 -2.5812855620e+00 1.4903059141e+00 2.5812855620e+00 
49700 4.6620455329e+00 2.0566743009e-04 1.4902989386e+00 -2.5812734801e+00 1.4902989386e+00 2.5812734801e+00 
49800 4.6620455228e+00 2.0344681881e-04 1.4902920384e+00 -2.5812615286e+00 1.4902920384e+00 2.5812615286e+00 
49900 4.6620455129e+00 2.0125041376e-04 1.4902852126e+00 -2.5812497060e+00 1.4902852126e+00 2.5812497060e+00 
50000 4.6620455033e+00 1.9907794531e-04 1.4902784606e+00 -2.5812380111e+00 1.4902784606e+00 2.5812380111e+00 
50100 4.6620454939e+00 1.9692914698e-04 1.4902717813e+00 -2.5812264424e+00 1.4902717813e+00 2.5812264424e+00 
50200 4.6620454847e+00 1.9480375536e-04 1.4902651742e+00 -2.5812149985e+00 1.4902651742e+00 2.5812149985e+00 
50300 4.6620454757e+00 1.9270151012e-04 1.4902586383e+00 -2.5812036780e+00 1.4902586383e+00 2.5812036780e+00 
50400 4.6620454670e+00 1.9062215392e-04 1.4902521730e+00 -2.5811924797e+00 1.4902521730e+00 2.5811924797e+00 
50500 4.6620454584e+00 1.8856543243e-04 1.4902457773e+00 -2.5811814021e+00 1.4902457773e+00 2.5811814021e+00 
50600 4.6620454501e+00 1.8653109423e-04 1.4902394507e+00 -2.5811704440e+00 1.4902394507e+00 2.5811704440e+00 
50700 4.6620454419e+00 1.8451889085e-04 1.4902331923e+00 -2.5811596041e+00 1.4902331923e+00 2.5811596041e+00 
50800 4.6620454339e+00 1.8252857664e-04 1.4902270013e+00 -2.5811488811e+00 1.4902270013e+00 2.5811488811e+00 
50900 4.6620454262e+00 1.8055990882e-04 1.4902208771e+00 -2.5811382737e+00 1.4902208771e+00 2.5811382737e+00 
51000 4.6620454186e+00 1.7861264741e-04 1.4902148190e+00 -2.5811277807e+00 1.4902148190e+00 2.5811277807e+00 
51100 4.6620454112e+00 1.7668655518e-04 1.4902088261e+00 -2.5811174008e+00 1.4902088261e+00 2.5811174008e+00 
51200 4.6620454039e+00 1.7478139765e-04 1.4902028979e+00 -2.5811071327e+00 1.4902028979e+00 2.5811071327e+00 
51300 4.6620453969e+00 1.7289694302e-04 1.4901970335e+00 -2.5810969754e+00 1.4901970335e+00 2.5810969754e+00 
51400 4.6620453900e+00 1.7103296218e-04 1.4901912324e+00 -2.5810869275e+00 1.4901912324e+00 2.5810869275e+00 
51500 4.6620453832e+00 1.6918922863e-04 1.4901854938e+00 -2.5810769879e+00 1.4901854938e+00 2.5810769879e+00 
51600 4.6620453766e+00 1.6736551850e-04 1.4901798170e+00 -2.5810671555e+00 1.4901798170e+00 2.5810671555e+00 
51700 4.6620453702e+00 1.6556161044e-04 1.4901742014e+00 -2.5810574289e+00 1.4901742014e+00 2.5810574289e+00 
51800 4.6620453640e+00 1.6377728570e-04 1.4901686463e+00 -2.5810478072e+00 1.4901686463e+00 2.5810478072e+00 
51900 4.6620453578e+00 1.6201232798e-04 1.4901631510e+00 -2.5810382892e+00 1.4901631510e+00 2.5810382892e+00 
52000 4.6620453519e+00 1.6026652350e-04 1.4901577150e+00 -2.5810288736e+00 1.4901577150e+00 2.5810288736e+00 
52100 4.6620453460e+00 1.5853966090e-04 1.4901523375e+00 -2.5810195595e+00 1.4901523375e+00 2.5810195595e+00 
52200 4.6620453403e+00 1.5683153125e-04 1.4901470179e+00 -2.5810103458e+00 1.4901470179e+00 2.5810103458e+00 
52300 4.6620453348e+00 1.5514192799e-04 1.4901417556e+00 -2.5810012312e+00 1.4901417556e+00 2.5810012312e+00 
52400 4.6620453293e+00 1.5347064693e-04 1.4901365500e+00 -2.5809922148e+00 1.4901365500e+00 2.5809922148e+00 
52500 4.6620453240e+00 1.5181748621e-04 1.4901314005e+00 -2.5809832956e+00 1.4901314005e+00 2.5809832956e+00 
52600 4.6620453189e+00 1.5018224628e-04 1.4901263064e+00 -2.5809744723e+00 1.4901263064e+00 2.5809744723e+00 
52700 4.6620453138e+00 1.4856472983e-04 1.4901212671e+00 -2.5809657441e+00 1.4901212671e+00 2.5809657441e+00 
52800 4.6620453089e+00 1.4696474183e-04 1.4901162821e+00 -2.5809571099e+00 1.4901162821e+00 2.5809571099e+00 
52900 4.6620453041e+00 1.4538208945e-04 1.4901113508e+00 -2.5809485686e+00 1.4901113508e+00 2.5809485686e+00 
53000 4.6620452994e+00 1.4381658206e-04 1.4901064726e+00 -2.5809401192e+00 1.4901064726e+00 2.5809401192e+00 
53100 4.6620452948e+00 1.4226803119e-04 1.4901016469e+00 -2.5809317609e+00 1.4901016469e+00 2.5809317609e+00 
53200 4.6620452903e+00 1.4073625050e-04 1.4900968731e+00 -2.5809234924e+00 1.4900968731e+00 2.5809234924e+00 
53300 4.6620452860e+00 1.3922105579e-04 1.4900921507e+00 -2.5809153130e+00 1.4900921507e+00 2.5809153130e+00 
53400 4.6620452817e+00 1.3772226491e-04 1.4900874792e+00 -2.5809072217e+00 1.4900874792e+00 2.5809072217e+00 
53500 4.6620452776e+00 1.3623969780e-04 1.4900828579e+00 -2.5808992174e+00 1.4900828579e+00 2.5808992174e+00 
53600 4.6620452735e+00 1.3477317644e-04 1.4900782864e+00 -2.5808912992e+00 1.4900782864e+00 2.5808912992e+00 
53700 4.6620452695e+00 1.3332252480e-04 1.4900737640e+00 -2.5808834663e+00 1.4900737640e+00 2.5808834663e+00 
53800 4.6620452657e+00 1.3188756886e-04 1.4900692903e+00 -2.5808757176e+00 1.4900692903e+00 2.5808757176e+00 
53900 4.6620452619e+00 1.3046813655e-04 1.4900648648e+00 -2.5808680524e+00 1.4900648648e+00 2.5808680524e+00 
54000 4.6620452582e+00 1.2906405776e-04 1.4900604868e+00 -2.5808604696e+00 1.4900604868e+00 2.5808604696e+00 
54100 4.6620452546e+00 1.2767516427e-04 1.4900561560e+00 -2.5808529683e+00 1.4900561560e+00 2.5808529683e+00 
54200 4.6620452511e+00 1.2630128978e-04 1.4900518718e+00 -2.5808455478e+00 1.4900518718e+00 2.5808455478e+00 
54300 4.6620452477e+00 1.2494226987e-04 1.4900476336e+00 -2.5808382071e+00 1.4900476336e+00 2.5808382071e+00 
54400 4.6620452444e+00 1.2359794193e-04 1.4900434411e+00 -2.5808309454e+00 1.4900434411e+00 2.5808309454e+00 
54500 4.6620452411e+00 1.2226814523e-04 1.4900392936e+00 -2.5808237618e+00 1.4900392936e+00 2.5808237618e+00 
54600 4.6620452380e+00 1.2095272080e-04 1.4900351908e+00 -2.5808166555e+00 1.4900351908e+00 2.5808166555e+00 
54700 4.6620452349e+00 1.1965151149e-04 1.4900311320e+00 -2.5808096256e+00 1.4900311320e+00 2.5808096256e+00 
54800 4.6620452318e+00 1.1836436189e-04 1.4900271170e+00 -2.5808026713e+00 1.4900271170e+00 2.5808026713e+00 
54900 4.6620452289e+00 1.1709111836e-04 1.4900231451e+00 -2.5807957918e+00 1.4900231451e+00 2.5807957918e+00 
55000 4.6620452260e+00 1.1583162896e-04 1.4900192159e+00 -2.5807889862e+00 1.4900192159e+00 2.5807889862e+00 
55100 4.6620452232e+00 1.1458574345e-04 1.4900153290e+00 -2.5807822539e+00 1.4900153290e+00 2.5807822539e+00 
55200 4.6620452205e+00 1.1335331330e-04 1.4900114839e+00 -2.5807755940e+00 1.4900114839e+00 2.5807755940e+00 
55300 4.6620452178e+00 1.1213419160e-04 1.4900076801e+00 -2.5807690056e+00 1.4900076801e+00 2.5807690056e+00 
55400 4.6620452152e+00 1.1092823313e-04 1.4900039172e+00 -2.5807624881e+00 1.4900039172e+00 2.5807624881e+00 
55500 4.6620452127e+00 1.0973529426e-04 1.4900001948e+00 -2.5807560407e+00 1.4900001948e+00 2.5807560407e+00 
55600 4.6620452102e+00 1.0855523297e-04 1.4899965124e+00 -2.5807496626e+00 1.4899965124e+00 2.5807496626e+00 
55700 4.6620452078e+00 1.0738790884e-04 1.4899928696e+00 -2.5807433531e+00 1.4899928696e+00 2.5807433531e+00 
55800 4.6620452054e+00 1.0623318299e-04 1.4899892660e+00 -2.5807371115e+00 1.4899892660e+00 2.5807371115e+00 
55900 4.6620452031e+00 1.0509091813e-04 1.4899857011e+00 -2.5807309369e+00 1.4899857011e+00 2.5807309369e+00 
56000 4.6620452009e+00 1.0396097845e-04 1.4899821745e+00 -2.5807248287e+00 1.4899821745e+00 2.5807248287e+00 
56100 4.6620451987e+00 1.0284322970e-04 1.4899786859e+00 -2.5807187861e+00 1.4899786859e+00 2.5807187861e+00 
56200 4.6620451966e+00 1.0173753910e-04 1.4899752347e+00 -2.5807128085e+00 1.4899752347e+00 2.5807128085e+00 
56300 4.6620451945e+00 1.0064377534e-04 1.4899718206e+00 -2.5807068952e+00 1.4899718206e+00 2.5807068952e+00 
56400 4.6620451925e+00 9.9561808581e-05 1.4899684433e+00 -2.5807010454e+00 1.4899684433e+00 2.5807010454e+00 
56500 4.6620451905e+00 9.8491510439e-05 1.4899651022e+00 -2.5806952585e+00 1.4899651022e+00 2.5806952585e+00 
56600 4.6620451886e+00 9.7432753938e-05 1.4899617970e+00 -2.5806895338e+00 1.4899617970e+00 2.5806895338e+00 
56700 4.6620451867e+00 9.6385413520e-05 1.4899585274e+00 -2.5806838706e+00 1.4899585274e+00 2.5806838706e+00 
56800 4.6620451848e+00 9.5349365020e-05 1.4899552929e+00 -2.5806782683e+00 1.4899552929e+00 2.5806782683e+00 
56900 4.6620451831e+00 9.4324485649e-05 1.4899520932e+00 -2.5806727262e+00 1.4899520932e+00 2.5806727262e+00 
57000 4.6620451813e+00 9.3310653978e-05 1.4899489278e+00 -2.5806672437e+00 1.4899489278e+00 2.5806672437e+00 
57100 4.6620451796e+00 9.2307749929e-05 1.4899457965e+00 -2.5806618200e+00 1.4899457965e+00 2.5806618200e+00 
57200 4.6620451780e+00 9.1315654751e-05 1.4899426988e+00 -2.5806564547e+00 1.4899426988e+00 2.5806564547e+00 
57300 4.6620451764e+00 9.0334251005e-05 1.4899396344e+00 -2.5806511470e+00 1.4899396344e+00 2.5806511470e+00 
57400 4.6620451748e+00 8.9363422557e-05 1.4899366029e+00 -2.5806458963e+00 1.4899366029e+00 2.5806458963e+00 
57500 4.6620451732e+00 8.8403054554e-05 1.4899336040e+00 -2.5806407021e+00 1.4899336040e+00 2.5806407021e+00 
57600 4.6620451718e+00 8.7453033414e-05 1.4899306373e+00 -2.5806355636e+00 1.4899306373e+00 2.5806355636e+00 
57700 4.6620451703e+00 8.6513246809e-05 1.4899277025e+00 -2.5806304804e+00 1.4899277025e+00 2.5806304804e+00 
57800 4.6620451689e+00 8.5583583655e-05 1.4899247993e+00 -2.5806254518e+00 1.4899247993e+00 2.5806254518e+00 
57900 4.6620451675e+00 8.4663934092e-05 1.4899219272e+00 -2.5806204772e+00 1.4899219272e+00 2.5806204772e+00 
58000 4.6620451662e+00 8.3754189473e-05 1.4899190860e+00 -2.5806155561e+00 1.4899190860e+00 2.5806155561e+00 
58100 4.6620451648e+00 8.2854242350e-05 1.4899162753e+00 -2.5806106878e+00 1.4899162753e+00 2.5806106878e+00 
58200 4.6620451636e+00 8.1963986459e-05 1.4899134948e+00 -2.5806058718e+00 1.4899134948e+00 2.5806058718e+00 
58300 4.6620451623e+00 8.1083316709e-05 1.4899107442e+00 -2.5806011076e+00 1.4899107442e+00 2.5806011076e+00 
58400 4.6620451611e+00 8.0212129166e-05 1.4899080231e+00 -2.5805963946e+00 1.4899080231e+00 2.5805963946e+00 
58500 4.6620451599e+00 7.9350321041e-05 1.4899053312e+00 -2.5805917322e+00 1.4899053312e+00 2.5805917322e+00 
58600 4.6620451588e+00 7.8497790676e-05 1.4899026683e+00 -2.5805871198e+00 1.4899026683e+00 2.5805871198e+00 
58700 4.6620451576e+00 7.7654437533e-05 1.4899000340e+00 -2.5805825570e+00 1.4899000340e+00 2.5805825570e+00 
58800 4.6620451566e+00 7.6820162180e-05 1.4898974279e+00 -2.5805780433e+00 1.4898974279e+00 2.5805780433e+00 
58900 4.6620451555e+00 7.5994866279e-05 1.4898948499e+00 -2.5805735780e+00 1.4898948499e+00 2.5805735780e+00 
59000 4.6620451544e+00 7.5178452570e-05 1.4898922996e+00 -2.5805691607e+00 1.4898922996e+00 2.5805691607e+00 
59100 4.6620451534e+00 7.4370824866e-05 1.4898897766e+00 -2.5805647908e+00 1.4898897766e+00 2.5805647908e+00 
59200 4.6620451525e+00 7.3571888033e-05 1.4898872808e+00 -2.5805604678e+00 1.4898872808e+00 2.5805604678e+00 
59300 4.6620451515e+00 7.2781547985e-05 1.4898848117e+00 -2.5805561913e+00 1.4898848117e+00 2.5805561913e+00 
59400 4.6620451506e+00 7.1999711667e-05 1.4898823692e+00 -2.5805519608e+00 1.4898823692e+00 2.5805519608e+00 
59500 4.6620451497e+00 7.1226287046e-05 1.4898799529e+00 -2.5805477756e+00 1.4898799529e+00 2.5805477756e+00 
59600 4.6620451488e+00 7.0461183097e-05 1.4898775626e+00 -2.5805436354e+00 1.4898775626e+00 2.5805436354e+00 
59700 4.6620451481e+00 7.1075062822e-05 1.4898775626e+00 -2.5805436354e+00 1.4898775626e+00 2.5805436354e+00 
59800 4.6620451473e+00 7.0310143047e-05 1.4898751773e+00 -2.5805395040e+00 1.4898751773e+00 2.5805395040e+00 
59900 4.6620451467e+00 7.0920671915e-05 1.4898751773e+00 -2.5805395040e+00 1.4898751773e+00 2.5805395040e+00 
60000 4.6620451459e+00 7.0154876914e-05 1.4898727972e+00 -2.5805353816e+00 1.4898727972e+00 2.5805353816e+00 
60100 4.6620451453e+00 7.0761007960e-05 1.4898727972e+00 -2.5805353816e+00 1.4898727972e+00 2.5805353816e+00 
60200 4.6620451446e+00 6.9993460600e-05 1.4898704225e+00 -2.5805312685e+00 1.4898704225e+00 2.5805312685e+00 
60300 4.6620451440e+00 7.0594279571e-05 1.4898704225e+00 -2.5805312685e+00 1.4898704225e+00 2.5805312685e+00 
60400 4.6620451435e+00 7.1197517038e-05 1.4898704225e+00 -2.5805312685e+00 1.4898704225e+00 2.5805312685e+00 
60500 4.6620451428e+00 7.0417744875e-05 1.4898680331e+00 -2.5805271299e+00 1.4898680331e+00 2.5805271299e+00 
60600 4.6620451424e+00 7.1013904720e-05 1.4898680331e+00 -2.5805271299e+00 1.4898680331e+00 2.5805271299e+00 
60700 4.6620451417e+00 7.0230332296e-05 1.4898656499e+00 -2.5805230021e+00 1.4898656499e+00 2.5805230021e+00 
60800 4.6620451412e+00 7.0818829478e-05 1.4898656499e+00 -2.5805230021e+00 1.4898656499e+00 2.5805230021e+00 
60900 4.6620451406e+00 7.0031134017e-05 1.4898632732e+00 -2.5805188855e+00 1.4898632732e+00 2.5805188855e+00 
61000 4.6620451402e+00 7.0611463077e-05 1.4898632732e+00 -2.5805188855e+00 1.4898632732e+00 2.5805188855e+00 
61100 4.6620451398e+00 7.1192923643e-05 1.4898632732e+00 -2.5805188855e+00 1.4898632732e+00 2.5805188855e+00 
61200 4.6620451392e+00 7.0390338848e-05 1.4898608840e+00 -2.5805147472e+00 1.4898608840e+00 2.5805147472e+00 
61300 4.6620451388e+00 7.0962394541e-05 1.4898608840e+00 -2.5805147472e+00 1.4898608840e+00 2.5805147472e+00 
61400 4.6620451382e+00 7.0154745753e-05 1.4898585024e+00 -2.5805106223e+00 1.4898585024e+00 2.5805106223e+00 
61500 4.6620451379e+00 7.0717116754e-05 1.4898585024e+00 -2.5805106223e+00 1.4898585024e+00 2.5805106223e+00 
61600 4.6620451373e+00 6.9904433390e-05 1.4898561292e+00 -2.5805065117e+00 1.4898561292e+00 2.5805065117e+00 
61700 4.6620451370e+00 7.0456887119e-05 1.4898561292e+00 -2.5805065117e+00 1.4898561292e+00 2.5805065117e+00 
61800 4.6620451367e+00 7.1009680546e-05 1.4898561292e+00 -2.5805065117e+00 1.4898561292e+00 2.5805065117e+00 
61900 4.6620451361e+00 7.0181327785e-05 1.4898537461e+00 -2.5805023840e+00 1.4898537461e+00 2.5805023840e+00 
62000 4.6620451359e+00 7.0723325757e-05 1.4898537461e+00 -2.5805023840e+00 1.4898537461e+00 2.5805023840e+00 
62100 4.6620451354e+00 6.9889704591e-05 1.4898513726e+00 -2.5804982730e+00 1.4898513726e+00 2.5804982730e+00 
62200 4.6620451351e+00 7.0420835618e-05 1.4898513726e+00 -2.5804982730e+00 1.4898513726e+00 2.5804982730e+00 
62300 4.6620451348e+00 7.0951884933e-05 1.4898513726e+00 -2.5804982730e+00 1.4898513726e+00 2.5804982730e+00 
62400 4.6620451344e+00 7.0102570142e-05 1.4898489914e+00 -2.5804941487e+00 1.4898489914e+00 2.5804941487e+00 
62500 4.6620451341e+00 7.0622086267e-05 1.4898489914e+00 -2.5804941487e+00 1.4898489914e+00 2.5804941487e+00 
62600 4.6620451339e+00 7.1141240598e-05 1.4898489914e+00 -2.5804941487e+00 1.4898489914e+00 2.5804941487e+00 
62700 4.6620451335e+00 7.0276116311e-05 1.4898466039e+00 -2.5804900134e+00 1.4898466039e+00 2.5804900134e+00 
62800 4.6620451333e+00 7.0783211380e-05 1.4898466039e+00 -2.5804900134e+00 1.4898466039e+00 2.5804900134e+00 
62900 4.6620451328e+00 6.9913047055e-05 1.4898442283e+00 -2.5804858988e+00 1.4898442283e+00 2.5804858988e+00 
63000 4.6620451326e+00 7.0408218029e-05 1.4898442283e+00 -2.5804858988e+00 1.4898442283e+00 2.5804858988e+00 
63100 4.6620451325e+00 7.0902850328e-05 1.4898442283e+00 -2.5804858988e+00 1.4898442283e+00 2.5804858988e+00 
63200 4.6620451321e+00 7.0017725188e-05 1.4898418488e+00 -2.5804817774e+00 1.4898418488e+00 2.5804817774e+00 
63300 4.6620451319e+00 7.0500039547e-05 1.4898418488e+00 -2.5804817774e+00 1.4898418488e+00 2.5804817774e+00 
63400 4.6620451317e+00 7.0981652892e-05 1.4898418488e+00 -2.5804817774e+00 1.4898418488e+00 2.5804817774e+00 
63500 4.6620451313e+00 7.0081853458e-05 1.4898394666e+00 -2.5804776513e+00 1.4898394666e+00 2.5804776513e+00 
63600 4.6620451312e+00 7.0550857492e-05 1.4898394666e+00 -2.5804776513e+00 1.4898394666e+00 2.5804776513e+00 
63700 4.6620451311e+00 7.1019042277e-05 1.4898394666e+00 -2.5804776513e+00 1.4898394666e+00 2.5804776513e+00 
63800 4.6620451307e+00 7.0105005142e-05 1.4898370832e+00 -2.5804735230e+00 1.4898370832e+00 2.5804735230e+00 
63900 4.6620451306e+00 7.0560376802e-05 1.4898370832e+00 -2.5804735230e+00 1.4898370832e+00 2.5804735230e+00 
64000 4.6620451305e+00 7.1014848231e-05 1.4898370832e+00 -2.5804735230e+00 1.4898370832e+00 2.5804735230e+00 
64100 4.6620451301e+00 7.0087131659e-05 1.4898346999e+00 -2.5804693950e+00 1.4898346999e+00 2.5804693950e+00 
64200 4.6620451300e+00 7.0528661188e-05 1.4898346999e+00 -2.5804693950e+00 1.4898346999e+00 2.5804693950e+00 
64300 4.6620451299e+00 7.0969241002e-05 1.4898346999e+00 -2.5804693950e+00 1.4898346999e+00 2.5804693950e+00 
64400 4.6620451296e+00 7.0028501051e-05 1.4898323181e+00 -2.5804652697e+00 1.4898323181e+00 2.5804652697e+00 
64500 4.6620451295e+00 7.0456074617e-05 1.4898323181e+00 -2.5804652697e+00 1.4898323181e+00 2.5804652697e+00 
64600 4.6620451294e+00 7.0882675618e-05 1.4898323181e+00 -2.5804652697e+00 1.4898323181e+00 2.5804652697e+00 
64700 4.6620451291e+00 6.9929645953e-05 1.4898299392e+00 -2.5804611493e+00 1.4898299392e+00 2.5804611493e+00 
64800 4.6620451290e+00 7.0343231728e-05 1.4898299392e+00 -2.5804611493e+00 1.4898299392e+00 2.5804611493e+00 
64900 4.6620451289e+00 7.0755844571e-05 1.4898299392e+00 -2.5804611493e+00 1.4898299392e+00 2.5804611493e+00 
65000 4.6620451286e+00 6.9791319313e-05 1.4898275646e+00 -2.5804570363e+00 1.4898275646e+00 2.5804570363e+00 
65100 4.6620451286e+00 7.0190955535e-05 1.4898275646e+00 -2.5804570363e+00 1.4898275646e+00 2.5804570363e+00 
65200 4.6620451285e+00 7.0589637377e-05 1.4898275646e+00 -2.5804570363e+00 1.4898275646e+00 2.5804570363e+00 
65300 4.6620451284e+00 7.0987196470e-05 1.4898275646e+00 -2.5804570363e+00 1.4898275646e+00 2.5804570363e+00 
65400 4.6620451282e+00 7.0003012054e-05 1.4898251822e+00 -2.5804529099e+00 1.4898251822e+00 2.5804529099e+00 
65500 4.6620451281e+00 7.0387310929e-05 1.4898251822e+00 -2.5804529099e+00 1.4898251822e+00 2.5804529099e+00 
65600 4.6620451281e+00 7.0770555797e-05 1.4898251822e+00 -2.5804529099e+00 1.4898251822e+00 2.5804529099e+00 
65700 4.6620451278e+00 6.9776359329e-05 1.4898228070e+00 -2.5804487961e+00 1.4898228070e+00 2.5804487961e+00 
65800 4.6620451278e+00 7.0146522538e-05 1.4898228070e+00 -2.5804487961e+00 1.4898228070e+00 2.5804487961e+00 
65900 4.6620451277e+00 7.0515707588e-05 1.4898228070e+00 -2.5804487961e+00 1.4898228070e+00 2.5804487961e+00 
66000 4.6620451277e+00 7.0883763036e-05 1.4898228070e+00 -2.5804487961e+00 1.4898228070e+00 2.5804487961e+00 
66100 4.6620451274e+00 6.9872136856e-05 1.4898204281e+00 -2.5804446756e+00 1.4898204281e+00 2.5804446756e+00 
66200 4.6620451274e+00 7.0226980670e-05 1.4898204281e+00 -2.5804446756e+00 1.4898204281e+00 2.5804446756e+00 
66300 4.6620451274e+00 7.0580808132e-05 1.4898204281e+00 -2.5804446756e+00 1.4898204281e+00 2.5804446756e+00 
66400 4.6620451274e+00 7.0933478505e-05 1.4898204281e+00 -2.5804446756e+00 1.4898204281e+00 2.5804446756e+00 
66500 4.6620451271e+00 6.9905505533e-05 1.4898180475e+00 -2.5804405523e+00 1.4898180475e+00 2.5804405523e+00 
66600 4.6620451271e+00 7.0244931434e-05 1.4898180475e+00 -2.5804405523e+00 1.4898180475e+00 2.5804405523e+00 
66700 4.6620451271e+00 7.0583342270e-05 1.4898180475e+00 -2.5804405523e+00 1.4898180475e+00 2.5804405523e+00 
66800 4.6620451271e+00 7.0920605643e-05 1.4898180475e+00 -2.5804405523e+00 1.4898180475e+00 2.5804405523e+00 
66900 4.6620451268e+00 6.9877514662e-05 1.4898156673e+00 -2.5804364297e+00 1.4898156673e+00 2.5804364297e+00 
67000 4.6620451268e+00 7.0201577731e-05 1.4898156673e+00 -2.5804364297e+00 1.4898156673e+00 2.5804364297e+00 
67100 4.6620451268e+00 7.0524657411e-05 1.4898156673e+00 -2.5804364297e+00 1.4898156673e+00 2.5804364297e+00 
67200 4.6620451268e+00 7.0846627821e-05 1.4898156673e+00 -2.5804364297e+00 1.4898156673e+00 2.5804364297e+00 
67300 4.6620451266e+00 6.9789746709e-05 1.4898132896e+00 -2.5804323114e+00 1.4898132896e+00 2.5804323114e+00 
67400 4.6620451266e+00 7.0098622157e-05 1.4898132896e+00 -2.5804323114e+00 1.4898132896e+00 2.5804323114e+00 
67500 4.6620451266e+00 7.0406569157e-05 1.4898132896e+00 -2.5804323114e+00 1.4898132896e+00 2.5804323114e+00 
67600 4.6620451266e+00 7.0713466925e-05 1.4898132896e+00 -2.5804323114e+00 1.4898132896e+00 2.5804323114e+00 
67700 4.6620451264e+00 6.9644186159e-05 1.4898109164e+00 -2.5804282009e+00 1.4898109164e+00 2.5804282009e+00 
67800 4.6620451264e+00 6.9938142863e-05 1.4898109164e+00 -2.5804282009e+00 1.4898109164e+00 2.5804282009e+00 
67900 4.6620451264e+00 7.0231243680e-05 1.4898109164e+00 -2.5804282009e+00 1.4898109164e+00 2.5804282009e+00 
68000 4.6620451264e+00 7.0523371811e-05 1.4898109164e+00 -2.5804282009e+00 1.4898109164e+00 2.5804282009e+00 
68100 4.6620451264e+00 7.0814418587e-05 1.4898109164e+00 -2.5804282009e+00 1.4898109164e+00 2.5804282009e+00 
68200 4.6620451262e+00 6.9727326307e-05 1.4898085398e+00 -2.5804240844e+00 1.4898085398e+00 2.5804240844e+00 
68300 4.6620451262e+00 7.0005385915e-05 1.4898085398e+00 -2.5804240844e+00 1.4898085398e+00 2.5804240844e+00 
68400 4.6620451262e+00 7.0282590011e-05 1.4898085398e+00 -2.5804240844e+00 1.4898085398e+00 2.5804240844e+00 
68500 4.6620451263e+00 7.0558830986e-05 1.4898085398e+00 -2.5804240844e+00 1.4898085398e+00 2.5804240844e+00 
68600 4.6620451263e+00 7.0834008762e-05 1.4898085398e+00 -2.5804240844e+00 1.4898085398e+00 2.5804240844e+00 
68700 4.6620451261e+00 6.9730714397e-05 1.4898061625e+00 -2.5804199669e+00 1.4898061625e+00 2.5804199669e+00 
68800 4.6620451261e+00 6.9992961908e-05 1.4898061625e+00 -2.5804199669e+00 1.4898061625e+00 2.5804199669e+00 
68900 4.6620451261e+00 7.0254394742e-05 1.4898061625e+00 -2.5804199669e+00 1.4898061625e+00 2.5804199669e+00 
69000 4.6620451261e+00 7.0514911830e-05 1.4898061625e+00 -2.5804199669e+00 1.4898061625e+00 2.5804199669e+00 
69100 4.6620451262e+00 7.0774419201e-05 1.4898061625e+00 -2.5804199669e+00 1.4898061625e+00 2.5804199669e+00 
69200 4.6620451260e+00 6.9656692426e-05 1.4898037872e+00 -2.5804158527e+00 1.4898037872e+00 2.5804158527e+00 
69300 4.6620451260e+00 6.9903402055e-05 1.4898037872e+00 -2.5804158527e+00 1.4898037872e+00 2.5804158527e+00 
69400 4.6620451260e+00 7.0149366066e-05 1.4898037872e+00 -2.5804158527e+00 1.4898037872e+00 2.5804158527e+00 
69500 4.6620451260e+00 7.0394488045e-05 1.4898037872e+00 -2.5804158527e+00 1.4898037872e+00 2.5804158527e+00 
69600 4.6620451261e+00 7.0638678361e-05 1.4898037872e+00 -2.5804158527e+00 1.4898037872e+00 2.5804158527e+00 
69700 4.6620451261e+00 7.0881853706e-05 1.4898037872e+00 -2.5804158527e+00 1.4898037872e+00 2.5804158527e+00 
69800 4.6620451259e+00 6.9745733940e-05 1.4898014083e+00 -2.5804117324e+00 1.4898014083e+00 2.5804117324e+00 
69900 4.6620451259e+00 6.9976114166e-05 1.4898014083e+00 -2.5804117324e+00 1.4898014083e+00 2.5804117324e+00 
70000 4.6620451260e+00 7.0205772159e-05 1.4898014083e+00 -2.5804117324e+00 1.4898014083e+00 2.5804117324e+00 
70100 4.6620451260e+00 7.0434619529e-05 1.4898014083e+00 -2.5804117324e+00 1.4898014083e+00 2.5804117324e+00 
70200 4.6620451260e+00 7.0662574129e-05 1.4898014083e+00 -2.5804117324e+00 1.4898014083e+00 2.5804117324e+00 
70300 4.6620451261e+00 7.0889559626e-05 1.4898014083e+00 -2.5804117324e+00 1.4898014083e+00 2.5804117324e+00 
70400 4.6620451259e+00 6.9737173929e-05 1.4897990291e+00 -2.5804076115e+00 1.4897990291e+00 2.5804076115e+00 
70500 4.6620451259e+00 6.9951473938e-05 1.4897990291e+00 -2.5804076115e+00 1.4897990291e+00 2.5804076115e+00 
70600 4.6620451259e+00 7.0165115868e-05 1.4897990291e+00 -2.5804076115e+00 1.4897990291e+00 2.5804076115e+00 
70700 4.6620451260e+00 7.0378016593e-05 1.4897990291e+00 -2.5804076115e+00 1.4897990291e+00 2.5804076115e+00 
70800 4.6620451260e+00 7.0590098863e-05 1.4897990291e+00 -2.5804076115e+00 1.4897990291e+00 2.5804076115e+00 
70900 4.6620451260e+00 7.0801290911e-05 1.4897990291e+00 -2.5804076115e+00 1.4897990291e+00 2.5804076115e+00 
71000 4.6620451259e+00 6.9634930701e-05 1.4897966529e+00 -2.5804034958e+00 1.4897966529e+00 2.5804034958e+00 
71100 4.6620451259e+00 6.9833620545e-05 1.4897966529e+00 -2.5804034958e+00 1.4897966529e+00 2.5804034958e+00 
71200 4.6620451259e+00 7.0031742413e-05 1.4897966529e+00 -2.5804034958e+00 1.4897966529e+00 2.5804034958e+00 
71300 4.6620451260e+00 7.0229216610e-05 1.4897966529e+00 -2.5804034958e+00 1.4897966529e+00 2.5804034958e+00 
71400 4.6620451260e+00 7.0425969071e-05 1.4897966529e+00 -2.5804034958e+00 1.4897966529e+00 2.5804034958e+00 
71500 4.6620451260e+00 7.0621930975e-05 1.4897966529e+00 -2.5804034958e+00 1.4897966529e+00 2.5804034958e+00 
71600 4.6620451261e+00 7.0817038389e-05 1.4897966529e+00 -2.5804034958e+00 1.4897966529e+00 2.5804034958e+00 
71700 4.6620451259e+00 6.9634351967e-05 1.4897942762e+00 -2.5803993792e+00 1.4897942762e+00 2.5803993792e+00 
71800 4.6620451259e+00 6.9817047601e-05 1.4897942762e+00 -2.5803993792e+00 1.4897942762e+00 2.5803993792e+00 
71900 4.6620451260e+00 6.9999231464e-05 1.4897942762e+00 -2.5803993792e+00 1.4897942762e+00 2.5803993792e+00 
72000 4.6620451260e+00 7.0180829705e-05 1.4897942762e+00 -2.5803993792e+00 1.4897942762e+00 2.5803993792e+00 
72100 4.6620451260e+00 7.0361773689e-05 1.4897942762e+00 -2.5803993792e+00 1.4897942762e+00 2.5803993792e+00 
72200 4.6620451261e+00 7.0541999637e-05 1.4897942762e+00 -2.5803993792e+00 1.4897942762e+00 2.5803993792e+00 
72300 4.6620451261e+00 7.0721448297e-05 1.4897942762e+00 -2.5803993792e+00 1.4897942762e+00 2.5803993792e+00 
72400 4.6620451259e+00 6.9525062688e-05 1.4897919027e+00 -2.5803952681e+00 1.4897919027e+00 2.5803952681e+00 
72500 4.6620451260e+00 6.9692280866e-05 1.4897919027e+00 -2.5803952681e+00 1.4897919027e+00 2.5803952681e+00 
72600 4.6620451260e+00 6.9859075893e-05 1.4897919027e+00 -2.5803952681e+00 1.4897919027e+00 2.5803952681e+00 
72700 4.6620451260e+00 7.0025377406e-05 1.4897919027e+00 -2.5803952681e+00 1.4897919027e+00 2.5803952681e+00 
72800 4.6620451261e+00 7.0191119994e-05 1.4897919027e+00 -2.5803952681e+00 1.4897919027e+00 2.5803952681e+00 
72900 4.6620451261e+00 7.0356242858e-05 1.4897919027e+00 -2.5803952681e+00 1.4897919027e+00 2.5803952681e+00 
73000 4.6620451261e+00 7.0520689495e-05 1.4897919027e+00 -2.5803952681e+00 1.4897919027e+00 2.5803952681e+00 
73100 4.6620451262e+00 7.0684407409e-05 1.4897919027e+00 -2.5803952681e+00 1.4897919027e+00 2.5803952681e+00 
73200 4.6620451262e+00 7.0847347839e-05 1.4897919027e+00 -2.5803952681e+00 1.4897919027e+00 2.5803952681e+00 
73300 4.6620451260e+00 6.9632039457e-05 1.4897895249e+00 -2.5803911497e+00 1.4897895249e+00 2.5803911497e+00 
73400 4.6620451261e+00 6.9782758836e-05 1.4897895249e+00 -2.5803911497e+00 1.4897895249e+00 2.5803911497e+00 
73500 4.6620451261e+00 6.9933083061e-05 1.4897895249e+00 -2.5803911497e+00 1.4897895249e+00 2.5803911497e+00 
73600 4.6620451261e+00 7.0082949580e-05 1.4897895249e+00 -2.5803911497e+00 1.4897895249e+00 2.5803911497e+00 
73700 4.6620451262e+00 7.0232300249e-05 1.4897895249e+00 -2.5803911497e+00 1.4897895249e+00 2.5803911497e+00 
73800 4.6620451262e+00 7.0381081031e-05 1.4897895249e+00 -2.5803911497e+00 1.4897895249e+00 2.5803911497e+00 
73900 4.6620451262e+00 7.0529241712e-05 1.4897895249e+00 -2.5803911497e+00 1.4897895249e+00 2.5803911497e+00 
74000 4.6620451263e+00 7.0676735647e-05 1.4897895249e+00 -2.5803911497e+00 1.4897895249e+00 2.5803911497e+00 
74100 4.6620451263e+00 7.0823519517e-05 1.4897895249e+00 -2.5803911497e+00 1.4897895249e+00 2.5803911497e+00 
74200 4.6620451261e+00 6.9592611128e-05 1.4897871480e+00 -2.5803870327e+00 1.4897871480e+00 2.5803870327e+00 
74300 4.6620451262e+00 6.9727327106e-05 1.4897871480e+00 -2.5803870327e+00 1.4897871480e+00 2.5803870327e+00 
74400 4.6620451262e+00 6.9861729310e-05 1.4897871480e+00 -2.5803870327e+00 1.4897871480e+00 2.5803870327e+00 
74500 4.6620451262e+00 6.9995759246e-05 1.4897871480e+00 -2.5803870327e+00 1.4897871480e+00 2.5803870327e+00 
74600 4.6620451263e+00 7.0129362542e-05 1.4897871480e+00 -2.5803870327e+00 1.4897871480e+00 2.5803870327e+00 
74700 4.6620451263e+00 7.0262488652e-05 1.4897871480e+00 -2.5803870327e+00 1.4897871480e+00 2.5803870327e+00 
74800 4.6620451263e+00 7.0395090601e-05 1.4897871480e+00 -2.5803870327e+00 1.4897871480e+00 2.5803870327e+00 
74900 4.6620451264e+00 7.0527124739e-05 1.4897871480e+00 -2.5803870327e+00 1.4897871480e+00 2.5803870327e+00 
75000 4.6620451264e+00 7.0658550514e-05 1.4897871480e+00 -2.5803870327e+00 1.4897871480e+00 2.5803870327e+00 
75100 4.6620451264e+00 7.0789330272e-05 1.4897871480e+00 -2.5803870327e+00 1.4897871480e+00 2.5803870327e+00 
75200 4.6620451263e+00 6.9543172434e-05 1.4897847721e+00 -2.5803829177e+00 1.4897847721e+00 2.5803829177e+00 
75300 4.6620451263e+00 6.9662032840e-05 1.4897847721e+00 -2.5803829177e+00 1.4897847721e+00 2.5803829177e+00 
75400 4.6620451263e+00 6.9780657944e-05 1.4897847721e+00 -2.5803829177e+00 1.4897847721e+00 2.5803829177e+00 
75500 4.6620451264e+00 6.9898993468e-05 1.4897847721e+00 -2.5803829177e+00 1.4897847721e+00 2.5803829177e+00 
75600 4.6620451264e+00 7.0016988942e-05 1.4897847721e+00 -2.5803829177e+00 1.4897847721e+00 2.5803829177e+00 
75700 4.6620451264e+00 7.0134597439e-05 1.4897847721e+00 -2.5803829177e+00 1.4897847721e+00 2.5803829177e+00 
75800 4.6620451265e+00 7.0251775331e-05 1.4897847721e+00 -2.5803829177e+00 1.4897847721e+00 2.5803829177e+00 
75900 4.6620451265e+00 7.0368482062e-05 1.4897847721e+00 -2.5803829177e+00 1.4897847721e+00 2.5803829177e+00 
76000 4.6620451265e+00 7.0484679939e-05 1.4897847721e+00 -2.5803829177e+00 1.4897847721e+00 2.5803829177e+00 
76100 4.6620451266e+00 7.0600333945e-05 1.4897847721e+00 -2.5803829177e+00 1.4897847721e+00 2.5803829177e+00 
76200 4.6620451266e+00 7.0715411554e-05 1.4897847721e+00 -2.5803829177e+00 1.4897847721e+00 2.5803829177e+00 
76300 4.6620451264e+00 6.9455083001e-05 1.4897823988e+00 -2.5803788069e+00 1.4897823988e+00 2.5803788069e+00 
76400 4.6620451264e+00 6.9558405391e-05 1.4897823988e+00 -2.5803788069e+00 1.4897823988e+00 2.5803788069e+00 
76500 4.6620451265e+00 6.9661574835e-05 1.4897823988e+00 -2.5803788069e+00 1.4897823988e+00 2.5803788069e+00 
76600 4.6620451265e+00 6.9764540867e-05 1.4897823988e+00 -2.5803788069e+00 1.4897823988e+00 2.5803788069e+00 
76700 4.6620451265e+00 6.9867256546e-05 1.4897823988e+00 -2.5803788069e+00 1.4897823988e+00 2.5803788069e+00 
76800 4.6620451266e+00 6.9969678206e-05 1.4897823988e+00 -2.5803788069e+00 1.4897823988e+00 2.5803788069e+00 
76900 4.6620451266e+00 7.0071765232e-05 1.4897823988e+00 -2.5803788069e+00 1.4897823988e+00 2.5803788069e+00 
77000 4.6620451266e+00 7.0173479850e-05 1.4897823988e+00 -2.5803788069e+00 1.4897823988e+00 2.5803788069e+00 
77100 4.6620451266e+00 7.0274786929e-05 1.4897823988e+00 -2.5803788069e+00 1.4897823988e+00 2.5803788069e+00 
77200 4.6620451267e+00 7.0375653807e-05 1.4897823988e+00 -2.5803788069e+00 1.4897823988e+00 2.5803788069e+00 
77300 4.6620451267e+00 7.0476050125e-05 1.4897823988e+00 -2.5803788069e+00 1.4897823988e+00 2.5803788069e+00 
77400 4.6620451267e+00 7.0575947673e-05 1.4897823988e+00 -2.5803788069e+00 1.4897823988e+00 2.5803788069e+00 
77500 4.6620451268e+00 7.0675320253e-05 1.4897823988e+00 -2.5803788069e+00 1.4897823988e+00 2.5803788069e+00 
77600 4.6620451268e+00 7.0774143544e-05 1.4897823988e+00 -2.5803788069e+00 1.4897823988e+00 2.5803788069e+00 
77700 4.6620451266e+00 6.9496476030e-05 1.4897800235e+00 -2.5803746928e+00 1.4897800235e+00 2.5803746928e+00 
77800 4.6620451266e+00 6.9583611908e-05 1.4897800235e+00 -2.5803746928e+00 1.4897800235e+00 2.5803746928e+00 
77900 4.6620451267e+00 6.9670643718e-05 1.4897800235e+00 -2.5803746928e+00 1.4897800235e+00 2.5803746928e+00 
78000 4.6620451267e+00 6.9757527120e-05 1.4897800235e+00 -2.5803746928e+00 1.4897800235e+00 2.5803746928e+00 
78100 4.6620451267e+00 6.9844220869e-05 1.4897800235e+00 -2.5803746928e+00 1.4897800235e+00 2.5803746928e+00 
78200 4.6620451267e+00 6.9930686601e-05 1.4897800235e+00 -2.5803746928e+00 1.4897800235e+00 2.5803746928e+00 
78300 4.6620451268e+00 7.0016888630e-05 1.4897800235e+00 -2.5803746928e+00 1.4897800235e+00 2.5803746928e+00 
78400 4.6620451268e+00 7.0102793762e-05 1.4897800235e+00 -2.5803746928e+00 1.4897800235e+00 2.5803746928e+00 
78500 4.6620451268e+00 7.0104508621e-05 1.4897800235e+00 -2.5803746928e+00 1.4897800235e+00 2.5803746928e+00 
78500 4.6620451268e+00 7.0104508621e-05 1.4897800235e+00 -2.5803746928e+00 1.4897800235e+00 2.5803746928e+00 
