# step Hamiltonian StressXX CellTensor1 CellTensor2 CellTensor3 CellTensor4 
0 6.5089321898e+00 7.7768581269e-02 1.7865676565e+00 -3.0944259522e+00 1.7865676565e+00 3.0944259522e+00 
100 6.5063492383e+00 8.4250604151e-02 1.7865676565e+00 -3.0944259522e+00 1.7865676565e+00 3.0944259522e+00 
200 6.5035165660e+00 8.9243882417e-02 1.7842102857e+00 -3.0903428663e+00 1.7842102857e+00 3.0903428663e+00 
300 6.5006383684e+00 9.3790326742e-02 1.7817099357e+00 -3.0860121330e+00 1.7817099357e+00 3.0860121330e+00 
400 6.4977253588e+00 9.7913608964e-02 1.7790785534e+00 -3.0814544451e+00 1.7790785534e+00 3.0814544451e+00 
500 6.4947874089e+00 1.0163565433e-01 1.7763274571e+00 -3.0766894066e+00 1.7763274571e+00 3.0766894066e+00 
600 6.4918336250e+00 1.0497690243e-01 1.7734673896e+00 -3.0717356243e+00 1.7734673896e+00 3.0717356243e+00 
700 6.4888724084e+00 1.0795651399e-01 1.7705085628e+00 -3.0666107860e+00 1.7705085628e+00 3.0666107860e+00 
800 6.4859115059e+00 1.1059253541e-01 1.7674606962e+00 -3.0613317263e+00 1.7674606962e+00 3.0613317263e+00 
900 6.4829580521e+00 1.1290203053e-01 1.7643330496e+00 -3.0559144833e+00 1.7643330496e+00 3.0559144833e+00 
1000 6.4800186070e+00 1.1490118683e-01 1.7611344515e+00 -3.0503743490e+00 1.7611344515e+00 3.0503743490e+00 
1100 6.4770991895e+00 1.1660540221e-01 1.7578733249e+00 -3.0447259120e+00 1.7578733249e+00 3.0447259120e+00 
1200 6.4742053089e+00 1.1802935643e-01 1.7545577087e+00 -3.0389830963e+00 1.7545577087e+00 3.0389830963e+00 
1300 6.4713419943e+00 1.1918707111e-01 1.7511952780e+00 -3.0331591955e+00 1.7511952780e+00 3.0331591955e+00 
1400 6.4685138223e+00 1.2009196059e-01 1.7477933618e+00 -3.0272669037e+00 1.7477933618e+00 3.0272669037e+00 
1500 6.4657249442e+00 1.2075687591e-01 1.7443589586e+00 -3.0213183430e+00 1.7443589586e+00 3.0213183430e+00 
1600 6.4629791109e+00 1.2119414330e-01 1.7408987517e+00 -3.0153250887e+00 1.7408987517e+00 3.0153250887e+00 
1700 6.4602796976e+00 1.2141559834e-01 1.7374191215e+00 -3.0092981925e+00 1.7374191215e+00 3.0092981925e+00 
1800 6.4576297269e+00 1.2143261661e-01 1.7339261583e+00 -3.0032482028e+00 1.7339261583e+00 3.0032482028e+00 
1900 6.4550318906e+00 1.2125614143e-01 1.7304256730e+00 -2.9971851844e+00 1.7304256730e+00 2.9971851844e+00 
2000 6.4524885709e+00 1.2089670917e-01 1.7269232071e+00 -2.9911187354e+00 1.7269232071e+00 2.9911187354e+00 
2100 6.4500018590e+00 1.2036447233e-01 1.7234240421e+00 -2.9850580039e+00 1.7234240421e+00 2.9850580039e+00 
2200 6.4475735742e+00 1.1966922072e-01 1.7199332081e+00 -2.9790117021e+00 1.7199332081e+00 2.9790117021e+00 
2300 6.4452052800e+00 1.1882040085e-01 1.7164554918e+00 -2.9729881207e+00 1.7164554918e+00 2.9729881207e+00 
2400 6.4428983003e+00 1.1782713367e-01 1.7129954432e+00 -2.9669951408e+00 1.7129954432e+00 2.9669951408e+00 
2500 6.4406537335e+00 1.1669823068e-01 1.7095573831e+00 -2.9610402460e+00 1.7095573831e+00 2.9610402460e+00 
2600 6.4384724658e+00 1.1544220859e-01 1.7061454087e+00 -2.9551305329e+00 1.7061454087e+00 2.9551305329e+00 
2700 6.4363551840e+00 1.1406730253e-01 1.7027633997e+00 -2.9492727216e+00 1.7027633997e+00 2.9492727216e+00 
2800 6.4343023859e+00 1.1258147791e-01 1.6994150240e+00 -2.9434731647e+00 1.6994150240e+00 2.9434731647e+00 
2900 6.4323143917e+00 1.1099244094e-01 1.6961037424e+00 -2.9377378567e+00 1.6961037424e+00 2.9377378567e+00 
3000 6.4303913528e+00 1.0930764803e-01 1.6928328138e+00 -2.9320724422e+00 1.6928328138e+00 2.9320724422e+00 
3100 6.4285332616e+00 1.0753431397e-01 1.6896052996e+00 -2.9264822237e+00 1.6896052996e+00 2.9264822237e+00 
3200 6.4267399593e+00 1.0567941907e-01 1.6864240686e+00 -2.9209721700e+00 1.6864240686e+00 2.9209721700e+00 
3300 6.4250111439e+00 1.0374971542e-01 1.6832918009e+00 -2.9155469231e+00 1.6832918009e+00 2.9155469231e+00 
3400 6.4233463782e+00 1.0175173220e-01 1.6802109922e+00 -2.9102108059e+00 1.6802109922e+00 2.9102108059e+00 
3500 6.4217450964e+00 9.9691780250e-02 1.6771839582e+00 -2.9049678293e+00 1.6771839582e+00 2.9049678293e+00 
3600 6.4202066116e+00 9.7575956040e-02 1.6742128385e+00 -2.8998216990e+00 1.6742128385e+00 2.8998216990e+00 
3700 6.4187301223e+00 9.5410144983e-02 1.6712996008e+00 -2.8947758232e+00 1.6712996008e+00 2.8947758232e+00 
3800 6.4173147192e+00 9.3200024343e-02 1.6684460448e+00 -2.8898333193e+00 1.6684460448e+00 2.8898333193e+00 
3900 6.4159593918e+00 9.0951065746e-02 1.6656538065e+00 -2.8849970207e+00 1.6656538065e+00 2.8849970207e+00 
4000 6.4146630351e+00 8.8668537410e-02 1.6629243624e+00 -2.8802694849e+00 1.6629243624e+00 2.8802694849e+00 
4100 6.4134244561e+00 8.6357506174e-02 1.6602590336e+00 -2.8756529999e+00 1.6602590336e+00 2.8756529999e+00 
4200 6.4122423803e+00 8.4022839403e-02 1.6576589897e+00 -2.8711495918e+00 1.6576589897e+00 2.8711495918e+00 
4300 6.4111154587e+00 8.1669206844e-02 1.6551252540e+00 -2.8667610328e+00 1.6551252540e+00 2.8667610328e+00 
4400 6.4100422742e+00 7.9301082483e-02 1.6526587069e+00 -2.8624888480e+00 1.6526587069e+00 2.8624888480e+00 
4500 6.4090213484e+00 7.6922746480e-02 1.6502600911e+00 -2.8583343235e+00 1.6502600911e+00 2.8583343235e+00 
4600 6.4080511482e+00 7.4538287204e-02 1.6479300155e+00 -2.8542985142e+00 1.6479300155e+00 2.8542985142e+00 
4700 6.4071300928e+00 7.2151603425e-02 1.6456689603e+00 -2.8503822517e+00 1.6456689603e+00 2.8503822517e+00 
4800 6.4062565604e+00 6.9766406689e-02 1.6434772813e+00 -2.8465861522e+00 1.6434772813e+00 2.8465861522e+00 
4900 6.4054288948e+00 6.7386223893e-02 1.6413552145e+00 -2.8429106248e+00 1.6413552145e+00 2.8429106248e+00 
5000 6.4046454123e+00 6.5014400086e-02 1.6393028812e+00 -2.8393558792e+00 1.6393028812e+00 2.8393558792e+00 
5100 6.4039044078e+00 6.2654101502e-02 1.6373202922e+00 -2.8359219343e+00 1.6373202922e+00 2.8359219343e+00 
5200 6.4032041620e+00 6.0308318828e-02 1.6354073529e+00 -2.8326086264e+00 1.6354073529e+00 2.8326086264e+00 
5300 6.4025429472e+00 5.7979870698e-02 1.6335638681e+00 -2.8294156169e+00 1.6335638681e+00 2.8294156169e+00 
5400 6.4019190337e+00 5.5671407427e-02 1.6317895462e+00 -2.8263424013e+00 1.6317895462e+00 2.8263424013e+00 
5500 6.4013306959e+00 5.3385414941e-02 1.6300840047e+00 -2.8233883167e+00 1.6300840047e+00 2.8233883167e+00 
5600 6.4007762180e+00 5.1124218926e-02 1.6284467741e+00 -2.8205525501e+00 1.6284467741e+00 2.8205525501e+00 
5700 6.4002538994e+00 4.8889989144e-02 1.6268773032e+00 -2.8178341467e+00 1.6268773032e+00 2.8178341467e+00 
5800 6.3997620603e+00 4.6684743918e-02 1.6253749632e+00 -2.8152320176e+00 1.6253749632e+00 2.8152320176e+00 
5900 6.3992990466e+00 4.4510354754e-02 1.6239390526e+00 -2.8127449474e+00 1.6239390526e+00 2.8127449474e+00 
6000 6.3988632344e+00 4.2368551078e-02 1.6225688014e+00 -2.8103716027e+00 1.6225688014e+00 2.8103716027e+00 
6100 6.3984530345e+00 4.0260925073e-02 1.6212633755e+00 -2.8081105389e+00 1.6212633755e+00 2.8081105389e+00 
6200 6.3980668967e+00 3.8188936571e-02 1.6200218813e+00 -2.8059602078e+00 1.6200218813e+00 2.8059602078e+00 
6300 6.3977033132e+00 3.6153918000e-02 1.6188433694e+00 -2.8039189652e+00 1.6188433694e+00 2.8039189652e+00 
6400 6.3973608218e+00 3.4157079350e-02 1.6177268389e+00 -2.8019850778e+00 1.6177268389e+00 2.8019850778e+00 
6500 6.3970380095e+00 3.2199513133e-02 1.6166712416e+00 -2.8001567296e+00 1.6166712416e+00 2.8001567296e+00 
6600 6.3967335144e+00 3.0282199318e-02 1.6156754855e+00 -2.7984320294e+00 1.6156754855e+00 2.7984320294e+00 
6700 6.3964460284e+00 2.8406010235e-02 1.6147384387e+00 -2.7968090168e+00 1.6147384387e+00 2.7968090168e+00 
6800 6.3961742991e+00 2.6571715398e-02 1.6138589331e+00 -2.7952856684e+00 1.6138589331e+00 2.7952856684e+00 
6900 6.3959171311e+00 2.4779986267e-02 1.6130357678e+00 -2.7938599042e+00 1.6130357678e+00 2.7938599042e+00 
7000 6.3956733874e+00 2.3031400900e-02 1.6122677123e+00 -2.7925295931e+00 1.6122677123e+00 2.7925295931e+00 
7100 6.3954419902e+00 2.1326448506e-02 1.6115535102e+00 -2.7912925588e+00 1.6115535102e+00 2.7912925588e+00 
7200 6.3952219214e+00 1.9665533874e-02 1.6108918819e+00 -2.7901465849e+00 1.6108918819e+00 2.7901465849e+00 
7300 6.3950122227e+00 1.8048981677e-02 1.6102815277e+00 -2.7890894205e+00 1.6102815277e+00 2.7890894205e+00 
7400 6.3948119957e+00 1.6477040626e-02 1.6097211309e+00 -2.7881187847e+00 1.6097211309e+00 2.7881187847e+00 
7500 6.3946204016e+00 1.4949887492e-02 1.6092093600e+00 -2.7872323715e+00 1.6092093600e+00 2.7872323715e+00 
7600 6.3944366600e+00 1.3467630972e-02 1.6087448720e+00 -2.7864278548e+00 1.6087448720e+00 2.7864278548e+00 
7700 6.3942600485e+00 1.2030315397e-02 1.6083263145e+00 -2.7857028918e+00 1.6083263145e+00 2.7857028918e+00 
7800 6.3940899015e+00 1.0637924294e-02 1.6079523279e+00 -2.7850551280e+00 1.6079523279e+00 2.7850551280e+00 
7900 6.3939256086e+00 9.2903837849e-03 1.6076215482e+00 -2.7844822008e+00 1.6076215482e+00 2.7844822008e+00 
8000 6.3937666131e+00 7.9875658291e-03 1.6073326087e+00 -2.7839817430e+00 1.6073326087e+00 2.7839817430e+00 
8100 6.3936124105e+00 6.7292913176e-03 1.6070841424e+00 -2.7835513867e+00 1.6070841424e+00 2.7835513867e+00 
8200 6.3934625461e+00 5.5153330096e-03 1.6068747836e+00 -2.7831887666e+00 1.6068747836e+00 2.7831887666e+00 
8300 6.3933166134e+00 4.3454183240e-03 1.6067031699e+00 -2.7828915229e+00 1.6067031699e+00 2.7828915229e+00 
8400 6.3931742517e+00 3.2192319864e-03 1.6065679440e+00 -2.7826573048e+00 1.6065679440e+00 2.7826573048e+00 
8500 6.3930351439e+00 2.1364185365e-03 1.6064677553e+00 -2.7824837729e+00 1.6064677553e+00 2.7824837729e+00 
8600 6.3928990142e+00 1.0965847023e-03 1.6064012615e+00 -2.7823686023e+00 1.6064012615e+00 2.7823686023e+00 
8700 6.3927656253e+00 9.9301646895e-05 1.6063671299e+00 -2.7823094846e+00 1.6063671299e+00 2.7823094846e+00 
8800 6.3926347765e+00 -8.5589290714e-04 1.6063640390e+00 -2.7823041310e+00 1.6063640390e+00 2.7823041310e+00 
8900 6.3925063008e+00 -1.7694926678e-03 1.6063906798e+00 -2.7823502742e+00 1.6063906798e+00 2.7823502742e+00 
9000 6.3923800626e+00 -2.6420208725e-03 1.6064457568e+00 -2.7824456703e+00 1.6064457568e+00 2.7824456703e+00 
9100 6.3922559549e+00 -3.4740284883e-03 1.6065279893e+00 -2.7825881013e+00 1.6065279893e+00 2.7825881013e+00 
9200 6.3921338972e+00 -4.2660925074e-03 1.6066361128e+00 -2.7827753766e+00 1.6066361128e+00 2.7827753766e+00 
9300 6.3920138327e+00 -5.0188143306e-03 1.6067688794e+00 -2.7830053351e+00 1.6067688794e+00 2.7830053351e+00 
9400 6.3918957259e+00 -5.7328182326e-03 1.6069250591e+00 -2.7832758464e+00 1.6069250591e+00 2.7832758464e+00 
9500 6.3917795604e+00 -6.4087499021e-03 1.6071034409e+00 -2.7835848127e+00 1.6071034409e+00 2.7835848127e+00 
9600 6.3916653365e+00 -7.0472750506e-03 1.6073028333e+00 -2.7839301704e+00 1.6073028333e+00 2.7839301704e+00 
9700 6.3915530691e+00 -7.6490780840e-03 1.6075220650e+00 -2.7843098909e+00 1.6075220650e+00 2.7843098909e+00 
9800 6.3914427850e+00 -8.2148608314e-03 1.6077599861e+00 -2.7847219822e+00 1.6077599861e+00 2.7847219822e+00 
9900 6.3913345218e+00 -8.7453413241e-03 1.6080154682e+00 -2.7851644902e+00 1.6080154682e+00 2.7851644902e+00 
10000 6.3912283249e+00 -9.2412526220e-03 1.6082874055e+00 -2.7856354995e+00 1.6082874055e+00 2.7856354995e+00 
10100 6.3911242465e+00 -9.7033416801e-03 1.6085747151e+00 -2.7861331343e+00 1.6085747151e+00 2.7861331343e+00 
10200 6.3910223433e+00 -1.0132368252e-02 1.6088763375e+00 -2.7866555597e+00 1.6088763375e+00 2.7866555597e+00 
10300 6.3909226750e+00 -1.0529103825e-02 1.6091912374e+00 -2.7872009822e+00 1.6091912374e+00 2.7872009822e+00 
10400 6.3908253029e+00 -1.0894330585e-02 1.6095184036e+00 -2.7877676507e+00 1.6095184036e+00 2.7877676507e+00 
10500 6.3907302886e+00 -1.1228840406e-02 1.6098568499e+00 -2.7883538570e+00 1.6098568499e+00 2.7883538570e+00 
10600 6.3906376921e+00 -1.1533433859e-02 1.6102056153e+00 -2.7889579363e+00 1.6102056153e+00 2.7889579363e+00 
10700 6.3905475714e+00 -1.1808919243e-02 1.6105637640e+00 -2.7895782681e+00 1.6105637640e+00 2.7895782681e+00 
10800 6.3904599811e+00 -1.2056111633e-02 1.6109303862e+00 -2.7902132763e+00 1.6109303862e+00 2.7902132763e+00 
10900 6.3903749714e+00 -1.2275831935e-02 1.6113045978e+00 -2.7908614299e+00 1.6113045978e+00 2.7908614299e+00 
11000 6.3902925872e+00 -1.2468905967e-02 1.6116855412e+00 -2.7915212431e+00 1.6116855412e+00 2.7915212431e+00 
11100 6.3902128679e+00 -1.2636163534e-02 1.6120723847e+00 -2.7921912759e+00 1.6120723847e+00 2.7921912759e+00 
11200 6.3901358463e+00 -1.2778437532e-02 1.6124643236e+00 -2.7928701338e+00 1.6124643236e+00 2.7928701338e+00 
11300 6.3900615483e+00 -1.2896563043e-02 1.6128605792e+00 -2.7935564687e+00 1.6128605792e+00 2.7935564687e+00 
11400 6.3899899925e+00 -1.2991376452e-02 1.6132603997e+00 -2.7942489782e+00 1.6132603997e+00 2.7942489782e+00 
11500 6.3899211898e+00 -1.3063714562e-02 1.6136630600e+00 -2.7949464062e+00 1.6136630600e+00 2.7949464062e+00 
11600 6.3898551437e+00 -1.3114413728e-02 1.6140678614e+00 -2.7956475427e+00 1.6140678614e+00 2.7956475427e+00 
11700 6.3897918495e+00 -1.3144308986e-02 1.6144741319e+00 -2.7963512239e+00 1.6144741319e+00 2.7963512239e+00 
11800 6.3897312948e+00 -1.3154233205e-02 1.6148812261e+00 -2.7970563318e+00 1.6148812261e+00 2.7970563318e+00 
11900 6.3896734592e+00 -1.3145016232e-02 1.6152885250e+00 -2.7977617941e+00 1.6152885250e+00 2.7977617941e+00 
12000 6.3896183149e+00 -1.3117484065e-02 1.6156954358e+00 -2.7984665843e+00 1.6156954358e+00 2.7984665843e+00 
12100 6.3895658263e+00 -1.3072458018e-02 1.6161013920e+00 -2.7991697212e+00 1.6161013920e+00 2.7991697212e+00 
12200 6.3895159507e+00 -1.3010753912e-02 1.6165058531e+00 -2.7998702684e+00 1.6165058531e+00 2.7998702684e+00 
12300 6.3894686387e+00 -1.2933181272e-02 1.6169083043e+00 -2.8005673343e+00 1.6169083043e+00 2.8005673343e+00 
12400 6.3894238340e+00 -1.2840542538e-02 1.6173082563e+00 -2.8012600714e+00 1.6173082563e+00 2.8012600714e+00 
12500 6.3893814744e+00 -1.2733632296e-02 1.6177052452e+00 -2.8019476764e+00 1.6177052452e+00 2.8019476764e+00 
12600 6.3893414919e+00 -1.2613236515e-02 1.6180988320e+00 -2.8026293887e+00 1.6180988320e+00 2.8026293887e+00 
12700 6.3893038132e+00 -1.2480131816e-02 1.6184886025e+00 -2.8033044909e+00 1.6184886025e+00 2.8033044909e+00 
12800 6.3892683604e+00 -1.2335084750e-02 1.6188741667e+00 -2.8039723078e+00 1.6188741667e+00 2.8039723078e+00 
12900 6.3892350513e+00 -1.2178851098e-02 1.6192551589e+00 -2.8046322057e+00 1.6192551589e+00 2.8046322057e+00 
13000 6.3892038001e+00 -1.2012175199e-02 1.6196312368e+00 -2.8052835917e+00 1.6196312368e+00 2.8052835917e+00 
13100 6.3891745176e+00 -1.1835789294e-02 1.6200020815e+00 -2.8059259136e+00 1.6200020815e+00 2.8059259136e+00 
13200 6.3891471122e+00 -1.1650412897e-02 1.6203673969e+00 -2.8065586584e+00 1.6203673969e+00 2.8065586584e+00 
13300 6.3891214901e+00 -1.1456752197e-02 1.6207269093e+00 -2.8071813522e+00 1.6207269093e+00 2.8071813522e+00 
13400 6.3890975561e+00 -1.1255499481e-02 1.6210803671e+00 -2.8077935589e+00 1.6210803671e+00 2.8077935589e+00 
13500 6.3890752138e+00 -1.1047332588e-02 1.6214275399e+00 -2.8083948799e+00 1.6214275399e+00 2.8083948799e+00 
13600 6.3890543664e+00 -1.0832914392e-02 1.6217682187e+00 -2.8089849528e+00 1.6217682187e+00 2.8089849528e+00 
13700 6.3890349172e+00 -1.0612892315e-02 1.6221022148e+00 -2.8095634511e+00 1.6221022148e+00 2.8095634511e+00 
13800 6.3890167696e+00 -1.0387897874e-02 1.6224293597e+00 -2.8101300827e+00 1.6224293597e+00 2.8101300827e+00 
13900 6.3889998285e+00 -1.0158546254e-02 1.6227495043e+00 -2.8106845894e+00 1.6227495043e+00 2.8106845894e+00 
14000 6.3889839996e+00 -9.9254359233e-03 1.6230625185e+00 -2.8112267459e+00 1.6230625185e+00 2.8112267459e+00 
14100 6.3889691907e+00 -9.6891482696e-03 1.6233682907e+00 -2.8117563588e+00 1.6233682907e+00 2.8117563588e+00 
14200 6.3889553116e+00 -9.4502472812e-03 1.6236667271e+00 -2.8122732659e+00 1.6236667271e+00 2.8122732659e+00 
14300 6.3889422749e+00 -9.2092792550e-03 1.6239577514e+00 -2.8127773348e+00 1.6239577514e+00 2.8127773348e+00 
14400 6.3889299956e+00 -8.9667725410e-03 1.6242413040e+00 -2.8132684622e+00 1.6242413040e+00 2.8132684622e+00 
14500 6.3889183921e+00 -8.7232373209e-03 1.6245173413e+00 -2.8137465730e+00 1.6245173413e+00 2.8137465730e+00 
14600 6.3889073861e+00 -8.4791654200e-03 1.6247858358e+00 -2.8142116190e+00 1.6247858358e+00 2.8142116190e+00 
14700 6.3888969028e+00 -8.2350301536e-03 1.6250467746e+00 -2.8146635782e+00 1.6250467746e+00 2.8146635782e+00 
14800 6.3888868714e+00 -7.9912862064e-03 1.6253001594e+00 -2.8151024536e+00 1.6253001594e+00 2.8151024536e+00 
14900 6.3888772249e+00 -7.7483695457e-03 1.6255460059e+00 -2.8155282723e+00 1.6255460059e+00 2.8155282723e+00 
15000 6.3888679003e+00 -7.5066973663e-03 1.6257843430e+00 -2.8159410843e+00 1.6257843430e+00 2.8159410843e+00 
15100 6.3888588390e+00 -7.2666680683e-03 1.6260152124e+00 -2.8163409617e+00 1.6260152124e+00 2.8163409617e+00 
15200 6.3888499865e+00 -7.0286612657e-03 1.6262386677e+00 -2.8167279976e+00 1.6262386677e+00 2.8167279976e+00 
15300 6.3888412927e+00 -6.7930378258e-03 1.6264547742e+00 -2.8171023052e+00 1.6264547742e+00 2.8171023052e+00 
15400 6.3888327117e+00 -6.5601399381e-03 1.6266636083e+00 -2.8174640164e+00 1.6266636083e+00 2.8174640164e+00 
15500 6.3888242020e+00 -6.3302912123e-03 1.6268652565e+00 -2.8178132813e+00 1.6268652565e+00 2.8178132813e+00 
15600 6.3888157261e+00 -6.1037968038e-03 1.6270598152e+00 -2.8181502669e+00 1.6270598152e+00 2.8181502669e+00 
15700 6.3888072511e+00 -5.8809435663e-03 1.6272473902e+00 -2.8184751563e+00 1.6272473902e+00 2.8184751563e+00 
15800 6.3887987479e+00 -5.6620002297e-03 1.6274280957e+00 -2.8187881475e+00 1.6274280957e+00 2.8187881475e+00 
15900 6.3887901914e+00 -5.4472176029e-03 1.6276020543e+00 -2.8190894525e+00 1.6276020543e+00 2.8190894525e+00 
16000 6.3887815607e+00 -5.2368288002e-03 1.6277693959e+00 -2.8193792967e+00 1.6277693959e+00 2.8193792967e+00 
16100 6.3887728382e+00 -5.0310494892e-03 1.6279302576e+00 -2.8196579174e+00 1.6279302576e+00 2.8196579174e+00 
16200 6.3887640103e+00 -4.8300781609e-03 1.6280847829e+00 -2.8199255631e+00 1.6280847829e+00 2.8199255631e+00 
16300 6.3887550665e+00 -4.6340964189e-03 1.6282331214e+00 -2.8201824928e+00 1.6282331214e+00 2.8201824928e+00 
16400 6.3887459997e+00 -4.4432692871e-03 1.6283754279e+00 -2.8204289749e+00 1.6283754279e+00 2.8204289749e+00 
16500 6.3887368059e+00 -4.2577455357e-03 1.6285118624e+00 -2.8206652864e+00 1.6285118624e+00 2.8206652864e+00 
16600 6.3887274838e+00 -4.0776580228e-03 1.6286425892e+00 -2.8208917118e+00 1.6286425892e+00 2.8208917118e+00 
16700 6.3887180349e+00 -3.9031240510e-03 1.6287677766e+00 -2.8211085428e+00 1.6287677766e+00 2.8211085428e+00 
16800 6.3887084631e+00 -3.7342457387e-03 1.6288875963e+00 -2.8213160767e+00 1.6288875963e+00 2.8213160767e+00 
16900 6.3886987746e+00 -3.5711104028e-03 1.6290022233e+00 -2.8215146165e+00 1.6290022233e+00 2.8215146165e+00 
17000 6.3886889775e+00 -3.4137909544e-03 1.6291118349e+00 -2.8217044693e+00 1.6291118349e+00 2.8217044693e+00 
17100 6.3886790819e+00 -3.2623463037e-03 1.6292166107e+00 -2.8218859462e+00 1.6292166107e+00 2.8218859462e+00 
17200 6.3886690993e+00 -3.1168217753e-03 1.6293167318e+00 -2.8220593610e+00 1.6293167318e+00 2.8220593610e+00 
17300 6.3886590427e+00 -2.9772495309e-03 1.6294123808e+00 -2.8222250301e+00 1.6294123808e+00 2.8222250301e+00 
17400 6.3886489265e+00 -2.8436490000e-03 1.6295037413e+00 -2.8223832710e+00 1.6295037413e+00 2.8223832710e+00 
17500 6.3886387657e+00 -2.7160273165e-03 1.6295909971e+00 -2.8225344026e+00 1.6295909971e+00 2.8225344026e+00 
17600 6.3886285764e+00 -2.5943797605e-03 1.6296743325e+00 -2.8226787436e+00 1.6296743325e+00 2.8226787436e+00 
17700 6.3886183753e+00 -2.4786902043e-03 1.6297539312e+00 -2.8228166127e+00 1.6297539312e+00 2.8228166127e+00 
17800 6.3886081795e+00 -2.3689315629e-03 1.6298299767e+00 -2.8229483274e+00 1.6298299767e+00 2.8229483274e+00 
17900 6.3885980062e+00 -2.2650662450e-03 1.6299026515e+00 -2.8230742037e+00 1.6299026515e+00 2.8230742037e+00 
18000 6.3885878730e+00 -2.1670466082e-03 1.6299721367e+00 -2.8231945556e+00 1.6299721367e+00 2.8231945556e+00 
18100 6.3885777974e+00 -2.0748154129e-03 1.6300386121e+00 -2.8233096944e+00 1.6300386121e+00 2.8233096944e+00 
18200 6.3885677965e+00 -1.9883062774e-03 1.6301022556e+00 -2.8234199283e+00 1.6301022556e+00 2.8234199283e+00 
18300 6.3885578873e+00 -1.9074441325e-03 1.6301632432e+00 -2.8235255618e+00 1.6301632432e+00 2.8235255618e+00 
18400 6.3885480863e+00 -1.8321456744e-03 1.6302217482e+00 -2.8236268955e+00 1.6302217482e+00 2.8236268955e+00 
18500 6.3885384094e+00 -1.7623198151e-03 1.6302779417e+00 -2.8237242255e+00 1.6302779417e+00 2.8237242255e+00 
18600 6.3885288720e+00 -1.6978681314e-03 1.6303319917e+00 -2.8238178428e+00 1.6303319917e+00 2.8238178428e+00 
18700 6.3885194886e+00 -1.6386853092e-03 1.6303840632e+00 -2.8239080333e+00 1.6303840632e+00 2.8239080333e+00 
18800 6.3885102730e+00 -1.5846595848e-03 1.6304343180e+00 -2.8239950772e+00 1.6304343180e+00 2.8239950772e+00 
18900 6.3885012380e+00 -1.5356731815e-03 1.6304829145e+00 -2.8240792488e+00 1.6304829145e+00 2.8240792488e+00 
19000 6.3884923956e+00 -1.4916027411e-03 1.6305300073e+00 -2.8241608159e+00 1.6305300073e+00 2.8241608159e+00 
19100 6.3884837566e+00 -1.4523197498e-03 1.6305757473e+00 -2.8242400400e+00 1.6305757473e+00 2.8242400400e+00 
19200 6.3884753310e+00 -1.4176909582e-03 1.6306202815e+00 -2.8243171754e+00 1.6306202815e+00 2.8243171754e+00 
19300 6.3884671275e+00 -1.3875787953e-03 1.6306637526e+00 -2.8243924696e+00 1.6306637526e+00 2.8243924696e+00 
19400 6.3884591541e+00 -1.3618417745e-03 1.6307062992e+00 -2.8244661625e+00 1.6307062992e+00 2.8244661625e+00 
19500 6.3884514173e+00 -1.3403348937e-03 1.6307480556e+00 -2.8245384866e+00 1.6307480556e+00 2.8245384866e+00 
19600 6.3884439226e+00 -1.3229100263e-03 1.6307891515e+00 -2.8246096668e+00 1.6307891515e+00 2.8246096668e+00 
19700 6.3884366747e+00 -1.3094163052e-03 1.6308297121e+00 -2.8246799198e+00 1.6308297121e+00 2.8246799198e+00 
19800 6.3884296769e+00 -1.2997004980e-03 1.6308698580e+00 -2.8247494545e+00 1.6308698580e+00 2.8247494545e+00 
19900 6.3884229316e+00 -1.2936073734e-03 1.6309097050e+00 -2.8248184716e+00 1.6309097050e+00 2.8248184716e+00 
20000 6.3884164401e+00 -1.2909800588e-03 1.6309493642e+00 -2.8248871634e+00 1.6309493642e+00 2.8248871634e+00 
20100 6.3884102028e+00 -1.2916603889e-03 1.6309889419e+00 -2.8249557140e+00 1.6309889419e+00 2.8249557140e+00 
20200 6.3884042191e+00 -1.2954892437e-03 1.6310285395e+00 -2.8250242991e+00 1.6310285395e+00 2.8250242991e+00 
20300 6.3883984873e+00 -1.3023068782e-03 1.6310682536e+00 -2.8250930858e+00 1.6310682536e+00 2.8250930858e+00 
20400 6.3883930051e+00 -1.3119532413e-03 1.6311081756e+00 -2.8251622328e+00 1.6311081756e+00 2.8251622328e+00 
20500 6.3883877693e+00 -1.3242682843e-03 1.6311483924e+00 -2.8252318904e+00 1.6311483924e+00 2.8252318904e+00 
20600 6.3883827758e+00 -1.3390922603e-03 1.6311889857e+00 -2.8253022000e+00 1.6311889857e+00 2.8253022000e+00 
20700 6.3883780200e+00 -1.3562660115e-03 1.6312300324e+00 -2.8253732950e+00 1.6312300324e+00 2.8253732950e+00 
20800 6.3883734964e+00 -1.3756312475e-03 1.6312716045e+00 -2.8254452999e+00 1.6312716045e+00 2.8254452999e+00 
20900 6.3883691990e+00 -1.3970308116e-03 1.6313137690e+00 -2.8255183310e+00 1.6313137690e+00 2.8255183310e+00 
21000 6.3883651214e+00 -1.4203089375e-03 1.6313565884e+00 -2.8255924964e+00 1.6313565884e+00 2.8255924964e+00 
21100 6.3883612564e+00 -1.4453114940e-03 1.6314001201e+00 -2.8256678955e+00 1.6314001201e+00 2.8256678955e+00 
21200 6.3883575967e+00 -1.4718862198e-03 1.6314444170e+00 -2.8257446200e+00 1.6314444170e+00 2.8257446200e+00 
21300 6.3883541344e+00 -1.4998829468e-03 1.6314895271e+00 -2.8258227530e+00 1.6314895271e+00 2.8258227530e+00 
21400 6.3883508613e+00 -1.5291538124e-03 1.6315354940e+00 -2.8259023700e+00 1.6315354940e+00 2.8259023700e+00 
21500 6.3883477693e+00 -1.5595534612e-03 1.6315823566e+00 -2.8259835384e+00 1.6315823566e+00 2.8259835384e+00 
21600 6.3883448495e+00 -1.5909392354e-03 1.6316301495e+00 -2.8260663182e+00 1.6316301495e+00 2.8260663182e+00 
21700 6.3883420935e+00 -1.6231713547e-03 1.6316789028e+00 -2.8261507614e+00 1.6316789028e+00 2.8261507614e+00 
21800 6.3883394923e+00 -1.6561130847e-03 1.6317286424e+00 -2.8262369128e+00 1.6317286424e+00 2.8262369128e+00 
21900 6.3883370371e+00 -1.6896308952e-03 1.6317793899e+00 -2.8263248100e+00 1.6317793899e+00 2.8263248100e+00 
22000 6.3883347191e+00 -1.7235946072e-03 1.6318311628e+00 -2.8264144833e+00 1.6318311628e+00 2.8264144833e+00 
22100 6.3883325296e+00 -1.7578775294e-03 1.6318839747e+00 -2.8265059563e+00 1.6318839747e+00 2.8265059563e+00 
22200 6.3883304598e+00 -1.7923565846e-03 1.6319378354e+00 -2.8265992457e+00 1.6319378354e+00 2.8265992457e+00 
22300 6.3883285012e+00 -1.8269124249e-03 1.6319927507e+00 -2.8266943618e+00 1.6319927507e+00 2.8266943618e+00 
22400 6.3883266456e+00 -1.8614295371e-03 1.6320487228e+00 -2.8267913084e+00 1.6320487228e+00 2.8267913084e+00 
22500 6.3883248847e+00 -1.8957963378e-03 1.6321057506e+00 -2.8268900833e+00 1.6321057506e+00 2.8268900833e+00 
22600 6.3883232107e+00 -1.9299052586e-03 1.6321638291e+00 -2.8269906783e+00 1.6321638291e+00 2.8269906783e+00 
22700 6.3883216158e+00 -1.9636528212e-03 1.6322229506e+00 -2.8270930796e+00 1.6322229506e+00 2.8270930796e+00 
22800 6.3883200929e+00 -1.9969397030e-03 1.6322831036e+00 -2.8271972678e+00 1.6322831036e+00 2.8271972678e+00 
22900 6.3883186348e+00 -2.0296707933e-03 1.6323442742e+00 -2.8273032183e+00 1.6323442742e+00 2.8273032183e+00 
23000 6.3883172348e+00 -2.0617552400e-03 1.6324064450e+00 -2.8274109013e+00 1.6324064450e+00 2.8274109013e+00 
23100 6.3883158866e+00 -2.0931064869e-03 1.6324695962e+00 -2.8275202824e+00 1.6324695962e+00 2.8275202824e+00 
23200 6.3883145842e+00 -2.1236423032e-03 1.6325337052e+00 -2.8276313225e+00 1.6325337052e+00 2.8276313225e+00 
23300 6.3883133219e+00 -2.1532848029e-03 1.6325987469e+00 -2.8277439780e+00 1.6325987469e+00 2.8277439780e+00 
23400 6.3883120946e+00 -2.1819604568e-03 1.6326646939e+00 -2.8278582016e+00 1.6326646939e+00 2.8278582016e+00 
23500 6.3883108973e+00 -2.2096000957e-03 1.6327315164e+00 -2.8279739416e+00 1.6327315164e+00 2.8279739416e+00 
23600 6.3883097256e+00 -2.2361389060e-03 1.6327991826e+00 -2.8280911429e+00 1.6327991826e+00 2.8280911429e+00 
23700 6.3883085753e+00 -2.2615164175e-03 1.6328676587e+00 -2.8282097470e+00 1.6328676587e+00 2.8282097470e+00 
23800 6.3883074427e+00 -2.2856764832e-03 1.6329369091e+00 -2.8283296921e+00 1.6329369091e+00 2.8283296921e+00 
23900 6.3883063245e+00 -2.3085672526e-03 1.6330068963e+00 -2.8284509134e+00 1.6330068963e+00 2.8284509134e+00 
24000 6.3883052175e+00 -2.3301411379e-03 1.6330775813e+00 -2.8285733435e+00 1.6330775813e+00 2.8285733435e+00 
24100 6.3883041193e+00 -2.3503547727e-03 1.6331489239e+00 -2.8286969124e+00 1.6331489239e+00 2.8286969124e+00 
24200 6.3883030274e+00 -2.3691689655e-03 1.6332208821e+00 -2.8288215479e+00 1.6332208821e+00 2.8288215479e+00 
24300 6.3883019398e+00 -2.3865486458e-03 1.6332934133e+00 -2.8289471754e+00 1.6332934133e+00 2.8289471754e+00 
24400 6.3883008550e+00 -2.4024628055e-03 1.6333664732e+00 -2.8290737190e+00 1.6333664732e+00 2.8290737190e+00 
24500 6.3882997716e+00 -2.4168844336e-03 1.6334400170e+00 -2.8292011006e+00 1.6334400170e+00 2.8292011006e+00 
24600 6.3882986884e+00 -2.4297904463e-03 1.6335139990e+00 -2.8293292412e+00 1.6335139990e+00 2.8293292412e+00 
24700 6.3882976047e+00 -2.4411616118e-03 1.6335883727e+00 -2.8294580602e+00 1.6335883727e+00 2.8294580602e+00 
24800 6.3882965200e+00 -2.4509824701e-03 1.6336630910e+00 -2.8295874761e+00 1.6336630910e+00 2.8295874761e+00 
24900 6.3882954339e+00 -2.4592412484e-03 1.6337381065e+00 -2.8297174068e+00 1.6337381065e+00 2.8297174068e+00 
25000 6.3882943463e+00 -2.4659297729e-03 1.6338133714e+00 -2.8298477693e+00 1.6338133714e+00 2.8298477693e+00 
25100 6.3882932573e+00 -2.4710433755e-03 1.6338888374e+00 -2.8299784803e+00 1.6338888374e+00 2.8299784803e+00 
25200 6.3882921672e+00 -2.4745807977e-03 1.6339644565e+00 -2.8301094564e+00 1.6339644565e+00 2.8301094564e+00 
25300 6.3882910766e+00 -2.4765440909e-03 1.6340401803e+00 -2.8302406138e+00 1.6340401803e+00 2.8302406138e+00 
25400 6.3882899859e+00 -2.4769385137e-03 1.6341159606e+00 -2.8303718693e+00 1.6341159606e+00 2.8303718693e+00 
25500 6.3882888958e+00 -2.4757724258e-03 1.6341917495e+00 -2.8305031395e+00 1.6341917495e+00 2.8305031395e+00 
25600 6.3882878073e+00 -2.4730571799e-03 1.6342674993e+00 -2.8306343419e+00 1.6342674993e+00 2.8306343419e+00 
25700 6.3882867213e+00 -2.4688070114e-03 1.6343431624e+00 -2.8307653943e+00 1.6343431624e+00 2.8307653943e+00 
25800 6.3882856387e+00 -2.4630389254e-03 1.6344186920e+00 -2.8308962154e+00 1.6344186920e+00 2.8308962154e+00 
25900 6.3882845606e+00 -2.4557725827e-03 1.6344940417e+00 -2.8310267249e+00 1.6344940417e+00 2.8310267249e+00 
26000 6.3882834881e+00 -2.4470301835e-03 1.6345691656e+00 -2.8311568433e+00 1.6345691656e+00 2.8311568433e+00 
26100 6.3882824224e+00 -2.4368363508e-03 1.6346440186e+00 -2.8312864925e+00 1.6346440186e+00 2.8312864925e+00 
26200 6.3882813647e+00 -2.4252180115e-03 1.6347185564e+00 -2.8314155957e+00 1.6347185564e+00 2.8314155957e+00 
26300 6.3882803161e+00 -2.4122042782e-03 1.6347927354e+00 -2.8315440776e+00 1.6347927354e+00 2.8315440776e+00 
26400 6.3882792777e+00 -2.3978263293e-03 1.6348665130e+00 -2.8316718642e+00 1.6348665130e+00 2.8316718642e+00 
26500 6.3882782508e+00 -2.3821172894e-03 1.6349398476e+00 -2.8317988833e+00 1.6349398476e+00 2.8317988833e+00 
26600 6.3882772364e+00 -2.3651121093e-03 1.6350126984e+00 -2.8319250647e+00 1.6350126984e+00 2.8319250647e+00 
26700 6.3882762356e+00 -2.3468474464e-03 1.6350850260e+00 -2.8320503397e+00 1.6350850260e+00 2.8320503397e+00 
26800 6.3882752494e+00 -2.3273615455e-03 1.6351567918e+00 -2.8321746418e+00 1.6351567918e+00 2.8321746418e+00 
26900 6.3882742789e+00 -2.3066941200e-03 1.6352279586e+00 -2.8322979063e+00 1.6352279586e+00 2.8322979063e+00 
27000 6.3882733250e+00 -2.2848862336e-03 1.6352984904e+00 -2.8324200710e+00 1.6352984904e+00 2.8324200710e+00 
27100 6.3882723885e+00 -2.2619801837e-03 1.6353683524e+00 -2.8325410754e+00 1.6353683524e+00 2.8325410754e+00 
27200 6.3882714702e+00 -2.2380193856e-03 1.6354375110e+00 -2.8326608616e+00 1.6354375110e+00 2.8326608616e+00 
27300 6.3882705708e+00 -2.2130482575e-03 1.6355059341e+00 -2.8327793740e+00 1.6355059341e+00 2.8327793740e+00 
27400 6.3882696911e+00 -2.1871121080e-03 1.6355735910e+00 -2.8328965591e+00 1.6355735910e+00 2.8328965591e+00 
27500 6.3882688315e+00 -2.1602570244e-03 1.6356404521e+00 -2.8330123660e+00 1.6356404521e+00 2.8330123660e+00 
27600 6.3882679926e+00 -2.1325297634e-03 1.6357064896e+00 -2.8331267463e+00 1.6357064896e+00 2.8331267463e+00 
27700 6.3882671747e+00 -2.1039776438e-03 1.6357716768e+00 -2.8332396539e+00 1.6357716768e+00 2.8332396539e+00 
27800 6.3882663782e+00 -2.0746484407e-03 1.6358359887e+00 -2.8333510453e+00 1.6358359887e+00 2.8333510453e+00 
27900 6.3882656034e+00 -2.0445902823e-03 1.6358994016e+00 -2.8334608797e+00 1.6358994016e+00 2.8334608797e+00 
28000 6.3882648503e+00 -2.0138515499e-03 1.6359618933e+00 -2.8335691185e+00 1.6359618933e+00 2.8335691185e+00 
28100 6.3882641192e+00 -1.9824807787e-03 1.6360234432e+00 -2.8336757260e+00 1.6360234432e+00 2.8336757260e+00 
28200 6.3882634101e+00 -1.9505265629e-03 1.6360840320e+00 -2.8337806688e+00 1.6360840320e+00 2.8337806688e+00 
28300 6.3882627228e+00 -1.9180374622e-03 1.6361436419e+00 -2.8338839163e+00 1.6361436419e+00 2.8338839163e+00 
28400 6.3882620573e+00 -1.8850619123e-03 1.6362022569e+00 -2.8339854404e+00 1.6362022569e+00 2.8339854404e+00 
28500 6.3882614134e+00 -1.8516481369e-03 1.6362598620e+00 -2.8340852154e+00 1.6362598620e+00 2.8340852154e+00 
28600 6.3882607909e+00 -1.8178440641e-03 1.6363164441e+00 -2.8341832184e+00 1.6363164441e+00 2.8341832184e+00 
28700 6.3882601894e+00 -1.7836972451e-03 1.6363719912e+00 -2.8342794288e+00 1.6363719912e+00 2.8342794288e+00 
28800 6.3882596086e+00 -1.7492547754e-03 1.6364264931e+00 -2.8343738289e+00 1.6364264931e+00 2.8343738289e+00 
28900 6.3882590481e+00 -1.7145632206e-03 1.6364799408e+00 -2.8344664030e+00 1.6364799408e+00 2.8344664030e+00 
29000 6.3882585074e+00 -1.6796685445e-03 1.6365323268e+00 -2.8345571382e+00 1.6365323268e+00 2.8345571382e+00 
29100 6.3882579860e+00 -1.6446160398e-03 1.6365836449e+00 -2.8346460239e+00 1.6365836449e+00 2.8346460239e+00 
29200 6.3882574835e+00 -1.6094502640e-03 1.6366338906e+00 -2.8347330519e+00 1.6366338906e+00 2.8347330519e+00 
29300 6.3882569992e+00 -1.5742149764e-03 1.6366830604e+00 -2.8348182165e+00 1.6366830604e+00 2.8348182165e+00 
29400 6.3882565326e+00 -1.5389530800e-03 1.6367311522e+00 -2.8349015140e+00 1.6367311522e+00 2.8349015140e+00 
29500 6.3882560830e+00 -1.5037065658e-03 1.6367781655e+00 -2.8349829433e+00 1.6367781655e+00 2.8349829433e+00 
29600 6.3882556499e+00 -1.4685164610e-03 1.6368241006e+00 -2.8350625054e+00 1.6368241006e+00 2.8350625054e+00 
29700 6.3882552325e+00 -1.4334227804e-03 1.6368689596e+00 -2.8351402033e+00 1.6368689596e+00 2.8351402033e+00 
29800 6.3882548303e+00 -1.3984644804e-03 1.6369127453e+00 -2.8352160424e+00 1.6369127453e+00 2.8352160424e+00 
29900 6.3882544426e+00 -1.3636794176e-03 1.6369554620e+00 -2.8352900299e+00 1.6369554620e+00 2.8352900299e+00 
30000 6.3882540687e+00 -1.3291043094e-03 1.6369971151e+00 -2.8353621751e+00 1.6369971151e+00 2.8353621751e+00 
30100 6.3882537079e+00 -1.2947746989e-03 1.6370377110e+00 -2.8354324894e+00 1.6370377110e+00 2.8354324894e+00 
30200 6.3882533596e+00 -1.2607249222e-03 1.6370772575e+00 -2.8355009859e+00 1.6370772575e+00 2.8355009859e+00 
30300 6.3882530232e+00 -1.2269880792e-03 1.6371157630e+00 -2.8355676794e+00 1.6371157630e+00 2.8355676794e+00 
30400 6.3882526979e+00 -1.1935960076e-03 1.6371532372e+00 -2.8356325866e+00 1.6371532372e+00 2.8356325866e+00 
30500 6.3882523833e+00 -1.1605792602e-03 1.6371896907e+00 -2.8356957260e+00 1.6371896907e+00 2.8356957260e+00 
30600 6.3882520786e+00 -1.1279670845e-03 1.6372251351e+00 -2.8357571174e+00 1.6372251351e+00 2.8357571174e+00 
30700 6.3882517833e+00 -1.0957874060e-03 1.6372595828e+00 -2.8358167825e+00 1.6372595828e+00 2.8358167825e+00 
30800 6.3882514968e+00 -1.0640668143e-03 1.6372930469e+00 -2.8358747442e+00 1.6372930469e+00 2.8358747442e+00 
30900 6.3882512186e+00 -1.0328305517e-03 1.6373255417e+00 -2.8359310268e+00 1.6373255417e+00 2.8359310268e+00 
31000 6.3882509482e+00 -1.0021025048e-03 1.6373570820e+00 -2.8359856562e+00 1.6373570820e+00 2.8359856562e+00 
31100 6.3882506849e+00 -9.7190519920e-04 1.6373876833e+00 -2.8360386592e+00 1.6373876833e+00 2.8360386592e+00 
31200 6.3882504285e+00 -9.4225979604e-04 1.6374173620e+00 -2.8360900641e+00 1.6374173620e+00 2.8360900641e+00 
31300 6.3882501783e+00 -9.1318609193e-04 1.6374461348e+00 -2.8361399001e+00 1.6374461348e+00 2.8361399001e+00 
31400 6.3882499340e+00 -8.8470252086e-04 1.6374740193e+00 -2.8361881975e+00 1.6374740193e+00 2.8361881975e+00 
31500 6.3882496952e+00 -8.5682615872e-04 1.6375010336e+00 -2.8362349877e+00 1.6375010336e+00 2.8362349877e+00 
31600 6.3882494616e+00 -8.2957273013e-04 1.6375271963e+00 -2.8362803028e+00 1.6375271963e+00 2.8362803028e+00 
31700 6.3882492327e+00 -8.0295661751e-04 1.6375525264e+00 -2.8363241759e+00 1.6375525264e+00 2.8363241759e+00 
31800 6.3882490083e+00 -7.7699087230e-04 1.6375770435e+00 -2.8363666406e+00 1.6375770435e+00 2.8363666406e+00 
31900 6.3882487881e+00 -7.5168722833e-04 1.6376007673e+00 -2.8364077315e+00 1.6376007673e+00 2.8364077315e+00 
32000 6.3882485718e+00 -7.2705611706e-04 1.6376237182e+00 -2.8364474837e+00 1.6376237182e+00 2.8364474837e+00 
32100 6.3882483592e+00 -7.0310668481e-04 1.6376459168e+00 -2.8364859327e+00 1.6376459168e+00 2.8364859327e+00 
32200 6.3882481500e+00 -6.7984681182e-04 1.6376673838e+00 -2.8365231147e+00 1.6376673838e+00 2.8365231147e+00 
32300 6.3882479442e+00 -6.5728313293e-04 1.6376881405e+00 -2.8365590662e+00 1.6376881405e+00 2.8365590662e+00 
32400 6.3882477415e+00 -6.3542105995e-04 1.6377082079e+00 -2.8365938241e+00 1.6377082079e+00 2.8365938241e+00 
32500 6.3882475418e+00 -6.1426480564e-04 1.6377276076e+00 -2.8366274254e+00 1.6377276076e+00 2.8366274254e+00 
32600 6.3882473450e+00 -5.9381740897e-04 1.6377463613e+00 -2.8366599076e+00 1.6377463613e+00 2.8366599076e+00 
32700 6.3882471509e+00 -5.7408076190e-04 1.6377644904e+00 -2.8366913082e+00 1.6377644904e+00 2.8366913082e+00 
32800 6.3882469595e+00 -5.5505563735e-04 1.6377820168e+00 -2.8367216648e+00 1.6377820168e+00 2.8367216648e+00 
32900 6.3882467708e+00 -5.3674171834e-04 1.6377989621e+00 -2.8367510150e+00 1.6377989621e+00 2.8367510150e+00 
33000 6.3882465846e+00 -5.1913762826e-04 1.6378153482e+00 -2.8367793966e+00 1.6378153482e+00 2.8367793966e+00 
33100 6.3882464010e+00 -5.0224096214e-04 1.6378311967e+00 -2.8368068470e+00 1.6378311967e+00 2.8368068470e+00 
33200 6.3882462199e+00 -4.8604831880e-04 1.6378465293e+00 -2.8368334037e+00 1.6378465293e+00 2.8368334037e+00 
33300 6.3882460414e+00 -4.7055533384e-04 1.6378613673e+00 -2.8368591040e+00 1.6378613673e+00 2.8368591040e+00 
33400 6.3882458653e+00 -4.5575671340e-04 1.6378757323e+00 -2.8368839848e+00 1.6378757323e+00 2.8368839848e+00 
33500 6.3882456918e+00 -4.4164626857e-04 1.6378896453e+00 -2.8369080829e+00 1.6378896453e+00 2.8369080829e+00 
33600 6.3882455208e+00 -4.2821695034e-04 1.6379031275e+00 -2.8369314348e+00 1.6379031275e+00 2.8369314348e+00 
33700 6.3882453524e+00 -4.1546088514e-04 1.6379161997e+00 -2.8369540763e+00 1.6379161997e+00 2.8369540763e+00 
33800 6.3882451866e+00 -4.0336941067e-04 1.6379288823e+00 -2.8369760433e+00 1.6379288823e+00 2.8369760433e+00 
33900 6.3882450235e+00 -3.9193311220e-04 1.6379411957e+00 -2.8369973707e+00 1.6379411957e+00 2.8369973707e+00 
34000 6.3882448630e+00 -3.8114185908e-04 1.6379531599e+00 -2.8370180934e+00 1.6379531599e+00 2.8370180934e+00 
34100 6.3882447053e+00 -3.7098484140e-04 1.6379647946e+00 -2.8370382453e+00 1.6379647946e+00 2.8370382453e+00 
34200 6.3882445503e+00 -3.6145060690e-04 1.6379761192e+00 -2.8370578600e+00 1.6379761192e+00 2.8370578600e+00 
34300 6.3882443981e+00 -3.5252709776e-04 1.6379871527e+00 -2.8370769706e+00 1.6379871527e+00 2.8370769706e+00 
34400 6.3882442487e+00 -3.4420168757e-04 1.6379979137e+00 -2.8370956091e+00 1.6379979137e+00 2.8370956091e+00 
34500 6.3882441022e+00 -3.3646121806e-04 1.6380084205e+00 -2.8371138074e+00 1.6380084205e+00 2.8371138074e+00 
34600 6.3882439587e+00 -3.2929203576e-04 1.6380186909e+00 -2.8371315964e+00 1.6380186909e+00 2.8371315964e+00 
34700 6.3882438181e+00 -3.2268002848e-04 1.6380287424e+00 -2.8371490062e+00 1.6380287424e+00 2.8371490062e+00 
34800 6.3882436804e+00 -3.1661066148e-04 1.6380385921e+00 -2.8371660663e+00 1.6380385921e+00 2.8371660663e+00 
34900 6.3882435458e+00 -3.1106901335e-04 1.6380482564e+00 -2.8371828054e+00 1.6380482564e+00 2.8371828054e+00 
35000 6.3882434142e+00 -3.0603981154e-04 1.6380577515e+00 -2.8371992514e+00 1.6380577515e+00 2.8371992514e+00 
35100 6.3882432857e+00 -3.0150746738e-04 1.6380670931e+00 -2.8372154315e+00 1.6380670931e+00 2.8372154315e+00 
35200 6.3882431602e+00 -2.9745611079e-04 1.6380762963e+00 -2.8372313718e+00 1.6380762963e+00 2.8372313718e+00 
35300 6.3882430378e+00 -2.9386962429e-04 1.6380853757e+00 -2.8372470979e+00 1.6380853757e+00 2.8372470979e+00 
35400 6.3882429184e+00 -2.9073167659e-04 1.6380943456e+00 -2.8372626342e+00 1.6380943456e+00 2.8372626342e+00 
35500 6.3882428021e+00 -2.8802575549e-04 1.6381032197e+00 -2.8372780046e+00 1.6381032197e+00 2.8372780046e+00 
35600 6.3882426888e+00 -2.8573520021e-04 1.6381120112e+00 -2.8372932318e+00 1.6381120112e+00 2.8372932318e+00 
35700 6.3882425786e+00 -2.8384323296e-04 1.6381207326e+00 -2.8373083379e+00 1.6381207326e+00 2.8373083379e+00 
35800 6.3882424714e+00 -2.8233298985e-04 1.6381293963e+00 -2.8373233438e+00 1.6381293963e+00 2.8373233438e+00 
35900 6.3882423672e+00 -2.8118755105e-04 1.6381380139e+00 -2.8373382699e+00 1.6381380139e+00 2.8373382699e+00 
36000 6.3882422659e+00 -2.8038997014e-04 1.6381465964e+00 -2.8373531353e+00 1.6381465964e+00 2.8373531353e+00 
36100 6.3882421676e+00 -2.7992330266e-04 1.6381551546e+00 -2.8373679584e+00 1.6381551546e+00 2.8373679584e+00 
36200 6.3882420721e+00 -2.7977063390e-04 1.6381636985e+00 -2.8373827568e+00 1.6381636985e+00 2.8373827568e+00 
36300 6.3882419794e+00 -2.7991510571e-04 1.6381722376e+00 -2.8373975471e+00 1.6381722376e+00 2.8373975471e+00 
36400 6.3882418895e+00 -2.8033994251e-04 1.6381807811e+00 -2.8374123449e+00 1.6381807811e+00 2.8374123449e+00 
36500 6.3882418024e+00 -2.8102847642e-04 1.6381893376e+00 -2.8374271651e+00 1.6381893376e+00 2.8374271651e+00 
36600 6.3882417179e+00 -2.8196417146e-04 1.6381979150e+00 -2.8374420216e+00 1.6381979150e+00 2.8374420216e+00 
36700 6.3882416360e+00 -2.8313064675e-04 1.6382065209e+00 -2.8374569276e+00 1.6382065209e+00 2.8374569276e+00 
36800 6.3882415566e+00 -2.8451169889e-04 1.6382151624e+00 -2.8374718951e+00 1.6382151624e+00 2.8374718951e+00 
36900 6.3882414796e+00 -2.8609132331e-04 1.6382238460e+00 -2.8374869355e+00 1.6382238460e+00 2.8374869355e+00 
37000 6.3882414051e+00 -2.8785373468e-04 1.6382325778e+00 -2.8375020593e+00 1.6382325778e+00 2.8375020593e+00 
37100 6.3882413328e+00 -2.8978338636e-04 1.6382413633e+00 -2.8375172763e+00 1.6382413633e+00 2.8375172763e+00 
37200 6.3882412628e+00 -2.9186498888e-04 1.6382502076e+00 -2.8375325951e+00 1.6382502076e+00 2.8375325951e+00 
37300 6.3882411949e+00 -2.9408352740e-04 1.6382591155e+00 -2.8375480240e+00 1.6382591155e+00 2.8375480240e+00 
37400 6.3882411291e+00 -2.9642427828e-04 1.6382680910e+00 -2.8375635700e+00 1.6382680910e+00 2.8375635700e+00 
37500 6.3882410653e+00 -2.9887282459e-04 1.6382771379e+00 -2.8375792397e+00 1.6382771379e+00 2.8375792397e+00 
37600 6.3882410035e+00 -3.0141507069e-04 1.6382862594e+00 -2.8375950387e+00 1.6382862594e+00 2.8375950387e+00 
37700 6.3882409434e+00 -3.0403725584e-04 1.6382954585e+00 -2.8376109720e+00 1.6382954585e+00 2.8376109720e+00 
37800 6.3882408851e+00 -3.0672596683e-04 1.6383047376e+00 -2.8376270438e+00 1.6383047376e+00 2.8376270438e+00 
37900 6.3882408285e+00 -3.0946814964e-04 1.6383140987e+00 -2.8376432577e+00 1.6383140987e+00 2.8376432577e+00 
38000 6.3882407735e+00 -3.1225112019e-04 1.6383235434e+00 -2.8376596164e+00 1.6383235434e+00 2.8376596164e+00 
38100 6.3882407200e+00 -3.1506257411e-04 1.6383330730e+00 -2.8376761222e+00 1.6383330730e+00 2.8376761222e+00 
38200 6.3882406679e+00 -3.1789059561e-04 1.6383426884e+00 -2.8376927765e+00 1.6383426884e+00 2.8376927765e+00 
38300 6.3882406172e+00 -3.2072366539e-04 1.6383523900e+00 -2.8377095801e+00 1.6383523900e+00 2.8377095801e+00 
38400 6.3882405678e+00 -3.2355066771e-04 1.6383621780e+00 -2.8377265335e+00 1.6383621780e+00 2.8377265335e+00 
38500 6.3882405197e+00 -3.2636089649e-04 1.6383720522e+00 -2.8377436361e+00 1.6383720522e+00 2.8377436361e+00 
38600 6.3882404727e+00 -3.2914406064e-04 1.6383820121e+00 -2.8377608872e+00 1.6383820121e+00 2.8377608872e+00 
38700 6.3882404267e+00 -3.3189028841e-04 1.6383920569e+00 -2.8377782853e+00 1.6383920569e+00 2.8377782853e+00 
38800 6.3882403819e+00 -3.3459013100e-04 1.6384021855e+00 -2.8377958285e+00 1.6384021855e+00 2.8377958285e+00 
38900 6.3882403380e+00 -3.3723456530e-04 1.6384123963e+00 -2.8378135142e+00 1.6384123963e+00 2.8378135142e+00 
39000 6.3882402950e+00 -3.3981499583e-04 1.6384226879e+00 -2.8378313397e+00 1.6384226879e+00 2.8378313397e+00 
39100 6.3882402529e+00 -3.4232325594e-04 1.6384330581e+00 -2.8378493014e+00 1.6384330581e+00 2.8378493014e+00 
39200 6.3882402116e+00 -3.4475160817e-04 1.6384435047e+00 -2.8378673955e+00 1.6384435047e+00 2.8378673955e+00 
39300 6.3882401710e+00 -3.4709274396e-04 1.6384540255e+00 -2.8378856180e+00 1.6384540255e+00 2.8378856180e+00 
39400 6.3882401312e+00 -3.4933978260e-04 1.6384646175e+00 -2.8379039640e+00 1.6384646175e+00 2.8379039640e+00 
39500 6.3882400920e+00 -3.5148626947e-04 1.6384752781e+00 -2.8379224287e+00 1.6384752781e+00 2.8379224287e+00 
39600 6.3882400535e+00 -3.5352617361e-04 1.6384860042e+00 -2.8379410067e+00 1.6384860042e+00 2.8379410067e+00 
39700 6.3882400156e+00 -3.5545388473e-04 1.6384967924e+00 -2.8379596924e+00 1.6384967924e+00 2.8379596924e+00 
39800 6.3882399782e+00 -3.5726420946e-04 1.6385076393e+00 -2.8379784799e+00 1.6385076393e+00 2.8379784799e+00 
39900 6.3882399414e+00 -3.5895236713e-04 1.6385185415e+00 -2.8379973630e+00 1.6385185415e+00 2.8379973630e+00 
40000 6.3882399051e+00 -3.6051398488e-04 1.6385294951e+00 -2.8380163351e+00 1.6385294951e+00 2.8380163351e+00 
40100 6.3882398693e+00 -3.6194509229e-04 1.6385404962e+00 -2.8380353897e+00 1.6385404962e+00 2.8380353897e+00 
40200 6.3882398339e+00 -3.6324211544e-04 1.6385515410e+00 -2.8380545198e+00 1.6385515410e+00 2.8380545198e+00 
40300 6.3882397990e+00 -3.6440187051e-04 1.6385626252e+00 -2.8380737183e+00 1.6385626252e+00 2.8380737183e+00 
40400 6.3882397645e+00 -3.6542155693e-04 1.6385737448e+00 -2.8380929779e+00 1.6385737448e+00 2.8380929779e+00 
40500 6.3882397304e+00 -3.6629874996e-04 1.6385848954e+00 -2.8381122914e+00 1.6385848954e+00 2.8381122914e+00 
40600 6.3882396967e+00 -3.6703139305e-04 1.6385960727e+00 -2.8381316510e+00 1.6385960727e+00 2.8381316510e+00 
40700 6.3882396634e+00 -3.6761778963e-04 1.6386072723e+00 -2.8381510493e+00 1.6386072723e+00 2.8381510493e+00 
40800 6.3882396304e+00 -3.6805659460e-04 1.6386184897e+00 -2.8381704784e+00 1.6386184897e+00 2.8381704784e+00 
40900 6.3882395978e+00 -3.6834680552e-04 1.6386297204e+00 -2.8381899305e+00 1.6386297204e+00 2.8381899305e+00 
41000 6.3882395656e+00 -3.6848775342e-04 1.6386409599e+00 -2.8382093979e+00 1.6386409599e+00 2.8382093979e+00 
41100 6.3882395338e+00 -3.6847909333e-04 1.6386522036e+00 -2.8382288726e+00 1.6386522036e+00 2.8382288726e+00 
41200 6.3882395023e+00 -3.6832079456e-04 1.6386634470e+00 -2.8382483467e+00 1.6386634470e+00 2.8382483467e+00 
41300 6.3882394711e+00 -3.6801313074e-04 1.6386746854e+00 -2.8382678122e+00 1.6386746854e+00 2.8382678122e+00 
41400 6.3882394403e+00 -3.6755666962e-04 1.6386859144e+00 -2.8382872614e+00 1.6386859144e+00 2.8382872614e+00 
41500 6.3882394099e+00 -3.6695226269e-04 1.6386971294e+00 -2.8383066864e+00 1.6386971294e+00 2.8383066864e+00 
41600 6.3882393798e+00 -3.6620103464e-04 1.6387083259e+00 -2.8383260793e+00 1.6387083259e+00 2.8383260793e+00 
41700 6.3882393500e+00 -3.6530437266e-04 1.6387194994e+00 -2.8383454323e+00 1.6387194994e+00 2.8383454323e+00 
41800 6.3882393206e+00 -3.6426391558e-04 1.6387306454e+00 -2.8383647378e+00 1.6387306454e+00 2.8383647378e+00 
41900 6.3882392916e+00 -3.6308154301e-04 1.6387417596e+00 -2.8383839882e+00 1.6387417596e+00 2.8383839882e+00 
42000 6.3882392629e+00 -3.6175936428e-04 1.6387528377e+00 -2.8384031760e+00 1.6387528377e+00 2.8384031760e+00 
42100 6.3882392346e+00 -3.6029970739e-04 1.6387638754e+00 -2.8384222938e+00 1.6387638754e+00 2.8384222938e+00 
42200 6.3882392067e+00 -3.5870510793e-04 1.6387748684e+00 -2.8384413343e+00 1.6387748684e+00 2.8384413343e+00 
42300 6.3882391792e+00 -3.5697829791e-04 1.6387858127e+00 -2.8384602904e+00 1.6387858127e+00 2.8384602904e+00 
42400 6.3882391520e+00 -3.5512219470e-04 1.6387967043e+00 -2.8384791551e+00 1.6387967043e+00 2.8384791551e+00 
42500 6.3882391252e+00 -3.5313988990e-04 1.6388075392e+00 -2.8384979216e+00 1.6388075392e+00 2.8384979216e+00 
42600 6.3882390988e+00 -3.5103463827e-04 1.6388183135e+00 -2.8385165833e+00 1.6388183135e+00 2.8385165833e+00 
42700 6.3882390728e+00 -3.4880984677e-04 1.6388290235e+00 -2.8385351336e+00 1.6388290235e+00 2.8385351336e+00 
42800 6.3882390471e+00 -3.4646906357e-04 1.6388396655e+00 -2.8385535661e+00 1.6388396655e+00 2.8385535661e+00 
42900 6.3882390219e+00 -3.4401596730e-04 1.6388502361e+00 -2.8385718749e+00 1.6388502361e+00 2.8385718749e+00 
43000 6.3882389971e+00 -3.4145435625e-04 1.6388607318e+00 -2.8385900539e+00 1.6388607318e+00 2.8385900539e+00 
43100 6.3882389726e+00 -3.3878813779e-04 1.6388711492e+00 -2.8386080975e+00 1.6388711492e+00 2.8386080975e+00 
43200 6.3882389486e+00 -3.3602131792e-04 1.6388814852e+00 -2.8386260000e+00 1.6388814852e+00 2.8386260000e+00 
43300 6.3882389250e+00 -3.3315799091e-04 1.6388917368e+00 -2.8386437562e+00 1.6388917368e+00 2.8386437562e+00 
43400 6.3882389018e+00 -3.3020232920e-04 1.6389019009e+00 -2.8386613610e+00 1.6389019009e+00 2.8386613610e+00 
43500 6.3882388789e+00 -3.2715857337e-04 1.6389119748e+00 -2.8386788095e+00 1.6389119748e+00 2.8386788095e+00 
43600 6.3882388565e+00 -3.2403102241e-04 1.6389219558e+00 -2.8386960971e+00 1.6389219558e+00 2.8386960971e+00 
43700 6.3882388345e+00 -3.2082402407e-04 1.6389318413e+00 -2.8387132193e+00 1.6389318413e+00 2.8387132193e+00 
43800 6.3882388129e+00 -3.1754196555e-04 1.6389416289e+00 -2.8387301719e+00 1.6389416289e+00 2.8387301719e+00 
43900 6.3882387916e+00 -3.1418926428e-04 1.6389513163e+00 -2.8387469510e+00 1.6389513163e+00 2.8387469510e+00 
44000 6.3882387708e+00 -3.1077035907e-04 1.6389609014e+00 -2.8387635529e+00 1.6389609014e+00 2.8387635529e+00 
44100 6.3882387504e+00 -3.0728970133e-04 1.6389703821e+00 -2.8387799739e+00 1.6389703821e+00 2.8387799739e+00 
44200 6.3882387304e+00 -3.0375174672e-04 1.6389797566e+00 -2.8387962110e+00 1.6389797566e+00 2.8387962110e+00 
44300 6.3882387107e+00 -3.0016094689e-04 1.6389890231e+00 -2.8388122611e+00 1.6389890231e+00 2.8388122611e+00 
44400 6.3882386914e+00 -2.9652174161e-04 1.6389981800e+00 -2.8388281213e+00 1.6389981800e+00 2.8388281213e+00 
44500 6.3882386725e+00 -2.9283855105e-04 1.6390072258e+00 -2.8388437891e+00 1.6390072258e+00 2.8388437891e+00 
44600 6.3882386540e+00 -2.8911576845e-04 1.6390161593e+00 -2.8388592623e+00 1.6390161593e+00 2.8388592623e+00 
44700 6.3882386358e+00 -2.8535775295e-04 1.6390249791e+00 -2.8388745386e+00 1.6390249791e+00 2.8388745386e+00 
44800 6.3882386180e+00 -2.8156882279e-04 1.6390336842e+00 -2.8388896163e+00 1.6390336842e+00 2.8388896163e+00 
44900 6.3882386006e+00 -2.7775324874e-04 1.6390422737e+00 -2.8389044937e+00 1.6390422737e+00 2.8389044937e+00 
45000 6.3882385835e+00 -2.7391524783e-04 1.6390507467e+00 -2.8389191695e+00 1.6390507467e+00 2.8389191695e+00 
45100 6.3882385667e+00 -2.7005897738e-04 1.6390591026e+00 -2.8389336424e+00 1.6390591026e+00 2.8389336424e+00 
45200 6.3882385503e+00 -2.6618852932e-04 1.6390673409e+00 -2.8389479114e+00 1.6390673409e+00 2.8389479114e+00 
45300 6.3882385342e+00 -2.6230792476e-04 1.6390754610e+00 -2.8389619759e+00 1.6390754610e+00 2.8389619759e+00 
45400 6.3882385184e+00 -2.5842110889e-04 1.6390834627e+00 -2.8389758352e+00 1.6390834627e+00 2.8389758352e+00 
45500 6.3882385029e+00 -2.5453194620e-04 1.6390913458e+00 -2.8389894892e+00 1.6390913458e+00 2.8389894892e+00 
45600 6.3882384878e+00 -2.5064421591e-04 1.6390991102e+00 -2.8390029376e+00 1.6390991102e+00 2.8390029376e+00 
45700 6.3882384729e+00 -2.4676160773e-04 1.6391067560e+00 -2.8390161805e+00 1.6391067560e+00 2.8390161805e+00 
45800 6.3882384583e+00 -2.4288771796e-04 1.6391142834e+00 -2.8390292182e+00 1.6391142834e+00 2.8390292182e+00 
45900 6.3882384440e+00 -2.3902604578e-04 1.6391216925e+00 -2.8390420512e+00 1.6391216925e+00 2.8390420512e+00 
46000 6.3882384300e+00 -2.3517998987e-04 1.6391289838e+00 -2.8390546800e+00 1.6391289838e+00 2.8390546800e+00 
46100 6.3882384163e+00 -2.3135284537e-04 1.6391361577e+00 -2.8390671057e+00 1.6391361577e+00 2.8390671057e+00 
46200 6.3882384028e+00 -2.2754780100e-04 1.6391432149e+00 -2.8390793290e+00 1.6391432149e+00 2.8390793290e+00 
46300 6.3882383895e+00 -2.2376793652e-04 1.6391501559e+00 -2.8390913513e+00 1.6391501559e+00 2.8390913513e+00 
46400 6.3882383765e+00 -2.2001622048e-04 1.6391569817e+00 -2.8391031738e+00 1.6391569817e+00 2.8391031738e+00 
46500 6.3882383638e+00 -2.1629550823e-04 1.6391636929e+00 -2.8391147981e+00 1.6391636929e+00 2.8391147981e+00 
46600 6.3882383513e+00 -2.1260854009e-04 1.6391702907e+00 -2.8391262257e+00 1.6391702907e+00 2.8391262257e+00 
46700 6.3882383390e+00 -2.0895793996e-04 1.6391767759e+00 -2.8391374585e+00 1.6391767759e+00 2.8391374585e+00 
46800 6.3882383269e+00 -2.0534621401e-04 1.6391831498e+00 -2.8391484984e+00 1.6391831498e+00 2.8391484984e+00 
46900 6.3882383150e+00 -2.0177574970e-04 1.6391894135e+00 -2.8391593474e+00 1.6391894135e+00 2.8391593474e+00 
47000 6.3882383033e+00 -1.9824881505e-04 1.6391955682e+00 -2.8391700077e+00 1.6391955682e+00 2.8391700077e+00 
47100 6.3882382919e+00 -1.9476755810e-04 1.6392016154e+00 -2.8391804817e+00 1.6392016154e+00 2.8391804817e+00 
47200 6.3882382806e+00 -1.9133400660e-04 1.6392075563e+00 -2.8391907717e+00 1.6392075563e+00 2.8391907717e+00 
47300 6.3882382695e+00 -1.8795006798e-04 1.6392133925e+00 -2.8392008802e+00 1.6392133925e+00 2.8392008802e+00 
47400 6.3882382586e+00 -1.8461752945e-04 1.6392191254e+00 -2.8392108100e+00 1.6392191254e+00 2.8392108100e+00 
47500 6.3882382479e+00 -1.8133805837e-04 1.6392247567e+00 -2.8392205636e+00 1.6392247567e+00 2.8392205636e+00 
47600 6.3882382374e+00 -1.7811320282e-04 1.6392302879e+00 -2.8392301439e+00 1.6392302879e+00 2.8392301439e+00 
47700 6.3882382270e+00 -1.7494439228e-04 1.6392357207e+00 -2.8392395539e+00 1.6392357207e+00 2.8392395539e+00 
47800 6.3882382168e+00 -1.7183293862e-04 1.6392410569e+00 -2.8392487964e+00 1.6392410569e+00 2.8392487964e+00 
47900 6.3882382067e+00 -1.6878003720e-04 1.6392462981e+00 -2.8392578745e+00 1.6392462981e+00 2.8392578745e+00 
48000 6.3882381968e+00 -1.6578676811e-04 1.6392514462e+00 -2.8392667913e+00 1.6392514462e+00 2.8392667913e+00 
48100 6.3882381871e+00 -1.6285409766e-04 1.6392565030e+00 -2.8392755499e+00 1.6392565030e+00 2.8392755499e+00 
48200 6.3882381775e+00 -1.5998287995e-04 1.6392614703e+00 -2.8392841535e+00 1.6392614703e+00 2.8392841535e+00 
48300 6.3882381681e+00 -1.5717385863e-04 1.6392663501e+00 -2.8392926054e+00 1.6392663501e+00 2.8392926054e+00 
48400 6.3882381588e+00 -1.5442766878e-04 1.6392711441e+00 -2.8393009090e+00 1.6392711441e+00 2.8393009090e+00 
48500 6.3882381496e+00 -1.5174483895e-04 1.6392758544e+00 -2.8393090674e+00 1.6392758544e+00 2.8393090674e+00 
48600 6.3882381406e+00 -1.4912579330e-04 1.6392804828e+00 -2.8393170840e+00 1.6392804828e+00 2.8393170840e+00 
48700 6.3882381317e+00 -1.4657085384e-04 1.6392850313e+00 -2.8393249623e+00 1.6392850313e+00 2.8393249623e+00 
48800 6.3882381230e+00 -1.4408024284e-04 1.6392895019e+00 -2.8393327055e+00 1.6392895019e+00 2.8393327055e+00 
48900 6.3882381144e+00 -1.4165408532e-04 1.6392938965e+00 -2.8393403172e+00 1.6392938965e+00 2.8393403172e+00 
49000 6.3882381059e+00 -1.3929241157e-04 1.6392982170e+00 -2.8393478007e+00 1.6392982170e+00 2.8393478007e+00 
49100 6.3882380975e+00 -1.3699515987e-04 1.6393024656e+00 -2.8393551593e+00 1.6393024656e+00 2.8393551593e+00 
49200 6.3882380893e+00 -1.3476217921e-04 1.6393066440e+00 -2.8393623967e+00 1.6393066440e+00 2.8393623967e+00 
49300 6.3882380812e+00 -1.3259323208e-04 1.6393107544e+00 -2.8393695160e+00 1.6393107544e+00 2.8393695160e+00 
49400 6.3882380732e+00 -1.3048799740e-04 1.6393147986e+00 -2.8393765207e+00 1.6393147986e+00 2.8393765207e+00 
49500 6.3882380653e+00 -1.2844607346e-04 1.6393187785e+00 -2.8393834142e+00 1.6393187785e+00 2.8393834142e+00 
49600 6.3882380576e+00 -1.2646698084e-04 1.6393226962e+00 -2.8393901998e+00 1.6393226962e+00 2.8393901998e+00 
49700 6.3882380499e+00 -1.2455016556e-04 1.6393265535e+00 -2.8393968808e+00 1.6393265535e+00 2.8393968808e+00 
49800 6.3882380424e+00 -1.2269500205e-04 1.6393303523e+00 -2.8394034606e+00 1.6393303523e+00 2.8394034606e+00 
49900 6.3882380350e+00 -1.2090079636e-04 1.6393340945e+00 -2.8394099423e+00 1.6393340945e+00 2.8394099423e+00 
50000 6.3882380278e+00 -1.1916678919e-04 1.6393377820e+00 -2.8394163292e+00 1.6393377820e+00 2.8394163292e+00 
50100 6.3882380206e+00 -1.1749215913e-04 1.6393414166e+00 -2.8394226246e+00 1.6393414166e+00 2.8394226246e+00 
50200 6.3882380135e+00 -1.1587602579e-04 1.6393450001e+00 -2.8394288314e+00 1.6393450001e+00 2.8394288314e+00 
50300 6.3882380066e+00 -1.1431745297e-04 1.6393485344e+00 -2.8394349528e+00 1.6393485344e+00 2.8394349528e+00 
50400 6.3882379998e+00 -1.1281545184e-04 1.6393520210e+00 -2.8394409919e+00 1.6393520210e+00 2.8394409919e+00 
50500 6.3882379930e+00 -1.1136898412e-04 1.6393554619e+00 -2.8394469517e+00 1.6393554619e+00 2.8394469517e+00 
50600 6.3882379864e+00 -1.0997696523e-04 1.6393588586e+00 -2.8394528350e+00 1.6393588586e+00 2.8394528350e+00 
50700 6.3882379799e+00 -1.0863826744e-04 1.6393622129e+00 -2.8394586447e+00 1.6393622129e+00 2.8394586447e+00 
50800 6.3882379735e+00 -1.0735172299e-04 1.6393655263e+00 -2.8394643838e+00 1.6393655263e+00 2.8394643838e+00 
50900 6.3882379672e+00 -1.0611612720e-04 1.6393688005e+00 -2.8394700548e+00 1.6393688005e+00 2.8394700548e+00 
51000 6.3882379611e+00 -1.0493024155e-04 1.6393720370e+00 -2.8394756606e+00 1.6393720370e+00 2.8394756606e+00 
51100 6.3882379550e+00 -1.0379279667e-04 1.6393752373e+00 -2.8394812037e+00 1.6393752373e+00 2.8394812037e+00 
51200 6.3882379490e+00 -1.0270249541e-04 1.6393784030e+00 -2.8394866867e+00 1.6393784030e+00 2.8394866867e+00 
51300 6.3882379431e+00 -1.0165801575e-04 1.6393815353e+00 -2.8394921122e+00 1.6393815353e+00 2.8394921122e+00 
51400 6.3882379373e+00 -1.0065801372e-04 1.6393846358e+00 -2.8394974824e+00 1.6393846358e+00 2.8394974824e+00 
51500 6.3882379317e+00 -9.9701126245e-05 1.6393877058e+00 -2.8395027998e+00 1.6393877058e+00 2.8395027998e+00 
51600 6.3882379261e+00 -9.8785973995e-05 1.6393907466e+00 -2.8395080666e+00 1.6393907466e+00 2.8395080666e+00 
51700 6.3882379206e+00 -9.7911164097e-05 1.6393937595e+00 -2.8395132851e+00 1.6393937595e+00 2.8395132851e+00 
51800 6.3882379152e+00 -9.7075292832e-05 1.6393967457e+00 -2.8395184573e+00 1.6393967457e+00 2.8395184573e+00 
51900 6.3882379099e+00 -9.6276948277e-05 1.6393997064e+00 -2.8395235854e+00 1.6393997064e+00 2.8395235854e+00 
52000 6.3882379047e+00 -9.5514712859e-05 1.6394026428e+00 -2.8395286713e+00 1.6394026428e+00 2.8395286713e+00 
52100 6.3882378996e+00 -9.4787165840e-05 1.6394055558e+00 -2.8395337169e+00 1.6394055558e+00 2.8395337169e+00 
52200 6.3882378946e+00 -9.4092885763e-05 1.6394084467e+00 -2.8395387241e+00 1.6394084467e+00 2.8395387241e+00 
52300 6.3882378896e+00 -9.3430452785e-05 1.6394113165e+00 -2.8395436946e+00 1.6394113165e+00 2.8395436946e+00 
52400 6.3882378848e+00 -9.2798450967e-05 1.6394141660e+00 -2.8395486301e+00 1.6394141660e+00 2.8395486301e+00 
52500 6.3882378800e+00 -9.2195470469e-05 1.6394169962e+00 -2.8395535322e+00 1.6394169962e+00 2.8395535322e+00 
52600 6.3882378754e+00 -9.1620109685e-05 1.6394198081e+00 -2.8395584025e+00 1.6394198081e+00 2.8395584025e+00 
52700 6.3882378708e+00 -9.1070977277e-05 1.6394226023e+00 -2.8395632423e+00 1.6394226023e+00 2.8395632423e+00 
52800 6.3882378663e+00 -9.0546694155e-05 1.6394253799e+00 -2.8395680532e+00 1.6394253799e+00 2.8395680532e+00 
52900 6.3882378619e+00 -9.0045895345e-05 1.6394281414e+00 -2.8395728363e+00 1.6394281414e+00 2.8395728363e+00 
53000 6.3882378575e+00 -8.9567231817e-05 1.6394308877e+00 -2.8395775929e+00 1.6394308877e+00 2.8395775929e+00 
53100 6.3882378533e+00 -8.9109372188e-05 1.6394336193e+00 -2.8395823243e+00 1.6394336193e+00 2.8395823243e+00 
53200 6.3882378491e+00 -8.8671004369e-05 1.6394363370e+00 -2.8395870315e+00 1.6394363370e+00 2.8395870315e+00 
53300 6.3882378450e+00 -8.8250837117e-05 1.6394390413e+00 -2.8395917155e+00 1.6394390413e+00 2.8395917155e+00 
53400 6.3882378409e+00 -8.7847601511e-05 1.6394417328e+00 -2.8395963773e+00 1.6394417328e+00 2.8395963773e+00 
53500 6.3882378370e+00 -8.7460052343e-05 1.6394444120e+00 -2.8396010178e+00 1.6394444120e+00 2.8396010178e+00 
53600 6.3882378331e+00 -8.7086969421e-05 1.6394470794e+00 -2.8396056378e+00 1.6394470794e+00 2.8396056378e+00 
53700 6.3882378292e+00 -8.6727158789e-05 1.6394497354e+00 -2.8396102381e+00 1.6394497354e+00 2.8396102381e+00 
53800 6.3882378255e+00 -8.6379453875e-05 1.6394523804e+00 -2.8396148194e+00 1.6394523804e+00 2.8396148194e+00 
53900 6.3882378218e+00 -8.6042716546e-05 1.6394550148e+00 -2.8396193823e+00 1.6394550148e+00 2.8396193823e+00 
54000 6.3882378182e+00 -8.5715838085e-05 1.6394576389e+00 -2.8396239275e+00 1.6394576389e+00 2.8396239275e+00 
54100 6.3882378146e+00 -8.5397740090e-05 1.6394602531e+00 -2.8396284553e+00 1.6394602531e+00 2.8396284553e+00 
54200 6.3882378111e+00 -8.5087375291e-05 1.6394628575e+00 -2.8396329663e+00 1.6394628575e+00 2.8396329663e+00 
54300 6.3882378077e+00 -8.4783728286e-05 1.6394654525e+00 -2.8396374610e+00 1.6394654525e+00 2.8396374610e+00 
54400 6.3882378043e+00 -8.4485816205e-05 1.6394680382e+00 -2.8396419396e+00 1.6394680382e+00 2.8396419396e+00 
54500 6.3882378010e+00 -8.4192689298e-05 1.6394706148e+00 -2.8396464024e+00 1.6394706148e+00 2.8396464024e+00 
54600 6.3882377978e+00 -8.3903431434e-05 1.6394731825e+00 -2.8396508497e+00 1.6394731825e+00 2.8396508497e+00 
54700 6.3882377946e+00 -8.3617160551e-05 1.6394757414e+00 -2.8396552818e+00 1.6394757414e+00 2.8396552818e+00 
54800 6.3882377914e+00 -8.3333029011e-05 1.6394782915e+00 -2.8396596988e+00 1.6394782915e+00 2.8396596988e+00 
54900 6.3882377883e+00 -8.3050223897e-05 1.6394808329e+00 -2.8396641007e+00 1.6394808329e+00 2.8396641007e+00 
55000 6.3882377853e+00 -8.2767967244e-05 1.6394833658e+00 -2.8396684876e+00 1.6394833658e+00 2.8396684876e+00 
55100 6.3882377823e+00 -8.2485516182e-05 1.6394858900e+00 -2.8396728597e+00 1.6394858900e+00 2.8396728597e+00 
55200 6.3882377794e+00 -8.2202163048e-05 1.6394884056e+00 -2.8396772168e+00 1.6394884056e+00 2.8396772168e+00 
55300 6.3882377765e+00 -8.1917235401e-05 1.6394909125e+00 -2.8396815590e+00 1.6394909125e+00 2.8396815590e+00 
55400 6.3882377737e+00 -8.1630095991e-05 1.6394934108e+00 -2.8396858861e+00 1.6394934108e+00 2.8396858861e+00 
55500 6.3882377709e+00 -8.1340142676e-05 1.6394959002e+00 -2.8396901980e+00 1.6394959002e+00 2.8396901980e+00 
55600 6.3882377682e+00 -8.1046808265e-05 1.6394983809e+00 -2.8396944946e+00 1.6394983809e+00 2.8396944946e+00 
55700 6.3882377655e+00 -8.0749560314e-05 1.6395008526e+00 -2.8396987757e+00 1.6395008526e+00 2.8396987757e+00 
55800 6.3882377629e+00 -8.0447900868e-05 1.6395033152e+00 -2.8397030411e+00 1.6395033152e+00 2.8397030411e+00 
55900 6.3882377603e+00 -8.0141366152e-05 1.6395057686e+00 -2.8397072906e+00 1.6395057686e+00 2.8397072906e+00 
56000 6.3882377577e+00 -7.9829526211e-05 1.6395082127e+00 -2.8397115238e+00 1.6395082127e+00 2.8397115238e+00 
56100 6.3882377552e+00 -7.9511984503e-05 1.6395106473e+00 -2.8397157406e+00 1.6395106473e+00 2.8397157406e+00 
56200 6.3882377528e+00 -7.9188377446e-05 1.6395130721e+00 -2.8397199406e+00 1.6395130721e+00 2.8397199406e+00 
56300 6.3882377504e+00 -7.8858373923e-05 1.6395154871e+00 -2.8397241235e+00 1.6395154871e+00 2.8397241235e+00 
56400 6.3882377480e+00 -7.8521674755e-05 1.6395178921e+00 -2.8397282890e+00 1.6395178921e+00 2.8397282890e+00 
56500 6.3882377456e+00 -7.8178012118e-05 1.6395202867e+00 -2.8397324366e+00 1.6395202867e+00 2.8397324366e+00 
56600 6.3882377433e+00 -7.7827148937e-05 1.6395226709e+00 -2.8397365662e+00 1.6395226709e+00 2.8397365662e+00 
56700 6.3882377411e+00 -7.7468878240e-05 1.6395250444e+00 -2.8397406771e+00 1.6395250444e+00 2.8397406771e+00 
56800 6.3882377389e+00 -7.7103022488e-05 1.6395274069e+00 -2.8397447692e+00 1.6395274069e+00 2.8397447692e+00 
56900 6.3882377367e+00 -7.6729432861e-05 1.6395297583e+00 -2.8397488419e+00 1.6395297583e+00 2.8397488419e+00 
57000 6.3882377345e+00 -7.6347988534e-05 1.6395320983e+00 -2.8397528948e+00 1.6395320983e+00 2.8397528948e+00 
57100 6.3882377324e+00 -7.5958595907e-05 1.6395344266e+00 -2.8397569277e+00 1.6395344266e+00 2.8397569277e+00 
57200 6.3882377304e+00 -7.5561187834e-05 1.6395367431e+00 -2.8397609399e+00 1.6395367431e+00 2.8397609399e+00 
57300 6.3882377283e+00 -7.5155722818e-05 1.6395390474e+00 -2.8397649311e+00 1.6395390474e+00 2.8397649311e+00 
57400 6.3882377263e+00 -7.4742184179e-05 1.6395413394e+00 -2.8397689010e+00 1.6395413394e+00 2.8397689010e+00 
57500 6.3882377244e+00 -7.4320579224e-05 1.6395436188e+00 -2.8397728489e+00 1.6395436188e+00 2.8397728489e+00 
57600 6.3882377224e+00 -7.3890938391e-05 1.6395458853e+00 -2.8397767746e+00 1.6395458853e+00 2.8397767746e+00 
57700 6.3882377205e+00 -7.3453314377e-05 1.6395481387e+00 -2.8397806776e+00 1.6395481387e+00 2.8397806776e+00 
57800 6.3882377187e+00 -7.3007781261e-05 1.6395503787e+00 -2.8397845575e+00 1.6395503787e+00 2.8397845575e+00 
57900 6.3882377168e+00 -7.2554433613e-05 1.6395526052e+00 -2.8397884139e+00 1.6395526052e+00 2.8397884139e+00 
58000 6.3882377150e+00 -7.2093385602e-05 1.6395548178e+00 -2.8397922462e+00 1.6395548178e+00 2.8397922462e+00 
58100 6.3882377133e+00 -7.1624770088e-05 1.6395570164e+00 -2.8397960543e+00 1.6395570164e+00 2.8397960543e+00 
58200 6.3882377115e+00 -7.1148737724e-05 1.6395592006e+00 -2.8397998375e+00 1.6395592006e+00 2.8397998375e+00 
58300 6.3882377098e+00 -7.0665456040e-05 1.6395613704e+00 -2.8398035957e+00 1.6395613704e+00 2.8398035957e+00 
58400 6.3882377084e+00 -7.2457737296e-05 1.6395613704e+00 -2.8398035957e+00 1.6395613704e+00 2.8398035957e+00 
58500 6.3882377067e+00 -7.1893946238e-05 1.6395635801e+00 -2.8398074229e+00 1.6395635801e+00 2.8398074229e+00 
58600 6.3882377051e+00 -7.1326014132e-05 1.6395657725e+00 -2.8398112204e+00 1.6395657725e+00 2.8398112204e+00 
58700 6.3882377035e+00 -7.0754040723e-05 1.6395679477e+00 -2.8398149879e+00 1.6395679477e+00 2.8398149879e+00 
58800 6.3882377020e+00 -7.0178143674e-05 1.6395701054e+00 -2.8398187251e+00 1.6395701054e+00 2.8398187251e+00 
58900 6.3882377006e+00 -7.1865323837e-05 1.6395701054e+00 -2.8398187251e+00 1.6395701054e+00 2.8398187251e+00 
59000 6.3882376991e+00 -7.1215883117e-05 1.6395722970e+00 -2.8398225211e+00 1.6395722970e+00 2.8398225211e+00 
59100 6.3882376976e+00 -7.0565464925e-05 1.6395744688e+00 -2.8398262827e+00 1.6395744688e+00 2.8398262827e+00 
59200 6.3882376964e+00 -7.2193490392e-05 1.6395744688e+00 -2.8398262827e+00 1.6395744688e+00 2.8398262827e+00 
59300 6.3882376949e+00 -7.1474815934e-05 1.6395766704e+00 -2.8398300960e+00 1.6395766704e+00 2.8398300960e+00 
59400 6.3882376935e+00 -7.0757888244e-05 1.6395788500e+00 -2.8398338713e+00 1.6395788500e+00 2.8398338713e+00 
59500 6.3882376922e+00 -7.0042686229e-05 1.6395810078e+00 -2.8398376087e+00 1.6395810078e+00 2.8398376087e+00 
59600 6.3882376910e+00 -7.1591674251e-05 1.6395810078e+00 -2.8398376087e+00 1.6395810078e+00 2.8398376087e+00 
59700 6.3882376897e+00 -7.0813954012e-05 1.6395831911e+00 -2.8398413902e+00 1.6395831911e+00 2.8398413902e+00 
59800 6.3882376884e+00 -7.0040504947e-05 1.6395853506e+00 -2.8398451306e+00 1.6395853506e+00 2.8398451306e+00 
59900 6.3882376873e+00 -7.1533639514e-05 1.6395853506e+00 -2.8398451306e+00 1.6395853506e+00 2.8398451306e+00 
60000 6.3882376860e+00 -7.0702553740e-05 1.6395875320e+00 -2.8398489090e+00 1.6395875320e+00 2.8398489090e+00 
60100 6.3882376850e+00 -7.2161841231e-05 1.6395875320e+00 -2.8398489090e+00 1.6395875320e+00 2.8398489090e+00 
60200 6.3882376838e+00 -7.1277226066e-05 1.6395897327e+00 -2.8398527205e+00 1.6395897327e+00 2.8398527205e+00 
60300 6.3882376826e+00 -7.0401480535e-05 1.6395919063e+00 -2.8398564854e+00 1.6395919063e+00 2.8398564854e+00 
60400 6.3882376816e+00 -7.1808413840e-05 1.6395919063e+00 -2.8398564854e+00 1.6395919063e+00 2.8398564854e+00 
60500 6.3882376804e+00 -7.0883448742e-05 1.6395940961e+00 -2.8398602782e+00 1.6395940961e+00 2.8398602782e+00 
60600 6.3882376793e+00 -6.9969271312e-05 1.6395962577e+00 -2.8398640223e+00 1.6395962577e+00 2.8398640223e+00 
60700 6.3882376784e+00 -7.1325665565e-05 1.6395962577e+00 -2.8398640223e+00 1.6395962577e+00 2.8398640223e+00 
60800 6.3882376773e+00 -7.0366352327e-05 1.6395984328e+00 -2.8398677897e+00 1.6395984328e+00 2.8398677897e+00 
60900 6.3882376764e+00 -7.1692451085e-05 1.6395984328e+00 -2.8398677897e+00 1.6395984328e+00 2.8398677897e+00 
61000 6.3882376754e+00 -7.0691589485e-05 1.6396006191e+00 -2.8398715764e+00 1.6396006191e+00 2.8398715764e+00 
61100 6.3882376745e+00 -7.1988523485e-05 1.6396006191e+00 -2.8398715764e+00 1.6396006191e+00 2.8398715764e+00 
61200 6.3882376735e+00 -7.0949501150e-05 1.6396028144e+00 -2.8398753788e+00 1.6396028144e+00 2.8398753788e+00 
61300 6.3882376725e+00 -6.9926647080e-05 1.6396049780e+00 -2.8398791263e+00 1.6396049780e+00 2.8398791263e+00 
61400 6.3882376717e+00 -7.1178158782e-05 1.6396049780e+00 -2.8398791263e+00 1.6396049780e+00 2.8398791263e+00 
61500 6.3882376707e+00 -7.0120408756e-05 1.6396071486e+00 -2.8398828859e+00 1.6396071486e+00 2.8398828859e+00 
61600 6.3882376700e+00 -7.1344933631e-05 1.6396071486e+00 -2.8398828859e+00 1.6396071486e+00 2.8398828859e+00 
61700 6.3882376690e+00 -7.0255350609e-05 1.6396093243e+00 -2.8398866542e+00 1.6396093243e+00 2.8398866542e+00 
61800 6.3882376683e+00 -7.1453929929e-05 1.6396093243e+00 -2.8398866542e+00 1.6396093243e+00 2.8398866542e+00 
61900 6.3882376674e+00 -7.0335392967e-05 1.6396115033e+00 -2.8398904284e+00 1.6396115033e+00 2.8398904284e+00 
62000 6.3882376667e+00 -7.1509016476e-05 1.6396115033e+00 -2.8398904284e+00 1.6396115033e+00 2.8398904284e+00 
62100 6.3882376659e+00 -7.0364228366e-05 1.6396136840e+00 -2.8398942054e+00 1.6396136840e+00 2.8398942054e+00 
62200 6.3882376652e+00 -7.1513834458e-05 1.6396136840e+00 -2.8398942054e+00 1.6396136840e+00 2.8398942054e+00 
62300 6.3882376644e+00 -7.0345329372e-05 1.6396158648e+00 -2.8398979827e+00 1.6396158648e+00 2.8398979827e+00 
62400 6.3882376637e+00 -7.1471805518e-05 1.6396158648e+00 -2.8398979827e+00 1.6396158648e+00 2.8398979827e+00 
62500 6.3882376629e+00 -7.0281956640e-05 1.6396180443e+00 -2.8399017577e+00 1.6396180443e+00 2.8399017577e+00 
62600 6.3882376623e+00 -7.1386140048e-05 1.6396180443e+00 -2.8399017577e+00 1.6396180443e+00 2.8399017577e+00 
62700 6.3882376615e+00 -7.0177167150e-05 1.6396202212e+00 -2.8399055283e+00 1.6396202212e+00 2.8399055283e+00 
62800 6.3882376609e+00 -7.1259845646e-05 1.6396202212e+00 -2.8399055283e+00 1.6396202212e+00 2.8399055283e+00 
62900 6.3882376602e+00 -7.0033822620e-05 1.6396223943e+00 -2.8399092921e+00 1.6396223943e+00 2.8399092921e+00 
63000 6.3882376596e+00 -7.1095735720e-05 1.6396223943e+00 -2.8399092921e+00 1.6396223943e+00 2.8399092921e+00 
63100 6.3882376589e+00 -6.9854598012e-05 1.6396245623e+00 -2.8399130473e+00 1.6396245623e+00 2.8399130473e+00 
63200 6.3882376584e+00 -7.0896438180e-05 1.6396245623e+00 -2.8399130473e+00 1.6396245623e+00 2.8399130473e+00 
63300 6.3882376577e+00 -6.9641990094e-05 1.6396267243e+00 -2.8399167919e+00 1.6396267243e+00 2.8399167919e+00 
63400 6.3882376571e+00 -7.0664404160e-05 1.6396267243e+00 -2.8399167919e+00 1.6396267243e+00 2.8399167919e+00 
63500 6.3882376567e+00 -7.1680766007e-05 1.6396267243e+00 -2.8399167919e+00 1.6396267243e+00 2.8399167919e+00 
63600 6.3882376560e+00 -7.0376250747e-05 1.6396289102e+00 -2.8399205780e+00 1.6396289102e+00 2.8399205780e+00 
63700 6.3882376555e+00 -7.1374552880e-05 1.6396289102e+00 -2.8399205780e+00 1.6396289102e+00 2.8399205780e+00 
63800 6.3882376549e+00 -7.0062094039e-05 1.6396310867e+00 -2.8399243479e+00 1.6396310867e+00 2.8399243479e+00 
63900 6.3882376544e+00 -7.1042795492e-05 1.6396310867e+00 -2.8399243479e+00 1.6396310867e+00 2.8399243479e+00 
64000 6.3882376538e+00 -6.9723657365e-05 1.6396332532e+00 -2.8399281002e+00 1.6396332532e+00 2.8399281002e+00 
64100 6.3882376533e+00 -7.0687180668e-05 1.6396332532e+00 -2.8399281002e+00 1.6396332532e+00 2.8399281002e+00 
64200 6.3882376529e+00 -7.1645697051e-05 1.6396332532e+00 -2.8399281002e+00 1.6396332532e+00 2.8399281002e+00 
64300 6.3882376523e+00 -7.0285476003e-05 1.6396354380e+00 -2.8399318844e+00 1.6396354380e+00 2.8399318844e+00 
64400 6.3882376519e+00 -7.1227863085e-05 1.6396354380e+00 -2.8399318844e+00 1.6396354380e+00 2.8399318844e+00 
64500 6.3882376513e+00 -6.9865128083e-05 1.6396376100e+00 -2.8399356466e+00 1.6396376100e+00 2.8399356466e+00 
64600 6.3882376510e+00 -7.0791646050e-05 1.6396376100e+00 -2.8399356466e+00 1.6396376100e+00 2.8399356466e+00 
64700 6.3882376504e+00 -6.9427237003e-05 1.6396397688e+00 -2.8399393857e+00 1.6396397688e+00 2.8399393857e+00 
64800 6.3882376500e+00 -7.0338120554e-05 1.6396397688e+00 -2.8399393857e+00 1.6396397688e+00 2.8399393857e+00 
64900 6.3882376497e+00 -7.1244686236e-05 1.6396397688e+00 -2.8399393857e+00 1.6396397688e+00 2.8399393857e+00 
65000 6.3882376491e+00 -6.9846127049e-05 1.6396419414e+00 -2.8399431487e+00 1.6396419414e+00 2.8399431487e+00 
65100 6.3882376488e+00 -7.0737844541e-05 1.6396419414e+00 -2.8399431487e+00 1.6396419414e+00 2.8399431487e+00 
65200 6.3882376483e+00 -6.9340842244e-05 1.6396440985e+00 -2.8399468849e+00 1.6396440985e+00 2.8399468849e+00 
65300 6.3882376480e+00 -7.0217813012e-05 1.6396440985e+00 -2.8399468849e+00 1.6396440985e+00 2.8399468849e+00 
65400 6.3882376476e+00 -7.1090857522e-05 1.6396440985e+00 -2.8399468849e+00 1.6396440985e+00 2.8399468849e+00 
65500 6.3882376471e+00 -6.9664117187e-05 1.6396462663e+00 -2.8399506398e+00 1.6396462663e+00 2.8399506398e+00 
65600 6.3882376468e+00 -7.0523017912e-05 1.6396462663e+00 -2.8399506398e+00 1.6396462663e+00 2.8399506398e+00 
65700 6.3882376466e+00 -7.1378272652e-05 1.6396462663e+00 -2.8399506398e+00 1.6396462663e+00 2.8399506398e+00 
65800 6.3882376461e+00 -6.9924722229e-05 1.6396484430e+00 -2.8399544098e+00 1.6396484430e+00 2.8399544098e+00 
65900 6.3882376458e+00 -7.0766296430e-05 1.6396484430e+00 -2.8399544098e+00 1.6396484430e+00 2.8399544098e+00 
66000 6.3882376453e+00 -6.9318761044e-05 1.6396506010e+00 -2.8399581475e+00 1.6396506010e+00 2.8399581475e+00 
66100 6.3882376451e+00 -7.0146559707e-05 1.6396506010e+00 -2.8399581475e+00 1.6396506010e+00 2.8399581475e+00 
66200 6.3882376448e+00 -7.0970846666e-05 1.6396506010e+00 -2.8399581475e+00 1.6396506010e+00 2.8399581475e+00 
66300 6.3882376444e+00 -6.9499611940e-05 1.6396527652e+00 -2.8399618960e+00 1.6396527652e+00 2.8399618960e+00 
66400 6.3882376441e+00 -7.0310461512e-05 1.6396527652e+00 -2.8399618960e+00 1.6396527652e+00 2.8399618960e+00 
66500 6.3882376439e+00 -7.1117949387e-05 1.6396527652e+00 -2.8399618960e+00 1.6396527652e+00 2.8399618960e+00 
66600 6.3882376435e+00 -6.9625302859e-05 1.6396549339e+00 -2.8399656523e+00 1.6396549339e+00 2.8399656523e+00 
66700 6.3882376433e+00 -7.0419586907e-05 1.6396549339e+00 -2.8399656523e+00 1.6396549339e+00 2.8399656523e+00 
66800 6.3882376430e+00 -7.1210607839e-05 1.6396549339e+00 -2.8399656523e+00 1.6396549339e+00 2.8399656523e+00 
66900 6.3882376426e+00 -6.9698591065e-05 1.6396571054e+00 -2.8399694135e+00 1.6396571054e+00 2.8399694135e+00 
67000 6.3882376424e+00 -7.0476550936e-05 1.6396571054e+00 -2.8399694135e+00 1.6396571054e+00 2.8399694135e+00 
67100 6.3882376422e+00 -7.1251301851e-05 1.6396571054e+00 -2.8399694135e+00 1.6396571054e+00 2.8399694135e+00 
67200 6.3882376418e+00 -6.9721748017e-05 1.6396592781e+00 -2.8399731768e+00 1.6396592781e+00 2.8399731768e+00 
67300 6.3882376417e+00 -7.0483503499e-05 1.6396592781e+00 -2.8399731768e+00 1.6396592781e+00 2.8399731768e+00 
67400 6.3882376415e+00 -7.1242066617e-05 1.6396592781e+00 -2.8399731768e+00 1.6396592781e+00 2.8399731768e+00 
67500 6.3882376411e+00 -6.9696635229e-05 1.6396614506e+00 -2.8399769396e+00 1.6396614506e+00 2.8399769396e+00 
67600 6.3882376409e+00 -7.0442204712e-05 1.6396614506e+00 -2.8399769396e+00 1.6396614506e+00 2.8399769396e+00 
67700 6.3882376408e+00 -7.1184567486e-05 1.6396614506e+00 -2.8399769396e+00 1.6396614506e+00 2.8399769396e+00 
67800 6.3882376404e+00 -6.9624776004e-05 1.6396636213e+00 -2.8399806994e+00 1.6396636213e+00 2.8399806994e+00 
67900 6.3882376402e+00 -7.0354095928e-05 1.6396636213e+00 -2.8399806994e+00 1.6396636213e+00 2.8399806994e+00 
68000 6.3882376401e+00 -7.1080170188e-05 1.6396636213e+00 -2.8399806994e+00 1.6396636213e+00 2.8399806994e+00 
68100 6.3882376397e+00 -6.9507422532e-05 1.6396657888e+00 -2.8399844537e+00 1.6396657888e+00 2.8399844537e+00 
68200 6.3882376396e+00 -7.0220365900e-05 1.6396657888e+00 -2.8399844537e+00 1.6396657888e+00 2.8399844537e+00 
68300 6.3882376394e+00 -7.0930006011e-05 1.6396657888e+00 -2.8399844537e+00 1.6396657888e+00 2.8399844537e+00 
68400 6.3882376391e+00 -6.9345617905e-05 1.6396679518e+00 -2.8399882000e+00 1.6396679518e+00 2.8399882000e+00 
68500 6.3882376390e+00 -7.0042011693e-05 1.6396679518e+00 -2.8399882000e+00 1.6396679518e+00 2.8399882000e+00 
68600 6.3882376389e+00 -7.0735031549e-05 1.6396679518e+00 -2.8399882000e+00 1.6396679518e+00 2.8399882000e+00 
68700 6.3882376385e+00 -6.9140252753e-05 1.6396701088e+00 -2.8399919360e+00 1.6396701088e+00 2.8399919360e+00 
68800 6.3882376384e+00 -6.9819894064e-05 1.6396701088e+00 -2.8399919360e+00 1.6396701088e+00 2.8399919360e+00 
68900 6.3882376383e+00 -7.0496082815e-05 1.6396701088e+00 -2.8399919360e+00 1.6396701088e+00 2.8399919360e+00 
69000 6.3882376382e+00 -7.1169000349e-05 1.6396701088e+00 -2.8399919360e+00 1.6396701088e+00 2.8399919360e+00 
69100 6.3882376379e+00 -6.9540198220e-05 1.6396722790e+00 -2.8399956949e+00 1.6396722790e+00 2.8399956949e+00 
69200 6.3882376378e+00 -7.0199858597e-05 1.6396722790e+00 -2.8399956949e+00 1.6396722790e+00 2.8399956949e+00 
69300 6.3882376377e+00 -7.0856126705e-05 1.6396722790e+00 -2.8399956949e+00 1.6396722790e+00 2.8399956949e+00 
69400 6.3882376374e+00 -6.9220666098e-05 1.6396744397e+00 -2.8399994374e+00 1.6396744397e+00 2.8399994374e+00 
69500 6.3882376373e+00 -6.9863466964e-05 1.6396744397e+00 -2.8399994374e+00 1.6396744397e+00 2.8399994374e+00 
69600 6.3882376372e+00 -7.0502758369e-05 1.6396744397e+00 -2.8399994374e+00 1.6396744397e+00 2.8399994374e+00 
69700 6.3882376371e+00 -7.1138711432e-05 1.6396744397e+00 -2.8399994374e+00 1.6396744397e+00 2.8399994374e+00 
69800 6.3882376368e+00 -6.9473860181e-05 1.6396766090e+00 -2.8400031947e+00 1.6396766090e+00 2.8400031947e+00 
69900 6.3882376367e+00 -7.0096398555e-05 1.6396766090e+00 -2.8400031947e+00 1.6396766090e+00 2.8400031947e+00 
70000 6.3882376366e+00 -7.0715453457e-05 1.6396766090e+00 -2.8400031947e+00 1.6396766090e+00 2.8400031947e+00 
70100 6.3882376364e+00 -6.9047239208e-05 1.6396787653e+00 -2.8400069297e+00 1.6396787653e+00 2.8400069297e+00 
70200 6.3882376363e+00 -6.9652641446e-05 1.6396787653e+00 -2.8400069297e+00 1.6396787653e+00 2.8400069297e+00 
70300 6.3882376362e+00 -7.0254428789e-05 1.6396787653e+00 -2.8400069297e+00 1.6396787653e+00 2.8400069297e+00 
70400 6.3882376362e+00 -7.0852769006e-05 1.6396787653e+00 -2.8400069297e+00 1.6396787653e+00 2.8400069297e+00 
70500 6.3882376359e+00 -6.9159442547e-05 1.6396809259e+00 -2.8400106719e+00 1.6396809259e+00 2.8400106719e+00 
70600 6.3882376358e+00 -6.9744172983e-05 1.6396809259e+00 -2.8400106719e+00 1.6396809259e+00 2.8400106719e+00 
70700 6.3882376358e+00 -7.0325308692e-05 1.6396809259e+00 -2.8400106719e+00 1.6396809259e+00 2.8400106719e+00 
70800 6.3882376357e+00 -7.0903013389e-05 1.6396809259e+00 -2.8400106719e+00 1.6396809259e+00 2.8400106719e+00 
70900 6.3882376355e+00 -6.9187447795e-05 1.6396830880e+00 -2.8400144167e+00 1.6396830880e+00 2.8400144167e+00 
71000 6.3882376354e+00 -6.9751559393e-05 1.6396830880e+00 -2.8400144167e+00 1.6396830880e+00 2.8400144167e+00 
71100 6.3882376353e+00 -7.0312082304e-05 1.6396830880e+00 -2.8400144167e+00 1.6396830880e+00 2.8400144167e+00 
71200 6.3882376353e+00 -7.0869177847e-05 1.6396830880e+00 -2.8400144167e+00 1.6396830880e+00 2.8400144167e+00 
71300 6.3882376351e+00 -6.9134104304e-05 1.6396852491e+00 -2.8400181598e+00 1.6396852491e+00 2.8400181598e+00 
71400 6.3882376350e+00 -6.9677611847e-05 1.6396852491e+00 -2.8400181598e+00 1.6396852491e+00 2.8400181598e+00 
71500 6.3882376350e+00 -7.0217529717e-05 1.6396852491e+00 -2.8400181598e+00 1.6396852491e+00 2.8400181598e+00 
71600 6.3882376349e+00 -7.0754018289e-05 1.6396852491e+00 -2.8400181598e+00 1.6396852491e+00 2.8400181598e+00 
71700 6.3882376347e+00 -6.9002061394e-05 1.6396874066e+00 -2.8400218968e+00 1.6396874066e+00 2.8400218968e+00 
71800 6.3882376346e+00 -6.9524968284e-05 1.6396874066e+00 -2.8400218968e+00 1.6396874066e+00 2.8400218968e+00 
71900 6.3882376346e+00 -7.0044283660e-05 1.6396874066e+00 -2.8400218968e+00 1.6396874066e+00 2.8400218968e+00 
72000 6.3882376346e+00 -7.0560168167e-05 1.6396874066e+00 -2.8400218968e+00 1.6396874066e+00 2.8400218968e+00 
72100 6.3882376345e+00 -7.1072774493e-05 1.6396874066e+00 -2.8400218968e+00 1.6396874066e+00 2.8400218968e+00 
72200 6.3882376343e+00 -6.9286790717e-05 1.6396895739e+00 -2.8400256506e+00 1.6396895739e+00 2.8400256506e+00 
72300 6.3882376343e+00 -6.9786063738e-05 1.6396895739e+00 -2.8400256506e+00 1.6396895739e+00 2.8400256506e+00 
72400 6.3882376342e+00 -7.0281872804e-05 1.6396895739e+00 -2.8400256506e+00 1.6396895739e+00 2.8400256506e+00 
72500 6.3882376342e+00 -7.0774372457e-05 1.6396895739e+00 -2.8400256506e+00 1.6396895739e+00 2.8400256506e+00 
72600 6.3882376340e+00 -6.8977897425e-05 1.6396917320e+00 -2.8400293887e+00 1.6396917320e+00 2.8400293887e+00 
72700 6.3882376340e+00 -6.9457038180e-05 1.6396917320e+00 -2.8400293887e+00 1.6396917320e+00 2.8400293887e+00 
72800 6.3882376340e+00 -6.9932693381e-05 1.6396917320e+00 -2.8400293887e+00 1.6396917320e+00 2.8400293887e+00 
72900 6.3882376339e+00 -7.0405020282e-05 1.6396917320e+00 -2.8400293887e+00 1.6396917320e+00 2.8400293887e+00 
73000 6.3882376339e+00 -7.0874168753e-05 1.6396917320e+00 -2.8400293887e+00 1.6396917320e+00 2.8400293887e+00 
73100 6.3882376337e+00 -6.9051252639e-05 1.6396938933e+00 -2.8400331320e+00 1.6396938933e+00 2.8400331320e+00 
73200 6.3882376337e+00 -6.9507281168e-05 1.6396938933e+00 -2.8400331320e+00 1.6396938933e+00 2.8400331320e+00 
73300 6.3882376337e+00 -6.9959941897e-05 1.6396938933e+00 -2.8400331320e+00 1.6396938933e+00 2.8400331320e+00 
73400 6.3882376337e+00 -7.0409388522e-05 1.6396938933e+00 -2.8400331320e+00 1.6396938933e+00 2.8400331320e+00 
73500 6.3882376336e+00 -7.0855767609e-05 1.6396938933e+00 -2.8400331320e+00 1.6396938933e+00 2.8400331320e+00 
73600 6.3882376334e+00 -6.9010791002e-05 1.6396960539e+00 -2.8400368743e+00 1.6396960539e+00 2.8400368743e+00 
73700 6.3882376334e+00 -6.9444264921e-05 1.6396960539e+00 -2.8400368743e+00 1.6396960539e+00 2.8400368743e+00 
73800 6.3882376334e+00 -6.9874473666e-05 1.6396960539e+00 -2.8400368743e+00 1.6396960539e+00 2.8400368743e+00 
73900 6.3882376334e+00 -7.0301568589e-05 1.6396960539e+00 -2.8400368743e+00 1.6396960539e+00 2.8400368743e+00 
74000 6.3882376334e+00 -7.0725694144e-05 1.6396960539e+00 -2.8400368743e+00 1.6396960539e+00 2.8400368743e+00 
74100 6.3882376332e+00 -6.8862768040e-05 1.6396982106e+00 -2.8400406098e+00 1.6396982106e+00 2.8400406098e+00 
74200 6.3882376332e+00 -6.9274192501e-05 1.6396982106e+00 -2.8400406098e+00 1.6396982106e+00 2.8400406098e+00 
74300 6.3882376332e+00 -6.9682446006e-05 1.6396982106e+00 -2.8400406098e+00 1.6396982106e+00 2.8400406098e+00 
74400 6.3882376332e+00 -7.0087678578e-05 1.6396982106e+00 -2.8400406098e+00 1.6396982106e+00 2.8400406098e+00 
74500 6.3882376332e+00 -7.0490033533e-05 1.6396982106e+00 -2.8400406098e+00 1.6396982106e+00 2.8400406098e+00 
74600 6.3882376332e+00 -7.0889647521e-05 1.6396982106e+00 -2.8400406098e+00 1.6396982106e+00 2.8400406098e+00 
74700 6.3882376330e+00 -6.8997142066e-05 1.6397003722e+00 -2.8400443539e+00 1.6397003722e+00 2.8400443539e+00 
74800 6.3882376330e+00 -6.9384472737e-05 1.6397003722e+00 -2.8400443539e+00 1.6397003722e+00 2.8400443539e+00 
74900 6.3882376330e+00 -6.9768837513e-05 1.6397003722e+00 -2.8400443539e+00 1.6397003722e+00 2.8400443539e+00 
75000 6.3882376330e+00 -7.0150379656e-05 1.6397003722e+00 -2.8400443539e+00 1.6397003722e+00 2.8400443539e+00 
75100 6.3882376330e+00 -7.0529235971e-05 1.6397003722e+00 -2.8400443539e+00 1.6397003722e+00 2.8400443539e+00 
75200 6.3882376330e+00 -7.0905536835e-05 1.6397003722e+00 -2.8400443539e+00 1.6397003722e+00 2.8400443539e+00 
75300 6.3882376328e+00 -6.8989391261e-05 1.6397025344e+00 -2.8400480988e+00 1.6397025344e+00 2.8400480988e+00 
75400 6.3882376328e+00 -6.9353760447e-05 1.6397025344e+00 -2.8400480988e+00 1.6397025344e+00 2.8400480988e+00 
75500 6.3882376328e+00 -6.9715331793e-05 1.6397025344e+00 -2.8400480988e+00 1.6397025344e+00 2.8400480988e+00 
75600 6.3882376328e+00 -7.0074243277e-05 1.6397025344e+00 -2.8400480988e+00 1.6397025344e+00 2.8400480988e+00 
75700 6.3882376328e+00 -7.0430626660e-05 1.6397025344e+00 -2.8400480988e+00 1.6397025344e+00 2.8400480988e+00 
75800 6.3882376328e+00 -7.0784607518e-05 1.6397025344e+00 -2.8400480988e+00 1.6397025344e+00 2.8400480988e+00 
75900 6.3882376327e+00 -6.8850202652e-05 1.6397046928e+00 -2.8400518374e+00 1.6397046928e+00 2.8400518374e+00 
76000 6.3882376327e+00 -6.9192556497e-05 1.6397046928e+00 -2.8400518374e+00 1.6397046928e+00 2.8400518374e+00 
76100 6.3882376327e+00 -6.9532253445e-05 1.6397046928e+00 -2.8400518374e+00 1.6397046928e+00 2.8400518374e+00 
76200 6.3882376327e+00 -6.9869427546e-05 1.6397046928e+00 -2.8400518374e+00 1.6397046928e+00 2.8400518374e+00 
76300 6.3882376327e+00 -7.0204206852e-05 1.6397046928e+00 -2.8400518374e+00 1.6397046928e+00 2.8400518374e+00 
76400 6.3882376327e+00 -7.0536713456e-05 1.6397046928e+00 -2.8400518374e+00 1.6397046928e+00 2.8400518374e+00 
76500 6.3882376327e+00 -7.0867063530e-05 1.6397046928e+00 -2.8400518374e+00 1.6397046928e+00 2.8400518374e+00 
76600 6.3882376325e+00 -6.8906608271e-05 1.6397068538e+00 -2.8400555803e+00 1.6397068538e+00 2.8400555803e+00 
76700 6.3882376325e+00 -6.9225787884e-05 1.6397068538e+00 -2.8400555803e+00 1.6397068538e+00 2.8400555803e+00 
76800 6.3882376326e+00 -6.9542529330e-05 1.6397068538e+00 -2.8400555803e+00 1.6397068538e+00 2.8400555803e+00 
76900 6.3882376326e+00 -6.9856958391e-05 1.6397068538e+00 -2.8400555803e+00 1.6397068538e+00 2.8400555803e+00 
77000 6.3882376326e+00 -7.0169195136e-05 1.6397068538e+00 -2.8400555803e+00 1.6397068538e+00 2.8400555803e+00 
77100 6.3882376326e+00 -7.0479353948e-05 1.6397068538e+00 -2.8400555803e+00 1.6397068538e+00 2.8400555803e+00 
77200 6.3882376326e+00 -7.0787543582e-05 1.6397068538e+00 -2.8400555803e+00 1.6397068538e+00 2.8400555803e+00 
77300 6.3882376324e+00 -6.8807682987e-05 1.6397090124e+00 -2.8400593190e+00 1.6397090124e+00 2.8400593190e+00 
77400 6.3882376324e+00 -6.9105063813e-05 1.6397090124e+00 -2.8400593190e+00 1.6397090124e+00 2.8400593190e+00 
77500 6.3882376325e+00 -6.9400173925e-05 1.6397090124e+00 -2.8400593190e+00 1.6397090124e+00 2.8400593190e+00 
77600 6.3882376325e+00 -6.9693132772e-05 1.6397090124e+00 -2.8400593190e+00 1.6397090124e+00 2.8400593190e+00 
77700 6.3882376325e+00 -6.9984054375e-05 1.6397090124e+00 -2.8400593190e+00 1.6397090124e+00 2.8400593190e+00 
77800 6.3882376325e+00 -7.0273047345e-05 1.6397090124e+00 -2.8400593190e+00 1.6397090124e+00 2.8400593190e+00 
77900 6.3882376325e+00 -7.0560214940e-05 1.6397090124e+00 -2.8400593190e+00 1.6397090124e+00 2.8400593190e+00 
78000 6.3882376325e+00 -7.0845655101e-05 1.6397090124e+00 -2.8400593190e+00 1.6397090124e+00 2.8400593190e+00 
78100 6.3882376324e+00 -6.8841406088e-05 1.6397111727e+00 -2.8400630608e+00 1.6397111727e+00 2.8400630608e+00 
78200 6.3882376324e+00 -6.9116483995e-05 1.6397111727e+00 -2.8400630608e+00 1.6397111727e+00 2.8400630608e+00 
78300 6.3882376324e+00 -6.9389502024e-05 1.6397111727e+00 -2.8400630608e+00 1.6397111727e+00 2.8400630608e+00 
78400 6.3882376324e+00 -6.9660570187e-05 1.6397111727e+00 -2.8400630608e+00 1.6397111727e+00 2.8400630608e+00 
78500 6.3882376324e+00 -6.9929793403e-05 1.6397111727e+00 -2.8400630608e+00 1.6397111727e+00 2.8400630608e+00 
78600 6.3882376324e+00 -7.0197271525e-05 1.6397111727e+00 -2.8400630608e+00 1.6397111727e+00 2.8400630608e+00 
78700 6.3882376325e+00 -7.0463099395e-05 1.6397111727e+00 -2.8400630608e+00 1.6397111727e+00 2.8400630608e+00 
78800 6.3882376325e+00 -7.0727366880e-05 1.6397111727e+00 -2.8400630608e+00 1.6397111727e+00 2.8400630608e+00 
78900 6.3882376323e+00 -6.8705931475e-05 1.6397133294e+00 -2.8400667963e+00 1.6397133294e+00 2.8400667963e+00 
79000 6.3882376323e+00 -6.8960159949e-05 1.6397133294e+00 -2.8400667963e+00 1.6397133294e+00 2.8400667963e+00 
79100 6.3882376323e+00 -6.9212474400e-05 1.6397133294e+00 -2.8400667963e+00 1.6397133294e+00 2.8400667963e+00 
79200 6.3882376324e+00 -6.9462978062e-05 1.6397133294e+00 -2.8400667963e+00 1.6397133294e+00 2.8400667963e+00 
79300 6.3882376324e+00 -6.9711769406e-05 1.6397133294e+00 -2.8400667963e+00 1.6397133294e+00 2.8400667963e+00 
79400 6.3882376324e+00 -6.9958942169e-05 1.6397133294e+00 -2.8400667963e+00 1.6397133294e+00 2.8400667963e+00 
79500 6.3882376324e+00 -7.0204585399e-05 1.6397133294e+00 -2.8400667963e+00 1.6397133294e+00 2.8400667963e+00 
79600 6.3882376324e+00 -7.0448783490e-05 1.6397133294e+00 -2.8400667963e+00 1.6397133294e+00 2.8400667963e+00 
79700 6.3882376325e+00 -7.0691616249e-05 1.6397133294e+00 -2.8400667963e+00 1.6397133294e+00 2.8400667963e+00 
79800 6.3882376325e+00 -7.0933158943e-05 1.6397133294e+00 -2.8400667963e+00 1.6397133294e+00 2.8400667963e+00 
79900 6.3882376323e+00 -6.8882615101e-05 1.6397154923e+00 -2.8400705427e+00 1.6397154923e+00 2.8400705427e+00 
80000 6.3882376323e+00 -6.9114596569e-05 1.6397154923e+00 -2.8400705427e+00 1.6397154923e+00 2.8400705427e+00 
80100 6.3882376323e+00 -6.9344891450e-05 1.6397154923e+00 -2.8400705427e+00 1.6397154923e+00 2.8400705427e+00 
80200 6.3882376324e+00 -6.9573590251e-05 1.6397154923e+00 -2.8400705427e+00 1.6397154923e+00 2.8400705427e+00 
80300 6.3882376324e+00 -6.9800779176e-05 1.6397154923e+00 -2.8400705427e+00 1.6397154923e+00 2.8400705427e+00 
80400 6.3882376324e+00 -7.0026540146e-05 1.6397154923e+00 -2.8400705427e+00 1.6397154923e+00 2.8400705427e+00 
80500 6.3882376324e+00 -7.0250950853e-05 1.6397154923e+00 -2.8400705427e+00 1.6397154923e+00 2.8400705427e+00 
80600 6.3882376324e+00 -7.0474084798e-05 1.6397154923e+00 -2.8400705427e+00 1.6397154923e+00 2.8400705427e+00 
80700 6.3882376325e+00 -7.0696011349e-05 1.6397154923e+00 -2.8400705427e+00 1.6397154923e+00 2.8400705427e+00 
80800 6.3882376325e+00 -7.0916795789e-05 1.6397154923e+00 -2.8400705427e+00 1.6397154923e+00 2.8400705427e+00 
80900 6.3882376323e+00 -6.8846167336e-05 1.6397176548e+00 -2.8400742882e+00 1.6397176548e+00 2.8400742882e+00 
81000 6.3882376323e+00 -6.9057660024e-05 1.6397176548e+00 -2.8400742882e+00 1.6397176548e+00 2.8400742882e+00 
81100 6.3882376323e+00 -6.9267586992e-05 1.6397176548e+00 -2.8400742882e+00 1.6397176548e+00 2.8400742882e+00 
81200 6.3882376324e+00 -6.9476030560e-05 1.6397176548e+00 -2.8400742882e+00 1.6397176548e+00 2.8400742882e+00 
81300 6.3882376324e+00 -6.9683069181e-05 1.6397176548e+00 -2.8400742882e+00 1.6397176548e+00 2.8400742882e+00 
81400 6.3882376324e+00 -6.9888777464e-05 1.6397176548e+00 -2.8400742882e+00 1.6397176548e+00 2.8400742882e+00 
81500 6.3882376324e+00 -7.0093226218e-05 1.6397176548e+00 -2.8400742882e+00 1.6397176548e+00 2.8400742882e+00 
81600 6.3882376324e+00 -7.0296482484e-05 1.6397176548e+00 -2.8400742882e+00 1.6397176548e+00 2.8400742882e+00 
81700 6.3882376325e+00 -7.0498609584e-05 1.6397176548e+00 -2.8400742882e+00 1.6397176548e+00 2.8400742882e+00 
81800 6.3882376325e+00 -7.0699667172e-05 1.6397176548e+00 -2.8400742882e+00 1.6397176548e+00 2.8400742882e+00 
81900 6.3882376325e+00 -7.0899711281e-05 1.6397176548e+00 -2.8400742882e+00 1.6397176548e+00 2.8400742882e+00 
82000 6.3882376323e+00 -6.8809020884e-05 1.6397198168e+00 -2.8400780328e+00 1.6397198168e+00 2.8400780328e+00 
82100 6.3882376324e+00 -6.9000006352e-05 1.6397198168e+00 -2.8400780328e+00 1.6397198168e+00 2.8400780328e+00 
82200 6.3882376324e+00 -6.9189529875e-05 1.6397198168e+00 -2.8400780328e+00 1.6397198168e+00 2.8400780328e+00 
82300 6.3882376324e+00 -6.9377666325e-05 1.6397198168e+00 -2.8400780328e+00 1.6397198168e+00 2.8400780328e+00 
82400 6.3882376324e+00 -6.9564487152e-05 1.6397198168e+00 -2.8400780328e+00 1.6397198168e+00 2.8400780328e+00 
82500 6.3882376324e+00 -6.9750060395e-05 1.6397198168e+00 -2.8400780328e+00 1.6397198168e+00 2.8400780328e+00 
82600 6.3882376325e+00 -6.9934450721e-05 1.6397198168e+00 -2.8400780328e+00 1.6397198168e+00 2.8400780328e+00 
82700 6.3882376325e+00 -7.0117719442e-05 1.6397198168e+00 -2.8400780328e+00 1.6397198168e+00 2.8400780328e+00 
82800 6.3882376325e+00 -7.0299924570e-05 1.6397198168e+00 -2.8400780328e+00 1.6397198168e+00 2.8400780328e+00 
82900 6.3882376325e+00 -7.0481120850e-05 1.6397198168e+00 -2.8400780328e+00 1.6397198168e+00 2.8400780328e+00 
83000 6.3882376325e+00 -7.0661359803e-05 1.6397198168e+00 -2.8400780328e+00 1.6397198168e+00 2.8400780328e+00 
83100 6.3882376325e+00 -7.0840689783e-05 1.6397198168e+00 -2.8400780328e+00 1.6397198168e+00 2.8400780328e+00 
83200 6.3882376324e+00 -6.8731295518e-05 1.6397219769e+00 -2.8400817743e+00 1.6397219769e+00 2.8400817743e+00 
83300 6.3882376324e+00 -6.8901760565e-05 1.6397219769e+00 -2.8400817743e+00 1.6397219769e+00 2.8400817743e+00 
83400 6.3882376324e+00 -6.9070848219e-05 1.6397219769e+00 -2.8400817743e+00 1.6397219769e+00 2.8400817743e+00 
83500 6.3882376324e+00 -6.9238627363e-05 1.6397219769e+00 -2.8400817743e+00 1.6397219769e+00 2.8400817743e+00 
83600 6.3882376325e+00 -6.9405163862e-05 1.6397219769e+00 -2.8400817743e+00 1.6397219769e+00 2.8400817743e+00 
83700 6.3882376325e+00 -6.9570520579e-05 1.6397219769e+00 -2.8400817743e+00 1.6397219769e+00 2.8400817743e+00 
83800 6.3882376325e+00 -6.9734757397e-05 1.6397219769e+00 -2.8400817743e+00 1.6397219769e+00 2.8400817743e+00 
83900 6.3882376325e+00 -6.9897931239e-05 1.6397219769e+00 -2.8400817743e+00 1.6397219769e+00 2.8400817743e+00 
84000 6.3882376325e+00 -7.0060096105e-05 1.6397219769e+00 -2.8400817743e+00 1.6397219769e+00 2.8400817743e+00 
84100 6.3882376325e+00 -7.0221303092e-05 1.6397219769e+00 -2.8400817743e+00 1.6397219769e+00 2.8400817743e+00 
84200 6.3882376326e+00 -7.0381600442e-05 1.6397219769e+00 -2.8400817743e+00 1.6397219769e+00 2.8400817743e+00 
84300 6.3882376326e+00 -7.0541033572e-05 1.6397219769e+00 -2.8400817743e+00 1.6397219769e+00 2.8400817743e+00 
84400 6.3882376326e+00 -7.0699645122e-05 1.6397219769e+00 -2.8400817743e+00 1.6397219769e+00 2.8400817743e+00 
84500 6.3882376326e+00 -7.0857475001e-05 1.6397219769e+00 -2.8400817743e+00 1.6397219769e+00 2.8400817743e+00 
84600 6.3882376324e+00 -6.8726164685e-05 1.6397241376e+00 -2.8400855167e+00 1.6397241376e+00 2.8400855167e+00 
84700 6.3882376325e+00 -6.8875358979e-05 1.6397241376e+00 -2.8400855167e+00 1.6397241376e+00 2.8400855167e+00 
84800 6.3882376325e+00 -6.9023280315e-05 1.6397241376e+00 -2.8400855167e+00 1.6397241376e+00 2.8400855167e+00 
84900 6.3882376325e+00 -6.9169990854e-05 1.6397241376e+00 -2.8400855167e+00 1.6397241376e+00 2.8400855167e+00 
85000 6.3882376325e+00 -6.9315550152e-05 1.6397241376e+00 -2.8400855167e+00 1.6397241376e+00 2.8400855167e+00 
85100 6.3882376325e+00 -6.9460015173e-05 1.6397241376e+00 -2.8400855167e+00 1.6397241376e+00 2.8400855167e+00 
85200 6.3882376325e+00 -6.9603440302e-05 1.6397241376e+00 -2.8400855167e+00 1.6397241376e+00 2.8400855167e+00 
85300 6.3882376326e+00 -6.9745877356e-05 1.6397241376e+00 -2.8400855167e+00 1.6397241376e+00 2.8400855167e+00 
85400 6.3882376326e+00 -6.9887375613e-05 1.6397241376e+00 -2.8400855167e+00 1.6397241376e+00 2.8400855167e+00 
85500 6.3882376326e+00 -7.0027981830e-05 1.6397241376e+00 -2.8400855167e+00 1.6397241376e+00 2.8400855167e+00 
85600 6.3882376326e+00 -7.0167740269e-05 1.6397241376e+00 -2.8400855167e+00 1.6397241376e+00 2.8400855167e+00 
85700 6.3882376326e+00 -7.0306692739e-05 1.6397241376e+00 -2.8400855167e+00 1.6397241376e+00 2.8400855167e+00 
85800 6.3882376326e+00 -7.0444878615e-05 1.6397241376e+00 -2.8400855167e+00 1.6397241376e+00 2.8400855167e+00 
85900 6.3882376327e+00 -7.0582334881e-05 1.6397241376e+00 -2.8400855167e+00 1.6397241376e+00 2.8400855167e+00 
86000 6.3882376327e+00 -7.0719096172e-05 1.6397241376e+00 -2.8400855167e+00 1.6397241376e+00 2.8400855167e+00 
86100 6.3882376325e+00 -6.8571275066e-05 1.6397262940e+00 -2.8400892517e+00 1.6397262940e+00 2.8400892517e+00 
86200 6.3882376325e+00 -6.8699573875e-05 1.6397262940e+00 -2.8400892517e+00 1.6397262940e+00 2.8400892517e+00 
86300 6.3882376325e+00 -6.8826673980e-05 1.6397262940e+00 -2.8400892517e+00 1.6397262940e+00 2.8400892517e+00 
86400 6.3882376326e+00 -6.8952633651e-05 1.6397262940e+00 -2.8400892517e+00 1.6397262940e+00 2.8400892517e+00 
86500 6.3882376326e+00 -6.9077508899e-05 1.6397262940e+00 -2.8400892517e+00 1.6397262940e+00 2.8400892517e+00 
86600 6.3882376326e+00 -6.9201353473e-05 1.6397262940e+00 -2.8400892517e+00 1.6397262940e+00 2.8400892517e+00 
86700 6.3882376326e+00 -6.9324218867e-05 1.6397262940e+00 -2.8400892517e+00 1.6397262940e+00 2.8400892517e+00 
86800 6.3882376326e+00 -6.9446154327e-05 1.6397262940e+00 -2.8400892517e+00 1.6397262940e+00 2.8400892517e+00 
86900 6.3882376326e+00 -6.9567206864e-05 1.6397262940e+00 -2.8400892517e+00 1.6397262940e+00 2.8400892517e+00 
87000 6.3882376327e+00 -6.9687421264e-05 1.6397262940e+00 -2.8400892517e+00 1.6397262940e+00 2.8400892517e+00 
87100 6.3882376327e+00 -6.9806840112e-05 1.6397262940e+00 -2.8400892517e+00 1.6397262940e+00 2.8400892517e+00 
87200 6.3882376327e+00 -6.9925503808e-05 1.6397262940e+00 -2.8400892517e+00 1.6397262940e+00 2.8400892517e+00 
87300 6.3882376327e+00 -7.0043450592e-05 1.6397262940e+00 -2.8400892517e+00 1.6397262940e+00 2.8400892517e+00 
87400 6.3882376327e+00 -7.0160716574e-05 1.6397262940e+00 -2.8400892517e+00 1.6397262940e+00 2.8400892517e+00 
87500 6.3882376327e+00 -7.0277335756e-05 1.6397262940e+00 -2.8400892517e+00 1.6397262940e+00 2.8400892517e+00 
87600 6.3882376327e+00 -7.0393340075e-05 1.6397262940e+00 -2.8400892517e+00 1.6397262940e+00 2.8400892517e+00 
87700 6.3882376328e+00 -7.0508759427e-05 1.6397262940e+00 -2.8400892517e+00 1.6397262940e+00 2.8400892517e+00 
87800 6.3882376328e+00 -7.0623621703e-05 1.6397262940e+00 -2.8400892517e+00 1.6397262940e+00 2.8400892517e+00 
87900 6.3882376328e+00 -7.0737952838e-05 1.6397262940e+00 -2.8400892517e+00 1.6397262940e+00 2.8400892517e+00 
88000 6.3882376326e+00 -6.8567254970e-05 1.6397284510e+00 -2.8400929878e+00 1.6397284510e+00 2.8400929878e+00 
88100 6.3882376326e+00 -6.8673424837e-05 1.6397284510e+00 -2.8400929878e+00 1.6397284510e+00 2.8400929878e+00 
88200 6.3882376326e+00 -6.8778535881e-05 1.6397284510e+00 -2.8400929878e+00 1.6397284510e+00 2.8400929878e+00 
88300 6.3882376326e+00 -6.8809870414e-05 1.6397284510e+00 -2.8400929878e+00 1.6397284510e+00 2.8400929878e+00 
88300 6.3882376326e+00 -6.8809870414e-05 1.6397284510e+00 -2.8400929878e+00 1.6397284510e+00 2.8400929878e+00 
