# step Hamiltonian StressXX CellTensor1 CellTensor2 CellTensor3 CellTensor4 
0 6.2659199891e+00 6.9482065109e-02 2.0436807272e+00 -3.5397588540e+00 2.0436807272e+00 3.5397588540e+00 
100 6.2740939043e+00 7.3760007676e-02 2.0436807272e+00 -3.5397588540e+00 2.0436807272e+00 3.5397588540e+00 
200 6.2803186552e+00 7.6887016235e-02 2.0418764057e+00 -3.5366336774e+00 2.0418764057e+00 3.5366336774e+00 
300 6.2849550731e+00 7.9268740144e-02 2.0399939414e+00 -3.5333731536e+00 2.0399939414e+00 3.5333731536e+00 
400 6.2882434212e+00 8.1018948646e-02 2.0380513830e+00 -3.5300085438e+00 2.0380513830e+00 3.5300085438e+00 
500 6.2904116561e+00 8.2252508031e-02 2.0360640492e+00 -3.5265663807e+00 2.0360640492e+00 3.5265663807e+00 
600 6.2916690743e+00 8.3079501369e-02 2.0340444935e+00 -3.5230684077e+00 2.0340444935e+00 3.5230684077e+00 
700 6.2922018828e+00 8.3600369984e-02 2.0320026113e+00 -3.5195317640e+00 2.0320026113e+00 3.5195317640e+00 
800 6.2921709169e+00 8.3902607152e-02 2.0299458657e+00 -3.5159693760e+00 2.0299458657e+00 3.5159693760e+00 
900 6.2917113403e+00 8.4059129477e-02 2.0278795949e+00 -3.5123904901e+00 2.0278795949e+00 3.5123904901e+00 
1000 6.2909339198e+00 8.4128136802e-02 2.0258073615e+00 -3.5088012765e+00 2.0258073615e+00 3.5088012765e+00 
1100 6.2899273634e+00 8.4154092441e-02 2.0237313065e+00 -3.5052054438e+00 2.0237313065e+00 3.5052054438e+00 
1200 6.2887612297e+00 8.4169405207e-02 2.0216524815e+00 -3.5016048131e+00 2.0216524815e+00 3.5016048131e+00 
1300 6.2874890051e+00 8.4196435957e-02 2.0195711409e+00 -3.4979998256e+00 2.0195711409e+00 3.4979998256e+00 
1400 6.2861510631e+00 8.4249539726e-02 2.0174869871e+00 -3.4943899653e+00 2.0174869871e+00 3.4943899653e+00 
1500 6.2847773298e+00 8.4336953606e-02 2.0153993654e+00 -3.4907740985e+00 2.0153993654e+00 3.4907740985e+00 
1600 6.2833895759e+00 8.4462427903e-02 2.0133074141e+00 -3.4871507325e+00 2.0133074141e+00 3.4871507325e+00 
1700 6.2820033149e+00 8.4626563839e-02 2.0112101749e+00 -3.4835182076e+00 2.0112101749e+00 3.4835182076e+00 
1800 6.2806293319e+00 8.4827864327e-02 2.0091066704e+00 -3.4798748309e+00 2.0091066704e+00 3.4798748309e+00 
1900 6.2792748873e+00 8.5063528602e-02 2.0069959563e+00 -3.4762189670e+00 2.0069959563e+00 3.4762189670e+00 
2000 6.2779446461e+00 8.5330031982e-02 2.0048771543e+00 -3.4725490941e+00 2.0048771543e+00 3.4725490941e+00 
2100 6.2766413857e+00 8.5623533608e-02 2.0027494698e+00 -3.4688638365e+00 2.0027494698e+00 3.4688638365e+00 
2200 6.2753665270e+00 8.5940151575e-02 2.0006122008e+00 -3.4651619781e+00 2.0006122008e+00 3.4651619781e+00 
2300 6.2741205302e+00 8.6276139133e-02 1.9984647392e+00 -3.4614424655e+00 1.9984647392e+00 3.4614424655e+00 
2400 6.2729031857e+00 8.6627989266e-02 1.9963065678e+00 -3.4577044029e+00 1.9963065678e+00 3.4577044029e+00 
2500 6.2717138270e+00 8.6992488992e-02 1.9941372547e+00 -3.4539470423e+00 1.9941372547e+00 3.4539470423e+00 
2600 6.2705514858e+00 8.7366739511e-02 1.9919564466e+00 -3.4501697720e+00 1.9919564466e+00 3.4501697720e+00 
2700 6.2694150027e+00 8.7748154092e-02 1.9897638612e+00 -3.4463721027e+00 1.9897638612e+00 3.4463721027e+00 
2800 6.2683031077e+00 8.8134442216e-02 1.9875592798e+00 -3.4425536556e+00 1.9875592798e+00 3.4425536556e+00 
2900 6.2672144763e+00 8.8523585958e-02 1.9853425399e+00 -3.4387141495e+00 1.9853425399e+00 3.4387141495e+00 
3000 6.2661477694e+00 8.8913812671e-02 1.9831135291e+00 -3.4348533896e+00 1.9831135291e+00 3.4348533896e+00 
3100 6.2651016614e+00 8.9303566662e-02 1.9808721788e+00 -3.4309712570e+00 1.9808721788e+00 3.4309712570e+00 
3200 6.2640748588e+00 8.9691481565e-02 1.9786184592e+00 -3.4270677001e+00 1.9786184592e+00 3.4270677001e+00 
3300 6.2630661127e+00 9.0076354402e-02 1.9763523745e+00 -3.4231427264e+00 1.9763523745e+00 3.4231427264e+00 
3400 6.2620742274e+00 9.0457121894e-02 1.9740739594e+00 -3.4191963956e+00 1.9740739594e+00 3.4191963956e+00 
3500 6.2610980652e+00 9.0832839240e-02 1.9717832751e+00 -3.4152288140e+00 1.9717832751e+00 3.4152288140e+00 
3600 6.2601365488e+00 9.1202661383e-02 1.9694804070e+00 -3.4112401295e+00 1.9694804070e+00 3.4112401295e+00 
3700 6.2591886629e+00 9.1565826680e-02 1.9671654622e+00 -3.4072305274e+00 1.9671654622e+00 3.4072305274e+00 
3800 6.2582534540e+00 9.1921642794e-02 1.9648385672e+00 -3.4032002270e+00 1.9648385672e+00 3.4032002270e+00 
3900 6.2573300296e+00 9.2269474624e-02 1.9624998666e+00 -3.3991494788e+00 1.9624998666e+00 3.3991494788e+00 
4000 6.2564175572e+00 9.2608734035e-02 1.9601495217e+00 -3.3950785620e+00 1.9601495217e+00 3.3950785620e+00 
4100 6.2555152625e+00 9.2938871203e-02 1.9577877093e+00 -3.3909877829e+00 1.9577877093e+00 3.3909877829e+00 
4200 6.2546224278e+00 9.3259367360e-02 1.9554146208e+00 -3.3868774731e+00 1.9554146208e+00 3.3868774731e+00 
4300 6.2537383901e+00 9.3569728755e-02 1.9530304617e+00 -3.3827479885e+00 1.9530304617e+00 3.3827479885e+00 
4400 6.2528625390e+00 9.3869481684e-02 1.9506354510e+00 -3.3785997082e+00 1.9506354510e+00 3.3785997082e+00 
4500 6.2519943151e+00 9.4158168420e-02 1.9482298206e+00 -3.3744330341e+00 1.9482298206e+00 3.3744330341e+00 
4600 6.2511332079e+00 9.4435343933e-02 1.9458138151e+00 -3.3702483898e+00 1.9458138151e+00 3.3702483898e+00 
4700 6.2502787536e+00 9.4700573276e-02 1.9433876917e+00 -3.3660462207e+00 1.9433876917e+00 3.3660462207e+00 
4800 6.2494305341e+00 9.4953429552e-02 1.9409517196e+00 -3.3618269935e+00 1.9409517196e+00 3.3618269935e+00 
4900 6.2485881741e+00 9.5193492371e-02 1.9385061807e+00 -3.3575911958e+00 1.9385061807e+00 3.3575911958e+00 
5000 6.2477513404e+00 9.5420346726e-02 1.9360513685e+00 -3.3533393364e+00 1.9360513685e+00 3.3533393364e+00 
5100 6.2469197397e+00 9.5633582230e-02 1.9335875889e+00 -3.3490719449e+00 1.9335875889e+00 3.3490719449e+00 
5200 6.2460931170e+00 9.5832792666e-02 1.9311151596e+00 -3.3447895717e+00 1.9311151596e+00 3.3447895717e+00 
5300 6.2452712542e+00 9.6017575792e-02 1.9286344105e+00 -3.3404927883e+00 1.9286344105e+00 3.3404927883e+00 
5400 6.2444539684e+00 9.6187533379e-02 1.9261456834e+00 -3.3361821865e+00 1.9261456834e+00 3.3361821865e+00 
5500 6.2436411106e+00 9.6342271441e-02 1.9236493322e+00 -3.3318583792e+00 1.9236493322e+00 3.3318583792e+00 
5600 6.2428325641e+00 9.6481400620e-02 1.9211457225e+00 -3.3275220001e+00 1.9211457225e+00 3.3275220001e+00 
5700 6.2420282434e+00 9.6604536727e-02 1.9186352321e+00 -3.3231737033e+00 1.9186352321e+00 3.3231737033e+00 
5800 6.2412280921e+00 9.6711301390e-02 1.9161182508e+00 -3.3188141637e+00 1.9161182508e+00 3.3188141637e+00 
5900 6.2404320825e+00 9.6801322809e-02 1.9135951799e+00 -3.3144440767e+00 1.9135951799e+00 3.3144440767e+00 
6000 6.2396402133e+00 9.6874236591e-02 1.9110664326e+00 -3.3100641580e+00 1.9110664326e+00 3.3100641580e+00 
6100 6.2388525091e+00 9.6929686656e-02 1.9085324340e+00 -3.3056751436e+00 1.9085324340e+00 3.3056751436e+00 
6200 6.2380690185e+00 9.6967326205e-02 1.9059936204e+00 -3.3012777894e+00 1.9059936204e+00 3.3012777894e+00 
6300 6.2372898128e+00 9.6986818725e-02 1.9034504396e+00 -3.2968728710e+00 1.9034504396e+00 3.2968728710e+00 
6400 6.2365149850e+00 9.6987839028e-02 1.9009033505e+00 -3.2924611834e+00 1.9009033505e+00 3.2924611834e+00 
6500 6.2357446482e+00 9.6970074325e-02 1.8983528233e+00 -3.2880435406e+00 1.8983528233e+00 3.2880435406e+00 
6600 6.2349789344e+00 9.6933225297e-02 1.8957993385e+00 -3.2836207752e+00 1.8957993385e+00 3.2836207752e+00 
6700 6.2342179930e+00 9.6877007185e-02 1.8932433873e+00 -3.2791937380e+00 1.8932433873e+00 3.2791937380e+00 
6800 6.2334619897e+00 9.6801150871e-02 1.8906854712e+00 -3.2747632972e+00 1.8906854712e+00 3.2747632972e+00 
6900 6.2327111047e+00 9.6705403948e-02 1.8881261011e+00 -3.2703303381e+00 1.8881261011e+00 3.2703303381e+00 
7000 6.2319655318e+00 9.6589531771e-02 1.8855657977e+00 -3.2658957626e+00 1.8855657977e+00 3.2658957626e+00 
7100 6.2312254769e+00 9.6453318485e-02 1.8830050906e+00 -3.2614604877e+00 1.8830050906e+00 3.2614604877e+00 
7200 6.2304911563e+00 9.6296568013e-02 1.8804445180e+00 -3.2570254460e+00 1.8804445180e+00 3.2570254460e+00 
7300 6.2297627958e+00 9.6119105013e-02 1.8778846263e+00 -3.2525915835e+00 1.8778846263e+00 3.2525915835e+00 
7400 6.2290406288e+00 9.5920775778e-02 1.8753259696e+00 -3.2481598601e+00 1.8753259696e+00 3.2481598601e+00 
7500 6.2283248952e+00 9.5701449095e-02 1.8727691089e+00 -3.2437312475e+00 1.8727691089e+00 3.2437312475e+00 
7600 6.2276158400e+00 9.5461017032e-02 1.8702146120e+00 -3.2393067291e+00 1.8702146120e+00 3.2393067291e+00 
7700 6.2269137118e+00 9.5199395680e-02 1.8676630525e+00 -3.2348872984e+00 1.8676630525e+00 3.2348872984e+00 
7800 6.2262187614e+00 9.4916525805e-02 1.8651150096e+00 -3.2304739585e+00 1.8651150096e+00 3.2304739585e+00 
7900 6.2255312406e+00 9.4612373448e-02 1.8625710669e+00 -3.2260677205e+00 1.8625710669e+00 3.2260677205e+00 
8000 6.2248514005e+00 9.4286930430e-02 1.8600318123e+00 -3.2216696026e+00 1.8600318123e+00 3.2216696026e+00 
8100 6.2241794905e+00 9.3940214794e-02 1.8574978371e+00 -3.2172806289e+00 1.8574978371e+00 3.2172806289e+00 
8200 6.2235157567e+00 9.3572271148e-02 1.8549697354e+00 -3.2129018282e+00 1.8549697354e+00 3.2129018282e+00 
8300 6.2228604409e+00 9.3183170933e-02 1.8524481029e+00 -3.2085342327e+00 1.8524481029e+00 3.2085342327e+00 
8400 6.2222137790e+00 9.2773012600e-02 1.8499335370e+00 -3.2041788768e+00 1.8499335370e+00 3.2041788768e+00 
8500 6.2215760002e+00 9.2341921698e-02 1.8474266355e+00 -3.1998367959e+00 1.8474266355e+00 3.1998367959e+00 
8600 6.2209473256e+00 9.1890050873e-02 1.8449279957e+00 -3.1955090248e+00 1.8449279957e+00 3.1955090248e+00 
8700 6.2203279669e+00 9.1417579777e-02 1.8424382142e+00 -3.1911965969e+00 1.8424382142e+00 3.1911965969e+00 
8800 6.2197181257e+00 9.0924714887e-02 1.8399578858e+00 -3.1869005421e+00 1.8399578858e+00 3.1869005421e+00 
8900 6.2191179926e+00 9.0411689238e-02 1.8374876027e+00 -3.1826218862e+00 1.8374876027e+00 3.1826218862e+00 
9000 6.2185277457e+00 8.9878762068e-02 1.8350279539e+00 -3.1783616494e+00 1.8350279539e+00 3.1783616494e+00 
9100 6.2179475502e+00 8.9326218380e-02 1.8325795240e+00 -3.1741208445e+00 1.8325795240e+00 3.1741208445e+00 
9200 6.2173775576e+00 8.8754368414e-02 1.8301428933e+00 -3.1699004762e+00 1.8301428933e+00 3.1699004762e+00 
9300 6.2168179050e+00 8.8163547053e-02 1.8277186360e+00 -3.1657015395e+00 1.8277186360e+00 3.1657015395e+00 
9400 6.2162687143e+00 8.7554113146e-02 1.8253073203e+00 -3.1615250183e+00 1.8253073203e+00 3.1615250183e+00 
9500 6.2157300918e+00 8.6926448756e-02 1.8229095073e+00 -3.1573718842e+00 1.8229095073e+00 3.1573718842e+00 
9600 6.2152021278e+00 8.6280958348e-02 1.8205257501e+00 -3.1532430956e+00 1.8205257501e+00 3.1532430956e+00 
9700 6.2146848962e+00 8.5618067912e-02 1.8181565933e+00 -3.1491395958e+00 1.8181565933e+00 3.1491395958e+00 
9800 6.2141784542e+00 8.4938224025e-02 1.8158025727e+00 -3.1450623123e+00 1.8158025727e+00 3.1450623123e+00 
9900 6.2136828422e+00 8.4241892863e-02 1.8134642136e+00 -3.1410121557e+00 1.8134642136e+00 3.1410121557e+00 
10000 6.2131980839e+00 8.3529559167e-02 1.8111420314e+00 -3.1369900181e+00 1.8111420314e+00 3.1369900181e+00 
10100 6.2127241858e+00 8.2801725161e-02 1.8088365300e+00 -3.1329967725e+00 1.8088365300e+00 3.1329967725e+00 
10200 6.2122611377e+00 8.2058909442e-02 1.8065482016e+00 -3.1290332714e+00 1.8065482016e+00 3.1290332714e+00 
10300 6.2118089130e+00 8.1301645831e-02 1.8042775261e+00 -3.1251003461e+00 1.8042775261e+00 3.1251003461e+00 
10400 6.2113674684e+00 8.0530482204e-02 1.8020249706e+00 -3.1211988056e+00 1.8020249706e+00 3.1211988056e+00 
10500 6.2109367450e+00 7.9745979297e-02 1.7997909888e+00 -3.1173294357e+00 1.7997909888e+00 3.1173294357e+00 
10600 6.2105166681e+00 7.8948709506e-02 1.7975760206e+00 -3.1134929981e+00 1.7975760206e+00 3.1134929981e+00 
10700 6.2101071480e+00 7.8139255664e-02 1.7953804913e+00 -3.1096902298e+00 1.7953804913e+00 3.1096902298e+00 
10800 6.2097080805e+00 7.7318209829e-02 1.7932048118e+00 -3.1059218423e+00 1.7932048118e+00 3.1059218423e+00 
10900 6.2093193475e+00 7.6486172059e-02 1.7910493776e+00 -3.1021885208e+00 1.7910493776e+00 3.1021885208e+00 
11000 6.2089408176e+00 7.5643749200e-02 1.7889145689e+00 -3.0984909237e+00 1.7889145689e+00 3.0984909237e+00 
11100 6.2085723473e+00 7.4791553680e-02 1.7868007499e+00 -3.0948296818e+00 1.7868007499e+00 3.0948296818e+00 
11200 6.2082137809e+00 7.3930202324e-02 1.7847082688e+00 -3.0912053982e+00 1.7847082688e+00 3.0912053982e+00 
11300 6.2078649522e+00 7.3060315173e-02 1.7826374573e+00 -3.0876186476e+00 1.7826374573e+00 3.0876186476e+00 
11400 6.2075256850e+00 7.2182514337e-02 1.7805886307e+00 -3.0840699758e+00 1.7805886307e+00 3.0840699758e+00 
11500 6.2071957937e+00 7.1297422871e-02 1.7785620873e+00 -3.0805598996e+00 1.7785620873e+00 3.0805598996e+00 
11600 6.2068750847e+00 7.0405663667e-02 1.7765581084e+00 -3.0770889064e+00 1.7765581084e+00 3.0770889064e+00 
11700 6.2065633569e+00 6.9507858395e-02 1.7745769585e+00 -3.0736574540e+00 1.7745769585e+00 3.0736574540e+00 
11800 6.2062604029e+00 6.8604626459e-02 1.7726188845e+00 -3.0702659704e+00 1.7726188845e+00 3.0702659704e+00 
11900 6.2059660097e+00 6.7696584002e-02 1.7706841163e+00 -3.0669148537e+00 1.7706841163e+00 3.0669148537e+00 
12000 6.2056799599e+00 6.6784342937e-02 1.7687728666e+00 -3.0636044721e+00 1.7687728666e+00 3.0636044721e+00 
12100 6.2054020321e+00 6.5868510023e-02 1.7668853306e+00 -3.0603351638e+00 1.7668853306e+00 3.0603351638e+00 
12200 6.2051320025e+00 6.4949685977e-02 1.7650216863e+00 -3.0571072371e+00 1.7650216863e+00 3.0571072371e+00 
12300 6.2048696450e+00 6.4028464632e-02 1.7631820944e+00 -3.0539209706e+00 1.7631820944e+00 3.0539209706e+00 
12400 6.2046147327e+00 6.3105432125e-02 1.7613666987e+00 -3.0507766130e+00 1.7613666987e+00 3.0507766130e+00 
12500 6.2043670382e+00 6.2181166143e-02 1.7595756258e+00 -3.0476743836e+00 1.7595756258e+00 3.0476743836e+00 
12600 6.2041263350e+00 6.1256235196e-02 1.7578089854e+00 -3.0446144727e+00 1.7578089854e+00 3.0446144727e+00 
12700 6.2038923973e+00 6.0331197942e-02 1.7560668704e+00 -3.0415970411e+00 1.7560668704e+00 3.0415970411e+00 
12800 6.2036650017e+00 5.9406602553e-02 1.7543493575e+00 -3.0386222214e+00 1.7543493575e+00 3.0386222214e+00 
12900 6.2034439272e+00 5.8482986118e-02 1.7526565066e+00 -3.0356901176e+00 1.7526565066e+00 3.0356901176e+00 
13000 6.2032289561e+00 5.7560874096e-02 1.7509883617e+00 -3.0328008060e+00 1.7509883617e+00 3.0328008060e+00 
13100 6.2030198746e+00 5.6640779805e-02 1.7493449510e+00 -3.0299543352e+00 1.7493449510e+00 3.0299543352e+00 
13200 6.2028164731e+00 5.5723203952e-02 1.7477262870e+00 -3.0271507268e+00 1.7477262870e+00 3.0271507268e+00 
13300 6.2026185467e+00 5.4808634205e-02 1.7461323668e+00 -3.0243899760e+00 1.7461323668e+00 3.0243899760e+00 
13400 6.2024258959e+00 5.3897544806e-02 1.7445631726e+00 -3.0216720519e+00 1.7445631726e+00 3.0216720519e+00 
13500 6.2022383268e+00 5.2990396219e-02 1.7430186718e+00 -3.0189968980e+00 1.7430186718e+00 3.0189968980e+00 
13600 6.2020556513e+00 5.2087634815e-02 1.7414988175e+00 -3.0163644332e+00 1.7414988175e+00 3.0163644332e+00 
13700 6.2018776874e+00 5.1189692602e-02 1.7400035488e+00 -3.0137745519e+00 1.7400035488e+00 3.0137745519e+00 
13800 6.2017042598e+00 5.0296986979e-02 1.7385327911e+00 -3.0112271247e+00 1.7385327911e+00 3.0112271247e+00 
13900 6.2015351996e+00 4.9409920533e-02 1.7370864563e+00 -3.0087219995e+00 1.7370864563e+00 3.0087219995e+00 
14000 6.2013703446e+00 4.8528880867e-02 1.7356644439e+00 -3.0062590016e+00 1.7356644439e+00 3.0062590016e+00 
14100 6.2012095395e+00 4.7654240460e-02 1.7342666402e+00 -3.0038379347e+00 1.7342666402e+00 3.0038379347e+00 
14200 6.2010526359e+00 4.6786356558e-02 1.7328929200e+00 -3.0014585815e+00 1.7328929200e+00 3.0014585815e+00 
14300 6.2008994921e+00 4.5925571098e-02 1.7315431460e+00 -2.9991207043e+00 1.7315431460e+00 2.9991207043e+00 
14400 6.2007499734e+00 4.5072210659e-02 1.7302171696e+00 -2.9968240459e+00 1.7302171696e+00 2.9968240459e+00 
14500 6.2006039518e+00 4.4226586439e-02 1.7289148316e+00 -2.9945683304e+00 1.7289148316e+00 2.9945683304e+00 
14600 6.2004613061e+00 4.3388994263e-02 1.7276359621e+00 -2.9923532634e+00 1.7276359621e+00 2.9923532634e+00 
14700 6.2003219215e+00 4.2559714617e-02 1.7263803812e+00 -2.9901785335e+00 1.7263803812e+00 2.9901785335e+00 
14800 6.2001856897e+00 4.1739012700e-02 1.7251478995e+00 -2.9880438125e+00 1.7251478995e+00 2.9880438125e+00 
14900 6.2000525086e+00 4.0927138509e-02 1.7239383182e+00 -2.9859487563e+00 1.7239383182e+00 2.9859487563e+00 
15000 6.1999222820e+00 4.0124326936e-02 1.7227514301e+00 -2.9838930057e+00 1.7227514301e+00 2.9838930057e+00 
15100 6.1997949198e+00 3.9330797902e-02 1.7215870194e+00 -2.9818761873e+00 1.7215870194e+00 2.9818761873e+00 
15200 6.1996703371e+00 3.8546756490e-02 1.7204448626e+00 -2.9798979137e+00 1.7204448626e+00 2.9798979137e+00 
15300 6.1995484547e+00 3.7772393119e-02 1.7193247288e+00 -2.9779577850e+00 1.7193247288e+00 2.9779577850e+00 
15400 6.1994291980e+00 3.7007883721e-02 1.7182263799e+00 -2.9760553889e+00 1.7182263799e+00 2.9760553889e+00 
15500 6.1993124977e+00 3.6253389943e-02 1.7171495714e+00 -2.9741903018e+00 1.7171495714e+00 2.9741903018e+00 
15600 6.1991982885e+00 3.5509059364e-02 1.7160940526e+00 -2.9723620896e+00 1.7160940526e+00 2.9723620896e+00 
15700 6.1990865097e+00 3.4775025726e-02 1.7150595671e+00 -2.9705703081e+00 1.7150595671e+00 2.9705703081e+00 
15800 6.1989771044e+00 3.4051409179e-02 1.7140458531e+00 -2.9688145040e+00 1.7140458531e+00 2.9688145040e+00 
15900 6.1988700193e+00 3.3338316545e-02 1.7130526440e+00 -2.9670942154e+00 1.7130526440e+00 2.9670942154e+00 
16000 6.1987652047e+00 3.2635841587e-02 1.7120796687e+00 -2.9654089727e+00 1.7120796687e+00 2.9654089727e+00 
16100 6.1986626136e+00 3.1944065295e-02 1.7111266519e+00 -2.9637582993e+00 1.7111266519e+00 2.9637582993e+00 
16200 6.1985622023e+00 3.1263056180e-02 1.7101933148e+00 -2.9621417120e+00 1.7101933148e+00 2.9621417120e+00 
16300 6.1984639293e+00 3.0592870584e-02 1.7092793752e+00 -2.9605587221e+00 1.7092793752e+00 2.9605587221e+00 
16400 6.1983677556e+00 2.9933552987e-02 1.7083845478e+00 -2.9590088356e+00 1.7083845478e+00 2.9590088356e+00 
16500 6.1982736441e+00 2.9285136337e-02 1.7075085450e+00 -2.9574915543e+00 1.7075085450e+00 2.9574915543e+00 
16600 6.1981815597e+00 2.8647642375e-02 1.7066510768e+00 -2.9560063759e+00 1.7066510768e+00 2.9560063759e+00 
16700 6.1980914688e+00 2.8021081977e-02 1.7058118516e+00 -2.9545527951e+00 1.7058118516e+00 2.9545527951e+00 
16800 6.1980033391e+00 2.7405455490e-02 1.7049905760e+00 -2.9531303041e+00 1.7049905760e+00 2.9531303041e+00 
16900 6.1979171395e+00 2.6800753088e-02 1.7041869557e+00 -2.9517383928e+00 1.7041869557e+00 2.9517383928e+00 
17000 6.1978328401e+00 2.6206955118e-02 1.7034006954e+00 -2.9503765501e+00 1.7034006954e+00 2.9503765501e+00 
17100 6.1977504114e+00 2.5624032460e-02 1.7026314993e+00 -2.9490442634e+00 1.7026314993e+00 2.9490442634e+00 
17200 6.1976698250e+00 2.5051946883e-02 1.7018790716e+00 -2.9477410203e+00 1.7018790716e+00 2.9477410203e+00 
17300 6.1975910526e+00 2.4490651406e-02 1.7011431162e+00 -2.9464663082e+00 1.7011431162e+00 2.9464663082e+00 
17400 6.1975140664e+00 2.3940090663e-02 1.7004233378e+00 -2.9452196154e+00 1.7004233378e+00 2.9452196154e+00 
17500 6.1974388390e+00 2.3400201263e-02 1.6997194413e+00 -2.9440004310e+00 1.6997194413e+00 2.9440004310e+00 
17600 6.1973653429e+00 2.2870912155e-02 1.6990311330e+00 -2.9428082460e+00 1.6990311330e+00 2.9428082460e+00 
17700 6.1972935507e+00 2.2352144989e-02 1.6983581200e+00 -2.9416425532e+00 1.6983581200e+00 2.9416425532e+00 
17800 6.1972234351e+00 2.1843814480e-02 1.6977001109e+00 -2.9405028481e+00 1.6977001109e+00 2.9405028481e+00 
17900 6.1971549683e+00 2.1345828765e-02 1.6970568161e+00 -2.9393886287e+00 1.6970568161e+00 2.9393886287e+00 
18000 6.1970881228e+00 2.0858089760e-02 1.6964279476e+00 -2.9382993966e+00 1.6964279476e+00 2.9382993966e+00 
18100 6.1970228705e+00 2.0380493518e-02 1.6958132198e+00 -2.9372346568e+00 1.6958132198e+00 2.9372346568e+00 
18200 6.1969591833e+00 1.9912930576e-02 1.6952123491e+00 -2.9361939182e+00 1.6952123491e+00 2.9361939182e+00 
18300 6.1968970327e+00 1.9455286304e-02 1.6946250545e+00 -2.9351766942e+00 1.6946250545e+00 2.9351766942e+00 
18400 6.1968363899e+00 1.9007441247e-02 1.6940510577e+00 -2.9341825025e+00 1.6940510577e+00 2.9341825025e+00 
18500 6.1967772258e+00 1.8569271461e-02 1.6934900831e+00 -2.9332108661e+00 1.6934900831e+00 2.9332108661e+00 
18600 6.1967195111e+00 1.8140648848e-02 1.6929418582e+00 -2.9322613126e+00 1.6929418582e+00 2.9322613126e+00 
18700 6.1966632160e+00 1.7721441482e-02 1.6924061135e+00 -2.9313333756e+00 1.6924061135e+00 2.9313333756e+00 
18800 6.1966083106e+00 1.7311513927e-02 1.6918825829e+00 -2.9304265941e+00 1.6918825829e+00 2.9304265941e+00 
18900 6.1965547647e+00 1.6910727551e-02 1.6913710036e+00 -2.9295405128e+00 1.6913710036e+00 2.9295405128e+00 
19000 6.1965025480e+00 1.6518940836e-02 1.6908711164e+00 -2.9286746827e+00 1.6908711164e+00 2.9286746827e+00 
19100 6.1964516297e+00 1.6136009674e-02 1.6903826657e+00 -2.9278286612e+00 1.6903826657e+00 2.9278286612e+00 
19200 6.1964019792e+00 1.5761787660e-02 1.6899053995e+00 -2.9270020119e+00 1.6899053995e+00 2.9270020119e+00 
19300 6.1963535655e+00 1.5396126379e-02 1.6894390698e+00 -2.9261943051e+00 1.6894390698e+00 2.9261943051e+00 
19400 6.1963063578e+00 1.5038875678e-02 1.6889834323e+00 -2.9254051179e+00 1.6889834323e+00 2.9254051179e+00 
19500 6.1962603251e+00 1.4689883938e-02 1.6885382469e+00 -2.9246340342e+00 1.6885382469e+00 2.9246340342e+00 
19600 6.1962154365e+00 1.4348998331e-02 1.6881032774e+00 -2.9238806449e+00 1.6881032774e+00 2.9238806449e+00 
19700 6.1961716612e+00 1.4016065073e-02 1.6876782917e+00 -2.9231445481e+00 1.6876782917e+00 2.9231445481e+00 
19800 6.1961289685e+00 1.3690929668e-02 1.6872630618e+00 -2.9224253488e+00 1.6872630618e+00 2.9224253488e+00 
19900 6.1960873278e+00 1.3373437137e-02 1.6868573639e+00 -2.9217226594e+00 1.6868573639e+00 2.9217226594e+00 
20000 6.1960467089e+00 1.3063432248e-02 1.6864609785e+00 -2.9210360997e+00 1.6864609785e+00 2.9210360997e+00 
20100 6.1960070818e+00 1.2760759729e-02 1.6860736902e+00 -2.9203652967e+00 1.6860736902e+00 2.9203652967e+00 
20200 6.1959684168e+00 1.2465264475e-02 1.6856952879e+00 -2.9197098848e+00 1.6856952879e+00 2.9197098848e+00 
20300 6.1959306847e+00 1.2176791749e-02 1.6853255649e+00 -2.9190695056e+00 1.6853255649e+00 2.9190695056e+00 
20400 6.1958938564e+00 1.1895187366e-02 1.6849643184e+00 -2.9184438085e+00 1.6849643184e+00 2.9184438085e+00 
20500 6.1958579037e+00 1.1620297879e-02 1.6846113504e+00 -2.9178324498e+00 1.6846113504e+00 2.9178324498e+00 
20600 6.1958227986e+00 1.1351970742e-02 1.6842664666e+00 -2.9172350937e+00 1.6842664666e+00 2.9172350937e+00 
20700 6.1957885137e+00 1.1090054482e-02 1.6839294774e+00 -2.9166514113e+00 1.6839294774e+00 2.9166514113e+00 
20800 6.1957550223e+00 1.0834398844e-02 1.6836001972e+00 -2.9160810812e+00 1.6836001972e+00 2.9160810812e+00 
20900 6.1957222982e+00 1.0584854937e-02 1.6832784447e+00 -2.9155237894e+00 1.6832784447e+00 2.9155237894e+00 
21000 6.1956903158e+00 1.0341275377e-02 1.6829640426e+00 -2.9149792290e+00 1.6829640426e+00 2.9149792290e+00 
21100 6.1956590502e+00 1.0103514402e-02 1.6826568179e+00 -2.9144471003e+00 1.6826568179e+00 2.9144471003e+00 
21200 6.1956284773e+00 9.8714280041e-03 1.6823566018e+00 -2.9139271108e+00 1.6823566018e+00 2.9139271108e+00 
21300 6.1955985735e+00 9.6448740299e-03 1.6820632294e+00 -2.9134189748e+00 1.6820632294e+00 2.9134189748e+00 
21400 6.1955693161e+00 9.4237122891e-03 1.6817765398e+00 -2.9129224139e+00 1.6817765398e+00 2.9129224139e+00 
21500 6.1955406831e+00 9.2078046475e-03 1.6814963762e+00 -2.9124371563e+00 1.6814963762e+00 2.9124371563e+00 
21600 6.1955126531e+00 8.9970151144e-03 1.6812225857e+00 -2.9119629373e+00 1.6812225857e+00 2.9119629373e+00 
21700 6.1954852057e+00 8.7912099219e-03 1.6809550192e+00 -2.9114994985e+00 1.6809550192e+00 2.9114994985e+00 
21800 6.1954583210e+00 8.5902575974e-03 1.6806935315e+00 -2.9110465885e+00 1.6806935315e+00 2.9110465885e+00 
21900 6.1954319800e+00 8.3940290289e-03 1.6804379810e+00 -2.9106039621e+00 1.6804379810e+00 2.9106039621e+00 
22000 6.1954061646e+00 8.2023975228e-03 1.6801882301e+00 -2.9101713807e+00 1.6801882301e+00 2.9101713807e+00 
22100 6.1953808570e+00 8.0152388559e-03 1.6799441443e+00 -2.9097486119e+00 1.6799441443e+00 2.9097486119e+00 
22200 6.1953560407e+00 7.8324313199e-03 1.6797055933e+00 -2.9093354293e+00 1.6797055933e+00 2.9093354293e+00 
22300 6.1953316995e+00 7.6538557607e-03 1.6794724497e+00 -2.9089316129e+00 1.6794724497e+00 2.9089316129e+00 
22400 6.1953078182e+00 7.4793956107e-03 1.6792445900e+00 -2.9085369482e+00 1.6792445900e+00 2.9085369482e+00 
22500 6.1952843822e+00 7.3089369160e-03 1.6790218937e+00 -2.9081512270e+00 1.6790218937e+00 2.9081512270e+00 
22600 6.1952613776e+00 7.1423683575e-03 1.6788042438e+00 -2.9077742463e+00 1.6788042438e+00 2.9077742463e+00 
22700 6.1952387911e+00 6.9795812671e-03 1.6785915264e+00 -2.9074058089e+00 1.6785915264e+00 2.9074058089e+00 
22800 6.1952166103e+00 6.8204696382e-03 1.6783836308e+00 -2.9070457231e+00 1.6783836308e+00 2.9070457231e+00 
22900 6.1951948232e+00 6.6649301320e-03 1.6781804492e+00 -2.9066938023e+00 1.6781804492e+00 2.9066938023e+00 
23000 6.1951734184e+00 6.5128620787e-03 1.6779818771e+00 -2.9063498653e+00 1.6779818771e+00 2.9063498653e+00 
23100 6.1951523854e+00 6.3641674739e-03 1.6777878125e+00 -2.9060137356e+00 1.6777878125e+00 2.9060137356e+00 
23200 6.1951317140e+00 6.2187509717e-03 1.6775981566e+00 -2.9056852419e+00 1.6775981566e+00 2.9056852419e+00 
23300 6.1951113947e+00 6.0765198730e-03 1.6774128131e+00 -2.9053642176e+00 1.6774128131e+00 2.9053642176e+00 
23400 6.1950914183e+00 5.9373841102e-03 1.6772316887e+00 -2.9050505008e+00 1.6772316887e+00 2.9050505008e+00 
23500 6.1950717764e+00 5.8012562288e-03 1.6770546923e+00 -2.9047439341e+00 1.6770546923e+00 2.9047439341e+00 
23600 6.1950524609e+00 5.6680513645e-03 1.6768817356e+00 -2.9044443643e+00 1.6768817356e+00 2.9044443643e+00 
23700 6.1950334641e+00 5.5376872185e-03 1.6767127327e+00 -2.9041516427e+00 1.6767127327e+00 2.9041516427e+00 
23800 6.1950147790e+00 5.4100840291e-03 1.6765476002e+00 -2.9038656248e+00 1.6765476002e+00 2.9038656248e+00 
23900 6.1949963986e+00 5.2851645403e-03 1.6763862568e+00 -2.9035861699e+00 1.6763862568e+00 2.9035861699e+00 
24000 6.1949783166e+00 5.1628539681e-03 1.6762286236e+00 -2.9033131412e+00 1.6762286236e+00 2.9033131412e+00 
24100 6.1949605270e+00 5.0430799651e-03 1.6760746239e+00 -2.9030464059e+00 1.6760746239e+00 2.9030464059e+00 
24200 6.1949430239e+00 4.9257725814e-03 1.6759241830e+00 -2.9027858345e+00 1.6759241830e+00 2.9027858345e+00 
24300 6.1949258020e+00 4.8108642249e-03 1.6757772282e+00 -2.9025313014e+00 1.6757772282e+00 2.9025313014e+00 
24400 6.1949088561e+00 4.6982896188e-03 1.6756336890e+00 -2.9022826842e+00 1.6756336890e+00 2.9022826842e+00 
24500 6.1948921814e+00 4.5879857579e-03 1.6754934965e+00 -2.9020398637e+00 1.6754934965e+00 2.9020398637e+00 
24600 6.1948757731e+00 4.4798918632e-03 1.6753565839e+00 -2.9018027242e+00 1.6753565839e+00 2.9018027242e+00 
24700 6.1948596269e+00 4.3739493351e-03 1.6752228861e+00 -2.9015711526e+00 1.6752228861e+00 2.9015711526e+00 
24800 6.1948437384e+00 4.2701017052e-03 1.6750923395e+00 -2.9013450393e+00 1.6750923395e+00 2.9013450393e+00 
24900 6.1948281037e+00 4.1682945875e-03 1.6749648824e+00 -2.9011242772e+00 1.6749648824e+00 2.9011242772e+00 
25000 6.1948127187e+00 4.0684756283e-03 1.6748404546e+00 -2.9009087620e+00 1.6748404546e+00 2.9009087620e+00 
25100 6.1947975799e+00 3.9705944549e-03 1.6747189975e+00 -2.9006983920e+00 1.6747189975e+00 2.9006983920e+00 
25200 6.1947826834e+00 3.8746026249e-03 1.6746004538e+00 -2.9004930683e+00 1.6746004538e+00 2.9004930683e+00 
25300 6.1947680259e+00 3.7804535730e-03 1.6744847677e+00 -2.9002926942e+00 1.6744847677e+00 2.9002926942e+00 
25400 6.1947536038e+00 3.6881025595e-03 1.6743718849e+00 -2.9000971755e+00 1.6743718849e+00 2.9000971755e+00 
25500 6.1947394138e+00 3.5975066165e-03 1.6742617522e+00 -2.8999064200e+00 1.6742617522e+00 2.8999064200e+00 
25600 6.1947254527e+00 3.5086244953e-03 1.6741543178e+00 -2.8997203381e+00 1.6741543178e+00 2.8997203381e+00 
25700 6.1947117173e+00 3.4214166131e-03 1.6740495309e+00 -2.8995388419e+00 1.6740495309e+00 2.8995388419e+00 
25800 6.1946982043e+00 3.3358449993e-03 1.6739473421e+00 -2.8993618457e+00 1.6739473421e+00 2.8993618457e+00 
25900 6.1946849107e+00 3.2518732429e-03 1.6738477030e+00 -2.8991892657e+00 1.6738477030e+00 2.8991892657e+00 
26000 6.1946718334e+00 3.1694664388e-03 1.6737505663e+00 -2.8990210200e+00 1.6737505663e+00 2.8990210200e+00 
26100 6.1946589694e+00 3.0885911353e-03 1.6736558856e+00 -2.8988570283e+00 1.6736558856e+00 2.8988570283e+00 
26200 6.1946463156e+00 3.0092152817e-03 1.6735636157e+00 -2.8986972120e+00 1.6735636157e+00 2.8986972120e+00 
26300 6.1946338690e+00 2.9313081757e-03 1.6734737120e+00 -2.8985414944e+00 1.6734737120e+00 2.8985414944e+00 
26400 6.1946216267e+00 2.8548404122e-03 1.6733861313e+00 -2.8983898000e+00 1.6733861313e+00 2.8983898000e+00 
26500 6.1946095855e+00 2.7797838318e-03 1.6733008307e+00 -2.8982420551e+00 1.6733008307e+00 2.8982420551e+00 
26600 6.1945977426e+00 2.7061114706e-03 1.6732177685e+00 -2.8980981872e+00 1.6732177685e+00 2.8980981872e+00 
26700 6.1945860950e+00 2.6337975099e-03 1.6731369037e+00 -2.8979581252e+00 1.6731369037e+00 2.8979581252e+00 
26800 6.1945746396e+00 2.5628172272e-03 1.6730581959e+00 -2.8978217993e+00 1.6730581959e+00 2.8978217993e+00 
26900 6.1945633735e+00 2.4931469477e-03 1.6729816057e+00 -2.8976891412e+00 1.6729816057e+00 2.8976891412e+00 
27000 6.1945522937e+00 2.4247639966e-03 1.6729070942e+00 -2.8975600834e+00 1.6729070942e+00 2.8975600834e+00 
27100 6.1945413972e+00 2.3576466524e-03 1.6728346231e+00 -2.8974345599e+00 1.6728346231e+00 2.8974345599e+00 
27200 6.1945306810e+00 2.2917741009e-03 1.6727641550e+00 -2.8973125055e+00 1.6727641550e+00 2.8973125055e+00 
27300 6.1945201421e+00 2.2271263902e-03 1.6726956529e+00 -2.8971938564e+00 1.6726956529e+00 2.8971938564e+00 
27400 6.1945097776e+00 2.1636843867e-03 1.6726290803e+00 -2.8970785494e+00 1.6726290803e+00 2.8970785494e+00 
27500 6.1944995844e+00 2.1014297319e-03 1.6725644016e+00 -2.8969665225e+00 1.6725644016e+00 2.8969665225e+00 
27600 6.1944895596e+00 2.0403448005e-03 1.6725015814e+00 -2.8968577147e+00 1.6725015814e+00 2.8968577147e+00 
27700 6.1944797001e+00 1.9804126594e-03 1.6724405850e+00 -2.8967520658e+00 1.6724405850e+00 2.8967520658e+00 
27800 6.1944700030e+00 1.9216170277e-03 1.6723813781e+00 -2.8966495164e+00 1.6723813781e+00 2.8966495164e+00 
27900 6.1944604654e+00 1.8639422381e-03 1.6723239269e+00 -2.8965500081e+00 1.6723239269e+00 2.8965500081e+00 
28000 6.1944510842e+00 1.8073731985e-03 1.6722681981e+00 -2.8964534830e+00 1.6722681981e+00 2.8964534830e+00 
28100 6.1944418566e+00 1.7518953564e-03 1.6722141588e+00 -2.8963598842e+00 1.6722141588e+00 2.8963598842e+00 
28200 6.1944327796e+00 1.6974946623e-03 1.6721617766e+00 -2.8962691555e+00 1.6721617766e+00 2.8962691555e+00 
28300 6.1944238503e+00 1.6441575363e-03 1.6721110193e+00 -2.8961812414e+00 1.6721110193e+00 2.8961812414e+00 
28400 6.1944150659e+00 1.5918708344e-03 1.6720618554e+00 -2.8960960870e+00 1.6720618554e+00 2.8960960870e+00 
28500 6.1944064234e+00 1.5406218163e-03 1.6720142536e+00 -2.8960136383e+00 1.6720142536e+00 2.8960136383e+00 
28600 6.1943979201e+00 1.4903981151e-03 1.6719681830e+00 -2.8959338416e+00 1.6719681830e+00 2.8959338416e+00 
28700 6.1943895532e+00 1.4411877070e-03 1.6719236130e+00 -2.8958566442e+00 1.6719236130e+00 2.8958566442e+00 
28800 6.1943813198e+00 1.3929788831e-03 1.6718805135e+00 -2.8957819936e+00 1.6718805135e+00 2.8957819936e+00 
28900 6.1943732173e+00 1.3457602218e-03 1.6718388547e+00 -2.8957098384e+00 1.6718388547e+00 2.8957098384e+00 
29000 6.1943652429e+00 1.2995205627e-03 1.6717986069e+00 -2.8956401272e+00 1.6717986069e+00 2.8956401272e+00 
29100 6.1943573940e+00 1.2542489814e-03 1.6717597411e+00 -2.8955728097e+00 1.6717597411e+00 2.8955728097e+00 
29200 6.1943496681e+00 1.2099347653e-03 1.6717222284e+00 -2.8955078358e+00 1.6717222284e+00 2.8955078358e+00 
29300 6.1943420624e+00 1.1665673915e-03 1.6716860403e+00 -2.8954451561e+00 1.6716860403e+00 2.8954451561e+00 
29400 6.1943345745e+00 1.1241365042e-03 1.6716511485e+00 -2.8953847217e+00 1.6716511485e+00 2.8953847217e+00 
29500 6.1943272019e+00 1.0826318949e-03 1.6716175251e+00 -2.8953264842e+00 1.6716175251e+00 2.8953264842e+00 
29600 6.1943199422e+00 1.0420434822e-03 1.6715851424e+00 -2.8952703958e+00 1.6715851424e+00 2.8952703958e+00 
29700 6.1943127930e+00 1.0023612940e-03 1.6715539732e+00 -2.8952164091e+00 1.6715539732e+00 2.8952164091e+00 
29800 6.1943057520e+00 9.6357544987e-04 1.6715239903e+00 -2.8951644773e+00 1.6715239903e+00 2.8951644773e+00 
29900 6.1942988168e+00 9.2567614480e-04 1.6714951672e+00 -2.8951145541e+00 1.6714951672e+00 2.8951145541e+00 
30000 6.1942919852e+00 8.8865363396e-04 1.6714674772e+00 -2.8950665937e+00 1.6714674772e+00 2.8950665937e+00 
30100 6.1942852551e+00 8.5249821848e-04 1.6714408942e+00 -2.8950205506e+00 1.6714408942e+00 2.8950205506e+00 
30200 6.1942786243e+00 8.1720023224e-04 1.6714153924e+00 -2.8949763802e+00 1.6714153924e+00 2.8949763802e+00 
30300 6.1942720907e+00 7.8275002958e-04 1.6713909461e+00 -2.8949340379e+00 1.6713909461e+00 2.8949340379e+00 
30400 6.1942656523e+00 7.4913797401e-04 1.6713675300e+00 -2.8948934801e+00 1.6713675300e+00 2.8948934801e+00 
30500 6.1942593072e+00 7.1635442783e-04 1.6713451191e+00 -2.8948546633e+00 1.6713451191e+00 2.8948546633e+00 
30600 6.1942530534e+00 6.8438974271e-04 1.6713236887e+00 -2.8948175447e+00 1.6713236887e+00 2.8948175447e+00 
30700 6.1942468891e+00 6.5323425105e-04 1.6713032143e+00 -2.8947820820e+00 1.6713032143e+00 2.8947820820e+00 
30800 6.1942408124e+00 6.2287825833e-04 1.6712836716e+00 -2.8947482332e+00 1.6712836716e+00 2.8947482332e+00 
30900 6.1942348215e+00 5.9331203618e-04 1.6712650370e+00 -2.8947159569e+00 1.6712650370e+00 2.8947159569e+00 
31000 6.1942289148e+00 5.6452581635e-04 1.6712472866e+00 -2.8946852124e+00 1.6712472866e+00 2.8946852124e+00 
31100 6.1942230906e+00 5.3650978540e-04 1.6712303973e+00 -2.8946559592e+00 1.6712303973e+00 2.8946559592e+00 
31200 6.1942173473e+00 5.0925408020e-04 1.6712143460e+00 -2.8946281575e+00 1.6712143460e+00 2.8946281575e+00 
31300 6.1942116833e+00 4.8274878413e-04 1.6711991099e+00 -2.8946017680e+00 1.6711991099e+00 2.8946017680e+00 
31400 6.1942060970e+00 4.5698392399e-04 1.6711846668e+00 -2.8945767517e+00 1.6711846668e+00 2.8945767517e+00 
31500 6.1942005871e+00 4.3194946758e-04 1.6711709943e+00 -2.8945530703e+00 1.6711709943e+00 2.8945530703e+00 
31600 6.1941951520e+00 4.0763532199e-04 1.6711580708e+00 -2.8945306861e+00 1.6711580708e+00 2.8945306861e+00 
31700 6.1941897904e+00 3.8403133238e-04 1.6711458746e+00 -2.8945095617e+00 1.6711458746e+00 2.8945095617e+00 
31800 6.1941845009e+00 3.6112728154e-04 1.6711343846e+00 -2.8944896603e+00 1.6711343846e+00 2.8944896603e+00 
31900 6.1941792823e+00 3.3891288986e-04 1.6711235797e+00 -2.8944709458e+00 1.6711235797e+00 2.8944709458e+00 
32000 6.1941741332e+00 3.1737781591e-04 1.6711134395e+00 -2.8944533824e+00 1.6711134395e+00 2.8944533824e+00 
32100 6.1941690524e+00 2.9651165753e-04 1.6711039435e+00 -2.8944369348e+00 1.6711039435e+00 2.8944369348e+00 
32200 6.1941640388e+00 2.7630395340e-04 1.6710950717e+00 -2.8944215685e+00 1.6710950717e+00 2.8944215685e+00 
32300 6.1941590911e+00 2.5674418509e-04 1.6710868046e+00 -2.8944072494e+00 1.6710868046e+00 2.8944072494e+00 
32400 6.1941542083e+00 2.3782177947e-04 1.6710791227e+00 -2.8943939439e+00 1.6710791227e+00 2.8943939439e+00 
32500 6.1941493892e+00 2.1952611162e-04 1.6710720068e+00 -2.8943816190e+00 1.6710720068e+00 2.8943816190e+00 
32600 6.1941446329e+00 2.0184650808e-04 1.6710654384e+00 -2.8943702421e+00 1.6710654384e+00 2.8943702421e+00 
32700 6.1941399382e+00 1.8477225041e-04 1.6710593990e+00 -2.8943597815e+00 1.6710593990e+00 2.8943597815e+00 
32800 6.1941353043e+00 1.6829257915e-04 1.6710538704e+00 -2.8943502057e+00 1.6710538704e+00 2.8943502057e+00 
32900 6.1941307300e+00 1.5239669802e-04 1.6710488349e+00 -2.8943414839e+00 1.6710488349e+00 2.8943414839e+00 
33000 6.1941262145e+00 1.3707377846e-04 1.6710442750e+00 -2.8943335859e+00 1.6710442750e+00 2.8943335859e+00 
33100 6.1941217568e+00 1.2231296433e-04 1.6710401735e+00 -2.8943264820e+00 1.6710401735e+00 2.8943264820e+00 
33200 6.1941173561e+00 1.0810337695e-04 1.6710365137e+00 -2.8943201431e+00 1.6710365137e+00 2.8943201431e+00 
33300 6.1941130114e+00 9.4434120231e-05 1.6710332791e+00 -2.8943145406e+00 1.6710332791e+00 2.8943145406e+00 
33400 6.1941087220e+00 8.1294286094e-05 1.6710304535e+00 -2.8943096464e+00 1.6710304535e+00 2.8943096464e+00 
33500 6.1941044869e+00 6.8672959963e-05 1.6710280210e+00 -2.8943054333e+00 1.6710280210e+00 2.8943054333e+00 
33600 6.1941003056e+00 5.7787691732e-05 1.6710280210e+00 -2.8943054333e+00 1.6710280210e+00 2.8943054333e+00 
33700 6.1940961769e+00 4.7186047784e-05 1.6710280210e+00 -2.8943054333e+00 1.6710280210e+00 2.8943054333e+00 
33800 6.1940921002e+00 3.6865291286e-05 1.6710280210e+00 -2.8943054333e+00 1.6710280210e+00 2.8943054333e+00 
33900 6.1940880746e+00 2.6822540959e-05 1.6710280210e+00 -2.8943054333e+00 1.6710280210e+00 2.8943054333e+00 
34000 6.1940840996e+00 1.7054776478e-05 1.6710280210e+00 -2.8943054333e+00 1.6710280210e+00 2.8943054333e+00 
34100 6.1940801743e+00 7.5588440607e-06 1.6710280210e+00 -2.8943054333e+00 1.6710280210e+00 2.8943054333e+00 
34200 6.1940762981e+00 -1.6685377645e-06 1.6710280210e+00 -2.8943054333e+00 1.6710280210e+00 2.8943054333e+00 
34300 6.1940724703e+00 -1.0630772248e-05 1.6710280210e+00 -2.8943054333e+00 1.6710280210e+00 2.8943054333e+00 
34400 6.1940686902e+00 -1.9331378377e-05 1.6710280210e+00 -2.8943054333e+00 1.6710280210e+00 2.8943054333e+00 
34500 6.1940649572e+00 -2.7773984723e-05 1.6710280210e+00 -2.8943054333e+00 1.6710280210e+00 2.8943054333e+00 
34600 6.1940612705e+00 -3.5962323212e-05 1.6710280210e+00 -2.8943054333e+00 1.6710280210e+00 2.8943054333e+00 
34700 6.1940576296e+00 -4.3900222815e-05 1.6710280210e+00 -2.8943054333e+00 1.6710280210e+00 2.8943054333e+00 
34800 6.1940540339e+00 -5.1591603198e-05 1.6710280210e+00 -2.8943054333e+00 1.6710280210e+00 2.8943054333e+00 
34900 6.1940504826e+00 -5.9040468335e-05 1.6710280210e+00 -2.8943054333e+00 1.6710280210e+00 2.8943054333e+00 
35000 6.1940469752e+00 -6.6250900112e-05 1.6710280210e+00 -2.8943054333e+00 1.6710280210e+00 2.8943054333e+00 
35100 6.1940435111e+00 -7.3227051920e-05 1.6710280210e+00 -2.8943054333e+00 1.6710280210e+00 2.8943054333e+00 
35200 6.1940400894e+00 -7.8657682543e-05 1.6710302121e+00 -2.8943092284e+00 1.6710302121e+00 2.8943092284e+00 
35300 6.1940367098e+00 -8.3761044825e-05 1.6710325657e+00 -2.8943133049e+00 1.6710325657e+00 2.8943133049e+00 
35400 6.1940333716e+00 -8.8547052247e-05 1.6710350719e+00 -2.8943176458e+00 1.6710350719e+00 2.8943176458e+00 
35500 6.1940300743e+00 -9.3025509440e-05 1.6710377214e+00 -2.8943222349e+00 1.6710377214e+00 2.8943222349e+00 
35600 6.1940268173e+00 -9.7206107442e-05 1.6710405049e+00 -2.8943270560e+00 1.6710405049e+00 2.8943270560e+00 
35700 6.1940236001e+00 -1.0109841912e-04 1.6710434134e+00 -2.8943320937e+00 1.6710434134e+00 2.8943320937e+00 
35800 6.1940204221e+00 -1.0471189475e-04 1.6710464384e+00 -2.8943373332e+00 1.6710464384e+00 2.8943373332e+00 
35900 6.1940172828e+00 -1.0805585779e-04 1.6710495716e+00 -2.8943427599e+00 1.6710495716e+00 2.8943427599e+00 
36000 6.1940141816e+00 -1.1113950083e-04 1.6710528047e+00 -2.8943483599e+00 1.6710528047e+00 2.8943483599e+00 
36100 6.1940111180e+00 -1.1397188171e-04 1.6710561302e+00 -2.8943541198e+00 1.6710561302e+00 2.8943541198e+00 
36200 6.1940080915e+00 -1.1656191986e-04 1.6710595404e+00 -2.8943600264e+00 1.6710595404e+00 2.8943600264e+00 
36300 6.1940051016e+00 -1.1891839282e-04 1.6710630280e+00 -2.8943660672e+00 1.6710630280e+00 2.8943660672e+00 
36400 6.1940021478e+00 -1.2104993295e-04 1.6710665862e+00 -2.8943722301e+00 1.6710665862e+00 2.8943722301e+00 
36500 6.1939992296e+00 -1.2296502437e-04 1.6710702081e+00 -2.8943785035e+00 1.6710702081e+00 2.8943785035e+00 
36600 6.1939963464e+00 -1.2467200005e-04 1.6710738874e+00 -2.8943848761e+00 1.6710738874e+00 2.8943848761e+00 
36700 6.1939934979e+00 -1.2617903920e-04 1.6710776177e+00 -2.8943913372e+00 1.6710776177e+00 2.8943913372e+00 
36800 6.1939906835e+00 -1.2749416474e-04 1.6710813930e+00 -2.8943978763e+00 1.6710813930e+00 2.8943978763e+00 
36900 6.1939879028e+00 -1.2862524113e-04 1.6710852078e+00 -2.8944044836e+00 1.6710852078e+00 2.8944044836e+00 
37000 6.1939851553e+00 -1.2957997223e-04 1.6710890563e+00 -2.8944111495e+00 1.6710890563e+00 2.8944111495e+00 
37100 6.1939824405e+00 -1.3036589953e-04 1.6710929334e+00 -2.8944178649e+00 1.6710929334e+00 2.8944178649e+00 
37200 6.1939797580e+00 -1.3099040052e-04 1.6710968340e+00 -2.8944246209e+00 1.6710968340e+00 2.8944246209e+00 
37300 6.1939771074e+00 -1.3146068721e-04 1.6711007533e+00 -2.8944314093e+00 1.6711007533e+00 2.8944314093e+00 
37400 6.1939744881e+00 -1.3178380496e-04 1.6711046867e+00 -2.8944382221e+00 1.6711046867e+00 2.8944382221e+00 
37500 6.1939718999e+00 -1.3196663145e-04 1.6711086297e+00 -2.8944450516e+00 1.6711086297e+00 2.8944450516e+00 
37600 6.1939693422e+00 -1.3201587584e-04 1.6711125782e+00 -2.8944518906e+00 1.6711125782e+00 2.8944518906e+00 
37700 6.1939668146e+00 -1.3193807818e-04 1.6711165281e+00 -2.8944587321e+00 1.6711165281e+00 2.8944587321e+00 
37800 6.1939643167e+00 -1.3173960896e-04 1.6711204757e+00 -2.8944655695e+00 1.6711204757e+00 2.8944655695e+00 
37900 6.1939618482e+00 -1.3142666889e-04 1.6711244174e+00 -2.8944723967e+00 1.6711244174e+00 2.8944723967e+00 
38000 6.1939594086e+00 -1.3100528882e-04 1.6711283497e+00 -2.8944792076e+00 1.6711283497e+00 2.8944792076e+00 
38100 6.1939569974e+00 -1.3048132991e-04 1.6711322693e+00 -2.8944859967e+00 1.6711322693e+00 2.8944859967e+00 
38200 6.1939546144e+00 -1.2986048393e-04 1.6711361733e+00 -2.8944927586e+00 1.6711361733e+00 2.8944927586e+00 
38300 6.1939522592e+00 -1.2914827376e-04 1.6711400587e+00 -2.8944994883e+00 1.6711400587e+00 2.8944994883e+00 
38400 6.1939499312e+00 -1.2835005401e-04 1.6711439228e+00 -2.8945061810e+00 1.6711439228e+00 2.8945061810e+00 
38500 6.1939476303e+00 -1.2747101190e-04 1.6711477630e+00 -2.8945128324e+00 1.6711477630e+00 2.8945128324e+00 
38600 6.1939453560e+00 -1.2651616819e-04 1.6711515769e+00 -2.8945194383e+00 1.6711515769e+00 2.8945194383e+00 
38700 6.1939431080e+00 -1.2549037838e-04 1.6711553622e+00 -2.8945259946e+00 1.6711553622e+00 2.8945259946e+00 
38800 6.1939408858e+00 -1.2439833395e-04 1.6711591168e+00 -2.8945324978e+00 1.6711591168e+00 2.8945324978e+00 
38900 6.1939386892e+00 -1.2324456381e-04 1.6711628387e+00 -2.8945389443e+00 1.6711628387e+00 2.8945389443e+00 
39000 6.1939365179e+00 -1.2203343589e-04 1.6711665261e+00 -2.8945453311e+00 1.6711665261e+00 2.8945453311e+00 
39100 6.1939343713e+00 -1.2076915886e-04 1.6711701772e+00 -2.8945516550e+00 1.6711701772e+00 2.8945516550e+00 
39200 6.1939322494e+00 -1.1945578391e-04 1.6711737905e+00 -2.8945579135e+00 1.6711737905e+00 2.8945579135e+00 
39300 6.1939301516e+00 -1.1809720676e-04 1.6711773645e+00 -2.8945641038e+00 1.6711773645e+00 2.8945641038e+00 
39400 6.1939280777e+00 -1.1669716974e-04 1.6711808979e+00 -2.8945702238e+00 1.6711808979e+00 2.8945702238e+00 
39500 6.1939260273e+00 -1.1525926394e-04 1.6711843894e+00 -2.8945762712e+00 1.6711843894e+00 2.8945762712e+00 
39600 6.1939240002e+00 -1.1378693152e-04 1.6711878378e+00 -2.8945822440e+00 1.6711878378e+00 2.8945822440e+00 
39700 6.1939219961e+00 -1.1228346809e-04 1.6711912422e+00 -2.8945881406e+00 1.6711912422e+00 2.8945881406e+00 
39800 6.1939200145e+00 -1.1075202522e-04 1.6711946015e+00 -2.8945939592e+00 1.6711946015e+00 2.8945939592e+00 
39900 6.1939180554e+00 -1.0919561298e-04 1.6711979151e+00 -2.8945996985e+00 1.6711979151e+00 2.8945996985e+00 
40000 6.1939161182e+00 -1.0761710259e-04 1.6712011821e+00 -2.8946053571e+00 1.6712011821e+00 2.8946053571e+00 
40100 6.1939142028e+00 -1.0601922917e-04 1.6712044019e+00 -2.8946109338e+00 1.6712044019e+00 2.8946109338e+00 
40200 6.1939123088e+00 -1.0440459450e-04 1.6712075738e+00 -2.8946164278e+00 1.6712075738e+00 2.8946164278e+00 
40300 6.1939104360e+00 -1.0277566991e-04 1.6712106974e+00 -2.8946218381e+00 1.6712106974e+00 2.8946218381e+00 
40400 6.1939085842e+00 -1.0113479917e-04 1.6712137723e+00 -2.8946271639e+00 1.6712137723e+00 2.8946271639e+00 
40500 6.1939067529e+00 -9.9484201486e-05 1.6712167981e+00 -2.8946324048e+00 1.6712167981e+00 2.8946324048e+00 
40600 6.1939049420e+00 -9.7825974475e-05 1.6712197745e+00 -2.8946375600e+00 1.6712197745e+00 2.8946375600e+00 
40700 6.1939031512e+00 -9.6162097256e-05 1.6712227013e+00 -2.8946426294e+00 1.6712227013e+00 2.8946426294e+00 
40800 6.1939013803e+00 -9.4494433522e-05 1.6712255783e+00 -2.8946476125e+00 1.6712255783e+00 2.8946476125e+00 
40900 6.1938996289e+00 -9.2824734670e-05 1.6712284054e+00 -2.8946525092e+00 1.6712284054e+00 2.8946525092e+00 
41000 6.1938978968e+00 -9.1154642939e-05 1.6712311825e+00 -2.8946573193e+00 1.6712311825e+00 2.8946573193e+00 
41100 6.1938961838e+00 -8.9485694587e-05 1.6712339097e+00 -2.8946620429e+00 1.6712339097e+00 2.8946620429e+00 
41200 6.1938944896e+00 -8.7819323062e-05 1.6712365869e+00 -2.8946666800e+00 1.6712365869e+00 2.8946666800e+00 
41300 6.1938928140e+00 -8.6156862204e-05 1.6712392143e+00 -2.8946712308e+00 1.6712392143e+00 2.8946712308e+00 
41400 6.1938911567e+00 -8.4499549436e-05 1.6712417919e+00 -2.8946756954e+00 1.6712417919e+00 2.8946756954e+00 
41500 6.1938895176e+00 -8.2848528968e-05 1.6712443200e+00 -2.8946800741e+00 1.6712443200e+00 2.8946800741e+00 
41600 6.1938878963e+00 -8.1204854988e-05 1.6712467986e+00 -2.8946843672e+00 1.6712467986e+00 2.8946843672e+00 
41700 6.1938862927e+00 -7.9569494854e-05 1.6712492281e+00 -2.8946885752e+00 1.6712492281e+00 2.8946885752e+00 
41800 6.1938847065e+00 -7.7943332270e-05 1.6712516086e+00 -2.8946926984e+00 1.6712516086e+00 2.8946926984e+00 
41900 6.1938831375e+00 -7.6327170441e-05 1.6712539405e+00 -2.8946967374e+00 1.6712539405e+00 2.8946967374e+00 
42000 6.1938815855e+00 -7.4721735225e-05 1.6712562241e+00 -2.8947006925e+00 1.6712562241e+00 2.8947006925e+00 
42100 6.1938800502e+00 -7.3127678239e-05 1.6712584596e+00 -2.8947045645e+00 1.6712584596e+00 2.8947045645e+00 
42200 6.1938785315e+00 -7.1545579958e-05 1.6712606474e+00 -2.8947083539e+00 1.6712606474e+00 2.8947083539e+00 
42300 6.1938770292e+00 -6.9975952771e-05 1.6712627878e+00 -2.8947120613e+00 1.6712627878e+00 2.8947120613e+00 
42400 6.1938755431e+00 -6.9694250194e-05 1.6712627878e+00 -2.8947120613e+00 1.6712627878e+00 2.8947120613e+00 
42500 6.1938740730e+00 -6.9401080996e-05 1.6712627878e+00 -2.8947120613e+00 1.6712627878e+00 2.8947120613e+00 
42600 6.1938726186e+00 -6.9096915954e-05 1.6712627878e+00 -2.8947120613e+00 1.6712627878e+00 2.8947120613e+00 
42700 6.1938711797e+00 -6.8782175218e-05 1.6712627878e+00 -2.8947120613e+00 1.6712627878e+00 2.8947120613e+00 
42800 6.1938697562e+00 -6.8457230062e-05 1.6712627878e+00 -2.8947120613e+00 1.6712627878e+00 2.8947120613e+00 
42900 6.1938683478e+00 -6.8122404658e-05 1.6712627878e+00 -2.8947120613e+00 1.6712627878e+00 2.8947120613e+00 
43000 6.1938669544e+00 -6.7777977871e-05 1.6712627878e+00 -2.8947120613e+00 1.6712627878e+00 2.8947120613e+00 
43100 6.1938655757e+00 -6.7424185065e-05 1.6712627878e+00 -2.8947120613e+00 1.6712627878e+00 2.8947120613e+00 
43200 6.1938642116e+00 -6.7061219927e-05 1.6712627878e+00 -2.8947120613e+00 1.6712627878e+00 2.8947120613e+00 
43300 6.1938628619e+00 -6.6689236292e-05 1.6712627878e+00 -2.8947120613e+00 1.6712627878e+00 2.8947120613e+00 
43400 6.1938615264e+00 -6.6308349974e-05 1.6712627878e+00 -2.8947120613e+00 1.6712627878e+00 2.8947120613e+00 
43500 6.1938602049e+00 -6.5918640589e-05 1.6712627878e+00 -2.8947120613e+00 1.6712627878e+00 2.8947120613e+00 
43600 6.1938588974e+00 -6.5520153384e-05 1.6712627878e+00 -2.8947120613e+00 1.6712627878e+00 2.8947120613e+00 
43700 6.1938576035e+00 -6.5112901044e-05 1.6712627878e+00 -2.8947120613e+00 1.6712627878e+00 2.8947120613e+00 
43800 6.1938563231e+00 -6.4696865501e-05 1.6712627878e+00 -2.8947120613e+00 1.6712627878e+00 2.8947120613e+00 
43900 6.1938550562e+00 -6.4271999719e-05 1.6712627878e+00 -2.8947120613e+00 1.6712627878e+00 2.8947120613e+00 
44000 6.1938538024e+00 -6.3838229463e-05 1.6712627878e+00 -2.8947120613e+00 1.6712627878e+00 2.8947120613e+00 
44100 6.1938525616e+00 -6.3395455049e-05 1.6712627878e+00 -2.8947120613e+00 1.6712627878e+00 2.8947120613e+00 
44200 6.1938513337e+00 -6.2943553073e-05 1.6712627878e+00 -2.8947120613e+00 1.6712627878e+00 2.8947120613e+00 
44300 6.1938501186e+00 -6.2482378106e-05 1.6712627878e+00 -2.8947120613e+00 1.6712627878e+00 2.8947120613e+00 
44400 6.1938489160e+00 -6.2011764372e-05 1.6712627878e+00 -2.8947120613e+00 1.6712627878e+00 2.8947120613e+00 
44500 6.1938477258e+00 -6.1531527387e-05 1.6712627878e+00 -2.8947120613e+00 1.6712627878e+00 2.8947120613e+00 
44600 6.1938465478e+00 -6.1041465574e-05 1.6712627878e+00 -2.8947120613e+00 1.6712627878e+00 2.8947120613e+00 
44700 6.1938453820e+00 -6.0541361838e-05 1.6712627878e+00 -2.8947120613e+00 1.6712627878e+00 2.8947120613e+00 
44800 6.1938442281e+00 -6.0030985105e-05 1.6712627878e+00 -2.8947120613e+00 1.6712627878e+00 2.8947120613e+00 
44900 6.1938430861e+00 -5.9510091832e-05 1.6712627878e+00 -2.8947120613e+00 1.6712627878e+00 2.8947120613e+00 
45000 6.1938419557e+00 -5.8978427472e-05 1.6712627878e+00 -2.8947120613e+00 1.6712627878e+00 2.8947120613e+00 
45100 6.1938408369e+00 -5.8435727901e-05 1.6712627878e+00 -2.8947120613e+00 1.6712627878e+00 2.8947120613e+00 
45200 6.1938397295e+00 -5.7881720801e-05 1.6712627878e+00 -2.8947120613e+00 1.6712627878e+00 2.8947120613e+00 
45300 6.1938386333e+00 -5.7316127011e-05 1.6712627878e+00 -2.8947120613e+00 1.6712627878e+00 2.8947120613e+00 
45400 6.1938375482e+00 -5.6738661823e-05 1.6712627878e+00 -2.8947120613e+00 1.6712627878e+00 2.8947120613e+00 
45500 6.1938364742e+00 -5.6149036244e-05 1.6712627878e+00 -2.8947120613e+00 1.6712627878e+00 2.8947120613e+00 
45600 6.1938354110e+00 -5.5546958212e-05 1.6712627878e+00 -2.8947120613e+00 1.6712627878e+00 2.8947120613e+00 
45700 6.1938343585e+00 -5.4932133760e-05 1.6712627878e+00 -2.8947120613e+00 1.6712627878e+00 2.8947120613e+00 
45800 6.1938333167e+00 -5.4304268149e-05 1.6712627878e+00 -2.8947120613e+00 1.6712627878e+00 2.8947120613e+00 
45900 6.1938322853e+00 -5.3663066943e-05 1.6712627878e+00 -2.8947120613e+00 1.6712627878e+00 2.8947120613e+00 
46000 6.1938312643e+00 -5.3008237044e-05 1.6712627878e+00 -2.8947120613e+00 1.6712627878e+00 2.8947120613e+00 
46100 6.1938302535e+00 -5.2339487681e-05 1.6712627878e+00 -2.8947120613e+00 1.6712627878e+00 2.8947120613e+00 
46200 6.1938292528e+00 -5.1656531352e-05 1.6712627878e+00 -2.8947120613e+00 1.6712627878e+00 2.8947120613e+00 
46300 6.1938282622e+00 -5.0959084725e-05 1.6712627878e+00 -2.8947120613e+00 1.6712627878e+00 2.8947120613e+00 
46400 6.1938272814e+00 -5.0246869484e-05 1.6712627878e+00 -2.8947120613e+00 1.6712627878e+00 2.8947120613e+00 
46500 6.1938263104e+00 -4.9519613140e-05 1.6712627878e+00 -2.8947120613e+00 1.6712627878e+00 2.8947120613e+00 
46600 6.1938253491e+00 -4.8777049790e-05 1.6712627878e+00 -2.8947120613e+00 1.6712627878e+00 2.8947120613e+00 
46700 6.1938243972e+00 -4.8018920833e-05 1.6712627878e+00 -2.8947120613e+00 1.6712627878e+00 2.8947120613e+00 
46800 6.1938234549e+00 -4.7244975642e-05 1.6712627878e+00 -2.8947120613e+00 1.6712627878e+00 2.8947120613e+00 
46900 6.1938225218e+00 -4.6454972199e-05 1.6712627878e+00 -2.8947120613e+00 1.6712627878e+00 2.8947120613e+00 
47000 6.1938215980e+00 -4.5648677666e-05 1.6712627878e+00 -2.8947120613e+00 1.6712627878e+00 2.8947120613e+00 
47100 6.1938206833e+00 -4.4825868943e-05 1.6712627878e+00 -2.8947120613e+00 1.6712627878e+00 2.8947120613e+00 
47200 6.1938197776e+00 -4.3986333160e-05 1.6712627878e+00 -2.8947120613e+00 1.6712627878e+00 2.8947120613e+00 
47300 6.1938188808e+00 -4.3129868136e-05 1.6712627878e+00 -2.8947120613e+00 1.6712627878e+00 2.8947120613e+00 
47400 6.1938179929e+00 -4.2256282802e-05 1.6712627878e+00 -2.8947120613e+00 1.6712627878e+00 2.8947120613e+00 
47500 6.1938171136e+00 -4.1365397576e-05 1.6712627878e+00 -2.8947120613e+00 1.6712627878e+00 2.8947120613e+00 
47600 6.1938162430e+00 -4.0457044706e-05 1.6712627878e+00 -2.8947120613e+00 1.6712627878e+00 2.8947120613e+00 
47700 6.1938153808e+00 -3.9531068570e-05 1.6712627878e+00 -2.8947120613e+00 1.6712627878e+00 2.8947120613e+00 
47800 6.1938145271e+00 -3.8587325942e-05 1.6712627878e+00 -2.8947120613e+00 1.6712627878e+00 2.8947120613e+00 
47900 6.1938136818e+00 -3.7625686221e-05 1.6712627878e+00 -2.8947120613e+00 1.6712627878e+00 2.8947120613e+00 
48000 6.1938128446e+00 -3.6646031626e-05 1.6712627878e+00 -2.8947120613e+00 1.6712627878e+00 2.8947120613e+00 
48100 6.1938120156e+00 -3.5648257355e-05 1.6712627878e+00 -2.8947120613e+00 1.6712627878e+00 2.8947120613e+00 
48200 6.1938111947e+00 -3.4632271710e-05 1.6712627878e+00 -2.8947120613e+00 1.6712627878e+00 2.8947120613e+00 
48300 6.1938103817e+00 -3.3597996195e-05 1.6712627878e+00 -2.8947120613e+00 1.6712627878e+00 2.8947120613e+00 
48400 6.1938095766e+00 -3.2545365574e-05 1.6712627878e+00 -2.8947120613e+00 1.6712627878e+00 2.8947120613e+00 
48500 6.1938087794e+00 -3.1474327914e-05 1.6712627878e+00 -2.8947120613e+00 1.6712627878e+00 2.8947120613e+00 
48600 6.1938079898e+00 -3.0384844581e-05 1.6712627878e+00 -2.8947120613e+00 1.6712627878e+00 2.8947120613e+00 
48700 6.1938072078e+00 -2.9276890220e-05 1.6712627878e+00 -2.8947120613e+00 1.6712627878e+00 2.8947120613e+00 
48800 6.1938064334e+00 -2.8150452712e-05 1.6712627878e+00 -2.8947120613e+00 1.6712627878e+00 2.8947120613e+00 
48900 6.1938056665e+00 -2.7005533087e-05 1.6712627878e+00 -2.8947120613e+00 1.6712627878e+00 2.8947120613e+00 
49000 6.1938049069e+00 -2.5842145436e-05 1.6712627878e+00 -2.8947120613e+00 1.6712627878e+00 2.8947120613e+00 
49100 6.1938041546e+00 -2.4660316785e-05 1.6712627878e+00 -2.8947120613e+00 1.6712627878e+00 2.8947120613e+00 
49200 6.1938034096e+00 -2.3460086947e-05 1.6712627878e+00 -2.8947120613e+00 1.6712627878e+00 2.8947120613e+00 
49300 6.1938026717e+00 -2.2241508363e-05 1.6712627878e+00 -2.8947120613e+00 1.6712627878e+00 2.8947120613e+00 
49400 6.1938019409e+00 -2.1004645912e-05 1.6712627878e+00 -2.8947120613e+00 1.6712627878e+00 2.8947120613e+00 
49500 6.1938012170e+00 -1.9749576708e-05 1.6712627878e+00 -2.8947120613e+00 1.6712627878e+00 2.8947120613e+00 
49600 6.1938005001e+00 -1.8476389881e-05 1.6712627878e+00 -2.8947120613e+00 1.6712627878e+00 2.8947120613e+00 
49700 6.1937997901e+00 -1.7185186333e-05 1.6712627878e+00 -2.8947120613e+00 1.6712627878e+00 2.8947120613e+00 
49800 6.1937990868e+00 -1.5876078492e-05 1.6712627878e+00 -2.8947120613e+00 1.6712627878e+00 2.8947120613e+00 
49900 6.1937983902e+00 -1.4549190037e-05 1.6712627878e+00 -2.8947120613e+00 1.6712627878e+00 2.8947120613e+00 
50000 6.1937977003e+00 -1.3204655617e-05 1.6712627878e+00 -2.8947120613e+00 1.6712627878e+00 2.8947120613e+00 
50100 6.1937970169e+00 -1.1842620564e-05 1.6712627878e+00 -2.8947120613e+00 1.6712627878e+00 2.8947120613e+00 
50200 6.1937963401e+00 -1.0463240578e-05 1.6712627878e+00 -2.8947120613e+00 1.6712627878e+00 2.8947120613e+00 
50300 6.1937956696e+00 -9.0666814186e-06 1.6712627878e+00 -2.8947120613e+00 1.6712627878e+00 2.8947120613e+00 
50400 6.1937950056e+00 -7.6531185744e-06 1.6712627878e+00 -2.8947120613e+00 1.6712627878e+00 2.8947120613e+00 
50500 6.1937943478e+00 -6.2227369337e-06 1.6712627878e+00 -2.8947120613e+00 1.6712627878e+00 2.8947120613e+00 
50600 6.1937936962e+00 -4.7757304396e-06 1.6712627878e+00 -2.8947120613e+00 1.6712627878e+00 2.8947120613e+00 
50700 6.1937930508e+00 -3.3123017461e-06 1.6712627878e+00 -2.8947120613e+00 1.6712627878e+00 2.8947120613e+00 
50800 6.1937924116e+00 -1.8326618631e-06 1.6712627878e+00 -2.8947120613e+00 1.6712627878e+00 2.8947120613e+00 
50900 6.1937917783e+00 -3.3702979498e-07 1.6712627878e+00 -2.8947120613e+00 1.6712627878e+00 2.8947120613e+00 
51000 6.1937911511e+00 1.1743678158e-06 1.6712627878e+00 -2.8947120613e+00 1.6712627878e+00 2.8947120613e+00 
51100 6.1937905297e+00 2.7012970606e-06 1.6712627878e+00 -2.8947120613e+00 1.6712627878e+00 2.8947120613e+00 
51200 6.1937899143e+00 4.2435171259e-06 1.6712627878e+00 -2.8947120613e+00 1.6712627878e+00 2.8947120613e+00 
51300 6.1937893046e+00 5.8007806704e-06 1.6712627878e+00 -2.8947120613e+00 1.6712627878e+00 2.8947120613e+00 
51400 6.1937887006e+00 7.3728341879e-06 1.6712627878e+00 -2.8947120613e+00 1.6712627878e+00 2.8947120613e+00 
51500 6.1937881023e+00 8.9594183817e-06 1.6712627878e+00 -2.8947120613e+00 1.6712627878e+00 2.8947120613e+00 
51600 6.1937875097e+00 1.0560268538e-05 1.6712627878e+00 -2.8947120613e+00 1.6712627878e+00 2.8947120613e+00 
51700 6.1937869226e+00 1.2175114889e-05 1.6712627878e+00 -2.8947120613e+00 1.6712627878e+00 2.8947120613e+00 
51800 6.1937863410e+00 1.3803682984e-05 1.6712627878e+00 -2.8947120613e+00 1.6712627878e+00 2.8947120613e+00 
51900 6.1937857649e+00 1.5445694053e-05 1.6712627878e+00 -2.8947120613e+00 1.6712627878e+00 2.8947120613e+00 
52000 6.1937851942e+00 1.7100865367e-05 1.6712627878e+00 -2.8947120613e+00 1.6712627878e+00 2.8947120613e+00 
52100 6.1937846288e+00 1.8768910603e-05 1.6712627878e+00 -2.8947120613e+00 1.6712627878e+00 2.8947120613e+00 
52200 6.1937840687e+00 2.0449540192e-05 1.6712627878e+00 -2.8947120613e+00 1.6712627878e+00 2.8947120613e+00 
52300 6.1937835139e+00 2.2142461670e-05 1.6712627878e+00 -2.8947120613e+00 1.6712627878e+00 2.8947120613e+00 
52400 6.1937829642e+00 2.3847380025e-05 1.6712627878e+00 -2.8947120613e+00 1.6712627878e+00 2.8947120613e+00 
52500 6.1937824197e+00 2.5563998038e-05 1.6712627878e+00 -2.8947120613e+00 1.6712627878e+00 2.8947120613e+00 
52600 6.1937818802e+00 2.7292016613e-05 1.6712627878e+00 -2.8947120613e+00 1.6712627878e+00 2.8947120613e+00 
52700 6.1937813458e+00 2.9031135106e-05 1.6712627878e+00 -2.8947120613e+00 1.6712627878e+00 2.8947120613e+00 
52800 6.1937808163e+00 3.0781051648e-05 1.6712627878e+00 -2.8947120613e+00 1.6712627878e+00 2.8947120613e+00 
52900 6.1937802918e+00 3.2541463459e-05 1.6712627878e+00 -2.8947120613e+00 1.6712627878e+00 2.8947120613e+00 
53000 6.1937797722e+00 3.4312067150e-05 1.6712627878e+00 -2.8947120613e+00 1.6712627878e+00 2.8947120613e+00 
53100 6.1937792574e+00 3.6092559029e-05 1.6712627878e+00 -2.8947120613e+00 1.6712627878e+00 2.8947120613e+00 
53200 6.1937787474e+00 3.7882635390e-05 1.6712627878e+00 -2.8947120613e+00 1.6712627878e+00 2.8947120613e+00 
53300 6.1937782421e+00 3.9681992795e-05 1.6712627878e+00 -2.8947120613e+00 1.6712627878e+00 2.8947120613e+00 
53400 6.1937777415e+00 4.1490328355e-05 1.6712627878e+00 -2.8947120613e+00 1.6712627878e+00 2.8947120613e+00 
53500 6.1937772455e+00 4.3307339990e-05 1.6712627878e+00 -2.8947120613e+00 1.6712627878e+00 2.8947120613e+00 
53600 6.1937767542e+00 4.5132726691e-05 1.6712627878e+00 -2.8947120613e+00 1.6712627878e+00 2.8947120613e+00 
53700 6.1937762674e+00 4.6966188772e-05 1.6712627878e+00 -2.8947120613e+00 1.6712627878e+00 2.8947120613e+00 
53800 6.1937757851e+00 4.8807428108e-05 1.6712627878e+00 -2.8947120613e+00 1.6712627878e+00 2.8947120613e+00 
53900 6.1937753073e+00 5.0656148367e-05 1.6712627878e+00 -2.8947120613e+00 1.6712627878e+00 2.8947120613e+00 
54000 6.1937748339e+00 5.2512055236e-05 1.6712627878e+00 -2.8947120613e+00 1.6712627878e+00 2.8947120613e+00 
54100 6.1937743648e+00 5.4374856629e-05 1.6712627878e+00 -2.8947120613e+00 1.6712627878e+00 2.8947120613e+00 
54200 6.1937739001e+00 5.6244262900e-05 1.6712627878e+00 -2.8947120613e+00 1.6712627878e+00 2.8947120613e+00 
54300 6.1937734397e+00 5.8119987029e-05 1.6712627878e+00 -2.8947120613e+00 1.6712627878e+00 2.8947120613e+00 
54400 6.1937729836e+00 6.0001744819e-05 1.6712627878e+00 -2.8947120613e+00 1.6712627878e+00 2.8947120613e+00 
54500 6.1937725316e+00 6.1889255063e-05 1.6712627878e+00 -2.8947120613e+00 1.6712627878e+00 2.8947120613e+00 
54600 6.1937720839e+00 6.3782239720e-05 1.6712627878e+00 -2.8947120613e+00 1.6712627878e+00 2.8947120613e+00 
54700 6.1937716402e+00 6.5680424068e-05 1.6712627878e+00 -2.8947120613e+00 1.6712627878e+00 2.8947120613e+00 
54800 6.1937712006e+00 6.7583536856e-05 1.6712627878e+00 -2.8947120613e+00 1.6712627878e+00 2.8947120613e+00 
54900 6.1937707651e+00 6.9491310446e-05 1.6712627878e+00 -2.8947120613e+00 1.6712627878e+00 2.8947120613e+00 
55000 6.1937703336e+00 7.1403480945e-05 1.6712627878e+00 -2.8947120613e+00 1.6712627878e+00 2.8947120613e+00 
55100 6.1937699059e+00 7.2001706726e-05 1.6712606516e+00 -2.8947083613e+00 1.6712606516e+00 2.8947083613e+00 
55200 6.1937694821e+00 7.2589211861e-05 1.6712584975e+00 -2.8947046303e+00 1.6712584975e+00 2.8947046303e+00 
55300 6.1937690621e+00 7.3165923373e-05 1.6712563258e+00 -2.8947008688e+00 1.6712563258e+00 2.8947008688e+00 
55400 6.1937686460e+00 7.3731776157e-05 1.6712541369e+00 -2.8946970774e+00 1.6712541369e+00 2.8946970774e+00 
55500 6.1937682337e+00 7.4286713074e-05 1.6712519310e+00 -2.8946932567e+00 1.6712519310e+00 2.8946932567e+00 
55600 6.1937678252e+00 7.4830685013e-05 1.6712497085e+00 -2.8946894072e+00 1.6712497085e+00 2.8946894072e+00 
55700 6.1937674204e+00 7.5363650911e-05 1.6712474697e+00 -2.8946855296e+00 1.6712474697e+00 2.8946855296e+00 
55800 6.1937670193e+00 7.5885577768e-05 1.6712452150e+00 -2.8946816243e+00 1.6712452150e+00 2.8946816243e+00 
55900 6.1937666219e+00 7.6396440617e-05 1.6712429447e+00 -2.8946776920e+00 1.6712429447e+00 2.8946776920e+00 
56000 6.1937662281e+00 7.6896222486e-05 1.6712406591e+00 -2.8946737332e+00 1.6712406591e+00 2.8946737332e+00 
56100 6.1937658378e+00 7.7384914332e-05 1.6712383585e+00 -2.8946697485e+00 1.6712383585e+00 2.8946697485e+00 
56200 6.1937654512e+00 7.7862514953e-05 1.6712360433e+00 -2.8946657384e+00 1.6712360433e+00 2.8946657384e+00 
56300 6.1937650680e+00 7.8329030888e-05 1.6712337138e+00 -2.8946617037e+00 1.6712337138e+00 2.8946617037e+00 
56400 6.1937646883e+00 7.8784476294e-05 1.6712313704e+00 -2.8946576447e+00 1.6712313704e+00 2.8946576447e+00 
56500 6.1937643121e+00 7.9228872813e-05 1.6712290133e+00 -2.8946535621e+00 1.6712290133e+00 2.8946535621e+00 
56600 6.1937639393e+00 7.9662249416e-05 1.6712266429e+00 -2.8946494565e+00 1.6712266429e+00 2.8946494565e+00 
56700 6.1937635699e+00 8.0084642244e-05 1.6712242596e+00 -2.8946453284e+00 1.6712242596e+00 2.8946453284e+00 
56800 6.1937632039e+00 8.0496094431e-05 1.6712218636e+00 -2.8946411784e+00 1.6712218636e+00 2.8946411784e+00 
56900 6.1937628412e+00 8.0896655915e-05 1.6712194553e+00 -2.8946370071e+00 1.6712194553e+00 2.8946370071e+00 
57000 6.1937624817e+00 8.1286383242e-05 1.6712170350e+00 -2.8946328151e+00 1.6712170350e+00 2.8946328151e+00 
57100 6.1937621255e+00 8.1665339362e-05 1.6712146030e+00 -2.8946286028e+00 1.6712146030e+00 2.8946286028e+00 
57200 6.1937617726e+00 8.2033593417e-05 1.6712121597e+00 -2.8946243709e+00 1.6712121597e+00 2.8946243709e+00 
57300 6.1937614229e+00 8.2391220515e-05 1.6712097054e+00 -2.8946201199e+00 1.6712097054e+00 2.8946201199e+00 
57400 6.1937610763e+00 8.2738301509e-05 1.6712072404e+00 -2.8946158504e+00 1.6712072404e+00 2.8946158504e+00 
57500 6.1937607328e+00 8.3074922765e-05 1.6712047650e+00 -2.8946115629e+00 1.6712047650e+00 2.8946115629e+00 
57600 6.1937603925e+00 8.3401175924e-05 1.6712022795e+00 -2.8946072579e+00 1.6712022795e+00 2.8946072579e+00 
57700 6.1937600553e+00 8.3717157667e-05 1.6711997843e+00 -2.8946029360e+00 1.6711997843e+00 2.8946029360e+00 
57800 6.1937597211e+00 8.4022969472e-05 1.6711972796e+00 -2.8945985977e+00 1.6711972796e+00 2.8945985977e+00 
57900 6.1937593899e+00 8.4318717366e-05 1.6711947657e+00 -2.8945942436e+00 1.6711947657e+00 2.8945942436e+00 
58000 6.1937590617e+00 8.4604511688e-05 1.6711922430e+00 -2.8945898741e+00 1.6711922430e+00 2.8945898741e+00 
58100 6.1937587365e+00 8.4880466833e-05 1.6711897118e+00 -2.8945854899e+00 1.6711897118e+00 2.8945854899e+00 
58200 6.1937584142e+00 8.5146701019e-05 1.6711871722e+00 -2.8945810913e+00 1.6711871722e+00 2.8945810913e+00 
58300 6.1937580948e+00 8.5403336029e-05 1.6711846248e+00 -2.8945766789e+00 1.6711846248e+00 2.8945766789e+00 
58400 6.1937577783e+00 8.5650496977e-05 1.6711820696e+00 -2.8945722532e+00 1.6711820696e+00 2.8945722532e+00 
58500 6.1937574647e+00 8.5888312055e-05 1.6711795070e+00 -2.8945678147e+00 1.6711795070e+00 2.8945678147e+00 
58600 6.1937571539e+00 8.6116912306e-05 1.6711769373e+00 -2.8945633639e+00 1.6711769373e+00 2.8945633639e+00 
58700 6.1937568459e+00 8.6336431369e-05 1.6711743608e+00 -2.8945589012e+00 1.6711743608e+00 2.8945589012e+00 
58800 6.1937565406e+00 8.6547005257e-05 1.6711717777e+00 -2.8945544271e+00 1.6711717777e+00 2.8945544271e+00 
58900 6.1937562382e+00 8.6748772121e-05 1.6711691883e+00 -2.8945499421e+00 1.6711691883e+00 2.8945499421e+00 
59000 6.1937559384e+00 8.6941872018e-05 1.6711665928e+00 -2.8945454467e+00 1.6711665928e+00 2.8945454467e+00 
59100 6.1937556413e+00 8.7126446688e-05 1.6711639916e+00 -2.8945409412e+00 1.6711639916e+00 2.8945409412e+00 
59200 6.1937553469e+00 8.7302639338e-05 1.6711613848e+00 -2.8945364262e+00 1.6711613848e+00 2.8945364262e+00 
59300 6.1937550552e+00 8.7470594424e-05 1.6711587728e+00 -2.8945319020e+00 1.6711587728e+00 2.8945319020e+00 
59400 6.1937547661e+00 8.7630457435e-05 1.6711561557e+00 -2.8945273691e+00 1.6711561557e+00 2.8945273691e+00 
59500 6.1937544796e+00 8.7782374696e-05 1.6711535339e+00 -2.8945228279e+00 1.6711535339e+00 2.8945228279e+00 
59600 6.1937541956e+00 8.7926493164e-05 1.6711509075e+00 -2.8945182789e+00 1.6711509075e+00 2.8945182789e+00 
59700 6.1937539143e+00 8.8062960231e-05 1.6711482768e+00 -2.8945137223e+00 1.6711482768e+00 2.8945137223e+00 
59800 6.1937536354e+00 8.8191923538e-05 1.6711456420e+00 -2.8945091587e+00 1.6711456420e+00 2.8945091587e+00 
59900 6.1937533590e+00 8.8313530790e-05 1.6711430033e+00 -2.8945045884e+00 1.6711430033e+00 2.8945045884e+00 
60000 6.1937530852e+00 8.8427929582e-05 1.6711403610e+00 -2.8945000118e+00 1.6711403610e+00 2.8945000118e+00 
60100 6.1937528137e+00 8.8535267222e-05 1.6711377152e+00 -2.8944954293e+00 1.6711377152e+00 2.8944954293e+00 
60200 6.1937525448e+00 8.8635690575e-05 1.6711350663e+00 -2.8944908411e+00 1.6711350663e+00 2.8944908411e+00 
60300 6.1937522782e+00 8.8729345892e-05 1.6711324143e+00 -2.8944862478e+00 1.6711324143e+00 2.8944862478e+00 
60400 6.1937520140e+00 8.8816378672e-05 1.6711297596e+00 -2.8944816496e+00 1.6711297596e+00 2.8944816496e+00 
60500 6.1937517522e+00 8.8896933506e-05 1.6711271022e+00 -2.8944770469e+00 1.6711271022e+00 2.8944770469e+00 
60600 6.1937514927e+00 8.8971153943e-05 1.6711244424e+00 -2.8944724400e+00 1.6711244424e+00 2.8944724400e+00 
60700 6.1937512356e+00 8.9039182355e-05 1.6711217804e+00 -2.8944678293e+00 1.6711217804e+00 2.8944678293e+00 
60800 6.1937509808e+00 8.9101159810e-05 1.6711191163e+00 -2.8944632150e+00 1.6711191163e+00 2.8944632150e+00 
60900 6.1937507282e+00 8.9157225955e-05 1.6711164504e+00 -2.8944585975e+00 1.6711164504e+00 2.8944585975e+00 
61000 6.1937504779e+00 8.9207518902e-05 1.6711137828e+00 -2.8944539771e+00 1.6711137828e+00 2.8944539771e+00 
61100 6.1937502298e+00 8.9252175119e-05 1.6711111137e+00 -2.8944493541e+00 1.6711111137e+00 2.8944493541e+00 
61200 6.1937499840e+00 8.9291329332e-05 1.6711084433e+00 -2.8944447287e+00 1.6711084433e+00 2.8944447287e+00 
61300 6.1937497404e+00 8.9325114428e-05 1.6711057717e+00 -2.8944401013e+00 1.6711057717e+00 2.8944401013e+00 
61400 6.1937494989e+00 8.9353661373e-05 1.6711030990e+00 -2.8944354722e+00 1.6711030990e+00 2.8944354722e+00 
61500 6.1937492596e+00 8.9377099122e-05 1.6711004255e+00 -2.8944308416e+00 1.6711004255e+00 2.8944308416e+00 
61600 6.1937490225e+00 8.9395554553e-05 1.6710977513e+00 -2.8944262097e+00 1.6710977513e+00 2.8944262097e+00 
61700 6.1937487874e+00 8.9409152387e-05 1.6710950766e+00 -2.8944215769e+00 1.6710950766e+00 2.8944215769e+00 
61800 6.1937485545e+00 8.9418015134e-05 1.6710924014e+00 -2.8944169434e+00 1.6710924014e+00 2.8944169434e+00 
61900 6.1937483236e+00 8.9422263030e-05 1.6710897260e+00 -2.8944123094e+00 1.6710897260e+00 2.8944123094e+00 
62000 6.1937480949e+00 8.9422013987e-05 1.6710870504e+00 -2.8944076752e+00 1.6710870504e+00 2.8944076752e+00 
62100 6.1937478681e+00 8.9417383546e-05 1.6710843749e+00 -2.8944030410e+00 1.6710843749e+00 2.8944030410e+00 
62200 6.1937476434e+00 8.9408484836e-05 1.6710816994e+00 -2.8943984070e+00 1.6710816994e+00 2.8943984070e+00 
62300 6.1937474207e+00 8.9395428538e-05 1.6710790243e+00 -2.8943937735e+00 1.6710790243e+00 2.8943937735e+00 
62400 6.1937471999e+00 8.9378322857e-05 1.6710763495e+00 -2.8943891406e+00 1.6710763495e+00 2.8943891406e+00 
62500 6.1937469812e+00 8.9357273491e-05 1.6710736752e+00 -2.8943845086e+00 1.6710736752e+00 2.8943845086e+00 
62600 6.1937467644e+00 8.9332383619e-05 1.6710710016e+00 -2.8943798778e+00 1.6710710016e+00 2.8943798778e+00 
62700 6.1937465495e+00 8.9303753875e-05 1.6710683287e+00 -2.8943752481e+00 1.6710683287e+00 2.8943752481e+00 
62800 6.1937463365e+00 8.9271482352e-05 1.6710656566e+00 -2.8943706200e+00 1.6710656566e+00 2.8943706200e+00 
62900 6.1937461255e+00 8.9235664577e-05 1.6710629855e+00 -2.8943659935e+00 1.6710629855e+00 2.8943659935e+00 
63000 6.1937459163e+00 8.9196393522e-05 1.6710603155e+00 -2.8943613689e+00 1.6710603155e+00 2.8943613689e+00 
63100 6.1937457090e+00 8.9153759601e-05 1.6710576466e+00 -2.8943567463e+00 1.6710576466e+00 2.8943567463e+00 
63200 6.1937455035e+00 8.9107850677e-05 1.6710549790e+00 -2.8943521259e+00 1.6710549790e+00 2.8943521259e+00 
63300 6.1937452999e+00 8.9058752071e-05 1.6710523128e+00 -2.8943475079e+00 1.6710523128e+00 2.8943475079e+00 
63400 6.1937450981e+00 8.9006546578e-05 1.6710496481e+00 -2.8943428924e+00 1.6710496481e+00 2.8943428924e+00 
63500 6.1937448980e+00 8.8951314475e-05 1.6710469849e+00 -2.8943382796e+00 1.6710469849e+00 2.8943382796e+00 
63600 6.1937446998e+00 8.8893133555e-05 1.6710443233e+00 -2.8943336697e+00 1.6710443233e+00 2.8943336697e+00 
63700 6.1937445033e+00 8.8832079138e-05 1.6710416635e+00 -2.8943290628e+00 1.6710416635e+00 2.8943290628e+00 
63800 6.1937443086e+00 8.8768224104e-05 1.6710390055e+00 -2.8943244590e+00 1.6710390055e+00 2.8943244590e+00 
63900 6.1937441156e+00 8.8701638921e-05 1.6710363495e+00 -2.8943198586e+00 1.6710363495e+00 2.8943198586e+00 
64000 6.1937439243e+00 8.8632391676e-05 1.6710336954e+00 -2.8943152616e+00 1.6710336954e+00 2.8943152616e+00 
64100 6.1937437348e+00 8.8560548107e-05 1.6710310434e+00 -2.8943106681e+00 1.6710310434e+00 2.8943106681e+00 
64200 6.1937435469e+00 8.8486171645e-05 1.6710283935e+00 -2.8943060784e+00 1.6710283935e+00 2.8943060784e+00 
64300 6.1937433607e+00 8.8409323452e-05 1.6710257458e+00 -2.8943014925e+00 1.6710257458e+00 2.8943014925e+00 
64400 6.1937431761e+00 8.8330062458e-05 1.6710231005e+00 -2.8942969106e+00 1.6710231005e+00 2.8942969106e+00 
64500 6.1937429932e+00 8.8248445405e-05 1.6710204575e+00 -2.8942923328e+00 1.6710204575e+00 2.8942923328e+00 
64600 6.1937428119e+00 8.8164526895e-05 1.6710178169e+00 -2.8942877592e+00 1.6710178169e+00 2.8942877592e+00 
64700 6.1937426322e+00 8.8078359436e-05 1.6710151789e+00 -2.8942831900e+00 1.6710151789e+00 2.8942831900e+00 
64800 6.1937424542e+00 8.7989993486e-05 1.6710125434e+00 -2.8942786252e+00 1.6710125434e+00 2.8942786252e+00 
64900 6.1937422777e+00 8.7899477504e-05 1.6710099106e+00 -2.8942740650e+00 1.6710099106e+00 2.8942740650e+00 
65000 6.1937421027e+00 8.7806858001e-05 1.6710072804e+00 -2.8942695095e+00 1.6710072804e+00 2.8942695095e+00 
65100 6.1937419294e+00 8.7712179592e-05 1.6710046531e+00 -2.8942649588e+00 1.6710046531e+00 2.8942649588e+00 
65200 6.1937417575e+00 8.7615485044e-05 1.6710020285e+00 -2.8942604130e+00 1.6710020285e+00 2.8942604130e+00 
65300 6.1937415872e+00 8.7516815338e-05 1.6709994069e+00 -2.8942558721e+00 1.6709994069e+00 2.8942558721e+00 
65400 6.1937414185e+00 8.7416209710e-05 1.6709967882e+00 -2.8942513364e+00 1.6709967882e+00 2.8942513364e+00 
65500 6.1937412512e+00 8.7313705717e-05 1.6709941725e+00 -2.8942468059e+00 1.6709941725e+00 2.8942468059e+00 
65600 6.1937410854e+00 8.7209339285e-05 1.6709915599e+00 -2.8942422807e+00 1.6709915599e+00 2.8942422807e+00 
65700 6.1937409210e+00 8.7103144767e-05 1.6709889504e+00 -2.8942377609e+00 1.6709889504e+00 2.8942377609e+00 
65800 6.1937407582e+00 8.6995154994e-05 1.6709863440e+00 -2.8942332466e+00 1.6709863440e+00 2.8942332466e+00 
65900 6.1937405968e+00 8.6885401339e-05 1.6709837409e+00 -2.8942287379e+00 1.6709837409e+00 2.8942287379e+00 
66000 6.1937404368e+00 8.6773913761e-05 1.6709811411e+00 -2.8942242349e+00 1.6709811411e+00 2.8942242349e+00 
66100 6.1937402782e+00 8.6660720871e-05 1.6709785446e+00 -2.8942197376e+00 1.6709785446e+00 2.8942197376e+00 
66200 6.1937401211e+00 8.6545849977e-05 1.6709759515e+00 -2.8942152462e+00 1.6709759515e+00 2.8942152462e+00 
66300 6.1937399653e+00 8.6429327149e-05 1.6709733618e+00 -2.8942107608e+00 1.6709733618e+00 2.8942107608e+00 
66400 6.1937398109e+00 8.6311177264e-05 1.6709707756e+00 -2.8942062813e+00 1.6709707756e+00 2.8942062813e+00 
66500 6.1937396579e+00 8.6191424067e-05 1.6709681930e+00 -2.8942018080e+00 1.6709681930e+00 2.8942018080e+00 
66600 6.1937395063e+00 8.6070090220e-05 1.6709656139e+00 -2.8941973409e+00 1.6709656139e+00 2.8941973409e+00 
66700 6.1937393560e+00 8.5947197354e-05 1.6709630384e+00 -2.8941928801e+00 1.6709630384e+00 2.8941928801e+00 
66800 6.1937392070e+00 8.5822766127e-05 1.6709604666e+00 -2.8941884256e+00 1.6709604666e+00 2.8941884256e+00 
66900 6.1937390593e+00 8.5696816272e-05 1.6709578986e+00 -2.8941839776e+00 1.6709578986e+00 2.8941839776e+00 
67000 6.1937389130e+00 8.5569366643e-05 1.6709553343e+00 -2.8941795361e+00 1.6709553343e+00 2.8941795361e+00 
67100 6.1937387680e+00 8.5440435274e-05 1.6709527738e+00 -2.8941751012e+00 1.6709527738e+00 2.8941751012e+00 
67200 6.1937386242e+00 8.5310039418e-05 1.6709502171e+00 -2.8941706730e+00 1.6709502171e+00 2.8941706730e+00 
67300 6.1937384817e+00 8.5178195606e-05 1.6709476644e+00 -2.8941662515e+00 1.6709476644e+00 2.8941662515e+00 
67400 6.1937383405e+00 8.5044919681e-05 1.6709451156e+00 -2.8941618369e+00 1.6709451156e+00 2.8941618369e+00 
67500 6.1937382006e+00 8.4910226852e-05 1.6709425708e+00 -2.8941574291e+00 1.6709425708e+00 2.8941574291e+00 
67600 6.1937380619e+00 8.4774131739e-05 1.6709400300e+00 -2.8941530283e+00 1.6709400300e+00 2.8941530283e+00 
67700 6.1937379244e+00 8.4636648415e-05 1.6709374933e+00 -2.8941486346e+00 1.6709374933e+00 2.8941486346e+00 
67800 6.1937377881e+00 8.4497790441e-05 1.6709349607e+00 -2.8941442480e+00 1.6709349607e+00 2.8941442480e+00 
67900 6.1937376531e+00 8.4357570922e-05 1.6709324322e+00 -2.8941398686e+00 1.6709324322e+00 2.8941398686e+00 
68000 6.1937375192e+00 8.4216002537e-05 1.6709299079e+00 -2.8941354964e+00 1.6709299079e+00 2.8941354964e+00 
68100 6.1937373865e+00 8.4073097575e-05 1.6709273879e+00 -2.8941311316e+00 1.6709273879e+00 2.8941311316e+00 
68200 6.1937372551e+00 8.3928867982e-05 1.6709248721e+00 -2.8941267742e+00 1.6709248721e+00 2.8941267742e+00 
68300 6.1937371247e+00 8.3783325389e-05 1.6709223607e+00 -2.8941224242e+00 1.6709223607e+00 2.8941224242e+00 
68400 6.1937369956e+00 8.3636481153e-05 1.6709198536e+00 -2.8941180818e+00 1.6709198536e+00 2.8941180818e+00 
68500 6.1937368675e+00 8.3488346385e-05 1.6709173509e+00 -2.8941137470e+00 1.6709173509e+00 2.8941137470e+00 
68600 6.1937367406e+00 8.3338931984e-05 1.6709148526e+00 -2.8941094198e+00 1.6709148526e+00 2.8941094198e+00 
68700 6.1937366149e+00 8.3188248675e-05 1.6709123588e+00 -2.8941051004e+00 1.6709123588e+00 2.8941051004e+00 
68800 6.1937364902e+00 8.3036307023e-05 1.6709098695e+00 -2.8941007888e+00 1.6709098695e+00 2.8941007888e+00 
68900 6.1937363667e+00 8.2883117478e-05 1.6709073847e+00 -2.8940964851e+00 1.6709073847e+00 2.8940964851e+00 
69000 6.1937362442e+00 8.2728690392e-05 1.6709049045e+00 -2.8940921893e+00 1.6709049045e+00 2.8940921893e+00 
69100 6.1937361229e+00 8.2573036048e-05 1.6709024290e+00 -2.8940879015e+00 1.6709024290e+00 2.8940879015e+00 
69200 6.1937360026e+00 8.2416164682e-05 1.6708999581e+00 -2.8940836217e+00 1.6708999581e+00 2.8940836217e+00 
69300 6.1937358834e+00 8.2258086509e-05 1.6708974918e+00 -2.8940793501e+00 1.6708974918e+00 2.8940793501e+00 
69400 6.1937357652e+00 8.2098811744e-05 1.6708950304e+00 -2.8940750867e+00 1.6708950304e+00 2.8940750867e+00 
69500 6.1937356481e+00 8.1938350622e-05 1.6708925736e+00 -2.8940708315e+00 1.6708925736e+00 2.8940708315e+00 
69600 6.1937355320e+00 8.1776713414e-05 1.6708901217e+00 -2.8940665846e+00 1.6708901217e+00 2.8940665846e+00 
69700 6.1937354170e+00 8.1613910453e-05 1.6708876746e+00 -2.8940623461e+00 1.6708876746e+00 2.8940623461e+00 
69800 6.1937353030e+00 8.1449952141e-05 1.6708852324e+00 -2.8940581161e+00 1.6708852324e+00 2.8940581161e+00 
69900 6.1937351900e+00 8.1284848975e-05 1.6708827950e+00 -2.8940538945e+00 1.6708827950e+00 2.8940538945e+00 
70000 6.1937350780e+00 8.1118611550e-05 1.6708803626e+00 -2.8940496815e+00 1.6708803626e+00 2.8940496815e+00 
70100 6.1937349669e+00 8.0951250586e-05 1.6708779352e+00 -2.8940454770e+00 1.6708779352e+00 2.8940454770e+00 
70200 6.1937348569e+00 8.0782776921e-05 1.6708755128e+00 -2.8940412813e+00 1.6708755128e+00 2.8940412813e+00 
70300 6.1937347478e+00 8.0613201545e-05 1.6708730954e+00 -2.8940370943e+00 1.6708730954e+00 2.8940370943e+00 
70400 6.1937346398e+00 8.0442535590e-05 1.6708706831e+00 -2.8940329160e+00 1.6708706831e+00 2.8940329160e+00 
70500 6.1937345326e+00 8.0270790349e-05 1.6708682759e+00 -2.8940287466e+00 1.6708682759e+00 2.8940287466e+00 
70600 6.1937344264e+00 8.0097977282e-05 1.6708658738e+00 -2.8940245861e+00 1.6708658738e+00 2.8940245861e+00 
70700 6.1937343212e+00 7.9924108024e-05 1.6708634769e+00 -2.8940204346e+00 1.6708634769e+00 2.8940204346e+00 
70800 6.1937342169e+00 7.9749194386e-05 1.6708610852e+00 -2.8940162920e+00 1.6708610852e+00 2.8940162920e+00 
70900 6.1937341135e+00 7.9573248364e-05 1.6708586988e+00 -2.8940121586e+00 1.6708586988e+00 2.8940121586e+00 
71000 6.1937340110e+00 7.9396282146e-05 1.6708563176e+00 -2.8940080342e+00 1.6708563176e+00 2.8940080342e+00 
71100 6.1937339095e+00 7.9218308106e-05 1.6708539417e+00 -2.8940039190e+00 1.6708539417e+00 2.8940039190e+00 
71200 6.1937338088e+00 7.9039338813e-05 1.6708515711e+00 -2.8939998130e+00 1.6708515711e+00 2.8939998130e+00 
71300 6.1937337091e+00 7.8859387031e-05 1.6708492058e+00 -2.8939957163e+00 1.6708492058e+00 2.8939957163e+00 
71400 6.1937336102e+00 7.8678465720e-05 1.6708468460e+00 -2.8939916289e+00 1.6708468460e+00 2.8939916289e+00 
71500 6.1937335122e+00 7.8496588035e-05 1.6708444915e+00 -2.8939875508e+00 1.6708444915e+00 2.8939875508e+00 
71600 6.1937334150e+00 7.8313767323e-05 1.6708421425e+00 -2.8939834822e+00 1.6708421425e+00 2.8939834822e+00 
71700 6.1937333188e+00 7.8130017126e-05 1.6708397990e+00 -2.8939794231e+00 1.6708397990e+00 2.8939794231e+00 
71800 6.1937332233e+00 7.7945351177e-05 1.6708374609e+00 -2.8939753735e+00 1.6708374609e+00 2.8939753735e+00 
71900 6.1937331288e+00 7.7759783395e-05 1.6708351284e+00 -2.8939713335e+00 1.6708351284e+00 2.8939713335e+00 
72000 6.1937330350e+00 7.7573327885e-05 1.6708328014e+00 -2.8939673030e+00 1.6708328014e+00 2.8939673030e+00 
72100 6.1937329421e+00 7.7385998929e-05 1.6708304800e+00 -2.8939632822e+00 1.6708304800e+00 2.8939632822e+00 
72200 6.1937328501e+00 7.7197810988e-05 1.6708281642e+00 -2.8939592712e+00 1.6708281642e+00 2.8939592712e+00 
72300 6.1937327588e+00 7.7008778693e-05 1.6708258541e+00 -2.8939552698e+00 1.6708258541e+00 2.8939552698e+00 
72400 6.1937326683e+00 7.6818916841e-05 1.6708235496e+00 -2.8939512783e+00 1.6708235496e+00 2.8939512783e+00 
72500 6.1937325787e+00 7.6628240385e-05 1.6708212507e+00 -2.8939472966e+00 1.6708212507e+00 2.8939472966e+00 
72600 6.1937324898e+00 7.6436764434e-05 1.6708189576e+00 -2.8939433248e+00 1.6708189576e+00 2.8939433248e+00 
72700 6.1937324018e+00 7.6244504240e-05 1.6708166702e+00 -2.8939393629e+00 1.6708166702e+00 2.8939393629e+00 
72800 6.1937323145e+00 7.6051475200e-05 1.6708143885e+00 -2.8939354110e+00 1.6708143885e+00 2.8939354110e+00 
72900 6.1937322280e+00 7.5857692835e-05 1.6708121127e+00 -2.8939314690e+00 1.6708121127e+00 2.8939314690e+00 
73000 6.1937321422e+00 7.5663172796e-05 1.6708098426e+00 -2.8939275371e+00 1.6708098426e+00 2.8939275371e+00 
73100 6.1937320572e+00 7.5467930849e-05 1.6708075783e+00 -2.8939236153e+00 1.6708075783e+00 2.8939236153e+00 
73200 6.1937319730e+00 7.5271982866e-05 1.6708053199e+00 -2.8939197036e+00 1.6708053199e+00 2.8939197036e+00 
73300 6.1937318895e+00 7.5075344822e-05 1.6708030673e+00 -2.8939158020e+00 1.6708030673e+00 2.8939158020e+00 
73400 6.1937318068e+00 7.4878032778e-05 1.6708008206e+00 -2.8939119107e+00 1.6708008206e+00 2.8939119107e+00 
73500 6.1937317247e+00 7.4680062884e-05 1.6707985798e+00 -2.8939080295e+00 1.6707985798e+00 2.8939080295e+00 
73600 6.1937316435e+00 7.4481451359e-05 1.6707963450e+00 -2.8939041586e+00 1.6707963450e+00 2.8939041586e+00 
73700 6.1937315629e+00 7.4282214487e-05 1.6707941161e+00 -2.8939002980e+00 1.6707941161e+00 2.8939002980e+00 
73800 6.1937314830e+00 7.4082368609e-05 1.6707918931e+00 -2.8938964477e+00 1.6707918931e+00 2.8938964477e+00 
73900 6.1937314039e+00 7.3881930112e-05 1.6707896761e+00 -2.8938926078e+00 1.6707896761e+00 2.8938926078e+00 
74000 6.1937313255e+00 7.3680915422e-05 1.6707874651e+00 -2.8938887783e+00 1.6707874651e+00 2.8938887783e+00 
74100 6.1937312477e+00 7.3479340990e-05 1.6707852602e+00 -2.8938849591e+00 1.6707852602e+00 2.8938849591e+00 
74200 6.1937311707e+00 7.3277223291e-05 1.6707830612e+00 -2.8938811504e+00 1.6707830612e+00 2.8938811504e+00 
74300 6.1937310943e+00 7.3074578806e-05 1.6707808683e+00 -2.8938773522e+00 1.6707808683e+00 2.8938773522e+00 
74400 6.1937310186e+00 7.2871424020e-05 1.6707786815e+00 -2.8938735645e+00 1.6707786815e+00 2.8938735645e+00 
74500 6.1937309436e+00 7.2667775407e-05 1.6707765007e+00 -2.8938697873e+00 1.6707765007e+00 2.8938697873e+00 
74600 6.1937308692e+00 7.2463649430e-05 1.6707743260e+00 -2.8938660207e+00 1.6707743260e+00 2.8938660207e+00 
74700 6.1937307955e+00 7.2259062519e-05 1.6707721575e+00 -2.8938622646e+00 1.6707721575e+00 2.8938622646e+00 
74800 6.1937307225e+00 7.2054031073e-05 1.6707699950e+00 -2.8938585192e+00 1.6707699950e+00 2.8938585192e+00 
74900 6.1937306501e+00 7.1848571450e-05 1.6707678387e+00 -2.8938547843e+00 1.6707678387e+00 2.8938547843e+00 
75000 6.1937305784e+00 7.1642699954e-05 1.6707656886e+00 -2.8938510601e+00 1.6707656886e+00 2.8938510601e+00 
75100 6.1937305072e+00 7.1436432831e-05 1.6707635445e+00 -2.8938473466e+00 1.6707635445e+00 2.8938473466e+00 
75200 6.1937304368e+00 7.1229786259e-05 1.6707614067e+00 -2.8938436437e+00 1.6707614067e+00 2.8938436437e+00 
75300 6.1937303669e+00 7.1022776339e-05 1.6707592751e+00 -2.8938399516e+00 1.6707592751e+00 2.8938399516e+00 
75400 6.1937302977e+00 7.0815419091e-05 1.6707571496e+00 -2.8938362702e+00 1.6707571496e+00 2.8938362702e+00 
75500 6.1937302290e+00 7.0607730438e-05 1.6707550303e+00 -2.8938325995e+00 1.6707550303e+00 2.8938325995e+00 
75600 6.1937301612e+00 7.1714633035e-05 1.6707550303e+00 -2.8938325995e+00 1.6707550303e+00 2.8938325995e+00 
75700 6.1937300938e+00 7.1485277129e-05 1.6707528842e+00 -2.8938288822e+00 1.6707528842e+00 2.8938288822e+00 
75800 6.1937300270e+00 7.1255954281e-05 1.6707507448e+00 -2.8938251769e+00 1.6707507448e+00 2.8938251769e+00 
75900 6.1937299608e+00 7.1026673506e-05 1.6707486124e+00 -2.8938214833e+00 1.6707486124e+00 2.8938214833e+00 
76000 6.1937298951e+00 7.0797443714e-05 1.6707464868e+00 -2.8938178017e+00 1.6707464868e+00 2.8938178017e+00 
76100 6.1937298301e+00 7.0568273720e-05 1.6707443681e+00 -2.8938141319e+00 1.6707443681e+00 2.8938141319e+00 
76200 6.1937297658e+00 7.1653530280e-05 1.6707443681e+00 -2.8938141319e+00 1.6707443681e+00 2.8938141319e+00 
76300 6.1937297019e+00 7.1403459226e-05 1.6707422237e+00 -2.8938104178e+00 1.6707422237e+00 2.8938104178e+00 
76400 6.1937296385e+00 7.1153791308e-05 1.6707400868e+00 -2.8938067166e+00 1.6707400868e+00 2.8938067166e+00 
76500 6.1937295758e+00 7.0904528611e-05 1.6707379574e+00 -2.8938030284e+00 1.6707379574e+00 2.8938030284e+00 
76600 6.1937295136e+00 7.0655673194e-05 1.6707358355e+00 -2.8937993530e+00 1.6707358355e+00 2.8937993530e+00 
76700 6.1937294521e+00 7.1723363648e-05 1.6707358355e+00 -2.8937993530e+00 1.6707358355e+00 2.8937993530e+00 
76800 6.1937293910e+00 7.1454250692e-05 1.6707336890e+00 -2.8937956353e+00 1.6707336890e+00 2.8937956353e+00 
76900 6.1937293304e+00 7.1185869179e-05 1.6707315506e+00 -2.8937919314e+00 1.6707315506e+00 2.8937919314e+00 
77000 6.1937292704e+00 7.0918214820e-05 1.6707294202e+00 -2.8937882415e+00 1.6707294202e+00 2.8937882415e+00 
77100 6.1937292109e+00 7.0651283429e-05 1.6707272978e+00 -2.8937845655e+00 1.6707272978e+00 2.8937845655e+00 
77200 6.1937291521e+00 7.1701273132e-05 1.6707272978e+00 -2.8937845655e+00 1.6707272978e+00 2.8937845655e+00 
77300 6.1937290936e+00 7.1414693331e-05 1.6707251520e+00 -2.8937808488e+00 1.6707251520e+00 2.8937808488e+00 
77400 6.1937290357e+00 7.1129142861e-05 1.6707230148e+00 -2.8937771470e+00 1.6707230148e+00 2.8937771470e+00 
77500 6.1937289783e+00 7.0844611741e-05 1.6707208861e+00 -2.8937734600e+00 1.6707208861e+00 2.8937734600e+00 
77600 6.1937289213e+00 7.0561090237e-05 1.6707187659e+00 -2.8937697877e+00 1.6707187659e+00 2.8937697877e+00 
77700 6.1937288651e+00 7.1593234894e-05 1.6707187659e+00 -2.8937697877e+00 1.6707187659e+00 2.8937697877e+00 
77800 6.1937288092e+00 7.1290643939e-05 1.6707166233e+00 -2.8937660767e+00 1.6707166233e+00 2.8937660767e+00 
77900 6.1937287538e+00 7.0989353005e-05 1.6707144898e+00 -2.8937623813e+00 1.6707144898e+00 2.8937623813e+00 
78000 6.1937286989e+00 7.0689347183e-05 1.6707123653e+00 -2.8937587015e+00 1.6707123653e+00 2.8937587015e+00 
78100 6.1937286447e+00 7.1707779852e-05 1.6707123653e+00 -2.8937587015e+00 1.6707123653e+00 2.8937587015e+00 
78200 6.1937285907e+00 7.1389198204e-05 1.6707102193e+00 -2.8937549845e+00 1.6707102193e+00 2.8937549845e+00 
78300 6.1937285372e+00 7.1072177984e-05 1.6707080828e+00 -2.8937512840e+00 1.6707080828e+00 2.8937512840e+00 
78400 6.1937284843e+00 7.0756699599e-05 1.6707059558e+00 -2.8937475999e+00 1.6707059558e+00 2.8937475999e+00 
78500 6.1937284317e+00 7.0442743999e-05 1.6707038382e+00 -2.8937439321e+00 1.6707038382e+00 2.8937439321e+00 
78600 6.1937283799e+00 7.1443003961e-05 1.6707038382e+00 -2.8937439321e+00 1.6707038382e+00 2.8937439321e+00 
78700 6.1937283283e+00 7.1111004697e-05 1.6707017001e+00 -2.8937402288e+00 1.6707017001e+00 2.8937402288e+00 
78800 6.1937282771e+00 7.0780792138e-05 1.6706995719e+00 -2.8937365427e+00 1.6706995719e+00 2.8937365427e+00 
78900 6.1937282265e+00 7.0452343214e-05 1.6706974536e+00 -2.8937328737e+00 1.6706974536e+00 2.8937328737e+00 
79000 6.1937281764e+00 7.1438633272e-05 1.6706974536e+00 -2.8937328737e+00 1.6706974536e+00 2.8937328737e+00 
79100 6.1937281266e+00 7.1092604023e-05 1.6706953156e+00 -2.8937291706e+00 1.6706953156e+00 2.8937291706e+00 
79200 6.1937280773e+00 7.0748591118e-05 1.6706931880e+00 -2.8937254854e+00 1.6706931880e+00 2.8937254854e+00 
79300 6.1937280284e+00 7.0406567919e-05 1.6706910706e+00 -2.8937218181e+00 1.6706910706e+00 2.8937218181e+00 
79400 6.1937279801e+00 7.1378758921e-05 1.6706910706e+00 -2.8937218181e+00 1.6706910706e+00 2.8937218181e+00 
79500 6.1937279320e+00 7.1019607131e-05 1.6706889344e+00 -2.8937181181e+00 1.6706889344e+00 2.8937181181e+00 
79600 6.1937278844e+00 7.0662687637e-05 1.6706868090e+00 -2.8937144367e+00 1.6706868090e+00 2.8937144367e+00 
79700 6.1937278374e+00 7.1625071775e-05 1.6706868090e+00 -2.8937144367e+00 1.6706868090e+00 2.8937144367e+00 
79800 6.1937277907e+00 7.1251417896e-05 1.6706846654e+00 -2.8937107239e+00 1.6706846654e+00 2.8937107239e+00 
79900 6.1937277443e+00 7.0880228598e-05 1.6706825330e+00 -2.8937070305e+00 1.6706825330e+00 2.8937070305e+00 
80000 6.1937276984e+00 7.0511470417e-05 1.6706804117e+00 -2.8937033563e+00 1.6706804117e+00 2.8937033563e+00 
80100 6.1937276530e+00 7.1459496206e-05 1.6706804117e+00 -2.8937033563e+00 1.6706804117e+00 2.8937033563e+00 
80200 6.1937276079e+00 7.1074434699e-05 1.6706782731e+00 -2.8936996520e+00 1.6706782731e+00 2.8936996520e+00 
80300 6.1937275631e+00 7.0692028240e-05 1.6706761460e+00 -2.8936959678e+00 1.6706761460e+00 2.8936959678e+00 
80400 6.1937275190e+00 7.1630066975e-05 1.6706761460e+00 -2.8936959678e+00 1.6706761460e+00 2.8936959678e+00 
80500 6.1937274750e+00 7.1231738394e-05 1.6706740022e+00 -2.8936922547e+00 1.6706740022e+00 2.8936922547e+00 
80600 6.1937274315e+00 7.0836279820e-05 1.6706718704e+00 -2.8936885623e+00 1.6706718704e+00 2.8936885623e+00 
80700 6.1937273883e+00 7.0443652270e-05 1.6706697504e+00 -2.8936848903e+00 1.6706697504e+00 2.8936848903e+00 
80800 6.1937273457e+00 7.1367113473e-05 1.6706697504e+00 -2.8936848903e+00 1.6706697504e+00 2.8936848903e+00 
80900 6.1937273033e+00 7.0958980510e-05 1.6706676145e+00 -2.8936811909e+00 1.6706676145e+00 2.8936811909e+00 
81000 6.1937272613e+00 7.0553886892e-05 1.6706654908e+00 -2.8936775126e+00 1.6706654908e+00 2.8936775126e+00 
81100 6.1937272198e+00 7.1467215193e-05 1.6706654908e+00 -2.8936775126e+00 1.6706654908e+00 2.8936775126e+00 
81200 6.1937271786e+00 7.1046988750e-05 1.6706633519e+00 -2.8936738079e+00 1.6706633519e+00 2.8936738079e+00 
81300 6.1937271377e+00 7.0630002180e-05 1.6706612256e+00 -2.8936701250e+00 1.6706612256e+00 2.8936701250e+00 
81400 6.1937270973e+00 7.1533126231e-05 1.6706612256e+00 -2.8936701250e+00 1.6706612256e+00 2.8936701250e+00 
81500 6.1937270571e+00 7.1101374557e-05 1.6706590848e+00 -2.8936664170e+00 1.6706590848e+00 2.8936664170e+00 
81600 6.1937270173e+00 7.0673055837e-05 1.6706569568e+00 -2.8936627313e+00 1.6706569568e+00 2.8936627313e+00 
81700 6.1937269780e+00 7.1565911952e-05 1.6706569568e+00 -2.8936627313e+00 1.6706569568e+00 2.8936627313e+00 
81800 6.1937269388e+00 7.1123191383e-05 1.6706548150e+00 -2.8936590215e+00 1.6706548150e+00 2.8936590215e+00 
81900 6.1937269001e+00 7.0684089767e-05 1.6706526864e+00 -2.8936553346e+00 1.6706526864e+00 2.8936553346e+00 
82000 6.1937268618e+00 7.1566622420e-05 1.6706526864e+00 -2.8936553346e+00 1.6706526864e+00 2.8936553346e+00 
82100 6.1937268237e+00 7.1113478169e-05 1.6706505445e+00 -2.8936516248e+00 1.6706505445e+00 2.8936516248e+00 
82200 6.1937267860e+00 7.0664132165e-05 1.6706484162e+00 -2.8936479384e+00 1.6706484162e+00 2.8936479384e+00 
82300 6.1937267487e+00 7.1536294526e-05 1.6706484162e+00 -2.8936479384e+00 1.6706484162e+00 2.8936479384e+00 
82400 6.1937267116e+00 7.1073261478e-05 1.6706462752e+00 -2.8936442302e+00 1.6706462752e+00 2.8936442302e+00 
82500 6.1937266749e+00 7.0614199607e-05 1.6706441481e+00 -2.8936405459e+00 1.6706441481e+00 2.8936405459e+00 
82600 6.1937266386e+00 7.1475954084e-05 1.6706441481e+00 -2.8936405459e+00 1.6706441481e+00 2.8936405459e+00 
82700 6.1937266025e+00 7.1003557507e-05 1.6706420089e+00 -2.8936368407e+00 1.6706420089e+00 2.8936368407e+00 
82800 6.1937265667e+00 7.0535299006e-05 1.6706398839e+00 -2.8936331600e+00 1.6706398839e+00 2.8936331600e+00 
82900 6.1937265314e+00 7.1386617735e-05 1.6706398839e+00 -2.8936331600e+00 1.6706398839e+00 2.8936331600e+00 
83000 6.1937264963e+00 7.0905373926e-05 1.6706377474e+00 -2.8936294595e+00 1.6706377474e+00 2.8936294595e+00 
83100 6.1937264614e+00 7.0428429342e-05 1.6706356253e+00 -2.8936257839e+00 1.6706356253e+00 2.8936257839e+00 
83200 6.1937264271e+00 7.1269294602e-05 1.6706356253e+00 -2.8936257839e+00 1.6706356253e+00 2.8936257839e+00 
83300 6.1937263929e+00 7.0779711405e-05 1.6706334923e+00 -2.8936220895e+00 1.6706334923e+00 2.8936220895e+00 
83400 6.1937263589e+00 7.0294583085e-05 1.6706313739e+00 -2.8936184204e+00 1.6706313739e+00 2.8936184204e+00 
83500 6.1937263255e+00 7.1124987628e-05 1.6706313739e+00 -2.8936184204e+00 1.6706313739e+00 2.8936184204e+00 
83600 6.1937262922e+00 7.0627564835e-05 1.6706292452e+00 -2.8936147334e+00 1.6706292452e+00 2.8936147334e+00 
83700 6.1937262593e+00 7.1452135290e-05 1.6706292452e+00 -2.8936147334e+00 1.6706292452e+00 2.8936147334e+00 
83800 6.1937262266e+00 7.0942729588e-05 1.6706271068e+00 -2.8936110294e+00 1.6706271068e+00 2.8936110294e+00 
83900 6.1937261942e+00 7.0438132253e-05 1.6706249835e+00 -2.8936073519e+00 1.6706249835e+00 2.8936073519e+00 
84000 6.1937261622e+00 7.1252199815e-05 1.6706249835e+00 -2.8936073519e+00 1.6706249835e+00 2.8936073519e+00 
84100 6.1937261303e+00 7.0735954189e-05 1.6706228510e+00 -2.8936036583e+00 1.6706228510e+00 2.8936036583e+00 
84200 6.1937260987e+00 7.0224654139e-05 1.6706207340e+00 -2.8935999914e+00 1.6706207340e+00 2.8935999914e+00 
84300 6.1937260676e+00 7.1028235893e-05 1.6706207340e+00 -2.8935999914e+00 1.6706207340e+00 2.8935999914e+00 
84400 6.1937260366e+00 7.0505619494e-05 1.6706186082e+00 -2.8935963094e+00 1.6706186082e+00 2.8935963094e+00 
84500 6.1937260060e+00 7.1303362288e-05 1.6706186082e+00 -2.8935963094e+00 1.6706186082e+00 2.8935963094e+00 
84600 6.1937259755e+00 7.0769732912e-05 1.6706164741e+00 -2.8935926132e+00 1.6706164741e+00 2.8935926132e+00 
84700 6.1937259453e+00 7.0241372700e-05 1.6706143561e+00 -2.8935889446e+00 1.6706143561e+00 2.8935889446e+00 
84800 6.1937259156e+00 7.1028627470e-05 1.6706143561e+00 -2.8935889446e+00 1.6706143561e+00 2.8935889446e+00 
84900 6.1937258859e+00 7.0489576683e-05 1.6706122302e+00 -2.8935852625e+00 1.6706122302e+00 2.8935852625e+00 
85000 6.1937258567e+00 7.1270998461e-05 1.6706122302e+00 -2.8935852625e+00 1.6706122302e+00 2.8935852625e+00 
85100 6.1937258275e+00 7.0721554053e-05 1.6706100972e+00 -2.8935815679e+00 1.6706100972e+00 2.8935815679e+00 
85200 6.1937257986e+00 7.0177681865e-05 1.6706079805e+00 -2.8935779018e+00 1.6706079805e+00 2.8935779018e+00 
85300 6.1937257702e+00 7.0948635284e-05 1.6706079805e+00 -2.8935779018e+00 1.6706079805e+00 2.8935779018e+00 
85400 6.1937257418e+00 7.0394682130e-05 1.6706058571e+00 -2.8935742239e+00 1.6706058571e+00 2.8935742239e+00 
85500 6.1937257139e+00 7.1159821447e-05 1.6706058571e+00 -2.8935742239e+00 1.6706058571e+00 2.8935742239e+00 
85600 6.1937256860e+00 7.0596077725e-05 1.6706037273e+00 -2.8935705350e+00 1.6706037273e+00 2.8935705350e+00 
85700 6.1937256586e+00 7.1355397561e-05 1.6706037273e+00 -2.8935705350e+00 1.6706037273e+00 2.8935705350e+00 
85800 6.1937256312e+00 7.0782149257e-05 1.6706015917e+00 -2.8935668360e+00 1.6706015917e+00 2.8935668360e+00 
85900 6.1937256040e+00 7.0214926916e-05 1.6705994732e+00 -2.8935631668e+00 1.6705994732e+00 2.8935631668e+00 
86000 6.1937255773e+00 7.0963807736e-05 1.6705994732e+00 -2.8935631668e+00 1.6705994732e+00 2.8935631668e+00 
86100 6.1937255507e+00 7.0387376557e-05 1.6705973493e+00 -2.8935594880e+00 1.6705973493e+00 2.8935594880e+00 
86200 6.1937255244e+00 7.1130471070e-05 1.6705973493e+00 -2.8935594880e+00 1.6705973493e+00 2.8935594880e+00 
86300 6.1937254982e+00 7.0545110278e-05 1.6705952204e+00 -2.8935558007e+00 1.6705952204e+00 2.8935558007e+00 
86400 6.1937254725e+00 7.1282418574e-05 1.6705952204e+00 -2.8935558007e+00 1.6705952204e+00 2.8935558007e+00 
86500 6.1937254467e+00 7.0688402994e-05 1.6705930870e+00 -2.8935521055e+00 1.6705930870e+00 2.8935521055e+00 
86600 6.1937254214e+00 7.1419925868e-05 1.6705930870e+00 -2.8935521055e+00 1.6705930870e+00 2.8935521055e+00 
86700 6.1937253962e+00 7.0817525854e-05 1.6705909494e+00 -2.8935484031e+00 1.6705909494e+00 2.8935484031e+00 
86800 6.1937253711e+00 7.0221716633e-05 1.6705888299e+00 -2.8935447320e+00 1.6705888299e+00 2.8935447320e+00 
86900 6.1937253465e+00 7.0942861502e-05 1.6705888299e+00 -2.8935447320e+00 1.6705888299e+00 2.8935447320e+00 
87000 6.1937253219e+00 7.0338940052e-05 1.6705867066e+00 -2.8935410543e+00 1.6705867066e+00 2.8935410543e+00 
87100 6.1937252977e+00 7.1054347509e-05 1.6705867066e+00 -2.8935410543e+00 1.6705867066e+00 2.8935410543e+00 
87200 6.1937252735e+00 7.0442577654e-05 1.6705845800e+00 -2.8935373709e+00 1.6705845800e+00 2.8935373709e+00 
87300 6.1937252497e+00 7.1152253645e-05 1.6705845800e+00 -2.8935373709e+00 1.6705845800e+00 2.8935373709e+00 
87400 6.1937252260e+00 7.0532894995e-05 1.6705824504e+00 -2.8935336824e+00 1.6705824504e+00 2.8935336824e+00 
87500 6.1937252027e+00 7.1236846200e-05 1.6705824504e+00 -2.8935336824e+00 1.6705824504e+00 2.8935336824e+00 
87600 6.1937251793e+00 7.0610154100e-05 1.6705803183e+00 -2.8935299895e+00 1.6705803183e+00 2.8935299895e+00 
87700 6.1937251564e+00 7.1308387837e-05 1.6705803183e+00 -2.8935299895e+00 1.6705803183e+00 2.8935299895e+00 
87800 6.1937251335e+00 7.0674613363e-05 1.6705781841e+00 -2.8935262929e+00 1.6705781841e+00 2.8935262929e+00 
87900 6.1937251110e+00 7.1367137533e-05 1.6705781841e+00 -2.8935262929e+00 1.6705781841e+00 2.8935262929e+00 
88000 6.1937250885e+00 7.0726527518e-05 1.6705760481e+00 -2.8935225932e+00 1.6705760481e+00 2.8935225932e+00 
88100 6.1937250662e+00 7.0093267499e-05 1.6705739313e+00 -2.8935189268e+00 1.6705739313e+00 2.8935189268e+00 
88200 6.1937250443e+00 7.0775542347e-05 1.6705739313e+00 -2.8935189268e+00 1.6705739313e+00 2.8935189268e+00 
88300 6.1937250224e+00 7.0135684318e-05 1.6705718130e+00 -2.8935152577e+00 1.6705718130e+00 2.8935152577e+00 
88400 6.1937250008e+00 7.0812315365e-05 1.6705718130e+00 -2.8935152577e+00 1.6705718130e+00 2.8935152577e+00 
88500 6.1937249793e+00 7.0166100526e-05 1.6705696936e+00 -2.8935115868e+00 1.6705696936e+00 2.8935115868e+00 
88600 6.1937249582e+00 7.0837101020e-05 1.6705696936e+00 -2.8935115868e+00 1.6705696936e+00 2.8935115868e+00 
88700 6.1937249370e+00 7.0184766775e-05 1.6705675734e+00 -2.8935079146e+00 1.6705675734e+00 2.8935079146e+00 
88800 6.1937249162e+00 7.0850150843e-05 1.6705675734e+00 -2.8935079146e+00 1.6705675734e+00 2.8935079146e+00 
88900 6.1937248955e+00 7.0191930752e-05 1.6705654529e+00 -2.8935042417e+00 1.6705654529e+00 2.8935042417e+00 
89000 6.1937248751e+00 7.0851713323e-05 1.6705654529e+00 -2.8935042417e+00 1.6705654529e+00 2.8935042417e+00 
89100 6.1937248547e+00 7.0187837108e-05 1.6705633323e+00 -2.8935005688e+00 1.6705633323e+00 2.8935005688e+00 
89200 6.1937248346e+00 7.0842033856e-05 1.6705633323e+00 -2.8935005688e+00 1.6705633323e+00 2.8935005688e+00 
89300 6.1937248146e+00 7.0172727405e-05 1.6705612120e+00 -2.8934968963e+00 1.6705612120e+00 2.8934968963e+00 
89400 6.1937247949e+00 7.0821354723e-05 1.6705612120e+00 -2.8934968963e+00 1.6705612120e+00 2.8934968963e+00 
89500 6.1937247753e+00 7.0146840130e-05 1.6705590923e+00 -2.8934932249e+00 1.6705590923e+00 2.8934932249e+00 
89600 6.1937247559e+00 7.0789915117e-05 1.6705590923e+00 -2.8934932249e+00 1.6705590923e+00 2.8934932249e+00 
89700 6.1937247366e+00 7.0110410733e-05 1.6705569735e+00 -2.8934895551e+00 1.6705569735e+00 2.8934895551e+00 
89800 6.1937247176e+00 7.0747951188e-05 1.6705569735e+00 -2.8934895551e+00 1.6705569735e+00 2.8934895551e+00 
89900 6.1937246986e+00 7.0063671679e-05 1.6705548560e+00 -2.8934858875e+00 1.6705548560e+00 2.8934858875e+00 
90000 6.1937246800e+00 7.0695696118e-05 1.6705548560e+00 -2.8934858875e+00 1.6705548560e+00 2.8934858875e+00 
90100 6.1937246615e+00 7.1326691466e-05 1.6705548560e+00 -2.8934858875e+00 1.6705548560e+00 2.8934858875e+00 
90200 6.1937246430e+00 7.0625024801e-05 1.6705527212e+00 -2.8934821899e+00 1.6705527212e+00 2.8934821899e+00 
90300 6.1937246249e+00 7.1250491287e-05 1.6705527212e+00 -2.8934821899e+00 1.6705527212e+00 2.8934821899e+00 
90400 6.1937246067e+00 7.0544693309e-05 1.6705505887e+00 -2.8934784962e+00 1.6705505887e+00 2.8934784962e+00 
90500 6.1937245889e+00 7.1164648159e-05 1.6705505887e+00 -2.8934784962e+00 1.6705505887e+00 2.8934784962e+00 
90600 6.1937245710e+00 7.0454916447e-05 1.6705484587e+00 -2.8934748070e+00 1.6705484587e+00 2.8934748070e+00 
90700 6.1937245535e+00 7.1069377375e-05 1.6705484587e+00 -2.8934748070e+00 1.6705484587e+00 2.8934748070e+00 
90800 6.1937245360e+00 7.0355906085e-05 1.6705463316e+00 -2.8934711227e+00 1.6705463316e+00 2.8934711227e+00 
90900 6.1937245188e+00 7.0964891475e-05 1.6705463316e+00 -2.8934711227e+00 1.6705463316e+00 2.8934711227e+00 
91000 6.1937245016e+00 7.0247871553e-05 1.6705442076e+00 -2.8934674438e+00 1.6705442076e+00 2.8934674438e+00 
91100 6.1937244847e+00 7.0851400606e-05 1.6705442076e+00 -2.8934674438e+00 1.6705442076e+00 2.8934674438e+00 
91200 6.1937244678e+00 7.0131019972e-05 1.6705420870e+00 -2.8934637708e+00 1.6705420870e+00 2.8934637708e+00 
91300 6.1937244512e+00 7.0729112833e-05 1.6705420870e+00 -2.8934637708e+00 1.6705420870e+00 2.8934637708e+00 
91400 6.1937244346e+00 7.0005556543e-05 1.6705399700e+00 -2.8934601042e+00 1.6705399700e+00 2.8934601042e+00 
91500 6.1937244183e+00 7.0598234419e-05 1.6705399700e+00 -2.8934601042e+00 1.6705399700e+00 2.8934601042e+00 
91600 6.1937244022e+00 7.1189933068e-05 1.6705399700e+00 -2.8934601042e+00 1.6705399700e+00 2.8934601042e+00 
91700 6.1937243860e+00 7.0451342802e-05 1.6705378393e+00 -2.8934564136e+00 1.6705378393e+00 2.8934564136e+00 
91800 6.1937243701e+00 7.1037618517e-05 1.6705378393e+00 -2.8934564136e+00 1.6705378393e+00 2.8934564136e+00 
91900 6.1937243542e+00 7.0296426303e-05 1.6705357131e+00 -2.8934527309e+00 1.6705357131e+00 2.8934527309e+00 
92000 6.1937243387e+00 7.0877300130e-05 1.6705357131e+00 -2.8934527309e+00 1.6705357131e+00 2.8934527309e+00 
92100 6.1937243230e+00 7.0133677134e-05 1.6705335917e+00 -2.8934490566e+00 1.6705335917e+00 2.8934490566e+00 
92200 6.1937243078e+00 7.0709171125e-05 1.6705335917e+00 -2.8934490566e+00 1.6705335917e+00 2.8934490566e+00 
92300 6.1937242926e+00 7.1283706762e-05 1.6705335917e+00 -2.8934490566e+00 1.6705335917e+00 2.8934490566e+00 
92400 6.1937242774e+00 7.0526121699e-05 1.6705314581e+00 -2.8934453611e+00 1.6705314581e+00 2.8934453611e+00 
92500 6.1937242625e+00 7.1095270829e-05 1.6705314581e+00 -2.8934453611e+00 1.6705314581e+00 2.8934453611e+00 
92600 6.1937242476e+00 7.0335795389e-05 1.6705293302e+00 -2.8934416755e+00 1.6705293302e+00 2.8934416755e+00 
92700 6.1937242330e+00 7.0899580093e-05 1.6705293302e+00 -2.8934416755e+00 1.6705293302e+00 2.8934416755e+00 
92800 6.1937242183e+00 7.0138372615e-05 1.6705272081e+00 -2.8934379999e+00 1.6705272081e+00 2.8934379999e+00 
92900 6.1937242039e+00 7.0696816149e-05 1.6705272081e+00 -2.8934379999e+00 1.6705272081e+00 2.8934379999e+00 
93000 6.1937241897e+00 7.1254321134e-05 1.6705272081e+00 -2.8934379999e+00 1.6705272081e+00 2.8934379999e+00 
93100 6.1937241754e+00 7.0480175352e-05 1.6705250755e+00 -2.8934343060e+00 1.6705250755e+00 2.8934343060e+00 
93200 6.1937241615e+00 7.1032334708e-05 1.6705250755e+00 -2.8934343060e+00 1.6705250755e+00 2.8934343060e+00 
93300 6.1937241474e+00 7.0256967098e-05 1.6705229494e+00 -2.8934306236e+00 1.6705229494e+00 2.8934306236e+00 
93400 6.1937241337e+00 7.0803804666e-05 1.6705229494e+00 -2.8934306236e+00 1.6705229494e+00 2.8934306236e+00 
93500 6.1937241199e+00 7.0027362216e-05 1.6705208302e+00 -2.8934269530e+00 1.6705208302e+00 2.8934269530e+00 
93600 6.1937241064e+00 7.0568903260e-05 1.6705208302e+00 -2.8934269530e+00 1.6705208302e+00 2.8934269530e+00 
93700 6.1937240931e+00 7.1109526032e-05 1.6705208302e+00 -2.8934269530e+00 1.6705208302e+00 2.8934269530e+00 
93800 6.1937240797e+00 7.0321126997e-05 1.6705187018e+00 -2.8934232666e+00 1.6705187018e+00 2.8934232666e+00 
93900 6.1937240666e+00 7.0856452342e-05 1.6705187018e+00 -2.8934232666e+00 1.6705187018e+00 2.8934232666e+00 
94000 6.1937240534e+00 7.0067461951e-05 1.6705165810e+00 -2.8934195932e+00 1.6705165810e+00 2.8934195932e+00 
94100 6.1937240405e+00 7.0597516333e-05 1.6705165810e+00 -2.8934195932e+00 1.6705165810e+00 2.8934195932e+00 
94200 6.1937240277e+00 7.1126666552e-05 1.6705165810e+00 -2.8934195932e+00 1.6705165810e+00 2.8934195932e+00 
94300 6.1937240149e+00 7.0326422949e-05 1.6705144522e+00 -2.8934159059e+00 1.6705144522e+00 2.8934159059e+00 
94400 6.1937240023e+00 7.0850303127e-05 1.6705144522e+00 -2.8934159059e+00 1.6705144522e+00 2.8934159059e+00 
94500 6.1937239897e+00 7.0049931383e-05 1.6705123315e+00 -2.8934122329e+00 1.6705123315e+00 2.8934122329e+00 
94600 6.1937239774e+00 7.0568569284e-05 1.6705123315e+00 -2.8934122329e+00 1.6705123315e+00 2.8934122329e+00 
94700 6.1937239652e+00 7.1086317344e-05 1.6705123315e+00 -2.8934122329e+00 1.6705123315e+00 2.8934122329e+00 
94800 6.1937239529e+00 7.0275374955e-05 1.6705102039e+00 -2.8934085477e+00 1.6705102039e+00 2.8934085477e+00 
94900 6.1937239409e+00 7.0787883799e-05 1.6705102039e+00 -2.8934085477e+00 1.6705102039e+00 2.8934085477e+00 
95000 6.1937239289e+00 6.9977257343e-05 1.6705080851e+00 -2.8934048779e+00 1.6705080851e+00 2.8934048779e+00 
95100 6.1937239171e+00 7.0484556285e-05 1.6705080851e+00 -2.8934048779e+00 1.6705080851e+00 2.8934048779e+00 
95200 6.1937239054e+00 7.0990980305e-05 1.6705080851e+00 -2.8934048779e+00 1.6705080851e+00 2.8934048779e+00 
95300 6.1937238937e+00 7.0170446440e-05 1.6705059603e+00 -2.8934011976e+00 1.6705059603e+00 2.8934011976e+00 
95400 6.1937238822e+00 7.0671666216e-05 1.6705059603e+00 -2.8934011976e+00 1.6705059603e+00 2.8934011976e+00 
95500 6.1937238709e+00 7.1172018576e-05 1.6705059603e+00 -2.8934011976e+00 1.6705059603e+00 2.8934011976e+00 
95600 6.1937238595e+00 7.0342002131e-05 1.6705038300e+00 -2.8933975079e+00 1.6705038300e+00 2.8933975079e+00 
95700 6.1937238483e+00 7.0837155737e-05 1.6705038300e+00 -2.8933975079e+00 1.6705038300e+00 2.8933975079e+00 
95800 6.1937238371e+00 7.0008177320e-05 1.6705017098e+00 -2.8933938355e+00 1.6705017098e+00 2.8933938355e+00 
95900 6.1937238261e+00 7.0498163189e-05 1.6705017098e+00 -2.8933938355e+00 1.6705017098e+00 2.8933938355e+00 
96000 6.1937238153e+00 7.0987296485e-05 1.6705017098e+00 -2.8933938355e+00 1.6705017098e+00 2.8933938355e+00 
96100 6.1937238043e+00 7.0149465355e-05 1.6704995851e+00 -2.8933901554e+00 1.6704995851e+00 2.8933901554e+00 
96200 6.1937237937e+00 7.0633439324e-05 1.6704995851e+00 -2.8933901554e+00 1.6704995851e+00 2.8933901554e+00 
96300 6.1937237831e+00 7.1116568409e-05 1.6704995851e+00 -2.8933901554e+00 1.6704995851e+00 2.8933901554e+00 
96400 6.1937237725e+00 7.0270290394e-05 1.6704974565e+00 -2.8933864685e+00 1.6704974565e+00 2.8933864685e+00 
96500 6.1937237621e+00 7.0748268767e-05 1.6704974565e+00 -2.8933864685e+00 1.6704974565e+00 2.8933864685e+00 
96600 6.1937237516e+00 6.9903703026e-05 1.6704953389e+00 -2.8933828008e+00 1.6704953389e+00 2.8933828008e+00 
96700 6.1937237414e+00 7.0376563996e-05 1.6704953389e+00 -2.8933828008e+00 1.6704953389e+00 2.8933828008e+00 
96800 6.1937237313e+00 7.0848595757e-05 1.6704953389e+00 -2.8933828008e+00 1.6704953389e+00 2.8933828008e+00 
96900 6.1937237211e+00 6.9996183292e-05 1.6704932183e+00 -2.8933791278e+00 1.6704932183e+00 2.8933791278e+00 
97000 6.1937237112e+00 7.0463109930e-05 1.6704932183e+00 -2.8933791278e+00 1.6704932183e+00 2.8933791278e+00 
97100 6.1937237014e+00 7.0929215900e-05 1.6704932183e+00 -2.8933791278e+00 1.6704932183e+00 2.8933791278e+00 
97200 6.1937236915e+00 7.0069345881e-05 1.6704910953e+00 -2.8933754506e+00 1.6704910953e+00 2.8933754506e+00 
97300 6.1937236818e+00 7.0530359676e-05 1.6704910953e+00 -2.8933754506e+00 1.6704910953e+00 2.8933754506e+00 
97400 6.1937236723e+00 7.0990561165e-05 1.6704910953e+00 -2.8933754506e+00 1.6704910953e+00 2.8933754506e+00 
97500 6.1937236626e+00 7.0123615150e-05 1.6704889705e+00 -2.8933717703e+00 1.6704889705e+00 2.8933717703e+00 
97600 6.1937236532e+00 7.0578737966e-05 1.6704889705e+00 -2.8933717703e+00 1.6704889705e+00 2.8933717703e+00 
97700 6.1937236439e+00 7.1033056644e-05 1.6704889705e+00 -2.8933717703e+00 1.6704889705e+00 2.8933717703e+00 
97800 6.1937236345e+00 7.0159408637e-05 1.6704868443e+00 -2.8933680878e+00 1.6704868443e+00 2.8933680878e+00 
97900 6.1937236253e+00 7.0608662698e-05 1.6704868443e+00 -2.8933680878e+00 1.6704868443e+00 2.8933680878e+00 
98000 6.1937236163e+00 7.1057120625e-05 1.6704868443e+00 -2.8933680878e+00 1.6704868443e+00 2.8933680878e+00 
98100 6.1937236071e+00 7.0177137268e-05 1.6704847175e+00 -2.8933644040e+00 1.6704847175e+00 2.8933644040e+00 
98200 6.1937235982e+00 7.0620545265e-05 1.6704847175e+00 -2.8933644040e+00 1.6704847175e+00 2.8933644040e+00 
98300 6.1937235894e+00 7.1063165036e-05 1.6704847175e+00 -2.8933644040e+00 1.6704847175e+00 2.8933644040e+00 
98400 6.1937235805e+00 7.0177205904e-05 1.6704825905e+00 -2.8933607199e+00 1.6704825905e+00 2.8933607199e+00 
98500 6.1937235718e+00 7.0614791195e-05 1.6704825905e+00 -2.8933607199e+00 1.6704825905e+00 2.8933607199e+00 
98600 6.1937235632e+00 7.1051596151e-05 1.6704825905e+00 -2.8933607199e+00 1.6704825905e+00 2.8933607199e+00 
98700 6.1937235546e+00 7.0160014092e-05 1.6704804638e+00 -2.8933570364e+00 1.6704804638e+00 2.8933570364e+00 
98800 6.1937235461e+00 7.0591800952e-05 1.6704804638e+00 -2.8933570364e+00 1.6704804638e+00 2.8933570364e+00 
98900 6.1937235378e+00 7.1022815453e-05 1.6704804638e+00 -2.8933570364e+00 1.6704804638e+00 2.8933570364e+00 
99000 6.1937235293e+00 7.0125956949e-05 1.6704783380e+00 -2.8933533543e+00 1.6704783380e+00 2.8933533543e+00 
99100 6.1937235211e+00 7.0551970851e-05 1.6704783380e+00 -2.8933533543e+00 1.6704783380e+00 2.8933533543e+00 
99200 6.1937235130e+00 7.0977220563e-05 1.6704783380e+00 -2.8933533543e+00 1.6704783380e+00 2.8933533543e+00 
99300 6.1937235047e+00 7.0075426094e-05 1.6704762135e+00 -2.8933496747e+00 1.6704762135e+00 2.8933496747e+00 
99400 6.1937234968e+00 7.0495694004e-05 1.6704762135e+00 -2.8933496747e+00 1.6704762135e+00 2.8933496747e+00 
99500 6.1937234888e+00 7.0915206182e-05 1.6704762135e+00 -2.8933496747e+00 1.6704762135e+00 2.8933496747e+00 
99600 6.1937234808e+00 7.0008810561e-05 1.6704740909e+00 -2.8933459982e+00 1.6704740909e+00 2.8933459982e+00 
99700 6.1937234731e+00 7.0423361220e-05 1.6704740909e+00 -2.8933459982e+00 1.6704740909e+00 2.8933459982e+00 
99800 6.1937234654e+00 7.0837164992e-05 1.6704740909e+00 -2.8933459982e+00 1.6704740909e+00 2.8933459982e+00 
99900 6.1937234575e+00 6.9926497681e-05 1.6704719707e+00 -2.8933423258e+00 1.6704719707e+00 2.8933423258e+00 
100000 6.1937234500e+00 7.0335361863e-05 1.6704719707e+00 -2.8933423258e+00 1.6704719707e+00 2.8933423258e+00 
100100 6.1937234425e+00 7.0743488481e-05 1.6704719707e+00 -2.8933423258e+00 1.6704719707e+00 2.8933423258e+00 
100200 6.1937234349e+00 6.9828873846e-05 1.6704698532e+00 -2.8933386582e+00 1.6704698532e+00 2.8933386582e+00 
100300 6.1937234275e+00 7.0232084598e-05 1.6704698532e+00 -2.8933386582e+00 1.6704698532e+00 2.8933386582e+00 
100400 6.1937234202e+00 7.0634567661e-05 1.6704698532e+00 -2.8933386582e+00 1.6704698532e+00 2.8933386582e+00 
100500 6.1937234130e+00 7.1036323815e-05 1.6704698532e+00 -2.8933386582e+00 1.6704698532e+00 2.8933386582e+00 
100600 6.1937234056e+00 7.0109838567e-05 1.6704677269e+00 -2.8933349755e+00 1.6704677269e+00 2.8933349755e+00 
100700 6.1937233985e+00 7.0506684920e-05 1.6704677269e+00 -2.8933349755e+00 1.6704677269e+00 2.8933349755e+00 
100800 6.1937233915e+00 7.0902813267e-05 1.6704677269e+00 -2.8933349755e+00 1.6704677269e+00 2.8933349755e+00 
100900 6.1937233844e+00 6.9973174789e-05 1.6704656047e+00 -2.8933312996e+00 1.6704656047e+00 2.8933312996e+00 
101000 6.1937233775e+00 7.0364418011e-05 1.6704656047e+00 -2.8933312996e+00 1.6704656047e+00 2.8933312996e+00 
101100 6.1937233706e+00 7.0754952562e-05 1.6704656047e+00 -2.8933312996e+00 1.6704656047e+00 2.8933312996e+00 
101200 6.1937233636e+00 6.9822464018e-05 1.6704634869e+00 -2.8933276315e+00 1.6704634869e+00 2.8933276315e+00 
101300 6.1937233569e+00 7.0208139887e-05 1.6704634869e+00 -2.8933276315e+00 1.6704634869e+00 2.8933276315e+00 
101400 6.1937233503e+00 7.0593117036e-05 1.6704634869e+00 -2.8933276315e+00 1.6704634869e+00 2.8933276315e+00 
101500 6.1937233437e+00 7.0977396306e-05 1.6704634869e+00 -2.8933276315e+00 1.6704634869e+00 2.8933276315e+00 
101600 6.1937233369e+00 7.0034469194e-05 1.6704613624e+00 -2.8933239518e+00 1.6704613624e+00 2.8933239518e+00 
101700 6.1937233304e+00 7.0413899737e-05 1.6704613624e+00 -2.8933239518e+00 1.6704613624e+00 2.8933239518e+00 
101800 6.1937233240e+00 7.0792641573e-05 1.6704613624e+00 -2.8933239518e+00 1.6704613624e+00 2.8933239518e+00 
101900 6.1937233175e+00 6.9847610995e-05 1.6704592434e+00 -2.8933202816e+00 1.6704592434e+00 2.8933202816e+00 
102000 6.1937233112e+00 7.0221532018e-05 1.6704592434e+00 -2.8933202816e+00 1.6704592434e+00 2.8933202816e+00 
102100 6.1937233049e+00 7.0594774136e-05 1.6704592434e+00 -2.8933202816e+00 1.6704592434e+00 2.8933202816e+00 
102200 6.1937232987e+00 7.0967338157e-05 1.6704592434e+00 -2.8933202816e+00 1.6704592434e+00 2.8933202816e+00 
102300 6.1937232924e+00 7.0012839508e-05 1.6704571193e+00 -2.8933166024e+00 1.6704571193e+00 2.8933166024e+00 
102400 6.1937232863e+00 7.0380594730e-05 1.6704571193e+00 -2.8933166024e+00 1.6704571193e+00 2.8933166024e+00 
102500 6.1937232803e+00 7.0747680988e-05 1.6704571193e+00 -2.8933166024e+00 1.6704571193e+00 2.8933166024e+00 
102600 6.1937232741e+00 6.9791791806e-05 1.6704550016e+00 -2.8933129346e+00 1.6704550016e+00 2.8933129346e+00 
102700 6.1937232682e+00 7.0154098930e-05 1.6704550016e+00 -2.8933129346e+00 1.6704550016e+00 2.8933129346e+00 
102800 6.1937232623e+00 7.0515746982e-05 1.6704550016e+00 -2.8933129346e+00 1.6704550016e+00 2.8933129346e+00 
102900 6.1937232565e+00 7.0876736840e-05 1.6704550016e+00 -2.8933129346e+00 1.6704550016e+00 2.8933129346e+00 
103000 6.1937232505e+00 6.9912315151e-05 1.6704528802e+00 -2.8933092601e+00 1.6704528802e+00 2.8933092601e+00 
103100 6.1937232448e+00 7.0268540637e-05 1.6704528802e+00 -2.8933092601e+00 1.6704528802e+00 2.8933092601e+00 
103200 6.1937232392e+00 7.0624117357e-05 1.6704528802e+00 -2.8933092601e+00 1.6704528802e+00 2.8933092601e+00 
103300 6.1937232336e+00 7.0979046012e-05 1.6704528802e+00 -2.8933092601e+00 1.6704528802e+00 2.8933092601e+00 
103400 6.1937232278e+00 7.0006626680e-05 1.6704507556e+00 -2.8933055803e+00 1.6704507556e+00 2.8933055803e+00 
103500 6.1937232223e+00 7.0356805665e-05 1.6704507556e+00 -2.8933055803e+00 1.6704507556e+00 2.8933055803e+00 
103600 6.1937232168e+00 7.0706345484e-05 1.6704507556e+00 -2.8933055803e+00 1.6704507556e+00 2.8933055803e+00 
103700 6.1937232114e+00 7.1055246661e-05 1.6704507556e+00 -2.8933055803e+00 1.6704507556e+00 2.8933055803e+00 
103800 6.1937232059e+00 7.0075351158e-05 1.6704486288e+00 -2.8933018965e+00 1.6704486288e+00 2.8933018965e+00 
103900 6.1937232006e+00 7.0419517264e-05 1.6704486288e+00 -2.8933018965e+00 1.6704486288e+00 2.8933018965e+00 
104000 6.1937231953e+00 7.0763053142e-05 1.6704486288e+00 -2.8933018965e+00 1.6704486288e+00 2.8933018965e+00 
104100 6.1937231899e+00 6.9783236681e-05 1.6704465107e+00 -2.8932982279e+00 1.6704465107e+00 2.8932982279e+00 
104200 6.1937231847e+00 7.0122069512e-05 1.6704465107e+00 -2.8932982279e+00 1.6704465107e+00 2.8932982279e+00 
104300 6.1937231796e+00 7.0460281566e-05 1.6704465107e+00 -2.8932982279e+00 1.6704465107e+00 2.8932982279e+00 
104400 6.1937231745e+00 7.0797873652e-05 1.6704465107e+00 -2.8932982279e+00 1.6704465107e+00 2.8932982279e+00 
104500 6.1937231693e+00 6.9811440196e-05 1.6704443916e+00 -2.8932945574e+00 1.6704443916e+00 2.8932945574e+00 
104600 6.1937231643e+00 7.0144348030e-05 1.6704443916e+00 -2.8932945574e+00 1.6704443916e+00 2.8932945574e+00 
104700 6.1937231594e+00 7.0476645348e-05 1.6704443916e+00 -2.8932945574e+00 1.6704443916e+00 2.8932945574e+00 
104800 6.1937231545e+00 7.0808332954e-05 1.6704443916e+00 -2.8932945574e+00 1.6704443916e+00 2.8932945574e+00 
104900 6.1937231495e+00 6.9815777668e-05 1.6704422721e+00 -2.8932908864e+00 1.6704422721e+00 2.8932908864e+00 
105000 6.1937231446e+00 7.0142800982e-05 1.6704422721e+00 -2.8932908864e+00 1.6704422721e+00 2.8932908864e+00 
105100 6.1937231399e+00 7.0469224027e-05 1.6704422721e+00 -2.8932908864e+00 1.6704422721e+00 2.8932908864e+00 
105200 6.1937231352e+00 7.0795047609e-05 1.6704422721e+00 -2.8932908864e+00 1.6704422721e+00 2.8932908864e+00 
105300 6.1937231303e+00 6.9796855311e-05 1.6704401531e+00 -2.8932872161e+00 1.6704401531e+00 2.8932872161e+00 
105400 6.1937231257e+00 7.0118035738e-05 1.6704401531e+00 -2.8932872161e+00 1.6704401531e+00 2.8932872161e+00 
105500 6.1937231211e+00 7.0438626177e-05 1.6704401531e+00 -2.8932872161e+00 1.6704401531e+00 2.8932872161e+00 
105600 6.1937231165e+00 7.0758627460e-05 1.6704401531e+00 -2.8932872161e+00 1.6704401531e+00 2.8932872161e+00 
105700 6.1937231118e+00 6.9755272940e-05 1.6704380351e+00 -2.8932835477e+00 1.6704380351e+00 2.8932835477e+00 
105800 6.1937231073e+00 7.0070653521e-05 1.6704380351e+00 -2.8932835477e+00 1.6704380351e+00 2.8932835477e+00 
105900 6.1937231029e+00 7.0385454530e-05 1.6704380351e+00 -2.8932835477e+00 1.6704380351e+00 2.8932835477e+00 
106000 6.1937230985e+00 7.0699676851e-05 1.6704380351e+00 -2.8932835477e+00 1.6704380351e+00 2.8932835477e+00 
106100 6.1937230941e+00 7.1013320966e-05 1.6704380351e+00 -2.8932835477e+00 1.6704380351e+00 2.8932835477e+00 
106200 6.1937230896e+00 6.9998821529e-05 1.6704359095e+00 -2.8932798661e+00 1.6704359095e+00 2.8932798661e+00 
106300 6.1937230854e+00 7.0307853269e-05 1.6704359095e+00 -2.8932798661e+00 1.6704359095e+00 2.8932798661e+00 
106400 6.1937230811e+00 7.0616315250e-05 1.6704359095e+00 -2.8932798661e+00 1.6704359095e+00 2.8932798661e+00 
106500 6.1937230769e+00 7.0924207949e-05 1.6704359095e+00 -2.8932798661e+00 1.6704359095e+00 2.8932798661e+00 
106600 6.1937230726e+00 6.9905601853e-05 1.6704337866e+00 -2.8932761891e+00 1.6704337866e+00 2.8932761891e+00 
106700 6.1937230685e+00 7.0208904423e-05 1.6704337866e+00 -2.8932761891e+00 1.6704337866e+00 2.8932761891e+00 
106800 6.1937230644e+00 7.0511646285e-05 1.6704337866e+00 -2.8932761891e+00 1.6704337866e+00 2.8932761891e+00 
106900 6.1937230603e+00 7.0813828012e-05 1.6704337866e+00 -2.8932761891e+00 1.6704337866e+00 2.8932761891e+00 
107000 6.1937230561e+00 6.9791554163e-05 1.6704316670e+00 -2.8932725178e+00 1.6704316670e+00 2.8932725178e+00 
107100 6.1937230522e+00 7.0089169772e-05 1.6704316670e+00 -2.8932725178e+00 1.6704316670e+00 2.8932725178e+00 
107200 6.1937230482e+00 7.0386234215e-05 1.6704316670e+00 -2.8932725178e+00 1.6704316670e+00 2.8932725178e+00 
107300 6.1937230443e+00 7.0682748239e-05 1.6704316670e+00 -2.8932725178e+00 1.6704316670e+00 2.8932725178e+00 
107400 6.1937230404e+00 7.0978712223e-05 1.6704316670e+00 -2.8932725178e+00 1.6704316670e+00 2.8932725178e+00 
107500 6.1937230364e+00 6.9947112742e-05 1.6704295424e+00 -2.8932688379e+00 1.6704295424e+00 2.8932688379e+00 
107600 6.1937230326e+00 7.0238522093e-05 1.6704295424e+00 -2.8932688379e+00 1.6704295424e+00 2.8932688379e+00 
107700 6.1937230289e+00 7.0529389739e-05 1.6704295424e+00 -2.8932688379e+00 1.6704295424e+00 2.8932688379e+00 
107800 6.1937230251e+00 7.0819716199e-05 1.6704295424e+00 -2.8932688379e+00 1.6704295424e+00 2.8932688379e+00 
107900 6.1937230212e+00 6.9785432194e-05 1.6704274226e+00 -2.8932651663e+00 1.6704274226e+00 2.8932651663e+00 
108000 6.1937230176e+00 7.0071229992e-05 1.6704274226e+00 -2.8932651663e+00 1.6704274226e+00 2.8932651663e+00 
108100 6.1937230139e+00 7.0356495516e-05 1.6704274226e+00 -2.8932651663e+00 1.6704274226e+00 2.8932651663e+00 
108200 6.1937230103e+00 7.0641229532e-05 1.6704274226e+00 -2.8932651663e+00 1.6704274226e+00 2.8932651663e+00 
108300 6.1937230068e+00 7.0925432463e-05 1.6704274226e+00 -2.8932651663e+00 1.6704274226e+00 2.8932651663e+00 
108400 6.1937230031e+00 6.9883024472e-05 1.6704252996e+00 -2.8932614892e+00 1.6704252996e+00 2.8932614892e+00 
108500 6.1937229996e+00 7.0162713419e-05 1.6704252996e+00 -2.8932614892e+00 1.6704252996e+00 2.8932614892e+00 
108600 6.1937229961e+00 7.0441879854e-05 1.6704252996e+00 -2.8932614892e+00 1.6704252996e+00 2.8932614892e+00 
108700 6.1937229926e+00 7.0720524429e-05 1.6704252996e+00 -2.8932614892e+00 1.6704252996e+00 2.8932614892e+00 
108800 6.1937229891e+00 6.9676371091e-05 1.6704231828e+00 -2.8932578228e+00 1.6704231828e+00 2.8932578228e+00 
108900 6.1937229857e+00 6.9950530890e-05 1.6704231828e+00 -2.8932578228e+00 1.6704231828e+00 2.8932578228e+00 
109000 6.1937229823e+00 7.0224178239e-05 1.6704231828e+00 -2.8932578228e+00 1.6704231828e+00 2.8932578228e+00 
109100 6.1937229790e+00 7.0497314117e-05 1.6704231828e+00 -2.8932578228e+00 1.6704231828e+00 2.8932578228e+00 
109200 6.1937229757e+00 7.0769939182e-05 1.6704231828e+00 -2.8932578228e+00 1.6704231828e+00 2.8932578228e+00 
109300 6.1937229723e+00 6.9718820782e-05 1.6704210645e+00 -2.8932541537e+00 1.6704210645e+00 2.8932541537e+00 
109400 6.1937229691e+00 6.9986980706e-05 1.6704210645e+00 -2.8932541537e+00 1.6704210645e+00 2.8932541537e+00 
109500 6.1937229659e+00 7.0254639193e-05 1.6704210645e+00 -2.8932541537e+00 1.6704210645e+00 2.8932541537e+00 
109600 6.1937229627e+00 7.0521797206e-05 1.6704210645e+00 -2.8932541537e+00 1.6704210645e+00 2.8932541537e+00 
109700 6.1937229595e+00 7.0788455377e-05 1.6704210645e+00 -2.8932541537e+00 1.6704210645e+00 2.8932541537e+00 
109800 6.1937229562e+00 6.9731002761e-05 1.6704189456e+00 -2.8932504837e+00 1.6704189456e+00 2.8932504837e+00 
109900 6.1937229532e+00 6.9993216725e-05 1.6704189456e+00 -2.8932504837e+00 1.6704189456e+00 2.8932504837e+00 
110000 6.1937229501e+00 7.0254940156e-05 1.6704189456e+00 -2.8932504837e+00 1.6704189456e+00 2.8932504837e+00 
110100 6.1937229471e+00 7.0516173996e-05 1.6704189456e+00 -2.8932504837e+00 1.6704189456e+00 2.8932504837e+00 
110200 6.1937229441e+00 7.0776918866e-05 1.6704189456e+00 -2.8932504837e+00 1.6704189456e+00 2.8932504837e+00 
110300 6.1937229409e+00 6.9713748083e-05 1.6704168271e+00 -2.8932468143e+00 1.6704168271e+00 2.8932468143e+00 
110400 6.1937229380e+00 6.9970071001e-05 1.6704168271e+00 -2.8932468143e+00 1.6704168271e+00 2.8932468143e+00 
110500 6.1937229350e+00 7.0225914246e-05 1.6704168271e+00 -2.8932468143e+00 1.6704168271e+00 2.8932468143e+00 
110600 6.1937229321e+00 7.0481278775e-05 1.6704168271e+00 -2.8932468143e+00 1.6704168271e+00 2.8932468143e+00 
110700 6.1937229293e+00 7.0736165226e-05 1.6704168271e+00 -2.8932468143e+00 1.6704168271e+00 2.8932468143e+00 
110800 6.1937229263e+00 6.9667878159e-05 1.6704147097e+00 -2.8932431470e+00 1.6704147097e+00 2.8932431470e+00 
110900 6.1937229234e+00 6.9918366489e-05 1.6704147097e+00 -2.8932431470e+00 1.6704147097e+00 2.8932431470e+00 
111000 6.1937229206e+00 7.0168386141e-05 1.6704147097e+00 -2.8932431470e+00 1.6704147097e+00 2.8932431470e+00 
111100 6.1937229179e+00 7.0417938123e-05 1.6704147097e+00 -2.8932431470e+00 1.6704147097e+00 2.8932431470e+00 
111200 6.1937229151e+00 7.0667023140e-05 1.6704147097e+00 -2.8932431470e+00 1.6704147097e+00 2.8932431470e+00 
111300 6.1937229124e+00 7.0915641555e-05 1.6704147097e+00 -2.8932431470e+00 1.6704147097e+00 2.8932431470e+00 
111400 6.1937229095e+00 6.9837706310e-05 1.6704125870e+00 -2.8932394704e+00 1.6704125870e+00 2.8932394704e+00 
111500 6.1937229069e+00 7.0081939902e-05 1.6704125870e+00 -2.8932394704e+00 1.6704125870e+00 2.8932394704e+00 
111600 6.1937229042e+00 7.0325715421e-05 1.6704125870e+00 -2.8932394704e+00 1.6704125870e+00 2.8932394704e+00 
111700 6.1937229016e+00 7.0569033572e-05 1.6704125870e+00 -2.8932394704e+00 1.6704125870e+00 2.8932394704e+00 
111800 6.1937228990e+00 7.0811894751e-05 1.6704125870e+00 -2.8932394704e+00 1.6704125870e+00 2.8932394704e+00 
111900 6.1937228963e+00 6.9730122379e-05 1.6704104675e+00 -2.8932357991e+00 1.6704104675e+00 2.8932357991e+00 
112000 6.1937228937e+00 6.9968623217e-05 1.6704104675e+00 -2.8932357991e+00 1.6704104675e+00 2.8932357991e+00 
112100 6.1937228912e+00 7.0206675842e-05 1.6704104675e+00 -2.8932357991e+00 1.6704104675e+00 2.8932357991e+00 
112200 6.1937228887e+00 7.0444281084e-05 1.6704104675e+00 -2.8932357991e+00 1.6704104675e+00 2.8932357991e+00 
112300 6.1937228862e+00 7.0681439487e-05 1.6704104675e+00 -2.8932357991e+00 1.6704104675e+00 2.8932357991e+00 
112400 6.1937228837e+00 7.0918151280e-05 1.6704104675e+00 -2.8932357991e+00 1.6704104675e+00 2.8932357991e+00 
112500 6.1937228811e+00 6.9828218905e-05 1.6704083447e+00 -2.8932321224e+00 1.6704083447e+00 2.8932321224e+00 
112600 6.1937228787e+00 7.0060585355e-05 1.6704083447e+00 -2.8932321224e+00 1.6704083447e+00 2.8932321224e+00 
112700 6.1937228763e+00 7.0292513451e-05 1.6704083447e+00 -2.8932321224e+00 1.6704083447e+00 2.8932321224e+00 
112800 6.1937228739e+00 7.0524003861e-05 1.6704083447e+00 -2.8932321224e+00 1.6704083447e+00 2.8932321224e+00 
112900 6.1937228716e+00 7.0755056969e-05 1.6704083447e+00 -2.8932321224e+00 1.6704083447e+00 2.8932321224e+00 
113000 6.1937228691e+00 6.9662496971e-05 1.6704062268e+00 -2.8932284541e+00 1.6704062268e+00 2.8932284541e+00 
113100 6.1937228668e+00 6.9889231850e-05 1.6704062268e+00 -2.8932284541e+00 1.6704062268e+00 2.8932284541e+00 
113200 6.1937228645e+00 7.0115538294e-05 1.6704062268e+00 -2.8932284541e+00 1.6704062268e+00 2.8932284541e+00 
113300 6.1937228622e+00 7.0341417229e-05 1.6704062268e+00 -2.8932284541e+00 1.6704062268e+00 2.8932284541e+00 
113400 6.1937228600e+00 7.0566869318e-05 1.6704062268e+00 -2.8932284541e+00 1.6704062268e+00 2.8932284541e+00 
113500 6.1937228577e+00 7.0791894933e-05 1.6704062268e+00 -2.8932284541e+00 1.6704062268e+00 2.8932284541e+00 
113600 6.1937228553e+00 6.9692597028e-05 1.6704041078e+00 -2.8932247838e+00 1.6704041078e+00 2.8932247838e+00 
113700 6.1937228532e+00 6.9913324199e-05 1.6704041078e+00 -2.8932247838e+00 1.6704041078e+00 2.8932247838e+00 
113800 6.1937228510e+00 7.0133633719e-05 1.6704041078e+00 -2.8932247838e+00 1.6704041078e+00 2.8932247838e+00 
113900 6.1937228488e+00 7.0353526495e-05 1.6704041078e+00 -2.8932247838e+00 1.6704041078e+00 2.8932247838e+00 
114000 6.1937228467e+00 7.0573003178e-05 1.6704041078e+00 -2.8932247838e+00 1.6704041078e+00 2.8932247838e+00 
114100 6.1937228446e+00 7.0792064132e-05 1.6704041078e+00 -2.8932247838e+00 1.6704041078e+00 2.8932247838e+00 
114200 6.1937228423e+00 6.9686777545e-05 1.6704019888e+00 -2.8932211136e+00 1.6704019888e+00 2.8932211136e+00 
114300 6.1937228403e+00 6.9901561487e-05 1.6704019888e+00 -2.8932211136e+00 1.6704019888e+00 2.8932211136e+00 
114400 6.1937228382e+00 7.0115938516e-05 1.6704019888e+00 -2.8932211136e+00 1.6704019888e+00 2.8932211136e+00 
114500 6.1937228362e+00 7.0329909553e-05 1.6704019888e+00 -2.8932211136e+00 1.6704019888e+00 2.8932211136e+00 
114600 6.1937228342e+00 7.0543475270e-05 1.6704019888e+00 -2.8932211136e+00 1.6704019888e+00 2.8932211136e+00 
114700 6.1937228322e+00 7.0756636059e-05 1.6704019888e+00 -2.8932211136e+00 1.6704019888e+00 2.8932211136e+00 
114800 6.1937228300e+00 6.9646091854e-05 1.6703998708e+00 -2.8932174452e+00 1.6703998708e+00 2.8932174452e+00 
114900 6.1937228280e+00 6.9854999042e-05 1.6703998708e+00 -2.8932174452e+00 1.6703998708e+00 2.8932174452e+00 
115000 6.1937228261e+00 7.0063510247e-05 1.6703998708e+00 -2.8932174452e+00 1.6703998708e+00 2.8932174452e+00 
115100 6.1937228242e+00 7.0271626451e-05 1.6703998708e+00 -2.8932174452e+00 1.6703998708e+00 2.8932174452e+00 
115200 6.1937228223e+00 7.0479348398e-05 1.6703998708e+00 -2.8932174452e+00 1.6703998708e+00 2.8932174452e+00 
115300 6.1937228204e+00 7.0686676561e-05 1.6703998708e+00 -2.8932174452e+00 1.6703998708e+00 2.8932174452e+00 
115400 6.1937228185e+00 7.0893611124e-05 1.6703998708e+00 -2.8932174452e+00 1.6703998708e+00 2.8932174452e+00 
115500 6.1937228165e+00 6.9774255735e-05 1.6703977488e+00 -2.8932137697e+00 1.6703977488e+00 2.8932137697e+00 
115600 6.1937228146e+00 6.9976951991e-05 1.6703977488e+00 -2.8932137697e+00 1.6703977488e+00 2.8932137697e+00 
115700 6.1937228128e+00 7.0179262943e-05 1.6703977488e+00 -2.8932137697e+00 1.6703977488e+00 2.8932137697e+00 
115800 6.1937228110e+00 7.0381189353e-05 1.6703977488e+00 -2.8932137697e+00 1.6703977488e+00 2.8932137697e+00 
115900 6.1937228092e+00 7.0582731745e-05 1.6703977488e+00 -2.8932137697e+00 1.6703977488e+00 2.8932137697e+00 
116000 6.1937228074e+00 7.0783890378e-05 1.6703977488e+00 -2.8932137697e+00 1.6703977488e+00 2.8932137697e+00 
116100 6.1937228055e+00 6.9660791679e-05 1.6703956300e+00 -2.8932100999e+00 1.6703956300e+00 2.8932100999e+00 
116200 6.1937228038e+00 6.9857737321e-05 1.6703956300e+00 -2.8932100999e+00 1.6703956300e+00 2.8932100999e+00 
116300 6.1937228020e+00 7.0054307848e-05 1.6703956300e+00 -2.8932100999e+00 1.6703956300e+00 2.8932100999e+00 
116400 6.1937228003e+00 7.0250504185e-05 1.6703956300e+00 -2.8932100999e+00 1.6703956300e+00 2.8932100999e+00 
116500 6.1937227986e+00 7.0446327037e-05 1.6703956300e+00 -2.8932100999e+00 1.6703956300e+00 2.8932100999e+00 
116600 6.1937227969e+00 7.0641776861e-05 1.6703956300e+00 -2.8932100999e+00 1.6703956300e+00 2.8932100999e+00 
116700 6.1937227953e+00 7.0836853849e-05 1.6703956300e+00 -2.8932100999e+00 1.6703956300e+00 2.8932100999e+00 
116800 6.1937227934e+00 6.9706661158e-05 1.6703935096e+00 -2.8932064273e+00 1.6703935096e+00 2.8932064273e+00 
116900 6.1937227918e+00 6.9897544180e-05 1.6703935096e+00 -2.8932064273e+00 1.6703935096e+00 2.8932064273e+00 
117000 6.1937227902e+00 7.0088062809e-05 1.6703935096e+00 -2.8932064273e+00 1.6703935096e+00 2.8932064273e+00 
117100 6.1937227886e+00 7.0278217911e-05 1.6703935096e+00 -2.8932064273e+00 1.6703935096e+00 2.8932064273e+00 
117200 6.1937227870e+00 7.0468010131e-05 1.6703935096e+00 -2.8932064273e+00 1.6703935096e+00 2.8932064273e+00 
117300 6.1937227854e+00 7.0657439879e-05 1.6703935096e+00 -2.8932064273e+00 1.6703935096e+00 2.8932064273e+00 
117400 6.1937227839e+00 7.0846507302e-05 1.6703935096e+00 -2.8932064273e+00 1.6703935096e+00 2.8932064273e+00 
117500 6.1937227821e+00 6.9710103207e-05 1.6703913890e+00 -2.8932027542e+00 1.6703913890e+00 2.8932027542e+00 
117600 6.1937227806e+00 6.9894997087e-05 1.6703913890e+00 -2.8932027542e+00 1.6703913890e+00 2.8932027542e+00 
117700 6.1937227791e+00 7.0079537004e-05 1.6703913890e+00 -2.8932027542e+00 1.6703913890e+00 2.8932027542e+00 
117800 6.1937227776e+00 7.0263723817e-05 1.6703913890e+00 -2.8932027542e+00 1.6703913890e+00 2.8932027542e+00 
117900 6.1937227761e+00 7.0447558177e-05 1.6703913890e+00 -2.8932027542e+00 1.6703913890e+00 2.8932027542e+00 
118000 6.1937227746e+00 7.0631040507e-05 1.6703913890e+00 -2.8932027542e+00 1.6703913890e+00 2.8932027542e+00 
118100 6.1937227731e+00 7.0814170980e-05 1.6703913890e+00 -2.8932027542e+00 1.6703913890e+00 2.8932027542e+00 
118200 6.1937227715e+00 6.9672414349e-05 1.6703892693e+00 -2.8931990828e+00 1.6703892693e+00 2.8931990828e+00 
118300 6.1937227700e+00 6.9851393878e-05 1.6703892693e+00 -2.8931990828e+00 1.6703892693e+00 2.8931990828e+00 
118400 6.1937227686e+00 7.0030030049e-05 1.6703892693e+00 -2.8931990828e+00 1.6703892693e+00 2.8931990828e+00 
118500 6.1937227672e+00 7.0208323792e-05 1.6703892693e+00 -2.8931990828e+00 1.6703892693e+00 2.8931990828e+00 
118600 6.1937227658e+00 7.0386275838e-05 1.6703892693e+00 -2.8931990828e+00 1.6703892693e+00 2.8931990828e+00 
118700 6.1937227644e+00 7.0563886702e-05 1.6703892693e+00 -2.8931990828e+00 1.6703892693e+00 2.8931990828e+00 
118800 6.1937227630e+00 7.0741156662e-05 1.6703892693e+00 -2.8931990828e+00 1.6703892693e+00 2.8931990828e+00 
118900 6.1937227615e+00 6.9594886223e-05 1.6703871518e+00 -2.8931954152e+00 1.6703871518e+00 2.8931954152e+00 
119000 6.1937227601e+00 6.9768031023e-05 1.6703871518e+00 -2.8931954152e+00 1.6703871518e+00 2.8931954152e+00 
119100 6.1937227588e+00 6.9940843780e-05 1.6703871518e+00 -2.8931954152e+00 1.6703871518e+00 2.8931954152e+00 
119200 6.1937227575e+00 7.0113325565e-05 1.6703871518e+00 -2.8931954152e+00 1.6703871518e+00 2.8931954152e+00 
119300 6.1937227562e+00 7.0285477264e-05 1.6703871518e+00 -2.8931954152e+00 1.6703871518e+00 2.8931954152e+00 
119400 6.1937227549e+00 7.0457299555e-05 1.6703871518e+00 -2.8931954152e+00 1.6703871518e+00 2.8931954152e+00 
119500 6.1937227536e+00 7.0628792885e-05 1.6703871518e+00 -2.8931954152e+00 1.6703871518e+00 2.8931954152e+00 
119600 6.1937227523e+00 7.0799957458e-05 1.6703871518e+00 -2.8931954152e+00 1.6703871518e+00 2.8931954152e+00 
119700 6.1937227508e+00 6.9646461155e-05 1.6703850325e+00 -2.8931917445e+00 1.6703850325e+00 2.8931917445e+00 
119800 6.1937227496e+00 6.9813521712e-05 1.6703850325e+00 -2.8931917445e+00 1.6703850325e+00 2.8931917445e+00 
119900 6.1937227483e+00 6.9980262123e-05 1.6703850325e+00 -2.8931917445e+00 1.6703850325e+00 2.8931917445e+00 
120000 6.1937227471e+00 7.0146683376e-05 1.6703850325e+00 -2.8931917445e+00 1.6703850325e+00 2.8931917445e+00 
120100 6.1937227459e+00 7.0312786273e-05 1.6703850325e+00 -2.8931917445e+00 1.6703850325e+00 2.8931917445e+00 
120200 6.1937227447e+00 7.0478571411e-05 1.6703850325e+00 -2.8931917445e+00 1.6703850325e+00 2.8931917445e+00 
120300 6.1937227435e+00 7.0644039163e-05 1.6703850325e+00 -2.8931917445e+00 1.6703850325e+00 2.8931917445e+00 
120400 6.1937227423e+00 7.0809189660e-05 1.6703850325e+00 -2.8931917445e+00 1.6703850325e+00 2.8931917445e+00 
120500 6.1937227409e+00 6.9649486333e-05 1.6703829130e+00 -2.8931880734e+00 1.6703829130e+00 2.8931880734e+00 
120600 6.1937227398e+00 6.9810555160e-05 1.6703829130e+00 -2.8931880734e+00 1.6703829130e+00 2.8931880734e+00 
120700 6.1937227386e+00 6.9971315179e-05 1.6703829130e+00 -2.8931880734e+00 1.6703829130e+00 2.8931880734e+00 
120800 6.1937227374e+00 7.0131767337e-05 1.6703829130e+00 -2.8931880734e+00 1.6703829130e+00 2.8931880734e+00 
120900 6.1937227363e+00 7.0291912411e-05 1.6703829130e+00 -2.8931880734e+00 1.6703829130e+00 2.8931880734e+00 
121000 6.1937227352e+00 7.0451750980e-05 1.6703829130e+00 -2.8931880734e+00 1.6703829130e+00 2.8931880734e+00 
121100 6.1937227341e+00 7.0611283409e-05 1.6703829130e+00 -2.8931880734e+00 1.6703829130e+00 2.8931880734e+00 
121200 6.1937227330e+00 7.0770509834e-05 1.6703829130e+00 -2.8931880734e+00 1.6703829130e+00 2.8931880734e+00 
121300 6.1937227317e+00 6.9605586506e-05 1.6703807946e+00 -2.8931844042e+00 1.6703807946e+00 2.8931844042e+00 
121400 6.1937227306e+00 6.9760755664e-05 1.6703807946e+00 -2.8931844042e+00 1.6703807946e+00 2.8931844042e+00 
121500 6.1937227295e+00 6.9915627332e-05 1.6703807946e+00 -2.8931844042e+00 1.6703807946e+00 2.8931844042e+00 
121600 6.1937227285e+00 7.0070202505e-05 1.6703807946e+00 -2.8931844042e+00 1.6703807946e+00 2.8931844042e+00 
121700 6.1937227274e+00 7.0224482018e-05 1.6703807946e+00 -2.8931844042e+00 1.6703807946e+00 2.8931844042e+00 
121800 6.1937227263e+00 7.0378466519e-05 1.6703807946e+00 -2.8931844042e+00 1.6703807946e+00 2.8931844042e+00 
121900 6.1937227253e+00 7.0532156455e-05 1.6703807946e+00 -2.8931844042e+00 1.6703807946e+00 2.8931844042e+00 
122000 6.1937227243e+00 7.0685552052e-05 1.6703807946e+00 -2.8931844042e+00 1.6703807946e+00 2.8931844042e+00 
122100 6.1937227233e+00 7.0838653305e-05 1.6703807946e+00 -2.8931844042e+00 1.6703807946e+00 2.8931844042e+00 
122200 6.1937227221e+00 6.9666308758e-05 1.6703786741e+00 -2.8931807315e+00 1.6703786741e+00 2.8931807315e+00 
122300 6.1937227211e+00 6.9815372293e-05 1.6703786741e+00 -2.8931807315e+00 1.6703786741e+00 2.8931807315e+00 
122400 6.1937227201e+00 6.9964149588e-05 1.6703786741e+00 -2.8931807315e+00 1.6703786741e+00 2.8931807315e+00 
122500 6.1937227191e+00 7.0112641512e-05 1.6703786741e+00 -2.8931807315e+00 1.6703786741e+00 2.8931807315e+00 
122600 6.1937227181e+00 7.0260848777e-05 1.6703786741e+00 -2.8931807315e+00 1.6703786741e+00 2.8931807315e+00 
122700 6.1937227172e+00 7.0408771916e-05 1.6703786741e+00 -2.8931807315e+00 1.6703786741e+00 2.8931807315e+00 
122800 6.1937227162e+00 7.0556411271e-05 1.6703786741e+00 -2.8931807315e+00 1.6703786741e+00 2.8931807315e+00 
122900 6.1937227152e+00 7.0703766973e-05 1.6703786741e+00 -2.8931807315e+00 1.6703786741e+00 2.8931807315e+00 
123000 6.1937227143e+00 7.0850838931e-05 1.6703786741e+00 -2.8931807315e+00 1.6703786741e+00 2.8931807315e+00 
123100 6.1937227132e+00 6.9672215905e-05 1.6703765533e+00 -2.8931770582e+00 1.6703765533e+00 2.8931770582e+00 
123200 6.1937227123e+00 6.9815270511e-05 1.6703765533e+00 -2.8931770582e+00 1.6703765533e+00 2.8931770582e+00 
123300 6.1937227114e+00 6.9958049292e-05 1.6703765533e+00 -2.8931770582e+00 1.6703765533e+00 2.8931770582e+00 
123400 6.1937227105e+00 7.0100553082e-05 1.6703765533e+00 -2.8931770582e+00 1.6703765533e+00 2.8931770582e+00 
123500 6.1937227096e+00 7.0242782571e-05 1.6703765533e+00 -2.8931770582e+00 1.6703765533e+00 2.8931770582e+00 
123600 6.1937227087e+00 7.0384738283e-05 1.6703765533e+00 -2.8931770582e+00 1.6703765533e+00 2.8931770582e+00 
123700 6.1937227078e+00 7.0526420564e-05 1.6703765533e+00 -2.8931770582e+00 1.6703765533e+00 2.8931770582e+00 
123800 6.1937227069e+00 7.0667829566e-05 1.6703765533e+00 -2.8931770582e+00 1.6703765533e+00 2.8931770582e+00 
123900 6.1937227060e+00 7.0808965229e-05 1.6703765533e+00 -2.8931770582e+00 1.6703765533e+00 2.8931770582e+00 
124000 6.1937227050e+00 6.9625169026e-05 1.6703744338e+00 -2.8931733870e+00 1.6703744338e+00 2.8931733870e+00 
124100 6.1937227042e+00 6.9762310303e-05 1.6703744338e+00 -2.8931733870e+00 1.6703744338e+00 2.8931733870e+00 
124200 6.1937227033e+00 6.9899186330e-05 1.6703744338e+00 -2.8931733870e+00 1.6703744338e+00 2.8931733870e+00 
124300 6.1937227025e+00 7.0035798023e-05 1.6703744338e+00 -2.8931733870e+00 1.6703744338e+00 2.8931733870e+00 
124400 6.1937227017e+00 7.0172146171e-05 1.6703744338e+00 -2.8931733870e+00 1.6703744338e+00 2.8931733870e+00 
124500 6.1937227008e+00 7.0308231408e-05 1.6703744338e+00 -2.8931733870e+00 1.6703744338e+00 2.8931733870e+00 
124600 6.1937227000e+00 7.0444054203e-05 1.6703744338e+00 -2.8931733870e+00 1.6703744338e+00 2.8931733870e+00 
124700 6.1937226992e+00 7.0579614839e-05 1.6703744338e+00 -2.8931733870e+00 1.6703744338e+00 2.8931733870e+00 
124800 6.1937226984e+00 7.0714913402e-05 1.6703744338e+00 -2.8931733870e+00 1.6703744338e+00 2.8931733870e+00 
124900 6.1937226974e+00 6.9527021416e-05 1.6703723171e+00 -2.8931697207e+00 1.6703723171e+00 2.8931697207e+00 
125000 6.1937226967e+00 6.9658353155e-05 1.6703723171e+00 -2.8931697207e+00 1.6703723171e+00 2.8931697207e+00 
125100 6.1937226959e+00 6.9789431393e-05 1.6703723171e+00 -2.8931697207e+00 1.6703723171e+00 2.8931697207e+00 
125200 6.1937226951e+00 6.9920257228e-05 1.6703723171e+00 -2.8931697207e+00 1.6703723171e+00 2.8931697207e+00 
125300 6.1937226944e+00 7.0050831642e-05 1.6703723171e+00 -2.8931697207e+00 1.6703723171e+00 2.8931697207e+00 
125400 6.1937226936e+00 7.0181155470e-05 1.6703723171e+00 -2.8931697207e+00 1.6703723171e+00 2.8931697207e+00 
125500 6.1937226928e+00 7.0311229388e-05 1.6703723171e+00 -2.8931697207e+00 1.6703723171e+00 2.8931697207e+00 
125600 6.1937226921e+00 7.0441053894e-05 1.6703723171e+00 -2.8931697207e+00 1.6703723171e+00 2.8931697207e+00 
125700 6.1937226914e+00 7.0570629296e-05 1.6703723171e+00 -2.8931697207e+00 1.6703723171e+00 2.8931697207e+00 
125800 6.1937226906e+00 7.0699955706e-05 1.6703723171e+00 -2.8931697207e+00 1.6703723171e+00 2.8931697207e+00 
125900 6.1937226899e+00 7.0829033020e-05 1.6703723171e+00 -2.8931697207e+00 1.6703723171e+00 2.8931697207e+00 
126000 6.1937226890e+00 6.9632763870e-05 1.6703701969e+00 -2.8931660485e+00 1.6703701969e+00 2.8931660485e+00 
126100 6.1937226883e+00 6.9757894111e-05 1.6703701969e+00 -2.8931660485e+00 1.6703701969e+00 2.8931660485e+00 
126200 6.1937226876e+00 6.9882783219e-05 1.6703701969e+00 -2.8931660485e+00 1.6703701969e+00 2.8931660485e+00 
126300 6.1937226869e+00 7.0007432090e-05 1.6703701969e+00 -2.8931660485e+00 1.6703701969e+00 2.8931660485e+00 
126400 6.1937226862e+00 7.0131841492e-05 1.6703701969e+00 -2.8931660485e+00 1.6703701969e+00 2.8931660485e+00 
126500 6.1937226855e+00 7.0256012054e-05 1.6703701969e+00 -2.8931660485e+00 1.6703701969e+00 2.8931660485e+00 
126600 6.1937226849e+00 7.0379944251e-05 1.6703701969e+00 -2.8931660485e+00 1.6703701969e+00 2.8931660485e+00 
126700 6.1937226842e+00 7.0503638387e-05 1.6703701969e+00 -2.8931660485e+00 1.6703701969e+00 2.8931660485e+00 
126800 6.1937226835e+00 7.0627094585e-05 1.6703701969e+00 -2.8931660485e+00 1.6703701969e+00 2.8931660485e+00 
126900 6.1937226829e+00 7.0750312775e-05 1.6703701969e+00 -2.8931660485e+00 1.6703701969e+00 2.8931660485e+00 
127000 6.1937226820e+00 6.9549638474e-05 1.6703680791e+00 -2.8931623803e+00 1.6703680791e+00 2.8931623803e+00 
127100 6.1937226814e+00 6.9668935737e-05 1.6703680791e+00 -2.8931623803e+00 1.6703680791e+00 2.8931623803e+00 
127200 6.1937226808e+00 6.9788003144e-05 1.6703680791e+00 -2.8931623803e+00 1.6703680791e+00 2.8931623803e+00 
127300 6.1937226801e+00 6.9906841686e-05 1.6703680791e+00 -2.8931623803e+00 1.6703680791e+00 2.8931623803e+00 
127400 6.1937226795e+00 7.0025452244e-05 1.6703680791e+00 -2.8931623803e+00 1.6703680791e+00 2.8931623803e+00 
127500 6.1937226789e+00 7.0143835578e-05 1.6703680791e+00 -2.8931623803e+00 1.6703680791e+00 2.8931623803e+00 
127600 6.1937226782e+00 7.0261992301e-05 1.6703680791e+00 -2.8931623803e+00 1.6703680791e+00 2.8931623803e+00 
127700 6.1937226776e+00 7.0379922872e-05 1.6703680791e+00 -2.8931623803e+00 1.6703680791e+00 2.8931623803e+00 
127800 6.1937226770e+00 7.0497627579e-05 1.6703680791e+00 -2.8931623803e+00 1.6703680791e+00 2.8931623803e+00 
127900 6.1937226764e+00 7.0615106530e-05 1.6703680791e+00 -2.8931623803e+00 1.6703680791e+00 2.8931623803e+00 
128000 6.1937226758e+00 7.0732359643e-05 1.6703680791e+00 -2.8931623803e+00 1.6703680791e+00 2.8931623803e+00 
128100 6.1937226751e+00 6.9526037231e-05 1.6703659618e+00 -2.8931587131e+00 1.6703659618e+00 2.8931587131e+00 
128200 6.1937226745e+00 6.9639394582e-05 1.6703659618e+00 -2.8931587131e+00 1.6703659618e+00 2.8931587131e+00 
128300 6.1937226739e+00 6.9752534233e-05 1.6703659618e+00 -2.8931587131e+00 1.6703659618e+00 2.8931587131e+00 
128400 6.1937226733e+00 6.9865457184e-05 1.6703659618e+00 -2.8931587131e+00 1.6703659618e+00 2.8931587131e+00 
128500 6.1937226727e+00 6.9978164333e-05 1.6703659618e+00 -2.8931587131e+00 1.6703659618e+00 2.8931587131e+00 
128600 6.1937226722e+00 7.0090656458e-05 1.6703659618e+00 -2.8931587131e+00 1.6703659618e+00 2.8931587131e+00 
128700 6.1937226716e+00 7.0202934204e-05 1.6703659618e+00 -2.8931587131e+00 1.6703659618e+00 2.8931587131e+00 
128800 6.1937226711e+00 7.0314998067e-05 1.6703659618e+00 -2.8931587131e+00 1.6703659618e+00 2.8931587131e+00 
128900 6.1937226705e+00 7.0426848378e-05 1.6703659618e+00 -2.8931587131e+00 1.6703659618e+00 2.8931587131e+00 
129000 6.1937226700e+00 7.0538485300e-05 1.6703659618e+00 -2.8931587131e+00 1.6703659618e+00 2.8931587131e+00 
129100 6.1937226694e+00 7.0649908815e-05 1.6703659618e+00 -2.8931587131e+00 1.6703659618e+00 2.8931587131e+00 
129200 6.1937226689e+00 7.0761118715e-05 1.6703659618e+00 -2.8931587131e+00 1.6703659618e+00 2.8931587131e+00 
129300 6.1937226682e+00 6.9548195122e-05 1.6703638437e+00 -2.8931550444e+00 1.6703638437e+00 2.8931550444e+00 
129400 6.1937226677e+00 6.9655531909e-05 1.6703638437e+00 -2.8931550444e+00 1.6703638437e+00 2.8931550444e+00 
129500 6.1937226671e+00 6.9762662870e-05 1.6703638437e+00 -2.8931550444e+00 1.6703638437e+00 2.8931550444e+00 
129600 6.1937226666e+00 6.9869588900e-05 1.6703638437e+00 -2.8931550444e+00 1.6703638437e+00 2.8931550444e+00 
129700 6.1937226661e+00 6.9976310800e-05 1.6703638437e+00 -2.8931550444e+00 1.6703638437e+00 2.8931550444e+00 
129800 6.1937226656e+00 7.0082829264e-05 1.6703638437e+00 -2.8931550444e+00 1.6703638437e+00 2.8931550444e+00 
129900 6.1937226651e+00 7.0189144859e-05 1.6703638437e+00 -2.8931550444e+00 1.6703638437e+00 2.8931550444e+00 
130000 6.1937226646e+00 7.0295258015e-05 1.6703638437e+00 -2.8931550444e+00 1.6703638437e+00 2.8931550444e+00 
130100 6.1937226641e+00 7.0401169009e-05 1.6703638437e+00 -2.8931550444e+00 1.6703638437e+00 2.8931550444e+00 
130200 6.1937226636e+00 7.0506877957e-05 1.6703638437e+00 -2.8931550444e+00 1.6703638437e+00 2.8931550444e+00 
130300 6.1937226631e+00 7.0612384810e-05 1.6703638437e+00 -2.8931550444e+00 1.6703638437e+00 2.8931550444e+00 
130400 6.1937226627e+00 7.0717689342e-05 1.6703638437e+00 -2.8931550444e+00 1.6703638437e+00 2.8931550444e+00 
130500 6.1937226620e+00 6.9499653659e-05 1.6703617269e+00 -2.8931513779e+00 1.6703617269e+00 2.8931513779e+00 
130600 6.1937226615e+00 6.9601109734e-05 1.6703617269e+00 -2.8931513779e+00 1.6703617269e+00 2.8931513779e+00 
130700 6.1937226611e+00 6.9702371282e-05 1.6703617269e+00 -2.8931513779e+00 1.6703617269e+00 2.8931513779e+00 
130800 6.1937226606e+00 6.9803439222e-05 1.6703617269e+00 -2.8931513779e+00 1.6703617269e+00 2.8931513779e+00 
130900 6.1937226601e+00 6.9904314401e-05 1.6703617269e+00 -2.8931513779e+00 1.6703617269e+00 2.8931513779e+00 
131000 6.1937226597e+00 7.0004997564e-05 1.6703617269e+00 -2.8931513779e+00 1.6703617269e+00 2.8931513779e+00 
131100 6.1937226592e+00 7.0105489343e-05 1.6703617269e+00 -2.8931513779e+00 1.6703617269e+00 2.8931513779e+00 
131200 6.1937226588e+00 7.0205790245e-05 1.6703617269e+00 -2.8931513779e+00 1.6703617269e+00 2.8931513779e+00 
131300 6.1937226584e+00 7.0305900637e-05 1.6703617269e+00 -2.8931513779e+00 1.6703617269e+00 2.8931513779e+00 
131400 6.1937226579e+00 7.0405820735e-05 1.6703617269e+00 -2.8931513779e+00 1.6703617269e+00 2.8931513779e+00 
131500 6.1937226575e+00 7.0505550601e-05 1.6703617269e+00 -2.8931513779e+00 1.6703617269e+00 2.8931513779e+00 
131600 6.1937226571e+00 7.0605090129e-05 1.6703617269e+00 -2.8931513779e+00 1.6703617269e+00 2.8931513779e+00 
131700 6.1937226566e+00 7.0704439045e-05 1.6703617269e+00 -2.8931513779e+00 1.6703617269e+00 2.8931513779e+00 
131800 6.1937226562e+00 7.0803596902e-05 1.6703617269e+00 -2.8931513779e+00 1.6703617269e+00 2.8931513779e+00 
131900 6.1937226556e+00 6.9577785101e-05 1.6703596075e+00 -2.8931477070e+00 1.6703596075e+00 2.8931477070e+00 
132000 6.1937226552e+00 6.9673112152e-05 1.6703596075e+00 -2.8931477070e+00 1.6703596075e+00 2.8931477070e+00 
132100 6.1937226548e+00 6.9768255303e-05 1.6703596075e+00 -2.8931477070e+00 1.6703596075e+00 2.8931477070e+00 
132200 6.1937226544e+00 6.9863215283e-05 1.6703596075e+00 -2.8931477070e+00 1.6703596075e+00 2.8931477070e+00 
132300 6.1937226540e+00 6.9957992751e-05 1.6703596075e+00 -2.8931477070e+00 1.6703596075e+00 2.8931477070e+00 
132400 6.1937226536e+00 7.0052588279e-05 1.6703596075e+00 -2.8931477070e+00 1.6703596075e+00 2.8931477070e+00 
132500 6.1937226532e+00 7.0147002338e-05 1.6703596075e+00 -2.8931477070e+00 1.6703596075e+00 2.8931477070e+00 
132600 6.1937226528e+00 7.0241235287e-05 1.6703596075e+00 -2.8931477070e+00 1.6703596075e+00 2.8931477070e+00 
132700 6.1937226524e+00 7.0335287359e-05 1.6703596075e+00 -2.8931477070e+00 1.6703596075e+00 2.8931477070e+00 
132800 6.1937226520e+00 7.0429158656e-05 1.6703596075e+00 -2.8931477070e+00 1.6703596075e+00 2.8931477070e+00 
132900 6.1937226516e+00 7.0522849133e-05 1.6703596075e+00 -2.8931477070e+00 1.6703596075e+00 2.8931477070e+00 
133000 6.1937226512e+00 7.0616358599e-05 1.6703596075e+00 -2.8931477070e+00 1.6703596075e+00 2.8931477070e+00 
133100 6.1937226509e+00 7.0709686712e-05 1.6703596075e+00 -2.8931477070e+00 1.6703596075e+00 2.8931477070e+00 
133200 6.1937226505e+00 7.0802832970e-05 1.6703596075e+00 -2.8931477070e+00 1.6703596075e+00 2.8931477070e+00 
133300 6.1937226500e+00 6.9571001616e-05 1.6703574881e+00 -2.8931440361e+00 1.6703574881e+00 2.8931440361e+00 
133400 6.1937226496e+00 6.9660335391e-05 1.6703574881e+00 -2.8931440361e+00 1.6703574881e+00 2.8931440361e+00 
133500 6.1937226492e+00 6.9749494411e-05 1.6703574881e+00 -2.8931440361e+00 1.6703574881e+00 2.8931440361e+00 
133600 6.1937226489e+00 6.9838479419e-05 1.6703574881e+00 -2.8931440361e+00 1.6703574881e+00 2.8931440361e+00 
133700 6.1937226485e+00 6.9927291106e-05 1.6703574881e+00 -2.8931440361e+00 1.6703574881e+00 2.8931440361e+00 
133800 6.1937226482e+00 7.0015930092e-05 1.6703574881e+00 -2.8931440361e+00 1.6703574881e+00 2.8931440361e+00 
133900 6.1937226478e+00 7.0104396914e-05 1.6703574881e+00 -2.8931440361e+00 1.6703574881e+00 2.8931440361e+00 
134000 6.1937226475e+00 7.0192692011e-05 1.6703574881e+00 -2.8931440361e+00 1.6703574881e+00 2.8931440361e+00 
134100 6.1937226471e+00 7.0280815715e-05 1.6703574881e+00 -2.8931440361e+00 1.6703574881e+00 2.8931440361e+00 
134200 6.1937226468e+00 7.0368768233e-05 1.6703574881e+00 -2.8931440361e+00 1.6703574881e+00 2.8931440361e+00 
134300 6.1937226464e+00 7.0456549651e-05 1.6703574881e+00 -2.8931440361e+00 1.6703574881e+00 2.8931440361e+00 
134400 6.1937226461e+00 7.0544159920e-05 1.6703574881e+00 -2.8931440361e+00 1.6703574881e+00 2.8931440361e+00 
134500 6.1937226458e+00 7.0631598849e-05 1.6703574881e+00 -2.8931440361e+00 1.6703574881e+00 2.8931440361e+00 
134600 6.1937226455e+00 7.0718866104e-05 1.6703574881e+00 -2.8931440361e+00 1.6703574881e+00 2.8931440361e+00 
134700 6.1937226450e+00 6.9482707475e-05 1.6703553712e+00 -2.8931403696e+00 1.6703553712e+00 2.8931403696e+00 
134800 6.1937226446e+00 6.9566187222e-05 1.6703553712e+00 -2.8931403696e+00 1.6703553712e+00 2.8931403696e+00 
134900 6.1937226443e+00 6.9649502957e-05 1.6703553712e+00 -2.8931403696e+00 1.6703553712e+00 2.8931403696e+00 
135000 6.1937226440e+00 6.9732655636e-05 1.6703553712e+00 -2.8931403696e+00 1.6703553712e+00 2.8931403696e+00 
135100 6.1937226437e+00 6.9815646172e-05 1.6703553712e+00 -2.8931403696e+00 1.6703553712e+00 2.8931403696e+00 
135200 6.1937226434e+00 6.9898475418e-05 1.6703553712e+00 -2.8931403696e+00 1.6703553712e+00 2.8931403696e+00 
135300 6.1937226431e+00 6.9981144152e-05 1.6703553712e+00 -2.8931403696e+00 1.6703553712e+00 2.8931403696e+00 
135400 6.1937226428e+00 7.0063653062e-05 1.6703553712e+00 -2.8931403696e+00 1.6703553712e+00 2.8931403696e+00 
135500 6.1937226425e+00 7.0146002735e-05 1.6703553712e+00 -2.8931403696e+00 1.6703553712e+00 2.8931403696e+00 
135600 6.1937226422e+00 7.0228193644e-05 1.6703553712e+00 -2.8931403696e+00 1.6703553712e+00 2.8931403696e+00 
135700 6.1937226419e+00 7.0310226142e-05 1.6703553712e+00 -2.8931403696e+00 1.6703553712e+00 2.8931403696e+00 
135800 6.1937226416e+00 7.0392100457e-05 1.6703553712e+00 -2.8931403696e+00 1.6703553712e+00 2.8931403696e+00 
135900 6.1937226413e+00 7.0473816677e-05 1.6703553712e+00 -2.8931403696e+00 1.6703553712e+00 2.8931403696e+00 
136000 6.1937226410e+00 7.0555374754e-05 1.6703553712e+00 -2.8931403696e+00 1.6703553712e+00 2.8931403696e+00 
136100 6.1937226407e+00 7.0636774492e-05 1.6703553712e+00 -2.8931403696e+00 1.6703553712e+00 2.8931403696e+00 
136200 6.1937226404e+00 7.0718015553e-05 1.6703553712e+00 -2.8931403696e+00 1.6703553712e+00 2.8931403696e+00 
136300 6.1937226400e+00 6.9475828241e-05 1.6703532543e+00 -2.8931367031e+00 1.6703532543e+00 2.8931367031e+00 
136400 6.1937226397e+00 6.9553307775e-05 1.6703532543e+00 -2.8931367031e+00 1.6703532543e+00 2.8931367031e+00 
136500 6.1937226394e+00 6.9630636271e-05 1.6703532543e+00 -2.8931367031e+00 1.6703532543e+00 2.8931367031e+00 
136600 6.1937226391e+00 6.9707814683e-05 1.6703532543e+00 -2.8931367031e+00 1.6703532543e+00 2.8931367031e+00 
136700 6.1937226389e+00 6.9784843925e-05 1.6703532543e+00 -2.8931367031e+00 1.6703532543e+00 2.8931367031e+00 
136800 6.1937226386e+00 6.9861724854e-05 1.6703532543e+00 -2.8931367031e+00 1.6703532543e+00 2.8931367031e+00 
136900 6.1937226383e+00 6.9938458257e-05 1.6703532543e+00 -2.8931367031e+00 1.6703532543e+00 2.8931367031e+00 
137000 6.1937226381e+00 7.0015044838e-05 1.6703532543e+00 -2.8931367031e+00 1.6703532543e+00 2.8931367031e+00 
137100 6.1937226378e+00 7.0091485203e-05 1.6703532543e+00 -2.8931367031e+00 1.6703532543e+00 2.8931367031e+00 
137200 6.1937226376e+00 7.0167779856e-05 1.6703532543e+00 -2.8931367031e+00 1.6703532543e+00 2.8931367031e+00 
137300 6.1937226373e+00 7.0243929181e-05 1.6703532543e+00 -2.8931367031e+00 1.6703532543e+00 2.8931367031e+00 
137400 6.1937226370e+00 7.0319933447e-05 1.6703532543e+00 -2.8931367031e+00 1.6703532543e+00 2.8931367031e+00 
137500 6.1937226368e+00 7.0395792791e-05 1.6703532543e+00 -2.8931367031e+00 1.6703532543e+00 2.8931367031e+00 
137600 6.1937226365e+00 7.0471507219e-05 1.6703532543e+00 -2.8931367031e+00 1.6703532543e+00 2.8931367031e+00 
137700 6.1937226363e+00 7.0547076601e-05 1.6703532543e+00 -2.8931367031e+00 1.6703532543e+00 2.8931367031e+00 
137800 6.1937226361e+00 7.0622500668e-05 1.6703532543e+00 -2.8931367031e+00 1.6703532543e+00 2.8931367031e+00 
137900 6.1937226358e+00 7.0697779010e-05 1.6703532543e+00 -2.8931367031e+00 1.6703532543e+00 2.8931367031e+00 
138000 6.1937226356e+00 7.0772911074e-05 1.6703532543e+00 -2.8931367031e+00 1.6703532543e+00 2.8931367031e+00 
138100 6.1937226352e+00 6.9523567246e-05 1.6703511358e+00 -2.8931330337e+00 1.6703511358e+00 2.8931330337e+00 
138200 6.1937226349e+00 6.9594959265e-05 1.6703511358e+00 -2.8931330337e+00 1.6703511358e+00 2.8931330337e+00 
138300 6.1937226347e+00 6.9666212058e-05 1.6703511358e+00 -2.8931330337e+00 1.6703511358e+00 2.8931330337e+00 
138400 6.1937226345e+00 6.9737326401e-05 1.6703511358e+00 -2.8931330337e+00 1.6703511358e+00 2.8931330337e+00 
138500 6.1937226342e+00 6.9808303045e-05 1.6703511358e+00 -2.8931330337e+00 1.6703511358e+00 2.8931330337e+00 
138600 6.1937226340e+00 6.9879142695e-05 1.6703511358e+00 -2.8931330337e+00 1.6703511358e+00 2.8931330337e+00 
138700 6.1937226338e+00 6.9949845998e-05 1.6703511358e+00 -2.8931330337e+00 1.6703511358e+00 2.8931330337e+00 
138800 6.1937226335e+00 7.0020413531e-05 1.6703511358e+00 -2.8931330337e+00 1.6703511358e+00 2.8931330337e+00 
138900 6.1937226333e+00 7.0090845791e-05 1.6703511358e+00 -2.8931330337e+00 1.6703511358e+00 2.8931330337e+00 
139000 6.1937226331e+00 7.0161143183e-05 1.6703511358e+00 -2.8931330337e+00 1.6703511358e+00 2.8931330337e+00 
139100 6.1937226329e+00 7.0231306014e-05 1.6703511358e+00 -2.8931330337e+00 1.6703511358e+00 2.8931330337e+00 
139200 6.1937226327e+00 7.0301334484e-05 1.6703511358e+00 -2.8931330337e+00 1.6703511358e+00 2.8931330337e+00 
139300 6.1937226325e+00 7.0371228682e-05 1.6703511358e+00 -2.8931330337e+00 1.6703511358e+00 2.8931330337e+00 
139400 6.1937226322e+00 7.0440988579e-05 1.6703511358e+00 -2.8931330337e+00 1.6703511358e+00 2.8931330337e+00 
139500 6.1937226320e+00 7.0510614025e-05 1.6703511358e+00 -2.8931330337e+00 1.6703511358e+00 2.8931330337e+00 
139600 6.1937226318e+00 7.0580104750e-05 1.6703511358e+00 -2.8931330337e+00 1.6703511358e+00 2.8931330337e+00 
139700 6.1937226316e+00 7.0649460355e-05 1.6703511358e+00 -2.8931330337e+00 1.6703511358e+00 2.8931330337e+00 
139800 6.1937226314e+00 7.0718680314e-05 1.6703511358e+00 -2.8931330337e+00 1.6703511358e+00 2.8931330337e+00 
139900 6.1937226310e+00 6.9464419514e-05 1.6703490189e+00 -2.8931293672e+00 1.6703490189e+00 2.8931293672e+00 
140000 6.1937226308e+00 6.9529923448e-05 1.6703490189e+00 -2.8931293672e+00 1.6703490189e+00 2.8931293672e+00 
140100 6.1937226306e+00 6.9595298953e-05 1.6703490189e+00 -2.8931293672e+00 1.6703490189e+00 2.8931293672e+00 
140200 6.1937226304e+00 6.9660546890e-05 1.6703490189e+00 -2.8931293672e+00 1.6703490189e+00 2.8931293672e+00 
140300 6.1937226303e+00 6.9725668107e-05 1.6703490189e+00 -2.8931293672e+00 1.6703490189e+00 2.8931293672e+00 
140400 6.1937226301e+00 6.9790663422e-05 1.6703490189e+00 -2.8931293672e+00 1.6703490189e+00 2.8931293672e+00 
140500 6.1937226299e+00 6.9855533607e-05 1.6703490189e+00 -2.8931293672e+00 1.6703490189e+00 2.8931293672e+00 
140600 6.1937226297e+00 6.9920279378e-05 1.6703490189e+00 -2.8931293672e+00 1.6703490189e+00 2.8931293672e+00 
140700 6.1937226295e+00 6.9984901380e-05 1.6703490189e+00 -2.8931293672e+00 1.6703490189e+00 2.8931293672e+00 
140800 6.1937226293e+00 7.0049400177e-05 1.6703490189e+00 -2.8931293672e+00 1.6703490189e+00 2.8931293672e+00 
140900 6.1937226291e+00 7.0113776249e-05 1.6703490189e+00 -2.8931293672e+00 1.6703490189e+00 2.8931293672e+00 
141000 6.1937226289e+00 7.0178029976e-05 1.6703490189e+00 -2.8931293672e+00 1.6703490189e+00 2.8931293672e+00 
141100 6.1937226288e+00 7.0242161638e-05 1.6703490189e+00 -2.8931293672e+00 1.6703490189e+00 2.8931293672e+00 
141200 6.1937226286e+00 7.0306171407e-05 1.6703490189e+00 -2.8931293672e+00 1.6703490189e+00 2.8931293672e+00 
141300 6.1937226284e+00 7.0370059340e-05 1.6703490189e+00 -2.8931293672e+00 1.6703490189e+00 2.8931293672e+00 
141400 6.1937226282e+00 7.0433825382e-05 1.6703490189e+00 -2.8931293672e+00 1.6703490189e+00 2.8931293672e+00 
141500 6.1937226280e+00 7.0497469358e-05 1.6703490189e+00 -2.8931293672e+00 1.6703490189e+00 2.8931293672e+00 
141600 6.1937226279e+00 7.0560990975e-05 1.6703490189e+00 -2.8931293672e+00 1.6703490189e+00 2.8931293672e+00 
141700 6.1937226277e+00 7.0624389818e-05 1.6703490189e+00 -2.8931293672e+00 1.6703490189e+00 2.8931293672e+00 
141800 6.1937226275e+00 7.0687665347e-05 1.6703490189e+00 -2.8931293672e+00 1.6703490189e+00 2.8931293672e+00 
141900 6.1937226274e+00 7.0750816908e-05 1.6703490189e+00 -2.8931293672e+00 1.6703490189e+00 2.8931293672e+00 
142000 6.1937226270e+00 6.9489865841e-05 1.6703469011e+00 -2.8931256990e+00 1.6703469011e+00 2.8931256990e+00 
142100 6.1937226269e+00 6.9549322758e-05 1.6703469011e+00 -2.8931256990e+00 1.6703469011e+00 2.8931256990e+00 
142200 6.1937226267e+00 6.9608662565e-05 1.6703469011e+00 -2.8931256990e+00 1.6703469011e+00 2.8931256990e+00 
142300 6.1937226265e+00 6.9667886030e-05 1.6703469011e+00 -2.8931256990e+00 1.6703469011e+00 2.8931256990e+00 
142400 6.1937226264e+00 6.9726993913e-05 1.6703469011e+00 -2.8931256990e+00 1.6703469011e+00 2.8931256990e+00 
142500 6.1937226262e+00 6.9785986956e-05 1.6703469011e+00 -2.8931256990e+00 1.6703469011e+00 2.8931256990e+00 
142600 6.1937226260e+00 6.9844865869e-05 1.6703469011e+00 -2.8931256990e+00 1.6703469011e+00 2.8931256990e+00 
142700 6.1937226259e+00 6.9903631315e-05 1.6703469011e+00 -2.8931256990e+00 1.6703469011e+00 2.8931256990e+00 
142800 6.1937226257e+00 6.9962283902e-05 1.6703469011e+00 -2.8931256990e+00 1.6703469011e+00 2.8931256990e+00 
142900 6.1937226256e+00 7.0020824172e-05 1.6703469011e+00 -2.8931256990e+00 1.6703469011e+00 2.8931256990e+00 
143000 6.1937226254e+00 7.0079252589e-05 1.6703469011e+00 -2.8931256990e+00 1.6703469011e+00 2.8931256990e+00 
143100 6.1937226253e+00 7.0137569539e-05 1.6703469011e+00 -2.8931256990e+00 1.6703469011e+00 2.8931256990e+00 
143200 6.1937226251e+00 7.0195775315e-05 1.6703469011e+00 -2.8931256990e+00 1.6703469011e+00 2.8931256990e+00 
143300 6.1937226250e+00 7.0253870120e-05 1.6703469011e+00 -2.8931256990e+00 1.6703469011e+00 2.8931256990e+00 
143400 6.1937226248e+00 7.0311854054e-05 1.6703469011e+00 -2.8931256990e+00 1.6703469011e+00 2.8931256990e+00 
143500 6.1937226247e+00 7.0369727117e-05 1.6703469011e+00 -2.8931256990e+00 1.6703469011e+00 2.8931256990e+00 
143600 6.1937226245e+00 7.0427489203e-05 1.6703469011e+00 -2.8931256990e+00 1.6703469011e+00 2.8931256990e+00 
143700 6.1937226244e+00 7.0485140099e-05 1.6703469011e+00 -2.8931256990e+00 1.6703469011e+00 2.8931256990e+00 
143800 6.1937226243e+00 7.0542679486e-05 1.6703469011e+00 -2.8931256990e+00 1.6703469011e+00 2.8931256990e+00 
143900 6.1937226241e+00 7.0600106932e-05 1.6703469011e+00 -2.8931256990e+00 1.6703469011e+00 2.8931256990e+00 
144000 6.1937226240e+00 7.0657421898e-05 1.6703469011e+00 -2.8931256990e+00 1.6703469011e+00 2.8931256990e+00 
144100 6.1937226238e+00 7.0714623737e-05 1.6703469011e+00 -2.8931256990e+00 1.6703469011e+00 2.8931256990e+00 
144200 6.1937226235e+00 6.9448380420e-05 1.6703447843e+00 -2.8931220326e+00 1.6703447843e+00 2.8931220326e+00 
144300 6.1937226234e+00 6.9501911109e-05 1.6703447843e+00 -2.8931220326e+00 1.6703447843e+00 2.8931220326e+00 
144400 6.1937226233e+00 6.9555335628e-05 1.6703447843e+00 -2.8931220326e+00 1.6703447843e+00 2.8931220326e+00 
144500 6.1937226231e+00 6.9608654802e-05 1.6703447843e+00 -2.8931220326e+00 1.6703447843e+00 2.8931220326e+00 
144600 6.1937226230e+00 6.9661869464e-05 1.6703447843e+00 -2.8931220326e+00 1.6703447843e+00 2.8931220326e+00 
144700 6.1937226229e+00 6.9714980440e-05 1.6703447843e+00 -2.8931220326e+00 1.6703447843e+00 2.8931220326e+00 
144800 6.1937226227e+00 6.9767988534e-05 1.6703447843e+00 -2.8931220326e+00 1.6703447843e+00 2.8931220326e+00 
144900 6.1937226226e+00 6.9820894519e-05 1.6703447843e+00 -2.8931220326e+00 1.6703447843e+00 2.8931220326e+00 
145000 6.1937226225e+00 6.9873699120e-05 1.6703447843e+00 -2.8931220326e+00 1.6703447843e+00 2.8931220326e+00 
145100 6.1937226224e+00 6.9926403007e-05 1.6703447843e+00 -2.8931220326e+00 1.6703447843e+00 2.8931220326e+00 
145200 6.1937226222e+00 6.9979006788e-05 1.6703447843e+00 -2.8931220326e+00 1.6703447843e+00 2.8931220326e+00 
145300 6.1937226221e+00 7.0031510997e-05 1.6703447843e+00 -2.8931220326e+00 1.6703447843e+00 2.8931220326e+00 
145400 6.1937226220e+00 7.0083916087e-05 1.6703447843e+00 -2.8931220326e+00 1.6703447843e+00 2.8931220326e+00 
145500 6.1937226219e+00 7.0136222431e-05 1.6703447843e+00 -2.8931220326e+00 1.6703447843e+00 2.8931220326e+00 
145600 6.1937226217e+00 7.0188430308e-05 1.6703447843e+00 -2.8931220326e+00 1.6703447843e+00 2.8931220326e+00 
145700 6.1937226216e+00 7.0240539905e-05 1.6703447843e+00 -2.8931220326e+00 1.6703447843e+00 2.8931220326e+00 
145800 6.1937226215e+00 7.0292551311e-05 1.6703447843e+00 -2.8931220326e+00 1.6703447843e+00 2.8931220326e+00 
145900 6.1937226214e+00 7.0344464515e-05 1.6703447843e+00 -2.8931220326e+00 1.6703447843e+00 2.8931220326e+00 
146000 6.1937226213e+00 7.0396279407e-05 1.6703447843e+00 -2.8931220326e+00 1.6703447843e+00 2.8931220326e+00 
146100 6.1937226212e+00 7.0447995771e-05 1.6703447843e+00 -2.8931220326e+00 1.6703447843e+00 2.8931220326e+00 
146200 6.1937226210e+00 7.0499613290e-05 1.6703447843e+00 -2.8931220326e+00 1.6703447843e+00 2.8931220326e+00 
146300 6.1937226209e+00 7.0551131543e-05 1.6703447843e+00 -2.8931220326e+00 1.6703447843e+00 2.8931220326e+00 
146400 6.1937226208e+00 7.0602550006e-05 1.6703447843e+00 -2.8931220326e+00 1.6703447843e+00 2.8931220326e+00 
146500 6.1937226207e+00 7.0653868053e-05 1.6703447843e+00 -2.8931220326e+00 1.6703447843e+00 2.8931220326e+00 
146600 6.1937226206e+00 7.0705084959e-05 1.6703447843e+00 -2.8931220326e+00 1.6703447843e+00 2.8931220326e+00 
146700 6.1937226205e+00 7.0756199900e-05 1.6703447843e+00 -2.8931220326e+00 1.6703447843e+00 2.8931220326e+00 
146800 6.1937226202e+00 6.9483070402e-05 1.6703426663e+00 -2.8931183641e+00 1.6703426663e+00 2.8931183641e+00 
146900 6.1937226201e+00 6.9530533973e-05 1.6703426663e+00 -2.8931183641e+00 1.6703426663e+00 2.8931183641e+00 
147000 6.1937226200e+00 6.9577902080e-05 1.6703426663e+00 -2.8931183641e+00 1.6703426663e+00 2.8931183641e+00 
147100 6.1937226199e+00 6.9625175422e-05 1.6703426663e+00 -2.8931183641e+00 1.6703426663e+00 2.8931183641e+00 
147200 6.1937226198e+00 6.9672354723e-05 1.6703426663e+00 -2.8931183641e+00 1.6703426663e+00 2.8931183641e+00 
147300 6.1937226197e+00 6.9719440711e-05 1.6703426663e+00 -2.8931183641e+00 1.6703426663e+00 2.8931183641e+00 
147400 6.1937226196e+00 6.9766434112e-05 1.6703426663e+00 -2.8931183641e+00 1.6703426663e+00 2.8931183641e+00 
147500 6.1937226195e+00 6.9813335634e-05 1.6703426663e+00 -2.8931183641e+00 1.6703426663e+00 2.8931183641e+00 
147600 6.1937226194e+00 6.9860145953e-05 1.6703426663e+00 -2.8931183641e+00 1.6703426663e+00 2.8931183641e+00 
147700 6.1937226193e+00 6.9906865706e-05 1.6703426663e+00 -2.8931183641e+00 1.6703426663e+00 2.8931183641e+00 
147800 6.1937226192e+00 6.9953495484e-05 1.6703426663e+00 -2.8931183641e+00 1.6703426663e+00 2.8931183641e+00 
147900 6.1937226191e+00 7.0000035821e-05 1.6703426663e+00 -2.8931183641e+00 1.6703426663e+00 2.8931183641e+00 
148000 6.1937226190e+00 7.0046487186e-05 1.6703426663e+00 -2.8931183641e+00 1.6703426663e+00 2.8931183641e+00 
148100 6.1937226189e+00 7.0092849981e-05 1.6703426663e+00 -2.8931183641e+00 1.6703426663e+00 2.8931183641e+00 
148200 6.1937226188e+00 7.0139124532e-05 1.6703426663e+00 -2.8931183641e+00 1.6703426663e+00 2.8931183641e+00 
148300 6.1937226187e+00 7.0185311088e-05 1.6703426663e+00 -2.8931183641e+00 1.6703426663e+00 2.8931183641e+00 
148400 6.1937226186e+00 7.0231409814e-05 1.6703426663e+00 -2.8931183641e+00 1.6703426663e+00 2.8931183641e+00 
148500 6.1937226185e+00 7.0277420793e-05 1.6703426663e+00 -2.8931183641e+00 1.6703426663e+00 2.8931183641e+00 
148600 6.1937226184e+00 7.0323344016e-05 1.6703426663e+00 -2.8931183641e+00 1.6703426663e+00 2.8931183641e+00 
148700 6.1937226183e+00 7.0369179389e-05 1.6703426663e+00 -2.8931183641e+00 1.6703426663e+00 2.8931183641e+00 
148800 6.1937226182e+00 7.0414926727e-05 1.6703426663e+00 -2.8931183641e+00 1.6703426663e+00 2.8931183641e+00 
148900 6.1937226181e+00 7.0460585753e-05 1.6703426663e+00 -2.8931183641e+00 1.6703426663e+00 2.8931183641e+00 
149000 6.1937226181e+00 7.0506156101e-05 1.6703426663e+00 -2.8931183641e+00 1.6703426663e+00 2.8931183641e+00 
149100 6.1937226180e+00 7.0551637315e-05 1.6703426663e+00 -2.8931183641e+00 1.6703426663e+00 2.8931183641e+00 
149200 6.1937226179e+00 7.0597028851e-05 1.6703426663e+00 -2.8931183641e+00 1.6703426663e+00 2.8931183641e+00 
149300 6.1937226178e+00 7.0642330073e-05 1.6703426663e+00 -2.8931183641e+00 1.6703426663e+00 2.8931183641e+00 
149400 6.1937226177e+00 7.0687540262e-05 1.6703426663e+00 -2.8931183641e+00 1.6703426663e+00 2.8931183641e+00 
149500 6.1937226176e+00 7.0732658614e-05 1.6703426663e+00 -2.8931183641e+00 1.6703426663e+00 2.8931183641e+00 
149600 6.1937226174e+00 6.9453952309e-05 1.6703405490e+00 -2.8931146968e+00 1.6703405490e+00 2.8931146968e+00 
149700 6.1937226173e+00 6.9495440780e-05 1.6703405490e+00 -2.8931146968e+00 1.6703405490e+00 2.8931146968e+00 
149800 6.1937226172e+00 6.9536844054e-05 1.6703405490e+00 -2.8931146968e+00 1.6703405490e+00 2.8931146968e+00 
149900 6.1937226171e+00 6.9578162905e-05 1.6703405490e+00 -2.8931146968e+00 1.6703405490e+00 2.8931146968e+00 
150000 6.1937226170e+00 6.9619398147e-05 1.6703405490e+00 -2.8931146968e+00 1.6703405490e+00 2.8931146968e+00 
150100 6.1937226170e+00 6.9660550610e-05 1.6703405490e+00 -2.8931146968e+00 1.6703405490e+00 2.8931146968e+00 
150200 6.1937226169e+00 6.9701621137e-05 1.6703405490e+00 -2.8931146968e+00 1.6703405490e+00 2.8931146968e+00 
150300 6.1937226168e+00 6.9742610560e-05 1.6703405490e+00 -2.8931146968e+00 1.6703405490e+00 2.8931146968e+00 
150400 6.1937226167e+00 6.9783519698e-05 1.6703405490e+00 -2.8931146968e+00 1.6703405490e+00 2.8931146968e+00 
150500 6.1937226166e+00 6.9824349339e-05 1.6703405490e+00 -2.8931146968e+00 1.6703405490e+00 2.8931146968e+00 
150600 6.1937226166e+00 6.9865100237e-05 1.6703405490e+00 -2.8931146968e+00 1.6703405490e+00 2.8931146968e+00 
150700 6.1937226165e+00 6.9905773099e-05 1.6703405490e+00 -2.8931146968e+00 1.6703405490e+00 2.8931146968e+00 
150800 6.1937226164e+00 6.9946368580e-05 1.6703405490e+00 -2.8931146968e+00 1.6703405490e+00 2.8931146968e+00 
150900 6.1937226163e+00 6.9986887274e-05 1.6703405490e+00 -2.8931146968e+00 1.6703405490e+00 2.8931146968e+00 
151000 6.1937226163e+00 7.0027329712e-05 1.6703405490e+00 -2.8931146968e+00 1.6703405490e+00 2.8931146968e+00 
151100 6.1937226162e+00 7.0067696353e-05 1.6703405490e+00 -2.8931146968e+00 1.6703405490e+00 2.8931146968e+00 
151200 6.1937226161e+00 7.0107987585e-05 1.6703405490e+00 -2.8931146968e+00 1.6703405490e+00 2.8931146968e+00 
151300 6.1937226161e+00 7.0148203716e-05 1.6703405490e+00 -2.8931146968e+00 1.6703405490e+00 2.8931146968e+00 
151400 6.1937226160e+00 7.0188344974e-05 1.6703405490e+00 -2.8931146968e+00 1.6703405490e+00 2.8931146968e+00 
151500 6.1937226159e+00 7.0228411504e-05 1.6703405490e+00 -2.8931146968e+00 1.6703405490e+00 2.8931146968e+00 
151600 6.1937226158e+00 7.0268403370e-05 1.6703405490e+00 -2.8931146968e+00 1.6703405490e+00 2.8931146968e+00 
151700 6.1937226158e+00 7.0308320547e-05 1.6703405490e+00 -2.8931146968e+00 1.6703405490e+00 2.8931146968e+00 
151800 6.1937226157e+00 7.0348162927e-05 1.6703405490e+00 -2.8931146968e+00 1.6703405490e+00 2.8931146968e+00 
151900 6.1937226156e+00 7.0387930313e-05 1.6703405490e+00 -2.8931146968e+00 1.6703405490e+00 2.8931146968e+00 
152000 6.1937226156e+00 7.0427622426e-05 1.6703405490e+00 -2.8931146968e+00 1.6703405490e+00 2.8931146968e+00 
152100 6.1937226155e+00 7.0467238900e-05 1.6703405490e+00 -2.8931146968e+00 1.6703405490e+00 2.8931146968e+00 
152200 6.1937226154e+00 7.0506779284e-05 1.6703405490e+00 -2.8931146968e+00 1.6703405490e+00 2.8931146968e+00 
152300 6.1937226154e+00 7.0546243047e-05 1.6703405490e+00 -2.8931146968e+00 1.6703405490e+00 2.8931146968e+00 
152400 6.1937226153e+00 7.0585629574e-05 1.6703405490e+00 -2.8931146968e+00 1.6703405490e+00 2.8931146968e+00 
152500 6.1937226152e+00 7.0624938174e-05 1.6703405490e+00 -2.8931146968e+00 1.6703405490e+00 2.8931146968e+00 
152600 6.1937226152e+00 7.0664168077e-05 1.6703405490e+00 -2.8931146968e+00 1.6703405490e+00 2.8931146968e+00 
152700 6.1937226151e+00 7.0703318440e-05 1.6703405490e+00 -2.8931146968e+00 1.6703405490e+00 2.8931146968e+00 
152800 6.1937226151e+00 7.0742388345e-05 1.6703405490e+00 -2.8931146968e+00 1.6703405490e+00 2.8931146968e+00 
152900 6.1937226148e+00 6.9457431175e-05 1.6703384314e+00 -2.8931110290e+00 1.6703384314e+00 2.8931110290e+00 
153000 6.1937226148e+00 6.9492893173e-05 1.6703384314e+00 -2.8931110290e+00 1.6703384314e+00 2.8931110290e+00 
153100 6.1937226147e+00 6.9528281101e-05 1.6703384314e+00 -2.8931110290e+00 1.6703384314e+00 2.8931110290e+00 
153200 6.1937226146e+00 6.9563595677e-05 1.6703384314e+00 -2.8931110290e+00 1.6703384314e+00 2.8931110290e+00 
153300 6.1937226146e+00 6.9598837673e-05 1.6703384314e+00 -2.8931110290e+00 1.6703384314e+00 2.8931110290e+00 
153400 6.1937226145e+00 6.9634007894e-05 1.6703384314e+00 -2.8931110290e+00 1.6703384314e+00 2.8931110290e+00 
153500 6.1937226145e+00 6.9669107170e-05 1.6703384314e+00 -2.8931110290e+00 1.6703384314e+00 2.8931110290e+00 
153600 6.1937226144e+00 6.9704136339e-05 1.6703384314e+00 -2.8931110290e+00 1.6703384314e+00 2.8931110290e+00 
153700 6.1937226143e+00 6.9739096234e-05 1.6703384314e+00 -2.8931110290e+00 1.6703384314e+00 2.8931110290e+00 
153800 6.1937226143e+00 6.9773987679e-05 1.6703384314e+00 -2.8931110290e+00 1.6703384314e+00 2.8931110290e+00 
153900 6.1937226142e+00 6.9808811472e-05 1.6703384314e+00 -2.8931110290e+00 1.6703384314e+00 2.8931110290e+00 
154000 6.1937226142e+00 6.9843568381e-05 1.6703384314e+00 -2.8931110290e+00 1.6703384314e+00 2.8931110290e+00 
154100 6.1937226141e+00 6.9878259136e-05 1.6703384314e+00 -2.8931110290e+00 1.6703384314e+00 2.8931110290e+00 
154200 6.1937226141e+00 6.9912884419e-05 1.6703384314e+00 -2.8931110290e+00 1.6703384314e+00 2.8931110290e+00 
154300 6.1937226140e+00 6.9947444860e-05 1.6703384314e+00 -2.8931110290e+00 1.6703384314e+00 2.8931110290e+00 
154400 6.1937226140e+00 6.9981941034e-05 1.6703384314e+00 -2.8931110290e+00 1.6703384314e+00 2.8931110290e+00 
154500 6.1937226139e+00 7.0016373452e-05 1.6703384314e+00 -2.8931110290e+00 1.6703384314e+00 2.8931110290e+00 
154600 6.1937226138e+00 7.0050742560e-05 1.6703384314e+00 -2.8931110290e+00 1.6703384314e+00 2.8931110290e+00 
154700 6.1937226138e+00 7.0085048735e-05 1.6703384314e+00 -2.8931110290e+00 1.6703384314e+00 2.8931110290e+00 
154800 6.1937226137e+00 7.0119292281e-05 1.6703384314e+00 -2.8931110290e+00 1.6703384314e+00 2.8931110290e+00 
154900 6.1937226137e+00 7.0153473432e-05 1.6703384314e+00 -2.8931110290e+00 1.6703384314e+00 2.8931110290e+00 
155000 6.1937226136e+00 7.0187592342e-05 1.6703384314e+00 -2.8931110290e+00 1.6703384314e+00 2.8931110290e+00 
155100 6.1937226136e+00 7.0221649090e-05 1.6703384314e+00 -2.8931110290e+00 1.6703384314e+00 2.8931110290e+00 
155200 6.1937226135e+00 7.0255643680e-05 1.6703384314e+00 -2.8931110290e+00 1.6703384314e+00 2.8931110290e+00 
155300 6.1937226135e+00 7.0289576033e-05 1.6703384314e+00 -2.8931110290e+00 1.6703384314e+00 2.8931110290e+00 
155400 6.1937226134e+00 7.0323445997e-05 1.6703384314e+00 -2.8931110290e+00 1.6703384314e+00 2.8931110290e+00 
155500 6.1937226134e+00 7.0357253343e-05 1.6703384314e+00 -2.8931110290e+00 1.6703384314e+00 2.8931110290e+00 
155600 6.1937226133e+00 7.0390997760e-05 1.6703384314e+00 -2.8931110290e+00 1.6703384314e+00 2.8931110290e+00 
155700 6.1937226133e+00 7.0424678871e-05 1.6703384314e+00 -2.8931110290e+00 1.6703384314e+00 2.8931110290e+00 
155800 6.1937226132e+00 7.0458296215e-05 1.6703384314e+00 -2.8931110290e+00 1.6703384314e+00 2.8931110290e+00 
155900 6.1937226132e+00 7.0491849267e-05 1.6703384314e+00 -2.8931110290e+00 1.6703384314e+00 2.8931110290e+00 
156000 6.1937226132e+00 7.0525337425e-05 1.6703384314e+00 -2.8931110290e+00 1.6703384314e+00 2.8931110290e+00 
156100 6.1937226131e+00 7.0558760024e-05 1.6703384314e+00 -2.8931110290e+00 1.6703384314e+00 2.8931110290e+00 
156200 6.1937226131e+00 7.0592116328e-05 1.6703384314e+00 -2.8931110290e+00 1.6703384314e+00 2.8931110290e+00 
156300 6.1937226130e+00 7.0625405541e-05 1.6703384314e+00 -2.8931110290e+00 1.6703384314e+00 2.8931110290e+00 
156400 6.1937226130e+00 7.0658626802e-05 1.6703384314e+00 -2.8931110290e+00 1.6703384314e+00 2.8931110290e+00 
156500 6.1937226129e+00 7.0691779195e-05 1.6703384314e+00 -2.8931110290e+00 1.6703384314e+00 2.8931110290e+00 
156600 6.1937226129e+00 7.0724861746e-05 1.6703384314e+00 -2.8931110290e+00 1.6703384314e+00 2.8931110290e+00 
156700 6.1937226127e+00 6.9434224732e-05 1.6703363143e+00 -2.8931073622e+00 1.6703363143e+00 2.8931073622e+00 
156800 6.1937226126e+00 6.9463721316e-05 1.6703363143e+00 -2.8931073622e+00 1.6703363143e+00 2.8931073622e+00 
156900 6.1937226126e+00 6.9487861069e-05 1.6703363143e+00 -2.8931073622e+00 1.6703363143e+00 2.8931073622e+00 
156900 6.1937226126e+00 6.9487861069e-05 1.6703363143e+00 -2.8931073622e+00 1.6703363143e+00 2.8931073622e+00 
