# step Hamiltonian StressXX CellTensor1 CellTensor2 CellTensor3 CellTensor4 
0 6.3171624746e+00 5.4002572849e-02 1.7865676565e+00 -3.0944259522e+00 1.7865676565e+00 3.0944259522e+00 
100 6.3158301006e+00 6.0113731788e-02 1.7865676565e+00 -3.0944259522e+00 1.7865676565e+00 3.0944259522e+00 
200 6.3143589111e+00 6.5120810167e-02 1.7848855403e+00 -3.0915124415e+00 1.7848855403e+00 3.0915124415e+00 
300 6.3128487651e+00 6.9725491581e-02 1.7830616220e+00 -3.0883533224e+00 1.7830616220e+00 3.0883533224e+00 
400 6.3113065382e+00 7.3945977548e-02 1.7811067615e+00 -3.0849674047e+00 1.7811067615e+00 3.0849674047e+00 
500 6.3097388785e+00 7.7799832397e-02 1.7790313217e+00 -3.0813726375e+00 1.7790313217e+00 3.0813726375e+00 
600 6.3081521598e+00 8.1304019313e-02 1.7768451917e+00 -3.0775861492e+00 1.7768451917e+00 3.0775861492e+00 
700 6.3065524445e+00 8.4474929046e-02 1.7745578076e+00 -3.0736242838e+00 1.7745578076e+00 3.0736242838e+00 
800 6.3049454555e+00 8.7328402838e-02 1.7721781720e+00 -3.0695026340e+00 1.7721781720e+00 3.0695026340e+00 
900 6.3033365570e+00 8.9879750953e-02 1.7697148717e+00 -3.0652360727e+00 1.7697148717e+00 3.0652360727e+00 
1000 6.3017307415e+00 9.2143767962e-02 1.7671760948e+00 -3.0608387821e+00 1.7671760948e+00 3.0608387821e+00 
1100 6.3001326236e+00 9.4134745715e-02 1.7645696461e+00 -3.0563242805e+00 1.7645696461e+00 3.0563242805e+00 
1200 6.2985464395e+00 9.5866484774e-02 1.7619029620e+00 -3.0517054483e+00 1.7619029620e+00 3.0517054483e+00 
1300 6.2969760499e+00 9.7352304898e-02 1.7591831251e+00 -3.0469945525e+00 1.7591831251e+00 3.0469945525e+00 
1400 6.2954249479e+00 9.8605055028e-02 1.7564168769e+00 -3.0422032700e+00 1.7564168769e+00 3.0422032700e+00 
1500 6.2938962690e+00 9.9637123097e-02 1.7536106311e+00 -3.0373427097e+00 1.7536106311e+00 3.0373427097e+00 
1600 6.2923928043e+00 1.0046044590e-01 1.7507704859e+00 -3.0324234339e+00 1.7507704859e+00 3.0324234339e+00 
1700 6.2909170148e+00 1.0108651915e-01 1.7479022355e+00 -3.0274554785e+00 1.7479022355e+00 3.0274554785e+00 
1800 6.2894710478e+00 1.0152640779e-01 1.7450113815e+00 -3.0224483726e+00 1.7450113815e+00 3.0224483726e+00 
1900 6.2880567535e+00 1.0179075662e-01 1.7421031440e+00 -3.0174111574e+00 1.7421031440e+00 3.0174111574e+00 
2000 6.2866757030e+00 1.0188980117e-01 1.7391824714e+00 -3.0123524041e+00 1.7391824714e+00 3.0123524041e+00 
2100 6.2853292054e+00 1.0183337880e-01 1.7362540509e+00 -3.0072802310e+00 1.7362540509e+00 3.0072802310e+00 
2200 6.2840183265e+00 1.0163094004e-01 1.7333223180e+00 -3.0022023206e+00 1.7333223180e+00 3.0022023206e+00 
2300 6.2827439054e+00 1.0129155991e-01 1.7303914654e+00 -2.9971259351e+00 1.7303914654e+00 2.9971259351e+00 
2400 6.2815065725e+00 1.0082394941e-01 1.7274654525e+00 -2.9920579320e+00 1.7274654525e+00 2.9920579320e+00 
2500 6.2803067656e+00 1.0023646693e-01 1.7245480131e+00 -2.9870047788e+00 1.7245480131e+00 2.9870047788e+00 
2600 6.2791447462e+00 9.9537129479e-02 1.7216426644e+00 -2.9819725673e+00 1.7216426644e+00 2.9819725673e+00 
2700 6.2780206149e+00 9.8733623914e-02 1.7187527143e+00 -2.9769670269e+00 1.7187527143e+00 2.9769670269e+00 
2800 6.2769343260e+00 9.7833317824e-02 1.7158812693e+00 -2.9719935382e+00 1.7158812693e+00 2.9719935382e+00 
2900 6.2758857014e+00 9.6843270237e-02 1.7130312416e+00 -2.9670571455e+00 1.7130312416e+00 2.9670571455e+00 
3000 6.2748744436e+00 9.5770242020e-02 1.7102053564e+00 -2.9621625687e+00 1.7102053564e+00 2.9621625687e+00 
3100 6.2739001484e+00 9.4620705974e-02 1.7074061585e+00 -2.9573142156e+00 1.7074061585e+00 2.9573142156e+00 
3200 6.2729623160e+00 9.3400856597e-02 1.7046360188e+00 -2.9525161929e+00 1.7046360188e+00 2.9525161929e+00 
3300 6.2720603625e+00 9.2116619518e-02 1.7018971409e+00 -2.9477723173e+00 1.7018971409e+00 2.9477723173e+00 
3400 6.2711936296e+00 9.0773660584e-02 1.6991915671e+00 -2.9430861259e+00 1.6991915671e+00 2.9430861259e+00 
3500 6.2703613942e+00 8.9377394608e-02 1.6965211842e+00 -2.9384608872e+00 1.6965211842e+00 2.9384608872e+00 
3600 6.2695628776e+00 8.7932993788e-02 1.6938877296e+00 -2.9338996100e+00 1.6938877296e+00 2.9338996100e+00 
3700 6.2687972531e+00 8.6445395793e-02 1.6912927967e+00 -2.9294050543e+00 1.6912927967e+00 2.9294050543e+00 
3800 6.2680636540e+00 8.4919311548e-02 1.6887378401e+00 -2.9249797397e+00 1.6887378401e+00 2.9249797397e+00 
3900 6.2673611807e+00 8.3359232713e-02 1.6862241815e+00 -2.9206259553e+00 1.6862241815e+00 2.9206259553e+00 
4000 6.2666889074e+00 8.1769438885e-02 1.6837530143e+00 -2.9163457682e+00 1.6837530143e+00 2.9163457682e+00 
4100 6.2660458875e+00 8.0154004541e-02 1.6813254089e+00 -2.9121410323e+00 1.6813254089e+00 2.9121410323e+00 
4200 6.2654311600e+00 7.8516805721e-02 1.6789423177e+00 -2.9080133972e+00 1.6789423177e+00 2.9080133972e+00 
4300 6.2648437541e+00 7.6861526494e-02 1.6766045794e+00 -2.9039643157e+00 1.6766045794e+00 2.9039643157e+00 
4400 6.2642826942e+00 7.5191665204e-02 1.6743129243e+00 -2.8999950526e+00 1.6743129243e+00 2.8999950526e+00 
4500 6.2637470041e+00 7.3510540521e-02 1.6720679784e+00 -2.8961066924e+00 1.6720679784e+00 2.8961066924e+00 
4600 6.2632357109e+00 7.1821297304e-02 1.6698702684e+00 -2.8923001469e+00 1.6698702684e+00 2.8923001469e+00 
4700 6.2627478489e+00 7.0126912304e-02 1.6677202253e+00 -2.8885761630e+00 1.6677202253e+00 2.8885761630e+00 
4800 6.2622824623e+00 6.8430199700e-02 1.6656181893e+00 -2.8849353298e+00 1.6656181893e+00 2.8849353298e+00 
4900 6.2618386088e+00 6.6733816499e-02 1.6635644138e+00 -2.8813780863e+00 1.6635644138e+00 2.8813780863e+00 
5000 6.2614153620e+00 6.5040267794e-02 1.6615590694e+00 -2.8779047280e+00 1.6615590694e+00 2.8779047280e+00 
5100 6.2610118134e+00 6.3351911901e-02 1.6596022481e+00 -2.8745154140e+00 1.6596022481e+00 2.8745154140e+00 
5200 6.2606270750e+00 6.1670965371e-02 1.6576939669e+00 -2.8712101741e+00 1.6576939669e+00 2.8712101741e+00 
5300 6.2602602808e+00 5.9999507893e-02 1.6558341719e+00 -2.8679889147e+00 1.6558341719e+00 2.8679889147e+00 
5400 6.2599105886e+00 5.8339487094e-02 1.6540227419e+00 -2.8648514259e+00 1.6540227419e+00 2.8648514259e+00 
5500 6.2595771813e+00 5.6692723227e-02 1.6522594920e+00 -2.8617973874e+00 1.6522594920e+00 2.8617973874e+00 
5600 6.2592592677e+00 5.5060913768e-02 1.6505441772e+00 -2.8588263751e+00 1.6505441772e+00 2.8588263751e+00 
5700 6.2589560839e+00 5.3445637911e-02 1.6488764960e+00 -2.8559378665e+00 1.6488764960e+00 2.8559378665e+00 
5800 6.2586668939e+00 5.1848360976e-02 1.6472560934e+00 -2.8531312469e+00 1.6472560934e+00 2.8531312469e+00 
5900 6.2583909898e+00 5.0270438713e-02 1.6456825647e+00 -2.8504058151e+00 1.6456825647e+00 2.8504058151e+00 
6000 6.2581276926e+00 4.8713121529e-02 1.6441554580e+00 -2.8477607889e+00 1.6441554580e+00 2.8477607889e+00 
6100 6.2578763521e+00 4.7177558608e-02 1.6426742781e+00 -2.8451953100e+00 1.6426742781e+00 2.8451953100e+00 
6200 6.2576363472e+00 4.5664801953e-02 1.6412384890e+00 -2.8427084502e+00 1.6412384890e+00 2.8427084502e+00 
6300 6.2574070857e+00 4.4175810332e-02 1.6398475167e+00 -2.8402992156e+00 1.6398475167e+00 2.8402992156e+00 
6400 6.2571880038e+00 4.2711453133e-02 1.6385007525e+00 -2.8379665516e+00 1.6385007525e+00 2.8379665516e+00 
6500 6.2569785663e+00 4.1272514130e-02 1.6371975555e+00 -2.8357093481e+00 1.6371975555e+00 2.8357093481e+00 
6600 6.2567782659e+00 3.9859695157e-02 1.6359372551e+00 -2.8335264438e+00 1.6359372551e+00 2.8335264438e+00 
6700 6.2565866223e+00 3.8473619689e-02 1.6347191538e+00 -2.8314166306e+00 1.6347191538e+00 2.8314166306e+00 
6800 6.2564031823e+00 3.7114836337e-02 1.6335425297e+00 -2.8293786578e+00 1.6335425297e+00 2.8293786578e+00 
6900 6.2562275183e+00 3.5783822243e-02 1.6324066385e+00 -2.8274112365e+00 1.6324066385e+00 2.8274112365e+00 
7000 6.2560592282e+00 3.4480986396e-02 1.6313107163e+00 -2.8255130435e+00 1.6313107163e+00 2.8255130435e+00 
7100 6.2558979341e+00 3.3206672839e-02 1.6302539813e+00 -2.8236827249e+00 1.6302539813e+00 2.8236827249e+00 
7200 6.2557432816e+00 3.1961163805e-02 1.6292356365e+00 -2.8219188999e+00 1.6292356365e+00 2.8219188999e+00 
7300 6.2555949387e+00 3.0744682744e-02 1.6282548712e+00 -2.8202201646e+00 1.6282548712e+00 2.8202201646e+00 
7400 6.2554525952e+00 2.9557397274e-02 1.6273108633e+00 -2.8185850950e+00 1.6273108633e+00 2.8185850950e+00 
7500 6.2553159611e+00 2.8399422032e-02 1.6264027809e+00 -2.8170122501e+00 1.6264027809e+00 2.8170122501e+00 
7600 6.2551847662e+00 2.7270821444e-02 1.6255297844e+00 -2.8155001758e+00 1.6255297844e+00 2.8155001758e+00 
7700 6.2550587586e+00 2.6171612404e-02 1.6246910279e+00 -2.8140474068e+00 1.6246910279e+00 2.8140474068e+00 
7800 6.2549377040e+00 2.5101766864e-02 1.6238856609e+00 -2.8126524704e+00 1.6238856609e+00 2.8126524704e+00 
7900 6.2548213844e+00 2.4061214346e-02 1.6231128302e+00 -2.8113138883e+00 1.6231128302e+00 2.8113138883e+00 
8000 6.2547095972e+00 2.3049844361e-02 1.6223716808e+00 -2.8100301799e+00 1.6223716808e+00 2.8100301799e+00 
8100 6.2546021543e+00 2.2067508757e-02 1.6216613577e+00 -2.8087998642e+00 1.6216613577e+00 2.8087998642e+00 
8200 6.2544988806e+00 2.1114023971e-02 1.6209810071e+00 -2.8076214624e+00 1.6209810071e+00 2.8076214624e+00 
8300 6.2543996139e+00 2.0189173220e-02 1.6203297777e+00 -2.8064935000e+00 1.6203297777e+00 2.8064935000e+00 
8400 6.2543042030e+00 1.9292708597e-02 1.6197068218e+00 -2.8054145088e+00 1.6197068218e+00 2.8054145088e+00 
8500 6.2542125074e+00 1.8424353108e-02 1.6191112966e+00 -2.8043830288e+00 1.6191112966e+00 2.8043830288e+00 
8600 6.2541243961e+00 1.7583802619e-02 1.6185423649e+00 -2.8033976103e+00 1.6185423649e+00 2.8033976103e+00 
8700 6.2540397469e+00 1.6770727748e-02 1.6179991966e+00 -2.8024568151e+00 1.6179991966e+00 2.8024568151e+00 
8800 6.2539584457e+00 1.5984775671e-02 1.6174809692e+00 -2.8015592189e+00 1.6174809692e+00 2.8015592189e+00 
8900 6.2538803852e+00 1.5225571872e-02 1.6169868687e+00 -2.8007034118e+00 1.6169868687e+00 2.8007034118e+00 
9000 6.2538054647e+00 1.4492721822e-02 1.6165160908e+00 -2.7998880006e+00 1.6165160908e+00 2.7998880006e+00 
9100 6.2537335893e+00 1.3785812596e-02 1.6160678413e+00 -2.7991116096e+00 1.6160678413e+00 2.7991116096e+00 
9200 6.2536646690e+00 1.3104414420e-02 1.6156413367e+00 -2.7983728820e+00 1.6156413367e+00 2.7983728820e+00 
9300 6.2535986182e+00 1.2448082173e-02 1.6152358053e+00 -2.7976704810e+00 1.6152358053e+00 2.7976704810e+00 
9400 6.2535353554e+00 1.1816356813e-02 1.6148504874e+00 -2.7970030908e+00 1.6148504874e+00 2.7970030908e+00 
9500 6.2534748022e+00 1.1208766760e-02 1.6144846358e+00 -2.7963694173e+00 1.6144846358e+00 2.7963694173e+00 
9600 6.2534168832e+00 1.0624829214e-02 1.6141375169e+00 -2.7957681896e+00 1.6141375169e+00 2.7957681896e+00 
9700 6.2533615254e+00 1.0064051427e-02 1.6138084102e+00 -2.7951981602e+00 1.6138084102e+00 2.7951981602e+00 
9800 6.2533086579e+00 9.5259319204e-03 1.6134966097e+00 -2.7946581058e+00 1.6134966097e+00 2.7946581058e+00 
9900 6.2532582115e+00 9.0099616472e-03 1.6132014234e+00 -2.7941468281e+00 1.6132014234e+00 2.7941468281e+00 
10000 6.2532101181e+00 8.5156251152e-03 1.6129221742e+00 -2.7936631544e+00 1.6129221742e+00 2.7936631544e+00 
10100 6.2531643110e+00 8.0424014556e-03 1.6126582002e+00 -2.7932059379e+00 1.6126582002e+00 2.7932059379e+00 
10200 6.2531207242e+00 7.5897654479e-03 1.6124088543e+00 -2.7927740582e+00 1.6124088543e+00 2.7927740582e+00 
10300 6.2530792925e+00 7.1571885012e-03 1.6121735051e+00 -2.7923664215e+00 1.6121735051e+00 2.7923664215e+00 
10400 6.2530399511e+00 6.7441395909e-03 1.6119515370e+00 -2.7919819613e+00 1.6119515370e+00 2.7919819613e+00 
10500 6.2530026354e+00 6.3500861539e-03 1.6117423497e+00 -2.7916196384e+00 1.6117423497e+00 2.7916196384e+00 
10600 6.2529672813e+00 5.9744949436e-03 1.6115453593e+00 -2.7912784410e+00 1.6115453593e+00 2.7912784410e+00 
10700 6.2529338247e+00 5.6168328440e-03 1.6113599974e+00 -2.7909573848e+00 1.6113599974e+00 2.7909573848e+00 
10800 6.2529022017e+00 5.2765676462e-03 1.6111857120e+00 -2.7906555136e+00 1.6111857120e+00 2.7906555136e+00 
10900 6.2528723483e+00 4.9531687868e-03 1.6110219668e+00 -2.7903718986e+00 1.6110219668e+00 2.7903718986e+00 
11000 6.2528442008e+00 4.6461080494e-03 1.6108682417e+00 -2.7901056389e+00 1.6108682417e+00 2.7901056389e+00 
11100 6.2528176954e+00 4.3548602312e-03 1.6107240326e+00 -2.7898558614e+00 1.6107240326e+00 2.7898558614e+00 
11200 6.2527927685e+00 4.0789037742e-03 1.6105888511e+00 -2.7896217203e+00 1.6105888511e+00 2.7896217203e+00 
11300 6.2527693566e+00 3.8177213623e-03 1.6104622251e+00 -2.7894023975e+00 1.6104622251e+00 2.7894023975e+00 
11400 6.2527473964e+00 3.5708004864e-03 1.6103436978e+00 -2.7891971022e+00 1.6103436978e+00 2.7891971022e+00 
11500 6.2527268250e+00 3.3376339755e-03 1.6102328283e+00 -2.7890050706e+00 1.6102328283e+00 2.7890050706e+00 
11600 6.2527075798e+00 3.1177204979e-03 1.6101291912e+00 -2.7888255659e+00 1.6101291912e+00 2.7888255659e+00 
11700 6.2526895984e+00 2.9105650310e-03 1.6100323763e+00 -2.7886578776e+00 1.6100323763e+00 2.7886578776e+00 
11800 6.2526728193e+00 2.7156793008e-03 1.6099419887e+00 -2.7885013217e+00 1.6099419887e+00 2.7885013217e+00 
11900 6.2526571815e+00 2.5325821926e-03 1.6098576486e+00 -2.7883552403e+00 1.6098576486e+00 2.7883552403e+00 
12000 6.2526426247e+00 2.3608001333e-03 1.6097789906e+00 -2.7882190007e+00 1.6097789906e+00 2.7882190007e+00 
12100 6.2526290895e+00 2.1998674453e-03 1.6097056644e+00 -2.7880919959e+00 1.6097056644e+00 2.7880919959e+00 
12200 6.2526165173e+00 2.0493266734e-03 1.6096373335e+00 -2.7879736434e+00 1.6096373335e+00 2.7879736434e+00 
12300 6.2526048507e+00 1.9087288859e-03 1.6095736759e+00 -2.7878633851e+00 1.6095736759e+00 2.7878633851e+00 
12400 6.2525940335e+00 1.7776339490e-03 1.6095143832e+00 -2.7877606873e+00 1.6095143832e+00 2.7877606873e+00 
12500 6.2525840106e+00 1.6556107767e-03 1.6094591609e+00 -2.7876650394e+00 1.6094591609e+00 2.7876650394e+00 
12600 6.2525747283e+00 1.5422375559e-03 1.6094077274e+00 -2.7875759539e+00 1.6094077274e+00 2.7875759539e+00 
12700 6.2525661344e+00 1.4371019485e-03 1.6093598144e+00 -2.7874929663e+00 1.6093598144e+00 2.7874929663e+00 
12800 6.2525581781e+00 1.3398012696e-03 1.6093151664e+00 -2.7874156336e+00 1.6093151664e+00 2.7874156336e+00 
12900 6.2525508103e+00 1.2499426439e-03 1.6092735401e+00 -2.7873435348e+00 1.6092735401e+00 2.7873435348e+00 
13000 6.2525439835e+00 1.1671431400e-03 1.6092347047e+00 -2.7872762698e+00 1.6092347047e+00 2.7872762698e+00 
13100 6.2525376520e+00 1.0910298846e-03 1.6091984409e+00 -2.7872134591e+00 1.6091984409e+00 2.7872134591e+00 
13200 6.2525317718e+00 1.0212401552e-03 1.6091645412e+00 -2.7871547431e+00 1.6091645412e+00 2.7871547431e+00 
13300 6.2525263008e+00 9.5742145397e-04 1.6091328093e+00 -2.7870997819e+00 1.6091328093e+00 2.7870997819e+00 
13400 6.2525211988e+00 8.9923156289e-04 1.6091030598e+00 -2.7870482542e+00 1.6091030598e+00 2.7870482542e+00 
13500 6.2525164274e+00 8.4633858006e-04 1.6090751179e+00 -2.7869998573e+00 1.6090751179e+00 2.7869998573e+00 
13600 6.2525119503e+00 7.9842093889e-04 1.6090488190e+00 -2.7869543064e+00 1.6090488190e+00 2.7869543064e+00 
13700 6.2525077331e+00 7.5516741052e-04 1.6090240087e+00 -2.7869113337e+00 1.6090240087e+00 2.7869113337e+00 
13800 6.2525037432e+00 7.1627708991e-04 1.6090005422e+00 -2.7868706884e+00 1.6090005422e+00 2.7868706884e+00 
13900 6.2524999503e+00 6.8145936674e-04 1.6089782838e+00 -2.7868321358e+00 1.6089782838e+00 2.7868321358e+00 
14000 6.2524963258e+00 6.5043388147e-04 1.6089571070e+00 -2.7867954566e+00 1.6089571070e+00 2.7867954566e+00 
14100 6.2524928432e+00 6.2293046736e-04 1.6089368942e+00 -2.7867604469e+00 1.6089368942e+00 2.7867604469e+00 
14200 6.2524894777e+00 5.9868907926e-04 1.6089175358e+00 -2.7867269172e+00 1.6089175358e+00 2.7867269172e+00 
14300 6.2524862066e+00 5.7745970964e-04 1.6088989305e+00 -2.7866946918e+00 1.6088989305e+00 2.7866946918e+00 
14400 6.2524830091e+00 5.5900229268e-04 1.6088809847e+00 -2.7866636088e+00 1.6088809847e+00 2.7866636088e+00 
14500 6.2524798662e+00 5.4308659701e-04 1.6088636123e+00 -2.7866335190e+00 1.6088636123e+00 2.7866335190e+00 
14600 6.2524767605e+00 5.2949210789e-04 1.6088467344e+00 -2.7866042856e+00 1.6088467344e+00 2.7866042856e+00 
14700 6.2524736765e+00 5.1800789925e-04 1.6088302788e+00 -2.7865757836e+00 1.6088302788e+00 2.7865757836e+00 
14800 6.2524706004e+00 5.0843249644e-04 1.6088141799e+00 -2.7865478996e+00 1.6088141799e+00 2.7865478996e+00 
14900 6.2524675200e+00 5.0057373027e-04 1.6087983785e+00 -2.7865205307e+00 1.6087983785e+00 2.7865205307e+00 
15000 6.2524644245e+00 4.9424858287e-04 1.6087828211e+00 -2.7864935845e+00 1.6087828211e+00 2.7864935845e+00 
15100 6.2524613049e+00 4.8928302608e-04 1.6087674602e+00 -2.7864669786e+00 1.6087674602e+00 2.7864669786e+00 
15200 6.2524581532e+00 4.8551185286e-04 1.6087522535e+00 -2.7864406398e+00 1.6087522535e+00 2.7864406398e+00 
15300 6.2524549632e+00 4.8277850242e-04 1.6087371638e+00 -2.7864145037e+00 1.6087371638e+00 2.7864145037e+00 
15400 6.2524517297e+00 4.8093487953e-04 1.6087221589e+00 -2.7863885145e+00 1.6087221589e+00 2.7863885145e+00 
15500 6.2524484488e+00 4.7984116858e-04 1.6087072112e+00 -2.7863626243e+00 1.6087072112e+00 2.7863626243e+00 
15600 6.2524451176e+00 4.7936564298e-04 1.6086922974e+00 -2.7863367928e+00 1.6086922974e+00 2.7863367928e+00 
15700 6.2524417344e+00 4.7938447026e-04 1.6086773982e+00 -2.7863109866e+00 1.6086773982e+00 2.7863109866e+00 
15800 6.2524382985e+00 4.7978151365e-04 1.6086624982e+00 -2.7862851791e+00 1.6086624982e+00 2.7862851791e+00 
15900 6.2524348099e+00 4.8044813024e-04 1.6086475858e+00 -2.7862593501e+00 1.6086475858e+00 2.7862593501e+00 
16000 6.2524312697e+00 4.8128296657e-04 1.6086326525e+00 -2.7862334849e+00 1.6086326525e+00 2.7862334849e+00 
16100 6.2524276795e+00 4.8219175183e-04 1.6086176932e+00 -2.7862075745e+00 1.6086176932e+00 2.7862075745e+00 
16200 6.2524240418e+00 4.8308708915e-04 1.6086027054e+00 -2.7861816150e+00 1.6086027054e+00 2.7861816150e+00 
16300 6.2524203594e+00 4.8388824560e-04 1.6085876897e+00 -2.7861556070e+00 1.6085876897e+00 2.7861556070e+00 
16400 6.2524166359e+00 4.8452094089e-04 1.6085726490e+00 -2.7861295557e+00 1.6085726490e+00 2.7861295557e+00 
16500 6.2524128753e+00 4.8491713565e-04 1.6085575884e+00 -2.7861034700e+00 1.6085575884e+00 2.7861034700e+00 
16600 6.2524090820e+00 4.8501481919e-04 1.6085425154e+00 -2.7860773628e+00 1.6085425154e+00 2.7860773628e+00 
16700 6.2524052606e+00 4.8475779738e-04 1.6085274392e+00 -2.7860512500e+00 1.6085274392e+00 2.7860512500e+00 
16800 6.2524014163e+00 4.8409548093e-04 1.6085123708e+00 -2.7860251509e+00 1.6085123708e+00 2.7860251509e+00 
16900 6.2523975541e+00 4.8298267426e-04 1.6084973229e+00 -2.7859990872e+00 1.6084973229e+00 2.7859990872e+00 
17000 6.2523936795e+00 4.8137936542e-04 1.6084823095e+00 -2.7859730831e+00 1.6084823095e+00 2.7859730831e+00 
17100 6.2523897980e+00 4.7925051724e-04 1.6084673457e+00 -2.7859471651e+00 1.6084673457e+00 2.7859471651e+00 
17200 6.2523859152e+00 4.7656585999e-04 1.6084524480e+00 -2.7859213615e+00 1.6084524480e+00 2.7859213615e+00 
17300 6.2523820365e+00 4.7329968591e-04 1.6084376336e+00 -2.7858957022e+00 1.6084376336e+00 2.7858957022e+00 
17400 6.2523781676e+00 4.6943064562e-04 1.6084229206e+00 -2.7858702186e+00 1.6084229206e+00 2.7858702186e+00 
17500 6.2523743139e+00 4.6494154693e-04 1.6084083278e+00 -2.7858449430e+00 1.6084083278e+00 2.7858449430e+00 
17600 6.2523704808e+00 4.5981915601e-04 1.6083938743e+00 -2.7858199089e+00 1.6083938743e+00 2.7858199089e+00 
17700 6.2523666736e+00 4.5405400129e-04 1.6083795800e+00 -2.7857951504e+00 1.6083795800e+00 2.7857951504e+00 
17800 6.2523628973e+00 4.4764018012e-04 1.6083654647e+00 -2.7857707020e+00 1.6083654647e+00 2.7857707020e+00 
17900 6.2523591569e+00 4.4057516855e-04 1.6083515488e+00 -2.7857465989e+00 1.6083515488e+00 2.7857465989e+00 
18000 6.2523554571e+00 4.3285963418e-04 1.6083378523e+00 -2.7857228759e+00 1.6083378523e+00 2.7857228759e+00 
18100 6.2523518022e+00 4.2449725249e-04 1.6083243956e+00 -2.7856995682e+00 1.6083243956e+00 2.7856995682e+00 
18200 6.2523481966e+00 4.1549452648e-04 1.6083111987e+00 -2.7856767105e+00 1.6083111987e+00 2.7856767105e+00 
18300 6.2523446441e+00 4.0586061000e-04 1.6082982816e+00 -2.7856543375e+00 1.6082982816e+00 2.7856543375e+00 
18400 6.2523411484e+00 3.9560713477e-04 1.6082856639e+00 -2.7856324830e+00 1.6082856639e+00 2.7856324830e+00 
18500 6.2523377130e+00 3.8474804125e-04 1.6082733649e+00 -2.7856111805e+00 1.6082733649e+00 2.7856111805e+00 
18600 6.2523343408e+00 3.7329941333e-04 1.6082614034e+00 -2.7855904625e+00 1.6082614034e+00 2.7855904625e+00 
18700 6.2523310348e+00 3.6127931718e-04 1.6082497977e+00 -2.7855703609e+00 1.6082497977e+00 2.7855703609e+00 
18800 6.2523277974e+00 3.4870764401e-04 1.6082385657e+00 -2.7855509065e+00 1.6082385657e+00 2.7855509065e+00 
18900 6.2523246308e+00 3.3560595713e-04 1.6082277244e+00 -2.7855321288e+00 1.6082277244e+00 2.7855321288e+00 
19000 6.2523215369e+00 3.2199734309e-04 1.6082172904e+00 -2.7855140566e+00 1.6082172904e+00 2.7855140566e+00 
19100 6.2523185173e+00 3.0790626722e-04 1.6082072794e+00 -2.7854967170e+00 1.6082072794e+00 2.7854967170e+00 
19200 6.2523155733e+00 2.9335843335e-04 1.6081977064e+00 -2.7854801362e+00 1.6081977064e+00 2.7854801362e+00 
19300 6.2523127061e+00 2.7838064794e-04 1.6081885857e+00 -2.7854643386e+00 1.6081885857e+00 2.7854643386e+00 
19400 6.2523099163e+00 2.6300068859e-04 1.6081799306e+00 -2.7854493476e+00 1.6081799306e+00 2.7854493476e+00 
19500 6.2523072044e+00 2.4724717694e-04 1.6081717537e+00 -2.7854351847e+00 1.6081717537e+00 2.7854351847e+00 
19600 6.2523045708e+00 2.3114945590e-04 1.6081640665e+00 -2.7854218700e+00 1.6081640665e+00 2.7854218700e+00 
19700 6.2523020154e+00 2.1473747145e-04 1.6081568797e+00 -2.7854094222e+00 1.6081568797e+00 2.7854094222e+00 
19800 6.2522995379e+00 1.9804165874e-04 1.6081502032e+00 -2.7853978582e+00 1.6081502032e+00 2.7853978582e+00 
19900 6.2522971380e+00 1.8109283261e-04 1.6081440458e+00 -2.7853871932e+00 1.6081440458e+00 2.7853871932e+00 
20000 6.2522948150e+00 1.6392208264e-04 1.6081384153e+00 -2.7853774409e+00 1.6081384153e+00 2.7853774409e+00 
20100 6.2522925680e+00 1.4656067242e-04 1.6081333187e+00 -2.7853686133e+00 1.6081333187e+00 2.7853686133e+00 
20200 6.2522903960e+00 1.2903994332e-04 1.6081287618e+00 -2.7853607206e+00 1.6081287618e+00 2.7853607206e+00 
20300 6.2522882979e+00 1.1139122254e-04 1.6081247497e+00 -2.7853537714e+00 1.6081247497e+00 2.7853537714e+00 
20400 6.2522862723e+00 9.3645735522e-05 1.6081212863e+00 -2.7853477726e+00 1.6081212863e+00 2.7853477726e+00 
20500 6.2522843177e+00 7.5834522569e-05 1.6081183747e+00 -2.7853427295e+00 1.6081183747e+00 2.7853427295e+00 
20600 6.2522824325e+00 5.7988359785e-05 1.6081160168e+00 -2.7853386455e+00 1.6081160168e+00 2.7853386455e+00 
20700 6.2522806151e+00 4.1807889278e-05 1.6081160168e+00 -2.7853386455e+00 1.6081160168e+00 2.7853386455e+00 
20800 6.2522788635e+00 2.5144216735e-05 1.6081160168e+00 -2.7853386455e+00 1.6081160168e+00 2.7853386455e+00 
20900 6.2522771759e+00 8.0261012726e-06 1.6081160168e+00 -2.7853386455e+00 1.6081160168e+00 2.7853386455e+00 
21000 6.2522755503e+00 -9.5174427656e-06 1.6081160168e+00 -2.7853386455e+00 1.6081160168e+00 2.7853386455e+00 
21100 6.2522739849e+00 -2.7457213149e-05 1.6081160168e+00 -2.7853386455e+00 1.6081160168e+00 2.7853386455e+00 
21200 6.2522724776e+00 -4.5763884911e-05 1.6081160168e+00 -2.7853386455e+00 1.6081160168e+00 2.7853386455e+00 
21300 6.2522710264e+00 -6.4408073281e-05 1.6081160168e+00 -2.7853386455e+00 1.6081160168e+00 2.7853386455e+00 
21400 6.2522696292e+00 -8.3360394366e-05 1.6081160168e+00 -2.7853386455e+00 1.6081160168e+00 2.7853386455e+00 
21500 6.2522682837e+00 -1.0019027453e-04 1.6081186087e+00 -2.7853431348e+00 1.6081186087e+00 2.7853431348e+00 
21600 6.2522669877e+00 -1.1677716425e-04 1.6081217238e+00 -2.7853485304e+00 1.6081217238e+00 2.7853485304e+00 
21700 6.2522657394e+00 -1.3309722165e-04 1.6081253547e+00 -2.7853548192e+00 1.6081253547e+00 2.7853548192e+00 
21800 6.2522645364e+00 -1.4912750888e-04 1.6081294929e+00 -2.7853619869e+00 1.6081294929e+00 2.7853619869e+00 
21900 6.2522633769e+00 -1.6484602154e-04 1.6081341296e+00 -2.7853700179e+00 1.6081341296e+00 2.7853700179e+00 
22000 6.2522622587e+00 -1.8023171483e-04 1.6081392550e+00 -2.7853788953e+00 1.6081392550e+00 2.7853788953e+00 
22100 6.2522611799e+00 -1.9526452635e-04 1.6081448587e+00 -2.7853886012e+00 1.6081448587e+00 2.7853886012e+00 
22200 6.2522601385e+00 -2.0992539596e-04 1.6081509298e+00 -2.7853991167e+00 1.6081509298e+00 2.7853991167e+00 
22300 6.2522591327e+00 -2.2419628244e-04 1.6081574568e+00 -2.7854104217e+00 1.6081574568e+00 2.7854104217e+00 
22400 6.2522581605e+00 -2.3806017734e-04 1.6081644274e+00 -2.7854224951e+00 1.6081644274e+00 2.7854224951e+00 
22500 6.2522572202e+00 -2.5150111587e-04 1.6081718290e+00 -2.7854353151e+00 1.6081718290e+00 2.7854353151e+00 
22600 6.2522563100e+00 -2.6450418512e-04 1.6081796485e+00 -2.7854488588e+00 1.6081796485e+00 2.7854488588e+00 
22700 6.2522554284e+00 -2.7705552961e-04 1.6081878722e+00 -2.7854631027e+00 1.6081878722e+00 2.7854631027e+00 
22800 6.2522545736e+00 -2.8914235417e-04 1.6081964861e+00 -2.7854780225e+00 1.6081964861e+00 2.7854780225e+00 
22900 6.2522537443e+00 -3.0075292453e-04 1.6082054758e+00 -2.7854935930e+00 1.6082054758e+00 2.7854935930e+00 
23000 6.2522529388e+00 -3.1187656538e-04 1.6082148263e+00 -2.7855097887e+00 1.6082148263e+00 2.7855097887e+00 
23100 6.2522521559e+00 -3.2250365620e-04 1.6082245227e+00 -2.7855265833e+00 1.6082245227e+00 2.7855265833e+00 
23200 6.2522513943e+00 -3.3262562500e-04 1.6082345494e+00 -2.7855439501e+00 1.6082345494e+00 2.7855439501e+00 
23300 6.2522506526e+00 -3.4223493984e-04 1.6082448908e+00 -2.7855618618e+00 1.6082448908e+00 2.7855618618e+00 
23400 6.2522499298e+00 -3.5132509843e-04 1.6082555308e+00 -2.7855802909e+00 1.6082555308e+00 2.7855802909e+00 
23500 6.2522492247e+00 -3.5989061589e-04 1.6082664533e+00 -2.7855992093e+00 1.6082664533e+00 2.7855992093e+00 
23600 6.2522485363e+00 -3.6792701065e-04 1.6082776421e+00 -2.7856185888e+00 1.6082776421e+00 2.7856185888e+00 
23700 6.2522478637e+00 -3.7543078868e-04 1.6082890807e+00 -2.7856384010e+00 1.6082890807e+00 2.7856384010e+00 
23800 6.2522472059e+00 -3.8239942610e-04 1.6083007524e+00 -2.7856586171e+00 1.6083007524e+00 2.7856586171e+00 
23900 6.2522465621e+00 -3.8883135037e-04 1.6083126408e+00 -2.7856792083e+00 1.6083126408e+00 2.7856792083e+00 
24000 6.2522459315e+00 -3.9472591993e-04 1.6083247290e+00 -2.7857001456e+00 1.6083247290e+00 2.7857001456e+00 
24100 6.2522453135e+00 -4.0008340268e-04 1.6083370003e+00 -2.7857214002e+00 1.6083370003e+00 2.7857214002e+00 
24200 6.2522447074e+00 -4.0490495313e-04 1.6083494381e+00 -2.7857429432e+00 1.6083494381e+00 2.7857429432e+00 
24300 6.2522441126e+00 -4.0919258841e-04 1.6083620257e+00 -2.7857647455e+00 1.6083620257e+00 2.7857647455e+00 
24400 6.2522435285e+00 -4.1294916334e-04 1.6083747465e+00 -2.7857867786e+00 1.6083747465e+00 2.7857867786e+00 
24500 6.2522429547e+00 -4.1617834445e-04 1.6083875840e+00 -2.7858090138e+00 1.6083875840e+00 2.7858090138e+00 
24600 6.2522423906e+00 -4.1888458316e-04 1.6084005218e+00 -2.7858314227e+00 1.6084005218e+00 2.7858314227e+00 
24700 6.2522418360e+00 -4.2107308817e-04 1.6084135436e+00 -2.7858539771e+00 1.6084135436e+00 2.7858539771e+00 
24800 6.2522412905e+00 -4.2274979719e-04 1.6084266333e+00 -2.7858766491e+00 1.6084266333e+00 2.7858766491e+00 
24900 6.2522407536e+00 -4.2392134800e-04 1.6084397750e+00 -2.7858994113e+00 1.6084397750e+00 2.7858994113e+00 
25000 6.2522402252e+00 -4.2459504903e-04 1.6084529531e+00 -2.7859222363e+00 1.6084529531e+00 2.7859222363e+00 
25100 6.2522397050e+00 -4.2477884940e-04 1.6084661520e+00 -2.7859450975e+00 1.6084661520e+00 2.7859450975e+00 
25200 6.2522391927e+00 -4.2448130869e-04 1.6084793565e+00 -2.7859679683e+00 1.6084793565e+00 2.7859679683e+00 
25300 6.2522386882e+00 -4.2371156626e-04 1.6084925516e+00 -2.7859908229e+00 1.6084925516e+00 2.7859908229e+00 
25400 6.2522381913e+00 -4.2247931051e-04 1.6085057227e+00 -2.7860136359e+00 1.6085057227e+00 2.7860136359e+00 
25500 6.2522377018e+00 -4.2079474780e-04 1.6085188554e+00 -2.7860363824e+00 1.6085188554e+00 2.7860363824e+00 
25600 6.2522372196e+00 -4.1866857140e-04 1.6085319356e+00 -2.7860590380e+00 1.6085319356e+00 2.7860590380e+00 
25700 6.2522367446e+00 -4.1611193035e-04 1.6085449496e+00 -2.7860815789e+00 1.6085449496e+00 2.7860815789e+00 
25800 6.2522362768e+00 -4.1313639835e-04 1.6085578840e+00 -2.7861039820e+00 1.6085578840e+00 2.7861039820e+00 
25900 6.2522358159e+00 -4.0975394275e-04 1.6085707259e+00 -2.7861262248e+00 1.6085707259e+00 2.7861262248e+00 
26000 6.2522353620e+00 -4.0597689373e-04 1.6085834625e+00 -2.7861482852e+00 1.6085834625e+00 2.7861482852e+00 
26100 6.2522349149e+00 -4.0181791362e-04 1.6085960816e+00 -2.7861701421e+00 1.6085960816e+00 2.7861701421e+00 
26200 6.2522344747e+00 -3.9728996654e-04 1.6086085713e+00 -2.7861917750e+00 1.6086085713e+00 2.7861917750e+00 
26300 6.2522340413e+00 -3.9240628831e-04 1.6086209202e+00 -2.7862131639e+00 1.6086209202e+00 2.7862131639e+00 
26400 6.2522336147e+00 -3.8718035674e-04 1.6086331172e+00 -2.7862342897e+00 1.6086331172e+00 2.7862342897e+00 
26500 6.2522331947e+00 -3.8162586235e-04 1.6086451516e+00 -2.7862551340e+00 1.6086451516e+00 2.7862551340e+00 
26600 6.2522327814e+00 -3.7575667951e-04 1.6086570134e+00 -2.7862756791e+00 1.6086570134e+00 2.7862756791e+00 
26700 6.2522323748e+00 -3.6958683809e-04 1.6086686926e+00 -2.7862959081e+00 1.6086686926e+00 2.7862959081e+00 
26800 6.2522319747e+00 -3.6313049563e-04 1.6086801799e+00 -2.7863158048e+00 1.6086801799e+00 2.7863158048e+00 
26900 6.2522315812e+00 -3.5640191011e-04 1.6086914666e+00 -2.7863353538e+00 1.6086914666e+00 2.7863353538e+00 
27000 6.2522311942e+00 -3.4941541330e-04 1.6087025440e+00 -2.7863545404e+00 1.6087025440e+00 2.7863545404e+00 
27100 6.2522308138e+00 -3.4218538477e-04 1.6087134041e+00 -2.7863733508e+00 1.6087134041e+00 2.7863733508e+00 
27200 6.2522304398e+00 -3.3472622652e-04 1.6087240395e+00 -2.7863917718e+00 1.6087240395e+00 2.7863917718e+00 
27300 6.2522300722e+00 -3.2705233837e-04 1.6087344430e+00 -2.7864097912e+00 1.6087344430e+00 2.7864097912e+00 
27400 6.2522297109e+00 -3.1917809403e-04 1.6087446079e+00 -2.7864273973e+00 1.6087446079e+00 2.7864273973e+00 
27500 6.2522293560e+00 -3.1111781792e-04 1.6087545280e+00 -2.7864445794e+00 1.6087545280e+00 2.7864445794e+00 
27600 6.2522290073e+00 -3.0288576274e-04 1.6087641975e+00 -2.7864613275e+00 1.6087641975e+00 2.7864613275e+00 
27700 6.2522286649e+00 -2.9449608784e-04 1.6087736112e+00 -2.7864776324e+00 1.6087736112e+00 2.7864776324e+00 
27800 6.2522283286e+00 -2.8596283841e-04 1.6087827640e+00 -2.7864934856e+00 1.6087827640e+00 2.7864934856e+00 
27900 6.2522279983e+00 -2.7729992541e-04 1.6087916516e+00 -2.7865088793e+00 1.6087916516e+00 2.7865088793e+00 
28000 6.2522276741e+00 -2.6852110640e-04 1.6088002698e+00 -2.7865238066e+00 1.6088002698e+00 2.7865238066e+00 
28100 6.2522273558e+00 -2.5963996716e-04 1.6088086152e+00 -2.7865382612e+00 1.6088086152e+00 2.7865382612e+00 
28200 6.2522270434e+00 -2.5066990414e-04 1.6088166846e+00 -2.7865522377e+00 1.6088166846e+00 2.7865522377e+00 
28300 6.2522267367e+00 -2.4162410784e-04 1.6088244751e+00 -2.7865657313e+00 1.6088244751e+00 2.7865657313e+00 
28400 6.2522264357e+00 -2.3251554690e-04 1.6088319844e+00 -2.7865787378e+00 1.6088319844e+00 2.7865787378e+00 
28500 6.2522261404e+00 -2.2335695320e-04 1.6088392106e+00 -2.7865912540e+00 1.6088392106e+00 2.7865912540e+00 
28600 6.2522258506e+00 -2.1416080769e-04 1.6088461522e+00 -2.7866032772e+00 1.6088461522e+00 2.7866032772e+00 
28700 6.2522255662e+00 -2.0493932714e-04 1.6088528079e+00 -2.7866148052e+00 1.6088528079e+00 2.7866148052e+00 
28800 6.2522252871e+00 -1.9570445174e-04 1.6088591770e+00 -2.7866258369e+00 1.6088591770e+00 2.7866258369e+00 
28900 6.2522250133e+00 -1.8646783350e-04 1.6088652591e+00 -2.7866363714e+00 1.6088652591e+00 2.7866363714e+00 
29000 6.2522247446e+00 -1.7724082555e-04 1.6088710541e+00 -2.7866464086e+00 1.6088710541e+00 2.7866464086e+00 
29100 6.2522244810e+00 -1.6803447223e-04 1.6088765624e+00 -2.7866559492e+00 1.6088765624e+00 2.7866559492e+00 
29200 6.2522242223e+00 -1.5885950005e-04 1.6088817845e+00 -2.7866649941e+00 1.6088817845e+00 2.7866649941e+00 
29300 6.2522239685e+00 -1.4972630939e-04 1.6088867215e+00 -2.7866735452e+00 1.6088867215e+00 2.7866735452e+00 
29400 6.2522237194e+00 -1.4064496711e-04 1.6088913746e+00 -2.7866816046e+00 1.6088913746e+00 2.7866816046e+00 
29500 6.2522234750e+00 -1.3162519983e-04 1.6088957454e+00 -2.7866891752e+00 1.6088957454e+00 2.7866891752e+00 
29600 6.2522232351e+00 -1.2267638815e-04 1.6088998360e+00 -2.7866962602e+00 1.6088998360e+00 2.7866962602e+00 
29700 6.2522229997e+00 -1.1380756144e-04 1.6089036484e+00 -2.7867028635e+00 1.6089036484e+00 2.7867028635e+00 
29800 6.2522227686e+00 -1.0502739354e-04 1.6089071852e+00 -2.7867089894e+00 1.6089071852e+00 2.7867089894e+00 
29900 6.2522225417e+00 -9.6344199135e-05 1.6089104491e+00 -2.7867146428e+00 1.6089104491e+00 2.7867146428e+00 
30000 6.2522223191e+00 -8.7765930829e-05 1.6089134432e+00 -2.7867198287e+00 1.6089134432e+00 2.7867198287e+00 
30100 6.2522221005e+00 -7.9300176946e-05 1.6089161707e+00 -2.7867245528e+00 1.6089161707e+00 2.7867245528e+00 
30200 6.2522218858e+00 -7.0954160005e-05 1.6089186351e+00 -2.7867288213e+00 1.6089186351e+00 2.7867288213e+00 
30300 6.2522216751e+00 -6.2734735849e-05 1.6089208401e+00 -2.7867326405e+00 1.6089208401e+00 2.7867326405e+00 
30400 6.2522214683e+00 -5.6453725842e-05 1.6089208401e+00 -2.7867326405e+00 1.6089208401e+00 2.7867326405e+00 
30500 6.2522212651e+00 -5.0085247905e-05 1.6089208401e+00 -2.7867326405e+00 1.6089208401e+00 2.7867326405e+00 
30600 6.2522210655e+00 -4.3638459531e-05 1.6089208401e+00 -2.7867326405e+00 1.6089208401e+00 2.7867326405e+00 
30700 6.2522208693e+00 -3.7122296124e-05 1.6089208401e+00 -2.7867326405e+00 1.6089208401e+00 2.7867326405e+00 
30800 6.2522206766e+00 -3.0545465731e-05 1.6089208401e+00 -2.7867326405e+00 1.6089208401e+00 2.7867326405e+00 
30900 6.2522204873e+00 -2.3916444290e-05 1.6089208401e+00 -2.7867326405e+00 1.6089208401e+00 2.7867326405e+00 
31000 6.2522203013e+00 -1.7243471436e-05 1.6089208401e+00 -2.7867326405e+00 1.6089208401e+00 2.7867326405e+00 
31100 6.2522201184e+00 -1.0534546793e-05 1.6089208401e+00 -2.7867326405e+00 1.6089208401e+00 2.7867326405e+00 
31200 6.2522199388e+00 -3.7974267985e-06 1.6089208401e+00 -2.7867326405e+00 1.6089208401e+00 2.7867326405e+00 
31300 6.2522197623e+00 2.9603780005e-06 1.6089208401e+00 -2.7867326405e+00 1.6089208401e+00 2.7867326405e+00 
31400 6.2522195888e+00 9.7316051733e-06 1.6089208401e+00 -2.7867326405e+00 1.6089208401e+00 2.7867326405e+00 
31500 6.2522194183e+00 1.6509242156e-05 1.6089208401e+00 -2.7867326405e+00 1.6089208401e+00 2.7867326405e+00 
31600 6.2522192508e+00 2.3286527569e-05 1.6089208401e+00 -2.7867326405e+00 1.6089208401e+00 2.7867326405e+00 
31700 6.2522190862e+00 3.0056952087e-05 1.6089208401e+00 -2.7867326405e+00 1.6089208401e+00 2.7867326405e+00 
31800 6.2522189245e+00 3.6814258899e-05 1.6089208401e+00 -2.7867326405e+00 1.6089208401e+00 2.7867326405e+00 
31900 6.2522187655e+00 4.3552443762e-05 1.6089208401e+00 -2.7867326405e+00 1.6089208401e+00 2.7867326405e+00 
32000 6.2522186093e+00 5.0265754651e-05 1.6089208401e+00 -2.7867326405e+00 1.6089208401e+00 2.7867326405e+00 
32100 6.2522184559e+00 5.6948691057e-05 1.6089208401e+00 -2.7867326405e+00 1.6089208401e+00 2.7867326405e+00 
32200 6.2522183051e+00 6.3596002903e-05 1.6089208401e+00 -2.7867326405e+00 1.6089208401e+00 2.7867326405e+00 
32300 6.2522181569e+00 7.0202689126e-05 1.6089208401e+00 -2.7867326405e+00 1.6089208401e+00 2.7867326405e+00 
32400 6.2522180114e+00 7.6763995921e-05 1.6089208401e+00 -2.7867326405e+00 1.6089208401e+00 2.7867326405e+00 
32500 6.2522178682e+00 8.1065809587e-05 1.6089184546e+00 -2.7867285086e+00 1.6089184546e+00 2.7867285086e+00 
32600 6.2522177274e+00 8.5182241980e-05 1.6089159353e+00 -2.7867241451e+00 1.6089159353e+00 2.7867241451e+00 
32700 6.2522175891e+00 8.9113975061e-05 1.6089132881e+00 -2.7867195600e+00 1.6089132881e+00 2.7867195600e+00 
32800 6.2522174531e+00 9.2861932317e-05 1.6089105187e+00 -2.7867147633e+00 1.6089105187e+00 2.7867147633e+00 
32900 6.2522173196e+00 9.6427269847e-05 1.6089076329e+00 -2.7867097648e+00 1.6089076329e+00 2.7867097648e+00 
33000 6.2522171883e+00 9.9811367340e-05 1.6089046362e+00 -2.7867045744e+00 1.6089046362e+00 2.7867045744e+00 
33100 6.2522170594e+00 1.0301581898e-04 1.6089015344e+00 -2.7866992019e+00 1.6089015344e+00 2.7866992019e+00 
33200 6.2522169327e+00 1.0604242428e-04 1.6088983329e+00 -2.7866936568e+00 1.6088983329e+00 2.7866936568e+00 
33300 6.2522168083e+00 1.0889317895e-04 1.6088950374e+00 -2.7866879489e+00 1.6088950374e+00 2.7866879489e+00 
33400 6.2522166860e+00 1.1157026560e-04 1.6088916533e+00 -2.7866820875e+00 1.6088916533e+00 2.7866820875e+00 
33500 6.2522165660e+00 1.1407604458e-04 1.6088881860e+00 -2.7866760819e+00 1.6088881860e+00 2.7866760819e+00 
33600 6.2522164481e+00 1.1641304477e-04 1.6088846409e+00 -2.7866699415e+00 1.6088846409e+00 2.7866699415e+00 
33700 6.2522163324e+00 1.1858395435e-04 1.6088810230e+00 -2.7866636752e+00 1.6088810230e+00 2.7866636752e+00 
33800 6.2522162187e+00 1.2059161166e-04 1.6088773377e+00 -2.7866572921e+00 1.6088773377e+00 2.7866572921e+00 
33900 6.2522161072e+00 1.2243899614e-04 1.6088735901e+00 -2.7866508009e+00 1.6088735901e+00 2.7866508009e+00 
34000 6.2522159977e+00 1.2412921926e-04 1.6088697849e+00 -2.7866442103e+00 1.6088697849e+00 2.7866442103e+00 
34100 6.2522158902e+00 1.2566551557e-04 1.6088659273e+00 -2.7866375286e+00 1.6088659273e+00 2.7866375286e+00 
34200 6.2522157847e+00 1.2705123384e-04 1.6088620219e+00 -2.7866307643e+00 1.6088620219e+00 2.7866307643e+00 
34300 6.2522156812e+00 1.2828982830e-04 1.6088580734e+00 -2.7866239253e+00 1.6088580734e+00 2.7866239253e+00 
34400 6.2522155797e+00 1.2938485000e-04 1.6088540864e+00 -2.7866170196e+00 1.6088540864e+00 2.7866170196e+00 
34500 6.2522154800e+00 1.3033993826e-04 1.6088500654e+00 -2.7866100550e+00 1.6088500654e+00 2.7866100550e+00 
34600 6.2522153823e+00 1.3115881232e-04 1.6088460147e+00 -2.7866030390e+00 1.6088460147e+00 2.7866030390e+00 
34700 6.2522152865e+00 1.3184526302e-04 1.6088419385e+00 -2.7865959788e+00 1.6088419385e+00 2.7865959788e+00 
34800 6.2522151925e+00 1.3240314481e-04 1.6088378410e+00 -2.7865888817e+00 1.6088378410e+00 2.7865888817e+00 
34900 6.2522151004e+00 1.3283636772e-04 1.6088337261e+00 -2.7865817546e+00 1.6088337261e+00 2.7865817546e+00 
35000 6.2522150100e+00 1.3314888965e-04 1.6088295978e+00 -2.7865746041e+00 1.6088295978e+00 2.7865746041e+00 
35100 6.2522149214e+00 1.3334470876e-04 1.6088254597e+00 -2.7865674367e+00 1.6088254597e+00 2.7865674367e+00 
35200 6.2522148346e+00 1.3342785608e-04 1.6088213156e+00 -2.7865602588e+00 1.6088213156e+00 2.7865602588e+00 
35300 6.2522147495e+00 1.3340238824e-04 1.6088171688e+00 -2.7865530764e+00 1.6088171688e+00 2.7865530764e+00 
35400 6.2522146661e+00 1.3327238054e-04 1.6088130228e+00 -2.7865458954e+00 1.6088130228e+00 2.7865458954e+00 
35500 6.2522145843e+00 1.3304192002e-04 1.6088088809e+00 -2.7865387213e+00 1.6088088809e+00 2.7865387213e+00 
35600 6.2522145042e+00 1.3271509891e-04 1.6088047461e+00 -2.7865315597e+00 1.6088047461e+00 2.7865315597e+00 
35700 6.2522144258e+00 1.3229600820e-04 1.6088006214e+00 -2.7865244156e+00 1.6088006214e+00 2.7865244156e+00 
35800 6.2522143489e+00 1.3178873140e-04 1.6087965098e+00 -2.7865172940e+00 1.6087965098e+00 2.7865172940e+00 
35900 6.2522142735e+00 1.3119733863e-04 1.6087924139e+00 -2.7865101997e+00 1.6087924139e+00 2.7865101997e+00 
36000 6.2522141997e+00 1.3052588077e-04 1.6087883364e+00 -2.7865031373e+00 1.6087883364e+00 2.7865031373e+00 
36100 6.2522141274e+00 1.2977838396e-04 1.6087842798e+00 -2.7864961110e+00 1.6087842798e+00 2.7864961110e+00 
36200 6.2522140566e+00 1.2895884427e-04 1.6087802463e+00 -2.7864891249e+00 1.6087802463e+00 2.7864891249e+00 
36300 6.2522139872e+00 1.2807122258e-04 1.6087762384e+00 -2.7864821829e+00 1.6087762384e+00 2.7864821829e+00 
36400 6.2522139193e+00 1.2711943968e-04 1.6087722580e+00 -2.7864752886e+00 1.6087722580e+00 2.7864752886e+00 
36500 6.2522138527e+00 1.2610737167e-04 1.6087683072e+00 -2.7864684456e+00 1.6087683072e+00 2.7864684456e+00 
36600 6.2522137875e+00 1.2503884548e-04 1.6087643878e+00 -2.7864616570e+00 1.6087643878e+00 2.7864616570e+00 
36700 6.2522137237e+00 1.2391763467e-04 1.6087605016e+00 -2.7864549260e+00 1.6087605016e+00 2.7864549260e+00 
36800 6.2522136612e+00 1.2274745547e-04 1.6087566503e+00 -2.7864482553e+00 1.6087566503e+00 2.7864482553e+00 
36900 6.2522135999e+00 1.2153196300e-04 1.6087528353e+00 -2.7864416475e+00 1.6087528353e+00 2.7864416475e+00 
37000 6.2522135399e+00 1.2027474772e-04 1.6087490581e+00 -2.7864351052e+00 1.6087490581e+00 2.7864351052e+00 
37100 6.2522134811e+00 1.1897933214e-04 1.6087453199e+00 -2.7864286306e+00 1.6087453199e+00 2.7864286306e+00 
37200 6.2522134236e+00 1.1764916769e-04 1.6087416220e+00 -2.7864222256e+00 1.6087416220e+00 2.7864222256e+00 
37300 6.2522133672e+00 1.1628763185e-04 1.6087379655e+00 -2.7864158923e+00 1.6087379655e+00 2.7864158923e+00 
37400 6.2522133119e+00 1.1489802548e-04 1.6087343512e+00 -2.7864096322e+00 1.6087343512e+00 2.7864096322e+00 
37500 6.2522132578e+00 1.1348357036e-04 1.6087307802e+00 -2.7864034470e+00 1.6087307802e+00 2.7864034470e+00 
37600 6.2522132048e+00 1.1204740690e-04 1.6087272531e+00 -2.7863973378e+00 1.6087272531e+00 2.7863973378e+00 
37700 6.2522131529e+00 1.1059259216e-04 1.6087237706e+00 -2.7863913060e+00 1.6087237706e+00 2.7863913060e+00 
37800 6.2522131020e+00 1.0912209792e-04 1.6087203333e+00 -2.7863853524e+00 1.6087203333e+00 2.7863853524e+00 
37900 6.2522130521e+00 1.0763880910e-04 1.6087169417e+00 -2.7863794781e+00 1.6087169417e+00 2.7863794781e+00 
38000 6.2522130032e+00 1.0614552224e-04 1.6087135962e+00 -2.7863736835e+00 1.6087135962e+00 2.7863736835e+00 
38100 6.2522129553e+00 1.0464494429e-04 1.6087102972e+00 -2.7863679693e+00 1.6087102972e+00 2.7863679693e+00 
38200 6.2522129084e+00 1.0313969147e-04 1.6087070447e+00 -2.7863623359e+00 1.6087070447e+00 2.7863623359e+00 
38300 6.2522128623e+00 1.0163228841e-04 1.6087038390e+00 -2.7863567835e+00 1.6087038390e+00 2.7863567835e+00 
38400 6.2522128172e+00 1.0012516738e-04 1.6087006802e+00 -2.7863513123e+00 1.6087006802e+00 2.7863513123e+00 
38500 6.2522127730e+00 9.8620667773e-05 1.6086975682e+00 -2.7863459222e+00 1.6086975682e+00 2.7863459222e+00 
38600 6.2522127296e+00 9.7121035690e-05 1.6086945030e+00 -2.7863406130e+00 1.6086945030e+00 2.7863406130e+00 
38700 6.2522126871e+00 9.5628423709e-05 1.6086914844e+00 -2.7863353846e+00 1.6086914844e+00 2.7863353846e+00 
38800 6.2522126454e+00 9.4144890826e-05 1.6086885121e+00 -2.7863302366e+00 1.6086885121e+00 2.7863302366e+00 
38900 6.2522126045e+00 9.2672402516e-05 1.6086855860e+00 -2.7863251683e+00 1.6086855860e+00 2.7863251683e+00 
39000 6.2522125644e+00 9.1212830973e-05 1.6086827056e+00 -2.7863201794e+00 1.6086827056e+00 2.7863201794e+00 
39100 6.2522125250e+00 8.9767955459e-05 1.6086798706e+00 -2.7863152690e+00 1.6086798706e+00 2.7863152690e+00 
39200 6.2522124864e+00 8.8339462815e-05 1.6086770805e+00 -2.7863104364e+00 1.6086770805e+00 2.7863104364e+00 
39300 6.2522124485e+00 8.6928948082e-05 1.6086743348e+00 -2.7863056807e+00 1.6086743348e+00 2.7863056807e+00 
39400 6.2522124113e+00 8.5537915261e-05 1.6086716329e+00 -2.7863010009e+00 1.6086716329e+00 2.7863010009e+00 
39500 6.2522123748e+00 8.4167778182e-05 1.6086689742e+00 -2.7862963959e+00 1.6086689742e+00 2.7862963959e+00 
39600 6.2522123390e+00 8.2819861495e-05 1.6086663582e+00 -2.7862918648e+00 1.6086663582e+00 2.7862918648e+00 
39700 6.2522123038e+00 8.1495401761e-05 1.6086637840e+00 -2.7862874062e+00 1.6086637840e+00 2.7862874062e+00 
39800 6.2522122693e+00 8.0195548649e-05 1.6086612510e+00 -2.7862830189e+00 1.6086612510e+00 2.7862830189e+00 
39900 6.2522122354e+00 7.8921366240e-05 1.6086587584e+00 -2.7862787015e+00 1.6086587584e+00 2.7862787015e+00 
40000 6.2522122022e+00 7.7673834398e-05 1.6086563053e+00 -2.7862744528e+00 1.6086563053e+00 2.7862744528e+00 
40100 6.2522121695e+00 7.6453850263e-05 1.6086538911e+00 -2.7862702712e+00 1.6086538911e+00 2.7862702712e+00 
40200 6.2522121374e+00 7.5262229788e-05 1.6086515148e+00 -2.7862661553e+00 1.6086515148e+00 2.7862661553e+00 
40300 6.2522121059e+00 7.4099709384e-05 1.6086491755e+00 -2.7862621035e+00 1.6086491755e+00 2.7862621035e+00 
40400 6.2522120749e+00 7.2966947611e-05 1.6086468723e+00 -2.7862581143e+00 1.6086468723e+00 2.7862581143e+00 
40500 6.2522120445e+00 7.1864526951e-05 1.6086446043e+00 -2.7862541861e+00 1.6086446043e+00 2.7862541861e+00 
40600 6.2522120147e+00 7.0792955638e-05 1.6086423707e+00 -2.7862503172e+00 1.6086423707e+00 2.7862503172e+00 
40700 6.2522119853e+00 6.9752669533e-05 1.6086401703e+00 -2.7862465060e+00 1.6086401703e+00 2.7862465060e+00 
40800 6.2522119567e+00 7.0752978413e-05 1.6086401703e+00 -2.7862465060e+00 1.6086401703e+00 2.7862465060e+00 
40900 6.2522119284e+00 6.9725150279e-05 1.6086379711e+00 -2.7862426969e+00 1.6086379711e+00 2.7862426969e+00 
41000 6.2522119007e+00 7.0739115520e-05 1.6086379711e+00 -2.7862426969e+00 1.6086379711e+00 2.7862426969e+00 
41100 6.2522118733e+00 6.9727576212e-05 1.6086357724e+00 -2.7862388886e+00 1.6086357724e+00 2.7862388886e+00 
41200 6.2522118466e+00 7.0759516894e-05 1.6086357724e+00 -2.7862388886e+00 1.6086357724e+00 2.7862388886e+00 
41300 6.2522118202e+00 6.9767340103e-05 1.6086335730e+00 -2.7862350792e+00 1.6086335730e+00 2.7862350792e+00 
41400 6.2522117944e+00 7.0821057829e-05 1.6086335730e+00 -2.7862350792e+00 1.6086335730e+00 2.7862350792e+00 
41500 6.2522117689e+00 6.9850608057e-05 1.6086313717e+00 -2.7862312665e+00 1.6086313717e+00 2.7862312665e+00 
41600 6.2522117440e+00 7.0929399582e-05 1.6086313717e+00 -2.7862312665e+00 1.6086313717e+00 2.7862312665e+00 
41700 6.2522117193e+00 6.9982380923e-05 1.6086291671e+00 -2.7862274479e+00 1.6086291671e+00 2.7862274479e+00 
41800 6.2522116953e+00 7.1089053165e-05 1.6086291671e+00 -2.7862274479e+00 1.6086291671e+00 2.7862274479e+00 
41900 6.2522116714e+00 7.0166558477e-05 1.6086269575e+00 -2.7862236208e+00 1.6086269575e+00 2.7862236208e+00 
42000 6.2522116482e+00 7.1303445640e-05 1.6086269575e+00 -2.7862236208e+00 1.6086269575e+00 2.7862236208e+00 
42100 6.2522116251e+00 7.0406005793e-05 1.6086247412e+00 -2.7862197820e+00 1.6086247412e+00 2.7862197820e+00 
42200 6.2522116027e+00 7.1574988323e-05 1.6086247412e+00 -2.7862197820e+00 1.6086247412e+00 2.7862197820e+00 
42300 6.2522115804e+00 7.0702621183e-05 1.6086225165e+00 -2.7862159287e+00 1.6086225165e+00 2.7862159287e+00 
42400 6.2522115587e+00 7.1905146316e-05 1.6086225165e+00 -2.7862159287e+00 1.6086225165e+00 2.7862159287e+00 
42500 6.2522115372e+00 7.1057405194e-05 1.6086202815e+00 -2.7862120576e+00 1.6086202815e+00 2.7862120576e+00 
42600 6.2522115160e+00 7.0248067054e-05 1.6086180728e+00 -2.7862082321e+00 1.6086180728e+00 2.7862082321e+00 
42700 6.2522114954e+00 7.1499306882e-05 1.6086180728e+00 -2.7862082321e+00 1.6086180728e+00 2.7862082321e+00 
42800 6.2522114750e+00 7.0712399381e-05 1.6086158504e+00 -2.7862043828e+00 1.6086158504e+00 2.7862043828e+00 
42900 6.2522114548e+00 6.9962474564e-05 1.6086136525e+00 -2.7862005759e+00 1.6086136525e+00 2.7862005759e+00 
43000 6.2522114353e+00 7.1263386163e-05 1.6086136525e+00 -2.7862005759e+00 1.6086136525e+00 2.7862005759e+00 
43100 6.2522114158e+00 7.0533006726e-05 1.6086114375e+00 -2.7861967393e+00 1.6086114375e+00 2.7861967393e+00 
43200 6.2522113969e+00 7.1869263266e-05 1.6086114375e+00 -2.7861967393e+00 1.6086114375e+00 2.7861967393e+00 
43300 6.2522113781e+00 7.1156701850e-05 1.6086092036e+00 -2.7861928701e+00 1.6086092036e+00 2.7861928701e+00 
43400 6.2522113597e+00 7.0478722087e-05 1.6086069918e+00 -2.7861890393e+00 1.6086069918e+00 2.7861890393e+00 
43500 6.2522113417e+00 7.1863908494e-05 1.6086069918e+00 -2.7861890393e+00 1.6086069918e+00 2.7861890393e+00 
43600 6.2522113238e+00 7.1199944672e-05 1.6086047581e+00 -2.7861851703e+00 1.6086047581e+00 2.7861851703e+00 
43700 6.2522113063e+00 7.0568575831e-05 1.6086025450e+00 -2.7861813371e+00 1.6086025450e+00 2.7861813371e+00 
43800 6.2522112892e+00 7.2000931600e-05 1.6086025450e+00 -2.7861813371e+00 1.6086025450e+00 2.7861813371e+00 
43900 6.2522112723e+00 7.1379441383e-05 1.6086003070e+00 -2.7861774608e+00 1.6086003070e+00 2.7861774608e+00 
44000 6.2522112556e+00 7.0788472830e-05 1.6085980883e+00 -2.7861736179e+00 1.6085980883e+00 2.7861736179e+00 
44100 6.2522112392e+00 7.0226806544e-05 1.6085958880e+00 -2.7861698069e+00 1.6085958880e+00 2.7861698069e+00 
44200 6.2522112233e+00 7.1715720921e-05 1.6085958880e+00 -2.7861698069e+00 1.6085958880e+00 2.7861698069e+00 
44300 6.2522112074e+00 7.1157601398e-05 1.6085936589e+00 -2.7861659459e+00 1.6085936589e+00 2.7861659459e+00 
44400 6.2522111918e+00 7.0626716493e-05 1.6085914471e+00 -2.7861621149e+00 1.6085914471e+00 2.7861621149e+00 
44500 6.2522111767e+00 7.2155852792e-05 1.6085914471e+00 -2.7861621149e+00 1.6085914471e+00 2.7861621149e+00 
44600 6.2522111616e+00 7.1624084768e-05 1.6085892042e+00 -2.7861582303e+00 1.6085892042e+00 2.7861582303e+00 
44700 6.2522111468e+00 7.1117497953e-05 1.6085869779e+00 -2.7861543742e+00 1.6085869779e+00 2.7861543742e+00 
44800 6.2522111322e+00 7.0634898135e-05 1.6085847674e+00 -2.7861505454e+00 1.6085847674e+00 2.7861505454e+00 
44900 6.2522111181e+00 7.2209338146e-05 1.6085847674e+00 -2.7861505454e+00 1.6085847674e+00 2.7861505454e+00 
45000 6.2522111040e+00 7.1719468115e-05 1.6085825229e+00 -2.7861466578e+00 1.6085825229e+00 2.7861466578e+00 
45100 6.2522110902e+00 7.1251652747e-05 1.6085802936e+00 -2.7861427966e+00 1.6085802936e+00 2.7861427966e+00 
45200 6.2522110766e+00 7.0804745782e-05 1.6085780789e+00 -2.7861389606e+00 1.6085780789e+00 2.7861389606e+00 
45300 6.2522110632e+00 7.0377630940e-05 1.6085758780e+00 -2.7861351486e+00 1.6085758780e+00 2.7861351486e+00 
45400 6.2522110502e+00 7.1996029267e-05 1.6085758780e+00 -2.7861351486e+00 1.6085758780e+00 2.7861351486e+00 
45500 6.2522110373e+00 7.1553691997e-05 1.6085736401e+00 -2.7861312725e+00 1.6085736401e+00 2.7861312725e+00 
45600 6.2522110246e+00 7.1129463220e-05 1.6085714160e+00 -2.7861274201e+00 1.6085714160e+00 2.7861274201e+00 
45700 6.2522110120e+00 7.0722287601e-05 1.6085692051e+00 -2.7861235907e+00 1.6085692051e+00 2.7861235907e+00 
45800 6.2522109997e+00 7.0331142382e-05 1.6085670068e+00 -2.7861197831e+00 1.6085670068e+00 2.7861197831e+00 
45900 6.2522109878e+00 7.1980502541e-05 1.6085670068e+00 -2.7861197831e+00 1.6085670068e+00 2.7861197831e+00 
46000 6.2522109759e+00 7.1566936273e-05 1.6085647694e+00 -2.7861159078e+00 1.6085647694e+00 2.7861159078e+00 
46100 6.2522109642e+00 7.1168009440e-05 1.6085625448e+00 -2.7861120547e+00 1.6085625448e+00 2.7861120547e+00 
46200 6.2522109527e+00 7.0782768294e-05 1.6085603326e+00 -2.7861082232e+00 1.6085603326e+00 2.7861082232e+00 
46300 6.2522109414e+00 7.0410293116e-05 1.6085581324e+00 -2.7861044123e+00 1.6085581324e+00 2.7861044123e+00 
46400 6.2522109305e+00 7.2077440630e-05 1.6085581324e+00 -2.7861044123e+00 1.6085581324e+00 2.7861044123e+00 
46500 6.2522109196e+00 7.1676272375e-05 1.6085558920e+00 -2.7861005318e+00 1.6085558920e+00 2.7861005318e+00 
46600 6.2522109088e+00 7.1286796496e-05 1.6085536640e+00 -2.7860966728e+00 1.6085536640e+00 2.7860966728e+00 
46700 6.2522108982e+00 7.0908165990e-05 1.6085514482e+00 -2.7860928348e+00 1.6085514482e+00 2.7860928348e+00 
46800 6.2522108878e+00 7.0539568333e-05 1.6085492441e+00 -2.7860890172e+00 1.6085492441e+00 2.7860890172e+00 
46900 6.2522108778e+00 7.2211689743e-05 1.6085492441e+00 -2.7860890172e+00 1.6085492441e+00 2.7860890172e+00 
47000 6.2522108677e+00 7.1809161360e-05 1.6085469995e+00 -2.7860851294e+00 1.6085469995e+00 2.7860851294e+00 
47100 6.2522108578e+00 7.1415917420e-05 1.6085447673e+00 -2.7860812633e+00 1.6085447673e+00 2.7860812633e+00 
47200 6.2522108480e+00 7.1031218061e-05 1.6085425475e+00 -2.7860774183e+00 1.6085425475e+00 2.7860774183e+00 
47300 6.2522108385e+00 7.0654357497e-05 1.6085403395e+00 -2.7860735941e+00 1.6085403395e+00 2.7860735941e+00 
47400 6.2522108292e+00 7.2319433914e-05 1.6085403395e+00 -2.7860735941e+00 1.6085403395e+00 2.7860735941e+00 
47500 6.2522108200e+00 7.1904488990e-05 1.6085380915e+00 -2.7860697004e+00 1.6085380915e+00 2.7860697004e+00 
47600 6.2522108109e+00 7.1496953160e-05 1.6085358564e+00 -2.7860658292e+00 1.6085358564e+00 2.7860658292e+00 
47700 6.2522108019e+00 7.1096190145e-05 1.6085336340e+00 -2.7860619798e+00 1.6085336340e+00 2.7860619798e+00 
47800 6.2522107931e+00 7.0701596644e-05 1.6085314241e+00 -2.7860581520e+00 1.6085314241e+00 2.7860581520e+00 
47900 6.2522107846e+00 7.2348733317e-05 1.6085314241e+00 -2.7860581520e+00 1.6085314241e+00 2.7860581520e+00 
48000 6.2522107761e+00 7.1912985350e-05 1.6085291751e+00 -2.7860542568e+00 1.6085291751e+00 2.7860542568e+00 
48100 6.2522107677e+00 7.1483277816e-05 1.6085269398e+00 -2.7860503850e+00 1.6085269398e+00 2.7860503850e+00 
48200 6.2522107594e+00 7.1059071324e-05 1.6085247178e+00 -2.7860465364e+00 1.6085247178e+00 2.7860465364e+00 
48300 6.2522107513e+00 7.0639857818e-05 1.6085225089e+00 -2.7860427106e+00 1.6085225089e+00 2.7860427106e+00 
48400 6.2522107435e+00 7.2259514861e-05 1.6085225089e+00 -2.7860427106e+00 1.6085225089e+00 2.7860427106e+00 
48500 6.2522107357e+00 7.1797118270e-05 1.6085202628e+00 -2.7860388202e+00 1.6085202628e+00 2.7860388202e+00 
48600 6.2522107279e+00 7.1339859192e-05 1.6085180310e+00 -2.7860349546e+00 1.6085180310e+00 2.7860349546e+00 
48700 6.2522107203e+00 7.0887286083e-05 1.6085158135e+00 -2.7860311137e+00 1.6085158135e+00 2.7860311137e+00 
48800 6.2522107128e+00 7.0438976683e-05 1.6085136100e+00 -2.7860272971e+00 1.6085136100e+00 2.7860272971e+00 
48900 6.2522107057e+00 7.2023108987e-05 1.6085136100e+00 -2.7860272971e+00 1.6085136100e+00 2.7860272971e+00 
49000 6.2522106984e+00 7.1530554499e-05 1.6085113712e+00 -2.7860234194e+00 1.6085113712e+00 2.7860234194e+00 
49100 6.2522106913e+00 7.1042648481e-05 1.6085091477e+00 -2.7860195682e+00 1.6085091477e+00 2.7860195682e+00 
49200 6.2522106843e+00 7.0559016608e-05 1.6085069393e+00 -2.7860157432e+00 1.6085069393e+00 2.7860157432e+00 
49300 6.2522106776e+00 7.2111340910e-05 1.6085069393e+00 -2.7860157432e+00 1.6085069393e+00 2.7860157432e+00 
49400 6.2522106708e+00 7.1583535553e-05 1.6085046978e+00 -2.7860118607e+00 1.6085046978e+00 2.7860118607e+00 
49500 6.2522106642e+00 7.1060527051e-05 1.6085024726e+00 -2.7860080066e+00 1.6085024726e+00 2.7860080066e+00 
49600 6.2522106576e+00 7.0541983235e-05 1.6085002637e+00 -2.7860041807e+00 1.6085002637e+00 2.7860041807e+00 
49700 6.2522106513e+00 7.2059137023e-05 1.6085002637e+00 -2.7860041807e+00 1.6085002637e+00 2.7860041807e+00 
49800 6.2522106450e+00 7.1496934196e-05 1.6084980237e+00 -2.7860003010e+00 1.6084980237e+00 2.7860003010e+00 
49900 6.2522106387e+00 7.0939835859e-05 1.6084958013e+00 -2.7859964516e+00 1.6084958013e+00 2.7859964516e+00 
50000 6.2522106326e+00 7.0387545954e-05 1.6084935961e+00 -2.7859926321e+00 1.6084935961e+00 2.7859926321e+00 
50100 6.2522106267e+00 7.1866885268e-05 1.6084935961e+00 -2.7859926321e+00 1.6084935961e+00 2.7859926321e+00 
50200 6.2522106208e+00 7.1271839412e-05 1.6084913621e+00 -2.7859887627e+00 1.6084913621e+00 2.7859887627e+00 
50300 6.2522106149e+00 7.0682337437e-05 1.6084891466e+00 -2.7859849254e+00 1.6084891466e+00 2.7859849254e+00 
50400 6.2522106093e+00 7.2133694999e-05 1.6084891466e+00 -2.7859849254e+00 1.6084891466e+00 2.7859849254e+00 
50500 6.2522106037e+00 7.1502709872e-05 1.6084869044e+00 -2.7859810417e+00 1.6084869044e+00 2.7859810417e+00 
50600 6.2522105981e+00 7.0878026647e-05 1.6084846817e+00 -2.7859771919e+00 1.6084846817e+00 2.7859771919e+00 
50700 6.2522105926e+00 7.0259383269e-05 1.6084824784e+00 -2.7859733757e+00 1.6084824784e+00 2.7859733757e+00 
50800 6.2522105874e+00 7.1669941892e-05 1.6084824784e+00 -2.7859733757e+00 1.6084824784e+00 2.7859733757e+00 
50900 6.2522105821e+00 7.1011193290e-05 1.6084802506e+00 -2.7859695170e+00 1.6084802506e+00 2.7859695170e+00 
51000 6.2522105769e+00 7.0359306228e-05 1.6084780432e+00 -2.7859656936e+00 1.6084780432e+00 2.7859656936e+00 
51100 6.2522105719e+00 7.1740319527e-05 1.6084780432e+00 -2.7859656936e+00 1.6084780432e+00 2.7859656936e+00 
51200 6.2522105668e+00 7.1049896060e-05 1.6084758131e+00 -2.7859618310e+00 1.6084758131e+00 2.7859618310e+00 
51300 6.2522105619e+00 7.0367155121e-05 1.6084736045e+00 -2.7859580056e+00 1.6084736045e+00 2.7859580056e+00 
51400 6.2522105572e+00 7.1718358932e-05 1.6084736045e+00 -2.7859580056e+00 1.6084736045e+00 2.7859580056e+00 
51500 6.2522105523e+00 7.0998711207e-05 1.6084713751e+00 -2.7859541442e+00 1.6084713751e+00 2.7859541442e+00 
51600 6.2522105476e+00 7.0287559145e-05 1.6084691681e+00 -2.7859503215e+00 1.6084691681e+00 2.7859503215e+00 
51700 6.2522105431e+00 7.1608868522e-05 1.6084691681e+00 -2.7859503215e+00 1.6084691681e+00 2.7859503215e+00 
51800 6.2522105385e+00 7.0862482778e-05 1.6084669421e+00 -2.7859464660e+00 1.6084669421e+00 2.7859464660e+00 
51900 6.2522105340e+00 7.0125391303e-05 1.6084647393e+00 -2.7859426506e+00 1.6084647393e+00 2.7859426506e+00 
52000 6.2522105297e+00 7.1416884036e-05 1.6084647393e+00 -2.7859426506e+00 1.6084647393e+00 2.7859426506e+00 
52100 6.2522105253e+00 7.0646258961e-05 1.6084625193e+00 -2.7859388054e+00 1.6084625193e+00 2.7859388054e+00 
52200 6.2522105212e+00 7.1920245815e-05 1.6084625193e+00 -2.7859388054e+00 1.6084625193e+00 2.7859388054e+00 
52300 6.2522105170e+00 7.1117740130e-05 1.6084602836e+00 -2.7859349331e+00 1.6084602836e+00 2.7859349331e+00 
52400 6.2522105128e+00 7.0326297478e-05 1.6084580728e+00 -2.7859311040e+00 1.6084580728e+00 2.7859311040e+00 
52500 6.2522105089e+00 7.1570959968e-05 1.6084580728e+00 -2.7859311040e+00 1.6084580728e+00 2.7859311040e+00 
52600 6.2522105049e+00 7.0749281047e-05 1.6084558480e+00 -2.7859272505e+00 1.6084558480e+00 2.7859272505e+00 
52700 6.2522105009e+00 6.9939353759e-05 1.6084536487e+00 -2.7859234412e+00 1.6084536487e+00 2.7859234412e+00 
52800 6.2522104972e+00 7.1155069945e-05 1.6084536487e+00 -2.7859234412e+00 1.6084536487e+00 2.7859234412e+00 
52900 6.2522104933e+00 7.0316546889e-05 1.6084514368e+00 -2.7859196100e+00 1.6084514368e+00 2.7859196100e+00 
53000 6.2522104897e+00 7.1515476547e-05 1.6084514368e+00 -2.7859196100e+00 1.6084514368e+00 2.7859196100e+00 
53100 6.2522104860e+00 7.0649953363e-05 1.6084492137e+00 -2.7859157595e+00 1.6084492137e+00 2.7859157595e+00 
53200 6.2522104825e+00 7.1832388037e-05 1.6084492137e+00 -2.7859157595e+00 1.6084492137e+00 2.7859157595e+00 
53300 6.2522104789e+00 7.0941406860e-05 1.6084469807e+00 -2.7859118919e+00 1.6084469807e+00 2.7859118919e+00 
53400 6.2522104753e+00 7.0064604995e-05 1.6084447754e+00 -2.7859080722e+00 1.6084447754e+00 2.7859080722e+00 
53500 6.2522104720e+00 7.1219420285e-05 1.6084447754e+00 -2.7859080722e+00 1.6084447754e+00 2.7859080722e+00 
53600 6.2522104685e+00 7.0318616763e-05 1.6084425615e+00 -2.7859042376e+00 1.6084425615e+00 2.7859042376e+00 
53700 6.2522104653e+00 7.1457582918e-05 1.6084425615e+00 -2.7859042376e+00 1.6084425615e+00 2.7859042376e+00 
53800 6.2522104620e+00 7.0534245981e-05 1.6084403402e+00 -2.7859003902e+00 1.6084403402e+00 2.7859003902e+00 
53900 6.2522104589e+00 7.1657682615e-05 1.6084403402e+00 -2.7859003902e+00 1.6084403402e+00 2.7859003902e+00 
54000 6.2522104556e+00 7.0713222835e-05 1.6084381126e+00 -2.7858965319e+00 1.6084381126e+00 2.7858965319e+00 
54100 6.2522104525e+00 6.9784984673e-05 1.6084359144e+00 -2.7858927245e+00 1.6084359144e+00 2.7858927245e+00 
54200 6.2522104495e+00 7.0882297459e-05 1.6084359144e+00 -2.7858927245e+00 1.6084359144e+00 2.7858927245e+00 
54300 6.2522104464e+00 6.9934191532e-05 1.6084337110e+00 -2.7858889080e+00 1.6084337110e+00 2.7858889080e+00 
54400 6.2522104436e+00 7.1016662407e-05 1.6084337110e+00 -2.7858889080e+00 1.6084337110e+00 2.7858889080e+00 
54500 6.2522104406e+00 7.0050018173e-05 1.6084315034e+00 -2.7858850843e+00 1.6084315034e+00 2.7858850843e+00 
54600 6.2522104378e+00 7.1117973041e-05 1.6084315034e+00 -2.7858850843e+00 1.6084315034e+00 2.7858850843e+00 
54700 6.2522104349e+00 7.0134060736e-05 1.6084292926e+00 -2.7858812551e+00 1.6084292926e+00 2.7858812551e+00 
54800 6.2522104322e+00 7.1187813478e-05 1.6084292926e+00 -2.7858812551e+00 1.6084292926e+00 2.7858812551e+00 
54900 6.2522104294e+00 7.0187845422e-05 1.6084270796e+00 -2.7858774222e+00 1.6084270796e+00 2.7858774222e+00 
55000 6.2522104268e+00 7.1227697230e-05 1.6084270796e+00 -2.7858774222e+00 1.6084270796e+00 2.7858774222e+00 
55100 6.2522104241e+00 7.0212829272e-05 1.6084248654e+00 -2.7858735870e+00 1.6084248654e+00 2.7858735870e+00 
55200 6.2522104216e+00 7.1239068169e-05 1.6084248654e+00 -2.7858735870e+00 1.6084248654e+00 2.7858735870e+00 
55300 6.2522104190e+00 7.0210401293e-05 1.6084226508e+00 -2.7858697513e+00 1.6084226508e+00 2.7858697513e+00 
55400 6.2522104166e+00 7.1223301789e-05 1.6084226508e+00 -2.7858697513e+00 1.6084226508e+00 2.7858697513e+00 
55500 6.2522104140e+00 7.0181883808e-05 1.6084204368e+00 -2.7858659164e+00 1.6084204368e+00 2.7858659164e+00 
55600 6.2522104116e+00 7.1181706714e-05 1.6084204368e+00 -2.7858659164e+00 1.6084204368e+00 2.7858659164e+00 
55700 6.2522104092e+00 7.0128534072e-05 1.6084182240e+00 -2.7858620838e+00 1.6084182240e+00 2.7858620838e+00 
55800 6.2522104069e+00 7.1115526432e-05 1.6084182240e+00 -2.7858620838e+00 1.6084182240e+00 2.7858620838e+00 
55900 6.2522104045e+00 7.0051546069e-05 1.6084160133e+00 -2.7858582547e+00 1.6084160133e+00 2.7858582547e+00 
56000 6.2522104023e+00 7.1025941223e-05 1.6084160133e+00 -2.7858582547e+00 1.6084160133e+00 2.7858582547e+00 
56100 6.2522104000e+00 6.9952052514e-05 1.6084138053e+00 -2.7858544304e+00 1.6084138053e+00 2.7858544304e+00 
56200 6.2522103978e+00 7.0914070261e-05 1.6084138053e+00 -2.7858544304e+00 1.6084138053e+00 2.7858544304e+00 
56300 6.2522103956e+00 6.9831126985e-05 1.6084116008e+00 -2.7858506121e+00 1.6084116008e+00 2.7858506121e+00 
56400 6.2522103935e+00 7.0780973851e-05 1.6084116008e+00 -2.7858506121e+00 1.6084116008e+00 2.7858506121e+00 
56500 6.2522103913e+00 6.9689786197e-05 1.6084094005e+00 -2.7858468011e+00 1.6084094005e+00 2.7858468011e+00 
56600 6.2522103893e+00 7.0627655782e-05 1.6084094005e+00 -2.7858468011e+00 1.6084094005e+00 2.7858468011e+00 
56700 6.2522103874e+00 7.1562966755e-05 1.6084094005e+00 -2.7858468011e+00 1.6084094005e+00 2.7858468011e+00 
56800 6.2522103853e+00 7.0434954938e-05 1.6084071759e+00 -2.7858429478e+00 1.6084071759e+00 2.7858429478e+00 
56900 6.2522103834e+00 7.1358652774e-05 1.6084071759e+00 -2.7858429478e+00 1.6084071759e+00 2.7858429478e+00 
57000 6.2522103814e+00 7.0224968110e-05 1.6084049576e+00 -2.7858391056e+00 1.6084049576e+00 2.7858391056e+00 
57100 6.2522103795e+00 7.1137180276e-05 1.6084049576e+00 -2.7858391056e+00 1.6084049576e+00 2.7858391056e+00 
57200 6.2522103775e+00 6.9998438779e-05 1.6084027461e+00 -2.7858352753e+00 1.6084027461e+00 2.7858352753e+00 
57300 6.2522103758e+00 7.0899283503e-05 1.6084027461e+00 -2.7858352753e+00 1.6084027461e+00 2.7858352753e+00 
57400 6.2522103739e+00 6.9756071204e-05 1.6084005421e+00 -2.7858314579e+00 1.6084005421e+00 2.7858314579e+00 
57500 6.2522103722e+00 7.0645658214e-05 1.6084005421e+00 -2.7858314579e+00 1.6084005421e+00 2.7858314579e+00 
57600 6.2522103705e+00 7.1533018728e-05 1.6084005421e+00 -2.7858314579e+00 1.6084005421e+00 2.7858314579e+00 
57700 6.2522103686e+00 7.0358236625e-05 1.6083983184e+00 -2.7858276062e+00 1.6083983184e+00 2.7858276062e+00 
57800 6.2522103670e+00 7.1234586803e-05 1.6083983184e+00 -2.7858276062e+00 1.6083983184e+00 2.7858276062e+00 
57900 6.2522103652e+00 7.0057403774e-05 1.6083961039e+00 -2.7858237707e+00 1.6083961039e+00 2.7858237707e+00 
58000 6.2522103637e+00 7.0922799541e-05 1.6083961039e+00 -2.7858237707e+00 1.6083961039e+00 2.7858237707e+00 
58100 6.2522103619e+00 6.9743653353e-05 1.6083938992e+00 -2.7858199519e+00 1.6083938992e+00 2.7858199519e+00 
58200 6.2522103604e+00 7.0598146683e-05 1.6083938992e+00 -2.7858199519e+00 1.6083938992e+00 2.7858199519e+00 
58300 6.2522103589e+00 7.1450569718e-05 1.6083938992e+00 -2.7858199519e+00 1.6083938992e+00 2.7858199519e+00 
58400 6.2522103572e+00 7.0243371500e-05 1.6083916780e+00 -2.7858161047e+00 1.6083916780e+00 2.7858161047e+00 
58500 6.2522103558e+00 7.1085061531e-05 1.6083916780e+00 -2.7858161047e+00 1.6083916780e+00 2.7858161047e+00 
58600 6.2522103542e+00 6.9877644291e-05 1.6083894682e+00 -2.7858122772e+00 1.6083894682e+00 2.7858122772e+00 
58700 6.2522103528e+00 7.0708611236e-05 1.6083894682e+00 -2.7858122772e+00 1.6083894682e+00 2.7858122772e+00 
58800 6.2522103514e+00 7.1537589000e-05 1.6083894682e+00 -2.7858122772e+00 1.6083894682e+00 2.7858122772e+00 
58900 6.2522103499e+00 7.0304514603e-05 1.6083872443e+00 -2.7858084253e+00 1.6083872443e+00 2.7858084253e+00 
59000 6.2522103485e+00 7.1122883044e-05 1.6083872443e+00 -2.7858084253e+00 1.6083872443e+00 2.7858084253e+00 
59100 6.2522103470e+00 6.9891110816e-05 1.6083850333e+00 -2.7858045958e+00 1.6083850333e+00 2.7858045958e+00 
59200 6.2522103457e+00 7.0698847399e-05 1.6083850333e+00 -2.7858045958e+00 1.6083850333e+00 2.7858045958e+00 
59300 6.2522103445e+00 7.1504629674e-05 1.6083850333e+00 -2.7858045958e+00 1.6083850333e+00 2.7858045958e+00 
59400 6.2522103430e+00 7.0249339614e-05 1.6083828104e+00 -2.7858007456e+00 1.6083828104e+00 2.7858007456e+00 
59500 6.2522103418e+00 7.1044562280e-05 1.6083828104e+00 -2.7858007456e+00 1.6083828104e+00 2.7858007456e+00 
59600 6.2522103404e+00 6.9791916083e-05 1.6083806018e+00 -2.7857969203e+00 1.6083806018e+00 2.7857969203e+00 
59700 6.2522103392e+00 7.0576533603e-05 1.6083806018e+00 -2.7857969203e+00 1.6083806018e+00 2.7857969203e+00 
59800 6.2522103381e+00 7.1359197500e-05 1.6083806018e+00 -2.7857969203e+00 1.6083806018e+00 2.7857969203e+00 
59900 6.2522103367e+00 7.0084975447e-05 1.6083783835e+00 -2.7857930780e+00 1.6083783835e+00 2.7857930780e+00 
60000 6.2522103356e+00 7.0857078537e-05 1.6083783835e+00 -2.7857930780e+00 1.6083783835e+00 2.7857930780e+00 
60100 6.2522103343e+00 6.9586700463e-05 1.6083761807e+00 -2.7857892627e+00 1.6083761807e+00 2.7857892627e+00 
60200 6.2522103332e+00 7.0348183079e-05 1.6083761807e+00 -2.7857892627e+00 1.6083761807e+00 2.7857892627e+00 
60300 6.2522103322e+00 7.1107689884e-05 1.6083761807e+00 -2.7857892627e+00 1.6083761807e+00 2.7857892627e+00 
60400 6.2522103309e+00 6.9817530592e-05 1.6083739702e+00 -2.7857854339e+00 1.6083739702e+00 2.7857854339e+00 
60500 6.2522103299e+00 7.0566445885e-05 1.6083739702e+00 -2.7857854339e+00 1.6083739702e+00 2.7857854339e+00 
60600 6.2522103288e+00 7.1313403931e-05 1.6083739702e+00 -2.7857854339e+00 1.6083739702e+00 2.7857854339e+00 
60700 6.2522103277e+00 7.0004788516e-05 1.6083717532e+00 -2.7857815941e+00 1.6083717532e+00 2.7857815941e+00 
60800 6.2522103267e+00 7.0741158788e-05 1.6083717532e+00 -2.7857815941e+00 1.6083717532e+00 2.7857815941e+00 
60900 6.2522103255e+00 6.9438365399e-05 1.6083695541e+00 -2.7857777850e+00 1.6083695541e+00 2.7857777850e+00 
61000 6.2522103245e+00 7.0164067953e-05 1.6083695541e+00 -2.7857777850e+00 1.6083695541e+00 2.7857777850e+00 
61100 6.2522103236e+00 7.0887757311e-05 1.6083695541e+00 -2.7857777850e+00 1.6083695541e+00 2.7857777850e+00 
61200 6.2522103225e+00 6.9568076572e-05 1.6083673504e+00 -2.7857739681e+00 1.6083673504e+00 2.7857739681e+00 
61300 6.2522103216e+00 7.0281106099e-05 1.6083673504e+00 -2.7857739681e+00 1.6083673504e+00 2.7857739681e+00 
61400 6.2522103207e+00 7.0992128377e-05 1.6083673504e+00 -2.7857739681e+00 1.6083673504e+00 2.7857739681e+00 
61500 6.2522103196e+00 6.9656780359e-05 1.6083651434e+00 -2.7857701455e+00 1.6083651434e+00 2.7857701455e+00 
61600 6.2522103188e+00 7.0357136156e-05 1.6083651434e+00 -2.7857701455e+00 1.6083651434e+00 2.7857701455e+00 
61700 6.2522103179e+00 7.1055482479e-05 1.6083651434e+00 -2.7857701455e+00 1.6083651434e+00 2.7857701455e+00 
61800 6.2522103169e+00 6.9705631852e-05 1.6083629345e+00 -2.7857663195e+00 1.6083629345e+00 2.7857663195e+00 
61900 6.2522103161e+00 7.0393294659e-05 1.6083629345e+00 -2.7857663195e+00 1.6083629345e+00 2.7857663195e+00 
62000 6.2522103153e+00 7.1078939679e-05 1.6083629345e+00 -2.7857663195e+00 1.6083629345e+00 2.7857663195e+00 
62100 6.2522103143e+00 6.9715704411e-05 1.6083607248e+00 -2.7857624923e+00 1.6083607248e+00 2.7857624923e+00 
62200 6.2522103135e+00 7.0390642410e-05 1.6083607248e+00 -2.7857624923e+00 1.6083607248e+00 2.7857624923e+00 
62300 6.2522103127e+00 7.1063550151e-05 1.6083607248e+00 -2.7857624923e+00 1.6083607248e+00 2.7857624923e+00 
62400 6.2522103118e+00 6.9688009238e-05 1.6083585156e+00 -2.7857586658e+00 1.6083585156e+00 2.7857586658e+00 
62500 6.2522103110e+00 7.0350183608e-05 1.6083585156e+00 -2.7857586658e+00 1.6083585156e+00 2.7857586658e+00 
62600 6.2522103103e+00 7.1010312883e-05 1.6083585156e+00 -2.7857586658e+00 1.6083585156e+00 2.7857586658e+00 
62700 6.2522103094e+00 6.9623513079e-05 1.6083563081e+00 -2.7857548423e+00 1.6083563081e+00 2.7857548423e+00 
62800 6.2522103087e+00 7.0272883102e-05 1.6083563081e+00 -2.7857548423e+00 1.6083563081e+00 2.7857548423e+00 
62900 6.2522103080e+00 7.0920192443e-05 1.6083563081e+00 -2.7857548423e+00 1.6083563081e+00 2.7857548423e+00 
63000 6.2522103071e+00 6.9523154011e-05 1.6083541033e+00 -2.7857510236e+00 1.6083541033e+00 2.7857510236e+00 
63100 6.2522103064e+00 7.0159681661e-05 1.6083541033e+00 -2.7857510236e+00 1.6083541033e+00 2.7857510236e+00 
63200 6.2522103058e+00 7.0794133734e-05 1.6083541033e+00 -2.7857510236e+00 1.6083541033e+00 2.7857510236e+00 
63300 6.2522103049e+00 6.9387855252e-05 1.6083519025e+00 -2.7857472116e+00 1.6083519025e+00 2.7857472116e+00 
63400 6.2522103043e+00 7.0011509260e-05 1.6083519025e+00 -2.7857472116e+00 1.6083519025e+00 2.7857472116e+00 
63500 6.2522103037e+00 7.0633074753e-05 1.6083519025e+00 -2.7857472116e+00 1.6083519025e+00 2.7857472116e+00 
63600 6.2522103031e+00 7.1252618736e-05 1.6083519025e+00 -2.7857472116e+00 1.6083519025e+00 2.7857472116e+00 
63700 6.2522103023e+00 6.9818282484e-05 1.6083496874e+00 -2.7857433750e+00 1.6083496874e+00 2.7857433750e+00 
63800 6.2522103017e+00 7.0427078859e-05 1.6083496874e+00 -2.7857433750e+00 1.6083496874e+00 2.7857433750e+00 
63900 6.2522103011e+00 7.1033826749e-05 1.6083496874e+00 -2.7857433750e+00 1.6083496874e+00 2.7857433750e+00 
64000 6.2522103003e+00 6.9592970764e-05 1.6083474792e+00 -2.7857395501e+00 1.6083474792e+00 2.7857395501e+00 
64100 6.2522102997e+00 7.0188942722e-05 1.6083474792e+00 -2.7857395501e+00 1.6083474792e+00 2.7857395501e+00 
64200 6.2522102992e+00 7.0782844634e-05 1.6083474792e+00 -2.7857395501e+00 1.6083474792e+00 2.7857395501e+00 
64300 6.2522102984e+00 6.9336351601e-05 1.6083452787e+00 -2.7857357388e+00 1.6083452787e+00 2.7857357388e+00 
64400 6.2522102979e+00 6.9919463967e-05 1.6083452787e+00 -2.7857357388e+00 1.6083452787e+00 2.7857357388e+00 
64500 6.2522102974e+00 7.0500490960e-05 1.6083452787e+00 -2.7857357388e+00 1.6083452787e+00 2.7857357388e+00 
64600 6.2522102968e+00 7.1079499564e-05 1.6083452787e+00 -2.7857357388e+00 1.6083452787e+00 2.7857357388e+00 
64700 6.2522102961e+00 6.9609622484e-05 1.6083430690e+00 -2.7857319114e+00 1.6083430690e+00 2.7857319114e+00 
64800 6.2522102956e+00 7.0177907504e-05 1.6083430690e+00 -2.7857319114e+00 1.6083430690e+00 2.7857319114e+00 
64900 6.2522102951e+00 7.0744149772e-05 1.6083430690e+00 -2.7857319114e+00 1.6083430690e+00 2.7857319114e+00 
65000 6.2522102945e+00 6.9271142483e-05 1.6083408697e+00 -2.7857281022e+00 1.6083408697e+00 2.7857281022e+00 
65100 6.2522102940e+00 6.9826652276e-05 1.6083408697e+00 -2.7857281022e+00 1.6083408697e+00 2.7857281022e+00 
65200 6.2522102935e+00 7.0380103539e-05 1.6083408697e+00 -2.7857281022e+00 1.6083408697e+00 2.7857281022e+00 
65300 6.2522102930e+00 7.0931563485e-05 1.6083408697e+00 -2.7857281022e+00 1.6083408697e+00 2.7857281022e+00 
65400 6.2522102924e+00 6.9438429268e-05 1.6083386646e+00 -2.7857242828e+00 1.6083386646e+00 2.7857242828e+00 
65500 6.2522102919e+00 6.9979235306e-05 1.6083386646e+00 -2.7857242828e+00 1.6083386646e+00 2.7857242828e+00 
65600 6.2522102915e+00 7.0518027937e-05 1.6083386646e+00 -2.7857242828e+00 1.6083386646e+00 2.7857242828e+00 
65700 6.2522102911e+00 7.1054872726e-05 1.6083386646e+00 -2.7857242828e+00 1.6083386646e+00 2.7857242828e+00 
65800 6.2522102905e+00 6.9543617128e-05 1.6083364556e+00 -2.7857204568e+00 1.6083364556e+00 2.7857204568e+00 
65900 6.2522102900e+00 7.0069878440e-05 1.6083364556e+00 -2.7857204568e+00 1.6083364556e+00 2.7857204568e+00 
66000 6.2522102896e+00 7.0594165252e-05 1.6083364556e+00 -2.7857204568e+00 1.6083364556e+00 2.7857204568e+00 
66100 6.2522102892e+00 7.1116541981e-05 1.6083364556e+00 -2.7857204568e+00 1.6083364556e+00 2.7857204568e+00 
66200 6.2522102886e+00 6.9589081718e-05 1.6083342447e+00 -2.7857166274e+00 1.6083342447e+00 2.7857166274e+00 
66300 6.2522102882e+00 7.0100941381e-05 1.6083342447e+00 -2.7857166274e+00 1.6083342447e+00 2.7857166274e+00 
66400 6.2522102879e+00 7.0610861338e-05 1.6083342447e+00 -2.7857166274e+00 1.6083342447e+00 2.7857166274e+00 
66500 6.2522102875e+00 7.1118905303e-05 1.6083342447e+00 -2.7857166274e+00 1.6083342447e+00 2.7857166274e+00 
66600 6.2522102869e+00 6.9577080092e-05 1.6083320338e+00 -2.7857127980e+00 1.6083320338e+00 2.7857127980e+00 
66700 6.2522102865e+00 7.0074673107e-05 1.6083320338e+00 -2.7857127980e+00 1.6083320338e+00 2.7857127980e+00 
66800 6.2522102862e+00 7.0570358991e-05 1.6083320338e+00 -2.7857127980e+00 1.6083320338e+00 2.7857127980e+00 
66900 6.2522102858e+00 7.1064201141e-05 1.6083320338e+00 -2.7857127980e+00 1.6083320338e+00 2.7857127980e+00 
67000 6.2522102853e+00 6.9509783658e-05 1.6083298245e+00 -2.7857089714e+00 1.6083298245e+00 2.7857089714e+00 
67100 6.2522102850e+00 6.9993243954e-05 1.6083298245e+00 -2.7857089714e+00 1.6083298245e+00 2.7857089714e+00 
67200 6.2522102846e+00 7.0474829115e-05 1.6083298245e+00 -2.7857089714e+00 1.6083298245e+00 2.7857089714e+00 
67300 6.2522102843e+00 7.0954602555e-05 1.6083298245e+00 -2.7857089714e+00 1.6083298245e+00 2.7857089714e+00 
67400 6.2522102838e+00 6.9389306597e-05 1.6083276187e+00 -2.7857051508e+00 1.6083276187e+00 2.7857051508e+00 
67500 6.2522102835e+00 6.9858773032e-05 1.6083276187e+00 -2.7857051508e+00 1.6083276187e+00 2.7857051508e+00 
67600 6.2522102831e+00 7.0326397144e-05 1.6083276187e+00 -2.7857051508e+00 1.6083276187e+00 2.7857051508e+00 
67700 6.2522102828e+00 7.0792242626e-05 1.6083276187e+00 -2.7857051508e+00 1.6083276187e+00 2.7857051508e+00 
67800 6.2522102823e+00 6.9217729474e-05 1.6083254179e+00 -2.7857013389e+00 1.6083254179e+00 2.7857013389e+00 
67900 6.2522102820e+00 6.9673350805e-05 1.6083254179e+00 -2.7857013389e+00 1.6083254179e+00 2.7857013389e+00 
68000 6.2522102817e+00 7.0127164568e-05 1.6083254179e+00 -2.7857013389e+00 1.6083254179e+00 2.7857013389e+00 
68100 6.2522102815e+00 7.0579234936e-05 1.6083254179e+00 -2.7857013389e+00 1.6083254179e+00 2.7857013389e+00 
68200 6.2522102812e+00 7.1029622052e-05 1.6083254179e+00 -2.7857013389e+00 1.6083254179e+00 2.7857013389e+00 
68300 6.2522102807e+00 6.9432910238e-05 1.6083232097e+00 -2.7856975142e+00 1.6083232097e+00 2.7856975142e+00 
68400 6.2522102804e+00 6.9873230646e-05 1.6083232097e+00 -2.7856975142e+00 1.6083232097e+00 2.7856975142e+00 
68500 6.2522102802e+00 7.0311828211e-05 1.6083232097e+00 -2.7856975142e+00 1.6083232097e+00 2.7856975142e+00 
68600 6.2522102799e+00 7.0748764054e-05 1.6083232097e+00 -2.7856975142e+00 1.6083232097e+00 2.7856975142e+00 
68700 6.2522102794e+00 6.9146712823e-05 1.6083210102e+00 -2.7856937046e+00 1.6083210102e+00 2.7856937046e+00 
68800 6.2522102792e+00 6.9573655222e-05 1.6083210102e+00 -2.7856937046e+00 1.6083210102e+00 2.7856937046e+00 
68900 6.2522102789e+00 6.9998900350e-05 1.6083210102e+00 -2.7856937046e+00 1.6083210102e+00 2.7856937046e+00 
69000 6.2522102787e+00 7.0422510448e-05 1.6083210102e+00 -2.7856937046e+00 1.6083210102e+00 2.7856937046e+00 
69100 6.2522102785e+00 7.0844543878e-05 1.6083210102e+00 -2.7856937046e+00 1.6083210102e+00 2.7856937046e+00 
69200 6.2522102780e+00 6.9224917561e-05 1.6083188078e+00 -2.7856898899e+00 1.6083188078e+00 2.7856898899e+00 
69300 6.2522102778e+00 6.9637110376e-05 1.6083188078e+00 -2.7856898899e+00 1.6083188078e+00 2.7856898899e+00 
69400 6.2522102776e+00 7.0047683020e-05 1.6083188078e+00 -2.7856898899e+00 1.6083188078e+00 2.7856898899e+00 
69500 6.2522102773e+00 7.0456695380e-05 1.6083188078e+00 -2.7856898899e+00 1.6083188078e+00 2.7856898899e+00 
69600 6.2522102771e+00 7.0864203567e-05 1.6083188078e+00 -2.7856898899e+00 1.6083188078e+00 2.7856898899e+00 
69700 6.2522102767e+00 6.9229559021e-05 1.6083166048e+00 -2.7856860741e+00 1.6083166048e+00 2.7856860741e+00 
69800 6.2522102765e+00 6.9627363181e-05 1.6083166048e+00 -2.7856860741e+00 1.6083166048e+00 2.7856860741e+00 
69900 6.2522102763e+00 7.0023613435e-05 1.6083166048e+00 -2.7856860741e+00 1.6083166048e+00 2.7856860741e+00 
70000 6.2522102761e+00 7.0418367811e-05 1.6083166048e+00 -2.7856860741e+00 1.6083166048e+00 2.7856860741e+00 
70100 6.2522102759e+00 7.0811680658e-05 1.6083166048e+00 -2.7856860741e+00 1.6083166048e+00 2.7856860741e+00 
70200 6.2522102755e+00 6.9164416785e-05 1.6083144033e+00 -2.7856822611e+00 1.6083144033e+00 2.7856822611e+00 
70300 6.2522102753e+00 6.9548150932e-05 1.6083144033e+00 -2.7856822611e+00 1.6083144033e+00 2.7856822611e+00 
70400 6.2522102751e+00 6.9930389242e-05 1.6083144033e+00 -2.7856822611e+00 1.6083144033e+00 2.7856822611e+00 
70500 6.2522102749e+00 7.0311188342e-05 1.6083144033e+00 -2.7856822611e+00 1.6083144033e+00 2.7856822611e+00 
70600 6.2522102747e+00 7.0690601270e-05 1.6083144033e+00 -2.7856822611e+00 1.6083144033e+00 2.7856822611e+00 
70700 6.2522102745e+00 7.1068677528e-05 1.6083144033e+00 -2.7856822611e+00 1.6083144033e+00 2.7856822611e+00 
70800 6.2522102742e+00 6.9398880451e-05 1.6083121939e+00 -2.7856784343e+00 1.6083121939e+00 2.7856784343e+00 
70900 6.2522102740e+00 6.9767548767e-05 1.6083121939e+00 -2.7856784343e+00 1.6083121939e+00 2.7856784343e+00 
71000 6.2522102738e+00 7.0134811731e-05 1.6083121939e+00 -2.7856784343e+00 1.6083121939e+00 2.7856784343e+00 
71100 6.2522102736e+00 7.0500721774e-05 1.6083121939e+00 -2.7856784343e+00 1.6083121939e+00 2.7856784343e+00 
71200 6.2522102735e+00 7.0865327895e-05 1.6083121939e+00 -2.7856784343e+00 1.6083121939e+00 2.7856784343e+00 
71300 6.2522102731e+00 6.9187950782e-05 1.6083099908e+00 -2.7856746184e+00 1.6083099908e+00 2.7856746184e+00 
71400 6.2522102729e+00 6.9543232900e-05 1.6083099908e+00 -2.7856746184e+00 1.6083099908e+00 2.7856746184e+00 
71500 6.2522102728e+00 6.9897142058e-05 1.6083099908e+00 -2.7856746184e+00 1.6083099908e+00 2.7856746184e+00 
71600 6.2522102726e+00 7.0249730518e-05 1.6083099908e+00 -2.7856746184e+00 1.6083099908e+00 2.7856746184e+00 
71700 6.2522102725e+00 7.0601047194e-05 1.6083099908e+00 -2.7856746184e+00 1.6083099908e+00 2.7856746184e+00 
71800 6.2522102723e+00 7.0951137694e-05 1.6083099908e+00 -2.7856746184e+00 1.6083099908e+00 2.7856746184e+00 
71900 6.2522102720e+00 6.9256851649e-05 1.6083077851e+00 -2.7856707979e+00 1.6083077851e+00 2.7856707979e+00 
72000 6.2522102718e+00 6.9597755582e-05 1.6083077851e+00 -2.7856707979e+00 1.6083077851e+00 2.7856707979e+00 
72100 6.2522102717e+00 6.9937354708e-05 1.6083077851e+00 -2.7856707979e+00 1.6083077851e+00 2.7856707979e+00 
72200 6.2522102716e+00 7.0275698461e-05 1.6083077851e+00 -2.7856707979e+00 1.6083077851e+00 2.7856707979e+00 
72300 6.2522102714e+00 7.0612833057e-05 1.6083077851e+00 -2.7856707979e+00 1.6083077851e+00 2.7856707979e+00 
72400 6.2522102713e+00 7.0948801548e-05 1.6083077851e+00 -2.7856707979e+00 1.6083077851e+00 2.7856707979e+00 
72500 6.2522102710e+00 6.9240521277e-05 1.6083055794e+00 -2.7856669776e+00 1.6083055794e+00 2.7856669776e+00 
72600 6.2522102708e+00 6.9567416282e-05 1.6083055794e+00 -2.7856669776e+00 1.6083055794e+00 2.7856669776e+00 
72700 6.2522102707e+00 6.9893059668e-05 1.6083055794e+00 -2.7856669776e+00 1.6083055794e+00 2.7856669776e+00 
72800 6.2522102706e+00 7.0217498833e-05 1.6083055794e+00 -2.7856669776e+00 1.6083055794e+00 2.7856669776e+00 
72900 6.2522102704e+00 7.0540778086e-05 1.6083055794e+00 -2.7856669776e+00 1.6083055794e+00 2.7856669776e+00 
73000 6.2522102703e+00 7.0862938694e-05 1.6083055794e+00 -2.7856669776e+00 1.6083055794e+00 2.7856669776e+00 
73100 6.2522102700e+00 6.9143371434e-05 1.6083033763e+00 -2.7856631618e+00 1.6083033763e+00 2.7856631618e+00 
73200 6.2522102699e+00 6.9456556809e-05 1.6083033763e+00 -2.7856631618e+00 1.6083033763e+00 2.7856631618e+00 
73300 6.2522102698e+00 6.9768533656e-05 1.6083033763e+00 -2.7856631618e+00 1.6083033763e+00 2.7856631618e+00 
73400 6.2522102697e+00 7.0079348054e-05 1.6083033763e+00 -2.7856631618e+00 1.6083033763e+00 2.7856631618e+00 
73500 6.2522102696e+00 7.0389043107e-05 1.6083033763e+00 -2.7856631618e+00 1.6083033763e+00 2.7856631618e+00 
73600 6.2522102694e+00 7.0697658988e-05 1.6083033763e+00 -2.7856631618e+00 1.6083033763e+00 2.7856631618e+00 
73700 6.2522102693e+00 7.1005232992e-05 1.6083033763e+00 -2.7856631618e+00 1.6083033763e+00 2.7856631618e+00 
73800 6.2522102690e+00 6.9267058024e-05 1.6083011689e+00 -2.7856593384e+00 1.6083011689e+00 2.7856593384e+00 
73900 6.2522102689e+00 6.9565785145e-05 1.6083011689e+00 -2.7856593384e+00 1.6083011689e+00 2.7856593384e+00 
74000 6.2522102688e+00 6.9863369148e-05 1.6083011689e+00 -2.7856593384e+00 1.6083011689e+00 2.7856593384e+00 
74100 6.2522102687e+00 7.0159852809e-05 1.6083011689e+00 -2.7856593384e+00 1.6083011689e+00 2.7856593384e+00 
74200 6.2522102686e+00 7.0455276093e-05 1.6083011689e+00 -2.7856593384e+00 1.6083011689e+00 2.7856593384e+00 
74300 6.2522102685e+00 7.0749676194e-05 1.6083011689e+00 -2.7856593384e+00 1.6083011689e+00 2.7856593384e+00 
74400 6.2522102683e+00 6.9005706991e-05 1.6082989694e+00 -2.7856555287e+00 1.6082989694e+00 2.7856555287e+00 
74500 6.2522102682e+00 6.9291322342e-05 1.6082989694e+00 -2.7856555287e+00 1.6082989694e+00 2.7856555287e+00 
74600 6.2522102681e+00 6.9575814317e-05 1.6082989694e+00 -2.7856555287e+00 1.6082989694e+00 2.7856555287e+00 
74700 6.2522102680e+00 6.9859225941e-05 1.6082989694e+00 -2.7856555287e+00 1.6082989694e+00 2.7856555287e+00 
74800 6.2522102679e+00 7.0141597517e-05 1.6082989694e+00 -2.7856555287e+00 1.6082989694e+00 2.7856555287e+00 
74900 6.2522102678e+00 7.0422966662e-05 1.6082989694e+00 -2.7856555287e+00 1.6082989694e+00 2.7856555287e+00 
75000 6.2522102677e+00 7.0703368348e-05 1.6082989694e+00 -2.7856555287e+00 1.6082989694e+00 2.7856555287e+00 
75100 6.2522102676e+00 7.0982834948e-05 1.6082989694e+00 -2.7856555287e+00 1.6082989694e+00 2.7856555287e+00 
75200 6.2522102674e+00 6.9217305499e-05 1.6082967626e+00 -2.7856517065e+00 1.6082967626e+00 2.7856517065e+00 
75300 6.2522102673e+00 6.9488127091e-05 1.6082967626e+00 -2.7856517065e+00 1.6082967626e+00 2.7856517065e+00 
75400 6.2522102672e+00 6.9757899343e-05 1.6082967626e+00 -2.7856517065e+00 1.6082967626e+00 2.7856517065e+00 
75500 6.2522102671e+00 7.0026661218e-05 1.6082967626e+00 -2.7856517065e+00 1.6082967626e+00 2.7856517065e+00 
75600 6.2522102670e+00 7.0294449133e-05 1.6082967626e+00 -2.7856517065e+00 1.6082967626e+00 2.7856517065e+00 
75700 6.2522102670e+00 7.0561296992e-05 1.6082967626e+00 -2.7856517065e+00 1.6082967626e+00 2.7856517065e+00 
75800 6.2522102669e+00 7.0827236236e-05 1.6082967626e+00 -2.7856517065e+00 1.6082967626e+00 2.7856517065e+00 
75900 6.2522102666e+00 6.9052688038e-05 1.6082945607e+00 -2.7856478926e+00 1.6082945607e+00 2.7856478926e+00 
76000 6.2522102666e+00 6.9310047866e-05 1.6082945607e+00 -2.7856478926e+00 1.6082945607e+00 2.7856478926e+00 
76100 6.2522102665e+00 6.9566383218e-05 1.6082945607e+00 -2.7856478926e+00 1.6082945607e+00 2.7856478926e+00 
76200 6.2522102664e+00 6.9821732582e-05 1.6082945607e+00 -2.7856478926e+00 1.6082945607e+00 2.7856478926e+00 
76300 6.2522102664e+00 7.0076132006e-05 1.6082945607e+00 -2.7856478926e+00 1.6082945607e+00 2.7856478926e+00 
76400 6.2522102663e+00 7.0329615146e-05 1.6082945607e+00 -2.7856478926e+00 1.6082945607e+00 2.7856478926e+00 
76500 6.2522102662e+00 7.0582213293e-05 1.6082945607e+00 -2.7856478926e+00 1.6082945607e+00 2.7856478926e+00 
76600 6.2522102662e+00 7.0833955413e-05 1.6082945607e+00 -2.7856478926e+00 1.6082945607e+00 2.7856478926e+00 
76700 6.2522102659e+00 6.9045069834e-05 1.6082923585e+00 -2.7856440784e+00 1.6082923585e+00 2.7856440784e+00 
76800 6.2522102659e+00 6.9288330099e-05 1.6082923585e+00 -2.7856440784e+00 1.6082923585e+00 2.7856440784e+00 
76900 6.2522102658e+00 6.9530611904e-05 1.6082923585e+00 -2.7856440784e+00 1.6082923585e+00 2.7856440784e+00 
77000 6.2522102657e+00 6.9771951827e-05 1.6082923585e+00 -2.7856440784e+00 1.6082923585e+00 2.7856440784e+00 
77100 6.2522102657e+00 7.0012384151e-05 1.6082923585e+00 -2.7856440784e+00 1.6082923585e+00 2.7856440784e+00 
77200 6.2522102656e+00 7.0251940892e-05 1.6082923585e+00 -2.7856440784e+00 1.6082923585e+00 2.7856440784e+00 
77300 6.2522102656e+00 7.0490651839e-05 1.6082923585e+00 -2.7856440784e+00 1.6082923585e+00 2.7856440784e+00 
77400 6.2522102655e+00 7.0728544586e-05 1.6082923585e+00 -2.7856440784e+00 1.6082923585e+00 2.7856440784e+00 
77500 6.2522102653e+00 6.8928884155e-05 1.6082901596e+00 -2.7856402698e+00 1.6082901596e+00 2.7856402698e+00 
77600 6.2522102652e+00 6.9158377160e-05 1.6082901596e+00 -2.7856402698e+00 1.6082901596e+00 2.7856402698e+00 
77700 6.2522102652e+00 6.9386926448e-05 1.6082901596e+00 -2.7856402698e+00 1.6082901596e+00 2.7856402698e+00 
77800 6.2522102651e+00 6.9614567687e-05 1.6082901596e+00 -2.7856402698e+00 1.6082901596e+00 2.7856402698e+00 
77900 6.2522102651e+00 6.9841334364e-05 1.6082901596e+00 -2.7856402698e+00 1.6082901596e+00 2.7856402698e+00 
78000 6.2522102650e+00 7.0067257811e-05 1.6082901596e+00 -2.7856402698e+00 1.6082901596e+00 2.7856402698e+00 
78100 6.2522102650e+00 7.0292367240e-05 1.6082901596e+00 -2.7856402698e+00 1.6082901596e+00 2.7856402698e+00 
78200 6.2522102649e+00 7.0516689771e-05 1.6082901596e+00 -2.7856402698e+00 1.6082901596e+00 2.7856402698e+00 
78300 6.2522102649e+00 7.0740250474e-05 1.6082901596e+00 -2.7856402698e+00 1.6082901596e+00 2.7856402698e+00 
78400 6.2522102646e+00 6.8925977909e-05 1.6082879604e+00 -2.7856364606e+00 1.6082879604e+00 2.7856364606e+00 
78500 6.2522102646e+00 6.9141243347e-05 1.6082879604e+00 -2.7856364606e+00 1.6082879604e+00 2.7856364606e+00 
78600 6.2522102646e+00 6.9355614668e-05 1.6082879604e+00 -2.7856364606e+00 1.6082879604e+00 2.7856364606e+00 
78700 6.2522102645e+00 6.9569125574e-05 1.6082879604e+00 -2.7856364606e+00 1.6082879604e+00 2.7856364606e+00 
78800 6.2522102645e+00 6.9781807715e-05 1.6082879604e+00 -2.7856364606e+00 1.6082879604e+00 2.7856364606e+00 
78900 6.2522102644e+00 6.9993690720e-05 1.6082879604e+00 -2.7856364606e+00 1.6082879604e+00 2.7856364606e+00 
79000 6.2522102644e+00 7.0204802225e-05 1.6082879604e+00 -2.7856364606e+00 1.6082879604e+00 2.7856364606e+00 
79100 6.2522102644e+00 7.0415167906e-05 1.6082879604e+00 -2.7856364606e+00 1.6082879604e+00 2.7856364606e+00 
79200 6.2522102643e+00 7.0624811509e-05 1.6082879604e+00 -2.7856364606e+00 1.6082879604e+00 2.7856364606e+00 
79300 6.2522102643e+00 7.0833754890e-05 1.6082879604e+00 -2.7856364606e+00 1.6082879604e+00 2.7856364606e+00 
79400 6.2522102640e+00 6.9002234330e-05 1.6082857583e+00 -2.7856326464e+00 1.6082857583e+00 2.7856326464e+00 
79500 6.2522102640e+00 6.9202987492e-05 1.6082857583e+00 -2.7856326464e+00 1.6082857583e+00 2.7856326464e+00 
79600 6.2522102640e+00 6.9402899215e-05 1.6082857583e+00 -2.7856326464e+00 1.6082857583e+00 2.7856326464e+00 
79700 6.2522102639e+00 6.9602000641e-05 1.6082857583e+00 -2.7856326464e+00 1.6082857583e+00 2.7856326464e+00 
79800 6.2522102639e+00 6.9800321024e-05 1.6082857583e+00 -2.7856326464e+00 1.6082857583e+00 2.7856326464e+00 
79900 6.2522102639e+00 6.9997887750e-05 1.6082857583e+00 -2.7856326464e+00 1.6082857583e+00 2.7856326464e+00 
80000 6.2522102638e+00 7.0194726364e-05 1.6082857583e+00 -2.7856326464e+00 1.6082857583e+00 2.7856326464e+00 
80100 6.2522102638e+00 7.0390860599e-05 1.6082857583e+00 -2.7856326464e+00 1.6082857583e+00 2.7856326464e+00 
80200 6.2522102638e+00 7.0586312409e-05 1.6082857583e+00 -2.7856326464e+00 1.6082857583e+00 2.7856326464e+00 
80300 6.2522102637e+00 7.0781102001e-05 1.6082857583e+00 -2.7856326464e+00 1.6082857583e+00 2.7856326464e+00 
80400 6.2522102635e+00 6.8936983046e-05 1.6082835577e+00 -2.7856288350e+00 1.6082835577e+00 2.7856288350e+00 
80500 6.2522102635e+00 6.9123659020e-05 1.6082835577e+00 -2.7856288350e+00 1.6082835577e+00 2.7856288350e+00 
80600 6.2522102635e+00 6.9309527594e-05 1.6082835577e+00 -2.7856288350e+00 1.6082835577e+00 2.7856288350e+00 
80700 6.2522102634e+00 6.9494618799e-05 1.6082835577e+00 -2.7856288350e+00 1.6082835577e+00 2.7856288350e+00 
80800 6.2522102634e+00 6.9678960908e-05 1.6082835577e+00 -2.7856288350e+00 1.6082835577e+00 2.7856288350e+00 
80900 6.2522102634e+00 6.9862580449e-05 1.6082835577e+00 -2.7856288350e+00 1.6082835577e+00 2.7856288350e+00 
81000 6.2522102634e+00 7.0045502231e-05 1.6082835577e+00 -2.7856288350e+00 1.6082835577e+00 2.7856288350e+00 
81100 6.2522102633e+00 7.0227749370e-05 1.6082835577e+00 -2.7856288350e+00 1.6082835577e+00 2.7856288350e+00 
81200 6.2522102633e+00 7.0409343317e-05 1.6082835577e+00 -2.7856288350e+00 1.6082835577e+00 2.7856288350e+00 
81300 6.2522102633e+00 7.0590303890e-05 1.6082835577e+00 -2.7856288350e+00 1.6082835577e+00 2.7856288350e+00 
81400 6.2522102633e+00 7.0770649301e-05 1.6082835577e+00 -2.7856288350e+00 1.6082835577e+00 2.7856288350e+00 
81500 6.2522102630e+00 6.8912435241e-05 1.6082813576e+00 -2.7856250242e+00 1.6082813576e+00 2.7856250242e+00 
81600 6.2522102630e+00 6.9084756613e-05 1.6082813576e+00 -2.7856250242e+00 1.6082813576e+00 2.7856250242e+00 
81700 6.2522102630e+00 6.9256312525e-05 1.6082813576e+00 -2.7856250242e+00 1.6082813576e+00 2.7856250242e+00 
81800 6.2522102630e+00 6.9427131559e-05 1.6082813576e+00 -2.7856250242e+00 1.6082813576e+00 2.7856250242e+00 
81900 6.2522102629e+00 6.9597240669e-05 1.6082813576e+00 -2.7856250242e+00 1.6082813576e+00 2.7856250242e+00 
82000 6.2522102629e+00 6.9766665192e-05 1.6082813576e+00 -2.7856250242e+00 1.6082813576e+00 2.7856250242e+00 
82100 6.2522102629e+00 6.9935428876e-05 1.6082813576e+00 -2.7856250242e+00 1.6082813576e+00 2.7856250242e+00 
82200 6.2522102629e+00 7.0103553895e-05 1.6082813576e+00 -2.7856250242e+00 1.6082813576e+00 2.7856250242e+00 
82300 6.2522102629e+00 7.0271060876e-05 1.6082813576e+00 -2.7856250242e+00 1.6082813576e+00 2.7856250242e+00 
82400 6.2522102628e+00 7.0437968927e-05 1.6082813576e+00 -2.7856250242e+00 1.6082813576e+00 2.7856250242e+00 
82500 6.2522102628e+00 7.0604295663e-05 1.6082813576e+00 -2.7856250242e+00 1.6082813576e+00 2.7856250242e+00 
82600 6.2522102628e+00 7.0770057237e-05 1.6082813576e+00 -2.7856250242e+00 1.6082813576e+00 2.7856250242e+00 
82700 6.2522102626e+00 6.8897327394e-05 1.6082791574e+00 -2.7856212133e+00 1.6082791574e+00 2.7856212133e+00 
82800 6.2522102626e+00 6.9055159258e-05 1.6082791574e+00 -2.7856212133e+00 1.6082791574e+00 2.7856212133e+00 
82900 6.2522102626e+00 6.9212270326e-05 1.6082791574e+00 -2.7856212133e+00 1.6082791574e+00 2.7856212133e+00 
83000 6.2522102625e+00 6.9368687666e-05 1.6082791574e+00 -2.7856212133e+00 1.6082791574e+00 2.7856212133e+00 
83100 6.2522102625e+00 6.9524436851e-05 1.6082791574e+00 -2.7856212133e+00 1.6082791574e+00 2.7856212133e+00 
83200 6.2522102625e+00 6.9679541969e-05 1.6082791574e+00 -2.7856212133e+00 1.6082791574e+00 2.7856212133e+00 
83300 6.2522102625e+00 6.9834025637e-05 1.6082791574e+00 -2.7856212133e+00 1.6082791574e+00 2.7856212133e+00 
83400 6.2522102625e+00 6.9987909024e-05 1.6082791574e+00 -2.7856212133e+00 1.6082791574e+00 2.7856212133e+00 
83500 6.2522102625e+00 7.0141211872e-05 1.6082791574e+00 -2.7856212133e+00 1.6082791574e+00 2.7856212133e+00 
83600 6.2522102624e+00 7.0293952516e-05 1.6082791574e+00 -2.7856212133e+00 1.6082791574e+00 2.7856212133e+00 
83700 6.2522102624e+00 7.0446147912e-05 1.6082791574e+00 -2.7856212133e+00 1.6082791574e+00 2.7856212133e+00 
83800 6.2522102624e+00 7.0597813663e-05 1.6082791574e+00 -2.7856212133e+00 1.6082791574e+00 2.7856212133e+00 
83900 6.2522102624e+00 7.0748964050e-05 1.6082791574e+00 -2.7856212133e+00 1.6082791574e+00 2.7856212133e+00 
84000 6.2522102622e+00 6.8862281311e-05 1.6082769579e+00 -2.7856174037e+00 1.6082769579e+00 2.7856174037e+00 
84100 6.2522102622e+00 6.9005598422e-05 1.6082769579e+00 -2.7856174037e+00 1.6082769579e+00 2.7856174037e+00 
84200 6.2522102622e+00 6.9148239768e-05 1.6082769579e+00 -2.7856174037e+00 1.6082769579e+00 2.7856174037e+00 
84300 6.2522102621e+00 6.9290231067e-05 1.6082769579e+00 -2.7856174037e+00 1.6082769579e+00 2.7856174037e+00 
84400 6.2522102621e+00 6.9431596664e-05 1.6082769579e+00 -2.7856174037e+00 1.6082769579e+00 2.7856174037e+00 
84500 6.2522102621e+00 6.9572359540e-05 1.6082769579e+00 -2.7856174037e+00 1.6082769579e+00 2.7856174037e+00 
84600 6.2522102621e+00 6.9712541324e-05 1.6082769579e+00 -2.7856174037e+00 1.6082769579e+00 2.7856174037e+00 
84700 6.2522102621e+00 6.9852162319e-05 1.6082769579e+00 -2.7856174037e+00 1.6082769579e+00 2.7856174037e+00 
84800 6.2522102621e+00 6.9991241504e-05 1.6082769579e+00 -2.7856174037e+00 1.6082769579e+00 2.7856174037e+00 
84900 6.2522102621e+00 7.0129796569e-05 1.6082769579e+00 -2.7856174037e+00 1.6082769579e+00 2.7856174037e+00 
85000 6.2522102621e+00 7.0267843928e-05 1.6082769579e+00 -2.7856174037e+00 1.6082769579e+00 2.7856174037e+00 
85100 6.2522102621e+00 7.0405398748e-05 1.6082769579e+00 -2.7856174037e+00 1.6082769579e+00 2.7856174037e+00 
85200 6.2522102620e+00 7.0542474967e-05 1.6082769579e+00 -2.7856174037e+00 1.6082769579e+00 2.7856174037e+00 
85300 6.2522102620e+00 7.0679085327e-05 1.6082769579e+00 -2.7856174037e+00 1.6082769579e+00 2.7856174037e+00 
85400 6.2522102620e+00 7.0815241397e-05 1.6082769579e+00 -2.7856174037e+00 1.6082769579e+00 2.7856174037e+00 
85500 6.2522102618e+00 6.8911717537e-05 1.6082747563e+00 -2.7856135904e+00 1.6082747563e+00 2.7856135904e+00 
85600 6.2522102618e+00 6.9040148430e-05 1.6082747563e+00 -2.7856135904e+00 1.6082747563e+00 2.7856135904e+00 
85700 6.2522102618e+00 6.9167957228e-05 1.6082747563e+00 -2.7856135904e+00 1.6082747563e+00 2.7856135904e+00 
85800 6.2522102618e+00 6.9295167556e-05 1.6082747563e+00 -2.7856135904e+00 1.6082747563e+00 2.7856135904e+00 
85900 6.2522102618e+00 6.9421801807e-05 1.6082747563e+00 -2.7856135904e+00 1.6082747563e+00 2.7856135904e+00 
86000 6.2522102618e+00 6.9547881151e-05 1.6082747563e+00 -2.7856135904e+00 1.6082747563e+00 2.7856135904e+00 
86100 6.2522102618e+00 6.9673425552e-05 1.6082747563e+00 -2.7856135904e+00 1.6082747563e+00 2.7856135904e+00 
86200 6.2522102618e+00 6.9798453777e-05 1.6082747563e+00 -2.7856135904e+00 1.6082747563e+00 2.7856135904e+00 
86300 6.2522102617e+00 6.9922983413e-05 1.6082747563e+00 -2.7856135904e+00 1.6082747563e+00 2.7856135904e+00 
86400 6.2522102617e+00 7.0047030882e-05 1.6082747563e+00 -2.7856135904e+00 1.6082747563e+00 2.7856135904e+00 
86500 6.2522102617e+00 7.0170611463e-05 1.6082747563e+00 -2.7856135904e+00 1.6082747563e+00 2.7856135904e+00 
86600 6.2522102617e+00 7.0293739310e-05 1.6082747563e+00 -2.7856135904e+00 1.6082747563e+00 2.7856135904e+00 
86700 6.2522102617e+00 7.0416427473e-05 1.6082747563e+00 -2.7856135904e+00 1.6082747563e+00 2.7856135904e+00 
86800 6.2522102617e+00 7.0538687921e-05 1.6082747563e+00 -2.7856135904e+00 1.6082747563e+00 2.7856135904e+00 
86900 6.2522102617e+00 7.0660531568e-05 1.6082747563e+00 -2.7856135904e+00 1.6082747563e+00 2.7856135904e+00 
87000 6.2522102617e+00 7.0781968295e-05 1.6082747563e+00 -2.7856135904e+00 1.6082747563e+00 2.7856135904e+00 
87100 6.2522102615e+00 6.8864731809e-05 1.6082725557e+00 -2.7856097789e+00 1.6082725557e+00 2.7856097789e+00 
87200 6.2522102615e+00 6.8978536690e-05 1.6082725557e+00 -2.7856097789e+00 1.6082725557e+00 2.7856097789e+00 
87300 6.2522102615e+00 6.9091762690e-05 1.6082725557e+00 -2.7856097789e+00 1.6082725557e+00 2.7856097789e+00 
87400 6.2522102615e+00 6.9204432268e-05 1.6082725557e+00 -2.7856097789e+00 1.6082725557e+00 2.7856097789e+00 
87500 6.2522102615e+00 6.9316566780e-05 1.6082725557e+00 -2.7856097789e+00 1.6082725557e+00 2.7856097789e+00 
87600 6.2522102615e+00 6.9428186480e-05 1.6082725557e+00 -2.7856097789e+00 1.6082725557e+00 2.7856097789e+00 
87700 6.2522102615e+00 6.9539310535e-05 1.6082725557e+00 -2.7856097789e+00 1.6082725557e+00 2.7856097789e+00 
87800 6.2522102615e+00 6.9649957027e-05 1.6082725557e+00 -2.7856097789e+00 1.6082725557e+00 2.7856097789e+00 
87900 6.2522102614e+00 6.9760142975e-05 1.6082725557e+00 -2.7856097789e+00 1.6082725557e+00 2.7856097789e+00 
88000 6.2522102614e+00 6.9869884337e-05 1.6082725557e+00 -2.7856097789e+00 1.6082725557e+00 2.7856097789e+00 
88100 6.2522102614e+00 6.9979196035e-05 1.6082725557e+00 -2.7856097789e+00 1.6082725557e+00 2.7856097789e+00 
88200 6.2522102614e+00 7.0088091964e-05 1.6082725557e+00 -2.7856097789e+00 1.6082725557e+00 2.7856097789e+00 
88300 6.2522102614e+00 7.0196585011e-05 1.6082725557e+00 -2.7856097789e+00 1.6082725557e+00 2.7856097789e+00 
88400 6.2522102614e+00 7.0304687079e-05 1.6082725557e+00 -2.7856097789e+00 1.6082725557e+00 2.7856097789e+00 
88500 6.2522102614e+00 7.0317633582e-05 1.6082725557e+00 -2.7856097789e+00 1.6082725557e+00 2.7856097789e+00 
88500 6.2522102614e+00 7.0317633582e-05 1.6082725557e+00 -2.7856097789e+00 1.6082725557e+00 2.7856097789e+00 
