# step Hamiltonian StressXX CellTensor1 CellTensor2 CellTensor3 CellTensor4 
0 7.1003099751e+00 1.9766989094e-01 2.5594246509e+00 -4.4330535334e+00 2.5594246509e+00 4.4330535334e+00 
100 7.1171414690e+00 2.1780881443e-01 2.5594246509e+00 -4.4330535334e+00 2.5594246509e+00 4.4330535334e+00 
200 7.1326110178e+00 2.3631691314e-01 2.5551707971e+00 -4.4256856426e+00 2.5551707971e+00 4.4256856426e+00 
300 7.1472131582e+00 2.5366382433e-01 2.5505479065e+00 -4.4176785611e+00 2.5505479065e+00 4.4176785611e+00 
400 7.1608186422e+00 2.6979562774e-01 2.5455767935e+00 -4.4090683409e+00 2.5455767935e+00 4.4090683409e+00 
500 7.1732805263e+00 2.8460948292e-01 2.5402793335e+00 -4.3998928710e+00 2.5402793335e+00 4.3998928710e+00 
600 7.1844477780e+00 2.9796739335e-01 2.5346794642e+00 -4.3901936128e+00 2.5346794642e+00 4.3901936128e+00 
700 7.1941816383e+00 3.0971806007e-01 2.5288039291e+00 -4.3800168875e+00 2.5288039291e+00 4.3800168875e+00 
800 7.2023741516e+00 3.1972678464e-01 2.5226826013e+00 -4.3694144368e+00 2.5226826013e+00 4.3694144368e+00 
900 7.2089664726e+00 3.2790965927e-01 2.5163482216e+00 -4.3584429694e+00 2.5163482216e+00 4.3584429694e+00 
1000 7.2139628692e+00 3.3426408317e-01 2.5098354549e+00 -4.3471625264e+00 2.5098354549e+00 4.3471625264e+00 
1100 7.2174359023e+00 3.3888553725e-01 2.5031793237e+00 -4.3356337691e+00 2.5031793237e+00 4.3356337691e+00 
1200 7.2195200047e+00 3.4196314049e-01 2.4964132805e+00 -4.3239146386e+00 2.4964132805e+00 4.3239146386e+00 
1300 7.2203943356e+00 3.4375386614e-01 2.4895673319e+00 -4.3120571077e+00 2.4895673319e+00 4.3120571077e+00 
1400 7.2202595584e+00 3.4454371203e-01 2.4826666439e+00 -4.3001047655e+00 2.4826666439e+00 4.3001047655e+00 
1500 7.2193149121e+00 3.4460848421e-01 2.4757309008e+00 -4.2880917060e+00 2.4757309008e+00 4.2880917060e+00 
1600 7.2177407914e+00 3.4418487683e-01 2.4687744385e+00 -4.2760427600e+00 2.4687744385e+00 4.2760427600e+00 
1700 7.2156890928e+00 3.4345639223e-01 2.4618069643e+00 -4.2639747406e+00 2.4618069643e+00 4.2639747406e+00 
1800 7.2132806875e+00 3.4255255389e-01 2.4548345709e+00 -4.2518982010e+00 2.4548345709e+00 4.2518982010e+00 
1900 7.2106077778e+00 3.4155660989e-01 2.4478607848e+00 -4.2398192492e+00 2.4478607848e+00 4.2398192492e+00 
2000 7.2077386797e+00 3.4051669183e-01 2.4408874736e+00 -4.2277411198e+00 2.4408874736e+00 4.2277411198e+00 
2100 7.2047231678e+00 3.3945684838e-01 2.4339155413e+00 -4.2156653788e+00 2.4339155413e+00 4.2156653788e+00 
2200 7.2015973166e+00 3.3838613062e-01 2.4269454086e+00 -4.2035927549e+00 2.4269454086e+00 4.2035927549e+00 
2300 7.1983874070e+00 3.3730522654e-01 2.4199773149e+00 -4.1915236625e+00 2.4199773149e+00 4.1915236625e+00 
2400 7.1951128593e+00 3.3621087143e-01 2.4130114880e+00 -4.1794584965e+00 2.4130114880e+00 4.1794584965e+00 
2500 7.1917883290e+00 3.3509853673e-01 2.4060482260e+00 -4.1673977729e+00 2.4060482260e+00 4.1673977729e+00 
2600 7.1884251590e+00 3.3396391753e-01 2.3990879244e+00 -4.1553421769e+00 2.3990879244e+00 4.1553421769e+00 
2700 7.1850323641e+00 3.3280364647e-01 2.3921310730e+00 -4.1432925568e+00 2.3921310730e+00 4.1432925568e+00 
2800 7.1816172915e+00 3.3161554507e-01 2.3851782374e+00 -4.1312498923e+00 2.3851782374e+00 4.1312498923e+00 
2900 7.1781860631e+00 3.3039862068e-01 2.3782300357e+00 -4.1192152539e+00 2.3782300357e+00 4.1192152539e+00 
3000 7.1747438726e+00 3.2915293910e-01 2.3712871137e+00 -4.1071897602e+00 2.3712871137e+00 4.1071897602e+00 
3100 7.1712951871e+00 3.2787944995e-01 2.3643501236e+00 -4.0951745409e+00 2.3643501236e+00 4.0951745409e+00 
3200 7.1678438865e+00 3.2657980645e-01 2.3574197050e+00 -4.0831707039e+00 2.3574197050e+00 4.0831707039e+00 
3300 7.1643933621e+00 3.2525620068e-01 2.3504964701e+00 -4.0711793093e+00 2.3504964701e+00 4.0711793093e+00 
3400 7.1609465877e+00 3.2391122265e-01 2.3435809916e+00 -4.0592013490e+00 2.3435809916e+00 4.0592013490e+00 
3500 7.1575061729e+00 3.2254774493e-01 2.3366737934e+00 -4.0472377310e+00 2.3366737934e+00 4.0472377310e+00 
3600 7.1540744033e+00 3.2116883106e-01 2.3297753447e+00 -4.0352892672e+00 2.3297753447e+00 4.0352892672e+00 
3700 7.1506532722e+00 3.1977766459e-01 2.3228860539e+00 -4.0233566655e+00 2.3228860539e+00 4.0233566655e+00 
3800 7.1472445064e+00 3.1837749526e-01 2.3160062660e+00 -4.0114405233e+00 2.3160062660e+00 4.0114405233e+00 
3900 7.1438495860e+00 3.1697159867e-01 2.3091362598e+00 -3.9995413236e+00 2.3091362598e+00 3.9995413236e+00 
4000 7.1404697616e+00 3.1556324670e-01 2.3022762465e+00 -3.9876594320e+00 2.3022762465e+00 3.9876594320e+00 
4100 7.1371060681e+00 3.1415568579e-01 2.2954263687e+00 -3.9757950956e+00 2.2954263687e+00 3.9757950956e+00 
4200 7.1337593361e+00 3.1275212125e-01 2.2885866998e+00 -3.9639484415e+00 2.2885866998e+00 3.9639484415e+00 
4300 7.1304302017e+00 3.1135570562e-01 2.2817572441e+00 -3.9521194773e+00 2.2817572441e+00 3.9521194773e+00 
4400 7.1271191135e+00 3.0996952999e-01 2.2749379368e+00 -3.9403080906e+00 2.2749379368e+00 3.9403080906e+00 
4500 7.1238263399e+00 3.0859661702e-01 2.2681286443e+00 -3.9285140501e+00 2.2681286443e+00 3.9285140501e+00 
4600 7.1205519735e+00 3.0723991491e-01 2.2613291647e+00 -3.9167370060e+00 2.2613291647e+00 3.9167370060e+00 
4700 7.1172959357e+00 3.0590229170e-01 2.2545392284e+00 -3.9049764913e+00 2.2545392284e+00 3.9049764913e+00 
4800 7.1140579795e+00 3.0458652931e-01 2.2477584989e+00 -3.8932319233e+00 2.2477584989e+00 3.8932319233e+00 
4900 7.1108376922e+00 3.0329531707e-01 2.2409865737e+00 -3.8815026048e+00 2.2409865737e+00 3.8815026048e+00 
5000 7.1076344974e+00 3.0203124429e-01 2.2342229854e+00 -3.8697877261e+00 2.2342229854e+00 3.8697877261e+00 
5100 7.1044476563e+00 3.0079679172e-01 2.2274672028e+00 -3.8580863675e+00 2.2274672028e+00 3.8580863675e+00 
5200 7.1012762686e+00 2.9959432171e-01 2.2207186329e+00 -3.8463975014e+00 2.2207186329e+00 3.8463975014e+00 
5300 7.0981192741e+00 2.9842606685e-01 2.2139766218e+00 -3.8347199958e+00 2.2139766218e+00 3.8347199958e+00 
5400 7.0949754527e+00 2.9729411710e-01 2.2072404577e+00 -3.8230526173e+00 2.2072404577e+00 3.8230526173e+00 
5500 7.0918434258e+00 2.9620040509e-01 2.2005093724e+00 -3.8113940356e+00 2.2005093724e+00 3.8113940356e+00 
5600 7.0887216573e+00 2.9514668971e-01 2.1937825446e+00 -3.7997428280e+00 2.1937825446e+00 3.7997428280e+00 
5700 7.0856084551e+00 2.9413453784e-01 2.1870591027e+00 -3.7880974851e+00 2.1870591027e+00 3.7880974851e+00 
5800 7.0825019729e+00 2.9316530410e-01 2.1803381287e+00 -3.7764564166e+00 2.1803381287e+00 3.7764564166e+00 
5900 7.0794002126e+00 2.9224010870e-01 2.1736186623e+00 -3.7648179593e+00 2.1736186623e+00 3.7648179593e+00 
6000 7.0763010283e+00 2.9135981326e-01 2.1668997053e+00 -3.7531803845e+00 2.1668997053e+00 3.7531803845e+00 
6100 7.0732021300e+00 2.9052499464e-01 2.1601802276e+00 -3.7415419078e+00 2.1601802276e+00 3.7415419078e+00 
6200 7.0701010898e+00 2.8973591686e-01 2.1534591729e+00 -3.7299006995e+00 2.1534591729e+00 3.7299006995e+00 
6300 7.0669953484e+00 2.8899250110e-01 2.1467354654e+00 -3.7182548964e+00 2.1467354654e+00 3.7182548964e+00 
6400 7.0638822243e+00 2.8829429393e-01 2.1400080178e+00 -3.7066026154e+00 2.1400080178e+00 3.7066026154e+00 
6500 7.0607589242e+00 2.8764043390e-01 2.1332757398e+00 -3.6949419678e+00 2.1332757398e+00 3.6949419678e+00 
6600 7.0576225558e+00 2.8702961680e-01 2.1265375473e+00 -3.6832710762e+00 2.1265375473e+00 3.6832710762e+00 
6700 7.0544701432e+00 2.8646005980e-01 2.1197923733e+00 -3.6715880921e+00 2.1197923733e+00 3.6715880921e+00 
6800 7.0512986448e+00 2.8592946494e-01 2.1130391791e+00 -3.6598912166e+00 2.1130391791e+00 3.6598912166e+00 
6900 7.0481049744e+00 2.8543498243e-01 2.1062769669e+00 -3.6481787215e+00 2.1062769669e+00 3.6481787215e+00 
7000 7.0448860259e+00 2.8497317443e-01 2.0995047937e+00 -3.6364489734e+00 2.0995047937e+00 3.6364489734e+00 
7100 7.0416387014e+00 2.8453998002e-01 2.0927217859e+00 -3.6247004593e+00 2.0927217859e+00 3.6247004593e+00 
7200 7.0383599431e+00 2.8413068227e-01 2.0859271555e+00 -3.6129318143e+00 2.0859271555e+00 3.6129318143e+00 
7300 7.0350467699e+00 2.8373987847e-01 2.0791202170e+00 -3.6011418509e+00 2.0791202170e+00 3.6011418509e+00 
7400 7.0316963181e+00 2.8336145477e-01 2.0723004054e+00 -3.5893295906e+00 2.0723004054e+00 3.5893295906e+00 
7500 7.0283058868e+00 2.8298856637e-01 2.0654672954e+00 -3.5774942971e+00 2.0654672954e+00 3.5774942971e+00 
7600 7.0248729878e+00 2.8261362515e-01 2.0586206216e+00 -3.5656355102e+00 2.0586206216e+00 3.5656355102e+00 
7700 7.0213954003e+00 2.8222829583e-01 2.0517602987e+00 -3.5537530823e+00 2.0517602987e+00 3.5537530823e+00 
7800 7.0178712298e+00 2.8182350288e-01 2.0448864429e+00 -3.5418472148e+00 2.0448864429e+00 3.5418472148e+00 
7900 7.0142989713e+00 2.8138944945e-01 2.0379993934e+00 -3.5299184951e+00 2.0379993934e+00 3.5299184951e+00 
8000 7.0106775755e+00 2.8091565029e-01 2.0310997337e+00 -3.5179679340e+00 2.0310997337e+00 3.5179679340e+00 
8100 7.0070065185e+00 2.8039098011e-01 2.0241883129e+00 -3.5059970020e+00 2.0241883129e+00 3.5059970020e+00 
8200 7.0032858723e+00 2.7980373878e-01 2.0172662659e+00 -3.4940076649e+00 2.0172662659e+00 3.4940076649e+00 
8300 6.9995163764e+00 2.7914173436e-01 2.0103350326e+00 -3.4820024167e+00 2.0103350326e+00 3.4820024167e+00 
8400 6.9956995076e+00 2.7839238461e-01 2.0033963755e+00 -3.4699843101e+00 2.0033963755e+00 3.4699843101e+00 
8500 6.9918375475e+00 2.7754283692e-01 1.9964523950e+00 -3.4579569830e+00 1.9964523950e+00 3.4579569830e+00 
8600 6.9879336439e+00 2.7658010613e-01 1.9895055420e+00 -3.4459246807e+00 1.9895055420e+00 3.4459246807e+00 
8700 6.9839918662e+00 2.7549122875e-01 1.9825586278e+00 -3.4338922723e+00 1.9825586278e+00 3.4338922723e+00 
8800 6.9800172491e+00 2.7426343135e-01 1.9756148292e+00 -3.4218652604e+00 1.9756148292e+00 3.4218652604e+00 
8900 6.9760158260e+00 2.7288430998e-01 1.9686776910e+00 -3.4098497846e+00 1.9686776910e+00 3.4098497846e+00 
9000 6.9719946460e+00 2.7134201677e-01 1.9617511222e+00 -3.3978526154e+00 1.9617511222e+00 3.3978526154e+00 
9100 6.9679617745e+00 2.6962544899e-01 1.9548393885e+00 -3.3858811415e+00 1.9548393885e+00 3.3858811415e+00 
9200 6.9639262750e+00 2.6772443527e-01 1.9479470996e+00 -3.3739433470e+00 1.9479470996e+00 3.3739433470e+00 
9300 6.9598981695e+00 2.6562991351e-01 1.9410791907e+00 -3.3620477798e+00 1.9410791907e+00 3.3620477798e+00 
9400 6.9558883781e+00 2.6333409461e-01 1.9342408993e+00 -3.3502035117e+00 1.9342408993e+00 3.3502035117e+00 
9500 6.9519086354e+00 2.6083060672e-01 1.9274377371e+00 -3.3384200891e+00 1.9274377371e+00 3.3384200891e+00 
9600 6.9479713870e+00 2.5811461481e-01 1.9206754574e+00 -3.3267074771e+00 1.9206754574e+00 3.3267074771e+00 
9700 6.9440896638e+00 2.5518291165e-01 1.9139600182e+00 -3.3150759951e+00 1.9139600182e+00 3.3150759951e+00 
9800 6.9402769390e+00 2.5203397698e-01 1.9072975420e+00 -3.3035362479e+00 1.9072975420e+00 3.3035362479e+00 
9900 6.9365469694e+00 2.4866800315e-01 1.9006942734e+00 -3.2920990512e+00 1.9006942734e+00 3.2920990512e+00 
10000 6.9329136234e+00 2.4508688680e-01 1.8941565341e+00 -3.2807753546e+00 1.8941565341e+00 3.2807753546e+00 
10100 6.9293907020e+00 2.4129418755e-01 1.8876906775e+00 -3.2695761624e+00 1.8876906775e+00 3.2695761624e+00 
10200 6.9259917544e+00 2.3729505593e-01 1.8813030429e+00 -3.2585124548e+00 1.8813030429e+00 3.2585124548e+00 
10300 6.9227298945e+00 2.3309613399e-01 1.8749999109e+00 -3.2475951098e+00 1.8749999109e+00 3.2475951098e+00 
10400 6.9196176221e+00 2.2870543270e-01 1.8687874595e+00 -3.2368348284e+00 1.8687874595e+00 3.2368348284e+00 
10500 6.9166666520e+00 2.2413219109e-01 1.8626717236e+00 -3.2262420631e+00 1.8626717236e+00 3.2262420631e+00 
10600 6.9138877568e+00 2.1938672213e-01 1.8566585561e+00 -3.2158269514e+00 1.8566585561e+00 3.2158269514e+00 
10700 6.9112906243e+00 2.1448025048e-01 1.8507535931e+00 -3.2055992556e+00 1.8507535931e+00 3.2055992556e+00 
10800 6.9088837342e+00 2.0942474697e-01 1.8449622230e+00 -3.1955683083e+00 1.8449622230e+00 3.1955683083e+00 
10900 6.9066742547e+00 2.0423276414e-01 1.8392895583e+00 -3.1857429648e+00 1.8392895583e+00 3.1857429648e+00 
11000 6.9046679608e+00 1.9891727666e-01 1.8337404128e+00 -3.1761315629e+00 1.8337404128e+00 3.1761315629e+00 
11100 6.9028691750e+00 1.9349152967e-01 1.8283192822e+00 -3.1667418892e+00 1.8283192822e+00 3.1667418892e+00 
11200 6.9012807308e+00 1.8796889757e-01 1.8230303284e+00 -3.1575811525e+00 1.8230303284e+00 3.1575811525e+00 
11300 6.8999039572e+00 1.8236275477e-01 1.8178773682e+00 -3.1486559637e+00 1.8178773682e+00 3.1486559637e+00 
11400 6.8987386853e+00 1.7668635961e-01 1.8128638655e+00 -3.1399723223e+00 1.8128638655e+00 3.1399723223e+00 
11500 6.8977832731e+00 1.7095275198e-01 1.8079929265e+00 -3.1315356084e+00 1.8079929265e+00 3.1315356084e+00 
11600 6.8970346498e+00 1.6517466463e-01 1.8032672981e+00 -3.1233505800e+00 1.8032672981e+00 3.1233505800e+00 
11700 6.8964883756e+00 1.5936444794e-01 1.7986893698e+00 -3.1154213755e+00 1.7986893698e+00 3.1154213755e+00 
11800 6.8961387150e+00 1.5353400754e-01 1.7942611769e+00 -3.1077515204e+00 1.7942611769e+00 3.1077515204e+00 
11900 6.8959787239e+00 1.4769475413e-01 1.7899844070e+00 -3.1003439377e+00 1.7899844070e+00 3.1003439377e+00 
12000 6.8960003457e+00 1.4185756444e-01 1.7858604077e+00 -3.0932009614e+00 1.7858604077e+00 3.0932009614e+00 
12100 6.8961945158e+00 1.3603275251e-01 1.7818901963e+00 -3.0863243535e+00 1.7818901963e+00 3.0863243535e+00 
12200 6.8965512729e+00 1.3023005026e-01 1.7780744707e+00 -3.0797153229e+00 1.7780744707e+00 3.0797153229e+00 
12300 6.8970598745e+00 1.2445859638e-01 1.7744136214e+00 -3.0733745459e+00 1.7744136214e+00 3.0733745459e+00 
12400 6.8977089146e+00 1.1872693258e-01 1.7709077444e+00 -3.0673021888e+00 1.7709077444e+00 3.0673021888e+00 
12500 6.8984864433e+00 1.1304300629e-01 1.7675566550e+00 -3.0614979316e+00 1.7675566550e+00 3.0614979316e+00 
12600 6.8993800862e+00 1.0741417892e-01 1.7643599014e+00 -3.0559609921e+00 1.7643599014e+00 3.0559609921e+00 
12700 6.9003771609e+00 1.0184723890e-01 1.7613167797e+00 -3.0506901506e+00 1.7613167797e+00 3.0506901506e+00 
12800 6.9014647926e+00 9.6348418765e-02 1.7584263476e+00 -3.0456837755e+00 1.7584263476e+00 3.0456837755e+00 
12900 6.9026300241e+00 9.0923415478e-02 1.7556874396e+00 -3.0409398476e+00 1.7556874396e+00 3.0409398476e+00 
13000 6.9038599220e+00 8.5577413473e-02 1.7530986806e+00 -3.0364559855e+00 1.7530986806e+00 3.0364559855e+00 
13100 6.9051416774e+00 8.0315109724e-02 1.7506585006e+00 -3.0322294697e+00 1.7506585006e+00 3.0322294697e+00 
13200 6.9064626998e+00 7.5140740347e-02 1.7483651479e+00 -3.0282572663e+00 1.7483651479e+00 3.0282572663e+00 
13300 6.9078107048e+00 7.0058108218e-02 1.7462167028e+00 -3.0245360503e+00 1.7462167028e+00 3.0245360503e+00 
13400 6.9091737947e+00 6.5070611167e-02 1.7442110904e+00 -3.0210622277e+00 1.7442110904e+00 3.0210622277e+00 
13500 6.9105405311e+00 6.0181270344e-02 1.7423460925e+00 -3.0178319565e+00 1.7423460925e+00 3.0178319565e+00 
13600 6.9119000005e+00 5.5392758408e-02 1.7406193598e+00 -3.0148411678e+00 1.7406193598e+00 3.0148411678e+00 
13700 6.9132418716e+00 5.0707427210e-02 1.7390284229e+00 -3.0120855843e+00 1.7390284229e+00 3.0120855843e+00 
13800 6.9145564452e+00 4.6127334722e-02 1.7375707027e+00 -3.0095607389e+00 1.7375707027e+00 3.0095607389e+00 
13900 6.9158346960e+00 4.1654270961e-02 1.7362435206e+00 -3.0072619919e+00 1.7362435206e+00 3.0072619919e+00 
14000 6.9170683069e+00 3.7289782729e-02 1.7350441073e+00 -3.0051845472e+00 1.7350441073e+00 3.0051845472e+00 
14100 6.9182496954e+00 3.3035197004e-02 1.7339696121e+00 -3.0033234669e+00 1.7339696121e+00 3.0033234669e+00 
14200 6.9193720339e+00 2.8891642872e-02 1.7330171107e+00 -3.0016736860e+00 1.7330171107e+00 3.0016736860e+00 
14300 6.9204292614e+00 2.4860071897e-02 1.7321836127e+00 -3.0002300252e+00 1.7321836127e+00 3.0002300252e+00 
14400 6.9214160899e+00 2.0941276876e-02 1.7314660688e+00 -2.9989872027e+00 1.7314660688e+00 2.9989872027e+00 
14500 6.9223280036e+00 1.7135908948e-02 1.7308613773e+00 -2.9979398463e+00 1.7308613773e+00 2.9979398463e+00 
14600 6.9231612530e+00 1.3444493044e-02 1.7303663898e+00 -2.9970825029e+00 1.7303663898e+00 2.9970825029e+00 
14700 6.9239128425e+00 9.8674416922e-03 1.7299779175e+00 -2.9964096491e+00 1.7299779175e+00 2.9964096491e+00 
14800 6.9245805143e+00 6.4050672137e-03 1.7296927355e+00 -2.9959156994e+00 1.7296927355e+00 2.9959156994e+00 
14900 6.9251627260e+00 3.0575923513e-03 1.7295075884e+00 -2.9955950152e+00 1.7295075884e+00 2.9955950152e+00 
15000 6.9256586257e+00 -1.7484059664e-04 1.7294191943e+00 -2.9954419120e+00 1.7294191943e+00 2.9954419120e+00 
15100 6.9260680223e+00 -3.2921620686e-03 1.7294242492e+00 -2.9954506674e+00 1.7294242492e+00 2.9954506674e+00 
15200 6.9263913529e+00 -6.2943688722e-03 1.7295194309e+00 -2.9956155270e+00 1.7295194309e+00 2.9956155270e+00 
15300 6.9266296475e+00 -9.1815190650e-03 1.7297014028e+00 -2.9959307116e+00 1.7297014028e+00 2.9959307116e+00 
15400 6.9267844910e+00 -1.1953727986e-02 1.7299668172e+00 -2.9963904228e+00 1.7299668172e+00 2.9963904228e+00 
15500 6.9268579837e+00 -1.4611165342e-02 1.7303123188e+00 -2.9969888492e+00 1.7303123188e+00 2.9969888492e+00 
15600 6.9268527001e+00 -1.7154053236e-02 1.7307345478e+00 -2.9977201712e+00 1.7307345478e+00 2.9977201712e+00 
15700 6.9267716464e+00 -1.9582665054e-02 1.7312301429e+00 -2.9985785671e+00 1.7312301429e+00 2.9985785671e+00 
15800 6.9266182173e+00 -2.1897325089e-02 1.7317957445e+00 -2.9995582178e+00 1.7317957445e+00 2.9995582178e+00 
15900 6.9263961529e+00 -2.4098408819e-02 1.7324279974e+00 -3.0006533119e+00 1.7324279974e+00 3.0006533119e+00 
16000 6.9261094947e+00 -2.6186343737e-02 1.7331235536e+00 -3.0018580506e+00 1.7331235536e+00 3.0018580506e+00 
16100 6.9257625429e+00 -2.8161610641e-02 1.7338790752e+00 -3.0031666524e+00 1.7338790752e+00 3.0031666524e+00 
16200 6.9253598131e+00 -3.0024745305e-02 1.7346912370e+00 -3.0045733579e+00 1.7346912370e+00 3.0045733579e+00 
16300 6.9249059948e+00 -3.1776340433e-02 1.7355567294e+00 -3.0060724347e+00 1.7355567294e+00 3.0060724347e+00 
16400 6.9244059104e+00 -3.3417047848e-02 1.7364722607e+00 -3.0076581815e+00 1.7364722607e+00 3.0076581815e+00 
16500 6.9238644758e+00 -3.4947580813e-02 1.7374345604e+00 -3.0093249334e+00 1.7374345604e+00 3.0093249334e+00 
16600 6.9232866621e+00 -3.6368716454e-02 1.7384403810e+00 -3.0110670658e+00 1.7384403810e+00 3.0110670658e+00 
16700 6.9226774595e+00 -3.7681298191e-02 1.7394865015e+00 -3.0128789996e+00 1.7394865015e+00 3.0128789996e+00 
16800 6.9220418424e+00 -3.8886238164e-02 1.7405697294e+00 -3.0147552054e+00 1.7405697294e+00 3.0147552054e+00 
16900 6.9213847367e+00 -3.9984519573e-02 1.7416869036e+00 -3.0166902080e+00 1.7416869036e+00 3.0166902080e+00 
17000 6.9207109892e+00 -4.0977198912e-02 1.7428348973e+00 -3.0186785912e+00 1.7428348973e+00 3.0186785912e+00 
17100 6.9200253392e+00 -4.1865408058e-02 1.7440106197e+00 -3.0207150023e+00 1.7440106197e+00 3.0207150023e+00 
17200 6.9193323917e+00 -4.2650356179e-02 1.7452110197e+00 -3.0227941561e+00 1.7452110197e+00 3.0227941561e+00 
17300 6.9186365933e+00 -4.3333331438e-02 1.7464330877e+00 -3.0249108399e+00 1.7464330877e+00 3.0249108399e+00 
17400 6.9179422106e+00 -4.3915702478e-02 1.7476738583e+00 -3.0270599177e+00 1.7476738583e+00 3.0270599177e+00 
17500 6.9172533102e+00 -4.4398919656e-02 1.7489304132e+00 -3.0292363345e+00 1.7489304132e+00 3.0292363345e+00 
17600 6.9165737412e+00 -4.4784516030e-02 1.7501998829e+00 -3.0314351206e+00 1.7501998829e+00 3.0314351206e+00 
17700 6.9159071204e+00 -4.5074108074e-02 1.7514794502e+00 -3.0336513961e+00 1.7514794502e+00 3.0336513961e+00 
17800 6.9152568192e+00 -4.5269396120e-02 1.7527663515e+00 -3.0358803745e+00 1.7527663515e+00 3.0358803745e+00 
17900 6.9146259525e+00 -4.5372164519e-02 1.7540578799e+00 -3.0381173673e+00 1.7540578799e+00 3.0381173673e+00 
18000 6.9140173706e+00 -4.5384281519e-02 1.7553513872e+00 -3.0403577878e+00 1.7553513872e+00 3.0403577878e+00 
18100 6.9134336526e+00 -4.5307698860e-02 1.7566442864e+00 -3.0425971549e+00 1.7566442864e+00 3.0425971549e+00 
18200 6.9128771014e+00 -4.5144451083e-02 1.7579340535e+00 -3.0448310970e+00 1.7579340535e+00 3.0448310970e+00 
18300 6.9123497416e+00 -4.4896654557e-02 1.7592182297e+00 -3.0470553555e+00 1.7592182297e+00 3.0470553555e+00 
18400 6.9118533187e+00 -4.4566506223e-02 1.7604944238e+00 -3.0492657885e+00 1.7604944238e+00 3.0492657885e+00 
18500 6.9113892999e+00 -4.4156282064e-02 1.7617603137e+00 -3.0514583741e+00 1.7617603137e+00 3.0514583741e+00 
18600 6.9109588772e+00 -4.3668335300e-02 1.7630136486e+00 -3.0536292138e+00 1.7630136486e+00 3.0536292138e+00 
18700 6.9105629713e+00 -4.3105094315e-02 1.7642522506e+00 -3.0557745354e+00 1.7642522506e+00 3.0557745354e+00 
18800 6.9102022380e+00 -4.2469060316e-02 1.7654740165e+00 -3.0578906961e+00 1.7654740165e+00 3.0578906961e+00 
18900 6.9098770749e+00 -4.1762804742e-02 1.7666769195e+00 -3.0599741852e+00 1.7666769195e+00 3.0599741852e+00 
19000 6.9095876303e+00 -4.0988966411e-02 1.7678590105e+00 -3.0620216269e+00 1.7678590105e+00 3.0620216269e+00 
19100 6.9093338127e+00 -4.0150248421e-02 1.7690184198e+00 -3.0640297827e+00 1.7690184198e+00 3.0640297827e+00 
19200 6.9091153015e+00 -3.9249414817e-02 1.7701533582e+00 -3.0659955536e+00 1.7701533582e+00 3.0659955536e+00 
19300 6.9089315590e+00 -3.8289287013e-02 1.7712621183e+00 -3.0679159825e+00 1.7712621183e+00 3.0679159825e+00 
19400 6.9087818432e+00 -3.7272739989e-02 1.7723430758e+00 -3.0697882557e+00 1.7723430758e+00 3.0697882557e+00 
19500 6.9086652205e+00 -3.6202698268e-02 1.7733946900e+00 -3.0716097049e+00 1.7733946900e+00 3.0716097049e+00 
19600 6.9085805806e+00 -3.5082131678e-02 1.7744155053e+00 -3.0733778089e+00 1.7744155053e+00 3.0733778089e+00 
19700 6.9085266505e+00 -3.3914050903e-02 1.7754041516e+00 -3.0750901946e+00 1.7754041516e+00 3.0750901946e+00 
19800 6.9085020096e+00 -3.2701502843e-02 1.7763593451e+00 -3.0767446382e+00 1.7763593451e+00 3.0767446382e+00 
19900 6.9085051056e+00 -3.1447565782e-02 1.7772798887e+00 -3.0783390666e+00 1.7772798887e+00 3.0783390666e+00 
20000 6.9085342695e+00 -3.0155344376e-02 1.7781646727e+00 -3.0798715573e+00 1.7781646727e+00 3.0798715573e+00 
20100 6.9085877315e+00 -2.8827964478e-02 1.7790126746e+00 -3.0813403396e+00 1.7790126746e+00 3.0813403396e+00 
20200 6.9086636373e+00 -2.7468567810e-02 1.7798229597e+00 -3.0827437947e+00 1.7798229597e+00 3.0827437947e+00 
20300 6.9087600630e+00 -2.6080306484e-02 1.7805946812e+00 -3.0840804555e+00 1.7805946812e+00 3.0840804555e+00 
20400 6.9088750313e+00 -2.4666337411e-02 1.7813270796e+00 -3.0853490067e+00 1.7813270796e+00 3.0853490067e+00 
20500 6.9090065267e+00 -2.3229816588e-02 1.7820194829e+00 -3.0865482844e+00 1.7820194829e+00 3.0865482844e+00 
20600 6.9091525104e+00 -2.1773893300e-02 1.7826713061e+00 -3.0876772753e+00 1.7826713061e+00 3.0876772753e+00 
20700 6.9093109349e+00 -2.0301704243e-02 1.7832820506e+00 -3.0887351159e+00 1.7832820506e+00 3.0887351159e+00 
20800 6.9094797586e+00 -1.8816367596e-02 1.7838513039e+00 -3.0897210915e+00 1.7838513039e+00 3.0897210915e+00 
20900 6.9096569585e+00 -1.7320977060e-02 1.7843787384e+00 -3.0906346349e+00 1.7843787384e+00 3.0906346349e+00 
21000 6.9098405440e+00 -1.5818595882e-02 1.7848641108e+00 -3.0914753245e+00 1.7848641108e+00 3.0914753245e+00 
21100 6.9100285685e+00 -1.4312250901e-02 1.7853072608e+00 -3.0922428828e+00 1.7853072608e+00 3.0922428828e+00 
21200 6.9102191414e+00 -1.2804926623e-02 1.7857081101e+00 -3.0929371743e+00 1.7857081101e+00 3.0929371743e+00 
21300 6.9104104385e+00 -1.1299559361e-02 1.7860666613e+00 -3.0935582031e+00 1.7860666613e+00 3.0935582031e+00 
21400 6.9106007118e+00 -9.7990314613e-03 1.7863829959e+00 -3.0941061107e+00 1.7863829959e+00 3.0941061107e+00 
21500 6.9107882989e+00 -8.3061656495e-03 1.7866572731e+00 -3.0945811727e+00 1.7866572731e+00 3.0945811727e+00 
21600 6.9109716306e+00 -6.8237195057e-03 1.7868897280e+00 -3.0949837965e+00 1.7868897280e+00 3.0949837965e+00 
21700 6.9111492383e+00 -5.3543801116e-03 1.7870806699e+00 -3.0953145175e+00 1.7870806699e+00 3.0953145175e+00 
21800 6.9113197600e+00 -3.9007588848e-03 1.7872304800e+00 -3.0955739962e+00 1.7872304800e+00 3.0955739962e+00 
21900 6.9114819455e+00 -2.4653866271e-03 1.7873396097e+00 -3.0957630144e+00 1.7873396097e+00 3.0957630144e+00 
22000 6.9116346608e+00 -1.0507088097e-03 1.7874085782e+00 -3.0958824713e+00 1.7874085782e+00 3.0958824713e+00 
22100 6.9117768912e+00 3.4091888158e-04 1.7874379702e+00 -3.0959333798e+00 1.7874379702e+00 3.0959333798e+00 
22200 6.9119077434e+00 1.7072347230e-03 1.7874284337e+00 -3.0959168621e+00 1.7874284337e+00 3.0959168621e+00 
22300 6.9120264473e+00 3.0460748300e-03 1.7873806772e+00 -3.0958341454e+00 1.7873806772e+00 3.0958341454e+00 
22400 6.9121323558e+00 4.3553767202e-03 1.7872954673e+00 -3.0956865575e+00 1.7872954673e+00 3.0956865575e+00 
22500 6.9122249448e+00 5.6331825459e-03 1.7871736260e+00 -3.0954755222e+00 1.7871736260e+00 3.0954755222e+00 
22600 6.9123038116e+00 6.8776419850e-03 1.7870160280e+00 -3.0952025545e+00 1.7870160280e+00 3.0952025545e+00 
22700 6.9123686728e+00 8.0870147786e-03 1.7868235978e+00 -3.0948692555e+00 1.7868235978e+00 3.0948692555e+00 
22800 6.9124193612e+00 9.2596729082e-03 1.7865973067e+00 -3.0944773079e+00 1.7865973067e+00 3.0944773079e+00 
22900 6.9124558223e+00 1.0394102407e-02 1.7863381703e+00 -3.0940284704e+00 1.7863381703e+00 3.0940284704e+00 
23000 6.9124781098e+00 1.1488904801e-02 1.7860472450e+00 -3.0935245730e+00 1.7860472450e+00 3.0935245730e+00 
23100 6.9124863807e+00 1.2542798179e-02 1.7857256253e+00 -3.0929675113e+00 1.7857256253e+00 3.0929675113e+00 
23200 6.9124808896e+00 1.3554617899e-02 1.7853744406e+00 -3.0923592417e+00 1.7853744406e+00 3.0923592417e+00 
23300 6.9124619829e+00 1.4523316917e-02 1.7849948526e+00 -3.0917017759e+00 1.7849948526e+00 3.0917017759e+00 
23400 6.9124300923e+00 1.5447965770e-02 1.7845880512e+00 -3.0909971753e+00 1.7845880512e+00 3.0909971753e+00 
23500 6.9123857277e+00 1.6327752193e-02 1.7841552527e+00 -3.0902475463e+00 1.7841552527e+00 3.0902475463e+00 
23600 6.9123294702e+00 1.7161980403e-02 1.7836976957e+00 -3.0894550344e+00 1.7836976957e+00 3.0894550344e+00 
23700 6.9122619650e+00 1.7950070040e-02 1.7832166386e+00 -3.0886218190e+00 1.7832166386e+00 3.0886218190e+00 
23800 6.9121839135e+00 1.8691554796e-02 1.7827133564e+00 -3.0877501086e+00 1.7827133564e+00 3.0877501086e+00 
23900 6.9120960660e+00 1.9386080731e-02 1.7821891376e+00 -3.0868421349e+00 1.7821891376e+00 3.0868421349e+00 
24000 6.9119992134e+00 2.0033404296e-02 1.7816452813e+00 -3.0859001483e+00 1.7816452813e+00 3.0859001483e+00 
24100 6.9118941804e+00 2.0633390084e-02 1.7810830945e+00 -3.0849264121e+00 1.7810830945e+00 3.0849264121e+00 
24200 6.9117818173e+00 2.1186008313e-02 1.7805038887e+00 -3.0839231983e+00 1.7805038887e+00 3.0839231983e+00 
24300 6.9116629926e+00 2.1691332076e-02 1.7799089777e+00 -3.0828927822e+00 1.7799089777e+00 3.0828927822e+00 
24400 6.9115385860e+00 2.2149534352e-02 1.7792996742e+00 -3.0818374377e+00 1.7792996742e+00 3.0818374377e+00 
24500 6.9114094811e+00 2.2560884825e-02 1.7786772877e+00 -3.0807594326e+00 1.7786772877e+00 3.0807594326e+00 
24600 6.9112765587e+00 2.2925746499e-02 1.7780431214e+00 -3.0796610243e+00 1.7780431214e+00 3.0796610243e+00 
24700 6.9111406904e+00 2.3244572161e-02 1.7773984700e+00 -3.0785444553e+00 1.7773984700e+00 3.0785444553e+00 
24800 6.9110027325e+00 2.3517900673e-02 1.7767446170e+00 -3.0774119487e+00 1.7767446170e+00 3.0774119487e+00 
24900 6.9108635202e+00 2.3746353153e-02 1.7760828325e+00 -3.0762657044e+00 1.7760828325e+00 3.0762657044e+00 
25000 6.9107238623e+00 2.3930629028e-02 1.7754143709e+00 -3.0751078949e+00 1.7754143709e+00 3.0751078949e+00 
25100 6.9105845363e+00 2.4071501998e-02 1.7747404687e+00 -3.0739406620e+00 1.7747404687e+00 3.0739406620e+00 
25200 6.9104462842e+00 2.4169815928e-02 1.7740623423e+00 -3.0727661126e+00 1.7740623423e+00 3.0727661126e+00 
25300 6.9103098084e+00 2.4226480677e-02 1.7733811861e+00 -3.0715863156e+00 1.7733811861e+00 3.0715863156e+00 
25400 6.9101757680e+00 2.4242467887e-02 1.7726981710e+00 -3.0704032986e+00 1.7726981710e+00 3.0704032986e+00 
25500 6.9100447762e+00 2.4218806757e-02 1.7720144418e+00 -3.0692190450e+00 1.7720144418e+00 3.0692190450e+00 
25600 6.9099173975e+00 2.4156579795e-02 1.7713311164e+00 -3.0680354907e+00 1.7713311164e+00 3.0680354907e+00 
25700 6.9097941458e+00 2.4056918597e-02 1.7706492837e+00 -3.0668545218e+00 1.7706492837e+00 3.0668545218e+00 
25800 6.9096754830e+00 2.3920999631e-02 1.7699700024e+00 -3.0656779720e+00 1.7699700024e+00 3.0656779720e+00 
25900 6.9095618175e+00 2.3750040076e-02 1.7692942995e+00 -3.0645076203e+00 1.7692942995e+00 3.0645076203e+00 
26000 6.9094535039e+00 2.3545293702e-02 1.7686231693e+00 -3.0633451886e+00 1.7686231693e+00 3.0633451886e+00 
26100 6.9093508430e+00 2.3308046813e-02 1.7679575720e+00 -3.0621923403e+00 1.7679575720e+00 3.0621923403e+00 
26200 6.9092540813e+00 2.3039614272e-02 1.7672984329e+00 -3.0610506779e+00 1.7672984329e+00 3.0610506779e+00 
26300 6.9091634125e+00 2.2741335600e-02 1.7666466415e+00 -3.0599217422e+00 1.7666466415e+00 3.0599217422e+00 
26400 6.9090789778e+00 2.2414571185e-02 1.7660030506e+00 -3.0588070100e+00 1.7660030506e+00 3.0588070100e+00 
26500 6.9090008677e+00 2.2060698577e-02 1.7653684756e+00 -3.0577078938e+00 1.7653684756e+00 3.0577078938e+00 
26600 6.9089291235e+00 2.1681108905e-02 1.7647436940e+00 -3.0566257403e+00 1.7647436940e+00 3.0566257403e+00 
26700 6.9088637393e+00 2.1277203405e-02 1.7641294447e+00 -3.0555618293e+00 1.7641294447e+00 3.0555618293e+00 
26800 6.9088046641e+00 2.0850390076e-02 1.7635264280e+00 -3.0545173737e+00 1.7635264280e+00 3.0545173737e+00 
26900 6.9087518045e+00 2.0402080454e-02 1.7629353049e+00 -3.0534935185e+00 1.7629353049e+00 3.0534935185e+00 
27000 6.9087050274e+00 1.9933686526e-02 1.7623566970e+00 -3.0524913403e+00 1.7623566970e+00 3.0524913403e+00 
27100 6.9086641624e+00 1.9446617767e-02 1.7617911866e+00 -3.0515118476e+00 1.7617911866e+00 3.0515118476e+00 
27200 6.9086290054e+00 1.8942278325e-02 1.7612393164e+00 -3.0505559803e+00 1.7612393164e+00 3.0505559803e+00 
27300 6.9085993213e+00 1.8422064323e-02 1.7607015895e+00 -3.0496246100e+00 1.7607015895e+00 3.0496246100e+00 
27400 6.9085748472e+00 1.7887361322e-02 1.7601784699e+00 -3.0487185402e+00 1.7601784699e+00 3.0487185402e+00 
27500 6.9085552961e+00 1.7339541895e-02 1.7596703822e+00 -3.0478385065e+00 1.7596703822e+00 3.0478385065e+00 
27600 6.9085403596e+00 1.6779963354e-02 1.7591777123e+00 -3.0469851772e+00 1.7591777123e+00 3.0469851772e+00 
27700 6.9085297114e+00 1.6209965606e-02 1.7587008075e+00 -3.0461591539e+00 1.7587008075e+00 3.0461591539e+00 
27800 6.9085230107e+00 1.5630869135e-02 1.7582399771e+00 -3.0453609722e+00 1.7582399771e+00 3.0453609722e+00 
27900 6.9085199053e+00 1.5043973118e-02 1.7577954925e+00 -3.0445911024e+00 1.7577954925e+00 3.0445911024e+00 
28000 6.9085200346e+00 1.4450553672e-02 1.7573675883e+00 -3.0438499505e+00 1.7573675883e+00 3.0438499505e+00 
28100 6.9085230329e+00 1.3851862214e-02 1.7569564623e+00 -3.0431378594e+00 1.7569564623e+00 3.0431378594e+00 
28200 6.9085285323e+00 1.3249123949e-02 1.7565622765e+00 -3.0424551096e+00 1.7565622765e+00 3.0424551096e+00 
28300 6.9085361652e+00 1.2643536469e-02 1.7561851578e+00 -3.0418019209e+00 1.7561851578e+00 3.0418019209e+00 
28400 6.9085455674e+00 1.2036268474e-02 1.7558251985e+00 -3.0411784530e+00 1.7558251985e+00 3.0411784530e+00 
28500 6.9085563803e+00 1.1428458584e-02 1.7554824572e+00 -3.0405848076e+00 1.7554824572e+00 3.0405848076e+00 
28600 6.9085682536e+00 1.0821214275e-02 1.7551569596e+00 -3.0400210293e+00 1.7551569596e+00 3.0400210293e+00 
28700 6.9085808470e+00 1.0215610905e-02 1.7548486995e+00 -3.0394871072e+00 1.7548486995e+00 3.0394871072e+00 
28800 6.9085938327e+00 9.6126908326e-03 1.7545576394e+00 -3.0389829763e+00 1.7545576394e+00 3.0389829763e+00 
28900 6.9086068968e+00 9.0134626417e-03 1.7542837117e+00 -3.0385085195e+00 1.7542837117e+00 3.0385085195e+00 
29000 6.9086197411e+00 8.4189004404e-03 1.7540268193e+00 -3.0380635688e+00 1.7540268193e+00 3.0380635688e+00 
29100 6.9086320848e+00 7.8299432531e-03 1.7537868370e+00 -3.0376479073e+00 1.7537868370e+00 3.0376479073e+00 
29200 6.9086436650e+00 7.2474944903e-03 1.7535636121e+00 -3.0372612704e+00 1.7535636121e+00 3.0372612704e+00 
29300 6.9086542385e+00 6.6724214961e-03 1.7533569657e+00 -3.0369033484e+00 1.7533569657e+00 3.0369033484e+00 
29400 6.9086635821e+00 6.1055551686e-03 1.7531666935e+00 -3.0365737873e+00 1.7531666935e+00 3.0365737873e+00 
29500 6.9086714936e+00 5.5476896513e-03 1.7529925671e+00 -3.0362721914e+00 1.7529925671e+00 3.0362721914e+00 
29600 6.9086777921e+00 4.9995820906e-03 1.7528343346e+00 -3.0359981248e+00 1.7528343346e+00 3.0359981248e+00 
29700 6.9086823183e+00 4.4619524577e-03 1.7526917223e+00 -3.0357511131e+00 1.7526917223e+00 3.0357511131e+00 
29800 6.9086849346e+00 3.9354834305e-03 1.7525644353e+00 -3.0355306455e+00 1.7525644353e+00 3.0355306455e+00 
29900 6.9086855251e+00 3.4208203344e-03 1.7524521586e+00 -3.0353361766e+00 1.7524521586e+00 3.0353361766e+00 
30000 6.9086839955e+00 2.9185711377e-03 1.7523545586e+00 -3.0351671283e+00 1.7523545586e+00 3.0351671283e+00 
30100 6.9086802724e+00 2.4293065005e-03 1.7522712835e+00 -3.0350228917e+00 1.7522712835e+00 3.0350228917e+00 
30200 6.9086743032e+00 1.9535598738e-03 1.7522019652e+00 -3.0349028289e+00 1.7522019652e+00 3.0349028289e+00 
30300 6.9086660554e+00 1.4918276475e-03 1.7521462196e+00 -3.0348062747e+00 1.7521462196e+00 3.0348062747e+00 
30400 6.9086555157e+00 1.0445693440e-03 1.7521036484e+00 -3.0347325391e+00 1.7521036484e+00 3.0347325391e+00 
30500 6.9086426892e+00 6.1220785712e-04 1.7520738395e+00 -3.0346809086e+00 1.7520738395e+00 3.0346809086e+00 
30600 6.9086275990e+00 1.9512973321e-04 1.7520563685e+00 -3.0346506480e+00 1.7520563685e+00 3.0346506480e+00 
30700 6.9086102842e+00 -2.0631450666e-04 1.7520508000e+00 -3.0346410030e+00 1.7520508000e+00 3.0346410030e+00 
30800 6.9085907998e+00 -5.9181000494e-04 1.7520566878e+00 -3.0346512009e+00 1.7520566878e+00 3.0346512009e+00 
30900 6.9085692150e+00 -9.6107716799e-04 1.7520735768e+00 -3.0346804536e+00 1.7520735768e+00 3.0346804536e+00 
31000 6.9085456123e+00 -1.3138712298e-03 1.7521010037e+00 -3.0347279584e+00 1.7521010037e+00 3.0347279584e+00 
31100 6.9085200861e+00 -1.6499817805e-03 1.7521384980e+00 -3.0347929005e+00 1.7521384980e+00 3.0347929005e+00 
31200 6.9084927415e+00 -1.9692322610e-03 1.7521855830e+00 -3.0348744541e+00 1.7521855830e+00 3.0348744541e+00 
31300 6.9084636932e+00 -2.2714794240e-03 1.7522417769e+00 -3.0349717848e+00 1.7522417769e+00 3.0349717848e+00 
31400 6.9084330641e+00 -2.5566127648e-03 1.7523065937e+00 -3.0350840507e+00 1.7523065937e+00 3.0350840507e+00 
31500 6.9084009839e+00 -2.8245539201e-03 1.7523795441e+00 -3.0352104046e+00 1.7523795441e+00 3.0352104046e+00 
31600 6.9083675883e+00 -3.0752560378e-03 1.7524601367e+00 -3.0353499950e+00 1.7524601367e+00 3.0353499950e+00 
31700 6.9083330171e+00 -3.3087031186e-03 1.7525478786e+00 -3.0355019683e+00 1.7525478786e+00 3.0355019683e+00 
31800 6.9082974137e+00 -3.5249093294e-03 1.7526422763e+00 -3.0356654701e+00 1.7526422763e+00 3.0356654701e+00 
31900 6.9082609234e+00 -3.7239182915e-03 1.7527428372e+00 -3.0358396466e+00 1.7527428372e+00 3.0358396466e+00 
32000 6.9082236926e+00 -3.9058023416e-03 1.7528490694e+00 -3.0360236462e+00 1.7528490694e+00 3.0360236462e+00 
32100 6.9081858674e+00 -4.0706617703e-03 1.7529604835e+00 -3.0362166212e+00 1.7529604835e+00 3.0362166212e+00 
32200 6.9081475931e+00 -4.2186240354e-03 1.7530765930e+00 -3.0364177287e+00 1.7530765930e+00 3.0364177287e+00 
32300 6.9081090126e+00 -4.3498429543e-03 1.7531969150e+00 -3.0366261324e+00 1.7531969150e+00 3.0366261324e+00 
32400 6.9080702657e+00 -4.4644978740e-03 1.7533209711e+00 -3.0368410039e+00 1.7533209711e+00 3.0368410039e+00 
32500 6.9080314887e+00 -4.5627928214e-03 1.7534482881e+00 -3.0370615234e+00 1.7534482881e+00 3.0370615234e+00 
32600 6.9079928128e+00 -4.6449556341e-03 1.7535783988e+00 -3.0372868818e+00 1.7535783988e+00 3.0372868818e+00 
32700 6.9079543642e+00 -4.7112370731e-03 1.7537108427e+00 -3.0375162813e+00 1.7537108427e+00 3.0375162813e+00 
32800 6.9079162628e+00 -4.7619099188e-03 1.7538451663e+00 -3.0377489367e+00 1.7538451663e+00 3.0377489367e+00 
32900 6.9078786221e+00 -4.7972680507e-03 1.7539809244e+00 -3.0379840765e+00 1.7539809244e+00 3.0379840765e+00 
33000 6.9078415484e+00 -4.8176255129e-03 1.7541176799e+00 -3.0382209440e+00 1.7541176799e+00 3.0382209440e+00 
33100 6.9078051405e+00 -4.8233155658e-03 1.7542550050e+00 -3.0384587981e+00 1.7542550050e+00 3.0384587981e+00 
33200 6.9077694894e+00 -4.8146897257e-03 1.7543924815e+00 -3.0386969144e+00 1.7543924815e+00 3.0386969144e+00 
33300 6.9077346778e+00 -4.7921167937e-03 1.7545297015e+00 -3.0389345863e+00 1.7545297015e+00 3.0389345863e+00 
33400 6.9077007801e+00 -4.7559818743e-03 1.7546662674e+00 -3.0391711254e+00 1.7546662674e+00 3.0391711254e+00 
33500 6.9076678623e+00 -4.7066853868e-03 1.7548017930e+00 -3.0394058626e+00 1.7548017930e+00 3.0394058626e+00 
33600 6.9076359816e+00 -4.6446420684e-03 1.7549359034e+00 -3.0396381487e+00 1.7549359034e+00 3.0396381487e+00 
33700 6.9076051866e+00 -4.5702799727e-03 1.7550682359e+00 -3.0398673553e+00 1.7550682359e+00 3.0398673553e+00 
33800 6.9075755175e+00 -4.4840394640e-03 1.7551984399e+00 -3.0400928752e+00 1.7551984399e+00 3.0400928752e+00 
33900 6.9075470057e+00 -4.3863722079e-03 1.7553261774e+00 -3.0403141231e+00 1.7553261774e+00 3.0403141231e+00 
34000 6.9075196746e+00 -4.2777401617e-03 1.7554511235e+00 -3.0405305361e+00 1.7554511235e+00 3.0405305361e+00 
34100 6.9074935393e+00 -4.1586145646e-03 1.7555729665e+00 -3.0407415744e+00 1.7555729665e+00 3.0407415744e+00 
34200 6.9074686071e+00 -4.0294749290e-03 1.7556914082e+00 -3.0409467215e+00 1.7556914082e+00 3.0409467215e+00 
34300 6.9074448775e+00 -3.8908080361e-03 1.7558061641e+00 -3.0411454845e+00 1.7558061641e+00 3.0411454845e+00 
34400 6.9074223430e+00 -3.7431069347e-03 1.7559169636e+00 -3.0413373949e+00 1.7559169636e+00 3.0413373949e+00 
34500 6.9074009890e+00 -3.5868699478e-03 1.7560235502e+00 -3.0415220083e+00 1.7560235502e+00 3.0415220083e+00 
34600 6.9073807947e+00 -3.4225996851e-03 1.7561256817e+00 -3.0416989052e+00 1.7561256817e+00 3.0416989052e+00 
34700 6.9073617330e+00 -3.2508020663e-03 1.7562231301e+00 -3.0418676907e+00 1.7562231301e+00 3.0418676907e+00 
34800 6.9073437712e+00 -3.0719853542e-03 1.7563156818e+00 -3.0420279950e+00 1.7563156818e+00 3.0420279950e+00 
34900 6.9073268714e+00 -2.8866591998e-03 1.7564031379e+00 -3.0421794735e+00 1.7564031379e+00 3.0421794735e+00 
35000 6.9073109913e+00 -2.6953337022e-03 1.7564853139e+00 -3.0423218064e+00 1.7564853139e+00 3.0423218064e+00 
35100 6.9072960841e+00 -2.4985184823e-03 1.7565620396e+00 -3.0424546993e+00 1.7565620396e+00 3.0424546993e+00 
35200 6.9072820996e+00 -2.2967217743e-03 1.7566331597e+00 -3.0425778828e+00 1.7566331597e+00 3.0425778828e+00 
35300 6.9072689841e+00 -2.0904495340e-03 1.7566985329e+00 -3.0426911126e+00 1.7566985329e+00 3.0426911126e+00 
35400 6.9072566816e+00 -1.8802045681e-03 1.7567580326e+00 -3.0427941691e+00 1.7567580326e+00 3.0427941691e+00 
35500 6.9072451336e+00 -1.6664856824e-03 1.7568115464e+00 -3.0428868576e+00 1.7568115464e+00 3.0428868576e+00 
35600 6.9072342801e+00 -1.4497868541e-03 1.7568589759e+00 -3.0429690079e+00 1.7568589759e+00 3.0429690079e+00 
35700 6.9072240599e+00 -1.2305964257e-03 1.7569002368e+00 -3.0430404739e+00 1.7569002368e+00 3.0430404739e+00 
35800 6.9072144109e+00 -1.0093963248e-03 1.7569352587e+00 -3.0431011337e+00 1.7569352587e+00 3.0431011337e+00 
35900 6.9072052709e+00 -7.8666130886e-04 1.7569639848e+00 -3.0431508888e+00 1.7569639848e+00 3.0431508888e+00 
36000 6.9071965777e+00 -5.6285823760e-04 1.7569863718e+00 -3.0431896642e+00 1.7569863718e+00 3.0431896642e+00 
36100 6.9071882699e+00 -3.3844537269e-04 1.7570023896e+00 -3.0432174078e+00 1.7570023896e+00 3.0432174078e+00 
36200 6.9071802869e+00 -1.1387170694e-04 1.7570120209e+00 -3.0432340897e+00 1.7570120209e+00 3.0432340897e+00 
36300 6.9071725693e+00 1.1042367686e-04 1.7570152614e+00 -3.0432397024e+00 1.7570152614e+00 3.0432397024e+00 
36400 6.9071650596e+00 3.3401221621e-04 1.7570121190e+00 -3.0432342597e+00 1.7570121190e+00 3.0432342597e+00 
36500 6.9071577023e+00 5.5647644761e-04 1.7570026139e+00 -3.0432177964e+00 1.7570026139e+00 3.0432177964e+00 
36600 6.9071504440e+00 7.7741055298e-04 1.7569867780e+00 -3.0431903677e+00 1.7569867780e+00 3.0431903677e+00 
36700 6.9071432339e+00 9.9642087316e-04 1.7569646546e+00 -3.0431520489e+00 1.7569646546e+00 3.0431520489e+00 
36800 6.9071360241e+00 1.2131263879e-03 1.7569362984e+00 -3.0431029345e+00 1.7569362984e+00 3.0431029345e+00 
36900 6.9071287695e+00 1.4271591620e-03 1.7569017746e+00 -3.0430431375e+00 1.7569017746e+00 3.0430431375e+00 
37000 6.9071214283e+00 1.6381647567e-03 1.7568611590e+00 -3.0429727892e+00 1.7568611590e+00 3.0429727892e+00 
37100 6.9071139619e+00 1.8458026071e-03 1.7568145373e+00 -3.0428920380e+00 1.7568145373e+00 3.0428920380e+00 
37200 6.9071063351e+00 2.0497463642e-03 1.7567620049e+00 -3.0428010492e+00 1.7567620049e+00 3.0428010492e+00 
37300 6.9070985163e+00 2.2496842018e-03 1.7567036664e+00 -3.0427000041e+00 1.7567036664e+00 3.0427000041e+00 
37400 6.9070904774e+00 2.4453190888e-03 1.7566396354e+00 -3.0425890991e+00 1.7566396354e+00 3.0425890991e+00 
37500 6.9070821938e+00 2.6363690266e-03 1.7565700337e+00 -3.0424685454e+00 1.7565700337e+00 3.0424685454e+00 
37600 6.9070736445e+00 2.8225672504e-03 1.7564949911e+00 -3.0423385679e+00 1.7564949911e+00 3.0423385679e+00 
37700 6.9070648123e+00 3.0036623976e-03 1.7564146452e+00 -3.0421994046e+00 1.7564146452e+00 3.0421994046e+00 
37800 6.9070556831e+00 3.1794186406e-03 1.7563291403e+00 -3.0420513059e+00 1.7563291403e+00 3.0420513059e+00 
37900 6.9070462467e+00 3.3496157856e-03 1.7562386279e+00 -3.0418945338e+00 1.7562386279e+00 3.0418945338e+00 
38000 6.9070364960e+00 3.5140493385e-03 1.7561432655e+00 -3.0417293611e+00 1.7561432655e+00 3.0417293611e+00 
38100 6.9070264272e+00 3.6725305375e-03 1.7560432162e+00 -3.0415560708e+00 1.7560432162e+00 3.0415560708e+00 
38200 6.9070160396e+00 3.8248863528e-03 1.7559386489e+00 -3.0413749549e+00 1.7559386489e+00 3.0413749549e+00 
38300 6.9070053355e+00 3.9709594552e-03 1.7558297372e+00 -3.0411863142e+00 1.7558297372e+00 3.0411863142e+00 
38400 6.9069943202e+00 4.1106081532e-03 1.7557166591e+00 -3.0409904573e+00 1.7557166591e+00 3.0409904573e+00 
38500 6.9069830015e+00 4.2437063006e-03 1.7555995969e+00 -3.0407876995e+00 1.7555995969e+00 3.0407876995e+00 
38600 6.9069713897e+00 4.3701431738e-03 1.7554787362e+00 -3.0405783628e+00 1.7554787362e+00 3.0405783628e+00 
38700 6.9069594973e+00 4.4898233216e-03 1.7553542661e+00 -3.0403627743e+00 1.7553542661e+00 3.0403627743e+00 
38800 6.9069473391e+00 4.6026663868e-03 1.7552263783e+00 -3.0401412660e+00 1.7552263783e+00 3.0401412660e+00 
38900 6.9069349317e+00 4.7086069021e-03 1.7550952668e+00 -3.0399141742e+00 1.7550952668e+00 3.0399141742e+00 
39000 6.9069222932e+00 4.8075940606e-03 1.7549611274e+00 -3.0396818380e+00 1.7549611274e+00 3.0396818380e+00 
39100 6.9069094435e+00 4.8995914614e-03 1.7548241577e+00 -3.0394445994e+00 1.7548241577e+00 3.0394445994e+00 
39200 6.9068964035e+00 4.9845768327e-03 1.7546845560e+00 -3.0392028023e+00 1.7546845560e+00 3.0392028023e+00 
39300 6.9068831953e+00 5.0625417336e-03 1.7545425217e+00 -3.0389567916e+00 1.7545425217e+00 3.0389567916e+00 
39400 6.9068698417e+00 5.1334912336e-03 1.7543982541e+00 -3.0387069128e+00 1.7543982541e+00 3.0387069128e+00 
39500 6.9068563662e+00 5.1974435747e-03 1.7542519527e+00 -3.0384535113e+00 1.7542519527e+00 3.0384535113e+00 
39600 6.9068427928e+00 5.2544298135e-03 1.7541038163e+00 -3.0381969316e+00 1.7541038163e+00 3.0381969316e+00 
39700 6.9068291457e+00 5.3044934473e-03 1.7539540431e+00 -3.0379375168e+00 1.7539540431e+00 3.0379375168e+00 
39800 6.9068154490e+00 5.3476900250e-03 1.7538028300e+00 -3.0376756079e+00 1.7538028300e+00 3.0376756079e+00 
39900 6.9068017268e+00 5.3840867419e-03 1.7536503723e+00 -3.0374115436e+00 1.7536503723e+00 3.0374115436e+00 
40000 6.9067880030e+00 5.4137620235e-03 1.7534968637e+00 -3.0371456589e+00 1.7534968637e+00 3.0371456589e+00 
40100 6.9067743009e+00 5.4368050957e-03 1.7533424955e+00 -3.0368782854e+00 1.7533424955e+00 3.0368782854e+00 
40200 6.9067606432e+00 5.4533155457e-03 1.7531874567e+00 -3.0366097501e+00 1.7531874567e+00 3.0366097501e+00 
40300 6.9067470518e+00 5.4634028725e-03 1.7530319332e+00 -3.0363403756e+00 1.7530319332e+00 3.0363403756e+00 
40400 6.9067335479e+00 5.4671860299e-03 1.7528761083e+00 -3.0360704789e+00 1.7528761083e+00 3.0360704789e+00 
40500 6.9067201515e+00 5.4647929630e-03 1.7527201616e+00 -3.0358003713e+00 1.7527201616e+00 3.0358003713e+00 
40600 6.9067068817e+00 5.4563601376e-03 1.7525642693e+00 -3.0355303579e+00 1.7525642693e+00 3.0355303579e+00 
40700 6.9066937562e+00 5.4420320669e-03 1.7524086037e+00 -3.0352607372e+00 1.7524086037e+00 3.0352607372e+00 
40800 6.9066807917e+00 5.4219608332e-03 1.7522533330e+00 -3.0349918006e+00 1.7522533330e+00 3.0349918006e+00 
40900 6.9066680033e+00 5.3963056084e-03 1.7520986214e+00 -3.0347238321e+00 1.7520986214e+00 3.0347238321e+00 
41000 6.9066554049e+00 5.3652321731e-03 1.7519446281e+00 -3.0344571080e+00 1.7519446281e+00 3.0344571080e+00 
41100 6.9066430090e+00 5.3289124350e-03 1.7517915082e+00 -3.0341918964e+00 1.7517915082e+00 3.0341918964e+00 
41200 6.9066308264e+00 5.2875239489e-03 1.7516394114e+00 -3.0339284572e+00 1.7516394114e+00 3.0339284572e+00 
41300 6.9066188667e+00 5.2412494384e-03 1.7514884829e+00 -3.0336670412e+00 1.7514884829e+00 3.0336670412e+00 
41400 6.9066071379e+00 5.1902763200e-03 1.7513388623e+00 -3.0334078908e+00 1.7513388623e+00 3.0334078908e+00 
41500 6.9065956466e+00 5.1347962313e-03 1.7511906841e+00 -3.0331512387e+00 1.7511906841e+00 3.0331512387e+00 
41600 6.9065843979e+00 5.0750045638e-03 1.7510440775e+00 -3.0328973085e+00 1.7510440775e+00 3.0328973085e+00 
41700 6.9065733955e+00 5.0111000005e-03 1.7508991658e+00 -3.0326463141e+00 1.7508991658e+00 3.0326463141e+00 
41800 6.9065626417e+00 4.9432840608e-03 1.7507560670e+00 -3.0323984597e+00 1.7507560670e+00 3.0323984597e+00 
41900 6.9065521374e+00 4.8717606508e-03 1.7506148932e+00 -3.0321539395e+00 1.7506148932e+00 3.0321539395e+00 
42000 6.9065418823e+00 4.7967356225e-03 1.7504757508e+00 -3.0319129378e+00 1.7504757508e+00 3.0319129378e+00 
42100 6.9065318748e+00 4.7184163403e-03 1.7503387402e+00 -3.0316756285e+00 1.7503387402e+00 3.0316756285e+00 
42200 6.9065221121e+00 4.6370112570e-03 1.7502039561e+00 -3.0314421756e+00 1.7502039561e+00 3.0314421756e+00 
42300 6.9065125904e+00 4.5527294989e-03 1.7500714872e+00 -3.0312127327e+00 1.7500714872e+00 3.0312127327e+00 
42400 6.9065033047e+00 4.4657804608e-03 1.7499414162e+00 -3.0309874431e+00 1.7499414162e+00 3.0309874431e+00 
42500 6.9064942493e+00 4.3763734113e-03 1.7498138197e+00 -3.0307664395e+00 1.7498138197e+00 3.0307664395e+00 
42600 6.9064854173e+00 4.2847171095e-03 1.7496887687e+00 -3.0305498447e+00 1.7496887687e+00 3.0305498447e+00 
42700 6.9064768013e+00 4.1910194327e-03 1.7495663278e+00 -3.0303377710e+00 1.7495663278e+00 3.0303377710e+00 
42800 6.9064683931e+00 4.0954870149e-03 1.7494465561e+00 -3.0301303203e+00 1.7494465561e+00 3.0301303203e+00 
42900 6.9064601837e+00 3.9983248992e-03 1.7493295065e+00 -3.0299275844e+00 1.7493295065e+00 3.0299275844e+00 
43000 6.9064521639e+00 3.8997362001e-03 1.7492152261e+00 -3.0297296449e+00 1.7492152261e+00 3.0297296449e+00 
43100 6.9064443239e+00 3.7999217806e-03 1.7491037562e+00 -3.0295365735e+00 1.7491037562e+00 3.0295365735e+00 
43200 6.9064366534e+00 3.6990799401e-03 1.7489951325e+00 -3.0293484317e+00 1.7489951325e+00 3.0293484317e+00 
43300 6.9064291421e+00 3.5974061168e-03 1.7488893849e+00 -3.0291652714e+00 1.7488893849e+00 3.0291652714e+00 
43400 6.9064217793e+00 3.4950926022e-03 1.7487865376e+00 -3.0289871347e+00 1.7487865376e+00 3.0289871347e+00 
43500 6.9064145544e+00 3.3923282691e-03 1.7486866095e+00 -3.0288140541e+00 1.7486866095e+00 3.0288140541e+00 
43600 6.9064074566e+00 3.2892983134e-03 1.7485896139e+00 -3.0286460528e+00 1.7485896139e+00 3.0286460528e+00 
43700 6.9064004752e+00 3.1861840083e-03 1.7484955590e+00 -3.0284831450e+00 1.7484955590e+00 3.0284831450e+00 
43800 6.9063935996e+00 3.0831624734e-03 1.7484044476e+00 -3.0283253354e+00 1.7484044476e+00 3.0283253354e+00 
43900 6.9063868194e+00 2.9804064558e-03 1.7483162776e+00 -3.0281726205e+00 1.7483162776e+00 3.0281726205e+00 
44000 6.9063801245e+00 2.8780841257e-03 1.7482310418e+00 -3.0280249878e+00 1.7482310418e+00 3.0280249878e+00 
44100 6.9063735051e+00 2.7763588850e-03 1.7481487283e+00 -3.0278824166e+00 1.7481487283e+00 3.0278824166e+00 
44200 6.9063669516e+00 2.6753891894e-03 1.7480693203e+00 -3.0277448780e+00 1.7480693203e+00 3.0277448780e+00 
44300 6.9063604549e+00 2.5753283841e-03 1.7479927968e+00 -3.0276123353e+00 1.7479927968e+00 3.0276123353e+00 
44400 6.9063540064e+00 2.4763245522e-03 1.7479191320e+00 -3.0274847441e+00 1.7479191320e+00 3.0274847441e+00 
44500 6.9063475980e+00 2.3785203767e-03 1.7478482961e+00 -3.0273620528e+00 1.7478482961e+00 3.0273620528e+00 
44600 6.9063412220e+00 2.2820530155e-03 1.7477802552e+00 -3.0272442024e+00 1.7477802552e+00 3.0272442024e+00 
44700 6.9063348714e+00 2.1870539889e-03 1.7477149713e+00 -3.0271311274e+00 1.7477149713e+00 3.0271311274e+00 
44800 6.9063285395e+00 2.0936490802e-03 1.7476524027e+00 -3.0270227554e+00 1.7476524027e+00 3.0270227554e+00 
44900 6.9063222205e+00 2.0019582490e-03 1.7475925041e+00 -3.0269190081e+00 1.7475925041e+00 3.0269190081e+00 
45000 6.9063159090e+00 1.9120955560e-03 1.7475352268e+00 -3.0268198009e+00 1.7475352268e+00 3.0268198009e+00 
45100 6.9063096003e+00 1.8241691010e-03 1.7474805188e+00 -3.0267250437e+00 1.7474805188e+00 3.0267250437e+00 
45200 6.9063032902e+00 1.7382809723e-03 1.7474283248e+00 -3.0266346411e+00 1.7474283248e+00 3.0266346411e+00 
45300 6.9062969752e+00 1.6545272079e-03 1.7473785867e+00 -3.0265484923e+00 1.7473785867e+00 3.0265484923e+00 
45400 6.9062906524e+00 1.5729977679e-03 1.7473312438e+00 -3.0264664919e+00 1.7473312438e+00 3.0264664919e+00 
45500 6.9062843193e+00 1.4937765189e-03 1.7472862326e+00 -3.0263885302e+00 1.7472862326e+00 3.0263885302e+00 
45600 6.9062779743e+00 1.4169412286e-03 1.7472434871e+00 -3.0263144929e+00 1.7472434871e+00 3.0263144929e+00 
45700 6.9062716160e+00 1.3425635717e-03 1.7472029394e+00 -3.0262442622e+00 1.7472029394e+00 3.0262442622e+00 
45800 6.9062652439e+00 1.2707091456e-03 1.7471645192e+00 -3.0261777164e+00 1.7471645192e+00 3.0261777164e+00 
45900 6.9062588578e+00 1.2014374969e-03 1.7471281544e+00 -3.0261147307e+00 1.7471281544e+00 3.0261147307e+00 
46000 6.9062524580e+00 1.1348021574e-03 1.7470937713e+00 -3.0260551775e+00 1.7470937713e+00 3.0260551775e+00 
46100 6.9062460452e+00 1.0708506899e-03 1.7470612945e+00 -3.0259989261e+00 1.7470612945e+00 3.0259989261e+00 
46200 6.9062396208e+00 1.0096247432e-03 1.7470306474e+00 -3.0259458437e+00 1.7470306474e+00 3.0259458437e+00 
46300 6.9062331862e+00 9.5116011550e-04 1.7470017521e+00 -3.0258957955e+00 1.7470017521e+00 3.0258957955e+00 
46400 6.9062267436e+00 8.9548682769e-04 1.7469745295e+00 -3.0258486446e+00 1.7469745295e+00 3.0258486446e+00 
46500 6.9062202951e+00 8.4262920376e-04 1.7469488999e+00 -3.0258042529e+00 1.7469488999e+00 3.0258042529e+00 
46600 6.9062138435e+00 7.9260595982e-04 1.7469247828e+00 -3.0257624808e+00 1.7469247828e+00 3.0257624808e+00 
46700 6.9062073916e+00 7.4543030066e-04 1.7469020971e+00 -3.0257231880e+00 1.7469020971e+00 3.0257231880e+00 
46800 6.9062009425e+00 7.0111002366e-04 1.7468807614e+00 -3.0256862334e+00 1.7468807614e+00 3.0256862334e+00 
46900 6.9061944995e+00 6.5964762966e-04 1.7468606939e+00 -3.0256514756e+00 1.7468606939e+00 3.0256514756e+00 
47000 6.9061880661e+00 6.2104044056e-04 1.7468418130e+00 -3.0256187729e+00 1.7468418130e+00 3.0256187729e+00 
47100 6.9061816458e+00 5.8528072320e-04 1.7468240369e+00 -3.0255879839e+00 1.7468240369e+00 3.0255879839e+00 
47200 6.9061752423e+00 5.5235581922e-04 1.7468072843e+00 -3.0255589674e+00 1.7468072843e+00 3.0255589674e+00 
47300 6.9061688593e+00 5.2224828056e-04 1.7467914738e+00 -3.0255315829e+00 1.7467914738e+00 3.0255315829e+00 
47400 6.9061625006e+00 4.9493601025e-04 1.7467765251e+00 -3.0255056909e+00 1.7467765251e+00 3.0255056909e+00 
47500 6.9061561699e+00 4.7039240812e-04 1.7467623580e+00 -3.0254811527e+00 1.7467623580e+00 3.0254811527e+00 
47600 6.9061498709e+00 4.4858652110e-04 1.7467488933e+00 -3.0254578312e+00 1.7467488933e+00 3.0254578312e+00 
47700 6.9061436072e+00 4.2948319779e-04 1.7467360527e+00 -3.0254355907e+00 1.7467360527e+00 3.0254355907e+00 
47800 6.9061373824e+00 4.1304324686e-04 1.7467237588e+00 -3.0254142971e+00 1.7467237588e+00 3.0254142971e+00 
47900 6.9061312000e+00 3.9922359901e-04 1.7467119355e+00 -3.0253938184e+00 1.7467119355e+00 3.0253938184e+00 
48000 6.9061250632e+00 3.8797747217e-04 1.7467005076e+00 -3.0253740248e+00 1.7467005076e+00 3.0253740248e+00 
48100 6.9061189752e+00 3.7925453949e-04 1.7466894016e+00 -3.0253547887e+00 1.7466894016e+00 3.0253547887e+00 
48200 6.9061129390e+00 3.7300109983e-04 1.7466785453e+00 -3.0253359849e+00 1.7466785453e+00 3.0253359849e+00 
48300 6.9061069573e+00 3.6916025046e-04 1.7466678678e+00 -3.0253174910e+00 1.7466678678e+00 3.0253174910e+00 
48400 6.9061010327e+00 3.6767206155e-04 1.7466573003e+00 -3.0252991875e+00 1.7466573003e+00 3.0252991875e+00 
48500 6.9060951677e+00 3.6847375213e-04 1.7466467753e+00 -3.0252809576e+00 1.7466467753e+00 3.0252809576e+00 
48600 6.9060893643e+00 3.7149986724e-04 1.7466362272e+00 -3.0252626879e+00 1.7466362272e+00 3.0252626879e+00 
48700 6.9060836246e+00 3.7668245590e-04 1.7466255925e+00 -3.0252442681e+00 1.7466255925e+00 3.0252442681e+00 
48800 6.9060779501e+00 3.8395124955e-04 1.7466148094e+00 -3.0252255911e+00 1.7466148094e+00 3.0252255911e+00 
48900 6.9060723423e+00 3.9323384073e-04 1.7466038181e+00 -3.0252065537e+00 1.7466038181e+00 3.0252065537e+00 
49000 6.9060668025e+00 4.0445586159e-04 1.7465925610e+00 -3.0251870558e+00 1.7465925610e+00 3.0251870558e+00 
49100 6.9060613315e+00 4.1754116193e-04 1.7465809826e+00 -3.0251670014e+00 1.7465809826e+00 3.0251670014e+00 
49200 6.9060559302e+00 4.3241198665e-04 1.7465690295e+00 -3.0251462981e+00 1.7465690295e+00 3.0251462981e+00 
49300 6.9060505989e+00 4.4898915195e-04 1.7465566506e+00 -3.0251248572e+00 1.7465566506e+00 3.0251248572e+00 
49400 6.9060453380e+00 4.6719222042e-04 1.7465437971e+00 -3.0251025942e+00 1.7465437971e+00 3.0251025942e+00 
49500 6.9060401475e+00 4.8693967437e-04 1.7465304224e+00 -3.0250794285e+00 1.7465304224e+00 3.0250794285e+00 
49600 6.9060350271e+00 5.0814908739e-04 1.7465164822e+00 -3.0250552834e+00 1.7465164822e+00 3.0250552834e+00 
49700 6.9060299766e+00 5.3073729373e-04 1.7465019347e+00 -3.0250300864e+00 1.7465019347e+00 3.0250300864e+00 
49800 6.9060249953e+00 5.5462055527e-04 1.7464867404e+00 -3.0250037692e+00 1.7464867404e+00 3.0250037692e+00 
49900 6.9060200823e+00 5.7971472589e-04 1.7464708623e+00 -3.0249762674e+00 1.7464708623e+00 3.0249762674e+00 
50000 6.9060152368e+00 6.0593541294e-04 1.7464542655e+00 -3.0249475210e+00 1.7464542655e+00 3.0249475210e+00 
50100 6.9060104577e+00 6.3319813556e-04 1.7464369180e+00 -3.0249174742e+00 1.7464369180e+00 3.0249174742e+00 
50200 6.9060057436e+00 6.6141847977e-04 1.7464187897e+00 -3.0248860751e+00 1.7464187897e+00 3.0248860751e+00 
50300 6.9060010932e+00 6.9051224990e-04 1.7463998533e+00 -3.0248532763e+00 1.7463998533e+00 3.0248532763e+00 
50400 6.9059965049e+00 7.2039561638e-04 1.7463800838e+00 -3.0248190345e+00 1.7463800838e+00 3.0248190345e+00 
50500 6.9059919771e+00 7.5098525956e-04 1.7463594584e+00 -3.0247833103e+00 1.7463594584e+00 3.0247833103e+00 
50600 6.9059875080e+00 7.8219850940e-04 1.7463379570e+00 -3.0247460688e+00 1.7463379570e+00 3.0247460688e+00 
50700 6.9059830959e+00 8.1395348095e-04 1.7463155617e+00 -3.0247072789e+00 1.7463155617e+00 3.0247072789e+00 
50800 6.9059787388e+00 8.4616920533e-04 1.7462922569e+00 -3.0246669137e+00 1.7462922569e+00 3.0246669137e+00 
50900 6.9059744349e+00 8.7876575622e-04 1.7462680293e+00 -3.0246249504e+00 1.7462680293e+00 3.0246249504e+00 
51000 6.9059701821e+00 9.1166437151e-04 1.7462428681e+00 -3.0245813699e+00 1.7462428681e+00 3.0245813699e+00 
51100 6.9059659785e+00 9.4478757027e-04 1.7462167646e+00 -3.0245361573e+00 1.7462167646e+00 3.0245361573e+00 
51200 6.9059618221e+00 9.7805926463e-04 1.7461897123e+00 -3.0244893013e+00 1.7461897123e+00 3.0244893013e+00 
51300 6.9059577108e+00 1.0114048668e-03 1.7461617068e+00 -3.0244407944e+00 1.7461617068e+00 3.0244407944e+00 
51400 6.9059536427e+00 1.0447513905e-03 1.7461327461e+00 -3.0243906330e+00 1.7461327461e+00 3.0243906330e+00 
51500 6.9059496157e+00 1.0780275481e-03 1.7461028300e+00 -3.0243388168e+00 1.7461028300e+00 3.0243388168e+00 
51600 6.9059456281e+00 1.1111638414e-03 1.7460719606e+00 -3.0242853494e+00 1.7460719606e+00 3.0242853494e+00 
51700 6.9059416779e+00 1.1440926476e-03 1.7460401417e+00 -3.0242302375e+00 1.7460401417e+00 3.0242302375e+00 
51800 6.9059377632e+00 1.1767483002e-03 1.7460073793e+00 -3.0241734914e+00 1.7460073793e+00 3.0241734914e+00 
51900 6.9059338824e+00 1.2090671637e-03 1.7459736812e+00 -3.0241151244e+00 1.7459736812e+00 3.0241151244e+00 
52000 6.9059300337e+00 1.2409877038e-03 1.7459390568e+00 -3.0240551534e+00 1.7459390568e+00 3.0240551534e+00 
52100 6.9059262154e+00 1.2724505512e-03 1.7459035177e+00 -3.0239935978e+00 1.7459035177e+00 3.0239935978e+00 
52200 6.9059224262e+00 1.3033985608e-03 1.7458670768e+00 -3.0239304803e+00 1.7458670768e+00 3.0239304803e+00 
52300 6.9059186644e+00 1.3337768649e-03 1.7458297488e+00 -3.0238658263e+00 1.7458297488e+00 3.0238658263e+00 
52400 6.9059149289e+00 1.3635329212e-03 1.7457915500e+00 -3.0237996640e+00 1.7457915500e+00 3.0237996640e+00 
52500 6.9059112182e+00 1.3926165555e-03 1.7457524982e+00 -3.0237320242e+00 1.7457524982e+00 3.0237320242e+00 
52600 6.9059075313e+00 1.4209799990e-03 1.7457126125e+00 -3.0236629402e+00 1.7457126125e+00 3.0236629402e+00 
52700 6.9059038671e+00 1.4485779199e-03 1.7456719135e+00 -3.0235924475e+00 1.7456719135e+00 3.0235924475e+00 
52800 6.9059002247e+00 1.4753674506e-03 1.7456304231e+00 -3.0235205840e+00 1.7456304231e+00 3.0235205840e+00 
52900 6.9058966031e+00 1.5013082092e-03 1.7455881644e+00 -3.0234473898e+00 1.7455881644e+00 3.0234473898e+00 
53000 6.9058930017e+00 1.5263623157e-03 1.7455451616e+00 -3.0233729068e+00 1.7455451616e+00 3.0233729068e+00 
53100 6.9058894198e+00 1.5504944039e-03 1.7455014402e+00 -3.0232971790e+00 1.7455014402e+00 3.0232971790e+00 
53200 6.9058858569e+00 1.5736716274e-03 1.7454570263e+00 -3.0232202520e+00 1.7454570263e+00 3.0232202520e+00 
53300 6.9058823124e+00 1.5958636621e-03 1.7454119475e+00 -3.0231421731e+00 1.7454119475e+00 3.0231421731e+00 
53400 6.9058787861e+00 1.6170427027e-03 1.7453662317e+00 -3.0230629911e+00 1.7453662317e+00 3.0230629911e+00 
53500 6.9058752777e+00 1.6371834554e-03 1.7453199080e+00 -3.0229827562e+00 1.7453199080e+00 3.0229827562e+00 
53600 6.9058717869e+00 1.6562631260e-03 1.7452730061e+00 -3.0229015197e+00 1.7452730061e+00 3.0229015197e+00 
53700 6.9058683137e+00 1.6742614033e-03 1.7452255564e+00 -3.0228193343e+00 1.7452255564e+00 3.0228193343e+00 
53800 6.9058648580e+00 1.6911604388e-03 1.7451775897e+00 -3.0227362536e+00 1.7451775897e+00 3.0227362536e+00 
53900 6.9058614199e+00 1.7069448221e-03 1.7451291375e+00 -3.0226523320e+00 1.7451291375e+00 3.0226523320e+00 
54000 6.9058579995e+00 1.7216015522e-03 1.7450802318e+00 -3.0225676247e+00 1.7450802318e+00 3.0225676247e+00 
54100 6.9058545970e+00 1.7351200054e-03 1.7450309047e+00 -3.0224821878e+00 1.7450309047e+00 3.0224821878e+00 
54200 6.9058512126e+00 1.7474918991e-03 1.7449811889e+00 -3.0223960775e+00 1.7449811889e+00 3.0223960775e+00 
54300 6.9058478466e+00 1.7587112525e-03 1.7449311172e+00 -3.0223093508e+00 1.7449311172e+00 3.0223093508e+00 
54400 6.9058444993e+00 1.7687743440e-03 1.7448807226e+00 -3.0222220647e+00 1.7448807226e+00 3.0222220647e+00 
54500 6.9058411710e+00 1.7776796651e-03 1.7448300382e+00 -3.0221342767e+00 1.7448300382e+00 3.0221342767e+00 
54600 6.9058378622e+00 1.7854278714e-03 1.7447790971e+00 -3.0220460441e+00 1.7447790971e+00 3.0220460441e+00 
54700 6.9058345733e+00 1.7920217312e-03 1.7447279325e+00 -3.0219574244e+00 1.7447279325e+00 3.0219574244e+00 
54800 6.9058313047e+00 1.7974660709e-03 1.7446765774e+00 -3.0218684748e+00 1.7446765774e+00 3.0218684748e+00 
54900 6.9058280568e+00 1.8017677179e-03 1.7446250648e+00 -3.0217792523e+00 1.7446250648e+00 3.0217792523e+00 
55000 6.9058248302e+00 1.8049354417e-03 1.7445734273e+00 -3.0216898137e+00 1.7445734273e+00 3.0216898137e+00 
55100 6.9058216253e+00 1.8069798922e-03 1.7445216976e+00 -3.0216002152e+00 1.7445216976e+00 3.0216002152e+00 
55200 6.9058184426e+00 1.8079135364e-03 1.7444699077e+00 -3.0215105125e+00 1.7444699077e+00 3.0215105125e+00 
55300 6.9058152825e+00 1.8077505932e-03 1.7444180896e+00 -3.0214207608e+00 1.7444180896e+00 3.0214207608e+00 
55400 6.9058121455e+00 1.8065069664e-03 1.7443662745e+00 -3.0213310145e+00 1.7443662745e+00 3.0213310145e+00 
55500 6.9058090321e+00 1.8042001763e-03 1.7443144936e+00 -3.0212413273e+00 1.7443144936e+00 3.0212413273e+00 
55600 6.9058059426e+00 1.8008492899e-03 1.7442627773e+00 -3.0211517520e+00 1.7442627773e+00 3.0211517520e+00 
55700 6.9058028775e+00 1.7964748502e-03 1.7442111554e+00 -3.0210623404e+00 1.7442111554e+00 3.0210623404e+00 
55800 6.9057998371e+00 1.7910988037e-03 1.7441596575e+00 -3.0209731433e+00 1.7441596575e+00 3.0209731433e+00 
55900 6.9057968218e+00 1.7847444285e-03 1.7441083121e+00 -3.0208842105e+00 1.7441083121e+00 3.0208842105e+00 
56000 6.9057938319e+00 1.7774362598e-03 1.7440571474e+00 -3.0207955907e+00 1.7440571474e+00 3.0207955907e+00 
56100 6.9057908677e+00 1.7692000167e-03 1.7440061907e+00 -3.0207073311e+00 1.7440061907e+00 3.0207073311e+00 
56200 6.9057879295e+00 1.7600625273e-03 1.7439554687e+00 -3.0206194779e+00 1.7439554687e+00 3.0206194779e+00 
56300 6.9057850174e+00 1.7500516543e-03 1.7439050071e+00 -3.0205320759e+00 1.7439050071e+00 3.0205320759e+00 
56400 6.9057821316e+00 1.7391962199e-03 1.7438548312e+00 -3.0204451686e+00 1.7438548312e+00 3.0204451686e+00 
56500 6.9057792724e+00 1.7275259315e-03 1.7438049650e+00 -3.0203587978e+00 1.7438049650e+00 3.0203587978e+00 
56600 6.9057764397e+00 1.7150713068e-03 1.7437554320e+00 -3.0202730041e+00 1.7437554320e+00 3.0202730041e+00 
56700 6.9057736338e+00 1.7018635996e-03 1.7437062547e+00 -3.0201878266e+00 1.7437062547e+00 3.0201878266e+00 
56800 6.9057708544e+00 1.6879347264e-03 1.7436574547e+00 -3.0201033026e+00 1.7436574547e+00 3.0201033026e+00 
56900 6.9057681018e+00 1.6733171925e-03 1.7436090528e+00 -3.0200194680e+00 1.7436090528e+00 3.0200194680e+00 
57000 6.9057653758e+00 1.6580440199e-03 1.7435610687e+00 -3.0199363571e+00 1.7435610687e+00 3.0199363571e+00 
57100 6.9057626763e+00 1.6421486756e-03 1.7435135213e+00 -3.0198540026e+00 1.7435135213e+00 3.0198540026e+00 
57200 6.9057600033e+00 1.6256650005e-03 1.7434664284e+00 -3.0197724354e+00 1.7434664284e+00 3.0197724354e+00 
57300 6.9057573565e+00 1.6086271396e-03 1.7434198070e+00 -3.0196916847e+00 1.7434198070e+00 3.0196916847e+00 
57400 6.9057547358e+00 1.5910694736e-03 1.7433736730e+00 -3.0196117782e+00 1.7433736730e+00 3.0196117782e+00 
57500 6.9057521409e+00 1.5730265510e-03 1.7433280413e+00 -3.0195327417e+00 1.7433280413e+00 3.0195327417e+00 
57600 6.9057495717e+00 1.5545330224e-03 1.7432829258e+00 -3.0194545995e+00 1.7432829258e+00 3.0194545995e+00 
57700 6.9057470277e+00 1.5356235752e-03 1.7432383397e+00 -3.0193773740e+00 1.7432383397e+00 3.0193773740e+00 
57800 6.9057445088e+00 1.5163328711e-03 1.7431942947e+00 -3.0193010859e+00 1.7431942947e+00 3.0193010859e+00 
57900 6.9057420146e+00 1.4966954833e-03 1.7431508019e+00 -3.0192257542e+00 1.7431508019e+00 3.0192257542e+00 
58000 6.9057395447e+00 1.4767458376e-03 1.7431078714e+00 -3.0191513963e+00 1.7431078714e+00 3.0191513963e+00 
58100 6.9057370988e+00 1.4565181531e-03 1.7430655120e+00 -3.0190780277e+00 1.7430655120e+00 3.0190780277e+00 
58200 6.9057346765e+00 1.4360463860e-03 1.7430237318e+00 -3.0190056622e+00 1.7430237318e+00 3.0190056622e+00 
58300 6.9057322774e+00 1.4153641748e-03 1.7429825378e+00 -3.0189343122e+00 1.7429825378e+00 3.0189343122e+00 
58400 6.9057299011e+00 1.3945047874e-03 1.7429419362e+00 -3.0188639881e+00 1.7429419362e+00 3.0188639881e+00 
58500 6.9057275472e+00 1.3735010701e-03 1.7429019320e+00 -3.0187946989e+00 1.7429019320e+00 3.0187946989e+00 
58600 6.9057252152e+00 1.3523853984e-03 1.7428625295e+00 -3.0187264516e+00 1.7428625295e+00 3.0187264516e+00 
58700 6.9057229048e+00 1.3311896303e-03 1.7428237318e+00 -3.0186592521e+00 1.7428237318e+00 3.0186592521e+00 
58800 6.9057206154e+00 1.3099450614e-03 1.7427855413e+00 -3.0185931043e+00 1.7427855413e+00 3.0185931043e+00 
58900 6.9057183467e+00 1.2886823816e-03 1.7427479595e+00 -3.0185280107e+00 1.7427479595e+00 3.0185280107e+00 
59000 6.9057160982e+00 1.2674316349e-03 1.7427109869e+00 -3.0184639723e+00 1.7427109869e+00 3.0184639723e+00 
59100 6.9057138695e+00 1.2462221803e-03 1.7426746233e+00 -3.0184009886e+00 1.7426746233e+00 3.0184009886e+00 
59200 6.9057116602e+00 1.2250826556e-03 1.7426388674e+00 -3.0183390575e+00 1.7426388674e+00 3.0183390575e+00 
59300 6.9057094699e+00 1.2040409430e-03 1.7426037173e+00 -3.0182781758e+00 1.7426037173e+00 3.0182781758e+00 
59400 6.9057072981e+00 1.1831241368e-03 1.7425691702e+00 -3.0182183385e+00 1.7425691702e+00 3.0182183385e+00 
59500 6.9057051444e+00 1.1623585136e-03 1.7425352226e+00 -3.0181595396e+00 1.7425352226e+00 3.0181595396e+00 
59600 6.9057030085e+00 1.1417695045e-03 1.7425018702e+00 -3.0181017715e+00 1.7425018702e+00 3.0181017715e+00 
59700 6.9057008901e+00 1.1213816691e-03 1.7424691080e+00 -3.0180450256e+00 1.7424691080e+00 3.0180450256e+00 
59800 6.9056987886e+00 1.1012186723e-03 1.7424369301e+00 -3.0179892919e+00 1.7424369301e+00 3.0179892919e+00 
59900 6.9056967038e+00 1.0813032631e-03 1.7424053302e+00 -3.0179345594e+00 1.7424053302e+00 3.0179345594e+00 
60000 6.9056946355e+00 1.0616572547e-03 1.7423743013e+00 -3.0178808157e+00 1.7423743013e+00 3.0178808157e+00 
60100 6.9056925831e+00 1.0423015084e-03 1.7423438356e+00 -3.0178280475e+00 1.7423438356e+00 3.0178280475e+00 
60200 6.9056905465e+00 1.0232559177e-03 1.7423139248e+00 -3.0177762404e+00 1.7423139248e+00 3.0177762404e+00 
60300 6.9056885254e+00 1.0045393961e-03 1.7422845600e+00 -3.0177253791e+00 1.7422845600e+00 3.0177253791e+00 
60400 6.9056865195e+00 9.8616986555e-04 1.7422557318e+00 -3.0176754473e+00 1.7422557318e+00 3.0176754473e+00 
60500 6.9056845286e+00 9.6816424818e-04 1.7422274304e+00 -3.0176264278e+00 1.7422274304e+00 3.0176264278e+00 
60600 6.9056825524e+00 9.5053845915e-04 1.7421996452e+00 -3.0175783024e+00 1.7421996452e+00 3.0175783024e+00 
60700 6.9056805907e+00 9.3330740176e-04 1.7421723655e+00 -3.0175310525e+00 1.7421723655e+00 3.0175310525e+00 
60800 6.9056786434e+00 9.1648496451e-04 1.7421455798e+00 -3.0174846584e+00 1.7421455798e+00 3.0174846584e+00 
60900 6.9056767103e+00 9.0008401994e-04 1.7421192765e+00 -3.0174390998e+00 1.7421192765e+00 3.0174390998e+00 
61000 6.9056747911e+00 8.8411642532e-04 1.7420934436e+00 -3.0173943558e+00 1.7420934436e+00 3.0173943558e+00 
61100 6.9056728858e+00 8.6859302517e-04 1.7420680685e+00 -3.0173504049e+00 1.7420680685e+00 3.0173504049e+00 
61200 6.9056709943e+00 8.5352365547e-04 1.7420431386e+00 -3.0173072251e+00 1.7420431386e+00 3.0173072251e+00 
61300 6.9056691163e+00 8.3891714960e-04 1.7420186409e+00 -3.0172647938e+00 1.7420186409e+00 3.0172647938e+00 
61400 6.9056672519e+00 8.2478134587e-04 1.7419945621e+00 -3.0172230880e+00 1.7419945621e+00 3.0172230880e+00 
61500 6.9056654010e+00 8.1112309671e-04 1.7419708887e+00 -3.0171820845e+00 1.7419708887e+00 3.0171820845e+00 
61600 6.9056635633e+00 7.9794827932e-04 1.7419476069e+00 -3.0171417593e+00 1.7419476069e+00 3.0171417593e+00 
61700 6.9056617390e+00 7.8526180788e-04 1.7419247031e+00 -3.0171020887e+00 1.7419247031e+00 3.0171020887e+00 
61800 6.9056599279e+00 7.7306764709e-04 1.7419021631e+00 -3.0170630482e+00 1.7419021631e+00 3.0170630482e+00 
61900 6.9056581300e+00 7.6136882718e-04 1.7418799728e+00 -3.0170246136e+00 1.7418799728e+00 3.0170246136e+00 
62000 6.9056563453e+00 7.5016746014e-04 1.7418581180e+00 -3.0169867600e+00 1.7418581180e+00 3.0169867600e+00 
62100 6.9056545737e+00 7.3946475729e-04 1.7418365845e+00 -3.0169494629e+00 1.7418365845e+00 3.0169494629e+00 
62200 6.9056528153e+00 7.2926104792e-04 1.7418153580e+00 -3.0169126975e+00 1.7418153580e+00 3.0169126975e+00 
62300 6.9056510699e+00 7.1955579919e-04 1.7417944241e+00 -3.0168764389e+00 1.7417944241e+00 3.0168764389e+00 
62400 6.9056493376e+00 7.1034763700e-04 1.7417737686e+00 -3.0168406624e+00 1.7417737686e+00 3.0168406624e+00 
62500 6.9056476184e+00 7.0163436793e-04 1.7417533771e+00 -3.0168053434e+00 1.7417533771e+00 3.0168053434e+00 
62600 6.9056459123e+00 6.9341300206e-04 1.7417332355e+00 -3.0167704572e+00 1.7417332355e+00 3.0167704572e+00 
62700 6.9056442193e+00 6.8567977676e-04 1.7417133297e+00 -3.0167359793e+00 1.7417133297e+00 3.0167359793e+00 
62800 6.9056425394e+00 6.7843018123e-04 1.7416936457e+00 -3.0167018856e+00 1.7416936457e+00 3.0167018856e+00 
62900 6.9056408725e+00 6.7165898177e-04 1.7416741696e+00 -3.0166681519e+00 1.7416741696e+00 3.0166681519e+00 
63000 6.9056392187e+00 6.6536024790e-04 1.7416548876e+00 -3.0166347546e+00 1.7416548876e+00 3.0166347546e+00 
63100 6.9056375780e+00 6.5952737889e-04 1.7416357863e+00 -3.0166016701e+00 1.7416357863e+00 3.0166016701e+00 
63200 6.9056359504e+00 6.5415313108e-04 1.7416168522e+00 -3.0165688753e+00 1.7416168522e+00 3.0165688753e+00 
63300 6.9056343359e+00 6.4922964553e-04 1.7415980722e+00 -3.0165363473e+00 1.7415980722e+00 3.0165363473e+00 
63400 6.9056327344e+00 6.4474847626e-04 1.7415794333e+00 -3.0165040639e+00 1.7415794333e+00 3.0165040639e+00 
63500 6.9056311459e+00 6.4070061878e-04 1.7415609229e+00 -3.0164720029e+00 1.7415609229e+00 3.0164720029e+00 
63600 6.9056295705e+00 6.3707653900e-04 1.7415425285e+00 -3.0164401428e+00 1.7415425285e+00 3.0164401428e+00 
63700 6.9056280082e+00 6.3386620243e-04 1.7415242379e+00 -3.0164084627e+00 1.7415242379e+00 3.0164084627e+00 
63800 6.9056264587e+00 6.3105910353e-04 1.7415060393e+00 -3.0163769418e+00 1.7415060393e+00 3.0163769418e+00 
63900 6.9056249223e+00 6.2864429525e-04 1.7414879212e+00 -3.0163455602e+00 1.7414879212e+00 3.0163455602e+00 
64000 6.9056233988e+00 6.2661041870e-04 1.7414698721e+00 -3.0163142984e+00 1.7414698721e+00 3.0163142984e+00 
64100 6.9056218881e+00 6.2494573282e-04 1.7414518813e+00 -3.0162831374e+00 1.7414518813e+00 3.0162831374e+00 
64200 6.9056203903e+00 6.2363814408e-04 1.7414339381e+00 -3.0162520588e+00 1.7414339381e+00 3.0162520588e+00 
64300 6.9056189052e+00 6.2267523606e-04 1.7414160323e+00 -3.0162210450e+00 1.7414160323e+00 3.0162210450e+00 
64400 6.9056174329e+00 6.2204429899e-04 1.7413981539e+00 -3.0161900787e+00 1.7413981539e+00 3.0161900787e+00 
64500 6.9056159732e+00 6.2173235910e-04 1.7413802934e+00 -3.0161591435e+00 1.7413802934e+00 3.0161591435e+00 
64600 6.9056145261e+00 6.2172620776e-04 1.7413624417e+00 -3.0161282235e+00 1.7413624417e+00 3.0161282235e+00 
64700 6.9056130915e+00 6.2201243032e-04 1.7413445901e+00 -3.0160973035e+00 1.7413445901e+00 3.0160973035e+00 
64800 6.9056116694e+00 6.2257743473e-04 1.7413267300e+00 -3.0160663689e+00 1.7413267300e+00 3.0160663689e+00 
64900 6.9056102595e+00 6.2340747978e-04 1.7413088535e+00 -3.0160354059e+00 1.7413088535e+00 3.0160354059e+00 
65000 6.9056088619e+00 6.2448870291e-04 1.7412909530e+00 -3.0160044013e+00 1.7412909530e+00 3.0160044013e+00 
65100 6.9056074765e+00 6.2580714763e-04 1.7412730212e+00 -3.0159733426e+00 1.7412730212e+00 3.0159733426e+00 
65200 6.9056061031e+00 6.2734879050e-04 1.7412550514e+00 -3.0159422180e+00 1.7412550514e+00 3.0159422180e+00 
65300 6.9056047416e+00 6.2909956753e-04 1.7412370372e+00 -3.0159110164e+00 1.7412370372e+00 3.0159110164e+00 
65400 6.9056033920e+00 6.3104540011e-04 1.7412189725e+00 -3.0158797275e+00 1.7412189725e+00 3.0158797275e+00 
65500 6.9056020541e+00 6.3317222032e-04 1.7412008517e+00 -3.0158483414e+00 1.7412008517e+00 3.0158483414e+00 
65600 6.9056007277e+00 6.3546599564e-04 1.7411826697e+00 -3.0158168492e+00 1.7411826697e+00 3.0158168492e+00 
65700 6.9055994129e+00 6.3791275308e-04 1.7411644216e+00 -3.0157852426e+00 1.7411644216e+00 3.0157852426e+00 
65800 6.9055981094e+00 6.4049860253e-04 1.7411461031e+00 -3.0157535139e+00 1.7411461031e+00 3.0157535139e+00 
65900 6.9055968171e+00 6.4320975953e-04 1.7411277101e+00 -3.0157216564e+00 1.7411277101e+00 3.0157216564e+00 
66000 6.9055955360e+00 6.4603256725e-04 1.7411092391e+00 -3.0156896636e+00 1.7411092391e+00 3.0156896636e+00 
66100 6.9055942658e+00 6.4895351780e-04 1.7410906868e+00 -3.0156575301e+00 1.7410906868e+00 3.0156575301e+00 
66200 6.9055930065e+00 6.5195927267e-04 1.7410720504e+00 -3.0156252509e+00 1.7410720504e+00 3.0156252509e+00 
66300 6.9055917579e+00 6.5503668255e-04 1.7410533275e+00 -3.0155928219e+00 1.7410533275e+00 3.0155928219e+00 
66400 6.9055905199e+00 6.5817280616e-04 1.7410345160e+00 -3.0155602395e+00 1.7410345160e+00 3.0155602395e+00 
66500 6.9055892923e+00 6.6135492844e-04 1.7410156143e+00 -3.0155275007e+00 1.7410156143e+00 3.0155275007e+00 
66600 6.9055880751e+00 6.6457057784e-04 1.7409966210e+00 -3.0154946033e+00 1.7409966210e+00 3.0154946033e+00 
66700 6.9055868681e+00 6.6780754269e-04 1.7409775351e+00 -3.0154615456e+00 1.7409775351e+00 3.0154615456e+00 
66800 6.9055856711e+00 6.7105388694e-04 1.7409583560e+00 -3.0154283265e+00 1.7409583560e+00 3.0154283265e+00 
66900 6.9055844841e+00 6.7429796479e-04 1.7409390835e+00 -3.0153949455e+00 1.7409390835e+00 3.0153949455e+00 
67000 6.9055833069e+00 6.7752843463e-04 1.7409197176e+00 -3.0153614028e+00 1.7409197176e+00 3.0153614028e+00 
67100 6.9055821395e+00 6.8073427207e-04 1.7409002587e+00 -3.0153276990e+00 1.7409002587e+00 3.0153276990e+00 
67200 6.9055809816e+00 6.8390478202e-04 1.7408807076e+00 -3.0152938354e+00 1.7408807076e+00 3.0152938354e+00 
67300 6.9055798332e+00 6.8702961004e-04 1.7408610651e+00 -3.0152598137e+00 1.7408610651e+00 3.0152598137e+00 
67400 6.9055786941e+00 6.9009875269e-04 1.7408413327e+00 -3.0152256361e+00 1.7408413327e+00 3.0152256361e+00 
67500 6.9055775643e+00 6.9310256705e-04 1.7408215119e+00 -3.0151913055e+00 1.7408215119e+00 3.0151913055e+00 
67600 6.9055764436e+00 6.9603177942e-04 1.7408016046e+00 -3.0151568250e+00 1.7408016046e+00 3.0151568250e+00 
67700 6.9055753319e+00 6.9887749309e-04 1.7407816129e+00 -3.0151221984e+00 1.7407816129e+00 3.0151221984e+00 
67800 6.9055742292e+00 7.0163119525e-04 1.7407615393e+00 -3.0150874299e+00 1.7407615393e+00 3.0150874299e+00 
67900 6.9055731352e+00 7.0428476312e-04 1.7407413863e+00 -3.0150525239e+00 1.7407413863e+00 3.0150525239e+00 
68000 6.9055720500e+00 7.0683046917e-04 1.7407211569e+00 -3.0150174856e+00 1.7407211569e+00 3.0150174856e+00 
68100 6.9055709734e+00 7.0926098553e-04 1.7407008541e+00 -3.0149823201e+00 1.7407008541e+00 3.0149823201e+00 
68200 6.9055699054e+00 7.1156938762e-04 1.7406804813e+00 -3.0149470334e+00 1.7406804813e+00 3.0149470334e+00 
68300 6.9055688458e+00 7.1374915688e-04 1.7406600420e+00 -3.0149116314e+00 1.7406600420e+00 3.0149116314e+00 
68400 6.9055677945e+00 7.1579418278e-04 1.7406395397e+00 -3.0148761205e+00 1.7406395397e+00 3.0148761205e+00 
68500 6.9055667516e+00 7.1769876408e-04 1.7406189785e+00 -3.0148405074e+00 1.7406189785e+00 3.0148405074e+00 
68600 6.9055657168e+00 7.1945760920e-04 1.7405983624e+00 -3.0148047992e+00 1.7405983624e+00 3.0148047992e+00 
68700 6.9055646902e+00 7.2106583602e-04 1.7405776955e+00 -3.0147690031e+00 1.7405776955e+00 3.0147690031e+00 
68800 6.9055636717e+00 7.2251897077e-04 1.7405569821e+00 -3.0147331265e+00 1.7405569821e+00 3.0147331265e+00 
68900 6.9055626611e+00 7.2381294636e-04 1.7405362267e+00 -3.0146971771e+00 1.7405362267e+00 3.0146971771e+00 
69000 6.9055616585e+00 7.2494409995e-04 1.7405154340e+00 -3.0146611630e+00 1.7405154340e+00 3.0146611630e+00 
69100 6.9055606637e+00 7.2590916984e-04 1.7404946085e+00 -3.0146250921e+00 1.7404946085e+00 3.0146250921e+00 
69200 6.9055596767e+00 7.2670529177e-04 1.7404737550e+00 -3.0145889728e+00 1.7404737550e+00 3.0145889728e+00 
69300 6.9055586975e+00 7.2732999455e-04 1.7404528784e+00 -3.0145528135e+00 1.7404528784e+00 3.0145528135e+00 
69400 6.9055577259e+00 7.2778119507e-04 1.7404319835e+00 -3.0145166226e+00 1.7404319835e+00 3.0145166226e+00 
69500 6.9055567620e+00 7.2805719284e-04 1.7404110755e+00 -3.0144804089e+00 1.7404110755e+00 3.0144804089e+00 
69600 6.9055558057e+00 7.2815666378e-04 1.7403901593e+00 -3.0144441809e+00 1.7403901593e+00 3.0144441809e+00 
69700 6.9055548569e+00 7.2807865372e-04 1.7403692400e+00 -3.0144079476e+00 1.7403692400e+00 3.0144079476e+00 
69800 6.9055539156e+00 7.2782257115e-04 1.7403483227e+00 -3.0143717178e+00 1.7403483227e+00 3.0143717178e+00 
69900 6.9055529817e+00 7.2738817969e-04 1.7403274125e+00 -3.0143355002e+00 1.7403274125e+00 3.0143355002e+00 
70000 6.9055520552e+00 7.2677558999e-04 1.7403065145e+00 -3.0142993039e+00 1.7403065145e+00 3.0142993039e+00 
70100 6.9055511361e+00 7.2598525120e-04 1.7402856339e+00 -3.0142631375e+00 1.7402856339e+00 3.0142631375e+00 
70200 6.9055502243e+00 7.2501794209e-04 1.7402647757e+00 -3.0142270101e+00 1.7402647757e+00 3.0142270101e+00 
70300 6.9055493197e+00 7.2387476176e-04 1.7402439450e+00 -3.0141909304e+00 1.7402439450e+00 3.0141909304e+00 
70400 6.9055484223e+00 7.2255711996e-04 1.7402231470e+00 -3.0141549071e+00 1.7402231470e+00 3.0141549071e+00 
70500 6.9055475321e+00 7.2106672716e-04 1.7402023866e+00 -3.0141189490e+00 1.7402023866e+00 3.0141189490e+00 
70600 6.9055466490e+00 7.1940558425e-04 1.7401816687e+00 -3.0140830646e+00 1.7401816687e+00 3.0140830646e+00 
70700 6.9055457731e+00 7.1757597197e-04 1.7401609983e+00 -3.0140472625e+00 1.7401609983e+00 3.0140472625e+00 
70800 6.9055449041e+00 7.1558044012e-04 1.7401403803e+00 -3.0140115510e+00 1.7401403803e+00 3.0140115510e+00 
70900 6.9055440422e+00 7.1342179654e-04 1.7401198193e+00 -3.0139759383e+00 1.7401198193e+00 3.0139759383e+00 
71000 6.9055431873e+00 7.1110309582e-04 1.7400993202e+00 -3.0139404327e+00 1.7400993202e+00 3.0139404327e+00 
71100 6.9055423393e+00 7.0862762794e-04 1.7400788874e+00 -3.0139050421e+00 1.7400788874e+00 3.0139050421e+00 
71200 6.9055414981e+00 7.0599890671e-04 1.7400585255e+00 -3.0138697743e+00 1.7400585255e+00 3.0138697743e+00 
71300 6.9055406638e+00 7.0322065803e-04 1.7400382389e+00 -3.0138346368e+00 1.7400382389e+00 3.0138346368e+00 
71400 6.9055398364e+00 7.0029680814e-04 1.7400180319e+00 -3.0137996373e+00 1.7400180319e+00 3.0137996373e+00 
71500 6.9055390156e+00 6.9723147171e-04 1.7399979086e+00 -3.0137647828e+00 1.7399979086e+00 3.0137647828e+00 
71600 6.9055382016e+00 6.9402893995e-04 1.7399778733e+00 -3.0137300805e+00 1.7399778733e+00 3.0137300805e+00 
71700 6.9055373943e+00 6.9069366861e-04 1.7399579297e+00 -3.0136955372e+00 1.7399579297e+00 3.0136955372e+00 
71800 6.9055365936e+00 6.8723026603e-04 1.7399380817e+00 -3.0136611596e+00 1.7399380817e+00 3.0136611596e+00 
71900 6.9055357995e+00 6.8364348116e-04 1.7399183331e+00 -3.0136269539e+00 1.7399183331e+00 3.0136269539e+00 
72000 6.9055350119e+00 6.7993819164e-04 1.7398986872e+00 -3.0135929263e+00 1.7398986872e+00 3.0135929263e+00 
72100 6.9055342308e+00 6.7611939191e-04 1.7398791477e+00 -3.0135590828e+00 1.7398791477e+00 3.0135590828e+00 
72200 6.9055334562e+00 6.7219218140e-04 1.7398597177e+00 -3.0135254290e+00 1.7398597177e+00 3.0135254290e+00 
72300 6.9055326879e+00 6.6816175282e-04 1.7398404003e+00 -3.0134919703e+00 1.7398404003e+00 3.0134919703e+00 
72400 6.9055319260e+00 6.6403338057e-04 1.7398211985e+00 -3.0134587119e+00 1.7398211985e+00 3.0134587119e+00 
72500 6.9055311704e+00 6.5981240923e-04 1.7398021152e+00 -3.0134256586e+00 1.7398021152e+00 3.0134256586e+00 
72600 6.9055304211e+00 6.5550424228e-04 1.7397831529e+00 -3.0133928150e+00 1.7397831529e+00 3.0133928150e+00 
72700 6.9055296780e+00 6.5111433087e-04 1.7397643143e+00 -3.0133601855e+00 1.7397643143e+00 3.0133601855e+00 
72800 6.9055289410e+00 6.4664816289e-04 1.7397456016e+00 -3.0133277742e+00 1.7397456016e+00 3.0133277742e+00 
72900 6.9055282101e+00 6.4211125217e-04 1.7397270170e+00 -3.0132955848e+00 1.7397270170e+00 3.0132955848e+00 
73000 6.9055274853e+00 6.3750912787e-04 1.7397085627e+00 -3.0132636210e+00 1.7397085627e+00 3.0132636210e+00 
73100 6.9055267665e+00 6.3284732415e-04 1.7396902404e+00 -3.0132318859e+00 1.7396902404e+00 3.0132318859e+00 
73200 6.9055260536e+00 6.2813137004e-04 1.7396720520e+00 -3.0132003825e+00 1.7396720520e+00 3.0132003825e+00 
73300 6.9055253466e+00 6.2336677957e-04 1.7396539989e+00 -3.0131691136e+00 1.7396539989e+00 3.0131691136e+00 
73400 6.9055246455e+00 6.1855904217e-04 1.7396360825e+00 -3.0131380815e+00 1.7396360825e+00 3.0131380815e+00 
73500 6.9055239502e+00 6.1371361330e-04 1.7396183041e+00 -3.0131072885e+00 1.7396183041e+00 3.0131072885e+00 
73600 6.9055232606e+00 6.0883590544e-04 1.7396006648e+00 -3.0130767363e+00 1.7396006648e+00 3.0130767363e+00 
73700 6.9055225767e+00 6.0393127930e-04 1.7395831655e+00 -3.0130464267e+00 1.7395831655e+00 3.0130464267e+00 
73800 6.9055218984e+00 5.9900503536e-04 1.7395658071e+00 -3.0130163610e+00 1.7395658071e+00 3.0130163610e+00 
73900 6.9055212257e+00 5.9406240573e-04 1.7395485900e+00 -3.0129865401e+00 1.7395485900e+00 3.0129865401e+00 
74000 6.9055205586e+00 5.8910854630e-04 1.7395315149e+00 -3.0129569651e+00 1.7395315149e+00 3.0129569651e+00 
74100 6.9055198969e+00 5.8414852921e-04 1.7395145819e+00 -3.0129276364e+00 1.7395145819e+00 3.0129276364e+00 
74200 6.9055192407e+00 5.7918733571e-04 1.7394977914e+00 -3.0128985543e+00 1.7394977914e+00 3.0128985543e+00 
74300 6.9055185898e+00 5.7422984927e-04 1.7394811433e+00 -3.0128697190e+00 1.7394811433e+00 3.0128697190e+00 
74400 6.9055179443e+00 5.6928084905e-04 1.7394646375e+00 -3.0128411302e+00 1.7394646375e+00 3.0128411302e+00 
74500 6.9055173040e+00 5.6434500378e-04 1.7394482739e+00 -3.0128127875e+00 1.7394482739e+00 3.0128127875e+00 
74600 6.9055166690e+00 5.5942686589e-04 1.7394320520e+00 -3.0127846903e+00 1.7394320520e+00 3.0127846903e+00 
74700 6.9055160392e+00 5.5453086602e-04 1.7394159712e+00 -3.0127568377e+00 1.7394159712e+00 3.0127568377e+00 
74800 6.9055154145e+00 5.4966130791e-04 1.7394000311e+00 -3.0127292286e+00 1.7394000311e+00 3.0127292286e+00 
74900 6.9055147948e+00 5.4482236362e-04 1.7393842308e+00 -3.0127018617e+00 1.7393842308e+00 3.0127018617e+00 
75000 6.9055141802e+00 5.4001806905e-04 1.7393685695e+00 -3.0126747355e+00 1.7393685695e+00 3.0126747355e+00 
75100 6.9055135706e+00 5.3525231990e-04 1.7393530461e+00 -3.0126478482e+00 1.7393530461e+00 3.0126478482e+00 
75200 6.9055129659e+00 5.3052886790e-04 1.7393376596e+00 -3.0126211980e+00 1.7393376596e+00 3.0126211980e+00 
75300 6.9055123662e+00 5.2585131742e-04 1.7393224088e+00 -3.0125947827e+00 1.7393224088e+00 3.0125947827e+00 
75400 6.9055117712e+00 5.2122312246e-04 1.7393072922e+00 -3.0125686001e+00 1.7393072922e+00 3.0125686001e+00 
75500 6.9055111811e+00 5.1664758386e-04 1.7392923086e+00 -3.0125426477e+00 1.7392923086e+00 3.0125426477e+00 
75600 6.9055105958e+00 5.1212784702e-04 1.7392774564e+00 -3.0125169229e+00 1.7392774564e+00 3.0125169229e+00 
75700 6.9055100151e+00 5.0766689981e-04 1.7392627340e+00 -3.0124914230e+00 1.7392627340e+00 3.0124914230e+00 
75800 6.9055094392e+00 5.0326757088e-04 1.7392481397e+00 -3.0124661449e+00 1.7392481397e+00 3.0124661449e+00 
75900 6.9055088679e+00 4.9893252829e-04 1.7392336717e+00 -3.0124410857e+00 1.7392336717e+00 3.0124410857e+00 
76000 6.9055083011e+00 4.9466427843e-04 1.7392193283e+00 -3.0124162421e+00 1.7392193283e+00 3.0124162421e+00 
76100 6.9055077390e+00 4.9046516531e-04 1.7392051074e+00 -3.0123916109e+00 1.7392051074e+00 3.0123916109e+00 
76200 6.9055071813e+00 4.8633737009e-04 1.7391910072e+00 -3.0123671885e+00 1.7391910072e+00 3.0123671885e+00 
76300 6.9055066282e+00 4.8228291096e-04 1.7391770255e+00 -3.0123429715e+00 1.7391770255e+00 3.0123429715e+00 
76400 6.9055060794e+00 4.7830364332e-04 1.7391631603e+00 -3.0123189562e+00 1.7391631603e+00 3.0123189562e+00 
76500 6.9055055351e+00 4.7440126020e-04 1.7391494093e+00 -3.0122951389e+00 1.7391494093e+00 3.0122951389e+00 
76600 6.9055049952e+00 4.7057729298e-04 1.7391357704e+00 -3.0122715157e+00 1.7391357704e+00 3.0122715157e+00 
76700 6.9055044596e+00 4.6683311245e-04 1.7391222414e+00 -3.0122480827e+00 1.7391222414e+00 3.0122480827e+00 
76800 6.9055039283e+00 4.6316993003e-04 1.7391088199e+00 -3.0122248360e+00 1.7391088199e+00 3.0122248360e+00 
76900 6.9055034012e+00 4.5958879928e-04 1.7390955036e+00 -3.0122017715e+00 1.7390955036e+00 3.0122017715e+00 
77000 6.9055028784e+00 4.5609061772e-04 1.7390822902e+00 -3.0121788852e+00 1.7390822902e+00 3.0121788852e+00 
77100 6.9055023598e+00 4.5267612877e-04 1.7390691772e+00 -3.0121561729e+00 1.7390691772e+00 3.0121561729e+00 
77200 6.9055018453e+00 4.4934592405e-04 1.7390561624e+00 -3.0121336304e+00 1.7390561624e+00 3.0121336304e+00 
77300 6.9055013350e+00 4.4610044579e-04 1.7390432431e+00 -3.0121112537e+00 1.7390432431e+00 3.0121112537e+00 
77400 6.9055008288e+00 4.4293998952e-04 1.7390304171e+00 -3.0120890383e+00 1.7390304171e+00 3.0120890383e+00 
77500 6.9055003266e+00 4.3986470690e-04 1.7390176819e+00 -3.0120669803e+00 1.7390176819e+00 3.0120669803e+00 
77600 6.9054998285e+00 4.3687460882e-04 1.7390050350e+00 -3.0120450752e+00 1.7390050350e+00 3.0120450752e+00 
77700 6.9054993344e+00 4.3396956859e-04 1.7389924739e+00 -3.0120233188e+00 1.7389924739e+00 3.0120233188e+00 
77800 6.9054988443e+00 4.3114932537e-04 1.7389799963e+00 -3.0120017070e+00 1.7389799963e+00 3.0120017070e+00 
77900 6.9054983581e+00 4.2841348775e-04 1.7389675997e+00 -3.0119802354e+00 1.7389675997e+00 3.0119802354e+00 
78000 6.9054978759e+00 4.2576153741e-04 1.7389552817e+00 -3.0119589000e+00 1.7389552817e+00 3.0119589000e+00 
78100 6.9054973975e+00 4.2319283303e-04 1.7389430398e+00 -3.0119376965e+00 1.7389430398e+00 3.0119376965e+00 
78200 6.9054969230e+00 4.2070661425e-04 1.7389308717e+00 -3.0119166207e+00 1.7389308717e+00 3.0119166207e+00 
78300 6.9054964524e+00 4.1830200578e-04 1.7389187750e+00 -3.0118956686e+00 1.7389187750e+00 3.0118956686e+00 
78400 6.9054959855e+00 4.1597802159e-04 1.7389067474e+00 -3.0118748361e+00 1.7389067474e+00 3.0118748361e+00 
78500 6.9054955224e+00 4.1373356927e-04 1.7388947865e+00 -3.0118541193e+00 1.7388947865e+00 3.0118541193e+00 
78600 6.9054950631e+00 4.1156745437e-04 1.7388828901e+00 -3.0118335140e+00 1.7388828901e+00 3.0118335140e+00 
78700 6.9054946075e+00 4.0947838495e-04 1.7388710558e+00 -3.0118130165e+00 1.7388710558e+00 3.0118130165e+00 
78800 6.9054941556e+00 4.0746497606e-04 1.7388592816e+00 -3.0117926229e+00 1.7388592816e+00 3.0117926229e+00 
78900 6.9054937073e+00 4.0552575441e-04 1.7388475652e+00 -3.0117723295e+00 1.7388475652e+00 3.0117723295e+00 
79000 6.9054932627e+00 4.0365916298e-04 1.7388359044e+00 -3.0117521325e+00 1.7388359044e+00 3.0117521325e+00 
79100 6.9054928217e+00 4.0186356576e-04 1.7388242973e+00 -3.0117320283e+00 1.7388242973e+00 3.0117320283e+00 
79200 6.9054923843e+00 4.0013725245e-04 1.7388127417e+00 -3.0117120134e+00 1.7388127417e+00 3.0117120134e+00 
79300 6.9054919505e+00 3.9847844324e-04 1.7388012356e+00 -3.0116920844e+00 1.7388012356e+00 3.0116920844e+00 
79400 6.9054915202e+00 3.9688529354e-04 1.7387897772e+00 -3.0116722378e+00 1.7387897772e+00 3.0116722378e+00 
79500 6.9054910933e+00 3.9535589881e-04 1.7387783645e+00 -3.0116524705e+00 1.7387783645e+00 3.0116524705e+00 
79600 6.9054906700e+00 3.9388829925e-04 1.7387669958e+00 -3.0116327792e+00 1.7387669958e+00 3.0116327792e+00 
79700 6.9054902501e+00 3.9248048461e-04 1.7387556691e+00 -3.0116131609e+00 1.7387556691e+00 3.0116131609e+00 
79800 6.9054898336e+00 3.9113039890e-04 1.7387443829e+00 -3.0115936126e+00 1.7387443829e+00 3.0115936126e+00 
79900 6.9054894205e+00 3.8983594508e-04 1.7387331354e+00 -3.0115741313e+00 1.7387331354e+00 3.0115741313e+00 
80000 6.9054890108e+00 3.8859498976e-04 1.7387219251e+00 -3.0115547145e+00 1.7387219251e+00 3.0115547145e+00 
80100 6.9054886045e+00 3.8740536777e-04 1.7387107504e+00 -3.0115353593e+00 1.7387107504e+00 3.0115353593e+00 
80200 6.9054882014e+00 3.8626488679e-04 1.7386996098e+00 -3.0115160632e+00 1.7386996098e+00 3.0115160632e+00 
80300 6.9054878016e+00 3.8517133182e-04 1.7386885019e+00 -3.0114968239e+00 1.7386885019e+00 3.0114968239e+00 
80400 6.9054874051e+00 3.8412246961e-04 1.7386774255e+00 -3.0114776389e+00 1.7386774255e+00 3.0114776389e+00 
80500 6.9054870119e+00 3.8311605309e-04 1.7386663791e+00 -3.0114585059e+00 1.7386663791e+00 3.0114585059e+00 
80600 6.9054866218e+00 3.8214982562e-04 1.7386553615e+00 -3.0114394231e+00 1.7386553615e+00 3.0114394231e+00 
80700 6.9054862349e+00 3.8122152522e-04 1.7386443718e+00 -3.0114203882e+00 1.7386443718e+00 3.0114203882e+00 
80800 6.9054858512e+00 3.8032888867e-04 1.7386334086e+00 -3.0114013994e+00 1.7386334086e+00 3.0114013994e+00 
80900 6.9054854706e+00 3.7946965559e-04 1.7386224710e+00 -3.0113824550e+00 1.7386224710e+00 3.0113824550e+00 
81000 6.9054850931e+00 3.7864157231e-04 1.7386115581e+00 -3.0113635532e+00 1.7386115581e+00 3.0113635532e+00 
81100 6.9054847187e+00 3.7784239574e-04 1.7386006689e+00 -3.0113446926e+00 1.7386006689e+00 3.0113446926e+00 
81200 6.9054843474e+00 3.7706989705e-04 1.7385898026e+00 -3.0113258717e+00 1.7385898026e+00 3.0113258717e+00 
81300 6.9054839790e+00 3.7632186529e-04 1.7385789585e+00 -3.0113070891e+00 1.7385789585e+00 3.0113070891e+00 
81400 6.9054836137e+00 3.7559611090e-04 1.7385681358e+00 -3.0112883437e+00 1.7385681358e+00 3.0112883437e+00 
81500 6.9054832514e+00 3.7489046902e-04 1.7385573340e+00 -3.0112696343e+00 1.7385573340e+00 3.0112696343e+00 
81600 6.9054828920e+00 3.7420280280e-04 1.7385465523e+00 -3.0112509599e+00 1.7385465523e+00 3.0112509599e+00 
81700 6.9054825355e+00 3.7353100645e-04 1.7385357904e+00 -3.0112323197e+00 1.7385357904e+00 3.0112323197e+00 
81800 6.9054821819e+00 3.7287300829e-04 1.7385250477e+00 -3.0112137129e+00 1.7385250477e+00 3.0112137129e+00 
81900 6.9054818312e+00 3.7222677356e-04 1.7385143239e+00 -3.0111951387e+00 1.7385143239e+00 3.0111951387e+00 
82000 6.9054814834e+00 3.7159030717e-04 1.7385036186e+00 -3.0111765965e+00 1.7385036186e+00 3.0111765965e+00 
82100 6.9054811383e+00 3.7096165627e-04 1.7384929315e+00 -3.0111580860e+00 1.7384929315e+00 3.0111580860e+00 
82200 6.9054807961e+00 3.7033891274e-04 1.7384822625e+00 -3.0111396067e+00 1.7384822625e+00 3.0111396067e+00 
82300 6.9054804567e+00 3.6972021546e-04 1.7384716113e+00 -3.0111211583e+00 1.7384716113e+00 3.0111211583e+00 
82400 6.9054801200e+00 3.6910375251e-04 1.7384609778e+00 -3.0111027405e+00 1.7384609778e+00 3.0111027405e+00 
82500 6.9054797860e+00 3.6848776319e-04 1.7384503620e+00 -3.0110843534e+00 1.7384503620e+00 3.0110843534e+00 
82600 6.9054794548e+00 3.6787053996e-04 1.7384397638e+00 -3.0110659969e+00 1.7384397638e+00 3.0110659969e+00 
82700 6.9054791262e+00 3.6725043014e-04 1.7384291834e+00 -3.0110476710e+00 1.7384291834e+00 3.0110476710e+00 
82800 6.9054788003e+00 3.6662583756e-04 1.7384186207e+00 -3.0110293758e+00 1.7384186207e+00 3.0110293758e+00 
82900 6.9054784771e+00 3.6599522406e-04 1.7384080759e+00 -3.0110111117e+00 1.7384080759e+00 3.0110111117e+00 
83000 6.9054781564e+00 3.6535711079e-04 1.7383975492e+00 -3.0109928789e+00 1.7383975492e+00 3.0109928789e+00 
83100 6.9054778384e+00 3.6471007942e-04 1.7383870407e+00 -3.0109746777e+00 1.7383870407e+00 3.0109746777e+00 
83200 6.9054775229e+00 3.6405277323e-04 1.7383765508e+00 -3.0109565087e+00 1.7383765508e+00 3.0109565087e+00 
83300 6.9054772100e+00 3.6338389804e-04 1.7383660798e+00 -3.0109383723e+00 1.7383660798e+00 3.0109383723e+00 
83400 6.9054768996e+00 3.6270222297e-04 1.7383556279e+00 -3.0109202692e+00 1.7383556279e+00 3.0109202692e+00 
83500 6.9054765917e+00 3.6200658115e-04 1.7383451956e+00 -3.0109021998e+00 1.7383451956e+00 3.0109021998e+00 
83600 6.9054762863e+00 3.6129587022e-04 1.7383347832e+00 -3.0108841651e+00 1.7383347832e+00 3.0108841651e+00 
83700 6.9054759834e+00 3.6056905276e-04 1.7383243912e+00 -3.0108661656e+00 1.7383243912e+00 3.0108661656e+00 
83800 6.9054756829e+00 3.5982515657e-04 1.7383140200e+00 -3.0108482022e+00 1.7383140200e+00 3.0108482022e+00 
83900 6.9054753849e+00 3.5906327482e-04 1.7383036702e+00 -3.0108302758e+00 1.7383036702e+00 3.0108302758e+00 
84000 6.9054750892e+00 3.5828256607e-04 1.7382933423e+00 -3.0108123872e+00 1.7382933423e+00 3.0108123872e+00 
84100 6.9054747960e+00 3.5748225424e-04 1.7382830367e+00 -3.0107945375e+00 1.7382830367e+00 3.0107945375e+00 
84200 6.9054745051e+00 3.5666162836e-04 1.7382727541e+00 -3.0107767275e+00 1.7382727541e+00 3.0107767275e+00 
84300 6.9054742165e+00 3.5582004229e-04 1.7382624950e+00 -3.0107589582e+00 1.7382624950e+00 3.0107589582e+00 
84400 6.9054739303e+00 3.5495691430e-04 1.7382522601e+00 -3.0107412308e+00 1.7382522601e+00 3.0107412308e+00 
84500 6.9054736464e+00 3.5407172654e-04 1.7382420499e+00 -3.0107235463e+00 1.7382420499e+00 3.0107235463e+00 
84600 6.9054733648e+00 3.5316402443e-04 1.7382318652e+00 -3.0107059058e+00 1.7382318652e+00 3.0107059058e+00 
84700 6.9054730855e+00 3.5223341592e-04 1.7382217065e+00 -3.0106883104e+00 1.7382217065e+00 3.0106883104e+00 
84800 6.9054728084e+00 3.5127957070e-04 1.7382115745e+00 -3.0106707613e+00 1.7382115745e+00 3.0106707613e+00 
84900 6.9054725335e+00 3.5030221924e-04 1.7382014698e+00 -3.0106532596e+00 1.7382014698e+00 3.0106532596e+00 
85000 6.9054722609e+00 3.4930115185e-04 1.7381913933e+00 -3.0106358064e+00 1.7381913933e+00 3.0106358064e+00 
85100 6.9054719905e+00 3.4827621757e-04 1.7381813455e+00 -3.0106184031e+00 1.7381813455e+00 3.0106184031e+00 
85200 6.9054717223e+00 3.4722732303e-04 1.7381713271e+00 -3.0106010507e+00 1.7381713271e+00 3.0106010507e+00 
85300 6.9054714562e+00 3.4615443117e-04 1.7381613388e+00 -3.0105837505e+00 1.7381613388e+00 3.0105837505e+00 
85400 6.9054711923e+00 3.4505755999e-04 1.7381513813e+00 -3.0105665037e+00 1.7381513813e+00 3.0105665037e+00 
85500 6.9054709305e+00 3.4393678114e-04 1.7381414553e+00 -3.0105493113e+00 1.7381414553e+00 3.0105493113e+00 
85600 6.9054706708e+00 3.4279221849e-04 1.7381315615e+00 -3.0105321748e+00 1.7381315615e+00 3.0105321748e+00 
85700 6.9054704132e+00 3.4162404663e-04 1.7381217006e+00 -3.0105150952e+00 1.7381217006e+00 3.0105150952e+00 
85800 6.9054701577e+00 3.4043248934e-04 1.7381118732e+00 -3.0104980736e+00 1.7381118732e+00 3.0104980736e+00 
85900 6.9054699043e+00 3.3921781792e-04 1.7381020800e+00 -3.0104811114e+00 1.7381020800e+00 3.0104811114e+00 
86000 6.9054696529e+00 3.3798034961e-04 1.7380923218e+00 -3.0104642095e+00 1.7380923218e+00 3.0104642095e+00 
86100 6.9054694035e+00 3.3672044587e-04 1.7380825990e+00 -3.0104473693e+00 1.7380825990e+00 3.0104473693e+00 
86200 6.9054691562e+00 3.3543851063e-04 1.7380729125e+00 -3.0104305917e+00 1.7380729125e+00 3.0104305917e+00 
86300 6.9054689109e+00 3.3413498852e-04 1.7380632628e+00 -3.0104138779e+00 1.7380632628e+00 3.0104138779e+00 
86400 6.9054686675e+00 3.3281036309e-04 1.7380536505e+00 -3.0103972290e+00 1.7380536505e+00 3.0103972290e+00 
86500 6.9054684262e+00 3.3146515499e-04 1.7380440763e+00 -3.0103806459e+00 1.7380440763e+00 3.0103806459e+00 
86600 6.9054681867e+00 3.3009992004e-04 1.7380345407e+00 -3.0103641298e+00 1.7380345407e+00 3.0103641298e+00 
86700 6.9054679492e+00 3.2871524750e-04 1.7380250444e+00 -3.0103476817e+00 1.7380250444e+00 3.0103476817e+00 
86800 6.9054677137e+00 3.2731175802e-04 1.7380155878e+00 -3.0103313024e+00 1.7380155878e+00 3.0103313024e+00 
86900 6.9054674800e+00 3.2589010188e-04 1.7380061716e+00 -3.0103149930e+00 1.7380061716e+00 3.0103149930e+00 
87000 6.9054672483e+00 3.2445095699e-04 1.7379967962e+00 -3.0102987544e+00 1.7379967962e+00 3.0102987544e+00 
87100 6.9054670184e+00 3.2299502703e-04 1.7379874621e+00 -3.0102825873e+00 1.7379874621e+00 3.0102825873e+00 
87200 6.9054667904e+00 3.2152303953e-04 1.7379781699e+00 -3.0102664928e+00 1.7379781699e+00 3.0102664928e+00 
87300 6.9054665642e+00 3.2003574393e-04 1.7379689200e+00 -3.0102504715e+00 1.7379689200e+00 3.0102504715e+00 
87400 6.9054663398e+00 3.1853390972e-04 1.7379597129e+00 -3.0102345242e+00 1.7379597129e+00 3.0102345242e+00 
87500 6.9054661173e+00 3.1701832449e-04 1.7379505488e+00 -3.0102186516e+00 1.7379505488e+00 3.0102186516e+00 
87600 6.9054658966e+00 3.1548979211e-04 1.7379414284e+00 -3.0102028545e+00 1.7379414284e+00 3.0102028545e+00 
87700 6.9054656777e+00 3.1394913081e-04 1.7379323519e+00 -3.0101871335e+00 1.7379323519e+00 3.0101871335e+00 
87800 6.9054654605e+00 3.1239717138e-04 1.7379233196e+00 -3.0101714892e+00 1.7379233196e+00 3.0101714892e+00 
87900 6.9054652451e+00 3.1083475528e-04 1.7379143320e+00 -3.0101559222e+00 1.7379143320e+00 3.0101559222e+00 
88000 6.9054650315e+00 3.0926273288e-04 1.7379053892e+00 -3.0101404329e+00 1.7379053892e+00 3.0101404329e+00 
88100 6.9054648196e+00 3.0768196169e-04 1.7378964916e+00 -3.0101250218e+00 1.7378964916e+00 3.0101250218e+00 
88200 6.9054646094e+00 3.0609330458e-04 1.7378876395e+00 -3.0101096895e+00 1.7378876395e+00 3.0101096895e+00 
88300 6.9054644009e+00 3.0449762806e-04 1.7378788331e+00 -3.0100944362e+00 1.7378788331e+00 3.0100944362e+00 
88400 6.9054641941e+00 3.0289580065e-04 1.7378700724e+00 -3.0100792624e+00 1.7378700724e+00 3.0100792624e+00 
88500 6.9054639890e+00 3.0128869116e-04 1.7378613579e+00 -3.0100641684e+00 1.7378613579e+00 3.0100641684e+00 
88600 6.9054637855e+00 2.9967716713e-04 1.7378526895e+00 -3.0100491543e+00 1.7378526895e+00 3.0100491543e+00 
88700 6.9054635837e+00 2.9806209328e-04 1.7378440675e+00 -3.0100342205e+00 1.7378440675e+00 3.0100342205e+00 
88800 6.9054633835e+00 2.9644432991e-04 1.7378354918e+00 -3.0100193671e+00 1.7378354918e+00 3.0100193671e+00 
88900 6.9054631849e+00 2.9482473148e-04 1.7378269627e+00 -3.0100045942e+00 1.7378269627e+00 3.0100045942e+00 
89000 6.9054629880e+00 2.9320414516e-04 1.7378184802e+00 -3.0099899020e+00 1.7378184802e+00 3.0099899020e+00 
89100 6.9054627926e+00 2.9158340944e-04 1.7378100442e+00 -3.0099752904e+00 1.7378100442e+00 3.0099752904e+00 
89200 6.9054625989e+00 2.8996335276e-04 1.7378016548e+00 -3.0099607596e+00 1.7378016548e+00 3.0099607596e+00 
89300 6.9054624067e+00 2.8834479227e-04 1.7377933120e+00 -3.0099463094e+00 1.7377933120e+00 3.0099463094e+00 
89400 6.9054622160e+00 2.8672853253e-04 1.7377850157e+00 -3.0099319398e+00 1.7377850157e+00 3.0099319398e+00 
89500 6.9054620270e+00 2.8511536438e-04 1.7377767659e+00 -3.0099176507e+00 1.7377767659e+00 3.0099176507e+00 
89600 6.9054618394e+00 2.8350606377e-04 1.7377685624e+00 -3.0099034419e+00 1.7377685624e+00 3.0099034419e+00 
89700 6.9054616533e+00 2.8190139066e-04 1.7377604053e+00 -3.0098893133e+00 1.7377604053e+00 3.0098893133e+00 
89800 6.9054614688e+00 2.8030208803e-04 1.7377522942e+00 -3.0098752645e+00 1.7377522942e+00 3.0098752645e+00 
89900 6.9054612858e+00 2.7870888089e-04 1.7377442291e+00 -3.0098612954e+00 1.7377442291e+00 3.0098612954e+00 
90000 6.9054611042e+00 2.7712247535e-04 1.7377362099e+00 -3.0098474057e+00 1.7377362099e+00 3.0098474057e+00 
90100 6.9054609241e+00 2.7554355778e-04 1.7377282362e+00 -3.0098335949e+00 1.7377282362e+00 3.0098335949e+00 
90200 6.9054607455e+00 2.7397279397e-04 1.7377203080e+00 -3.0098198627e+00 1.7377203080e+00 3.0098198627e+00 
90300 6.9054605683e+00 2.7241082840e-04 1.7377124249e+00 -3.0098062088e+00 1.7377124249e+00 3.0098062088e+00 
90400 6.9054603925e+00 2.7085828356e-04 1.7377045867e+00 -3.0097926326e+00 1.7377045867e+00 3.0097926326e+00 
90500 6.9054602182e+00 2.6931575927e-04 1.7376967931e+00 -3.0097791338e+00 1.7376967931e+00 3.0097791338e+00 
90600 6.9054600453e+00 2.6778383212e-04 1.7376890439e+00 -3.0097657118e+00 1.7376890439e+00 3.0097657118e+00 
90700 6.9054598737e+00 2.6626305494e-04 1.7376813387e+00 -3.0097523660e+00 1.7376813387e+00 3.0097523660e+00 
90800 6.9054597036e+00 2.6475395632e-04 1.7376736773e+00 -3.0097390960e+00 1.7376736773e+00 3.0097390960e+00 
90900 6.9054595348e+00 2.6325704020e-04 1.7376660592e+00 -3.0097259012e+00 1.7376660592e+00 3.0097259012e+00 
91000 6.9054593674e+00 2.6177278551e-04 1.7376584842e+00 -3.0097127809e+00 1.7376584842e+00 3.0097127809e+00 
91100 6.9054592014e+00 2.6030164582e-04 1.7376509519e+00 -3.0096997345e+00 1.7376509519e+00 3.0096997345e+00 
91200 6.9054590367e+00 2.5884404912e-04 1.7376434618e+00 -3.0096867613e+00 1.7376434618e+00 3.0096867613e+00 
91300 6.9054588733e+00 2.5740039763e-04 1.7376360137e+00 -3.0096738608e+00 1.7376360137e+00 3.0096738608e+00 
91400 6.9054587113e+00 2.5597106758e-04 1.7376286071e+00 -3.0096610322e+00 1.7376286071e+00 3.0096610322e+00 
91500 6.9054585505e+00 2.5455640917e-04 1.7376212416e+00 -3.0096482747e+00 1.7376212416e+00 3.0096482747e+00 
91600 6.9054583911e+00 2.5315674646e-04 1.7376139167e+00 -3.0096355877e+00 1.7376139167e+00 3.0096355877e+00 
91700 6.9054582330e+00 2.5177237741e-04 1.7376066321e+00 -3.0096229704e+00 1.7376066321e+00 3.0096229704e+00 
91800 6.9054580761e+00 2.5040357389e-04 1.7375993873e+00 -3.0096104220e+00 1.7375993873e+00 3.0096104220e+00 
91900 6.9054579205e+00 2.4905058176e-04 1.7375921819e+00 -3.0095979418e+00 1.7375921819e+00 3.0095979418e+00 
92000 6.9054577661e+00 2.4771362105e-04 1.7375850153e+00 -3.0095855290e+00 1.7375850153e+00 3.0095855290e+00 
92100 6.9054576130e+00 2.4639288604e-04 1.7375778872e+00 -3.0095731828e+00 1.7375778872e+00 3.0095731828e+00 
92200 6.9054574612e+00 2.4508854559e-04 1.7375707971e+00 -3.0095609024e+00 1.7375707971e+00 3.0095609024e+00 
92300 6.9054573105e+00 2.4380074329e-04 1.7375637445e+00 -3.0095486869e+00 1.7375637445e+00 3.0095486869e+00 
92400 6.9054571611e+00 2.4252959783e-04 1.7375567289e+00 -3.0095365355e+00 1.7375567289e+00 3.0095365355e+00 
92500 6.9054570129e+00 2.4127520329e-04 1.7375497499e+00 -3.0095244475e+00 1.7375497499e+00 3.0095244475e+00 
92600 6.9054568659e+00 2.4003762955e-04 1.7375428069e+00 -3.0095124219e+00 1.7375428069e+00 3.0095124219e+00 
92700 6.9054567201e+00 2.3881692262e-04 1.7375358995e+00 -3.0095004580e+00 1.7375358995e+00 3.0095004580e+00 
92800 6.9054565754e+00 2.3761310518e-04 1.7375290272e+00 -3.0094885548e+00 1.7375290272e+00 3.0094885548e+00 
92900 6.9054564319e+00 2.3642617697e-04 1.7375221896e+00 -3.0094767116e+00 1.7375221896e+00 3.0094767116e+00 
93000 6.9054562896e+00 2.3525611531e-04 1.7375153860e+00 -3.0094649276e+00 1.7375153860e+00 3.0094649276e+00 
93100 6.9054561484e+00 2.3410287565e-04 1.7375086161e+00 -3.0094532018e+00 1.7375086161e+00 3.0094532018e+00 
93200 6.9054560084e+00 2.3296639210e-04 1.7375018794e+00 -3.0094415334e+00 1.7375018794e+00 3.0094415334e+00 
93300 6.9054558695e+00 2.3184657801e-04 1.7374951754e+00 -3.0094299216e+00 1.7374951754e+00 3.0094299216e+00 
93400 6.9054557317e+00 2.3074332661e-04 1.7374885035e+00 -3.0094183656e+00 1.7374885035e+00 3.0094183656e+00 
93500 6.9054555951e+00 2.2965651157e-04 1.7374818634e+00 -3.0094068646e+00 1.7374818634e+00 3.0094068646e+00 
93600 6.9054554595e+00 2.2858598771e-04 1.7374752545e+00 -3.0093954176e+00 1.7374752545e+00 3.0093954176e+00 
93700 6.9054553251e+00 2.2753159165e-04 1.7374686764e+00 -3.0093840240e+00 1.7374686764e+00 3.0093840240e+00 
93800 6.9054551917e+00 2.2649314245e-04 1.7374621286e+00 -3.0093726829e+00 1.7374621286e+00 3.0093726829e+00 
93900 6.9054550594e+00 2.2547044236e-04 1.7374556107e+00 -3.0093613936e+00 1.7374556107e+00 3.0093613936e+00 
94000 6.9054549282e+00 2.2446327752e-04 1.7374491221e+00 -3.0093501551e+00 1.7374491221e+00 3.0093501551e+00 
94100 6.9054547980e+00 2.2347141866e-04 1.7374426626e+00 -3.0093389668e+00 1.7374426626e+00 3.0093389668e+00 
94200 6.9054546689e+00 2.2249462185e-04 1.7374362315e+00 -3.0093278279e+00 1.7374362315e+00 3.0093278279e+00 
94300 6.9054545409e+00 2.2153262925e-04 1.7374298286e+00 -3.0093167377e+00 1.7374298286e+00 3.0093167377e+00 
94400 6.9054544138e+00 2.2058516987e-04 1.7374234533e+00 -3.0093056954e+00 1.7374234533e+00 3.0093056954e+00 
94500 6.9054542878e+00 2.1965196030e-04 1.7374171052e+00 -3.0092947002e+00 1.7374171052e+00 3.0092947002e+00 
94600 6.9054541628e+00 2.1873270547e-04 1.7374107840e+00 -3.0092837515e+00 1.7374107840e+00 3.0092837515e+00 
94700 6.9054540389e+00 2.1782709947e-04 1.7374044892e+00 -3.0092728487e+00 1.7374044892e+00 3.0092728487e+00 
94800 6.9054539159e+00 2.1693482624e-04 1.7373982205e+00 -3.0092619909e+00 1.7373982205e+00 3.0092619909e+00 
94900 6.9054537939e+00 2.1605556041e-04 1.7373919774e+00 -3.0092511775e+00 1.7373919774e+00 3.0092511775e+00 
95000 6.9054536729e+00 2.1518896800e-04 1.7373857596e+00 -3.0092404080e+00 1.7373857596e+00 3.0092404080e+00 
95100 6.9054535529e+00 2.1433470725e-04 1.7373795667e+00 -3.0092296816e+00 1.7373795667e+00 3.0092296816e+00 
95200 6.9054534339e+00 2.1349242932e-04 1.7373733984e+00 -3.0092189977e+00 1.7373733984e+00 3.0092189977e+00 
95300 6.9054533158e+00 2.1266177908e-04 1.7373672543e+00 -3.0092083558e+00 1.7373672543e+00 3.0092083558e+00 
95400 6.9054531987e+00 2.1184239585e-04 1.7373611340e+00 -3.0091977552e+00 1.7373611340e+00 3.0091977552e+00 
95500 6.9054530825e+00 2.1103391414e-04 1.7373550374e+00 -3.0091871955e+00 1.7373550374e+00 3.0091871955e+00 
95600 6.9054529673e+00 2.1023596439e-04 1.7373489639e+00 -3.0091766760e+00 1.7373489639e+00 3.0091766760e+00 
95700 6.9054528530e+00 2.0944817369e-04 1.7373429135e+00 -3.0091661963e+00 1.7373429135e+00 3.0091661963e+00 
95800 6.9054527396e+00 2.0867016648e-04 1.7373368856e+00 -3.0091557558e+00 1.7373368856e+00 3.0091557558e+00 
95900 6.9054526271e+00 2.0790156527e-04 1.7373308802e+00 -3.0091453540e+00 1.7373308802e+00 3.0091453540e+00 
96000 6.9054525156e+00 2.0714199130e-04 1.7373248968e+00 -3.0091349905e+00 1.7373248968e+00 3.0091349905e+00 
96100 6.9054524049e+00 2.0639106526e-04 1.7373189353e+00 -3.0091246649e+00 1.7373189353e+00 3.0091246649e+00 
96200 6.9054522952e+00 2.0564840789e-04 1.7373129954e+00 -3.0091143766e+00 1.7373129954e+00 3.0091143766e+00 
96300 6.9054521863e+00 2.0491364069e-04 1.7373070768e+00 -3.0091041254e+00 1.7373070768e+00 3.0091041254e+00 
96400 6.9054520783e+00 2.0418638648e-04 1.7373011794e+00 -3.0090939107e+00 1.7373011794e+00 3.0090939107e+00 
96500 6.9054519712e+00 2.0346627006e-04 1.7372953028e+00 -3.0090837322e+00 1.7372953028e+00 3.0090837322e+00 
96600 6.9054518650e+00 2.0275291881e-04 1.7372894470e+00 -3.0090735896e+00 1.7372894470e+00 3.0090735896e+00 
96700 6.9054517596e+00 2.0204596320e-04 1.7372836117e+00 -3.0090634826e+00 1.7372836117e+00 3.0090634826e+00 
96800 6.9054516551e+00 2.0134503741e-04 1.7372777967e+00 -3.0090534107e+00 1.7372777967e+00 3.0090534107e+00 
96900 6.9054515514e+00 2.0064977985e-04 1.7372720018e+00 -3.0090433737e+00 1.7372720018e+00 3.0090433737e+00 
97000 6.9054514485e+00 1.9995983367e-04 1.7372662270e+00 -3.0090333714e+00 1.7372662270e+00 3.0090333714e+00 
97100 6.9054513465e+00 1.9927484725e-04 1.7372604720e+00 -3.0090234034e+00 1.7372604720e+00 3.0090234034e+00 
97200 6.9054512453e+00 1.9859447469e-04 1.7372547367e+00 -3.0090134696e+00 1.7372547367e+00 3.0090134696e+00 
97300 6.9054511450e+00 1.9791837625e-04 1.7372490209e+00 -3.0090035696e+00 1.7372490209e+00 3.0090035696e+00 
97400 6.9054510454e+00 1.9724621881e-04 1.7372433246e+00 -3.0089937033e+00 1.7372433246e+00 3.0089937033e+00 
97500 6.9054509466e+00 1.9657767623e-04 1.7372376476e+00 -3.0089838705e+00 1.7372376476e+00 3.0089838705e+00 
97600 6.9054508487e+00 1.9591242981e-04 1.7372319898e+00 -3.0089740709e+00 1.7372319898e+00 3.0089740709e+00 
97700 6.9054507515e+00 1.9525016859e-04 1.7372263512e+00 -3.0089643045e+00 1.7372263512e+00 3.0089643045e+00 
97800 6.9054506551e+00 1.9459058972e-04 1.7372207316e+00 -3.0089545711e+00 1.7372207316e+00 3.0089545711e+00 
97900 6.9054505595e+00 1.9393339880e-04 1.7372151310e+00 -3.0089448706e+00 1.7372151310e+00 3.0089448706e+00 
98000 6.9054504647e+00 1.9327831016e-04 1.7372095493e+00 -3.0089352027e+00 1.7372095493e+00 3.0089352027e+00 
98100 6.9054503706e+00 1.9262504715e-04 1.7372039864e+00 -3.0089255675e+00 1.7372039864e+00 3.0089255675e+00 
98200 6.9054502773e+00 1.9197334236e-04 1.7371984423e+00 -3.0089159648e+00 1.7371984423e+00 3.0089159648e+00 
98300 6.9054501848e+00 1.9132293789e-04 1.7371929169e+00 -3.0089063946e+00 1.7371929169e+00 3.0089063946e+00 
98400 6.9054500930e+00 1.9067358557e-04 1.7371874102e+00 -3.0088968568e+00 1.7371874102e+00 3.0088968568e+00 
98500 6.9054500019e+00 1.9002504710e-04 1.7371819222e+00 -3.0088873513e+00 1.7371819222e+00 3.0088873513e+00 
98600 6.9054499116e+00 1.8937709425e-04 1.7371764529e+00 -3.0088778781e+00 1.7371764529e+00 3.0088778781e+00 
98700 6.9054498220e+00 1.8872950901e-04 1.7371710022e+00 -3.0088684372e+00 1.7371710022e+00 3.0088684372e+00 
98800 6.9054497331e+00 1.8808208368e-04 1.7371655701e+00 -3.0088590285e+00 1.7371655701e+00 3.0088590285e+00 
98900 6.9054496450e+00 1.8743462100e-04 1.7371601566e+00 -3.0088496521e+00 1.7371601566e+00 3.0088496521e+00 
99000 6.9054495576e+00 1.8678693425e-04 1.7371547618e+00 -3.0088403080e+00 1.7371547618e+00 3.0088403080e+00 
99100 6.9054494708e+00 1.8613884723e-04 1.7371493855e+00 -3.0088309961e+00 1.7371493855e+00 3.0088309961e+00 
99200 6.9054493848e+00 1.8549019440e-04 1.7371440279e+00 -3.0088217164e+00 1.7371440279e+00 3.0088217164e+00 
99300 6.9054492995e+00 1.8484082084e-04 1.7371386890e+00 -3.0088124691e+00 1.7371386890e+00 3.0088124691e+00 
99400 6.9054492148e+00 1.8419058225e-04 1.7371333687e+00 -3.0088032542e+00 1.7371333687e+00 3.0088032542e+00 
99500 6.9054491308e+00 1.8353934498e-04 1.7371280672e+00 -3.0087940716e+00 1.7371280672e+00 3.0087940716e+00 
99600 6.9054490476e+00 1.8288698593e-04 1.7371227843e+00 -3.0087849214e+00 1.7371227843e+00 3.0087849214e+00 
99700 6.9054489649e+00 1.8223339255e-04 1.7371175203e+00 -3.0087758038e+00 1.7371175203e+00 3.0087758038e+00 
99800 6.9054488830e+00 1.8157846272e-04 1.7371122750e+00 -3.0087667187e+00 1.7371122750e+00 3.0087667187e+00 
99900 6.9054488017e+00 1.8092210474e-04 1.7371070485e+00 -3.0087576663e+00 1.7371070485e+00 3.0087576663e+00 
100000 6.9054487211e+00 1.8026423710e-04 1.7371018410e+00 -3.0087486465e+00 1.7371018410e+00 3.0087486465e+00 
100100 6.9054486411e+00 1.7960478851e-04 1.7370966523e+00 -3.0087396595e+00 1.7370966523e+00 3.0087396595e+00 
100200 6.9054485618e+00 1.7894369762e-04 1.7370914826e+00 -3.0087307053e+00 1.7370914826e+00 3.0087307053e+00 
100300 6.9054484831e+00 1.7828091300e-04 1.7370863320e+00 -3.0087217841e+00 1.7370863320e+00 3.0087217841e+00 
100400 6.9054484050e+00 1.7761639286e-04 1.7370812004e+00 -3.0087128959e+00 1.7370812004e+00 3.0087128959e+00 
100500 6.9054483276e+00 1.7695010495e-04 1.7370760879e+00 -3.0087040408e+00 1.7370760879e+00 3.0087040408e+00 
100600 6.9054482508e+00 1.7628202636e-04 1.7370709945e+00 -3.0086952189e+00 1.7370709945e+00 3.0086952189e+00 
100700 6.9054481746e+00 1.7561214329e-04 1.7370659204e+00 -3.0086864303e+00 1.7370659204e+00 3.0086864303e+00 
100800 6.9054480991e+00 1.7494045085e-04 1.7370608656e+00 -3.0086776750e+00 1.7370608656e+00 3.0086776750e+00 
100900 6.9054480241e+00 1.7426695284e-04 1.7370558301e+00 -3.0086689532e+00 1.7370558301e+00 3.0086689532e+00 
101000 6.9054479498e+00 1.7359166150e-04 1.7370508139e+00 -3.0086602650e+00 1.7370508139e+00 3.0086602650e+00 
101100 6.9054478760e+00 1.7291459731e-04 1.7370458172e+00 -3.0086516104e+00 1.7370458172e+00 3.0086516104e+00 
101200 6.9054478029e+00 1.7223578868e-04 1.7370408399e+00 -3.0086429895e+00 1.7370408399e+00 3.0086429895e+00 
101300 6.9054477303e+00 1.7155527173e-04 1.7370358822e+00 -3.0086344025e+00 1.7370358822e+00 3.0086344025e+00 
101400 6.9054476584e+00 1.7087308998e-04 1.7370309440e+00 -3.0086258494e+00 1.7370309440e+00 3.0086258494e+00 
101500 6.9054475870e+00 1.7018929415e-04 1.7370260255e+00 -3.0086173302e+00 1.7370260255e+00 3.0086173302e+00 
101600 6.9054475162e+00 1.6950394177e-04 1.7370211266e+00 -3.0086088451e+00 1.7370211266e+00 3.0086088451e+00 
101700 6.9054474459e+00 1.6881709701e-04 1.7370162475e+00 -3.0086003942e+00 1.7370162475e+00 3.0086003942e+00 
101800 6.9054473762e+00 1.6812883029e-04 1.7370113881e+00 -3.0085919775e+00 1.7370113881e+00 3.0085919775e+00 
101900 6.9054473071e+00 1.6743921805e-04 1.7370065485e+00 -3.0085835950e+00 1.7370065485e+00 3.0085835950e+00 
102000 6.9054472386e+00 1.6674834243e-04 1.7370017287e+00 -3.0085752469e+00 1.7370017287e+00 3.0085752469e+00 
102100 6.9054471706e+00 1.6605629093e-04 1.7369969288e+00 -3.0085669333e+00 1.7369969288e+00 3.0085669333e+00 
102200 6.9054471031e+00 1.6536315617e-04 1.7369921488e+00 -3.0085586541e+00 1.7369921488e+00 3.0085586541e+00 
102300 6.9054470362e+00 1.6466903554e-04 1.7369873888e+00 -3.0085504095e+00 1.7369873888e+00 3.0085504095e+00 
102400 6.9054469698e+00 1.6397403090e-04 1.7369826487e+00 -3.0085421994e+00 1.7369826487e+00 3.0085421994e+00 
102500 6.9054469040e+00 1.6327824827e-04 1.7369779286e+00 -3.0085340240e+00 1.7369779286e+00 3.0085340240e+00 
102600 6.9054468387e+00 1.6258179755e-04 1.7369732286e+00 -3.0085258833e+00 1.7369732286e+00 3.0085258833e+00 
102700 6.9054467740e+00 1.6188479216e-04 1.7369685485e+00 -3.0085177772e+00 1.7369685485e+00 3.0085177772e+00 
102800 6.9054467097e+00 1.6118734875e-04 1.7369638886e+00 -3.0085097059e+00 1.7369638886e+00 3.0085097059e+00 
102900 6.9054466460e+00 1.6048958694e-04 1.7369592487e+00 -3.0085016693e+00 1.7369592487e+00 3.0085016693e+00 
103000 6.9054465828e+00 1.5979162895e-04 1.7369546288e+00 -3.0084936675e+00 1.7369546288e+00 3.0084936675e+00 
103100 6.9054465201e+00 1.5909359934e-04 1.7369500290e+00 -3.0084857005e+00 1.7369500290e+00 3.0084857005e+00 
103200 6.9054464579e+00 1.5839562470e-04 1.7369454494e+00 -3.0084777683e+00 1.7369454494e+00 3.0084777683e+00 
103300 6.9054463962e+00 1.5769783333e-04 1.7369408898e+00 -3.0084698708e+00 1.7369408898e+00 3.0084698708e+00 
103400 6.9054463350e+00 1.5700035502e-04 1.7369363502e+00 -3.0084620081e+00 1.7369363502e+00 3.0084620081e+00 
103500 6.9054462743e+00 1.5630332067e-04 1.7369318308e+00 -3.0084541802e+00 1.7369318308e+00 3.0084541802e+00 
103600 6.9054462141e+00 1.5560686210e-04 1.7369273314e+00 -3.0084463870e+00 1.7369273314e+00 3.0084463870e+00 
103700 6.9054461543e+00 1.5491111168e-04 1.7369228520e+00 -3.0084386285e+00 1.7369228520e+00 3.0084386285e+00 
103800 6.9054460951e+00 1.5421620215e-04 1.7369183927e+00 -3.0084309047e+00 1.7369183927e+00 3.0084309047e+00 
103900 6.9054460363e+00 1.5352226629e-04 1.7369139533e+00 -3.0084232155e+00 1.7369139533e+00 3.0084232155e+00 
104000 6.9054459781e+00 1.5282943668e-04 1.7369095339e+00 -3.0084155609e+00 1.7369095339e+00 3.0084155609e+00 
104100 6.9054459202e+00 1.5213784546e-04 1.7369051344e+00 -3.0084079408e+00 1.7369051344e+00 3.0084079408e+00 
104200 6.9054458629e+00 1.5144762409e-04 1.7369007549e+00 -3.0084003551e+00 1.7369007549e+00 3.0084003551e+00 
104300 6.9054458060e+00 1.5075890306e-04 1.7368963952e+00 -3.0083928039e+00 1.7368963952e+00 3.0083928039e+00 
104400 6.9054457496e+00 1.5007181171e-04 1.7368920553e+00 -3.0083852870e+00 1.7368920553e+00 3.0083852870e+00 
104500 6.9054456936e+00 1.4938647802e-04 1.7368877351e+00 -3.0083778043e+00 1.7368877351e+00 3.0083778043e+00 
104600 6.9054456381e+00 1.4870302831e-04 1.7368834347e+00 -3.0083703558e+00 1.7368834347e+00 3.0083703558e+00 
104700 6.9054455830e+00 1.4802158714e-04 1.7368791540e+00 -3.0083629413e+00 1.7368791540e+00 3.0083629413e+00 
104800 6.9054455284e+00 1.4734227703e-04 1.7368748929e+00 -3.0083555608e+00 1.7368748929e+00 3.0083555608e+00 
104900 6.9054454742e+00 1.4666521829e-04 1.7368706513e+00 -3.0083482142e+00 1.7368706513e+00 3.0083482142e+00 
105000 6.9054454204e+00 1.4599052887e-04 1.7368664292e+00 -3.0083409013e+00 1.7368664292e+00 3.0083409013e+00 
105100 6.9054453671e+00 1.4531832414e-04 1.7368622265e+00 -3.0083336220e+00 1.7368622265e+00 3.0083336220e+00 
105200 6.9054453143e+00 1.4464871675e-04 1.7368580431e+00 -3.0083263762e+00 1.7368580431e+00 3.0083263762e+00 
105300 6.9054452618e+00 1.4398181647e-04 1.7368538790e+00 -3.0083191638e+00 1.7368538790e+00 3.0083191638e+00 
105400 6.9054452098e+00 1.4331773004e-04 1.7368497341e+00 -3.0083119846e+00 1.7368497341e+00 3.0083119846e+00 
105500 6.9054451582e+00 1.4265656101e-04 1.7368456083e+00 -3.0083048385e+00 1.7368456083e+00 3.0083048385e+00 
105600 6.9054451070e+00 1.4199840966e-04 1.7368415016e+00 -3.0082977254e+00 1.7368415016e+00 3.0082977254e+00 
105700 6.9054450562e+00 1.4134337285e-04 1.7368374137e+00 -3.0082906451e+00 1.7368374137e+00 3.0082906451e+00 
105800 6.9054450058e+00 1.4069154390e-04 1.7368333447e+00 -3.0082835974e+00 1.7368333447e+00 3.0082835974e+00 
105900 6.9054449558e+00 1.4004301248e-04 1.7368292945e+00 -3.0082765822e+00 1.7368292945e+00 3.0082765822e+00 
106000 6.9054449063e+00 1.3939786457e-04 1.7368252629e+00 -3.0082695993e+00 1.7368252629e+00 3.0082695993e+00 
106100 6.9054448571e+00 1.3875618230e-04 1.7368212499e+00 -3.0082626486e+00 1.7368212499e+00 3.0082626486e+00 
106200 6.9054448084e+00 1.3811804394e-04 1.7368172554e+00 -3.0082557298e+00 1.7368172554e+00 3.0082557298e+00 
106300 6.9054447600e+00 1.3748352379e-04 1.7368132792e+00 -3.0082488429e+00 1.7368132792e+00 3.0082488429e+00 
106400 6.9054447120e+00 1.3685269215e-04 1.7368093213e+00 -3.0082419875e+00 1.7368093213e+00 3.0082419875e+00 
106500 6.9054446644e+00 1.3622561524e-04 1.7368053815e+00 -3.0082351636e+00 1.7368053815e+00 3.0082351636e+00 
106600 6.9054446172e+00 1.3560235519e-04 1.7368014598e+00 -3.0082283710e+00 1.7368014598e+00 3.0082283710e+00 
106700 6.9054445704e+00 1.3498296999e-04 1.7367975560e+00 -3.0082216094e+00 1.7367975560e+00 3.0082216094e+00 
106800 6.9054445239e+00 1.3436751345e-04 1.7367936700e+00 -3.0082148787e+00 1.7367936700e+00 3.0082148787e+00 
106900 6.9054444779e+00 1.3375603524e-04 1.7367898018e+00 -3.0082081787e+00 1.7367898018e+00 3.0082081787e+00 
107000 6.9054444322e+00 1.3314858080e-04 1.7367859511e+00 -3.0082015092e+00 1.7367859511e+00 3.0082015092e+00 
107100 6.9054443868e+00 1.3254519142e-04 1.7367821179e+00 -3.0081948699e+00 1.7367821179e+00 3.0081948699e+00 
107200 6.9054443419e+00 1.3194590418e-04 1.7367783021e+00 -3.0081882607e+00 1.7367783021e+00 3.0081882607e+00 
107300 6.9054442973e+00 1.3135075201e-04 1.7367745035e+00 -3.0081816814e+00 1.7367745035e+00 3.0081816814e+00 
107400 6.9054442530e+00 1.3075976369e-04 1.7367707220e+00 -3.0081751317e+00 1.7367707220e+00 3.0081751317e+00 
107500 6.9054442091e+00 1.3017296387e-04 1.7367669576e+00 -3.0081686115e+00 1.7367669576e+00 3.0081686115e+00 
107600 6.9054441656e+00 1.2959037313e-04 1.7367632100e+00 -3.0081621205e+00 1.7367632100e+00 3.0081621205e+00 
107700 6.9054441224e+00 1.2901200802e-04 1.7367594792e+00 -3.0081556586e+00 1.7367594792e+00 3.0081556586e+00 
107800 6.9054440796e+00 1.2843788108e-04 1.7367557651e+00 -3.0081492254e+00 1.7367557651e+00 3.0081492254e+00 
107900 6.9054440371e+00 1.2786800091e-04 1.7367520674e+00 -3.0081428210e+00 1.7367520674e+00 3.0081428210e+00 
108000 6.9054439950e+00 1.2730237223e-04 1.7367483862e+00 -3.0081364449e+00 1.7367483862e+00 3.0081364449e+00 
108100 6.9054439531e+00 1.2674099596e-04 1.7367447212e+00 -3.0081300970e+00 1.7367447212e+00 3.0081300970e+00 
108200 6.9054439117e+00 1.2618386927e-04 1.7367410724e+00 -3.0081237770e+00 1.7367410724e+00 3.0081237770e+00 
108300 6.9054438706e+00 1.2563098565e-04 1.7367374397e+00 -3.0081174849e+00 1.7367374397e+00 3.0081174849e+00 
108400 6.9054438298e+00 1.2508233501e-04 1.7367338228e+00 -3.0081112203e+00 1.7367338228e+00 3.0081112203e+00 
108500 6.9054437893e+00 1.2453790378e-04 1.7367302217e+00 -3.0081049830e+00 1.7367302217e+00 3.0081049830e+00 
108600 6.9054437491e+00 1.2399767494e-04 1.7367266363e+00 -3.0080987729e+00 1.7367266363e+00 3.0080987729e+00 
108700 6.9054437093e+00 1.2346162818e-04 1.7367230664e+00 -3.0080925897e+00 1.7367230664e+00 3.0080925897e+00 
108800 6.9054436698e+00 1.2292973995e-04 1.7367195120e+00 -3.0080864333e+00 1.7367195120e+00 3.0080864333e+00 
108900 6.9054436307e+00 1.2240198361e-04 1.7367159729e+00 -3.0080803033e+00 1.7367159729e+00 3.0080803033e+00 
109000 6.9054435918e+00 1.2187832945e-04 1.7367124489e+00 -3.0080741996e+00 1.7367124489e+00 3.0080741996e+00 
109100 6.9054435532e+00 1.2135874492e-04 1.7367089400e+00 -3.0080681221e+00 1.7367089400e+00 3.0080681221e+00 
109200 6.9054435150e+00 1.2084319461e-04 1.7367054461e+00 -3.0080620704e+00 1.7367054461e+00 3.0080620704e+00 
109300 6.9054434771e+00 1.2033164046e-04 1.7367019670e+00 -3.0080560445e+00 1.7367019670e+00 3.0080560445e+00 
109400 6.9054434395e+00 1.1982404182e-04 1.7366985026e+00 -3.0080500440e+00 1.7366985026e+00 3.0080500440e+00 
109500 6.9054434021e+00 1.1932035561e-04 1.7366950529e+00 -3.0080440688e+00 1.7366950529e+00 3.0080440688e+00 
109600 6.9054433651e+00 1.1882053637e-04 1.7366916176e+00 -3.0080381188e+00 1.7366916176e+00 3.0080381188e+00 
109700 6.9054433284e+00 1.1832453648e-04 1.7366881967e+00 -3.0080321936e+00 1.7366881967e+00 3.0080321936e+00 
109800 6.9054432920e+00 1.1783230618e-04 1.7366847901e+00 -3.0080262932e+00 1.7366847901e+00 3.0080262932e+00 
109900 6.9054432559e+00 1.1734379374e-04 1.7366813977e+00 -3.0080204173e+00 1.7366813977e+00 3.0080204173e+00 
110000 6.9054432200e+00 1.1685894561e-04 1.7366780193e+00 -3.0080145658e+00 1.7366780193e+00 3.0080145658e+00 
110100 6.9054431845e+00 1.1637770648e-04 1.7366746548e+00 -3.0080087384e+00 1.7366746548e+00 3.0080087384e+00 
110200 6.9054431492e+00 1.1590001945e-04 1.7366713042e+00 -3.0080029350e+00 1.7366713042e+00 3.0080029350e+00 
110300 6.9054431142e+00 1.1542582614e-04 1.7366679674e+00 -3.0079971554e+00 1.7366679674e+00 3.0079971554e+00 
110400 6.9054430795e+00 1.1495506682e-04 1.7366646442e+00 -3.0079913995e+00 1.7366646442e+00 3.0079913995e+00 
110500 6.9054430451e+00 1.1448768050e-04 1.7366613345e+00 -3.0079856670e+00 1.7366613345e+00 3.0079856670e+00 
110600 6.9054430110e+00 1.1402360511e-04 1.7366580383e+00 -3.0079799578e+00 1.7366580383e+00 3.0079799578e+00 
110700 6.9054429771e+00 1.1356277757e-04 1.7366547555e+00 -3.0079742717e+00 1.7366547555e+00 3.0079742717e+00 
110800 6.9054429436e+00 1.1310513393e-04 1.7366514859e+00 -3.0079686087e+00 1.7366514859e+00 3.0079686087e+00 
110900 6.9054429102e+00 1.1265060951e-04 1.7366482295e+00 -3.0079629684e+00 1.7366482295e+00 3.0079629684e+00 
111000 6.9054428772e+00 1.1219913897e-04 1.7366449862e+00 -3.0079573508e+00 1.7366449862e+00 3.0079573508e+00 
111100 6.9054428444e+00 1.1175065647e-04 1.7366417558e+00 -3.0079517557e+00 1.7366417558e+00 3.0079517557e+00 
111200 6.9054428119e+00 1.1130509577e-04 1.7366385384e+00 -3.0079461829e+00 1.7366385384e+00 3.0079461829e+00 
111300 6.9054427797e+00 1.1086239033e-04 1.7366353338e+00 -3.0079406323e+00 1.7366353338e+00 3.0079406323e+00 
111400 6.9054427477e+00 1.1042247344e-04 1.7366321419e+00 -3.0079351039e+00 1.7366321419e+00 3.0079351039e+00 
111500 6.9054427159e+00 1.0998527832e-04 1.7366289627e+00 -3.0079295973e+00 1.7366289627e+00 3.0079295973e+00 
111600 6.9054426844e+00 1.0955073823e-04 1.7366257961e+00 -3.0079241125e+00 1.7366257961e+00 3.0079241125e+00 
111700 6.9054426532e+00 1.0911878656e-04 1.7366226419e+00 -3.0079186494e+00 1.7366226419e+00 3.0079186494e+00 
111800 6.9054426223e+00 1.0868935695e-04 1.7366195003e+00 -3.0079132079e+00 1.7366195003e+00 3.0079132079e+00 
111900 6.9054425915e+00 1.0826238337e-04 1.7366163709e+00 -3.0079077877e+00 1.7366163709e+00 3.0079077877e+00 
112000 6.9054425611e+00 1.0783780023e-04 1.7366132539e+00 -3.0079023888e+00 1.7366132539e+00 3.0079023888e+00 
112100 6.9054425308e+00 1.0741554248e-04 1.7366101490e+00 -3.0078970111e+00 1.7366101490e+00 3.0078970111e+00 
112200 6.9054425009e+00 1.0699554566e-04 1.7366070564e+00 -3.0078916544e+00 1.7366070564e+00 3.0078916544e+00 
112300 6.9054424711e+00 1.0657774603e-04 1.7366039758e+00 -3.0078863187e+00 1.7366039758e+00 3.0078863187e+00 
112400 6.9054424416e+00 1.0616208064e-04 1.7366009072e+00 -3.0078810037e+00 1.7366009072e+00 3.0078810037e+00 
112500 6.9054424123e+00 1.0574848739e-04 1.7365978506e+00 -3.0078757096e+00 1.7365978506e+00 3.0078757096e+00 
112600 6.9054423833e+00 1.0533690513e-04 1.7365948059e+00 -3.0078704360e+00 1.7365948059e+00 3.0078704360e+00 
112700 6.9054423545e+00 1.0492727373e-04 1.7365917730e+00 -3.0078651829e+00 1.7365917730e+00 3.0078651829e+00 
112800 6.9054423260e+00 1.0451953414e-04 1.7365887520e+00 -3.0078599503e+00 1.7365887520e+00 3.0078599503e+00 
112900 6.9054422976e+00 1.0411362847e-04 1.7365857426e+00 -3.0078547379e+00 1.7365857426e+00 3.0078547379e+00 
113000 6.9054422695e+00 1.0370950002e-04 1.7365827450e+00 -3.0078495459e+00 1.7365827450e+00 3.0078495459e+00 
113100 6.9054422417e+00 1.0330709338e-04 1.7365797590e+00 -3.0078443739e+00 1.7365797590e+00 3.0078443739e+00 
113200 6.9054422140e+00 1.0290635446e-04 1.7365767845e+00 -3.0078392220e+00 1.7365767845e+00 3.0078392220e+00 
113300 6.9054421866e+00 1.0250723057e-04 1.7365738216e+00 -3.0078340901e+00 1.7365738216e+00 3.0078340901e+00 
113400 6.9054421594e+00 1.0210967042e-04 1.7365708702e+00 -3.0078289781e+00 1.7365708702e+00 3.0078289781e+00 
113500 6.9054421324e+00 1.0171362420e-04 1.7365679302e+00 -3.0078238859e+00 1.7365679302e+00 3.0078238859e+00 
113600 6.9054421056e+00 1.0131904362e-04 1.7365650016e+00 -3.0078188135e+00 1.7365650016e+00 3.0078188135e+00 
113700 6.9054420791e+00 1.0092588194e-04 1.7365620844e+00 -3.0078137607e+00 1.7365620844e+00 3.0078137607e+00 
113800 6.9054420527e+00 1.0053409399e-04 1.7365591785e+00 -3.0078087275e+00 1.7365591785e+00 3.0078087275e+00 
113900 6.9054420266e+00 1.0014363623e-04 1.7365562839e+00 -3.0078037139e+00 1.7365562839e+00 3.0078037139e+00 
114000 6.9054420007e+00 9.9754466763e-05 1.7365534005e+00 -3.0077987197e+00 1.7365534005e+00 3.0077987197e+00 
114100 6.9054419750e+00 9.9366545341e-05 1.7365505283e+00 -3.0077937449e+00 1.7365505283e+00 3.0077937449e+00 
114200 6.9054419495e+00 9.8979833406e-05 1.7365476672e+00 -3.0077887894e+00 1.7365476672e+00 3.0077887894e+00 
114300 6.9054419242e+00 9.8594294105e-05 1.7365448173e+00 -3.0077838533e+00 1.7365448173e+00 3.0077838533e+00 
114400 6.9054418991e+00 9.8209892289e-05 1.7365419785e+00 -3.0077789363e+00 1.7365419785e+00 3.0077789363e+00 
114500 6.9054418742e+00 9.7826594542e-05 1.7365391508e+00 -3.0077740385e+00 1.7365391508e+00 3.0077740385e+00 
114600 6.9054418496e+00 9.7444369170e-05 1.7365363341e+00 -3.0077691598e+00 1.7365363341e+00 3.0077691598e+00 
114700 6.9054418251e+00 9.7063186215e-05 1.7365335284e+00 -3.0077643002e+00 1.7365335284e+00 3.0077643002e+00 
114800 6.9054418008e+00 9.6683017445e-05 1.7365307336e+00 -3.0077594596e+00 1.7365307336e+00 3.0077594596e+00 
114900 6.9054417767e+00 9.6303836367e-05 1.7365279498e+00 -3.0077546379e+00 1.7365279498e+00 3.0077546379e+00 
115000 6.9054417528e+00 9.5925618204e-05 1.7365251770e+00 -3.0077498351e+00 1.7365251770e+00 3.0077498351e+00 
115100 6.9054417291e+00 9.5548339897e-05 1.7365224150e+00 -3.0077450512e+00 1.7365224150e+00 3.0077450512e+00 
115200 6.9054417056e+00 9.5171980091e-05 1.7365196638e+00 -3.0077402861e+00 1.7365196638e+00 3.0077402861e+00 
115300 6.9054416823e+00 9.4796519116e-05 1.7365169235e+00 -3.0077355397e+00 1.7365169235e+00 3.0077355397e+00 
115400 6.9054416591e+00 9.4421938985e-05 1.7365141940e+00 -3.0077308121e+00 1.7365141940e+00 3.0077308121e+00 
115500 6.9054416362e+00 9.4048223350e-05 1.7365114753e+00 -3.0077261031e+00 1.7365114753e+00 3.0077261031e+00 
115600 6.9054416134e+00 9.3675357500e-05 1.7365087673e+00 -3.0077214128e+00 1.7365087673e+00 3.0077214128e+00 
115700 6.9054415908e+00 9.3303328336e-05 1.7365060701e+00 -3.0077167410e+00 1.7365060701e+00 3.0077167410e+00 
115800 6.9054415684e+00 9.2932124327e-05 1.7365033836e+00 -3.0077120879e+00 1.7365033836e+00 3.0077120879e+00 
115900 6.9054415462e+00 9.2561735508e-05 1.7365007077e+00 -3.0077074532e+00 1.7365007077e+00 3.0077074532e+00 
116000 6.9054415242e+00 9.2192153426e-05 1.7364980425e+00 -3.0077028369e+00 1.7364980425e+00 3.0077028369e+00 
116100 6.9054415023e+00 9.1823371118e-05 1.7364953880e+00 -3.0076982391e+00 1.7364953880e+00 3.0076982391e+00 
116200 6.9054414807e+00 9.1455383076e-05 1.7364927441e+00 -3.0076936597e+00 1.7364927441e+00 3.0076936597e+00 
116300 6.9054414591e+00 9.1088185212e-05 1.7364901107e+00 -3.0076890986e+00 1.7364901107e+00 3.0076890986e+00 
116400 6.9054414378e+00 9.0721774818e-05 1.7364874880e+00 -3.0076845559e+00 1.7364874880e+00 3.0076845559e+00 
116500 6.9054414167e+00 9.0356150524e-05 1.7364848758e+00 -3.0076800314e+00 1.7364848758e+00 3.0076800314e+00 
116600 6.9054413957e+00 8.9991312262e-05 1.7364822741e+00 -3.0076755251e+00 1.7364822741e+00 3.0076755251e+00 
116700 6.9054413748e+00 8.9627261222e-05 1.7364796829e+00 -3.0076710370e+00 1.7364796829e+00 3.0076710370e+00 
116800 6.9054413542e+00 8.9263999811e-05 1.7364771021e+00 -3.0076665671e+00 1.7364771021e+00 3.0076665671e+00 
116900 6.9054413337e+00 8.8901531610e-05 1.7364745319e+00 -3.0076621153e+00 1.7364745319e+00 3.0076621153e+00 
117000 6.9054413134e+00 8.8539861315e-05 1.7364719721e+00 -3.0076576815e+00 1.7364719721e+00 3.0076576815e+00 
117100 6.9054412932e+00 8.8178994712e-05 1.7364694226e+00 -3.0076532658e+00 1.7364694226e+00 3.0076532658e+00 
117200 6.9054412732e+00 8.7818938611e-05 1.7364668836e+00 -3.0076488681e+00 1.7364668836e+00 3.0076488681e+00 
117300 6.9054412534e+00 8.7459700817e-05 1.7364643549e+00 -3.0076444883e+00 1.7364643549e+00 3.0076444883e+00 
117400 6.9054412337e+00 8.7101290057e-05 1.7364618366e+00 -3.0076401264e+00 1.7364618366e+00 3.0076401264e+00 
117500 6.9054412142e+00 8.6743715963e-05 1.7364593286e+00 -3.0076357824e+00 1.7364593286e+00 3.0076357824e+00 
117600 6.9054411948e+00 8.6386988990e-05 1.7364568309e+00 -3.0076314563e+00 1.7364568309e+00 3.0076314563e+00 
117700 6.9054411756e+00 8.6031120392e-05 1.7364543434e+00 -3.0076271479e+00 1.7364543434e+00 3.0076271479e+00 
117800 6.9054411566e+00 8.5676122156e-05 1.7364518662e+00 -3.0076228572e+00 1.7364518662e+00 3.0076228572e+00 
117900 6.9054411377e+00 8.5322006964e-05 1.7364493992e+00 -3.0076185843e+00 1.7364493992e+00 3.0076185843e+00 
118000 6.9054411190e+00 8.4968788141e-05 1.7364469425e+00 -3.0076143290e+00 1.7364469425e+00 3.0076143290e+00 
118100 6.9054411004e+00 8.4616479589e-05 1.7364444958e+00 -3.0076100913e+00 1.7364444958e+00 3.0076100913e+00 
118200 6.9054410819e+00 8.4265095766e-05 1.7364420593e+00 -3.0076058712e+00 1.7364420593e+00 3.0076058712e+00 
118300 6.9054410636e+00 8.3914651610e-05 1.7364396330e+00 -3.0076016686e+00 1.7364396330e+00 3.0076016686e+00 
118400 6.9054410455e+00 8.3565162509e-05 1.7364372167e+00 -3.0075974835e+00 1.7364372167e+00 3.0075974835e+00 
118500 6.9054410275e+00 8.3216644241e-05 1.7364348105e+00 -3.0075933157e+00 1.7364348105e+00 3.0075933157e+00 
118600 6.9054410097e+00 8.2869112935e-05 1.7364324143e+00 -3.0075891654e+00 1.7364324143e+00 3.0075891654e+00 
118700 6.9054409919e+00 8.2522585015e-05 1.7364300281e+00 -3.0075850324e+00 1.7364300281e+00 3.0075850324e+00 
118800 6.9054409744e+00 8.2177077155e-05 1.7364276519e+00 -3.0075809167e+00 1.7364276519e+00 3.0075809167e+00 
118900 6.9054409570e+00 8.1832606238e-05 1.7364252856e+00 -3.0075768182e+00 1.7364252856e+00 3.0075768182e+00 
119000 6.9054409397e+00 8.1489189306e-05 1.7364229292e+00 -3.0075727369e+00 1.7364229292e+00 3.0075727369e+00 
119100 6.9054409225e+00 8.1146843521e-05 1.7364205828e+00 -3.0075686727e+00 1.7364205828e+00 3.0075686727e+00 
119200 6.9054409055e+00 8.0805586104e-05 1.7364182462e+00 -3.0075646256e+00 1.7364182462e+00 3.0075646256e+00 
119300 6.9054408887e+00 8.0465434320e-05 1.7364159194e+00 -3.0075605954e+00 1.7364159194e+00 3.0075605954e+00 
119400 6.9054408719e+00 8.0126405417e-05 1.7364136024e+00 -3.0075565823e+00 1.7364136024e+00 3.0075565823e+00 
119500 6.9054408553e+00 7.9788516585e-05 1.7364112951e+00 -3.0075525860e+00 1.7364112951e+00 3.0075525860e+00 
119600 6.9054408389e+00 7.9451784928e-05 1.7364089976e+00 -3.0075486066e+00 1.7364089976e+00 3.0075486066e+00 
119700 6.9054408225e+00 7.9116227410e-05 1.7364067098e+00 -3.0075446440e+00 1.7364067098e+00 3.0075446440e+00 
119800 6.9054408063e+00 7.8781860838e-05 1.7364044317e+00 -3.0075406981e+00 1.7364044317e+00 3.0075406981e+00 
119900 6.9054407903e+00 7.8448701809e-05 1.7364021631e+00 -3.0075367689e+00 1.7364021631e+00 3.0075367689e+00 
120000 6.9054407743e+00 7.8116766672e-05 1.7363999042e+00 -3.0075328563e+00 1.7363999042e+00 3.0075328563e+00 
120100 6.9054407585e+00 7.7786071519e-05 1.7363976548e+00 -3.0075289602e+00 1.7363976548e+00 3.0075289602e+00 
120200 6.9054407429e+00 7.7456632128e-05 1.7363954149e+00 -3.0075250807e+00 1.7363954149e+00 3.0075250807e+00 
120300 6.9054407273e+00 7.7128463941e-05 1.7363931845e+00 -3.0075212175e+00 1.7363931845e+00 3.0075212175e+00 
120400 6.9054407119e+00 7.6801582039e-05 1.7363909636e+00 -3.0075173708e+00 1.7363909636e+00 3.0075173708e+00 
120500 6.9054406966e+00 7.6476001104e-05 1.7363887521e+00 -3.0075135403e+00 1.7363887521e+00 3.0075135403e+00 
120600 6.9054406814e+00 7.6151735402e-05 1.7363865499e+00 -3.0075097260e+00 1.7363865499e+00 3.0075097260e+00 
120700 6.9054406663e+00 7.5828798753e-05 1.7363843571e+00 -3.0075059279e+00 1.7363843571e+00 3.0075059279e+00 
120800 6.9054406514e+00 7.5507204508e-05 1.7363821736e+00 -3.0075021460e+00 1.7363821736e+00 3.0075021460e+00 
120900 6.9054406366e+00 7.5186965524e-05 1.7363799993e+00 -3.0074983800e+00 1.7363799993e+00 3.0074983800e+00 
121000 6.9054406219e+00 7.4868094152e-05 1.7363778342e+00 -3.0074946301e+00 1.7363778342e+00 3.0074946301e+00 
121100 6.9054406073e+00 7.4550602202e-05 1.7363756784e+00 -3.0074908960e+00 1.7363756784e+00 3.0074908960e+00 
121200 6.9054405928e+00 7.4234500937e-05 1.7363735316e+00 -3.0074871777e+00 1.7363735316e+00 3.0074871777e+00 
121300 6.9054405785e+00 7.3919801062e-05 1.7363713940e+00 -3.0074834753e+00 1.7363713940e+00 3.0074834753e+00 
121400 6.9054405643e+00 7.3606512684e-05 1.7363692654e+00 -3.0074797885e+00 1.7363692654e+00 3.0074797885e+00 
121500 6.9054405501e+00 7.3294645331e-05 1.7363671459e+00 -3.0074761173e+00 1.7363671459e+00 3.0074761173e+00 
121600 6.9054405361e+00 7.2984207912e-05 1.7363650353e+00 -3.0074724617e+00 1.7363650353e+00 3.0074724617e+00 
121700 6.9054405223e+00 7.2675208722e-05 1.7363629337e+00 -3.0074688215e+00 1.7363629337e+00 3.0074688215e+00 
121800 6.9054405085e+00 7.2367655427e-05 1.7363608409e+00 -3.0074651968e+00 1.7363608409e+00 3.0074651968e+00 
121900 6.9054404948e+00 7.2061555057e-05 1.7363587571e+00 -3.0074615874e+00 1.7363587571e+00 3.0074615874e+00 
122000 6.9054404813e+00 7.1756913998e-05 1.7363566820e+00 -3.0074579932e+00 1.7363566820e+00 3.0074579932e+00 
122100 6.9054404678e+00 7.1453737990e-05 1.7363546157e+00 -3.0074544143e+00 1.7363546157e+00 3.0074544143e+00 
122200 6.9054404545e+00 7.1152032116e-05 1.7363525581e+00 -3.0074508505e+00 1.7363525581e+00 3.0074508505e+00 
122300 6.9054404413e+00 7.0851800810e-05 1.7363505092e+00 -3.0074473017e+00 1.7363505092e+00 3.0074473017e+00 
122400 6.9054404281e+00 7.0553047848e-05 1.7363484690e+00 -3.0074437679e+00 1.7363484690e+00 3.0074437679e+00 
122500 6.9054404153e+00 7.2448065403e-05 1.7363484690e+00 -3.0074437679e+00 1.7363484690e+00 3.0074437679e+00 
122600 6.9054404024e+00 7.2096451399e-05 1.7363463827e+00 -3.0074401544e+00 1.7363463827e+00 3.0074401544e+00 
122700 6.9054403896e+00 7.1748045800e-05 1.7363443066e+00 -3.0074365585e+00 1.7363443066e+00 3.0074365585e+00 
122800 6.9054403769e+00 7.1402779107e-05 1.7363422406e+00 -3.0074329800e+00 1.7363422406e+00 3.0074329800e+00 
122900 6.9054403643e+00 7.1060583063e-05 1.7363401844e+00 -3.0074294187e+00 1.7363401844e+00 3.0074294187e+00 
123000 6.9054403518e+00 7.0721390702e-05 1.7363381382e+00 -3.0074258744e+00 1.7363381382e+00 3.0074258744e+00 
123100 6.9054403394e+00 7.0385136374e-05 1.7363361017e+00 -3.0074223471e+00 1.7363361017e+00 3.0074223471e+00 
123200 6.9054403272e+00 7.2238906648e-05 1.7363361017e+00 -3.0074223471e+00 1.7363361017e+00 3.0074223471e+00 
123300 6.9054403150e+00 7.1852639806e-05 1.7363340214e+00 -3.0074187441e+00 1.7363340214e+00 3.0074187441e+00 
123400 6.9054403029e+00 7.1470840823e-05 1.7363319524e+00 -3.0074151603e+00 1.7363319524e+00 3.0074151603e+00 
123500 6.9054402909e+00 7.1093379056e-05 1.7363298943e+00 -3.0074115956e+00 1.7363298943e+00 3.0074115956e+00 
123600 6.9054402790e+00 7.0720127163e-05 1.7363278470e+00 -3.0074080497e+00 1.7363278470e+00 3.0074080497e+00 
123700 6.9054402672e+00 7.0350961153e-05 1.7363258105e+00 -3.0074045224e+00 1.7363258105e+00 3.0074045224e+00 
123800 6.9054402557e+00 7.2171915651e-05 1.7363258105e+00 -3.0074045224e+00 1.7363258105e+00 3.0074045224e+00 
123900 6.9054402440e+00 7.1754890071e-05 1.7363237323e+00 -3.0074009226e+00 1.7363237323e+00 3.0074009226e+00 
124000 6.9054402325e+00 7.1343316549e-05 1.7363216660e+00 -3.0073973437e+00 1.7363216660e+00 3.0073973437e+00 
124100 6.9054402211e+00 7.0937014238e-05 1.7363196115e+00 -3.0073937853e+00 1.7363196115e+00 3.0073937853e+00 
124200 6.9054402097e+00 7.0535807602e-05 1.7363175688e+00 -3.0073902472e+00 1.7363175688e+00 3.0073902472e+00 
124300 6.9054401986e+00 7.2331479607e-05 1.7363175688e+00 -3.0073902472e+00 1.7363175688e+00 3.0073902472e+00 
124400 6.9054401875e+00 7.1884137588e-05 1.7363154859e+00 -3.0073866395e+00 1.7363154859e+00 3.0073866395e+00 
124500 6.9054401764e+00 7.1443119048e-05 1.7363134159e+00 -3.0073830541e+00 1.7363134159e+00 3.0073830541e+00 
124600 6.9054401654e+00 7.1008199173e-05 1.7363113585e+00 -3.0073794908e+00 1.7363113585e+00 3.0073794908e+00 
124700 6.9054401545e+00 7.0579160371e-05 1.7363093137e+00 -3.0073759491e+00 1.7363093137e+00 3.0073759491e+00 
124800 6.9054401439e+00 7.2349146336e-05 1.7363093137e+00 -3.0073759491e+00 1.7363093137e+00 3.0073759491e+00 
124900 6.9054401331e+00 7.1875387639e-05 1.7363072303e+00 -3.0073723405e+00 1.7363072303e+00 3.0073723405e+00 
125000 6.9054401225e+00 7.1408623951e-05 1.7363051606e+00 -3.0073687555e+00 1.7363051606e+00 3.0073687555e+00 
125100 6.9054401119e+00 7.0948595748e-05 1.7363031042e+00 -3.0073651938e+00 1.7363031042e+00 3.0073651938e+00 
125200 6.9054401015e+00 7.0495052500e-05 1.7363010611e+00 -3.0073616551e+00 1.7363010611e+00 3.0073616551e+00 
125300 6.9054400913e+00 7.2238546250e-05 1.7363010611e+00 -3.0073616551e+00 1.7363010611e+00 3.0073616551e+00 
125400 6.9054400810e+00 7.1741463153e-05 1.7362989809e+00 -3.0073580520e+00 1.7362989809e+00 3.0073580520e+00 
125500 6.9054400708e+00 7.1251888414e-05 1.7362969149e+00 -3.0073544737e+00 1.7362969149e+00 3.0073544737e+00 
125600 6.9054400606e+00 7.0769536406e-05 1.7362948631e+00 -3.0073509198e+00 1.7362948631e+00 3.0073509198e+00 
125700 6.9054400506e+00 7.0294132082e-05 1.7362928252e+00 -3.0073473900e+00 1.7362928252e+00 3.0073473900e+00 
125800 6.9054400408e+00 7.2010013296e-05 1.7362928252e+00 -3.0073473900e+00 1.7362928252e+00 3.0073473900e+00 
125900 6.9054400309e+00 7.1492083830e-05 1.7362907515e+00 -3.0073437983e+00 1.7362907515e+00 3.0073437983e+00 
126000 6.9054400211e+00 7.0982056182e-05 1.7362886927e+00 -3.0073402324e+00 1.7362886927e+00 3.0073402324e+00 
126100 6.9054400113e+00 7.0479626363e-05 1.7362866487e+00 -3.0073366920e+00 1.7362866487e+00 3.0073366920e+00 
126200 6.9054400018e+00 7.2174910028e-05 1.7362866487e+00 -3.0073366920e+00 1.7362866487e+00 3.0073366920e+00 
126300 6.9054399922e+00 7.1631025685e-05 1.7362845702e+00 -3.0073330921e+00 1.7362845702e+00 3.0073330921e+00 
126400 6.9054399827e+00 7.1095619573e-05 1.7362825075e+00 -3.0073295192e+00 1.7362825075e+00 3.0073295192e+00 
126500 6.9054399733e+00 7.0568364166e-05 1.7362804601e+00 -3.0073259731e+00 1.7362804601e+00 3.0073259731e+00 
126600 6.9054399641e+00 7.2242151205e-05 1.7362804601e+00 -3.0073259731e+00 1.7362804601e+00 3.0073259731e+00 
126700 6.9054399549e+00 7.1674409709e-05 1.7362783797e+00 -3.0073223698e+00 1.7362783797e+00 3.0073223698e+00 
126800 6.9054399457e+00 7.1115638770e-05 1.7362763157e+00 -3.0073187948e+00 1.7362763157e+00 3.0073187948e+00 
126900 6.9054399365e+00 7.0565492362e-05 1.7362742678e+00 -3.0073152477e+00 1.7362742678e+00 3.0073152477e+00 
127000 6.9054399276e+00 7.2216795910e-05 1.7362742678e+00 -3.0073152477e+00 1.7362742678e+00 3.0073152477e+00 
127100 6.9054399187e+00 7.1627060735e-05 1.7362721881e+00 -3.0073116456e+00 1.7362721881e+00 3.0073116456e+00 
127200 6.9054399097e+00 7.1046721390e-05 1.7362701255e+00 -3.0073080730e+00 1.7362701255e+00 3.0073080730e+00 
127300 6.9054399009e+00 7.0475417887e-05 1.7362680795e+00 -3.0073045293e+00 1.7362680795e+00 3.0073045293e+00 
127400 6.9054398923e+00 7.2103203218e-05 1.7362680795e+00 -3.0073045293e+00 1.7362680795e+00 3.0073045293e+00 
127500 6.9054398836e+00 7.1493165298e-05 1.7362660031e+00 -3.0073009329e+00 1.7362660031e+00 3.0073009329e+00 
127600 6.9054398750e+00 7.0892896563e-05 1.7362639443e+00 -3.0072973669e+00 1.7362639443e+00 3.0072973669e+00 
127700 6.9054398664e+00 7.0302027084e-05 1.7362619028e+00 -3.0072938309e+00 1.7362619028e+00 3.0072938309e+00 
127800 6.9054398581e+00 7.1905251375e-05 1.7362619028e+00 -3.0072938309e+00 1.7362619028e+00 3.0072938309e+00 
127900 6.9054398497e+00 7.1276483416e-05 1.7362598321e+00 -3.0072902443e+00 1.7362598321e+00 3.0072902443e+00 
128000 6.9054398413e+00 7.0657819172e-05 1.7362577795e+00 -3.0072866891e+00 1.7362577795e+00 3.0072866891e+00 
128100 6.9054398332e+00 7.2245016282e-05 1.7362577795e+00 -3.0072866891e+00 1.7362577795e+00 3.0072866891e+00 
128200 6.9054398250e+00 7.1589512020e-05 1.7362556990e+00 -3.0072830856e+00 1.7362556990e+00 3.0072830856e+00 
128300 6.9054398168e+00 7.0944758942e-05 1.7362536374e+00 -3.0072795148e+00 1.7362536374e+00 3.0072795148e+00 
128400 6.9054398087e+00 7.0310360318e-05 1.7362515944e+00 -3.0072759762e+00 1.7362515944e+00 3.0072759762e+00 
128500 6.9054398009e+00 7.1871311324e-05 1.7362515944e+00 -3.0072759762e+00 1.7362515944e+00 3.0072759762e+00 
128600 6.9054397929e+00 7.1200841116e-05 1.7362495246e+00 -3.0072723913e+00 1.7362495246e+00 3.0072723913e+00 
128700 6.9054397850e+00 7.0541359318e-05 1.7362474742e+00 -3.0072688399e+00 1.7362474742e+00 3.0072688399e+00 
128800 6.9054397773e+00 7.2085050018e-05 1.7362474742e+00 -3.0072688399e+00 1.7362474742e+00 3.0072688399e+00 
128900 6.9054397696e+00 7.1390526437e-05 1.7362453983e+00 -3.0072652443e+00 1.7362453983e+00 3.0072652443e+00 
129000 6.9054397618e+00 7.0707578394e-05 1.7362433425e+00 -3.0072616834e+00 1.7362433425e+00 3.0072616834e+00 
129100 6.9054397544e+00 7.2233567577e-05 1.7362433425e+00 -3.0072616834e+00 1.7362433425e+00 3.0072616834e+00 
129200 6.9054397468e+00 7.1516571415e-05 1.7362412623e+00 -3.0072580805e+00 1.7362412623e+00 3.0072580805e+00 
129300 6.9054397392e+00 7.0811695663e-05 1.7362392028e+00 -3.0072545133e+00 1.7362392028e+00 3.0072545133e+00 
129400 6.9054397318e+00 7.0118512984e-05 1.7362371635e+00 -3.0072509812e+00 1.7362371635e+00 3.0072509812e+00 
129500 6.9054397245e+00 7.1616119750e-05 1.7362371635e+00 -3.0072509812e+00 1.7362371635e+00 3.0072509812e+00 
129600 6.9054397172e+00 7.0889606073e-05 1.7362351011e+00 -3.0072474091e+00 1.7362351011e+00 3.0072474091e+00 
129700 6.9054397099e+00 7.0175334087e-05 1.7362330597e+00 -3.0072438731e+00 1.7362330597e+00 3.0072438731e+00 
129800 6.9054397028e+00 7.1654180109e-05 1.7362330597e+00 -3.0072438731e+00 1.7362330597e+00 3.0072438731e+00 
129900 6.9054396956e+00 7.0907590004e-05 1.7362309962e+00 -3.0072402991e+00 1.7362309962e+00 3.0072402991e+00 
130000 6.9054396885e+00 7.0173754504e-05 1.7362289542e+00 -3.0072367622e+00 1.7362289542e+00 3.0072367622e+00 
130100 6.9054396816e+00 7.1633516007e-05 1.7362289542e+00 -3.0072367622e+00 1.7362289542e+00 3.0072367622e+00 
130200 6.9054396746e+00 7.0868354597e-05 1.7362268913e+00 -3.0072331892e+00 1.7362268913e+00 3.0072331892e+00 
130300 6.9054396677e+00 7.0116427972e-05 1.7362248504e+00 -3.0072296543e+00 1.7362248504e+00 3.0072296543e+00 
130400 6.9054396610e+00 7.1556813024e-05 1.7362248504e+00 -3.0072296543e+00 1.7362248504e+00 3.0072296543e+00 
130500 6.9054396541e+00 7.0774535520e-05 1.7362227897e+00 -3.0072260850e+00 1.7362227897e+00 3.0072260850e+00 
130600 6.9054396473e+00 7.0005942945e-05 1.7362207515e+00 -3.0072225548e+00 1.7362207515e+00 3.0072225548e+00 
130700 6.9054396408e+00 7.1426695372e-05 1.7362207515e+00 -3.0072225548e+00 1.7362207515e+00 3.0072225548e+00 
130800 6.9054396341e+00 7.0628712786e-05 1.7362186946e+00 -3.0072189920e+00 1.7362186946e+00 3.0072189920e+00 
130900 6.9054396276e+00 7.2040321494e-05 1.7362186946e+00 -3.0072189920e+00 1.7362186946e+00 3.0072189920e+00 
131000 6.9054396211e+00 7.1214172090e-05 1.7362166199e+00 -3.0072153987e+00 1.7362166199e+00 3.0072153987e+00 
131100 6.9054396145e+00 7.0402961227e-05 1.7362145691e+00 -3.0072118465e+00 1.7362145691e+00 3.0072118465e+00 
131200 6.9054396082e+00 7.1794695888e-05 1.7362145691e+00 -3.0072118465e+00 1.7362145691e+00 3.0072118465e+00 
131300 6.9054396018e+00 7.0956181136e-05 1.7362125015e+00 -3.0072082654e+00 1.7362125015e+00 3.0072082654e+00 
131400 6.9054395954e+00 7.0132934448e-05 1.7362104581e+00 -3.0072047261e+00 1.7362104581e+00 3.0072047261e+00 
131500 6.9054395893e+00 7.1504590436e-05 1.7362104581e+00 -3.0072047261e+00 1.7362104581e+00 3.0072047261e+00 
131600 6.9054395830e+00 7.0654898162e-05 1.7362083989e+00 -3.0072011594e+00 1.7362083989e+00 3.0072011594e+00 
131700 6.9054395770e+00 7.2017149163e-05 1.7362083989e+00 -3.0072011594e+00 1.7362083989e+00 3.0072011594e+00 
131800 6.9054395708e+00 7.1142171898e-05 1.7362063249e+00 -3.0071975672e+00 1.7362063249e+00 3.0071975672e+00 
131900 6.9054395647e+00 7.0283534063e-05 1.7362042761e+00 -3.0071940186e+00 1.7362042761e+00 3.0071940186e+00 
132000 6.9054395588e+00 7.1625563336e-05 1.7362042761e+00 -3.0071940186e+00 1.7362042761e+00 3.0071940186e+00 
132100 6.9054395528e+00 7.0742415807e-05 1.7362022134e+00 -3.0071904459e+00 1.7362022134e+00 3.0071904459e+00 
132200 6.9054395468e+00 6.9875837627e-05 1.7362001762e+00 -3.0071869172e+00 1.7362001762e+00 3.0071869172e+00 
132300 6.9054395410e+00 7.1197507343e-05 1.7362001762e+00 -3.0071869172e+00 1.7362001762e+00 3.0071869172e+00 
132400 6.9054395352e+00 7.0307198212e-05 1.7361981258e+00 -3.0071833658e+00 1.7361981258e+00 3.0071833658e+00 
132500 6.9054395295e+00 7.1619298429e-05 1.7361981258e+00 -3.0071833658e+00 1.7361981258e+00 3.0071833658e+00 
132600 6.9054395237e+00 7.0706367386e-05 1.7361960632e+00 -3.0071797934e+00 1.7361960632e+00 3.0071797934e+00 
132700 6.9054395181e+00 7.2008969661e-05 1.7361960632e+00 -3.0071797934e+00 1.7361960632e+00 3.0071797934e+00 
132800 6.9054395125e+00 7.1074478191e-05 1.7361939895e+00 -3.0071762016e+00 1.7361939895e+00 3.0071762016e+00 
132900 6.9054395068e+00 7.0158138942e-05 1.7361919426e+00 -3.0071726563e+00 1.7361919426e+00 3.0071726563e+00 
133000 6.9054395014e+00 7.1440414604e-05 1.7361919426e+00 -3.0071726563e+00 1.7361919426e+00 3.0071726563e+00 
133100 6.9054394958e+00 7.0503148458e-05 1.7361898853e+00 -3.0071690928e+00 1.7361898853e+00 3.0071690928e+00 
133200 6.9054394905e+00 7.1775894099e-05 1.7361898853e+00 -3.0071690928e+00 1.7361898853e+00 3.0071690928e+00 
133300 6.9054394850e+00 7.0818720062e-05 1.7361878182e+00 -3.0071655126e+00 1.7361878182e+00 3.0071655126e+00 
133400 6.9054394796e+00 6.9880412594e-05 1.7361857787e+00 -3.0071619801e+00 1.7361857787e+00 3.0071619801e+00 
133500 6.9054394743e+00 7.1132822577e-05 1.7361857787e+00 -3.0071619801e+00 1.7361857787e+00 3.0071619801e+00 
133600 6.9054394690e+00 7.0175183832e-05 1.7361837302e+00 -3.0071584319e+00 1.7361837302e+00 3.0071584319e+00 
133700 6.9054394639e+00 7.1418058063e-05 1.7361837302e+00 -3.0071584319e+00 1.7361837302e+00 3.0071584319e+00 
133800 6.9054394586e+00 7.0442069209e-05 1.7361816734e+00 -3.0071548695e+00 1.7361816734e+00 3.0071548695e+00 
133900 6.9054394535e+00 7.1675489255e-05 1.7361816734e+00 -3.0071548695e+00 1.7361816734e+00 3.0071548695e+00 
134000 6.9054394484e+00 7.0682088740e-05 1.7361796093e+00 -3.0071512943e+00 1.7361796093e+00 3.0071512943e+00 
134100 6.9054394434e+00 7.1906126049e-05 1.7361796093e+00 -3.0071512943e+00 1.7361796093e+00 3.0071512943e+00 
134200 6.9054394383e+00 7.0896210658e-05 1.7361775384e+00 -3.0071477075e+00 1.7361775384e+00 3.0071477075e+00 
134300 6.9054394332e+00 6.9906856659e-05 1.7361754967e+00 -3.0071441711e+00 1.7361754967e+00 3.0071441711e+00 
134400 6.9054394284e+00 7.1110753314e-05 1.7361754967e+00 -3.0071441711e+00 1.7361754967e+00 3.0071441711e+00 
134500 6.9054394234e+00 7.0105284253e-05 1.7361734488e+00 -3.0071406241e+00 1.7361734488e+00 3.0071406241e+00 
134600 6.9054394187e+00 7.1299770867e-05 1.7361734488e+00 -3.0071406241e+00 1.7361734488e+00 3.0071406241e+00 
134700 6.9054394138e+00 7.0279056506e-05 1.7361713954e+00 -3.0071370675e+00 1.7361713954e+00 3.0071370675e+00 
134800 6.9054394091e+00 7.1464207191e-05 1.7361713954e+00 -3.0071370675e+00 1.7361713954e+00 3.0071370675e+00 
134900 6.9054394042e+00 7.0429079173e-05 1.7361693373e+00 -3.0071335028e+00 1.7361693373e+00 3.0071335028e+00 
135000 6.9054393996e+00 7.1604958976e-05 1.7361693373e+00 -3.0071335028e+00 1.7361693373e+00 3.0071335028e+00 
135100 6.9054393949e+00 7.0556211959e-05 1.7361672752e+00 -3.0071299311e+00 1.7361672752e+00 3.0071299311e+00 
135200 6.9054393903e+00 7.1722876649e-05 1.7361672752e+00 -3.0071299311e+00 1.7361672752e+00 3.0071299311e+00 
135300 6.9054393857e+00 7.0661269635e-05 1.7361652096e+00 -3.0071263534e+00 1.7361652096e+00 3.0071263534e+00 
135400 6.9054393812e+00 7.1818765670e-05 1.7361652096e+00 -3.0071263534e+00 1.7361652096e+00 3.0071263534e+00 
135500 6.9054393766e+00 7.0745023434e-05 1.7361631413e+00 -3.0071227710e+00 1.7361631413e+00 3.0071227710e+00 
135600 6.9054393720e+00 6.9693924748e-05 1.7361611039e+00 -3.0071192421e+00 1.7361611039e+00 3.0071192421e+00 
135700 6.9054393677e+00 7.0831567174e-05 1.7361611039e+00 -3.0071192421e+00 1.7361611039e+00 3.0071192421e+00 
135800 6.9054393632e+00 6.9768491020e-05 1.7361590640e+00 -3.0071157089e+00 1.7361590640e+00 3.0071157089e+00 
135900 6.9054393589e+00 7.0896882439e-05 1.7361590640e+00 -3.0071157089e+00 1.7361590640e+00 3.0071157089e+00 
136000 6.9054393545e+00 6.9822545917e-05 1.7361570223e+00 -3.0071121725e+00 1.7361570223e+00 3.0071121725e+00 
136100 6.9054393503e+00 7.0941742140e-05 1.7361570223e+00 -3.0071121725e+00 1.7361570223e+00 3.0071121725e+00 
136200 6.9054393459e+00 6.9856832108e-05 1.7361549792e+00 -3.0071086338e+00 1.7361549792e+00 3.0071086338e+00 
136300 6.9054393418e+00 7.0966882604e-05 1.7361549792e+00 -3.0071086338e+00 1.7361549792e+00 3.0071086338e+00 
136400 6.9054393375e+00 6.9872056741e-05 1.7361529354e+00 -3.0071050938e+00 1.7361529354e+00 3.0071050938e+00 
136500 6.9054393334e+00 7.0973004648e-05 1.7361529354e+00 -3.0071050938e+00 1.7361529354e+00 3.0071050938e+00 
136600 6.9054393292e+00 6.9868892647e-05 1.7361508914e+00 -3.0071015535e+00 1.7361508914e+00 3.0071015535e+00 
136700 6.9054393252e+00 7.0960774897e-05 1.7361508914e+00 -3.0071015535e+00 1.7361508914e+00 3.0071015535e+00 
136800 6.9054393210e+00 6.9847979701e-05 1.7361488478e+00 -3.0070980139e+00 1.7361488478e+00 3.0070980139e+00 
136900 6.9054393171e+00 7.0930827268e-05 1.7361488478e+00 -3.0070980139e+00 1.7361488478e+00 3.0070980139e+00 
137000 6.9054393130e+00 6.9809926361e-05 1.7361468050e+00 -3.0070944757e+00 1.7361468050e+00 3.0070944757e+00 
137100 6.9054393091e+00 7.0883764574e-05 1.7361468050e+00 -3.0070944757e+00 1.7361468050e+00 3.0070944757e+00 
137200 6.9054393051e+00 6.9755311323e-05 1.7361447636e+00 -3.0070909399e+00 1.7361447636e+00 3.0070909399e+00 
137300 6.9054393012e+00 7.0820160274e-05 1.7361447636e+00 -3.0070909399e+00 1.7361447636e+00 3.0070909399e+00 
137400 6.9054392973e+00 6.9684685259e-05 1.7361427240e+00 -3.0070874072e+00 1.7361427240e+00 3.0070874072e+00 
137500 6.9054392935e+00 7.0740560267e-05 1.7361427240e+00 -3.0070874072e+00 1.7361427240e+00 3.0070874072e+00 
137600 6.9054392896e+00 6.9598572633e-05 1.7361406868e+00 -3.0070838785e+00 1.7361406868e+00 3.0070838785e+00 
137700 6.9054392859e+00 7.0645484754e-05 1.7361406868e+00 -3.0070838785e+00 1.7361406868e+00 3.0070838785e+00 
137800 6.9054392822e+00 7.1693989212e-05 1.7361406868e+00 -3.0070838785e+00 1.7361406868e+00 3.0070838785e+00 
137900 6.9054392784e+00 7.0515153545e-05 1.7361386220e+00 -3.0070803023e+00 1.7361386220e+00 3.0070803023e+00 
138000 6.9054392748e+00 7.1554882903e-05 1.7361386220e+00 -3.0070803023e+00 1.7361386220e+00 3.0070803023e+00 
138100 6.9054392711e+00 7.0371554760e-05 1.7361365613e+00 -3.0070767330e+00 1.7361365613e+00 3.0070767330e+00 
138200 6.9054392675e+00 7.1402472849e-05 1.7361365613e+00 -3.0070767330e+00 1.7361365613e+00 3.0070767330e+00 
138300 6.9054392638e+00 7.0215026546e-05 1.7361345049e+00 -3.0070731712e+00 1.7361345049e+00 3.0070731712e+00 
138400 6.9054392603e+00 7.1237093273e-05 1.7361345049e+00 -3.0070731712e+00 1.7361345049e+00 3.0070731712e+00 
138500 6.9054392567e+00 7.0045889490e-05 1.7361324533e+00 -3.0070696178e+00 1.7361324533e+00 3.0070696178e+00 
138600 6.9054392533e+00 7.1059062101e-05 1.7361324533e+00 -3.0070696178e+00 1.7361324533e+00 3.0070696178e+00 
138700 6.9054392497e+00 6.9864449613e-05 1.7361304068e+00 -3.0070660732e+00 1.7361304068e+00 3.0070660732e+00 
138800 6.9054392463e+00 7.0868683902e-05 1.7361304068e+00 -3.0070660732e+00 1.7361304068e+00 3.0070660732e+00 
138900 6.9054392428e+00 6.9671001187e-05 1.7361283658e+00 -3.0070625381e+00 1.7361283658e+00 3.0070625381e+00 
139000 6.9054392395e+00 7.0666252649e-05 1.7361283658e+00 -3.0070625381e+00 1.7361283658e+00 3.0070625381e+00 
139100 6.9054392362e+00 7.1663071752e-05 1.7361283658e+00 -3.0070625381e+00 1.7361283658e+00 3.0070625381e+00 
139200 6.9054392327e+00 7.0433388651e-05 1.7361263019e+00 -3.0070589633e+00 1.7361263019e+00 3.0070589633e+00 
139300 6.9054392295e+00 7.1421337960e-05 1.7361263019e+00 -3.0070589633e+00 1.7361263019e+00 3.0070589633e+00 
139400 6.9054392261e+00 7.0190227804e-05 1.7361242450e+00 -3.0070554006e+00 1.7361242450e+00 3.0070554006e+00 
139500 6.9054392229e+00 7.1169227572e-05 1.7361242450e+00 -3.0070554006e+00 1.7361242450e+00 3.0070554006e+00 
139600 6.9054392196e+00 6.9936933085e-05 1.7361221954e+00 -3.0070518505e+00 1.7361221954e+00 3.0070518505e+00 
139700 6.9054392164e+00 7.0906905060e-05 1.7361221954e+00 -3.0070518505e+00 1.7361221954e+00 3.0070518505e+00 
139800 6.9054392131e+00 6.9673666118e-05 1.7361201533e+00 -3.0070483135e+00 1.7361201533e+00 3.0070483135e+00 
139900 6.9054392100e+00 7.0634535012e-05 1.7361201533e+00 -3.0070483135e+00 1.7361201533e+00 3.0070483135e+00 
140000 6.9054392070e+00 7.1596900176e-05 1.7361201533e+00 -3.0070483135e+00 1.7361201533e+00 3.0070483135e+00 
140100 6.9054392038e+00 7.0334685325e-05 1.7361180913e+00 -3.0070447420e+00 1.7361180913e+00 3.0070447420e+00 
140200 6.9054392007e+00 7.1288020871e-05 1.7361180913e+00 -3.0070447420e+00 1.7361180913e+00 3.0070447420e+00 
140300 6.9054391976e+00 7.0026290266e-05 1.7361160382e+00 -3.0070411860e+00 1.7361160382e+00 3.0070411860e+00 
140400 6.9054391946e+00 7.0970494874e-05 1.7361160382e+00 -3.0070411860e+00 1.7361160382e+00 3.0070411860e+00 
140500 6.9054391915e+00 6.9709418014e-05 1.7361139943e+00 -3.0070376458e+00 1.7361139943e+00 3.0070376458e+00 
140600 6.9054391886e+00 7.0644395789e-05 1.7361139943e+00 -3.0070376458e+00 1.7361139943e+00 3.0070376458e+00 
140700 6.9054391857e+00 7.1580803373e-05 1.7361139943e+00 -3.0070376458e+00 1.7361139943e+00 3.0070376458e+00 
140800 6.9054391827e+00 7.0293017629e-05 1.7361119327e+00 -3.0070340751e+00 1.7361119327e+00 3.0070340751e+00 
140900 6.9054391798e+00 7.1220245954e-05 1.7361119327e+00 -3.0070340751e+00 1.7361119327e+00 3.0070340751e+00 
141000 6.9054391768e+00 6.9934390333e-05 1.7361098816e+00 -3.0070305224e+00 1.7361098816e+00 3.0070305224e+00 
141100 6.9054391740e+00 7.0852324337e-05 1.7361098816e+00 -3.0070305224e+00 1.7361098816e+00 3.0070305224e+00 
141200 6.9054391711e+00 6.9568516317e-05 1.7361078410e+00 -3.0070269881e+00 1.7361078410e+00 3.0070269881e+00 
141300 6.9054391683e+00 7.0477049296e-05 1.7361078410e+00 -3.0070269881e+00 1.7361078410e+00 3.0070269881e+00 
141400 6.9054391656e+00 7.1386908845e-05 1.7361078410e+00 -3.0070269881e+00 1.7361078410e+00 3.0070269881e+00 
141500 6.9054391627e+00 7.0078456395e-05 1.7361057851e+00 -3.0070234271e+00 1.7361057851e+00 3.0070234271e+00 
141600 6.9054391600e+00 7.0978951425e-05 1.7361057851e+00 -3.0070234271e+00 1.7361057851e+00 3.0070234271e+00 
141700 6.9054391572e+00 6.9673712034e-05 1.7361037409e+00 -3.0070198864e+00 1.7361037409e+00 3.0070198864e+00 
141800 6.9054391545e+00 7.0564724200e-05 1.7361037409e+00 -3.0070198864e+00 1.7361037409e+00 3.0070198864e+00 
141900 6.9054391519e+00 7.1457026657e-05 1.7361037409e+00 -3.0070198864e+00 1.7361037409e+00 3.0070198864e+00 
142000 6.9054391491e+00 7.0128769282e-05 1.7361016829e+00 -3.0070163219e+00 1.7361016829e+00 3.0070163219e+00 
142100 6.9054391466e+00 7.1011610713e-05 1.7361016829e+00 -3.0070163219e+00 1.7361016829e+00 3.0070163219e+00 
142200 6.9054391438e+00 6.9687627429e-05 1.7360996378e+00 -3.0070127796e+00 1.7360996378e+00 3.0070127796e+00 
142300 6.9054391413e+00 7.0560881416e-05 1.7360996378e+00 -3.0070127796e+00 1.7360996378e+00 3.0070127796e+00 
142400 6.9054391388e+00 7.1435371552e-05 1.7360996378e+00 -3.0070127796e+00 1.7360996378e+00 3.0070127796e+00 
142500 6.9054391361e+00 7.0089890928e-05 1.7360975804e+00 -3.0070092162e+00 1.7360975804e+00 3.0070092162e+00 
142600 6.9054391336e+00 7.0954806429e-05 1.7360975804e+00 -3.0070092162e+00 1.7360975804e+00 3.0070092162e+00 
142700 6.9054391310e+00 6.9614574356e-05 1.7360955369e+00 -3.0070056767e+00 1.7360955369e+00 3.0070056767e+00 
142800 6.9054391286e+00 7.0469784940e-05 1.7360955369e+00 -3.0070056767e+00 1.7360955369e+00 3.0070056767e+00 
142900 6.9054391262e+00 7.1326165146e-05 1.7360955369e+00 -3.0070056767e+00 1.7360955369e+00 3.0070056767e+00 
143000 6.9054391236e+00 6.9965874988e-05 1.7360934827e+00 -3.0070021187e+00 1.7360934827e+00 3.0070021187e+00 
143100 6.9054391212e+00 7.0812560335e-05 1.7360934827e+00 -3.0070021187e+00 1.7360934827e+00 3.0070021187e+00 
143200 6.9054391187e+00 6.9458423425e-05 1.7360914433e+00 -3.0069985864e+00 1.7360914433e+00 3.0069985864e+00 
143300 6.9054391163e+00 7.0295284190e-05 1.7360914433e+00 -3.0069985864e+00 1.7360914433e+00 3.0069985864e+00 
143400 6.9054391140e+00 7.1133241389e-05 1.7360914433e+00 -3.0069985864e+00 1.7360914433e+00 3.0069985864e+00 
143500 6.9054391116e+00 6.9760426580e-05 1.7360893946e+00 -3.0069950380e+00 1.7360893946e+00 3.0069950380e+00 
143600 6.9054391093e+00 7.0588572858e-05 1.7360893946e+00 -3.0069950380e+00 1.7360893946e+00 3.0069950380e+00 
143700 6.9054391070e+00 7.1417843997e-05 1.7360893946e+00 -3.0069950380e+00 1.7360893946e+00 3.0069950380e+00 
143800 6.9054391046e+00 7.0027503800e-05 1.7360873378e+00 -3.0069914754e+00 1.7360873378e+00 3.0069914754e+00 
143900 6.9054391024e+00 7.0846961118e-05 1.7360873378e+00 -3.0069914754e+00 1.7360873378e+00 3.0069914754e+00 
144000 6.9054391000e+00 6.9464428238e-05 1.7360852973e+00 -3.0069879413e+00 1.7360852973e+00 3.0069879413e+00 
144100 6.9054390978e+00 7.0273935314e-05 1.7360852973e+00 -3.0069879413e+00 1.7360852973e+00 3.0069879413e+00 
144200 6.9054390956e+00 7.1084473759e-05 1.7360852973e+00 -3.0069879413e+00 1.7360852973e+00 3.0069879413e+00 
144300 6.9054390933e+00 6.9685647766e-05 1.7360832501e+00 -3.0069843953e+00 1.7360832501e+00 3.0069843953e+00 
144400 6.9054390912e+00 7.0486243180e-05 1.7360832501e+00 -3.0069843953e+00 1.7360832501e+00 3.0069843953e+00 
144500 6.9054390890e+00 7.1287889295e-05 1.7360832501e+00 -3.0069843953e+00 1.7360832501e+00 3.0069843953e+00 
144600 6.9054390868e+00 6.9873847959e-05 1.7360811970e+00 -3.0069808392e+00 1.7360811970e+00 3.0069808392e+00 
144700 6.9054390847e+00 7.0665546108e-05 1.7360811970e+00 -3.0069808392e+00 1.7360811970e+00 3.0069808392e+00 
144800 6.9054390826e+00 7.1458305385e-05 1.7360811970e+00 -3.0069808392e+00 1.7360811970e+00 3.0069808392e+00 
144900 6.9054390804e+00 7.0030071476e-05 1.7360791389e+00 -3.0069772746e+00 1.7360791389e+00 3.0069772746e+00 
145000 6.9054390784e+00 7.0812865895e-05 1.7360791389e+00 -3.0069772746e+00 1.7360791389e+00 3.0069772746e+00 
145100 6.9054390762e+00 6.9394597436e-05 1.7360770995e+00 -3.0069737421e+00 1.7360770995e+00 3.0069737421e+00 
145200 6.9054390742e+00 7.0167284201e-05 1.7360770995e+00 -3.0069737421e+00 1.7360770995e+00 3.0069737421e+00 
145300 6.9054390722e+00 7.0940914865e-05 1.7360770995e+00 -3.0069737421e+00 1.7360770995e+00 3.0069737421e+00 
145400 6.9054390700e+00 6.9509500185e-05 1.7360750563e+00 -3.0069702033e+00 1.7360750563e+00 3.0069702033e+00 
145500 6.9054390681e+00 7.0273025553e-05 1.7360750563e+00 -3.0069702033e+00 1.7360750563e+00 3.0069702033e+00 
145600 6.9054390661e+00 7.1037504050e-05 1.7360750563e+00 -3.0069702033e+00 1.7360750563e+00 3.0069702033e+00 
145700 6.9054390641e+00 6.9593927241e-05 1.7360730104e+00 -3.0069666597e+00 1.7360730104e+00 3.0069666597e+00 
145800 6.9054390622e+00 7.0348296624e-05 1.7360730104e+00 -3.0069666597e+00 1.7360730104e+00 3.0069666597e+00 
145900 6.9054390603e+00 7.1103622699e-05 1.7360730104e+00 -3.0069666597e+00 1.7360730104e+00 3.0069666597e+00 
146000 6.9054390582e+00 6.9648825470e-05 1.7360709626e+00 -3.0069631127e+00 1.7360709626e+00 3.0069631127e+00 
146100 6.9054390564e+00 7.0394032724e-05 1.7360709626e+00 -3.0069631127e+00 1.7360709626e+00 3.0069631127e+00 
146200 6.9054390545e+00 7.1140194891e-05 1.7360709626e+00 -3.0069631127e+00 1.7360709626e+00 3.0069631127e+00 
146300 6.9054390525e+00 6.9675079381e-05 1.7360689137e+00 -3.0069595640e+00 1.7360689137e+00 3.0069595640e+00 
146400 6.9054390507e+00 7.0411107769e-05 1.7360689137e+00 -3.0069595640e+00 1.7360689137e+00 3.0069595640e+00 
146500 6.9054390489e+00 7.1148084413e-05 1.7360689137e+00 -3.0069595640e+00 1.7360689137e+00 3.0069595640e+00 
146600 6.9054390469e+00 6.9673516304e-05 1.7360668646e+00 -3.0069560148e+00 1.7360668646e+00 3.0069560148e+00 
146700 6.9054390452e+00 7.0400339883e-05 1.7360668646e+00 -3.0069560148e+00 1.7360668646e+00 3.0069560148e+00 
146800 6.9054390434e+00 7.1128100768e-05 1.7360668646e+00 -3.0069560148e+00 1.7360668646e+00 3.0069560148e+00 
146900 6.9054390415e+00 6.9644912584e-05 1.7360648160e+00 -3.0069524666e+00 1.7360648160e+00 3.0069524666e+00 
147000 6.9054390398e+00 7.0362497908e-05 1.7360648160e+00 -3.0069524666e+00 1.7360648160e+00 3.0069524666e+00 
147100 6.9054390381e+00 7.1081005966e-05 1.7360648160e+00 -3.0069524666e+00 1.7360648160e+00 3.0069524666e+00 
147200 6.9054390362e+00 6.9590000412e-05 1.7360627689e+00 -3.0069489208e+00 1.7360627689e+00 3.0069489208e+00 
147300 6.9054390345e+00 7.0298308466e-05 1.7360627689e+00 -3.0069489208e+00 1.7360627689e+00 3.0069489208e+00 
147400 6.9054390328e+00 7.1007521781e-05 1.7360627689e+00 -3.0069489208e+00 1.7360627689e+00 3.0069489208e+00 
147500 6.9054390310e+00 6.9509475025e-05 1.7360607238e+00 -3.0069453786e+00 1.7360607238e+00 3.0069453786e+00 
147600 6.9054390294e+00 7.0208463311e-05 1.7360607238e+00 -3.0069453786e+00 1.7360607238e+00 3.0069453786e+00 
147700 6.9054390277e+00 7.0908337232e-05 1.7360607238e+00 -3.0069453786e+00 1.7360607238e+00 3.0069453786e+00 
147800 6.9054390259e+00 6.9404002050e-05 1.7360586816e+00 -3.0069418414e+00 1.7360586816e+00 3.0069418414e+00 
147900 6.9054390243e+00 7.0093626724e-05 1.7360586816e+00 -3.0069418414e+00 1.7360586816e+00 3.0069418414e+00 
148000 6.9054390227e+00 7.0784116017e-05 1.7360586816e+00 -3.0069418414e+00 1.7360586816e+00 3.0069418414e+00 
148100 6.9054390210e+00 6.9274224739e-05 1.7360566429e+00 -3.0069383104e+00 1.7360566429e+00 3.0069383104e+00 
148200 6.9054390194e+00 6.9954442779e-05 1.7360566429e+00 -3.0069383104e+00 1.7360566429e+00 3.0069383104e+00 
148300 6.9054390179e+00 7.0635503770e-05 1.7360566429e+00 -3.0069383104e+00 1.7360566429e+00 3.0069383104e+00 
148400 6.9054390163e+00 7.1317528752e-05 1.7360566429e+00 -3.0069383104e+00 1.7360566429e+00 3.0069383104e+00 
148500 6.9054390146e+00 6.9782663479e-05 1.7360545889e+00 -3.0069347527e+00 1.7360545889e+00 3.0069347527e+00 
148600 6.9054390131e+00 7.0454506591e-05 1.7360545889e+00 -3.0069347527e+00 1.7360545889e+00 3.0069347527e+00 
148700 6.9054390116e+00 7.1127273014e-05 1.7360545889e+00 -3.0069347527e+00 1.7360545889e+00 3.0069347527e+00 
148800 6.9054390100e+00 6.9589011611e-05 1.7360525404e+00 -3.0069312046e+00 1.7360525404e+00 3.0069312046e+00 
148900 6.9054390085e+00 7.0251545969e-05 1.7360525404e+00 -3.0069312046e+00 1.7360525404e+00 3.0069312046e+00 
149000 6.9054390070e+00 7.0914962395e-05 1.7360525404e+00 -3.0069312046e+00 1.7360525404e+00 3.0069312046e+00 
149100 6.9054390054e+00 6.9373899334e-05 1.7360504980e+00 -3.0069276670e+00 1.7360504980e+00 3.0069276670e+00 
149200 6.9054390039e+00 7.0027037407e-05 1.7360504980e+00 -3.0069276670e+00 1.7360504980e+00 3.0069276670e+00 
149300 6.9054390025e+00 7.0681017022e-05 1.7360504980e+00 -3.0069276670e+00 1.7360504980e+00 3.0069276670e+00 
149400 6.9054390011e+00 7.1335953420e-05 1.7360504980e+00 -3.0069276670e+00 1.7360504980e+00 3.0069276670e+00 
149500 6.9054389995e+00 6.9773372820e-05 1.7360484434e+00 -3.0069241084e+00 1.7360484434e+00 3.0069241084e+00 
149600 6.9054389981e+00 7.0418092306e-05 1.7360484434e+00 -3.0069241084e+00 1.7360484434e+00 3.0069241084e+00 
149700 6.9054389967e+00 7.1063711456e-05 1.7360484434e+00 -3.0069241084e+00 1.7360484434e+00 3.0069241084e+00 
149800 6.9054389952e+00 6.9500210265e-05 1.7360463967e+00 -3.0069205634e+00 1.7360463967e+00 3.0069205634e+00 
149900 6.9054389938e+00 7.0135545426e-05 1.7360463967e+00 -3.0069205634e+00 1.7360463967e+00 3.0069205634e+00 
150000 6.9054389925e+00 7.0771724742e-05 1.7360463967e+00 -3.0069205634e+00 1.7360463967e+00 3.0069205634e+00 
150100 6.9054389910e+00 6.9207796747e-05 1.7360443584e+00 -3.0069170330e+00 1.7360443584e+00 3.0069170330e+00 
150200 6.9054389896e+00 6.9833633082e-05 1.7360443584e+00 -3.0069170330e+00 1.7360443584e+00 3.0069170330e+00 
150300 6.9054389883e+00 7.0460261135e-05 1.7360443584e+00 -3.0069170330e+00 1.7360443584e+00 3.0069170330e+00 
150400 6.9054389870e+00 7.1087792376e-05 1.7360443584e+00 -3.0069170330e+00 1.7360443584e+00 3.0069170330e+00 
150500 6.9054389855e+00 6.9505427329e-05 1.7360423110e+00 -3.0069134867e+00 1.7360423110e+00 3.0069134867e+00 
150600 6.9054389843e+00 7.0122666778e-05 1.7360423110e+00 -3.0069134867e+00 1.7360423110e+00 3.0069134867e+00 
150700 6.9054389830e+00 7.0740743760e-05 1.7360423110e+00 -3.0069134867e+00 1.7360423110e+00 3.0069134867e+00 
150800 6.9054389816e+00 6.9159640308e-05 1.7360402736e+00 -3.0069099578e+00 1.7360402736e+00 3.0069099578e+00 
150900 6.9054389803e+00 6.9767356571e-05 1.7360402736e+00 -3.0069099578e+00 1.7360402736e+00 3.0069099578e+00 
151000 6.9054389790e+00 7.0375848856e-05 1.7360402736e+00 -3.0069099578e+00 1.7360402736e+00 3.0069099578e+00 
151100 6.9054389778e+00 7.0985225741e-05 1.7360402736e+00 -3.0069099578e+00 1.7360402736e+00 3.0069099578e+00 
151200 6.9054389764e+00 6.9387848145e-05 1.7360382291e+00 -3.0069064167e+00 1.7360382291e+00 3.0069064167e+00 
151300 6.9054389752e+00 6.9986905351e-05 1.7360382291e+00 -3.0069064167e+00 1.7360382291e+00 3.0069064167e+00 
151400 6.9054389740e+00 7.0586774128e-05 1.7360382291e+00 -3.0069064167e+00 1.7360382291e+00 3.0069064167e+00 
151500 6.9054389728e+00 7.1187559593e-05 1.7360382291e+00 -3.0069064167e+00 1.7360382291e+00 3.0069064167e+00 
151600 6.9054389714e+00 6.9575312235e-05 1.7360361788e+00 -3.0069028655e+00 1.7360361788e+00 3.0069028655e+00 
151700 6.9054389703e+00 7.0165796112e-05 1.7360361788e+00 -3.0069028655e+00 1.7360361788e+00 3.0069028655e+00 
151800 6.9054389691e+00 7.0757112104e-05 1.7360361788e+00 -3.0069028655e+00 1.7360361788e+00 3.0069028655e+00 
151900 6.9054389678e+00 6.9148686811e-05 1.7360341409e+00 -3.0068993358e+00 1.7360341409e+00 3.0068993358e+00 
152000 6.9054389666e+00 6.9729610278e-05 1.7360341409e+00 -3.0068993358e+00 1.7360341409e+00 3.0068993358e+00 
152100 6.9054389655e+00 7.0311287214e-05 1.7360341409e+00 -3.0068993358e+00 1.7360341409e+00 3.0068993358e+00 
152200 6.9054389644e+00 7.0893820859e-05 1.7360341409e+00 -3.0068993358e+00 1.7360341409e+00 3.0068993358e+00 
152300 6.9054389631e+00 6.9272369507e-05 1.7360320991e+00 -3.0068957992e+00 1.7360320991e+00 3.0068957992e+00 
152400 6.9054389620e+00 6.9844527788e-05 1.7360320991e+00 -3.0068957992e+00 1.7360320991e+00 3.0068957992e+00 
152500 6.9054389609e+00 7.0417455487e-05 1.7360320991e+00 -3.0068957992e+00 1.7360320991e+00 3.0068957992e+00 
152600 6.9054389598e+00 7.0991253225e-05 1.7360320991e+00 -3.0068957992e+00 1.7360320991e+00 3.0068957992e+00 
152700 6.9054389585e+00 6.9358032575e-05 1.7360300545e+00 -3.0068922578e+00 1.7360300545e+00 3.0068922578e+00 
152800 6.9054389574e+00 6.9921456494e-05 1.7360300545e+00 -3.0068922578e+00 1.7360300545e+00 3.0068922578e+00 
152900 6.9054389564e+00 7.0485654865e-05 1.7360300545e+00 -3.0068922578e+00 1.7360300545e+00 3.0068922578e+00 
153000 6.9054389553e+00 7.1050725789e-05 1.7360300545e+00 -3.0068922578e+00 1.7360300545e+00 3.0068922578e+00 
153100 6.9054389541e+00 6.9406914943e-05 1.7360280081e+00 -3.0068887134e+00 1.7360280081e+00 3.0068887134e+00 
153200 6.9054389531e+00 6.9961599078e-05 1.7360280081e+00 -3.0068887134e+00 1.7360280081e+00 3.0068887134e+00 
153300 6.9054389520e+00 7.0517052616e-05 1.7360280081e+00 -3.0068887134e+00 1.7360280081e+00 3.0068887134e+00 
153400 6.9054389510e+00 7.1073371359e-05 1.7360280081e+00 -3.0068887134e+00 1.7360280081e+00 3.0068887134e+00 
153500 6.9054389498e+00 6.9420080803e-05 1.7360259611e+00 -3.0068851679e+00 1.7360259611e+00 3.0068851679e+00 
153600 6.9054389488e+00 6.9965987270e-05 1.7360259611e+00 -3.0068851679e+00 1.7360259611e+00 3.0068851679e+00 
153700 6.9054389478e+00 7.0512649227e-05 1.7360259611e+00 -3.0068851679e+00 1.7360259611e+00 3.0068851679e+00 
153800 6.9054389468e+00 7.1060160485e-05 1.7360259611e+00 -3.0068851679e+00 1.7360259611e+00 3.0068851679e+00 
153900 6.9054389457e+00 6.9398441986e-05 1.7360239145e+00 -3.0068816230e+00 1.7360239145e+00 3.0068816230e+00 
154000 6.9054389447e+00 6.9935505611e-05 1.7360239145e+00 -3.0068816230e+00 1.7360239145e+00 3.0068816230e+00 
154100 6.9054389437e+00 7.0473303446e-05 1.7360239145e+00 -3.0068816230e+00 1.7360239145e+00 3.0068816230e+00 
154200 6.9054389428e+00 7.1011927670e-05 1.7360239145e+00 -3.0068816230e+00 1.7360239145e+00 3.0068816230e+00 
154300 6.9054389417e+00 6.9342784413e-05 1.7360218692e+00 -3.0068780806e+00 1.7360218692e+00 3.0068780806e+00 
154400 6.9054389407e+00 6.9870918851e-05 1.7360218692e+00 -3.0068780806e+00 1.7360218692e+00 3.0068780806e+00 
154500 6.9054389398e+00 7.0399760521e-05 1.7360218692e+00 -3.0068780806e+00 1.7360218692e+00 3.0068780806e+00 
154600 6.9054389389e+00 7.0929400346e-05 1.7360218692e+00 -3.0068780806e+00 1.7360218692e+00 3.0068780806e+00 
154700 6.9054389378e+00 6.9253796813e-05 1.7360198264e+00 -3.0068745422e+00 1.7360198264e+00 3.0068745422e+00 
154800 6.9054389369e+00 6.9772901225e-05 1.7360198264e+00 -3.0068745422e+00 1.7360198264e+00 3.0068745422e+00 
154900 6.9054389359e+00 7.0292681922e-05 1.7360198264e+00 -3.0068745422e+00 1.7360198264e+00 3.0068745422e+00 
155000 6.9054389350e+00 7.0813228964e-05 1.7360198264e+00 -3.0068745422e+00 1.7360198264e+00 3.0068745422e+00 
155100 6.9054389340e+00 6.9132100169e-05 1.7360177868e+00 -3.0068710096e+00 1.7360177868e+00 3.0068710096e+00 
155200 6.9054389331e+00 6.9642066080e-05 1.7360177868e+00 -3.0068710096e+00 1.7360177868e+00 3.0068710096e+00 
155300 6.9054389322e+00 7.0152675108e-05 1.7360177868e+00 -3.0068710096e+00 1.7360177868e+00 3.0068710096e+00 
155400 6.9054389314e+00 7.0664016823e-05 1.7360177868e+00 -3.0068710096e+00 1.7360177868e+00 3.0068710096e+00 
155500 6.9054389305e+00 7.1176177201e-05 1.7360177868e+00 -3.0068710096e+00 1.7360177868e+00 3.0068710096e+00 
155600 6.9054389295e+00 6.9475406546e-05 1.7360157368e+00 -3.0068674590e+00 1.7360157368e+00 3.0068674590e+00 
155700 6.9054389286e+00 6.9977014103e-05 1.7360157368e+00 -3.0068674590e+00 1.7360157368e+00 3.0068674590e+00 
155800 6.9054389278e+00 7.0479302424e-05 1.7360157368e+00 -3.0068674590e+00 1.7360157368e+00 3.0068674590e+00 
155900 6.9054389270e+00 7.0982356797e-05 1.7360157368e+00 -3.0068674590e+00 1.7360157368e+00 3.0068674590e+00 
156000 6.9054389260e+00 6.9278442399e-05 1.7360136924e+00 -3.0068639179e+00 1.7360136924e+00 3.0068639179e+00 
156100 6.9054389251e+00 6.9770871001e-05 1.7360136924e+00 -3.0068639179e+00 1.7360136924e+00 3.0068639179e+00 
156200 6.9054389243e+00 7.0263927726e-05 1.7360136924e+00 -3.0068639179e+00 1.7360136924e+00 3.0068639179e+00 
156300 6.9054389235e+00 7.0757697780e-05 1.7360136924e+00 -3.0068639179e+00 1.7360136924e+00 3.0068639179e+00 
156400 6.9054389226e+00 6.9051421205e-05 1.7360116545e+00 -3.0068603881e+00 1.7360116545e+00 3.0068603881e+00 
156500 6.9054389218e+00 6.9534499485e-05 1.7360116545e+00 -3.0068603881e+00 1.7360116545e+00 3.0068603881e+00 
156600 6.9054389210e+00 7.0018155020e-05 1.7360116545e+00 -3.0068603881e+00 1.7360116545e+00 3.0068603881e+00 
156700 6.9054389202e+00 7.0502473473e-05 1.7360116545e+00 -3.0068603881e+00 1.7360116545e+00 3.0068603881e+00 
156800 6.9054389194e+00 7.0987537158e-05 1.7360116545e+00 -3.0068603881e+00 1.7360116545e+00 3.0068603881e+00 
156900 6.9054389185e+00 6.9265420209e-05 1.7360096100e+00 -3.0068568469e+00 1.7360096100e+00 3.0068568469e+00 
157000 6.9054389177e+00 6.9739806578e-05 1.7360096100e+00 -3.0068568469e+00 1.7360096100e+00 3.0068568469e+00 
157100 6.9054389170e+00 7.0214791902e-05 1.7360096100e+00 -3.0068568469e+00 1.7360096100e+00 3.0068568469e+00 
157200 6.9054389162e+00 7.0690458831e-05 1.7360096100e+00 -3.0068568469e+00 1.7360096100e+00 3.0068568469e+00 
157300 6.9054389155e+00 7.1166886657e-05 1.7360096100e+00 -3.0068568469e+00 1.7360096100e+00 3.0068568469e+00 
157400 6.9054389146e+00 6.9430553968e-05 1.7360075602e+00 -3.0068532966e+00 1.7360075602e+00 3.0068532966e+00 
157500 6.9054389138e+00 6.9896295160e-05 1.7360075602e+00 -3.0068532966e+00 1.7360075602e+00 3.0068532966e+00 
157600 6.9054389131e+00 7.0362641026e-05 1.7360075602e+00 -3.0068532966e+00 1.7360075602e+00 3.0068532966e+00 
157700 6.9054389124e+00 7.0829671298e-05 1.7360075602e+00 -3.0068532966e+00 1.7360075602e+00 3.0068532966e+00 
157800 6.9054389115e+00 6.9094341344e-05 1.7360055202e+00 -3.0068497632e+00 1.7360055202e+00 3.0068497632e+00 
157900 6.9054389108e+00 6.9550592946e-05 1.7360055202e+00 -3.0068497632e+00 1.7360055202e+00 3.0068497632e+00 
158000 6.9054389101e+00 7.0007377126e-05 1.7360055202e+00 -3.0068497632e+00 1.7360055202e+00 3.0068497632e+00 
158100 6.9054389094e+00 7.0464774813e-05 1.7360055202e+00 -3.0068497632e+00 1.7360055202e+00 3.0068497632e+00 
158200 6.9054389087e+00 7.0922863796e-05 1.7360055202e+00 -3.0068497632e+00 1.7360055202e+00 3.0068497632e+00 
158300 6.9054389078e+00 6.9175685080e-05 1.7360034775e+00 -3.0068462252e+00 1.7360034775e+00 3.0068462252e+00 
158400 6.9054389072e+00 6.9622986835e-05 1.7360034775e+00 -3.0068462252e+00 1.7360034775e+00 3.0068462252e+00 
158500 6.9054389065e+00 7.0070821778e-05 1.7360034775e+00 -3.0068462252e+00 1.7360034775e+00 3.0068462252e+00 
158600 6.9054389058e+00 7.0519268964e-05 1.7360034775e+00 -3.0068462252e+00 1.7360034775e+00 3.0068462252e+00 
158700 6.9054389052e+00 7.0968404326e-05 1.7360034775e+00 -3.0068462252e+00 1.7360034775e+00 3.0068462252e+00 
158800 6.9054389043e+00 6.9210836897e-05 1.7360014335e+00 -3.0068426848e+00 1.7360014335e+00 3.0068426848e+00 
158900 6.9054389037e+00 6.9649165186e-05 1.7360014335e+00 -3.0068426848e+00 1.7360014335e+00 3.0068426848e+00 
159000 6.9054389030e+00 7.0088017991e-05 1.7360014335e+00 -3.0068426848e+00 1.7360014335e+00 3.0068426848e+00 
159100 6.9054389024e+00 7.0527472689e-05 1.7360014335e+00 -3.0068426848e+00 1.7360014335e+00 3.0068426848e+00 
159200 6.9054389018e+00 7.0967603605e-05 1.7360014335e+00 -3.0068426848e+00 1.7360014335e+00 3.0068426848e+00 
159300 6.9054389010e+00 6.9201029583e-05 1.7359993895e+00 -3.0068391445e+00 1.7359993895e+00 3.0068391445e+00 
159400 6.9054389003e+00 6.9630324807e-05 1.7359993895e+00 -3.0068391445e+00 1.7359993895e+00 3.0068391445e+00 
159500 6.9054388997e+00 7.0060128130e-05 1.7359993895e+00 -3.0068391445e+00 1.7359993895e+00 3.0068391445e+00 
159600 6.9054388991e+00 7.0490515568e-05 1.7359993895e+00 -3.0068391445e+00 1.7359993895e+00 3.0068391445e+00 
159700 6.9054388985e+00 7.0921560168e-05 1.7359993895e+00 -3.0068391445e+00 1.7359993895e+00 3.0068391445e+00 
159800 6.9054388977e+00 6.9147298331e-05 1.7359973468e+00 -3.0068356065e+00 1.7359973468e+00 3.0068356065e+00 
159900 6.9054388971e+00 6.9567473405e-05 1.7359973468e+00 -3.0068356065e+00 1.7359973468e+00 3.0068356065e+00 
160000 6.9054388965e+00 6.9988134382e-05 1.7359973468e+00 -3.0068356065e+00 1.7359973468e+00 3.0068356065e+00 
160100 6.9054388959e+00 7.0409356307e-05 1.7359973468e+00 -3.0068356065e+00 1.7359973468e+00 3.0068356065e+00 
160200 6.9054388953e+00 7.0831211322e-05 1.7359973468e+00 -3.0068356065e+00 1.7359973468e+00 3.0068356065e+00 
160300 6.9054388946e+00 6.9050532061e-05 1.7359953068e+00 -3.0068320730e+00 1.7359953068e+00 3.0068320730e+00 
160400 6.9054388940e+00 6.9461482624e-05 1.7359953068e+00 -3.0068320730e+00 1.7359953068e+00 3.0068320730e+00 
160500 6.9054388934e+00 6.9872893313e-05 1.7359953068e+00 -3.0068320730e+00 1.7359953068e+00 3.0068320730e+00 
160600 6.9054388929e+00 7.0284838589e-05 1.7359953068e+00 -3.0068320730e+00 1.7359953068e+00 3.0068320730e+00 
160700 6.9054388923e+00 7.0697390099e-05 1.7359953068e+00 -3.0068320730e+00 1.7359953068e+00 3.0068320730e+00 
160800 6.9054388917e+00 7.1110616506e-05 1.7359953068e+00 -3.0068320730e+00 1.7359953068e+00 3.0068320730e+00 
160900 6.9054388910e+00 6.9312641659e-05 1.7359932586e+00 -3.0068285255e+00 1.7359932586e+00 3.0068285255e+00 
161000 6.9054388905e+00 6.9714987437e-05 1.7359932586e+00 -3.0068285255e+00 1.7359932586e+00 3.0068285255e+00 
161100 6.9054388899e+00 7.0117822905e-05 1.7359932586e+00 -3.0068285255e+00 1.7359932586e+00 3.0068285255e+00 
161200 6.9054388894e+00 7.0521218920e-05 1.7359932586e+00 -3.0068285255e+00 1.7359932586e+00 3.0068285255e+00 
161300 6.9054388889e+00 7.0925243514e-05 1.7359932586e+00 -3.0068285255e+00 1.7359932586e+00 3.0068285255e+00 
161400 6.9054388882e+00 6.9123773084e-05 1.7359912158e+00 -3.0068249873e+00 1.7359912158e+00 3.0068249873e+00 
161500 6.9054388876e+00 6.9516855317e-05 1.7359912158e+00 -3.0068249873e+00 1.7359912158e+00 3.0068249873e+00 
161600 6.9054388871e+00 6.9910380918e-05 1.7359912158e+00 -3.0068249873e+00 1.7359912158e+00 3.0068249873e+00 
161700 6.9054388866e+00 7.0304420664e-05 1.7359912158e+00 -3.0068249873e+00 1.7359912158e+00 3.0068249873e+00 
161800 6.9054388861e+00 7.0699042650e-05 1.7359912158e+00 -3.0068249873e+00 1.7359912158e+00 3.0068249873e+00 
161900 6.9054388856e+00 7.1094312119e-05 1.7359912158e+00 -3.0068249873e+00 1.7359912158e+00 3.0068249873e+00 
162000 6.9054388849e+00 6.9278829685e-05 1.7359891682e+00 -3.0068214407e+00 1.7359891682e+00 3.0068214407e+00 
162100 6.9054388844e+00 6.9663156406e-05 1.7359891682e+00 -3.0068214407e+00 1.7359891682e+00 3.0068214407e+00 
162200 6.9054388839e+00 7.0047936135e-05 1.7359891682e+00 -3.0068214407e+00 1.7359891682e+00 3.0068214407e+00 
162300 6.9054388834e+00 7.0433236911e-05 1.7359891682e+00 -3.0068214407e+00 1.7359891682e+00 3.0068214407e+00 
162400 6.9054388829e+00 7.0819124117e-05 1.7359891682e+00 -3.0068214407e+00 1.7359891682e+00 3.0068214407e+00 
162500 6.9054388822e+00 6.9002745816e-05 1.7359871285e+00 -3.0068179078e+00 1.7359871285e+00 3.0068179078e+00 
162600 6.9054388818e+00 6.9377617198e-05 1.7359871285e+00 -3.0068179078e+00 1.7359871285e+00 3.0068179078e+00 
162700 6.9054388813e+00 6.9752883455e-05 1.7359871285e+00 -3.0068179078e+00 1.7359871285e+00 3.0068179078e+00 
162800 6.9054388808e+00 7.0128613383e-05 1.7359871285e+00 -3.0068179078e+00 1.7359871285e+00 3.0068179078e+00 
162900 6.9054388803e+00 7.0504873278e-05 1.7359871285e+00 -3.0068179078e+00 1.7359871285e+00 3.0068179078e+00 
163000 6.9054388799e+00 7.0881726764e-05 1.7359871285e+00 -3.0068179078e+00 1.7359871285e+00 3.0068179078e+00 
163100 6.9054388792e+00 6.9054359177e-05 1.7359850869e+00 -3.0068143717e+00 1.7359850869e+00 3.0068143717e+00 
163200 6.9054388788e+00 6.9420194719e-05 1.7359850869e+00 -3.0068143717e+00 1.7359850869e+00 3.0068143717e+00 
163300 6.9054388783e+00 6.9786426732e-05 1.7359850869e+00 -3.0068143717e+00 1.7359850869e+00 3.0068143717e+00 
163400 6.9054388779e+00 7.0153122317e-05 1.7359850869e+00 -3.0068143717e+00 1.7359850869e+00 3.0068143717e+00 
163500 6.9054388774e+00 7.0520346091e-05 1.7359850869e+00 -3.0068143717e+00 1.7359850869e+00 3.0068143717e+00 
163600 6.9054388770e+00 7.0888160035e-05 1.7359850869e+00 -3.0068143717e+00 1.7359850869e+00 3.0068143717e+00 
163700 6.9054388764e+00 6.9051534248e-05 1.7359830452e+00 -3.0068108353e+00 1.7359830452e+00 3.0068108353e+00 
163800 6.9054388759e+00 6.9408317285e-05 1.7359830452e+00 -3.0068108353e+00 1.7359830452e+00 3.0068108353e+00 
163900 6.9054388755e+00 6.9765488672e-05 1.7359830452e+00 -3.0068108353e+00 1.7359830452e+00 3.0068108353e+00 
164000 6.9054388751e+00 7.0123114050e-05 1.7359830452e+00 -3.0068108353e+00 1.7359830452e+00 3.0068108353e+00 
164100 6.9054388747e+00 7.0481256632e-05 1.7359830452e+00 -3.0068108353e+00 1.7359830452e+00 3.0068108353e+00 
164200 6.9054388742e+00 7.0839977052e-05 1.7359830452e+00 -3.0068108353e+00 1.7359830452e+00 3.0068108353e+00 
164300 6.9054388736e+00 6.8995729552e-05 1.7359810048e+00 -3.0068073014e+00 1.7359810048e+00 3.0068073014e+00 
164400 6.9054388732e+00 6.9343398816e-05 1.7359810048e+00 -3.0068073014e+00 1.7359810048e+00 3.0068073014e+00 
164500 6.9054388728e+00 6.9691440707e-05 1.7359810048e+00 -3.0068073014e+00 1.7359810048e+00 3.0068073014e+00 
164600 6.9054388724e+00 7.0039919774e-05 1.7359810048e+00 -3.0068073014e+00 1.7359810048e+00 3.0068073014e+00 
164700 6.9054388720e+00 7.0388898210e-05 1.7359810048e+00 -3.0068073014e+00 1.7359810048e+00 3.0068073014e+00 
164800 6.9054388716e+00 7.0738435705e-05 1.7359810048e+00 -3.0068073014e+00 1.7359810048e+00 3.0068073014e+00 
164900 6.9054388710e+00 6.8888131020e-05 1.7359789674e+00 -3.0068037725e+00 1.7359789674e+00 3.0068037725e+00 
165000 6.9054388706e+00 6.9226594778e-05 1.7359789674e+00 -3.0068037725e+00 1.7359789674e+00 3.0068037725e+00 
165100 6.9054388702e+00 6.9565410528e-05 1.7359789674e+00 -3.0068037725e+00 1.7359789674e+00 3.0068037725e+00 
165200 6.9054388699e+00 6.9904642157e-05 1.7359789674e+00 -3.0068037725e+00 1.7359789674e+00 3.0068037725e+00 
165300 6.9054388695e+00 7.0244351267e-05 1.7359789674e+00 -3.0068037725e+00 1.7359789674e+00 3.0068037725e+00 
165400 6.9054388691e+00 7.0584597033e-05 1.7359789674e+00 -3.0068037725e+00 1.7359789674e+00 3.0068037725e+00 
165500 6.9054388687e+00 7.0925436077e-05 1.7359789674e+00 -3.0068037725e+00 1.7359789674e+00 3.0068037725e+00 
165600 6.9054388682e+00 6.9060633088e-05 1.7359769246e+00 -3.0068002342e+00 1.7359769246e+00 3.0068002342e+00 
165700 6.9054388678e+00 6.9390424517e-05 1.7359769246e+00 -3.0068002342e+00 1.7359769246e+00 3.0068002342e+00 
165800 6.9054388674e+00 6.9720591762e-05 1.7359769246e+00 -3.0068002342e+00 1.7359769246e+00 3.0068002342e+00 
165900 6.9054388670e+00 7.0051195576e-05 1.7359769246e+00 -3.0068002342e+00 1.7359769246e+00 3.0068002342e+00 
166000 6.9054388667e+00 7.0382294433e-05 1.7359769246e+00 -3.0068002342e+00 1.7359769246e+00 3.0068002342e+00 
166100 6.9054388663e+00 7.0713944399e-05 1.7359769246e+00 -3.0068002342e+00 1.7359769246e+00 3.0068002342e+00 
166200 6.9054388658e+00 6.8846475681e-05 1.7359748879e+00 -3.0067967065e+00 1.7359748879e+00 3.0067967065e+00 
166300 6.9054388654e+00 6.9167029370e-05 1.7359748879e+00 -3.0067967065e+00 1.7359748879e+00 3.0067967065e+00 
166400 6.9054388651e+00 6.9487917017e-05 1.7359748879e+00 -3.0067967065e+00 1.7359748879e+00 3.0067967065e+00 
166500 6.9054388647e+00 6.9809199328e-05 1.7359748879e+00 -3.0067967065e+00 1.7359748879e+00 3.0067967065e+00 
166600 6.9054388644e+00 7.0130934864e-05 1.7359748879e+00 -3.0067967065e+00 1.7359748879e+00 3.0067967065e+00 
166700 6.9054388640e+00 7.0453179899e-05 1.7359748879e+00 -3.0067967065e+00 1.7359748879e+00 3.0067967065e+00 
166800 6.9054388637e+00 7.0775988292e-05 1.7359748879e+00 -3.0067967065e+00 1.7359748879e+00 3.0067967065e+00 
166900 6.9054388632e+00 6.8897744426e-05 1.7359728494e+00 -3.0067931757e+00 1.7359728494e+00 3.0067931757e+00 
167000 6.9054388629e+00 6.9209463366e-05 1.7359728494e+00 -3.0067931757e+00 1.7359728494e+00 3.0067931757e+00 
167100 6.9054388625e+00 6.9521521637e-05 1.7359728494e+00 -3.0067931757e+00 1.7359728494e+00 3.0067931757e+00 
167200 6.9054388622e+00 6.9833977815e-05 1.7359728494e+00 -3.0067931757e+00 1.7359728494e+00 3.0067931757e+00 
167300 6.9054388619e+00 7.0146888366e-05 1.7359728494e+00 -3.0067931757e+00 1.7359728494e+00 3.0067931757e+00 
167400 6.9054388615e+00 7.0460307505e-05 1.7359728494e+00 -3.0067931757e+00 1.7359728494e+00 3.0067931757e+00 
167500 6.9054388612e+00 7.0774287079e-05 1.7359728494e+00 -3.0067931757e+00 1.7359728494e+00 3.0067931757e+00 
167600 6.9054388607e+00 6.8887248969e-05 1.7359708109e+00 -3.0067896450e+00 1.7359708109e+00 3.0067896450e+00 
167700 6.9054388604e+00 6.9190127491e-05 1.7359708109e+00 -3.0067896450e+00 1.7359708109e+00 3.0067896450e+00 
167800 6.9054388601e+00 6.9493336732e-05 1.7359708109e+00 -3.0067896450e+00 1.7359708109e+00 3.0067896450e+00 
167900 6.9054388598e+00 6.9796933490e-05 1.7359708109e+00 -3.0067896450e+00 1.7359708109e+00 3.0067896450e+00 
168000 6.9054388595e+00 7.0100972516e-05 1.7359708109e+00 -3.0067896450e+00 1.7359708109e+00 3.0067896450e+00 
168100 6.9054388592e+00 7.0405506390e-05 1.7359708109e+00 -3.0067896450e+00 1.7359708109e+00 3.0067896450e+00 
168200 6.9054388589e+00 7.0710585393e-05 1.7359708109e+00 -3.0067896450e+00 1.7359708109e+00 3.0067896450e+00 
168300 6.9054388586e+00 7.1016257405e-05 1.7359708109e+00 -3.0067896450e+00 1.7359708109e+00 3.0067896450e+00 
168400 6.9054388581e+00 6.9113399056e-05 1.7359687655e+00 -3.0067861022e+00 1.7359687655e+00 3.0067861022e+00 
168500 6.9054388578e+00 6.9407980642e-05 1.7359687655e+00 -3.0067861022e+00 1.7359687655e+00 3.0067861022e+00 
168600 6.9054388575e+00 6.9702912304e-05 1.7359687655e+00 -3.0067861022e+00 1.7359687655e+00 3.0067861022e+00 
168700 6.9054388572e+00 6.9998246924e-05 1.7359687655e+00 -3.0067861022e+00 1.7359687655e+00 3.0067861022e+00 
168800 6.9054388569e+00 7.0294035378e-05 1.7359687655e+00 -3.0067861022e+00 1.7359687655e+00 3.0067861022e+00 
168900 6.9054388566e+00 7.0590326405e-05 1.7359687655e+00 -3.0067861022e+00 1.7359687655e+00 3.0067861022e+00 
169000 6.9054388563e+00 7.0887166507e-05 1.7359687655e+00 -3.0067861022e+00 1.7359687655e+00 3.0067861022e+00 
169100 6.9054388559e+00 6.8979433597e-05 1.7359667238e+00 -3.0067825658e+00 1.7359667238e+00 3.0067825658e+00 
169200 6.9054388556e+00 6.9265114250e-05 1.7359667238e+00 -3.0067825658e+00 1.7359667238e+00 3.0067825658e+00 
169300 6.9054388553e+00 6.9551098532e-05 1.7359667238e+00 -3.0067825658e+00 1.7359667238e+00 3.0067825658e+00 
169400 6.9054388551e+00 6.9837438542e-05 1.7359667238e+00 -3.0067825658e+00 1.7359667238e+00 3.0067825658e+00 
169500 6.9054388548e+00 7.0124184518e-05 1.7359667238e+00 -3.0067825658e+00 1.7359667238e+00 3.0067825658e+00 
169600 6.9054388545e+00 7.0411384710e-05 1.7359667238e+00 -3.0067825658e+00 1.7359667238e+00 3.0067825658e+00 
169700 6.9054388542e+00 7.0699085269e-05 1.7359667238e+00 -3.0067825658e+00 1.7359667238e+00 3.0067825658e+00 
169800 6.9054388540e+00 7.0987330146e-05 1.7359667238e+00 -3.0067825658e+00 1.7359667238e+00 3.0067825658e+00 
169900 6.9054388535e+00 6.9067865070e-05 1.7359646792e+00 -3.0067790245e+00 1.7359646792e+00 3.0067790245e+00 
170000 6.9054388533e+00 6.9344915787e-05 1.7359646792e+00 -3.0067790245e+00 1.7359646792e+00 3.0067790245e+00 
170100 6.9054388530e+00 6.9622257533e-05 1.7359646792e+00 -3.0067790245e+00 1.7359646792e+00 3.0067790245e+00 
170200 6.9054388528e+00 6.9899940112e-05 1.7359646792e+00 -3.0067790245e+00 1.7359646792e+00 3.0067790245e+00 
170300 6.9054388525e+00 7.0178011542e-05 1.7359646792e+00 -3.0067790245e+00 1.7359646792e+00 3.0067790245e+00 
170400 6.9054388522e+00 7.0456517931e-05 1.7359646792e+00 -3.0067790245e+00 1.7359646792e+00 3.0067790245e+00 
170500 6.9054388520e+00 7.0735503371e-05 1.7359646792e+00 -3.0067790245e+00 1.7359646792e+00 3.0067790245e+00 
170600 6.9054388516e+00 6.8814534915e-05 1.7359626418e+00 -3.0067754957e+00 1.7359626418e+00 3.0067754957e+00 
170700 6.9054388513e+00 6.9082240623e-05 1.7359626418e+00 -3.0067754957e+00 1.7359626418e+00 3.0067754957e+00 
170800 6.9054388511e+00 6.9350174892e-05 1.7359626418e+00 -3.0067754957e+00 1.7359626418e+00 3.0067754957e+00 
170900 6.9054388508e+00 6.9618388291e-05 1.7359626418e+00 -3.0067754957e+00 1.7359626418e+00 3.0067754957e+00 
171000 6.9054388506e+00 6.9886929749e-05 1.7359626418e+00 -3.0067754957e+00 1.7359626418e+00 3.0067754957e+00 
171100 6.9054388504e+00 7.0155846432e-05 1.7359626418e+00 -3.0067754957e+00 1.7359626418e+00 3.0067754957e+00 
171200 6.9054388501e+00 7.0425183626e-05 1.7359626418e+00 -3.0067754957e+00 1.7359626418e+00 3.0067754957e+00 
171300 6.9054388499e+00 7.0694984640e-05 1.7359626418e+00 -3.0067754957e+00 1.7359626418e+00 3.0067754957e+00 
171400 6.9054388496e+00 7.0965290701e-05 1.7359626418e+00 -3.0067754957e+00 1.7359626418e+00 3.0067754957e+00 
171500 6.9054388492e+00 6.9028503561e-05 1.7359605978e+00 -3.0067719554e+00 1.7359605978e+00 3.0067719554e+00 
171600 6.9054388490e+00 6.9287532693e-05 1.7359605978e+00 -3.0067719554e+00 1.7359605978e+00 3.0067719554e+00 
171700 6.9054388488e+00 6.9546806370e-05 1.7359605978e+00 -3.0067719554e+00 1.7359605978e+00 3.0067719554e+00 
171800 6.9054388486e+00 6.9806372236e-05 1.7359605978e+00 -3.0067719554e+00 1.7359605978e+00 3.0067719554e+00 
171900 6.9054388483e+00 7.0066276295e-05 1.7359605978e+00 -3.0067719554e+00 1.7359605978e+00 3.0067719554e+00 
172000 6.9054388481e+00 7.0326562805e-05 1.7359605978e+00 -3.0067719554e+00 1.7359605978e+00 3.0067719554e+00 
172100 6.9054388479e+00 7.0587274162e-05 1.7359605978e+00 -3.0067719554e+00 1.7359605978e+00 3.0067719554e+00 
172200 6.9054388477e+00 7.0848450817e-05 1.7359605978e+00 -3.0067719554e+00 1.7359605978e+00 3.0067719554e+00 
172300 6.9054388473e+00 6.8906115350e-05 1.7359585572e+00 -3.0067684210e+00 1.7359585572e+00 3.0067684210e+00 
172400 6.9054388471e+00 6.9155953934e-05 1.7359585572e+00 -3.0067684210e+00 1.7359585572e+00 3.0067684210e+00 
172500 6.9054388469e+00 6.9405996328e-05 1.7359585572e+00 -3.0067684210e+00 1.7359585572e+00 3.0067684210e+00 
172600 6.9054388466e+00 6.9656289856e-05 1.7359585572e+00 -3.0067684210e+00 1.7359585572e+00 3.0067684210e+00 
172700 6.9054388464e+00 6.9906880317e-05 1.7359585572e+00 -3.0067684210e+00 1.7359585572e+00 3.0067684210e+00 
172800 6.9054388462e+00 7.0157811874e-05 1.7359585572e+00 -3.0067684210e+00 1.7359585572e+00 3.0067684210e+00 
172900 6.9054388460e+00 7.0409126946e-05 1.7359585572e+00 -3.0067684210e+00 1.7359585572e+00 3.0067684210e+00 
173000 6.9054388458e+00 7.0660866114e-05 1.7359585572e+00 -3.0067684210e+00 1.7359585572e+00 3.0067684210e+00 
173100 6.9054388456e+00 7.0913068023e-05 1.7359585572e+00 -3.0067684210e+00 1.7359585572e+00 3.0067684210e+00 
173200 6.9054388452e+00 6.8959729643e-05 1.7359565148e+00 -3.0067648833e+00 1.7359565148e+00 3.0067648833e+00 
173300 6.9054388450e+00 6.9200571555e-05 1.7359565148e+00 -3.0067648833e+00 1.7359565148e+00 3.0067648833e+00 
173400 6.9054388448e+00 6.9441609182e-05 1.7359565148e+00 -3.0067648833e+00 1.7359565148e+00 3.0067648833e+00 
173500 6.9054388446e+00 6.9682888208e-05 1.7359565148e+00 -3.0067648833e+00 1.7359565148e+00 3.0067648833e+00 
173600 6.9054388444e+00 6.9924452839e-05 1.7359565148e+00 -3.0067648833e+00 1.7359565148e+00 3.0067648833e+00 
173700 6.9054388442e+00 7.0166345703e-05 1.7359565148e+00 -3.0067648833e+00 1.7359565148e+00 3.0067648833e+00 
173800 6.9054388441e+00 7.0408607738e-05 1.7359565148e+00 -3.0067648833e+00 1.7359565148e+00 3.0067648833e+00 
173900 6.9054388439e+00 7.0651278111e-05 1.7359565148e+00 -3.0067648833e+00 1.7359565148e+00 3.0067648833e+00 
174000 6.9054388437e+00 7.0894394114e-05 1.7359565148e+00 -3.0067648833e+00 1.7359565148e+00 3.0067648833e+00 
174100 6.9054388433e+00 6.8932518883e-05 1.7359544728e+00 -3.0067613465e+00 1.7359544728e+00 3.0067613465e+00 
174200 6.9054388431e+00 6.9164239935e-05 1.7359544728e+00 -3.0067613465e+00 1.7359544728e+00 3.0067613465e+00 
174300 6.9054388429e+00 6.9396136072e-05 1.7359544728e+00 -3.0067613465e+00 1.7359544728e+00 3.0067613465e+00 
174400 6.9054388428e+00 6.9628251905e-05 1.7359544728e+00 -3.0067613465e+00 1.7359544728e+00 3.0067613465e+00 
174500 6.9054388426e+00 6.9860630664e-05 1.7359544728e+00 -3.0067613465e+00 1.7359544728e+00 3.0067613465e+00 
174600 6.9054388424e+00 7.0093314060e-05 1.7359544728e+00 -3.0067613465e+00 1.7359544728e+00 3.0067613465e+00 
174700 6.9054388422e+00 7.0326342207e-05 1.7359544728e+00 -3.0067613465e+00 1.7359544728e+00 3.0067613465e+00 
174800 6.9054388420e+00 7.0559753519e-05 1.7359544728e+00 -3.0067613465e+00 1.7359544728e+00 3.0067613465e+00 
174900 6.9054388419e+00 7.0793584630e-05 1.7359544728e+00 -3.0067613465e+00 1.7359544728e+00 3.0067613465e+00 
175000 6.9054388415e+00 6.8825520939e-05 1.7359524338e+00 -3.0067578148e+00 1.7359524338e+00 3.0067578148e+00 
175100 6.9054388414e+00 6.9047921170e-05 1.7359524338e+00 -3.0067578148e+00 1.7359524338e+00 3.0067578148e+00 
175200 6.9054388412e+00 6.9270469684e-05 1.7359524338e+00 -3.0067578148e+00 1.7359524338e+00 3.0067578148e+00 
175300 6.9054388410e+00 6.9493210744e-05 1.7359524338e+00 -3.0067578148e+00 1.7359524338e+00 3.0067578148e+00 
175400 6.9054388408e+00 6.9716187293e-05 1.7359524338e+00 -3.0067578148e+00 1.7359524338e+00 3.0067578148e+00 
175500 6.9054388407e+00 6.9939440856e-05 1.7359524338e+00 -3.0067578148e+00 1.7359524338e+00 3.0067578148e+00 
175600 6.9054388405e+00 7.0163011432e-05 1.7359524338e+00 -3.0067578148e+00 1.7359524338e+00 3.0067578148e+00 
175700 6.9054388403e+00 7.0386937399e-05 1.7359524338e+00 -3.0067578148e+00 1.7359524338e+00 3.0067578148e+00 
175800 6.9054388402e+00 7.0611255435e-05 1.7359524338e+00 -3.0067578148e+00 1.7359524338e+00 3.0067578148e+00 
175900 6.9054388400e+00 7.0836000436e-05 1.7359524338e+00 -3.0067578148e+00 1.7359524338e+00 3.0067578148e+00 
176000 6.9054388397e+00 6.8857522953e-05 1.7359503935e+00 -3.0067542810e+00 1.7359503935e+00 3.0067542810e+00 
176100 6.9054388395e+00 6.9070838591e-05 1.7359503935e+00 -3.0067542810e+00 1.7359503935e+00 3.0067542810e+00 
176200 6.9054388394e+00 6.9284304342e-05 1.7359503935e+00 -3.0067542810e+00 1.7359503935e+00 3.0067542810e+00 
176300 6.9054388392e+00 6.9497962812e-05 1.7359503935e+00 -3.0067542810e+00 1.7359503935e+00 3.0067542810e+00 
176400 6.9054388391e+00 6.9711855330e-05 1.7359503935e+00 -3.0067542810e+00 1.7359503935e+00 3.0067542810e+00 
176500 6.9054388389e+00 6.9926021837e-05 1.7359503935e+00 -3.0067542810e+00 1.7359503935e+00 3.0067542810e+00 
176600 6.9054388387e+00 7.0140500793e-05 1.7359503935e+00 -3.0067542810e+00 1.7359503935e+00 3.0067542810e+00 
176700 6.9054388386e+00 7.0355329087e-05 1.7359503935e+00 -3.0067542810e+00 1.7359503935e+00 3.0067542810e+00 
176800 6.9054388384e+00 7.0570541955e-05 1.7359503935e+00 -3.0067542810e+00 1.7359503935e+00 3.0067542810e+00 
176900 6.9054388383e+00 7.0786172908e-05 1.7359503935e+00 -3.0067542810e+00 1.7359503935e+00 3.0067542810e+00 
177000 6.9054388380e+00 6.8800107917e-05 1.7359483547e+00 -3.0067507496e+00 1.7359483547e+00 3.0067507496e+00 
177100 6.9054388378e+00 6.9004296319e-05 1.7359483547e+00 -3.0067507496e+00 1.7359483547e+00 3.0067507496e+00 
177200 6.9054388377e+00 6.9208622430e-05 1.7359483547e+00 -3.0067507496e+00 1.7359483547e+00 3.0067507496e+00 
177300 6.9054388375e+00 6.9413127706e-05 1.7359483547e+00 -3.0067507496e+00 1.7359483547e+00 3.0067507496e+00 
177400 6.9054388374e+00 6.9617852398e-05 1.7359483547e+00 -3.0067507496e+00 1.7359483547e+00 3.0067507496e+00 
177500 6.9054388373e+00 6.9822835434e-05 1.7359483547e+00 -3.0067507496e+00 1.7359483547e+00 3.0067507496e+00 
177600 6.9054388371e+00 7.0028114338e-05 1.7359483547e+00 -3.0067507496e+00 1.7359483547e+00 3.0067507496e+00 
177700 6.9054388370e+00 7.0233725131e-05 1.7359483547e+00 -3.0067507496e+00 1.7359483547e+00 3.0067507496e+00 
177800 6.9054388368e+00 7.0439702256e-05 1.7359483547e+00 -3.0067507496e+00 1.7359483547e+00 3.0067507496e+00 
177900 6.9054388367e+00 7.0646078506e-05 1.7359483547e+00 -3.0067507496e+00 1.7359483547e+00 3.0067507496e+00 
178000 6.9054388366e+00 7.0852884958e-05 1.7359483547e+00 -3.0067507496e+00 1.7359483547e+00 3.0067507496e+00 
178100 6.9054388363e+00 6.8855916108e-05 1.7359463139e+00 -3.0067472149e+00 1.7359463139e+00 3.0067472149e+00 
178200 6.9054388361e+00 6.9051285120e-05 1.7359463139e+00 -3.0067472149e+00 1.7359463139e+00 3.0067472149e+00 
178300 6.9054388360e+00 6.9246796457e-05 1.7359463139e+00 -3.0067472149e+00 1.7359463139e+00 3.0067472149e+00 
178400 6.9054388359e+00 6.9442489273e-05 1.7359463139e+00 -3.0067472149e+00 1.7359463139e+00 3.0067472149e+00 
178500 6.9054388357e+00 6.9638401561e-05 1.7359463139e+00 -3.0067472149e+00 1.7359463139e+00 3.0067472149e+00 
178600 6.9054388356e+00 6.9834570044e-05 1.7359463139e+00 -3.0067472149e+00 1.7359463139e+00 3.0067472149e+00 
178700 6.9054388355e+00 7.0031030098e-05 1.7359463139e+00 -3.0067472149e+00 1.7359463139e+00 3.0067472149e+00 
178800 6.9054388353e+00 7.0227815661e-05 1.7359463139e+00 -3.0067472149e+00 1.7359463139e+00 3.0067472149e+00 
178900 6.9054388352e+00 7.0424959154e-05 1.7359463139e+00 -3.0067472149e+00 1.7359463139e+00 3.0067472149e+00 
179000 6.9054388351e+00 7.0622491423e-05 1.7359463139e+00 -3.0067472149e+00 1.7359463139e+00 3.0067472149e+00 
179100 6.9054388350e+00 7.0820441672e-05 1.7359463139e+00 -3.0067472149e+00 1.7359463139e+00 3.0067472149e+00 
179200 6.9054388347e+00 6.8815598482e-05 1.7359442741e+00 -3.0067436819e+00 1.7359442741e+00 3.0067436819e+00 
179300 6.9054388346e+00 6.9002086990e-05 1.7359442741e+00 -3.0067436819e+00 1.7359442741e+00 3.0067436819e+00 
179400 6.9054388344e+00 6.9188700642e-05 1.7359442741e+00 -3.0067436819e+00 1.7359442741e+00 3.0067436819e+00 
179500 6.9054388343e+00 6.9375477043e-05 1.7359442741e+00 -3.0067436819e+00 1.7359442741e+00 3.0067436819e+00 
179600 6.9054388342e+00 6.9562452720e-05 1.7359442741e+00 -3.0067436819e+00 1.7359442741e+00 3.0067436819e+00 
179700 6.9054388341e+00 6.9749663033e-05 1.7359442741e+00 -3.0067436819e+00 1.7359442741e+00 3.0067436819e+00 
179800 6.9054388340e+00 6.9937142073e-05 1.7359442741e+00 -3.0067436819e+00 1.7359442741e+00 3.0067436819e+00 
179900 6.9054388338e+00 7.0124922593e-05 1.7359442741e+00 -3.0067436819e+00 1.7359442741e+00 3.0067436819e+00 
180000 6.9054388337e+00 7.0313035921e-05 1.7359442741e+00 -3.0067436819e+00 1.7359442741e+00 3.0067436819e+00 
180100 6.9054388336e+00 7.0501511908e-05 1.7359442741e+00 -3.0067436819e+00 1.7359442741e+00 3.0067436819e+00 
180200 6.9054388335e+00 7.0690378857e-05 1.7359442741e+00 -3.0067436819e+00 1.7359442741e+00 3.0067436819e+00 
180300 6.9054388334e+00 7.0879663470e-05 1.7359442741e+00 -3.0067436819e+00 1.7359442741e+00 3.0067436819e+00 
180400 6.9054388331e+00 6.8864295820e-05 1.7359422326e+00 -3.0067401458e+00 1.7359422326e+00 3.0067401458e+00 
180500 6.9054388330e+00 6.9042100179e-05 1.7359422326e+00 -3.0067401458e+00 1.7359422326e+00 3.0067401458e+00 
180600 6.9054388329e+00 6.9220021888e-05 1.7359422326e+00 -3.0067401458e+00 1.7359422326e+00 3.0067401458e+00 
180700 6.9054388328e+00 6.9398096299e-05 1.7359422326e+00 -3.0067401458e+00 1.7359422326e+00 3.0067401458e+00 
180800 6.9054388327e+00 6.9576357761e-05 1.7359422326e+00 -3.0067401458e+00 1.7359422326e+00 3.0067401458e+00 
180900 6.9054388326e+00 6.9754839523e-05 1.7359422326e+00 -3.0067401458e+00 1.7359422326e+00 3.0067401458e+00 
181000 6.9054388324e+00 6.9933573654e-05 1.7359422326e+00 -3.0067401458e+00 1.7359422326e+00 3.0067401458e+00 
181100 6.9054388323e+00 7.0112590963e-05 1.7359422326e+00 -3.0067401458e+00 1.7359422326e+00 3.0067401458e+00 
181200 6.9054388322e+00 7.0291920935e-05 1.7359422326e+00 -3.0067401458e+00 1.7359422326e+00 3.0067401458e+00 
181300 6.9054388321e+00 7.0471591653e-05 1.7359422326e+00 -3.0067401458e+00 1.7359422326e+00 3.0067401458e+00 
181400 6.9054388320e+00 7.0651629755e-05 1.7359422326e+00 -3.0067401458e+00 1.7359422326e+00 3.0067401458e+00 
181500 6.9054388319e+00 7.0832060379e-05 1.7359422326e+00 -3.0067401458e+00 1.7359422326e+00 3.0067401458e+00 
181600 6.9054388317e+00 6.8809279666e-05 1.7359401924e+00 -3.0067366122e+00 1.7359401924e+00 3.0067366122e+00 
181700 6.9054388316e+00 6.8978183527e-05 1.7359401924e+00 -3.0067366122e+00 1.7359401924e+00 3.0067366122e+00 
181800 6.9054388315e+00 6.9147175736e-05 1.7359401924e+00 -3.0067366122e+00 1.7359401924e+00 3.0067366122e+00 
181900 6.9054388314e+00 6.9316290466e-05 1.7359401924e+00 -3.0067366122e+00 1.7359401924e+00 3.0067366122e+00 
182000 6.9054388313e+00 6.9485560987e-05 1.7359401924e+00 -3.0067366122e+00 1.7359401924e+00 3.0067366122e+00 
182100 6.9054388312e+00 6.9655019578e-05 1.7359401924e+00 -3.0067366122e+00 1.7359401924e+00 3.0067366122e+00 
182200 6.9054388311e+00 6.9824697441e-05 1.7359401924e+00 -3.0067366122e+00 1.7359401924e+00 3.0067366122e+00 
182300 6.9054388310e+00 6.9994624621e-05 1.7359401924e+00 -3.0067366122e+00 1.7359401924e+00 3.0067366122e+00 
182400 6.9054388309e+00 7.0164829937e-05 1.7359401924e+00 -3.0067366122e+00 1.7359401924e+00 3.0067366122e+00 
182500 6.9054388308e+00 7.0335340918e-05 1.7359401924e+00 -3.0067366122e+00 1.7359401924e+00 3.0067366122e+00 
182600 6.9054388307e+00 7.0506183745e-05 1.7359401924e+00 -3.0067366122e+00 1.7359401924e+00 3.0067366122e+00 
182700 6.9054388306e+00 7.0677383200e-05 1.7359401924e+00 -3.0067366122e+00 1.7359401924e+00 3.0067366122e+00 
182800 6.9054388305e+00 7.0848962616e-05 1.7359401924e+00 -3.0067366122e+00 1.7359401924e+00 3.0067366122e+00 
182900 6.9054388302e+00 6.8816777010e-05 1.7359381518e+00 -3.0067330777e+00 1.7359381518e+00 3.0067330777e+00 
183000 6.9054388301e+00 6.8976796210e-05 1.7359381518e+00 -3.0067330777e+00 1.7359381518e+00 3.0067330777e+00 
183100 6.9054388301e+00 6.9136886102e-05 1.7359381518e+00 -3.0067330777e+00 1.7359381518e+00 3.0067330777e+00 
183200 6.9054388300e+00 6.9297079330e-05 1.7359381518e+00 -3.0067330777e+00 1.7359381518e+00 3.0067330777e+00 
183300 6.9054388299e+00 6.9457407714e-05 1.7359381518e+00 -3.0067330777e+00 1.7359381518e+00 3.0067330777e+00 
183400 6.9054388298e+00 6.9617902155e-05 1.7359381518e+00 -3.0067330777e+00 1.7359381518e+00 3.0067330777e+00 
183500 6.9054388297e+00 6.9778592562e-05 1.7359381518e+00 -3.0067330777e+00 1.7359381518e+00 3.0067330777e+00 
183600 6.9054388296e+00 6.9939507765e-05 1.7359381518e+00 -3.0067330777e+00 1.7359381518e+00 3.0067330777e+00 
183700 6.9054388295e+00 7.0100675465e-05 1.7359381518e+00 -3.0067330777e+00 1.7359381518e+00 3.0067330777e+00 
183800 6.9054388294e+00 7.0262122148e-05 1.7359381518e+00 -3.0067330777e+00 1.7359381518e+00 3.0067330777e+00 
183900 6.9054388294e+00 7.0423873046e-05 1.7359381518e+00 -3.0067330777e+00 1.7359381518e+00 3.0067330777e+00 
184000 6.9054388293e+00 7.0585952079e-05 1.7359381518e+00 -3.0067330777e+00 1.7359381518e+00 3.0067330777e+00 
184100 6.9054388292e+00 7.0748381813e-05 1.7359381518e+00 -3.0067330777e+00 1.7359381518e+00 3.0067330777e+00 
184200 6.9054388289e+00 6.8710132483e-05 1.7359361140e+00 -3.0067295482e+00 1.7359361140e+00 3.0067295482e+00 
184300 6.9054388289e+00 6.8860958893e-05 1.7359361140e+00 -3.0067295482e+00 1.7359361140e+00 3.0067295482e+00 
184400 6.9054388288e+00 6.9011825498e-05 1.7359361140e+00 -3.0067295482e+00 1.7359361140e+00 3.0067295482e+00 
184500 6.9054388287e+00 6.9162764511e-05 1.7359361140e+00 -3.0067295482e+00 1.7359361140e+00 3.0067295482e+00 
184600 6.9054388286e+00 6.9313807411e-05 1.7359361140e+00 -3.0067295482e+00 1.7359361140e+00 3.0067295482e+00 
184700 6.9054388285e+00 6.9464984845e-05 1.7359361140e+00 -3.0067295482e+00 1.7359361140e+00 3.0067295482e+00 
184800 6.9054388285e+00 6.9616326558e-05 1.7359361140e+00 -3.0067295482e+00 1.7359361140e+00 3.0067295482e+00 
184900 6.9054388284e+00 6.9767861305e-05 1.7359361140e+00 -3.0067295482e+00 1.7359361140e+00 3.0067295482e+00 
185000 6.9054388283e+00 6.9919616788e-05 1.7359361140e+00 -3.0067295482e+00 1.7359361140e+00 3.0067295482e+00 
185100 6.9054388282e+00 7.0071619591e-05 1.7359361140e+00 -3.0067295482e+00 1.7359361140e+00 3.0067295482e+00 
185200 6.9054388282e+00 7.0223895122e-05 1.7359361140e+00 -3.0067295482e+00 1.7359361140e+00 3.0067295482e+00 
185300 6.9054388281e+00 7.0376467557e-05 1.7359361140e+00 -3.0067295482e+00 1.7359361140e+00 3.0067295482e+00 
185400 6.9054388280e+00 7.0529359800e-05 1.7359361140e+00 -3.0067295482e+00 1.7359361140e+00 3.0067295482e+00 
185500 6.9054388279e+00 7.0682593432e-05 1.7359361140e+00 -3.0067295482e+00 1.7359361140e+00 3.0067295482e+00 
185600 6.9054388279e+00 7.0836188689e-05 1.7359361140e+00 -3.0067295482e+00 1.7359361140e+00 3.0067295482e+00 
185700 6.9054388276e+00 6.8786368022e-05 1.7359340737e+00 -3.0067260143e+00 1.7359340737e+00 3.0067260143e+00 
185800 6.9054388276e+00 6.8928359257e-05 1.7359340737e+00 -3.0067260143e+00 1.7359340737e+00 3.0067260143e+00 
185900 6.9054388275e+00 6.9070394257e-05 1.7359340737e+00 -3.0067260143e+00 1.7359340737e+00 3.0067260143e+00 
186000 6.9054388274e+00 6.9212503011e-05 1.7359340737e+00 -3.0067260143e+00 1.7359340737e+00 3.0067260143e+00 
186100 6.9054388273e+00 6.9354714807e-05 1.7359340737e+00 -3.0067260143e+00 1.7359340737e+00 3.0067260143e+00 
186200 6.9054388273e+00 6.9497058158e-05 1.7359340737e+00 -3.0067260143e+00 1.7359340737e+00 3.0067260143e+00 
186300 6.9054388272e+00 6.9639560718e-05 1.7359340737e+00 -3.0067260143e+00 1.7359340737e+00 3.0067260143e+00 
186400 6.9054388271e+00 6.9782249216e-05 1.7359340737e+00 -3.0067260143e+00 1.7359340737e+00 3.0067260143e+00 
186500 6.9054388271e+00 6.9925149385e-05 1.7359340737e+00 -3.0067260143e+00 1.7359340737e+00 3.0067260143e+00 
186600 6.9054388270e+00 7.0068285907e-05 1.7359340737e+00 -3.0067260143e+00 1.7359340737e+00 3.0067260143e+00 
186700 6.9054388269e+00 7.0211682357e-05 1.7359340737e+00 -3.0067260143e+00 1.7359340737e+00 3.0067260143e+00 
186800 6.9054388269e+00 7.0355361156e-05 1.7359340737e+00 -3.0067260143e+00 1.7359340737e+00 3.0067260143e+00 
186900 6.9054388268e+00 7.0499343526e-05 1.7359340737e+00 -3.0067260143e+00 1.7359340737e+00 3.0067260143e+00 
187000 6.9054388267e+00 7.0643649453e-05 1.7359340737e+00 -3.0067260143e+00 1.7359340737e+00 3.0067260143e+00 
187100 6.9054388267e+00 7.0788297652e-05 1.7359340737e+00 -3.0067260143e+00 1.7359340737e+00 3.0067260143e+00 
187200 6.9054388264e+00 6.8730985709e-05 1.7359320348e+00 -3.0067224828e+00 1.7359320348e+00 3.0067224828e+00 
187300 6.9054388264e+00 6.8863995137e-05 1.7359320348e+00 -3.0067224828e+00 1.7359320348e+00 3.0067224828e+00 
187400 6.9054388263e+00 6.8997025213e-05 1.7359320348e+00 -3.0067224828e+00 1.7359320348e+00 3.0067224828e+00 
187500 6.9054388262e+00 6.9130104751e-05 1.7359320348e+00 -3.0067224828e+00 1.7359320348e+00 3.0067224828e+00 
187600 6.9054388262e+00 6.9263261962e-05 1.7359320348e+00 -3.0067224828e+00 1.7359320348e+00 3.0067224828e+00 
187700 6.9054388261e+00 6.9396524366e-05 1.7359320348e+00 -3.0067224828e+00 1.7359320348e+00 3.0067224828e+00 
187800 6.9054388261e+00 6.9529918722e-05 1.7359320348e+00 -3.0067224828e+00 1.7359320348e+00 3.0067224828e+00 
187900 6.9054388260e+00 6.9663470957e-05 1.7359320348e+00 -3.0067224828e+00 1.7359320348e+00 3.0067224828e+00 
188000 6.9054388259e+00 6.9797206094e-05 1.7359320348e+00 -3.0067224828e+00 1.7359320348e+00 3.0067224828e+00 
188100 6.9054388259e+00 6.9931148200e-05 1.7359320348e+00 -3.0067224828e+00 1.7359320348e+00 3.0067224828e+00 
188200 6.9054388258e+00 7.0065320332e-05 1.7359320348e+00 -3.0067224828e+00 1.7359320348e+00 3.0067224828e+00 
188300 6.9054388258e+00 7.0199744480e-05 1.7359320348e+00 -3.0067224828e+00 1.7359320348e+00 3.0067224828e+00 
188400 6.9054388257e+00 7.0334441531e-05 1.7359320348e+00 -3.0067224828e+00 1.7359320348e+00 3.0067224828e+00 
188500 6.9054388256e+00 7.0469431226e-05 1.7359320348e+00 -3.0067224828e+00 1.7359320348e+00 3.0067224828e+00 
188600 6.9054388256e+00 7.0604732128e-05 1.7359320348e+00 -3.0067224828e+00 1.7359320348e+00 3.0067224828e+00 
188700 6.9054388255e+00 7.0740361586e-05 1.7359320348e+00 -3.0067224828e+00 1.7359320348e+00 3.0067224828e+00 
188800 6.9054388253e+00 6.8675493885e-05 1.7359299973e+00 -3.0067189537e+00 1.7359299973e+00 3.0067189537e+00 
188900 6.9054388253e+00 6.8799461471e-05 1.7359299973e+00 -3.0067189537e+00 1.7359299973e+00 3.0067189537e+00 
189000 6.9054388252e+00 6.8923432554e-05 1.7359299973e+00 -3.0067189537e+00 1.7359299973e+00 3.0067189537e+00 
189100 6.9054388251e+00 6.9047434847e-05 1.7359299973e+00 -3.0067189537e+00 1.7359299973e+00 3.0067189537e+00 
189200 6.9054388251e+00 6.9171495529e-05 1.7359299973e+00 -3.0067189537e+00 1.7359299973e+00 3.0067189537e+00 
189300 6.9054388250e+00 6.9295641165e-05 1.7359299973e+00 -3.0067189537e+00 1.7359299973e+00 3.0067189537e+00 
189400 6.9054388250e+00 6.9419897636e-05 1.7359299973e+00 -3.0067189537e+00 1.7359299973e+00 3.0067189537e+00 
189500 6.9054388249e+00 6.9544290063e-05 1.7359299973e+00 -3.0067189537e+00 1.7359299973e+00 3.0067189537e+00 
189600 6.9054388249e+00 6.9668842747e-05 1.7359299973e+00 -3.0067189537e+00 1.7359299973e+00 3.0067189537e+00 
189700 6.9054388248e+00 6.9793579110e-05 1.7359299973e+00 -3.0067189537e+00 1.7359299973e+00 3.0067189537e+00 
189800 6.9054388248e+00 6.9918521638e-05 1.7359299973e+00 -3.0067189537e+00 1.7359299973e+00 3.0067189537e+00 
189900 6.9054388247e+00 7.0043691838e-05 1.7359299973e+00 -3.0067189537e+00 1.7359299973e+00 3.0067189537e+00 
190000 6.9054388247e+00 7.0169110192e-05 1.7359299973e+00 -3.0067189537e+00 1.7359299973e+00 3.0067189537e+00 
190100 6.9054388246e+00 7.0294796112e-05 1.7359299973e+00 -3.0067189537e+00 1.7359299973e+00 3.0067189537e+00 
190200 6.9054388246e+00 7.0420767910e-05 1.7359299973e+00 -3.0067189537e+00 1.7359299973e+00 3.0067189537e+00 
190300 6.9054388245e+00 7.0547042772e-05 1.7359299973e+00 -3.0067189537e+00 1.7359299973e+00 3.0067189537e+00 
190400 6.9054388245e+00 7.0673636719e-05 1.7359299973e+00 -3.0067189537e+00 1.7359299973e+00 3.0067189537e+00 
190500 6.9054388244e+00 7.0800564597e-05 1.7359299973e+00 -3.0067189537e+00 1.7359299973e+00 3.0067189537e+00 
190600 6.9054388242e+00 6.8725111577e-05 1.7359279580e+00 -3.0067154216e+00 1.7359279580e+00 3.0067154216e+00 
190700 6.9054388242e+00 6.8840370200e-05 1.7359279580e+00 -3.0067154216e+00 1.7359279580e+00 3.0067154216e+00 
190800 6.9054388241e+00 6.8955630115e-05 1.7359279580e+00 -3.0067154216e+00 1.7359279580e+00 3.0067154216e+00 
190900 6.9054388241e+00 6.9070916730e-05 1.7359279580e+00 -3.0067154216e+00 1.7359279580e+00 3.0067154216e+00 
191000 6.9054388240e+00 6.9186254978e-05 1.7359279580e+00 -3.0067154216e+00 1.7359279580e+00 3.0067154216e+00 
191100 6.9054388240e+00 6.9301669247e-05 1.7359279580e+00 -3.0067154216e+00 1.7359279580e+00 3.0067154216e+00 
191200 6.9054388239e+00 6.9417183311e-05 1.7359279580e+00 -3.0067154216e+00 1.7359279580e+00 3.0067154216e+00 
191300 6.9054388239e+00 6.9532820263e-05 1.7359279580e+00 -3.0067154216e+00 1.7359279580e+00 3.0067154216e+00 
191400 6.9054388238e+00 6.9648602452e-05 1.7359279580e+00 -3.0067154216e+00 1.7359279580e+00 3.0067154216e+00 
191500 6.9054388238e+00 6.9764551434e-05 1.7359279580e+00 -3.0067154216e+00 1.7359279580e+00 3.0067154216e+00 
191600 6.9054388237e+00 6.9880687916e-05 1.7359279580e+00 -3.0067154216e+00 1.7359279580e+00 3.0067154216e+00 
191700 6.9054388237e+00 6.9997031716e-05 1.7359279580e+00 -3.0067154216e+00 1.7359279580e+00 3.0067154216e+00 
191800 6.9054388236e+00 7.0113601714e-05 1.7359279580e+00 -3.0067154216e+00 1.7359279580e+00 3.0067154216e+00 
191900 6.9054388236e+00 7.0230415819e-05 1.7359279580e+00 -3.0067154216e+00 1.7359279580e+00 3.0067154216e+00 
192000 6.9054388236e+00 7.0347490935e-05 1.7359279580e+00 -3.0067154216e+00 1.7359279580e+00 3.0067154216e+00 
192100 6.9054388235e+00 7.0464842932e-05 1.7359279580e+00 -3.0067154216e+00 1.7359279580e+00 3.0067154216e+00 
192200 6.9054388235e+00 7.0582486623e-05 1.7359279580e+00 -3.0067154216e+00 1.7359279580e+00 3.0067154216e+00 
192300 6.9054388234e+00 7.0700435740e-05 1.7359279580e+00 -3.0067154216e+00 1.7359279580e+00 3.0067154216e+00 
192400 6.9054388234e+00 7.0818702913e-05 1.7359279580e+00 -3.0067154216e+00 1.7359279580e+00 3.0067154216e+00 
192500 6.9054388232e+00 6.8733993320e-05 1.7359259182e+00 -3.0067118885e+00 1.7359259182e+00 3.0067118885e+00 
192600 6.9054388231e+00 6.8840549802e-05 1.7359259182e+00 -3.0067118885e+00 1.7359259182e+00 3.0067118885e+00 
192700 6.9054388231e+00 6.8947085516e-05 1.7359259182e+00 -3.0067118885e+00 1.7359259182e+00 3.0067118885e+00 
192800 6.9054388231e+00 6.9053624024e-05 1.7359259182e+00 -3.0067118885e+00 1.7359259182e+00 3.0067118885e+00 
192900 6.9054388230e+00 6.9160188516e-05 1.7359259182e+00 -3.0067118885e+00 1.7359259182e+00 3.0067118885e+00 
193000 6.9054388230e+00 6.9266801740e-05 1.7359259182e+00 -3.0067118885e+00 1.7359259182e+00 3.0067118885e+00 
193100 6.9054388229e+00 6.9373485929e-05 1.7359259182e+00 -3.0067118885e+00 1.7359259182e+00 3.0067118885e+00 
193200 6.9054388229e+00 6.9480262744e-05 1.7359259182e+00 -3.0067118885e+00 1.7359259182e+00 3.0067118885e+00 
193300 6.9054388229e+00 6.9587153207e-05 1.7359259182e+00 -3.0067118885e+00 1.7359259182e+00 3.0067118885e+00 
193400 6.9054388228e+00 6.9694177654e-05 1.7359259182e+00 -3.0067118885e+00 1.7359259182e+00 3.0067118885e+00 
193500 6.9054388228e+00 6.9801355683e-05 1.7359259182e+00 -3.0067118885e+00 1.7359259182e+00 3.0067118885e+00 
193600 6.9054388227e+00 6.9908706106e-05 1.7359259182e+00 -3.0067118885e+00 1.7359259182e+00 3.0067118885e+00 
193700 6.9054388227e+00 7.0016246910e-05 1.7359259182e+00 -3.0067118885e+00 1.7359259182e+00 3.0067118885e+00 
193800 6.9054388227e+00 7.0123995219e-05 1.7359259182e+00 -3.0067118885e+00 1.7359259182e+00 3.0067118885e+00 
193900 6.9054388226e+00 7.0231967262e-05 1.7359259182e+00 -3.0067118885e+00 1.7359259182e+00 3.0067118885e+00 
194000 6.9054388226e+00 7.0340178341e-05 1.7359259182e+00 -3.0067118885e+00 1.7359259182e+00 3.0067118885e+00 
194100 6.9054388226e+00 7.0448642810e-05 1.7359259182e+00 -3.0067118885e+00 1.7359259182e+00 3.0067118885e+00 
194200 6.9054388225e+00 7.0557374042e-05 1.7359259182e+00 -3.0067118885e+00 1.7359259182e+00 3.0067118885e+00 
194300 6.9054388225e+00 7.0666384424e-05 1.7359259182e+00 -3.0067118885e+00 1.7359259182e+00 3.0067118885e+00 
194400 6.9054388224e+00 7.0775685331e-05 1.7359259182e+00 -3.0067118885e+00 1.7359259182e+00 3.0067118885e+00 
194500 6.9054388222e+00 6.8683305739e-05 1.7359238797e+00 -3.0067083576e+00 1.7359238797e+00 3.0067083576e+00 
194600 6.9054388222e+00 6.8780844780e-05 1.7359238797e+00 -3.0067083576e+00 1.7359238797e+00 3.0067083576e+00 
194700 6.9054388222e+00 6.8878332535e-05 1.7359238797e+00 -3.0067083576e+00 1.7359238797e+00 3.0067083576e+00 
194800 6.9054388221e+00 6.8975791669e-05 1.7359238797e+00 -3.0067083576e+00 1.7359238797e+00 3.0067083576e+00 
194900 6.9054388221e+00 6.9073244576e-05 1.7359238797e+00 -3.0067083576e+00 1.7359238797e+00 3.0067083576e+00 
195000 6.9054388221e+00 6.9170713300e-05 1.7359238797e+00 -3.0067083576e+00 1.7359238797e+00 3.0067083576e+00 
195100 6.9054388220e+00 6.9268219465e-05 1.7359238797e+00 -3.0067083576e+00 1.7359238797e+00 3.0067083576e+00 
195200 6.9054388220e+00 6.9365784220e-05 1.7359238797e+00 -3.0067083576e+00 1.7359238797e+00 3.0067083576e+00 
195300 6.9054388220e+00 6.9463428173e-05 1.7359238797e+00 -3.0067083576e+00 1.7359238797e+00 3.0067083576e+00 
195400 6.9054388219e+00 6.9561171336e-05 1.7359238797e+00 -3.0067083576e+00 1.7359238797e+00 3.0067083576e+00 
195500 6.9054388219e+00 6.9659033076e-05 1.7359238797e+00 -3.0067083576e+00 1.7359238797e+00 3.0067083576e+00 
195600 6.9054388219e+00 6.9757032075e-05 1.7359238797e+00 -3.0067083576e+00 1.7359238797e+00 3.0067083576e+00 
195700 6.9054388218e+00 6.9855186276e-05 1.7359238797e+00 -3.0067083576e+00 1.7359238797e+00 3.0067083576e+00 
195800 6.9054388218e+00 6.9953512850e-05 1.7359238797e+00 -3.0067083576e+00 1.7359238797e+00 3.0067083576e+00 
195900 6.9054388218e+00 7.0052028165e-05 1.7359238797e+00 -3.0067083576e+00 1.7359238797e+00 3.0067083576e+00 
196000 6.9054388217e+00 7.0150747751e-05 1.7359238797e+00 -3.0067083576e+00 1.7359238797e+00 3.0067083576e+00 
196100 6.9054388217e+00 7.0249686268e-05 1.7359238797e+00 -3.0067083576e+00 1.7359238797e+00 3.0067083576e+00 
196200 6.9054388217e+00 7.0261574265e-05 1.7359238797e+00 -3.0067083576e+00 1.7359238797e+00 3.0067083576e+00 
196200 6.9054388217e+00 7.0261574265e-05 1.7359238797e+00 -3.0067083576e+00 1.7359238797e+00 3.0067083576e+00 
