# step Hamiltonian StressXX CellTensor1 CellTensor2 CellTensor3 CellTensor4 
0 5.6315572386e+00 -2.9645222502e-02 1.6087831444e+00 -2.7864941444e+00 1.6087831444e+00 2.7864941444e+00 
100 5.6344499527e+00 -3.1310524540e-02 1.6087831444e+00 -2.7864941444e+00 1.6087831444e+00 2.7864941444e+00 
200 5.6371973107e+00 -3.1981499819e-02 1.6097563544e+00 -2.7881797937e+00 1.6097563544e+00 2.7881797937e+00 
300 5.6398290118e+00 -3.2762877999e-02 1.6107498211e+00 -2.7899005285e+00 1.6107498211e+00 2.7899005285e+00 
400 5.6423392808e+00 -3.3642058478e-02 1.6117669351e+00 -2.7916622216e+00 1.6117669351e+00 2.7916622216e+00 
500 5.6447228545e+00 -3.4607069564e-02 1.6128106867e+00 -2.7934700524e+00 1.6128106867e+00 2.7934700524e+00 
600 5.6469750963e+00 -3.5646536031e-02 1.6138836863e+00 -2.7953285422e+00 1.6138836863e+00 2.7953285422e+00 
700 5.6490920808e+00 -3.6749650624e-02 1.6149881835e+00 -2.7972415874e+00 1.6149881835e+00 2.7972415874e+00 
800 5.6510706527e+00 -3.7906148656e-02 1.6161260854e+00 -2.7992124913e+00 1.6161260854e+00 2.7992124913e+00 
900 5.6529084646e+00 -3.9106285047e-02 1.6172989744e+00 -2.8012439946e+00 1.6172989744e+00 2.8012439946e+00 
1000 5.6546039957e+00 -4.0340813346e-02 1.6185081248e+00 -2.8033383045e+00 1.6185081248e+00 2.8033383045e+00 
1100 5.6561565547e+00 -4.1600966399e-02 1.6197545191e+00 -2.8054971228e+00 1.6197545191e+00 2.8054971228e+00 
1200 5.6575662691e+00 -4.2878438414e-02 1.6210388637e+00 -2.8077216729e+00 1.6210388637e+00 2.8077216729e+00 
1300 5.6588340632e+00 -4.4165368232e-02 1.6223616038e+00 -2.8100127261e+00 1.6223616038e+00 2.8100127261e+00 
1400 5.6599616265e+00 -4.5454323671e-02 1.6237229384e+00 -2.8123706267e+00 1.6237229384e+00 2.8123706267e+00 
1500 5.6609513743e+00 -4.6738286820e-02 1.6251228339e+00 -2.8147953168e+00 1.6251228339e+00 2.8147953168e+00 
1600 5.6618064020e+00 -4.8010640208e-02 1.6265610382e+00 -2.8172863598e+00 1.6265610382e+00 2.8172863598e+00 
1700 5.6625304345e+00 -4.9265153750e-02 1.6280370939e+00 -2.8198429632e+00 1.6280370939e+00 2.8198429632e+00 
1800 5.6631277717e+00 -5.0495972432e-02 1.6295503511e+00 -2.8224640016e+00 1.6295503511e+00 2.8224640016e+00 
1900 5.6636032315e+00 -5.1697604655e-02 1.6310999800e+00 -2.8251480376e+00 1.6310999800e+00 2.8251480376e+00 
2000 5.6639620911e+00 -5.2864911198e-02 1.6326849830e+00 -2.8278933434e+00 1.6326849830e+00 2.8278933434e+00 
2100 5.6642100275e+00 -5.3993094745e-02 1.6343042066e+00 -2.8306979208e+00 1.6343042066e+00 2.8306979208e+00 
2200 5.6643530577e+00 -5.5077689928e-02 1.6359563525e+00 -2.8335595215e+00 1.6359563525e+00 2.8335595215e+00 
2300 5.6643974801e+00 -5.6114553850e-02 1.6376399893e+00 -2.8364756660e+00 1.6376399893e+00 2.8364756660e+00 
2400 5.6643498161e+00 -5.7099857035e-02 1.6393535628e+00 -2.8394436623e+00 1.6393535628e+00 2.8394436623e+00 
2500 5.6642167544e+00 -5.8030074780e-02 1.6410954065e+00 -2.8424606242e+00 1.6410954065e+00 2.8424606242e+00 
2600 5.6640050965e+00 -5.8901978851e-02 1.6428637523e+00 -2.8455234890e+00 1.6428637523e+00 2.8455234890e+00 
2700 5.6637217056e+00 -5.9712629508e-02 1.6446567397e+00 -2.8486290342e+00 1.6446567397e+00 2.8486290342e+00 
2800 5.6633734569e+00 -6.0459367810e-02 1.6464724256e+00 -2.8517738945e+00 1.6464724256e+00 2.8517738945e+00 
2900 5.6629671923e+00 -6.1139808182e-02 1.6483087938e+00 -2.8549545775e+00 1.6483087938e+00 2.8549545775e+00 
3000 5.6625096771e+00 -6.1751831195e-02 1.6501637636e+00 -2.8581674794e+00 1.6501637636e+00 2.8581674794e+00 
3100 5.6620075605e+00 -6.2293576553e-02 1.6520351987e+00 -2.8614089001e+00 1.6520351987e+00 2.8614089001e+00 
3200 5.6614673393e+00 -6.2763436249e-02 1.6539209156e+00 -2.8646750575e+00 1.6539209156e+00 2.8646750575e+00 
3300 5.6608953250e+00 -6.3160047869e-02 1.6558186914e+00 -2.8679621017e+00 1.6558186914e+00 2.8679621017e+00 
3400 5.6602976142e+00 -6.3482288021e-02 1.6577262722e+00 -2.8712661285e+00 1.6577262722e+00 2.8712661285e+00 
3500 5.6596800624e+00 -6.3729265874e-02 1.6596413801e+00 -2.8745831928e+00 1.6596413801e+00 2.8745831928e+00 
3600 5.6590482612e+00 -6.3900316779e-02 1.6615617209e+00 -2.8779093205e+00 1.6615617209e+00 2.8779093205e+00 
3700 5.6584075186e+00 -6.3994995971e-02 1.6634849906e+00 -2.8812405214e+00 1.6634849906e+00 2.8812405214e+00 
3800 5.6577628427e+00 -6.4013072316e-02 1.6654088828e+00 -2.8845728004e+00 1.6654088828e+00 2.8845728004e+00 
3900 5.6571189280e+00 -6.3954522106e-02 1.6673310945e+00 -2.8879021688e+00 1.6673310945e+00 2.8879021688e+00 
4000 5.6564801449e+00 -6.3819522882e-02 1.6692493329e+00 -2.8912246550e+00 1.6692493329e+00 2.8912246550e+00 
4100 5.6558505325e+00 -6.3608447270e-02 1.6711613208e+00 -2.8945363152e+00 1.6711613208e+00 2.8945363152e+00 
4200 5.6552337928e+00 -6.3321856825e-02 1.6730648027e+00 -2.8978332426e+00 1.6730648027e+00 2.8978332426e+00 
4300 5.6546332887e+00 -6.2960495867e-02 1.6749575500e+00 -2.9011115772e+00 1.6749575500e+00 2.9011115772e+00 
4400 5.6540520435e+00 -6.2525285303e-02 1.6768373666e+00 -2.9043675149e+00 1.6768373666e+00 2.9043675149e+00 
4500 5.6534927429e+00 -6.2017316424e-02 1.6787020930e+00 -2.9075973158e+00 1.6787020930e+00 2.9075973158e+00 
4600 5.6529577392e+00 -6.1437844670e-02 1.6805496119e+00 -2.9107973124e+00 1.6805496119e+00 2.9107973124e+00 
4700 5.6524490572e+00 -6.0788283349e-02 1.6823778522e+00 -2.9139639175e+00 1.6823778522e+00 2.9139639175e+00 
4800 5.6519684013e+00 -6.0070197311e-02 1.6841847932e+00 -2.9170936312e+00 1.6841847932e+00 2.9170936312e+00 
4900 5.6515171656e+00 -5.9285296567e-02 1.6859684688e+00 -2.9201830480e+00 1.6859684688e+00 2.9201830480e+00 
5000 5.6510964434e+00 -5.8435429842e-02 1.6877269712e+00 -2.9232288634e+00 1.6877269712e+00 2.9232288634e+00 
5100 5.6507070401e+00 -5.7522578059e-02 1.6894584541e+00 -2.9262278798e+00 1.6894584541e+00 2.9262278798e+00 
5200 5.6503494853e+00 -5.6548847751e-02 1.6911611367e+00 -2.9291770125e+00 1.6911611367e+00 2.9291770125e+00 
5300 5.6500240472e+00 -5.5516464392e-02 1.6928333060e+00 -2.9320732948e+00 1.6928333060e+00 2.9320732948e+00 
5400 5.6497307471e+00 -5.4427765643e-02 1.6944733204e+00 -2.9349138830e+00 1.6944733204e+00 2.9349138830e+00 
5500 5.6494693748e+00 -5.3285194513e-02 1.6960796117e+00 -2.9376960611e+00 1.6960796117e+00 2.9376960611e+00 
5600 5.6492395049e+00 -5.2091292428e-02 1.6976506881e+00 -2.9404172452e+00 1.6976506881e+00 2.9404172452e+00 
5700 5.6490405128e+00 -5.0848692209e-02 1.6991851360e+00 -2.9430749870e+00 1.6991851360e+00 2.9430749870e+00 
5800 5.6488715915e+00 -4.9560110956e-02 1.7006816224e+00 -2.9456669774e+00 1.7006816224e+00 2.9456669774e+00 
5900 5.6487317687e+00 -4.8228342840e-02 1.7021388963e+00 -2.9481910500e+00 1.7021388963e+00 2.9481910500e+00 
6000 5.6486199236e+00 -4.6856251801e-02 1.7035557909e+00 -2.9506451834e+00 1.7035557909e+00 2.9506451834e+00 
6100 5.6485348040e+00 -4.5446764166e-02 1.7049312243e+00 -2.9530275040e+00 1.7049312243e+00 2.9530275040e+00 
6200 5.6484750432e+00 -4.4002861170e-02 1.7062642013e+00 -2.9553362878e+00 1.7062642013e+00 2.9553362878e+00 
6300 5.6484391763e+00 -4.2527571411e-02 1.7075538140e+00 -2.9575699625e+00 1.7075538140e+00 2.9575699625e+00 
6400 5.6484256570e+00 -4.1023963222e-02 1.7087992429e+00 -2.9597271086e+00 1.7087992429e+00 2.9597271086e+00 
6500 5.6484328734e+00 -3.9495136988e-02 1.7099997573e+00 -2.9618064605e+00 1.7099997573e+00 2.9618064605e+00 
6600 5.6484591632e+00 -3.7944217410e-02 1.7111547159e+00 -2.9638069076e+00 1.7111547159e+00 2.9638069076e+00 
6700 5.6485028293e+00 -3.6374345726e-02 1.7122635669e+00 -2.9657274938e+00 1.7122635669e+00 2.9657274938e+00 
6800 5.6485621538e+00 -3.4788671904e-02 1.7133258480e+00 -2.9675674187e+00 1.7133258480e+00 2.9675674187e+00 
6900 5.6486354115e+00 -3.3190346833e-02 1.7143411863e+00 -2.9693260361e+00 1.7143411863e+00 2.9693260361e+00 
7000 5.6487208835e+00 -3.1582514511e-02 1.7153092978e+00 -2.9710028544e+00 1.7153092978e+00 2.9710028544e+00 
7100 5.6488168691e+00 -2.9968304264e-02 1.7162299871e+00 -2.9725975350e+00 1.7162299871e+00 2.9725975350e+00 
7200 5.6489216974e+00 -2.8350823009e-02 1.7171031464e+00 -2.9741098913e+00 1.7171031464e+00 2.9741098913e+00 
7300 5.6490337379e+00 -2.6733147583e-02 1.7179287547e+00 -2.9755398869e+00 1.7179287547e+00 2.9755398869e+00 
7400 5.6491514104e+00 -2.5118317167e-02 1.7187068767e+00 -2.9768876338e+00 1.7187068767e+00 2.9768876338e+00 
7500 5.6492731938e+00 -2.3509325818e-02 1.7194376615e+00 -2.9781533902e+00 1.7194376615e+00 2.9781533902e+00 
7600 5.6493976340e+00 -2.1909115147e-02 1.7201213409e+00 -2.9793375577e+00 1.7201213409e+00 2.9793375577e+00 
7700 5.6495233514e+00 -2.0320567158e-02 1.7207582282e+00 -2.9804406788e+00 1.7207582282e+00 2.9804406788e+00 
7800 5.6496490467e+00 -1.8746497278e-02 1.7213487158e+00 -2.9814634333e+00 1.7213487158e+00 2.9814634333e+00 
7900 5.6497735062e+00 -1.7189647609e-02 1.7218932738e+00 -2.9824066355e+00 1.7218932738e+00 2.9824066355e+00 
8000 5.6498956064e+00 -1.5652680424e-02 1.7223924476e+00 -2.9832712298e+00 1.7223924476e+00 2.9832712298e+00 
8100 5.6500143172e+00 -1.4138171924e-02 1.7228468553e+00 -2.9840582870e+00 1.7228468553e+00 2.9840582870e+00 
8200 5.6501287047e+00 -1.2648606305e-02 1.7232571858e+00 -2.9847690003e+00 1.7232571858e+00 2.9847690003e+00 
8300 5.6502379327e+00 -1.1186370140e-02 1.7236241959e+00 -2.9854046805e+00 1.7236241959e+00 2.9854046805e+00 
8400 5.6503412638e+00 -9.7537470973e-03 1.7239487075e+00 -2.9859667510e+00 1.7239487075e+00 2.9859667510e+00 
8500 5.6504380591e+00 -8.3529130437e-03 1.7242316050e+00 -2.9864567438e+00 1.7242316050e+00 2.9864567438e+00 
8600 5.6505277782e+00 -6.9859315188e-03 1.7244738319e+00 -2.9868762932e+00 1.7244738319e+00 2.9868762932e+00 
8700 5.6506099769e+00 -5.6547496263e-03 1.7246763885e+00 -2.9872271314e+00 1.7246763885e+00 2.9872271314e+00 
8800 5.6506843062e+00 -4.3611943457e-03 1.7248403276e+00 -2.9875110823e+00 1.7248403276e+00 2.9875110823e+00 
8900 5.6507505086e+00 -3.1069692835e-03 1.7249667523e+00 -2.9877300563e+00 1.7249667523e+00 2.9877300563e+00 
9000 5.6508084153e+00 -1.8936518765e-03 1.7250568119e+00 -2.9878860441e+00 1.7250568119e+00 2.9878860441e+00 
9100 5.6508579425e+00 -7.2269105570e-04 1.7251116988e+00 -2.9879811111e+00 1.7251116988e+00 2.9879811111e+00 
9200 5.6508990868e+00 4.0459462101e-04 1.7251326451e+00 -2.9880173911e+00 1.7251326451e+00 2.9880173911e+00 
9300 5.6509319208e+00 1.4870183622e-03 1.7251209186e+00 -2.9879970802e+00 1.7251209186e+00 2.9879970802e+00 
9400 5.6509565876e+00 2.5235260619e-03 1.7250778198e+00 -2.9879224309e+00 1.7250778198e+00 2.9879224309e+00 
9500 5.6509732961e+00 3.5131967434e-03 1.7250046780e+00 -2.9877957455e+00 1.7250046780e+00 2.9877957455e+00 
9600 5.6509823147e+00 4.4552425333e-03 1.7249028474e+00 -2.9876193699e+00 1.7249028474e+00 2.9876193699e+00 
9700 5.6509839661e+00 5.3490081710e-03 1.7247737043e+00 -2.9873956874e+00 1.7247737043e+00 2.9873956874e+00 
9800 5.6509786211e+00 6.1939700628e-03 1.7246186426e+00 -2.9871271126e+00 1.7246186426e+00 2.9871271126e+00 
9900 5.6509666925e+00 6.9897348929e-03 1.7244390706e+00 -2.9868160849e+00 1.7244390706e+00 2.9868160849e+00 
10000 5.6509486292e+00 7.7360378050e-03 1.7242364077e+00 -2.9864650624e+00 1.7242364077e+00 2.9864650624e+00 
10100 5.6509249103e+00 8.4327401711e-03 1.7240120803e+00 -2.9860765159e+00 1.7240120803e+00 2.9860765159e+00 
10200 5.6508960392e+00 9.0798269654e-03 1.7237675187e+00 -2.9856529229e+00 1.7237675187e+00 2.9856529229e+00 
10300 5.6508625377e+00 9.6774037646e-03 1.7235041539e+00 -2.9851967616e+00 1.7235041539e+00 2.9851967616e+00 
10400 5.6508249401e+00 1.0225693397e-02 1.7232234136e+00 -2.9847105051e+00 1.7232234136e+00 2.9847105051e+00 
10500 5.6507837884e+00 1.0725032264e-02 1.7229267196e+00 -2.9841966161e+00 1.7229267196e+00 2.9841966161e+00 
10600 5.6507396267e+00 1.1175866356e-02 1.7226154844e+00 -2.9836575409e+00 1.7226154844e+00 2.9836575409e+00 
10700 5.6506929963e+00 1.1578746998e-02 1.7222911080e+00 -2.9830957045e+00 1.7222911080e+00 2.9830957045e+00 
10800 5.6506444312e+00 1.1934326340e-02 1.7219549752e+00 -2.9825135055e+00 1.7219549752e+00 2.9825135055e+00 
10900 5.6505944538e+00 1.2243352630e-02 1.7216084527e+00 -2.9819133107e+00 1.7216084527e+00 2.9819133107e+00 
11000 5.6505435708e+00 1.2506665290e-02 1.7212528860e+00 -2.9812974512e+00 1.7212528860e+00 2.9812974512e+00 
11100 5.6504922699e+00 1.2725189832e-02 1.7208895976e+00 -2.9806682172e+00 1.7208895976e+00 2.9806682172e+00 
11200 5.6504410164e+00 1.2899932632e-02 1.7205198837e+00 -2.9800278541e+00 1.7205198837e+00 2.9800278541e+00 
11300 5.6503902501e+00 1.3031975602e-02 1.7201450126e+00 -2.9793785582e+00 1.7201450126e+00 2.9793785582e+00 
11400 5.6503403833e+00 1.3122470774e-02 1.7197662220e+00 -2.9787224736e+00 1.7197662220e+00 2.9787224736e+00 
11500 5.6502917987e+00 1.3172634836e-02 1.7193847170e+00 -2.9780616877e+00 1.7193847170e+00 2.9780616877e+00 
11600 5.6502448473e+00 1.3183743634e-02 1.7190016688e+00 -2.9773982287e+00 1.7190016688e+00 2.9773982287e+00 
11700 5.6501998473e+00 1.3157126681e-02 1.7186182121e+00 -2.9767340622e+00 1.7186182121e+00 2.9767340622e+00 
11800 5.6501570833e+00 1.3094161676e-02 1.7182354442e+00 -2.9760710887e+00 1.7182354442e+00 2.9760710887e+00 
11900 5.6501168057e+00 1.2996269076e-02 1.7178544232e+00 -2.9754111409e+00 1.7178544232e+00 2.9754111409e+00 
12000 5.6500792299e+00 1.2864906729e-02 1.7174761667e+00 -2.9747559814e+00 1.7174761667e+00 2.9747559814e+00 
12100 5.6500445372e+00 1.2701564593e-02 1.7171016509e+00 -2.9741073011e+00 1.7171016509e+00 2.9741073011e+00 
12200 5.6500128744e+00 1.2507759565e-02 1.7167318094e+00 -2.9734667168e+00 1.7167318094e+00 2.9734667168e+00 
12300 5.6499843551e+00 1.2285030417e-02 1.7163675324e+00 -2.9728357706e+00 1.7163675324e+00 2.9728357706e+00 
12400 5.6499590600e+00 1.2034932888e-02 1.7160096661e+00 -2.9722159279e+00 1.7160096661e+00 2.9722159279e+00 
12500 5.6499370386e+00 1.1759034905e-02 1.7156590118e+00 -2.9716085769e+00 1.7156590118e+00 2.9716085769e+00 
12600 5.6499183100e+00 1.1458911985e-02 1.7153163259e+00 -2.9710150275e+00 1.7153163259e+00 2.9710150275e+00 
12700 5.6499028649e+00 1.1136142794e-02 1.7149823193e+00 -2.9704365110e+00 1.7149823193e+00 2.9704365110e+00 
12800 5.6498906673e+00 1.0792304900e-02 1.7146576573e+00 -2.9698741800e+00 1.7146576573e+00 2.9698741800e+00 
12900 5.6498816559e+00 1.0428970706e-02 1.7143429596e+00 -2.9693291077e+00 1.7143429596e+00 2.9693291077e+00 
13000 5.6498757464e+00 1.0047703580e-02 1.7140388005e+00 -2.9688022885e+00 1.7140388005e+00 2.9688022885e+00 
13100 5.6498728338e+00 9.6500541867e-03 1.7137457086e+00 -2.9682946385e+00 1.7137457086e+00 2.9682946385e+00 
13200 5.6498727938e+00 9.2375570199e-03 1.7134641677e+00 -2.9678069954e+00 1.7134641677e+00 2.9678069954e+00 
13300 5.6498754856e+00 8.8117271376e-03 1.7131946168e+00 -2.9673401196e+00 1.7131946168e+00 2.9673401196e+00 
13400 5.6498807539e+00 8.3740571038e-03 1.7129374509e+00 -2.9668946951e+00 1.7129374509e+00 2.9668946951e+00 
13500 5.6498884307e+00 7.9260141339e-03 1.7126930211e+00 -2.9664713303e+00 1.7126930211e+00 2.9664713303e+00 
13600 5.6498983382e+00 7.4690374434e-03 1.7124616359e+00 -2.9660705594e+00 1.7124616359e+00 2.9660705594e+00 
13700 5.6499102902e+00 7.0045357964e-03 1.7122435616e+00 -2.9656928436e+00 1.7122435616e+00 2.9656928436e+00 
13800 5.6499240944e+00 6.5338852531e-03 1.7120390230e+00 -2.9653385724e+00 1.7120390230e+00 2.9653385724e+00 
13900 5.6499395545e+00 6.0584271090e-03 1.7118482048e+00 -2.9650080656e+00 1.7118482048e+00 2.9650080656e+00 
14000 5.6499564723e+00 5.5794660249e-03 1.7116712522e+00 -2.9647015746e+00 1.7116712522e+00 2.9647015746e+00 
14100 5.6499746487e+00 5.0982683397e-03 1.7115082718e+00 -2.9644192843e+00 1.7115082718e+00 2.9644192843e+00 
14200 5.6499938864e+00 4.6160605624e-03 1.7113593331e+00 -2.9641613150e+00 1.7113593331e+00 2.9641613150e+00 
14300 5.6500139908e+00 4.1340280364e-03 1.7112244696e+00 -2.9639277244e+00 1.7112244696e+00 2.9639277244e+00 
14400 5.6500347717e+00 3.6533137704e-03 1.7111036795e+00 -2.9637185098e+00 1.7111036795e+00 2.9637185098e+00 
14500 5.6500560447e+00 3.1750174288e-03 1.7109969274e+00 -2.9635336099e+00 1.7109969274e+00 2.9635336099e+00 
14600 5.6500776323e+00 2.7001944759e-03 1.7109041456e+00 -2.9633729071e+00 1.7109041456e+00 2.9633729071e+00 
14700 5.6500993649e+00 2.2298554666e-03 1.7108252349e+00 -2.9632362297e+00 1.7108252349e+00 2.9632362297e+00 
14800 5.6501210819e+00 1.7649654771e-03 1.7107600663e+00 -2.9631233544e+00 1.7107600663e+00 2.9631233544e+00 
14900 5.6501426325e+00 1.3064436684e-03 1.7107084823e+00 -2.9630340083e+00 1.7107084823e+00 2.9630340083e+00 
15000 5.6501638763e+00 8.5516297629e-04 1.7106702982e+00 -2.9629678714e+00 1.7106702982e+00 2.9629678714e+00 
15100 5.6501846836e+00 4.1194992140e-04 1.7106453032e+00 -2.9629245789e+00 1.7106453032e+00 2.9629245789e+00 
15200 5.6502049363e+00 -2.2415467791e-05 1.7106332625e+00 -2.9629037237e+00 1.7106332625e+00 2.9629037237e+00 
15300 5.6502245285e+00 -4.4788174736e-04 1.7106332625e+00 -2.9629037237e+00 1.7106332625e+00 2.9629037237e+00 
15400 5.6502433647e+00 -8.6238001767e-04 1.7106463536e+00 -2.9629263982e+00 1.7106463536e+00 2.9629263982e+00 
15500 5.6502613621e+00 -1.2659695161e-03 1.7106715599e+00 -2.9629700569e+00 1.7106715599e+00 2.9629700569e+00 
15600 5.6502784496e+00 -1.6580548493e-03 1.7107085622e+00 -2.9630341467e+00 1.7107085622e+00 2.9630341467e+00 
15700 5.6502945676e+00 -2.0380860216e-03 1.7107570235e+00 -2.9631180841e+00 1.7107570235e+00 2.9631180841e+00 
15800 5.6503096683e+00 -2.4055579601e-03 1.7108165906e+00 -2.9632212574e+00 1.7108165906e+00 2.9632212574e+00 
15900 5.6503237147e+00 -2.7600099666e-03 1.7108868955e+00 -2.9633430290e+00 1.7108868955e+00 2.9633430290e+00 
16000 5.6503366807e+00 -3.1010251019e-03 1.7109675563e+00 -2.9634827376e+00 1.7109675563e+00 2.9634827376e+00 
16100 5.6503485503e+00 -3.4282295071e-03 1.7110581791e+00 -2.9636397009e+00 1.7110581791e+00 2.9636397009e+00 
16200 5.6503593175e+00 -3.7412916669e-03 1.7111583587e+00 -2.9638132171e+00 1.7111583587e+00 2.9638132171e+00 
16300 5.6503689852e+00 -4.0399216175e-03 1.7112676803e+00 -2.9640025676e+00 1.7112676803e+00 2.9640025676e+00 
16400 5.6503775652e+00 -4.3238701052e-03 1.7113857205e+00 -2.9642070193e+00 1.7113857205e+00 2.9642070193e+00 
16500 5.6503850769e+00 -4.5929276984e-03 1.7115120486e+00 -2.9644258260e+00 1.7115120486e+00 2.9644258260e+00 
16600 5.6503915471e+00 -4.8469238566e-03 1.7116462279e+00 -2.9646582313e+00 1.7116462279e+00 2.9646582313e+00 
16700 5.6503970094e+00 -5.0857259607e-03 1.7117878165e+00 -2.9649034699e+00 1.7117878165e+00 2.9649034699e+00 
16800 5.6504015030e+00 -5.3092383071e-03 1.7119363687e+00 -2.9651607700e+00 1.7119363687e+00 2.9651607700e+00 
16900 5.6504050724e+00 -5.5174010689e-03 1.7120914364e+00 -2.9654293550e+00 1.7120914364e+00 2.9654293550e+00 
17000 5.6504077666e+00 -5.7101892274e-03 1.7122525693e+00 -2.9657084455e+00 1.7122525693e+00 2.9657084455e+00 
17100 5.6504096385e+00 -5.8876114769e-03 1.7124193170e+00 -2.9659972609e+00 1.7124193170e+00 2.9659972609e+00 
17200 5.6504107439e+00 -6.0497091050e-03 1.7125912290e+00 -2.9662950213e+00 1.7125912290e+00 2.9662950213e+00 
17300 5.6504111412e+00 -6.1965548511e-03 1.7127678565e+00 -2.9666009490e+00 1.7127678565e+00 2.9666009490e+00 
17400 5.6504108906e+00 -6.3282517463e-03 1.7129487527e+00 -2.9669142704e+00 1.7129487527e+00 2.9669142704e+00 
17500 5.6504100535e+00 -6.4449319359e-03 1.7131334741e+00 -2.9672342173e+00 1.7131334741e+00 2.9672342173e+00 
17600 5.6504086919e+00 -6.5467554879e-03 1.7133215811e+00 -2.9675600282e+00 1.7133215811e+00 2.9675600282e+00 
17700 5.6504068678e+00 -6.6339091887e-03 1.7135126392e+00 -2.9678909505e+00 1.7135126392e+00 2.9678909505e+00 
17800 5.6504046430e+00 -6.7066053289e-03 1.7137062191e+00 -2.9682262408e+00 1.7137062191e+00 2.9682262408e+00 
17900 5.6504020780e+00 -6.7650804811e-03 1.7139018983e+00 -2.9685651671e+00 1.7139018983e+00 2.9685651671e+00 
18000 5.6503992323e+00 -6.8095942716e-03 1.7140992611e+00 -2.9689070095e+00 1.7140992611e+00 2.9689070095e+00 
18100 5.6503961632e+00 -6.8404281470e-03 1.7142978998e+00 -2.9692510617e+00 1.7142978998e+00 2.9692510617e+00 
18200 5.6503929262e+00 -6.8578841401e-03 1.7144974147e+00 -2.9695966317e+00 1.7144974147e+00 2.9695966317e+00 
18300 5.6503895743e+00 -6.8622836339e-03 1.7146974155e+00 -2.9699430433e+00 1.7146974155e+00 2.9699430433e+00 
18400 5.6503861576e+00 -6.8539661273e-03 1.7148975213e+00 -2.9702896366e+00 1.7148975213e+00 2.9702896366e+00 
18500 5.6503827233e+00 -6.8332880047e-03 1.7150973612e+00 -2.9706357695e+00 1.7150973612e+00 2.9706357695e+00 
18600 5.6503793154e+00 -6.8006213089e-03 1.7152965750e+00 -2.9709808179e+00 1.7152965750e+00 2.9709808179e+00 
18700 5.6503759747e+00 -6.7563525220e-03 1.7154948133e+00 -2.9713241768e+00 1.7154948133e+00 2.9713241768e+00 
18800 5.6503727383e+00 -6.7008813534e-03 1.7156917385e+00 -2.9716652612e+00 1.7156917385e+00 2.9716652612e+00 
18900 5.6503696399e+00 -6.6346195379e-03 1.7158870244e+00 -2.9720035063e+00 1.7158870244e+00 2.9720035063e+00 
19000 5.6503667096e+00 -6.5579896454e-03 1.7160803572e+00 -2.9723383685e+00 1.7160803572e+00 2.9723383685e+00 
19100 5.6503639740e+00 -6.4714239033e-03 1.7162714354e+00 -2.9726693257e+00 1.7162714354e+00 2.9726693257e+00 
19200 5.6503614558e+00 -6.3753630331e-03 1.7164599703e+00 -2.9729958778e+00 1.7164599703e+00 2.9729958778e+00 
19300 5.6503591743e+00 -6.2702551033e-03 1.7166456862e+00 -2.9733175471e+00 1.7166456862e+00 2.9733175471e+00 
19400 5.6503571455e+00 -6.1565544003e-03 1.7168283205e+00 -2.9736338789e+00 1.7168283205e+00 2.9736338789e+00 
19500 5.6503553816e+00 -6.0347203164e-03 1.7170076238e+00 -2.9739444415e+00 1.7170076238e+00 2.9739444415e+00 
19600 5.6503538920e+00 -5.9052162605e-03 1.7171833605e+00 -2.9742488263e+00 1.7171833605e+00 2.9742488263e+00 
19700 5.6503526826e+00 -5.7685085881e-03 1.7173553082e+00 -2.9745466484e+00 1.7173553082e+00 2.9745466484e+00 
19800 5.6503517563e+00 -5.6250655562e-03 1.7175232584e+00 -2.9748375467e+00 1.7175232584e+00 2.9748375467e+00 
19900 5.6503511135e+00 -5.4753563010e-03 1.7176870161e+00 -2.9751211834e+00 1.7176870161e+00 2.9751211834e+00 
20000 5.6503507517e+00 -5.3198498421e-03 1.7178464002e+00 -2.9753972448e+00 1.7178464002e+00 2.9753972448e+00 
20100 5.6503506660e+00 -5.1590141130e-03 1.7180012432e+00 -2.9756654408e+00 1.7180012432e+00 2.9756654408e+00 
20200 5.6503508493e+00 -4.9933150193e-03 1.7181513913e+00 -2.9759255047e+00 1.7181513913e+00 2.9759255047e+00 
20300 5.6503512924e+00 -4.8232155262e-03 1.7182967040e+00 -2.9761771938e+00 1.7182967040e+00 2.9761771938e+00 
20400 5.6503519843e+00 -4.6491747758e-03 1.7184370546e+00 -2.9764202882e+00 1.7184370546e+00 2.9764202882e+00 
20500 5.6503529125e+00 -4.4716472355e-03 1.7185723298e+00 -2.9766545916e+00 1.7185723298e+00 2.9766545916e+00 
20600 5.6503540629e+00 -4.2910818781e-03 1.7187024291e+00 -2.9768799303e+00 1.7187024291e+00 2.9768799303e+00 
20700 5.6503554202e+00 -4.1079213946e-03 1.7188272656e+00 -2.9770961534e+00 1.7188272656e+00 2.9770961534e+00 
20800 5.6503569683e+00 -3.9226014414e-03 1.7189467648e+00 -2.9773031321e+00 1.7189467648e+00 2.9773031321e+00 
20900 5.6503586901e+00 -3.7355499205e-03 1.7190608650e+00 -2.9775007595e+00 1.7190608650e+00 2.9775007595e+00 
21000 5.6503605682e+00 -3.5471862954e-03 1.7191695170e+00 -2.9776889503e+00 1.7191695170e+00 2.9776889503e+00 
21100 5.6503625844e+00 -3.3579209428e-03 1.7192726838e+00 -2.9778676403e+00 1.7192726838e+00 2.9778676403e+00 
21200 5.6503647206e+00 -3.1681545399e-03 1.7193703400e+00 -2.9780367858e+00 1.7193703400e+00 2.9780367858e+00 
21300 5.6503669585e+00 -2.9782774881e-03 1.7194624720e+00 -2.9781963632e+00 1.7194624720e+00 2.9781963632e+00 
21400 5.6503692800e+00 -2.7886693738e-03 1.7195490776e+00 -2.9783463686e+00 1.7195490776e+00 2.9783463686e+00 
21500 5.6503716671e+00 -2.5996984666e-03 1.7196301655e+00 -2.9784868169e+00 1.7196301655e+00 2.9784868169e+00 
21600 5.6503741023e+00 -2.4117212544e-03 1.7197057549e+00 -2.9786177416e+00 1.7197057549e+00 2.9786177416e+00 
21700 5.6503765687e+00 -2.2250820161e-03 1.7197758756e+00 -2.9787391942e+00 1.7197758756e+00 2.9787391942e+00 
21800 5.6503790500e+00 -2.0401124320e-03 1.7198405670e+00 -2.9788512430e+00 1.7198405670e+00 2.9788512430e+00 
21900 5.6503815304e+00 -1.8571312313e-03 1.7198998785e+00 -2.9789539735e+00 1.7198998785e+00 2.9789539735e+00 
22000 5.6503839952e+00 -1.6764438775e-03 1.7199538683e+00 -2.9790474865e+00 1.7199538683e+00 2.9790474865e+00 
22100 5.6503864306e+00 -1.4983422905e-03 1.7200026037e+00 -2.9791318987e+00 1.7200026037e+00 2.9791318987e+00 
22200 5.6503888236e+00 -1.3231046056e-03 1.7200461602e+00 -2.9792073409e+00 1.7200461602e+00 2.9792073409e+00 
22300 5.6503911623e+00 -1.1509949696e-03 1.7200846217e+00 -2.9792739581e+00 1.7200846217e+00 2.9792739581e+00 
22400 5.6503934359e+00 -9.8226337191e-04 1.7201180793e+00 -2.9793319084e+00 1.7201180793e+00 2.9793319084e+00 
22500 5.6503956346e+00 -8.1714551268e-04 1.7201466316e+00 -2.9793813624e+00 1.7201466316e+00 2.9793813624e+00 
22600 5.6503977498e+00 -6.5586270449e-04 1.7201703838e+00 -2.9794225025e+00 1.7201703838e+00 2.9794225025e+00 
22700 5.6503997739e+00 -4.9862180939e-04 1.7201894478e+00 -2.9794555222e+00 1.7201894478e+00 2.9794555222e+00 
22800 5.6504017005e+00 -3.4561520913e-04 1.7202039410e+00 -2.9794806252e+00 1.7202039410e+00 2.9794806252e+00 
22900 5.6504035243e+00 -1.9702080830e-04 1.7202139868e+00 -2.9794980250e+00 1.7202139868e+00 2.9794980250e+00 
23000 5.6504052411e+00 -5.3002069549e-05 1.7202197134e+00 -2.9795079438e+00 1.7202197134e+00 2.9795079438e+00 
23100 5.6504068472e+00 8.4722526898e-05 1.7202197134e+00 -2.9795079438e+00 1.7202197134e+00 2.9795079438e+00 
23200 5.6504083408e+00 2.1919410378e-04 1.7202172509e+00 -2.9795036786e+00 1.7202172509e+00 2.9795036786e+00 
23300 5.6504097207e+00 3.4868369929e-04 1.7202108798e+00 -2.9794926435e+00 1.7202108798e+00 2.9794926435e+00 
23400 5.6504109868e+00 4.7308479546e-04 1.7202007449e+00 -2.9794750893e+00 1.7202007449e+00 2.9794750893e+00 
23500 5.6504121395e+00 5.9230468759e-04 1.7201869940e+00 -2.9794512722e+00 1.7201869940e+00 2.9794512722e+00 
23600 5.6504131803e+00 7.0626427835e-04 1.7201697778e+00 -2.9794214527e+00 1.7201697778e+00 2.9794214527e+00 
23700 5.6504141113e+00 8.1489784735e-04 1.7201492489e+00 -2.9793858957e+00 1.7201492489e+00 2.9793858957e+00 
23800 5.6504149355e+00 9.1815279736e-04 1.7201255621e+00 -2.9793448690e+00 1.7201255621e+00 2.9793448690e+00 
23900 5.6504156563e+00 1.0159893784e-03 1.7200988736e+00 -2.9792986432e+00 1.7200988736e+00 2.9792986432e+00 
24000 5.6504162776e+00 1.1083803912e-03 1.7200693408e+00 -2.9792474909e+00 1.7200693408e+00 2.9792474909e+00 
24100 5.6504168042e+00 1.1953108709e-03 1.7200371219e+00 -2.9791916860e+00 1.7200371219e+00 2.9791916860e+00 
24200 5.6504172410e+00 1.2767777528e-03 1.7200023753e+00 -2.9791315032e+00 1.7200023753e+00 2.9791315032e+00 
24300 5.6504175932e+00 1.3527895210e-03 1.7199652599e+00 -2.9790672174e+00 1.7199652599e+00 2.9790672174e+00 
24400 5.6504178666e+00 1.4233658421e-03 1.7199259340e+00 -2.9789991029e+00 1.7199259340e+00 2.9789991029e+00 
24500 5.6504180671e+00 1.4885371834e-03 1.7198845554e+00 -2.9789274332e+00 1.7198845554e+00 2.9789274332e+00 
24600 5.6504182006e+00 1.5483444201e-03 1.7198412813e+00 -2.9788524802e+00 1.7198412813e+00 2.9788524802e+00 
24700 5.6504182734e+00 1.6028384290e-03 1.7197962673e+00 -2.9787745137e+00 1.7197962673e+00 2.9787745137e+00 
24800 5.6504182916e+00 1.6520796738e-03 1.7197496679e+00 -2.9786938011e+00 1.7197496679e+00 2.9786938011e+00 
24900 5.6504182615e+00 1.6961377798e-03 1.7197016355e+00 -2.9786106066e+00 1.7197016355e+00 2.9786106066e+00 
25000 5.6504181892e+00 1.7350911022e-03 1.7196523209e+00 -2.9785251911e+00 1.7196523209e+00 2.9785251911e+00 
25100 5.6504180808e+00 1.7690262878e-03 1.7196018722e+00 -2.9784378115e+00 1.7196018722e+00 2.9784378115e+00 
25200 5.6504179423e+00 1.7980378307e-03 1.7195504354e+00 -2.9783487203e+00 1.7195504354e+00 2.9783487203e+00 
25300 5.6504177794e+00 1.8222276256e-03 1.7194981535e+00 -2.9782581653e+00 1.7194981535e+00 2.9782581653e+00 
25400 5.6504175976e+00 1.8417045170e-03 1.7194451665e+00 -2.9781663893e+00 1.7194451665e+00 2.9781663893e+00 
25500 5.6504174022e+00 1.8565838478e-03 1.7193916116e+00 -2.9780736294e+00 1.7193916116e+00 2.9780736294e+00 
25600 5.6504171982e+00 1.8669870069e-03 1.7193376223e+00 -2.9779801173e+00 1.7193376223e+00 2.9779801173e+00 
25700 5.6504169904e+00 1.8730409778e-03 1.7192833288e+00 -2.9778860782e+00 1.7192833288e+00 2.9778860782e+00 
25800 5.6504167831e+00 1.8748778889e-03 1.7192288576e+00 -2.9777917312e+00 1.7192288576e+00 2.9777917312e+00 
25900 5.6504165804e+00 1.8726345660e-03 1.7191743312e+00 -2.9776972886e+00 1.7191743312e+00 2.9776972886e+00 
26000 5.6504163859e+00 1.8664520896e-03 1.7191198682e+00 -2.9776029561e+00 1.7191198682e+00 2.9776029561e+00 
26100 5.6504162031e+00 1.8564753554e-03 1.7190655834e+00 -2.9775089320e+00 1.7190655834e+00 2.9775089320e+00 
26200 5.6504160349e+00 1.8428526418e-03 1.7190115871e+00 -2.9774154076e+00 1.7190115871e+00 2.9774154076e+00 
26300 5.6504158840e+00 1.8257351823e-03 1.7189579852e+00 -2.9773225665e+00 1.7189579852e+00 2.9773225665e+00 
26400 5.6504157526e+00 1.8052767462e-03 1.7189048796e+00 -2.9772305849e+00 1.7189048796e+00 2.9772305849e+00 
26500 5.6504156426e+00 1.7816332264e-03 1.7188523675e+00 -2.9771396312e+00 1.7188523675e+00 2.9771396312e+00 
26600 5.6504155556e+00 1.7549622364e-03 1.7188005415e+00 -2.9770498660e+00 1.7188005415e+00 2.9770498660e+00 
26700 5.6504154928e+00 1.7254227157e-03 1.7187494898e+00 -2.9769614419e+00 1.7187494898e+00 2.9769614419e+00 
26800 5.6504154551e+00 1.6931745461e-03 1.7186992959e+00 -2.9768745035e+00 1.7186992959e+00 2.9768745035e+00 
26900 5.6504154431e+00 1.6583781773e-03 1.7186500387e+00 -2.9767891875e+00 1.7186500387e+00 2.9767891875e+00 
27000 5.6504154570e+00 1.6211942642e-03 1.7186017924e+00 -2.9767056225e+00 1.7186017924e+00 2.9767056225e+00 
27100 5.6504154968e+00 1.5817833152e-03 1.7185546266e+00 -2.9766239288e+00 1.7185546266e+00 2.9766239288e+00 
27200 5.6504155623e+00 1.5403053524e-03 1.7185086060e+00 -2.9765442189e+00 1.7185086060e+00 2.9765442189e+00 
27300 5.6504156529e+00 1.4969195838e-03 1.7184637910e+00 -2.9764665970e+00 1.7184637910e+00 2.9764665970e+00 
27400 5.6504157680e+00 1.4517840883e-03 1.7184202372e+00 -2.9763911596e+00 1.7184202372e+00 2.9763911596e+00 
27500 5.6504159066e+00 1.4050555132e-03 1.7183779956e+00 -2.9763179949e+00 1.7183779956e+00 2.9763179949e+00 
27600 5.6504160675e+00 1.3568887848e-03 1.7183371125e+00 -2.9762471834e+00 1.7183371125e+00 2.9762471834e+00 
27700 5.6504162495e+00 1.3074368322e-03 1.7182976301e+00 -2.9761787978e+00 1.7182976301e+00 2.9761787978e+00 
27800 5.6504164512e+00 1.2568503249e-03 1.7182595857e+00 -2.9761129030e+00 1.7182595857e+00 2.9761129030e+00 
27900 5.6504166710e+00 1.2052774233e-03 1.7182230125e+00 -2.9760495563e+00 1.7182230125e+00 2.9760495563e+00 
28000 5.6504169073e+00 1.1528635431e-03 1.7181879392e+00 -2.9759888077e+00 1.7181879392e+00 2.9759888077e+00 
28100 5.6504171585e+00 1.0997511338e-03 1.7181543905e+00 -2.9759306996e+00 1.7181543905e+00 2.9759306996e+00 
28200 5.6504174227e+00 1.0460794702e-03 1.7181223867e+00 -2.9758752675e+00 1.7181223867e+00 2.9758752675e+00 
28300 5.6504176982e+00 9.9198445785e-04 1.7180919443e+00 -2.9758225396e+00 1.7180919443e+00 2.9758225396e+00 
28400 5.6504179831e+00 9.3759845270e-04 1.7180630756e+00 -2.9757725376e+00 1.7180630756e+00 2.9757725376e+00 
28500 5.6504182758e+00 8.8305009343e-04 1.7180357892e+00 -2.9757252761e+00 1.7180357892e+00 2.9757252761e+00 
28600 5.6504185743e+00 8.2846414789e-04 1.7180100898e+00 -2.9756807635e+00 1.7180100898e+00 2.9756807635e+00 
28700 5.6504188769e+00 7.7396137273e-04 1.7179859787e+00 -2.9756390019e+00 1.7179859787e+00 2.9756390019e+00 
28800 5.6504191819e+00 7.1965838619e-04 1.7179634535e+00 -2.9755999871e+00 1.7179634535e+00 2.9755999871e+00 
28900 5.6504194876e+00 6.6566755401e-04 1.7179425085e+00 -2.9755637092e+00 1.7179425085e+00 2.9755637092e+00 
29000 5.6504197925e+00 6.1209688809e-04 1.7179231345e+00 -2.9755301525e+00 1.7179231345e+00 2.9755301525e+00 
29100 5.6504200951e+00 5.5904995786e-04 1.7179053195e+00 -2.9754992960e+00 1.7179053195e+00 2.9754992960e+00 
29200 5.6504203939e+00 5.0662581393e-04 1.7178890483e+00 -2.9754711134e+00 1.7178890483e+00 2.9754711134e+00 
29300 5.6504206875e+00 4.5491892396e-04 1.7178743027e+00 -2.9754455733e+00 1.7178743027e+00 2.9754455733e+00 
29400 5.6504209748e+00 4.0401912033e-04 1.7178610620e+00 -2.9754226397e+00 1.7178610620e+00 2.9754226397e+00 
29500 5.6504212547e+00 3.5401155933e-04 1.7178493026e+00 -2.9754022719e+00 1.7178493026e+00 2.9754022719e+00 
29600 5.6504215261e+00 3.0497669168e-04 1.7178389987e+00 -2.9753844250e+00 1.7178389987e+00 2.9753844250e+00 
29700 5.6504217881e+00 2.5699024397e-04 1.7178301220e+00 -2.9753690501e+00 1.7178301220e+00 2.9753690501e+00 
29800 5.6504220399e+00 2.1012321068e-04 1.7178226419e+00 -2.9753560942e+00 1.7178226419e+00 2.9753560942e+00 
29900 5.6504222809e+00 1.6444185647e-04 1.7178165259e+00 -2.9753455010e+00 1.7178165259e+00 2.9753455010e+00 
30000 5.6504225104e+00 1.2000772847e-04 1.7178117396e+00 -2.9753372108e+00 1.7178117396e+00 2.9753372108e+00 
30100 5.6504227281e+00 7.6877678039e-05 1.7178082465e+00 -2.9753311607e+00 1.7178082465e+00 2.9753311607e+00 
30200 5.6504229336e+00 3.5103891769e-05 1.7178060089e+00 -2.9753272849e+00 1.7178060089e+00 2.9753272849e+00 
30300 5.6504231266e+00 -4.2196376077e-06 1.7178060089e+00 -2.9753272849e+00 1.7178060089e+00 2.9753272849e+00 
30400 5.6504233070e+00 -4.3293798412e-05 1.7178060089e+00 -2.9753272849e+00 1.7178060089e+00 2.9753272849e+00 
30500 5.6504234749e+00 -8.2043082788e-05 1.7178060089e+00 -2.9753272849e+00 1.7178060089e+00 2.9753272849e+00 
30600 5.6504236302e+00 -1.1795059980e-04 1.7178083969e+00 -2.9753314211e+00 1.7178083969e+00 2.9753314211e+00 
30700 5.6504237730e+00 -1.5230979394e-04 1.7178118301e+00 -2.9753373675e+00 1.7178118301e+00 2.9753373675e+00 
30800 5.6504239035e+00 -1.8509530816e-04 1.7178162633e+00 -2.9753450461e+00 1.7178162633e+00 2.9753450461e+00 
30900 5.6504240221e+00 -2.1628600897e-04 1.7178216508e+00 -2.9753543776e+00 1.7178216508e+00 2.9753543776e+00 
31000 5.6504241291e+00 -2.4586489540e-04 1.7178279462e+00 -2.9753652815e+00 1.7178279462e+00 2.9753652815e+00 
31100 5.6504242250e+00 -2.7381900225e-04 1.7178351025e+00 -2.9753776765e+00 1.7178351025e+00 2.9753776765e+00 
31200 5.6504243101e+00 -3.0013929791e-04 1.7178430724e+00 -2.9753914808e+00 1.7178430724e+00 2.9753914808e+00 
31300 5.6504243850e+00 -3.2482057725e-04 1.7178518083e+00 -2.9754066119e+00 1.7178518083e+00 2.9754066119e+00 
31400 5.6504244502e+00 -3.4786134992e-04 1.7178612626e+00 -2.9754229872e+00 1.7178612626e+00 2.9754229872e+00 
31500 5.6504245064e+00 -3.6926372432e-04 1.7178713874e+00 -2.9754405239e+00 1.7178713874e+00 2.9754405239e+00 
31600 5.6504245542e+00 -3.8903328784e-04 1.7178821352e+00 -2.9754591395e+00 1.7178821352e+00 2.9754591395e+00 
31700 5.6504245941e+00 -4.0717898356e-04 1.7178934582e+00 -2.9754787516e+00 1.7178934582e+00 2.9754787516e+00 
31800 5.6504246269e+00 -4.2371298382e-04 1.7179053093e+00 -2.9754992784e+00 1.7179053093e+00 2.9754992784e+00 
31900 5.6504246531e+00 -4.3865056104e-04 1.7179176416e+00 -2.9755206385e+00 1.7179176416e+00 2.9755206385e+00 
32000 5.6504246735e+00 -4.5200995618e-04 1.7179304086e+00 -2.9755427515e+00 1.7179304086e+00 2.9755427515e+00 
32100 5.6504246888e+00 -4.6381224510e-04 1.7179435642e+00 -2.9755655378e+00 1.7179435642e+00 2.9755655378e+00 
32200 5.6504246994e+00 -4.7408120315e-04 1.7179570633e+00 -2.9755889189e+00 1.7179570633e+00 2.9755889189e+00 
32300 5.6504247062e+00 -4.8284316850e-04 1.7179708611e+00 -2.9756128174e+00 1.7179708611e+00 2.9756128174e+00 
32400 5.6504247097e+00 -4.9012690429e-04 1.7179849139e+00 -2.9756371575e+00 1.7179849139e+00 2.9756371575e+00 
32500 5.6504247105e+00 -4.9596346009e-04 1.7179991785e+00 -2.9756618645e+00 1.7179991785e+00 2.9756618645e+00 
32600 5.6504247091e+00 -5.0038603295e-04 1.7180136128e+00 -2.9756868655e+00 1.7180136128e+00 2.9756868655e+00 
32700 5.6504247062e+00 -5.0342982822e-04 1.7180281758e+00 -2.9757120893e+00 1.7180281758e+00 2.9757120893e+00 
32800 5.6504247022e+00 -5.0513192063e-04 1.7180428272e+00 -2.9757374663e+00 1.7180428272e+00 2.9757374663e+00 
32900 5.6504246976e+00 -5.0553111574e-04 1.7180575280e+00 -2.9757629288e+00 1.7180575280e+00 2.9757629288e+00 
33000 5.6504246929e+00 -5.0466781214e-04 1.7180722403e+00 -2.9757884113e+00 1.7180722403e+00 2.9757884113e+00 
33100 5.6504246885e+00 -5.0258386457e-04 1.7180869274e+00 -2.9758138500e+00 1.7180869274e+00 2.9758138500e+00 
33200 5.6504246847e+00 -4.9932244832e-04 1.7181015537e+00 -2.9758391835e+00 1.7181015537e+00 2.9758391835e+00 
33300 5.6504246819e+00 -4.9492792507e-04 1.7181160849e+00 -2.9758643523e+00 1.7181160849e+00 2.9758643523e+00 
33400 5.6504246804e+00 -4.8944571042e-04 1.7181304881e+00 -2.9758892995e+00 1.7181304881e+00 2.9758892995e+00 
33500 5.6504246805e+00 -4.8292214338e-04 1.7181447317e+00 -2.9759139701e+00 1.7181447317e+00 2.9759139701e+00 
33600 5.6504246823e+00 -4.7540435791e-04 1.7181587853e+00 -2.9759383117e+00 1.7181587853e+00 2.9759383117e+00 
33700 5.6504246862e+00 -4.6694015694e-04 1.7181726200e+00 -2.9759622741e+00 1.7181726200e+00 2.9759622741e+00 
33800 5.6504246921e+00 -4.5757788876e-04 1.7181862083e+00 -2.9759858097e+00 1.7181862083e+00 2.9759858097e+00 
33900 5.6504247004e+00 -4.4736632619e-04 1.7181995241e+00 -2.9760088733e+00 1.7181995241e+00 2.9760088733e+00 
34000 5.6504247109e+00 -4.3635454867e-04 1.7182125426e+00 -2.9760314219e+00 1.7182125426e+00 2.9760314219e+00 
34100 5.6504247239e+00 -4.2459182724e-04 1.7182252405e+00 -2.9760534154e+00 1.7182252405e+00 2.9760534154e+00 
34200 5.6504247393e+00 -4.1212751286e-04 1.7182375960e+00 -2.9760748158e+00 1.7182375960e+00 2.9760748158e+00 
34300 5.6504247571e+00 -3.9901092796e-04 1.7182495888e+00 -2.9760955879e+00 1.7182495888e+00 2.9760955879e+00 
34400 5.6504247772e+00 -3.8529126140e-04 1.7182611998e+00 -2.9761156987e+00 1.7182611998e+00 2.9761156987e+00 
34500 5.6504247998e+00 -3.7101746709e-04 1.7182724115e+00 -2.9761351179e+00 1.7182724115e+00 2.9761351179e+00 
34600 5.6504248245e+00 -3.5623816615e-04 1.7182832077e+00 -2.9761538175e+00 1.7182832077e+00 2.9761538175e+00 
34700 5.6504248515e+00 -3.4100155294e-04 1.7182935738e+00 -2.9761717722e+00 1.7182935738e+00 2.9761717722e+00 
34800 5.6504248805e+00 -3.2535530483e-04 1.7183034965e+00 -2.9761889588e+00 1.7183034965e+00 2.9761889588e+00 
34900 5.6504249114e+00 -3.0934649592e-04 1.7183129639e+00 -2.9762053567e+00 1.7183129639e+00 2.9762053567e+00 
35000 5.6504249441e+00 -2.9302151477e-04 1.7183219653e+00 -2.9762209477e+00 1.7183219653e+00 2.9762209477e+00 
35100 5.6504249784e+00 -2.7642598609e-04 1.7183304917e+00 -2.9762357159e+00 1.7183304917e+00 2.9762357159e+00 
35200 5.6504250141e+00 -2.5960469650e-04 1.7183385352e+00 -2.9762496475e+00 1.7183385352e+00 2.9762496475e+00 
35300 5.6504250512e+00 -2.4260152449e-04 1.7183460891e+00 -2.9762627314e+00 1.7183460891e+00 2.9762627314e+00 
35400 5.6504250894e+00 -2.2545937433e-04 1.7183531483e+00 -2.9762749582e+00 1.7183531483e+00 2.9762749582e+00 
35500 5.6504251285e+00 -2.0822011431e-04 1.7183597086e+00 -2.9762863210e+00 1.7183597086e+00 2.9762863210e+00 
35600 5.6504251683e+00 -1.9092451896e-04 1.7183657673e+00 -2.9762968150e+00 1.7183657673e+00 2.9762968150e+00 
35700 5.6504252088e+00 -1.7361221551e-04 1.7183713227e+00 -2.9763064372e+00 1.7183713227e+00 2.9763064372e+00 
35800 5.6504252496e+00 -1.5632163444e-04 1.7183763744e+00 -2.9763151870e+00 1.7183763744e+00 2.9763151870e+00 
35900 5.6504252907e+00 -1.3908996414e-04 1.7183809229e+00 -2.9763230652e+00 1.7183809229e+00 2.9763230652e+00 
36000 5.6504253318e+00 -1.2195310961e-04 1.7183849700e+00 -2.9763300751e+00 1.7183849700e+00 2.9763300751e+00 
36100 5.6504253728e+00 -1.0494565529e-04 1.7183885185e+00 -2.9763362212e+00 1.7183885185e+00 2.9763362212e+00 
36200 5.6504254136e+00 -8.8100831785e-05 1.7183915721e+00 -2.9763415102e+00 1.7183915721e+00 2.9763415102e+00 
36300 5.6504254539e+00 -7.1450486586e-05 1.7183941356e+00 -2.9763459503e+00 1.7183941356e+00 2.9763459503e+00 
36400 5.6504254937e+00 -5.5025058671e-05 1.7183962146e+00 -2.9763495512e+00 1.7183962146e+00 2.9763495512e+00 
36500 5.6504255329e+00 -4.0489802862e-05 1.7183962146e+00 -2.9763495512e+00 1.7183962146e+00 2.9763495512e+00 
36600 5.6504255712e+00 -2.5764668404e-05 1.7183962146e+00 -2.9763495512e+00 1.7183962146e+00 2.9763495512e+00 
36700 5.6504256085e+00 -1.0882294210e-05 1.7183962146e+00 -2.9763495512e+00 1.7183962146e+00 2.9763495512e+00 
36800 5.6504256448e+00 4.1256774584e-06 1.7183962146e+00 -2.9763495512e+00 1.7183962146e+00 2.9763495512e+00 
36900 5.6504256800e+00 1.9228623277e-05 1.7183962146e+00 -2.9763495512e+00 1.7183962146e+00 2.9763495512e+00 
37000 5.6504257140e+00 3.4396958183e-05 1.7183962146e+00 -2.9763495512e+00 1.7183962146e+00 2.9763495512e+00 
37100 5.6504257470e+00 4.9602151853e-05 1.7183962146e+00 -2.9763495512e+00 1.7183962146e+00 2.9763495512e+00 
37200 5.6504257787e+00 6.4816742393e-05 1.7183962146e+00 -2.9763495512e+00 1.7183962146e+00 2.9763495512e+00 
37300 5.6504258092e+00 8.0014347332e-05 1.7183962146e+00 -2.9763495512e+00 1.7183962146e+00 2.9763495512e+00 
37400 5.6504258383e+00 9.2790029690e-05 1.7183938864e+00 -2.9763455187e+00 1.7183938864e+00 2.9763455187e+00 
37500 5.6504258659e+00 1.0510539915e-04 1.7183911865e+00 -2.9763408423e+00 1.7183911865e+00 2.9763408423e+00 
37600 5.6504258922e+00 1.1694740613e-04 1.7183881283e+00 -2.9763355453e+00 1.7183881283e+00 2.9763355453e+00 
37700 5.6504259171e+00 1.2830443119e-04 1.7183847254e+00 -2.9763296514e+00 1.7183847254e+00 2.9763296514e+00 
37800 5.6504259406e+00 1.3916626492e-04 1.7183809922e+00 -2.9763231852e+00 1.7183809922e+00 2.9763231852e+00 
37900 5.6504259627e+00 1.4952408573e-04 1.7183769428e+00 -2.9763161715e+00 1.7183769428e+00 2.9763161715e+00 
38000 5.6504259835e+00 1.5937043508e-04 1.7183725921e+00 -2.9763086358e+00 1.7183725921e+00 2.9763086358e+00 
38100 5.6504260030e+00 1.6869919075e-04 1.7183679548e+00 -2.9763006039e+00 1.7183679548e+00 2.9763006039e+00 
38200 5.6504260213e+00 1.7750553795e-04 1.7183630461e+00 -2.9762921018e+00 1.7183630461e+00 2.9762921018e+00 
38300 5.6504260383e+00 1.8578593859e-04 1.7183578812e+00 -2.9762831558e+00 1.7183578812e+00 2.9762831558e+00 
38400 5.6504260542e+00 1.9353809876e-04 1.7183524753e+00 -2.9762737925e+00 1.7183524753e+00 2.9762737925e+00 
38500 5.6504260689e+00 2.0076093450e-04 1.7183468438e+00 -2.9762640384e+00 1.7183468438e+00 2.9762640384e+00 
38600 5.6504260826e+00 2.0745453611e-04 1.7183410021e+00 -2.9762539203e+00 1.7183410021e+00 2.9762539203e+00 
38700 5.6504260953e+00 2.1362013103e-04 1.7183349656e+00 -2.9762434649e+00 1.7183349656e+00 2.9762434649e+00 
38800 5.6504261070e+00 2.1926004542e-04 1.7183287497e+00 -2.9762326986e+00 1.7183287497e+00 2.9762326986e+00 
38900 5.6504261179e+00 2.2437766457e-04 1.7183223697e+00 -2.9762216481e+00 1.7183223697e+00 2.9762216481e+00 
39000 5.6504261280e+00 2.2897739234e-04 1.7183158407e+00 -2.9762103395e+00 1.7183158407e+00 2.9762103395e+00 
39100 5.6504261373e+00 2.3306460964e-04 1.7183091779e+00 -2.9761987992e+00 1.7183091779e+00 2.9761987992e+00 
39200 5.6504261460e+00 2.3664563208e-04 1.7183023961e+00 -2.9761870528e+00 1.7183023961e+00 2.9761870528e+00 
39300 5.6504261541e+00 2.3972766699e-04 1.7182955100e+00 -2.9761751258e+00 1.7182955100e+00 2.9761751258e+00 
39400 5.6504261616e+00 2.4231876988e-04 1.7182885343e+00 -2.9761630435e+00 1.7182885343e+00 2.9761630435e+00 
39500 5.6504261687e+00 2.4442780039e-04 1.7182814831e+00 -2.9761508305e+00 1.7182814831e+00 2.9761508305e+00 
39600 5.6504261754e+00 2.4606437797e-04 1.7182743706e+00 -2.9761385112e+00 1.7182743706e+00 2.9761385112e+00 
39700 5.6504261817e+00 2.4723883724e-04 1.7182672104e+00 -2.9761261093e+00 1.7182672104e+00 2.9761261093e+00 
39800 5.6504261877e+00 2.4796218329e-04 1.7182600160e+00 -2.9761136482e+00 1.7182600160e+00 2.9761136482e+00 
39900 5.6504261935e+00 2.4824604691e-04 1.7182528005e+00 -2.9761011506e+00 1.7182528005e+00 2.9761011506e+00 
40000 5.6504261992e+00 2.4810263990e-04 1.7182455767e+00 -2.9760886387e+00 1.7182455767e+00 2.9760886387e+00 
40100 5.6504262047e+00 2.4754471052e-04 1.7182383570e+00 -2.9760761339e+00 1.7182383570e+00 2.9760761339e+00 
40200 5.6504262101e+00 2.4658549920e-04 1.7182311536e+00 -2.9760636571e+00 1.7182311536e+00 2.9760636571e+00 
40300 5.6504262155e+00 2.4523869466e-04 1.7182239780e+00 -2.9760512287e+00 1.7182239780e+00 2.9760512287e+00 
40400 5.6504262208e+00 2.4351839026e-04 1.7182168416e+00 -2.9760388681e+00 1.7182168416e+00 2.9760388681e+00 
40500 5.6504262262e+00 2.4143904114e-04 1.7182097553e+00 -2.9760265942e+00 1.7182097553e+00 2.9760265942e+00 
40600 5.6504262317e+00 2.3901542166e-04 1.7182027294e+00 -2.9760144250e+00 1.7182027294e+00 2.9760144250e+00 
40700 5.6504262372e+00 2.3626258368e-04 1.7181957740e+00 -2.9760023779e+00 1.7181957740e+00 2.9760023779e+00 
40800 5.6504262429e+00 2.3319581551e-04 1.7181888987e+00 -2.9759904695e+00 1.7181888987e+00 2.9759904695e+00 
40900 5.6504262486e+00 2.2983060162e-04 1.7181821126e+00 -2.9759787157e+00 1.7181821126e+00 2.9759787157e+00 
41000 5.6504262546e+00 2.2618258324e-04 1.7181754244e+00 -2.9759671314e+00 1.7181754244e+00 2.9759671314e+00 
41100 5.6504262606e+00 2.2226751987e-04 1.7181688424e+00 -2.9759557309e+00 1.7181688424e+00 2.9759557309e+00 
41200 5.6504262669e+00 2.1810125172e-04 1.7181623742e+00 -2.9759445278e+00 1.7181623742e+00 2.9759445278e+00 
41300 5.6504262733e+00 2.1369966318e-04 1.7181560273e+00 -2.9759335346e+00 1.7181560273e+00 2.9759335346e+00 
41400 5.6504262799e+00 2.0907864742e-04 1.7181498084e+00 -2.9759227632e+00 1.7181498084e+00 2.9759227632e+00 
41500 5.6504262866e+00 2.0425407196e-04 1.7181437240e+00 -2.9759122247e+00 1.7181437240e+00 2.9759122247e+00 
41600 5.6504262936e+00 1.9924174549e-04 1.7181377800e+00 -2.9759019293e+00 1.7181377800e+00 2.9759019293e+00 
41700 5.6504263007e+00 1.9405738583e-04 1.7181319818e+00 -2.9758918866e+00 1.7181319818e+00 2.9758918866e+00 
41800 5.6504263079e+00 1.8871658911e-04 1.7181263345e+00 -2.9758821051e+00 1.7181263345e+00 2.9758821051e+00 
41900 5.6504263153e+00 1.8323480017e-04 1.7181208425e+00 -2.9758725928e+00 1.7181208425e+00 2.9758725928e+00 
42000 5.6504263229e+00 1.7762728423e-04 1.7181155101e+00 -2.9758633568e+00 1.7181155101e+00 2.9758633568e+00 
42100 5.6504263305e+00 1.7190909988e-04 1.7181103409e+00 -2.9758544034e+00 1.7181103409e+00 2.9758544034e+00 
42200 5.6504263383e+00 1.6609507328e-04 1.7181053380e+00 -2.9758457382e+00 1.7181053380e+00 2.9758457382e+00 
42300 5.6504263462e+00 1.6019977379e-04 1.7181005044e+00 -2.9758373660e+00 1.7181005044e+00 2.9758373660e+00 
42400 5.6504263541e+00 1.5423749083e-04 1.7180958422e+00 -2.9758292910e+00 1.7180958422e+00 2.9758292910e+00 
42500 5.6504263622e+00 1.4822221209e-04 1.7180913536e+00 -2.9758215165e+00 1.7180913536e+00 2.9758215165e+00 
42600 5.6504263702e+00 1.4216760316e-04 1.7180870401e+00 -2.9758140452e+00 1.7180870401e+00 2.9758140452e+00 
42700 5.6504263783e+00 1.3608698835e-04 1.7180829027e+00 -2.9758068790e+00 1.7180829027e+00 2.9758068790e+00 
42800 5.6504263864e+00 1.2999333302e-04 1.7180789422e+00 -2.9758000194e+00 1.7180789422e+00 2.9758000194e+00 
42900 5.6504263945e+00 1.2389922705e-04 1.7180751591e+00 -2.9757934669e+00 1.7180751591e+00 2.9757934669e+00 
43000 5.6504264026e+00 1.1781686982e-04 1.7180715534e+00 -2.9757872215e+00 1.7180715534e+00 2.9757872215e+00 
43100 5.6504264106e+00 1.1175805638e-04 1.7180681246e+00 -2.9757812827e+00 1.7180681246e+00 2.9757812827e+00 
43200 5.6504264186e+00 1.0573416495e-04 1.7180648722e+00 -2.9757756494e+00 1.7180648722e+00 2.9757756494e+00 
43300 5.6504264265e+00 9.9756145769e-05 1.7180617951e+00 -2.9757703196e+00 1.7180617951e+00 2.9757703196e+00 
43400 5.6504264343e+00 9.3834511134e-05 1.7180588919e+00 -2.9757652912e+00 1.7180588919e+00 2.9757652912e+00 
43500 5.6504264421e+00 8.7979326721e-05 1.7180561611e+00 -2.9757605613e+00 1.7180561611e+00 2.9757605613e+00 
43600 5.6504264497e+00 8.2200204160e-05 1.7180536007e+00 -2.9757561265e+00 1.7180536007e+00 2.9757561265e+00 
43700 5.6504264572e+00 7.6506294786e-05 1.7180512084e+00 -2.9757519830e+00 1.7180512084e+00 2.9757519830e+00 
43800 5.6504264645e+00 7.0906284583e-05 1.7180489819e+00 -2.9757481265e+00 1.7180489819e+00 2.9757481265e+00 
43900 5.6504264718e+00 6.5408390297e-05 1.7180469183e+00 -2.9757445523e+00 1.7180469183e+00 2.9757445523e+00 
44000 5.6504264789e+00 6.1967251046e-05 1.7180469183e+00 -2.9757445523e+00 1.7180469183e+00 2.9757445523e+00 
44100 5.6504264859e+00 5.8494130126e-05 1.7180469183e+00 -2.9757445523e+00 1.7180469183e+00 2.9757445523e+00 
44200 5.6504264927e+00 5.4999534585e-05 1.7180469183e+00 -2.9757445523e+00 1.7180469183e+00 2.9757445523e+00 
44300 5.6504264993e+00 5.1493552766e-05 1.7180469183e+00 -2.9757445523e+00 1.7180469183e+00 2.9757445523e+00 
44400 5.6504265057e+00 4.7985851719e-05 1.7180469183e+00 -2.9757445523e+00 1.7180469183e+00 2.9757445523e+00 
44500 5.6504265119e+00 4.4485675575e-05 1.7180469183e+00 -2.9757445523e+00 1.7180469183e+00 2.9757445523e+00 
44600 5.6504265178e+00 4.1001844805e-05 1.7180469183e+00 -2.9757445523e+00 1.7180469183e+00 2.9757445523e+00 
44700 5.6504265236e+00 3.7542756364e-05 1.7180469183e+00 -2.9757445523e+00 1.7180469183e+00 2.9757445523e+00 
44800 5.6504265292e+00 3.4116384649e-05 1.7180469183e+00 -2.9757445523e+00 1.7180469183e+00 2.9757445523e+00 
44900 5.6504265346e+00 3.0730283281e-05 1.7180469183e+00 -2.9757445523e+00 1.7180469183e+00 2.9757445523e+00 
45000 5.6504265398e+00 2.7391587634e-05 1.7180469183e+00 -2.9757445523e+00 1.7180469183e+00 2.9757445523e+00 
45100 5.6504265448e+00 2.4107018093e-05 1.7180469183e+00 -2.9757445523e+00 1.7180469183e+00 2.9757445523e+00 
45200 5.6504265497e+00 2.0882884010e-05 1.7180469183e+00 -2.9757445523e+00 1.7180469183e+00 2.9757445523e+00 
45300 5.6504265544e+00 1.7725088309e-05 1.7180469183e+00 -2.9757445523e+00 1.7180469183e+00 2.9757445523e+00 
45400 5.6504265589e+00 1.4639132706e-05 1.7180469183e+00 -2.9757445523e+00 1.7180469183e+00 2.9757445523e+00 
45500 5.6504265632e+00 1.1630123535e-05 1.7180469183e+00 -2.9757445523e+00 1.7180469183e+00 2.9757445523e+00 
45600 5.6504265675e+00 8.7027780982e-06 1.7180469183e+00 -2.9757445523e+00 1.7180469183e+00 2.9757445523e+00 
45700 5.6504265715e+00 5.8614315394e-06 1.7180469183e+00 -2.9757445523e+00 1.7180469183e+00 2.9757445523e+00 
45800 5.6504265755e+00 3.1100441967e-06 1.7180469183e+00 -2.9757445523e+00 1.7180469183e+00 2.9757445523e+00 
45900 5.6504265793e+00 4.5220940693e-07 1.7180469183e+00 -2.9757445523e+00 1.7180469183e+00 2.9757445523e+00 
46000 5.6504265830e+00 -2.1088382881e-06 1.7180469183e+00 -2.9757445523e+00 1.7180469183e+00 2.9757445523e+00 
46100 5.6504265866e+00 -4.5702145558e-06 1.7180469183e+00 -2.9757445523e+00 1.7180469183e+00 2.9757445523e+00 
46200 5.6504265901e+00 -6.9293763340e-06 1.7180469183e+00 -2.9757445523e+00 1.7180469183e+00 2.9757445523e+00 
46300 5.6504265935e+00 -9.1841125868e-06 1.7180469183e+00 -2.9757445523e+00 1.7180469183e+00 2.9757445523e+00 
46400 5.6504265968e+00 -1.1332534775e-05 1.7180469183e+00 -2.9757445523e+00 1.7180469183e+00 2.9757445523e+00 
46500 5.6504266000e+00 -1.3373067069e-05 1.7180469183e+00 -2.9757445523e+00 1.7180469183e+00 2.9757445523e+00 
46600 5.6504266032e+00 -1.5304436350e-05 1.7180469183e+00 -2.9757445523e+00 1.7180469183e+00 2.9757445523e+00 
46700 5.6504266063e+00 -1.7125662013e-05 1.7180469183e+00 -2.9757445523e+00 1.7180469183e+00 2.9757445523e+00 
46800 5.6504266093e+00 -1.8836045601e-05 1.7180469183e+00 -2.9757445523e+00 1.7180469183e+00 2.9757445523e+00 
46900 5.6504266122e+00 -2.0435160309e-05 1.7180469183e+00 -2.9757445523e+00 1.7180469183e+00 2.9757445523e+00 
47000 5.6504266151e+00 -2.1922840375e-05 1.7180469183e+00 -2.9757445523e+00 1.7180469183e+00 2.9757445523e+00 
47100 5.6504266180e+00 -2.3299170383e-05 1.7180469183e+00 -2.9757445523e+00 1.7180469183e+00 2.9757445523e+00 
47200 5.6504266208e+00 -2.4564474517e-05 1.7180469183e+00 -2.9757445523e+00 1.7180469183e+00 2.9757445523e+00 
47300 5.6504266236e+00 -2.5719305758e-05 1.7180469183e+00 -2.9757445523e+00 1.7180469183e+00 2.9757445523e+00 
47400 5.6504266263e+00 -2.6764435097e-05 1.7180469183e+00 -2.9757445523e+00 1.7180469183e+00 2.9757445523e+00 
47500 5.6504266290e+00 -2.7700840732e-05 1.7180469183e+00 -2.9757445523e+00 1.7180469183e+00 2.9757445523e+00 
47600 5.6504266317e+00 -2.8529697308e-05 1.7180469183e+00 -2.9757445523e+00 1.7180469183e+00 2.9757445523e+00 
47700 5.6504266343e+00 -2.9252365208e-05 1.7180469183e+00 -2.9757445523e+00 1.7180469183e+00 2.9757445523e+00 
47800 5.6504266369e+00 -2.9870379916e-05 1.7180469183e+00 -2.9757445523e+00 1.7180469183e+00 2.9757445523e+00 
47900 5.6504266395e+00 -3.0385441457e-05 1.7180469183e+00 -2.9757445523e+00 1.7180469183e+00 2.9757445523e+00 
48000 5.6504266421e+00 -3.0799403964e-05 1.7180469183e+00 -2.9757445523e+00 1.7180469183e+00 2.9757445523e+00 
48100 5.6504266446e+00 -3.1114265347e-05 1.7180469183e+00 -2.9757445523e+00 1.7180469183e+00 2.9757445523e+00 
48200 5.6504266471e+00 -3.1332157113e-05 1.7180469183e+00 -2.9757445523e+00 1.7180469183e+00 2.9757445523e+00 
48300 5.6504266496e+00 -3.1455334341e-05 1.7180469183e+00 -2.9757445523e+00 1.7180469183e+00 2.9757445523e+00 
48400 5.6504266521e+00 -3.1486165818e-05 1.7180469183e+00 -2.9757445523e+00 1.7180469183e+00 2.9757445523e+00 
48500 5.6504266546e+00 -3.1427124356e-05 1.7180469183e+00 -2.9757445523e+00 1.7180469183e+00 2.9757445523e+00 
48600 5.6504266570e+00 -3.1280777309e-05 1.7180469183e+00 -2.9757445523e+00 1.7180469183e+00 2.9757445523e+00 
48700 5.6504266595e+00 -3.1049777285e-05 1.7180469183e+00 -2.9757445523e+00 1.7180469183e+00 2.9757445523e+00 
48800 5.6504266619e+00 -3.0736853075e-05 1.7180469183e+00 -2.9757445523e+00 1.7180469183e+00 2.9757445523e+00 
48900 5.6504266643e+00 -3.0344800807e-05 1.7180469183e+00 -2.9757445523e+00 1.7180469183e+00 2.9757445523e+00 
49000 5.6504266667e+00 -2.9876475332e-05 1.7180469183e+00 -2.9757445523e+00 1.7180469183e+00 2.9757445523e+00 
49100 5.6504266691e+00 -2.9334781847e-05 1.7180469183e+00 -2.9757445523e+00 1.7180469183e+00 2.9757445523e+00 
49200 5.6504266714e+00 -2.8722667764e-05 1.7180469183e+00 -2.9757445523e+00 1.7180469183e+00 2.9757445523e+00 
49300 5.6504266738e+00 -2.8043114842e-05 1.7180469183e+00 -2.9757445523e+00 1.7180469183e+00 2.9757445523e+00 
49400 5.6504266761e+00 -2.7299131563e-05 1.7180469183e+00 -2.9757445523e+00 1.7180469183e+00 2.9757445523e+00 
49500 5.6504266784e+00 -2.6493745783e-05 1.7180469183e+00 -2.9757445523e+00 1.7180469183e+00 2.9757445523e+00 
49600 5.6504266807e+00 -2.5629997640e-05 1.7180469183e+00 -2.9757445523e+00 1.7180469183e+00 2.9757445523e+00 
49700 5.6504266829e+00 -2.4710932745e-05 1.7180469183e+00 -2.9757445523e+00 1.7180469183e+00 2.9757445523e+00 
49800 5.6504266851e+00 -2.3739595631e-05 1.7180469183e+00 -2.9757445523e+00 1.7180469183e+00 2.9757445523e+00 
49900 5.6504266874e+00 -2.2719023491e-05 1.7180469183e+00 -2.9757445523e+00 1.7180469183e+00 2.9757445523e+00 
50000 5.6504266896e+00 -2.1652240183e-05 1.7180469183e+00 -2.9757445523e+00 1.7180469183e+00 2.9757445523e+00 
50100 5.6504266917e+00 -2.0542250514e-05 1.7180469183e+00 -2.9757445523e+00 1.7180469183e+00 2.9757445523e+00 
50200 5.6504266939e+00 -1.9392034804e-05 1.7180469183e+00 -2.9757445523e+00 1.7180469183e+00 2.9757445523e+00 
50300 5.6504266960e+00 -1.8204543726e-05 1.7180469183e+00 -2.9757445523e+00 1.7180469183e+00 2.9757445523e+00 
50400 5.6504266981e+00 -1.6982693410e-05 1.7180469183e+00 -2.9757445523e+00 1.7180469183e+00 2.9757445523e+00 
50500 5.6504267001e+00 -1.5729360844e-05 1.7180469183e+00 -2.9757445523e+00 1.7180469183e+00 2.9757445523e+00 
50600 5.6504267022e+00 -1.4447379529e-05 1.7180469183e+00 -2.9757445523e+00 1.7180469183e+00 2.9757445523e+00 
50700 5.6504267042e+00 -1.3139535404e-05 1.7180469183e+00 -2.9757445523e+00 1.7180469183e+00 2.9757445523e+00 
50800 5.6504267062e+00 -1.1808563040e-05 1.7180469183e+00 -2.9757445523e+00 1.7180469183e+00 2.9757445523e+00 
50900 5.6504267082e+00 -1.0457142115e-05 1.7180469183e+00 -2.9757445523e+00 1.7180469183e+00 2.9757445523e+00 
51000 5.6504267101e+00 -9.0878941119e-06 1.7180469183e+00 -2.9757445523e+00 1.7180469183e+00 2.9757445523e+00 
51100 5.6504267120e+00 -7.7033793106e-06 1.7180469183e+00 -2.9757445523e+00 1.7180469183e+00 2.9757445523e+00 
51200 5.6504267139e+00 -6.3060939980e-06 1.7180469183e+00 -2.9757445523e+00 1.7180469183e+00 2.9757445523e+00 
51300 5.6504267157e+00 -4.8984679460e-06 1.7180469183e+00 -2.9757445523e+00 1.7180469183e+00 2.9757445523e+00 
51400 5.6504267175e+00 -3.4828621258e-06 1.7180469183e+00 -2.9757445523e+00 1.7180469183e+00 2.9757445523e+00 
51500 5.6504267193e+00 -2.0615666513e-06 1.7180469183e+00 -2.9757445523e+00 1.7180469183e+00 2.9757445523e+00 
51600 5.6504267211e+00 -6.3679895975e-07 1.7180469183e+00 -2.9757445523e+00 1.7180469183e+00 2.9757445523e+00 
51700 5.6504267228e+00 7.8929778594e-07 1.7180469183e+00 -2.9757445523e+00 1.7180469183e+00 2.9757445523e+00 
51800 5.6504267245e+00 2.2146560828e-06 1.7180469183e+00 -2.9757445523e+00 1.7180469183e+00 2.9757445523e+00 
51900 5.6504267262e+00 3.6372852483e-06 1.7180469183e+00 -2.9757445523e+00 1.7180469183e+00 2.9757445523e+00 
52000 5.6504267278e+00 5.0552723845e-06 1.7180469183e+00 -2.9757445523e+00 1.7180469183e+00 2.9757445523e+00 
52100 5.6504267295e+00 6.4667831443e-06 1.7180469183e+00 -2.9757445523e+00 1.7180469183e+00 2.9757445523e+00 
52200 5.6504267310e+00 7.8700622990e-06 1.7180469183e+00 -2.9757445523e+00 1.7180469183e+00 2.9757445523e+00 
52300 5.6504267326e+00 9.2634341282e-06 1.7180469183e+00 -2.9757445523e+00 1.7180469183e+00 2.9757445523e+00 
52400 5.6504267342e+00 1.0645302622e-05 1.7180469183e+00 -2.9757445523e+00 1.7180469183e+00 2.9757445523e+00 
52500 5.6504267357e+00 1.2014151523e-05 1.7180469183e+00 -2.9757445523e+00 1.7180469183e+00 2.9757445523e+00 
52600 5.6504267371e+00 1.3368544194e-05 1.7180469183e+00 -2.9757445523e+00 1.7180469183e+00 2.9757445523e+00 
52700 5.6504267386e+00 1.4707123326e-05 1.7180469183e+00 -2.9757445523e+00 1.7180469183e+00 2.9757445523e+00 
52800 5.6504267400e+00 1.6028610516e-05 1.7180469183e+00 -2.9757445523e+00 1.7180469183e+00 2.9757445523e+00 
52900 5.6504267415e+00 1.7331805681e-05 1.7180469183e+00 -2.9757445523e+00 1.7180469183e+00 2.9757445523e+00 
53000 5.6504267428e+00 1.8615586337e-05 1.7180469183e+00 -2.9757445523e+00 1.7180469183e+00 2.9757445523e+00 
53100 5.6504267442e+00 1.9878906763e-05 1.7180469183e+00 -2.9757445523e+00 1.7180469183e+00 2.9757445523e+00 
53200 5.6504267455e+00 2.1120797031e-05 1.7180469183e+00 -2.9757445523e+00 1.7180469183e+00 2.9757445523e+00 
53300 5.6504267469e+00 2.2340361926e-05 1.7180469183e+00 -2.9757445523e+00 1.7180469183e+00 2.9757445523e+00 
53400 5.6504267481e+00 2.3536779760e-05 1.7180469183e+00 -2.9757445523e+00 1.7180469183e+00 2.9757445523e+00 
53500 5.6504267494e+00 2.4709301081e-05 1.7180469183e+00 -2.9757445523e+00 1.7180469183e+00 2.9757445523e+00 
53600 5.6504267507e+00 2.5857247289e-05 1.7180469183e+00 -2.9757445523e+00 1.7180469183e+00 2.9757445523e+00 
53700 5.6504267519e+00 2.6980009161e-05 1.7180469183e+00 -2.9757445523e+00 1.7180469183e+00 2.9757445523e+00 
53800 5.6504267531e+00 2.8077045309e-05 1.7180469183e+00 -2.9757445523e+00 1.7180469183e+00 2.9757445523e+00 
53900 5.6504267543e+00 2.9147880548e-05 1.7180469183e+00 -2.9757445523e+00 1.7180469183e+00 2.9757445523e+00 
54000 5.6504267555e+00 3.0192104201e-05 1.7180469183e+00 -2.9757445523e+00 1.7180469183e+00 2.9757445523e+00 
54100 5.6504267566e+00 3.1209368345e-05 1.7180469183e+00 -2.9757445523e+00 1.7180469183e+00 2.9757445523e+00 
54200 5.6504267578e+00 3.2199386005e-05 1.7180469183e+00 -2.9757445523e+00 1.7180469183e+00 2.9757445523e+00 
54300 5.6504267589e+00 3.3161929290e-05 1.7180469183e+00 -2.9757445523e+00 1.7180469183e+00 2.9757445523e+00 
54400 5.6504267600e+00 3.4096827485e-05 1.7180469183e+00 -2.9757445523e+00 1.7180469183e+00 2.9757445523e+00 
54500 5.6504267611e+00 3.5003965118e-05 1.7180469183e+00 -2.9757445523e+00 1.7180469183e+00 2.9757445523e+00 
54600 5.6504267621e+00 3.5883279979e-05 1.7180469183e+00 -2.9757445523e+00 1.7180469183e+00 2.9757445523e+00 
54700 5.6504267632e+00 3.6734761124e-05 1.7180469183e+00 -2.9757445523e+00 1.7180469183e+00 2.9757445523e+00 
54800 5.6504267642e+00 3.7558446848e-05 1.7180469183e+00 -2.9757445523e+00 1.7180469183e+00 2.9757445523e+00 
54900 5.6504267652e+00 3.8354422646e-05 1.7180469183e+00 -2.9757445523e+00 1.7180469183e+00 2.9757445523e+00 
55000 5.6504267662e+00 3.9122819167e-05 1.7180469183e+00 -2.9757445523e+00 1.7180469183e+00 2.9757445523e+00 
55100 5.6504267672e+00 3.9863810144e-05 1.7180469183e+00 -2.9757445523e+00 1.7180469183e+00 2.9757445523e+00 
55200 5.6504267682e+00 4.0577610342e-05 1.7180469183e+00 -2.9757445523e+00 1.7180469183e+00 2.9757445523e+00 
55300 5.6504267692e+00 4.1264473493e-05 1.7180469183e+00 -2.9757445523e+00 1.7180469183e+00 2.9757445523e+00 
55400 5.6504267701e+00 4.1924690249e-05 1.7180469183e+00 -2.9757445523e+00 1.7180469183e+00 2.9757445523e+00 
55500 5.6504267711e+00 4.2558586122e-05 1.7180469183e+00 -2.9757445523e+00 1.7180469183e+00 2.9757445523e+00 
55600 5.6504267720e+00 4.3166519472e-05 1.7180469183e+00 -2.9757445523e+00 1.7180469183e+00 2.9757445523e+00 
55700 5.6504267729e+00 4.3748879476e-05 1.7180469183e+00 -2.9757445523e+00 1.7180469183e+00 2.9757445523e+00 
55800 5.6504267738e+00 4.4306084139e-05 1.7180469183e+00 -2.9757445523e+00 1.7180469183e+00 2.9757445523e+00 
55900 5.6504267747e+00 4.4838578331e-05 1.7180469183e+00 -2.9757445523e+00 1.7180469183e+00 2.9757445523e+00 
56000 5.6504267755e+00 4.5346831835e-05 1.7180469183e+00 -2.9757445523e+00 1.7180469183e+00 2.9757445523e+00 
56100 5.6504267764e+00 4.5831337433e-05 1.7180469183e+00 -2.9757445523e+00 1.7180469183e+00 2.9757445523e+00 
56200 5.6504267772e+00 4.6292609026e-05 1.7180469183e+00 -2.9757445523e+00 1.7180469183e+00 2.9757445523e+00 
56300 5.6504267781e+00 4.6731179788e-05 1.7180469183e+00 -2.9757445523e+00 1.7180469183e+00 2.9757445523e+00 
56400 5.6504267789e+00 4.7147600351e-05 1.7180469183e+00 -2.9757445523e+00 1.7180469183e+00 2.9757445523e+00 
56500 5.6504267797e+00 4.7542437041e-05 1.7180469183e+00 -2.9757445523e+00 1.7180469183e+00 2.9757445523e+00 
56600 5.6504267805e+00 4.7916270137e-05 1.7180469183e+00 -2.9757445523e+00 1.7180469183e+00 2.9757445523e+00 
56700 5.6504267813e+00 4.8269692192e-05 1.7180469183e+00 -2.9757445523e+00 1.7180469183e+00 2.9757445523e+00 
56800 5.6504267821e+00 4.8603306388e-05 1.7180469183e+00 -2.9757445523e+00 1.7180469183e+00 2.9757445523e+00 
56900 5.6504267829e+00 4.8917724941e-05 1.7180469183e+00 -2.9757445523e+00 1.7180469183e+00 2.9757445523e+00 
57000 5.6504267836e+00 4.9213567547e-05 1.7180469183e+00 -2.9757445523e+00 1.7180469183e+00 2.9757445523e+00 
57100 5.6504267844e+00 4.9491459886e-05 1.7180469183e+00 -2.9757445523e+00 1.7180469183e+00 2.9757445523e+00 
57200 5.6504267851e+00 4.9752032169e-05 1.7180469183e+00 -2.9757445523e+00 1.7180469183e+00 2.9757445523e+00 
57300 5.6504267858e+00 4.9995917739e-05 1.7180469183e+00 -2.9757445523e+00 1.7180469183e+00 2.9757445523e+00 
57400 5.6504267866e+00 5.0223751718e-05 1.7180469183e+00 -2.9757445523e+00 1.7180469183e+00 2.9757445523e+00 
57500 5.6504267873e+00 5.0436169713e-05 1.7180469183e+00 -2.9757445523e+00 1.7180469183e+00 2.9757445523e+00 
57600 5.6504267880e+00 5.0633806575e-05 1.7180469183e+00 -2.9757445523e+00 1.7180469183e+00 2.9757445523e+00 
57700 5.6504267887e+00 5.0817295199e-05 1.7180469183e+00 -2.9757445523e+00 1.7180469183e+00 2.9757445523e+00 
57800 5.6504267893e+00 5.0987265391e-05 1.7180469183e+00 -2.9757445523e+00 1.7180469183e+00 2.9757445523e+00 
57900 5.6504267900e+00 5.1144342779e-05 1.7180469183e+00 -2.9757445523e+00 1.7180469183e+00 2.9757445523e+00 
58000 5.6504267907e+00 5.1289147780e-05 1.7180469183e+00 -2.9757445523e+00 1.7180469183e+00 2.9757445523e+00 
58100 5.6504267913e+00 5.1422294622e-05 1.7180469183e+00 -2.9757445523e+00 1.7180469183e+00 2.9757445523e+00 
58200 5.6504267920e+00 5.1544390420e-05 1.7180469183e+00 -2.9757445523e+00 1.7180469183e+00 2.9757445523e+00 
58300 5.6504267926e+00 5.1656034292e-05 1.7180469183e+00 -2.9757445523e+00 1.7180469183e+00 2.9757445523e+00 
58400 5.6504267932e+00 5.1757816548e-05 1.7180469183e+00 -2.9757445523e+00 1.7180469183e+00 2.9757445523e+00 
58500 5.6504267938e+00 5.1850317910e-05 1.7180469183e+00 -2.9757445523e+00 1.7180469183e+00 2.9757445523e+00 
58600 5.6504267944e+00 5.1934108796e-05 1.7180469183e+00 -2.9757445523e+00 1.7180469183e+00 2.9757445523e+00 
58700 5.6504267950e+00 5.2009748657e-05 1.7180469183e+00 -2.9757445523e+00 1.7180469183e+00 2.9757445523e+00 
58800 5.6504267956e+00 5.2077785346e-05 1.7180469183e+00 -2.9757445523e+00 1.7180469183e+00 2.9757445523e+00 
58900 5.6504267962e+00 5.2138754553e-05 1.7180469183e+00 -2.9757445523e+00 1.7180469183e+00 2.9757445523e+00 
59000 5.6504267968e+00 5.2193179284e-05 1.7180469183e+00 -2.9757445523e+00 1.7180469183e+00 2.9757445523e+00 
59100 5.6504267974e+00 5.2241569381e-05 1.7180469183e+00 -2.9757445523e+00 1.7180469183e+00 2.9757445523e+00 
59200 5.6504267979e+00 5.2284421097e-05 1.7180469183e+00 -2.9757445523e+00 1.7180469183e+00 2.9757445523e+00 
59300 5.6504267985e+00 5.2322216706e-05 1.7180469183e+00 -2.9757445523e+00 1.7180469183e+00 2.9757445523e+00 
59400 5.6504267990e+00 5.2355424169e-05 1.7180469183e+00 -2.9757445523e+00 1.7180469183e+00 2.9757445523e+00 
59500 5.6504267995e+00 5.2384496826e-05 1.7180469183e+00 -2.9757445523e+00 1.7180469183e+00 2.9757445523e+00 
59600 5.6504268001e+00 5.2409873153e-05 1.7180469183e+00 -2.9757445523e+00 1.7180469183e+00 2.9757445523e+00 
59700 5.6504268006e+00 5.2431976538e-05 1.7180469183e+00 -2.9757445523e+00 1.7180469183e+00 2.9757445523e+00 
59800 5.6504268011e+00 5.2451215099e-05 1.7180469183e+00 -2.9757445523e+00 1.7180469183e+00 2.9757445523e+00 
59900 5.6504268016e+00 5.2467981564e-05 1.7180469183e+00 -2.9757445523e+00 1.7180469183e+00 2.9757445523e+00 
60000 5.6504268021e+00 5.2482653145e-05 1.7180469183e+00 -2.9757445523e+00 1.7180469183e+00 2.9757445523e+00 
60100 5.6504268026e+00 5.2495591492e-05 1.7180469183e+00 -2.9757445523e+00 1.7180469183e+00 2.9757445523e+00 
60200 5.6504268030e+00 5.2507142647e-05 1.7180469183e+00 -2.9757445523e+00 1.7180469183e+00 2.9757445523e+00 
60300 5.6504268035e+00 5.2517637049e-05 1.7180469183e+00 -2.9757445523e+00 1.7180469183e+00 2.9757445523e+00 
60400 5.6504268040e+00 5.2527389566e-05 1.7180469183e+00 -2.9757445523e+00 1.7180469183e+00 2.9757445523e+00 
60500 5.6504268044e+00 5.2536699554e-05 1.7180469183e+00 -2.9757445523e+00 1.7180469183e+00 2.9757445523e+00 
60600 5.6504268049e+00 5.2545850942e-05 1.7180469183e+00 -2.9757445523e+00 1.7180469183e+00 2.9757445523e+00 
60700 5.6504268053e+00 5.2555112365e-05 1.7180469183e+00 -2.9757445523e+00 1.7180469183e+00 2.9757445523e+00 
60800 5.6504268058e+00 5.2564737285e-05 1.7180469183e+00 -2.9757445523e+00 1.7180469183e+00 2.9757445523e+00 
60900 5.6504268062e+00 5.2574964174e-05 1.7180469183e+00 -2.9757445523e+00 1.7180469183e+00 2.9757445523e+00 
61000 5.6504268066e+00 5.2586016696e-05 1.7180469183e+00 -2.9757445523e+00 1.7180469183e+00 2.9757445523e+00 
61100 5.6504268071e+00 5.2598103920e-05 1.7180469183e+00 -2.9757445523e+00 1.7180469183e+00 2.9757445523e+00 
61200 5.6504268075e+00 5.2611420560e-05 1.7180469183e+00 -2.9757445523e+00 1.7180469183e+00 2.9757445523e+00 
61300 5.6504268079e+00 5.2626147211e-05 1.7180469183e+00 -2.9757445523e+00 1.7180469183e+00 2.9757445523e+00 
61400 5.6504268083e+00 5.2642450632e-05 1.7180469183e+00 -2.9757445523e+00 1.7180469183e+00 2.9757445523e+00 
61500 5.6504268087e+00 5.2660484027e-05 1.7180469183e+00 -2.9757445523e+00 1.7180469183e+00 2.9757445523e+00 
61600 5.6504268091e+00 5.2680387343e-05 1.7180469183e+00 -2.9757445523e+00 1.7180469183e+00 2.9757445523e+00 
61700 5.6504268095e+00 5.2702287585e-05 1.7180469183e+00 -2.9757445523e+00 1.7180469183e+00 2.9757445523e+00 
61800 5.6504268098e+00 5.2726299152e-05 1.7180469183e+00 -2.9757445523e+00 1.7180469183e+00 2.9757445523e+00 
61900 5.6504268102e+00 5.2752524161e-05 1.7180469183e+00 -2.9757445523e+00 1.7180469183e+00 2.9757445523e+00 
62000 5.6504268106e+00 5.2781052815e-05 1.7180469183e+00 -2.9757445523e+00 1.7180469183e+00 2.9757445523e+00 
62100 5.6504268110e+00 5.2811963742e-05 1.7180469183e+00 -2.9757445523e+00 1.7180469183e+00 2.9757445523e+00 
62200 5.6504268113e+00 5.2845324373e-05 1.7180469183e+00 -2.9757445523e+00 1.7180469183e+00 2.9757445523e+00 
62300 5.6504268117e+00 5.2881191321e-05 1.7180469183e+00 -2.9757445523e+00 1.7180469183e+00 2.9757445523e+00 
62400 5.6504268120e+00 5.2919610747e-05 1.7180469183e+00 -2.9757445523e+00 1.7180469183e+00 2.9757445523e+00 
62500 5.6504268124e+00 5.2960618754e-05 1.7180469183e+00 -2.9757445523e+00 1.7180469183e+00 2.9757445523e+00 
62600 5.6504268127e+00 5.3004241771e-05 1.7180469183e+00 -2.9757445523e+00 1.7180469183e+00 2.9757445523e+00 
62700 5.6504268130e+00 5.3050496951e-05 1.7180469183e+00 -2.9757445523e+00 1.7180469183e+00 2.9757445523e+00 
62800 5.6504268134e+00 5.3099392558e-05 1.7180469183e+00 -2.9757445523e+00 1.7180469183e+00 2.9757445523e+00 
62900 5.6504268137e+00 5.3150928367e-05 1.7180469183e+00 -2.9757445523e+00 1.7180469183e+00 2.9757445523e+00 
63000 5.6504268140e+00 5.3205096058e-05 1.7180469183e+00 -2.9757445523e+00 1.7180469183e+00 2.9757445523e+00 
63100 5.6504268143e+00 5.3261879607e-05 1.7180469183e+00 -2.9757445523e+00 1.7180469183e+00 2.9757445523e+00 
63200 5.6504268146e+00 5.3321255687e-05 1.7180469183e+00 -2.9757445523e+00 1.7180469183e+00 2.9757445523e+00 
63300 5.6504268149e+00 5.3383194051e-05 1.7180469183e+00 -2.9757445523e+00 1.7180469183e+00 2.9757445523e+00 
63400 5.6504268152e+00 5.3447657931e-05 1.7180469183e+00 -2.9757445523e+00 1.7180469183e+00 2.9757445523e+00 
63500 5.6504268155e+00 5.3514604414e-05 1.7180469183e+00 -2.9757445523e+00 1.7180469183e+00 2.9757445523e+00 
63600 5.6504268158e+00 5.3583984828e-05 1.7180469183e+00 -2.9757445523e+00 1.7180469183e+00 2.9757445523e+00 
63700 5.6504268161e+00 5.3655745122e-05 1.7180469183e+00 -2.9757445523e+00 1.7180469183e+00 2.9757445523e+00 
63800 5.6504268164e+00 5.3729826230e-05 1.7180469183e+00 -2.9757445523e+00 1.7180469183e+00 2.9757445523e+00 
63900 5.6504268167e+00 5.3806164442e-05 1.7180469183e+00 -2.9757445523e+00 1.7180469183e+00 2.9757445523e+00 
64000 5.6504268170e+00 5.3884691767e-05 1.7180469183e+00 -2.9757445523e+00 1.7180469183e+00 2.9757445523e+00 
64100 5.6504268173e+00 5.3965336275e-05 1.7180469183e+00 -2.9757445523e+00 1.7180469183e+00 2.9757445523e+00 
64200 5.6504268175e+00 5.4048022454e-05 1.7180469183e+00 -2.9757445523e+00 1.7180469183e+00 2.9757445523e+00 
64300 5.6504268178e+00 5.4132671538e-05 1.7180469183e+00 -2.9757445523e+00 1.7180469183e+00 2.9757445523e+00 
64400 5.6504268181e+00 5.4219201853e-05 1.7180469183e+00 -2.9757445523e+00 1.7180469183e+00 2.9757445523e+00 
64500 5.6504268183e+00 5.4307529117e-05 1.7180469183e+00 -2.9757445523e+00 1.7180469183e+00 2.9757445523e+00 
64600 5.6504268186e+00 5.4397566771e-05 1.7180469183e+00 -2.9757445523e+00 1.7180469183e+00 2.9757445523e+00 
64700 5.6504268188e+00 5.4489226277e-05 1.7180469183e+00 -2.9757445523e+00 1.7180469183e+00 2.9757445523e+00 
64800 5.6504268191e+00 5.4582417412e-05 1.7180469183e+00 -2.9757445523e+00 1.7180469183e+00 2.9757445523e+00 
64900 5.6504268193e+00 5.4677048558e-05 1.7180469183e+00 -2.9757445523e+00 1.7180469183e+00 2.9757445523e+00 
65000 5.6504268196e+00 5.4773026974e-05 1.7180469183e+00 -2.9757445523e+00 1.7180469183e+00 2.9757445523e+00 
65100 5.6504268198e+00 5.4870259067e-05 1.7180469183e+00 -2.9757445523e+00 1.7180469183e+00 2.9757445523e+00 
65200 5.6504268200e+00 5.4968650644e-05 1.7180469183e+00 -2.9757445523e+00 1.7180469183e+00 2.9757445523e+00 
65300 5.6504268203e+00 5.5068107166e-05 1.7180469183e+00 -2.9757445523e+00 1.7180469183e+00 2.9757445523e+00 
65400 5.6504268205e+00 5.5168533975e-05 1.7180469183e+00 -2.9757445523e+00 1.7180469183e+00 2.9757445523e+00 
65500 5.6504268207e+00 5.5269836533e-05 1.7180469183e+00 -2.9757445523e+00 1.7180469183e+00 2.9757445523e+00 
65600 5.6504268209e+00 5.5371920628e-05 1.7180469183e+00 -2.9757445523e+00 1.7180469183e+00 2.9757445523e+00 
65700 5.6504268212e+00 5.5474692586e-05 1.7180469183e+00 -2.9757445523e+00 1.7180469183e+00 2.9757445523e+00 
65800 5.6504268214e+00 5.5578059468e-05 1.7180469183e+00 -2.9757445523e+00 1.7180469183e+00 2.9757445523e+00 
65900 5.6504268216e+00 5.5681929254e-05 1.7180469183e+00 -2.9757445523e+00 1.7180469183e+00 2.9757445523e+00 
66000 5.6504268218e+00 5.5786211020e-05 1.7180469183e+00 -2.9757445523e+00 1.7180469183e+00 2.9757445523e+00 
66100 5.6504268220e+00 5.5890815102e-05 1.7180469183e+00 -2.9757445523e+00 1.7180469183e+00 2.9757445523e+00 
66200 5.6504268222e+00 5.5995653259e-05 1.7180469183e+00 -2.9757445523e+00 1.7180469183e+00 2.9757445523e+00 
66300 5.6504268224e+00 5.6100638813e-05 1.7180469183e+00 -2.9757445523e+00 1.7180469183e+00 2.9757445523e+00 
66400 5.6504268226e+00 5.6205686786e-05 1.7180469183e+00 -2.9757445523e+00 1.7180469183e+00 2.9757445523e+00 
66500 5.6504268228e+00 5.6310714034e-05 1.7180469183e+00 -2.9757445523e+00 1.7180469183e+00 2.9757445523e+00 
66600 5.6504268230e+00 5.6415639354e-05 1.7180469183e+00 -2.9757445523e+00 1.7180469183e+00 2.9757445523e+00 
66700 5.6504268232e+00 5.6520383605e-05 1.7180469183e+00 -2.9757445523e+00 1.7180469183e+00 2.9757445523e+00 
66800 5.6504268234e+00 5.6624869796e-05 1.7180469183e+00 -2.9757445523e+00 1.7180469183e+00 2.9757445523e+00 
66900 5.6504268236e+00 5.6729023181e-05 1.7180469183e+00 -2.9757445523e+00 1.7180469183e+00 2.9757445523e+00 
67000 5.6504268237e+00 5.6832771346e-05 1.7180469183e+00 -2.9757445523e+00 1.7180469183e+00 2.9757445523e+00 
67100 5.6504268239e+00 5.6936044269e-05 1.7180469183e+00 -2.9757445523e+00 1.7180469183e+00 2.9757445523e+00 
67200 5.6504268241e+00 5.7038774402e-05 1.7180469183e+00 -2.9757445523e+00 1.7180469183e+00 2.9757445523e+00 
67300 5.6504268243e+00 5.7140896712e-05 1.7180469183e+00 -2.9757445523e+00 1.7180469183e+00 2.9757445523e+00 
67400 5.6504268245e+00 5.7242348739e-05 1.7180469183e+00 -2.9757445523e+00 1.7180469183e+00 2.9757445523e+00 
67500 5.6504268246e+00 5.7343070635e-05 1.7180469183e+00 -2.9757445523e+00 1.7180469183e+00 2.9757445523e+00 
67600 5.6504268248e+00 5.7443005197e-05 1.7180469183e+00 -2.9757445523e+00 1.7180469183e+00 2.9757445523e+00 
67700 5.6504268250e+00 5.7542097894e-05 1.7180469183e+00 -2.9757445523e+00 1.7180469183e+00 2.9757445523e+00 
67800 5.6504268251e+00 5.7640296887e-05 1.7180469183e+00 -2.9757445523e+00 1.7180469183e+00 2.9757445523e+00 
67900 5.6504268253e+00 5.7737553042e-05 1.7180469183e+00 -2.9757445523e+00 1.7180469183e+00 2.9757445523e+00 
68000 5.6504268254e+00 5.7833819938e-05 1.7180469183e+00 -2.9757445523e+00 1.7180469183e+00 2.9757445523e+00 
68100 5.6504268256e+00 5.7929053865e-05 1.7180469183e+00 -2.9757445523e+00 1.7180469183e+00 2.9757445523e+00 
68200 5.6504268258e+00 5.8023213819e-05 1.7180469183e+00 -2.9757445523e+00 1.7180469183e+00 2.9757445523e+00 
68300 5.6504268259e+00 5.8116261491e-05 1.7180469183e+00 -2.9757445523e+00 1.7180469183e+00 2.9757445523e+00 
68400 5.6504268261e+00 5.8208161254e-05 1.7180469183e+00 -2.9757445523e+00 1.7180469183e+00 2.9757445523e+00 
68500 5.6504268262e+00 5.8298880137e-05 1.7180469183e+00 -2.9757445523e+00 1.7180469183e+00 2.9757445523e+00 
68600 5.6504268264e+00 5.8388387804e-05 1.7180469183e+00 -2.9757445523e+00 1.7180469183e+00 2.9757445523e+00 
68700 5.6504268265e+00 5.8476656513e-05 1.7180469183e+00 -2.9757445523e+00 1.7180469183e+00 2.9757445523e+00 
68800 5.6504268266e+00 5.8563661091e-05 1.7180469183e+00 -2.9757445523e+00 1.7180469183e+00 2.9757445523e+00 
68900 5.6504268268e+00 5.8649378893e-05 1.7180469183e+00 -2.9757445523e+00 1.7180469183e+00 2.9757445523e+00 
69000 5.6504268269e+00 5.8733789758e-05 1.7180469183e+00 -2.9757445523e+00 1.7180469183e+00 2.9757445523e+00 
69100 5.6504268271e+00 5.8816875953e-05 1.7180469183e+00 -2.9757445523e+00 1.7180469183e+00 2.9757445523e+00 
69200 5.6504268272e+00 5.8898622139e-05 1.7180469183e+00 -2.9757445523e+00 1.7180469183e+00 2.9757445523e+00 
69300 5.6504268273e+00 5.8979015307e-05 1.7180469183e+00 -2.9757445523e+00 1.7180469183e+00 2.9757445523e+00 
69400 5.6504268275e+00 5.9058044729e-05 1.7180469183e+00 -2.9757445523e+00 1.7180469183e+00 2.9757445523e+00 
69500 5.6504268276e+00 5.9135701891e-05 1.7180469183e+00 -2.9757445523e+00 1.7180469183e+00 2.9757445523e+00 
69600 5.6504268277e+00 5.9211980441e-05 1.7180469183e+00 -2.9757445523e+00 1.7180469183e+00 2.9757445523e+00 
69700 5.6504268278e+00 5.9286876120e-05 1.7180469183e+00 -2.9757445523e+00 1.7180469183e+00 2.9757445523e+00 
69800 5.6504268280e+00 5.9360386703e-05 1.7180469183e+00 -2.9757445523e+00 1.7180469183e+00 2.9757445523e+00 
69900 5.6504268281e+00 5.9432511922e-05 1.7180469183e+00 -2.9757445523e+00 1.7180469183e+00 2.9757445523e+00 
70000 5.6504268282e+00 5.9503253409e-05 1.7180469183e+00 -2.9757445523e+00 1.7180469183e+00 2.9757445523e+00 
70100 5.6504268283e+00 5.9572614622e-05 1.7180469183e+00 -2.9757445523e+00 1.7180469183e+00 2.9757445523e+00 
70200 5.6504268284e+00 5.9640600777e-05 1.7180469183e+00 -2.9757445523e+00 1.7180469183e+00 2.9757445523e+00 
70300 5.6504268286e+00 5.9707218770e-05 1.7180469183e+00 -2.9757445523e+00 1.7180469183e+00 2.9757445523e+00 
70400 5.6504268287e+00 5.9772477116e-05 1.7180469183e+00 -2.9757445523e+00 1.7180469183e+00 2.9757445523e+00 
70500 5.6504268288e+00 5.9836385862e-05 1.7180469183e+00 -2.9757445523e+00 1.7180469183e+00 2.9757445523e+00 
70600 5.6504268289e+00 5.9898956530e-05 1.7180469183e+00 -2.9757445523e+00 1.7180469183e+00 2.9757445523e+00 
70700 5.6504268290e+00 5.9960202033e-05 1.7180469183e+00 -2.9757445523e+00 1.7180469183e+00 2.9757445523e+00 
70800 5.6504268291e+00 6.0020136604e-05 1.7180469183e+00 -2.9757445523e+00 1.7180469183e+00 2.9757445523e+00 
70900 5.6504268292e+00 6.0078775728e-05 1.7180469183e+00 -2.9757445523e+00 1.7180469183e+00 2.9757445523e+00 
71000 5.6504268293e+00 6.0136136064e-05 1.7180469183e+00 -2.9757445523e+00 1.7180469183e+00 2.9757445523e+00 
71100 5.6504268294e+00 6.0192235375e-05 1.7180469183e+00 -2.9757445523e+00 1.7180469183e+00 2.9757445523e+00 
71200 5.6504268295e+00 6.0247092454e-05 1.7180469183e+00 -2.9757445523e+00 1.7180469183e+00 2.9757445523e+00 
71300 5.6504268296e+00 6.0300727060e-05 1.7180469183e+00 -2.9757445523e+00 1.7180469183e+00 2.9757445523e+00 
71400 5.6504268297e+00 6.0353159840e-05 1.7180469183e+00 -2.9757445523e+00 1.7180469183e+00 2.9757445523e+00 
71500 5.6504268298e+00 6.0404412260e-05 1.7180469183e+00 -2.9757445523e+00 1.7180469183e+00 2.9757445523e+00 
71600 5.6504268299e+00 6.0454506545e-05 1.7180469183e+00 -2.9757445523e+00 1.7180469183e+00 2.9757445523e+00 
71700 5.6504268300e+00 6.0503465605e-05 1.7180469183e+00 -2.9757445523e+00 1.7180469183e+00 2.9757445523e+00 
71800 5.6504268301e+00 6.0551312968e-05 1.7180469183e+00 -2.9757445523e+00 1.7180469183e+00 2.9757445523e+00 
71900 5.6504268302e+00 6.0598072722e-05 1.7180469183e+00 -2.9757445523e+00 1.7180469183e+00 2.9757445523e+00 
72000 5.6504268303e+00 6.0643769444e-05 1.7180469183e+00 -2.9757445523e+00 1.7180469183e+00 2.9757445523e+00 
72100 5.6504268304e+00 6.0688428147e-05 1.7180469183e+00 -2.9757445523e+00 1.7180469183e+00 2.9757445523e+00 
72200 5.6504268305e+00 6.0732074211e-05 1.7180469183e+00 -2.9757445523e+00 1.7180469183e+00 2.9757445523e+00 
72300 5.6504268306e+00 6.0774733333e-05 1.7180469183e+00 -2.9757445523e+00 1.7180469183e+00 2.9757445523e+00 
72400 5.6504268307e+00 6.0816431461e-05 1.7180469183e+00 -2.9757445523e+00 1.7180469183e+00 2.9757445523e+00 
72500 5.6504268307e+00 6.0857194748e-05 1.7180469183e+00 -2.9757445523e+00 1.7180469183e+00 2.9757445523e+00 
72600 5.6504268308e+00 6.0897049493e-05 1.7180469183e+00 -2.9757445523e+00 1.7180469183e+00 2.9757445523e+00 
72700 5.6504268309e+00 6.0936022088e-05 1.7180469183e+00 -2.9757445523e+00 1.7180469183e+00 2.9757445523e+00 
72800 5.6504268310e+00 6.0974138973e-05 1.7180469183e+00 -2.9757445523e+00 1.7180469183e+00 2.9757445523e+00 
72900 5.6504268311e+00 6.1011426586e-05 1.7180469183e+00 -2.9757445523e+00 1.7180469183e+00 2.9757445523e+00 
73000 5.6504268312e+00 6.1047911317e-05 1.7180469183e+00 -2.9757445523e+00 1.7180469183e+00 2.9757445523e+00 
73100 5.6504268312e+00 6.1083619461e-05 1.7180469183e+00 -2.9757445523e+00 1.7180469183e+00 2.9757445523e+00 
73200 5.6504268313e+00 6.1118577178e-05 1.7180469183e+00 -2.9757445523e+00 1.7180469183e+00 2.9757445523e+00 
73300 5.6504268314e+00 6.1152810458e-05 1.7180469183e+00 -2.9757445523e+00 1.7180469183e+00 2.9757445523e+00 
73400 5.6504268315e+00 6.1186345068e-05 1.7180469183e+00 -2.9757445523e+00 1.7180469183e+00 2.9757445523e+00 
73500 5.6504268315e+00 6.1219206532e-05 1.7180469183e+00 -2.9757445523e+00 1.7180469183e+00 2.9757445523e+00 
73600 5.6504268316e+00 6.1251420088e-05 1.7180469183e+00 -2.9757445523e+00 1.7180469183e+00 2.9757445523e+00 
73700 5.6504268317e+00 6.1283010651e-05 1.7180469183e+00 -2.9757445523e+00 1.7180469183e+00 2.9757445523e+00 
73800 5.6504268318e+00 6.1314002794e-05 1.7180469183e+00 -2.9757445523e+00 1.7180469183e+00 2.9757445523e+00 
73900 5.6504268318e+00 6.1344420707e-05 1.7180469183e+00 -2.9757445523e+00 1.7180469183e+00 2.9757445523e+00 
74000 5.6504268319e+00 6.1374288179e-05 1.7180469183e+00 -2.9757445523e+00 1.7180469183e+00 2.9757445523e+00 
74100 5.6504268320e+00 6.1403628568e-05 1.7180469183e+00 -2.9757445523e+00 1.7180469183e+00 2.9757445523e+00 
74200 5.6504268320e+00 6.1432464777e-05 1.7180469183e+00 -2.9757445523e+00 1.7180469183e+00 2.9757445523e+00 
74300 5.6504268321e+00 6.1460819236e-05 1.7180469183e+00 -2.9757445523e+00 1.7180469183e+00 2.9757445523e+00 
74400 5.6504268322e+00 6.1488713880e-05 1.7180469183e+00 -2.9757445523e+00 1.7180469183e+00 2.9757445523e+00 
74500 5.6504268322e+00 6.1516170132e-05 1.7180469183e+00 -2.9757445523e+00 1.7180469183e+00 2.9757445523e+00 
74600 5.6504268323e+00 6.1543208883e-05 1.7180469183e+00 -2.9757445523e+00 1.7180469183e+00 2.9757445523e+00 
74700 5.6504268324e+00 6.1569850483e-05 1.7180469183e+00 -2.9757445523e+00 1.7180469183e+00 2.9757445523e+00 
74800 5.6504268324e+00 6.1596114724e-05 1.7180469183e+00 -2.9757445523e+00 1.7180469183e+00 2.9757445523e+00 
74900 5.6504268325e+00 6.1622020829e-05 1.7180469183e+00 -2.9757445523e+00 1.7180469183e+00 2.9757445523e+00 
75000 5.6504268325e+00 6.1647587446e-05 1.7180469183e+00 -2.9757445523e+00 1.7180469183e+00 2.9757445523e+00 
75100 5.6504268326e+00 6.1672832631e-05 1.7180469183e+00 -2.9757445523e+00 1.7180469183e+00 2.9757445523e+00 
75200 5.6504268327e+00 6.1697773851e-05 1.7180469183e+00 -2.9757445523e+00 1.7180469183e+00 2.9757445523e+00 
75300 5.6504268327e+00 6.1722427971e-05 1.7180469183e+00 -2.9757445523e+00 1.7180469183e+00 2.9757445523e+00 
75400 5.6504268328e+00 6.1746811253e-05 1.7180469183e+00 -2.9757445523e+00 1.7180469183e+00 2.9757445523e+00 
75500 5.6504268328e+00 6.1770939355e-05 1.7180469183e+00 -2.9757445523e+00 1.7180469183e+00 2.9757445523e+00 
75600 5.6504268329e+00 6.1794827328e-05 1.7180469183e+00 -2.9757445523e+00 1.7180469183e+00 2.9757445523e+00 
75700 5.6504268330e+00 6.1818489609e-05 1.7180469183e+00 -2.9757445523e+00 1.7180469183e+00 2.9757445523e+00 
75800 5.6504268330e+00 6.1841940033e-05 1.7180469183e+00 -2.9757445523e+00 1.7180469183e+00 2.9757445523e+00 
75900 5.6504268331e+00 6.1865191829e-05 1.7180469183e+00 -2.9757445523e+00 1.7180469183e+00 2.9757445523e+00 
76000 5.6504268331e+00 6.1888257625e-05 1.7180469183e+00 -2.9757445523e+00 1.7180469183e+00 2.9757445523e+00 
76100 5.6504268332e+00 6.1911149451e-05 1.7180469183e+00 -2.9757445523e+00 1.7180469183e+00 2.9757445523e+00 
76200 5.6504268332e+00 6.1933878742e-05 1.7180469183e+00 -2.9757445523e+00 1.7180469183e+00 2.9757445523e+00 
76300 5.6504268333e+00 6.1956456350e-05 1.7180469183e+00 -2.9757445523e+00 1.7180469183e+00 2.9757445523e+00 
76400 5.6504268333e+00 6.1978892543e-05 1.7180469183e+00 -2.9757445523e+00 1.7180469183e+00 2.9757445523e+00 
76500 5.6504268334e+00 6.2001197021e-05 1.7180469183e+00 -2.9757445523e+00 1.7180469183e+00 2.9757445523e+00 
76600 5.6504268334e+00 6.2023378918e-05 1.7180469183e+00 -2.9757445523e+00 1.7180469183e+00 2.9757445523e+00 
76700 5.6504268334e+00 6.2023988560e-05 1.7180469183e+00 -2.9757445523e+00 1.7180469183e+00 2.9757445523e+00 
76700 5.6504268334e+00 6.2023988560e-05 1.7180469183e+00 -2.9757445523e+00 1.7180469183e+00 2.9757445523e+00 
