# step Hamiltonian StressXX CellTensor1 CellTensor2 CellTensor3 CellTensor4 
0 5.8352273611e+00 2.0048755053e-01 2.5594246509e+00 -4.4330535334e+00 2.5594246509e+00 4.4330535334e+00 
100 5.8506863203e+00 2.1513540305e-01 2.5594246509e+00 -4.4330535334e+00 2.5594246509e+00 4.4330535334e+00 
200 5.8669955242e+00 2.2895307594e-01 2.5552229951e+00 -4.4257760521e+00 2.5552229951e+00 4.4257760521e+00 
300 5.8845491416e+00 2.4278531209e-01 2.5507442068e+00 -4.4180185633e+00 2.5507442068e+00 4.4180185633e+00 
400 5.9030896008e+00 2.5661231305e-01 2.5459865821e+00 -4.4097781156e+00 2.5459865821e+00 4.4097781156e+00 
500 5.9223088637e+00 2.7032126459e-01 2.5409487023e+00 -4.4010522518e+00 2.5409487023e+00 4.4010522518e+00 
600 5.9418298033e+00 2.8366003710e-01 2.5356312642e+00 -4.3918421788e+00 2.5356312642e+00 4.3918421788e+00 
700 5.9611807909e+00 2.9617309119e-01 2.5300398456e+00 -4.3821575577e+00 2.5300398456e+00 4.3821575577e+00 
800 5.9797698907e+00 3.0713271909e-01 2.5241889766e+00 -4.3720235555e+00 2.5241889766e+00 4.3720235555e+00 
900 5.9968778019e+00 3.1551256272e-01 2.5181076363e+00 -4.3614903650e+00 2.5181076363e+00 4.3614903650e+00 
1000 6.0117070111e+00 3.2010163962e-01 2.5118453661e+00 -4.3506437948e+00 2.5118453661e+00 4.3506437948e+00 
1100 6.0235294310e+00 3.1987021833e-01 2.5054762248e+00 -4.3396121185e+00 2.5054762248e+00 4.3396121185e+00 
1200 6.0319232506e+00 3.1454511402e-01 2.4990955208e+00 -4.3285604150e+00 2.4990955208e+00 4.3285604150e+00 
1300 6.0369726174e+00 3.0501627378e-01 2.4928049896e+00 -4.3176648953e+00 2.4928049896e+00 4.3176648953e+00 
1400 6.0392497288e+00 2.9309702691e-01 2.4866895653e+00 -4.3070726697e+00 2.4866895653e+00 4.3070726697e+00 
1500 6.0395588971e+00 2.8071108605e-01 2.4807985810e+00 -4.2968691857e+00 2.4807985810e+00 4.2968691857e+00 
1600 6.0386409749e+00 2.6917292849e-01 2.4751430605e+00 -4.2870735369e+00 2.4751430605e+00 4.2870735369e+00 
1700 6.0370230453e+00 2.5901507226e-01 2.4697075332e+00 -4.2776589273e+00 2.4697075332e+00 4.2776589273e+00 
1800 6.0350202282e+00 2.5022108905e-01 2.4644655518e+00 -4.2685795493e+00 2.4644655518e+00 4.2685795493e+00 
1900 6.0328011778e+00 2.4252908404e-01 2.4593907191e+00 -4.2597896812e+00 2.4593907191e+00 4.2597896812e+00 
2000 6.0304512964e+00 2.3563269986e-01 2.4544616959e+00 -4.2512523625e+00 2.4544616959e+00 4.2512523625e+00 
2100 6.0280138112e+00 2.2927038317e-01 2.4496631743e+00 -4.2429410793e+00 2.4496631743e+00 4.2429410793e+00 
2200 6.0255119115e+00 2.2324760583e-01 2.4449850363e+00 -4.2348383067e+00 2.4449850363e+00 4.2348383067e+00 
2300 6.0229595009e+00 2.1743041611e-01 2.4404210411e+00 -4.2269332351e+00 2.4404210411e+00 4.2269332351e+00 
2400 6.0203661232e+00 2.1173107946e-01 2.4359676263e+00 -4.2192196943e+00 2.4359676263e+00 4.2192196943e+00 
2500 6.0177391514e+00 2.0609431541e-01 2.4316229871e+00 -4.2116945585e+00 2.4316229871e+00 4.2116945585e+00 
2600 6.0150847527e+00 2.0048658088e-01 2.4273864268e+00 -4.2043566208e+00 2.4273864268e+00 4.2043566208e+00 
2700 6.0124083170e+00 1.9488846094e-01 2.4232579198e+00 -4.1972058369e+00 2.4232579198e+00 4.1972058369e+00 
2800 6.0097146555e+00 1.8928952472e-01 2.4192378262e+00 -4.1902428306e+00 2.4192378262e+00 4.1902428306e+00 
2900 6.0070080987e+00 1.8368494677e-01 2.4153267096e+00 -4.1834685780e+00 2.4153267096e+00 4.1834685780e+00 
3000 6.0042925521e+00 1.7807332846e-01 2.4115252224e+00 -4.1768842089e+00 2.4115252224e+00 4.1768842089e+00 
3100 6.0015715325e+00 1.7245531194e-01 2.4078340352e+00 -4.1704908851e+00 2.4078340352e+00 4.1704908851e+00 
3200 5.9988481962e+00 1.6683270842e-01 2.4042537947e+00 -4.1642897266e+00 2.4042537947e+00 4.1642897266e+00 
3300 5.9961253636e+00 1.6120795653e-01 2.4007850984e+00 -4.1582817684e+00 2.4007850984e+00 4.1582817684e+00 
3400 5.9934055416e+00 1.5558379114e-01 2.3974284812e+00 -4.1524679369e+00 2.3974284812e+00 4.1524679369e+00 
3500 5.9906909450e+00 1.4996304525e-01 2.3941844084e+00 -4.1468490381e+00 2.3941844084e+00 4.1468490381e+00 
3600 5.9879835178e+00 1.4434853574e-01 2.3910532731e+00 -4.1414257526e+00 2.3910532731e+00 4.1414257526e+00 
3700 5.9852849523e+00 1.3874300137e-01 2.3880353954e+00 -4.1361986351e+00 2.3880353954e+00 4.1361986351e+00 
3800 5.9825967091e+00 1.3314907310e-01 2.3851310239e+00 -4.1311681162e+00 2.3851310239e+00 4.1311681162e+00 
3900 5.9799200354e+00 1.2756926399e-01 2.3823403372e+00 -4.1263345049e+00 2.3823403372e+00 4.1263345049e+00 
4000 5.9772559825e+00 1.2200597075e-01 2.3796634454e+00 -4.1216979924e+00 2.3796634454e+00 4.1216979924e+00 
4100 5.9746054225e+00 1.1646148166e-01 2.3771003930e+00 -4.1172586555e+00 2.3771003930e+00 4.1172586555e+00 
4200 5.9719690649e+00 1.1093798808e-01 2.3746511600e+00 -4.1130164593e+00 2.3746511600e+00 4.1130164593e+00 
4300 5.9693474711e+00 1.0543759718e-01 2.3723156636e+00 -4.1089712610e+00 2.3723156636e+00 4.1089712610e+00 
4400 5.9667410689e+00 9.9962344969e-02 2.3700937603e+00 -4.1051228116e+00 2.3700937603e+00 4.1051228116e+00 
4500 5.9641501658e+00 9.4514208843e-02 2.3679852465e+00 -4.1014707585e+00 2.3679852465e+00 4.1014707585e+00 
4600 5.9615749623e+00 8.9095119179e-02 2.3659898599e+00 -4.0980146475e+00 2.3659898599e+00 4.0980146475e+00 
4700 5.9590155628e+00 8.3706969839e-02 2.3641072801e+00 -4.0947539237e+00 2.3641072801e+00 4.0947539237e+00 
4800 5.9564719878e+00 7.8351627450e-02 2.3623371296e+00 -4.0916879331e+00 2.3623371296e+00 4.0916879331e+00 
4900 5.9539441839e+00 7.3030939449e-02 2.3606789739e+00 -4.0888159232e+00 2.3606789739e+00 4.0888159232e+00 
5000 5.9514320337e+00 6.7746740907e-02 2.3591323223e+00 -4.0861370440e+00 2.3591323223e+00 4.0861370440e+00 
5100 5.9489353655e+00 6.2500860187e-02 2.3576966278e+00 -4.0836503483e+00 2.3576966278e+00 4.0836503483e+00 
5200 5.9464539617e+00 5.7295123492e-02 2.3563712877e+00 -4.0813547918e+00 2.3563712877e+00 4.0813547918e+00 
5300 5.9439875672e+00 5.2131358371e-02 2.3551556432e+00 -4.0792492338e+00 2.3551556432e+00 4.0792492338e+00 
5400 5.9415358972e+00 4.7011396251e-02 2.3540489802e+00 -4.0773324372e+00 2.3540489802e+00 4.0773324372e+00 
5500 5.9390986441e+00 4.1937074062e-02 2.3530505288e+00 -4.0756030686e+00 2.3530505288e+00 4.0756030686e+00 
5600 5.9366754851e+00 3.6910235028e-02 2.3521594636e+00 -4.0740596985e+00 2.3521594636e+00 4.0740596985e+00 
5700 5.9342660878e+00 3.1932728675e-02 2.3513749041e+00 -4.0727008015e+00 2.3513749041e+00 4.0727008015e+00 
5800 5.9318701164e+00 2.7006410131e-02 2.3506959143e+00 -4.0715247567e+00 2.3506959143e+00 4.0715247567e+00 
5900 5.9294872379e+00 2.2133138760e-02 2.3501215033e+00 -4.0705298477e+00 2.3501215033e+00 4.0705298477e+00 
6000 5.9271171262e+00 1.7314776201e-02 2.3496506256e+00 -4.0697142635e+00 2.3496506256e+00 4.0697142635e+00 
6100 5.9247594680e+00 1.2553183842e-02 2.3492821809e+00 -4.0690760987e+00 2.3492821809e+00 4.0690760987e+00 
6200 5.9224139665e+00 7.8502198083e-03 2.3490150154e+00 -4.0686133544e+00 2.3490150154e+00 4.0686133544e+00 
6300 5.9200803456e+00 3.2077354859e-03 2.3488479214e+00 -4.0683239390e+00 2.3488479214e+00 4.0683239390e+00 
6400 5.9177583537e+00 -1.3724283580e-03 2.3487796385e+00 -4.0682056697e+00 2.3487796385e+00 4.0682056697e+00 
6500 5.9154477671e+00 -5.8884458138e-03 2.3488088544e+00 -4.0682562730e+00 2.3488088544e+00 4.0682562730e+00 
6600 5.9131483925e+00 -1.0338510383e-02 2.3489342051e+00 -4.0684733868e+00 2.3489342051e+00 4.0684733868e+00 
6700 5.9108600697e+00 -1.4720839804e-02 2.3491542766e+00 -4.0688545620e+00 2.3491542766e+00 4.0688545620e+00 
6800 5.9085826739e+00 -1.9033681095e-02 2.3494676057e+00 -4.0693972638e+00 2.3494676057e+00 4.0693972638e+00 
6900 5.9063161171e+00 -2.3275315791e-02 2.3498726811e+00 -4.0700988749e+00 2.3498726811e+00 4.0700988749e+00 
7000 5.9040603498e+00 -2.7444065300e-02 2.3503679448e+00 -4.0709566968e+00 2.3503679448e+00 4.0709566968e+00 
7100 5.9018153615e+00 -3.1538296360e-02 2.3509517938e+00 -4.0719679530e+00 2.3509517938e+00 4.0719679530e+00 
7200 5.8995811819e+00 -3.5556426541e-02 2.3516225816e+00 -4.0731297916e+00 2.3516225816e+00 4.0731297916e+00 
7300 5.8973578803e+00 -3.9496929746e-02 2.3523786198e+00 -4.0744392882e+00 2.3523786198e+00 4.0744392882e+00 
7400 5.8951455663e+00 -4.3358341666e-02 2.3532181802e+00 -4.0758934494e+00 2.3532181802e+00 4.0758934494e+00 
7500 5.8929443883e+00 -4.7139265158e-02 2.3541394966e+00 -4.0774892162e+00 2.3541394966e+00 4.0774892162e+00 
7600 5.8907545334e+00 -5.0838375479e-02 2.3551407670e+00 -4.0792234675e+00 2.3551407670e+00 4.0792234675e+00 
7700 5.8885762257e+00 -5.4454425363e-02 2.3562201559e+00 -4.0810930239e+00 2.3562201559e+00 4.0810930239e+00 
7800 5.8864097247e+00 -5.7986249871e-02 2.3573757966e+00 -4.0830946522e+00 2.3573757966e+00 4.0830946522e+00 
7900 5.8842553237e+00 -6.1432770995e-02 2.3586057933e+00 -4.0852250690e+00 2.3586057933e+00 4.0852250690e+00 
8000 5.8821133473e+00 -6.4793001971e-02 2.3599082242e+00 -4.0874809454e+00 2.3599082242e+00 4.0874809454e+00 
8100 5.8799841491e+00 -6.8066051266e-02 2.3612811437e+00 -4.0898589118e+00 2.3612811437e+00 4.0898589118e+00 
8200 5.8778681092e+00 -7.1251126202e-02 2.3627225851e+00 -4.0923555616e+00 2.3627225851e+00 4.0923555616e+00 
8300 5.8757656308e+00 -7.4347536200e-02 2.3642305637e+00 -4.0949674571e+00 2.3642305637e+00 4.0949674571e+00 
8400 5.8736771376e+00 -7.7354695599e-02 2.3658030789e+00 -4.0976911334e+00 2.3658030789e+00 4.0976911334e+00 
8500 5.8716030702e+00 -8.0272126043e-02 2.3674381178e+00 -4.1005231037e+00 2.3674381178e+00 4.1005231037e+00 
8600 5.8695438832e+00 -8.3099458411e-02 2.3691336573e+00 -4.1034598644e+00 2.3691336573e+00 4.1034598644e+00 
8700 5.8675000413e+00 -8.5836434268e-02 2.3708876678e+00 -4.1064978996e+00 2.3708876678e+00 4.1064978996e+00 
8800 5.8654720157e+00 -8.8482906834e-02 2.3726981152e+00 -4.1096336865e+00 2.3726981152e+00 4.1096336865e+00 
8900 5.8634602812e+00 -9.1038841467e-02 2.3745629644e+00 -4.1128637002e+00 2.3745629644e+00 4.1128637002e+00 
9000 5.8614653119e+00 -9.3504315640e-02 2.3764801821e+00 -4.1161844186e+00 2.3764801821e+00 4.1161844186e+00 
9100 5.8594875785e+00 -9.5879518439e-02 2.3784477391e+00 -4.1195923273e+00 2.3784477391e+00 4.1195923273e+00 
9200 5.8575275440e+00 -9.8164749559e-02 2.3804636138e+00 -4.1230839246e+00 2.3804636138e+00 4.1230839246e+00 
9300 5.8555856611e+00 -1.0036041784e-01 2.3825257942e+00 -4.1266557258e+00 2.3825257942e+00 4.1266557258e+00 
9400 5.8536623686e+00 -1.0246703931e-01 2.3846322811e+00 -4.1303042683e+00 2.3846322811e+00 4.1303042683e+00 
9500 5.8517580885e+00 -1.0448523485e-01 2.3867810907e+00 -4.1340261156e+00 2.3867810907e+00 4.1340261156e+00 
9600 5.8498732230e+00 -1.0641572731e-01 2.3889702565e+00 -4.1378178620e+00 2.3889702565e+00 4.1378178620e+00 
9700 5.8480081520e+00 -1.0825933840e-01 2.3911978323e+00 -4.1416761365e+00 2.3911978323e+00 4.1416761365e+00 
9800 5.8461632306e+00 -1.1001698504e-01 2.3934618943e+00 -4.1455976069e+00 2.3934618943e+00 4.1455976069e+00 
9900 5.8443387865e+00 -1.1168967545e-01 2.3957605433e+00 -4.1495789837e+00 2.3957605433e+00 4.1495789837e+00 
10000 5.8425351187e+00 -1.1327850496e-01 2.3980919067e+00 -4.1536170236e+00 2.3980919067e+00 4.1536170236e+00 
10100 5.8407524950e+00 -1.1478465147e-01 2.4004541406e+00 -4.1577085328e+00 2.4004541406e+00 4.1577085328e+00 
10200 5.8389911512e+00 -1.1620937071e-01 2.4028454316e+00 -4.1618503703e+00 2.4028454316e+00 4.1618503703e+00 
10300 5.8372512893e+00 -1.1755399128e-01 2.4052639984e+00 -4.1660394508e+00 2.4052639984e+00 4.1660394508e+00 
10400 5.8355330770e+00 -1.1881990955e-01 2.4077080934e+00 -4.1702727476e+00 2.4077080934e+00 4.1702727476e+00 
10500 5.8338366467e+00 -1.2000858439e-01 2.4101760044e+00 -4.1745472948e+00 2.4101760044e+00 4.1745472948e+00 
10600 5.8321620953e+00 -1.2112153181e-01 2.4126660554e+00 -4.1788601897e+00 2.4126660554e+00 4.1788601897e+00 
10700 5.8305094840e+00 -1.2216031956e-01 2.4151766082e+00 -4.1832085947e+00 2.4151766082e+00 4.1832085947e+00 
10800 5.8288788382e+00 -1.2312656169e-01 2.4177060634e+00 -4.1875897395e+00 2.4177060634e+00 4.1875897395e+00 
10900 5.8272701481e+00 -1.2402191309e-01 2.4202528608e+00 -4.1920009221e+00 2.4202528608e+00 4.1920009221e+00 
11000 5.8256833689e+00 -1.2484806414e-01 2.4228154809e+00 -4.1964395103e+00 2.4228154809e+00 4.1964395103e+00 
11100 5.8241184221e+00 -1.2560673532e-01 2.4253924450e+00 -4.2009029430e+00 2.4253924450e+00 4.2009029430e+00 
11200 5.8225751959e+00 -1.2629967201e-01 2.4279823158e+00 -4.2053887308e+00 2.4279823158e+00 4.2053887308e+00 
11300 5.8210535465e+00 -1.2692863936e-01 2.4305836979e+00 -4.2098944568e+00 2.4305836979e+00 4.2098944568e+00 
11400 5.8195532997e+00 -1.2749541731e-01 2.4331952381e+00 -4.2144177771e+00 2.4331952381e+00 4.2144177771e+00 
11500 5.8180742520e+00 -1.2800179577e-01 2.4358156253e+00 -4.2189564209e+00 2.4358156253e+00 4.2189564209e+00 
11600 5.8166161723e+00 -1.2844956998e-01 2.4384435907e+00 -4.2235081905e+00 2.4384435907e+00 4.2235081905e+00 
11700 5.8151788036e+00 -1.2884053609e-01 2.4410779077e+00 -4.2280709614e+00 2.4410779077e+00 4.2280709614e+00 
11800 5.8137618650e+00 -1.2917648692e-01 2.4437173918e+00 -4.2326426819e+00 2.4437173918e+00 4.2326426819e+00 
11900 5.8123650530e+00 -1.2945920793e-01 2.4463609002e+00 -4.2372213727e+00 2.4463609002e+00 4.2372213727e+00 
12000 5.8109880442e+00 -1.2969047346e-01 2.4490073314e+00 -4.2418051261e+00 2.4490073314e+00 4.2418051261e+00 
12100 5.8096304965e+00 -1.2987204320e-01 2.4516556252e+00 -4.2463921055e+00 2.4516556252e+00 4.2463921055e+00 
12200 5.8082920517e+00 -1.3000565884e-01 2.4543047616e+00 -4.2509805443e+00 2.4543047616e+00 4.2509805443e+00 
12300 5.8069723372e+00 -1.3009304102e-01 2.4569537606e+00 -4.2555687452e+00 2.4569537606e+00 4.2555687452e+00 
12400 5.8056709680e+00 -1.3013588653e-01 2.4596016814e+00 -4.2601550785e+00 2.4596016814e+00 4.2601550785e+00 
12500 5.8043875488e+00 -1.3013586568e-01 2.4622476218e+00 -4.2647379817e+00 2.4622476218e+00 4.2647379817e+00 
12600 5.8031216759e+00 -1.3009462002e-01 2.4648907174e+00 -4.2693159577e+00 2.4648907174e+00 4.2693159577e+00 
12700 5.8018729390e+00 -1.3001376018e-01 2.4675301409e+00 -4.2738875732e+00 2.4675301409e+00 4.2738875732e+00 
12800 5.8006409234e+00 -1.2989486398e-01 2.4701651010e+00 -4.2784514581e+00 2.4701651010e+00 4.2784514581e+00 
12900 5.7994252113e+00 -1.2973947483e-01 2.4727948419e+00 -4.2830063029e+00 2.4727948419e+00 4.2830063029e+00 
13000 5.7982253839e+00 -1.2954910021e-01 2.4754186421e+00 -4.2875508581e+00 2.4754186421e+00 4.2875508581e+00 
13100 5.7970410230e+00 -1.2932521051e-01 2.4780358135e+00 -4.2920839320e+00 2.4780358135e+00 4.2920839320e+00 
13200 5.7958717124e+00 -1.2906923791e-01 2.4806457008e+00 -4.2966043894e+00 2.4806457008e+00 4.2966043894e+00 
13300 5.7947170394e+00 -1.2878257560e-01 2.4832476801e+00 -4.3011111497e+00 2.4832476801e+00 4.3011111497e+00 
13400 5.7935765966e+00 -1.2846657707e-01 2.4858411581e+00 -4.3056031854e+00 2.4858411581e+00 4.3056031854e+00 
13500 5.7924499825e+00 -1.2812255560e-01 2.4884255712e+00 -4.3100795202e+00 2.4884255712e+00 4.3100795202e+00 
13600 5.7913368030e+00 -1.2775178396e-01 2.4910003845e+00 -4.3145392276e+00 2.4910003845e+00 4.3145392276e+00 
13700 5.7902366729e+00 -1.2735549416e-01 2.4935650906e+00 -4.3189814290e+00 2.4935650906e+00 4.3189814290e+00 
13800 5.7891492161e+00 -1.2693487744e-01 2.4961192090e+00 -4.3234052918e+00 2.4961192090e+00 4.3234052918e+00 
13900 5.7880740672e+00 -1.2649108431e-01 2.4986622848e+00 -4.3278100282e+00 2.4986622848e+00 4.3278100282e+00 
14000 5.7870108717e+00 -1.2602522475e-01 2.5011938878e+00 -4.3321948933e+00 2.5011938878e+00 4.3321948933e+00 
14100 5.7859592873e+00 -1.2553836852e-01 2.5037136117e+00 -4.3365591831e+00 2.5037136117e+00 4.3365591831e+00 
14200 5.7849189839e+00 -1.2503154556e-01 2.5062210730e+00 -4.3409022334e+00 2.5062210730e+00 4.3409022334e+00 
14300 5.7838896444e+00 -1.2450574643e-01 2.5087159101e+00 -4.3452234180e+00 2.5087159101e+00 4.3452234180e+00 
14400 5.7828709652e+00 -1.2396192295e-01 2.5111977824e+00 -4.3495221469e+00 2.5111977824e+00 4.3495221469e+00 
14500 5.7818626563e+00 -1.2340098881e-01 2.5136663695e+00 -4.3537978652e+00 2.5136663695e+00 4.3537978652e+00 
14600 5.7808644418e+00 -1.2282382023e-01 2.5161213702e+00 -4.3580500511e+00 2.5161213702e+00 4.3580500511e+00 
14700 5.7798760595e+00 -1.2223125681e-01 2.5185625016e+00 -4.3622782148e+00 2.5185625016e+00 4.3622782148e+00 
14800 5.7788972618e+00 -1.2162410228e-01 2.5209894984e+00 -4.3664818967e+00 2.5209894984e+00 4.3664818967e+00 
14900 5.7779278150e+00 -1.2100312534e-01 2.5234021122e+00 -4.3706606663e+00 2.5234021122e+00 4.3706606663e+00 
15000 5.7769674996e+00 -1.2036906062e-01 2.5258001103e+00 -4.3748141208e+00 2.5258001103e+00 4.3748141208e+00 
15100 5.7760161102e+00 -1.1972260951e-01 2.5281832753e+00 -4.3789418837e+00 2.5281832753e+00 4.3789418837e+00 
15200 5.7750734551e+00 -1.1906444117e-01 2.5305514043e+00 -4.3830436033e+00 2.5305514043e+00 4.3830436033e+00 
15300 5.7741393562e+00 -1.1839519347e-01 2.5329043079e+00 -4.3871189520e+00 2.5329043079e+00 4.3871189520e+00 
15400 5.7732136486e+00 -1.1771547393e-01 2.5352418100e+00 -4.3911676244e+00 2.5352418100e+00 4.3911676244e+00 
15500 5.7722961807e+00 -1.1702586075e-01 2.5375637468e+00 -4.3951893369e+00 2.5375637468e+00 4.3951893369e+00 
15600 5.7713868131e+00 -1.1632690377e-01 2.5398699661e+00 -4.3991838258e+00 2.5398699661e+00 4.3991838258e+00 
15700 5.7704854189e+00 -1.1561912548e-01 2.5421603268e+00 -4.4031508470e+00 2.5421603268e+00 4.4031508470e+00 
15800 5.7695918828e+00 -1.1490302198e-01 2.5444346984e+00 -4.4070901742e+00 2.5444346984e+00 4.4070901742e+00 
15900 5.7687061009e+00 -1.1417906397e-01 2.5466929604e+00 -4.4110015987e+00 2.5466929604e+00 4.4110015987e+00 
16000 5.7678279798e+00 -1.1344769774e-01 2.5489350014e+00 -4.4148849276e+00 2.5489350014e+00 4.4148849276e+00 
16100 5.7669574369e+00 -1.1270934611e-01 2.5511607190e+00 -4.4187399836e+00 2.5511607190e+00 4.4187399836e+00 
16200 5.7660943991e+00 -1.1196440939e-01 2.5533700192e+00 -4.4225666038e+00 2.5533700192e+00 4.4225666038e+00 
16300 5.7652388023e+00 -1.1121326632e-01 2.5555628157e+00 -4.4263646388e+00 2.5555628157e+00 4.4263646388e+00 
16400 5.7643905915e+00 -1.1045627497e-01 2.5577390298e+00 -4.4301339521e+00 2.5577390298e+00 4.4301339521e+00 
16500 5.7635497196e+00 -1.0969377367e-01 2.5598985895e+00 -4.4338744192e+00 2.5598985895e+00 4.4338744192e+00 
16600 5.7627161471e+00 -1.0892608184e-01 2.5620414295e+00 -4.4375859270e+00 2.5620414295e+00 4.4375859270e+00 
16700 5.7618898414e+00 -1.0815350092e-01 2.5641674906e+00 -4.4412683729e+00 2.5641674906e+00 4.4412683729e+00 
16800 5.7610707766e+00 -1.0737631515e-01 2.5662767193e+00 -4.4449216642e+00 2.5662767193e+00 4.4449216642e+00 
16900 5.7602589323e+00 -1.0659479242e-01 2.5683690676e+00 -4.4485457177e+00 2.5683690676e+00 4.4485457177e+00 
17000 5.7594542938e+00 -1.0580918505e-01 2.5704444923e+00 -4.4521404588e+00 2.5704444923e+00 4.4521404588e+00 
17100 5.7586568510e+00 -1.0501973057e-01 2.5725029553e+00 -4.4557058212e+00 2.5725029553e+00 4.4557058212e+00 
17200 5.7578665980e+00 -1.0422665246e-01 2.5745444225e+00 -4.4592417461e+00 2.5745444225e+00 4.4592417461e+00 
17300 5.7570835327e+00 -1.0343016090e-01 2.5765688641e+00 -4.4627481819e+00 2.5765688641e+00 4.4627481819e+00 
17400 5.7563076563e+00 -1.0263045344e-01 2.5785762543e+00 -4.4662250836e+00 2.5785762543e+00 4.4662250836e+00 
17500 5.7555389724e+00 -1.0182771568e-01 2.5805665705e+00 -4.4696724125e+00 2.5805665705e+00 4.4696724125e+00 
17600 5.7547774873e+00 -1.0102212198e-01 2.5825397938e+00 -4.4730901355e+00 2.5825397938e+00 4.4730901355e+00 
17700 5.7540232086e+00 -1.0021383601e-01 2.5844959082e+00 -4.4764782249e+00 2.5844959082e+00 4.4764782249e+00 
17800 5.7532761455e+00 -9.9403011417e-02 2.5864349005e+00 -4.4798366582e+00 2.5864349005e+00 4.4798366582e+00 
17900 5.7525363080e+00 -9.8589792406e-02 2.5883567604e+00 -4.4831654172e+00 2.5883567604e+00 4.4831654172e+00 
18000 5.7518037065e+00 -9.7774314280e-02 2.5902614800e+00 -4.4864644882e+00 2.5902614800e+00 4.4864644882e+00 
18100 5.7510783516e+00 -9.6956704004e-02 2.5921490535e+00 -4.4897338614e+00 2.5921490535e+00 4.4897338614e+00 
18200 5.7503602535e+00 -9.6137080718e-02 2.5940194775e+00 -4.4929735308e+00 2.5940194775e+00 4.4929735308e+00 
18300 5.7496494217e+00 -9.5315556240e-02 2.5958727503e+00 -4.4961834936e+00 2.5958727503e+00 4.4961834936e+00 
18400 5.7489458648e+00 -9.4492235547e-02 2.5977088724e+00 -4.4993637502e+00 2.5977088724e+00 4.4993637502e+00 
18500 5.7482495901e+00 -9.3667217231e-02 2.5995278455e+00 -4.5025143041e+00 2.5995278455e+00 4.5025143041e+00 
18600 5.7475606030e+00 -9.2840593943e-02 2.6013296733e+00 -4.5056351614e+00 2.6013296733e+00 4.5056351614e+00 
18700 5.7468789074e+00 -9.2012452814e-02 2.6031143606e+00 -4.5087263305e+00 2.6031143606e+00 4.5087263305e+00 
18800 5.7462045048e+00 -9.1182875857e-02 2.6048819137e+00 -4.5117878223e+00 2.6048819137e+00 4.5117878223e+00 
18900 5.7455373943e+00 -9.0351940353e-02 2.6066323401e+00 -4.5148196497e+00 2.6066323401e+00 4.5148196497e+00 
19000 5.7448775724e+00 -8.9519719218e-02 2.6083656483e+00 -4.5178218276e+00 2.6083656483e+00 4.5178218276e+00 
19100 5.7442250330e+00 -8.8686281355e-02 2.6100818481e+00 -4.5207943727e+00 2.6100818481e+00 4.5207943727e+00 
19200 5.7435797666e+00 -8.7851691989e-02 2.6117809499e+00 -4.5237373034e+00 2.6117809499e+00 4.5237373034e+00 
19300 5.7429417609e+00 -8.7016012983e-02 2.6134629652e+00 -4.5266506395e+00 2.6134629652e+00 4.5266506395e+00 
19400 5.7423110001e+00 -8.6179303147e-02 2.6151279065e+00 -4.5295344023e+00 2.6151279065e+00 4.5295344023e+00 
19500 5.7416874649e+00 -8.5341618521e-02 2.6167757866e+00 -4.5323886145e+00 2.6167757866e+00 4.5323886145e+00 
19600 5.7410711326e+00 -8.4503012657e-02 2.6184066195e+00 -4.5352132998e+00 2.6184066195e+00 4.5352132998e+00 
19700 5.7404619768e+00 -8.3663536870e-02 2.6200204193e+00 -4.5380084832e+00 2.6200204193e+00 4.5380084832e+00 
19800 5.7398599673e+00 -8.2823240497e-02 2.6216172014e+00 -4.5407741907e+00 2.6216172014e+00 4.5407741907e+00 
19900 5.7392650701e+00 -8.1982171124e-02 2.6231969811e+00 -4.5435104494e+00 2.6231969811e+00 4.5435104494e+00 
20000 5.7386772475e+00 -8.1140374811e-02 2.6247597746e+00 -4.5462172873e+00 2.6247597746e+00 4.5462172873e+00 
20100 5.7380964578e+00 -8.0297896304e-02 2.6263055986e+00 -4.5488947330e+00 2.6263055986e+00 4.5488947330e+00 
20200 5.7375226552e+00 -7.9454779233e-02 2.6278344702e+00 -4.5515428163e+00 2.6278344702e+00 4.5515428163e+00 
20300 5.7369557903e+00 -7.8611066302e-02 2.6293464070e+00 -4.5541615677e+00 2.6293464070e+00 4.5541615677e+00 
20400 5.7363958097e+00 -7.7766799463e-02 2.6308414271e+00 -4.5567510183e+00 2.6308414271e+00 4.5567510183e+00 
20500 5.7358426558e+00 -7.6922020089e-02 2.6323195488e+00 -4.5593112002e+00 2.6323195488e+00 4.5593112002e+00 
20600 5.7352962676e+00 -7.6076769127e-02 2.6337807911e+00 -4.5618421461e+00 2.6337807911e+00 4.5618421461e+00 
20700 5.7347565798e+00 -7.5231087249e-02 2.6352251732e+00 -4.5643438893e+00 2.6352251732e+00 4.5643438893e+00 
20800 5.7342235235e+00 -7.4385014988e-02 2.6366527149e+00 -4.5668164641e+00 2.6366527149e+00 4.5668164641e+00 
20900 5.7336970261e+00 -7.3538592874e-02 2.6380634362e+00 -4.5692599051e+00 2.6380634362e+00 4.5692599051e+00 
21000 5.7331770112e+00 -7.2691861549e-02 2.6394573576e+00 -4.5716742479e+00 2.6394573576e+00 4.5716742479e+00 
21100 5.7326633986e+00 -7.1844861885e-02 2.6408345002e+00 -4.5740595287e+00 2.6408345002e+00 4.5740595287e+00 
21200 5.7321561050e+00 -7.0997635090e-02 2.6421948850e+00 -4.5764157844e+00 2.6421948850e+00 4.5764157844e+00 
21300 5.7316550433e+00 -7.0150222806e-02 2.6435385340e+00 -4.5787430527e+00 2.6435385340e+00 4.5787430527e+00 
21400 5.7311601229e+00 -6.9302667199e-02 2.6448654692e+00 -4.5810413719e+00 2.6448654692e+00 4.5810413719e+00 
21500 5.7306712504e+00 -6.8455011043e-02 2.6461757133e+00 -4.5833107812e+00 2.6461757133e+00 4.5833107812e+00 
21600 5.7301883288e+00 -6.7607297802e-02 2.6474692893e+00 -4.5855513205e+00 2.6474692893e+00 4.5855513205e+00 
21700 5.7297112581e+00 -6.6759571698e-02 2.6487462206e+00 -4.5877630304e+00 2.6487462206e+00 4.5877630304e+00 
21800 5.7292399355e+00 -6.5911877774e-02 2.6500065313e+00 -4.5899459525e+00 2.6500065313e+00 4.5899459525e+00 
21900 5.7287742551e+00 -6.5064261958e-02 2.6512502458e+00 -4.5921001292e+00 2.6512502458e+00 4.5921001292e+00 
22000 5.7283141085e+00 -6.4216771117e-02 2.6524773890e+00 -4.5942256038e+00 2.6524773890e+00 4.5942256038e+00 
22100 5.7278593846e+00 -6.3369453099e-02 2.6536879866e+00 -4.5963224202e+00 2.6536879866e+00 4.5963224202e+00 
22200 5.7274099696e+00 -6.2522356783e-02 2.6548820645e+00 -4.5983906238e+00 2.6548820645e+00 4.5983906238e+00 
22300 5.7269657477e+00 -6.1675532113e-02 2.6560596493e+00 -4.6004302606e+00 2.6560596493e+00 4.6004302606e+00 
22400 5.7265266005e+00 -6.0829030133e-02 2.6572207683e+00 -4.6024413776e+00 2.6572207683e+00 4.6024413776e+00 
22500 5.7260924077e+00 -5.9982903018e-02 2.6583654491e+00 -4.6044240230e+00 2.6583654491e+00 4.6044240230e+00 
22600 5.7256630468e+00 -5.9137204093e-02 2.6594937203e+00 -4.6063782460e+00 2.6594937203e+00 4.6063782460e+00 
22700 5.7252383937e+00 -5.8291987859e-02 2.6606056110e+00 -4.6083040971e+00 2.6606056110e+00 4.6083040971e+00 
22800 5.7248183222e+00 -5.7447310007e-02 2.6617011508e+00 -4.6102016277e+00 2.6617011508e+00 4.6102016277e+00 
22900 5.7244027047e+00 -5.6603227430e-02 2.6627803701e+00 -4.6120708905e+00 2.6627803701e+00 4.6120708905e+00 
23000 5.7239914121e+00 -5.5759798235e-02 2.6638433003e+00 -4.6139119395e+00 2.6638433003e+00 4.6139119395e+00 
23100 5.7235843139e+00 -5.4917081746e-02 2.6648899731e+00 -4.6157248301e+00 2.6648899731e+00 4.6157248301e+00 
23200 5.7231812783e+00 -5.4075138508e-02 2.6659204213e+00 -4.6175096186e+00 2.6659204213e+00 4.6175096186e+00 
23300 5.7227821724e+00 -5.3234030285e-02 2.6669346782e+00 -4.6192663632e+00 2.6669346782e+00 4.6192663632e+00 
23400 5.7223868621e+00 -5.2393820061e-02 2.6679327782e+00 -4.6209951231e+00 2.6679327782e+00 4.6209951231e+00 
23500 5.7219952128e+00 -5.1554572029e-02 2.6689147564e+00 -4.6226959591e+00 2.6689147564e+00 4.6226959591e+00 
23600 5.7216070888e+00 -5.0716351584e-02 2.6698806486e+00 -4.6243689335e+00 2.6698806486e+00 4.6243689335e+00 
23700 5.7212223538e+00 -4.9879225315e-02 2.6708304917e+00 -4.6260141101e+00 2.6708304917e+00 4.6260141101e+00 
23800 5.7208408710e+00 -4.9043260989e-02 2.6717643236e+00 -4.6276315543e+00 2.6717643236e+00 4.6276315543e+00 
23900 5.7204625031e+00 -4.8208527535e-02 2.6726821828e+00 -4.6292213330e+00 2.6726821828e+00 4.6292213330e+00 
24000 5.7200871124e+00 -4.7375095031e-02 2.6735841089e+00 -4.6307835149e+00 2.6735841089e+00 4.6307835149e+00 
24100 5.7197145610e+00 -4.6543034682e-02 2.6744701426e+00 -4.6323181702e+00 2.6744701426e+00 4.6323181702e+00 
24200 5.7193447109e+00 -4.5712418802e-02 2.6753403253e+00 -4.6338253710e+00 2.6753403253e+00 4.6338253710e+00 
24300 5.7189774241e+00 -4.4883320788e-02 2.6761946998e+00 -4.6353051911e+00 2.6761946998e+00 4.6353051911e+00 
24400 5.7186125624e+00 -4.4055815103e-02 2.6770333097e+00 -4.6367577059e+00 2.6770333097e+00 4.6367577059e+00 
24500 5.7182499879e+00 -4.3229977247e-02 2.6778561995e+00 -4.6381829930e+00 2.6778561995e+00 4.6381829930e+00 
24600 5.7178895630e+00 -4.2405883733e-02 2.6786634152e+00 -4.6395811315e+00 2.6786634152e+00 4.6395811315e+00 
24700 5.7175311502e+00 -4.1583612063e-02 2.6794550035e+00 -4.6409522026e+00 2.6794550035e+00 4.6409522026e+00 
24800 5.7171746125e+00 -4.0763240697e-02 2.6802310124e+00 -4.6422962894e+00 2.6802310124e+00 4.6422962894e+00 
24900 5.7168198133e+00 -3.9944849029e-02 2.6809914910e+00 -4.6436134770e+00 2.6809914910e+00 4.6436134770e+00 
25000 5.7164666166e+00 -3.9128517357e-02 2.6817364896e+00 -4.6449038525e+00 2.6817364896e+00 4.6449038525e+00 
25100 5.7161148870e+00 -3.8314326854e-02 2.6824660596e+00 -4.6461675048e+00 2.6824660596e+00 4.6461675048e+00 
25200 5.7157644895e+00 -3.7502359540e-02 2.6831802537e+00 -4.6474045252e+00 2.6831802537e+00 4.6474045252e+00 
25300 5.7154152903e+00 -3.6692698255e-02 2.6838791256e+00 -4.6486150069e+00 2.6838791256e+00 4.6486150069e+00 
25400 5.7150671560e+00 -3.5885426623e-02 2.6845627304e+00 -4.6497990452e+00 2.6845627304e+00 4.6497990452e+00 
25500 5.7147199543e+00 -3.5080629032e-02 2.6852311245e+00 -4.6509567377e+00 2.6852311245e+00 4.6509567377e+00 
25600 5.7143735535e+00 -3.4278390598e-02 2.6858843653e+00 -4.6520881840e+00 2.6858843653e+00 4.6520881840e+00 
25700 5.7140278232e+00 -3.3478797138e-02 2.6865225117e+00 -4.6531934859e+00 2.6865225117e+00 4.6531934859e+00 
25800 5.7136826337e+00 -3.2681935144e-02 2.6871456237e+00 -4.6542727476e+00 2.6871456237e+00 4.6542727476e+00 
25900 5.7133378567e+00 -3.1887891749e-02 2.6877537629e+00 -4.6553260755e+00 2.6877537629e+00 4.6553260755e+00 
26000 5.7129933646e+00 -3.1096754706e-02 2.6883469918e+00 -4.6563535781e+00 2.6883469918e+00 4.6563535781e+00 
26100 5.7126490312e+00 -3.0308612356e-02 2.6889253745e+00 -4.6573553664e+00 2.6889253745e+00 4.6573553664e+00 
26200 5.7123047314e+00 -2.9523553601e-02 2.6894889764e+00 -4.6583315536e+00 2.6894889764e+00 4.6583315536e+00 
26300 5.7119603414e+00 -2.8741667883e-02 2.6900378643e+00 -4.6592822552e+00 2.6900378643e+00 4.6592822552e+00 
26400 5.7116157384e+00 -2.7963045150e-02 2.6905721062e+00 -4.6602075894e+00 2.6905721062e+00 4.6602075894e+00 
26500 5.7112708012e+00 -2.7187775841e-02 2.6910917716e+00 -4.6611076763e+00 2.6910917716e+00 4.6611076763e+00 
26600 5.7109254098e+00 -2.6415950853e-02 2.6915969314e+00 -4.6619826387e+00 2.6915969314e+00 4.6619826387e+00 
26700 5.7105794455e+00 -2.5647661523e-02 2.6920876578e+00 -4.6628326017e+00 2.6920876578e+00 4.6628326017e+00 
26800 5.7102327910e+00 -2.4882999603e-02 2.6925640245e+00 -4.6636576930e+00 2.6925640245e+00 4.6636576930e+00 
26900 5.7098853305e+00 -2.4122057242e-02 2.6930261065e+00 -4.6644580426e+00 2.6930261065e+00 4.6644580426e+00 
27000 5.7095369495e+00 -2.3364926959e-02 2.6934739805e+00 -4.6652337831e+00 2.6934739805e+00 4.6652337831e+00 
27100 5.7091875351e+00 -2.2611701627e-02 2.6939077243e+00 -4.6659850494e+00 2.6939077243e+00 4.6659850494e+00 
27200 5.7088369759e+00 -2.1862474454e-02 2.6943274174e+00 -4.6667119792e+00 2.6943274174e+00 4.6667119792e+00 
27300 5.7084851619e+00 -2.1117338961e-02 2.6947331406e+00 -4.6674147124e+00 2.6947331406e+00 4.6674147124e+00 
27400 5.7081319848e+00 -2.0376388969e-02 2.6951249763e+00 -4.6680933917e+00 2.6951249763e+00 4.6680933917e+00 
27500 5.7077773378e+00 -1.9639718576e-02 2.6955030082e+00 -4.6687481621e+00 2.6955030082e+00 4.6687481621e+00 
27600 5.7074211157e+00 -1.8907422145e-02 2.6958673217e+00 -4.6693791716e+00 2.6958673217e+00 4.6693791716e+00 
27700 5.7070632151e+00 -1.8179594287e-02 2.6962180035e+00 -4.6699865703e+00 2.6962180035e+00 4.6699865703e+00 
27800 5.7067035340e+00 -1.7456329846e-02 2.6965551419e+00 -4.6705705111e+00 2.6965551419e+00 4.6705705111e+00 
27900 5.7063419723e+00 -1.6737723880e-02 2.6968788267e+00 -4.6711311497e+00 2.6968788267e+00 4.6711311497e+00 
28000 5.7059784316e+00 -1.6023871654e-02 2.6971891492e+00 -4.6716686440e+00 2.6971891492e+00 4.6716686440e+00 
28100 5.7056128153e+00 -1.5314868620e-02 2.6974862023e+00 -4.6721831550e+00 2.6974862023e+00 4.6721831550e+00 
28200 5.7052450285e+00 -1.4610810405e-02 2.6977700802e+00 -4.6726748461e+00 2.6977700802e+00 4.6726748461e+00 
28300 5.7048749782e+00 -1.3911792798e-02 2.6980408790e+00 -4.6731438833e+00 2.6980408790e+00 4.6731438833e+00 
28400 5.7045025733e+00 -1.3217911734e-02 2.6982986959e+00 -4.6735904353e+00 2.6982986959e+00 4.6735904353e+00 
28500 5.7041277245e+00 -1.2529263284e-02 2.6985436301e+00 -4.6740146738e+00 2.6985436301e+00 4.6740146738e+00 
28600 5.7037503445e+00 -1.1845943637e-02 2.6987757820e+00 -4.6744167727e+00 2.6987757820e+00 4.6744167727e+00 
28700 5.7033703482e+00 -1.1168049088e-02 2.6989952539e+00 -4.6747969091e+00 2.6989952539e+00 4.6747969091e+00 
28800 5.7029876522e+00 -1.0495676021e-02 2.6992021492e+00 -4.6751552623e+00 2.6992021492e+00 4.6751552623e+00 
28900 5.7026021754e+00 -9.8289208975e-03 2.6993965734e+00 -4.6754920149e+00 2.6993965734e+00 4.6754920149e+00 
29000 5.7022138389e+00 -9.1678802354e-03 2.6995786332e+00 -4.6758073517e+00 2.6995786332e+00 4.6758073517e+00 
29100 5.7018225657e+00 -8.5126505952e-03 2.6997484370e+00 -4.6761014605e+00 2.6997484370e+00 4.6761014605e+00 
29200 5.7014282814e+00 -7.8633285608e-03 2.6999060949e+00 -4.6763745320e+00 2.6999060949e+00 4.6763745320e+00 
29300 5.7010309137e+00 -7.2200107195e-03 2.7000517185e+00 -4.6766267595e+00 2.7000517185e+00 4.6766267595e+00 
29400 5.7006303928e+00 -6.5827936419e-03 2.7001854209e+00 -4.6768583389e+00 2.7001854209e+00 4.6768583389e+00 
29500 5.7002266511e+00 -5.9517738589e-03 2.7003073170e+00 -4.6770694692e+00 2.7003073170e+00 4.6770694692e+00 
29600 5.6998196237e+00 -5.3270478375e-03 2.7004175233e+00 -4.6772603520e+00 2.7004175233e+00 4.6772603520e+00 
29700 5.6994092483e+00 -4.7087119551e-03 2.7005161577e+00 -4.6774311917e+00 2.7005161577e+00 4.6774311917e+00 
29800 5.6989954651e+00 -4.0968624705e-03 2.7006033398e+00 -4.6775821957e+00 2.7006033398e+00 4.6775821957e+00 
29900 5.6985782171e+00 -3.4915954941e-03 2.7006791911e+00 -4.6777135739e+00 2.7006791911e+00 4.6777135739e+00 
30000 5.6981574500e+00 -2.8930069544e-03 2.7007438342e+00 -4.6778255391e+00 2.7007438342e+00 4.6778255391e+00 
30100 5.6977331125e+00 -2.3011925626e-03 2.7007973939e+00 -4.6779183071e+00 2.7007973939e+00 4.6779183071e+00 
30200 5.6973051562e+00 -1.7162477740e-03 2.7008399961e+00 -4.6779920963e+00 2.7008399961e+00 4.6779920963e+00 
30300 5.6968735357e+00 -1.1382677468e-03 2.7008717686e+00 -4.6780471280e+00 2.7008717686e+00 4.6780471280e+00 
30400 5.6964382088e+00 -5.6734729730e-04 2.7008928409e+00 -4.6780836262e+00 2.7008928409e+00 4.6780836262e+00 
30500 5.6959991365e+00 -3.5808523012e-06 2.7009033438e+00 -4.6781018179e+00 2.7009033438e+00 4.6781018179e+00 
30600 5.6955562831e+00 5.5289315106e-04 2.7009033438e+00 -4.6781018179e+00 2.7009033438e+00 4.6781018179e+00 
30700 5.6951096163e+00 1.1020697661e-03 2.7008931085e+00 -4.6780840898e+00 2.7008931085e+00 4.6780840898e+00 
30800 5.6946591074e+00 1.6438120845e-03 2.7008727066e+00 -4.6780487526e+00 2.7008727066e+00 4.6780487526e+00 
30900 5.6942047312e+00 2.1780277588e-03 2.7008422755e+00 -4.6779960444e+00 2.7008422755e+00 4.6779960444e+00 
31000 5.6937464662e+00 2.7046251336e-03 2.7008019543e+00 -4.6779262061e+00 2.7008019543e+00 4.6779262061e+00 
31100 5.6932842949e+00 3.2235133136e-03 2.7007518837e+00 -4.6778394812e+00 2.7007518837e+00 4.6778394812e+00 
31200 5.6928182034e+00 3.7346022360e-03 2.7006922059e+00 -4.6777361162e+00 2.7006922059e+00 4.6777361162e+00 
31300 5.6923481820e+00 4.2378027489e-03 2.7006230646e+00 -4.6776163600e+00 2.7006230646e+00 4.6776163600e+00 
31400 5.6918742252e+00 4.7330266927e-03 2.7005446052e+00 -4.6774804644e+00 2.7005446052e+00 4.6774804644e+00 
31500 5.6913963315e+00 5.2201869882e-03 2.7004569748e+00 -4.6773286839e+00 2.7004569748e+00 4.6773286839e+00 
31600 5.6909145038e+00 5.6991977275e-03 2.7003603216e+00 -4.6771612757e+00 2.7003603216e+00 4.6771612757e+00 
31700 5.6904287496e+00 6.1699742702e-03 2.7002547956e+00 -4.6769784994e+00 2.7002547956e+00 4.6769784994e+00 
31800 5.6899390806e+00 6.6324333443e-03 2.7001405484e+00 -4.6767806175e+00 2.7001405484e+00 4.6767806175e+00 
31900 5.6894455135e+00 7.0864931508e-03 2.7000177329e+00 -4.6765678948e+00 2.7000177329e+00 4.6765678948e+00 
32000 5.6889480693e+00 7.5320734729e-03 2.6998865035e+00 -4.6763405987e+00 2.6998865035e+00 4.6763405987e+00 
32100 5.6884467743e+00 7.9690957894e-03 2.6997470160e+00 -4.6760989993e+00 2.6997470160e+00 4.6760989993e+00 
32200 5.6879416592e+00 8.3974833922e-03 2.6995994277e+00 -4.6758433688e+00 2.6995994277e+00 4.6758433688e+00 
32300 5.6874327600e+00 8.8171615074e-03 2.6994438971e+00 -4.6755739820e+00 2.6994438971e+00 4.6755739820e+00 
32400 5.6869201179e+00 9.2280574209e-03 2.6992805844e+00 -4.6752911160e+00 2.6992805844e+00 4.6752911160e+00 
32500 5.6864037789e+00 9.6301006062e-03 2.6991096507e+00 -4.6749950502e+00 2.6991096507e+00 4.6749950502e+00 
32600 5.6858837945e+00 1.0023222857e-02 2.6989312586e+00 -4.6746860660e+00 2.6989312586e+00 4.6746860660e+00 
32700 5.6853602214e+00 1.0407358423e-02 2.6987455720e+00 -4.6743644474e+00 2.6987455720e+00 4.6743644474e+00 
32800 5.6848331218e+00 1.0782444144e-02 2.6985527559e+00 -4.6740304800e+00 2.6985527559e+00 4.6740304800e+00 
32900 5.6843025631e+00 1.1148419596e-02 2.6983529763e+00 -4.6736844518e+00 2.6983529763e+00 4.6736844518e+00 
33000 5.6837686184e+00 1.1505227229e-02 2.6981464007e+00 -4.6733266524e+00 2.6981464007e+00 4.6733266524e+00 
33100 5.6832313662e+00 1.1852812512e-02 2.6979331974e+00 -4.6729573734e+00 2.6979331974e+00 4.6729573734e+00 
33200 5.6826908906e+00 1.2191124080e-02 2.6977135357e+00 -4.6725769081e+00 2.6977135357e+00 4.6725769081e+00 
33300 5.6821472813e+00 1.2520113880e-02 2.6974875860e+00 -4.6721855517e+00 2.6974875860e+00 4.6721855517e+00 
33400 5.6816006334e+00 1.2839737316e-02 2.6972555194e+00 -4.6717836006e+00 2.6972555194e+00 4.6717836006e+00 
33500 5.6810510480e+00 1.3149953399e-02 2.6970175080e+00 -4.6713713528e+00 2.6970175080e+00 4.6713713528e+00 
33600 5.6804986314e+00 1.3450724891e-02 2.6967737248e+00 -4.6709491078e+00 2.6967737248e+00 4.6709491078e+00 
33700 5.6799434956e+00 1.3742018453e-02 2.6965243431e+00 -4.6705171661e+00 2.6965243431e+00 4.6705171661e+00 
33800 5.6793857583e+00 1.4023804785e-02 2.6962695373e+00 -4.6700758295e+00 2.6962695373e+00 4.6700758295e+00 
33900 5.6788255425e+00 1.4296058773e-02 2.6960094821e+00 -4.6696254007e+00 2.6960094821e+00 4.6696254007e+00 
34000 5.6782629769e+00 1.4558759623e-02 2.6957443527e+00 -4.6691661832e+00 2.6957443527e+00 4.6691661832e+00 
34100 5.6776981953e+00 1.4811891001e-02 2.6954743250e+00 -4.6686984814e+00 2.6954743250e+00 4.6686984814e+00 
34200 5.6771313370e+00 1.5055441164e-02 2.6951995748e+00 -4.6682226001e+00 2.6951995748e+00 4.6682226001e+00 
34300 5.6765625466e+00 1.5289403084e-02 2.6949202786e+00 -4.6677388449e+00 2.6949202786e+00 4.6677388449e+00 
34400 5.6759919737e+00 1.5513774577e-02 2.6946366128e+00 -4.6672475213e+00 2.6946366128e+00 4.6672475213e+00 
34500 5.6754197729e+00 1.5728558413e-02 2.6943487540e+00 -4.6667489352e+00 2.6943487540e+00 4.6667489352e+00 
34600 5.6748461036e+00 1.5933762430e-02 2.6940568787e+00 -4.6662433924e+00 2.6940568787e+00 4.6662433924e+00 
34700 5.6742711302e+00 1.6129399640e-02 2.6937611635e+00 -4.6657311987e+00 2.6937611635e+00 4.6657311987e+00 
34800 5.6736950214e+00 1.6315488316e-02 2.6934617847e+00 -4.6652126594e+00 2.6934617847e+00 4.6652126594e+00 
34900 5.6731179503e+00 1.6492052090e-02 2.6931589183e+00 -4.6646880793e+00 2.6931589183e+00 4.6646880793e+00 
35000 5.6725400944e+00 1.6659120026e-02 2.6928527399e+00 -4.6641577629e+00 2.6928527399e+00 4.6641577629e+00 
35100 5.6719616349e+00 1.6816726692e-02 2.6925434248e+00 -4.6636220134e+00 2.6925434248e+00 4.6636220134e+00 
35200 5.6713827570e+00 1.6964912217e-02 2.6922311476e+00 -4.6630811333e+00 2.6922311476e+00 4.6630811333e+00 
35300 5.6708036494e+00 1.7103722344e-02 2.6919160821e+00 -4.6625354239e+00 2.6919160821e+00 4.6625354239e+00 
35400 5.6702245039e+00 1.7233208471e-02 2.6915984016e+00 -4.6619851851e+00 2.6915984016e+00 4.6619851851e+00 
35500 5.6696455155e+00 1.7353427671e-02 2.6912782783e+00 -4.6614307153e+00 2.6912782783e+00 4.6614307153e+00 
35600 5.6690668819e+00 1.7464442717e-02 2.6909558835e+00 -4.6608723112e+00 2.6909558835e+00 4.6608723112e+00 
35700 5.6684888032e+00 1.7566322080e-02 2.6906313874e+00 -4.6603102675e+00 2.6906313874e+00 4.6603102675e+00 
35800 5.6679114819e+00 1.7659139924e-02 2.6903049591e+00 -4.6597448770e+00 2.6903049591e+00 4.6597448770e+00 
35900 5.6673351221e+00 1.7742976086e-02 2.6899767662e+00 -4.6591764302e+00 2.6899767662e+00 4.6591764302e+00 
36000 5.6667599295e+00 1.7817916042e-02 2.6896469750e+00 -4.6586052151e+00 2.6896469750e+00 4.6586052151e+00 
36100 5.6661861112e+00 1.7884050861e-02 2.6893157503e+00 -4.6580315171e+00 2.6893157503e+00 4.6580315171e+00 
36200 5.6656138748e+00 1.7941477149e-02 2.6889832553e+00 -4.6574556188e+00 2.6889832553e+00 4.6574556188e+00 
36300 5.6650434288e+00 1.7990296973e-02 2.6886496514e+00 -4.6568777999e+00 2.6886496514e+00 4.6568777999e+00 
36400 5.6644749816e+00 1.8030617779e-02 2.6883150982e+00 -4.6562983369e+00 2.6883150982e+00 4.6562983369e+00 
36500 5.6639087417e+00 1.8062552298e-02 2.6879797535e+00 -4.6557175028e+00 2.6879797535e+00 4.6557175028e+00 
36600 5.6633449168e+00 1.8086218430e-02 2.6876437730e+00 -4.6551355675e+00 2.6876437730e+00 4.6551355675e+00 
36700 5.6627837138e+00 1.8101739125e-02 2.6873073103e+00 -4.6545527969e+00 2.6873073103e+00 4.6545527969e+00 
36800 5.6622253383e+00 1.8109242251e-02 2.6869705166e+00 -4.6539694532e+00 2.6869705166e+00 4.6539694532e+00 
36900 5.6616699944e+00 1.8108860441e-02 2.6866335411e+00 -4.6533857946e+00 2.6866335411e+00 4.6533857946e+00 
37000 5.6611178839e+00 1.8100730944e-02 2.6862965305e+00 -4.6528020750e+00 2.6862965305e+00 4.6528020750e+00 
37100 5.6605692065e+00 1.8084995448e-02 2.6859596289e+00 -4.6522185443e+00 2.6859596289e+00 4.6522185443e+00 
37200 5.6600241590e+00 1.8061799909e-02 2.6856229779e+00 -4.6516354477e+00 2.6856229779e+00 4.6516354477e+00 
37300 5.6594829352e+00 1.8031294355e-02 2.6852867166e+00 -4.6510530260e+00 2.6852867166e+00 4.6510530260e+00 
37400 5.6589457253e+00 1.7993632692e-02 2.6849509812e+00 -4.6504715152e+00 2.6849509812e+00 4.6504715152e+00 
37500 5.6584127159e+00 1.7948972493e-02 2.6846159050e+00 -4.6498911464e+00 2.6846159050e+00 4.6498911464e+00 
37600 5.6578840892e+00 1.7897474789e-02 2.6842816189e+00 -4.6493121457e+00 2.6842816189e+00 4.6493121457e+00 
37700 5.6573600231e+00 1.7839303841e-02 2.6839482503e+00 -4.6487347343e+00 2.6839482503e+00 4.6487347343e+00 
37800 5.6568406908e+00 1.7774626915e-02 2.6836159239e+00 -4.6481591282e+00 2.6836159239e+00 4.6481591282e+00 
37900 5.6563262603e+00 1.7703614043e-02 2.6832847614e+00 -4.6475855378e+00 2.6832847614e+00 4.6475855378e+00 
38000 5.6558168940e+00 1.7626437788e-02 2.6829548811e+00 -4.6470141685e+00 2.6829548811e+00 4.6470141685e+00 
38100 5.6553127489e+00 1.7543273000e-02 2.6826263986e+00 -4.6464452201e+00 2.6826263986e+00 4.6464452201e+00 
38200 5.6548139761e+00 1.7454296565e-02 2.6822994258e+00 -4.6458788866e+00 2.6822994258e+00 4.6458788866e+00 
38300 5.6543207202e+00 1.7359687159e-02 2.6819740717e+00 -4.6453153567e+00 2.6819740717e+00 4.6453153567e+00 
38400 5.6538331197e+00 1.7259624995e-02 2.6816504418e+00 -4.6447548133e+00 2.6816504418e+00 4.6447548133e+00 
38500 5.6533513063e+00 1.7154291576e-02 2.6813286385e+00 -4.6441974337e+00 2.6813286385e+00 4.6441974337e+00 
38600 5.6528754049e+00 1.7043869434e-02 2.6810087607e+00 -4.6436433890e+00 2.6810087607e+00 4.6436433890e+00 
38700 5.6524055333e+00 1.6928541889e-02 2.6806909040e+00 -4.6430928451e+00 2.6806909040e+00 4.6430928451e+00 
38800 5.6519418023e+00 1.6808492794e-02 2.6803751606e+00 -4.6425459614e+00 2.6803751606e+00 4.6425459614e+00 
38900 5.6514843152e+00 1.6683906288e-02 2.6800616193e+00 -4.6420028920e+00 2.6800616193e+00 4.6420028920e+00 
39000 5.6510331682e+00 1.6554966556e-02 2.6797503656e+00 -4.6414637848e+00 2.6797503656e+00 4.6414637848e+00 
39100 5.6505884495e+00 1.6421857587e-02 2.6794414814e+00 -4.6409287817e+00 2.6794414814e+00 4.6409287817e+00 
39200 5.6501502402e+00 1.6284762939e-02 2.6791350454e+00 -4.6403980190e+00 2.6791350454e+00 4.6403980190e+00 
39300 5.6497186133e+00 1.6143865508e-02 2.6788311329e+00 -4.6398716271e+00 2.6788311329e+00 4.6398716271e+00 
39400 5.6492936345e+00 1.5999347309e-02 2.6785298156e+00 -4.6393497302e+00 2.6785298156e+00 4.6393497302e+00 
39500 5.6488753616e+00 1.5851389253e-02 2.6782311620e+00 -4.6388324471e+00 2.6782311620e+00 4.6388324471e+00 
39600 5.6484638448e+00 1.5700170940e-02 2.6779352373e+00 -4.6383198904e+00 2.6779352373e+00 4.6383198904e+00 
39700 5.6480591265e+00 1.5545870452e-02 2.6776421032e+00 -4.6378121672e+00 2.6776421032e+00 4.6378121672e+00 
39800 5.6476612417e+00 1.5388664165e-02 2.6773518181e+00 -4.6373093787e+00 2.6773518181e+00 4.6373093787e+00 
39900 5.6472702178e+00 1.5228726554e-02 2.6770644373e+00 -4.6368116206e+00 2.6770644373e+00 4.6368116206e+00 
40000 5.6468860746e+00 1.5066230022e-02 2.6767800128e+00 -4.6363189828e+00 2.6767800128e+00 4.6363189828e+00 
40100 5.6465088247e+00 1.4901344723e-02 2.6764985932e+00 -4.6358315498e+00 2.6764985932e+00 4.6358315498e+00 
40200 5.6461384735e+00 1.4734238411e-02 2.6762202242e+00 -4.6353494005e+00 2.6762202242e+00 4.6353494005e+00 
40300 5.6457750192e+00 1.4565076280e-02 2.6759449481e+00 -4.6348726084e+00 2.6759449481e+00 4.6348726084e+00 
40400 5.6454184533e+00 1.4394020828e-02 2.6756728045e+00 -4.6344012418e+00 2.6756728045e+00 4.6344012418e+00 
40500 5.6450687603e+00 1.4221231724e-02 2.6754038295e+00 -4.6339353635e+00 2.6754038295e+00 4.6339353635e+00 
40600 5.6447259183e+00 1.4046865685e-02 2.6751380566e+00 -4.6334750313e+00 2.6751380566e+00 4.6334750313e+00 
40700 5.6443898991e+00 1.3871076363e-02 2.6748755162e+00 -4.6330202980e+00 2.6748755162e+00 4.6330202980e+00 
40800 5.6440606680e+00 1.3694014243e-02 2.6746162359e+00 -4.6325712113e+00 2.6746162359e+00 4.6325712113e+00 
40900 5.6437381849e+00 1.3515826548e-02 2.6743602404e+00 -4.6321278141e+00 2.6743602404e+00 4.6321278141e+00 
41000 5.6434224035e+00 1.3336657156e-02 2.6741075517e+00 -4.6316901444e+00 2.6741075517e+00 4.6316901444e+00 
41100 5.6431132724e+00 1.3156646522e-02 2.6738581890e+00 -4.6312582356e+00 2.6738581890e+00 4.6312582356e+00 
41200 5.6428107348e+00 1.2975931618e-02 2.6736121692e+00 -4.6308321167e+00 2.6736121692e+00 4.6308321167e+00 
41300 5.6425147292e+00 1.2794645867e-02 2.6733695061e+00 -4.6304118121e+00 2.6733695061e+00 4.6304118121e+00 
41400 5.6422251890e+00 1.2612919103e-02 2.6731302116e+00 -4.6299973417e+00 2.6731302116e+00 4.6299973417e+00 
41500 5.6419420436e+00 1.2430877526e-02 2.6728942947e+00 -4.6295887216e+00 2.6728942947e+00 4.6295887216e+00 
41600 5.6416652180e+00 1.2248643669e-02 2.6726617621e+00 -4.6291859635e+00 2.6726617621e+00 4.6291859635e+00 
41700 5.6413946335e+00 1.2066336379e-02 2.6724326185e+00 -4.6287890751e+00 2.6724326185e+00 4.6287890751e+00 
41800 5.6411302076e+00 1.1884070794e-02 2.6722068660e+00 -4.6283980603e+00 2.6722068660e+00 4.6283980603e+00 
41900 5.6408718545e+00 1.1701958337e-02 2.6719845047e+00 -4.6280129193e+00 2.6719845047e+00 4.6280129193e+00 
42000 5.6406194856e+00 1.1520106713e-02 2.6717655327e+00 -4.6276336485e+00 2.6717655327e+00 4.6276336485e+00 
42100 5.6403730091e+00 1.1338619910e-02 2.6715499458e+00 -4.6272602411e+00 2.6715499458e+00 4.6272602411e+00 
42200 5.6401323311e+00 1.1157598215e-02 2.6713377381e+00 -4.6268926866e+00 2.6713377381e+00 4.6268926866e+00 
42300 5.6398973552e+00 1.0977138221e-02 2.6711289017e+00 -4.6265309713e+00 2.6711289017e+00 4.6265309713e+00 
42400 5.6396679829e+00 1.0797332856e-02 2.6709234268e+00 -4.6261750784e+00 2.6709234268e+00 4.6261750784e+00 
42500 5.6394441143e+00 1.0618271406e-02 2.6707213020e+00 -4.6258249880e+00 2.6707213020e+00 4.6258249880e+00 
42600 5.6392256476e+00 1.0440039546e-02 2.6705225142e+00 -4.6254806773e+00 2.6705225142e+00 4.6254806773e+00 
42700 5.6390124802e+00 1.0262719378e-02 2.6703270484e+00 -4.6251421207e+00 2.6703270484e+00 4.6251421207e+00 
42800 5.6388045081e+00 1.0086389467e-02 2.6701348885e+00 -4.6248092900e+00 2.6701348885e+00 4.6248092900e+00 
42900 5.6386016267e+00 9.9111248890e-03 2.6699460166e+00 -4.6244821542e+00 2.6699460166e+00 4.6244821542e+00 
43000 5.6384037309e+00 9.7369972758e-03 2.6697604134e+00 -4.6241606800e+00 2.6697604134e+00 4.6241606800e+00 
43100 5.6382107151e+00 9.5640748663e-03 2.6695780583e+00 -4.6238448318e+00 2.6695780583e+00 4.6238448318e+00 
43200 5.6380224736e+00 9.3924225597e-03 2.6693989295e+00 -4.6235345716e+00 2.6693989295e+00 4.6235345716e+00 
43300 5.6378389009e+00 9.2221019716e-03 2.6692230038e+00 -4.6232298593e+00 2.6692230038e+00 4.6232298593e+00 
43400 5.6376598914e+00 9.0531714928e-03 2.6690502568e+00 -4.6229306528e+00 2.6690502568e+00 4.6229306528e+00 
43500 5.6374853403e+00 8.8856863500e-03 2.6688806633e+00 -4.6226369081e+00 2.6688806633e+00 4.6226369081e+00 
43600 5.6373151431e+00 8.7196986678e-03 2.6687141966e+00 -4.6223485793e+00 2.6687141966e+00 4.6223485793e+00 
43700 5.6371491963e+00 8.5552575335e-03 2.6685508293e+00 -4.6220656190e+00 2.6685508293e+00 4.6220656190e+00 
43800 5.6369873969e+00 8.3924090627e-03 2.6683905331e+00 -4.6217879778e+00 2.6683905331e+00 4.6217879778e+00 
43900 5.6368296433e+00 8.2311964656e-03 2.6682332786e+00 -4.6215156051e+00 2.6682332786e+00 4.6215156051e+00 
44000 5.6366758349e+00 8.0716601157e-03 2.6680790358e+00 -4.6212484486e+00 2.6680790358e+00 4.6212484486e+00 
44100 5.6365258724e+00 7.9138376181e-03 2.6679277737e+00 -4.6209864550e+00 2.6679277737e+00 4.6209864550e+00 
44200 5.6363796577e+00 7.7577638788e-03 2.6677794608e+00 -4.6207295695e+00 2.6677794608e+00 4.6207295695e+00 
44300 5.6362370944e+00 7.6034711753e-03 2.6676340647e+00 -4.6204777361e+00 2.6676340647e+00 4.6204777361e+00 
44400 5.6360980876e+00 7.4509892262e-03 2.6674915526e+00 -4.6202308979e+00 2.6674915526e+00 4.6202308979e+00 
44500 5.6359625440e+00 7.3003452622e-03 2.6673518910e+00 -4.6199889968e+00 2.6673518910e+00 4.6199889968e+00 
44600 5.6358303721e+00 7.1515640967e-03 2.6672150458e+00 -4.6197519741e+00 2.6672150458e+00 4.6197519741e+00 
44700 5.6357014822e+00 7.0046681961e-03 2.6670809827e+00 -4.6195197699e+00 2.6670809827e+00 4.6195197699e+00 
44800 5.6355757862e+00 6.8596777507e-03 2.6669496666e+00 -4.6192923239e+00 2.6669496666e+00 4.6192923239e+00 
44900 5.6354531983e+00 6.7166107446e-03 2.6668210624e+00 -4.6190695747e+00 2.6668210624e+00 4.6190695747e+00 
45000 5.6353336341e+00 6.5754830258e-03 2.6666951342e+00 -4.6188514607e+00 2.6666951342e+00 4.6188514607e+00 
45100 5.6352170117e+00 6.4363083758e-03 2.6665718462e+00 -4.6186379196e+00 2.6665718462e+00 4.6186379196e+00 
45200 5.6351032509e+00 6.2990985781e-03 2.6664511620e+00 -4.6184288885e+00 2.6664511620e+00 4.6184288885e+00 
45300 5.6349922734e+00 6.1638634871e-03 2.6663330452e+00 -4.6182243042e+00 2.6663330452e+00 4.6182243042e+00 
45400 5.6348840032e+00 6.0306110957e-03 2.6662174592e+00 -4.6180241033e+00 2.6662174592e+00 4.6180241033e+00 
45500 5.6347783661e+00 5.8993476022e-03 2.6661043670e+00 -4.6178282218e+00 2.6661043670e+00 4.6178282218e+00 
45600 5.6346752900e+00 5.7700774769e-03 2.6659937316e+00 -4.6176365958e+00 2.6659937316e+00 4.6176365958e+00 
45700 5.6345747048e+00 5.6428035272e-03 2.6658855161e+00 -4.6174491610e+00 2.6658855161e+00 4.6174491610e+00 
45800 5.6344765425e+00 5.5175269627e-03 2.6657796832e+00 -4.6172658531e+00 2.6657796832e+00 4.6172658531e+00 
45900 5.6343807369e+00 5.3942474584e-03 2.6656761958e+00 -4.6170866077e+00 2.6656761958e+00 4.6170866077e+00 
46000 5.6342872240e+00 5.2729632181e-03 2.6655750168e+00 -4.6169113604e+00 2.6655750168e+00 4.6169113604e+00 
46100 5.6341959416e+00 5.1536710357e-03 2.6654761088e+00 -4.6167400468e+00 2.6654761088e+00 4.6167400468e+00 
46200 5.6341068295e+00 5.0363663561e-03 2.6653794349e+00 -4.6165726027e+00 2.6653794349e+00 4.6165726027e+00 
46300 5.6340198294e+00 4.9210433353e-03 2.6652849580e+00 -4.6164089639e+00 2.6652849580e+00 4.6164089639e+00 
46400 5.6339348848e+00 4.8076948987e-03 2.6651926411e+00 -4.6162490664e+00 2.6651926411e+00 4.6162490664e+00 
46500 5.6338519410e+00 4.6963127990e-03 2.6651024475e+00 -4.6160928465e+00 2.6651024475e+00 4.6160928465e+00 
46600 5.6337709452e+00 4.5868876725e-03 2.6650143404e+00 -4.6159402406e+00 2.6650143404e+00 4.6159402406e+00 
46700 5.6336918465e+00 4.4794090949e-03 2.6649282834e+00 -4.6157911854e+00 2.6649282834e+00 4.6157911854e+00 
46800 5.6336145953e+00 4.3738656350e-03 2.6648442402e+00 -4.6156456182e+00 2.6648442402e+00 4.6156456182e+00 
46900 5.6335391440e+00 4.2702449081e-03 2.6647621745e+00 -4.6155034764e+00 2.6647621745e+00 4.6155034764e+00 
47000 5.6334654466e+00 4.1685336280e-03 2.6646820506e+00 -4.6153646977e+00 2.6646820506e+00 4.6153646977e+00 
47100 5.6333934585e+00 4.0687176573e-03 2.6646038328e+00 -4.6152292204e+00 2.6646038328e+00 4.6152292204e+00 
47200 5.6333231368e+00 3.9707820575e-03 2.6645274856e+00 -4.6150969833e+00 2.6645274856e+00 4.6150969833e+00 
47300 5.6332544401e+00 3.8747111370e-03 2.6644529740e+00 -4.6149679254e+00 2.6644529740e+00 4.6149679254e+00 
47400 5.6331873283e+00 3.7804884980e-03 2.6643802632e+00 -4.6148419865e+00 2.6643802632e+00 4.6148419865e+00 
47500 5.6331217628e+00 3.6880970828e-03 2.6643093185e+00 -4.6147191067e+00 2.6643093185e+00 4.6147191067e+00 
47600 5.6330577064e+00 3.5975192183e-03 2.6642401058e+00 -4.6145992268e+00 2.6642401058e+00 4.6145992268e+00 
47700 5.6329951231e+00 3.5087366592e-03 2.6641725912e+00 -4.6144822880e+00 2.6641725912e+00 4.6144822880e+00 
47800 5.6329339782e+00 3.4217306305e-03 2.6641067410e+00 -4.6143682323e+00 2.6641067410e+00 4.6143682323e+00 
47900 5.6328742381e+00 3.3364818685e-03 2.6640425222e+00 -4.6142570020e+00 2.6640425222e+00 4.6142570020e+00 
48000 5.6328158705e+00 3.2529706599e-03 2.6639799018e+00 -4.6141485402e+00 2.6639799018e+00 4.6141485402e+00 
48100 5.6327588443e+00 3.1711768811e-03 2.6639188473e+00 -4.6140427908e+00 2.6639188473e+00 4.6140427908e+00 
48200 5.6327031291e+00 3.0910800350e-03 2.6638593266e+00 -4.6139396979e+00 2.6638593266e+00 4.6139396979e+00 
48300 5.6326486960e+00 3.0126592871e-03 2.6638013080e+00 -4.6138392067e+00 2.6638013080e+00 4.6138392067e+00 
48400 5.6325955168e+00 2.9358935001e-03 2.6637447601e+00 -4.6137412629e+00 2.6637447601e+00 4.6137412629e+00 
48500 5.6325435642e+00 2.8607612679e-03 2.6636896519e+00 -4.6136458127e+00 2.6636896519e+00 4.6136458127e+00 
48600 5.6324928119e+00 2.7872409476e-03 2.6636359528e+00 -4.6135528032e+00 2.6636359528e+00 4.6135528032e+00 
48700 5.6324432345e+00 2.7153106909e-03 2.6635836328e+00 -4.6134621822e+00 2.6635836328e+00 4.6134621822e+00 
48800 5.6323948073e+00 2.6449484737e-03 2.6635326619e+00 -4.6133738981e+00 2.6635326619e+00 4.6133738981e+00 
48900 5.6323475066e+00 2.5761321254e-03 2.6634830110e+00 -4.6132879001e+00 2.6634830110e+00 4.6132879001e+00 
49000 5.6323013091e+00 2.5088393562e-03 2.6634346509e+00 -4.6132041380e+00 2.6634346509e+00 4.6132041380e+00 
49100 5.6322561925e+00 2.4430477832e-03 2.6633875532e+00 -4.6131225624e+00 2.6633875532e+00 4.6131225624e+00 
49200 5.6322121351e+00 2.3787349566e-03 2.6633416898e+00 -4.6130431246e+00 2.6633416898e+00 4.6130431246e+00 
49300 5.6321691158e+00 2.3158783830e-03 2.6632970330e+00 -4.6129657767e+00 2.6632970330e+00 4.6129657767e+00 
49400 5.6321271141e+00 2.2544555488e-03 2.6632535554e+00 -4.6128904714e+00 2.6632535554e+00 4.6128904714e+00 
49500 5.6320861100e+00 2.1944439423e-03 2.6632112303e+00 -4.6128171622e+00 2.6632112303e+00 4.6128171622e+00 
49600 5.6320460844e+00 2.1358210741e-03 2.6631700312e+00 -4.6127458033e+00 2.6631700312e+00 4.6127458033e+00 
49700 5.6320070182e+00 2.0785644974e-03 2.6631299321e+00 -4.6126763495e+00 2.6631299321e+00 4.6126763495e+00 
49800 5.6319688932e+00 2.0226518265e-03 2.6630909073e+00 -4.6126087567e+00 2.6630909073e+00 4.6126087567e+00 
49900 5.6319316915e+00 1.9680607545e-03 2.6630529318e+00 -4.6125429811e+00 2.6630529318e+00 4.6125429811e+00 
50000 5.6318953957e+00 1.9147690701e-03 2.6630159807e+00 -4.6124789799e+00 2.6630159807e+00 4.6124789799e+00 
50100 5.6318599887e+00 1.8627546734e-03 2.6629800296e+00 -4.6124167108e+00 2.6629800296e+00 4.6124167108e+00 
50200 5.6318254540e+00 1.8119955907e-03 2.6629450547e+00 -4.6123561325e+00 2.6629450547e+00 4.6123561325e+00 
50300 5.6317917753e+00 1.7624699879e-03 2.6629110324e+00 -4.6122972041e+00 2.6629110324e+00 4.6122972041e+00 
50400 5.6317589367e+00 1.7141561842e-03 2.6628779395e+00 -4.6122398856e+00 2.6628779395e+00 4.6122398856e+00 
50500 5.6317269227e+00 1.6670326635e-03 2.6628457534e+00 -4.6121841376e+00 2.6628457534e+00 4.6121841376e+00 
50600 5.6316957181e+00 1.6210780859e-03 2.6628144518e+00 -4.6121299216e+00 2.6628144518e+00 4.6121299216e+00 
50700 5.6316653078e+00 1.5762712981e-03 2.6627840126e+00 -4.6120771995e+00 2.6627840126e+00 4.6120771995e+00 
50800 5.6316356773e+00 1.5325913425e-03 2.6627544145e+00 -4.6120259340e+00 2.6627544145e+00 4.6120259340e+00 
50900 5.6316068123e+00 1.4900174665e-03 2.6627256362e+00 -4.6119760886e+00 2.6627256362e+00 4.6119760886e+00 
51000 5.6315786985e+00 1.4485291301e-03 2.6626976571e+00 -4.6119276273e+00 2.6626976571e+00 4.6119276273e+00 
51100 5.6315513221e+00 1.4081060133e-03 2.6626704568e+00 -4.6118805149e+00 2.6626704568e+00 4.6118805149e+00 
51200 5.6315246696e+00 1.3687280225e-03 2.6626440152e+00 -4.6118347168e+00 2.6626440152e+00 4.6118347168e+00 
51300 5.6314987274e+00 1.3303752966e-03 2.6626183128e+00 -4.6117901990e+00 2.6626183128e+00 4.6117901990e+00 
51400 5.6314734823e+00 1.2930282119e-03 2.6625933304e+00 -4.6117469281e+00 2.6625933304e+00 4.6117469281e+00 
51500 5.6314489215e+00 1.2566673870e-03 2.6625690491e+00 -4.6117048716e+00 2.6625690491e+00 4.6117048716e+00 
51600 5.6314250320e+00 1.2212736863e-03 2.6625454503e+00 -4.6116639974e+00 2.6625454503e+00 4.6116639974e+00 
51700 5.6314018012e+00 1.1868282238e-03 2.6625225160e+00 -4.6116242740e+00 2.6625225160e+00 4.6116242740e+00 
51800 5.6313792167e+00 1.1533123658e-03 2.6625002284e+00 -4.6115856707e+00 2.6625002284e+00 4.6115856707e+00 
51900 5.6313572662e+00 1.1207077333e-03 2.6624785700e+00 -4.6115481573e+00 2.6624785700e+00 4.6115481573e+00 
52000 5.6313359375e+00 1.0889962034e-03 2.6624575237e+00 -4.6115117040e+00 2.6624575237e+00 4.6115117040e+00 
52100 5.6313152188e+00 1.0581599114e-03 2.6624370727e+00 -4.6114762819e+00 2.6624370727e+00 4.6114762819e+00 
52200 5.6312950982e+00 1.0281812507e-03 2.6624172007e+00 -4.6114418626e+00 2.6624172007e+00 4.6114418626e+00 
52300 5.6312755641e+00 9.9904287430e-04 2.6623978916e+00 -4.6114084182e+00 2.6623978916e+00 4.6114084182e+00 
52400 5.6312566049e+00 9.7072769400e-04 2.6623791295e+00 -4.6113759214e+00 2.6623791295e+00 4.6113759214e+00 
52500 5.6312382092e+00 9.4321888061e-04 2.6623608991e+00 -4.6113443453e+00 2.6623608991e+00 4.6113443453e+00 
52600 5.6312203658e+00 9.1649986309e-04 2.6623431852e+00 -4.6113136639e+00 2.6623431852e+00 4.6113136639e+00 
52700 5.6312030637e+00 8.9055432760e-04 2.6623259729e+00 -4.6112838514e+00 2.6623259729e+00 4.6112838514e+00 
52800 5.6311862917e+00 8.6536621614e-04 2.6623092478e+00 -4.6112548827e+00 2.6623092478e+00 4.6112548827e+00 
52900 5.6311700392e+00 8.4091972507e-04 2.6622929956e+00 -4.6112267331e+00 2.6622929956e+00 4.6112267331e+00 
53000 5.6311542952e+00 8.1719930313e-04 2.6622772025e+00 -4.6111993786e+00 2.6622772025e+00 4.6111993786e+00 
53100 5.6311390493e+00 7.9418964945e-04 2.6622618548e+00 -4.6111727955e+00 2.6622618548e+00 4.6111727955e+00 
53200 5.6311242910e+00 7.7187571116e-04 2.6622469391e+00 -4.6111469608e+00 2.6622469391e+00 4.6111469608e+00 
53300 5.6311100099e+00 7.5024268093e-04 2.6622324424e+00 -4.6111218518e+00 2.6622324424e+00 4.6111218518e+00 
53400 5.6310961958e+00 7.2927599418e-04 2.6622183520e+00 -4.6110974464e+00 2.6622183520e+00 4.6110974464e+00 
53500 5.6310828385e+00 7.0896132628e-04 2.6622046552e+00 -4.6110737229e+00 2.6622046552e+00 4.6110737229e+00 
53600 5.6310699281e+00 6.8928458949e-04 2.6621913399e+00 -4.6110506602e+00 2.6621913399e+00 4.6110506602e+00 
53700 5.6310574547e+00 6.7023192979e-04 2.6621783941e+00 -4.6110282374e+00 2.6621783941e+00 4.6110282374e+00 
53800 5.6310454085e+00 6.5178972362e-04 2.6621658061e+00 -4.6110064343e+00 2.6621658061e+00 4.6110064343e+00 
53900 5.6310337799e+00 6.3394457453e-04 2.6621535644e+00 -4.6109852310e+00 2.6621535644e+00 4.6109852310e+00 
54000 5.6310225594e+00 6.1668330967e-04 2.6621416578e+00 -4.6109646082e+00 2.6621416578e+00 4.6109646082e+00 
54100 5.6310117376e+00 5.9999297628e-04 2.6621300753e+00 -4.6109445468e+00 2.6621300753e+00 4.6109445468e+00 
54200 5.6310013052e+00 5.8386083809e-04 2.6621188063e+00 -4.6109250282e+00 2.6621188063e+00 4.6109250282e+00 
54300 5.6309912531e+00 5.6827437170e-04 2.6621078402e+00 -4.6109060344e+00 2.6621078402e+00 4.6109060344e+00 
54400 5.6309815722e+00 5.5322126288e-04 2.6620971668e+00 -4.6108875476e+00 2.6620971668e+00 4.6108875476e+00 
54500 5.6309722535e+00 5.3868940292e-04 2.6620867761e+00 -4.6108695504e+00 2.6620867761e+00 4.6108695504e+00 
54600 5.6309632884e+00 5.2466688486e-04 2.6620766583e+00 -4.6108520258e+00 2.6620766583e+00 4.6108520258e+00 
54700 5.6309546681e+00 5.1114199985e-04 2.6620668038e+00 -4.6108349574e+00 2.6620668038e+00 4.6108349574e+00 
54800 5.6309463840e+00 4.9810323342e-04 2.6620572034e+00 -4.6108183289e+00 2.6620572034e+00 4.6108183289e+00 
54900 5.6309384278e+00 4.8553926180e-04 2.6620478478e+00 -4.6108021245e+00 2.6620478478e+00 4.6108021245e+00 
55000 5.6309307911e+00 4.7343894830e-04 2.6620387281e+00 -4.6107863288e+00 2.6620387281e+00 4.6107863288e+00 
55100 5.6309234657e+00 4.6179133965e-04 2.6620298357e+00 -4.6107709267e+00 2.6620298357e+00 4.6107709267e+00 
55200 5.6309164436e+00 4.5058566248e-04 2.6620211620e+00 -4.6107559035e+00 2.6620211620e+00 4.6107559035e+00 
55300 5.6309097168e+00 4.3981131972e-04 2.6620126988e+00 -4.6107412448e+00 2.6620126988e+00 4.6107412448e+00 
55400 5.6309032776e+00 4.2945788720e-04 2.6620044380e+00 -4.6107269365e+00 2.6620044380e+00 4.6107269365e+00 
55500 5.6308971181e+00 4.1951511019e-04 2.6619963715e+00 -4.6107129650e+00 2.6619963715e+00 4.6107129650e+00 
55600 5.6308912309e+00 4.0997290008e-04 2.6619884918e+00 -4.6106993170e+00 2.6619884918e+00 4.6106993170e+00 
55700 5.6308856085e+00 4.0082133110e-04 2.6619807913e+00 -4.6106859793e+00 2.6619807913e+00 4.6106859793e+00 
55800 5.6308802436e+00 3.9205063711e-04 2.6619732627e+00 -4.6106729394e+00 2.6619732627e+00 4.6106729394e+00 
55900 5.6308751290e+00 3.8365120845e-04 2.6619658988e+00 -4.6106601847e+00 2.6619658988e+00 4.6106601847e+00 
56000 5.6308702577e+00 3.7561358897e-04 2.6619586926e+00 -4.6106477033e+00 2.6619586926e+00 4.6106477033e+00 
56100 5.6308656226e+00 3.6792847300e-04 2.6619516374e+00 -4.6106354833e+00 2.6619516374e+00 4.6106354833e+00 
56200 5.6308612170e+00 3.6058670249e-04 2.6619447265e+00 -4.6106235133e+00 2.6619447265e+00 4.6106235133e+00 
56300 5.6308570341e+00 3.5357926426e-04 2.6619379536e+00 -4.6106117821e+00 2.6619379536e+00 4.6106117821e+00 
56400 5.6308530675e+00 3.4689728724e-04 2.6619313122e+00 -4.6106002789e+00 2.6619313122e+00 4.6106002789e+00 
56500 5.6308493106e+00 3.4053203995e-04 2.6619247963e+00 -4.6105889931e+00 2.6619247963e+00 4.6105889931e+00 
56600 5.6308457572e+00 3.3447492789e-04 2.6619183999e+00 -4.6105779143e+00 2.6619183999e+00 4.6105779143e+00 
56700 5.6308424010e+00 3.2871749120e-04 2.6619121173e+00 -4.6105670325e+00 2.6619121173e+00 4.6105670325e+00 
56800 5.6308392359e+00 3.2325140227e-04 2.6619059429e+00 -4.6105563380e+00 2.6619059429e+00 4.6105563380e+00 
56900 5.6308362561e+00 3.1806846355e-04 2.6618998711e+00 -4.6105458214e+00 2.6618998711e+00 4.6105458214e+00 
57000 5.6308334557e+00 3.1316060538e-04 2.6618938966e+00 -4.6105354733e+00 2.6618938966e+00 4.6105354733e+00 
57100 5.6308308290e+00 3.0851988391e-04 2.6618880143e+00 -4.6105252849e+00 2.6618880143e+00 4.6105252849e+00 
57200 5.6308283704e+00 3.0413847922e-04 2.6618822192e+00 -4.6105152474e+00 2.6618822192e+00 4.6105152474e+00 
57300 5.6308260744e+00 3.0000869334e-04 2.6618765064e+00 -4.6105053525e+00 2.6618765064e+00 4.6105053525e+00 
57400 5.6308239357e+00 2.9612294853e-04 2.6618708711e+00 -4.6104955919e+00 2.6618708711e+00 4.6104955919e+00 
57500 5.6308219490e+00 2.9247378558e-04 2.6618653088e+00 -4.6104859577e+00 2.6618653088e+00 4.6104859577e+00 
57600 5.6308201093e+00 2.8905386217e-04 2.6618598150e+00 -4.6104764422e+00 2.6618598150e+00 4.6104764422e+00 
57700 5.6308184116e+00 2.8585595133e-04 2.6618543854e+00 -4.6104670379e+00 2.6618543854e+00 4.6104670379e+00 
57800 5.6308168509e+00 2.8287294003e-04 2.6618490160e+00 -4.6104577377e+00 2.6618490160e+00 4.6104577377e+00 
57900 5.6308154225e+00 2.8009782776e-04 2.6618437025e+00 -4.6104485345e+00 2.6618437025e+00 4.6104485345e+00 
58000 5.6308141217e+00 2.7752372527e-04 2.6618384411e+00 -4.6104394216e+00 2.6618384411e+00 4.6104394216e+00 
58100 5.6308129441e+00 2.7514385331e-04 2.6618332281e+00 -4.6104303924e+00 2.6618332281e+00 4.6104303924e+00 
58200 5.6308118852e+00 2.7295154153e-04 2.6618280598e+00 -4.6104214406e+00 2.6618280598e+00 4.6104214406e+00 
58300 5.6308109406e+00 2.7094022732e-04 2.6618229327e+00 -4.6104125602e+00 2.6618229327e+00 4.6104125602e+00 
58400 5.6308101061e+00 2.6910345488e-04 2.6618178433e+00 -4.6104037451e+00 2.6618178433e+00 4.6104037451e+00 
58500 5.6308093777e+00 2.6743487418e-04 2.6618127884e+00 -4.6103949898e+00 2.6618127884e+00 4.6103949898e+00 
58600 5.6308087513e+00 2.6592824013e-04 2.6618077649e+00 -4.6103862888e+00 2.6618077649e+00 4.6103862888e+00 
58700 5.6308082230e+00 2.6457741173e-04 2.6618027696e+00 -4.6103776367e+00 2.6618027696e+00 4.6103776367e+00 
58800 5.6308077891e+00 2.6337635123e-04 2.6617977997e+00 -4.6103690286e+00 2.6617977997e+00 4.6103690286e+00 
58900 5.6308074458e+00 2.6231912348e-04 2.6617928524e+00 -4.6103604596e+00 2.6617928524e+00 4.6103604596e+00 
59000 5.6308071895e+00 2.6139989520e-04 2.6617879249e+00 -4.6103519249e+00 2.6617879249e+00 4.6103519249e+00 
59100 5.6308070168e+00 2.6061293433e-04 2.6617830147e+00 -4.6103434202e+00 2.6617830147e+00 4.6103434202e+00 
59200 5.6308069242e+00 2.5995260947e-04 2.6617781192e+00 -4.6103349410e+00 2.6617781192e+00 4.6103349410e+00 
59300 5.6308069085e+00 2.5941338930e-04 2.6617732362e+00 -4.6103264833e+00 2.6617732362e+00 4.6103264833e+00 
59400 5.6308069664e+00 2.5898984204e-04 2.6617683632e+00 -4.6103180431e+00 2.6617683632e+00 4.6103180431e+00 
59500 5.6308070947e+00 2.5867663502e-04 2.6617634982e+00 -4.6103096167e+00 2.6617634982e+00 4.6103096167e+00 
59600 5.6308072905e+00 2.5846853416e-04 2.6617586391e+00 -4.6103012004e+00 2.6617586391e+00 4.6103012004e+00 
59700 5.6308075508e+00 2.5836040356e-04 2.6617537839e+00 -4.6102927909e+00 2.6617537839e+00 4.6102927909e+00 
59800 5.6308078727e+00 2.5834720511e-04 2.6617489307e+00 -4.6102843850e+00 2.6617489307e+00 4.6102843850e+00 
59900 5.6308082535e+00 2.5842399809e-04 2.6617440777e+00 -4.6102759794e+00 2.6617440777e+00 4.6102759794e+00 
60000 5.6308086905e+00 2.5858593880e-04 2.6617392233e+00 -4.6102675713e+00 2.6617392233e+00 4.6102675713e+00 
60100 5.6308091810e+00 2.5882828022e-04 2.6617343659e+00 -4.6102591579e+00 2.6617343659e+00 4.6102591579e+00 
60200 5.6308097225e+00 2.5914637166e-04 2.6617295038e+00 -4.6102507367e+00 2.6617295038e+00 4.6102507367e+00 
60300 5.6308103126e+00 2.5953565845e-04 2.6617246358e+00 -4.6102423050e+00 2.6617246358e+00 4.6102423050e+00 
60400 5.6308109489e+00 2.5999168161e-04 2.6617197605e+00 -4.6102338607e+00 2.6617197605e+00 4.6102338607e+00 
60500 5.6308116291e+00 2.6051007753e-04 2.6617148766e+00 -4.6102254015e+00 2.6617148766e+00 4.6102254015e+00 
60600 5.6308123509e+00 2.6108657770e-04 2.6617099830e+00 -4.6102169255e+00 2.6617099830e+00 4.6102169255e+00 
60700 5.6308131122e+00 2.6171700833e-04 2.6617050785e+00 -4.6102084307e+00 2.6617050785e+00 4.6102084307e+00 
60800 5.6308139108e+00 2.6239729011e-04 2.6617001621e+00 -4.6101999153e+00 2.6617001621e+00 4.6101999153e+00 
60900 5.6308147449e+00 2.6312343787e-04 2.6616952330e+00 -4.6101913778e+00 2.6616952330e+00 4.6101913778e+00 
61000 5.6308156124e+00 2.6389156026e-04 2.6616902902e+00 -4.6101828167e+00 2.6616902902e+00 4.6101828167e+00 
61100 5.6308165114e+00 2.6469785941e-04 2.6616853330e+00 -4.6101742305e+00 2.6616853330e+00 4.6101742305e+00 
61200 5.6308174400e+00 2.6553863064e-04 2.6616803606e+00 -4.6101656181e+00 2.6616803606e+00 4.6101656181e+00 
61300 5.6308183967e+00 2.6641026205e-04 2.6616753725e+00 -4.6101569784e+00 2.6616753725e+00 4.6101569784e+00 
61400 5.6308193795e+00 2.6730923421e-04 2.6616703679e+00 -4.6101483102e+00 2.6616703679e+00 4.6101483102e+00 
61500 5.6308203869e+00 2.6823211977e-04 2.6616653464e+00 -4.6101396128e+00 2.6616653464e+00 4.6101396128e+00 
61600 5.6308214173e+00 2.6917558307e-04 2.6616603076e+00 -4.6101308853e+00 2.6616603076e+00 4.6101308853e+00 
61700 5.6308224691e+00 2.7013637973e-04 2.6616552511e+00 -4.6101221272e+00 2.6616552511e+00 4.6101221272e+00 
61800 5.6308235409e+00 2.7111135622e-04 2.6616501765e+00 -4.6101133377e+00 2.6616501765e+00 4.6101133377e+00 
61900 5.6308246313e+00 2.7209744943e-04 2.6616450836e+00 -4.6101045165e+00 2.6616450836e+00 4.6101045165e+00 
62000 5.6308257388e+00 2.7309168619e-04 2.6616399722e+00 -4.6100956632e+00 2.6616399722e+00 4.6100956632e+00 
62100 5.6308268621e+00 2.7409118277e-04 2.6616348420e+00 -4.6100867776e+00 2.6616348420e+00 4.6100867776e+00 
62200 5.6308280001e+00 2.7509314439e-04 2.6616296931e+00 -4.6100778594e+00 2.6616296931e+00 4.6100778594e+00 
62300 5.6308291513e+00 2.7609486468e-04 2.6616245253e+00 -4.6100689086e+00 2.6616245253e+00 4.6100689086e+00 
62400 5.6308303147e+00 2.7709372509e-04 2.6616193388e+00 -4.6100599251e+00 2.6616193388e+00 4.6100599251e+00 
62500 5.6308314891e+00 2.7808719435e-04 2.6616141334e+00 -4.6100509092e+00 2.6616141334e+00 4.6100509092e+00 
62600 5.6308326734e+00 2.7907282780e-04 2.6616089094e+00 -4.6100418609e+00 2.6616089094e+00 4.6100418609e+00 
62700 5.6308338666e+00 2.8004826680e-04 2.6616036668e+00 -4.6100327805e+00 2.6616036668e+00 4.6100327805e+00 
62800 5.6308350676e+00 2.8101123803e-04 2.6615984059e+00 -4.6100236684e+00 2.6615984059e+00 4.6100236684e+00 
62900 5.6308362755e+00 2.8195955281e-04 2.6615931269e+00 -4.6100145249e+00 2.6615931269e+00 4.6100145249e+00 
63000 5.6308374894e+00 2.8289110638e-04 2.6615878301e+00 -4.6100053505e+00 2.6615878301e+00 4.6100053505e+00 
63100 5.6308387082e+00 2.8380387713e-04 2.6615825158e+00 -4.6099961459e+00 2.6615825158e+00 4.6099961459e+00 
63200 5.6308399313e+00 2.8469592586e-04 2.6615771843e+00 -4.6099869115e+00 2.6615771843e+00 4.6099869115e+00 
63300 5.6308411577e+00 2.8556539493e-04 2.6615718360e+00 -4.6099776480e+00 2.6615718360e+00 4.6099776480e+00 
63400 5.6308423867e+00 2.8641050744e-04 2.6615664714e+00 -4.6099683563e+00 2.6615664714e+00 4.6099683563e+00 
63500 5.6308436175e+00 2.8722956638e-04 2.6615610910e+00 -4.6099590370e+00 2.6615610910e+00 4.6099590370e+00 
63600 5.6308448494e+00 2.8802095375e-04 2.6615556951e+00 -4.6099496910e+00 2.6615556951e+00 4.6099496910e+00 
63700 5.6308460817e+00 2.8878312960e-04 2.6615502843e+00 -4.6099403193e+00 2.6615502843e+00 4.6099403193e+00 
63800 5.6308473137e+00 2.8951463112e-04 2.6615448592e+00 -4.6099309228e+00 2.6615448592e+00 4.6099309228e+00 
63900 5.6308485448e+00 2.9021407165e-04 2.6615394204e+00 -4.6099215024e+00 2.6615394204e+00 4.6099215024e+00 
64000 5.6308497743e+00 2.9088013973e-04 2.6615339684e+00 -4.6099120593e+00 2.6615339684e+00 4.6099120593e+00 
64100 5.6308510018e+00 2.9151159798e-04 2.6615285039e+00 -4.6099025945e+00 2.6615285039e+00 4.6099025945e+00 
64200 5.6308522266e+00 2.9210728217e-04 2.6615230275e+00 -4.6098931091e+00 2.6615230275e+00 4.6098931091e+00 
64300 5.6308534482e+00 2.9266610005e-04 2.6615175399e+00 -4.6098836043e+00 2.6615175399e+00 4.6098836043e+00 
64400 5.6308546662e+00 2.9318703030e-04 2.6615120418e+00 -4.6098740813e+00 2.6615120418e+00 4.6098740813e+00 
64500 5.6308558800e+00 2.9366912141e-04 2.6615065339e+00 -4.6098645413e+00 2.6615065339e+00 4.6098645413e+00 
64600 5.6308570892e+00 2.9411149053e-04 2.6615010169e+00 -4.6098549857e+00 2.6615010169e+00 4.6098549857e+00 
64700 5.6308582933e+00 2.9451332230e-04 2.6614954916e+00 -4.6098454156e+00 2.6614954916e+00 4.6098454156e+00 
64800 5.6308594919e+00 2.9487386766e-04 2.6614899588e+00 -4.6098358324e+00 2.6614899588e+00 4.6098358324e+00 
64900 5.6308606847e+00 2.9519244268e-04 2.6614844191e+00 -4.6098262375e+00 2.6614844191e+00 4.6098262375e+00 
65000 5.6308618713e+00 2.9546842729e-04 2.6614788735e+00 -4.6098166321e+00 2.6614788735e+00 4.6098166321e+00 
65100 5.6308630513e+00 2.9570126407e-04 2.6614733227e+00 -4.6098070178e+00 2.6614733227e+00 4.6098070178e+00 
65200 5.6308642244e+00 2.9589045698e-04 2.6614677674e+00 -4.6097973959e+00 2.6614677674e+00 4.6097973959e+00 
65300 5.6308653902e+00 2.9603557008e-04 2.6614622087e+00 -4.6097877678e+00 2.6614622087e+00 4.6097877678e+00 
65400 5.6308665485e+00 2.9613622626e-04 2.6614566471e+00 -4.6097781350e+00 2.6614566471e+00 4.6097781350e+00 
65500 5.6308676991e+00 2.9619210590e-04 2.6614510837e+00 -4.6097684989e+00 2.6614510837e+00 4.6097684989e+00 
65600 5.6308688415e+00 2.9620294559e-04 2.6614455192e+00 -4.6097588609e+00 2.6614455192e+00 4.6097588609e+00 
65700 5.6308699756e+00 2.9616853678e-04 2.6614399545e+00 -4.6097492225e+00 2.6614399545e+00 4.6097492225e+00 
65800 5.6308711012e+00 2.9608872442e-04 2.6614343905e+00 -4.6097395853e+00 2.6614343905e+00 4.6097395853e+00 
65900 5.6308722180e+00 2.9596340567e-04 2.6614288279e+00 -4.6097299506e+00 2.6614288279e+00 4.6097299506e+00 
66000 5.6308733259e+00 2.9579252847e-04 2.6614232677e+00 -4.6097203200e+00 2.6614232677e+00 4.6097203200e+00 
66100 5.6308744245e+00 2.9557609024e-04 2.6614177106e+00 -4.6097106950e+00 2.6614177106e+00 4.6097106950e+00 
66200 5.6308755139e+00 2.9531413645e-04 2.6614121576e+00 -4.6097010769e+00 2.6614121576e+00 4.6097010769e+00 
66300 5.6308765937e+00 2.9500675927e-04 2.6614066096e+00 -4.6096914674e+00 2.6614066096e+00 4.6096914674e+00 
66400 5.6308776638e+00 2.9465409619e-04 2.6614010673e+00 -4.6096818678e+00 2.6614010673e+00 4.6096818678e+00 
66500 5.6308787242e+00 2.9425632862e-04 2.6613955316e+00 -4.6096722797e+00 2.6613955316e+00 4.6096722797e+00 
66600 5.6308797746e+00 2.9381368052e-04 2.6613900033e+00 -4.6096627045e+00 2.6613900033e+00 4.6096627045e+00 
66700 5.6308808150e+00 2.9332641699e-04 2.6613844834e+00 -4.6096531438e+00 2.6613844834e+00 4.6096531438e+00 
66800 5.6308818452e+00 2.9279484290e-04 2.6613789726e+00 -4.6096435988e+00 2.6613789726e+00 4.6096435988e+00 
66900 5.6308828651e+00 2.9221930149e-04 2.6613734718e+00 -4.6096340711e+00 2.6613734718e+00 4.6096340711e+00 
67000 5.6308838747e+00 2.9160017302e-04 2.6613679818e+00 -4.6096245621e+00 2.6613679818e+00 4.6096245621e+00 
67100 5.6308848739e+00 2.9093787331e-04 2.6613625034e+00 -4.6096150733e+00 2.6613625034e+00 4.6096150733e+00 
67200 5.6308858625e+00 2.9023285245e-04 2.6613570375e+00 -4.6096056060e+00 2.6613570375e+00 4.6096056060e+00 
67300 5.6308868406e+00 2.8948559339e-04 2.6613515848e+00 -4.6095961616e+00 2.6613515848e+00 4.6095961616e+00 
67400 5.6308878081e+00 2.8869661056e-04 2.6613461461e+00 -4.6095867415e+00 2.6613461461e+00 4.6095867415e+00 
67500 5.6308887649e+00 2.8786644856e-04 2.6613407222e+00 -4.6095773471e+00 2.6613407222e+00 4.6095773471e+00 
67600 5.6308897110e+00 2.8699568075e-04 2.6613353139e+00 -4.6095679796e+00 2.6613353139e+00 4.6095679796e+00 
67700 5.6308906464e+00 2.8608490796e-04 2.6613299219e+00 -4.6095586405e+00 2.6613299219e+00 4.6095586405e+00 
67800 5.6308915710e+00 2.8513475716e-04 2.6613245471e+00 -4.6095493310e+00 2.6613245471e+00 4.6095493310e+00 
67900 5.6308924848e+00 2.8414588010e-04 2.6613191901e+00 -4.6095400524e+00 2.6613191901e+00 4.6095400524e+00 
68000 5.6308933878e+00 2.8311895205e-04 2.6613138516e+00 -4.6095308059e+00 2.6613138516e+00 4.6095308059e+00 
68100 5.6308942800e+00 2.8205467049e-04 2.6613085325e+00 -4.6095215929e+00 2.6613085325e+00 4.6095215929e+00 
68200 5.6308951614e+00 2.8095375383e-04 2.6613032333e+00 -4.6095124145e+00 2.6613032333e+00 4.6095124145e+00 
68300 5.6308960321e+00 2.7981694016e-04 2.6612979548e+00 -4.6095032718e+00 2.6612979548e+00 4.6095032718e+00 
68400 5.6308968919e+00 2.7864498599e-04 2.6612926977e+00 -4.6094941662e+00 2.6612926977e+00 4.6094941662e+00 
68500 5.6308977410e+00 2.7743866501e-04 2.6612874625e+00 -4.6094850986e+00 2.6612874625e+00 4.6094850986e+00 
68600 5.6308985793e+00 2.7619876691e-04 2.6612822500e+00 -4.6094760703e+00 2.6612822500e+00 4.6094760703e+00 
68700 5.6308994070e+00 2.7492609616e-04 2.6612770608e+00 -4.6094670824e+00 2.6612770608e+00 4.6094670824e+00 
68800 5.6309002239e+00 2.7362147081e-04 2.6612718955e+00 -4.6094581358e+00 2.6612718955e+00 4.6094581358e+00 
68900 5.6309010302e+00 2.7228572139e-04 2.6612667547e+00 -4.6094492317e+00 2.6612667547e+00 4.6094492317e+00 
69000 5.6309018258e+00 2.7091968971e-04 2.6612616390e+00 -4.6094403710e+00 2.6612616390e+00 4.6094403710e+00 
69100 5.6309026109e+00 2.6952422780e-04 2.6612565490e+00 -4.6094315548e+00 2.6612565490e+00 4.6094315548e+00 
69200 5.6309033854e+00 2.6810019674e-04 2.6612514851e+00 -4.6094227839e+00 2.6612514851e+00 4.6094227839e+00 
69300 5.6309041495e+00 2.6664846565e-04 2.6612464480e+00 -4.6094140594e+00 2.6612464480e+00 4.6094140594e+00 
69400 5.6309049031e+00 2.6516991061e-04 2.6612414382e+00 -4.6094053821e+00 2.6612414382e+00 4.6094053821e+00 
69500 5.6309056464e+00 2.6366541362e-04 2.6612364561e+00 -4.6093967529e+00 2.6612364561e+00 4.6093967529e+00 
69600 5.6309063793e+00 2.6213586159e-04 2.6612315023e+00 -4.6093881727e+00 2.6612315023e+00 4.6093881727e+00 
69700 5.6309071020e+00 2.6058214538e-04 2.6612265772e+00 -4.6093796422e+00 2.6612265772e+00 4.6093796422e+00 
69800 5.6309078145e+00 2.5900515879e-04 2.6612216813e+00 -4.6093711622e+00 2.6612216813e+00 4.6093711622e+00 
69900 5.6309085169e+00 2.5740579765e-04 2.6612168150e+00 -4.6093627336e+00 2.6612168150e+00 4.6093627336e+00 
70000 5.6309092092e+00 2.5578495893e-04 2.6612119788e+00 -4.6093543569e+00 2.6612119788e+00 4.6093543569e+00 
70100 5.6309098916e+00 2.5414353979e-04 2.6612071730e+00 -4.6093460331e+00 2.6612071730e+00 4.6093460331e+00 
70200 5.6309105640e+00 2.5248243675e-04 2.6612023980e+00 -4.6093377626e+00 2.6612023980e+00 4.6093377626e+00 
70300 5.6309112266e+00 2.5080254483e-04 2.6611976542e+00 -4.6093295461e+00 2.6611976542e+00 4.6093295461e+00 
70400 5.6309118795e+00 2.4910475676e-04 2.6611929420e+00 -4.6093213843e+00 2.6611929420e+00 4.6093213843e+00 
70500 5.6309125226e+00 2.4738996217e-04 2.6611882617e+00 -4.6093132778e+00 2.6611882617e+00 4.6093132778e+00 
70600 5.6309131562e+00 2.4565904680e-04 2.6611836136e+00 -4.6093052270e+00 2.6611836136e+00 4.6093052270e+00 
70700 5.6309137803e+00 2.4391289181e-04 2.6611789980e+00 -4.6092972326e+00 2.6611789980e+00 4.6092972326e+00 
70800 5.6309143949e+00 2.4215237302e-04 2.6611744152e+00 -4.6092892949e+00 2.6611744152e+00 4.6092892949e+00 
70900 5.6309150002e+00 2.4037836023e-04 2.6611698655e+00 -4.6092814146e+00 2.6611698655e+00 4.6092814146e+00 
71000 5.6309155962e+00 2.3859171657e-04 2.6611653491e+00 -4.6092735920e+00 2.6611653491e+00 4.6092735920e+00 
71100 5.6309161831e+00 2.3679329784e-04 2.6611608662e+00 -4.6092658274e+00 2.6611608662e+00 4.6092658274e+00 
71200 5.6309167608e+00 2.3498395190e-04 2.6611564172e+00 -4.6092581214e+00 2.6611564172e+00 4.6092581214e+00 
71300 5.6309173296e+00 2.3316451809e-04 2.6611520021e+00 -4.6092504743e+00 2.6611520021e+00 4.6092504743e+00 
71400 5.6309178895e+00 2.3133582665e-04 2.6611476212e+00 -4.6092428864e+00 2.6611476212e+00 4.6092428864e+00 
71500 5.6309184405e+00 2.2949869819e-04 2.6611432747e+00 -4.6092353580e+00 2.6611432747e+00 4.6092353580e+00 
71600 5.6309189828e+00 2.2765394317e-04 2.6611389626e+00 -4.6092278893e+00 2.6611389626e+00 4.6092278893e+00 
71700 5.6309195165e+00 2.2580236142e-04 2.6611346853e+00 -4.6092204807e+00 2.6611346853e+00 4.6092204807e+00 
71800 5.6309200417e+00 2.2394474165e-04 2.6611304427e+00 -4.6092131323e+00 2.6611304427e+00 4.6092131323e+00 
71900 5.6309205584e+00 2.2208186104e-04 2.6611262350e+00 -4.6092058443e+00 2.6611262350e+00 4.6092058443e+00 
72000 5.6309210668e+00 2.2021448480e-04 2.6611220623e+00 -4.6091986170e+00 2.6611220623e+00 4.6091986170e+00 
72100 5.6309215669e+00 2.1834336578e-04 2.6611179246e+00 -4.6091914504e+00 2.6611179246e+00 4.6091914504e+00 
72200 5.6309220588e+00 2.1646924410e-04 2.6611138222e+00 -4.6091843447e+00 2.6611138222e+00 4.6091843447e+00 
72300 5.6309225427e+00 2.1459284682e-04 2.6611097549e+00 -4.6091773000e+00 2.6611097549e+00 4.6091773000e+00 
72400 5.6309230186e+00 2.1271488757e-04 2.6611057229e+00 -4.6091703164e+00 2.6611057229e+00 4.6091703164e+00 
72500 5.6309234866e+00 2.1083606631e-04 2.6611017262e+00 -4.6091633938e+00 2.6611017262e+00 4.6091633938e+00 
72600 5.6309239468e+00 2.0895706901e-04 2.6610977647e+00 -4.6091565324e+00 2.6610977647e+00 4.6091565324e+00 
72700 5.6309243993e+00 2.0707856739e-04 2.6610938386e+00 -4.6091497321e+00 2.6610938386e+00 4.6091497321e+00 
72800 5.6309248443e+00 2.0520121872e-04 2.6610899477e+00 -4.6091429930e+00 2.6610899477e+00 4.6091429930e+00 
72900 5.6309252817e+00 2.0332566557e-04 2.6610860921e+00 -4.6091363149e+00 2.6610860921e+00 4.6091363149e+00 
73000 5.6309257117e+00 2.0145253561e-04 2.6610822718e+00 -4.6091296978e+00 2.6610822718e+00 4.6091296978e+00 
73100 5.6309261344e+00 1.9958244149e-04 2.6610784866e+00 -4.6091231418e+00 2.6610784866e+00 4.6091231418e+00 
73200 5.6309265499e+00 1.9771598063e-04 2.6610747366e+00 -4.6091166465e+00 2.6610747366e+00 4.6091166465e+00 
73300 5.6309269583e+00 1.9585373511e-04 2.6610710216e+00 -4.6091102120e+00 2.6610710216e+00 4.6091102120e+00 
73400 5.6309273596e+00 1.9399627155e-04 2.6610673416e+00 -4.6091038381e+00 2.6610673416e+00 4.6091038381e+00 
73500 5.6309277540e+00 1.9214414103e-04 2.6610636966e+00 -4.6090975246e+00 2.6610636966e+00 4.6090975246e+00 
73600 5.6309281416e+00 1.9029787899e-04 2.6610600863e+00 -4.6090912714e+00 2.6610600863e+00 4.6090912714e+00 
73700 5.6309285223e+00 1.8845800517e-04 2.6610565107e+00 -4.6090850783e+00 2.6610565107e+00 4.6090850783e+00 
73800 5.6309288965e+00 1.8662502361e-04 2.6610529696e+00 -4.6090789450e+00 2.6610529696e+00 4.6090789450e+00 
73900 5.6309292640e+00 1.8479942256e-04 2.6610494630e+00 -4.6090728714e+00 2.6610494630e+00 4.6090728714e+00 
74000 5.6309296251e+00 1.8298167450e-04 2.6610459907e+00 -4.6090668572e+00 2.6610459907e+00 4.6090668572e+00 
74100 5.6309299798e+00 1.8117223618e-04 2.6610425526e+00 -4.6090609022e+00 2.6610425526e+00 4.6090609022e+00 
74200 5.6309303282e+00 1.7937154857e-04 2.6610391484e+00 -4.6090550060e+00 2.6610391484e+00 4.6090550060e+00 
74300 5.6309306703e+00 1.7758003698e-04 2.6610357781e+00 -4.6090491684e+00 2.6610357781e+00 4.6090491684e+00 
74400 5.6309310064e+00 1.7579811104e-04 2.6610324414e+00 -4.6090433891e+00 2.6610324414e+00 4.6090433891e+00 
74500 5.6309313364e+00 1.7402616480e-04 2.6610291382e+00 -4.6090376678e+00 2.6610291382e+00 4.6090376678e+00 
74600 5.6309316605e+00 1.7226457681e-04 2.6610258683e+00 -4.6090320042e+00 2.6610258683e+00 4.6090320042e+00 
74700 5.6309319787e+00 1.7051371021e-04 2.6610226315e+00 -4.6090263979e+00 2.6610226315e+00 4.6090263979e+00 
74800 5.6309322911e+00 1.6877391282e-04 2.6610194276e+00 -4.6090208486e+00 2.6610194276e+00 4.6090208486e+00 
74900 5.6309325978e+00 1.6704551727e-04 2.6610162564e+00 -4.6090153558e+00 2.6610162564e+00 4.6090153558e+00 
75000 5.6309328990e+00 1.6532884113e-04 2.6610131176e+00 -4.6090099193e+00 2.6610131176e+00 4.6090099193e+00 
75100 5.6309331946e+00 1.6362418705e-04 2.6610100111e+00 -4.6090045387e+00 2.6610100111e+00 4.6090045387e+00 
75200 5.6309334848e+00 1.6193184291e-04 2.6610069367e+00 -4.6089992136e+00 2.6610069367e+00 4.6089992136e+00 
75300 5.6309337696e+00 1.6025208194e-04 2.6610038940e+00 -4.6089939435e+00 2.6610038940e+00 4.6089939435e+00 
75400 5.6309340492e+00 1.5858516297e-04 2.6610008829e+00 -4.6089887281e+00 2.6610008829e+00 4.6089887281e+00 
75500 5.6309343236e+00 1.5693133054e-04 2.6609979031e+00 -4.6089835669e+00 2.6609979031e+00 4.6089835669e+00 
75600 5.6309345928e+00 1.5529081512e-04 2.6609949543e+00 -4.6089784596e+00 2.6609949543e+00 4.6089784596e+00 
75700 5.6309348571e+00 1.5366383329e-04 2.6609920364e+00 -4.6089734056e+00 2.6609920364e+00 4.6089734056e+00 
75800 5.6309351163e+00 1.5205058795e-04 2.6609891491e+00 -4.6089684046e+00 2.6609891491e+00 4.6089684046e+00 
75900 5.6309353708e+00 1.5045126856e-04 2.6609862920e+00 -4.6089634561e+00 2.6609862920e+00 4.6089634561e+00 
76000 5.6309356204e+00 1.4886605129e-04 2.6609834651e+00 -4.6089585596e+00 2.6609834651e+00 4.6089585596e+00 
76100 5.6309358653e+00 1.4729509932e-04 2.6609806679e+00 -4.6089537147e+00 2.6609806679e+00 4.6089537147e+00 
76200 5.6309361055e+00 1.4573856301e-04 2.6609779002e+00 -4.6089489209e+00 2.6609779002e+00 4.6089489209e+00 
76300 5.6309363412e+00 1.4419658018e-04 2.6609751617e+00 -4.6089441778e+00 2.6609751617e+00 4.6089441778e+00 
76400 5.6309365724e+00 1.4266927632e-04 2.6609724523e+00 -4.6089394849e+00 2.6609724523e+00 4.6089394849e+00 
76500 5.6309367991e+00 1.4115676485e-04 2.6609697715e+00 -4.6089348416e+00 2.6609697715e+00 4.6089348416e+00 
76600 5.6309370215e+00 1.3965914737e-04 2.6609671191e+00 -4.6089302476e+00 2.6609671191e+00 4.6089302476e+00 
76700 5.6309372397e+00 1.3817651393e-04 2.6609644949e+00 -4.6089257023e+00 2.6609644949e+00 4.6089257023e+00 
76800 5.6309374536e+00 1.3670894324e-04 2.6609618986e+00 -4.6089212053e+00 2.6609618986e+00 4.6089212053e+00 
76900 5.6309376634e+00 1.3525650299e-04 2.6609593298e+00 -4.6089167560e+00 2.6609593298e+00 4.6089167560e+00 
77000 5.6309378691e+00 1.3381925007e-04 2.6609567883e+00 -4.6089123540e+00 2.6609567883e+00 4.6089123540e+00 
77100 5.6309380708e+00 1.3239723086e-04 2.6609542738e+00 -4.6089079988e+00 2.6609542738e+00 4.6089079988e+00 
77200 5.6309382686e+00 1.3099048148e-04 2.6609517860e+00 -4.6089036899e+00 2.6609517860e+00 4.6089036899e+00 
77300 5.6309384625e+00 1.2959902808e-04 2.6609493247e+00 -4.6088994267e+00 2.6609493247e+00 4.6088994267e+00 
77400 5.6309386527e+00 1.2822288710e-04 2.6609468895e+00 -4.6088952088e+00 2.6609468895e+00 4.6088952088e+00 
77500 5.6309388390e+00 1.2686206555e-04 2.6609444801e+00 -4.6088910357e+00 2.6609444801e+00 4.6088910357e+00 
77600 5.6309390218e+00 1.2551656126e-04 2.6609420963e+00 -4.6088869068e+00 2.6609420963e+00 4.6088869068e+00 
77700 5.6309392009e+00 1.2418636319e-04 2.6609397378e+00 -4.6088828218e+00 2.6609397378e+00 4.6088828218e+00 
77800 5.6309393764e+00 1.2287145168e-04 2.6609374043e+00 -4.6088787801e+00 2.6609374043e+00 4.6088787801e+00 
77900 5.6309395485e+00 1.2157179873e-04 2.6609350955e+00 -4.6088747811e+00 2.6609350955e+00 4.6088747811e+00 
78000 5.6309397171e+00 1.2028736827e-04 2.6609328111e+00 -4.6088708244e+00 2.6609328111e+00 4.6088708244e+00 
78100 5.6309398824e+00 1.1901811644e-04 2.6609305509e+00 -4.6088669096e+00 2.6609305509e+00 4.6088669096e+00 
78200 5.6309400444e+00 1.1776399184e-04 2.6609283145e+00 -4.6088630360e+00 2.6609283145e+00 4.6088630360e+00 
78300 5.6309402031e+00 1.1652493585e-04 2.6609261017e+00 -4.6088592033e+00 2.6609261017e+00 4.6088592033e+00 
78400 5.6309403587e+00 1.1530088283e-04 2.6609239121e+00 -4.6088554108e+00 2.6609239121e+00 4.6088554108e+00 
78500 5.6309405111e+00 1.1409176045e-04 2.6609217456e+00 -4.6088516583e+00 2.6609217456e+00 4.6088516583e+00 
78600 5.6309406604e+00 1.1289748992e-04 2.6609196017e+00 -4.6088479450e+00 2.6609196017e+00 4.6088479450e+00 
78700 5.6309408067e+00 1.1171798626e-04 2.6609174803e+00 -4.6088442707e+00 2.6609174803e+00 4.6088442707e+00 
78800 5.6309409501e+00 1.1055315856e-04 2.6609153811e+00 -4.6088406347e+00 2.6609153811e+00 4.6088406347e+00 
78900 5.6309410905e+00 1.0940291025e-04 2.6609133037e+00 -4.6088370366e+00 2.6609133037e+00 4.6088370366e+00 
79000 5.6309412281e+00 1.0826713934e-04 2.6609112480e+00 -4.6088334759e+00 2.6609112480e+00 4.6088334759e+00 
79100 5.6309413629e+00 1.0714573868e-04 2.6609092136e+00 -4.6088299523e+00 2.6609092136e+00 4.6088299523e+00 
79200 5.6309414949e+00 1.0603859622e-04 2.6609072003e+00 -4.6088264651e+00 2.6609072003e+00 4.6088264651e+00 
79300 5.6309416242e+00 1.0494559522e-04 2.6609052077e+00 -4.6088230139e+00 2.6609052077e+00 4.6088230139e+00 
79400 5.6309417508e+00 1.0386661454e-04 2.6609032357e+00 -4.6088195983e+00 2.6609032357e+00 4.6088195983e+00 
79500 5.6309418749e+00 1.0280152886e-04 2.6609012840e+00 -4.6088162179e+00 2.6609012840e+00 4.6088162179e+00 
79600 5.6309419963e+00 1.0175020889e-04 2.6608993523e+00 -4.6088128720e+00 2.6608993523e+00 4.6088128720e+00 
79700 5.6309421153e+00 1.0071252163e-04 2.6608974404e+00 -4.6088095604e+00 2.6608974404e+00 4.6088095604e+00 
79800 5.6309422318e+00 9.9688330622e-05 2.6608955479e+00 -4.6088062826e+00 2.6608955479e+00 4.6088062826e+00 
79900 5.6309423459e+00 9.8677496110e-05 2.6608936747e+00 -4.6088030381e+00 2.6608936747e+00 4.6088030381e+00 
80000 5.6309424576e+00 9.7679875309e-05 2.6608918205e+00 -4.6087998265e+00 2.6608918205e+00 4.6087998265e+00 
80100 5.6309425669e+00 9.6695322600e-05 2.6608899850e+00 -4.6087966474e+00 2.6608899850e+00 4.6087966474e+00 
80200 5.6309426740e+00 9.5723689753e-05 2.6608881680e+00 -4.6087935003e+00 2.6608881680e+00 4.6087935003e+00 
80300 5.6309427789e+00 9.4764826124e-05 2.6608863693e+00 -4.6087903848e+00 2.6608863693e+00 4.6087903848e+00 
80400 5.6309428815e+00 9.3818578865e-05 2.6608845886e+00 -4.6087873006e+00 2.6608845886e+00 4.6087873006e+00 
80500 5.6309429820e+00 9.2884793110e-05 2.6608828257e+00 -4.6087842471e+00 2.6608828257e+00 4.6087842471e+00 
80600 5.6309430804e+00 9.1963312183e-05 2.6608810803e+00 -4.6087812240e+00 2.6608810803e+00 4.6087812240e+00 
80700 5.6309431767e+00 9.1053977774e-05 2.6608793523e+00 -4.6087782309e+00 2.6608793523e+00 4.6087782309e+00 
80800 5.6309432709e+00 9.0156630134e-05 2.6608776413e+00 -4.6087752674e+00 2.6608776413e+00 4.6087752674e+00 
80900 5.6309433632e+00 8.9271108242e-05 2.6608759472e+00 -4.6087723331e+00 2.6608759472e+00 4.6087723331e+00 
81000 5.6309434535e+00 8.8397249995e-05 2.6608742697e+00 -4.6087694277e+00 2.6608742697e+00 4.6087694277e+00 
81100 5.6309435419e+00 8.7534892357e-05 2.6608726086e+00 -4.6087665506e+00 2.6608726086e+00 4.6087665506e+00 
81200 5.6309436283e+00 8.6683871545e-05 2.6608709638e+00 -4.6087637017e+00 2.6608709638e+00 4.6087637017e+00 
81300 5.6309437130e+00 8.5844023173e-05 2.6608693349e+00 -4.6087608804e+00 2.6608693349e+00 4.6087608804e+00 
81400 5.6309437958e+00 8.5015182419e-05 2.6608677218e+00 -4.6087580865e+00 2.6608677218e+00 4.6087580865e+00 
81500 5.6309438769e+00 8.4197184168e-05 2.6608661243e+00 -4.6087553195e+00 2.6608661243e+00 4.6087553195e+00 
81600 5.6309439562e+00 8.3389863159e-05 2.6608645422e+00 -4.6087525791e+00 2.6608645422e+00 4.6087525791e+00 
81700 5.6309440338e+00 8.2593054125e-05 2.6608629752e+00 -4.6087498651e+00 2.6608629752e+00 4.6087498651e+00 
81800 5.6309441098e+00 8.1806591933e-05 2.6608614232e+00 -4.6087471769e+00 2.6608614232e+00 4.6087471769e+00 
81900 5.6309441841e+00 8.1030311714e-05 2.6608598860e+00 -4.6087445144e+00 2.6608598860e+00 4.6087445144e+00 
82000 5.6309442568e+00 8.0264048987e-05 2.6608583634e+00 -4.6087418771e+00 2.6608583634e+00 4.6087418771e+00 
82100 5.6309443279e+00 7.9507639782e-05 2.6608568551e+00 -4.6087392648e+00 2.6608568551e+00 4.6087392648e+00 
82200 5.6309443975e+00 7.8760920758e-05 2.6608553611e+00 -4.6087366771e+00 2.6608553611e+00 4.6087366771e+00 
82300 5.6309444655e+00 7.8023729313e-05 2.6608538811e+00 -4.6087341136e+00 2.6608538811e+00 4.6087341136e+00 
82400 5.6309445321e+00 7.7295903704e-05 2.6608524150e+00 -4.6087315742e+00 2.6608524150e+00 4.6087315742e+00 
82500 5.6309445972e+00 7.6577283123e-05 2.6608509625e+00 -4.6087290585e+00 2.6608509625e+00 4.6087290585e+00 
82600 5.6309446610e+00 7.5867707831e-05 2.6608495236e+00 -4.6087265661e+00 2.6608495236e+00 4.6087265661e+00 
82700 5.6309447233e+00 7.5167019223e-05 2.6608480979e+00 -4.6087240968e+00 2.6608480979e+00 4.6087240968e+00 
82800 5.6309447842e+00 7.4475059939e-05 2.6608466855e+00 -4.6087216504e+00 2.6608466855e+00 4.6087216504e+00 
82900 5.6309448438e+00 7.3791673931e-05 2.6608452860e+00 -4.6087192264e+00 2.6608452860e+00 4.6087192264e+00 
83000 5.6309449021e+00 7.3116706561e-05 2.6608438994e+00 -4.6087168247e+00 2.6608438994e+00 4.6087168247e+00 
83100 5.6309449591e+00 7.2450004673e-05 2.6608425254e+00 -4.6087144450e+00 2.6608425254e+00 4.6087144450e+00 
83200 5.6309450149e+00 7.1791416658e-05 2.6608411640e+00 -4.6087120870e+00 2.6608411640e+00 4.6087120870e+00 
83300 5.6309450694e+00 7.1140792534e-05 2.6608398150e+00 -4.6087097504e+00 2.6608398150e+00 4.6087097504e+00 
83400 5.6309451227e+00 7.0497984007e-05 2.6608384782e+00 -4.6087074350e+00 2.6608384782e+00 4.6087074350e+00 
83500 5.6309451749e+00 7.0893462511e-05 2.6608384782e+00 -4.6087074350e+00 2.6608384782e+00 4.6087074350e+00 
83600 5.6309452259e+00 7.0263326052e-05 2.6608371460e+00 -4.6087051276e+00 2.6608371460e+00 4.6087051276e+00 
83700 5.6309452758e+00 7.0667583652e-05 2.6608371460e+00 -4.6087051276e+00 2.6608371460e+00 4.6087051276e+00 
83800 5.6309453246e+00 7.1082290246e-05 2.6608371460e+00 -4.6087051276e+00 2.6608371460e+00 4.6087051276e+00 
83900 5.6309453723e+00 7.0468103328e-05 2.6608358103e+00 -4.6087028141e+00 2.6608358103e+00 4.6087028141e+00 
84000 5.6309454189e+00 7.0890489312e-05 2.6608358103e+00 -4.6087028141e+00 2.6608358103e+00 4.6087028141e+00 
84100 5.6309454645e+00 7.0286402280e-05 2.6608344782e+00 -4.6087005068e+00 2.6608344782e+00 4.6087005068e+00 
84200 5.6309455090e+00 7.0715726266e-05 2.6608344782e+00 -4.6087005068e+00 2.6608344782e+00 4.6087005068e+00 
84300 5.6309455526e+00 7.0120733867e-05 2.6608331494e+00 -4.6086982052e+00 2.6608331494e+00 4.6086982052e+00 
84400 5.6309455952e+00 7.0556224121e-05 2.6608331494e+00 -4.6086982052e+00 2.6608331494e+00 4.6086982052e+00 
84500 5.6309456368e+00 7.1000786163e-05 2.6608331494e+00 -4.6086982052e+00 2.6608331494e+00 4.6086982052e+00 
84600 5.6309456775e+00 7.0416239586e-05 2.6608318152e+00 -4.6086958943e+00 2.6608318152e+00 4.6086958943e+00 
84700 5.6309457173e+00 7.0865650980e-05 2.6608318152e+00 -4.6086958943e+00 2.6608318152e+00 4.6086958943e+00 
84800 5.6309457561e+00 7.0287494786e-05 2.6608304835e+00 -4.6086935878e+00 2.6608304835e+00 4.6086935878e+00 
84900 5.6309457941e+00 7.0740910189e-05 2.6608304835e+00 -4.6086935878e+00 2.6608304835e+00 4.6086935878e+00 
85000 5.6309458312e+00 7.0168146920e-05 2.6608291542e+00 -4.6086912854e+00 2.6608291542e+00 4.6086912854e+00 
85100 5.6309458675e+00 7.0624720440e-05 2.6608291542e+00 -4.6086912854e+00 2.6608291542e+00 4.6086912854e+00 
85200 5.6309459030e+00 7.1088847911e-05 2.6608291542e+00 -4.6086912854e+00 2.6608291542e+00 4.6086912854e+00 
85300 5.6309459376e+00 7.0521055362e-05 2.6608278184e+00 -4.6086889717e+00 2.6608278184e+00 4.6086889717e+00 
85400 5.6309459715e+00 7.0986963291e-05 2.6608278184e+00 -4.6086889717e+00 2.6608278184e+00 4.6086889717e+00 
85500 5.6309460046e+00 7.0422001030e-05 2.6608264845e+00 -4.6086866612e+00 2.6608264845e+00 4.6086866612e+00 
85600 5.6309460369e+00 7.0888834031e-05 2.6608264845e+00 -4.6086866612e+00 2.6608264845e+00 4.6086866612e+00 
85700 5.6309460685e+00 7.0325802155e-05 2.6608251524e+00 -4.6086843540e+00 2.6608251524e+00 4.6086843540e+00 
85800 5.6309460994e+00 7.0792726008e-05 2.6608251524e+00 -4.6086843540e+00 2.6608251524e+00 4.6086843540e+00 
85900 5.6309461296e+00 7.0230772884e-05 2.6608238221e+00 -4.6086820499e+00 2.6608238221e+00 4.6086820499e+00 
86000 5.6309461591e+00 7.0696978190e-05 2.6608238221e+00 -4.6086820499e+00 2.6608238221e+00 4.6086820499e+00 
86100 5.6309461879e+00 7.1168826268e-05 2.6608238221e+00 -4.6086820499e+00 2.6608238221e+00 4.6086820499e+00 
86200 5.6309462160e+00 7.0605690818e-05 2.6608224848e+00 -4.6086797336e+00 2.6608224848e+00 4.6086797336e+00 
86300 5.6309462435e+00 7.1075539147e-05 2.6608224848e+00 -4.6086797336e+00 2.6608224848e+00 4.6086797336e+00 
86400 5.6309462703e+00 7.0511370789e-05 2.6608211492e+00 -4.6086774202e+00 2.6608211492e+00 4.6086774202e+00 
86500 5.6309462966e+00 7.0978452714e-05 2.6608211492e+00 -4.6086774202e+00 2.6608211492e+00 4.6086774202e+00 
86600 5.6309463222e+00 7.0412558729e-05 2.6608198154e+00 -4.6086751101e+00 2.6608198154e+00 4.6086751101e+00 
86700 5.6309463473e+00 7.0876145535e-05 2.6608198154e+00 -4.6086751101e+00 2.6608198154e+00 4.6086751101e+00 
86800 5.6309463717e+00 7.0307892588e-05 2.6608184836e+00 -4.6086728033e+00 2.6608184836e+00 4.6086728033e+00 
86900 5.6309463956e+00 7.0767294966e-05 2.6608184836e+00 -4.6086728033e+00 2.6608184836e+00 4.6086728033e+00 
87000 5.6309464189e+00 7.0196108938e-05 2.6608171538e+00 -4.6086705000e+00 2.6608171538e+00 4.6086705000e+00 
87100 5.6309464418e+00 7.0650678085e-05 2.6608171538e+00 -4.6086705000e+00 2.6608171538e+00 4.6086705000e+00 
87200 5.6309464641e+00 7.1108893737e-05 2.6608171538e+00 -4.6086705000e+00 2.6608171538e+00 4.6086705000e+00 
87300 5.6309464858e+00 7.0531045853e-05 2.6608158175e+00 -4.6086681856e+00 2.6608158175e+00 4.6086681856e+00 
87400 5.6309465071e+00 7.0983412219e-05 2.6608158175e+00 -4.6086681856e+00 2.6608158175e+00 4.6086681856e+00 
87500 5.6309465278e+00 7.0401243254e-05 2.6608144837e+00 -4.6086658752e+00 2.6608144837e+00 4.6086658752e+00 
87600 5.6309465481e+00 7.0847183392e-05 2.6608144837e+00 -4.6086658752e+00 2.6608144837e+00 4.6086658752e+00 
87700 5.6309465679e+00 7.0260295541e-05 2.6608131524e+00 -4.6086635693e+00 2.6608131524e+00 4.6086635693e+00 
87800 5.6309465872e+00 7.0699278413e-05 2.6608131524e+00 -4.6086635693e+00 2.6608131524e+00 4.6086635693e+00 
87900 5.6309466061e+00 7.1140896452e-05 2.6608131524e+00 -4.6086635693e+00 2.6608131524e+00 4.6086635693e+00 
88000 5.6309466245e+00 7.0544998407e-05 2.6608118155e+00 -4.6086612539e+00 2.6608118155e+00 4.6086612539e+00 
88100 5.6309466426e+00 7.0978827194e-05 2.6608118155e+00 -4.6086612539e+00 2.6608118155e+00 4.6086612539e+00 
88200 5.6309466601e+00 7.0377262506e-05 2.6608104818e+00 -4.6086589437e+00 2.6608104818e+00 4.6086589437e+00 
88300 5.6309466774e+00 7.0802851340e-05 2.6608104818e+00 -4.6086589437e+00 2.6608104818e+00 4.6086589437e+00 
88400 5.6309466941e+00 7.0195395284e-05 2.6608091513e+00 -4.6086566393e+00 2.6608091513e+00 4.6086566393e+00 
88500 5.6309467105e+00 7.0612340999e-05 2.6608091513e+00 -4.6086566393e+00 2.6608091513e+00 4.6086566393e+00 
88600 5.6309467265e+00 7.1031120475e-05 2.6608091513e+00 -4.6086566393e+00 2.6608091513e+00 4.6086566393e+00 
88700 5.6309467421e+00 7.0413214246e-05 2.6608078165e+00 -4.6086543274e+00 2.6608078165e+00 4.6086543274e+00 
88800 5.6309467574e+00 7.0822711654e-05 2.6608078165e+00 -4.6086543274e+00 2.6608078165e+00 4.6086543274e+00 
88900 5.6309467723e+00 7.0198383460e-05 2.6608064857e+00 -4.6086520223e+00 2.6608064857e+00 4.6086520223e+00 
89000 5.6309467868e+00 7.0598276360e-05 2.6608064857e+00 -4.6086520223e+00 2.6608064857e+00 4.6086520223e+00 
89100 5.6309468011e+00 7.0999552230e-05 2.6608064857e+00 -4.6086520223e+00 2.6608064857e+00 4.6086520223e+00 
89200 5.6309468149e+00 7.0364169510e-05 2.6608051515e+00 -4.6086497114e+00 2.6608051515e+00 4.6086497114e+00 
89300 5.6309468285e+00 7.0755323129e-05 2.6608051515e+00 -4.6086497114e+00 2.6608051515e+00 4.6086497114e+00 
89400 5.6309468416e+00 7.0113238898e-05 2.6608038219e+00 -4.6086474085e+00 2.6608038219e+00 4.6086474085e+00 
89500 5.6309468546e+00 7.0494028032e-05 2.6608038219e+00 -4.6086474085e+00 2.6608038219e+00 4.6086474085e+00 
89600 5.6309468672e+00 7.0875841518e-05 2.6608038219e+00 -4.6086474085e+00 2.6608038219e+00 4.6086474085e+00 
89700 5.6309468795e+00 7.0222461947e-05 2.6608024901e+00 -4.6086451017e+00 2.6608024901e+00 4.6086451017e+00 
89800 5.6309468915e+00 7.0593511704e-05 2.6608024901e+00 -4.6086451017e+00 2.6608024901e+00 4.6086451017e+00 
89900 5.6309469033e+00 7.0965407408e-05 2.6608024901e+00 -4.6086451017e+00 2.6608024901e+00 4.6086451017e+00 
90000 5.6309469147e+00 7.0300628230e-05 2.6608011565e+00 -4.6086427919e+00 2.6608011565e+00 4.6086427919e+00 
90100 5.6309469259e+00 7.0661408532e-05 2.6608011565e+00 -4.6086427919e+00 2.6608011565e+00 4.6086427919e+00 
90200 5.6309469369e+00 7.1022877587e-05 2.6608011565e+00 -4.6086427919e+00 2.6608011565e+00 4.6086427919e+00 
90300 5.6309469475e+00 7.0346680388e-05 2.6607998219e+00 -4.6086404803e+00 2.6607998219e+00 4.6086404803e+00 
90400 5.6309469580e+00 7.0696730701e-05 2.6607998219e+00 -4.6086404803e+00 2.6607998219e+00 4.6086404803e+00 
90500 5.6309469682e+00 7.1047333893e-05 2.6607998219e+00 -4.6086404803e+00 2.6607998219e+00 4.6086404803e+00 
90600 5.6309469780e+00 7.0359783322e-05 2.6607984868e+00 -4.6086381679e+00 2.6607984868e+00 4.6086381679e+00 
90700 5.6309469878e+00 7.0698712797e-05 2.6607984868e+00 -4.6086381679e+00 2.6607984868e+00 4.6086381679e+00 
90800 5.6309469973e+00 7.1038080377e-05 2.6607984868e+00 -4.6086381679e+00 2.6607984868e+00 4.6086381679e+00 
90900 5.6309470065e+00 7.0339320419e-05 2.6607971519e+00 -4.6086358558e+00 2.6607971519e+00 4.6086358558e+00 
91000 5.6309470155e+00 7.0666807094e-05 2.6607971519e+00 -4.6086358558e+00 2.6607971519e+00 4.6086358558e+00 
91100 5.6309470243e+00 7.0994637716e-05 2.6607971519e+00 -4.6086358558e+00 2.6607971519e+00 4.6086358558e+00 
91200 5.6309470329e+00 7.0284887228e-05 2.6607958179e+00 -4.6086335451e+00 2.6607958179e+00 4.6086335451e+00 
91300 5.6309470413e+00 7.0600676427e-05 2.6607958179e+00 -4.6086335451e+00 2.6607958179e+00 4.6086335451e+00 
91400 5.6309470496e+00 7.0916735331e-05 2.6607958179e+00 -4.6086335451e+00 2.6607958179e+00 4.6086335451e+00 
91500 5.6309470575e+00 7.0196282930e-05 2.6607944852e+00 -4.6086312369e+00 2.6607944852e+00 4.6086312369e+00 
91600 5.6309470654e+00 7.0500185006e-05 2.6607944852e+00 -4.6086312369e+00 2.6607944852e+00 4.6086312369e+00 
91700 5.6309470730e+00 7.0804301561e-05 2.6607944852e+00 -4.6086312369e+00 2.6607944852e+00 4.6086312369e+00 
91800 5.6309470804e+00 7.0073500115e-05 2.6607931547e+00 -4.6086289324e+00 2.6607931547e+00 4.6086289324e+00 
91900 5.6309470877e+00 7.0365387625e-05 2.6607931547e+00 -4.6086289324e+00 2.6607931547e+00 4.6086289324e+00 
92000 5.6309470949e+00 7.0657452373e-05 2.6607931547e+00 -4.6086289324e+00 2.6607931547e+00 4.6086289324e+00 
92100 5.6309471018e+00 7.0949682038e-05 2.6607931547e+00 -4.6086289324e+00 2.6607931547e+00 4.6086289324e+00 
92200 5.6309471086e+00 7.0204819583e-05 2.6607918215e+00 -4.6086266232e+00 2.6607918215e+00 4.6086266232e+00 
92300 5.6309471152e+00 7.0484700801e-05 2.6607918215e+00 -4.6086266232e+00 2.6607918215e+00 4.6086266232e+00 
92400 5.6309471217e+00 7.0764715670e-05 2.6607918215e+00 -4.6086266232e+00 2.6607918215e+00 4.6086266232e+00 
92500 5.6309471280e+00 7.0010316042e-05 2.6607904917e+00 -4.6086243199e+00 2.6607904917e+00 4.6086243199e+00 
92600 5.6309471342e+00 7.0277971197e-05 2.6607904917e+00 -4.6086243199e+00 2.6607904917e+00 4.6086243199e+00 
92700 5.6309471402e+00 7.0545746732e-05 2.6607904917e+00 -4.6086243199e+00 2.6607904917e+00 4.6086243199e+00 
92800 5.6309471461e+00 7.0813638251e-05 2.6607904917e+00 -4.6086243199e+00 2.6607904917e+00 4.6086243199e+00 
92900 5.6309471518e+00 7.0046382990e-05 2.6607891610e+00 -4.6086220151e+00 2.6607891610e+00 4.6086220151e+00 
93000 5.6309471574e+00 7.0301875926e-05 2.6607891610e+00 -4.6086220151e+00 2.6607891610e+00 4.6086220151e+00 
93100 5.6309471629e+00 7.0557476990e-05 2.6607891610e+00 -4.6086220151e+00 2.6607891610e+00 4.6086220151e+00 
93200 5.6309471683e+00 7.0813183765e-05 2.6607891610e+00 -4.6086220151e+00 2.6607891610e+00 4.6086220151e+00 
93300 5.6309471735e+00 7.0033741022e-05 2.6607878303e+00 -4.6086197103e+00 2.6607878303e+00 4.6086197103e+00 
93400 5.6309471786e+00 7.0277034926e-05 2.6607878303e+00 -4.6086197103e+00 2.6607878303e+00 4.6086197103e+00 
93500 5.6309471836e+00 7.0520433021e-05 2.6607878303e+00 -4.6086197103e+00 2.6607878303e+00 4.6086197103e+00 
93600 5.6309471885e+00 7.0763935110e-05 2.6607878303e+00 -4.6086197103e+00 2.6607878303e+00 4.6086197103e+00 
93700 5.6309471932e+00 6.9973007008e-05 2.6607865006e+00 -4.6086174071e+00 2.6607865006e+00 4.6086174071e+00 
93800 5.6309471979e+00 7.0204108339e-05 2.6607865006e+00 -4.6086174071e+00 2.6607865006e+00 4.6086174071e+00 
93900 5.6309472024e+00 7.0435319017e-05 2.6607865006e+00 -4.6086174071e+00 2.6607865006e+00 4.6086174071e+00 
94000 5.6309472069e+00 7.0666641178e-05 2.6607865006e+00 -4.6086174071e+00 2.6607865006e+00 4.6086174071e+00 
94100 5.6309472113e+00 7.0898073134e-05 2.6607865006e+00 -4.6086174071e+00 2.6607865006e+00 4.6086174071e+00 
94200 5.6309472154e+00 7.0093117434e-05 2.6607851683e+00 -4.6086150995e+00 2.6607851683e+00 4.6086150995e+00 
94300 5.6309472196e+00 7.0312132837e-05 2.6607851683e+00 -4.6086150995e+00 2.6607851683e+00 4.6086150995e+00 
94400 5.6309472237e+00 7.0531260433e-05 2.6607851683e+00 -4.6086150995e+00 2.6607851683e+00 4.6086150995e+00 
94500 5.6309472276e+00 7.0750501832e-05 2.6607851683e+00 -4.6086150995e+00 2.6607851683e+00 4.6086150995e+00 
94600 5.6309472314e+00 6.9935518962e-05 2.6607838388e+00 -4.6086127968e+00 2.6607838388e+00 4.6086127968e+00 
94700 5.6309472352e+00 7.0142387857e-05 2.6607838388e+00 -4.6086127968e+00 2.6607838388e+00 4.6086127968e+00 
94800 5.6309472389e+00 7.0349382621e-05 2.6607838388e+00 -4.6086127968e+00 2.6607838388e+00 4.6086127968e+00 
94900 5.6309472426e+00 7.0556507986e-05 2.6607838388e+00 -4.6086127968e+00 2.6607838388e+00 4.6086127968e+00 
95000 5.6309472461e+00 7.0763765021e-05 2.6607838388e+00 -4.6086127968e+00 2.6607838388e+00 4.6086127968e+00 
95100 5.6309472495e+00 6.9936620267e-05 2.6607825091e+00 -4.6086104936e+00 2.6607825091e+00 4.6086104936e+00 
95200 5.6309472529e+00 7.0131537181e-05 2.6607825091e+00 -4.6086104936e+00 2.6607825091e+00 4.6086104936e+00 
95300 5.6309472562e+00 7.0326597212e-05 2.6607825091e+00 -4.6086104936e+00 2.6607825091e+00 4.6086104936e+00 
95400 5.6309472594e+00 7.0521805192e-05 2.6607825091e+00 -4.6086104936e+00 2.6607825091e+00 4.6086104936e+00 
95500 5.6309472626e+00 7.0717162426e-05 2.6607825091e+00 -4.6086104936e+00 2.6607825091e+00 4.6086104936e+00 
95600 5.6309472656e+00 6.9878815949e-05 2.6607811802e+00 -4.6086081919e+00 2.6607811802e+00 4.6086081919e+00 
95700 5.6309472686e+00 7.0061877706e-05 2.6607811802e+00 -4.6086081919e+00 2.6607811802e+00 4.6086081919e+00 
95800 5.6309472716e+00 7.0245101596e-05 2.6607811802e+00 -4.6086081919e+00 2.6607811802e+00 4.6086081919e+00 
95900 5.6309472745e+00 7.0428493147e-05 2.6607811802e+00 -4.6086081919e+00 2.6607811802e+00 4.6086081919e+00 
96000 5.6309472773e+00 7.0612054449e-05 2.6607811802e+00 -4.6086081919e+00 2.6607811802e+00 4.6086081919e+00 
96100 5.6309472801e+00 7.0795784358e-05 2.6607811802e+00 -4.6086081919e+00 2.6607811802e+00 4.6086081919e+00 
96200 5.6309472827e+00 6.9944677293e-05 2.6607798498e+00 -4.6086058876e+00 2.6607798498e+00 4.6086058876e+00 
96300 5.6309472853e+00 7.0116130188e-05 2.6607798498e+00 -4.6086058876e+00 2.6607798498e+00 4.6086058876e+00 
96400 5.6309472879e+00 7.0287758936e-05 2.6607798498e+00 -4.6086058876e+00 2.6607798498e+00 4.6086058876e+00 
96500 5.6309472905e+00 7.0459567701e-05 2.6607798498e+00 -4.6086058876e+00 2.6607798498e+00 4.6086058876e+00 
96600 5.6309472929e+00 7.0631557448e-05 2.6607798498e+00 -4.6086058876e+00 2.6607798498e+00 4.6086058876e+00 
96700 5.6309472954e+00 7.0803726128e-05 2.6607798498e+00 -4.6086058876e+00 2.6607798498e+00 4.6086058876e+00 
96800 5.6309472977e+00 6.9940950235e-05 2.6607785193e+00 -4.6086035831e+00 2.6607785193e+00 4.6086035831e+00 
96900 5.6309473000e+00 7.0100859231e-05 2.6607785193e+00 -4.6086035831e+00 2.6607785193e+00 4.6086035831e+00 
97000 5.6309473023e+00 7.0260952936e-05 2.6607785193e+00 -4.6086035831e+00 2.6607785193e+00 4.6086035831e+00 
97100 5.6309473045e+00 7.0421235389e-05 2.6607785193e+00 -4.6086035831e+00 2.6607785193e+00 4.6086035831e+00 
97200 5.6309473067e+00 7.0581707601e-05 2.6607785193e+00 -4.6086035831e+00 2.6607785193e+00 4.6086035831e+00 
97300 5.6309473088e+00 7.0742367728e-05 2.6607785193e+00 -4.6086035831e+00 2.6607785193e+00 4.6086035831e+00 
97400 5.6309473108e+00 6.9868988438e-05 2.6607771900e+00 -4.6086012806e+00 2.6607771900e+00 4.6086012806e+00 
97500 5.6309473129e+00 7.0017418928e-05 2.6607771900e+00 -4.6086012806e+00 2.6607771900e+00 4.6086012806e+00 
97600 5.6309473149e+00 7.0166044552e-05 2.6607771900e+00 -4.6086012806e+00 2.6607771900e+00 4.6086012806e+00 
97700 5.6309473168e+00 7.0314870078e-05 2.6607771900e+00 -4.6086012806e+00 2.6607771900e+00 4.6086012806e+00 
97800 5.6309473187e+00 7.0463897356e-05 2.6607771900e+00 -4.6086012806e+00 2.6607771900e+00 4.6086012806e+00 
97900 5.6309473206e+00 7.0613125481e-05 2.6607771900e+00 -4.6086012806e+00 2.6607771900e+00 4.6086012806e+00 
98000 5.6309473225e+00 7.0762550969e-05 2.6607771900e+00 -4.6086012806e+00 2.6607771900e+00 4.6086012806e+00 
98100 5.6309473242e+00 6.9877648913e-05 2.6607758602e+00 -4.6085989775e+00 2.6607758602e+00 4.6085989775e+00 
98200 5.6309473260e+00 7.0014856124e-05 2.6607758602e+00 -4.6085989775e+00 2.6607758602e+00 4.6085989775e+00 
98300 5.6309473277e+00 7.0152264502e-05 2.6607758602e+00 -4.6085989775e+00 2.6607758602e+00 4.6085989775e+00 
98400 5.6309473294e+00 7.0289878135e-05 2.6607758602e+00 -4.6085989775e+00 2.6607758602e+00 4.6085989775e+00 
98500 5.6309473310e+00 7.0427698393e-05 2.6607758602e+00 -4.6085989775e+00 2.6607758602e+00 4.6085989775e+00 
98600 5.6309473327e+00 7.0565724095e-05 2.6607758602e+00 -4.6085989775e+00 2.6607758602e+00 4.6085989775e+00 
98700 5.6309473343e+00 7.0703951662e-05 2.6607758602e+00 -4.6085989775e+00 2.6607758602e+00 4.6085989775e+00 
98800 5.6309473358e+00 7.0842375265e-05 2.6607758602e+00 -4.6085989775e+00 2.6607758602e+00 4.6085989775e+00 
98900 5.6309473373e+00 6.9945299891e-05 2.6607745290e+00 -4.6085966717e+00 2.6607745290e+00 4.6085966717e+00 
99000 5.6309473388e+00 7.0071482553e-05 2.6607745290e+00 -4.6085966717e+00 2.6607745290e+00 4.6085966717e+00 
99100 5.6309473403e+00 7.0197859927e-05 2.6607745290e+00 -4.6085966717e+00 2.6607745290e+00 4.6085966717e+00 
99200 5.6309473417e+00 7.0324434964e-05 2.6607745290e+00 -4.6085966717e+00 2.6607745290e+00 4.6085966717e+00 
99300 5.6309473431e+00 7.0451208162e-05 2.6607745290e+00 -4.6085966717e+00 2.6607745290e+00 4.6085966717e+00 
99400 5.6309473445e+00 7.0578177709e-05 2.6607745290e+00 -4.6085966717e+00 2.6607745290e+00 4.6085966717e+00 
99500 5.6309473459e+00 7.0705339627e-05 2.6607745290e+00 -4.6085966717e+00 2.6607745290e+00 4.6085966717e+00 
99600 5.6309473472e+00 7.0832687911e-05 2.6607745290e+00 -4.6085966717e+00 2.6607745290e+00 4.6085966717e+00 
99700 5.6309473485e+00 6.9924667994e-05 2.6607731979e+00 -4.6085943662e+00 2.6607731979e+00 4.6085943662e+00 
99800 5.6309473498e+00 7.0039757966e-05 2.6607731979e+00 -4.6085943662e+00 2.6607731979e+00 4.6085943662e+00 
99900 5.6309473510e+00 7.0155033646e-05 2.6607731979e+00 -4.6085943662e+00 2.6607731979e+00 4.6085943662e+00 
100000 5.6309473523e+00 7.0270498556e-05 2.6607731979e+00 -4.6085943662e+00 2.6607731979e+00 4.6085943662e+00 
100100 5.6309473535e+00 7.0386153924e-05 2.6607731979e+00 -4.6085943662e+00 2.6607731979e+00 4.6085943662e+00 
100200 5.6309473547e+00 7.0501998824e-05 2.6607731979e+00 -4.6085943662e+00 2.6607731979e+00 4.6085943662e+00 
100300 5.6309473559e+00 7.0618030297e-05 2.6607731979e+00 -4.6085943662e+00 2.6607731979e+00 4.6085943662e+00 
100400 5.6309473570e+00 7.0734243487e-05 2.6607731979e+00 -4.6085943662e+00 2.6607731979e+00 4.6085943662e+00 
100500 5.6309473581e+00 6.9816523002e-05 2.6607718687e+00 -4.6085920640e+00 2.6607718687e+00 4.6085920640e+00 
100600 5.6309473592e+00 6.9920489976e-05 2.6607718687e+00 -4.6085920640e+00 2.6607718687e+00 4.6085920640e+00 
100700 5.6309473603e+00 7.0024642084e-05 2.6607718687e+00 -4.6085920640e+00 2.6607718687e+00 4.6085920640e+00 
100800 5.6309473614e+00 7.0128984389e-05 2.6607718687e+00 -4.6085920640e+00 2.6607718687e+00 4.6085920640e+00 
100900 5.6309473624e+00 7.0233519744e-05 2.6607718687e+00 -4.6085920640e+00 2.6607718687e+00 4.6085920640e+00 
101000 5.6309473635e+00 7.0338248915e-05 2.6607718687e+00 -4.6085920640e+00 2.6607718687e+00 4.6085920640e+00 
101100 5.6309473645e+00 7.0443170708e-05 2.6607718687e+00 -4.6085920640e+00 2.6607718687e+00 4.6085920640e+00 
101200 5.6309473655e+00 7.0548282088e-05 2.6607718687e+00 -4.6085920640e+00 2.6607718687e+00 4.6085920640e+00 
101300 5.6309473665e+00 7.0653578290e-05 2.6607718687e+00 -4.6085920640e+00 2.6607718687e+00 4.6085920640e+00 
101400 5.6309473674e+00 7.0759052940e-05 2.6607718687e+00 -4.6085920640e+00 2.6607718687e+00 4.6085920640e+00 
101500 5.6309473683e+00 6.9830225513e-05 2.6607705391e+00 -4.6085897609e+00 2.6607705391e+00 4.6085897609e+00 
101600 5.6309473692e+00 6.9923439475e-05 2.6607705391e+00 -4.6085897609e+00 2.6607705391e+00 4.6085897609e+00 
101700 5.6309473702e+00 7.0016832346e-05 2.6607705391e+00 -4.6085897609e+00 2.6607705391e+00 4.6085897609e+00 
101800 5.6309473711e+00 7.0110408679e-05 2.6607705391e+00 -4.6085897609e+00 2.6607705391e+00 4.6085897609e+00 
101900 5.6309473720e+00 7.0204171040e-05 2.6607705391e+00 -4.6085897609e+00 2.6607705391e+00 4.6085897609e+00 
102000 5.6309473728e+00 7.0298120113e-05 2.6607705391e+00 -4.6085897609e+00 2.6607705391e+00 4.6085897609e+00 
102100 5.6309473737e+00 7.0392254812e-05 2.6607705391e+00 -4.6085897609e+00 2.6607705391e+00 4.6085897609e+00 
102200 5.6309473745e+00 7.0486572393e-05 2.6607705391e+00 -4.6085897609e+00 2.6607705391e+00 4.6085897609e+00 
102300 5.6309473754e+00 7.0581068553e-05 2.6607705391e+00 -4.6085897609e+00 2.6607705391e+00 4.6085897609e+00 
102400 5.6309473762e+00 7.0675737532e-05 2.6607705391e+00 -4.6085897609e+00 2.6607705391e+00 4.6085897609e+00 
102500 5.6309473770e+00 7.0770572219e-05 2.6607705391e+00 -4.6085897609e+00 2.6607705391e+00 4.6085897609e+00 
102600 5.6309473777e+00 6.9830921954e-05 2.6607692092e+00 -4.6085874575e+00 2.6607692092e+00 4.6085874575e+00 
102700 5.6309473785e+00 6.9913467119e-05 2.6607692092e+00 -4.6085874575e+00 2.6607692092e+00 4.6085874575e+00 
102800 5.6309473793e+00 6.9996177642e-05 2.6607692092e+00 -4.6085874575e+00 2.6607692092e+00 4.6085874575e+00 
102900 5.6309473800e+00 7.0079058230e-05 2.6607692092e+00 -4.6085874575e+00 2.6607692092e+00 4.6085874575e+00 
103000 5.6309473808e+00 7.0162111788e-05 2.6607692092e+00 -4.6085874575e+00 2.6607692092e+00 4.6085874575e+00 
103100 5.6309473815e+00 7.0245339515e-05 2.6607692092e+00 -4.6085874575e+00 2.6607692092e+00 4.6085874575e+00 
103200 5.6309473822e+00 7.0328741012e-05 2.6607692092e+00 -4.6085874575e+00 2.6607692092e+00 4.6085874575e+00 
103300 5.6309473829e+00 7.0412314369e-05 2.6607692092e+00 -4.6085874575e+00 2.6607692092e+00 4.6085874575e+00 
103400 5.6309473836e+00 7.0496056265e-05 2.6607692092e+00 -4.6085874575e+00 2.6607692092e+00 4.6085874575e+00 
103500 5.6309473843e+00 7.0579962056e-05 2.6607692092e+00 -4.6085874575e+00 2.6607692092e+00 4.6085874575e+00 
103600 5.6309473850e+00 7.0664025861e-05 2.6607692092e+00 -4.6085874575e+00 2.6607692092e+00 4.6085874575e+00 
103700 5.6309473857e+00 7.0748240650e-05 2.6607692092e+00 -4.6085874575e+00 2.6607692092e+00 4.6085874575e+00 
103800 5.6309473862e+00 6.9798281231e-05 2.6607678797e+00 -4.6085851548e+00 2.6607678797e+00 4.6085851548e+00 
103900 5.6309473869e+00 6.9870182013e-05 2.6607678797e+00 -4.6085851548e+00 2.6607678797e+00 4.6085851548e+00 
104000 5.6309473875e+00 6.9942234803e-05 2.6607678797e+00 -4.6085851548e+00 2.6607678797e+00 4.6085851548e+00 
104100 5.6309473882e+00 7.0014445092e-05 2.6607678797e+00 -4.6085851548e+00 2.6607678797e+00 4.6085851548e+00 
104200 5.6309473888e+00 7.0086816715e-05 2.6607678797e+00 -4.6085851548e+00 2.6607678797e+00 4.6085851548e+00 
104300 5.6309473894e+00 7.0159351942e-05 2.6607678797e+00 -4.6085851548e+00 2.6607678797e+00 4.6085851548e+00 
104400 5.6309473900e+00 7.0232051569e-05 2.6607678797e+00 -4.6085851548e+00 2.6607678797e+00 4.6085851548e+00 
104500 5.6309473906e+00 7.0304914996e-05 2.6607678797e+00 -4.6085851548e+00 2.6607678797e+00 4.6085851548e+00 
104600 5.6309473912e+00 7.0377940322e-05 2.6607678797e+00 -4.6085851548e+00 2.6607678797e+00 4.6085851548e+00 
104700 5.6309473918e+00 7.0451124417e-05 2.6607678797e+00 -4.6085851548e+00 2.6607678797e+00 4.6085851548e+00 
104800 5.6309473923e+00 7.0524463005e-05 2.6607678797e+00 -4.6085851548e+00 2.6607678797e+00 4.6085851548e+00 
104900 5.6309473929e+00 7.0597950739e-05 2.6607678797e+00 -4.6085851548e+00 2.6607678797e+00 4.6085851548e+00 
105000 5.6309473935e+00 7.0671581275e-05 2.6607678797e+00 -4.6085851548e+00 2.6607678797e+00 4.6085851548e+00 
105100 5.6309473940e+00 7.0745347341e-05 2.6607678797e+00 -4.6085851548e+00 2.6607678797e+00 4.6085851548e+00 
105200 5.6309473945e+00 6.9784964712e-05 2.6607665503e+00 -4.6085828522e+00 2.6607665503e+00 4.6085828522e+00 
105300 5.6309473950e+00 6.9846386455e-05 2.6607665503e+00 -4.6085828522e+00 2.6607665503e+00 4.6085828522e+00 
105400 5.6309473955e+00 6.9907945255e-05 2.6607665503e+00 -4.6085828522e+00 2.6607665503e+00 4.6085828522e+00 
105500 5.6309473961e+00 6.9969647132e-05 2.6607665503e+00 -4.6085828522e+00 2.6607665503e+00 4.6085828522e+00 
105600 5.6309473966e+00 7.0031496613e-05 2.6607665503e+00 -4.6085828522e+00 2.6607665503e+00 4.6085828522e+00 
105700 5.6309473971e+00 7.0093496811e-05 2.6607665503e+00 -4.6085828522e+00 2.6607665503e+00 4.6085828522e+00 
105800 5.6309473976e+00 7.0155649502e-05 2.6607665503e+00 -4.6085828522e+00 2.6607665503e+00 4.6085828522e+00 
105900 5.6309473981e+00 7.0217955201e-05 2.6607665503e+00 -4.6085828522e+00 2.6607665503e+00 4.6085828522e+00 
106000 5.6309473986e+00 7.0280413240e-05 2.6607665503e+00 -4.6085828522e+00 2.6607665503e+00 4.6085828522e+00 
106100 5.6309473990e+00 7.0343021830e-05 2.6607665503e+00 -4.6085828522e+00 2.6607665503e+00 4.6085828522e+00 
106200 5.6309473995e+00 7.0405778142e-05 2.6607665503e+00 -4.6085828522e+00 2.6607665503e+00 4.6085828522e+00 
106300 5.6309474000e+00 7.0468678358e-05 2.6607665503e+00 -4.6085828522e+00 2.6607665503e+00 4.6085828522e+00 
106400 5.6309474005e+00 7.0531717757e-05 2.6607665503e+00 -4.6085828522e+00 2.6607665503e+00 4.6085828522e+00 
106500 5.6309474009e+00 7.0594890757e-05 2.6607665503e+00 -4.6085828522e+00 2.6607665503e+00 4.6085828522e+00 
106600 5.6309474014e+00 7.0658190988e-05 2.6607665503e+00 -4.6085828522e+00 2.6607665503e+00 4.6085828522e+00 
106700 5.6309474018e+00 7.0721611349e-05 2.6607665503e+00 -4.6085828522e+00 2.6607665503e+00 4.6085828522e+00 
106800 5.6309474022e+00 6.9751213627e-05 2.6607652213e+00 -4.6085805503e+00 2.6607652213e+00 4.6085805503e+00 
106900 5.6309474026e+00 6.9802264276e-05 2.6607652213e+00 -4.6085805503e+00 2.6607652213e+00 4.6085805503e+00 
107000 5.6309474030e+00 6.9853438130e-05 2.6607652213e+00 -4.6085805503e+00 2.6607652213e+00 4.6085805503e+00 
107100 5.6309474035e+00 6.9904742031e-05 2.6607652213e+00 -4.6085805503e+00 2.6607652213e+00 4.6085805503e+00 
107200 5.6309474039e+00 6.9956181466e-05 2.6607652213e+00 -4.6085805503e+00 2.6607652213e+00 4.6085805503e+00 
107300 5.6309474043e+00 7.0007760630e-05 2.6607652213e+00 -4.6085805503e+00 2.6607652213e+00 4.6085805503e+00 
107400 5.6309474047e+00 7.0059482505e-05 2.6607652213e+00 -4.6085805503e+00 2.6607652213e+00 4.6085805503e+00 
107500 5.6309474051e+00 7.0111348919e-05 2.6607652213e+00 -4.6085805503e+00 2.6607652213e+00 4.6085805503e+00 
107600 5.6309474055e+00 7.0163360608e-05 2.6607652213e+00 -4.6085805503e+00 2.6607652213e+00 4.6085805503e+00 
107700 5.6309474059e+00 7.0215517286e-05 2.6607652213e+00 -4.6085805503e+00 2.6607652213e+00 4.6085805503e+00 
107800 5.6309474063e+00 7.0267817700e-05 2.6607652213e+00 -4.6085805503e+00 2.6607652213e+00 4.6085805503e+00 
107900 5.6309474067e+00 7.0320259692e-05 2.6607652213e+00 -4.6085805503e+00 2.6607652213e+00 4.6085805503e+00 
108000 5.6309474071e+00 7.0372840251e-05 2.6607652213e+00 -4.6085805503e+00 2.6607652213e+00 4.6085805503e+00 
108100 5.6309474074e+00 7.0425555574e-05 2.6607652213e+00 -4.6085805503e+00 2.6607652213e+00 4.6085805503e+00 
108200 5.6309474078e+00 7.0478401120e-05 2.6607652213e+00 -4.6085805503e+00 2.6607652213e+00 4.6085805503e+00 
108300 5.6309474082e+00 7.0531371653e-05 2.6607652213e+00 -4.6085805503e+00 2.6607652213e+00 4.6085805503e+00 
108400 5.6309474085e+00 7.0584461305e-05 2.6607652213e+00 -4.6085805503e+00 2.6607652213e+00 4.6085805503e+00 
108500 5.6309474089e+00 7.0637663614e-05 2.6607652213e+00 -4.6085805503e+00 2.6607652213e+00 4.6085805503e+00 
108600 5.6309474092e+00 7.0690971573e-05 2.6607652213e+00 -4.6085805503e+00 2.6607652213e+00 4.6085805503e+00 
108700 5.6309474096e+00 7.0744377681e-05 2.6607652213e+00 -4.6085805503e+00 2.6607652213e+00 4.6085805503e+00 
108800 5.6309474099e+00 6.9763609344e-05 2.6607638919e+00 -4.6085782477e+00 2.6607638919e+00 4.6085782477e+00 
108900 5.6309474102e+00 6.9804597348e-05 2.6607638919e+00 -4.6085782477e+00 2.6607638919e+00 4.6085782477e+00 
109000 5.6309474105e+00 6.9845686659e-05 2.6607638919e+00 -4.6085782477e+00 2.6607638919e+00 4.6085782477e+00 
109100 5.6309474109e+00 6.9886884529e-05 2.6607638919e+00 -4.6085782477e+00 2.6607638919e+00 4.6085782477e+00 
109200 5.6309474112e+00 6.9928197018e-05 2.6607638919e+00 -4.6085782477e+00 2.6607638919e+00 4.6085782477e+00 
109300 5.6309474115e+00 6.9969629067e-05 2.6607638919e+00 -4.6085782477e+00 2.6607638919e+00 4.6085782477e+00 
109400 5.6309474119e+00 7.0011184541e-05 2.6607638919e+00 -4.6085782477e+00 2.6607638919e+00 4.6085782477e+00 
109500 5.6309474122e+00 7.0052866292e-05 2.6607638919e+00 -4.6085782477e+00 2.6607638919e+00 4.6085782477e+00 
109600 5.6309474125e+00 7.0094676212e-05 2.6607638919e+00 -4.6085782477e+00 2.6607638919e+00 4.6085782477e+00 
109700 5.6309474128e+00 7.0136615281e-05 2.6607638919e+00 -4.6085782477e+00 2.6607638919e+00 4.6085782477e+00 
109800 5.6309474131e+00 7.0178683625e-05 2.6607638919e+00 -4.6085782477e+00 2.6607638919e+00 4.6085782477e+00 
109900 5.6309474134e+00 7.0220880559e-05 2.6607638919e+00 -4.6085782477e+00 2.6607638919e+00 4.6085782477e+00 
110000 5.6309474137e+00 7.0263204642e-05 2.6607638919e+00 -4.6085782477e+00 2.6607638919e+00 4.6085782477e+00 
110100 5.6309474140e+00 7.0305653718e-05 2.6607638919e+00 -4.6085782477e+00 2.6607638919e+00 4.6085782477e+00 
110200 5.6309474143e+00 7.0348224962e-05 2.6607638919e+00 -4.6085782477e+00 2.6607638919e+00 4.6085782477e+00 
110300 5.6309474146e+00 7.0390914929e-05 2.6607638919e+00 -4.6085782477e+00 2.6607638919e+00 4.6085782477e+00 
110400 5.6309474149e+00 7.0433719591e-05 2.6607638919e+00 -4.6085782477e+00 2.6607638919e+00 4.6085782477e+00 
110500 5.6309474152e+00 7.0476634379e-05 2.6607638919e+00 -4.6085782477e+00 2.6607638919e+00 4.6085782477e+00 
110600 5.6309474155e+00 7.0519654226e-05 2.6607638919e+00 -4.6085782477e+00 2.6607638919e+00 4.6085782477e+00 
110700 5.6309474158e+00 7.0562773603e-05 2.6607638919e+00 -4.6085782477e+00 2.6607638919e+00 4.6085782477e+00 
110800 5.6309474160e+00 7.0605986556e-05 2.6607638919e+00 -4.6085782477e+00 2.6607638919e+00 4.6085782477e+00 
110900 5.6309474163e+00 7.0649286743e-05 2.6607638919e+00 -4.6085782477e+00 2.6607638919e+00 4.6085782477e+00 
111000 5.6309474166e+00 7.0692667466e-05 2.6607638919e+00 -4.6085782477e+00 2.6607638919e+00 4.6085782477e+00 
111100 5.6309474168e+00 7.0736121708e-05 2.6607638919e+00 -4.6085782477e+00 2.6607638919e+00 4.6085782477e+00 
111200 5.6309474170e+00 6.9745496777e-05 2.6607625627e+00 -4.6085759454e+00 2.6607625627e+00 4.6085759454e+00 
111300 5.6309474173e+00 6.9776487200e-05 2.6607625627e+00 -4.6085759454e+00 2.6607625627e+00 4.6085759454e+00 
111400 5.6309474176e+00 6.9807556714e-05 2.6607625627e+00 -4.6085759454e+00 2.6607625627e+00 4.6085759454e+00 
111500 5.6309474178e+00 6.9838713649e-05 2.6607625627e+00 -4.6085759454e+00 2.6607625627e+00 4.6085759454e+00 
111600 5.6309474181e+00 6.9869965274e-05 2.6607625627e+00 -4.6085759454e+00 2.6607625627e+00 4.6085759454e+00 
111700 5.6309474183e+00 6.9901317847e-05 2.6607625627e+00 -4.6085759454e+00 2.6607625627e+00 4.6085759454e+00 
111800 5.6309474186e+00 6.9932776656e-05 2.6607625627e+00 -4.6085759454e+00 2.6607625627e+00 4.6085759454e+00 
111900 5.6309474188e+00 6.9964346071e-05 2.6607625627e+00 -4.6085759454e+00 2.6607625627e+00 4.6085759454e+00 
112000 5.6309474191e+00 6.9996029591e-05 2.6607625627e+00 -4.6085759454e+00 2.6607625627e+00 4.6085759454e+00 
112100 5.6309474193e+00 7.0027829882e-05 2.6607625627e+00 -4.6085759454e+00 2.6607625627e+00 4.6085759454e+00 
112200 5.6309474195e+00 7.0059748820e-05 2.6607625627e+00 -4.6085759454e+00 2.6607625627e+00 4.6085759454e+00 
112300 5.6309474198e+00 7.0091787544e-05 2.6607625627e+00 -4.6085759454e+00 2.6607625627e+00 4.6085759454e+00 
112400 5.6309474200e+00 7.0123946481e-05 2.6607625627e+00 -4.6085759454e+00 2.6607625627e+00 4.6085759454e+00 
112500 5.6309474202e+00 7.0156225399e-05 2.6607625627e+00 -4.6085759454e+00 2.6607625627e+00 4.6085759454e+00 
112600 5.6309474205e+00 7.0188623437e-05 2.6607625627e+00 -4.6085759454e+00 2.6607625627e+00 4.6085759454e+00 
112700 5.6309474207e+00 7.0221139148e-05 2.6607625627e+00 -4.6085759454e+00 2.6607625627e+00 4.6085759454e+00 
112800 5.6309474209e+00 7.0253770530e-05 2.6607625627e+00 -4.6085759454e+00 2.6607625627e+00 4.6085759454e+00 
112900 5.6309474211e+00 7.0286515070e-05 2.6607625627e+00 -4.6085759454e+00 2.6607625627e+00 4.6085759454e+00 
113000 5.6309474213e+00 7.0319369767e-05 2.6607625627e+00 -4.6085759454e+00 2.6607625627e+00 4.6085759454e+00 
113100 5.6309474216e+00 7.0352331173e-05 2.6607625627e+00 -4.6085759454e+00 2.6607625627e+00 4.6085759454e+00 
113200 5.6309474218e+00 7.0385395424e-05 2.6607625627e+00 -4.6085759454e+00 2.6607625627e+00 4.6085759454e+00 
113300 5.6309474220e+00 7.0418558270e-05 2.6607625627e+00 -4.6085759454e+00 2.6607625627e+00 4.6085759454e+00 
113400 5.6309474222e+00 7.0451815101e-05 2.6607625627e+00 -4.6085759454e+00 2.6607625627e+00 4.6085759454e+00 
113500 5.6309474224e+00 7.0485160986e-05 2.6607625627e+00 -4.6085759454e+00 2.6607625627e+00 4.6085759454e+00 
113600 5.6309474226e+00 7.0518590688e-05 2.6607625627e+00 -4.6085759454e+00 2.6607625627e+00 4.6085759454e+00 
113700 5.6309474228e+00 7.0552098703e-05 2.6607625627e+00 -4.6085759454e+00 2.6607625627e+00 4.6085759454e+00 
113800 5.6309474230e+00 7.0585679275e-05 2.6607625627e+00 -4.6085759454e+00 2.6607625627e+00 4.6085759454e+00 
113900 5.6309474232e+00 7.0619326430e-05 2.6607625627e+00 -4.6085759454e+00 2.6607625627e+00 4.6085759454e+00 
114000 5.6309474234e+00 7.0653033992e-05 2.6607625627e+00 -4.6085759454e+00 2.6607625627e+00 4.6085759454e+00 
114100 5.6309474236e+00 7.0686795614e-05 2.6607625627e+00 -4.6085759454e+00 2.6607625627e+00 4.6085759454e+00 
114200 5.6309474238e+00 7.0720604792e-05 2.6607625627e+00 -4.6085759454e+00 2.6607625627e+00 4.6085759454e+00 
114300 5.6309474239e+00 6.9720534848e-05 2.6607612337e+00 -4.6085736436e+00 2.6607612337e+00 4.6085736436e+00 
114400 5.6309474241e+00 6.9741833171e-05 2.6607612337e+00 -4.6085736436e+00 2.6607612337e+00 4.6085736436e+00 
114500 5.6309474243e+00 6.9763187069e-05 2.6607612337e+00 -4.6085736436e+00 2.6607612337e+00 4.6085736436e+00 
114600 5.6309474244e+00 6.9784605949e-05 2.6607612337e+00 -4.6085736436e+00 2.6607612337e+00 4.6085736436e+00 
114700 5.6309474246e+00 6.9806098275e-05 2.6607612337e+00 -4.6085736436e+00 2.6607612337e+00 4.6085736436e+00 
114800 5.6309474248e+00 6.9827671605e-05 2.6607612337e+00 -4.6085736436e+00 2.6607612337e+00 4.6085736436e+00 
114900 5.6309474250e+00 6.9849332628e-05 2.6607612337e+00 -4.6085736436e+00 2.6607612337e+00 4.6085736436e+00 
115000 5.6309474252e+00 6.9871087207e-05 2.6607612337e+00 -4.6085736436e+00 2.6607612337e+00 4.6085736436e+00 
115100 5.6309474253e+00 6.9892940410e-05 2.6607612337e+00 -4.6085736436e+00 2.6607612337e+00 4.6085736436e+00 
115200 5.6309474255e+00 6.9914896553e-05 2.6607612337e+00 -4.6085736436e+00 2.6607612337e+00 4.6085736436e+00 
115300 5.6309474257e+00 6.9936959229e-05 2.6607612337e+00 -4.6085736436e+00 2.6607612337e+00 4.6085736436e+00 
115400 5.6309474258e+00 6.9959131348e-05 2.6607612337e+00 -4.6085736436e+00 2.6607612337e+00 4.6085736436e+00 
115500 5.6309474260e+00 6.9981415166e-05 2.6607612337e+00 -4.6085736436e+00 2.6607612337e+00 4.6085736436e+00 
115600 5.6309474262e+00 7.0003812322e-05 2.6607612337e+00 -4.6085736436e+00 2.6607612337e+00 4.6085736436e+00 
115700 5.6309474263e+00 7.0026323868e-05 2.6607612337e+00 -4.6085736436e+00 2.6607612337e+00 4.6085736436e+00 
115800 5.6309474265e+00 7.0048950303e-05 2.6607612337e+00 -4.6085736436e+00 2.6607612337e+00 4.6085736436e+00 
115900 5.6309474266e+00 7.0071691599e-05 2.6607612337e+00 -4.6085736436e+00 2.6607612337e+00 4.6085736436e+00 
116000 5.6309474268e+00 7.0094547236e-05 2.6607612337e+00 -4.6085736436e+00 2.6607612337e+00 4.6085736436e+00 
116100 5.6309474270e+00 7.0117516228e-05 2.6607612337e+00 -4.6085736436e+00 2.6607612337e+00 4.6085736436e+00 
116200 5.6309474271e+00 7.0140597150e-05 2.6607612337e+00 -4.6085736436e+00 2.6607612337e+00 4.6085736436e+00 
116300 5.6309474273e+00 7.0163788167e-05 2.6607612337e+00 -4.6085736436e+00 2.6607612337e+00 4.6085736436e+00 
116400 5.6309474274e+00 7.0187087063e-05 2.6607612337e+00 -4.6085736436e+00 2.6607612337e+00 4.6085736436e+00 
116500 5.6309474276e+00 7.0210491263e-05 2.6607612337e+00 -4.6085736436e+00 2.6607612337e+00 4.6085736436e+00 
116600 5.6309474277e+00 7.0233997856e-05 2.6607612337e+00 -4.6085736436e+00 2.6607612337e+00 4.6085736436e+00 
116700 5.6309474279e+00 7.0257603628e-05 2.6607612337e+00 -4.6085736436e+00 2.6607612337e+00 4.6085736436e+00 
116800 5.6309474280e+00 7.0281305072e-05 2.6607612337e+00 -4.6085736436e+00 2.6607612337e+00 4.6085736436e+00 
116900 5.6309474281e+00 7.0305098421e-05 2.6607612337e+00 -4.6085736436e+00 2.6607612337e+00 4.6085736436e+00 
117000 5.6309474283e+00 7.0328979666e-05 2.6607612337e+00 -4.6085736436e+00 2.6607612337e+00 4.6085736436e+00 
117100 5.6309474284e+00 7.0352944578e-05 2.6607612337e+00 -4.6085736436e+00 2.6607612337e+00 4.6085736436e+00 
117200 5.6309474286e+00 7.0376988724e-05 2.6607612337e+00 -4.6085736436e+00 2.6607612337e+00 4.6085736436e+00 
117300 5.6309474287e+00 7.0401107491e-05 2.6607612337e+00 -4.6085736436e+00 2.6607612337e+00 4.6085736436e+00 
117400 5.6309474288e+00 7.0425296103e-05 2.6607612337e+00 -4.6085736436e+00 2.6607612337e+00 4.6085736436e+00 
117500 5.6309474290e+00 7.0449549639e-05 2.6607612337e+00 -4.6085736436e+00 2.6607612337e+00 4.6085736436e+00 
117600 5.6309474291e+00 7.0473863051e-05 2.6607612337e+00 -4.6085736436e+00 2.6607612337e+00 4.6085736436e+00 
117700 5.6309474292e+00 7.0498231176e-05 2.6607612337e+00 -4.6085736436e+00 2.6607612337e+00 4.6085736436e+00 
117800 5.6309474294e+00 7.0522648756e-05 2.6607612337e+00 -4.6085736436e+00 2.6607612337e+00 4.6085736436e+00 
117900 5.6309474295e+00 7.0547110456e-05 2.6607612337e+00 -4.6085736436e+00 2.6607612337e+00 4.6085736436e+00 
118000 5.6309474296e+00 7.0571610869e-05 2.6607612337e+00 -4.6085736436e+00 2.6607612337e+00 4.6085736436e+00 
118100 5.6309474297e+00 7.0596144539e-05 2.6607612337e+00 -4.6085736436e+00 2.6607612337e+00 4.6085736436e+00 
118200 5.6309474299e+00 7.0620705968e-05 2.6607612337e+00 -4.6085736436e+00 2.6607612337e+00 4.6085736436e+00 
118300 5.6309474300e+00 7.0645289631e-05 2.6607612337e+00 -4.6085736436e+00 2.6607612337e+00 4.6085736436e+00 
118400 5.6309474301e+00 7.0669889987e-05 2.6607612337e+00 -4.6085736436e+00 2.6607612337e+00 4.6085736436e+00 
118500 5.6309474302e+00 7.0694501493e-05 2.6607612337e+00 -4.6085736436e+00 2.6607612337e+00 4.6085736436e+00 
118600 5.6309474303e+00 7.0719118611e-05 2.6607612337e+00 -4.6085736436e+00 2.6607612337e+00 4.6085736436e+00 
118700 5.6309474304e+00 6.9709835894e-05 2.6607599048e+00 -4.6085713418e+00 2.6607599048e+00 4.6085713418e+00 
118800 5.6309474305e+00 6.9721861973e-05 2.6607599048e+00 -4.6085713418e+00 2.6607599048e+00 4.6085713418e+00 
118900 5.6309474306e+00 6.9733905433e-05 2.6607599048e+00 -4.6085713418e+00 2.6607599048e+00 4.6085713418e+00 
119000 5.6309474307e+00 6.9745977178e-05 2.6607599048e+00 -4.6085713418e+00 2.6607599048e+00 4.6085713418e+00 
119100 5.6309474308e+00 6.9758087277e-05 2.6607599048e+00 -4.6085713418e+00 2.6607599048e+00 4.6085713418e+00 
119200 5.6309474309e+00 6.9770244994e-05 2.6607599048e+00 -4.6085713418e+00 2.6607599048e+00 4.6085713418e+00 
119300 5.6309474310e+00 6.9782458814e-05 2.6607599048e+00 -4.6085713418e+00 2.6607599048e+00 4.6085713418e+00 
119400 5.6309474312e+00 6.9794736477e-05 2.6607599048e+00 -4.6085713418e+00 2.6607599048e+00 4.6085713418e+00 
119500 5.6309474313e+00 6.9807085003e-05 2.6607599048e+00 -4.6085713418e+00 2.6607599048e+00 4.6085713418e+00 
119600 5.6309474314e+00 6.9819510729e-05 2.6607599048e+00 -4.6085713418e+00 2.6607599048e+00 4.6085713418e+00 
119700 5.6309474315e+00 6.9832019321e-05 2.6607599048e+00 -4.6085713418e+00 2.6607599048e+00 4.6085713418e+00 
119800 5.6309474316e+00 6.9844615819e-05 2.6607599048e+00 -4.6085713418e+00 2.6607599048e+00 4.6085713418e+00 
119900 5.6309474317e+00 6.9857304649e-05 2.6607599048e+00 -4.6085713418e+00 2.6607599048e+00 4.6085713418e+00 
120000 5.6309474318e+00 6.9870089663e-05 2.6607599048e+00 -4.6085713418e+00 2.6607599048e+00 4.6085713418e+00 
120100 5.6309474319e+00 6.9882974153e-05 2.6607599048e+00 -4.6085713418e+00 2.6607599048e+00 4.6085713418e+00 
120200 5.6309474320e+00 6.9895960885e-05 2.6607599048e+00 -4.6085713418e+00 2.6607599048e+00 4.6085713418e+00 
120300 5.6309474321e+00 6.9909052119e-05 2.6607599048e+00 -4.6085713418e+00 2.6607599048e+00 4.6085713418e+00 
120400 5.6309474322e+00 6.9922249635e-05 2.6607599048e+00 -4.6085713418e+00 2.6607599048e+00 4.6085713418e+00 
120500 5.6309474323e+00 6.9935554758e-05 2.6607599048e+00 -4.6085713418e+00 2.6607599048e+00 4.6085713418e+00 
120600 5.6309474324e+00 6.9948968375e-05 2.6607599048e+00 -4.6085713418e+00 2.6607599048e+00 4.6085713418e+00 
120700 5.6309474324e+00 6.9962490968e-05 2.6607599048e+00 -4.6085713418e+00 2.6607599048e+00 4.6085713418e+00 
120800 5.6309474325e+00 6.9976122629e-05 2.6607599048e+00 -4.6085713418e+00 2.6607599048e+00 4.6085713418e+00 
120900 5.6309474326e+00 6.9989863078e-05 2.6607599048e+00 -4.6085713418e+00 2.6607599048e+00 4.6085713418e+00 
121000 5.6309474327e+00 7.0003711696e-05 2.6607599048e+00 -4.6085713418e+00 2.6607599048e+00 4.6085713418e+00 
121100 5.6309474328e+00 7.0017667531e-05 2.6607599048e+00 -4.6085713418e+00 2.6607599048e+00 4.6085713418e+00 
121200 5.6309474329e+00 7.0031729330e-05 2.6607599048e+00 -4.6085713418e+00 2.6607599048e+00 4.6085713418e+00 
121300 5.6309474330e+00 7.0045895550e-05 2.6607599048e+00 -4.6085713418e+00 2.6607599048e+00 4.6085713418e+00 
121400 5.6309474331e+00 7.0060164381e-05 2.6607599048e+00 -4.6085713418e+00 2.6607599048e+00 4.6085713418e+00 
121500 5.6309474332e+00 7.0074533758e-05 2.6607599048e+00 -4.6085713418e+00 2.6607599048e+00 4.6085713418e+00 
121600 5.6309474332e+00 7.0089001390e-05 2.6607599048e+00 -4.6085713418e+00 2.6607599048e+00 4.6085713418e+00 
121700 5.6309474333e+00 7.0103564764e-05 2.6607599048e+00 -4.6085713418e+00 2.6607599048e+00 4.6085713418e+00 
121800 5.6309474334e+00 7.0118221169e-05 2.6607599048e+00 -4.6085713418e+00 2.6607599048e+00 4.6085713418e+00 
121900 5.6309474335e+00 7.0132967709e-05 2.6607599048e+00 -4.6085713418e+00 2.6607599048e+00 4.6085713418e+00 
122000 5.6309474336e+00 7.0147801319e-05 2.6607599048e+00 -4.6085713418e+00 2.6607599048e+00 4.6085713418e+00 
122100 5.6309474336e+00 7.0162718779e-05 2.6607599048e+00 -4.6085713418e+00 2.6607599048e+00 4.6085713418e+00 
122200 5.6309474337e+00 7.0177716731e-05 2.6607599048e+00 -4.6085713418e+00 2.6607599048e+00 4.6085713418e+00 
122300 5.6309474338e+00 7.0192791687e-05 2.6607599048e+00 -4.6085713418e+00 2.6607599048e+00 4.6085713418e+00 
122400 5.6309474339e+00 7.0207940047e-05 2.6607599048e+00 -4.6085713418e+00 2.6607599048e+00 4.6085713418e+00 
122500 5.6309474339e+00 7.0223158110e-05 2.6607599048e+00 -4.6085713418e+00 2.6607599048e+00 4.6085713418e+00 
122600 5.6309474340e+00 7.0238442087e-05 2.6607599048e+00 -4.6085713418e+00 2.6607599048e+00 4.6085713418e+00 
122700 5.6309474341e+00 7.0253788108e-05 2.6607599048e+00 -4.6085713418e+00 2.6607599048e+00 4.6085713418e+00 
122800 5.6309474342e+00 7.0269192238e-05 2.6607599048e+00 -4.6085713418e+00 2.6607599048e+00 4.6085713418e+00 
122900 5.6309474342e+00 7.0284650488e-05 2.6607599048e+00 -4.6085713418e+00 2.6607599048e+00 4.6085713418e+00 
123000 5.6309474343e+00 7.0300158821e-05 2.6607599048e+00 -4.6085713418e+00 2.6607599048e+00 4.6085713418e+00 
123100 5.6309474344e+00 7.0315713166e-05 2.6607599048e+00 -4.6085713418e+00 2.6607599048e+00 4.6085713418e+00 
123200 5.6309474344e+00 7.0331309422e-05 2.6607599048e+00 -4.6085713418e+00 2.6607599048e+00 4.6085713418e+00 
123300 5.6309474345e+00 7.0346943471e-05 2.6607599048e+00 -4.6085713418e+00 2.6607599048e+00 4.6085713418e+00 
123400 5.6309474346e+00 7.0362611186e-05 2.6607599048e+00 -4.6085713418e+00 2.6607599048e+00 4.6085713418e+00 
123500 5.6309474346e+00 7.0378308439e-05 2.6607599048e+00 -4.6085713418e+00 2.6607599048e+00 4.6085713418e+00 
123600 5.6309474347e+00 7.0394031104e-05 2.6607599048e+00 -4.6085713418e+00 2.6607599048e+00 4.6085713418e+00 
123700 5.6309474348e+00 7.0409775070e-05 2.6607599048e+00 -4.6085713418e+00 2.6607599048e+00 4.6085713418e+00 
123800 5.6309474348e+00 7.0425536247e-05 2.6607599048e+00 -4.6085713418e+00 2.6607599048e+00 4.6085713418e+00 
123900 5.6309474349e+00 7.0441310564e-05 2.6607599048e+00 -4.6085713418e+00 2.6607599048e+00 4.6085713418e+00 
124000 5.6309474350e+00 7.0457093989e-05 2.6607599048e+00 -4.6085713418e+00 2.6607599048e+00 4.6085713418e+00 
124100 5.6309474350e+00 7.0472882524e-05 2.6607599048e+00 -4.6085713418e+00 2.6607599048e+00 4.6085713418e+00 
124200 5.6309474351e+00 7.0488672212e-05 2.6607599048e+00 -4.6085713418e+00 2.6607599048e+00 4.6085713418e+00 
124300 5.6309474352e+00 7.0504459145e-05 2.6607599048e+00 -4.6085713418e+00 2.6607599048e+00 4.6085713418e+00 
124400 5.6309474352e+00 7.0520239467e-05 2.6607599048e+00 -4.6085713418e+00 2.6607599048e+00 4.6085713418e+00 
124500 5.6309474353e+00 7.0536009377e-05 2.6607599048e+00 -4.6085713418e+00 2.6607599048e+00 4.6085713418e+00 
124600 5.6309474353e+00 7.0551765135e-05 2.6607599048e+00 -4.6085713418e+00 2.6607599048e+00 4.6085713418e+00 
124700 5.6309474354e+00 7.0567503064e-05 2.6607599048e+00 -4.6085713418e+00 2.6607599048e+00 4.6085713418e+00 
124800 5.6309474355e+00 7.0583219551e-05 2.6607599048e+00 -4.6085713418e+00 2.6607599048e+00 4.6085713418e+00 
124900 5.6309474355e+00 7.0598911059e-05 2.6607599048e+00 -4.6085713418e+00 2.6607599048e+00 4.6085713418e+00 
125000 5.6309474356e+00 7.0614574120e-05 2.6607599048e+00 -4.6085713418e+00 2.6607599048e+00 4.6085713418e+00 
125100 5.6309474356e+00 7.0630205341e-05 2.6607599048e+00 -4.6085713418e+00 2.6607599048e+00 4.6085713418e+00 
125200 5.6309474357e+00 7.0645801410e-05 2.6607599048e+00 -4.6085713418e+00 2.6607599048e+00 4.6085713418e+00 
125300 5.6309474357e+00 7.0661359090e-05 2.6607599048e+00 -4.6085713418e+00 2.6607599048e+00 4.6085713418e+00 
125400 5.6309474358e+00 7.0676875229e-05 2.6607599048e+00 -4.6085713418e+00 2.6607599048e+00 4.6085713418e+00 
125500 5.6309474358e+00 7.0692346756e-05 2.6607599048e+00 -4.6085713418e+00 2.6607599048e+00 4.6085713418e+00 
125600 5.6309474359e+00 7.0707770686e-05 2.6607599048e+00 -4.6085713418e+00 2.6607599048e+00 4.6085713418e+00 
125700 5.6309474359e+00 7.0723144120e-05 2.6607599048e+00 -4.6085713418e+00 2.6607599048e+00 4.6085713418e+00 
125800 5.6309474359e+00 6.9704503711e-05 2.6607585758e+00 -4.6085690399e+00 2.6607585758e+00 4.6085690399e+00 
125900 5.6309474360e+00 6.9707181329e-05 2.6607585758e+00 -4.6085690399e+00 2.6607585758e+00 4.6085690399e+00 
126000 5.6309474360e+00 6.9709828534e-05 2.6607585758e+00 -4.6085690399e+00 2.6607585758e+00 4.6085690399e+00 
126100 5.6309474361e+00 6.9712459099e-05 2.6607585758e+00 -4.6085690399e+00 2.6607585758e+00 4.6085690399e+00 
126200 5.6309474361e+00 6.9715086001e-05 2.6607585758e+00 -4.6085690399e+00 2.6607585758e+00 4.6085690399e+00 
126300 5.6309474362e+00 6.9717721440e-05 2.6607585758e+00 -4.6085690399e+00 2.6607585758e+00 4.6085690399e+00 
126400 5.6309474362e+00 6.9720376864e-05 2.6607585758e+00 -4.6085690399e+00 2.6607585758e+00 4.6085690399e+00 
126500 5.6309474363e+00 6.9723062991e-05 2.6607585758e+00 -4.6085690399e+00 2.6607585758e+00 4.6085690399e+00 
126600 5.6309474363e+00 6.9725789829e-05 2.6607585758e+00 -4.6085690399e+00 2.6607585758e+00 4.6085690399e+00 
126700 5.6309474363e+00 6.9728566708e-05 2.6607585758e+00 -4.6085690399e+00 2.6607585758e+00 4.6085690399e+00 
126800 5.6309474364e+00 6.9731402287e-05 2.6607585758e+00 -4.6085690399e+00 2.6607585758e+00 4.6085690399e+00 
126900 5.6309474364e+00 6.9734304592e-05 2.6607585758e+00 -4.6085690399e+00 2.6607585758e+00 4.6085690399e+00 
127000 5.6309474365e+00 6.9737281025e-05 2.6607585758e+00 -4.6085690399e+00 2.6607585758e+00 4.6085690399e+00 
127100 5.6309474365e+00 6.9740338392e-05 2.6607585758e+00 -4.6085690399e+00 2.6607585758e+00 4.6085690399e+00 
127200 5.6309474366e+00 6.9743482928e-05 2.6607585758e+00 -4.6085690399e+00 2.6607585758e+00 4.6085690399e+00 
127300 5.6309474366e+00 6.9746720307e-05 2.6607585758e+00 -4.6085690399e+00 2.6607585758e+00 4.6085690399e+00 
127400 5.6309474366e+00 6.9750055673e-05 2.6607585758e+00 -4.6085690399e+00 2.6607585758e+00 4.6085690399e+00 
127500 5.6309474367e+00 6.9753493659e-05 2.6607585758e+00 -4.6085690399e+00 2.6607585758e+00 4.6085690399e+00 
127600 5.6309474367e+00 6.9757038400e-05 2.6607585758e+00 -4.6085690399e+00 2.6607585758e+00 4.6085690399e+00 
127700 5.6309474368e+00 6.9760693565e-05 2.6607585758e+00 -4.6085690399e+00 2.6607585758e+00 4.6085690399e+00 
127800 5.6309474368e+00 6.9764309393e-05 2.6607585758e+00 -4.6085690399e+00 2.6607585758e+00 4.6085690399e+00 
127800 5.6309474368e+00 6.9764309393e-05 2.6607585758e+00 -4.6085690399e+00 2.6607585758e+00 4.6085690399e+00 
