# step Hamiltonian StressXX CellTensor1 CellTensor2 CellTensor3 CellTensor4 
0 6.7453468619e+00 8.8387458635e-02 1.7439943123e+00 -3.0206867570e+00 1.7439943123e+00 3.0206867570e+00 
100 6.7419415104e+00 9.1757560980e-02 1.7439943123e+00 -3.0206867570e+00 1.7439943123e+00 3.0206867570e+00 
200 6.7381526479e+00 9.3232259506e-02 1.7413643021e+00 -3.0161314456e+00 1.7413643021e+00 3.0161314456e+00 
300 6.7342667019e+00 9.4393727493e-02 1.7386880001e+00 -3.0114959546e+00 1.7386880001e+00 3.0114959546e+00 
400 6.7303044654e+00 9.5265177593e-02 1.7359741973e+00 -3.0067955103e+00 1.7359741973e+00 3.0067955103e+00 
500 6.7262843469e+00 9.5867462194e-02 1.7332310677e+00 -3.0020442705e+00 1.7332310677e+00 3.0020442705e+00 
600 6.7222226979e+00 9.6219406287e-02 1.7304662336e+00 -2.9972554374e+00 1.7304662336e+00 2.9972554374e+00 
700 6.7181340902e+00 9.6338095543e-02 1.7276868208e+00 -2.9924413532e+00 1.7276868208e+00 2.9924413532e+00 
800 6.7140315476e+00 9.6239124555e-02 1.7248995060e+00 -2.9876135823e+00 1.7248995060e+00 2.9876135823e+00 
900 6.7099267412e+00 9.5936809893e-02 1.7221105568e+00 -2.9827829806e+00 1.7221105568e+00 2.9827829806e+00 
1000 6.7058301524e+00 9.5444372220e-02 1.7193258661e+00 -2.9779597548e+00 1.7193258661e+00 2.9779597548e+00 
1100 6.7017512090e+00 9.4774091339e-02 1.7165509805e+00 -2.9731535120e+00 1.7165509805e+00 2.9731535120e+00 
1200 6.6976984000e+00 9.3937437655e-02 1.7137911252e+00 -2.9683733024e+00 1.7137911252e+00 2.9683733024e+00 
1300 6.6936793705e+00 9.2945183143e-02 1.7110512242e+00 -2.9636276546e+00 1.7110512242e+00 2.9636276546e+00 
1400 6.6897010020e+00 9.1807494575e-02 1.7083359181e+00 -2.9589246066e+00 1.7083359181e+00 2.9589246066e+00 
1500 6.6857694797e+00 9.0534011453e-02 1.7056495791e+00 -2.9542717309e+00 1.7056495791e+00 2.9542717309e+00 
1600 6.6818903495e+00 8.9133910760e-02 1.7029963232e+00 -2.9496761568e+00 1.7029963232e+00 2.9496761568e+00 
1700 6.6780685663e+00 8.7615960433e-02 1.7003800214e+00 -2.9451445892e+00 1.7003800214e+00 2.9451445892e+00 
1800 6.6743085352e+00 8.5988563196e-02 1.6978043089e+00 -2.9406833243e+00 1.6978043089e+00 2.9406833243e+00 
1900 6.6706141475e+00 8.4259792181e-02 1.6952725932e+00 -2.9362982641e+00 1.6952725932e+00 2.9362982641e+00 
2000 6.6669888122e+00 8.2437419627e-02 1.6927880613e+00 -2.9319949287e+00 1.6927880613e+00 2.9319949287e+00 
2100 6.6634354837e+00 8.0528939727e-02 1.6903536861e+00 -2.9277784670e+00 1.6903536861e+00 2.9277784670e+00 
2200 6.6599566873e+00 7.8541586597e-02 1.6879722318e+00 -2.9236536673e+00 1.6879722318e+00 2.9236536673e+00 
2300 6.6565545418e+00 7.6482348207e-02 1.6856462599e+00 -2.9196249658e+00 1.6856462599e+00 2.9196249658e+00 
2400 6.6532307815e+00 7.4357976993e-02 1.6833781337e+00 -2.9156964559e+00 1.6833781337e+00 2.9156964559e+00 
2500 6.6499867760e+00 7.2174997783e-02 1.6811700233e+00 -2.9118718965e+00 1.6811700233e+00 2.9118718965e+00 
2600 6.6468235499e+00 6.9939713583e-02 1.6790239102e+00 -2.9081547196e+00 1.6790239102e+00 2.9081547196e+00 
2700 6.6437418016e+00 6.7658209707e-02 1.6769415922e+00 -2.9045480389e+00 1.6769415922e+00 2.9045480389e+00 
2800 6.6407419218e+00 6.5336356626e-02 1.6749246874e+00 -2.9010546575e+00 1.6749246874e+00 2.9010546575e+00 
2900 6.6378240110e+00 6.2979811920e-02 1.6729746397e+00 -2.8976770758e+00 1.6729746397e+00 2.8976770758e+00 
3000 6.6349878981e+00 6.0594021594e-02 1.6710927227e+00 -2.8944174999e+00 1.6710927227e+00 2.8944174999e+00 
3100 6.6322331578e+00 5.8184221017e-02 1.6692800449e+00 -2.8912778499e+00 1.6692800449e+00 2.8912778499e+00 
3200 6.6295591284e+00 5.5755435693e-02 1.6675375546e+00 -2.8882597681e+00 1.6675375546e+00 2.8882597681e+00 
3300 6.6269649291e+00 5.3312482023e-02 1.6658660447e+00 -2.8853646281e+00 1.6658660447e+00 2.8853646281e+00 
3400 6.6244494778e+00 5.0859968194e-02 1.6642661580e+00 -2.8825935430e+00 1.6642661580e+00 2.8825935430e+00 
3500 6.6220115082e+00 4.8402295306e-02 1.6627383922e+00 -2.8799473750e+00 1.6627383922e+00 2.8799473750e+00 
3600 6.6196495868e+00 4.5943658807e-02 1.6612831053e+00 -2.8774267442e+00 1.6612831053e+00 2.8774267442e+00 
3700 6.6173621301e+00 4.3488050306e-02 1.6599005210e+00 -2.8750320379e+00 1.6599005210e+00 2.8750320379e+00 
3800 6.6151474212e+00 4.1039259786e-02 1.6585907339e+00 -2.8727634201e+00 1.6585907339e+00 2.8727634201e+00 
3900 6.6130036262e+00 3.8600878260e-02 1.6573537152e+00 -2.8706208409e+00 1.6573537152e+00 2.8706208409e+00 
4000 6.6109288097e+00 3.6176300847e-02 1.6561893182e+00 -2.8686040461e+00 1.6561893182e+00 2.8686040461e+00 
4100 6.6089209511e+00 3.3768730289e-02 1.6550972836e+00 -2.8667125866e+00 1.6550972836e+00 2.8667125866e+00 
4200 6.6069779590e+00 3.1381180884e-02 1.6540772451e+00 -2.8649458281e+00 1.6540772451e+00 2.8649458281e+00 
4300 6.6050976860e+00 2.9016482799e-02 1.6531287349e+00 -2.8633029604e+00 1.6531287349e+00 2.8633029604e+00 
4400 6.6032779427e+00 2.6677286753e-02 1.6522511894e+00 -2.8617830070e+00 1.6522511894e+00 2.8617830070e+00 
4500 6.6015165111e+00 2.4366069014e-02 1.6514439540e+00 -2.8603848342e+00 1.6514439540e+00 2.8603848342e+00 
4600 6.5998111570e+00 2.2085136693e-02 1.6507062888e+00 -2.8591071607e+00 1.6507062888e+00 2.8591071607e+00 
4700 6.5981596422e+00 1.9836633263e-02 1.6500373738e+00 -2.8579485659e+00 1.6500373738e+00 2.8579485659e+00 
4800 6.5965597358e+00 1.7622544295e-02 1.6494363139e+00 -2.8569074995e+00 1.6494363139e+00 2.8569074995e+00 
4900 6.5950092247e+00 1.5444703335e-02 1.6489021437e+00 -2.8559822896e+00 1.6489021437e+00 2.8559822896e+00 
5000 6.5935059233e+00 1.3304797900e-02 1.6484338330e+00 -2.8551711516e+00 1.6484338330e+00 2.8551711516e+00 
5100 6.5920476830e+00 1.1204375545e-02 1.6480302907e+00 -2.8544721959e+00 1.6480302907e+00 2.8544721959e+00 
5200 6.5906323995e+00 9.1448499531e-03 1.6476903700e+00 -2.8538834361e+00 1.6476903700e+00 2.8538834361e+00 
5300 6.5892580214e+00 7.1275070257e-03 1.6474128727e+00 -2.8534027966e+00 1.6474128727e+00 2.8534027966e+00 
5400 6.5879225561e+00 5.1535109196e-03 1.6471965532e+00 -2.8530281202e+00 1.6471965532e+00 2.8530281202e+00 
5500 6.5866240762e+00 3.2239100122e-03 1.6470401229e+00 -2.8527571750e+00 1.6470401229e+00 2.8527571750e+00 
5600 6.5853607244e+00 1.3396427570e-03 1.6469422541e+00 -2.8525876612e+00 1.6469422541e+00 2.8525876612e+00 
5700 6.5841307182e+00 -4.9845659389e-04 1.6469015836e+00 -2.8525172179e+00 1.6469015836e+00 2.8525172179e+00 
5800 6.5829323536e+00 -2.2896524268e-03 1.6469167168e+00 -2.8525434293e+00 1.6469167168e+00 2.8525434293e+00 
5900 6.5817640078e+00 -4.0333023801e-03 1.6469862306e+00 -2.8526638308e+00 1.6469862306e+00 2.8526638308e+00 
6000 6.5806241422e+00 -5.7288521545e-03 1.6471086771e+00 -2.8528759142e+00 1.6471086771e+00 2.8528759142e+00 
6100 6.5795113036e+00 -7.3758305323e-03 1.6472825864e+00 -2.8531771341e+00 1.6472825864e+00 2.8531771341e+00 
6200 6.5784241255e+00 -8.9738446181e-03 1.6475064702e+00 -2.8535649122e+00 1.6475064702e+00 2.8535649122e+00 
6300 6.5773613286e+00 -1.0522575308e-02 1.6477788240e+00 -2.8540366428e+00 1.6477788240e+00 2.8540366428e+00 
6400 6.5763217208e+00 -1.2021772996e-02 1.6480981300e+00 -2.8545896971e+00 1.6480981300e+00 2.8545896971e+00 
6500 6.5753041965e+00 -1.3471253514e-02 1.6484628600e+00 -2.8552214280e+00 1.6484628600e+00 2.8552214280e+00 
6600 6.5743077359e+00 -1.4870894318e-02 1.6488714774e+00 -2.8559291740e+00 1.6488714774e+00 2.8559291740e+00 
6700 6.5733314029e+00 -1.6220630903e-02 1.6493224395e+00 -2.8567102633e+00 1.6493224395e+00 2.8567102633e+00 
6800 6.5723743440e+00 -1.7520453463e-02 1.6498142001e+00 -2.8575620177e+00 1.6498142001e+00 2.8575620177e+00 
6900 6.5714357853e+00 -1.8770403776e-02 1.6503452112e+00 -2.8584817559e+00 1.6503452112e+00 2.8584817559e+00 
7000 6.5705150304e+00 -1.9970572310e-02 1.6509139250e+00 -2.8594667970e+00 1.6509139250e+00 2.8594667970e+00 
7100 6.5696114570e+00 -2.1121095556e-02 1.6515187958e+00 -2.8605144639e+00 1.6515187958e+00 2.8605144639e+00 
7200 6.5687245141e+00 -2.2222153556e-02 1.6521582816e+00 -2.8616220859e+00 1.6521582816e+00 2.8616220859e+00 
7300 6.5678537185e+00 -2.3273967640e-02 1.6528308461e+00 -2.8627870018e+00 1.6528308461e+00 2.8627870018e+00 
7400 6.5669986510e+00 -2.4276798350e-02 1.6535349599e+00 -2.8640065626e+00 1.6535349599e+00 2.8640065626e+00 
7500 6.5661589527e+00 -2.5230943534e-02 1.6542691020e+00 -2.8652781341e+00 1.6542691020e+00 2.8652781341e+00 
7600 6.5653343212e+00 -2.6136736618e-02 1.6550317615e+00 -2.8665990991e+00 1.6550317615e+00 2.8665990991e+00 
7700 6.5645245064e+00 -2.6994545021e-02 1.6558214387e+00 -2.8679668600e+00 1.6558214387e+00 2.8679668600e+00 
7800 6.5637293065e+00 -2.7804768725e-02 1.6566366461e+00 -2.8693788407e+00 1.6566366461e+00 2.8693788407e+00 
7900 6.5629485638e+00 -2.8567838968e-02 1.6574759102e+00 -2.8708324889e+00 1.6574759102e+00 2.8708324889e+00 
8000 6.5621821606e+00 -2.9284217056e-02 1.6583377723e+00 -2.8723252778e+00 1.6583377723e+00 2.8723252778e+00 
8100 6.5614300152e+00 -2.9954393293e-02 1.6592207895e+00 -2.8738547084e+00 1.6592207895e+00 2.8738547084e+00 
8200 6.5606920774e+00 -3.0578885996e-02 1.6601235358e+00 -2.8754183108e+00 1.6601235358e+00 2.8754183108e+00 
8300 6.5599683250e+00 -3.1158240601e-02 1.6610446031e+00 -2.8770136463e+00 1.6610446031e+00 2.8770136463e+00 
8400 6.5592587592e+00 -3.1693028843e-02 1.6619826024e+00 -2.8786383086e+00 1.6619826024e+00 2.8786383086e+00 
8500 6.5585634015e+00 -3.2183848003e-02 1.6629361640e+00 -2.8802899258e+00 1.6629361640e+00 2.8802899258e+00 
8600 6.5578822892e+00 -3.2631320204e-02 1.6639039392e+00 -2.8819661616e+00 1.6639039392e+00 2.8819661616e+00 
8700 6.5572154724e+00 -3.3036091757e-02 1.6648846005e+00 -2.8836647168e+00 1.6648846005e+00 2.8836647168e+00 
8800 6.5565630101e+00 -3.3398832537e-02 1.6658768426e+00 -2.8853833305e+00 1.6658768426e+00 2.8853833305e+00 
8900 6.5559249672e+00 -3.3720235395e-02 1.6668793831e+00 -2.8871197816e+00 1.6668793831e+00 2.8871197816e+00 
9000 6.5553014113e+00 -3.4001015581e-02 1.6678909633e+00 -2.8888718899e+00 1.6678909633e+00 2.8888718899e+00 
9100 6.5546924096e+00 -3.4241910185e-02 1.6689103487e+00 -2.8906375173e+00 1.6689103487e+00 2.8906375173e+00 
9200 6.5540980266e+00 -3.4443677580e-02 1.6699363300e+00 -2.8924145690e+00 1.6699363300e+00 2.8924145690e+00 
9300 6.5535183208e+00 -3.4607096866e-02 1.6709677233e+00 -2.8942009945e+00 1.6709677233e+00 2.8942009945e+00 
9400 6.5529533433e+00 -3.4732967305e-02 1.6720033707e+00 -2.8959947885e+00 1.6720033707e+00 2.8959947885e+00 
9500 6.5524031347e+00 -3.4822107747e-02 1.6730421414e+00 -2.8977939921e+00 1.6730421414e+00 2.8977939921e+00 
9600 6.5518677241e+00 -3.4875356039e-02 1.6740829315e+00 -2.8995966935e+00 1.6740829315e+00 2.8995966935e+00 
9700 6.5513471266e+00 -3.4893568408e-02 1.6751246652e+00 -2.9014010291e+00 1.6751246652e+00 2.9014010291e+00 
9800 6.5508413423e+00 -3.4877618831e-02 1.6761662946e+00 -2.9032051842e+00 1.6761662946e+00 2.9032051842e+00 
9900 6.5503503548e+00 -3.4828398363e-02 1.6772068007e+00 -2.9050073936e+00 1.6772068007e+00 2.9050073936e+00 
10000 6.5498741303e+00 -3.4746814449e-02 1.6782451935e+00 -2.9068059427e+00 1.6782451935e+00 2.9068059427e+00 
10100 6.5494126163e+00 -3.4633790194e-02 1.6792805125e+00 -2.9085991679e+00 1.6792805125e+00 2.9085991679e+00 
10200 6.5489657413e+00 -3.4490263602e-02 1.6803118272e+00 -2.9103854573e+00 1.6803118272e+00 2.9103854573e+00 
10300 6.5485334144e+00 -3.4317186780e-02 1.6813382371e+00 -2.9121632513e+00 1.6813382371e+00 2.9121632513e+00 
10400 6.5481155246e+00 -3.4115525110e-02 1.6823588722e+00 -2.9139310432e+00 1.6823588722e+00 2.9139310432e+00 
10500 6.5477119408e+00 -3.3886256375e-02 1.6833728933e+00 -2.9156873793e+00 1.6833728933e+00 2.9156873793e+00 
10600 6.5473225121e+00 -3.3630369855e-02 1.6843794924e+00 -2.9174308600e+00 1.6843794924e+00 2.9174308600e+00 
10700 6.5469470675e+00 -3.3348865385e-02 1.6853778924e+00 -2.9191601396e+00 1.6853778924e+00 2.9191601396e+00 
10800 6.5465854170e+00 -3.3042752380e-02 1.6863673478e+00 -2.9208739266e+00 1.6863673478e+00 2.9208739266e+00 
10900 6.5462373513e+00 -3.2713048815e-02 1.6873471447e+00 -2.9225709846e+00 1.6873471447e+00 2.9225709846e+00 
11000 6.5459026429e+00 -3.2360780184e-02 1.6883166008e+00 -2.9242501318e+00 1.6883166008e+00 2.9242501318e+00 
11100 6.5455810468e+00 -3.1986978419e-02 1.6892750656e+00 -2.9259102415e+00 1.6892750656e+00 2.9259102415e+00 
11200 6.5452723013e+00 -3.1592680775e-02 1.6902219204e+00 -2.9275502422e+00 1.6902219204e+00 2.9275502422e+00 
11300 6.5449761289e+00 -3.1178928700e-02 1.6911565784e+00 -2.9291691174e+00 1.6911565784e+00 2.9291691174e+00 
11400 6.5446922374e+00 -3.0746766661e-02 1.6920784848e+00 -2.9307659061e+00 1.6920784848e+00 2.9307659061e+00 
11500 6.5444203213e+00 -3.0297240959e-02 1.6929871163e+00 -2.9323397020e+00 1.6929871163e+00 2.9323397020e+00 
11600 6.5441600626e+00 -2.9831398517e-02 1.6938819816e+00 -2.9338896542e+00 1.6938819816e+00 2.9338896542e+00 
11700 6.5439111321e+00 -2.9350285652e-02 1.6947626209e+00 -2.9354149662e+00 1.6947626209e+00 2.9354149662e+00 
11800 6.5436731911e+00 -2.8854946825e-02 1.6956286060e+00 -2.9369148964e+00 1.6956286060e+00 2.9369148964e+00 
11900 6.5434458922e+00 -2.8346423389e-02 1.6964795400e+00 -2.9383887573e+00 1.6964795400e+00 2.9383887573e+00 
12000 6.5432288812e+00 -2.7825752317e-02 1.6973150570e+00 -2.9398359151e+00 1.6973150570e+00 2.9398359151e+00 
12100 6.5430217978e+00 -2.7293964931e-02 1.6981348220e+00 -2.9412557898e+00 1.6981348220e+00 2.9412557898e+00 
12200 6.5428242779e+00 -2.6752085625e-02 1.6989385308e+00 -2.9426478542e+00 1.6989385308e+00 2.9426478542e+00 
12300 6.5426359540e+00 -2.6201130591e-02 1.6997259092e+00 -2.9440116336e+00 1.6997259092e+00 2.9440116336e+00 
12400 6.5424564571e+00 -2.5642106546e-02 1.7004967132e+00 -2.9453467053e+00 1.7004967132e+00 2.9453467053e+00 
12500 6.5422854180e+00 -2.5076009471e-02 1.7012507282e+00 -2.9466526976e+00 1.7012507282e+00 2.9466526976e+00 
12600 6.5421224686e+00 -2.4503823357e-02 1.7019877688e+00 -2.9479292895e+00 1.7019877688e+00 2.9479292895e+00 
12700 6.5419672430e+00 -2.3926518973e-02 1.7027076785e+00 -2.9491762096e+00 1.7027076785e+00 2.9491762096e+00 
12800 6.5418193788e+00 -2.3345052643e-02 1.7034103289e+00 -2.9503932358e+00 1.7034103289e+00 2.9503932358e+00 
12900 6.5416785182e+00 -2.2760365055e-02 1.7040956194e+00 -2.9515801937e+00 1.7040956194e+00 2.9515801937e+00 
13000 6.5415443095e+00 -2.2173380087e-02 1.7047634766e+00 -2.9527369563e+00 1.7047634766e+00 2.9527369563e+00 
13100 6.5414164074e+00 -2.1585003673e-02 1.7054138539e+00 -2.9538634428e+00 1.7054138539e+00 2.9538634428e+00 
13200 6.5412944747e+00 -2.0996122686e-02 1.7060467307e+00 -2.9549596177e+00 1.7060467307e+00 2.9549596177e+00 
13300 6.5411781827e+00 -2.0407603872e-02 1.7066621120e+00 -2.9560254893e+00 1.7066621120e+00 2.9560254893e+00 
13400 6.5410672125e+00 -1.9820292816e-02 1.7072600275e+00 -2.9570611093e+00 1.7072600275e+00 2.9570611093e+00 
13500 6.5409612550e+00 -1.9235012947e-02 1.7078405312e+00 -2.9580665713e+00 1.7078405312e+00 2.9580665713e+00 
13600 6.5408600126e+00 -1.8652564594e-02 1.7084037006e+00 -2.9590420092e+00 1.7084037006e+00 2.9590420092e+00 
13700 6.5407631988e+00 -1.8073724085e-02 1.7089496359e+00 -2.9599875969e+00 1.7089496359e+00 2.9599875969e+00 
13800 6.5406705393e+00 -1.7499242899e-02 1.7094784594e+00 -2.9609035461e+00 1.7094784594e+00 2.9609035461e+00 
13900 6.5405817721e+00 -1.6929846865e-02 1.7099903148e+00 -2.9617901057e+00 1.7099903148e+00 2.9617901057e+00 
14000 6.5404966483e+00 -1.6366235424e-02 1.7104853663e+00 -2.9626475600e+00 1.7104853663e+00 2.9626475600e+00 
14100 6.5404149316e+00 -1.5809080940e-02 1.7109637977e+00 -2.9634762275e+00 1.7109637977e+00 2.9634762275e+00 
14200 6.5403363993e+00 -1.5259028069e-02 1.7114258119e+00 -2.9642764596e+00 1.7114258119e+00 2.9642764596e+00 
14300 6.5402608419e+00 -1.4716693197e-02 1.7118716299e+00 -2.9650486391e+00 1.7118716299e+00 2.9650486391e+00 
14400 6.5401880631e+00 -1.4182663926e-02 1.7123014901e+00 -2.9657931788e+00 1.7123014901e+00 2.9657931788e+00 
14500 6.5401178800e+00 -1.3657498634e-02 1.7127156472e+00 -2.9665105198e+00 1.7127156472e+00 2.9665105198e+00 
14600 6.5400501229e+00 -1.3141726086e-02 1.7131143715e+00 -2.9672011307e+00 1.7131143715e+00 2.9672011307e+00 
14700 6.5399846350e+00 -1.2635845122e-02 1.7134979483e+00 -2.9678655051e+00 1.7134979483e+00 2.9678655051e+00 
14800 6.5399212723e+00 -1.2140324396e-02 1.7138666764e+00 -2.9685041609e+00 1.7138666764e+00 2.9685041609e+00 
14900 6.5398599033e+00 -1.1655602191e-02 1.7142208680e+00 -2.9691176387e+00 1.7142208680e+00 2.9691176387e+00 
15000 6.5398004083e+00 -1.1182086287e-02 1.7145608471e+00 -2.9697064999e+00 1.7145608471e+00 2.9697064999e+00 
15100 6.5397426795e+00 -1.0720153899e-02 1.7148869493e+00 -2.9702713254e+00 1.7148869493e+00 2.9702713254e+00 
15200 6.5396866202e+00 -1.0270151681e-02 1.7151995203e+00 -2.9708127143e+00 1.7151995203e+00 2.9708127143e+00 
15300 6.5396321445e+00 -9.8323957830e-03 1.7154989155e+00 -2.9713312821e+00 1.7154989155e+00 2.9713312821e+00 
15400 6.5395791766e+00 -9.4071719792e-03 1.7157854989e+00 -2.9718276590e+00 1.7157854989e+00 2.9718276590e+00 
15500 6.5395276503e+00 -8.9947358507e-03 1.7160596422e+00 -2.9723024892e+00 1.7160596422e+00 2.9723024892e+00 
15600 6.5394775085e+00 -8.5953130295e-03 1.7163217242e+00 -2.9727564284e+00 1.7163217242e+00 2.9727564284e+00 
15700 6.5394287026e+00 -8.2090994990e-03 1.7165721295e+00 -2.9731901432e+00 1.7165721295e+00 2.9731901432e+00 
15800 6.5393811917e+00 -7.8362619513e-03 1.7168112482e+00 -2.9736043089e+00 1.7168112482e+00 2.9736043089e+00 
15900 6.5393349420e+00 -7.4769381975e-03 1.7170394747e+00 -2.9739996088e+00 1.7170394747e+00 2.9739996088e+00 
16000 6.5392899265e+00 -7.1312376300e-03 1.7172572069e+00 -2.9743767320e+00 1.7172572069e+00 2.9743767320e+00 
16100 6.5392461240e+00 -6.7992417350e-03 1.7174648456e+00 -2.9747363728e+00 1.7174648456e+00 2.9747363728e+00 
16200 6.5392035186e+00 -6.4810046518e-03 1.7176627935e+00 -2.9750792287e+00 1.7176627935e+00 2.9750792287e+00 
16300 6.5391620989e+00 -6.1765537777e-03 1.7178514546e+00 -2.9754059993e+00 1.7178514546e+00 2.9754059993e+00 
16400 6.5391218579e+00 -5.8858904147e-03 1.7180312333e+00 -2.9757173851e+00 1.7180312333e+00 2.9757173851e+00 
16500 6.5390827918e+00 -5.6089904567e-03 1.7182025337e+00 -2.9760140861e+00 1.7182025337e+00 2.9760140861e+00 
16600 6.5390448997e+00 -5.3458051138e-03 1.7183657589e+00 -2.9762968004e+00 1.7183657589e+00 2.9762968004e+00 
16700 6.5390081830e+00 -5.0962616711e-03 1.7185213104e+00 -2.9765662235e+00 1.7185213104e+00 2.9765662235e+00 
16800 6.5389726449e+00 -4.8602642795e-03 1.7186695871e+00 -2.9768230463e+00 1.7186695871e+00 2.9768230463e+00 
16900 6.5389382900e+00 -4.6376947750e-03 1.7188109852e+00 -2.9770679549e+00 1.7188109852e+00 2.9770679549e+00 
17000 6.5389051234e+00 -4.4284135248e-03 1.7189458969e+00 -2.9773016289e+00 1.7189458969e+00 2.9773016289e+00 
17100 6.5388731508e+00 -4.2322602964e-03 1.7190747104e+00 -2.9775247404e+00 1.7190747104e+00 2.9775247404e+00 
17200 6.5388423777e+00 -4.0490551477e-03 1.7191978089e+00 -2.9777379533e+00 1.7191978089e+00 2.9777379533e+00 
17300 6.5388128090e+00 -3.8785993342e-03 1.7193155703e+00 -2.9779419220e+00 1.7193155703e+00 2.9779419220e+00 
17400 6.5387844490e+00 -3.7206762317e-03 1.7194283664e+00 -2.9781372906e+00 1.7194283664e+00 2.9781372906e+00 
17500 6.5387573007e+00 -3.5750522718e-03 1.7195365627e+00 -2.9783246920e+00 1.7195365627e+00 2.9783246920e+00 
17600 6.5387313658e+00 -3.4414778858e-03 1.7196405177e+00 -2.9785047473e+00 1.7196405177e+00 2.9785047473e+00 
17700 6.5387066442e+00 -3.3196884568e-03 1.7197405825e+00 -2.9786780647e+00 1.7197405825e+00 2.9786780647e+00 
17800 6.5386831340e+00 -3.2094052757e-03 1.7198371005e+00 -2.9788452389e+00 1.7198371005e+00 2.9788452389e+00 
17900 6.5386608311e+00 -3.1103364994e-03 1.7199304069e+00 -2.9790068502e+00 1.7199304069e+00 2.9790068502e+00 
18000 6.5386397293e+00 -3.0221781085e-03 1.7200208281e+00 -2.9791634643e+00 1.7200208281e+00 2.9791634643e+00 
18100 6.5386198202e+00 -2.9446148628e-03 1.7201086818e+00 -2.9793156314e+00 1.7201086818e+00 2.9793156314e+00 
18200 6.5386010927e+00 -2.8773212512e-03 1.7201942764e+00 -2.9794638856e+00 1.7201942764e+00 2.9794638856e+00 
18300 6.5385835335e+00 -2.8199624351e-03 1.7202779107e+00 -2.9796087444e+00 1.7202779107e+00 2.9796087444e+00 
18400 6.5385671266e+00 -2.7721951826e-03 1.7203598737e+00 -2.9797507086e+00 1.7203598737e+00 2.9797507086e+00 
18500 6.5385518538e+00 -2.7336687922e-03 1.7204404446e+00 -2.9798902614e+00 1.7204404446e+00 2.9798902614e+00 
18600 6.5385376943e+00 -2.7040260031e-03 1.7205198919e+00 -2.9800278683e+00 1.7205198919e+00 2.9800278683e+00 
18700 6.5385246250e+00 -2.6829038918e-03 1.7205984742e+00 -2.9801639767e+00 1.7205984742e+00 2.9801639767e+00 
18800 6.5385126204e+00 -2.6699347521e-03 1.7206764390e+00 -2.9802990158e+00 1.7206764390e+00 2.9802990158e+00 
18900 6.5385016530e+00 -2.6647469582e-03 1.7207540235e+00 -2.9804333960e+00 1.7207540235e+00 2.9804333960e+00 
19000 6.5384916930e+00 -2.6669658084e-03 1.7208314537e+00 -2.9805675091e+00 1.7208314537e+00 2.9805675091e+00 
19100 6.5384827088e+00 -2.6762143494e-03 1.7209089449e+00 -2.9807017278e+00 1.7209089449e+00 2.9807017278e+00 
19200 6.5384746671e+00 -2.6921141786e-03 1.7209867013e+00 -2.9808364059e+00 1.7209867013e+00 2.9808364059e+00 
19300 6.5384675327e+00 -2.7142862250e-03 1.7210649162e+00 -2.9809718780e+00 1.7210649162e+00 2.9809718780e+00 
19400 6.5384612693e+00 -2.7423515058e-03 1.7211437716e+00 -2.9811084596e+00 1.7211437716e+00 2.9811084596e+00 
19500 6.5384558390e+00 -2.7759318601e-03 1.7212234388e+00 -2.9812464472e+00 1.7212234388e+00 2.9812464472e+00 
19600 6.5384512031e+00 -2.8146506569e-03 1.7213040778e+00 -2.9813861180e+00 1.7213040778e+00 2.9813861180e+00 
19700 6.5384473218e+00 -2.8581334779e-03 1.7213858377e+00 -2.9815277303e+00 1.7213858377e+00 2.9815277303e+00 
19800 6.5384441547e+00 -2.9060087750e-03 1.7214688567e+00 -2.9816715235e+00 1.7214688567e+00 2.9816715235e+00 
19900 6.5384416609e+00 -2.9579085001e-03 1.7215532623e+00 -2.9818177183e+00 1.7215532623e+00 2.9818177183e+00 
20000 6.5384397992e+00 -3.0134687089e-03 1.7216391712e+00 -2.9819665168e+00 1.7216391712e+00 2.9819665168e+00 
20100 6.5384385281e+00 -3.0723301375e-03 1.7217266893e+00 -2.9821181027e+00 1.7217266893e+00 2.9821181027e+00 
20200 6.5384378066e+00 -3.1341387517e-03 1.7218159125e+00 -2.9822726417e+00 1.7218159125e+00 2.9822726417e+00 
20300 6.5384375934e+00 -3.1985462681e-03 1.7219069259e+00 -2.9824302815e+00 1.7219069259e+00 2.9824302815e+00 
20400 6.5384378482e+00 -3.2652106485e-03 1.7219998047e+00 -2.9825911524e+00 1.7219998047e+00 2.9825911524e+00 
20500 6.5384385308e+00 -3.3337965664e-03 1.7220946143e+00 -2.9827553674e+00 1.7220946143e+00 2.9827553674e+00 
20600 6.5384396020e+00 -3.4039758461e-03 1.7221914100e+00 -2.9829230225e+00 1.7221914100e+00 2.9829230225e+00 
20700 6.5384410237e+00 -3.4754278737e-03 1.7222902378e+00 -2.9830941973e+00 1.7222902378e+00 2.9830941973e+00 
20800 6.5384427584e+00 -3.5478399819e-03 1.7223911343e+00 -2.9832689552e+00 1.7223911343e+00 2.9832689552e+00 
20900 6.5384447702e+00 -3.6209078072e-03 1.7224941271e+00 -2.9834473438e+00 1.7224941271e+00 2.9834473438e+00 
21000 6.5384470242e+00 -3.6943356201e-03 1.7225992347e+00 -2.9836293955e+00 1.7225992347e+00 2.9836293955e+00 
21100 6.5384494872e+00 -3.7678366294e-03 1.7227064672e+00 -2.9838151277e+00 1.7227064672e+00 2.9838151277e+00 
21200 6.5384521272e+00 -3.8411332601e-03 1.7228158264e+00 -2.9840045435e+00 1.7228158264e+00 2.9840045435e+00 
21300 6.5384549140e+00 -3.9139574053e-03 1.7229273060e+00 -2.9841976317e+00 1.7229273060e+00 2.9841976317e+00 
21400 6.5384578189e+00 -3.9860506535e-03 1.7230408917e+00 -2.9843943680e+00 1.7230408917e+00 2.9843943680e+00 
21500 6.5384608150e+00 -4.0571644901e-03 1.7231565621e+00 -2.9845947150e+00 1.7231565621e+00 2.9845947150e+00 
21600 6.5384638773e+00 -4.1270604756e-03 1.7232742882e+00 -2.9847986226e+00 1.7232742882e+00 2.9847986226e+00 
21700 6.5384669823e+00 -4.1955103986e-03 1.7233940343e+00 -2.9850060289e+00 1.7233940343e+00 2.9850060289e+00 
21800 6.5384701084e+00 -4.2622964068e-03 1.7235157581e+00 -2.9852168607e+00 1.7235157581e+00 2.9852168607e+00 
21900 6.5384732360e+00 -4.3272111139e-03 1.7236394108e+00 -2.9854310334e+00 1.7236394108e+00 2.9854310334e+00 
22000 6.5384763470e+00 -4.3900576855e-03 1.7237649377e+00 -2.9856484525e+00 1.7237649377e+00 2.9856484525e+00 
22100 6.5384794255e+00 -4.4506499021e-03 1.7238922785e+00 -2.9858690132e+00 1.7238922785e+00 2.9858690132e+00 
22200 6.5384824571e+00 -4.5088122018e-03 1.7240213674e+00 -2.9860926016e+00 1.7240213674e+00 2.9860926016e+00 
22300 6.5384854291e+00 -4.5643797023e-03 1.7241521334e+00 -2.9863190951e+00 1.7241521334e+00 2.9863190951e+00 
22400 6.5384883308e+00 -4.6171982028e-03 1.7242845010e+00 -2.9865483625e+00 1.7242845010e+00 2.9865483625e+00 
22500 6.5384911529e+00 -4.6671241670e-03 1.7244183901e+00 -2.9867802652e+00 1.7244183901e+00 2.9867802652e+00 
22600 6.5384938878e+00 -4.7140246872e-03 1.7245537165e+00 -2.9870146573e+00 1.7245537165e+00 2.9870146573e+00 
22700 6.5384965296e+00 -4.7577774306e-03 1.7246903921e+00 -2.9872513864e+00 1.7246903921e+00 2.9872513864e+00 
22800 6.5384990735e+00 -4.7982705679e-03 1.7248283252e+00 -2.9874902936e+00 1.7248283252e+00 2.9874902936e+00 
22900 6.5385015165e+00 -4.8354026857e-03 1.7249674213e+00 -2.9877312150e+00 1.7249674213e+00 2.9877312150e+00 
23000 6.5385038567e+00 -4.8690826822e-03 1.7251075824e+00 -2.9879739812e+00 1.7251075824e+00 2.9879739812e+00 
23100 6.5385060934e+00 -4.8992296483e-03 1.7252487084e+00 -2.9882184186e+00 1.7252487084e+00 2.9882184186e+00 
23200 6.5385082273e+00 -4.9257727332e-03 1.7253906965e+00 -2.9884643492e+00 1.7253906965e+00 2.9884643492e+00 
23300 6.5385102598e+00 -4.9486509960e-03 1.7255334421e+00 -2.9887115920e+00 1.7255334421e+00 2.9887115920e+00 
23400 6.5385121936e+00 -4.9678132443e-03 1.7256768389e+00 -2.9889599625e+00 1.7256768389e+00 2.9889599625e+00 
23500 6.5385140322e+00 -4.9832178597e-03 1.7258207791e+00 -2.9892092741e+00 1.7258207791e+00 2.9892092741e+00 
23600 6.5385157797e+00 -4.9948326107e-03 1.7259651535e+00 -2.9894593379e+00 1.7259651535e+00 2.9894593379e+00 
23700 6.5385174412e+00 -5.0026344549e-03 1.7261098523e+00 -2.9897099636e+00 1.7261098523e+00 2.9897099636e+00 
23800 6.5385190221e+00 -5.0066093294e-03 1.7262547650e+00 -2.9899609598e+00 1.7262547650e+00 2.9899609598e+00 
23900 6.5385205285e+00 -5.0067519320e-03 1.7263997806e+00 -2.9902121343e+00 1.7263997806e+00 2.9902121343e+00 
24000 6.5385219670e+00 -5.0030654918e-03 1.7265447883e+00 -2.9904632948e+00 1.7265447883e+00 2.9904632948e+00 
24100 6.5385233443e+00 -4.9955615312e-03 1.7266896769e+00 -2.9907142493e+00 1.7266896769e+00 2.9907142493e+00 
24200 6.5385246676e+00 -4.9842596199e-03 1.7268343361e+00 -2.9909648064e+00 1.7268343361e+00 2.9909648064e+00 
24300 6.5385259441e+00 -4.9691871205e-03 1.7269786560e+00 -2.9912147757e+00 1.7269786560e+00 2.9912147757e+00 
24400 6.5385271812e+00 -4.9503789273e-03 1.7271225273e+00 -2.9914639683e+00 1.7271225273e+00 2.9914639683e+00 
24500 6.5385283864e+00 -4.9278771989e-03 1.7272658422e+00 -2.9917121969e+00 1.7272658422e+00 2.9917121969e+00 
24600 6.5385295671e+00 -4.9017310842e-03 1.7274084938e+00 -2.9919592768e+00 1.7274084938e+00 2.9919592768e+00 
24700 6.5385307304e+00 -4.8719964435e-03 1.7275503768e+00 -2.9922050253e+00 1.7275503768e+00 2.9922050253e+00 
24800 6.5385318836e+00 -4.8387355651e-03 1.7276913876e+00 -2.9924492631e+00 1.7276913876e+00 2.9924492631e+00 
24900 6.5385330335e+00 -4.8020168769e-03 1.7278314242e+00 -2.9926918136e+00 1.7278314242e+00 2.9926918136e+00 
25000 6.5385341869e+00 -4.7619146557e-03 1.7279703869e+00 -2.9929325040e+00 1.7279703869e+00 2.9929325040e+00 
25100 6.5385353500e+00 -4.7185087322e-03 1.7281081779e+00 -2.9931711651e+00 1.7281081779e+00 2.9931711651e+00 
25200 6.5385365288e+00 -4.6718841946e-03 1.7282447021e+00 -2.9934076320e+00 1.7282447021e+00 2.9934076320e+00 
25300 6.5385377291e+00 -4.6221310895e-03 1.7283798666e+00 -2.9936417437e+00 1.7283798666e+00 2.9936417437e+00 
25400 6.5385389559e+00 -4.5693441218e-03 1.7285135811e+00 -2.9938733441e+00 1.7285135811e+00 2.9938733441e+00 
25500 6.5385402141e+00 -4.5136223541e-03 1.7286457583e+00 -2.9941022817e+00 1.7286457583e+00 2.9941022817e+00 
25600 6.5385415080e+00 -4.4550689053e-03 1.7287763137e+00 -2.9943284102e+00 1.7287763137e+00 2.9943284102e+00 
25700 6.5385428414e+00 -4.3937906494e-03 1.7289051656e+00 -2.9945515884e+00 1.7289051656e+00 2.9945515884e+00 
25800 6.5385442176e+00 -4.3298979153e-03 1.7290322358e+00 -2.9947716803e+00 1.7290322358e+00 2.9947716803e+00 
25900 6.5385456396e+00 -4.2635041880e-03 1.7291574489e+00 -2.9949885558e+00 1.7291574489e+00 2.9949885558e+00 
26000 6.5385471097e+00 -4.1947258106e-03 1.7292807331e+00 -2.9952020902e+00 1.7292807331e+00 2.9952020902e+00 
26100 6.5385486298e+00 -4.1236816894e-03 1.7294020198e+00 -2.9954121649e+00 1.7294020198e+00 2.9954121649e+00 
26200 6.5385502013e+00 -4.0504930011e-03 1.7295212439e+00 -2.9956186672e+00 1.7295212439e+00 2.9956186672e+00 
26300 6.5385518250e+00 -3.9752829031e-03 1.7296383439e+00 -2.9958214903e+00 1.7296383439e+00 2.9958214903e+00 
26400 6.5385535016e+00 -3.8981762474e-03 1.7297532617e+00 -2.9960205339e+00 1.7297532617e+00 2.9960205339e+00 
26500 6.5385552309e+00 -3.8192992981e-03 1.7298659431e+00 -2.9962157037e+00 1.7298659431e+00 2.9962157037e+00 
26600 6.5385570124e+00 -3.7387794536e-03 1.7299763372e+00 -2.9964069119e+00 1.7299763372e+00 2.9964069119e+00 
26700 6.5385588455e+00 -3.6567449732e-03 1.7300843970e+00 -2.9965940770e+00 1.7300843970e+00 2.9965940770e+00 
26800 6.5385607287e+00 -3.5733247084e-03 1.7301900792e+00 -2.9967771239e+00 1.7301900792e+00 2.9967771239e+00 
26900 6.5385626605e+00 -3.4886478404e-03 1.7302933442e+00 -2.9969559841e+00 1.7302933442e+00 2.9969559841e+00 
27000 6.5385646390e+00 -3.4028436229e-03 1.7303941560e+00 -2.9971305953e+00 1.7303941560e+00 2.9971305953e+00 
27100 6.5385666617e+00 -3.3160411304e-03 1.7304924826e+00 -2.9973009020e+00 1.7304924826e+00 2.9973009020e+00 
27200 6.5385687263e+00 -3.2283690142e-03 1.7305882956e+00 -2.9974668549e+00 1.7305882956e+00 2.9974668549e+00 
27300 6.5385708298e+00 -3.1399552637e-03 1.7306815702e+00 -2.9976284112e+00 1.7306815702e+00 2.9976284112e+00 
27400 6.5385729692e+00 -3.0509269753e-03 1.7307722854e+00 -2.9977855346e+00 1.7307722854e+00 2.9977855346e+00 
27500 6.5385751411e+00 -2.9614101288e-03 1.7308604239e+00 -2.9979381949e+00 1.7308604239e+00 2.9979381949e+00 
27600 6.5385773423e+00 -2.8715293703e-03 1.7309459719e+00 -2.9980863685e+00 1.7309459719e+00 2.9980863685e+00 
27700 6.5385795691e+00 -2.7814078039e-03 1.7310289194e+00 -2.9982300377e+00 1.7310289194e+00 2.9982300377e+00 
27800 6.5385818177e+00 -2.6911667900e-03 1.7311092597e+00 -2.9983691913e+00 1.7311092597e+00 2.9983691913e+00 
27900 6.5385840846e+00 -2.6009257530e-03 1.7311869899e+00 -2.9985038238e+00 1.7311869899e+00 2.9985038238e+00 
28000 6.5385863657e+00 -2.5108019961e-03 1.7312621101e+00 -2.9986339360e+00 1.7312621101e+00 2.9986339360e+00 
28100 6.5385886573e+00 -2.4209105253e-03 1.7313346243e+00 -2.9987595341e+00 1.7313346243e+00 2.9987595341e+00 
28200 6.5385909555e+00 -2.3313638812e-03 1.7314045393e+00 -2.9988806305e+00 1.7314045393e+00 2.9988806305e+00 
28300 6.5385932564e+00 -2.2422719801e-03 1.7314718655e+00 -2.9989972430e+00 1.7314718655e+00 2.9989972430e+00 
28400 6.5385955563e+00 -2.1537419636e-03 1.7315366164e+00 -2.9991093948e+00 1.7315366164e+00 2.9991093948e+00 
28500 6.5385978515e+00 -2.0658780566e-03 1.7315988084e+00 -2.9992171145e+00 1.7315988084e+00 2.9992171145e+00 
28600 6.5386001382e+00 -1.9787814348e-03 1.7316584611e+00 -2.9993204360e+00 1.7316584611e+00 2.9993204360e+00 
28700 6.5386024131e+00 -1.8925501009e-03 1.7317155968e+00 -2.9994193980e+00 1.7317155968e+00 2.9994193980e+00 
28800 6.5386046727e+00 -1.8072787695e-03 1.7317702409e+00 -2.9995140443e+00 1.7317702409e+00 2.9995140443e+00 
28900 6.5386069137e+00 -1.7230587614e-03 1.7318224213e+00 -2.9996044233e+00 1.7318224213e+00 2.9996044233e+00 
29000 6.5386091332e+00 -1.6399779066e-03 1.7318721685e+00 -2.9996905881e+00 1.7318721685e+00 2.9996905881e+00 
29100 6.5386113281e+00 -1.5581204564e-03 1.7319195157e+00 -2.9997725958e+00 1.7319195157e+00 2.9997725958e+00 
29200 6.5386134957e+00 -1.4775670038e-03 1.7319644984e+00 -2.9998505081e+00 1.7319644984e+00 2.9998505081e+00 
29300 6.5386156335e+00 -1.3983944140e-03 1.7320071543e+00 -2.9999243904e+00 1.7320071543e+00 2.9999243904e+00 
29400 6.5386177391e+00 -1.3206757623e-03 1.7320475237e+00 -2.9999943121e+00 1.7320475237e+00 2.9999943121e+00 
29500 6.5386198104e+00 -1.2444802814e-03 1.7320856485e+00 -3.0000603463e+00 1.7320856485e+00 3.0000603463e+00 
29600 6.5386218455e+00 -1.1698733176e-03 1.7321215730e+00 -3.0001225693e+00 1.7321215730e+00 3.0001225693e+00 
29700 6.5386238426e+00 -1.0969162943e-03 1.7321553430e+00 -3.0001810607e+00 1.7321553430e+00 3.0001810607e+00 
29800 6.5386258003e+00 -1.0256666853e-03 1.7321870065e+00 -3.0002359034e+00 1.7321870065e+00 3.0002359034e+00 
29900 6.5386277172e+00 -9.5617799528e-04 1.7322166127e+00 -3.0002871829e+00 1.7322166127e+00 3.0002871829e+00 
30000 6.5386295923e+00 -8.8849974838e-04 1.7322442126e+00 -3.0003349873e+00 1.7322442126e+00 3.0003349873e+00 
30100 6.5386314246e+00 -8.2267748528e-04 1.7322698586e+00 -3.0003794074e+00 1.7322698586e+00 3.0003794074e+00 
30200 6.5386332136e+00 -7.5875276735e-04 1.7322936043e+00 -3.0004205362e+00 1.7322936043e+00 3.0004205362e+00 
30300 6.5386349587e+00 -6.9676318856e-04 1.7323155045e+00 -3.0004584686e+00 1.7323155045e+00 3.0004584686e+00 
30400 6.5386366597e+00 -6.3674239462e-04 1.7323356153e+00 -3.0004933015e+00 1.7323356153e+00 3.0004933015e+00 
30500 6.5386383164e+00 -5.7872010919e-04 1.7323539935e+00 -3.0005251335e+00 1.7323539935e+00 3.0005251335e+00 
30600 6.5386399290e+00 -5.2272216704e-04 1.7323706968e+00 -3.0005540644e+00 1.7323706968e+00 3.0005540644e+00 
30700 6.5386414977e+00 -4.6877055367e-04 1.7323857838e+00 -3.0005801958e+00 1.7323857838e+00 3.0005801958e+00 
30800 6.5386430228e+00 -4.1688345147e-04 1.7323993134e+00 -3.0006036298e+00 1.7323993134e+00 3.0006036298e+00 
30900 6.5386445050e+00 -3.6707529197e-04 1.7324113454e+00 -3.0006244698e+00 1.7324113454e+00 3.0006244698e+00 
31000 6.5386459449e+00 -3.1935681391e-04 1.7324219397e+00 -3.0006428198e+00 1.7324219397e+00 3.0006428198e+00 
31100 6.5386473433e+00 -2.7373512706e-04 1.7324311568e+00 -3.0006587842e+00 1.7324311568e+00 3.0006587842e+00 
31200 6.5386487012e+00 -2.3021378133e-04 1.7324390571e+00 -3.0006724680e+00 1.7324390571e+00 3.0006724680e+00 
31300 6.5386500195e+00 -1.8879284100e-04 1.7324457013e+00 -3.0006839761e+00 1.7324457013e+00 3.0006839761e+00 
31400 6.5386512995e+00 -1.4946896379e-04 1.7324511501e+00 -3.0006934136e+00 1.7324511501e+00 3.0006934136e+00 
31500 6.5386525422e+00 -1.1223548446e-04 1.7324554639e+00 -3.0007008853e+00 1.7324554639e+00 3.0007008853e+00 
31600 6.5386537490e+00 -7.7082502709e-05 1.7324587031e+00 -3.0007064958e+00 1.7324587031e+00 3.0007064958e+00 
31700 6.5386549211e+00 -4.3996975067e-05 1.7324609277e+00 -3.0007103490e+00 1.7324609277e+00 3.0007103490e+00 
31800 6.5386560599e+00 -1.4354546274e-05 1.7324609277e+00 -3.0007103490e+00 1.7324609277e+00 3.0007103490e+00 
31900 6.5386571668e+00 1.4230008268e-05 1.7324609277e+00 -3.0007103490e+00 1.7324609277e+00 3.0007103490e+00 
32000 6.5386582432e+00 4.1718974260e-05 1.7324609277e+00 -3.0007103490e+00 1.7324609277e+00 3.0007103490e+00 
32100 6.5386592908e+00 6.8078083605e-05 1.7324609277e+00 -3.0007103490e+00 1.7324609277e+00 3.0007103490e+00 
32200 6.5386603109e+00 9.3276458558e-05 1.7324609277e+00 -3.0007103490e+00 1.7324609277e+00 3.0007103490e+00 
32300 6.5386613047e+00 1.1433553259e-04 1.7324582357e+00 -3.0007056863e+00 1.7324582357e+00 3.0007056863e+00 
32400 6.5386622737e+00 1.3350036906e-04 1.7324549359e+00 -3.0006999708e+00 1.7324549359e+00 3.0006999708e+00 
32500 6.5386632193e+00 1.5080533612e-04 1.7324510830e+00 -3.0006932974e+00 1.7324510830e+00 3.0006932974e+00 
32600 6.5386641428e+00 1.6628698923e-04 1.7324467306e+00 -3.0006857589e+00 1.7324467306e+00 3.0006857589e+00 
32700 6.5386650457e+00 1.7998395448e-04 1.7324419314e+00 -3.0006774464e+00 1.7324419314e+00 3.0006774464e+00 
32800 6.5386659291e+00 1.9193681080e-04 1.7324367369e+00 -3.0006684492e+00 1.7324367369e+00 3.0006684492e+00 
32900 6.5386667944e+00 2.0218797142e-04 1.7324311974e+00 -3.0006588545e+00 1.7324311974e+00 3.0006588545e+00 
33000 6.5386676426e+00 2.1078156499e-04 1.7324253620e+00 -3.0006487474e+00 1.7324253620e+00 3.0006487474e+00 
33100 6.5386684750e+00 2.1776331621e-04 1.7324192786e+00 -3.0006382106e+00 1.7324192786e+00 3.0006382106e+00 
33200 6.5386692925e+00 2.2318042667e-04 1.7324129937e+00 -3.0006273247e+00 1.7324129937e+00 3.0006273247e+00 
33300 6.5386700961e+00 2.2708145575e-04 1.7324065524e+00 -3.0006161681e+00 1.7324065524e+00 3.0006161681e+00 
33400 6.5386708869e+00 2.2951620202e-04 1.7323999984e+00 -3.0006048163e+00 1.7323999984e+00 3.0006048163e+00 
33500 6.5386716655e+00 2.3053558528e-04 1.7323933742e+00 -3.0005933428e+00 1.7323933742e+00 3.0005933428e+00 
33600 6.5386724330e+00 2.3019152945e-04 1.7323867205e+00 -3.0005818183e+00 1.7323867205e+00 3.0005818183e+00 
33700 6.5386731898e+00 2.2853684651e-04 1.7323800768e+00 -3.0005703110e+00 1.7323800768e+00 3.0005703110e+00 
33800 6.5386739368e+00 2.2562512177e-04 1.7323734807e+00 -3.0005588863e+00 1.7323734807e+00 3.0005588863e+00 
33900 6.5386746744e+00 2.2151060041e-04 1.7323669687e+00 -3.0005476072e+00 1.7323669687e+00 3.0005476072e+00 
34000 6.5386754032e+00 2.1624807586e-04 1.7323605754e+00 -3.0005365337e+00 1.7323605754e+00 3.0005365337e+00 
34100 6.5386761237e+00 2.0989277974e-04 1.7323543340e+00 -3.0005257232e+00 1.7323543340e+00 3.0005257232e+00 
34200 6.5386768361e+00 2.0250027393e-04 1.7323482760e+00 -3.0005152304e+00 1.7323482760e+00 3.0005152304e+00 
34300 6.5386775408e+00 1.9412634460e-04 1.7323424313e+00 -3.0005051072e+00 1.7323424313e+00 3.0005051072e+00 
34400 6.5386782381e+00 1.8482689859e-04 1.7323368283e+00 -3.0004954025e+00 1.7323368283e+00 3.0004954025e+00 
34500 6.5386789282e+00 1.7465786209e-04 1.7323314937e+00 -3.0004861627e+00 1.7323314937e+00 3.0004861627e+00 
34600 6.5386796111e+00 1.6367508187e-04 1.7323264526e+00 -3.0004774312e+00 1.7323264526e+00 3.0004774312e+00 
34700 6.5386802870e+00 1.5193422910e-04 1.7323217285e+00 -3.0004692487e+00 1.7323217285e+00 3.0004692487e+00 
34800 6.5386809560e+00 1.3949070596e-04 1.7323173432e+00 -3.0004616532e+00 1.7323173432e+00 3.0004616532e+00 
34900 6.5386816179e+00 1.2639955503e-04 1.7323133171e+00 -3.0004546798e+00 1.7323133171e+00 3.0004546798e+00 
35000 6.5386822728e+00 1.1271537165e-04 1.7323096688e+00 -3.0004483607e+00 1.7323096688e+00 3.0004483607e+00 
35100 6.5386829206e+00 9.8492219270e-05 1.7323064154e+00 -3.0004427258e+00 1.7323064154e+00 3.0004427258e+00 
35200 6.5386835611e+00 8.3783547914e-05 1.7323035726e+00 -3.0004378019e+00 1.7323035726e+00 3.0004378019e+00 
35300 6.5386841943e+00 6.8642115808e-05 1.7323011544e+00 -3.0004336134e+00 1.7323011544e+00 3.0004336134e+00 
35400 6.5386848200e+00 5.5292336940e-05 1.7323011544e+00 -3.0004336134e+00 1.7323011544e+00 3.0004336134e+00 
35500 6.5386854378e+00 4.1132885747e-05 1.7323011544e+00 -3.0004336134e+00 1.7323011544e+00 3.0004336134e+00 
35600 6.5386860475e+00 2.6201776602e-05 1.7323011544e+00 -3.0004336134e+00 1.7323011544e+00 3.0004336134e+00 
35700 6.5386866491e+00 1.0537390102e-05 1.7323011544e+00 -3.0004336134e+00 1.7323011544e+00 3.0004336134e+00 
35800 6.5386872422e+00 -5.8216067997e-06 1.7323011544e+00 -3.0004336134e+00 1.7323011544e+00 3.0004336134e+00 
35900 6.5386878267e+00 -2.2836338596e-05 1.7323011544e+00 -3.0004336134e+00 1.7323011544e+00 3.0004336134e+00 
36000 6.5386884023e+00 -4.0467796907e-05 1.7323011544e+00 -3.0004336134e+00 1.7323011544e+00 3.0004336134e+00 
36100 6.5386889689e+00 -5.8676913969e-05 1.7323011544e+00 -3.0004336134e+00 1.7323011544e+00 3.0004336134e+00 
36200 6.5386895264e+00 -7.7424633879e-05 1.7323011544e+00 -3.0004336134e+00 1.7323011544e+00 3.0004336134e+00 
36300 6.5386900741e+00 -9.4222055326e-05 1.7323033891e+00 -3.0004374840e+00 1.7323033891e+00 3.0004374840e+00 
36400 6.5386906122e+00 -1.1093618587e-04 1.7323061087e+00 -3.0004421945e+00 1.7323061087e+00 3.0004421945e+00 
36500 6.5386911402e+00 -1.2752751211e-04 1.7323093106e+00 -3.0004477405e+00 1.7323093106e+00 3.0004477405e+00 
36600 6.5386916581e+00 -1.4395792220e-04 1.7323129915e+00 -3.0004541159e+00 1.7323129915e+00 3.0004541159e+00 
36700 6.5386921657e+00 -1.6019073687e-04 1.7323171466e+00 -3.0004613127e+00 1.7323171466e+00 3.0004613127e+00 
36800 6.5386926627e+00 -1.7619073713e-04 1.7323217702e+00 -3.0004693210e+00 1.7323217702e+00 3.0004693210e+00 
36900 6.5386931492e+00 -1.9192418861e-04 1.7323268556e+00 -3.0004781292e+00 1.7323268556e+00 3.0004781292e+00 
37000 6.5386936250e+00 -2.0735886268e-04 1.7323323951e+00 -3.0004877239e+00 1.7323323951e+00 3.0004877239e+00 
37100 6.5386940899e+00 -2.2246405431e-04 1.7323383800e+00 -3.0004980901e+00 1.7323383800e+00 3.0004980901e+00 
37200 6.5386945440e+00 -2.3721059680e-04 1.7323448010e+00 -3.0005092115e+00 1.7323448010e+00 3.0005092115e+00 
37300 6.5386949871e+00 -2.5157087333e-04 1.7323516475e+00 -3.0005210700e+00 1.7323516475e+00 3.0005210700e+00 
37400 6.5386954193e+00 -2.6551882550e-04 1.7323589084e+00 -3.0005336464e+00 1.7323589084e+00 3.0005336464e+00 
37500 6.5386958406e+00 -2.7902995888e-04 1.7323665720e+00 -3.0005469200e+00 1.7323665720e+00 3.0005469200e+00 
37600 6.5386962509e+00 -2.9208134561e-04 1.7323746254e+00 -3.0005608689e+00 1.7323746254e+00 3.0005608689e+00 
37700 6.5386966503e+00 -3.0465162415e-04 1.7323830555e+00 -3.0005754703e+00 1.7323830555e+00 3.0005754703e+00 
37800 6.5386970390e+00 -3.1672099623e-04 1.7323918483e+00 -3.0005906999e+00 1.7323918483e+00 3.0005906999e+00 
37900 6.5386974170e+00 -3.2827122112e-04 1.7324009895e+00 -3.0006065329e+00 1.7324009895e+00 3.0006065329e+00 
38000 6.5386977843e+00 -3.3928560728e-04 1.7324104640e+00 -3.0006229432e+00 1.7324104640e+00 3.0006229432e+00 
38100 6.5386981412e+00 -3.4974900139e-04 1.7324202563e+00 -3.0006399039e+00 1.7324202563e+00 3.0006399039e+00 
38200 6.5386984879e+00 -3.5964777504e-04 1.7324303505e+00 -3.0006573877e+00 1.7324303505e+00 3.0006573877e+00 
38300 6.5386988244e+00 -3.6896980891e-04 1.7324407304e+00 -3.0006753661e+00 1.7324407304e+00 3.0006753661e+00 
38400 6.5386991510e+00 -3.7770447474e-04 1.7324513792e+00 -3.0006938105e+00 1.7324513792e+00 3.0006938105e+00 
38500 6.5386994679e+00 -3.8584261513e-04 1.7324622801e+00 -3.0007126914e+00 1.7324622801e+00 3.0007126914e+00 
38600 6.5386997753e+00 -3.9337652112e-04 1.7324734158e+00 -3.0007319789e+00 1.7324734158e+00 3.0007319789e+00 
38700 6.5387000734e+00 -4.0029990788e-04 1.7324847688e+00 -3.0007516430e+00 1.7324847688e+00 3.0007516430e+00 
38800 6.5387003626e+00 -4.0660788838e-04 1.7324963216e+00 -3.0007716530e+00 1.7324963216e+00 3.0007716530e+00 
38900 6.5387006430e+00 -4.1229694532e-04 1.7325080564e+00 -3.0007919782e+00 1.7325080564e+00 3.0007919782e+00 
39000 6.5387009150e+00 -4.1736490123e-04 1.7325199552e+00 -3.0008125876e+00 1.7325199552e+00 3.0008125876e+00 
39100 6.5387011788e+00 -4.2181088705e-04 1.7325320003e+00 -3.0008334502e+00 1.7325320003e+00 3.0008334502e+00 
39200 6.5387014347e+00 -4.2563530907e-04 1.7325441735e+00 -3.0008545349e+00 1.7325441735e+00 3.0008545349e+00 
39300 6.5387016829e+00 -4.2883981451e-04 1.7325564571e+00 -3.0008758107e+00 1.7325564571e+00 3.0008758107e+00 
39400 6.5387019239e+00 -4.3142725569e-04 1.7325688330e+00 -3.0008972464e+00 1.7325688330e+00 3.0008972464e+00 
39500 6.5387021579e+00 -4.3340165298e-04 1.7325812836e+00 -3.0009188114e+00 1.7325812836e+00 3.0009188114e+00 
39600 6.5387023851e+00 -4.3476815663e-04 1.7325937910e+00 -3.0009404748e+00 1.7325937910e+00 3.0009404748e+00 
39700 6.5387026058e+00 -4.3553300749e-04 1.7326063377e+00 -3.0009622065e+00 1.7326063377e+00 3.0009622065e+00 
39800 6.5387028205e+00 -4.3570349683e-04 1.7326189065e+00 -3.0009839762e+00 1.7326189065e+00 3.0009839762e+00 
39900 6.5387030293e+00 -4.3528792524e-04 1.7326314800e+00 -3.0010057542e+00 1.7326314800e+00 3.0010057542e+00 
40000 6.5387032325e+00 -4.3429556078e-04 1.7326440415e+00 -3.0010275113e+00 1.7326440415e+00 3.0010275113e+00 
40100 6.5387034304e+00 -4.3273659651e-04 1.7326565743e+00 -3.0010492187e+00 1.7326565743e+00 3.0010492187e+00 
40200 6.5387036232e+00 -4.3062210732e-04 1.7326690620e+00 -3.0010708480e+00 1.7326690620e+00 3.0010708480e+00 
40300 6.5387038113e+00 -4.2796400640e-04 1.7326814885e+00 -3.0010923715e+00 1.7326814885e+00 3.0010923715e+00 
40400 6.5387039949e+00 -4.2477500119e-04 1.7326938383e+00 -3.0011137619e+00 1.7326938383e+00 3.0011137619e+00 
40500 6.5387041743e+00 -4.2106854910e-04 1.7327060960e+00 -3.0011349928e+00 1.7327060960e+00 3.0011349928e+00 
40600 6.5387043496e+00 -4.1685881295e-04 1.7327182466e+00 -3.0011560383e+00 1.7327182466e+00 3.0011560383e+00 
40700 6.5387045210e+00 -4.1216061632e-04 1.7327302756e+00 -3.0011768732e+00 1.7327302756e+00 3.0011768732e+00 
40800 6.5387046889e+00 -4.0698939874e-04 1.7327421690e+00 -3.0011974732e+00 1.7327421690e+00 3.0011974732e+00 
40900 6.5387048534e+00 -4.0136117101e-04 1.7327539131e+00 -3.0012178146e+00 1.7327539131e+00 3.0012178146e+00 
41000 6.5387050147e+00 -3.9529247059e-04 1.7327654947e+00 -3.0012378745e+00 1.7327654947e+00 3.0012378745e+00 
41100 6.5387051729e+00 -3.8880031709e-04 1.7327769012e+00 -3.0012576310e+00 1.7327769012e+00 3.0012576310e+00 
41200 6.5387053283e+00 -3.8190216813e-04 1.7327881202e+00 -3.0012770629e+00 1.7327881202e+00 3.0012770629e+00 
41300 6.5387054810e+00 -3.7461587543e-04 1.7327991401e+00 -3.0012961499e+00 1.7327991401e+00 3.0012961499e+00 
41400 6.5387056311e+00 -3.6695964136e-04 1.7328099496e+00 -3.0013148726e+00 1.7328099496e+00 3.0013148726e+00 
41500 6.5387057788e+00 -3.5895197589e-04 1.7328205382e+00 -3.0013332126e+00 1.7328205382e+00 3.0013332126e+00 
41600 6.5387059242e+00 -3.5061165413e-04 1.7328308957e+00 -3.0013511522e+00 1.7328308957e+00 3.0013511522e+00 
41700 6.5387060673e+00 -3.4195767444e-04 1.7328410124e+00 -3.0013686749e+00 1.7328410124e+00 3.0013686749e+00 
41800 6.5387062083e+00 -3.3300921714e-04 1.7328508794e+00 -3.0013857650e+00 1.7328508794e+00 3.0013857650e+00 
41900 6.5387063473e+00 -3.2378560401e-04 1.7328604881e+00 -3.0014024078e+00 1.7328604881e+00 3.0014024078e+00 
42000 6.5387064844e+00 -3.1430625852e-04 1.7328698306e+00 -3.0014185895e+00 1.7328698306e+00 3.0014185895e+00 
42100 6.5387066195e+00 -3.0459066686e-04 1.7328788996e+00 -3.0014342974e+00 1.7328788996e+00 3.0014342974e+00 
42200 6.5387067528e+00 -2.9465833988e-04 1.7328876882e+00 -3.0014495197e+00 1.7328876882e+00 3.0014495197e+00 
42300 6.5387068843e+00 -2.8452877587e-04 1.7328961901e+00 -3.0014642455e+00 1.7328961901e+00 3.0014642455e+00 
42400 6.5387070141e+00 -2.7422142441e-04 1.7329043998e+00 -3.0014784650e+00 1.7329043998e+00 3.0014784650e+00 
42500 6.5387071421e+00 -2.6375565110e-04 1.7329123120e+00 -3.0014921694e+00 1.7329123120e+00 3.0014921694e+00 
42600 6.5387072684e+00 -2.5315070343e-04 1.7329199221e+00 -3.0015053506e+00 1.7329199221e+00 3.0015053506e+00 
42700 6.5387073931e+00 -2.4242567766e-04 1.7329272263e+00 -3.0015180018e+00 1.7329272263e+00 3.0015180018e+00 
42800 6.5387075160e+00 -2.3159948682e-04 1.7329342210e+00 -3.0015301170e+00 1.7329342210e+00 3.0015301170e+00 
42900 6.5387076373e+00 -2.2069082990e-04 1.7329409033e+00 -3.0015416910e+00 1.7329409033e+00 3.0015416910e+00 
43000 6.5387077569e+00 -2.0971816212e-04 1.7329472708e+00 -3.0015527199e+00 1.7329472708e+00 3.0015527199e+00 
43100 6.5387078748e+00 -1.9869966648e-04 1.7329533217e+00 -3.0015632004e+00 1.7329533217e+00 3.0015632004e+00 
43200 6.5387079910e+00 -1.8765322644e-04 1.7329590547e+00 -3.0015731302e+00 1.7329590547e+00 3.0015731302e+00 
43300 6.5387081055e+00 -1.7659639990e-04 1.7329644690e+00 -3.0015825080e+00 1.7329644690e+00 3.0015825080e+00 
43400 6.5387082183e+00 -1.6554639441e-04 1.7329695642e+00 -3.0015913331e+00 1.7329695642e+00 3.0015913331e+00 
43500 6.5387083294e+00 -1.5452004362e-04 1.7329743406e+00 -3.0015996061e+00 1.7329743406e+00 3.0015996061e+00 
43600 6.5387084387e+00 -1.4353378505e-04 1.7329787988e+00 -3.0016073280e+00 1.7329787988e+00 3.0016073280e+00 
43700 6.5387085462e+00 -1.3260363907e-04 1.7329829400e+00 -3.0016145008e+00 1.7329829400e+00 3.0016145008e+00 
43800 6.5387086519e+00 -1.2174518929e-04 1.7329867659e+00 -3.0016211274e+00 1.7329867659e+00 3.0016211274e+00 
43900 6.5387087558e+00 -1.1097356412e-04 1.7329902785e+00 -3.0016272114e+00 1.7329902785e+00 3.0016272114e+00 
44000 6.5387088579e+00 -1.0030341970e-04 1.7329934803e+00 -3.0016327571e+00 1.7329934803e+00 3.0016327571e+00 
44100 6.5387089582e+00 -8.9748924083e-05 1.7329963742e+00 -3.0016377695e+00 1.7329963742e+00 3.0016377695e+00 
44200 6.5387090566e+00 -7.9323742784e-05 1.7329989637e+00 -3.0016422545e+00 1.7329989637e+00 3.0016422545e+00 
44300 6.5387091531e+00 -6.9041025505e-05 1.7330012523e+00 -3.0016462185e+00 1.7330012523e+00 3.0016462185e+00 
44400 6.5387092478e+00 -6.1093057204e-05 1.7330012523e+00 -3.0016462185e+00 1.7330012523e+00 3.0016462185e+00 
44500 6.5387093405e+00 -5.3003939557e-05 1.7330012523e+00 -3.0016462185e+00 1.7330012523e+00 3.0016462185e+00 
44600 6.5387094313e+00 -4.4789542666e-05 1.7330012523e+00 -3.0016462185e+00 1.7330012523e+00 3.0016462185e+00 
44700 6.5387095201e+00 -3.6465428174e-05 1.7330012523e+00 -3.0016462185e+00 1.7330012523e+00 3.0016462185e+00 
44800 6.5387096070e+00 -2.8046833746e-05 1.7330012523e+00 -3.0016462185e+00 1.7330012523e+00 3.0016462185e+00 
44900 6.5387096919e+00 -1.9548658539e-05 1.7330012523e+00 -3.0016462185e+00 1.7330012523e+00 3.0016462185e+00 
45000 6.5387097748e+00 -1.0985449702e-05 1.7330012523e+00 -3.0016462185e+00 1.7330012523e+00 3.0016462185e+00 
45100 6.5387098559e+00 -2.3713898690e-06 1.7330012523e+00 -3.0016462185e+00 1.7330012523e+00 3.0016462185e+00 
45200 6.5387099350e+00 6.2797143579e-06 1.7330012523e+00 -3.0016462185e+00 1.7330012523e+00 3.0016462185e+00 
45300 6.5387100123e+00 1.4954442953e-05 1.7330012523e+00 -3.0016462185e+00 1.7330012523e+00 3.0016462185e+00 
45400 6.5387100877e+00 2.3639772031e-05 1.7330012523e+00 -3.0016462185e+00 1.7330012523e+00 3.0016462185e+00 
45500 6.5387101613e+00 3.2323082474e-05 1.7330012523e+00 -3.0016462185e+00 1.7330012523e+00 3.0016462185e+00 
45600 6.5387102331e+00 4.0992167609e-05 1.7330012523e+00 -3.0016462185e+00 1.7330012523e+00 3.0016462185e+00 
45700 6.5387103032e+00 4.9635239968e-05 1.7330012523e+00 -3.0016462185e+00 1.7330012523e+00 3.0016462185e+00 
45800 6.5387103715e+00 5.8240937154e-05 1.7330012523e+00 -3.0016462185e+00 1.7330012523e+00 3.0016462185e+00 
45900 6.5387104381e+00 6.6798326801e-05 1.7330012523e+00 -3.0016462185e+00 1.7330012523e+00 3.0016462185e+00 
46000 6.5387105030e+00 7.5296910696e-05 1.7330012523e+00 -3.0016462185e+00 1.7330012523e+00 3.0016462185e+00 
46100 6.5387105661e+00 8.1349335555e-05 1.7329990798e+00 -3.0016424558e+00 1.7329990798e+00 3.0016424558e+00 
46200 6.5387106276e+00 8.7119703408e-05 1.7329967328e+00 -3.0016383905e+00 1.7329967328e+00 3.0016383905e+00 
46300 6.5387106874e+00 9.2605940456e-05 1.7329942192e+00 -3.0016340369e+00 1.7329942192e+00 3.0016340369e+00 
46400 6.5387107457e+00 9.7806503357e-05 1.7329915474e+00 -3.0016294091e+00 1.7329915474e+00 3.0016294091e+00 
46500 6.5387108024e+00 1.0272036925e-04 1.7329887255e+00 -3.0016245215e+00 1.7329887255e+00 3.0016245215e+00 
46600 6.5387108575e+00 1.0734702511e-04 1.7329857618e+00 -3.0016193882e+00 1.7329857618e+00 3.0016193882e+00 
46700 6.5387109113e+00 1.1168645641e-04 1.7329826646e+00 -3.0016140238e+00 1.7329826646e+00 3.0016140238e+00 
46800 6.5387109636e+00 1.1573913516e-04 1.7329794423e+00 -3.0016084425e+00 1.7329794423e+00 3.0016084425e+00 
46900 6.5387110146e+00 1.1950600736e-04 1.7329761029e+00 -3.0016026586e+00 1.7329761029e+00 3.0016026586e+00 
47000 6.5387110642e+00 1.2298847994e-04 1.7329726549e+00 -3.0015966865e+00 1.7329726549e+00 3.0015966865e+00 
47100 6.5387111126e+00 1.2618840713e-04 1.7329691065e+00 -3.0015905403e+00 1.7329691065e+00 3.0015905403e+00 
47200 6.5387111597e+00 1.2910807640e-04 1.7329654656e+00 -3.0015842343e+00 1.7329654656e+00 3.0015842343e+00 
47300 6.5387112056e+00 1.3175019391e-04 1.7329617406e+00 -3.0015777823e+00 1.7329617406e+00 3.0015777823e+00 
47400 6.5387112504e+00 1.3411786965e-04 1.7329579393e+00 -3.0015711982e+00 1.7329579393e+00 3.0015711982e+00 
47500 6.5387112941e+00 1.3621460213e-04 1.7329540697e+00 -3.0015644958e+00 1.7329540697e+00 3.0015644958e+00 
47600 6.5387113368e+00 1.3804426280e-04 1.7329501395e+00 -3.0015576887e+00 1.7329501395e+00 3.0015576887e+00 
47700 6.5387113784e+00 1.3961108013e-04 1.7329461566e+00 -3.0015507900e+00 1.7329461566e+00 3.0015507900e+00 
47800 6.5387114191e+00 1.4091962350e-04 1.7329421285e+00 -3.0015438131e+00 1.7329421285e+00 3.0015438131e+00 
47900 6.5387114588e+00 1.4197478682e-04 1.7329380626e+00 -3.0015367707e+00 1.7329380626e+00 3.0015367707e+00 
48000 6.5387114977e+00 1.4278177202e-04 1.7329339662e+00 -3.0015296756e+00 1.7329339662e+00 3.0015296756e+00 
48100 6.5387115357e+00 1.4334607234e-04 1.7329298466e+00 -3.0015225402e+00 1.7329298466e+00 3.0015225402e+00 
48200 6.5387115730e+00 1.4367345554e-04 1.7329257106e+00 -3.0015153765e+00 1.7329257106e+00 3.0015153765e+00 
48300 6.5387116094e+00 1.4376994701e-04 1.7329215652e+00 -3.0015081965e+00 1.7329215652e+00 3.0015081965e+00 
48400 6.5387116451e+00 1.4364181289e-04 1.7329174170e+00 -3.0015010116e+00 1.7329174170e+00 3.0015010116e+00 
48500 6.5387116802e+00 1.4329554307e-04 1.7329132725e+00 -3.0014938331e+00 1.7329132725e+00 3.0014938331e+00 
48600 6.5387117145e+00 1.4273783435e-04 1.7329091380e+00 -3.0014866719e+00 1.7329091380e+00 3.0014866719e+00 
48700 6.5387117482e+00 1.4197557348e-04 1.7329050195e+00 -3.0014795385e+00 1.7329050195e+00 3.0014795385e+00 
48800 6.5387117813e+00 1.4101582044e-04 1.7329009231e+00 -3.0014724433e+00 1.7329009231e+00 3.0014724433e+00 
48900 6.5387118139e+00 1.3986579172e-04 1.7328968543e+00 -3.0014653959e+00 1.7328968543e+00 3.0014653959e+00 
49000 6.5387118458e+00 1.3853284376e-04 1.7328928187e+00 -3.0014584061e+00 1.7328928187e+00 3.0014584061e+00 
49100 6.5387118773e+00 1.3702445655e-04 1.7328888215e+00 -3.0014514828e+00 1.7328888215e+00 3.0014514828e+00 
49200 6.5387119082e+00 1.3534821746e-04 1.7328848679e+00 -3.0014446349e+00 1.7328848679e+00 3.0014446349e+00 
49300 6.5387119386e+00 1.3351180519e-04 1.7328809626e+00 -3.0014378707e+00 1.7328809626e+00 3.0014378707e+00 
49400 6.5387119686e+00 1.3152297403e-04 1.7328771103e+00 -3.0014311983e+00 1.7328771103e+00 3.0014311983e+00 
49500 6.5387119981e+00 1.2938953838e-04 1.7328733154e+00 -3.0014246253e+00 1.7328733154e+00 3.0014246253e+00 
49600 6.5387120271e+00 1.2711935746e-04 1.7328695820e+00 -3.0014181589e+00 1.7328695820e+00 3.0014181589e+00 
49700 6.5387120557e+00 1.2472032043e-04 1.7328659141e+00 -3.0014118060e+00 1.7328659141e+00 3.0014118060e+00 
49800 6.5387120840e+00 1.2220033178e-04 1.7328623155e+00 -3.0014055729e+00 1.7328623155e+00 3.0014055729e+00 
49900 6.5387121118e+00 1.1956729700e-04 1.7328587895e+00 -3.0013994657e+00 1.7328587895e+00 3.0013994657e+00 
50000 6.5387121392e+00 1.1682910877e-04 1.7328553395e+00 -3.0013934902e+00 1.7328553395e+00 3.0013934902e+00 
50100 6.5387121662e+00 1.1399363328e-04 1.7328519685e+00 -3.0013876514e+00 1.7328519685e+00 3.0013876514e+00 
50200 6.5387121928e+00 1.1106869720e-04 1.7328486793e+00 -3.0013819544e+00 1.7328486793e+00 3.0013819544e+00 
50300 6.5387122190e+00 1.0806207480e-04 1.7328454745e+00 -3.0013764035e+00 1.7328454745e+00 3.0013764035e+00 
50400 6.5387122449e+00 1.0498147571e-04 1.7328423564e+00 -3.0013710029e+00 1.7328423564e+00 3.0013710029e+00 
50500 6.5387122704e+00 1.0183453292e-04 1.7328393273e+00 -3.0013657562e+00 1.7328393273e+00 3.0013657562e+00 
50600 6.5387122956e+00 9.8628791319e-05 1.7328363889e+00 -3.0013606668e+00 1.7328363889e+00 3.0013606668e+00 
50700 6.5387123204e+00 9.5371696667e-05 1.7328335430e+00 -3.0013557376e+00 1.7328335430e+00 3.0013557376e+00 
50800 6.5387123448e+00 9.2070584995e-05 1.7328307911e+00 -3.0013509712e+00 1.7328307911e+00 3.0013509712e+00 
50900 6.5387123689e+00 8.8732672477e-05 1.7328281345e+00 -3.0013463697e+00 1.7328281345e+00 3.0013463697e+00 
51000 6.5387123926e+00 8.5365045785e-05 1.7328255741e+00 -3.0013419351e+00 1.7328255741e+00 3.0013419351e+00 
51100 6.5387124159e+00 8.1974652894e-05 1.7328231110e+00 -3.0013376687e+00 1.7328231110e+00 3.0013376687e+00 
51200 6.5387124389e+00 7.8568294386e-05 1.7328207456e+00 -3.0013335718e+00 1.7328207456e+00 3.0013335718e+00 
51300 6.5387124616e+00 7.5152615236e-05 1.7328184785e+00 -3.0013296451e+00 1.7328184785e+00 3.0013296451e+00 
51400 6.5387124838e+00 7.1734097056e-05 1.7328163100e+00 -3.0013258892e+00 1.7328163100e+00 3.0013258892e+00 
51500 6.5387125058e+00 6.8319050857e-05 1.7328142402e+00 -3.0013223041e+00 1.7328142402e+00 3.0013223041e+00 
51600 6.5387125275e+00 6.7071154398e-05 1.7328142402e+00 -3.0013223041e+00 1.7328142402e+00 3.0013223041e+00 
51700 6.5387125488e+00 6.5742572606e-05 1.7328142402e+00 -3.0013223041e+00 1.7328142402e+00 3.0013223041e+00 
51800 6.5387125697e+00 6.4339712373e-05 1.7328142402e+00 -3.0013223041e+00 1.7328142402e+00 3.0013223041e+00 
51900 6.5387125903e+00 6.2868898737e-05 1.7328142402e+00 -3.0013223041e+00 1.7328142402e+00 3.0013223041e+00 
52000 6.5387126105e+00 6.1336366682e-05 1.7328142402e+00 -3.0013223041e+00 1.7328142402e+00 3.0013223041e+00 
52100 6.5387126303e+00 5.9748253360e-05 1.7328142402e+00 -3.0013223041e+00 1.7328142402e+00 3.0013223041e+00 
52200 6.5387126497e+00 5.8110590713e-05 1.7328142402e+00 -3.0013223041e+00 1.7328142402e+00 3.0013223041e+00 
52300 6.5387126687e+00 5.6429298531e-05 1.7328142402e+00 -3.0013223041e+00 1.7328142402e+00 3.0013223041e+00 
52400 6.5387126874e+00 5.4710177895e-05 1.7328142402e+00 -3.0013223041e+00 1.7328142402e+00 3.0013223041e+00 
52500 6.5387127057e+00 5.2958905053e-05 1.7328142402e+00 -3.0013223041e+00 1.7328142402e+00 3.0013223041e+00 
52600 6.5387127236e+00 5.1181025702e-05 1.7328142402e+00 -3.0013223041e+00 1.7328142402e+00 3.0013223041e+00 
52700 6.5387127412e+00 4.9381949666e-05 1.7328142402e+00 -3.0013223041e+00 1.7328142402e+00 3.0013223041e+00 
52800 6.5387127584e+00 4.7566945982e-05 1.7328142402e+00 -3.0013223041e+00 1.7328142402e+00 3.0013223041e+00 
52900 6.5387127753e+00 4.5741138378e-05 1.7328142402e+00 -3.0013223041e+00 1.7328142402e+00 3.0013223041e+00 
53000 6.5387127918e+00 4.3909501155e-05 1.7328142402e+00 -3.0013223041e+00 1.7328142402e+00 3.0013223041e+00 
53100 6.5387128079e+00 4.2076855433e-05 1.7328142402e+00 -3.0013223041e+00 1.7328142402e+00 3.0013223041e+00 
53200 6.5387128237e+00 4.0247865809e-05 1.7328142402e+00 -3.0013223041e+00 1.7328142402e+00 3.0013223041e+00 
53300 6.5387128392e+00 3.8427037355e-05 1.7328142402e+00 -3.0013223041e+00 1.7328142402e+00 3.0013223041e+00 
53400 6.5387128544e+00 3.6618713008e-05 1.7328142402e+00 -3.0013223041e+00 1.7328142402e+00 3.0013223041e+00 
53500 6.5387128692e+00 3.4827071315e-05 1.7328142402e+00 -3.0013223041e+00 1.7328142402e+00 3.0013223041e+00 
53600 6.5387128837e+00 3.3056124523e-05 1.7328142402e+00 -3.0013223041e+00 1.7328142402e+00 3.0013223041e+00 
53700 6.5387128979e+00 3.1309717014e-05 1.7328142402e+00 -3.0013223041e+00 1.7328142402e+00 3.0013223041e+00 
53800 6.5387129118e+00 2.9591524088e-05 1.7328142402e+00 -3.0013223041e+00 1.7328142402e+00 3.0013223041e+00 
53900 6.5387129254e+00 2.7905051059e-05 1.7328142402e+00 -3.0013223041e+00 1.7328142402e+00 3.0013223041e+00 
54000 6.5387129387e+00 2.6253632683e-05 1.7328142402e+00 -3.0013223041e+00 1.7328142402e+00 3.0013223041e+00 
54100 6.5387129517e+00 2.4640432880e-05 1.7328142402e+00 -3.0013223041e+00 1.7328142402e+00 3.0013223041e+00 
54200 6.5387129645e+00 2.3068444771e-05 1.7328142402e+00 -3.0013223041e+00 1.7328142402e+00 3.0013223041e+00 
54300 6.5387129770e+00 2.1540490997e-05 1.7328142402e+00 -3.0013223041e+00 1.7328142402e+00 3.0013223041e+00 
54400 6.5387129892e+00 2.0059224319e-05 1.7328142402e+00 -3.0013223041e+00 1.7328142402e+00 3.0013223041e+00 
54500 6.5387130012e+00 1.8627128492e-05 1.7328142402e+00 -3.0013223041e+00 1.7328142402e+00 3.0013223041e+00 
54600 6.5387130129e+00 1.7246519390e-05 1.7328142402e+00 -3.0013223041e+00 1.7328142402e+00 3.0013223041e+00 
54700 6.5387130244e+00 1.5919546404e-05 1.7328142402e+00 -3.0013223041e+00 1.7328142402e+00 3.0013223041e+00 
54800 6.5387130357e+00 1.4648194048e-05 1.7328142402e+00 -3.0013223041e+00 1.7328142402e+00 3.0013223041e+00 
54900 6.5387130467e+00 1.3434283824e-05 1.7328142402e+00 -3.0013223041e+00 1.7328142402e+00 3.0013223041e+00 
55000 6.5387130575e+00 1.2279476280e-05 1.7328142402e+00 -3.0013223041e+00 1.7328142402e+00 3.0013223041e+00 
55100 6.5387130682e+00 1.1185273304e-05 1.7328142402e+00 -3.0013223041e+00 1.7328142402e+00 3.0013223041e+00 
55200 6.5387130786e+00 1.0153020588e-05 1.7328142402e+00 -3.0013223041e+00 1.7328142402e+00 3.0013223041e+00 
55300 6.5387130888e+00 9.1839103026e-06 1.7328142402e+00 -3.0013223041e+00 1.7328142402e+00 3.0013223041e+00 
55400 6.5387130988e+00 8.2789839306e-06 1.7328142402e+00 -3.0013223041e+00 1.7328142402e+00 3.0013223041e+00 
55500 6.5387131086e+00 7.4391352832e-06 1.7328142402e+00 -3.0013223041e+00 1.7328142402e+00 3.0013223041e+00 
55600 6.5387131183e+00 6.6651136580e-06 1.7328142402e+00 -3.0013223041e+00 1.7328142402e+00 3.0013223041e+00 
55700 6.5387131278e+00 5.9575271489e-06 1.7328142402e+00 -3.0013223041e+00 1.7328142402e+00 3.0013223041e+00 
55800 6.5387131371e+00 5.3168460908e-06 1.7328142402e+00 -3.0013223041e+00 1.7328142402e+00 3.0013223041e+00 
55900 6.5387131462e+00 4.7434066358e-06 1.7328142402e+00 -3.0013223041e+00 1.7328142402e+00 3.0013223041e+00 
56000 6.5387131552e+00 4.2374144278e-06 1.7328142402e+00 -3.0013223041e+00 1.7328142402e+00 3.0013223041e+00 
56100 6.5387131641e+00 3.7989484010e-06 1.7328142402e+00 -3.0013223041e+00 1.7328142402e+00 3.0013223041e+00 
56200 6.5387131728e+00 3.4279646596e-06 1.7328142402e+00 -3.0013223041e+00 1.7328142402e+00 3.0013223041e+00 
56300 6.5387131813e+00 3.1243004517e-06 1.7328142402e+00 -3.0013223041e+00 1.7328142402e+00 3.0013223041e+00 
56400 6.5387131897e+00 2.8876782144e-06 1.7328142402e+00 -3.0013223041e+00 1.7328142402e+00 3.0013223041e+00 
56500 6.5387131980e+00 2.7177096862e-06 1.7328142402e+00 -3.0013223041e+00 1.7328142402e+00 3.0013223041e+00 
56600 6.5387132062e+00 2.6139000840e-06 1.7328142402e+00 -3.0013223041e+00 1.7328142402e+00 3.0013223041e+00 
56700 6.5387132142e+00 2.5756523154e-06 1.7328142402e+00 -3.0013223041e+00 1.7328142402e+00 3.0013223041e+00 
56800 6.5387132221e+00 2.6022712407e-06 1.7328142402e+00 -3.0013223041e+00 1.7328142402e+00 3.0013223041e+00 
56900 6.5387132298e+00 2.6929679667e-06 1.7328142402e+00 -3.0013223041e+00 1.7328142402e+00 3.0013223041e+00 
57000 6.5387132375e+00 2.8468641607e-06 1.7328142402e+00 -3.0013223041e+00 1.7328142402e+00 3.0013223041e+00 
57100 6.5387132450e+00 3.0629963751e-06 1.7328142402e+00 -3.0013223041e+00 1.7328142402e+00 3.0013223041e+00 
57200 6.5387132525e+00 3.3403203854e-06 1.7328142402e+00 -3.0013223041e+00 1.7328142402e+00 3.0013223041e+00 
57300 6.5387132598e+00 3.6777155301e-06 1.7328142402e+00 -3.0013223041e+00 1.7328142402e+00 3.0013223041e+00 
57400 6.5387132670e+00 4.0739890293e-06 1.7328142402e+00 -3.0013223041e+00 1.7328142402e+00 3.0013223041e+00 
57500 6.5387132741e+00 4.5278803097e-06 1.7328142402e+00 -3.0013223041e+00 1.7328142402e+00 3.0013223041e+00 
57600 6.5387132811e+00 5.0380652856e-06 1.7328142402e+00 -3.0013223041e+00 1.7328142402e+00 3.0013223041e+00 
57700 6.5387132880e+00 5.6031606191e-06 1.7328142402e+00 -3.0013223041e+00 1.7328142402e+00 3.0013223041e+00 
57800 6.5387132948e+00 6.2217279605e-06 1.7328142402e+00 -3.0013223041e+00 1.7328142402e+00 3.0013223041e+00 
57900 6.5387133014e+00 6.8922781246e-06 1.7328142402e+00 -3.0013223041e+00 1.7328142402e+00 3.0013223041e+00 
58000 6.5387133080e+00 7.6132752287e-06 1.7328142402e+00 -3.0013223041e+00 1.7328142402e+00 3.0013223041e+00 
58100 6.5387133145e+00 8.3831407874e-06 1.7328142402e+00 -3.0013223041e+00 1.7328142402e+00 3.0013223041e+00 
58200 6.5387133210e+00 9.2002577339e-06 1.7328142402e+00 -3.0013223041e+00 1.7328142402e+00 3.0013223041e+00 
58300 6.5387133273e+00 1.0062974395e-05 1.7328142402e+00 -3.0013223041e+00 1.7328142402e+00 3.0013223041e+00 
58400 6.5387133335e+00 1.0969608385e-05 1.7328142402e+00 -3.0013223041e+00 1.7328142402e+00 3.0013223041e+00 
58500 6.5387133396e+00 1.1918450437e-05 1.7328142402e+00 -3.0013223041e+00 1.7328142402e+00 3.0013223041e+00 
58600 6.5387133457e+00 1.2907768148e-05 1.7328142402e+00 -3.0013223041e+00 1.7328142402e+00 3.0013223041e+00 
58700 6.5387133516e+00 1.3935809659e-05 1.7328142402e+00 -3.0013223041e+00 1.7328142402e+00 3.0013223041e+00 
58800 6.5387133575e+00 1.5000807231e-05 1.7328142402e+00 -3.0013223041e+00 1.7328142402e+00 3.0013223041e+00 
58900 6.5387133633e+00 1.6100980759e-05 1.7328142402e+00 -3.0013223041e+00 1.7328142402e+00 3.0013223041e+00 
59000 6.5387133689e+00 1.7234541170e-05 1.7328142402e+00 -3.0013223041e+00 1.7328142402e+00 3.0013223041e+00 
59100 6.5387133746e+00 1.8399693742e-05 1.7328142402e+00 -3.0013223041e+00 1.7328142402e+00 3.0013223041e+00 
59200 6.5387133801e+00 1.9594641329e-05 1.7328142402e+00 -3.0013223041e+00 1.7328142402e+00 3.0013223041e+00 
59300 6.5387133855e+00 2.0817587480e-05 1.7328142402e+00 -3.0013223041e+00 1.7328142402e+00 3.0013223041e+00 
59400 6.5387133909e+00 2.2066739457e-05 1.7328142402e+00 -3.0013223041e+00 1.7328142402e+00 3.0013223041e+00 
59500 6.5387133961e+00 2.3340311160e-05 1.7328142402e+00 -3.0013223041e+00 1.7328142402e+00 3.0013223041e+00 
59600 6.5387134013e+00 2.4636525931e-05 1.7328142402e+00 -3.0013223041e+00 1.7328142402e+00 3.0013223041e+00 
59700 6.5387134064e+00 2.5953619276e-05 1.7328142402e+00 -3.0013223041e+00 1.7328142402e+00 3.0013223041e+00 
59800 6.5387134115e+00 2.7289841455e-05 1.7328142402e+00 -3.0013223041e+00 1.7328142402e+00 3.0013223041e+00 
59900 6.5387134164e+00 2.8643459986e-05 1.7328142402e+00 -3.0013223041e+00 1.7328142402e+00 3.0013223041e+00 
60000 6.5387134213e+00 3.0012762022e-05 1.7328142402e+00 -3.0013223041e+00 1.7328142402e+00 3.0013223041e+00 
60100 6.5387134261e+00 3.1396056626e-05 1.7328142402e+00 -3.0013223041e+00 1.7328142402e+00 3.0013223041e+00 
60200 6.5387134308e+00 3.2791676943e-05 1.7328142402e+00 -3.0013223041e+00 1.7328142402e+00 3.0013223041e+00 
60300 6.5387134355e+00 3.4197982255e-05 1.7328142402e+00 -3.0013223041e+00 1.7328142402e+00 3.0013223041e+00 
60400 6.5387134401e+00 3.5613359920e-05 1.7328142402e+00 -3.0013223041e+00 1.7328142402e+00 3.0013223041e+00 
60500 6.5387134446e+00 3.7036227219e-05 1.7328142402e+00 -3.0013223041e+00 1.7328142402e+00 3.0013223041e+00 
60600 6.5387134490e+00 3.8465033072e-05 1.7328142402e+00 -3.0013223041e+00 1.7328142402e+00 3.0013223041e+00 
60700 6.5387134533e+00 3.9898259663e-05 1.7328142402e+00 -3.0013223041e+00 1.7328142402e+00 3.0013223041e+00 
60800 6.5387134576e+00 4.1334423950e-05 1.7328142402e+00 -3.0013223041e+00 1.7328142402e+00 3.0013223041e+00 
60900 6.5387134618e+00 4.2772079067e-05 1.7328142402e+00 -3.0013223041e+00 1.7328142402e+00 3.0013223041e+00 
61000 6.5387134660e+00 4.4209815618e-05 1.7328142402e+00 -3.0013223041e+00 1.7328142402e+00 3.0013223041e+00 
61100 6.5387134701e+00 4.5646262872e-05 1.7328142402e+00 -3.0013223041e+00 1.7328142402e+00 3.0013223041e+00 
61200 6.5387134741e+00 4.7080089852e-05 1.7328142402e+00 -3.0013223041e+00 1.7328142402e+00 3.0013223041e+00 
61300 6.5387134780e+00 4.8510006320e-05 1.7328142402e+00 -3.0013223041e+00 1.7328142402e+00 3.0013223041e+00 
61400 6.5387134819e+00 4.9934763663e-05 1.7328142402e+00 -3.0013223041e+00 1.7328142402e+00 3.0013223041e+00 
61500 6.5387134857e+00 5.1353155672e-05 1.7328142402e+00 -3.0013223041e+00 1.7328142402e+00 3.0013223041e+00 
61600 6.5387134895e+00 5.2764019254e-05 1.7328142402e+00 -3.0013223041e+00 1.7328142402e+00 3.0013223041e+00 
61700 6.5387134932e+00 5.4166234999e-05 1.7328142402e+00 -3.0013223041e+00 1.7328142402e+00 3.0013223041e+00 
61800 6.5387134968e+00 5.5558727696e-05 1.7328142402e+00 -3.0013223041e+00 1.7328142402e+00 3.0013223041e+00 
61900 6.5387135004e+00 5.6940466747e-05 1.7328142402e+00 -3.0013223041e+00 1.7328142402e+00 3.0013223041e+00 
62000 6.5387135039e+00 5.8310466482e-05 1.7328142402e+00 -3.0013223041e+00 1.7328142402e+00 3.0013223041e+00 
62100 6.5387135074e+00 5.9667786395e-05 1.7328142402e+00 -3.0013223041e+00 1.7328142402e+00 3.0013223041e+00 
62200 6.5387135108e+00 6.1011531298e-05 1.7328142402e+00 -3.0013223041e+00 1.7328142402e+00 3.0013223041e+00 
62300 6.5387135141e+00 6.2340851390e-05 1.7328142402e+00 -3.0013223041e+00 1.7328142402e+00 3.0013223041e+00 
62400 6.5387135174e+00 6.3654942248e-05 1.7328142402e+00 -3.0013223041e+00 1.7328142402e+00 3.0013223041e+00 
62500 6.5387135207e+00 6.4953044740e-05 1.7328142402e+00 -3.0013223041e+00 1.7328142402e+00 3.0013223041e+00 
62600 6.5387135239e+00 6.6234444864e-05 1.7328142402e+00 -3.0013223041e+00 1.7328142402e+00 3.0013223041e+00 
62700 6.5387135270e+00 6.7498473523e-05 1.7328142402e+00 -3.0013223041e+00 1.7328142402e+00 3.0013223041e+00 
62800 6.5387135301e+00 6.8744506216e-05 1.7328142402e+00 -3.0013223041e+00 1.7328142402e+00 3.0013223041e+00 
62900 6.5387135331e+00 6.9971962680e-05 1.7328142402e+00 -3.0013223041e+00 1.7328142402e+00 3.0013223041e+00 
63000 6.5387135361e+00 7.1180306459e-05 1.7328142402e+00 -3.0013223041e+00 1.7328142402e+00 3.0013223041e+00 
63100 6.5387135389e+00 7.0121704067e-05 1.7328121863e+00 -3.0013187466e+00 1.7328121863e+00 3.0013187466e+00 
63200 6.5387135418e+00 7.1278579000e-05 1.7328121863e+00 -3.0013187466e+00 1.7328121863e+00 3.0013187466e+00 
63300 6.5387135445e+00 7.0163791471e-05 1.7328101295e+00 -3.0013151842e+00 1.7328101295e+00 3.0013151842e+00 
63400 6.5387135473e+00 7.1266090129e-05 1.7328101295e+00 -3.0013151842e+00 1.7328101295e+00 3.0013151842e+00 
63500 6.5387135499e+00 7.0095746909e-05 1.7328080732e+00 -3.0013116225e+00 1.7328080732e+00 3.0013116225e+00 
63600 6.5387135526e+00 7.1140857120e-05 1.7328080732e+00 -3.0013116225e+00 1.7328080732e+00 3.0013116225e+00 
63700 6.5387135551e+00 6.9916141302e-05 1.7328060204e+00 -3.0013080670e+00 1.7328060204e+00 3.0013080670e+00 
63800 6.5387135577e+00 7.0901937269e-05 1.7328060204e+00 -3.0013080670e+00 1.7328060204e+00 3.0013080670e+00 
63900 6.5387135601e+00 6.9624542578e-05 1.7328039745e+00 -3.0013045235e+00 1.7328039745e+00 3.0013045235e+00 
64000 6.5387135627e+00 7.0549373274e-05 1.7328039745e+00 -3.0013045235e+00 1.7328039745e+00 3.0013045235e+00 
64100 6.5387135652e+00 7.1448915995e-05 1.7328039745e+00 -3.0013045235e+00 1.7328039745e+00 3.0013045235e+00 
64200 6.5387135675e+00 7.0067436886e-05 1.7328019129e+00 -3.0013009526e+00 1.7328019129e+00 3.0013009526e+00 
64300 6.5387135699e+00 7.0904952824e-05 1.7328019129e+00 -3.0013009526e+00 1.7328019129e+00 3.0013009526e+00 
64400 6.5387135722e+00 6.9478207773e-05 1.7327998669e+00 -3.0012974089e+00 1.7327998669e+00 3.0012974089e+00 
64500 6.5387135745e+00 7.0253072924e-05 1.7327998669e+00 -3.0012974089e+00 1.7327998669e+00 3.0012974089e+00 
64600 6.5387135769e+00 7.1002161348e-05 1.7327998669e+00 -3.0012974089e+00 1.7327998669e+00 3.0012974089e+00 
64700 6.5387135790e+00 6.9484059878e-05 1.7327978182e+00 -3.0012938603e+00 1.7327978182e+00 3.0012938603e+00 
64800 6.5387135812e+00 7.0170893787e-05 1.7327978182e+00 -3.0012938603e+00 1.7327978182e+00 3.0012938603e+00 
64900 6.5387135835e+00 7.0832333554e-05 1.7327978182e+00 -3.0012938603e+00 1.7327978182e+00 3.0012938603e+00 
65000 6.5387135855e+00 6.9232435574e-05 1.7327957743e+00 -3.0012903202e+00 1.7327957743e+00 3.0012903202e+00 
65100 6.5387135877e+00 6.9832747879e-05 1.7327957743e+00 -3.0012903202e+00 1.7327957743e+00 3.0012903202e+00 
65200 6.5387135898e+00 7.0408375528e-05 1.7327957743e+00 -3.0012903202e+00 1.7327957743e+00 3.0012903202e+00 
65300 6.5387135919e+00 7.0959880646e-05 1.7327957743e+00 -3.0012903202e+00 1.7327957743e+00 3.0012903202e+00 
65400 6.5387135938e+00 6.9247406461e-05 1.7327937267e+00 -3.0012867737e+00 1.7327937267e+00 3.0012867737e+00 
65500 6.5387135959e+00 6.9740652675e-05 1.7327937267e+00 -3.0012867737e+00 1.7327937267e+00 3.0012867737e+00 
65600 6.5387135979e+00 7.0210819183e-05 1.7327937267e+00 -3.0012867737e+00 1.7327937267e+00 3.0012867737e+00 
65700 6.5387135999e+00 7.0658567832e-05 1.7327937267e+00 -3.0012867737e+00 1.7327937267e+00 3.0012867737e+00 
65800 6.5387136018e+00 7.1084572481e-05 1.7327937267e+00 -3.0012867737e+00 1.7327937267e+00 3.0012867737e+00 
65900 6.5387136036e+00 6.9245141853e-05 1.7327916756e+00 -3.0012832210e+00 1.7327916756e+00 3.0012832210e+00 
66000 6.5387136055e+00 6.9617929374e-05 1.7327916756e+00 -3.0012832210e+00 1.7327916756e+00 3.0012832210e+00 
66100 6.5387136074e+00 6.9970305255e-05 1.7327916756e+00 -3.0012832210e+00 1.7327916756e+00 3.0012832210e+00 
66200 6.5387136093e+00 7.0303013781e-05 1.7327916756e+00 -3.0012832210e+00 1.7327916756e+00 3.0012832210e+00 
66300 6.5387136111e+00 7.0616804113e-05 1.7327916756e+00 -3.0012832210e+00 1.7327916756e+00 3.0012832210e+00 
66400 6.5387136129e+00 7.0912428877e-05 1.7327916756e+00 -3.0012832210e+00 1.7327916756e+00 3.0012832210e+00 
66500 6.5387136145e+00 6.8951702300e-05 1.7327896294e+00 -3.0012796769e+00 1.7327896294e+00 3.0012796769e+00 
66600 6.5387136163e+00 6.9201497978e-05 1.7327896294e+00 -3.0012796769e+00 1.7327896294e+00 3.0012796769e+00 
66700 6.5387136180e+00 6.9434648683e-05 1.7327896294e+00 -3.0012796769e+00 1.7327896294e+00 3.0012796769e+00 
66800 6.5387136197e+00 6.9651944636e-05 1.7327896294e+00 -3.0012796769e+00 1.7327896294e+00 3.0012796769e+00 
66900 6.5387136214e+00 6.9854173176e-05 1.7327896294e+00 -3.0012796769e+00 1.7327896294e+00 3.0012796769e+00 
67000 6.5387136231e+00 7.0042117515e-05 1.7327896294e+00 -3.0012796769e+00 1.7327896294e+00 3.0012796769e+00 
67100 6.5387136247e+00 7.0216555556e-05 1.7327896294e+00 -3.0012796769e+00 1.7327896294e+00 3.0012796769e+00 
67200 6.5387136263e+00 7.0378258745e-05 1.7327896294e+00 -3.0012796769e+00 1.7327896294e+00 3.0012796769e+00 
67300 6.5387136279e+00 7.0527990986e-05 1.7327896294e+00 -3.0012796769e+00 1.7327896294e+00 3.0012796769e+00 
67400 6.5387136295e+00 7.0666507583e-05 1.7327896294e+00 -3.0012796769e+00 1.7327896294e+00 3.0012796769e+00 
67500 6.5387136310e+00 7.0794554248e-05 1.7327896294e+00 -3.0012796769e+00 1.7327896294e+00 3.0012796769e+00 
67600 6.5387136324e+00 6.8677655050e-05 1.7327875866e+00 -3.0012761387e+00 1.7327875866e+00 3.0012761387e+00 
67700 6.5387136339e+00 6.8775212284e-05 1.7327875866e+00 -3.0012761387e+00 1.7327875866e+00 3.0012761387e+00 
67800 6.5387136354e+00 6.8863726737e-05 1.7327875866e+00 -3.0012761387e+00 1.7327875866e+00 3.0012761387e+00 
67900 6.5387136368e+00 6.8943933800e-05 1.7327875866e+00 -3.0012761387e+00 1.7327875866e+00 3.0012761387e+00 
68000 6.5387136383e+00 6.9016555139e-05 1.7327875866e+00 -3.0012761387e+00 1.7327875866e+00 3.0012761387e+00 
68100 6.5387136397e+00 6.9082297909e-05 1.7327875866e+00 -3.0012761387e+00 1.7327875866e+00 3.0012761387e+00 
68200 6.5387136411e+00 6.9141854039e-05 1.7327875866e+00 -3.0012761387e+00 1.7327875866e+00 3.0012761387e+00 
68300 6.5387136425e+00 6.9195899534e-05 1.7327875866e+00 -3.0012761387e+00 1.7327875866e+00 3.0012761387e+00 
68400 6.5387136438e+00 6.9245093873e-05 1.7327875866e+00 -3.0012761387e+00 1.7327875866e+00 3.0012761387e+00 
68500 6.5387136452e+00 6.9290079401e-05 1.7327875866e+00 -3.0012761387e+00 1.7327875866e+00 3.0012761387e+00 
68600 6.5387136465e+00 6.9331480816e-05 1.7327875866e+00 -3.0012761387e+00 1.7327875866e+00 3.0012761387e+00 
68700 6.5387136478e+00 6.9369904669e-05 1.7327875866e+00 -3.0012761387e+00 1.7327875866e+00 3.0012761387e+00 
68800 6.5387136491e+00 6.9405938937e-05 1.7327875866e+00 -3.0012761387e+00 1.7327875866e+00 3.0012761387e+00 
68900 6.5387136503e+00 6.9440152618e-05 1.7327875866e+00 -3.0012761387e+00 1.7327875866e+00 3.0012761387e+00 
69000 6.5387136516e+00 6.9473095390e-05 1.7327875866e+00 -3.0012761387e+00 1.7327875866e+00 3.0012761387e+00 
69100 6.5387136528e+00 6.9505297297e-05 1.7327875866e+00 -3.0012761387e+00 1.7327875866e+00 3.0012761387e+00 
69200 6.5387136540e+00 6.9537268496e-05 1.7327875866e+00 -3.0012761387e+00 1.7327875866e+00 3.0012761387e+00 
69300 6.5387136552e+00 6.9569499034e-05 1.7327875866e+00 -3.0012761387e+00 1.7327875866e+00 3.0012761387e+00 
69400 6.5387136563e+00 6.9602458670e-05 1.7327875866e+00 -3.0012761387e+00 1.7327875866e+00 3.0012761387e+00 
69500 6.5387136575e+00 6.9636596737e-05 1.7327875866e+00 -3.0012761387e+00 1.7327875866e+00 3.0012761387e+00 
69600 6.5387136586e+00 6.9672342044e-05 1.7327875866e+00 -3.0012761387e+00 1.7327875866e+00 3.0012761387e+00 
69700 6.5387136598e+00 6.9710102816e-05 1.7327875866e+00 -3.0012761387e+00 1.7327875866e+00 3.0012761387e+00 
69800 6.5387136609e+00 6.9750266672e-05 1.7327875866e+00 -3.0012761387e+00 1.7327875866e+00 3.0012761387e+00 
69900 6.5387136620e+00 6.9793200636e-05 1.7327875866e+00 -3.0012761387e+00 1.7327875866e+00 3.0012761387e+00 
70000 6.5387136630e+00 6.9839251185e-05 1.7327875866e+00 -3.0012761387e+00 1.7327875866e+00 3.0012761387e+00 
70100 6.5387136641e+00 6.9888744331e-05 1.7327875866e+00 -3.0012761387e+00 1.7327875866e+00 3.0012761387e+00 
70200 6.5387136651e+00 6.9941985736e-05 1.7327875866e+00 -3.0012761387e+00 1.7327875866e+00 3.0012761387e+00 
70300 6.5387136662e+00 6.9999260856e-05 1.7327875866e+00 -3.0012761387e+00 1.7327875866e+00 3.0012761387e+00 
70400 6.5387136672e+00 7.0060835116e-05 1.7327875866e+00 -3.0012761387e+00 1.7327875866e+00 3.0012761387e+00 
70500 6.5387136682e+00 7.0126954109e-05 1.7327875866e+00 -3.0012761387e+00 1.7327875866e+00 3.0012761387e+00 
70600 6.5387136691e+00 7.0197843834e-05 1.7327875866e+00 -3.0012761387e+00 1.7327875866e+00 3.0012761387e+00 
70700 6.5387136701e+00 7.0273710956e-05 1.7327875866e+00 -3.0012761387e+00 1.7327875866e+00 3.0012761387e+00 
70800 6.5387136711e+00 7.0354743074e-05 1.7327875866e+00 -3.0012761387e+00 1.7327875866e+00 3.0012761387e+00 
70900 6.5387136720e+00 7.0441109047e-05 1.7327875866e+00 -3.0012761387e+00 1.7327875866e+00 3.0012761387e+00 
71000 6.5387136729e+00 7.0532959300e-05 1.7327875866e+00 -3.0012761387e+00 1.7327875866e+00 3.0012761387e+00 
71100 6.5387136739e+00 7.0630426189e-05 1.7327875866e+00 -3.0012761387e+00 1.7327875866e+00 3.0012761387e+00 
71200 6.5387136748e+00 7.0733624368e-05 1.7327875866e+00 -3.0012761387e+00 1.7327875866e+00 3.0012761387e+00 
71300 6.5387136755e+00 6.8609398104e-05 1.7327855456e+00 -3.0012726035e+00 1.7327855456e+00 3.0012726035e+00 
71400 6.5387136764e+00 6.8712598718e-05 1.7327855456e+00 -3.0012726035e+00 1.7327855456e+00 3.0012726035e+00 
71500 6.5387136772e+00 6.8821029887e-05 1.7327855456e+00 -3.0012726035e+00 1.7327855456e+00 3.0012726035e+00 
71600 6.5387136781e+00 6.8934776529e-05 1.7327855456e+00 -3.0012726035e+00 1.7327855456e+00 3.0012726035e+00 
71700 6.5387136789e+00 6.9053908097e-05 1.7327855456e+00 -3.0012726035e+00 1.7327855456e+00 3.0012726035e+00 
71800 6.5387136797e+00 6.9178478962e-05 1.7327855456e+00 -3.0012726035e+00 1.7327855456e+00 3.0012726035e+00 
71900 6.5387136806e+00 6.9308528836e-05 1.7327855456e+00 -3.0012726035e+00 1.7327855456e+00 3.0012726035e+00 
72000 6.5387136814e+00 6.9444083182e-05 1.7327855456e+00 -3.0012726035e+00 1.7327855456e+00 3.0012726035e+00 
72100 6.5387136822e+00 6.9585153652e-05 1.7327855456e+00 -3.0012726035e+00 1.7327855456e+00 3.0012726035e+00 
72200 6.5387136830e+00 6.9731738524e-05 1.7327855456e+00 -3.0012726035e+00 1.7327855456e+00 3.0012726035e+00 
72300 6.5387136837e+00 6.9883823159e-05 1.7327855456e+00 -3.0012726035e+00 1.7327855456e+00 3.0012726035e+00 
72400 6.5387136845e+00 7.0041380447e-05 1.7327855456e+00 -3.0012726035e+00 1.7327855456e+00 3.0012726035e+00 
72500 6.5387136852e+00 7.0204371286e-05 1.7327855456e+00 -3.0012726035e+00 1.7327855456e+00 3.0012726035e+00 
72600 6.5387136860e+00 7.0372745044e-05 1.7327855456e+00 -3.0012726035e+00 1.7327855456e+00 3.0012726035e+00 
72700 6.5387136867e+00 7.0546440034e-05 1.7327855456e+00 -3.0012726035e+00 1.7327855456e+00 3.0012726035e+00 
72800 6.5387136874e+00 7.0725383993e-05 1.7327855456e+00 -3.0012726035e+00 1.7327855456e+00 3.0012726035e+00 
72900 6.5387136880e+00 6.8676502839e-05 1.7327835048e+00 -3.0012690688e+00 1.7327835048e+00 3.0012690688e+00 
73000 6.5387136887e+00 6.8853953586e-05 1.7327835048e+00 -3.0012690688e+00 1.7327835048e+00 3.0012690688e+00 
73100 6.5387136894e+00 6.9035635588e-05 1.7327835048e+00 -3.0012690688e+00 1.7327835048e+00 3.0012690688e+00 
73200 6.5387136901e+00 6.9221476148e-05 1.7327835048e+00 -3.0012690688e+00 1.7327835048e+00 3.0012690688e+00 
73300 6.5387136908e+00 6.9411394545e-05 1.7327835048e+00 -3.0012690688e+00 1.7327835048e+00 3.0012690688e+00 
73400 6.5387136914e+00 6.9605302451e-05 1.7327835048e+00 -3.0012690688e+00 1.7327835048e+00 3.0012690688e+00 
73500 6.5387136921e+00 6.9803104345e-05 1.7327835048e+00 -3.0012690688e+00 1.7327835048e+00 3.0012690688e+00 
73600 6.5387136927e+00 7.0004697935e-05 1.7327835048e+00 -3.0012690688e+00 1.7327835048e+00 3.0012690688e+00 
73700 6.5387136934e+00 7.0209974556e-05 1.7327835048e+00 -3.0012690688e+00 1.7327835048e+00 3.0012690688e+00 
73800 6.5387136940e+00 7.0418819592e-05 1.7327835048e+00 -3.0012690688e+00 1.7327835048e+00 3.0012690688e+00 
73900 6.5387136946e+00 7.0631112885e-05 1.7327835048e+00 -3.0012690688e+00 1.7327835048e+00 3.0012690688e+00 
74000 6.5387136952e+00 7.0846729127e-05 1.7327835048e+00 -3.0012690688e+00 1.7327835048e+00 3.0012690688e+00 
74100 6.5387136957e+00 6.8828711472e-05 1.7327814605e+00 -3.0012655279e+00 1.7327814605e+00 3.0012655279e+00 
74200 6.5387136963e+00 6.9038824163e-05 1.7327814605e+00 -3.0012655279e+00 1.7327814605e+00 3.0012655279e+00 
74300 6.5387136969e+00 6.9251113445e-05 1.7327814605e+00 -3.0012655279e+00 1.7327814605e+00 3.0012655279e+00 
74400 6.5387136974e+00 6.9465474486e-05 1.7327814605e+00 -3.0012655279e+00 1.7327814605e+00 3.0012655279e+00 
74500 6.5387136980e+00 6.9681799382e-05 1.7327814605e+00 -3.0012655279e+00 1.7327814605e+00 3.0012655279e+00 
74600 6.5387136986e+00 6.9899977476e-05 1.7327814605e+00 -3.0012655279e+00 1.7327814605e+00 3.0012655279e+00 
74700 6.5387136991e+00 7.0119895645e-05 1.7327814605e+00 -3.0012655279e+00 1.7327814605e+00 3.0012655279e+00 
74800 6.5387136997e+00 7.0341438602e-05 1.7327814605e+00 -3.0012655279e+00 1.7327814605e+00 3.0012655279e+00 
74900 6.5387137002e+00 7.0564489180e-05 1.7327814605e+00 -3.0012655279e+00 1.7327814605e+00 3.0012655279e+00 
75000 6.5387137008e+00 7.0788928615e-05 1.7327814605e+00 -3.0012655279e+00 1.7327814605e+00 3.0012655279e+00 
75100 6.5387137011e+00 6.8779629286e-05 1.7327794178e+00 -3.0012619900e+00 1.7327794178e+00 3.0012619900e+00 
75200 6.5387137017e+00 6.8994739539e-05 1.7327794178e+00 -3.0012619900e+00 1.7327794178e+00 3.0012619900e+00 
75300 6.5387137022e+00 6.9210132562e-05 1.7327794178e+00 -3.0012619900e+00 1.7327794178e+00 3.0012619900e+00 
75400 6.5387137027e+00 6.9425722943e-05 1.7327794178e+00 -3.0012619900e+00 1.7327794178e+00 3.0012619900e+00 
75500 6.5387137032e+00 6.9641425124e-05 1.7327794178e+00 -3.0012619900e+00 1.7327794178e+00 3.0012619900e+00 
75600 6.5387137037e+00 6.9857153552e-05 1.7327794178e+00 -3.0012619900e+00 1.7327794178e+00 3.0012619900e+00 
75700 6.5387137042e+00 7.0072822860e-05 1.7327794178e+00 -3.0012619900e+00 1.7327794178e+00 3.0012619900e+00 
75800 6.5387137046e+00 7.0288348027e-05 1.7327794178e+00 -3.0012619900e+00 1.7327794178e+00 3.0012619900e+00 
75900 6.5387137051e+00 7.0503644528e-05 1.7327794178e+00 -3.0012619900e+00 1.7327794178e+00 3.0012619900e+00 
76000 6.5387137056e+00 7.0718628487e-05 1.7327794178e+00 -3.0012619900e+00 1.7327794178e+00 3.0012619900e+00 
76100 6.5387137059e+00 6.8700422804e-05 1.7327773772e+00 -3.0012584555e+00 1.7327773772e+00 3.0012584555e+00 
76200 6.5387137063e+00 6.8902799281e-05 1.7327773772e+00 -3.0012584555e+00 1.7327773772e+00 3.0012584555e+00 
76300 6.5387137068e+00 6.9103874711e-05 1.7327773772e+00 -3.0012584555e+00 1.7327773772e+00 3.0012584555e+00 
76400 6.5387137072e+00 6.9303606204e-05 1.7327773772e+00 -3.0012584555e+00 1.7327773772e+00 3.0012584555e+00 
76500 6.5387137077e+00 6.9501952310e-05 1.7327773772e+00 -3.0012584555e+00 1.7327773772e+00 3.0012584555e+00 
76600 6.5387137081e+00 6.9698873054e-05 1.7327773772e+00 -3.0012584555e+00 1.7327773772e+00 3.0012584555e+00 
76700 6.5387137085e+00 6.9894329988e-05 1.7327773772e+00 -3.0012584555e+00 1.7327773772e+00 3.0012584555e+00 
76800 6.5387137089e+00 7.0088286220e-05 1.7327773772e+00 -3.0012584555e+00 1.7327773772e+00 3.0012584555e+00 
76900 6.5387137093e+00 7.0280706449e-05 1.7327773772e+00 -3.0012584555e+00 1.7327773772e+00 3.0012584555e+00 
77000 6.5387137098e+00 7.0471556994e-05 1.7327773772e+00 -3.0012584555e+00 1.7327773772e+00 3.0012584555e+00 
77100 6.5387137102e+00 7.0660805821e-05 1.7327773772e+00 -3.0012584555e+00 1.7327773772e+00 3.0012584555e+00 
77200 6.5387137106e+00 7.0848422560e-05 1.7327773772e+00 -3.0012584555e+00 1.7327773772e+00 3.0012584555e+00 
77300 6.5387137108e+00 6.8797480796e-05 1.7327753328e+00 -3.0012549146e+00 1.7327753328e+00 3.0012549146e+00 
77400 6.5387137112e+00 6.8969993226e-05 1.7327753328e+00 -3.0012549146e+00 1.7327753328e+00 3.0012549146e+00 
77500 6.5387137115e+00 6.9140049096e-05 1.7327753328e+00 -3.0012549146e+00 1.7327753328e+00 3.0012549146e+00 
77600 6.5387137119e+00 6.9307661932e-05 1.7327753328e+00 -3.0012549146e+00 1.7327753328e+00 3.0012549146e+00 
77700 6.5387137123e+00 6.9472847102e-05 1.7327753328e+00 -3.0012549146e+00 1.7327753328e+00 3.0012549146e+00 
77800 6.5387137127e+00 6.9635621759e-05 1.7327753328e+00 -3.0012549146e+00 1.7327753328e+00 3.0012549146e+00 
77900 6.5387137130e+00 6.9796004766e-05 1.7327753328e+00 -3.0012549146e+00 1.7327753328e+00 3.0012549146e+00 
78000 6.5387137134e+00 6.9954016637e-05 1.7327753328e+00 -3.0012549146e+00 1.7327753328e+00 3.0012549146e+00 
78100 6.5387137137e+00 7.0109679454e-05 1.7327753328e+00 -3.0012549146e+00 1.7327753328e+00 3.0012549146e+00 
78200 6.5387137141e+00 7.0263016805e-05 1.7327753328e+00 -3.0012549146e+00 1.7327753328e+00 3.0012549146e+00 
78300 6.5387137144e+00 7.0414053707e-05 1.7327753328e+00 -3.0012549146e+00 1.7327753328e+00 3.0012549146e+00 
78400 6.5387137148e+00 7.0562816536e-05 1.7327753328e+00 -3.0012549146e+00 1.7327753328e+00 3.0012549146e+00 
78500 6.5387137151e+00 7.0709332955e-05 1.7327753328e+00 -3.0012549146e+00 1.7327753328e+00 3.0012549146e+00 
78600 6.5387137154e+00 7.0853631839e-05 1.7327753328e+00 -3.0012549146e+00 1.7327753328e+00 3.0012549146e+00 
78700 6.5387137156e+00 6.8758675835e-05 1.7327732883e+00 -3.0012513734e+00 1.7327732883e+00 3.0012513734e+00 
78800 6.5387137159e+00 6.8886873991e-05 1.7327732883e+00 -3.0012513734e+00 1.7327732883e+00 3.0012513734e+00 
78900 6.5387137162e+00 6.9012204256e-05 1.7327732883e+00 -3.0012513734e+00 1.7327732883e+00 3.0012513734e+00 
79000 6.5387137165e+00 6.9134736732e-05 1.7327732883e+00 -3.0012513734e+00 1.7327732883e+00 3.0012513734e+00 
79100 6.5387137168e+00 6.9254542502e-05 1.7327732883e+00 -3.0012513734e+00 1.7327732883e+00 3.0012513734e+00 
79200 6.5387137171e+00 6.9371693509e-05 1.7327732883e+00 -3.0012513734e+00 1.7327732883e+00 3.0012513734e+00 
79300 6.5387137174e+00 6.9486262395e-05 1.7327732883e+00 -3.0012513734e+00 1.7327732883e+00 3.0012513734e+00 
79400 6.5387137177e+00 6.9598322391e-05 1.7327732883e+00 -3.0012513734e+00 1.7327732883e+00 3.0012513734e+00 
79500 6.5387137180e+00 6.9707947177e-05 1.7327732883e+00 -3.0012513734e+00 1.7327732883e+00 3.0012513734e+00 
79600 6.5387137183e+00 6.9815210763e-05 1.7327732883e+00 -3.0012513734e+00 1.7327732883e+00 3.0012513734e+00 
79700 6.5387137186e+00 6.9920187356e-05 1.7327732883e+00 -3.0012513734e+00 1.7327732883e+00 3.0012513734e+00 
79800 6.5387137189e+00 7.0022951248e-05 1.7327732883e+00 -3.0012513734e+00 1.7327732883e+00 3.0012513734e+00 
79900 6.5387137191e+00 7.0123576694e-05 1.7327732883e+00 -3.0012513734e+00 1.7327732883e+00 3.0012513734e+00 
80000 6.5387137194e+00 7.0222137806e-05 1.7327732883e+00 -3.0012513734e+00 1.7327732883e+00 3.0012513734e+00 
80100 6.5387137197e+00 7.0318708434e-05 1.7327732883e+00 -3.0012513734e+00 1.7327732883e+00 3.0012513734e+00 
80200 6.5387137199e+00 7.0413362067e-05 1.7327732883e+00 -3.0012513734e+00 1.7327732883e+00 3.0012513734e+00 
80300 6.5387137202e+00 7.0506171730e-05 1.7327732883e+00 -3.0012513734e+00 1.7327732883e+00 3.0012513734e+00 
80400 6.5387137205e+00 7.0597209883e-05 1.7327732883e+00 -3.0012513734e+00 1.7327732883e+00 3.0012513734e+00 
80500 6.5387137207e+00 7.0686548325e-05 1.7327732883e+00 -3.0012513734e+00 1.7327732883e+00 3.0012513734e+00 
80600 6.5387137210e+00 7.0774258111e-05 1.7327732883e+00 -3.0012513734e+00 1.7327732883e+00 3.0012513734e+00 
80700 6.5387137211e+00 6.8625844725e-05 1.7327712461e+00 -3.0012478362e+00 1.7327712461e+00 3.0012478362e+00 
80800 6.5387137213e+00 6.8698763138e-05 1.7327712461e+00 -3.0012478362e+00 1.7327712461e+00 3.0012478362e+00 
80900 6.5387137215e+00 6.8769518038e-05 1.7327712461e+00 -3.0012478362e+00 1.7327712461e+00 3.0012478362e+00 
81000 6.5387137218e+00 6.8838213707e-05 1.7327712461e+00 -3.0012478362e+00 1.7327712461e+00 3.0012478362e+00 
81100 6.5387137220e+00 6.8904953424e-05 1.7327712461e+00 -3.0012478362e+00 1.7327712461e+00 3.0012478362e+00 
81200 6.5387137222e+00 6.8969839325e-05 1.7327712461e+00 -3.0012478362e+00 1.7327712461e+00 3.0012478362e+00 
81300 6.5387137225e+00 6.9032972281e-05 1.7327712461e+00 -3.0012478362e+00 1.7327712461e+00 3.0012478362e+00 
81400 6.5387137227e+00 6.9094451772e-05 1.7327712461e+00 -3.0012478362e+00 1.7327712461e+00 3.0012478362e+00 
81500 6.5387137229e+00 6.9154375770e-05 1.7327712461e+00 -3.0012478362e+00 1.7327712461e+00 3.0012478362e+00 
81600 6.5387137231e+00 6.9212840642e-05 1.7327712461e+00 -3.0012478362e+00 1.7327712461e+00 3.0012478362e+00 
81700 6.5387137234e+00 6.9269941029e-05 1.7327712461e+00 -3.0012478362e+00 1.7327712461e+00 3.0012478362e+00 
81800 6.5387137236e+00 6.9325769768e-05 1.7327712461e+00 -3.0012478362e+00 1.7327712461e+00 3.0012478362e+00 
81900 6.5387137238e+00 6.9380417778e-05 1.7327712461e+00 -3.0012478362e+00 1.7327712461e+00 3.0012478362e+00 
82000 6.5387137240e+00 6.9433973998e-05 1.7327712461e+00 -3.0012478362e+00 1.7327712461e+00 3.0012478362e+00 
82100 6.5387137242e+00 6.9486525289e-05 1.7327712461e+00 -3.0012478362e+00 1.7327712461e+00 3.0012478362e+00 
82200 6.5387137244e+00 6.9538156373e-05 1.7327712461e+00 -3.0012478362e+00 1.7327712461e+00 3.0012478362e+00 
82300 6.5387137246e+00 6.9588949756e-05 1.7327712461e+00 -3.0012478362e+00 1.7327712461e+00 3.0012478362e+00 
82400 6.5387137248e+00 6.9638985671e-05 1.7327712461e+00 -3.0012478362e+00 1.7327712461e+00 3.0012478362e+00 
82500 6.5387137250e+00 6.9688342018e-05 1.7327712461e+00 -3.0012478362e+00 1.7327712461e+00 3.0012478362e+00 
82600 6.5387137252e+00 6.9737094318e-05 1.7327712461e+00 -3.0012478362e+00 1.7327712461e+00 3.0012478362e+00 
82700 6.5387137254e+00 6.9785315663e-05 1.7327712461e+00 -3.0012478362e+00 1.7327712461e+00 3.0012478362e+00 
82800 6.5387137256e+00 6.9833076677e-05 1.7327712461e+00 -3.0012478362e+00 1.7327712461e+00 3.0012478362e+00 
82900 6.5387137258e+00 6.9880445482e-05 1.7327712461e+00 -3.0012478362e+00 1.7327712461e+00 3.0012478362e+00 
83000 6.5387137259e+00 6.9927487668e-05 1.7327712461e+00 -3.0012478362e+00 1.7327712461e+00 3.0012478362e+00 
83100 6.5387137261e+00 6.9974266271e-05 1.7327712461e+00 -3.0012478362e+00 1.7327712461e+00 3.0012478362e+00 
83200 6.5387137263e+00 7.0020841750e-05 1.7327712461e+00 -3.0012478362e+00 1.7327712461e+00 3.0012478362e+00 
83300 6.5387137265e+00 7.0067271971e-05 1.7327712461e+00 -3.0012478362e+00 1.7327712461e+00 3.0012478362e+00 
83400 6.5387137266e+00 7.0113612206e-05 1.7327712461e+00 -3.0012478362e+00 1.7327712461e+00 3.0012478362e+00 
83500 6.5387137268e+00 7.0159915118e-05 1.7327712461e+00 -3.0012478362e+00 1.7327712461e+00 3.0012478362e+00 
83600 6.5387137270e+00 7.0206230765e-05 1.7327712461e+00 -3.0012478362e+00 1.7327712461e+00 3.0012478362e+00 
83700 6.5387137272e+00 7.0252606604e-05 1.7327712461e+00 -3.0012478362e+00 1.7327712461e+00 3.0012478362e+00 
83800 6.5387137273e+00 7.0299087495e-05 1.7327712461e+00 -3.0012478362e+00 1.7327712461e+00 3.0012478362e+00 
83900 6.5387137275e+00 7.0345715720e-05 1.7327712461e+00 -3.0012478362e+00 1.7327712461e+00 3.0012478362e+00 
84000 6.5387137276e+00 7.0392530994e-05 1.7327712461e+00 -3.0012478362e+00 1.7327712461e+00 3.0012478362e+00 
84100 6.5387137278e+00 7.0439570484e-05 1.7327712461e+00 -3.0012478362e+00 1.7327712461e+00 3.0012478362e+00 
84200 6.5387137280e+00 7.0486868834e-05 1.7327712461e+00 -3.0012478362e+00 1.7327712461e+00 3.0012478362e+00 
84300 6.5387137281e+00 7.0534458190e-05 1.7327712461e+00 -3.0012478362e+00 1.7327712461e+00 3.0012478362e+00 
84400 6.5387137283e+00 7.0582368237e-05 1.7327712461e+00 -3.0012478362e+00 1.7327712461e+00 3.0012478362e+00 
84500 6.5387137284e+00 7.0630626222e-05 1.7327712461e+00 -3.0012478362e+00 1.7327712461e+00 3.0012478362e+00 
84600 6.5387137286e+00 7.0679256996e-05 1.7327712461e+00 -3.0012478362e+00 1.7327712461e+00 3.0012478362e+00 
84700 6.5387137287e+00 7.0728283051e-05 1.7327712461e+00 -3.0012478362e+00 1.7327712461e+00 3.0012478362e+00 
84800 6.5387137287e+00 6.8544611745e-05 1.7327692052e+00 -3.0012443012e+00 1.7327692052e+00 3.0012443012e+00 
84900 6.5387137288e+00 6.8582750085e-05 1.7327692052e+00 -3.0012443012e+00 1.7327692052e+00 3.0012443012e+00 
85000 6.5387137290e+00 6.8620595317e-05 1.7327692052e+00 -3.0012443012e+00 1.7327692052e+00 3.0012443012e+00 
85100 6.5387137291e+00 6.8658197983e-05 1.7327692052e+00 -3.0012443012e+00 1.7327692052e+00 3.0012443012e+00 
85200 6.5387137292e+00 6.8695606632e-05 1.7327692052e+00 -3.0012443012e+00 1.7327692052e+00 3.0012443012e+00 
85300 6.5387137294e+00 6.8732867812e-05 1.7327692052e+00 -3.0012443012e+00 1.7327692052e+00 3.0012443012e+00 
85400 6.5387137295e+00 6.8770026061e-05 1.7327692052e+00 -3.0012443012e+00 1.7327692052e+00 3.0012443012e+00 
85500 6.5387137296e+00 6.8807123896e-05 1.7327692052e+00 -3.0012443012e+00 1.7327692052e+00 3.0012443012e+00 
85600 6.5387137298e+00 6.8844201819e-05 1.7327692052e+00 -3.0012443012e+00 1.7327692052e+00 3.0012443012e+00 
85700 6.5387137299e+00 6.8881298311e-05 1.7327692052e+00 -3.0012443012e+00 1.7327692052e+00 3.0012443012e+00 
85800 6.5387137300e+00 6.8918449838e-05 1.7327692052e+00 -3.0012443012e+00 1.7327692052e+00 3.0012443012e+00 
85900 6.5387137302e+00 6.8955690865e-05 1.7327692052e+00 -3.0012443012e+00 1.7327692052e+00 3.0012443012e+00 
86000 6.5387137303e+00 6.8993053857e-05 1.7327692052e+00 -3.0012443012e+00 1.7327692052e+00 3.0012443012e+00 
86100 6.5387137304e+00 6.9030569293e-05 1.7327692052e+00 -3.0012443012e+00 1.7327692052e+00 3.0012443012e+00 
86200 6.5387137305e+00 6.9068265693e-05 1.7327692052e+00 -3.0012443012e+00 1.7327692052e+00 3.0012443012e+00 
86300 6.5387137306e+00 6.9106169626e-05 1.7327692052e+00 -3.0012443012e+00 1.7327692052e+00 3.0012443012e+00 
86400 6.5387137308e+00 6.9144305738e-05 1.7327692052e+00 -3.0012443012e+00 1.7327692052e+00 3.0012443012e+00 
86500 6.5387137309e+00 6.9182696768e-05 1.7327692052e+00 -3.0012443012e+00 1.7327692052e+00 3.0012443012e+00 
86600 6.5387137310e+00 6.9221363588e-05 1.7327692052e+00 -3.0012443012e+00 1.7327692052e+00 3.0012443012e+00 
86700 6.5387137311e+00 6.9260325219e-05 1.7327692052e+00 -3.0012443012e+00 1.7327692052e+00 3.0012443012e+00 
86800 6.5387137312e+00 6.9299598866e-05 1.7327692052e+00 -3.0012443012e+00 1.7327692052e+00 3.0012443012e+00 
86900 6.5387137313e+00 6.9339199956e-05 1.7327692052e+00 -3.0012443012e+00 1.7327692052e+00 3.0012443012e+00 
87000 6.5387137314e+00 6.9379142164e-05 1.7327692052e+00 -3.0012443012e+00 1.7327692052e+00 3.0012443012e+00 
87100 6.5387137315e+00 6.9419437457e-05 1.7327692052e+00 -3.0012443012e+00 1.7327692052e+00 3.0012443012e+00 
87200 6.5387137316e+00 6.9460096127e-05 1.7327692052e+00 -3.0012443012e+00 1.7327692052e+00 3.0012443012e+00 
87300 6.5387137317e+00 6.9501126836e-05 1.7327692052e+00 -3.0012443012e+00 1.7327692052e+00 3.0012443012e+00 
87400 6.5387137318e+00 6.9542536651e-05 1.7327692052e+00 -3.0012443012e+00 1.7327692052e+00 3.0012443012e+00 
87500 6.5387137319e+00 6.9584331093e-05 1.7327692052e+00 -3.0012443012e+00 1.7327692052e+00 3.0012443012e+00 
87600 6.5387137320e+00 6.9626514175e-05 1.7327692052e+00 -3.0012443012e+00 1.7327692052e+00 3.0012443012e+00 
87700 6.5387137321e+00 6.9669088452e-05 1.7327692052e+00 -3.0012443012e+00 1.7327692052e+00 3.0012443012e+00 
87800 6.5387137322e+00 6.9712055065e-05 1.7327692052e+00 -3.0012443012e+00 1.7327692052e+00 3.0012443012e+00 
87900 6.5387137323e+00 6.9755413786e-05 1.7327692052e+00 -3.0012443012e+00 1.7327692052e+00 3.0012443012e+00 
88000 6.5387137324e+00 6.9799163067e-05 1.7327692052e+00 -3.0012443012e+00 1.7327692052e+00 3.0012443012e+00 
88100 6.5387137325e+00 6.9843300093e-05 1.7327692052e+00 -3.0012443012e+00 1.7327692052e+00 3.0012443012e+00 
88200 6.5387137326e+00 6.9887820818e-05 1.7327692052e+00 -3.0012443012e+00 1.7327692052e+00 3.0012443012e+00 
88300 6.5387137327e+00 6.9932720027e-05 1.7327692052e+00 -3.0012443012e+00 1.7327692052e+00 3.0012443012e+00 
88400 6.5387137328e+00 6.9977991385e-05 1.7327692052e+00 -3.0012443012e+00 1.7327692052e+00 3.0012443012e+00 
88500 6.5387137329e+00 7.0023627480e-05 1.7327692052e+00 -3.0012443012e+00 1.7327692052e+00 3.0012443012e+00 
88600 6.5387137330e+00 7.0069619872e-05 1.7327692052e+00 -3.0012443012e+00 1.7327692052e+00 3.0012443012e+00 
88700 6.5387137331e+00 7.0115959159e-05 1.7327692052e+00 -3.0012443012e+00 1.7327692052e+00 3.0012443012e+00 
88800 6.5387137331e+00 7.0162635010e-05 1.7327692052e+00 -3.0012443012e+00 1.7327692052e+00 3.0012443012e+00 
88900 6.5387137332e+00 7.0209636220e-05 1.7327692052e+00 -3.0012443012e+00 1.7327692052e+00 3.0012443012e+00 
89000 6.5387137333e+00 7.0256950764e-05 1.7327692052e+00 -3.0012443012e+00 1.7327692052e+00 3.0012443012e+00 
89100 6.5387137334e+00 7.0304565850e-05 1.7327692052e+00 -3.0012443012e+00 1.7327692052e+00 3.0012443012e+00 
89200 6.5387137335e+00 7.0352467957e-05 1.7327692052e+00 -3.0012443012e+00 1.7327692052e+00 3.0012443012e+00 
89300 6.5387137336e+00 7.0400642892e-05 1.7327692052e+00 -3.0012443012e+00 1.7327692052e+00 3.0012443012e+00 
89400 6.5387137336e+00 7.0449075841e-05 1.7327692052e+00 -3.0012443012e+00 1.7327692052e+00 3.0012443012e+00 
89500 6.5387137337e+00 7.0497751411e-05 1.7327692052e+00 -3.0012443012e+00 1.7327692052e+00 3.0012443012e+00 
89600 6.5387137338e+00 7.0546653685e-05 1.7327692052e+00 -3.0012443012e+00 1.7327692052e+00 3.0012443012e+00 
89700 6.5387137339e+00 7.0595766259e-05 1.7327692052e+00 -3.0012443012e+00 1.7327692052e+00 3.0012443012e+00 
89800 6.5387137339e+00 7.0645072301e-05 1.7327692052e+00 -3.0012443012e+00 1.7327692052e+00 3.0012443012e+00 
89900 6.5387137340e+00 7.0694554584e-05 1.7327692052e+00 -3.0012443012e+00 1.7327692052e+00 3.0012443012e+00 
90000 6.5387137341e+00 7.0744195540e-05 1.7327692052e+00 -3.0012443012e+00 1.7327692052e+00 3.0012443012e+00 
90100 6.5387137340e+00 6.8560359048e-05 1.7327671638e+00 -3.0012407655e+00 1.7327671638e+00 3.0012407655e+00 
90200 6.5387137341e+00 6.8598523961e-05 1.7327671638e+00 -3.0012407655e+00 1.7327671638e+00 3.0012407655e+00 
90300 6.5387137341e+00 6.8636050919e-05 1.7327671638e+00 -3.0012407655e+00 1.7327671638e+00 3.0012407655e+00 
90400 6.5387137342e+00 6.8672958452e-05 1.7327671638e+00 -3.0012407655e+00 1.7327671638e+00 3.0012407655e+00 
90500 6.5387137343e+00 6.8709265083e-05 1.7327671638e+00 -3.0012407655e+00 1.7327671638e+00 3.0012407655e+00 
90600 6.5387137344e+00 6.8744989316e-05 1.7327671638e+00 -3.0012407655e+00 1.7327671638e+00 3.0012407655e+00 
90700 6.5387137344e+00 6.8780149603e-05 1.7327671638e+00 -3.0012407655e+00 1.7327671638e+00 3.0012407655e+00 
90800 6.5387137345e+00 6.8814764318e-05 1.7327671638e+00 -3.0012407655e+00 1.7327671638e+00 3.0012407655e+00 
90900 6.5387137346e+00 6.8848851735e-05 1.7327671638e+00 -3.0012407655e+00 1.7327671638e+00 3.0012407655e+00 
91000 6.5387137346e+00 6.8882430000e-05 1.7327671638e+00 -3.0012407655e+00 1.7327671638e+00 3.0012407655e+00 
91100 6.5387137347e+00 6.8915517113e-05 1.7327671638e+00 -3.0012407655e+00 1.7327671638e+00 3.0012407655e+00 
91200 6.5387137347e+00 6.8948130902e-05 1.7327671638e+00 -3.0012407655e+00 1.7327671638e+00 3.0012407655e+00 
91300 6.5387137348e+00 6.8980289006e-05 1.7327671638e+00 -3.0012407655e+00 1.7327671638e+00 3.0012407655e+00 
91400 6.5387137349e+00 6.9012008852e-05 1.7327671638e+00 -3.0012407655e+00 1.7327671638e+00 3.0012407655e+00 
91500 6.5387137349e+00 6.9043307633e-05 1.7327671638e+00 -3.0012407655e+00 1.7327671638e+00 3.0012407655e+00 
91600 6.5387137350e+00 6.9074202293e-05 1.7327671638e+00 -3.0012407655e+00 1.7327671638e+00 3.0012407655e+00 
91700 6.5387137350e+00 6.9104709513e-05 1.7327671638e+00 -3.0012407655e+00 1.7327671638e+00 3.0012407655e+00 
91800 6.5387137351e+00 6.9134845686e-05 1.7327671638e+00 -3.0012407655e+00 1.7327671638e+00 3.0012407655e+00 
91900 6.5387137352e+00 6.9164626904e-05 1.7327671638e+00 -3.0012407655e+00 1.7327671638e+00 3.0012407655e+00 
92000 6.5387137352e+00 6.9194068951e-05 1.7327671638e+00 -3.0012407655e+00 1.7327671638e+00 3.0012407655e+00 
92100 6.5387137353e+00 6.9223187279e-05 1.7327671638e+00 -3.0012407655e+00 1.7327671638e+00 3.0012407655e+00 
92200 6.5387137353e+00 6.9251996998e-05 1.7327671638e+00 -3.0012407655e+00 1.7327671638e+00 3.0012407655e+00 
92300 6.5387137354e+00 6.9280512868e-05 1.7327671638e+00 -3.0012407655e+00 1.7327671638e+00 3.0012407655e+00 
92400 6.5387137354e+00 6.9308749283e-05 1.7327671638e+00 -3.0012407655e+00 1.7327671638e+00 3.0012407655e+00 
92500 6.5387137355e+00 6.9336720263e-05 1.7327671638e+00 -3.0012407655e+00 1.7327671638e+00 3.0012407655e+00 
92600 6.5387137355e+00 6.9364439445e-05 1.7327671638e+00 -3.0012407655e+00 1.7327671638e+00 3.0012407655e+00 
92700 6.5387137356e+00 6.9391920073e-05 1.7327671638e+00 -3.0012407655e+00 1.7327671638e+00 3.0012407655e+00 
92800 6.5387137356e+00 6.9419174992e-05 1.7327671638e+00 -3.0012407655e+00 1.7327671638e+00 3.0012407655e+00 
92900 6.5387137357e+00 6.9446216644e-05 1.7327671638e+00 -3.0012407655e+00 1.7327671638e+00 3.0012407655e+00 
93000 6.5387137357e+00 6.9473057052e-05 1.7327671638e+00 -3.0012407655e+00 1.7327671638e+00 3.0012407655e+00 
93100 6.5387137358e+00 6.9499707832e-05 1.7327671638e+00 -3.0012407655e+00 1.7327671638e+00 3.0012407655e+00 
93200 6.5387137358e+00 6.9526180168e-05 1.7327671638e+00 -3.0012407655e+00 1.7327671638e+00 3.0012407655e+00 
93300 6.5387137359e+00 6.9539352801e-05 1.7327671638e+00 -3.0012407655e+00 1.7327671638e+00 3.0012407655e+00 
93300 6.5387137359e+00 6.9539352801e-05 1.7327671638e+00 -3.0012407655e+00 1.7327671638e+00 3.0012407655e+00 
