# step Hamiltonian StressXX CellTensor1 CellTensor2 CellTensor3 CellTensor4 
0 6.4928414982e+00 2.0833030017e-01 2.8378601290e+00 -4.9153179282e+00 2.8378601290e+00 4.9153179282e+00 
100 6.5297454354e+00 2.5159727793e-01 2.8378601290e+00 -4.9153179282e+00 2.8378601290e+00 4.9153179282e+00 
200 6.5645966612e+00 2.9127989100e-01 2.8334284153e+00 -4.9076419748e+00 2.8334284153e+00 4.9076419748e+00 
300 6.5982143756e+00 3.2795038104e-01 2.8282899113e+00 -4.8987418249e+00 2.8282899113e+00 4.8987418249e+00 
400 6.6308054617e+00 3.6200423305e-01 2.8224942164e+00 -4.8887033869e+00 2.8224942164e+00 4.8887033869e+00 
500 6.6624990290e+00 3.9377442356e-01 2.8160838075e+00 -4.8776002330e+00 2.8160838075e+00 4.8776002330e+00 
600 6.6933419086e+00 4.2350581631e-01 2.8090951824e+00 -4.8654955793e+00 2.8090951824e+00 4.8654955793e+00 
700 6.7232848774e+00 4.5130820541e-01 2.8015604449e+00 -4.8524450311e+00 2.8015604449e+00 4.8524450311e+00 
800 6.7521538314e+00 4.7707315521e-01 2.7935097293e+00 -4.8385007826e+00 2.7935097293e+00 4.8385007826e+00 
900 6.7796001719e+00 5.0033878401e-01 2.7849751365e+00 -4.8237184342e+00 2.7849751365e+00 4.8237184342e+00 
1000 6.8050327577e+00 5.2010916486e-01 2.7759971579e+00 -4.8081681191e+00 2.7759971579e+00 4.8081681191e+00 
1100 6.8275642166e+00 5.3472634885e-01 2.7666344746e+00 -4.7919514759e+00 2.7666344746e+00 4.7919514759e+00 
1200 6.8460702466e+00 5.4209203228e-01 2.7569762786e+00 -4.7752229898e+00 2.7569762786e+00 4.7752229898e+00 
1300 6.8595110190e+00 5.4065602998e-01 2.7471508640e+00 -4.7582048725e+00 2.7471508640e+00 4.7582048725e+00 
1400 6.8675017230e+00 5.3096551945e-01 2.7373164551e+00 -4.7411711766e+00 2.7373164551e+00 4.7411711766e+00 
1500 6.8706819026e+00 5.1618551753e-01 2.7276235521e+00 -4.7243825761e+00 2.7276235521e+00 4.7243825761e+00 
1600 6.8703947229e+00 5.0038698152e-01 2.7181668579e+00 -4.7080031013e+00 2.7181668579e+00 4.7080031013e+00 
1700 6.8679743881e+00 4.8629458929e-01 2.7089675769e+00 -4.6920694793e+00 2.7089675769e+00 4.6920694793e+00 
1800 6.8643296774e+00 4.7469453841e-01 2.6999969056e+00 -4.6765318207e+00 2.6999969056e+00 4.6765318207e+00 
1900 6.8599551765e+00 4.6520165644e-01 2.6912110416e+00 -4.6613142579e+00 2.6912110416e+00 4.6613142579e+00 
2000 6.8550947901e+00 4.5709981028e-01 2.6825727029e+00 -4.6463522163e+00 2.6825727029e+00 4.6463522163e+00 
2100 6.8498720480e+00 4.4975880799e-01 2.6740574242e+00 -4.6316033210e+00 2.6740574242e+00 4.6316033210e+00 
2200 6.8443586605e+00 4.4273841128e-01 2.6656521761e+00 -4.6170450042e+00 2.6656521761e+00 4.6170450042e+00 
2300 6.8386043845e+00 4.3576552941e-01 2.6573519969e+00 -4.6026686723e+00 2.6573519969e+00 4.6026686723e+00 
2400 6.8326489056e+00 4.2868430994e-01 2.6491569828e+00 -4.5884744914e+00 2.6491569828e+00 4.5884744914e+00 
2500 6.8265264144e+00 4.2141326097e-01 2.6410701568e+00 -4.5744676980e+00 2.6410701568e+00 4.5744676980e+00 
2600 6.8202674007e+00 4.1391553133e-01 2.6330961079e+00 -4.5606562401e+00 2.6330961079e+00 4.5606562401e+00 
2700 6.8138994134e+00 4.0618009349e-01 2.6252401662e+00 -4.5470493499e+00 2.6252401662e+00 4.5470493499e+00 
2800 6.8074474390e+00 3.9821036265e-01 2.6175079210e+00 -4.5336567083e+00 2.6175079210e+00 4.5336567083e+00 
2900 6.8009341375e+00 3.9001749333e-01 2.6099049463e+00 -4.5204879699e+00 2.6099049463e+00 4.5204879699e+00 
3000 6.7943800234e+00 3.8161650468e-01 2.6024366501e+00 -4.5075525015e+00 2.6024366501e+00 4.5075525015e+00 
3100 6.7878036242e+00 3.7302408134e-01 2.5951081949e+00 -4.4948592447e+00 2.5951081949e+00 4.4948592447e+00 
3200 6.7812216280e+00 3.6425735489e-01 2.5879244593e+00 -4.4824166496e+00 2.5879244593e+00 4.4824166496e+00 
3300 6.7746490230e+00 3.5533325398e-01 2.5808900227e+00 -4.4702326480e+00 2.5808900227e+00 4.4702326480e+00 
3400 6.7680992314e+00 3.4626818131e-01 2.5740091624e+00 -4.4583146485e+00 2.5740091624e+00 4.4583146485e+00 
3500 6.7615842361e+00 3.3707787585e-01 2.5672858573e+00 -4.4466695425e+00 2.5672858573e+00 4.4466695425e+00 
3600 6.7551147005e+00 3.2777737768e-01 2.5607237940e+00 -4.4353037153e+00 2.5607237940e+00 4.4353037153e+00 
3700 6.7487000814e+00 3.1838104743e-01 2.5543263743e+00 -4.4242230593e+00 2.5543263743e+00 4.4242230593e+00 
3800 6.7423487342e+00 3.0890261242e-01 2.5480967227e+00 -4.4134329864e+00 2.5480967227e+00 4.4134329864e+00 
3900 6.7360680111e+00 2.9935522353e-01 2.5420376935e+00 -4.4029384399e+00 2.5420376935e+00 4.4029384399e+00 
4000 6.7298643517e+00 2.8975151392e-01 2.5361518762e+00 -4.3927439053e+00 2.5361518762e+00 4.3927439053e+00 
4100 6.7237433670e+00 2.8010365449e-01 2.5304416011e+00 -4.3828534188e+00 2.5304416011e+00 4.3828534188e+00 
4200 6.7177099159e+00 2.7042340380e-01 2.5249089439e+00 -4.3732705753e+00 2.5249089439e+00 4.3732705753e+00 
4300 6.7117681768e+00 2.6072215120e-01 2.5195557289e+00 -4.3639985349e+00 2.5195557289e+00 4.3639985349e+00 
4400 6.7059217117e+00 2.5101095289e-01 2.5143835326e+00 -4.3550400282e+00 2.5143835326e+00 4.3550400282e+00 
4500 6.7001735262e+00 2.4130056119e-01 2.5093936865e+00 -4.3463973612e+00 2.5093936865e+00 4.3463973612e+00 
4600 6.6945261235e+00 2.3160144724e-01 2.5045872793e+00 -4.3380724197e+00 2.5045872793e+00 4.3380724197e+00 
4700 6.6889815538e+00 2.2192381784e-01 2.4999651593e+00 -4.3300666730e+00 2.4999651593e+00 4.3300666730e+00 
4800 6.6835414602e+00 2.1227762691e-01 2.4955279368e+00 -4.3223811782e+00 2.4955279368e+00 4.3223811782e+00 
4900 6.6782071194e+00 2.0267258217e-01 2.4912759863e+00 -4.3150165839e+00 2.4912759863e+00 4.3150165839e+00 
5000 6.6729794798e+00 1.9311814761e-01 2.4872094489e+00 -4.3079731345e+00 2.4872094489e+00 4.3079731345e+00 
5100 6.6678591952e+00 1.8362354241e-01 2.4833282351e+00 -4.3012506751e+00 2.4833282351e+00 4.3012506751e+00 
5200 6.6628466570e+00 1.7419773660e-01 2.4796320280e+00 -4.2948486565e+00 2.4796320280e+00 4.2948486565e+00 
5300 6.6579420212e+00 1.6484944421e-01 2.4761202861e+00 -4.2887661412e+00 2.4761202861e+00 4.2887661412e+00 
5400 6.6531452353e+00 1.5558711412e-01 2.4727922479e+00 -4.2830018100e+00 2.4727922479e+00 4.2830018100e+00 
5500 6.6484560602e+00 1.4641891919e-01 2.4696469355e+00 -4.2775539691e+00 2.4696469355e+00 4.2775539691e+00 
5600 6.6438740920e+00 1.3735274407e-01 2.4666831598e+00 -4.2724205590e+00 2.4666831598e+00 4.2724205590e+00 
5700 6.6393987799e+00 1.2839617185e-01 2.4638995255e+00 -4.2675991630e+00 2.4638995255e+00 4.2675991630e+00 
5800 6.6350294431e+00 1.1955647021e-01 2.4612944372e+00 -4.2630870176e+00 2.4612944372e+00 4.2630870176e+00 
5900 6.6307652854e+00 1.1084057712e-01 2.4588661054e+00 -4.2588810236e+00 2.4588661054e+00 4.2588810236e+00 
6000 6.6266054077e+00 1.0225508651e-01 2.4566125539e+00 -4.2549777579e+00 2.4566125539e+00 4.2549777579e+00 
6100 6.6225488197e+00 9.3806234249e-02 2.4545316268e+00 -4.2513734864e+00 2.4545316268e+00 4.2513734864e+00 
6200 6.6185944490e+00 8.5499884566e-02 2.4526209964e+00 -4.2480641775e+00 2.4526209964e+00 4.2480641775e+00 
6300 6.6147411492e+00 7.7341517255e-02 2.4508781721e+00 -4.2450455172e+00 2.4508781721e+00 4.2450455172e+00 
6400 6.6109877070e+00 6.9336215879e-02 2.4493005087e+00 -4.2423129242e+00 2.4493005087e+00 4.2423129242e+00 
6500 6.6073328477e+00 6.1488657180e-02 2.4478852162e+00 -4.2398615656e+00 2.4478852162e+00 4.2398615656e+00 
6600 6.6037752391e+00 5.3803101869e-02 2.4466293690e+00 -4.2376863744e+00 2.4466293690e+00 4.2376863744e+00 
6700 6.6003134957e+00 4.6283387006e-02 2.4455299162e+00 -4.2357820663e+00 2.4455299162e+00 4.2357820663e+00 
6800 6.5969461807e+00 3.8932920086e-02 2.4445836918e+00 -4.2341431576e+00 2.4445836918e+00 4.2341431576e+00 
6900 6.5936718082e+00 3.1754674978e-02 2.4437874253e+00 -4.2327639834e+00 2.4437874253e+00 4.2327639834e+00 
7000 6.5904888445e+00 2.4751189814e-02 2.4431377520e+00 -4.2316387163e+00 2.4431377520e+00 4.2316387163e+00 
7100 6.5873957085e+00 1.7924566900e-02 2.4426312244e+00 -4.2307613848e+00 2.4426312244e+00 4.2307613848e+00 
7200 6.5843907725e+00 1.1276474701e-02 2.4422643225e+00 -4.2301258921e+00 2.4422643225e+00 4.2301258921e+00 
7300 6.5814723623e+00 4.8081519347e-03 2.4420334651e+00 -4.2297260353e+00 2.4420334651e+00 4.2297260353e+00 
7400 6.5786387571e+00 -1.4795862523e-03 2.4419350201e+00 -4.2295555236e+00 2.4419350201e+00 4.2295555236e+00 
7500 6.5758881896e+00 -7.5863400391e-03 2.4419653155e+00 -4.2296079968e+00 2.4419653155e+00 4.2296079968e+00 
7600 6.5732188462e+00 -1.3512114680e-02 2.4421206499e+00 -4.2298770438e+00 2.4421206499e+00 4.2298770438e+00 
7700 6.5706288674e+00 -1.9257308334e-02 2.4423973022e+00 -4.2303562197e+00 2.4423973022e+00 4.2303562197e+00 
7800 6.5681163479e+00 -2.4822698071e-02 2.4427915425e+00 -4.2310390639e+00 2.4427915425e+00 4.2310390639e+00 
7900 6.5656793380e+00 -3.0209424197e-02 2.4432996407e+00 -4.2319191157e+00 2.4432996407e+00 4.2319191157e+00 
8000 6.5633158442e+00 -3.5418973032e-02 2.4439178763e+00 -4.2329899312e+00 2.4439178763e+00 4.2329899312e+00 
8100 6.5610238313e+00 -4.0453158310e-02 2.4446425472e+00 -4.2342450980e+00 2.4446425472e+00 4.2342450980e+00 
8200 6.5588012243e+00 -4.5314101377e-02 2.4454699777e+00 -4.2356782498e+00 2.4454699777e+00 4.2356782498e+00 
8300 6.5566459107e+00 -5.0004210374e-02 2.4463965269e+00 -4.2372830800e+00 2.4463965269e+00 4.2372830800e+00 
8400 6.5545557439e+00 -5.4526158600e-02 2.4474185952e+00 -4.2390533544e+00 2.4474185952e+00 4.2390533544e+00 
8500 6.5525285459e+00 -5.8882862251e-02 2.4485326322e+00 -4.2409829229e+00 2.4485326322e+00 4.2409829229e+00 
8600 6.5505621118e+00 -6.3077457738e-02 2.4497351417e+00 -4.2430657306e+00 2.4497351417e+00 4.2430657306e+00 
8700 6.5486542134e+00 -6.7113278776e-02 2.4510226887e+00 -4.2452958273e+00 2.4510226887e+00 4.2452958273e+00 
8800 6.5468026044e+00 -7.0993833438e-02 2.4523919033e+00 -4.2476673766e+00 2.4523919033e+00 4.2476673766e+00 
8900 6.5450050247e+00 -7.4722781358e-02 2.4538394863e+00 -4.2501746638e+00 2.4538394863e+00 4.2501746638e+00 
9000 6.5432592058e+00 -7.8303911252e-02 2.4553622123e+00 -4.2528121026e+00 2.4553622123e+00 4.2528121026e+00 
9100 6.5415628762e+00 -8.1741118922e-02 2.4569569338e+00 -4.2555742414e+00 2.4569569338e+00 4.2555742414e+00 
9200 6.5399137666e+00 -8.5038385893e-02 2.4586205840e+00 -4.2584557680e+00 2.4586205840e+00 4.2584557680e+00 
9300 6.5383096160e+00 -8.8199758802e-02 2.4603501788e+00 -4.2614515141e+00 2.4603501788e+00 4.2614515141e+00 
9400 6.5367481770e+00 -9.1229329673e-02 2.4621428192e+00 -4.2645564583e+00 2.4621428192e+00 4.2645564583e+00 
9500 6.5352272212e+00 -9.4131217161e-02 2.4639956922e+00 -4.2677657285e+00 2.4639956922e+00 4.2677657285e+00 
9600 6.5337445454e+00 -9.6909548856e-02 2.4659060724e+00 -4.2710746040e+00 2.4659060724e+00 4.2710746040e+00 
9700 6.5322979764e+00 -9.9568444713e-02 2.4678713218e+00 -4.2744785159e+00 2.4678713218e+00 4.2744785159e+00 
9800 6.5308853765e+00 -1.0211200165e-01 2.4698888905e+00 -4.2779730474e+00 2.4698888905e+00 4.2779730474e+00 
9900 6.5295046486e+00 -1.0454427937e-01 2.4719563161e+00 -4.2815539336e+00 2.4719563161e+00 4.2815539336e+00 
10000 6.5281537406e+00 -1.0686928736e-01 2.4740712235e+00 -4.2852170606e+00 2.4740712235e+00 4.2852170606e+00 
10100 6.5268306504e+00 -1.0909097320e-01 2.4762313234e+00 -4.2889584635e+00 2.4762313234e+00 4.2889584635e+00 
10200 6.5255334295e+00 -1.1121321202e-01 2.4784344119e+00 -4.2927743246e+00 2.4784344119e+00 4.2927743246e+00 
10300 6.5242601874e+00 -1.1323979720e-01 2.4806783683e+00 -4.2966609712e+00 2.4806783683e+00 4.2966609712e+00 
10400 6.5230090943e+00 -1.1517443224e-01 2.4829611541e+00 -4.3006148721e+00 2.4829611541e+00 4.3006148721e+00 
10500 6.5217783847e+00 -1.1702072376e-01 2.4852808107e+00 -4.3046326353e+00 2.4852808107e+00 4.3046326353e+00 
10600 6.5205663599e+00 -1.1878217559e-01 2.4876354578e+00 -4.3087110036e+00 2.4876354578e+00 4.3087110036e+00 
10700 6.5193713903e+00 -1.2046218393e-01 2.4900232907e+00 -4.3128468515e+00 2.4900232907e+00 4.3128468515e+00 
10800 6.5181919172e+00 -1.2206403342e-01 2.4924425787e+00 -4.3170371812e+00 2.4924425787e+00 4.3170371812e+00 
10900 6.5170264542e+00 -1.2359089425e-01 2.4948916622e+00 -4.3212791183e+00 2.4948916622e+00 4.3212791183e+00 
11000 6.5158735887e+00 -1.2504582002e-01 2.4973689506e+00 -4.3255699077e+00 2.4973689506e+00 4.3255699077e+00 
11100 6.5147319823e+00 -1.2643174646e-01 2.4998729197e+00 -4.3299069093e+00 2.4998729197e+00 4.3299069093e+00 
11200 6.5136003714e+00 -1.2775149088e-01 2.5024021090e+00 -4.3342875938e+00 2.5024021090e+00 4.3342875938e+00 
11300 6.5124775670e+00 -1.2900775224e-01 2.5049551197e+00 -4.3387095381e+00 2.5049551197e+00 4.3387095381e+00 
11400 6.5113624548e+00 -1.3020311191e-01 2.5075306116e+00 -4.3431704209e+00 2.5075306116e+00 4.3431704209e+00 
11500 6.5102539946e+00 -1.3134003490e-01 2.5101273009e+00 -4.3476680186e+00 2.5101273009e+00 4.3476680186e+00 
11600 6.5091512190e+00 -1.3242087160e-01 2.5127439576e+00 -4.3522002009e+00 2.5127439576e+00 4.3522002009e+00 
11700 6.5080532332e+00 -1.3344785995e-01 2.5153794030e+00 -4.3567649263e+00 2.5153794030e+00 4.3567649263e+00 
11800 6.5069592127e+00 -1.3442312794e-01 2.5180325075e+00 -4.3613602382e+00 2.5180325075e+00 4.3613602382e+00 
11900 6.5058684026e+00 -1.3534869651e-01 2.5207021881e+00 -4.3659842606e+00 2.5207021881e+00 4.3659842606e+00 
12000 6.5047801155e+00 -1.3622648263e-01 2.5233874061e+00 -4.3706351946e+00 2.5233874061e+00 4.3706351946e+00 
12100 6.5036937297e+00 -1.3705830265e-01 2.5260871649e+00 -4.3753113139e+00 2.5260871649e+00 4.3753113139e+00 
12200 6.5026086870e+00 -1.3784587581e-01 2.5288005077e+00 -4.3800109615e+00 2.5288005077e+00 4.3800109615e+00 
12300 6.5015244910e+00 -1.3859082793e-01 2.5315265157e+00 -4.3847325459e+00 2.5315265157e+00 4.3847325459e+00 
12400 6.5004407044e+00 -1.3929469513e-01 2.5342643061e+00 -4.3894745379e+00 2.5342643061e+00 4.3894745379e+00 
12500 6.4993569469e+00 -1.3995892767e-01 2.5370130297e+00 -4.3942354669e+00 2.5370130297e+00 4.3942354669e+00 
12600 6.4982728928e+00 -1.4058489386e-01 2.5397718697e+00 -4.3990139180e+00 2.5397718697e+00 4.3990139180e+00 
12700 6.4971882685e+00 -1.4117388391e-01 2.5425400396e+00 -4.4038085288e+00 2.5425400396e+00 4.4038085288e+00 
12800 6.4961028501e+00 -1.4172711385e-01 2.5453167814e+00 -4.4086179868e+00 2.5453167814e+00 4.4086179868e+00 
12900 6.4950164605e+00 -1.4224572933e-01 2.5481013646e+00 -4.4134410263e+00 2.5481013646e+00 4.4134410263e+00 
13000 6.4939289675e+00 -1.4273080948e-01 2.5508930838e+00 -4.4182764258e+00 2.5508930838e+00 4.4182764258e+00 
13100 6.4928402809e+00 -1.4318337059e-01 2.5536912581e+00 -4.4231230059e+00 2.5536912581e+00 4.4231230059e+00 
13200 6.4917503500e+00 -1.4360436982e-01 2.5564952294e+00 -4.4279796266e+00 2.5564952294e+00 4.4279796266e+00 
13300 6.4906591615e+00 -1.4399470874e-01 2.5593043611e+00 -4.4328451854e+00 2.5593043611e+00 4.4328451854e+00 
13400 6.4895667364e+00 -1.4435523678e-01 2.5621180370e+00 -4.4377186150e+00 2.5621180370e+00 4.4377186150e+00 
13500 6.4884731283e+00 -1.4468675463e-01 2.5649356601e+00 -4.4425988815e+00 2.5649356601e+00 4.4425988815e+00 
13600 6.4873784207e+00 -1.4499001745e-01 2.5677566518e+00 -4.4474849823e+00 2.5677566518e+00 4.4474849823e+00 
13700 6.4862827247e+00 -1.4526573800e-01 2.5705804505e+00 -4.4523759452e+00 2.5705804505e+00 4.4523759452e+00 
13800 6.4851861771e+00 -1.4551458962e-01 2.5734065110e+00 -4.4572708257e+00 2.5734065110e+00 4.4572708257e+00 
13900 6.4840889378e+00 -1.4573720914e-01 2.5762343038e+00 -4.4621687064e+00 2.5762343038e+00 4.4621687064e+00 
14000 6.4829911881e+00 -1.4593419955e-01 2.5790633137e+00 -4.4670686953e+00 2.5790633137e+00 4.4670686953e+00 
14100 6.4818931284e+00 -1.4610613266e-01 2.5818930397e+00 -4.4719699245e+00 2.5818930397e+00 4.4719699245e+00 
14200 6.4807949766e+00 -1.4625355157e-01 2.5847229941e+00 -4.4768715493e+00 2.5847229941e+00 4.4768715493e+00 
14300 6.4796969660e+00 -1.4637697297e-01 2.5875527016e+00 -4.4817727465e+00 2.5875527016e+00 4.4817727465e+00 
14400 6.4785993436e+00 -1.4647688941e-01 2.5903816993e+00 -4.4866727142e+00 2.5903816993e+00 4.4866727142e+00 
14500 6.4775023683e+00 -1.4655377138e-01 2.5932095356e+00 -4.4915706703e+00 2.5932095356e+00 4.4915706703e+00 
14600 6.4764063096e+00 -1.4660806925e-01 2.5960357700e+00 -4.4964658518e+00 2.5960357700e+00 4.4964658518e+00 
14700 6.4753114458e+00 -1.4664021514e-01 2.5988599725e+00 -4.5013575142e+00 2.5988599725e+00 4.5013575142e+00 
14800 6.4742180625e+00 -1.4665062463e-01 2.6016817236e+00 -4.5062449304e+00 2.6016817236e+00 4.5062449304e+00 
14900 6.4731264514e+00 -1.4663969838e-01 2.6045006132e+00 -4.5111273905e+00 2.6045006132e+00 4.5111273905e+00 
15000 6.4720369091e+00 -1.4660782362e-01 2.6073162410e+00 -4.5160042008e+00 2.6073162410e+00 4.5160042008e+00 
15100 6.4709497356e+00 -1.4655537557e-01 2.6101282157e+00 -4.5208746838e+00 2.6101282157e+00 4.5208746838e+00 
15200 6.4698652332e+00 -1.4648271870e-01 2.6129361547e+00 -4.5257381769e+00 2.6129361547e+00 4.5257381769e+00 
15300 6.4687837057e+00 -1.4639020791e-01 2.6157396844e+00 -4.5305940327e+00 2.6157396844e+00 4.5305940327e+00 
15400 6.4677054571e+00 -1.4627818966e-01 2.6185384392e+00 -4.5354416183e+00 2.6185384392e+00 4.5354416183e+00 
15500 6.4666307908e+00 -1.4614700295e-01 2.6213320619e+00 -4.5402803147e+00 2.6213320619e+00 4.5402803147e+00 
15600 6.4655600085e+00 -1.4599698025e-01 2.6241202031e+00 -4.5451095169e+00 2.6241202031e+00 4.5451095169e+00 
15700 6.4644934100e+00 -1.4582844831e-01 2.6269025213e+00 -4.5499286334e+00 2.6269025213e+00 4.5499286334e+00 
15800 6.4634312916e+00 -1.4564172892e-01 2.6296786826e+00 -4.5547370858e+00 2.6296786826e+00 4.5547370858e+00 
15900 6.4623739463e+00 -1.4543713963e-01 2.6324483606e+00 -4.5595343088e+00 2.6324483606e+00 4.5595343088e+00 
16000 6.4613216623e+00 -1.4521499430e-01 2.6352112362e+00 -4.5643197498e+00 2.6352112362e+00 4.5643197498e+00 
16100 6.4602747232e+00 -1.4497560369e-01 2.6379669977e+00 -4.5690928687e+00 2.6379669977e+00 4.5690928687e+00 
16200 6.4592334068e+00 -1.4471927592e-01 2.6407153404e+00 -4.5738531379e+00 2.6407153404e+00 4.5738531379e+00 
16300 6.4581979852e+00 -1.4444631692e-01 2.6434559667e+00 -4.5786000419e+00 2.6434559667e+00 4.5786000419e+00 
16400 6.4571687240e+00 -1.4415703074e-01 2.6461885860e+00 -4.5833330773e+00 2.6461885860e+00 4.5833330773e+00 
16500 6.4561458819e+00 -1.4385171993e-01 2.6489129144e+00 -4.5880517526e+00 2.6489129144e+00 4.5880517526e+00 
16600 6.4551297108e+00 -1.4353068581e-01 2.6516286751e+00 -4.5927555881e+00 2.6516286751e+00 4.5927555881e+00 
16700 6.4541204547e+00 -1.4319422864e-01 2.6543355978e+00 -4.5974441157e+00 2.6543355978e+00 4.5974441157e+00 
16800 6.4531183503e+00 -1.4284264785e-01 2.6570334190e+00 -4.6021168791e+00 2.6570334190e+00 4.6021168791e+00 
16900 6.4521236260e+00 -1.4247624220e-01 2.6597218818e+00 -4.6067734332e+00 2.6597218818e+00 4.6067734332e+00 
17000 6.4511365023e+00 -1.4209530986e-01 2.6624007357e+00 -4.6114133444e+00 2.6624007357e+00 4.6114133444e+00 
17100 6.4501571911e+00 -1.4170014851e-01 2.6650697371e+00 -4.6160361904e+00 2.6650697371e+00 4.6160361904e+00 
17200 6.4491858960e+00 -1.4129105540e-01 2.6677286484e+00 -4.6206415599e+00 2.6677286484e+00 4.6206415599e+00 
17300 6.4482228120e+00 -1.4086832736e-01 2.6703772388e+00 -4.6252290530e+00 2.6703772388e+00 4.6252290530e+00 
17400 6.4472681252e+00 -1.4043226085e-01 2.6730152836e+00 -4.6297982806e+00 2.6730152836e+00 4.6297982806e+00 
17500 6.4463220129e+00 -1.3998315186e-01 2.6756425645e+00 -4.6343488646e+00 2.6756425645e+00 4.6343488646e+00 
17600 6.4453846439e+00 -1.3952129597e-01 2.6782588694e+00 -4.6388804377e+00 2.6782588694e+00 4.6388804377e+00 
17700 6.4444561776e+00 -1.3904698825e-01 2.6808639927e+00 -4.6433926435e+00 2.6808639927e+00 4.6433926435e+00 
17800 6.4435367650e+00 -1.3856052317e-01 2.6834577346e+00 -4.6478851362e+00 2.6834577346e+00 4.6478851362e+00 
17900 6.4426265478e+00 -1.3806219460e-01 2.6860399016e+00 -4.6523575807e+00 2.6860399016e+00 4.6523575807e+00 
18000 6.4417256591e+00 -1.3755229564e-01 2.6886103062e+00 -4.6568096522e+00 2.6886103062e+00 4.6568096522e+00 
18100 6.4408342229e+00 -1.3703111858e-01 2.6911687671e+00 -4.6612410364e+00 2.6911687671e+00 4.6612410364e+00 
18200 6.4399523547e+00 -1.3649895476e-01 2.6937151088e+00 -4.6656514296e+00 2.6937151088e+00 4.6656514296e+00 
18300 6.4390801609e+00 -1.3595609447e-01 2.6962491617e+00 -4.6700405380e+00 2.6962491617e+00 4.6700405380e+00 
18400 6.4382177395e+00 -1.3540282684e-01 2.6987707622e+00 -4.6744080781e+00 2.6987707622e+00 4.6744080781e+00 
18500 6.4373651798e+00 -1.3483943975e-01 2.7012797523e+00 -4.6787537765e+00 2.7012797523e+00 4.6787537765e+00 
18600 6.4365225625e+00 -1.3426621962e-01 2.7037759800e+00 -4.6830773697e+00 2.7037759800e+00 4.6830773697e+00 
18700 6.4356899600e+00 -1.3368345141e-01 2.7062592987e+00 -4.6873786039e+00 2.7062592987e+00 4.6873786039e+00 
18800 6.4348674365e+00 -1.3309141840e-01 2.7087295677e+00 -4.6916572352e+00 2.7087295677e+00 4.6916572352e+00 
18900 6.4340550477e+00 -1.3249040211e-01 2.7111866516e+00 -4.6959130295e+00 2.7111866516e+00 4.6959130295e+00 
19000 6.4332528414e+00 -1.3188068221e-01 2.7136304208e+00 -4.7001457617e+00 2.7136304208e+00 4.7001457617e+00 
19100 6.4324608575e+00 -1.3126253634e-01 2.7160607507e+00 -4.7043552167e+00 2.7160607507e+00 4.7043552167e+00 
19200 6.4316791280e+00 -1.3063624005e-01 2.7184775226e+00 -4.7085411884e+00 2.7184775226e+00 4.7085411884e+00 
19300 6.4309076773e+00 -1.3000206668e-01 2.7208806226e+00 -4.7127034797e+00 2.7208806226e+00 4.7127034797e+00 
19400 6.4301465222e+00 -1.2936028723e-01 2.7232699423e+00 -4.7168419028e+00 2.7232699423e+00 4.7168419028e+00 
19500 6.4293956722e+00 -1.2871117031e-01 2.7256453784e+00 -4.7209562788e+00 2.7256453784e+00 4.7209562788e+00 
19600 6.4286551296e+00 -1.2805498200e-01 2.7280068326e+00 -4.7250464375e+00 2.7280068326e+00 4.7250464375e+00 
19700 6.4279248894e+00 -1.2739198580e-01 2.7303542118e+00 -4.7291122175e+00 2.7303542118e+00 4.7291122175e+00 
19800 6.4272049400e+00 -1.2672244250e-01 2.7326874276e+00 -4.7331534658e+00 2.7326874276e+00 4.7331534658e+00 
19900 6.4264952629e+00 -1.2604661015e-01 2.7350063966e+00 -4.7371700379e+00 2.7350063966e+00 4.7371700379e+00 
20000 6.4257958330e+00 -1.2536474397e-01 2.7373110401e+00 -4.7411617976e+00 2.7373110401e+00 4.7411617976e+00 
20100 6.4251066190e+00 -1.2467709630e-01 2.7396012842e+00 -4.7451286167e+00 2.7396012842e+00 4.7451286167e+00 
20200 6.4244275832e+00 -1.2398391651e-01 2.7418770595e+00 -4.7490703752e+00 2.7418770595e+00 4.7490703752e+00 
20300 6.4237586820e+00 -1.2328545099e-01 2.7441383014e+00 -4.7529869609e+00 2.7441383014e+00 4.7529869609e+00 
20400 6.4230998657e+00 -1.2258194308e-01 2.7463849494e+00 -4.7568782695e+00 2.7463849494e+00 4.7568782695e+00 
20500 6.4224510792e+00 -1.2187363303e-01 2.7486169477e+00 -4.7607442039e+00 2.7486169477e+00 4.7607442039e+00 
20600 6.4218122618e+00 -1.2116075799e-01 2.7508342447e+00 -4.7645846750e+00 2.7508342447e+00 4.7645846750e+00 
20700 6.4211833474e+00 -1.2044355196e-01 2.7530367931e+00 -4.7683996008e+00 2.7530367931e+00 4.7683996008e+00 
20800 6.4205642651e+00 -1.1972224580e-01 2.7552245497e+00 -4.7721889064e+00 2.7552245497e+00 4.7721889064e+00 
20900 6.4199549387e+00 -1.1899706718e-01 2.7573974755e+00 -4.7759525242e+00 2.7573974755e+00 4.7759525242e+00 
21000 6.4193552875e+00 -1.1826824060e-01 2.7595555353e+00 -4.7796903935e+00 2.7595555353e+00 4.7796903935e+00 
21100 6.4187652263e+00 -1.1753598736e-01 2.7616986981e+00 -4.7834024603e+00 2.7616986981e+00 4.7834024603e+00 
21200 6.4181846654e+00 -1.1680052560e-01 2.7638269366e+00 -4.7870886776e+00 2.7638269366e+00 4.7870886776e+00 
21300 6.4176135111e+00 -1.1606207028e-01 2.7659402274e+00 -4.7907490045e+00 2.7659402274e+00 4.7907490045e+00 
21400 6.4170516659e+00 -1.1532083319e-01 2.7680385506e+00 -4.7943834069e+00 2.7680385506e+00 4.7943834069e+00 
21500 6.4164990282e+00 -1.1457702300e-01 2.7701218902e+00 -4.7979918569e+00 2.7701218902e+00 4.7979918569e+00 
21600 6.4159554932e+00 -1.1383084522e-01 2.7721902336e+00 -4.8015743329e+00 2.7721902336e+00 4.8015743329e+00 
21700 6.4154209527e+00 -1.1308250228e-01 2.7742435719e+00 -4.8051308191e+00 2.7742435719e+00 4.8051308191e+00 
21800 6.4148952953e+00 -1.1233219354e-01 2.7762818994e+00 -4.8086613058e+00 2.7762818994e+00 4.8086613058e+00 
21900 6.4143784067e+00 -1.1158011531e-01 2.7783052138e+00 -4.8121657893e+00 2.7783052138e+00 4.8121657893e+00 
22000 6.4138701699e+00 -1.1082646089e-01 2.7803135163e+00 -4.8156442712e+00 2.7803135163e+00 4.8156442712e+00 
22100 6.4133704654e+00 -1.1007142061e-01 2.7823068112e+00 -4.8190967592e+00 2.7823068112e+00 4.8190967592e+00 
22200 6.4128791715e+00 -1.0931518185e-01 2.7842851058e+00 -4.8225232660e+00 2.7842851058e+00 4.8225232660e+00 
22300 6.4123961641e+00 -1.0855792912e-01 2.7862484108e+00 -4.8259238101e+00 2.7862484108e+00 4.8259238101e+00 
22400 6.4119213174e+00 -1.0779984405e-01 2.7881967398e+00 -4.8292984149e+00 2.7881967398e+00 4.8292984149e+00 
22500 6.4114545039e+00 -1.0704110546e-01 2.7901301094e+00 -4.8326471091e+00 2.7901301094e+00 4.8326471091e+00 
22600 6.4109955945e+00 -1.0628188941e-01 2.7920485389e+00 -4.8359699266e+00 2.7920485389e+00 4.8359699266e+00 
22700 6.4105444589e+00 -1.0552236923e-01 2.7939520509e+00 -4.8392669061e+00 2.7939520509e+00 4.8392669061e+00 
22800 6.4101009655e+00 -1.0476271555e-01 2.7958406704e+00 -4.8425380910e+00 2.7958406704e+00 4.8425380910e+00 
22900 6.4096649819e+00 -1.0400309636e-01 2.7977144254e+00 -4.8457835299e+00 2.7977144254e+00 4.8457835299e+00 
23000 6.4092363751e+00 -1.0324367708e-01 2.7995733465e+00 -4.8490032756e+00 2.7995733465e+00 4.8490032756e+00 
23100 6.4088150113e+00 -1.0248462053e-01 2.8014174668e+00 -4.8521973857e+00 2.8014174668e+00 4.8521973857e+00 
23200 6.4084007564e+00 -1.0172608704e-01 2.8032468223e+00 -4.8553659223e+00 2.8032468223e+00 4.8553659223e+00 
23300 6.4079934762e+00 -1.0096823445e-01 2.8050614511e+00 -4.8585089517e+00 2.8050614511e+00 4.8585089517e+00 
23400 6.4075930365e+00 -1.0021121817e-01 2.8068613943e+00 -4.8616265448e+00 2.8068613943e+00 4.8616265448e+00 
23500 6.4071993033e+00 -9.9455191193e-02 2.8086466950e+00 -4.8647187763e+00 2.8086466950e+00 4.8647187763e+00 
23600 6.4068121428e+00 -9.8700304157e-02 2.8104173990e+00 -4.8677857255e+00 2.8104173990e+00 4.8677857255e+00 
23700 6.4064314219e+00 -9.7946705350e-02 2.8121735540e+00 -4.8708274753e+00 2.8121735540e+00 4.8708274753e+00 
23800 6.4060570081e+00 -9.7194540755e-02 2.8139152106e+00 -4.8738441129e+00 2.8139152106e+00 4.8738441129e+00 
23900 6.4056887697e+00 -9.6443954070e-02 2.8156424210e+00 -4.8768357292e+00 2.8156424210e+00 4.8768357292e+00 
24000 6.4053265761e+00 -9.5695086739e-02 2.8173552402e+00 -4.8798024190e+00 2.8173552402e+00 4.8798024190e+00 
24100 6.4049702976e+00 -9.4948077965e-02 2.8190537249e+00 -4.8827442808e+00 2.8190537249e+00 4.8827442808e+00 
24200 6.4046198062e+00 -9.4203064735e-02 2.8207379341e+00 -4.8856614167e+00 2.8207379341e+00 4.8856614167e+00 
24300 6.4042749749e+00 -9.3460181828e-02 2.8224079289e+00 -4.8885539326e+00 2.8224079289e+00 4.8885539326e+00 
24400 6.4039356786e+00 -9.2719561835e-02 2.8240637724e+00 -4.8914219376e+00 2.8240637724e+00 4.8914219376e+00 
24500 6.4036017936e+00 -9.1981335160e-02 2.8257055296e+00 -4.8942655444e+00 2.8257055296e+00 4.8942655444e+00 
24600 6.4032731981e+00 -9.1245630032e-02 2.8273332675e+00 -4.8970848692e+00 2.8273332675e+00 4.8970848692e+00 
24700 6.4029497724e+00 -9.0512572500e-02 2.8289470550e+00 -4.8998800312e+00 2.8289470550e+00 4.8998800312e+00 
24800 6.4026313985e+00 -8.9782286439e-02 2.8305469630e+00 -4.9026511531e+00 2.8305469630e+00 4.9026511531e+00 
24900 6.4023179607e+00 -8.9054893540e-02 2.8321330639e+00 -4.9053983605e+00 2.8321330639e+00 4.9053983605e+00 
25000 6.4020093456e+00 -8.8330513304e-02 2.8337054323e+00 -4.9081217824e+00 2.8337054323e+00 4.9081217824e+00 
25100 6.4017054418e+00 -8.7609263031e-02 2.8352641442e+00 -4.9108215506e+00 2.8352641442e+00 4.9108215506e+00 
25200 6.4014061407e+00 -8.6891257807e-02 2.8368092774e+00 -4.9134977998e+00 2.8368092774e+00 4.9134977998e+00 
25300 6.4011113357e+00 -8.6176610484e-02 2.8383409114e+00 -4.9161506677e+00 2.8383409114e+00 4.9161506677e+00 
25400 6.4008209232e+00 -8.5465431662e-02 2.8398591273e+00 -4.9187802949e+00 2.8398591273e+00 4.9187802949e+00 
25500 6.4005348017e+00 -8.4757829665e-02 2.8413640079e+00 -4.9213868245e+00 2.8413640079e+00 4.9213868245e+00 
25600 6.4002528726e+00 -8.4053910515e-02 2.8428556373e+00 -4.9239704023e+00 2.8428556373e+00 4.9239704023e+00 
25700 6.3999750400e+00 -8.3353777905e-02 2.8443341012e+00 -4.9265311770e+00 2.8443341012e+00 4.9265311770e+00 
25800 6.3997012106e+00 -8.2657533165e-02 2.8457994869e+00 -4.9290692995e+00 2.8457994869e+00 4.9290692995e+00 
25900 6.3994312938e+00 -8.1965275235e-02 2.8472518830e+00 -4.9315849233e+00 2.8472518830e+00 4.9315849233e+00 
26000 6.3991652019e+00 -8.1277100623e-02 2.8486913794e+00 -4.9340782042e+00 2.8486913794e+00 4.9340782042e+00 
26100 6.3989028499e+00 -8.0593103374e-02 2.8501180675e+00 -4.9365493005e+00 2.8501180675e+00 4.9365493005e+00 
26200 6.3986441556e+00 -7.9913375028e-02 2.8515320399e+00 -4.9389983725e+00 2.8515320399e+00 4.9389983725e+00 
26300 6.3983890395e+00 -7.9238004583e-02 2.8529333904e+00 -4.9414255827e+00 2.8529333904e+00 4.9414255827e+00 
26400 6.3981374250e+00 -7.8567078452e-02 2.8543222141e+00 -4.9438310959e+00 2.8543222141e+00 4.9438310959e+00 
26500 6.3978892382e+00 -7.7900680421e-02 2.8556986072e+00 -4.9462150787e+00 2.8556986072e+00 4.9462150787e+00 
26600 6.3976444080e+00 -7.7238891610e-02 2.8570626671e+00 -4.9485776998e+00 2.8570626671e+00 4.9485776998e+00 
26700 6.3974028660e+00 -7.6581790425e-02 2.8584144921e+00 -4.9509191295e+00 2.8584144921e+00 4.9509191295e+00 
26800 6.3971645465e+00 -7.5929452519e-02 2.8597541819e+00 -4.9532395401e+00 2.8597541819e+00 4.9532395401e+00 
26900 6.3969293865e+00 -7.5281950747e-02 2.8610818366e+00 -4.9555391056e+00 2.8610818366e+00 4.9555391056e+00 
27000 6.3966973255e+00 -7.4639355126e-02 2.8623975578e+00 -4.9578180015e+00 2.8623975578e+00 4.9578180015e+00 
27100 6.3964683057e+00 -7.4001732790e-02 2.8637014475e+00 -4.9600764048e+00 2.8637014475e+00 4.9600764048e+00 
27200 6.3962422718e+00 -7.3369147949e-02 2.8649936090e+00 -4.9623144942e+00 2.8649936090e+00 4.9623144942e+00 
27300 6.3960191710e+00 -7.2741661851e-02 2.8662741461e+00 -4.9645324495e+00 2.8662741461e+00 4.9645324495e+00 
27400 6.3957989529e+00 -7.2119332743e-02 2.8675431634e+00 -4.9667304518e+00 2.8675431634e+00 4.9667304518e+00 
27500 6.3955815693e+00 -7.1502215834e-02 2.8688007661e+00 -4.9689086836e+00 2.8688007661e+00 4.9689086836e+00 
27600 6.3953669746e+00 -7.0890363256e-02 2.8700470602e+00 -4.9710673284e+00 2.8700470602e+00 4.9710673284e+00 
27700 6.3951551250e+00 -7.0283824038e-02 2.8712821522e+00 -4.9732065705e+00 2.8712821522e+00 4.9732065705e+00 
27800 6.3949459792e+00 -6.9682644070e-02 2.8725061492e+00 -4.9753265955e+00 2.8725061492e+00 4.9753265955e+00 
27900 6.3947394978e+00 -6.9086866074e-02 2.8737191587e+00 -4.9774275896e+00 2.8737191587e+00 4.9774275896e+00 
28000 6.3945356433e+00 -6.8496529584e-02 2.8749212888e+00 -4.9795097399e+00 2.8749212888e+00 4.9795097399e+00 
28100 6.3943343803e+00 -6.7911670916e-02 2.8761126476e+00 -4.9815732339e+00 2.8761126476e+00 4.9815732339e+00 
28200 6.3941356751e+00 -6.7332323157e-02 2.8772933440e+00 -4.9836182600e+00 2.8772933440e+00 4.9836182600e+00 
28300 6.3939394958e+00 -6.6758516139e-02 2.8784634868e+00 -4.9856450069e+00 2.8784634868e+00 4.9856450069e+00 
28400 6.3937458120e+00 -6.6190276434e-02 2.8796231853e+00 -4.9876536637e+00 2.8796231853e+00 4.9876536637e+00 
28500 6.3935545951e+00 -6.5627627342e-02 2.8807725489e+00 -4.9896444197e+00 2.8807725489e+00 4.9896444197e+00 
28600 6.3933658178e+00 -6.5070588882e-02 2.8819116869e+00 -4.9916174646e+00 2.8819116869e+00 4.9916174646e+00 
28700 6.3931794541e+00 -6.4519177797e-02 2.8830407089e+00 -4.9935729881e+00 2.8830407089e+00 4.9935729881e+00 
28800 6.3929954797e+00 -6.3973407550e-02 2.8841597245e+00 -4.9955111800e+00 2.8841597245e+00 4.9955111800e+00 
28900 6.3928138711e+00 -6.3433288334e-02 2.8852688431e+00 -4.9974322298e+00 2.8852688431e+00 4.9974322298e+00 
29000 6.3926346062e+00 -6.2898827078e-02 2.8863681742e+00 -4.9993363271e+00 2.8863681742e+00 4.9993363271e+00 
29100 6.3924576638e+00 -6.2370027467e-02 2.8874578270e+00 -5.0012236611e+00 2.8874578270e+00 5.0012236611e+00 
29200 6.3922830238e+00 -6.1846889954e-02 2.8885379106e+00 -5.0030944207e+00 2.8885379106e+00 5.0030944207e+00 
29300 6.3921106669e+00 -6.1329411788e-02 2.8896085337e+00 -5.0049487943e+00 2.8896085337e+00 5.0049487943e+00 
29400 6.3919405746e+00 -6.0817587038e-02 2.8906698048e+00 -5.0067869699e+00 2.8906698048e+00 5.0067869699e+00 
29500 6.3917727292e+00 -6.0311406624e-02 2.8917218322e+00 -5.0086091347e+00 2.8917218322e+00 5.0086091347e+00 
29600 6.3916071137e+00 -5.9810858352e-02 2.8927647235e+00 -5.0104154754e+00 2.8927647235e+00 5.0104154754e+00 
29700 6.3914437116e+00 -5.9315926956e-02 2.8937985860e+00 -5.0122061778e+00 2.8937985860e+00 5.0122061778e+00 
29800 6.3912825068e+00 -5.8826594136e-02 2.8948235265e+00 -5.0139814268e+00 2.8948235265e+00 5.0139814268e+00 
29900 6.3911234839e+00 -5.8342838610e-02 2.8958396512e+00 -5.0157414064e+00 2.8958396512e+00 5.0157414064e+00 
30000 6.3909666277e+00 -5.7864636165e-02 2.8968470657e+00 -5.0174862996e+00 2.8968470657e+00 5.0174862996e+00 
30100 6.3908119235e+00 -5.7391959706e-02 2.8978458751e+00 -5.0192162882e+00 2.8978458751e+00 5.0192162882e+00 
30200 6.3906593567e+00 -5.6924779325e-02 2.8988361836e+00 -5.0209315528e+00 2.8988361836e+00 5.0209315528e+00 
30300 6.3905089129e+00 -5.6463062355e-02 2.8998180948e+00 -5.0226322728e+00 2.8998180948e+00 5.0226322728e+00 
30400 6.3903605780e+00 -5.6006773438e-02 2.9007917114e+00 -5.0243186263e+00 2.9007917114e+00 5.0243186263e+00 
30500 6.3902143378e+00 -5.5555874597e-02 2.9017571354e+00 -5.0259907897e+00 2.9017571354e+00 5.0259907897e+00 
30600 6.3900701784e+00 -5.5110325305e-02 2.9027144679e+00 -5.0276489382e+00 2.9027144679e+00 5.0276489382e+00 
30700 6.3899280858e+00 -5.4670082564e-02 2.9036638091e+00 -5.0292932454e+00 2.9036638091e+00 5.0292932454e+00 
30800 6.3897880459e+00 -5.4235100980e-02 2.9046052582e+00 -5.0309238831e+00 2.9046052582e+00 5.0309238831e+00 
30900 6.3896500446e+00 -5.3805332847e-02 2.9055389135e+00 -5.0325410216e+00 2.9055389135e+00 5.0325410216e+00 
31000 6.3895140678e+00 -5.3380728229e-02 2.9064648724e+00 -5.0341448294e+00 2.9064648724e+00 5.0341448294e+00 
31100 6.3893801011e+00 -5.2961235049e-02 2.9073832310e+00 -5.0357354731e+00 2.9073832310e+00 5.0357354731e+00 
31200 6.3892481301e+00 -5.2546799173e-02 2.9082940844e+00 -5.0373131175e+00 2.9082940844e+00 5.0373131175e+00 
31300 6.3891181402e+00 -5.2137364503e-02 2.9091975267e+00 -5.0388779255e+00 2.9091975267e+00 5.0388779255e+00 
31400 6.3889901165e+00 -5.1732873070e-02 2.9100936508e+00 -5.0404300580e+00 2.9100936508e+00 5.0404300580e+00 
31500 6.3888640439e+00 -5.1333265127e-02 2.9109825484e+00 -5.0419696738e+00 2.9109825484e+00 5.0419696738e+00 
31600 6.3887399073e+00 -5.0938479244e-02 2.9118643101e+00 -5.0434969298e+00 2.9118643101e+00 5.0434969298e+00 
31700 6.3886176910e+00 -5.0548452402e-02 2.9127390251e+00 -5.0450119806e+00 2.9127390251e+00 5.0450119806e+00 
31800 6.3884973794e+00 -5.0163120098e-02 2.9136067815e+00 -5.0465149789e+00 2.9136067815e+00 5.0465149789e+00 
31900 6.3883789563e+00 -4.9782416434e-02 2.9144676662e+00 -5.0480060749e+00 2.9144676662e+00 5.0480060749e+00 
32000 6.3882624056e+00 -4.9406274223e-02 2.9153217647e+00 -5.0494854169e+00 2.9153217647e+00 5.0494854169e+00 
32100 6.3881477105e+00 -4.9034625085e-02 2.9161691611e+00 -5.0509531506e+00 2.9161691611e+00 5.0509531506e+00 
32200 6.3880348543e+00 -4.8667399546e-02 2.9170099385e+00 -5.0524094197e+00 2.9170099385e+00 5.0524094197e+00 
32300 6.3879238199e+00 -4.8304527142e-02 2.9178441784e+00 -5.0538543655e+00 2.9178441784e+00 5.0538543655e+00 
32400 6.3878145899e+00 -4.7945936512e-02 2.9186719609e+00 -5.0552881269e+00 2.9186719609e+00 5.0552881269e+00 
32500 6.3877071467e+00 -4.7591555504e-02 2.9194933651e+00 -5.0567108406e+00 2.9194933651e+00 5.0567108406e+00 
32600 6.3876014723e+00 -4.7241311267e-02 2.9203084683e+00 -5.0581226409e+00 2.9203084683e+00 5.0581226409e+00 
32700 6.3874975487e+00 -4.6895130354e-02 2.9211173467e+00 -5.0595236594e+00 2.9211173467e+00 5.0595236594e+00 
32800 6.3873953574e+00 -4.6552938818e-02 2.9219200751e+00 -5.0609140258e+00 2.9219200751e+00 5.0609140258e+00 
32900 6.3872948799e+00 -4.6214662305e-02 2.9227167269e+00 -5.0622938671e+00 2.9227167269e+00 5.0622938671e+00 
33000 6.3871960973e+00 -4.5880226151e-02 2.9235073739e+00 -5.0636633079e+00 2.9235073739e+00 5.0636633079e+00 
33100 6.3870989906e+00 -4.5549555476e-02 2.9242920868e+00 -5.0650224705e+00 2.9242920868e+00 5.0650224705e+00 
33200 6.3870035406e+00 -4.5222575276e-02 2.9250709347e+00 -5.0663714746e+00 2.9250709347e+00 5.0663714746e+00 
33300 6.3869097279e+00 -4.4899210509e-02 2.9258439855e+00 -5.0677104378e+00 2.9258439855e+00 5.0677104378e+00 
33400 6.3868175329e+00 -4.4579386191e-02 2.9266113055e+00 -5.0690394751e+00 2.9266113055e+00 5.0690394751e+00 
33500 6.3867269360e+00 -4.4263027475e-02 2.9273729597e+00 -5.0703586990e+00 2.9273729597e+00 5.0703586990e+00 
33600 6.3866379172e+00 -4.3950059740e-02 2.9281290119e+00 -5.0716682197e+00 2.9281290119e+00 5.0716682197e+00 
33700 6.3865504566e+00 -4.3640408669e-02 2.9288795242e+00 -5.0729681451e+00 2.9288795242e+00 5.0729681451e+00 
33800 6.3864645341e+00 -4.3334000336e-02 2.9296245575e+00 -5.0742585807e+00 2.9296245575e+00 5.0742585807e+00 
33900 6.3863801297e+00 -4.3030761276e-02 2.9303641715e+00 -5.0755396296e+00 2.9303641715e+00 5.0755396296e+00 
34000 6.3862972230e+00 -4.2730618565e-02 2.9310984242e+00 -5.0768113927e+00 2.9310984242e+00 5.0768113927e+00 
34100 6.3862157938e+00 -4.2433499890e-02 2.9318273726e+00 -5.0780739683e+00 2.9318273726e+00 5.0780739683e+00 
34200 6.3861358217e+00 -4.2139333620e-02 2.9325510722e+00 -5.0793274528e+00 2.9325510722e+00 5.0793274528e+00 
34300 6.3860572865e+00 -4.1848048874e-02 2.9332695772e+00 -5.0805719400e+00 2.9332695772e+00 5.0805719400e+00 
34400 6.3859801678e+00 -4.1559575583e-02 2.9339829406e+00 -5.0818075217e+00 2.9339829406e+00 5.0818075217e+00 
34500 6.3859044452e+00 -4.1273844555e-02 2.9346912141e+00 -5.0830342874e+00 2.9346912141e+00 5.0830342874e+00 
34600 6.3858300984e+00 -4.0990787530e-02 2.9353944481e+00 -5.0842523244e+00 2.9353944481e+00 5.0842523244e+00 
34700 6.3857571072e+00 -4.0710337239e-02 2.9360926918e+00 -5.0854617179e+00 2.9360926918e+00 5.0854617179e+00 
34800 6.3856854512e+00 -4.0432427456e-02 2.9367859931e+00 -5.0866625510e+00 2.9367859931e+00 5.0866625510e+00 
34900 6.3856151104e+00 -4.0156993045e-02 2.9374743988e+00 -5.0878549047e+00 2.9374743988e+00 5.0878549047e+00 
35000 6.3855460646e+00 -3.9883970014e-02 2.9381579546e+00 -5.0890388580e+00 2.9381579546e+00 5.0890388580e+00 
35100 6.3854782938e+00 -3.9613295550e-02 2.9388367048e+00 -5.0902144878e+00 2.9388367048e+00 5.0902144878e+00 
35200 6.3854117780e+00 -3.9344908068e-02 2.9395106927e+00 -5.0913818692e+00 2.9395106927e+00 5.0913818692e+00 
35300 6.3853464976e+00 -3.9078747244e-02 2.9401799606e+00 -5.0925410751e+00 2.9401799606e+00 5.0925410751e+00 
35400 6.3852824328e+00 -3.8814754051e-02 2.9408445495e+00 -5.0936921768e+00 2.9408445495e+00 5.0936921768e+00 
35500 6.3852195640e+00 -3.8552870793e-02 2.9415044994e+00 -5.0948352437e+00 2.9415044994e+00 5.0948352437e+00 
35600 6.3851578720e+00 -3.8293041132e-02 2.9421598495e+00 -5.0959703433e+00 2.9421598495e+00 5.0959703433e+00 
35700 6.3850973372e+00 -3.8035210115e-02 2.9428106376e+00 -5.0970975413e+00 2.9428106376e+00 5.0970975413e+00 
35800 6.3850379408e+00 -3.7779324196e-02 2.9434569007e+00 -5.0982169020e+00 2.9434569007e+00 5.0982169020e+00 
35900 6.3849796638e+00 -3.7525331260e-02 2.9440986750e+00 -5.0993284876e+00 2.9440986750e+00 5.0993284876e+00 
36000 6.3849224874e+00 -3.7273180634e-02 2.9447359954e+00 -5.1004323589e+00 2.9447359954e+00 5.1004323589e+00 
36100 6.3848663929e+00 -3.7022823110e-02 2.9453688962e+00 -5.1015285753e+00 2.9453688962e+00 5.1015285753e+00 
36200 6.3848113621e+00 -3.6774210951e-02 2.9459974107e+00 -5.1026171943e+00 2.9459974107e+00 5.1026171943e+00 
36300 6.3847573767e+00 -3.6527297902e-02 2.9466215713e+00 -5.1036982721e+00 2.9466215713e+00 5.1036982721e+00 
36400 6.3847044188e+00 -3.6282039199e-02 2.9472414096e+00 -5.1047718635e+00 2.9472414096e+00 5.1047718635e+00 
36500 6.3846524704e+00 -3.6038391569e-02 2.9478569564e+00 -5.1058380219e+00 2.9478569564e+00 5.1058380219e+00 
36600 6.3846015140e+00 -3.5796313236e-02 2.9484682418e+00 -5.1068967992e+00 2.9484682418e+00 5.1068967992e+00 
36700 6.3845515323e+00 -3.5555763918e-02 2.9490752950e+00 -5.1079482462e+00 2.9490752950e+00 5.1079482462e+00 
36800 6.3845025079e+00 -3.5316704827e-02 2.9496781445e+00 -5.1089924123e+00 2.9496781445e+00 5.1089924123e+00 
36900 6.3844544240e+00 -3.5079098659e-02 2.9502768183e+00 -5.1100293457e+00 2.9502768183e+00 5.1100293457e+00 
37000 6.3844072638e+00 -3.4842909590e-02 2.9508713435e+00 -5.1110590935e+00 2.9508713435e+00 5.1110590935e+00 
37100 6.3843610108e+00 -3.4608103266e-02 2.9514617466e+00 -5.1120817016e+00 2.9514617466e+00 5.1120817016e+00 
37200 6.3843156487e+00 -3.4374646791e-02 2.9520480535e+00 -5.1130972150e+00 2.9520480535e+00 5.1130972150e+00 
37300 6.3842711613e+00 -3.4142508715e-02 2.9526302895e+00 -5.1141056774e+00 2.9526302895e+00 5.1141056774e+00 
37400 6.3842275329e+00 -3.3911659015e-02 2.9532084795e+00 -5.1151071318e+00 2.9532084795e+00 5.1151071318e+00 
37500 6.3841847476e+00 -3.3682069085e-02 2.9537826475e+00 -5.1161016200e+00 2.9537826475e+00 5.1161016200e+00 
37600 6.3841427903e+00 -3.3453711707e-02 2.9543528173e+00 -5.1170891830e+00 2.9543528173e+00 5.1170891830e+00 
37700 6.3841016456e+00 -3.3226561041e-02 2.9549190120e+00 -5.1180698611e+00 2.9549190120e+00 5.1180698611e+00 
37800 6.3840612985e+00 -3.3000592597e-02 2.9554812544e+00 -5.1190436935e+00 2.9554812544e+00 5.1190436935e+00 
37900 6.3840217343e+00 -3.2775783212e-02 2.9560395667e+00 -5.1200107188e+00 2.9560395667e+00 5.1200107188e+00 
38000 6.3839829386e+00 -3.2552111028e-02 2.9565939708e+00 -5.1209709748e+00 2.9565939708e+00 5.1209709748e+00 
38100 6.3839448969e+00 -3.2329555465e-02 2.9571444881e+00 -5.1219244987e+00 2.9571444881e+00 5.1219244987e+00 
38200 6.3839075952e+00 -3.2108097192e-02 2.9576911396e+00 -5.1228713269e+00 2.9576911396e+00 5.1228713269e+00 
38300 6.3838710197e+00 -3.1887718103e-02 2.9582339461e+00 -5.1238114953e+00 2.9582339461e+00 5.1238114953e+00 
38400 6.3838351566e+00 -3.1668401283e-02 2.9587729279e+00 -5.1247450392e+00 2.9587729279e+00 5.1247450392e+00 
38500 6.3837999925e+00 -3.1450130981e-02 2.9593081051e+00 -5.1256719933e+00 2.9593081051e+00 5.1256719933e+00 
38600 6.3837655143e+00 -3.1232892580e-02 2.9598394974e+00 -5.1265923918e+00 2.9598394974e+00 5.1265923918e+00 
38700 6.3837317089e+00 -3.1016672562e-02 2.9603671244e+00 -5.1275062684e+00 2.9603671244e+00 5.1275062684e+00 
38800 6.3836985635e+00 -3.0801458480e-02 2.9608910051e+00 -5.1284136565e+00 2.9608910051e+00 5.1284136565e+00 
38900 6.3836660655e+00 -3.0587238920e-02 2.9614111587e+00 -5.1293145889e+00 2.9614111587e+00 5.1293145889e+00 
39000 6.3836342026e+00 -3.0374003473e-02 2.9619276038e+00 -5.1302090981e+00 2.9619276038e+00 5.1302090981e+00 
39100 6.3836029626e+00 -3.0161742697e-02 2.9624403591e+00 -5.1310972163e+00 2.9624403591e+00 5.1310972163e+00 
39200 6.3835723336e+00 -2.9950448086e-02 2.9629494428e+00 -5.1319789753e+00 2.9629494428e+00 5.1319789753e+00 
39300 6.3835423037e+00 -2.9740112034e-02 2.9634548733e+00 -5.1328544065e+00 2.9634548733e+00 5.1328544065e+00 
39400 6.3835128614e+00 -2.9530727799e-02 2.9639566686e+00 -5.1337235414e+00 2.9639566686e+00 5.1337235414e+00 
39500 6.3834839954e+00 -2.9322289473e-02 2.9644548465e+00 -5.1345864109e+00 2.9644548465e+00 5.1345864109e+00 
39600 6.3834556944e+00 -2.9114791941e-02 2.9649494249e+00 -5.1354430457e+00 2.9649494249e+00 5.1354430457e+00 
39700 6.3834279476e+00 -2.8908230853e-02 2.9654404213e+00 -5.1362934766e+00 2.9654404213e+00 5.1362934766e+00 
39800 6.3834007440e+00 -2.8702602581e-02 2.9659278535e+00 -5.1371377339e+00 2.9659278535e+00 5.1371377339e+00 
39900 6.3833740732e+00 -2.8497904192e-02 2.9664117389e+00 -5.1379758480e+00 2.9664117389e+00 5.1379758480e+00 
40000 6.3833479247e+00 -2.8294133411e-02 2.9668920949e+00 -5.1388078490e+00 2.9668920949e+00 5.1388078490e+00 
40100 6.3833222882e+00 -2.8091288584e-02 2.9673689389e+00 -5.1396337669e+00 2.9673689389e+00 5.1396337669e+00 
40200 6.3832971538e+00 -2.7889368647e-02 2.9678422881e+00 -5.1404536318e+00 2.9678422881e+00 5.1404536318e+00 
40300 6.3832725116e+00 -2.7688373094e-02 2.9683121598e+00 -5.1412674736e+00 2.9683121598e+00 5.1412674736e+00 
40400 6.3832483519e+00 -2.7488301937e-02 2.9687785713e+00 -5.1420753220e+00 2.9687785713e+00 5.1420753220e+00 
40500 6.3832246652e+00 -2.7289155682e-02 2.9692415398e+00 -5.1428772068e+00 2.9692415398e+00 5.1428772068e+00 
40600 6.3832014421e+00 -2.7090935290e-02 2.9697010824e+00 -5.1436731580e+00 2.9697010824e+00 5.1436731580e+00 
40700 6.3831786736e+00 -2.6893642148e-02 2.9701572163e+00 -5.1444632051e+00 2.9701572163e+00 5.1444632051e+00 
40800 6.3831563505e+00 -2.6697278037e-02 2.9706099588e+00 -5.1452473780e+00 2.9706099588e+00 5.1452473780e+00 
40900 6.3831344641e+00 -2.6501845101e-02 2.9710593269e+00 -5.1460257065e+00 2.9710593269e+00 5.1460257065e+00 
41000 6.3831130057e+00 -2.6307345820e-02 2.9715053380e+00 -5.1467982204e+00 2.9715053380e+00 5.1467982204e+00 
41100 6.3830919668e+00 -2.6113782975e-02 2.9719480092e+00 -5.1475649495e+00 2.9719480092e+00 5.1475649495e+00 
41200 6.3830713391e+00 -2.5921159624e-02 2.9723873579e+00 -5.1483259236e+00 2.9723873579e+00 5.1483259236e+00 
41300 6.3830511143e+00 -2.5729479071e-02 2.9728234012e+00 -5.1490811728e+00 2.9728234012e+00 5.1490811728e+00 
41400 6.3830312846e+00 -2.5538744842e-02 2.9732561565e+00 -5.1498307270e+00 2.9732561565e+00 5.1498307270e+00 
41500 6.3830118419e+00 -2.5348960655e-02 2.9736856412e+00 -5.1505746163e+00 2.9736856412e+00 5.1505746163e+00 
41600 6.3829927785e+00 -2.5160130395e-02 2.9741118727e+00 -5.1513128708e+00 2.9741118727e+00 5.1513128708e+00 
41700 6.3829740869e+00 -2.4972258090e-02 2.9745348683e+00 -5.1520455208e+00 2.9745348683e+00 5.1520455208e+00 
41800 6.3829557597e+00 -2.4785347889e-02 2.9749546456e+00 -5.1527725964e+00 2.9749546456e+00 5.1527725964e+00 
41900 6.3829377896e+00 -2.4599404033e-02 2.9753712221e+00 -5.1534941281e+00 2.9753712221e+00 5.1534941281e+00 
42000 6.3829201694e+00 -2.4414430835e-02 2.9757846155e+00 -5.1542101464e+00 2.9757846155e+00 5.1542101464e+00 
42100 6.3829028921e+00 -2.4230432662e-02 2.9761948433e+00 -5.1549206818e+00 2.9761948433e+00 5.1549206818e+00 
42200 6.3828859509e+00 -2.4047413907e-02 2.9766019233e+00 -5.1556257650e+00 2.9766019233e+00 5.1556257650e+00 
42300 6.3828693390e+00 -2.3865378978e-02 2.9770058731e+00 -5.1563254266e+00 2.9770058731e+00 5.1563254266e+00 
42400 6.3828530499e+00 -2.3684332267e-02 2.9774067106e+00 -5.1570196976e+00 2.9774067106e+00 5.1570196976e+00 
42500 6.3828370771e+00 -2.3504278145e-02 2.9778044537e+00 -5.1577086089e+00 2.9778044537e+00 5.1577086089e+00 
42600 6.3828214142e+00 -2.3325220932e-02 2.9781991203e+00 -5.1583921914e+00 2.9781991203e+00 5.1583921914e+00 
42700 6.3828060551e+00 -2.3147164891e-02 2.9785907283e+00 -5.1590704764e+00 2.9785907283e+00 5.1590704764e+00 
42800 6.3827909937e+00 -2.2970114204e-02 2.9789792958e+00 -5.1597434950e+00 2.9789792958e+00 5.1597434950e+00 
42900 6.3827762240e+00 -2.2794072963e-02 2.9793648407e+00 -5.1604112784e+00 2.9793648407e+00 5.1604112784e+00 
43000 6.3827617402e+00 -2.2619045152e-02 2.9797473813e+00 -5.1610738582e+00 2.9797473813e+00 5.1610738582e+00 
43100 6.3827475365e+00 -2.2445034634e-02 2.9801269357e+00 -5.1617312657e+00 2.9801269357e+00 5.1617312657e+00 
43200 6.3827336075e+00 -2.2272045142e-02 2.9805035222e+00 -5.1623835325e+00 2.9805035222e+00 5.1623835325e+00 
43300 6.3827199476e+00 -2.2100080263e-02 2.9808771589e+00 -5.1630306903e+00 2.9808771589e+00 5.1630306903e+00 
43400 6.3827065513e+00 -2.1929143431e-02 2.9812478642e+00 -5.1636727707e+00 2.9812478642e+00 5.1636727707e+00 
43500 6.3826934136e+00 -2.1759237913e-02 2.9816156564e+00 -5.1643098055e+00 2.9816156564e+00 5.1643098055e+00 
43600 6.3826805292e+00 -2.1590366802e-02 2.9819805539e+00 -5.1649418265e+00 2.9819805539e+00 5.1649418265e+00 
43700 6.3826678930e+00 -2.1422533010e-02 2.9823425751e+00 -5.1655688656e+00 2.9823425751e+00 5.1655688656e+00 
43800 6.3826555003e+00 -2.1255739257e-02 2.9827017384e+00 -5.1661909548e+00 2.9827017384e+00 5.1661909548e+00 
43900 6.3826433460e+00 -2.1089988065e-02 2.9830580624e+00 -5.1668081260e+00 2.9830580624e+00 5.1668081260e+00 
44000 6.3826314255e+00 -2.0925281751e-02 2.9834115655e+00 -5.1674204113e+00 2.9834115655e+00 5.1674204113e+00 
44100 6.3826197341e+00 -2.0761622424e-02 2.9837622662e+00 -5.1680278427e+00 2.9837622662e+00 5.1680278427e+00 
44200 6.3826082673e+00 -2.0599011977e-02 2.9841101831e+00 -5.1686304525e+00 2.9841101831e+00 5.1686304525e+00 
44300 6.3825970207e+00 -2.0437452085e-02 2.9844553347e+00 -5.1692282726e+00 2.9844553347e+00 5.1692282726e+00 
44400 6.3825859899e+00 -2.0276944199e-02 2.9847977396e+00 -5.1698213353e+00 2.9847977396e+00 5.1698213353e+00 
44500 6.3825751706e+00 -2.0117489543e-02 2.9851374164e+00 -5.1704096727e+00 2.9851374164e+00 5.1704096727e+00 
44600 6.3825645588e+00 -1.9959089115e-02 2.9854743836e+00 -5.1709933170e+00 2.9854743836e+00 5.1709933170e+00 
44700 6.3825541502e+00 -1.9801743679e-02 2.9858086598e+00 -5.1715723004e+00 2.9858086598e+00 5.1715723004e+00 
44800 6.3825439409e+00 -1.9645453771e-02 2.9861402636e+00 -5.1721466550e+00 2.9861402636e+00 5.1721466550e+00 
44900 6.3825339270e+00 -1.9490219692e-02 2.9864692135e+00 -5.1727164131e+00 2.9864692135e+00 5.1727164131e+00 
45000 6.3825241047e+00 -1.9336041508e-02 2.9867955282e+00 -5.1732816067e+00 2.9867955282e+00 5.1732816067e+00 
45100 6.3825144702e+00 -1.9182919057e-02 2.9871192261e+00 -5.1738422680e+00 2.9871192261e+00 5.1738422680e+00 
45200 6.3825050198e+00 -1.9030851940e-02 2.9874403259e+00 -5.1743984290e+00 2.9874403259e+00 5.1743984290e+00 
45300 6.3824957500e+00 -1.8879839528e-02 2.9877588459e+00 -5.1749501218e+00 2.9877588459e+00 5.1749501218e+00 
45400 6.3824866572e+00 -1.8729880964e-02 2.9880748046e+00 -5.1754973784e+00 2.9880748046e+00 5.1754973784e+00 
45500 6.3824777379e+00 -1.8580975162e-02 2.9883882206e+00 -5.1760402309e+00 2.9883882206e+00 5.1760402309e+00 
45600 6.3824689889e+00 -1.8433120808e-02 2.9886991122e+00 -5.1765787109e+00 2.9886991122e+00 5.1765787109e+00 
45700 6.3824604068e+00 -1.8286316368e-02 2.9890074979e+00 -5.1771128505e+00 2.9890074979e+00 5.1771128505e+00 
45800 6.3824519883e+00 -1.8140560087e-02 2.9893133959e+00 -5.1776426814e+00 2.9893133959e+00 5.1776426814e+00 
45900 6.3824437304e+00 -1.7995849995e-02 2.9896168245e+00 -5.1781682353e+00 2.9896168245e+00 5.1781682353e+00 
46000 6.3824356298e+00 -1.7852183904e-02 2.9899178021e+00 -5.1786895437e+00 2.9899178021e+00 5.1786895437e+00 
46100 6.3824276837e+00 -1.7709559423e-02 2.9902163468e+00 -5.1792066383e+00 2.9902163468e+00 5.1792066383e+00 
46200 6.3824198889e+00 -1.7567973952e-02 2.9905124767e+00 -5.1797195504e+00 2.9905124767e+00 5.1797195504e+00 
46300 6.3824122426e+00 -1.7427424692e-02 2.9908062100e+00 -5.1802283113e+00 2.9908062100e+00 5.1802283113e+00 
46400 6.3824047419e+00 -1.7287908647e-02 2.9910975647e+00 -5.1807329524e+00 2.9910975647e+00 5.1807329524e+00 
46500 6.3823973840e+00 -1.7149422631e-02 2.9913865587e+00 -5.1812335048e+00 2.9913865587e+00 5.1812335048e+00 
46600 6.3823901663e+00 -1.7011963271e-02 2.9916732100e+00 -5.1817299994e+00 2.9916732100e+00 5.1817299994e+00 
46700 6.3823830859e+00 -1.6875527013e-02 2.9919575364e+00 -5.1822224672e+00 2.9919575364e+00 5.1822224672e+00 
46800 6.3823761403e+00 -1.6740110130e-02 2.9922395557e+00 -5.1827109388e+00 2.9922395557e+00 5.1827109388e+00 
46900 6.3823693270e+00 -1.6605708720e-02 2.9925192854e+00 -5.1831954450e+00 2.9925192854e+00 5.1831954450e+00 
47000 6.3823626433e+00 -1.6472318722e-02 2.9927967434e+00 -5.1836760163e+00 2.9927967434e+00 5.1836760163e+00 
47100 6.3823560869e+00 -1.6339935912e-02 2.9930719470e+00 -5.1841526830e+00 2.9930719470e+00 5.1841526830e+00 
47200 6.3823496552e+00 -1.6208555915e-02 2.9933449138e+00 -5.1846254753e+00 2.9933449138e+00 5.1846254753e+00 
47300 6.3823433460e+00 -1.6078174209e-02 2.9936156611e+00 -5.1850944234e+00 2.9936156611e+00 5.1850944234e+00 
47400 6.3823371569e+00 -1.5948786131e-02 2.9938842062e+00 -5.1855595571e+00 2.9938842062e+00 5.1855595571e+00 
47500 6.3823310856e+00 -1.5820386882e-02 2.9941505662e+00 -5.1860209062e+00 2.9941505662e+00 5.1860209062e+00 
47600 6.3823251300e+00 -1.5692971533e-02 2.9944147583e+00 -5.1864785004e+00 2.9944147583e+00 5.1864785004e+00 
47700 6.3823192877e+00 -1.5566535034e-02 2.9946767995e+00 -5.1869323690e+00 2.9946767995e+00 5.1869323690e+00 
47800 6.3823135567e+00 -1.5441072216e-02 2.9949367067e+00 -5.1873825415e+00 2.9949367067e+00 5.1873825415e+00 
47900 6.3823079348e+00 -1.5316577801e-02 2.9951944967e+00 -5.1878290468e+00 2.9951944967e+00 5.1878290468e+00 
48000 6.3823024200e+00 -1.5193046403e-02 2.9954501862e+00 -5.1882719140e+00 2.9954501862e+00 5.1882719140e+00 
48100 6.3822970103e+00 -1.5070472539e-02 2.9957037918e+00 -5.1887111719e+00 2.9957037918e+00 5.1887111719e+00 
48200 6.3822917037e+00 -1.4948850631e-02 2.9959553301e+00 -5.1891468489e+00 2.9959553301e+00 5.1891468489e+00 
48300 6.3822864982e+00 -1.4828175016e-02 2.9962048174e+00 -5.1895789737e+00 2.9962048174e+00 5.1895789737e+00 
48400 6.3822813920e+00 -1.4708439947e-02 2.9964522701e+00 -5.1900075743e+00 2.9964522701e+00 5.1900075743e+00 
48500 6.3822763832e+00 -1.4589639603e-02 2.9966977044e+00 -5.1904326789e+00 2.9966977044e+00 5.1904326789e+00 
48600 6.3822714699e+00 -1.4471768091e-02 2.9969411363e+00 -5.1908543154e+00 2.9969411363e+00 5.1908543154e+00 
48700 6.3822666503e+00 -1.4354819456e-02 2.9971825819e+00 -5.1912725113e+00 2.9971825819e+00 5.1912725113e+00 
48800 6.3822619227e+00 -1.4238787681e-02 2.9974220569e+00 -5.1916872943e+00 2.9974220569e+00 5.1916872943e+00 
48900 6.3822572854e+00 -1.4123666697e-02 2.9976595773e+00 -5.1920986917e+00 2.9976595773e+00 5.1920986917e+00 
49000 6.3822527366e+00 -1.4009450387e-02 2.9978951586e+00 -5.1925067305e+00 2.9978951586e+00 5.1925067305e+00 
49100 6.3822482747e+00 -1.3896132590e-02 2.9981288164e+00 -5.1929114377e+00 2.9981288164e+00 5.1929114377e+00 
49200 6.3822438980e+00 -1.3783707106e-02 2.9983605662e+00 -5.1933128400e+00 2.9983605662e+00 5.1933128400e+00 
49300 6.3822396050e+00 -1.3672167705e-02 2.9985904232e+00 -5.1937109640e+00 2.9985904232e+00 5.1937109640e+00 
49400 6.3822353941e+00 -1.3561508125e-02 2.9988184026e+00 -5.1941058360e+00 2.9988184026e+00 5.1941058360e+00 
49500 6.3822312638e+00 -1.3451722082e-02 2.9990445197e+00 -5.1944974822e+00 2.9990445197e+00 5.1944974822e+00 
49600 6.3822272124e+00 -1.3342803274e-02 2.9992687893e+00 -5.1948859286e+00 2.9992687893e+00 5.1948859286e+00 
49700 6.3822232386e+00 -1.3234745381e-02 2.9994912263e+00 -5.1952712008e+00 2.9994912263e+00 5.1952712008e+00 
49800 6.3822193409e+00 -1.3127542077e-02 2.9997118455e+00 -5.1956533244e+00 2.9997118455e+00 5.1956533244e+00 
49900 6.3822155179e+00 -1.3021187027e-02 2.9999306615e+00 -5.1960323250e+00 2.9999306615e+00 5.1960323250e+00 
50000 6.3822117680e+00 -1.2915673894e-02 3.0001476889e+00 -5.1964082275e+00 3.0001476889e+00 5.1964082275e+00 
50100 6.3822080901e+00 -1.2810996343e-02 3.0003629422e+00 -5.1967810570e+00 3.0003629422e+00 5.1967810570e+00 
50200 6.3822044827e+00 -1.2707148045e-02 3.0005764355e+00 -5.1971508382e+00 3.0005764355e+00 5.1971508382e+00 
50300 6.3822009445e+00 -1.2604122680e-02 3.0007881831e+00 -5.1975175958e+00 3.0007881831e+00 5.1975175958e+00 
50400 6.3821974742e+00 -1.2501913938e-02 3.0009981991e+00 -5.1978813542e+00 3.0009981991e+00 5.1978813542e+00 
50500 6.3821940705e+00 -1.2400515528e-02 3.0012064974e+00 -5.1982421375e+00 3.0012064974e+00 5.1982421375e+00 
50600 6.3821907322e+00 -1.2299921175e-02 3.0014130919e+00 -5.1985999697e+00 3.0014130919e+00 5.1985999697e+00 
50700 6.3821874580e+00 -1.2200124629e-02 3.0016179964e+00 -5.1989548747e+00 3.0016179964e+00 5.1989548747e+00 
50800 6.3821842467e+00 -1.2101119661e-02 3.0018212245e+00 -5.1993068761e+00 3.0018212245e+00 5.1993068761e+00 
50900 6.3821810972e+00 -1.2002900071e-02 3.0020227898e+00 -5.1996559973e+00 3.0020227898e+00 5.1996559973e+00 
51000 6.3821780082e+00 -1.1905459690e-02 3.0022227055e+00 -5.2000022616e+00 3.0022227055e+00 5.2000022616e+00 
51100 6.3821749787e+00 -1.1808792379e-02 3.0024209851e+00 -5.2003456919e+00 3.0024209851e+00 5.2003456919e+00 
51200 6.3821720075e+00 -1.1712892035e-02 3.0026176418e+00 -5.2006863113e+00 3.0026176418e+00 5.2006863113e+00 
51300 6.3821690935e+00 -1.1617752592e-02 3.0028126886e+00 -5.2010241422e+00 3.0028126886e+00 5.2010241422e+00 
51400 6.3821662356e+00 -1.1523368021e-02 3.0030061385e+00 -5.2013592073e+00 3.0030061385e+00 5.2013592073e+00 
51500 6.3821634328e+00 -1.1429732335e-02 3.0031980044e+00 -5.2016915288e+00 3.0031980044e+00 5.2016915288e+00 
51600 6.3821606841e+00 -1.1336839589e-02 3.0033882991e+00 -5.2020211289e+00 3.0033882991e+00 5.2020211289e+00 
51700 6.3821579883e+00 -1.1244683880e-02 3.0035770352e+00 -5.2023480295e+00 3.0035770352e+00 5.2023480295e+00 
51800 6.3821553445e+00 -1.1153259354e-02 3.0037642254e+00 -5.2026722523e+00 3.0037642254e+00 5.2026722523e+00 
51900 6.3821527518e+00 -1.1062560201e-02 3.0039498820e+00 -5.2029938190e+00 3.0039498820e+00 5.2029938190e+00 
52000 6.3821502091e+00 -1.0972580658e-02 3.0041340175e+00 -5.2033127510e+00 3.0041340175e+00 5.2033127510e+00 
52100 6.3821477155e+00 -1.0883315012e-02 3.0043166440e+00 -5.2036290694e+00 3.0043166440e+00 5.2036290694e+00 
52200 6.3821452700e+00 -1.0794757602e-02 3.0044977738e+00 -5.2039427954e+00 3.0044977738e+00 5.2039427954e+00 
52300 6.3821428718e+00 -1.0706902815e-02 3.0046774189e+00 -5.2042539498e+00 3.0046774189e+00 5.2042539498e+00 
52400 6.3821405200e+00 -1.0619745090e-02 3.0048555912e+00 -5.2045625534e+00 3.0048555912e+00 5.2045625534e+00 
52500 6.3821382137e+00 -1.0533278920e-02 3.0050323027e+00 -5.2048686266e+00 3.0050323027e+00 5.2048686266e+00 
52600 6.3821359519e+00 -1.0447498847e-02 3.0052075650e+00 -5.2051721900e+00 3.0052075650e+00 5.2051721900e+00 
52700 6.3821337339e+00 -1.0362399470e-02 3.0053813900e+00 -5.2054732636e+00 3.0053813900e+00 5.2054732636e+00 
52800 6.3821315589e+00 -1.0277975440e-02 3.0055537890e+00 -5.2057718675e+00 3.0055537890e+00 5.2057718675e+00 
52900 6.3821294259e+00 -1.0194221461e-02 3.0057247737e+00 -5.2060680216e+00 3.0057247737e+00 5.2060680216e+00 
53000 6.3821273343e+00 -1.0111132293e-02 3.0058943554e+00 -5.2063617457e+00 3.0058943554e+00 5.2063617457e+00 
53100 6.3821252831e+00 -1.0028702747e-02 3.0060625454e+00 -5.2066530593e+00 3.0060625454e+00 5.2066530593e+00 
53200 6.3821232717e+00 -9.9469276920e-03 3.0062293549e+00 -5.2069419818e+00 3.0062293549e+00 5.2069419818e+00 
53300 6.3821212993e+00 -9.8658020474e-03 3.0063947950e+00 -5.2072285325e+00 3.0063947950e+00 5.2072285325e+00 
53400 6.3821193652e+00 -9.7853207881e-03 3.0065588768e+00 -5.2075127305e+00 3.0065588768e+00 5.2075127305e+00 
53500 6.3821174685e+00 -9.7054789424e-03 3.0067216111e+00 -5.2077945947e+00 3.0067216111e+00 5.2077945947e+00 
53600 6.3821156086e+00 -9.6262715918e-03 3.0068830089e+00 -5.2080741439e+00 3.0068830089e+00 5.2080741439e+00 
53700 6.3821137848e+00 -9.5476938709e-03 3.0070430810e+00 -5.2083513968e+00 3.0070430810e+00 5.2083513968e+00 
53800 6.3821119964e+00 -9.4697409666e-03 3.0072018379e+00 -5.2086263718e+00 3.0072018379e+00 5.2086263718e+00 
53900 6.3821102427e+00 -9.3924081181e-03 3.0073592903e+00 -5.2088990874e+00 3.0073592903e+00 5.2088990874e+00 
54000 6.3821085230e+00 -9.3156906162e-03 3.0075154487e+00 -5.2091695617e+00 3.0075154487e+00 5.2091695617e+00 
54100 6.3821068368e+00 -9.2395838025e-03 3.0076703236e+00 -5.2094378128e+00 3.0076703236e+00 5.2094378128e+00 
54200 6.3821051833e+00 -9.1640830692e-03 3.0078239252e+00 -5.2097038587e+00 3.0078239252e+00 5.2097038587e+00 
54300 6.3821035619e+00 -9.0891838579e-03 3.0079762639e+00 -5.2099677171e+00 3.0079762639e+00 5.2099677171e+00 
54400 6.3821019720e+00 -9.0148816596e-03 3.0081273499e+00 -5.2102294057e+00 3.0081273499e+00 5.2102294057e+00 
54500 6.3821004130e+00 -8.9411720133e-03 3.0082771932e+00 -5.2104889419e+00 3.0082771932e+00 5.2104889419e+00 
54600 6.3820988843e+00 -8.8680505057e-03 3.0084258040e+00 -5.2107463433e+00 3.0084258040e+00 5.2107463433e+00 
54700 6.3820973853e+00 -8.7955127700e-03 3.0085731921e+00 -5.2110016269e+00 3.0085731921e+00 5.2110016269e+00 
54800 6.3820959155e+00 -8.7235544856e-03 3.0087193674e+00 -5.2112548100e+00 3.0087193674e+00 5.2112548100e+00 
54900 6.3820944742e+00 -8.6521713767e-03 3.0088643398e+00 -5.2115059096e+00 3.0088643398e+00 5.2115059096e+00 
55000 6.3820930610e+00 -8.5813592118e-03 3.0090081190e+00 -5.2117549424e+00 3.0090081190e+00 5.2117549424e+00 
55100 6.3820916753e+00 -8.5111138025e-03 3.0091507146e+00 -5.2120019253e+00 3.0091507146e+00 5.2120019253e+00 
55200 6.3820903165e+00 -8.4414310029e-03 3.0092921362e+00 -5.2122468747e+00 3.0092921362e+00 5.2122468747e+00 
55300 6.3820889842e+00 -8.3723067086e-03 3.0094323934e+00 -5.2124898073e+00 3.0094323934e+00 5.2124898073e+00 
55400 6.3820876778e+00 -8.3037368556e-03 3.0095714955e+00 -5.2127307393e+00 3.0095714955e+00 5.2127307393e+00 
55500 6.3820863968e+00 -8.2357174195e-03 3.0097094521e+00 -5.2129696870e+00 3.0097094521e+00 5.2129696870e+00 
55600 6.3820851407e+00 -8.1682444145e-03 3.0098462722e+00 -5.2132066665e+00 3.0098462722e+00 5.2132066665e+00 
55700 6.3820839091e+00 -8.1013138926e-03 3.0099819653e+00 -5.2134416938e+00 3.0099819653e+00 5.2134416938e+00 
55800 6.3820827015e+00 -8.0349219423e-03 3.0101165404e+00 -5.2136747848e+00 3.0101165404e+00 5.2136747848e+00 
55900 6.3820815174e+00 -7.9690646881e-03 3.0102500067e+00 -5.2139059551e+00 3.0102500067e+00 5.2139059551e+00 
56000 6.3820803564e+00 -7.9037382892e-03 3.0103823732e+00 -5.2141352206e+00 3.0103823732e+00 5.2141352206e+00 
56100 6.3820792179e+00 -7.8389389387e-03 3.0105136488e+00 -5.2143625966e+00 3.0105136488e+00 5.2143625966e+00 
56200 6.3820781017e+00 -7.7746628625e-03 3.0106438425e+00 -5.2145880986e+00 3.0106438425e+00 5.2145880986e+00 
56300 6.3820770071e+00 -7.7109063188e-03 3.0107729630e+00 -5.2148117420e+00 3.0107729630e+00 5.2148117420e+00 
56400 6.3820759339e+00 -7.6476655964e-03 3.0109010192e+00 -5.2150335417e+00 3.0109010192e+00 5.2150335417e+00 
56500 6.3820748816e+00 -7.5849370148e-03 3.0110280197e+00 -5.2152535131e+00 3.0110280197e+00 5.2152535131e+00 
56600 6.3820738498e+00 -7.5227169223e-03 3.0111539732e+00 -5.2154716709e+00 3.0111539732e+00 5.2154716709e+00 
56700 6.3820728381e+00 -7.4610016958e-03 3.0112788882e+00 -5.2156880301e+00 3.0112788882e+00 5.2156880301e+00 
56800 6.3820718462e+00 -7.3997877398e-03 3.0114027733e+00 -5.2159026055e+00 3.0114027733e+00 5.2159026055e+00 
56900 6.3820708735e+00 -7.3390714851e-03 3.0115256370e+00 -5.2161154115e+00 3.0115256370e+00 5.2161154115e+00 
57000 6.3820699198e+00 -7.2788493886e-03 3.0116474875e+00 -5.2163264629e+00 3.0116474875e+00 5.2163264629e+00 
57100 6.3820689847e+00 -7.2191179321e-03 3.0117683333e+00 -5.2165357739e+00 3.0117683333e+00 5.2165357739e+00 
57200 6.3820680678e+00 -7.1598736214e-03 3.0118881826e+00 -5.2167433590e+00 3.0118881826e+00 5.2167433590e+00 
57300 6.3820671688e+00 -7.1011129861e-03 3.0120070436e+00 -5.2169492322e+00 3.0120070436e+00 5.2169492322e+00 
57400 6.3820662873e+00 -7.0428325780e-03 3.0121249244e+00 -5.2171534079e+00 3.0121249244e+00 5.2171534079e+00 
57500 6.3820654230e+00 -6.9850289710e-03 3.0122418332e+00 -5.2173558999e+00 3.0122418332e+00 5.2173558999e+00 
57600 6.3820645755e+00 -6.9276987603e-03 3.0123577780e+00 -5.2175567221e+00 3.0123577780e+00 5.2175567221e+00 
57700 6.3820637446e+00 -6.8708385613e-03 3.0124727667e+00 -5.2177558884e+00 3.0124727667e+00 5.2177558884e+00 
57800 6.3820629299e+00 -6.8144450095e-03 3.0125868073e+00 -5.2179534124e+00 3.0125868073e+00 5.2179534124e+00 
57900 6.3820621310e+00 -6.7585147594e-03 3.0126999076e+00 -5.2181493079e+00 3.0126999076e+00 5.2181493079e+00 
58000 6.3820613477e+00 -6.7030444842e-03 3.0128120753e+00 -5.2183435881e+00 3.0128120753e+00 5.2183435881e+00 
58100 6.3820605797e+00 -6.6480308748e-03 3.0129233183e+00 -5.2185362667e+00 3.0129233183e+00 5.2185362667e+00 
58200 6.3820598267e+00 -6.5934706397e-03 3.0130336443e+00 -5.2187273568e+00 3.0130336443e+00 5.2187273568e+00 
58300 6.3820590884e+00 -6.5393605042e-03 3.0131430608e+00 -5.2189168717e+00 3.0131430608e+00 5.2189168717e+00 
58400 6.3820583644e+00 -6.4856972098e-03 3.0132515753e+00 -5.2191048245e+00 3.0132515753e+00 5.2191048245e+00 
58500 6.3820576546e+00 -6.4324775140e-03 3.0133591956e+00 -5.2192912282e+00 3.0133591956e+00 5.2192912282e+00 
58600 6.3820569586e+00 -6.3796981894e-03 3.0134659289e+00 -5.2194760957e+00 3.0134659289e+00 5.2194760957e+00 
58700 6.3820562762e+00 -6.3273560238e-03 3.0135717826e+00 -5.2196594398e+00 3.0135717826e+00 5.2196594398e+00 
58800 6.3820556071e+00 -6.2754478191e-03 3.0136767643e+00 -5.2198412733e+00 3.0136767643e+00 5.2198412733e+00 
58900 6.3820549511e+00 -6.2239703916e-03 3.0137808810e+00 -5.2200216088e+00 3.0137808810e+00 5.2200216088e+00 
59000 6.3820543078e+00 -6.1729205712e-03 3.0138841401e+00 -5.2202004588e+00 3.0138841401e+00 5.2202004588e+00 
59100 6.3820536772e+00 -6.1222952010e-03 3.0139865487e+00 -5.2203778357e+00 3.0139865487e+00 5.2203778357e+00 
59200 6.3820530588e+00 -6.0720911374e-03 3.0140881141e+00 -5.2205537520e+00 3.0140881141e+00 5.2205537520e+00 
59300 6.3820524525e+00 -6.0223052493e-03 3.0141888431e+00 -5.2207282199e+00 3.0141888431e+00 5.2207282199e+00 
59400 6.3820518580e+00 -5.9729344182e-03 3.0142887429e+00 -5.2209012514e+00 3.0142887429e+00 5.2209012514e+00 
59500 6.3820512751e+00 -5.9239755377e-03 3.0143878205e+00 -5.2210728588e+00 3.0143878205e+00 5.2210728588e+00 
59600 6.3820507036e+00 -5.8754255136e-03 3.0144860827e+00 -5.2212430539e+00 3.0144860827e+00 5.2212430539e+00 
59700 6.3820501433e+00 -5.8272812632e-03 3.0145835364e+00 -5.2214118487e+00 3.0145835364e+00 5.2214118487e+00 
59800 6.3820495939e+00 -5.7795397156e-03 3.0146801884e+00 -5.2215792549e+00 3.0146801884e+00 5.2215792549e+00 
59900 6.3820490552e+00 -5.7321978111e-03 3.0147760455e+00 -5.2217452843e+00 3.0147760455e+00 5.2217452843e+00 
60000 6.3820485271e+00 -5.6852525015e-03 3.0148711144e+00 -5.2219099484e+00 3.0148711144e+00 5.2219099484e+00 
60100 6.3820480093e+00 -5.6387007497e-03 3.0149654017e+00 -5.2220732589e+00 3.0149654017e+00 5.2220732589e+00 
60200 6.3820475016e+00 -5.5925395295e-03 3.0150589141e+00 -5.2222352270e+00 3.0150589141e+00 5.2222352270e+00 
60300 6.3820470038e+00 -5.5467658260e-03 3.0151516580e+00 -5.2223958642e+00 3.0151516580e+00 5.2223958642e+00 
60400 6.3820465157e+00 -5.5013766349e-03 3.0152436400e+00 -5.2225551817e+00 3.0152436400e+00 5.2225551817e+00 
60500 6.3820460372e+00 -5.4563689630e-03 3.0153348665e+00 -5.2227131907e+00 3.0153348665e+00 5.2227131907e+00 
60600 6.3820455681e+00 -5.4117398278e-03 3.0154253440e+00 -5.2228699022e+00 3.0154253440e+00 5.2228699022e+00 
60700 6.3820451081e+00 -5.3674862577e-03 3.0155150787e+00 -5.2230253273e+00 3.0155150787e+00 5.2230253273e+00 
60800 6.3820446571e+00 -5.3236052920e-03 3.0156040770e+00 -5.2231794769e+00 3.0156040770e+00 5.2231794769e+00 
60900 6.3820442149e+00 -5.2800939807e-03 3.0156923451e+00 -5.2233323616e+00 3.0156923451e+00 5.2233323616e+00 
61000 6.3820437814e+00 -5.2369493848e-03 3.0157798891e+00 -5.2234839924e+00 3.0157798891e+00 5.2234839924e+00 
61100 6.3820433564e+00 -5.1941685762e-03 3.0158667153e+00 -5.2236343798e+00 3.0158667153e+00 5.2236343798e+00 
61200 6.3820429397e+00 -5.1517486381e-03 3.0159528298e+00 -5.2237835344e+00 3.0159528298e+00 5.2237835344e+00 
61300 6.3820425312e+00 -5.1096866643e-03 3.0160382385e+00 -5.2239314666e+00 3.0160382385e+00 5.2239314666e+00 
61400 6.3820421307e+00 -5.0679797601e-03 3.0161229475e+00 -5.2240781869e+00 3.0161229475e+00 5.2240781869e+00 
61500 6.3820417380e+00 -5.0266250421e-03 3.0162069627e+00 -5.2242237055e+00 3.0162069627e+00 5.2242237055e+00 
61600 6.3820413530e+00 -4.9856196382e-03 3.0162902900e+00 -5.2243680326e+00 3.0162902900e+00 5.2243680326e+00 
61700 6.3820409756e+00 -4.9449606878e-03 3.0163729352e+00 -5.2245111784e+00 3.0163729352e+00 5.2245111784e+00 
61800 6.3820406056e+00 -4.9046453421e-03 3.0164549043e+00 -5.2246531529e+00 3.0164549043e+00 5.2246531529e+00 
61900 6.3820402428e+00 -4.8646707639e-03 3.0165362028e+00 -5.2247939661e+00 3.0165362028e+00 5.2247939661e+00 
62000 6.3820398872e+00 -4.8250341281e-03 3.0166168366e+00 -5.2249336279e+00 3.0166168366e+00 5.2249336279e+00 
62100 6.3820395386e+00 -4.7857326216e-03 3.0166968112e+00 -5.2250721480e+00 3.0166968112e+00 5.2250721480e+00 
62200 6.3820391968e+00 -4.7467634437e-03 3.0167761323e+00 -5.2252095361e+00 3.0167761323e+00 5.2252095361e+00 
62300 6.3820388617e+00 -4.7081238060e-03 3.0168548054e+00 -5.2253458020e+00 3.0168548054e+00 5.2253458020e+00 
62400 6.3820385332e+00 -4.6698109329e-03 3.0169328361e+00 -5.2254809551e+00 3.0169328361e+00 5.2254809551e+00 
62500 6.3820382112e+00 -4.6318220613e-03 3.0170102297e+00 -5.2256150049e+00 3.0170102297e+00 5.2256150049e+00 
62600 6.3820378955e+00 -4.5941544414e-03 3.0170869919e+00 -5.2257479607e+00 3.0170869919e+00 5.2257479607e+00 
62700 6.3820375861e+00 -4.5568053364e-03 3.0171631278e+00 -5.2258798320e+00 3.0171631278e+00 5.2258798320e+00 
62800 6.3820372827e+00 -4.5197720229e-03 3.0172386428e+00 -5.2260106279e+00 3.0172386428e+00 5.2260106279e+00 
62900 6.3820369854e+00 -4.4830517911e-03 3.0173135423e+00 -5.2261403576e+00 3.0173135423e+00 5.2261403576e+00 
63000 6.3820366939e+00 -4.4466419449e-03 3.0173878314e+00 -5.2262690301e+00 3.0173878314e+00 5.2262690301e+00 
63100 6.3820364081e+00 -4.4105398023e-03 3.0174615153e+00 -5.2263966544e+00 3.0174615153e+00 5.2263966544e+00 
63200 6.3820361281e+00 -4.3747426953e-03 3.0175345992e+00 -5.2265232394e+00 3.0175345992e+00 5.2265232394e+00 
63300 6.3820358535e+00 -4.3392479704e-03 3.0176070882e+00 -5.2266487940e+00 3.0176070882e+00 5.2266487940e+00 
63400 6.3820355844e+00 -4.3040529887e-03 3.0176789873e+00 -5.2267733269e+00 3.0176789873e+00 5.2267733269e+00 
63500 6.3820353206e+00 -4.2691551258e-03 3.0177503016e+00 -5.2268968468e+00 3.0177503016e+00 5.2268968468e+00 
63600 6.3820350621e+00 -4.2345517727e-03 3.0178210359e+00 -5.2270193623e+00 3.0178210359e+00 5.2270193623e+00 
63700 6.3820348086e+00 -4.2002403352e-03 3.0178911953e+00 -5.2271408819e+00 3.0178911953e+00 5.2271408819e+00 
63800 6.3820345602e+00 -4.1662182346e-03 3.0179607845e+00 -5.2272614140e+00 3.0179607845e+00 5.2272614140e+00 
63900 6.3820343168e+00 -4.1324829080e-03 3.0180298085e+00 -5.2273809671e+00 3.0180298085e+00 5.2273809671e+00 
64000 6.3820340782e+00 -4.0990318080e-03 3.0180982720e+00 -5.2274995494e+00 3.0180982720e+00 5.2274995494e+00 
64100 6.3820338443e+00 -4.0658624031e-03 3.0181661798e+00 -5.2276171691e+00 3.0181661798e+00 5.2276171691e+00 
64200 6.3820336151e+00 -4.0329721783e-03 3.0182335366e+00 -5.2277338344e+00 3.0182335366e+00 5.2277338344e+00 
64300 6.3820333905e+00 -4.0003586345e-03 3.0183003470e+00 -5.2278495534e+00 3.0183003470e+00 5.2278495534e+00 
64400 6.3820331704e+00 -3.9680192894e-03 3.0183666156e+00 -5.2279643341e+00 3.0183666156e+00 5.2279643341e+00 
64500 6.3820329546e+00 -3.9359516774e-03 3.0184323471e+00 -5.2280781843e+00 3.0184323471e+00 5.2280781843e+00 
64600 6.3820327432e+00 -3.9041533495e-03 3.0184975459e+00 -5.2281911120e+00 3.0184975459e+00 5.2281911120e+00 
64700 6.3820325360e+00 -3.8726218739e-03 3.0185622166e+00 -5.2283031250e+00 3.0185622166e+00 5.2283031250e+00 
64800 6.3820323330e+00 -3.8413548360e-03 3.0186263636e+00 -5.2284142309e+00 3.0186263636e+00 5.2284142309e+00 
64900 6.3820321340e+00 -3.8103498386e-03 3.0186899914e+00 -5.2285244374e+00 3.0186899914e+00 5.2285244374e+00 
65000 6.3820319391e+00 -3.7796045018e-03 3.0187531043e+00 -5.2286337521e+00 3.0187531043e+00 5.2286337521e+00 
65100 6.3820317480e+00 -3.7491164634e-03 3.0188157066e+00 -5.2287421824e+00 3.0188157066e+00 5.2287421824e+00 
65200 6.3820315609e+00 -3.7188833792e-03 3.0188778026e+00 -5.2288497359e+00 3.0188778026e+00 5.2288497359e+00 
65300 6.3820313775e+00 -3.6889029225e-03 3.0189393966e+00 -5.2289564199e+00 3.0189393966e+00 5.2289564199e+00 
65400 6.3820311978e+00 -3.6591727849e-03 3.0190004928e+00 -5.2290622416e+00 3.0190004928e+00 5.2290622416e+00 
65500 6.3820310217e+00 -3.6296906762e-03 3.0190610954e+00 -5.2291672084e+00 3.0190610954e+00 5.2291672084e+00 
65600 6.3820308492e+00 -3.6004543244e-03 3.0191212085e+00 -5.2292713273e+00 3.0191212085e+00 5.2292713273e+00 
65700 6.3820306802e+00 -3.5714614757e-03 3.0191808362e+00 -5.2293746056e+00 3.0191808362e+00 5.2293746056e+00 
65800 6.3820305147e+00 -3.5427098950e-03 3.0192399826e+00 -5.2294770501e+00 3.0192399826e+00 5.2294770501e+00 
65900 6.3820303525e+00 -3.5141973656e-03 3.0192986517e+00 -5.2295786680e+00 3.0192986517e+00 5.2295786680e+00 
66000 6.3820301936e+00 -3.4859216897e-03 3.0193568475e+00 -5.2296794660e+00 3.0193568475e+00 5.2296794660e+00 
66100 6.3820300380e+00 -3.4578806879e-03 3.0194145739e+00 -5.2297794511e+00 3.0194145739e+00 5.2297794511e+00 
66200 6.3820298856e+00 -3.4300721997e-03 3.0194718349e+00 -5.2298786300e+00 3.0194718349e+00 5.2298786300e+00 
66300 6.3820297363e+00 -3.4024940837e-03 3.0195286342e+00 -5.2299770094e+00 3.0195286342e+00 5.2299770094e+00 
66400 6.3820295900e+00 -3.3751442171e-03 3.0195849759e+00 -5.2300745960e+00 3.0195849759e+00 5.2300745960e+00 
66500 6.3820294468e+00 -3.3480204962e-03 3.0196408636e+00 -5.2301713964e+00 3.0196408636e+00 5.2301713964e+00 
66600 6.3820293065e+00 -3.3211208363e-03 3.0196963012e+00 -5.2302674171e+00 3.0196963012e+00 5.2302674171e+00 
66700 6.3820291691e+00 -3.2944431717e-03 3.0197512923e+00 -5.2303626645e+00 3.0197512923e+00 5.2303626645e+00 
66800 6.3820290346e+00 -3.2679854558e-03 3.0198058407e+00 -5.2304571452e+00 3.0198058407e+00 5.2304571452e+00 
66900 6.3820289029e+00 -3.2417456612e-03 3.0198599501e+00 -5.2305508653e+00 3.0198599501e+00 5.2305508653e+00 
67000 6.3820287738e+00 -3.2157217793e-03 3.0199136240e+00 -5.2306438313e+00 3.0199136240e+00 5.2306438313e+00 
67100 6.3820286475e+00 -3.1899118210e-03 3.0199668661e+00 -5.2307360493e+00 3.0199668661e+00 5.2307360493e+00 
67200 6.3820285238e+00 -3.1643138159e-03 3.0200196800e+00 -5.2308275256e+00 3.0200196800e+00 5.2308275256e+00 
67300 6.3820284028e+00 -3.1389258129e-03 3.0200720691e+00 -5.2309182662e+00 3.0200720691e+00 5.2309182662e+00 
67400 6.3820282842e+00 -3.1137458801e-03 3.0201240370e+00 -5.2310082772e+00 3.0201240370e+00 5.2310082772e+00 
67500 6.3820281681e+00 -3.0887721043e-03 3.0201755871e+00 -5.2310975646e+00 3.0201755871e+00 5.2310975646e+00 
67600 6.3820280545e+00 -3.0640025917e-03 3.0202267229e+00 -5.2311861344e+00 3.0202267229e+00 5.2311861344e+00 
67700 6.3820279433e+00 -3.0394354673e-03 3.0202774477e+00 -5.2312739924e+00 3.0202774477e+00 5.2312739924e+00 
67800 6.3820278345e+00 -3.0150688750e-03 3.0203277650e+00 -5.2313611445e+00 3.0203277650e+00 5.2313611445e+00 
67900 6.3820277279e+00 -2.9909009776e-03 3.0203776781e+00 -5.2314475965e+00 3.0203776781e+00 5.2314475965e+00 
68000 6.3820276237e+00 -2.9669299569e-03 3.0204271903e+00 -5.2315333541e+00 3.0204271903e+00 5.2315333541e+00 
68100 6.3820275216e+00 -2.9431540133e-03 3.0204763048e+00 -5.2316184230e+00 3.0204763048e+00 5.2316184230e+00 
68200 6.3820274218e+00 -2.9195713661e-03 3.0205250250e+00 -5.2317028088e+00 3.0205250250e+00 5.2317028088e+00 
68300 6.3820273240e+00 -2.8961802529e-03 3.0205733540e+00 -5.2317865171e+00 3.0205733540e+00 5.2317865171e+00 
68400 6.3820272284e+00 -2.8729789302e-03 3.0206212950e+00 -5.2318695534e+00 3.0206212950e+00 5.2318695534e+00 
68500 6.3820271349e+00 -2.8499656727e-03 3.0206688512e+00 -5.2319519232e+00 3.0206688512e+00 5.2319519232e+00 
68600 6.3820270434e+00 -2.8271387738e-03 3.0207160258e+00 -5.2320336319e+00 3.0207160258e+00 5.2320336319e+00 
68700 6.3820269539e+00 -2.8044965447e-03 3.0207628217e+00 -5.2321146848e+00 3.0207628217e+00 5.2321146848e+00 
68800 6.3820268663e+00 -2.7820373153e-03 3.0208092422e+00 -5.2321950874e+00 3.0208092422e+00 5.2321950874e+00 
68900 6.3820267807e+00 -2.7597594332e-03 3.0208552902e+00 -5.2322748449e+00 3.0208552902e+00 5.2322748449e+00 
69000 6.3820266969e+00 -2.7376612640e-03 3.0209009687e+00 -5.2323539625e+00 3.0209009687e+00 5.2323539625e+00 
69100 6.3820266150e+00 -2.7157411913e-03 3.0209462809e+00 -5.2324324454e+00 3.0209462809e+00 5.2324324454e+00 
69200 6.3820265349e+00 -2.6939976164e-03 3.0209912295e+00 -5.2325102987e+00 3.0209912295e+00 5.2325102987e+00 
69300 6.3820264566e+00 -2.6724289579e-03 3.0210358176e+00 -5.2325875275e+00 3.0210358176e+00 5.2325875275e+00 
69400 6.3820263800e+00 -2.6510336523e-03 3.0210800480e+00 -5.2326641369e+00 3.0210800480e+00 5.2326641369e+00 
69500 6.3820263051e+00 -2.6298101530e-03 3.0211239237e+00 -5.2327401318e+00 3.0211239237e+00 5.2327401318e+00 
69600 6.3820262320e+00 -2.6087569310e-03 3.0211674475e+00 -5.2328155173e+00 3.0211674475e+00 5.2328155173e+00 
69700 6.3820261604e+00 -2.5878724740e-03 3.0212106223e+00 -5.2328902982e+00 3.0212106223e+00 5.2328902982e+00 
69800 6.3820260905e+00 -2.5671552867e-03 3.0212534508e+00 -5.2329644793e+00 3.0212534508e+00 5.2329644793e+00 
69900 6.3820260222e+00 -2.5466038907e-03 3.0212959358e+00 -5.2330380655e+00 3.0212959358e+00 5.2330380655e+00 
70000 6.3820259555e+00 -2.5262168241e-03 3.0213380801e+00 -5.2331110617e+00 3.0213380801e+00 5.2331110617e+00 
70100 6.3820258903e+00 -2.5059926413e-03 3.0213798865e+00 -5.2331834724e+00 3.0213798865e+00 5.2331834724e+00 
70200 6.3820258265e+00 -2.4859299132e-03 3.0214213576e+00 -5.2332553024e+00 3.0214213576e+00 5.2332553024e+00 
70300 6.3820257643e+00 -2.4660272267e-03 3.0214624961e+00 -5.2333265564e+00 3.0214624961e+00 5.2333265564e+00 
70400 6.3820257035e+00 -2.4462831848e-03 3.0215033047e+00 -5.2333972390e+00 3.0215033047e+00 5.2333972390e+00 
70500 6.3820256442e+00 -2.4266964062e-03 3.0215437860e+00 -5.2334673547e+00 3.0215437860e+00 5.2334673547e+00 
70600 6.3820255862e+00 -2.4072655250e-03 3.0215839427e+00 -5.2335369080e+00 3.0215839427e+00 5.2335369080e+00 
70700 6.3820255296e+00 -2.3879891913e-03 3.0216237773e+00 -5.2336059036e+00 3.0216237773e+00 5.2336059036e+00 
70800 6.3820254743e+00 -2.3688660700e-03 3.0216632923e+00 -5.2336743457e+00 3.0216632923e+00 5.2336743457e+00 
70900 6.3820254204e+00 -2.3498948413e-03 3.0217024905e+00 -5.2337422389e+00 3.0217024905e+00 5.2337422389e+00 
71000 6.3820253678e+00 -2.3310742004e-03 3.0217413742e+00 -5.2338095874e+00 3.0217413742e+00 5.2338095874e+00 
71100 6.3820253164e+00 -2.3124028571e-03 3.0217799460e+00 -5.2338763957e+00 3.0217799460e+00 5.2338763957e+00 
71200 6.3820252663e+00 -2.2938795359e-03 3.0218182083e+00 -5.2339426680e+00 3.0218182083e+00 5.2339426680e+00 
71300 6.3820252174e+00 -2.2755029757e-03 3.0218561637e+00 -5.2340084087e+00 3.0218561637e+00 5.2340084087e+00 
71400 6.3820251697e+00 -2.2572719297e-03 3.0218938145e+00 -5.2340736218e+00 3.0218938145e+00 5.2340736218e+00 
71500 6.3820251232e+00 -2.2391851649e-03 3.0219311632e+00 -5.2341383117e+00 3.0219311632e+00 5.2341383117e+00 
71600 6.3820250778e+00 -2.2212414625e-03 3.0219682122e+00 -5.2342024824e+00 3.0219682122e+00 5.2342024824e+00 
71700 6.3820250336e+00 -2.2034396170e-03 3.0220049638e+00 -5.2342661381e+00 3.0220049638e+00 5.2342661381e+00 
71800 6.3820249905e+00 -2.1857784367e-03 3.0220414205e+00 -5.2343292829e+00 3.0220414205e+00 5.2343292829e+00 
71900 6.3820249485e+00 -2.1682567432e-03 3.0220775845e+00 -5.2343919208e+00 3.0220775845e+00 5.2343919208e+00 
72000 6.3820249075e+00 -2.1508733711e-03 3.0221134582e+00 -5.2344540558e+00 3.0221134582e+00 5.2344540558e+00 
72100 6.3820248676e+00 -2.1336271681e-03 3.0221490438e+00 -5.2345156920e+00 3.0221490438e+00 5.2345156920e+00 
72200 6.3820248288e+00 -2.1165169946e-03 3.0221843437e+00 -5.2345768332e+00 3.0221843437e+00 5.2345768332e+00 
72300 6.3820247909e+00 -2.0995417234e-03 3.0222193602e+00 -5.2346374834e+00 3.0222193602e+00 5.2346374834e+00 
72400 6.3820247541e+00 -2.0827002402e-03 3.0222540953e+00 -5.2346976465e+00 3.0222540953e+00 5.2346976465e+00 
72500 6.3820247182e+00 -2.0659914425e-03 3.0222885515e+00 -5.2347573263e+00 3.0222885515e+00 5.2347573263e+00 
72600 6.3820246833e+00 -2.0494142400e-03 3.0223227308e+00 -5.2348165266e+00 3.0223227308e+00 5.2348165266e+00 
72700 6.3820246493e+00 -2.0329675543e-03 3.0223566355e+00 -5.2348752512e+00 3.0223566355e+00 5.2348752512e+00 
72800 6.3820246163e+00 -2.0166503187e-03 3.0223902677e+00 -5.2349335039e+00 3.0223902677e+00 5.2349335039e+00 
72900 6.3820245841e+00 -2.0004614780e-03 3.0224236296e+00 -5.2349912885e+00 3.0224236296e+00 5.2349912885e+00 
73000 6.3820245529e+00 -1.9843999883e-03 3.0224567233e+00 -5.2350486085e+00 3.0224567233e+00 5.2350486085e+00 
73100 6.3820245225e+00 -1.9684648169e-03 3.0224895510e+00 -5.2351054676e+00 3.0224895510e+00 5.2351054676e+00 
73200 6.3820244930e+00 -1.9526549421e-03 3.0225221147e+00 -5.2351618696e+00 3.0225221147e+00 5.2351618696e+00 
73300 6.3820244643e+00 -1.9369693530e-03 3.0225544165e+00 -5.2352178180e+00 3.0225544165e+00 5.2352178180e+00 
73400 6.3820244364e+00 -1.9214070495e-03 3.0225864585e+00 -5.2352733163e+00 3.0225864585e+00 5.2352733163e+00 
73500 6.3820244093e+00 -1.9059670417e-03 3.0226182427e+00 -5.2353283682e+00 3.0226182427e+00 5.2353283682e+00 
73600 6.3820243831e+00 -1.8906483503e-03 3.0226497711e+00 -5.2353829771e+00 3.0226497711e+00 5.2353829771e+00 
73700 6.3820243576e+00 -1.8754500059e-03 3.0226810459e+00 -5.2354371465e+00 3.0226810459e+00 5.2354371465e+00 
73800 6.3820243328e+00 -1.8603710494e-03 3.0227120689e+00 -5.2354908800e+00 3.0227120689e+00 5.2354908800e+00 
73900 6.3820243089e+00 -1.8454105311e-03 3.0227428421e+00 -5.2355441808e+00 3.0227428421e+00 5.2355441808e+00 
74000 6.3820242856e+00 -1.8305675113e-03 3.0227733676e+00 -5.2355970525e+00 3.0227733676e+00 5.2355970525e+00 
74100 6.3820242631e+00 -1.8158410598e-03 3.0228036473e+00 -5.2356494984e+00 3.0228036473e+00 5.2356494984e+00 
74200 6.3820242413e+00 -1.8012302554e-03 3.0228336830e+00 -5.2357015219e+00 3.0228336830e+00 5.2357015219e+00 
74300 6.3820242201e+00 -1.7867341865e-03 3.0228634768e+00 -5.2357531262e+00 3.0228634768e+00 5.2357531262e+00 
74400 6.3820241997e+00 -1.7723519504e-03 3.0228930305e+00 -5.2358043148e+00 3.0228930305e+00 5.2358043148e+00 
74500 6.3820241799e+00 -1.7580826530e-03 3.0229223461e+00 -5.2358550908e+00 3.0229223461e+00 5.2358550908e+00 
74600 6.3820241607e+00 -1.7439254095e-03 3.0229514253e+00 -5.2359054575e+00 3.0229514253e+00 5.2359054575e+00 
74700 6.3820241422e+00 -1.7298793432e-03 3.0229802701e+00 -5.2359554181e+00 3.0229802701e+00 5.2359554181e+00 
74800 6.3820241244e+00 -1.7159435860e-03 3.0230088823e+00 -5.2360049759e+00 3.0230088823e+00 5.2360049759e+00 
74900 6.3820241071e+00 -1.7021172783e-03 3.0230372637e+00 -5.2360541340e+00 3.0230372637e+00 5.2360541340e+00 
75000 6.3820240904e+00 -1.6883995683e-03 3.0230654162e+00 -5.2361028955e+00 3.0230654162e+00 5.2361028955e+00 
75100 6.3820240744e+00 -1.6747896125e-03 3.0230933416e+00 -5.2361512636e+00 3.0230933416e+00 5.2361512636e+00 
75200 6.3820240589e+00 -1.6612865753e-03 3.0231210415e+00 -5.2361992414e+00 3.0231210415e+00 5.2361992414e+00 
75300 6.3820240440e+00 -1.6478896287e-03 3.0231485179e+00 -5.2362468319e+00 3.0231485179e+00 5.2362468319e+00 
75400 6.3820240296e+00 -1.6345979523e-03 3.0231757725e+00 -5.2362940382e+00 3.0231757725e+00 5.2362940382e+00 
75500 6.3820240158e+00 -1.6214107335e-03 3.0232028070e+00 -5.2363408633e+00 3.0232028070e+00 5.2363408633e+00 
75600 6.3820240025e+00 -1.6083271667e-03 3.0232296231e+00 -5.2363873102e+00 3.0232296231e+00 5.2363873102e+00 
75700 6.3820239898e+00 -1.5953464539e-03 3.0232562227e+00 -5.2364333819e+00 3.0232562227e+00 5.2364333819e+00 
75800 6.3820239775e+00 -1.5824678039e-03 3.0232826073e+00 -5.2364790814e+00 3.0232826073e+00 5.2364790814e+00 
75900 6.3820239658e+00 -1.5696904326e-03 3.0233087787e+00 -5.2365244116e+00 3.0233087787e+00 5.2365244116e+00 
76000 6.3820239545e+00 -1.5570135631e-03 3.0233347385e+00 -5.2365693754e+00 3.0233347385e+00 5.2365693754e+00 
76100 6.3820239438e+00 -1.5444364249e-03 3.0233604885e+00 -5.2366139756e+00 3.0233604885e+00 5.2366139756e+00 
76200 6.3820239335e+00 -1.5319582543e-03 3.0233860302e+00 -5.2366582152e+00 3.0233860302e+00 5.2366582152e+00 
76300 6.3820239237e+00 -1.5195782941e-03 3.0234113654e+00 -5.2367020971e+00 3.0234113654e+00 5.2367020971e+00 
76400 6.3820239143e+00 -1.5072957938e-03 3.0234364956e+00 -5.2367456239e+00 3.0234364956e+00 5.2367456239e+00 
76500 6.3820239054e+00 -1.4951100089e-03 3.0234614225e+00 -5.2367887985e+00 3.0234614225e+00 5.2367887985e+00 
76600 6.3820238969e+00 -1.4830202014e-03 3.0234861477e+00 -5.2368316238e+00 3.0234861477e+00 5.2368316238e+00 
76700 6.3820238888e+00 -1.4710256393e-03 3.0235106727e+00 -5.2368741024e+00 3.0235106727e+00 5.2368741024e+00 
76800 6.3820238812e+00 -1.4591255966e-03 3.0235349992e+00 -5.2369162371e+00 3.0235349992e+00 5.2369162371e+00 
76900 6.3820238740e+00 -1.4473193536e-03 3.0235591287e+00 -5.2369580306e+00 3.0235591287e+00 5.2369580306e+00 
77000 6.3820238671e+00 -1.4356061960e-03 3.0235830628e+00 -5.2369994856e+00 3.0235830628e+00 5.2369994856e+00 
77100 6.3820238607e+00 -1.4239854155e-03 3.0236068030e+00 -5.2370406048e+00 3.0236068030e+00 5.2370406048e+00 
77200 6.3820238547e+00 -1.4124563095e-03 3.0236303508e+00 -5.2370813909e+00 3.0236303508e+00 5.2370813909e+00 
77300 6.3820238490e+00 -1.4010181810e-03 3.0236537078e+00 -5.2371218464e+00 3.0236537078e+00 5.2371218464e+00 
77400 6.3820238437e+00 -1.3896703384e-03 3.0236768754e+00 -5.2371619739e+00 3.0236768754e+00 5.2371619739e+00 
77500 6.3820238388e+00 -1.3784120955e-03 3.0236998553e+00 -5.2372017762e+00 3.0236998553e+00 5.2372017762e+00 
77600 6.3820238342e+00 -1.3672427716e-03 3.0237226488e+00 -5.2372412557e+00 3.0237226488e+00 5.2372412557e+00 
77700 6.3820238299e+00 -1.3561616912e-03 3.0237452574e+00 -5.2372804150e+00 3.0237452574e+00 5.2372804150e+00 
77800 6.3820238260e+00 -1.3451681839e-03 3.0237676826e+00 -5.2373192566e+00 3.0237676826e+00 5.2373192566e+00 
77900 6.3820238225e+00 -1.3342615847e-03 3.0237899259e+00 -5.2373577831e+00 3.0237899259e+00 5.2373577831e+00 
78000 6.3820238192e+00 -1.3234412332e-03 3.0238119887e+00 -5.2373959969e+00 3.0238119887e+00 5.2373959969e+00 
78100 6.3820238163e+00 -1.3127064744e-03 3.0238338724e+00 -5.2374339006e+00 3.0238338724e+00 5.2374339006e+00 
78200 6.3820238137e+00 -1.3020566580e-03 3.0238555784e+00 -5.2374714965e+00 3.0238555784e+00 5.2374714965e+00 
78300 6.3820238114e+00 -1.2914911385e-03 3.0238771081e+00 -5.2375087871e+00 3.0238771081e+00 5.2375087871e+00 
78400 6.3820238093e+00 -1.2810092754e-03 3.0238984631e+00 -5.2375457749e+00 3.0238984631e+00 5.2375457749e+00 
78500 6.3820238076e+00 -1.2706104326e-03 3.0239196445e+00 -5.2375824623e+00 3.0239196445e+00 5.2375824623e+00 
78600 6.3820238062e+00 -1.2602939789e-03 3.0239406539e+00 -5.2376188515e+00 3.0239406539e+00 5.2376188515e+00 
78700 6.3820238050e+00 -1.2500592877e-03 3.0239614925e+00 -5.2376549451e+00 3.0239614925e+00 5.2376549451e+00 
78800 6.3820238041e+00 -1.2399057367e-03 3.0239821617e+00 -5.2376907453e+00 3.0239821617e+00 5.2376907453e+00 
78900 6.3820238035e+00 -1.2298327084e-03 3.0240026630e+00 -5.2377262545e+00 3.0240026630e+00 5.2377262545e+00 
79000 6.3820238031e+00 -1.2198395896e-03 3.0240229975e+00 -5.2377614749e+00 3.0240229975e+00 5.2377614749e+00 
79100 6.3820238030e+00 -1.2099257713e-03 3.0240431667e+00 -5.2377964090e+00 3.0240431667e+00 5.2377964090e+00 
79200 6.3820238031e+00 -1.2000906491e-03 3.0240631718e+00 -5.2378310589e+00 3.0240631718e+00 5.2378310589e+00 
79300 6.3820238035e+00 -1.1903336227e-03 3.0240830142e+00 -5.2378654269e+00 3.0240830142e+00 5.2378654269e+00 
79400 6.3820238041e+00 -1.1806540962e-03 3.0241026951e+00 -5.2378995152e+00 3.0241026951e+00 5.2378995152e+00 
79500 6.3820238049e+00 -1.1710514778e-03 3.0241222159e+00 -5.2379333262e+00 3.0241222159e+00 5.2379333262e+00 
79600 6.3820238060e+00 -1.1615251797e-03 3.0241415777e+00 -5.2379668619e+00 3.0241415777e+00 5.2379668619e+00 
79700 6.3820238073e+00 -1.1520746184e-03 3.0241607820e+00 -5.2380001246e+00 3.0241607820e+00 5.2380001246e+00 
79800 6.3820238088e+00 -1.1426992145e-03 3.0241798298e+00 -5.2380331165e+00 3.0241798298e+00 5.2380331165e+00 
79900 6.3820238105e+00 -1.1333983923e-03 3.0241987225e+00 -5.2380658396e+00 3.0241987225e+00 5.2380658396e+00 
80000 6.3820238124e+00 -1.1241715805e-03 3.0242174614e+00 -5.2380982963e+00 3.0242174614e+00 5.2380982963e+00 
80100 6.3820238145e+00 -1.1150182113e-03 3.0242360476e+00 -5.2381304885e+00 3.0242360476e+00 5.2381304885e+00 
80200 6.3820238168e+00 -1.1059377213e-03 3.0242544823e+00 -5.2381624183e+00 3.0242544823e+00 5.2381624183e+00 
80300 6.3820238193e+00 -1.0969295505e-03 3.0242727668e+00 -5.2381940880e+00 3.0242727668e+00 5.2381940880e+00 
80400 6.3820238220e+00 -1.0879931431e-03 3.0242909022e+00 -5.2382254995e+00 3.0242909022e+00 5.2382254995e+00 
80500 6.3820238249e+00 -1.0791279468e-03 3.0243088898e+00 -5.2382566549e+00 3.0243088898e+00 5.2382566549e+00 
80600 6.3820238279e+00 -1.0703334133e-03 3.0243267307e+00 -5.2382875563e+00 3.0243267307e+00 5.2382875563e+00 
80700 6.3820238311e+00 -1.0616089979e-03 3.0243444262e+00 -5.2383182057e+00 3.0243444262e+00 5.2383182057e+00 
80800 6.3820238345e+00 -1.0529541597e-03 3.0243619772e+00 -5.2383486050e+00 3.0243619772e+00 5.2383486050e+00 
80900 6.3820238381e+00 -1.0443683614e-03 3.0243793851e+00 -5.2383787564e+00 3.0243793851e+00 5.2383787564e+00 
81000 6.3820238418e+00 -1.0358510695e-03 3.0243966510e+00 -5.2384086617e+00 3.0243966510e+00 5.2384086617e+00 
81100 6.3820238456e+00 -1.0274017539e-03 3.0244137759e+00 -5.2384383230e+00 3.0244137759e+00 5.2384383230e+00 
81200 6.3820238496e+00 -1.0190198883e-03 3.0244307611e+00 -5.2384677421e+00 3.0244307611e+00 5.2384677421e+00 
81300 6.3820238538e+00 -1.0107049498e-03 3.0244476075e+00 -5.2384969211e+00 3.0244476075e+00 5.2384969211e+00 
81400 6.3820238581e+00 -1.0024564193e-03 3.0244643165e+00 -5.2385258618e+00 3.0244643165e+00 5.2385258618e+00 
81500 6.3820238625e+00 -9.9427378097e-04 3.0244808890e+00 -5.2385545662e+00 3.0244808890e+00 5.2385545662e+00 
81600 6.3820238671e+00 -9.8615652258e-04 3.0244973261e+00 -5.2385830361e+00 3.0244973261e+00 5.2385830361e+00 
81700 6.3820238718e+00 -9.7810413540e-04 3.0245136289e+00 -5.2386112734e+00 3.0245136289e+00 5.2386112734e+00 
81800 6.3820238766e+00 -9.7011611413e-04 3.0245297985e+00 -5.2386392801e+00 3.0245297985e+00 5.2386392801e+00 
81900 6.3820238815e+00 -9.6219195692e-04 3.0245458360e+00 -5.2386670578e+00 3.0245458360e+00 5.2386670578e+00 
82000 6.3820238866e+00 -9.5433116533e-04 3.0245617424e+00 -5.2386946085e+00 3.0245617424e+00 5.2386946085e+00 
82100 6.3820238918e+00 -9.4653324431e-04 3.0245775188e+00 -5.2387219340e+00 3.0245775188e+00 5.2387219340e+00 
82200 6.3820238971e+00 -9.3879770222e-04 3.0245931662e+00 -5.2387490360e+00 3.0245931662e+00 5.2387490360e+00 
82300 6.3820239025e+00 -9.3112405074e-04 3.0246086856e+00 -5.2387759164e+00 3.0246086856e+00 5.2387759164e+00 
82400 6.3820239080e+00 -9.2351180491e-04 3.0246240781e+00 -5.2388025770e+00 3.0246240781e+00 5.2388025770e+00 
82500 6.3820239136e+00 -9.1596048308e-04 3.0246393446e+00 -5.2388290195e+00 3.0246393446e+00 5.2388290195e+00 
82600 6.3820239194e+00 -9.0846960691e-04 3.0246544863e+00 -5.2388552456e+00 3.0246544863e+00 5.2388552456e+00 
82700 6.3820239252e+00 -9.0103870136e-04 3.0246695040e+00 -5.2388812571e+00 3.0246695040e+00 5.2388812571e+00 
82800 6.3820239311e+00 -8.9366729464e-04 3.0246843989e+00 -5.2389070557e+00 3.0246843989e+00 5.2389070557e+00 
82900 6.3820239371e+00 -8.8635491825e-04 3.0246991718e+00 -5.2389326432e+00 3.0246991718e+00 5.2389326432e+00 
83000 6.3820239432e+00 -8.7910110688e-04 3.0247138238e+00 -5.2389580211e+00 3.0247138238e+00 5.2389580211e+00 
83100 6.3820239493e+00 -8.7190539849e-04 3.0247283557e+00 -5.2389831912e+00 3.0247283557e+00 5.2389831912e+00 
83200 6.3820239556e+00 -8.6476733423e-04 3.0247427687e+00 -5.2390081552e+00 3.0247427687e+00 5.2390081552e+00 
83300 6.3820239619e+00 -8.5768645844e-04 3.0247570636e+00 -5.2390329147e+00 3.0247570636e+00 5.2390329147e+00 
83400 6.3820239683e+00 -8.5066231865e-04 3.0247712414e+00 -5.2390574714e+00 3.0247712414e+00 5.2390574714e+00 
83500 6.3820239748e+00 -8.4369446555e-04 3.0247853030e+00 -5.2390818268e+00 3.0247853030e+00 5.2390818268e+00 
83600 6.3820239814e+00 -8.3678245299e-04 3.0247992494e+00 -5.2391059826e+00 3.0247992494e+00 5.2391059826e+00 
83700 6.3820239880e+00 -8.2992583794e-04 3.0248130814e+00 -5.2391299404e+00 3.0248130814e+00 5.2391299404e+00 
83800 6.3820239947e+00 -8.2312418052e-04 3.0248268001e+00 -5.2391537018e+00 3.0248268001e+00 5.2391537018e+00 
83900 6.3820240015e+00 -8.1637704394e-04 3.0248404062e+00 -5.2391772683e+00 3.0248404062e+00 5.2391772683e+00 
84000 6.3820240083e+00 -8.0968399451e-04 3.0248539008e+00 -5.2392006416e+00 3.0248539008e+00 5.2392006416e+00 
84100 6.3820240152e+00 -8.0304460164e-04 3.0248672846e+00 -5.2392238231e+00 3.0248672846e+00 5.2392238231e+00 
84200 6.3820240221e+00 -7.9645843781e-04 3.0248805587e+00 -5.2392468145e+00 3.0248805587e+00 5.2392468145e+00 
84300 6.3820240291e+00 -7.8992507853e-04 3.0248937238e+00 -5.2392696171e+00 3.0248937238e+00 5.2392696171e+00 
84400 6.3820240361e+00 -7.8344410240e-04 3.0249067809e+00 -5.2392922327e+00 3.0249067809e+00 5.2392922327e+00 
84500 6.3820240432e+00 -7.7701509101e-04 3.0249197308e+00 -5.2393146625e+00 3.0249197308e+00 5.2393146625e+00 
84600 6.3820240503e+00 -7.7063762900e-04 3.0249325744e+00 -5.2393369083e+00 3.0249325744e+00 5.2393369083e+00 
84700 6.3820240575e+00 -7.6431130402e-04 3.0249453125e+00 -5.2393589713e+00 3.0249453125e+00 5.2393589713e+00 
84800 6.3820240648e+00 -7.5803570670e-04 3.0249579459e+00 -5.2393808531e+00 3.0249579459e+00 5.2393808531e+00 
84900 6.3820240720e+00 -7.5181043067e-04 3.0249704756e+00 -5.2394025552e+00 3.0249704756e+00 5.2394025552e+00 
85000 6.3820240793e+00 -7.4563507250e-04 3.0249829024e+00 -5.2394240790e+00 3.0249829024e+00 5.2394240790e+00 
85100 6.3820240867e+00 -7.3950923177e-04 3.0249952270e+00 -5.2394454258e+00 3.0249952270e+00 5.2394454258e+00 
85200 6.3820240941e+00 -7.3343251096e-04 3.0250074503e+00 -5.2394665973e+00 3.0250074503e+00 5.2394665973e+00 
85300 6.3820241015e+00 -7.2740451551e-04 3.0250195732e+00 -5.2394875946e+00 3.0250195732e+00 5.2394875946e+00 
85400 6.3820241089e+00 -7.2142485378e-04 3.0250315963e+00 -5.2395084193e+00 3.0250315963e+00 5.2395084193e+00 
85500 6.3820241164e+00 -7.1549313703e-04 3.0250435206e+00 -5.2395290727e+00 3.0250435206e+00 5.2395290727e+00 
85600 6.3820241239e+00 -7.0960897943e-04 3.0250553467e+00 -5.2395495563e+00 3.0250553467e+00 5.2395495563e+00 
85700 6.3820241314e+00 -7.0377199803e-04 3.0250670756e+00 -5.2395698713e+00 3.0250670756e+00 5.2395698713e+00 
85800 6.3820241390e+00 -6.9798181274e-04 3.0250787080e+00 -5.2395900191e+00 3.0250787080e+00 5.2395900191e+00 
85900 6.3820241465e+00 -6.9223804636e-04 3.0250902446e+00 -5.2396100010e+00 3.0250902446e+00 5.2396100010e+00 
86000 6.3820241541e+00 -6.8654032452e-04 3.0251016862e+00 -5.2396298185e+00 3.0251016862e+00 5.2396298185e+00 
86100 6.3820241618e+00 -6.8088827567e-04 3.0251130336e+00 -5.2396494728e+00 3.0251130336e+00 5.2396494728e+00 
86200 6.3820241694e+00 -6.7528153112e-04 3.0251242875e+00 -5.2396689652e+00 3.0251242875e+00 5.2396689652e+00 
86300 6.3820241770e+00 -6.6971972496e-04 3.0251354487e+00 -5.2396882970e+00 3.0251354487e+00 5.2396882970e+00 
86400 6.3820241847e+00 -6.6420249409e-04 3.0251465180e+00 -5.2397074695e+00 3.0251465180e+00 5.2397074695e+00 
86500 6.3820241924e+00 -6.5872947818e-04 3.0251574960e+00 -5.2397264840e+00 3.0251574960e+00 5.2397264840e+00 
86600 6.3820242001e+00 -6.5330031971e-04 3.0251683836e+00 -5.2397453418e+00 3.0251683836e+00 5.2397453418e+00 
86700 6.3820242078e+00 -6.4791466388e-04 3.0251791813e+00 -5.2397640440e+00 3.0251791813e+00 5.2397640440e+00 
86800 6.3820242155e+00 -6.4257215865e-04 3.0251898900e+00 -5.2397825921e+00 3.0251898900e+00 5.2397825921e+00 
86900 6.3820242232e+00 -6.3727245471e-04 3.0252005104e+00 -5.2398009871e+00 3.0252005104e+00 5.2398009871e+00 
87000 6.3820242309e+00 -6.3201520548e-04 3.0252110431e+00 -5.2398192303e+00 3.0252110431e+00 5.2398192303e+00 
87100 6.3820242387e+00 -6.2680006707e-04 3.0252214889e+00 -5.2398373230e+00 3.0252214889e+00 5.2398373230e+00 
87200 6.3820242464e+00 -6.2162669830e-04 3.0252318485e+00 -5.2398552663e+00 3.0252318485e+00 5.2398552663e+00 
87300 6.3820242541e+00 -6.1649476066e-04 3.0252421225e+00 -5.2398730615e+00 3.0252421225e+00 5.2398730615e+00 
87400 6.3820242619e+00 -6.1140391830e-04 3.0252523117e+00 -5.2398907096e+00 3.0252523117e+00 5.2398907096e+00 
87500 6.3820242696e+00 -6.0635383804e-04 3.0252624167e+00 -5.2399082120e+00 3.0252624167e+00 5.2399082120e+00 
87600 6.3820242773e+00 -6.0134418932e-04 3.0252724383e+00 -5.2399255698e+00 3.0252724383e+00 5.2399255698e+00 
87700 6.3820242851e+00 -5.9637464423e-04 3.0252823769e+00 -5.2399427841e+00 3.0252823769e+00 5.2399427841e+00 
87800 6.3820242928e+00 -5.9144487743e-04 3.0252922335e+00 -5.2399598561e+00 3.0252922335e+00 5.2399598561e+00 
87900 6.3820243005e+00 -5.8655456622e-04 3.0253020085e+00 -5.2399767869e+00 3.0253020085e+00 5.2399767869e+00 
88000 6.3820243083e+00 -5.8170339045e-04 3.0253117026e+00 -5.2399935777e+00 3.0253117026e+00 5.2399935777e+00 
88100 6.3820243160e+00 -5.7689103256e-04 3.0253213166e+00 -5.2400102295e+00 3.0253213166e+00 5.2400102295e+00 
88200 6.3820243237e+00 -5.7211717754e-04 3.0253308510e+00 -5.2400267436e+00 3.0253308510e+00 5.2400267436e+00 
88300 6.3820243314e+00 -5.6738151291e-04 3.0253403064e+00 -5.2400431209e+00 3.0253403064e+00 5.2400431209e+00 
88400 6.3820243391e+00 -5.6268372874e-04 3.0253496836e+00 -5.2400593626e+00 3.0253496836e+00 5.2400593626e+00 
88500 6.3820243468e+00 -5.5802351756e-04 3.0253589830e+00 -5.2400754698e+00 3.0253589830e+00 5.2400754698e+00 
88600 6.3820243544e+00 -5.5340057446e-04 3.0253682055e+00 -5.2400914435e+00 3.0253682055e+00 5.2400914435e+00 
88700 6.3820243621e+00 -5.4881459696e-04 3.0253773515e+00 -5.2401072849e+00 3.0253773515e+00 5.2401072849e+00 
88800 6.3820243697e+00 -5.4426528508e-04 3.0253864217e+00 -5.2401229949e+00 3.0253864217e+00 5.2401229949e+00 
88900 6.3820243774e+00 -5.3975234127e-04 3.0253954167e+00 -5.2401385746e+00 3.0253954167e+00 5.2401385746e+00 
89000 6.3820243850e+00 -5.3527547043e-04 3.0254043370e+00 -5.2401540252e+00 3.0254043370e+00 5.2401540252e+00 
89100 6.3820243926e+00 -5.3083437989e-04 3.0254131834e+00 -5.2401693475e+00 3.0254131834e+00 5.2401693475e+00 
89200 6.3820244002e+00 -5.2642877935e-04 3.0254219563e+00 -5.2401845427e+00 3.0254219563e+00 5.2401845427e+00 
89300 6.3820244078e+00 -5.2205838094e-04 3.0254306564e+00 -5.2401996117e+00 3.0254306564e+00 5.2401996117e+00 
89400 6.3820244153e+00 -5.1772289916e-04 3.0254392842e+00 -5.2402145555e+00 3.0254392842e+00 5.2402145555e+00 
89500 6.3820244228e+00 -5.1342205084e-04 3.0254478404e+00 -5.2402293752e+00 3.0254478404e+00 5.2402293752e+00 
89600 6.3820244304e+00 -5.0915555520e-04 3.0254563255e+00 -5.2402440718e+00 3.0254563255e+00 5.2402440718e+00 
89700 6.3820244378e+00 -5.0492313375e-04 3.0254647400e+00 -5.2402586462e+00 3.0254647400e+00 5.2402586462e+00 
89800 6.3820244453e+00 -5.0072451035e-04 3.0254730846e+00 -5.2402730994e+00 3.0254730846e+00 5.2402730994e+00 
89900 6.3820244528e+00 -4.9655941113e-04 3.0254813597e+00 -5.2402874324e+00 3.0254813597e+00 5.2402874324e+00 
90000 6.3820244602e+00 -4.9242756452e-04 3.0254895660e+00 -5.2403016461e+00 3.0254895660e+00 5.2403016461e+00 
90100 6.3820244676e+00 -4.8832870121e-04 3.0254977040e+00 -5.2403157415e+00 3.0254977040e+00 5.2403157415e+00 
90200 6.3820244750e+00 -4.8426255416e-04 3.0255057742e+00 -5.2403297195e+00 3.0255057742e+00 5.2403297195e+00 
90300 6.3820244824e+00 -4.8022885853e-04 3.0255137772e+00 -5.2403435811e+00 3.0255137772e+00 5.2403435811e+00 
90400 6.3820244897e+00 -4.7622735173e-04 3.0255217135e+00 -5.2403573272e+00 3.0255217135e+00 5.2403573272e+00 
90500 6.3820244970e+00 -4.7225777337e-04 3.0255295837e+00 -5.2403709588e+00 3.0255295837e+00 5.2403709588e+00 
90600 6.3820245043e+00 -4.6831986524e-04 3.0255373883e+00 -5.2403844767e+00 3.0255373883e+00 5.2403844767e+00 
90700 6.3820245115e+00 -4.6441337132e-04 3.0255451277e+00 -5.2403978818e+00 3.0255451277e+00 5.2403978818e+00 
90800 6.3820245188e+00 -4.6053803772e-04 3.0255528026e+00 -5.2404111751e+00 3.0255528026e+00 5.2404111751e+00 
90900 6.3820245260e+00 -4.5669361272e-04 3.0255604134e+00 -5.2404243574e+00 3.0255604134e+00 5.2404243574e+00 
91000 6.3820245332e+00 -4.5287984671e-04 3.0255679607e+00 -5.2404374296e+00 3.0255679607e+00 5.2404374296e+00 
91100 6.3820245403e+00 -4.4909649218e-04 3.0255754449e+00 -5.2404503926e+00 3.0255754449e+00 5.2404503926e+00 
91200 6.3820245474e+00 -4.4534330374e-04 3.0255828665e+00 -5.2404632474e+00 3.0255828665e+00 5.2404632474e+00 
91300 6.3820245545e+00 -4.4162003806e-04 3.0255902262e+00 -5.2404759946e+00 3.0255902262e+00 5.2404759946e+00 
91400 6.3820245616e+00 -4.3792645388e-04 3.0255975243e+00 -5.2404886353e+00 3.0255975243e+00 5.2404886353e+00 
91500 6.3820245686e+00 -4.3426231197e-04 3.0256047613e+00 -5.2405011702e+00 3.0256047613e+00 5.2405011702e+00 
91600 6.3820245756e+00 -4.3062737514e-04 3.0256119377e+00 -5.2405136002e+00 3.0256119377e+00 5.2405136002e+00 
91700 6.3820245826e+00 -4.2702140822e-04 3.0256190541e+00 -5.2405259261e+00 3.0256190541e+00 5.2405259261e+00 
91800 6.3820245896e+00 -4.2344417803e-04 3.0256261109e+00 -5.2405381487e+00 3.0256261109e+00 5.2405381487e+00 
91900 6.3820245965e+00 -4.1989545337e-04 3.0256331085e+00 -5.2405502690e+00 3.0256331085e+00 5.2405502690e+00 
92000 6.3820246034e+00 -4.1637500502e-04 3.0256400475e+00 -5.2405622876e+00 3.0256400475e+00 5.2405622876e+00 
92100 6.3820246102e+00 -4.1288260569e-04 3.0256469283e+00 -5.2405742055e+00 3.0256469283e+00 5.2405742055e+00 
92200 6.3820246170e+00 -4.0941803003e-04 3.0256537513e+00 -5.2405860234e+00 3.0256537513e+00 5.2405860234e+00 
92300 6.3820246238e+00 -4.0598105463e-04 3.0256605171e+00 -5.2405977420e+00 3.0256605171e+00 5.2405977420e+00 
92400 6.3820246306e+00 -4.0257145796e-04 3.0256672261e+00 -5.2406093623e+00 3.0256672261e+00 5.2406093623e+00 
92500 6.3820246373e+00 -3.9918902037e-04 3.0256738787e+00 -5.2406208850e+00 3.0256738787e+00 5.2406208850e+00 
92600 6.3820246440e+00 -3.9583352411e-04 3.0256804754e+00 -5.2406323108e+00 3.0256804754e+00 5.2406323108e+00 
92700 6.3820246506e+00 -3.9250475325e-04 3.0256870166e+00 -5.2406436405e+00 3.0256870166e+00 5.2406436405e+00 
92800 6.3820246573e+00 -3.8920249374e-04 3.0256935028e+00 -5.2406548750e+00 3.0256935028e+00 5.2406548750e+00 
92900 6.3820246638e+00 -3.8592653333e-04 3.0256999344e+00 -5.2406660149e+00 3.0256999344e+00 5.2406660149e+00 
93000 6.3820246704e+00 -3.8267666158e-04 3.0257063119e+00 -5.2406770610e+00 3.0257063119e+00 5.2406770610e+00 
93100 6.3820246769e+00 -3.7945266984e-04 3.0257126357e+00 -5.2406880141e+00 3.0257126357e+00 5.2406880141e+00 
93200 6.3820246834e+00 -3.7625435125e-04 3.0257189061e+00 -5.2406988749e+00 3.0257189061e+00 5.2406988749e+00 
93300 6.3820246898e+00 -3.7308150071e-04 3.0257251237e+00 -5.2407096441e+00 3.0257251237e+00 5.2407096441e+00 
93400 6.3820246963e+00 -3.6993391485e-04 3.0257312889e+00 -5.2407203224e+00 3.0257312889e+00 5.2407203224e+00 
93500 6.3820247026e+00 -3.6681139206e-04 3.0257374020e+00 -5.2407309107e+00 3.0257374020e+00 5.2407309107e+00 
93600 6.3820247090e+00 -3.6371373243e-04 3.0257434636e+00 -5.2407414096e+00 3.0257434636e+00 5.2407414096e+00 
93700 6.3820247153e+00 -3.6064073775e-04 3.0257494739e+00 -5.2407518197e+00 3.0257494739e+00 5.2407518197e+00 
93800 6.3820247216e+00 -3.5759221151e-04 3.0257554334e+00 -5.2407621419e+00 3.0257554334e+00 5.2407621419e+00 
93900 6.3820247278e+00 -3.5456795884e-04 3.0257613426e+00 -5.2407723769e+00 3.0257613426e+00 5.2407723769e+00 
94000 6.3820247340e+00 -3.5156778657e-04 3.0257672017e+00 -5.2407825252e+00 3.0257672017e+00 5.2407825252e+00 
94100 6.3820247402e+00 -3.4859150315e-04 3.0257730113e+00 -5.2407925877e+00 3.0257730113e+00 5.2407925877e+00 
94200 6.3820247463e+00 -3.4563891865e-04 3.0257787716e+00 -5.2408025650e+00 3.0257787716e+00 5.2408025650e+00 
94300 6.3820247524e+00 -3.4270984476e-04 3.0257844832e+00 -5.2408124577e+00 3.0257844832e+00 5.2408124577e+00 
94400 6.3820247584e+00 -3.3980409477e-04 3.0257901464e+00 -5.2408222666e+00 3.0257901464e+00 5.2408222666e+00 
94500 6.3820247645e+00 -3.3692148355e-04 3.0257957615e+00 -5.2408319923e+00 3.0257957615e+00 5.2408319923e+00 
94600 6.3820247704e+00 -3.3406182755e-04 3.0258013290e+00 -5.2408416354e+00 3.0258013290e+00 5.2408416354e+00 
94700 6.3820247764e+00 -3.3122494474e-04 3.0258068492e+00 -5.2408511967e+00 3.0258068492e+00 5.2408511967e+00 
94800 6.3820247823e+00 -3.2841065468e-04 3.0258123226e+00 -5.2408606768e+00 3.0258123226e+00 5.2408606768e+00 
94900 6.3820247882e+00 -3.2561877842e-04 3.0258177494e+00 -5.2408700764e+00 3.0258177494e+00 5.2408700764e+00 
95000 6.3820247940e+00 -3.2284913854e-04 3.0258231300e+00 -5.2408793960e+00 3.0258231300e+00 5.2408793960e+00 
95100 6.3820247998e+00 -3.2010155910e-04 3.0258284649e+00 -5.2408886363e+00 3.0258284649e+00 5.2408886363e+00 
95200 6.3820248056e+00 -3.1737586566e-04 3.0258337544e+00 -5.2408977979e+00 3.0258337544e+00 5.2408977979e+00 
95300 6.3820248113e+00 -3.1467188525e-04 3.0258389989e+00 -5.2409068816e+00 3.0258389989e+00 5.2409068816e+00 
95400 6.3820248170e+00 -3.1198944635e-04 3.0258441986e+00 -5.2409158878e+00 3.0258441986e+00 5.2409158878e+00 
95500 6.3820248226e+00 -3.0932837888e-04 3.0258493540e+00 -5.2409248172e+00 3.0258493540e+00 5.2409248172e+00 
95600 6.3820248282e+00 -3.0668851419e-04 3.0258544655e+00 -5.2409336705e+00 3.0258544655e+00 5.2409336705e+00 
95700 6.3820248338e+00 -3.0406968507e-04 3.0258595333e+00 -5.2409424482e+00 3.0258595333e+00 5.2409424482e+00 
95800 6.3820248393e+00 -3.0147172567e-04 3.0258645578e+00 -5.2409511509e+00 3.0258645578e+00 5.2409511509e+00 
95900 6.3820248448e+00 -2.9889447157e-04 3.0258695394e+00 -5.2409597793e+00 3.0258695394e+00 5.2409597793e+00 
96000 6.3820248503e+00 -2.9633775971e-04 3.0258744784e+00 -5.2409683338e+00 3.0258744784e+00 5.2409683338e+00 
96100 6.3820248557e+00 -2.9380142838e-04 3.0258793751e+00 -5.2409768152e+00 3.0258793751e+00 5.2409768152e+00 
96200 6.3820248611e+00 -2.9128531725e-04 3.0258842299e+00 -5.2409852240e+00 3.0258842299e+00 5.2409852240e+00 
96300 6.3820248665e+00 -2.8878926731e-04 3.0258890431e+00 -5.2409935608e+00 3.0258890431e+00 5.2409935608e+00 
96400 6.3820248718e+00 -2.8631312087e-04 3.0258938151e+00 -5.2410018261e+00 3.0258938151e+00 5.2410018261e+00 
96500 6.3820248771e+00 -2.8385672157e-04 3.0258985462e+00 -5.2410100205e+00 3.0258985462e+00 5.2410100205e+00 
96600 6.3820248823e+00 -2.8141991433e-04 3.0259032366e+00 -5.2410181446e+00 3.0259032366e+00 5.2410181446e+00 
96700 6.3820248875e+00 -2.7900254538e-04 3.0259078868e+00 -5.2410261989e+00 3.0259078868e+00 5.2410261989e+00 
96800 6.3820248927e+00 -2.7660446221e-04 3.0259124970e+00 -5.2410341841e+00 3.0259124970e+00 5.2410341841e+00 
96900 6.3820248978e+00 -2.7422551358e-04 3.0259170676e+00 -5.2410421006e+00 3.0259170676e+00 5.2410421006e+00 
97000 6.3820249029e+00 -2.7186554950e-04 3.0259215989e+00 -5.2410499490e+00 3.0259215989e+00 5.2410499490e+00 
97100 6.3820249080e+00 -2.6952442122e-04 3.0259260912e+00 -5.2410577299e+00 3.0259260912e+00 5.2410577299e+00 
97200 6.3820249130e+00 -2.6720198122e-04 3.0259305448e+00 -5.2410654437e+00 3.0259305448e+00 5.2410654437e+00 
97300 6.3820249180e+00 -2.6489808319e-04 3.0259349600e+00 -5.2410730911e+00 3.0259349600e+00 5.2410730911e+00 
97400 6.3820249229e+00 -2.6261258204e-04 3.0259393371e+00 -5.2410806725e+00 3.0259393371e+00 5.2410806725e+00 
97500 6.3820249279e+00 -2.6034533385e-04 3.0259436765e+00 -5.2410881885e+00 3.0259436765e+00 5.2410881885e+00 
97600 6.3820249327e+00 -2.5809619591e-04 3.0259479783e+00 -5.2410956395e+00 3.0259479783e+00 5.2410956395e+00 
97700 6.3820249376e+00 -2.5586502665e-04 3.0259522431e+00 -5.2411030262e+00 3.0259522431e+00 5.2411030262e+00 
97800 6.3820249424e+00 -2.5365168569e-04 3.0259564709e+00 -5.2411103491e+00 3.0259564709e+00 5.2411103491e+00 
97900 6.3820249471e+00 -2.5145603377e-04 3.0259606622e+00 -5.2411176086e+00 3.0259606622e+00 5.2411176086e+00 
98000 6.3820249519e+00 -2.4927793280e-04 3.0259648171e+00 -5.2411248052e+00 3.0259648171e+00 5.2411248052e+00 
98100 6.3820249566e+00 -2.4711724579e-04 3.0259689361e+00 -5.2411319395e+00 3.0259689361e+00 5.2411319395e+00 
98200 6.3820249612e+00 -2.4497383687e-04 3.0259730194e+00 -5.2411390119e+00 3.0259730194e+00 5.2411390119e+00 
98300 6.3820249658e+00 -2.4284757129e-04 3.0259770673e+00 -5.2411460230e+00 3.0259770673e+00 5.2411460230e+00 
98400 6.3820249704e+00 -2.4073831538e-04 3.0259810800e+00 -5.2411529733e+00 3.0259810800e+00 5.2411529733e+00 
98500 6.3820249750e+00 -2.3864593657e-04 3.0259850578e+00 -5.2411598631e+00 3.0259850578e+00 5.2411598631e+00 
98600 6.3820249795e+00 -2.3657030335e-04 3.0259890011e+00 -5.2411666931e+00 3.0259890011e+00 5.2411666931e+00 
98700 6.3820249840e+00 -2.3451128529e-04 3.0259929101e+00 -5.2411734636e+00 3.0259929101e+00 5.2411734636e+00 
98800 6.3820249884e+00 -2.3246875299e-04 3.0259967850e+00 -5.2411801752e+00 3.0259967850e+00 5.2411801752e+00 
98900 6.3820249928e+00 -2.3044257813e-04 3.0260006262e+00 -5.2411868284e+00 3.0260006262e+00 5.2411868284e+00 
99000 6.3820249972e+00 -2.2843263340e-04 3.0260044339e+00 -5.2411934235e+00 3.0260044339e+00 5.2411934235e+00 
99100 6.3820250016e+00 -2.2643879250e-04 3.0260082084e+00 -5.2411999611e+00 3.0260082084e+00 5.2411999611e+00 
99200 6.3820250059e+00 -2.2446093020e-04 3.0260119500e+00 -5.2412064417e+00 3.0260119500e+00 5.2412064417e+00 
99300 6.3820250102e+00 -2.2249892222e-04 3.0260156588e+00 -5.2412128656e+00 3.0260156588e+00 5.2412128656e+00 
99400 6.3820250144e+00 -2.2055264531e-04 3.0260193353e+00 -5.2412192334e+00 3.0260193353e+00 5.2412192334e+00 
99500 6.3820250186e+00 -2.1862197719e-04 3.0260229795e+00 -5.2412255454e+00 3.0260229795e+00 5.2412255454e+00 
99600 6.3820250228e+00 -2.1670679657e-04 3.0260265919e+00 -5.2412318022e+00 3.0260265919e+00 5.2412318022e+00 
99700 6.3820250269e+00 -2.1480698313e-04 3.0260301726e+00 -5.2412380042e+00 3.0260301726e+00 5.2412380042e+00 
99800 6.3820250310e+00 -2.1292241749e-04 3.0260337219e+00 -5.2412441518e+00 3.0260337219e+00 5.2412441518e+00 
99900 6.3820250351e+00 -2.1105298125e-04 3.0260372401e+00 -5.2412502455e+00 3.0260372401e+00 5.2412502455e+00 
100000 6.3820250391e+00 -2.0919855693e-04 3.0260407274e+00 -5.2412562856e+00 3.0260407274e+00 5.2412562856e+00 
100100 6.3820250431e+00 -2.0735902800e-04 3.0260441840e+00 -5.2412622727e+00 3.0260441840e+00 5.2412622727e+00 
100200 6.3820250471e+00 -2.0553427885e-04 3.0260476103e+00 -5.2412682071e+00 3.0260476103e+00 5.2412682071e+00 
100300 6.3820250510e+00 -2.0372419479e-04 3.0260510064e+00 -5.2412740893e+00 3.0260510064e+00 5.2412740893e+00 
100400 6.3820250549e+00 -2.0192866202e-04 3.0260543725e+00 -5.2412799197e+00 3.0260543725e+00 5.2412799197e+00 
100500 6.3820250588e+00 -2.0014756766e-04 3.0260577090e+00 -5.2412856987e+00 3.0260577090e+00 5.2412856987e+00 
100600 6.3820250626e+00 -1.9838079972e-04 3.0260610161e+00 -5.2412914267e+00 3.0260610161e+00 5.2412914267e+00 
100700 6.3820250664e+00 -1.9662824710e-04 3.0260642940e+00 -5.2412971041e+00 3.0260642940e+00 5.2412971041e+00 
100800 6.3820250702e+00 -1.9488979955e-04 3.0260675429e+00 -5.2413027314e+00 3.0260675429e+00 5.2413027314e+00 
100900 6.3820250739e+00 -1.9316534772e-04 3.0260707631e+00 -5.2413083089e+00 3.0260707631e+00 5.2413083089e+00 
101000 6.3820250777e+00 -1.9145478310e-04 3.0260739548e+00 -5.2413138371e+00 3.0260739548e+00 5.2413138371e+00 
101100 6.3820250813e+00 -1.8975799804e-04 3.0260771182e+00 -5.2413193163e+00 3.0260771182e+00 5.2413193163e+00 
101200 6.3820250850e+00 -1.8807488574e-04 3.0260802536e+00 -5.2413247469e+00 3.0260802536e+00 5.2413247469e+00 
101300 6.3820250886e+00 -1.8640534022e-04 3.0260833611e+00 -5.2413301294e+00 3.0260833611e+00 5.2413301294e+00 
101400 6.3820250922e+00 -1.8474925634e-04 3.0260864411e+00 -5.2413354641e+00 3.0260864411e+00 5.2413354641e+00 
101500 6.3820250957e+00 -1.8310652980e-04 3.0260894937e+00 -5.2413407514e+00 3.0260894937e+00 5.2413407514e+00 
101600 6.3820250992e+00 -1.8147705709e-04 3.0260925192e+00 -5.2413459916e+00 3.0260925192e+00 5.2413459916e+00 
101700 6.3820251027e+00 -1.7986073552e-04 3.0260955177e+00 -5.2413511852e+00 3.0260955177e+00 5.2413511852e+00 
101800 6.3820251062e+00 -1.7825746320e-04 3.0260984895e+00 -5.2413563326e+00 3.0260984895e+00 5.2413563326e+00 
101900 6.3820251096e+00 -1.7666713903e-04 3.0261014349e+00 -5.2413614341e+00 3.0261014349e+00 5.2413614341e+00 
102000 6.3820251130e+00 -1.7508966271e-04 3.0261043539e+00 -5.2413664900e+00 3.0261043539e+00 5.2413664900e+00 
102100 6.3820251164e+00 -1.7352493471e-04 3.0261072469e+00 -5.2413715008e+00 3.0261072469e+00 5.2413715008e+00 
102200 6.3820251197e+00 -1.7197285626e-04 3.0261101141e+00 -5.2413764668e+00 3.0261101141e+00 5.2413764668e+00 
102300 6.3820251230e+00 -1.7043332940e-04 3.0261129555e+00 -5.2413813884e+00 3.0261129555e+00 5.2413813884e+00 
102400 6.3820251263e+00 -1.6890625688e-04 3.0261157716e+00 -5.2413862660e+00 3.0261157716e+00 5.2413862660e+00 
102500 6.3820251296e+00 -1.6739154223e-04 3.0261185624e+00 -5.2413910998e+00 3.0261185624e+00 5.2413910998e+00 
102600 6.3820251328e+00 -1.6588908973e-04 3.0261213282e+00 -5.2413958903e+00 3.0261213282e+00 5.2413958903e+00 
102700 6.3820251360e+00 -1.6439880440e-04 3.0261240691e+00 -5.2414006377e+00 3.0261240691e+00 5.2414006377e+00 
102800 6.3820251391e+00 -1.6292059198e-04 3.0261267855e+00 -5.2414053425e+00 3.0261267855e+00 5.2414053425e+00 
102900 6.3820251423e+00 -1.6145435894e-04 3.0261294774e+00 -5.2414100051e+00 3.0261294774e+00 5.2414100051e+00 
103000 6.3820251454e+00 -1.6000001250e-04 3.0261321450e+00 -5.2414146256e+00 3.0261321450e+00 5.2414146256e+00 
103100 6.3820251484e+00 -1.5855746057e-04 3.0261347887e+00 -5.2414192045e+00 3.0261347887e+00 5.2414192045e+00 
103200 6.3820251515e+00 -1.5712661177e-04 3.0261374085e+00 -5.2414237421e+00 3.0261374085e+00 5.2414237421e+00 
103300 6.3820251545e+00 -1.5570737543e-04 3.0261400046e+00 -5.2414282388e+00 3.0261400046e+00 5.2414282388e+00 
103400 6.3820251575e+00 -1.5429966159e-04 3.0261425773e+00 -5.2414326949e+00 3.0261425773e+00 5.2414326949e+00 
103500 6.3820251605e+00 -1.5290338096e-04 3.0261451268e+00 -5.2414371107e+00 3.0261451268e+00 5.2414371107e+00 
103600 6.3820251634e+00 -1.5151844495e-04 3.0261476531e+00 -5.2414414865e+00 3.0261476531e+00 5.2414414865e+00 
103700 6.3820251663e+00 -1.5014476566e-04 3.0261501566e+00 -5.2414458226e+00 3.0261501566e+00 5.2414458226e+00 
103800 6.3820251692e+00 -1.4878225584e-04 3.0261526374e+00 -5.2414501195e+00 3.0261526374e+00 5.2414501195e+00 
103900 6.3820251720e+00 -1.4743082894e-04 3.0261550957e+00 -5.2414543773e+00 3.0261550957e+00 5.2414543773e+00 
104000 6.3820251749e+00 -1.4609039904e-04 3.0261575316e+00 -5.2414585965e+00 3.0261575316e+00 5.2414585965e+00 
104100 6.3820251777e+00 -1.4476088091e-04 3.0261599454e+00 -5.2414627773e+00 3.0261599454e+00 5.2414627773e+00 
104200 6.3820251805e+00 -1.4344218996e-04 3.0261623373e+00 -5.2414669201e+00 3.0261623373e+00 5.2414669201e+00 
104300 6.3820251832e+00 -1.4213424225e-04 3.0261647073e+00 -5.2414710251e+00 3.0261647073e+00 5.2414710251e+00 
104400 6.3820251859e+00 -1.4083695448e-04 3.0261670557e+00 -5.2414750927e+00 3.0261670557e+00 5.2414750927e+00 
104500 6.3820251886e+00 -1.3955024399e-04 3.0261693827e+00 -5.2414791232e+00 3.0261693827e+00 5.2414791232e+00 
104600 6.3820251913e+00 -1.3827402876e-04 3.0261716884e+00 -5.2414831168e+00 3.0261716884e+00 5.2414831168e+00 
104700 6.3820251939e+00 -1.3700822738e-04 3.0261739731e+00 -5.2414870739e+00 3.0261739731e+00 5.2414870739e+00 
104800 6.3820251966e+00 -1.3575275908e-04 3.0261762368e+00 -5.2414909948e+00 3.0261762368e+00 5.2414909948e+00 
104900 6.3820251992e+00 -1.3450754370e-04 3.0261784798e+00 -5.2414948797e+00 3.0261784798e+00 5.2414948797e+00 
105000 6.3820252017e+00 -1.3327250168e-04 3.0261807022e+00 -5.2414987290e+00 3.0261807022e+00 5.2414987290e+00 
105100 6.3820252043e+00 -1.3204755409e-04 3.0261829042e+00 -5.2415025430e+00 3.0261829042e+00 5.2415025430e+00 
105200 6.3820252068e+00 -1.3083262261e-04 3.0261850859e+00 -5.2415063219e+00 3.0261850859e+00 5.2415063219e+00 
105300 6.3820252093e+00 -1.2962762947e-04 3.0261872476e+00 -5.2415100660e+00 3.0261872476e+00 5.2415100660e+00 
105400 6.3820252118e+00 -1.2843249755e-04 3.0261893893e+00 -5.2415137757e+00 3.0261893893e+00 5.2415137757e+00 
105500 6.3820252142e+00 -1.2724715028e-04 3.0261915114e+00 -5.2415174511e+00 3.0261915114e+00 5.2415174511e+00 
105600 6.3820252166e+00 -1.2607151169e-04 3.0261936138e+00 -5.2415210926e+00 3.0261936138e+00 5.2415210926e+00 
105700 6.3820252190e+00 -1.2490550638e-04 3.0261956968e+00 -5.2415247005e+00 3.0261956968e+00 5.2415247005e+00 
105800 6.3820252214e+00 -1.2374905956e-04 3.0261977605e+00 -5.2415282750e+00 3.0261977605e+00 5.2415282750e+00 
105900 6.3820252238e+00 -1.2260209695e-04 3.0261998052e+00 -5.2415318164e+00 3.0261998052e+00 5.2415318164e+00 
106000 6.3820252261e+00 -1.2146454488e-04 3.0262018308e+00 -5.2415353250e+00 3.0262018308e+00 5.2415353250e+00 
106100 6.3820252284e+00 -1.2033633024e-04 3.0262038377e+00 -5.2415388010e+00 3.0262038377e+00 5.2415388010e+00 
106200 6.3820252307e+00 -1.1921738045e-04 3.0262058260e+00 -5.2415422447e+00 3.0262058260e+00 5.2415422447e+00 
106300 6.3820252329e+00 -1.1810762352e-04 3.0262077957e+00 -5.2415456564e+00 3.0262077957e+00 5.2415456564e+00 
106400 6.3820252352e+00 -1.1700698798e-04 3.0262097471e+00 -5.2415490364e+00 3.0262097471e+00 5.2415490364e+00 
106500 6.3820252374e+00 -1.1591540290e-04 3.0262116804e+00 -5.2415523848e+00 3.0262116804e+00 5.2415523848e+00 
106600 6.3820252396e+00 -1.1483279792e-04 3.0262135955e+00 -5.2415557020e+00 3.0262135955e+00 5.2415557020e+00 
106700 6.3820252418e+00 -1.1375910320e-04 3.0262154928e+00 -5.2415589883e+00 3.0262154928e+00 5.2415589883e+00 
106800 6.3820252439e+00 -1.1269424943e-04 3.0262173724e+00 -5.2415622438e+00 3.0262173724e+00 5.2415622438e+00 
106900 6.3820252461e+00 -1.1163816783e-04 3.0262192344e+00 -5.2415654688e+00 3.0262192344e+00 5.2415654688e+00 
107000 6.3820252482e+00 -1.1059079014e-04 3.0262210789e+00 -5.2415686636e+00 3.0262210789e+00 5.2415686636e+00 
107100 6.3820252502e+00 -1.0955204862e-04 3.0262229061e+00 -5.2415718284e+00 3.0262229061e+00 5.2415718284e+00 
107200 6.3820252523e+00 -1.0852187606e-04 3.0262247161e+00 -5.2415749635e+00 3.0262247161e+00 5.2415749635e+00 
107300 6.3820252544e+00 -1.0750020575e-04 3.0262265092e+00 -5.2415780691e+00 3.0262265092e+00 5.2415780691e+00 
107400 6.3820252564e+00 -1.0648697149e-04 3.0262282853e+00 -5.2415811455e+00 3.0262282853e+00 5.2415811455e+00 
107500 6.3820252584e+00 -1.0548210758e-04 3.0262300447e+00 -5.2415841928e+00 3.0262300447e+00 5.2415841928e+00 
107600 6.3820252604e+00 -1.0448554882e-04 3.0262317875e+00 -5.2415872114e+00 3.0262317875e+00 5.2415872114e+00 
107700 6.3820252623e+00 -1.0349723053e-04 3.0262335138e+00 -5.2415902015e+00 3.0262335138e+00 5.2415902015e+00 
107800 6.3820252643e+00 -1.0251708849e-04 3.0262352238e+00 -5.2415931633e+00 3.0262352238e+00 5.2415931633e+00 
107900 6.3820252662e+00 -1.0154505899e-04 3.0262369176e+00 -5.2415960971e+00 3.0262369176e+00 5.2415960971e+00 
108000 6.3820252681e+00 -1.0058107879e-04 3.0262385954e+00 -5.2415990030e+00 3.0262385954e+00 5.2415990030e+00 
108100 6.3820252700e+00 -9.9625085156e-05 3.0262402572e+00 -5.2416018814e+00 3.0262402572e+00 5.2416018814e+00 
108200 6.3820252718e+00 -9.8677015806e-05 3.0262419032e+00 -5.2416047324e+00 3.0262419032e+00 5.2416047324e+00 
108300 6.3820252737e+00 -9.7736808949e-05 3.0262435336e+00 -5.2416075562e+00 3.0262435336e+00 5.2416075562e+00 
108400 6.3820252755e+00 -9.6804403261e-05 3.0262451484e+00 -5.2416103532e+00 3.0262451484e+00 5.2416103532e+00 
108500 6.3820252773e+00 -9.5879737881e-05 3.0262467478e+00 -5.2416131235e+00 3.0262467478e+00 5.2416131235e+00 
108600 6.3820252791e+00 -9.4962752419e-05 3.0262483320e+00 -5.2416158673e+00 3.0262483320e+00 5.2416158673e+00 
108700 6.3820252809e+00 -9.4053386944e-05 3.0262499009e+00 -5.2416185848e+00 3.0262499009e+00 5.2416185848e+00 
108800 6.3820252826e+00 -9.3151581979e-05 3.0262514549e+00 -5.2416212764e+00 3.0262514549e+00 5.2416212764e+00 
108900 6.3820252843e+00 -9.2257278505e-05 3.0262529940e+00 -5.2416239421e+00 3.0262529940e+00 5.2416239421e+00 
109000 6.3820252861e+00 -9.1370417949e-05 3.0262545182e+00 -5.2416265822e+00 3.0262545182e+00 5.2416265822e+00 
109100 6.3820252878e+00 -9.0490942189e-05 3.0262560279e+00 -5.2416291970e+00 3.0262560279e+00 5.2416291970e+00 
109200 6.3820252894e+00 -8.9618793541e-05 3.0262575230e+00 -5.2416317866e+00 3.0262575230e+00 5.2416317866e+00 
109300 6.3820252911e+00 -8.8753914772e-05 3.0262590037e+00 -5.2416343512e+00 3.0262590037e+00 5.2416343512e+00 
109400 6.3820252927e+00 -8.7896249075e-05 3.0262604701e+00 -5.2416368911e+00 3.0262604701e+00 5.2416368911e+00 
109500 6.3820252944e+00 -8.7045740082e-05 3.0262619223e+00 -5.2416394064e+00 3.0262619223e+00 5.2416394064e+00 
109600 6.3820252960e+00 -8.6202331851e-05 3.0262633605e+00 -5.2416418974e+00 3.0262633605e+00 5.2416418974e+00 
109700 6.3820252976e+00 -8.5365968877e-05 3.0262647847e+00 -5.2416443642e+00 3.0262647847e+00 5.2416443642e+00 
109800 6.3820252991e+00 -8.4536596073e-05 3.0262661951e+00 -5.2416468072e+00 3.0262661951e+00 5.2416468072e+00 
109900 6.3820253007e+00 -8.3714158769e-05 3.0262675918e+00 -5.2416492263e+00 3.0262675918e+00 5.2416492263e+00 
110000 6.3820253022e+00 -8.2898602721e-05 3.0262689749e+00 -5.2416516220e+00 3.0262689749e+00 5.2416516220e+00 
110100 6.3820253037e+00 -8.2089874093e-05 3.0262703446e+00 -5.2416539943e+00 3.0262703446e+00 5.2416539943e+00 
110200 6.3820253053e+00 -8.1287919466e-05 3.0262717009e+00 -5.2416563434e+00 3.0262717009e+00 5.2416563434e+00 
110300 6.3820253067e+00 -8.0492685831e-05 3.0262730439e+00 -5.2416586697e+00 3.0262730439e+00 5.2416586697e+00 
110400 6.3820253082e+00 -7.9704120572e-05 3.0262743738e+00 -5.2416609731e+00 3.0262743738e+00 5.2416609731e+00 
110500 6.3820253097e+00 -7.8922171494e-05 3.0262756907e+00 -5.2416632540e+00 3.0262756907e+00 5.2416632540e+00 
110600 6.3820253111e+00 -7.8146786786e-05 3.0262769946e+00 -5.2416655125e+00 3.0262769946e+00 5.2416655125e+00 
110700 6.3820253125e+00 -7.7377915045e-05 3.0262782858e+00 -5.2416677488e+00 3.0262782858e+00 5.2416677488e+00 
110800 6.3820253140e+00 -7.6615505252e-05 3.0262795642e+00 -5.2416699631e+00 3.0262795642e+00 5.2416699631e+00 
110900 6.3820253154e+00 -7.5859506782e-05 3.0262808300e+00 -5.2416721556e+00 3.0262808300e+00 5.2416721556e+00 
111000 6.3820253167e+00 -7.5109869403e-05 3.0262820834e+00 -5.2416743265e+00 3.0262820834e+00 5.2416743265e+00 
111100 6.3820253181e+00 -7.4366543260e-05 3.0262833244e+00 -5.2416764759e+00 3.0262833244e+00 5.2416764759e+00 
111200 6.3820253195e+00 -7.3629478885e-05 3.0262845530e+00 -5.2416786040e+00 3.0262845530e+00 5.2416786040e+00 
111300 6.3820253208e+00 -7.2898627189e-05 3.0262857695e+00 -5.2416807110e+00 3.0262857695e+00 5.2416807110e+00 
111400 6.3820253221e+00 -7.2173939457e-05 3.0262869740e+00 -5.2416827972e+00 3.0262869740e+00 5.2416827972e+00 
111500 6.3820253234e+00 -7.1455367349e-05 3.0262881664e+00 -5.2416848626e+00 3.0262881664e+00 5.2416848626e+00 
111600 6.3820253247e+00 -7.0742862897e-05 3.0262893470e+00 -5.2416869074e+00 3.0262893470e+00 5.2416869074e+00 
111700 6.3820253260e+00 -7.0036378496e-05 3.0262905158e+00 -5.2416889318e+00 3.0262905158e+00 5.2416889318e+00 
111800 6.3820253273e+00 -7.0093890835e-05 3.0262905158e+00 -5.2416889318e+00 3.0262905158e+00 5.2416889318e+00 
111900 6.3820253286e+00 -7.0160375988e-05 3.0262905158e+00 -5.2416889318e+00 3.0262905158e+00 5.2416889318e+00 
112000 6.3820253299e+00 -7.0235202919e-05 3.0262905158e+00 -5.2416889318e+00 3.0262905158e+00 5.2416889318e+00 
112100 6.3820253312e+00 -7.0317824438e-05 3.0262905158e+00 -5.2416889318e+00 3.0262905158e+00 5.2416889318e+00 
112200 6.3820253324e+00 -7.0407763921e-05 3.0262905158e+00 -5.2416889318e+00 3.0262905158e+00 5.2416889318e+00 
112300 6.3820253337e+00 -7.0504604099e-05 3.0262905158e+00 -5.2416889318e+00 3.0262905158e+00 5.2416889318e+00 
112400 6.3820253349e+00 -7.0607977545e-05 3.0262905158e+00 -5.2416889318e+00 3.0262905158e+00 5.2416889318e+00 
112500 6.3820253361e+00 -7.0717558605e-05 3.0262905158e+00 -5.2416889318e+00 3.0262905158e+00 5.2416889318e+00 
112600 6.3820253373e+00 -7.0067649905e-05 3.0262916842e+00 -5.2416909555e+00 3.0262916842e+00 5.2416909555e+00 
112700 6.3820253384e+00 -7.0178071724e-05 3.0262916842e+00 -5.2416909555e+00 3.0262916842e+00 5.2416909555e+00 
112800 6.3820253396e+00 -7.0294458472e-05 3.0262916842e+00 -5.2416909555e+00 3.0262916842e+00 5.2416909555e+00 
112900 6.3820253408e+00 -7.0416513906e-05 3.0262916842e+00 -5.2416909555e+00 3.0262916842e+00 5.2416909555e+00 
113000 6.3820253419e+00 -7.0543970568e-05 3.0262916842e+00 -5.2416909555e+00 3.0262916842e+00 5.2416909555e+00 
113100 6.3820253431e+00 -7.0676584795e-05 3.0262916842e+00 -5.2416909555e+00 3.0262916842e+00 5.2416909555e+00 
113200 6.3820253442e+00 -7.0814132526e-05 3.0262916842e+00 -5.2416909555e+00 3.0262916842e+00 5.2416909555e+00 
113300 6.3820253452e+00 -7.0189947564e-05 3.0262928542e+00 -5.2416929820e+00 3.0262928542e+00 5.2416929820e+00 
113400 6.3820253463e+00 -7.0326006269e-05 3.0262928542e+00 -5.2416929820e+00 3.0262928542e+00 5.2416929820e+00 
113500 6.3820253474e+00 -7.0466959677e-05 3.0262928542e+00 -5.2416929820e+00 3.0262928542e+00 5.2416929820e+00 
113600 6.3820253485e+00 -7.0612553708e-05 3.0262928542e+00 -5.2416929820e+00 3.0262928542e+00 5.2416929820e+00 
113700 6.3820253496e+00 -7.0762553718e-05 3.0262928542e+00 -5.2416929820e+00 3.0262928542e+00 5.2416929820e+00 
113800 6.3820253505e+00 -7.0150837544e-05 3.0262940233e+00 -5.2416950070e+00 3.0262940233e+00 5.2416950070e+00 
113900 6.3820253516e+00 -7.0298269900e-05 3.0262940233e+00 -5.2416950070e+00 3.0262940233e+00 5.2416950070e+00 
114000 6.3820253526e+00 -7.0450037577e-05 3.0262940233e+00 -5.2416950070e+00 3.0262940233e+00 5.2416950070e+00 
114100 6.3820253536e+00 -7.0605876700e-05 3.0262940233e+00 -5.2416950070e+00 3.0262940233e+00 5.2416950070e+00 
114200 6.3820253546e+00 -7.0765543344e-05 3.0262940233e+00 -5.2416950070e+00 3.0262940233e+00 5.2416950070e+00 
114300 6.3820253555e+00 -7.0162871173e-05 3.0262951925e+00 -5.2416970320e+00 3.0262951925e+00 5.2416970320e+00 
114400 6.3820253565e+00 -7.0318788001e-05 3.0262951925e+00 -5.2416970320e+00 3.0262951925e+00 5.2416970320e+00 
114500 6.3820253575e+00 -7.0478438079e-05 3.0262951925e+00 -5.2416970320e+00 3.0262951925e+00 5.2416970320e+00 
114600 6.3820253584e+00 -7.0641551338e-05 3.0262951925e+00 -5.2416970320e+00 3.0262951925e+00 5.2416970320e+00 
114700 6.3820253594e+00 -7.0807878600e-05 3.0262951925e+00 -5.2416970320e+00 3.0262951925e+00 5.2416970320e+00 
114800 6.3820253603e+00 -7.0210788210e-05 3.0262963623e+00 -5.2416990583e+00 3.0262963623e+00 5.2416990583e+00 
114900 6.3820253612e+00 -7.0372120659e-05 3.0262963623e+00 -5.2416990583e+00 3.0262963623e+00 5.2416990583e+00 
115000 6.3820253621e+00 -7.0536563248e-05 3.0262963623e+00 -5.2416990583e+00 3.0262963623e+00 5.2416990583e+00 
115100 6.3820253630e+00 -7.0703844580e-05 3.0262963623e+00 -5.2416990583e+00 3.0262963623e+00 5.2416990583e+00 
115200 6.3820253639e+00 -7.0873715148e-05 3.0262963623e+00 -5.2416990583e+00 3.0262963623e+00 5.2416990583e+00 
115300 6.3820253647e+00 -7.0278828910e-05 3.0262975333e+00 -5.2417010865e+00 3.0262975333e+00 5.2417010865e+00 
115400 6.3820253656e+00 -7.0442448454e-05 3.0262975333e+00 -5.2417010865e+00 3.0262975333e+00 5.2417010865e+00 
115500 6.3820253664e+00 -7.0608558772e-05 3.0262975333e+00 -5.2417010865e+00 3.0262975333e+00 5.2417010865e+00 
115600 6.3820253673e+00 -7.0776891913e-05 3.0262975333e+00 -5.2417010865e+00 3.0262975333e+00 5.2417010865e+00 
115700 6.3820253680e+00 -7.0181134034e-05 3.0262987027e+00 -5.2417031119e+00 3.0262987027e+00 5.2417031119e+00 
115800 6.3820253689e+00 -7.0342458939e-05 3.0262987027e+00 -5.2417031119e+00 3.0262987027e+00 5.2417031119e+00 
115900 6.3820253697e+00 -7.0505874776e-05 3.0262987027e+00 -5.2417031119e+00 3.0262987027e+00 5.2417031119e+00 
116000 6.3820253705e+00 -7.0671108751e-05 3.0262987027e+00 -5.2417031119e+00 3.0262987027e+00 5.2417031119e+00 
116100 6.3820253713e+00 -7.0837913204e-05 3.0262987027e+00 -5.2417031119e+00 3.0262987027e+00 5.2417031119e+00 
116200 6.3820253720e+00 -7.0239330888e-05 3.0262998730e+00 -5.2417051390e+00 3.0262998730e+00 5.2417051390e+00 
116300 6.3820253728e+00 -7.0397869571e-05 3.0262998730e+00 -5.2417051390e+00 3.0262998730e+00 5.2417051390e+00 
116400 6.3820253736e+00 -7.0557901725e-05 3.0262998730e+00 -5.2417051390e+00 3.0262998730e+00 5.2417051390e+00 
116500 6.3820253743e+00 -7.0719171276e-05 3.0262998730e+00 -5.2417051390e+00 3.0262998730e+00 5.2417051390e+00 
116600 6.3820253750e+00 -7.0115999843e-05 3.0263010415e+00 -5.2417071628e+00 3.0263010415e+00 5.2417071628e+00 
116700 6.3820253758e+00 -7.0268342613e-05 3.0263010415e+00 -5.2417071628e+00 3.0263010415e+00 5.2417071628e+00 
116800 6.3820253765e+00 -7.0421836705e-05 3.0263010415e+00 -5.2417071628e+00 3.0263010415e+00 5.2417071628e+00 
116900 6.3820253772e+00 -7.0576227822e-05 3.0263010415e+00 -5.2417071628e+00 3.0263010415e+00 5.2417071628e+00 
117000 6.3820253779e+00 -7.0731288025e-05 3.0263010415e+00 -5.2417071628e+00 3.0263010415e+00 5.2417071628e+00 
117100 6.3820253786e+00 -7.0121232311e-05 3.0263022101e+00 -5.2417091869e+00 3.0263022101e+00 5.2417091869e+00 
117200 6.3820253793e+00 -7.0266304023e-05 3.0263022101e+00 -5.2417091869e+00 3.0263022101e+00 5.2417091869e+00 
117300 6.3820253800e+00 -7.0412032191e-05 3.0263022101e+00 -5.2417091869e+00 3.0263022101e+00 5.2417091869e+00 
117400 6.3820253806e+00 -7.0558184260e-05 3.0263022101e+00 -5.2417091869e+00 3.0263022101e+00 5.2417091869e+00 
117500 6.3820253813e+00 -7.0704553016e-05 3.0263022101e+00 -5.2417091869e+00 3.0263022101e+00 5.2417091869e+00 
117600 6.3820253820e+00 -7.0850953027e-05 3.0263022101e+00 -5.2417091869e+00 3.0263022101e+00 5.2417091869e+00 
117700 6.3820253826e+00 -7.0230340858e-05 3.0263033806e+00 -5.2417112144e+00 3.0263033806e+00 5.2417112144e+00 
117800 6.3820253832e+00 -7.0365571492e-05 3.0263033806e+00 -5.2417112144e+00 3.0263033806e+00 5.2417112144e+00 
117900 6.3820253839e+00 -7.0500928207e-05 3.0263033806e+00 -5.2417112144e+00 3.0263033806e+00 5.2417112144e+00 
118000 6.3820253845e+00 -7.0636208468e-05 3.0263033806e+00 -5.2417112144e+00 3.0263033806e+00 5.2417112144e+00 
118100 6.3820253851e+00 -7.0771233023e-05 3.0263033806e+00 -5.2417112144e+00 3.0263033806e+00 5.2417112144e+00 
118200 6.3820253857e+00 -7.0139827593e-05 3.0263045499e+00 -5.2417132396e+00 3.0263045499e+00 5.2417132396e+00 
118300 6.3820253863e+00 -7.0263144317e-05 3.0263045499e+00 -5.2417132396e+00 3.0263045499e+00 5.2417132396e+00 
118400 6.3820253869e+00 -7.0386324452e-05 3.0263045499e+00 -5.2417132396e+00 3.0263045499e+00 5.2417132396e+00 
118500 6.3820253875e+00 -7.0509175355e-05 3.0263045499e+00 -5.2417132396e+00 3.0263045499e+00 5.2417132396e+00 
118600 6.3820253881e+00 -7.0631528179e-05 3.0263045499e+00 -5.2417132396e+00 3.0263045499e+00 5.2417132396e+00 
118700 6.3820253886e+00 -7.0753234455e-05 3.0263045499e+00 -5.2417132396e+00 3.0263045499e+00 5.2417132396e+00 
118800 6.3820253891e+00 -7.0108341647e-05 3.0263057189e+00 -5.2417152644e+00 3.0263057189e+00 5.2417152644e+00 
118900 6.3820253897e+00 -7.0217644269e-05 3.0263057189e+00 -5.2417152644e+00 3.0263057189e+00 5.2417152644e+00 
119000 6.3820253903e+00 -7.0326498264e-05 3.0263057189e+00 -5.2417152644e+00 3.0263057189e+00 5.2417152644e+00 
119100 6.3820253908e+00 -7.0434733839e-05 3.0263057189e+00 -5.2417152644e+00 3.0263057189e+00 5.2417152644e+00 
119200 6.3820253914e+00 -7.0542203599e-05 3.0263057189e+00 -5.2417152644e+00 3.0263057189e+00 5.2417152644e+00 
119300 6.3820253919e+00 -7.0648779312e-05 3.0263057189e+00 -5.2417152644e+00 3.0263057189e+00 5.2417152644e+00 
119400 6.3820253924e+00 -7.0754349191e-05 3.0263057189e+00 -5.2417152644e+00 3.0263057189e+00 5.2417152644e+00 
119500 6.3820253929e+00 -7.0092980326e-05 3.0263068879e+00 -5.2417172891e+00 3.0263068879e+00 5.2417172891e+00 
119600 6.3820253934e+00 -7.0185525016e-05 3.0263068879e+00 -5.2417172891e+00 3.0263068879e+00 5.2417172891e+00 
119700 6.3820253939e+00 -7.0277353251e-05 3.0263068879e+00 -5.2417172891e+00 3.0263068879e+00 5.2417172891e+00 
119800 6.3820253944e+00 -7.0368320850e-05 3.0263068879e+00 -5.2417172891e+00 3.0263068879e+00 5.2417172891e+00 
119900 6.3820253949e+00 -7.0458304085e-05 3.0263068879e+00 -5.2417172891e+00 3.0263068879e+00 5.2417172891e+00 
120000 6.3820253954e+00 -7.0547196673e-05 3.0263068879e+00 -5.2417172891e+00 3.0263068879e+00 5.2417172891e+00 
120100 6.3820253959e+00 -7.0634907272e-05 3.0263068879e+00 -5.2417172891e+00 3.0263068879e+00 5.2417172891e+00 
120200 6.3820253963e+00 -7.0721357350e-05 3.0263068879e+00 -5.2417172891e+00 3.0263068879e+00 5.2417172891e+00 
120300 6.3820253968e+00 -7.0040999498e-05 3.0263080563e+00 -5.2417193129e+00 3.0263080563e+00 5.2417193129e+00 
120400 6.3820253972e+00 -7.0114007865e-05 3.0263080563e+00 -5.2417193129e+00 3.0263080563e+00 5.2417193129e+00 
120500 6.3820253977e+00 -7.0186127268e-05 3.0263080563e+00 -5.2417193129e+00 3.0263080563e+00 5.2417193129e+00 
120600 6.3820253981e+00 -7.0257236461e-05 3.0263080563e+00 -5.2417193129e+00 3.0263080563e+00 5.2417193129e+00 
120700 6.3820253986e+00 -7.0327232811e-05 3.0263080563e+00 -5.2417193129e+00 3.0263080563e+00 5.2417193129e+00 
120800 6.3820253990e+00 -7.0396029507e-05 3.0263080563e+00 -5.2417193129e+00 3.0263080563e+00 5.2417193129e+00 
120900 6.3820253994e+00 -7.0463553240e-05 3.0263080563e+00 -5.2417193129e+00 3.0263080563e+00 5.2417193129e+00 
121000 6.3820253999e+00 -7.0529742234e-05 3.0263080563e+00 -5.2417193129e+00 3.0263080563e+00 5.2417193129e+00 
121100 6.3820254003e+00 -7.0594544583e-05 3.0263080563e+00 -5.2417193129e+00 3.0263080563e+00 5.2417193129e+00 
121200 6.3820254007e+00 -7.0657916834e-05 3.0263080563e+00 -5.2417193129e+00 3.0263080563e+00 5.2417193129e+00 
121300 6.3820254011e+00 -7.0719822767e-05 3.0263080563e+00 -5.2417193129e+00 3.0263080563e+00 5.2417193129e+00 
121400 6.3820254015e+00 -7.0014766736e-05 3.0263092247e+00 -5.2417213367e+00 3.0263092247e+00 5.2417213367e+00 
121500 6.3820254019e+00 -7.0062928285e-05 3.0263092247e+00 -5.2417213367e+00 3.0263092247e+00 5.2417213367e+00 
121600 6.3820254023e+00 -7.0110095618e-05 3.0263092247e+00 -5.2417213367e+00 3.0263092247e+00 5.2417213367e+00 
121700 6.3820254027e+00 -7.0156174101e-05 3.0263092247e+00 -5.2417213367e+00 3.0263092247e+00 5.2417213367e+00 
121800 6.3820254031e+00 -7.0201084972e-05 3.0263092247e+00 -5.2417213367e+00 3.0263092247e+00 5.2417213367e+00 
121900 6.3820254034e+00 -7.0244762908e-05 3.0263092247e+00 -5.2417213367e+00 3.0263092247e+00 5.2417213367e+00 
122000 6.3820254038e+00 -7.0287154004e-05 3.0263092247e+00 -5.2417213367e+00 3.0263092247e+00 5.2417213367e+00 
122100 6.3820254042e+00 -7.0328214058e-05 3.0263092247e+00 -5.2417213367e+00 3.0263092247e+00 5.2417213367e+00 
122200 6.3820254045e+00 -7.0367907137e-05 3.0263092247e+00 -5.2417213367e+00 3.0263092247e+00 5.2417213367e+00 
122300 6.3820254049e+00 -7.0406204345e-05 3.0263092247e+00 -5.2417213367e+00 3.0263092247e+00 5.2417213367e+00 
122400 6.3820254053e+00 -7.0443082792e-05 3.0263092247e+00 -5.2417213367e+00 3.0263092247e+00 5.2417213367e+00 
122500 6.3820254056e+00 -7.0478524680e-05 3.0263092247e+00 -5.2417213367e+00 3.0263092247e+00 5.2417213367e+00 
122600 6.3820254060e+00 -7.0512516552e-05 3.0263092247e+00 -5.2417213367e+00 3.0263092247e+00 5.2417213367e+00 
122700 6.3820254063e+00 -7.0545048637e-05 3.0263092247e+00 -5.2417213367e+00 3.0263092247e+00 5.2417213367e+00 
122800 6.3820254066e+00 -7.0576114278e-05 3.0263092247e+00 -5.2417213367e+00 3.0263092247e+00 5.2417213367e+00 
122900 6.3820254070e+00 -7.0605709455e-05 3.0263092247e+00 -5.2417213367e+00 3.0263092247e+00 5.2417213367e+00 
123000 6.3820254073e+00 -7.0633832367e-05 3.0263092247e+00 -5.2417213367e+00 3.0263092247e+00 5.2417213367e+00 
123100 6.3820254076e+00 -7.0660483081e-05 3.0263092247e+00 -5.2417213367e+00 3.0263092247e+00 5.2417213367e+00 
123200 6.3820254079e+00 -7.0685663225e-05 3.0263092247e+00 -5.2417213367e+00 3.0263092247e+00 5.2417213367e+00 
123300 6.3820254082e+00 -7.0709375728e-05 3.0263092247e+00 -5.2417213367e+00 3.0263092247e+00 5.2417213367e+00 
123400 6.3820254086e+00 -7.0731624593e-05 3.0263092247e+00 -5.2417213367e+00 3.0263092247e+00 5.2417213367e+00 
123500 6.3820254088e+00 -6.9986817034e-05 3.0263103934e+00 -5.2417233608e+00 3.0263103934e+00 5.2417233608e+00 
123600 6.3820254091e+00 -6.9995425758e-05 3.0263103934e+00 -5.2417233608e+00 3.0263103934e+00 5.2417233608e+00 
123700 6.3820254094e+00 -7.0003134624e-05 3.0263103934e+00 -5.2417233608e+00 3.0263103934e+00 5.2417233608e+00 
123800 6.3820254097e+00 -7.0009871988e-05 3.0263103934e+00 -5.2417233608e+00 3.0263103934e+00 5.2417233608e+00 
123900 6.3820254100e+00 -7.0015579141e-05 3.0263103934e+00 -5.2417233608e+00 3.0263103934e+00 5.2417233608e+00 
124000 6.3820254103e+00 -7.0020208289e-05 3.0263103934e+00 -5.2417233608e+00 3.0263103934e+00 5.2417233608e+00 
124100 6.3820254106e+00 -7.0023720880e-05 3.0263103934e+00 -5.2417233608e+00 3.0263103934e+00 5.2417233608e+00 
124200 6.3820254108e+00 -7.0026086198e-05 3.0263103934e+00 -5.2417233608e+00 3.0263103934e+00 5.2417233608e+00 
124300 6.3820254111e+00 -7.0027280186e-05 3.0263103934e+00 -5.2417233608e+00 3.0263103934e+00 5.2417233608e+00 
124400 6.3820254114e+00 -7.0027284450e-05 3.0263103934e+00 -5.2417233608e+00 3.0263103934e+00 5.2417233608e+00 
124500 6.3820254116e+00 -7.0026085411e-05 3.0263103934e+00 -5.2417233608e+00 3.0263103934e+00 5.2417233608e+00 
124600 6.3820254119e+00 -7.0023673573e-05 3.0263103934e+00 -5.2417233608e+00 3.0263103934e+00 5.2417233608e+00 
124700 6.3820254122e+00 -7.0020042915e-05 3.0263103934e+00 -5.2417233608e+00 3.0263103934e+00 5.2417233608e+00 
124800 6.3820254124e+00 -7.0015190355e-05 3.0263103934e+00 -5.2417233608e+00 3.0263103934e+00 5.2417233608e+00 
124900 6.3820254127e+00 -7.0009115295e-05 3.0263103934e+00 -5.2417233608e+00 3.0263103934e+00 5.2417233608e+00 
125000 6.3820254129e+00 -7.0001819232e-05 3.0263103934e+00 -5.2417233608e+00 3.0263103934e+00 5.2417233608e+00 
125100 6.3820254132e+00 -6.9993305426e-05 3.0263103934e+00 -5.2417233608e+00 3.0263103934e+00 5.2417233608e+00 
125200 6.3820254134e+00 -6.9983578609e-05 3.0263103934e+00 -5.2417233608e+00 3.0263103934e+00 5.2417233608e+00 
125300 6.3820254137e+00 -6.9972644740e-05 3.0263103934e+00 -5.2417233608e+00 3.0263103934e+00 5.2417233608e+00 
125400 6.3820254139e+00 -6.9960510793e-05 3.0263103934e+00 -5.2417233608e+00 3.0263103934e+00 5.2417233608e+00 
125500 6.3820254141e+00 -6.9947184582e-05 3.0263103934e+00 -5.2417233608e+00 3.0263103934e+00 5.2417233608e+00 
125600 6.3820254143e+00 -6.9932674603e-05 3.0263103934e+00 -5.2417233608e+00 3.0263103934e+00 5.2417233608e+00 
125700 6.3820254146e+00 -6.9916989909e-05 3.0263103934e+00 -5.2417233608e+00 3.0263103934e+00 5.2417233608e+00 
125800 6.3820254148e+00 -6.9900139990e-05 3.0263103934e+00 -5.2417233608e+00 3.0263103934e+00 5.2417233608e+00 
125900 6.3820254150e+00 -6.9882134687e-05 3.0263103934e+00 -5.2417233608e+00 3.0263103934e+00 5.2417233608e+00 
126000 6.3820254152e+00 -6.9862984114e-05 3.0263103934e+00 -5.2417233608e+00 3.0263103934e+00 5.2417233608e+00 
126100 6.3820254154e+00 -6.9842698585e-05 3.0263103934e+00 -5.2417233608e+00 3.0263103934e+00 5.2417233608e+00 
126200 6.3820254157e+00 -6.9821288568e-05 3.0263103934e+00 -5.2417233608e+00 3.0263103934e+00 5.2417233608e+00 
126300 6.3820254159e+00 -6.9798764631e-05 3.0263103934e+00 -5.2417233608e+00 3.0263103934e+00 5.2417233608e+00 
126400 6.3820254161e+00 -6.9775137412e-05 3.0263103934e+00 -5.2417233608e+00 3.0263103934e+00 5.2417233608e+00 
126500 6.3820254163e+00 -6.9750417581e-05 3.0263103934e+00 -5.2417233608e+00 3.0263103934e+00 5.2417233608e+00 
126600 6.3820254165e+00 -6.9724615825e-05 3.0263103934e+00 -5.2417233608e+00 3.0263103934e+00 5.2417233608e+00 
126700 6.3820254167e+00 -6.9697742820e-05 3.0263103934e+00 -5.2417233608e+00 3.0263103934e+00 5.2417233608e+00 
126800 6.3820254169e+00 -6.9669809222e-05 3.0263103934e+00 -5.2417233608e+00 3.0263103934e+00 5.2417233608e+00 
126900 6.3820254170e+00 -6.9640825654e-05 3.0263103934e+00 -5.2417233608e+00 3.0263103934e+00 5.2417233608e+00 
127000 6.3820254172e+00 -6.9610802697e-05 3.0263103934e+00 -5.2417233608e+00 3.0263103934e+00 5.2417233608e+00 
127100 6.3820254174e+00 -6.9579750886e-05 3.0263103934e+00 -5.2417233608e+00 3.0263103934e+00 5.2417233608e+00 
127200 6.3820254176e+00 -6.9547680706e-05 3.0263103934e+00 -5.2417233608e+00 3.0263103934e+00 5.2417233608e+00 
127300 6.3820254178e+00 -6.9514602592e-05 3.0263103934e+00 -5.2417233608e+00 3.0263103934e+00 5.2417233608e+00 
127400 6.3820254180e+00 -6.9480526925e-05 3.0263103934e+00 -5.2417233608e+00 3.0263103934e+00 5.2417233608e+00 
127500 6.3820254181e+00 -6.9445464045e-05 3.0263103934e+00 -5.2417233608e+00 3.0263103934e+00 5.2417233608e+00 
127600 6.3820254183e+00 -6.9409424236e-05 3.0263103934e+00 -5.2417233608e+00 3.0263103934e+00 5.2417233608e+00 
127700 6.3820254185e+00 -6.9372417742e-05 3.0263103934e+00 -5.2417233608e+00 3.0263103934e+00 5.2417233608e+00 
127800 6.3820254186e+00 -6.9334454769e-05 3.0263103934e+00 -5.2417233608e+00 3.0263103934e+00 5.2417233608e+00 
127900 6.3820254188e+00 -6.9295545483e-05 3.0263103934e+00 -5.2417233608e+00 3.0263103934e+00 5.2417233608e+00 
128000 6.3820254190e+00 -6.9255700025e-05 3.0263103934e+00 -5.2417233608e+00 3.0263103934e+00 5.2417233608e+00 
128100 6.3820254191e+00 -6.9214928500e-05 3.0263103934e+00 -5.2417233608e+00 3.0263103934e+00 5.2417233608e+00 
128200 6.3820254193e+00 -6.9173241001e-05 3.0263103934e+00 -5.2417233608e+00 3.0263103934e+00 5.2417233608e+00 
128300 6.3820254194e+00 -6.9130647597e-05 3.0263103934e+00 -5.2417233608e+00 3.0263103934e+00 5.2417233608e+00 
128400 6.3820254196e+00 -6.9087158349e-05 3.0263103934e+00 -5.2417233608e+00 3.0263103934e+00 5.2417233608e+00 
128500 6.3820254197e+00 -6.9042783308e-05 3.0263103934e+00 -5.2417233608e+00 3.0263103934e+00 5.2417233608e+00 
128600 6.3820254199e+00 -6.8997532525e-05 3.0263103934e+00 -5.2417233608e+00 3.0263103934e+00 5.2417233608e+00 
128700 6.3820254200e+00 -6.8951416045e-05 3.0263103934e+00 -5.2417233608e+00 3.0263103934e+00 5.2417233608e+00 
128800 6.3820254202e+00 -6.8904443928e-05 3.0263103934e+00 -5.2417233608e+00 3.0263103934e+00 5.2417233608e+00 
128900 6.3820254203e+00 -6.8856626235e-05 3.0263103934e+00 -5.2417233608e+00 3.0263103934e+00 5.2417233608e+00 
129000 6.3820254205e+00 -6.8807973045e-05 3.0263103934e+00 -5.2417233608e+00 3.0263103934e+00 5.2417233608e+00 
129100 6.3820254206e+00 -6.8758494447e-05 3.0263103934e+00 -5.2417233608e+00 3.0263103934e+00 5.2417233608e+00 
129200 6.3820254207e+00 -6.8708200557e-05 3.0263103934e+00 -5.2417233608e+00 3.0263103934e+00 5.2417233608e+00 
129300 6.3820254209e+00 -6.8657101505e-05 3.0263103934e+00 -5.2417233608e+00 3.0263103934e+00 5.2417233608e+00 
129400 6.3820254210e+00 -6.8605207444e-05 3.0263103934e+00 -5.2417233608e+00 3.0263103934e+00 5.2417233608e+00 
129500 6.3820254211e+00 -6.8552528560e-05 3.0263103934e+00 -5.2417233608e+00 3.0263103934e+00 5.2417233608e+00 
129600 6.3820254213e+00 -6.8499075061e-05 3.0263103934e+00 -5.2417233608e+00 3.0263103934e+00 5.2417233608e+00 
129700 6.3820254214e+00 -6.8444857182e-05 3.0263103934e+00 -5.2417233608e+00 3.0263103934e+00 5.2417233608e+00 
129800 6.3820254215e+00 -6.8389885191e-05 3.0263103934e+00 -5.2417233608e+00 3.0263103934e+00 5.2417233608e+00 
129900 6.3820254216e+00 -6.8334169386e-05 3.0263103934e+00 -5.2417233608e+00 3.0263103934e+00 5.2417233608e+00 
130000 6.3820254218e+00 -6.8277720093e-05 3.0263103934e+00 -5.2417233608e+00 3.0263103934e+00 5.2417233608e+00 
130100 6.3820254219e+00 -6.8220547672e-05 3.0263103934e+00 -5.2417233608e+00 3.0263103934e+00 5.2417233608e+00 
130200 6.3820254220e+00 -6.8162662515e-05 3.0263103934e+00 -5.2417233608e+00 3.0263103934e+00 5.2417233608e+00 
130300 6.3820254221e+00 -6.8104075042e-05 3.0263103934e+00 -5.2417233608e+00 3.0263103934e+00 5.2417233608e+00 
130400 6.3820254222e+00 -6.8044795704e-05 3.0263103934e+00 -5.2417233608e+00 3.0263103934e+00 5.2417233608e+00 
130500 6.3820254223e+00 -6.7984834982e-05 3.0263103934e+00 -5.2417233608e+00 3.0263103934e+00 5.2417233608e+00 
130600 6.3820254224e+00 -6.7924203382e-05 3.0263103934e+00 -5.2417233608e+00 3.0263103934e+00 5.2417233608e+00 
130700 6.3820254226e+00 -6.7862911441e-05 3.0263103934e+00 -5.2417233608e+00 3.0263103934e+00 5.2417233608e+00 
130800 6.3820254227e+00 -6.7800969719e-05 3.0263103934e+00 -5.2417233608e+00 3.0263103934e+00 5.2417233608e+00 
130900 6.3820254228e+00 -6.7738388801e-05 3.0263103934e+00 -5.2417233608e+00 3.0263103934e+00 5.2417233608e+00 
131000 6.3820254229e+00 -6.7675179293e-05 3.0263103934e+00 -5.2417233608e+00 3.0263103934e+00 5.2417233608e+00 
131100 6.3820254230e+00 -6.7611351822e-05 3.0263103934e+00 -5.2417233608e+00 3.0263103934e+00 5.2417233608e+00 
131200 6.3820254231e+00 -6.7546917030e-05 3.0263103934e+00 -5.2417233608e+00 3.0263103934e+00 5.2417233608e+00 
131300 6.3820254232e+00 -6.7481885575e-05 3.0263103934e+00 -5.2417233608e+00 3.0263103934e+00 5.2417233608e+00 
131400 6.3820254233e+00 -6.7416268134e-05 3.0263103934e+00 -5.2417233608e+00 3.0263103934e+00 5.2417233608e+00 
131500 6.3820254234e+00 -6.7350075383e-05 3.0263103934e+00 -5.2417233608e+00 3.0263103934e+00 5.2417233608e+00 
131600 6.3820254235e+00 -6.7283318016e-05 3.0263103934e+00 -5.2417233608e+00 3.0263103934e+00 5.2417233608e+00 
131700 6.3820254236e+00 -6.7216006726e-05 3.0263103934e+00 -5.2417233608e+00 3.0263103934e+00 5.2417233608e+00 
131800 6.3820254236e+00 -6.7148152210e-05 3.0263103934e+00 -5.2417233608e+00 3.0263103934e+00 5.2417233608e+00 
131900 6.3820254237e+00 -6.7079765163e-05 3.0263103934e+00 -5.2417233608e+00 3.0263103934e+00 5.2417233608e+00 
132000 6.3820254238e+00 -6.7010856273e-05 3.0263103934e+00 -5.2417233608e+00 3.0263103934e+00 5.2417233608e+00 
132100 6.3820254239e+00 -6.6941436229e-05 3.0263103934e+00 -5.2417233608e+00 3.0263103934e+00 5.2417233608e+00 
132200 6.3820254240e+00 -6.6871515703e-05 3.0263103934e+00 -5.2417233608e+00 3.0263103934e+00 5.2417233608e+00 
132300 6.3820254241e+00 -6.6801105356e-05 3.0263103934e+00 -5.2417233608e+00 3.0263103934e+00 5.2417233608e+00 
132400 6.3820254242e+00 -6.6730215833e-05 3.0263103934e+00 -5.2417233608e+00 3.0263103934e+00 5.2417233608e+00 
132500 6.3820254243e+00 -6.6658857757e-05 3.0263103934e+00 -5.2417233608e+00 3.0263103934e+00 5.2417233608e+00 
132600 6.3820254243e+00 -6.6587041729e-05 3.0263103934e+00 -5.2417233608e+00 3.0263103934e+00 5.2417233608e+00 
132700 6.3820254244e+00 -6.6514778321e-05 3.0263103934e+00 -5.2417233608e+00 3.0263103934e+00 5.2417233608e+00 
132800 6.3820254245e+00 -6.6442078081e-05 3.0263103934e+00 -5.2417233608e+00 3.0263103934e+00 5.2417233608e+00 
132900 6.3820254246e+00 -6.6368951521e-05 3.0263103934e+00 -5.2417233608e+00 3.0263103934e+00 5.2417233608e+00 
133000 6.3820254247e+00 -6.6295409117e-05 3.0263103934e+00 -5.2417233608e+00 3.0263103934e+00 5.2417233608e+00 
133100 6.3820254247e+00 -6.6221461306e-05 3.0263103934e+00 -5.2417233608e+00 3.0263103934e+00 5.2417233608e+00 
133200 6.3820254248e+00 -6.6147118485e-05 3.0263103934e+00 -5.2417233608e+00 3.0263103934e+00 5.2417233608e+00 
133300 6.3820254249e+00 -6.6072391000e-05 3.0263103934e+00 -5.2417233608e+00 3.0263103934e+00 5.2417233608e+00 
133400 6.3820254250e+00 -6.5997289153e-05 3.0263103934e+00 -5.2417233608e+00 3.0263103934e+00 5.2417233608e+00 
133500 6.3820254250e+00 -6.5921823195e-05 3.0263103934e+00 -5.2417233608e+00 3.0263103934e+00 5.2417233608e+00 
133600 6.3820254251e+00 -6.5846003319e-05 3.0263103934e+00 -5.2417233608e+00 3.0263103934e+00 5.2417233608e+00 
133700 6.3820254252e+00 -6.5769839664e-05 3.0263103934e+00 -5.2417233608e+00 3.0263103934e+00 5.2417233608e+00 
133800 6.3820254252e+00 -6.5693342307e-05 3.0263103934e+00 -5.2417233608e+00 3.0263103934e+00 5.2417233608e+00 
133900 6.3820254253e+00 -6.5616521261e-05 3.0263103934e+00 -5.2417233608e+00 3.0263103934e+00 5.2417233608e+00 
134000 6.3820254254e+00 -6.5539386476e-05 3.0263103934e+00 -5.2417233608e+00 3.0263103934e+00 5.2417233608e+00 
134100 6.3820254254e+00 -6.5461947831e-05 3.0263103934e+00 -5.2417233608e+00 3.0263103934e+00 5.2417233608e+00 
134200 6.3820254255e+00 -6.5384215134e-05 3.0263103934e+00 -5.2417233608e+00 3.0263103934e+00 5.2417233608e+00 
134300 6.3820254256e+00 -6.5306198122e-05 3.0263103934e+00 -5.2417233608e+00 3.0263103934e+00 5.2417233608e+00 
134400 6.3820254256e+00 -6.5227906452e-05 3.0263103934e+00 -5.2417233608e+00 3.0263103934e+00 5.2417233608e+00 
134500 6.3820254257e+00 -6.5149349708e-05 3.0263103934e+00 -5.2417233608e+00 3.0263103934e+00 5.2417233608e+00 
134600 6.3820254257e+00 -6.5070537387e-05 3.0263103934e+00 -5.2417233608e+00 3.0263103934e+00 5.2417233608e+00 
134700 6.3820254258e+00 -6.4991478909e-05 3.0263103934e+00 -5.2417233608e+00 3.0263103934e+00 5.2417233608e+00 
134800 6.3820254259e+00 -6.4912183608e-05 3.0263103934e+00 -5.2417233608e+00 3.0263103934e+00 5.2417233608e+00 
134900 6.3820254259e+00 -6.4832660724e-05 3.0263103934e+00 -5.2417233608e+00 3.0263103934e+00 5.2417233608e+00 
135000 6.3820254260e+00 -6.4752919419e-05 3.0263103934e+00 -5.2417233608e+00 3.0263103934e+00 5.2417233608e+00 
135100 6.3820254260e+00 -6.4672968759e-05 3.0263103934e+00 -5.2417233608e+00 3.0263103934e+00 5.2417233608e+00 
135200 6.3820254261e+00 -6.4592817717e-05 3.0263103934e+00 -5.2417233608e+00 3.0263103934e+00 5.2417233608e+00 
135300 6.3820254261e+00 -6.4512475172e-05 3.0263103934e+00 -5.2417233608e+00 3.0263103934e+00 5.2417233608e+00 
135400 6.3820254262e+00 -6.4431949910e-05 3.0263103934e+00 -5.2417233608e+00 3.0263103934e+00 5.2417233608e+00 
135500 6.3820254262e+00 -6.4351250617e-05 3.0263103934e+00 -5.2417233608e+00 3.0263103934e+00 5.2417233608e+00 
135600 6.3820254263e+00 -6.4270385886e-05 3.0263103934e+00 -5.2417233608e+00 3.0263103934e+00 5.2417233608e+00 
135700 6.3820254263e+00 -6.4189364202e-05 3.0263103934e+00 -5.2417233608e+00 3.0263103934e+00 5.2417233608e+00 
135800 6.3820254264e+00 -6.4108193955e-05 3.0263103934e+00 -5.2417233608e+00 3.0263103934e+00 5.2417233608e+00 
135900 6.3820254264e+00 -6.4026883432e-05 3.0263103934e+00 -5.2417233608e+00 3.0263103934e+00 5.2417233608e+00 
136000 6.3820254265e+00 -6.3945440815e-05 3.0263103934e+00 -5.2417233608e+00 3.0263103934e+00 5.2417233608e+00 
136100 6.3820254265e+00 -6.3917805049e-05 3.0263103934e+00 -5.2417233608e+00 3.0263103934e+00 5.2417233608e+00 
136100 6.3820254265e+00 -6.3917805049e-05 3.0263103934e+00 -5.2417233608e+00 3.0263103934e+00 5.2417233608e+00 
