# step Hamiltonian StressXX CellTensor1 CellTensor2 CellTensor3 CellTensor4 
0 4.6118781119e+00 1.2530514119e-02 2.5594246509e+00 -4.4330535334e+00 2.5594246509e+00 4.4330535334e+00 
100 4.6037737978e+00 1.2624858813e-02 2.5594246509e+00 -4.4330535334e+00 2.5594246509e+00 4.4330535334e+00 
200 4.5961811371e+00 1.2918749740e-02 2.5591780201e+00 -4.4326263564e+00 2.5591780201e+00 4.4326263564e+00 
300 4.5890847817e+00 1.3461475218e-02 2.5589256239e+00 -4.4321891934e+00 2.5589256239e+00 4.4321891934e+00 
400 4.5824665069e+00 1.4243048526e-02 2.5586625986e+00 -4.4317336201e+00 2.5586625986e+00 4.4317336201e+00 
500 4.5763074316e+00 1.5252716250e-02 2.5583842737e+00 -4.4312515473e+00 2.5583842737e+00 4.4312515473e+00 
600 4.5705879274e+00 1.6478988006e-02 2.5580861867e+00 -4.4307352455e+00 2.5580861867e+00 4.4307352455e+00 
700 4.5652875938e+00 1.7909673242e-02 2.5577640974e+00 -4.4301773705e+00 2.5577640974e+00 4.4301773705e+00 
800 4.5603852914e+00 1.9531926954e-02 2.5574140013e+00 -4.4295709863e+00 2.5574140013e+00 4.4295709863e+00 
900 4.5558592267e+00 2.1332305697e-02 2.5570321421e+00 -4.4289095868e+00 2.5570321421e+00 4.4289095868e+00 
1000 4.5516870786e+00 2.3296834804e-02 2.5566150233e+00 -4.4281871158e+00 2.5566150233e+00 4.4281871158e+00 
1100 4.5478461603e+00 2.5411087185e-02 2.5561594181e+00 -4.4273979844e+00 2.5561594181e+00 4.4273979844e+00 
1200 4.5443136065e+00 2.7660273398e-02 2.5556623782e+00 -4.4265370861e+00 2.5556623782e+00 4.4265370861e+00 
1300 4.5410665768e+00 3.0029342100e-02 2.5551212407e+00 -4.4255998083e+00 2.5551212407e+00 4.4255998083e+00 
1400 4.5380824675e+00 3.2503089283e-02 2.5545336327e+00 -4.4245820415e+00 2.5545336327e+00 4.4245820415e+00 
1500 4.5353391238e+00 3.5066274121e-02 2.5538974747e+00 -4.4234801836e+00 2.5538974747e+00 4.4234801836e+00 
1600 4.5328150431e+00 3.7703738715e-02 2.5532109808e+00 -4.4222911412e+00 2.5532109808e+00 4.4222911412e+00 
1700 4.5304895636e+00 4.0400528644e-02 2.5524726571e+00 -4.4210123271e+00 2.5524726571e+00 4.4210123271e+00 
1800 4.5283430324e+00 4.3142010995e-02 2.5516812982e+00 -4.4196416532e+00 2.5516812982e+00 4.4196416532e+00 
1900 4.5263569473e+00 4.5913986516e-02 2.5508359805e+00 -4.4181775200e+00 2.5508359805e+00 4.4181775200e+00 
2000 4.5245140700e+00 4.8702792721e-02 2.5499360543e+00 -4.4166188020e+00 2.5499360543e+00 4.4166188020e+00 
2100 4.5227985071e+00 5.1495395132e-02 2.5489811332e+00 -4.4149648303e+00 2.5489811332e+00 4.4149648303e+00 
2200 4.5211957603e+00 5.4279464423e-02 2.5479710827e+00 -4.4132153715e+00 2.5479710827e+00 4.4132153715e+00 
2300 4.5196927443e+00 5.7043437881e-02 2.5469060063e+00 -4.4113706049e+00 2.5469060063e+00 4.4113706049e+00 
2400 4.5182777760e+00 5.9776564392e-02 2.5457862308e+00 -4.4094310970e+00 2.5457862308e+00 4.4094310970e+00 
2500 4.5169405370e+00 6.2468932908e-02 2.5446122916e+00 -4.4073977746e+00 2.5446122916e+00 4.4073977746e+00 
2600 4.5156720133e+00 6.5111485099e-02 2.5433849158e+00 -4.4052718974e+00 2.5433849158e+00 4.4052718974e+00 
2700 4.5144644169e+00 6.7696013517e-02 2.5421050069e+00 -4.4030550301e+00 2.5421050069e+00 4.4030550301e+00 
2800 4.5133110927e+00 7.0215147085e-02 2.5407736280e+00 -4.4007490142e+00 2.5407736280e+00 4.4007490142e+00 
2900 4.5122064166e+00 7.2662326063e-02 2.5393919862e+00 -4.3983559404e+00 2.5393919862e+00 4.3983559404e+00 
3000 4.5111456879e+00 7.5031768793e-02 2.5379614174e+00 -4.3958781226e+00 2.5379614174e+00 4.3958781226e+00 
3100 4.5101250197e+00 7.7318432524e-02 2.5364833713e+00 -4.3933180716e+00 2.5364833713e+00 4.3933180716e+00 
3200 4.5091412320e+00 7.9517970483e-02 2.5349593975e+00 -4.3906784715e+00 2.5349593975e+00 4.3906784715e+00 
3300 4.5081917487e+00 8.1626687134e-02 2.5333911324e+00 -4.3879621567e+00 2.5333911324e+00 4.3879621567e+00 
3400 4.5072745004e+00 8.3641493229e-02 2.5317802870e+00 -4.3851720906e+00 2.5317802870e+00 4.3851720906e+00 
3500 4.5063878364e+00 8.5559861954e-02 2.5301286351e+00 -4.3823113457e+00 2.5301286351e+00 4.3823113457e+00 
3600 4.5055304439e+00 8.7379787096e-02 2.5284380032e+00 -4.3793830852e+00 2.5284380032e+00 4.3793830852e+00 
3700 4.5047012777e+00 8.9099743854e-02 2.5267102600e+00 -4.3763905464e+00 2.5267102600e+00 4.3763905464e+00 
3800 4.5038994978e+00 9.0718652634e-02 2.5249473081e+00 -4.3733370241e+00 2.5249473081e+00 4.3733370241e+00 
3900 4.5031244168e+00 9.2235845928e-02 2.5231510748e+00 -4.3702258568e+00 2.5231510748e+00 4.3702258568e+00 
4000 4.5023754546e+00 9.3651038193e-02 2.5213235049e+00 -4.3670604128e+00 2.5213235049e+00 4.3670604128e+00 
4100 4.5016521019e+00 9.4964298521e-02 2.5194665529e+00 -4.3638440776e+00 2.5194665529e+00 4.3638440776e+00 
4200 4.5009538893e+00 9.6176025810e-02 2.5175821768e+00 -4.3605802425e+00 2.5175821768e+00 4.3605802425e+00 
4300 4.5002803639e+00 9.7286926084e-02 2.5156723314e+00 -4.3572722932e+00 2.5156723314e+00 4.3572722932e+00 
4400 4.4996310699e+00 9.8297991613e-02 2.5137389625e+00 -4.3539236000e+00 2.5137389625e+00 4.3539236000e+00 
4500 4.4990055351e+00 9.9210481498e-02 2.5117840014e+00 -4.3505375080e+00 2.5117840014e+00 4.3505375080e+00 
4600 4.4984032602e+00 1.0002590340e-01 2.5098093596e+00 -4.3471173282e+00 2.5098093596e+00 4.3471173282e+00 
4700 4.4978237129e+00 1.0074599610e-01 2.5078169243e+00 -4.3436663290e+00 2.5078169243e+00 4.3436663290e+00 
4800 4.4972663231e+00 1.0137271279e-01 2.5058085533e+00 -4.3401877284e+00 2.5058085533e+00 4.3401877284e+00 
4900 4.4967304822e+00 1.0190820467e-01 2.5037860711e+00 -4.3366846864e+00 2.5037860711e+00 4.3366846864e+00 
5000 4.4962155431e+00 1.0235480498e-01 2.5017512649e+00 -4.3331602987e+00 2.5017512649e+00 4.3331602987e+00 
5100 4.4957208223e+00 1.0271501318e-01 2.4997058808e+00 -4.3296175896e+00 2.4997058808e+00 4.3296175896e+00 
5200 4.4952456030e+00 1.0299147929e-01 2.4976516205e+00 -4.3260595064e+00 2.4976516205e+00 4.3260595064e+00 
5300 4.4947891395e+00 1.0318698833e-01 2.4955901381e+00 -4.3224889141e+00 2.4955901381e+00 4.3224889141e+00 
5400 4.4943506620e+00 1.0330444490e-01 2.4935230373e+00 -4.3189085904e+00 2.4935230373e+00 4.3189085904e+00 
5500 4.4939293822e+00 1.0334685784e-01 2.4914518687e+00 -4.3153212212e+00 2.4914518687e+00 4.3153212212e+00 
5600 4.4935244988e+00 1.0331732510e-01 2.4893781279e+00 -4.3117293968e+00 2.4893781279e+00 4.3117293968e+00 
5700 4.4931352036e+00 1.0321901880e-01 2.4873032531e+00 -4.3081356083e+00 2.4873032531e+00 4.3081356083e+00 
5800 4.4927606876e+00 1.0305517052e-01 2.4852286236e+00 -4.3045422445e+00 2.4852286236e+00 4.3045422445e+00 
5900 4.4924001463e+00 1.0282905691e-01 2.4831555582e+00 -4.3009515899e+00 2.4831555582e+00 4.3009515899e+00 
6000 4.4920527859e+00 1.0254398575e-01 2.4810853143e+00 -4.2973658222e+00 2.4810853143e+00 4.2973658222e+00 
6100 4.4917178284e+00 1.0220328228e-01 2.4790190867e+00 -4.2937870110e+00 2.4790190867e+00 4.2937870110e+00 
6200 4.4913945163e+00 1.0181027621e-01 2.4769580072e+00 -4.2902171167e+00 2.4769580072e+00 4.2902171167e+00 
6300 4.4910821173e+00 1.0136828913e-01 2.4749031442e+00 -4.2866579896e+00 2.4749031442e+00 4.2866579896e+00 
6400 4.4907799284e+00 1.0088062252e-01 2.4728555025e+00 -4.2831113702e+00 2.4728555025e+00 4.2831113702e+00 
6500 4.4904872788e+00 1.0035054648e-01 2.4708160234e+00 -4.2795788888e+00 2.4708160234e+00 4.2795788888e+00 
6600 4.4902035334e+00 9.9781289019e-02 2.4687855852e+00 -4.2760620665e+00 2.4687855852e+00 4.2760620665e+00 
6700 4.4899280947e+00 9.9176026075e-02 2.4667650033e+00 -4.2725623161e+00 2.4667650033e+00 4.2725623161e+00 
6800 4.4896604044e+00 9.8537872255e-02 2.4647550319e+00 -4.2690809434e+00 2.4647550319e+00 4.2690809434e+00 
6900 4.4893999448e+00 9.7869872288e-02 2.4627563638e+00 -4.2656191488e+00 2.4627563638e+00 4.2656191488e+00 
7000 4.4891462392e+00 9.7174993221e-02 2.4607696326e+00 -4.2621780294e+00 2.4607696326e+00 4.2621780294e+00 
7100 4.4888988521e+00 9.6456117358e-02 2.4587954131e+00 -4.2587585809e+00 2.4587954131e+00 4.2587585809e+00 
7200 4.4886573885e+00 9.5716035935e-02 2.4568342234e+00 -4.2553617008e+00 2.4568342234e+00 4.2553617008e+00 
7300 4.4884214930e+00 9.4957443527e-02 2.4548865263e+00 -4.2519881904e+00 2.4548865263e+00 4.2519881904e+00 
7400 4.4881908489e+00 9.4182933182e-02 2.4529527309e+00 -4.2486387586e+00 2.4529527309e+00 4.2486387586e+00 
7500 4.4879651757e+00 9.3394992255e-02 2.4510331946e+00 -4.2453140241e+00 2.4510331946e+00 4.2453140241e+00 
7600 4.4877442280e+00 9.2595998933e-02 2.4491282248e+00 -4.2420145196e+00 2.4491282248e+00 4.2420145196e+00 
7700 4.4875277925e+00 9.1788219423e-02 2.4472380813e+00 -4.2387406950e+00 2.4472380813e+00 4.2387406950e+00 
7800 4.4873156861e+00 9.0973805786e-02 2.4453629779e+00 -4.2354929207e+00 2.4453629779e+00 4.2354929207e+00 
7900 4.4871077527e+00 9.0154794374e-02 2.4435030850e+00 -4.2322714917e+00 2.4435030850e+00 4.2322714917e+00 
8000 4.4869038612e+00 8.9333104864e-02 2.4416585316e+00 -4.2290766314e+00 2.4416585316e+00 4.2290766314e+00 
8100 4.4867039019e+00 8.8510539835e-02 2.4398294072e+00 -4.2259084951e+00 2.4398294072e+00 4.2259084951e+00 
8200 4.4865077843e+00 8.7688784878e-02 2.4380157648e+00 -4.2227671742e+00 2.4380157648e+00 4.2227671742e+00 
8300 4.4863154343e+00 8.6869409191e-02 2.4362176222e+00 -4.2196527000e+00 2.4362176222e+00 4.2196527000e+00 
8400 4.4861267913e+00 8.6053866629e-02 2.4344349653e+00 -4.2165650476e+00 2.4344349653e+00 4.2165650476e+00 
8500 4.4859418059e+00 8.5243497190e-02 2.4326677493e+00 -4.2135041397e+00 2.4326677493e+00 4.2135041397e+00 
8600 4.4857604370e+00 8.4439528878e-02 2.4309159018e+00 -4.2104698509e+00 2.4309159018e+00 4.2104698509e+00 
8700 4.4855826503e+00 8.3643079939e-02 2.4291793245e+00 -4.2074620108e+00 2.4291793245e+00 4.2074620108e+00 
8800 4.4854084156e+00 8.2855161416e-02 2.4274578956e+00 -4.2044804084e+00 2.4274578956e+00 4.2044804084e+00 
8900 4.4852377052e+00 8.2076679996e-02 2.4257514716e+00 -4.2015247954e+00 2.4257514716e+00 4.2015247954e+00 
9000 4.4850704921e+00 8.1308441131e-02 2.4240598900e+00 -4.1985948900e+00 2.4240598900e+00 4.1985948900e+00 
9100 4.4849067487e+00 8.0551152376e-02 2.4223829706e+00 -4.1956903805e+00 2.4223829706e+00 4.1956903805e+00 
9200 4.4847464453e+00 7.9805426950e-02 2.4207205182e+00 -4.1928109284e+00 2.4207205182e+00 4.1928109284e+00 
9300 4.4845895496e+00 7.9071787451e-02 2.4190723237e+00 -4.1899561718e+00 2.4190723237e+00 4.1899561718e+00 
9400 4.4844360252e+00 7.8350669733e-02 2.4174381667e+00 -4.1871257289e+00 2.4174381667e+00 4.1871257289e+00 
9500 4.4842858315e+00 7.7642426898e-02 2.4158178169e+00 -4.1843192007e+00 2.4158178169e+00 4.1843192007e+00 
9600 4.4841389231e+00 7.6947333383e-02 2.4142110357e+00 -4.1815361740e+00 2.4142110357e+00 4.1815361740e+00 
9700 4.4839952497e+00 7.6265589122e-02 2.4126175780e+00 -4.1787762243e+00 2.4126175780e+00 4.1787762243e+00 
9800 4.4838547556e+00 7.5597323749e-02 2.4110371938e+00 -4.1760389185e+00 2.4110371938e+00 4.1760389185e+00 
9900 4.4837173803e+00 7.4942600841e-02 2.4094696293e+00 -4.1733238172e+00 2.4094696293e+00 4.1733238172e+00 
10000 4.4835830585e+00 7.4301422154e-02 2.4079146287e+00 -4.1706304771e+00 2.4079146287e+00 4.1706304771e+00 
10100 4.4834517203e+00 7.3673731858e-02 2.4063719352e+00 -4.1679584537e+00 2.4063719352e+00 4.1679584537e+00 
10200 4.4833232916e+00 7.3059420739e-02 2.4048412925e+00 -4.1653073027e+00 2.4048412925e+00 4.1653073027e+00 
10300 4.4831976950e+00 7.2458330353e-02 2.4033224454e+00 -4.1626765823e+00 2.4033224454e+00 4.1626765823e+00 
10400 4.4830748498e+00 7.1870257125e-02 2.4018151414e+00 -4.1600658552e+00 2.4018151414e+00 4.1600658552e+00 
10500 4.4829546727e+00 7.1294956368e-02 2.4003191313e+00 -4.1574746898e+00 2.4003191313e+00 4.1574746898e+00 
10600 4.4828370789e+00 7.0732146221e-02 2.3988341705e+00 -4.1549026622e+00 2.3988341705e+00 4.1549026622e+00 
10700 4.4827219820e+00 7.0181511486e-02 2.3973600190e+00 -4.1523493570e+00 2.3973600190e+00 4.1523493570e+00 
10800 4.4826092954e+00 6.9642707360e-02 2.3958964432e+00 -4.1498143692e+00 2.3958964432e+00 4.1498143692e+00 
10900 4.4824989321e+00 6.9115363043e-02 2.3944432154e+00 -4.1472973050e+00 2.3944432154e+00 4.1472973050e+00 
11000 4.4823908062e+00 6.8599085236e-02 2.3930001155e+00 -4.1447977826e+00 2.3930001155e+00 4.1447977826e+00 
11100 4.4822848325e+00 6.8093461495e-02 2.3915669306e+00 -4.1423154335e+00 2.3915669306e+00 4.1423154335e+00 
11200 4.4821809279e+00 6.7598063453e-02 2.3901434559e+00 -4.1398499030e+00 2.3901434559e+00 4.1398499030e+00 
11300 4.4820790113e+00 6.7112449905e-02 2.3887294949e+00 -4.1374008507e+00 2.3887294949e+00 4.1374008507e+00 
11400 4.4819790045e+00 6.6636169741e-02 2.3873248597e+00 -4.1349679512e+00 2.3873248597e+00 4.1349679512e+00 
11500 4.4818808318e+00 6.6168764738e-02 2.3859293715e+00 -4.1325508948e+00 2.3859293715e+00 4.1325508948e+00 
11600 4.4817844214e+00 6.5709772199e-02 2.3845428604e+00 -4.1301493871e+00 2.3845428604e+00 4.1301493871e+00 
11700 4.4816897048e+00 6.5258727444e-02 2.3831651657e+00 -4.1277631499e+00 2.3831651657e+00 4.1277631499e+00 
11800 4.4815966171e+00 6.4815166143e-02 2.3817961361e+00 -4.1253919210e+00 2.3817961361e+00 4.1253919210e+00 
11900 4.4815050978e+00 6.4378626507e-02 2.3804356294e+00 -4.1230354543e+00 2.3804356294e+00 4.1230354543e+00 
12000 4.4814150900e+00 6.3948651324e-02 2.3790835129e+00 -4.1206935197e+00 2.3790835129e+00 4.1206935197e+00 
12100 4.4813265411e+00 6.3524789842e-02 2.3777396629e+00 -4.1183659033e+00 2.3777396629e+00 4.1183659033e+00 
12200 4.4812394024e+00 6.3106599514e-02 2.3764039649e+00 -4.1160524066e+00 2.3764039649e+00 4.1160524066e+00 
12300 4.4811536293e+00 6.2693647590e-02 2.3750763136e+00 -4.1137528470e+00 2.3750763136e+00 4.1137528470e+00 
12400 4.4810691810e+00 6.2285512566e-02 2.3737566120e+00 -4.1114670568e+00 2.3737566120e+00 4.1114670568e+00 
12500 4.4809860206e+00 6.1881785502e-02 2.3724447721e+00 -4.1091948835e+00 2.3724447721e+00 4.1091948835e+00 
12600 4.4809041145e+00 6.1482071195e-02 2.3711407141e+00 -4.1069361887e+00 2.3711407141e+00 4.1069361887e+00 
12700 4.4808234328e+00 6.1085989220e-02 2.3698443662e+00 -4.1046908483e+00 2.3698443662e+00 4.1046908483e+00 
12800 4.4807439486e+00 6.0693174852e-02 2.3685556645e+00 -4.1024587515e+00 2.3685556645e+00 4.1024587515e+00 
12900 4.4806656379e+00 6.0303279847e-02 2.3672745526e+00 -4.1002398005e+00 2.3672745526e+00 4.1002398005e+00 
13000 4.4805884794e+00 5.9915973118e-02 2.3660009810e+00 -4.0980339099e+00 2.3660009810e+00 4.0980339099e+00 
13100 4.4805124544e+00 5.9530941288e-02 2.3647349075e+00 -4.0958410061e+00 2.3647349075e+00 4.0958410061e+00 
13200 4.4804375462e+00 5.9147889128e-02 2.3634762958e+00 -4.0936610269e+00 2.3634762958e+00 4.0936610269e+00 
13300 4.4803637400e+00 5.8766539896e-02 2.3622251162e+00 -4.0914939202e+00 2.3622251162e+00 4.0914939202e+00 
13400 4.4802910226e+00 5.8386635572e-02 2.3609813444e+00 -4.0893396442e+00 2.3609813444e+00 4.0893396442e+00 
13500 4.4802193824e+00 5.8007936990e-02 2.3597449616e+00 -4.0871981663e+00 2.3597449616e+00 4.0871981663e+00 
13600 4.4801488088e+00 5.7630223886e-02 2.3585159538e+00 -4.0850694624e+00 2.3585159538e+00 4.0850694624e+00 
13700 4.4800792920e+00 5.7253294855e-02 2.3572943117e+00 -4.0829535163e+00 2.3572943117e+00 4.0829535163e+00 
13800 4.4800108232e+00 5.6876967224e-02 2.3560800302e+00 -4.0808503191e+00 2.3560800302e+00 4.0808503191e+00 
13900 4.4799433938e+00 5.6501076854e-02 2.3548731080e+00 -4.0787598684e+00 2.3548731080e+00 4.0787598684e+00 
14000 4.4798769957e+00 5.6125477866e-02 2.3536735470e+00 -4.0766821679e+00 2.3536735470e+00 4.0766821679e+00 
14100 4.4798116209e+00 5.5750042297e-02 2.3524813524e+00 -4.0746172263e+00 2.3524813524e+00 4.0746172263e+00 
14200 4.4797472614e+00 5.5374659705e-02 2.3512965320e+00 -4.0725650571e+00 2.3512965320e+00 4.0725650571e+00 
14300 4.4796839090e+00 5.4999236703e-02 2.3501190958e+00 -4.0705256777e+00 2.3501190958e+00 4.0705256777e+00 
14400 4.4796215553e+00 5.4623696454e-02 2.3489490557e+00 -4.0684991088e+00 2.3489490557e+00 4.0684991088e+00 
14500 4.4795601917e+00 5.4247978111e-02 2.3477864254e+00 -4.0664853740e+00 2.3477864254e+00 4.0664853740e+00 
14600 4.4794998089e+00 5.3872036219e-02 2.3466312196e+00 -4.0644844990e+00 2.3466312196e+00 4.0644844990e+00 
14700 4.4794403975e+00 5.3495840077e-02 2.3454834542e+00 -4.0624965110e+00 2.3454834542e+00 4.0624965110e+00 
14800 4.4793819474e+00 5.3119373072e-02 2.3443431456e+00 -4.0605214385e+00 2.3443431456e+00 4.0605214385e+00 
14900 4.4793244478e+00 5.2742631978e-02 2.3432103103e+00 -4.0585593102e+00 2.3432103103e+00 4.0585593102e+00 
15000 4.4792678877e+00 5.2365626240e-02 2.3420849651e+00 -4.0566101552e+00 2.3420849651e+00 4.0566101552e+00 
15100 4.4792122554e+00 5.1988377230e-02 2.3409671265e+00 -4.0546740020e+00 2.3409671265e+00 4.0546740020e+00 
15200 4.4791575386e+00 5.1610917497e-02 2.3398568105e+00 -4.0527508783e+00 2.3398568105e+00 4.0527508783e+00 
15300 4.4791037247e+00 5.1233289999e-02 2.3387540323e+00 -4.0508408104e+00 2.3387540323e+00 4.0508408104e+00 
15400 4.4790508006e+00 5.0855547332e-02 2.3376588062e+00 -4.0489438232e+00 2.3376588062e+00 4.0489438232e+00 
15500 4.4789987525e+00 5.0477750953e-02 2.3365711453e+00 -4.0470599392e+00 2.3365711453e+00 4.0470599392e+00 
15600 4.4789475666e+00 5.0099970410e-02 2.3354910614e+00 -4.0451891789e+00 2.3354910614e+00 4.0451891789e+00 
15700 4.4788972285e+00 4.9722282564e-02 2.3344185646e+00 -4.0433315600e+00 2.3344185646e+00 4.0433315600e+00 
15800 4.4788477238e+00 4.9344770832e-02 2.3333536634e+00 -4.0414870971e+00 2.3333536634e+00 4.0414870971e+00 
15900 4.4787990377e+00 4.8967524430e-02 2.3322963646e+00 -4.0396558018e+00 2.3322963646e+00 4.0396558018e+00 
16000 4.4787511551e+00 4.8590637633e-02 2.3312466728e+00 -4.0378376822e+00 2.3312466728e+00 4.0378376822e+00 
16100 4.4787040613e+00 4.8214209048e-02 2.3302045905e+00 -4.0360327428e+00 2.3302045905e+00 4.0360327428e+00 
16200 4.4786577410e+00 4.7838340912e-02 2.3291701182e+00 -4.0342409843e+00 2.3291701182e+00 4.0342409843e+00 
16300 4.4786121792e+00 4.7463138400e-02 2.3281432541e+00 -4.0324624035e+00 2.3281432541e+00 4.0324624035e+00 
16400 4.4785673610e+00 4.7088708965e-02 2.3271239940e+00 -4.0306969931e+00 2.3271239940e+00 4.0306969931e+00 
16500 4.4785232716e+00 4.6715161696e-02 2.3261123312e+00 -4.0289447417e+00 2.3261123312e+00 4.0289447417e+00 
16600 4.4784798962e+00 4.6342606701e-02 2.3251082567e+00 -4.0272056337e+00 2.3251082567e+00 4.0272056337e+00 
16700 4.4784372205e+00 4.5971154528e-02 2.3241117592e+00 -4.0254796493e+00 2.3241117592e+00 4.0254796493e+00 
16800 4.4783952301e+00 4.5600915598e-02 2.3231228245e+00 -4.0237667643e+00 2.3231228245e+00 4.0237667643e+00 
16900 4.4783539111e+00 4.5231999680e-02 2.3221414364e+00 -4.0220669502e+00 2.3221414364e+00 4.0220669502e+00 
17000 4.4783132499e+00 4.4864515395e-02 2.3211675759e+00 -4.0203801743e+00 2.3211675759e+00 4.0203801743e+00 
17100 4.4782732332e+00 4.4498569744e-02 2.3202012217e+00 -4.0187063997e+00 2.3202012217e+00 4.0187063997e+00 
17200 4.4782338480e+00 4.4134267673e-02 2.3192423500e+00 -4.0170455853e+00 2.3192423500e+00 4.0170455853e+00 
17300 4.4781950818e+00 4.3771711673e-02 2.3182909348e+00 -4.0153976858e+00 2.3182909348e+00 4.0153976858e+00 
17400 4.4781569223e+00 4.3411001402e-02 2.3173469476e+00 -4.0137626520e+00 2.3173469476e+00 4.0137626520e+00 
17500 4.4781193578e+00 4.3052233352e-02 2.3164103577e+00 -4.0121404307e+00 2.3164103577e+00 4.0121404307e+00 
17600 4.4780823768e+00 4.2695500535e-02 2.3154811321e+00 -4.0105309648e+00 2.3154811321e+00 4.0105309648e+00 
17700 4.4780459682e+00 4.2340892210e-02 2.3145592359e+00 -4.0089341938e+00 2.3145592359e+00 4.0089341938e+00 
17800 4.4780101215e+00 4.1988493635e-02 2.3136446319e+00 -4.0073500532e+00 2.3136446319e+00 4.0073500532e+00 
17900 4.4779748263e+00 4.1638385856e-02 2.3127372811e+00 -4.0057784754e+00 2.3127372811e+00 4.0057784754e+00 
18000 4.4779400728e+00 4.1290645520e-02 2.3118371425e+00 -4.0042193896e+00 2.3118371425e+00 4.0042193896e+00 
18100 4.4779058513e+00 4.0945344719e-02 2.3109441733e+00 -4.0026727216e+00 2.3109441733e+00 4.0026727216e+00 
18200 4.4778721527e+00 4.0602550865e-02 2.3100583291e+00 -4.0011383945e+00 2.3100583291e+00 4.0011383945e+00 
18300 4.4778389680e+00 4.0262326590e-02 2.3091795640e+00 -3.9996163286e+00 2.3091795640e+00 3.9996163286e+00 
18400 4.4778062889e+00 3.9924729669e-02 2.3083078303e+00 -3.9981064416e+00 2.3083078303e+00 3.9981064416e+00 
18500 4.4777741068e+00 3.9589812978e-02 2.3074430792e+00 -3.9966086487e+00 2.3074430792e+00 3.9966086487e+00 
18600 4.4777424140e+00 3.9257624466e-02 2.3065852604e+00 -3.9951228630e+00 2.3065852604e+00 3.9951228630e+00 
18700 4.4777112026e+00 3.8928207155e-02 2.3057343227e+00 -3.9936489956e+00 2.3057343227e+00 3.9936489956e+00 
18800 4.4776804651e+00 3.8601599160e-02 2.3048902135e+00 -3.9921869556e+00 2.3048902135e+00 3.9921869556e+00 
18900 4.4776501944e+00 3.8277833734e-02 2.3040528794e+00 -3.9907366505e+00 2.3040528794e+00 3.9907366505e+00 
19000 4.4776203832e+00 3.7956939325e-02 2.3032222663e+00 -3.9892979863e+00 2.3032222663e+00 3.9892979863e+00 
19100 4.4775910249e+00 3.7638939654e-02 2.3023983190e+00 -3.9878708677e+00 2.3023983190e+00 3.9878708677e+00 
19200 4.4775621127e+00 3.7323853813e-02 2.3015809818e+00 -3.9864551983e+00 2.3015809818e+00 3.9864551983e+00 
19300 4.4775336400e+00 3.7011696374e-02 2.3007701987e+00 -3.9850508807e+00 2.3007701987e+00 3.9850508807e+00 
19400 4.4775056006e+00 3.6702477511e-02 2.2999659128e+00 -3.9836578167e+00 2.2999659128e+00 3.9836578167e+00 
19500 4.4774779881e+00 3.6396203141e-02 2.2991680672e+00 -3.9822759075e+00 2.2991680672e+00 3.9822759075e+00 
19600 4.4774507964e+00 3.6092875066e-02 2.2983766045e+00 -3.9809050540e+00 2.2983766045e+00 3.9809050540e+00 
19700 4.4774240195e+00 3.5792491139e-02 2.2975914673e+00 -3.9795451565e+00 2.2975914673e+00 3.9795451565e+00 
19800 4.4773976516e+00 3.5495045422e-02 2.2968125981e+00 -3.9781961153e+00 2.2968125981e+00 3.9781961153e+00 
19900 4.4773716867e+00 3.5200528370e-02 2.2960399391e+00 -3.9768578308e+00 2.2960399391e+00 3.9768578308e+00 
20000 4.4773461191e+00 3.4908927004e-02 2.2952734331e+00 -3.9755302034e+00 2.2952734331e+00 3.9755302034e+00 
20100 4.4773209432e+00 3.4620225102e-02 2.2945130227e+00 -3.9742131339e+00 2.2945130227e+00 3.9742131339e+00 
20200 4.4772961534e+00 3.4334403385e-02 2.2937586507e+00 -3.9729065232e+00 2.2937586507e+00 3.9729065232e+00 
20300 4.4772717441e+00 3.4051439717e-02 2.2930102603e+00 -3.9716102732e+00 2.2930102603e+00 3.9716102732e+00 
20400 4.4772477099e+00 3.3771309294e-02 2.2922677952e+00 -3.9703242859e+00 2.2922677952e+00 3.9703242859e+00 
20500 4.4772240453e+00 3.3493984845e-02 2.2915311994e+00 -3.9690484644e+00 2.2915311994e+00 3.9690484644e+00 
20600 4.4772007450e+00 3.3219436825e-02 2.2908004172e+00 -3.9677827125e+00 2.2908004172e+00 3.9677827125e+00 
20700 4.4771778038e+00 3.2947633617e-02 2.2900753936e+00 -3.9665269350e+00 2.2900753936e+00 3.9665269350e+00 
20800 4.4771552162e+00 3.2678541719e-02 2.2893560744e+00 -3.9652810374e+00 2.2893560744e+00 3.9652810374e+00 
20900 4.4771329773e+00 3.2412125943e-02 2.2886424055e+00 -3.9640449267e+00 2.2886424055e+00 3.9640449267e+00 
21000 4.4771110818e+00 3.2148349602e-02 2.2879343339e+00 -3.9628185107e+00 2.2879343339e+00 3.9628185107e+00 
21100 4.4770895246e+00 3.1887174694e-02 2.2872318071e+00 -3.9616016986e+00 2.2872318071e+00 3.9616016986e+00 
21200 4.4770683006e+00 3.1628562089e-02 2.2865347733e+00 -3.9603944007e+00 2.2865347733e+00 3.9603944007e+00 
21300 4.4770474050e+00 3.1372471697e-02 2.2858431817e+00 -3.9591965288e+00 2.2858431817e+00 3.9591965288e+00 
21400 4.4770268328e+00 3.1118862649e-02 2.2851569819e+00 -3.9580079960e+00 2.2851569819e+00 3.9580079960e+00 
21500 4.4770065790e+00 3.0867693457e-02 2.2844761246e+00 -3.9568287165e+00 2.2844761246e+00 3.9568287165e+00 
21600 4.4769866389e+00 3.0618922174e-02 2.2838005612e+00 -3.9556586063e+00 2.2838005612e+00 3.9556586063e+00 
21700 4.4769670078e+00 3.0372506550e-02 2.2831302438e+00 -3.9544975825e+00 2.2831302438e+00 3.9544975825e+00 
21800 4.4769476808e+00 3.0128404175e-02 2.2824651255e+00 -3.9533455639e+00 2.2824651255e+00 3.9533455639e+00 
21900 4.4769286534e+00 2.9886572622e-02 2.2818051603e+00 -3.9522024707e+00 2.2818051603e+00 3.9522024707e+00 
22000 4.4769099209e+00 2.9646969574e-02 2.2811503029e+00 -3.9510682243e+00 2.2811503029e+00 3.9510682243e+00 
22100 4.4768914790e+00 2.9409552954e-02 2.2805005087e+00 -3.9499427478e+00 2.2805005087e+00 3.9499427478e+00 
22200 4.4768733230e+00 2.9174281037e-02 2.2798557343e+00 -3.9488259658e+00 2.2798557343e+00 3.9488259658e+00 
22300 4.4768554485e+00 2.8941112563e-02 2.2792159369e+00 -3.9477178042e+00 2.2792159369e+00 3.9477178042e+00 
22400 4.4768378514e+00 2.8710006839e-02 2.2785810746e+00 -3.9466181903e+00 2.2785810746e+00 3.9466181903e+00 
22500 4.4768205272e+00 2.8480923829e-02 2.2779511061e+00 -3.9455270530e+00 2.2779511061e+00 3.9455270530e+00 
22600 4.4768034717e+00 2.8253824243e-02 2.2773259913e+00 -3.9444443223e+00 2.2773259913e+00 3.9444443223e+00 
22700 4.4767866809e+00 2.8028669616e-02 2.2767056905e+00 -3.9433699298e+00 2.2767056905e+00 3.9433699298e+00 
22800 4.4767701505e+00 2.7805422377e-02 2.2760901651e+00 -3.9423038085e+00 2.2760901651e+00 3.9423038085e+00 
22900 4.4767538767e+00 2.7584045915e-02 2.2754793769e+00 -3.9412458924e+00 2.2754793769e+00 3.9412458924e+00 
23000 4.4767378554e+00 2.7364504633e-02 2.2748732888e+00 -3.9401961169e+00 2.2748732888e+00 3.9401961169e+00 
23100 4.4767220827e+00 2.7146763999e-02 2.2742718641e+00 -3.9391544188e+00 2.2742718641e+00 3.9391544188e+00 
23200 4.4767065548e+00 2.6930790585e-02 2.2736750670e+00 -3.9381207360e+00 2.2736750670e+00 3.9381207360e+00 
23300 4.4766912679e+00 2.6716552106e-02 2.2730828623e+00 -3.9370950073e+00 2.2730828623e+00 3.9370950073e+00 
23400 4.4766762182e+00 2.6504017446e-02 2.2724952154e+00 -3.9360771731e+00 2.2724952154e+00 3.9360771731e+00 
23500 4.4766614022e+00 2.6293156682e-02 2.2719120925e+00 -3.9350671745e+00 2.2719120925e+00 3.9350671745e+00 
23600 4.4766468162e+00 2.6083941099e-02 2.2713334600e+00 -3.9340649537e+00 2.2713334600e+00 3.9340649537e+00 
23700 4.4766324567e+00 2.5876343201e-02 2.2707592854e+00 -3.9330704540e+00 2.2707592854e+00 3.9330704540e+00 
23800 4.4766183201e+00 2.5670336717e-02 2.2701895363e+00 -3.9320836197e+00 2.2701895363e+00 3.9320836197e+00 
23900 4.4766044031e+00 2.5465896596e-02 2.2696241810e+00 -3.9311043957e+00 2.2696241810e+00 3.9311043957e+00 
24000 4.4765907022e+00 2.5262999009e-02 2.2690631885e+00 -3.9301327280e+00 2.2690631885e+00 3.9301327280e+00 
24100 4.4765772141e+00 2.5061621333e-02 2.2685065278e+00 -3.9291685634e+00 2.2685065278e+00 3.9291685634e+00 
24200 4.4765639355e+00 2.4861742137e-02 2.2679541687e+00 -3.9282118494e+00 2.2679541687e+00 3.9282118494e+00 
24300 4.4765508632e+00 2.4663341168e-02 2.2674060813e+00 -3.9272625342e+00 2.2674060813e+00 3.9272625342e+00 
24400 4.4765379940e+00 2.4466399321e-02 2.2668622362e+00 -3.9263205668e+00 2.2668622362e+00 3.9263205668e+00 
24500 4.4765253248e+00 2.4270898621e-02 2.2663226042e+00 -3.9253858968e+00 2.2663226042e+00 3.9253858968e+00 
24600 4.4765128525e+00 2.4076822187e-02 2.2657871565e+00 -3.9244584742e+00 2.2657871565e+00 3.9244584742e+00 
24700 4.4765005740e+00 2.3884154206e-02 2.2652558648e+00 -3.9235382499e+00 2.2652558648e+00 3.9235382499e+00 
24800 4.4764884864e+00 2.3692879892e-02 2.2647287007e+00 -3.9226251750e+00 2.2647287007e+00 3.9226251750e+00 
24900 4.4764765867e+00 2.3502985455e-02 2.2642056366e+00 -3.9217192014e+00 2.2642056366e+00 3.9217192014e+00 
25000 4.4764648720e+00 2.3314458058e-02 2.2636866447e+00 -3.9208202810e+00 2.2636866447e+00 3.9208202810e+00 
25100 4.4764533394e+00 2.3127285776e-02 2.2631716977e+00 -3.9199283666e+00 2.2631716977e+00 3.9199283666e+00 
25200 4.4764419862e+00 2.2941457556e-02 2.2626607684e+00 -3.9190434111e+00 2.2626607684e+00 3.9190434111e+00 
25300 4.4764308095e+00 2.2756963174e-02 2.2621538298e+00 -3.9181653677e+00 2.2621538298e+00 3.9181653677e+00 
25400 4.4764198066e+00 2.2573793185e-02 2.2616508552e+00 -3.9172941901e+00 2.2616508552e+00 3.9172941901e+00 
25500 4.4764089748e+00 2.2391938884e-02 2.2611518179e+00 -3.9164298321e+00 2.2611518179e+00 3.9164298321e+00 
25600 4.4763983115e+00 2.2211392257e-02 2.2606566914e+00 -3.9155722480e+00 2.2606566914e+00 3.9155722480e+00 
25700 4.4763878140e+00 2.2032145933e-02 2.2601654495e+00 -3.9147213920e+00 2.2601654495e+00 3.9147213920e+00 
25800 4.4763774798e+00 2.1854193142e-02 2.2596780658e+00 -3.9138772187e+00 2.2596780658e+00 3.9138772187e+00 
25900 4.4763673064e+00 2.1677527667e-02 2.2591945143e+00 -3.9130396830e+00 2.2591945143e+00 3.9130396830e+00 
26000 4.4763572912e+00 2.1502143796e-02 2.2587147690e+00 -3.9122087397e+00 2.2587147690e+00 3.9122087397e+00 
26100 4.4763474318e+00 2.1328036281e-02 2.2582388039e+00 -3.9113843440e+00 2.2582388039e+00 3.9113843440e+00 
26200 4.4763377257e+00 2.1155200289e-02 2.2577665931e+00 -3.9105664509e+00 2.2577665931e+00 3.9105664509e+00 
26300 4.4763281706e+00 2.0983631361e-02 2.2572981110e+00 -3.9097550160e+00 2.2572981110e+00 3.9097550160e+00 
26400 4.4763187642e+00 2.0813325367e-02 2.2568333316e+00 -3.9089499945e+00 2.2568333316e+00 3.9089499945e+00 
26500 4.4763095041e+00 2.0644278467e-02 2.2563722294e+00 -3.9081513421e+00 2.2563722294e+00 3.9081513421e+00 
26600 4.4763003880e+00 2.0476487066e-02 2.2559147787e+00 -3.9073590143e+00 2.2559147787e+00 3.9073590143e+00 
26700 4.4762914137e+00 2.0309947781e-02 2.2554609539e+00 -3.9065729667e+00 2.2554609539e+00 3.9065729667e+00 
26800 4.4762825791e+00 2.0144657395e-02 2.2550107295e+00 -3.9057931551e+00 2.2550107295e+00 3.9057931551e+00 
26900 4.4762738818e+00 1.9980612828e-02 2.2545640799e+00 -3.9050195353e+00 2.2545640799e+00 3.9050195353e+00 
27000 4.4762653199e+00 1.9817811099e-02 2.2541209797e+00 -3.9042520632e+00 2.2541209797e+00 3.9042520632e+00 
27100 4.4762568911e+00 1.9656249291e-02 2.2536814033e+00 -3.9034906946e+00 2.2536814033e+00 3.9034906946e+00 
27200 4.4762485934e+00 1.9495924524e-02 2.2532453253e+00 -3.9027353854e+00 2.2532453253e+00 3.9027353854e+00 
27300 4.4762404249e+00 1.9336833920e-02 2.2528127204e+00 -3.9019860917e+00 2.2528127204e+00 3.9019860917e+00 
27400 4.4762323834e+00 1.9178974581e-02 2.2523835631e+00 -3.9012427695e+00 2.2523835631e+00 3.9012427695e+00 
27500 4.4762244670e+00 1.9022343557e-02 2.2519578281e+00 -3.9005053748e+00 2.2519578281e+00 3.9005053748e+00 
27600 4.4762166737e+00 1.8866937825e-02 2.2515354901e+00 -3.8997738639e+00 2.2515354901e+00 3.8997738639e+00 
27700 4.4762090017e+00 1.8712754267e-02 2.2511165237e+00 -3.8990481929e+00 2.2511165237e+00 3.8990481929e+00 
27800 4.4762014491e+00 1.8559789645e-02 2.2507009038e+00 -3.8983283180e+00 2.2507009038e+00 3.8983283180e+00 
27900 4.4761940139e+00 1.8408040589e-02 2.2502886051e+00 -3.8976141957e+00 2.2502886051e+00 3.8976141957e+00 
28000 4.4761866945e+00 1.8257503573e-02 2.2498796023e+00 -3.8969057822e+00 2.2498796023e+00 3.8969057822e+00 
28100 4.4761794889e+00 1.8108174904e-02 2.2494738705e+00 -3.8962030341e+00 2.2494738705e+00 3.8962030341e+00 
28200 4.4761723955e+00 1.7960050708e-02 2.2490713845e+00 -3.8955059079e+00 2.2490713845e+00 3.8955059079e+00 
28300 4.4761654125e+00 1.7813126917e-02 2.2486721193e+00 -3.8948143602e+00 2.2486721193e+00 3.8948143602e+00 
28400 4.4761585381e+00 1.7667399257e-02 2.2482760499e+00 -3.8941283479e+00 2.2482760499e+00 3.8941283479e+00 
28500 4.4761517708e+00 1.7522863245e-02 2.2478831515e+00 -3.8934478278e+00 2.2478831515e+00 3.8934478278e+00 
28600 4.4761451088e+00 1.7379514177e-02 2.2474933991e+00 -3.8927727569e+00 2.2474933991e+00 3.8927727569e+00 
28700 4.4761385504e+00 1.7237347126e-02 2.2471067680e+00 -3.8921030922e+00 2.2471067680e+00 3.8921030922e+00 
28800 4.4761320942e+00 1.7096356933e-02 2.2467232336e+00 -3.8914387911e+00 2.2467232336e+00 3.8914387911e+00 
28900 4.4761257386e+00 1.6956538212e-02 2.2463427711e+00 -3.8907798108e+00 2.2463427711e+00 3.8907798108e+00 
29000 4.4761194818e+00 1.6817885342e-02 2.2459653563e+00 -3.8901261091e+00 2.2459653563e+00 3.8901261091e+00 
29100 4.4761133226e+00 1.6680392471e-02 2.2455909645e+00 -3.8894776436e+00 2.2455909645e+00 3.8894776436e+00 
29200 4.4761072592e+00 1.6544053516e-02 2.2452195716e+00 -3.8888343721e+00 2.2452195716e+00 3.8888343721e+00 
29300 4.4761012903e+00 1.6408862165e-02 2.2448511533e+00 -3.8881962529e+00 2.2448511533e+00 3.8881962529e+00 
29400 4.4760954144e+00 1.6274811883e-02 2.2444856854e+00 -3.8875632441e+00 2.2444856854e+00 3.8875632441e+00 
29500 4.4760896300e+00 1.6141895911e-02 2.2441231442e+00 -3.8869353042e+00 2.2441231442e+00 3.8869353042e+00 
29600 4.4760839358e+00 1.6010107280e-02 2.2437635056e+00 -3.8863123919e+00 2.2437635056e+00 3.8863123919e+00 
29700 4.4760783303e+00 1.5879438807e-02 2.2434067460e+00 -3.8856944662e+00 2.2434067460e+00 3.8856944662e+00 
29800 4.4760728122e+00 1.5749883112e-02 2.2430528418e+00 -3.8850814861e+00 2.2430528418e+00 3.8850814861e+00 
29900 4.4760673800e+00 1.5621432620e-02 2.2427017696e+00 -3.8844734111e+00 2.2427017696e+00 3.8844734111e+00 
30000 4.4760620326e+00 1.5494079569e-02 2.2423535060e+00 -3.8838702009e+00 2.2423535060e+00 3.8838702009e+00 
30100 4.4760567685e+00 1.5367816023e-02 2.2420080278e+00 -3.8832718152e+00 2.2420080278e+00 3.8832718152e+00 
30200 4.4760515865e+00 1.5242633879e-02 2.2416653122e+00 -3.8826782143e+00 2.2416653122e+00 3.8826782143e+00 
30300 4.4760464853e+00 1.5118524877e-02 2.2413253362e+00 -3.8820893586e+00 2.2413253362e+00 3.8820893586e+00 
30400 4.4760414636e+00 1.4995480610e-02 2.2409880771e+00 -3.8815052087e+00 2.2409880771e+00 3.8815052087e+00 
30500 4.4760365203e+00 1.4873492537e-02 2.2406535125e+00 -3.8809257258e+00 2.2406535125e+00 3.8809257258e+00 
30600 4.4760316540e+00 1.4752551990e-02 2.2403216199e+00 -3.8803508710e+00 2.2403216199e+00 3.8803508710e+00 
30700 4.4760268637e+00 1.4632650190e-02 2.2399923772e+00 -3.8797806059e+00 2.2399923772e+00 3.8797806059e+00 
30800 4.4760221481e+00 1.4513778253e-02 2.2396657624e+00 -3.8792148924e+00 2.2396657624e+00 3.8792148924e+00 
30900 4.4760175060e+00 1.4395927206e-02 2.2393417536e+00 -3.8786536927e+00 2.2393417536e+00 3.8786536927e+00 
31000 4.4760129364e+00 1.4279087995e-02 2.2390203292e+00 -3.8780969693e+00 2.2390203292e+00 3.8780969693e+00 
31100 4.4760084381e+00 1.4163251497e-02 2.2387014676e+00 -3.8775446849e+00 2.2387014676e+00 3.8775446849e+00 
31200 4.4760040100e+00 1.4048408532e-02 2.2383851477e+00 -3.8769968027e+00 2.2383851477e+00 3.8769968027e+00 
31300 4.4759996510e+00 1.3934549876e-02 2.2380713483e+00 -3.8764532861e+00 2.2380713483e+00 3.8764532861e+00 
31400 4.4759953600e+00 1.3821666266e-02 2.2377600484e+00 -3.8759140989e+00 2.2377600484e+00 3.8759140989e+00 
31500 4.4759911360e+00 1.3709748418e-02 2.2374512273e+00 -3.8753792052e+00 2.2374512273e+00 3.8753792052e+00 
31600 4.4759869779e+00 1.3598787030e-02 2.2371448645e+00 -3.8748485693e+00 2.2371448645e+00 3.8748485693e+00 
31700 4.4759828848e+00 1.3488772801e-02 2.2368409397e+00 -3.8743221560e+00 2.2368409397e+00 3.8743221560e+00 
31800 4.4759788555e+00 1.3379696432e-02 2.2365394326e+00 -3.8737999303e+00 2.2365394326e+00 3.8737999303e+00 
31900 4.4759748891e+00 1.3271548642e-02 2.2362403232e+00 -3.8732818577e+00 2.2362403232e+00 3.8732818577e+00 
32000 4.4759709847e+00 1.3164320175e-02 2.2359435918e+00 -3.8727679038e+00 2.2359435918e+00 3.8727679038e+00 
32100 4.4759671412e+00 1.3058001808e-02 2.2356492187e+00 -3.8722580347e+00 2.2356492187e+00 3.8722580347e+00 
32200 4.4759633577e+00 1.2952584362e-02 2.2353571846e+00 -3.8717522167e+00 2.2353571846e+00 3.8717522167e+00 
32300 4.4759596333e+00 1.2848058707e-02 2.2350674701e+00 -3.8712504166e+00 2.2350674701e+00 3.8712504166e+00 
32400 4.4759559670e+00 1.2744415773e-02 2.2347800564e+00 -3.8707526014e+00 2.2347800564e+00 3.8707526014e+00 
32500 4.4759523580e+00 1.2641646555e-02 2.2344949244e+00 -3.8702587383e+00 2.2344949244e+00 3.8702587383e+00 
32600 4.4759488054e+00 1.2539742120e-02 2.2342120556e+00 -3.8697687951e+00 2.2342120556e+00 3.8697687951e+00 
32700 4.4759453082e+00 1.2438693614e-02 2.2339314314e+00 -3.8692827397e+00 2.2339314314e+00 3.8692827397e+00 
32800 4.4759418657e+00 1.2338492269e-02 2.2336530335e+00 -3.8688005405e+00 2.2336530335e+00 3.8688005405e+00 
32900 4.4759384769e+00 1.2239129406e-02 2.2333768438e+00 -3.8683221659e+00 2.2333768438e+00 3.8683221659e+00 
33000 4.4759351410e+00 1.2140596442e-02 2.2331028444e+00 -3.8678475850e+00 2.2331028444e+00 3.8678475850e+00 
33100 4.4759318572e+00 1.2042884895e-02 2.2328310175e+00 -3.8673767670e+00 2.2328310175e+00 3.8673767670e+00 
33200 4.4759286247e+00 1.1945986384e-02 2.2325613454e+00 -3.8669096813e+00 2.2325613454e+00 3.8669096813e+00 
33300 4.4759254427e+00 1.1849892639e-02 2.2322938108e+00 -3.8664462978e+00 2.2322938108e+00 3.8664462978e+00 
33400 4.4759223105e+00 1.1754595500e-02 2.2320283964e+00 -3.8659865866e+00 2.2320283964e+00 3.8659865866e+00 
33500 4.4759192271e+00 1.1660086921e-02 2.2317650852e+00 -3.8655305181e+00 2.2317650852e+00 3.8655305181e+00 
33600 4.4759161919e+00 1.1566358971e-02 2.2315038601e+00 -3.8650780630e+00 2.2315038601e+00 3.8650780630e+00 
33700 4.4759132041e+00 1.1473403841e-02 2.2312447045e+00 -3.8646291923e+00 2.2312447045e+00 3.8646291923e+00 
33800 4.4759102630e+00 1.1381213837e-02 2.2309876017e+00 -3.8641838773e+00 2.2309876017e+00 3.8641838773e+00 
33900 4.4759073678e+00 1.1289781391e-02 2.2307325354e+00 -3.8637420894e+00 2.2307325354e+00 3.8637420894e+00 
34000 4.4759045178e+00 1.1199099054e-02 2.2304794892e+00 -3.8633038005e+00 2.2304794892e+00 3.8633038005e+00 
34100 4.4759017124e+00 1.1109159501e-02 2.2302284470e+00 -3.8628689827e+00 2.2302284470e+00 3.8628689827e+00 
34200 4.4758989508e+00 1.1019955529e-02 2.2299793929e+00 -3.8624376083e+00 2.2299793929e+00 3.8624376083e+00 
34300 4.4758962324e+00 1.0931480058e-02 2.2297323109e+00 -3.8620096498e+00 2.2297323109e+00 3.8620096498e+00 
34400 4.4758935564e+00 1.0843726130e-02 2.2294871856e+00 -3.8615850802e+00 2.2294871856e+00 3.8615850802e+00 
34500 4.4758909223e+00 1.0756686910e-02 2.2292440012e+00 -3.8611638725e+00 2.2292440012e+00 3.8611638725e+00 
34600 4.4758883293e+00 1.0670355681e-02 2.2290027424e+00 -3.8607460001e+00 2.2290027424e+00 3.8607460001e+00 
34700 4.4758857768e+00 1.0584725846e-02 2.2287633940e+00 -3.8603314365e+00 2.2287633940e+00 3.8603314365e+00 
34800 4.4758832642e+00 1.0499790927e-02 2.2285259409e+00 -3.8599201556e+00 2.2285259409e+00 3.8599201556e+00 
34900 4.4758807908e+00 1.0415544560e-02 2.2282903680e+00 -3.8595121314e+00 2.2282903680e+00 3.8595121314e+00 
35000 4.4758783562e+00 1.0331980495e-02 2.2280566605e+00 -3.8591073381e+00 2.2280566605e+00 3.8591073381e+00 
35100 4.4758759595e+00 1.0249092597e-02 2.2278248037e+00 -3.8587057504e+00 2.2278248037e+00 3.8587057504e+00 
35200 4.4758736003e+00 1.0166874836e-02 2.2275947830e+00 -3.8583073429e+00 2.2275947830e+00 3.8583073429e+00 
35300 4.4758712780e+00 1.0085321291e-02 2.2273665839e+00 -3.8579120905e+00 2.2273665839e+00 3.8579120905e+00 
35400 4.4758689920e+00 1.0004426148e-02 2.2271401921e+00 -3.8575199684e+00 2.2271401921e+00 3.8575199684e+00 
35500 4.4758667417e+00 9.9241836906e-03 2.2269155934e+00 -3.8571309519e+00 2.2269155934e+00 3.8571309519e+00 
35600 4.4758645266e+00 9.8445883043e-03 2.2266927736e+00 -3.8567450167e+00 2.2266927736e+00 3.8567450167e+00 
35700 4.4758623461e+00 9.7656344698e-03 2.2264717187e+00 -3.8563621384e+00 2.2264717187e+00 3.8563621384e+00 
35800 4.4758601997e+00 9.6873167611e-03 2.2262524149e+00 -3.8559822931e+00 2.2262524149e+00 3.8559822931e+00 
35900 4.4758580869e+00 9.6096298423e-03 2.2260348484e+00 -3.8556054569e+00 2.2260348484e+00 3.8556054569e+00 
36000 4.4758560071e+00 9.5325684649e-03 2.2258190056e+00 -3.8552316061e+00 2.2258190056e+00 3.8552316061e+00 
36100 4.4758539597e+00 9.4561274643e-03 2.2256048728e+00 -3.8548607173e+00 2.2256048728e+00 3.8548607173e+00 
36200 4.4758519444e+00 9.3803017569e-03 2.2253924367e+00 -3.8544927671e+00 2.2253924367e+00 3.8544927671e+00 
36300 4.4758499606e+00 9.3050863369e-03 2.2251816839e+00 -3.8541277326e+00 2.2251816839e+00 3.8541277326e+00 
36400 4.4758480079e+00 9.2304762734e-03 2.2249726012e+00 -3.8537655907e+00 2.2249726012e+00 3.8537655907e+00 
36500 4.4758460856e+00 9.1564667072e-03 2.2247651754e+00 -3.8534063187e+00 2.2247651754e+00 3.8534063187e+00 
36600 4.4758441934e+00 9.0830528476e-03 2.2245593936e+00 -3.8530498941e+00 2.2245593936e+00 3.8530498941e+00 
36700 4.4758423308e+00 9.0102299699e-03 2.2243552427e+00 -3.8526962945e+00 2.2243552427e+00 3.8526962945e+00 
36800 4.4758404973e+00 8.9379934119e-03 2.2241527100e+00 -3.8523454975e+00 2.2241527100e+00 3.8523454975e+00 
36900 4.4758386925e+00 8.8663385712e-03 2.2239517827e+00 -3.8519974813e+00 2.2239517827e+00 3.8519974813e+00 
37000 4.4758369159e+00 8.7952609026e-03 2.2237524482e+00 -3.8516522238e+00 2.2237524482e+00 3.8516522238e+00 
37100 4.4758351671e+00 8.7247559152e-03 2.2235546940e+00 -3.8513097034e+00 2.2235546940e+00 3.8513097034e+00 
37200 4.4758334456e+00 8.6548191693e-03 2.2233585075e+00 -3.8509698984e+00 2.2233585075e+00 3.8509698984e+00 
37300 4.4758317511e+00 8.5854462746e-03 2.2231638764e+00 -3.8506327875e+00 2.2231638764e+00 3.8506327875e+00 
37400 4.4758300830e+00 8.5166328872e-03 2.2229707885e+00 -3.8502983494e+00 2.2229707885e+00 3.8502983494e+00 
37500 4.4758284411e+00 8.4483747073e-03 2.2227792315e+00 -3.8499665630e+00 2.2227792315e+00 3.8499665630e+00 
37600 4.4758268248e+00 8.3806674767e-03 2.2225891935e+00 -3.8496374074e+00 2.2225891935e+00 3.8496374074e+00 
37700 4.4758252338e+00 8.3135069769e-03 2.2224006622e+00 -3.8493108618e+00 2.2224006622e+00 3.8493108618e+00 
37800 4.4758236677e+00 8.2468890271e-03 2.2222136260e+00 -3.8489869055e+00 2.2222136260e+00 3.8489869055e+00 
37900 4.4758221261e+00 8.1808094816e-03 2.2220280728e+00 -3.8486655180e+00 2.2220280728e+00 3.8486655180e+00 
38000 4.4758206086e+00 8.1152642285e-03 2.2218439911e+00 -3.8483466790e+00 2.2218439911e+00 3.8483466790e+00 
38100 4.4758191148e+00 8.0502491876e-03 2.2216613691e+00 -3.8480303684e+00 2.2216613691e+00 3.8480303684e+00 
38200 4.4758176444e+00 7.9857603090e-03 2.2214801952e+00 -3.8477165661e+00 2.2214801952e+00 3.8477165661e+00 
38300 4.4758161970e+00 7.9217935712e-03 2.2213004580e+00 -3.8474052521e+00 2.2213004580e+00 3.8474052521e+00 
38400 4.4758147723e+00 7.8583449798e-03 2.2211221461e+00 -3.8470964068e+00 2.2211221461e+00 3.8470964068e+00 
38500 4.4758133698e+00 7.7954105663e-03 2.2209452481e+00 -3.8467900105e+00 2.2209452481e+00 3.8467900105e+00 
38600 4.4758119893e+00 7.7329863865e-03 2.2207697528e+00 -3.8464860437e+00 2.2207697528e+00 3.8464860437e+00 
38700 4.4758106304e+00 7.6710685198e-03 2.2205956491e+00 -3.8461844873e+00 2.2205956491e+00 3.8461844873e+00 
38800 4.4758092927e+00 7.6096530677e-03 2.2204229258e+00 -3.8458853219e+00 2.2204229258e+00 3.8458853219e+00 
38900 4.4758079760e+00 7.5487361533e-03 2.2202515721e+00 -3.8455885285e+00 2.2202515721e+00 3.8455885285e+00 
39000 4.4758066799e+00 7.4883139201e-03 2.2200815770e+00 -3.8452940883e+00 2.2200815770e+00 3.8452940883e+00 
39100 4.4758054040e+00 7.4283825315e-03 2.2199129296e+00 -3.8450019824e+00 2.2199129296e+00 3.8450019824e+00 
39200 4.4758041481e+00 7.3689381701e-03 2.2197456192e+00 -3.8447121923e+00 2.2197456192e+00 3.8447121923e+00 
39300 4.4758029119e+00 7.3099770369e-03 2.2195796352e+00 -3.8444246996e+00 2.2195796352e+00 3.8444246996e+00 
39400 4.4758016950e+00 7.2514953512e-03 2.2194149669e+00 -3.8441394858e+00 2.2194149669e+00 3.8441394858e+00 
39500 4.4758004971e+00 7.1934893499e-03 2.2192516039e+00 -3.8438565327e+00 2.2192516039e+00 3.8438565327e+00 
39600 4.4757993180e+00 7.1359552873e-03 2.2190895357e+00 -3.8435758224e+00 2.2190895357e+00 3.8435758224e+00 
39700 4.4757981574e+00 7.0788894350e-03 2.2189287520e+00 -3.8432973368e+00 2.2189287520e+00 3.8432973368e+00 
39800 4.4757970149e+00 7.0222880814e-03 2.2187692425e+00 -3.8430210583e+00 2.2187692425e+00 3.8430210583e+00 
39900 4.4757958903e+00 6.9661475316e-03 2.2186109970e+00 -3.8427469690e+00 2.2186109970e+00 3.8427469690e+00 
40000 4.4757947833e+00 6.9104641079e-03 2.2184540054e+00 -3.8424750516e+00 2.2184540054e+00 3.8424750516e+00 
40100 4.4757936936e+00 6.8552341491e-03 2.2182982577e+00 -3.8422052886e+00 2.2182982577e+00 3.8422052886e+00 
40200 4.4757926210e+00 6.8004540109e-03 2.2181437439e+00 -3.8419376629e+00 2.2181437439e+00 3.8419376629e+00 
40300 4.4757915651e+00 6.7461200661e-03 2.2179904541e+00 -3.8416721572e+00 2.2179904541e+00 3.8416721572e+00 
40400 4.4757905258e+00 6.6922287044e-03 2.2178383785e+00 -3.8414087546e+00 2.2178383785e+00 3.8414087546e+00 
40500 4.4757895027e+00 6.6387763330e-03 2.2176875074e+00 -3.8411474382e+00 2.2176875074e+00 3.8411474382e+00 
40600 4.4757884957e+00 6.5857593767e-03 2.2175378312e+00 -3.8408881914e+00 2.2175378312e+00 3.8408881914e+00 
40700 4.4757875044e+00 6.5331742779e-03 2.2173893403e+00 -3.8406309975e+00 2.2173893403e+00 3.8406309975e+00 
40800 4.4757865287e+00 6.4810174971e-03 2.2172420251e+00 -3.8403758402e+00 2.2172420251e+00 3.8403758402e+00 
40900 4.4757855682e+00 6.4292855134e-03 2.2170958763e+00 -3.8401227030e+00 2.2170958763e+00 3.8401227030e+00 
41000 4.4757846228e+00 6.3779748246e-03 2.2169508845e+00 -3.8398715698e+00 2.2169508845e+00 3.8398715698e+00 
41100 4.4757836921e+00 6.3270819474e-03 2.2168070404e+00 -3.8396224245e+00 2.2168070404e+00 3.8396224245e+00 
41200 4.4757827760e+00 6.2766034182e-03 2.2166643348e+00 -3.8393752512e+00 2.2166643348e+00 3.8393752512e+00 
41300 4.4757818743e+00 6.2265357932e-03 2.2165227586e+00 -3.8391300341e+00 2.2165227586e+00 3.8391300341e+00 
41400 4.4757809867e+00 6.1768756488e-03 2.2163823028e+00 -3.8388867575e+00 2.2163823028e+00 3.8388867575e+00 
41500 4.4757801130e+00 6.1276195821e-03 2.2162429584e+00 -3.8386454058e+00 2.2162429584e+00 3.8386454058e+00 
41600 4.4757792529e+00 6.0787642111e-03 2.2161047164e+00 -3.8384059637e+00 2.2161047164e+00 3.8384059637e+00 
41700 4.4757784064e+00 6.0303061755e-03 2.2159675681e+00 -3.8381684158e+00 2.2159675681e+00 3.8381684158e+00 
41800 4.4757775730e+00 5.9822421364e-03 2.2158315046e+00 -3.8379327470e+00 2.2158315046e+00 3.8379327470e+00 
41900 4.4757767528e+00 5.9345687775e-03 2.2156965173e+00 -3.8376989422e+00 2.2156965173e+00 3.8376989422e+00 
42000 4.4757759453e+00 5.8872828048e-03 2.2155625976e+00 -3.8374669864e+00 2.2155625976e+00 3.8374669864e+00 
42100 4.4757751505e+00 5.8403809475e-03 2.2154297369e+00 -3.8372368649e+00 2.2154297369e+00 3.8372368649e+00 
42200 4.4757743682e+00 5.7938599580e-03 2.2152979268e+00 -3.8370085630e+00 2.2152979268e+00 3.8370085630e+00 
42300 4.4757735981e+00 5.7477166121e-03 2.2151671587e+00 -3.8367820662e+00 2.2151671587e+00 3.8367820662e+00 
42400 4.4757728401e+00 5.7019477100e-03 2.2150374245e+00 -3.8365573599e+00 2.2150374245e+00 3.8365573599e+00 
42500 4.4757720939e+00 5.6565500759e-03 2.2149087158e+00 -3.8363344298e+00 2.2149087158e+00 3.8363344298e+00 
42600 4.4757713594e+00 5.6115205586e-03 2.2147810244e+00 -3.8361132619e+00 2.2147810244e+00 3.8361132619e+00 
42700 4.4757706364e+00 5.5668560319e-03 2.2146543422e+00 -3.8358938418e+00 2.2146543422e+00 3.8358938418e+00 
42800 4.4757699248e+00 5.5225533945e-03 2.2145286611e+00 -3.8356761558e+00 2.2145286611e+00 3.8356761558e+00 
42900 4.4757692243e+00 5.4786095704e-03 2.2144039731e+00 -3.8354601899e+00 2.2144039731e+00 3.8354601899e+00 
43000 4.4757685347e+00 5.4350215095e-03 2.2142802703e+00 -3.8352459304e+00 2.2142802703e+00 3.8352459304e+00 
43100 4.4757678560e+00 5.3917861869e-03 2.2141575449e+00 -3.8350333637e+00 2.2141575449e+00 3.8350333637e+00 
43200 4.4757671879e+00 5.3489006041e-03 2.2140357889e+00 -3.8348224762e+00 2.2140357889e+00 3.8348224762e+00 
43300 4.4757665302e+00 5.3063617882e-03 2.2139149948e+00 -3.8346132546e+00 2.2139149948e+00 3.8346132546e+00 
43400 4.4757658828e+00 5.2641667927e-03 2.2137951547e+00 -3.8344056855e+00 2.2137951547e+00 3.8344056855e+00 
43500 4.4757652456e+00 5.2223126972e-03 2.2136762612e+00 -3.8341997558e+00 2.2136762612e+00 3.8341997558e+00 
43600 4.4757646184e+00 5.1807966077e-03 2.2135583065e+00 -3.8339954525e+00 2.2135583065e+00 3.8339954525e+00 
43700 4.4757640010e+00 5.1396156565e-03 2.2134412834e+00 -3.8337927624e+00 2.2134412834e+00 3.8337927624e+00 
43800 4.4757633933e+00 5.0987670023e-03 2.2133251843e+00 -3.8335916729e+00 2.2133251843e+00 3.8335916729e+00 
43900 4.4757627950e+00 5.0582478302e-03 2.2132100019e+00 -3.8333921711e+00 2.2132100019e+00 3.8333921711e+00 
44000 4.4757622062e+00 5.0180553517e-03 2.2130957289e+00 -3.8331942444e+00 2.2130957289e+00 3.8331942444e+00 
44100 4.4757616266e+00 4.9781868044e-03 2.2129823580e+00 -3.8329978803e+00 2.2129823580e+00 3.8329978803e+00 
44200 4.4757610560e+00 4.9386394525e-03 2.2128698821e+00 -3.8328030662e+00 2.2128698821e+00 3.8328030662e+00 
44300 4.4757604944e+00 4.8994105860e-03 2.2127582940e+00 -3.8326097900e+00 2.2127582940e+00 3.8326097900e+00 
44400 4.4757599416e+00 4.8604975212e-03 2.2126475867e+00 -3.8324180394e+00 2.2126475867e+00 3.8324180394e+00 
44500 4.4757593974e+00 4.8218976004e-03 2.2125377532e+00 -3.8322278021e+00 2.2125377532e+00 3.8322278021e+00 
44600 4.4757588618e+00 4.7836081916e-03 2.2124287865e+00 -3.8320390663e+00 2.2124287865e+00 3.8320390663e+00 
44700 4.4757583346e+00 4.7456266883e-03 2.2123206797e+00 -3.8318518199e+00 2.2123206797e+00 3.8318518199e+00 
44800 4.4757578156e+00 4.7079505097e-03 2.2122134261e+00 -3.8316660512e+00 2.2122134261e+00 3.8316660512e+00 
44900 4.4757573047e+00 4.6705771003e-03 2.2121070188e+00 -3.8314817484e+00 2.2121070188e+00 3.8314817484e+00 
45000 4.4757568019e+00 4.6335039294e-03 2.2120014511e+00 -3.8312988998e+00 2.2120014511e+00 3.8312988998e+00 
45100 4.4757563069e+00 4.5967284915e-03 2.2118967164e+00 -3.8311174939e+00 2.2118967164e+00 3.8311174939e+00 
45200 4.4757558197e+00 4.5602483055e-03 2.2117928080e+00 -3.8309375193e+00 2.2117928080e+00 3.8309375193e+00 
45300 4.4757553401e+00 4.5240609147e-03 2.2116897194e+00 -3.8307589646e+00 2.2116897194e+00 3.8307589646e+00 
45400 4.4757548681e+00 4.4881638867e-03 2.2115874441e+00 -3.8305818185e+00 2.2115874441e+00 3.8305818185e+00 
45500 4.4757544034e+00 4.4525548127e-03 2.2114859756e+00 -3.8304060699e+00 2.2114859756e+00 3.8304060699e+00 
45600 4.4757539460e+00 4.4172313077e-03 2.2113853075e+00 -3.8302317077e+00 2.2113853075e+00 3.8302317077e+00 
45700 4.4757534958e+00 4.3821910099e-03 2.2112854335e+00 -3.8300587208e+00 2.2112854335e+00 3.8300587208e+00 
45800 4.4757530526e+00 4.3474315806e-03 2.2111863473e+00 -3.8298870985e+00 2.2111863473e+00 3.8298870985e+00 
45900 4.4757526164e+00 4.3129507038e-03 2.2110880426e+00 -3.8297168298e+00 2.2110880426e+00 3.8297168298e+00 
46000 4.4757521870e+00 4.2787460858e-03 2.2109905133e+00 -3.8295479040e+00 2.2109905133e+00 3.8295479040e+00 
46100 4.4757517644e+00 4.2448154552e-03 2.2108937531e+00 -3.8293803105e+00 2.2108937531e+00 3.8293803105e+00 
46200 4.4757513483e+00 4.2111565624e-03 2.2107977561e+00 -3.8292140388e+00 2.2107977561e+00 3.8292140388e+00 
46300 4.4757509388e+00 4.1777671792e-03 2.2107025161e+00 -3.8290490783e+00 2.2107025161e+00 3.8290490783e+00 
46400 4.4757505357e+00 4.1446450986e-03 2.2106080272e+00 -3.8288854187e+00 2.2106080272e+00 3.8288854187e+00 
46500 4.4757501389e+00 4.1117881347e-03 2.2105142834e+00 -3.8287230497e+00 2.2105142834e+00 3.8287230497e+00 
46600 4.4757497483e+00 4.0791941218e-03 2.2104212788e+00 -3.8285619611e+00 2.2104212788e+00 3.8285619611e+00 
46700 4.4757493639e+00 4.0468609148e-03 2.2103290076e+00 -3.8284021426e+00 2.2103290076e+00 3.8284021426e+00 
46800 4.4757489855e+00 4.0147863884e-03 2.2102374639e+00 -3.8282435843e+00 2.2102374639e+00 3.8282435843e+00 
46900 4.4757486130e+00 3.9829684369e-03 2.2101466420e+00 -3.8280862762e+00 2.2101466420e+00 3.8280862762e+00 
47000 4.4757482463e+00 3.9514049740e-03 2.2100565362e+00 -3.8279302083e+00 2.2100565362e+00 3.8279302083e+00 
47100 4.4757478854e+00 3.9200939324e-03 2.2099671408e+00 -3.8277753709e+00 2.2099671408e+00 3.8277753709e+00 
47200 4.4757475302e+00 3.8890332635e-03 2.2098784502e+00 -3.8276217542e+00 2.2098784502e+00 3.8276217542e+00 
47300 4.4757471805e+00 3.8582209373e-03 2.2097904587e+00 -3.8274693486e+00 2.2097904587e+00 3.8274693486e+00 
47400 4.4757468363e+00 3.8276549417e-03 2.2097031610e+00 -3.8273181444e+00 2.2097031610e+00 3.8273181444e+00 
47500 4.4757464975e+00 3.7973332827e-03 2.2096165514e+00 -3.8271681322e+00 2.2096165514e+00 3.8271681322e+00 
47600 4.4757461640e+00 3.7672539835e-03 2.2095306245e+00 -3.8270193025e+00 2.2095306245e+00 3.8270193025e+00 
47700 4.4757458357e+00 3.7374150851e-03 2.2094453749e+00 -3.8268716460e+00 2.2094453749e+00 3.8268716460e+00 
47800 4.4757455126e+00 3.7078146452e-03 2.2093607974e+00 -3.8267251533e+00 2.2093607974e+00 3.8267251533e+00 
47900 4.4757451945e+00 3.6784507383e-03 2.2092768864e+00 -3.8265798152e+00 2.2092768864e+00 3.8265798152e+00 
48000 4.4757448815e+00 3.6493214555e-03 2.2091936368e+00 -3.8264356227e+00 2.2091936368e+00 3.8264356227e+00 
48100 4.4757445733e+00 3.6204249041e-03 2.2091110434e+00 -3.8262925667e+00 2.2091110434e+00 3.8262925667e+00 
48200 4.4757442700e+00 3.5917592074e-03 2.2090291008e+00 -3.8261506381e+00 2.2090291008e+00 3.8261506381e+00 
48300 4.4757439714e+00 3.5633225047e-03 2.2089478041e+00 -3.8260098280e+00 2.2089478041e+00 3.8260098280e+00 
48400 4.4757436775e+00 3.5351129505e-03 2.2088671480e+00 -3.8258701276e+00 2.2088671480e+00 3.8258701276e+00 
48500 4.4757433882e+00 3.5071287149e-03 2.2087871276e+00 -3.8257315281e+00 2.2087871276e+00 3.8257315281e+00 
48600 4.4757431034e+00 3.4793679830e-03 2.2087077377e+00 -3.8255940207e+00 2.2087077377e+00 3.8255940207e+00 
48700 4.4757428232e+00 3.4518289549e-03 2.2086289734e+00 -3.8254575969e+00 2.2086289734e+00 3.8254575969e+00 
48800 4.4757425473e+00 3.4245098453e-03 2.2085508297e+00 -3.8253222481e+00 2.2085508297e+00 3.8253222481e+00 
48900 4.4757422757e+00 3.3974088835e-03 2.2084733017e+00 -3.8251879657e+00 2.2084733017e+00 3.8251879657e+00 
49000 4.4757420084e+00 3.3705243132e-03 2.2083963845e+00 -3.8250547413e+00 2.2083963845e+00 3.8250547413e+00 
49100 4.4757417452e+00 3.3438543921e-03 2.2083200734e+00 -3.8249225665e+00 2.2083200734e+00 3.8249225665e+00 
49200 4.4757414862e+00 3.3173973919e-03 2.2082443635e+00 -3.8247914331e+00 2.2082443635e+00 3.8247914331e+00 
49300 4.4757412313e+00 3.2911515982e-03 2.2081692500e+00 -3.8246613327e+00 2.2081692500e+00 3.8246613327e+00 
49400 4.4757409804e+00 3.2651153103e-03 2.2080947282e+00 -3.8245322572e+00 2.2080947282e+00 3.8245322572e+00 
49500 4.4757407334e+00 3.2392868410e-03 2.2080207935e+00 -3.8244041985e+00 2.2080207935e+00 3.8244041985e+00 
49600 4.4757404902e+00 3.2136645162e-03 2.2079474412e+00 -3.8242771486e+00 2.2079474412e+00 3.8242771486e+00 
49700 4.4757402509e+00 3.1882466754e-03 2.2078746667e+00 -3.8241510994e+00 2.2078746667e+00 3.8241510994e+00 
49800 4.4757400153e+00 3.1630316709e-03 2.2078024653e+00 -3.8240260430e+00 2.2078024653e+00 3.8240260430e+00 
49900 4.4757397835e+00 3.1380178682e-03 2.2077308327e+00 -3.8239019717e+00 2.2077308327e+00 3.8239019717e+00 
50000 4.4757395552e+00 3.1132036454e-03 2.2076597642e+00 -3.8237788775e+00 2.2076597642e+00 3.8237788775e+00 
50100 4.4757393306e+00 3.0885873935e-03 2.2075892555e+00 -3.8236567527e+00 2.2075892555e+00 3.8236567527e+00 
50200 4.4757391094e+00 3.0641675160e-03 2.2075193020e+00 -3.8235355897e+00 2.2075193020e+00 3.8235355897e+00 
50300 4.4757388918e+00 3.0399424290e-03 2.2074498994e+00 -3.8234153809e+00 2.2074498994e+00 3.8234153809e+00 
50400 4.4757386775e+00 3.0159105609e-03 2.2073810433e+00 -3.8232961187e+00 2.2073810433e+00 3.8232961187e+00 
50500 4.4757384666e+00 2.9920703525e-03 2.2073127294e+00 -3.8231777956e+00 2.2073127294e+00 3.8231777956e+00 
50600 4.4757382590e+00 2.9684202566e-03 2.2072449535e+00 -3.8230604042e+00 2.2072449535e+00 3.8230604042e+00 
50700 4.4757380547e+00 2.9449587384e-03 2.2071777112e+00 -3.8229439371e+00 2.2071777112e+00 3.8229439371e+00 
50800 4.4757378536e+00 2.9216842749e-03 2.2071109983e+00 -3.8228283869e+00 2.2071109983e+00 3.8228283869e+00 
50900 4.4757376556e+00 2.8985953551e-03 2.2070448106e+00 -3.8227137466e+00 2.2070448106e+00 3.8227137466e+00 
51000 4.4757374607e+00 2.8756904799e-03 2.2069791441e+00 -3.8226000088e+00 2.2069791441e+00 3.8226000088e+00 
51100 4.4757372689e+00 2.8529681619e-03 2.2069139945e+00 -3.8224871663e+00 2.2069139945e+00 3.8224871663e+00 
51200 4.4757370801e+00 2.8304269256e-03 2.2068493577e+00 -3.8223752122e+00 2.2068493577e+00 3.8223752122e+00 
51300 4.4757368943e+00 2.8080653068e-03 2.2067852298e+00 -3.8222641394e+00 2.2067852298e+00 3.8222641394e+00 
51400 4.4757367113e+00 2.7858818531e-03 2.2067216067e+00 -3.8221539409e+00 2.2067216067e+00 3.8221539409e+00 
51500 4.4757365313e+00 2.7638751236e-03 2.2066584843e+00 -3.8220446098e+00 2.2066584843e+00 3.8220446098e+00 
51600 4.4757363540e+00 2.7420436886e-03 2.2065958588e+00 -3.8219361393e+00 2.2065958588e+00 3.8219361393e+00 
51700 4.4757361796e+00 2.7203861300e-03 2.2065337262e+00 -3.8218285224e+00 2.2065337262e+00 3.8218285224e+00 
51800 4.4757360079e+00 2.6989010409e-03 2.2064720826e+00 -3.8217217526e+00 2.2064720826e+00 3.8217217526e+00 
51900 4.4757358389e+00 2.6775870255e-03 2.2064109242e+00 -3.8216158230e+00 2.2064109242e+00 3.8216158230e+00 
52000 4.4757356725e+00 2.6564426993e-03 2.2063502470e+00 -3.8215107271e+00 2.2063502470e+00 3.8215107271e+00 
52100 4.4757355087e+00 2.6354666889e-03 2.2062900474e+00 -3.8214064583e+00 2.2062900474e+00 3.8214064583e+00 
52200 4.4757353475e+00 2.6146576318e-03 2.2062303214e+00 -3.8213030099e+00 2.2062303214e+00 3.8213030099e+00 
52300 4.4757351889e+00 2.5940141766e-03 2.2061710655e+00 -3.8212003756e+00 2.2061710655e+00 3.8212003756e+00 
52400 4.4757350327e+00 2.5735349828e-03 2.2061122758e+00 -3.8210985488e+00 2.2061122758e+00 3.8210985488e+00 
52500 4.4757348790e+00 2.5532187207e-03 2.2060539486e+00 -3.8209975233e+00 2.2060539486e+00 3.8209975233e+00 
52600 4.4757347276e+00 2.5330640714e-03 2.2059960804e+00 -3.8208972926e+00 2.2059960804e+00 3.8208972926e+00 
52700 4.4757345787e+00 2.5130697267e-03 2.2059386675e+00 -3.8207978505e+00 2.2059386675e+00 3.8207978505e+00 
52800 4.4757344321e+00 2.4932343891e-03 2.2058817063e+00 -3.8206991908e+00 2.2058817063e+00 3.8206991908e+00 
52900 4.4757342878e+00 2.4735567717e-03 2.2058251932e+00 -3.8206013073e+00 2.2058251932e+00 3.8206013073e+00 
53000 4.4757341458e+00 2.4540355981e-03 2.2057691247e+00 -3.8205041938e+00 2.2057691247e+00 3.8205041938e+00 
53100 4.4757340059e+00 2.4346696026e-03 2.2057134973e+00 -3.8204078442e+00 2.2057134973e+00 3.8204078442e+00 
53200 4.4757338683e+00 2.4154575294e-03 2.2056583075e+00 -3.8203122526e+00 2.2056583075e+00 3.8203122526e+00 
53300 4.4757337329e+00 2.3963981337e-03 2.2056035517e+00 -3.8202174130e+00 2.2056035517e+00 3.8202174130e+00 
53400 4.4757335995e+00 2.3774901804e-03 2.2055492267e+00 -3.8201233193e+00 2.2055492267e+00 3.8201233193e+00 
53500 4.4757334683e+00 2.3587324451e-03 2.2054953290e+00 -3.8200299658e+00 2.2054953290e+00 3.8200299658e+00 
53600 4.4757333391e+00 2.3401237132e-03 2.2054418553e+00 -3.8199373465e+00 2.2054418553e+00 3.8199373465e+00 
53700 4.4757332120e+00 2.3216627804e-03 2.2053888021e+00 -3.8198454557e+00 2.2053888021e+00 3.8198454557e+00 
53800 4.4757330868e+00 2.3033484523e-03 2.2053361662e+00 -3.8197542876e+00 2.2053361662e+00 3.8197542876e+00 
53900 4.4757329636e+00 2.2851795446e-03 2.2052839442e+00 -3.8196638365e+00 2.2052839442e+00 3.8196638365e+00 
54000 4.4757328423e+00 2.2671548826e-03 2.2052321330e+00 -3.8195740968e+00 2.2052321330e+00 3.8195740968e+00 
54100 4.4757327230e+00 2.2492733018e-03 2.2051807292e+00 -3.8194850628e+00 2.2051807292e+00 3.8194850628e+00 
54200 4.4757326055e+00 2.2315336472e-03 2.2051297296e+00 -3.8193967290e+00 2.2051297296e+00 3.8193967290e+00 
54300 4.4757324899e+00 2.2139347736e-03 2.2050791311e+00 -3.8193090898e+00 2.2050791311e+00 3.8193090898e+00 
54400 4.4757323760e+00 2.1964755451e-03 2.2050289305e+00 -3.8192221398e+00 2.2050289305e+00 3.8192221398e+00 
54500 4.4757322640e+00 2.1791548358e-03 2.2049791246e+00 -3.8191358735e+00 2.2049791246e+00 3.8191358735e+00 
54600 4.4757321537e+00 2.1619715290e-03 2.2049297104e+00 -3.8190502856e+00 2.2049297104e+00 3.8190502856e+00 
54700 4.4757320452e+00 2.1449245174e-03 2.2048806847e+00 -3.8189653706e+00 2.2048806847e+00 3.8189653706e+00 
54800 4.4757319383e+00 2.1280127029e-03 2.2048320445e+00 -3.8188811233e+00 2.2048320445e+00 3.8188811233e+00 
54900 4.4757318331e+00 2.1112349970e-03 2.2047837868e+00 -3.8187975384e+00 2.2047837868e+00 3.8187975384e+00 
55000 4.4757317296e+00 2.0945903199e-03 2.2047359085e+00 -3.8187146107e+00 2.2047359085e+00 3.8187146107e+00 
55100 4.4757316277e+00 2.0780776013e-03 2.2046884066e+00 -3.8186323350e+00 2.2046884066e+00 3.8186323350e+00 
55200 4.4757315274e+00 2.0616957796e-03 2.2046412781e+00 -3.8185507062e+00 2.2046412781e+00 3.8185507062e+00 
55300 4.4757314287e+00 2.0454438024e-03 2.2045945202e+00 -3.8184697191e+00 2.2045945202e+00 3.8184697191e+00 
55400 4.4757313315e+00 2.0293206260e-03 2.2045481299e+00 -3.8183893687e+00 2.2045481299e+00 3.8183893687e+00 
55500 4.4757312359e+00 2.0133252154e-03 2.2045021043e+00 -3.8183096500e+00 2.2045021043e+00 3.8183096500e+00 
55600 4.4757311417e+00 1.9974565445e-03 2.2044564405e+00 -3.8182305580e+00 2.2044564405e+00 3.8182305580e+00 
55700 4.4757310491e+00 1.9817135958e-03 2.2044111357e+00 -3.8181520878e+00 2.2044111357e+00 3.8181520878e+00 
55800 4.4757309579e+00 1.9660953603e-03 2.2043661870e+00 -3.8180742344e+00 2.2043661870e+00 3.8180742344e+00 
55900 4.4757308681e+00 1.9506008374e-03 2.2043215917e+00 -3.8179969930e+00 2.2043215917e+00 3.8179969930e+00 
56000 4.4757307797e+00 1.9352290350e-03 2.2042773469e+00 -3.8179203588e+00 2.2042773469e+00 3.8179203588e+00 
56100 4.4757306927e+00 1.9199789693e-03 2.2042334499e+00 -3.8178443270e+00 2.2042334499e+00 3.8178443270e+00 
56200 4.4757306071e+00 1.9048496648e-03 2.2041898980e+00 -3.8177688928e+00 2.2041898980e+00 3.8177688928e+00 
56300 4.4757305228e+00 1.8898401541e-03 2.2041466884e+00 -3.8176940516e+00 2.2041466884e+00 3.8176940516e+00 
56400 4.4757304399e+00 1.8749494778e-03 2.2041038184e+00 -3.8176197987e+00 2.2041038184e+00 3.8176197987e+00 
56500 4.4757303582e+00 1.8601766848e-03 2.2040612854e+00 -3.8175461293e+00 2.2040612854e+00 3.8175461293e+00 
56600 4.4757302779e+00 1.8455208316e-03 2.2040190867e+00 -3.8174730390e+00 2.2040190867e+00 3.8174730390e+00 
56700 4.4757301988e+00 1.8309809828e-03 2.2039772197e+00 -3.8174005232e+00 2.2039772197e+00 3.8174005232e+00 
56800 4.4757301209e+00 1.8165562107e-03 2.2039356817e+00 -3.8173285773e+00 2.2039356817e+00 3.8173285773e+00 
56900 4.4757300442e+00 1.8022455954e-03 2.2038944702e+00 -3.8172571968e+00 2.2038944702e+00 3.8172571968e+00 
57000 4.4757299688e+00 1.7880482245e-03 2.2038535825e+00 -3.8171863774e+00 2.2038535825e+00 3.8171863774e+00 
57100 4.4757298946e+00 1.7739631932e-03 2.2038130163e+00 -3.8171161146e+00 2.2038130163e+00 3.8171161146e+00 
57200 4.4757298215e+00 1.7599896042e-03 2.2037727688e+00 -3.8170464039e+00 2.2037727688e+00 3.8170464039e+00 
57300 4.4757297495e+00 1.7461265679e-03 2.2037328376e+00 -3.8169772411e+00 2.2037328376e+00 3.8169772411e+00 
57400 4.4757296787e+00 1.7323732015e-03 2.2036932203e+00 -3.8169086218e+00 2.2036932203e+00 3.8169086218e+00 
57500 4.4757296090e+00 1.7187286300e-03 2.2036539143e+00 -3.8168405418e+00 2.2036539143e+00 3.8168405418e+00 
57600 4.4757295404e+00 1.7051919852e-03 2.2036149171e+00 -3.8167729968e+00 2.2036149171e+00 3.8167729968e+00 
57700 4.4757294729e+00 1.6917624065e-03 2.2035762265e+00 -3.8167059826e+00 2.2035762265e+00 3.8167059826e+00 
57800 4.4757294064e+00 1.6784390398e-03 2.2035378398e+00 -3.8166394950e+00 2.2035378398e+00 3.8166394950e+00 
57900 4.4757293410e+00 1.6652210385e-03 2.2034997548e+00 -3.8165735298e+00 2.2034997548e+00 3.8165735298e+00 
58000 4.4757292766e+00 1.6521075627e-03 2.2034619691e+00 -3.8165080831e+00 2.2034619691e+00 3.8165080831e+00 
58100 4.4757292132e+00 1.6390977794e-03 2.2034244803e+00 -3.8164431506e+00 2.2034244803e+00 3.8164431506e+00 
58200 4.4757291508e+00 1.6261908624e-03 2.2033872861e+00 -3.8163787283e+00 2.2033872861e+00 3.8163787283e+00 
58300 4.4757290894e+00 1.6133859922e-03 2.2033503841e+00 -3.8163148122e+00 2.2033503841e+00 3.8163148122e+00 
58400 4.4757290290e+00 1.6006823561e-03 2.2033137721e+00 -3.8162513983e+00 2.2033137721e+00 3.8162513983e+00 
58500 4.4757289695e+00 1.5880791480e-03 2.2032774478e+00 -3.8161884828e+00 2.2032774478e+00 3.8161884828e+00 
58600 4.4757289109e+00 1.5755755681e-03 2.2032414089e+00 -3.8161260615e+00 2.2032414089e+00 3.8161260615e+00 
58700 4.4757288533e+00 1.5631708234e-03 2.2032056531e+00 -3.8160641307e+00 2.2032056531e+00 3.8160641307e+00 
58800 4.4757287965e+00 1.5508641272e-03 2.2031701783e+00 -3.8160026865e+00 2.2031701783e+00 3.8160026865e+00 
58900 4.4757287407e+00 1.5386546992e-03 2.2031349822e+00 -3.8159417251e+00 2.2031349822e+00 3.8159417251e+00 
59000 4.4757286857e+00 1.5265417653e-03 2.2031000626e+00 -3.8158812426e+00 2.2031000626e+00 3.8158812426e+00 
59100 4.4757286316e+00 1.5145245577e-03 2.2030654174e+00 -3.8158212353e+00 2.2030654174e+00 3.8158212353e+00 
59200 4.4757285784e+00 1.5026023149e-03 2.2030310444e+00 -3.8157616995e+00 2.2030310444e+00 3.8157616995e+00 
59300 4.4757285260e+00 1.4907742815e-03 2.2029969414e+00 -3.8157026314e+00 2.2029969414e+00 3.8157026314e+00 
59400 4.4757284744e+00 1.4790397081e-03 2.2029631063e+00 -3.8156440274e+00 2.2029631063e+00 3.8156440274e+00 
59500 4.4757284236e+00 1.4673978514e-03 2.2029295371e+00 -3.8155858838e+00 2.2029295371e+00 3.8155858838e+00 
59600 4.4757283736e+00 1.4558479740e-03 2.2028962316e+00 -3.8155281969e+00 2.2028962316e+00 3.8155281969e+00 
59700 4.4757283244e+00 1.4443893445e-03 2.2028631877e+00 -3.8154709632e+00 2.2028631877e+00 3.8154709632e+00 
59800 4.4757282760e+00 1.4330212374e-03 2.2028304034e+00 -3.8154141792e+00 2.2028304034e+00 3.8154141792e+00 
59900 4.4757282283e+00 1.4217429329e-03 2.2027978767e+00 -3.8153578412e+00 2.2027978767e+00 3.8153578412e+00 
60000 4.4757281814e+00 1.4105537170e-03 2.2027656055e+00 -3.8153019459e+00 2.2027656055e+00 3.8153019459e+00 
60100 4.4757281352e+00 1.3994528816e-03 2.2027335878e+00 -3.8152464895e+00 2.2027335878e+00 3.8152464895e+00 
60200 4.4757280897e+00 1.3884397240e-03 2.2027018216e+00 -3.8151914689e+00 2.2027018216e+00 3.8151914689e+00 
60300 4.4757280450e+00 1.3775135472e-03 2.2026703049e+00 -3.8151368804e+00 2.2026703049e+00 3.8151368804e+00 
60400 4.4757280010e+00 1.3666736600e-03 2.2026390358e+00 -3.8150827207e+00 2.2026390358e+00 3.8150827207e+00 
60500 4.4757279576e+00 1.3559193764e-03 2.2026080123e+00 -3.8150289865e+00 2.2026080123e+00 3.8150289865e+00 
60600 4.4757279149e+00 1.3452500161e-03 2.2025772325e+00 -3.8149756743e+00 2.2025772325e+00 3.8149756743e+00 
60700 4.4757278729e+00 1.3346649042e-03 2.2025466945e+00 -3.8149227809e+00 2.2025466945e+00 3.8149227809e+00 
60800 4.4757278316e+00 1.3241633711e-03 2.2025163964e+00 -3.8148703030e+00 2.2025163964e+00 3.8148703030e+00 
60900 4.4757277909e+00 1.3137447525e-03 2.2024863362e+00 -3.8148182373e+00 2.2024863362e+00 3.8148182373e+00 
61000 4.4757277509e+00 1.3034083898e-03 2.2024565121e+00 -3.8147665805e+00 2.2024565121e+00 3.8147665805e+00 
61100 4.4757277115e+00 1.2931536291e-03 2.2024269223e+00 -3.8147153294e+00 2.2024269223e+00 3.8147153294e+00 
61200 4.4757276727e+00 1.2829798220e-03 2.2023975649e+00 -3.8146644809e+00 2.2023975649e+00 3.8146644809e+00 
61300 4.4757276345e+00 1.2728863255e-03 2.2023684381e+00 -3.8146140318e+00 2.2023684381e+00 3.8146140318e+00 
61400 4.4757275969e+00 1.2628725013e-03 2.2023395400e+00 -3.8145639788e+00 2.2023395400e+00 3.8145639788e+00 
61500 4.4757275599e+00 1.2529377164e-03 2.2023108689e+00 -3.8145143190e+00 2.2023108689e+00 3.8145143190e+00 
61600 4.4757275235e+00 1.2430813429e-03 2.2022824230e+00 -3.8144650493e+00 2.2022824230e+00 3.8144650493e+00 
61700 4.4757274876e+00 1.2333027579e-03 2.2022542005e+00 -3.8144161665e+00 2.2022542005e+00 3.8144161665e+00 
61800 4.4757274524e+00 1.2236013434e-03 2.2022261996e+00 -3.8143676675e+00 2.2022261996e+00 3.8143676675e+00 
61900 4.4757274176e+00 1.2139764863e-03 2.2021984187e+00 -3.8143195495e+00 2.2021984187e+00 3.8143195495e+00 
62000 4.4757273834e+00 1.2044275785e-03 2.2021708559e+00 -3.8142718094e+00 2.2021708559e+00 3.8142718094e+00 
62100 4.4757273498e+00 1.1949540167e-03 2.2021435096e+00 -3.8142244442e+00 2.2021435096e+00 3.8142244442e+00 
62200 4.4757273167e+00 1.1855552025e-03 2.2021163781e+00 -3.8141774510e+00 2.2021163781e+00 3.8141774510e+00 
62300 4.4757272841e+00 1.1762305422e-03 2.2020894596e+00 -3.8141308268e+00 2.2020894596e+00 3.8141308268e+00 
62400 4.4757272520e+00 1.1669794469e-03 2.2020627525e+00 -3.8140845687e+00 2.2020627525e+00 3.8140845687e+00 
62500 4.4757272204e+00 1.1578013323e-03 2.2020362551e+00 -3.8140386740e+00 2.2020362551e+00 3.8140386740e+00 
62600 4.4757271894e+00 1.1486956188e-03 2.2020099658e+00 -3.8139931396e+00 2.2020099658e+00 3.8139931396e+00 
62700 4.4757271588e+00 1.1396617316e-03 2.2019838830e+00 -3.8139479628e+00 2.2019838830e+00 3.8139479628e+00 
62800 4.4757271287e+00 1.1306991004e-03 2.2019580050e+00 -3.8139031408e+00 2.2019580050e+00 3.8139031408e+00 
62900 4.4757270990e+00 1.1218071593e-03 2.2019323302e+00 -3.8138586707e+00 2.2019323302e+00 3.8138586707e+00 
63000 4.4757270698e+00 1.1129853471e-03 2.2019068570e+00 -3.8138145498e+00 2.2019068570e+00 3.8138145498e+00 
63100 4.4757270411e+00 1.1042331072e-03 2.2018815838e+00 -3.8137707754e+00 2.2018815838e+00 3.8137707754e+00 
63200 4.4757270129e+00 1.0955498872e-03 2.2018565091e+00 -3.8137273447e+00 2.2018565091e+00 3.8137273447e+00 
63300 4.4757269850e+00 1.0869351392e-03 2.2018316313e+00 -3.8136842551e+00 2.2018316313e+00 3.8136842551e+00 
63400 4.4757269577e+00 1.0783883199e-03 2.2018069488e+00 -3.8136415038e+00 2.2018069488e+00 3.8136415038e+00 
63500 4.4757269307e+00 1.0699088900e-03 2.2017824601e+00 -3.8135990882e+00 2.2017824601e+00 3.8135990882e+00 
63600 4.4757269042e+00 1.0614963149e-03 2.2017581638e+00 -3.8135570056e+00 2.2017581638e+00 3.8135570056e+00 
63700 4.4757268781e+00 1.0531500639e-03 2.2017340581e+00 -3.8135152535e+00 2.2017340581e+00 3.8135152535e+00 
63800 4.4757268524e+00 1.0448696109e-03 2.2017101418e+00 -3.8134738292e+00 2.2017101418e+00 3.8134738292e+00 
63900 4.4757268271e+00 1.0366544338e-03 2.2016864133e+00 -3.8134327301e+00 2.2016864133e+00 3.8134327301e+00 
64000 4.4757268022e+00 1.0285040147e-03 2.2016628710e+00 -3.8133919537e+00 2.2016628710e+00 3.8133919537e+00 
64100 4.4757267777e+00 1.0204178400e-03 2.2016395136e+00 -3.8133514975e+00 2.2016395136e+00 3.8133514975e+00 
64200 4.4757267536e+00 1.0123954001e-03 2.2016163396e+00 -3.8133113590e+00 2.2016163396e+00 3.8133113590e+00 
64300 4.4757267298e+00 1.0044361896e-03 2.2015933476e+00 -3.8132715356e+00 2.2015933476e+00 3.8132715356e+00 
64400 4.4757267065e+00 9.9653970696e-04 2.2015705360e+00 -3.8132320249e+00 2.2015705360e+00 3.8132320249e+00 
64500 4.4757266835e+00 9.8870545484e-04 2.2015479036e+00 -3.8131928243e+00 2.2015479036e+00 3.8131928243e+00 
64600 4.4757266608e+00 9.8093293984e-04 2.2015254489e+00 -3.8131539316e+00 2.2015254489e+00 3.8131539316e+00 
64700 4.4757266385e+00 9.7322167250e-04 2.2015031704e+00 -3.8131153442e+00 2.2015031704e+00 3.8131153442e+00 
64800 4.4757266166e+00 9.6557116733e-04 2.2014810669e+00 -3.8130770597e+00 2.2014810669e+00 3.8130770597e+00 
64900 4.4757265950e+00 9.5798094271e-04 2.2014591369e+00 -3.8130390759e+00 2.2014591369e+00 3.8130390759e+00 
65000 4.4757265738e+00 9.5045052089e-04 2.2014373791e+00 -3.8130013902e+00 2.2014373791e+00 3.8130013902e+00 
65100 4.4757265529e+00 9.4297942797e-04 2.2014157920e+00 -3.8129640004e+00 2.2014157920e+00 3.8129640004e+00 
65200 4.4757265323e+00 9.3556719385e-04 2.2013943745e+00 -3.8129269041e+00 2.2013943745e+00 3.8129269041e+00 
65300 4.4757265120e+00 9.2821335219e-04 2.2013731251e+00 -3.8128900991e+00 2.2013731251e+00 3.8128900991e+00 
65400 4.4757264921e+00 9.2091744041e-04 2.2013520426e+00 -3.8128535830e+00 2.2013520426e+00 3.8128535830e+00 
65500 4.4757264724e+00 9.1367899965e-04 2.2013311255e+00 -3.8128173536e+00 2.2013311255e+00 3.8128173536e+00 
65600 4.4757264531e+00 9.0649757472e-04 2.2013103727e+00 -3.8127814087e+00 2.2013103727e+00 3.8127814087e+00 
65700 4.4757264341e+00 8.9937271409e-04 2.2012897827e+00 -3.8127457459e+00 2.2012897827e+00 3.8127457459e+00 
65800 4.4757264154e+00 8.9230396986e-04 2.2012693545e+00 -3.8127103631e+00 2.2012693545e+00 3.8127103631e+00 
65900 4.4757263970e+00 8.8529089771e-04 2.2012490865e+00 -3.8126752580e+00 2.2012490865e+00 3.8126752580e+00 
66000 4.4757263788e+00 8.7833305691e-04 2.2012289777e+00 -3.8126404285e+00 2.2012289777e+00 3.8126404285e+00 
66100 4.4757263610e+00 8.7143001024e-04 2.2012090268e+00 -3.8126058725e+00 2.2012090268e+00 3.8126058725e+00 
66200 4.4757263434e+00 8.6458132401e-04 2.2011892325e+00 -3.8125715877e+00 2.2011892325e+00 3.8125715877e+00 
66300 4.4757263261e+00 8.5778656799e-04 2.2011695936e+00 -3.8125375721e+00 2.2011695936e+00 3.8125375721e+00 
66400 4.4757263091e+00 8.5104531541e-04 2.2011501088e+00 -3.8125038235e+00 2.2011501088e+00 3.8125038235e+00 
66500 4.4757262924e+00 8.4435714294e-04 2.2011307770e+00 -3.8124703398e+00 2.2011307770e+00 3.8124703398e+00 
66600 4.4757262759e+00 8.3772163061e-04 2.2011115969e+00 -3.8124371190e+00 2.2011115969e+00 3.8124371190e+00 
66700 4.4757262596e+00 8.3113836184e-04 2.2010925675e+00 -3.8124041590e+00 2.2010925675e+00 3.8124041590e+00 
66800 4.4757262437e+00 8.2460692337e-04 2.2010736873e+00 -3.8123714577e+00 2.2010736873e+00 3.8123714577e+00 
66900 4.4757262279e+00 8.1812690528e-04 2.2010549555e+00 -3.8123390131e+00 2.2010549555e+00 3.8123390131e+00 
67000 4.4757262125e+00 8.1169790090e-04 2.2010363706e+00 -3.8123068232e+00 2.2010363706e+00 3.8123068232e+00 
67100 4.4757261972e+00 8.0531950684e-04 2.2010179316e+00 -3.8122748860e+00 2.2010179316e+00 3.8122748860e+00 
67200 4.4757261823e+00 7.9899132293e-04 2.2009996374e+00 -3.8122431994e+00 2.2009996374e+00 3.8122431994e+00 
67300 4.4757261675e+00 7.9271295220e-04 2.2009814868e+00 -3.8122117616e+00 2.2009814868e+00 3.8122117616e+00 
67400 4.4757261530e+00 7.8648400087e-04 2.2009634786e+00 -3.8121805706e+00 2.2009634786e+00 3.8121805706e+00 
67500 4.4757261387e+00 7.8030407829e-04 2.2009456118e+00 -3.8121496244e+00 2.2009456118e+00 3.8121496244e+00 
67600 4.4757261246e+00 7.7417279694e-04 2.2009278853e+00 -3.8121189211e+00 2.2009278853e+00 3.8121189211e+00 
67700 4.4757261108e+00 7.6808977242e-04 2.2009102979e+00 -3.8120884589e+00 2.2009102979e+00 3.8120884589e+00 
67800 4.4757260971e+00 7.6205462336e-04 2.2008928486e+00 -3.8120582357e+00 2.2008928486e+00 3.8120582357e+00 
67900 4.4757260837e+00 7.5606697148e-04 2.2008755362e+00 -3.8120282498e+00 2.2008755362e+00 3.8120282498e+00 
68000 4.4757260705e+00 7.5012644150e-04 2.2008583597e+00 -3.8119984993e+00 2.2008583597e+00 3.8119984993e+00 
68100 4.4757260575e+00 7.4423266113e-04 2.2008413181e+00 -3.8119689823e+00 2.2008413181e+00 3.8119689823e+00 
68200 4.4757260447e+00 7.3838526107e-04 2.2008244102e+00 -3.8119396969e+00 2.2008244102e+00 3.8119396969e+00 
68300 4.4757260321e+00 7.3258387495e-04 2.2008076350e+00 -3.8119106415e+00 2.2008076350e+00 3.8119106415e+00 
68400 4.4757260197e+00 7.2682813933e-04 2.2007909915e+00 -3.8118818141e+00 2.2007909915e+00 3.8118818141e+00 
68500 4.4757260075e+00 7.2111769368e-04 2.2007744786e+00 -3.8118532130e+00 2.2007744786e+00 3.8118532130e+00 
68600 4.4757259955e+00 7.1545218033e-04 2.2007580954e+00 -3.8118248364e+00 2.2007580954e+00 3.8118248364e+00 
68700 4.4757259837e+00 7.0983124447e-04 2.2007418407e+00 -3.8117966825e+00 2.2007418407e+00 3.8117966825e+00 
68800 4.4757259721e+00 7.0425453409e-04 2.2007257136e+00 -3.8117687496e+00 2.2007257136e+00 3.8117687496e+00 
68900 4.4757259606e+00 6.9872170004e-04 2.2007097132e+00 -3.8117410359e+00 2.2007097132e+00 3.8117410359e+00 
69000 4.4757259494e+00 6.9323239589e-04 2.2006938383e+00 -3.8117135398e+00 2.2006938383e+00 3.8117135398e+00 
69100 4.4757259383e+00 6.8778627801e-04 2.2006780880e+00 -3.8116862595e+00 2.2006780880e+00 3.8116862595e+00 
69200 4.4757259274e+00 6.8238300549e-04 2.2006624613e+00 -3.8116591933e+00 2.2006624613e+00 3.8116591933e+00 
69300 4.4757259166e+00 6.7702224012e-04 2.2006469573e+00 -3.8116323395e+00 2.2006469573e+00 3.8116323395e+00 
69400 4.4757259061e+00 6.7170364642e-04 2.2006315749e+00 -3.8116056966e+00 2.2006315749e+00 3.8116056966e+00 
69500 4.4757258956e+00 6.6642689153e-04 2.2006163134e+00 -3.8115792627e+00 2.2006163134e+00 3.8115792627e+00 
69600 4.4757258854e+00 6.6119164527e-04 2.2006011715e+00 -3.8115530363e+00 2.2006011715e+00 3.8115530363e+00 
69700 4.4757258753e+00 6.5599758008e-04 2.2005861486e+00 -3.8115270158e+00 2.2005861486e+00 3.8115270158e+00 
69800 4.4757258654e+00 6.5084437099e-04 2.2005712435e+00 -3.8115011995e+00 2.2005712435e+00 3.8115011995e+00 
69900 4.4757258556e+00 6.4573169563e-04 2.2005564555e+00 -3.8114755858e+00 2.2005564555e+00 3.8114755858e+00 
70000 4.4757258460e+00 6.4065923417e-04 2.2005417835e+00 -3.8114501732e+00 2.2005417835e+00 3.8114501732e+00 
70100 4.4757258366e+00 6.3562666934e-04 2.2005272267e+00 -3.8114249600e+00 2.2005272267e+00 3.8114249600e+00 
70200 4.4757258272e+00 6.3063368639e-04 2.2005127841e+00 -3.8113999447e+00 2.2005127841e+00 3.8113999447e+00 
70300 4.4757258181e+00 6.2567997305e-04 2.2004984548e+00 -3.8113751258e+00 2.2004984548e+00 3.8113751258e+00 
70400 4.4757258091e+00 6.2076521954e-04 2.2004842381e+00 -3.8113505016e+00 2.2004842381e+00 3.8113505016e+00 
70500 4.4757258002e+00 6.1588911855e-04 2.2004701329e+00 -3.8113260707e+00 2.2004701329e+00 3.8113260707e+00 
70600 4.4757257914e+00 6.1105136520e-04 2.2004561384e+00 -3.8113018316e+00 2.2004561384e+00 3.8113018316e+00 
70700 4.4757257828e+00 6.0625165701e-04 2.2004422538e+00 -3.8112777827e+00 2.2004422538e+00 3.8112777827e+00 
70800 4.4757257744e+00 6.0148969393e-04 2.2004284781e+00 -3.8112539225e+00 2.2004284781e+00 3.8112539225e+00 
70900 4.4757257660e+00 5.9676517828e-04 2.2004148106e+00 -3.8112302496e+00 2.2004148106e+00 3.8112302496e+00 
71000 4.4757257578e+00 5.9207781473e-04 2.2004012503e+00 -3.8112067626e+00 2.2004012503e+00 3.8112067626e+00 
71100 4.4757257497e+00 5.8742731031e-04 2.2003877965e+00 -3.8111834598e+00 2.2003877965e+00 3.8111834598e+00 
71200 4.4757257418e+00 5.8281337436e-04 2.2003744482e+00 -3.8111603400e+00 2.2003744482e+00 3.8111603400e+00 
71300 4.4757257340e+00 5.7823571853e-04 2.2003612047e+00 -3.8111374016e+00 2.2003612047e+00 3.8111374016e+00 
71400 4.4757257263e+00 5.7369405674e-04 2.2003480652e+00 -3.8111146432e+00 2.2003480652e+00 3.8111146432e+00 
71500 4.4757257187e+00 5.6918810521e-04 2.2003350287e+00 -3.8110920634e+00 2.2003350287e+00 3.8110920634e+00 
71600 4.4757257112e+00 5.6471758239e-04 2.2003220946e+00 -3.8110696609e+00 2.2003220946e+00 3.8110696609e+00 
71700 4.4757257039e+00 5.6028220895e-04 2.2003092620e+00 -3.8110474342e+00 2.2003092620e+00 3.8110474342e+00 
71800 4.4757256967e+00 5.5588170779e-04 2.2002965301e+00 -3.8110253819e+00 2.2002965301e+00 3.8110253819e+00 
71900 4.4757256896e+00 5.5151580400e-04 2.2002838982e+00 -3.8110035027e+00 2.2002838982e+00 3.8110035027e+00 
72000 4.4757256826e+00 5.4718422486e-04 2.2002713654e+00 -3.8109817952e+00 2.2002713654e+00 3.8109817952e+00 
72100 4.4757256757e+00 5.4288669979e-04 2.2002589309e+00 -3.8109602581e+00 2.2002589309e+00 3.8109602581e+00 
72200 4.4757256689e+00 5.3862296037e-04 2.2002465940e+00 -3.8109388900e+00 2.2002465940e+00 3.8109388900e+00 
72300 4.4757256622e+00 5.3439274029e-04 2.2002343540e+00 -3.8109176896e+00 2.2002343540e+00 3.8109176896e+00 
72400 4.4757256557e+00 5.3019577537e-04 2.2002222100e+00 -3.8108966557e+00 2.2002222100e+00 3.8108966557e+00 
72500 4.4757256492e+00 5.2603180351e-04 2.2002101613e+00 -3.8108757867e+00 2.2002101613e+00 3.8108757867e+00 
72600 4.4757256428e+00 5.2190056469e-04 2.2001982072e+00 -3.8108550816e+00 2.2001982072e+00 3.8108550816e+00 
72700 4.4757256366e+00 5.1780180094e-04 2.2001863469e+00 -3.8108345390e+00 2.2001863469e+00 3.8108345390e+00 
72800 4.4757256304e+00 5.1373525634e-04 2.2001745797e+00 -3.8108141575e+00 2.2001745797e+00 3.8108141575e+00 
72900 4.4757256243e+00 5.0970067701e-04 2.2001629048e+00 -3.8107939361e+00 2.2001629048e+00 3.8107939361e+00 
73000 4.4757256184e+00 5.0569781105e-04 2.2001513216e+00 -3.8107738733e+00 2.2001513216e+00 3.8107738733e+00 
73100 4.4757256125e+00 5.0172640859e-04 2.2001398293e+00 -3.8107539680e+00 2.2001398293e+00 3.8107539680e+00 
73200 4.4757256067e+00 4.9778622170e-04 2.2001284271e+00 -3.8107342189e+00 2.2001284271e+00 3.8107342189e+00 
73300 4.4757256010e+00 4.9387700445e-04 2.2001171145e+00 -3.8107146249e+00 2.2001171145e+00 3.8107146249e+00 
73400 4.4757255954e+00 4.8999851283e-04 2.2001058906e+00 -3.8106951845e+00 2.2001058906e+00 3.8106951845e+00 
73500 4.4757255899e+00 4.8615050478e-04 2.2000947548e+00 -3.8106758968e+00 2.2000947548e+00 3.8106758968e+00 
73600 4.4757255845e+00 4.8233274014e-04 2.2000837064e+00 -3.8106567604e+00 2.2000837064e+00 3.8106567604e+00 
73700 4.4757255791e+00 4.7854498068e-04 2.2000727447e+00 -3.8106377742e+00 2.2000727447e+00 3.8106377742e+00 
73800 4.4757255739e+00 4.7478699001e-04 2.2000618691e+00 -3.8106189370e+00 2.2000618691e+00 3.8106189370e+00 
73900 4.4757255687e+00 4.7105853365e-04 2.2000510788e+00 -3.8106002477e+00 2.2000510788e+00 3.8106002477e+00 
74000 4.4757255636e+00 4.6735937897e-04 2.2000403732e+00 -3.8105817050e+00 2.2000403732e+00 3.8105817050e+00 
74100 4.4757255586e+00 4.6368929516e-04 2.2000297516e+00 -3.8105633079e+00 2.2000297516e+00 3.8105633079e+00 
74200 4.4757255537e+00 4.6004805326e-04 2.2000192133e+00 -3.8105450551e+00 2.2000192133e+00 3.8105450551e+00 
74300 4.4757255488e+00 4.5643542611e-04 2.2000087578e+00 -3.8105269456e+00 2.2000087578e+00 3.8105269456e+00 
74400 4.4757255440e+00 4.5285118836e-04 2.1999983843e+00 -3.8105089782e+00 2.1999983843e+00 3.8105089782e+00 
74500 4.4757255393e+00 4.4929511643e-04 2.1999880922e+00 -3.8104911518e+00 2.1999880922e+00 3.8104911518e+00 
74600 4.4757255347e+00 4.4576698851e-04 2.1999778809e+00 -3.8104734653e+00 2.1999778809e+00 3.8104734653e+00 
74700 4.4757255301e+00 4.4226658456e-04 2.1999677498e+00 -3.8104559176e+00 2.1999677498e+00 3.8104559176e+00 
74800 4.4757255256e+00 4.3879368626e-04 2.1999576981e+00 -3.8104385076e+00 2.1999576981e+00 3.8104385076e+00 
74900 4.4757255212e+00 4.3534807704e-04 2.1999477253e+00 -3.8104212343e+00 2.1999477253e+00 3.8104212343e+00 
75000 4.4757255169e+00 4.3192954203e-04 2.1999378308e+00 -3.8104040965e+00 2.1999378308e+00 3.8104040965e+00 
75100 4.4757255126e+00 4.2853786806e-04 2.1999280140e+00 -3.8103870932e+00 2.1999280140e+00 3.8103870932e+00 
75200 4.4757255084e+00 4.2517284364e-04 2.1999182742e+00 -3.8103702234e+00 2.1999182742e+00 3.8103702234e+00 
75300 4.4757255042e+00 4.2183425897e-04 2.1999086108e+00 -3.8103534859e+00 2.1999086108e+00 3.8103534859e+00 
75400 4.4757255002e+00 4.1852190591e-04 2.1998990233e+00 -3.8103368798e+00 2.1998990233e+00 3.8103368798e+00 
75500 4.4757254962e+00 4.1523557795e-04 2.1998895110e+00 -3.8103204041e+00 2.1998895110e+00 3.8103204041e+00 
75600 4.4757254922e+00 4.1197507023e-04 2.1998800733e+00 -3.8103040576e+00 2.1998800733e+00 3.8103040576e+00 
75700 4.4757254883e+00 4.0874017949e-04 2.1998707098e+00 -3.8102878394e+00 2.1998707098e+00 3.8102878394e+00 
75800 4.4757254845e+00 4.0553070410e-04 2.1998614197e+00 -3.8102717485e+00 2.1998614197e+00 3.8102717485e+00 
75900 4.4757254807e+00 4.0234644401e-04 2.1998522025e+00 -3.8102557839e+00 2.1998522025e+00 3.8102557839e+00 
76000 4.4757254770e+00 3.9918720076e-04 2.1998430577e+00 -3.8102399445e+00 2.1998430577e+00 3.8102399445e+00 
76100 4.4757254734e+00 3.9605277745e-04 2.1998339846e+00 -3.8102242295e+00 2.1998339846e+00 3.8102242295e+00 
76200 4.4757254698e+00 3.9294297875e-04 2.1998249827e+00 -3.8102086378e+00 2.1998249827e+00 3.8102086378e+00 
76300 4.4757254662e+00 3.8985761086e-04 2.1998160515e+00 -3.8101931685e+00 2.1998160515e+00 3.8101931685e+00 
76400 4.4757254628e+00 3.8679648153e-04 2.1998071903e+00 -3.8101778205e+00 2.1998071903e+00 3.8101778205e+00 
76500 4.4757254593e+00 3.8375940001e-04 2.1997983988e+00 -3.8101625931e+00 2.1997983988e+00 3.8101625931e+00 
76600 4.4757254560e+00 3.8074617708e-04 2.1997896762e+00 -3.8101474851e+00 2.1997896762e+00 3.8101474851e+00 
76700 4.4757254527e+00 3.7775662499e-04 2.1997810220e+00 -3.8101324957e+00 2.1997810220e+00 3.8101324957e+00 
76800 4.4757254494e+00 3.7479055749e-04 2.1997724358e+00 -3.8101176239e+00 2.1997724358e+00 3.8101176239e+00 
76900 4.4757254462e+00 3.7184778980e-04 2.1997639169e+00 -3.8101028688e+00 2.1997639169e+00 3.8101028688e+00 
77000 4.4757254430e+00 3.6892813860e-04 2.1997554650e+00 -3.8100882295e+00 2.1997554650e+00 3.8100882295e+00 
77100 4.4757254399e+00 3.6603142202e-04 2.1997470793e+00 -3.8100737051e+00 2.1997470793e+00 3.8100737051e+00 
77200 4.4757254368e+00 3.6315745962e-04 2.1997387595e+00 -3.8100592947e+00 2.1997387595e+00 3.8100592947e+00 
77300 4.4757254338e+00 3.6030607239e-04 2.1997305049e+00 -3.8100449974e+00 2.1997305049e+00 3.8100449974e+00 
77400 4.4757254309e+00 3.5747708274e-04 2.1997223151e+00 -3.8100308123e+00 2.1997223151e+00 3.8100308123e+00 
77500 4.4757254279e+00 3.5467031447e-04 2.1997141896e+00 -3.8100167386e+00 2.1997141896e+00 3.8100167386e+00 
77600 4.4757254251e+00 3.5188559279e-04 2.1997061279e+00 -3.8100027752e+00 2.1997061279e+00 3.8100027752e+00 
77700 4.4757254222e+00 3.4912274427e-04 2.1996981294e+00 -3.8099889215e+00 2.1996981294e+00 3.8099889215e+00 
77800 4.4757254194e+00 3.4638159687e-04 2.1996901937e+00 -3.8099751765e+00 2.1996901937e+00 3.8099751765e+00 
77900 4.4757254167e+00 3.4366197988e-04 2.1996823203e+00 -3.8099615393e+00 2.1996823203e+00 3.8099615393e+00 
78000 4.4757254140e+00 3.4096372397e-04 2.1996745087e+00 -3.8099480092e+00 2.1996745087e+00 3.8099480092e+00 
78100 4.4757254114e+00 3.3828666113e-04 2.1996667584e+00 -3.8099345852e+00 2.1996667584e+00 3.8099345852e+00 
78200 4.4757254087e+00 3.3563062467e-04 2.1996590689e+00 -3.8099212666e+00 2.1996590689e+00 3.8099212666e+00 
78300 4.4757254062e+00 3.3299544924e-04 2.1996514397e+00 -3.8099080526e+00 2.1996514397e+00 3.8099080526e+00 
78400 4.4757254036e+00 3.3038097077e-04 2.1996438705e+00 -3.8098949422e+00 2.1996438705e+00 3.8098949422e+00 
78500 4.4757254011e+00 3.2778702650e-04 2.1996363606e+00 -3.8098819347e+00 2.1996363606e+00 3.8098819347e+00 
78600 4.4757253987e+00 3.2521345494e-04 2.1996289097e+00 -3.8098690293e+00 2.1996289097e+00 3.8098690293e+00 
78700 4.4757253963e+00 3.2266009590e-04 2.1996215172e+00 -3.8098562252e+00 2.1996215172e+00 3.8098562252e+00 
78800 4.4757253939e+00 3.2012679042e-04 2.1996141828e+00 -3.8098435216e+00 2.1996141828e+00 3.8098435216e+00 
78900 4.4757253916e+00 3.1761338083e-04 2.1996069059e+00 -3.8098309177e+00 2.1996069059e+00 3.8098309177e+00 
79000 4.4757253893e+00 3.1511971067e-04 2.1995996861e+00 -3.8098184127e+00 2.1995996861e+00 3.8098184127e+00 
79100 4.4757253870e+00 3.1264562475e-04 2.1995925230e+00 -3.8098060058e+00 2.1995925230e+00 3.8098060058e+00 
79200 4.4757253848e+00 3.1019096906e-04 2.1995854161e+00 -3.8097936963e+00 2.1995854161e+00 3.8097936963e+00 
79300 4.4757253826e+00 3.0775559084e-04 2.1995783650e+00 -3.8097814834e+00 2.1995783650e+00 3.8097814834e+00 
79400 4.4757253804e+00 3.0533933853e-04 2.1995713692e+00 -3.8097693663e+00 2.1995713692e+00 3.8097693663e+00 
79500 4.4757253783e+00 3.0294206176e-04 2.1995644283e+00 -3.8097573444e+00 2.1995644283e+00 3.8097573444e+00 
79600 4.4757253762e+00 3.0056361133e-04 2.1995575419e+00 -3.8097454168e+00 2.1995575419e+00 3.8097454168e+00 
79700 4.4757253742e+00 2.9820383925e-04 2.1995507096e+00 -3.8097335828e+00 2.1995507096e+00 3.8097335828e+00 
79800 4.4757253721e+00 2.9586259867e-04 2.1995439308e+00 -3.8097218417e+00 2.1995439308e+00 3.8097218417e+00 
79900 4.4757253701e+00 2.9353974391e-04 2.1995372053e+00 -3.8097101927e+00 2.1995372053e+00 3.8097101927e+00 
80000 4.4757253682e+00 2.9123513042e-04 2.1995305325e+00 -3.8096986351e+00 2.1995305325e+00 3.8096986351e+00 
80100 4.4757253662e+00 2.8894861483e-04 2.1995239121e+00 -3.8096871683e+00 2.1995239121e+00 3.8096871683e+00 
80200 4.4757253643e+00 2.8668005486e-04 2.1995173437e+00 -3.8096757914e+00 2.1995173437e+00 3.8096757914e+00 
80300 4.4757253625e+00 2.8442930936e-04 2.1995108268e+00 -3.8096645038e+00 2.1995108268e+00 3.8096645038e+00 
80400 4.4757253606e+00 2.8219623831e-04 2.1995043611e+00 -3.8096533049e+00 2.1995043611e+00 3.8096533049e+00 
80500 4.4757253588e+00 2.7998070277e-04 2.1994979461e+00 -3.8096421938e+00 2.1994979461e+00 3.8096421938e+00 
80600 4.4757253570e+00 2.7778256492e-04 2.1994915814e+00 -3.8096311699e+00 2.1994915814e+00 3.8096311699e+00 
80700 4.4757253553e+00 2.7560168801e-04 2.1994852667e+00 -3.8096202325e+00 2.1994852667e+00 3.8096202325e+00 
80800 4.4757253536e+00 2.7343793637e-04 2.1994790016e+00 -3.8096093810e+00 2.1994790016e+00 3.8096093810e+00 
80900 4.4757253519e+00 2.7129117540e-04 2.1994727856e+00 -3.8095986146e+00 2.1994727856e+00 3.8095986146e+00 
81000 4.4757253502e+00 2.6916127155e-04 2.1994666185e+00 -3.8095879327e+00 2.1994666185e+00 3.8095879327e+00 
81100 4.4757253485e+00 2.6704809234e-04 2.1994604997e+00 -3.8095773347e+00 2.1994604997e+00 3.8095773347e+00 
81200 4.4757253469e+00 2.6495150632e-04 2.1994544289e+00 -3.8095668198e+00 2.1994544289e+00 3.8095668198e+00 
81300 4.4757253453e+00 2.6287138310e-04 2.1994484058e+00 -3.8095563875e+00 2.1994484058e+00 3.8095563875e+00 
81400 4.4757253437e+00 2.6080759327e-04 2.1994424299e+00 -3.8095460370e+00 2.1994424299e+00 3.8095460370e+00 
81500 4.4757253422e+00 2.5876000850e-04 2.1994365010e+00 -3.8095357678e+00 2.1994365010e+00 3.8095357678e+00 
81600 4.4757253407e+00 2.5672850141e-04 2.1994306186e+00 -3.8095255791e+00 2.1994306186e+00 3.8095255791e+00 
81700 4.4757253392e+00 2.5471294567e-04 2.1994247823e+00 -3.8095154704e+00 2.1994247823e+00 3.8095154704e+00 
81800 4.4757253377e+00 2.5271321592e-04 2.1994189919e+00 -3.8095054411e+00 2.1994189919e+00 3.8095054411e+00 
81900 4.4757253363e+00 2.5072918779e-04 2.1994132469e+00 -3.8094954905e+00 2.1994132469e+00 3.8094954905e+00 
82000 4.4757253348e+00 2.4876073790e-04 2.1994075470e+00 -3.8094856179e+00 2.1994075470e+00 3.8094856179e+00 
82100 4.4757253334e+00 2.4680774383e-04 2.1994018918e+00 -3.8094758229e+00 2.1994018918e+00 3.8094758229e+00 
82200 4.4757253320e+00 2.4487008413e-04 2.1993962810e+00 -3.8094661047e+00 2.1993962810e+00 3.8094661047e+00 
82300 4.4757253307e+00 2.4294763832e-04 2.1993907143e+00 -3.8094564628e+00 2.1993907143e+00 3.8094564628e+00 
82400 4.4757253293e+00 2.4104028683e-04 2.1993851912e+00 -3.8094468966e+00 2.1993851912e+00 3.8094468966e+00 
82500 4.4757253280e+00 2.3914791107e-04 2.1993797115e+00 -3.8094374054e+00 2.1993797115e+00 3.8094374054e+00 
82600 4.4757253267e+00 2.3727039337e-04 2.1993742748e+00 -3.8094279888e+00 2.1993742748e+00 3.8094279888e+00 
82700 4.4757253255e+00 2.3540761697e-04 2.1993688807e+00 -3.8094186460e+00 2.1993688807e+00 3.8094186460e+00 
82800 4.4757253242e+00 2.3355946607e-04 2.1993635290e+00 -3.8094093766e+00 2.1993635290e+00 3.8094093766e+00 
82900 4.4757253230e+00 2.3172582573e-04 2.1993582193e+00 -3.8094001799e+00 2.1993582193e+00 3.8094001799e+00 
83000 4.4757253217e+00 2.2990658197e-04 2.1993529513e+00 -3.8093910554e+00 2.1993529513e+00 3.8093910554e+00 
83100 4.4757253205e+00 2.2810162165e-04 2.1993477246e+00 -3.8093820026e+00 2.1993477246e+00 3.8093820026e+00 
83200 4.4757253194e+00 2.2631083257e-04 2.1993425390e+00 -3.8093730207e+00 2.1993425390e+00 3.8093730207e+00 
83300 4.4757253182e+00 2.2453410338e-04 2.1993373940e+00 -3.8093641094e+00 2.1993373940e+00 3.8093641094e+00 
83400 4.4757253171e+00 2.2277132362e-04 2.1993322894e+00 -3.8093552680e+00 2.1993322894e+00 3.8093552680e+00 
83500 4.4757253159e+00 2.2102238370e-04 2.1993272249e+00 -3.8093464960e+00 2.1993272249e+00 3.8093464960e+00 
83600 4.4757253148e+00 2.1928717490e-04 2.1993222001e+00 -3.8093377928e+00 2.1993222001e+00 3.8093377928e+00 
83700 4.4757253138e+00 2.1756558933e-04 2.1993172148e+00 -3.8093291580e+00 2.1993172148e+00 3.8093291580e+00 
83800 4.4757253127e+00 2.1585751998e-04 2.1993122686e+00 -3.8093205909e+00 2.1993122686e+00 3.8093205909e+00 
83900 4.4757253116e+00 2.1416286066e-04 2.1993073612e+00 -3.8093120911e+00 2.1993073612e+00 3.8093120911e+00 
84000 4.4757253106e+00 2.1248150603e-04 2.1993024923e+00 -3.8093036579e+00 2.1993024923e+00 3.8093036579e+00 
84100 4.4757253096e+00 2.1081335156e-04 2.1992976617e+00 -3.8092952910e+00 2.1992976617e+00 3.8092952910e+00 
84200 4.4757253086e+00 2.0915829357e-04 2.1992928689e+00 -3.8092869897e+00 2.1992928689e+00 3.8092869897e+00 
84300 4.4757253076e+00 2.0751622917e-04 2.1992881138e+00 -3.8092787536e+00 2.1992881138e+00 3.8092787536e+00 
84400 4.4757253066e+00 2.0588705629e-04 2.1992833960e+00 -3.8092705821e+00 2.1992833960e+00 3.8092705821e+00 
84500 4.4757253056e+00 2.0427067367e-04 2.1992787152e+00 -3.8092624748e+00 2.1992787152e+00 3.8092624748e+00 
84600 4.4757253047e+00 2.0266698085e-04 2.1992740712e+00 -3.8092544311e+00 2.1992740712e+00 3.8092544311e+00 
84700 4.4757253038e+00 2.0107587813e-04 2.1992694636e+00 -3.8092464505e+00 2.1992694636e+00 3.8092464505e+00 
84800 4.4757253029e+00 1.9949726662e-04 2.1992648922e+00 -3.8092385326e+00 2.1992648922e+00 3.8092385326e+00 
84900 4.4757253020e+00 1.9793104822e-04 2.1992603566e+00 -3.8092306768e+00 2.1992603566e+00 3.8092306768e+00 
85000 4.4757253011e+00 1.9637712557e-04 2.1992558567e+00 -3.8092228826e+00 2.1992558567e+00 3.8092228826e+00 
85100 4.4757253002e+00 1.9483540210e-04 2.1992513921e+00 -3.8092151497e+00 2.1992513921e+00 3.8092151497e+00 
85200 4.4757252993e+00 1.9330578198e-04 2.1992469625e+00 -3.8092074774e+00 2.1992469625e+00 3.8092074774e+00 
85300 4.4757252985e+00 1.9178817016e-04 2.1992425677e+00 -3.8091998654e+00 2.1992425677e+00 3.8091998654e+00 
85400 4.4757252977e+00 1.9028247231e-04 2.1992382074e+00 -3.8091923131e+00 2.1992382074e+00 3.8091923131e+00 
85500 4.4757252969e+00 1.8878859486e-04 2.1992338813e+00 -3.8091848201e+00 2.1992338813e+00 3.8091848201e+00 
85600 4.4757252961e+00 1.8730644498e-04 2.1992295891e+00 -3.8091773858e+00 2.1992295891e+00 3.8091773858e+00 
85700 4.4757252953e+00 1.8583593054e-04 2.1992253307e+00 -3.8091700100e+00 2.1992253307e+00 3.8091700100e+00 
85800 4.4757252945e+00 1.8437696018e-04 2.1992211056e+00 -3.8091626920e+00 2.1992211056e+00 3.8091626920e+00 
85900 4.4757252937e+00 1.8292944322e-04 2.1992169138e+00 -3.8091554315e+00 2.1992169138e+00 3.8091554315e+00 
86000 4.4757252930e+00 1.8149328971e-04 2.1992127548e+00 -3.8091482280e+00 2.1992127548e+00 3.8091482280e+00 
86100 4.4757252922e+00 1.8006841040e-04 2.1992086285e+00 -3.8091410809e+00 2.1992086285e+00 3.8091410809e+00 
86200 4.4757252915e+00 1.7865471676e-04 2.1992045345e+00 -3.8091339900e+00 2.1992045345e+00 3.8091339900e+00 
86300 4.4757252908e+00 1.7725212094e-04 2.1992004727e+00 -3.8091269548e+00 2.1992004727e+00 3.8091269548e+00 
86400 4.4757252901e+00 1.7586053578e-04 2.1991964428e+00 -3.8091199748e+00 2.1991964428e+00 3.8091199748e+00 
86500 4.4757252894e+00 1.7447987481e-04 2.1991924445e+00 -3.8091130495e+00 2.1991924445e+00 3.8091130495e+00 
86600 4.4757252887e+00 1.7311005225e-04 2.1991884776e+00 -3.8091061786e+00 2.1991884776e+00 3.8091061786e+00 
86700 4.4757252880e+00 1.7175098297e-04 2.1991845418e+00 -3.8090993617e+00 2.1991845418e+00 3.8090993617e+00 
86800 4.4757252873e+00 1.7040258254e-04 2.1991806370e+00 -3.8090925982e+00 2.1991806370e+00 3.8090925982e+00 
86900 4.4757252867e+00 1.6906476716e-04 2.1991767627e+00 -3.8090858879e+00 2.1991767627e+00 3.8090858879e+00 
87000 4.4757252860e+00 1.6773745373e-04 2.1991729189e+00 -3.8090792302e+00 2.1991729189e+00 3.8090792302e+00 
87100 4.4757252854e+00 1.6642055976e-04 2.1991691053e+00 -3.8090726248e+00 2.1991691053e+00 3.8090726248e+00 
87200 4.4757252848e+00 1.6511400344e-04 2.1991653216e+00 -3.8090660712e+00 2.1991653216e+00 3.8090660712e+00 
87300 4.4757252842e+00 1.6381770359e-04 2.1991615675e+00 -3.8090595690e+00 2.1991615675e+00 3.8090595690e+00 
87400 4.4757252836e+00 1.6253157967e-04 2.1991578430e+00 -3.8090531179e+00 2.1991578430e+00 3.8090531179e+00 
87500 4.4757252830e+00 1.6125555178e-04 2.1991541477e+00 -3.8090467175e+00 2.1991541477e+00 3.8090467175e+00 
87600 4.4757252824e+00 1.5998954063e-04 2.1991504814e+00 -3.8090403672e+00 2.1991504814e+00 3.8090403672e+00 
87700 4.4757252818e+00 1.5873346758e-04 2.1991468438e+00 -3.8090340668e+00 2.1991468438e+00 3.8090340668e+00 
87800 4.4757252813e+00 1.5748725459e-04 2.1991432349e+00 -3.8090278159e+00 2.1991432349e+00 3.8090278159e+00 
87900 4.4757252807e+00 1.5625082423e-04 2.1991396542e+00 -3.8090216140e+00 2.1991396542e+00 3.8090216140e+00 
88000 4.4757252802e+00 1.5502409969e-04 2.1991361017e+00 -3.8090154609e+00 2.1991361017e+00 3.8090154609e+00 
88100 4.4757252796e+00 1.5380700476e-04 2.1991325770e+00 -3.8090093560e+00 2.1991325770e+00 3.8090093560e+00 
88200 4.4757252791e+00 1.5259946384e-04 2.1991290800e+00 -3.8090032990e+00 2.1991290800e+00 3.8090032990e+00 
88300 4.4757252786e+00 1.5140140190e-04 2.1991256105e+00 -3.8089972896e+00 2.1991256105e+00 3.8089972896e+00 
88400 4.4757252780e+00 1.5021274452e-04 2.1991221682e+00 -3.8089913273e+00 2.1991221682e+00 3.8089913273e+00 
88500 4.4757252775e+00 1.4903341786e-04 2.1991187529e+00 -3.8089854119e+00 2.1991187529e+00 3.8089854119e+00 
88600 4.4757252770e+00 1.4786334865e-04 2.1991153644e+00 -3.8089795429e+00 2.1991153644e+00 3.8089795429e+00 
88700 4.4757252766e+00 1.4670246421e-04 2.1991120025e+00 -3.8089737199e+00 2.1991120025e+00 3.8089737199e+00 
88800 4.4757252761e+00 1.4555069243e-04 2.1991086670e+00 -3.8089679427e+00 2.1991086670e+00 3.8089679427e+00 
88900 4.4757252756e+00 1.4440796176e-04 2.1991053577e+00 -3.8089622108e+00 2.1991053577e+00 3.8089622108e+00 
89000 4.4757252751e+00 1.4327420121e-04 2.1991020744e+00 -3.8089565239e+00 2.1991020744e+00 3.8089565239e+00 
89100 4.4757252747e+00 1.4214934036e-04 2.1990988168e+00 -3.8089508816e+00 2.1990988168e+00 3.8089508816e+00 
89200 4.4757252742e+00 1.4103330933e-04 2.1990955848e+00 -3.8089452836e+00 2.1990955848e+00 3.8089452836e+00 
89300 4.4757252738e+00 1.3992603880e-04 2.1990923782e+00 -3.8089397296e+00 2.1990923782e+00 3.8089397296e+00 
89400 4.4757252733e+00 1.3882745999e-04 2.1990891968e+00 -3.8089342192e+00 2.1990891968e+00 3.8089342192e+00 
89500 4.4757252729e+00 1.3773750466e-04 2.1990860403e+00 -3.8089287520e+00 2.1990860403e+00 3.8089287520e+00 
89600 4.4757252725e+00 1.3665610511e-04 2.1990829086e+00 -3.8089233277e+00 2.1990829086e+00 3.8089233277e+00 
89700 4.4757252721e+00 1.3558319416e-04 2.1990798015e+00 -3.8089179461e+00 2.1990798015e+00 3.8089179461e+00 
89800 4.4757252716e+00 1.3451870518e-04 2.1990767188e+00 -3.8089126066e+00 2.1990767188e+00 3.8089126066e+00 
89900 4.4757252712e+00 1.3346257205e-04 2.1990736602e+00 -3.8089073091e+00 2.1990736602e+00 3.8089073091e+00 
90000 4.4757252708e+00 1.3241472916e-04 2.1990706257e+00 -3.8089020532e+00 2.1990706257e+00 3.8089020532e+00 
90100 4.4757252705e+00 1.3137511143e-04 2.1990676150e+00 -3.8088968385e+00 2.1990676150e+00 3.8088968385e+00 
90200 4.4757252701e+00 1.3034365429e-04 2.1990646280e+00 -3.8088916647e+00 2.1990646280e+00 3.8088916647e+00 
90300 4.4757252697e+00 1.2932029367e-04 2.1990616643e+00 -3.8088865316e+00 2.1990616643e+00 3.8088865316e+00 
90400 4.4757252693e+00 1.2830496601e-04 2.1990587240e+00 -3.8088814388e+00 2.1990587240e+00 3.8088814388e+00 
90500 4.4757252689e+00 1.2729760826e-04 2.1990558067e+00 -3.8088763859e+00 2.1990558067e+00 3.8088763859e+00 
90600 4.4757252686e+00 1.2629815783e-04 2.1990529123e+00 -3.8088713727e+00 2.1990529123e+00 3.8088713727e+00 
90700 4.4757252682e+00 1.2530655265e-04 2.1990500407e+00 -3.8088663989e+00 2.1990500407e+00 3.8088663989e+00 
90800 4.4757252679e+00 1.2432273115e-04 2.1990471916e+00 -3.8088614641e+00 2.1990471916e+00 3.8088614641e+00 
90900 4.4757252675e+00 1.2334663220e-04 2.1990443649e+00 -3.8088565680e+00 2.1990443649e+00 3.8088565680e+00 
91000 4.4757252672e+00 1.2237819520e-04 2.1990415603e+00 -3.8088517104e+00 2.1990415603e+00 3.8088517104e+00 
91100 4.4757252669e+00 1.2141735998e-04 2.1990387778e+00 -3.8088468909e+00 2.1990387778e+00 3.8088468909e+00 
91200 4.4757252665e+00 1.2046406689e-04 2.1990360171e+00 -3.8088421093e+00 2.1990360171e+00 3.8088421093e+00 
91300 4.4757252662e+00 1.1951825670e-04 2.1990332781e+00 -3.8088373651e+00 2.1990332781e+00 3.8088373651e+00 
91400 4.4757252659e+00 1.1857987068e-04 2.1990305605e+00 -3.8088326583e+00 2.1990305605e+00 3.8088326583e+00 
91500 4.4757252656e+00 1.1764885055e-04 2.1990278644e+00 -3.8088279883e+00 2.1990278644e+00 3.8088279883e+00 
91600 4.4757252653e+00 1.1672513848e-04 2.1990251893e+00 -3.8088233551e+00 2.1990251893e+00 3.8088233551e+00 
91700 4.4757252650e+00 1.1580867711e-04 2.1990225353e+00 -3.8088187582e+00 2.1990225353e+00 3.8088187582e+00 
91800 4.4757252647e+00 1.1489940952e-04 2.1990199021e+00 -3.8088141974e+00 2.1990199021e+00 3.8088141974e+00 
91900 4.4757252644e+00 1.1399727924e-04 2.1990172896e+00 -3.8088096723e+00 2.1990172896e+00 3.8088096723e+00 
92000 4.4757252641e+00 1.1310223025e-04 2.1990146976e+00 -3.8088051829e+00 2.1990146976e+00 3.8088051829e+00 
92100 4.4757252638e+00 1.1221420695e-04 2.1990121260e+00 -3.8088007286e+00 2.1990121260e+00 3.8088007286e+00 
92200 4.4757252635e+00 1.1133315419e-04 2.1990095745e+00 -3.8087963094e+00 2.1990095745e+00 3.8087963094e+00 
92300 4.4757252632e+00 1.1045901727e-04 2.1990070431e+00 -3.8087919248e+00 2.1990070431e+00 3.8087919248e+00 
92400 4.4757252630e+00 1.0959174189e-04 2.1990045315e+00 -3.8087875746e+00 2.1990045315e+00 3.8087875746e+00 
92500 4.4757252627e+00 1.0873127420e-04 2.1990020396e+00 -3.8087832586e+00 2.1990020396e+00 3.8087832586e+00 
92600 4.4757252624e+00 1.0787756074e-04 2.1989995674e+00 -3.8087789765e+00 2.1989995674e+00 3.8087789765e+00 
92700 4.4757252622e+00 1.0703054852e-04 2.1989971145e+00 -3.8087747280e+00 2.1989971145e+00 3.8087747280e+00 
92800 4.4757252619e+00 1.0619018491e-04 2.1989946809e+00 -3.8087705128e+00 2.1989946809e+00 3.8087705128e+00 
92900 4.4757252617e+00 1.0535641775e-04 2.1989922663e+00 -3.8087663307e+00 2.1989922663e+00 3.8087663307e+00 
93000 4.4757252614e+00 1.0452919524e-04 2.1989898708e+00 -3.8087621815e+00 2.1989898708e+00 3.8087621815e+00 
93100 4.4757252612e+00 1.0370846602e-04 2.1989874940e+00 -3.8087580649e+00 2.1989874940e+00 3.8087580649e+00 
93200 4.4757252609e+00 1.0289417911e-04 2.1989851359e+00 -3.8087539805e+00 2.1989851359e+00 3.8087539805e+00 
93300 4.4757252607e+00 1.0208628396e-04 2.1989827963e+00 -3.8087499282e+00 2.1989827963e+00 3.8087499282e+00 
93400 4.4757252605e+00 1.0128473038e-04 2.1989804751e+00 -3.8087459078e+00 2.1989804751e+00 3.8087459078e+00 
93500 4.4757252603e+00 1.0048946860e-04 2.1989781721e+00 -3.8087419189e+00 2.1989781721e+00 3.8087419189e+00 
93600 4.4757252600e+00 9.9700449241e-05 2.1989758872e+00 -3.8087379613e+00 2.1989758872e+00 3.8087379613e+00 
93700 4.4757252598e+00 9.8917623295e-05 2.1989736203e+00 -3.8087340348e+00 2.1989736203e+00 3.8087340348e+00 
93800 4.4757252596e+00 9.8140942150e-05 2.1989713711e+00 -3.8087301391e+00 2.1989713711e+00 3.8087301391e+00 
93900 4.4757252594e+00 9.7370357576e-05 2.1989691396e+00 -3.8087262740e+00 2.1989691396e+00 3.8087262740e+00 
94000 4.4757252592e+00 9.6605821721e-05 2.1989669256e+00 -3.8087224392e+00 2.1989669256e+00 3.8087224392e+00 
94100 4.4757252590e+00 9.5847287106e-05 2.1989647289e+00 -3.8087186346e+00 2.1989647289e+00 3.8087186346e+00 
94200 4.4757252588e+00 9.5094706625e-05 2.1989625496e+00 -3.8087148598e+00 2.1989625496e+00 3.8087148598e+00 
94300 4.4757252586e+00 9.4348033547e-05 2.1989603873e+00 -3.8087111146e+00 2.1989603873e+00 3.8087111146e+00 
94400 4.4757252584e+00 9.3607221502e-05 2.1989582420e+00 -3.8087073989e+00 2.1989582420e+00 3.8087073989e+00 
94500 4.4757252582e+00 9.2872224488e-05 2.1989561136e+00 -3.8087037123e+00 2.1989561136e+00 3.8087037123e+00 
94600 4.4757252580e+00 9.2142996860e-05 2.1989540018e+00 -3.8087000547e+00 2.1989540018e+00 3.8087000547e+00 
94700 4.4757252578e+00 9.1419493335e-05 2.1989519067e+00 -3.8086964258e+00 2.1989519067e+00 3.8086964258e+00 
94800 4.4757252576e+00 9.0713331480e-05 2.1989498280e+00 -3.8086928253e+00 2.1989498280e+00 3.8086928253e+00 
94900 4.4757252574e+00 9.0021755285e-05 2.1989477653e+00 -3.8086892527e+00 2.1989477653e+00 3.8086892527e+00 
95000 4.4757252573e+00 8.9334540744e-05 2.1989457184e+00 -3.8086857073e+00 2.1989457184e+00 3.8086857073e+00 
95100 4.4757252571e+00 8.8657734514e-05 2.1989436871e+00 -3.8086821890e+00 2.1989436871e+00 3.8086821890e+00 
95200 4.4757252569e+00 8.7978928269e-05 2.1989416712e+00 -3.8086786974e+00 2.1989416712e+00 3.8086786974e+00 
95300 4.4757252567e+00 8.7310717550e-05 2.1989396707e+00 -3.8086752324e+00 2.1989396707e+00 3.8086752324e+00 
95400 4.4757252566e+00 8.6646630979e-05 2.1989376854e+00 -3.8086717938e+00 2.1989376854e+00 3.8086717938e+00 
95500 4.4757252564e+00 8.5979898596e-05 2.1989357152e+00 -3.8086683813e+00 2.1989357152e+00 3.8086683813e+00 
95600 4.4757252563e+00 8.5323998047e-05 2.1989337602e+00 -3.8086649951e+00 2.1989337602e+00 3.8086649951e+00 
95700 4.4757252561e+00 8.4665065821e-05 2.1989318201e+00 -3.8086616347e+00 2.1989318201e+00 3.8086616347e+00 
95800 4.4757252559e+00 8.4010027308e-05 2.1989298949e+00 -3.8086583003e+00 2.1989298949e+00 3.8086583003e+00 
95900 4.4757252558e+00 8.3358830124e-05 2.1989279847e+00 -3.8086549916e+00 2.1989279847e+00 3.8086549916e+00 
96000 4.4757252556e+00 8.2711423949e-05 2.1989260892e+00 -3.8086517086e+00 2.1989260892e+00 3.8086517086e+00 
96100 4.4757252555e+00 8.2069018554e-05 2.1989242085e+00 -3.8086484511e+00 2.1989242085e+00 3.8086484511e+00 
96200 4.4757252554e+00 8.1429021727e-05 2.1989223424e+00 -3.8086452189e+00 2.1989223424e+00 3.8086452189e+00 
96300 4.4757252552e+00 8.0794020887e-05 2.1989204908e+00 -3.8086420119e+00 2.1989204908e+00 3.8086420119e+00 
96400 4.4757252551e+00 8.0162644968e-05 2.1989186537e+00 -3.8086388299e+00 2.1989186537e+00 3.8086388299e+00 
96500 4.4757252549e+00 7.9534853479e-05 2.1989168309e+00 -3.8086356728e+00 2.1989168309e+00 3.8086356728e+00 
96600 4.4757252548e+00 7.8919887880e-05 2.1989150224e+00 -3.8086325403e+00 2.1989150224e+00 3.8086325403e+00 
96700 4.4757252547e+00 7.8298950640e-05 2.1989132279e+00 -3.8086294322e+00 2.1989132279e+00 3.8086294322e+00 
96800 4.4757252545e+00 7.7683063673e-05 2.1989114475e+00 -3.8086263484e+00 2.1989114475e+00 3.8086263484e+00 
96900 4.4757252544e+00 7.7070639870e-05 2.1989096811e+00 -3.8086232889e+00 2.1989096811e+00 3.8086232889e+00 
97000 4.4757252543e+00 7.6461647360e-05 2.1989079286e+00 -3.8086202535e+00 2.1989079286e+00 3.8086202535e+00 
97100 4.4757252541e+00 7.5865891374e-05 2.1989061900e+00 -3.8086172422e+00 2.1989061900e+00 3.8086172422e+00 
97200 4.4757252540e+00 7.5273415535e-05 2.1989044649e+00 -3.8086142542e+00 2.1989044649e+00 3.8086142542e+00 
97300 4.4757252539e+00 7.4684184942e-05 2.1989027533e+00 -3.8086112896e+00 2.1989027533e+00 3.8086112896e+00 
97400 4.4757252538e+00 7.4089882017e-05 2.1989010551e+00 -3.8086083482e+00 2.1989010551e+00 3.8086083482e+00 
97500 4.4757252537e+00 7.3509151253e-05 2.1988993704e+00 -3.8086054302e+00 2.1988993704e+00 3.8086054302e+00 
97600 4.4757252535e+00 7.2921259479e-05 2.1988976989e+00 -3.8086025351e+00 2.1988976989e+00 3.8086025351e+00 
97700 4.4757252534e+00 7.2338652748e-05 2.1988960408e+00 -3.8085996631e+00 2.1988960408e+00 3.8085996631e+00 
97800 4.4757252533e+00 7.1759322708e-05 2.1988943959e+00 -3.8085968141e+00 2.1988943959e+00 3.8085968141e+00 
97900 4.4757252532e+00 7.1193848025e-05 2.1988927642e+00 -3.8085939879e+00 2.1988927642e+00 3.8085939879e+00 
98000 4.4757252531e+00 7.0620804470e-05 2.1988911453e+00 -3.8085911840e+00 2.1988911453e+00 3.8085911840e+00 
98000 4.4757252531e+00 7.0620804470e-05 2.1988911453e+00 -3.8085911840e+00 2.1988911453e+00 3.8085911840e+00 
