# step Hamiltonian StressXX CellTensor1 CellTensor2 CellTensor3 CellTensor4 
0 6.9393316986e+00 2.0091076021e-01 2.5594246509e+00 -4.4330535334e+00 2.5594246509e+00 4.4330535334e+00 
100 6.9583663068e+00 2.2082580920e-01 2.5594246509e+00 -4.4330535334e+00 2.5594246509e+00 4.4330535334e+00 
200 6.9765851855e+00 2.3952033745e-01 2.5551118912e+00 -4.4255836145e+00 2.5551118912e+00 4.4255836145e+00 
300 6.9944968864e+00 2.5784163905e-01 2.5504262456e+00 -4.4174678383e+00 2.5504262456e+00 4.4174678383e+00 
400 7.0119694862e+00 2.7577343764e-01 2.5453730452e+00 -4.4087154385e+00 2.5453730452e+00 4.4087154385e+00 
500 7.0288388114e+00 2.9322766867e-01 2.5399578191e+00 -4.3993359918e+00 2.5399578191e+00 4.3993359918e+00 
600 7.0448977781e+00 3.1001458363e-01 2.5341877164e+00 -4.3893418807e+00 2.5341877164e+00 4.3893418807e+00 
700 7.0598830418e+00 3.2580344510e-01 2.5280735369e+00 -4.3787518112e+00 2.5280735369e+00 4.3787518112e+00 
800 7.0734629246e+00 3.4008212358e-01 2.5216325714e+00 -4.3675957318e+00 2.5216325714e+00 4.3675957318e+00 
900 7.0852361062e+00 3.5214003443e-01 2.5148922924e+00 -4.3559212260e+00 2.5148922924e+00 4.3559212260e+00 
1000 7.0947577562e+00 3.6112196892e-01 2.5078944541e+00 -4.3438006144e+00 2.5078944541e+00 4.3438006144e+00 
1100 7.1016119203e+00 3.6621040210e-01 2.5006982045e+00 -4.3313363446e+00 2.5006982045e+00 4.3313363446e+00 
1200 7.1055315760e+00 3.6694326311e-01 2.4933796252e+00 -4.3186601934e+00 2.4933796252e+00 4.3186601934e+00 
1300 7.1065229115e+00 3.6353471996e-01 2.4860249039e+00 -4.3059214424e+00 2.4860249039e+00 4.3059214424e+00 
1400 7.1049103705e+00 3.5694645470e-01 2.4787169321e+00 -4.2932636640e+00 2.4787169321e+00 4.2932636640e+00 
1500 7.1012497269e+00 3.4857375488e-01 2.4715202019e+00 -4.2807985616e+00 2.4715202019e+00 4.2807985616e+00 
1600 7.0961567782e+00 3.3973752558e-01 2.4644717561e+00 -4.2685902955e+00 2.4644717561e+00 4.2685902955e+00 
1700 7.0901593679e+00 3.3132616602e-01 2.4575822733e+00 -4.2566573612e+00 2.4575822733e+00 4.2566573612e+00 
1800 7.0836358836e+00 3.2373642502e-01 2.4508444667e+00 -4.2449871377e+00 2.4508444667e+00 4.2449871377e+00 
1900 7.0768263814e+00 3.1701134456e-01 2.4442428517e+00 -4.2335528052e+00 2.4442428517e+00 4.2335528052e+00 
2000 7.0698725999e+00 3.1101475735e-01 2.4377608691e+00 -4.2223256819e+00 2.4377608691e+00 4.2223256819e+00 
2100 7.0628563274e+00 3.0555676105e-01 2.4313845513e+00 -4.2112815756e+00 2.4313845513e+00 4.2112815756e+00 
2200 7.0558259751e+00 3.0045902618e-01 2.4251036689e+00 -4.2004027682e+00 2.4251036689e+00 4.2004027682e+00 
2300 7.0488122060e+00 2.9557873852e-01 2.4189115464e+00 -4.1896776974e+00 2.4189115464e+00 4.1896776974e+00 
2400 7.0418363035e+00 2.9081124080e-01 2.4128043782e+00 -4.1790997718e+00 2.4128043782e+00 4.1790997718e+00 
2500 7.0349144209e+00 2.8608428309e-01 2.4067804775e+00 -4.1686660697e+00 2.4067804775e+00 4.1686660697e+00 
2600 7.0280596835e+00 2.8135036725e-01 2.4008396314e+00 -4.1583762224e+00 2.4008396314e+00 4.1583762224e+00 
2700 7.0212832292e+00 2.7657981686e-01 2.3949826045e+00 -4.1482315543e+00 2.3949826045e+00 4.1482315543e+00 
2800 7.0145947359e+00 2.7175532114e-01 2.3892107795e+00 -4.1382344600e+00 2.3892107795e+00 4.1382344600e+00 
2900 7.0080027058e+00 2.6686792787e-01 2.3835259053e+00 -4.1283879692e+00 2.3835259053e+00 4.1283879692e+00 
3000 7.0015146325e+00 2.6191421433e-01 2.3779299263e+00 -4.1186954493e+00 2.3779299263e+00 4.1186954493e+00 
3100 6.9951371126e+00 2.5689433791e-01 2.3724248675e+00 -4.1091604077e+00 2.3724248675e+00 4.1091604077e+00 
3200 6.9888759277e+00 2.5181071430e-01 2.3670127593e+00 -4.0997863612e+00 2.3670127593e+00 4.0997863612e+00 
3300 6.9827361122e+00 2.4666713138e-01 2.3616955892e+00 -4.0905767524e+00 2.3616955892e+00 4.0905767524e+00 
3400 6.9767220107e+00 2.4146816119e-01 2.3564752715e+00 -4.0815348970e+00 2.3564752715e+00 4.0815348970e+00 
3500 6.9708373306e+00 2.3621877318e-01 2.3513536292e+00 -4.0726639523e+00 2.3513536292e+00 4.0726639523e+00 
3600 6.9650851887e+00 2.3092408274e-01 2.3463323834e+00 -4.0639668995e+00 2.3463323834e+00 4.0639668995e+00 
3700 6.9594681547e+00 2.2558919003e-01 2.3414131487e+00 -4.0554465350e+00 2.3414131487e+00 4.0554465350e+00 
3800 6.9539882914e+00 2.2021907875e-01 2.3365974314e+00 -4.0471054681e+00 2.3365974314e+00 4.0471054681e+00 
3900 6.9486471917e+00 2.1481855448e-01 2.3318866305e+00 -4.0389461215e+00 2.3318866305e+00 4.0389461215e+00 
4000 6.9434460126e+00 2.0939220909e-01 2.3272820393e+00 -4.0309707356e+00 2.3272820393e+00 4.0309707356e+00 
4100 6.9383855076e+00 2.0394440195e-01 2.3227848487e+00 -4.0231813730e+00 2.3227848487e+00 4.0231813730e+00 
4200 6.9334660554e+00 1.9847925211e-01 2.3183961504e+00 -4.0155799246e+00 2.3183961504e+00 4.0155799246e+00 
4300 6.9286876879e+00 1.9300063719e-01 2.3141169408e+00 -4.0081681161e+00 2.3141169408e+00 4.0081681161e+00 
4400 6.9240501149e+00 1.8751219664e-01 2.3099481245e+00 -4.0009475144e+00 2.3099481245e+00 4.0009475144e+00 
4500 6.9195527482e+00 1.8201733735e-01 2.3058905185e+00 -3.9939195347e+00 2.3058905185e+00 3.9939195347e+00 
4600 6.9151947231e+00 1.7651924072e-01 2.3019448558e+00 -3.9870854464e+00 2.3019448558e+00 3.9870854464e+00 
4700 6.9109749186e+00 1.7102087039e-01 2.2981117892e+00 -3.9804463804e+00 2.2981117892e+00 3.9804463804e+00 
4800 6.9068919766e+00 1.6552498021e-01 2.2943918952e+00 -3.9740033350e+00 2.2943918952e+00 3.9740033350e+00 
4900 6.9029443189e+00 1.6003412217e-01 2.2907856774e+00 -3.9677571825e+00 2.2907856774e+00 3.9677571825e+00 
5000 6.8991301644e+00 1.5455065422e-01 2.2872935700e+00 -3.9617086751e+00 2.2872935700e+00 3.9617086751e+00 
5100 6.8954475436e+00 1.4907674785e-01 2.2839159417e+00 -3.9558584512e+00 2.2839159417e+00 3.9558584512e+00 
5200 6.8918943130e+00 1.4361439549e-01 2.2806530985e+00 -3.9502070410e+00 2.2806530985e+00 3.9502070410e+00 
5300 6.8884681687e+00 1.3816541757e-01 2.2775052873e+00 -3.9447548721e+00 2.2775052873e+00 3.9447548721e+00 
5400 6.8851666588e+00 1.3273146957e-01 2.2744726992e+00 -3.9395022755e+00 2.2744726992e+00 3.9395022755e+00 
5500 6.8819871949e+00 1.2731404876e-01 2.2715554724e+00 -3.9344494905e+00 2.2715554724e+00 3.9344494905e+00 
5600 6.8789270630e+00 1.2191450095e-01 2.2687536954e+00 -3.9295966703e+00 2.2687536954e+00 3.9295966703e+00 
5700 6.8759834343e+00 1.1653402707e-01 2.2660674098e+00 -3.9249438871e+00 2.2660674098e+00 3.9249438871e+00 
5800 6.8731533745e+00 1.1117368982e-01 2.2634966133e+00 -3.9204911369e+00 2.2634966133e+00 3.9204911369e+00 
5900 6.8704338531e+00 1.0583442027e-01 2.2610412625e+00 -3.9162383446e+00 2.2610412625e+00 3.9162383446e+00 
6000 6.8678217520e+00 1.0051702444e-01 2.2587012755e+00 -3.9121853682e+00 2.2587012755e+00 3.9121853682e+00 
6100 6.8653138737e+00 9.5222190070e-02 2.2564765345e+00 -3.9083320038e+00 2.2564765345e+00 3.9083320038e+00 
6200 6.8629069493e+00 8.9950493348e-02 2.2543668885e+00 -3.9046779897e+00 2.2543668885e+00 3.9046779897e+00 
6300 6.8605976456e+00 8.4702405778e-02 2.2523721551e+00 -3.9012230103e+00 2.2523721551e+00 3.9012230103e+00 
6400 6.8583825722e+00 7.9478301145e-02 2.2504921237e+00 -3.8979667002e+00 2.2504921237e+00 3.8979667002e+00 
6500 6.8562582885e+00 7.4278462594e-02 2.2487265565e+00 -3.8949086482e+00 2.2487265565e+00 3.8949086482e+00 
6600 6.8542213096e+00 6.9103089815e-02 2.2470751916e+00 -3.8920484002e+00 2.2470751916e+00 3.8920484002e+00 
6700 6.8522681129e+00 6.3952306338e-02 2.2455377441e+00 -3.8893854630e+00 2.2455377441e+00 3.8893854630e+00 
6800 6.8503951437e+00 5.8826166950e-02 2.2441139082e+00 -3.8869193070e+00 2.2441139082e+00 3.8869193070e+00 
6900 6.8485988212e+00 5.3724665193e-02 2.2428033589e+00 -3.8846493691e+00 2.2428033589e+00 3.8846493691e+00 
7000 6.8468755437e+00 4.8647740981e-02 2.2416057532e+00 -3.8825750552e+00 2.2416057532e+00 3.8825750552e+00 
7100 6.8452216942e+00 4.3595288271e-02 2.2405207316e+00 -3.8806957426e+00 2.2405207316e+00 3.8806957426e+00 
7200 6.8436336453e+00 3.8567162827e-02 2.2395479191e+00 -3.8790107819e+00 2.2395479191e+00 3.8790107819e+00 
7300 6.8421077643e+00 3.3563190014e-02 2.2386869264e+00 -3.8775194987e+00 2.2386869264e+00 3.8775194987e+00 
7400 6.8406404185e+00 2.8583172642e-02 2.2379373504e+00 -3.8762211951e+00 2.2379373504e+00 3.8762211951e+00 
7500 6.8392279793e+00 2.3626898814e-02 2.2372987755e+00 -3.8751151509e+00 2.2372987755e+00 3.8751151509e+00 
7600 6.8378668278e+00 1.8694149766e-02 2.2367707734e+00 -3.8742006245e+00 2.2367707734e+00 3.8742006245e+00 
7700 6.8365533584e+00 1.3784707688e-02 2.2363529039e+00 -3.8734768532e+00 2.2363529039e+00 3.8734768532e+00 
7800 6.8352839847e+00 8.8983634698e-03 2.2360447148e+00 -3.8729430540e+00 2.2360447148e+00 3.8729430540e+00 
7900 6.8340551428e+00 4.0349243859e-03 2.2358457422e+00 -3.8725984234e+00 2.2358457422e+00 3.8725984234e+00 
8000 6.8328632967e+00 -8.0577834464e-04 2.2357555102e+00 -3.8724421370e+00 2.2357555102e+00 3.8724421370e+00 
8100 6.8317049424e+00 -5.6238821273e-03 2.2357735305e+00 -3.8724733491e+00 2.2357735305e+00 3.8724733491e+00 
8200 6.8305766126e+00 -1.0419485732e-02 2.2358993021e+00 -3.8726911918e+00 2.2358993021e+00 3.8726911918e+00 
8300 6.8294748810e+00 -1.5192642233e-02 2.2361323105e+00 -3.8730947742e+00 2.2361323105e+00 3.8730947742e+00 
8400 6.8283963670e+00 -1.9943352173e-02 2.2364720271e+00 -3.8736831807e+00 2.2364720271e+00 3.8736831807e+00 
8500 6.8273377399e+00 -2.4671557001e-02 2.2369179083e+00 -3.8744554695e+00 2.2369179083e+00 3.8744554695e+00 
8600 6.8262957239e+00 -2.9377132799e-02 2.2374693941e+00 -3.8754106710e+00 2.2374693941e+00 3.8754106710e+00 
8700 6.8252671021e+00 -3.4059884339e-02 2.2381259074e+00 -3.8765477854e+00 2.2381259074e+00 3.8765477854e+00 
8800 6.8242487214e+00 -3.8719539514e-02 2.2388868524e+00 -3.8778657808e+00 2.2388868524e+00 3.8778657808e+00 
8900 6.8232374970e+00 -4.3355744156e-02 2.2397516132e+00 -3.8793635904e+00 2.2397516132e+00 3.8793635904e+00 
9000 6.8222304168e+00 -4.7968057296e-02 2.2407195523e+00 -3.8810401101e+00 2.2407195523e+00 3.8810401101e+00 
9100 6.8212245461e+00 -5.2555946887e-02 2.2417900092e+00 -3.8828941959e+00 2.2417900092e+00 3.8828941959e+00 
9200 6.8202170324e+00 -5.7118786028e-02 2.2429622984e+00 -3.8849246604e+00 2.2429622984e+00 3.8849246604e+00 
9300 6.8192051097e+00 -6.1655849717e-02 2.2442357079e+00 -3.8871302702e+00 2.2442357079e+00 3.8871302702e+00 
9400 6.8181861031e+00 -6.6166312168e-02 2.2456094971e+00 -3.8895097429e+00 2.2456094971e+00 3.8895097429e+00 
9500 6.8171574335e+00 -7.0649244715e-02 2.2470828953e+00 -3.8920617435e+00 2.2470828953e+00 3.8920617435e+00 
9600 6.8161166218e+00 -7.5103614331e-02 2.2486550998e+00 -3.8947848816e+00 2.2486550998e+00 3.8947848816e+00 
9700 6.8150612937e+00 -7.9528282794e-02 2.2503252738e+00 -3.8976777077e+00 2.2503252738e+00 3.8976777077e+00 
9800 6.8139891840e+00 -8.3922006498e-02 2.2520925446e+00 -3.9007387105e+00 2.2520925446e+00 3.9007387105e+00 
9900 6.8128981406e+00 -8.8283436958e-02 2.2539560019e+00 -3.9039663134e+00 2.2539560019e+00 3.9039663134e+00 
10000 6.8117861288e+00 -9.2611121992e-02 2.2559146961e+00 -3.9073588712e+00 2.2559146961e+00 3.9073588712e+00 
10100 6.8106512353e+00 -9.6903507606e-02 2.2579676362e+00 -3.9109146677e+00 2.2579676362e+00 3.9109146677e+00 
10200 6.8094916722e+00 -1.0115894059e-01 2.2601137883e+00 -3.9146319123e+00 2.2601137883e+00 3.9146319123e+00 
10300 6.8083057803e+00 -1.0537567181e-01 2.2623520743e+00 -3.9185087372e+00 2.2623520743e+00 3.9185087372e+00 
10400 6.8070920327e+00 -1.0955186021e-01 2.2646813698e+00 -3.9225431955e+00 2.2646813698e+00 3.9225431955e+00 
10500 6.8058490378e+00 -1.1368557748e-01 2.2671005035e+00 -3.9267332579e+00 2.2671005035e+00 3.9267332579e+00 
10600 6.8045755424e+00 -1.1777481344e-01 2.2696082554e+00 -3.9310768115e+00 2.2696082554e+00 3.9310768115e+00 
10700 6.8032704341e+00 -1.2181748203e-01 2.2722033558e+00 -3.9355716574e+00 2.2722033558e+00 3.9355716574e+00 
10800 6.8019327433e+00 -1.2581142796e-01 2.2748844848e+00 -3.9402155090e+00 2.2748844848e+00 3.9402155090e+00 
10900 6.8005616454e+00 -1.2975443394e-01 2.2776502711e+00 -3.9450059913e+00 2.2776502711e+00 3.9450059913e+00 
11000 6.7991564616e+00 -1.3364422850e-01 2.2804992915e+00 -3.9499406396e+00 2.2804992915e+00 3.9499406396e+00 
11100 6.7977166607e+00 -1.3747849423e-01 2.2834300710e+00 -3.9550168985e+00 2.2834300710e+00 3.9550168985e+00 
11200 6.7962418587e+00 -1.4125487663e-01 2.2864410820e+00 -3.9602321226e+00 2.2864410820e+00 3.9602321226e+00 
11300 6.7947318195e+00 -1.4497099326e-01 2.2895307448e+00 -3.9655835756e+00 2.2895307448e+00 3.9655835756e+00 
11400 6.7931864539e+00 -1.4862444326e-01 2.2926974278e+00 -3.9710684313e+00 2.2926974278e+00 3.9710684313e+00 
11500 6.7916058188e+00 -1.5221281728e-01 2.2959394476e+00 -3.9766837744e+00 2.2959394476e+00 3.9766837744e+00 
11600 6.7899901158e+00 -1.5573370746e-01 2.2992550706e+00 -3.9824266019e+00 2.2992550706e+00 3.9824266019e+00 
11700 6.7883396885e+00 -1.5918471776e-01 2.3026425130e+00 -3.9882938242e+00 2.3026425130e+00 3.9882938242e+00 
11800 6.7866550204e+00 -1.6256347424e-01 2.3060999425e+00 -3.9942822678e+00 2.3060999425e+00 3.9942822678e+00 
11900 6.7849367310e+00 -1.6586763548e-01 2.3096254797e+00 -4.0003886773e+00 2.3096254797e+00 4.0003886773e+00 
12000 6.7831855726e+00 -1.6909490291e-01 2.3132171994e+00 -4.0066097183e+00 2.3132171994e+00 4.0066097183e+00 
12100 6.7814024253e+00 -1.7224303103e-01 2.3168731329e+00 -4.0129419808e+00 2.3168731329e+00 4.0129419808e+00 
12200 6.7795882924e+00 -1.7530983742e-01 2.3205912694e+00 -4.0193819823e+00 2.3205912694e+00 4.0193819823e+00 
12300 6.7777442947e+00 -1.7829321257e-01 2.3243695591e+00 -4.0259261719e+00 2.3243695591e+00 4.0259261719e+00 
12400 6.7758716646e+00 -1.8119112934e-01 2.3282059147e+00 -4.0325709347e+00 2.3282059147e+00 4.0325709347e+00 
12500 6.7739717394e+00 -1.8400165203e-01 2.3320982147e+00 -4.0393125960e+00 2.3320982147e+00 4.0393125960e+00 
12600 6.7720459544e+00 -1.8672294507e-01 2.3360443058e+00 -4.0461474263e+00 2.3360443058e+00 4.0461474263e+00 
12700 6.7700958354e+00 -1.8935328113e-01 2.3400420060e+00 -4.0530716462e+00 2.3400420060e+00 4.0530716462e+00 
12800 6.7681229913e+00 -1.9189104873e-01 2.3440891075e+00 -4.0600814317e+00 2.3440891075e+00 4.0600814317e+00 
12900 6.7661291051e+00 -1.9433475927e-01 2.3481833801e+00 -4.0671729199e+00 2.3481833801e+00 4.0671729199e+00 
13000 6.7641159264e+00 -1.9668305338e-01 2.3523225742e+00 -4.0743422143e+00 2.3523225742e+00 4.0743422143e+00 
13100 6.7620852619e+00 -1.9893470662e-01 2.3565044243e+00 -4.0815853912e+00 2.3565044243e+00 4.0815853912e+00 
13200 6.7600389669e+00 -2.0108863448e-01 2.3607266525e+00 -4.0888985049e+00 2.3607266525e+00 4.0888985049e+00 
13300 6.7579789361e+00 -2.0314389666e-01 2.3649869719e+00 -4.0962775946e+00 2.3649869719e+00 4.0962775946e+00 
13400 6.7559070945e+00 -2.0509970061e-01 2.3692830901e+00 -4.1037186895e+00 2.3692830901e+00 4.1037186895e+00 
13500 6.7538253880e+00 -2.0695540432e-01 2.3736127127e+00 -4.1112178159e+00 2.3736127127e+00 4.1112178159e+00 
13600 6.7517357746e+00 -2.0871051836e-01 2.3779735471e+00 -4.1187710027e+00 2.3779735471e+00 4.1187710027e+00 
13700 6.7496402148e+00 -2.1036470717e-01 2.3823633057e+00 -4.1263742875e+00 2.3823633057e+00 4.1263742875e+00 
13800 6.7475406632e+00 -2.1191778963e-01 2.3867797094e+00 -4.1340237231e+00 2.3867797094e+00 4.1340237231e+00 
13900 6.7454390590e+00 -2.1336973892e-01 2.3912204912e+00 -4.1417153829e+00 2.3912204912e+00 4.1417153829e+00 
14000 6.7433373180e+00 -2.1472068159e-01 2.3956833998e+00 -4.1494453672e+00 2.3956833998e+00 4.1494453672e+00 
14100 6.7412373243e+00 -2.1597089611e-01 2.4001662020e+00 -4.1572098085e+00 2.4001662020e+00 4.1572098085e+00 
14200 6.7391409219e+00 -2.1712081065e-01 2.4046666871e+00 -4.1650048773e+00 2.4046666871e+00 4.1650048773e+00 
14300 6.7370499076e+00 -2.1817100026e-01 2.4091826689e+00 -4.1728267873e+00 2.4091826689e+00 4.1728267873e+00 
14400 6.7349660237e+00 -2.1912218357e-01 2.4137119895e+00 -4.1806718006e+00 2.4137119895e+00 4.1806718006e+00 
14500 6.7328909511e+00 -2.1997521889e-01 2.4182525215e+00 -4.1885362328e+00 2.4182525215e+00 4.1885362328e+00 
14600 6.7308263035e+00 -2.2073109981e-01 2.4228021714e+00 -4.1964164575e+00 2.4228021714e+00 4.1964164575e+00 
14700 6.7287736211e+00 -2.2139095037e-01 2.4273588814e+00 -4.2043089108e+00 2.4273588814e+00 4.2043089108e+00 
14800 6.7267343661e+00 -2.2195601992e-01 2.4319206325e+00 -4.2122100955e+00 2.4319206325e+00 4.2122100955e+00 
14900 6.7247099174e+00 -2.2242767748e-01 2.4364854465e+00 -4.2201165852e+00 2.4364854465e+00 4.2201165852e+00 
15000 6.7227015671e+00 -2.2280740594e-01 2.4410513879e+00 -4.2280250277e+00 2.4410513879e+00 4.2280250277e+00 
15100 6.7207105168e+00 -2.2309679591e-01 2.4456165663e+00 -4.2359321487e+00 2.4456165663e+00 4.2359321487e+00 
15200 6.7187378743e+00 -2.2329753942e-01 2.4501791379e+00 -4.2438347546e+00 2.4501791379e+00 4.2438347546e+00 
15300 6.7167846519e+00 -2.2341142344e-01 2.4547373072e+00 -4.2517297353e+00 2.4547373072e+00 4.2517297353e+00 
15400 6.7148517645e+00 -2.2344032326e-01 2.4592893283e+00 -4.2596140672e+00 2.4592893283e+00 4.2596140672e+00 
15500 6.7129400278e+00 -2.2338619585e-01 2.4638335067e+00 -4.2674848150e+00 2.4638335067e+00 4.2674848150e+00 
15600 6.7110501586e+00 -2.2325107311e-01 2.4683681997e+00 -4.2753391337e+00 2.4683681997e+00 4.2753391337e+00 
15700 6.7091827738e+00 -2.2303705519e-01 2.4728918181e+00 -4.2831742707e+00 2.4728918181e+00 4.2831742707e+00 
15800 6.7073383917e+00 -2.2274630380e-01 2.4774028267e+00 -4.2909875666e+00 2.4774028267e+00 4.2909875666e+00 
15900 6.7055174321e+00 -2.2238103557e-01 2.4818997447e+00 -4.2987764571e+00 2.4818997447e+00 4.2987764571e+00 
16000 6.7037202184e+00 -2.2194351561e-01 2.4863811469e+00 -4.3065384734e+00 2.4863811469e+00 4.3065384734e+00 
16100 6.7019469788e+00 -2.2143605104e-01 2.4908456634e+00 -4.3142712429e+00 2.4908456634e+00 4.3142712429e+00 
16200 6.7001978492e+00 -2.2086098479e-01 2.4952919805e+00 -4.3219724900e+00 2.4952919805e+00 4.3219724900e+00 
16300 6.6984728756e+00 -2.2022068952e-01 2.4997188403e+00 -4.3296400361e+00 2.4997188403e+00 4.3296400361e+00 
16400 6.6967720170e+00 -2.1951756170e-01 2.5041250409e+00 -4.3372717994e+00 2.5041250409e+00 4.3372717994e+00 
16500 6.6950951491e+00 -2.1875401594e-01 2.5085094364e+00 -4.3448657951e+00 2.5085094364e+00 4.3448657951e+00 
16600 6.6934420677e+00 -2.1793247950e-01 2.5128709364e+00 -4.3524201347e+00 2.5128709364e+00 4.3524201347e+00 
16700 6.6918124929e+00 -2.1705538702e-01 2.5172085060e+00 -4.3599330256e+00 2.5172085060e+00 4.3599330256e+00 
16800 6.6902060729e+00 -2.1612517550e-01 2.5215211650e+00 -4.3674027702e+00 2.5215211650e+00 4.3674027702e+00 
16900 6.6886223889e+00 -2.1514427952e-01 2.5258079879e+00 -4.3748277653e+00 2.5258079879e+00 4.3748277653e+00 
17000 6.6870609592e+00 -2.1411512665e-01 2.5300681027e+00 -4.3822065005e+00 2.5300681027e+00 4.3822065005e+00 
17100 6.6855212443e+00 -2.1304013319e-01 2.5343006906e+00 -4.3895375577e+00 2.5343006906e+00 4.3895375577e+00 
17200 6.6840026513e+00 -2.1192170004e-01 2.5385049850e+00 -4.3968196092e+00 2.5385049850e+00 4.3968196092e+00 
17300 6.6825045391e+00 -2.1076220893e-01 2.5426802709e+00 -4.4040514166e+00 2.5426802709e+00 4.4040514166e+00 
17400 6.6810262231e+00 -2.0956401881e-01 2.5468258840e+00 -4.4112318291e+00 2.5468258840e+00 4.4112318291e+00 
17500 6.6795669803e+00 -2.0832946245e-01 2.5509412095e+00 -4.4183597819e+00 2.5509412095e+00 4.4183597819e+00 
17600 6.6781260544e+00 -2.0706084342e-01 2.5550256814e+00 -4.4254342948e+00 2.5550256814e+00 4.4254342948e+00 
17700 6.6767026601e+00 -2.0576043310e-01 2.5590787813e+00 -4.4324544697e+00 2.5590787813e+00 4.4324544697e+00 
17800 6.6752959888e+00 -2.0443046802e-01 2.5631000373e+00 -4.4394194896e+00 2.5631000373e+00 4.4394194896e+00 
17900 6.6739052126e+00 -2.0307314745e-01 2.5670890232e+00 -4.4463286158e+00 2.5670890232e+00 4.4463286158e+00 
18000 6.6725294895e+00 -2.0169063106e-01 2.5710453569e+00 -4.4531811868e+00 2.5710453569e+00 4.4531811868e+00 
18100 6.6711679678e+00 -2.0028503691e-01 2.5749686995e+00 -4.4599766155e+00 2.5749686995e+00 4.4599766155e+00 
18200 6.6698197903e+00 -1.9885843959e-01 2.5788587541e+00 -4.4667143877e+00 2.5788587541e+00 4.4667143877e+00 
18300 6.6684840989e+00 -1.9741286847e-01 2.5827152646e+00 -4.4733940598e+00 2.5827152646e+00 4.4733940598e+00 
18400 6.6671600384e+00 -1.9595030626e-01 2.5865380144e+00 -4.4800152567e+00 2.5865380144e+00 4.4800152567e+00 
18500 6.6658467609e+00 -1.9447268760e-01 2.5903268252e+00 -4.4865776695e+00 2.5903268252e+00 4.4865776695e+00 
18600 6.6645434289e+00 -1.9298189791e-01 2.5940815559e+00 -4.4930810537e+00 2.5940815559e+00 4.4930810537e+00 
18700 6.6632492192e+00 -1.9147977236e-01 2.5978021010e+00 -4.4995252270e+00 2.5978021010e+00 4.4995252270e+00 
18800 6.6619633260e+00 -1.8996809495e-01 2.6014883899e+00 -4.5059100667e+00 2.6014883899e+00 4.5059100667e+00 
18900 6.6606849645e+00 -1.8844859777e-01 2.6051403853e+00 -4.5122355081e+00 2.6051403853e+00 4.5122355081e+00 
19000 6.6594133730e+00 -1.8692296038e-01 2.6087580817e+00 -4.5185015422e+00 2.6087580817e+00 4.5185015422e+00 
19100 6.6581478163e+00 -1.8539280930e-01 2.6123415049e+00 -4.5247082133e+00 2.6123415049e+00 4.5247082133e+00 
19200 6.6568875877e+00 -1.8385971762e-01 2.6158907102e+00 -4.5308556171e+00 2.6158907102e+00 4.5308556171e+00 
19300 6.6556320111e+00 -1.8232520473e-01 2.6194057811e+00 -4.5369438986e+00 2.6194057811e+00 4.5369438986e+00 
19400 6.6543804435e+00 -1.8079073614e-01 2.6228868288e+00 -4.5429732499e+00 2.6228868288e+00 4.5429732499e+00 
19500 6.6531322762e+00 -1.7925772341e-01 2.6263339900e+00 -4.5489439083e+00 2.6263339900e+00 4.5489439083e+00 
19600 6.6518869367e+00 -1.7772752416e-01 2.6297474267e+00 -4.5548561541e+00 2.6297474267e+00 4.5548561541e+00 
19700 6.6506438897e+00 -1.7620144216e-01 2.6331273242e+00 -4.5607103084e+00 2.6331273242e+00 4.5607103084e+00 
19800 6.6494026382e+00 -1.7468072753e-01 2.6364738907e+00 -4.5665067315e+00 2.6364738907e+00 4.5665067315e+00 
19900 6.6481627249e+00 -1.7316657699e-01 2.6397873554e+00 -4.5722458207e+00 2.6397873554e+00 4.5722458207e+00 
20000 6.6469237321e+00 -1.7166013421e-01 2.6430679680e+00 -4.5779280084e+00 2.6430679680e+00 4.5779280084e+00 
20100 6.6456852825e+00 -1.7016249015e-01 2.6463159972e+00 -4.5835537601e+00 2.6463159972e+00 4.5835537601e+00 
20200 6.6444470397e+00 -1.6867468359e-01 2.6495317300e+00 -4.5891235727e+00 2.6495317300e+00 4.5891235727e+00 
20300 6.6432087078e+00 -1.6719770162e-01 2.6527154703e+00 -4.5946379726e+00 2.6527154703e+00 4.5946379726e+00 
20400 6.6419700317e+00 -1.6573248019e-01 2.6558675379e+00 -4.6000975138e+00 2.6558675379e+00 4.6000975138e+00 
20500 6.6407307966e+00 -1.6427990478e-01 2.6589882675e+00 -4.6055027761e+00 2.6589882675e+00 4.6055027761e+00 
20600 6.6394908278e+00 -1.6284081104e-01 2.6620780081e+00 -4.6108543637e+00 2.6620780081e+00 4.6108543637e+00 
20700 6.6382499897e+00 -1.6141598554e-01 2.6651371212e+00 -4.6161529031e+00 2.6651371212e+00 4.6161529031e+00 
20800 6.6370081856e+00 -1.6000616649e-01 2.6681659808e+00 -4.6213990417e+00 2.6681659808e+00 4.6213990417e+00 
20900 6.6357653566e+00 -1.5861204457e-01 2.6711649715e+00 -4.6265934461e+00 2.6711649715e+00 4.6265934461e+00 
21000 6.6345214803e+00 -1.5723426376e-01 2.6741344885e+00 -4.6317368003e+00 2.6741344885e+00 4.6317368003e+00 
21100 6.6332765703e+00 -1.5587342220e-01 2.6770749360e+00 -4.6368298048e+00 2.6770749360e+00 4.6368298048e+00 
21200 6.6320306746e+00 -1.5453007308e-01 2.6799867268e+00 -4.6418731744e+00 2.6799867268e+00 4.6418731744e+00 
21300 6.6307838745e+00 -1.5320472559e-01 2.6828702812e+00 -4.6468676371e+00 2.6828702812e+00 4.6468676371e+00 
21400 6.6295362832e+00 -1.5189784582e-01 2.6857260262e+00 -4.6518139327e+00 2.6857260262e+00 4.6518139327e+00 
21500 6.6282880442e+00 -1.5060985780e-01 2.6885543950e+00 -4.6567128111e+00 2.6885543950e+00 4.6567128111e+00 
21600 6.6270393298e+00 -1.4934114444e-01 2.6913558258e+00 -4.6615650316e+00 2.6913558258e+00 4.6615650316e+00 
21700 6.6257903398e+00 -1.4809204854e-01 2.6941307614e+00 -4.6663713609e+00 2.6941307614e+00 4.6663713609e+00 
21800 6.6245412997e+00 -1.4686287384e-01 2.6968796480e+00 -4.6711325723e+00 2.6968796480e+00 4.6711325723e+00 
21900 6.6232924590e+00 -1.4565388605e-01 2.6996029353e+00 -4.6758494442e+00 2.6996029353e+00 4.6758494442e+00 
22000 6.6220440894e+00 -1.4446531390e-01 2.7023010751e+00 -4.6805227594e+00 2.7023010751e+00 4.6805227594e+00 
22100 6.6207964835e+00 -1.4329735017e-01 2.7049745208e+00 -4.6851533032e+00 2.7049745208e+00 4.6851533032e+00 
22200 6.6195499528e+00 -1.4215015281e-01 2.7076237272e+00 -4.6897418633e+00 2.7076237272e+00 4.6897418633e+00 
22300 6.6183048259e+00 -1.4102384597e-01 2.7102491492e+00 -4.6942892276e+00 2.7102491492e+00 4.6942892276e+00 
22400 6.6170614468e+00 -1.3991852108e-01 2.7128512418e+00 -4.6987961842e+00 2.7128512418e+00 4.6987961842e+00 
22500 6.6158201735e+00 -1.3883423796e-01 2.7154304593e+00 -4.7032635200e+00 2.7154304593e+00 4.7032635200e+00 
22600 6.6145813759e+00 -1.3777102585e-01 2.7179872547e+00 -4.7076920195e+00 2.7179872547e+00 4.7076920195e+00 
22700 6.6133454344e+00 -1.3672888453e-01 2.7205220793e+00 -4.7120824644e+00 2.7205220793e+00 4.7120824644e+00 
22800 6.6121127379e+00 -1.3570778537e-01 2.7230353821e+00 -4.7164356325e+00 2.7230353821e+00 4.7164356325e+00 
22900 6.6108836827e+00 -1.3470767240e-01 2.7255276094e+00 -4.7207522969e+00 2.7255276094e+00 4.7207522969e+00 
23000 6.6096586703e+00 -1.3372846338e-01 2.7279992044e+00 -4.7250332251e+00 2.7279992044e+00 4.7250332251e+00 
23100 6.6084381064e+00 -1.3277005087e-01 2.7304506067e+00 -4.7292791784e+00 2.7304506067e+00 4.7292791784e+00 
23200 6.6072223991e+00 -1.3183230326e-01 2.7328822518e+00 -4.7334909113e+00 2.7328822518e+00 4.7334909113e+00 
23300 6.6060119574e+00 -1.3091506581e-01 2.7352945709e+00 -4.7376691704e+00 2.7352945709e+00 4.7376691704e+00 
23400 6.6048071899e+00 -1.3001816170e-01 2.7376879902e+00 -4.7418146943e+00 2.7376879902e+00 4.7418146943e+00 
23500 6.6036085036e+00 -1.2914139301e-01 2.7400629311e+00 -4.7459282126e+00 2.7400629311e+00 4.7459282126e+00 
23600 6.6024163025e+00 -1.2828454178e-01 2.7424198092e+00 -4.7500104452e+00 2.7424198092e+00 4.7500104452e+00 
23700 6.6012309861e+00 -1.2744737095e-01 2.7447590346e+00 -4.7540621025e+00 2.7447590346e+00 4.7540621025e+00 
23800 6.6000529486e+00 -1.2662962535e-01 2.7470810112e+00 -4.7580838838e+00 2.7470810112e+00 4.7580838838e+00 
23900 6.5988825777e+00 -1.2583103269e-01 2.7493861364e+00 -4.7620764779e+00 2.7493861364e+00 4.7620764779e+00 
24000 6.5977202536e+00 -1.2505130447e-01 2.7516748014e+00 -4.7660405619e+00 2.7516748014e+00 4.7660405619e+00 
24100 6.5965663477e+00 -1.2429013693e-01 2.7539473901e+00 -4.7699768010e+00 2.7539473901e+00 4.7699768010e+00 
24200 6.5954212223e+00 -1.2354721195e-01 2.7562042795e+00 -4.7738858482e+00 2.7562042795e+00 4.7738858482e+00 
24300 6.5942852290e+00 -1.2282219797e-01 2.7584458395e+00 -4.7777683439e+00 2.7584458395e+00 4.7777683439e+00 
24400 6.5931587086e+00 -1.2211475084e-01 2.7606724322e+00 -4.7816249155e+00 2.7606724322e+00 4.7816249155e+00 
24500 6.5920419901e+00 -1.2142451467e-01 2.7628844121e+00 -4.7854561773e+00 2.7628844121e+00 4.7854561773e+00 
24600 6.5909353900e+00 -1.2075112272e-01 2.7650821262e+00 -4.7892627296e+00 2.7650821262e+00 4.7892627296e+00 
24700 6.5898392119e+00 -1.2009419816e-01 2.7672659131e+00 -4.7930451595e+00 2.7672659131e+00 4.7930451595e+00 
24800 6.5887537457e+00 -1.1945335492e-01 2.7694361035e+00 -4.7968040396e+00 2.7694361035e+00 4.7968040396e+00 
24900 6.5876792675e+00 -1.1882819845e-01 2.7715930200e+00 -4.8005399285e+00 2.7715930200e+00 4.8005399285e+00 
25000 6.5866160389e+00 -1.1821832647e-01 2.7737369766e+00 -4.8042533703e+00 2.7737369766e+00 4.8042533703e+00 
25100 6.5855643069e+00 -1.1762332974e-01 2.7758682791e+00 -4.8079448946e+00 2.7758682791e+00 4.8079448946e+00 
25200 6.5845243035e+00 -1.1704279278e-01 2.7779872248e+00 -4.8116150161e+00 2.7779872248e+00 4.8116150161e+00 
25300 6.5834962455e+00 -1.1647629455e-01 2.7800941023e+00 -4.8152642350e+00 2.7800941023e+00 4.8152642350e+00 
25400 6.5824803343e+00 -1.1592340916e-01 2.7821891916e+00 -4.8188930362e+00 2.7821891916e+00 4.8188930362e+00 
25500 6.5814767561e+00 -1.1538370653e-01 2.7842727643e+00 -4.8225018898e+00 2.7842727643e+00 4.8225018898e+00 
25600 6.5804856811e+00 -1.1485675303e-01 2.7863450829e+00 -4.8260912510e+00 2.7863450829e+00 4.8260912510e+00 
25700 6.5795072644e+00 -1.1434211211e-01 2.7884064016e+00 -4.8296615597e+00 2.7884064016e+00 4.8296615597e+00 
25800 6.5785416454e+00 -1.1383934491e-01 2.7904569656e+00 -4.8332132407e+00 2.7904569656e+00 4.8332132407e+00 
25900 6.5775889482e+00 -1.1334801085e-01 2.7924970114e+00 -4.8367467038e+00 2.7924970114e+00 4.8367467038e+00 
26000 6.5766492813e+00 -1.1286766821e-01 2.7945267671e+00 -4.8402623437e+00 2.7945267671e+00 4.8402623437e+00 
26100 6.5757227385e+00 -1.1239787467e-01 2.7965464516e+00 -4.8437605400e+00 2.7965464516e+00 4.8437605400e+00 
26200 6.5748093982e+00 -1.1193818784e-01 2.7985562757e+00 -4.8472416573e+00 2.7985562757e+00 4.8472416573e+00 
26300 6.5739093245e+00 -1.1148816581e-01 2.8005564411e+00 -4.8507060455e+00 2.8005564411e+00 4.8507060455e+00 
26400 6.5730225666e+00 -1.1104736764e-01 2.8025471413e+00 -4.8541540393e+00 2.8025471413e+00 4.8541540393e+00 
26500 6.5721491600e+00 -1.1061535380e-01 2.8045285610e+00 -4.8575859589e+00 2.8045285610e+00 4.8575859589e+00 
26600 6.5712891260e+00 -1.1019168672e-01 2.8065008766e+00 -4.8610021097e+00 2.8065008766e+00 4.8610021097e+00 
26700 6.5704424724e+00 -1.0977593119e-01 2.8084642560e+00 -4.8644027827e+00 2.8084642560e+00 4.8644027827e+00 
26800 6.5696091940e+00 -1.0936765478e-01 2.8104188591e+00 -4.8677882544e+00 2.8104188591e+00 4.8677882544e+00 
26900 6.5687892729e+00 -1.0896642832e-01 2.8123648371e+00 -4.8711587872e+00 2.8123648371e+00 4.8711587872e+00 
27000 6.5679826785e+00 -1.0857182627e-01 2.8143023334e+00 -4.8745146293e+00 2.8143023334e+00 4.8745146293e+00 
27100 6.5671893685e+00 -1.0818342711e-01 2.8162314833e+00 -4.8778560149e+00 2.8162314833e+00 4.8778560149e+00 
27200 6.5664092890e+00 -1.0780081372e-01 2.8181524141e+00 -4.8811831646e+00 2.8181524141e+00 4.8811831646e+00 
27300 6.5656423752e+00 -1.0742357377e-01 2.8200652453e+00 -4.8844962855e+00 2.8200652453e+00 4.8844962855e+00 
27400 6.5648885514e+00 -1.0705130003e-01 2.8219700888e+00 -4.8877955712e+00 2.8219700888e+00 4.8877955712e+00 
27500 6.5641477320e+00 -1.0668359073e-01 2.8238670487e+00 -4.8910812022e+00 2.8238670487e+00 4.8910812022e+00 
27600 6.5634198214e+00 -1.0632004989e-01 2.8257562219e+00 -4.8943533461e+00 2.8257562219e+00 4.8943533461e+00 
27700 6.5627047150e+00 -1.0596028760e-01 2.8276376977e+00 -4.8976121578e+00 2.8276376977e+00 4.8976121578e+00 
27800 6.5620022994e+00 -1.0560392036e-01 2.8295115584e+00 -4.9008577797e+00 2.8295115584e+00 4.9008577797e+00 
27900 6.5613124529e+00 -1.0525057132e-01 2.8313778791e+00 -4.9040903420e+00 2.8313778791e+00 4.9040903420e+00 
28000 6.5606350461e+00 -1.0489987059e-01 2.8332367281e+00 -4.9073099629e+00 2.8332367281e+00 4.9073099629e+00 
28100 6.5599699420e+00 -1.0455145548e-01 2.8350881668e+00 -4.9105167489e+00 2.8350881668e+00 4.9105167489e+00 
28200 6.5593169970e+00 -1.0420497078e-01 2.8369322503e+00 -4.9137107951e+00 2.8369322503e+00 4.9137107951e+00 
28300 6.5586760610e+00 -1.0386006894e-01 2.8387690267e+00 -4.9168921852e+00 2.8387690267e+00 4.9168921852e+00 
28400 6.5580469780e+00 -1.0351641036e-01 2.8405985383e+00 -4.9200609922e+00 2.8405985383e+00 4.9200609922e+00 
28500 6.5574295864e+00 -1.0317366358e-01 2.8424208210e+00 -4.9232172784e+00 2.8424208210e+00 4.9232172784e+00 
28600 6.5568237197e+00 -1.0283150546e-01 2.8442359047e+00 -4.9263610956e+00 2.8442359047e+00 4.9263610956e+00 
28700 6.5562292067e+00 -1.0248962144e-01 2.8460438137e+00 -4.9294924858e+00 2.8460438137e+00 4.9294924858e+00 
28800 6.5556458721e+00 -1.0214770563e-01 2.8478445663e+00 -4.9326114810e+00 2.8478445663e+00 4.9326114810e+00 
28900 6.5550735370e+00 -1.0180546108e-01 2.8496381758e+00 -4.9357181037e+00 2.8496381758e+00 4.9357181037e+00 
29000 6.5545120187e+00 -1.0146259988e-01 2.8514246498e+00 -4.9388123675e+00 2.8514246498e+00 4.9388123675e+00 
29100 6.5539611321e+00 -1.0111884331e-01 2.8532039910e+00 -4.9418942767e+00 2.8532039910e+00 4.9418942767e+00 
29200 6.5534206892e+00 -1.0077392203e-01 2.8549761970e+00 -4.9449638276e+00 2.8549761970e+00 4.9449638276e+00 
29300 6.5528905000e+00 -1.0042757615e-01 2.8567412607e+00 -4.9480210076e+00 2.8567412607e+00 4.9480210076e+00 
29400 6.5523703726e+00 -1.0007955541e-01 2.8584991705e+00 -4.9510657967e+00 2.8584991705e+00 4.9510657967e+00 
29500 6.5518601136e+00 -9.9729619244e-02 2.8602499103e+00 -4.9540981669e+00 2.8602499103e+00 4.9540981669e+00 
29600 6.5513595288e+00 -9.9377536890e-02 2.8619934597e+00 -4.9571180832e+00 2.8619934597e+00 4.9571180832e+00 
29700 6.5508684227e+00 -9.9023087496e-02 2.8637297946e+00 -4.9601255033e+00 2.8637297946e+00 4.9601255033e+00 
29800 6.5503865999e+00 -9.8666060184e-02 2.8654588866e+00 -4.9631203785e+00 2.8654588866e+00 4.9631203785e+00 
29900 6.5499138643e+00 -9.8306254125e-02 2.8671807039e+00 -4.9661026536e+00 2.8671807039e+00 4.9661026536e+00 
30000 6.5494500203e+00 -9.7943478595e-02 2.8688952112e+00 -4.9690722673e+00 2.8688952112e+00 4.9690722673e+00 
30100 6.5489948726e+00 -9.7577553022e-02 2.8706023698e+00 -4.9720291528e+00 2.8706023698e+00 4.9720291528e+00 
30200 6.5485482265e+00 -9.7208307029e-02 2.8723021381e+00 -4.9749732378e+00 2.8723021381e+00 4.9749732378e+00 
30300 6.5481098881e+00 -9.6835580456e-02 2.8739944713e+00 -4.9779044449e+00 2.8739944713e+00 4.9779044449e+00 
30400 6.5476796650e+00 -9.6459223383e-02 2.8756793221e+00 -4.9808226921e+00 2.8756793221e+00 4.9808226921e+00 
30500 6.5472573659e+00 -9.6079096130e-02 2.8773566404e+00 -4.9837278927e+00 2.8773566404e+00 4.9837278927e+00 
30600 6.5468428012e+00 -9.5695069260e-02 2.8790263740e+00 -4.9866199561e+00 2.8790263740e+00 4.9866199561e+00 
30700 6.5464357830e+00 -9.5307023563e-02 2.8806884684e+00 -4.9894987880e+00 2.8806884684e+00 4.9894987880e+00 
30800 6.5460361255e+00 -9.4914850030e-02 2.8823428670e+00 -4.9923642905e+00 2.8823428670e+00 4.9923642905e+00 
30900 6.5456436449e+00 -9.4518449823e-02 2.8839895115e+00 -4.9952163624e+00 2.8839895115e+00 4.9952163624e+00 
31000 6.5452581600e+00 -9.4117734226e-02 2.8856283420e+00 -4.9980549000e+00 2.8856283420e+00 4.9980549000e+00 
31100 6.5448794918e+00 -9.3712624594e-02 2.8872592969e+00 -5.0008797968e+00 2.8872592969e+00 5.0008797968e+00 
31200 6.5445074641e+00 -9.3303052284e-02 2.8888823135e+00 -5.0036909441e+00 2.8888823135e+00 5.0036909441e+00 
31300 6.5441419034e+00 -9.2888958585e-02 2.8904973281e+00 -5.0064882314e+00 2.8904973281e+00 5.0064882314e+00 
31400 6.5437826390e+00 -9.2470294625e-02 2.8921042758e+00 -5.0092715464e+00 2.8921042758e+00 5.0092715464e+00 
31500 6.5434295035e+00 -9.2047021285e-02 2.8937030910e+00 -5.0120407757e+00 2.8937030910e+00 5.0120407757e+00 
31600 6.5430823322e+00 -9.1619109085e-02 2.8952937077e+00 -5.0147958046e+00 2.8952937077e+00 5.0147958046e+00 
31700 6.5427409639e+00 -9.1186538073e-02 2.8968760593e+00 -5.0175365179e+00 2.8968760593e+00 5.0175365179e+00 
31800 6.5424052405e+00 -9.0749297701e-02 2.8984500788e+00 -5.0202627997e+00 2.8984500788e+00 5.0202627997e+00 
31900 6.5420750074e+00 -9.0307386685e-02 2.9000156994e+00 -5.0229745341e+00 2.9000156994e+00 5.0229745341e+00 
32000 6.5417501134e+00 -8.9860812868e-02 2.9015728541e+00 -5.0256716052e+00 2.9015728541e+00 5.0256716052e+00 
32100 6.5414304107e+00 -8.9409593060e-02 2.9031214763e+00 -5.0283538975e+00 2.9031214763e+00 5.0283538975e+00 
32200 6.5411157551e+00 -8.8953752878e-02 2.9046614996e+00 -5.0310212960e+00 2.9046614996e+00 5.0310212960e+00 
32300 6.5408060059e+00 -8.8493326574e-02 2.9061928581e+00 -5.0336736869e+00 2.9061928581e+00 5.0336736869e+00 
32400 6.5405010262e+00 -8.8028356853e-02 2.9077154868e+00 -5.0363109570e+00 2.9077154868e+00 5.0363109570e+00 
32500 6.5402006825e+00 -8.7558894688e-02 2.9092293211e+00 -5.0389329950e+00 2.9092293211e+00 5.0389329950e+00 
32600 6.5399048452e+00 -8.7084999115e-02 2.9107342977e+00 -5.0415396909e+00 2.9107342977e+00 5.0415396909e+00 
32700 6.5396133882e+00 -8.6606737034e-02 2.9122303541e+00 -5.0441309366e+00 2.9122303541e+00 5.0441309366e+00 
32800 6.5393261893e+00 -8.6124182994e-02 2.9137174291e+00 -5.0467066262e+00 2.9137174291e+00 5.0467066262e+00 
32900 6.5390431297e+00 -8.5637418969e-02 2.9151954630e+00 -5.0492666559e+00 2.9151954630e+00 5.0492666559e+00 
33000 6.5387640945e+00 -8.5146534134e-02 2.9166643972e+00 -5.0518109246e+00 2.9166643972e+00 5.0518109246e+00 
33100 6.5384889724e+00 -8.4651624625e-02 2.9181241749e+00 -5.0543393337e+00 2.9181241749e+00 5.0543393337e+00 
33200 6.5382176559e+00 -8.4152793301e-02 2.9195747409e+00 -5.0568517877e+00 2.9195747409e+00 5.0568517877e+00 
33300 6.5379500409e+00 -8.3650149497e-02 2.9210160418e+00 -5.0593481941e+00 2.9210160418e+00 5.0593481941e+00 
33400 6.5376860271e+00 -8.3143808766e-02 2.9224480260e+00 -5.0618284636e+00 2.9224480260e+00 5.0618284636e+00 
33500 6.5374255176e+00 -8.2633892623e-02 2.9238706442e+00 -5.0642925105e+00 2.9238706442e+00 5.0642925105e+00 
33600 6.5371684194e+00 -8.2120528279e-02 2.9252838487e+00 -5.0667402525e+00 2.9252838487e+00 5.0667402525e+00 
33700 6.5369146426e+00 -8.1603848375e-02 2.9266875944e+00 -5.0691716114e+00 2.9266875944e+00 5.0691716114e+00 
33800 6.5366641010e+00 -8.1083990704e-02 2.9280818383e+00 -5.0715865126e+00 2.9280818383e+00 5.0715865126e+00 
33900 6.5364167117e+00 -8.0561097939e-02 2.9294665396e+00 -5.0739848857e+00 2.9294665396e+00 5.0739848857e+00 
34000 6.5361723953e+00 -8.0035317350e-02 2.9308416603e+00 -5.0763666645e+00 2.9308416603e+00 5.0763666645e+00 
34100 6.5359310756e+00 -7.9506800523e-02 2.9322071644e+00 -5.0787317871e+00 2.9322071644e+00 5.0787317871e+00 
34200 6.5356926797e+00 -7.8975703069e-02 2.9335630189e+00 -5.0810801959e+00 2.9335630189e+00 5.0810801959e+00 
34300 6.5354571377e+00 -7.8442184345e-02 2.9349091931e+00 -5.0834118381e+00 2.9349091931e+00 5.0834118381e+00 
34400 6.5352243832e+00 -7.7906407158e-02 2.9362456593e+00 -5.0857266653e+00 2.9362456593e+00 5.0857266653e+00 
34500 6.5349943523e+00 -7.7368537478e-02 2.9375723921e+00 -5.0880246340e+00 2.9375723921e+00 5.0880246340e+00 
34600 6.5347669846e+00 -7.6828744146e-02 2.9388893693e+00 -5.0903057054e+00 2.9388893693e+00 5.0903057054e+00 
34700 6.5345422223e+00 -7.6287198586e-02 2.9401965712e+00 -5.0925698455e+00 2.9401965712e+00 5.0925698455e+00 
34800 6.5343200105e+00 -7.5744074512e-02 2.9414939812e+00 -5.0948170255e+00 2.9414939812e+00 5.0948170255e+00 
34900 6.5341002971e+00 -7.5199547639e-02 2.9427815853e+00 -5.0970472213e+00 2.9427815853e+00 5.0970472213e+00 
35000 6.5338830324e+00 -7.4653795397e-02 2.9440593728e+00 -5.0992604141e+00 2.9440593728e+00 5.0992604141e+00 
35100 6.5336681696e+00 -7.4106996644e-02 2.9453273355e+00 -5.1014565900e+00 2.9453273355e+00 5.1014565900e+00 
35200 6.5334556641e+00 -7.3559331382e-02 2.9465854685e+00 -5.1036357402e+00 2.9465854685e+00 5.1036357402e+00 
35300 6.5332454741e+00 -7.3010980476e-02 2.9478337697e+00 -5.1057978613e+00 2.9478337697e+00 5.1057978613e+00 
35400 6.5330375596e+00 -7.2462125377e-02 2.9490722399e+00 -5.1079429548e+00 2.9490722399e+00 5.1079429548e+00 
35500 6.5328318833e+00 -7.1912947848e-02 2.9503008832e+00 -5.1100710273e+00 2.9503008832e+00 5.1100710273e+00 
35600 6.5326284097e+00 -7.1363629694e-02 2.9515197063e+00 -5.1121820908e+00 2.9515197063e+00 5.1121820908e+00 
35700 6.5324271055e+00 -7.0814352495e-02 2.9527287190e+00 -5.1142761624e+00 2.9527287190e+00 5.1142761624e+00 
35800 6.5322279392e+00 -7.0265297349e-02 2.9539279343e+00 -5.1163532640e+00 2.9539279343e+00 5.1163532640e+00 
35900 6.5320308816e+00 -6.9716644615e-02 2.9551173677e+00 -5.1184134231e+00 2.9551173677e+00 5.1184134231e+00 
36000 6.5318359046e+00 -6.9168573663e-02 2.9562970379e+00 -5.1204566719e+00 2.9562970379e+00 5.1204566719e+00 
36100 6.5316429825e+00 -6.8621262632e-02 2.9574669666e+00 -5.1224830478e+00 2.9574669666e+00 5.1224830478e+00 
36200 6.5314520906e+00 -6.8074888194e-02 2.9586271781e+00 -5.1244925932e+00 2.9586271781e+00 5.1244925932e+00 
36300 6.5312632060e+00 -6.7529625321e-02 2.9597776999e+00 -5.1264853553e+00 2.9597776999e+00 5.1264853553e+00 
36400 6.5310763072e+00 -6.6985647065e-02 2.9609185619e+00 -5.1284613864e+00 2.9609185619e+00 5.1284613864e+00 
36500 6.5308913741e+00 -6.6443124341e-02 2.9620497972e+00 -5.1304207433e+00 2.9620497972e+00 5.1304207433e+00 
36600 6.5307083876e+00 -6.5902225720e-02 2.9631714414e+00 -5.1323634880e+00 2.9631714414e+00 5.1323634880e+00 
36700 6.5305273300e+00 -6.5363117225e-02 2.9642835327e+00 -5.1342896867e+00 2.9642835327e+00 5.1342896867e+00 
36800 6.5303481845e+00 -6.4825962145e-02 2.9653861122e+00 -5.1361994105e+00 2.9653861122e+00 5.1361994105e+00 
36900 6.5301709355e+00 -6.4290920845e-02 2.9664792236e+00 -5.1380927348e+00 2.9664792236e+00 5.1380927348e+00 
37000 6.5299955682e+00 -6.3758150597e-02 2.9675629128e+00 -5.1399697397e+00 2.9675629128e+00 5.1399697397e+00 
37100 6.5298220685e+00 -6.3227805407e-02 2.9686372287e+00 -5.1418305093e+00 2.9686372287e+00 5.1418305093e+00 
37200 6.5296504234e+00 -6.2700035859e-02 2.9697022221e+00 -5.1436751320e+00 2.9697022221e+00 5.1436751320e+00 
37300 6.5294806203e+00 -6.2174988968e-02 2.9707579466e+00 -5.1455037006e+00 2.9707579466e+00 5.1455037006e+00 
37400 6.5293126474e+00 -6.1652808039e-02 2.9718044580e+00 -5.1473163114e+00 2.9718044580e+00 5.1473163114e+00 
37500 6.5291464934e+00 -6.1133632533e-02 2.9728418141e+00 -5.1491130650e+00 2.9728418141e+00 5.1491130650e+00 
37600 6.5289821473e+00 -6.0617597947e-02 2.9738700753e+00 -5.1508940655e+00 2.9738700753e+00 5.1508940655e+00 
37700 6.5288195989e+00 -6.0104835701e-02 2.9748893037e+00 -5.1526594210e+00 2.9748893037e+00 5.1526594210e+00 
37800 6.5286588382e+00 -5.9595473034e-02 2.9758995638e+00 -5.1544092427e+00 2.9758995638e+00 5.1544092427e+00 
37900 6.5284998553e+00 -5.9089632908e-02 2.9769009217e+00 -5.1561436456e+00 2.9769009217e+00 5.1561436456e+00 
38000 6.5283426408e+00 -5.8587433923e-02 2.9778934458e+00 -5.1578627476e+00 2.9778934458e+00 5.1578627476e+00 
38100 6.5281871855e+00 -5.8088990242e-02 2.9788772059e+00 -5.1595666702e+00 2.9788772059e+00 5.1595666702e+00 
38200 6.5280334803e+00 -5.7594411517e-02 2.9798522740e+00 -5.1612555376e+00 2.9798522740e+00 5.1612555376e+00 
38300 6.5278815162e+00 -5.7103802838e-02 2.9808187233e+00 -5.1629294769e+00 2.9808187233e+00 5.1629294769e+00 
38400 6.5277312843e+00 -5.6617264674e-02 2.9817766289e+00 -5.1645886181e+00 2.9817766289e+00 5.1645886181e+00 
38500 6.5275827758e+00 -5.6134892840e-02 2.9827260674e+00 -5.1662330937e+00 2.9827260674e+00 5.1662330937e+00 
38600 6.5274359816e+00 -5.5656778454e-02 2.9836671166e+00 -5.1678630389e+00 2.9836671166e+00 5.1678630389e+00 
38700 6.5272908929e+00 -5.5183007921e-02 2.9845998560e+00 -5.1694785909e+00 2.9845998560e+00 5.1694785909e+00 
38800 6.5271475008e+00 -5.4713662909e-02 2.9855243661e+00 -5.1710798894e+00 2.9855243661e+00 5.1710798894e+00 
38900 6.5270057961e+00 -5.4248820343e-02 2.9864407288e+00 -5.1726670761e+00 2.9864407288e+00 5.1726670761e+00 
39000 6.5268657696e+00 -5.3788552403e-02 2.9873490269e+00 -5.1742402946e+00 2.9873490269e+00 5.1742402946e+00 
39100 6.5267274119e+00 -5.3332926529e-02 2.9882493444e+00 -5.1757996902e+00 2.9882493444e+00 5.1757996902e+00 
39200 6.5265907136e+00 -5.2882005437e-02 2.9891417663e+00 -5.1773454102e+00 2.9891417663e+00 5.1773454102e+00 
39300 6.5264556649e+00 -5.2435847135e-02 2.9900263783e+00 -5.1788776031e+00 2.9900263783e+00 5.1788776031e+00 
39400 6.5263222559e+00 -5.1994504953e-02 2.9909032670e+00 -5.1803964190e+00 2.9909032670e+00 5.1803964190e+00 
39500 6.5261904766e+00 -5.1558027578e-02 2.9917725198e+00 -5.1819020091e+00 2.9917725198e+00 5.1819020091e+00 
39600 6.5260603166e+00 -5.1126459091e-02 2.9926342248e+00 -5.1833945257e+00 2.9926342248e+00 5.1833945257e+00 
39700 6.5259317654e+00 -5.0699839013e-02 2.9934884703e+00 -5.1848741225e+00 2.9934884703e+00 5.1848741225e+00 
39800 6.5258048121e+00 -5.0278202360e-02 2.9943353456e+00 -5.1863409535e+00 2.9943353456e+00 5.1863409535e+00 
39900 6.5256794459e+00 -4.9861579697e-02 2.9951749401e+00 -5.1877951739e+00 2.9951749401e+00 5.1877951739e+00 
40000 6.5255556553e+00 -4.9449997204e-02 2.9960073438e+00 -5.1892369392e+00 2.9960073438e+00 5.1892369392e+00 
40100 6.5254334291e+00 -4.9043476737e-02 2.9968326466e+00 -5.1906664057e+00 2.9968326466e+00 5.1906664057e+00 
40200 6.5253127553e+00 -4.8642035911e-02 2.9976509390e+00 -5.1920837297e+00 2.9976509390e+00 5.1920837297e+00 
40300 6.5251936222e+00 -4.8245688164e-02 2.9984623115e+00 -5.1934890681e+00 2.9984623115e+00 5.1934890681e+00 
40400 6.5250760174e+00 -4.7854442850e-02 2.9992668546e+00 -5.1948825776e+00 2.9992668546e+00 5.1948825776e+00 
40500 6.5249599286e+00 -4.7468305314e-02 3.0000646590e+00 -5.1962644153e+00 3.0000646590e+00 5.1962644153e+00 
40600 6.5248453432e+00 -4.7087276984e-02 3.0008558151e+00 -5.1976347379e+00 3.0008558151e+00 5.1976347379e+00 
40700 6.5247322484e+00 -4.6711355466e-02 3.0016404134e+00 -5.1989937021e+00 3.0016404134e+00 5.1989937021e+00 
40800 6.5246206311e+00 -4.6340534632e-02 3.0024185441e+00 -5.2003414640e+00 3.0024185441e+00 5.2003414640e+00 
40900 6.5245104781e+00 -4.5974804721e-02 3.0031902973e+00 -5.2016781797e+00 3.0031902973e+00 5.2016781797e+00 
41000 6.5244017759e+00 -4.5614152440e-02 3.0039557626e+00 -5.2030040044e+00 3.0039557626e+00 5.2030040044e+00 
41100 6.5242945112e+00 -4.5258561064e-02 3.0047150293e+00 -5.2043190930e+00 3.0047150293e+00 5.2043190930e+00 
41200 6.5241886700e+00 -4.4908010541e-02 3.0054681864e+00 -5.2056235994e+00 3.0054681864e+00 5.2056235994e+00 
41300 6.5240842385e+00 -4.4562477597e-02 3.0062153224e+00 -5.2069176770e+00 3.0062153224e+00 5.2069176770e+00 
41400 6.5239812027e+00 -4.4221935844e-02 3.0069565253e+00 -5.2082014780e+00 3.0069565253e+00 5.2082014780e+00 
41500 6.5238795485e+00 -4.3886355891e-02 3.0076918824e+00 -5.2094751539e+00 3.0076918824e+00 5.2094751539e+00 
41600 6.5237792616e+00 -4.3555705448e-02 3.0084214806e+00 -5.2107388550e+00 3.0084214806e+00 5.2107388550e+00 
41700 6.5236803277e+00 -4.3229949444e-02 3.0091454059e+00 -5.2119927305e+00 3.0091454059e+00 5.2119927305e+00 
41800 6.5235827322e+00 -4.2909050132e-02 3.0098637439e+00 -5.2132369284e+00 3.0098637439e+00 5.2132369284e+00 
41900 6.5234864608e+00 -4.2592967201e-02 3.0105765792e+00 -5.2144715953e+00 3.0105765792e+00 5.2144715953e+00 
42000 6.5233914987e+00 -4.2281657894e-02 3.0112839958e+00 -5.2156968768e+00 3.0112839958e+00 5.2156968768e+00 
42100 6.5232978314e+00 -4.1975077111e-02 3.0119860767e+00 -5.2169129166e+00 3.0119860767e+00 5.2169129166e+00 
42200 6.5232054441e+00 -4.1673177526e-02 3.0126829042e+00 -5.2181198572e+00 3.0126829042e+00 5.2181198572e+00 
42300 6.5231143221e+00 -4.1375909696e-02 3.0133745597e+00 -5.2193178396e+00 3.0133745597e+00 5.2193178396e+00 
42400 6.5230244507e+00 -4.1083222174e-02 3.0140611235e+00 -5.2205070031e+00 3.0140611235e+00 5.2205070031e+00 
42500 6.5229358152e+00 -4.0795061615e-02 3.0147426753e+00 -5.2216874853e+00 3.0147426753e+00 5.2216874853e+00 
42600 6.5228484006e+00 -4.0511372887e-02 3.0154192933e+00 -5.2228594221e+00 3.0154192933e+00 5.2228594221e+00 
42700 6.5227621924e+00 -4.0232099180e-02 3.0160910552e+00 -5.2240229479e+00 3.0160910552e+00 5.2240229479e+00 
42800 6.5226771757e+00 -3.9957182109e-02 3.0167580374e+00 -5.2251781950e+00 3.0167580374e+00 5.2251781950e+00 
42900 6.5225933359e+00 -3.9686561824e-02 3.0174203153e+00 -5.2263252940e+00 3.0174203153e+00 5.2263252940e+00 
43000 6.5225106581e+00 -3.9420177111e-02 3.0180779633e+00 -5.2274643736e+00 3.0180779633e+00 5.2274643736e+00 
43100 6.5224291279e+00 -3.9157965494e-02 3.0187310544e+00 -5.2285955606e+00 3.0187310544e+00 5.2285955606e+00 
43200 6.5223487304e+00 -3.8899863339e-02 3.0193796608e+00 -5.2297189798e+00 3.0193796608e+00 5.2297189798e+00 
43300 6.5222694513e+00 -3.8645805949e-02 3.0200238535e+00 -5.2308347543e+00 3.0200238535e+00 5.2308347543e+00 
43400 6.5221912759e+00 -3.8395727663e-02 3.0206637023e+00 -5.2319430049e+00 3.0206637023e+00 5.2319430049e+00 
43500 6.5221141899e+00 -3.8149561952e-02 3.0212992757e+00 -5.2330438504e+00 3.0212992757e+00 5.2330438504e+00 
43600 6.5220381788e+00 -3.7907241511e-02 3.0219306413e+00 -5.2341374078e+00 3.0219306413e+00 5.2341374078e+00 
43700 6.5219632283e+00 -3.7668698349e-02 3.0225578654e+00 -5.2352237917e+00 3.0225578654e+00 5.2352237917e+00 
43800 6.5218893242e+00 -3.7433863882e-02 3.0231810130e+00 -5.2363031150e+00 3.0231810130e+00 5.2363031150e+00 
43900 6.5218164524e+00 -3.7202669013e-02 3.0238001480e+00 -5.2373754882e+00 3.0238001480e+00 5.2373754882e+00 
44000 6.5217445987e+00 -3.6975044223e-02 3.0244153330e+00 -5.2384410199e+00 3.0244153330e+00 5.2384410199e+00 
44100 6.5216737491e+00 -3.6750919649e-02 3.0250266294e+00 -5.2394998165e+00 3.0250266294e+00 5.2394998165e+00 
44200 6.5216038897e+00 -3.6530225165e-02 3.0256340976e+00 -5.2405519822e+00 3.0256340976e+00 5.2405519822e+00 
44300 6.5215350067e+00 -3.6312890459e-02 3.0262377965e+00 -5.2415976194e+00 3.0262377965e+00 5.2415976194e+00 
44400 6.5214670864e+00 -3.6098845109e-02 3.0268377839e+00 -5.2426368280e+00 3.0268377839e+00 5.2426368280e+00 
44500 6.5214001150e+00 -3.5888018653e-02 3.0274341164e+00 -5.2436697061e+00 3.0274341164e+00 5.2436697061e+00 
44600 6.5213340792e+00 -3.5680340661e-02 3.0280268491e+00 -5.2446963494e+00 3.0280268491e+00 5.2446963494e+00 
44700 6.5212689653e+00 -3.5475740803e-02 3.0286160364e+00 -5.2457168517e+00 3.0286160364e+00 5.2457168517e+00 
44800 6.5212047601e+00 -3.5274148912e-02 3.0292017311e+00 -5.2467313046e+00 3.0292017311e+00 5.2467313046e+00 
44900 6.5211414502e+00 -3.5075495046e-02 3.0297839848e+00 -5.2477397976e+00 3.0297839848e+00 5.2477397976e+00 
45000 6.5210790225e+00 -3.4879709552e-02 3.0303628480e+00 -5.2487424181e+00 3.0303628480e+00 5.2487424181e+00 
45100 6.5210174639e+00 -3.4686723119e-02 3.0309383701e+00 -5.2497392516e+00 3.0309383701e+00 5.2497392516e+00 
45200 6.5209567614e+00 -3.4496466837e-02 3.0315105990e+00 -5.2507303812e+00 3.0315105990e+00 5.2507303812e+00 
45300 6.5208969022e+00 -3.4308872248e-02 3.0320795818e+00 -5.2517158883e+00 3.0320795818e+00 5.2517158883e+00 
45400 6.5208378734e+00 -3.4123871393e-02 3.0326453641e+00 -5.2526958520e+00 3.0326453641e+00 5.2526958520e+00 
45500 6.5207796625e+00 -3.3941396868e-02 3.0332079905e+00 -5.2536703494e+00 3.0332079905e+00 5.2536703494e+00 
45600 6.5207222567e+00 -3.3761381861e-02 3.0337675044e+00 -5.2546394559e+00 3.0337675044e+00 5.2546394559e+00 
45700 6.5206656436e+00 -3.3583760200e-02 3.0343239480e+00 -5.2556032446e+00 3.0343239480e+00 5.2556032446e+00 
45800 6.5206098109e+00 -3.3408466392e-02 3.0348773626e+00 -5.2565617867e+00 3.0348773626e+00 5.2565617867e+00 
45900 6.5205547463e+00 -3.3235435664e-02 3.0354277881e+00 -5.2575151516e+00 3.0354277881e+00 5.2575151516e+00 
46000 6.5205004375e+00 -3.3064603996e-02 3.0359752634e+00 -5.2584634067e+00 3.0359752634e+00 5.2584634067e+00 
46100 6.5204468724e+00 -3.2895908157e-02 3.0365198263e+00 -5.2594066173e+00 3.0365198263e+00 5.2594066173e+00 
46200 6.5203940392e+00 -3.2729285738e-02 3.0370615136e+00 -5.2603448473e+00 3.0370615136e+00 5.2603448473e+00 
46300 6.5203419260e+00 -3.2564675178e-02 3.0376003610e+00 -5.2612781584e+00 3.0376003610e+00 5.2612781584e+00 
46400 6.5202905209e+00 -3.2402015799e-02 3.0381364031e+00 -5.2622066105e+00 3.0381364031e+00 5.2622066105e+00 
46500 6.5202398123e+00 -3.2241247824e-02 3.0386696735e+00 -5.2631302619e+00 3.0386696735e+00 5.2631302619e+00 
46600 6.5201897887e+00 -3.2082312406e-02 3.0392002048e+00 -5.2640491690e+00 3.0392002048e+00 5.2640491690e+00 
46700 6.5201404385e+00 -3.1925151646e-02 3.0397280285e+00 -5.2649633866e+00 3.0397280285e+00 5.2649633866e+00 
46800 6.5200917505e+00 -3.1769708619e-02 3.0402531753e+00 -5.2658729676e+00 3.0402531753e+00 5.2658729676e+00 
46900 6.5200437134e+00 -3.1615927386e-02 3.0407756749e+00 -5.2667779633e+00 3.0407756749e+00 5.2667779633e+00 
47000 6.5199963161e+00 -3.1463753015e-02 3.0412955559e+00 -5.2676784236e+00 3.0412955559e+00 5.2676784236e+00 
47100 6.5199495475e+00 -3.1313131592e-02 3.0418128460e+00 -5.2685743964e+00 3.0418128460e+00 5.2685743964e+00 
47200 6.5199033969e+00 -3.1164010239e-02 3.0423275722e+00 -5.2694659283e+00 3.0423275722e+00 5.2694659283e+00 
47300 6.5198578533e+00 -3.1016337122e-02 3.0428397604e+00 -5.2703530643e+00 3.0428397604e+00 5.2703530643e+00 
47400 6.5198129062e+00 -3.0870061460e-02 3.0433494356e+00 -5.2712358477e+00 3.0433494356e+00 5.2712358477e+00 
47500 6.5197685449e+00 -3.0725133539e-02 3.0438566222e+00 -5.2721143206e+00 3.0438566222e+00 5.2721143206e+00 
47600 6.5197247591e+00 -3.0581504713e-02 3.0443613434e+00 -5.2729885235e+00 3.0443613434e+00 5.2729885235e+00 
47700 6.5196815385e+00 -3.0439127412e-02 3.0448636220e+00 -5.2738584953e+00 3.0448636220e+00 5.2738584953e+00 
47800 6.5196388728e+00 -3.0297955151e-02 3.0453634795e+00 -5.2747242740e+00 3.0453634795e+00 5.2747242740e+00 
47900 6.5195967520e+00 -3.0157942524e-02 3.0458609370e+00 -5.2755858957e+00 3.0458609370e+00 5.2755858957e+00 
48000 6.5195551662e+00 -3.0019045213e-02 3.0463560148e+00 -5.2764433955e+00 3.0463560148e+00 5.2764433955e+00 
48100 6.5195141056e+00 -2.9881219989e-02 3.0468487322e+00 -5.2772968071e+00 3.0468487322e+00 5.2772968071e+00 
48200 6.5194735605e+00 -2.9744424705e-02 3.0473391081e+00 -5.2781461630e+00 3.0473391081e+00 5.2781461630e+00 
48300 6.5194335213e+00 -2.9608618303e-02 3.0478271604e+00 -5.2789914945e+00 3.0478271604e+00 5.2789914945e+00 
48400 6.5193939788e+00 -2.9473760806e-02 3.0483129065e+00 -5.2798328314e+00 3.0483129065e+00 5.2798328314e+00 
48500 6.5193549235e+00 -2.9339813316e-02 3.0487963631e+00 -5.2806702028e+00 3.0487963631e+00 5.2806702028e+00 
48600 6.5193163464e+00 -2.9206738009e-02 3.0492775462e+00 -5.2815036364e+00 3.0492775462e+00 5.2815036364e+00 
48700 6.5192782386e+00 -2.9074498134e-02 3.0497564711e+00 -5.2823331587e+00 3.0497564711e+00 5.2823331587e+00 
48800 6.5192405910e+00 -2.8943058001e-02 3.0502331527e+00 -5.2831587955e+00 3.0502331527e+00 5.2831587955e+00 
48900 6.5192033952e+00 -2.8812382978e-02 3.0507076051e+00 -5.2839805711e+00 3.0507076051e+00 5.2839805711e+00 
49000 6.5191666424e+00 -2.8682439483e-02 3.0511798419e+00 -5.2847985092e+00 3.0511798419e+00 5.2847985092e+00 
49100 6.5191303242e+00 -2.8553194976e-02 3.0516498761e+00 -5.2856126323e+00 3.0516498761e+00 5.2856126323e+00 
49200 6.5190944325e+00 -2.8424617947e-02 3.0521177201e+00 -5.2864229619e+00 3.0521177201e+00 5.2864229619e+00 
49300 6.5190589590e+00 -2.8296677912e-02 3.0525833860e+00 -5.2872295188e+00 3.0525833860e+00 5.2872295188e+00 
49400 6.5190238959e+00 -2.8169345399e-02 3.0530468851e+00 -5.2880323229e+00 3.0530468851e+00 5.2880323229e+00 
49500 6.5189892352e+00 -2.8042591941e-02 3.0535082284e+00 -5.2888313929e+00 3.0535082284e+00 5.2888313929e+00 
49600 6.5189549693e+00 -2.7916390060e-02 3.0539674263e+00 -5.2896267471e+00 3.0539674263e+00 5.2896267471e+00 
49700 6.5189210907e+00 -2.7790713259e-02 3.0544244890e+00 -5.2904184027e+00 3.0544244890e+00 5.2904184027e+00 
49800 6.5188875921e+00 -2.7665536011e-02 3.0548794258e+00 -5.2912063764e+00 3.0548794258e+00 5.2912063764e+00 
49900 6.5188544661e+00 -2.7540833745e-02 3.0553322459e+00 -5.2919906839e+00 3.0553322459e+00 5.2919906839e+00 
50000 6.5188217057e+00 -2.7416582833e-02 3.0557829581e+00 -5.2927713404e+00 3.0557829581e+00 5.2927713404e+00 
50100 6.5187893040e+00 -2.7292760578e-02 3.0562315707e+00 -5.2935483602e+00 3.0562315707e+00 5.2935483602e+00 
50200 6.5187572542e+00 -2.7169345201e-02 3.0566780916e+00 -5.2943217570e+00 3.0566780916e+00 5.2943217570e+00 
50300 6.5187255497e+00 -2.7046315828e-02 3.0571225284e+00 -5.2950915441e+00 3.0571225284e+00 5.2950915441e+00 
50400 6.5186941841e+00 -2.6923652474e-02 3.0575648883e+00 -5.2958577339e+00 3.0575648883e+00 5.2958577339e+00 
50500 6.5186631509e+00 -2.6801336032e-02 3.0580051782e+00 -5.2966203384e+00 3.0580051782e+00 5.2966203384e+00 
50600 6.5186324441e+00 -2.6679348257e-02 3.0584434046e+00 -5.2973793689e+00 3.0584434046e+00 5.2973793689e+00 
50700 6.5186020576e+00 -2.6557671752e-02 3.0588795739e+00 -5.2981348363e+00 3.0588795739e+00 5.2981348363e+00 
50800 6.5185719855e+00 -2.6436289955e-02 3.0593136920e+00 -5.2988867509e+00 3.0593136920e+00 5.2988867509e+00 
50900 6.5185422221e+00 -2.6315187122e-02 3.0597457646e+00 -5.2996351226e+00 3.0597457646e+00 5.2996351226e+00 
51000 6.5185127619e+00 -2.6194348317e-02 3.0601757972e+00 -5.3003799608e+00 3.0601757972e+00 5.3003799608e+00 
51100 6.5184835992e+00 -2.6073759390e-02 3.0606037948e+00 -5.3011212744e+00 3.0606037948e+00 5.3011212744e+00 
51200 6.5184547289e+00 -2.5953406969e-02 3.0610297624e+00 -5.3018590720e+00 3.0610297624e+00 5.3018590720e+00 
51300 6.5184261458e+00 -2.5833278442e-02 3.0614537048e+00 -5.3025933618e+00 3.0614537048e+00 5.3025933618e+00 
51400 6.5183978448e+00 -2.5713361944e-02 3.0618756265e+00 -5.3033241515e+00 3.0618756265e+00 5.3033241515e+00 
51500 6.5183698211e+00 -2.5593646340e-02 3.0622955317e+00 -5.3040514486e+00 3.0622955317e+00 5.3040514486e+00 
51600 6.5183420698e+00 -2.5474121210e-02 3.0627134245e+00 -5.3047752603e+00 3.0627134245e+00 5.3047752603e+00 
51700 6.5183145864e+00 -2.5354776837e-02 3.0631293090e+00 -5.3054955933e+00 3.0631293090e+00 5.3054955933e+00 
51800 6.5182873663e+00 -2.5235604190e-02 3.0635431888e+00 -5.3062124541e+00 3.0635431888e+00 5.3062124541e+00 
51900 6.5182604052e+00 -2.5116594911e-02 3.0639550676e+00 -5.3069258491e+00 3.0639550676e+00 5.3069258491e+00 
52000 6.5182336987e+00 -2.4997741297e-02 3.0643649488e+00 -5.3076357843e+00 3.0643649488e+00 5.3076357843e+00 
52100 6.5182072428e+00 -2.4879036288e-02 3.0647728359e+00 -5.3083422654e+00 3.0647728359e+00 5.3083422654e+00 
52200 6.5181810334e+00 -2.4760473452e-02 3.0651787319e+00 -5.3090452980e+00 3.0651787319e+00 5.3090452980e+00 
52300 6.5181550666e+00 -2.4642046970e-02 3.0655826402e+00 -5.3097448876e+00 3.0655826402e+00 5.3097448876e+00 
52400 6.5181293387e+00 -2.4523751623e-02 3.0659845635e+00 -5.3104410392e+00 3.0659845635e+00 5.3104410392e+00 
52500 6.5181038459e+00 -2.4405582773e-02 3.0663845049e+00 -5.3111337581e+00 3.0663845049e+00 5.3111337581e+00 
52600 6.5180785846e+00 -2.4287536355e-02 3.0667824673e+00 -5.3118230491e+00 3.0667824673e+00 5.3118230491e+00 
52700 6.5180535514e+00 -2.4169608858e-02 3.0671784533e+00 -5.3125089170e+00 3.0671784533e+00 5.3125089170e+00 
52800 6.5180287429e+00 -2.4051797313e-02 3.0675724657e+00 -5.3131913664e+00 3.0675724657e+00 5.3131913664e+00 
52900 6.5180041559e+00 -2.3934099278e-02 3.0679645071e+00 -5.3138704021e+00 3.0679645071e+00 5.3138704021e+00 
53000 6.5179797871e+00 -2.3816512826e-02 3.0683545802e+00 -5.3145460285e+00 3.0683545802e+00 5.3145460285e+00 
53100 6.5179556335e+00 -2.3699036529e-02 3.0687426874e+00 -5.3152182500e+00 3.0687426874e+00 5.3152182500e+00 
53200 6.5179316920e+00 -2.3581669443e-02 3.0691288315e+00 -5.3158870711e+00 3.0691288315e+00 5.3158870711e+00 
53300 6.5179079597e+00 -2.3464411099e-02 3.0695130148e+00 -5.3165524961e+00 3.0695130148e+00 5.3165524961e+00 
53400 6.5178844339e+00 -2.3347261485e-02 3.0698952399e+00 -5.3172145294e+00 3.0698952399e+00 5.3172145294e+00 
53500 6.5178611117e+00 -2.3230221035e-02 3.0702755093e+00 -5.3178731753e+00 3.0702755093e+00 5.3178731753e+00 
53600 6.5178379905e+00 -2.3113290616e-02 3.0706538254e+00 -5.3185284381e+00 3.0706538254e+00 5.3185284381e+00 
53700 6.5178150676e+00 -2.2996471513e-02 3.0710301909e+00 -5.3191803223e+00 3.0710301909e+00 5.3191803223e+00 
53800 6.5177923406e+00 -2.2879765416e-02 3.0714046083e+00 -5.3198288321e+00 3.0714046083e+00 5.3198288321e+00 
53900 6.5177698070e+00 -2.2763174408e-02 3.0717770800e+00 -5.3204739721e+00 3.0717770800e+00 5.3204739721e+00 
54000 6.5177474643e+00 -2.2646700955e-02 3.0721476087e+00 -5.3211157466e+00 3.0721476087e+00 5.3211157466e+00 
54100 6.5177253104e+00 -2.2530347886e-02 3.0725161970e+00 -5.3217541603e+00 3.0725161970e+00 5.3217541603e+00 
54200 6.5177033428e+00 -2.2414118387e-02 3.0728828476e+00 -5.3223892177e+00 3.0728828476e+00 5.3223892177e+00 
54300 6.5176815593e+00 -2.2298015987e-02 3.0732475631e+00 -5.3230209235e+00 3.0732475631e+00 5.3230209235e+00 
54400 6.5176599579e+00 -2.2182044543e-02 3.0736103463e+00 -5.3236492825e+00 3.0736103463e+00 5.3236492825e+00 
54500 6.5176385364e+00 -2.2066208229e-02 3.0739712001e+00 -5.3242742996e+00 3.0739712001e+00 5.3242742996e+00 
54600 6.5176172928e+00 -2.1950511528e-02 3.0743301273e+00 -5.3248959798e+00 3.0743301273e+00 5.3248959798e+00 
54700 6.5175962250e+00 -2.1834959211e-02 3.0746871309e+00 -5.3255143281e+00 3.0746871309e+00 5.3255143281e+00 
54800 6.5175753311e+00 -2.1719556336e-02 3.0750422138e+00 -5.3261293498e+00 3.0750422138e+00 5.3261293498e+00 
54900 6.5175546092e+00 -2.1604308227e-02 3.0753953793e+00 -5.3267410503e+00 3.0753953793e+00 5.3267410503e+00 
55000 6.5175340573e+00 -2.1489220466e-02 3.0757466304e+00 -5.3273494350e+00 3.0757466304e+00 5.3273494350e+00 
55100 6.5175136738e+00 -2.1374298882e-02 3.0760959704e+00 -5.3279545096e+00 3.0760959704e+00 5.3279545096e+00 
55200 6.5174934568e+00 -2.1259549540e-02 3.0764434027e+00 -5.3285562800e+00 3.0764434027e+00 5.3285562800e+00 
55300 6.5174734045e+00 -2.1144978727e-02 3.0767889307e+00 -5.3291547521e+00 3.0767889307e+00 5.3291547521e+00 
55400 6.5174535152e+00 -2.1030592942e-02 3.0771325579e+00 -5.3297499320e+00 3.0771325579e+00 5.3297499320e+00 
55500 6.5174337872e+00 -2.0916398886e-02 3.0774742881e+00 -5.3303418261e+00 3.0774742881e+00 5.3303418261e+00 
55600 6.5174142189e+00 -2.0802403450e-02 3.0778141250e+00 -5.3309304408e+00 3.0778141250e+00 5.3309304408e+00 
55700 6.5173948087e+00 -2.0688613702e-02 3.0781520724e+00 -5.3315157828e+00 3.0781520724e+00 5.3315157828e+00 
55800 6.5173755549e+00 -2.0575036881e-02 3.0784881342e+00 -5.3320978590e+00 3.0784881342e+00 5.3320978590e+00 
55900 6.5173564560e+00 -2.0461680382e-02 3.0788223147e+00 -5.3326766765e+00 3.0788223147e+00 5.3326766765e+00 
56000 6.5173375104e+00 -2.0348551748e-02 3.0791546178e+00 -5.3332522424e+00 3.0791546178e+00 5.3332522424e+00 
56100 6.5173187167e+00 -2.0235658657e-02 3.0794850481e+00 -5.3338245644e+00 3.0794850481e+00 5.3338245644e+00 
56200 6.5173000733e+00 -2.0123008916e-02 3.0798136098e+00 -5.3343936500e+00 3.0798136098e+00 5.3343936500e+00 
56300 6.5172815787e+00 -2.0010610444e-02 3.0801403076e+00 -5.3349595071e+00 3.0801403076e+00 5.3349595071e+00 
56400 6.5172632316e+00 -1.9898471268e-02 3.0804651460e+00 -5.3355221439e+00 3.0804651460e+00 5.3355221439e+00 
56500 6.5172450305e+00 -1.9786599512e-02 3.0807881300e+00 -5.3360815686e+00 3.0807881300e+00 5.3360815686e+00 
56600 6.5172269740e+00 -1.9675003383e-02 3.0811092645e+00 -5.3366377897e+00 3.0811092645e+00 5.3366377897e+00 
56700 6.5172090606e+00 -1.9563691166e-02 3.0814285544e+00 -5.3371908161e+00 3.0814285544e+00 5.3371908161e+00 
56800 6.5171912891e+00 -1.9452671213e-02 3.0817460050e+00 -5.3377406567e+00 3.0817460050e+00 5.3377406567e+00 
56900 6.5171736581e+00 -1.9341951931e-02 3.0820616216e+00 -5.3382873207e+00 3.0820616216e+00 5.3382873207e+00 
57000 6.5171561662e+00 -1.9231541777e-02 3.0823754096e+00 -5.3388308174e+00 3.0823754096e+00 5.3388308174e+00 
57100 6.5171388122e+00 -1.9121449243e-02 3.0826873746e+00 -5.3393711567e+00 3.0826873746e+00 5.3393711567e+00 
57200 6.5171215947e+00 -1.9011682853e-02 3.0829975224e+00 -5.3399083483e+00 3.0829975224e+00 5.3399083483e+00 
57300 6.5171045125e+00 -1.8902251150e-02 3.0833058586e+00 -5.3404424024e+00 3.0833058586e+00 5.3404424024e+00 
57400 6.5170875642e+00 -1.8793162689e-02 3.0836123894e+00 -5.3409733294e+00 3.0836123894e+00 5.3409733294e+00 
57500 6.5170707487e+00 -1.8684426027e-02 3.0839171209e+00 -5.3415011397e+00 3.0839171209e+00 5.3415011397e+00 
57600 6.5170540647e+00 -1.8576049714e-02 3.0842200592e+00 -5.3420258442e+00 3.0842200592e+00 5.3420258442e+00 
57700 6.5170375110e+00 -1.8468042287e-02 3.0845212107e+00 -5.3425474539e+00 3.0845212107e+00 5.3425474539e+00 
57800 6.5170210864e+00 -1.8360412259e-02 3.0848205820e+00 -5.3430659802e+00 3.0848205820e+00 5.3430659802e+00 
57900 6.5170047897e+00 -1.8253168113e-02 3.0851181796e+00 -5.3435814345e+00 3.0851181796e+00 5.3435814345e+00 
58000 6.5169886197e+00 -1.8146318291e-02 3.0854140104e+00 -5.3440938284e+00 3.0854140104e+00 5.3440938284e+00 
58100 6.5169725752e+00 -1.8039871191e-02 3.0857080813e+00 -5.3446031741e+00 3.0857080813e+00 5.3446031741e+00 
58200 6.5169566552e+00 -1.7933835154e-02 3.0860003992e+00 -5.3451094836e+00 3.0860003992e+00 5.3451094836e+00 
58300 6.5169408584e+00 -1.7828218458e-02 3.0862909714e+00 -5.3456127694e+00 3.0862909714e+00 5.3456127694e+00 
58400 6.5169251837e+00 -1.7723029315e-02 3.0865798051e+00 -5.3461130440e+00 3.0865798051e+00 5.3461130440e+00 
58500 6.5169096301e+00 -1.7618275855e-02 3.0868669077e+00 -5.3466103204e+00 3.0868669077e+00 5.3466103204e+00 
58600 6.5168941964e+00 -1.7513966128e-02 3.0871522868e+00 -5.3471046115e+00 3.0871522868e+00 5.3471046115e+00 
58700 6.5168788816e+00 -1.7410108090e-02 3.0874359501e+00 -5.3475959307e+00 3.0874359501e+00 5.3475959307e+00 
58800 6.5168636846e+00 -1.7306709603e-02 3.0877179053e+00 -5.3480842914e+00 3.0877179053e+00 5.3480842914e+00 
58900 6.5168486043e+00 -1.7203778421e-02 3.0879981604e+00 -5.3485697074e+00 3.0879981604e+00 5.3485697074e+00 
59000 6.5168336397e+00 -1.7101322188e-02 3.0882767233e+00 -5.3490521926e+00 3.0882767233e+00 5.3490521926e+00 
59100 6.5168187897e+00 -1.6999348431e-02 3.0885536023e+00 -5.3495317611e+00 3.0885536023e+00 5.3495317611e+00 
59200 6.5168040535e+00 -1.6897864556e-02 3.0888288056e+00 -5.3500084271e+00 3.0888288056e+00 5.3500084271e+00 
59300 6.5167894298e+00 -1.6796877837e-02 3.0891023415e+00 -5.3504822053e+00 3.0891023415e+00 5.3504822053e+00 
59400 6.5167749178e+00 -1.6696395415e-02 3.0893742186e+00 -5.3509531102e+00 3.0893742186e+00 5.3509531102e+00 
59500 6.5167605165e+00 -1.6596424289e-02 3.0896444455e+00 -5.3514211569e+00 3.0896444455e+00 5.3514211569e+00 
59600 6.5167462250e+00 -1.6496971314e-02 3.0899130308e+00 -5.3518863604e+00 3.0899130308e+00 5.3518863604e+00 
59700 6.5167320422e+00 -1.6398043195e-02 3.0901799835e+00 -5.3523487359e+00 3.0901799835e+00 5.3523487359e+00 
59800 6.5167179672e+00 -1.6299646477e-02 3.0904453123e+00 -5.3528082989e+00 3.0904453123e+00 5.3528082989e+00 
59900 6.5167039991e+00 -1.6201787550e-02 3.0907090264e+00 -5.3532650651e+00 3.0907090264e+00 5.3532650651e+00 
60000 6.5166901371e+00 -1.6104472634e-02 3.0909711348e+00 -5.3537190502e+00 3.0909711348e+00 5.3537190502e+00 
60100 6.5166763801e+00 -1.6007707783e-02 3.0912316468e+00 -5.3541702701e+00 3.0912316468e+00 5.3541702701e+00 
60200 6.5166627274e+00 -1.5911498875e-02 3.0914905716e+00 -5.3546187411e+00 3.0914905716e+00 5.3546187411e+00 
60300 6.5166491780e+00 -1.5815851610e-02 3.0917479186e+00 -5.3550644792e+00 3.0917479186e+00 5.3550644792e+00 
60400 6.5166357311e+00 -1.5720771509e-02 3.0920036974e+00 -5.3555075011e+00 3.0920036974e+00 5.3555075011e+00 
60500 6.5166223859e+00 -1.5626263906e-02 3.0922579174e+00 -5.3559478231e+00 3.0922579174e+00 5.3559478231e+00 
60600 6.5166091414e+00 -1.5532333945e-02 3.0925105884e+00 -5.3563854621e+00 3.0925105884e+00 5.3563854621e+00 
60700 6.5165959970e+00 -1.5438986580e-02 3.0927617200e+00 -5.3568204348e+00 3.0927617200e+00 5.3568204348e+00 
60800 6.5165829517e+00 -1.5346226571e-02 3.0930113221e+00 -5.3572527583e+00 3.0930113221e+00 5.3572527583e+00 
60900 6.5165700048e+00 -1.5254058478e-02 3.0932594045e+00 -5.3576824495e+00 3.0932594045e+00 5.3576824495e+00 
61000 6.5165571555e+00 -1.5162486662e-02 3.0935059771e+00 -5.3581095258e+00 3.0935059771e+00 5.3581095258e+00 
61100 6.5165444029e+00 -1.5071515280e-02 3.0937510499e+00 -5.3585340045e+00 3.0937510499e+00 5.3585340045e+00 
61200 6.5165317465e+00 -1.4981148287e-02 3.0939946331e+00 -5.3589559029e+00 3.0939946331e+00 5.3589559029e+00 
61300 6.5165191854e+00 -1.4891389429e-02 3.0942367367e+00 -5.3593752386e+00 3.0942367367e+00 5.3593752386e+00 
61400 6.5165067188e+00 -1.4802242242e-02 3.0944773709e+00 -5.3597920292e+00 3.0944773709e+00 5.3597920292e+00 
61500 6.5164943460e+00 -1.4713710053e-02 3.0947165459e+00 -5.3602062925e+00 3.0947165459e+00 5.3602062925e+00 
61600 6.5164820664e+00 -1.4625795979e-02 3.0949542720e+00 -5.3606180462e+00 3.0949542720e+00 5.3606180462e+00 
61700 6.5164698792e+00 -1.4538502921e-02 3.0951905595e+00 -5.3610273082e+00 3.0951905595e+00 5.3610273082e+00 
61800 6.5164577837e+00 -1.4451833568e-02 3.0954254188e+00 -5.3614340965e+00 3.0954254188e+00 5.3614340965e+00 
61900 6.5164457792e+00 -1.4365790392e-02 3.0956588603e+00 -5.3618384290e+00 3.0956588603e+00 5.3618384290e+00 
62000 6.5164338651e+00 -1.4280375651e-02 3.0958908945e+00 -5.3622403239e+00 3.0958908945e+00 5.3622403239e+00 
62100 6.5164220407e+00 -1.4195591388e-02 3.0961215317e+00 -5.3626397993e+00 3.0961215317e+00 5.3626397993e+00 
62200 6.5164103053e+00 -1.4111439428e-02 3.0963507825e+00 -5.3630368733e+00 3.0963507825e+00 5.3630368733e+00 
62300 6.5163986583e+00 -1.4027921380e-02 3.0965786574e+00 -5.3634315642e+00 3.0965786574e+00 5.3634315642e+00 
62400 6.5163870990e+00 -1.3945038637e-02 3.0968051669e+00 -5.3638238902e+00 3.0968051669e+00 5.3638238902e+00 
62500 6.5163756268e+00 -1.3862792378e-02 3.0970303217e+00 -5.3642138697e+00 3.0970303217e+00 5.3642138697e+00 
62600 6.5163642412e+00 -1.3781183563e-02 3.0972541322e+00 -5.3646015209e+00 3.0972541322e+00 5.3646015209e+00 
62700 6.5163529414e+00 -1.3700212941e-02 3.0974766091e+00 -5.3649868621e+00 3.0974766091e+00 5.3649868621e+00 
62800 6.5163417269e+00 -1.3619881044e-02 3.0976977629e+00 -5.3653699118e+00 3.0976977629e+00 5.3653699118e+00 
62900 6.5163305971e+00 -1.3540188193e-02 3.0979176042e+00 -5.3657506882e+00 3.0979176042e+00 5.3657506882e+00 
63000 6.5163195514e+00 -1.3461134497e-02 3.0981361437e+00 -5.3661292097e+00 3.0981361437e+00 5.3661292097e+00 
63100 6.5163085892e+00 -1.3382719855e-02 3.0983533920e+00 -5.3665054947e+00 3.0983533920e+00 5.3665054947e+00 
63200 6.5162977100e+00 -1.3304943957e-02 3.0985693595e+00 -5.3668795615e+00 3.0985693595e+00 5.3668795615e+00 
63300 6.5162869131e+00 -1.3227806285e-02 3.0987840569e+00 -5.3672514283e+00 3.0987840569e+00 5.3672514283e+00 
63400 6.5162761981e+00 -1.3151306117e-02 3.0989974948e+00 -5.3676211136e+00 3.0989974948e+00 5.3676211136e+00 
63500 6.5162655643e+00 -1.3075442527e-02 3.0992096837e+00 -5.3679886355e+00 3.0992096837e+00 5.3679886355e+00 
63600 6.5162550112e+00 -1.3000214388e-02 3.0994206341e+00 -5.3683540123e+00 3.0994206341e+00 5.3683540123e+00 
63700 6.5162445384e+00 -1.2925620375e-02 3.0996303566e+00 -5.3687172622e+00 3.0996303566e+00 5.3687172622e+00 
63800 6.5162341451e+00 -1.2851658966e-02 3.0998388615e+00 -5.3690784034e+00 3.0998388615e+00 5.3690784034e+00 
63900 6.5162238310e+00 -1.2778328444e-02 3.1000461594e+00 -5.3694374539e+00 3.1000461594e+00 5.3694374539e+00 
64000 6.5162135955e+00 -1.2705626903e-02 3.1002522607e+00 -5.3697944318e+00 3.1002522607e+00 5.3697944318e+00 
64100 6.5162034381e+00 -1.2633552248e-02 3.1004571757e+00 -5.3701493551e+00 3.1004571757e+00 5.3701493551e+00 
64200 6.5161933582e+00 -1.2562102197e-02 3.1006609149e+00 -5.3705022416e+00 3.1006609149e+00 5.3705022416e+00 
64300 6.5161833554e+00 -1.2491274289e-02 3.1008634885e+00 -5.3708531094e+00 3.1008634885e+00 5.3708531094e+00 
64400 6.5161734292e+00 -1.2421065882e-02 3.1010649067e+00 -5.3712019760e+00 3.1010649067e+00 5.3712019760e+00 
64500 6.5161635790e+00 -1.2351474158e-02 3.1012651798e+00 -5.3715488592e+00 3.1012651798e+00 5.3715488592e+00 
64600 6.5161538044e+00 -1.2282496127e-02 3.1014643180e+00 -5.3718937767e+00 3.1014643180e+00 5.3718937767e+00 
64700 6.5161441049e+00 -1.2214128633e-02 3.1016623314e+00 -5.3722367459e+00 3.1016623314e+00 5.3722367459e+00 
64800 6.5161344799e+00 -1.2146368351e-02 3.1018592300e+00 -5.3725777842e+00 3.1018592300e+00 5.3725777842e+00 
64900 6.5161249290e+00 -1.2079211797e-02 3.1020550238e+00 -5.3729169090e+00 3.1020550238e+00 5.3729169090e+00 
65000 6.5161154518e+00 -1.2012655329e-02 3.1022497227e+00 -5.3732541375e+00 3.1022497227e+00 5.3732541375e+00 
65100 6.5161060478e+00 -1.1946695151e-02 3.1024433367e+00 -5.3735894868e+00 3.1024433367e+00 5.3735894868e+00 
65200 6.5160967164e+00 -1.1881327319e-02 3.1026358756e+00 -5.3739229739e+00 3.1026358756e+00 5.3739229739e+00 
65300 6.5160874572e+00 -1.1816547742e-02 3.1028273491e+00 -5.3742546157e+00 3.1028273491e+00 5.3742546157e+00 
65400 6.5160782698e+00 -1.1752352189e-02 3.1030177668e+00 -5.3745844289e+00 3.1030177668e+00 5.3745844289e+00 
65500 6.5160691536e+00 -1.1688736289e-02 3.1032071385e+00 -5.3749124303e+00 3.1032071385e+00 5.3749124303e+00 
65600 6.5160601083e+00 -1.1625695542e-02 3.1033954735e+00 -5.3752386362e+00 3.1033954735e+00 5.3752386362e+00 
65700 6.5160511334e+00 -1.1563225318e-02 3.1035827815e+00 -5.3755630630e+00 3.1035827815e+00 5.3755630630e+00 
65800 6.5160422283e+00 -1.1501320861e-02 3.1037690717e+00 -5.3758857271e+00 3.1037690717e+00 5.3758857271e+00 
65900 6.5160333928e+00 -1.1439977299e-02 3.1039543534e+00 -5.3762066445e+00 3.1039543534e+00 5.3762066445e+00 
66000 6.5160246262e+00 -1.1379189642e-02 3.1041386360e+00 -5.3765258312e+00 3.1041386360e+00 5.3765258312e+00 
66100 6.5160159283e+00 -1.1318952791e-02 3.1043219284e+00 -5.3768433030e+00 3.1043219284e+00 5.3768433030e+00 
66200 6.5160072984e+00 -1.1259261539e-02 3.1045042397e+00 -5.3771590756e+00 3.1045042397e+00 5.3771590756e+00 
66300 6.5159987363e+00 -1.1200110580e-02 3.1046855790e+00 -5.3774731644e+00 3.1046855790e+00 5.3774731644e+00 
66400 6.5159902414e+00 -1.1141494509e-02 3.1048659551e+00 -5.3777855849e+00 3.1048659551e+00 5.3777855849e+00 
66500 6.5159818133e+00 -1.1083407830e-02 3.1050453767e+00 -5.3780963523e+00 3.1050453767e+00 5.3780963523e+00 
66600 6.5159734516e+00 -1.1025844960e-02 3.1052238526e+00 -5.3784054816e+00 3.1052238526e+00 5.3784054816e+00 
66700 6.5159651559e+00 -1.0968800230e-02 3.1054013913e+00 -5.3787129877e+00 3.1054013913e+00 5.3787129877e+00 
66800 6.5159569256e+00 -1.0912267898e-02 3.1055780014e+00 -5.3790188853e+00 3.1055780014e+00 5.3790188853e+00 
66900 6.5159487605e+00 -1.0856242142e-02 3.1057536913e+00 -5.3793231890e+00 3.1057536913e+00 5.3793231890e+00 
67000 6.5159406600e+00 -1.0800717077e-02 3.1059284692e+00 -5.3796259133e+00 3.1059284692e+00 5.3796259133e+00 
67100 6.5159326238e+00 -1.0745686751e-02 3.1061023434e+00 -5.3799270723e+00 3.1061023434e+00 5.3799270723e+00 
67200 6.5159246514e+00 -1.0691145151e-02 3.1062753220e+00 -5.3802266801e+00 3.1062753220e+00 5.3802266801e+00 
67300 6.5159167423e+00 -1.0637086213e-02 3.1064474131e+00 -5.3805247505e+00 3.1064474131e+00 5.3805247505e+00 
67400 6.5159088963e+00 -1.0583503819e-02 3.1066186245e+00 -5.3808212973e+00 3.1066186245e+00 5.3808212973e+00 
67500 6.5159011129e+00 -1.0530391807e-02 3.1067889640e+00 -5.3811163341e+00 3.1067889640e+00 5.3811163341e+00 
67600 6.5158933915e+00 -1.0477743974e-02 3.1069584395e+00 -5.3814098741e+00 3.1069584395e+00 5.3814098741e+00 
67700 6.5158857320e+00 -1.0425554081e-02 3.1071270584e+00 -5.3817019307e+00 3.1071270584e+00 5.3817019307e+00 
67800 6.5158781338e+00 -1.0373815854e-02 3.1072948283e+00 -5.3819925167e+00 3.1072948283e+00 5.3819925167e+00 
67900 6.5158705965e+00 -1.0322522995e-02 3.1074617566e+00 -5.3822816449e+00 3.1074617566e+00 5.3822816449e+00 
68000 6.5158631197e+00 -1.0271669180e-02 3.1076278506e+00 -5.3825693282e+00 3.1076278506e+00 5.3825693282e+00 
68100 6.5158557030e+00 -1.0221248069e-02 3.1077931175e+00 -5.3828555788e+00 3.1077931175e+00 5.3828555788e+00 
68200 6.5158483461e+00 -1.0171253306e-02 3.1079575643e+00 -5.3831404092e+00 3.1079575643e+00 5.3831404092e+00 
68300 6.5158410484e+00 -1.0121678524e-02 3.1081211982e+00 -5.3834238314e+00 3.1081211982e+00 5.3834238314e+00 
68400 6.5158338097e+00 -1.0072517351e-02 3.1082840260e+00 -5.3837058573e+00 3.1082840260e+00 5.3837058573e+00 
68500 6.5158266295e+00 -1.0023763415e-02 3.1084460543e+00 -5.3839864987e+00 3.1084460543e+00 5.3839864987e+00 
68600 6.5158195075e+00 -9.9754103426e-03 3.1086072901e+00 -5.3842657671e+00 3.1086072901e+00 5.3842657671e+00 
68700 6.5158124431e+00 -9.9274517705e-03 3.1087677397e+00 -5.3845436740e+00 3.1087677397e+00 5.3845436740e+00 
68800 6.5158054361e+00 -9.8798813438e-03 3.1089274096e+00 -5.3848202305e+00 3.1089274096e+00 5.3848202305e+00 
68900 6.5157984861e+00 -9.8326927227e-03 3.1090863063e+00 -5.3850954476e+00 3.1090863063e+00 5.3850954476e+00 
69000 6.5157915927e+00 -9.7858795853e-03 3.1092444360e+00 -5.3853693363e+00 3.1092444360e+00 5.3853693363e+00 
69100 6.5157847554e+00 -9.7394356318e-03 3.1094018048e+00 -5.3856419071e+00 3.1094018048e+00 5.3856419071e+00 
69200 6.5157779740e+00 -9.6933545879e-03 3.1095584188e+00 -5.3859131705e+00 3.1095584188e+00 5.3859131705e+00 
69300 6.5157712480e+00 -9.6476302089e-03 3.1097142839e+00 -5.3861831368e+00 3.1097142839e+00 5.3861831368e+00 
69400 6.5157645770e+00 -9.6022562826e-03 3.1098694061e+00 -5.3864518162e+00 3.1098694061e+00 5.3864518162e+00 
69500 6.5157579607e+00 -9.5572266332e-03 3.1100237910e+00 -5.3867192187e+00 3.1100237910e+00 5.3867192187e+00 
69600 6.5157513988e+00 -9.5125351247e-03 3.1101774442e+00 -5.3869853539e+00 3.1101774442e+00 5.3869853539e+00 
69700 6.5157448907e+00 -9.4681756637e-03 3.1103303714e+00 -5.3872502316e+00 3.1103303714e+00 5.3872502316e+00 
69800 6.5157384363e+00 -9.4241422031e-03 3.1104825779e+00 -5.3875138610e+00 3.1104825779e+00 5.3875138610e+00 
69900 6.5157320350e+00 -9.3804287451e-03 3.1106340692e+00 -5.3877762516e+00 3.1106340692e+00 5.3877762516e+00 
70000 6.5157256865e+00 -9.3370293440e-03 3.1107848504e+00 -5.3880374123e+00 3.1107848504e+00 5.3880374123e+00 
70100 6.5157193906e+00 -9.2939381091e-03 3.1109349268e+00 -5.3882973522e+00 3.1109349268e+00 5.3882973522e+00 
70200 6.5157131467e+00 -9.2511492081e-03 3.1110843033e+00 -5.3885560799e+00 3.1110843033e+00 5.3885560799e+00 
70300 6.5157069546e+00 -9.2086568689e-03 3.1112329849e+00 -5.3888136041e+00 3.1112329849e+00 5.3888136041e+00 
70400 6.5157008139e+00 -9.1664553831e-03 3.1113809766e+00 -5.3890699331e+00 3.1113809766e+00 5.3890699331e+00 
70500 6.5156947243e+00 -9.1245391080e-03 3.1115282830e+00 -5.3893250753e+00 3.1115282830e+00 5.3893250753e+00 
70600 6.5156886853e+00 -9.0829024693e-03 3.1116749089e+00 -5.3895790388e+00 3.1116749089e+00 5.3895790388e+00 
70700 6.5156826967e+00 -9.0415399632e-03 3.1118208588e+00 -5.3898318314e+00 3.1118208588e+00 5.3898318314e+00 
70800 6.5156767581e+00 -9.0004461590e-03 3.1119661372e+00 -5.3900834611e+00 3.1119661372e+00 5.3900834611e+00 
70900 6.5156708691e+00 -8.9596157008e-03 3.1121107486e+00 -5.3903339354e+00 3.1121107486e+00 5.3903339354e+00 
71000 6.5156650294e+00 -8.9190433099e-03 3.1122546973e+00 -5.3905832618e+00 3.1122546973e+00 5.3905832618e+00 
71100 6.5156592387e+00 -8.8787237867e-03 3.1123979875e+00 -5.3908314477e+00 3.1123979875e+00 5.3908314477e+00 
71200 6.5156534967e+00 -8.8386520123e-03 3.1125406234e+00 -5.3910785003e+00 3.1125406234e+00 5.3910785003e+00 
71300 6.5156478029e+00 -8.7988229503e-03 3.1126826090e+00 -5.3913244266e+00 3.1126826090e+00 5.3913244266e+00 
71400 6.5156421571e+00 -8.7592316489e-03 3.1128239483e+00 -5.3915692335e+00 3.1128239483e+00 5.3915692335e+00 
71500 6.5156365589e+00 -8.7198732417e-03 3.1129646453e+00 -5.3918129278e+00 3.1129646453e+00 5.3918129278e+00 
71600 6.5156310080e+00 -8.6807429497e-03 3.1131047037e+00 -5.3920555161e+00 3.1131047037e+00 5.3920555161e+00 
71700 6.5156255040e+00 -8.6418360824e-03 3.1132441273e+00 -5.3922970049e+00 3.1132441273e+00 5.3922970049e+00 
71800 6.5156200467e+00 -8.6031480391e-03 3.1133829199e+00 -5.3925374006e+00 3.1133829199e+00 5.3925374006e+00 
71900 6.5156146357e+00 -8.5646743101e-03 3.1135210849e+00 -5.3927767094e+00 3.1135210849e+00 5.3927767094e+00 
72000 6.5156092707e+00 -8.5264104774e-03 3.1136586259e+00 -5.3930149375e+00 3.1136586259e+00 5.3930149375e+00 
72100 6.5156039514e+00 -8.4883522164e-03 3.1137955464e+00 -5.3932520907e+00 3.1137955464e+00 5.3932520907e+00 
72200 6.5155986774e+00 -8.4504952957e-03 3.1139318497e+00 -5.3934881750e+00 3.1139318497e+00 5.3934881750e+00 
72300 6.5155934484e+00 -8.4128355790e-03 3.1140675392e+00 -5.3937231961e+00 3.1140675392e+00 5.3937231961e+00 
72400 6.5155882642e+00 -8.3753690248e-03 3.1142026181e+00 -5.3939571596e+00 3.1142026181e+00 5.3939571596e+00 
72500 6.5155831243e+00 -8.3380916875e-03 3.1143370896e+00 -5.3941900711e+00 3.1143370896e+00 5.3941900711e+00 
72600 6.5155780286e+00 -8.3009997176e-03 3.1144709568e+00 -5.3944219359e+00 3.1144709568e+00 5.3944219359e+00 
72700 6.5155729766e+00 -8.2640893624e-03 3.1146042227e+00 -5.3946527593e+00 3.1146042227e+00 5.3946527593e+00 
72800 6.5155679681e+00 -8.2273569660e-03 3.1147368905e+00 -5.3948825465e+00 3.1147368905e+00 5.3948825465e+00 
72900 6.5155630028e+00 -8.1907989695e-03 3.1148689628e+00 -5.3951113026e+00 3.1148689628e+00 5.3951113026e+00 
73000 6.5155580804e+00 -8.1544119113e-03 3.1150004428e+00 -5.3953390325e+00 3.1150004428e+00 5.3953390325e+00 
73100 6.5155532005e+00 -8.1181924271e-03 3.1151313331e+00 -5.3955657412e+00 3.1151313331e+00 5.3955657412e+00 
73200 6.5155483629e+00 -8.0821372497e-03 3.1152616366e+00 -5.3957914335e+00 3.1152616366e+00 5.3957914335e+00 
73300 6.5155435672e+00 -8.0462432090e-03 3.1153913559e+00 -5.3960161140e+00 3.1153913559e+00 5.3960161140e+00 
73400 6.5155388132e+00 -8.0105072316e-03 3.1155204938e+00 -5.3962397873e+00 3.1155204938e+00 5.3962397873e+00 
73500 6.5155341006e+00 -7.9749263408e-03 3.1156490528e+00 -5.3964624580e+00 3.1156490528e+00 5.3964624580e+00 
73600 6.5155294290e+00 -7.9394976560e-03 3.1157770354e+00 -5.3966841304e+00 3.1157770354e+00 5.3966841304e+00 
73700 6.5155247983e+00 -7.9042183922e-03 3.1159044443e+00 -5.3969048090e+00 3.1159044443e+00 5.3969048090e+00 
73800 6.5155202080e+00 -7.8690858595e-03 3.1160312818e+00 -5.3971244981e+00 3.1160312818e+00 5.3971244981e+00 
73900 6.5155156580e+00 -7.8340974629e-03 3.1161575504e+00 -5.3973432017e+00 3.1161575504e+00 5.3973432017e+00 
74000 6.5155111478e+00 -7.7992507009e-03 3.1162832525e+00 -5.3975609241e+00 3.1162832525e+00 5.3975609241e+00 
74100 6.5155066773e+00 -7.7645431654e-03 3.1164083904e+00 -5.3977776693e+00 3.1164083904e+00 5.3977776693e+00 
74200 6.5155022462e+00 -7.7299725404e-03 3.1165329664e+00 -5.3979934413e+00 3.1165329664e+00 5.3979934413e+00 
74300 6.5154978541e+00 -7.6955366017e-03 3.1166569828e+00 -5.3982082440e+00 3.1166569828e+00 5.3982082440e+00 
74400 6.5154935008e+00 -7.6612332153e-03 3.1167804418e+00 -5.3984220813e+00 3.1167804418e+00 5.3984220813e+00 
74500 6.5154891860e+00 -7.6270603370e-03 3.1169033456e+00 -5.3986349569e+00 3.1169033456e+00 5.3986349569e+00 
74600 6.5154849094e+00 -7.5930160109e-03 3.1170256964e+00 -5.3988468747e+00 3.1170256964e+00 5.3988468747e+00 
74700 6.5154806708e+00 -7.5590983685e-03 3.1171474963e+00 -5.3990578382e+00 3.1171474963e+00 5.3990578382e+00 
74800 6.5154764699e+00 -7.5253056276e-03 3.1172687473e+00 -5.3992678512e+00 3.1172687473e+00 5.3992678512e+00 
74900 6.5154723063e+00 -7.4916360910e-03 3.1173894516e+00 -5.3994769171e+00 3.1173894516e+00 5.3994769171e+00 
75000 6.5154681799e+00 -7.4580881450e-03 3.1175096112e+00 -5.3996850396e+00 3.1175096112e+00 5.3996850396e+00 
75100 6.5154640904e+00 -7.4246602586e-03 3.1176292280e+00 -5.3998922221e+00 3.1176292280e+00 5.3998922221e+00 
75200 6.5154600374e+00 -7.3913509816e-03 3.1177483042e+00 -5.4000984681e+00 3.1177483042e+00 5.4000984681e+00 
75300 6.5154560208e+00 -7.3581589437e-03 3.1178668417e+00 -5.4003037810e+00 3.1178668417e+00 5.4003037810e+00 
75400 6.5154520402e+00 -7.3250828526e-03 3.1179848423e+00 -5.4005081641e+00 3.1179848423e+00 5.4005081641e+00 
75500 6.5154480955e+00 -7.2921214928e-03 3.1181023081e+00 -5.4007116207e+00 3.1181023081e+00 5.4007116207e+00 
75600 6.5154441862e+00 -7.2592737240e-03 3.1182192408e+00 -5.4009141543e+00 3.1182192408e+00 5.4009141543e+00 
75700 6.5154403122e+00 -7.2265384795e-03 3.1183356425e+00 -5.4011157679e+00 3.1183356425e+00 5.4011157679e+00 
75800 6.5154364733e+00 -7.1939147647e-03 3.1184515149e+00 -5.4013164648e+00 3.1184515149e+00 5.4013164648e+00 
75900 6.5154326690e+00 -7.1614016555e-03 3.1185668600e+00 -5.4015162483e+00 3.1185668600e+00 5.4015162483e+00 
76000 6.5154288993e+00 -7.1289982963e-03 3.1186816795e+00 -5.4017151215e+00 3.1186816795e+00 5.4017151215e+00 
76100 6.5154251638e+00 -7.0967038990e-03 3.1187959753e+00 -5.4019130876e+00 3.1187959753e+00 5.4019130876e+00 
76200 6.5154214622e+00 -7.0645177408e-03 3.1189097491e+00 -5.4021101496e+00 3.1189097491e+00 5.4021101496e+00 
76300 6.5154177944e+00 -7.0324391624e-03 3.1190230028e+00 -5.4023063108e+00 3.1190230028e+00 5.4023063108e+00 
76400 6.5154141600e+00 -7.0004675667e-03 3.1191357381e+00 -5.4025015741e+00 3.1191357381e+00 5.4025015741e+00 
76500 6.5154105589e+00 -6.9686024169e-03 3.1192479568e+00 -5.4026959426e+00 3.1192479568e+00 5.4026959426e+00 
76600 6.5154069907e+00 -6.9368432343e-03 3.1193596607e+00 -5.4028894195e+00 3.1193596607e+00 5.4028894195e+00 
76700 6.5154034553e+00 -6.9051895971e-03 3.1194708516e+00 -5.4030820077e+00 3.1194708516e+00 5.4030820077e+00 
76800 6.5153999523e+00 -6.8736411385e-03 3.1195815311e+00 -5.4032737102e+00 3.1195815311e+00 5.4032737102e+00 
76900 6.5153964815e+00 -6.8421975444e-03 3.1196917010e+00 -5.4034645301e+00 3.1196917010e+00 5.4034645301e+00 
77000 6.5153930427e+00 -6.8108585523e-03 3.1198013631e+00 -5.4036544704e+00 3.1198013631e+00 5.4036544704e+00 
77100 6.5153896357e+00 -6.7796239489e-03 3.1199105191e+00 -5.4038435341e+00 3.1199105191e+00 5.4038435341e+00 
77200 6.5153862601e+00 -6.7484935686e-03 3.1200191706e+00 -5.4040317241e+00 3.1200191706e+00 5.4040317241e+00 
77300 6.5153829158e+00 -6.7174672917e-03 3.1201273195e+00 -5.4042190435e+00 3.1201273195e+00 5.4042190435e+00 
77400 6.5153796025e+00 -6.6865450423e-03 3.1202349675e+00 -5.4044054952e+00 3.1202349675e+00 5.4044054952e+00 
77500 6.5153763199e+00 -6.6557267867e-03 3.1203421162e+00 -5.4045910822e+00 3.1203421162e+00 5.4045910822e+00 
77600 6.5153730679e+00 -6.6250125317e-03 3.1204487674e+00 -5.4047758075e+00 3.1204487674e+00 5.4047758075e+00 
77700 6.5153698462e+00 -6.5944023224e-03 3.1205549228e+00 -5.4049596741e+00 3.1205549228e+00 5.4049596741e+00 
77800 6.5153666545e+00 -6.5638962407e-03 3.1206605841e+00 -5.4051426849e+00 3.1206605841e+00 5.4051426849e+00 
77900 6.5153634927e+00 -6.5334944036e-03 3.1207657531e+00 -5.4053248429e+00 3.1207657531e+00 5.4053248429e+00 
78000 6.5153603605e+00 -6.5031969609e-03 3.1208704314e+00 -5.4055061511e+00 3.1208704314e+00 5.4055061511e+00 
78100 6.5153572576e+00 -6.4730040941e-03 3.1209746208e+00 -5.4056866124e+00 3.1209746208e+00 5.4056866124e+00 
78200 6.5153541839e+00 -6.4429160141e-03 3.1210783231e+00 -5.4058662299e+00 3.1210783231e+00 5.4058662299e+00 
78300 6.5153511390e+00 -6.4129329598e-03 3.1211815398e+00 -5.4060450066e+00 3.1211815398e+00 5.4060450066e+00 
78400 6.5153481229e+00 -6.3830551961e-03 3.1212842728e+00 -5.4062229454e+00 3.1212842728e+00 5.4062229454e+00 
78500 6.5153451352e+00 -6.3532830125e-03 3.1213865239e+00 -5.4064000494e+00 3.1213865239e+00 5.4064000494e+00 
78600 6.5153421757e+00 -6.3236167210e-03 3.1214882946e+00 -5.4065763215e+00 3.1214882946e+00 5.4065763215e+00 
78700 6.5153392442e+00 -6.2940566550e-03 3.1215895869e+00 -5.4067517648e+00 3.1215895869e+00 5.4067517648e+00 
78800 6.5153363406e+00 -6.2646031669e-03 3.1216904023e+00 -5.4069263823e+00 3.1216904023e+00 5.4069263823e+00 
78900 6.5153334644e+00 -6.2352566273e-03 3.1217907428e+00 -5.4071001771e+00 3.1217907428e+00 5.4071001771e+00 
79000 6.5153306156e+00 -6.2060174227e-03 3.1218906100e+00 -5.4072731522e+00 3.1218906100e+00 5.4072731522e+00 
79100 6.5153277940e+00 -6.1768859543e-03 3.1219900057e+00 -5.4074453106e+00 3.1219900057e+00 5.4074453106e+00 
79200 6.5153249992e+00 -6.1478626363e-03 3.1220889317e+00 -5.4076166554e+00 3.1220889317e+00 5.4076166554e+00 
79300 6.5153222312e+00 -6.1189478946e-03 3.1221873897e+00 -5.4077871897e+00 3.1221873897e+00 5.4077871897e+00 
79400 6.5153194896e+00 -6.0901421649e-03 3.1222853816e+00 -5.4079569166e+00 3.1222853816e+00 5.4079569166e+00 
79500 6.5153167743e+00 -6.0614458917e-03 3.1223829091e+00 -5.4081258392e+00 3.1223829091e+00 5.4081258392e+00 
79600 6.5153140850e+00 -6.0328595263e-03 3.1224799740e+00 -5.4082939606e+00 3.1224799740e+00 5.4082939606e+00 
79700 6.5153114216e+00 -6.0043835261e-03 3.1225765782e+00 -5.4084612839e+00 3.1225765782e+00 5.4084612839e+00 
79800 6.5153087838e+00 -5.9760183525e-03 3.1226727233e+00 -5.4086278122e+00 3.1226727233e+00 5.4086278122e+00 
79900 6.5153061714e+00 -5.9477644701e-03 3.1227684114e+00 -5.4087935488e+00 3.1227684114e+00 5.4087935488e+00 
80000 6.5153035842e+00 -5.9196223451e-03 3.1228636441e+00 -5.4089584967e+00 3.1228636441e+00 5.4089584967e+00 
80100 6.5153010221e+00 -5.8915924441e-03 3.1229584233e+00 -5.4091226592e+00 3.1229584233e+00 5.4091226592e+00 
80200 6.5152984847e+00 -5.8636752330e-03 3.1230527509e+00 -5.4092860393e+00 3.1230527509e+00 5.4092860393e+00 
80300 6.5152959720e+00 -5.8358711754e-03 3.1231466287e+00 -5.4094486404e+00 3.1231466287e+00 5.4094486404e+00 
80400 6.5152934836e+00 -5.8081807318e-03 3.1232400585e+00 -5.4096104656e+00 3.1232400585e+00 5.4096104656e+00 
80500 6.5152910195e+00 -5.7806043583e-03 3.1233330422e+00 -5.4097715181e+00 3.1233330422e+00 5.4097715181e+00 
80600 6.5152885793e+00 -5.7531425056e-03 3.1234255817e+00 -5.4099318012e+00 3.1234255817e+00 5.4099318012e+00 
80700 6.5152861630e+00 -5.7257956178e-03 3.1235176788e+00 -5.4100913181e+00 3.1235176788e+00 5.4100913181e+00 
80800 6.5152837703e+00 -5.6985641313e-03 3.1236093355e+00 -5.4102500721e+00 3.1236093355e+00 5.4102500721e+00 
80900 6.5152814010e+00 -5.6714484742e-03 3.1237005536e+00 -5.4104080664e+00 3.1237005536e+00 5.4104080664e+00 
81000 6.5152790549e+00 -5.6444490649e-03 3.1237913349e+00 -5.4105653043e+00 3.1237913349e+00 5.4105653043e+00 
81100 6.5152767318e+00 -5.6175663111e-03 3.1238816815e+00 -5.4107217892e+00 3.1238816815e+00 5.4107217892e+00 
81200 6.5152744315e+00 -5.5908006097e-03 3.1239715952e+00 -5.4108775242e+00 3.1239715952e+00 5.4108775242e+00 
81300 6.5152721539e+00 -5.5641523450e-03 3.1240610778e+00 -5.4110325128e+00 3.1240610778e+00 5.4110325128e+00 
81400 6.5152698988e+00 -5.5376218883e-03 3.1241501315e+00 -5.4111867582e+00 3.1241501315e+00 5.4111867582e+00 
81500 6.5152676659e+00 -5.5112095973e-03 3.1242387579e+00 -5.4113402637e+00 3.1242387579e+00 5.4113402637e+00 
81600 6.5152654551e+00 -5.4849158152e-03 3.1243269592e+00 -5.4114930328e+00 3.1243269592e+00 5.4114930328e+00 
81700 6.5152632662e+00 -5.4587408697e-03 3.1244147372e+00 -5.4116450687e+00 3.1244147372e+00 5.4116450687e+00 
81800 6.5152610990e+00 -5.4326850729e-03 3.1245020938e+00 -5.4117963748e+00 3.1245020938e+00 5.4117963748e+00 
81900 6.5152589533e+00 -5.4067487204e-03 3.1245890310e+00 -5.4119469545e+00 3.1245890310e+00 5.4119469545e+00 
82000 6.5152568289e+00 -5.3809320904e-03 3.1246755508e+00 -5.4120968111e+00 3.1246755508e+00 5.4120968111e+00 
82100 6.5152547257e+00 -5.3552354437e-03 3.1247616550e+00 -5.4122459480e+00 3.1247616550e+00 5.4122459480e+00 
82200 6.5152526436e+00 -5.3296590229e-03 3.1248473457e+00 -5.4123943686e+00 3.1248473457e+00 5.4123943686e+00 
82300 6.5152505822e+00 -5.3042030518e-03 3.1249326248e+00 -5.4125420764e+00 3.1249326248e+00 5.4125420764e+00 
82400 6.5152485414e+00 -5.2788677354e-03 3.1250174943e+00 -5.4126890746e+00 3.1250174943e+00 5.4126890746e+00 
82500 6.5152465211e+00 -5.2536532589e-03 3.1251019560e+00 -5.4128353667e+00 3.1251019560e+00 5.4128353667e+00 
82600 6.5152445210e+00 -5.2285597876e-03 3.1251860121e+00 -5.4129809561e+00 3.1251860121e+00 5.4129809561e+00 
82700 6.5152425411e+00 -5.2035874668e-03 3.1252696645e+00 -5.4131258462e+00 3.1252696645e+00 5.4131258462e+00 
82800 6.5152405811e+00 -5.1787364210e-03 3.1253529151e+00 -5.4132700405e+00 3.1253529151e+00 5.4132700405e+00 
82900 6.5152386409e+00 -5.1540067541e-03 3.1254357659e+00 -5.4134135423e+00 3.1254357659e+00 5.4134135423e+00 
83000 6.5152367202e+00 -5.1293985487e-03 3.1255182188e+00 -5.4135563550e+00 3.1255182188e+00 5.4135563550e+00 
83100 6.5152348190e+00 -5.1049118663e-03 3.1256002760e+00 -5.4136984821e+00 3.1256002760e+00 5.4136984821e+00 
83200 6.5152329370e+00 -5.0805467469e-03 3.1256819392e+00 -5.4138399270e+00 3.1256819392e+00 5.4138399270e+00 
83300 6.5152310741e+00 -5.0563032090e-03 3.1257632106e+00 -5.4139806932e+00 3.1257632106e+00 5.4139806932e+00 
83400 6.5152292301e+00 -5.0321812490e-03 3.1258440920e+00 -5.4141207839e+00 3.1258440920e+00 5.4141207839e+00 
83500 6.5152274049e+00 -5.0081808420e-03 3.1259245855e+00 -5.4142602028e+00 3.1259245855e+00 5.4142602028e+00 
83600 6.5152255983e+00 -4.9843019409e-03 3.1260046931e+00 -5.4143989531e+00 3.1260046931e+00 5.4143989531e+00 
83700 6.5152238101e+00 -4.9605444767e-03 3.1260844166e+00 -5.4145370383e+00 3.1260844166e+00 5.4145370383e+00 
83800 6.5152220402e+00 -4.9369083588e-03 3.1261637581e+00 -5.4146744619e+00 3.1261637581e+00 5.4146744619e+00 
83900 6.5152202884e+00 -4.9133934744e-03 3.1262427196e+00 -5.4148112271e+00 3.1262427196e+00 5.4148112271e+00 
84000 6.5152185545e+00 -4.8899996890e-03 3.1263213030e+00 -5.4149473375e+00 3.1263213030e+00 5.4149473375e+00 
84100 6.5152168384e+00 -4.8667268465e-03 3.1263995102e+00 -5.4150827965e+00 3.1263995102e+00 5.4150827965e+00 
84200 6.5152151400e+00 -4.8435747689e-03 3.1264773433e+00 -5.4152176073e+00 3.1264773433e+00 5.4152176073e+00 
84300 6.5152134591e+00 -4.8205432570e-03 3.1265548042e+00 -5.4153517735e+00 3.1265548042e+00 5.4153517735e+00 
84400 6.5152117955e+00 -4.7976320900e-03 3.1266318949e+00 -5.4154852985e+00 3.1266318949e+00 5.4154852985e+00 
84500 6.5152101490e+00 -4.7748410261e-03 3.1267086172e+00 -5.4156181855e+00 3.1267086172e+00 5.4156181855e+00 
84600 6.5152085196e+00 -4.7521698024e-03 3.1267849732e+00 -5.4157504380e+00 3.1267849732e+00 5.4157504380e+00 
84700 6.5152069071e+00 -4.7296181353e-03 3.1268609649e+00 -5.4158820593e+00 3.1268609649e+00 5.4158820593e+00 
84800 6.5152053113e+00 -4.7071857208e-03 3.1269365940e+00 -5.4160130529e+00 3.1269365940e+00 5.4160130529e+00 
84900 6.5152037320e+00 -4.6848722345e-03 3.1270118626e+00 -5.4161434220e+00 3.1270118626e+00 5.4161434220e+00 
85000 6.5152021692e+00 -4.6626773321e-03 3.1270867727e+00 -5.4162731700e+00 3.1270867727e+00 5.4162731700e+00 
85100 6.5152006227e+00 -4.6406006496e-03 3.1271613260e+00 -5.4164023001e+00 3.1271613260e+00 5.4164023001e+00 
85200 6.5151990922e+00 -4.6186418039e-03 3.1272355246e+00 -5.4165308159e+00 3.1272355246e+00 5.4165308159e+00 
85300 6.5151975778e+00 -4.5968003924e-03 3.1273093703e+00 -5.4166587204e+00 3.1273093703e+00 5.4166587204e+00 
85400 6.5151960793e+00 -4.5750759944e-03 3.1273828651e+00 -5.4167860171e+00 3.1273828651e+00 5.4167860171e+00 
85500 6.5151945964e+00 -4.5534681704e-03 3.1274560109e+00 -5.4169127092e+00 3.1274560109e+00 5.4169127092e+00 
85600 6.5151931291e+00 -4.5319764634e-03 3.1275288094e+00 -5.4170388000e+00 3.1275288094e+00 5.4170388000e+00 
85700 6.5151916772e+00 -4.5106003987e-03 3.1276012627e+00 -5.4171642928e+00 3.1276012627e+00 5.4171642928e+00 
85800 6.5151902406e+00 -4.4893394845e-03 3.1276733725e+00 -5.4172891907e+00 3.1276733725e+00 5.4172891907e+00 
85900 6.5151888191e+00 -4.4681932123e-03 3.1277451409e+00 -5.4174134971e+00 3.1277451409e+00 5.4174134971e+00 
86000 6.5151874127e+00 -4.4471610575e-03 3.1278165695e+00 -5.4175372151e+00 3.1278165695e+00 5.4175372151e+00 
86100 6.5151860211e+00 -4.4262424796e-03 3.1278876602e+00 -5.4176603479e+00 3.1278876602e+00 5.4176603479e+00 
86200 6.5151846442e+00 -4.4054369226e-03 3.1279584150e+00 -5.4177828988e+00 3.1279584150e+00 5.4177828988e+00 
86300 6.5151832820e+00 -4.3847438159e-03 3.1280288356e+00 -5.4179048708e+00 3.1280288356e+00 5.4179048708e+00 
86400 6.5151819342e+00 -4.3641625744e-03 3.1280989238e+00 -5.4180262672e+00 3.1280989238e+00 5.4180262672e+00 
86500 6.5151806008e+00 -4.3436925989e-03 3.1281686815e+00 -5.4181470910e+00 3.1281686815e+00 5.4181470910e+00 
86600 6.5151792815e+00 -4.3233332770e-03 3.1282381105e+00 -5.4182673455e+00 3.1282381105e+00 5.4182673455e+00 
86700 6.5151779763e+00 -4.3030839831e-03 3.1283072124e+00 -5.4183870336e+00 3.1283072124e+00 5.4183870336e+00 
86800 6.5151766851e+00 -4.2829440795e-03 3.1283759892e+00 -5.4185061586e+00 3.1283759892e+00 5.4185061586e+00 
86900 6.5151754077e+00 -4.2629129162e-03 3.1284444427e+00 -5.4186247233e+00 3.1284444427e+00 5.4186247233e+00 
87000 6.5151741439e+00 -4.2429898319e-03 3.1285125744e+00 -5.4187427310e+00 3.1285125744e+00 5.4187427310e+00 
87100 6.5151728937e+00 -4.2231741545e-03 3.1285803863e+00 -5.4188601846e+00 3.1285803863e+00 5.4188601846e+00 
87200 6.5151716570e+00 -4.2034652013e-03 3.1286478800e+00 -5.4189770871e+00 3.1286478800e+00 5.4189770871e+00 
87300 6.5151704335e+00 -4.1838622799e-03 3.1287150572e+00 -5.4190934415e+00 3.1287150572e+00 5.4190934415e+00 
87400 6.5151692233e+00 -4.1643646884e-03 3.1287819198e+00 -5.4192092509e+00 3.1287819198e+00 5.4192092509e+00 
87500 6.5151680261e+00 -4.1449717161e-03 3.1288484693e+00 -5.4193245180e+00 3.1288484693e+00 5.4193245180e+00 
87600 6.5151668418e+00 -4.1256826441e-03 3.1289147075e+00 -5.4194392460e+00 3.1289147075e+00 5.4194392460e+00 
87700 6.5151656704e+00 -4.1064967454e-03 3.1289806361e+00 -5.4195534376e+00 3.1289806361e+00 5.4195534376e+00 
87800 6.5151645117e+00 -4.0874132859e-03 3.1290462567e+00 -5.4196670958e+00 3.1290462567e+00 5.4196670958e+00 
87900 6.5151633655e+00 -4.0684315250e-03 3.1291115710e+00 -5.4197802234e+00 3.1291115710e+00 5.4197802234e+00 
88000 6.5151622318e+00 -4.0495507154e-03 3.1291765805e+00 -5.4198928234e+00 3.1291765805e+00 5.4198928234e+00 
88100 6.5151611104e+00 -4.0307701043e-03 3.1292412871e+00 -5.4200048984e+00 3.1292412871e+00 5.4200048984e+00 
88200 6.5151600013e+00 -4.0120889338e-03 3.1293056922e+00 -5.4201164514e+00 3.1293056922e+00 5.4201164514e+00 
88300 6.5151589043e+00 -3.9935064412e-03 3.1293697975e+00 -5.4202274850e+00 3.1293697975e+00 5.4202274850e+00 
88400 6.5151578193e+00 -3.9750218594e-03 3.1294336046e+00 -5.4203380022e+00 3.1294336046e+00 5.4203380022e+00 
88500 6.5151567461e+00 -3.9566344180e-03 3.1294971151e+00 -5.4204480055e+00 3.1294971151e+00 5.4204480055e+00 
88600 6.5151556848e+00 -3.9383433431e-03 3.1295603305e+00 -5.4205574978e+00 3.1295603305e+00 5.4205574978e+00 
88700 6.5151546351e+00 -3.9201478582e-03 3.1296232524e+00 -5.4206664817e+00 3.1296232524e+00 5.4206664817e+00 
88800 6.5151535969e+00 -3.9020471846e-03 3.1296858823e+00 -5.4207749599e+00 3.1296858823e+00 5.4207749599e+00 
88900 6.5151525702e+00 -3.8840405419e-03 3.1297482218e+00 -5.4208829350e+00 3.1297482218e+00 5.4208829350e+00 
89000 6.5151515548e+00 -3.8661271483e-03 3.1298102724e+00 -5.4209904098e+00 3.1298102724e+00 5.4209904098e+00 
89100 6.5151505506e+00 -3.8483062213e-03 3.1298720355e+00 -5.4210973867e+00 3.1298720355e+00 5.4210973867e+00 
89200 6.5151495575e+00 -3.8305769781e-03 3.1299335128e+00 -5.4212038684e+00 3.1299335128e+00 5.4212038684e+00 
89300 6.5151485755e+00 -3.8129386358e-03 3.1299947056e+00 -5.4213098575e+00 3.1299947056e+00 5.4213098575e+00 
89400 6.5151476043e+00 -3.7953904123e-03 3.1300556155e+00 -5.4214153565e+00 3.1300556155e+00 5.4214153565e+00 
89500 6.5151466439e+00 -3.7779315265e-03 3.1301162438e+00 -5.4215203679e+00 3.1301162438e+00 5.4215203679e+00 
89600 6.5151456943e+00 -3.7605611984e-03 3.1301765921e+00 -5.4216248942e+00 3.1301765921e+00 5.4216248942e+00 
89700 6.5151447552e+00 -3.7432786501e-03 3.1302366618e+00 -5.4217289379e+00 3.1302366618e+00 5.4217289379e+00 
89800 6.5151438266e+00 -3.7260831060e-03 3.1302964542e+00 -5.4218325015e+00 3.1302964542e+00 5.4218325015e+00 
89900 6.5151429083e+00 -3.7089737928e-03 3.1303559709e+00 -5.4219355873e+00 3.1303559709e+00 5.4219355873e+00 
90000 6.5151420004e+00 -3.6919499406e-03 3.1304152131e+00 -5.4220381979e+00 3.1304152131e+00 5.4220381979e+00 
90100 6.5151411026e+00 -3.6750107828e-03 3.1304741823e+00 -5.4221403356e+00 3.1304741823e+00 5.4221403356e+00 
90200 6.5151402149e+00 -3.6581555563e-03 3.1305328798e+00 -5.4222420027e+00 3.1305328798e+00 5.4222420027e+00 
90300 6.5151393372e+00 -3.6413835026e-03 3.1305913071e+00 -5.4223432016e+00 3.1305913071e+00 5.4223432016e+00 
90400 6.5151384694e+00 -3.6246938673e-03 3.1306494653e+00 -5.4224439346e+00 3.1306494653e+00 5.4224439346e+00 
90500 6.5151376114e+00 -3.6080859011e-03 3.1307073560e+00 -5.4225442041e+00 3.1307073560e+00 5.4225442041e+00 
90600 6.5151367630e+00 -3.5915588596e-03 3.1307649803e+00 -5.4226440124e+00 3.1307649803e+00 5.4226440124e+00 
90700 6.5151359243e+00 -3.5751120040e-03 3.1308223396e+00 -5.4227433616e+00 3.1308223396e+00 5.4227433616e+00 
90800 6.5151350950e+00 -3.5587446014e-03 3.1308794352e+00 -5.4228422541e+00 3.1308794352e+00 5.4228422541e+00 
90900 6.5151342752e+00 -3.5424559246e-03 3.1309362683e+00 -5.4229406920e+00 3.1309362683e+00 5.4229406920e+00 
91000 6.5151334647e+00 -3.5262452532e-03 3.1309928403e+00 -5.4230386776e+00 3.1309928403e+00 5.4230386776e+00 
91100 6.5151326634e+00 -3.5101118730e-03 3.1310491524e+00 -5.4231362130e+00 3.1310491524e+00 5.4231362130e+00 
91200 6.5151318712e+00 -3.4940550770e-03 3.1311052059e+00 -5.4232333004e+00 3.1311052059e+00 5.4232333004e+00 
91300 6.5151310881e+00 -3.4780741652e-03 3.1311610019e+00 -5.4233299420e+00 3.1311610019e+00 5.4233299420e+00 
91400 6.5151303139e+00 -3.4621684450e-03 3.1312165418e+00 -5.4234261398e+00 3.1312165418e+00 5.4234261398e+00 
91500 6.5151295486e+00 -3.4463372313e-03 3.1312718266e+00 -5.4235218961e+00 3.1312718266e+00 5.4235218961e+00 
91600 6.5151287921e+00 -3.4305798469e-03 3.1313268578e+00 -5.4236172127e+00 3.1313268578e+00 5.4236172127e+00 
91700 6.5151280443e+00 -3.4148956227e-03 3.1313816363e+00 -5.4237120919e+00 3.1313816363e+00 5.4237120919e+00 
91800 6.5151273050e+00 -3.3992838977e-03 3.1314361634e+00 -5.4238065357e+00 3.1314361634e+00 5.4238065357e+00 
91900 6.5151265743e+00 -3.3837440192e-03 3.1314904403e+00 -5.4239005461e+00 3.1314904403e+00 5.4239005461e+00 
92000 6.5151258520e+00 -3.3682753432e-03 3.1315444682e+00 -5.4239941251e+00 3.1315444682e+00 5.4239941251e+00 
92100 6.5151251380e+00 -3.3528772345e-03 3.1315982481e+00 -5.4240872746e+00 3.1315982481e+00 5.4240872746e+00 
92200 6.5151244323e+00 -3.3375490665e-03 3.1316517813e+00 -5.4241799968e+00 3.1316517813e+00 5.4241799968e+00 
92300 6.5151237348e+00 -3.3222902218e-03 3.1317050688e+00 -5.4242722935e+00 3.1317050688e+00 5.4242722935e+00 
92400 6.5151230453e+00 -3.3071000922e-03 3.1317581118e+00 -5.4243641666e+00 3.1317581118e+00 5.4243641666e+00 
92500 6.5151223639e+00 -3.2919780785e-03 3.1318109113e+00 -5.4244556181e+00 3.1318109113e+00 5.4244556181e+00 
92600 6.5151216904e+00 -3.2769235910e-03 3.1318634686e+00 -5.4245466500e+00 3.1318634686e+00 5.4245466500e+00 
92700 6.5151210248e+00 -3.2619360496e-03 3.1319157846e+00 -5.4246372640e+00 3.1319157846e+00 5.4246372640e+00 
92800 6.5151203669e+00 -3.2470148833e-03 3.1319678605e+00 -5.4247274620e+00 3.1319678605e+00 5.4247274620e+00 
92900 6.5151197167e+00 -3.2321595311e-03 3.1320196973e+00 -5.4248172460e+00 3.1320196973e+00 5.4248172460e+00 
93000 6.5151190742e+00 -3.2173694415e-03 3.1320712961e+00 -5.4249066177e+00 3.1320712961e+00 5.4249066177e+00 
93100 6.5151184391e+00 -3.2026440727e-03 3.1321226579e+00 -5.4249955790e+00 3.1321226579e+00 5.4249955790e+00 
93200 6.5151178116e+00 -3.1879828928e-03 3.1321737838e+00 -5.4250841317e+00 3.1321737838e+00 5.4250841317e+00 
93300 6.5151171914e+00 -3.1733853794e-03 3.1322246749e+00 -5.4251722776e+00 3.1322246749e+00 5.4251722776e+00 
93400 6.5151165785e+00 -3.1588510202e-03 3.1322753320e+00 -5.4252600184e+00 3.1322753320e+00 5.4252600184e+00 
93500 6.5151159728e+00 -3.1443793127e-03 3.1323257564e+00 -5.4253473559e+00 3.1323257564e+00 5.4253473559e+00 
93600 6.5151153743e+00 -3.1299697640e-03 3.1323759489e+00 -5.4254342920e+00 3.1323759489e+00 5.4254342920e+00 
93700 6.5151147829e+00 -3.1156218913e-03 3.1324259107e+00 -5.4255208282e+00 3.1324259107e+00 5.4255208282e+00 
93800 6.5151141985e+00 -3.1013352215e-03 3.1324756426e+00 -5.4256069664e+00 3.1324756426e+00 5.4256069664e+00 
93900 6.5151136211e+00 -3.0871092913e-03 3.1325251456e+00 -5.4256927082e+00 3.1325251456e+00 5.4256927082e+00 
94000 6.5151130505e+00 -3.0729436471e-03 3.1325744209e+00 -5.4257780554e+00 3.1325744209e+00 5.4257780554e+00 
94100 6.5151124867e+00 -3.0588378451e-03 3.1326234692e+00 -5.4258630096e+00 3.1326234692e+00 5.4258630096e+00 
94200 6.5151119296e+00 -3.0447914512e-03 3.1326722916e+00 -5.4259475726e+00 3.1326722916e+00 5.4259475726e+00 
94300 6.5151113792e+00 -3.0308040410e-03 3.1327208891e+00 -5.4260317459e+00 3.1327208891e+00 5.4260317459e+00 
94400 6.5151108353e+00 -3.0168751994e-03 3.1327692626e+00 -5.4261155312e+00 3.1327692626e+00 5.4261155312e+00 
94500 6.5151102980e+00 -3.0030045211e-03 3.1328174130e+00 -5.4261989302e+00 3.1328174130e+00 5.4261989302e+00 
94600 6.5151097671e+00 -2.9891916101e-03 3.1328653413e+00 -5.4262819444e+00 3.1328653413e+00 5.4262819444e+00 
94700 6.5151092426e+00 -2.9754360796e-03 3.1329130484e+00 -5.4263645755e+00 3.1329130484e+00 5.4263645755e+00 
94800 6.5151087245e+00 -2.9617375522e-03 3.1329605353e+00 -5.4264468252e+00 3.1329605353e+00 5.4264468252e+00 
94900 6.5151082125e+00 -2.9480956598e-03 3.1330078028e+00 -5.4265286949e+00 3.1330078028e+00 5.4265286949e+00 
95000 6.5151077068e+00 -2.9345100430e-03 3.1330548519e+00 -5.4266101863e+00 3.1330548519e+00 5.4266101863e+00 
95100 6.5151072072e+00 -2.9209803517e-03 3.1331016834e+00 -5.4266913010e+00 3.1331016834e+00 5.4266913010e+00 
95200 6.5151067136e+00 -2.9075062444e-03 3.1331482984e+00 -5.4267720404e+00 3.1331482984e+00 5.4267720404e+00 
95300 6.5151062260e+00 -2.8940873884e-03 3.1331946976e+00 -5.4268524063e+00 3.1331946976e+00 5.4268524063e+00 
95400 6.5151057444e+00 -2.8807234596e-03 3.1332408820e+00 -5.4269324000e+00 3.1332408820e+00 5.4269324000e+00 
95500 6.5151052686e+00 -2.8674141424e-03 3.1332868525e+00 -5.4270120232e+00 3.1332868525e+00 5.4270120232e+00 
95600 6.5151047986e+00 -2.8541591294e-03 3.1333326099e+00 -5.4270912773e+00 3.1333326099e+00 5.4270912773e+00 
95700 6.5151043343e+00 -2.8409581215e-03 3.1333781551e+00 -5.4271701639e+00 3.1333781551e+00 5.4271701639e+00 
95800 6.5151038758e+00 -2.8278108277e-03 3.1334234890e+00 -5.4272486845e+00 3.1334234890e+00 5.4272486845e+00 
95900 6.5151034228e+00 -2.8147169647e-03 3.1334686124e+00 -5.4273268407e+00 3.1334686124e+00 5.4273268407e+00 
96000 6.5151029754e+00 -2.8016762573e-03 3.1335135263e+00 -5.4274046338e+00 3.1335135263e+00 5.4274046338e+00 
96100 6.5151025336e+00 -2.7886884376e-03 3.1335582314e+00 -5.4274820653e+00 3.1335582314e+00 5.4274820653e+00 
96200 6.5151020971e+00 -2.7757532452e-03 3.1336027287e+00 -5.4275591368e+00 3.1336027287e+00 5.4275591368e+00 
96300 6.5151016660e+00 -2.7628704272e-03 3.1336470189e+00 -5.4276358498e+00 3.1336470189e+00 5.4276358498e+00 
96400 6.5151012403e+00 -2.7500397376e-03 3.1336911030e+00 -5.4277122056e+00 3.1336911030e+00 5.4277122056e+00 
96500 6.5151008198e+00 -2.7372609374e-03 3.1337349817e+00 -5.4277882057e+00 3.1337349817e+00 5.4277882057e+00 
96600 6.5151004046e+00 -2.7245337945e-03 3.1337786559e+00 -5.4278638517e+00 3.1337786559e+00 5.4278638517e+00 
96700 6.5150999945e+00 -2.7118580835e-03 3.1338221264e+00 -5.4279391448e+00 3.1338221264e+00 5.4279391448e+00 
96800 6.5150995895e+00 -2.6992335851e-03 3.1338653941e+00 -5.4280140866e+00 3.1338653941e+00 5.4280140866e+00 
96900 6.5150991895e+00 -2.6866600867e-03 3.1339084597e+00 -5.4280886785e+00 3.1339084597e+00 5.4280886785e+00 
97000 6.5150987945e+00 -2.6741373817e-03 3.1339513242e+00 -5.4281629220e+00 3.1339513242e+00 5.4281629220e+00 
97100 6.5150984045e+00 -2.6616652692e-03 3.1339939883e+00 -5.4282368183e+00 3.1339939883e+00 5.4282368183e+00 
97200 6.5150980194e+00 -2.6492435543e-03 3.1340364528e+00 -5.4283103691e+00 3.1340364528e+00 5.4283103691e+00 
97300 6.5150976390e+00 -2.6368720478e-03 3.1340787186e+00 -5.4283835755e+00 3.1340787186e+00 5.4283835755e+00 
97400 6.5150972635e+00 -2.6245505656e-03 3.1341207864e+00 -5.4284564391e+00 3.1341207864e+00 5.4284564391e+00 
97500 6.5150968927e+00 -2.6122789290e-03 3.1341626571e+00 -5.4285289613e+00 3.1341626571e+00 5.4285289613e+00 
97600 6.5150965265e+00 -2.6000569644e-03 3.1342043315e+00 -5.4286011434e+00 3.1342043315e+00 5.4286011434e+00 
97700 6.5150961650e+00 -2.5878845030e-03 3.1342458103e+00 -5.4286729869e+00 3.1342458103e+00 5.4286729869e+00 
97800 6.5150958081e+00 -2.5757613808e-03 3.1342870944e+00 -5.4287444930e+00 3.1342870944e+00 5.4287444930e+00 
97900 6.5150954557e+00 -2.5636874381e-03 3.1343281846e+00 -5.4288156633e+00 3.1343281846e+00 5.4288156633e+00 
98000 6.5150951077e+00 -2.5516625199e-03 3.1343690816e+00 -5.4288864990e+00 3.1343690816e+00 5.4288864990e+00 
98100 6.5150947642e+00 -2.5396864750e-03 3.1344097862e+00 -5.4289570015e+00 3.1344097862e+00 5.4289570015e+00 
98200 6.5150944250e+00 -2.5277591564e-03 3.1344502993e+00 -5.4290271722e+00 3.1344502993e+00 5.4290271722e+00 
98300 6.5150940902e+00 -2.5158804210e-03 3.1344906216e+00 -5.4290970125e+00 3.1344906216e+00 5.4290970125e+00 
98400 6.5150937597e+00 -2.5040501291e-03 3.1345307539e+00 -5.4291665236e+00 3.1345307539e+00 5.4291665236e+00 
98500 6.5150934333e+00 -2.4922681447e-03 3.1345706970e+00 -5.4292357071e+00 3.1345706970e+00 5.4292357071e+00 
98600 6.5150931112e+00 -2.4805343351e-03 3.1346104516e+00 -5.4293045641e+00 3.1346104516e+00 5.4293045641e+00 
98700 6.5150927932e+00 -2.4688485706e-03 3.1346500185e+00 -5.4293730961e+00 3.1346500185e+00 5.4293730961e+00 
98800 6.5150924793e+00 -2.4572107245e-03 3.1346893986e+00 -5.4294413043e+00 3.1346893986e+00 5.4294413043e+00 
98900 6.5150921695e+00 -2.4456206729e-03 3.1347285925e+00 -5.4295091902e+00 3.1347285925e+00 5.4295091902e+00 
99000 6.5150918636e+00 -2.4340782948e-03 3.1347676011e+00 -5.4295767550e+00 3.1347676011e+00 5.4295767550e+00 
99100 6.5150915617e+00 -2.4225834714e-03 3.1348064251e+00 -5.4296440001e+00 3.1348064251e+00 5.4296440001e+00 
99200 6.5150912638e+00 -2.4111360862e-03 3.1348450652e+00 -5.4297109269e+00 3.1348450652e+00 5.4297109269e+00 
99300 6.5150909697e+00 -2.3997360251e-03 3.1348835223e+00 -5.4297775365e+00 3.1348835223e+00 5.4297775365e+00 
99400 6.5150906794e+00 -2.3883831759e-03 3.1349217971e+00 -5.4298438304e+00 3.1349217971e+00 5.4298438304e+00 
99500 6.5150903929e+00 -2.3770774282e-03 3.1349598904e+00 -5.4299098099e+00 3.1349598904e+00 5.4299098099e+00 
99600 6.5150901101e+00 -2.3658186733e-03 3.1349978029e+00 -5.4299754762e+00 3.1349978029e+00 5.4299754762e+00 
99700 6.5150898311e+00 -2.3546068044e-03 3.1350355353e+00 -5.4300408308e+00 3.1350355353e+00 5.4300408308e+00 
99800 6.5150895557e+00 -2.3434417156e-03 3.1350730885e+00 -5.4301058748e+00 3.1350730885e+00 5.4301058748e+00 
99900 6.5150892839e+00 -2.3323233028e-03 3.1351104632e+00 -5.4301706096e+00 3.1351104632e+00 5.4301706096e+00 
100000 6.5150890157e+00 -2.3212514627e-03 3.1351476601e+00 -5.4302350365e+00 3.1351476601e+00 5.4302350365e+00 
100100 6.5150887510e+00 -2.3102260931e-03 3.1351846800e+00 -5.4302991568e+00 3.1351846800e+00 5.4302991568e+00 
100200 6.5150884898e+00 -2.2992470929e-03 3.1352215236e+00 -5.4303629719e+00 3.1352215236e+00 5.4303629719e+00 
100300 6.5150882321e+00 -2.2883143614e-03 3.1352581917e+00 -5.4304264828e+00 3.1352581917e+00 5.4304264828e+00 
100400 6.5150879778e+00 -2.2774277987e-03 3.1352946850e+00 -5.4304896911e+00 3.1352946850e+00 5.4304896911e+00 
100500 6.5150877269e+00 -2.2665873057e-03 3.1353310043e+00 -5.4305525979e+00 3.1353310043e+00 5.4305525979e+00 
100600 6.5150874793e+00 -2.2557927832e-03 3.1353671502e+00 -5.4306152046e+00 3.1353671502e+00 5.4306152046e+00 
100700 6.5150872350e+00 -2.2450441325e-03 3.1354031236e+00 -5.4306775124e+00 3.1354031236e+00 5.4306775124e+00 
100800 6.5150869940e+00 -2.2343412553e-03 3.1354389252e+00 -5.4307395225e+00 3.1354389252e+00 5.4307395225e+00 
100900 6.5150867562e+00 -2.2236840530e-03 3.1354745557e+00 -5.4308012364e+00 3.1354745557e+00 5.4308012364e+00 
101000 6.5150865215e+00 -2.2130724271e-03 3.1355100159e+00 -5.4308626552e+00 3.1355100159e+00 5.4308626552e+00 
101100 6.5150862901e+00 -2.2025062790e-03 3.1355453064e+00 -5.4309237802e+00 3.1355453064e+00 5.4309237802e+00 
101200 6.5150860617e+00 -2.1919855100e-03 3.1355804281e+00 -5.4309846127e+00 3.1355804281e+00 5.4309846127e+00 
101300 6.5150858365e+00 -2.1815100207e-03 3.1356153816e+00 -5.4310451539e+00 3.1356153816e+00 5.4310451539e+00 
101400 6.5150856143e+00 -2.1710797116e-03 3.1356501676e+00 -5.4311054051e+00 3.1356501676e+00 5.4311054051e+00 
101500 6.5150853950e+00 -2.1606944826e-03 3.1356847870e+00 -5.4311653676e+00 3.1356847870e+00 5.4311653676e+00 
101600 6.5150851788e+00 -2.1503542329e-03 3.1357192404e+00 -5.4312250426e+00 3.1357192404e+00 5.4312250426e+00 
101700 6.5150849655e+00 -2.1400588613e-03 3.1357535285e+00 -5.4312844313e+00 3.1357535285e+00 5.4312844313e+00 
101800 6.5150847551e+00 -2.1298082656e-03 3.1357876521e+00 -5.4313435351e+00 3.1357876521e+00 5.4313435351e+00 
101900 6.5150845476e+00 -2.1196023430e-03 3.1358216118e+00 -5.4314023551e+00 3.1358216118e+00 5.4314023551e+00 
102000 6.5150843429e+00 -2.1094409895e-03 3.1358554085e+00 -5.4314608927e+00 3.1358554085e+00 5.4314608927e+00 
102100 6.5150841411e+00 -2.0993241006e-03 3.1358890428e+00 -5.4315191490e+00 3.1358890428e+00 5.4315191490e+00 
102200 6.5150839420e+00 -2.0892515704e-03 3.1359225154e+00 -5.4315771252e+00 3.1359225154e+00 5.4315771252e+00 
102300 6.5150837456e+00 -2.0792232921e-03 3.1359558270e+00 -5.4316348227e+00 3.1359558270e+00 5.4316348227e+00 
102400 6.5150835520e+00 -2.0692391579e-03 3.1359889784e+00 -5.4316922426e+00 3.1359889784e+00 5.4316922426e+00 
102500 6.5150833610e+00 -2.0592990586e-03 3.1360219703e+00 -5.4317493862e+00 3.1360219703e+00 5.4317493862e+00 
102600 6.5150831727e+00 -2.0494028839e-03 3.1360548033e+00 -5.4318062547e+00 3.1360548033e+00 5.4318062547e+00 
102700 6.5150829869e+00 -2.0395505222e-03 3.1360874783e+00 -5.4318628493e+00 3.1360874783e+00 5.4318628493e+00 
102800 6.5150828038e+00 -2.0297418607e-03 3.1361199957e+00 -5.4319191713e+00 3.1361199957e+00 5.4319191713e+00 
102900 6.5150826232e+00 -2.0199767852e-03 3.1361523565e+00 -5.4319752218e+00 3.1361523565e+00 5.4319752218e+00 
103000 6.5150824452e+00 -2.0102551801e-03 3.1361845613e+00 -5.4320310020e+00 3.1361845613e+00 5.4320310020e+00 
103100 6.5150822696e+00 -2.0005769284e-03 3.1362166107e+00 -5.4320865133e+00 3.1362166107e+00 5.4320865133e+00 
103200 6.5150820965e+00 -1.9909419117e-03 3.1362485055e+00 -5.4321417567e+00 3.1362485055e+00 5.4321417567e+00 
103300 6.5150819259e+00 -1.9813500101e-03 3.1362802464e+00 -5.4321967335e+00 3.1362802464e+00 5.4321967335e+00 
103400 6.5150817576e+00 -1.9718011023e-03 3.1363118340e+00 -5.4322514449e+00 3.1363118340e+00 5.4322514449e+00 
103500 6.5150815918e+00 -1.9622950655e-03 3.1363432691e+00 -5.4323058921e+00 3.1363432691e+00 5.4323058921e+00 
103600 6.5150814282e+00 -1.9528317753e-03 3.1363745523e+00 -5.4323600762e+00 3.1363745523e+00 5.4323600762e+00 
103700 6.5150812670e+00 -1.9434111058e-03 3.1364056844e+00 -5.4324139985e+00 3.1364056844e+00 5.4324139985e+00 
103800 6.5150811081e+00 -1.9340329297e-03 3.1364366659e+00 -5.4324676601e+00 3.1364366659e+00 5.4324676601e+00 
103900 6.5150809515e+00 -1.9246971179e-03 3.1364674977e+00 -5.4325210622e+00 3.1364674977e+00 5.4325210622e+00 
104000 6.5150807971e+00 -1.9154035401e-03 3.1364981803e+00 -5.4325742061e+00 3.1364981803e+00 5.4325742061e+00 
104100 6.5150806449e+00 -1.9061520641e-03 3.1365287144e+00 -5.4326270928e+00 3.1365287144e+00 5.4326270928e+00 
104200 6.5150804949e+00 -1.8969425565e-03 3.1365591008e+00 -5.4326797235e+00 3.1365591008e+00 5.4326797235e+00 
104300 6.5150803470e+00 -1.8877748820e-03 3.1365893401e+00 -5.4327320995e+00 3.1365893401e+00 5.4327320995e+00 
104400 6.5150802013e+00 -1.8786489041e-03 3.1366194329e+00 -5.4327842218e+00 3.1366194329e+00 5.4327842218e+00 
104500 6.5150800577e+00 -1.8695644845e-03 3.1366493800e+00 -5.4328360917e+00 3.1366493800e+00 5.4328360917e+00 
104600 6.5150799161e+00 -1.8605214835e-03 3.1366791820e+00 -5.4328877103e+00 3.1366791820e+00 5.4328877103e+00 
104700 6.5150797767e+00 -1.8515197601e-03 3.1367088395e+00 -5.4329390786e+00 3.1367088395e+00 5.4329390786e+00 
104800 6.5150796392e+00 -1.8425591714e-03 3.1367383533e+00 -5.4329901980e+00 3.1367383533e+00 5.4329901980e+00 
104900 6.5150795038e+00 -1.8336395732e-03 3.1367677240e+00 -5.4330410695e+00 3.1367677240e+00 5.4330410695e+00 
105000 6.5150793703e+00 -1.8247608201e-03 3.1367969522e+00 -5.4330916942e+00 3.1367969522e+00 5.4330916942e+00 
105100 6.5150792389e+00 -1.8159227649e-03 3.1368260386e+00 -5.4331420734e+00 3.1368260386e+00 5.4331420734e+00 
105200 6.5150791093e+00 -1.8071252592e-03 3.1368549839e+00 -5.4331922081e+00 3.1368549839e+00 5.4331922081e+00 
105300 6.5150789816e+00 -1.7983681532e-03 3.1368837887e+00 -5.4332420994e+00 3.1368837887e+00 5.4332420994e+00 
105400 6.5150788559e+00 -1.7896512955e-03 3.1369124536e+00 -5.4332917485e+00 3.1369124536e+00 5.4332917485e+00 
105500 6.5150787320e+00 -1.7809745338e-03 3.1369409793e+00 -5.4333411565e+00 3.1369409793e+00 5.4333411565e+00 
105600 6.5150786099e+00 -1.7723377142e-03 3.1369693665e+00 -5.4333903245e+00 3.1369693665e+00 5.4333903245e+00 
105700 6.5150784897e+00 -1.7637406816e-03 3.1369976157e+00 -5.4334392537e+00 3.1369976157e+00 5.4334392537e+00 
105800 6.5150783713e+00 -1.7551832796e-03 3.1370257277e+00 -5.4334879450e+00 3.1370257277e+00 5.4334879450e+00 
105900 6.5150782546e+00 -1.7466653508e-03 3.1370537030e+00 -5.4335363997e+00 3.1370537030e+00 5.4335363997e+00 
106000 6.5150781397e+00 -1.7381867363e-03 3.1370815423e+00 -5.4335846188e+00 3.1370815423e+00 5.4335846188e+00 
106100 6.5150780265e+00 -1.7297472764e-03 3.1371092462e+00 -5.4336326034e+00 3.1371092462e+00 5.4336326034e+00 
106200 6.5150779150e+00 -1.7213468102e-03 3.1371368154e+00 -5.4336803546e+00 3.1371368154e+00 5.4336803546e+00 
106300 6.5150778053e+00 -1.7129851756e-03 3.1371642504e+00 -5.4337278735e+00 3.1371642504e+00 5.4337278735e+00 
106400 6.5150776971e+00 -1.7046622097e-03 3.1371915520e+00 -5.4337751611e+00 3.1371915520e+00 5.4337751611e+00 
106500 6.5150775907e+00 -1.6963777484e-03 3.1372187206e+00 -5.4338222186e+00 3.1372187206e+00 5.4338222186e+00 
106600 6.5150774858e+00 -1.6881316269e-03 3.1372457570e+00 -5.4338690469e+00 3.1372457570e+00 5.4338690469e+00 
106700 6.5150773826e+00 -1.6799236794e-03 3.1372726617e+00 -5.4339156473e+00 3.1372726617e+00 5.4339156473e+00 
106800 6.5150772809e+00 -1.6717537392e-03 3.1372994354e+00 -5.4339620206e+00 3.1372994354e+00 5.4339620206e+00 
106900 6.5150771808e+00 -1.6636216389e-03 3.1373260786e+00 -5.4340081681e+00 3.1373260786e+00 5.4340081681e+00 
107000 6.5150770823e+00 -1.6555272102e-03 3.1373525920e+00 -5.4340540906e+00 3.1373525920e+00 5.4340540906e+00 
107100 6.5150769853e+00 -1.6474702842e-03 3.1373789762e+00 -5.4340997894e+00 3.1373789762e+00 5.4340997894e+00 
107200 6.5150768898e+00 -1.6394506913e-03 3.1374052317e+00 -5.4341452653e+00 3.1374052317e+00 5.4341452653e+00 
107300 6.5150767957e+00 -1.6314682612e-03 3.1374313593e+00 -5.4341905195e+00 3.1374313593e+00 5.4341905195e+00 
107400 6.5150767032e+00 -1.6235228232e-03 3.1374573594e+00 -5.4342355530e+00 3.1374573594e+00 5.4342355530e+00 
107500 6.5150766121e+00 -1.6156142060e-03 3.1374832326e+00 -5.4342803668e+00 3.1374832326e+00 5.4342803668e+00 
107600 6.5150765224e+00 -1.6077422376e-03 3.1375089797e+00 -5.4343249620e+00 3.1375089797e+00 5.4343249620e+00 
107700 6.5150764342e+00 -1.5999067458e-03 3.1375346010e+00 -5.4343693394e+00 3.1375346010e+00 5.4343693394e+00 
107800 6.5150763473e+00 -1.5921075579e-03 3.1375600973e+00 -5.4344135003e+00 3.1375600973e+00 5.4344135003e+00 
107900 6.5150762618e+00 -1.5843445010e-03 3.1375854691e+00 -5.4344574455e+00 3.1375854691e+00 5.4344574455e+00 
108000 6.5150761777e+00 -1.5766174016e-03 3.1376107169e+00 -5.4345011761e+00 3.1376107169e+00 5.4345011761e+00 
108100 6.5150760949e+00 -1.5689260862e-03 3.1376358414e+00 -5.4345446930e+00 3.1376358414e+00 5.4345446930e+00 
108200 6.5150760135e+00 -1.5612703811e-03 3.1376608432e+00 -5.4345879973e+00 3.1376608432e+00 5.4345879973e+00 
108300 6.5150759333e+00 -1.5536501122e-03 3.1376857228e+00 -5.4346310900e+00 3.1376857228e+00 5.4346310900e+00 
108400 6.5150758545e+00 -1.5460651055e-03 3.1377104807e+00 -5.4346739720e+00 3.1377104807e+00 5.4346739720e+00 
108500 6.5150757769e+00 -1.5385151868e-03 3.1377351176e+00 -5.4347166443e+00 3.1377351176e+00 5.4347166443e+00 
108600 6.5150757006e+00 -1.5310001821e-03 3.1377596339e+00 -5.4347591079e+00 3.1377596339e+00 5.4347591079e+00 
108700 6.5150756255e+00 -1.5235199170e-03 3.1377840303e+00 -5.4348013637e+00 3.1377840303e+00 5.4348013637e+00 
108800 6.5150755517e+00 -1.5160742176e-03 3.1378083074e+00 -5.4348434128e+00 3.1378083074e+00 5.4348434128e+00 
108900 6.5150754790e+00 -1.5086629099e-03 3.1378324656e+00 -5.4348852560e+00 3.1378324656e+00 5.4348852560e+00 
109000 6.5150754076e+00 -1.5012858199e-03 3.1378565055e+00 -5.4349268944e+00 3.1378565055e+00 5.4349268944e+00 
109100 6.5150753373e+00 -1.4939427742e-03 3.1378804277e+00 -5.4349683288e+00 3.1378804277e+00 5.4349683288e+00 
109200 6.5150752682e+00 -1.4866335992e-03 3.1379042327e+00 -5.4350095603e+00 3.1379042327e+00 5.4350095603e+00 
109300 6.5150752003e+00 -1.4793581218e-03 3.1379279210e+00 -5.4350505897e+00 3.1379279210e+00 5.4350505897e+00 
109400 6.5150751335e+00 -1.4721161693e-03 3.1379514933e+00 -5.4350914181e+00 3.1379514933e+00 5.4350914181e+00 
109500 6.5150750678e+00 -1.4649075691e-03 3.1379749500e+00 -5.4351320462e+00 3.1379749500e+00 5.4351320462e+00 
109600 6.5150750032e+00 -1.4577321492e-03 3.1379982916e+00 -5.4351724751e+00 3.1379982916e+00 5.4351724751e+00 
109700 6.5150749397e+00 -1.4505897381e-03 3.1380215187e+00 -5.4352127057e+00 3.1380215187e+00 5.4352127057e+00 
109800 6.5150748773e+00 -1.4434801644e-03 3.1380446319e+00 -5.4352527388e+00 3.1380446319e+00 5.4352527388e+00 
109900 6.5150748159e+00 -1.4364032577e-03 3.1380676316e+00 -5.4352925755e+00 3.1380676316e+00 5.4352925755e+00 
110000 6.5150747556e+00 -1.4293588478e-03 3.1380905184e+00 -5.4353322165e+00 3.1380905184e+00 5.4353322165e+00 
110100 6.5150746963e+00 -1.4223467652e-03 3.1381132927e+00 -5.4353716629e+00 3.1381132927e+00 5.4353716629e+00 
110200 6.5150746380e+00 -1.4153668411e-03 3.1381359552e+00 -5.4354109155e+00 3.1381359552e+00 5.4354109155e+00 
110300 6.5150745808e+00 -1.4084189072e-03 3.1381585063e+00 -5.4354499751e+00 3.1381585063e+00 5.4354499751e+00 
110400 6.5150745245e+00 -1.4015027959e-03 3.1381809465e+00 -5.4354888428e+00 3.1381809465e+00 5.4354888428e+00 
110500 6.5150744692e+00 -1.3946183405e-03 3.1382032764e+00 -5.4355275193e+00 3.1382032764e+00 5.4355275193e+00 
110600 6.5150744149e+00 -1.3877653749e-03 3.1382254965e+00 -5.4355660055e+00 3.1382254965e+00 5.4355660055e+00 
110700 6.5150743615e+00 -1.3809437338e-03 3.1382476072e+00 -5.4356043023e+00 3.1382476072e+00 5.4356043023e+00 
110800 6.5150743091e+00 -1.3741532527e-03 3.1382696090e+00 -5.4356424107e+00 3.1382696090e+00 5.4356424107e+00 
110900 6.5150742576e+00 -1.3673937679e-03 3.1382915025e+00 -5.4356803313e+00 3.1382915025e+00 5.4356803313e+00 
111000 6.5150742070e+00 -1.3606651168e-03 3.1383132882e+00 -5.4357180652e+00 3.1383132882e+00 5.4357180652e+00 
111100 6.5150741573e+00 -1.3539671373e-03 3.1383349665e+00 -5.4357556132e+00 3.1383349665e+00 5.4357556132e+00 
111200 6.5150741085e+00 -1.3472996685e-03 3.1383565380e+00 -5.4357929760e+00 3.1383565380e+00 5.4357929760e+00 
111300 6.5150740606e+00 -1.3406625505e-03 3.1383780030e+00 -5.4358301546e+00 3.1383780030e+00 5.4358301546e+00 
111400 6.5150740136e+00 -1.3340556241e-03 3.1383993622e+00 -5.4358671498e+00 3.1383993622e+00 5.4358671498e+00 
111500 6.5150739674e+00 -1.3274787312e-03 3.1384206160e+00 -5.4359039624e+00 3.1384206160e+00 5.4359039624e+00 
111600 6.5150739220e+00 -1.3209317148e-03 3.1384417649e+00 -5.4359405933e+00 3.1384417649e+00 5.4359405933e+00 
111700 6.5150738775e+00 -1.3144144188e-03 3.1384628093e+00 -5.4359770433e+00 3.1384628093e+00 5.4359770433e+00 
111800 6.5150738338e+00 -1.3079266883e-03 3.1384837497e+00 -5.4360133132e+00 3.1384837497e+00 5.4360133132e+00 
111900 6.5150737909e+00 -1.3014683693e-03 3.1385045867e+00 -5.4360494039e+00 3.1385045867e+00 5.4360494039e+00 
112000 6.5150737488e+00 -1.2950393090e-03 3.1385253206e+00 -5.4360853161e+00 3.1385253206e+00 5.4360853161e+00 
112100 6.5150737075e+00 -1.2886393556e-03 3.1385459519e+00 -5.4361210506e+00 3.1385459519e+00 5.4361210506e+00 
112200 6.5150736670e+00 -1.2822683585e-03 3.1385664812e+00 -5.4361566084e+00 3.1385664812e+00 5.4361566084e+00 
112300 6.5150736272e+00 -1.2759261681e-03 3.1385869088e+00 -5.4361919901e+00 3.1385869088e+00 5.4361919901e+00 
112400 6.5150735882e+00 -1.2696126361e-03 3.1386072353e+00 -5.4362271965e+00 3.1386072353e+00 5.4362271965e+00 
112500 6.5150735500e+00 -1.2633276154e-03 3.1386274610e+00 -5.4362622286e+00 3.1386274610e+00 5.4362622286e+00 
112600 6.5150735124e+00 -1.2570709597e-03 3.1386475865e+00 -5.4362970870e+00 3.1386475865e+00 5.4362970870e+00 
112700 6.5150734756e+00 -1.2508425244e-03 3.1386676122e+00 -5.4363317725e+00 3.1386676122e+00 5.4363317725e+00 
112800 6.5150734395e+00 -1.2446421656e-03 3.1386875386e+00 -5.4363662859e+00 3.1386875386e+00 5.4363662859e+00 
112900 6.5150734041e+00 -1.2384697409e-03 3.1387073660e+00 -5.4364006281e+00 3.1387073660e+00 5.4364006281e+00 
113000 6.5150733695e+00 -1.2323251089e-03 3.1387270950e+00 -5.4364347997e+00 3.1387270950e+00 5.4364347997e+00 
113100 6.5150733354e+00 -1.2262081296e-03 3.1387467260e+00 -5.4364688016e+00 3.1387467260e+00 5.4364688016e+00 
113200 6.5150733021e+00 -1.2201186640e-03 3.1387662595e+00 -5.4365026345e+00 3.1387662595e+00 5.4365026345e+00 
113300 6.5150732694e+00 -1.2140565745e-03 3.1387856958e+00 -5.4365362991e+00 3.1387856958e+00 5.4365362991e+00 
113400 6.5150732374e+00 -1.2080217247e-03 3.1388050354e+00 -5.4365697963e+00 3.1388050354e+00 5.4365697963e+00 
113500 6.5150732060e+00 -1.2020139792e-03 3.1388242787e+00 -5.4366031268e+00 3.1388242787e+00 5.4366031268e+00 
113600 6.5150731753e+00 -1.1960332041e-03 3.1388434263e+00 -5.4366362913e+00 3.1388434263e+00 5.4366362913e+00 
113700 6.5150731452e+00 -1.1900792666e-03 3.1388624784e+00 -5.4366692906e+00 3.1388624784e+00 5.4366692906e+00 
113800 6.5150731157e+00 -1.1841520351e-03 3.1388814356e+00 -5.4367021254e+00 3.1388814356e+00 5.4367021254e+00 
113900 6.5150730868e+00 -1.1782513792e-03 3.1389002983e+00 -5.4367347965e+00 3.1389002983e+00 5.4367347965e+00 
114000 6.5150730585e+00 -1.1723771697e-03 3.1389190668e+00 -5.4367673046e+00 3.1389190668e+00 5.4367673046e+00 
114100 6.5150730308e+00 -1.1665292789e-03 3.1389377417e+00 -5.4367996504e+00 3.1389377417e+00 5.4367996504e+00 
114200 6.5150730037e+00 -1.1607075800e-03 3.1389563233e+00 -5.4368318347e+00 3.1389563233e+00 5.4368318347e+00 
114300 6.5150729772e+00 -1.1549119474e-03 3.1389748121e+00 -5.4368638582e+00 3.1389748121e+00 5.4368638582e+00 
114400 6.5150729512e+00 -1.1491422570e-03 3.1389932084e+00 -5.4368957216e+00 3.1389932084e+00 5.4368957216e+00 
114500 6.5150729258e+00 -1.1433983855e-03 3.1390115128e+00 -5.4369274256e+00 3.1390115128e+00 5.4369274256e+00 
114600 6.5150729010e+00 -1.1376802112e-03 3.1390297255e+00 -5.4369589710e+00 3.1390297255e+00 5.4369589710e+00 
114700 6.5150728767e+00 -1.1319876133e-03 3.1390478470e+00 -5.4369903584e+00 3.1390478470e+00 5.4369903584e+00 
114800 6.5150728529e+00 -1.1263204722e-03 3.1390658778e+00 -5.4370215886e+00 3.1390658778e+00 5.4370215886e+00 
114900 6.5150728296e+00 -1.1206786697e-03 3.1390838182e+00 -5.4370526623e+00 3.1390838182e+00 5.4370526623e+00 
115000 6.5150728069e+00 -1.1150620885e-03 3.1391016686e+00 -5.4370835802e+00 3.1391016686e+00 5.4370835802e+00 
115100 6.5150727847e+00 -1.1094706126e-03 3.1391194295e+00 -5.4371143429e+00 3.1391194295e+00 5.4371143429e+00 
115200 6.5150727630e+00 -1.1039041271e-03 3.1391371012e+00 -5.4371449512e+00 3.1391371012e+00 5.4371449512e+00 
115300 6.5150727417e+00 -1.0983625183e-03 3.1391546841e+00 -5.4371754057e+00 3.1391546841e+00 5.4371754057e+00 
115400 6.5150727210e+00 -1.0928456735e-03 3.1391721787e+00 -5.4372057072e+00 3.1391721787e+00 5.4372057072e+00 
115500 6.5150727007e+00 -1.0873534811e-03 3.1391895853e+00 -5.4372358563e+00 3.1391895853e+00 5.4372358563e+00 
115600 6.5150726810e+00 -1.0818858308e-03 3.1392069043e+00 -5.4372658538e+00 3.1392069043e+00 5.4372658538e+00 
115700 6.5150726617e+00 -1.0764426132e-03 3.1392241362e+00 -5.4372957002e+00 3.1392241362e+00 5.4372957002e+00 
115800 6.5150726428e+00 -1.0710237200e-03 3.1392412812e+00 -5.4373253963e+00 3.1392412812e+00 5.4373253963e+00 
115900 6.5150726244e+00 -1.0656290440e-03 3.1392583399e+00 -5.4373549428e+00 3.1392583399e+00 5.4373549428e+00 
116000 6.5150726065e+00 -1.0602584792e-03 3.1392753125e+00 -5.4373843403e+00 3.1392753125e+00 5.4373843403e+00 
116100 6.5150725889e+00 -1.0549119203e-03 3.1392921995e+00 -5.4374135894e+00 3.1392921995e+00 5.4374135894e+00 
116200 6.5150725719e+00 -1.0495892632e-03 3.1393090013e+00 -5.4374426909e+00 3.1393090013e+00 5.4374426909e+00 
116300 6.5150725552e+00 -1.0442904049e-03 3.1393257182e+00 -5.4374716454e+00 3.1393257182e+00 5.4374716454e+00 
116400 6.5150725390e+00 -1.0390152433e-03 3.1393423506e+00 -5.4375004536e+00 3.1393423506e+00 5.4375004536e+00 
116500 6.5150725232e+00 -1.0337636772e-03 3.1393588989e+00 -5.4375291161e+00 3.1393588989e+00 5.4375291161e+00 
116600 6.5150725077e+00 -1.0285356064e-03 3.1393753635e+00 -5.4375576336e+00 3.1393753635e+00 5.4375576336e+00 
116700 6.5150724927e+00 -1.0233309317e-03 3.1393917447e+00 -5.4375860068e+00 3.1393917447e+00 5.4375860068e+00 
116800 6.5150724781e+00 -1.0181495549e-03 3.1394080430e+00 -5.4376142361e+00 3.1394080430e+00 5.4376142361e+00 
116900 6.5150724639e+00 -1.0129913785e-03 3.1394242586e+00 -5.4376423225e+00 3.1394242586e+00 5.4376423225e+00 
117000 6.5150724500e+00 -1.0078563060e-03 3.1394403920e+00 -5.4376702663e+00 3.1394403920e+00 5.4376702663e+00 
117100 6.5150724366e+00 -1.0027442418e-03 3.1394564436e+00 -5.4376980684e+00 3.1394564436e+00 5.4376980684e+00 
117200 6.5150724235e+00 -9.9765509116e-04 3.1394724136e+00 -5.4377257294e+00 3.1394724136e+00 5.4377257294e+00 
117300 6.5150724107e+00 -9.9258876020e-04 3.1394883025e+00 -5.4377532498e+00 3.1394883025e+00 5.4377532498e+00 
117400 6.5150723984e+00 -9.8754515582e-04 3.1395041107e+00 -5.4377806303e+00 3.1395041107e+00 5.4377806303e+00 
117500 6.5150723863e+00 -9.8252418575e-04 3.1395198384e+00 -5.4378078715e+00 3.1395198384e+00 5.4378078715e+00 
117600 6.5150723747e+00 -9.7752575853e-04 3.1395354861e+00 -5.4378349741e+00 3.1395354861e+00 5.4378349741e+00 
117700 6.5150723633e+00 -9.7254978346e-04 3.1395510541e+00 -5.4378619387e+00 3.1395510541e+00 5.4378619387e+00 
117800 6.5150723523e+00 -9.6759617061e-04 3.1395665428e+00 -5.4378887659e+00 3.1395665428e+00 5.4378887659e+00 
117900 6.5150723417e+00 -9.6266483080e-04 3.1395819525e+00 -5.4379154563e+00 3.1395819525e+00 5.4379154563e+00 
118000 6.5150723313e+00 -9.5775567557e-04 3.1395972836e+00 -5.4379420106e+00 3.1395972836e+00 5.4379420106e+00 
118100 6.5150723213e+00 -9.5286861716e-04 3.1396125365e+00 -5.4379684293e+00 3.1396125365e+00 5.4379684293e+00 
118200 6.5150723116e+00 -9.4800356851e-04 3.1396277115e+00 -5.4379947131e+00 3.1396277115e+00 5.4379947131e+00 
118300 6.5150723022e+00 -9.4316044325e-04 3.1396428089e+00 -5.4380208626e+00 3.1396428089e+00 5.4380208626e+00 
118400 6.5150722931e+00 -9.3833915565e-04 3.1396578291e+00 -5.4380468783e+00 3.1396578291e+00 5.4380468783e+00 
118500 6.5150722843e+00 -9.3353962063e-04 3.1396727724e+00 -5.4380727609e+00 3.1396727724e+00 5.4380727609e+00 
118600 6.5150722759e+00 -9.2876175373e-04 3.1396876392e+00 -5.4380985111e+00 3.1396876392e+00 5.4380985111e+00 
118700 6.5150722677e+00 -9.2400547111e-04 3.1397024299e+00 -5.4381241293e+00 3.1397024299e+00 5.4381241293e+00 
118800 6.5150722597e+00 -9.1927068952e-04 3.1397171448e+00 -5.4381496162e+00 3.1397171448e+00 5.4381496162e+00 
118900 6.5150722521e+00 -9.1455732627e-04 3.1397317842e+00 -5.4381749724e+00 3.1397317842e+00 5.4381749724e+00 
119000 6.5150722448e+00 -9.0986529924e-04 3.1397463485e+00 -5.4382001984e+00 3.1397463485e+00 5.4382001984e+00 
119100 6.5150722377e+00 -9.0519452686e-04 3.1397608379e+00 -5.4382252949e+00 3.1397608379e+00 5.4382252949e+00 
119200 6.5150722309e+00 -9.0054492807e-04 3.1397752530e+00 -5.4382502625e+00 3.1397752530e+00 5.4382502625e+00 
119300 6.5150722243e+00 -8.9591642235e-04 3.1397895939e+00 -5.4382751017e+00 3.1397895939e+00 5.4382751017e+00 
119400 6.5150722180e+00 -8.9130892965e-04 3.1398038611e+00 -5.4382998132e+00 3.1398038611e+00 5.4382998132e+00 
119500 6.5150722120e+00 -8.8672237041e-04 3.1398180548e+00 -5.4383243974e+00 3.1398180548e+00 5.4383243974e+00 
119600 6.5150722062e+00 -8.8215666554e-04 3.1398321754e+00 -5.4383488550e+00 3.1398321754e+00 5.4383488550e+00 
119700 6.5150722006e+00 -8.7761173639e-04 3.1398462232e+00 -5.4383731866e+00 3.1398462232e+00 5.4383731866e+00 
119800 6.5150721953e+00 -8.7308750476e-04 3.1398601986e+00 -5.4383973927e+00 3.1398601986e+00 5.4383973927e+00 
119900 6.5150721903e+00 -8.6858389286e-04 3.1398741019e+00 -5.4384214739e+00 3.1398741019e+00 5.4384214739e+00 
120000 6.5150721854e+00 -8.6410082332e-04 3.1398879334e+00 -5.4384454308e+00 3.1398879334e+00 5.4384454308e+00 
120100 6.5150721808e+00 -8.5963821916e-04 3.1399016935e+00 -5.4384692639e+00 3.1399016935e+00 5.4384692639e+00 
120200 6.5150721764e+00 -8.5519600376e-04 3.1399153825e+00 -5.4384929739e+00 3.1399153825e+00 5.4384929739e+00 
120300 6.5150721723e+00 -8.5077410090e-04 3.1399290006e+00 -5.4385165612e+00 3.1399290006e+00 5.4385165612e+00 
120400 6.5150721684e+00 -8.4637243469e-04 3.1399425483e+00 -5.4385400265e+00 3.1399425483e+00 5.4385400265e+00 
120500 6.5150721646e+00 -8.4199092959e-04 3.1399560258e+00 -5.4385633702e+00 3.1399560258e+00 5.4385633702e+00 
120600 6.5150721611e+00 -8.3762951038e-04 3.1399694335e+00 -5.4385865930e+00 3.1399694335e+00 5.4385865930e+00 
120700 6.5150721578e+00 -8.3328810217e-04 3.1399827717e+00 -5.4386096955e+00 3.1399827717e+00 5.4386096955e+00 
120800 6.5150721547e+00 -8.2896663036e-04 3.1399960407e+00 -5.4386326780e+00 3.1399960407e+00 5.4386326780e+00 
120900 6.5150721518e+00 -8.2466502066e-04 3.1400092408e+00 -5.4386555413e+00 3.1400092408e+00 5.4386555413e+00 
121000 6.5150721491e+00 -8.2038319904e-04 3.1400223724e+00 -5.4386782859e+00 3.1400223724e+00 5.4386782859e+00 
121100 6.5150721466e+00 -8.1612109174e-04 3.1400354357e+00 -5.4387009123e+00 3.1400354357e+00 5.4387009123e+00 
121200 6.5150721442e+00 -8.1187862529e-04 3.1400484312e+00 -5.4387234210e+00 3.1400484312e+00 5.4387234210e+00 
121300 6.5150721421e+00 -8.0765572644e-04 3.1400613590e+00 -5.4387458126e+00 3.1400613590e+00 5.4387458126e+00 
121400 6.5150721401e+00 -8.0345232218e-04 3.1400742195e+00 -5.4387680877e+00 3.1400742195e+00 5.4387680877e+00 
121500 6.5150721383e+00 -7.9926833973e-04 3.1400870130e+00 -5.4387902468e+00 3.1400870130e+00 5.4387902468e+00 
121600 6.5150721367e+00 -7.9510370656e-04 3.1400997399e+00 -5.4388122903e+00 3.1400997399e+00 5.4388122903e+00 
121700 6.5150721353e+00 -7.9095835030e-04 3.1401124004e+00 -5.4388342189e+00 3.1401124004e+00 5.4388342189e+00 
121800 6.5150721340e+00 -7.8683219882e-04 3.1401249948e+00 -5.4388560331e+00 3.1401249948e+00 5.4388560331e+00 
121900 6.5150721329e+00 -7.8272518015e-04 3.1401375235e+00 -5.4388777335e+00 3.1401375235e+00 5.4388777335e+00 
122000 6.5150721319e+00 -7.7863722255e-04 3.1401499867e+00 -5.4388993204e+00 3.1401499867e+00 5.4388993204e+00 
122100 6.5150721312e+00 -7.7456825442e-04 3.1401623848e+00 -5.4389207946e+00 3.1401623848e+00 5.4389207946e+00 
122200 6.5150721305e+00 -7.7051820434e-04 3.1401747181e+00 -5.4389421564e+00 3.1401747181e+00 5.4389421564e+00 
122300 6.5150721300e+00 -7.6648700105e-04 3.1401869868e+00 -5.4389634064e+00 3.1401869868e+00 5.4389634064e+00 
122400 6.5150721297e+00 -7.6247457346e-04 3.1401991913e+00 -5.4389845452e+00 3.1401991913e+00 5.4389845452e+00 
122500 6.5150721295e+00 -7.5848085060e-04 3.1402113319e+00 -5.4390055733e+00 3.1402113319e+00 5.4390055733e+00 
122600 6.5150721295e+00 -7.5450576168e-04 3.1402234088e+00 -5.4390264911e+00 3.1402234088e+00 5.4390264911e+00 
122700 6.5150721296e+00 -7.5054923600e-04 3.1402354224e+00 -5.4390472992e+00 3.1402354224e+00 5.4390472992e+00 
122800 6.5150721299e+00 -7.4661120303e-04 3.1402473729e+00 -5.4390679982e+00 3.1402473729e+00 5.4390679982e+00 
122900 6.5150721302e+00 -7.4269159235e-04 3.1402592607e+00 -5.4390885884e+00 3.1402592607e+00 5.4390885884e+00 
123000 6.5150721308e+00 -7.3879033367e-04 3.1402710860e+00 -5.4391090705e+00 3.1402710860e+00 5.4391090705e+00 
123100 6.5150721314e+00 -7.3490735679e-04 3.1402828492e+00 -5.4391294449e+00 3.1402828492e+00 5.4391294449e+00 
123200 6.5150721322e+00 -7.3104259166e-04 3.1402945505e+00 -5.4391497121e+00 3.1402945505e+00 5.4391497121e+00 
123300 6.5150721331e+00 -7.2719596830e-04 3.1403061902e+00 -5.4391698727e+00 3.1403061902e+00 5.4391698727e+00 
123400 6.5150721341e+00 -7.2336741686e-04 3.1403177686e+00 -5.4391899272e+00 3.1403177686e+00 5.4391899272e+00 
123500 6.5150721352e+00 -7.1955686757e-04 3.1403292861e+00 -5.4392098759e+00 3.1403292861e+00 5.4392098759e+00 
123600 6.5150721365e+00 -7.1576425076e-04 3.1403407428e+00 -5.4392297196e+00 3.1403407428e+00 5.4392297196e+00 
123700 6.5150721379e+00 -7.1198949687e-04 3.1403521391e+00 -5.4392494585e+00 3.1403521391e+00 5.4392494585e+00 
123800 6.5150721394e+00 -7.0823253642e-04 3.1403634752e+00 -5.4392690933e+00 3.1403634752e+00 5.4392690933e+00 
123900 6.5150721410e+00 -7.0449330001e-04 3.1403747515e+00 -5.4392886244e+00 3.1403747515e+00 5.4392886244e+00 
124000 6.5150721427e+00 -7.0077171833e-04 3.1403859682e+00 -5.4393080523e+00 3.1403859682e+00 5.4393080523e+00 
124100 6.5150721445e+00 -6.9706772216e-04 3.1403971256e+00 -5.4393273775e+00 3.1403971256e+00 5.4393273775e+00 
124200 6.5150721464e+00 -6.9338124236e-04 3.1404082240e+00 -5.4393466005e+00 3.1404082240e+00 5.4393466005e+00 
124300 6.5150721485e+00 -6.8971220987e-04 3.1404192637e+00 -5.4393657218e+00 3.1404192637e+00 5.4393657218e+00 
124400 6.5150721506e+00 -6.8606055570e-04 3.1404302449e+00 -5.4393847418e+00 3.1404302449e+00 5.4393847418e+00 
124500 6.5150721528e+00 -6.8242621096e-04 3.1404411680e+00 -5.4394036611e+00 3.1404411680e+00 5.4394036611e+00 
124600 6.5150721551e+00 -6.7880910682e-04 3.1404520331e+00 -5.4394224801e+00 3.1404520331e+00 5.4394224801e+00 
124700 6.5150721575e+00 -6.7520917453e-04 3.1404628406e+00 -5.4394411992e+00 3.1404628406e+00 5.4394411992e+00 
124800 6.5150721600e+00 -6.7162634541e-04 3.1404735908e+00 -5.4394598191e+00 3.1404735908e+00 5.4394598191e+00 
124900 6.5150721626e+00 -6.6806055088e-04 3.1404842839e+00 -5.4394783400e+00 3.1404842839e+00 5.4394783400e+00 
125000 6.5150721653e+00 -6.6451172242e-04 3.1404949201e+00 -5.4394967626e+00 3.1404949201e+00 5.4394967626e+00 
125100 6.5150721681e+00 -6.6097979158e-04 3.1405054999e+00 -5.4395150872e+00 3.1405054999e+00 5.4395150872e+00 
125200 6.5150721709e+00 -6.5746469000e-04 3.1405160233e+00 -5.4395333144e+00 3.1405160233e+00 5.4395333144e+00 
125300 6.5150721738e+00 -6.5396634940e-04 3.1405264908e+00 -5.4395514446e+00 3.1405264908e+00 5.4395514446e+00 
125400 6.5150721768e+00 -6.5048470158e-04 3.1405369025e+00 -5.4395694783e+00 3.1405369025e+00 5.4395694783e+00 
125500 6.5150721799e+00 -6.4701967840e-04 3.1405472588e+00 -5.4395874158e+00 3.1405472588e+00 5.4395874158e+00 
125600 6.5150721831e+00 -6.4357121183e-04 3.1405575599e+00 -5.4396052578e+00 3.1405575599e+00 5.4396052578e+00 
125700 6.5150721863e+00 -6.4013923389e-04 3.1405678060e+00 -5.4396230046e+00 3.1405678060e+00 5.4396230046e+00 
125800 6.5150721896e+00 -6.3672367672e-04 3.1405779975e+00 -5.4396406568e+00 3.1405779975e+00 5.4396406568e+00 
125900 6.5150721930e+00 -6.3332447251e-04 3.1405881345e+00 -5.4396582147e+00 3.1405881345e+00 5.4396582147e+00 
126000 6.5150721964e+00 -6.2994155358e-04 3.1405982174e+00 -5.4396756788e+00 3.1405982174e+00 5.4396756788e+00 
126100 6.5150721999e+00 -6.2657485231e-04 3.1406082464e+00 -5.4396930495e+00 3.1406082464e+00 5.4396930495e+00 
126200 6.5150722035e+00 -6.2322430116e-04 3.1406182218e+00 -5.4397103274e+00 3.1406182218e+00 5.4397103274e+00 
126300 6.5150722071e+00 -6.1988983271e-04 3.1406281438e+00 -5.4397275128e+00 3.1406281438e+00 5.4397275128e+00 
126400 6.5150722108e+00 -6.1657137964e-04 3.1406380127e+00 -5.4397446062e+00 3.1406380127e+00 5.4397446062e+00 
126500 6.5150722146e+00 -6.1326887470e-04 3.1406478287e+00 -5.4397616081e+00 3.1406478287e+00 5.4397616081e+00 
126600 6.5150722184e+00 -6.0998225076e-04 3.1406575922e+00 -5.4397785188e+00 3.1406575922e+00 5.4397785188e+00 
126700 6.5150722223e+00 -6.0671144078e-04 3.1406673032e+00 -5.4397953389e+00 3.1406673032e+00 5.4397953389e+00 
126800 6.5150722262e+00 -6.0345637786e-04 3.1406769622e+00 -5.4398120687e+00 3.1406769622e+00 5.4398120687e+00 
126900 6.5150722302e+00 -6.0021699517e-04 3.1406865693e+00 -5.4398287087e+00 3.1406865693e+00 5.4398287087e+00 
127000 6.5150722343e+00 -5.9699322601e-04 3.1406961248e+00 -5.4398452593e+00 3.1406961248e+00 5.4398452593e+00 
127100 6.5150722383e+00 -5.9378500380e-04 3.1407056290e+00 -5.4398617210e+00 3.1407056290e+00 5.4398617210e+00 
127200 6.5150722425e+00 -5.9059226205e-04 3.1407150820e+00 -5.4398780942e+00 3.1407150820e+00 5.4398780942e+00 
127300 6.5150722467e+00 -5.8741493444e-04 3.1407244842e+00 -5.4398943793e+00 3.1407244842e+00 5.4398943793e+00 
127400 6.5150722509e+00 -5.8425295472e-04 3.1407338358e+00 -5.4399105767e+00 3.1407338358e+00 5.4399105767e+00 
127500 6.5150722552e+00 -5.8110625680e-04 3.1407431370e+00 -5.4399266869e+00 3.1407431370e+00 5.4399266869e+00 
127600 6.5150722595e+00 -5.7797477471e-04 3.1407523881e+00 -5.4399427103e+00 3.1407523881e+00 5.4399427103e+00 
127700 6.5150722639e+00 -5.7485844262e-04 3.1407615894e+00 -5.4399586472e+00 3.1407615894e+00 5.4399586472e+00 
127800 6.5150722683e+00 -5.7175719483e-04 3.1407707409e+00 -5.4399744982e+00 3.1407707409e+00 5.4399744982e+00 
127900 6.5150722727e+00 -5.6867096579e-04 3.1407798431e+00 -5.4399902637e+00 3.1407798431e+00 5.4399902637e+00 
128000 6.5150722772e+00 -5.6559969007e-04 3.1407888962e+00 -5.4400059440e+00 3.1407888962e+00 5.4400059440e+00 
128100 6.5150722817e+00 -5.6254330242e-04 3.1407979003e+00 -5.4400215396e+00 3.1407979003e+00 5.4400215396e+00 
128200 6.5150722863e+00 -5.5950173772e-04 3.1408068557e+00 -5.4400370508e+00 3.1408068557e+00 5.4400370508e+00 
128300 6.5150722909e+00 -5.5647493099e-04 3.1408157627e+00 -5.4400524781e+00 3.1408157627e+00 5.4400524781e+00 
128400 6.5150722955e+00 -5.5346281744e-04 3.1408246214e+00 -5.4400678220e+00 3.1408246214e+00 5.4400678220e+00 
128500 6.5150723002e+00 -5.5046533242e-04 3.1408334322e+00 -5.4400830827e+00 3.1408334322e+00 5.4400830827e+00 
128600 6.5150723049e+00 -5.4748241144e-04 3.1408421953e+00 -5.4400982608e+00 3.1408421953e+00 5.4400982608e+00 
128700 6.5150723096e+00 -5.4451399019e-04 3.1408509108e+00 -5.4401133565e+00 3.1408509108e+00 5.4401133565e+00 
128800 6.5150723144e+00 -5.4156000452e-04 3.1408595791e+00 -5.4401283704e+00 3.1408595791e+00 5.4401283704e+00 
128900 6.5150723192e+00 -5.3862039046e-04 3.1408682003e+00 -5.4401433028e+00 3.1408682003e+00 5.4401433028e+00 
129000 6.5150723240e+00 -5.3569508421e-04 3.1408767747e+00 -5.4401581540e+00 3.1408767747e+00 5.4401581540e+00 
129100 6.5150723288e+00 -5.3278402215e-04 3.1408853025e+00 -5.4401729246e+00 3.1408853025e+00 5.4401729246e+00 
129200 6.5150723337e+00 -5.2988714086e-04 3.1408937839e+00 -5.4401876149e+00 3.1408937839e+00 5.4401876149e+00 
129300 6.5150723386e+00 -5.2700437708e-04 3.1409022192e+00 -5.4402022253e+00 3.1409022192e+00 5.4402022253e+00 
129400 6.5150723435e+00 -5.2413566776e-04 3.1409106086e+00 -5.4402167561e+00 3.1409106086e+00 5.4402167561e+00 
129500 6.5150723484e+00 -5.2128095002e-04 3.1409189523e+00 -5.4402312078e+00 3.1409189523e+00 5.4402312078e+00 
129600 6.5150723534e+00 -5.1844016122e-04 3.1409272505e+00 -5.4402455808e+00 3.1409272505e+00 5.4402455808e+00 
129700 6.5150723583e+00 -5.1561323885e-04 3.1409355035e+00 -5.4402598753e+00 3.1409355035e+00 5.4402598753e+00 
129800 6.5150723633e+00 -5.1280012067e-04 3.1409437114e+00 -5.4402740919e+00 3.1409437114e+00 5.4402740919e+00 
129900 6.5150723684e+00 -5.1000074461e-04 3.1409518746e+00 -5.4402882309e+00 3.1409518746e+00 5.4402882309e+00 
130000 6.5150723734e+00 -5.0721504880e-04 3.1409599932e+00 -5.4403022927e+00 3.1409599932e+00 5.4403022927e+00 
130100 6.5150723784e+00 -5.0444297159e-04 3.1409680674e+00 -5.4403162777e+00 3.1409680674e+00 5.4403162777e+00 
130200 6.5150723835e+00 -5.0168445156e-04 3.1409760974e+00 -5.4403301861e+00 3.1409760974e+00 5.4403301861e+00 
130300 6.5150723886e+00 -4.9893942747e-04 3.1409840836e+00 -5.4403440185e+00 3.1409840836e+00 5.4403440185e+00 
130400 6.5150723937e+00 -4.9620783834e-04 3.1409920260e+00 -5.4403577752e+00 3.1409920260e+00 5.4403577752e+00 
130500 6.5150723988e+00 -4.9348962337e-04 3.1409999249e+00 -5.4403714565e+00 3.1409999249e+00 5.4403714565e+00 
130600 6.5150724039e+00 -4.9078472200e-04 3.1410077805e+00 -5.4403850628e+00 3.1410077805e+00 5.4403850628e+00 
130700 6.5150724090e+00 -4.8809307391e-04 3.1410155930e+00 -5.4403985945e+00 3.1410155930e+00 5.4403985945e+00 
130800 6.5150724142e+00 -4.8541461898e-04 3.1410233627e+00 -5.4404120520e+00 3.1410233627e+00 5.4404120520e+00 
130900 6.5150724193e+00 -4.8274929733e-04 3.1410310897e+00 -5.4404254356e+00 3.1410310897e+00 5.4404254356e+00 
131000 6.5150724245e+00 -4.8009704933e-04 3.1410387743e+00 -5.4404387456e+00 3.1410387743e+00 5.4404387456e+00 
131100 6.5150724297e+00 -4.7745781555e-04 3.1410464166e+00 -5.4404519825e+00 3.1410464166e+00 5.4404519825e+00 
131200 6.5150724348e+00 -4.7483153683e-04 3.1410540169e+00 -5.4404651467e+00 3.1410540169e+00 5.4404651467e+00 
131300 6.5150724400e+00 -4.7221815422e-04 3.1410615754e+00 -5.4404782383e+00 3.1410615754e+00 5.4404782383e+00 
131400 6.5150724452e+00 -4.6961760902e-04 3.1410690923e+00 -5.4404912579e+00 3.1410690923e+00 5.4404912579e+00 
131500 6.5150724504e+00 -4.6702984278e-04 3.1410765677e+00 -5.4405042058e+00 3.1410765677e+00 5.4405042058e+00 
131600 6.5150724556e+00 -4.6445479729e-04 3.1410840020e+00 -5.4405170822e+00 3.1410840020e+00 5.4405170822e+00 
131700 6.5150724608e+00 -4.6189241456e-04 3.1410913952e+00 -5.4405298877e+00 3.1410913952e+00 5.4405298877e+00 
131800 6.5150724661e+00 -4.5934263689e-04 3.1410987476e+00 -5.4405426224e+00 3.1410987476e+00 5.4405426224e+00 
131900 6.5150724713e+00 -4.5680540679e-04 3.1411060594e+00 -5.4405552869e+00 3.1411060594e+00 5.4405552869e+00 
132000 6.5150724765e+00 -4.5428066703e-04 3.1411133308e+00 -5.4405678813e+00 3.1411133308e+00 5.4405678813e+00 
132100 6.5150724817e+00 -4.5176836063e-04 3.1411205620e+00 -5.4405804062e+00 3.1411205620e+00 5.4405804062e+00 
132200 6.5150724869e+00 -4.4926843087e-04 3.1411277532e+00 -5.4405928617e+00 3.1411277532e+00 5.4405928617e+00 
132300 6.5150724922e+00 -4.4678082127e-04 3.1411349046e+00 -5.4406052483e+00 3.1411349046e+00 5.4406052483e+00 
132400 6.5150724974e+00 -4.4430547561e-04 3.1411420164e+00 -5.4406175662e+00 3.1411420164e+00 5.4406175662e+00 
132500 6.5150725026e+00 -4.4184233792e-04 3.1411490888e+00 -5.4406298159e+00 3.1411490888e+00 5.4406298159e+00 
132600 6.5150725078e+00 -4.3939135248e-04 3.1411561219e+00 -5.4406419976e+00 3.1411561219e+00 5.4406419976e+00 
132700 6.5150725131e+00 -4.3695246385e-04 3.1411631160e+00 -5.4406541118e+00 3.1411631160e+00 5.4406541118e+00 
132800 6.5150725183e+00 -4.3452561680e-04 3.1411700713e+00 -5.4406661587e+00 3.1411700713e+00 5.4406661587e+00 
132900 6.5150725235e+00 -4.3211075641e-04 3.1411769879e+00 -5.4406781386e+00 3.1411769879e+00 5.4406781386e+00 
133000 6.5150725287e+00 -4.2970782797e-04 3.1411838661e+00 -5.4406900519e+00 3.1411838661e+00 5.4406900519e+00 
133100 6.5150725339e+00 -4.2731677707e-04 3.1411907060e+00 -5.4407018990e+00 3.1411907060e+00 5.4407018990e+00 
133200 6.5150725391e+00 -4.2493754952e-04 3.1411975078e+00 -5.4407136801e+00 3.1411975078e+00 5.4407136801e+00 
133300 6.5150725443e+00 -4.2257009140e-04 3.1412042717e+00 -5.4407253956e+00 3.1412042717e+00 5.4407253956e+00 
133400 6.5150725495e+00 -4.2021434907e-04 3.1412109980e+00 -5.4407370458e+00 3.1412109980e+00 5.4407370458e+00 
133500 6.5150725547e+00 -4.1787026911e-04 3.1412176867e+00 -5.4407486310e+00 3.1412176867e+00 5.4407486310e+00 
133600 6.5150725599e+00 -4.1553779839e-04 3.1412243381e+00 -5.4407601516e+00 3.1412243381e+00 5.4407601516e+00 
133700 6.5150725651e+00 -4.1321688403e-04 3.1412309524e+00 -5.4407716079e+00 3.1412309524e+00 5.4407716079e+00 
133800 6.5150725703e+00 -4.1090747340e-04 3.1412375297e+00 -5.4407830001e+00 3.1412375297e+00 5.4407830001e+00 
133900 6.5150725755e+00 -4.0860951412e-04 3.1412440703e+00 -5.4407943287e+00 3.1412440703e+00 5.4407943287e+00 
134000 6.5150725806e+00 -4.0632295409e-04 3.1412505742e+00 -5.4408055938e+00 3.1412505742e+00 5.4408055938e+00 
134100 6.5150725858e+00 -4.0404774146e-04 3.1412570417e+00 -5.4408167959e+00 3.1412570417e+00 5.4408167959e+00 
134200 6.5150725909e+00 -4.0178382463e-04 3.1412634730e+00 -5.4408279353e+00 3.1412634730e+00 5.4408279353e+00 
134300 6.5150725960e+00 -3.9953115225e-04 3.1412698683e+00 -5.4408390122e+00 3.1412698683e+00 5.4408390122e+00 
134400 6.5150726012e+00 -3.9728967323e-04 3.1412762277e+00 -5.4408500270e+00 3.1412762277e+00 5.4408500270e+00 
134500 6.5150726063e+00 -3.9505933676e-04 3.1412825514e+00 -5.4408609799e+00 3.1412825514e+00 5.4408609799e+00 
134600 6.5150726114e+00 -3.9284009224e-04 3.1412888396e+00 -5.4408718714e+00 3.1412888396e+00 5.4408718714e+00 
134700 6.5150726165e+00 -3.9063188935e-04 3.1412950924e+00 -5.4408827017e+00 3.1412950924e+00 5.4408827017e+00 
134800 6.5150726216e+00 -3.8843467802e-04 3.1413013101e+00 -5.4408934710e+00 3.1413013101e+00 5.4408934710e+00 
134900 6.5150726267e+00 -3.8624840843e-04 3.1413074928e+00 -5.4409041798e+00 3.1413074928e+00 5.4409041798e+00 
135000 6.5150726317e+00 -3.8407303101e-04 3.1413136407e+00 -5.4409148282e+00 3.1413136407e+00 5.4409148282e+00 
135100 6.5150726368e+00 -3.8190849643e-04 3.1413197540e+00 -5.4409254167e+00 3.1413197540e+00 5.4409254167e+00 
135200 6.5150726418e+00 -3.7975475563e-04 3.1413258328e+00 -5.4409359455e+00 3.1413258328e+00 5.4409359455e+00 
135300 6.5150726469e+00 -3.7761175977e-04 3.1413318773e+00 -5.4409464149e+00 3.1413318773e+00 5.4409464149e+00 
135400 6.5150726519e+00 -3.7547946028e-04 3.1413378877e+00 -5.4409568252e+00 3.1413378877e+00 5.4409568252e+00 
135500 6.5150726569e+00 -3.7335780882e-04 3.1413438641e+00 -5.4409671766e+00 3.1413438641e+00 5.4409671766e+00 
135600 6.5150726619e+00 -3.7124675730e-04 3.1413498067e+00 -5.4409774696e+00 3.1413498067e+00 5.4409774696e+00 
135700 6.5150726668e+00 -3.6914625787e-04 3.1413557158e+00 -5.4409877043e+00 3.1413557158e+00 5.4409877043e+00 
135800 6.5150726718e+00 -3.6705626291e-04 3.1413615914e+00 -5.4409978812e+00 3.1413615914e+00 5.4409978812e+00 
135900 6.5150726768e+00 -3.6497672508e-04 3.1413674337e+00 -5.4410080004e+00 3.1413674337e+00 5.4410080004e+00 
136000 6.5150726817e+00 -3.6290759722e-04 3.1413732429e+00 -5.4410180622e+00 3.1413732429e+00 5.4410180622e+00 
136100 6.5150726866e+00 -3.6084883245e-04 3.1413790191e+00 -5.4410280670e+00 3.1413790191e+00 5.4410280670e+00 
136200 6.5150726915e+00 -3.5880038411e-04 3.1413847626e+00 -5.4410380150e+00 3.1413847626e+00 5.4410380150e+00 
136300 6.5150726964e+00 -3.5676220576e-04 3.1413904735e+00 -5.4410479065e+00 3.1413904735e+00 5.4410479065e+00 
136400 6.5150727013e+00 -3.5473425123e-04 3.1413961519e+00 -5.4410577418e+00 3.1413961519e+00 5.4410577418e+00 
136500 6.5150727062e+00 -3.5271647454e-04 3.1414017980e+00 -5.4410675211e+00 3.1414017980e+00 5.4410675211e+00 
136600 6.5150727110e+00 -3.5070882996e-04 3.1414074120e+00 -5.4410772449e+00 3.1414074120e+00 5.4410772449e+00 
136700 6.5150727158e+00 -3.4871127198e-04 3.1414129940e+00 -5.4410869132e+00 3.1414129940e+00 5.4410869132e+00 
136800 6.5150727207e+00 -3.4672375531e-04 3.1414185443e+00 -5.4410965265e+00 3.1414185443e+00 5.4410965265e+00 
136900 6.5150727255e+00 -3.4474623491e-04 3.1414240629e+00 -5.4411060850e+00 3.1414240629e+00 5.4411060850e+00 
137000 6.5150727302e+00 -3.4277866592e-04 3.1414295500e+00 -5.4411155889e+00 3.1414295500e+00 5.4411155889e+00 
137100 6.5150727350e+00 -3.4082100374e-04 3.1414350057e+00 -5.4411250386e+00 3.1414350057e+00 5.4411250386e+00 
137200 6.5150727398e+00 -3.3887320397e-04 3.1414404304e+00 -5.4411344343e+00 3.1414404304e+00 5.4411344343e+00 
137300 6.5150727445e+00 -3.3693522242e-04 3.1414458240e+00 -5.4411437763e+00 3.1414458240e+00 5.4411437763e+00 
137400 6.5150727492e+00 -3.3500701512e-04 3.1414511867e+00 -5.4411530649e+00 3.1414511867e+00 5.4411530649e+00 
137500 6.5150727539e+00 -3.3308853833e-04 3.1414565187e+00 -5.4411623002e+00 3.1414565187e+00 5.4411623002e+00 
137600 6.5150727586e+00 -3.3117974849e-04 3.1414618202e+00 -5.4411714827e+00 3.1414618202e+00 5.4411714827e+00 
137700 6.5150727632e+00 -3.2928060228e-04 3.1414670913e+00 -5.4411806125e+00 3.1414670913e+00 5.4411806125e+00 
137800 6.5150727679e+00 -3.2739105657e-04 3.1414723322e+00 -5.4411896900e+00 3.1414723322e+00 5.4411896900e+00 
137900 6.5150727725e+00 -3.2551106844e-04 3.1414775430e+00 -5.4411987153e+00 3.1414775430e+00 5.4411987153e+00 
138000 6.5150727771e+00 -3.2364059516e-04 3.1414827239e+00 -5.4412076889e+00 3.1414827239e+00 5.4412076889e+00 
138100 6.5150727817e+00 -3.2177959423e-04 3.1414878750e+00 -5.4412166108e+00 3.1414878750e+00 5.4412166108e+00 
138200 6.5150727863e+00 -3.1992802333e-04 3.1414929964e+00 -5.4412254814e+00 3.1414929964e+00 5.4412254814e+00 
138300 6.5150727908e+00 -3.1808584034e-04 3.1414980884e+00 -5.4412343010e+00 3.1414980884e+00 5.4412343010e+00 
138400 6.5150727954e+00 -3.1625300335e-04 3.1415031510e+00 -5.4412430697e+00 3.1415031510e+00 5.4412430697e+00 
138500 6.5150727999e+00 -3.1442947062e-04 3.1415081845e+00 -5.4412517879e+00 3.1415081845e+00 5.4412517879e+00 
138600 6.5150728044e+00 -3.1261520063e-04 3.1415131889e+00 -5.4412604559e+00 3.1415131889e+00 5.4412604559e+00 
138700 6.5150728089e+00 -3.1081015202e-04 3.1415181645e+00 -5.4412690738e+00 3.1415181645e+00 5.4412690738e+00 
138800 6.5150728133e+00 -3.0901428365e-04 3.1415231113e+00 -5.4412776419e+00 3.1415231113e+00 5.4412776419e+00 
138900 6.5150728178e+00 -3.0722755456e-04 3.1415280295e+00 -5.4412861605e+00 3.1415280295e+00 5.4412861605e+00 
139000 6.5150728222e+00 -3.0544992394e-04 3.1415329193e+00 -5.4412946299e+00 3.1415329193e+00 5.4412946299e+00 
139100 6.5150728266e+00 -3.0368135122e-04 3.1415377808e+00 -5.4413030502e+00 3.1415377808e+00 5.4413030502e+00 
139200 6.5150728310e+00 -3.0192179597e-04 3.1415426141e+00 -5.4413114218e+00 3.1415426141e+00 5.4413114218e+00 
139300 6.5150728354e+00 -3.0017121796e-04 3.1415474194e+00 -5.4413197448e+00 3.1415474194e+00 5.4413197448e+00 
139400 6.5150728397e+00 -2.9842957713e-04 3.1415521969e+00 -5.4413280196e+00 3.1415521969e+00 5.4413280196e+00 
139500 6.5150728440e+00 -2.9669683360e-04 3.1415569466e+00 -5.4413362464e+00 3.1415569466e+00 5.4413362464e+00 
139600 6.5150728483e+00 -2.9497294765e-04 3.1415616687e+00 -5.4413444253e+00 3.1415616687e+00 5.4413444253e+00 
139700 6.5150728526e+00 -2.9325787976e-04 3.1415663634e+00 -5.4413525568e+00 3.1415663634e+00 5.4413525568e+00 
139800 6.5150728569e+00 -2.9155159055e-04 3.1415710308e+00 -5.4413606409e+00 3.1415710308e+00 5.4413606409e+00 
139900 6.5150728611e+00 -2.8985404085e-04 3.1415756710e+00 -5.4413686780e+00 3.1415756710e+00 5.4413686780e+00 
140000 6.5150728653e+00 -2.8816519161e-04 3.1415802842e+00 -5.4413766683e+00 3.1415802842e+00 5.4413766683e+00 
140100 6.5150728696e+00 -2.8648500398e-04 3.1415848705e+00 -5.4413846120e+00 3.1415848705e+00 5.4413846120e+00 
140200 6.5150728737e+00 -2.8481343926e-04 3.1415894301e+00 -5.4413925094e+00 3.1415894301e+00 5.4413925094e+00 
140300 6.5150728779e+00 -2.8315045892e-04 3.1415939630e+00 -5.4414003607e+00 3.1415939630e+00 5.4414003607e+00 
140400 6.5150728820e+00 -2.8149602459e-04 3.1415984695e+00 -5.4414081662e+00 3.1415984695e+00 5.4414081662e+00 
140500 6.5150728862e+00 -2.7985009805e-04 3.1416029497e+00 -5.4414159260e+00 3.1416029497e+00 5.4414159260e+00 
140600 6.5150728903e+00 -2.7821264126e-04 3.1416074036e+00 -5.4414236405e+00 3.1416074036e+00 5.4414236405e+00 
140700 6.5150728944e+00 -2.7658361630e-04 3.1416118315e+00 -5.4414313098e+00 3.1416118315e+00 5.4414313098e+00 
140800 6.5150728984e+00 -2.7496298545e-04 3.1416162334e+00 -5.4414389341e+00 3.1416162334e+00 5.4414389341e+00 
140900 6.5150729025e+00 -2.7335071110e-04 3.1416206095e+00 -5.4414465138e+00 3.1416206095e+00 5.4414465138e+00 
141000 6.5150729065e+00 -2.7174675582e-04 3.1416249600e+00 -5.4414540491e+00 3.1416249600e+00 5.4414540491e+00 
141100 6.5150729105e+00 -2.7015108234e-04 3.1416292850e+00 -5.4414615401e+00 3.1416292850e+00 5.4414615401e+00 
141200 6.5150729145e+00 -2.6856365350e-04 3.1416335845e+00 -5.4414689871e+00 3.1416335845e+00 5.4414689871e+00 
141300 6.5150729184e+00 -2.6698443232e-04 3.1416378588e+00 -5.4414763904e+00 3.1416378588e+00 5.4414763904e+00 
141400 6.5150729224e+00 -2.6541338195e-04 3.1416421079e+00 -5.4414837501e+00 3.1416421079e+00 5.4414837501e+00 
141500 6.5150729263e+00 -2.6385046570e-04 3.1416463320e+00 -5.4414910665e+00 3.1416463320e+00 5.4414910665e+00 
141600 6.5150729302e+00 -2.6229564702e-04 3.1416505313e+00 -5.4414983398e+00 3.1416505313e+00 5.4414983398e+00 
141700 6.5150729340e+00 -2.6074888949e-04 3.1416547057e+00 -5.4415055702e+00 3.1416547057e+00 5.4415055702e+00 
141800 6.5150729379e+00 -2.5921015685e-04 3.1416588556e+00 -5.4415127580e+00 3.1416588556e+00 5.4415127580e+00 
141900 6.5150729417e+00 -2.5767941295e-04 3.1416629810e+00 -5.4415199033e+00 3.1416629810e+00 5.4415199033e+00 
142000 6.5150729456e+00 -2.5615662182e-04 3.1416670820e+00 -5.4415270065e+00 3.1416670820e+00 5.4415270065e+00 
142100 6.5150729493e+00 -2.5464174760e-04 3.1416711588e+00 -5.4415340676e+00 3.1416711588e+00 5.4415340676e+00 
142200 6.5150729531e+00 -2.5313475458e-04 3.1416752114e+00 -5.4415410870e+00 3.1416752114e+00 5.4415410870e+00 
142300 6.5150729569e+00 -2.5163560716e-04 3.1416792401e+00 -5.4415480649e+00 3.1416792401e+00 5.4415480649e+00 
142400 6.5150729606e+00 -2.5014426992e-04 3.1416832449e+00 -5.4415550014e+00 3.1416832449e+00 5.4415550014e+00 
142500 6.5150729643e+00 -2.4866070752e-04 3.1416872259e+00 -5.4415618968e+00 3.1416872259e+00 5.4415618968e+00 
142600 6.5150729680e+00 -2.4718488480e-04 3.1416911833e+00 -5.4415687513e+00 3.1416911833e+00 5.4415687513e+00 
142700 6.5150729717e+00 -2.4571676671e-04 3.1416951173e+00 -5.4415755650e+00 3.1416951173e+00 5.4415755650e+00 
142800 6.5150729753e+00 -2.4425631832e-04 3.1416990279e+00 -5.4415823384e+00 3.1416990279e+00 5.4415823384e+00 
142900 6.5150729790e+00 -2.4280350485e-04 3.1417029152e+00 -5.4415890714e+00 3.1417029152e+00 5.4415890714e+00 
143000 6.5150729826e+00 -2.4135829163e-04 3.1417067794e+00 -5.4415957644e+00 3.1417067794e+00 5.4415957644e+00 
143100 6.5150729861e+00 -2.3992064414e-04 3.1417106206e+00 -5.4416024176e+00 3.1417106206e+00 5.4416024176e+00 
143200 6.5150729897e+00 -2.3849052797e-04 3.1417144389e+00 -5.4416090311e+00 3.1417144389e+00 5.4416090311e+00 
143300 6.5150729933e+00 -2.3706790884e-04 3.1417182345e+00 -5.4416156052e+00 3.1417182345e+00 5.4416156052e+00 
143400 6.5150729968e+00 -2.3565275259e-04 3.1417220074e+00 -5.4416221400e+00 3.1417220074e+00 5.4416221400e+00 
143500 6.5150730003e+00 -2.3424502520e-04 3.1417257577e+00 -5.4416286359e+00 3.1417257577e+00 5.4416286359e+00 
143600 6.5150730038e+00 -2.3284469275e-04 3.1417294857e+00 -5.4416350929e+00 3.1417294857e+00 5.4416350929e+00 
143700 6.5150730072e+00 -2.3145172147e-04 3.1417331914e+00 -5.4416415113e+00 3.1417331914e+00 5.4416415113e+00 
143800 6.5150730107e+00 -2.3006607770e-04 3.1417368749e+00 -5.4416478913e+00 3.1417368749e+00 5.4416478913e+00 
143900 6.5150730141e+00 -2.2868772789e-04 3.1417405363e+00 -5.4416542331e+00 3.1417405363e+00 5.4416542331e+00 
144000 6.5150730175e+00 -2.2731663863e-04 3.1417441759e+00 -5.4416605370e+00 3.1417441759e+00 5.4416605370e+00 
144100 6.5150730209e+00 -2.2595277662e-04 3.1417477935e+00 -5.4416668030e+00 3.1417477935e+00 5.4416668030e+00 
144200 6.5150730242e+00 -2.2459610868e-04 3.1417513895e+00 -5.4416730314e+00 3.1417513895e+00 5.4416730314e+00 
144300 6.5150730276e+00 -2.2324660175e-04 3.1417549639e+00 -5.4416792224e+00 3.1417549639e+00 5.4416792224e+00 
144400 6.5150730309e+00 -2.2190422289e-04 3.1417585168e+00 -5.4416853762e+00 3.1417585168e+00 5.4416853762e+00 
144500 6.5150730342e+00 -2.2056893927e-04 3.1417620483e+00 -5.4416914930e+00 3.1417620483e+00 5.4416914930e+00 
144600 6.5150730375e+00 -2.1924071820e-04 3.1417655586e+00 -5.4416975729e+00 3.1417655586e+00 5.4416975729e+00 
144700 6.5150730407e+00 -2.1791952709e-04 3.1417690477e+00 -5.4417036163e+00 3.1417690477e+00 5.4417036163e+00 
144800 6.5150730440e+00 -2.1660533346e-04 3.1417725158e+00 -5.4417096232e+00 3.1417725158e+00 5.4417096232e+00 
144900 6.5150730472e+00 -2.1529810496e-04 3.1417759630e+00 -5.4417155939e+00 3.1417759630e+00 5.4417155939e+00 
145000 6.5150730504e+00 -2.1399780935e-04 3.1417793894e+00 -5.4417215286e+00 3.1417793894e+00 5.4417215286e+00 
145100 6.5150730536e+00 -2.1270441450e-04 3.1417827951e+00 -5.4417274274e+00 3.1417827951e+00 5.4417274274e+00 
145200 6.5150730567e+00 -2.1141788840e-04 3.1417861802e+00 -5.4417332905e+00 3.1417861802e+00 5.4417332905e+00 
145300 6.5150730599e+00 -2.1013819917e-04 3.1417895448e+00 -5.4417391182e+00 3.1417895448e+00 5.4417391182e+00 
145400 6.5150730630e+00 -2.0886531502e-04 3.1417928890e+00 -5.4417449106e+00 3.1417928890e+00 5.4417449106e+00 
145500 6.5150730661e+00 -2.0759920428e-04 3.1417962130e+00 -5.4417506679e+00 3.1417962130e+00 5.4417506679e+00 
145600 6.5150730692e+00 -2.0633983540e-04 3.1417995168e+00 -5.4417563903e+00 3.1417995168e+00 5.4417563903e+00 
145700 6.5150730722e+00 -2.0508717694e-04 3.1418028006e+00 -5.4417620780e+00 3.1418028006e+00 5.4417620780e+00 
145800 6.5150730753e+00 -2.0384119757e-04 3.1418060645e+00 -5.4417677312e+00 3.1418060645e+00 5.4417677312e+00 
145900 6.5150730783e+00 -2.0260186608e-04 3.1418093085e+00 -5.4417733500e+00 3.1418093085e+00 5.4417733500e+00 
146000 6.5150730813e+00 -2.0136915137e-04 3.1418125328e+00 -5.4417789346e+00 3.1418125328e+00 5.4417789346e+00 
146100 6.5150730843e+00 -2.0014302244e-04 3.1418157374e+00 -5.4417844852e+00 3.1418157374e+00 5.4417844852e+00 
146200 6.5150730873e+00 -1.9892344842e-04 3.1418189226e+00 -5.4417900021e+00 3.1418189226e+00 5.4417900021e+00 
146300 6.5150730902e+00 -1.9771039854e-04 3.1418220883e+00 -5.4417954853e+00 3.1418220883e+00 5.4417954853e+00 
146400 6.5150730931e+00 -1.9650384215e-04 3.1418252347e+00 -5.4418009351e+00 3.1418252347e+00 5.4418009351e+00 
146500 6.5150730960e+00 -1.9530374870e-04 3.1418283620e+00 -5.4418063516e+00 3.1418283620e+00 5.4418063516e+00 
146600 6.5150730989e+00 -1.9411008777e-04 3.1418314701e+00 -5.4418117350e+00 3.1418314701e+00 5.4418117350e+00 
146700 6.5150731018e+00 -1.9292282903e-04 3.1418345592e+00 -5.4418170855e+00 3.1418345592e+00 5.4418170855e+00 
146800 6.5150731046e+00 -1.9174194226e-04 3.1418376294e+00 -5.4418224033e+00 3.1418376294e+00 5.4418224033e+00 
146900 6.5150731075e+00 -1.9056739738e-04 3.1418406809e+00 -5.4418276885e+00 3.1418406809e+00 5.4418276885e+00 
147000 6.5150731103e+00 -1.8939916439e-04 3.1418437136e+00 -5.4418329414e+00 3.1418437136e+00 5.4418329414e+00 
147100 6.5150731131e+00 -1.8823721342e-04 3.1418467277e+00 -5.4418381620e+00 3.1418467277e+00 5.4418381620e+00 
147200 6.5150731158e+00 -1.8708151469e-04 3.1418497234e+00 -5.4418433507e+00 3.1418497234e+00 5.4418433507e+00 
147300 6.5150731186e+00 -1.8593203854e-04 3.1418527006e+00 -5.4418485074e+00 3.1418527006e+00 5.4418485074e+00 
147400 6.5150731213e+00 -1.8478875544e-04 3.1418556596e+00 -5.4418536325e+00 3.1418556596e+00 5.4418536325e+00 
147500 6.5150731241e+00 -1.8365163593e-04 3.1418586004e+00 -5.4418587260e+00 3.1418586004e+00 5.4418587260e+00 
147600 6.5150731268e+00 -1.8252065070e-04 3.1418615230e+00 -5.4418637882e+00 3.1418615230e+00 5.4418637882e+00 
147700 6.5150731294e+00 -1.8139577053e-04 3.1418644277e+00 -5.4418688192e+00 3.1418644277e+00 5.4418688192e+00 
147800 6.5150731321e+00 -1.8027696630e-04 3.1418673144e+00 -5.4418738192e+00 3.1418673144e+00 5.4418738192e+00 
147900 6.5150731347e+00 -1.7916420902e-04 3.1418701834e+00 -5.4418787884e+00 3.1418701834e+00 5.4418787884e+00 
148000 6.5150731374e+00 -1.7805746980e-04 3.1418730346e+00 -5.4418837269e+00 3.1418730346e+00 5.4418837269e+00 
148100 6.5150731400e+00 -1.7695671986e-04 3.1418758682e+00 -5.4418886348e+00 3.1418758682e+00 5.4418886348e+00 
148200 6.5150731426e+00 -1.7586193054e-04 3.1418786843e+00 -5.4418935125e+00 3.1418786843e+00 5.4418935125e+00 
148300 6.5150731451e+00 -1.7477307326e-04 3.1418814830e+00 -5.4418983599e+00 3.1418814830e+00 5.4418983599e+00 
148400 6.5150731477e+00 -1.7369011958e-04 3.1418842644e+00 -5.4419031774e+00 3.1418842644e+00 5.4419031774e+00 
148500 6.5150731502e+00 -1.7261304115e-04 3.1418870285e+00 -5.4419079649e+00 3.1418870285e+00 5.4419079649e+00 
148600 6.5150731527e+00 -1.7154180975e-04 3.1418897754e+00 -5.4419127228e+00 3.1418897754e+00 5.4419127228e+00 
148700 6.5150731552e+00 -1.7047639725e-04 3.1418925053e+00 -5.4419174512e+00 3.1418925053e+00 5.4419174512e+00 
148800 6.5150731577e+00 -1.6941677564e-04 3.1418952183e+00 -5.4419221501e+00 3.1418952183e+00 5.4419221501e+00 
148900 6.5150731602e+00 -1.6836291701e-04 3.1418979144e+00 -5.4419268199e+00 3.1418979144e+00 5.4419268199e+00 
149000 6.5150731626e+00 -1.6731479357e-04 3.1419005937e+00 -5.4419314606e+00 3.1419005937e+00 5.4419314606e+00 
149100 6.5150731651e+00 -1.6627237763e-04 3.1419032563e+00 -5.4419360725e+00 3.1419032563e+00 5.4419360725e+00 
149200 6.5150731675e+00 -1.6523564161e-04 3.1419059024e+00 -5.4419406555e+00 3.1419059024e+00 5.4419406555e+00 
149300 6.5150731699e+00 -1.6420455804e-04 3.1419085319e+00 -5.4419452100e+00 3.1419085319e+00 5.4419452100e+00 
149400 6.5150731723e+00 -1.6317909957e-04 3.1419111451e+00 -5.4419497361e+00 3.1419111451e+00 5.4419497361e+00 
149500 6.5150731746e+00 -1.6215923894e-04 3.1419137419e+00 -5.4419542339e+00 3.1419137419e+00 5.4419542339e+00 
149600 6.5150731770e+00 -1.6114494901e-04 3.1419163225e+00 -5.4419587036e+00 3.1419163225e+00 5.4419587036e+00 
149700 6.5150731793e+00 -1.6013620275e-04 3.1419188869e+00 -5.4419631454e+00 3.1419188869e+00 5.4419631454e+00 
149800 6.5150731816e+00 -1.5913297323e-04 3.1419214353e+00 -5.4419675593e+00 3.1419214353e+00 5.4419675593e+00 
149900 6.5150731839e+00 -1.5813523364e-04 3.1419239677e+00 -5.4419719456e+00 3.1419239677e+00 5.4419719456e+00 
150000 6.5150731862e+00 -1.5714295727e-04 3.1419264842e+00 -5.4419763043e+00 3.1419264842e+00 5.4419763043e+00 
150100 6.5150731884e+00 -1.5615611752e-04 3.1419289850e+00 -5.4419806358e+00 3.1419289850e+00 5.4419806358e+00 
150200 6.5150731907e+00 -1.5517468790e-04 3.1419314700e+00 -5.4419849400e+00 3.1419314700e+00 5.4419849400e+00 
150300 6.5150731929e+00 -1.5419864203e-04 3.1419339394e+00 -5.4419892171e+00 3.1419339394e+00 5.4419892171e+00 
150400 6.5150731951e+00 -1.5322795364e-04 3.1419363933e+00 -5.4419934674e+00 3.1419363933e+00 5.4419934674e+00 
150500 6.5150731973e+00 -1.5226259654e-04 3.1419388317e+00 -5.4419976909e+00 3.1419388317e+00 5.4419976909e+00 
150600 6.5150731995e+00 -1.5130254471e-04 3.1419412548e+00 -5.4420018877e+00 3.1419412548e+00 5.4420018877e+00 
150700 6.5150732017e+00 -1.5034777218e-04 3.1419436626e+00 -5.4420060581e+00 3.1419436626e+00 5.4420060581e+00 
150800 6.5150732038e+00 -1.4939825310e-04 3.1419460552e+00 -5.4420102022e+00 3.1419460552e+00 5.4420102022e+00 
150900 6.5150732060e+00 -1.4845396176e-04 3.1419484327e+00 -5.4420143201e+00 3.1419484327e+00 5.4420143201e+00 
151000 6.5150732081e+00 -1.4751487251e-04 3.1419507951e+00 -5.4420184120e+00 3.1419507951e+00 5.4420184120e+00 
151100 6.5150732102e+00 -1.4658095985e-04 3.1419531426e+00 -5.4420224780e+00 3.1419531426e+00 5.4420224780e+00 
151200 6.5150732123e+00 -1.4565219836e-04 3.1419554753e+00 -5.4420265183e+00 3.1419554753e+00 5.4420265183e+00 
151300 6.5150732143e+00 -1.4472856274e-04 3.1419577931e+00 -5.4420305329e+00 3.1419577931e+00 5.4420305329e+00 
151400 6.5150732164e+00 -1.4381002779e-04 3.1419600963e+00 -5.4420345221e+00 3.1419600963e+00 5.4420345221e+00 
151500 6.5150732184e+00 -1.4289656842e-04 3.1419623848e+00 -5.4420384860e+00 3.1419623848e+00 5.4420384860e+00 
151600 6.5150732204e+00 -1.4198815966e-04 3.1419646588e+00 -5.4420424247e+00 3.1419646588e+00 5.4420424247e+00 
151700 6.5150732224e+00 -1.4108477662e-04 3.1419669184e+00 -5.4420463383e+00 3.1419669184e+00 5.4420463383e+00 
151800 6.5150732244e+00 -1.4018639455e-04 3.1419691635e+00 -5.4420502271e+00 3.1419691635e+00 5.4420502271e+00 
151900 6.5150732264e+00 -1.3929298876e-04 3.1419713944e+00 -5.4420540910e+00 3.1419713944e+00 5.4420540910e+00 
152000 6.5150732284e+00 -1.3840453472e-04 3.1419736111e+00 -5.4420579304e+00 3.1419736111e+00 5.4420579304e+00 
152100 6.5150732303e+00 -1.3752100797e-04 3.1419758136e+00 -5.4420617453e+00 3.1419758136e+00 5.4420617453e+00 
152200 6.5150732323e+00 -1.3664238417e-04 3.1419780020e+00 -5.4420655358e+00 3.1419780020e+00 5.4420655358e+00 
152300 6.5150732342e+00 -1.3576863908e-04 3.1419801765e+00 -5.4420693020e+00 3.1419801765e+00 5.4420693020e+00 
152400 6.5150732361e+00 -1.3489974856e-04 3.1419823370e+00 -5.4420730442e+00 3.1419823370e+00 5.4420730442e+00 
152500 6.5150732380e+00 -1.3403568860e-04 3.1419844838e+00 -5.4420767625e+00 3.1419844838e+00 5.4420767625e+00 
152600 6.5150732399e+00 -1.3317643526e-04 3.1419866167e+00 -5.4420804569e+00 3.1419866167e+00 5.4420804569e+00 
152700 6.5150732417e+00 -1.3232196475e-04 3.1419887361e+00 -5.4420841276e+00 3.1419887361e+00 5.4420841276e+00 
152800 6.5150732436e+00 -1.3147225333e-04 3.1419908418e+00 -5.4420877748e+00 3.1419908418e+00 5.4420877748e+00 
152900 6.5150732454e+00 -1.3062727742e-04 3.1419929339e+00 -5.4420913986e+00 3.1419929339e+00 5.4420913986e+00 
153000 6.5150732472e+00 -1.2978701349e-04 3.1419950127e+00 -5.4420949991e+00 3.1419950127e+00 5.4420949991e+00 
153100 6.5150732490e+00 -1.2895143816e-04 3.1419970780e+00 -5.4420985764e+00 3.1419970780e+00 5.4420985764e+00 
153200 6.5150732508e+00 -1.2812052814e-04 3.1419991301e+00 -5.4421021307e+00 3.1419991301e+00 5.4421021307e+00 
153300 6.5150732526e+00 -1.2729426022e-04 3.1420011689e+00 -5.4421056620e+00 3.1420011689e+00 5.4421056620e+00 
153400 6.5150732543e+00 -1.2647261133e-04 3.1420031946e+00 -5.4421091706e+00 3.1420031946e+00 5.4421091706e+00 
153500 6.5150732561e+00 -1.2565555847e-04 3.1420052072e+00 -5.4421126566e+00 3.1420052072e+00 5.4421126566e+00 
153600 6.5150732578e+00 -1.2484307878e-04 3.1420072068e+00 -5.4421161200e+00 3.1420072068e+00 5.4421161200e+00 
153700 6.5150732595e+00 -1.2403514946e-04 3.1420091935e+00 -5.4421195610e+00 3.1420091935e+00 5.4421195610e+00 
153800 6.5150732612e+00 -1.2323174785e-04 3.1420111673e+00 -5.4421229798e+00 3.1420111673e+00 5.4421229798e+00 
153900 6.5150732629e+00 -1.2243285136e-04 3.1420131284e+00 -5.4421263764e+00 3.1420131284e+00 5.4421263764e+00 
154000 6.5150732646e+00 -1.2163843753e-04 3.1420150767e+00 -5.4421297510e+00 3.1420150767e+00 5.4421297510e+00 
154100 6.5150732663e+00 -1.2084848398e-04 3.1420170124e+00 -5.4421331037e+00 3.1420170124e+00 5.4421331037e+00 
154200 6.5150732679e+00 -1.2006296845e-04 3.1420189355e+00 -5.4421364346e+00 3.1420189355e+00 5.4421364346e+00 
154300 6.5150732696e+00 -1.1928186876e-04 3.1420208461e+00 -5.4421397438e+00 3.1420208461e+00 5.4421397438e+00 
154400 6.5150732712e+00 -1.1850516285e-04 3.1420227442e+00 -5.4421430316e+00 3.1420227442e+00 5.4421430316e+00 
154500 6.5150732728e+00 -1.1773282875e-04 3.1420246300e+00 -5.4421462979e+00 3.1420246300e+00 5.4421462979e+00 
154600 6.5150732744e+00 -1.1696484459e-04 3.1420265036e+00 -5.4421495429e+00 3.1420265036e+00 5.4421495429e+00 
154700 6.5150732760e+00 -1.1620118860e-04 3.1420283649e+00 -5.4421527668e+00 3.1420283649e+00 5.4421527668e+00 
154800 6.5150732776e+00 -1.1544183911e-04 3.1420302140e+00 -5.4421559696e+00 3.1420302140e+00 5.4421559696e+00 
154900 6.5150732792e+00 -1.1468677455e-04 3.1420320511e+00 -5.4421591515e+00 3.1420320511e+00 5.4421591515e+00 
155000 6.5150732807e+00 -1.1393597345e-04 3.1420338761e+00 -5.4421623125e+00 3.1420338761e+00 5.4421623125e+00 
155100 6.5150732822e+00 -1.1318941443e-04 3.1420356892e+00 -5.4421654529e+00 3.1420356892e+00 5.4421654529e+00 
155200 6.5150732838e+00 -1.1244707622e-04 3.1420374904e+00 -5.4421685727e+00 3.1420374904e+00 5.4421685727e+00 
155300 6.5150732853e+00 -1.1170893764e-04 3.1420392798e+00 -5.4421716720e+00 3.1420392798e+00 5.4421716720e+00 
155400 6.5150732868e+00 -1.1097497760e-04 3.1420410575e+00 -5.4421747510e+00 3.1420410575e+00 5.4421747510e+00 
155500 6.5150732883e+00 -1.1024517513e-04 3.1420428234e+00 -5.4421778097e+00 3.1420428234e+00 5.4421778097e+00 
155600 6.5150732897e+00 -1.0951950933e-04 3.1420445778e+00 -5.4421808484e+00 3.1420445778e+00 5.4421808484e+00 
155700 6.5150732912e+00 -1.0879795941e-04 3.1420463206e+00 -5.4421838670e+00 3.1420463206e+00 5.4421838670e+00 
155800 6.5150732927e+00 -1.0808050468e-04 3.1420480519e+00 -5.4421868657e+00 3.1420480519e+00 5.4421868657e+00 
155900 6.5150732941e+00 -1.0736712453e-04 3.1420497718e+00 -5.4421898447e+00 3.1420497718e+00 5.4421898447e+00 
156000 6.5150732955e+00 -1.0665779846e-04 3.1420514804e+00 -5.4421928040e+00 3.1420514804e+00 5.4421928040e+00 
156100 6.5150732970e+00 -1.0595250605e-04 3.1420531776e+00 -5.4421957437e+00 3.1420531776e+00 5.4421957437e+00 
156200 6.5150732984e+00 -1.0525122699e-04 3.1420548637e+00 -5.4421986641e+00 3.1420548637e+00 5.4421986641e+00 
156300 6.5150732998e+00 -1.0455394105e-04 3.1420565386e+00 -5.4422015650e+00 3.1420565386e+00 5.4422015650e+00 
156400 6.5150733011e+00 -1.0386062810e-04 3.1420582023e+00 -5.4422044468e+00 3.1420582023e+00 5.4422044468e+00 
156500 6.5150733025e+00 -1.0317126811e-04 3.1420598551e+00 -5.4422073094e+00 3.1420598551e+00 5.4422073094e+00 
156600 6.5150733039e+00 -1.0248584112e-04 3.1420614969e+00 -5.4422101531e+00 3.1420614969e+00 5.4422101531e+00 
156700 6.5150733052e+00 -1.0180432729e-04 3.1420631277e+00 -5.4422129778e+00 3.1420631277e+00 5.4422129778e+00 
156800 6.5150733066e+00 -1.0112670686e-04 3.1420647478e+00 -5.4422157838e+00 3.1420647478e+00 5.4422157838e+00 
156900 6.5150733079e+00 -1.0045296014e-04 3.1420663570e+00 -5.4422185711e+00 3.1420663570e+00 5.4422185711e+00 
157000 6.5150733092e+00 -9.9783067578e-05 3.1420679555e+00 -5.4422213398e+00 3.1420679555e+00 5.4422213398e+00 
157100 6.5150733105e+00 -9.9117009666e-05 3.1420695434e+00 -5.4422240900e+00 3.1420695434e+00 5.4422240900e+00 
157200 6.5150733118e+00 -9.8454767015e-05 3.1420711206e+00 -5.4422268219e+00 3.1420711206e+00 5.4422268219e+00 
157300 6.5150733131e+00 -9.7796320309e-05 3.1420726873e+00 -5.4422295356e+00 3.1420726873e+00 5.4422295356e+00 
157400 6.5150733144e+00 -9.7141650333e-05 3.1420742436e+00 -5.4422322310e+00 3.1420742436e+00 5.4422322310e+00 
157500 6.5150733156e+00 -9.6490737959e-05 3.1420757894e+00 -5.4422349085e+00 3.1420757894e+00 5.4422349085e+00 
157600 6.5150733169e+00 -9.5843564140e-05 3.1420773249e+00 -5.4422375680e+00 3.1420773249e+00 5.4422375680e+00 
157700 6.5150733181e+00 -9.5200109926e-05 3.1420788500e+00 -5.4422402096e+00 3.1420788500e+00 5.4422402096e+00 
157800 6.5150733193e+00 -9.4560356446e-05 3.1420803650e+00 -5.4422428336e+00 3.1420803650e+00 5.4422428336e+00 
157900 6.5150733206e+00 -9.3924284926e-05 3.1420818697e+00 -5.4422454398e+00 3.1420818697e+00 5.4422454398e+00 
158000 6.5150733218e+00 -9.3291876669e-05 3.1420833643e+00 -5.4422480286e+00 3.1420833643e+00 5.4422480286e+00 
158100 6.5150733230e+00 -9.2663113075e-05 3.1420848489e+00 -5.4422505999e+00 3.1420848489e+00 5.4422505999e+00 
158200 6.5150733242e+00 -9.2037975616e-05 3.1420863234e+00 -5.4422531539e+00 3.1420863234e+00 5.4422531539e+00 
158300 6.5150733253e+00 -9.1416445864e-05 3.1420877880e+00 -5.4422556907e+00 3.1420877880e+00 5.4422556907e+00 
158400 6.5150733265e+00 -9.0798505468e-05 3.1420892427e+00 -5.4422582103e+00 3.1420892427e+00 5.4422582103e+00 
158500 6.5150733277e+00 -9.0184136163e-05 3.1420906876e+00 -5.4422607129e+00 3.1420906876e+00 5.4422607129e+00 
158600 6.5150733288e+00 -8.9573319769e-05 3.1420921227e+00 -5.4422631986e+00 3.1420921227e+00 5.4422631986e+00 
158700 6.5150733300e+00 -8.8966038188e-05 3.1420935481e+00 -5.4422656674e+00 3.1420935481e+00 5.4422656674e+00 
158800 6.5150733311e+00 -8.8362273410e-05 3.1420949638e+00 -5.4422681195e+00 3.1420949638e+00 5.4422681195e+00 
158900 6.5150733322e+00 -8.7762007509e-05 3.1420963699e+00 -5.4422705549e+00 3.1420963699e+00 5.4422705549e+00 
159000 6.5150733333e+00 -8.7165222628e-05 3.1420977664e+00 -5.4422729738e+00 3.1420977664e+00 5.4422729738e+00 
159100 6.5150733344e+00 -8.6571901012e-05 3.1420991535e+00 -5.4422753763e+00 3.1420991535e+00 5.4422753763e+00 
159200 6.5150733355e+00 -8.5982024972e-05 3.1421005311e+00 -5.4422777624e+00 3.1421005311e+00 5.4422777624e+00 
159300 6.5150733366e+00 -8.5395576911e-05 3.1421018993e+00 -5.4422801322e+00 3.1421018993e+00 5.4422801322e+00 
159400 6.5150733377e+00 -8.4812539305e-05 3.1421032582e+00 -5.4422824859e+00 3.1421032582e+00 5.4422824859e+00 
159500 6.5150733387e+00 -8.4232894717e-05 3.1421046078e+00 -5.4422848235e+00 3.1421046078e+00 5.4422848235e+00 
159600 6.5150733398e+00 -8.3656625786e-05 3.1421059482e+00 -5.4422871451e+00 3.1421059482e+00 5.4422871451e+00 
159700 6.5150733408e+00 -8.3083715234e-05 3.1421072795e+00 -5.4422894508e+00 3.1421072795e+00 5.4422894508e+00 
159800 6.5150733419e+00 -8.2514145858e-05 3.1421086016e+00 -5.4422917408e+00 3.1421086016e+00 5.4422917408e+00 
159900 6.5150733429e+00 -8.1947900536e-05 3.1421099146e+00 -5.4422940150e+00 3.1421099146e+00 5.4422940150e+00 
160000 6.5150733439e+00 -8.1384962234e-05 3.1421112186e+00 -5.4422962737e+00 3.1421112186e+00 5.4422962737e+00 
160100 6.5150733449e+00 -8.0825313980e-05 3.1421125137e+00 -5.4422985168e+00 3.1421125137e+00 5.4422985168e+00 
160200 6.5150733459e+00 -8.0268938889e-05 3.1421137998e+00 -5.4423007445e+00 3.1421137998e+00 5.4423007445e+00 
160300 6.5150733469e+00 -7.9715820153e-05 3.1421150772e+00 -5.4423029569e+00 3.1421150772e+00 5.4423029569e+00 
160400 6.5150733479e+00 -7.9165941041e-05 3.1421163457e+00 -5.4423051540e+00 3.1421163457e+00 5.4423051540e+00 
160500 6.5150733489e+00 -7.8619284892e-05 3.1421176054e+00 -5.4423073359e+00 3.1421176054e+00 5.4423073359e+00 
160600 6.5150733498e+00 -7.8075835134e-05 3.1421188565e+00 -5.4423095028e+00 3.1421188565e+00 5.4423095028e+00 
160700 6.5150733508e+00 -7.7535575264e-05 3.1421200989e+00 -5.4423116547e+00 3.1421200989e+00 5.4423116547e+00 
160800 6.5150733517e+00 -7.6998488851e-05 3.1421213327e+00 -5.4423137918e+00 3.1421213327e+00 5.4423137918e+00 
160900 6.5150733527e+00 -7.6464559545e-05 3.1421225580e+00 -5.4423159140e+00 3.1421225580e+00 5.4423159140e+00 
161000 6.5150733536e+00 -7.5933771066e-05 3.1421237747e+00 -5.4423180215e+00 3.1421237747e+00 5.4423180215e+00 
161100 6.5150733545e+00 -7.5406107212e-05 3.1421249830e+00 -5.4423201144e+00 3.1421249830e+00 5.4423201144e+00 
161200 6.5150733555e+00 -7.4881551857e-05 3.1421261830e+00 -5.4423221927e+00 3.1421261830e+00 5.4423221927e+00 
161300 6.5150733564e+00 -7.4360088944e-05 3.1421273745e+00 -5.4423242565e+00 3.1421273745e+00 5.4423242565e+00 
161400 6.5150733573e+00 -7.3841702488e-05 3.1421285578e+00 -5.4423263060e+00 3.1421285578e+00 5.4423263060e+00 
161500 6.5150733582e+00 -7.3326376585e-05 3.1421297328e+00 -5.4423283412e+00 3.1421297328e+00 5.4423283412e+00 
161600 6.5150733590e+00 -7.2814095394e-05 3.1421308997e+00 -5.4423303623e+00 3.1421308997e+00 5.4423303623e+00 
161700 6.5150733599e+00 -7.2304843155e-05 3.1421320583e+00 -5.4423323691e+00 3.1421320583e+00 5.4423323691e+00 
161800 6.5150733608e+00 -7.1798604177e-05 3.1421332089e+00 -5.4423343620e+00 3.1421332089e+00 5.4423343620e+00 
161900 6.5150733616e+00 -7.1295362834e-05 3.1421343514e+00 -5.4423363409e+00 3.1421343514e+00 5.4423363409e+00 
162000 6.5150733625e+00 -7.0795103579e-05 3.1421354859e+00 -5.4423383059e+00 3.1421354859e+00 5.4423383059e+00 
162100 6.5150733633e+00 -7.0297810934e-05 3.1421366125e+00 -5.4423402571e+00 3.1421366125e+00 5.4423402571e+00 
162200 6.5150733642e+00 -7.0480349322e-05 3.1421366125e+00 -5.4423402571e+00 3.1421366125e+00 5.4423402571e+00 
162300 6.5150733651e+00 -7.0673782621e-05 3.1421366125e+00 -5.4423402571e+00 3.1421366125e+00 5.4423402571e+00 
162400 6.5150733660e+00 -7.0876792300e-05 3.1421366125e+00 -5.4423402571e+00 3.1421366125e+00 5.4423402571e+00 
162500 6.5150733668e+00 -7.0405933137e-05 3.1421377403e+00 -5.4423422106e+00 3.1421377403e+00 5.4423422106e+00 
162600 6.5150733677e+00 -7.0612553931e-05 3.1421377403e+00 -5.4423422106e+00 3.1421377403e+00 5.4423422106e+00 
162700 6.5150733685e+00 -7.0827708681e-05 3.1421377403e+00 -5.4423422106e+00 3.1421377403e+00 5.4423422106e+00 
162800 6.5150733693e+00 -7.0368654974e-05 3.1421388674e+00 -5.4423441627e+00 3.1421388674e+00 5.4423441627e+00 
162900 6.5150733701e+00 -7.0585984440e-05 3.1421388674e+00 -5.4423441627e+00 3.1421388674e+00 5.4423441627e+00 
163000 6.5150733710e+00 -7.0811343892e-05 3.1421388674e+00 -5.4423441627e+00 3.1421388674e+00 5.4423441627e+00 
163100 6.5150733717e+00 -7.0362246445e-05 3.1421399942e+00 -5.4423461144e+00 3.1421399942e+00 5.4423461144e+00 
163200 6.5150733725e+00 -7.0589050490e-05 3.1421399942e+00 -5.4423461144e+00 3.1421399942e+00 5.4423461144e+00 
163300 6.5150733733e+00 -7.0823611013e-05 3.1421399942e+00 -5.4423461144e+00 3.1421399942e+00 5.4423461144e+00 
163400 6.5150733741e+00 -7.0383362285e-05 3.1421411212e+00 -5.4423480664e+00 3.1421411212e+00 5.4423480664e+00 
163500 6.5150733749e+00 -7.0618929878e-05 3.1421411212e+00 -5.4423480664e+00 3.1421411212e+00 5.4423480664e+00 
163600 6.5150733757e+00 -7.0862071476e-05 3.1421411212e+00 -5.4423480664e+00 3.1421411212e+00 5.4423480664e+00 
163700 6.5150733764e+00 -7.0429862392e-05 3.1421422488e+00 -5.4423500195e+00 3.1421422488e+00 5.4423500195e+00 
163800 6.5150733771e+00 -7.0673672741e-05 3.1421422488e+00 -5.4423500195e+00 3.1421422488e+00 5.4423500195e+00 
163900 6.5150733779e+00 -7.0924898634e-05 3.1421422488e+00 -5.4423500195e+00 3.1421422488e+00 5.4423500195e+00 
164000 6.5150733786e+00 -7.0500008060e-05 3.1421433774e+00 -5.4423519743e+00 3.1421433774e+00 5.4423519743e+00 
164100 6.5150733794e+00 -7.0751569455e-05 3.1421433774e+00 -5.4423519743e+00 3.1421433774e+00 5.4423519743e+00 
164200 6.5150733800e+00 -7.0329117325e-05 3.1421445032e+00 -5.4423539243e+00 3.1421445032e+00 5.4423539243e+00 
164300 6.5150733808e+00 -7.0581765981e-05 3.1421445032e+00 -5.4423539243e+00 3.1421445032e+00 5.4423539243e+00 
164400 6.5150733815e+00 -7.0841834973e-05 3.1421445032e+00 -5.4423539243e+00 3.1421445032e+00 5.4423539243e+00 
164500 6.5150733822e+00 -7.0426500068e-05 3.1421456305e+00 -5.4423558769e+00 3.1421456305e+00 5.4423558769e+00 
164600 6.5150733829e+00 -7.0686677698e-05 3.1421456305e+00 -5.4423558769e+00 3.1421456305e+00 5.4423558769e+00 
164700 6.5150733836e+00 -7.0953887353e-05 3.1421456305e+00 -5.4423558769e+00 3.1421456305e+00 5.4423558769e+00 
164800 6.5150733843e+00 -7.0544259611e-05 3.1421467596e+00 -5.4423578325e+00 3.1421467596e+00 5.4423578325e+00 
164900 6.5150733849e+00 -7.0810874301e-05 3.1421467596e+00 -5.4423578325e+00 3.1421467596e+00 5.4423578325e+00 
165000 6.5150733856e+00 -7.0402371385e-05 3.1421478864e+00 -5.4423597841e+00 3.1421478864e+00 5.4423597841e+00 
165100 6.5150733863e+00 -7.0668963675e-05 3.1421478864e+00 -5.4423597841e+00 3.1421478864e+00 5.4423597841e+00 
165200 6.5150733869e+00 -7.0942372212e-05 3.1421478864e+00 -5.4423597841e+00 3.1421478864e+00 5.4423597841e+00 
165300 6.5150733876e+00 -7.0538768818e-05 3.1421490153e+00 -5.4423617394e+00 3.1421490153e+00 5.4423617394e+00 
165400 6.5150733882e+00 -7.0810963746e-05 3.1421490153e+00 -5.4423617394e+00 3.1421490153e+00 5.4423617394e+00 
165500 6.5150733888e+00 -7.0407659310e-05 3.1421501421e+00 -5.4423636911e+00 3.1421501421e+00 5.4423636911e+00 
165600 6.5150733895e+00 -7.0679039363e-05 3.1421501421e+00 -5.4423636911e+00 3.1421501421e+00 5.4423636911e+00 
165700 6.5150733901e+00 -7.0956795097e-05 3.1421501421e+00 -5.4423636911e+00 3.1421501421e+00 5.4423636911e+00 
165800 6.5150733907e+00 -7.0556935803e-05 3.1421512712e+00 -5.4423656467e+00 3.1421512712e+00 5.4423656467e+00 
165900 6.5150733913e+00 -7.0832531431e-05 3.1421512712e+00 -5.4423656467e+00 3.1421512712e+00 5.4423656467e+00 
166000 6.5150733919e+00 -7.0431922883e-05 3.1421523983e+00 -5.4423675990e+00 3.1421523983e+00 5.4423675990e+00 
166100 6.5150733925e+00 -7.0705695821e-05 3.1421523983e+00 -5.4423675990e+00 3.1421523983e+00 5.4423675990e+00 
166200 6.5150733932e+00 -7.0985326709e-05 3.1421523983e+00 -5.4423675990e+00 3.1421523983e+00 5.4423675990e+00 
166300 6.5150733937e+00 -7.0586541029e-05 3.1421535279e+00 -5.4423695555e+00 3.1421535279e+00 5.4423695555e+00 
166400 6.5150733943e+00 -7.0862949269e-05 3.1421535279e+00 -5.4423695555e+00 3.1421535279e+00 5.4423695555e+00 
166500 6.5150733949e+00 -7.0462323522e-05 3.1421546555e+00 -5.4423715085e+00 3.1421546555e+00 5.4423715085e+00 
166600 6.5150733955e+00 -7.0735828725e-05 3.1421546555e+00 -5.4423715085e+00 3.1421546555e+00 5.4423715085e+00 
166700 6.5150733960e+00 -7.0333534145e-05 3.1421557811e+00 -5.4423734581e+00 3.1421557811e+00 5.4423734581e+00 
166800 6.5150733966e+00 -7.0604121854e-05 3.1421557811e+00 -5.4423734581e+00 3.1421557811e+00 5.4423734581e+00 
166900 6.5150733972e+00 -7.0879934680e-05 3.1421557811e+00 -5.4423734581e+00 3.1421557811e+00 5.4423734581e+00 
167000 6.5150733977e+00 -7.0477680859e-05 3.1421569090e+00 -5.4423754117e+00 3.1421569090e+00 5.4423754117e+00 
167100 6.5150733982e+00 -7.0748940888e-05 3.1421569090e+00 -5.4423754117e+00 3.1421569090e+00 5.4423754117e+00 
167200 6.5150733987e+00 -7.0343562027e-05 3.1421580348e+00 -5.4423773616e+00 3.1421580348e+00 5.4423773616e+00 
167300 6.5150733993e+00 -7.0610527965e-05 3.1421580348e+00 -5.4423773616e+00 3.1421580348e+00 5.4423773616e+00 
167400 6.5150733998e+00 -7.0882095269e-05 3.1421580348e+00 -5.4423773616e+00 3.1421580348e+00 5.4423773616e+00 
167500 6.5150734003e+00 -7.0474980917e-05 3.1421591627e+00 -5.4423793153e+00 3.1421591627e+00 5.4423793153e+00 
167600 6.5150734009e+00 -7.0740832741e-05 3.1421591627e+00 -5.4423793153e+00 3.1421591627e+00 5.4423793153e+00 
167700 6.5150734014e+00 -7.0329574910e-05 3.1421602884e+00 -5.4423812650e+00 3.1421602884e+00 5.4423812650e+00 
167800 6.5150734019e+00 -7.0590055661e-05 3.1421602884e+00 -5.4423812650e+00 3.1421602884e+00 5.4423812650e+00 
167900 6.5150734024e+00 -7.0854623149e-05 3.1421602884e+00 -5.4423812650e+00 3.1421602884e+00 5.4423812650e+00 
168000 6.5150734029e+00 -7.0440272925e-05 3.1421614158e+00 -5.4423832178e+00 3.1421614158e+00 5.4423832178e+00 
168100 6.5150734034e+00 -7.0698143490e-05 3.1421614158e+00 -5.4423832178e+00 3.1421614158e+00 5.4423832178e+00 
168200 6.5150734039e+00 -7.0959597160e-05 3.1421614158e+00 -5.4423832178e+00 3.1421614158e+00 5.4423832178e+00 
168300 6.5150734044e+00 -7.0540683847e-05 3.1421625450e+00 -5.4423851736e+00 3.1421625450e+00 5.4423851736e+00 
168400 6.5150734048e+00 -7.0794595894e-05 3.1421625450e+00 -5.4423851736e+00 3.1421625450e+00 5.4423851736e+00 
168500 6.5150734053e+00 -7.0370058652e-05 3.1421636715e+00 -5.4423871248e+00 3.1421636715e+00 5.4423871248e+00 
168600 6.5150734058e+00 -7.0616990940e-05 3.1421636715e+00 -5.4423871248e+00 3.1421636715e+00 5.4423871248e+00 
168700 6.5150734063e+00 -7.0867269429e-05 3.1421636715e+00 -5.4423871248e+00 3.1421636715e+00 5.4423871248e+00 
168800 6.5150734067e+00 -7.0437798915e-05 3.1421647992e+00 -5.4423890780e+00 3.1421647992e+00 5.4423890780e+00 
168900 6.5150734072e+00 -7.0679989363e-05 3.1421647992e+00 -5.4423890780e+00 3.1421647992e+00 5.4423890780e+00 
169000 6.5150734076e+00 -7.0925108720e-05 3.1421647992e+00 -5.4423890780e+00 3.1421647992e+00 5.4423890780e+00 
169100 6.5150734080e+00 -7.0489562234e-05 3.1421659278e+00 -5.4423910328e+00 3.1421659278e+00 5.4423910328e+00 
169200 6.5150734085e+00 -7.0725908270e-05 3.1421659278e+00 -5.4423910328e+00 3.1421659278e+00 5.4423910328e+00 
169300 6.5150734089e+00 -7.0283878684e-05 3.1421670532e+00 -5.4423929821e+00 3.1421670532e+00 5.4423929821e+00 
169400 6.5150734094e+00 -7.0512103867e-05 3.1421670532e+00 -5.4423929821e+00 3.1421670532e+00 5.4423929821e+00 
169500 6.5150734098e+00 -7.0743127321e-05 3.1421670532e+00 -5.4423929821e+00 3.1421670532e+00 5.4423929821e+00 
169600 6.5150734102e+00 -7.0295068326e-05 3.1421681790e+00 -5.4423949319e+00 3.1421681790e+00 5.4423949319e+00 
169700 6.5150734106e+00 -7.0516988720e-05 3.1421681790e+00 -5.4423949319e+00 3.1421681790e+00 5.4423949319e+00 
169800 6.5150734111e+00 -7.0741345108e-05 3.1421681790e+00 -5.4423949319e+00 3.1421681790e+00 5.4423949319e+00 
169900 6.5150734115e+00 -7.0286330636e-05 3.1421693046e+00 -5.4423968816e+00 3.1421693046e+00 5.4423968816e+00 
170000 6.5150734119e+00 -7.0501017270e-05 3.1421693046e+00 -5.4423968816e+00 3.1421693046e+00 5.4423968816e+00 
170100 6.5150734123e+00 -7.0717911915e-05 3.1421693046e+00 -5.4423968816e+00 3.1421693046e+00 5.4423968816e+00 
170200 6.5150734127e+00 -7.0255459911e-05 3.1421704299e+00 -5.4423988307e+00 3.1421704299e+00 5.4423988307e+00 
170300 6.5150734131e+00 -7.0462308274e-05 3.1421704299e+00 -5.4423988307e+00 3.1421704299e+00 5.4423988307e+00 
170400 6.5150734135e+00 -7.0671202353e-05 3.1421704299e+00 -5.4423988307e+00 3.1421704299e+00 5.4423988307e+00 
170500 6.5150734139e+00 -7.0881550860e-05 3.1421704299e+00 -5.4423988307e+00 3.1421704299e+00 5.4423988307e+00 
170600 6.5150734142e+00 -7.0410384395e-05 3.1421715578e+00 -5.4424007843e+00 3.1421715578e+00 5.4424007843e+00 
170700 6.5150734146e+00 -7.0609593516e-05 3.1421715578e+00 -5.4424007843e+00 3.1421715578e+00 5.4424007843e+00 
170800 6.5150734150e+00 -7.0810470330e-05 3.1421715578e+00 -5.4424007843e+00 3.1421715578e+00 5.4424007843e+00 
170900 6.5150734154e+00 -7.0330651472e-05 3.1421726846e+00 -5.4424027359e+00 3.1421726846e+00 5.4424027359e+00 
171000 6.5150734157e+00 -7.0520616924e-05 3.1421726846e+00 -5.4424027359e+00 3.1421726846e+00 5.4424027359e+00 
171100 6.5150734161e+00 -7.0712290487e-05 3.1421726846e+00 -5.4424027359e+00 3.1421726846e+00 5.4424027359e+00 
171200 6.5150734165e+00 -7.0224227570e-05 3.1421738098e+00 -5.4424046848e+00 3.1421738098e+00 5.4424046848e+00 
171300 6.5150734168e+00 -7.0405017082e-05 3.1421738098e+00 -5.4424046848e+00 3.1421738098e+00 5.4424046848e+00 
171400 6.5150734172e+00 -7.0587496028e-05 3.1421738098e+00 -5.4424046848e+00 3.1421738098e+00 5.4424046848e+00 
171500 6.5150734176e+00 -7.0771107111e-05 3.1421738098e+00 -5.4424046848e+00 3.1421738098e+00 5.4424046848e+00 
171600 6.5150734179e+00 -7.0273973103e-05 3.1421749360e+00 -5.4424066354e+00 3.1421749360e+00 5.4424066354e+00 
171700 6.5150734182e+00 -7.0445905116e-05 3.1421749360e+00 -5.4424066354e+00 3.1421749360e+00 5.4424066354e+00 
171800 6.5150734186e+00 -7.0619258842e-05 3.1421749360e+00 -5.4424066354e+00 3.1421749360e+00 5.4424066354e+00 
171900 6.5150734189e+00 -7.0793532499e-05 3.1421749360e+00 -5.4424066354e+00 3.1421749360e+00 5.4424066354e+00 
172000 6.5150734192e+00 -7.0286674908e-05 3.1421760625e+00 -5.4424085866e+00 3.1421760625e+00 5.4424085866e+00 
172100 6.5150734196e+00 -7.0448958770e-05 3.1421760625e+00 -5.4424085866e+00 3.1421760625e+00 5.4424085866e+00 
172200 6.5150734199e+00 -7.0612553485e-05 3.1421760625e+00 -5.4424085866e+00 3.1421760625e+00 5.4424085866e+00 
172300 6.5150734202e+00 -7.0776977564e-05 3.1421760625e+00 -5.4424085866e+00 3.1421760625e+00 5.4424085866e+00 
172400 6.5150734205e+00 -7.0260355151e-05 3.1421771887e+00 -5.4424105373e+00 3.1421771887e+00 5.4424105373e+00 
172500 6.5150734209e+00 -7.0412657222e-05 3.1421771887e+00 -5.4424105373e+00 3.1421771887e+00 5.4424105373e+00 
172600 6.5150734212e+00 -7.0566219745e-05 3.1421771887e+00 -5.4424105373e+00 3.1421771887e+00 5.4424105373e+00 
172700 6.5150734215e+00 -7.0720570380e-05 3.1421771887e+00 -5.4424105373e+00 3.1421771887e+00 5.4424105373e+00 
172800 6.5150734218e+00 -7.0194383771e-05 3.1421783141e+00 -5.4424124864e+00 3.1421783141e+00 5.4424124864e+00 
172900 6.5150734221e+00 -7.0336562062e-05 3.1421783141e+00 -5.4424124864e+00 3.1421783141e+00 5.4424124864e+00 
173000 6.5150734224e+00 -7.0479978381e-05 3.1421783141e+00 -5.4424124864e+00 3.1421783141e+00 5.4424124864e+00 
173100 6.5150734227e+00 -7.0624165504e-05 3.1421783141e+00 -5.4424124864e+00 3.1421783141e+00 5.4424124864e+00 
173200 6.5150734230e+00 -7.0768779094e-05 3.1421783141e+00 -5.4424124864e+00 3.1421783141e+00 5.4424124864e+00 
173300 6.5150734233e+00 -7.0232123083e-05 3.1421794402e+00 -5.4424144369e+00 3.1421794402e+00 5.4424144369e+00 
173400 6.5150734236e+00 -7.0364090559e-05 3.1421794402e+00 -5.4424144369e+00 3.1421794402e+00 5.4424144369e+00 
173500 6.5150734239e+00 -7.0497151598e-05 3.1421794402e+00 -5.4424144369e+00 3.1421794402e+00 5.4424144369e+00 
173600 6.5150734241e+00 -7.0630878284e-05 3.1421794402e+00 -5.4424144369e+00 3.1421794402e+00 5.4424144369e+00 
173700 6.5150734244e+00 -7.0764956245e-05 3.1421794402e+00 -5.4424144369e+00 3.1421794402e+00 5.4424144369e+00 
173800 6.5150734247e+00 -7.0217748694e-05 3.1421805662e+00 -5.4424163873e+00 3.1421805662e+00 5.4424163873e+00 
173900 6.5150734250e+00 -7.0339094854e-05 3.1421805662e+00 -5.4424163873e+00 3.1421805662e+00 5.4424163873e+00 
174000 6.5150734252e+00 -7.0461514135e-05 3.1421805662e+00 -5.4424163873e+00 3.1421805662e+00 5.4424163873e+00 
174100 6.5150734255e+00 -7.0584589570e-05 3.1421805662e+00 -5.4424163873e+00 3.1421805662e+00 5.4424163873e+00 
174200 6.5150734258e+00 -7.0708015418e-05 3.1421805662e+00 -5.4424163873e+00 3.1421805662e+00 5.4424163873e+00 
174300 6.5150734261e+00 -7.0831566917e-05 3.1421805662e+00 -5.4424163873e+00 3.1421805662e+00 5.4424163873e+00 
174400 6.5150734263e+00 -7.0273031254e-05 3.1421816933e+00 -5.4424183395e+00 3.1421816933e+00 5.4424183395e+00 
174500 6.5150734265e+00 -7.0383569386e-05 3.1421816933e+00 -5.4424183395e+00 3.1421816933e+00 5.4424183395e+00 
174600 6.5150734268e+00 -7.0495108482e-05 3.1421816933e+00 -5.4424183395e+00 3.1421816933e+00 5.4424183395e+00 
174700 6.5150734271e+00 -7.0607259005e-05 3.1421816933e+00 -5.4424183395e+00 3.1421816933e+00 5.4424183395e+00 
174800 6.5150734273e+00 -7.0719735964e-05 3.1421816933e+00 -5.4424183395e+00 3.1421816933e+00 5.4424183395e+00 
174900 6.5150734275e+00 -7.0151359339e-05 3.1421828187e+00 -5.4424202886e+00 3.1421828187e+00 5.4424202886e+00 
175000 6.5150734278e+00 -7.0251125636e-05 3.1421828187e+00 -5.4424202886e+00 3.1421828187e+00 5.4424202886e+00 
175100 6.5150734280e+00 -7.0351992707e-05 3.1421828187e+00 -5.4424202886e+00 3.1421828187e+00 5.4424202886e+00 
175200 6.5150734283e+00 -7.0453554054e-05 3.1421828187e+00 -5.4424202886e+00 3.1421828187e+00 5.4424202886e+00 
175300 6.5150734285e+00 -7.0555511951e-05 3.1421828187e+00 -5.4424202886e+00 3.1421828187e+00 5.4424202886e+00 
175400 6.5150734288e+00 -7.0657647721e-05 3.1421828187e+00 -5.4424202886e+00 3.1421828187e+00 5.4424202886e+00 
175500 6.5150734290e+00 -7.0759800543e-05 3.1421828187e+00 -5.4424202886e+00 3.1421828187e+00 5.4424202886e+00 
175600 6.5150734292e+00 -7.0180494517e-05 3.1421839446e+00 -5.4424222388e+00 3.1421839446e+00 5.4424222388e+00 
175700 6.5150734294e+00 -7.0269559318e-05 3.1421839446e+00 -5.4424222388e+00 3.1421839446e+00 5.4424222388e+00 
175800 6.5150734297e+00 -7.0359623478e-05 3.1421839446e+00 -5.4424222388e+00 3.1421839446e+00 5.4424222388e+00 
175900 6.5150734299e+00 -7.0450317213e-05 3.1421839446e+00 -5.4424222388e+00 3.1421839446e+00 5.4424222388e+00 
176000 6.5150734301e+00 -7.0541370251e-05 3.1421839446e+00 -5.4424222388e+00 3.1421839446e+00 5.4424222388e+00 
176100 6.5150734303e+00 -7.0632584501e-05 3.1421839446e+00 -5.4424222388e+00 3.1421839446e+00 5.4424222388e+00 
176200 6.5150734306e+00 -7.0723814594e-05 3.1421839446e+00 -5.4424222388e+00 3.1421839446e+00 5.4424222388e+00 
176300 6.5150734307e+00 -7.0133941917e-05 3.1421850700e+00 -5.4424241881e+00 3.1421850700e+00 5.4424241881e+00 
176400 6.5150734309e+00 -7.0212119890e-05 3.1421850700e+00 -5.4424241881e+00 3.1421850700e+00 5.4424241881e+00 
176500 6.5150734312e+00 -7.0291321900e-05 3.1421850700e+00 -5.4424241881e+00 3.1421850700e+00 5.4424241881e+00 
176600 6.5150734314e+00 -7.0371182930e-05 3.1421850700e+00 -5.4424241881e+00 3.1421850700e+00 5.4424241881e+00 
176700 6.5150734316e+00 -7.0451436083e-05 3.1421850700e+00 -5.4424241881e+00 3.1421850700e+00 5.4424241881e+00 
176800 6.5150734318e+00 -7.0531885571e-05 3.1421850700e+00 -5.4424241881e+00 3.1421850700e+00 5.4424241881e+00 
176900 6.5150734320e+00 -7.0612387490e-05 3.1421850700e+00 -5.4424241881e+00 3.1421850700e+00 5.4424241881e+00 
177000 6.5150734322e+00 -7.0692836030e-05 3.1421850700e+00 -5.4424241881e+00 3.1421850700e+00 5.4424241881e+00 
177100 6.5150734324e+00 -7.0773153538e-05 3.1421850700e+00 -5.4424241881e+00 3.1421850700e+00 5.4424241881e+00 
177200 6.5150734325e+00 -7.0171795075e-05 3.1421861962e+00 -5.4424261387e+00 3.1421861962e+00 5.4424261387e+00 
177300 6.5150734327e+00 -7.0238894609e-05 3.1421861962e+00 -5.4424261387e+00 3.1421861962e+00 5.4424261387e+00 
177400 6.5150734329e+00 -7.0306986247e-05 3.1421861962e+00 -5.4424261387e+00 3.1421861962e+00 5.4424261387e+00 
177500 6.5150734331e+00 -7.0375724882e-05 3.1421861962e+00 -5.4424261387e+00 3.1421861962e+00 5.4424261387e+00 
177600 6.5150734333e+00 -7.0444858250e-05 3.1421861962e+00 -5.4424261387e+00 3.1421861962e+00 5.4424261387e+00 
177700 6.5150734335e+00 -7.0514201188e-05 3.1421861962e+00 -5.4424261387e+00 3.1421861962e+00 5.4424261387e+00 
177800 6.5150734337e+00 -7.0583617379e-05 3.1421861962e+00 -5.4424261387e+00 3.1421861962e+00 5.4424261387e+00 
177900 6.5150734339e+00 -7.0653006278e-05 3.1421861962e+00 -5.4424261387e+00 3.1421861962e+00 5.4424261387e+00 
178000 6.5150734340e+00 -7.0722293719e-05 3.1421861962e+00 -5.4424261387e+00 3.1421861962e+00 5.4424261387e+00 
178100 6.5150734342e+00 -7.0110425672e-05 3.1421873216e+00 -5.4424280879e+00 3.1421873216e+00 5.4424280879e+00 
178200 6.5150734343e+00 -7.0166568845e-05 3.1421873216e+00 -5.4424280879e+00 3.1421873216e+00 5.4424280879e+00 
178300 6.5150734345e+00 -7.0223736202e-05 3.1421873216e+00 -5.4424280879e+00 3.1421873216e+00 5.4424280879e+00 
178400 6.5150734347e+00 -7.0281582508e-05 3.1421873216e+00 -5.4424280879e+00 3.1421873216e+00 5.4424280879e+00 
178500 6.5150734349e+00 -7.0339854834e-05 3.1421873216e+00 -5.4424280879e+00 3.1421873216e+00 5.4424280879e+00 
178600 6.5150734350e+00 -7.0398366992e-05 3.1421873216e+00 -5.4424280879e+00 3.1421873216e+00 5.4424280879e+00 
178700 6.5150734352e+00 -7.0456981359e-05 3.1421873216e+00 -5.4424280879e+00 3.1421873216e+00 5.4424280879e+00 
178800 6.5150734354e+00 -7.0515595904e-05 3.1421873216e+00 -5.4424280879e+00 3.1421873216e+00 5.4424280879e+00 
178900 6.5150734355e+00 -7.0574134861e-05 3.1421873216e+00 -5.4424280879e+00 3.1421873216e+00 5.4424280879e+00 
179000 6.5150734357e+00 -7.0632541958e-05 3.1421873216e+00 -5.4424280879e+00 3.1421873216e+00 5.4424280879e+00 
179100 6.5150734359e+00 -7.0690775488e-05 3.1421873216e+00 -5.4424280879e+00 3.1421873216e+00 5.4424280879e+00 
179200 6.5150734360e+00 -7.0748804658e-05 3.1421873216e+00 -5.4424280879e+00 3.1421873216e+00 5.4424280879e+00 
179300 6.5150734361e+00 -7.0125350869e-05 3.1421884474e+00 -5.4424300378e+00 3.1421884474e+00 5.4424300378e+00 
179400 6.5150734363e+00 -7.0170112956e-05 3.1421884474e+00 -5.4424300378e+00 3.1421884474e+00 5.4424300378e+00 
179500 6.5150734364e+00 -7.0215869789e-05 3.1421884474e+00 -5.4424300378e+00 3.1421884474e+00 5.4424300378e+00 
179600 6.5150734366e+00 -7.0262288650e-05 3.1421884474e+00 -5.4424300378e+00 3.1421884474e+00 5.4424300378e+00 
179700 6.5150734367e+00 -7.0309125604e-05 3.1421884474e+00 -5.4424300378e+00 3.1421884474e+00 5.4424300378e+00 
179800 6.5150734369e+00 -7.0356200760e-05 3.1421884474e+00 -5.4424300378e+00 3.1421884474e+00 5.4424300378e+00 
179900 6.5150734370e+00 -7.0403380747e-05 3.1421884474e+00 -5.4424300378e+00 3.1421884474e+00 5.4424300378e+00 
180000 6.5150734372e+00 -7.0450566207e-05 3.1421884474e+00 -5.4424300378e+00 3.1421884474e+00 5.4424300378e+00 
180100 6.5150734373e+00 -7.0497682846e-05 3.1421884474e+00 -5.4424300378e+00 3.1421884474e+00 5.4424300378e+00 
180200 6.5150734374e+00 -7.0544674953e-05 3.1421884474e+00 -5.4424300378e+00 3.1421884474e+00 5.4424300378e+00 
180300 6.5150734376e+00 -7.0591500684e-05 3.1421884474e+00 -5.4424300378e+00 3.1421884474e+00 5.4424300378e+00 
180400 6.5150734377e+00 -7.0638128597e-05 3.1421884474e+00 -5.4424300378e+00 3.1421884474e+00 5.4424300378e+00 
180500 6.5150734379e+00 -7.0684535080e-05 3.1421884474e+00 -5.4424300378e+00 3.1421884474e+00 5.4424300378e+00 
180600 6.5150734380e+00 -7.0730702428e-05 3.1421884474e+00 -5.4424300378e+00 3.1421884474e+00 5.4424300378e+00 
180700 6.5150734381e+00 -7.0095534394e-05 3.1421895729e+00 -5.4424319872e+00 3.1421895729e+00 5.4424319872e+00 
180800 6.5150734382e+00 -7.0128393676e-05 3.1421895729e+00 -5.4424319872e+00 3.1421895729e+00 5.4424319872e+00 
180900 6.5150734383e+00 -7.0162232812e-05 3.1421895729e+00 -5.4424319872e+00 3.1421895729e+00 5.4424319872e+00 
181000 6.5150734385e+00 -7.0196721923e-05 3.1421895729e+00 -5.4424319872e+00 3.1421895729e+00 5.4424319872e+00 
181100 6.5150734386e+00 -7.0231618662e-05 3.1421895729e+00 -5.4424319872e+00 3.1421895729e+00 5.4424319872e+00 
181200 6.5150734387e+00 -7.0266743801e-05 3.1421895729e+00 -5.4424319872e+00 3.1421895729e+00 5.4424319872e+00 
181300 6.5150734388e+00 -7.0301963924e-05 3.1421895729e+00 -5.4424319872e+00 3.1421895729e+00 5.4424319872e+00 
181400 6.5150734390e+00 -7.0337179129e-05 3.1421895729e+00 -5.4424319872e+00 3.1421895729e+00 5.4424319872e+00 
181500 6.5150734391e+00 -7.0372314205e-05 3.1421895729e+00 -5.4424319872e+00 3.1421895729e+00 5.4424319872e+00 
181600 6.5150734392e+00 -7.0407312282e-05 3.1421895729e+00 -5.4424319872e+00 3.1421895729e+00 5.4424319872e+00 
181700 6.5150734393e+00 -7.0442130197e-05 3.1421895729e+00 -5.4424319872e+00 3.1421895729e+00 5.4424319872e+00 
181800 6.5150734394e+00 -7.0476735110e-05 3.1421895729e+00 -5.4424319872e+00 3.1421895729e+00 5.4424319872e+00 
181900 6.5150734395e+00 -7.0511101978e-05 3.1421895729e+00 -5.4424319872e+00 3.1421895729e+00 5.4424319872e+00 
182000 6.5150734397e+00 -7.0545211695e-05 3.1421895729e+00 -5.4424319872e+00 3.1421895729e+00 5.4424319872e+00 
182100 6.5150734398e+00 -7.0579049666e-05 3.1421895729e+00 -5.4424319872e+00 3.1421895729e+00 5.4424319872e+00 
182200 6.5150734399e+00 -7.0612604714e-05 3.1421895729e+00 -5.4424319872e+00 3.1421895729e+00 5.4424319872e+00 
182300 6.5150734400e+00 -7.0645868271e-05 3.1421895729e+00 -5.4424319872e+00 3.1421895729e+00 5.4424319872e+00 
182400 6.5150734401e+00 -7.0678833715e-05 3.1421895729e+00 -5.4424319872e+00 3.1421895729e+00 5.4424319872e+00 
182500 6.5150734402e+00 -7.0711495883e-05 3.1421895729e+00 -5.4424319872e+00 3.1421895729e+00 5.4424319872e+00 
182600 6.5150734403e+00 -7.0062951105e-05 3.1421906981e+00 -5.4424339361e+00 3.1421906981e+00 5.4424339361e+00 
182700 6.5150734404e+00 -7.0082205316e-05 3.1421906981e+00 -5.4424339361e+00 3.1421906981e+00 5.4424339361e+00 
182800 6.5150734405e+00 -7.0102395088e-05 3.1421906981e+00 -5.4424339361e+00 3.1421906981e+00 5.4424339361e+00 
182900 6.5150734406e+00 -7.0123193630e-05 3.1421906981e+00 -5.4424339361e+00 3.1421906981e+00 5.4424339361e+00 
183000 6.5150734407e+00 -7.0144360492e-05 3.1421906981e+00 -5.4424339361e+00 3.1421906981e+00 5.4424339361e+00 
183100 6.5150734408e+00 -7.0165717424e-05 3.1421906981e+00 -5.4424339361e+00 3.1421906981e+00 5.4424339361e+00 
183200 6.5150734409e+00 -7.0187131327e-05 3.1421906981e+00 -5.4424339361e+00 3.1421906981e+00 5.4424339361e+00 
183300 6.5150734410e+00 -7.0208502108e-05 3.1421906981e+00 -5.4424339361e+00 3.1421906981e+00 5.4424339361e+00 
183400 6.5150734411e+00 -7.0229754021e-05 3.1421906981e+00 -5.4424339361e+00 3.1421906981e+00 5.4424339361e+00 
183500 6.5150734412e+00 -7.0250829420e-05 3.1421906981e+00 -5.4424339361e+00 3.1421906981e+00 5.4424339361e+00 
183600 6.5150734412e+00 -7.0271684221e-05 3.1421906981e+00 -5.4424339361e+00 3.1421906981e+00 5.4424339361e+00 
183700 6.5150734413e+00 -7.0292284590e-05 3.1421906981e+00 -5.4424339361e+00 3.1421906981e+00 5.4424339361e+00 
183800 6.5150734414e+00 -7.0312604484e-05 3.1421906981e+00 -5.4424339361e+00 3.1421906981e+00 5.4424339361e+00 
183900 6.5150734415e+00 -7.0332623830e-05 3.1421906981e+00 -5.4424339361e+00 3.1421906981e+00 5.4424339361e+00 
184000 6.5150734416e+00 -7.0352327137e-05 3.1421906981e+00 -5.4424339361e+00 3.1421906981e+00 5.4424339361e+00 
184100 6.5150734417e+00 -7.0371702455e-05 3.1421906981e+00 -5.4424339361e+00 3.1421906981e+00 5.4424339361e+00 
184200 6.5150734418e+00 -7.0390740557e-05 3.1421906981e+00 -5.4424339361e+00 3.1421906981e+00 5.4424339361e+00 
184300 6.5150734419e+00 -7.0409434313e-05 3.1421906981e+00 -5.4424339361e+00 3.1421906981e+00 5.4424339361e+00 
184400 6.5150734420e+00 -7.0427778210e-05 3.1421906981e+00 -5.4424339361e+00 3.1421906981e+00 5.4424339361e+00 
184500 6.5150734420e+00 -7.0445767943e-05 3.1421906981e+00 -5.4424339361e+00 3.1421906981e+00 5.4424339361e+00 
184600 6.5150734421e+00 -7.0463400136e-05 3.1421906981e+00 -5.4424339361e+00 3.1421906981e+00 5.4424339361e+00 
184700 6.5150734422e+00 -7.0480672077e-05 3.1421906981e+00 -5.4424339361e+00 3.1421906981e+00 5.4424339361e+00 
184800 6.5150734423e+00 -7.0497581527e-05 3.1421906981e+00 -5.4424339361e+00 3.1421906981e+00 5.4424339361e+00 
184900 6.5150734424e+00 -7.0514126565e-05 3.1421906981e+00 -5.4424339361e+00 3.1421906981e+00 5.4424339361e+00 
185000 6.5150734424e+00 -7.0530305466e-05 3.1421906981e+00 -5.4424339361e+00 3.1421906981e+00 5.4424339361e+00 
185100 6.5150734425e+00 -7.0546116598e-05 3.1421906981e+00 -5.4424339361e+00 3.1421906981e+00 5.4424339361e+00 
185200 6.5150734426e+00 -7.0561558343e-05 3.1421906981e+00 -5.4424339361e+00 3.1421906981e+00 5.4424339361e+00 
185300 6.5150734427e+00 -7.0576629037e-05 3.1421906981e+00 -5.4424339361e+00 3.1421906981e+00 5.4424339361e+00 
185400 6.5150734427e+00 -7.0591326921e-05 3.1421906981e+00 -5.4424339361e+00 3.1421906981e+00 5.4424339361e+00 
185500 6.5150734428e+00 -7.0605650107e-05 3.1421906981e+00 -5.4424339361e+00 3.1421906981e+00 5.4424339361e+00 
185600 6.5150734429e+00 -7.0619596548e-05 3.1421906981e+00 -5.4424339361e+00 3.1421906981e+00 5.4424339361e+00 
185700 6.5150734430e+00 -7.0633164022e-05 3.1421906981e+00 -5.4424339361e+00 3.1421906981e+00 5.4424339361e+00 
185800 6.5150734430e+00 -7.0646350118e-05 3.1421906981e+00 -5.4424339361e+00 3.1421906981e+00 5.4424339361e+00 
185900 6.5150734431e+00 -7.0659152229e-05 3.1421906981e+00 -5.4424339361e+00 3.1421906981e+00 5.4424339361e+00 
186000 6.5150734432e+00 -7.0671567557e-05 3.1421906981e+00 -5.4424339361e+00 3.1421906981e+00 5.4424339361e+00 
186100 6.5150734432e+00 -7.0683593100e-05 3.1421906981e+00 -5.4424339361e+00 3.1421906981e+00 5.4424339361e+00 
186200 6.5150734433e+00 -7.0695225673e-05 3.1421906981e+00 -5.4424339361e+00 3.1421906981e+00 5.4424339361e+00 
186300 6.5150734434e+00 -7.0706461900e-05 3.1421906981e+00 -5.4424339361e+00 3.1421906981e+00 5.4424339361e+00 
186400 6.5150734434e+00 -7.0717298233e-05 3.1421906981e+00 -5.4424339361e+00 3.1421906981e+00 5.4424339361e+00 
186500 6.5150734435e+00 -7.0046773246e-05 3.1421918233e+00 -5.4424358852e+00 3.1421918233e+00 5.4424358852e+00 
186600 6.5150734435e+00 -7.0044007814e-05 3.1421918233e+00 -5.4424358852e+00 3.1421918233e+00 5.4424358852e+00 
186700 6.5150734436e+00 -7.0042080206e-05 3.1421918233e+00 -5.4424358852e+00 3.1421918233e+00 5.4424358852e+00 
186800 6.5150734436e+00 -7.0040662059e-05 3.1421918233e+00 -5.4424358852e+00 3.1421918233e+00 5.4424358852e+00 
186900 6.5150734437e+00 -7.0039511109e-05 3.1421918233e+00 -5.4424358852e+00 3.1421918233e+00 5.4424358852e+00 
187000 6.5150734438e+00 -7.0038447189e-05 3.1421918233e+00 -5.4424358852e+00 3.1421918233e+00 5.4424358852e+00 
187100 6.5150734438e+00 -7.0037335272e-05 3.1421918233e+00 -5.4424358852e+00 3.1421918233e+00 5.4424358852e+00 
187200 6.5150734439e+00 -7.0036073432e-05 3.1421918233e+00 -5.4424358852e+00 3.1421918233e+00 5.4424358852e+00 
187300 6.5150734439e+00 -7.0034584243e-05 3.1421918233e+00 -5.4424358852e+00 3.1421918233e+00 5.4424358852e+00 
187400 6.5150734440e+00 -7.0032808589e-05 3.1421918233e+00 -5.4424358852e+00 3.1421918233e+00 5.4424358852e+00 
187500 6.5150734441e+00 -7.0030701176e-05 3.1421918233e+00 -5.4424358852e+00 3.1421918233e+00 5.4424358852e+00 
187600 6.5150734441e+00 -7.0028227244e-05 3.1421918233e+00 -5.4424358852e+00 3.1421918233e+00 5.4424358852e+00 
187700 6.5150734442e+00 -7.0025360149e-05 3.1421918233e+00 -5.4424358852e+00 3.1421918233e+00 5.4424358852e+00 
187800 6.5150734442e+00 -7.0022079536e-05 3.1421918233e+00 -5.4424358852e+00 3.1421918233e+00 5.4424358852e+00 
187900 6.5150734443e+00 -7.0018369985e-05 3.1421918233e+00 -5.4424358852e+00 3.1421918233e+00 5.4424358852e+00 
188000 6.5150734443e+00 -7.0014219960e-05 3.1421918233e+00 -5.4424358852e+00 3.1421918233e+00 5.4424358852e+00 
188100 6.5150734444e+00 -7.0009621004e-05 3.1421918233e+00 -5.4424358852e+00 3.1421918233e+00 5.4424358852e+00 
188200 6.5150734444e+00 -7.0004567109e-05 3.1421918233e+00 -5.4424358852e+00 3.1421918233e+00 5.4424358852e+00 
188300 6.5150734445e+00 -6.9999054230e-05 3.1421918233e+00 -5.4424358852e+00 3.1421918233e+00 5.4424358852e+00 
188400 6.5150734445e+00 -6.9993079880e-05 3.1421918233e+00 -5.4424358852e+00 3.1421918233e+00 5.4424358852e+00 
188500 6.5150734446e+00 -6.9986642826e-05 3.1421918233e+00 -5.4424358852e+00 3.1421918233e+00 5.4424358852e+00 
188600 6.5150734446e+00 -6.9979742824e-05 3.1421918233e+00 -5.4424358852e+00 3.1421918233e+00 5.4424358852e+00 
188700 6.5150734447e+00 -6.9972380425e-05 3.1421918233e+00 -5.4424358852e+00 3.1421918233e+00 5.4424358852e+00 
188800 6.5150734447e+00 -6.9967584012e-05 3.1421918233e+00 -5.4424358852e+00 3.1421918233e+00 5.4424358852e+00 
188800 6.5150734447e+00 -6.9967584012e-05 3.1421918233e+00 -5.4424358852e+00 3.1421918233e+00 5.4424358852e+00 
