# step Hamiltonian StressXX CellTensor1 CellTensor2 CellTensor3 CellTensor4 
0 5.7442922030e+00 6.6865507559e-02 1.7438352029e+00 -3.0204111715e+00 1.7438352029e+00 3.0204111715e+00 
100 5.7434018909e+00 7.0184976896e-02 1.7438352029e+00 -3.0204111715e+00 1.7438352029e+00 3.0204111715e+00 
200 5.7424017716e+00 7.1806328054e-02 1.7418232163e+00 -3.0169263084e+00 1.7418232163e+00 3.0169263084e+00 
300 5.7414390991e+00 7.3219065650e-02 1.7397623829e+00 -3.0133568403e+00 1.7397623829e+00 3.0133568403e+00 
400 5.7405103320e+00 7.4434032510e-02 1.7376585241e+00 -3.0097128499e+00 1.7376585241e+00 3.0097128499e+00 
500 5.7396125185e+00 7.5461805186e-02 1.7355171735e+00 -3.0060039219e+00 1.7355171735e+00 3.0060039219e+00 
600 5.7387432098e+00 7.6312683299e-02 1.7333435842e+00 -3.0022391548e+00 1.7333435842e+00 3.0022391548e+00 
700 5.7379003821e+00 7.6996680042e-02 1.7311427364e+00 -2.9984271745e+00 1.7311427364e+00 2.9984271745e+00 
800 5.7370823690e+00 7.7523513970e-02 1.7289193445e+00 -2.9945761468e+00 1.7289193445e+00 2.9945761468e+00 
900 5.7362878015e+00 7.7902602131e-02 1.7266778652e+00 -2.9906937909e+00 1.7266778652e+00 2.9906937909e+00 
1000 5.7355155563e+00 7.8143054584e-02 1.7244225048e+00 -2.9867873921e+00 1.7244225048e+00 2.9867873921e+00 
1100 5.7347647102e+00 7.8253670299e-02 1.7221572271e+00 -2.9828638159e+00 1.7221572271e+00 2.9828638159e+00 
1200 5.7340345018e+00 7.8242934428e-02 1.7198857608e+00 -2.9789295209e+00 1.7198857608e+00 2.9789295209e+00 
1300 5.7333242978e+00 7.8119016889e-02 1.7176116078e+00 -2.9749905725e+00 1.7176116078e+00 2.9749905725e+00 
1400 5.7326335653e+00 7.7889772225e-02 1.7153380509e+00 -2.9710526563e+00 1.7153380509e+00 2.9710526563e+00 
1500 5.7319618475e+00 7.7562740631e-02 1.7130681611e+00 -2.9671210918e+00 1.7130681611e+00 2.9671210918e+00 
1600 5.7313087447e+00 7.7145150095e-02 1.7108048059e+00 -2.9632008456e+00 1.7108048059e+00 2.9632008456e+00 
1700 5.7306738974e+00 7.6643919541e-02 1.7085506568e+00 -2.9592965448e+00 1.7085506568e+00 2.9592965448e+00 
1800 5.7300569733e+00 7.6065662879e-02 1.7063081968e+00 -2.9554124903e+00 1.7063081968e+00 2.9554124903e+00 
1900 5.7294576565e+00 7.5416693881e-02 1.7040797284e+00 -2.9515526697e+00 1.7040797284e+00 2.9515526697e+00 
2000 5.7288756397e+00 7.4703031761e-02 1.7018673803e+00 -2.9477207704e+00 1.7018673803e+00 2.9477207704e+00 
2100 5.7283106171e+00 7.3930407381e-02 1.6996731154e+00 -2.9439201922e+00 1.6996731154e+00 2.9439201922e+00 
2200 5.7277622803e+00 7.3104269994e-02 1.6974987379e+00 -2.9401540598e+00 1.6974987379e+00 2.9401540598e+00 
2300 5.7272303144e+00 7.2229794418e-02 1.6953458999e+00 -2.9364252351e+00 1.6953458999e+00 2.9364252351e+00 
2400 5.7267143964e+00 7.1311888586e-02 1.6932161089e+00 -2.9327363288e+00 1.6932161089e+00 2.9327363288e+00 
2500 5.7262141934e+00 7.0355201370e-02 1.6911107342e+00 -2.9290897128e+00 1.6911107342e+00 2.9290897128e+00 
2600 5.7257293628e+00 6.9364130631e-02 1.6890310135e+00 -2.9254875309e+00 1.6890310135e+00 2.9254875309e+00 
2700 5.7252595518e+00 6.8342831425e-02 1.6869780595e+00 -2.9219317103e+00 1.6869780595e+00 2.9219317103e+00 
2800 5.7248043987e+00 6.7295224298e-02 1.6849528660e+00 -2.9184239723e+00 1.6849528660e+00 2.9184239723e+00 
2900 5.7243635334e+00 6.6225003635e-02 1.6829563142e+00 -2.9149658431e+00 1.6829563142e+00 2.9149658431e+00 
3000 5.7239365790e+00 6.5135646008e-02 1.6809891780e+00 -2.9115586633e+00 1.6809891780e+00 2.9115586633e+00 
3100 5.7235231532e+00 6.4030418487e-02 1.6790521304e+00 -2.9082035985e+00 1.6790521304e+00 2.9082035985e+00 
3200 5.7231228699e+00 6.2912386878e-02 1.6771457487e+00 -2.9049016485e+00 1.6771457487e+00 2.9049016485e+00 
3300 5.7227353407e+00 6.1784423860e-02 1.6752705197e+00 -2.9016536565e+00 1.6752705197e+00 2.9016536565e+00 
3400 5.7223601769e+00 6.0649216993e-02 1.6734268450e+00 -2.8984603183e+00 1.6734268450e+00 2.8984603183e+00 
3500 5.7219969906e+00 5.9509276577e-02 1.6716150461e+00 -2.8953221905e+00 1.6716150461e+00 2.8953221905e+00 
3600 5.7216453967e+00 5.8366943352e-02 1.6698353689e+00 -2.8922396992e+00 1.6698353689e+00 2.8922396992e+00 
3700 5.7213050138e+00 5.7224396005e-02 1.6680879885e+00 -2.8892131476e+00 1.6680879885e+00 2.8892131476e+00 
3800 5.7209754662e+00 5.6083658496e-02 1.6663730137e+00 -2.8862427240e+00 1.6663730137e+00 2.8862427240e+00 
3900 5.7206563846e+00 5.4946607180e-02 1.6646904909e+00 -2.8833285092e+00 1.6646904909e+00 2.8833285092e+00 
4000 5.7203474075e+00 5.3814977720e-02 1.6630404088e+00 -2.8804704831e+00 1.6630404088e+00 2.8804704831e+00 
4100 5.7200481816e+00 5.2690371790e-02 1.6614227018e+00 -2.8776685324e+00 1.6614227018e+00 2.8776685324e+00 
4200 5.7197583636e+00 5.1574263564e-02 1.6598372539e+00 -2.8749224561e+00 1.6598372539e+00 2.8749224561e+00 
4300 5.7194776198e+00 5.0468005985e-02 1.6582839025e+00 -2.8722319725e+00 1.6582839025e+00 2.8722319725e+00 
4400 5.7192056273e+00 4.9372836828e-02 1.6567624417e+00 -2.8695967251e+00 1.6567624417e+00 2.8695967251e+00 
4500 5.7189420743e+00 4.8289884536e-02 1.6552726255e+00 -2.8670162878e+00 1.6552726255e+00 2.8670162878e+00 
4600 5.7186866603e+00 4.7220173855e-02 1.6538141713e+00 -2.8644901710e+00 1.6538141713e+00 2.8644901710e+00 
4700 5.7184390965e+00 4.6164631250e-02 1.6523867626e+00 -2.8620178266e+00 1.6523867626e+00 2.8620178266e+00 
4800 5.7181991055e+00 4.5124090122e-02 1.6509900521e+00 -2.8595986530e+00 1.6509900521e+00 2.8595986530e+00 
4900 5.7179664217e+00 4.4099295819e-02 1.6496236641e+00 -2.8572319995e+00 1.6496236641e+00 2.8572319995e+00 
5000 5.7177407913e+00 4.3090910452e-02 1.6482871975e+00 -2.8549171716e+00 1.6482871975e+00 2.8549171716e+00 
5100 5.7175219714e+00 4.2099517516e-02 1.6469802284e+00 -2.8526534346e+00 1.6469802284e+00 2.8526534346e+00 
5200 5.7173097307e+00 4.1125626324e-02 1.6457023118e+00 -2.8504400181e+00 1.6457023118e+00 2.8504400181e+00 
5300 5.7171038487e+00 4.0169676261e-02 1.6444529844e+00 -2.8482761197e+00 1.6444529844e+00 2.8482761197e+00 
5400 5.7169041154e+00 3.9232040859e-02 1.6432317668e+00 -2.8461609086e+00 1.6432317668e+00 2.8461609086e+00 
5500 5.7167103310e+00 3.8313031700e-02 1.6420381650e+00 -2.8440935297e+00 1.6420381650e+00 2.8440935297e+00 
5600 5.7165223057e+00 3.7412902155e-02 1.6408716729e+00 -2.8420731061e+00 1.6408716729e+00 2.8420731061e+00 
5700 5.7163398586e+00 3.6531850962e-02 1.6397317736e+00 -2.8400987427e+00 1.6397317736e+00 2.8400987427e+00 
5800 5.7161628182e+00 3.5670025648e-02 1.6386179417e+00 -2.8381695292e+00 1.6386179417e+00 2.8381695292e+00 
5900 5.7159910211e+00 3.4827525802e-02 1.6375296443e+00 -2.8362845428e+00 1.6375296443e+00 2.8362845428e+00 
6000 5.7158243119e+00 3.4004406205e-02 1.6364663428e+00 -2.8344428506e+00 1.6364663428e+00 2.8344428506e+00 
6100 5.7156625428e+00 3.3200679820e-02 1.6354274945e+00 -2.8326435126e+00 1.6354274945e+00 2.8326435126e+00 
6200 5.7155055730e+00 3.2416320646e-02 1.6344125536e+00 -2.8308855834e+00 1.6344125536e+00 2.8308855834e+00 
6300 5.7153532680e+00 3.1651266452e-02 1.6334209729e+00 -2.8291681152e+00 1.6334209729e+00 2.8291681152e+00 
6400 5.7152054997e+00 3.0905421371e-02 1.6324522044e+00 -2.8274901589e+00 1.6324522044e+00 2.8274901589e+00 
6500 5.7150621453e+00 3.0178658390e-02 1.6315057009e+00 -2.8258507669e+00 1.6315057009e+00 2.8258507669e+00 
6600 5.7149230874e+00 2.9470821720e-02 1.6305809170e+00 -2.8242489941e+00 1.6305809170e+00 2.8242489941e+00 
6700 5.7147882133e+00 2.8781729051e-02 1.6296773097e+00 -2.8226839003e+00 1.6296773097e+00 2.8226839003e+00 
6800 5.7146574147e+00 2.8111173705e-02 1.6287943395e+00 -2.8211545511e+00 1.6287943395e+00 2.8211545511e+00 
6900 5.7145305874e+00 2.7458926691e-02 1.6279314715e+00 -2.8196600199e+00 1.6279314715e+00 2.8196600199e+00 
7000 5.7144076308e+00 2.6824738652e-02 1.6270881757e+00 -2.8181993888e+00 1.6270881757e+00 2.8181993888e+00 
7100 5.7142884474e+00 2.6208341726e-02 1.6262639281e+00 -2.8167717499e+00 1.6262639281e+00 2.8167717499e+00 
7200 5.7141729431e+00 2.5609451314e-02 1.6254582109e+00 -2.8153762068e+00 1.6254582109e+00 2.8153762068e+00 
7300 5.7140610264e+00 2.5027767758e-02 1.6246705135e+00 -2.8140118750e+00 1.6246705135e+00 2.8140118750e+00 
7400 5.7139526082e+00 2.4462977939e-02 1.6239003331e+00 -2.8126778834e+00 1.6239003331e+00 2.8126778834e+00 
7500 5.7138476018e+00 2.3914756791e-02 1.6231471746e+00 -2.8113733746e+00 1.6231471746e+00 2.8113733746e+00 
7600 5.7137459223e+00 2.3382768743e-02 1.6224105517e+00 -2.8100975064e+00 1.6224105517e+00 2.8100975064e+00 
7700 5.7136474871e+00 2.2866669079e-02 1.6216899870e+00 -2.8088494516e+00 1.6216899870e+00 2.8088494516e+00 
7800 5.7135522148e+00 2.2366105232e-02 1.6209850122e+00 -2.8076283994e+00 1.6209850122e+00 2.8076283994e+00 
7900 5.7134600258e+00 2.1880718005e-02 1.6202951687e+00 -2.8064335555e+00 1.6202951687e+00 2.8064335555e+00 
8000 5.7133708419e+00 2.1410142731e-02 1.6196200079e+00 -2.8052641426e+00 1.6196200079e+00 2.8052641426e+00 
8100 5.7132845862e+00 2.0954010364e-02 1.6189590909e+00 -2.8041194009e+00 1.6189590909e+00 2.8041194009e+00 
8200 5.7132011828e+00 2.0511948508e-02 1.6183119895e+00 -2.8029985884e+00 1.6183119895e+00 2.8029985884e+00 
8300 5.7131205572e+00 2.0083582395e-02 1.6176782857e+00 -2.8019009812e+00 1.6176782857e+00 2.8019009812e+00 
8400 5.7130426360e+00 1.9668535794e-02 1.6170575722e+00 -2.8008258738e+00 1.6170575722e+00 2.8008258738e+00 
8500 5.7129673464e+00 1.9266431878e-02 1.6164494521e+00 -2.7997725789e+00 1.6164494521e+00 2.7997725789e+00 
8600 5.7128946171e+00 1.8876894027e-02 1.6158535397e+00 -2.7987404283e+00 1.6158535397e+00 2.7987404283e+00 
8700 5.7128243774e+00 1.8499546586e-02 1.6152694596e+00 -2.7977287720e+00 1.6152694596e+00 2.7977287720e+00 
8800 5.7127565578e+00 1.8134015576e-02 1.6146968476e+00 -2.7967369789e+00 1.6146968476e+00 2.7967369789e+00 
8900 5.7126910894e+00 1.7779929354e-02 1.6141353501e+00 -2.7957644367e+00 1.6141353501e+00 2.7957644367e+00 
9000 5.7126279046e+00 1.7436919229e-02 1.6135846244e+00 -2.7948105518e+00 1.6135846244e+00 2.7948105518e+00 
9100 5.7125669366e+00 1.7104620033e-02 1.6130443383e+00 -2.7938747488e+00 1.6130443383e+00 2.7938747488e+00 
9200 5.7125081194e+00 1.6782670657e-02 1.6125141705e+00 -2.7929564713e+00 1.6125141705e+00 2.7929564713e+00 
9300 5.7124513884e+00 1.6470714538e-02 1.6119938102e+00 -2.7920551808e+00 1.6119938102e+00 2.7920551808e+00 
9400 5.7123966794e+00 1.6168400111e-02 1.6114829570e+00 -2.7911703571e+00 1.6114829570e+00 2.7911703571e+00 
9500 5.7123439299e+00 1.5875381226e-02 1.6109813209e+00 -2.7903014979e+00 1.6109813209e+00 2.7903014979e+00 
9600 5.7122930779e+00 1.5591317529e-02 1.6104886221e+00 -2.7894481185e+00 1.6104886221e+00 2.7894481185e+00 
9700 5.7122440627e+00 1.5315874802e-02 1.6100045908e+00 -2.7886097518e+00 1.6100045908e+00 2.7886097518e+00 
9800 5.7121968249e+00 1.5048725280e-02 1.6095289673e+00 -2.7877859477e+00 1.6095289673e+00 2.7877859477e+00 
9900 5.7121513058e+00 1.4789547931e-02 1.6090615015e+00 -2.7869762731e+00 1.6090615015e+00 2.7869762731e+00 
10000 5.7121074483e+00 1.4538028707e-02 1.6086019528e+00 -2.7861803113e+00 1.6086019528e+00 2.7861803113e+00 
10100 5.7120651962e+00 1.4293860762e-02 1.6081500899e+00 -2.7853976620e+00 1.6081500899e+00 2.7853976620e+00 
10200 5.7120244947e+00 1.4056744656e-02 1.6077056911e+00 -2.7846279405e+00 1.6077056911e+00 2.7846279405e+00 
10300 5.7119852901e+00 1.3826388511e-02 1.6072685430e+00 -2.7838707779e+00 1.6072685430e+00 2.7838707779e+00 
10400 5.7119475301e+00 1.3602508164e-02 1.6068384416e+00 -2.7831258203e+00 1.6068384416e+00 2.7831258203e+00 
10500 5.7119111637e+00 1.3384827280e-02 1.6064151908e+00 -2.7823927286e+00 1.6064151908e+00 2.7823927286e+00 
10600 5.7118761410e+00 1.3173077449e-02 1.6059986034e+00 -2.7816711779e+00 1.6059986034e+00 2.7816711779e+00 
10700 5.7118424135e+00 1.2966998263e-02 1.6055884997e+00 -2.7809608576e+00 1.6055884997e+00 2.7809608576e+00 
10800 5.7118099343e+00 1.2766337363e-02 1.6051847084e+00 -2.7802614705e+00 1.6051847084e+00 2.7802614705e+00 
10900 5.7117786574e+00 1.2570850480e-02 1.6047870654e+00 -2.7795727326e+00 1.6047870654e+00 2.7795727326e+00 
11000 5.7117485383e+00 1.2380301446e-02 1.6043954141e+00 -2.7788943726e+00 1.6043954141e+00 2.7788943726e+00 
11100 5.7117195341e+00 1.2194462192e-02 1.6040096050e+00 -2.7782261317e+00 1.6040096050e+00 2.7782261317e+00 
11200 5.7116916029e+00 1.2013112730e-02 1.6036294957e+00 -2.7775677631e+00 1.6036294957e+00 2.7775677631e+00 
11300 5.7116647042e+00 1.1836041116e-02 1.6032549502e+00 -2.7769190312e+00 1.6032549502e+00 2.7769190312e+00 
11400 5.7116387989e+00 1.1663043404e-02 1.6028858390e+00 -2.7762797119e+00 1.6028858390e+00 2.7762797119e+00 
11500 5.7116138493e+00 1.1493923578e-02 1.6025220388e+00 -2.7756495915e+00 1.6025220388e+00 2.7756495915e+00 
11600 5.7115898187e+00 1.1328493480e-02 1.6021634324e+00 -2.7750284669e+00 1.6021634324e+00 2.7750284669e+00 
11700 5.7115666721e+00 1.1166572720e-02 1.6018099080e+00 -2.7744161447e+00 1.6018099080e+00 2.7744161447e+00 
11800 5.7115443753e+00 1.1007988573e-02 1.6014613595e+00 -2.7738124411e+00 1.6014613595e+00 2.7738124411e+00 
11900 5.7115228958e+00 1.0852575877e-02 1.6011176861e+00 -2.7732171812e+00 1.6011176861e+00 2.7732171812e+00 
12000 5.7115022021e+00 1.0700176903e-02 1.6007787918e+00 -2.7726301991e+00 1.6007787918e+00 2.7726301991e+00 
12100 5.7114822638e+00 1.0550641235e-02 1.6004445856e+00 -2.7720513369e+00 1.6004445856e+00 2.7720513369e+00 
12200 5.7114630518e+00 1.0403825628e-02 1.6001149810e+00 -2.7714804450e+00 1.6001149810e+00 2.7714804450e+00 
12300 5.7114445383e+00 1.0259593868e-02 1.5997898958e+00 -2.7709173809e+00 1.5997898958e+00 2.7709173809e+00 
12400 5.7114266963e+00 1.0117816615e-02 1.5994692521e+00 -2.7703620097e+00 1.5994692521e+00 2.7703620097e+00 
12500 5.7114095001e+00 9.9783712534e-03 1.5991529758e+00 -2.7698142032e+00 1.5991529758e+00 2.7698142032e+00 
12600 5.7113929250e+00 9.8411417241e-03 1.5988409967e+00 -2.7692738395e+00 1.5988409967e+00 2.7692738395e+00 
12700 5.7113769473e+00 9.7060183595e-03 1.5985332480e+00 -2.7687408031e+00 1.5985332480e+00 2.7687408031e+00 
12800 5.7113615443e+00 9.5728977122e-03 1.5982296662e+00 -2.7682149840e+00 1.5982296662e+00 2.7682149840e+00 
12900 5.7113466942e+00 9.4416823801e-03 1.5979301911e+00 -2.7676962780e+00 1.5979301911e+00 2.7676962780e+00 
13000 5.7113323764e+00 9.3122808278e-03 1.5976347655e+00 -2.7671845857e+00 1.5976347655e+00 2.7671845857e+00 
13100 5.7113185707e+00 9.1846072071e-03 1.5973433347e+00 -2.7666798129e+00 1.5973433347e+00 2.7666798129e+00 
13200 5.7113052583e+00 9.0585811738e-03 1.5970558470e+00 -2.7661818696e+00 1.5970558470e+00 2.7661818696e+00 
13300 5.7112924207e+00 8.9341277040e-03 1.5967722529e+00 -2.7656906701e+00 1.5967722529e+00 2.7656906701e+00 
13400 5.7112800406e+00 8.8111769093e-03 1.5964925052e+00 -2.7652061329e+00 1.5964925052e+00 2.7652061329e+00 
13500 5.7112681012e+00 8.6896638509e-03 1.5962165589e+00 -2.7647281800e+00 1.5962165589e+00 2.7647281800e+00 
13600 5.7112565866e+00 8.5695283540e-03 1.5959443710e+00 -2.7642567367e+00 1.5959443710e+00 2.7642567367e+00 
13700 5.7112454814e+00 8.4507148219e-03 1.5956759003e+00 -2.7637917317e+00 1.5956759003e+00 2.7637917317e+00 
13800 5.7112347711e+00 8.3331720514e-03 1.5954111071e+00 -2.7633330965e+00 1.5954111071e+00 2.7633330965e+00 
13900 5.7112244415e+00 8.2168530485e-03 1.5951499536e+00 -2.7628807653e+00 1.5951499536e+00 2.7628807653e+00 
14000 5.7112144792e+00 8.1017148455e-03 1.5948924031e+00 -2.7624346749e+00 1.5948924031e+00 2.7624346749e+00 
14100 5.7112048714e+00 7.9877183200e-03 1.5946384205e+00 -2.7619947640e+00 1.5946384205e+00 2.7619947640e+00 
14200 5.7111956059e+00 7.8748280156e-03 1.5943879716e+00 -2.7615609738e+00 1.5943879716e+00 2.7615609738e+00 
14300 5.7111866707e+00 7.7630119648e-03 1.5941410234e+00 -2.7611332469e+00 1.5941410234e+00 2.7611332469e+00 
14400 5.7111780545e+00 7.6522415138e-03 1.5938975439e+00 -2.7607115280e+00 1.5938975439e+00 2.7607115280e+00 
14500 5.7111697466e+00 7.5424911510e-03 1.5936575018e+00 -2.7602957629e+00 1.5936575018e+00 2.7602957629e+00 
14600 5.7111617364e+00 7.4337383378e-03 1.5934208667e+00 -2.7598858990e+00 1.5934208667e+00 2.7598858990e+00 
14700 5.7111540140e+00 7.3259633418e-03 1.5931876089e+00 -2.7594818847e+00 1.5931876089e+00 2.7594818847e+00 
14800 5.7111465697e+00 7.2191490748e-03 1.5929576992e+00 -2.7590836693e+00 1.5929576992e+00 2.7590836693e+00 
14900 5.7111393943e+00 7.1132809328e-03 1.5927311088e+00 -2.7586912032e+00 1.5927311088e+00 2.7586912032e+00 
15000 5.7111324789e+00 7.0083466408e-03 1.5925078095e+00 -2.7583044375e+00 1.5925078095e+00 2.7583044375e+00 
15100 5.7111258149e+00 6.9043360997e-03 1.5922877734e+00 -2.7579233238e+00 1.5922877734e+00 2.7579233238e+00 
15200 5.7111193941e+00 6.8012412393e-03 1.5920709728e+00 -2.7575478141e+00 1.5920709728e+00 2.7575478141e+00 
15300 5.7111132085e+00 6.6990558730e-03 1.5918573802e+00 -2.7571778610e+00 1.5918573802e+00 2.7571778610e+00 
15400 5.7111072505e+00 6.5977755582e-03 1.5916469685e+00 -2.7568134172e+00 1.5916469685e+00 2.7568134172e+00 
15500 5.7111015126e+00 6.4973974599e-03 1.5914397105e+00 -2.7564544358e+00 1.5914397105e+00 2.7564544358e+00 
15600 5.7110959877e+00 6.3979202188e-03 1.5912355790e+00 -2.7561008697e+00 1.5912355790e+00 2.7561008697e+00 
15700 5.7110906689e+00 6.2993438241e-03 1.5910345470e+00 -2.7557526721e+00 1.5910345470e+00 2.7557526721e+00 
15800 5.7110855495e+00 6.2016694895e-03 1.5908365874e+00 -2.7554097959e+00 1.5908365874e+00 2.7554097959e+00 
15900 5.7110806230e+00 6.1048995350e-03 1.5906416729e+00 -2.7550721940e+00 1.5906416729e+00 2.7550721940e+00 
16000 5.7110758832e+00 6.0090372716e-03 1.5904497762e+00 -2.7547398192e+00 1.5904497762e+00 2.7547398192e+00 
16100 5.7110713240e+00 5.9140868914e-03 1.5902608699e+00 -2.7544126240e+00 1.5902608699e+00 2.7544126240e+00 
16200 5.7110669395e+00 5.8200533618e-03 1.5900749265e+00 -2.7540905605e+00 1.5900749265e+00 2.7540905605e+00 
16300 5.7110627241e+00 5.7269423238e-03 1.5898919181e+00 -2.7537735807e+00 1.5898919181e+00 2.7537735807e+00 
16400 5.7110586723e+00 5.6347599951e-03 1.5897118167e+00 -2.7534616359e+00 1.5897118167e+00 2.7534616359e+00 
16500 5.7110547786e+00 5.5435130771e-03 1.5895345942e+00 -2.7531546775e+00 1.5895345942e+00 2.7531546775e+00 
16600 5.7110510379e+00 5.4532086664e-03 1.5893602220e+00 -2.7528526560e+00 1.5893602220e+00 2.7528526560e+00 
16700 5.7110474451e+00 5.3638541709e-03 1.5891886715e+00 -2.7525555219e+00 1.5891886715e+00 2.7525555219e+00 
16800 5.7110439954e+00 5.2754572295e-03 1.5890199137e+00 -2.7522632248e+00 1.5890199137e+00 2.7522632248e+00 
16900 5.7110406840e+00 5.1880256361e-03 1.5888539194e+00 -2.7519757142e+00 1.5888539194e+00 2.7519757142e+00 
17000 5.7110375063e+00 5.1015672683e-03 1.5886906591e+00 -2.7516929390e+00 1.5886906591e+00 2.7516929390e+00 
17100 5.7110344578e+00 5.0160900197e-03 1.5885301029e+00 -2.7514148476e+00 1.5885301029e+00 2.7514148476e+00 
17200 5.7110315342e+00 4.9316017357e-03 1.5883722209e+00 -2.7511413879e+00 1.5883722209e+00 2.7511413879e+00 
17300 5.7110287312e+00 4.8481101544e-03 1.5882169827e+00 -2.7508725074e+00 1.5882169827e+00 2.7508725074e+00 
17400 5.7110260447e+00 4.7656228502e-03 1.5880643577e+00 -2.7506081532e+00 1.5880643577e+00 2.7506081532e+00 
17500 5.7110234708e+00 4.6841471817e-03 1.5879143150e+00 -2.7503482717e+00 1.5879143150e+00 2.7503482717e+00 
17600 5.7110210056e+00 4.6036902433e-03 1.5877668236e+00 -2.7500928091e+00 1.5877668236e+00 2.7500928091e+00 
17700 5.7110186453e+00 4.5242588204e-03 1.5876218521e+00 -2.7498417110e+00 1.5876218521e+00 2.7498417110e+00 
17800 5.7110163863e+00 4.4458593474e-03 1.5874793688e+00 -2.7495949227e+00 1.5874793688e+00 2.7495949227e+00 
17900 5.7110142251e+00 4.3684978706e-03 1.5873393420e+00 -2.7493523891e+00 1.5873393420e+00 2.7493523891e+00 
18000 5.7110121581e+00 4.2921800124e-03 1.5872017395e+00 -2.7491140547e+00 1.5872017395e+00 2.7491140547e+00 
18100 5.7110101822e+00 4.2169109406e-03 1.5870665293e+00 -2.7488798637e+00 1.5870665293e+00 2.7488798637e+00 
18200 5.7110082941e+00 4.1426953397e-03 1.5869336788e+00 -2.7486497599e+00 1.5869336788e+00 2.7486497599e+00 
18300 5.7110064905e+00 4.0695373855e-03 1.5868031554e+00 -2.7484236868e+00 1.5868031554e+00 2.7484236868e+00 
18400 5.7110047686e+00 3.9974407226e-03 1.5866749264e+00 -2.7482015877e+00 1.5866749264e+00 2.7482015877e+00 
18500 5.7110031254e+00 3.9264084450e-03 1.5865489590e+00 -2.7479834057e+00 1.5865489590e+00 2.7479834057e+00 
18600 5.7110015580e+00 3.8564430788e-03 1.5864252201e+00 -2.7477690835e+00 1.5864252201e+00 2.7477690835e+00 
18700 5.7110000637e+00 3.7875465680e-03 1.5863036765e+00 -2.7475585640e+00 1.5863036765e+00 2.7475585640e+00 
18800 5.7109986398e+00 3.7197202626e-03 1.5861842953e+00 -2.7473517896e+00 1.5861842953e+00 2.7473517896e+00 
18900 5.7109972837e+00 3.6529649095e-03 1.5860670430e+00 -2.7471487027e+00 1.5860670430e+00 2.7471487027e+00 
19000 5.7109959929e+00 3.5872806446e-03 1.5859518864e+00 -2.7469492456e+00 1.5859518864e+00 2.7469492456e+00 
19100 5.7109947651e+00 3.5226669889e-03 1.5858387923e+00 -2.7467533608e+00 1.5858387923e+00 2.7467533608e+00 
19200 5.7109935978e+00 3.4591228445e-03 1.5857277272e+00 -2.7465609905e+00 1.5857277272e+00 2.7465609905e+00 
19300 5.7109924889e+00 3.3966464949e-03 1.5856186579e+00 -2.7463720770e+00 1.5856186579e+00 2.7463720770e+00 
19400 5.7109914361e+00 3.3352356050e-03 1.5855115512e+00 -2.7461865627e+00 1.5855115512e+00 2.7461865627e+00 
19500 5.7109904374e+00 3.2748872247e-03 1.5854063738e+00 -2.7460043901e+00 1.5854063738e+00 2.7460043901e+00 
19600 5.7109894907e+00 3.2155977929e-03 1.5853030927e+00 -2.7458255019e+00 1.5853030927e+00 2.7458255019e+00 
19700 5.7109885941e+00 3.1573631442e-03 1.5852016748e+00 -2.7456498409e+00 1.5852016748e+00 2.7456498409e+00 
19800 5.7109877456e+00 3.1001785159e-03 1.5851020871e+00 -2.7454773501e+00 1.5851020871e+00 2.7454773501e+00 
19900 5.7109869435e+00 3.0440385577e-03 1.5850042970e+00 -2.7453079726e+00 1.5850042970e+00 2.7453079726e+00 
20000 5.7109861860e+00 2.9889373415e-03 1.5849082718e+00 -2.7451416520e+00 1.5849082718e+00 2.7451416520e+00 
20100 5.7109854714e+00 2.9348683735e-03 1.5848139790e+00 -2.7449783322e+00 1.5848139790e+00 2.7449783322e+00 
20200 5.7109847980e+00 2.8818246066e-03 1.5847213864e+00 -2.7448179571e+00 1.5847213864e+00 2.7448179571e+00 
20300 5.7109841643e+00 2.8297984547e-03 1.5846304620e+00 -2.7446604714e+00 1.5846304620e+00 2.7446604714e+00 
20400 5.7109835688e+00 2.7787818067e-03 1.5845411740e+00 -2.7445058200e+00 1.5845411740e+00 2.7445058200e+00 
20500 5.7109830099e+00 2.7287660432e-03 1.5844534906e+00 -2.7443539480e+00 1.5844534906e+00 2.7443539480e+00 
20600 5.7109824864e+00 2.6797420521e-03 1.5843673808e+00 -2.7442048014e+00 1.5843673808e+00 2.7442048014e+00 
20700 5.7109819968e+00 2.6317002465e-03 1.5842828133e+00 -2.7440583263e+00 1.5842828133e+00 2.7440583263e+00 
20800 5.7109815398e+00 2.5846305820e-03 1.5841997575e+00 -2.7439144694e+00 1.5841997575e+00 2.7439144694e+00 
20900 5.7109811141e+00 2.5385225759e-03 1.5841181830e+00 -2.7437731781e+00 1.5841181830e+00 2.7437731781e+00 
21000 5.7109807186e+00 2.4933653256e-03 1.5840380595e+00 -2.7436344002e+00 1.5840380595e+00 2.7436344002e+00 
21100 5.7109803520e+00 2.4491475283e-03 1.5839593573e+00 -2.7434980840e+00 1.5839593573e+00 2.7434980840e+00 
21200 5.7109800133e+00 2.4058575008e-03 1.5838820470e+00 -2.7433641786e+00 1.5838820470e+00 2.7433641786e+00 
21300 5.7109797014e+00 2.3634831996e-03 1.5838060995e+00 -2.7432326337e+00 1.5838060995e+00 2.7432326337e+00 
21400 5.7109794151e+00 2.3220122415e-03 1.5837314861e+00 -2.7431033994e+00 1.5837314861e+00 2.7431033994e+00 
21500 5.7109791536e+00 2.2814319237e-03 1.5836581784e+00 -2.7429764267e+00 1.5836581784e+00 2.7429764267e+00 
21600 5.7109789157e+00 2.2417292452e-03 1.5835861485e+00 -2.7428516673e+00 1.5835861485e+00 2.7428516673e+00 
21700 5.7109787007e+00 2.2028909270e-03 1.5835153688e+00 -2.7427290734e+00 1.5835153688e+00 2.7427290734e+00 
21800 5.7109785075e+00 2.1649034333e-03 1.5834458124e+00 -2.7426085980e+00 1.5834458124e+00 2.7426085980e+00 
21900 5.7109783354e+00 2.1277529923e-03 1.5833774523e+00 -2.7424901950e+00 1.5833774523e+00 2.7424901950e+00 
22000 5.7109781834e+00 2.0914256167e-03 1.5833102625e+00 -2.7423738188e+00 1.5833102625e+00 2.7423738188e+00 
22100 5.7109780508e+00 2.0559071247e-03 1.5832442170e+00 -2.7422594246e+00 1.5832442170e+00 2.7422594246e+00 
22200 5.7109779368e+00 2.0211831600e-03 1.5831792904e+00 -2.7421469684e+00 1.5831792904e+00 2.7421469684e+00 
22300 5.7109778406e+00 1.9872392128e-03 1.5831154578e+00 -2.7420364071e+00 1.5831154578e+00 2.7420364071e+00 
22400 5.7109777615e+00 1.9540606389e-03 1.5830526946e+00 -2.7419276981e+00 1.5830526946e+00 2.7419276981e+00 
22500 5.7109776987e+00 1.9216326804e-03 1.5829909769e+00 -2.7418207999e+00 1.5829909769e+00 2.7418207999e+00 
22600 5.7109776517e+00 1.8899404848e-03 1.5829302810e+00 -2.7417156716e+00 1.5829302810e+00 2.7417156716e+00 
22700 5.7109776198e+00 1.8589691237e-03 1.5828705839e+00 -2.7416122731e+00 1.5828705839e+00 2.7416122731e+00 
22800 5.7109776023e+00 1.8287036124e-03 1.5828118628e+00 -2.7415105652e+00 1.5828118628e+00 2.7415105652e+00 
22900 5.7109775985e+00 1.7991289278e-03 1.5827540956e+00 -2.7414105094e+00 1.5827540956e+00 2.7414105094e+00 
23000 5.7109776081e+00 1.7702300261e-03 1.5826972605e+00 -2.7413120682e+00 1.5826972605e+00 2.7413120682e+00 
23100 5.7109776302e+00 1.7419918609e-03 1.5826413364e+00 -2.7412152048e+00 1.5826413364e+00 2.7412152048e+00 
23200 5.7109776645e+00 1.7143994000e-03 1.5825863024e+00 -2.7411198831e+00 1.5825863024e+00 2.7411198831e+00 
23300 5.7109777103e+00 1.6874376417e-03 1.5825321382e+00 -2.7410260680e+00 1.5825321382e+00 2.7410260680e+00 
23400 5.7109777671e+00 1.6610916313e-03 1.5824788240e+00 -2.7409337251e+00 1.5824788240e+00 2.7409337251e+00 
23500 5.7109778345e+00 1.6353464764e-03 1.5824263405e+00 -2.7408428209e+00 1.5824263405e+00 2.7408428209e+00 
23600 5.7109779119e+00 1.6101873619e-03 1.5823746686e+00 -2.7407533227e+00 1.5823746686e+00 2.7407533227e+00 
23700 5.7109779990e+00 1.5855995644e-03 1.5823237901e+00 -2.7406651984e+00 1.5823237901e+00 2.7406651984e+00 
23800 5.7109780951e+00 1.5615684665e-03 1.5822736868e+00 -2.7405784171e+00 1.5822736868e+00 2.7405784171e+00 
23900 5.7109782000e+00 1.5380795696e-03 1.5822243414e+00 -2.7404929482e+00 1.5822243414e+00 2.7404929482e+00 
24000 5.7109783131e+00 1.5151185071e-03 1.5821757366e+00 -2.7404087624e+00 1.5821757366e+00 2.7404087624e+00 
24100 5.7109784341e+00 1.4926710565e-03 1.5821278560e+00 -2.7403258307e+00 1.5821278560e+00 2.7403258307e+00 
24200 5.7109785626e+00 1.4707231508e-03 1.5820806834e+00 -2.7402441253e+00 1.5820806834e+00 2.7402441253e+00 
24300 5.7109786981e+00 1.4492608899e-03 1.5820342029e+00 -2.7401636188e+00 1.5820342029e+00 2.7401636188e+00 
24400 5.7109788403e+00 1.4282705507e-03 1.5819883994e+00 -2.7400842848e+00 1.5819883994e+00 2.7400842848e+00 
24500 5.7109789889e+00 1.4077385973e-03 1.5819432580e+00 -2.7400060976e+00 1.5819432580e+00 2.7400060976e+00 
24600 5.7109791434e+00 1.3876516899e-03 1.5818987643e+00 -2.7399290321e+00 1.5818987643e+00 2.7399290321e+00 
24700 5.7109793037e+00 1.3679966940e-03 1.5818549041e+00 -2.7398530642e+00 1.5818549041e+00 2.7398530642e+00 
24800 5.7109794692e+00 1.3487606878e-03 1.5818116641e+00 -2.7397781702e+00 1.5818116641e+00 2.7397781702e+00 
24900 5.7109796397e+00 1.3299309706e-03 1.5817690309e+00 -2.7397043273e+00 1.5817690309e+00 2.7397043273e+00 
25000 5.7109798150e+00 1.3114950690e-03 1.5817269917e+00 -2.7396315133e+00 1.5817269917e+00 2.7396315133e+00 
25100 5.7109799946e+00 1.2934407440e-03 1.5816855342e+00 -2.7395597068e+00 1.5816855342e+00 2.7395597068e+00 
25200 5.7109801784e+00 1.2757559962e-03 1.5816446463e+00 -2.7394888869e+00 1.5816446463e+00 2.7394888869e+00 
25300 5.7109803661e+00 1.2584290715e-03 1.5816043164e+00 -2.7394190335e+00 1.5816043164e+00 2.7394190335e+00 
25400 5.7109805573e+00 1.2414484659e-03 1.5815645333e+00 -2.7393501271e+00 1.5815645333e+00 2.7393501271e+00 
25500 5.7109807518e+00 1.2248029295e-03 1.5815252860e+00 -2.7392821487e+00 1.5815252860e+00 2.7392821487e+00 
25600 5.7109809494e+00 1.2084814704e-03 1.5814865639e+00 -2.7392150802e+00 1.5814865639e+00 2.7392150802e+00 
25700 5.7109811499e+00 1.1924733579e-03 1.5814483569e+00 -2.7391489038e+00 1.5814483569e+00 2.7391489038e+00 
25800 5.7109813529e+00 1.1767681251e-03 1.5814106551e+00 -2.7390836023e+00 1.5814106551e+00 2.7390836023e+00 
25900 5.7109815583e+00 1.1613555712e-03 1.5813734490e+00 -2.7390191594e+00 1.5813734490e+00 2.7390191594e+00 
26000 5.7109817659e+00 1.1462257634e-03 1.5813367293e+00 -2.7389555590e+00 1.5813367293e+00 2.7389555590e+00 
26100 5.7109819755e+00 1.1313690380e-03 1.5813004871e+00 -2.7388927858e+00 1.5813004871e+00 2.7388927858e+00 
26200 5.7109821868e+00 1.1167760013e-03 1.5812647139e+00 -2.7388308247e+00 1.5812647139e+00 2.7388308247e+00 
26300 5.7109823997e+00 1.1024375302e-03 1.5812294013e+00 -2.7387696615e+00 1.5812294013e+00 2.7387696615e+00 
26400 5.7109826140e+00 1.0883447721e-03 1.5811945413e+00 -2.7387092822e+00 1.5811945413e+00 2.7387092822e+00 
26500 5.7109828295e+00 1.0744891444e-03 1.5811601261e+00 -2.7386496734e+00 1.5811601261e+00 2.7386496734e+00 
26600 5.7109830460e+00 1.0608623339e-03 1.5811261484e+00 -2.7385908222e+00 1.5811261484e+00 2.7385908222e+00 
26700 5.7109832634e+00 1.0474562957e-03 1.5810926008e+00 -2.7385327161e+00 1.5810926008e+00 2.7385327161e+00 
26800 5.7109834815e+00 1.0342632514e-03 1.5810594765e+00 -2.7384753431e+00 1.5810594765e+00 2.7384753431e+00 
26900 5.7109837002e+00 1.0212756877e-03 1.5810267687e+00 -2.7384186915e+00 1.5810267687e+00 2.7384186915e+00 
27000 5.7109839193e+00 1.0084863539e-03 1.5809944709e+00 -2.7383627501e+00 1.5809944709e+00 2.7383627501e+00 
27100 5.7109841387e+00 9.9588825950e-04 1.5809625770e+00 -2.7383075082e+00 1.5809625770e+00 2.7383075082e+00 
27200 5.7109843583e+00 9.8347467153e-04 1.5809310808e+00 -2.7382529553e+00 1.5809310808e+00 2.7382529553e+00 
27300 5.7109845779e+00 9.7123911141e-04 1.5808999767e+00 -2.7381990812e+00 1.5808999767e+00 2.7381990812e+00 
27400 5.7109847974e+00 9.5917535167e-04 1.5808692588e+00 -2.7381458764e+00 1.5808692588e+00 2.7381458764e+00 
27500 5.7109850168e+00 9.4727741239e-04 1.5808389220e+00 -2.7380933314e+00 1.5808389220e+00 2.7380933314e+00 
27600 5.7109852358e+00 9.3553955741e-04 1.5808089608e+00 -2.7380414372e+00 1.5808089608e+00 2.7380414372e+00 
27700 5.7109854544e+00 9.2395629031e-04 1.5807793704e+00 -2.7379901851e+00 1.5807793704e+00 2.7379901851e+00 
27800 5.7109856724e+00 9.1252235017e-04 1.5807501458e+00 -2.7379395666e+00 1.5807501458e+00 2.7379395666e+00 
27900 5.7109858899e+00 9.0123270723e-04 1.5807212823e+00 -2.7378895735e+00 1.5807212823e+00 2.7378895735e+00 
28000 5.7109861067e+00 8.9008255826e-04 1.5806927754e+00 -2.7378401981e+00 1.5806927754e+00 2.7378401981e+00 
28100 5.7109863227e+00 8.7906732183e-04 1.5806646206e+00 -2.7377914326e+00 1.5806646206e+00 2.7377914326e+00 
28200 5.7109865379e+00 8.6818263342e-04 1.5806368138e+00 -2.7377432698e+00 1.5806368138e+00 2.7377432698e+00 
28300 5.7109867521e+00 8.5742434043e-04 1.5806093508e+00 -2.7376957026e+00 1.5806093508e+00 2.7376957026e+00 
28400 5.7109869653e+00 8.4678849702e-04 1.5805822277e+00 -2.7376487239e+00 1.5805822277e+00 2.7376487239e+00 
28500 5.7109871774e+00 8.3627135889e-04 1.5805554405e+00 -2.7376023272e+00 1.5805554405e+00 2.7376023272e+00 
28600 5.7109873884e+00 8.2586937789e-04 1.5805289856e+00 -2.7375565059e+00 1.5805289856e+00 2.7375565059e+00 
28700 5.7109875982e+00 8.1557919669e-04 1.5805028593e+00 -2.7375112539e+00 1.5805028593e+00 2.7375112539e+00 
28800 5.7109878068e+00 8.0539764322e-04 1.5804770581e+00 -2.7374665649e+00 1.5804770581e+00 2.7374665649e+00 
28900 5.7109880140e+00 7.9532172518e-04 1.5804515786e+00 -2.7374224331e+00 1.5804515786e+00 2.7374224331e+00 
29000 5.7109882199e+00 7.8534862444e-04 1.5804264175e+00 -2.7373788527e+00 1.5804264175e+00 2.7373788527e+00 
29100 5.7109884243e+00 7.7547569141e-04 1.5804015715e+00 -2.7373358181e+00 1.5804015715e+00 2.7373358181e+00 
29200 5.7109886274e+00 7.6570043943e-04 1.5803770374e+00 -2.7372933239e+00 1.5803770374e+00 2.7372933239e+00 
29300 5.7109888289e+00 7.5602053909e-04 1.5803528122e+00 -2.7372513646e+00 1.5803528122e+00 2.7372513646e+00 
29400 5.7109890289e+00 7.4643381259e-04 1.5803288929e+00 -2.7372099352e+00 1.5803288929e+00 2.7372099352e+00 
29500 5.7109892273e+00 7.3693822810e-04 1.5803052765e+00 -2.7371690305e+00 1.5803052765e+00 2.7371690305e+00 
29600 5.7109894242e+00 7.2753189410e-04 1.5802819603e+00 -2.7371286455e+00 1.5802819603e+00 2.7371286455e+00 
29700 5.7109896194e+00 7.1821305382e-04 1.5802589413e+00 -2.7370887754e+00 1.5802589413e+00 2.7370887754e+00 
29800 5.7109898129e+00 7.0898007964e-04 1.5802362168e+00 -2.7370494155e+00 1.5802362168e+00 2.7370494155e+00 
29900 5.7109900048e+00 6.9983146756e-04 1.5802137841e+00 -2.7370105609e+00 1.5802137841e+00 2.7370105609e+00 
30000 5.7109901950e+00 6.9076583173e-04 1.5801916406e+00 -2.7369722072e+00 1.5801916406e+00 2.7369722072e+00 
30100 5.7109903834e+00 6.8178189904e-04 1.5801697836e+00 -2.7369343498e+00 1.5801697836e+00 2.7369343498e+00 
30200 5.7109905701e+00 6.7287850375e-04 1.5801482106e+00 -2.7368969843e+00 1.5801482106e+00 2.7368969843e+00 
30300 5.7109907551e+00 6.6405458218e-04 1.5801269190e+00 -2.7368601062e+00 1.5801269190e+00 2.7368601062e+00 
30400 5.7109909383e+00 6.5530916757e-04 1.5801059064e+00 -2.7368237112e+00 1.5801059064e+00 2.7368237112e+00 
30500 5.7109911196e+00 6.4664138486e-04 1.5800851702e+00 -2.7367877951e+00 1.5800851702e+00 2.7367877951e+00 
30600 5.7109912992e+00 6.3805044573e-04 1.5800647080e+00 -2.7367523535e+00 1.5800647080e+00 2.7367523535e+00 
30700 5.7109914770e+00 6.2953564362e-04 1.5800445174e+00 -2.7367173824e+00 1.5800445174e+00 2.7367173824e+00 
30800 5.7109916529e+00 6.2109634885e-04 1.5800245960e+00 -2.7366828775e+00 1.5800245960e+00 2.7366828775e+00 
30900 5.7109918270e+00 6.1273200393e-04 1.5800049414e+00 -2.7366488347e+00 1.5800049414e+00 2.7366488347e+00 
31000 5.7109919993e+00 6.0444211890e-04 1.5799855512e+00 -2.7366152500e+00 1.5799855512e+00 2.7366152500e+00 
31100 5.7109921697e+00 5.9622626675e-04 1.5799664232e+00 -2.7365821192e+00 1.5799664232e+00 2.7365821192e+00 
31200 5.7109923383e+00 5.8808407908e-04 1.5799475549e+00 -2.7365494384e+00 1.5799475549e+00 2.7365494384e+00 
31300 5.7109925051e+00 5.8001524171e-04 1.5799289441e+00 -2.7365172035e+00 1.5799289441e+00 2.7365172035e+00 
31400 5.7109926699e+00 5.7201949057e-04 1.5799105884e+00 -2.7364854105e+00 1.5799105884e+00 2.7364854105e+00 
31500 5.7109928330e+00 5.6409660757e-04 1.5798924855e+00 -2.7364540554e+00 1.5798924855e+00 2.7364540554e+00 
31600 5.7109929942e+00 5.5624641670e-04 1.5798746332e+00 -2.7364231342e+00 1.5798746332e+00 2.7364231342e+00 
31700 5.7109931535e+00 5.4846878019e-04 1.5798570291e+00 -2.7363926430e+00 1.5798570291e+00 2.7363926430e+00 
31800 5.7109933110e+00 5.4076359480e-04 1.5798396709e+00 -2.7363625778e+00 1.5798396709e+00 2.7363625778e+00 
31900 5.7109934667e+00 5.3313078827e-04 1.5798225564e+00 -2.7363329347e+00 1.5798225564e+00 2.7363329347e+00 
32000 5.7109936205e+00 5.2557031588e-04 1.5798056833e+00 -2.7363037096e+00 1.5798056833e+00 2.7363037096e+00 
32100 5.7109937725e+00 5.1808215712e-04 1.5797890494e+00 -2.7362748987e+00 1.5797890494e+00 2.7362748987e+00 
32200 5.7109939226e+00 5.1066631250e-04 1.5797726522e+00 -2.7362464980e+00 1.5797726522e+00 2.7362464980e+00 
32300 5.7109940710e+00 5.0332280050e-04 1.5797564896e+00 -2.7362185035e+00 1.5797564896e+00 2.7362185035e+00 
32400 5.7109942175e+00 4.9605165466e-04 1.5797405592e+00 -2.7361909113e+00 1.5797405592e+00 2.7361909113e+00 
32500 5.7109943622e+00 4.8885292071e-04 1.5797248588e+00 -2.7361637174e+00 1.5797248588e+00 2.7361637174e+00 
32600 5.7109945051e+00 4.8172665398e-04 1.5797093861e+00 -2.7361369179e+00 1.5797093861e+00 2.7361369179e+00 
32700 5.7109946462e+00 4.7467291677e-04 1.5796941388e+00 -2.7361105089e+00 1.5796941388e+00 2.7361105089e+00 
32800 5.7109947856e+00 4.6769177596e-04 1.5796791146e+00 -2.7360844862e+00 1.5796791146e+00 2.7360844862e+00 
32900 5.7109949232e+00 4.6078330072e-04 1.5796643113e+00 -2.7360588460e+00 1.5796643113e+00 2.7360588460e+00 
33000 5.7109950590e+00 4.5394756028e-04 1.5796497265e+00 -2.7360335844e+00 1.5796497265e+00 2.7360335844e+00 
33100 5.7109951930e+00 4.4718462192e-04 1.5796353579e+00 -2.7360086973e+00 1.5796353579e+00 2.7360086973e+00 
33200 5.7109953254e+00 4.4049454903e-04 1.5796212032e+00 -2.7359841807e+00 1.5796212032e+00 2.7359841807e+00 
33300 5.7109954560e+00 4.3387739922e-04 1.5796072602e+00 -2.7359600306e+00 1.5796072602e+00 2.7359600306e+00 
33400 5.7109955849e+00 4.2733322268e-04 1.5795935265e+00 -2.7359362432e+00 1.5795935265e+00 2.7359362432e+00 
33500 5.7109957120e+00 4.2086206058e-04 1.5795799998e+00 -2.7359128143e+00 1.5795799998e+00 2.7359128143e+00 
33600 5.7109958375e+00 4.1446394354e-04 1.5795666779e+00 -2.7358897400e+00 1.5795666779e+00 2.7358897400e+00 
33700 5.7109959613e+00 4.0813889030e-04 1.5795535584e+00 -2.7358670164e+00 1.5795535584e+00 2.7358670164e+00 
33800 5.7109960835e+00 4.0188690642e-04 1.5795406389e+00 -2.7358446393e+00 1.5795406389e+00 2.7358446393e+00 
33900 5.7109962040e+00 3.9570798313e-04 1.5795279173e+00 -2.7358226048e+00 1.5795279173e+00 2.7358226048e+00 
34000 5.7109963228e+00 3.8960209629e-04 1.5795153912e+00 -2.7358009089e+00 1.5795153912e+00 2.7358009089e+00 
34100 5.7109964401e+00 3.8356920536e-04 1.5795030582e+00 -2.7357795476e+00 1.5795030582e+00 2.7357795476e+00 
34200 5.7109965557e+00 3.7760925259e-04 1.5794909162e+00 -2.7357585169e+00 1.5794909162e+00 2.7357585169e+00 
34300 5.7109966697e+00 3.7172216222e-04 1.5794789627e+00 -2.7357378128e+00 1.5794789627e+00 2.7357378128e+00 
34400 5.7109967822e+00 3.6590783978e-04 1.5794671954e+00 -2.7357174314e+00 1.5794671954e+00 2.7357174314e+00 
34500 5.7109968930e+00 3.6016617151e-04 1.5794556122e+00 -2.7356973686e+00 1.5794556122e+00 2.7356973686e+00 
34600 5.7109970024e+00 3.5449702386e-04 1.5794442106e+00 -2.7356776205e+00 1.5794442106e+00 2.7356776205e+00 
34700 5.7109971101e+00 3.4890024301e-04 1.5794329884e+00 -2.7356581831e+00 1.5794329884e+00 2.7356581831e+00 
34800 5.7109972164e+00 3.4337565455e-04 1.5794219433e+00 -2.7356390524e+00 1.5794219433e+00 2.7356390524e+00 
34900 5.7109973212e+00 3.3792306318e-04 1.5794110730e+00 -2.7356202245e+00 1.5794110730e+00 2.7356202245e+00 
35000 5.7109974244e+00 3.3254225252e-04 1.5794003753e+00 -2.7356016955e+00 1.5794003753e+00 2.7356016955e+00 
35100 5.7109975262e+00 3.2723298497e-04 1.5793898478e+00 -2.7355834614e+00 1.5793898478e+00 2.7355834614e+00 
35200 5.7109976265e+00 3.2199500161e-04 1.5793794884e+00 -2.7355655183e+00 1.5793794884e+00 2.7355655183e+00 
35300 5.7109977254e+00 3.1682802224e-04 1.5793692947e+00 -2.7355478623e+00 1.5793692947e+00 2.7355478623e+00 
35400 5.7109978229e+00 3.1173174538e-04 1.5793592645e+00 -2.7355304894e+00 1.5793592645e+00 2.7355304894e+00 
35500 5.7109979189e+00 3.0670584841e-04 1.5793493955e+00 -2.7355133960e+00 1.5793493955e+00 2.7355133960e+00 
35600 5.7109980135e+00 3.0174998773e-04 1.5793396857e+00 -2.7354965780e+00 1.5793396857e+00 2.7354965780e+00 
35700 5.7109981068e+00 2.9686379898e-04 1.5793301326e+00 -2.7354800317e+00 1.5793301326e+00 2.7354800317e+00 
35800 5.7109981986e+00 2.9204689728e-04 1.5793207342e+00 -2.7354637531e+00 1.5793207342e+00 2.7354637531e+00 
35900 5.7109982891e+00 2.8729887757e-04 1.5793114883e+00 -2.7354477387e+00 1.5793114883e+00 2.7354477387e+00 
36000 5.7109983783e+00 2.8261931493e-04 1.5793023926e+00 -2.7354319845e+00 1.5793023926e+00 2.7354319845e+00 
36100 5.7109984662e+00 2.7800776502e-04 1.5792934450e+00 -2.7354164868e+00 1.5792934450e+00 2.7354164868e+00 
36200 5.7109985527e+00 2.7346376444e-04 1.5792846434e+00 -2.7354012419e+00 1.5792846434e+00 2.7354012419e+00 
36300 5.7109986380e+00 2.6898683128e-04 1.5792759855e+00 -2.7353862461e+00 1.5792759855e+00 2.7353862461e+00 
36400 5.7109987220e+00 2.6457646555e-04 1.5792674694e+00 -2.7353714957e+00 1.5792674694e+00 2.7353714957e+00 
36500 5.7109988047e+00 2.6023214974e-04 1.5792590928e+00 -2.7353569871e+00 1.5792590928e+00 2.7353569871e+00 
36600 5.7109988862e+00 2.5595334935e-04 1.5792508538e+00 -2.7353427167e+00 1.5792508538e+00 2.7353427167e+00 
36700 5.7109989664e+00 2.5173951350e-04 1.5792427502e+00 -2.7353286808e+00 1.5792427502e+00 2.7353286808e+00 
36800 5.7109990455e+00 2.4759007551e-04 1.5792347799e+00 -2.7353148759e+00 1.5792347799e+00 2.7353148759e+00 
36900 5.7109991233e+00 2.4350445353e-04 1.5792269410e+00 -2.7353012985e+00 1.5792269410e+00 2.7353012985e+00 
37000 5.7109992000e+00 2.3948205117e-04 1.5792192314e+00 -2.7352879451e+00 1.5792192314e+00 2.7352879451e+00 
37100 5.7109992754e+00 2.3552225816e-04 1.5792116491e+00 -2.7352748122e+00 1.5792116491e+00 2.7352748122e+00 
37200 5.7109993498e+00 2.3162445101e-04 1.5792041922e+00 -2.7352618963e+00 1.5792041922e+00 2.7352618963e+00 
37300 5.7109994230e+00 2.2778799371e-04 1.5791968586e+00 -2.7352491942e+00 1.5791968586e+00 2.7352491942e+00 
37400 5.7109994950e+00 2.2401223839e-04 1.5791896464e+00 -2.7352367024e+00 1.5791896464e+00 2.7352367024e+00 
37500 5.7109995660e+00 2.2029652603e-04 1.5791825538e+00 -2.7352244176e+00 1.5791825538e+00 2.7352244176e+00 
37600 5.7109996358e+00 2.1664018715e-04 1.5791755788e+00 -2.7352123365e+00 1.5791755788e+00 2.7352123365e+00 
37700 5.7109997046e+00 2.1304254256e-04 1.5791687195e+00 -2.7352004559e+00 1.5791687195e+00 2.7352004559e+00 
37800 5.7109997723e+00 2.0950290398e-04 1.5791619741e+00 -2.7351887726e+00 1.5791619741e+00 2.7351887726e+00 
37900 5.7109998390e+00 2.0602057485e-04 1.5791553408e+00 -2.7351772833e+00 1.5791553408e+00 2.7351772833e+00 
38000 5.7109999046e+00 2.0259485093e-04 1.5791488176e+00 -2.7351659849e+00 1.5791488176e+00 2.7351659849e+00 
38100 5.7109999692e+00 1.9922502109e-04 1.5791424030e+00 -2.7351548743e+00 1.5791424030e+00 2.7351548743e+00 
38200 5.7110000328e+00 1.9591036797e-04 1.5791360950e+00 -2.7351439485e+00 1.5791360950e+00 2.7351439485e+00 
38300 5.7110000954e+00 1.9265016869e-04 1.5791298919e+00 -2.7351332045e+00 1.5791298919e+00 2.7351332045e+00 
38400 5.7110001570e+00 1.8944369549e-04 1.5791237920e+00 -2.7351226392e+00 1.5791237920e+00 2.7351226392e+00 
38500 5.7110002176e+00 1.8629021649e-04 1.5791177936e+00 -2.7351122497e+00 1.5791177936e+00 2.7351122497e+00 
38600 5.7110002773e+00 1.8318899629e-04 1.5791118951e+00 -2.7351020331e+00 1.5791118951e+00 2.7351020331e+00 
38700 5.7110003360e+00 1.8013929665e-04 1.5791060947e+00 -2.7350919866e+00 1.5791060947e+00 2.7350919866e+00 
38800 5.7110003938e+00 1.7714037718e-04 1.5791003909e+00 -2.7350821072e+00 1.5791003909e+00 2.7350821072e+00 
38900 5.7110004507e+00 1.7419149589e-04 1.5790947820e+00 -2.7350723923e+00 1.5790947820e+00 2.7350723923e+00 
39000 5.7110005067e+00 1.7129190991e-04 1.5790892664e+00 -2.7350628391e+00 1.5790892664e+00 2.7350628391e+00 
39100 5.7110005618e+00 1.6844087603e-04 1.5790838427e+00 -2.7350534449e+00 1.5790838427e+00 2.7350534449e+00 
39200 5.7110006161e+00 1.6563765134e-04 1.5790785092e+00 -2.7350442070e+00 1.5790785092e+00 2.7350442070e+00 
39300 5.7110006694e+00 1.6288149376e-04 1.5790732644e+00 -2.7350351228e+00 1.5790732644e+00 2.7350351228e+00 
39400 5.7110007220e+00 1.6017166269e-04 1.5790681069e+00 -2.7350261898e+00 1.5790681069e+00 2.7350261898e+00 
39500 5.7110007736e+00 1.5750741944e-04 1.5790630352e+00 -2.7350174053e+00 1.5790630352e+00 2.7350174053e+00 
39600 5.7110008245e+00 1.5488802788e-04 1.5790580478e+00 -2.7350087669e+00 1.5790580478e+00 2.7350087669e+00 
39700 5.7110008745e+00 1.5231275488e-04 1.5790531434e+00 -2.7350002722e+00 1.5790531434e+00 2.7350002722e+00 
39800 5.7110009237e+00 1.4978087082e-04 1.5790483205e+00 -2.7349919187e+00 1.5790483205e+00 2.7349919187e+00 
39900 5.7110009722e+00 1.4729165010e-04 1.5790435777e+00 -2.7349837040e+00 1.5790435777e+00 2.7349837040e+00 
40000 5.7110010198e+00 1.4484437157e-04 1.5790389138e+00 -2.7349756258e+00 1.5790389138e+00 2.7349756258e+00 
40100 5.7110010667e+00 1.4243831895e-04 1.5790343273e+00 -2.7349676818e+00 1.5790343273e+00 2.7349676818e+00 
40200 5.7110011129e+00 1.4007278134e-04 1.5790298170e+00 -2.7349598697e+00 1.5790298170e+00 2.7349598697e+00 
40300 5.7110011583e+00 1.3774705351e-04 1.5790253816e+00 -2.7349521874e+00 1.5790253816e+00 2.7349521874e+00 
40400 5.7110012029e+00 1.3546043639e-04 1.5790210198e+00 -2.7349446326e+00 1.5790210198e+00 2.7349446326e+00 
40500 5.7110012469e+00 1.3321223735e-04 1.5790167305e+00 -2.7349372031e+00 1.5790167305e+00 2.7349372031e+00 
40600 5.7110012901e+00 1.3100177062e-04 1.5790125123e+00 -2.7349298970e+00 1.5790125123e+00 2.7349298970e+00 
40700 5.7110013326e+00 1.2882835758e-04 1.5790083640e+00 -2.7349227121e+00 1.5790083640e+00 2.7349227121e+00 
40800 5.7110013744e+00 1.2669132705e-04 1.5790042846e+00 -2.7349156463e+00 1.5790042846e+00 2.7349156463e+00 
40900 5.7110014156e+00 1.2459001563e-04 1.5790002729e+00 -2.7349086978e+00 1.5790002729e+00 2.7349086978e+00 
41000 5.7110014561e+00 1.2252376795e-04 1.5789963277e+00 -2.7349018645e+00 1.5789963277e+00 2.7349018645e+00 
41100 5.7110014959e+00 1.2049193691e-04 1.5789924479e+00 -2.7348951445e+00 1.5789924479e+00 2.7348951445e+00 
41200 5.7110015351e+00 1.1849388393e-04 1.5789886324e+00 -2.7348885359e+00 1.5789886324e+00 2.7348885359e+00 
41300 5.7110015736e+00 1.1652897917e-04 1.5789848802e+00 -2.7348820369e+00 1.5789848802e+00 2.7348820369e+00 
41400 5.7110016115e+00 1.1459660172e-04 1.5789811902e+00 -2.7348756456e+00 1.5789811902e+00 2.7348756456e+00 
41500 5.7110016488e+00 1.1269613977e-04 1.5789775614e+00 -2.7348693603e+00 1.5789775614e+00 2.7348693603e+00 
41600 5.7110016855e+00 1.1082699083e-04 1.5789739927e+00 -2.7348631793e+00 1.5789739927e+00 2.7348631793e+00 
41700 5.7110017215e+00 1.0898856178e-04 1.5789704833e+00 -2.7348571007e+00 1.5789704833e+00 2.7348571007e+00 
41800 5.7110017570e+00 1.0718026911e-04 1.5789670320e+00 -2.7348511230e+00 1.5789670320e+00 2.7348511230e+00 
41900 5.7110017919e+00 1.0540153895e-04 1.5789636380e+00 -2.7348452444e+00 1.5789636380e+00 2.7348452444e+00 
42000 5.7110018262e+00 1.0365180721e-04 1.5789603004e+00 -2.7348394633e+00 1.5789603004e+00 2.7348394633e+00 
42100 5.7110018600e+00 1.0193051965e-04 1.5789570181e+00 -2.7348337783e+00 1.5789570181e+00 2.7348337783e+00 
42200 5.7110018932e+00 1.0023713194e-04 1.5789537903e+00 -2.7348281876e+00 1.5789537903e+00 2.7348281876e+00 
42300 5.7110019259e+00 9.8571109750e-05 1.5789506161e+00 -2.7348226898e+00 1.5789506161e+00 2.7348226898e+00 
42400 5.7110019580e+00 9.6931928742e-05 1.5789474947e+00 -2.7348172833e+00 1.5789474947e+00 2.7348172833e+00 
42500 5.7110019896e+00 9.5319074622e-05 1.5789444252e+00 -2.7348119668e+00 1.5789444252e+00 2.7348119668e+00 
42600 5.7110020207e+00 9.3732043144e-05 1.5789414068e+00 -2.7348067387e+00 1.5789414068e+00 2.7348067387e+00 
42700 5.7110020512e+00 9.2170340115e-05 1.5789384386e+00 -2.7348015976e+00 1.5789384386e+00 2.7348015976e+00 
42800 5.7110020813e+00 9.0633481369e-05 1.5789355198e+00 -2.7347965422e+00 1.5789355198e+00 2.7347965422e+00 
42900 5.7110021108e+00 8.9120992758e-05 1.5789326498e+00 -2.7347915711e+00 1.5789326498e+00 2.7347915711e+00 
43000 5.7110021399e+00 8.7632410104e-05 1.5789298276e+00 -2.7347866829e+00 1.5789298276e+00 2.7347866829e+00 
43100 5.7110021685e+00 8.6167279149e-05 1.5789270525e+00 -2.7347818764e+00 1.5789270525e+00 2.7347818764e+00 
43200 5.7110021966e+00 8.4725155505e-05 1.5789243238e+00 -2.7347771502e+00 1.5789243238e+00 2.7347771502e+00 
43300 5.7110022242e+00 8.3305604581e-05 1.5789216408e+00 -2.7347725031e+00 1.5789216408e+00 2.7347725031e+00 
43400 5.7110022514e+00 8.1908201507e-05 1.5789190028e+00 -2.7347679339e+00 1.5789190028e+00 2.7347679339e+00 
43500 5.7110022782e+00 8.0532531044e-05 1.5789164090e+00 -2.7347634413e+00 1.5789164090e+00 2.7347634413e+00 
43600 5.7110023045e+00 7.9178187491e-05 1.5789138587e+00 -2.7347590241e+00 1.5789138587e+00 2.7347590241e+00 
43700 5.7110023303e+00 7.7844774578e-05 1.5789113514e+00 -2.7347546812e+00 1.5789113514e+00 2.7347546812e+00 
43800 5.7110023558e+00 7.6531905359e-05 1.5789088862e+00 -2.7347504115e+00 1.5789088862e+00 2.7347504115e+00 
43900 5.7110023808e+00 7.5239202090e-05 1.5789064627e+00 -2.7347462137e+00 1.5789064627e+00 2.7347462137e+00 
44000 5.7110024054e+00 7.3966296107e-05 1.5789040800e+00 -2.7347420869e+00 1.5789040800e+00 2.7347420869e+00 
44100 5.7110024295e+00 7.2712827685e-05 1.5789017377e+00 -2.7347380299e+00 1.5789017377e+00 2.7347380299e+00 
44200 5.7110024533e+00 7.1478445920e-05 1.5788994351e+00 -2.7347340416e+00 1.5788994351e+00 2.7347340416e+00 
44300 5.7110024767e+00 7.0262808562e-05 1.5788971715e+00 -2.7347301210e+00 1.5788971715e+00 2.7347301210e+00 
44400 5.7110024999e+00 7.0995468709e-05 1.5788971715e+00 -2.7347301210e+00 1.5788971715e+00 2.7347301210e+00 
44500 5.7110025225e+00 6.9773805048e-05 1.5788949233e+00 -2.7347262269e+00 1.5788949233e+00 2.7347262269e+00 
44600 5.7110025449e+00 7.0487416292e-05 1.5788949233e+00 -2.7347262269e+00 1.5788949233e+00 2.7347262269e+00 
44700 5.7110025670e+00 7.1196855191e-05 1.5788949233e+00 -2.7347262269e+00 1.5788949233e+00 2.7347262269e+00 
44800 5.7110025885e+00 6.9946734454e-05 1.5788926686e+00 -2.7347223217e+00 1.5788926686e+00 2.7347223217e+00 
44900 5.7110026098e+00 7.0637624851e-05 1.5788926686e+00 -2.7347223217e+00 1.5788926686e+00 2.7347223217e+00 
45000 5.7110026307e+00 7.1324532136e-05 1.5788926686e+00 -2.7347223217e+00 1.5788926686e+00 2.7347223217e+00 
45100 5.7110026511e+00 7.0048518997e-05 1.5788904099e+00 -2.7347184096e+00 1.5788904099e+00 2.7347184096e+00 
45200 5.7110026714e+00 7.0717101827e-05 1.5788904099e+00 -2.7347184096e+00 1.5788904099e+00 2.7347184096e+00 
45300 5.7110026911e+00 6.9439406300e-05 1.5788881705e+00 -2.7347145307e+00 1.5788881705e+00 2.7347145307e+00 
45400 5.7110027107e+00 7.0089658853e-05 1.5788881705e+00 -2.7347145307e+00 1.5788881705e+00 2.7347145307e+00 
45500 5.7110027300e+00 7.0735920672e-05 1.5788881705e+00 -2.7347145307e+00 1.5788881705e+00 2.7347145307e+00 
45600 5.7110027488e+00 6.9435372762e-05 1.5788859304e+00 -2.7347106508e+00 1.5788859304e+00 2.7347106508e+00 
45700 5.7110027674e+00 7.0063239981e-05 1.5788859304e+00 -2.7347106508e+00 1.5788859304e+00 2.7347106508e+00 
45800 5.7110027857e+00 7.0687043006e-05 1.5788859304e+00 -2.7347106508e+00 1.5788859304e+00 2.7347106508e+00 
45900 5.7110028037e+00 7.1306808164e-05 1.5788859304e+00 -2.7347106508e+00 1.5788859304e+00 2.7347106508e+00 
46000 5.7110028212e+00 6.9963997546e-05 1.5788836723e+00 -2.7347067396e+00 1.5788836723e+00 2.7347067396e+00 
46100 5.7110028386e+00 7.0565069125e-05 1.5788836723e+00 -2.7347067396e+00 1.5788836723e+00 2.7347067396e+00 
46200 5.7110028557e+00 7.1161915159e-05 1.5788836723e+00 -2.7347067396e+00 1.5788836723e+00 2.7347067396e+00 
46300 5.7110028724e+00 6.9799961524e-05 1.5788814187e+00 -2.7347028364e+00 1.5788814187e+00 2.7347028364e+00 
46400 5.7110028889e+00 7.0377718008e-05 1.5788814187e+00 -2.7347028364e+00 1.5788814187e+00 2.7347028364e+00 
46500 5.7110029052e+00 7.0951023456e-05 1.5788814187e+00 -2.7347028364e+00 1.5788814187e+00 2.7347028364e+00 
46600 5.7110029210e+00 6.9571085474e-05 1.5788791718e+00 -2.7346989447e+00 1.5788791718e+00 2.7346989447e+00 
46700 5.7110029367e+00 7.0124857434e-05 1.5788791718e+00 -2.7346989447e+00 1.5788791718e+00 2.7346989447e+00 
46800 5.7110029522e+00 7.0673932522e-05 1.5788791718e+00 -2.7346989447e+00 1.5788791718e+00 2.7346989447e+00 
46900 5.7110029674e+00 7.1218293977e-05 1.5788791718e+00 -2.7346989447e+00 1.5788791718e+00 2.7346989447e+00 
47000 5.7110029821e+00 6.9801794069e-05 1.5788769165e+00 -2.7346950383e+00 1.5788769165e+00 2.7346950383e+00 
47100 5.7110029968e+00 7.0326020818e-05 1.5788769165e+00 -2.7346950383e+00 1.5788769165e+00 2.7346950383e+00 
47200 5.7110030113e+00 7.0845255805e-05 1.5788769165e+00 -2.7346950383e+00 1.5788769165e+00 2.7346950383e+00 
47300 5.7110030253e+00 6.9413597034e-05 1.5788746730e+00 -2.7346911524e+00 1.5788746730e+00 2.7346911524e+00 
47400 5.7110030392e+00 6.9912208233e-05 1.5788746730e+00 -2.7346911524e+00 1.5788746730e+00 2.7346911524e+00 
47500 5.7110030530e+00 7.0405564406e-05 1.5788746730e+00 -2.7346911524e+00 1.5788746730e+00 2.7346911524e+00 
47600 5.7110030665e+00 7.0893649729e-05 1.5788746730e+00 -2.7346911524e+00 1.5788746730e+00 2.7346911524e+00 
47700 5.7110030796e+00 6.9429230118e-05 1.5788724279e+00 -2.7346872638e+00 1.5788724279e+00 2.7346872638e+00 
47800 5.7110030926e+00 6.9896130148e-05 1.5788724279e+00 -2.7346872638e+00 1.5788724279e+00 2.7346872638e+00 
47900 5.7110031055e+00 7.0357502901e-05 1.5788724279e+00 -2.7346872638e+00 1.5788724279e+00 2.7346872638e+00 
48000 5.7110031181e+00 7.0813337952e-05 1.5788724279e+00 -2.7346872638e+00 1.5788724279e+00 2.7346872638e+00 
48100 5.7110031303e+00 6.9318609277e-05 1.5788701854e+00 -2.7346833796e+00 1.5788701854e+00 2.7346833796e+00 
48200 5.7110031425e+00 6.9752759094e-05 1.5788701854e+00 -2.7346833796e+00 1.5788701854e+00 2.7346833796e+00 
48300 5.7110031545e+00 7.0181139085e-05 1.5788701854e+00 -2.7346833796e+00 1.5788701854e+00 2.7346833796e+00 
48400 5.7110031663e+00 7.0603749176e-05 1.5788701854e+00 -2.7346833796e+00 1.5788701854e+00 2.7346833796e+00 
48500 5.7110031779e+00 7.1020585491e-05 1.5788701854e+00 -2.7346833796e+00 1.5788701854e+00 2.7346833796e+00 
48600 5.7110031891e+00 6.9480932265e-05 1.5788679363e+00 -2.7346794841e+00 1.5788679363e+00 2.7346794841e+00 
48700 5.7110032003e+00 6.9875605819e-05 1.5788679363e+00 -2.7346794841e+00 1.5788679363e+00 2.7346794841e+00 
48800 5.7110032113e+00 7.0264300883e-05 1.5788679363e+00 -2.7346794841e+00 1.5788679363e+00 2.7346794841e+00 
48900 5.7110032221e+00 7.0647029212e-05 1.5788679363e+00 -2.7346794841e+00 1.5788679363e+00 2.7346794841e+00 
49000 5.7110032328e+00 7.1023799827e-05 1.5788679363e+00 -2.7346794841e+00 1.5788679363e+00 2.7346794841e+00 
49100 5.7110032431e+00 6.9443815943e-05 1.5788656871e+00 -2.7346755884e+00 1.5788656871e+00 2.7346755884e+00 
49200 5.7110032534e+00 6.9798098185e-05 1.5788656871e+00 -2.7346755884e+00 1.5788656871e+00 2.7346755884e+00 
49300 5.7110032635e+00 7.0146262204e-05 1.5788656871e+00 -2.7346755884e+00 1.5788656871e+00 2.7346755884e+00 
49400 5.7110032734e+00 7.0488336059e-05 1.5788656871e+00 -2.7346755884e+00 1.5788656871e+00 2.7346755884e+00 
49500 5.7110032832e+00 7.0824345723e-05 1.5788656871e+00 -2.7346755884e+00 1.5788656871e+00 2.7346755884e+00 
49600 5.7110032927e+00 6.9208982698e-05 1.5788634442e+00 -2.7346717036e+00 1.5788634442e+00 2.7346717036e+00 
49700 5.7110033021e+00 6.9522374104e-05 1.5788634442e+00 -2.7346717036e+00 1.5788634442e+00 2.7346717036e+00 
49800 5.7110033114e+00 6.9829595290e-05 1.5788634442e+00 -2.7346717036e+00 1.5788634442e+00 2.7346717036e+00 
49900 5.7110033206e+00 7.0130693050e-05 1.5788634442e+00 -2.7346717036e+00 1.5788634442e+00 2.7346717036e+00 
50000 5.7110033296e+00 7.0425712385e-05 1.5788634442e+00 -2.7346717036e+00 1.5788634442e+00 2.7346717036e+00 
50100 5.7110033384e+00 7.0714696686e-05 1.5788634442e+00 -2.7346717036e+00 1.5788634442e+00 2.7346717036e+00 
50200 5.7110033469e+00 6.9055358174e-05 1.5788612048e+00 -2.7346678248e+00 1.5788612048e+00 2.7346678248e+00 
50300 5.7110033555e+00 6.9321852984e-05 1.5788612048e+00 -2.7346678248e+00 1.5788612048e+00 2.7346678248e+00 
50400 5.7110033639e+00 6.9582261411e-05 1.5788612048e+00 -2.7346678248e+00 1.5788612048e+00 2.7346678248e+00 
50500 5.7110033722e+00 6.9836648851e-05 1.5788612048e+00 -2.7346678248e+00 1.5788612048e+00 2.7346678248e+00 
50600 5.7110033803e+00 7.0085079056e-05 1.5788612048e+00 -2.7346678248e+00 1.5788612048e+00 2.7346678248e+00 
50700 5.7110033883e+00 7.0327614263e-05 1.5788612048e+00 -2.7346678248e+00 1.5788612048e+00 2.7346678248e+00 
50800 5.7110033961e+00 7.0564315315e-05 1.5788612048e+00 -2.7346678248e+00 1.5788612048e+00 2.7346678248e+00 
50900 5.7110034039e+00 7.0795241771e-05 1.5788612048e+00 -2.7346678248e+00 1.5788612048e+00 2.7346678248e+00 
51000 5.7110034113e+00 6.9075898953e-05 1.5788589628e+00 -2.7346639416e+00 1.5788589628e+00 2.7346639416e+00 
51100 5.7110034188e+00 6.9284894683e-05 1.5788589628e+00 -2.7346639416e+00 1.5788589628e+00 2.7346639416e+00 
51200 5.7110034261e+00 6.9488114110e-05 1.5788589628e+00 -2.7346639416e+00 1.5788589628e+00 2.7346639416e+00 
51300 5.7110034333e+00 6.9685639529e-05 1.5788589628e+00 -2.7346639416e+00 1.5788589628e+00 2.7346639416e+00 
51400 5.7110034404e+00 6.9877551626e-05 1.5788589628e+00 -2.7346639416e+00 1.5788589628e+00 2.7346639416e+00 
51500 5.7110034474e+00 7.0063929550e-05 1.5788589628e+00 -2.7346639416e+00 1.5788589628e+00 2.7346639416e+00 
51600 5.7110034543e+00 7.0244850985e-05 1.5788589628e+00 -2.7346639416e+00 1.5788589628e+00 2.7346639416e+00 
51700 5.7110034611e+00 7.0420392221e-05 1.5788589628e+00 -2.7346639416e+00 1.5788589628e+00 2.7346639416e+00 
51800 5.7110034677e+00 7.0590628216e-05 1.5788589628e+00 -2.7346639416e+00 1.5788589628e+00 2.7346639416e+00 
51900 5.7110034742e+00 7.0755632669e-05 1.5788589628e+00 -2.7346639416e+00 1.5788589628e+00 2.7346639416e+00 
52000 5.7110034805e+00 6.8971999112e-05 1.5788567221e+00 -2.7346600605e+00 1.5788567221e+00 2.7346600605e+00 
52100 5.7110034868e+00 6.9116207556e-05 1.5788567221e+00 -2.7346600605e+00 1.5788567221e+00 2.7346600605e+00 
52200 5.7110034930e+00 6.9255224855e-05 1.5788567221e+00 -2.7346600605e+00 1.5788567221e+00 2.7346600605e+00 
52300 5.7110034991e+00 6.9389147028e-05 1.5788567221e+00 -2.7346600605e+00 1.5788567221e+00 2.7346600605e+00 
52400 5.7110035051e+00 6.9518068282e-05 1.5788567221e+00 -2.7346600605e+00 1.5788567221e+00 2.7346600605e+00 
52500 5.7110035110e+00 6.9642081046e-05 1.5788567221e+00 -2.7346600605e+00 1.5788567221e+00 2.7346600605e+00 
52600 5.7110035168e+00 6.9761276017e-05 1.5788567221e+00 -2.7346600605e+00 1.5788567221e+00 2.7346600605e+00 
52700 5.7110035226e+00 6.9875742184e-05 1.5788567221e+00 -2.7346600605e+00 1.5788567221e+00 2.7346600605e+00 
52800 5.7110035282e+00 6.9985566874e-05 1.5788567221e+00 -2.7346600605e+00 1.5788567221e+00 2.7346600605e+00 
52900 5.7110035337e+00 7.0090835786e-05 1.5788567221e+00 -2.7346600605e+00 1.5788567221e+00 2.7346600605e+00 
53000 5.7110035392e+00 7.0191633026e-05 1.5788567221e+00 -2.7346600605e+00 1.5788567221e+00 2.7346600605e+00 
53100 5.7110035445e+00 7.0288041151e-05 1.5788567221e+00 -2.7346600605e+00 1.5788567221e+00 2.7346600605e+00 
53200 5.7110035498e+00 7.0380141197e-05 1.5788567221e+00 -2.7346600605e+00 1.5788567221e+00 2.7346600605e+00 
53300 5.7110035549e+00 7.0468012719e-05 1.5788567221e+00 -2.7346600605e+00 1.5788567221e+00 2.7346600605e+00 
53400 5.7110035600e+00 7.0551733827e-05 1.5788567221e+00 -2.7346600605e+00 1.5788567221e+00 2.7346600605e+00 
53500 5.7110035650e+00 7.0631381224e-05 1.5788567221e+00 -2.7346600605e+00 1.5788567221e+00 2.7346600605e+00 
53600 5.7110035700e+00 7.0707030238e-05 1.5788567221e+00 -2.7346600605e+00 1.5788567221e+00 2.7346600605e+00 
53700 5.7110035748e+00 7.0778754854e-05 1.5788567221e+00 -2.7346600605e+00 1.5788567221e+00 2.7346600605e+00 
53800 5.7110035794e+00 6.8902491095e-05 1.5788544806e+00 -2.7346561782e+00 1.5788544806e+00 2.7346561782e+00 
53900 5.7110035840e+00 6.8956031768e-05 1.5788544806e+00 -2.7346561782e+00 1.5788544806e+00 2.7346561782e+00 
54000 5.7110035886e+00 6.9005688478e-05 1.5788544806e+00 -2.7346561782e+00 1.5788544806e+00 2.7346561782e+00 
54100 5.7110035932e+00 6.9051556970e-05 1.5788544806e+00 -2.7346561782e+00 1.5788544806e+00 2.7346561782e+00 
54200 5.7110035976e+00 6.9093730972e-05 1.5788544806e+00 -2.7346561782e+00 1.5788544806e+00 2.7346561782e+00 
54300 5.7110036020e+00 6.9132302214e-05 1.5788544806e+00 -2.7346561782e+00 1.5788544806e+00 2.7346561782e+00 
54400 5.7110036063e+00 6.9167360443e-05 1.5788544806e+00 -2.7346561782e+00 1.5788544806e+00 2.7346561782e+00 
54500 5.7110036106e+00 6.9198993444e-05 1.5788544806e+00 -2.7346561782e+00 1.5788544806e+00 2.7346561782e+00 
54600 5.7110036147e+00 6.9227287062e-05 1.5788544806e+00 -2.7346561782e+00 1.5788544806e+00 2.7346561782e+00 
54700 5.7110036188e+00 6.9252325219e-05 1.5788544806e+00 -2.7346561782e+00 1.5788544806e+00 2.7346561782e+00 
54800 5.7110036229e+00 6.9274189944e-05 1.5788544806e+00 -2.7346561782e+00 1.5788544806e+00 2.7346561782e+00 
54900 5.7110036268e+00 6.9292961399e-05 1.5788544806e+00 -2.7346561782e+00 1.5788544806e+00 2.7346561782e+00 
55000 5.7110036307e+00 6.9308717896e-05 1.5788544806e+00 -2.7346561782e+00 1.5788544806e+00 2.7346561782e+00 
55100 5.7110036346e+00 6.9321535935e-05 1.5788544806e+00 -2.7346561782e+00 1.5788544806e+00 2.7346561782e+00 
55200 5.7110036384e+00 6.9331490228e-05 1.5788544806e+00 -2.7346561782e+00 1.5788544806e+00 2.7346561782e+00 
55300 5.7110036421e+00 6.9338653724e-05 1.5788544806e+00 -2.7346561782e+00 1.5788544806e+00 2.7346561782e+00 
55400 5.7110036457e+00 6.9343097645e-05 1.5788544806e+00 -2.7346561782e+00 1.5788544806e+00 2.7346561782e+00 
55500 5.7110036493e+00 6.9344891517e-05 1.5788544806e+00 -2.7346561782e+00 1.5788544806e+00 2.7346561782e+00 
55600 5.7110036529e+00 6.9344103194e-05 1.5788544806e+00 -2.7346561782e+00 1.5788544806e+00 2.7346561782e+00 
55700 5.7110036564e+00 6.9340798897e-05 1.5788544806e+00 -2.7346561782e+00 1.5788544806e+00 2.7346561782e+00 
55800 5.7110036598e+00 6.9335043244e-05 1.5788544806e+00 -2.7346561782e+00 1.5788544806e+00 2.7346561782e+00 
55900 5.7110036632e+00 6.9326899278e-05 1.5788544806e+00 -2.7346561782e+00 1.5788544806e+00 2.7346561782e+00 
56000 5.7110036665e+00 6.9316428507e-05 1.5788544806e+00 -2.7346561782e+00 1.5788544806e+00 2.7346561782e+00 
56100 5.7110036697e+00 6.9303690935e-05 1.5788544806e+00 -2.7346561782e+00 1.5788544806e+00 2.7346561782e+00 
56200 5.7110036729e+00 6.9288745088e-05 1.5788544806e+00 -2.7346561782e+00 1.5788544806e+00 2.7346561782e+00 
56300 5.7110036761e+00 6.9271648056e-05 1.5788544806e+00 -2.7346561782e+00 1.5788544806e+00 2.7346561782e+00 
56400 5.7110036792e+00 6.9252455525e-05 1.5788544806e+00 -2.7346561782e+00 1.5788544806e+00 2.7346561782e+00 
56500 5.7110036823e+00 6.9231221805e-05 1.5788544806e+00 -2.7346561782e+00 1.5788544806e+00 2.7346561782e+00 
56600 5.7110036853e+00 6.9207999868e-05 1.5788544806e+00 -2.7346561782e+00 1.5788544806e+00 2.7346561782e+00 
56700 5.7110036882e+00 6.9182841381e-05 1.5788544806e+00 -2.7346561782e+00 1.5788544806e+00 2.7346561782e+00 
56800 5.7110036911e+00 6.9155796733e-05 1.5788544806e+00 -2.7346561782e+00 1.5788544806e+00 2.7346561782e+00 
56900 5.7110036940e+00 6.9126915076e-05 1.5788544806e+00 -2.7346561782e+00 1.5788544806e+00 2.7346561782e+00 
57000 5.7110036968e+00 6.9096244350e-05 1.5788544806e+00 -2.7346561782e+00 1.5788544806e+00 2.7346561782e+00 
57100 5.7110036996e+00 6.9063831322e-05 1.5788544806e+00 -2.7346561782e+00 1.5788544806e+00 2.7346561782e+00 
57200 5.7110037023e+00 6.9029721613e-05 1.5788544806e+00 -2.7346561782e+00 1.5788544806e+00 2.7346561782e+00 
57300 5.7110037050e+00 6.8993959728e-05 1.5788544806e+00 -2.7346561782e+00 1.5788544806e+00 2.7346561782e+00 
57400 5.7110037076e+00 6.8956589092e-05 1.5788544806e+00 -2.7346561782e+00 1.5788544806e+00 2.7346561782e+00 
57500 5.7110037102e+00 6.8917652076e-05 1.5788544806e+00 -2.7346561782e+00 1.5788544806e+00 2.7346561782e+00 
57600 5.7110037128e+00 6.8877190031e-05 1.5788544806e+00 -2.7346561782e+00 1.5788544806e+00 2.7346561782e+00 
57700 5.7110037153e+00 6.8835243312e-05 1.5788544806e+00 -2.7346561782e+00 1.5788544806e+00 2.7346561782e+00 
57800 5.7110037178e+00 6.8791851316e-05 1.5788544806e+00 -2.7346561782e+00 1.5788544806e+00 2.7346561782e+00 
57900 5.7110037202e+00 6.8747052501e-05 1.5788544806e+00 -2.7346561782e+00 1.5788544806e+00 2.7346561782e+00 
58000 5.7110037226e+00 6.8700884418e-05 1.5788544806e+00 -2.7346561782e+00 1.5788544806e+00 2.7346561782e+00 
58100 5.7110037250e+00 6.8653383740e-05 1.5788544806e+00 -2.7346561782e+00 1.5788544806e+00 2.7346561782e+00 
58200 5.7110037273e+00 6.8604586289e-05 1.5788544806e+00 -2.7346561782e+00 1.5788544806e+00 2.7346561782e+00 
58300 5.7110037296e+00 6.8554527057e-05 1.5788544806e+00 -2.7346561782e+00 1.5788544806e+00 2.7346561782e+00 
58400 5.7110037318e+00 6.8503240238e-05 1.5788544806e+00 -2.7346561782e+00 1.5788544806e+00 2.7346561782e+00 
58500 5.7110037340e+00 6.8450759248e-05 1.5788544806e+00 -2.7346561782e+00 1.5788544806e+00 2.7346561782e+00 
58600 5.7110037362e+00 6.8397116755e-05 1.5788544806e+00 -2.7346561782e+00 1.5788544806e+00 2.7346561782e+00 
58700 5.7110037384e+00 6.8342344697e-05 1.5788544806e+00 -2.7346561782e+00 1.5788544806e+00 2.7346561782e+00 
58800 5.7110037405e+00 6.8286474308e-05 1.5788544806e+00 -2.7346561782e+00 1.5788544806e+00 2.7346561782e+00 
58900 5.7110037425e+00 6.8229536142e-05 1.5788544806e+00 -2.7346561782e+00 1.5788544806e+00 2.7346561782e+00 
59000 5.7110037446e+00 6.8171560092e-05 1.5788544806e+00 -2.7346561782e+00 1.5788544806e+00 2.7346561782e+00 
59100 5.7110037466e+00 6.8112575410e-05 1.5788544806e+00 -2.7346561782e+00 1.5788544806e+00 2.7346561782e+00 
59200 5.7110037486e+00 6.8052610736e-05 1.5788544806e+00 -2.7346561782e+00 1.5788544806e+00 2.7346561782e+00 
59300 5.7110037505e+00 6.7991694105e-05 1.5788544806e+00 -2.7346561782e+00 1.5788544806e+00 2.7346561782e+00 
59400 5.7110037524e+00 6.7929852979e-05 1.5788544806e+00 -2.7346561782e+00 1.5788544806e+00 2.7346561782e+00 
59500 5.7110037543e+00 6.7867114258e-05 1.5788544806e+00 -2.7346561782e+00 1.5788544806e+00 2.7346561782e+00 
59600 5.7110037562e+00 6.7803504299e-05 1.5788544806e+00 -2.7346561782e+00 1.5788544806e+00 2.7346561782e+00 
59700 5.7110037580e+00 6.7739048936e-05 1.5788544806e+00 -2.7346561782e+00 1.5788544806e+00 2.7346561782e+00 
59800 5.7110037598e+00 6.7673773495e-05 1.5788544806e+00 -2.7346561782e+00 1.5788544806e+00 2.7346561782e+00 
59900 5.7110037616e+00 6.7607702813e-05 1.5788544806e+00 -2.7346561782e+00 1.5788544806e+00 2.7346561782e+00 
60000 5.7110037633e+00 6.7540861246e-05 1.5788544806e+00 -2.7346561782e+00 1.5788544806e+00 2.7346561782e+00 
60100 5.7110037650e+00 6.7473272696e-05 1.5788544806e+00 -2.7346561782e+00 1.5788544806e+00 2.7346561782e+00 
60200 5.7110037667e+00 6.7404960614e-05 1.5788544806e+00 -2.7346561782e+00 1.5788544806e+00 2.7346561782e+00 
60300 5.7110037684e+00 6.7335948024e-05 1.5788544806e+00 -2.7346561782e+00 1.5788544806e+00 2.7346561782e+00 
60400 5.7110037700e+00 6.7266257524e-05 1.5788544806e+00 -2.7346561782e+00 1.5788544806e+00 2.7346561782e+00 
60500 5.7110037716e+00 6.7195911312e-05 1.5788544806e+00 -2.7346561782e+00 1.5788544806e+00 2.7346561782e+00 
60600 5.7110037732e+00 6.7124931188e-05 1.5788544806e+00 -2.7346561782e+00 1.5788544806e+00 2.7346561782e+00 
60700 5.7110037748e+00 6.7053338574e-05 1.5788544806e+00 -2.7346561782e+00 1.5788544806e+00 2.7346561782e+00 
60800 5.7110037763e+00 6.6981154518e-05 1.5788544806e+00 -2.7346561782e+00 1.5788544806e+00 2.7346561782e+00 
60900 5.7110037778e+00 6.6908399712e-05 1.5788544806e+00 -2.7346561782e+00 1.5788544806e+00 2.7346561782e+00 
61000 5.7110037793e+00 6.6835094492e-05 1.5788544806e+00 -2.7346561782e+00 1.5788544806e+00 2.7346561782e+00 
61100 5.7110037808e+00 6.6761258858e-05 1.5788544806e+00 -2.7346561782e+00 1.5788544806e+00 2.7346561782e+00 
61200 5.7110037822e+00 6.6686912479e-05 1.5788544806e+00 -2.7346561782e+00 1.5788544806e+00 2.7346561782e+00 
61300 5.7110037837e+00 6.6612074702e-05 1.5788544806e+00 -2.7346561782e+00 1.5788544806e+00 2.7346561782e+00 
61400 5.7110037851e+00 6.6536764557e-05 1.5788544806e+00 -2.7346561782e+00 1.5788544806e+00 2.7346561782e+00 
61500 5.7110037864e+00 6.6461000775e-05 1.5788544806e+00 -2.7346561782e+00 1.5788544806e+00 2.7346561782e+00 
61600 5.7110037878e+00 6.6384801780e-05 1.5788544806e+00 -2.7346561782e+00 1.5788544806e+00 2.7346561782e+00 
61700 5.7110037891e+00 6.6308185713e-05 1.5788544806e+00 -2.7346561782e+00 1.5788544806e+00 2.7346561782e+00 
61800 5.7110037905e+00 6.6231170427e-05 1.5788544806e+00 -2.7346561782e+00 1.5788544806e+00 2.7346561782e+00 
61900 5.7110037917e+00 6.6153773496e-05 1.5788544806e+00 -2.7346561782e+00 1.5788544806e+00 2.7346561782e+00 
62000 5.7110037930e+00 6.6076012227e-05 1.5788544806e+00 -2.7346561782e+00 1.5788544806e+00 2.7346561782e+00 
62100 5.7110037943e+00 6.5997903656e-05 1.5788544806e+00 -2.7346561782e+00 1.5788544806e+00 2.7346561782e+00 
62200 5.7110037955e+00 6.5919464562e-05 1.5788544806e+00 -2.7346561782e+00 1.5788544806e+00 2.7346561782e+00 
62300 5.7110037967e+00 6.5840711465e-05 1.5788544806e+00 -2.7346561782e+00 1.5788544806e+00 2.7346561782e+00 
62400 5.7110037979e+00 6.5761660640e-05 1.5788544806e+00 -2.7346561782e+00 1.5788544806e+00 2.7346561782e+00 
62500 5.7110037991e+00 6.5682328108e-05 1.5788544806e+00 -2.7346561782e+00 1.5788544806e+00 2.7346561782e+00 
62600 5.7110038003e+00 6.5602729651e-05 1.5788544806e+00 -2.7346561782e+00 1.5788544806e+00 2.7346561782e+00 
62700 5.7110038014e+00 6.5522880818e-05 1.5788544806e+00 -2.7346561782e+00 1.5788544806e+00 2.7346561782e+00 
62800 5.7110038025e+00 6.5442796916e-05 1.5788544806e+00 -2.7346561782e+00 1.5788544806e+00 2.7346561782e+00 
62900 5.7110038036e+00 6.5362493025e-05 1.5788544806e+00 -2.7346561782e+00 1.5788544806e+00 2.7346561782e+00 
63000 5.7110038047e+00 6.5281983998e-05 1.5788544806e+00 -2.7346561782e+00 1.5788544806e+00 2.7346561782e+00 
63100 5.7110038058e+00 6.5201284459e-05 1.5788544806e+00 -2.7346561782e+00 1.5788544806e+00 2.7346561782e+00 
63200 5.7110038069e+00 6.5120408817e-05 1.5788544806e+00 -2.7346561782e+00 1.5788544806e+00 2.7346561782e+00 
63300 5.7110038079e+00 6.5039371254e-05 1.5788544806e+00 -2.7346561782e+00 1.5788544806e+00 2.7346561782e+00 
63400 5.7110038089e+00 6.4958185741e-05 1.5788544806e+00 -2.7346561782e+00 1.5788544806e+00 2.7346561782e+00 
63500 5.7110038100e+00 6.4876866034e-05 1.5788544806e+00 -2.7346561782e+00 1.5788544806e+00 2.7346561782e+00 
63600 5.7110038110e+00 6.4795425672e-05 1.5788544806e+00 -2.7346561782e+00 1.5788544806e+00 2.7346561782e+00 
63700 5.7110038119e+00 6.4713877989e-05 1.5788544806e+00 -2.7346561782e+00 1.5788544806e+00 2.7346561782e+00 
63800 5.7110038129e+00 6.4632236109e-05 1.5788544806e+00 -2.7346561782e+00 1.5788544806e+00 2.7346561782e+00 
63900 5.7110038139e+00 6.4550512949e-05 1.5788544806e+00 -2.7346561782e+00 1.5788544806e+00 2.7346561782e+00 
64000 5.7110038148e+00 6.4468721220e-05 1.5788544806e+00 -2.7346561782e+00 1.5788544806e+00 2.7346561782e+00 
64100 5.7110038157e+00 6.4386873430e-05 1.5788544806e+00 -2.7346561782e+00 1.5788544806e+00 2.7346561782e+00 
64200 5.7110038166e+00 6.4304981886e-05 1.5788544806e+00 -2.7346561782e+00 1.5788544806e+00 2.7346561782e+00 
64300 5.7110038175e+00 6.4223058693e-05 1.5788544806e+00 -2.7346561782e+00 1.5788544806e+00 2.7346561782e+00 
64400 5.7110038184e+00 6.4141115758e-05 1.5788544806e+00 -2.7346561782e+00 1.5788544806e+00 2.7346561782e+00 
64500 5.7110038193e+00 6.4059164788e-05 1.5788544806e+00 -2.7346561782e+00 1.5788544806e+00 2.7346561782e+00 
64600 5.7110038201e+00 6.3977217294e-05 1.5788544806e+00 -2.7346561782e+00 1.5788544806e+00 2.7346561782e+00 
64700 5.7110038210e+00 6.3895284589e-05 1.5788544806e+00 -2.7346561782e+00 1.5788544806e+00 2.7346561782e+00 
64800 5.7110038218e+00 6.3813377792e-05 1.5788544806e+00 -2.7346561782e+00 1.5788544806e+00 2.7346561782e+00 
64900 5.7110038226e+00 6.3731507829e-05 1.5788544806e+00 -2.7346561782e+00 1.5788544806e+00 2.7346561782e+00 
65000 5.7110038234e+00 6.3649685430e-05 1.5788544806e+00 -2.7346561782e+00 1.5788544806e+00 2.7346561782e+00 
65100 5.7110038242e+00 6.3567921137e-05 1.5788544806e+00 -2.7346561782e+00 1.5788544806e+00 2.7346561782e+00 
65200 5.7110038250e+00 6.3486225296e-05 1.5788544806e+00 -2.7346561782e+00 1.5788544806e+00 2.7346561782e+00 
65300 5.7110038258e+00 6.3404608064e-05 1.5788544806e+00 -2.7346561782e+00 1.5788544806e+00 2.7346561782e+00 
65400 5.7110038265e+00 6.3323079410e-05 1.5788544806e+00 -2.7346561782e+00 1.5788544806e+00 2.7346561782e+00 
65500 5.7110038273e+00 6.3241649110e-05 1.5788544806e+00 -2.7346561782e+00 1.5788544806e+00 2.7346561782e+00 
65600 5.7110038280e+00 6.3160326757e-05 1.5788544806e+00 -2.7346561782e+00 1.5788544806e+00 2.7346561782e+00 
65700 5.7110038287e+00 6.3079121751e-05 1.5788544806e+00 -2.7346561782e+00 1.5788544806e+00 2.7346561782e+00 
65800 5.7110038295e+00 6.2998043311e-05 1.5788544806e+00 -2.7346561782e+00 1.5788544806e+00 2.7346561782e+00 
65900 5.7110038302e+00 6.2917100468e-05 1.5788544806e+00 -2.7346561782e+00 1.5788544806e+00 2.7346561782e+00 
66000 5.7110038308e+00 6.2836302065e-05 1.5788544806e+00 -2.7346561782e+00 1.5788544806e+00 2.7346561782e+00 
66100 5.7110038315e+00 6.2755656769e-05 1.5788544806e+00 -2.7346561782e+00 1.5788544806e+00 2.7346561782e+00 
66200 5.7110038322e+00 6.2675173055e-05 1.5788544806e+00 -2.7346561782e+00 1.5788544806e+00 2.7346561782e+00 
66300 5.7110038329e+00 6.2594859222e-05 1.5788544806e+00 -2.7346561782e+00 1.5788544806e+00 2.7346561782e+00 
66400 5.7110038335e+00 6.2514723387e-05 1.5788544806e+00 -2.7346561782e+00 1.5788544806e+00 2.7346561782e+00 
66500 5.7110038342e+00 6.2434773484e-05 1.5788544806e+00 -2.7346561782e+00 1.5788544806e+00 2.7346561782e+00 
66600 5.7110038348e+00 6.2355017270e-05 1.5788544806e+00 -2.7346561782e+00 1.5788544806e+00 2.7346561782e+00 
66700 5.7110038354e+00 6.2275462323e-05 1.5788544806e+00 -2.7346561782e+00 1.5788544806e+00 2.7346561782e+00 
66800 5.7110038360e+00 6.2196116043e-05 1.5788544806e+00 -2.7346561782e+00 1.5788544806e+00 2.7346561782e+00 
66900 5.7110038366e+00 6.2116985656e-05 1.5788544806e+00 -2.7346561782e+00 1.5788544806e+00 2.7346561782e+00 
67000 5.7110038372e+00 6.2038078210e-05 1.5788544806e+00 -2.7346561782e+00 1.5788544806e+00 2.7346561782e+00 
67100 5.7110038378e+00 6.1959400583e-05 1.5788544806e+00 -2.7346561782e+00 1.5788544806e+00 2.7346561782e+00 
67200 5.7110038384e+00 6.1880959476e-05 1.5788544806e+00 -2.7346561782e+00 1.5788544806e+00 2.7346561782e+00 
67300 5.7110038390e+00 6.1802761420e-05 1.5788544806e+00 -2.7346561782e+00 1.5788544806e+00 2.7346561782e+00 
67400 5.7110038395e+00 6.1724812778e-05 1.5788544806e+00 -2.7346561782e+00 1.5788544806e+00 2.7346561782e+00 
67500 5.7110038401e+00 6.1647119740e-05 1.5788544806e+00 -2.7346561782e+00 1.5788544806e+00 2.7346561782e+00 
67600 5.7110038406e+00 6.1569688333e-05 1.5788544806e+00 -2.7346561782e+00 1.5788544806e+00 2.7346561782e+00 
67700 5.7110038412e+00 6.1492524412e-05 1.5788544806e+00 -2.7346561782e+00 1.5788544806e+00 2.7346561782e+00 
67800 5.7110038417e+00 6.1415633671e-05 1.5788544806e+00 -2.7346561782e+00 1.5788544806e+00 2.7346561782e+00 
67900 5.7110038422e+00 6.1339021641e-05 1.5788544806e+00 -2.7346561782e+00 1.5788544806e+00 2.7346561782e+00 
68000 5.7110038428e+00 6.1262693688e-05 1.5788544806e+00 -2.7346561782e+00 1.5788544806e+00 2.7346561782e+00 
68100 5.7110038433e+00 6.1186655020e-05 1.5788544806e+00 -2.7346561782e+00 1.5788544806e+00 2.7346561782e+00 
68200 5.7110038438e+00 6.1110910686e-05 1.5788544806e+00 -2.7346561782e+00 1.5788544806e+00 2.7346561782e+00 
68300 5.7110038443e+00 6.1035465573e-05 1.5788544806e+00 -2.7346561782e+00 1.5788544806e+00 2.7346561782e+00 
68400 5.7110038447e+00 6.0960324419e-05 1.5788544806e+00 -2.7346561782e+00 1.5788544806e+00 2.7346561782e+00 
68500 5.7110038452e+00 6.0885491803e-05 1.5788544806e+00 -2.7346561782e+00 1.5788544806e+00 2.7346561782e+00 
68600 5.7110038457e+00 6.0810972154e-05 1.5788544806e+00 -2.7346561782e+00 1.5788544806e+00 2.7346561782e+00 
68700 5.7110038462e+00 6.0736769749e-05 1.5788544806e+00 -2.7346561782e+00 1.5788544806e+00 2.7346561782e+00 
68800 5.7110038466e+00 6.0662888718e-05 1.5788544806e+00 -2.7346561782e+00 1.5788544806e+00 2.7346561782e+00 
68900 5.7110038471e+00 6.0589333040e-05 1.5788544806e+00 -2.7346561782e+00 1.5788544806e+00 2.7346561782e+00 
69000 5.7110038475e+00 6.0516106552e-05 1.5788544806e+00 -2.7346561782e+00 1.5788544806e+00 2.7346561782e+00 
69100 5.7110038479e+00 6.0443212946e-05 1.5788544806e+00 -2.7346561782e+00 1.5788544806e+00 2.7346561782e+00 
69200 5.7110038484e+00 6.0370655773e-05 1.5788544806e+00 -2.7346561782e+00 1.5788544806e+00 2.7346561782e+00 
69300 5.7110038488e+00 6.0298438443e-05 1.5788544806e+00 -2.7346561782e+00 1.5788544806e+00 2.7346561782e+00 
69400 5.7110038492e+00 6.0226564229e-05 1.5788544806e+00 -2.7346561782e+00 1.5788544806e+00 2.7346561782e+00 
69500 5.7110038496e+00 6.0155036266e-05 1.5788544806e+00 -2.7346561782e+00 1.5788544806e+00 2.7346561782e+00 
69600 5.7110038500e+00 6.0083857560e-05 1.5788544806e+00 -2.7346561782e+00 1.5788544806e+00 2.7346561782e+00 
69700 5.7110038504e+00 6.0013030980e-05 1.5788544806e+00 -2.7346561782e+00 1.5788544806e+00 2.7346561782e+00 
69800 5.7110038508e+00 5.9942559266e-05 1.5788544806e+00 -2.7346561782e+00 1.5788544806e+00 2.7346561782e+00 
69900 5.7110038512e+00 5.9872445031e-05 1.5788544806e+00 -2.7346561782e+00 1.5788544806e+00 2.7346561782e+00 
70000 5.7110038516e+00 5.9802690761e-05 1.5788544806e+00 -2.7346561782e+00 1.5788544806e+00 2.7346561782e+00 
70100 5.7110038520e+00 5.9733298818e-05 1.5788544806e+00 -2.7346561782e+00 1.5788544806e+00 2.7346561782e+00 
70200 5.7110038524e+00 5.9664271444e-05 1.5788544806e+00 -2.7346561782e+00 1.5788544806e+00 2.7346561782e+00 
70300 5.7110038527e+00 5.9595610758e-05 1.5788544806e+00 -2.7346561782e+00 1.5788544806e+00 2.7346561782e+00 
70400 5.7110038531e+00 5.9527318763e-05 1.5788544806e+00 -2.7346561782e+00 1.5788544806e+00 2.7346561782e+00 
70500 5.7110038535e+00 5.9459397345e-05 1.5788544806e+00 -2.7346561782e+00 1.5788544806e+00 2.7346561782e+00 
70600 5.7110038538e+00 5.9391848278e-05 1.5788544806e+00 -2.7346561782e+00 1.5788544806e+00 2.7346561782e+00 
70700 5.7110038542e+00 5.9324673223e-05 1.5788544806e+00 -2.7346561782e+00 1.5788544806e+00 2.7346561782e+00 
70800 5.7110038545e+00 5.9257873733e-05 1.5788544806e+00 -2.7346561782e+00 1.5788544806e+00 2.7346561782e+00 
70900 5.7110038548e+00 5.9191451252e-05 1.5788544806e+00 -2.7346561782e+00 1.5788544806e+00 2.7346561782e+00 
71000 5.7110038552e+00 5.9125407118e-05 1.5788544806e+00 -2.7346561782e+00 1.5788544806e+00 2.7346561782e+00 
71100 5.7110038555e+00 5.9059742569e-05 1.5788544806e+00 -2.7346561782e+00 1.5788544806e+00 2.7346561782e+00 
71200 5.7110038558e+00 5.8994458737e-05 1.5788544806e+00 -2.7346561782e+00 1.5788544806e+00 2.7346561782e+00 
71300 5.7110038561e+00 5.8929556661e-05 1.5788544806e+00 -2.7346561782e+00 1.5788544806e+00 2.7346561782e+00 
71400 5.7110038565e+00 5.8865037277e-05 1.5788544806e+00 -2.7346561782e+00 1.5788544806e+00 2.7346561782e+00 
71500 5.7110038568e+00 5.8800901431e-05 1.5788544806e+00 -2.7346561782e+00 1.5788544806e+00 2.7346561782e+00 
71600 5.7110038571e+00 5.8737149874e-05 1.5788544806e+00 -2.7346561782e+00 1.5788544806e+00 2.7346561782e+00 
71700 5.7110038574e+00 5.8673783264e-05 1.5788544806e+00 -2.7346561782e+00 1.5788544806e+00 2.7346561782e+00 
71800 5.7110038577e+00 5.8610802174e-05 1.5788544806e+00 -2.7346561782e+00 1.5788544806e+00 2.7346561782e+00 
71900 5.7110038580e+00 5.8548207088e-05 1.5788544806e+00 -2.7346561782e+00 1.5788544806e+00 2.7346561782e+00 
72000 5.7110038583e+00 5.8485998408e-05 1.5788544806e+00 -2.7346561782e+00 1.5788544806e+00 2.7346561782e+00 
72100 5.7110038585e+00 5.8424176449e-05 1.5788544806e+00 -2.7346561782e+00 1.5788544806e+00 2.7346561782e+00 
72200 5.7110038588e+00 5.8362741449e-05 1.5788544806e+00 -2.7346561782e+00 1.5788544806e+00 2.7346561782e+00 
72300 5.7110038591e+00 5.8301693566e-05 1.5788544806e+00 -2.7346561782e+00 1.5788544806e+00 2.7346561782e+00 
72400 5.7110038594e+00 5.8241032882e-05 1.5788544806e+00 -2.7346561782e+00 1.5788544806e+00 2.7346561782e+00 
72500 5.7110038596e+00 5.8180759402e-05 1.5788544806e+00 -2.7346561782e+00 1.5788544806e+00 2.7346561782e+00 
72600 5.7110038599e+00 5.8120873061e-05 1.5788544806e+00 -2.7346561782e+00 1.5788544806e+00 2.7346561782e+00 
72700 5.7110038602e+00 5.8061373720e-05 1.5788544806e+00 -2.7346561782e+00 1.5788544806e+00 2.7346561782e+00 
72800 5.7110038604e+00 5.8002261175e-05 1.5788544806e+00 -2.7346561782e+00 1.5788544806e+00 2.7346561782e+00 
72900 5.7110038607e+00 5.7943535150e-05 1.5788544806e+00 -2.7346561782e+00 1.5788544806e+00 2.7346561782e+00 
73000 5.7110038609e+00 5.7885195308e-05 1.5788544806e+00 -2.7346561782e+00 1.5788544806e+00 2.7346561782e+00 
73100 5.7110038612e+00 5.7827241246e-05 1.5788544806e+00 -2.7346561782e+00 1.5788544806e+00 2.7346561782e+00 
73200 5.7110038614e+00 5.7769672502e-05 1.5788544806e+00 -2.7346561782e+00 1.5788544806e+00 2.7346561782e+00 
73300 5.7110038617e+00 5.7712488548e-05 1.5788544806e+00 -2.7346561782e+00 1.5788544806e+00 2.7346561782e+00 
73400 5.7110038619e+00 5.7655688806e-05 1.5788544806e+00 -2.7346561782e+00 1.5788544806e+00 2.7346561782e+00 
73500 5.7110038621e+00 5.7599272634e-05 1.5788544806e+00 -2.7346561782e+00 1.5788544806e+00 2.7346561782e+00 
73600 5.7110038624e+00 5.7543239340e-05 1.5788544806e+00 -2.7346561782e+00 1.5788544806e+00 2.7346561782e+00 
73700 5.7110038626e+00 5.7487588178e-05 1.5788544806e+00 -2.7346561782e+00 1.5788544806e+00 2.7346561782e+00 
73800 5.7110038628e+00 5.7432318349e-05 1.5788544806e+00 -2.7346561782e+00 1.5788544806e+00 2.7346561782e+00 
73900 5.7110038630e+00 5.7377429007e-05 1.5788544806e+00 -2.7346561782e+00 1.5788544806e+00 2.7346561782e+00 
74000 5.7110038632e+00 5.7322919257e-05 1.5788544806e+00 -2.7346561782e+00 1.5788544806e+00 2.7346561782e+00 
74100 5.7110038635e+00 5.7268788155e-05 1.5788544806e+00 -2.7346561782e+00 1.5788544806e+00 2.7346561782e+00 
74200 5.7110038637e+00 5.7215034714e-05 1.5788544806e+00 -2.7346561782e+00 1.5788544806e+00 2.7346561782e+00 
74300 5.7110038639e+00 5.7161657904e-05 1.5788544806e+00 -2.7346561782e+00 1.5788544806e+00 2.7346561782e+00 
74400 5.7110038641e+00 5.7108656650e-05 1.5788544806e+00 -2.7346561782e+00 1.5788544806e+00 2.7346561782e+00 
74500 5.7110038643e+00 5.7056029841e-05 1.5788544806e+00 -2.7346561782e+00 1.5788544806e+00 2.7346561782e+00 
74600 5.7110038645e+00 5.7003776324e-05 1.5788544806e+00 -2.7346561782e+00 1.5788544806e+00 2.7346561782e+00 
74700 5.7110038647e+00 5.6951894908e-05 1.5788544806e+00 -2.7346561782e+00 1.5788544806e+00 2.7346561782e+00 
74800 5.7110038649e+00 5.6900384366e-05 1.5788544806e+00 -2.7346561782e+00 1.5788544806e+00 2.7346561782e+00 
74900 5.7110038651e+00 5.6849243438e-05 1.5788544806e+00 -2.7346561782e+00 1.5788544806e+00 2.7346561782e+00 
75000 5.7110038653e+00 5.6798470829e-05 1.5788544806e+00 -2.7346561782e+00 1.5788544806e+00 2.7346561782e+00 
75100 5.7110038655e+00 5.6748065211e-05 1.5788544806e+00 -2.7346561782e+00 1.5788544806e+00 2.7346561782e+00 
75200 5.7110038656e+00 5.6698025224e-05 1.5788544806e+00 -2.7346561782e+00 1.5788544806e+00 2.7346561782e+00 
75300 5.7110038658e+00 5.6648349482e-05 1.5788544806e+00 -2.7346561782e+00 1.5788544806e+00 2.7346561782e+00 
75400 5.7110038660e+00 5.6599036566e-05 1.5788544806e+00 -2.7346561782e+00 1.5788544806e+00 2.7346561782e+00 
75500 5.7110038662e+00 5.6550085033e-05 1.5788544806e+00 -2.7346561782e+00 1.5788544806e+00 2.7346561782e+00 
75600 5.7110038663e+00 5.6501493411e-05 1.5788544806e+00 -2.7346561782e+00 1.5788544806e+00 2.7346561782e+00 
75700 5.7110038665e+00 5.6453260206e-05 1.5788544806e+00 -2.7346561782e+00 1.5788544806e+00 2.7346561782e+00 
75800 5.7110038667e+00 5.6405383896e-05 1.5788544806e+00 -2.7346561782e+00 1.5788544806e+00 2.7346561782e+00 
75900 5.7110038669e+00 5.6357862940e-05 1.5788544806e+00 -2.7346561782e+00 1.5788544806e+00 2.7346561782e+00 
76000 5.7110038670e+00 5.6310695772e-05 1.5788544806e+00 -2.7346561782e+00 1.5788544806e+00 2.7346561782e+00 
76100 5.7110038672e+00 5.6263880806e-05 1.5788544806e+00 -2.7346561782e+00 1.5788544806e+00 2.7346561782e+00 
76200 5.7110038673e+00 5.6217416438e-05 1.5788544806e+00 -2.7346561782e+00 1.5788544806e+00 2.7346561782e+00 
76300 5.7110038675e+00 5.6171301045e-05 1.5788544806e+00 -2.7346561782e+00 1.5788544806e+00 2.7346561782e+00 
76400 5.7110038677e+00 5.6125532980e-05 1.5788544806e+00 -2.7346561782e+00 1.5788544806e+00 2.7346561782e+00 
76500 5.7110038678e+00 5.6080110588e-05 1.5788544806e+00 -2.7346561782e+00 1.5788544806e+00 2.7346561782e+00 
76600 5.7110038680e+00 5.6035032193e-05 1.5788544806e+00 -2.7346561782e+00 1.5788544806e+00 2.7346561782e+00 
76700 5.7110038681e+00 5.5990296103e-05 1.5788544806e+00 -2.7346561782e+00 1.5788544806e+00 2.7346561782e+00 
76800 5.7110038683e+00 5.5945900612e-05 1.5788544806e+00 -2.7346561782e+00 1.5788544806e+00 2.7346561782e+00 
76900 5.7110038684e+00 5.5901844004e-05 1.5788544806e+00 -2.7346561782e+00 1.5788544806e+00 2.7346561782e+00 
77000 5.7110038685e+00 5.5858124546e-05 1.5788544806e+00 -2.7346561782e+00 1.5788544806e+00 2.7346561782e+00 
77100 5.7110038687e+00 5.5814740494e-05 1.5788544806e+00 -2.7346561782e+00 1.5788544806e+00 2.7346561782e+00 
77200 5.7110038688e+00 5.5771690093e-05 1.5788544806e+00 -2.7346561782e+00 1.5788544806e+00 2.7346561782e+00 
77300 5.7110038690e+00 5.5728971579e-05 1.5788544806e+00 -2.7346561782e+00 1.5788544806e+00 2.7346561782e+00 
77400 5.7110038691e+00 5.5686583177e-05 1.5788544806e+00 -2.7346561782e+00 1.5788544806e+00 2.7346561782e+00 
77500 5.7110038692e+00 5.5644523103e-05 1.5788544806e+00 -2.7346561782e+00 1.5788544806e+00 2.7346561782e+00 
77600 5.7110038694e+00 5.5602789563e-05 1.5788544806e+00 -2.7346561782e+00 1.5788544806e+00 2.7346561782e+00 
77700 5.7110038695e+00 5.5561380757e-05 1.5788544806e+00 -2.7346561782e+00 1.5788544806e+00 2.7346561782e+00 
77800 5.7110038696e+00 5.5520294877e-05 1.5788544806e+00 -2.7346561782e+00 1.5788544806e+00 2.7346561782e+00 
77900 5.7110038697e+00 5.5479530110e-05 1.5788544806e+00 -2.7346561782e+00 1.5788544806e+00 2.7346561782e+00 
78000 5.7110038699e+00 5.5439084635e-05 1.5788544806e+00 -2.7346561782e+00 1.5788544806e+00 2.7346561782e+00 
78100 5.7110038700e+00 5.5398956626e-05 1.5788544806e+00 -2.7346561782e+00 1.5788544806e+00 2.7346561782e+00 
78200 5.7110038701e+00 5.5359144253e-05 1.5788544806e+00 -2.7346561782e+00 1.5788544806e+00 2.7346561782e+00 
78300 5.7110038702e+00 5.5319645680e-05 1.5788544806e+00 -2.7346561782e+00 1.5788544806e+00 2.7346561782e+00 
78400 5.7110038704e+00 5.5280459070e-05 1.5788544806e+00 -2.7346561782e+00 1.5788544806e+00 2.7346561782e+00 
78500 5.7110038705e+00 5.5241582579e-05 1.5788544806e+00 -2.7346561782e+00 1.5788544806e+00 2.7346561782e+00 
78600 5.7110038706e+00 5.5203014364e-05 1.5788544806e+00 -2.7346561782e+00 1.5788544806e+00 2.7346561782e+00 
78700 5.7110038707e+00 5.5164752577e-05 1.5788544806e+00 -2.7346561782e+00 1.5788544806e+00 2.7346561782e+00 
78800 5.7110038708e+00 5.5126795367e-05 1.5788544806e+00 -2.7346561782e+00 1.5788544806e+00 2.7346561782e+00 
78900 5.7110038709e+00 5.5089140885e-05 1.5788544806e+00 -2.7346561782e+00 1.5788544806e+00 2.7346561782e+00 
79000 5.7110038710e+00 5.5051787279e-05 1.5788544806e+00 -2.7346561782e+00 1.5788544806e+00 2.7346561782e+00 
79100 5.7110038711e+00 5.5014732696e-05 1.5788544806e+00 -2.7346561782e+00 1.5788544806e+00 2.7346561782e+00 
79200 5.7110038712e+00 5.4977975283e-05 1.5788544806e+00 -2.7346561782e+00 1.5788544806e+00 2.7346561782e+00 
79300 5.7110038713e+00 5.4941513186e-05 1.5788544806e+00 -2.7346561782e+00 1.5788544806e+00 2.7346561782e+00 
79400 5.7110038715e+00 5.4905344555e-05 1.5788544806e+00 -2.7346561782e+00 1.5788544806e+00 2.7346561782e+00 
79500 5.7110038716e+00 5.4869467537e-05 1.5788544806e+00 -2.7346561782e+00 1.5788544806e+00 2.7346561782e+00 
79600 5.7110038717e+00 5.4833880279e-05 1.5788544806e+00 -2.7346561782e+00 1.5788544806e+00 2.7346561782e+00 
79700 5.7110038718e+00 5.4798580936e-05 1.5788544806e+00 -2.7346561782e+00 1.5788544806e+00 2.7346561782e+00 
79800 5.7110038718e+00 5.4763567657e-05 1.5788544806e+00 -2.7346561782e+00 1.5788544806e+00 2.7346561782e+00 
79900 5.7110038719e+00 5.4728838598e-05 1.5788544806e+00 -2.7346561782e+00 1.5788544806e+00 2.7346561782e+00 
80000 5.7110038720e+00 5.4694391913e-05 1.5788544806e+00 -2.7346561782e+00 1.5788544806e+00 2.7346561782e+00 
80100 5.7110038721e+00 5.4660225764e-05 1.5788544806e+00 -2.7346561782e+00 1.5788544806e+00 2.7346561782e+00 
80200 5.7110038722e+00 5.4626338312e-05 1.5788544806e+00 -2.7346561782e+00 1.5788544806e+00 2.7346561782e+00 
80300 5.7110038723e+00 5.4592727722e-05 1.5788544806e+00 -2.7346561782e+00 1.5788544806e+00 2.7346561782e+00 
80400 5.7110038724e+00 5.4559392163e-05 1.5788544806e+00 -2.7346561782e+00 1.5788544806e+00 2.7346561782e+00 
80500 5.7110038725e+00 5.4526329805e-05 1.5788544806e+00 -2.7346561782e+00 1.5788544806e+00 2.7346561782e+00 
80600 5.7110038726e+00 5.4493538825e-05 1.5788544806e+00 -2.7346561782e+00 1.5788544806e+00 2.7346561782e+00 
80700 5.7110038727e+00 5.4461017404e-05 1.5788544806e+00 -2.7346561782e+00 1.5788544806e+00 2.7346561782e+00 
80800 5.7110038728e+00 5.4428763723e-05 1.5788544806e+00 -2.7346561782e+00 1.5788544806e+00 2.7346561782e+00 
80900 5.7110038728e+00 5.4396775971e-05 1.5788544806e+00 -2.7346561782e+00 1.5788544806e+00 2.7346561782e+00 
81000 5.7110038729e+00 5.4365052340e-05 1.5788544806e+00 -2.7346561782e+00 1.5788544806e+00 2.7346561782e+00 
81100 5.7110038730e+00 5.4333591028e-05 1.5788544806e+00 -2.7346561782e+00 1.5788544806e+00 2.7346561782e+00 
81200 5.7110038731e+00 5.4302390238e-05 1.5788544806e+00 -2.7346561782e+00 1.5788544806e+00 2.7346561782e+00 
81300 5.7110038732e+00 5.4271448176e-05 1.5788544806e+00 -2.7346561782e+00 1.5788544806e+00 2.7346561782e+00 
81400 5.7110038732e+00 5.4240763055e-05 1.5788544806e+00 -2.7346561782e+00 1.5788544806e+00 2.7346561782e+00 
81500 5.7110038733e+00 5.4210333093e-05 1.5788544806e+00 -2.7346561782e+00 1.5788544806e+00 2.7346561782e+00 
81600 5.7110038734e+00 5.4180156515e-05 1.5788544806e+00 -2.7346561782e+00 1.5788544806e+00 2.7346561782e+00 
81700 5.7110038735e+00 5.4150231546e-05 1.5788544806e+00 -2.7346561782e+00 1.5788544806e+00 2.7346561782e+00 
81800 5.7110038735e+00 5.4120556424e-05 1.5788544806e+00 -2.7346561782e+00 1.5788544806e+00 2.7346561782e+00 
81900 5.7110038736e+00 5.4091129390e-05 1.5788544806e+00 -2.7346561782e+00 1.5788544806e+00 2.7346561782e+00 
82000 5.7110038737e+00 5.4061948689e-05 1.5788544806e+00 -2.7346561782e+00 1.5788544806e+00 2.7346561782e+00 
82100 5.7110038738e+00 5.4033012576e-05 1.5788544806e+00 -2.7346561782e+00 1.5788544806e+00 2.7346561782e+00 
82200 5.7110038738e+00 5.4004319309e-05 1.5788544806e+00 -2.7346561782e+00 1.5788544806e+00 2.7346561782e+00 
82300 5.7110038739e+00 5.3975867154e-05 1.5788544806e+00 -2.7346561782e+00 1.5788544806e+00 2.7346561782e+00 
82400 5.7110038740e+00 5.3947654382e-05 1.5788544806e+00 -2.7346561782e+00 1.5788544806e+00 2.7346561782e+00 
82500 5.7110038740e+00 5.3919679272e-05 1.5788544806e+00 -2.7346561782e+00 1.5788544806e+00 2.7346561782e+00 
82600 5.7110038741e+00 5.3891940110e-05 1.5788544806e+00 -2.7346561782e+00 1.5788544806e+00 2.7346561782e+00 
82700 5.7110038742e+00 5.3864435189e-05 1.5788544806e+00 -2.7346561782e+00 1.5788544806e+00 2.7346561782e+00 
82800 5.7110038742e+00 5.3837162806e-05 1.5788544806e+00 -2.7346561782e+00 1.5788544806e+00 2.7346561782e+00 
82900 5.7110038743e+00 5.3810121268e-05 1.5788544806e+00 -2.7346561782e+00 1.5788544806e+00 2.7346561782e+00 
83000 5.7110038744e+00 5.3783308887e-05 1.5788544806e+00 -2.7346561782e+00 1.5788544806e+00 2.7346561782e+00 
83100 5.7110038744e+00 5.3756723984e-05 1.5788544806e+00 -2.7346561782e+00 1.5788544806e+00 2.7346561782e+00 
83200 5.7110038745e+00 5.3730364884e-05 1.5788544806e+00 -2.7346561782e+00 1.5788544806e+00 2.7346561782e+00 
83300 5.7110038746e+00 5.3704229923e-05 1.5788544806e+00 -2.7346561782e+00 1.5788544806e+00 2.7346561782e+00 
83400 5.7110038746e+00 5.3678317443e-05 1.5788544806e+00 -2.7346561782e+00 1.5788544806e+00 2.7346561782e+00 
83500 5.7110038747e+00 5.3652625791e-05 1.5788544806e+00 -2.7346561782e+00 1.5788544806e+00 2.7346561782e+00 
83600 5.7110038747e+00 5.3627153324e-05 1.5788544806e+00 -2.7346561782e+00 1.5788544806e+00 2.7346561782e+00 
83700 5.7110038748e+00 5.3601898405e-05 1.5788544806e+00 -2.7346561782e+00 1.5788544806e+00 2.7346561782e+00 
83800 5.7110038748e+00 5.3576859408e-05 1.5788544806e+00 -2.7346561782e+00 1.5788544806e+00 2.7346561782e+00 
83900 5.7110038749e+00 5.3552034708e-05 1.5788544806e+00 -2.7346561782e+00 1.5788544806e+00 2.7346561782e+00 
84000 5.7110038750e+00 5.3527422694e-05 1.5788544806e+00 -2.7346561782e+00 1.5788544806e+00 2.7346561782e+00 
84100 5.7110038750e+00 5.3503021758e-05 1.5788544806e+00 -2.7346561782e+00 1.5788544806e+00 2.7346561782e+00 
84200 5.7110038751e+00 5.3478830303e-05 1.5788544806e+00 -2.7346561782e+00 1.5788544806e+00 2.7346561782e+00 
84300 5.7110038751e+00 5.3454846737e-05 1.5788544806e+00 -2.7346561782e+00 1.5788544806e+00 2.7346561782e+00 
84400 5.7110038752e+00 5.3431069478e-05 1.5788544806e+00 -2.7346561782e+00 1.5788544806e+00 2.7346561782e+00 
84500 5.7110038752e+00 5.3407496952e-05 1.5788544806e+00 -2.7346561782e+00 1.5788544806e+00 2.7346561782e+00 
84600 5.7110038753e+00 5.3384127590e-05 1.5788544806e+00 -2.7346561782e+00 1.5788544806e+00 2.7346561782e+00 
84700 5.7110038753e+00 5.3360959832e-05 1.5788544806e+00 -2.7346561782e+00 1.5788544806e+00 2.7346561782e+00 
84800 5.7110038754e+00 5.3337992129e-05 1.5788544806e+00 -2.7346561782e+00 1.5788544806e+00 2.7346561782e+00 
84900 5.7110038754e+00 5.3315222936e-05 1.5788544806e+00 -2.7346561782e+00 1.5788544806e+00 2.7346561782e+00 
85000 5.7110038754e+00 5.3313863063e-05 1.5788544806e+00 -2.7346561782e+00 1.5788544806e+00 2.7346561782e+00 
85000 5.7110038754e+00 5.3313863063e-05 1.5788544806e+00 -2.7346561782e+00 1.5788544806e+00 2.7346561782e+00 
