# step Hamiltonian StressXX CellTensor1 CellTensor2 CellTensor3 CellTensor4 
0 6.1540787556e+00 7.5356108604e-02 1.7865676565e+00 -3.0944259522e+00 1.7865676565e+00 3.0944259522e+00 
100 6.1522035596e+00 8.1959242753e-02 1.7865676565e+00 -3.0944259522e+00 1.7865676565e+00 3.0944259522e+00 
200 6.1499901986e+00 8.7186033082e-02 1.7842743853e+00 -3.0904538900e+00 1.7842743853e+00 3.0904538900e+00 
300 6.1476483612e+00 9.1883753843e-02 1.7818317647e+00 -3.0862231470e+00 1.7818317647e+00 3.0862231470e+00 
400 6.1452032719e+00 9.6086023414e-02 1.7792540364e+00 -3.0817583906e+00 1.7792540364e+00 3.0817583906e+00 
500 6.1426768405e+00 9.9823391442e-02 1.7765545432e+00 -3.0770827313e+00 1.7765545432e+00 3.0770827313e+00 
600 6.1400883367e+00 1.0312413523e-01 1.7737458189e+00 -3.0722178780e+00 1.7737458189e+00 3.0722178780e+00 
700 6.1374548540e+00 1.0601477391e-01 1.7708396550e+00 -3.0671842545e+00 1.7708396550e+00 3.0671842545e+00 
800 6.1347916334e+00 1.0852039902e-01 1.7678471521e+00 -3.0620010874e+00 1.7678471521e+00 3.0620010874e+00 
900 6.1321122975e+00 1.1066488546e-01 1.7647787606e+00 -3.0566864775e+00 1.7647787606e+00 3.0566864775e+00 
1000 6.1294290238e+00 1.1247102453e-01 1.7616443151e+00 -3.0512574586e+00 1.7616443151e+00 3.0512574586e+00 
1100 6.1267526791e+00 1.1396060685e-01 1.7584530637e+00 -3.0457300491e+00 1.7584530637e+00 3.0457300491e+00 
1200 6.1240929292e+00 1.1515447363e-01 1.7552136954e+00 -3.0401192986e+00 1.7552136954e+00 3.0401192986e+00 
1300 6.1214583310e+00 1.1607254868e-01 1.7519343643e+00 -3.0344393305e+00 1.7519343643e+00 3.0344393305e+00 
1400 6.1188564152e+00 1.1673385934e-01 1.7486227134e+00 -3.0287033829e+00 1.7486227134e+00 3.0287033829e+00 
1500 6.1162937607e+00 1.1715655194e-01 1.7452858973e+00 -3.0229238478e+00 1.7452858973e+00 3.0229238478e+00 
1600 6.1137760650e+00 1.1735790508e-01 1.7419306038e+00 -3.0171123090e+00 1.7419306038e+00 3.0171123090e+00 
1700 6.1113082107e+00 1.1735434317e-01 1.7385630756e+00 -3.0112795792e+00 1.7385630756e+00 3.0112795792e+00 
1800 6.1088943293e+00 1.1716145132e-01 1.7351891313e+00 -3.0054357362e+00 1.7351891313e+00 3.0054357362e+00 
1900 6.1065378622e+00 1.1679399251e-01 1.7318141855e+00 -2.9995901586e+00 1.7318141855e+00 2.9995901586e+00 
2000 6.1042416197e+00 1.1626592694e-01 1.7284432691e+00 -2.9937515602e+00 1.7284432691e+00 2.9937515602e+00 
2100 6.1020078375e+00 1.1559043393e-01 1.7250810487e+00 -2.9879280235e+00 1.7250810487e+00 2.9879280235e+00 
2200 6.0998382296e+00 1.1477993585e-01 1.7217318453e+00 -2.9821270330e+00 1.7217318453e+00 2.9821270330e+00 
2300 6.0977340404e+00 1.1384612402e-01 1.7183996531e+00 -2.9763555068e+00 1.7183996531e+00 2.9763555068e+00 
2400 6.0956960919e+00 1.1279998599e-01 1.7150881569e+00 -2.9706198272e+00 1.7150881569e+00 2.9706198272e+00 
2500 6.0937248296e+00 1.1165183410e-01 1.7118007495e+00 -2.9649258706e+00 1.7118007495e+00 2.9649258706e+00 
2600 6.0918203641e+00 1.1041133475e-01 1.7085405478e+00 -2.9592790356e+00 1.7085405478e+00 2.9592790356e+00 
2700 6.0899825114e+00 1.0908753811e-01 1.7053104089e+00 -2.9536842708e+00 1.7053104089e+00 2.9536842708e+00 
2800 6.0882108284e+00 1.0768890793e-01 1.7021129448e+00 -2.9481461007e+00 1.7021129448e+00 2.9481461007e+00 
2900 6.0865046466e+00 1.0622335133e-01 1.6989505375e+00 -2.9426686505e+00 1.6989505375e+00 2.9426686505e+00 
3000 6.0848631033e+00 1.0469824803e-01 1.6958253519e+00 -2.9372556703e+00 1.6958253519e+00 2.9372556703e+00 
3100 6.0832851688e+00 1.0312047910e-01 1.6927393494e+00 -2.9319105571e+00 1.6927393494e+00 2.9319105571e+00 
3200 6.0817696725e+00 1.0149645500e-01 1.6896943000e+00 -2.9266363769e+00 1.6896943000e+00 2.9266363769e+00 
3300 6.0803153254e+00 9.9832142621e-02 1.6866917944e+00 -2.9214358846e+00 1.6866917944e+00 2.9214358846e+00 
3400 6.0789207409e+00 9.8133091474e-02 1.6837332546e+00 -2.9163115433e+00 1.6837332546e+00 2.9163115433e+00 
3500 6.0775844535e+00 9.6404458755e-02 1.6808199447e+00 -2.9112655425e+00 1.6808199447e+00 2.9112655425e+00 
3600 6.0763049352e+00 9.4651033341e-02 1.6779529809e+00 -2.9062998156e+00 1.6779529809e+00 2.9062998156e+00 
3700 6.0750806100e+00 9.2877258662e-02 1.6751333407e+00 -2.9014160556e+00 1.6751333407e+00 2.9014160556e+00 
3800 6.0739098674e+00 9.1087254423e-02 1.6723618718e+00 -2.8966157307e+00 1.6723618718e+00 2.8966157307e+00 
3900 6.0727910734e+00 8.9284837196e-02 1.6696393004e+00 -2.8919000986e+00 1.6696393004e+00 2.8919000986e+00 
4000 6.0717225809e+00 8.7473539893e-02 1.6669662390e+00 -2.8872702204e+00 1.6669662390e+00 2.8872702204e+00 
4100 6.0707027380e+00 8.5656630133e-02 1.6643431937e+00 -2.8827269728e+00 1.6643431937e+00 2.8827269728e+00 
4200 6.0697298963e+00 8.3837127546e-02 1.6617705716e+00 -2.8782710605e+00 1.6617705716e+00 2.8782710605e+00 
4300 6.0688024167e+00 8.2017820042e-02 1.6592486866e+00 -2.8739030276e+00 1.6592486866e+00 2.8739030276e+00 
4400 6.0679186758e+00 8.0201279091e-02 1.6567777662e+00 -2.8696232679e+00 1.6567777662e+00 2.8696232679e+00 
4500 6.0670770701e+00 7.8389874050e-02 1.6543579570e+00 -2.8654320354e+00 1.6543579570e+00 2.8654320354e+00 
4600 6.0662760204e+00 7.6585785591e-02 1.6519893300e+00 -2.8613294532e+00 1.6519893300e+00 2.8613294532e+00 
4700 6.0655139750e+00 7.4791018267e-02 1.6496718862e+00 -2.8573155227e+00 1.6496718862e+00 2.8573155227e+00 
4800 6.0647894128e+00 7.3007412267e-02 1.6474055608e+00 -2.8533901319e+00 1.6474055608e+00 2.8533901319e+00 
4900 6.0641008454e+00 7.1236654403e-02 1.6451902282e+00 -2.8495530634e+00 1.6451902282e+00 2.8495530634e+00 
5000 6.0634468189e+00 6.9480288381e-02 1.6430257062e+00 -2.8458040012e+00 1.6430257062e+00 2.8458040012e+00 
5100 6.0628259155e+00 6.7739724382e-02 1.6409117597e+00 -2.8421425386e+00 1.6409117597e+00 2.8421425386e+00 
5200 6.0622367545e+00 6.6016248017e-02 1.6388481051e+00 -2.8385681838e+00 1.6388481051e+00 2.8385681838e+00 
5300 6.0616779931e+00 6.4311028678e-02 1.6368344130e+00 -2.8350803668e+00 1.6368344130e+00 2.8350803668e+00 
5400 6.0611483271e+00 6.2625127335e-02 1.6348703124e+00 -2.8316784448e+00 1.6348703124e+00 2.8316784448e+00 
5500 6.0606464911e+00 6.0959503808e-02 1.6329553933e+00 -2.8283617078e+00 1.6329553933e+00 2.8283617078e+00 
5600 6.0601712586e+00 5.9315023558e-02 1.6310892102e+00 -2.8251293837e+00 1.6310892102e+00 2.8251293837e+00 
5700 6.0597214419e+00 5.7692464010e-02 1.6292712841e+00 -2.8219806434e+00 1.6292712841e+00 2.8219806434e+00 
5800 6.0592958922e+00 5.6092520470e-02 1.6275011061e+00 -2.8189146052e+00 1.6275011061e+00 2.8189146052e+00 
5900 6.0588934988e+00 5.4515811634e-02 1.6257781392e+00 -2.8159303390e+00 1.6257781392e+00 2.8159303390e+00 
6000 6.0585131891e+00 5.2962884733e-02 1.6241018209e+00 -2.8130268705e+00 1.6241018209e+00 2.8130268705e+00 
6100 6.0581539282e+00 5.1434220337e-02 1.6224715656e+00 -2.8102031854e+00 1.6224715656e+00 2.8102031854e+00 
6200 6.0578147179e+00 4.9930236838e-02 1.6208867663e+00 -2.8074582325e+00 1.6208867663e+00 2.8074582325e+00 
6300 6.0574945961e+00 4.8451294636e-02 1.6193467968e+00 -2.8047909271e+00 1.6193467968e+00 2.8047909271e+00 
6400 6.0571926368e+00 4.6997700048e-02 1.6178510138e+00 -2.8022001550e+00 1.6178510138e+00 2.8022001550e+00 
6500 6.0569079484e+00 4.5569708965e-02 1.6163987583e+00 -2.7996847747e+00 1.6163987583e+00 2.7996847747e+00 
6600 6.0566396740e+00 4.4167530258e-02 1.6149893573e+00 -2.7972436206e+00 1.6149893573e+00 2.7972436206e+00 
6700 6.0563869896e+00 4.2791328975e-02 1.6136221256e+00 -2.7948755058e+00 1.6136221256e+00 2.7948755058e+00 
6800 6.0561491041e+00 4.1441229316e-02 1.6122963672e+00 -2.7925792248e+00 1.6122963672e+00 2.7925792248e+00 
6900 6.0559252582e+00 4.0117317426e-02 1.6110113764e+00 -2.7903535555e+00 1.6110113764e+00 2.7903535555e+00 
7000 6.0557147235e+00 3.8819644001e-02 1.6097664396e+00 -2.7881972618e+00 1.6097664396e+00 2.7881972618e+00 
7100 6.0555168021e+00 3.7548226726e-02 1.6085608363e+00 -2.7861090956e+00 1.6085608363e+00 2.7861090956e+00 
7200 6.0553308251e+00 3.6303052560e-02 1.6073938403e+00 -2.7840877992e+00 1.6073938403e+00 2.7840877992e+00 
7300 6.0551561525e+00 3.5084079868e-02 1.6062647207e+00 -2.7821321066e+00 1.6062647207e+00 2.7821321066e+00 
7400 6.0549921718e+00 3.3891240428e-02 1.6051727431e+00 -2.7802407459e+00 1.6051727431e+00 2.7802407459e+00 
7500 6.0548382979e+00 3.2724441293e-02 1.6041171706e+00 -2.7784124408e+00 1.6041171706e+00 2.7784124408e+00 
7600 6.0546939713e+00 3.1583566556e-02 1.6030972647e+00 -2.7766459120e+00 1.6030972647e+00 2.7766459120e+00 
7700 6.0545586584e+00 3.0468478982e-02 1.6021122861e+00 -2.7749398790e+00 1.6021122861e+00 2.7749398790e+00 
7800 6.0544318498e+00 2.9379021554e-02 1.6011614956e+00 -2.7732930615e+00 1.6011614956e+00 2.7732930615e+00 
7900 6.0543130600e+00 2.8315018910e-02 1.6002441548e+00 -2.7717041807e+00 1.6002441548e+00 2.7717041807e+00 
8000 6.0542018268e+00 2.7276278699e-02 1.5993595271e+00 -2.7701719605e+00 1.5993595271e+00 2.7701719605e+00 
8100 6.0540977098e+00 2.6262592844e-02 1.5985068778e+00 -2.7686951287e+00 1.5985068778e+00 2.7686951287e+00 
8200 6.0540002904e+00 2.5273738729e-02 1.5976854756e+00 -2.7672724183e+00 1.5976854756e+00 2.7672724183e+00 
8300 6.0539091707e+00 2.4309480318e-02 1.5968945924e+00 -2.7659025684e+00 1.5968945924e+00 2.7659025684e+00 
8400 6.0538239730e+00 2.3369569196e-02 1.5961335043e+00 -2.7645843252e+00 1.5961335043e+00 2.7645843252e+00 
8500 6.0537443385e+00 2.2453745548e-02 1.5954014922e+00 -2.7633164429e+00 1.5954014922e+00 2.7633164429e+00 
8600 6.0536699275e+00 2.1561739083e-02 1.5946978419e+00 -2.7620976849e+00 1.5946978419e+00 2.7620976849e+00 
8700 6.0536004178e+00 2.0693269896e-02 1.5940218450e+00 -2.7609268240e+00 1.5940218450e+00 2.7609268240e+00 
8800 6.0535355047e+00 1.9848049278e-02 1.5933727992e+00 -2.7598026436e+00 1.5933727992e+00 2.7598026436e+00 
8900 6.0534748998e+00 1.9025780478e-02 1.5927500085e+00 -2.7587239385e+00 1.5927500085e+00 2.7587239385e+00 
9000 6.0534183308e+00 1.8226159421e-02 1.5921527838e+00 -2.7576895150e+00 1.5921527838e+00 2.7576895150e+00 
9100 6.0533655405e+00 1.7448875378e-02 1.5915804435e+00 -2.7566981924e+00 1.5915804435e+00 2.7566981924e+00 
9200 6.0533162862e+00 1.6693611599e-02 1.5910323130e+00 -2.7557488026e+00 1.5910323130e+00 2.7557488026e+00 
9300 6.0532703394e+00 1.5960045913e-02 1.5905077261e+00 -2.7548401915e+00 1.5905077261e+00 2.7548401915e+00 
9400 6.0532274848e+00 1.5247851281e-02 1.5900060245e+00 -2.7539712188e+00 1.5900060245e+00 2.7539712188e+00 
9500 6.0531875199e+00 1.4556696332e-02 1.5895265582e+00 -2.7531407589e+00 1.5895265582e+00 2.7531407589e+00 
9600 6.0531502544e+00 1.3886245853e-02 1.5890686861e+00 -2.7523477011e+00 1.5890686861e+00 2.7523477011e+00 
9700 6.0531155094e+00 1.3236161264e-02 1.5886317758e+00 -2.7515909503e+00 1.5886317758e+00 2.7515909503e+00 
9800 6.0530831173e+00 1.2606101059e-02 1.5882152041e+00 -2.7508694268e+00 1.5882152041e+00 2.7508694268e+00 
9900 6.0530529210e+00 1.1995721222e-02 1.5878183569e+00 -2.7501820673e+00 1.5878183569e+00 2.7501820673e+00 
10000 6.0530247732e+00 1.1404675626e-02 1.5874406296e+00 -2.7495278245e+00 1.5874406296e+00 2.7495278245e+00 
10100 6.0529985362e+00 1.0832616405e-02 1.5870814273e+00 -2.7489056679e+00 1.5870814273e+00 2.7489056679e+00 
10200 6.0529740813e+00 1.0279194308e-02 1.5867401648e+00 -2.7483145839e+00 1.5867401648e+00 2.7483145839e+00 
10300 6.0529512881e+00 9.7440590375e-03 1.5864162667e+00 -2.7477535758e+00 1.5864162667e+00 2.7477535758e+00 
10400 6.0529300445e+00 9.2268595619e-03 1.5861091674e+00 -2.7472216643e+00 1.5861091674e+00 2.7472216643e+00 
10500 6.0529102458e+00 8.7272444237e-03 1.5858183117e+00 -2.7467178875e+00 1.5858183117e+00 2.7467178875e+00 
10600 6.0528917946e+00 8.2448620238e-03 1.5855431544e+00 -2.7462413009e+00 1.5855431544e+00 2.7462413009e+00 
10700 6.0528746000e+00 7.7793608955e-03 1.5852831603e+00 -2.7457909780e+00 1.5852831603e+00 2.7457909780e+00 
10800 6.0528585776e+00 7.3303899643e-03 1.5850378047e+00 -2.7453660097e+00 1.5850378047e+00 2.7453660097e+00 
10900 6.0528436491e+00 6.8975987966e-03 1.5848065733e+00 -2.7449655051e+00 1.5848065733e+00 2.7449655051e+00 
11000 6.0528297413e+00 6.4806378358e-03 1.5845889618e+00 -2.7445885910e+00 1.5845889618e+00 2.7445885910e+00 
11100 6.0528167867e+00 6.0791586285e-03 1.5843844767e+00 -2.7442344124e+00 1.5843844767e+00 2.7442344124e+00 
11200 6.0528047225e+00 5.6928140403e-03 1.5841926345e+00 -2.7439021319e+00 1.5841926345e+00 2.7439021319e+00 
11300 6.0527934903e+00 5.3212584624e-03 1.5840129623e+00 -2.7435909306e+00 1.5840129623e+00 2.7435909306e+00 
11400 6.0527830361e+00 4.9641480092e-03 1.5838449977e+00 -2.7433000073e+00 1.5838449977e+00 2.7433000073e+00 
11500 6.0527733099e+00 4.6211407077e-03 1.5836882883e+00 -2.7430285787e+00 1.5836882883e+00 2.7430285787e+00 
11600 6.0527642653e+00 4.2918966787e-03 1.5835423925e+00 -2.7427758798e+00 1.5835423925e+00 2.7427758798e+00 
11700 6.0527558592e+00 3.9760783107e-03 1.5834068788e+00 -2.7425411631e+00 1.5834068788e+00 2.7425411631e+00 
11800 6.0527480519e+00 3.6733504271e-03 1.5832813259e+00 -2.7423236991e+00 1.5832813259e+00 2.7423236991e+00 
11900 6.0527408064e+00 3.3833804452e-03 1.5831653229e+00 -2.7421227761e+00 1.5831653229e+00 2.7421227761e+00 
12000 6.0527340885e+00 3.1058385304e-03 1.5830584692e+00 -2.7419377000e+00 1.5830584692e+00 2.7419377000e+00 
12100 6.0527278664e+00 2.8403977430e-03 1.5829603741e+00 -2.7417677943e+00 1.5829603741e+00 2.7417677943e+00 
12200 6.0527221106e+00 2.5867341792e-03 1.5828706570e+00 -2.7416123998e+00 1.5828706570e+00 2.7416123998e+00 
12300 6.0527167939e+00 2.3445271064e-03 1.5827889475e+00 -2.7414708747e+00 1.5827889475e+00 2.7414708747e+00 
12400 6.0527118908e+00 2.1134590926e-03 1.5827148849e+00 -2.7413425946e+00 1.5827148849e+00 2.7413425946e+00 
12500 6.0527073775e+00 1.8932161307e-03 1.5826481185e+00 -2.7412269518e+00 1.5826481185e+00 2.7412269518e+00 
12600 6.0527032321e+00 1.6834877567e-03 1.5825883072e+00 -2.7411233556e+00 1.5825883072e+00 2.7411233556e+00 
12700 6.0526994340e+00 1.4839671631e-03 1.5825351197e+00 -2.7410312321e+00 1.5825351197e+00 2.7410312321e+00 
12800 6.0526959640e+00 1.2943513072e-03 1.5824882342e+00 -2.7409500240e+00 1.5824882342e+00 2.7409500240e+00 
12900 6.0526928040e+00 1.1143410138e-03 1.5824473383e+00 -2.7408791902e+00 1.5824473383e+00 2.7408791902e+00 
13000 6.0526899371e+00 9.4364107305e-04 1.5824121290e+00 -2.7408182059e+00 1.5824121290e+00 2.7408182059e+00 
13100 6.0526873476e+00 7.8196033353e-04 1.5823823126e+00 -2.7407665624e+00 1.5823823126e+00 2.7407665624e+00 
13200 6.0526850205e+00 6.2901179001e-04 1.5823576043e+00 -2.7407237664e+00 1.5823576043e+00 2.7407237664e+00 
13300 6.0526829417e+00 4.8451266647e-04 1.5823377286e+00 -2.7406893406e+00 1.5823377286e+00 2.7406893406e+00 
13400 6.0526810979e+00 3.4818449418e-04 1.5823224186e+00 -2.7406628229e+00 1.5823224186e+00 2.7406628229e+00 
13500 6.0526794764e+00 2.1975318491e-04 1.5823114162e+00 -2.7406437663e+00 1.5823114162e+00 2.7406437663e+00 
13600 6.0526780652e+00 9.8949099292e-05 1.5823044722e+00 -2.7406317389e+00 1.5823044722e+00 2.7406317389e+00 
13700 6.0526768530e+00 -1.4492889593e-05 1.5823013455e+00 -2.7406263232e+00 1.5823013455e+00 2.7406263232e+00 
13800 6.0526758290e+00 -1.2125064604e-04 1.5823013455e+00 -2.7406263232e+00 1.5823013455e+00 2.7406263232e+00 
13900 6.0526749826e+00 -2.2073361494e-04 1.5823051769e+00 -2.7406329595e+00 1.5823051769e+00 2.7406329595e+00 
14000 6.0526743038e+00 -3.1362264631e-04 1.5823121520e+00 -2.7406450407e+00 1.5823121520e+00 2.7406450407e+00 
14100 6.0526737832e+00 -4.0016425877e-04 1.5823220623e+00 -2.7406622058e+00 1.5823220623e+00 2.7406622058e+00 
14200 6.0526734115e+00 -4.8060021304e-04 1.5823347071e+00 -2.7406841073e+00 1.5823347071e+00 2.7406841073e+00 
14300 6.0526731799e+00 -5.5516747677e-04 1.5823498936e+00 -2.7407104110e+00 1.5823498936e+00 2.7407104110e+00 
14400 6.0526730799e+00 -6.2409819409e-04 1.5823674361e+00 -2.7407407956e+00 1.5823674361e+00 2.7407407956e+00 
14500 6.0526731033e+00 -6.8761965959e-04 1.5823871565e+00 -2.7407749524e+00 1.5823871565e+00 2.7407749524e+00 
14600 6.0526732421e+00 -7.4595429702e-04 1.5824088839e+00 -2.7408125852e+00 1.5824088839e+00 2.7408125852e+00 
14700 6.0526734889e+00 -7.9931964239e-04 1.5824324542e+00 -2.7408534101e+00 1.5824324542e+00 2.7408534101e+00 
14800 6.0526738361e+00 -8.4792833154e-04 1.5824577103e+00 -2.7408971550e+00 1.5824577103e+00 2.7408971550e+00 
14900 6.0526742767e+00 -8.9198809214e-04 1.5824845018e+00 -2.7409435594e+00 1.5824845018e+00 2.7409435594e+00 
15000 6.0526748038e+00 -9.3170173996e-04 1.5825126851e+00 -2.7409923742e+00 1.5825126851e+00 2.7409923742e+00 
15100 6.0526754107e+00 -9.6726717941e-04 1.5825421226e+00 -2.7410433614e+00 1.5825421226e+00 2.7410433614e+00 
15200 6.0526760910e+00 -9.9887740834e-04 1.5825726832e+00 -2.7410962940e+00 1.5825726832e+00 2.7410962940e+00 
15300 6.0526768386e+00 -1.0267205268e-03 1.5826042420e+00 -2.7411509554e+00 1.5826042420e+00 2.7411509554e+00 
15400 6.0526776474e+00 -1.0509797499e-03 1.5826366798e+00 -2.7412071393e+00 1.5826366798e+00 2.7412071393e+00 
15500 6.0526785117e+00 -1.0718334247e-03 1.5826698834e+00 -2.7412646496e+00 1.5826698834e+00 2.7412646496e+00 
15600 6.0526794261e+00 -1.0894550506e-03 1.5827037450e+00 -2.7413232997e+00 1.5827037450e+00 2.7413232997e+00 
15700 6.0526803851e+00 -1.1040133040e-03 1.5827381627e+00 -2.7413829129e+00 1.5827381627e+00 2.7413829129e+00 
15800 6.0526813836e+00 -1.1156720659e-03 1.5827730395e+00 -2.7414433213e+00 1.5827730395e+00 2.7414433213e+00 
15900 6.0526824169e+00 -1.1245904536e-03 1.5828082839e+00 -2.7415043663e+00 1.5828082839e+00 2.7415043663e+00 
16000 6.0526834802e+00 -1.1309228555e-03 1.5828438092e+00 -2.7415658979e+00 1.5828438092e+00 2.7415658979e+00 
16100 6.0526845690e+00 -1.1348189695e-03 1.5828795337e+00 -2.7416277746e+00 1.5828795337e+00 2.7416277746e+00 
16200 6.0526856792e+00 -1.1364238441e-03 1.5829153805e+00 -2.7416898631e+00 1.5829153805e+00 2.7416898631e+00 
16300 6.0526868066e+00 -1.1358779227e-03 1.5829512772e+00 -2.7417520380e+00 1.5829512772e+00 2.7417520380e+00 
16400 6.0526879474e+00 -1.1333170914e-03 1.5829871558e+00 -2.7418141816e+00 1.5829871558e+00 2.7418141816e+00 
16500 6.0526890980e+00 -1.1288727287e-03 1.5830229527e+00 -2.7418761837e+00 1.5830229527e+00 2.7418761837e+00 
16600 6.0526902550e+00 -1.1226717585e-03 1.5830586085e+00 -2.7419379412e+00 1.5830586085e+00 2.7419379412e+00 
16700 6.0526914152e+00 -1.1148367054e-03 1.5830940675e+00 -2.7419993581e+00 1.5830940675e+00 2.7419993581e+00 
16800 6.0526925756e+00 -1.1054857526e-03 1.5831292784e+00 -2.7420603451e+00 1.5831292784e+00 2.7420603451e+00 
16900 6.0526937332e+00 -1.0947328018e-03 1.5831641931e+00 -2.7421208191e+00 1.5831641931e+00 2.7421208191e+00 
17000 6.0526948856e+00 -1.0826875355e-03 1.5831987674e+00 -2.7421807036e+00 1.5831987674e+00 2.7421807036e+00 
17100 6.0526960303e+00 -1.0694554814e-03 1.5832329605e+00 -2.7422399279e+00 1.5832329605e+00 2.7422399279e+00 
17200 6.0526971650e+00 -1.0551380782e-03 1.5832667351e+00 -2.7422984271e+00 1.5832667351e+00 2.7422984271e+00 
17300 6.0526982877e+00 -1.0398327440e-03 1.5833000568e+00 -2.7423561419e+00 1.5833000568e+00 2.7423561419e+00 
17400 6.0526993964e+00 -1.0236329454e-03 1.5833328944e+00 -2.7424130184e+00 1.5833328944e+00 2.7424130184e+00 
17500 6.0527004896e+00 -1.0066282689e-03 1.5833652198e+00 -2.7424690075e+00 1.5833652198e+00 2.7424690075e+00 
17600 6.0527015656e+00 -9.8890449332e-04 1.5833970075e+00 -2.7425240655e+00 1.5833970075e+00 2.7425240655e+00 
17700 6.0527026231e+00 -9.7054366348e-04 1.5834282349e+00 -2.7425781530e+00 1.5834282349e+00 2.7425781530e+00 
17800 6.0527036609e+00 -9.5162416505e-04 1.5834588819e+00 -2.7426312351e+00 1.5834588819e+00 2.7426312351e+00 
17900 6.0527046779e+00 -9.3222080055e-04 1.5834889309e+00 -2.7426832815e+00 1.5834889309e+00 2.7426832815e+00 
18000 6.0527056731e+00 -9.1240486614e-04 1.5835183666e+00 -2.7427342658e+00 1.5835183666e+00 2.7427342658e+00 
18100 6.0527066459e+00 -8.9224422917e-04 1.5835471762e+00 -2.7427841653e+00 1.5835471762e+00 2.7427841653e+00 
18200 6.0527075956e+00 -8.7180340655e-04 1.5835753486e+00 -2.7428329613e+00 1.5835753486e+00 2.7428329613e+00 
18300 6.0527085217e+00 -8.5114364353e-04 1.5836028751e+00 -2.7428806386e+00 1.5836028751e+00 2.7428806386e+00 
18400 6.0527094237e+00 -8.3032299306e-04 1.5836297488e+00 -2.7429271853e+00 1.5836297488e+00 2.7429271853e+00 
18500 6.0527103014e+00 -8.0939639544e-04 1.5836559647e+00 -2.7429725925e+00 1.5836559647e+00 2.7429725925e+00 
18600 6.0527111546e+00 -7.8841575826e-04 1.5836815194e+00 -2.7430168547e+00 1.5836815194e+00 2.7430168547e+00 
18700 6.0527119833e+00 -7.6743003648e-04 1.5837064114e+00 -2.7430599688e+00 1.5837064114e+00 2.7430599688e+00 
18800 6.0527127875e+00 -7.4648531259e-04 1.5837306404e+00 -2.7431019346e+00 1.5837306404e+00 2.7431019346e+00 
18900 6.0527135673e+00 -7.2562487670e-04 1.5837542077e+00 -2.7431427545e+00 1.5837542077e+00 2.7431427545e+00 
19000 6.0527143229e+00 -7.0488930657e-04 1.5837771162e+00 -2.7431824330e+00 1.5837771162e+00 2.7431824330e+00 
19100 6.0527150545e+00 -6.8431654744e-04 1.5837993696e+00 -2.7432209772e+00 1.5837993696e+00 2.7432209772e+00 
19200 6.0527157625e+00 -6.6394199145e-04 1.5838209733e+00 -2.7432583959e+00 1.5838209733e+00 2.7432583959e+00 
19300 6.0527164473e+00 -6.4379855690e-04 1.5838419335e+00 -2.7432947000e+00 1.5838419335e+00 2.7432947000e+00 
19400 6.0527171093e+00 -6.2391676688e-04 1.5838622575e+00 -2.7433299022e+00 1.5838622575e+00 2.7433299022e+00 
19500 6.0527177490e+00 -6.0432482754e-04 1.5838819536e+00 -2.7433640168e+00 1.5838819536e+00 2.7433640168e+00 
19600 6.0527183671e+00 -5.8504870565e-04 1.5839010310e+00 -2.7433970598e+00 1.5839010310e+00 2.7433970598e+00 
19700 6.0527189640e+00 -5.6611220559e-04 1.5839194996e+00 -2.7434290484e+00 1.5839194996e+00 2.7434290484e+00 
19800 6.0527195403e+00 -5.4753704564e-04 1.5839373702e+00 -2.7434600013e+00 1.5839373702e+00 2.7434600013e+00 
19900 6.0527200968e+00 -5.2934293345e-04 1.5839546543e+00 -2.7434899382e+00 1.5839546543e+00 2.7434899382e+00 
20000 6.0527206341e+00 -5.1154764071e-04 1.5839713639e+00 -2.7435188800e+00 1.5839713639e+00 2.7435188800e+00 
20100 6.0527211528e+00 -4.9416707695e-04 1.5839875115e+00 -2.7435468485e+00 1.5839875115e+00 2.7435468485e+00 
20200 6.0527216537e+00 -4.7721536238e-04 1.5840031104e+00 -2.7435738666e+00 1.5840031104e+00 2.7435738666e+00 
20300 6.0527221375e+00 -4.6070489980e-04 1.5840181740e+00 -2.7435999575e+00 1.5840181740e+00 2.7435999575e+00 
20400 6.0527226048e+00 -4.4464644543e-04 1.5840327163e+00 -2.7436251455e+00 1.5840327163e+00 2.7436251455e+00 
20500 6.0527230564e+00 -4.2904917874e-04 1.5840467516e+00 -2.7436494553e+00 1.5840467516e+00 2.7436494553e+00 
20600 6.0527234930e+00 -4.1392077109e-04 1.5840602944e+00 -2.7436729122e+00 1.5840602944e+00 2.7436729122e+00 
20700 6.0527239154e+00 -3.9926745335e-04 1.5840733596e+00 -2.7436955418e+00 1.5840733596e+00 2.7436955418e+00 
20800 6.0527243241e+00 -3.8509408223e-04 1.5840859622e+00 -2.7437173701e+00 1.5840859622e+00 2.7437173701e+00 
20900 6.0527247199e+00 -3.7140420547e-04 1.5840981173e+00 -2.7437384234e+00 1.5840981173e+00 2.7437384234e+00 
21000 6.0527251035e+00 -3.5820012575e-04 1.5841098402e+00 -2.7437587280e+00 1.5841098402e+00 2.7437587280e+00 
21100 6.0527254755e+00 -3.4548296346e-04 1.5841211463e+00 -2.7437783107e+00 1.5841211463e+00 2.7437783107e+00 
21200 6.0527258365e+00 -3.3325271796e-04 1.5841320509e+00 -2.7437971980e+00 1.5841320509e+00 2.7437971980e+00 
21300 6.0527261873e+00 -3.2150832782e-04 1.5841425693e+00 -2.7438154165e+00 1.5841425693e+00 2.7438154165e+00 
21400 6.0527265283e+00 -3.1024772945e-04 1.5841527170e+00 -2.7438329929e+00 1.5841527170e+00 2.7438329929e+00 
21500 6.0527268602e+00 -2.9946791463e-04 1.5841625093e+00 -2.7438499535e+00 1.5841625093e+00 2.7438499535e+00 
21600 6.0527271835e+00 -2.8916498651e-04 1.5841719612e+00 -2.7438663248e+00 1.5841719612e+00 2.7438663248e+00 
21700 6.0527274988e+00 -2.7933421434e-04 1.5841810879e+00 -2.7438821327e+00 1.5841810879e+00 2.7438821327e+00 
21800 6.0527278065e+00 -2.6997008678e-04 1.5841899043e+00 -2.7438974031e+00 1.5841899043e+00 2.7438974031e+00 
21900 6.0527281072e+00 -2.6106636381e-04 1.5841984251e+00 -2.7439121615e+00 1.5841984251e+00 2.7439121615e+00 
22000 6.0527284013e+00 -2.5261612730e-04 1.5842066648e+00 -2.7439264331e+00 1.5842066648e+00 2.7439264331e+00 
22100 6.0527286892e+00 -2.4461183008e-04 1.5842146377e+00 -2.7439402426e+00 1.5842146377e+00 2.7439402426e+00 
22200 6.0527289714e+00 -2.3704534371e-04 1.5842223580e+00 -2.7439536146e+00 1.5842223580e+00 2.7439536146e+00 
22300 6.0527292482e+00 -2.2990800476e-04 1.5842298395e+00 -2.7439665728e+00 1.5842298395e+00 2.7439665728e+00 
22400 6.0527295199e+00 -2.2319065976e-04 1.5842370956e+00 -2.7439791409e+00 1.5842370956e+00 2.7439791409e+00 
22500 6.0527297870e+00 -2.1688370864e-04 1.5842441397e+00 -2.7439913416e+00 1.5842441397e+00 2.7439913416e+00 
22600 6.0527300498e+00 -2.1097714687e-04 1.5842509848e+00 -2.7440031975e+00 1.5842509848e+00 2.7440031975e+00 
22700 6.0527303084e+00 -2.0546060613e-04 1.5842576433e+00 -2.7440147305e+00 1.5842576433e+00 2.7440147305e+00 
22800 6.0527305632e+00 -2.0032339366e-04 1.5842641278e+00 -2.7440259619e+00 1.5842641278e+00 2.7440259619e+00 
22900 6.0527308143e+00 -1.9555453009e-04 1.5842704501e+00 -2.7440369125e+00 1.5842704501e+00 2.7440369125e+00 
23000 6.0527310621e+00 -1.9114278608e-04 1.5842766218e+00 -2.7440476023e+00 1.5842766218e+00 2.7440476023e+00 
23100 6.0527313067e+00 -1.8707671745e-04 1.5842826543e+00 -2.7440580509e+00 1.5842826543e+00 2.7440580509e+00 
23200 6.0527315482e+00 -1.8334469897e-04 1.5842885585e+00 -2.7440682771e+00 1.5842885585e+00 2.7440682771e+00 
23300 6.0527317869e+00 -1.7993495689e-04 1.5842943448e+00 -2.7440782994e+00 1.5842943448e+00 2.7440782994e+00 
23400 6.0527320229e+00 -1.7683560002e-04 1.5843000235e+00 -2.7440881352e+00 1.5843000235e+00 2.7440881352e+00 
23500 6.0527322562e+00 -1.7403464964e-04 1.5843056044e+00 -2.7440978016e+00 1.5843056044e+00 2.7440978016e+00 
23600 6.0527324870e+00 -1.7152006793e-04 1.5843110969e+00 -2.7441073148e+00 1.5843110969e+00 2.7441073148e+00 
23700 6.0527327153e+00 -1.6927978530e-04 1.5843165100e+00 -2.7441166905e+00 1.5843165100e+00 2.7441166905e+00 
23800 6.0527329413e+00 -1.6730172632e-04 1.5843218523e+00 -2.7441259438e+00 1.5843218523e+00 2.7441259438e+00 
23900 6.0527331649e+00 -1.6557383443e-04 1.5843271322e+00 -2.7441350889e+00 1.5843271322e+00 2.7441350889e+00 
24000 6.0527333863e+00 -1.6408409551e-04 1.5843323576e+00 -2.7441441395e+00 1.5843323576e+00 2.7441441395e+00 
24100 6.0527336054e+00 -1.6282056010e-04 1.5843375360e+00 -2.7441531086e+00 1.5843375360e+00 2.7441531086e+00 
24200 6.0527338223e+00 -1.6177136452e-04 1.5843426744e+00 -2.7441620087e+00 1.5843426744e+00 2.7441620087e+00 
24300 6.0527340370e+00 -1.6092475084e-04 1.5843477797e+00 -2.7441708513e+00 1.5843477797e+00 2.7441708513e+00 
24400 6.0527342494e+00 -1.6026908561e-04 1.5843528583e+00 -2.7441796477e+00 1.5843528583e+00 2.7441796477e+00 
24500 6.0527344597e+00 -1.5979287758e-04 1.5843579162e+00 -2.7441884082e+00 1.5843579162e+00 2.7441884082e+00 
24600 6.0527346677e+00 -1.5948479422e-04 1.5843629590e+00 -2.7441971426e+00 1.5843629590e+00 2.7441971426e+00 
24700 6.0527348734e+00 -1.5933367725e-04 1.5843679921e+00 -2.7442058602e+00 1.5843679921e+00 2.7442058602e+00 
24800 6.0527350769e+00 -1.5932855704e-04 1.5843730204e+00 -2.7442145695e+00 1.5843730204e+00 2.7442145695e+00 
24900 6.0527352781e+00 -1.5945866608e-04 1.5843780485e+00 -2.7442232785e+00 1.5843780485e+00 2.7442232785e+00 
25000 6.0527354770e+00 -1.5971345131e-04 1.5843830808e+00 -2.7442319945e+00 1.5843830808e+00 2.7442319945e+00 
25100 6.0527356734e+00 -1.6008258563e-04 1.5843881210e+00 -2.7442407245e+00 1.5843881210e+00 2.7442407245e+00 
25200 6.0527358675e+00 -1.6055597831e-04 1.5843931729e+00 -2.7442494746e+00 1.5843931729e+00 2.7442494746e+00 
25300 6.0527360591e+00 -1.6112378461e-04 1.5843982397e+00 -2.7442582505e+00 1.5843982397e+00 2.7442582505e+00 
25400 6.0527362483e+00 -1.6177641439e-04 1.5844033244e+00 -2.7442670575e+00 1.5844033244e+00 2.7442670575e+00 
25500 6.0527364349e+00 -1.6250453992e-04 1.5844084297e+00 -2.7442759001e+00 1.5844084297e+00 2.7442759001e+00 
25600 6.0527366190e+00 -1.6329910280e-04 1.5844135579e+00 -2.7442847825e+00 1.5844135579e+00 2.7442847825e+00 
25700 6.0527368004e+00 -1.6415132009e-04 1.5844187112e+00 -2.7442937083e+00 1.5844187112e+00 2.7442937083e+00 
25800 6.0527369793e+00 -1.6505268962e-04 1.5844238914e+00 -2.7443026806e+00 1.5844238914e+00 2.7443026806e+00 
25900 6.0527371554e+00 -1.6599499455e-04 1.5844291000e+00 -2.7443117022e+00 1.5844291000e+00 2.7443117022e+00 
26000 6.0527373288e+00 -1.6697030719e-04 1.5844343383e+00 -2.7443207752e+00 1.5844343383e+00 2.7443207752e+00 
26100 6.0527374995e+00 -1.6797099211e-04 1.5844396074e+00 -2.7443299015e+00 1.5844396074e+00 2.7443299015e+00 
26200 6.0527376674e+00 -1.6898970854e-04 1.5844449080e+00 -2.7443390825e+00 1.5844449080e+00 2.7443390825e+00 
26300 6.0527378325e+00 -1.7001941213e-04 1.5844502408e+00 -2.7443483192e+00 1.5844502408e+00 2.7443483192e+00 
26400 6.0527379948e+00 -1.7105335610e-04 1.5844556061e+00 -2.7443576121e+00 1.5844556061e+00 2.7443576121e+00 
26500 6.0527381543e+00 -1.7208509169e-04 1.5844610039e+00 -2.7443669614e+00 1.5844610039e+00 2.7443669614e+00 
26600 6.0527383108e+00 -1.7310846818e-04 1.5844664343e+00 -2.7443763672e+00 1.5844664343e+00 2.7443763672e+00 
26700 6.0527384645e+00 -1.7411763218e-04 1.5844718970e+00 -2.7443858288e+00 1.5844718970e+00 2.7443858288e+00 
26800 6.0527386153e+00 -1.7510702654e-04 1.5844773915e+00 -2.7443953455e+00 1.5844773915e+00 2.7443953455e+00 
26900 6.0527387632e+00 -1.7607138867e-04 1.5844829172e+00 -2.7444049164e+00 1.5844829172e+00 2.7444049164e+00 
27000 6.0527389082e+00 -1.7700574839e-04 1.5844884733e+00 -2.7444145398e+00 1.5844884733e+00 2.7444145398e+00 
27100 6.0527390502e+00 -1.7790542538e-04 1.5844940589e+00 -2.7444242143e+00 1.5844940589e+00 2.7444242143e+00 
27200 6.0527391894e+00 -1.7876602609e-04 1.5844996729e+00 -2.7444339380e+00 1.5844996729e+00 2.7444339380e+00 
27300 6.0527393257e+00 -1.7958344039e-04 1.5845053140e+00 -2.7444437087e+00 1.5845053140e+00 2.7444437087e+00 
27400 6.0527394590e+00 -1.8035383770e-04 1.5845109808e+00 -2.7444535240e+00 1.5845109808e+00 2.7444535240e+00 
27500 6.0527395895e+00 -1.8107366285e-04 1.5845166720e+00 -2.7444633813e+00 1.5845166720e+00 2.7444633813e+00 
27600 6.0527397171e+00 -1.8173963157e-04 1.5845223858e+00 -2.7444732780e+00 1.5845223858e+00 2.7444732780e+00 
27700 6.0527398418e+00 -1.8234872564e-04 1.5845281207e+00 -2.7444832110e+00 1.5845281207e+00 2.7444832110e+00 
27800 6.0527399638e+00 -1.8289818782e-04 1.5845338747e+00 -2.7444931773e+00 1.5845338747e+00 2.7444931773e+00 
27900 6.0527400829e+00 -1.8338551647e-04 1.5845396461e+00 -2.7445031736e+00 1.5845396461e+00 2.7445031736e+00 
28000 6.0527401992e+00 -1.8380845986e-04 1.5845454328e+00 -2.7445131965e+00 1.5845454328e+00 2.7445131965e+00 
28100 6.0527403128e+00 -1.8416501039e-04 1.5845512328e+00 -2.7445232425e+00 1.5845512328e+00 2.7445232425e+00 
28200 6.0527404237e+00 -1.8445339845e-04 1.5845570441e+00 -2.7445333079e+00 1.5845570441e+00 2.7445333079e+00 
28300 6.0527405318e+00 -1.8467208622e-04 1.5845628645e+00 -2.7445433890e+00 1.5845628645e+00 2.7445433890e+00 
28400 6.0527406374e+00 -1.8481976120e-04 1.5845686917e+00 -2.7445534821e+00 1.5845686917e+00 2.7445534821e+00 
28500 6.0527407403e+00 -1.8489532969e-04 1.5845745236e+00 -2.7445635832e+00 1.5845745236e+00 2.7445635832e+00 
28600 6.0527408406e+00 -1.8489791001e-04 1.5845803578e+00 -2.7445736884e+00 1.5845803578e+00 2.7445736884e+00 
28700 6.0527409385e+00 -1.8482682572e-04 1.5845861921e+00 -2.7445837936e+00 1.5845861921e+00 2.7445837936e+00 
28800 6.0527410338e+00 -1.8468159870e-04 1.5845920241e+00 -2.7445938950e+00 1.5845920241e+00 2.7445938950e+00 
28900 6.0527411267e+00 -1.8446194212e-04 1.5845978515e+00 -2.7446039884e+00 1.5845978515e+00 2.7446039884e+00 
29000 6.0527412172e+00 -1.8416775338e-04 1.5846036720e+00 -2.7446140697e+00 1.5846036720e+00 2.7446140697e+00 
29100 6.0527413054e+00 -1.8379910699e-04 1.5846094832e+00 -2.7446241350e+00 1.5846094832e+00 2.7446241350e+00 
29200 6.0527413912e+00 -1.8335624742e-04 1.5846152827e+00 -2.7446341800e+00 1.5846152827e+00 2.7446341800e+00 
29300 6.0527414748e+00 -1.8283958189e-04 1.5846210682e+00 -2.7446442008e+00 1.5846210682e+00 2.7446442008e+00 
29400 6.0527415562e+00 -1.8224967323e-04 1.5846268374e+00 -2.7446541934e+00 1.5846268374e+00 2.7446541934e+00 
29500 6.0527416355e+00 -1.8158723265e-04 1.5846325879e+00 -2.7446641536e+00 1.5846325879e+00 2.7446641536e+00 
29600 6.0527417126e+00 -1.8085311260e-04 1.5846383176e+00 -2.7446740777e+00 1.5846383176e+00 2.7446740777e+00 
29700 6.0527417877e+00 -1.8004829963e-04 1.5846440240e+00 -2.7446839615e+00 1.5846440240e+00 2.7446839615e+00 
29800 6.0527418608e+00 -1.7917390728e-04 1.5846497051e+00 -2.7446938014e+00 1.5846497051e+00 2.7446938014e+00 
29900 6.0527419320e+00 -1.7823116905e-04 1.5846553585e+00 -2.7447035934e+00 1.5846553585e+00 2.7447035934e+00 
30000 6.0527420012e+00 -1.7722143144e-04 1.5846609821e+00 -2.7447133338e+00 1.5846609821e+00 2.7447133338e+00 
30100 6.0527420686e+00 -1.7614614700e-04 1.5846665739e+00 -2.7447230191e+00 1.5846665739e+00 2.7447230191e+00 
30200 6.0527421342e+00 -1.7500686750e-04 1.5846721318e+00 -2.7447326455e+00 1.5846721318e+00 2.7447326455e+00 
30300 6.0527421981e+00 -1.7380523723e-04 1.5846776536e+00 -2.7447422097e+00 1.5846776536e+00 2.7447422097e+00 
30400 6.0527422602e+00 -1.7254298634e-04 1.5846831376e+00 -2.7447517081e+00 1.5846831376e+00 2.7447517081e+00 
30500 6.0527423207e+00 -1.7122192428e-04 1.5846885816e+00 -2.7447611376e+00 1.5846885816e+00 2.7447611376e+00 
30600 6.0527423796e+00 -1.6984393344e-04 1.5846939840e+00 -2.7447704948e+00 1.5846939840e+00 2.7447704948e+00 
30700 6.0527424369e+00 -1.6841096276e-04 1.5846993429e+00 -2.7447797767e+00 1.5846993429e+00 2.7447797767e+00 
30800 6.0527424927e+00 -1.6692502163e-04 1.5847046566e+00 -2.7447889802e+00 1.5847046566e+00 2.7447889802e+00 
30900 6.0527425470e+00 -1.6538817382e-04 1.5847099233e+00 -2.7447981025e+00 1.5847099233e+00 2.7447981025e+00 
31000 6.0527425999e+00 -1.6380253155e-04 1.5847151416e+00 -2.7448071408e+00 1.5847151416e+00 2.7448071408e+00 
31100 6.0527426514e+00 -1.6217024976e-04 1.5847203098e+00 -2.7448160924e+00 1.5847203098e+00 2.7448160924e+00 
31200 6.0527427016e+00 -1.6049352048e-04 1.5847254265e+00 -2.7448249547e+00 1.5847254265e+00 2.7448249547e+00 
31300 6.0527427505e+00 -1.5877456733e-04 1.5847304902e+00 -2.7448337254e+00 1.5847304902e+00 2.7448337254e+00 
31400 6.0527427981e+00 -1.5701564026e-04 1.5847354998e+00 -2.7448424022e+00 1.5847354998e+00 2.7448424022e+00 
31500 6.0527428445e+00 -1.5521901034e-04 1.5847404538e+00 -2.7448509827e+00 1.5847404538e+00 2.7448509827e+00 
31600 6.0527428898e+00 -1.5338696480e-04 1.5847453511e+00 -2.7448594651e+00 1.5847453511e+00 2.7448594651e+00 
31700 6.0527429339e+00 -1.5152180218e-04 1.5847501906e+00 -2.7448678474e+00 1.5847501906e+00 2.7448678474e+00 
31800 6.0527429768e+00 -1.4962582763e-04 1.5847549712e+00 -2.7448761276e+00 1.5847549712e+00 2.7448761276e+00 
31900 6.0527430187e+00 -1.4770134847e-04 1.5847596920e+00 -2.7448843043e+00 1.5847596920e+00 2.7448843043e+00 
32000 6.0527430596e+00 -1.4575066979e-04 1.5847643520e+00 -2.7448923757e+00 1.5847643520e+00 2.7448923757e+00 
32100 6.0527430995e+00 -1.4377609029e-04 1.5847689505e+00 -2.7449003406e+00 1.5847689505e+00 2.7449003406e+00 
32200 6.0527431384e+00 -1.4177989832e-04 1.5847734867e+00 -2.7449081975e+00 1.5847734867e+00 2.7449081975e+00 
32300 6.0527431763e+00 -1.3976436798e-04 1.5847779599e+00 -2.7449159453e+00 1.5847779599e+00 2.7449159453e+00 
32400 6.0527432133e+00 -1.3773175551e-04 1.5847823695e+00 -2.7449235829e+00 1.5847823695e+00 2.7449235829e+00 
32500 6.0527432495e+00 -1.3568429578e-04 1.5847867149e+00 -2.7449311094e+00 1.5847867149e+00 2.7449311094e+00 
32600 6.0527432848e+00 -1.3362419894e-04 1.5847909958e+00 -2.7449385241e+00 1.5847909958e+00 2.7449385241e+00 
32700 6.0527433192e+00 -1.3155364728e-04 1.5847952116e+00 -2.7449458261e+00 1.5847952116e+00 2.7449458261e+00 
32800 6.0527433529e+00 -1.2947479225e-04 1.5847993621e+00 -2.7449530150e+00 1.5847993621e+00 2.7449530150e+00 
32900 6.0527433858e+00 -1.2738975157e-04 1.5848034470e+00 -2.7449600902e+00 1.5848034470e+00 2.7449600902e+00 
33000 6.0527434179e+00 -1.2530060666e-04 1.5848074661e+00 -2.7449670515e+00 1.5848074661e+00 2.7449670515e+00 
33100 6.0527434493e+00 -1.2320940003e-04 1.5848114193e+00 -2.7449738986e+00 1.5848114193e+00 2.7449738986e+00 
33200 6.0527434799e+00 -1.2111813303e-04 1.5848153065e+00 -2.7449806315e+00 1.5848153065e+00 2.7449806315e+00 
33300 6.0527435099e+00 -1.1902876358e-04 1.5848191277e+00 -2.7449872500e+00 1.5848191277e+00 2.7449872500e+00 
33400 6.0527435392e+00 -1.1694320420e-04 1.5848228830e+00 -2.7449937543e+00 1.5848228830e+00 2.7449937543e+00 
33500 6.0527435679e+00 -1.1486332011e-04 1.5848265725e+00 -2.7450001447e+00 1.5848265725e+00 2.7450001447e+00 
33600 6.0527435959e+00 -1.1279092748e-04 1.5848301963e+00 -2.7450064214e+00 1.5848301963e+00 2.7450064214e+00 
33700 6.0527436233e+00 -1.1072779187e-04 1.5848337548e+00 -2.7450125848e+00 1.5848337548e+00 2.7450125848e+00 
33800 6.0527436502e+00 -1.0867562679e-04 1.5848372481e+00 -2.7450186355e+00 1.5848372481e+00 2.7450186355e+00 
33900 6.0527436764e+00 -1.0663609240e-04 1.5848406767e+00 -2.7450245740e+00 1.5848406767e+00 2.7450245740e+00 
34000 6.0527437021e+00 -1.0461079433e-04 1.5848440410e+00 -2.7450304010e+00 1.5848440410e+00 2.7450304010e+00 
34100 6.0527437272e+00 -1.0260128270e-04 1.5848473413e+00 -2.7450361174e+00 1.5848473413e+00 2.7450361174e+00 
34200 6.0527437518e+00 -1.0060905118e-04 1.5848505783e+00 -2.7450417240e+00 1.5848505783e+00 2.7450417240e+00 
34300 6.0527437759e+00 -9.8635536261e-05 1.5848537524e+00 -2.7450472217e+00 1.5848537524e+00 2.7450472217e+00 
34400 6.0527437994e+00 -9.6682116583e-05 1.5848568642e+00 -2.7450526115e+00 1.5848568642e+00 2.7450526115e+00 
34500 6.0527438225e+00 -9.4750112441e-05 1.5848599144e+00 -2.7450578946e+00 1.5848599144e+00 2.7450578946e+00 
34600 6.0527438451e+00 -9.2840785358e-05 1.5848629036e+00 -2.7450630721e+00 1.5848629036e+00 2.7450630721e+00 
34700 6.0527438672e+00 -9.0955337817e-05 1.5848658326e+00 -2.7450681452e+00 1.5848658326e+00 2.7450681452e+00 
34800 6.0527438889e+00 -8.9094913058e-05 1.5848687021e+00 -2.7450731153e+00 1.5848687021e+00 2.7450731153e+00 
34900 6.0527439101e+00 -8.7260595019e-05 1.5848715129e+00 -2.7450779838e+00 1.5848715129e+00 2.7450779838e+00 
35000 6.0527439309e+00 -8.5453408353e-05 1.5848742658e+00 -2.7450827520e+00 1.5848742658e+00 2.7450827520e+00 
35100 6.0527439513e+00 -8.3674318556e-05 1.5848769617e+00 -2.7450874214e+00 1.5848769617e+00 2.7450874214e+00 
35200 6.0527439712e+00 -8.1924232184e-05 1.5848796015e+00 -2.7450919936e+00 1.5848796015e+00 2.7450919936e+00 
35300 6.0527439908e+00 -8.0203997161e-05 1.5848821860e+00 -2.7450964702e+00 1.5848821860e+00 2.7450964702e+00 
35400 6.0527440099e+00 -7.8514403177e-05 1.5848847163e+00 -2.7451008528e+00 1.5848847163e+00 2.7451008528e+00 
35500 6.0527440287e+00 -7.6856182164e-05 1.5848871933e+00 -2.7451051431e+00 1.5848871933e+00 2.7451051431e+00 
35600 6.0527440471e+00 -7.5230008848e-05 1.5848896180e+00 -2.7451093427e+00 1.5848896180e+00 2.7451093427e+00 
35700 6.0527440651e+00 -7.3636501385e-05 1.5848919913e+00 -2.7451134535e+00 1.5848919913e+00 2.7451134535e+00 
35800 6.0527440828e+00 -7.2076222058e-05 1.5848943144e+00 -2.7451174771e+00 1.5848943144e+00 2.7451174771e+00 
35900 6.0527441001e+00 -7.0549678054e-05 1.5848965882e+00 -2.7451214156e+00 1.5848965882e+00 2.7451214156e+00 
36000 6.0527441173e+00 -7.1084650614e-05 1.5848965882e+00 -2.7451214156e+00 1.5848965882e+00 2.7451214156e+00 
36100 6.0527441339e+00 -6.9569635490e-05 1.5848988308e+00 -2.7451252998e+00 1.5848988308e+00 2.7451252998e+00 
36200 6.0527441504e+00 -7.0090749718e-05 1.5848988308e+00 -2.7451252998e+00 1.5848988308e+00 2.7451252998e+00 
36300 6.0527441666e+00 -7.0607544511e-05 1.5848988308e+00 -2.7451252998e+00 1.5848988308e+00 2.7451252998e+00 
36400 6.0527441824e+00 -7.1121605023e-05 1.5848988308e+00 -2.7451252998e+00 1.5848988308e+00 2.7451252998e+00 
36500 6.0527441977e+00 -6.9590604100e-05 1.5849010745e+00 -2.7451291861e+00 1.5849010745e+00 2.7451291861e+00 
36600 6.0527442130e+00 -7.0102643893e-05 1.5849010745e+00 -2.7451291861e+00 1.5849010745e+00 2.7451291861e+00 
36700 6.0527442279e+00 -7.0615894612e-05 1.5849010745e+00 -2.7451291861e+00 1.5849010745e+00 2.7451291861e+00 
36800 6.0527442425e+00 -7.1131686427e-05 1.5849010745e+00 -2.7451291861e+00 1.5849010745e+00 2.7451291861e+00 
36900 6.0527442566e+00 -6.9607092061e-05 1.5849033186e+00 -2.7451330728e+00 1.5849033186e+00 2.7451330728e+00 
37000 6.0527442707e+00 -7.0130662146e-05 1.5849033186e+00 -2.7451330728e+00 1.5849033186e+00 2.7451330728e+00 
37100 6.0527442845e+00 -7.0659973247e-05 1.5849033186e+00 -2.7451330728e+00 1.5849033186e+00 2.7451330728e+00 
37200 6.0527442980e+00 -7.1196114440e-05 1.5849033186e+00 -2.7451330728e+00 1.5849033186e+00 2.7451330728e+00 
37300 6.0527443111e+00 -6.9694013622e-05 1.5849055646e+00 -2.7451369632e+00 1.5849055646e+00 2.7451369632e+00 
37400 6.0527443241e+00 -7.0245803347e-05 1.5849055646e+00 -2.7451369632e+00 1.5849055646e+00 2.7451369632e+00 
37500 6.0527443368e+00 -7.0806923815e-05 1.5849055646e+00 -2.7451369632e+00 1.5849055646e+00 2.7451369632e+00 
37600 6.0527443491e+00 -6.9343288797e-05 1.5849077984e+00 -2.7451408322e+00 1.5849077984e+00 2.7451408322e+00 
37700 6.0527443614e+00 -6.9924586405e-05 1.5849077984e+00 -2.7451408322e+00 1.5849077984e+00 2.7451408322e+00 
37800 6.0527443734e+00 -7.0517245695e-05 1.5849077984e+00 -2.7451408322e+00 1.5849077984e+00 2.7451408322e+00 
37900 6.0527443852e+00 -7.1121981036e-05 1.5849077984e+00 -2.7451408322e+00 1.5849077984e+00 2.7451408322e+00 
38000 6.0527443965e+00 -6.9695394209e-05 1.5849100422e+00 -2.7451447184e+00 1.5849100422e+00 2.7451447184e+00 
38100 6.0527444079e+00 -7.0325180484e-05 1.5849100422e+00 -2.7451447184e+00 1.5849100422e+00 2.7451447184e+00 
38200 6.0527444190e+00 -7.0968469263e-05 1.5849100422e+00 -2.7451447184e+00 1.5849100422e+00 2.7451447184e+00 
38300 6.0527444297e+00 -6.9586104095e-05 1.5849122810e+00 -2.7451485963e+00 1.5849122810e+00 2.7451485963e+00 
38400 6.0527444404e+00 -7.0256897291e-05 1.5849122810e+00 -2.7451485963e+00 1.5849122810e+00 2.7451485963e+00 
38500 6.0527444509e+00 -7.0942225942e-05 1.5849122810e+00 -2.7451485963e+00 1.5849122810e+00 2.7451485963e+00 
38600 6.0527444611e+00 -6.9603530574e-05 1.5849145191e+00 -2.7451524727e+00 1.5849145191e+00 2.7451524727e+00 
38700 6.0527444712e+00 -7.0318062519e-05 1.5849145191e+00 -2.7451524727e+00 1.5849145191e+00 2.7451524727e+00 
38800 6.0527444811e+00 -7.1047803021e-05 1.5849145191e+00 -2.7451524727e+00 1.5849145191e+00 2.7451524727e+00 
38900 6.0527444906e+00 -6.9751013985e-05 1.5849167605e+00 -2.7451563549e+00 1.5849167605e+00 2.7451563549e+00 
39000 6.0527445002e+00 -7.0510969784e-05 1.5849167605e+00 -2.7451563549e+00 1.5849167605e+00 2.7451563549e+00 
39100 6.0527445095e+00 -7.1286481412e-05 1.5849167605e+00 -2.7451563549e+00 1.5849167605e+00 2.7451563549e+00 
39200 6.0527445185e+00 -7.0028819572e-05 1.5849190094e+00 -2.7451602501e+00 1.5849190094e+00 2.7451602501e+00 
39300 6.0527445276e+00 -7.0834939628e-05 1.5849190094e+00 -2.7451602501e+00 1.5849190094e+00 2.7451602501e+00 
39400 6.0527445362e+00 -6.9620715903e-05 1.5849212440e+00 -2.7451641206e+00 1.5849212440e+00 2.7451641206e+00 
39500 6.0527445449e+00 -7.0457137408e-05 1.5849212440e+00 -2.7451641206e+00 1.5849212440e+00 2.7451641206e+00 
39600 6.0527445534e+00 -7.1308942392e-05 1.5849212440e+00 -2.7451641206e+00 1.5849212440e+00 2.7451641206e+00 
39700 6.0527445616e+00 -7.0126575684e-05 1.5849234936e+00 -2.7451680171e+00 1.5849234936e+00 2.7451680171e+00 
39800 6.0527445698e+00 -7.1008244991e-05 1.5849234936e+00 -2.7451680171e+00 1.5849234936e+00 2.7451680171e+00 
39900 6.0527445777e+00 -6.9863986013e-05 1.5849257337e+00 -2.7451718971e+00 1.5849257337e+00 2.7451718971e+00 
40000 6.0527445856e+00 -7.0774717355e-05 1.5849257337e+00 -2.7451718971e+00 1.5849257337e+00 2.7451718971e+00 
40100 6.0527445931e+00 -6.9665760454e-05 1.5849279665e+00 -2.7451757643e+00 1.5849279665e+00 2.7451757643e+00 
40200 6.0527446008e+00 -7.0604607975e-05 1.5849279665e+00 -2.7451757643e+00 1.5849279665e+00 2.7451757643e+00 
40300 6.0527446082e+00 -7.1557526358e-05 1.5849279665e+00 -2.7451757643e+00 1.5849279665e+00 2.7451757643e+00 
40400 6.0527446154e+00 -7.0467624229e-05 1.5849302239e+00 -2.7451796743e+00 1.5849302239e+00 2.7451796743e+00 
40500 6.0527446226e+00 -7.1447378198e-05 1.5849302239e+00 -2.7451796743e+00 1.5849302239e+00 2.7451796743e+00 
40600 6.0527446294e+00 -7.0386829724e-05 1.5849324779e+00 -2.7451835783e+00 1.5849324779e+00 2.7451835783e+00 
40700 6.0527446364e+00 -7.1392127923e-05 1.5849324779e+00 -2.7451835783e+00 1.5849324779e+00 2.7451835783e+00 
40800 6.0527446430e+00 -7.0358019541e-05 1.5849347301e+00 -2.7451874792e+00 1.5849347301e+00 2.7451874792e+00 
40900 6.0527446497e+00 -7.1387483841e-05 1.5849347301e+00 -2.7451874792e+00 1.5849347301e+00 2.7451874792e+00 
41000 6.0527446560e+00 -7.0376945560e-05 1.5849369822e+00 -2.7451913799e+00 1.5849369822e+00 2.7451913799e+00 
41100 6.0527446624e+00 -7.1429124991e-05 1.5849369822e+00 -2.7451913799e+00 1.5849369822e+00 2.7451913799e+00 
41200 6.0527446686e+00 -7.0439344829e-05 1.5849392355e+00 -2.7451952829e+00 1.5849392355e+00 2.7451952829e+00 
41300 6.0527446747e+00 -7.1512728821e-05 1.5849392355e+00 -2.7451952829e+00 1.5849392355e+00 2.7451952829e+00 
41400 6.0527446806e+00 -7.0540965760e-05 1.5849414916e+00 -2.7451991904e+00 1.5849414916e+00 2.7451991904e+00 
41500 6.0527446866e+00 -7.1633996711e-05 1.5849414916e+00 -2.7451991904e+00 1.5849414916e+00 2.7451991904e+00 
41600 6.0527446922e+00 -7.0677592221e-05 1.5849437514e+00 -2.7452031045e+00 1.5849437514e+00 2.7452031045e+00 
41700 6.0527446980e+00 -7.1788677348e-05 1.5849437514e+00 -2.7452031045e+00 1.5849437514e+00 2.7452031045e+00 
41800 6.0527447034e+00 -7.0845065529e-05 1.5849460161e+00 -2.7452070271e+00 1.5849460161e+00 2.7452070271e+00 
41900 6.0527447087e+00 -6.9936177726e-05 1.5849482510e+00 -2.7452108982e+00 1.5849482510e+00 2.7452108982e+00 
42000 6.0527447142e+00 -7.1070705485e-05 1.5849482510e+00 -2.7452108982e+00 1.5849482510e+00 2.7452108982e+00 
42100 6.0527447193e+00 -7.0169757073e-05 1.5849504931e+00 -2.7452147815e+00 1.5849504931e+00 2.7452147815e+00 
42200 6.0527447245e+00 -7.1317929099e-05 1.5849504931e+00 -2.7452147815e+00 1.5849504931e+00 2.7452147815e+00 
42300 6.0527447294e+00 -7.0422721306e-05 1.5849527429e+00 -2.7452186783e+00 1.5849527429e+00 2.7452186783e+00 
42400 6.0527447345e+00 -7.1582958480e-05 1.5849527429e+00 -2.7452186783e+00 1.5849527429e+00 2.7452186783e+00 
42500 6.0527447392e+00 -7.0691402817e-05 1.5849550011e+00 -2.7452225897e+00 1.5849550011e+00 2.7452225897e+00 
42600 6.0527447440e+00 -7.1862131977e-05 1.5849550011e+00 -2.7452225897e+00 1.5849550011e+00 2.7452225897e+00 
42700 6.0527447486e+00 -7.0972255196e-05 1.5849572681e+00 -2.7452265162e+00 1.5849572681e+00 2.7452265162e+00 
42800 6.0527447530e+00 -7.0111816306e-05 1.5849595071e+00 -2.7452303942e+00 1.5849595071e+00 2.7452303942e+00 
42900 6.0527447576e+00 -7.1294762973e-05 1.5849595071e+00 -2.7452303942e+00 1.5849595071e+00 2.7452303942e+00 
43000 6.0527447619e+00 -7.0432068487e-05 1.5849617562e+00 -2.7452342898e+00 1.5849617562e+00 2.7452342898e+00 
43100 6.0527447663e+00 -7.1621304802e-05 1.5849617562e+00 -2.7452342898e+00 1.5849617562e+00 2.7452342898e+00 
43200 6.0527447704e+00 -7.0754784338e-05 1.5849640156e+00 -2.7452382032e+00 1.5849640156e+00 2.7452382032e+00 
43300 6.0527447744e+00 -6.9915006510e-05 1.5849662476e+00 -2.7452420692e+00 1.5849662476e+00 2.7452420692e+00 
43400 6.0527447786e+00 -7.1110385664e-05 1.5849662476e+00 -2.7452420692e+00 1.5849662476e+00 2.7452420692e+00 
43500 6.0527447824e+00 -7.0263450707e-05 1.5849684909e+00 -2.7452459547e+00 1.5849684909e+00 2.7452459547e+00 
43600 6.0527447864e+00 -7.1461237567e-05 1.5849684909e+00 -2.7452459547e+00 1.5849684909e+00 2.7452459547e+00 
43700 6.0527447901e+00 -7.0605968633e-05 1.5849707453e+00 -2.7452498593e+00 1.5849707453e+00 2.7452498593e+00 
43800 6.0527447940e+00 -7.1804868654e-05 1.5849707453e+00 -2.7452498593e+00 1.5849707453e+00 2.7452498593e+00 
43900 6.0527447975e+00 -7.0940199196e-05 1.5849730104e+00 -2.7452537827e+00 1.5849730104e+00 2.7452537827e+00 
44000 6.0527448010e+00 -7.0099748546e-05 1.5849752483e+00 -2.7452576589e+00 1.5849752483e+00 2.7452576589e+00 
44100 6.0527448046e+00 -7.1297379734e-05 1.5849752483e+00 -2.7452576589e+00 1.5849752483e+00 2.7452576589e+00 
44200 6.0527448080e+00 -7.0444936048e-05 1.5849774975e+00 -2.7452615545e+00 1.5849774975e+00 2.7452615545e+00 
44300 6.0527448115e+00 -7.1640286695e-05 1.5849774975e+00 -2.7452615545e+00 1.5849774975e+00 2.7452615545e+00 
44400 6.0527448147e+00 -7.0775155720e-05 1.5849797575e+00 -2.7452654689e+00 1.5849797575e+00 2.7452654689e+00 
44500 6.0527448179e+00 -6.9932669154e-05 1.5849819902e+00 -2.7452693361e+00 1.5849819902e+00 2.7452693361e+00 
44600 6.0527448211e+00 -7.1121985334e-05 1.5849819902e+00 -2.7452693361e+00 1.5849819902e+00 2.7452693361e+00 
44700 6.0527448242e+00 -7.0264758325e-05 1.5849842338e+00 -2.7452732221e+00 1.5849842338e+00 2.7452732221e+00 
44800 6.0527448273e+00 -7.1448837061e-05 1.5849842338e+00 -2.7452732221e+00 1.5849842338e+00 2.7452732221e+00 
44900 6.0527448302e+00 -7.0576517018e-05 1.5849864877e+00 -2.7452771261e+00 1.5849864877e+00 2.7452771261e+00 
45000 6.0527448333e+00 -7.1754455467e-05 1.5849864877e+00 -2.7452771261e+00 1.5849864877e+00 2.7452771261e+00 
45100 6.0527448361e+00 -7.0866774549e-05 1.5849887513e+00 -2.7452810467e+00 1.5849887513e+00 2.7452810467e+00 
45200 6.0527448388e+00 -7.0000598998e-05 1.5849909869e+00 -2.7452849188e+00 1.5849909869e+00 2.7452849188e+00 
45300 6.0527448417e+00 -7.1167140489e-05 1.5849909869e+00 -2.7452849188e+00 1.5849909869e+00 2.7452849188e+00 
45400 6.0527448443e+00 -7.0284157852e-05 1.5849932319e+00 -2.7452888073e+00 1.5849932319e+00 2.7452888073e+00 
45500 6.0527448470e+00 -7.1442174226e-05 1.5849932319e+00 -2.7452888073e+00 1.5849932319e+00 2.7452888073e+00 
45600 6.0527448495e+00 -7.0542416020e-05 1.5849954856e+00 -2.7452927108e+00 1.5849954856e+00 2.7452927108e+00 
45700 6.0527448522e+00 -7.1691234495e-05 1.5849954856e+00 -2.7452927108e+00 1.5849954856e+00 2.7452927108e+00 
45800 6.0527448546e+00 -7.0774798648e-05 1.5849977472e+00 -2.7452966280e+00 1.5849977472e+00 2.7452966280e+00 
45900 6.0527448569e+00 -6.9879309766e-05 1.5849999798e+00 -2.7453004950e+00 1.5849999798e+00 2.7453004950e+00 
46000 6.0527448595e+00 -7.1012573981e-05 1.5849999798e+00 -2.7453004950e+00 1.5849999798e+00 2.7453004950e+00 
46100 6.0527448617e+00 -7.0099475558e-05 1.5850022199e+00 -2.7453043751e+00 1.5850022199e+00 2.7453043751e+00 
46200 6.0527448641e+00 -7.1221724686e-05 1.5850022199e+00 -2.7453043751e+00 1.5850022199e+00 2.7453043751e+00 
46300 6.0527448663e+00 -7.0291365943e-05 1.5850044667e+00 -2.7453082665e+00 1.5850044667e+00 2.7453082665e+00 
46400 6.0527448686e+00 -7.1402148328e-05 1.5850044667e+00 -2.7453082665e+00 1.5850044667e+00 2.7453082665e+00 
46500 6.0527448707e+00 -7.0454925244e-05 1.5850067191e+00 -2.7453121678e+00 1.5850067191e+00 2.7453121678e+00 
46600 6.0527448729e+00 -7.1553832699e-05 1.5850067191e+00 -2.7453121678e+00 1.5850067191e+00 2.7453121678e+00 
46700 6.0527448749e+00 -7.0590184678e-05 1.5850089763e+00 -2.7453160774e+00 1.5850089763e+00 2.7453160774e+00 
46800 6.0527448771e+00 -7.1676851677e-05 1.5850089763e+00 -2.7453160774e+00 1.5850089763e+00 2.7453160774e+00 
46900 6.0527448790e+00 -7.0697258190e-05 1.5850112374e+00 -2.7453199938e+00 1.5850112374e+00 2.7453199938e+00 
47000 6.0527448810e+00 -7.1771360902e-05 1.5850112374e+00 -2.7453199938e+00 1.5850112374e+00 2.7453199938e+00 
47100 6.0527448829e+00 -7.0776338104e-05 1.5850135015e+00 -2.7453239152e+00 1.5850135015e+00 2.7453239152e+00 
47200 6.0527448846e+00 -6.9803051531e-05 1.5850157341e+00 -2.7453277823e+00 1.5850157341e+00 2.7453277823e+00 
47300 6.0527448866e+00 -7.0857188110e-05 1.5850157341e+00 -2.7453277823e+00 1.5850157341e+00 2.7453277823e+00 
47400 6.0527448883e+00 -6.9868110814e-05 1.5850179694e+00 -2.7453316539e+00 1.5850179694e+00 2.7453316539e+00 
47500 6.0527448902e+00 -7.0908702949e-05 1.5850179694e+00 -2.7453316539e+00 1.5850179694e+00 2.7453316539e+00 
47600 6.0527448918e+00 -6.9904527836e-05 1.5850202062e+00 -2.7453355282e+00 1.5850202062e+00 2.7453355282e+00 
47700 6.0527448936e+00 -7.0931442017e-05 1.5850202062e+00 -2.7453355282e+00 1.5850202062e+00 2.7453355282e+00 
47800 6.0527448952e+00 -6.9912879194e-05 1.5850224438e+00 -2.7453394037e+00 1.5850224438e+00 2.7453394037e+00 
47900 6.0527448970e+00 -7.0926014445e-05 1.5850224438e+00 -2.7453394037e+00 1.5850224438e+00 2.7453394037e+00 
48000 6.0527448985e+00 -6.9893788281e-05 1.5850246812e+00 -2.7453432790e+00 1.5850246812e+00 2.7453432790e+00 
48100 6.0527449001e+00 -7.0893074634e-05 1.5850246812e+00 -2.7453432790e+00 1.5850246812e+00 2.7453432790e+00 
48200 6.0527449016e+00 -6.9847920910e-05 1.5850269175e+00 -2.7453471525e+00 1.5850269175e+00 2.7453471525e+00 
48300 6.0527449032e+00 -7.0833317839e-05 1.5850269175e+00 -2.7453471525e+00 1.5850269175e+00 2.7453471525e+00 
48400 6.0527449046e+00 -6.9775980997e-05 1.5850291519e+00 -2.7453510226e+00 1.5850291519e+00 2.7453510226e+00 
48500 6.0527449062e+00 -7.0747475815e-05 1.5850291519e+00 -2.7453510226e+00 1.5850291519e+00 2.7453510226e+00 
48600 6.0527449075e+00 -6.9678706299e-05 1.5850313837e+00 -2.7453548881e+00 1.5850313837e+00 2.7453548881e+00 
48700 6.0527449090e+00 -7.0636312555e-05 1.5850313837e+00 -2.7453548881e+00 1.5850313837e+00 2.7453548881e+00 
48800 6.0527449105e+00 -7.1587393333e-05 1.5850313837e+00 -2.7453548881e+00 1.5850313837e+00 2.7453548881e+00 
48900 6.0527449117e+00 -7.0474287104e-05 1.5850336419e+00 -2.7453587995e+00 1.5850336419e+00 2.7453587995e+00 
49000 6.0527449131e+00 -7.1411918554e-05 1.5850336419e+00 -2.7453587995e+00 1.5850336419e+00 2.7453587995e+00 
49100 6.0527449143e+00 -7.0290410516e-05 1.5850358946e+00 -2.7453627013e+00 1.5850358946e+00 2.7453627013e+00 
49200 6.0527449157e+00 -7.1214609266e-05 1.5850358946e+00 -2.7453627013e+00 1.5850358946e+00 2.7453627013e+00 
49300 6.0527449168e+00 -7.0085355824e-05 1.5850381411e+00 -2.7453665923e+00 1.5850381411e+00 2.7453665923e+00 
49400 6.0527449181e+00 -7.0996162421e-05 1.5850381411e+00 -2.7453665923e+00 1.5850381411e+00 2.7453665923e+00 
49500 6.0527449192e+00 -6.9859823084e-05 1.5850403807e+00 -2.7453704713e+00 1.5850403807e+00 2.7453704713e+00 
49600 6.0527449205e+00 -7.0757300426e-05 1.5850403807e+00 -2.7453704713e+00 1.5850403807e+00 2.7453704713e+00 
49700 6.0527449216e+00 -6.9614535495e-05 1.5850426127e+00 -2.7453743373e+00 1.5850426127e+00 2.7453743373e+00 
49800 6.0527449228e+00 -7.0498767256e-05 1.5850426127e+00 -2.7453743373e+00 1.5850426127e+00 2.7453743373e+00 
49900 6.0527449240e+00 -7.1376818647e-05 1.5850426127e+00 -2.7453743373e+00 1.5850426127e+00 2.7453743373e+00 
50000 6.0527449250e+00 -7.0197088544e-05 1.5850448643e+00 -2.7453782372e+00 1.5850448643e+00 2.7453782372e+00 
50100 6.0527449261e+00 -7.1062428201e-05 1.5850448643e+00 -2.7453782372e+00 1.5850448643e+00 2.7453782372e+00 
50200 6.0527449271e+00 -6.9879056033e-05 1.5850471059e+00 -2.7453821198e+00 1.5850471059e+00 2.7453821198e+00 
50300 6.0527449282e+00 -7.0731757451e-05 1.5850471059e+00 -2.7453821198e+00 1.5850471059e+00 2.7453821198e+00 
50400 6.0527449291e+00 -6.9545294238e-05 1.5850493371e+00 -2.7453859844e+00 1.5850493371e+00 2.7453859844e+00 
50500 6.0527449302e+00 -7.0385449670e-05 1.5850493371e+00 -2.7453859844e+00 1.5850493371e+00 2.7453859844e+00 
50600 6.0527449312e+00 -7.1219776356e-05 1.5850493371e+00 -2.7453859844e+00 1.5850493371e+00 2.7453859844e+00 
50700 6.0527449321e+00 -7.0001183781e-05 1.5850515837e+00 -2.7453898757e+00 1.5850515837e+00 2.7453898757e+00 
50800 6.0527449331e+00 -7.0823507191e-05 1.5850515837e+00 -2.7453898757e+00 1.5850515837e+00 2.7453898757e+00 
50900 6.0527449339e+00 -6.9604336824e-05 1.5850538179e+00 -2.7453937453e+00 1.5850538179e+00 2.7453937453e+00 
51000 6.0527449349e+00 -7.0414734508e-05 1.5850538179e+00 -2.7453937453e+00 1.5850538179e+00 2.7453937453e+00 
51100 6.0527449359e+00 -7.1219608072e-05 1.5850538179e+00 -2.7453937453e+00 1.5850538179e+00 2.7453937453e+00 
51200 6.0527449366e+00 -6.9971864295e-05 1.5850560645e+00 -2.7453976365e+00 1.5850560645e+00 2.7453976365e+00 
51300 6.0527449375e+00 -7.0765332699e-05 1.5850560645e+00 -2.7453976365e+00 1.5850560645e+00 2.7453976365e+00 
51400 6.0527449383e+00 -6.9519269094e-05 1.5850582967e+00 -2.7454015029e+00 1.5850582967e+00 2.7454015029e+00 
51500 6.0527449392e+00 -7.0301394802e-05 1.5850582967e+00 -2.7454015029e+00 1.5850582967e+00 2.7454015029e+00 
51600 6.0527449401e+00 -7.1078281483e-05 1.5850582967e+00 -2.7454015029e+00 1.5850582967e+00 2.7454015029e+00 
51700 6.0527449407e+00 -6.9806891160e-05 1.5850605389e+00 -2.7454053864e+00 1.5850605389e+00 2.7454053864e+00 
51800 6.0527449416e+00 -7.0572932564e-05 1.5850605389e+00 -2.7454053864e+00 1.5850605389e+00 2.7454053864e+00 
51900 6.0527449424e+00 -7.1333973056e-05 1.5850605389e+00 -2.7454053864e+00 1.5850605389e+00 2.7454053864e+00 
52000 6.0527449431e+00 -7.0039614148e-05 1.5850627891e+00 -2.7454092838e+00 1.5850627891e+00 2.7454092838e+00 
52100 6.0527449439e+00 -7.0790260798e-05 1.5850627891e+00 -2.7454092838e+00 1.5850627891e+00 2.7454092838e+00 
52200 6.0527449445e+00 -6.9501141566e-05 1.5850650221e+00 -2.7454131516e+00 1.5850650221e+00 2.7454131516e+00 
52300 6.0527449453e+00 -7.0241411821e-05 1.5850650221e+00 -2.7454131516e+00 1.5850650221e+00 2.7454131516e+00 
52400 6.0527449460e+00 -7.0976909314e-05 1.5850650221e+00 -2.7454131516e+00 1.5850650221e+00 2.7454131516e+00 
52500 6.0527449466e+00 -6.9667493766e-05 1.5850672610e+00 -2.7454170295e+00 1.5850672610e+00 2.7454170295e+00 
52600 6.0527449473e+00 -7.0393047652e-05 1.5850672610e+00 -2.7454170295e+00 1.5850672610e+00 2.7454170295e+00 
52700 6.0527449481e+00 -7.1114034844e-05 1.5850672610e+00 -2.7454170295e+00 1.5850672610e+00 2.7454170295e+00 
52800 6.0527449486e+00 -6.9786363743e-05 1.5850695043e+00 -2.7454209149e+00 1.5850695043e+00 2.7454209149e+00 
52900 6.0527449493e+00 -7.0497797376e-05 1.5850695043e+00 -2.7454209149e+00 1.5850695043e+00 2.7454209149e+00 
53000 6.0527449500e+00 -7.1204849537e-05 1.5850695043e+00 -2.7454209149e+00 1.5850695043e+00 2.7454209149e+00 
53100 6.0527449505e+00 -6.9860809192e-05 1.5850717504e+00 -2.7454248053e+00 1.5850717504e+00 2.7454248053e+00 
53200 6.0527449512e+00 -7.0558658036e-05 1.5850717504e+00 -2.7454248053e+00 1.5850717504e+00 2.7454248053e+00 
53300 6.0527449518e+00 -7.1252291295e-05 1.5850717504e+00 -2.7454248053e+00 1.5850717504e+00 2.7454248053e+00 
53400 6.0527449523e+00 -6.9893625948e-05 1.5850739980e+00 -2.7454286983e+00 1.5850739980e+00 2.7454286983e+00 
53500 6.0527449529e+00 -7.0578369369e-05 1.5850739980e+00 -2.7454286983e+00 1.5850739980e+00 2.7454286983e+00 
53600 6.0527449536e+00 -7.1259045306e-05 1.5850739980e+00 -2.7454286983e+00 1.5850739980e+00 2.7454286983e+00 
53700 6.0527449540e+00 -6.9887369032e-05 1.5850762458e+00 -2.7454325916e+00 1.5850762458e+00 2.7454325916e+00 
53800 6.0527449546e+00 -7.0559434951e-05 1.5850762458e+00 -2.7454325916e+00 1.5850762458e+00 2.7454325916e+00 
53900 6.0527449552e+00 -7.1227565272e-05 1.5850762458e+00 -2.7454325916e+00 1.5850762458e+00 2.7454325916e+00 
54000 6.0527449556e+00 -6.9844373294e-05 1.5850784926e+00 -2.7454364832e+00 1.5850784926e+00 2.7454364832e+00 
54100 6.0527449562e+00 -7.0504142865e-05 1.5850784926e+00 -2.7454364832e+00 1.5850784926e+00 2.7454364832e+00 
54200 6.0527449567e+00 -7.1160094062e-05 1.5850784926e+00 -2.7454364832e+00 1.5850784926e+00 2.7454364832e+00 
54300 6.0527449571e+00 -6.9766773470e-05 1.5850807373e+00 -2.7454403711e+00 1.5850807373e+00 2.7454403711e+00 
54400 6.0527449576e+00 -7.0414585700e-05 1.5850807373e+00 -2.7454403711e+00 1.5850807373e+00 2.7454403711e+00 
54500 6.0527449582e+00 -7.1058683643e-05 1.5850807373e+00 -2.7454403711e+00 1.5850807373e+00 2.7454403711e+00 
54600 6.0527449585e+00 -6.9656523427e-05 1.5850829788e+00 -2.7454442535e+00 1.5850829788e+00 2.7454442535e+00 
54700 6.0527449590e+00 -7.0292679697e-05 1.5850829788e+00 -2.7454442535e+00 1.5850829788e+00 2.7454442535e+00 
54800 6.0527449596e+00 -7.0925214118e-05 1.5850829788e+00 -2.7454442535e+00 1.5850829788e+00 2.7454442535e+00 
54900 6.0527449599e+00 -6.9515414540e-05 1.5850852161e+00 -2.7454481286e+00 1.5850852161e+00 2.7454481286e+00 
55000 6.0527449604e+00 -7.0140182972e-05 1.5850852161e+00 -2.7454481286e+00 1.5850852161e+00 2.7454481286e+00 
55100 6.0527449609e+00 -7.0761411761e-05 1.5850852161e+00 -2.7454481286e+00 1.5850852161e+00 2.7454481286e+00 
55200 6.0527449611e+00 -6.9345093014e-05 1.5850874482e+00 -2.7454519947e+00 1.5850874482e+00 2.7454519947e+00 
55300 6.0527449616e+00 -6.9958712649e-05 1.5850874482e+00 -2.7454519947e+00 1.5850874482e+00 2.7454519947e+00 
55400 6.0527449621e+00 -7.0568865956e-05 1.5850874482e+00 -2.7454519947e+00 1.5850874482e+00 2.7454519947e+00 
55500 6.0527449626e+00 -7.1175712557e-05 1.5850874482e+00 -2.7454519947e+00 1.5850874482e+00 2.7454519947e+00 
55600 6.0527449628e+00 -6.9733319351e-05 1.5850896933e+00 -2.7454558834e+00 1.5850896933e+00 2.7454558834e+00 
55700 6.0527449633e+00 -7.0332982319e-05 1.5850896933e+00 -2.7454558834e+00 1.5850896933e+00 2.7454558834e+00 
55800 6.0527449637e+00 -7.0929375580e-05 1.5850896933e+00 -2.7454558834e+00 1.5850896933e+00 2.7454558834e+00 
55900 6.0527449639e+00 -6.9483644843e-05 1.5850919307e+00 -2.7454597587e+00 1.5850919307e+00 2.7454597587e+00 
56000 6.0527449643e+00 -7.0072926511e-05 1.5850919307e+00 -2.7454597587e+00 1.5850919307e+00 2.7454597587e+00 
56100 6.0527449648e+00 -7.0658971485e-05 1.5850919307e+00 -2.7454597587e+00 1.5850919307e+00 2.7454597587e+00 
56200 6.0527449652e+00 -7.1241927246e-05 1.5850919307e+00 -2.7454597587e+00 1.5850919307e+00 2.7454597587e+00 
56300 6.0527449654e+00 -6.9773941710e-05 1.5850941780e+00 -2.7454636511e+00 1.5850941780e+00 2.7454636511e+00 
56400 6.0527449658e+00 -7.0350113660e-05 1.5850941780e+00 -2.7454636511e+00 1.5850941780e+00 2.7454636511e+00 
56500 6.0527449662e+00 -7.0923199334e-05 1.5850941780e+00 -2.7454636511e+00 1.5850941780e+00 2.7454636511e+00 
56600 6.0527449664e+00 -6.9454508282e-05 1.5850964152e+00 -2.7454675260e+00 1.5850964152e+00 2.7454675260e+00 
56700 6.0527449668e+00 -7.0020819200e-05 1.5850964152e+00 -2.7454675260e+00 1.5850964152e+00 2.7454675260e+00 
56800 6.0527449671e+00 -7.0584047273e-05 1.5850964152e+00 -2.7454675260e+00 1.5850964152e+00 2.7454675260e+00 
56900 6.0527449675e+00 -7.1144330985e-05 1.5850964152e+00 -2.7454675260e+00 1.5850964152e+00 2.7454675260e+00 
57000 6.0527449677e+00 -6.9656612388e-05 1.5850986593e+00 -2.7454714130e+00 1.5850986593e+00 2.7454714130e+00 
57100 6.0527449680e+00 -7.0210378415e-05 1.5850986593e+00 -2.7454714130e+00 1.5850986593e+00 2.7454714130e+00 
57200 6.0527449684e+00 -7.0761179050e-05 1.5850986593e+00 -2.7454714130e+00 1.5850986593e+00 2.7454714130e+00 
57300 6.0527449685e+00 -6.9274971564e-05 1.5851008914e+00 -2.7454752791e+00 1.5851008914e+00 2.7454752791e+00 
57400 6.0527449689e+00 -6.9819220108e-05 1.5851008914e+00 -2.7454752791e+00 1.5851008914e+00 2.7454752791e+00 
57500 6.0527449692e+00 -7.0360486598e-05 1.5851008914e+00 -2.7454752791e+00 1.5851008914e+00 2.7454752791e+00 
57600 6.0527449695e+00 -7.0898903246e-05 1.5851008914e+00 -2.7454752791e+00 1.5851008914e+00 2.7454752791e+00 
57700 6.0527449697e+00 -6.9396459507e-05 1.5851031278e+00 -2.7454791526e+00 1.5851031278e+00 2.7454791526e+00 
57800 6.0527449700e+00 -6.9928533988e-05 1.5851031278e+00 -2.7454791526e+00 1.5851031278e+00 2.7454791526e+00 
57900 6.0527449703e+00 -7.0457722297e-05 1.5851031278e+00 -2.7454791526e+00 1.5851031278e+00 2.7454791526e+00 
58000 6.0527449706e+00 -7.0984150894e-05 1.5851031278e+00 -2.7454791526e+00 1.5851031278e+00 2.7454791526e+00 
58100 6.0527449707e+00 -6.9467351304e-05 1.5851053669e+00 -2.7454830309e+00 1.5851053669e+00 2.7454830309e+00 
58200 6.0527449710e+00 -6.9987600678e-05 1.5851053669e+00 -2.7454830309e+00 1.5851053669e+00 2.7454830309e+00 
58300 6.0527449713e+00 -7.0505037735e-05 1.5851053669e+00 -2.7454830309e+00 1.5851053669e+00 2.7454830309e+00 
58400 6.0527449716e+00 -7.1019784170e-05 1.5851053669e+00 -2.7454830309e+00 1.5851053669e+00 2.7454830309e+00 
58500 6.0527449717e+00 -6.9490341118e-05 1.5851076072e+00 -2.7454869111e+00 1.5851076072e+00 2.7454869111e+00 
58600 6.0527449720e+00 -6.9999032832e-05 1.5851076072e+00 -2.7454869111e+00 1.5851076072e+00 2.7454869111e+00 
58700 6.0527449723e+00 -7.0504968211e-05 1.5851076072e+00 -2.7454869111e+00 1.5851076072e+00 2.7454869111e+00 
58800 6.0527449725e+00 -7.1008265108e-05 1.5851076072e+00 -2.7454869111e+00 1.5851076072e+00 2.7454869111e+00 
58900 6.0527449726e+00 -6.9467750929e-05 1.5851098470e+00 -2.7454907906e+00 1.5851098470e+00 2.7454907906e+00 
59000 6.0527449729e+00 -6.9965087032e-05 1.5851098470e+00 -2.7454907906e+00 1.5851098470e+00 2.7454907906e+00 
59100 6.0527449732e+00 -7.0459708728e-05 1.5851098470e+00 -2.7454907906e+00 1.5851098470e+00 2.7454907906e+00 
59200 6.0527449734e+00 -7.0951730846e-05 1.5851098470e+00 -2.7454907906e+00 1.5851098470e+00 2.7454907906e+00 
59300 6.0527449735e+00 -6.9401602200e-05 1.5851120851e+00 -2.7454946671e+00 1.5851120851e+00 2.7454946671e+00 
59400 6.0527449737e+00 -6.9887734038e-05 1.5851120851e+00 -2.7454946671e+00 1.5851120851e+00 2.7454946671e+00 
59500 6.0527449740e+00 -7.0371182777e-05 1.5851120851e+00 -2.7454946671e+00 1.5851120851e+00 2.7454946671e+00 
59600 6.0527449742e+00 -7.0852060964e-05 1.5851120851e+00 -2.7454946671e+00 1.5851120851e+00 2.7454946671e+00 
59700 6.0527449743e+00 -6.9293679811e-05 1.5851143200e+00 -2.7454985381e+00 1.5851143200e+00 2.7454985381e+00 
59800 6.0527449745e+00 -6.9768721196e-05 1.5851143200e+00 -2.7454985381e+00 1.5851143200e+00 2.7454985381e+00 
59900 6.0527449747e+00 -7.0241103228e-05 1.5851143200e+00 -2.7454985381e+00 1.5851143200e+00 2.7454985381e+00 
60000 6.0527449750e+00 -7.0710936811e-05 1.5851143200e+00 -2.7454985381e+00 1.5851143200e+00 2.7454985381e+00 
60100 6.0527449750e+00 -6.9145588098e-05 1.5851165505e+00 -2.7455024013e+00 1.5851165505e+00 2.7455024013e+00 
60200 6.0527449752e+00 -6.9609626922e-05 1.5851165505e+00 -2.7455024013e+00 1.5851165505e+00 2.7455024013e+00 
60300 6.0527449755e+00 -7.0071025235e-05 1.5851165505e+00 -2.7455024013e+00 1.5851165505e+00 2.7455024013e+00 
60400 6.0527449757e+00 -7.0529892835e-05 1.5851165505e+00 -2.7455024013e+00 1.5851165505e+00 2.7455024013e+00 
60500 6.0527449759e+00 -7.0986333490e-05 1.5851165505e+00 -2.7455024013e+00 1.5851165505e+00 2.7455024013e+00 
60600 6.0527449759e+00 -6.9399787527e-05 1.5851187896e+00 -2.7455062797e+00 1.5851187896e+00 2.7455062797e+00 
60700 6.0527449761e+00 -6.9850652374e-05 1.5851187896e+00 -2.7455062797e+00 1.5851187896e+00 2.7455062797e+00 
60800 6.0527449763e+00 -7.0298976878e-05 1.5851187896e+00 -2.7455062797e+00 1.5851187896e+00 2.7455062797e+00 
60900 6.0527449765e+00 -7.0744864846e-05 1.5851187896e+00 -2.7455062797e+00 1.5851187896e+00 2.7455062797e+00 
61000 6.0527449765e+00 -6.9154698389e-05 1.5851210212e+00 -2.7455101448e+00 1.5851210212e+00 2.7455101448e+00 
61100 6.0527449767e+00 -6.9594995561e-05 1.5851210212e+00 -2.7455101448e+00 1.5851210212e+00 2.7455101448e+00 
61200 6.0527449769e+00 -7.0032744963e-05 1.5851210212e+00 -2.7455101448e+00 1.5851210212e+00 2.7455101448e+00 
61300 6.0527449771e+00 -7.0468050820e-05 1.5851210212e+00 -2.7455101448e+00 1.5851210212e+00 2.7455101448e+00 
61400 6.0527449773e+00 -7.0901011685e-05 1.5851210212e+00 -2.7455101448e+00 1.5851210212e+00 2.7455101448e+00 
61500 6.0527449773e+00 -6.9293514430e-05 1.5851232576e+00 -2.7455140185e+00 1.5851232576e+00 2.7455140185e+00 
61600 6.0527449775e+00 -6.9721050676e-05 1.5851232576e+00 -2.7455140185e+00 1.5851232576e+00 2.7455140185e+00 
61700 6.0527449777e+00 -7.0146115386e-05 1.5851232576e+00 -2.7455140185e+00 1.5851232576e+00 2.7455140185e+00 
61800 6.0527449779e+00 -7.0568808459e-05 1.5851232576e+00 -2.7455140185e+00 1.5851232576e+00 2.7455140185e+00 
61900 6.0527449780e+00 -7.0989224325e-05 1.5851232576e+00 -2.7455140185e+00 1.5851232576e+00 2.7455140185e+00 
62000 6.0527449780e+00 -6.9366709017e-05 1.5851254969e+00 -2.7455178969e+00 1.5851254969e+00 2.7455178969e+00 
62100 6.0527449782e+00 -6.9781823221e-05 1.5851254969e+00 -2.7455178969e+00 1.5851254969e+00 2.7455178969e+00 
62200 6.0527449784e+00 -7.0194522043e-05 1.5851254969e+00 -2.7455178969e+00 1.5851254969e+00 2.7455178969e+00 
62300 6.0527449785e+00 -7.0604902097e-05 1.5851254969e+00 -2.7455178969e+00 1.5851254969e+00 2.7455178969e+00 
62400 6.0527449787e+00 -7.1013054712e-05 1.5851254969e+00 -2.7455178969e+00 1.5851254969e+00 2.7455178969e+00 
62500 6.0527449787e+00 -6.9377637241e-05 1.5851277368e+00 -2.7455217767e+00 1.5851277368e+00 2.7455217767e+00 
62600 6.0527449788e+00 -6.9780579007e-05 1.5851277368e+00 -2.7455217767e+00 1.5851277368e+00 2.7455217767e+00 
62700 6.0527449790e+00 -7.0181146827e-05 1.5851277368e+00 -2.7455217767e+00 1.5851277368e+00 2.7455217767e+00 
62800 6.0527449791e+00 -7.0579434935e-05 1.5851277368e+00 -2.7455217767e+00 1.5851277368e+00 2.7455217767e+00 
62900 6.0527449793e+00 -7.0975532460e-05 1.5851277368e+00 -2.7455217767e+00 1.5851277368e+00 2.7455217767e+00 
63000 6.0527449792e+00 -6.9329172986e-05 1.5851299756e+00 -2.7455256544e+00 1.5851299756e+00 2.7455256544e+00 
63100 6.0527449794e+00 -6.9720128098e-05 1.5851299756e+00 -2.7455256544e+00 1.5851299756e+00 2.7455256544e+00 
63200 6.0527449795e+00 -7.0108740661e-05 1.5851299756e+00 -2.7455256544e+00 1.5851299756e+00 2.7455256544e+00 
63300 6.0527449797e+00 -7.0495103317e-05 1.5851299756e+00 -2.7455256544e+00 1.5851299756e+00 2.7455256544e+00 
63400 6.0527449798e+00 -7.0879303741e-05 1.5851299756e+00 -2.7455256544e+00 1.5851299756e+00 2.7455256544e+00 
63500 6.0527449798e+00 -6.9223840440e-05 1.5851322114e+00 -2.7455295268e+00 1.5851322114e+00 2.7455295268e+00 
63600 6.0527449799e+00 -6.9602952892e-05 1.5851322114e+00 -2.7455295268e+00 1.5851322114e+00 2.7455295268e+00 
63700 6.0527449801e+00 -6.9979748144e-05 1.5851322114e+00 -2.7455295268e+00 1.5851322114e+00 2.7455295268e+00 
63800 6.0527449802e+00 -7.0354317888e-05 1.5851322114e+00 -2.7455295268e+00 1.5851322114e+00 2.7455295268e+00 
63900 6.0527449803e+00 -7.0726748973e-05 1.5851322114e+00 -2.7455295268e+00 1.5851322114e+00 2.7455295268e+00 
64000 6.0527449803e+00 -6.9063924915e-05 1.5851344423e+00 -2.7455333909e+00 1.5851344423e+00 2.7455333909e+00 
64100 6.0527449804e+00 -6.9431315462e-05 1.5851344423e+00 -2.7455333909e+00 1.5851344423e+00 2.7455333909e+00 
64200 6.0527449805e+00 -6.9796411406e-05 1.5851344423e+00 -2.7455333909e+00 1.5851344423e+00 2.7455333909e+00 
64300 6.0527449807e+00 -7.0159304001e-05 1.5851344423e+00 -2.7455333909e+00 1.5851344423e+00 2.7455333909e+00 
64400 6.0527449808e+00 -7.0520079753e-05 1.5851344423e+00 -2.7455333909e+00 1.5851344423e+00 2.7455333909e+00 
64500 6.0527449809e+00 -7.0878820523e-05 1.5851344423e+00 -2.7455333909e+00 1.5851344423e+00 2.7455333909e+00 
64600 6.0527449809e+00 -6.9198032537e-05 1.5851366781e+00 -2.7455372634e+00 1.5851366781e+00 2.7455372634e+00 
64700 6.0527449810e+00 -6.9551923953e-05 1.5851366781e+00 -2.7455372634e+00 1.5851366781e+00 2.7455372634e+00 
64800 6.0527449811e+00 -6.9903609793e-05 1.5851366781e+00 -2.7455372634e+00 1.5851366781e+00 2.7455372634e+00 
64900 6.0527449812e+00 -7.0253177136e-05 1.5851366781e+00 -2.7455372634e+00 1.5851366781e+00 2.7455372634e+00 
65000 6.0527449813e+00 -7.0600708501e-05 1.5851366781e+00 -2.7455372634e+00 1.5851366781e+00 2.7455372634e+00 
65100 6.0527449815e+00 -7.0946281943e-05 1.5851366781e+00 -2.7455372634e+00 1.5851366781e+00 2.7455372634e+00 
65200 6.0527449814e+00 -6.9250460292e-05 1.5851389159e+00 -2.7455411394e+00 1.5851389159e+00 2.7455411394e+00 
65300 6.0527449815e+00 -6.9591327015e-05 1.5851389159e+00 -2.7455411394e+00 1.5851389159e+00 2.7455411394e+00 
65400 6.0527449816e+00 -6.9930054496e-05 1.5851389159e+00 -2.7455411394e+00 1.5851389159e+00 2.7455411394e+00 
65500 6.0527449817e+00 -7.0266726733e-05 1.5851389159e+00 -2.7455411394e+00 1.5851389159e+00 2.7455411394e+00 
65600 6.0527449818e+00 -7.0601423333e-05 1.5851389159e+00 -2.7455411394e+00 1.5851389159e+00 2.7455411394e+00 
65700 6.0527449819e+00 -7.0934219598e-05 1.5851389159e+00 -2.7455411394e+00 1.5851389159e+00 2.7455411394e+00 
65800 6.0527449818e+00 -6.9226022465e-05 1.5851411534e+00 -2.7455450149e+00 1.5851411534e+00 2.7455450149e+00 
65900 6.0527449819e+00 -6.9554219912e-05 1.5851411534e+00 -2.7455450149e+00 1.5851411534e+00 2.7455450149e+00 
66000 6.0527449820e+00 -6.9880328465e-05 1.5851411534e+00 -2.7455450149e+00 1.5851411534e+00 2.7455450149e+00 
66100 6.0527449822e+00 -7.0204429987e-05 1.5851411534e+00 -2.7455450149e+00 1.5851411534e+00 2.7455450149e+00 
66200 6.0527449823e+00 -7.0526602094e-05 1.5851411534e+00 -2.7455450149e+00 1.5851411534e+00 2.7455450149e+00 
66300 6.0527449824e+00 -7.0846918243e-05 1.5851411534e+00 -2.7455450149e+00 1.5851411534e+00 2.7455450149e+00 
66400 6.0527449823e+00 -6.9128793622e-05 1.5851433881e+00 -2.7455488855e+00 1.5851433881e+00 2.7455488855e+00 
66500 6.0527449824e+00 -6.9444596102e-05 1.5851433881e+00 -2.7455488855e+00 1.5851433881e+00 2.7455488855e+00 
66600 6.0527449825e+00 -6.9758349806e-05 1.5851433881e+00 -2.7455488855e+00 1.5851433881e+00 2.7455488855e+00 
66700 6.0527449825e+00 -7.0070135247e-05 1.5851433881e+00 -2.7455488855e+00 1.5851433881e+00 2.7455488855e+00 
66800 6.0527449826e+00 -7.0380028815e-05 1.5851433881e+00 -2.7455488855e+00 1.5851433881e+00 2.7455488855e+00 
66900 6.0527449827e+00 -7.0688102858e-05 1.5851433881e+00 -2.7455488855e+00 1.5851433881e+00 2.7455488855e+00 
67000 6.0527449828e+00 -7.0994425764e-05 1.5851433881e+00 -2.7455488855e+00 1.5851433881e+00 2.7455488855e+00 
67100 6.0527449827e+00 -6.9258166967e-05 1.5851456275e+00 -2.7455527642e+00 1.5851456275e+00 2.7455527642e+00 
67200 6.0527449828e+00 -6.9560169543e-05 1.5851456275e+00 -2.7455527642e+00 1.5851456275e+00 2.7455527642e+00 
67300 6.0527449829e+00 -6.9860213356e-05 1.5851456275e+00 -2.7455527642e+00 1.5851456275e+00 2.7455527642e+00 
67400 6.0527449830e+00 -7.0158374695e-05 1.5851456275e+00 -2.7455527642e+00 1.5851456275e+00 2.7455527642e+00 
67500 6.0527449831e+00 -7.0454725918e-05 1.5851456275e+00 -2.7455527642e+00 1.5851456275e+00 2.7455527642e+00 
67600 6.0527449832e+00 -7.0749335533e-05 1.5851456275e+00 -2.7455527642e+00 1.5851456275e+00 2.7455527642e+00 
67700 6.0527449831e+00 -6.9008419854e-05 1.5851478591e+00 -2.7455566295e+00 1.5851478591e+00 2.7455566295e+00 
67800 6.0527449831e+00 -6.9298732545e-05 1.5851478591e+00 -2.7455566295e+00 1.5851478591e+00 2.7455566295e+00 
67900 6.0527449832e+00 -6.9587098258e-05 1.5851478591e+00 -2.7455566295e+00 1.5851478591e+00 2.7455566295e+00 
68000 6.0527449833e+00 -6.9873593683e-05 1.5851478591e+00 -2.7455566295e+00 1.5851478591e+00 2.7455566295e+00 
68100 6.0527449834e+00 -7.0158291658e-05 1.5851478591e+00 -2.7455566295e+00 1.5851478591e+00 2.7455566295e+00 
68200 6.0527449835e+00 -7.0441261246e-05 1.5851478591e+00 -2.7455566295e+00 1.5851478591e+00 2.7455566295e+00 
68300 6.0527449835e+00 -7.0722567805e-05 1.5851478591e+00 -2.7455566295e+00 1.5851478591e+00 2.7455566295e+00 
68400 6.0527449834e+00 -6.8969194452e-05 1.5851500899e+00 -2.7455604934e+00 1.5851500899e+00 2.7455604934e+00 
68500 6.0527449835e+00 -6.9246352947e-05 1.5851500899e+00 -2.7455604934e+00 1.5851500899e+00 2.7455604934e+00 
68600 6.0527449836e+00 -6.9521634639e-05 1.5851500899e+00 -2.7455604934e+00 1.5851500899e+00 2.7455604934e+00 
68700 6.0527449837e+00 -6.9795113650e-05 1.5851500899e+00 -2.7455604934e+00 1.5851500899e+00 2.7455604934e+00 
68800 6.0527449837e+00 -7.0066860388e-05 1.5851500899e+00 -2.7455604934e+00 1.5851500899e+00 2.7455604934e+00 
68900 6.0527449838e+00 -7.0336941622e-05 1.5851500899e+00 -2.7455604934e+00 1.5851500899e+00 2.7455604934e+00 
69000 6.0527449839e+00 -7.0605420556e-05 1.5851500899e+00 -2.7455604934e+00 1.5851500899e+00 2.7455604934e+00 
69100 6.0527449839e+00 -7.0872356902e-05 1.5851500899e+00 -2.7455604934e+00 1.5851500899e+00 2.7455604934e+00 
69200 6.0527449838e+00 -6.9100422092e-05 1.5851523254e+00 -2.7455643654e+00 1.5851523254e+00 2.7455643654e+00 
69300 6.0527449839e+00 -6.9363433199e-05 1.5851523254e+00 -2.7455643654e+00 1.5851523254e+00 2.7455643654e+00 
69400 6.0527449840e+00 -6.9624671426e-05 1.5851523254e+00 -2.7455643654e+00 1.5851523254e+00 2.7455643654e+00 
69500 6.0527449840e+00 -6.9884206125e-05 1.5851523254e+00 -2.7455643654e+00 1.5851523254e+00 2.7455643654e+00 
69600 6.0527449841e+00 -7.0142103141e-05 1.5851523254e+00 -2.7455643654e+00 1.5851523254e+00 2.7455643654e+00 
69700 6.0527449842e+00 -7.0398424876e-05 1.5851523254e+00 -2.7455643654e+00 1.5851523254e+00 2.7455643654e+00 
69800 6.0527449842e+00 -7.0653230364e-05 1.5851523254e+00 -2.7455643654e+00 1.5851523254e+00 2.7455643654e+00 
69900 6.0527449843e+00 -7.0906575344e-05 1.5851523254e+00 -2.7455643654e+00 1.5851523254e+00 2.7455643654e+00 
70000 6.0527449842e+00 -6.9120144054e-05 1.5851545620e+00 -2.7455682393e+00 1.5851545620e+00 2.7455682393e+00 
70100 6.0527449842e+00 -6.9369716475e-05 1.5851545620e+00 -2.7455682393e+00 1.5851545620e+00 2.7455682393e+00 
70200 6.0527449843e+00 -6.9617587116e-05 1.5851545620e+00 -2.7455682393e+00 1.5851545620e+00 2.7455682393e+00 
70300 6.0527449844e+00 -6.9863822115e-05 1.5851545620e+00 -2.7455682393e+00 1.5851545620e+00 2.7455682393e+00 
70400 6.0527449844e+00 -7.0108484280e-05 1.5851545620e+00 -2.7455682393e+00 1.5851545620e+00 2.7455682393e+00 
70500 6.0527449845e+00 -7.0351633148e-05 1.5851545620e+00 -2.7455682393e+00 1.5851545620e+00 2.7455682393e+00 
70600 6.0527449845e+00 -7.0593325059e-05 1.5851545620e+00 -2.7455682393e+00 1.5851545620e+00 2.7455682393e+00 
70700 6.0527449846e+00 -7.0833613227e-05 1.5851545620e+00 -2.7455682393e+00 1.5851545620e+00 2.7455682393e+00 
70800 6.0527449845e+00 -6.9036277700e-05 1.5851567963e+00 -2.7455721091e+00 1.5851567963e+00 2.7455721091e+00 
70900 6.0527449845e+00 -6.9272901088e-05 1.5851567963e+00 -2.7455721091e+00 1.5851567963e+00 2.7455721091e+00 
71000 6.0527449846e+00 -6.9507873236e-05 1.5851567963e+00 -2.7455721091e+00 1.5851567963e+00 2.7455721091e+00 
71100 6.0527449846e+00 -6.9741258356e-05 1.5851567963e+00 -2.7455721091e+00 1.5851567963e+00 2.7455721091e+00 
71200 6.0527449847e+00 -6.9973117479e-05 1.5851567963e+00 -2.7455721091e+00 1.5851567963e+00 2.7455721091e+00 
71300 6.0527449847e+00 -7.0203508506e-05 1.5851567963e+00 -2.7455721091e+00 1.5851567963e+00 2.7455721091e+00 
71400 6.0527449848e+00 -7.0432486276e-05 1.5851567963e+00 -2.7455721091e+00 1.5851567963e+00 2.7455721091e+00 
71500 6.0527449849e+00 -7.0660102638e-05 1.5851567963e+00 -2.7455721091e+00 1.5851567963e+00 2.7455721091e+00 
71600 6.0527449849e+00 -7.0886406512e-05 1.5851567963e+00 -2.7455721091e+00 1.5851567963e+00 2.7455721091e+00 
71700 6.0527449848e+00 -6.9073656579e-05 1.5851590322e+00 -2.7455759819e+00 1.5851590322e+00 2.7455759819e+00 
71800 6.0527449848e+00 -6.9296465516e-05 1.5851590322e+00 -2.7455759819e+00 1.5851590322e+00 2.7455759819e+00 
71900 6.0527449849e+00 -6.9517702473e-05 1.5851590322e+00 -2.7455759819e+00 1.5851590322e+00 2.7455759819e+00 
72000 6.0527449849e+00 -6.9737428166e-05 1.5851590322e+00 -2.7455759819e+00 1.5851590322e+00 2.7455759819e+00 
72100 6.0527449850e+00 -6.9955700307e-05 1.5851590322e+00 -2.7455759819e+00 1.5851590322e+00 2.7455759819e+00 
72200 6.0527449850e+00 -7.0172573664e-05 1.5851590322e+00 -2.7455759819e+00 1.5851590322e+00 2.7455759819e+00 
72300 6.0527449851e+00 -7.0388100128e-05 1.5851590322e+00 -2.7455759819e+00 1.5851590322e+00 2.7455759819e+00 
72400 6.0527449851e+00 -7.0602328760e-05 1.5851590322e+00 -2.7455759819e+00 1.5851590322e+00 2.7455759819e+00 
72500 6.0527449852e+00 -7.0815305872e-05 1.5851590322e+00 -2.7455759819e+00 1.5851590322e+00 2.7455759819e+00 
72600 6.0527449850e+00 -6.8991332515e-05 1.5851612659e+00 -2.7455798508e+00 1.5851612659e+00 2.7455798508e+00 
72700 6.0527449851e+00 -6.9200930605e-05 1.5851612659e+00 -2.7455798508e+00 1.5851612659e+00 2.7455798508e+00 
72800 6.0527449851e+00 -6.9409011213e-05 1.5851612659e+00 -2.7455798508e+00 1.5851612659e+00 2.7455798508e+00 
72900 6.0527449852e+00 -6.9615633059e-05 1.5851612659e+00 -2.7455798508e+00 1.5851612659e+00 2.7455798508e+00 
73000 6.0527449852e+00 -6.9820852011e-05 1.5851612659e+00 -2.7455798508e+00 1.5851612659e+00 2.7455798508e+00 
73100 6.0527449853e+00 -7.0024721137e-05 1.5851612659e+00 -2.7455798508e+00 1.5851612659e+00 2.7455798508e+00 
73200 6.0527449853e+00 -7.0227290761e-05 1.5851612659e+00 -2.7455798508e+00 1.5851612659e+00 2.7455798508e+00 
73300 6.0527449854e+00 -7.0428608527e-05 1.5851612659e+00 -2.7455798508e+00 1.5851612659e+00 2.7455798508e+00 
73400 6.0527449854e+00 -7.0628719450e-05 1.5851612659e+00 -2.7455798508e+00 1.5851612659e+00 2.7455798508e+00 
73500 6.0527449854e+00 -7.0827665983e-05 1.5851612659e+00 -2.7455798508e+00 1.5851612659e+00 2.7455798508e+00 
73600 6.0527449853e+00 -6.8989390864e-05 1.5851635000e+00 -2.7455837203e+00 1.5851635000e+00 2.7455837203e+00 
73700 6.0527449853e+00 -6.9185121803e-05 1.5851635000e+00 -2.7455837203e+00 1.5851635000e+00 2.7455837203e+00 
73800 6.0527449854e+00 -6.9379411875e-05 1.5851635000e+00 -2.7455837203e+00 1.5851635000e+00 2.7455837203e+00 
73900 6.0527449854e+00 -6.9572316682e-05 1.5851635000e+00 -2.7455837203e+00 1.5851635000e+00 2.7455837203e+00 
74000 6.0527449855e+00 -6.9763889152e-05 1.5851635000e+00 -2.7455837203e+00 1.5851635000e+00 2.7455837203e+00 
74100 6.0527449855e+00 -6.9954179587e-05 1.5851635000e+00 -2.7455837203e+00 1.5851635000e+00 2.7455837203e+00 
74200 6.0527449855e+00 -7.0143235712e-05 1.5851635000e+00 -2.7455837203e+00 1.5851635000e+00 2.7455837203e+00 
74300 6.0527449856e+00 -7.0331102734e-05 1.5851635000e+00 -2.7455837203e+00 1.5851635000e+00 2.7455837203e+00 
74400 6.0527449856e+00 -7.0517823391e-05 1.5851635000e+00 -2.7455837203e+00 1.5851635000e+00 2.7455837203e+00 
74500 6.0527449857e+00 -7.0703438016e-05 1.5851635000e+00 -2.7455837203e+00 1.5851635000e+00 2.7455837203e+00 
74600 6.0527449857e+00 -7.0887984586e-05 1.5851635000e+00 -2.7455837203e+00 1.5851635000e+00 2.7455837203e+00 
74700 6.0527449855e+00 -6.9033668196e-05 1.5851657360e+00 -2.7455875932e+00 1.5851657360e+00 2.7455875932e+00 
74800 6.0527449856e+00 -6.9215178574e-05 1.5851657360e+00 -2.7455875932e+00 1.5851657360e+00 2.7455875932e+00 
74900 6.0527449856e+00 -6.9395331915e-05 1.5851657360e+00 -2.7455875932e+00 1.5851657360e+00 2.7455875932e+00 
75000 6.0527449856e+00 -6.9574180192e-05 1.5851657360e+00 -2.7455875932e+00 1.5851657360e+00 2.7455875932e+00 
75100 6.0527449857e+00 -6.9751772894e-05 1.5851657360e+00 -2.7455875932e+00 1.5851657360e+00 2.7455875932e+00 
75200 6.0527449857e+00 -6.9928157077e-05 1.5851657360e+00 -2.7455875932e+00 1.5851657360e+00 2.7455875932e+00 
75300 6.0527449858e+00 -7.0103377408e-05 1.5851657360e+00 -2.7455875932e+00 1.5851657360e+00 2.7455875932e+00 
75400 6.0527449858e+00 -7.0277476218e-05 1.5851657360e+00 -2.7455875932e+00 1.5851657360e+00 2.7455875932e+00 
75500 6.0527449858e+00 -7.0450493552e-05 1.5851657360e+00 -2.7455875932e+00 1.5851657360e+00 2.7455875932e+00 
75600 6.0527449859e+00 -7.0622467214e-05 1.5851657360e+00 -2.7455875932e+00 1.5851657360e+00 2.7455875932e+00 
75700 6.0527449859e+00 -7.0793432834e-05 1.5851657360e+00 -2.7455875932e+00 1.5851657360e+00 2.7455875932e+00 
75800 6.0527449857e+00 -6.8928312574e-05 1.5851679690e+00 -2.7455914608e+00 1.5851679690e+00 2.7455914608e+00 
75900 6.0527449858e+00 -6.9096357107e-05 1.5851679690e+00 -2.7455914608e+00 1.5851679690e+00 2.7455914608e+00 
76000 6.0527449858e+00 -6.9263099041e-05 1.5851679690e+00 -2.7455914608e+00 1.5851679690e+00 2.7455914608e+00 
76100 6.0527449858e+00 -6.9428588600e-05 1.5851679690e+00 -2.7455914608e+00 1.5851679690e+00 2.7455914608e+00 
76200 6.0527449859e+00 -6.9592873672e-05 1.5851679690e+00 -2.7455914608e+00 1.5851679690e+00 2.7455914608e+00 
76300 6.0527449859e+00 -6.9755999852e-05 1.5851679690e+00 -2.7455914608e+00 1.5851679690e+00 2.7455914608e+00 
76400 6.0527449859e+00 -6.9918010481e-05 1.5851679690e+00 -2.7455914608e+00 1.5851679690e+00 2.7455914608e+00 
76500 6.0527449860e+00 -7.0078946699e-05 1.5851679690e+00 -2.7455914608e+00 1.5851679690e+00 2.7455914608e+00 
76600 6.0527449860e+00 -7.0238847485e-05 1.5851679690e+00 -2.7455914608e+00 1.5851679690e+00 2.7455914608e+00 
76700 6.0527449860e+00 -7.0397749708e-05 1.5851679690e+00 -2.7455914608e+00 1.5851679690e+00 2.7455914608e+00 
76800 6.0527449861e+00 -7.0555688173e-05 1.5851679690e+00 -2.7455914608e+00 1.5851679690e+00 2.7455914608e+00 
76900 6.0527449861e+00 -7.0712695675e-05 1.5851679690e+00 -2.7455914608e+00 1.5851679690e+00 2.7455914608e+00 
77000 6.0527449859e+00 -6.8836013834e-05 1.5851701995e+00 -2.7455953241e+00 1.5851701995e+00 2.7455953241e+00 
77100 6.0527449859e+00 -6.8990247839e-05 1.5851701995e+00 -2.7455953241e+00 1.5851701995e+00 2.7455953241e+00 
77200 6.0527449860e+00 -6.9143249229e-05 1.5851701995e+00 -2.7455953241e+00 1.5851701995e+00 2.7455953241e+00 
77300 6.0527449860e+00 -6.9295065998e-05 1.5851701995e+00 -2.7455953241e+00 1.5851701995e+00 2.7455953241e+00 
77400 6.0527449860e+00 -6.9445743959e-05 1.5851701995e+00 -2.7455953241e+00 1.5851701995e+00 2.7455953241e+00 
77500 6.0527449861e+00 -6.9595326770e-05 1.5851701995e+00 -2.7455953241e+00 1.5851701995e+00 2.7455953241e+00 
77600 6.0527449861e+00 -6.9743855982e-05 1.5851701995e+00 -2.7455953241e+00 1.5851701995e+00 2.7455953241e+00 
77700 6.0527449861e+00 -6.9847220764e-05 1.5851701995e+00 -2.7455953241e+00 1.5851701995e+00 2.7455953241e+00 
77700 6.0527449861e+00 -6.9847220764e-05 1.5851701995e+00 -2.7455953241e+00 1.5851701995e+00 2.7455953241e+00 
