# step Hamiltonian StressXX CellTensor1 CellTensor2 CellTensor3 CellTensor4 
0 5.7370903700e+00 1.6292100238e-01 2.8378601290e+00 -4.9153179282e+00 2.8378601290e+00 4.9153179282e+00 
100 5.7435764894e+00 1.8204465202e-01 2.8378601290e+00 -4.9153179282e+00 2.8378601290e+00 4.9153179282e+00 
200 5.7515485764e+00 2.0049328053e-01 2.8346533057e+00 -4.9097635473e+00 2.8346533057e+00 4.9097635473e+00 
300 5.7611136218e+00 2.1851791286e-01 2.8311175728e+00 -4.9036394782e+00 2.8311175728e+00 4.9036394782e+00 
400 5.7720308178e+00 2.3622055833e-01 2.8272592342e+00 -4.8969566399e+00 2.8272592342e+00 4.8969566399e+00 
500 5.7840416545e+00 2.5366865316e-01 2.8230827106e+00 -4.8897226888e+00 2.8230827106e+00 4.8897226888e+00 
600 5.7968713291e+00 2.7089134966e-01 2.8185911443e+00 -4.8819430677e+00 2.8185911443e+00 4.8819430677e+00 
700 5.8102288273e+00 2.8787310886e-01 2.8137870732e+00 -4.8736221725e+00 2.8137870732e+00 4.8736221725e+00 
800 5.8238060274e+00 3.0454456172e-01 2.8086732228e+00 -4.8647647238e+00 2.8086732228e+00 4.8647647238e+00 
900 5.8372766366e+00 3.2077139716e-01 2.8032534681e+00 -4.8553774333e+00 2.8032534681e+00 4.8553774333e+00 
1000 5.8502965445e+00 3.3634368869e-01 2.7975340057e+00 -4.8454710337e+00 2.7975340057e+00 4.8454710337e+00 
1100 5.8625082223e+00 3.5097077940e-01 2.7915247316e+00 -4.8350626657e+00 2.7915247316e+00 4.8350626657e+00 
1200 5.8735527560e+00 3.6429013553e-01 2.7852407329e+00 -4.8241784607e+00 2.7852407329e+00 4.8241784607e+00 
1300 5.8830930458e+00 3.7590041545e-01 2.7787036455e+00 -4.8128558932e+00 2.7787036455e+00 4.8128558932e+00 
1400 5.8908490983e+00 3.8542528773e-01 2.7719424434e+00 -4.8011451476e+00 2.7719424434e+00 4.8011451476e+00 
1500 5.8966401277e+00 3.9260117938e-01 2.7649930969e+00 -4.7891085264e+00 2.7649930969e+00 4.7891085264e+00 
1600 5.9004200627e+00 3.9736143403e-01 2.7578966463e+00 -4.7768171134e+00 2.7578966463e+00 4.7768171134e+00 
1700 5.9022891028e+00 3.9987588397e-01 2.7506957241e+00 -4.7643447503e+00 2.7506957241e+00 4.7643447503e+00 
1800 5.9024709304e+00 4.0051761999e-01 2.7434303020e+00 -4.7517606701e+00 2.7434303020e+00 4.7517606701e+00 
1900 5.9012617807e+00 3.9976748069e-01 2.7361339706e+00 -4.7391230534e+00 2.7361339706e+00 4.7391230534e+00 
2000 5.8989718177e+00 3.9810187309e-01 2.7288318956e+00 -4.7264754884e+00 2.7288318956e+00 4.7264754884e+00 
2100 5.8958798237e+00 3.9591122012e-01 2.7215407898e+00 -4.7138469228e+00 2.7215407898e+00 4.7138469228e+00 
2200 5.8922107342e+00 3.9346848885e-01 2.7142703790e+00 -4.7012542019e+00 2.7142703790e+00 4.7012542019e+00 
2300 5.8881330653e+00 3.9093810347e-01 2.7070254688e+00 -4.6887056493e+00 2.7070254688e+00 4.6887056493e+00 
2400 5.8837675894e+00 3.8840400537e-01 2.6998078818e+00 -4.6762044219e+00 2.6998078818e+00 4.6762044219e+00 
2500 5.8791994245e+00 3.8589959355e-01 2.6926179059e+00 -4.6637510183e+00 2.6926179059e+00 4.6637510183e+00 
2600 5.8744890396e+00 3.8343114709e-01 2.6854552117e+00 -4.6513448681e+00 2.6854552117e+00 4.6513448681e+00 
2700 5.8696805868e+00 3.8099308136e-01 2.6783193487e+00 -4.6389851909e+00 2.6783193487e+00 4.6389851909e+00 
2800 5.8648075763e+00 3.7857654608e-01 2.6712099649e+00 -4.6266713769e+00 2.6712099649e+00 4.6266713769e+00 
2900 5.8598964967e+00 3.7617358235e-01 2.6641268692e+00 -4.6144030952e+00 2.6641268692e+00 4.6144030952e+00 
3000 5.8549690344e+00 3.7377869543e-01 2.6570700169e+00 -4.6021802685e+00 2.6570700169e+00 4.6021802685e+00 
3100 5.8500434074e+00 3.7138909740e-01 2.6500394654e+00 -4.5900029961e+00 2.6500394654e+00 4.5900029961e+00 
3200 5.8451351651e+00 3.6900436363e-01 2.6430353246e+00 -4.5778714684e+00 2.6430353246e+00 4.5778714684e+00 
3300 5.8402576802e+00 3.6662590055e-01 2.6360577126e+00 -4.5657858899e+00 2.6360577126e+00 4.5657858899e+00 
3400 5.8354224639e+00 3.6425641527e-01 2.6291067214e+00 -4.5537464200e+00 2.6291067214e+00 4.5537464200e+00 
3500 5.8306393845e+00 3.6189946392e-01 2.6221823918e+00 -4.5417531293e+00 2.6221823918e+00 4.5417531293e+00 
3600 5.8259168321e+00 3.5955909870e-01 2.6152846963e+00 -4.5298059703e+00 2.6152846963e+00 4.5298059703e+00 
3700 5.8212618531e+00 3.5723960797e-01 2.6084135291e+00 -4.5179047596e+00 2.6084135291e+00 4.5179047596e+00 
3800 5.8166802684e+00 3.5494533416e-01 2.6015687002e+00 -4.5060491681e+00 2.6015687002e+00 4.5060491681e+00 
3900 5.8121767805e+00 3.5268055247e-01 2.5947499334e+00 -4.4942387176e+00 2.5947499334e+00 4.4942387176e+00 
4000 5.8077550726e+00 3.5044939503e-01 2.5879568666e+00 -4.4824727807e+00 2.5879568666e+00 4.4824727807e+00 
4100 5.8034179022e+00 3.4825580763e-01 2.5811890532e+00 -4.4707505840e+00 2.5811890532e+00 4.4707505840e+00 
4200 5.7991671880e+00 3.4610352924e-01 2.5744459649e+00 -4.4590712125e+00 2.5744459649e+00 4.4590712125e+00 
4300 5.7950040917e+00 3.4399608642e-01 2.5677269945e+00 -4.4474336145e+00 2.5677269945e+00 4.4474336145e+00 
4400 5.7909290929e+00 3.4193679742e-01 2.5610314593e+00 -4.4358366073e+00 2.5610314593e+00 4.4358366073e+00 
4500 5.7869420590e+00 3.3992878152e-01 2.5543586038e+00 -4.4242788826e+00 2.5543586038e+00 4.4242788826e+00 
4600 5.7830423088e+00 3.3797497108e-01 2.5477076032e+00 -4.4127590115e+00 2.5477076032e+00 4.4127590115e+00 
4700 5.7792286701e+00 3.3607812417e-01 2.5410775657e+00 -4.4012754498e+00 2.5410775657e+00 4.4012754498e+00 
4800 5.7754995322e+00 3.3424083640e-01 2.5344675358e+00 -4.3898265421e+00 2.5344675358e+00 4.3898265421e+00 
4900 5.7718528925e+00 3.3246555117e-01 2.5278764960e+00 -4.3784105264e+00 2.5278764960e+00 4.3784105264e+00 
5000 5.7682863987e+00 3.3075456770e-01 2.5213033697e+00 -4.3670255376e+00 2.5213033697e+00 4.3670255376e+00 
5100 5.7647973857e+00 3.2911004653e-01 2.5147470230e+00 -4.3556696119e+00 2.5147470230e+00 4.3556696119e+00 
5200 5.7613829087e+00 3.2753401237e-01 2.5082062667e+00 -4.3443406898e+00 2.5082062667e+00 4.3443406898e+00 
5300 5.7580397722e+00 3.2602835408e-01 2.5016798589e+00 -4.3330366200e+00 2.5016798589e+00 4.3330366200e+00 
5400 5.7547645555e+00 3.2459482192e-01 2.4951665066e+00 -4.3217551627e+00 2.4951665066e+00 4.3217551627e+00 
5500 5.7515536351e+00 3.2323502196e-01 2.4886648678e+00 -4.3104939940e+00 2.4886648678e+00 4.3104939940e+00 
5600 5.7484032046e+00 3.2195040778e-01 2.4821735543e+00 -4.2992507093e+00 2.4821735543e+00 4.2992507093e+00 
5700 5.7453092916e+00 3.2074226938e-01 2.4756911340e+00 -4.2880228280e+00 2.4756911340e+00 4.2880228280e+00 
5800 5.7422677736e+00 3.1961171953e-01 2.4692161335e+00 -4.2768077981e+00 2.4692161335e+00 4.2768077981e+00 
5900 5.7392743915e+00 3.1855967739e-01 2.4627470414e+00 -4.2656030018e+00 2.4627470414e+00 4.2656030018e+00 
6000 5.7363247624e+00 3.1758684956e-01 2.4562823117e+00 -4.2544057615e+00 2.4562823117e+00 4.2544057615e+00 
6100 5.7334143912e+00 3.1669370861e-01 2.4498203678e+00 -4.2432133464e+00 2.4498203678e+00 4.2432133464e+00 
6200 5.7305386820e+00 3.1588046902e-01 2.4433596067e+00 -4.2320229800e+00 2.4433596067e+00 4.2320229800e+00 
6300 5.7276929488e+00 3.1514706078e-01 2.4368984043e+00 -4.2208318492e+00 2.4368984043e+00 4.2208318492e+00 
6400 5.7248724273e+00 3.1449310049e-01 2.4304351205e+00 -4.2096371132e+00 2.4304351205e+00 4.2096371132e+00 
6500 5.7220722868e+00 3.1391786029e-01 2.4239681057e+00 -4.1984359151e+00 2.4239681057e+00 4.1984359151e+00 
6600 5.7192876429e+00 3.1342023468e-01 2.4174957078e+00 -4.1872253931e+00 2.4174957078e+00 4.1872253931e+00 
6700 5.7165135719e+00 3.1299870543e-01 2.4110162798e+00 -4.1760026945e+00 2.4110162798e+00 4.1760026945e+00 
6800 5.7137451272e+00 3.1265130496e-01 2.4045281884e+00 -4.1647649905e+00 2.4045281884e+00 4.1647649905e+00 
6900 5.7109773575e+00 3.1237557852e-01 2.3980298234e+00 -4.1535094922e+00 2.3980298234e+00 4.1535094922e+00 
7000 5.7082053277e+00 3.1216854565e-01 2.3915196085e+00 -4.1422334693e+00 2.3915196085e+00 4.1422334693e+00 
7100 5.7054241433e+00 3.1202666165e-01 2.3849960122e+00 -4.1309342690e+00 2.3849960122e+00 4.1309342690e+00 
7200 5.7026289776e+00 3.1194577972e-01 2.3784575603e+00 -4.1196093381e+00 2.3784575603e+00 4.1196093381e+00 
7300 5.6998151034e+00 3.1192111474e-01 2.3719028494e+00 -4.1082562457e+00 2.3719028494e+00 4.1082562457e+00 
7400 5.6969779286e+00 3.1194720981e-01 2.3653305608e+00 -4.0968727081e+00 2.3653305608e+00 4.0968727081e+00 
7500 5.6941130363e+00 3.1201790682e-01 2.3587394765e+00 -4.0854566152e+00 2.3587394765e+00 4.0854566152e+00 
7600 5.6912162300e+00 3.1212632242e-01 2.3521284947e+00 -4.0740060588e+00 2.3521284947e+00 4.0740060588e+00 
7700 5.6882835833e+00 3.1226483110e-01 2.3454966469e+00 -4.0625193614e+00 2.3454966469e+00 4.0625193614e+00 
7800 5.6853114945e+00 3.1242505704e-01 2.3388431156e+00 -4.0509951072e+00 2.3388431156e+00 4.0509951072e+00 
7900 5.6822967464e+00 3.1259787652e-01 2.3321672525e+00 -4.0394321730e+00 2.3321672525e+00 4.0394321730e+00 
8000 5.6792365693e+00 3.1277343282e-01 2.3254685964e+00 -4.0278297603e+00 2.3254685964e+00 4.0278297603e+00 
8100 5.6761287092e+00 3.1294116539e-01 2.3187468920e+00 -4.0161874269e+00 2.3187468920e+00 4.0161874269e+00 
8200 5.6729714968e+00 3.1308985483e-01 2.3120021081e+00 -4.0045051185e+00 2.3120021081e+00 4.0045051185e+00 
8300 5.6697639198e+00 3.1320768529e-01 2.3052344546e+00 -3.9927831987e+00 2.3052344546e+00 3.9927831987e+00 
8400 5.6665056936e+00 3.1328232507e-01 2.2984443991e+00 -3.9810224776e+00 2.2984443991e+00 3.9810224776e+00 
8500 5.6631973308e+00 3.1330102606e-01 2.2916326823e+00 -3.9692242380e+00 2.2916326823e+00 3.9692242380e+00 
8600 5.6598402064e+00 3.1325074184e-01 2.2848003308e+00 -3.9573902581e+00 2.2848003308e+00 3.9573902581e+00 
8700 5.6564366160e+00 3.1311826338e-01 2.2779486680e+00 -3.9455228299e+00 2.2779486680e+00 3.9455228299e+00 
8800 5.6529898249e+00 3.1289037083e-01 2.2710793223e+00 -3.9336247743e+00 2.2710793223e+00 3.9336247743e+00 
8900 5.6495041046e+00 3.1255399840e-01 2.2641942322e+00 -3.9216994484e+00 2.2641942322e+00 3.9216994484e+00 
9000 5.6459847546e+00 3.1209640904e-01 2.2572956475e+00 -3.9097507491e+00 2.2572956475e+00 3.9097507491e+00 
9100 5.6424381066e+00 3.1150537444e-01 2.2503861268e+00 -3.8977831083e+00 2.2503861268e+00 3.8977831083e+00 
9200 5.6388715076e+00 3.1076935523e-01 2.2434685316e+00 -3.8858014819e+00 2.2434685316e+00 3.8858014819e+00 
9300 5.6352932826e+00 3.0987767616e-01 2.2365460151e+00 -3.8738113316e+00 2.2365460151e+00 3.8738113316e+00 
9400 5.6317126731e+00 3.0882069038e-01 2.2296220080e+00 -3.8618185996e+00 2.2296220080e+00 3.8618185996e+00 
9500 5.6281397519e+00 3.0758992746e-01 2.2227001998e+00 -3.8498296760e+00 2.2227001998e+00 3.8498296760e+00 
9600 5.6245853153e+00 3.0617822009e-01 2.2157845158e+00 -3.8378513600e+00 2.2157845158e+00 3.8378513600e+00 
9700 5.6210607528e+00 3.0457980527e-01 2.2088790924e+00 -3.8258908158e+00 2.2088790924e+00 3.8258908158e+00 
9800 5.6175778979e+00 3.0279039677e-01 2.2019882475e+00 -3.8139555223e+00 2.2019882475e+00 3.8139555223e+00 
9900 5.6141488623e+00 3.0080722697e-01 2.1951164503e+00 -3.8020532204e+00 2.1951164503e+00 3.8020532204e+00 
10000 5.6107858577e+00 2.9862905748e-01 2.1882682885e+00 -3.7901918563e+00 2.1882682885e+00 3.7901918563e+00 
10100 5.6075010098e+00 2.9625615926e-01 2.1814484352e+00 -3.7783795239e+00 2.1814484352e+00 3.7783795239e+00 
10200 5.6043061705e+00 2.9369026435e-01 2.1746616146e+00 -3.7666244058e+00 2.1746616146e+00 3.7666244058e+00 
10300 5.6012127310e+00 2.9093449214e-01 2.1679125692e+00 -3.7549347162e+00 2.1679125692e+00 3.7549347162e+00 
10400 5.5982314432e+00 2.8799325410e-01 2.1612060269e+00 -3.7433186442e+00 2.1612060269e+00 3.7433186442e+00 
10500 5.5953722533e+00 2.8487214138e-01 2.1545466706e+00 -3.7317843007e+00 2.1545466706e+00 3.7317843007e+00 
10600 5.5926441509e+00 2.8157779985e-01 2.1479391087e+00 -3.7203396678e+00 2.1479391087e+00 3.7203396678e+00 
10700 5.5900550387e+00 2.7811779715e-01 2.1413878486e+00 -3.7089925526e+00 2.1413878486e+00 3.7089925526e+00 
10800 5.5876116240e+00 2.7450048611e-01 2.1348972729e+00 -3.6977505455e+00 2.1348972729e+00 3.6977505455e+00 
10900 5.5853193349e+00 2.7073486833e-01 2.1284716171e+00 -3.6866209832e+00 2.1284716171e+00 3.6866209832e+00 
11000 5.5831822623e+00 2.6683046130e-01 2.1221149516e+00 -3.6756109157e+00 2.1221149516e+00 3.6756109157e+00 
11100 5.5812031265e+00 2.6279717174e-01 2.1158311657e+00 -3.6647270793e+00 2.1158311657e+00 3.6647270793e+00 
11200 5.5793832705e+00 2.5864517705e-01 2.1096239541e+00 -3.6539758734e+00 2.1096239541e+00 3.6539758734e+00 
11300 5.5777226760e+00 2.5438481666e-01 2.1034968064e+00 -3.6433633423e+00 2.1034968064e+00 3.6433633423e+00 
11400 5.5762200024e+00 2.5002649377e-01 2.0974529991e+00 -3.6328951609e+00 2.0974529991e+00 3.6328951609e+00 
11500 5.5748726458e+00 2.4558058826e-01 2.0914955893e+00 -3.6225766244e+00 2.0914955893e+00 3.6225766244e+00 
11600 5.5736768162e+00 2.4105738063e-01 2.0856274112e+00 -3.6124126418e+00 2.0856274112e+00 3.6124126418e+00 
11700 5.5726276291e+00 2.3646698676e-01 2.0798510739e+00 -3.6024077321e+00 2.0798510739e+00 3.6024077321e+00 
11800 5.5717192100e+00 2.3181930297e-01 2.0741689610e+00 -3.5925660239e+00 2.0741689610e+00 3.5925660239e+00 
11900 5.5709448084e+00 2.2712396076e-01 2.0685832317e+00 -3.5828912570e+00 2.0685832317e+00 3.5828912570e+00 
12000 5.5702969181e+00 2.2239029043e-01 2.0630958230e+00 -3.5733867863e+00 2.0630958230e+00 3.5733867863e+00 
12100 5.5697674024e+00 2.1762729270e-01 2.0577084531e+00 -3.5640555879e+00 2.0577084531e+00 3.5640555879e+00 
12200 5.5693476201e+00 2.1284361761e-01 2.0524226256e+00 -3.5549002661e+00 2.0524226256e+00 3.5549002661e+00 
12300 5.5690285518e+00 2.0804754968e-01 2.0472396343e+00 -3.5459230619e+00 2.0472396343e+00 3.5459230619e+00 
12400 5.5688009224e+00 2.0324699858e-01 2.0421605691e+00 -3.5371258628e+00 2.0421605691e+00 3.5371258628e+00 
12500 5.5686553203e+00 1.9844949454e-01 2.0371863213e+00 -3.5285102130e+00 2.0371863213e+00 3.5285102130e+00 
12600 5.5685823094e+00 1.9366218772e-01 2.0323175907e+00 -3.5200773242e+00 2.0323175907e+00 3.5200773242e+00 
12700 5.5685725343e+00 1.8889185083e-01 2.0275548917e+00 -3.5118280876e+00 2.0275548917e+00 3.5118280876e+00 
12800 5.5686168169e+00 1.8414488441e-01 2.0228985601e+00 -3.5037630847e+00 2.0228985601e+00 3.5037630847e+00 
12900 5.5687062438e+00 1.7942732426e-01 2.0183487602e+00 -3.4958826000e+00 2.0183487602e+00 3.4958826000e+00 
13000 5.5688322438e+00 1.7474485043e-01 2.0139054914e+00 -3.4881866327e+00 2.0139054914e+00 3.4881866327e+00 
13100 5.5689866550e+00 1.7010279733e-01 2.0095685954e+00 -3.4806749085e+00 2.0095685954e+00 3.4806749085e+00 
13200 5.5691617825e+00 1.6550616468e-01 2.0053377629e+00 -3.4733468916e+00 2.0053377629e+00 3.4733468916e+00 
13300 5.5693504441e+00 1.6095962892e-01 2.0012125405e+00 -3.4662017969e+00 2.0012125405e+00 3.4662017969e+00 
13400 5.5695460083e+00 1.5646755480e-01 1.9971923376e+00 -3.4592386011e+00 1.9971923376e+00 3.4592386011e+00 
13500 5.5697424201e+00 1.5203400695e-01 1.9932764326e+00 -3.4524560548e+00 1.9932764326e+00 3.4524560548e+00 
13600 5.5699342197e+00 1.4766276127e-01 1.9894639801e+00 -3.4458526934e+00 1.9894639801e+00 3.4458526934e+00 
13700 5.5701165512e+00 1.4335731602e-01 1.9857540168e+00 -3.4394268485e+00 1.9857540168e+00 3.4394268485e+00 
13800 5.5702851638e+00 1.3912090243e-01 1.9821454680e+00 -3.4331766586e+00 1.9821454680e+00 3.4331766586e+00 
13900 5.5704364057e+00 1.3495649489e-01 1.9786371539e+00 -3.4271000804e+00 1.9786371539e+00 3.4271000804e+00 
14000 5.5705672113e+00 1.3086682062e-01 1.9752277956e+00 -3.4211948986e+00 1.9752277956e+00 3.4211948986e+00 
14100 5.5706750828e+00 1.2685436874e-01 1.9719160212e+00 -3.4154587369e+00 1.9719160212e+00 3.4154587369e+00 
14200 5.5707580667e+00 1.2292139891e-01 1.9687003714e+00 -3.4098890682e+00 1.9687003714e+00 3.4098890682e+00 
14300 5.5708147259e+00 1.1906994938e-01 1.9655793058e+00 -3.4044832240e+00 1.9655793058e+00 3.4044832240e+00 
14400 5.5708441089e+00 1.1530184461e-01 1.9625512082e+00 -3.3992384050e+00 1.9625512082e+00 3.3992384050e+00 
14500 5.5708457153e+00 1.1161870238e-01 1.9596143921e+00 -3.3941516904e+00 1.9596143921e+00 3.3941516904e+00 
14600 5.5708194604e+00 1.0802194059e-01 1.9567671068e+00 -3.3892200475e+00 1.9567671068e+00 3.3892200475e+00 
14700 5.5707656370e+00 1.0451278365e-01 1.9540075421e+00 -3.3844403413e+00 1.9540075421e+00 3.3844403413e+00 
14800 5.5706848780e+00 1.0109226855e-01 1.9513338341e+00 -3.3798093432e+00 1.9513338341e+00 3.3798093432e+00 
14900 5.5705781172e+00 9.7761250751e-02 1.9487440704e+00 -3.3753237408e+00 1.9487440704e+00 3.3753237408e+00 
15000 5.5704465512e+00 9.4520409742e-02 1.9462362949e+00 -3.3709801463e+00 1.9462362949e+00 3.3709801463e+00 
15100 5.5702916016e+00 9.1370254540e-02 1.9438085134e+00 -3.3667751053e+00 1.9438085134e+00 3.3667751053e+00 
15200 5.5701148785e+00 8.8311129001e-02 1.9414586981e+00 -3.3627051059e+00 1.9414586981e+00 3.3627051059e+00 
15300 5.5699181450e+00 8.5343217046e-02 1.9391847927e+00 -3.3587665863e+00 1.9391847927e+00 3.3587665863e+00 
15400 5.5697032836e+00 8.2466547825e-02 1.9369847172e+00 -3.3549559438e+00 1.9369847172e+00 3.3549559438e+00 
15500 5.5694722641e+00 7.9681000846e-02 1.9348563725e+00 -3.3512695425e+00 1.9348563725e+00 3.3512695425e+00 
15600 5.5692271143e+00 7.6986311090e-02 1.9327976446e+00 -3.3477037213e+00 1.9327976446e+00 3.3477037213e+00 
15700 5.5689698915e+00 7.4382074124e-02 1.9308064099e+00 -3.3442548015e+00 1.9308064099e+00 3.3442548015e+00 
15800 5.5687026581e+00 7.1867751237e-02 1.9288805386e+00 -3.3409190945e+00 1.9288805386e+00 3.3409190945e+00 
15900 5.5684274575e+00 6.9442674611e-02 1.9270178993e+00 -3.3376929087e+00 1.9270178993e+00 3.3376929087e+00 
16000 5.5681462938e+00 6.7106052518e-02 1.9252163633e+00 -3.3345725569e+00 1.9252163633e+00 3.3345725569e+00 
16100 5.5678611136e+00 6.4856974568e-02 1.9234738081e+00 -3.3315543626e+00 1.9234738081e+00 3.3315543626e+00 
16200 5.5675737892e+00 6.2694416999e-02 1.9217881212e+00 -3.3286346672e+00 1.9217881212e+00 3.3286346672e+00 
16300 5.5672861053e+00 6.0617248003e-02 1.9201572041e+00 -3.3258098360e+00 1.9201572041e+00 3.3258098360e+00 
16400 5.5669997469e+00 5.8624233107e-02 1.9185789756e+00 -3.3230762641e+00 1.9185789756e+00 3.3230762641e+00 
16500 5.5667162897e+00 5.6714040579e-02 1.9170513751e+00 -3.3204303823e+00 1.9170513751e+00 3.3204303823e+00 
16600 5.5664371926e+00 5.4885246870e-02 1.9155723656e+00 -3.3178686628e+00 1.9155723656e+00 3.3178686628e+00 
16700 5.5661637918e+00 5.3136342085e-02 1.9141399373e+00 -3.3153876243e+00 1.9141399373e+00 3.3153876243e+00 
16800 5.5658972968e+00 5.1465735466e-02 1.9127521100e+00 -3.3129838368e+00 1.9127521100e+00 3.3129838368e+00 
16900 5.5656387879e+00 4.9871760891e-02 1.9114069357e+00 -3.3106539266e+00 1.9114069357e+00 3.3106539266e+00 
17000 5.5653892153e+00 4.8352682371e-02 1.9101025017e+00 -3.3083945806e+00 1.9101025017e+00 3.3083945806e+00 
17100 5.5651493997e+00 4.6906699546e-02 1.9088369325e+00 -3.3062025504e+00 1.9088369325e+00 3.3062025504e+00 
17200 5.5649200340e+00 4.5531953154e-02 1.9076083921e+00 -3.3040746561e+00 1.9076083921e+00 3.3040746561e+00 
17300 5.5647016857e+00 4.4226530493e-02 1.9064150863e+00 -3.3020077899e+00 1.9064150863e+00 3.3020077899e+00 
17400 5.5644948015e+00 4.2988470830e-02 1.9052552644e+00 -3.2999989192e+00 1.9052552644e+00 3.2999989192e+00 
17500 5.5642997110e+00 4.1815770785e-02 1.9041272206e+00 -3.2980450902e+00 1.9041272206e+00 3.2980450902e+00 
17600 5.5641166328e+00 4.0706389647e-02 1.9030292963e+00 -3.2961434295e+00 1.9030292963e+00 3.2961434295e+00 
17700 5.5639456802e+00 3.9658254645e-02 1.9019598810e+00 -3.2942911478e+00 1.9019598810e+00 3.2942911478e+00 
17800 5.5637868676e+00 3.8669266138e-02 1.9009174134e+00 -3.2924855411e+00 1.9009174134e+00 3.2924855411e+00 
17900 5.5636401179e+00 3.7737302729e-02 1.8999003830e+00 -3.2907239927e+00 1.8999003830e+00 3.2907239927e+00 
18000 5.5635052691e+00 3.6860226299e-02 1.8989073306e+00 -3.2890039755e+00 1.8989073306e+00 3.2890039755e+00 
18100 5.5633820822e+00 3.6035886940e-02 1.8979368492e+00 -3.2873230524e+00 1.8979368492e+00 3.2873230524e+00 
18200 5.5632702487e+00 3.5262127781e-02 1.8969875847e+00 -3.2856788781e+00 1.8969875847e+00 3.2856788781e+00 
18300 5.5631693980e+00 3.4536789714e-02 1.8960582363e+00 -3.2840691995e+00 1.8960582363e+00 3.2840691995e+00 
18400 5.5630791051e+00 3.3857715989e-02 1.8951475569e+00 -3.2824918565e+00 1.8951475569e+00 3.2824918565e+00 
18500 5.5629988985e+00 3.3222756690e-02 1.8942543533e+00 -3.2809447823e+00 1.8942543533e+00 3.2809447823e+00 
18600 5.5629282668e+00 3.2629773071e-02 1.8933774860e+00 -3.2794260037e+00 1.8933774860e+00 3.2794260037e+00 
18700 5.5628666665e+00 3.2076641750e-02 1.8925158698e+00 -3.2779336406e+00 1.8925158698e+00 3.2779336406e+00 
18800 5.5628135286e+00 3.1561258761e-02 1.8916684727e+00 -3.2764659058e+00 1.8916684727e+00 3.2764659058e+00 
18900 5.5627682654e+00 3.1081543440e-02 1.8908343166e+00 -3.2750211050e+00 1.8908343166e+00 3.2750211050e+00 
19000 5.5627302766e+00 3.0635442156e-02 1.8900124759e+00 -3.2735976352e+00 1.8900124759e+00 3.2735976352e+00 
19100 5.5626989553e+00 3.0220931869e-02 1.8892020778e+00 -3.2721939845e+00 1.8892020778e+00 3.2721939845e+00 
19200 5.5626736936e+00 2.9836023516e-02 1.8884023010e+00 -3.2708087305e+00 1.8884023010e+00 3.2708087305e+00 
19300 5.5626538876e+00 2.9478765215e-02 1.8876123755e+00 -3.2694405394e+00 1.8876123755e+00 3.2694405394e+00 
19400 5.5626389424e+00 2.9147245287e-02 1.8868315814e+00 -3.2680881643e+00 1.8868315814e+00 3.2680881643e+00 
19500 5.5626282761e+00 2.8839595087e-02 1.8860592481e+00 -3.2667504439e+00 1.8860592481e+00 3.2667504439e+00 
19600 5.5626213240e+00 2.8553991643e-02 1.8852947535e+00 -3.2654263002e+00 1.8852947535e+00 3.2654263002e+00 
19700 5.5626175416e+00 2.8288660097e-02 1.8845375223e+00 -3.2641147373e+00 1.8845375223e+00 3.2641147373e+00 
19800 5.5626164081e+00 2.8041875950e-02 1.8837870256e+00 -3.2628148390e+00 1.8837870256e+00 3.2628148390e+00 
19900 5.5626174287e+00 2.7811967104e-02 1.8830427794e+00 -3.2615257667e+00 1.8830427794e+00 3.2615257667e+00 
20000 5.5626201368e+00 2.7597315705e-02 1.8823043429e+00 -3.2602467573e+00 1.8823043429e+00 3.2602467573e+00 
20100 5.5626240958e+00 2.7396359777e-02 1.8815713179e+00 -3.2589771207e+00 1.8815713179e+00 3.2589771207e+00 
20200 5.5626289005e+00 2.7207594659e-02 1.8808433468e+00 -3.2577162377e+00 1.8808433468e+00 3.2577162377e+00 
20300 5.5626341780e+00 2.7029574240e-02 1.8801201114e+00 -3.2564635572e+00 1.8801201114e+00 3.2564635572e+00 
20400 5.5626395887e+00 2.6860911990e-02 1.8794013314e+00 -3.2552185939e+00 1.8794013314e+00 3.2552185939e+00 
20500 5.5626448260e+00 2.6700281799e-02 1.8786867632e+00 -3.2539809254e+00 1.8786867632e+00 3.2539809254e+00 
20600 5.5626496168e+00 2.6546418612e-02 1.8779761978e+00 -3.2527501900e+00 1.8779761978e+00 3.2527501900e+00 
20700 5.5626537211e+00 2.6398118884e-02 1.8772694595e+00 -3.2515260834e+00 1.8772694595e+00 3.2515260834e+00 
20800 5.5626569312e+00 2.6254240841e-02 1.8765664046e+00 -3.2503083566e+00 1.8765664046e+00 3.2503083566e+00 
20900 5.5626590713e+00 2.6113704557e-02 1.8758669194e+00 -3.2490968126e+00 1.8758669194e+00 3.2490968126e+00 
21000 5.5626599962e+00 2.5975491865e-02 1.8751709188e+00 -3.2478913043e+00 1.8751709188e+00 3.2478913043e+00 
21100 5.5626595900e+00 2.5838646088e-02 1.8744783448e+00 -3.2466917309e+00 1.8744783448e+00 3.2466917309e+00 
21200 5.5626577650e+00 2.5702271612e-02 1.8737891648e+00 -3.2454980360e+00 1.8737891648e+00 3.2454980360e+00 
21300 5.5626544601e+00 2.5565533302e-02 1.8731033698e+00 -3.2443102043e+00 1.8731033698e+00 3.2443102043e+00 
21400 5.5626496390e+00 2.5427655771e-02 1.8724209734e+00 -3.2431282591e+00 1.8724209734e+00 3.2431282591e+00 
21500 5.5626432885e+00 2.5287922507e-02 1.8717420097e+00 -3.2419522594e+00 1.8717420097e+00 3.2419522594e+00 
21600 5.5626354168e+00 2.5145674872e-02 1.8710665319e+00 -3.2407822977e+00 1.8710665319e+00 3.2407822977e+00 
21700 5.5626260514e+00 2.5000310970e-02 1.8703946112e+00 -3.2396184968e+00 1.8703946112e+00 3.2396184968e+00 
21800 5.5626152375e+00 2.4851284415e-02 1.8697263345e+00 -3.2384610076e+00 1.8697263345e+00 3.2384610076e+00 
21900 5.5626030358e+00 2.4698102976e-02 1.8690618038e+00 -3.2373100066e+00 1.8690618038e+00 3.2373100066e+00 
22000 5.5625895208e+00 2.4540327143e-02 1.8684011342e+00 -3.2361656933e+00 1.8684011342e+00 3.2361656933e+00 
22100 5.5625747788e+00 2.4377568596e-02 1.8677444527e+00 -3.2350282876e+00 1.8677444527e+00 3.2350282876e+00 
22200 5.5625589059e+00 2.4209488597e-02 1.8670918969e+00 -3.2338980278e+00 1.8670918969e+00 3.2338980278e+00 
22300 5.5625420064e+00 2.4035796319e-02 1.8664436137e+00 -3.2327751683e+00 1.8664436137e+00 3.2327751683e+00 
22400 5.5625241912e+00 2.3856247110e-02 1.8657997578e+00 -3.2316599772e+00 1.8657997578e+00 3.2316599772e+00 
22500 5.5625055758e+00 2.3670640710e-02 1.8651604908e+00 -3.2305527343e+00 1.8651604908e+00 3.2305527343e+00 
22600 5.5624862787e+00 2.3478819417e-02 1.8645259798e+00 -3.2294537290e+00 1.8645259798e+00 3.2294537290e+00 
22700 5.5624664203e+00 2.3280666237e-02 1.8638963962e+00 -3.2283632583e+00 1.8638963962e+00 3.2283632583e+00 
22800 5.5624461211e+00 2.3076102986e-02 1.8632719150e+00 -3.2272816251e+00 1.8632719150e+00 3.2272816251e+00 
22900 5.5624255010e+00 2.2865088391e-02 1.8626527132e+00 -3.2262091362e+00 1.8626527132e+00 3.2262091362e+00 
23000 5.5624046771e+00 2.2647616172e-02 1.8620389694e+00 -3.2251461007e+00 1.8620389694e+00 3.2251461007e+00 
23100 5.5623837639e+00 2.2423713124e-02 1.8614308623e+00 -3.2240928283e+00 1.8614308623e+00 3.2240928283e+00 
23200 5.5623628712e+00 2.2193437196e-02 1.8608285702e+00 -3.2230496277e+00 1.8608285702e+00 3.2230496277e+00 
23300 5.5623421042e+00 2.1956875589e-02 1.8602322699e+00 -3.2220168053e+00 1.8602322699e+00 3.2220168053e+00 
23400 5.5623215621e+00 2.1714142860e-02 1.8596421362e+00 -3.2209946638e+00 1.8596421362e+00 3.2209946638e+00 
23500 5.5623013378e+00 2.1465379050e-02 1.8590583409e+00 -3.2199835007e+00 1.8590583409e+00 3.2199835007e+00 
23600 5.5622815175e+00 2.1210747841e-02 1.8584810522e+00 -3.2189836074e+00 1.8584810522e+00 3.2189836074e+00 
23700 5.5622621801e+00 2.0950434738e-02 1.8579104340e+00 -3.2179952677e+00 1.8579104340e+00 3.2179952677e+00 
23800 5.5622433969e+00 2.0684645287e-02 1.8573466454e+00 -3.2170187571e+00 1.8573466454e+00 3.2170187571e+00 
23900 5.5622252314e+00 2.0413603334e-02 1.8567898401e+00 -3.2160543420e+00 1.8567898401e+00 3.2160543420e+00 
24000 5.5622077394e+00 2.0137549320e-02 1.8562401657e+00 -3.2151022780e+00 1.8562401657e+00 3.2151022780e+00 
24100 5.5621909689e+00 1.9856738630e-02 1.8556977637e+00 -3.2141628102e+00 1.8556977637e+00 3.2141628102e+00 
24200 5.5621749600e+00 1.9571439977e-02 1.8551627686e+00 -3.2132361715e+00 1.8551627686e+00 3.2132361715e+00 
24300 5.5621597449e+00 1.9281933846e-02 1.8546353078e+00 -3.2123225826e+00 1.8546353078e+00 3.2123225826e+00 
24400 5.5621453488e+00 1.8988510986e-02 1.8541155012e+00 -3.2114222512e+00 1.8541155012e+00 3.2114222512e+00 
24500 5.5621317892e+00 1.8691470953e-02 1.8536034609e+00 -3.2105353714e+00 1.8536034609e+00 3.2105353714e+00 
24600 5.5621190768e+00 1.8391120710e-02 1.8530992910e+00 -3.2096621234e+00 1.8530992910e+00 3.2096621234e+00 
24700 5.5621072160e+00 1.8087773279e-02 1.8526030871e+00 -3.2088026731e+00 1.8526030871e+00 3.2088026731e+00 
24800 5.5620962046e+00 1.7781746458e-02 1.8521149367e+00 -3.2079571719e+00 1.8521149367e+00 3.2079571719e+00 
24900 5.5620860348e+00 1.7473361579e-02 1.8516349185e+00 -3.2071257559e+00 1.8516349185e+00 3.2071257559e+00 
25000 5.5620766936e+00 1.7162942341e-02 1.8511631025e+00 -3.2063085467e+00 1.8511631025e+00 3.2063085467e+00 
25100 5.5620681627e+00 1.6850813681e-02 1.8506995500e+00 -3.2055056502e+00 1.8506995500e+00 3.2055056502e+00 
25200 5.5620604200e+00 1.6537300721e-02 1.8502443134e+00 -3.2047171573e+00 1.8502443134e+00 3.2047171573e+00 
25300 5.5620534389e+00 1.6222727752e-02 1.8497974364e+00 -3.2039431435e+00 1.8497974364e+00 3.2039431435e+00 
25400 5.5620471898e+00 1.5907417289e-02 1.8493589536e+00 -3.2031836690e+00 1.8493589536e+00 3.2031836690e+00 
25500 5.5620416399e+00 1.5591689169e-02 1.8489288910e+00 -3.2024387788e+00 1.8489288910e+00 3.2024387788e+00 
25600 5.5620367539e+00 1.5275859714e-02 1.8485072659e+00 -3.2017085028e+00 1.8485072659e+00 3.2017085028e+00 
25700 5.5620324948e+00 1.4960240938e-02 1.8480940869e+00 -3.2009928556e+00 1.8480940869e+00 3.2009928556e+00 
25800 5.5620288236e+00 1.4645139812e-02 1.8476893538e+00 -3.2002918374e+00 1.8476893538e+00 3.2002918374e+00 
25900 5.5620257005e+00 1.4330857575e-02 1.8472930584e+00 -3.1996054336e+00 1.8472930584e+00 3.1996054336e+00 
26000 5.5620230849e+00 1.4017689101e-02 1.8469051840e+00 -3.1989336154e+00 1.8469051840e+00 3.1989336154e+00 
26100 5.5620209357e+00 1.3705922308e-02 1.8465257056e+00 -3.1982763397e+00 1.8465257056e+00 3.1982763397e+00 
26200 5.5620192120e+00 1.3395837619e-02 1.8461545908e+00 -3.1976335498e+00 1.8461545908e+00 3.1976335498e+00 
26300 5.5620178732e+00 1.3087707468e-02 1.8457917989e+00 -3.1970051758e+00 1.8457917989e+00 3.1970051758e+00 
26400 5.5620168793e+00 1.2781795849e-02 1.8454372819e+00 -3.1963911345e+00 1.8454372819e+00 3.1963911345e+00 
26500 5.5620161915e+00 1.2478357911e-02 1.8450909847e+00 -3.1957913301e+00 1.8450909847e+00 3.1957913301e+00 
26600 5.5620157719e+00 1.2177639590e-02 1.8447528449e+00 -3.1952056547e+00 1.8447528449e+00 3.1952056547e+00 
26700 5.5620155842e+00 1.1879877289e-02 1.8444227932e+00 -3.1946339884e+00 1.8444227932e+00 3.1946339884e+00 
26800 5.5620155937e+00 1.1585297590e-02 1.8441007539e+00 -3.1940762000e+00 1.8441007539e+00 3.1940762000e+00 
26900 5.5620157673e+00 1.1294117007e-02 1.8437866450e+00 -3.1935321474e+00 1.8437866450e+00 3.1935321474e+00 
27000 5.5620160740e+00 1.1006541776e-02 1.8434803784e+00 -3.1930016782e+00 1.8434803784e+00 3.1930016782e+00 
27100 5.5620164847e+00 1.0722767680e-02 1.8431818603e+00 -3.1924846297e+00 1.8431818603e+00 3.1924846297e+00 
27200 5.5620169726e+00 1.0442979903e-02 1.8428909914e+00 -3.1919808300e+00 1.8428909914e+00 3.1919808300e+00 
27300 5.5620175129e+00 1.0167352924e-02 1.8426076672e+00 -3.1914900981e+00 1.8426076672e+00 3.1914900981e+00 
27400 5.5620180829e+00 9.8960504355e-03 1.8423317784e+00 -3.1910122445e+00 1.8423317784e+00 3.1910122445e+00 
27500 5.5620186622e+00 9.6292252962e-03 1.8420632108e+00 -3.1905470719e+00 1.8420632108e+00 3.1905470719e+00 
27600 5.5620192327e+00 9.3670195080e-03 1.8418018464e+00 -3.1900943754e+00 1.8418018464e+00 3.1900943754e+00 
27700 5.5620197783e+00 9.1095642233e-03 1.8415475627e+00 -3.1896539431e+00 1.8415475627e+00 3.1896539431e+00 
27800 5.5620202851e+00 8.8569797772e-03 1.8413002337e+00 -3.1892255568e+00 1.8413002337e+00 3.1892255568e+00 
27900 5.5620207413e+00 8.6093757441e-03 1.8410597301e+00 -3.1888089923e+00 1.8410597301e+00 3.1888089923e+00 
28000 5.5620211369e+00 8.3668510176e-03 1.8408259193e+00 -3.1884040201e+00 1.8408259193e+00 3.1884040201e+00 
28100 5.5620214640e+00 8.1294939137e-03 1.8405986659e+00 -3.1880104057e+00 1.8405986659e+00 3.1880104057e+00 
28200 5.5620217165e+00 7.8973822934e-03 1.8403778320e+00 -3.1876279101e+00 1.8403778320e+00 3.1876279101e+00 
28300 5.5620218898e+00 7.6705837070e-03 1.8401632774e+00 -3.1872562908e+00 1.8401632774e+00 3.1872562908e+00 
28400 5.5620219811e+00 7.4491555561e-03 1.8399548601e+00 -3.1868953013e+00 1.8399548601e+00 3.1868953013e+00 
28500 5.5620219889e+00 7.2331452733e-03 1.8397524361e+00 -3.1865446928e+00 1.8397524361e+00 3.1865446928e+00 
28600 5.5620219132e+00 7.0225905193e-03 1.8395558603e+00 -3.1862042135e+00 1.8395558603e+00 3.1862042135e+00 
28700 5.5620217551e+00 6.8175193946e-03 1.8393649863e+00 -3.1858736099e+00 1.8393649863e+00 3.1858736099e+00 
28800 5.5620215169e+00 6.6179506659e-03 1.8391796668e+00 -3.1855526271e+00 1.8391796668e+00 3.1855526271e+00 
28900 5.5620212018e+00 6.4238940065e-03 1.8389997539e+00 -3.1852410088e+00 1.8389997539e+00 3.1852410088e+00 
29000 5.5620208140e+00 6.2353502479e-03 1.8388250994e+00 -3.1849384983e+00 1.8388250994e+00 3.1849384983e+00 
29100 5.5620203582e+00 6.0523116439e-03 1.8386555548e+00 -3.1846448386e+00 1.8386555548e+00 3.1846448386e+00 
29200 5.5620198399e+00 5.8747621447e-03 1.8384909720e+00 -3.1843597728e+00 1.8384909720e+00 3.1843597728e+00 
29300 5.5620192651e+00 5.7026776794e-03 1.8383312031e+00 -3.1840830448e+00 1.8383312031e+00 3.1840830448e+00 
29400 5.5620186400e+00 5.5360264489e-03 1.8381761005e+00 -3.1838143993e+00 1.8381761005e+00 3.1838143993e+00 
29500 5.5620179713e+00 5.3747692242e-03 1.8380255178e+00 -3.1835535824e+00 1.8380255178e+00 3.1835535824e+00 
29600 5.5620172659e+00 5.2188596529e-03 1.8378793093e+00 -3.1833003419e+00 1.8378793093e+00 3.1833003419e+00 
29700 5.5620165306e+00 5.0682445701e-03 1.8377373307e+00 -3.1830544277e+00 1.8377373307e+00 3.1830544277e+00 
29800 5.5620157724e+00 4.9228643149e-03 1.8375994388e+00 -3.1828155919e+00 1.8375994388e+00 3.1828155919e+00 
29900 5.5620149983e+00 4.7826530505e-03 1.8374654922e+00 -3.1825835896e+00 1.8374654922e+00 3.1825835896e+00 
30000 5.5620142149e+00 4.6475390875e-03 1.8373353510e+00 -3.1823581785e+00 1.8373353510e+00 3.1823581785e+00 
30100 5.5620134289e+00 4.5174452087e-03 1.8372088775e+00 -3.1821391200e+00 1.8372088775e+00 3.1821391200e+00 
30200 5.5620126465e+00 4.3922889966e-03 1.8370859357e+00 -3.1819261785e+00 1.8370859357e+00 3.1819261785e+00 
30300 5.5620118737e+00 4.2719831605e-03 1.8369663920e+00 -3.1817191228e+00 1.8369663920e+00 3.1817191228e+00 
30400 5.5620111164e+00 4.1564358640e-03 1.8368501150e+00 -3.1815177251e+00 1.8368501150e+00 3.1815177251e+00 
30500 5.5620103797e+00 4.0455510514e-03 1.8367369759e+00 -3.1813217624e+00 1.8367369759e+00 3.1813217624e+00 
30600 5.5620096685e+00 3.9392287728e-03 1.8366268482e+00 -3.1811310157e+00 1.8366268482e+00 3.1811310157e+00 
30700 5.5620089874e+00 3.8373655066e-03 1.8365196084e+00 -3.1809452709e+00 1.8365196084e+00 3.1809452709e+00 
30800 5.5620083404e+00 3.7398544796e-03 1.8364151356e+00 -3.1807643186e+00 1.8364151356e+00 3.1807643186e+00 
30900 5.5620077310e+00 3.6465859834e-03 1.8363133116e+00 -3.1805879544e+00 1.8363133116e+00 3.1805879544e+00 
31000 5.5620071623e+00 3.5574476863e-03 1.8362140216e+00 -3.1804159789e+00 1.8362140216e+00 3.1804159789e+00 
31100 5.5620066371e+00 3.4723249413e-03 1.8361171533e+00 -3.1802481982e+00 1.8361171533e+00 3.1802481982e+00 
31200 5.5620061575e+00 3.3911010878e-03 1.8360225980e+00 -3.1800844235e+00 1.8360225980e+00 3.1800844235e+00 
31300 5.5620057252e+00 3.3136577491e-03 1.8359302496e+00 -3.1799244715e+00 1.8359302496e+00 3.1799244715e+00 
31400 5.5620053416e+00 3.2398751217e-03 1.8358400057e+00 -3.1797681644e+00 1.8358400057e+00 3.1797681644e+00 
31500 5.5620050076e+00 3.1696322597e-03 1.8357517668e+00 -3.1796153302e+00 1.8357517668e+00 3.1796153302e+00 
31600 5.5620047236e+00 3.1028073512e-03 1.8356654369e+00 -3.1794658024e+00 1.8356654369e+00 3.1794658024e+00 
31700 5.5620044898e+00 3.0392779870e-03 1.8355809230e+00 -3.1793194201e+00 1.8355809230e+00 3.1793194201e+00 
31800 5.5620043059e+00 2.9789214221e-03 1.8354981357e+00 -3.1791760283e+00 1.8354981357e+00 3.1791760283e+00 
31900 5.5620041714e+00 2.9216148288e-03 1.8354169888e+00 -3.1790354777e+00 1.8354169888e+00 3.1790354777e+00 
32000 5.5620040852e+00 2.8672355404e-03 1.8353373995e+00 -3.1788976249e+00 1.8353373995e+00 3.1788976249e+00 
32100 5.5620040463e+00 2.8156612876e-03 1.8352592881e+00 -3.1787623320e+00 1.8352592881e+00 3.1787623320e+00 
32200 5.5620040533e+00 2.7667704247e-03 1.8351825784e+00 -3.1786294670e+00 1.8351825784e+00 3.1786294670e+00 
32300 5.5620041043e+00 2.7204421471e-03 1.8351071976e+00 -3.1784989036e+00 1.8351071976e+00 3.1784989036e+00 
32400 5.5620041977e+00 2.6765566989e-03 1.8350330759e+00 -3.1783705211e+00 1.8350330759e+00 3.1783705211e+00 
32500 5.5620043313e+00 2.6349955715e-03 1.8349601470e+00 -3.1782442045e+00 1.8349601470e+00 3.1782442045e+00 
32600 5.5620045031e+00 2.5956416922e-03 1.8348883477e+00 -3.1781198444e+00 1.8348883477e+00 3.1781198444e+00 
32700 5.5620047106e+00 2.5583796024e-03 1.8348176179e+00 -3.1779973369e+00 1.8348176179e+00 3.1779973369e+00 
32800 5.5620049516e+00 2.5230956270e-03 1.8347479008e+00 -3.1778765833e+00 1.8347479008e+00 3.1778765833e+00 
32900 5.5620052236e+00 2.4896780331e-03 1.8346791426e+00 -3.1777574906e+00 1.8346791426e+00 3.1777574906e+00 
33000 5.5620055240e+00 2.4580171787e-03 1.8346112925e+00 -3.1776399708e+00 1.8346112925e+00 3.1776399708e+00 
33100 5.5620058505e+00 2.4280056519e-03 1.8345443028e+00 -3.1775239412e+00 1.8345443028e+00 3.1775239412e+00 
33200 5.5620062005e+00 2.3995383995e-03 1.8344781286e+00 -3.1774093240e+00 1.8344781286e+00 3.1774093240e+00 
33300 5.5620065714e+00 2.3725128465e-03 1.8344127278e+00 -3.1772960467e+00 1.8344127278e+00 3.1772960467e+00 
33400 5.5620069610e+00 2.3468290053e-03 1.8343480614e+00 -3.1771840411e+00 1.8343480614e+00 3.1771840411e+00 
33500 5.5620073668e+00 2.3223895751e-03 1.8342840927e+00 -3.1770732441e+00 1.8342840927e+00 3.1770732441e+00 
33600 5.5620077864e+00 2.2991000318e-03 1.8342207880e+00 -3.1769635972e+00 1.8342207880e+00 3.1769635972e+00 
33700 5.5620082176e+00 2.2768687090e-03 1.8341581160e+00 -3.1768550460e+00 1.8341581160e+00 3.1768550460e+00 
33800 5.5620086584e+00 2.2556068686e-03 1.8340960479e+00 -3.1767475409e+00 1.8340960479e+00 3.1767475409e+00 
33900 5.5620091067e+00 2.2352287632e-03 1.8340345572e+00 -3.1766410360e+00 1.8340345572e+00 3.1766410360e+00 
34000 5.5620095605e+00 2.2156516891e-03 1.8339736201e+00 -3.1765354897e+00 1.8339736201e+00 3.1765354897e+00 
34100 5.5620100180e+00 2.1967960310e-03 1.8339132147e+00 -3.1764308645e+00 1.8339132147e+00 3.1764308645e+00 
34200 5.5620104777e+00 2.1785852974e-03 1.8338533213e+00 -3.1763271261e+00 1.8338533213e+00 3.1763271261e+00 
34300 5.5620109378e+00 2.1609461483e-03 1.8337939225e+00 -3.1762242444e+00 1.8337939225e+00 3.1762242444e+00 
34400 5.5620113971e+00 2.1438084152e-03 1.8337350027e+00 -3.1761221924e+00 1.8337350027e+00 3.1761221924e+00 
34500 5.5620118542e+00 2.1271051123e-03 1.8336765484e+00 -3.1760209464e+00 1.8336765484e+00 3.1760209464e+00 
34600 5.5620123080e+00 2.1107724409e-03 1.8336185476e+00 -3.1759204861e+00 1.8336185476e+00 3.1759204861e+00 
34700 5.5620127574e+00 2.0947497868e-03 1.8335609903e+00 -3.1758207940e+00 1.8335609903e+00 3.1758207940e+00 
34800 5.5620132015e+00 2.0789797096e-03 1.8335038681e+00 -3.1757218555e+00 1.8335038681e+00 3.1757218555e+00 
34900 5.5620136396e+00 2.0634079268e-03 1.8334471743e+00 -3.1756236588e+00 1.8334471743e+00 3.1756236588e+00 
35000 5.5620140711e+00 2.0479832902e-03 1.8333909033e+00 -3.1755261946e+00 1.8333909033e+00 3.1755261946e+00 
35100 5.5620144952e+00 2.0326577575e-03 1.8333350512e+00 -3.1754294560e+00 1.8333350512e+00 3.1754294560e+00 
35200 5.5620149118e+00 2.0173863565e-03 1.8332796154e+00 -3.1753334384e+00 1.8332796154e+00 3.1753334384e+00 
35300 5.5620153203e+00 2.0021271456e-03 1.8332245945e+00 -3.1752381393e+00 1.8332245945e+00 3.1752381393e+00 
35400 5.5620157206e+00 1.9868411679e-03 1.8331699880e+00 -3.1751435582e+00 1.8331699880e+00 3.1751435582e+00 
35500 5.5620161126e+00 1.9714924008e-03 1.8331157969e+00 -3.1750496964e+00 1.8331157969e+00 3.1750496964e+00 
35600 5.5620164961e+00 1.9560477015e-03 1.8330620228e+00 -3.1749565569e+00 1.8330620228e+00 3.1749565569e+00 
35700 5.5620168712e+00 1.9404767471e-03 1.8330086684e+00 -3.1748641444e+00 1.8330086684e+00 3.1748641444e+00 
35800 5.5620172381e+00 1.9247519724e-03 1.8329557372e+00 -3.1747724649e+00 1.8329557372e+00 3.1747724649e+00 
35900 5.5620175968e+00 1.9088485024e-03 1.8329032334e+00 -3.1746815256e+00 1.8329032334e+00 3.1746815256e+00 
36000 5.5620179476e+00 1.8927440829e-03 1.8328511619e+00 -3.1745913352e+00 1.8328511619e+00 3.1745913352e+00 
36100 5.5620182907e+00 1.8764190068e-03 1.8327995283e+00 -3.1745019031e+00 1.8327995283e+00 3.1745019031e+00 
36200 5.5620186265e+00 1.8598560386e-03 1.8327483386e+00 -3.1744132399e+00 1.8327483386e+00 3.1744132399e+00 
36300 5.5620189552e+00 1.8430403361e-03 1.8326975993e+00 -3.1743253568e+00 1.8326975993e+00 3.1743253568e+00 
36400 5.5620192772e+00 1.8259593700e-03 1.8326473173e+00 -3.1742382660e+00 1.8326473173e+00 3.1742382660e+00 
36500 5.5620195930e+00 1.8086028410e-03 1.8325975000e+00 -3.1741519799e+00 1.8325975000e+00 3.1741519799e+00 
36600 5.5620199028e+00 1.7909625965e-03 1.8325481549e+00 -3.1740665116e+00 1.8325481549e+00 3.1740665116e+00 
36700 5.5620202072e+00 1.7730325445e-03 1.8324992898e+00 -3.1739818747e+00 1.8324992898e+00 3.1739818747e+00 
36800 5.5620205065e+00 1.7548085679e-03 1.8324509125e+00 -3.1738980829e+00 1.8324509125e+00 3.1738980829e+00 
36900 5.5620208012e+00 1.7362884361e-03 1.8324030313e+00 -3.1738151501e+00 1.8324030313e+00 3.1738151501e+00 
37000 5.5620210916e+00 1.7174717179e-03 1.8323556541e+00 -3.1737330905e+00 1.8323556541e+00 3.1737330905e+00 
37100 5.5620213782e+00 1.6983596924e-03 1.8323087892e+00 -3.1736519180e+00 1.8323087892e+00 3.1736519180e+00 
37200 5.5620216614e+00 1.6789552609e-03 1.8322624446e+00 -3.1735716468e+00 1.8322624446e+00 3.1735716468e+00 
37300 5.5620219415e+00 1.6592628578e-03 1.8322166283e+00 -3.1734922907e+00 1.8322166283e+00 3.1734922907e+00 
37400 5.5620222188e+00 1.6392883628e-03 1.8321713483e+00 -3.1734138634e+00 1.8321713483e+00 3.1734138634e+00 
37500 5.5620224938e+00 1.6190390123e-03 1.8321266123e+00 -3.1733363783e+00 1.8321266123e+00 3.1733363783e+00 
37600 5.5620227668e+00 1.5985233130e-03 1.8320824278e+00 -3.1732598485e+00 1.8320824278e+00 3.1732598485e+00 
37700 5.5620230380e+00 1.5777509543e-03 1.8320388021e+00 -3.1731842866e+00 1.8320388021e+00 3.1731842866e+00 
37800 5.5620233077e+00 1.5567327238e-03 1.8319957423e+00 -3.1731097048e+00 1.8319957423e+00 3.1731097048e+00 
37900 5.5620235761e+00 1.5354804220e-03 1.8319532551e+00 -3.1730361149e+00 1.8319532551e+00 3.1730361149e+00 
38000 5.5620238435e+00 1.5140067798e-03 1.8319113470e+00 -3.1729635279e+00 1.8319113470e+00 3.1729635279e+00 
38100 5.5620241101e+00 1.4923253761e-03 1.8318700240e+00 -3.1728919544e+00 1.8318700240e+00 3.1728919544e+00 
38200 5.5620243760e+00 1.4704505582e-03 1.8318292918e+00 -3.1728214042e+00 1.8318292918e+00 3.1728214042e+00 
38300 5.5620246413e+00 1.4483973629e-03 1.8317891558e+00 -3.1727518867e+00 1.8317891558e+00 3.1727518867e+00 
38400 5.5620249062e+00 1.4261814396e-03 1.8317496209e+00 -3.1726834102e+00 1.8317496209e+00 3.1726834102e+00 
38500 5.5620251707e+00 1.4038189760e-03 1.8317106916e+00 -3.1726159826e+00 1.8317106916e+00 3.1726159826e+00 
38600 5.5620254350e+00 1.3813266242e-03 1.8316723718e+00 -3.1725496108e+00 1.8316723718e+00 3.1725496108e+00 
38700 5.5620256990e+00 1.3587214307e-03 1.8316346653e+00 -3.1724843011e+00 1.8316346653e+00 3.1724843011e+00 
38800 5.5620259628e+00 1.3360207673e-03 1.8315975750e+00 -3.1724200589e+00 1.8315975750e+00 3.1724200589e+00 
38900 5.5620262264e+00 1.3132422645e-03 1.8315611036e+00 -3.1723568887e+00 1.8315611036e+00 3.1723568887e+00 
39000 5.5620264897e+00 1.2904037475e-03 1.8315252534e+00 -3.1722947942e+00 1.8315252534e+00 3.1722947942e+00 
39100 5.5620267527e+00 1.2675231742e-03 1.8314900259e+00 -3.1722337785e+00 1.8314900259e+00 3.1722337785e+00 
39200 5.5620270154e+00 1.2446185753e-03 1.8314554224e+00 -3.1721738435e+00 1.8314554224e+00 3.1721738435e+00 
39300 5.5620272776e+00 1.2217079978e-03 1.8314214436e+00 -3.1721149904e+00 1.8314214436e+00 3.1721149904e+00 
39400 5.5620275394e+00 1.1988094499e-03 1.8313880896e+00 -3.1720572196e+00 1.8313880896e+00 3.1720572196e+00 
39500 5.5620278005e+00 1.1759408486e-03 1.8313553602e+00 -3.1720005305e+00 1.8313553602e+00 3.1720005305e+00 
39600 5.5620280610e+00 1.1531199707e-03 1.8313232545e+00 -3.1719449219e+00 1.8313232545e+00 3.1719449219e+00 
39700 5.5620283207e+00 1.1303644046e-03 1.8312917714e+00 -3.1718903915e+00 1.8312917714e+00 3.1718903915e+00 
39800 5.5620285795e+00 1.1076915065e-03 1.8312609090e+00 -3.1718369362e+00 1.8312609090e+00 3.1718369362e+00 
39900 5.5620288372e+00 1.0851183576e-03 1.8312306651e+00 -3.1717845523e+00 1.8312306651e+00 3.1717845523e+00 
40000 5.5620290938e+00 1.0626617244e-03 1.8312010371e+00 -3.1717332351e+00 1.8312010371e+00 3.1717332351e+00 
40100 5.5620293491e+00 1.0403380220e-03 1.8311720217e+00 -3.1716829790e+00 1.8311720217e+00 3.1716829790e+00 
40200 5.5620296030e+00 1.0181632787e-03 1.8311436154e+00 -3.1716337779e+00 1.8311436154e+00 3.1716337779e+00 
40300 5.5620298554e+00 9.9615310404e-04 1.8311158142e+00 -3.1715856248e+00 1.8311158142e+00 3.1715856248e+00 
40400 5.5620301062e+00 9.7432265898e-04 1.8310886136e+00 -3.1715385119e+00 1.8310886136e+00 3.1715385119e+00 
40500 5.5620303552e+00 9.5268662826e-04 1.8310620086e+00 -3.1714924307e+00 1.8310620086e+00 3.1714924307e+00 
40600 5.5620306023e+00 9.3125919537e-04 1.8310359941e+00 -3.1714473722e+00 1.8310359941e+00 3.1714473722e+00 
40700 5.5620308474e+00 9.1005401975e-04 1.8310105643e+00 -3.1714033266e+00 1.8310105643e+00 3.1714033266e+00 
40800 5.5620310904e+00 8.8908421626e-04 1.8309857132e+00 -3.1713602832e+00 1.8309857132e+00 3.1713602832e+00 
40900 5.5620313313e+00 8.6836233692e-04 1.8309614344e+00 -3.1713182311e+00 1.8309614344e+00 3.1713182311e+00 
41000 5.5620315698e+00 8.4790035482e-04 1.8309377212e+00 -3.1712771586e+00 1.8309377212e+00 3.1712771586e+00 
41100 5.5620318060e+00 8.2770965012e-04 1.8309145664e+00 -3.1712370534e+00 1.8309145664e+00 3.1712370534e+00 
41200 5.5620320397e+00 8.0780099822e-04 1.8308919628e+00 -3.1711979027e+00 1.8308919628e+00 3.1711979027e+00 
41300 5.5620322709e+00 7.8818455984e-04 1.8308699025e+00 -3.1711596932e+00 1.8308699025e+00 3.1711596932e+00 
41400 5.5620324996e+00 7.6886987317e-04 1.8308483777e+00 -3.1711224111e+00 1.8308483777e+00 3.1711224111e+00 
41500 5.5620327256e+00 7.4986584784e-04 1.8308273801e+00 -3.1710860422e+00 1.8308273801e+00 3.1710860422e+00 
41600 5.5620329489e+00 7.3118076074e-04 1.8308069012e+00 -3.1710505718e+00 1.8308069012e+00 3.1710505718e+00 
41700 5.5620331695e+00 7.1282225363e-04 1.8307869324e+00 -3.1710159848e+00 1.8307869324e+00 3.1710159848e+00 
41800 5.5620333873e+00 6.9479733247e-04 1.8307674648e+00 -3.1709822659e+00 1.8307674648e+00 3.1709822659e+00 
41900 5.5620336024e+00 6.7711236835e-04 1.8307484893e+00 -3.1709493993e+00 1.8307484893e+00 3.1709493993e+00 
42000 5.5620338147e+00 6.5977309996e-04 1.8307299965e+00 -3.1709173690e+00 1.8307299965e+00 3.1709173690e+00 
42100 5.5620340241e+00 6.4278463768e-04 1.8307119772e+00 -3.1708861585e+00 1.8307119772e+00 3.1708861585e+00 
42200 5.5620342308e+00 6.2615146894e-04 1.8306944216e+00 -3.1708557514e+00 1.8306944216e+00 3.1708557514e+00 
42300 5.5620344346e+00 6.0987746505e-04 1.8306773202e+00 -3.1708261308e+00 1.8306773202e+00 3.1708261308e+00 
42400 5.5620346357e+00 5.9396588929e-04 1.8306606630e+00 -3.1707972798e+00 1.8306606630e+00 3.1707972798e+00 
42500 5.5620348340e+00 5.7841940618e-04 1.8306444403e+00 -3.1707691813e+00 1.8306444403e+00 3.1707691813e+00 
42600 5.5620350295e+00 5.6324009193e-04 1.8306286421e+00 -3.1707418179e+00 1.8306286421e+00 3.1707418179e+00 
42700 5.5620352223e+00 5.4842944598e-04 1.8306132584e+00 -3.1707151725e+00 1.8306132584e+00 3.1707151725e+00 
42800 5.5620354124e+00 5.3398840347e-04 1.8305982790e+00 -3.1706892274e+00 1.8305982790e+00 3.1706892274e+00 
42900 5.5620355998e+00 5.1991734873e-04 1.8305836939e+00 -3.1706639654e+00 1.8305836939e+00 3.1706639654e+00 
43000 5.5620357846e+00 5.0621612959e-04 1.8305694931e+00 -3.1706393688e+00 1.8305694931e+00 3.1706393688e+00 
43100 5.5620359668e+00 4.9288407248e-04 1.8305556664e+00 -3.1706154202e+00 1.8305556664e+00 3.1706154202e+00 
43200 5.5620361464e+00 4.7991999826e-04 1.8305422037e+00 -3.1705921022e+00 1.8305422037e+00 3.1705921022e+00 
43300 5.5620363235e+00 4.6732223875e-04 1.8305290950e+00 -3.1705693973e+00 1.8305290950e+00 3.1705693973e+00 
43400 5.5620364981e+00 4.5508865381e-04 1.8305163304e+00 -3.1705472883e+00 1.8305163304e+00 3.1705472883e+00 
43500 5.5620366704e+00 4.4321664894e-04 1.8305038998e+00 -3.1705257578e+00 1.8305038998e+00 3.1705257578e+00 
43600 5.5620368402e+00 4.3170319344e-04 1.8304917934e+00 -3.1705047889e+00 1.8304917934e+00 3.1705047889e+00 
43700 5.5620370078e+00 4.2054483885e-04 1.8304800014e+00 -3.1704843646e+00 1.8304800014e+00 3.1704843646e+00 
43800 5.5620371731e+00 4.0973773783e-04 1.8304685141e+00 -3.1704644681e+00 1.8304685141e+00 3.1704644681e+00 
43900 5.5620373361e+00 3.9927766329e-04 1.8304573220e+00 -3.1704450827e+00 1.8304573220e+00 3.1704450827e+00 
44000 5.5620374970e+00 3.8916002775e-04 1.8304464155e+00 -3.1704261921e+00 1.8304464155e+00 3.1704261921e+00 
44100 5.5620376557e+00 3.7937990290e-04 1.8304357853e+00 -3.1704077801e+00 1.8304357853e+00 3.1704077801e+00 
44200 5.5620378124e+00 3.6993203923e-04 1.8304254222e+00 -3.1703898307e+00 1.8304254222e+00 3.1703898307e+00 
44300 5.5620379671e+00 3.6081088583e-04 1.8304153171e+00 -3.1703723282e+00 1.8304153171e+00 3.1703723282e+00 
44400 5.5620381197e+00 3.5201061006e-04 1.8304054611e+00 -3.1703552571e+00 1.8304054611e+00 3.1703552571e+00 
44500 5.5620382704e+00 3.4352511735e-04 1.8303958455e+00 -3.1703386024e+00 1.8303958455e+00 3.1703386024e+00 
44600 5.5620384192e+00 3.3534807081e-04 1.8303864616e+00 -3.1703223490e+00 1.8303864616e+00 3.1703223490e+00 
44700 5.5620385662e+00 3.2747291081e-04 1.8303773010e+00 -3.1703064824e+00 1.8303773010e+00 3.1703064824e+00 
44800 5.5620387113e+00 3.1989287430e-04 1.8303683555e+00 -3.1702909884e+00 1.8303683555e+00 3.1702909884e+00 
44900 5.5620388547e+00 3.1260101404e-04 1.8303596171e+00 -3.1702758529e+00 1.8303596171e+00 3.1702758529e+00 
45000 5.5620389963e+00 3.0559021751e-04 1.8303510777e+00 -3.1702610623e+00 1.8303510777e+00 3.1702610623e+00 
45100 5.5620391362e+00 2.9885322557e-04 1.8303427299e+00 -3.1702466034e+00 1.8303427299e+00 3.1702466034e+00 
45200 5.5620392744e+00 2.9238265086e-04 1.8303345660e+00 -3.1702324632e+00 1.8303345660e+00 3.1702324632e+00 
45300 5.5620394110e+00 2.8617099578e-04 1.8303265789e+00 -3.1702186291e+00 1.8303265789e+00 3.1702186291e+00 
45400 5.5620395459e+00 2.8021067014e-04 1.8303187614e+00 -3.1702050888e+00 1.8303187614e+00 3.1702050888e+00 
45500 5.5620396793e+00 2.7449400842e-04 1.8303111067e+00 -3.1701918305e+00 1.8303111067e+00 3.1701918305e+00 
45600 5.5620398111e+00 2.6901328662e-04 1.8303036082e+00 -3.1701788426e+00 1.8303036082e+00 3.1701788426e+00 
45700 5.5620399413e+00 2.6376073860e-04 1.8302962593e+00 -3.1701661140e+00 1.8302962593e+00 3.1701661140e+00 
45800 5.5620400700e+00 2.5872857203e-04 1.8302890539e+00 -3.1701536339e+00 1.8302890539e+00 3.1701536339e+00 
45900 5.5620401972e+00 2.5390898377e-04 1.8302819859e+00 -3.1701413918e+00 1.8302819859e+00 3.1701413918e+00 
46000 5.5620403230e+00 2.4929417484e-04 1.8302750496e+00 -3.1701293777e+00 1.8302750496e+00 3.1701293777e+00 
46100 5.5620404472e+00 2.4487636477e-04 1.8302682393e+00 -3.1701175820e+00 1.8302682393e+00 3.1701175820e+00 
46200 5.5620405700e+00 2.4064780548e-04 1.8302615497e+00 -3.1701059952e+00 1.8302615497e+00 3.1701059952e+00 
46300 5.5620406914e+00 2.3660079456e-04 1.8302549756e+00 -3.1700946085e+00 1.8302549756e+00 3.1700946085e+00 
46400 5.5620408113e+00 2.3272768805e-04 1.8302485120e+00 -3.1700834132e+00 1.8302485120e+00 3.1700834132e+00 
46500 5.5620409299e+00 2.2902091259e-04 1.8302421541e+00 -3.1700724011e+00 1.8302421541e+00 3.1700724011e+00 
46600 5.5620410470e+00 2.2547297703e-04 1.8302358976e+00 -3.1700615644e+00 1.8302358976e+00 3.1700615644e+00 
46700 5.5620411628e+00 2.2207648344e-04 1.8302297379e+00 -3.1700508956e+00 1.8302297379e+00 3.1700508956e+00 
46800 5.5620412772e+00 2.1882413755e-04 1.8302236710e+00 -3.1700403874e+00 1.8302236710e+00 3.1700403874e+00 
46900 5.5620413902e+00 2.1570875859e-04 1.8302176929e+00 -3.1700300331e+00 1.8302176929e+00 3.1700300331e+00 
47000 5.5620415018e+00 2.1272328852e-04 1.8302118000e+00 -3.1700198262e+00 1.8302118000e+00 3.1700198262e+00 
47100 5.5620416122e+00 2.0986080074e-04 1.8302059885e+00 -3.1700097605e+00 1.8302059885e+00 3.1700097605e+00 
47200 5.5620417212e+00 2.0711450811e-04 1.8302002553e+00 -3.1699998302e+00 1.8302002553e+00 3.1699998302e+00 
47300 5.5620418288e+00 2.0447777048e-04 1.8301945970e+00 -3.1699900298e+00 1.8301945970e+00 3.1699900298e+00 
47400 5.5620419352e+00 2.0194410157e-04 1.8301890108e+00 -3.1699803542e+00 1.8301890108e+00 3.1699803542e+00 
47500 5.5620420402e+00 1.9950717532e-04 1.8301834938e+00 -3.1699707984e+00 1.8301834938e+00 3.1699707984e+00 
47600 5.5620421440e+00 1.9716083168e-04 1.8301780433e+00 -3.1699613579e+00 1.8301780433e+00 3.1699613579e+00 
47700 5.5620422464e+00 1.9489908176e-04 1.8301726569e+00 -3.1699520284e+00 1.8301726569e+00 3.1699520284e+00 
47800 5.5620423476e+00 1.9271611253e-04 1.8301673323e+00 -3.1699428059e+00 1.8301673323e+00 3.1699428059e+00 
47900 5.5620424475e+00 1.9060629093e-04 1.8301620673e+00 -3.1699336867e+00 1.8301620673e+00 3.1699336867e+00 
48000 5.5620425462e+00 1.8856416742e-04 1.8301568600e+00 -3.1699246673e+00 1.8301568600e+00 3.1699246673e+00 
48100 5.5620426436e+00 1.8658447910e-04 1.8301517084e+00 -3.1699157445e+00 1.8301517084e+00 3.1699157445e+00 
48200 5.5620427397e+00 1.8466215220e-04 1.8301466109e+00 -3.1699069154e+00 1.8301466109e+00 3.1699069154e+00 
48300 5.5620428346e+00 1.8279230416e-04 1.8301415659e+00 -3.1698981772e+00 1.8301415659e+00 3.1698981772e+00 
48400 5.5620429283e+00 1.8097024527e-04 1.8301365719e+00 -3.1698895274e+00 1.8301365719e+00 3.1698895274e+00 
48500 5.5620430208e+00 1.7919147968e-04 1.8301316278e+00 -3.1698809638e+00 1.8301316278e+00 3.1698809638e+00 
48600 5.5620431121e+00 1.7745170615e-04 1.8301267322e+00 -3.1698724844e+00 1.8301267322e+00 3.1698724844e+00 
48700 5.5620432022e+00 1.7574681824e-04 1.8301218841e+00 -3.1698640873e+00 1.8301218841e+00 3.1698640873e+00 
48800 5.5620432911e+00 1.7407290409e-04 1.8301170826e+00 -3.1698557709e+00 1.8301170826e+00 3.1698557709e+00 
48900 5.5620433789e+00 1.7242624588e-04 1.8301123268e+00 -3.1698475336e+00 1.8301123268e+00 3.1698475336e+00 
49000 5.5620434655e+00 1.7080331880e-04 1.8301076160e+00 -3.1698393743e+00 1.8301076160e+00 3.1698393743e+00 
49100 5.5620435510e+00 1.6920078967e-04 1.8301029495e+00 -3.1698312917e+00 1.8301029495e+00 3.1698312917e+00 
49200 5.5620436353e+00 1.6761551530e-04 1.8300983268e+00 -3.1698232849e+00 1.8300983268e+00 3.1698232849e+00 
49300 5.5620437185e+00 1.6604454036e-04 1.8300937474e+00 -3.1698153531e+00 1.8300937474e+00 3.1698153531e+00 
49400 5.5620438007e+00 1.6448509508e-04 1.8300892109e+00 -3.1698074957e+00 1.8300892109e+00 3.1698074957e+00 
49500 5.5620438817e+00 1.6293459250e-04 1.8300847170e+00 -3.1697997120e+00 1.8300847170e+00 3.1697997120e+00 
49600 5.5620439616e+00 1.6139062557e-04 1.8300802655e+00 -3.1697920017e+00 1.8300802655e+00 3.1697920017e+00 
49700 5.5620440405e+00 1.5985096391e-04 1.8300758561e+00 -3.1697843644e+00 1.8300758561e+00 3.1697843644e+00 
49800 5.5620441184e+00 1.5831355031e-04 1.8300714887e+00 -3.1697768000e+00 1.8300714887e+00 3.1697768000e+00 
49900 5.5620441952e+00 1.5677649704e-04 1.8300671634e+00 -3.1697693083e+00 1.8300671634e+00 3.1697693083e+00 
50000 5.5620442710e+00 1.5523808191e-04 1.8300628801e+00 -3.1697618893e+00 1.8300628801e+00 3.1697618893e+00 
50100 5.5620443458e+00 1.5369674417e-04 1.8300586387e+00 -3.1697545431e+00 1.8300586387e+00 3.1697545431e+00 
50200 5.5620444195e+00 1.5215108015e-04 1.8300544395e+00 -3.1697472698e+00 1.8300544395e+00 3.1697472698e+00 
50300 5.5620444923e+00 1.5059983883e-04 1.8300502825e+00 -3.1697400697e+00 1.8300502825e+00 3.1697400697e+00 
50400 5.5620445642e+00 1.4904191719e-04 1.8300461678e+00 -3.1697329429e+00 1.8300461678e+00 3.1697329429e+00 
50500 5.5620446351e+00 1.4747635546e-04 1.8300420958e+00 -3.1697258899e+00 1.8300420958e+00 3.1697258899e+00 
50600 5.5620447050e+00 1.4590233224e-04 1.8300380665e+00 -3.1697189109e+00 1.8300380665e+00 3.1697189109e+00 
50700 5.5620447740e+00 1.4431915953e-04 1.8300340801e+00 -3.1697120064e+00 1.8300340801e+00 3.1697120064e+00 
50800 5.5620448421e+00 1.4272627764e-04 1.8300301371e+00 -3.1697051768e+00 1.8300301371e+00 3.1697051768e+00 
50900 5.5620449094e+00 1.4112325009e-04 1.8300262375e+00 -3.1696984225e+00 1.8300262375e+00 3.1696984225e+00 
51000 5.5620449757e+00 1.3950975835e-04 1.8300223817e+00 -3.1696917442e+00 1.8300223817e+00 3.1696917442e+00 
51100 5.5620450411e+00 1.3788559668e-04 1.8300185700e+00 -3.1696851421e+00 1.8300185700e+00 3.1696851421e+00 
51200 5.5620451057e+00 1.3625066677e-04 1.8300148027e+00 -3.1696786169e+00 1.8300148027e+00 3.1696786169e+00 
51300 5.5620451695e+00 1.3460497252e-04 1.8300110801e+00 -3.1696721691e+00 1.8300110801e+00 3.1696721691e+00 
51400 5.5620452324e+00 1.3294861467e-04 1.8300074023e+00 -3.1696657991e+00 1.8300074023e+00 3.1696657991e+00 
51500 5.5620452945e+00 1.3128178560e-04 1.8300037699e+00 -3.1696595075e+00 1.8300037699e+00 3.1696595075e+00 
51600 5.5620453557e+00 1.2960476396e-04 1.8300001830e+00 -3.1696532947e+00 1.8300001830e+00 3.1696532947e+00 
51700 5.5620454162e+00 1.2791790950e-04 1.8299966418e+00 -3.1696471614e+00 1.8299966418e+00 3.1696471614e+00 
51800 5.5620454759e+00 1.2622165781e-04 1.8299931468e+00 -3.1696411078e+00 1.8299931468e+00 3.1696411078e+00 
51900 5.5620455348e+00 1.2451651520e-04 1.8299896981e+00 -3.1696351345e+00 1.8299896981e+00 3.1696351345e+00 
52000 5.5620455930e+00 1.2280305361e-04 1.8299862960e+00 -3.1696292419e+00 1.8299862960e+00 3.1696292419e+00 
52100 5.5620456503e+00 1.2108190554e-04 1.8299829407e+00 -3.1696234303e+00 1.8299829407e+00 3.1696234303e+00 
52200 5.5620457070e+00 1.1935375915e-04 1.8299796324e+00 -3.1696177002e+00 1.8299796324e+00 3.1696177002e+00 
52300 5.5620457629e+00 1.1761935334e-04 1.8299763714e+00 -3.1696120519e+00 1.8299763714e+00 3.1696120519e+00 
52400 5.5620458181e+00 1.1587947303e-04 1.8299731577e+00 -3.1696064856e+00 1.8299731577e+00 3.1696064856e+00 
52500 5.5620458726e+00 1.1413494446e-04 1.8299699915e+00 -3.1696010017e+00 1.8299699915e+00 3.1696010017e+00 
52600 5.5620459264e+00 1.1238663062e-04 1.8299668730e+00 -3.1695956003e+00 1.8299668730e+00 3.1695956003e+00 
52700 5.5620459795e+00 1.1063542681e-04 1.8299638023e+00 -3.1695902816e+00 1.8299638023e+00 3.1695902816e+00 
52800 5.5620460319e+00 1.0888225630e-04 1.8299607794e+00 -3.1695850458e+00 1.8299607794e+00 3.1695850458e+00 
52900 5.5620460836e+00 1.0712806610e-04 1.8299578044e+00 -3.1695798930e+00 1.8299578044e+00 3.1695798930e+00 
53000 5.5620461347e+00 1.0537382289e-04 1.8299548774e+00 -3.1695748232e+00 1.8299548774e+00 3.1695748232e+00 
53100 5.5620461851e+00 1.0362050908e-04 1.8299519982e+00 -3.1695698364e+00 1.8299519982e+00 3.1695698364e+00 
53200 5.5620462348e+00 1.0186911895e-04 1.8299491670e+00 -3.1695649325e+00 1.8299491670e+00 3.1695649325e+00 
53300 5.5620462840e+00 1.0012065500e-04 1.8299463836e+00 -3.1695601116e+00 1.8299463836e+00 3.1695601116e+00 
53400 5.5620463324e+00 9.8376124421e-05 1.8299436480e+00 -3.1695553733e+00 1.8299436480e+00 3.1695553733e+00 
53500 5.5620463803e+00 9.6636535671e-05 1.8299409601e+00 -3.1695507177e+00 1.8299409601e+00 3.1695507177e+00 
53600 5.5620464276e+00 9.4902895242e-05 1.8299383196e+00 -3.1695461443e+00 1.8299383196e+00 3.1695461443e+00 
53700 5.5620464742e+00 9.3176204559e-05 1.8299357266e+00 -3.1695416530e+00 1.8299357266e+00 3.1695416530e+00 
53800 5.5620465202e+00 9.1457457021e-05 1.8299331807e+00 -3.1695372434e+00 1.8299331807e+00 3.1695372434e+00 
53900 5.5620465657e+00 8.9747635203e-05 1.8299306817e+00 -3.1695329151e+00 1.8299306817e+00 3.1695329151e+00 
54000 5.5620466106e+00 8.8047708198e-05 1.8299282295e+00 -3.1695286678e+00 1.8299282295e+00 3.1695286678e+00 
54100 5.5620466549e+00 8.6358629113e-05 1.8299258238e+00 -3.1695245008e+00 1.8299258238e+00 3.1695245008e+00 
54200 5.5620466986e+00 8.4681332712e-05 1.8299234641e+00 -3.1695204139e+00 1.8299234641e+00 3.1695204139e+00 
54300 5.5620467417e+00 8.3016733209e-05 1.8299211504e+00 -3.1695164063e+00 1.8299211504e+00 3.1695164063e+00 
54400 5.5620467843e+00 8.1365722213e-05 1.8299188820e+00 -3.1695124774e+00 1.8299188820e+00 3.1695124774e+00 
54500 5.5620468264e+00 7.9729166808e-05 1.8299166588e+00 -3.1695086267e+00 1.8299166588e+00 3.1695086267e+00 
54600 5.5620468679e+00 7.8107907792e-05 1.8299144803e+00 -3.1695048535e+00 1.8299144803e+00 3.1695048535e+00 
54700 5.5620469089e+00 7.6502758043e-05 1.8299123461e+00 -3.1695011569e+00 1.8299123461e+00 3.1695011569e+00 
54800 5.5620469493e+00 7.4914501042e-05 1.8299102558e+00 -3.1694975363e+00 1.8299102558e+00 3.1694975363e+00 
54900 5.5620469892e+00 7.3343889528e-05 1.8299082089e+00 -3.1694939909e+00 1.8299082089e+00 3.1694939909e+00 
55000 5.5620470286e+00 7.1791644280e-05 1.8299062048e+00 -3.1694905199e+00 1.8299062048e+00 3.1694905199e+00 
55100 5.5620470675e+00 7.0258453048e-05 1.8299042432e+00 -3.1694871222e+00 1.8299042432e+00 3.1694871222e+00 
55200 5.5620471061e+00 7.0001333759e-05 1.8299042432e+00 -3.1694871222e+00 1.8299042432e+00 3.1694871222e+00 
55300 5.5620471441e+00 6.9745037603e-05 1.8299042432e+00 -3.1694871222e+00 1.8299042432e+00 3.1694871222e+00 
55400 5.5620471816e+00 6.9490439064e-05 1.8299042432e+00 -3.1694871222e+00 1.8299042432e+00 3.1694871222e+00 
55500 5.5620472187e+00 6.9238371471e-05 1.8299042432e+00 -3.1694871222e+00 1.8299042432e+00 3.1694871222e+00 
55600 5.5620472553e+00 6.8989626525e-05 1.8299042432e+00 -3.1694871222e+00 1.8299042432e+00 3.1694871222e+00 
55700 5.5620472913e+00 6.8744953963e-05 1.8299042432e+00 -3.1694871222e+00 1.8299042432e+00 3.1694871222e+00 
55800 5.5620473269e+00 6.8505061356e-05 1.8299042432e+00 -3.1694871222e+00 1.8299042432e+00 3.1694871222e+00 
55900 5.5620473621e+00 6.8270614018e-05 1.8299042432e+00 -3.1694871222e+00 1.8299042432e+00 3.1694871222e+00 
56000 5.5620473968e+00 6.8042235049e-05 1.8299042432e+00 -3.1694871222e+00 1.8299042432e+00 3.1694871222e+00 
56100 5.5620474310e+00 6.7820505465e-05 1.8299042432e+00 -3.1694871222e+00 1.8299042432e+00 3.1694871222e+00 
56200 5.5620474648e+00 6.7605964454e-05 1.8299042432e+00 -3.1694871222e+00 1.8299042432e+00 3.1694871222e+00 
56300 5.5620474981e+00 6.7399109722e-05 1.8299042432e+00 -3.1694871222e+00 1.8299042432e+00 3.1694871222e+00 
56400 5.5620475310e+00 6.7200397930e-05 1.8299042432e+00 -3.1694871222e+00 1.8299042432e+00 3.1694871222e+00 
56500 5.5620475635e+00 6.7010245227e-05 1.8299042432e+00 -3.1694871222e+00 1.8299042432e+00 3.1694871222e+00 
56600 5.5620475956e+00 6.6829027855e-05 1.8299042432e+00 -3.1694871222e+00 1.8299042432e+00 3.1694871222e+00 
56700 5.5620476272e+00 6.6657082840e-05 1.8299042432e+00 -3.1694871222e+00 1.8299042432e+00 3.1694871222e+00 
56800 5.5620476584e+00 6.6494708751e-05 1.8299042432e+00 -3.1694871222e+00 1.8299042432e+00 3.1694871222e+00 
56900 5.5620476892e+00 6.6342166518e-05 1.8299042432e+00 -3.1694871222e+00 1.8299042432e+00 3.1694871222e+00 
57000 5.5620477197e+00 6.6199680328e-05 1.8299042432e+00 -3.1694871222e+00 1.8299042432e+00 3.1694871222e+00 
57100 5.5620477497e+00 6.6067438560e-05 1.8299042432e+00 -3.1694871222e+00 1.8299042432e+00 3.1694871222e+00 
57200 5.5620477793e+00 6.5945594775e-05 1.8299042432e+00 -3.1694871222e+00 1.8299042432e+00 3.1694871222e+00 
57300 5.5620478086e+00 6.5834268763e-05 1.8299042432e+00 -3.1694871222e+00 1.8299042432e+00 3.1694871222e+00 
57400 5.5620478374e+00 6.5733547617e-05 1.8299042432e+00 -3.1694871222e+00 1.8299042432e+00 3.1694871222e+00 
57500 5.5620478659e+00 6.5643486847e-05 1.8299042432e+00 -3.1694871222e+00 1.8299042432e+00 3.1694871222e+00 
57600 5.5620478940e+00 6.5564111537e-05 1.8299042432e+00 -3.1694871222e+00 1.8299042432e+00 3.1694871222e+00 
57700 5.5620479218e+00 6.5495417513e-05 1.8299042432e+00 -3.1694871222e+00 1.8299042432e+00 3.1694871222e+00 
57800 5.5620479492e+00 6.5437372552e-05 1.8299042432e+00 -3.1694871222e+00 1.8299042432e+00 3.1694871222e+00 
57900 5.5620479762e+00 6.5389917593e-05 1.8299042432e+00 -3.1694871222e+00 1.8299042432e+00 3.1694871222e+00 
58000 5.5620480029e+00 6.5352967980e-05 1.8299042432e+00 -3.1694871222e+00 1.8299042432e+00 3.1694871222e+00 
58100 5.5620480293e+00 6.5326414704e-05 1.8299042432e+00 -3.1694871222e+00 1.8299042432e+00 3.1694871222e+00 
58200 5.5620480553e+00 6.5310125665e-05 1.8299042432e+00 -3.1694871222e+00 1.8299042432e+00 3.1694871222e+00 
58300 5.5620480810e+00 6.5303946929e-05 1.8299042432e+00 -3.1694871222e+00 1.8299042432e+00 3.1694871222e+00 
58400 5.5620481063e+00 6.5307703990e-05 1.8299042432e+00 -3.1694871222e+00 1.8299042432e+00 3.1694871222e+00 
58500 5.5620481314e+00 6.5321203033e-05 1.8299042432e+00 -3.1694871222e+00 1.8299042432e+00 3.1694871222e+00 
58600 5.5620481561e+00 6.5344232186e-05 1.8299042432e+00 -3.1694871222e+00 1.8299042432e+00 3.1694871222e+00 
58700 5.5620481804e+00 6.5376562772e-05 1.8299042432e+00 -3.1694871222e+00 1.8299042432e+00 3.1694871222e+00 
58800 5.5620482045e+00 6.5417950545e-05 1.8299042432e+00 -3.1694871222e+00 1.8299042432e+00 3.1694871222e+00 
58900 5.5620482283e+00 6.5468136914e-05 1.8299042432e+00 -3.1694871222e+00 1.8299042432e+00 3.1694871222e+00 
59000 5.5620482517e+00 6.5526850151e-05 1.8299042432e+00 -3.1694871222e+00 1.8299042432e+00 3.1694871222e+00 
59100 5.5620482749e+00 6.5593806589e-05 1.8299042432e+00 -3.1694871222e+00 1.8299042432e+00 3.1694871222e+00 
59200 5.5620482977e+00 6.5668711782e-05 1.8299042432e+00 -3.1694871222e+00 1.8299042432e+00 3.1694871222e+00 
59300 5.5620483203e+00 6.5751261668e-05 1.8299042432e+00 -3.1694871222e+00 1.8299042432e+00 3.1694871222e+00 
59400 5.5620483426e+00 6.5841143683e-05 1.8299042432e+00 -3.1694871222e+00 1.8299042432e+00 3.1694871222e+00 
59500 5.5620483646e+00 6.5938037866e-05 1.8299042432e+00 -3.1694871222e+00 1.8299042432e+00 3.1694871222e+00 
59600 5.5620483863e+00 6.6041617936e-05 1.8299042432e+00 -3.1694871222e+00 1.8299042432e+00 3.1694871222e+00 
59700 5.5620484077e+00 6.6151552330e-05 1.8299042432e+00 -3.1694871222e+00 1.8299042432e+00 3.1694871222e+00 
59800 5.5620484289e+00 6.6267505216e-05 1.8299042432e+00 -3.1694871222e+00 1.8299042432e+00 3.1694871222e+00 
59900 5.5620484498e+00 6.6389137487e-05 1.8299042432e+00 -3.1694871222e+00 1.8299042432e+00 3.1694871222e+00 
60000 5.5620484704e+00 6.6516107700e-05 1.8299042432e+00 -3.1694871222e+00 1.8299042432e+00 3.1694871222e+00 
60100 5.5620484907e+00 6.6648073002e-05 1.8299042432e+00 -3.1694871222e+00 1.8299042432e+00 3.1694871222e+00 
60200 5.5620485108e+00 6.6784690009e-05 1.8299042432e+00 -3.1694871222e+00 1.8299042432e+00 3.1694871222e+00 
60300 5.5620485307e+00 6.6925615659e-05 1.8299042432e+00 -3.1694871222e+00 1.8299042432e+00 3.1694871222e+00 
60400 5.5620485502e+00 6.7070508023e-05 1.8299042432e+00 -3.1694871222e+00 1.8299042432e+00 3.1694871222e+00 
60500 5.5620485696e+00 6.7219027087e-05 1.8299042432e+00 -3.1694871222e+00 1.8299042432e+00 3.1694871222e+00 
60600 5.5620485887e+00 6.7370835489e-05 1.8299042432e+00 -3.1694871222e+00 1.8299042432e+00 3.1694871222e+00 
60700 5.5620486075e+00 6.7525599229e-05 1.8299042432e+00 -3.1694871222e+00 1.8299042432e+00 3.1694871222e+00 
60800 5.5620486261e+00 6.7682988335e-05 1.8299042432e+00 -3.1694871222e+00 1.8299042432e+00 3.1694871222e+00 
60900 5.5620486445e+00 6.7842677497e-05 1.8299042432e+00 -3.1694871222e+00 1.8299042432e+00 3.1694871222e+00 
61000 5.5620486626e+00 6.8004346665e-05 1.8299042432e+00 -3.1694871222e+00 1.8299042432e+00 3.1694871222e+00 
61100 5.5620486805e+00 6.8167681603e-05 1.8299042432e+00 -3.1694871222e+00 1.8299042432e+00 3.1694871222e+00 
61200 5.5620486982e+00 6.8332374416e-05 1.8299042432e+00 -3.1694871222e+00 1.8299042432e+00 3.1694871222e+00 
61300 5.5620487156e+00 6.8498124034e-05 1.8299042432e+00 -3.1694871222e+00 1.8299042432e+00 3.1694871222e+00 
61400 5.5620487329e+00 6.8664636663e-05 1.8299042432e+00 -3.1694871222e+00 1.8299042432e+00 3.1694871222e+00 
61500 5.5620487499e+00 6.8831626206e-05 1.8299042432e+00 -3.1694871222e+00 1.8299042432e+00 3.1694871222e+00 
61600 5.5620487667e+00 6.8998814634e-05 1.8299042432e+00 -3.1694871222e+00 1.8299042432e+00 3.1694871222e+00 
61700 5.5620487832e+00 6.9165932338e-05 1.8299042432e+00 -3.1694871222e+00 1.8299042432e+00 3.1694871222e+00 
61800 5.5620487996e+00 6.9332718442e-05 1.8299042432e+00 -3.1694871222e+00 1.8299042432e+00 3.1694871222e+00 
61900 5.5620488157e+00 6.9498921079e-05 1.8299042432e+00 -3.1694871222e+00 1.8299042432e+00 3.1694871222e+00 
62000 5.5620488317e+00 6.9664297640e-05 1.8299042432e+00 -3.1694871222e+00 1.8299042432e+00 3.1694871222e+00 
62100 5.5620488474e+00 6.9828614991e-05 1.8299042432e+00 -3.1694871222e+00 1.8299042432e+00 3.1694871222e+00 
62200 5.5620488630e+00 6.9991649649e-05 1.8299042432e+00 -3.1694871222e+00 1.8299042432e+00 3.1694871222e+00 
62300 5.5620488783e+00 7.0153187947e-05 1.8299042432e+00 -3.1694871222e+00 1.8299042432e+00 3.1694871222e+00 
62400 5.5620488935e+00 7.0313026150e-05 1.8299042432e+00 -3.1694871222e+00 1.8299042432e+00 3.1694871222e+00 
62500 5.5620489084e+00 7.0470970560e-05 1.8299042432e+00 -3.1694871222e+00 1.8299042432e+00 3.1694871222e+00 
62600 5.5620489232e+00 7.0626837575e-05 1.8299042432e+00 -3.1694871222e+00 1.8299042432e+00 3.1694871222e+00 
62700 5.5620489378e+00 7.0780453742e-05 1.8299042432e+00 -3.1694871222e+00 1.8299042432e+00 3.1694871222e+00 
62800 5.5620489520e+00 6.9665980028e-05 1.8299023092e+00 -3.1694837725e+00 1.8299023092e+00 3.1694837725e+00 
62900 5.5620489663e+00 6.9806998677e-05 1.8299023092e+00 -3.1694837725e+00 1.8299023092e+00 3.1694837725e+00 
63000 5.5620489803e+00 6.9945215824e-05 1.8299023092e+00 -3.1694837725e+00 1.8299023092e+00 3.1694837725e+00 
63100 5.5620489942e+00 7.0080514430e-05 1.8299023092e+00 -3.1694837725e+00 1.8299023092e+00 3.1694837725e+00 
63200 5.5620490078e+00 7.0212787249e-05 1.8299023092e+00 -3.1694837725e+00 1.8299023092e+00 3.1694837725e+00 
63300 5.5620490213e+00 7.0341936688e-05 1.8299023092e+00 -3.1694837725e+00 1.8299023092e+00 3.1694837725e+00 
63400 5.5620490347e+00 7.0467874661e-05 1.8299023092e+00 -3.1694837725e+00 1.8299023092e+00 3.1694837725e+00 
63500 5.5620490478e+00 7.0590522417e-05 1.8299023092e+00 -3.1694837725e+00 1.8299023092e+00 3.1694837725e+00 
63600 5.5620490608e+00 7.0709810359e-05 1.8299023092e+00 -3.1694837725e+00 1.8299023092e+00 3.1694837725e+00 
63700 5.5620490737e+00 7.0825677851e-05 1.8299023092e+00 -3.1694837725e+00 1.8299023092e+00 3.1694837725e+00 
63800 5.5620490862e+00 6.9671579449e-05 1.8299003740e+00 -3.1694804205e+00 1.8299003740e+00 3.1694804205e+00 
63900 5.5620490987e+00 6.9772838089e-05 1.8299003740e+00 -3.1694804205e+00 1.8299003740e+00 3.1694804205e+00 
64000 5.5620491111e+00 6.9870454728e-05 1.8299003740e+00 -3.1694804205e+00 1.8299003740e+00 3.1694804205e+00 
64100 5.5620491233e+00 6.9964418299e-05 1.8299003740e+00 -3.1694804205e+00 1.8299003740e+00 3.1694804205e+00 
64200 5.5620491353e+00 7.0054725345e-05 1.8299003740e+00 -3.1694804205e+00 1.8299003740e+00 3.1694804205e+00 
64300 5.5620491472e+00 7.0141379728e-05 1.8299003740e+00 -3.1694804205e+00 1.8299003740e+00 3.1694804205e+00 
64400 5.5620491589e+00 7.0224392325e-05 1.8299003740e+00 -3.1694804205e+00 1.8299003740e+00 3.1694804205e+00 
64500 5.5620491705e+00 7.0303780724e-05 1.8299003740e+00 -3.1694804205e+00 1.8299003740e+00 3.1694804205e+00 
64600 5.5620491820e+00 7.0379568923e-05 1.8299003740e+00 -3.1694804205e+00 1.8299003740e+00 3.1694804205e+00 
64700 5.5620491933e+00 7.0451787017e-05 1.8299003740e+00 -3.1694804205e+00 1.8299003740e+00 3.1694804205e+00 
64800 5.5620492044e+00 7.0520470895e-05 1.8299003740e+00 -3.1694804205e+00 1.8299003740e+00 3.1694804205e+00 
64900 5.5620492155e+00 7.0585661929e-05 1.8299003740e+00 -3.1694804205e+00 1.8299003740e+00 3.1694804205e+00 
65000 5.5620492263e+00 7.0647406667e-05 1.8299003740e+00 -3.1694804205e+00 1.8299003740e+00 3.1694804205e+00 
65100 5.5620492371e+00 7.0705756532e-05 1.8299003740e+00 -3.1694804205e+00 1.8299003740e+00 3.1694804205e+00 
65200 5.5620492477e+00 7.0760767504e-05 1.8299003740e+00 -3.1694804205e+00 1.8299003740e+00 3.1694804205e+00 
65300 5.5620492580e+00 6.9547156929e-05 1.8298984405e+00 -3.1694770717e+00 1.8298984405e+00 3.1694770717e+00 
65400 5.5620492684e+00 6.9588061209e-05 1.8298984405e+00 -3.1694770717e+00 1.8298984405e+00 3.1694770717e+00 
65500 5.5620492786e+00 6.9625727751e-05 1.8298984405e+00 -3.1694770717e+00 1.8298984405e+00 3.1694770717e+00 
65600 5.5620492887e+00 6.9660243713e-05 1.8298984405e+00 -3.1694770717e+00 1.8298984405e+00 3.1694770717e+00 
65700 5.5620492986e+00 6.9691699135e-05 1.8298984405e+00 -3.1694770717e+00 1.8298984405e+00 3.1694770717e+00 
65800 5.5620493084e+00 6.9720186619e-05 1.8298984405e+00 -3.1694770717e+00 1.8298984405e+00 3.1694770717e+00 
65900 5.5620493182e+00 6.9745801011e-05 1.8298984405e+00 -3.1694770717e+00 1.8298984405e+00 3.1694770717e+00 
66000 5.5620493277e+00 6.9768639094e-05 1.8298984405e+00 -3.1694770717e+00 1.8298984405e+00 3.1694770717e+00 
66100 5.5620493372e+00 6.9788799293e-05 1.8298984405e+00 -3.1694770717e+00 1.8298984405e+00 3.1694770717e+00 
66200 5.5620493466e+00 6.9806381381e-05 1.8298984405e+00 -3.1694770717e+00 1.8298984405e+00 3.1694770717e+00 
66300 5.5620493558e+00 6.9821486204e-05 1.8298984405e+00 -3.1694770717e+00 1.8298984405e+00 3.1694770717e+00 
66400 5.5620493649e+00 6.9834215411e-05 1.8298984405e+00 -3.1694770717e+00 1.8298984405e+00 3.1694770717e+00 
66500 5.5620493739e+00 6.9844671193e-05 1.8298984405e+00 -3.1694770717e+00 1.8298984405e+00 3.1694770717e+00 
66600 5.5620493828e+00 6.9852956033e-05 1.8298984405e+00 -3.1694770717e+00 1.8298984405e+00 3.1694770717e+00 
66700 5.5620493916e+00 6.9859172466e-05 1.8298984405e+00 -3.1694770717e+00 1.8298984405e+00 3.1694770717e+00 
66800 5.5620494003e+00 6.9863422855e-05 1.8298984405e+00 -3.1694770717e+00 1.8298984405e+00 3.1694770717e+00 
66900 5.5620494088e+00 6.9865809161e-05 1.8298984405e+00 -3.1694770717e+00 1.8298984405e+00 3.1694770717e+00 
67000 5.5620494173e+00 6.9866432743e-05 1.8298984405e+00 -3.1694770717e+00 1.8298984405e+00 3.1694770717e+00 
67100 5.5620494256e+00 6.9865394155e-05 1.8298984405e+00 -3.1694770717e+00 1.8298984405e+00 3.1694770717e+00 
67200 5.5620494339e+00 6.9862792960e-05 1.8298984405e+00 -3.1694770717e+00 1.8298984405e+00 3.1694770717e+00 
67300 5.5620494420e+00 6.9858727547e-05 1.8298984405e+00 -3.1694770717e+00 1.8298984405e+00 3.1694770717e+00 
67400 5.5620494500e+00 6.9853294971e-05 1.8298984405e+00 -3.1694770717e+00 1.8298984405e+00 3.1694770717e+00 
67500 5.5620494580e+00 6.9846590788e-05 1.8298984405e+00 -3.1694770717e+00 1.8298984405e+00 3.1694770717e+00 
67600 5.5620494658e+00 6.9838708909e-05 1.8298984405e+00 -3.1694770717e+00 1.8298984405e+00 3.1694770717e+00 
67700 5.5620494736e+00 6.9829741464e-05 1.8298984405e+00 -3.1694770717e+00 1.8298984405e+00 3.1694770717e+00 
67800 5.5620494812e+00 6.9819778675e-05 1.8298984405e+00 -3.1694770717e+00 1.8298984405e+00 3.1694770717e+00 
67900 5.5620494888e+00 6.9808908734e-05 1.8298984405e+00 -3.1694770717e+00 1.8298984405e+00 3.1694770717e+00 
68000 5.5620494962e+00 6.9797217698e-05 1.8298984405e+00 -3.1694770717e+00 1.8298984405e+00 3.1694770717e+00 
68100 5.5620495036e+00 6.9784789386e-05 1.8298984405e+00 -3.1694770717e+00 1.8298984405e+00 3.1694770717e+00 
68200 5.5620495109e+00 6.9771705296e-05 1.8298984405e+00 -3.1694770717e+00 1.8298984405e+00 3.1694770717e+00 
68300 5.5620495180e+00 6.9758044516e-05 1.8298984405e+00 -3.1694770717e+00 1.8298984405e+00 3.1694770717e+00 
68400 5.5620495251e+00 6.9743883658e-05 1.8298984405e+00 -3.1694770717e+00 1.8298984405e+00 3.1694770717e+00 
68500 5.5620495321e+00 6.9729296792e-05 1.8298984405e+00 -3.1694770717e+00 1.8298984405e+00 3.1694770717e+00 
68600 5.5620495391e+00 6.9714355393e-05 1.8298984405e+00 -3.1694770717e+00 1.8298984405e+00 3.1694770717e+00 
68700 5.5620495459e+00 6.9699128292e-05 1.8298984405e+00 -3.1694770717e+00 1.8298984405e+00 3.1694770717e+00 
68800 5.5620495526e+00 6.9683681638e-05 1.8298984405e+00 -3.1694770717e+00 1.8298984405e+00 3.1694770717e+00 
68900 5.5620495593e+00 6.9668078869e-05 1.8298984405e+00 -3.1694770717e+00 1.8298984405e+00 3.1694770717e+00 
69000 5.5620495659e+00 6.9652380684e-05 1.8298984405e+00 -3.1694770717e+00 1.8298984405e+00 3.1694770717e+00 
69100 5.5620495724e+00 6.9636645032e-05 1.8298984405e+00 -3.1694770717e+00 1.8298984405e+00 3.1694770717e+00 
69200 5.5620495788e+00 6.9620927100e-05 1.8298984405e+00 -3.1694770717e+00 1.8298984405e+00 3.1694770717e+00 
69300 5.5620495851e+00 6.9605279309e-05 1.8298984405e+00 -3.1694770717e+00 1.8298984405e+00 3.1694770717e+00 
69400 5.5620495914e+00 6.9589751318e-05 1.8298984405e+00 -3.1694770717e+00 1.8298984405e+00 3.1694770717e+00 
69500 5.5620495976e+00 6.9574390036e-05 1.8298984405e+00 -3.1694770717e+00 1.8298984405e+00 3.1694770717e+00 
69600 5.5620496037e+00 6.9559239633e-05 1.8298984405e+00 -3.1694770717e+00 1.8298984405e+00 3.1694770717e+00 
69700 5.5620496097e+00 6.9544341569e-05 1.8298984405e+00 -3.1694770717e+00 1.8298984405e+00 3.1694770717e+00 
69800 5.5620496157e+00 6.9529734608e-05 1.8298984405e+00 -3.1694770717e+00 1.8298984405e+00 3.1694770717e+00 
69900 5.5620496215e+00 6.9515454860e-05 1.8298984405e+00 -3.1694770717e+00 1.8298984405e+00 3.1694770717e+00 
70000 5.5620496274e+00 6.9501535814e-05 1.8298984405e+00 -3.1694770717e+00 1.8298984405e+00 3.1694770717e+00 
70100 5.5620496331e+00 6.9488008377e-05 1.8298984405e+00 -3.1694770717e+00 1.8298984405e+00 3.1694770717e+00 
70200 5.5620496388e+00 6.9474900915e-05 1.8298984405e+00 -3.1694770717e+00 1.8298984405e+00 3.1694770717e+00 
70300 5.5620496444e+00 6.9462239311e-05 1.8298984405e+00 -3.1694770717e+00 1.8298984405e+00 3.1694770717e+00 
70400 5.5620496499e+00 6.9450047007e-05 1.8298984405e+00 -3.1694770717e+00 1.8298984405e+00 3.1694770717e+00 
70500 5.5620496553e+00 6.9438345066e-05 1.8298984405e+00 -3.1694770717e+00 1.8298984405e+00 3.1694770717e+00 
70600 5.5620496607e+00 6.9427152225e-05 1.8298984405e+00 -3.1694770717e+00 1.8298984405e+00 3.1694770717e+00 
70700 5.5620496661e+00 6.9416484962e-05 1.8298984405e+00 -3.1694770717e+00 1.8298984405e+00 3.1694770717e+00 
70800 5.5620496713e+00 6.9406357554e-05 1.8298984405e+00 -3.1694770717e+00 1.8298984405e+00 3.1694770717e+00 
70900 5.5620496765e+00 6.9396782146e-05 1.8298984405e+00 -3.1694770717e+00 1.8298984405e+00 3.1694770717e+00 
71000 5.5620496816e+00 6.9387768821e-05 1.8298984405e+00 -3.1694770717e+00 1.8298984405e+00 3.1694770717e+00 
71100 5.5620496867e+00 6.9379325660e-05 1.8298984405e+00 -3.1694770717e+00 1.8298984405e+00 3.1694770717e+00 
71200 5.5620496917e+00 6.9371458829e-05 1.8298984405e+00 -3.1694770717e+00 1.8298984405e+00 3.1694770717e+00 
71300 5.5620496967e+00 6.9364172638e-05 1.8298984405e+00 -3.1694770717e+00 1.8298984405e+00 3.1694770717e+00 
71400 5.5620497015e+00 6.9357469622e-05 1.8298984405e+00 -3.1694770717e+00 1.8298984405e+00 3.1694770717e+00 
71500 5.5620497064e+00 6.9351350610e-05 1.8298984405e+00 -3.1694770717e+00 1.8298984405e+00 3.1694770717e+00 
71600 5.5620497111e+00 6.9345814810e-05 1.8298984405e+00 -3.1694770717e+00 1.8298984405e+00 3.1694770717e+00 
71700 5.5620497158e+00 6.9340859873e-05 1.8298984405e+00 -3.1694770717e+00 1.8298984405e+00 3.1694770717e+00 
71800 5.5620497205e+00 6.9336481977e-05 1.8298984405e+00 -3.1694770717e+00 1.8298984405e+00 3.1694770717e+00 
71900 5.5620497251e+00 6.9332675904e-05 1.8298984405e+00 -3.1694770717e+00 1.8298984405e+00 3.1694770717e+00 
72000 5.5620497296e+00 6.9329435108e-05 1.8298984405e+00 -3.1694770717e+00 1.8298984405e+00 3.1694770717e+00 
72100 5.5620497341e+00 6.9326751798e-05 1.8298984405e+00 -3.1694770717e+00 1.8298984405e+00 3.1694770717e+00 
72200 5.5620497385e+00 6.9324617015e-05 1.8298984405e+00 -3.1694770717e+00 1.8298984405e+00 3.1694770717e+00 
72300 5.5620497429e+00 6.9323020701e-05 1.8298984405e+00 -3.1694770717e+00 1.8298984405e+00 3.1694770717e+00 
72400 5.5620497472e+00 6.9321951775e-05 1.8298984405e+00 -3.1694770717e+00 1.8298984405e+00 3.1694770717e+00 
72500 5.5620497514e+00 6.9321398211e-05 1.8298984405e+00 -3.1694770717e+00 1.8298984405e+00 3.1694770717e+00 
72600 5.5620497556e+00 6.9321347102e-05 1.8298984405e+00 -3.1694770717e+00 1.8298984405e+00 3.1694770717e+00 
72700 5.5620497598e+00 6.9321784740e-05 1.8298984405e+00 -3.1694770717e+00 1.8298984405e+00 3.1694770717e+00 
72800 5.5620497639e+00 6.9322696681e-05 1.8298984405e+00 -3.1694770717e+00 1.8298984405e+00 3.1694770717e+00 
72900 5.5620497680e+00 6.9324067815e-05 1.8298984405e+00 -3.1694770717e+00 1.8298984405e+00 3.1694770717e+00 
73000 5.5620497720e+00 6.9325882434e-05 1.8298984405e+00 -3.1694770717e+00 1.8298984405e+00 3.1694770717e+00 
73100 5.5620497759e+00 6.9328124297e-05 1.8298984405e+00 -3.1694770717e+00 1.8298984405e+00 3.1694770717e+00 
73200 5.5620497798e+00 6.9330776694e-05 1.8298984405e+00 -3.1694770717e+00 1.8298984405e+00 3.1694770717e+00 
73300 5.5620497837e+00 6.9333822508e-05 1.8298984405e+00 -3.1694770717e+00 1.8298984405e+00 3.1694770717e+00 
73400 5.5620497875e+00 6.9337244279e-05 1.8298984405e+00 -3.1694770717e+00 1.8298984405e+00 3.1694770717e+00 
73500 5.5620497913e+00 6.9341024258e-05 1.8298984405e+00 -3.1694770717e+00 1.8298984405e+00 3.1694770717e+00 
73600 5.5620497950e+00 6.9345144467e-05 1.8298984405e+00 -3.1694770717e+00 1.8298984405e+00 3.1694770717e+00 
73700 5.5620497987e+00 6.9349586757e-05 1.8298984405e+00 -3.1694770717e+00 1.8298984405e+00 3.1694770717e+00 
73800 5.5620498023e+00 6.9354332852e-05 1.8298984405e+00 -3.1694770717e+00 1.8298984405e+00 3.1694770717e+00 
73900 5.5620498059e+00 6.9359364410e-05 1.8298984405e+00 -3.1694770717e+00 1.8298984405e+00 3.1694770717e+00 
74000 5.5620498094e+00 6.9364663067e-05 1.8298984405e+00 -3.1694770717e+00 1.8298984405e+00 3.1694770717e+00 
74100 5.5620498129e+00 6.9370210485e-05 1.8298984405e+00 -3.1694770717e+00 1.8298984405e+00 3.1694770717e+00 
74200 5.5620498164e+00 6.9375988394e-05 1.8298984405e+00 -3.1694770717e+00 1.8298984405e+00 3.1694770717e+00 
74300 5.5620498198e+00 6.9381978641e-05 1.8298984405e+00 -3.1694770717e+00 1.8298984405e+00 3.1694770717e+00 
74400 5.5620498232e+00 6.9388163223e-05 1.8298984405e+00 -3.1694770717e+00 1.8298984405e+00 3.1694770717e+00 
74500 5.5620498265e+00 6.9394524333e-05 1.8298984405e+00 -3.1694770717e+00 1.8298984405e+00 3.1694770717e+00 
74600 5.5620498298e+00 6.9401044390e-05 1.8298984405e+00 -3.1694770717e+00 1.8298984405e+00 3.1694770717e+00 
74700 5.5620498330e+00 6.9407706079e-05 1.8298984405e+00 -3.1694770717e+00 1.8298984405e+00 3.1694770717e+00 
74800 5.5620498363e+00 6.9414492377e-05 1.8298984405e+00 -3.1694770717e+00 1.8298984405e+00 3.1694770717e+00 
74900 5.5620498394e+00 6.9421386587e-05 1.8298984405e+00 -3.1694770717e+00 1.8298984405e+00 3.1694770717e+00 
75000 5.5620498426e+00 6.9428372366e-05 1.8298984405e+00 -3.1694770717e+00 1.8298984405e+00 3.1694770717e+00 
75100 5.5620498457e+00 6.9435433749e-05 1.8298984405e+00 -3.1694770717e+00 1.8298984405e+00 3.1694770717e+00 
75200 5.5620498487e+00 6.9442555172e-05 1.8298984405e+00 -3.1694770717e+00 1.8298984405e+00 3.1694770717e+00 
75300 5.5620498517e+00 6.9449721501e-05 1.8298984405e+00 -3.1694770717e+00 1.8298984405e+00 3.1694770717e+00 
75400 5.5620498547e+00 6.9456918041e-05 1.8298984405e+00 -3.1694770717e+00 1.8298984405e+00 3.1694770717e+00 
75500 5.5620498577e+00 6.9464130562e-05 1.8298984405e+00 -3.1694770717e+00 1.8298984405e+00 3.1694770717e+00 
75600 5.5620498606e+00 6.9471345313e-05 1.8298984405e+00 -3.1694770717e+00 1.8298984405e+00 3.1694770717e+00 
75700 5.5620498635e+00 6.9478549035e-05 1.8298984405e+00 -3.1694770717e+00 1.8298984405e+00 3.1694770717e+00 
75800 5.5620498663e+00 6.9485728976e-05 1.8298984405e+00 -3.1694770717e+00 1.8298984405e+00 3.1694770717e+00 
75900 5.5620498691e+00 6.9492872899e-05 1.8298984405e+00 -3.1694770717e+00 1.8298984405e+00 3.1694770717e+00 
76000 5.5620498719e+00 6.9499969090e-05 1.8298984405e+00 -3.1694770717e+00 1.8298984405e+00 3.1694770717e+00 
76100 5.5620498746e+00 6.9507006373e-05 1.8298984405e+00 -3.1694770717e+00 1.8298984405e+00 3.1694770717e+00 
76200 5.5620498773e+00 6.9513974107e-05 1.8298984405e+00 -3.1694770717e+00 1.8298984405e+00 3.1694770717e+00 
76300 5.5620498800e+00 6.9520862192e-05 1.8298984405e+00 -3.1694770717e+00 1.8298984405e+00 3.1694770717e+00 
76400 5.5620498826e+00 6.9527661077e-05 1.8298984405e+00 -3.1694770717e+00 1.8298984405e+00 3.1694770717e+00 
76500 5.5620498852e+00 6.9534361756e-05 1.8298984405e+00 -3.1694770717e+00 1.8298984405e+00 3.1694770717e+00 
76600 5.5620498878e+00 6.9540955771e-05 1.8298984405e+00 -3.1694770717e+00 1.8298984405e+00 3.1694770717e+00 
76700 5.5620498904e+00 6.9547435206e-05 1.8298984405e+00 -3.1694770717e+00 1.8298984405e+00 3.1694770717e+00 
76800 5.5620498929e+00 6.9553792692e-05 1.8298984405e+00 -3.1694770717e+00 1.8298984405e+00 3.1694770717e+00 
76900 5.5620498954e+00 6.9560021397e-05 1.8298984405e+00 -3.1694770717e+00 1.8298984405e+00 3.1694770717e+00 
77000 5.5620498978e+00 6.9566115023e-05 1.8298984405e+00 -3.1694770717e+00 1.8298984405e+00 3.1694770717e+00 
77100 5.5620499003e+00 6.9572067800e-05 1.8298984405e+00 -3.1694770717e+00 1.8298984405e+00 3.1694770717e+00 
77200 5.5620499026e+00 6.9577874479e-05 1.8298984405e+00 -3.1694770717e+00 1.8298984405e+00 3.1694770717e+00 
77300 5.5620499050e+00 6.9583530325e-05 1.8298984405e+00 -3.1694770717e+00 1.8298984405e+00 3.1694770717e+00 
77400 5.5620499074e+00 6.9589031107e-05 1.8298984405e+00 -3.1694770717e+00 1.8298984405e+00 3.1694770717e+00 
77500 5.5620499097e+00 6.9594373087e-05 1.8298984405e+00 -3.1694770717e+00 1.8298984405e+00 3.1694770717e+00 
77600 5.5620499119e+00 6.9599553012e-05 1.8298984405e+00 -3.1694770717e+00 1.8298984405e+00 3.1694770717e+00 
77700 5.5620499142e+00 6.9604568102e-05 1.8298984405e+00 -3.1694770717e+00 1.8298984405e+00 3.1694770717e+00 
77800 5.5620499164e+00 6.9609416040e-05 1.8298984405e+00 -3.1694770717e+00 1.8298984405e+00 3.1694770717e+00 
77900 5.5620499186e+00 6.9614094954e-05 1.8298984405e+00 -3.1694770717e+00 1.8298984405e+00 3.1694770717e+00 
78000 5.5620499208e+00 6.9618603408e-05 1.8298984405e+00 -3.1694770717e+00 1.8298984405e+00 3.1694770717e+00 
78100 5.5620499229e+00 6.9622940390e-05 1.8298984405e+00 -3.1694770717e+00 1.8298984405e+00 3.1694770717e+00 
78200 5.5620499251e+00 6.9627105293e-05 1.8298984405e+00 -3.1694770717e+00 1.8298984405e+00 3.1694770717e+00 
78300 5.5620499272e+00 6.9631097907e-05 1.8298984405e+00 -3.1694770717e+00 1.8298984405e+00 3.1694770717e+00 
78400 5.5620499292e+00 6.9634918399e-05 1.8298984405e+00 -3.1694770717e+00 1.8298984405e+00 3.1694770717e+00 
78500 5.5620499313e+00 6.9638567297e-05 1.8298984405e+00 -3.1694770717e+00 1.8298984405e+00 3.1694770717e+00 
78600 5.5620499333e+00 6.9642045483e-05 1.8298984405e+00 -3.1694770717e+00 1.8298984405e+00 3.1694770717e+00 
78700 5.5620499353e+00 6.9645354168e-05 1.8298984405e+00 -3.1694770717e+00 1.8298984405e+00 3.1694770717e+00 
78800 5.5620499373e+00 6.9648494882e-05 1.8298984405e+00 -3.1694770717e+00 1.8298984405e+00 3.1694770717e+00 
78900 5.5620499392e+00 6.9651469457e-05 1.8298984405e+00 -3.1694770717e+00 1.8298984405e+00 3.1694770717e+00 
79000 5.5620499412e+00 6.9654280009e-05 1.8298984405e+00 -3.1694770717e+00 1.8298984405e+00 3.1694770717e+00 
79100 5.5620499431e+00 6.9656928928e-05 1.8298984405e+00 -3.1694770717e+00 1.8298984405e+00 3.1694770717e+00 
79200 5.5620499449e+00 6.9659418852e-05 1.8298984405e+00 -3.1694770717e+00 1.8298984405e+00 3.1694770717e+00 
79300 5.5620499468e+00 6.9661752664e-05 1.8298984405e+00 -3.1694770717e+00 1.8298984405e+00 3.1694770717e+00 
79400 5.5620499486e+00 6.9663933467e-05 1.8298984405e+00 -3.1694770717e+00 1.8298984405e+00 3.1694770717e+00 
79500 5.5620499504e+00 6.9665964570e-05 1.8298984405e+00 -3.1694770717e+00 1.8298984405e+00 3.1694770717e+00 
79600 5.5620499522e+00 6.9667849474e-05 1.8298984405e+00 -3.1694770717e+00 1.8298984405e+00 3.1694770717e+00 
79700 5.5620499540e+00 6.9669591859e-05 1.8298984405e+00 -3.1694770717e+00 1.8298984405e+00 3.1694770717e+00 
79800 5.5620499557e+00 6.9671195561e-05 1.8298984405e+00 -3.1694770717e+00 1.8298984405e+00 3.1694770717e+00 
79900 5.5620499575e+00 6.9672664570e-05 1.8298984405e+00 -3.1694770717e+00 1.8298984405e+00 3.1694770717e+00 
80000 5.5620499592e+00 6.9674003003e-05 1.8298984405e+00 -3.1694770717e+00 1.8298984405e+00 3.1694770717e+00 
80100 5.5620499609e+00 6.9675215095e-05 1.8298984405e+00 -3.1694770717e+00 1.8298984405e+00 3.1694770717e+00 
80200 5.5620499625e+00 6.9676305185e-05 1.8298984405e+00 -3.1694770717e+00 1.8298984405e+00 3.1694770717e+00 
80300 5.5620499642e+00 6.9677277703e-05 1.8298984405e+00 -3.1694770717e+00 1.8298984405e+00 3.1694770717e+00 
80400 5.5620499658e+00 6.9678137154e-05 1.8298984405e+00 -3.1694770717e+00 1.8298984405e+00 3.1694770717e+00 
80500 5.5620499674e+00 6.9678888109e-05 1.8298984405e+00 -3.1694770717e+00 1.8298984405e+00 3.1694770717e+00 
80600 5.5620499690e+00 6.9679535189e-05 1.8298984405e+00 -3.1694770717e+00 1.8298984405e+00 3.1694770717e+00 
80700 5.5620499706e+00 6.9680083050e-05 1.8298984405e+00 -3.1694770717e+00 1.8298984405e+00 3.1694770717e+00 
80800 5.5620499721e+00 6.9680536382e-05 1.8298984405e+00 -3.1694770717e+00 1.8298984405e+00 3.1694770717e+00 
80900 5.5620499737e+00 6.9680899885e-05 1.8298984405e+00 -3.1694770717e+00 1.8298984405e+00 3.1694770717e+00 
81000 5.5620499752e+00 6.9681178270e-05 1.8298984405e+00 -3.1694770717e+00 1.8298984405e+00 3.1694770717e+00 
81100 5.5620499767e+00 6.9681376232e-05 1.8298984405e+00 -3.1694770717e+00 1.8298984405e+00 3.1694770717e+00 
81200 5.5620499781e+00 6.9681498460e-05 1.8298984405e+00 -3.1694770717e+00 1.8298984405e+00 3.1694770717e+00 
81300 5.5620499796e+00 6.9681549611e-05 1.8298984405e+00 -3.1694770717e+00 1.8298984405e+00 3.1694770717e+00 
81400 5.5620499810e+00 6.9681534309e-05 1.8298984405e+00 -3.1694770717e+00 1.8298984405e+00 3.1694770717e+00 
81500 5.5620499825e+00 6.9681457136e-05 1.8298984405e+00 -3.1694770717e+00 1.8298984405e+00 3.1694770717e+00 
81600 5.5620499839e+00 6.9681322620e-05 1.8298984405e+00 -3.1694770717e+00 1.8298984405e+00 3.1694770717e+00 
81700 5.5620499853e+00 6.9681135231e-05 1.8298984405e+00 -3.1694770717e+00 1.8298984405e+00 3.1694770717e+00 
81800 5.5620499866e+00 6.9680899367e-05 1.8298984405e+00 -3.1694770717e+00 1.8298984405e+00 3.1694770717e+00 
81900 5.5620499880e+00 6.9680619356e-05 1.8298984405e+00 -3.1694770717e+00 1.8298984405e+00 3.1694770717e+00 
82000 5.5620499893e+00 6.9680299445e-05 1.8298984405e+00 -3.1694770717e+00 1.8298984405e+00 3.1694770717e+00 
82100 5.5620499907e+00 6.9679943792e-05 1.8298984405e+00 -3.1694770717e+00 1.8298984405e+00 3.1694770717e+00 
82200 5.5620499920e+00 6.9679556464e-05 1.8298984405e+00 -3.1694770717e+00 1.8298984405e+00 3.1694770717e+00 
82300 5.5620499933e+00 6.9679141429e-05 1.8298984405e+00 -3.1694770717e+00 1.8298984405e+00 3.1694770717e+00 
82400 5.5620499945e+00 6.9678702556e-05 1.8298984405e+00 -3.1694770717e+00 1.8298984405e+00 3.1694770717e+00 
82500 5.5620499958e+00 6.9678243600e-05 1.8298984405e+00 -3.1694770717e+00 1.8298984405e+00 3.1694770717e+00 
82600 5.5620499971e+00 6.9677768212e-05 1.8298984405e+00 -3.1694770717e+00 1.8298984405e+00 3.1694770717e+00 
82700 5.5620499983e+00 6.9677279927e-05 1.8298984405e+00 -3.1694770717e+00 1.8298984405e+00 3.1694770717e+00 
82800 5.5620499995e+00 6.9676782159e-05 1.8298984405e+00 -3.1694770717e+00 1.8298984405e+00 3.1694770717e+00 
82900 5.5620500007e+00 6.9676278207e-05 1.8298984405e+00 -3.1694770717e+00 1.8298984405e+00 3.1694770717e+00 
83000 5.5620500019e+00 6.9675771243e-05 1.8298984405e+00 -3.1694770717e+00 1.8298984405e+00 3.1694770717e+00 
83100 5.5620500031e+00 6.9675264318e-05 1.8298984405e+00 -3.1694770717e+00 1.8298984405e+00 3.1694770717e+00 
83200 5.5620500042e+00 6.9674760353e-05 1.8298984405e+00 -3.1694770717e+00 1.8298984405e+00 3.1694770717e+00 
83300 5.5620500054e+00 6.9674262147e-05 1.8298984405e+00 -3.1694770717e+00 1.8298984405e+00 3.1694770717e+00 
83400 5.5620500065e+00 6.9673772364e-05 1.8298984405e+00 -3.1694770717e+00 1.8298984405e+00 3.1694770717e+00 
83500 5.5620500076e+00 6.9673293546e-05 1.8298984405e+00 -3.1694770717e+00 1.8298984405e+00 3.1694770717e+00 
83600 5.5620500088e+00 6.9672828101e-05 1.8298984405e+00 -3.1694770717e+00 1.8298984405e+00 3.1694770717e+00 
83700 5.5620500098e+00 6.9672378306e-05 1.8298984405e+00 -3.1694770717e+00 1.8298984405e+00 3.1694770717e+00 
83800 5.5620500109e+00 6.9671946315e-05 1.8298984405e+00 -3.1694770717e+00 1.8298984405e+00 3.1694770717e+00 
83900 5.5620500120e+00 6.9671534150e-05 1.8298984405e+00 -3.1694770717e+00 1.8298984405e+00 3.1694770717e+00 
84000 5.5620500131e+00 6.9671143705e-05 1.8298984405e+00 -3.1694770717e+00 1.8298984405e+00 3.1694770717e+00 
84100 5.5620500141e+00 6.9670776751e-05 1.8298984405e+00 -3.1694770717e+00 1.8298984405e+00 3.1694770717e+00 
84200 5.5620500151e+00 6.9670434931e-05 1.8298984405e+00 -3.1694770717e+00 1.8298984405e+00 3.1694770717e+00 
84300 5.5620500161e+00 6.9670119762e-05 1.8298984405e+00 -3.1694770717e+00 1.8298984405e+00 3.1694770717e+00 
84400 5.5620500172e+00 6.9669832646e-05 1.8298984405e+00 -3.1694770717e+00 1.8298984405e+00 3.1694770717e+00 
84500 5.5620500182e+00 6.9669574859e-05 1.8298984405e+00 -3.1694770717e+00 1.8298984405e+00 3.1694770717e+00 
84600 5.5620500191e+00 6.9669347562e-05 1.8298984405e+00 -3.1694770717e+00 1.8298984405e+00 3.1694770717e+00 
84700 5.5620500201e+00 6.9669151801e-05 1.8298984405e+00 -3.1694770717e+00 1.8298984405e+00 3.1694770717e+00 
84800 5.5620500211e+00 6.9668988510e-05 1.8298984405e+00 -3.1694770717e+00 1.8298984405e+00 3.1694770717e+00 
84900 5.5620500220e+00 6.9668858509e-05 1.8298984405e+00 -3.1694770717e+00 1.8298984405e+00 3.1694770717e+00 
85000 5.5620500230e+00 6.9668762515e-05 1.8298984405e+00 -3.1694770717e+00 1.8298984405e+00 3.1694770717e+00 
85100 5.5620500239e+00 6.9668701137e-05 1.8298984405e+00 -3.1694770717e+00 1.8298984405e+00 3.1694770717e+00 
85200 5.5620500248e+00 6.9668674885e-05 1.8298984405e+00 -3.1694770717e+00 1.8298984405e+00 3.1694770717e+00 
85300 5.5620500257e+00 6.9668684169e-05 1.8298984405e+00 -3.1694770717e+00 1.8298984405e+00 3.1694770717e+00 
85400 5.5620500266e+00 6.9668729306e-05 1.8298984405e+00 -3.1694770717e+00 1.8298984405e+00 3.1694770717e+00 
85500 5.5620500275e+00 6.9668810521e-05 1.8298984405e+00 -3.1694770717e+00 1.8298984405e+00 3.1694770717e+00 
85600 5.5620500283e+00 6.9668927946e-05 1.8298984405e+00 -3.1694770717e+00 1.8298984405e+00 3.1694770717e+00 
85700 5.5620500292e+00 6.9669081636e-05 1.8298984405e+00 -3.1694770717e+00 1.8298984405e+00 3.1694770717e+00 
85800 5.5620500301e+00 6.9669271556e-05 1.8298984405e+00 -3.1694770717e+00 1.8298984405e+00 3.1694770717e+00 
85900 5.5620500309e+00 6.9669497601e-05 1.8298984405e+00 -3.1694770717e+00 1.8298984405e+00 3.1694770717e+00 
86000 5.5620500317e+00 6.9669759585e-05 1.8298984405e+00 -3.1694770717e+00 1.8298984405e+00 3.1694770717e+00 
86100 5.5620500326e+00 6.9670057254e-05 1.8298984405e+00 -3.1694770717e+00 1.8298984405e+00 3.1694770717e+00 
86200 5.5620500334e+00 6.9670390289e-05 1.8298984405e+00 -3.1694770717e+00 1.8298984405e+00 3.1694770717e+00 
86300 5.5620500342e+00 6.9670758302e-05 1.8298984405e+00 -3.1694770717e+00 1.8298984405e+00 3.1694770717e+00 
86400 5.5620500350e+00 6.9671160850e-05 1.8298984405e+00 -3.1694770717e+00 1.8298984405e+00 3.1694770717e+00 
86500 5.5620500358e+00 6.9671597429e-05 1.8298984405e+00 -3.1694770717e+00 1.8298984405e+00 3.1694770717e+00 
86600 5.5620500365e+00 6.9672067486e-05 1.8298984405e+00 -3.1694770717e+00 1.8298984405e+00 3.1694770717e+00 
86700 5.5620500373e+00 6.9672570415e-05 1.8298984405e+00 -3.1694770717e+00 1.8298984405e+00 3.1694770717e+00 
86800 5.5620500381e+00 6.9673105565e-05 1.8298984405e+00 -3.1694770717e+00 1.8298984405e+00 3.1694770717e+00 
86900 5.5620500388e+00 6.9673672245e-05 1.8298984405e+00 -3.1694770717e+00 1.8298984405e+00 3.1694770717e+00 
87000 5.5620500395e+00 6.9674269721e-05 1.8298984405e+00 -3.1694770717e+00 1.8298984405e+00 3.1694770717e+00 
87100 5.5620500403e+00 6.9674897226e-05 1.8298984405e+00 -3.1694770717e+00 1.8298984405e+00 3.1694770717e+00 
87200 5.5620500410e+00 6.9675553959e-05 1.8298984405e+00 -3.1694770717e+00 1.8298984405e+00 3.1694770717e+00 
87300 5.5620500417e+00 6.9676239088e-05 1.8298984405e+00 -3.1694770717e+00 1.8298984405e+00 3.1694770717e+00 
87400 5.5620500424e+00 6.9676951758e-05 1.8298984405e+00 -3.1694770717e+00 1.8298984405e+00 3.1694770717e+00 
87500 5.5620500431e+00 6.9677691089e-05 1.8298984405e+00 -3.1694770717e+00 1.8298984405e+00 3.1694770717e+00 
87600 5.5620500438e+00 6.9678456180e-05 1.8298984405e+00 -3.1694770717e+00 1.8298984405e+00 3.1694770717e+00 
87700 5.5620500445e+00 6.9679246115e-05 1.8298984405e+00 -3.1694770717e+00 1.8298984405e+00 3.1694770717e+00 
87800 5.5620500451e+00 6.9680059961e-05 1.8298984405e+00 -3.1694770717e+00 1.8298984405e+00 3.1694770717e+00 
87900 5.5620500458e+00 6.9680896776e-05 1.8298984405e+00 -3.1694770717e+00 1.8298984405e+00 3.1694770717e+00 
88000 5.5620500465e+00 6.9681755604e-05 1.8298984405e+00 -3.1694770717e+00 1.8298984405e+00 3.1694770717e+00 
88100 5.5620500471e+00 6.9682635489e-05 1.8298984405e+00 -3.1694770717e+00 1.8298984405e+00 3.1694770717e+00 
88200 5.5620500478e+00 6.9683535466e-05 1.8298984405e+00 -3.1694770717e+00 1.8298984405e+00 3.1694770717e+00 
88300 5.5620500484e+00 6.9684454570e-05 1.8298984405e+00 -3.1694770717e+00 1.8298984405e+00 3.1694770717e+00 
88400 5.5620500490e+00 6.9685391836e-05 1.8298984405e+00 -3.1694770717e+00 1.8298984405e+00 3.1694770717e+00 
88500 5.5620500496e+00 6.9686346303e-05 1.8298984405e+00 -3.1694770717e+00 1.8298984405e+00 3.1694770717e+00 
88600 5.5620500503e+00 6.9687317013e-05 1.8298984405e+00 -3.1694770717e+00 1.8298984405e+00 3.1694770717e+00 
88700 5.5620500509e+00 6.9688303017e-05 1.8298984405e+00 -3.1694770717e+00 1.8298984405e+00 3.1694770717e+00 
88800 5.5620500515e+00 6.9689303372e-05 1.8298984405e+00 -3.1694770717e+00 1.8298984405e+00 3.1694770717e+00 
88900 5.5620500520e+00 6.9690317147e-05 1.8298984405e+00 -3.1694770717e+00 1.8298984405e+00 3.1694770717e+00 
89000 5.5620500526e+00 6.9691343424e-05 1.8298984405e+00 -3.1694770717e+00 1.8298984405e+00 3.1694770717e+00 
89100 5.5620500532e+00 6.9692381296e-05 1.8298984405e+00 -3.1694770717e+00 1.8298984405e+00 3.1694770717e+00 
89200 5.5620500538e+00 6.9693429873e-05 1.8298984405e+00 -3.1694770717e+00 1.8298984405e+00 3.1694770717e+00 
89300 5.5620500543e+00 6.9694488281e-05 1.8298984405e+00 -3.1694770717e+00 1.8298984405e+00 3.1694770717e+00 
89400 5.5620500549e+00 6.9695555665e-05 1.8298984405e+00 -3.1694770717e+00 1.8298984405e+00 3.1694770717e+00 
89500 5.5620500554e+00 6.9696631186e-05 1.8298984405e+00 -3.1694770717e+00 1.8298984405e+00 3.1694770717e+00 
89600 5.5620500560e+00 6.9697714028e-05 1.8298984405e+00 -3.1694770717e+00 1.8298984405e+00 3.1694770717e+00 
89700 5.5620500565e+00 6.9698803395e-05 1.8298984405e+00 -3.1694770717e+00 1.8298984405e+00 3.1694770717e+00 
89800 5.5620500571e+00 6.9699898512e-05 1.8298984405e+00 -3.1694770717e+00 1.8298984405e+00 3.1694770717e+00 
89900 5.5620500576e+00 6.9700998631e-05 1.8298984405e+00 -3.1694770717e+00 1.8298984405e+00 3.1694770717e+00 
90000 5.5620500581e+00 6.9702103021e-05 1.8298984405e+00 -3.1694770717e+00 1.8298984405e+00 3.1694770717e+00 
90100 5.5620500586e+00 6.9703210978e-05 1.8298984405e+00 -3.1694770717e+00 1.8298984405e+00 3.1694770717e+00 
90200 5.5620500591e+00 6.9704321825e-05 1.8298984405e+00 -3.1694770717e+00 1.8298984405e+00 3.1694770717e+00 
90300 5.5620500596e+00 6.9705434908e-05 1.8298984405e+00 -3.1694770717e+00 1.8298984405e+00 3.1694770717e+00 
90400 5.5620500601e+00 6.9706549598e-05 1.8298984405e+00 -3.1694770717e+00 1.8298984405e+00 3.1694770717e+00 
90500 5.5620500606e+00 6.9707665294e-05 1.8298984405e+00 -3.1694770717e+00 1.8298984405e+00 3.1694770717e+00 
90600 5.5620500611e+00 6.9708781419e-05 1.8298984405e+00 -3.1694770717e+00 1.8298984405e+00 3.1694770717e+00 
90700 5.5620500616e+00 6.9709897424e-05 1.8298984405e+00 -3.1694770717e+00 1.8298984405e+00 3.1694770717e+00 
90800 5.5620500620e+00 6.9711012785e-05 1.8298984405e+00 -3.1694770717e+00 1.8298984405e+00 3.1694770717e+00 
90900 5.5620500625e+00 6.9712127004e-05 1.8298984405e+00 -3.1694770717e+00 1.8298984405e+00 3.1694770717e+00 
91000 5.5620500630e+00 6.9713239613e-05 1.8298984405e+00 -3.1694770717e+00 1.8298984405e+00 3.1694770717e+00 
91100 5.5620500634e+00 6.9714350165e-05 1.8298984405e+00 -3.1694770717e+00 1.8298984405e+00 3.1694770717e+00 
91200 5.5620500639e+00 6.9715458244e-05 1.8298984405e+00 -3.1694770717e+00 1.8298984405e+00 3.1694770717e+00 
91300 5.5620500643e+00 6.9716563459e-05 1.8298984405e+00 -3.1694770717e+00 1.8298984405e+00 3.1694770717e+00 
91400 5.5620500648e+00 6.9717665441e-05 1.8298984405e+00 -3.1694770717e+00 1.8298984405e+00 3.1694770717e+00 
91500 5.5620500652e+00 6.9718763852e-05 1.8298984405e+00 -3.1694770717e+00 1.8298984405e+00 3.1694770717e+00 
91600 5.5620500656e+00 6.9719858375e-05 1.8298984405e+00 -3.1694770717e+00 1.8298984405e+00 3.1694770717e+00 
91700 5.5620500660e+00 6.9720948718e-05 1.8298984405e+00 -3.1694770717e+00 1.8298984405e+00 3.1694770717e+00 
91800 5.5620500665e+00 6.9722034616e-05 1.8298984405e+00 -3.1694770717e+00 1.8298984405e+00 3.1694770717e+00 
91900 5.5620500669e+00 6.9723115826e-05 1.8298984405e+00 -3.1694770717e+00 1.8298984405e+00 3.1694770717e+00 
92000 5.5620500673e+00 6.9724192127e-05 1.8298984405e+00 -3.1694770717e+00 1.8298984405e+00 3.1694770717e+00 
92100 5.5620500677e+00 6.9725263324e-05 1.8298984405e+00 -3.1694770717e+00 1.8298984405e+00 3.1694770717e+00 
92200 5.5620500681e+00 6.9726329241e-05 1.8298984405e+00 -3.1694770717e+00 1.8298984405e+00 3.1694770717e+00 
92300 5.5620500685e+00 6.9727389725e-05 1.8298984405e+00 -3.1694770717e+00 1.8298984405e+00 3.1694770717e+00 
92400 5.5620500689e+00 6.9728444643e-05 1.8298984405e+00 -3.1694770717e+00 1.8298984405e+00 3.1694770717e+00 
92500 5.5620500693e+00 6.9729493885e-05 1.8298984405e+00 -3.1694770717e+00 1.8298984405e+00 3.1694770717e+00 
92600 5.5620500697e+00 6.9730537358e-05 1.8298984405e+00 -3.1694770717e+00 1.8298984405e+00 3.1694770717e+00 
92700 5.5620500700e+00 6.9731574988e-05 1.8298984405e+00 -3.1694770717e+00 1.8298984405e+00 3.1694770717e+00 
92800 5.5620500704e+00 6.9732606720e-05 1.8298984405e+00 -3.1694770717e+00 1.8298984405e+00 3.1694770717e+00 
92900 5.5620500708e+00 6.9733632517e-05 1.8298984405e+00 -3.1694770717e+00 1.8298984405e+00 3.1694770717e+00 
93000 5.5620500711e+00 6.9734652359e-05 1.8298984405e+00 -3.1694770717e+00 1.8298984405e+00 3.1694770717e+00 
93100 5.5620500715e+00 6.9735666241e-05 1.8298984405e+00 -3.1694770717e+00 1.8298984405e+00 3.1694770717e+00 
93200 5.5620500719e+00 6.9736674172e-05 1.8298984405e+00 -3.1694770717e+00 1.8298984405e+00 3.1694770717e+00 
93300 5.5620500722e+00 6.9737676178e-05 1.8298984405e+00 -3.1694770717e+00 1.8298984405e+00 3.1694770717e+00 
93400 5.5620500726e+00 6.9738672299e-05 1.8298984405e+00 -3.1694770717e+00 1.8298984405e+00 3.1694770717e+00 
93500 5.5620500729e+00 6.9739662586e-05 1.8298984405e+00 -3.1694770717e+00 1.8298984405e+00 3.1694770717e+00 
93600 5.5620500732e+00 6.9740647104e-05 1.8298984405e+00 -3.1694770717e+00 1.8298984405e+00 3.1694770717e+00 
93700 5.5620500736e+00 6.9741625927e-05 1.8298984405e+00 -3.1694770717e+00 1.8298984405e+00 3.1694770717e+00 
93800 5.5620500739e+00 6.9742599145e-05 1.8298984405e+00 -3.1694770717e+00 1.8298984405e+00 3.1694770717e+00 
93900 5.5620500742e+00 6.9743566854e-05 1.8298984405e+00 -3.1694770717e+00 1.8298984405e+00 3.1694770717e+00 
94000 5.5620500746e+00 6.9744529159e-05 1.8298984405e+00 -3.1694770717e+00 1.8298984405e+00 3.1694770717e+00 
94100 5.5620500749e+00 6.9745486176e-05 1.8298984405e+00 -3.1694770717e+00 1.8298984405e+00 3.1694770717e+00 
94200 5.5620500752e+00 6.9746438028e-05 1.8298984405e+00 -3.1694770717e+00 1.8298984405e+00 3.1694770717e+00 
94300 5.5620500755e+00 6.9747384844e-05 1.8298984405e+00 -3.1694770717e+00 1.8298984405e+00 3.1694770717e+00 
94400 5.5620500758e+00 6.9748326761e-05 1.8298984405e+00 -3.1694770717e+00 1.8298984405e+00 3.1694770717e+00 
94500 5.5620500761e+00 6.9749263924e-05 1.8298984405e+00 -3.1694770717e+00 1.8298984405e+00 3.1694770717e+00 
94600 5.5620500764e+00 6.9750196478e-05 1.8298984405e+00 -3.1694770717e+00 1.8298984405e+00 3.1694770717e+00 
94700 5.5620500767e+00 6.9751124578e-05 1.8298984405e+00 -3.1694770717e+00 1.8298984405e+00 3.1694770717e+00 
94800 5.5620500770e+00 6.9752048377e-05 1.8298984405e+00 -3.1694770717e+00 1.8298984405e+00 3.1694770717e+00 
94900 5.5620500773e+00 6.9752968037e-05 1.8298984405e+00 -3.1694770717e+00 1.8298984405e+00 3.1694770717e+00 
95000 5.5620500776e+00 6.9753883721e-05 1.8298984405e+00 -3.1694770717e+00 1.8298984405e+00 3.1694770717e+00 
95100 5.5620500779e+00 6.9754795593e-05 1.8298984405e+00 -3.1694770717e+00 1.8298984405e+00 3.1694770717e+00 
95200 5.5620500782e+00 6.9755703820e-05 1.8298984405e+00 -3.1694770717e+00 1.8298984405e+00 3.1694770717e+00 
95300 5.5620500785e+00 6.9756608567e-05 1.8298984405e+00 -3.1694770717e+00 1.8298984405e+00 3.1694770717e+00 
95400 5.5620500787e+00 6.9757510004e-05 1.8298984405e+00 -3.1694770717e+00 1.8298984405e+00 3.1694770717e+00 
95500 5.5620500790e+00 6.9758408300e-05 1.8298984405e+00 -3.1694770717e+00 1.8298984405e+00 3.1694770717e+00 
95600 5.5620500793e+00 6.9759303621e-05 1.8298984405e+00 -3.1694770717e+00 1.8298984405e+00 3.1694770717e+00 
95700 5.5620500795e+00 6.9760196134e-05 1.8298984405e+00 -3.1694770717e+00 1.8298984405e+00 3.1694770717e+00 
95800 5.5620500798e+00 6.9761086005e-05 1.8298984405e+00 -3.1694770717e+00 1.8298984405e+00 3.1694770717e+00 
95900 5.5620500801e+00 6.9761973399e-05 1.8298984405e+00 -3.1694770717e+00 1.8298984405e+00 3.1694770717e+00 
96000 5.5620500803e+00 6.9762858477e-05 1.8298984405e+00 -3.1694770717e+00 1.8298984405e+00 3.1694770717e+00 
96100 5.5620500806e+00 6.9763741399e-05 1.8298984405e+00 -3.1694770717e+00 1.8298984405e+00 3.1694770717e+00 
96200 5.5620500808e+00 6.9764622321e-05 1.8298984405e+00 -3.1694770717e+00 1.8298984405e+00 3.1694770717e+00 
96300 5.5620500811e+00 6.9765501397e-05 1.8298984405e+00 -3.1694770717e+00 1.8298984405e+00 3.1694770717e+00 
96400 5.5620500813e+00 6.9766378779e-05 1.8298984405e+00 -3.1694770717e+00 1.8298984405e+00 3.1694770717e+00 
96500 5.5620500816e+00 6.9767254610e-05 1.8298984405e+00 -3.1694770717e+00 1.8298984405e+00 3.1694770717e+00 
96600 5.5620500818e+00 6.9768129036e-05 1.8298984405e+00 -3.1694770717e+00 1.8298984405e+00 3.1694770717e+00 
96700 5.5620500820e+00 6.9769002194e-05 1.8298984405e+00 -3.1694770717e+00 1.8298984405e+00 3.1694770717e+00 
96800 5.5620500823e+00 6.9769874220e-05 1.8298984405e+00 -3.1694770717e+00 1.8298984405e+00 3.1694770717e+00 
96900 5.5620500825e+00 6.9770745240e-05 1.8298984405e+00 -3.1694770717e+00 1.8298984405e+00 3.1694770717e+00 
97000 5.5620500827e+00 6.9771615381e-05 1.8298984405e+00 -3.1694770717e+00 1.8298984405e+00 3.1694770717e+00 
97100 5.5620500830e+00 6.9772484763e-05 1.8298984405e+00 -3.1694770717e+00 1.8298984405e+00 3.1694770717e+00 
97200 5.5620500832e+00 6.9773353499e-05 1.8298984405e+00 -3.1694770717e+00 1.8298984405e+00 3.1694770717e+00 
97300 5.5620500834e+00 6.9774221700e-05 1.8298984405e+00 -3.1694770717e+00 1.8298984405e+00 3.1694770717e+00 
97400 5.5620500836e+00 6.9775089470e-05 1.8298984405e+00 -3.1694770717e+00 1.8298984405e+00 3.1694770717e+00 
97500 5.5620500838e+00 6.9775956907e-05 1.8298984405e+00 -3.1694770717e+00 1.8298984405e+00 3.1694770717e+00 
97600 5.5620500841e+00 6.9776824106e-05 1.8298984405e+00 -3.1694770717e+00 1.8298984405e+00 3.1694770717e+00 
97700 5.5620500843e+00 6.9777691151e-05 1.8298984405e+00 -3.1694770717e+00 1.8298984405e+00 3.1694770717e+00 
97800 5.5620500845e+00 6.9778558129e-05 1.8298984405e+00 -3.1694770717e+00 1.8298984405e+00 3.1694770717e+00 
97900 5.5620500847e+00 6.9779425114e-05 1.8298984405e+00 -3.1694770717e+00 1.8298984405e+00 3.1694770717e+00 
98000 5.5620500849e+00 6.9780292178e-05 1.8298984405e+00 -3.1694770717e+00 1.8298984405e+00 3.1694770717e+00 
98100 5.5620500851e+00 6.9781159384e-05 1.8298984405e+00 -3.1694770717e+00 1.8298984405e+00 3.1694770717e+00 
98200 5.5620500853e+00 6.9782026796e-05 1.8298984405e+00 -3.1694770717e+00 1.8298984405e+00 3.1694770717e+00 
98300 5.5620500855e+00 6.9782894464e-05 1.8298984405e+00 -3.1694770717e+00 1.8298984405e+00 3.1694770717e+00 
98400 5.5620500857e+00 6.9783762438e-05 1.8298984405e+00 -3.1694770717e+00 1.8298984405e+00 3.1694770717e+00 
98500 5.5620500859e+00 6.9784630763e-05 1.8298984405e+00 -3.1694770717e+00 1.8298984405e+00 3.1694770717e+00 
98600 5.5620500861e+00 6.9785499475e-05 1.8298984405e+00 -3.1694770717e+00 1.8298984405e+00 3.1694770717e+00 
98700 5.5620500863e+00 6.9786368608e-05 1.8298984405e+00 -3.1694770717e+00 1.8298984405e+00 3.1694770717e+00 
98800 5.5620500864e+00 6.9787238187e-05 1.8298984405e+00 -3.1694770717e+00 1.8298984405e+00 3.1694770717e+00 
98900 5.5620500866e+00 6.9788108236e-05 1.8298984405e+00 -3.1694770717e+00 1.8298984405e+00 3.1694770717e+00 
99000 5.5620500868e+00 6.9788978771e-05 1.8298984405e+00 -3.1694770717e+00 1.8298984405e+00 3.1694770717e+00 
99100 5.5620500870e+00 6.9789849807e-05 1.8298984405e+00 -3.1694770717e+00 1.8298984405e+00 3.1694770717e+00 
99200 5.5620500872e+00 6.9790721348e-05 1.8298984405e+00 -3.1694770717e+00 1.8298984405e+00 3.1694770717e+00 
99300 5.5620500873e+00 6.9791593398e-05 1.8298984405e+00 -3.1694770717e+00 1.8298984405e+00 3.1694770717e+00 
99400 5.5620500875e+00 6.9792465955e-05 1.8298984405e+00 -3.1694770717e+00 1.8298984405e+00 3.1694770717e+00 
99500 5.5620500877e+00 6.9793339012e-05 1.8298984405e+00 -3.1694770717e+00 1.8298984405e+00 3.1694770717e+00 
99600 5.5620500879e+00 6.9794212560e-05 1.8298984405e+00 -3.1694770717e+00 1.8298984405e+00 3.1694770717e+00 
99700 5.5620500880e+00 6.9795086583e-05 1.8298984405e+00 -3.1694770717e+00 1.8298984405e+00 3.1694770717e+00 
99800 5.5620500882e+00 6.9795961064e-05 1.8298984405e+00 -3.1694770717e+00 1.8298984405e+00 3.1694770717e+00 
99900 5.5620500884e+00 6.9796835978e-05 1.8298984405e+00 -3.1694770717e+00 1.8298984405e+00 3.1694770717e+00 
100000 5.5620500885e+00 6.9797711300e-05 1.8298984405e+00 -3.1694770717e+00 1.8298984405e+00 3.1694770717e+00 
100100 5.5620500887e+00 6.9798587002e-05 1.8298984405e+00 -3.1694770717e+00 1.8298984405e+00 3.1694770717e+00 
100200 5.5620500888e+00 6.9799463048e-05 1.8298984405e+00 -3.1694770717e+00 1.8298984405e+00 3.1694770717e+00 
100300 5.5620500890e+00 6.9800339405e-05 1.8298984405e+00 -3.1694770717e+00 1.8298984405e+00 3.1694770717e+00 
100400 5.5620500891e+00 6.9801216031e-05 1.8298984405e+00 -3.1694770717e+00 1.8298984405e+00 3.1694770717e+00 
100500 5.5620500893e+00 6.9802092885e-05 1.8298984405e+00 -3.1694770717e+00 1.8298984405e+00 3.1694770717e+00 
100600 5.5620500894e+00 6.9802969924e-05 1.8298984405e+00 -3.1694770717e+00 1.8298984405e+00 3.1694770717e+00 
100700 5.5620500896e+00 6.9803847098e-05 1.8298984405e+00 -3.1694770717e+00 1.8298984405e+00 3.1694770717e+00 
100800 5.5620500897e+00 6.9804724359e-05 1.8298984405e+00 -3.1694770717e+00 1.8298984405e+00 3.1694770717e+00 
100900 5.5620500899e+00 6.9805601656e-05 1.8298984405e+00 -3.1694770717e+00 1.8298984405e+00 3.1694770717e+00 
101000 5.5620500900e+00 6.9806478934e-05 1.8298984405e+00 -3.1694770717e+00 1.8298984405e+00 3.1694770717e+00 
101100 5.5620500902e+00 6.9807356138e-05 1.8298984405e+00 -3.1694770717e+00 1.8298984405e+00 3.1694770717e+00 
101200 5.5620500903e+00 6.9808233210e-05 1.8298984405e+00 -3.1694770717e+00 1.8298984405e+00 3.1694770717e+00 
101300 5.5620500905e+00 6.9809110093e-05 1.8298984405e+00 -3.1694770717e+00 1.8298984405e+00 3.1694770717e+00 
101400 5.5620500906e+00 6.9809986725e-05 1.8298984405e+00 -3.1694770717e+00 1.8298984405e+00 3.1694770717e+00 
101500 5.5620500907e+00 6.9810863046e-05 1.8298984405e+00 -3.1694770717e+00 1.8298984405e+00 3.1694770717e+00 
101600 5.5620500909e+00 6.9811738993e-05 1.8298984405e+00 -3.1694770717e+00 1.8298984405e+00 3.1694770717e+00 
101700 5.5620500910e+00 6.9812614503e-05 1.8298984405e+00 -3.1694770717e+00 1.8298984405e+00 3.1694770717e+00 
101800 5.5620500911e+00 6.9813489511e-05 1.8298984405e+00 -3.1694770717e+00 1.8298984405e+00 3.1694770717e+00 
101900 5.5620500913e+00 6.9814363953e-05 1.8298984405e+00 -3.1694770717e+00 1.8298984405e+00 3.1694770717e+00 
102000 5.5620500914e+00 6.9815237763e-05 1.8298984405e+00 -3.1694770717e+00 1.8298984405e+00 3.1694770717e+00 
102100 5.5620500915e+00 6.9816110877e-05 1.8298984405e+00 -3.1694770717e+00 1.8298984405e+00 3.1694770717e+00 
102200 5.5620500916e+00 6.9816983227e-05 1.8298984405e+00 -3.1694770717e+00 1.8298984405e+00 3.1694770717e+00 
102300 5.5620500918e+00 6.9817854749e-05 1.8298984405e+00 -3.1694770717e+00 1.8298984405e+00 3.1694770717e+00 
102400 5.5620500919e+00 6.9818725376e-05 1.8298984405e+00 -3.1694770717e+00 1.8298984405e+00 3.1694770717e+00 
102500 5.5620500920e+00 6.9819595043e-05 1.8298984405e+00 -3.1694770717e+00 1.8298984405e+00 3.1694770717e+00 
102600 5.5620500921e+00 6.9820463684e-05 1.8298984405e+00 -3.1694770717e+00 1.8298984405e+00 3.1694770717e+00 
102700 5.5620500923e+00 6.9821331234e-05 1.8298984405e+00 -3.1694770717e+00 1.8298984405e+00 3.1694770717e+00 
102800 5.5620500924e+00 6.9822197628e-05 1.8298984405e+00 -3.1694770717e+00 1.8298984405e+00 3.1694770717e+00 
102900 5.5620500925e+00 6.9823062801e-05 1.8298984405e+00 -3.1694770717e+00 1.8298984405e+00 3.1694770717e+00 
103000 5.5620500926e+00 6.9823926691e-05 1.8298984405e+00 -3.1694770717e+00 1.8298984405e+00 3.1694770717e+00 
103100 5.5620500927e+00 6.9824789234e-05 1.8298984405e+00 -3.1694770717e+00 1.8298984405e+00 3.1694770717e+00 
103200 5.5620500928e+00 6.9825650369e-05 1.8298984405e+00 -3.1694770717e+00 1.8298984405e+00 3.1694770717e+00 
103300 5.5620500929e+00 6.9826510034e-05 1.8298984405e+00 -3.1694770717e+00 1.8298984405e+00 3.1694770717e+00 
103400 5.5620500930e+00 6.9827368171e-05 1.8298984405e+00 -3.1694770717e+00 1.8298984405e+00 3.1694770717e+00 
103500 5.5620500932e+00 6.9828224719e-05 1.8298984405e+00 -3.1694770717e+00 1.8298984405e+00 3.1694770717e+00 
103600 5.5620500933e+00 6.9829079619e-05 1.8298984405e+00 -3.1694770717e+00 1.8298984405e+00 3.1694770717e+00 
103700 5.5620500934e+00 6.9829932816e-05 1.8298984405e+00 -3.1694770717e+00 1.8298984405e+00 3.1694770717e+00 
103800 5.5620500935e+00 6.9830784255e-05 1.8298984405e+00 -3.1694770717e+00 1.8298984405e+00 3.1694770717e+00 
103900 5.5620500936e+00 6.9831633880e-05 1.8298984405e+00 -3.1694770717e+00 1.8298984405e+00 3.1694770717e+00 
104000 5.5620500937e+00 6.9832481638e-05 1.8298984405e+00 -3.1694770717e+00 1.8298984405e+00 3.1694770717e+00 
104100 5.5620500938e+00 6.9833327479e-05 1.8298984405e+00 -3.1694770717e+00 1.8298984405e+00 3.1694770717e+00 
104200 5.5620500939e+00 6.9834171352e-05 1.8298984405e+00 -3.1694770717e+00 1.8298984405e+00 3.1694770717e+00 
104300 5.5620500940e+00 6.9835013208e-05 1.8298984405e+00 -3.1694770717e+00 1.8298984405e+00 3.1694770717e+00 
104400 5.5620500941e+00 6.9835853000e-05 1.8298984405e+00 -3.1694770717e+00 1.8298984405e+00 3.1694770717e+00 
104500 5.5620500942e+00 6.9836690681e-05 1.8298984405e+00 -3.1694770717e+00 1.8298984405e+00 3.1694770717e+00 
104600 5.5620500943e+00 6.9837526208e-05 1.8298984405e+00 -3.1694770717e+00 1.8298984405e+00 3.1694770717e+00 
104700 5.5620500944e+00 6.9838359539e-05 1.8298984405e+00 -3.1694770717e+00 1.8298984405e+00 3.1694770717e+00 
104800 5.5620500945e+00 6.9839190631e-05 1.8298984405e+00 -3.1694770717e+00 1.8298984405e+00 3.1694770717e+00 
104900 5.5620500946e+00 6.9840019444e-05 1.8298984405e+00 -3.1694770717e+00 1.8298984405e+00 3.1694770717e+00 
105000 5.5620500946e+00 6.9840845941e-05 1.8298984405e+00 -3.1694770717e+00 1.8298984405e+00 3.1694770717e+00 
105100 5.5620500947e+00 6.9841670086e-05 1.8298984405e+00 -3.1694770717e+00 1.8298984405e+00 3.1694770717e+00 
105200 5.5620500948e+00 6.9842491843e-05 1.8298984405e+00 -3.1694770717e+00 1.8298984405e+00 3.1694770717e+00 
105300 5.5620500949e+00 6.9843311179e-05 1.8298984405e+00 -3.1694770717e+00 1.8298984405e+00 3.1694770717e+00 
105400 5.5620500950e+00 6.9844128062e-05 1.8298984405e+00 -3.1694770717e+00 1.8298984405e+00 3.1694770717e+00 
105500 5.5620500951e+00 6.9844942463e-05 1.8298984405e+00 -3.1694770717e+00 1.8298984405e+00 3.1694770717e+00 
105600 5.5620500952e+00 6.9845754351e-05 1.8298984405e+00 -3.1694770717e+00 1.8298984405e+00 3.1694770717e+00 
105700 5.5620500953e+00 6.9846563700e-05 1.8298984405e+00 -3.1694770717e+00 1.8298984405e+00 3.1694770717e+00 
105800 5.5620500953e+00 6.9847370484e-05 1.8298984405e+00 -3.1694770717e+00 1.8298984405e+00 3.1694770717e+00 
105900 5.5620500954e+00 6.9848174678e-05 1.8298984405e+00 -3.1694770717e+00 1.8298984405e+00 3.1694770717e+00 
106000 5.5620500955e+00 6.9848976260e-05 1.8298984405e+00 -3.1694770717e+00 1.8298984405e+00 3.1694770717e+00 
106100 5.5620500956e+00 6.9849775209e-05 1.8298984405e+00 -3.1694770717e+00 1.8298984405e+00 3.1694770717e+00 
106200 5.5620500957e+00 6.9850571505e-05 1.8298984405e+00 -3.1694770717e+00 1.8298984405e+00 3.1694770717e+00 
106300 5.5620500957e+00 6.9851365129e-05 1.8298984405e+00 -3.1694770717e+00 1.8298984405e+00 3.1694770717e+00 
106400 5.5620500958e+00 6.9852156064e-05 1.8298984405e+00 -3.1694770717e+00 1.8298984405e+00 3.1694770717e+00 
106500 5.5620500959e+00 6.9852944294e-05 1.8298984405e+00 -3.1694770717e+00 1.8298984405e+00 3.1694770717e+00 
106600 5.5620500960e+00 6.9853729805e-05 1.8298984405e+00 -3.1694770717e+00 1.8298984405e+00 3.1694770717e+00 
106700 5.5620500960e+00 6.9854512584e-05 1.8298984405e+00 -3.1694770717e+00 1.8298984405e+00 3.1694770717e+00 
106800 5.5620500961e+00 6.9855292618e-05 1.8298984405e+00 -3.1694770717e+00 1.8298984405e+00 3.1694770717e+00 
106900 5.5620500962e+00 6.9856069897e-05 1.8298984405e+00 -3.1694770717e+00 1.8298984405e+00 3.1694770717e+00 
107000 5.5620500963e+00 6.9856844410e-05 1.8298984405e+00 -3.1694770717e+00 1.8298984405e+00 3.1694770717e+00 
107100 5.5620500963e+00 6.9857616152e-05 1.8298984405e+00 -3.1694770717e+00 1.8298984405e+00 3.1694770717e+00 
107200 5.5620500964e+00 6.9858385112e-05 1.8298984405e+00 -3.1694770717e+00 1.8298984405e+00 3.1694770717e+00 
107300 5.5620500965e+00 6.9859151285e-05 1.8298984405e+00 -3.1694770717e+00 1.8298984405e+00 3.1694770717e+00 
107400 5.5620500965e+00 6.9859914667e-05 1.8298984405e+00 -3.1694770717e+00 1.8298984405e+00 3.1694770717e+00 
107500 5.5620500966e+00 6.9860675250e-05 1.8298984405e+00 -3.1694770717e+00 1.8298984405e+00 3.1694770717e+00 
107600 5.5620500967e+00 6.9861433036e-05 1.8298984405e+00 -3.1694770717e+00 1.8298984405e+00 3.1694770717e+00 
107700 5.5620500968e+00 6.9862188018e-05 1.8298984405e+00 -3.1694770717e+00 1.8298984405e+00 3.1694770717e+00 
107800 5.5620500968e+00 6.9862940197e-05 1.8298984405e+00 -3.1694770717e+00 1.8298984405e+00 3.1694770717e+00 
107900 5.5620500969e+00 6.9863689571e-05 1.8298984405e+00 -3.1694770717e+00 1.8298984405e+00 3.1694770717e+00 
108000 5.5620500969e+00 6.9864436141e-05 1.8298984405e+00 -3.1694770717e+00 1.8298984405e+00 3.1694770717e+00 
108100 5.5620500970e+00 6.9865179907e-05 1.8298984405e+00 -3.1694770717e+00 1.8298984405e+00 3.1694770717e+00 
108200 5.5620500971e+00 6.9865920871e-05 1.8298984405e+00 -3.1694770717e+00 1.8298984405e+00 3.1694770717e+00 
108300 5.5620500971e+00 6.9866659034e-05 1.8298984405e+00 -3.1694770717e+00 1.8298984405e+00 3.1694770717e+00 
108400 5.5620500972e+00 6.9867394400e-05 1.8298984405e+00 -3.1694770717e+00 1.8298984405e+00 3.1694770717e+00 
108500 5.5620500973e+00 6.9868126974e-05 1.8298984405e+00 -3.1694770717e+00 1.8298984405e+00 3.1694770717e+00 
108600 5.5620500973e+00 6.9868856757e-05 1.8298984405e+00 -3.1694770717e+00 1.8298984405e+00 3.1694770717e+00 
108700 5.5620500974e+00 6.9869583756e-05 1.8298984405e+00 -3.1694770717e+00 1.8298984405e+00 3.1694770717e+00 
108800 5.5620500974e+00 6.9870307975e-05 1.8298984405e+00 -3.1694770717e+00 1.8298984405e+00 3.1694770717e+00 
108900 5.5620500975e+00 6.9871029419e-05 1.8298984405e+00 -3.1694770717e+00 1.8298984405e+00 3.1694770717e+00 
109000 5.5620500976e+00 6.9871748094e-05 1.8298984405e+00 -3.1694770717e+00 1.8298984405e+00 3.1694770717e+00 
109100 5.5620500976e+00 6.9872464007e-05 1.8298984405e+00 -3.1694770717e+00 1.8298984405e+00 3.1694770717e+00 
109200 5.5620500977e+00 6.9873177166e-05 1.8298984405e+00 -3.1694770717e+00 1.8298984405e+00 3.1694770717e+00 
109300 5.5620500977e+00 6.9873887575e-05 1.8298984405e+00 -3.1694770717e+00 1.8298984405e+00 3.1694770717e+00 
109400 5.5620500978e+00 6.9874595244e-05 1.8298984405e+00 -3.1694770717e+00 1.8298984405e+00 3.1694770717e+00 
109500 5.5620500978e+00 6.9875300178e-05 1.8298984405e+00 -3.1694770717e+00 1.8298984405e+00 3.1694770717e+00 
109600 5.5620500979e+00 6.9876002387e-05 1.8298984405e+00 -3.1694770717e+00 1.8298984405e+00 3.1694770717e+00 
109700 5.5620500979e+00 6.9876701878e-05 1.8298984405e+00 -3.1694770717e+00 1.8298984405e+00 3.1694770717e+00 
109800 5.5620500980e+00 6.9877398661e-05 1.8298984405e+00 -3.1694770717e+00 1.8298984405e+00 3.1694770717e+00 
109900 5.5620500980e+00 6.9878092742e-05 1.8298984405e+00 -3.1694770717e+00 1.8298984405e+00 3.1694770717e+00 
110000 5.5620500981e+00 6.9878784131e-05 1.8298984405e+00 -3.1694770717e+00 1.8298984405e+00 3.1694770717e+00 
110100 5.5620500982e+00 6.9879472836e-05 1.8298984405e+00 -3.1694770717e+00 1.8298984405e+00 3.1694770717e+00 
110200 5.5620500982e+00 6.9880158866e-05 1.8298984405e+00 -3.1694770717e+00 1.8298984405e+00 3.1694770717e+00 
110300 5.5620500982e+00 6.9880651155e-05 1.8298984405e+00 -3.1694770717e+00 1.8298984405e+00 3.1694770717e+00 
110300 5.5620500982e+00 6.9880651155e-05 1.8298984405e+00 -3.1694770717e+00 1.8298984405e+00 3.1694770717e+00 
