# step Hamiltonian StressXX CellTensor1 CellTensor2 CellTensor3 CellTensor4 
0 6.7219255296e+00 8.5487847878e-02 1.7865676565e+00 -3.0944259522e+00 1.7865676565e+00 3.0944259522e+00 
100 6.7145524863e+00 9.2245520484e-02 1.7865676565e+00 -3.0944259522e+00 1.7865676565e+00 3.0944259522e+00 
200 6.7069567976e+00 9.7167040222e-02 1.7839866383e+00 -3.0899554976e+00 1.7839866383e+00 3.0899554976e+00 
300 6.6993877893e+00 1.0156701686e-01 1.7812640204e+00 -3.0852397850e+00 1.7812640204e+00 3.0852397850e+00 
400 6.6918597333e+00 1.0547454746e-01 1.7784138006e+00 -3.0803030594e+00 1.7784138006e+00 3.0803030594e+00 
500 6.6843854258e+00 1.0891595245e-01 1.7754492153e+00 -3.0751682472e+00 1.7754492153e+00 3.0751682472e+00 
600 6.6769763968e+00 1.1191521485e-01 1.7723828213e+00 -3.0698570969e+00 1.7723828213e+00 3.0698570969e+00 
700 6.6696430828e+00 1.1449434750e-01 1.7692265638e+00 -3.0643902987e+00 1.7692265638e+00 3.0643902987e+00 
800 6.6623949690e+00 1.1667370068e-01 1.7659918344e+00 -3.0587875830e+00 1.7659918344e+00 3.0587875830e+00 
900 6.6552407067e+00 1.1847222062e-01 1.7626895185e+00 -3.0530678040e+00 1.7626895185e+00 3.0530678040e+00 
1000 6.6481882098e+00 1.1990766725e-01 1.7593300357e+00 -3.0472490090e+00 1.7593300357e+00 3.0472490090e+00 
1100 6.6412447350e+00 1.2099679835e-01 1.7559233729e+00 -3.0413484960e+00 1.7559233729e+00 3.0413484960e+00 
1200 6.6344169465e+00 1.2175552539e-01 1.7524791124e+00 -3.0353828618e+00 1.7524791124e+00 3.0353828618e+00 
1300 6.6277109693e+00 1.2219904582e-01 1.7490064541e+00 -3.0293680413e+00 1.7490064541e+00 3.0293680413e+00 
1400 6.6211324321e+00 1.2234195512e-01 1.7455142347e+00 -3.0233193398e+00 1.7455142347e+00 3.0233193398e+00 
1500 6.6146865010e+00 1.2219834163e-01 1.7420109423e+00 -3.0172514594e+00 1.7420109423e+00 3.0172514594e+00 
1600 6.6083779061e+00 1.2178186615e-01 1.7385047286e+00 -3.0111785191e+00 1.7385047286e+00 3.0111785191e+00 
1700 6.6022109613e+00 1.2110582848e-01 1.7350034182e+00 -3.0051140717e+00 1.7350034182e+00 3.0051140717e+00 
1800 6.5961895786e+00 1.2018322197e-01 1.7315145160e+00 -2.9990711158e+00 1.7315145160e+00 2.9990711158e+00 
1900 6.5903172780e+00 1.1902677761e-01 1.7280452123e+00 -2.9930621056e+00 1.7280452123e+00 2.9930621056e+00 
2000 6.5845971935e+00 1.1764899853e-01 1.7246023869e+00 -2.9870989569e+00 1.7246023869e+00 2.9870989569e+00 
2100 6.5790320758e+00 1.1606218600e-01 1.7211926113e+00 -2.9811930524e+00 1.7211926113e+00 2.9811930524e+00 
2200 6.5736242933e+00 1.1427845759e-01 1.7178221512e+00 -2.9753552443e+00 1.7178221512e+00 2.9753552443e+00 
2300 6.5683758303e+00 1.1230975852e-01 1.7144969669e+00 -2.9695958561e+00 1.7144969669e+00 2.9695958561e+00 
2400 6.5632882854e+00 1.1016786682e-01 1.7112227140e+00 -2.9639246838e+00 1.7112227140e+00 2.9639246838e+00 
2500 6.5583628689e+00 1.0786439316e-01 1.7080047442e+00 -2.9583509965e+00 1.7080047442e+00 2.9583509965e+00 
2600 6.5536003997e+00 1.0541077610e-01 1.7048481049e+00 -2.9528835369e+00 1.7048481049e+00 2.9528835369e+00 
2700 6.5490013038e+00 1.0281827347e-01 1.7017575404e+00 -2.9475305222e+00 1.7017575404e+00 2.9475305222e+00 
2800 6.5445656131e+00 1.0009795066e-01 1.6987374921e+00 -2.9422996451e+00 1.6987374921e+00 2.9422996451e+00 
2900 6.5402929656e+00 9.7260666531e-02 1.6957920999e+00 -2.9371980760e+00 1.6957920999e+00 2.9371980760e+00 
3000 6.5361826075e+00 9.4317057569e-02 1.6929252034e+00 -2.9322324657e+00 1.6929252034e+00 2.9322324657e+00 
3100 6.5322333971e+00 9.1277521056e-02 1.6901403447e+00 -2.9274089489e+00 1.6901403447e+00 2.9274089489e+00 
3200 6.5284438106e+00 8.8152197735e-02 1.6874407708e+00 -2.9227331497e+00 1.6874407708e+00 2.9227331497e+00 
3300 6.5248119503e+00 8.4950954594e-02 1.6848294370e+00 -2.9182101870e+00 1.6848294370e+00 2.9182101870e+00 
3400 6.5213355550e+00 8.1683368230e-02 1.6823090116e+00 -2.9138446822e+00 1.6823090116e+00 2.9138446822e+00 
3500 6.5180120127e+00 7.8358709237e-02 1.6798818804e+00 -2.9096407676e+00 1.6798818804e+00 2.9096407676e+00 
3600 6.5148383758e+00 7.4985927974e-02 1.6775501524e+00 -2.9056020963e+00 1.6775501524e+00 2.9056020963e+00 
3700 6.5118113774e+00 7.1573642008e-02 1.6753156662e+00 -2.9017318525e+00 1.6753156662e+00 2.9017318525e+00 
3800 6.5089274511e+00 6.8130125460e-02 1.6731799966e+00 -2.8980327644e+00 1.6731799966e+00 2.8980327644e+00 
3900 6.5061827514e+00 6.4663300423e-02 1.6711444628e+00 -2.8945071163e+00 1.6711444628e+00 2.8945071163e+00 
4000 6.5035731766e+00 6.1180730552e-02 1.6692101354e+00 -2.8911567630e+00 1.6692101354e+00 2.8911567630e+00 
4100 6.5010943924e+00 5.7689616878e-02 1.6673778459e+00 -2.8879831446e+00 1.6673778459e+00 2.8879831446e+00 
4200 6.4987418573e+00 5.4196795830e-02 1.6656481951e+00 -2.8849873014e+00 1.6656481951e+00 2.8849873014e+00 
4300 6.4965108484e+00 5.0708739428e-02 1.6640215621e+00 -2.8821698905e+00 1.6640215621e+00 2.8821698905e+00 
4400 6.4943964887e+00 4.7231557556e-02 1.6624981145e+00 -2.8795312018e+00 1.6624981145e+00 2.8795312018e+00 
4500 6.4923937736e+00 4.3771002189e-02 1.6610778174e+00 -2.8770711750e+00 1.6610778174e+00 2.8770711750e+00 
4600 6.4904975991e+00 4.0332473426e-02 1.6597604435e+00 -2.8747894165e+00 1.6597604435e+00 2.8747894165e+00 
4700 6.4887027888e+00 3.6921027170e-02 1.6585455830e+00 -2.8726852163e+00 1.6585455830e+00 2.8726852163e+00 
4800 6.4870041208e+00 3.3541384263e-02 1.6574326532e+00 -2.8707575655e+00 1.6574326532e+00 2.8707575655e+00 
4900 6.4853963550e+00 3.0197940894e-02 1.6564209086e+00 -2.8690051725e+00 1.6564209086e+00 2.8690051725e+00 
5000 6.4838742585e+00 2.6894780071e-02 1.6555094504e+00 -2.8674264805e+00 1.6555094504e+00 2.8674264805e+00 
5100 6.4824326309e+00 2.3635683979e-02 1.6546972358e+00 -2.8660196835e+00 1.6546972358e+00 2.8660196835e+00 
5200 6.4810663282e+00 2.0424147021e-02 1.6539830875e+00 -2.8647827424e+00 1.6539830875e+00 2.8647827424e+00 
5300 6.4797702860e+00 1.7263389356e-02 1.6533657028e+00 -2.8637134008e+00 1.6533657028e+00 2.8637134008e+00 
5400 6.4785395405e+00 1.4156370768e-02 1.6528436622e+00 -2.8628092000e+00 1.6528436622e+00 2.8628092000e+00 
5500 6.4773692491e+00 1.1105804690e-02 1.6524154379e+00 -2.8620674936e+00 1.6524154379e+00 2.8620674936e+00 
5600 6.4762547086e+00 8.1141722479e-03 1.6520794017e+00 -2.8614854618e+00 1.6520794017e+00 2.8614854618e+00 
5700 6.4751913725e+00 5.1837361639e-03 1.6518338332e+00 -2.8610601248e+00 1.6518338332e+00 2.8610601248e+00 
5800 6.4741748659e+00 2.3165544217e-03 1.6516769272e+00 -2.8607883556e+00 1.6516769272e+00 2.8607883556e+00 
5900 6.4732009994e+00 -4.8550643202e-04 1.6516068003e+00 -2.8606668923e+00 1.6516068003e+00 2.8606668923e+00 
6000 6.4722657809e+00 -3.2207584347e-03 1.6516214984e+00 -2.8606923500e+00 1.6516214984e+00 2.8606923500e+00 
6100 6.4713654259e+00 -5.8876798848e-03 1.6517190022e+00 -2.8608612317e+00 1.6517190022e+00 2.8608612317e+00 
6200 6.4704963654e+00 -8.4849036106e-03 1.6518972343e+00 -2.8611699387e+00 1.6518972343e+00 2.8611699387e+00 
6300 6.4696552534e+00 -1.1011205885e-02 1.6521540639e+00 -2.8616147807e+00 1.6521540639e+00 2.8616147807e+00 
6400 6.4688389712e+00 -1.3465496021e-02 1.6524873130e+00 -2.8621919850e+00 1.6524873130e+00 2.8621919850e+00 
6500 6.4680446311e+00 -1.5846806677e-02 1.6528947609e+00 -2.8628977054e+00 1.6528947609e+00 2.8628977054e+00 
6600 6.4672695784e+00 -1.8154284888e-02 1.6533741493e+00 -2.8637280305e+00 1.6533741493e+00 2.8637280305e+00 
6700 6.4665113914e+00 -2.0387183827e-02 1.6539231868e+00 -2.8646789914e+00 1.6539231868e+00 2.8646789914e+00 
6800 6.4657678803e+00 -2.2544855295e-02 1.6545395531e+00 -2.8657465691e+00 1.6545395531e+00 2.8657465691e+00 
6900 6.4650370845e+00 -2.4626742931e-02 1.6552209029e+00 -2.8669267015e+00 1.6552209029e+00 2.8669267015e+00 
7000 6.4643172692e+00 -2.6632376123e-02 1.6559648696e+00 -2.8682152898e+00 1.6559648696e+00 2.8682152898e+00 
7100 6.4636069199e+00 -2.8561364598e-02 1.6567690694e+00 -2.8696082046e+00 1.6567690694e+00 2.8696082046e+00 
7200 6.4629047362e+00 -3.0413393663e-02 1.6576311038e+00 -2.8711012920e+00 1.6576311038e+00 2.8711012920e+00 
7300 6.4622096249e+00 -3.2188220068e-02 1.6585485636e+00 -2.8726903790e+00 1.6585485636e+00 2.8726903790e+00 
7400 6.4615206916e+00 -3.3885668456e-02 1.6595190313e+00 -2.8743712784e+00 1.6595190313e+00 2.8743712784e+00 
7500 6.4608372317e+00 -3.5505628355e-02 1.6605400844e+00 -2.8761397942e+00 1.6605400844e+00 2.8761397942e+00 
7600 6.4601587208e+00 -3.7048051690e-02 1.6616092979e+00 -2.8779917262e+00 1.6616092979e+00 2.8779917262e+00 
7700 6.4594848042e+00 -3.8512950753e-02 1.6627242468e+00 -2.8799228745e+00 1.6627242468e+00 2.8799228745e+00 
7800 6.4588152858e+00 -3.9900396615e-02 1.6638825092e+00 -2.8819290438e+00 1.6638825092e+00 2.8819290438e+00 
7900 6.4581501172e+00 -4.1210517912e-02 1.6650816680e+00 -2.8840060476e+00 1.6650816680e+00 2.8840060476e+00 
8000 6.4574893855e+00 -4.2443499992e-02 1.6663193135e+00 -2.8861497126e+00 1.6663193135e+00 2.8861497126e+00 
8100 6.4568333015e+00 -4.3599584361e-02 1.6675930460e+00 -2.8883558821e+00 1.6675930460e+00 2.8883558821e+00 
8200 6.4561821874e+00 -4.4679068398e-02 1.6689004776e+00 -2.8906204200e+00 1.6689004776e+00 2.8906204200e+00 
8300 6.4555364647e+00 -4.5682305304e-02 1.6702392344e+00 -2.8929392148e+00 1.6702392344e+00 2.8929392148e+00 
8400 6.4548966419e+00 -4.6609704239e-02 1.6716069587e+00 -2.8953081827e+00 1.6716069587e+00 2.8953081827e+00 
8500 6.4542633019e+00 -4.7461730628e-02 1.6730013109e+00 -2.8977232716e+00 1.6730013109e+00 2.8977232716e+00 
8600 6.4536370906e+00 -4.8238906576e-02 1.6744199718e+00 -2.9001804644e+00 1.6744199718e+00 2.9001804644e+00 
8700 6.4530187045e+00 -4.8941811391e-02 1.6758606443e+00 -2.9026757824e+00 1.6758606443e+00 2.9026757824e+00 
8800 6.4524088793e+00 -4.9571082160e-02 1.6773210555e+00 -2.9052052888e+00 1.6773210555e+00 2.9052052888e+00 
8900 6.4518083788e+00 -5.0127414368e-02 1.6787989585e+00 -2.9077650917e+00 1.6787989585e+00 2.9077650917e+00 
9000 6.4512179841e+00 -5.0611562518e-02 1.6802921342e+00 -2.9103513480e+00 1.6802921342e+00 2.9103513480e+00 
9100 6.4506384829e+00 -5.1024340739e-02 1.6817983936e+00 -2.9129602658e+00 1.6817983936e+00 2.9129602658e+00 
9200 6.4500706599e+00 -5.1366623355e-02 1.6833155791e+00 -2.9155881082e+00 1.6833155791e+00 2.9155881082e+00 
9300 6.4495152875e+00 -5.1639345396e-02 1.6848415668e+00 -2.9182311964e+00 1.6848415668e+00 2.9182311964e+00 
9400 6.4489731169e+00 -5.1843503022e-02 1.6863742678e+00 -2.9208859124e+00 1.6863742678e+00 2.9208859124e+00 
9500 6.4484448701e+00 -5.1980153862e-02 1.6879116303e+00 -2.9235487024e+00 1.6879116303e+00 2.9235487024e+00 
9600 6.4479312321e+00 -5.2050417227e-02 1.6894516413e+00 -2.9262160797e+00 1.6894516413e+00 2.9262160797e+00 
9700 6.4474328446e+00 -5.2055474207e-02 1.6909923282e+00 -2.9288846276e+00 1.6909923282e+00 2.9288846276e+00 
9800 6.4469502991e+00 -5.1996567619e-02 1.6925317605e+00 -2.9315510026e+00 1.6925317605e+00 2.9315510026e+00 
9900 6.4464841321e+00 -5.1875001805e-02 1.6940680515e+00 -2.9342119366e+00 1.6940680515e+00 2.9342119366e+00 
10000 6.4460348198e+00 -5.1692142267e-02 1.6955993597e+00 -2.9368642404e+00 1.6955993597e+00 2.9368642404e+00 
10100 6.4456027745e+00 -5.1449415127e-02 1.6971238909e+00 -2.9395048057e+00 1.6971238909e+00 2.9395048057e+00 
10200 6.4451883405e+00 -5.1148306412e-02 1.6986398989e+00 -2.9421306086e+00 1.6986398989e+00 2.9421306086e+00 
10300 6.4447917923e+00 -5.0790361145e-02 1.7001456876e+00 -2.9447387111e+00 1.7001456876e+00 2.9447387111e+00 
10400 6.4444133318e+00 -5.0377182242e-02 1.7016396122e+00 -2.9473262646e+00 1.7016396122e+00 2.9473262646e+00 
10500 6.4440530875e+00 -4.9910429220e-02 1.7031200808e+00 -2.9498905114e+00 1.7031200808e+00 2.9498905114e+00 
10600 6.4437111135e+00 -4.9391816695e-02 1.7045855553e+00 -2.9524287876e+00 1.7045855553e+00 2.9524287876e+00 
10700 6.4433873896e+00 -4.8823112679e-02 1.7060345529e+00 -2.9549385250e+00 1.7060345529e+00 2.9549385250e+00 
10800 6.4430818218e+00 -4.8206136670e-02 1.7074656473e+00 -2.9574172534e+00 1.7074656473e+00 2.9574172534e+00 
10900 6.4427942437e+00 -4.7542757543e-02 1.7088774700e+00 -2.9598626019e+00 1.7088774700e+00 2.9598626019e+00 
11000 6.4425244179e+00 -4.6834891228e-02 1.7102687108e+00 -2.9622723017e+00 1.7102687108e+00 2.9622723017e+00 
11100 6.4422720382e+00 -4.6084498193e-02 1.7116381195e+00 -2.9646441871e+00 1.7116381195e+00 2.9646441871e+00 
11200 6.4420367327e+00 -4.5293580729e-02 1.7129845061e+00 -2.9669761972e+00 1.7129845061e+00 2.9669761972e+00 
11300 6.4418180669e+00 -4.4464180032e-02 1.7143067423e+00 -2.9692663775e+00 1.7143067423e+00 2.9692663775e+00 
11400 6.4416155470e+00 -4.3598373110e-02 1.7156037617e+00 -2.9715128810e+00 1.7156037617e+00 2.9715128810e+00 
11500 6.4414286242e+00 -4.2698269503e-02 1.7168745607e+00 -2.9737139694e+00 1.7168745607e+00 2.9737139694e+00 
11600 6.4412566987e+00 -4.1766007831e-02 1.7181181990e+00 -2.9758680141e+00 1.7181181990e+00 2.9758680141e+00 
11700 6.4410991247e+00 -4.0803752184e-02 1.7193338002e+00 -2.9779734971e+00 1.7193338002e+00 2.9779734971e+00 
11800 6.4409552150e+00 -3.9813688360e-02 1.7205205518e+00 -2.9800290111e+00 1.7205205518e+00 2.9800290111e+00 
11900 6.4408242462e+00 -3.8798019970e-02 1.7216777059e+00 -2.9820332608e+00 1.7216777059e+00 2.9820332608e+00 
12000 6.4407054635e+00 -3.7758964413e-02 1.7228045791e+00 -2.9839850624e+00 1.7228045791e+00 2.9839850624e+00 
12100 6.4405980868e+00 -3.6698748752e-02 1.7239005526e+00 -2.9858833443e+00 1.7239005526e+00 2.9858833443e+00 
12200 6.4405013153e+00 -3.5619605493e-02 1.7249650723e+00 -2.9877271466e+00 1.7249650723e+00 2.9877271466e+00 
12300 6.4404143332e+00 -3.4523768300e-02 1.7259976485e+00 -2.9895156209e+00 1.7259976485e+00 2.9895156209e+00 
12400 6.4403363154e+00 -3.3413467643e-02 1.7269978556e+00 -2.9912480304e+00 1.7269978556e+00 2.9912480304e+00 
12500 6.4402664324e+00 -3.2290926426e-02 1.7279653317e+00 -2.9929237483e+00 1.7279653317e+00 2.9929237483e+00 
12600 6.4402038556e+00 -3.1158355594e-02 1.7288997786e+00 -2.9945422577e+00 1.7288997786e+00 2.9945422577e+00 
12700 6.4401477626e+00 -3.0017949746e-02 1.7298009604e+00 -2.9961031504e+00 1.7298009604e+00 2.9961031504e+00 
12800 6.4400973418e+00 -2.8871882781e-02 1.7306687035e+00 -2.9976061255e+00 1.7306687035e+00 2.9976061255e+00 
12900 6.4400517976e+00 -2.7722303590e-02 1.7315028955e+00 -2.9990509885e+00 1.7315028955e+00 2.9990509885e+00 
13000 6.4400103540e+00 -2.6571331819e-02 1.7323034844e+00 -3.0004376491e+00 1.7323034844e+00 3.0004376491e+00 
13100 6.4399722598e+00 -2.5421053725e-02 1.7330704774e+00 -3.0017661199e+00 1.7330704774e+00 3.0017661199e+00 
13200 6.4399367915e+00 -2.4273518142e-02 1.7338039399e+00 -3.0030365143e+00 1.7338039399e+00 3.0030365143e+00 
13300 6.4399032576e+00 -2.3130732572e-02 1.7345039946e+00 -3.0042490446e+00 1.7345039946e+00 3.0042490446e+00 
13400 6.4398710016e+00 -2.1994659432e-02 1.7351708196e+00 -3.0054040194e+00 1.7351708196e+00 3.0054040194e+00 
13500 6.4398394045e+00 -2.0867212461e-02 1.7358046477e+00 -3.0065018418e+00 1.7358046477e+00 3.0065018418e+00 
13600 6.4398078878e+00 -1.9750253302e-02 1.7364057642e+00 -3.0075430061e+00 1.7364057642e+00 3.0075430061e+00 
13700 6.4397759154e+00 -1.8645588281e-02 1.7369745060e+00 -3.0085280958e+00 1.7369745060e+00 3.0085280958e+00 
13800 6.4397429955e+00 -1.7554965391e-02 1.7375112596e+00 -3.0094577804e+00 1.7375112596e+00 3.0094577804e+00 
13900 6.4397086816e+00 -1.6480071479e-02 1.7380164597e+00 -3.0103328126e+00 1.7380164597e+00 3.0103328126e+00 
14000 6.4396725738e+00 -1.5422529667e-02 1.7384905870e+00 -3.0111540251e+00 1.7384905870e+00 3.0111540251e+00 
14100 6.4396343195e+00 -1.4383896983e-02 1.7389341667e+00 -3.0119223278e+00 1.7389341667e+00 3.0119223278e+00 
14200 6.4395936134e+00 -1.3365662233e-02 1.7393477668e+00 -3.0126387042e+00 1.7393477668e+00 3.0126387042e+00 
14300 6.4395501974e+00 -1.2369244095e-02 1.7397319958e+00 -3.0133042082e+00 1.7397319958e+00 3.0133042082e+00 
14400 6.4395038606e+00 -1.1395989447e-02 1.7400875007e+00 -3.0139199608e+00 1.7400875007e+00 3.0139199608e+00 
14500 6.4394544379e+00 -1.0447171917e-02 1.7404149654e+00 -3.0144871464e+00 1.7404149654e+00 3.0144871464e+00 
14600 6.4394018094e+00 -9.5239906638e-03 1.7407151086e+00 -3.0150070095e+00 1.7407151086e+00 3.0150070095e+00 
14700 6.4393458988e+00 -8.6275693669e-03 1.7409886812e+00 -3.0154808512e+00 1.7409886812e+00 3.0154808512e+00 
14800 6.4392866721e+00 -7.7589554374e-03 1.7412364649e+00 -3.0159100253e+00 1.7412364649e+00 3.0159100253e+00 
14900 6.4392241353e+00 -6.9191194281e-03 1.7414592699e+00 -3.0162959347e+00 1.7414592699e+00 3.0162959347e+00 
15000 6.4391583329e+00 -6.1089546425e-03 1.7416579323e+00 -3.0166400281e+00 1.7416579323e+00 3.0166400281e+00 
15100 6.4390893451e+00 -5.3292769326e-03 1.7418333128e+00 -3.0169437961e+00 1.7418333128e+00 3.0169437961e+00 
15200 6.4390172857e+00 -4.5808246761e-03 1.7419862940e+00 -3.0172087673e+00 1.7419862940e+00 3.0172087673e+00 
15300 6.4389422996e+00 -3.8642589249e-03 1.7421177785e+00 -3.0174365051e+00 1.7421177785e+00 3.0174365051e+00 
15400 6.4388645599e+00 -3.1801637158e-03 1.7422286866e+00 -3.0176286036e+00 1.7422286866e+00 3.0176286036e+00 
15500 6.4387842653e+00 -2.5290465352e-03 1.7423199545e+00 -3.0177866842e+00 1.7423199545e+00 3.0177866842e+00 
15600 6.4387016372e+00 -1.9113389286e-03 1.7423925320e+00 -3.0179123921e+00 1.7423925320e+00 3.0179123921e+00 
15700 6.4386169168e+00 -1.3273972484e-03 1.7424473804e+00 -3.0180073923e+00 1.7424473804e+00 3.0180073923e+00 
15800 6.4385303624e+00 -7.7750353129e-04 1.7424854705e+00 -3.0180733664e+00 1.7424854705e+00 3.0180733664e+00 
15900 6.4384422463e+00 -2.6186649982e-04 1.7425077808e+00 -3.0181120089e+00 1.7425077808e+00 3.0181120089e+00 
16000 6.4383528521e+00 2.1937731970e-04 1.7425152949e+00 -3.0181250236e+00 1.7425152949e+00 3.0181250236e+00 
16100 6.4382624716e+00 6.6616236726e-04 1.7425090000e+00 -3.0181141207e+00 1.7425090000e+00 3.0181141207e+00 
16200 6.4381714025e+00 1.0784927132e-03 1.7424898850e+00 -3.0180810125e+00 1.7424898850e+00 3.0180810125e+00 
16300 6.4380799454e+00 1.4564406210e-03 1.7424589382e+00 -3.0180274111e+00 1.7424589382e+00 3.0180274111e+00 
16400 6.4379884010e+00 1.8001450124e-03 1.7424171457e+00 -3.0179550243e+00 1.7424171457e+00 3.0179550243e+00 
16500 6.4378970684e+00 2.1098098402e-03 1.7423654894e+00 -3.0178655530e+00 1.7423654894e+00 3.0178655530e+00 
16600 6.4378062418e+00 2.3857023714e-03 1.7423049453e+00 -3.0177606876e+00 1.7423049453e+00 3.0177606876e+00 
16700 6.4377162088e+00 2.6281513843e-03 1.7422364818e+00 -3.0176421053e+00 1.7422364818e+00 3.0176421053e+00 
16800 6.4376272485e+00 2.8375452840e-03 1.7421610577e+00 -3.0175114669e+00 1.7421610577e+00 3.0175114669e+00 
16900 6.4375396290e+00 3.0143301390e-03 1.7420796208e+00 -3.0173704141e+00 1.7420796208e+00 3.0173704141e+00 
17000 6.4374536060e+00 3.1590076424e-03 1.7419931063e+00 -3.0172205665e+00 1.7419931063e+00 3.0172205665e+00 
17100 6.4373694212e+00 3.2721330024e-03 1.7419024348e+00 -3.0170635190e+00 1.7419024348e+00 3.0170635190e+00 
17200 6.4372873008e+00 3.3543127643e-03 1.7418085116e+00 -3.0169008391e+00 1.7418085116e+00 3.0169008391e+00 
17300 6.4372074542e+00 3.4062025701e-03 1.7417122242e+00 -3.0167340646e+00 1.7417122242e+00 3.0167340646e+00 
17400 6.4371300730e+00 3.4285048586e-03 1.7416144420e+00 -3.0165647007e+00 1.7416144420e+00 3.0165647007e+00 
17500 6.4370553300e+00 3.4219665110e-03 1.7415160140e+00 -3.0163942184e+00 1.7415160140e+00 3.0163942184e+00 
17600 6.4369833786e+00 3.3873764476e-03 1.7414177681e+00 -3.0162240516e+00 1.7414177681e+00 3.0162240516e+00 
17700 6.4369143521e+00 3.3255631800e-03 1.7413205099e+00 -3.0160555954e+00 1.7413205099e+00 3.0160555954e+00 
17800 6.4368483635e+00 3.2373923250e-03 1.7412250211e+00 -3.0158902039e+00 1.7412250211e+00 3.0158902039e+00 
17900 6.4367855051e+00 3.1237640853e-03 1.7411320588e+00 -3.0157291886e+00 1.7411320588e+00 3.0157291886e+00 
18000 6.4367258487e+00 2.9856107041e-03 1.7410423546e+00 -3.0155738164e+00 1.7410423546e+00 3.0155738164e+00 
18100 6.4366694453e+00 2.8238938984e-03 1.7409566133e+00 -3.0154253080e+00 1.7409566133e+00 3.0154253080e+00 
18200 6.4366163259e+00 2.6396022789e-03 1.7408755121e+00 -3.0152848367e+00 1.7408755121e+00 3.0152848367e+00 
18300 6.4365665015e+00 2.4337487613e-03 1.7407997002e+00 -3.0151535265e+00 1.7407997002e+00 3.0151535265e+00 
18400 6.4365199639e+00 2.2073679770e-03 1.7407297975e+00 -3.0150324515e+00 1.7407297975e+00 3.0150324515e+00 
18500 6.4364766863e+00 1.9615136892e-03 1.7406663943e+00 -3.0149226340e+00 1.7406663943e+00 3.0149226340e+00 
18600 6.4364366238e+00 1.6972562196e-03 1.7406100509e+00 -3.0148250443e+00 1.7406100509e+00 3.0148250443e+00 
18700 6.4363997149e+00 1.4156798952e-03 1.7405612965e+00 -3.0147405992e+00 1.7405612965e+00 3.0147405992e+00 
18800 6.4363658819e+00 1.1178805171e-03 1.7405206293e+00 -3.0146701616e+00 1.7405206293e+00 3.0146701616e+00 
18900 6.4363350325e+00 8.0496286174e-04 1.7404885160e+00 -3.0146145397e+00 1.7404885160e+00 3.0146145397e+00 
19000 6.4363070606e+00 4.7803821654e-04 1.7404653914e+00 -3.0145744868e+00 1.7404653914e+00 3.0145744868e+00 
19100 6.4362818475e+00 1.3822195849e-04 1.7404516584e+00 -3.0145507004e+00 1.7404516584e+00 3.0145507004e+00 
19200 6.4362592634e+00 -2.1336882118e-04 1.7404476875e+00 -3.0145438227e+00 1.7404476875e+00 3.0145438227e+00 
19300 6.4362391688e+00 -5.7561764016e-04 1.7404538172e+00 -3.0145544397e+00 1.7404538172e+00 3.0145544397e+00 
19400 6.4362214154e+00 -9.4741089212e-04 1.7404703537e+00 -3.0145830817e+00 1.7404703537e+00 3.0145830817e+00 
19500 6.4362058479e+00 -1.3276400530e-03 1.7404975709e+00 -3.0146302232e+00 1.7404975709e+00 3.0146302232e+00 
19600 6.4361923049e+00 -1.7152038231e-03 1.7405357107e+00 -3.0146962833e+00 1.7405357107e+00 3.0146962833e+00 
19700 6.4361806208e+00 -2.1090102014e-03 1.7405849832e+00 -3.0147816258e+00 1.7405849832e+00 3.0147816258e+00 
19800 6.4361706268e+00 -2.5079784884e-03 1.7406455669e+00 -3.0148865599e+00 1.7406455669e+00 3.0148865599e+00 
19900 6.4361621522e+00 -2.9110412166e-03 1.7407176090e+00 -3.0150113405e+00 1.7407176090e+00 3.0150113405e+00 
20000 6.4361550260e+00 -3.3171460036e-03 1.7408012258e+00 -3.0151561690e+00 1.7408012258e+00 3.0151561690e+00 
20100 6.4361490777e+00 -3.7252573283e-03 1.7408965031e+00 -3.0153211941e+00 1.7408965031e+00 3.0153211941e+00 
20200 6.4361441387e+00 -4.1343582270e-03 1.7410034967e+00 -3.0155065125e+00 1.7410034967e+00 3.0155065125e+00 
20300 6.4361400437e+00 -4.5434519092e-03 1.7411222330e+00 -3.0157121697e+00 1.7411222330e+00 3.0157121697e+00 
20400 6.4361366311e+00 -4.9515632910e-03 1.7412527094e+00 -3.0159381615e+00 1.7412527094e+00 3.0159381615e+00 
20500 6.4361337447e+00 -5.3577404463e-03 1.7413948953e+00 -3.0161844347e+00 1.7413948953e+00 3.0161844347e+00 
20600 6.4361312341e+00 -5.7610559749e-03 1.7415487323e+00 -3.0164508882e+00 1.7415487323e+00 3.0164508882e+00 
20700 6.4361289560e+00 -6.1606082881e-03 1.7417141353e+00 -3.0167373746e+00 1.7417141353e+00 3.0167373746e+00 
20800 6.4361267745e+00 -6.5555228098e-03 1.7418909930e+00 -3.0170437011e+00 1.7418909930e+00 3.0170437011e+00 
20900 6.4361245619e+00 -6.9449530970e-03 1.7420791690e+00 -3.0173696315e+00 1.7420791690e+00 3.0173696315e+00 
21000 6.4361221995e+00 -7.3280818756e-03 1.7422785022e+00 -3.0177148868e+00 1.7422785022e+00 3.0177148868e+00 
21100 6.4361195780e+00 -7.7041219966e-03 1.7424888081e+00 -3.0180791473e+00 1.7424888081e+00 3.0180791473e+00 
21200 6.4361165976e+00 -8.0723173104e-03 1.7427098794e+00 -3.0184620540e+00 1.7427098794e+00 3.0184620540e+00 
21300 6.4361131687e+00 -8.4319434609e-03 1.7429414870e+00 -3.0188632101e+00 1.7429414870e+00 3.0188632101e+00 
21400 6.4361092118e+00 -8.7823086018e-03 1.7431833809e+00 -3.0192821826e+00 1.7431833809e+00 3.0192821826e+00 
21500 6.4361046580e+00 -9.1227540338e-03 1.7434352913e+00 -3.0197185042e+00 1.7434352913e+00 3.0197185042e+00 
21600 6.4360994487e+00 -9.4526547664e-03 1.7436969294e+00 -3.0201716747e+00 1.7436969294e+00 3.0201716747e+00 
21700 6.4360935357e+00 -9.7714200038e-03 1.7439679885e+00 -3.0206411629e+00 1.7439679885e+00 3.0206411629e+00 
21800 6.4360868813e+00 -1.0078493557e-02 1.7442481451e+00 -3.0211264083e+00 1.7442481451e+00 3.0211264083e+00 
21900 6.4360794576e+00 -1.0373354183e-02 1.7445370596e+00 -3.0216268229e+00 1.7445370596e+00 3.0216268229e+00 
22000 6.4360712468e+00 -1.0655515855e-02 1.7448343777e+00 -3.0221417930e+00 1.7448343777e+00 3.0221417930e+00 
22100 6.4360622406e+00 -1.0924527958e-02 1.7451397312e+00 -3.0226706808e+00 1.7451397312e+00 3.0226706808e+00 
22200 6.4360524398e+00 -1.1179975424e-02 1.7454527392e+00 -3.0232128266e+00 1.7454527392e+00 3.0232128266e+00 
22300 6.4360418539e+00 -1.1421478794e-02 1.7457730091e+00 -3.0237675502e+00 1.7457730091e+00 3.0237675502e+00 
22400 6.4360305008e+00 -1.1648694215e-02 1.7461001374e+00 -3.0243341530e+00 1.7461001374e+00 3.0243341530e+00 
22500 6.4360184061e+00 -1.1861313380e-02 1.7464337112e+00 -3.0249119198e+00 1.7464337112e+00 3.0249119198e+00 
22600 6.4360056024e+00 -1.2059063400e-02 1.7467733089e+00 -3.0255001203e+00 1.7467733089e+00 3.0255001203e+00 
22700 6.4359921290e+00 -1.2241706615e-02 1.7471185014e+00 -3.0260980112e+00 1.7471185014e+00 3.0260980112e+00 
22800 6.4359780312e+00 -1.2409040353e-02 1.7474688530e+00 -3.0267048380e+00 1.7474688530e+00 3.0267048380e+00 
22900 6.4359633594e+00 -1.2560896623e-02 1.7478239226e+00 -3.0273198366e+00 1.7478239226e+00 3.0273198366e+00 
23000 6.4359481690e+00 -1.2697141760e-02 1.7481832644e+00 -3.0279422350e+00 1.7481832644e+00 3.0279422350e+00 
23100 6.4359325189e+00 -1.2817676008e-02 1.7485464295e+00 -3.0285712553e+00 1.7485464295e+00 3.0285712553e+00 
23200 6.4359164719e+00 -1.2922433061e-02 1.7489129661e+00 -3.0292061152e+00 1.7489129661e+00 3.0292061152e+00 
23300 6.4359000929e+00 -1.3011379544e-02 1.7492824209e+00 -3.0298460298e+00 1.7492824209e+00 3.0298460298e+00 
23400 6.4358834494e+00 -1.3084514446e-02 1.7496543403e+00 -3.0304902131e+00 1.7496543403e+00 3.0304902131e+00 
23500 6.4358666096e+00 -1.3141868513e-02 1.7500282707e+00 -3.0311378796e+00 1.7500282707e+00 3.0311378796e+00 
23600 6.4358496431e+00 -1.3183503584e-02 1.7504037600e+00 -3.0317882462e+00 1.7504037600e+00 3.0317882462e+00 
23700 6.4358326192e+00 -1.3209511894e-02 1.7507803582e+00 -3.0324405333e+00 1.7507803582e+00 3.0324405333e+00 
23800 6.4358156068e+00 -1.3220015326e-02 1.7511576181e+00 -3.0330939667e+00 1.7511576181e+00 3.0330939667e+00 
23900 6.4357986739e+00 -1.3215164626e-02 1.7515350967e+00 -3.0337477788e+00 1.7515350967e+00 3.0337477788e+00 
24000 6.4357818870e+00 -1.3195138580e-02 1.7519123555e+00 -3.0344012101e+00 1.7519123555e+00 3.0344012101e+00 
24100 6.4357653104e+00 -1.3160143152e-02 1.7522889614e+00 -3.0350535107e+00 1.7522889614e+00 3.0350535107e+00 
24200 6.4357490062e+00 -1.3110410592e-02 1.7526644877e+00 -3.0357039414e+00 1.7526644877e+00 3.0357039414e+00 
24300 6.4357330333e+00 -1.3046198499e-02 1.7530385147e+00 -3.0363517751e+00 1.7530385147e+00 3.0363517751e+00 
24400 6.4357174475e+00 -1.2967788869e-02 1.7534106303e+00 -3.0369962983e+00 1.7534106303e+00 3.0369962983e+00 
24500 6.4357023012e+00 -1.2875487101e-02 1.7537804309e+00 -3.0376368116e+00 1.7537804309e+00 3.0376368116e+00 
24600 6.4356876425e+00 -1.2769620979e-02 1.7541475218e+00 -3.0382726317e+00 1.7541475218e+00 3.0382726317e+00 
24700 6.4356735156e+00 -1.2650539634e-02 1.7545115180e+00 -3.0389030917e+00 1.7545115180e+00 3.0389030917e+00 
24800 6.4356599604e+00 -1.2518612479e-02 1.7548720450e+00 -3.0395275427e+00 1.7548720450e+00 3.0395275427e+00 
24900 6.4356470122e+00 -1.2374228119e-02 1.7552287387e+00 -3.0401453543e+00 1.7552287387e+00 3.0401453543e+00 
25000 6.4356347016e+00 -1.2217793251e-02 1.7555812466e+00 -3.0407559160e+00 1.7555812466e+00 3.0407559160e+00 
25100 6.4356230547e+00 -1.2049731541e-02 1.7559292282e+00 -3.0413586377e+00 1.7559292282e+00 3.0413586377e+00 
25200 6.4356120926e+00 -1.1870482490e-02 1.7562723549e+00 -3.0419529505e+00 1.7562723549e+00 3.0419529505e+00 
25300 6.4356018319e+00 -1.1680500286e-02 1.7566103111e+00 -3.0425383079e+00 1.7566103111e+00 3.0425383079e+00 
25400 6.4355922842e+00 -1.1480252647e-02 1.7569427943e+00 -3.0431141857e+00 1.7569427943e+00 3.0431141857e+00 
25500 6.4355834567e+00 -1.1270219659e-02 1.7572695155e+00 -3.0436800834e+00 1.7572695155e+00 3.0436800834e+00 
25600 6.4355753519e+00 -1.1050892602e-02 1.7575901994e+00 -3.0442355243e+00 1.7575901994e+00 3.0442355243e+00 
25700 6.4355679679e+00 -1.0822772783e-02 1.7579045850e+00 -3.0447800561e+00 1.7579045850e+00 3.0447800561e+00 
25800 6.4355612986e+00 -1.0586370361e-02 1.7582124256e+00 -3.0453132517e+00 1.7582124256e+00 3.0453132517e+00 
25900 6.4355553339e+00 -1.0342203176e-02 1.7585134892e+00 -3.0458347090e+00 1.7585134892e+00 3.0458347090e+00 
26000 6.4355500597e+00 -1.0090795583e-02 1.7588075583e+00 -3.0463440517e+00 1.7588075583e+00 3.0463440517e+00 
26100 6.4355454585e+00 -9.8326772920e-03 1.7590944308e+00 -3.0468409295e+00 1.7590944308e+00 3.0468409295e+00 
26200 6.4355415091e+00 -9.5683822164e-03 1.7593739194e+00 -3.0473250180e+00 1.7593739194e+00 3.0473250180e+00 
26300 6.4355381877e+00 -9.2984473333e-03 1.7596458522e+00 -3.0477960193e+00 1.7596458522e+00 3.0477960193e+00 
26400 6.4355354673e+00 -9.0234115556e-03 1.7599100724e+00 -3.0482536622e+00 1.7599100724e+00 3.0482536622e+00 
26500 6.4355333186e+00 -8.7438146208e-03 1.7601664387e+00 -3.0486977015e+00 1.7601664387e+00 3.0486977015e+00 
26600 6.4355317101e+00 -8.4601959965e-03 1.7604148248e+00 -3.0491279190e+00 1.7604148248e+00 3.0491279190e+00 
26700 6.4355306081e+00 -8.1730938053e-03 1.7606551201e+00 -3.0495441227e+00 1.7606551201e+00 3.0495441227e+00 
26800 6.4355299779e+00 -7.8830437721e-03 1.7608872290e+00 -3.0499461470e+00 1.7608872290e+00 3.0499461470e+00 
26900 6.4355297829e+00 -7.5905781941e-03 1.7611110710e+00 -3.0503338528e+00 1.7611110710e+00 3.0503338528e+00 
27000 6.4355299859e+00 -7.2962249363e-03 1.7613265808e+00 -3.0507071267e+00 1.7613265808e+00 3.0507071267e+00 
27100 6.4355305490e+00 -7.0005064540e-03 1.7615337079e+00 -3.0510658812e+00 1.7615337079e+00 3.0510658812e+00 
27200 6.4355314337e+00 -6.7039388442e-03 1.7617324165e+00 -3.0514100546e+00 1.7617324165e+00 3.0514100546e+00 
27300 6.4355326018e+00 -6.4070309274e-03 1.7619226854e+00 -3.0517396101e+00 1.7619226854e+00 3.0517396101e+00 
27400 6.4355340148e+00 -6.1102833609e-03 1.7621045078e+00 -3.0520545358e+00 1.7621045078e+00 3.0520545358e+00 
27500 6.4355356351e+00 -5.8141877859e-03 1.7622778909e+00 -3.0523548442e+00 1.7622778909e+00 3.0523548442e+00 
27600 6.4355374255e+00 -5.5192260082e-03 1.7624428558e+00 -3.0526405717e+00 1.7624428558e+00 3.0526405717e+00 
27700 6.4355393499e+00 -5.2258692157e-03 1.7625994370e+00 -3.0529117783e+00 1.7625994370e+00 3.0529117783e+00 
27800 6.4355413733e+00 -4.9345772318e-03 1.7627476823e+00 -3.0531685467e+00 1.7627476823e+00 3.0531685467e+00 
27900 6.4355434620e+00 -4.6457978070e-03 1.7628876525e+00 -3.0534109822e+00 1.7628876525e+00 3.0534109822e+00 
28000 6.4355455838e+00 -4.3599659488e-03 1.7630194208e+00 -3.0536392116e+00 1.7630194208e+00 3.0536392116e+00 
28100 6.4355477084e+00 -4.0775032911e-03 1.7631430728e+00 -3.0538533832e+00 1.7631430728e+00 3.0538533832e+00 
28200 6.4355498072e+00 -3.7988175037e-03 1.7632587058e+00 -3.0540536653e+00 1.7632587058e+00 3.0540536653e+00 
28300 6.4355518535e+00 -3.5243017416e-03 1.7633664284e+00 -3.0542402463e+00 1.7633664284e+00 3.0542402463e+00 
28400 6.4355538228e+00 -3.2543341358e-03 1.7634663604e+00 -3.0544133336e+00 1.7634663604e+00 3.0544133336e+00 
28500 6.4355556928e+00 -2.9892773251e-03 1.7635586321e+00 -3.0545731529e+00 1.7635586321e+00 3.0545731529e+00 
28600 6.4355574431e+00 -2.7294780287e-03 1.7636433841e+00 -3.0547199477e+00 1.7636433841e+00 3.0547199477e+00 
28700 6.4355590560e+00 -2.4752666609e-03 1.7637207664e+00 -3.0548539778e+00 1.7637207664e+00 3.0548539778e+00 
28800 6.4355605159e+00 -2.2269569866e-03 1.7637909386e+00 -3.0549755197e+00 1.7637909386e+00 3.0549755197e+00 
28900 6.4355618093e+00 -1.9848458183e-03 1.7638540689e+00 -3.0550848644e+00 1.7638540689e+00 3.0550848644e+00 
29000 6.4355629254e+00 -1.7492127538e-03 1.7639103336e+00 -3.0551823178e+00 1.7639103336e+00 3.0551823178e+00 
29100 6.4355638553e+00 -1.5203199550e-03 1.7639599172e+00 -3.0552681992e+00 1.7639599172e+00 3.0552681992e+00 
29200 6.4355645926e+00 -1.2984119665e-03 1.7640030114e+00 -3.0553428404e+00 1.7640030114e+00 3.0553428404e+00 
29300 6.4355651328e+00 -1.0837155741e-03 1.7640398145e+00 -3.0554065853e+00 1.7640398145e+00 3.0554065853e+00 
29400 6.4355654738e+00 -8.7643970286e-04 1.7640705314e+00 -3.0554597886e+00 1.7640705314e+00 3.0554597886e+00 
29500 6.4355656153e+00 -6.7677535282e-04 1.7640953729e+00 -3.0555028153e+00 1.7640953729e+00 3.0555028153e+00 
29600 6.4355655590e+00 -4.8489557347e-04 1.7641145549e+00 -3.0555360394e+00 1.7641145549e+00 3.0555360394e+00 
29700 6.4355653084e+00 -3.0095547469e-04 1.7641282982e+00 -3.0555598436e+00 1.7641282982e+00 3.0555598436e+00 
29800 6.4355648687e+00 -1.2509227402e-04 1.7641368281e+00 -3.0555746177e+00 1.7641368281e+00 3.0555746177e+00 
29900 6.4355642467e+00 4.2574620858e-05 1.7641403735e+00 -3.0555807586e+00 1.7641403735e+00 3.0555807586e+00 
30000 6.4355634512e+00 2.0318353627e-04 1.7641403735e+00 -3.0555807586e+00 1.7641403735e+00 3.0555807586e+00 
30100 6.4355624911e+00 3.5413840383e-04 1.7641346148e+00 -3.0555707842e+00 1.7641346148e+00 3.0555707842e+00 
30200 6.4355613772e+00 4.9664607776e-04 1.7641245776e+00 -3.0555533993e+00 1.7641245776e+00 3.0555533993e+00 
30300 6.4355601213e+00 6.3065677168e-04 1.7641105014e+00 -3.0555290185e+00 1.7641105014e+00 3.0555290185e+00 
30400 6.4355587360e+00 7.5613760823e-04 1.7640926268e+00 -3.0554980588e+00 1.7640926268e+00 3.0554980588e+00 
30500 6.4355572348e+00 8.7307234665e-04 1.7640711955e+00 -3.0554609387e+00 1.7640711955e+00 3.0554609387e+00 
30600 6.4355556316e+00 9.8146108279e-04 1.7640464496e+00 -3.0554180776e+00 1.7640464496e+00 3.0554180776e+00 
30700 6.4355539410e+00 1.0813199228e-03 1.7640186312e+00 -3.0553698947e+00 1.7640186312e+00 3.0553698947e+00 
30800 6.4355521777e+00 1.1726806313e-03 1.7639879819e+00 -3.0553168086e+00 1.7639879819e+00 3.0553168086e+00 
30900 6.4355503568e+00 1.2555902567e-03 1.7639547426e+00 -3.0552592364e+00 1.7639547426e+00 3.0552592364e+00 
31000 6.4355484934e+00 1.3301107324e-03 1.7639191525e+00 -3.0551975925e+00 1.7639191525e+00 3.0551975925e+00 
31100 6.4355466023e+00 1.3963184581e-03 1.7638814493e+00 -3.0551322888e+00 1.7638814493e+00 3.0551322888e+00 
31200 6.4355446983e+00 1.4543038604e-03 1.7638418686e+00 -3.0550637330e+00 1.7638418686e+00 3.0550637330e+00 
31300 6.4355427961e+00 1.5041709351e-03 1.7638006433e+00 -3.0549923287e+00 1.7638006433e+00 3.0549923287e+00 
31400 6.4355409095e+00 1.5460367721e-03 1.7637580035e+00 -3.0549184742e+00 1.7637580035e+00 3.0549184742e+00 
31500 6.4355390523e+00 1.5800310639e-03 1.7637141757e+00 -3.0548425624e+00 1.7637141757e+00 3.0548425624e+00 
31600 6.4355372373e+00 1.6062956002e-03 1.7636693832e+00 -3.0547649794e+00 1.7636693832e+00 3.0547649794e+00 
31700 6.4355354768e+00 1.6249837488e-03 1.7636238449e+00 -3.0546861049e+00 1.7636238449e+00 3.0546861049e+00 
31800 6.4355337824e+00 1.6362599242e-03 1.7635777757e+00 -3.0546063106e+00 1.7635777757e+00 3.0546063106e+00 
31900 6.4355321648e+00 1.6402990460e-03 1.7635313855e+00 -3.0545259605e+00 1.7635313855e+00 3.0545259605e+00 
32000 6.4355306337e+00 1.6372859878e-03 1.7634848796e+00 -3.0544454099e+00 1.7634848796e+00 3.0544454099e+00 
32100 6.4355291981e+00 1.6274150180e-03 1.7634384580e+00 -3.0543650052e+00 1.7634384580e+00 3.0543650052e+00 
32200 6.4355278660e+00 1.6108892335e-03 1.7633923149e+00 -3.0542850831e+00 1.7633923149e+00 3.0542850831e+00 
32300 6.4355266442e+00 1.5879199883e-03 1.7633466393e+00 -3.0542059706e+00 1.7633466393e+00 3.0542059706e+00 
32400 6.4355255388e+00 1.5587263179e-03 1.7633016137e+00 -3.0541279840e+00 1.7633016137e+00 3.0541279840e+00 
32500 6.4355245546e+00 1.5235343601e-03 1.7632574148e+00 -3.0540514293e+00 1.7632574148e+00 3.0540514293e+00 
32600 6.4355236957e+00 1.4825767744e-03 1.7632142127e+00 -3.0539766011e+00 1.7632142127e+00 3.0539766011e+00 
32700 6.4355229648e+00 1.4360921610e-03 1.7631721710e+00 -3.0539037827e+00 1.7631721710e+00 3.0539037827e+00 
32800 6.4355223639e+00 1.3843244794e-03 1.7631314465e+00 -3.0538332457e+00 1.7631314465e+00 3.0538332457e+00 
32900 6.4355218939e+00 1.3275224695e-03 1.7630921891e+00 -3.0537652499e+00 1.7630921891e+00 3.0537652499e+00 
33000 6.4355215548e+00 1.2659390755e-03 1.7630545417e+00 -3.0537000427e+00 1.7630545417e+00 3.0537000427e+00 
33100 6.4355213456e+00 1.1998308728e-03 1.7630186399e+00 -3.0536378590e+00 1.7630186399e+00 3.0536378590e+00 
33200 6.4355212645e+00 1.1294575006e-03 1.7629846123e+00 -3.0535789214e+00 1.7629846123e+00 3.0535789214e+00 
33300 6.4355213090e+00 1.0550810999e-03 1.7629525798e+00 -3.0535234396e+00 1.7629525798e+00 3.0535234396e+00 
33400 6.4355214754e+00 9.7696575864e-04 1.7629226562e+00 -3.0534716104e+00 1.7629226562e+00 3.0534716104e+00 
33500 6.4355217598e+00 8.9537696459e-04 1.7628949476e+00 -3.0534236176e+00 1.7628949476e+00 3.0534236176e+00 
33600 6.4355221571e+00 8.1058106669e-04 1.7628695526e+00 -3.0533796322e+00 1.7628695526e+00 3.0533796322e+00 
33700 6.4355226621e+00 7.2284474626e-04 1.7628465622e+00 -3.0533398118e+00 1.7628465622e+00 3.0533398118e+00 
33800 6.4355232688e+00 6.3243449846e-04 1.7628260601e+00 -3.0533043010e+00 1.7628260601e+00 3.0533043010e+00 
33900 6.4355239705e+00 5.3961612494e-04 1.7628081220e+00 -3.0532732313e+00 1.7628081220e+00 3.0532732313e+00 
34000 6.4355247606e+00 4.4465423844e-04 1.7627928165e+00 -3.0532467213e+00 1.7627928165e+00 3.0532467213e+00 
34100 6.4355256317e+00 3.4781177996e-04 1.7627802043e+00 -3.0532248764e+00 1.7627802043e+00 3.0532248764e+00 
34200 6.4355265763e+00 2.4934954928e-04 1.7627703389e+00 -3.0532077890e+00 1.7627703389e+00 3.0532077890e+00 
34300 6.4355275868e+00 1.4952574941e-04 1.7627632662e+00 -3.0531955388e+00 1.7627632662e+00 3.0531955388e+00 
34400 6.4355286552e+00 4.8595545455e-05 1.7627590250e+00 -3.0531881927e+00 1.7627590250e+00 3.0531881927e+00 
34500 6.4355297733e+00 -5.1766687367e-05 1.7627590250e+00 -3.0531881927e+00 1.7627590250e+00 3.0531881927e+00 
34600 6.4355309338e+00 -1.5571085628e-04 1.7627590250e+00 -3.0531881927e+00 1.7627590250e+00 3.0531881927e+00 
34700 6.4355321281e+00 -2.5846143779e-04 1.7627634416e+00 -3.0531958427e+00 1.7627634416e+00 3.0531958427e+00 
34800 6.4355333487e+00 -3.6133670645e-04 1.7627707728e+00 -3.0532085406e+00 1.7627707728e+00 3.0532085406e+00 
34900 6.4355345877e+00 -4.6410274496e-04 1.7627810219e+00 -3.0532262926e+00 1.7627810219e+00 3.0532262926e+00 
35000 6.4355358377e+00 -5.6653098930e-04 1.7627941859e+00 -3.0532490932e+00 1.7627941859e+00 3.0532490932e+00 
35100 6.4355370914e+00 -6.6839855550e-04 1.7628102550e+00 -3.0532769258e+00 1.7628102550e+00 3.0532769258e+00 
35200 6.4355383417e+00 -7.6948854885e-04 1.7628292134e+00 -3.0533097626e+00 1.7628292134e+00 3.0533097626e+00 
35300 6.4355395822e+00 -8.6959035519e-04 1.7628510388e+00 -3.0533475654e+00 1.7628510388e+00 3.0533475654e+00 
35400 6.4355408064e+00 -9.6849991416e-04 1.7628757032e+00 -3.0533902853e+00 1.7628757032e+00 3.0533902853e+00 
35500 6.4355420086e+00 -1.0660199744e-03 1.7629031726e+00 -3.0534378637e+00 1.7629031726e+00 3.0534378637e+00 
35600 6.4355431833e+00 -1.1619603301e-03 1.7629334074e+00 -3.0534902320e+00 1.7629334074e+00 3.0534902320e+00 
35700 6.4355443254e+00 -1.2561380399e-03 1.7629663629e+00 -3.0535473125e+00 1.7629663629e+00 3.0535473125e+00 
35800 6.4355454305e+00 -1.3483776265e-03 1.7630019887e+00 -3.0536090182e+00 1.7630019887e+00 3.0536090182e+00 
35900 6.4355464945e+00 -1.4385112590e-03 1.7630402298e+00 -3.0536752537e+00 1.7630402298e+00 3.0536752537e+00 
36000 6.4355475138e+00 -1.5263789156e-03 1.7630810262e+00 -3.0537459153e+00 1.7630810262e+00 3.0537459153e+00 
36100 6.4355484854e+00 -1.6118285296e-03 1.7631243137e+00 -3.0538208914e+00 1.7631243137e+00 3.0538208914e+00 
36200 6.4355494068e+00 -1.6947161157e-03 1.7631700233e+00 -3.0539000628e+00 1.7631700233e+00 3.0539000628e+00 
36300 6.4355502759e+00 -1.7749058796e-03 1.7632180823e+00 -3.0539833034e+00 1.7632180823e+00 3.0539833034e+00 
36400 6.4355510911e+00 -1.8522703088e-03 1.7632684140e+00 -3.0540704804e+00 1.7632684140e+00 3.0540704804e+00 
36500 6.4355518513e+00 -1.9266902464e-03 1.7633209380e+00 -3.0541614547e+00 1.7633209380e+00 3.0541614547e+00 
36600 6.4355525561e+00 -1.9980549474e-03 1.7633755707e+00 -3.0542560814e+00 1.7633755707e+00 3.0542560814e+00 
36700 6.4355532051e+00 -2.0662621171e-03 1.7634322253e+00 -3.0543542099e+00 1.7634322253e+00 3.0543542099e+00 
36800 6.4355537987e+00 -2.1312179338e-03 1.7634908120e+00 -3.0544556851e+00 1.7634908120e+00 3.0544556851e+00 
36900 6.4355543376e+00 -2.1928370538e-03 1.7635512385e+00 -3.0545603468e+00 1.7635512385e+00 3.0545603468e+00 
37000 6.4355548230e+00 -2.2510426009e-03 1.7636134099e+00 -3.0546680309e+00 1.7636134099e+00 3.0546680309e+00 
37100 6.4355552563e+00 -2.3057661397e-03 1.7636772293e+00 -3.0547785694e+00 1.7636772293e+00 3.0547785694e+00 
37200 6.4355556392e+00 -2.3569476329e-03 1.7637425979e+00 -3.0548917910e+00 1.7637425979e+00 3.0548917910e+00 
37300 6.4355559740e+00 -2.4045353844e-03 1.7638094150e+00 -3.0550075216e+00 1.7638094150e+00 3.0550075216e+00 
37400 6.4355562630e+00 -2.4484859669e-03 1.7638775785e+00 -3.0551255843e+00 1.7638775785e+00 3.0551255843e+00 
37500 6.4355565090e+00 -2.4887641351e-03 1.7639469853e+00 -3.0552458004e+00 1.7639469853e+00 3.0552458004e+00 
37600 6.4355567147e+00 -2.5253427258e-03 1.7640175311e+00 -3.0553679893e+00 1.7640175311e+00 3.0553679893e+00 
37700 6.4355568833e+00 -2.5582025434e-03 1.7640891109e+00 -3.0554919692e+00 1.7640891109e+00 3.0554919692e+00 
37800 6.4355570180e+00 -2.5873322336e-03 1.7641616191e+00 -3.0556175571e+00 1.7641616191e+00 3.0556175571e+00 
37900 6.4355571220e+00 -2.6127281440e-03 1.7642349500e+00 -3.0557445699e+00 1.7642349500e+00 3.0557445699e+00 
38000 6.4355571990e+00 -2.6343941730e-03 1.7643089976e+00 -3.0558728241e+00 1.7643089976e+00 3.0558728241e+00 
38100 6.4355572524e+00 -2.6523416066e-03 1.7643836561e+00 -3.0560021364e+00 1.7643836561e+00 3.0560021364e+00 
38200 6.4355572856e+00 -2.6665889457e-03 1.7644588200e+00 -3.0561323241e+00 1.7644588200e+00 3.0561323241e+00 
38300 6.4355573024e+00 -2.6771617214e-03 1.7645343845e+00 -3.0562632056e+00 1.7645343845e+00 3.0562632056e+00 
38400 6.4355573060e+00 -2.6840923016e-03 1.7646102453e+00 -3.0563946004e+00 1.7646102453e+00 3.0563946004e+00 
38500 6.4355573002e+00 -2.6874196881e-03 1.7646862993e+00 -3.0565263298e+00 1.7646862993e+00 3.0565263298e+00 
38600 6.4355572881e+00 -2.6871893044e-03 1.7647624442e+00 -3.0566582167e+00 1.7647624442e+00 3.0566582167e+00 
38700 6.4355572731e+00 -2.6834527763e-03 1.7648385794e+00 -3.0567900866e+00 1.7648385794e+00 3.0567900866e+00 
38800 6.4355572584e+00 -2.6762677043e-03 1.7649146053e+00 -3.0569217675e+00 1.7649146053e+00 3.0569217675e+00 
38900 6.4355572469e+00 -2.6656974290e-03 1.7649904245e+00 -3.0570530901e+00 1.7649904245e+00 3.0570530901e+00 
39000 6.4355572415e+00 -2.6518107907e-03 1.7650659410e+00 -3.0571838885e+00 1.7650659410e+00 3.0571838885e+00 
39100 6.4355572450e+00 -2.6346818823e-03 1.7651410608e+00 -3.0573139998e+00 1.7651410608e+00 3.0573139998e+00 
39200 6.4355572597e+00 -2.6143897976e-03 1.7652156923e+00 -3.0574432653e+00 1.7652156923e+00 3.0574432653e+00 
39300 6.4355572880e+00 -2.5910183748e-03 1.7652897458e+00 -3.0575715297e+00 1.7652897458e+00 3.0575715297e+00 
39400 6.4355573319e+00 -2.5646559360e-03 1.7653631342e+00 -3.0576986422e+00 1.7653631342e+00 3.0576986422e+00 
39500 6.4355573934e+00 -2.5353950226e-03 1.7654357729e+00 -3.0578244561e+00 1.7654357729e+00 3.0578244561e+00 
39600 6.4355574740e+00 -2.5033321291e-03 1.7655075798e+00 -3.0579488294e+00 1.7655075798e+00 3.0579488294e+00 
39700 6.4355575751e+00 -2.4685674326e-03 1.7655784759e+00 -3.0580716249e+00 1.7655784759e+00 3.0580716249e+00 
39800 6.4355576979e+00 -2.4312045229e-03 1.7656483845e+00 -3.0581927102e+00 1.7656483845e+00 3.0581927102e+00 
39900 6.4355578433e+00 -2.3913501290e-03 1.7657172323e+00 -3.0583119581e+00 1.7657172323e+00 3.0583119581e+00 
40000 6.4355580121e+00 -2.3491138467e-03 1.7657849488e+00 -3.0584292466e+00 1.7657849488e+00 3.0584292466e+00 
40100 6.4355582047e+00 -2.3046078651e-03 1.7658514668e+00 -3.0585444591e+00 1.7658514668e+00 3.0585444591e+00 
40200 6.4355584214e+00 -2.2579466940e-03 1.7659167221e+00 -3.0586574846e+00 1.7659167221e+00 3.0586574846e+00 
40300 6.4355586622e+00 -2.2092468920e-03 1.7659806538e+00 -3.0587682175e+00 1.7659806538e+00 3.0587682175e+00 
40400 6.4355589269e+00 -2.1586267960e-03 1.7660432043e+00 -3.0588765581e+00 1.7660432043e+00 3.0588765581e+00 
40500 6.4355592153e+00 -2.1062062526e-03 1.7661043194e+00 -3.0589824127e+00 1.7661043194e+00 3.0589824127e+00 
40600 6.4355595268e+00 -2.0521063526e-03 1.7661639483e+00 -3.0590856930e+00 1.7661639483e+00 3.0590856930e+00 
40700 6.4355598606e+00 -1.9964491670e-03 1.7662220437e+00 -3.0591863171e+00 1.7662220437e+00 3.0591863171e+00 
40800 6.4355602159e+00 -1.9393574882e-03 1.7662785615e+00 -3.0592842088e+00 1.7662785615e+00 3.0592842088e+00 
40900 6.4355605917e+00 -1.8809545731e-03 1.7663334613e+00 -3.0593792980e+00 1.7663334613e+00 3.0593792980e+00 
41000 6.4355609868e+00 -1.8213638921e-03 1.7663867062e+00 -3.0594715209e+00 1.7663867062e+00 3.0594715209e+00 
41100 6.4355613999e+00 -1.7607088818e-03 1.7664382626e+00 -3.0595608193e+00 1.7664382626e+00 3.0595608193e+00 
41200 6.4355618297e+00 -1.6991127027e-03 1.7664881007e+00 -3.0596471413e+00 1.7664881007e+00 3.0596471413e+00 
41300 6.4355622746e+00 -1.6366980030e-03 1.7665361938e+00 -3.0597304411e+00 1.7665361938e+00 3.0597304411e+00 
41400 6.4355627331e+00 -1.5735866876e-03 1.7665825191e+00 -3.0598106789e+00 1.7665825191e+00 3.0598106789e+00 
41500 6.4355632035e+00 -1.5098996935e-03 1.7666270569e+00 -3.0598878206e+00 1.7666270569e+00 3.0598878206e+00 
41600 6.4355636844e+00 -1.4457567715e-03 1.7666697910e+00 -3.0599618383e+00 1.7666697910e+00 3.0599618383e+00 
41700 6.4355641738e+00 -1.3812762748e-03 1.7667107088e+00 -3.0600327098e+00 1.7667107088e+00 3.0600327098e+00 
41800 6.4355646702e+00 -1.3165749548e-03 1.7667498007e+00 -3.0601004190e+00 1.7667498007e+00 3.0601004190e+00 
41900 6.4355651717e+00 -1.2517677634e-03 1.7667870606e+00 -3.0601649551e+00 1.7667870606e+00 3.0601649551e+00 
42000 6.4355656768e+00 -1.1869676642e-03 1.7668224857e+00 -3.0602263132e+00 1.7668224857e+00 3.0602263132e+00 
42100 6.4355661837e+00 -1.1222854503e-03 1.7668560762e+00 -3.0602844937e+00 1.7668560762e+00 3.0602844937e+00 
42200 6.4355666908e+00 -1.0578295704e-03 1.7668878357e+00 -3.0603395028e+00 1.7668878357e+00 3.0603395028e+00 
42300 6.4355671964e+00 -9.9370596367e-04 1.7669177706e+00 -3.0603913516e+00 1.7669177706e+00 3.0603913516e+00 
42400 6.4355676990e+00 -9.3001790202e-04 1.7669458905e+00 -3.0604400565e+00 1.7669458905e+00 3.0604400565e+00 
42500 6.4355681972e+00 -8.6686584153e-04 1.7669722076e+00 -3.0604856392e+00 1.7669722076e+00 3.0604856392e+00 
42600 6.4355686895e+00 -8.0434728219e-04 1.7669967374e+00 -3.0605281260e+00 1.7669967374e+00 3.0605281260e+00 
42700 6.4355691745e+00 -7.4255663644e-04 1.7670194977e+00 -3.0605675480e+00 1.7670194977e+00 3.0605675480e+00 
42800 6.4355696512e+00 -6.8158510641e-04 1.7670405093e+00 -3.0606039412e+00 1.7670405093e+00 3.0606039412e+00 
42900 6.4355701182e+00 -6.2152057015e-04 1.7670597954e+00 -3.0606373457e+00 1.7670597954e+00 3.0606373457e+00 
43000 6.4355705746e+00 -5.6244747664e-04 1.7670773818e+00 -3.0606678061e+00 1.7670773818e+00 3.0606678061e+00 
43100 6.4355710194e+00 -5.0444674977e-04 1.7670932964e+00 -3.0606953711e+00 1.7670932964e+00 3.0606953711e+00 
43200 6.4355714519e+00 -4.4759570127e-04 1.7671075698e+00 -3.0607200933e+00 1.7671075698e+00 3.0607200933e+00 
43300 6.4355718711e+00 -3.9196795254e-04 1.7671202344e+00 -3.0607420291e+00 1.7671202344e+00 3.0607420291e+00 
43400 6.4355722766e+00 -3.3763336537e-04 1.7671313250e+00 -3.0607612386e+00 1.7671313250e+00 3.0607612386e+00 
43500 6.4355726679e+00 -2.8465798153e-04 1.7671408782e+00 -3.0607777851e+00 1.7671408782e+00 3.0607777851e+00 
43600 6.4355730445e+00 -2.3310397113e-04 1.7671489324e+00 -3.0607917354e+00 1.7671489324e+00 3.0607917354e+00 
43700 6.4355734061e+00 -1.8302958967e-04 1.7671555279e+00 -3.0608031592e+00 1.7671555279e+00 3.0608031592e+00 
43800 6.4355737526e+00 -1.3448914372e-04 1.7671607065e+00 -3.0608121288e+00 1.7671607065e+00 3.0608121288e+00 
43900 6.4355740838e+00 -8.7532965099e-05 1.7671645118e+00 -3.0608187197e+00 1.7671645118e+00 3.0608187197e+00 
44000 6.4355743999e+00 -4.2207393379e-05 1.7671669884e+00 -3.0608230094e+00 1.7671669884e+00 3.0608230094e+00 
44100 6.4355747008e+00 2.2163656975e-07 1.7671669884e+00 -3.0608230094e+00 1.7671669884e+00 3.0608230094e+00 
44200 6.4355749868e+00 4.2200546014e-05 1.7671669884e+00 -3.0608230094e+00 1.7671669884e+00 3.0608230094e+00 
44300 6.4355752583e+00 8.3648949945e-05 1.7671669884e+00 -3.0608230094e+00 1.7671669884e+00 3.0608230094e+00 
44400 6.4355755156e+00 1.2206510497e-04 1.7671646217e+00 -3.0608189100e+00 1.7671646217e+00 3.0608189100e+00 
44500 6.4355757590e+00 1.5867912783e-04 1.7671611680e+00 -3.0608129281e+00 1.7671611680e+00 3.0608129281e+00 
44600 6.4355759892e+00 1.9346853898e-04 1.7671566783e+00 -3.0608051517e+00 1.7671566783e+00 3.0608051517e+00 
44700 6.4355762067e+00 2.2641475270e-04 1.7671512043e+00 -3.0607956705e+00 1.7671512043e+00 3.0607956705e+00 
44800 6.4355764120e+00 2.5750303373e-04 1.7671447981e+00 -3.0607845746e+00 1.7671447981e+00 3.0607845746e+00 
44900 6.4355766060e+00 2.8672244719e-04 1.7671375122e+00 -3.0607719552e+00 1.7671375122e+00 3.0607719552e+00 
45000 6.4355767893e+00 3.1406580214e-04 1.7671293996e+00 -3.0607579037e+00 1.7671293996e+00 3.0607579037e+00 
45100 6.4355769626e+00 3.3952958893e-04 1.7671205133e+00 -3.0607425121e+00 1.7671205133e+00 3.0607425121e+00 
45200 6.4355771266e+00 3.6311391059e-04 1.7671109065e+00 -3.0607258726e+00 1.7671109065e+00 3.0607258726e+00 
45300 6.4355772823e+00 3.8482240865e-04 1.7671006322e+00 -3.0607080771e+00 1.7671006322e+00 3.0607080771e+00 
45400 6.4355774304e+00 4.0466218344e-04 1.7670897437e+00 -3.0606892177e+00 1.7670897437e+00 3.0606892177e+00 
45500 6.4355775717e+00 4.2264370941e-04 1.7670782938e+00 -3.0606693858e+00 1.7670782938e+00 3.0606693858e+00 
45600 6.4355777070e+00 4.3878074544e-04 1.7670663350e+00 -3.0606486725e+00 1.7670663350e+00 3.0606486725e+00 
45700 6.4355778371e+00 4.5309024074e-04 1.7670539195e+00 -3.0606271682e+00 1.7670539195e+00 3.0606271682e+00 
45800 6.4355779629e+00 4.6559223633e-04 1.7670410990e+00 -3.0606049625e+00 1.7670410990e+00 3.0606049625e+00 
45900 6.4355780849e+00 4.7630976264e-04 1.7670279247e+00 -3.0605821439e+00 1.7670279247e+00 3.0605821439e+00 
46000 6.4355782041e+00 4.8526873328e-04 1.7670144470e+00 -3.0605587998e+00 1.7670144470e+00 3.0605587998e+00 
46100 6.4355783212e+00 4.9249783546e-04 1.7670007157e+00 -3.0605350165e+00 1.7670007157e+00 3.0605350165e+00 
46200 6.4355784368e+00 4.9802841729e-04 1.7669867797e+00 -3.0605108787e+00 1.7669867797e+00 3.0605108787e+00 
46300 6.4355785515e+00 5.0189437213e-04 1.7669726871e+00 -3.0604864697e+00 1.7669726871e+00 3.0604864697e+00 
46400 6.4355786661e+00 5.0413202049e-04 1.7669584850e+00 -3.0604618710e+00 1.7669584850e+00 3.0604618710e+00 
46500 6.4355787810e+00 5.0477998962e-04 1.7669442195e+00 -3.0604371624e+00 1.7669442195e+00 3.0604371624e+00 
46600 6.4355788968e+00 5.0387909104e-04 1.7669299356e+00 -3.0604124218e+00 1.7669299356e+00 3.0604124218e+00 
46700 6.4355790140e+00 5.0147219651e-04 1.7669156770e+00 -3.0603877252e+00 1.7669156770e+00 3.0603877252e+00 
46800 6.4355791330e+00 4.9760411240e-04 1.7669014864e+00 -3.0603631464e+00 1.7669014864e+00 3.0603631464e+00 
46900 6.4355792542e+00 4.9232145307e-04 1.7668874052e+00 -3.0603387570e+00 1.7668874052e+00 3.0603387570e+00 
47000 6.4355793779e+00 4.8567251327e-04 1.7668734733e+00 -3.0603146263e+00 1.7668734733e+00 3.0603146263e+00 
47100 6.4355795045e+00 4.7770713995e-04 1.7668597295e+00 -3.0602908213e+00 1.7668597295e+00 3.0602908213e+00 
47200 6.4355796340e+00 4.6847660375e-04 1.7668462109e+00 -3.0602674065e+00 1.7668462109e+00 3.0602674065e+00 
47300 6.4355797669e+00 4.5803347041e-04 1.7668329535e+00 -3.0602444440e+00 1.7668329535e+00 3.0602444440e+00 
47400 6.4355799030e+00 4.4643147227e-04 1.7668199916e+00 -3.0602219932e+00 1.7668199916e+00 3.0602219932e+00 
47500 6.4355800427e+00 4.3372538029e-04 1.7668073578e+00 -3.0602001109e+00 1.7668073578e+00 3.0602001109e+00 
47600 6.4355801858e+00 4.1997087668e-04 1.7667950836e+00 -3.0601788513e+00 1.7667950836e+00 3.0601788513e+00 
47700 6.4355803323e+00 4.0522442837e-04 1.7667831985e+00 -3.0601582657e+00 1.7667831985e+00 3.0601582657e+00 
47800 6.4355804824e+00 3.8954316170e-04 1.7667717306e+00 -3.0601384028e+00 1.7667717306e+00 3.0601384028e+00 
47900 6.4355806357e+00 3.7298473835e-04 1.7667607065e+00 -3.0601193084e+00 1.7667607065e+00 3.0601193084e+00 
48000 6.4355807923e+00 3.5560723288e-04 1.7667501509e+00 -3.0601010256e+00 1.7667501509e+00 3.0601010256e+00 
48100 6.4355809519e+00 3.3746901204e-04 1.7667400870e+00 -3.0600835945e+00 1.7667400870e+00 3.0600835945e+00 
48200 6.4355811144e+00 3.1862861599e-04 1.7667305364e+00 -3.0600670523e+00 1.7667305364e+00 3.0600670523e+00 
48300 6.4355812795e+00 2.9914464166e-04 1.7667215190e+00 -3.0600514337e+00 1.7667215190e+00 3.0600514337e+00 
48400 6.4355814470e+00 2.7907562854e-04 1.7667130529e+00 -3.0600367700e+00 1.7667130529e+00 3.0600367700e+00 
48500 6.4355816166e+00 2.5847994678e-04 1.7667051547e+00 -3.0600230900e+00 1.7667051547e+00 3.0600230900e+00 
48600 6.4355817880e+00 2.3741568819e-04 1.7666978394e+00 -3.0600104195e+00 1.7666978394e+00 3.0600104195e+00 
48700 6.4355819609e+00 2.1594055986e-04 1.7666911202e+00 -3.0599987815e+00 1.7666911202e+00 3.0599987815e+00 
48800 6.4355821350e+00 1.9411178082e-04 1.7666850088e+00 -3.0599881962e+00 1.7666850088e+00 3.0599881962e+00 
48900 6.4355823099e+00 1.7198598188e-04 1.7666795151e+00 -3.0599786809e+00 1.7666795151e+00 3.0599786809e+00 
49000 6.4355824854e+00 1.4961910857e-04 1.7666746476e+00 -3.0599702501e+00 1.7666746476e+00 3.0599702501e+00 
49100 6.4355826610e+00 1.2706632751e-04 1.7666704131e+00 -3.0599629158e+00 1.7666704131e+00 3.0599629158e+00 
49200 6.4355828364e+00 1.0438193624e-04 1.7666668169e+00 -3.0599566870e+00 1.7666668169e+00 3.0599566870e+00 
49300 6.4355830112e+00 8.1619276618e-05 1.7666638627e+00 -3.0599515701e+00 1.7666638627e+00 3.0599515701e+00 
49400 6.4355831852e+00 5.8830651846e-05 1.7666615527e+00 -3.0599475691e+00 1.7666615527e+00 3.0599475691e+00 
49500 6.4355833580e+00 3.7775010647e-05 1.7666615527e+00 -3.0599475691e+00 1.7666615527e+00 3.0599475691e+00 
49600 6.4355835291e+00 1.6139792187e-05 1.7666615527e+00 -3.0599475691e+00 1.7666615527e+00 3.0599475691e+00 
49700 6.4355836983e+00 -6.0249982903e-06 1.7666615527e+00 -3.0599475691e+00 1.7666615527e+00 3.0599475691e+00 
49800 6.4355838654e+00 -2.8669866293e-05 1.7666615527e+00 -3.0599475691e+00 1.7666615527e+00 3.0599475691e+00 
49900 6.4355840302e+00 -5.1745900798e-05 1.7666615527e+00 -3.0599475691e+00 1.7666615527e+00 3.0599475691e+00 
50000 6.4355841923e+00 -7.5204843613e-05 1.7666615527e+00 -3.0599475691e+00 1.7666615527e+00 3.0599475691e+00 
50100 6.4355843515e+00 -9.6816322665e-05 1.7666636812e+00 -3.0599512557e+00 1.7666636812e+00 3.0599512557e+00 
50200 6.4355845075e+00 -1.1808150619e-04 1.7666664213e+00 -3.0599560017e+00 1.7666664213e+00 3.0599560017e+00 
50300 6.4355846601e+00 -1.3896055660e-04 1.7666697632e+00 -3.0599617901e+00 1.7666697632e+00 3.0599617901e+00 
50400 6.4355848092e+00 -1.5941528733e-04 1.7666736960e+00 -3.0599686020e+00 1.7666736960e+00 3.0599686020e+00 
50500 6.4355849546e+00 -1.7940920201e-04 1.7666782078e+00 -3.0599764165e+00 1.7666782078e+00 3.0599764165e+00 
50600 6.4355850961e+00 -1.9890752952e-04 1.7666832854e+00 -3.0599852112e+00 1.7666832854e+00 3.0599852112e+00 
50700 6.4355852336e+00 -2.1787725501e-04 1.7666889148e+00 -3.0599949616e+00 1.7666889148e+00 3.0599949616e+00 
50800 6.4355853672e+00 -2.3628714689e-04 1.7666950810e+00 -3.0600056419e+00 1.7666950810e+00 3.0600056419e+00 
50900 6.4355854966e+00 -2.5410777973e-04 1.7667017683e+00 -3.0600172245e+00 1.7667017683e+00 3.0600172245e+00 
51000 6.4355856218e+00 -2.7131155329e-04 1.7667089599e+00 -3.0600296807e+00 1.7667089599e+00 3.0600296807e+00 
51100 6.4355857429e+00 -2.8787270756e-04 1.7667166384e+00 -3.0600429802e+00 1.7667166384e+00 3.0600429802e+00 
51200 6.4355858597e+00 -3.0376733390e-04 1.7667247855e+00 -3.0600570914e+00 1.7667247855e+00 3.0600570914e+00 
51300 6.4355859725e+00 -3.1897338243e-04 1.7667333824e+00 -3.0600719817e+00 1.7667333824e+00 3.0600719817e+00 
51400 6.4355860811e+00 -3.3347066562e-04 1.7667424096e+00 -3.0600876173e+00 1.7667424096e+00 3.0600876173e+00 
51500 6.4355861856e+00 -3.4724085824e-04 1.7667518471e+00 -3.0601039635e+00 1.7667518471e+00 3.0601039635e+00 
51600 6.4355862862e+00 -3.6026749364e-04 1.7667616742e+00 -3.0601209845e+00 1.7667616742e+00 3.0601209845e+00 
51700 6.4355863829e+00 -3.7253595659e-04 1.7667718699e+00 -3.0601386440e+00 1.7667718699e+00 3.0601386440e+00 
51800 6.4355864759e+00 -3.8403347261e-04 1.7667824127e+00 -3.0601569048e+00 1.7667824127e+00 3.0601569048e+00 
51900 6.4355865652e+00 -3.9474909399e-04 1.7667932809e+00 -3.0601757290e+00 1.7667932809e+00 3.0601757290e+00 
52000 6.4355866510e+00 -4.0467368260e-04 1.7668044523e+00 -3.0601950783e+00 1.7668044523e+00 3.0601950783e+00 
52100 6.4355867335e+00 -4.1379988945e-04 1.7668159044e+00 -3.0602149140e+00 1.7668159044e+00 3.0602149140e+00 
52200 6.4355868128e+00 -4.2212213131e-04 1.7668276147e+00 -3.0602351969e+00 1.7668276147e+00 3.0602351969e+00 
52300 6.4355868891e+00 -4.2963656433e-04 1.7668395605e+00 -3.0602558876e+00 1.7668395605e+00 3.0602558876e+00 
52400 6.4355869625e+00 -4.3634105487e-04 1.7668517189e+00 -3.0602769465e+00 1.7668517189e+00 3.0602769465e+00 
52500 6.4355870332e+00 -4.4223514762e-04 1.7668640669e+00 -3.0602983339e+00 1.7668640669e+00 3.0602983339e+00 
52600 6.4355871015e+00 -4.4732003108e-04 1.7668765816e+00 -3.0603200100e+00 1.7668765816e+00 3.0603200100e+00 
52700 6.4355871675e+00 -4.5159850060e-04 1.7668892401e+00 -3.0603419352e+00 1.7668892401e+00 3.0603419352e+00 
52800 6.4355872314e+00 -4.5507491914e-04 1.7669020196e+00 -3.0603640699e+00 1.7669020196e+00 3.0603640699e+00 
52900 6.4355872934e+00 -4.5775517564e-04 1.7669148974e+00 -3.0603863749e+00 1.7669148974e+00 3.0603863749e+00 
53000 6.4355873536e+00 -4.5964664148e-04 1.7669278509e+00 -3.0604088110e+00 1.7669278509e+00 3.0604088110e+00 
53100 6.4355874123e+00 -4.6075812479e-04 1.7669408578e+00 -3.0604313398e+00 1.7669408578e+00 3.0604313398e+00 
53200 6.4355874697e+00 -4.6109982307e-04 1.7669538962e+00 -3.0604539228e+00 1.7669538962e+00 3.0604539228e+00 
53300 6.4355875258e+00 -4.6068327399e-04 1.7669669441e+00 -3.0604765224e+00 1.7669669441e+00 3.0604765224e+00 
53400 6.4355875809e+00 -4.5952130463e-04 1.7669799801e+00 -3.0604991014e+00 1.7669799801e+00 3.0604991014e+00 
53500 6.4355876351e+00 -4.5762797934e-04 1.7669929831e+00 -3.0605216233e+00 1.7669929831e+00 3.0605216233e+00 
53600 6.4355876886e+00 -4.5501854614e-04 1.7670059324e+00 -3.0605440523e+00 1.7670059324e+00 3.0605440523e+00 
53700 6.4355877416e+00 -4.5170938208e-04 1.7670188079e+00 -3.0605663532e+00 1.7670188079e+00 3.0605663532e+00 
53800 6.4355877941e+00 -4.4771793743e-04 1.7670315896e+00 -3.0605884917e+00 1.7670315896e+00 3.0605884917e+00 
53900 6.4355878463e+00 -4.4306267896e-04 1.7670442582e+00 -3.0606104345e+00 1.7670442582e+00 3.0606104345e+00 
54000 6.4355878982e+00 -4.3776303249e-04 1.7670567951e+00 -3.0606321489e+00 1.7670567951e+00 3.0606321489e+00 
54100 6.4355879501e+00 -4.3183932466e-04 1.7670691819e+00 -3.0606536035e+00 1.7670691819e+00 3.0606536035e+00 
54200 6.4355880020e+00 -4.2531272422e-04 1.7670814010e+00 -3.0606747676e+00 1.7670814010e+00 3.0606747676e+00 
54300 6.4355880539e+00 -4.1820518290e-04 1.7670934353e+00 -3.0606956117e+00 1.7670934353e+00 3.0606956117e+00 
54400 6.4355881060e+00 -4.1053937592e-04 1.7671052685e+00 -3.0607161073e+00 1.7671052685e+00 3.0607161073e+00 
54500 6.4355881582e+00 -4.0233864243e-04 1.7671168846e+00 -3.0607362271e+00 1.7671168846e+00 3.0607362271e+00 
54600 6.4355882107e+00 -3.9362692578e-04 1.7671282687e+00 -3.0607559449e+00 1.7671282687e+00 3.0607559449e+00 
54700 6.4355882635e+00 -3.8442871390e-04 1.7671394062e+00 -3.0607752356e+00 1.7671394062e+00 3.0607752356e+00 
54800 6.4355883166e+00 -3.7476897990e-04 1.7671502833e+00 -3.0607940753e+00 1.7671502833e+00 3.0607940753e+00 
54900 6.4355883700e+00 -3.6467312285e-04 1.7671608871e+00 -3.0608124416e+00 1.7671608871e+00 3.0608124416e+00 
55000 6.4355884238e+00 -3.5416690906e-04 1.7671712052e+00 -3.0608303130e+00 1.7671712052e+00 3.0608303130e+00 
55100 6.4355884778e+00 -3.4327641381e-04 1.7671812259e+00 -3.0608476695e+00 1.7671812259e+00 3.0608476695e+00 
55200 6.4355885322e+00 -3.3202796366e-04 1.7671909385e+00 -3.0608644921e+00 1.7671909385e+00 3.0608644921e+00 
55300 6.4355885869e+00 -3.2044807954e-04 1.7672003327e+00 -3.0608807634e+00 1.7672003327e+00 3.0608807634e+00 
55400 6.4355886418e+00 -3.0856342058e-04 1.7672093993e+00 -3.0608964671e+00 1.7672093993e+00 3.0608964671e+00 
55500 6.4355886969e+00 -2.9640072885e-04 1.7672181295e+00 -3.0609115884e+00 1.7672181295e+00 3.0609115884e+00 
55600 6.4355887523e+00 -2.8398677509e-04 1.7672265156e+00 -3.0609261135e+00 1.7672265156e+00 3.0609261135e+00 
55700 6.4355888077e+00 -2.7134830550e-04 1.7672345504e+00 -3.0609400302e+00 1.7672345504e+00 3.0609400302e+00 
55800 6.4355888633e+00 -2.5851198968e-04 1.7672422276e+00 -3.0609533275e+00 1.7672422276e+00 3.0609533275e+00 
55900 6.4355889188e+00 -2.4550436981e-04 1.7672495416e+00 -3.0609659957e+00 1.7672495416e+00 3.0609659957e+00 
56000 6.4355889744e+00 -2.3235181115e-04 1.7672564876e+00 -3.0609780265e+00 1.7672564876e+00 3.0609780265e+00 
56100 6.4355890298e+00 -2.1908045382e-04 1.7672630614e+00 -3.0609894126e+00 1.7672630614e+00 3.0609894126e+00 
56200 6.4355890850e+00 -2.0571616616e-04 1.7672692597e+00 -3.0610001484e+00 1.7672692597e+00 3.0610001484e+00 
56300 6.4355891400e+00 -1.9228449944e-04 1.7672750799e+00 -3.0610102293e+00 1.7672750799e+00 3.0610102293e+00 
56400 6.4355891947e+00 -1.7881064429e-04 1.7672805200e+00 -3.0610196519e+00 1.7672805200e+00 3.0610196519e+00 
56500 6.4355892491e+00 -1.6531938854e-04 1.7672855789e+00 -3.0610284142e+00 1.7672855789e+00 3.0610284142e+00 
56600 6.4355893030e+00 -1.5183507694e-04 1.7672902561e+00 -3.0610365153e+00 1.7672902561e+00 3.0610365153e+00 
56700 6.4355893563e+00 -1.3838157236e-04 1.7672945518e+00 -3.0610439557e+00 1.7672945518e+00 3.0610439557e+00 
56800 6.4355894091e+00 -1.2498221895e-04 1.7672984669e+00 -3.0610507368e+00 1.7672984669e+00 3.0610507368e+00 
56900 6.4355894613e+00 -1.1165980689e-04 1.7673020029e+00 -3.0610568613e+00 1.7673020029e+00 3.0610568613e+00 
57000 6.4355895127e+00 -9.8436539062e-05 1.7673051619e+00 -3.0610623329e+00 1.7673051619e+00 3.0610623329e+00 
57100 6.4355895634e+00 -8.5333999577e-05 1.7673079469e+00 -3.0610671566e+00 1.7673079469e+00 3.0610671566e+00 
57200 6.4355896132e+00 -7.2373124047e-05 1.7673103611e+00 -3.0610713382e+00 1.7673103611e+00 3.0610713382e+00 
57300 6.4355896622e+00 -5.9574171872e-05 1.7673124086e+00 -3.0610748846e+00 1.7673124086e+00 3.0610748846e+00 
57400 6.4355897103e+00 -4.8682939132e-05 1.7673124086e+00 -3.0610748846e+00 1.7673124086e+00 3.0610748846e+00 
57500 6.4355897574e+00 -3.7632601480e-05 1.7673124086e+00 -3.0610748846e+00 1.7673124086e+00 3.0610748846e+00 
57600 6.4355898034e+00 -2.6447147385e-05 1.7673124086e+00 -3.0610748846e+00 1.7673124086e+00 3.0610748846e+00 
57700 6.4355898484e+00 -1.5149980608e-05 1.7673124086e+00 -3.0610748846e+00 1.7673124086e+00 3.0610748846e+00 
57800 6.4355898922e+00 -3.7638991144e-06 1.7673124086e+00 -3.0610748846e+00 1.7673124086e+00 3.0610748846e+00 
57900 6.4355899350e+00 7.6889242900e-06 1.7673124086e+00 -3.0610748846e+00 1.7673124086e+00 3.0610748846e+00 
58000 6.4355899767e+00 1.9186959670e-05 1.7673124086e+00 -3.0610748846e+00 1.7673124086e+00 3.0610748846e+00 
58100 6.4355900172e+00 3.0709335973e-05 1.7673124086e+00 -3.0610748846e+00 1.7673124086e+00 3.0610748846e+00 
58200 6.4355900567e+00 4.2235855435e-05 1.7673124086e+00 -3.0610748846e+00 1.7673124086e+00 3.0610748846e+00 
58300 6.4355900951e+00 5.3747006361e-05 1.7673124086e+00 -3.0610748846e+00 1.7673124086e+00 3.0610748846e+00 
58400 6.4355901325e+00 6.5223974314e-05 1.7673124086e+00 -3.0610748846e+00 1.7673124086e+00 3.0610748846e+00 
58500 6.4355901688e+00 7.6648651776e-05 1.7673124086e+00 -3.0610748846e+00 1.7673124086e+00 3.0610748846e+00 
58600 6.4355902038e+00 8.5782452972e-05 1.7673102401e+00 -3.0610711287e+00 1.7673102401e+00 3.0610711287e+00 
58700 6.4355902377e+00 9.4557229590e-05 1.7673078132e+00 -3.0610669251e+00 1.7673078132e+00 3.0610669251e+00 
58800 6.4355902706e+00 1.0296466909e-04 1.7673051380e+00 -3.0610622916e+00 1.7673051380e+00 3.0610622916e+00 
58900 6.4355903023e+00 1.1099732997e-04 1.7673022250e+00 -3.0610572460e+00 1.7673022250e+00 3.0610572460e+00 
59000 6.4355903330e+00 1.1864863802e-04 1.7672990847e+00 -3.0610518069e+00 1.7672990847e+00 3.0610518069e+00 
59100 6.4355903627e+00 1.2591288113e-04 1.7672957279e+00 -3.0610459928e+00 1.7672957279e+00 3.0610459928e+00 
59200 6.4355903914e+00 1.3278520238e-04 1.7672921656e+00 -3.0610398227e+00 1.7672921656e+00 3.0610398227e+00 
59300 6.4355904192e+00 1.3926159178e-04 1.7672884089e+00 -3.0610333158e+00 1.7672884089e+00 3.0610333158e+00 
59400 6.4355904460e+00 1.4533887641e-04 1.7672844689e+00 -3.0610264916e+00 1.7672844689e+00 3.0610264916e+00 
59500 6.4355904720e+00 1.5101470921e-04 1.7672803570e+00 -3.0610193695e+00 1.7672803570e+00 3.0610193695e+00 
59600 6.4355904971e+00 1.5628755642e-04 1.7672760845e+00 -3.0610119693e+00 1.7672760845e+00 3.0610119693e+00 
59700 6.4355905214e+00 1.6115668366e-04 1.7672716628e+00 -3.0610043107e+00 1.7672716628e+00 3.0610043107e+00 
59800 6.4355905450e+00 1.6562214075e-04 1.7672671033e+00 -3.0609964134e+00 1.7672671033e+00 3.0609964134e+00 
59900 6.4355905679e+00 1.6968474540e-04 1.7672624175e+00 -3.0609882973e+00 1.7672624175e+00 3.0609882973e+00 
60000 6.4355905901e+00 1.7334606567e-04 1.7672576167e+00 -3.0609799821e+00 1.7672576167e+00 3.0609799821e+00 
60100 6.4355906116e+00 1.7660840137e-04 1.7672527123e+00 -3.0609714875e+00 1.7672527123e+00 3.0609714875e+00 
60200 6.4355906326e+00 1.7947476444e-04 1.7672477156e+00 -3.0609628330e+00 1.7672477156e+00 3.0609628330e+00 
60300 6.4355906531e+00 1.8194885834e-04 1.7672426378e+00 -3.0609540380e+00 1.7672426378e+00 3.0609540380e+00 
60400 6.4355906731e+00 1.8403505657e-04 1.7672374900e+00 -3.0609451217e+00 1.7672374900e+00 3.0609451217e+00 
60500 6.4355906926e+00 1.8573838026e-04 1.7672322831e+00 -3.0609361032e+00 1.7672322831e+00 3.0609361032e+00 
60600 6.4355907117e+00 1.8706447502e-04 1.7672270281e+00 -3.0609270011e+00 1.7672270281e+00 3.0609270011e+00 
60700 6.4355907305e+00 1.8801958709e-04 1.7672217355e+00 -3.0609178341e+00 1.7672217355e+00 3.0609178341e+00 
60800 6.4355907489e+00 1.8861053877e-04 1.7672164158e+00 -3.0609086202e+00 1.7672164158e+00 3.0609086202e+00 
60900 6.4355907670e+00 1.8884470325e-04 1.7672110795e+00 -3.0608993773e+00 1.7672110795e+00 3.0608993773e+00 
61000 6.4355907849e+00 1.8872997892e-04 1.7672057365e+00 -3.0608901230e+00 1.7672057365e+00 3.0608901230e+00 
61100 6.4355908025e+00 1.8827476317e-04 1.7672003967e+00 -3.0608808742e+00 1.7672003967e+00 3.0608808742e+00 
61200 6.4355908200e+00 1.8748792581e-04 1.7671950698e+00 -3.0608716477e+00 1.7671950698e+00 3.0608716477e+00 
61300 6.4355908372e+00 1.8637878205e-04 1.7671897651e+00 -3.0608624597e+00 1.7671897651e+00 3.0608624597e+00 
61400 6.4355908543e+00 1.8495706527e-04 1.7671844918e+00 -3.0608533261e+00 1.7671844918e+00 3.0608533261e+00 
61500 6.4355908713e+00 1.8323289946e-04 1.7671792587e+00 -3.0608442621e+00 1.7671792587e+00 3.0608442621e+00 
61600 6.4355908882e+00 1.8121677157e-04 1.7671740743e+00 -3.0608352826e+00 1.7671740743e+00 3.0608352826e+00 
61700 6.4355909050e+00 1.7891950360e-04 1.7671689470e+00 -3.0608264018e+00 1.7671689470e+00 3.0608264018e+00 
61800 6.4355909217e+00 1.7635222479e-04 1.7671638847e+00 -3.0608176337e+00 1.7671638847e+00 3.0608176337e+00 
61900 6.4355909384e+00 1.7352634360e-04 1.7671588950e+00 -3.0608089912e+00 1.7671588950e+00 3.0608089912e+00 
62000 6.4355909550e+00 1.7045351993e-04 1.7671539853e+00 -3.0608004873e+00 1.7671539853e+00 3.0608004873e+00 
62100 6.4355909716e+00 1.6714563726e-04 1.7671491625e+00 -3.0607921339e+00 1.7671491625e+00 3.0607921339e+00 
62200 6.4355909881e+00 1.6361477504e-04 1.7671444332e+00 -3.0607839426e+00 1.7671444332e+00 3.0607839426e+00 
62300 6.4355910046e+00 1.5987318123e-04 1.7671398039e+00 -3.0607759244e+00 1.7671398039e+00 3.0607759244e+00 
62400 6.4355910211e+00 1.5593324513e-04 1.7671352804e+00 -3.0607680894e+00 1.7671352804e+00 3.0607680894e+00 
62500 6.4355910375e+00 1.5180747041e-04 1.7671308683e+00 -3.0607604476e+00 1.7671308683e+00 3.0607604476e+00 
62600 6.4355910539e+00 1.4750844857e-04 1.7671265730e+00 -3.0607530079e+00 1.7671265730e+00 3.0607530079e+00 
62700 6.4355910703e+00 1.4304883278e-04 1.7671223993e+00 -3.0607457789e+00 1.7671223993e+00 3.0607457789e+00 
62800 6.4355910866e+00 1.3844131205e-04 1.7671183518e+00 -3.0607387684e+00 1.7671183518e+00 3.0607387684e+00 
62900 6.4355911028e+00 1.3369858599e-04 1.7671144347e+00 -3.0607319837e+00 1.7671144347e+00 3.0607319837e+00 
63000 6.4355911191e+00 1.2883333997e-04 1.7671106517e+00 -3.0607254314e+00 1.7671106517e+00 3.0607254314e+00 
63100 6.4355911352e+00 1.2385822091e-04 1.7671070064e+00 -3.0607191175e+00 1.7671070064e+00 3.0607191175e+00 
63200 6.4355911512e+00 1.1878581357e-04 1.7671035019e+00 -3.0607130475e+00 1.7671035019e+00 3.0607130475e+00 
63300 6.4355911672e+00 1.1362861755e-04 1.7671001408e+00 -3.0607072260e+00 1.7671001408e+00 3.0607072260e+00 
63400 6.4355911831e+00 1.0839902480e-04 1.7670969257e+00 -3.0607016573e+00 1.7670969257e+00 3.0607016573e+00 
63500 6.4355911988e+00 1.0310929798e-04 1.7670938586e+00 -3.0606963448e+00 1.7670938586e+00 3.0606963448e+00 
63600 6.4355912144e+00 9.7771549345e-05 1.7670909411e+00 -3.0606912916e+00 1.7670909411e+00 3.0606912916e+00 
63700 6.4355912299e+00 9.2397720456e-05 1.7670881746e+00 -3.0606864999e+00 1.7670881746e+00 3.0606864999e+00 
63800 6.4355912452e+00 8.6999562675e-05 1.7670855602e+00 -3.0606819717e+00 1.7670855602e+00 3.0606819717e+00 
63900 6.4355912603e+00 8.1588618339e-05 1.7670830986e+00 -3.0606777079e+00 1.7670830986e+00 3.0606777079e+00 
64000 6.4355912753e+00 7.6176202818e-05 1.7670807900e+00 -3.0606737094e+00 1.7670807900e+00 3.0606737094e+00 
64100 6.4355912900e+00 7.0773387328e-05 1.7670786346e+00 -3.0606699761e+00 1.7670786346e+00 3.0606699761e+00 
64200 6.4355913046e+00 6.5390982612e-05 1.7670766320e+00 -3.0606665075e+00 1.7670766320e+00 3.0606665075e+00 
64300 6.4355913190e+00 6.1935428977e-05 1.7670766320e+00 -3.0606665075e+00 1.7670766320e+00 3.0606665075e+00 
64400 6.4355913332e+00 5.8372687300e-05 1.7670766320e+00 -3.0606665075e+00 1.7670766320e+00 3.0606665075e+00 
64500 6.4355913471e+00 5.4714888641e-05 1.7670766320e+00 -3.0606665075e+00 1.7670766320e+00 3.0606665075e+00 
64600 6.4355913607e+00 5.0973945281e-05 1.7670766320e+00 -3.0606665075e+00 1.7670766320e+00 3.0606665075e+00 
64700 6.4355913740e+00 4.7161536695e-05 1.7670766320e+00 -3.0606665075e+00 1.7670766320e+00 3.0606665075e+00 
64800 6.4355913871e+00 4.3289096346e-05 1.7670766320e+00 -3.0606665075e+00 1.7670766320e+00 3.0606665075e+00 
64900 6.4355913998e+00 3.9367799338e-05 1.7670766320e+00 -3.0606665075e+00 1.7670766320e+00 3.0606665075e+00 
65000 6.4355914122e+00 3.5408550916e-05 1.7670766320e+00 -3.0606665075e+00 1.7670766320e+00 3.0606665075e+00 
65100 6.4355914244e+00 3.1421975790e-05 1.7670766320e+00 -3.0606665075e+00 1.7670766320e+00 3.0606665075e+00 
65200 6.4355914362e+00 2.7418408296e-05 1.7670766320e+00 -3.0606665075e+00 1.7670766320e+00 3.0606665075e+00 
65300 6.4355914477e+00 2.3407883370e-05 1.7670766320e+00 -3.0606665075e+00 1.7670766320e+00 3.0606665075e+00 
65400 6.4355914589e+00 1.9400128341e-05 1.7670766320e+00 -3.0606665075e+00 1.7670766320e+00 3.0606665075e+00 
65500 6.4355914698e+00 1.5404555516e-05 1.7670766320e+00 -3.0606665075e+00 1.7670766320e+00 3.0606665075e+00 
65600 6.4355914805e+00 1.1430255550e-05 1.7670766320e+00 -3.0606665075e+00 1.7670766320e+00 3.0606665075e+00 
65700 6.4355914908e+00 7.4859916023e-06 1.7670766320e+00 -3.0606665075e+00 1.7670766320e+00 3.0606665075e+00 
65800 6.4355915008e+00 3.5801942322e-06 1.7670766320e+00 -3.0606665075e+00 1.7670766320e+00 3.0606665075e+00 
65900 6.4355915106e+00 -2.7904293711e-07 1.7670766320e+00 -3.0606665075e+00 1.7670766320e+00 3.0606665075e+00 
66000 6.4355915201e+00 -4.0839668388e-06 1.7670766320e+00 -3.0606665075e+00 1.7670766320e+00 3.0606665075e+00 
66100 6.4355915293e+00 -7.8271678778e-06 1.7670766320e+00 -3.0606665075e+00 1.7670766320e+00 3.0606665075e+00 
66200 6.4355915383e+00 -1.1501582121e-05 1.7670766320e+00 -3.0606665075e+00 1.7670766320e+00 3.0606665075e+00 
66300 6.4355915470e+00 -1.5100492845e-05 1.7670766320e+00 -3.0606665075e+00 1.7670766320e+00 3.0606665075e+00 
66400 6.4355915554e+00 -1.8617531408e-05 1.7670766320e+00 -3.0606665075e+00 1.7670766320e+00 3.0606665075e+00 
66500 6.4355915636e+00 -2.2046677470e-05 1.7670766320e+00 -3.0606665075e+00 1.7670766320e+00 3.0606665075e+00 
66600 6.4355915716e+00 -2.5382258621e-05 1.7670766320e+00 -3.0606665075e+00 1.7670766320e+00 3.0606665075e+00 
66700 6.4355915794e+00 -2.8618949389e-05 1.7670766320e+00 -3.0606665075e+00 1.7670766320e+00 3.0606665075e+00 
66800 6.4355915870e+00 -3.1751769672e-05 1.7670766320e+00 -3.0606665075e+00 1.7670766320e+00 3.0606665075e+00 
66900 6.4355915943e+00 -3.4776082623e-05 1.7670766320e+00 -3.0606665075e+00 1.7670766320e+00 3.0606665075e+00 
67000 6.4355916015e+00 -3.7687591978e-05 1.7670766320e+00 -3.0606665075e+00 1.7670766320e+00 3.0606665075e+00 
67100 6.4355916084e+00 -4.0482338893e-05 1.7670766320e+00 -3.0606665075e+00 1.7670766320e+00 3.0606665075e+00 
67200 6.4355916152e+00 -4.3156698265e-05 1.7670766320e+00 -3.0606665075e+00 1.7670766320e+00 3.0606665075e+00 
67300 6.4355916219e+00 -4.5707374599e-05 1.7670766320e+00 -3.0606665075e+00 1.7670766320e+00 3.0606665075e+00 
67400 6.4355916283e+00 -4.8131397425e-05 1.7670766320e+00 -3.0606665075e+00 1.7670766320e+00 3.0606665075e+00 
67500 6.4355916346e+00 -5.0426116264e-05 1.7670766320e+00 -3.0606665075e+00 1.7670766320e+00 3.0606665075e+00 
67600 6.4355916408e+00 -5.2589195230e-05 1.7670766320e+00 -3.0606665075e+00 1.7670766320e+00 3.0606665075e+00 
67700 6.4355916468e+00 -5.4618607213e-05 1.7670766320e+00 -3.0606665075e+00 1.7670766320e+00 3.0606665075e+00 
67800 6.4355916527e+00 -5.6512627730e-05 1.7670766320e+00 -3.0606665075e+00 1.7670766320e+00 3.0606665075e+00 
67900 6.4355916585e+00 -5.8269828413e-05 1.7670766320e+00 -3.0606665075e+00 1.7670766320e+00 3.0606665075e+00 
68000 6.4355916642e+00 -5.9889070206e-05 1.7670766320e+00 -3.0606665075e+00 1.7670766320e+00 3.0606665075e+00 
68100 6.4355916698e+00 -6.1369496253e-05 1.7670766320e+00 -3.0606665075e+00 1.7670766320e+00 3.0606665075e+00 
68200 6.4355916752e+00 -6.2710524524e-05 1.7670766320e+00 -3.0606665075e+00 1.7670766320e+00 3.0606665075e+00 
68300 6.4355916806e+00 -6.3911840171e-05 1.7670766320e+00 -3.0606665075e+00 1.7670766320e+00 3.0606665075e+00 
68400 6.4355916859e+00 -6.4973387695e-05 1.7670766320e+00 -3.0606665075e+00 1.7670766320e+00 3.0606665075e+00 
68500 6.4355916911e+00 -6.5895362863e-05 1.7670766320e+00 -3.0606665075e+00 1.7670766320e+00 3.0606665075e+00 
68600 6.4355916962e+00 -6.6678204458e-05 1.7670766320e+00 -3.0606665075e+00 1.7670766320e+00 3.0606665075e+00 
68700 6.4355917012e+00 -6.7322585868e-05 1.7670766320e+00 -3.0606665075e+00 1.7670766320e+00 3.0606665075e+00 
68800 6.4355917062e+00 -6.7829406519e-05 1.7670766320e+00 -3.0606665075e+00 1.7670766320e+00 3.0606665075e+00 
68900 6.4355917111e+00 -6.8199783188e-05 1.7670766320e+00 -3.0606665075e+00 1.7670766320e+00 3.0606665075e+00 
69000 6.4355917159e+00 -6.8435041207e-05 1.7670766320e+00 -3.0606665075e+00 1.7670766320e+00 3.0606665075e+00 
69100 6.4355917207e+00 -6.8536705567e-05 1.7670766320e+00 -3.0606665075e+00 1.7670766320e+00 3.0606665075e+00 
69200 6.4355917254e+00 -6.8506491978e-05 1.7670766320e+00 -3.0606665075e+00 1.7670766320e+00 3.0606665075e+00 
69300 6.4355917300e+00 -6.8346297858e-05 1.7670766320e+00 -3.0606665075e+00 1.7670766320e+00 3.0606665075e+00 
69400 6.4355917346e+00 -6.8058193287e-05 1.7670766320e+00 -3.0606665075e+00 1.7670766320e+00 3.0606665075e+00 
69500 6.4355917392e+00 -6.7644411955e-05 1.7670766320e+00 -3.0606665075e+00 1.7670766320e+00 3.0606665075e+00 
69600 6.4355917437e+00 -6.7107342108e-05 1.7670766320e+00 -3.0606665075e+00 1.7670766320e+00 3.0606665075e+00 
69700 6.4355917481e+00 -6.6449517498e-05 1.7670766320e+00 -3.0606665075e+00 1.7670766320e+00 3.0606665075e+00 
69800 6.4355917525e+00 -6.5673608377e-05 1.7670766320e+00 -3.0606665075e+00 1.7670766320e+00 3.0606665075e+00 
69900 6.4355917569e+00 -6.4782412525e-05 1.7670766320e+00 -3.0606665075e+00 1.7670766320e+00 3.0606665075e+00 
70000 6.4355917612e+00 -6.3778846356e-05 1.7670766320e+00 -3.0606665075e+00 1.7670766320e+00 3.0606665075e+00 
70100 6.4355917654e+00 -6.2665936079e-05 1.7670766320e+00 -3.0606665075e+00 1.7670766320e+00 3.0606665075e+00 
70200 6.4355917696e+00 -6.1446808950e-05 1.7670766320e+00 -3.0606665075e+00 1.7670766320e+00 3.0606665075e+00 
70300 6.4355917738e+00 -6.0124684633e-05 1.7670766320e+00 -3.0606665075e+00 1.7670766320e+00 3.0606665075e+00 
70400 6.4355917779e+00 -5.8702866674e-05 1.7670766320e+00 -3.0606665075e+00 1.7670766320e+00 3.0606665075e+00 
70500 6.4355917820e+00 -5.7184734081e-05 1.7670766320e+00 -3.0606665075e+00 1.7670766320e+00 3.0606665075e+00 
70600 6.4355917860e+00 -5.5573733050e-05 1.7670766320e+00 -3.0606665075e+00 1.7670766320e+00 3.0606665075e+00 
70700 6.4355917900e+00 -5.3873368846e-05 1.7670766320e+00 -3.0606665075e+00 1.7670766320e+00 3.0606665075e+00 
70800 6.4355917939e+00 -5.2087197819e-05 1.7670766320e+00 -3.0606665075e+00 1.7670766320e+00 3.0606665075e+00 
70900 6.4355917978e+00 -5.0218819589e-05 1.7670766320e+00 -3.0606665075e+00 1.7670766320e+00 3.0606665075e+00 
71000 6.4355918016e+00 -4.8271869412e-05 1.7670766320e+00 -3.0606665075e+00 1.7670766320e+00 3.0606665075e+00 
71100 6.4355918054e+00 -4.6250010724e-05 1.7670766320e+00 -3.0606665075e+00 1.7670766320e+00 3.0606665075e+00 
71200 6.4355918091e+00 -4.4156927857e-05 1.7670766320e+00 -3.0606665075e+00 1.7670766320e+00 3.0606665075e+00 
71300 6.4355918128e+00 -4.1996318968e-05 1.7670766320e+00 -3.0606665075e+00 1.7670766320e+00 3.0606665075e+00 
71400 6.4355918165e+00 -3.9771889167e-05 1.7670766320e+00 -3.0606665075e+00 1.7670766320e+00 3.0606665075e+00 
71500 6.4355918200e+00 -3.7487343835e-05 1.7670766320e+00 -3.0606665075e+00 1.7670766320e+00 3.0606665075e+00 
71600 6.4355918236e+00 -3.5146382175e-05 1.7670766320e+00 -3.0606665075e+00 1.7670766320e+00 3.0606665075e+00 
71700 6.4355918271e+00 -3.2752690960e-05 1.7670766320e+00 -3.0606665075e+00 1.7670766320e+00 3.0606665075e+00 
71800 6.4355918305e+00 -3.0309938521e-05 1.7670766320e+00 -3.0606665075e+00 1.7670766320e+00 3.0606665075e+00 
71900 6.4355918338e+00 -2.7821768941e-05 1.7670766320e+00 -3.0606665075e+00 1.7670766320e+00 3.0606665075e+00 
72000 6.4355918372e+00 -2.5291796487e-05 1.7670766320e+00 -3.0606665075e+00 1.7670766320e+00 3.0606665075e+00 
72100 6.4355918404e+00 -2.2723600263e-05 1.7670766320e+00 -3.0606665075e+00 1.7670766320e+00 3.0606665075e+00 
72200 6.4355918436e+00 -2.0120719106e-05 1.7670766320e+00 -3.0606665075e+00 1.7670766320e+00 3.0606665075e+00 
72300 6.4355918468e+00 -1.7486646710e-05 1.7670766320e+00 -3.0606665075e+00 1.7670766320e+00 3.0606665075e+00 
72400 6.4355918499e+00 -1.4824826981e-05 1.7670766320e+00 -3.0606665075e+00 1.7670766320e+00 3.0606665075e+00 
72500 6.4355918529e+00 -1.2138649631e-05 1.7670766320e+00 -3.0606665075e+00 1.7670766320e+00 3.0606665075e+00 
72600 6.4355918559e+00 -9.4314460038e-06 1.7670766320e+00 -3.0606665075e+00 1.7670766320e+00 3.0606665075e+00 
72700 6.4355918589e+00 -6.7064851458e-06 1.7670766320e+00 -3.0606665075e+00 1.7670766320e+00 3.0606665075e+00 
72800 6.4355918618e+00 -3.9669701014e-06 1.7670766320e+00 -3.0606665075e+00 1.7670766320e+00 3.0606665075e+00 
72900 6.4355918646e+00 -1.2160344455e-06 1.7670766320e+00 -3.0606665075e+00 1.7670766320e+00 3.0606665075e+00 
73000 6.4355918674e+00 1.5432609528e-06 1.7670766320e+00 -3.0606665075e+00 1.7670766320e+00 3.0606665075e+00 
73100 6.4355918701e+00 4.3079309247e-06 1.7670766320e+00 -3.0606665075e+00 1.7670766320e+00 3.0606665075e+00 
73200 6.4355918728e+00 7.0750687890e-06 1.7670766320e+00 -3.0606665075e+00 1.7670766320e+00 3.0606665075e+00 
73300 6.4355918754e+00 9.8418488954e-06 1.7670766320e+00 -3.0606665075e+00 1.7670766320e+00 3.0606665075e+00 
73400 6.4355918780e+00 1.2605528947e-05 1.7670766320e+00 -3.0606665075e+00 1.7670766320e+00 3.0606665075e+00 
73500 6.4355918805e+00 1.5363452112e-05 1.7670766320e+00 -3.0606665075e+00 1.7670766320e+00 3.0606665075e+00 
73600 6.4355918830e+00 1.8113048899e-05 1.7670766320e+00 -3.0606665075e+00 1.7670766320e+00 3.0606665075e+00 
73700 6.4355918854e+00 2.0851838848e-05 1.7670766320e+00 -3.0606665075e+00 1.7670766320e+00 3.0606665075e+00 
73800 6.4355918878e+00 2.3577431977e-05 1.7670766320e+00 -3.0606665075e+00 1.7670766320e+00 3.0606665075e+00 
73900 6.4355918901e+00 2.6287530051e-05 1.7670766320e+00 -3.0606665075e+00 1.7670766320e+00 3.0606665075e+00 
74000 6.4355918924e+00 2.8979927639e-05 1.7670766320e+00 -3.0606665075e+00 1.7670766320e+00 3.0606665075e+00 
74100 6.4355918947e+00 3.1652512968e-05 1.7670766320e+00 -3.0606665075e+00 1.7670766320e+00 3.0606665075e+00 
74200 6.4355918969e+00 3.4303268594e-05 1.7670766320e+00 -3.0606665075e+00 1.7670766320e+00 3.0606665075e+00 
74300 6.4355918990e+00 3.6930271893e-05 1.7670766320e+00 -3.0606665075e+00 1.7670766320e+00 3.0606665075e+00 
74400 6.4355919011e+00 3.9531695338e-05 1.7670766320e+00 -3.0606665075e+00 1.7670766320e+00 3.0606665075e+00 
74500 6.4355919032e+00 4.2105806648e-05 1.7670766320e+00 -3.0606665075e+00 1.7670766320e+00 3.0606665075e+00 
74600 6.4355919052e+00 4.4650968730e-05 1.7670766320e+00 -3.0606665075e+00 1.7670766320e+00 3.0606665075e+00 
74700 6.4355919072e+00 4.7165639452e-05 1.7670766320e+00 -3.0606665075e+00 1.7670766320e+00 3.0606665075e+00 
74800 6.4355919092e+00 4.9648371293e-05 1.7670766320e+00 -3.0606665075e+00 1.7670766320e+00 3.0606665075e+00 
74900 6.4355919111e+00 5.2097810795e-05 1.7670766320e+00 -3.0606665075e+00 1.7670766320e+00 3.0606665075e+00 
75000 6.4355919130e+00 5.4512697902e-05 1.7670766320e+00 -3.0606665075e+00 1.7670766320e+00 3.0606665075e+00 
75100 6.4355919149e+00 5.6891865131e-05 1.7670766320e+00 -3.0606665075e+00 1.7670766320e+00 3.0606665075e+00 
75200 6.4355919167e+00 5.9234236621e-05 1.7670766320e+00 -3.0606665075e+00 1.7670766320e+00 3.0606665075e+00 
75300 6.4355919185e+00 6.1538827053e-05 1.7670766320e+00 -3.0606665075e+00 1.7670766320e+00 3.0606665075e+00 
75400 6.4355919202e+00 6.3804740432e-05 1.7670766320e+00 -3.0606665075e+00 1.7670766320e+00 3.0606665075e+00 
75500 6.4355919219e+00 6.6031168770e-05 1.7670766320e+00 -3.0606665075e+00 1.7670766320e+00 3.0606665075e+00 
75600 6.4355919236e+00 6.8217390640e-05 1.7670766320e+00 -3.0606665075e+00 1.7670766320e+00 3.0606665075e+00 
75700 6.4355919253e+00 7.0362769631e-05 1.7670766320e+00 -3.0606665075e+00 1.7670766320e+00 3.0606665075e+00 
75800 6.4355919269e+00 7.2466752710e-05 1.7670766320e+00 -3.0606665075e+00 1.7670766320e+00 3.0606665075e+00 
75900 6.4355919284e+00 7.2428009396e-05 1.7670745816e+00 -3.0606629560e+00 1.7670745816e+00 3.0606629560e+00 
76000 6.4355919298e+00 7.2340580929e-05 1.7670725322e+00 -3.0606594064e+00 1.7670725322e+00 3.0606594064e+00 
76100 6.4355919311e+00 7.2203851117e-05 1.7670704853e+00 -3.0606558611e+00 1.7670704853e+00 3.0606558611e+00 
76200 6.4355919325e+00 7.2017377880e-05 1.7670684422e+00 -3.0606523224e+00 1.7670684422e+00 3.0606523224e+00 
76300 6.4355919338e+00 7.1780887678e-05 1.7670664045e+00 -3.0606487929e+00 1.7670664045e+00 3.0606487929e+00 
76400 6.4355919351e+00 7.1494269886e-05 1.7670643734e+00 -3.0606452750e+00 1.7670643734e+00 3.0606452750e+00 
76500 6.4355919363e+00 7.1157571049e-05 1.7670623504e+00 -3.0606417711e+00 1.7670623504e+00 3.0606417711e+00 
76600 6.4355919375e+00 7.0770989083e-05 1.7670603370e+00 -3.0606382837e+00 1.7670603370e+00 3.0606382837e+00 
76700 6.4355919387e+00 7.0334867403e-05 1.7670583345e+00 -3.0606348153e+00 1.7670583345e+00 3.0606348153e+00 
76800 6.4355919401e+00 7.1888830145e-05 1.7670583345e+00 -3.0606348153e+00 1.7670583345e+00 3.0606348153e+00 
76900 6.4355919412e+00 7.1303417978e-05 1.7670563003e+00 -3.0606312920e+00 1.7670563003e+00 3.0606312920e+00 
77000 6.4355919424e+00 7.0673266132e-05 1.7670542828e+00 -3.0606277975e+00 1.7670542828e+00 3.0606277975e+00 
77100 6.4355919437e+00 7.2048009749e-05 1.7670542828e+00 -3.0606277975e+00 1.7670542828e+00 3.0606277975e+00 
77200 6.4355919448e+00 7.1278453130e-05 1.7670522441e+00 -3.0606242664e+00 1.7670522441e+00 3.0606242664e+00 
77300 6.4355919458e+00 7.0469487442e-05 1.7670502272e+00 -3.0606207731e+00 1.7670502272e+00 3.0606207731e+00 
77400 6.4355919471e+00 7.1665008434e-05 1.7670502272e+00 -3.0606207731e+00 1.7670502272e+00 3.0606207731e+00 
77500 6.4355919481e+00 7.0727890850e-05 1.7670481994e+00 -3.0606172608e+00 1.7670481994e+00 3.0606172608e+00 
77600 6.4355919492e+00 6.9757108024e-05 1.7670461981e+00 -3.0606137945e+00 1.7670461981e+00 3.0606137945e+00 
77700 6.4355919503e+00 7.0776038568e-05 1.7670461981e+00 -3.0606137945e+00 1.7670461981e+00 3.0606137945e+00 
77800 6.4355919513e+00 6.9689463727e-05 1.7670441955e+00 -3.0606103258e+00 1.7670441955e+00 3.0606103258e+00 
77900 6.4355919525e+00 7.0595753742e-05 1.7670441955e+00 -3.0606103258e+00 1.7670441955e+00 3.0606103258e+00 
78000 6.4355919536e+00 7.1450397075e-05 1.7670441955e+00 -3.0606103258e+00 1.7670441955e+00 3.0606103258e+00 
78100 6.4355919546e+00 7.0183732220e-05 1.7670421737e+00 -3.0606068240e+00 1.7670421737e+00 3.0606068240e+00 
78200 6.4355919557e+00 7.0933308936e-05 1.7670421737e+00 -3.0606068240e+00 1.7670421737e+00 3.0606068240e+00 
78300 6.4355919566e+00 6.9578674915e-05 1.7670401666e+00 -3.0606033476e+00 1.7670401666e+00 3.0606033476e+00 
78400 6.4355919577e+00 7.0227560116e-05 1.7670401666e+00 -3.0606033476e+00 1.7670401666e+00 3.0606033476e+00 
78500 6.4355919588e+00 7.0831101073e-05 1.7670401666e+00 -3.0606033476e+00 1.7670401666e+00 3.0606033476e+00 
78600 6.4355919597e+00 6.9337769435e-05 1.7670381624e+00 -3.0605998761e+00 1.7670381624e+00 3.0605998761e+00 
78700 6.4355919607e+00 6.9849471424e-05 1.7670381624e+00 -3.0605998761e+00 1.7670381624e+00 3.0605998761e+00 
78800 6.4355919618e+00 7.0320361583e-05 1.7670381624e+00 -3.0605998761e+00 1.7670381624e+00 3.0605998761e+00 
78900 6.4355919628e+00 7.0752571749e-05 1.7670381624e+00 -3.0605998761e+00 1.7670381624e+00 3.0605998761e+00 
79000 6.4355919636e+00 6.9096893236e-05 1.7670361604e+00 -3.0605964086e+00 1.7670361604e+00 3.0605964086e+00 
79100 6.4355919646e+00 6.9450731685e-05 1.7670361604e+00 -3.0605964086e+00 1.7670361604e+00 3.0605964086e+00 
79200 6.4355919656e+00 6.9770529164e-05 1.7670361604e+00 -3.0605964086e+00 1.7670361604e+00 3.0605964086e+00 
79300 6.4355919666e+00 7.0058426881e-05 1.7670361604e+00 -3.0605964086e+00 1.7670361604e+00 3.0605964086e+00 
79400 6.4355919675e+00 7.0316542978e-05 1.7670361604e+00 -3.0605964086e+00 1.7670361604e+00 3.0605964086e+00 
79500 6.4355919684e+00 7.0546969603e-05 1.7670361604e+00 -3.0605964086e+00 1.7670361604e+00 3.0605964086e+00 
79600 6.4355919694e+00 7.0751770152e-05 1.7670361604e+00 -3.0605964086e+00 1.7670361604e+00 3.0605964086e+00 
79700 6.4355919701e+00 6.8881668477e-05 1.7670341584e+00 -3.0605929410e+00 1.7670341584e+00 3.0605929410e+00 
79800 6.4355919710e+00 6.9033918344e-05 1.7670341584e+00 -3.0605929410e+00 1.7670341584e+00 3.0605929410e+00 
79900 6.4355919719e+00 6.9164856348e-05 1.7670341584e+00 -3.0605929410e+00 1.7670341584e+00 3.0605929410e+00 
80000 6.4355919727e+00 6.9276478283e-05 1.7670341584e+00 -3.0605929410e+00 1.7670341584e+00 3.0605929410e+00 
80100 6.4355919736e+00 6.9370739676e-05 1.7670341584e+00 -3.0605929410e+00 1.7670341584e+00 3.0605929410e+00 
80200 6.4355919744e+00 6.9449553713e-05 1.7670341584e+00 -3.0605929410e+00 1.7670341584e+00 3.0605929410e+00 
80300 6.4355919752e+00 6.9514789272e-05 1.7670341584e+00 -3.0605929410e+00 1.7670341584e+00 3.0605929410e+00 
80400 6.4355919760e+00 6.9568269114e-05 1.7670341584e+00 -3.0605929410e+00 1.7670341584e+00 3.0605929410e+00 
80500 6.4355919768e+00 6.9611768216e-05 1.7670341584e+00 -3.0605929410e+00 1.7670341584e+00 3.0605929410e+00 
80600 6.4355919776e+00 6.9647012230e-05 1.7670341584e+00 -3.0605929410e+00 1.7670341584e+00 3.0605929410e+00 
80700 6.4355919783e+00 6.9675676075e-05 1.7670341584e+00 -3.0605929410e+00 1.7670341584e+00 3.0605929410e+00 
80800 6.4355919791e+00 6.9699382670e-05 1.7670341584e+00 -3.0605929410e+00 1.7670341584e+00 3.0605929410e+00 
80900 6.4355919798e+00 6.9719701796e-05 1.7670341584e+00 -3.0605929410e+00 1.7670341584e+00 3.0605929410e+00 
81000 6.4355919805e+00 6.9738149067e-05 1.7670341584e+00 -3.0605929410e+00 1.7670341584e+00 3.0605929410e+00 
81100 6.4355919812e+00 6.9756185071e-05 1.7670341584e+00 -3.0605929410e+00 1.7670341584e+00 3.0605929410e+00 
81200 6.4355919819e+00 6.9775214588e-05 1.7670341584e+00 -3.0605929410e+00 1.7670341584e+00 3.0605929410e+00 
81300 6.4355919826e+00 6.9796585968e-05 1.7670341584e+00 -3.0605929410e+00 1.7670341584e+00 3.0605929410e+00 
81400 6.4355919833e+00 6.9821590593e-05 1.7670341584e+00 -3.0605929410e+00 1.7670341584e+00 3.0605929410e+00 
81500 6.4355919839e+00 6.9851462482e-05 1.7670341584e+00 -3.0605929410e+00 1.7670341584e+00 3.0605929410e+00 
81600 6.4355919846e+00 6.9887377997e-05 1.7670341584e+00 -3.0605929410e+00 1.7670341584e+00 3.0605929410e+00 
81700 6.4355919852e+00 6.9930455667e-05 1.7670341584e+00 -3.0605929410e+00 1.7670341584e+00 3.0605929410e+00 
81800 6.4355919858e+00 6.9981756110e-05 1.7670341584e+00 -3.0605929410e+00 1.7670341584e+00 3.0605929410e+00 
81900 6.4355919864e+00 7.0042282063e-05 1.7670341584e+00 -3.0605929410e+00 1.7670341584e+00 3.0605929410e+00 
82000 6.4355919870e+00 7.0112978506e-05 1.7670341584e+00 -3.0605929410e+00 1.7670341584e+00 3.0605929410e+00 
82100 6.4355919876e+00 7.0194732901e-05 1.7670341584e+00 -3.0605929410e+00 1.7670341584e+00 3.0605929410e+00 
82200 6.4355919882e+00 7.0288375501e-05 1.7670341584e+00 -3.0605929410e+00 1.7670341584e+00 3.0605929410e+00 
82300 6.4355919888e+00 7.0394679775e-05 1.7670341584e+00 -3.0605929410e+00 1.7670341584e+00 3.0605929410e+00 
82400 6.4355919893e+00 7.0514362887e-05 1.7670341584e+00 -3.0605929410e+00 1.7670341584e+00 3.0605929410e+00 
82500 6.4355919899e+00 7.0648086289e-05 1.7670341584e+00 -3.0605929410e+00 1.7670341584e+00 3.0605929410e+00 
82600 6.4355919904e+00 7.0796456380e-05 1.7670341584e+00 -3.0605929410e+00 1.7670341584e+00 3.0605929410e+00 
82700 6.4355919908e+00 6.8907433043e-05 1.7670321551e+00 -3.0605894713e+00 1.7670321551e+00 3.0605894713e+00 
82800 6.4355919913e+00 6.9079331730e-05 1.7670321551e+00 -3.0605894713e+00 1.7670321551e+00 3.0605894713e+00 
82900 6.4355919918e+00 6.9265695156e-05 1.7670321551e+00 -3.0605894713e+00 1.7670321551e+00 3.0605894713e+00 
83000 6.4355919923e+00 6.9466990158e-05 1.7670321551e+00 -3.0605894713e+00 1.7670321551e+00 3.0605894713e+00 
83100 6.4355919928e+00 6.9683633224e-05 1.7670321551e+00 -3.0605894713e+00 1.7670321551e+00 3.0605894713e+00 
83200 6.4355919933e+00 6.9915991440e-05 1.7670321551e+00 -3.0605894713e+00 1.7670321551e+00 3.0605894713e+00 
83300 6.4355919938e+00 7.0164383470e-05 1.7670321551e+00 -3.0605894713e+00 1.7670321551e+00 3.0605894713e+00 
83400 6.4355919943e+00 7.0429080577e-05 1.7670321551e+00 -3.0605894713e+00 1.7670321551e+00 3.0605894713e+00 
83500 6.4355919947e+00 7.0710307731e-05 1.7670321551e+00 -3.0605894713e+00 1.7670321551e+00 3.0605894713e+00 
83600 6.4355919952e+00 7.1008244734e-05 1.7670321551e+00 -3.0605894713e+00 1.7670321551e+00 3.0605894713e+00 
83700 6.4355919955e+00 6.9264286639e-05 1.7670301459e+00 -3.0605859911e+00 1.7670301459e+00 3.0605859911e+00 
83800 6.4355919959e+00 6.9588618052e-05 1.7670301459e+00 -3.0605859911e+00 1.7670301459e+00 3.0605859911e+00 
83900 6.4355919964e+00 6.9928256174e-05 1.7670301459e+00 -3.0605859911e+00 1.7670301459e+00 3.0605859911e+00 
84000 6.4355919968e+00 7.0283285107e-05 1.7670301459e+00 -3.0605859911e+00 1.7670301459e+00 3.0605859911e+00 
84100 6.4355919972e+00 7.0653750393e-05 1.7670301459e+00 -3.0605859911e+00 1.7670301459e+00 3.0605859911e+00 
84200 6.4355919977e+00 7.1039660223e-05 1.7670301459e+00 -3.0605859911e+00 1.7670301459e+00 3.0605859911e+00 
84300 6.4355919979e+00 6.9381325423e-05 1.7670281357e+00 -3.0605825095e+00 1.7670281357e+00 3.0605825095e+00 
84400 6.4355919983e+00 6.9790612391e-05 1.7670281357e+00 -3.0605825095e+00 1.7670281357e+00 3.0605825095e+00 
84500 6.4355919987e+00 7.0213472626e-05 1.7670281357e+00 -3.0605825095e+00 1.7670281357e+00 3.0605825095e+00 
84600 6.4355919991e+00 7.0649850365e-05 1.7670281357e+00 -3.0605825095e+00 1.7670281357e+00 3.0605825095e+00 
84700 6.4355919995e+00 7.1099659240e-05 1.7670281357e+00 -3.0605825095e+00 1.7670281357e+00 3.0605825095e+00 
84800 6.4355919998e+00 6.9501372686e-05 1.7670261239e+00 -3.0605790249e+00 1.7670261239e+00 3.0605790249e+00 
84900 6.4355920001e+00 6.9970268673e-05 1.7670261239e+00 -3.0605790249e+00 1.7670261239e+00 3.0605790249e+00 
85000 6.4355920005e+00 7.0450479448e-05 1.7670261239e+00 -3.0605790249e+00 1.7670261239e+00 3.0605790249e+00 
85100 6.4355920009e+00 7.0941881208e-05 1.7670261239e+00 -3.0605790249e+00 1.7670261239e+00 3.0605790249e+00 
85200 6.4355920011e+00 6.9387479797e-05 1.7670241165e+00 -3.0605755480e+00 1.7670241165e+00 3.0605755480e+00 
85300 6.4355920015e+00 6.9893413363e-05 1.7670241165e+00 -3.0605755480e+00 1.7670241165e+00 3.0605755480e+00 
85400 6.4355920018e+00 7.0408344036e-05 1.7670241165e+00 -3.0605755480e+00 1.7670241165e+00 3.0605755480e+00 
85500 6.4355920022e+00 7.0932130723e-05 1.7670241165e+00 -3.0605755480e+00 1.7670241165e+00 3.0605755480e+00 
85600 6.4355920024e+00 6.9408039554e-05 1.7670221094e+00 -3.0605720716e+00 1.7670221094e+00 3.0605720716e+00 
85700 6.4355920027e+00 6.9941656311e-05 1.7670221094e+00 -3.0605720716e+00 1.7670221094e+00 3.0605720716e+00 
85800 6.4355920030e+00 7.0481911793e-05 1.7670221094e+00 -3.0605720716e+00 1.7670221094e+00 3.0605720716e+00 
85900 6.4355920034e+00 7.1028665995e-05 1.7670221094e+00 -3.0605720716e+00 1.7670221094e+00 3.0605720716e+00 
86000 6.4355920036e+00 6.9522381545e-05 1.7670200996e+00 -3.0605685904e+00 1.7670200996e+00 3.0605685904e+00 
86100 6.4355920039e+00 7.0074261305e-05 1.7670200996e+00 -3.0605685904e+00 1.7670200996e+00 3.0605685904e+00 
86200 6.4355920042e+00 7.0630448410e-05 1.7670200996e+00 -3.0605685904e+00 1.7670200996e+00 3.0605685904e+00 
86300 6.4355920045e+00 7.1190820194e-05 1.7670200996e+00 -3.0605685904e+00 1.7670200996e+00 3.0605685904e+00 
86400 6.4355920047e+00 6.9691148959e-05 1.7670180851e+00 -3.0605651013e+00 1.7670180851e+00 3.0605651013e+00 
86500 6.4355920050e+00 7.0252067966e-05 1.7670180851e+00 -3.0605651013e+00 1.7670180851e+00 3.0605651013e+00 
86600 6.4355920053e+00 7.0815049922e-05 1.7670180851e+00 -3.0605651013e+00 1.7670180851e+00 3.0605651013e+00 
86700 6.4355920054e+00 6.9326795343e-05 1.7670160813e+00 -3.0605616306e+00 1.7670160813e+00 3.0605616306e+00 
86800 6.4355920057e+00 6.9886250857e-05 1.7670160813e+00 -3.0605616306e+00 1.7670160813e+00 3.0605616306e+00 
86900 6.4355920060e+00 7.0445791728e-05 1.7670160813e+00 -3.0605616306e+00 1.7670160813e+00 3.0605616306e+00 
87000 6.4355920063e+00 7.1005375636e-05 1.7670160813e+00 -3.0605616306e+00 1.7670160813e+00 3.0605616306e+00 
87100 6.4355920064e+00 6.9506217813e-05 1.7670140721e+00 -3.0605581506e+00 1.7670140721e+00 3.0605581506e+00 
87200 6.4355920067e+00 7.0058345750e-05 1.7670140721e+00 -3.0605581506e+00 1.7670140721e+00 3.0605581506e+00 
87300 6.4355920069e+00 7.0608669160e-05 1.7670140721e+00 -3.0605581506e+00 1.7670140721e+00 3.0605581506e+00 
87400 6.4355920072e+00 7.1157194966e-05 1.7670140721e+00 -3.0605581506e+00 1.7670140721e+00 3.0605581506e+00 
87500 6.4355920073e+00 6.9640778193e-05 1.7670120586e+00 -3.0605546632e+00 1.7670120586e+00 3.0605546632e+00 
87600 6.4355920076e+00 7.0178306010e-05 1.7670120586e+00 -3.0605546632e+00 1.7670120586e+00 3.0605546632e+00 
87700 6.4355920078e+00 7.0712343356e-05 1.7670120586e+00 -3.0605546632e+00 1.7670120586e+00 3.0605546632e+00 
87800 6.4355920079e+00 6.9192694761e-05 1.7670100577e+00 -3.0605511975e+00 1.7670100577e+00 3.0605511975e+00 
87900 6.4355920082e+00 6.9712577401e-05 1.7670100577e+00 -3.0605511975e+00 1.7670100577e+00 3.0605511975e+00 
88000 6.4355920084e+00 7.0227471850e-05 1.7670100577e+00 -3.0605511975e+00 1.7670100577e+00 3.0605511975e+00 
88100 6.4355920086e+00 7.0737503782e-05 1.7670100577e+00 -3.0605511975e+00 1.7670100577e+00 3.0605511975e+00 
88200 6.4355920087e+00 6.9191799363e-05 1.7670080561e+00 -3.0605477306e+00 1.7670080561e+00 3.0605477306e+00 
88300 6.4355920089e+00 6.9685110808e-05 1.7670080561e+00 -3.0605477306e+00 1.7670080561e+00 3.0605477306e+00 
88400 6.4355920092e+00 7.0172243378e-05 1.7670080561e+00 -3.0605477306e+00 1.7670080561e+00 3.0605477306e+00 
88500 6.4355920094e+00 7.0653384264e-05 1.7670080561e+00 -3.0605477306e+00 1.7670080561e+00 3.0605477306e+00 
88600 6.4355920096e+00 7.1128718184e-05 1.7670080561e+00 -3.0605477306e+00 1.7670080561e+00 3.0605477306e+00 
88700 6.4355920097e+00 6.9536078610e-05 1.7670060434e+00 -3.0605442445e+00 1.7670060434e+00 3.0605442445e+00 
88800 6.4355920099e+00 6.9992939744e-05 1.7670060434e+00 -3.0605442445e+00 1.7670060434e+00 3.0605442445e+00 
88900 6.4355920101e+00 7.0442845398e-05 1.7670060434e+00 -3.0605442445e+00 1.7670060434e+00 3.0605442445e+00 
89000 6.4355920103e+00 7.0886041842e-05 1.7670060434e+00 -3.0605442445e+00 1.7670060434e+00 3.0605442445e+00 
89100 6.4355920104e+00 6.9267451608e-05 1.7670040376e+00 -3.0605407703e+00 1.7670040376e+00 3.0605407703e+00 
89200 6.4355920106e+00 6.9690579838e-05 1.7670040376e+00 -3.0605407703e+00 1.7670040376e+00 3.0605407703e+00 
89300 6.4355920108e+00 7.0106039190e-05 1.7670040376e+00 -3.0605407703e+00 1.7670040376e+00 3.0605407703e+00 
89400 6.4355920110e+00 7.0514135864e-05 1.7670040376e+00 -3.0605407703e+00 1.7670040376e+00 3.0605407703e+00 
89500 6.4355920112e+00 7.0915172655e-05 1.7670040376e+00 -3.0605407703e+00 1.7670040376e+00 3.0605407703e+00 
89600 6.4355920112e+00 6.9253274861e-05 1.7670020310e+00 -3.0605372947e+00 1.7670020310e+00 3.0605372947e+00 
89700 6.4355920114e+00 6.9633704914e-05 1.7670020310e+00 -3.0605372947e+00 1.7670020310e+00 3.0605372947e+00 
89800 6.4355920116e+00 7.0006278534e-05 1.7670020310e+00 -3.0605372947e+00 1.7670020310e+00 3.0605372947e+00 
89900 6.4355920118e+00 7.0371354392e-05 1.7670020310e+00 -3.0605372947e+00 1.7670020310e+00 3.0605372947e+00 
90000 6.4355920120e+00 7.0729286581e-05 1.7670020310e+00 -3.0605372947e+00 1.7670020310e+00 3.0605372947e+00 
90100 6.4355920120e+00 6.9029632232e-05 1.7670000296e+00 -3.0605338282e+00 1.7670000296e+00 3.0605338282e+00 
90200 6.4355920122e+00 6.9366958301e-05 1.7670000296e+00 -3.0605338282e+00 1.7670000296e+00 3.0605338282e+00 
90300 6.4355920123e+00 6.9696494792e-05 1.7670000296e+00 -3.0605338282e+00 1.7670000296e+00 3.0605338282e+00 
90400 6.4355920125e+00 7.0018646235e-05 1.7670000296e+00 -3.0605338282e+00 1.7670000296e+00 3.0605338282e+00 
90500 6.4355920127e+00 7.0333811150e-05 1.7670000296e+00 -3.0605338282e+00 1.7670000296e+00 3.0605338282e+00 
90600 6.4355920128e+00 7.0642381619e-05 1.7670000296e+00 -3.0605338282e+00 1.7670000296e+00 3.0605338282e+00 
90700 6.4355920130e+00 7.0944742889e-05 1.7670000296e+00 -3.0605338282e+00 1.7670000296e+00 3.0605338282e+00 
90800 6.4355920130e+00 6.9184226593e-05 1.7669980221e+00 -3.0605303511e+00 1.7669980221e+00 3.0605303511e+00 
90900 6.4355920132e+00 6.9467912647e-05 1.7669980221e+00 -3.0605303511e+00 1.7669980221e+00 3.0605303511e+00 
91000 6.4355920133e+00 6.9744818505e-05 1.7669980221e+00 -3.0605303511e+00 1.7669980221e+00 3.0605303511e+00 
91100 6.4355920135e+00 7.0015371160e-05 1.7669980221e+00 -3.0605303511e+00 1.7669980221e+00 3.0605303511e+00 
91200 6.4355920137e+00 7.0279989420e-05 1.7669980221e+00 -3.0605303511e+00 1.7669980221e+00 3.0605303511e+00 
91300 6.4355920138e+00 7.0539083517e-05 1.7669980221e+00 -3.0605303511e+00 1.7669980221e+00 3.0605303511e+00 
91400 6.4355920140e+00 7.0793054717e-05 1.7669980221e+00 -3.0605303511e+00 1.7669980221e+00 3.0605303511e+00 
91500 6.4355920140e+00 6.8989639726e-05 1.7669960189e+00 -3.0605268815e+00 1.7669960189e+00 3.0605268815e+00 
91600 6.4355920141e+00 6.9227163801e-05 1.7669960189e+00 -3.0605268815e+00 1.7669960189e+00 3.0605268815e+00 
91700 6.4355920142e+00 6.9459033293e-05 1.7669960189e+00 -3.0605268815e+00 1.7669960189e+00 3.0605268815e+00 
91800 6.4355920144e+00 6.9685682949e-05 1.7669960189e+00 -3.0605268815e+00 1.7669960189e+00 3.0605268815e+00 
91900 6.4355920145e+00 6.9907537403e-05 1.7669960189e+00 -3.0605268815e+00 1.7669960189e+00 3.0605268815e+00 
92000 6.4355920147e+00 7.0125010824e-05 1.7669960189e+00 -3.0605268815e+00 1.7669960189e+00 3.0605268815e+00 
92100 6.4355920148e+00 7.0338506592e-05 1.7669960189e+00 -3.0605268815e+00 1.7669960189e+00 3.0605268815e+00 
92200 6.4355920150e+00 7.0548416982e-05 1.7669960189e+00 -3.0605268815e+00 1.7669960189e+00 3.0605268815e+00 
92300 6.4355920151e+00 7.0755122899e-05 1.7669960189e+00 -3.0605268815e+00 1.7669960189e+00 3.0605268815e+00 
92400 6.4355920151e+00 6.8907431761e-05 1.7669940168e+00 -3.0605234137e+00 1.7669940168e+00 3.0605234137e+00 
92500 6.4355920152e+00 6.9101460974e-05 1.7669940168e+00 -3.0605234137e+00 1.7669940168e+00 3.0605234137e+00 
92600 6.4355920153e+00 6.9291680402e-05 1.7669940168e+00 -3.0605234137e+00 1.7669940168e+00 3.0605234137e+00 
92700 6.4355920155e+00 6.9478495785e-05 1.7669940168e+00 -3.0605234137e+00 1.7669940168e+00 3.0605234137e+00 
92800 6.4355920156e+00 6.9662300860e-05 1.7669940168e+00 -3.0605234137e+00 1.7669940168e+00 3.0605234137e+00 
92900 6.4355920157e+00 6.9843477127e-05 1.7669940168e+00 -3.0605234137e+00 1.7669940168e+00 3.0605234137e+00 
93000 6.4355920158e+00 7.0022393615e-05 1.7669940168e+00 -3.0605234137e+00 1.7669940168e+00 3.0605234137e+00 
93100 6.4355920160e+00 7.0199406687e-05 1.7669940168e+00 -3.0605234137e+00 1.7669940168e+00 3.0605234137e+00 
93200 6.4355920161e+00 7.0374859873e-05 1.7669940168e+00 -3.0605234137e+00 1.7669940168e+00 3.0605234137e+00 
93300 6.4355920162e+00 7.0549083730e-05 1.7669940168e+00 -3.0605234137e+00 1.7669940168e+00 3.0605234137e+00 
93400 6.4355920163e+00 7.0722395719e-05 1.7669940168e+00 -3.0605234137e+00 1.7669940168e+00 3.0605234137e+00 
93500 6.4355920163e+00 6.8844481047e-05 1.7669920155e+00 -3.0605199475e+00 1.7669920155e+00 3.0605199475e+00 
93600 6.4355920164e+00 6.9009508357e-05 1.7669920155e+00 -3.0605199475e+00 1.7669920155e+00 3.0605199475e+00 
93700 6.4355920165e+00 6.9172820192e-05 1.7669920155e+00 -3.0605199475e+00 1.7669920155e+00 3.0605199475e+00 
93800 6.4355920166e+00 6.9334753487e-05 1.7669920155e+00 -3.0605199475e+00 1.7669920155e+00 3.0605199475e+00 
93900 6.4355920167e+00 6.9495632218e-05 1.7669920155e+00 -3.0605199475e+00 1.7669920155e+00 3.0605199475e+00 
94000 6.4355920168e+00 6.9655767312e-05 1.7669920155e+00 -3.0605199475e+00 1.7669920155e+00 3.0605199475e+00 
94100 6.4355920169e+00 6.9815456548e-05 1.7669920155e+00 -3.0605199475e+00 1.7669920155e+00 3.0605199475e+00 
94200 6.4355920170e+00 6.9974984520e-05 1.7669920155e+00 -3.0605199475e+00 1.7669920155e+00 3.0605199475e+00 
94300 6.4355920171e+00 7.0134622590e-05 1.7669920155e+00 -3.0605199475e+00 1.7669920155e+00 3.0605199475e+00 
94400 6.4355920172e+00 7.0294628879e-05 1.7669920155e+00 -3.0605199475e+00 1.7669920155e+00 3.0605199475e+00 
94500 6.4355920173e+00 7.0455248291e-05 1.7669920155e+00 -3.0605199475e+00 1.7669920155e+00 3.0605199475e+00 
94600 6.4355920174e+00 7.0616712525e-05 1.7669920155e+00 -3.0605199475e+00 1.7669920155e+00 3.0605199475e+00 
94700 6.4355920175e+00 7.0779240157e-05 1.7669920155e+00 -3.0605199475e+00 1.7669920155e+00 3.0605199475e+00 
94800 6.4355920175e+00 6.8890762997e-05 1.7669900127e+00 -3.0605164785e+00 1.7669900127e+00 3.0605164785e+00 
94900 6.4355920176e+00 6.9048654339e-05 1.7669900127e+00 -3.0605164785e+00 1.7669900127e+00 3.0605164785e+00 
95000 6.4355920177e+00 6.9206508836e-05 1.7669900127e+00 -3.0605164785e+00 1.7669900127e+00 3.0605164785e+00 
95100 6.4355920178e+00 6.9364566023e-05 1.7669900127e+00 -3.0605164785e+00 1.7669900127e+00 3.0605164785e+00 
95200 6.4355920179e+00 6.9523053222e-05 1.7669900127e+00 -3.0605164785e+00 1.7669900127e+00 3.0605164785e+00 
95300 6.4355920179e+00 6.9682185573e-05 1.7669900127e+00 -3.0605164785e+00 1.7669900127e+00 3.0605164785e+00 
95400 6.4355920180e+00 6.9842166078e-05 1.7669900127e+00 -3.0605164785e+00 1.7669900127e+00 3.0605164785e+00 
95500 6.4355920181e+00 7.0003185700e-05 1.7669900127e+00 -3.0605164785e+00 1.7669900127e+00 3.0605164785e+00 
95600 6.4355920182e+00 7.0165423421e-05 1.7669900127e+00 -3.0605164785e+00 1.7669900127e+00 3.0605164785e+00 
95700 6.4355920183e+00 7.0329046364e-05 1.7669900127e+00 -3.0605164785e+00 1.7669900127e+00 3.0605164785e+00 
95800 6.4355920184e+00 7.0494209914e-05 1.7669900127e+00 -3.0605164785e+00 1.7669900127e+00 3.0605164785e+00 
95900 6.4355920185e+00 7.0661057856e-05 1.7669900127e+00 -3.0605164785e+00 1.7669900127e+00 3.0605164785e+00 
96000 6.4355920186e+00 7.0829722525e-05 1.7669900127e+00 -3.0605164785e+00 1.7669900127e+00 3.0605164785e+00 
96100 6.4355920185e+00 6.8946580174e-05 1.7669880085e+00 -3.0605130071e+00 1.7669880085e+00 3.0605130071e+00 
96200 6.4355920186e+00 6.9111858342e-05 1.7669880085e+00 -3.0605130071e+00 1.7669880085e+00 3.0605130071e+00 
96300 6.4355920186e+00 6.9277604150e-05 1.7669880085e+00 -3.0605130071e+00 1.7669880085e+00 3.0605130071e+00 
96400 6.4355920187e+00 6.9443978580e-05 1.7669880085e+00 -3.0605130071e+00 1.7669880085e+00 3.0605130071e+00 
96500 6.4355920188e+00 6.9611132491e-05 1.7669880085e+00 -3.0605130071e+00 1.7669880085e+00 3.0605130071e+00 
96600 6.4355920189e+00 6.9779206722e-05 1.7669880085e+00 -3.0605130071e+00 1.7669880085e+00 3.0605130071e+00 
96700 6.4355920190e+00 6.9948332199e-05 1.7669880085e+00 -3.0605130071e+00 1.7669880085e+00 3.0605130071e+00 
96800 6.4355920190e+00 7.0118630069e-05 1.7669880085e+00 -3.0605130071e+00 1.7669880085e+00 3.0605130071e+00 
96900 6.4355920191e+00 7.0290211813e-05 1.7669880085e+00 -3.0605130071e+00 1.7669880085e+00 3.0605130071e+00 
97000 6.4355920192e+00 7.0463179414e-05 1.7669880085e+00 -3.0605130071e+00 1.7669880085e+00 3.0605130071e+00 
97100 6.4355920193e+00 7.0637625510e-05 1.7669880085e+00 -3.0605130071e+00 1.7669880085e+00 3.0605130071e+00 
97200 6.4355920193e+00 7.0813633566e-05 1.7669880085e+00 -3.0605130071e+00 1.7669880085e+00 3.0605130071e+00 
97300 6.4355920192e+00 6.8937991604e-05 1.7669860047e+00 -3.0605095364e+00 1.7669860047e+00 3.0605095364e+00 
97400 6.4355920193e+00 6.9109967727e-05 1.7669860047e+00 -3.0605095364e+00 1.7669860047e+00 3.0605095364e+00 
97500 6.4355920194e+00 6.9282024193e-05 1.7669860047e+00 -3.0605095364e+00 1.7669860047e+00 3.0605095364e+00 
97600 6.4355920194e+00 6.9454282252e-05 1.7669860047e+00 -3.0605095364e+00 1.7669860047e+00 3.0605095364e+00 
97700 6.4355920195e+00 6.9626855316e-05 1.7669860047e+00 -3.0605095364e+00 1.7669860047e+00 3.0605095364e+00 
97800 6.4355920196e+00 6.9799849048e-05 1.7669860047e+00 -3.0605095364e+00 1.7669860047e+00 3.0605095364e+00 
97900 6.4355920196e+00 6.9973361468e-05 1.7669860047e+00 -3.0605095364e+00 1.7669860047e+00 3.0605095364e+00 
98000 6.4355920197e+00 7.0147483058e-05 1.7669860047e+00 -3.0605095364e+00 1.7669860047e+00 3.0605095364e+00 
98100 6.4355920198e+00 7.0322296873e-05 1.7669860047e+00 -3.0605095364e+00 1.7669860047e+00 3.0605095364e+00 
98200 6.4355920198e+00 7.0497878676e-05 1.7669860047e+00 -3.0605095364e+00 1.7669860047e+00 3.0605095364e+00 
98300 6.4355920199e+00 7.0674297064e-05 1.7669860047e+00 -3.0605095364e+00 1.7669860047e+00 3.0605095364e+00 
98400 6.4355920200e+00 7.0851613609e-05 1.7669860047e+00 -3.0605095364e+00 1.7669860047e+00 3.0605095364e+00 
98500 6.4355920199e+00 6.8975486819e-05 1.7669839998e+00 -3.0605060638e+00 1.7669839998e+00 3.0605060638e+00 
98600 6.4355920199e+00 6.9147382635e-05 1.7669839998e+00 -3.0605060638e+00 1.7669839998e+00 3.0605060638e+00 
98700 6.4355920200e+00 6.9318641036e-05 1.7669839998e+00 -3.0605060638e+00 1.7669839998e+00 3.0605060638e+00 
98800 6.4355920200e+00 6.9489369683e-05 1.7669839998e+00 -3.0605060638e+00 1.7669839998e+00 3.0605060638e+00 
98900 6.4355920201e+00 6.9659670383e-05 1.7669839998e+00 -3.0605060638e+00 1.7669839998e+00 3.0605060638e+00 
99000 6.4355920202e+00 6.9829639119e-05 1.7669839998e+00 -3.0605060638e+00 1.7669839998e+00 3.0605060638e+00 
99100 6.4355920202e+00 6.9999366109e-05 1.7669839998e+00 -3.0605060638e+00 1.7669839998e+00 3.0605060638e+00 
99200 6.4355920203e+00 7.0168935868e-05 1.7669839998e+00 -3.0605060638e+00 1.7669839998e+00 3.0605060638e+00 
99300 6.4355920203e+00 7.0338427269e-05 1.7669839998e+00 -3.0605060638e+00 1.7669839998e+00 3.0605060638e+00 
99400 6.4355920204e+00 7.0507913625e-05 1.7669839998e+00 -3.0605060638e+00 1.7669839998e+00 3.0605060638e+00 
99500 6.4355920204e+00 7.0677462766e-05 1.7669839998e+00 -3.0605060638e+00 1.7669839998e+00 3.0605060638e+00 
99600 6.4355920205e+00 7.0847137131e-05 1.7669839998e+00 -3.0605060638e+00 1.7669839998e+00 3.0605060638e+00 
99700 6.4355920204e+00 6.8962718820e-05 1.7669819951e+00 -3.0605025915e+00 1.7669819951e+00 3.0605025915e+00 
99800 6.4355920204e+00 6.9125435858e-05 1.7669819951e+00 -3.0605025915e+00 1.7669819951e+00 3.0605025915e+00 
99900 6.4355920205e+00 6.9286754459e-05 1.7669819951e+00 -3.0605025915e+00 1.7669819951e+00 3.0605025915e+00 
100000 6.4355920206e+00 6.9446789104e-05 1.7669819951e+00 -3.0605025915e+00 1.7669819951e+00 3.0605025915e+00 
100100 6.4355920206e+00 6.9605649763e-05 1.7669819951e+00 -3.0605025915e+00 1.7669819951e+00 3.0605025915e+00 
100200 6.4355920207e+00 6.9763441873e-05 1.7669819951e+00 -3.0605025915e+00 1.7669819951e+00 3.0605025915e+00 
100300 6.4355920207e+00 6.9920266332e-05 1.7669819951e+00 -3.0605025915e+00 1.7669819951e+00 3.0605025915e+00 
100400 6.4355920207e+00 7.0076219508e-05 1.7669819951e+00 -3.0605025915e+00 1.7669819951e+00 3.0605025915e+00 
100500 6.4355920208e+00 7.0231393244e-05 1.7669819951e+00 -3.0605025915e+00 1.7669819951e+00 3.0605025915e+00 
100600 6.4355920208e+00 7.0385874873e-05 1.7669819951e+00 -3.0605025915e+00 1.7669819951e+00 3.0605025915e+00 
100700 6.4355920209e+00 7.0539747239e-05 1.7669819951e+00 -3.0605025915e+00 1.7669819951e+00 3.0605025915e+00 
100800 6.4355920209e+00 7.0693088725e-05 1.7669819951e+00 -3.0605025915e+00 1.7669819951e+00 3.0605025915e+00 
100900 6.4355920210e+00 7.0845973288e-05 1.7669819951e+00 -3.0605025915e+00 1.7669819951e+00 3.0605025915e+00 
101000 6.4355920209e+00 6.8944220671e-05 1.7669799904e+00 -3.0604991193e+00 1.7669799904e+00 3.0604991193e+00 
101100 6.4355920209e+00 6.9089021912e-05 1.7669799904e+00 -3.0604991193e+00 1.7669799904e+00 3.0604991193e+00 
101200 6.4355920210e+00 6.9231882460e-05 1.7669799904e+00 -3.0604991193e+00 1.7669799904e+00 3.0604991193e+00 
101300 6.4355920210e+00 6.9372931667e-05 1.7669799904e+00 -3.0604991193e+00 1.7669799904e+00 3.0604991193e+00 
101400 6.4355920210e+00 6.9512295075e-05 1.7669799904e+00 -3.0604991193e+00 1.7669799904e+00 3.0604991193e+00 
101500 6.4355920211e+00 6.9650094361e-05 1.7669799904e+00 -3.0604991193e+00 1.7669799904e+00 3.0604991193e+00 
101600 6.4355920211e+00 6.9786447258e-05 1.7669799904e+00 -3.0604991193e+00 1.7669799904e+00 3.0604991193e+00 
101700 6.4355920212e+00 6.9921467527e-05 1.7669799904e+00 -3.0604991193e+00 1.7669799904e+00 3.0604991193e+00 
101800 6.4355920212e+00 7.0055264906e-05 1.7669799904e+00 -3.0604991193e+00 1.7669799904e+00 3.0604991193e+00 
101900 6.4355920213e+00 7.0187945078e-05 1.7669799904e+00 -3.0604991193e+00 1.7669799904e+00 3.0604991193e+00 
102000 6.4355920213e+00 7.0319609647e-05 1.7669799904e+00 -3.0604991193e+00 1.7669799904e+00 3.0604991193e+00 
102100 6.4355920213e+00 7.0450356115e-05 1.7669799904e+00 -3.0604991193e+00 1.7669799904e+00 3.0604991193e+00 
102200 6.4355920214e+00 7.0580277870e-05 1.7669799904e+00 -3.0604991193e+00 1.7669799904e+00 3.0604991193e+00 
102300 6.4355920214e+00 7.0709464187e-05 1.7669799904e+00 -3.0604991193e+00 1.7669799904e+00 3.0604991193e+00 
102400 6.4355920215e+00 7.0838000220e-05 1.7669799904e+00 -3.0604991193e+00 1.7669799904e+00 3.0604991193e+00 
102500 6.4355920213e+00 6.8911940043e-05 1.7669779859e+00 -3.0604956474e+00 1.7669779859e+00 3.0604956474e+00 
102600 6.4355920214e+00 6.9032041513e-05 1.7669779859e+00 -3.0604956474e+00 1.7669779859e+00 3.0604956474e+00 
102700 6.4355920214e+00 6.9150044252e-05 1.7669779859e+00 -3.0604956474e+00 1.7669779859e+00 3.0604956474e+00 
102800 6.4355920214e+00 6.9266089728e-05 1.7669779859e+00 -3.0604956474e+00 1.7669779859e+00 3.0604956474e+00 
102900 6.4355920215e+00 6.9380315751e-05 1.7669779859e+00 -3.0604956474e+00 1.7669779859e+00 3.0604956474e+00 
103000 6.4355920215e+00 6.9492856380e-05 1.7669779859e+00 -3.0604956474e+00 1.7669779859e+00 3.0604956474e+00 
103100 6.4355920216e+00 6.9603841842e-05 1.7669779859e+00 -3.0604956474e+00 1.7669779859e+00 3.0604956474e+00 
103200 6.4355920216e+00 6.9713398460e-05 1.7669779859e+00 -3.0604956474e+00 1.7669779859e+00 3.0604956474e+00 
103300 6.4355920216e+00 6.9821648568e-05 1.7669779859e+00 -3.0604956474e+00 1.7669779859e+00 3.0604956474e+00 
103400 6.4355920217e+00 6.9928710472e-05 1.7669779859e+00 -3.0604956474e+00 1.7669779859e+00 3.0604956474e+00 
103500 6.4355920217e+00 7.0034698389e-05 1.7669779859e+00 -3.0604956474e+00 1.7669779859e+00 3.0604956474e+00 
103600 6.4355920217e+00 7.0139722395e-05 1.7669779859e+00 -3.0604956474e+00 1.7669779859e+00 3.0604956474e+00 
103700 6.4355920218e+00 7.0243888409e-05 1.7669779859e+00 -3.0604956474e+00 1.7669779859e+00 3.0604956474e+00 
103800 6.4355920218e+00 7.0347298151e-05 1.7669779859e+00 -3.0604956474e+00 1.7669779859e+00 3.0604956474e+00 
103900 6.4355920218e+00 7.0450049129e-05 1.7669779859e+00 -3.0604956474e+00 1.7669779859e+00 3.0604956474e+00 
104000 6.4355920219e+00 7.0552234622e-05 1.7669779859e+00 -3.0604956474e+00 1.7669779859e+00 3.0604956474e+00 
104100 6.4355920219e+00 7.0653943682e-05 1.7669779859e+00 -3.0604956474e+00 1.7669779859e+00 3.0604956474e+00 
104200 6.4355920219e+00 7.0755261126e-05 1.7669779859e+00 -3.0604956474e+00 1.7669779859e+00 3.0604956474e+00 
104300 6.4355920218e+00 6.8804631657e-05 1.7669759837e+00 -3.0604921795e+00 1.7669759837e+00 3.0604921795e+00 
104400 6.4355920218e+00 6.8898038975e-05 1.7669759837e+00 -3.0604921795e+00 1.7669759837e+00 3.0604921795e+00 
104500 6.4355920218e+00 6.8989606505e-05 1.7669759837e+00 -3.0604921795e+00 1.7669759837e+00 3.0604921795e+00 
104600 6.4355920219e+00 6.9079474832e-05 1.7669759837e+00 -3.0604921795e+00 1.7669759837e+00 3.0604921795e+00 
104700 6.4355920219e+00 6.9155507003e-05 1.7669759837e+00 -3.0604921795e+00 1.7669759837e+00 3.0604921795e+00 
104700 6.4355920219e+00 6.9155507003e-05 1.7669759837e+00 -3.0604921795e+00 1.7669759837e+00 3.0604921795e+00 
