# step Hamiltonian StressXX CellTensor1 CellTensor2 CellTensor3 CellTensor4 
0 7.1294506327e+00 2.1280701925e-01 2.8378601290e+00 -4.9153179282e+00 2.8378601290e+00 4.9153179282e+00 
100 7.1710503839e+00 2.5409670401e-01 2.8378601290e+00 -4.9153179282e+00 2.8378601290e+00 4.9153179282e+00 
200 7.2101626589e+00 2.9227159582e-01 2.8333844012e+00 -4.9075657403e+00 2.8333844012e+00 4.9075657403e+00 
300 7.2475706512e+00 3.2799309360e-01 2.8282283277e+00 -4.8986351590e+00 2.8282283277e+00 4.8986351590e+00 
400 7.2834296713e+00 3.6161231315e-01 2.8224317521e+00 -4.8885951956e+00 2.8224317521e+00 4.8885951956e+00 
500 7.3178344870e+00 3.9341910491e-01 2.8160281392e+00 -4.8775038126e+00 2.8160281392e+00 4.8775038126e+00 
600 7.3508247550e+00 4.2363703867e-01 2.8090456797e+00 -4.8654098379e+00 2.8090456797e+00 4.8654098379e+00 
700 7.3823858025e+00 4.5241061308e-01 2.8015084759e+00 -4.8523550181e+00 2.8015084759e+00 4.8523550181e+00 
800 7.4124434429e+00 4.7978010439e-01 2.7934379548e+00 -4.8383764655e+00 2.7934379548e+00 4.8383764655e+00 
900 7.4408514214e+00 5.0563847047e-01 2.7848547407e+00 -4.8235099025e+00 2.7848547407e+00 4.8235099025e+00 
1000 7.4673711384e+00 5.2966669943e-01 2.7757813258e+00 -4.8077942869e+00 2.7757813258e+00 4.8077942869e+00 
1100 7.4916474322e+00 5.5125509612e-01 2.7662459524e+00 -4.7912785358e+00 2.7662459524e+00 4.7912785358e+00 
1200 7.5131944718e+00 5.6944902094e-01 2.7562879990e+00 -4.7740308546e+00 2.7562879990e+00 4.7740308546e+00 
1300 7.5314233474e+00 5.8301418708e-01 2.7459644772e+00 -4.7561499902e+00 2.7459644772e+00 4.7561499902e+00 
1400 7.5457557011e+00 5.9075947256e-01 2.7353555075e+00 -4.7377747158e+00 2.7353555075e+00 4.7377747158e+00 
1500 7.5558372370e+00 5.9215043661e-01 2.7245640540e+00 -4.7190833701e+00 2.7245640540e+00 4.7190833701e+00 
1600 7.5617594721e+00 5.8788997409e-01 2.7137044226e+00 -4.7002739366e+00 2.7137044226e+00 4.7002739366e+00 
1700 7.5641053373e+00 5.7987128787e-01 2.7028797855e+00 -4.6815251153e+00 2.7028797855e+00 4.6815251153e+00 
1800 7.5637385693e+00 5.7035729079e-01 2.6921599931e+00 -4.6629578902e+00 2.6921599931e+00 4.6629578902e+00 
1900 7.5614981843e+00 5.6105722919e-01 2.6815740364e+00 -4.6446224754e+00 2.6815740364e+00 4.6446224754e+00 
2000 7.5580135053e+00 5.5277830242e-01 2.6711195236e+00 -4.6265147280e+00 2.6711195236e+00 4.6265147280e+00 
2100 7.5536851768e+00 5.4562749705e-01 2.6607789151e+00 -4.6086042687e+00 2.6607789151e+00 4.6086042687e+00 
2200 7.5487484628e+00 5.3936848938e-01 2.6505323720e+00 -4.5908567354e+00 2.6505323720e+00 4.5908567354e+00 
2300 7.5433416400e+00 5.3367995526e-01 2.6403641869e+00 -4.5732449222e+00 2.6403641869e+00 4.5732449222e+00 
2400 7.5375521558e+00 5.2827783026e-01 2.6302644779e+00 -4.5557517131e+00 2.6302644779e+00 4.5557517131e+00 
2500 7.5314419395e+00 5.2295039086e-01 2.6202285977e+00 -4.5383690587e+00 2.6202285977e+00 4.5383690587e+00 
2600 7.5250598405e+00 5.1755443077e-01 2.6102558575e+00 -4.5210957660e+00 2.6102558575e+00 4.5210957660e+00 
2700 7.5184474126e+00 5.1199977402e-01 2.6003482930e+00 -4.5039353609e+00 2.6003482930e+00 4.5039353609e+00 
2800 7.5116415624e+00 5.0623358863e-01 2.5905096979e+00 -4.4868944143e+00 2.5905096979e+00 4.4868944143e+00 
2900 7.5046757899e+00 5.0022797974e-01 2.5807449372e+00 -4.4699813526e+00 2.5807449372e+00 4.4699813526e+00 
3000 7.4975808123e+00 4.9397114444e-01 2.5710594835e+00 -4.4532056547e+00 2.5710594835e+00 4.4532056547e+00 
3100 7.4903849176e+00 4.8746139835e-01 2.5614591147e+00 -4.4365773282e+00 2.5614591147e+00 4.4365773282e+00 
3200 7.4831141989e+00 4.8070326809e-01 2.5519497209e+00 -4.4201065749e+00 2.5519497209e+00 4.4201065749e+00 
3300 7.4757927326e+00 4.7370498881e-01 2.5425371826e+00 -4.4038035804e+00 2.5425371826e+00 4.4038035804e+00 
3400 7.4684427281e+00 4.6647692757e-01 2.5332272960e+00 -4.3876783838e+00 2.5332272960e+00 4.3876783838e+00 
3500 7.4610846601e+00 4.5903060549e-01 2.5240257268e+00 -4.3717407985e+00 2.5240257268e+00 4.3717407985e+00 
3600 7.4537373884e+00 4.5137810190e-01 2.5149379829e+00 -4.3560003644e+00 2.5149379829e+00 4.3560003644e+00 
3700 7.4464182668e+00 4.4353169962e-01 2.5059693979e+00 -4.3404663194e+00 2.5059693979e+00 4.3404663194e+00 
3800 7.4391432437e+00 4.3550368054e-01 2.4971251214e+00 -4.3251475830e+00 2.4971251214e+00 4.3251475830e+00 
3900 7.4319269523e+00 4.2730621359e-01 2.4884101130e+00 -4.3100527458e+00 2.4884101130e+00 4.3100527458e+00 
4000 7.4247827941e+00 4.1895129822e-01 2.4798291393e+00 -4.2951900633e+00 2.4798291393e+00 4.2951900633e+00 
4100 7.4177230141e+00 4.1045074006e-01 2.4713867706e+00 -4.2805674519e+00 2.4713867706e+00 4.2805674519e+00 
4200 7.4107587684e+00 4.0181614424e-01 2.4630873795e+00 -4.2661924848e+00 2.4630873795e+00 4.2661924848e+00 
4300 7.4039001869e+00 3.9305891742e-01 2.4549351387e+00 -4.2520723894e+00 2.4549351387e+00 4.2520723894e+00 
4400 7.3971564288e+00 3.8419027294e-01 2.4469340191e+00 -4.2382140438e+00 2.4469340191e+00 4.2382140438e+00 
4500 7.3905357342e+00 3.7522123615e-01 2.4390877883e+00 -4.2246239734e+00 2.4390877883e+00 4.2246239734e+00 
4600 7.3840454706e+00 3.6616264804e-01 2.4314000085e+00 -4.2113083482e+00 2.4314000085e+00 4.2113083482e+00 
4700 7.3776921762e+00 3.5702516644e-01 2.4238740345e+00 -4.1982729788e+00 2.4238740345e+00 4.1982729788e+00 
4800 7.3714815997e+00 3.4781926455e-01 2.4165130122e+00 -4.1855233142e+00 2.4165130122e+00 4.1855233142e+00 
4900 7.3654187375e+00 3.3855522691e-01 2.4093198768e+00 -4.1730644382e+00 2.4093198768e+00 4.1730644382e+00 
5000 7.3595078692e+00 3.2924314310e-01 2.4022973514e+00 -4.1609010675e+00 2.4022973514e+00 4.1609010675e+00 
5100 7.3537525906e+00 3.1989289957e-01 2.3954479461e+00 -4.1490375495e+00 2.3954479461e+00 4.1490375495e+00 
5200 7.3481558459e+00 3.1051417008e-01 2.3887739569e+00 -4.1374778612e+00 2.3887739569e+00 4.1374778612e+00 
5300 7.3427199589e+00 3.0111640520e-01 2.3822774658e+00 -4.1262256085e+00 2.3822774658e+00 4.1262256085e+00 
5400 7.3374466630e+00 2.9170882124e-01 2.3759603403e+00 -4.1152840262e+00 2.3759603403e+00 4.1152840262e+00 
5500 7.3323371304e+00 2.8230038909e-01 2.3698242345e+00 -4.1046559792e+00 2.3698242345e+00 4.1046559792e+00 
5600 7.3273920021e+00 2.7289982332e-01 2.3638705896e+00 -4.0943439637e+00 2.3638705896e+00 4.0943439637e+00 
5700 7.3226114156e+00 2.6351557176e-01 2.3581006357e+00 -4.0843501104e+00 2.3581006357e+00 4.0843501104e+00 
5800 7.3179950344e+00 2.5415580594e-01 2.3525153936e+00 -4.0746761873e+00 2.3525153936e+00 4.0746761873e+00 
5900 7.3135420755e+00 2.4482841250e-01 2.3471156772e+00 -4.0653236042e+00 2.3471156772e+00 4.0653236042e+00 
6000 7.3092513377e+00 2.3554098576e-01 2.3419020966e+00 -4.0562934176e+00 2.3419020966e+00 4.0562934176e+00 
6100 7.3051212297e+00 2.2630082166e-01 2.3368750609e+00 -4.0475863364e+00 2.3368750609e+00 4.0475863364e+00 
6200 7.3011497972e+00 2.1711491295e-01 2.3320347826e+00 -4.0392027286e+00 2.3320347826e+00 4.0392027286e+00 
6300 7.2973347508e+00 2.0798994591e-01 2.3273812814e+00 -4.0311426279e+00 2.3273812814e+00 4.0311426279e+00 
6400 7.2936734922e+00 1.9893229838e-01 2.3229143883e+00 -4.0234057422e+00 2.3229143883e+00 4.0234057422e+00 
6500 7.2901631413e+00 1.8994803930e-01 2.3186337513e+00 -4.0159914613e+00 2.3186337513e+00 4.0159914613e+00 
6600 7.2868005621e+00 1.8104292947e-01 2.3145388395e+00 -4.0088988661e+00 2.3145388395e+00 4.0088988661e+00 
6700 7.2835823881e+00 1.7222242369e-01 2.3106289492e+00 -4.0021267375e+00 2.3106289492e+00 4.0021267375e+00 
6800 7.2805050474e+00 1.6349167408e-01 2.3069032093e+00 -3.9956735666e+00 2.3069032093e+00 3.9956735666e+00 
6900 7.2775647866e+00 1.5485553446e-01 2.3033605865e+00 -3.9895375640e+00 2.3033605865e+00 3.9895375640e+00 
7000 7.2747576946e+00 1.4631856570e-01 2.2999998923e+00 -3.9837166708e+00 2.2999998923e+00 3.9837166708e+00 
7100 7.2720797251e+00 1.3788504203e-01 2.2968197879e+00 -3.9782085685e+00 2.2968197879e+00 3.9782085685e+00 
7200 7.2695267185e+00 1.2955895796e-01 2.2938187913e+00 -3.9730106899e+00 2.2938187913e+00 3.9730106899e+00 
7300 7.2670944225e+00 1.2134403594e-01 2.2909952827e+00 -3.9681202296e+00 2.2909952827e+00 3.9681202296e+00 
7400 7.2647785125e+00 1.1324373440e-01 2.2883475114e+00 -3.9635341552e+00 2.2883475114e+00 3.9635341552e+00 
7500 7.2625746103e+00 1.0526125624e-01 2.2858736017e+00 -3.9592492178e+00 2.2858736017e+00 3.9592492178e+00 
7600 7.2604783021e+00 9.7399557530e-02 2.2835715591e+00 -3.9552619631e+00 2.2835715591e+00 3.9552619631e+00 
7700 7.2584851555e+00 8.9661356344e-02 2.2814392768e+00 -3.9515687418e+00 2.2814392768e+00 3.9515687418e+00 
7800 7.2565907353e+00 8.2049141656e-02 2.2794745418e+00 -3.9481657209e+00 2.2794745418e+00 3.9481657209e+00 
7900 7.2547906188e+00 7.4565182137e-02 2.2776750407e+00 -3.9450488937e+00 2.2776750407e+00 3.9450488937e+00 
8000 7.2530804088e+00 6.7211534824e-02 2.2760383664e+00 -3.9422140906e+00 2.2760383664e+00 3.9422140906e+00 
8100 7.2514557471e+00 5.9990053554e-02 2.2745620235e+00 -3.9396569896e+00 2.2745620235e+00 3.9396569896e+00 
8200 7.2499123261e+00 5.2902397103e-02 2.2732434344e+00 -3.9373731263e+00 2.2732434344e+00 3.9373731263e+00 
8300 7.2484458993e+00 4.5950036984e-02 2.2720799452e+00 -3.9353579040e+00 2.2720799452e+00 3.9353579040e+00 
8400 7.2470522915e+00 3.9134264844e-02 2.2710688314e+00 -3.9336066035e+00 2.2710688314e+00 3.9336066035e+00 
8500 7.2457274070e+00 3.2456199446e-02 2.2702073034e+00 -3.9321143932e+00 2.2702073034e+00 3.9321143932e+00 
8600 7.2444672380e+00 2.5916793198e-02 2.2694925119e+00 -3.9308763381e+00 2.2694925119e+00 3.9308763381e+00 
8700 7.2432678712e+00 1.9516838226e-02 2.2689215538e+00 -3.9298874095e+00 2.2689215538e+00 3.9298874095e+00 
8800 7.2421254942e+00 1.3256971983e-02 2.2684914767e+00 -3.9291424942e+00 2.2684914767e+00 3.9291424942e+00 
8900 7.2410364002e+00 7.1376824092e-03 2.2681992850e+00 -3.9286364034e+00 2.2681992850e+00 3.9286364034e+00 
9000 7.2399969930e+00 1.1593126515e-03 2.2680419444e+00 -3.9283638813e+00 2.2680419444e+00 3.9283638813e+00 
9100 7.2390037901e+00 -4.6779346320e-03 2.2680163868e+00 -3.9283196144e+00 2.2680163868e+00 3.9283196144e+00 
9200 7.2380534261e+00 -1.0373993352e-02 2.2681195159e+00 -3.9284982393e+00 2.2681195159e+00 3.9284982393e+00 
9300 7.2371426547e+00 -1.5928930419e-02 2.2683482113e+00 -3.9288943512e+00 2.2683482113e+00 3.9288943512e+00 
9400 7.2362683502e+00 -2.1342942482e-02 2.2686993333e+00 -3.9295025124e+00 2.2686993333e+00 3.9295025124e+00 
9500 7.2354275086e+00 -2.6616352935e-02 2.2691697280e+00 -3.9303172599e+00 2.2691697280e+00 3.9303172599e+00 
9600 7.2346172482e+00 -3.1749609142e-02 2.2697562310e+00 -3.9313331129e+00 2.2697562310e+00 3.9313331129e+00 
9700 7.2338348091e+00 -3.6743279831e-02 2.2704556726e+00 -3.9325445813e+00 2.2704556726e+00 3.9325445813e+00 
9800 7.2330775528e+00 -4.1598052617e-02 2.2712648816e+00 -3.9339461724e+00 2.2712648816e+00 3.9339461724e+00 
9900 7.2323429613e+00 -4.6314731588e-02 2.2721806895e+00 -3.9355323982e+00 2.2721806895e+00 3.9355323982e+00 
10000 7.2316286355e+00 -5.0894234925e-02 2.2731999349e+00 -3.9372977829e+00 2.2731999349e+00 3.9372977829e+00 
10100 7.2309322935e+00 -5.5337592504e-02 2.2743194671e+00 -3.9392368696e+00 2.2743194671e+00 3.9392368696e+00 
10200 7.2302517686e+00 -5.9645943431e-02 2.2755361502e+00 -3.9413442266e+00 2.2755361502e+00 3.9413442266e+00 
10300 7.2295850067e+00 -6.3820533479e-02 2.2768468669e+00 -3.9436144546e+00 2.2768468669e+00 3.9436144546e+00 
10400 7.2289300638e+00 -6.7862712390e-02 2.2782485219e+00 -3.9460421923e+00 2.2782485219e+00 3.9460421923e+00 
10500 7.2282851032e+00 -7.1773931010e-02 2.2797380456e+00 -3.9486221229e+00 2.2797380456e+00 3.9486221229e+00 
10600 7.2276483925e+00 -7.5555738234e-02 2.2813123972e+00 -3.9513489799e+00 2.2813123972e+00 3.9513489799e+00 
10700 7.2270183003e+00 -7.9209777735e-02 2.2829685683e+00 -3.9542175524e+00 2.2829685683e+00 3.9542175524e+00 
10800 7.2263932931e+00 -8.2737784467e-02 2.2847035857e+00 -3.9572226906e+00 2.2847035857e+00 3.9572226906e+00 
10900 7.2257719321e+00 -8.6141580935e-02 2.2865145143e+00 -3.9603593111e+00 2.2865145143e+00 3.9603593111e+00 
11000 7.2251528693e+00 -8.9423073219e-02 2.2883984604e+00 -3.9636224013e+00 2.2883984604e+00 3.9636224013e+00 
11100 7.2245348447e+00 -9.2584246758e-02 2.2903525734e+00 -3.9670070244e+00 2.2903525734e+00 3.9670070244e+00 
11200 7.2239166823e+00 -9.5627161896e-02 2.2923740494e+00 -3.9705083234e+00 2.2923740494e+00 3.9705083234e+00 
11300 7.2232972870e+00 -9.8553949214e-02 2.2944601324e+00 -3.9741215252e+00 2.2944601324e+00 3.9741215252e+00 
11400 7.2226756414e+00 -1.0136680464e-01 2.2966081171e+00 -3.9778419440e+00 2.2966081171e+00 3.9778419440e+00 
11500 7.2220508016e+00 -1.0406798436e-01 2.2988153510e+00 -3.9816649851e+00 2.2988153510e+00 3.9816649851e+00 
11600 7.2214218951e+00 -1.0665979962e-01 2.3010792354e+00 -3.9855861480e+00 2.3010792354e+00 3.9855861480e+00 
11700 7.2207881164e+00 -1.0914461125e-01 2.3033972279e+00 -3.9896010287e+00 2.3033972279e+00 3.9896010287e+00 
11800 7.2201487249e+00 -1.1152482426e-01 2.3057668431e+00 -3.9937053227e+00 2.3057668431e+00 3.9937053227e+00 
11900 7.2195030411e+00 -1.1380288216e-01 2.3081856544e+00 -3.9978948268e+00 2.3081856544e+00 3.9978948268e+00 
12000 7.2188504438e+00 -1.1598126134e-01 2.3106512949e+00 -4.0021654413e+00 2.3106512949e+00 4.0021654413e+00 
12100 7.2181903676e+00 -1.1806246542e-01 2.3131614580e+00 -4.0065131714e+00 2.3131614580e+00 4.0065131714e+00 
12200 7.2175222998e+00 -1.2004901952e-01 2.3157138987e+00 -4.0109341284e+00 2.3157138987e+00 4.0109341284e+00 
12300 7.2168457779e+00 -1.2194346468e-01 2.3183064338e+00 -4.0154245309e+00 2.3183064338e+00 4.0154245309e+00 
12400 7.2161603869e+00 -1.2374835223e-01 2.3209369423e+00 -4.0199807052e+00 2.3209369423e+00 4.0199807052e+00 
12500 7.2154657569e+00 -1.2546623837e-01 2.3236033658e+00 -4.0245990862e+00 2.3236033658e+00 4.0245990862e+00 
12600 7.2147615612e+00 -1.2709967882e-01 2.3263037085e+00 -4.0292762169e+00 2.3263037085e+00 4.0292762169e+00 
12700 7.2140475134e+00 -1.2865122358e-01 2.3290360371e+00 -4.0340087489e+00 2.3290360371e+00 4.0340087489e+00 
12800 7.2133233656e+00 -1.3012341195e-01 2.3317984808e+00 -4.0387934418e+00 2.3317984808e+00 4.0387934418e+00 
12900 7.2125889064e+00 -1.3151876769e-01 2.3345892308e+00 -4.0436271626e+00 2.3345892308e+00 4.0436271626e+00 
13000 7.2118439589e+00 -1.3283979442e-01 2.3374065398e+00 -4.0485068848e+00 2.3374065398e+00 4.0485068848e+00 
13100 7.2110883788e+00 -1.3408897125e-01 2.3402487214e+00 -4.0534296878e+00 2.3402487214e+00 4.0534296878e+00 
13200 7.2103220527e+00 -1.3526874866e-01 2.3431141496e+00 -4.0583927551e+00 2.3431141496e+00 4.0583927551e+00 
13300 7.2095448961e+00 -1.3638154463e-01 2.3460012580e+00 -4.0633933734e+00 2.3460012580e+00 4.0633933734e+00 
13400 7.2087568523e+00 -1.3742974106e-01 2.3489085384e+00 -4.0684289309e+00 2.3489085384e+00 4.0684289309e+00 
13500 7.2079578904e+00 -1.3841568048e-01 2.3518345406e+00 -4.0734969154e+00 2.3518345406e+00 4.0734969154e+00 
13600 7.2071480038e+00 -1.3934166296e-01 2.3547778708e+00 -4.0785949127e+00 2.3547778708e+00 4.0785949127e+00 
13700 7.2063272089e+00 -1.4020994343e-01 2.3577371904e+00 -4.0837206046e+00 2.3577371904e+00 4.0837206046e+00 
13800 7.2054955440e+00 -1.4102272921e-01 2.3607112152e+00 -4.0888717667e+00 2.3607112152e+00 4.0888717667e+00 
13900 7.2046530672e+00 -1.4178217778e-01 2.3636987138e+00 -4.0940462660e+00 2.3636987138e+00 4.0940462660e+00 
14000 7.2037998557e+00 -1.4249039495e-01 2.3666985065e+00 -4.0992420594e+00 2.3666985065e+00 4.0992420594e+00 
14100 7.2029360046e+00 -1.4314943317e-01 2.3697094638e+00 -4.1044571905e+00 2.3697094638e+00 4.1044571905e+00 
14200 7.2020616252e+00 -1.4376129023e-01 2.3727305051e+00 -4.1096897875e+00 2.3727305051e+00 4.1096897875e+00 
14300 7.2011768443e+00 -1.4432790808e-01 2.3757605973e+00 -4.1149380611e+00 2.3757605973e+00 4.1149380611e+00 
14400 7.2002818027e+00 -1.4485117205e-01 2.3787987532e+00 -4.1202003016e+00 2.3787987532e+00 4.1202003016e+00 
14500 7.1993766544e+00 -1.4533291014e-01 2.3818440304e+00 -4.1254748764e+00 2.3818440304e+00 4.1254748764e+00 
14600 7.1984615655e+00 -1.4577489267e-01 2.3848955295e+00 -4.1307602278e+00 2.3848955295e+00 4.1307602278e+00 
14700 7.1975367131e+00 -1.4617883209e-01 2.3879523927e+00 -4.1360548702e+00 2.3879523927e+00 4.1360548702e+00 
14800 7.1966022841e+00 -1.4654638295e-01 2.3910138025e+00 -4.1413573876e+00 2.3910138025e+00 4.1413573876e+00 
14900 7.1956584747e+00 -1.4687914212e-01 2.3940789803e+00 -4.1466664312e+00 2.3940789803e+00 4.1466664312e+00 
15000 7.1947054891e+00 -1.4717864914e-01 2.3971471846e+00 -4.1519807169e+00 2.3971471846e+00 4.1519807169e+00 
15100 7.1937435388e+00 -1.4744638676e-01 2.4002177099e+00 -4.1572990228e+00 2.4002177099e+00 4.1572990228e+00 
15200 7.1927728416e+00 -1.4768378156e-01 2.4032898853e+00 -4.1626201866e+00 2.4032898853e+00 4.1626201866e+00 
15300 7.1917936208e+00 -1.4789220481e-01 2.4063630728e+00 -4.1679431035e+00 2.4063630728e+00 4.1679431035e+00 
15400 7.1908061046e+00 -1.4807297331e-01 2.4094366664e+00 -4.1732667238e+00 2.4094366664e+00 4.1732667238e+00 
15500 7.1898105249e+00 -1.4822735048e-01 2.4125100903e+00 -4.1785900502e+00 2.4125100903e+00 4.1785900502e+00 
15600 7.1888071170e+00 -1.4835654744e-01 2.4155827980e+00 -4.1839121361e+00 2.4155827980e+00 4.1839121361e+00 
15700 7.1877961188e+00 -1.4846172421e-01 2.4186542709e+00 -4.1892320832e+00 2.4186542709e+00 4.1892320832e+00 
15800 7.1867777699e+00 -1.4854399096e-01 2.4217240168e+00 -4.1945490391e+00 2.4217240168e+00 4.1945490391e+00 
15900 7.1857523112e+00 -1.4860440939e-01 2.4247915692e+00 -4.1998621956e+00 2.4247915692e+00 4.1998621956e+00 
16000 7.1847199842e+00 -1.4864399403e-01 2.4278564856e+00 -4.2051707866e+00 2.4278564856e+00 4.2051707866e+00 
16100 7.1836810305e+00 -1.4866371372e-01 2.4309183468e+00 -4.2104740857e+00 2.4309183468e+00 4.2104740857e+00 
16200 7.1826356913e+00 -1.4866449303e-01 2.4339767556e+00 -4.2157714051e+00 2.4339767556e+00 4.2157714051e+00 
16300 7.1815842067e+00 -1.4864721371e-01 2.4370313358e+00 -4.2210620932e+00 2.4370313358e+00 4.2210620932e+00 
16400 7.1805268154e+00 -1.4861271621e-01 2.4400817311e+00 -4.2263455328e+00 2.4400817311e+00 4.2263455328e+00 
16500 7.1794637544e+00 -1.4856180115e-01 2.4431276042e+00 -4.2316211399e+00 2.4431276042e+00 4.2316211399e+00 
16600 7.1783952584e+00 -1.4849523082e-01 2.4461686361e+00 -4.2368883615e+00 2.4461686361e+00 4.2368883615e+00 
16700 7.1773215594e+00 -1.4841373066e-01 2.4492045245e+00 -4.2421466746e+00 2.4492045245e+00 4.2421466746e+00 
16800 7.1762428867e+00 -1.4831799073e-01 2.4522349838e+00 -4.2473955841e+00 2.4522349838e+00 4.2473955841e+00 
16900 7.1751594662e+00 -1.4820866720e-01 2.4552597437e+00 -4.2526346218e+00 2.4552597437e+00 4.2526346218e+00 
17000 7.1740715204e+00 -1.4808638375e-01 2.4582785484e+00 -4.2578633450e+00 2.4582785484e+00 4.2578633450e+00 
17100 7.1729792684e+00 -1.4795173301e-01 2.4612911563e+00 -4.2630813349e+00 2.4612911563e+00 4.2630813349e+00 
17200 7.1718829251e+00 -1.4780527796e-01 2.4642973388e+00 -4.2682881957e+00 2.4642973388e+00 4.2682881957e+00 
17300 7.1707827016e+00 -1.4764755324e-01 2.4672968798e+00 -4.2734835532e+00 2.4672968798e+00 4.2734835532e+00 
17400 7.1696788047e+00 -1.4747906654e-01 2.4702895752e+00 -4.2786670536e+00 2.4702895752e+00 4.2786670536e+00 
17500 7.1685714371e+00 -1.4730029984e-01 2.4732752319e+00 -4.2838383627e+00 2.4732752319e+00 4.2838383627e+00 
17600 7.1674607971e+00 -1.4711171068e-01 2.4762536675e+00 -4.2889971646e+00 2.4762536675e+00 4.2889971646e+00 
17700 7.1663470788e+00 -1.4691373336e-01 2.4792247098e+00 -4.2941431608e+00 2.4792247098e+00 4.2941431608e+00 
17800 7.1652304717e+00 -1.4670678016e-01 2.4821881960e+00 -4.2992760694e+00 2.4821881960e+00 4.2992760694e+00 
17900 7.1641111611e+00 -1.4649124240e-01 2.4851439722e+00 -4.3043956239e+00 2.4851439722e+00 4.3043956239e+00 
18000 7.1629893280e+00 -1.4626749157e-01 2.4880918932e+00 -4.3095015729e+00 2.4880918932e+00 4.3095015729e+00 
18100 7.1618651489e+00 -1.4603588040e-01 2.4910318219e+00 -4.3145936789e+00 2.4910318219e+00 4.3145936789e+00 
18200 7.1607387964e+00 -1.4579674382e-01 2.4939636289e+00 -4.3196717174e+00 2.4939636289e+00 4.3196717174e+00 
18300 7.1596104387e+00 -1.4555039995e-01 2.4968871918e+00 -4.3247354769e+00 2.4968871918e+00 4.3247354769e+00 
18400 7.1584802402e+00 -1.4529715100e-01 2.4998023952e+00 -4.3297847574e+00 2.4998023952e+00 4.3297847574e+00 
18500 7.1573483613e+00 -1.4503728419e-01 2.5027091304e+00 -4.3348193704e+00 2.5027091304e+00 4.3348193704e+00 
18600 7.1562149586e+00 -1.4477107253e-01 2.5056072946e+00 -4.3398391380e+00 2.5056072946e+00 4.3398391380e+00 
18700 7.1550801852e+00 -1.4449877568e-01 2.5084967909e+00 -4.3448438924e+00 2.5084967909e+00 4.3448438924e+00 
18800 7.1539441908e+00 -1.4422064065e-01 2.5113775280e+00 -4.3498334755e+00 2.5113775280e+00 4.3498334755e+00 
18900 7.1528071217e+00 -1.4393690256e-01 2.5142494198e+00 -4.3548077380e+00 2.5142494198e+00 4.3548077380e+00 
19000 7.1516691213e+00 -1.4364778528e-01 2.5171123852e+00 -4.3597665396e+00 2.5171123852e+00 4.3597665396e+00 
19100 7.1505303298e+00 -1.4335350213e-01 2.5199663479e+00 -4.3647097479e+00 2.5199663479e+00 4.3647097479e+00 
19200 7.1493908850e+00 -1.4305425641e-01 2.5228112359e+00 -4.3696372384e+00 2.5228112359e+00 4.3696372384e+00 
19300 7.1482509221e+00 -1.4275024204e-01 2.5256469815e+00 -4.3745488940e+00 2.5256469815e+00 4.3745488940e+00 
19400 7.1471105740e+00 -1.4244164406e-01 2.5284735213e+00 -4.3794446045e+00 2.5284735213e+00 4.3794446045e+00 
19500 7.1459699713e+00 -1.4212863915e-01 2.5312907955e+00 -4.3843242665e+00 2.5312907955e+00 4.3843242665e+00 
19600 7.1448292430e+00 -1.4181139608e-01 2.5340987479e+00 -4.3891877827e+00 2.5340987479e+00 4.3891877827e+00 
19700 7.1436885162e+00 -1.4149007619e-01 2.5368973260e+00 -4.3940350622e+00 2.5368973260e+00 4.3940350622e+00 
19800 7.1425479166e+00 -1.4116483378e-01 2.5396864804e+00 -4.3988660194e+00 2.5396864804e+00 4.3988660194e+00 
19900 7.1414075686e+00 -1.4083581648e-01 2.5424661651e+00 -4.4036805745e+00 2.5424661651e+00 4.4036805745e+00 
20000 7.1402675953e+00 -1.4050316565e-01 2.5452363368e+00 -4.4084786527e+00 2.5452363368e+00 4.4084786527e+00 
20100 7.1391281190e+00 -1.4016701669e-01 2.5479969554e+00 -4.4132601843e+00 2.5479969554e+00 4.4132601843e+00 
20200 7.1379892614e+00 -1.3982749936e-01 2.5507479832e+00 -4.4180251041e+00 2.5507479832e+00 4.4180251041e+00 
20300 7.1368511433e+00 -1.3948473805e-01 2.5534893852e+00 -4.4227733517e+00 2.5534893852e+00 4.4227733517e+00 
20400 7.1357138854e+00 -1.3913885209e-01 2.5562211290e+00 -4.4275048709e+00 2.5562211290e+00 4.4275048709e+00 
20500 7.1345776079e+00 -1.3878995593e-01 2.5589431845e+00 -4.4322196093e+00 2.5589431845e+00 4.4322196093e+00 
20600 7.1334424310e+00 -1.3843815945e-01 2.5616555238e+00 -4.4369175188e+00 2.5616555238e+00 4.4369175188e+00 
20700 7.1323084751e+00 -1.3808356809e-01 2.5643581213e+00 -4.4415985548e+00 2.5643581213e+00 4.4415985548e+00 
20800 7.1311758604e+00 -1.3772628310e-01 2.5670509531e+00 -4.4462626764e+00 2.5670509531e+00 4.4462626764e+00 
20900 7.1300447077e+00 -1.3736640170e-01 2.5697339978e+00 -4.4509098460e+00 2.5697339978e+00 4.4509098460e+00 
21000 7.1289151380e+00 -1.3700401723e-01 2.5724072353e+00 -4.4555400293e+00 2.5724072353e+00 4.4555400293e+00 
21100 7.1277872728e+00 -1.3663921934e-01 2.5750706478e+00 -4.4601531951e+00 2.5750706478e+00 4.4601531951e+00 
21200 7.1266612342e+00 -1.3627209407e-01 2.5777242189e+00 -4.4647493150e+00 2.5777242189e+00 4.4647493150e+00 
21300 7.1255371450e+00 -1.3590272403e-01 2.5803679338e+00 -4.4693283635e+00 2.5803679338e+00 4.4693283635e+00 
21400 7.1244151285e+00 -1.3553118848e-01 2.5830017794e+00 -4.4738903180e+00 2.5830017794e+00 4.4738903180e+00 
21500 7.1232953090e+00 -1.3515756345e-01 2.5856257441e+00 -4.4784351581e+00 2.5856257441e+00 4.4784351581e+00 
21600 7.1221778114e+00 -1.3478192184e-01 2.5882398175e+00 -4.4829628661e+00 2.5882398175e+00 4.4829628661e+00 
21700 7.1210627614e+00 -1.3440433352e-01 2.5908439907e+00 -4.4874734264e+00 2.5908439907e+00 4.4874734264e+00 
21800 7.1199502856e+00 -1.3402486537e-01 2.5934382561e+00 -4.4919668259e+00 2.5934382561e+00 4.4919668259e+00 
21900 7.1188405114e+00 -1.3364358140e-01 2.5960226072e+00 -4.4964430533e+00 2.5960226072e+00 4.4964430533e+00 
22000 7.1177335669e+00 -1.3326054281e-01 2.5985970386e+00 -4.5009020993e+00 2.5985970386e+00 4.5009020993e+00 
22100 7.1166295810e+00 -1.3287580802e-01 2.6011615462e+00 -4.5053439568e+00 2.6011615462e+00 4.5053439568e+00 
22200 7.1155286835e+00 -1.3248943279e-01 2.6037161267e+00 -4.5097686200e+00 2.6037161267e+00 4.5097686200e+00 
22300 7.1144310048e+00 -1.3210147021e-01 2.6062607780e+00 -4.5141760852e+00 2.6062607780e+00 4.5141760852e+00 
22400 7.1133366759e+00 -1.3171197082e-01 2.6087954986e+00 -4.5185663501e+00 2.6087954986e+00 4.5185663501e+00 
22500 7.1122458284e+00 -1.3132098260e-01 2.6113202881e+00 -4.5229394139e+00 2.6113202881e+00 4.5229394139e+00 
22600 7.1111585944e+00 -1.3092855106e-01 2.6138351470e+00 -4.5272952771e+00 2.6138351470e+00 4.5272952771e+00 
22700 7.1100751066e+00 -1.3053471924e-01 2.6163400762e+00 -4.5316339418e+00 2.6163400762e+00 4.5316339418e+00 
22800 7.1089954979e+00 -1.3013952780e-01 2.6188350776e+00 -4.5359554110e+00 2.6188350776e+00 4.5359554110e+00 
22900 7.1079199012e+00 -1.2974301505e-01 2.6213201536e+00 -4.5402596890e+00 2.6213201536e+00 4.5402596890e+00 
23000 7.1068484500e+00 -1.2934521697e-01 2.6237953074e+00 -4.5445467811e+00 2.6237953074e+00 4.5445467811e+00 
23100 7.1057812774e+00 -1.2894616726e-01 2.6262605426e+00 -4.5488166937e+00 2.6262605426e+00 4.5488166937e+00 
23200 7.1047185166e+00 -1.2854589739e-01 2.6287158633e+00 -4.5530694339e+00 2.6287158633e+00 4.5530694339e+00 
23300 7.1036603007e+00 -1.2814443665e-01 2.6311612742e+00 -4.5573050097e+00 2.6311612742e+00 4.5573050097e+00 
23400 7.1026067620e+00 -1.2774181216e-01 2.6335967802e+00 -4.5615234300e+00 2.6335967802e+00 4.5615234300e+00 
23500 7.1015580327e+00 -1.2733804891e-01 2.6360223869e+00 -4.5657247040e+00 2.6360223869e+00 4.5657247040e+00 
23600 7.1005142443e+00 -1.2693316985e-01 2.6384381000e+00 -4.5699088419e+00 2.6384381000e+00 4.5699088419e+00 
23700 7.0994755273e+00 -1.2652719587e-01 2.6408439257e+00 -4.5740758541e+00 2.6408439257e+00 4.5740758541e+00 
23800 7.0984420114e+00 -1.2612014589e-01 2.6432398701e+00 -4.5782257517e+00 2.6432398701e+00 4.5782257517e+00 
23900 7.0974138253e+00 -1.2571203687e-01 2.6456259400e+00 -4.5823585459e+00 2.6456259400e+00 4.5823585459e+00 
24000 7.0963910965e+00 -1.2530288389e-01 2.6480021421e+00 -4.5864742486e+00 2.6480021421e+00 4.5864742486e+00 
24100 7.0953739508e+00 -1.2489270016e-01 2.6503684832e+00 -4.5905728716e+00 2.6503684832e+00 4.5905728716e+00 
24200 7.0943625128e+00 -1.2448149708e-01 2.6527249704e+00 -4.5946544272e+00 2.6527249704e+00 4.5946544272e+00 
24300 7.0933569053e+00 -1.2406928431e-01 2.6550716108e+00 -4.5987189276e+00 2.6550716108e+00 4.5987189276e+00 
24400 7.0923572493e+00 -1.2365606978e-01 2.6574084115e+00 -4.6027663852e+00 2.6574084115e+00 4.6027663852e+00 
24500 7.0913636637e+00 -1.2324185977e-01 2.6597353797e+00 -4.6067968123e+00 2.6597353797e+00 4.6067968123e+00 
24600 7.0903762652e+00 -1.2282665895e-01 2.6620525225e+00 -4.6108102215e+00 2.6620525225e+00 4.6108102215e+00 
24700 7.0893951686e+00 -1.2241047046e-01 2.6643598471e+00 -4.6148066249e+00 2.6643598471e+00 4.6148066249e+00 
24800 7.0884204858e+00 -1.2199329591e-01 2.6666573605e+00 -4.6187860347e+00 2.6666573605e+00 4.6187860347e+00 
24900 7.0874523265e+00 -1.2157513549e-01 2.6689450695e+00 -4.6227484629e+00 2.6689450695e+00 4.6227484629e+00 
25000 7.0864907974e+00 -1.2115598800e-01 2.6712229809e+00 -4.6266939213e+00 2.6712229809e+00 4.6266939213e+00 
25100 7.0855360025e+00 -1.2073585091e-01 2.6734911015e+00 -4.6306224214e+00 2.6734911015e+00 4.6306224214e+00 
25200 7.0845880427e+00 -1.2031472044e-01 2.6757494377e+00 -4.6345339744e+00 2.6757494377e+00 4.6345339744e+00 
25300 7.0836470160e+00 -1.1989259160e-01 2.6779979957e+00 -4.6384285910e+00 2.6779979957e+00 4.6384285910e+00 
25400 7.0827130171e+00 -1.1946945824e-01 2.6802367815e+00 -4.6423062819e+00 2.6802367815e+00 4.6423062819e+00 
25500 7.0817861371e+00 -1.1904531318e-01 2.6824658010e+00 -4.6461670569e+00 2.6824658010e+00 4.6461670569e+00 
25600 7.0808664641e+00 -1.1862014817e-01 2.6846850597e+00 -4.6500109258e+00 2.6846850597e+00 4.6500109258e+00 
25700 7.0799540822e+00 -1.1819395405e-01 2.6868945629e+00 -4.6538378975e+00 2.6868945629e+00 4.6538378975e+00 
25800 7.0790490720e+00 -1.1776672077e-01 2.6890943155e+00 -4.6576479808e+00 2.6890943155e+00 4.6576479808e+00 
25900 7.0781515105e+00 -1.1733843746e-01 2.6912843222e+00 -4.6614411837e+00 2.6912843222e+00 4.6614411837e+00 
26000 7.0772614707e+00 -1.1690909251e-01 2.6934645873e+00 -4.6652175136e+00 2.6934645873e+00 4.6652175136e+00 
26100 7.0763790216e+00 -1.1647867363e-01 2.6956351148e+00 -4.6689769775e+00 2.6956351148e+00 4.6689769775e+00 
26200 7.0755042283e+00 -1.1604716792e-01 2.6977959084e+00 -4.6727195818e+00 2.6977959084e+00 4.6727195818e+00 
26300 7.0746371519e+00 -1.1561456194e-01 2.6999469713e+00 -4.6764453320e+00 2.6999469713e+00 4.6764453320e+00 
26400 7.0737778493e+00 -1.1518084179e-01 2.7020883065e+00 -4.6801542334e+00 2.7020883065e+00 4.6801542334e+00 
26500 7.0729263731e+00 -1.1474599316e-01 2.7042199166e+00 -4.6838462903e+00 2.7042199166e+00 4.6838462903e+00 
26600 7.0720827719e+00 -1.1431000142e-01 2.7063418036e+00 -4.6875215065e+00 2.7063418036e+00 4.6875215065e+00 
26700 7.0712470899e+00 -1.1387285170e-01 2.7084539695e+00 -4.6911798852e+00 2.7084539695e+00 4.6911798852e+00 
26800 7.0704193670e+00 -1.1343452891e-01 2.7105564156e+00 -4.6948214287e+00 2.7105564156e+00 4.6948214287e+00 
26900 7.0695996388e+00 -1.1299501789e-01 2.7126491430e+00 -4.6984461388e+00 2.7126491430e+00 4.6984461388e+00 
27000 7.0687879366e+00 -1.1255430340e-01 2.7147321523e+00 -4.7020540167e+00 2.7147321523e+00 4.7020540167e+00 
27100 7.0679842871e+00 -1.1211237025e-01 2.7168054437e+00 -4.7056450627e+00 2.7168054437e+00 4.7056450627e+00 
27200 7.0671887131e+00 -1.1166920336e-01 2.7188690171e+00 -4.7092192768e+00 2.7188690171e+00 4.7092192768e+00 
27300 7.0664012326e+00 -1.1122478781e-01 2.7209228720e+00 -4.7127766578e+00 2.7209228720e+00 4.7127766578e+00 
27400 7.0656218595e+00 -1.1077910893e-01 2.7229670076e+00 -4.7163172044e+00 2.7229670076e+00 4.7163172044e+00 
27500 7.0648506032e+00 -1.1033215237e-01 2.7250014224e+00 -4.7198409144e+00 2.7250014224e+00 4.7198409144e+00 
27600 7.0640874691e+00 -1.0988390415e-01 2.7270261150e+00 -4.7233477848e+00 2.7270261150e+00 4.7233477848e+00 
27700 7.0633324579e+00 -1.0943435077e-01 2.7290410833e+00 -4.7268378123e+00 2.7290410833e+00 4.7268378123e+00 
27800 7.0625855664e+00 -1.0898347924e-01 2.7310463251e+00 -4.7303109928e+00 2.7310463251e+00 4.7303109928e+00 
27900 7.0618467871e+00 -1.0853127716e-01 2.7330418375e+00 -4.7337673218e+00 2.7330418375e+00 4.7337673218e+00 
28000 7.0611161083e+00 -1.0807773281e-01 2.7350276178e+00 -4.7372067941e+00 2.7350276178e+00 4.7372067941e+00 
28100 7.0603935142e+00 -1.0762283518e-01 2.7370036624e+00 -4.7406294039e+00 2.7370036624e+00 4.7406294039e+00 
28200 7.0596789850e+00 -1.0716657406e-01 2.7389699680e+00 -4.7440351450e+00 2.7389699680e+00 4.7440351450e+00 
28300 7.0589724970e+00 -1.0670894012e-01 2.7409265306e+00 -4.7474240108e+00 2.7409265306e+00 4.7474240108e+00 
28400 7.0582740225e+00 -1.0624992492e-01 2.7428733460e+00 -4.7507959940e+00 2.7428733460e+00 4.7507959940e+00 
28500 7.0575835301e+00 -1.0578952105e-01 2.7448104100e+00 -4.7541510872e+00 2.7448104100e+00 4.7541510872e+00 
28600 7.0569009845e+00 -1.0532772211e-01 2.7467377178e+00 -4.7574892822e+00 2.7467377178e+00 4.7574892822e+00 
28700 7.0562263468e+00 -1.0486452285e-01 2.7486552647e+00 -4.7608105709e+00 2.7486552647e+00 4.7608105709e+00 
28800 7.0555595747e+00 -1.0439991917e-01 2.7505630456e+00 -4.7641149444e+00 2.7505630456e+00 4.7641149444e+00 
28900 7.0549006222e+00 -1.0393390820e-01 2.7524610555e+00 -4.7674023940e+00 2.7524610555e+00 4.7674023940e+00 
29000 7.0542494401e+00 -1.0346648837e-01 2.7543492890e+00 -4.7706729103e+00 2.7543492890e+00 4.7706729103e+00 
29100 7.0536059760e+00 -1.0299765944e-01 2.7562277406e+00 -4.7739264840e+00 2.7562277406e+00 4.7739264840e+00 
29200 7.0529701741e+00 -1.0252742258e-01 2.7580964049e+00 -4.7771631055e+00 2.7580964049e+00 4.7771631055e+00 
29300 7.0523419758e+00 -1.0205578038e-01 2.7599552763e+00 -4.7803827652e+00 2.7599552763e+00 4.7803827652e+00 
29400 7.0517213194e+00 -1.0158273697e-01 2.7618043492e+00 -4.7835854534e+00 2.7618043492e+00 4.7835854534e+00 
29500 7.0511081406e+00 -1.0110829798e-01 2.7636436178e+00 -4.7867711601e+00 2.7636436178e+00 4.7867711601e+00 
29600 7.0505023722e+00 -1.0063247068e-01 2.7654730767e+00 -4.7899398758e+00 2.7654730767e+00 4.7899398758e+00 
29700 7.0499039446e+00 -1.0015526394e-01 2.7672927201e+00 -4.7930915906e+00 2.7672927201e+00 4.7930915906e+00 
29800 7.0493127856e+00 -9.9676688324e-02 2.7691025426e+00 -4.7962262951e+00 2.7691025426e+00 4.7962262951e+00 
29900 7.0487288208e+00 -9.9196756112e-02 2.7709025388e+00 -4.7993439800e+00 2.7709025388e+00 4.7993439800e+00 
30000 7.0481519737e+00 -9.8715481342e-02 2.7726927033e+00 -4.8024446359e+00 2.7726927033e+00 4.8024446359e+00 
30100 7.0475821656e+00 -9.8232879843e-02 2.7744730311e+00 -4.8055282541e+00 2.7744730311e+00 4.8055282541e+00 
30200 7.0470193159e+00 -9.7748969268e-02 2.7762435172e+00 -4.8085948260e+00 2.7762435172e+00 4.8085948260e+00 
30300 7.0464633423e+00 -9.7263769125e-02 2.7780041569e+00 -4.8116443435e+00 2.7780041569e+00 4.8116443435e+00 
30400 7.0459141607e+00 -9.6777300803e-02 2.7797549459e+00 -4.8146767988e+00 2.7797549459e+00 4.8146767988e+00 
30500 7.0453716857e+00 -9.6289587598e-02 2.7814958798e+00 -4.8176921849e+00 2.7814958798e+00 4.8176921849e+00 
30600 7.0448358304e+00 -9.5800654736e-02 2.7832269550e+00 -4.8206904950e+00 2.7832269550e+00 4.8206904950e+00 
30700 7.0443065065e+00 -9.5310529390e-02 2.7849481679e+00 -4.8236717232e+00 2.7849481679e+00 4.8236717232e+00 
30800 7.0437836250e+00 -9.4819240698e-02 2.7866595154e+00 -4.8266358641e+00 2.7866595154e+00 4.8266358641e+00 
30900 7.0432670954e+00 -9.4326819774e-02 2.7883609949e+00 -4.8295829131e+00 2.7883609949e+00 4.8295829131e+00 
31000 7.0427568269e+00 -9.3833299722e-02 2.7900526043e+00 -4.8325128664e+00 2.7900526043e+00 4.8325128664e+00 
31100 7.0422527275e+00 -9.3338715639e-02 2.7917343417e+00 -4.8354257211e+00 2.7917343417e+00 4.8354257211e+00 
31200 7.0417547049e+00 -9.2843104621e-02 2.7934062061e+00 -4.8383214752e+00 2.7934062061e+00 4.8383214752e+00 
31300 7.0412626664e+00 -9.2346505764e-02 2.7950681969e+00 -4.8412001276e+00 2.7950681969e+00 4.8412001276e+00 
31400 7.0407765187e+00 -9.1848960159e-02 2.7967203139e+00 -4.8440616783e+00 2.7967203139e+00 4.8440616783e+00 
31500 7.0402961687e+00 -9.1350510888e-02 2.7983625579e+00 -4.8469061283e+00 2.7983625579e+00 4.8469061283e+00 
31600 7.0398215229e+00 -9.0851203014e-02 2.7999949302e+00 -4.8497334800e+00 2.7999949302e+00 4.8497334800e+00 
31700 7.0393524881e+00 -9.0351083567e-02 2.8016174326e+00 -4.8525437366e+00 2.8016174326e+00 4.8525437366e+00 
31800 7.0388889711e+00 -8.9850201529e-02 2.8032300679e+00 -4.8553369029e+00 2.8032300679e+00 4.8553369029e+00 
31900 7.0384308791e+00 -8.9348607812e-02 2.8048328396e+00 -4.8581129850e+00 2.8048328396e+00 4.8581129850e+00 
32000 7.0379781198e+00 -8.8846355236e-02 2.8064257520e+00 -4.8608719902e+00 2.8064257520e+00 4.8608719902e+00 
32100 7.0375306012e+00 -8.8343498504e-02 2.8080088102e+00 -4.8636139273e+00 2.8080088102e+00 4.8636139273e+00 
32200 7.0370882322e+00 -8.7840094166e-02 2.8095820200e+00 -4.8663388067e+00 2.8095820200e+00 4.8663388067e+00 
32300 7.0366509223e+00 -8.7336200589e-02 2.8111453884e+00 -4.8690466402e+00 2.8111453884e+00 4.8690466402e+00 
32400 7.0362185819e+00 -8.6831877915e-02 2.8126989231e+00 -4.8717374413e+00 2.8126989231e+00 4.8717374413e+00 
32500 7.0357911224e+00 -8.6327188028e-02 2.8142426329e+00 -4.8744112250e+00 2.8142426329e+00 4.8744112250e+00 
32600 7.0353684562e+00 -8.5822194497e-02 2.8157765274e+00 -4.8770680082e+00 2.8157765274e+00 4.8770680082e+00 
32700 7.0349504967e+00 -8.5316962539e-02 2.8173006173e+00 -4.8797078094e+00 2.8173006173e+00 4.8797078094e+00 
32800 7.0345371589e+00 -8.4811558958e-02 2.8188149144e+00 -4.8823306488e+00 2.8188149144e+00 4.8823306488e+00 
32900 7.0341283589e+00 -8.4306052097e-02 2.8203194314e+00 -4.8849365487e+00 2.8203194314e+00 4.8849365487e+00 
33000 7.0337240140e+00 -8.3800511773e-02 2.8218141821e+00 -4.8875255330e+00 2.8218141821e+00 4.8875255330e+00 
33100 7.0333240434e+00 -8.3295009218e-02 2.8232991817e+00 -4.8900976277e+00 2.8232991817e+00 4.8900976277e+00 
33200 7.0329283676e+00 -8.2789617014e-02 2.8247744462e+00 -4.8926528607e+00 2.8247744462e+00 4.8926528607e+00 
33300 7.0325369086e+00 -8.2284409022e-02 2.8262399928e+00 -4.8951912619e+00 2.8262399928e+00 4.8951912619e+00 
33400 7.0321495903e+00 -8.1779460313e-02 2.8276958399e+00 -4.8977128631e+00 2.8276958399e+00 4.8977128631e+00 
33500 7.0317663383e+00 -8.1274847091e-02 2.8291420073e+00 -4.9002176984e+00 2.8291420073e+00 4.9002176984e+00 
33600 7.0313870800e+00 -8.0770646617e-02 2.8305785156e+00 -4.9027058038e+00 2.8305785156e+00 4.9027058038e+00 
33700 7.0310117444e+00 -8.0266937127e-02 2.8320053870e+00 -4.9051772175e+00 2.8320053870e+00 4.9051772175e+00 
33800 7.0306402626e+00 -7.9763797749e-02 2.8334226446e+00 -4.9076319798e+00 2.8334226446e+00 4.9076319798e+00 
33900 7.0302725677e+00 -7.9261308420e-02 2.8348303132e+00 -4.9100701333e+00 2.8348303132e+00 4.9100701333e+00 
34000 7.0299085944e+00 -7.8759549794e-02 2.8362284184e+00 -4.9124917225e+00 2.8362284184e+00 4.9124917225e+00 
34100 7.0295482798e+00 -7.8258603154e-02 2.8376169873e+00 -4.9148967944e+00 2.8376169873e+00 4.9148967944e+00 
34200 7.0291915627e+00 -7.7758550319e-02 2.8389960483e+00 -4.9172853982e+00 2.8389960483e+00 4.9172853982e+00 
34300 7.0288383840e+00 -7.7259473549e-02 2.8403656310e+00 -4.9196575850e+00 2.8403656310e+00 4.9196575850e+00 
34400 7.0284886866e+00 -7.6761455449e-02 2.8417257664e+00 -4.9220134086e+00 2.8417257664e+00 4.9220134086e+00 
34500 7.0281424155e+00 -7.6264578873e-02 2.8430764867e+00 -4.9243529248e+00 2.8430764867e+00 4.9243529248e+00 
34600 7.0277995177e+00 -7.5768926820e-02 2.8444178254e+00 -4.9266761916e+00 2.8444178254e+00 4.9266761916e+00 
34700 7.0274599424e+00 -7.5274582341e-02 2.8457498175e+00 -4.9289832695e+00 2.8457498175e+00 4.9289832695e+00 
34800 7.0271236405e+00 -7.4781628429e-02 2.8470724989e+00 -4.9312742210e+00 2.8470724989e+00 4.9312742210e+00 
34900 7.0267905652e+00 -7.4290147923e-02 2.8483859073e+00 -4.9335491109e+00 2.8483859073e+00 4.9335491109e+00 
35000 7.0264606716e+00 -7.3800223402e-02 2.8496900812e+00 -4.9358080065e+00 2.8496900812e+00 4.9358080065e+00 
35100 7.0261339168e+00 -7.3311937082e-02 2.8509850608e+00 -4.9380509769e+00 2.8509850608e+00 4.9380509769e+00 
35200 7.0258102600e+00 -7.2825370713e-02 2.8522708873e+00 -4.9402780938e+00 2.8522708873e+00 4.9402780938e+00 
35300 7.0254896622e+00 -7.2340605473e-02 2.8535476034e+00 -4.9424894309e+00 2.8535476034e+00 4.9424894309e+00 
35400 7.0251720862e+00 -7.1857721870e-02 2.8548152528e+00 -4.9446850641e+00 2.8548152528e+00 4.9446850641e+00 
35500 7.0248574970e+00 -7.1376799632e-02 2.8560738807e+00 -4.9468650715e+00 2.8560738807e+00 4.9468650715e+00 
35600 7.0245458611e+00 -7.0897917608e-02 2.8573235332e+00 -4.9490295332e+00 2.8573235332e+00 4.9490295332e+00 
35700 7.0242371469e+00 -7.0421153669e-02 2.8585642581e+00 -4.9511785317e+00 2.8585642581e+00 4.9511785317e+00 
35800 7.0239313248e+00 -6.9946584601e-02 2.8597961039e+00 -4.9533121512e+00 2.8597961039e+00 4.9533121512e+00 
35900 7.0236283665e+00 -6.9474286013e-02 2.8610191206e+00 -4.9554304783e+00 2.8610191206e+00 4.9554304783e+00 
36000 7.0233282456e+00 -6.9004332233e-02 2.8622333592e+00 -4.9575336013e+00 2.8622333592e+00 4.9575336013e+00 
36100 7.0230309372e+00 -6.8536796218e-02 2.8634388719e+00 -4.9596216105e+00 2.8634388719e+00 4.9596216105e+00 
36200 7.0227364179e+00 -6.8071749455e-02 2.8646357120e+00 -4.9616945984e+00 2.8646357120e+00 4.9616945984e+00 
36300 7.0224446661e+00 -6.7609261871e-02 2.8658239338e+00 -4.9637526589e+00 2.8658239338e+00 4.9637526589e+00 
36400 7.0221556611e+00 -6.7149401744e-02 2.8670035928e+00 -4.9657958882e+00 2.8670035928e+00 4.9657958882e+00 
36500 7.0218693839e+00 -6.6692235616e-02 2.8681747453e+00 -4.9678243839e+00 2.8681747453e+00 4.9678243839e+00 
36600 7.0215858167e+00 -6.6237828208e-02 2.8693374489e+00 -4.9698382455e+00 2.8693374489e+00 4.9698382455e+00 
36700 7.0213049430e+00 -6.5786242339e-02 2.8704917618e+00 -4.9718375742e+00 2.8704917618e+00 4.9718375742e+00 
36800 7.0210267474e+00 -6.5337538847e-02 2.8716377435e+00 -4.9738224726e+00 2.8716377435e+00 4.9738224726e+00 
36900 7.0207512156e+00 -6.4891776516e-02 2.8727754540e+00 -4.9757930451e+00 2.8727754540e+00 4.9757930451e+00 
37000 7.0204783342e+00 -6.4449012000e-02 2.8739049545e+00 -4.9777493974e+00 2.8739049545e+00 4.9777493974e+00 
37100 7.0202080910e+00 -6.4009299763e-02 2.8750263069e+00 -4.9796916366e+00 2.8750263069e+00 4.9796916366e+00 
37200 7.0199404746e+00 -6.3572692003e-02 2.8761395737e+00 -4.9816198714e+00 2.8761395737e+00 4.9816198714e+00 
37300 7.0196754743e+00 -6.3139238604e-02 2.8772448185e+00 -4.9835342114e+00 2.8772448185e+00 4.9835342114e+00 
37400 7.0194130803e+00 -6.2708987070e-02 2.8783421052e+00 -4.9854347677e+00 2.8783421052e+00 4.9854347677e+00 
37500 7.0191532834e+00 -6.2281982476e-02 2.8794314986e+00 -4.9873216525e+00 2.8794314986e+00 4.9873216525e+00 
37600 7.0188960751e+00 -6.1858267422e-02 2.8805130642e+00 -4.9891949791e+00 2.8805130642e+00 4.9891949791e+00 
37700 7.0186414474e+00 -6.1437881982e-02 2.8815868678e+00 -4.9910548615e+00 2.8815868678e+00 4.9910548615e+00 
37800 7.0183893927e+00 -6.1020863674e-02 2.8826529761e+00 -4.9929014151e+00 2.8826529761e+00 4.9929014151e+00 
37900 7.0181399041e+00 -6.0607247416e-02 2.8837114558e+00 -4.9947347559e+00 2.8837114558e+00 4.9947347559e+00 
38000 7.0178929748e+00 -6.0197065499e-02 2.8847623745e+00 -4.9965550005e+00 2.8847623745e+00 4.9965550005e+00 
38100 7.0176485984e+00 -5.9790347560e-02 2.8858058000e+00 -4.9983622665e+00 2.8858058000e+00 4.9983622665e+00 
38200 7.0174067687e+00 -5.9387120563e-02 2.8868418005e+00 -5.0001566719e+00 2.8868418005e+00 5.0001566719e+00 
38300 7.0171674797e+00 -5.8987408775e-02 2.8878704445e+00 -5.0019383355e+00 2.8878704445e+00 5.0019383355e+00 
38400 7.0169307256e+00 -5.8591233759e-02 2.8888918006e+00 -5.0037073762e+00 2.8888918006e+00 5.0037073762e+00 
38500 7.0166965006e+00 -5.8198614366e-02 2.8899059379e+00 -5.0054639136e+00 2.8899059379e+00 5.0054639136e+00 
38600 7.0164647989e+00 -5.7809566726e-02 2.8909129256e+00 -5.0072080674e+00 2.8909129256e+00 5.0072080674e+00 
38700 7.0162356148e+00 -5.7424104257e-02 2.8919128329e+00 -5.0089399576e+00 2.8919128329e+00 5.0089399576e+00 
38800 7.0160089424e+00 -5.7042237661e-02 2.8929057291e+00 -5.0106597044e+00 2.8929057291e+00 5.0106597044e+00 
38900 7.0157847758e+00 -5.6663974944e-02 2.8938916838e+00 -5.0123674279e+00 2.8938916838e+00 5.0123674279e+00 
39000 7.0155631087e+00 -5.6289321422e-02 2.8948707662e+00 -5.0140632484e+00 2.8948707662e+00 5.0140632484e+00 
39100 7.0153439350e+00 -5.5918279742e-02 2.8958430457e+00 -5.0157472859e+00 2.8958430457e+00 5.0157472859e+00 
39200 7.0151272481e+00 -5.5550849909e-02 2.8968085916e+00 -5.0174196604e+00 2.8968085916e+00 5.0174196604e+00 
39300 7.0149130411e+00 -5.5187029308e-02 2.8977674729e+00 -5.0190804916e+00 2.8977674729e+00 5.0190804916e+00 
39400 7.0147013070e+00 -5.4826812735e-02 2.8987197586e+00 -5.0207298988e+00 2.8987197586e+00 5.0207298988e+00 
39500 7.0144920384e+00 -5.4470192436e-02 2.8996655174e+00 -5.0223680011e+00 2.8996655174e+00 5.0223680011e+00 
39600 7.0142852273e+00 -5.4117158143e-02 2.9006048177e+00 -5.0239949169e+00 2.9006048177e+00 5.0239949169e+00 
39700 7.0140808658e+00 -5.3767697117e-02 2.9015377275e+00 -5.0256107642e+00 2.9015377275e+00 5.0256107642e+00 
39800 7.0138789452e+00 -5.3421794196e-02 2.9024643148e+00 -5.0272156604e+00 2.9024643148e+00 5.0272156604e+00 
39900 7.0136794566e+00 -5.3079431840e-02 2.9033846468e+00 -5.0288097222e+00 2.9033846468e+00 5.0288097222e+00 
40000 7.0134823905e+00 -5.2740590190e-02 2.9042987905e+00 -5.0303930655e+00 2.9042987905e+00 5.0303930655e+00 
40100 7.0132877373e+00 -5.2405247120e-02 2.9052068124e+00 -5.0319658056e+00 2.9052068124e+00 5.0319658056e+00 
40200 7.0130954865e+00 -5.2073378298e-02 2.9061087785e+00 -5.0335280566e+00 2.9061087785e+00 5.0335280566e+00 
40300 7.0129056274e+00 -5.1744957246e-02 2.9070047541e+00 -5.0350799319e+00 2.9070047541e+00 5.0350799319e+00 
40400 7.0127181488e+00 -5.1419955408e-02 2.9078948042e+00 -5.0366215439e+00 2.9078948042e+00 5.0366215439e+00 
40500 7.0125330391e+00 -5.1098342216e-02 2.9087789930e+00 -5.0381530038e+00 2.9087789930e+00 5.0381530038e+00 
40600 7.0123502860e+00 -5.0780085157e-02 2.9096573841e+00 -5.0396744219e+00 2.9096573841e+00 5.0396744219e+00 
40700 7.0121698770e+00 -5.0465149848e-02 2.9105300405e+00 -5.0411859071e+00 2.9105300405e+00 5.0411859071e+00 
40800 7.0119917988e+00 -5.0153500111e-02 2.9113970244e+00 -5.0426875673e+00 2.9113970244e+00 5.0426875673e+00 
40900 7.0118160381e+00 -4.9845098043e-02 2.9122583974e+00 -5.0441795090e+00 2.9122583974e+00 5.0441795090e+00 
41000 7.0116425806e+00 -4.9539904100e-02 2.9131142201e+00 -5.0456618374e+00 2.9131142201e+00 5.0456618374e+00 
41100 7.0114714120e+00 -4.9237877171e-02 2.9139645526e+00 -5.0471346565e+00 2.9139645526e+00 5.0471346565e+00 
41200 7.0113025173e+00 -4.8938974663e-02 2.9148094540e+00 -5.0485980687e+00 2.9148094540e+00 5.0485980687e+00 
41300 7.0111358810e+00 -4.8643152576e-02 2.9156489827e+00 -5.0500521750e+00 2.9156489827e+00 5.0500521750e+00 
41400 7.0109714875e+00 -4.8350365591e-02 2.9164831961e+00 -5.0514970751e+00 2.9164831961e+00 5.0514970751e+00 
41500 7.0108093205e+00 -4.8060567150e-02 2.9173121509e+00 -5.0529328669e+00 2.9173121509e+00 5.0529328669e+00 
41600 7.0106493634e+00 -4.7773709542e-02 2.9181359028e+00 -5.0543596471e+00 2.9181359028e+00 5.0543596471e+00 
41700 7.0104915992e+00 -4.7489743984e-02 2.9189545066e+00 -5.0557775104e+00 2.9189545066e+00 5.0557775104e+00 
41800 7.0103360104e+00 -4.7208620709e-02 2.9197680162e+00 -5.0571865504e+00 2.9197680162e+00 5.0571865504e+00 
41900 7.0101825794e+00 -4.6930289047e-02 2.9205764845e+00 -5.0585868586e+00 2.9205764845e+00 5.0585868586e+00 
42000 7.0100312882e+00 -4.6654697512e-02 2.9213799636e+00 -5.0599785251e+00 2.9213799636e+00 5.0599785251e+00 
42100 7.0098821183e+00 -4.6381793886e-02 2.9221785044e+00 -5.0613616383e+00 2.9221785044e+00 5.0613616383e+00 
42200 7.0097350509e+00 -4.6111525302e-02 2.9229721570e+00 -5.0627362850e+00 2.9229721570e+00 5.0627362850e+00 
42300 7.0095900673e+00 -4.5843838327e-02 2.9237609705e+00 -5.0641025501e+00 2.9237609705e+00 5.0641025501e+00 
42400 7.0094471480e+00 -4.5578679046e-02 2.9245449930e+00 -5.0654605169e+00 2.9245449930e+00 5.0654605169e+00 
42500 7.0093062737e+00 -4.5315993143e-02 2.9253242715e+00 -5.0668102669e+00 2.9253242715e+00 5.0668102669e+00 
42600 7.0091674245e+00 -4.5055725982e-02 2.9260988522e+00 -5.0681518799e+00 2.9260988522e+00 5.0681518799e+00 
42700 7.0090305805e+00 -4.4797822687e-02 2.9268687800e+00 -5.0694854341e+00 2.9268687800e+00 5.0694854341e+00 
42800 7.0088957217e+00 -4.4542228221e-02 2.9276340992e+00 -5.0708110058e+00 2.9276340992e+00 5.0708110058e+00 
42900 7.0087628277e+00 -4.4288887461e-02 2.9283948527e+00 -5.0721286695e+00 2.9283948527e+00 5.0721286695e+00 
43000 7.0086318780e+00 -4.4037745279e-02 2.9291510825e+00 -5.0734384980e+00 2.9291510825e+00 5.0734384980e+00 
43100 7.0085028520e+00 -4.3788746608e-02 2.9299028298e+00 -5.0747405625e+00 2.9299028298e+00 5.0747405625e+00 
43200 7.0083757290e+00 -4.3541836524e-02 2.9306501346e+00 -5.0760349324e+00 2.9306501346e+00 5.0760349324e+00 
43300 7.0082504882e+00 -4.3296960308e-02 2.9313930359e+00 -5.0773216752e+00 2.9313930359e+00 5.0773216752e+00 
43400 7.0081271086e+00 -4.3054063522e-02 2.9321315718e+00 -5.0786008568e+00 2.9321315718e+00 5.0786008568e+00 
43500 7.0080055694e+00 -4.2813092071e-02 2.9328657793e+00 -5.0798725415e+00 2.9328657793e+00 5.0798725415e+00 
43600 7.0078858493e+00 -4.2573992270e-02 2.9335956945e+00 -5.0811367917e+00 2.9335956945e+00 5.0811367917e+00 
43700 7.0077679274e+00 -4.2336710909e-02 2.9343213526e+00 -5.0823936684e+00 2.9343213526e+00 5.0823936684e+00 
43800 7.0076517825e+00 -4.2101195308e-02 2.9350427876e+00 -5.0836432305e+00 2.9350427876e+00 5.0836432305e+00 
43900 7.0075373936e+00 -4.1867393380e-02 2.9357600328e+00 -5.0848855357e+00 2.9357600328e+00 5.0848855357e+00 
44000 7.0074247395e+00 -4.1635253687e-02 2.9364731206e+00 -5.0861206399e+00 2.9364731206e+00 5.0861206399e+00 
44100 7.0073137991e+00 -4.1404725491e-02 2.9371820821e+00 -5.0873485972e+00 2.9371820821e+00 5.0873485972e+00 
44200 7.0072045515e+00 -4.1175758806e-02 2.9378869478e+00 -5.0885694605e+00 2.9378869478e+00 5.0885694605e+00 
44300 7.0070969755e+00 -4.0948304451e-02 2.9385877473e+00 -5.0897832809e+00 2.9385877473e+00 5.0897832809e+00 
44400 7.0069910502e+00 -4.0722314091e-02 2.9392845093e+00 -5.0909901080e+00 2.9392845093e+00 5.0909901080e+00 
44500 7.0068867548e+00 -4.0497740283e-02 2.9399772614e+00 -5.0921899899e+00 2.9399772614e+00 5.0921899899e+00 
44600 7.0067840684e+00 -4.0274536520e-02 2.9406660307e+00 -5.0933829733e+00 2.9406660307e+00 5.0933829733e+00 
44700 7.0066829703e+00 -4.0052657265e-02 2.9413508433e+00 -5.0945691034e+00 2.9413508433e+00 5.0945691034e+00 
44800 7.0065834398e+00 -3.9832057992e-02 2.9420317243e+00 -5.0957484240e+00 2.9420317243e+00 5.0957484240e+00 
44900 7.0064854566e+00 -3.9612695219e-02 2.9427086984e+00 -5.0969209775e+00 2.9427086984e+00 5.0969209775e+00 
45000 7.0063890001e+00 -3.9394526536e-02 2.9433817893e+00 -5.0980868051e+00 2.9433817893e+00 5.0980868051e+00 
45100 7.0062940501e+00 -3.9177510639e-02 2.9440510198e+00 -5.0992459463e+00 2.9440510198e+00 5.0992459463e+00 
45200 7.0062005864e+00 -3.8961607352e-02 2.9447164122e+00 -5.1003984399e+00 2.9447164122e+00 5.1003984399e+00 
45300 7.0061085891e+00 -3.8746777654e-02 2.9453779881e+00 -5.1015443229e+00 2.9453779881e+00 5.1015443229e+00 
45400 7.0060180382e+00 -3.8532983697e-02 2.9460357682e+00 -5.1026836314e+00 2.9460357682e+00 5.1026836314e+00 
45500 7.0059289140e+00 -3.8320188829e-02 2.9466897726e+00 -5.1038164003e+00 2.9466897726e+00 5.1038164003e+00 
45600 7.0058411970e+00 -3.8108357608e-02 2.9473400209e+00 -5.1049426633e+00 2.9473400209e+00 5.1049426633e+00 
45700 7.0057548677e+00 -3.7897455815e-02 2.9479865318e+00 -5.1060624531e+00 2.9479865318e+00 5.1060624531e+00 
45800 7.0056699068e+00 -3.7687450470e-02 2.9486293236e+00 -5.1071758012e+00 2.9486293236e+00 5.1071758012e+00 
45900 7.0055862954e+00 -3.7478309837e-02 2.9492684140e+00 -5.1082827381e+00 2.9492684140e+00 5.1082827381e+00 
46000 7.0055040144e+00 -3.7270003433e-02 2.9499038199e+00 -5.1093832936e+00 2.9499038199e+00 5.1093832936e+00 
46100 7.0054230452e+00 -3.7062502034e-02 2.9505355580e+00 -5.1104774961e+00 2.9505355580e+00 5.1104774961e+00 
46200 7.0053433691e+00 -3.6855777677e-02 2.9511636443e+00 -5.1115653734e+00 2.9511636443e+00 5.1115653734e+00 
46300 7.0052649677e+00 -3.6649803658e-02 2.9517880942e+00 -5.1126469523e+00 2.9517880942e+00 5.1126469523e+00 
46400 7.0051878229e+00 -3.6444554536e-02 2.9524089228e+00 -5.1137222590e+00 2.9524089228e+00 5.1137222590e+00 
46500 7.0051119167e+00 -3.6240006126e-02 2.9530261446e+00 -5.1147913185e+00 2.9530261446e+00 5.1147913185e+00 
46600 7.0050372310e+00 -3.6036135494e-02 2.9536397738e+00 -5.1158541555e+00 2.9536397738e+00 5.1158541555e+00 
46700 7.0049637484e+00 -3.5832920951e-02 2.9542498241e+00 -5.1169107936e+00 2.9542498241e+00 5.1169107936e+00 
46800 7.0048914513e+00 -3.5630342042e-02 2.9548563088e+00 -5.1179612559e+00 2.9548563088e+00 5.1179612559e+00 
46900 7.0048203223e+00 -3.5428379539e-02 2.9554592409e+00 -5.1190055649e+00 2.9554592409e+00 5.1190055649e+00 
47000 7.0047503445e+00 -3.5227015425e-02 2.9560586329e+00 -5.1200437424e+00 2.9560586329e+00 5.1200437424e+00 
47100 7.0046815009e+00 -3.5026232879e-02 2.9566544973e+00 -5.1210758097e+00 2.9566544973e+00 5.1210758097e+00 
47200 7.0046137747e+00 -3.4826016267e-02 2.9572468459e+00 -5.1221017876e+00 2.9572468459e+00 5.1221017876e+00 
47300 7.0045471494e+00 -3.4626351117e-02 2.9578356904e+00 -5.1231216962e+00 2.9578356904e+00 5.1231216962e+00 
47400 7.0044816087e+00 -3.4427224106e-02 2.9584210423e+00 -5.1241355554e+00 2.9584210423e+00 5.1241355554e+00 
47500 7.0044171363e+00 -3.4228623038e-02 2.9590029126e+00 -5.1251433845e+00 2.9590029126e+00 5.1251433845e+00 
47600 7.0043537163e+00 -3.4030536823e-02 2.9595813125e+00 -5.1261452024e+00 2.9595813125e+00 5.1261452024e+00 
47700 7.0042913329e+00 -3.3832955455e-02 2.9601562526e+00 -5.1271410278e+00 2.9601562526e+00 5.1271410278e+00 
47800 7.0042299704e+00 -3.3635869992e-02 2.9607277434e+00 -5.1281308790e+00 2.9607277434e+00 5.1281308790e+00 
47900 7.0041696135e+00 -3.3439272524e-02 2.9612957954e+00 -5.1291147739e+00 2.9612957954e+00 5.1291147739e+00 
48000 7.0041102468e+00 -3.3243156156e-02 2.9618604188e+00 -5.1300927302e+00 2.9618604188e+00 5.1300927302e+00 
48100 7.0040518554e+00 -3.3047514976e-02 2.9624216236e+00 -5.1310647655e+00 2.9624216236e+00 5.1310647655e+00 
48200 7.0039944244e+00 -3.2852344032e-02 2.9629794198e+00 -5.1320308969e+00 2.9629794198e+00 5.1320308969e+00 
48300 7.0039379390e+00 -3.2657639300e-02 2.9635338173e+00 -5.1329911415e+00 2.9635338173e+00 5.1329911415e+00 
48400 7.0038823848e+00 -3.2463397661e-02 2.9640848259e+00 -5.1339455164e+00 2.9640848259e+00 5.1339455164e+00 
48500 7.0038277474e+00 -3.2269616868e-02 2.9646324552e+00 -5.1348940382e+00 2.9646324552e+00 5.1348940382e+00 
48600 7.0037740127e+00 -3.2076295515e-02 2.9651767150e+00 -5.1358367238e+00 2.9651767150e+00 5.1358367238e+00 
48700 7.0037211667e+00 -3.1883433014e-02 2.9657176148e+00 -5.1367735898e+00 2.9657176148e+00 5.1367735898e+00 
48800 7.0036691957e+00 -3.1691029556e-02 2.9662551643e+00 -5.1377046527e+00 2.9662551643e+00 5.1377046527e+00 
48900 7.0036180860e+00 -3.1499086087e-02 2.9667893729e+00 -5.1386299291e+00 2.9667893729e+00 5.1386299291e+00 
49000 7.0035678241e+00 -3.1307604273e-02 2.9673202502e+00 -5.1395494357e+00 2.9673202502e+00 5.1395494357e+00 
49100 7.0035183969e+00 -3.1116586469e-02 2.9678478059e+00 -5.1404631889e+00 2.9678478059e+00 5.1404631889e+00 
49200 7.0034697913e+00 -3.0926035691e-02 2.9683720494e+00 -5.1413712054e+00 2.9683720494e+00 5.1413712054e+00 
49300 7.0034219943e+00 -3.0735955580e-02 2.9688929905e+00 -5.1422735018e+00 2.9688929905e+00 5.1422735018e+00 
49400 7.0033749932e+00 -3.0546350373e-02 2.9694106388e+00 -5.1431700950e+00 2.9694106388e+00 5.1431700950e+00 
49500 7.0033287754e+00 -3.0357224872e-02 2.9699250041e+00 -5.1440610017e+00 2.9699250041e+00 5.1440610017e+00 
49600 7.0032833286e+00 -3.0168584410e-02 2.9704360960e+00 -5.1449462389e+00 2.9704360960e+00 5.1449462389e+00 
49700 7.0032386405e+00 -2.9980434823e-02 2.9709439245e+00 -5.1458258238e+00 2.9709439245e+00 5.1458258238e+00 
49800 7.0031946991e+00 -2.9792782415e-02 2.9714484996e+00 -5.1466997734e+00 2.9714484996e+00 5.1466997734e+00 
49900 7.0031514925e+00 -2.9605633932e-02 2.9719498312e+00 -5.1475681052e+00 2.9719498312e+00 5.1475681052e+00 
50000 7.0031090090e+00 -2.9418996526e-02 2.9724479294e+00 -5.1484308366e+00 2.9724479294e+00 5.1484308366e+00 
50100 7.0030672370e+00 -2.9232877728e-02 2.9729428046e+00 -5.1492879856e+00 2.9729428046e+00 5.1492879856e+00 
50200 7.0030261651e+00 -2.9047285418e-02 2.9734344670e+00 -5.1501395698e+00 2.9734344670e+00 5.1501395698e+00 
50300 7.0029857822e+00 -2.8862227794e-02 2.9739229271e+00 -5.1509856075e+00 2.9739229271e+00 5.1509856075e+00 
50400 7.0029460772e+00 -2.8677713344e-02 2.9744081954e+00 -5.1518261169e+00 2.9744081954e+00 5.1518261169e+00 
50500 7.0029070391e+00 -2.8493750817e-02 2.9748902827e+00 -5.1526611166e+00 2.9748902827e+00 5.1526611166e+00 
50600 7.0028686573e+00 -2.8310349194e-02 2.9753691998e+00 -5.1534906253e+00 2.9753691998e+00 5.1534906253e+00 
50700 7.0028309211e+00 -2.8127517662e-02 2.9758449576e+00 -5.1543146620e+00 2.9758449576e+00 5.1543146620e+00 
50800 7.0027938201e+00 -2.7945265586e-02 2.9763175673e+00 -5.1551332460e+00 2.9763175673e+00 5.1551332460e+00 
50900 7.0027573442e+00 -2.7763602482e-02 2.9767870400e+00 -5.1559463966e+00 2.9767870400e+00 5.1559463966e+00 
51000 7.0027214831e+00 -2.7582537994e-02 2.9772533872e+00 -5.1567541337e+00 2.9772533872e+00 5.1567541337e+00 
51100 7.0026862270e+00 -2.7402081864e-02 2.9777166205e+00 -5.1575564772e+00 2.9777166205e+00 5.1575564772e+00 
51200 7.0026515660e+00 -2.7222243913e-02 2.9781767513e+00 -5.1583534472e+00 2.9781767513e+00 5.1583534472e+00 
51300 7.0026174904e+00 -2.7043034012e-02 2.9786337917e+00 -5.1591450644e+00 2.9786337917e+00 5.1591450644e+00 
51400 7.0025839909e+00 -2.6864462065e-02 2.9790877535e+00 -5.1599313493e+00 2.9790877535e+00 5.1599313493e+00 
51500 7.0025510580e+00 -2.6686537978e-02 2.9795386489e+00 -5.1607123231e+00 2.9795386489e+00 5.1607123231e+00 
51600 7.0025186826e+00 -2.6509271648e-02 2.9799864902e+00 -5.1614880069e+00 2.9799864902e+00 5.1614880069e+00 
51700 7.0024868555e+00 -2.6332672933e-02 2.9804312897e+00 -5.1622584222e+00 2.9804312897e+00 5.1622584222e+00 
51800 7.0024555679e+00 -2.6156751637e-02 2.9808730601e+00 -5.1630235909e+00 2.9808730601e+00 5.1630235909e+00 
51900 7.0024248111e+00 -2.5981517489e-02 2.9813118139e+00 -5.1637835350e+00 2.9813118139e+00 5.1637835350e+00 
52000 7.0023945764e+00 -2.5806980126e-02 2.9817475642e+00 -5.1645382766e+00 2.9817475642e+00 5.1645382766e+00 
52100 7.0023648553e+00 -2.5633149073e-02 2.9821803240e+00 -5.1652878384e+00 2.9821803240e+00 5.1652878384e+00 
52200 7.0023356395e+00 -2.5460033728e-02 2.9826101062e+00 -5.1660322432e+00 2.9826101062e+00 5.1660322432e+00 
52300 7.0023069207e+00 -2.5287643344e-02 2.9830369244e+00 -5.1667715138e+00 2.9830369244e+00 5.1667715138e+00 
52400 7.0022786910e+00 -2.5115987016e-02 2.9834607918e+00 -5.1675056737e+00 2.9834607918e+00 5.1675056737e+00 
52500 7.0022509423e+00 -2.4945073665e-02 2.9838817220e+00 -5.1682347463e+00 2.9838817220e+00 5.1682347463e+00 
52600 7.0022236670e+00 -2.4774912024e-02 2.9842997288e+00 -5.1689587553e+00 2.9842997288e+00 5.1689587553e+00 
52700 7.0021968572e+00 -2.4605510627e-02 2.9847148259e+00 -5.1696777246e+00 2.9847148259e+00 5.1696777246e+00 
52800 7.0021705055e+00 -2.4436877795e-02 2.9851270274e+00 -5.1703916785e+00 2.9851270274e+00 5.1703916785e+00 
52900 7.0021446044e+00 -2.4269021625e-02 2.9855363473e+00 -5.1711006413e+00 2.9855363473e+00 5.1711006413e+00 
53000 7.0021191467e+00 -2.4101949979e-02 2.9859427997e+00 -5.1718046376e+00 2.9859427997e+00 5.1718046376e+00 
53100 7.0020941252e+00 -2.3935670477e-02 2.9863463991e+00 -5.1725036923e+00 2.9863463991e+00 5.1725036923e+00 
53200 7.0020695329e+00 -2.3770190485e-02 2.9867471598e+00 -5.1731978302e+00 2.9867471598e+00 5.1731978302e+00 
53300 7.0020453627e+00 -2.3605517106e-02 2.9871450964e+00 -5.1738870765e+00 2.9871450964e+00 5.1738870765e+00 
53400 7.0020216080e+00 -2.3441657176e-02 2.9875402234e+00 -5.1745714567e+00 2.9875402234e+00 5.1745714567e+00 
53500 7.0019982620e+00 -2.3278617255e-02 2.9879325557e+00 -5.1752509961e+00 2.9879325557e+00 5.1752509961e+00 
53600 7.0019753182e+00 -2.3116403620e-02 2.9883221081e+00 -5.1759257206e+00 2.9883221081e+00 5.1759257206e+00 
53700 7.0019527700e+00 -2.2955022263e-02 2.9887088954e+00 -5.1765956559e+00 2.9887088954e+00 5.1765956559e+00 
53800 7.0019306113e+00 -2.2794478883e-02 2.9890929327e+00 -5.1772608280e+00 2.9890929327e+00 5.1772608280e+00 
53900 7.0019088356e+00 -2.2634778882e-02 2.9894742351e+00 -5.1779212631e+00 2.9894742351e+00 5.1779212631e+00 
54000 7.0018874368e+00 -2.2475927365e-02 2.9898528176e+00 -5.1785769873e+00 2.9898528176e+00 5.1785769873e+00 
54100 7.0018664091e+00 -2.2317929132e-02 2.9902286956e+00 -5.1792280271e+00 2.9902286956e+00 5.1792280271e+00 
54200 7.0018457463e+00 -2.2160788683e-02 2.9906018844e+00 -5.1798744089e+00 2.9906018844e+00 5.1798744089e+00 
54300 7.0018254428e+00 -2.2004510208e-02 2.9909723992e+00 -5.1805161594e+00 2.9909723992e+00 5.1805161594e+00 
54400 7.0018054927e+00 -2.1849097593e-02 2.9913402555e+00 -5.1811533052e+00 2.9913402555e+00 5.1811533052e+00 
54500 7.0017858904e+00 -2.1694554418e-02 2.9917054687e+00 -5.1817858732e+00 2.9917054687e+00 5.1817858732e+00 
54600 7.0017666305e+00 -2.1540883953e-02 2.9920680545e+00 -5.1824138900e+00 2.9920680545e+00 5.1824138900e+00 
54700 7.0017477075e+00 -2.1388089165e-02 2.9924280281e+00 -5.1830373827e+00 2.9924280281e+00 5.1830373827e+00 
54800 7.0017291160e+00 -2.1236172715e-02 2.9927854054e+00 -5.1836563783e+00 2.9927854054e+00 5.1836563783e+00 
54900 7.0017108508e+00 -2.1085136962e-02 2.9931402019e+00 -5.1842709038e+00 2.9931402019e+00 5.1842709038e+00 
55000 7.0016929068e+00 -2.0934983962e-02 2.9934924331e+00 -5.1848809862e+00 2.9934924331e+00 5.1848809862e+00 
55100 7.0016752788e+00 -2.0785715474e-02 2.9938421148e+00 -5.1854866527e+00 2.9938421148e+00 5.1854866527e+00 
55200 7.0016579619e+00 -2.0637332963e-02 2.9941892627e+00 -5.1860879304e+00 2.9941892627e+00 5.1860879304e+00 
55300 7.0016409512e+00 -2.0489837600e-02 2.9945338923e+00 -5.1866848465e+00 2.9945338923e+00 5.1866848465e+00 
55400 7.0016242418e+00 -2.0343230270e-02 2.9948760195e+00 -5.1872774281e+00 2.9948760195e+00 5.1872774281e+00 
55500 7.0016078290e+00 -2.0197511574e-02 2.9952156598e+00 -5.1878657025e+00 2.9952156598e+00 5.1878657025e+00 
55600 7.0015917082e+00 -2.0052681833e-02 2.9955528291e+00 -5.1884496967e+00 2.9955528291e+00 5.1884496967e+00 
55700 7.0015758748e+00 -1.9908741095e-02 2.9958875428e+00 -5.1890294379e+00 2.9958875428e+00 5.1890294379e+00 
55800 7.0015603242e+00 -1.9765689137e-02 2.9962198168e+00 -5.1896049533e+00 2.9962198168e+00 5.1896049533e+00 
55900 7.0015450520e+00 -1.9623525476e-02 2.9965496666e+00 -5.1901762700e+00 2.9965496666e+00 5.1901762700e+00 
56000 7.0015300539e+00 -1.9482249368e-02 2.9968771079e+00 -5.1907434150e+00 2.9968771079e+00 5.1907434150e+00 
56100 7.0015153256e+00 -1.9341859818e-02 2.9972021563e+00 -5.1913064153e+00 2.9972021563e+00 5.1913064153e+00 
56200 7.0015008628e+00 -1.9202355587e-02 2.9975248274e+00 -5.1918652979e+00 2.9975248274e+00 5.1918652979e+00 
56300 7.0014866614e+00 -1.9063735195e-02 2.9978451366e+00 -5.1924200898e+00 2.9978451366e+00 5.1924200898e+00 
56400 7.0014727173e+00 -1.8925996930e-02 2.9981630995e+00 -5.1929708178e+00 2.9981630995e+00 5.1929708178e+00 
56500 7.0014590265e+00 -1.8789138856e-02 2.9984787316e+00 -5.1935175085e+00 2.9984787316e+00 5.1935175085e+00 
56600 7.0014455850e+00 -1.8653158815e-02 2.9987920482e+00 -5.1940601889e+00 2.9987920482e+00 5.1940601889e+00 
56700 7.0014323889e+00 -1.8518054441e-02 2.9991030648e+00 -5.1945988854e+00 2.9991030648e+00 5.1945988854e+00 
56800 7.0014194345e+00 -1.8383823160e-02 2.9994117967e+00 -5.1951336247e+00 2.9994117967e+00 5.1951336247e+00 
56900 7.0014067179e+00 -1.8250462203e-02 2.9997182590e+00 -5.1956644330e+00 2.9997182590e+00 5.1956644330e+00 
57000 7.0013942353e+00 -1.8117968610e-02 3.0000224671e+00 -5.1961913369e+00 3.0000224671e+00 5.1961913369e+00 
57100 7.0013819833e+00 -1.7986339241e-02 3.0003244361e+00 -5.1967143624e+00 3.0003244361e+00 5.1967143624e+00 
57200 7.0013699580e+00 -1.7855570778e-02 3.0006241810e+00 -5.1972335358e+00 3.0006241810e+00 5.1972335358e+00 
57300 7.0013581561e+00 -1.7725659738e-02 3.0009217168e+00 -5.1977488831e+00 3.0009217168e+00 5.1977488831e+00 
57400 7.0013465740e+00 -1.7596602476e-02 3.0012170586e+00 -5.1982604300e+00 3.0012170586e+00 5.1982604300e+00 
57500 7.0013352083e+00 -1.7468395198e-02 3.0015102211e+00 -5.1987682024e+00 3.0015102211e+00 5.1987682024e+00 
57600 7.0013240555e+00 -1.7341033962e-02 3.0018012193e+00 -5.1992722260e+00 3.0018012193e+00 5.1992722260e+00 
57700 7.0013131123e+00 -1.7214514692e-02 3.0020900677e+00 -5.1997725262e+00 3.0020900677e+00 5.1997725262e+00 
57800 7.0013023756e+00 -1.7088833180e-02 3.0023767811e+00 -5.2002691283e+00 3.0023767811e+00 5.2002691283e+00 
57900 7.0012918419e+00 -1.6963985097e-02 3.0026613740e+00 -5.2007620577e+00 3.0026613740e+00 5.2007620577e+00 
58000 7.0012815081e+00 -1.6839966001e-02 3.0029438609e+00 -5.2012513394e+00 3.0029438609e+00 5.2012513394e+00 
58100 7.0012713711e+00 -1.6716771340e-02 3.0032242562e+00 -5.2017369983e+00 3.0032242562e+00 5.2017369983e+00 
58200 7.0012614278e+00 -1.6594396464e-02 3.0035025743e+00 -5.2022190593e+00 3.0035025743e+00 5.2022190593e+00 
58300 7.0012516751e+00 -1.6472836629e-02 3.0037788293e+00 -5.2026975470e+00 3.0037788293e+00 5.2026975470e+00 
58400 7.0012421100e+00 -1.6352087006e-02 3.0040530353e+00 -5.2031724858e+00 3.0040530353e+00 5.2031724858e+00 
58500 7.0012327295e+00 -1.6232142687e-02 3.0043252065e+00 -5.2036439001e+00 3.0043252065e+00 5.2036439001e+00 
58600 7.0012235307e+00 -1.6112998694e-02 3.0045953568e+00 -5.2041118142e+00 3.0045953568e+00 5.2041118142e+00 
58700 7.0012145107e+00 -1.5994649981e-02 3.0048635000e+00 -5.2045762519e+00 3.0048635000e+00 5.2045762519e+00 
58800 7.0012056668e+00 -1.5877091446e-02 3.0051296500e+00 -5.2050372371e+00 3.0051296500e+00 5.2050372371e+00 
58900 7.0011969960e+00 -1.5760317935e-02 3.0053938204e+00 -5.2054947936e+00 3.0053938204e+00 5.2054947936e+00 
59000 7.0011884956e+00 -1.5644324247e-02 3.0056560247e+00 -5.2059489449e+00 3.0056560247e+00 5.2059489449e+00 
59100 7.0011801629e+00 -1.5529105144e-02 3.0059162765e+00 -5.2063997143e+00 3.0059162765e+00 5.2063997143e+00 
59200 7.0011719952e+00 -1.5414655352e-02 3.0061745893e+00 -5.2068471250e+00 3.0061745893e+00 5.2068471250e+00 
59300 7.0011639898e+00 -1.5300969573e-02 3.0064309761e+00 -5.2072912001e+00 3.0064309761e+00 5.2072912001e+00 
59400 7.0011561442e+00 -1.5188042485e-02 3.0066854504e+00 -5.2077319624e+00 3.0066854504e+00 5.2077319624e+00 
59500 7.0011484557e+00 -1.5075868750e-02 3.0069380251e+00 -5.2081694347e+00 3.0069380251e+00 5.2081694347e+00 
59600 7.0011409218e+00 -1.4964443023e-02 3.0071887133e+00 -5.2086036394e+00 3.0071887133e+00 5.2086036394e+00 
59700 7.0011335401e+00 -1.4853759949e-02 3.0074375279e+00 -5.2090345990e+00 3.0074375279e+00 5.2090345990e+00 
59800 7.0011263080e+00 -1.4743814175e-02 3.0076844817e+00 -5.2094623355e+00 3.0076844817e+00 5.2094623355e+00 
59900 7.0011192231e+00 -1.4634600352e-02 3.0079295875e+00 -5.2098868711e+00 3.0079295875e+00 5.2098868711e+00 
60000 7.0011122830e+00 -1.4526113142e-02 3.0081728578e+00 -5.2103082276e+00 3.0081728578e+00 5.2103082276e+00 
60100 7.0011054852e+00 -1.4418347218e-02 3.0084143051e+00 -5.2107264267e+00 3.0084143051e+00 5.2107264267e+00 
60200 7.0010988276e+00 -1.4311297273e-02 3.0086539420e+00 -5.2111414899e+00 3.0086539420e+00 5.2111414899e+00 
60300 7.0010923078e+00 -1.4204958023e-02 3.0088917806e+00 -5.2115534386e+00 3.0088917806e+00 5.2115534386e+00 
60400 7.0010859234e+00 -1.4099324207e-02 3.0091278334e+00 -5.2119622939e+00 3.0091278334e+00 5.2119622939e+00 
60500 7.0010796723e+00 -1.3994390597e-02 3.0093621124e+00 -5.2123680770e+00 3.0093621124e+00 5.2123680770e+00 
60600 7.0010735523e+00 -1.3890151996e-02 3.0095946296e+00 -5.2127708086e+00 3.0095946296e+00 5.2127708086e+00 
60700 7.0010675611e+00 -1.3786603248e-02 3.0098253970e+00 -5.2131705096e+00 3.0098253970e+00 5.2131705096e+00 
60800 7.0010616966e+00 -1.3683739232e-02 3.0100544266e+00 -5.2135672004e+00 3.0100544266e+00 5.2135672004e+00 
60900 7.0010559567e+00 -1.3581554873e-02 3.0102817300e+00 -5.2139609014e+00 3.0102817300e+00 5.2139609014e+00 
61000 7.0010503392e+00 -1.3480045143e-02 3.0105073189e+00 -5.2143516329e+00 3.0105073189e+00 5.2143516329e+00 
61100 7.0010448422e+00 -1.3379205059e-02 3.0107312049e+00 -5.2147394149e+00 3.0107312049e+00 5.2147394149e+00 
61200 7.0010394635e+00 -1.3279029692e-02 3.0109533996e+00 -5.2151242674e+00 3.0109533996e+00 5.2151242674e+00 
61300 7.0010342012e+00 -1.3179514165e-02 3.0111739144e+00 -5.2155062101e+00 3.0111739144e+00 5.2155062101e+00 
61400 7.0010290533e+00 -1.3080653658e-02 3.0113927605e+00 -5.2158852627e+00 3.0113927605e+00 5.2158852627e+00 
61500 7.0010240178e+00 -1.2982443407e-02 3.0116099492e+00 -5.2162614446e+00 3.0116099492e+00 5.2162614446e+00 
61600 7.0010190928e+00 -1.2884878707e-02 3.0118254917e+00 -5.2166347751e+00 3.0118254917e+00 5.2166347751e+00 
61700 7.0010142764e+00 -1.2787954914e-02 3.0120393990e+00 -5.2170052735e+00 3.0120393990e+00 5.2170052735e+00 
61800 7.0010095667e+00 -1.2691667448e-02 3.0122516822e+00 -5.2173729587e+00 3.0122516822e+00 5.2173729587e+00 
61900 7.0010049619e+00 -1.2596011790e-02 3.0124623521e+00 -5.2177378497e+00 3.0124623521e+00 5.2177378497e+00 
62000 7.0010004601e+00 -1.2500983487e-02 3.0126714196e+00 -5.2180999652e+00 3.0126714196e+00 5.2180999652e+00 
62100 7.0009960595e+00 -1.2406578152e-02 3.0128788953e+00 -5.2184593238e+00 3.0128788953e+00 5.2184593238e+00 
62200 7.0009917584e+00 -1.2312791463e-02 3.0130847901e+00 -5.2188159440e+00 3.0130847901e+00 5.2188159440e+00 
62300 7.0009875551e+00 -1.2219619166e-02 3.0132891144e+00 -5.2191698441e+00 3.0132891144e+00 5.2191698441e+00 
62400 7.0009834477e+00 -1.2127057075e-02 3.0134918788e+00 -5.2195210423e+00 3.0134918788e+00 5.2195210423e+00 
62500 7.0009794346e+00 -1.2035101072e-02 3.0136930938e+00 -5.2198695569e+00 3.0136930938e+00 5.2198695569e+00 
62600 7.0009755142e+00 -1.1943747106e-02 3.0138927696e+00 -5.2202154056e+00 3.0138927696e+00 5.2202154056e+00 
62700 7.0009716847e+00 -1.1852991195e-02 3.0140909167e+00 -5.2205586063e+00 3.0140909167e+00 5.2205586063e+00 
62800 7.0009679446e+00 -1.1762829428e-02 3.0142875451e+00 -5.2208991767e+00 3.0142875451e+00 5.2208991767e+00 
62900 7.0009642922e+00 -1.1673257958e-02 3.0144826651e+00 -5.2212371345e+00 3.0144826651e+00 5.2212371345e+00 
63000 7.0009607259e+00 -1.1584273008e-02 3.0146762868e+00 -5.2215724971e+00 3.0146762868e+00 5.2215724971e+00 
63100 7.0009572442e+00 -1.1495870871e-02 3.0148684201e+00 -5.2219052817e+00 3.0148684201e+00 5.2219052817e+00 
63200 7.0009538456e+00 -1.1408047904e-02 3.0150590751e+00 -5.2222355058e+00 3.0150590751e+00 5.2222355058e+00 
63300 7.0009505285e+00 -1.1320800532e-02 3.0152482615e+00 -5.2225631864e+00 3.0152482615e+00 5.2225631864e+00 
63400 7.0009472915e+00 -1.1234125246e-02 3.0154359893e+00 -5.2228883405e+00 3.0154359893e+00 5.2228883405e+00 
63500 7.0009441330e+00 -1.1148018603e-02 3.0156222682e+00 -5.2232109849e+00 3.0156222682e+00 5.2232109849e+00 
63600 7.0009410517e+00 -1.1062477224e-02 3.0158071079e+00 -5.2235311366e+00 3.0158071079e+00 5.2235311366e+00 
63700 7.0009380460e+00 -1.0977497793e-02 3.0159905180e+00 -5.2238488122e+00 3.0159905180e+00 5.2238488122e+00 
63800 7.0009351147e+00 -1.0893077058e-02 3.0161725081e+00 -5.2241640283e+00 3.0161725081e+00 5.2241640283e+00 
63900 7.0009322562e+00 -1.0809211827e-02 3.0163530877e+00 -5.2244768014e+00 3.0163530877e+00 5.2244768014e+00 
64000 7.0009294693e+00 -1.0725898969e-02 3.0165322663e+00 -5.2247871479e+00 3.0165322663e+00 5.2247871479e+00 
64100 7.0009267526e+00 -1.0643135413e-02 3.0167100533e+00 -5.2250950840e+00 3.0167100533e+00 5.2250950840e+00 
64200 7.0009241048e+00 -1.0560918145e-02 3.0168864580e+00 -5.2254006260e+00 3.0168864580e+00 5.2254006260e+00 
64300 7.0009215245e+00 -1.0479244208e-02 3.0170614898e+00 -5.2257037899e+00 3.0170614898e+00 5.2257037899e+00 
64400 7.0009190105e+00 -1.0398110699e-02 3.0172351579e+00 -5.2260045918e+00 3.0172351579e+00 5.2260045918e+00 
64500 7.0009165615e+00 -1.0317514771e-02 3.0174074714e+00 -5.2263030476e+00 3.0174074714e+00 5.2263030476e+00 
64600 7.0009141762e+00 -1.0237453627e-02 3.0175784396e+00 -5.2265991732e+00 3.0175784396e+00 5.2265991732e+00 
64700 7.0009118535e+00 -1.0157924523e-02 3.0177480714e+00 -5.2268929842e+00 3.0177480714e+00 5.2268929842e+00 
64800 7.0009095921e+00 -1.0078924762e-02 3.0179163761e+00 -5.2271844963e+00 3.0179163761e+00 5.2271844963e+00 
64900 7.0009073909e+00 -1.0000451696e-02 3.0180833624e+00 -5.2274737252e+00 3.0180833624e+00 5.2274737252e+00 
65000 7.0009052487e+00 -9.9225027232e-03 3.0182490395e+00 -5.2277606863e+00 3.0182490395e+00 5.2277606863e+00 
65100 7.0009031642e+00 -9.8450752849e-03 3.0184134161e+00 -5.2280453950e+00 3.0184134161e+00 5.2280453950e+00 
65200 7.0009011364e+00 -9.7681668660e-03 3.0185765012e+00 -5.2283278666e+00 3.0185765012e+00 5.2283278666e+00 
65300 7.0008991642e+00 -9.6917749926e-03 3.0187383035e+00 -5.2286081165e+00 3.0187383035e+00 5.2286081165e+00 
65400 7.0008972465e+00 -9.6158972297e-03 3.0188988319e+00 -5.2288861597e+00 3.0188988319e+00 5.2288861597e+00 
65500 7.0008953821e+00 -9.5405311803e-03 3.0190580949e+00 -5.2291620114e+00 3.0190580949e+00 5.2291620114e+00 
65600 7.0008935701e+00 -9.4656744831e-03 3.0192161014e+00 -5.2294356867e+00 3.0192161014e+00 5.2294356867e+00 
65700 7.0008918093e+00 -9.3913248110e-03 3.0193728599e+00 -5.2297072004e+00 3.0193728599e+00 5.2297072004e+00 
65800 7.0008900988e+00 -9.3174798697e-03 3.0195283791e+00 -5.2299765674e+00 3.0195283791e+00 5.2299765674e+00 
65900 7.0008884375e+00 -9.2441373956e-03 3.0196826674e+00 -5.2302438026e+00 3.0196826674e+00 5.2302438026e+00 
66000 7.0008868244e+00 -9.1712951539e-03 3.0198357334e+00 -5.2305089208e+00 3.0198357334e+00 5.2305089208e+00 
66100 7.0008852586e+00 -9.0989509377e-03 3.0199875856e+00 -5.2307719364e+00 3.0199875856e+00 5.2307719364e+00 
66200 7.0008837390e+00 -9.0271025654e-03 3.0201382323e+00 -5.2310328643e+00 3.0201382323e+00 5.2310328643e+00 
66300 7.0008822648e+00 -8.9557478798e-03 3.0202876821e+00 -5.2312917188e+00 3.0202876821e+00 5.2312917188e+00 
66400 7.0008808350e+00 -8.8848847459e-03 3.0204359431e+00 -5.2315485145e+00 3.0204359431e+00 5.2315485145e+00 
66500 7.0008794487e+00 -8.8145110494e-03 3.0205830238e+00 -5.2318032657e+00 3.0205830238e+00 5.2318032657e+00 
66600 7.0008781049e+00 -8.7446246954e-03 3.0207289324e+00 -5.2320559869e+00 3.0207289324e+00 5.2320559869e+00 
66700 7.0008768028e+00 -8.6752236064e-03 3.0208736772e+00 -5.2323066922e+00 3.0208736772e+00 5.2323066922e+00 
66800 7.0008755415e+00 -8.6063057208e-03 3.0210172663e+00 -5.2325553958e+00 3.0210172663e+00 5.2325553958e+00 
66900 7.0008743202e+00 -8.5378689917e-03 3.0211597080e+00 -5.2328021120e+00 3.0211597080e+00 5.2328021120e+00 
67000 7.0008731380e+00 -8.4699113848e-03 3.0213010103e+00 -5.2330468547e+00 3.0213010103e+00 5.2330468547e+00 
67100 7.0008719941e+00 -8.4024308777e-03 3.0214411813e+00 -5.2332896381e+00 3.0214411813e+00 5.2332896381e+00 
67200 7.0008708876e+00 -8.3354254575e-03 3.0215802291e+00 -5.2335304759e+00 3.0215802291e+00 5.2335304759e+00 
67300 7.0008698178e+00 -8.2688931204e-03 3.0217181617e+00 -5.2337693822e+00 3.0217181617e+00 5.2337693822e+00 
67400 7.0008687839e+00 -8.2028318695e-03 3.0218549871e+00 -5.2340063708e+00 3.0218549871e+00 5.2340063708e+00 
67500 7.0008677851e+00 -8.1372397138e-03 3.0219907132e+00 -5.2342414553e+00 3.0219907132e+00 5.2342414553e+00 
67600 7.0008668206e+00 -8.0721146670e-03 3.0221253480e+00 -5.2344746495e+00 3.0221253480e+00 5.2344746495e+00 
67700 7.0008658897e+00 -8.0074547460e-03 3.0222588993e+00 -5.2347059671e+00 3.0222588993e+00 5.2347059671e+00 
67800 7.0008649917e+00 -7.9432579700e-03 3.0223913749e+00 -5.2349354217e+00 3.0223913749e+00 5.2349354217e+00 
67900 7.0008641258e+00 -7.8795223588e-03 3.0225227827e+00 -5.2351630266e+00 3.0225227827e+00 5.2351630266e+00 
68000 7.0008632913e+00 -7.8162459322e-03 3.0226531304e+00 -5.2353887955e+00 3.0226531304e+00 5.2353887955e+00 
68100 7.0008624876e+00 -7.7534267086e-03 3.0227824258e+00 -5.2356127417e+00 3.0227824258e+00 5.2356127417e+00 
68200 7.0008617139e+00 -7.6910627039e-03 3.0229106765e+00 -5.2358348785e+00 3.0229106765e+00 5.2358348785e+00 
68300 7.0008609695e+00 -7.6291519307e-03 3.0230378903e+00 -5.2360552192e+00 3.0230378903e+00 5.2360552192e+00 
68400 7.0008602539e+00 -7.5676923974e-03 3.0231640747e+00 -5.2362737770e+00 3.0231640747e+00 5.2362737770e+00 
68500 7.0008595664e+00 -7.5066821067e-03 3.0232892373e+00 -5.2364905651e+00 3.0232892373e+00 5.2364905651e+00 
68600 7.0008589062e+00 -7.4461190556e-03 3.0234133858e+00 -5.2367055965e+00 3.0234133858e+00 5.2367055965e+00 
68700 7.0008582729e+00 -7.3860012339e-03 3.0235365276e+00 -5.2369188843e+00 3.0235365276e+00 5.2369188843e+00 
68800 7.0008576658e+00 -7.3263266234e-03 3.0236586701e+00 -5.2371304414e+00 3.0236586701e+00 5.2371304414e+00 
68900 7.0008570842e+00 -7.2670931978e-03 3.0237798210e+00 -5.2373402808e+00 3.0237798210e+00 5.2373402808e+00 
69000 7.0008565277e+00 -7.2082989213e-03 3.0238999875e+00 -5.2375484153e+00 3.0238999875e+00 5.2375484153e+00 
69100 7.0008559955e+00 -7.1499417483e-03 3.0240191771e+00 -5.2377548577e+00 3.0240191771e+00 5.2377548577e+00 
69200 7.0008554872e+00 -7.0920196228e-03 3.0241373970e+00 -5.2379596207e+00 3.0241373970e+00 5.2379596207e+00 
69300 7.0008550022e+00 -7.0345304777e-03 3.0242546547e+00 -5.2381627169e+00 3.0242546547e+00 5.2381627169e+00 
69400 7.0008545399e+00 -6.9774722343e-03 3.0243709573e+00 -5.2383641590e+00 3.0243709573e+00 5.2383641590e+00 
69500 7.0008540998e+00 -6.9208428020e-03 3.0244863121e+00 -5.2385639594e+00 3.0244863121e+00 5.2385639594e+00 
69600 7.0008536814e+00 -6.8646400778e-03 3.0246007264e+00 -5.2387621307e+00 3.0246007264e+00 5.2387621307e+00 
69700 7.0008532841e+00 -6.8088619457e-03 3.0247142072e+00 -5.2389586852e+00 3.0247142072e+00 5.2389586852e+00 
69800 7.0008529074e+00 -6.7535062767e-03 3.0248267617e+00 -5.2391536354e+00 3.0248267617e+00 5.2391536354e+00 
69900 7.0008525509e+00 -6.6985709283e-03 3.0249383970e+00 -5.2393469933e+00 3.0249383970e+00 5.2393469933e+00 
70000 7.0008522140e+00 -6.6440537443e-03 3.0250491201e+00 -5.2395387714e+00 3.0250491201e+00 5.2395387714e+00 
70100 7.0008518963e+00 -6.5899525545e-03 3.0251589380e+00 -5.2397289817e+00 3.0251589380e+00 5.2397289817e+00 
70200 7.0008515972e+00 -6.5362651747e-03 3.0252678578e+00 -5.2399176362e+00 3.0252678578e+00 5.2399176362e+00 
70300 7.0008513164e+00 -6.4829894064e-03 3.0253758863e+00 -5.2401047471e+00 3.0253758863e+00 5.2401047471e+00 
70400 7.0008510534e+00 -6.4301230368e-03 3.0254830305e+00 -5.2402903263e+00 3.0254830305e+00 5.2402903263e+00 
70500 7.0008508076e+00 -6.3776638387e-03 3.0255892972e+00 -5.2404743856e+00 3.0255892972e+00 5.2404743856e+00 
70600 7.0008505788e+00 -6.3256095706e-03 3.0256946932e+00 -5.2406569368e+00 3.0256946932e+00 5.2406569368e+00 
70700 7.0008503664e+00 -6.2739579765e-03 3.0257992253e+00 -5.2408379918e+00 3.0257992253e+00 5.2408379918e+00 
70800 7.0008501701e+00 -6.2227067860e-03 3.0259029003e+00 -5.2410175621e+00 3.0259029003e+00 5.2410175621e+00 
70900 7.0008499894e+00 -6.1718537148e-03 3.0260057249e+00 -5.2411956594e+00 3.0260057249e+00 5.2411956594e+00 
71000 7.0008498239e+00 -6.1213964640e-03 3.0261077056e+00 -5.2413722953e+00 3.0261077056e+00 5.2413722953e+00 
71100 7.0008496733e+00 -6.0713327211e-03 3.0262088493e+00 -5.2415474812e+00 3.0262088493e+00 5.2415474812e+00 
71200 7.0008495370e+00 -6.0216601596e-03 3.0263091623e+00 -5.2417212286e+00 3.0263091623e+00 5.2417212286e+00 
71300 7.0008494149e+00 -5.9723764396e-03 3.0264086514e+00 -5.2418935487e+00 3.0264086514e+00 5.2418935487e+00 
71400 7.0008493064e+00 -5.9234792078e-03 3.0265073230e+00 -5.2420644528e+00 3.0265073230e+00 5.2420644528e+00 
71500 7.0008492112e+00 -5.8749660979e-03 3.0266051835e+00 -5.2422339522e+00 3.0266051835e+00 5.2422339522e+00 
71600 7.0008491290e+00 -5.8268347306e-03 3.0267022394e+00 -5.2424020580e+00 3.0267022394e+00 5.2424020580e+00 
71700 7.0008490595e+00 -5.7790827145e-03 3.0267984970e+00 -5.2425687811e+00 3.0267984970e+00 5.2425687811e+00 
71800 7.0008490021e+00 -5.7317076460e-03 3.0268939628e+00 -5.2427341327e+00 3.0268939628e+00 5.2427341327e+00 
71900 7.0008489567e+00 -5.6847071098e-03 3.0269886430e+00 -5.2428981236e+00 3.0269886430e+00 5.2428981236e+00 
72000 7.0008489229e+00 -5.6380786793e-03 3.0270825438e+00 -5.2430607646e+00 3.0270825438e+00 5.2430607646e+00 
72100 7.0008489004e+00 -5.5918199171e-03 3.0271756716e+00 -5.2432220666e+00 3.0271756716e+00 5.2432220666e+00 
72200 7.0008488888e+00 -5.5459283751e-03 3.0272680324e+00 -5.2433820402e+00 3.0272680324e+00 5.2433820402e+00 
72300 7.0008488879e+00 -5.5004015957e-03 3.0273596324e+00 -5.2435406961e+00 3.0273596324e+00 5.2435406961e+00 
72400 7.0008488973e+00 -5.4552371113e-03 3.0274504777e+00 -5.2436980448e+00 3.0274504777e+00 5.2436980448e+00 
72500 7.0008489167e+00 -5.4104324456e-03 3.0275405744e+00 -5.2438540969e+00 3.0275405744e+00 5.2438540969e+00 
72600 7.0008489459e+00 -5.3659851137e-03 3.0276299284e+00 -5.2440088626e+00 3.0276299284e+00 5.2440088626e+00 
72700 7.0008489846e+00 -5.3218926229e-03 3.0277185458e+00 -5.2441623523e+00 3.0277185458e+00 5.2441623523e+00 
72800 7.0008490324e+00 -5.2781524728e-03 3.0278064324e+00 -5.2443145764e+00 3.0278064324e+00 5.2443145764e+00 
72900 7.0008490892e+00 -5.2347621564e-03 3.0278935942e+00 -5.2444655450e+00 3.0278935942e+00 5.2444655450e+00 
73000 7.0008491546e+00 -5.1917191602e-03 3.0279800369e+00 -5.2446152682e+00 3.0279800369e+00 5.2446152682e+00 
73100 7.0008492284e+00 -5.1490209652e-03 3.0280657664e+00 -5.2447637560e+00 3.0280657664e+00 5.2447637560e+00 
73200 7.0008493102e+00 -5.1066650471e-03 3.0281507884e+00 -5.2449110184e+00 3.0281507884e+00 5.2449110184e+00 
73300 7.0008494000e+00 -5.0646488770e-03 3.0282351086e+00 -5.2450570654e+00 3.0282351086e+00 5.2450570654e+00 
73400 7.0008494974e+00 -5.0229699223e-03 3.0283187328e+00 -5.2452019067e+00 3.0283187328e+00 5.2452019067e+00 
73500 7.0008496022e+00 -4.9816256468e-03 3.0284016665e+00 -5.2453455521e+00 3.0284016665e+00 5.2453455521e+00 
73600 7.0008497141e+00 -4.9406135118e-03 3.0284839153e+00 -5.2454880112e+00 3.0284839153e+00 5.2454880112e+00 
73700 7.0008498329e+00 -4.8999309765e-03 3.0285654847e+00 -5.2456292936e+00 3.0285654847e+00 5.2456292936e+00 
73800 7.0008499584e+00 -4.8595754985e-03 3.0286463803e+00 -5.2457694089e+00 3.0286463803e+00 5.2457694089e+00 
73900 7.0008500904e+00 -4.8195445346e-03 3.0287266075e+00 -5.2459083665e+00 3.0287266075e+00 5.2459083665e+00 
74000 7.0008502286e+00 -4.7798355415e-03 3.0288061718e+00 -5.2460461758e+00 3.0288061718e+00 5.2460461758e+00 
74100 7.0008503729e+00 -4.7404459762e-03 3.0288850784e+00 -5.2461828460e+00 3.0288850784e+00 5.2461828460e+00 
74200 7.0008505230e+00 -4.7013732968e-03 3.0289633327e+00 -5.2463183865e+00 3.0289633327e+00 5.2463183865e+00 
74300 7.0008506788e+00 -4.6626149630e-03 3.0290409400e+00 -5.2464528063e+00 3.0290409400e+00 5.2464528063e+00 
74400 7.0008508399e+00 -4.6241684371e-03 3.0291179055e+00 -5.2465861145e+00 3.0291179055e+00 5.2465861145e+00 
74500 7.0008510064e+00 -4.5860311839e-03 3.0291942345e+00 -5.2467183201e+00 3.0291942345e+00 5.2467183201e+00 
74600 7.0008511778e+00 -4.5482006721e-03 3.0292699320e+00 -5.2468494321e+00 3.0292699320e+00 5.2468494321e+00 
74700 7.0008513542e+00 -4.5106743744e-03 3.0293450032e+00 -5.2469794592e+00 3.0293450032e+00 5.2469794592e+00 
74800 7.0008515352e+00 -4.4734497683e-03 3.0294194532e+00 -5.2471084103e+00 3.0294194532e+00 5.2471084103e+00 
74900 7.0008517207e+00 -4.4365243369e-03 3.0294932869e+00 -5.2472362942e+00 3.0294932869e+00 5.2472362942e+00 
75000 7.0008519106e+00 -4.3998955690e-03 3.0295665094e+00 -5.2473631193e+00 3.0295665094e+00 5.2473631193e+00 
75100 7.0008521046e+00 -4.3635609602e-03 3.0296391257e+00 -5.2474888942e+00 3.0296391257e+00 5.2474888942e+00 
75200 7.0008523026e+00 -4.3275180133e-03 3.0297111405e+00 -5.2476136276e+00 3.0297111405e+00 5.2476136276e+00 
75300 7.0008525045e+00 -4.2917642387e-03 3.0297825588e+00 -5.2477373277e+00 3.0297825588e+00 5.2477373277e+00 
75400 7.0008527100e+00 -4.2562971554e-03 3.0298533853e+00 -5.2478600028e+00 3.0298533853e+00 5.2478600028e+00 
75500 7.0008529191e+00 -4.2211142911e-03 3.0299236249e+00 -5.2479816614e+00 3.0299236249e+00 5.2479816614e+00 
75600 7.0008531316e+00 -4.1862131831e-03 3.0299932823e+00 -5.2481023115e+00 3.0299932823e+00 5.2481023115e+00 
75700 7.0008533473e+00 -4.1515913786e-03 3.0300623621e+00 -5.2482219613e+00 3.0300623621e+00 5.2482219613e+00 
75800 7.0008535661e+00 -4.1172464356e-03 3.0301308691e+00 -5.2483406188e+00 3.0301308691e+00 5.2483406188e+00 
75900 7.0008537878e+00 -4.0831759228e-03 3.0301988078e+00 -5.2484582921e+00 3.0301988078e+00 5.2484582921e+00 
76000 7.0008540124e+00 -4.0493774208e-03 3.0302661827e+00 -5.2485749889e+00 3.0302661827e+00 5.2485749889e+00 
76100 7.0008542396e+00 -4.0158485222e-03 3.0303329985e+00 -5.2486907173e+00 3.0303329985e+00 5.2486907173e+00 
76200 7.0008544694e+00 -3.9825868322e-03 3.0303992596e+00 -5.2488054848e+00 3.0303992596e+00 5.2488054848e+00 
76300 7.0008547016e+00 -3.9495899689e-03 3.0304649704e+00 -5.2489192993e+00 3.0304649704e+00 5.2489192993e+00 
76400 7.0008549362e+00 -3.9168555641e-03 3.0305301354e+00 -5.2490321684e+00 3.0305301354e+00 5.2490321684e+00 
76500 7.0008551729e+00 -3.8843812636e-03 3.0305947589e+00 -5.2491440996e+00 3.0305947589e+00 5.2491440996e+00 
76600 7.0008554116e+00 -3.8521647275e-03 3.0306588453e+00 -5.2492551004e+00 3.0306588453e+00 5.2492551004e+00 
76700 7.0008556523e+00 -3.8202036309e-03 3.0307223987e+00 -5.2493651783e+00 3.0307223987e+00 5.2493651783e+00 
76800 7.0008558949e+00 -3.7884956640e-03 3.0307854236e+00 -5.2494743405e+00 3.0307854236e+00 5.2494743405e+00 
76900 7.0008561392e+00 -3.7570385326e-03 3.0308479240e+00 -5.2495825945e+00 3.0308479240e+00 5.2495825945e+00 
77000 7.0008563851e+00 -3.7258299588e-03 3.0309099042e+00 -5.2496899473e+00 3.0309099042e+00 5.2496899473e+00 
77100 7.0008566325e+00 -3.6948676809e-03 3.0309713683e+00 -5.2497964063e+00 3.0309713683e+00 5.2497964063e+00 
77200 7.0008568813e+00 -3.6641494541e-03 3.0310323204e+00 -5.2499019783e+00 3.0310323204e+00 5.2499019783e+00 
77300 7.0008571315e+00 -3.6336730505e-03 3.0310927645e+00 -5.2500066706e+00 3.0310927645e+00 5.2500066706e+00 
77400 7.0008573829e+00 -3.6034362599e-03 3.0311527047e+00 -5.2501104901e+00 3.0311527047e+00 5.2501104901e+00 
77500 7.0008576354e+00 -3.5734368895e-03 3.0312121449e+00 -5.2502134436e+00 3.0312121449e+00 5.2502134436e+00 
77600 7.0008578889e+00 -3.5436727650e-03 3.0312710892e+00 -5.2503155379e+00 3.0312710892e+00 5.2503155379e+00 
77700 7.0008581434e+00 -3.5141417299e-03 3.0313295413e+00 -5.2504167800e+00 3.0313295413e+00 5.2504167800e+00 
77800 7.0008583988e+00 -3.4848416468e-03 3.0313875052e+00 -5.2505171764e+00 3.0313875052e+00 5.2505171764e+00 
77900 7.0008586549e+00 -3.4557703967e-03 3.0314449847e+00 -5.2506167338e+00 3.0314449847e+00 5.2506167338e+00 
78000 7.0008589118e+00 -3.4269258800e-03 3.0315019836e+00 -5.2507154588e+00 3.0315019836e+00 5.2507154588e+00 
78100 7.0008591692e+00 -3.3983060163e-03 3.0315585057e+00 -5.2508133579e+00 3.0315585057e+00 5.2508133579e+00 
78200 7.0008594272e+00 -3.3699087445e-03 3.0316145547e+00 -5.2509104376e+00 3.0316145547e+00 5.2509104376e+00 
78300 7.0008596857e+00 -3.3417320236e-03 3.0316701343e+00 -5.2510067043e+00 3.0316701343e+00 5.2510067043e+00 
78400 7.0008599445e+00 -3.3137738322e-03 3.0317252482e+00 -5.2511021644e+00 3.0317252482e+00 5.2511021644e+00 
78500 7.0008602037e+00 -3.2860321691e-03 3.0317798999e+00 -5.2511968241e+00 3.0317798999e+00 5.2511968241e+00 
78600 7.0008604632e+00 -3.2585050531e-03 3.0318340932e+00 -5.2512906896e+00 3.0318340932e+00 5.2512906896e+00 
78700 7.0008607228e+00 -3.2311905236e-03 3.0318878316e+00 -5.2513837671e+00 3.0318878316e+00 5.2513837671e+00 
78800 7.0008609825e+00 -3.2040866403e-03 3.0319411185e+00 -5.2514760628e+00 3.0319411185e+00 5.2514760628e+00 
78900 7.0008612423e+00 -3.1771914835e-03 3.0319939575e+00 -5.2515675826e+00 3.0319939575e+00 5.2515675826e+00 
79000 7.0008615021e+00 -3.1505031541e-03 3.0320463521e+00 -5.2516583327e+00 3.0320463521e+00 5.2516583327e+00 
79100 7.0008617618e+00 -3.1240197738e-03 3.0320983056e+00 -5.2517483189e+00 3.0320983056e+00 5.2517483189e+00 
79200 7.0008620214e+00 -3.0977394853e-03 3.0321498216e+00 -5.2518375472e+00 3.0321498216e+00 5.2518375472e+00 
79300 7.0008622809e+00 -3.0716604517e-03 3.0322009033e+00 -5.2519260233e+00 3.0322009033e+00 5.2519260233e+00 
79400 7.0008625401e+00 -3.0457808575e-03 3.0322515541e+00 -5.2520137531e+00 3.0322515541e+00 5.2520137531e+00 
79500 7.0008627990e+00 -3.0200989079e-03 3.0323017774e+00 -5.2521007423e+00 3.0323017774e+00 5.2521007423e+00 
79600 7.0008630575e+00 -2.9946128289e-03 3.0323515763e+00 -5.2521869965e+00 3.0323515763e+00 5.2521869965e+00 
79700 7.0008633157e+00 -2.9693208678e-03 3.0324009541e+00 -5.2522725215e+00 3.0324009541e+00 5.2522725215e+00 
79800 7.0008635735e+00 -2.9442212927e-03 3.0324499142e+00 -5.2523573228e+00 3.0324499142e+00 5.2523573228e+00 
79900 7.0008638307e+00 -2.9193123925e-03 3.0324984596e+00 -5.2524414058e+00 3.0324984596e+00 5.2524414058e+00 
80000 7.0008640875e+00 -2.8945924771e-03 3.0325465935e+00 -5.2525247762e+00 3.0325465935e+00 5.2525247762e+00 
80100 7.0008643437e+00 -2.8700598773e-03 3.0325943190e+00 -5.2526074393e+00 3.0325943190e+00 5.2526074393e+00 
80200 7.0008645992e+00 -2.8457129446e-03 3.0326416394e+00 -5.2526894005e+00 3.0326416394e+00 5.2526894005e+00 
80300 7.0008648541e+00 -2.8215500514e-03 3.0326885575e+00 -5.2527706652e+00 3.0326885575e+00 5.2527706652e+00 
80400 7.0008651083e+00 -2.7975695905e-03 3.0327350766e+00 -5.2528512386e+00 3.0327350766e+00 5.2528512386e+00 
80500 7.0008653618e+00 -2.7737699755e-03 3.0327811996e+00 -5.2529311260e+00 3.0327811996e+00 5.2529311260e+00 
80600 7.0008656145e+00 -2.7501496403e-03 3.0328269295e+00 -5.2530103325e+00 3.0328269295e+00 5.2530103325e+00 
80700 7.0008658664e+00 -2.7267070393e-03 3.0328722694e+00 -5.2530888634e+00 3.0328722694e+00 5.2530888634e+00 
80800 7.0008661175e+00 -2.7034406472e-03 3.0329172220e+00 -5.2531667237e+00 3.0329172220e+00 5.2531667237e+00 
80900 7.0008663677e+00 -2.6803489587e-03 3.0329617905e+00 -5.2532439185e+00 3.0329617905e+00 5.2532439185e+00 
81000 7.0008666170e+00 -2.6574304885e-03 3.0330059775e+00 -5.2533204528e+00 3.0330059775e+00 5.2533204528e+00 
81100 7.0008668653e+00 -2.6346837713e-03 3.0330497862e+00 -5.2533963316e+00 3.0330497862e+00 5.2533963316e+00 
81200 7.0008671127e+00 -2.6121073614e-03 3.0330932192e+00 -5.2534715597e+00 3.0330932192e+00 5.2534715597e+00 
81300 7.0008673591e+00 -2.5896998327e-03 3.0331362794e+00 -5.2535461422e+00 3.0331362794e+00 5.2535461422e+00 
81400 7.0008676045e+00 -2.5674597784e-03 3.0331789697e+00 -5.2536200839e+00 3.0331789697e+00 5.2536200839e+00 
81500 7.0008678488e+00 -2.5453858111e-03 3.0332212927e+00 -5.2536933895e+00 3.0332212927e+00 5.2536933895e+00 
81600 7.0008680921e+00 -2.5234765623e-03 3.0332632512e+00 -5.2537660639e+00 3.0332632512e+00 5.2537660639e+00 
81700 7.0008683342e+00 -2.5017306823e-03 3.0333048481e+00 -5.2538381117e+00 3.0333048481e+00 5.2538381117e+00 
81800 7.0008685753e+00 -2.4801468404e-03 3.0333460859e+00 -5.2539095376e+00 3.0333460859e+00 5.2539095376e+00 
81900 7.0008688151e+00 -2.4587237239e-03 3.0333869673e+00 -5.2539803464e+00 3.0333869673e+00 5.2539803464e+00 
82000 7.0008690539e+00 -2.4374600386e-03 3.0334274951e+00 -5.2540505426e+00 3.0334274951e+00 5.2540505426e+00 
82100 7.0008692914e+00 -2.4163545085e-03 3.0334676719e+00 -5.2541201308e+00 3.0334676719e+00 5.2541201308e+00 
82200 7.0008695277e+00 -2.3954058753e-03 3.0335075002e+00 -5.2541891155e+00 3.0335075002e+00 5.2541891155e+00 
82300 7.0008697628e+00 -2.3746128982e-03 3.0335469827e+00 -5.2542575012e+00 3.0335469827e+00 5.2542575012e+00 
82400 7.0008699967e+00 -2.3539743540e-03 3.0335861220e+00 -5.2543252925e+00 3.0335861220e+00 5.2543252925e+00 
82500 7.0008702293e+00 -2.3334890365e-03 3.0336249207e+00 -5.2543924937e+00 3.0336249207e+00 5.2543924937e+00 
82600 7.0008704606e+00 -2.3131557567e-03 3.0336633811e+00 -5.2544591092e+00 3.0336633811e+00 5.2544591092e+00 
82700 7.0008706906e+00 -2.2929733420e-03 3.0337015060e+00 -5.2545251434e+00 3.0337015060e+00 5.2545251434e+00 
82800 7.0008709193e+00 -2.2729406365e-03 3.0337392978e+00 -5.2545906007e+00 3.0337392978e+00 5.2545906007e+00 
82900 7.0008711467e+00 -2.2530565005e-03 3.0337767589e+00 -5.2546554852e+00 3.0337767589e+00 5.2546554852e+00 
83000 7.0008713727e+00 -2.2333198102e-03 3.0338138918e+00 -5.2547198014e+00 3.0338138918e+00 5.2547198014e+00 
83100 7.0008715974e+00 -2.2137294575e-03 3.0338506990e+00 -5.2547835533e+00 3.0338506990e+00 5.2547835533e+00 
83200 7.0008718207e+00 -2.1942843499e-03 3.0338871829e+00 -5.2548467453e+00 3.0338871829e+00 5.2548467453e+00 
83300 7.0008720427e+00 -2.1749834102e-03 3.0339233459e+00 -5.2549093814e+00 3.0339233459e+00 5.2549093814e+00 
83400 7.0008722633e+00 -2.1558255760e-03 3.0339591904e+00 -5.2549714659e+00 3.0339591904e+00 5.2549714659e+00 
83500 7.0008724825e+00 -2.1368097997e-03 3.0339947187e+00 -5.2550330027e+00 3.0339947187e+00 5.2550330027e+00 
83600 7.0008727002e+00 -2.1179350482e-03 3.0340299333e+00 -5.2550939961e+00 3.0340299333e+00 5.2550939961e+00 
83700 7.0008729166e+00 -2.0992003027e-03 3.0340648363e+00 -5.2551544500e+00 3.0340648363e+00 5.2551544500e+00 
83800 7.0008731315e+00 -2.0806045582e-03 3.0340994302e+00 -5.2552143684e+00 3.0340994302e+00 5.2552143684e+00 
83900 7.0008733450e+00 -2.0621468234e-03 3.0341337173e+00 -5.2552737554e+00 3.0341337173e+00 5.2552737554e+00 
84000 7.0008735571e+00 -2.0438261206e-03 3.0341676999e+00 -5.2553326148e+00 3.0341676999e+00 5.2553326148e+00 
84100 7.0008737678e+00 -2.0256414852e-03 3.0342013801e+00 -5.2553909507e+00 3.0342013801e+00 5.2553909507e+00 
84200 7.0008739769e+00 -2.0075919655e-03 3.0342347603e+00 -5.2554487669e+00 3.0342347603e+00 5.2554487669e+00 
84300 7.0008741847e+00 -1.9896766225e-03 3.0342678427e+00 -5.2555060673e+00 3.0342678427e+00 5.2555060673e+00 
84400 7.0008743909e+00 -1.9718945296e-03 3.0343006295e+00 -5.2555628558e+00 3.0343006295e+00 5.2555628558e+00 
84500 7.0008745957e+00 -1.9542447722e-03 3.0343331230e+00 -5.2556191361e+00 3.0343331230e+00 5.2556191361e+00 
84600 7.0008747991e+00 -1.9367264479e-03 3.0343653253e+00 -5.2556749121e+00 3.0343653253e+00 5.2556749121e+00 
84700 7.0008750009e+00 -1.9193386657e-03 3.0343972385e+00 -5.2557301875e+00 3.0343972385e+00 5.2557301875e+00 
84800 7.0008752013e+00 -1.9020805461e-03 3.0344288649e+00 -5.2557849660e+00 3.0344288649e+00 5.2557849660e+00 
84900 7.0008754002e+00 -1.8849512205e-03 3.0344602066e+00 -5.2558392514e+00 3.0344602066e+00 5.2558392514e+00 
85000 7.0008755976e+00 -1.8679498316e-03 3.0344912658e+00 -5.2558930474e+00 3.0344912658e+00 5.2558930474e+00 
85100 7.0008757936e+00 -1.8510755323e-03 3.0345220445e+00 -5.2559463577e+00 3.0345220445e+00 5.2559463577e+00 
85200 7.0008759880e+00 -1.8343274862e-03 3.0345525448e+00 -5.2559991858e+00 3.0345525448e+00 5.2559991858e+00 
85300 7.0008761810e+00 -1.8177048667e-03 3.0345827689e+00 -5.2560515354e+00 3.0345827689e+00 5.2560515354e+00 
85400 7.0008763725e+00 -1.8012068574e-03 3.0346127187e+00 -5.2561034102e+00 3.0346127187e+00 5.2561034102e+00 
85500 7.0008765625e+00 -1.7848326514e-03 3.0346423965e+00 -5.2561548135e+00 3.0346423965e+00 5.2561548135e+00 
85600 7.0008767510e+00 -1.7685814512e-03 3.0346718042e+00 -5.2562057491e+00 3.0346718042e+00 5.2562057491e+00 
85700 7.0008769380e+00 -1.7524524686e-03 3.0347009438e+00 -5.2562562204e+00 3.0347009438e+00 5.2562562204e+00 
85800 7.0008771235e+00 -1.7364449241e-03 3.0347298174e+00 -5.2563062310e+00 3.0347298174e+00 5.2563062310e+00 
85900 7.0008773076e+00 -1.7205580470e-03 3.0347584270e+00 -5.2563557843e+00 3.0347584270e+00 5.2563557843e+00 
86000 7.0008774901e+00 -1.7047910752e-03 3.0347867746e+00 -5.2564048837e+00 3.0347867746e+00 5.2564048837e+00 
86100 7.0008776712e+00 -1.6891432547e-03 3.0348148621e+00 -5.2564535327e+00 3.0348148621e+00 5.2564535327e+00 
86200 7.0008778508e+00 -1.6736138397e-03 3.0348426916e+00 -5.2565017348e+00 3.0348426916e+00 5.2565017348e+00 
86300 7.0008780289e+00 -1.6582020919e-03 3.0348702649e+00 -5.2565494933e+00 3.0348702649e+00 5.2565494933e+00 
86400 7.0008782056e+00 -1.6429072809e-03 3.0348975841e+00 -5.2565968115e+00 3.0348975841e+00 5.2565968115e+00 
86500 7.0008783808e+00 -1.6277286834e-03 3.0349246511e+00 -5.2566436929e+00 3.0349246511e+00 5.2566436929e+00 
86600 7.0008785545e+00 -1.6126655836e-03 3.0349514678e+00 -5.2566901407e+00 3.0349514678e+00 5.2566901407e+00 
86700 7.0008787267e+00 -1.5977172724e-03 3.0349780360e+00 -5.2567361583e+00 3.0349780360e+00 5.2567361583e+00 
86800 7.0008788975e+00 -1.5828830475e-03 3.0350043578e+00 -5.2567817489e+00 3.0350043578e+00 5.2567817489e+00 
86900 7.0008790668e+00 -1.5681622132e-03 3.0350304350e+00 -5.2568269159e+00 3.0350304350e+00 5.2568269159e+00 
87000 7.0008792347e+00 -1.5535540803e-03 3.0350562694e+00 -5.2568716624e+00 3.0350562694e+00 5.2568716624e+00 
87100 7.0008794011e+00 -1.5390579654e-03 3.0350818629e+00 -5.2569159917e+00 3.0350818629e+00 5.2569159917e+00 
87200 7.0008795660e+00 -1.5246731914e-03 3.0351072174e+00 -5.2569599070e+00 3.0351072174e+00 5.2569599070e+00 
87300 7.0008797295e+00 -1.5103990870e-03 3.0351323347e+00 -5.2570034115e+00 3.0351323347e+00 5.2570034115e+00 
87400 7.0008798916e+00 -1.4962349864e-03 3.0351572167e+00 -5.2570465083e+00 3.0351572167e+00 5.2570465083e+00 
87500 7.0008800522e+00 -1.4821802292e-03 3.0351818651e+00 -5.2570892006e+00 3.0351818651e+00 5.2570892006e+00 
87600 7.0008802115e+00 -1.4682341604e-03 3.0352062818e+00 -5.2571314916e+00 3.0352062818e+00 5.2571314916e+00 
87700 7.0008803693e+00 -1.4543961301e-03 3.0352304686e+00 -5.2571733843e+00 3.0352304686e+00 5.2571733843e+00 
87800 7.0008805256e+00 -1.4406654932e-03 3.0352544272e+00 -5.2572148818e+00 3.0352544272e+00 5.2572148818e+00 
87900 7.0008806806e+00 -1.4270416096e-03 3.0352781594e+00 -5.2572559872e+00 3.0352781594e+00 5.2572559872e+00 
88000 7.0008808341e+00 -1.4135238435e-03 3.0353016670e+00 -5.2572967036e+00 3.0353016670e+00 5.2572967036e+00 
88100 7.0008809863e+00 -1.4001115639e-03 3.0353249518e+00 -5.2573370340e+00 3.0353249518e+00 5.2573370340e+00 
88200 7.0008811371e+00 -1.3868041440e-03 3.0353480155e+00 -5.2573769814e+00 3.0353480155e+00 5.2573769814e+00 
88300 7.0008812864e+00 -1.3736009611e-03 3.0353708597e+00 -5.2574165489e+00 3.0353708597e+00 5.2574165489e+00 
88400 7.0008814344e+00 -1.3605013966e-03 3.0353934863e+00 -5.2574557393e+00 3.0353934863e+00 5.2574557393e+00 
88500 7.0008815811e+00 -1.3475048357e-03 3.0354158970e+00 -5.2574945557e+00 3.0354158970e+00 5.2574945557e+00 
88600 7.0008817263e+00 -1.3346106675e-03 3.0354380934e+00 -5.2575330010e+00 3.0354380934e+00 5.2575330010e+00 
88700 7.0008818702e+00 -1.3218182848e-03 3.0354600772e+00 -5.2575710781e+00 3.0354600772e+00 5.2575710781e+00 
88800 7.0008820127e+00 -1.3091270836e-03 3.0354818502e+00 -5.2576087900e+00 3.0354818502e+00 5.2576087900e+00 
88900 7.0008821539e+00 -1.2965364636e-03 3.0355034140e+00 -5.2576461396e+00 3.0355034140e+00 5.2576461396e+00 
89000 7.0008822938e+00 -1.2840458277e-03 3.0355247702e+00 -5.2576831296e+00 3.0355247702e+00 5.2576831296e+00 
89100 7.0008824323e+00 -1.2716545817e-03 3.0355459205e+00 -5.2577197631e+00 3.0355459205e+00 5.2577197631e+00 
89200 7.0008825695e+00 -1.2593621349e-03 3.0355668666e+00 -5.2577560428e+00 3.0355668666e+00 5.2577560428e+00 
89300 7.0008827054e+00 -1.2471678991e-03 3.0355876101e+00 -5.2577919715e+00 3.0355876101e+00 5.2577919715e+00 
89400 7.0008828399e+00 -1.2350712893e-03 3.0356081526e+00 -5.2578275521e+00 3.0356081526e+00 5.2578275521e+00 
89500 7.0008829732e+00 -1.2230717230e-03 3.0356284956e+00 -5.2578627874e+00 3.0356284956e+00 5.2578627874e+00 
89600 7.0008831052e+00 -1.2111686204e-03 3.0356486410e+00 -5.2578976801e+00 3.0356486410e+00 5.2578976801e+00 
89700 7.0008832358e+00 -1.1993614044e-03 3.0356685901e+00 -5.2579322329e+00 3.0356685901e+00 5.2579322329e+00 
89800 7.0008833652e+00 -1.1876495001e-03 3.0356883446e+00 -5.2579664487e+00 3.0356883446e+00 5.2579664487e+00 
89900 7.0008834934e+00 -1.1760323353e-03 3.0357079060e+00 -5.2580003302e+00 3.0357079060e+00 5.2580003302e+00 
90000 7.0008836202e+00 -1.1645093399e-03 3.0357272761e+00 -5.2580338800e+00 3.0357272761e+00 5.2580338800e+00 
90100 7.0008837458e+00 -1.1530799460e-03 3.0357464561e+00 -5.2580671009e+00 3.0357464561e+00 5.2580671009e+00 
90200 7.0008838702e+00 -1.1417435880e-03 3.0357654479e+00 -5.2580999956e+00 3.0357654479e+00 5.2580999956e+00 
90300 7.0008839933e+00 -1.1304997022e-03 3.0357842528e+00 -5.2581325666e+00 3.0357842528e+00 5.2581325666e+00 
90400 7.0008841152e+00 -1.1193477272e-03 3.0358028723e+00 -5.2581648167e+00 3.0358028723e+00 5.2581648167e+00 
90500 7.0008842359e+00 -1.1082871034e-03 3.0358213081e+00 -5.2581967484e+00 3.0358213081e+00 5.2581967484e+00 
90600 7.0008843553e+00 -1.0973172729e-03 3.0358395617e+00 -5.2582283644e+00 3.0358395617e+00 5.2582283644e+00 
90700 7.0008844735e+00 -1.0864376799e-03 3.0358576344e+00 -5.2582596673e+00 3.0358576344e+00 5.2582596673e+00 
90800 7.0008845906e+00 -1.0756477704e-03 3.0358755278e+00 -5.2582906597e+00 3.0358755278e+00 5.2582906597e+00 
90900 7.0008847064e+00 -1.0649469919e-03 3.0358932435e+00 -5.2583213440e+00 3.0358932435e+00 5.2583213440e+00 
91000 7.0008848211e+00 -1.0543347937e-03 3.0359107827e+00 -5.2583517230e+00 3.0359107827e+00 5.2583517230e+00 
91100 7.0008849346e+00 -1.0438106269e-03 3.0359281471e+00 -5.2583817990e+00 3.0359281471e+00 5.2583817990e+00 
91200 7.0008850469e+00 -1.0333739440e-03 3.0359453381e+00 -5.2584115746e+00 3.0359453381e+00 5.2584115746e+00 
91300 7.0008851581e+00 -1.0230241990e-03 3.0359623571e+00 -5.2584410524e+00 3.0359623571e+00 5.2584410524e+00 
91400 7.0008852681e+00 -1.0127608477e-03 3.0359792056e+00 -5.2584702348e+00 3.0359792056e+00 5.2584702348e+00 
91500 7.0008853770e+00 -1.0025833471e-03 3.0359958849e+00 -5.2584991242e+00 3.0359958849e+00 5.2584991242e+00 
91600 7.0008854848e+00 -9.9249115583e-04 3.0360123965e+00 -5.2585277232e+00 3.0360123965e+00 5.2585277232e+00 
91700 7.0008855914e+00 -9.8248373389e-04 3.0360287418e+00 -5.2585560341e+00 3.0360287418e+00 5.2585560341e+00 
91800 7.0008856969e+00 -9.7256054268e-04 3.0360449223e+00 -5.2585840594e+00 3.0360449223e+00 5.2585840594e+00 
91900 7.0008858013e+00 -9.6272104497e-04 3.0360609392e+00 -5.2586118015e+00 3.0360609392e+00 5.2586118015e+00 
92000 7.0008859046e+00 -9.5296470490e-04 3.0360767940e+00 -5.2586392628e+00 3.0360767940e+00 5.2586392628e+00 
92100 7.0008860069e+00 -9.4329098795e-04 3.0360924880e+00 -5.2586664457e+00 3.0360924880e+00 5.2586664457e+00 
92200 7.0008861080e+00 -9.3369936090e-04 3.0361080226e+00 -5.2586933525e+00 3.0361080226e+00 5.2586933525e+00 
92300 7.0008862081e+00 -9.2418929185e-04 3.0361233992e+00 -5.2587199855e+00 3.0361233992e+00 5.2587199855e+00 
92400 7.0008863071e+00 -9.1476025019e-04 3.0361386191e+00 -5.2587463472e+00 3.0361386191e+00 5.2587463472e+00 
92500 7.0008864051e+00 -9.0541170657e-04 3.0361536837e+00 -5.2587724397e+00 3.0361536837e+00 5.2587724397e+00 
92600 7.0008865020e+00 -8.9614313295e-04 3.0361685942e+00 -5.2587982655e+00 3.0361685942e+00 5.2587982655e+00 
92700 7.0008865978e+00 -8.8695400252e-04 3.0361833520e+00 -5.2588238268e+00 3.0361833520e+00 5.2588238268e+00 
92800 7.0008866927e+00 -8.7784378975e-04 3.0361979584e+00 -5.2588491258e+00 3.0361979584e+00 5.2588491258e+00 
92900 7.0008867865e+00 -8.6881197036e-04 3.0362124147e+00 -5.2588741649e+00 3.0362124147e+00 5.2588741649e+00 
93000 7.0008868793e+00 -8.5985802132e-04 3.0362267222e+00 -5.2588989462e+00 3.0362267222e+00 5.2588989462e+00 
93100 7.0008869711e+00 -8.5098142087e-04 3.0362408822e+00 -5.2589234720e+00 3.0362408822e+00 5.2589234720e+00 
93200 7.0008870619e+00 -8.4218164850e-04 3.0362548960e+00 -5.2589477445e+00 3.0362548960e+00 5.2589477445e+00 
93300 7.0008871518e+00 -8.3345818496e-04 3.0362687647e+00 -5.2589717659e+00 3.0362687647e+00 5.2589717659e+00 
93400 7.0008872406e+00 -8.2481051226e-04 3.0362824898e+00 -5.2589955384e+00 3.0362824898e+00 5.2589955384e+00 
93500 7.0008873285e+00 -8.1623811369e-04 3.0362960724e+00 -5.2590190642e+00 3.0362960724e+00 5.2590190642e+00 
93600 7.0008874154e+00 -8.0774047383e-04 3.0363095137e+00 -5.2590423453e+00 3.0363095137e+00 5.2590423453e+00 
93700 7.0008875014e+00 -7.9931707851e-04 3.0363228151e+00 -5.2590653839e+00 3.0363228151e+00 5.2590653839e+00 
93800 7.0008875864e+00 -7.9096741491e-04 3.0363359777e+00 -5.2590881822e+00 3.0363359777e+00 5.2590881822e+00 
93900 7.0008876705e+00 -7.8269097149e-04 3.0363490027e+00 -5.2591107422e+00 3.0363490027e+00 5.2591107422e+00 
94000 7.0008877536e+00 -7.7448723802e-04 3.0363618914e+00 -5.2591330661e+00 3.0363618914e+00 5.2591330661e+00 
94100 7.0008878358e+00 -7.6635570564e-04 3.0363746450e+00 -5.2591551559e+00 3.0363746450e+00 5.2591551559e+00 
94200 7.0008879172e+00 -7.5829586681e-04 3.0363872646e+00 -5.2591770137e+00 3.0363872646e+00 5.2591770137e+00 
94300 7.0008879976e+00 -7.5030721538e-04 3.0363997514e+00 -5.2591986415e+00 3.0363997514e+00 5.2591986415e+00 
94400 7.0008880771e+00 -7.4238924655e-04 3.0364121066e+00 -5.2592200413e+00 3.0364121066e+00 5.2592200413e+00 
94500 7.0008881557e+00 -7.3454145696e-04 3.0364243314e+00 -5.2592412153e+00 3.0364243314e+00 5.2592412153e+00 
94600 7.0008882335e+00 -7.2676334464e-04 3.0364364269e+00 -5.2592621653e+00 3.0364364269e+00 5.2592621653e+00 
94700 7.0008883104e+00 -7.1905440907e-04 3.0364483943e+00 -5.2592828934e+00 3.0364483943e+00 5.2592828934e+00 
94800 7.0008883864e+00 -7.1141415116e-04 3.0364602347e+00 -5.2593034016e+00 3.0364602347e+00 5.2593034016e+00 
94900 7.0008884616e+00 -7.0384207333e-04 3.0364719492e+00 -5.2593236918e+00 3.0364719492e+00 5.2593236918e+00 
95000 7.0008885359e+00 -6.9633767947e-04 3.0364835390e+00 -5.2593437659e+00 3.0364835390e+00 5.2593437659e+00 
95100 7.0008886094e+00 -6.8890047500e-04 3.0364950052e+00 -5.2593636259e+00 3.0364950052e+00 5.2593636259e+00 
95200 7.0008886820e+00 -6.8152996689e-04 3.0365063489e+00 -5.2593832738e+00 3.0365063489e+00 5.2593832738e+00 
95300 7.0008887538e+00 -6.7422566365e-04 3.0365175712e+00 -5.2594027113e+00 3.0365175712e+00 5.2594027113e+00 
95400 7.0008888248e+00 -6.6698707538e-04 3.0365286731e+00 -5.2594219405e+00 3.0365286731e+00 5.2594219405e+00 
95500 7.0008888950e+00 -6.5981371380e-04 3.0365396559e+00 -5.2594409631e+00 3.0365396559e+00 5.2594409631e+00 
95600 7.0008889644e+00 -6.5270509225e-04 3.0365505204e+00 -5.2594597811e+00 3.0365505204e+00 5.2594597811e+00 
95700 7.0008890330e+00 -6.4566072572e-04 3.0365612679e+00 -5.2594783963e+00 3.0365612679e+00 5.2594783963e+00 
95800 7.0008891008e+00 -6.3868013090e-04 3.0365718994e+00 -5.2594968105e+00 3.0365718994e+00 5.2594968105e+00 
95900 7.0008891679e+00 -6.3176282616e-04 3.0365824158e+00 -5.2595150256e+00 3.0365824158e+00 5.2595150256e+00 
96000 7.0008892341e+00 -6.2490833161e-04 3.0365928184e+00 -5.2595330433e+00 3.0365928184e+00 5.2595330433e+00 
96100 7.0008892997e+00 -6.1811616911e-04 3.0366031080e+00 -5.2595508655e+00 3.0366031080e+00 5.2595508655e+00 
96200 7.0008893644e+00 -6.1138586228e-04 3.0366132858e+00 -5.2595684939e+00 3.0366132858e+00 5.2595684939e+00 
96300 7.0008894284e+00 -6.0471693657e-04 3.0366233527e+00 -5.2595859303e+00 3.0366233527e+00 5.2595859303e+00 
96400 7.0008894917e+00 -5.9810891923e-04 3.0366333097e+00 -5.2596031764e+00 3.0366333097e+00 5.2596031764e+00 
96500 7.0008895542e+00 -5.9156133937e-04 3.0366431580e+00 -5.2596202341e+00 3.0366431580e+00 5.2596202341e+00 
96600 7.0008896160e+00 -5.8507372798e-04 3.0366528984e+00 -5.2596371049e+00 3.0366528984e+00 5.2596371049e+00 
96700 7.0008896771e+00 -5.7864561795e-04 3.0366625319e+00 -5.2596537907e+00 3.0366625319e+00 5.2596537907e+00 
96800 7.0008897375e+00 -5.7227654408e-04 3.0366720596e+00 -5.2596702931e+00 3.0366720596e+00 5.2596702931e+00 
96900 7.0008897971e+00 -5.6596604311e-04 3.0366814823e+00 -5.2596866138e+00 3.0366814823e+00 5.2596866138e+00 
97000 7.0008898561e+00 -5.5971365380e-04 3.0366908012e+00 -5.2597027545e+00 3.0366908012e+00 5.2597027545e+00 
97100 7.0008899144e+00 -5.5351891687e-04 3.0367000170e+00 -5.2597187168e+00 3.0367000170e+00 5.2597187168e+00 
97200 7.0008899720e+00 -5.4738137504e-04 3.0367091308e+00 -5.2597345024e+00 3.0367091308e+00 5.2597345024e+00 
97300 7.0008900289e+00 -5.4130057313e-04 3.0367181436e+00 -5.2597501129e+00 3.0367181436e+00 5.2597501129e+00 
97400 7.0008900852e+00 -5.3527605797e-04 3.0367270562e+00 -5.2597655500e+00 3.0367270562e+00 5.2597655500e+00 
97500 7.0008901407e+00 -5.2930737853e-04 3.0367358695e+00 -5.2597808152e+00 3.0367358695e+00 5.2597808152e+00 
97600 7.0008901957e+00 -5.2339408585e-04 3.0367445846e+00 -5.2597959102e+00 3.0367445846e+00 5.2597959102e+00 
97700 7.0008902500e+00 -5.1753573315e-04 3.0367532023e+00 -5.2598108365e+00 3.0367532023e+00 5.2598108365e+00 
97800 7.0008903036e+00 -5.1173187576e-04 3.0367617235e+00 -5.2598255956e+00 3.0367617235e+00 5.2598255956e+00 
97900 7.0008903566e+00 -5.0598207122e-04 3.0367701491e+00 -5.2598401892e+00 3.0367701491e+00 5.2598401892e+00 
98000 7.0008904090e+00 -5.0028587927e-04 3.0367784801e+00 -5.2598546188e+00 3.0367784801e+00 5.2598546188e+00 
98100 7.0008904607e+00 -4.9464286187e-04 3.0367867172e+00 -5.2598688859e+00 3.0367867172e+00 5.2598688859e+00 
98200 7.0008905119e+00 -4.8905258320e-04 3.0367948614e+00 -5.2598829921e+00 3.0367948614e+00 5.2598829921e+00 
98300 7.0008905624e+00 -4.8351460973e-04 3.0368029135e+00 -5.2598969387e+00 3.0368029135e+00 5.2598969387e+00 
98400 7.0008906123e+00 -4.7802851020e-04 3.0368108744e+00 -5.2599107275e+00 3.0368108744e+00 5.2599107275e+00 
98500 7.0008906616e+00 -4.7259385566e-04 3.0368187450e+00 -5.2599243597e+00 3.0368187450e+00 5.2599243597e+00 
98600 7.0008907104e+00 -4.6721021947e-04 3.0368265261e+00 -5.2599378369e+00 3.0368265261e+00 5.2599378369e+00 
98700 7.0008907585e+00 -4.6187717732e-04 3.0368342185e+00 -5.2599511605e+00 3.0368342185e+00 5.2599511605e+00 
98800 7.0008908061e+00 -4.5659430729e-04 3.0368418231e+00 -5.2599643321e+00 3.0368418231e+00 5.2599643321e+00 
98900 7.0008908531e+00 -4.5136118980e-04 3.0368493406e+00 -5.2599773529e+00 3.0368493406e+00 5.2599773529e+00 
99000 7.0008908995e+00 -4.4617740767e-04 3.0368567720e+00 -5.2599902245e+00 3.0368567720e+00 5.2599902245e+00 
99100 7.0008909454e+00 -4.4104254614e-04 3.0368641181e+00 -5.2600029482e+00 3.0368641181e+00 5.2600029482e+00 
99200 7.0008909907e+00 -4.3595619284e-04 3.0368713796e+00 -5.2600155255e+00 3.0368713796e+00 5.2600155255e+00 
99300 7.0008910355e+00 -4.3091793787e-04 3.0368785573e+00 -5.2600279577e+00 3.0368785573e+00 5.2600279577e+00 
99400 7.0008910797e+00 -4.2592737377e-04 3.0368856521e+00 -5.2600402461e+00 3.0368856521e+00 5.2600402461e+00 
99500 7.0008911234e+00 -4.2098409554e-04 3.0368926646e+00 -5.2600523923e+00 3.0368926646e+00 5.2600523923e+00 
99600 7.0008911666e+00 -4.1608770067e-04 3.0368995958e+00 -5.2600643974e+00 3.0368995958e+00 5.2600643974e+00 
99700 7.0008912092e+00 -4.1123778913e-04 3.0369064463e+00 -5.2600762629e+00 3.0369064463e+00 5.2600762629e+00 
99800 7.0008912513e+00 -4.0643396340e-04 3.0369132170e+00 -5.2600879900e+00 3.0369132170e+00 5.2600879900e+00 
99900 7.0008912929e+00 -4.0167582848e-04 3.0369199086e+00 -5.2600995802e+00 3.0369199086e+00 5.2600995802e+00 
100000 7.0008913340e+00 -3.9696299190e-04 3.0369265218e+00 -5.2601110346e+00 3.0369265218e+00 5.2601110346e+00 
100100 7.0008913746e+00 -3.9229506370e-04 3.0369330574e+00 -5.2601223546e+00 3.0369330574e+00 5.2601223546e+00 
100200 7.0008914147e+00 -3.8767165650e-04 3.0369395161e+00 -5.2601335414e+00 3.0369395161e+00 5.2601335414e+00 
100300 7.0008914543e+00 -3.8309238548e-04 3.0369458987e+00 -5.2601445964e+00 3.0369458987e+00 5.2601445964e+00 
100400 7.0008914934e+00 -3.7855686835e-04 3.0369522059e+00 -5.2601555208e+00 3.0369522059e+00 5.2601555208e+00 
100500 7.0008915321e+00 -3.7406472543e-04 3.0369584384e+00 -5.2601663159e+00 3.0369584384e+00 5.2601663159e+00 
100600 7.0008915702e+00 -3.6961557959e-04 3.0369645970e+00 -5.2601769828e+00 3.0369645970e+00 5.2601769828e+00 
100700 7.0008916079e+00 -3.6520905633e-04 3.0369706823e+00 -5.2601875228e+00 3.0369706823e+00 5.2601875228e+00 
100800 7.0008916452e+00 -3.6084478370e-04 3.0369766950e+00 -5.2601979371e+00 3.0369766950e+00 5.2601979371e+00 
100900 7.0008916819e+00 -3.5652239239e-04 3.0369826359e+00 -5.2602082270e+00 3.0369826359e+00 5.2602082270e+00 
101000 7.0008917182e+00 -3.5224151565e-04 3.0369885055e+00 -5.2602183936e+00 3.0369885055e+00 5.2602183936e+00 
101100 7.0008917541e+00 -3.4800178940e-04 3.0369943047e+00 -5.2602284381e+00 3.0369943047e+00 5.2602284381e+00 
101200 7.0008917895e+00 -3.4380285212e-04 3.0370000341e+00 -5.2602383617e+00 3.0370000341e+00 5.2602383617e+00 
101300 7.0008918245e+00 -3.3964434493e-04 3.0370056943e+00 -5.2602481655e+00 3.0370056943e+00 5.2602481655e+00 
101400 7.0008918591e+00 -3.3552591158e-04 3.0370112861e+00 -5.2602578507e+00 3.0370112861e+00 5.2602578507e+00 
101500 7.0008918932e+00 -3.3144719843e-04 3.0370168101e+00 -5.2602674185e+00 3.0370168101e+00 5.2602674185e+00 
101600 7.0008919269e+00 -3.2740785448e-04 3.0370222669e+00 -5.2602768699e+00 3.0370222669e+00 5.2602768699e+00 
101700 7.0008919601e+00 -3.2340753133e-04 3.0370276571e+00 -5.2602862061e+00 3.0370276571e+00 5.2602862061e+00 
101800 7.0008919930e+00 -3.1944588323e-04 3.0370329815e+00 -5.2602954283e+00 3.0370329815e+00 5.2602954283e+00 
101900 7.0008920254e+00 -3.1552256704e-04 3.0370382407e+00 -5.2603045375e+00 3.0370382407e+00 5.2603045375e+00 
102000 7.0008920575e+00 -3.1163724227e-04 3.0370434353e+00 -5.2603135347e+00 3.0370434353e+00 5.2603135347e+00 
102100 7.0008920891e+00 -3.0778957103e-04 3.0370485659e+00 -5.2603224212e+00 3.0370485659e+00 5.2603224212e+00 
102200 7.0008921204e+00 -3.0397921807e-04 3.0370536332e+00 -5.2603311979e+00 3.0370536332e+00 5.2603311979e+00 
102300 7.0008921512e+00 -3.0020585075e-04 3.0370586377e+00 -5.2603398660e+00 3.0370586377e+00 5.2603398660e+00 
102400 7.0008921817e+00 -2.9646913906e-04 3.0370635800e+00 -5.2603484264e+00 3.0370635800e+00 5.2603484264e+00 
102500 7.0008922118e+00 -2.9276875559e-04 3.0370684609e+00 -5.2603568803e+00 3.0370684609e+00 5.2603568803e+00 
102600 7.0008922415e+00 -2.8910437557e-04 3.0370732808e+00 -5.2603652287e+00 3.0370732808e+00 5.2603652287e+00 
102700 7.0008922708e+00 -2.8547567680e-04 3.0370780404e+00 -5.2603734725e+00 3.0370780404e+00 5.2603734725e+00 
102800 7.0008922998e+00 -2.8188233971e-04 3.0370827403e+00 -5.2603816129e+00 3.0370827403e+00 5.2603816129e+00 
102900 7.0008923284e+00 -2.7832404732e-04 3.0370873809e+00 -5.2603896508e+00 3.0370873809e+00 5.2603896508e+00 
103000 7.0008923566e+00 -2.7480048525e-04 3.0370919630e+00 -5.2603975872e+00 3.0370919630e+00 5.2603975872e+00 
103100 7.0008923845e+00 -2.7131134170e-04 3.0370964871e+00 -5.2604054231e+00 3.0370964871e+00 5.2604054231e+00 
103200 7.0008924120e+00 -2.6785630744e-04 3.0371009537e+00 -5.2604131596e+00 3.0371009537e+00 5.2604131596e+00 
103300 7.0008924392e+00 -2.6443507584e-04 3.0371053635e+00 -5.2604207974e+00 3.0371053635e+00 5.2604207974e+00 
103400 7.0008924660e+00 -2.6104734279e-04 3.0371097169e+00 -5.2604283378e+00 3.0371097169e+00 5.2604283378e+00 
103500 7.0008924925e+00 -2.5769280679e-04 3.0371140145e+00 -5.2604357815e+00 3.0371140145e+00 5.2604357815e+00 
103600 7.0008925186e+00 -2.5437116885e-04 3.0371182569e+00 -5.2604431295e+00 3.0371182569e+00 5.2604431295e+00 
103700 7.0008925445e+00 -2.5108213253e-04 3.0371224446e+00 -5.2604503828e+00 3.0371224446e+00 5.2604503828e+00 
103800 7.0008925700e+00 -2.4782540394e-04 3.0371265781e+00 -5.2604575424e+00 3.0371265781e+00 5.2604575424e+00 
103900 7.0008925951e+00 -2.4460069169e-04 3.0371306581e+00 -5.2604646090e+00 3.0371306581e+00 5.2604646090e+00 
104000 7.0008926200e+00 -2.4140770690e-04 3.0371346849e+00 -5.2604715837e+00 3.0371346849e+00 5.2604715837e+00 
104100 7.0008926445e+00 -2.3824616321e-04 3.0371386592e+00 -5.2604784673e+00 3.0371386592e+00 5.2604784673e+00 
104200 7.0008926687e+00 -2.3511577673e-04 3.0371425814e+00 -5.2604852608e+00 3.0371425814e+00 5.2604852608e+00 
104300 7.0008926926e+00 -2.3201626606e-04 3.0371464521e+00 -5.2604919650e+00 3.0371464521e+00 5.2604919650e+00 
104400 7.0008927162e+00 -2.2894735228e-04 3.0371502717e+00 -5.2604985808e+00 3.0371502717e+00 5.2604985808e+00 
104500 7.0008927395e+00 -2.2590875889e-04 3.0371540408e+00 -5.2605051091e+00 3.0371540408e+00 5.2605051091e+00 
104600 7.0008927625e+00 -2.2290021188e-04 3.0371577599e+00 -5.2605115508e+00 3.0371577599e+00 5.2605115508e+00 
104700 7.0008927852e+00 -2.1992143963e-04 3.0371614295e+00 -5.2605179066e+00 3.0371614295e+00 5.2605179066e+00 
104800 7.0008928076e+00 -2.1697217296e-04 3.0371650500e+00 -5.2605241776e+00 3.0371650500e+00 5.2605241776e+00 
104900 7.0008928297e+00 -2.1405214511e-04 3.0371686219e+00 -5.2605303644e+00 3.0371686219e+00 5.2605303644e+00 
105000 7.0008928516e+00 -2.1116109167e-04 3.0371721458e+00 -5.2605364679e+00 3.0371721458e+00 5.2605364679e+00 
105100 7.0008928731e+00 -2.0829875066e-04 3.0371756221e+00 -5.2605424890e+00 3.0371756221e+00 5.2605424890e+00 
105200 7.0008928944e+00 -2.0546486242e-04 3.0371790512e+00 -5.2605484284e+00 3.0371790512e+00 5.2605484284e+00 
105300 7.0008929154e+00 -2.0265916966e-04 3.0371824337e+00 -5.2605542871e+00 3.0371824337e+00 5.2605542871e+00 
105400 7.0008929361e+00 -1.9988141744e-04 3.0371857700e+00 -5.2605600657e+00 3.0371857700e+00 5.2605600657e+00 
105500 7.0008929566e+00 -1.9713135312e-04 3.0371890606e+00 -5.2605657652e+00 3.0371890606e+00 5.2605657652e+00 
105600 7.0008929768e+00 -1.9440872637e-04 3.0371923059e+00 -5.2605713862e+00 3.0371923059e+00 5.2605713862e+00 
105700 7.0008929967e+00 -1.9171328916e-04 3.0371955064e+00 -5.2605769296e+00 3.0371955064e+00 5.2605769296e+00 
105800 7.0008930164e+00 -1.8904479574e-04 3.0371986625e+00 -5.2605823961e+00 3.0371986625e+00 5.2605823961e+00 
105900 7.0008930358e+00 -1.8640300260e-04 3.0372017746e+00 -5.2605877865e+00 3.0372017746e+00 5.2605877865e+00 
106000 7.0008930550e+00 -1.8378766850e-04 3.0372048433e+00 -5.2605931016e+00 3.0372048433e+00 5.2605931016e+00 
106100 7.0008930739e+00 -1.8119855440e-04 3.0372078689e+00 -5.2605983421e+00 3.0372078689e+00 5.2605983421e+00 
106200 7.0008930925e+00 -1.7863542351e-04 3.0372108519e+00 -5.2606035088e+00 3.0372108519e+00 5.2606035088e+00 
106300 7.0008931110e+00 -1.7609804121e-04 3.0372137927e+00 -5.2606086023e+00 3.0372137927e+00 5.2606086023e+00 
106400 7.0008931292e+00 -1.7358617505e-04 3.0372166917e+00 -5.2606136236e+00 3.0372166917e+00 5.2606136236e+00 
106500 7.0008931471e+00 -1.7109959478e-04 3.0372195493e+00 -5.2606185732e+00 3.0372195493e+00 5.2606185732e+00 
106600 7.0008931648e+00 -1.6863807227e-04 3.0372223660e+00 -5.2606234519e+00 3.0372223660e+00 5.2606234519e+00 
106700 7.0008931823e+00 -1.6620138153e-04 3.0372251422e+00 -5.2606282604e+00 3.0372251422e+00 5.2606282604e+00 
106800 7.0008931996e+00 -1.6378929867e-04 3.0372278783e+00 -5.2606329994e+00 3.0372278783e+00 5.2606329994e+00 
106900 7.0008932166e+00 -1.6140160190e-04 3.0372305747e+00 -5.2606376696e+00 3.0372305747e+00 5.2606376696e+00 
107000 7.0008932334e+00 -1.5903807153e-04 3.0372332317e+00 -5.2606422718e+00 3.0372332317e+00 5.2606422718e+00 
107100 7.0008932500e+00 -1.5669848991e-04 3.0372358499e+00 -5.2606468065e+00 3.0372358499e+00 5.2606468065e+00 
107200 7.0008932663e+00 -1.5438264142e-04 3.0372384295e+00 -5.2606512746e+00 3.0372384295e+00 5.2606512746e+00 
107300 7.0008932825e+00 -1.5209031251e-04 3.0372409710e+00 -5.2606556766e+00 3.0372409710e+00 5.2606556766e+00 
107400 7.0008932984e+00 -1.4982129159e-04 3.0372434747e+00 -5.2606600132e+00 3.0372434747e+00 5.2606600132e+00 
107500 7.0008933141e+00 -1.4757536910e-04 3.0372459411e+00 -5.2606642851e+00 3.0372459411e+00 5.2606642851e+00 
107600 7.0008933297e+00 -1.4535233742e-04 3.0372483706e+00 -5.2606684930e+00 3.0372483706e+00 5.2606684930e+00 
107700 7.0008933450e+00 -1.4315199091e-04 3.0372507634e+00 -5.2606726375e+00 3.0372507634e+00 5.2606726375e+00 
107800 7.0008933601e+00 -1.4097412587e-04 3.0372531200e+00 -5.2606767193e+00 3.0372531200e+00 5.2606767193e+00 
107900 7.0008933750e+00 -1.3881854049e-04 3.0372554407e+00 -5.2606807389e+00 3.0372554407e+00 5.2606807389e+00 
108000 7.0008933897e+00 -1.3668503489e-04 3.0372577260e+00 -5.2606846971e+00 3.0372577260e+00 5.2606846971e+00 
108100 7.0008934043e+00 -1.3457341106e-04 3.0372599761e+00 -5.2606885945e+00 3.0372599761e+00 5.2606885945e+00 
108200 7.0008934186e+00 -1.3248347287e-04 3.0372621915e+00 -5.2606924316e+00 3.0372621915e+00 5.2606924316e+00 
108300 7.0008934327e+00 -1.3041502602e-04 3.0372643725e+00 -5.2606962092e+00 3.0372643725e+00 5.2606962092e+00 
108400 7.0008934467e+00 -1.2836787804e-04 3.0372665194e+00 -5.2606999277e+00 3.0372665194e+00 5.2606999277e+00 
108500 7.0008934604e+00 -1.2634183831e-04 3.0372686326e+00 -5.2607035879e+00 3.0372686326e+00 5.2607035879e+00 
108600 7.0008934740e+00 -1.2433671794e-04 3.0372707125e+00 -5.2607071904e+00 3.0372707125e+00 5.2607071904e+00 
108700 7.0008934874e+00 -1.2235232988e-04 3.0372727593e+00 -5.2607107356e+00 3.0372727593e+00 5.2607107356e+00 
108800 7.0008935007e+00 -1.2038848880e-04 3.0372747735e+00 -5.2607142243e+00 3.0372747735e+00 5.2607142243e+00 
108900 7.0008935137e+00 -1.1844501111e-04 3.0372767554e+00 -5.2607176569e+00 3.0372767554e+00 5.2607176569e+00 
109000 7.0008935266e+00 -1.1652171497e-04 3.0372787052e+00 -5.2607210342e+00 3.0372787052e+00 5.2607210342e+00 
109100 7.0008935393e+00 -1.1461842023e-04 3.0372806234e+00 -5.2607243566e+00 3.0372806234e+00 5.2607243566e+00 
109200 7.0008935518e+00 -1.1273494842e-04 3.0372825103e+00 -5.2607276247e+00 3.0372825103e+00 5.2607276247e+00 
109300 7.0008935642e+00 -1.1087112274e-04 3.0372843661e+00 -5.2607308392e+00 3.0372843661e+00 5.2607308392e+00 
109400 7.0008935764e+00 -1.0902676807e-04 3.0372861913e+00 -5.2607340004e+00 3.0372861913e+00 5.2607340004e+00 
109500 7.0008935884e+00 -1.0720171088e-04 3.0372879861e+00 -5.2607371091e+00 3.0372879861e+00 5.2607371091e+00 
109600 7.0008936003e+00 -1.0539577929e-04 3.0372897509e+00 -5.2607401658e+00 3.0372897509e+00 5.2607401658e+00 
109700 7.0008936120e+00 -1.0360880302e-04 3.0372914859e+00 -5.2607431710e+00 3.0372914859e+00 5.2607431710e+00 
109800 7.0008936236e+00 -1.0184061336e-04 3.0372931915e+00 -5.2607461252e+00 3.0372931915e+00 5.2607461252e+00 
109900 7.0008936350e+00 -1.0009104317e-04 3.0372948680e+00 -5.2607490290e+00 3.0372948680e+00 5.2607490290e+00 
110000 7.0008936463e+00 -9.8359926845e-05 3.0372965157e+00 -5.2607518829e+00 3.0372965157e+00 5.2607518829e+00 
110100 7.0008936574e+00 -9.6647100341e-05 3.0372981349e+00 -5.2607546874e+00 3.0372981349e+00 5.2607546874e+00 
110200 7.0008936683e+00 -9.4952401106e-05 3.0372997259e+00 -5.2607574431e+00 3.0372997259e+00 5.2607574431e+00 
110300 7.0008936791e+00 -9.3275668091e-05 3.0373012890e+00 -5.2607601505e+00 3.0373012890e+00 5.2607601505e+00 
110400 7.0008936898e+00 -9.1616741728e-05 3.0373028245e+00 -5.2607628100e+00 3.0373028245e+00 5.2607628100e+00 
110500 7.0008937003e+00 -8.9975463915e-05 3.0373043327e+00 -5.2607654223e+00 3.0373043327e+00 5.2607654223e+00 
110600 7.0008937107e+00 -8.8351677997e-05 3.0373058139e+00 -5.2607679878e+00 3.0373058139e+00 5.2607679878e+00 
110700 7.0008937209e+00 -8.6745228748e-05 3.0373072683e+00 -5.2607705069e+00 3.0373072683e+00 5.2607705069e+00 
110800 7.0008937310e+00 -8.5155962361e-05 3.0373086963e+00 -5.2607729803e+00 3.0373086963e+00 5.2607729803e+00 
110900 7.0008937410e+00 -8.3583726427e-05 3.0373100982e+00 -5.2607754083e+00 3.0373100982e+00 5.2607754083e+00 
111000 7.0008937508e+00 -8.2028369920e-05 3.0373114741e+00 -5.2607777916e+00 3.0373114741e+00 5.2607777916e+00 
111100 7.0008937605e+00 -8.0489743176e-05 3.0373128245e+00 -5.2607801304e+00 3.0373128245e+00 5.2607801304e+00 
111200 7.0008937700e+00 -7.8967697897e-05 3.0373141495e+00 -5.2607824254e+00 3.0373141495e+00 5.2607824254e+00 
111300 7.0008937795e+00 -7.7462087103e-05 3.0373154494e+00 -5.2607846770e+00 3.0373154494e+00 5.2607846770e+00 
111400 7.0008937888e+00 -7.5972765148e-05 3.0373167246e+00 -5.2607868857e+00 3.0373167246e+00 5.2607868857e+00 
111500 7.0008937979e+00 -7.4499587680e-05 3.0373179753e+00 -5.2607890519e+00 3.0373179753e+00 5.2607890519e+00 
111600 7.0008938070e+00 -7.3042411651e-05 3.0373192017e+00 -5.2607911761e+00 3.0373192017e+00 5.2607911761e+00 
111700 7.0008938159e+00 -7.1601095279e-05 3.0373204041e+00 -5.2607932587e+00 3.0373204041e+00 5.2607932587e+00 
111800 7.0008938247e+00 -7.0175498040e-05 3.0373215828e+00 -5.2607953003e+00 3.0373215828e+00 5.2607953003e+00 
111900 7.0008938335e+00 -6.9561561016e-05 3.0373215828e+00 -5.2607953003e+00 3.0373215828e+00 5.2607953003e+00 
112000 7.0008938421e+00 -6.8958788302e-05 3.0373215828e+00 -5.2607953003e+00 3.0373215828e+00 5.2607953003e+00 
112100 7.0008938506e+00 -6.8366550425e-05 3.0373215828e+00 -5.2607953003e+00 3.0373215828e+00 5.2607953003e+00 
112200 7.0008938590e+00 -6.7784281904e-05 3.0373215828e+00 -5.2607953003e+00 3.0373215828e+00 5.2607953003e+00 
112300 7.0008938672e+00 -6.7211472555e-05 3.0373215828e+00 -5.2607953003e+00 3.0373215828e+00 5.2607953003e+00 
112400 7.0008938754e+00 -6.6647659864e-05 3.0373215828e+00 -5.2607953003e+00 3.0373215828e+00 5.2607953003e+00 
112500 7.0008938834e+00 -6.6092422374e-05 3.0373215828e+00 -5.2607953003e+00 3.0373215828e+00 5.2607953003e+00 
112600 7.0008938913e+00 -6.5545373874e-05 3.0373215828e+00 -5.2607953003e+00 3.0373215828e+00 5.2607953003e+00 
112700 7.0008938992e+00 -6.5006158354e-05 3.0373215828e+00 -5.2607953003e+00 3.0373215828e+00 5.2607953003e+00 
112800 7.0008939069e+00 -6.4474445625e-05 3.0373215828e+00 -5.2607953003e+00 3.0373215828e+00 5.2607953003e+00 
112900 7.0008939145e+00 -6.3949927478e-05 3.0373215828e+00 -5.2607953003e+00 3.0373215828e+00 5.2607953003e+00 
113000 7.0008939219e+00 -6.3432314397e-05 3.0373215828e+00 -5.2607953003e+00 3.0373215828e+00 5.2607953003e+00 
113100 7.0008939293e+00 -6.2921332685e-05 3.0373215828e+00 -5.2607953003e+00 3.0373215828e+00 5.2607953003e+00 
113200 7.0008939366e+00 -6.2416722003e-05 3.0373215828e+00 -5.2607953003e+00 3.0373215828e+00 5.2607953003e+00 
113300 7.0008939438e+00 -6.1918233248e-05 3.0373215828e+00 -5.2607953003e+00 3.0373215828e+00 5.2607953003e+00 
113400 7.0008939509e+00 -6.1425626723e-05 3.0373215828e+00 -5.2607953003e+00 3.0373215828e+00 5.2607953003e+00 
113500 7.0008939579e+00 -6.0938670600e-05 3.0373215828e+00 -5.2607953003e+00 3.0373215828e+00 5.2607953003e+00 
113600 7.0008939648e+00 -6.0457139609e-05 3.0373215828e+00 -5.2607953003e+00 3.0373215828e+00 5.2607953003e+00 
113700 7.0008939715e+00 -5.9980813913e-05 3.0373215828e+00 -5.2607953003e+00 3.0373215828e+00 5.2607953003e+00 
113800 7.0008939782e+00 -5.9509478201e-05 3.0373215828e+00 -5.2607953003e+00 3.0373215828e+00 5.2607953003e+00 
113900 7.0008939848e+00 -5.9042920912e-05 3.0373215828e+00 -5.2607953003e+00 3.0373215828e+00 5.2607953003e+00 
114000 7.0008939913e+00 -5.8580933601e-05 3.0373215828e+00 -5.2607953003e+00 3.0373215828e+00 5.2607953003e+00 
114100 7.0008939978e+00 -5.8123310440e-05 3.0373215828e+00 -5.2607953003e+00 3.0373215828e+00 5.2607953003e+00 
114200 7.0008940041e+00 -5.7669847805e-05 3.0373215828e+00 -5.2607953003e+00 3.0373215828e+00 5.2607953003e+00 
114300 7.0008940103e+00 -5.7220343970e-05 3.0373215828e+00 -5.2607953003e+00 3.0373215828e+00 5.2607953003e+00 
114400 7.0008940165e+00 -5.6774598869e-05 3.0373215828e+00 -5.2607953003e+00 3.0373215828e+00 5.2607953003e+00 
114500 7.0008940225e+00 -5.6332413933e-05 3.0373215828e+00 -5.2607953003e+00 3.0373215828e+00 5.2607953003e+00 
114600 7.0008940285e+00 -5.5893591983e-05 3.0373215828e+00 -5.2607953003e+00 3.0373215828e+00 5.2607953003e+00 
114700 7.0008940344e+00 -5.5457937165e-05 3.0373215828e+00 -5.2607953003e+00 3.0373215828e+00 5.2607953003e+00 
114800 7.0008940402e+00 -5.5025254941e-05 3.0373215828e+00 -5.2607953003e+00 3.0373215828e+00 5.2607953003e+00 
114900 7.0008940459e+00 -5.4595352112e-05 3.0373215828e+00 -5.2607953003e+00 3.0373215828e+00 5.2607953003e+00 
115000 7.0008940516e+00 -5.4168036860e-05 3.0373215828e+00 -5.2607953003e+00 3.0373215828e+00 5.2607953003e+00 
115100 7.0008940572e+00 -5.3743118822e-05 3.0373215828e+00 -5.2607953003e+00 3.0373215828e+00 5.2607953003e+00 
115200 7.0008940626e+00 -5.3320409198e-05 3.0373215828e+00 -5.2607953003e+00 3.0373215828e+00 5.2607953003e+00 
115300 7.0008940681e+00 -5.2899720840e-05 3.0373215828e+00 -5.2607953003e+00 3.0373215828e+00 5.2607953003e+00 
115400 7.0008940734e+00 -5.2480868392e-05 3.0373215828e+00 -5.2607953003e+00 3.0373215828e+00 5.2607953003e+00 
115500 7.0008940786e+00 -5.2063668418e-05 3.0373215828e+00 -5.2607953003e+00 3.0373215828e+00 5.2607953003e+00 
115600 7.0008940838e+00 -5.1647939541e-05 3.0373215828e+00 -5.2607953003e+00 3.0373215828e+00 5.2607953003e+00 
115700 7.0008940889e+00 -5.1233502580e-05 3.0373215828e+00 -5.2607953003e+00 3.0373215828e+00 5.2607953003e+00 
115800 7.0008940940e+00 -5.0820180707e-05 3.0373215828e+00 -5.2607953003e+00 3.0373215828e+00 5.2607953003e+00 
115900 7.0008940989e+00 -5.0407799590e-05 3.0373215828e+00 -5.2607953003e+00 3.0373215828e+00 5.2607953003e+00 
116000 7.0008941038e+00 -4.9996187539e-05 3.0373215828e+00 -5.2607953003e+00 3.0373215828e+00 5.2607953003e+00 
116100 7.0008941087e+00 -4.9585175640e-05 3.0373215828e+00 -5.2607953003e+00 3.0373215828e+00 5.2607953003e+00 
116200 7.0008941134e+00 -4.9174597915e-05 3.0373215828e+00 -5.2607953003e+00 3.0373215828e+00 5.2607953003e+00 
116300 7.0008941181e+00 -4.8764291444e-05 3.0373215828e+00 -5.2607953003e+00 3.0373215828e+00 5.2607953003e+00 
116400 7.0008941227e+00 -4.8354096499e-05 3.0373215828e+00 -5.2607953003e+00 3.0373215828e+00 5.2607953003e+00 
116500 7.0008941273e+00 -4.7943856670e-05 3.0373215828e+00 -5.2607953003e+00 3.0373215828e+00 5.2607953003e+00 
116600 7.0008941318e+00 -4.7533418990e-05 3.0373215828e+00 -5.2607953003e+00 3.0373215828e+00 5.2607953003e+00 
116700 7.0008941362e+00 -4.7122634038e-05 3.0373215828e+00 -5.2607953003e+00 3.0373215828e+00 5.2607953003e+00 
116800 7.0008941406e+00 -4.6711356054e-05 3.0373215828e+00 -5.2607953003e+00 3.0373215828e+00 5.2607953003e+00 
116900 7.0008941449e+00 -4.6299443025e-05 3.0373215828e+00 -5.2607953003e+00 3.0373215828e+00 5.2607953003e+00 
117000 7.0008941491e+00 -4.5886756789e-05 3.0373215828e+00 -5.2607953003e+00 3.0373215828e+00 5.2607953003e+00 
117100 7.0008941533e+00 -4.5473163110e-05 3.0373215828e+00 -5.2607953003e+00 3.0373215828e+00 5.2607953003e+00 
117200 7.0008941574e+00 -4.5058531755e-05 3.0373215828e+00 -5.2607953003e+00 3.0373215828e+00 5.2607953003e+00 
117300 7.0008941615e+00 -4.4642736567e-05 3.0373215828e+00 -5.2607953003e+00 3.0373215828e+00 5.2607953003e+00 
117400 7.0008941655e+00 -4.4225655516e-05 3.0373215828e+00 -5.2607953003e+00 3.0373215828e+00 5.2607953003e+00 
117500 7.0008941694e+00 -4.3807170750e-05 3.0373215828e+00 -5.2607953003e+00 3.0373215828e+00 5.2607953003e+00 
117600 7.0008941733e+00 -4.3387168657e-05 3.0373215828e+00 -5.2607953003e+00 3.0373215828e+00 5.2607953003e+00 
117700 7.0008941772e+00 -4.2965539878e-05 3.0373215828e+00 -5.2607953003e+00 3.0373215828e+00 5.2607953003e+00 
117800 7.0008941809e+00 -4.2542179353e-05 3.0373215828e+00 -5.2607953003e+00 3.0373215828e+00 5.2607953003e+00 
117900 7.0008941847e+00 -4.2116986340e-05 3.0373215828e+00 -5.2607953003e+00 3.0373215828e+00 5.2607953003e+00 
118000 7.0008941883e+00 -4.1689864425e-05 3.0373215828e+00 -5.2607953003e+00 3.0373215828e+00 5.2607953003e+00 
118100 7.0008941919e+00 -4.1260721539e-05 3.0373215828e+00 -5.2607953003e+00 3.0373215828e+00 5.2607953003e+00 
118200 7.0008941955e+00 -4.0829469953e-05 3.0373215828e+00 -5.2607953003e+00 3.0373215828e+00 5.2607953003e+00 
118300 7.0008941990e+00 -4.0396026277e-05 3.0373215828e+00 -5.2607953003e+00 3.0373215828e+00 5.2607953003e+00 
118400 7.0008942025e+00 -3.9960311450e-05 3.0373215828e+00 -5.2607953003e+00 3.0373215828e+00 5.2607953003e+00 
118500 7.0008942059e+00 -3.9522250717e-05 3.0373215828e+00 -5.2607953003e+00 3.0373215828e+00 5.2607953003e+00 
118600 7.0008942093e+00 -3.9081773614e-05 3.0373215828e+00 -5.2607953003e+00 3.0373215828e+00 5.2607953003e+00 
118700 7.0008942126e+00 -3.8638813946e-05 3.0373215828e+00 -5.2607953003e+00 3.0373215828e+00 5.2607953003e+00 
118800 7.0008942158e+00 -3.8193309736e-05 3.0373215828e+00 -5.2607953003e+00 3.0373215828e+00 5.2607953003e+00 
118900 7.0008942191e+00 -3.7745203202e-05 3.0373215828e+00 -5.2607953003e+00 3.0373215828e+00 5.2607953003e+00 
119000 7.0008942222e+00 -3.7294440709e-05 3.0373215828e+00 -5.2607953003e+00 3.0373215828e+00 5.2607953003e+00 
119100 7.0008942254e+00 -3.6840972724e-05 3.0373215828e+00 -5.2607953003e+00 3.0373215828e+00 5.2607953003e+00 
119200 7.0008942284e+00 -3.6384753766e-05 3.0373215828e+00 -5.2607953003e+00 3.0373215828e+00 5.2607953003e+00 
119300 7.0008942315e+00 -3.5925742342e-05 3.0373215828e+00 -5.2607953003e+00 3.0373215828e+00 5.2607953003e+00 
119400 7.0008942345e+00 -3.5463900903e-05 3.0373215828e+00 -5.2607953003e+00 3.0373215828e+00 5.2607953003e+00 
119500 7.0008942374e+00 -3.4999195769e-05 3.0373215828e+00 -5.2607953003e+00 3.0373215828e+00 5.2607953003e+00 
119600 7.0008942403e+00 -3.4531597067e-05 3.0373215828e+00 -5.2607953003e+00 3.0373215828e+00 5.2607953003e+00 
119700 7.0008942432e+00 -3.4061078667e-05 3.0373215828e+00 -5.2607953003e+00 3.0373215828e+00 5.2607953003e+00 
119800 7.0008942460e+00 -3.3587618108e-05 3.0373215828e+00 -5.2607953003e+00 3.0373215828e+00 5.2607953003e+00 
119900 7.0008942488e+00 -3.3111196515e-05 3.0373215828e+00 -5.2607953003e+00 3.0373215828e+00 5.2607953003e+00 
120000 7.0008942515e+00 -3.2631798543e-05 3.0373215828e+00 -5.2607953003e+00 3.0373215828e+00 5.2607953003e+00 
120100 7.0008942542e+00 -3.2149412277e-05 3.0373215828e+00 -5.2607953003e+00 3.0373215828e+00 5.2607953003e+00 
120200 7.0008942569e+00 -3.1664029166e-05 3.0373215828e+00 -5.2607953003e+00 3.0373215828e+00 5.2607953003e+00 
120300 7.0008942595e+00 -3.1175643941e-05 3.0373215828e+00 -5.2607953003e+00 3.0373215828e+00 5.2607953003e+00 
120400 7.0008942621e+00 -3.0684254520e-05 3.0373215828e+00 -5.2607953003e+00 3.0373215828e+00 5.2607953003e+00 
120500 7.0008942647e+00 -3.0189861935e-05 3.0373215828e+00 -5.2607953003e+00 3.0373215828e+00 5.2607953003e+00 
120600 7.0008942672e+00 -2.9692470235e-05 3.0373215828e+00 -5.2607953003e+00 3.0373215828e+00 5.2607953003e+00 
120700 7.0008942696e+00 -2.9192086416e-05 3.0373215828e+00 -5.2607953003e+00 3.0373215828e+00 5.2607953003e+00 
120800 7.0008942721e+00 -2.8688720320e-05 3.0373215828e+00 -5.2607953003e+00 3.0373215828e+00 5.2607953003e+00 
120900 7.0008942745e+00 -2.8182384546e-05 3.0373215828e+00 -5.2607953003e+00 3.0373215828e+00 5.2607953003e+00 
121000 7.0008942769e+00 -2.7673094369e-05 3.0373215828e+00 -5.2607953003e+00 3.0373215828e+00 5.2607953003e+00 
121100 7.0008942792e+00 -2.7160867647e-05 3.0373215828e+00 -5.2607953003e+00 3.0373215828e+00 5.2607953003e+00 
121200 7.0008942815e+00 -2.6645724733e-05 3.0373215828e+00 -5.2607953003e+00 3.0373215828e+00 5.2607953003e+00 
121300 7.0008942837e+00 -2.6127688386e-05 3.0373215828e+00 -5.2607953003e+00 3.0373215828e+00 5.2607953003e+00 
121400 7.0008942860e+00 -2.5606783677e-05 3.0373215828e+00 -5.2607953003e+00 3.0373215828e+00 5.2607953003e+00 
121500 7.0008942882e+00 -2.5083037913e-05 3.0373215828e+00 -5.2607953003e+00 3.0373215828e+00 5.2607953003e+00 
121600 7.0008942903e+00 -2.4556480534e-05 3.0373215828e+00 -5.2607953003e+00 3.0373215828e+00 5.2607953003e+00 
121700 7.0008942925e+00 -2.4027143033e-05 3.0373215828e+00 -5.2607953003e+00 3.0373215828e+00 5.2607953003e+00 
121800 7.0008942946e+00 -2.3495058867e-05 3.0373215828e+00 -5.2607953003e+00 3.0373215828e+00 5.2607953003e+00 
121900 7.0008942967e+00 -2.2960263372e-05 3.0373215828e+00 -5.2607953003e+00 3.0373215828e+00 5.2607953003e+00 
122000 7.0008942987e+00 -2.2422793677e-05 3.0373215828e+00 -5.2607953003e+00 3.0373215828e+00 5.2607953003e+00 
122100 7.0008943007e+00 -2.1882688612e-05 3.0373215828e+00 -5.2607953003e+00 3.0373215828e+00 5.2607953003e+00 
122200 7.0008943027e+00 -2.1339988637e-05 3.0373215828e+00 -5.2607953003e+00 3.0373215828e+00 5.2607953003e+00 
122300 7.0008943046e+00 -2.0794735751e-05 3.0373215828e+00 -5.2607953003e+00 3.0373215828e+00 5.2607953003e+00 
122400 7.0008943066e+00 -2.0246973410e-05 3.0373215828e+00 -5.2607953003e+00 3.0373215828e+00 5.2607953003e+00 
122500 7.0008943085e+00 -1.9696746451e-05 3.0373215828e+00 -5.2607953003e+00 3.0373215828e+00 5.2607953003e+00 
122600 7.0008943103e+00 -1.9144101007e-05 3.0373215828e+00 -5.2607953003e+00 3.0373215828e+00 5.2607953003e+00 
122700 7.0008943122e+00 -1.8589084434e-05 3.0373215828e+00 -5.2607953003e+00 3.0373215828e+00 5.2607953003e+00 
122800 7.0008943140e+00 -1.8031745235e-05 3.0373215828e+00 -5.2607953003e+00 3.0373215828e+00 5.2607953003e+00 
122900 7.0008943158e+00 -1.7472132976e-05 3.0373215828e+00 -5.2607953003e+00 3.0373215828e+00 5.2607953003e+00 
123000 7.0008943175e+00 -1.6910298232e-05 3.0373215828e+00 -5.2607953003e+00 3.0373215828e+00 5.2607953003e+00 
123100 7.0008943193e+00 -1.6346292491e-05 3.0373215828e+00 -5.2607953003e+00 3.0373215828e+00 5.2607953003e+00 
123200 7.0008943210e+00 -1.5780168097e-05 3.0373215828e+00 -5.2607953003e+00 3.0373215828e+00 5.2607953003e+00 
123300 7.0008943227e+00 -1.5211978189e-05 3.0373215828e+00 -5.2607953003e+00 3.0373215828e+00 5.2607953003e+00 
123400 7.0008943243e+00 -1.4641776609e-05 3.0373215828e+00 -5.2607953003e+00 3.0373215828e+00 5.2607953003e+00 
123500 7.0008943260e+00 -1.4069617865e-05 3.0373215828e+00 -5.2607953003e+00 3.0373215828e+00 5.2607953003e+00 
123600 7.0008943276e+00 -1.3495557042e-05 3.0373215828e+00 -5.2607953003e+00 3.0373215828e+00 5.2607953003e+00 
123700 7.0008943292e+00 -1.2919649769e-05 3.0373215828e+00 -5.2607953003e+00 3.0373215828e+00 5.2607953003e+00 
123800 7.0008943307e+00 -1.2341952126e-05 3.0373215828e+00 -5.2607953003e+00 3.0373215828e+00 5.2607953003e+00 
123900 7.0008943323e+00 -1.1762520606e-05 3.0373215828e+00 -5.2607953003e+00 3.0373215828e+00 5.2607953003e+00 
124000 7.0008943338e+00 -1.1181412052e-05 3.0373215828e+00 -5.2607953003e+00 3.0373215828e+00 5.2607953003e+00 
124100 7.0008943353e+00 -1.0598683605e-05 3.0373215828e+00 -5.2607953003e+00 3.0373215828e+00 5.2607953003e+00 
124200 7.0008943368e+00 -1.0014392649e-05 3.0373215828e+00 -5.2607953003e+00 3.0373215828e+00 5.2607953003e+00 
124300 7.0008943382e+00 -9.4285967551e-06 3.0373215828e+00 -5.2607953003e+00 3.0373215828e+00 5.2607953003e+00 
124400 7.0008943397e+00 -8.8413536375e-06 3.0373215828e+00 -5.2607953003e+00 3.0373215828e+00 5.2607953003e+00 
124500 7.0008943411e+00 -8.2527211021e-06 3.0373215828e+00 -5.2607953003e+00 3.0373215828e+00 5.2607953003e+00 
124600 7.0008943425e+00 -7.6627570017e-06 3.0373215828e+00 -5.2607953003e+00 3.0373215828e+00 5.2607953003e+00 
124700 7.0008943438e+00 -7.0715191939e-06 3.0373215828e+00 -5.2607953003e+00 3.0373215828e+00 5.2607953003e+00 
124800 7.0008943452e+00 -6.4790654846e-06 3.0373215828e+00 -5.2607953003e+00 3.0373215828e+00 5.2607953003e+00 
124900 7.0008943465e+00 -5.8854536071e-06 3.0373215828e+00 -5.2607953003e+00 3.0373215828e+00 5.2607953003e+00 
125000 7.0008943478e+00 -5.2907411668e-06 3.0373215828e+00 -5.2607953003e+00 3.0373215828e+00 5.2607953003e+00 
125100 7.0008943491e+00 -4.6949856080e-06 3.0373215828e+00 -5.2607953003e+00 3.0373215828e+00 5.2607953003e+00 
125200 7.0008943504e+00 -4.0982441775e-06 3.0373215828e+00 -5.2607953003e+00 3.0373215828e+00 5.2607953003e+00 
125300 7.0008943516e+00 -3.5005738908e-06 3.0373215828e+00 -5.2607953003e+00 3.0373215828e+00 5.2607953003e+00 
125400 7.0008943529e+00 -2.9020315018e-06 3.0373215828e+00 -5.2607953003e+00 3.0373215828e+00 5.2607953003e+00 
125500 7.0008943541e+00 -2.3026734583e-06 3.0373215828e+00 -5.2607953003e+00 3.0373215828e+00 5.2607953003e+00 
125600 7.0008943553e+00 -1.7025558900e-06 3.0373215828e+00 -5.2607953003e+00 3.0373215828e+00 5.2607953003e+00 
125700 7.0008943565e+00 -1.1017345608e-06 3.0373215828e+00 -5.2607953003e+00 3.0373215828e+00 5.2607953003e+00 
125800 7.0008943576e+00 -5.0026486411e-07 3.0373215828e+00 -5.2607953003e+00 3.0373215828e+00 5.2607953003e+00 
125900 7.0008943588e+00 1.0179822665e-07 3.0373215828e+00 -5.2607953003e+00 3.0373215828e+00 5.2607953003e+00 
126000 7.0008943599e+00 7.0440016565e-07 3.0373215828e+00 -5.2607953003e+00 3.0373215828e+00 5.2607953003e+00 
126100 7.0008943610e+00 1.3074868665e-06 3.0373215828e+00 -5.2607953003e+00 3.0373215828e+00 5.2607953003e+00 
126200 7.0008943621e+00 1.9110047152e-06 3.0373215828e+00 -5.2607953003e+00 3.0373215828e+00 5.2607953003e+00 
126300 7.0008943632e+00 2.5149006015e-06 3.0373215828e+00 -5.2607953003e+00 3.0373215828e+00 5.2607953003e+00 
126400 7.0008943643e+00 3.1191219300e-06 3.0373215828e+00 -5.2607953003e+00 3.0373215828e+00 5.2607953003e+00 
126500 7.0008943653e+00 3.7236166339e-06 3.0373215828e+00 -5.2607953003e+00 3.0373215828e+00 5.2607953003e+00 
126600 7.0008943663e+00 4.3283332091e-06 3.0373215828e+00 -5.2607953003e+00 3.0373215828e+00 5.2607953003e+00 
126700 7.0008943674e+00 4.9332207058e-06 3.0373215828e+00 -5.2607953003e+00 3.0373215828e+00 5.2607953003e+00 
126800 7.0008943684e+00 5.5382287637e-06 3.0373215828e+00 -5.2607953003e+00 3.0373215828e+00 5.2607953003e+00 
126900 7.0008943693e+00 6.1433076128e-06 3.0373215828e+00 -5.2607953003e+00 3.0373215828e+00 5.2607953003e+00 
127000 7.0008943703e+00 6.7484080897e-06 3.0373215828e+00 -5.2607953003e+00 3.0373215828e+00 5.2607953003e+00 
127100 7.0008943713e+00 7.3534816415e-06 3.0373215828e+00 -5.2607953003e+00 3.0373215828e+00 5.2607953003e+00 
127200 7.0008943722e+00 7.9584803468e-06 3.0373215828e+00 -5.2607953003e+00 3.0373215828e+00 5.2607953003e+00 
127300 7.0008943732e+00 8.5633569192e-06 3.0373215828e+00 -5.2607953003e+00 3.0373215828e+00 5.2607953003e+00 
127400 7.0008943741e+00 9.1680647107e-06 3.0373215828e+00 -5.2607953003e+00 3.0373215828e+00 5.2607953003e+00 
127500 7.0008943750e+00 9.7725577316e-06 3.0373215828e+00 -5.2607953003e+00 3.0373215828e+00 5.2607953003e+00 
127600 7.0008943759e+00 1.0376790637e-05 3.0373215828e+00 -5.2607953003e+00 3.0373215828e+00 5.2607953003e+00 
127700 7.0008943767e+00 1.0980718749e-05 3.0373215828e+00 -5.2607953003e+00 3.0373215828e+00 5.2607953003e+00 
127800 7.0008943776e+00 1.1584298062e-05 3.0373215828e+00 -5.2607953003e+00 3.0373215828e+00 5.2607953003e+00 
127900 7.0008943785e+00 1.2187485228e-05 3.0373215828e+00 -5.2607953003e+00 3.0373215828e+00 5.2607953003e+00 
128000 7.0008943793e+00 1.2790237575e-05 3.0373215828e+00 -5.2607953003e+00 3.0373215828e+00 5.2607953003e+00 
128100 7.0008943801e+00 1.3392513111e-05 3.0373215828e+00 -5.2607953003e+00 3.0373215828e+00 5.2607953003e+00 
128200 7.0008943809e+00 1.3994270513e-05 3.0373215828e+00 -5.2607953003e+00 3.0373215828e+00 5.2607953003e+00 
128300 7.0008943817e+00 1.4595469140e-05 3.0373215828e+00 -5.2607953003e+00 3.0373215828e+00 5.2607953003e+00 
128400 7.0008943825e+00 1.5196069021e-05 3.0373215828e+00 -5.2607953003e+00 3.0373215828e+00 5.2607953003e+00 
128500 7.0008943833e+00 1.5796030873e-05 3.0373215828e+00 -5.2607953003e+00 3.0373215828e+00 5.2607953003e+00 
128600 7.0008943841e+00 1.6395316079e-05 3.0373215828e+00 -5.2607953003e+00 3.0373215828e+00 5.2607953003e+00 
128700 7.0008943848e+00 1.6993886701e-05 3.0373215828e+00 -5.2607953003e+00 3.0373215828e+00 5.2607953003e+00 
128800 7.0008943856e+00 1.7591705471e-05 3.0373215828e+00 -5.2607953003e+00 3.0373215828e+00 5.2607953003e+00 
128900 7.0008943863e+00 1.8188735797e-05 3.0373215828e+00 -5.2607953003e+00 3.0373215828e+00 5.2607953003e+00 
129000 7.0008943870e+00 1.8784941745e-05 3.0373215828e+00 -5.2607953003e+00 3.0373215828e+00 5.2607953003e+00 
129100 7.0008943878e+00 1.9380288050e-05 3.0373215828e+00 -5.2607953003e+00 3.0373215828e+00 5.2607953003e+00 
129200 7.0008943885e+00 1.9974740107e-05 3.0373215828e+00 -5.2607953003e+00 3.0373215828e+00 5.2607953003e+00 
129300 7.0008943891e+00 2.0568263971e-05 3.0373215828e+00 -5.2607953003e+00 3.0373215828e+00 5.2607953003e+00 
129400 7.0008943898e+00 2.1160826339e-05 3.0373215828e+00 -5.2607953003e+00 3.0373215828e+00 5.2607953003e+00 
129500 7.0008943905e+00 2.1752394561e-05 3.0373215828e+00 -5.2607953003e+00 3.0373215828e+00 5.2607953003e+00 
129600 7.0008943912e+00 2.2342936629e-05 3.0373215828e+00 -5.2607953003e+00 3.0373215828e+00 5.2607953003e+00 
129700 7.0008943918e+00 2.2932421170e-05 3.0373215828e+00 -5.2607953003e+00 3.0373215828e+00 5.2607953003e+00 
129800 7.0008943925e+00 2.3520817442e-05 3.0373215828e+00 -5.2607953003e+00 3.0373215828e+00 5.2607953003e+00 
129900 7.0008943931e+00 2.4108095330e-05 3.0373215828e+00 -5.2607953003e+00 3.0373215828e+00 5.2607953003e+00 
130000 7.0008943937e+00 2.4694225333e-05 3.0373215828e+00 -5.2607953003e+00 3.0373215828e+00 5.2607953003e+00 
130100 7.0008943943e+00 2.5279178566e-05 3.0373215828e+00 -5.2607953003e+00 3.0373215828e+00 5.2607953003e+00 
130200 7.0008943949e+00 2.5862926753e-05 3.0373215828e+00 -5.2607953003e+00 3.0373215828e+00 5.2607953003e+00 
130300 7.0008943955e+00 2.6445442212e-05 3.0373215828e+00 -5.2607953003e+00 3.0373215828e+00 5.2607953003e+00 
130400 7.0008943961e+00 2.7026697853e-05 3.0373215828e+00 -5.2607953003e+00 3.0373215828e+00 5.2607953003e+00 
130500 7.0008943967e+00 2.7606667178e-05 3.0373215828e+00 -5.2607953003e+00 3.0373215828e+00 5.2607953003e+00 
130600 7.0008943973e+00 2.8185324267e-05 3.0373215828e+00 -5.2607953003e+00 3.0373215828e+00 5.2607953003e+00 
130700 7.0008943978e+00 2.8762643768e-05 3.0373215828e+00 -5.2607953003e+00 3.0373215828e+00 5.2607953003e+00 
130800 7.0008943984e+00 2.9338600894e-05 3.0373215828e+00 -5.2607953003e+00 3.0373215828e+00 5.2607953003e+00 
130900 7.0008943989e+00 2.9913171419e-05 3.0373215828e+00 -5.2607953003e+00 3.0373215828e+00 5.2607953003e+00 
131000 7.0008943995e+00 3.0486331665e-05 3.0373215828e+00 -5.2607953003e+00 3.0373215828e+00 5.2607953003e+00 
131100 7.0008944000e+00 3.1058058490e-05 3.0373215828e+00 -5.2607953003e+00 3.0373215828e+00 5.2607953003e+00 
131200 7.0008944005e+00 3.1628329300e-05 3.0373215828e+00 -5.2607953003e+00 3.0373215828e+00 5.2607953003e+00 
131300 7.0008944010e+00 3.2197122023e-05 3.0373215828e+00 -5.2607953003e+00 3.0373215828e+00 5.2607953003e+00 
131400 7.0008944015e+00 3.2764415102e-05 3.0373215828e+00 -5.2607953003e+00 3.0373215828e+00 5.2607953003e+00 
131500 7.0008944020e+00 3.3330187503e-05 3.0373215828e+00 -5.2607953003e+00 3.0373215828e+00 5.2607953003e+00 
131600 7.0008944025e+00 3.3894418690e-05 3.0373215828e+00 -5.2607953003e+00 3.0373215828e+00 5.2607953003e+00 
131700 7.0008944030e+00 3.4457088630e-05 3.0373215828e+00 -5.2607953003e+00 3.0373215828e+00 5.2607953003e+00 
131800 7.0008944035e+00 3.5018177777e-05 3.0373215828e+00 -5.2607953003e+00 3.0373215828e+00 5.2607953003e+00 
131900 7.0008944040e+00 3.5577667073e-05 3.0373215828e+00 -5.2607953003e+00 3.0373215828e+00 5.2607953003e+00 
132000 7.0008944044e+00 3.6135537933e-05 3.0373215828e+00 -5.2607953003e+00 3.0373215828e+00 5.2607953003e+00 
132100 7.0008944049e+00 3.6691772238e-05 3.0373215828e+00 -5.2607953003e+00 3.0373215828e+00 5.2607953003e+00 
132200 7.0008944053e+00 3.7246352343e-05 3.0373215828e+00 -5.2607953003e+00 3.0373215828e+00 5.2607953003e+00 
132300 7.0008944058e+00 3.7799261040e-05 3.0373215828e+00 -5.2607953003e+00 3.0373215828e+00 5.2607953003e+00 
132400 7.0008944062e+00 3.8350481586e-05 3.0373215828e+00 -5.2607953003e+00 3.0373215828e+00 5.2607953003e+00 
132500 7.0008944066e+00 3.8899997668e-05 3.0373215828e+00 -5.2607953003e+00 3.0373215828e+00 5.2607953003e+00 
132600 7.0008944071e+00 3.9447793411e-05 3.0373215828e+00 -5.2607953003e+00 3.0373215828e+00 5.2607953003e+00 
132700 7.0008944075e+00 3.9993853366e-05 3.0373215828e+00 -5.2607953003e+00 3.0373215828e+00 5.2607953003e+00 
132800 7.0008944079e+00 4.0538162501e-05 3.0373215828e+00 -5.2607953003e+00 3.0373215828e+00 5.2607953003e+00 
132900 7.0008944083e+00 4.1080706210e-05 3.0373215828e+00 -5.2607953003e+00 3.0373215828e+00 5.2607953003e+00 
133000 7.0008944087e+00 4.1621470276e-05 3.0373215828e+00 -5.2607953003e+00 3.0373215828e+00 5.2607953003e+00 
133100 7.0008944091e+00 4.2160440899e-05 3.0373215828e+00 -5.2607953003e+00 3.0373215828e+00 5.2607953003e+00 
133200 7.0008944095e+00 4.2697604664e-05 3.0373215828e+00 -5.2607953003e+00 3.0373215828e+00 5.2607953003e+00 
133300 7.0008944099e+00 4.3232948545e-05 3.0373215828e+00 -5.2607953003e+00 3.0373215828e+00 5.2607953003e+00 
133400 7.0008944102e+00 4.3766459903e-05 3.0373215828e+00 -5.2607953003e+00 3.0373215828e+00 5.2607953003e+00 
133500 7.0008944106e+00 4.4298126472e-05 3.0373215828e+00 -5.2607953003e+00 3.0373215828e+00 5.2607953003e+00 
133600 7.0008944110e+00 4.4827936350e-05 3.0373215828e+00 -5.2607953003e+00 3.0373215828e+00 5.2607953003e+00 
133700 7.0008944113e+00 4.5355878011e-05 3.0373215828e+00 -5.2607953003e+00 3.0373215828e+00 5.2607953003e+00 
133800 7.0008944117e+00 4.5881940276e-05 3.0373215828e+00 -5.2607953003e+00 3.0373215828e+00 5.2607953003e+00 
133900 7.0008944120e+00 4.6406112327e-05 3.0373215828e+00 -5.2607953003e+00 3.0373215828e+00 5.2607953003e+00 
134000 7.0008944124e+00 4.6928383685e-05 3.0373215828e+00 -5.2607953003e+00 3.0373215828e+00 5.2607953003e+00 
134100 7.0008944127e+00 4.7448744225e-05 3.0373215828e+00 -5.2607953003e+00 3.0373215828e+00 5.2607953003e+00 
134200 7.0008944130e+00 4.7967184145e-05 3.0373215828e+00 -5.2607953003e+00 3.0373215828e+00 5.2607953003e+00 
134300 7.0008944134e+00 4.8483693984e-05 3.0373215828e+00 -5.2607953003e+00 3.0373215828e+00 5.2607953003e+00 
134400 7.0008944137e+00 4.8998264602e-05 3.0373215828e+00 -5.2607953003e+00 3.0373215828e+00 5.2607953003e+00 
134500 7.0008944140e+00 4.9510887179e-05 3.0373215828e+00 -5.2607953003e+00 3.0373215828e+00 5.2607953003e+00 
134600 7.0008944143e+00 5.0021553216e-05 3.0373215828e+00 -5.2607953003e+00 3.0373215828e+00 5.2607953003e+00 
134700 7.0008944146e+00 5.0530254522e-05 3.0373215828e+00 -5.2607953003e+00 3.0373215828e+00 5.2607953003e+00 
134800 7.0008944150e+00 5.1036983209e-05 3.0373215828e+00 -5.2607953003e+00 3.0373215828e+00 5.2607953003e+00 
134900 7.0008944153e+00 5.1541731698e-05 3.0373215828e+00 -5.2607953003e+00 3.0373215828e+00 5.2607953003e+00 
135000 7.0008944156e+00 5.2044492705e-05 3.0373215828e+00 -5.2607953003e+00 3.0373215828e+00 5.2607953003e+00 
135100 7.0008944158e+00 5.2545259235e-05 3.0373215828e+00 -5.2607953003e+00 3.0373215828e+00 5.2607953003e+00 
135200 7.0008944161e+00 5.3044024586e-05 3.0373215828e+00 -5.2607953003e+00 3.0373215828e+00 5.2607953003e+00 
135300 7.0008944164e+00 5.3540782338e-05 3.0373215828e+00 -5.2607953003e+00 3.0373215828e+00 5.2607953003e+00 
135400 7.0008944167e+00 5.4035526348e-05 3.0373215828e+00 -5.2607953003e+00 3.0373215828e+00 5.2607953003e+00 
135500 7.0008944170e+00 5.4528250758e-05 3.0373215828e+00 -5.2607953003e+00 3.0373215828e+00 5.2607953003e+00 
135600 7.0008944172e+00 5.5018949972e-05 3.0373215828e+00 -5.2607953003e+00 3.0373215828e+00 5.2607953003e+00 
135700 7.0008944175e+00 5.5507618666e-05 3.0373215828e+00 -5.2607953003e+00 3.0373215828e+00 5.2607953003e+00 
135800 7.0008944178e+00 5.5994251779e-05 3.0373215828e+00 -5.2607953003e+00 3.0373215828e+00 5.2607953003e+00 
135900 7.0008944180e+00 5.6478844512e-05 3.0373215828e+00 -5.2607953003e+00 3.0373215828e+00 5.2607953003e+00 
136000 7.0008944183e+00 5.6961392317e-05 3.0373215828e+00 -5.2607953003e+00 3.0373215828e+00 5.2607953003e+00 
136100 7.0008944185e+00 5.7441890909e-05 3.0373215828e+00 -5.2607953003e+00 3.0373215828e+00 5.2607953003e+00 
136200 7.0008944188e+00 5.7920336243e-05 3.0373215828e+00 -5.2607953003e+00 3.0373215828e+00 5.2607953003e+00 
136300 7.0008944190e+00 5.8396724521e-05 3.0373215828e+00 -5.2607953003e+00 3.0373215828e+00 5.2607953003e+00 
136400 7.0008944193e+00 5.8871052191e-05 3.0373215828e+00 -5.2607953003e+00 3.0373215828e+00 5.2607953003e+00 
136500 7.0008944195e+00 5.9343315933e-05 3.0373215828e+00 -5.2607953003e+00 3.0373215828e+00 5.2607953003e+00 
136600 7.0008944197e+00 5.9813512672e-05 3.0373215828e+00 -5.2607953003e+00 3.0373215828e+00 5.2607953003e+00 
136700 7.0008944200e+00 6.0281639555e-05 3.0373215828e+00 -5.2607953003e+00 3.0373215828e+00 5.2607953003e+00 
136800 7.0008944202e+00 6.0747693964e-05 3.0373215828e+00 -5.2607953003e+00 3.0373215828e+00 5.2607953003e+00 
136900 7.0008944204e+00 6.1211673505e-05 3.0373215828e+00 -5.2607953003e+00 3.0373215828e+00 5.2607953003e+00 
137000 7.0008944207e+00 6.1673576009e-05 3.0373215828e+00 -5.2607953003e+00 3.0373215828e+00 5.2607953003e+00 
137100 7.0008944209e+00 6.2133399516e-05 3.0373215828e+00 -5.2607953003e+00 3.0373215828e+00 5.2607953003e+00 
137200 7.0008944211e+00 6.2591142298e-05 3.0373215828e+00 -5.2607953003e+00 3.0373215828e+00 5.2607953003e+00 
137300 7.0008944213e+00 6.3046802828e-05 3.0373215828e+00 -5.2607953003e+00 3.0373215828e+00 5.2607953003e+00 
137400 7.0008944215e+00 6.3500379792e-05 3.0373215828e+00 -5.2607953003e+00 3.0373215828e+00 5.2607953003e+00 
137500 7.0008944217e+00 6.3951872088e-05 3.0373215828e+00 -5.2607953003e+00 3.0373215828e+00 5.2607953003e+00 
137600 7.0008944219e+00 6.4401278814e-05 3.0373215828e+00 -5.2607953003e+00 3.0373215828e+00 5.2607953003e+00 
137700 7.0008944221e+00 6.4848599270e-05 3.0373215828e+00 -5.2607953003e+00 3.0373215828e+00 5.2607953003e+00 
137800 7.0008944223e+00 6.5293832954e-05 3.0373215828e+00 -5.2607953003e+00 3.0373215828e+00 5.2607953003e+00 
137900 7.0008944225e+00 6.5736979565e-05 3.0373215828e+00 -5.2607953003e+00 3.0373215828e+00 5.2607953003e+00 
138000 7.0008944227e+00 6.6178038987e-05 3.0373215828e+00 -5.2607953003e+00 3.0373215828e+00 5.2607953003e+00 
138100 7.0008944229e+00 6.6617011298e-05 3.0373215828e+00 -5.2607953003e+00 3.0373215828e+00 5.2607953003e+00 
138200 7.0008944231e+00 6.7053896769e-05 3.0373215828e+00 -5.2607953003e+00 3.0373215828e+00 5.2607953003e+00 
138300 7.0008944232e+00 6.7488695847e-05 3.0373215828e+00 -5.2607953003e+00 3.0373215828e+00 5.2607953003e+00 
138400 7.0008944234e+00 6.7921409169e-05 3.0373215828e+00 -5.2607953003e+00 3.0373215828e+00 5.2607953003e+00 
138500 7.0008944236e+00 6.8352037547e-05 3.0373215828e+00 -5.2607953003e+00 3.0373215828e+00 5.2607953003e+00 
138600 7.0008944238e+00 6.8780581970e-05 3.0373215828e+00 -5.2607953003e+00 3.0373215828e+00 5.2607953003e+00 
138700 7.0008944239e+00 6.9207043602e-05 3.0373215828e+00 -5.2607953003e+00 3.0373215828e+00 5.2607953003e+00 
138800 7.0008944241e+00 6.9631423779e-05 3.0373215828e+00 -5.2607953003e+00 3.0373215828e+00 5.2607953003e+00 
138900 7.0008944243e+00 7.0053724011e-05 3.0373215828e+00 -5.2607953003e+00 3.0373215828e+00 5.2607953003e+00 
139000 7.0008944244e+00 7.0473945965e-05 3.0373215828e+00 -5.2607953003e+00 3.0373215828e+00 5.2607953003e+00 
139100 7.0008944246e+00 7.0892091477e-05 3.0373215828e+00 -5.2607953003e+00 3.0373215828e+00 5.2607953003e+00 
139200 7.0008944247e+00 7.0503691338e-05 3.0373204157e+00 -5.2607932789e+00 3.0373204157e+00 5.2607932789e+00 
139300 7.0008944249e+00 7.0905870986e-05 3.0373204157e+00 -5.2607932789e+00 3.0373204157e+00 5.2607932789e+00 
139400 7.0008944250e+00 7.0501786922e-05 3.0373192485e+00 -5.2607912572e+00 3.0373192485e+00 5.2607912572e+00 
139500 7.0008944251e+00 7.0888825305e-05 3.0373192485e+00 -5.2607912572e+00 3.0373192485e+00 5.2607912572e+00 
139600 7.0008944252e+00 7.0470132941e-05 3.0373180815e+00 -5.2607892360e+00 3.0373180815e+00 5.2607892360e+00 
139700 7.0008944254e+00 7.0842676419e-05 3.0373180815e+00 -5.2607892360e+00 3.0373180815e+00 5.2607892360e+00 
139800 7.0008944255e+00 7.0410280116e-05 3.0373169153e+00 -5.2607872161e+00 3.0373169153e+00 5.2607872161e+00 
139900 7.0008944256e+00 7.0768846210e-05 3.0373169153e+00 -5.2607872161e+00 3.0373169153e+00 5.2607872161e+00 
140000 7.0008944257e+00 7.0323525619e-05 3.0373157503e+00 -5.2607851982e+00 3.0373157503e+00 5.2607851982e+00 
140100 7.0008944258e+00 7.0668540755e-05 3.0373157503e+00 -5.2607851982e+00 3.0373157503e+00 5.2607851982e+00 
140200 7.0008944260e+00 7.1012928953e-05 3.0373157503e+00 -5.2607851982e+00 3.0373157503e+00 5.2607851982e+00 
140300 7.0008944260e+00 7.0550687983e-05 3.0373145813e+00 -5.2607831735e+00 3.0373145813e+00 5.2607831735e+00 
140400 7.0008944262e+00 7.0881553131e-05 3.0373145813e+00 -5.2607831735e+00 3.0373145813e+00 5.2607831735e+00 
140500 7.0008944262e+00 7.0407480796e-05 3.0373134145e+00 -5.2607811524e+00 3.0373134145e+00 5.2607811524e+00 
140600 7.0008944264e+00 7.0725235121e-05 3.0373134145e+00 -5.2607811524e+00 3.0373134145e+00 5.2607811524e+00 
140700 7.0008944264e+00 7.0239999452e-05 3.0373122502e+00 -5.2607791358e+00 3.0373122502e+00 5.2607791358e+00 
140800 7.0008944266e+00 7.0545009727e-05 3.0373122502e+00 -5.2607791358e+00 3.0373122502e+00 5.2607791358e+00 
140900 7.0008944267e+00 7.0849776232e-05 3.0373122502e+00 -5.2607791358e+00 3.0373122502e+00 5.2607791358e+00 
141000 7.0008944267e+00 7.0350137455e-05 3.0373110839e+00 -5.2607771157e+00 3.0373110839e+00 5.2607771157e+00 
141100 7.0008944269e+00 7.0642159152e-05 3.0373110839e+00 -5.2607771157e+00 3.0373110839e+00 5.2607771157e+00 
141200 7.0008944270e+00 7.0933977136e-05 3.0373110839e+00 -5.2607771157e+00 3.0373110839e+00 5.2607771157e+00 
141300 7.0008944270e+00 7.0420489746e-05 3.0373099162e+00 -5.2607750932e+00 3.0373099162e+00 5.2607750932e+00 
141400 7.0008944271e+00 7.0699677880e-05 3.0373099162e+00 -5.2607750932e+00 3.0373099162e+00 5.2607750932e+00 
141500 7.0008944272e+00 7.0978748530e-05 3.0373099162e+00 -5.2607750932e+00 3.0373099162e+00 5.2607750932e+00 
141600 7.0008944273e+00 7.0452102717e-05 3.0373087477e+00 -5.2607730694e+00 3.0373087477e+00 5.2607730694e+00 
141700 7.0008944274e+00 7.0718743865e-05 3.0373087477e+00 -5.2607730694e+00 3.0373087477e+00 5.2607730694e+00 
141800 7.0008944274e+00 7.0182865505e-05 3.0373075836e+00 -5.2607710530e+00 3.0373075836e+00 5.2607710530e+00 
141900 7.0008944276e+00 7.0437601044e-05 3.0373075836e+00 -5.2607710530e+00 3.0373075836e+00 5.2607710530e+00 
142000 7.0008944277e+00 7.0692556801e-05 3.0373075836e+00 -5.2607710530e+00 3.0373075836e+00 5.2607710530e+00 
142100 7.0008944277e+00 7.0947602464e-05 3.0373075836e+00 -5.2607710530e+00 3.0373075836e+00 5.2607710530e+00 
142200 7.0008944278e+00 7.0397512410e-05 3.0373064156e+00 -5.2607690300e+00 3.0373064156e+00 5.2607690300e+00 
142300 7.0008944279e+00 7.0640613918e-05 3.0373064156e+00 -5.2607690300e+00 3.0373064156e+00 5.2607690300e+00 
142400 7.0008944280e+00 7.0883984917e-05 3.0373064156e+00 -5.2607690300e+00 3.0373064156e+00 5.2607690300e+00 
142500 7.0008944280e+00 7.0323121946e-05 3.0373052487e+00 -5.2607670089e+00 3.0373052487e+00 5.2607670089e+00 
142600 7.0008944281e+00 7.0554922974e-05 3.0373052487e+00 -5.2607670089e+00 3.0373052487e+00 5.2607670089e+00 
142700 7.0008944282e+00 7.0787176563e-05 3.0373052487e+00 -5.2607670089e+00 3.0373052487e+00 5.2607670089e+00 
142800 7.0008944282e+00 7.0216477381e-05 3.0373040835e+00 -5.2607649906e+00 3.0373040835e+00 5.2607649906e+00 
142900 7.0008944283e+00 7.0437545511e-05 3.0373040835e+00 -5.2607649906e+00 3.0373040835e+00 5.2607649906e+00 
143000 7.0008944284e+00 7.0659250400e-05 3.0373040835e+00 -5.2607649906e+00 3.0373040835e+00 5.2607649906e+00 
143100 7.0008944285e+00 7.0881488883e-05 3.0373040835e+00 -5.2607649906e+00 3.0373040835e+00 5.2607649906e+00 
143200 7.0008944285e+00 7.0299804815e-05 3.0373029166e+00 -5.2607629695e+00 3.0373029166e+00 5.2607629695e+00 
143300 7.0008944286e+00 7.0511062920e-05 3.0373029166e+00 -5.2607629695e+00 3.0373029166e+00 5.2607629695e+00 
143400 7.0008944287e+00 7.0723092140e-05 3.0373029166e+00 -5.2607629695e+00 3.0373029166e+00 5.2607629695e+00 
143500 7.0008944287e+00 7.0133224200e-05 3.0373017524e+00 -5.2607609530e+00 3.0373017524e+00 5.2607609530e+00 
143600 7.0008944288e+00 7.0334750061e-05 3.0373017524e+00 -5.2607609530e+00 3.0373017524e+00 5.2607609530e+00 
143700 7.0008944289e+00 7.0537260579e-05 3.0373017524e+00 -5.2607609530e+00 3.0373017524e+00 5.2607609530e+00 
143800 7.0008944289e+00 7.0740658390e-05 3.0373017524e+00 -5.2607609530e+00 3.0373017524e+00 5.2607609530e+00 
143900 7.0008944289e+00 7.0142087263e-05 3.0373005878e+00 -5.2607589360e+00 3.0373005878e+00 5.2607589360e+00 
144000 7.0008944290e+00 7.0335246326e-05 3.0373005878e+00 -5.2607589360e+00 3.0373005878e+00 5.2607589360e+00 
144100 7.0008944291e+00 7.0529537209e-05 3.0373005878e+00 -5.2607589360e+00 3.0373005878e+00 5.2607589360e+00 
144200 7.0008944292e+00 7.0724868944e-05 3.0373005878e+00 -5.2607589360e+00 3.0373005878e+00 5.2607589360e+00 
144300 7.0008944292e+00 7.0118568253e-05 3.0372994236e+00 -5.2607569194e+00 3.0372994236e+00 5.2607569194e+00 
144400 7.0008944292e+00 7.0303984186e-05 3.0372994236e+00 -5.2607569194e+00 3.0372994236e+00 5.2607569194e+00 
144500 7.0008944293e+00 7.0490696041e-05 3.0372994236e+00 -5.2607569194e+00 3.0372994236e+00 5.2607569194e+00 
144600 7.0008944294e+00 7.0678614123e-05 3.0372994236e+00 -5.2607569194e+00 3.0372994236e+00 5.2607569194e+00 
144700 7.0008944294e+00 7.0867665035e-05 3.0372994236e+00 -5.2607569194e+00 3.0372994236e+00 5.2607569194e+00 
144800 7.0008944294e+00 7.0253568265e-05 3.0372982569e+00 -5.2607548988e+00 3.0372982569e+00 5.2607548988e+00 
144900 7.0008944295e+00 7.0432903171e-05 3.0372982569e+00 -5.2607548988e+00 3.0372982569e+00 5.2607548988e+00 
145000 7.0008944296e+00 7.0613661016e-05 3.0372982569e+00 -5.2607548988e+00 3.0372982569e+00 5.2607548988e+00 
145100 7.0008944296e+00 7.0795758441e-05 3.0372982569e+00 -5.2607548988e+00 3.0372982569e+00 5.2607548988e+00 
145200 7.0008944296e+00 7.0175720458e-05 3.0372970915e+00 -5.2607528802e+00 3.0372970915e+00 5.2607528802e+00 
145300 7.0008944297e+00 7.0348499512e-05 3.0372970915e+00 -5.2607528802e+00 3.0372970915e+00 5.2607528802e+00 
145400 7.0008944297e+00 7.0522880851e-05 3.0372970915e+00 -5.2607528802e+00 3.0372970915e+00 5.2607528802e+00 
145500 7.0008944298e+00 7.0698773014e-05 3.0372970915e+00 -5.2607528802e+00 3.0372970915e+00 5.2607528802e+00 
145600 7.0008944299e+00 7.0876099248e-05 3.0372970915e+00 -5.2607528802e+00 3.0372970915e+00 5.2607528802e+00 
145700 7.0008944299e+00 7.0250476644e-05 3.0372959247e+00 -5.2607508593e+00 3.0372959247e+00 5.2607508593e+00 
145800 7.0008944299e+00 7.0418672619e-05 3.0372959247e+00 -5.2607508593e+00 3.0372959247e+00 5.2607508593e+00 
145900 7.0008944300e+00 7.0588575386e-05 3.0372959247e+00 -5.2607508593e+00 3.0372959247e+00 5.2607508593e+00 
146000 7.0008944300e+00 7.0760093913e-05 3.0372959247e+00 -5.2607508593e+00 3.0372959247e+00 5.2607508593e+00 
146100 7.0008944300e+00 7.0130147645e-05 3.0372947599e+00 -5.2607488417e+00 3.0372947599e+00 5.2607488417e+00 
146200 7.0008944301e+00 7.0292880457e-05 3.0372947599e+00 -5.2607488417e+00 3.0372947599e+00 5.2607488417e+00 
146300 7.0008944301e+00 7.0457464910e-05 3.0372947599e+00 -5.2607488417e+00 3.0372947599e+00 5.2607488417e+00 
146400 7.0008944302e+00 7.0623799876e-05 3.0372947599e+00 -5.2607488417e+00 3.0372947599e+00 5.2607488417e+00 
146500 7.0008944302e+00 7.0791798683e-05 3.0372947599e+00 -5.2607488417e+00 3.0372947599e+00 5.2607488417e+00 
146600 7.0008944302e+00 7.0158023067e-05 3.0372935945e+00 -5.2607468232e+00 3.0372935945e+00 5.2607468232e+00 
146700 7.0008944302e+00 7.0317334750e-05 3.0372935945e+00 -5.2607468232e+00 3.0372935945e+00 5.2607468232e+00 
146800 7.0008944303e+00 7.0478551889e-05 3.0372935945e+00 -5.2607468232e+00 3.0372935945e+00 5.2607468232e+00 
146900 7.0008944303e+00 7.0641573249e-05 3.0372935945e+00 -5.2607468232e+00 3.0372935945e+00 5.2607468232e+00 
147000 7.0008944304e+00 7.0806311316e-05 3.0372935945e+00 -5.2607468232e+00 3.0372935945e+00 5.2607468232e+00 
147100 7.0008944304e+00 7.0169160812e-05 3.0372924289e+00 -5.2607448043e+00 3.0372924289e+00 5.2607448043e+00 
147200 7.0008944304e+00 7.0325310227e-05 3.0372924289e+00 -5.2607448043e+00 3.0372924289e+00 5.2607448043e+00 
147300 7.0008944304e+00 7.0483412307e-05 3.0372924289e+00 -5.2607448043e+00 3.0372924289e+00 5.2607448043e+00 
147400 7.0008944305e+00 7.0643363094e-05 3.0372924289e+00 -5.2607448043e+00 3.0372924289e+00 5.2607448043e+00 
147500 7.0008944305e+00 7.0805072099e-05 3.0372924289e+00 -5.2607448043e+00 3.0372924289e+00 5.2607448043e+00 
147600 7.0008944305e+00 7.0164944016e-05 3.0372912633e+00 -5.2607427854e+00 3.0372912633e+00 5.2607427854e+00 
147700 7.0008944305e+00 7.0318137816e-05 3.0372912633e+00 -5.2607427854e+00 3.0372912633e+00 5.2607427854e+00 
147800 7.0008944306e+00 7.0473315768e-05 3.0372912633e+00 -5.2607427854e+00 3.0372912633e+00 5.2607427854e+00 
147900 7.0008944306e+00 7.0630370376e-05 3.0372912633e+00 -5.2607427854e+00 3.0372912633e+00 5.2607427854e+00 
148000 7.0008944307e+00 7.0789207574e-05 3.0372912633e+00 -5.2607427854e+00 3.0372912633e+00 5.2607427854e+00 
148100 7.0008944306e+00 7.0146407631e-05 3.0372900980e+00 -5.2607407670e+00 3.0372900980e+00 5.2607407670e+00 
148200 7.0008944307e+00 7.0296770277e-05 3.0372900980e+00 -5.2607407670e+00 3.0372900980e+00 5.2607407670e+00 
148300 7.0008944307e+00 7.0449130693e-05 3.0372900980e+00 -5.2607407670e+00 3.0372900980e+00 5.2607407670e+00 
148400 7.0008944307e+00 7.0603377937e-05 3.0372900980e+00 -5.2607407670e+00 3.0372900980e+00 5.2607407670e+00 
148500 7.0008944308e+00 7.0759414572e-05 3.0372900980e+00 -5.2607407670e+00 3.0372900980e+00 5.2607407670e+00 
148600 7.0008944308e+00 7.0114154799e-05 3.0372889331e+00 -5.2607387494e+00 3.0372889331e+00 5.2607387494e+00 
148700 7.0008944308e+00 7.0261725678e-05 3.0372889331e+00 -5.2607387494e+00 3.0372889331e+00 5.2607387494e+00 
148800 7.0008944308e+00 7.0411291418e-05 3.0372889331e+00 -5.2607387494e+00 3.0372889331e+00 5.2607387494e+00 
148900 7.0008944308e+00 7.0562738147e-05 3.0372889331e+00 -5.2607387494e+00 3.0372889331e+00 5.2607387494e+00 
149000 7.0008944309e+00 7.0715965622e-05 3.0372889331e+00 -5.2607387494e+00 3.0372889331e+00 5.2607387494e+00 
149100 7.0008944309e+00 7.0068377570e-05 3.0372877690e+00 -5.2607367331e+00 3.0372877690e+00 5.2607367331e+00 
149200 7.0008944309e+00 7.0213121337e-05 3.0372877690e+00 -5.2607367331e+00 3.0372877690e+00 5.2607367331e+00 
149300 7.0008944309e+00 7.0359843438e-05 3.0372877690e+00 -5.2607367331e+00 3.0372877690e+00 5.2607367331e+00 
149400 7.0008944309e+00 7.0508427767e-05 3.0372877690e+00 -5.2607367331e+00 3.0372877690e+00 5.2607367331e+00 
149500 7.0008944310e+00 7.0658771977e-05 3.0372877690e+00 -5.2607367331e+00 3.0372877690e+00 5.2607367331e+00 
149600 7.0008944310e+00 7.0810785571e-05 3.0372877690e+00 -5.2607367331e+00 3.0372877690e+00 5.2607367331e+00 
149700 7.0008944310e+00 7.0160803648e-05 3.0372866033e+00 -5.2607347141e+00 3.0372866033e+00 5.2607347141e+00 
149800 7.0008944310e+00 7.0304118213e-05 3.0372866033e+00 -5.2607347141e+00 3.0372866033e+00 5.2607347141e+00 
149900 7.0008944310e+00 7.0449321121e-05 3.0372866033e+00 -5.2607347141e+00 3.0372866033e+00 5.2607347141e+00 
150000 7.0008944310e+00 7.0596300935e-05 3.0372866033e+00 -5.2607347141e+00 3.0372866033e+00 5.2607347141e+00 
150100 7.0008944311e+00 7.0744959150e-05 3.0372866033e+00 -5.2607347141e+00 3.0372866033e+00 5.2607347141e+00 
150200 7.0008944310e+00 7.0092369974e-05 3.0372854387e+00 -5.2607326969e+00 3.0372854387e+00 5.2607326969e+00 
150300 7.0008944311e+00 7.0232337931e-05 3.0372854387e+00 -5.2607326969e+00 3.0372854387e+00 5.2607326969e+00 
150400 7.0008944311e+00 7.0374184260e-05 3.0372854387e+00 -5.2607326969e+00 3.0372854387e+00 5.2607326969e+00 
150500 7.0008944311e+00 7.0517792868e-05 3.0372854387e+00 -5.2607326969e+00 3.0372854387e+00 5.2607326969e+00 
150600 7.0008944311e+00 7.0663061208e-05 3.0372854387e+00 -5.2607326969e+00 3.0372854387e+00 5.2607326969e+00 
150700 7.0008944312e+00 7.0809898411e-05 3.0372854387e+00 -5.2607326969e+00 3.0372854387e+00 5.2607326969e+00 
150800 7.0008944311e+00 7.0154647518e-05 3.0372842730e+00 -5.2607306779e+00 3.0372842730e+00 5.2607306779e+00 
150900 7.0008944311e+00 7.0292583279e-05 3.0372842730e+00 -5.2607306779e+00 3.0372842730e+00 5.2607306779e+00 
151000 7.0008944312e+00 7.0432305313e-05 3.0372842730e+00 -5.2607306779e+00 3.0372842730e+00 5.2607306779e+00 
151100 7.0008944312e+00 7.0573701632e-05 3.0372842730e+00 -5.2607306779e+00 3.0372842730e+00 5.2607306779e+00 
151200 7.0008944312e+00 7.0713798928e-05 3.0372842730e+00 -5.2607306779e+00 3.0372842730e+00 5.2607306779e+00 
151300 7.0008944312e+00 7.0021671987e-05 3.0372831089e+00 -5.2607286616e+00 3.0372831089e+00 5.2607286616e+00 
151300 7.0008944312e+00 7.0021671987e-05 3.0372831089e+00 -5.2607286616e+00 3.0372831089e+00 5.2607286616e+00 
