# step Hamiltonian StressXX CellTensor1 CellTensor2 CellTensor3 CellTensor4 
0 5.6454367770e+00 -6.5075892352e-02 1.7438352029e+00 -3.0204111715e+00 1.7438352029e+00 3.0204111715e+00 
100 5.6428193130e+00 -6.2853157897e-02 1.7438352029e+00 -3.0204111715e+00 1.7438352029e+00 3.0204111715e+00 
200 5.6403869182e+00 -5.9381230095e-02 1.7456376660e+00 -3.0235331292e+00 1.7456376660e+00 3.0235331292e+00 
300 5.6382603528e+00 -5.6128128208e-02 1.7473387883e+00 -3.0264795594e+00 1.7473387883e+00 3.0264795594e+00 
400 5.6364163396e+00 -5.3082807736e-02 1.7489451374e+00 -3.0292618376e+00 1.7489451374e+00 3.0292618376e+00 
500 5.6348319831e+00 -5.0234708136e-02 1.7504629230e+00 -3.0318907195e+00 1.7504629230e+00 3.0318907195e+00 
600 5.6334848561e+00 -4.7573728559e-02 1.7518980167e+00 -3.0343763746e+00 1.7518980167e+00 3.0343763746e+00 
700 5.6323530884e+00 -4.5090202951e-02 1.7532559687e+00 -3.0367284165e+00 1.7532559687e+00 3.0367284165e+00 
800 5.6314154542e+00 -4.2774874853e-02 1.7545420248e+00 -3.0389559310e+00 1.7545420248e+00 3.0389559310e+00 
900 5.6306514557e+00 -4.0618872318e-02 1.7557611414e+00 -3.0410675029e+00 1.7557611414e+00 3.0410675029e+00 
1000 5.6300414018e+00 -3.8613683304e-02 1.7569179995e+00 -3.0430712398e+00 1.7569179995e+00 3.0430712398e+00 
1100 5.6295664799e+00 -3.6751131916e-02 1.7580170179e+00 -3.0449747956e+00 1.7580170179e+00 3.0449747956e+00 
1200 5.6292088194e+00 -3.5023355823e-02 1.7590623654e+00 -3.0467853905e+00 1.7590623654e+00 3.0467853905e+00 
1300 5.6289515470e+00 -3.3422785111e-02 1.7600579713e+00 -3.0485098305e+00 1.7600579713e+00 3.0485098305e+00 
1400 5.6287788311e+00 -3.1942122810e-02 1.7610075363e+00 -3.0501545253e+00 1.7610075363e+00 3.0501545253e+00 
1500 5.6286759163e+00 -3.0574327249e-02 1.7619145416e+00 -3.0517255046e+00 1.7619145416e+00 3.0517255046e+00 
1600 5.6286291483e+00 -2.9312596344e-02 1.7627822577e+00 -3.0532284331e+00 1.7627822577e+00 3.0532284331e+00 
1700 5.6286259866e+00 -2.8150353880e-02 1.7636137529e+00 -3.0546686250e+00 1.7636137529e+00 3.0546686250e+00 
1800 5.6286550088e+00 -2.7081237785e-02 1.7644119004e+00 -3.0560510569e+00 1.7644119004e+00 3.0560510569e+00 
1900 5.6287059039e+00 -2.6099090338e-02 1.7651793856e+00 -3.0573803803e+00 1.7651793856e+00 3.0573803803e+00 
2000 5.6287694564e+00 -2.5197950250e-02 1.7659187130e+00 -3.0586609330e+00 1.7659187130e+00 3.0586609330e+00 
2100 5.6288375225e+00 -2.4372046478e-02 1.7666322126e+00 -3.0598967505e+00 1.7666322126e+00 3.0598967505e+00 
2200 5.6289029977e+00 -2.3615793641e-02 1.7673220458e+00 -3.0610915767e+00 1.7673220458e+00 3.0610915767e+00 
2300 5.6289597776e+00 -2.2923788862e-02 1.7679902116e+00 -3.0622488738e+00 1.7679902116e+00 3.0622488738e+00 
2400 5.6290027130e+00 -2.2290809871e-02 1.7686385520e+00 -3.0633718323e+00 1.7686385520e+00 3.0633718323e+00 
2500 5.6290275593e+00 -2.1711814169e-02 1.7692687580e+00 -3.0644633811e+00 1.7692687580e+00 3.0644633811e+00 
2600 5.6290309221e+00 -2.1181939073e-02 1.7698823750e+00 -3.0655261970e+00 1.7698823750e+00 3.0655261970e+00 
2700 5.6290101993e+00 -2.0696502449e-02 1.7704808084e+00 -3.0665627139e+00 1.7704808084e+00 3.0665627139e+00 
2800 5.6289635207e+00 -2.0251003961e-02 1.7710653287e+00 -3.0675751328e+00 1.7710653287e+00 3.0675751328e+00 
2900 5.6288896864e+00 -1.9841126658e-02 1.7716370776e+00 -3.0685654310e+00 1.7716370776e+00 3.0685654310e+00 
3000 5.6287881040e+00 -1.9462738739e-02 1.7721970730e+00 -3.0695353714e+00 1.7721970730e+00 3.0695353714e+00 
3100 5.6286587263e+00 -1.9111895361e-02 1.7727462146e+00 -3.0704865126e+00 1.7727462146e+00 3.0704865126e+00 
3200 5.6285019890e+00 -1.8784840349e-02 1.7732852896e+00 -3.0714202179e+00 1.7732852896e+00 3.0714202179e+00 
3300 5.6283187508e+00 -1.8478007709e-02 1.7738149781e+00 -3.0723376653e+00 1.7738149781e+00 3.0723376653e+00 
3400 5.6281102336e+00 -1.8188022836e-02 1.7743358585e+00 -3.0732398567e+00 1.7743358585e+00 3.0732398567e+00 
3500 5.6278779670e+00 -1.7911703341e-02 1.7748484137e+00 -3.0741276282e+00 1.7748484137e+00 3.0741276282e+00 
3600 5.6276237339e+00 -1.7646059441e-02 1.7753530357e+00 -3.0750016592e+00 1.7753530357e+00 3.0750016592e+00 
3700 5.6273495196e+00 -1.7388293854e-02 1.7758500321e+00 -3.0758624822e+00 1.7758500321e+00 3.0758624822e+00 
3800 5.6270574645e+00 -1.7135801170e-02 1.7763396312e+00 -3.0767104928e+00 1.7763396312e+00 3.0767104928e+00 
3900 5.6267498195e+00 -1.6886166675e-02 1.7768219877e+00 -3.0775459586e+00 1.7768219877e+00 3.0775459586e+00 
4000 5.6264289058e+00 -1.6637164621e-02 1.7772971877e+00 -3.0783690293e+00 1.7772971877e+00 3.0783690293e+00 
4100 5.6260970771e+00 -1.6386755945e-02 1.7777652551e+00 -3.0791797457e+00 1.7777652551e+00 3.0791797457e+00 
4200 5.6257566871e+00 -1.6133085438e-02 1.7782261557e+00 -3.0799780491e+00 1.7782261557e+00 3.0799780491e+00 
4300 5.6254100587e+00 -1.5874478389e-02 1.7786798036e+00 -3.0807637903e+00 1.7786798036e+00 3.0807637903e+00 
4400 5.6250594584e+00 -1.5609436735e-02 1.7791260656e+00 -3.0815367386e+00 1.7791260656e+00 3.0815367386e+00 
4500 5.6247070732e+00 -1.5336634726e-02 1.7795647663e+00 -3.0822965906e+00 1.7795647663e+00 3.0822965906e+00 
4600 5.6243549910e+00 -1.5054914158e-02 1.7799956934e+00 -3.0830429782e+00 1.7799956934e+00 3.0830429782e+00 
4700 5.6240051844e+00 -1.4763279200e-02 1.7804186020e+00 -3.0837754774e+00 1.7804186020e+00 3.0837754774e+00 
4800 5.6236594976e+00 -1.4460890860e-02 1.7808332194e+00 -3.0844936159e+00 1.7808332194e+00 3.0844936159e+00 
4900 5.6233196354e+00 -1.4147061119e-02 1.7812392496e+00 -3.0851968808e+00 1.7812392496e+00 3.0851968808e+00 
5000 5.6229871557e+00 -1.3821246782e-02 1.7816363772e+00 -3.0858847260e+00 1.7816363772e+00 3.0858847260e+00 
5100 5.6226634642e+00 -1.3483043087e-02 1.7820242720e+00 -3.0865565794e+00 1.7820242720e+00 3.0865565794e+00 
5200 5.6223498108e+00 -1.3132177102e-02 1.7824025923e+00 -3.0872118495e+00 1.7824025923e+00 3.0872118495e+00 
5300 5.6220472892e+00 -1.2768500961e-02 1.7827709892e+00 -3.0878499315e+00 1.7827709892e+00 3.0878499315e+00 
5400 5.6217568368e+00 -1.2391984963e-02 1.7831291094e+00 -3.0884702140e+00 1.7831291094e+00 3.0884702140e+00 
5500 5.6214792378e+00 -1.2002710582e-02 1.7834765993e+00 -3.0890720842e+00 1.7834765993e+00 3.0890720842e+00 
5600 5.6212151264e+00 -1.1600863413e-02 1.7838131075e+00 -3.0896549334e+00 1.7838131075e+00 3.0896549334e+00 
5700 5.6209649924e+00 -1.1186726091e-02 1.7841382877e+00 -3.0902181621e+00 1.7841382877e+00 3.0902181621e+00 
5800 5.6207291868e+00 -1.0760671214e-02 1.7844518019e+00 -3.0907611846e+00 1.7844518019e+00 3.0907611846e+00 
5900 5.6205079292e+00 -1.0323154288e-02 1.7847533224e+00 -3.0912834333e+00 1.7847533224e+00 3.0912834333e+00 
6000 5.6203013155e+00 -9.8747067449e-03 1.7850425341e+00 -3.0917843628e+00 1.7850425341e+00 3.0917843628e+00 
6100 5.6201093260e+00 -9.4159290234e-03 1.7853191371e+00 -3.0922634532e+00 1.7853191371e+00 3.0922634532e+00 
6200 5.6199318345e+00 -8.9474837679e-03 1.7855828480e+00 -3.0927202138e+00 1.7855828480e+00 3.0927202138e+00 
6300 5.6197686173e+00 -8.4700891462e-03 1.7858334018e+00 -3.0931541858e+00 1.7858334018e+00 3.0931541858e+00 
6400 5.6196193623e+00 -7.9845123131e-03 1.7860705537e+00 -3.0935649450e+00 1.7860705537e+00 3.0935649450e+00 
6500 5.6194836786e+00 -7.4915630360e-03 1.7862940802e+00 -3.0939521041e+00 1.7862940802e+00 3.0939521041e+00 
6600 5.6193611057e+00 -6.9920874987e-03 1.7865037799e+00 -3.0943153148e+00 1.7865037799e+00 3.0943153148e+00 
6700 5.6192511229e+00 -6.4869622969e-03 1.7866994754e+00 -3.0946542693e+00 1.7866994754e+00 3.0946542693e+00 
6800 5.6191531582e+00 -5.9770886392e-03 1.7868810133e+00 -3.0949687021e+00 1.7868810133e+00 3.0949687021e+00 
6900 5.6190665968e+00 -5.4633867652e-03 1.7870482651e+00 -3.0952583908e+00 1.7870482651e+00 3.0952583908e+00 
7000 5.6189907903e+00 -4.9467905903e-03 1.7872011279e+00 -3.0955231569e+00 1.7872011279e+00 3.0955231569e+00 
7100 5.6189250639e+00 -4.4282425856e-03 1.7873395246e+00 -3.0957628670e+00 1.7873395246e+00 3.0957628670e+00 
7200 5.6188687248e+00 -3.9086889027e-03 1.7874634041e+00 -3.0959774326e+00 1.7874634041e+00 3.0959774326e+00 
7300 5.6188210688e+00 -3.3890747463e-03 1.7875727414e+00 -3.0961668103e+00 1.7875727414e+00 3.0961668103e+00 
7400 5.6187813874e+00 -2.8703400029e-03 1.7876675377e+00 -3.0963310023e+00 1.7876675377e+00 3.0963310023e+00 
7500 5.6187489741e+00 -2.3534151274e-03 1.7877478200e+00 -3.0964700553e+00 1.7877478200e+00 3.0964700553e+00 
7600 5.6187231296e+00 -1.8392172911e-03 1.7878136411e+00 -3.0965840608e+00 1.7878136411e+00 3.0965840608e+00 
7700 5.6187031674e+00 -1.3286467932e-03 1.7878650789e+00 -3.0966731538e+00 1.7878650789e+00 3.0966731538e+00 
7800 5.6186884184e+00 -8.2258373509e-04 1.7879022364e+00 -3.0967375124e+00 1.7879022364e+00 3.0967375124e+00 
7900 5.6186782350e+00 -3.2188495843e-04 1.7879252406e+00 -3.0967773569e+00 1.7879252406e+00 3.0967773569e+00 
8000 5.6186719944e+00 1.7261875602e-04 1.7879342423e+00 -3.0967929482e+00 1.7879342423e+00 3.0967929482e+00 
8100 5.6186691022e+00 6.6012523034e-04 1.7879294149e+00 -3.0967845870e+00 1.7879294149e+00 3.0967845870e+00 
8200 5.6186689947e+00 1.1398631762e-03 1.7879109544e+00 -3.0967526124e+00 1.7879109544e+00 3.0967526124e+00 
8300 5.6186711409e+00 1.6110942308e-03 1.7878790775e+00 -3.0966974000e+00 1.7878790775e+00 3.0966974000e+00 
8400 5.6186750447e+00 2.0731147472e-03 1.7878340217e+00 -3.0966193610e+00 1.7878340217e+00 3.0966193610e+00 
8500 5.6186802452e+00 2.5252573450e-03 1.7877760436e+00 -3.0965189401e+00 1.7877760436e+00 3.0965189401e+00 
8600 5.6186863187e+00 2.9668922293e-03 1.7877054184e+00 -3.0963966136e+00 1.7877054184e+00 3.0963966136e+00 
8700 5.6186928782e+00 3.3974282831e-03 1.7876224386e+00 -3.0962528884e+00 1.7876224386e+00 3.0962528884e+00 
8800 5.6186995738e+00 3.8163139448e-03 1.7875274130e+00 -3.0960882992e+00 1.7875274130e+00 3.0960882992e+00 
8900 5.6187060926e+00 4.2230378758e-03 1.7874206656e+00 -3.0959034074e+00 1.7874206656e+00 3.0959034074e+00 
9000 5.6187121580e+00 4.6171294303e-03 1.7873025348e+00 -3.0956987987e+00 1.7873025348e+00 3.0956987987e+00 
9100 5.6187175291e+00 4.9981589353e-03 1.7871733716e+00 -3.0954750815e+00 1.7871733716e+00 3.0954750815e+00 
9200 5.6187219993e+00 5.3657377913e-03 1.7870335392e+00 -3.0952328847e+00 1.7870335392e+00 3.0952328847e+00 
9300 5.6187253952e+00 5.7195184034e-03 1.7868834116e+00 -3.0949728560e+00 1.7868834116e+00 3.0949728560e+00 
9400 5.6187275754e+00 6.0591939543e-03 1.7867233722e+00 -3.0946956597e+00 1.7867233722e+00 3.0946956597e+00 
9500 5.6187284286e+00 6.3844980276e-03 1.7865538133e+00 -3.0944019751e+00 1.7865538133e+00 3.0944019751e+00 
9600 5.6187278719e+00 6.6952040944e-03 1.7863751343e+00 -3.0940924940e+00 1.7863751343e+00 3.0940924940e+00 
9700 5.6187258492e+00 6.9911248714e-03 1.7861877412e+00 -3.0937679197e+00 1.7861877412e+00 3.0937679197e+00 
9800 5.6187223290e+00 7.2721115624e-03 1.7859920452e+00 -3.0934289642e+00 1.7859920452e+00 3.0934289642e+00 
9900 5.6187173027e+00 7.5380529928e-03 1.7857884616e+00 -3.0930763471e+00 1.7857884616e+00 3.0930763471e+00 
10000 5.6187107823e+00 7.7888746473e-03 1.7855774091e+00 -3.0927107933e+00 1.7855774091e+00 3.0927107933e+00 
10100 5.6187027987e+00 8.0245376207e-03 1.7853593083e+00 -3.0923330317e+00 1.7853593083e+00 3.0923330317e+00 
10200 5.6186933995e+00 8.2450374913e-03 1.7851345813e+00 -3.0919437931e+00 1.7851345813e+00 3.0919437931e+00 
10300 5.6186826468e+00 8.4504031257e-03 1.7849036502e+00 -3.0915438088e+00 1.7849036502e+00 3.0915438088e+00 
10400 5.6186706159e+00 8.6406954257e-03 1.7846669367e+00 -3.0911338090e+00 1.7846669367e+00 3.0911338090e+00 
10500 5.6186573927e+00 8.8160060229e-03 1.7844248607e+00 -3.0907145211e+00 1.7844248607e+00 3.0907145211e+00 
10600 5.6186430721e+00 8.9764559323e-03 1.7841778399e+00 -3.0902866684e+00 1.7841778399e+00 3.0902866684e+00 
10700 5.6186277565e+00 9.1221941702e-03 1.7839262886e+00 -3.0898509688e+00 1.7839262886e+00 3.0898509688e+00 
10800 5.6186115536e+00 9.2533963459e-03 1.7836706173e+00 -3.0894081331e+00 1.7836706173e+00 3.0894081331e+00 
10900 5.6185945752e+00 9.3702632325e-03 1.7834112316e+00 -3.0889588639e+00 1.7834112316e+00 3.0889588639e+00 
11000 5.6185769355e+00 9.4730193244e-03 1.7831485319e+00 -3.0885038546e+00 1.7831485319e+00 3.0885038546e+00 
11100 5.6185587501e+00 9.5619113873e-03 1.7828829123e+00 -3.0880437880e+00 1.7828829123e+00 3.0880437880e+00 
11200 5.6185401339e+00 9.6372070068e-03 1.7826147603e+00 -3.0875793351e+00 1.7826147603e+00 3.0875793351e+00 
11300 5.6185212007e+00 9.6991931405e-03 1.7823444561e+00 -3.0871111546e+00 1.7823444561e+00 3.0871111546e+00 
11400 5.6185020619e+00 9.7481746788e-03 1.7820723722e+00 -3.0866398914e+00 1.7820723722e+00 3.0866398914e+00 
11500 5.6184828254e+00 9.7844730193e-03 1.7817988725e+00 -3.0861661760e+00 1.7817988725e+00 3.0861661760e+00 
11600 5.6184635948e+00 9.8084246586e-03 1.7815243123e+00 -3.0856906237e+00 1.7815243123e+00 3.0856906237e+00 
11700 5.6184444687e+00 9.8203798054e-03 1.7812490375e+00 -3.0852138340e+00 1.7812490375e+00 3.0852138340e+00 
11800 5.6184255402e+00 9.8207010184e-03 1.7809733847e+00 -3.0847363893e+00 1.7809733847e+00 3.0847363893e+00 
11900 5.6184068963e+00 9.8097618727e-03 1.7806976802e+00 -3.0842588551e+00 1.7806976802e+00 3.0842588551e+00 
12000 5.6183886172e+00 9.7879456562e-03 1.7804222402e+00 -3.0837817789e+00 1.7804222402e+00 3.0837817789e+00 
12100 5.6183707764e+00 9.7556441002e-03 1.7801473702e+00 -3.0833056901e+00 1.7801473702e+00 3.0833056901e+00 
12200 5.6183534403e+00 9.7132561447e-03 1.7798733649e+00 -3.0828310991e+00 1.7798733649e+00 3.0828310991e+00 
12300 5.6183366679e+00 9.6611867417e-03 1.7796005082e+00 -3.0823584974e+00 1.7796005082e+00 3.0823584974e+00 
12400 5.6183205111e+00 9.5998456974e-03 1.7793290725e+00 -3.0818883570e+00 1.7793290725e+00 3.0818883570e+00 
12500 5.6183050142e+00 9.5296465544e-03 1.7790593191e+00 -3.0814211304e+00 1.7790593191e+00 3.0814211304e+00 
12600 5.6182902144e+00 9.4510055157e-03 1.7787914976e+00 -3.0809572499e+00 1.7787914976e+00 3.0809572499e+00 
12700 5.6182761418e+00 9.3643404116e-03 1.7785258461e+00 -3.0804971281e+00 1.7785258461e+00 3.0804971281e+00 
12800 5.6182628196e+00 9.2700697087e-03 1.7782625913e+00 -3.0800411574e+00 1.7782625913e+00 3.0800411574e+00 
12900 5.6182502643e+00 9.1686115630e-03 1.7780019481e+00 -3.0795897100e+00 1.7780019481e+00 3.0795897100e+00 
13000 5.6182384862e+00 9.0603829167e-03 1.7777441196e+00 -3.0791431380e+00 1.7777441196e+00 3.0791431380e+00 
13100 5.6182274893e+00 8.9457986394e-03 1.7774892976e+00 -3.0787017734e+00 1.7774892976e+00 3.0787017734e+00 
13200 5.6182172723e+00 8.8252707118e-03 1.7772376621e+00 -3.0782659279e+00 1.7772376621e+00 3.0782659279e+00 
13300 5.6182078282e+00 8.6992074550e-03 1.7769893817e+00 -3.0778358937e+00 1.7769893817e+00 3.0778358937e+00 
13400 5.6181991454e+00 8.5680128012e-03 1.7767446136e+00 -3.0774119428e+00 1.7767446136e+00 3.0774119428e+00 
13500 5.6181912079e+00 8.4320856088e-03 1.7765035036e+00 -3.0769943280e+00 1.7765035036e+00 3.0769943280e+00 
13600 5.6181839956e+00 8.2918190188e-03 1.7762661863e+00 -3.0765832825e+00 1.7762661863e+00 3.0765832825e+00 
13700 5.6181774847e+00 8.1475998534e-03 1.7760327856e+00 -3.0761790205e+00 1.7760327856e+00 3.0761790205e+00 
13800 5.6181716486e+00 7.9998080554e-03 1.7758034141e+00 -3.0757817375e+00 1.7758034141e+00 3.0757817375e+00 
13900 5.6181664578e+00 7.8488161674e-03 1.7755781741e+00 -3.0753916104e+00 1.7755781741e+00 3.0753916104e+00 
14000 5.6181618805e+00 7.6949888506e-03 1.7753571573e+00 -3.0750087980e+00 1.7753571573e+00 3.0750087980e+00 
14100 5.6181578832e+00 7.5386824419e-03 1.7751404451e+00 -3.0746334414e+00 1.7751404451e+00 3.0746334414e+00 
14200 5.6181544308e+00 7.3802445478e-03 1.7749281089e+00 -3.0742656643e+00 1.7749281089e+00 3.0742656643e+00 
14300 5.6181514874e+00 7.2200136753e-03 1.7747202103e+00 -3.0739055734e+00 1.7747202103e+00 3.0739055734e+00 
14400 5.6181490161e+00 7.0583188975e-03 1.7745168014e+00 -3.0735532590e+00 1.7745168014e+00 3.0735532590e+00 
14500 5.6181469800e+00 6.8954795538e-03 1.7743179251e+00 -3.0732087951e+00 1.7743179251e+00 3.0732087951e+00 
14600 5.6181453419e+00 6.7318049829e-03 1.7741236152e+00 -3.0728722404e+00 1.7741236152e+00 3.0728722404e+00 
14700 5.6181440651e+00 6.5675942883e-03 1.7739338966e+00 -3.0725436381e+00 1.7739338966e+00 3.0725436381e+00 
14800 5.6181431133e+00 6.4031361345e-03 1.7737487859e+00 -3.0722230171e+00 1.7737487859e+00 3.0722230171e+00 
14900 5.6181424513e+00 6.2387085729e-03 1.7735682917e+00 -3.0719103920e+00 1.7735682917e+00 3.0719103920e+00 
15000 5.6181420447e+00 6.0745788968e-03 1.7733924145e+00 -3.0716057637e+00 1.7733924145e+00 3.0716057637e+00 
15100 5.6181418603e+00 5.9110035245e-03 1.7732211472e+00 -3.0713091201e+00 1.7732211472e+00 3.0713091201e+00 
15200 5.6181418666e+00 5.7482279083e-03 1.7730544757e+00 -3.0710204365e+00 1.7730544757e+00 3.0710204365e+00 
15300 5.6181420334e+00 5.5864864697e-03 1.7728923786e+00 -3.0707396760e+00 1.7728923786e+00 3.0707396760e+00 
15400 5.6181423323e+00 5.4260025593e-03 1.7727348280e+00 -3.0704667904e+00 1.7727348280e+00 3.0704667904e+00 
15500 5.6181427367e+00 5.2669884398e-03 1.7725817898e+00 -3.0702017204e+00 1.7725817898e+00 3.0702017204e+00 
15600 5.6181432218e+00 5.1096452923e-03 1.7724332236e+00 -3.0699443962e+00 1.7724332236e+00 3.0699443962e+00 
15700 5.6181437649e+00 4.9541632438e-03 1.7722890834e+00 -3.0696947382e+00 1.7722890834e+00 3.0696947382e+00 
15800 5.6181443449e+00 4.8007214154e-03 1.7721493179e+00 -3.0694526572e+00 1.7721493179e+00 3.0694526572e+00 
15900 5.6181449431e+00 4.6494879904e-03 1.7720138705e+00 -3.0692180554e+00 1.7720138705e+00 3.0692180554e+00 
16000 5.6181455423e+00 4.5006203013e-03 1.7718826799e+00 -3.0689908266e+00 1.7718826799e+00 3.0689908266e+00 
16100 5.6181461275e+00 4.3542649347e-03 1.7717556803e+00 -3.0687708569e+00 1.7717556803e+00 3.0687708569e+00 
16200 5.6181466857e+00 4.2105578526e-03 1.7716328018e+00 -3.0685580251e+00 1.7716328018e+00 3.0685580251e+00 
16300 5.6181472054e+00 4.0696245312e-03 1.7715139704e+00 -3.0683522031e+00 1.7715139704e+00 3.0683522031e+00 
16400 5.6181476771e+00 3.9315801136e-03 1.7713991088e+00 -3.0681532569e+00 1.7713991088e+00 3.0681532569e+00 
16500 5.6181480931e+00 3.7965295777e-03 1.7712881361e+00 -3.0679610465e+00 1.7712881361e+00 3.0679610465e+00 
16600 5.6181484471e+00 3.6645679178e-03 1.7711809686e+00 -3.0677754269e+00 1.7711809686e+00 3.0677754269e+00 
16700 5.6181487344e+00 3.5357803386e-03 1.7710775197e+00 -3.0675962483e+00 1.7710775197e+00 3.0675962483e+00 
16800 5.6181489518e+00 3.4102424614e-03 1.7709777006e+00 -3.0674233566e+00 1.7709777006e+00 3.0674233566e+00 
16900 5.6181490974e+00 3.2880205415e-03 1.7708814202e+00 -3.0672565939e+00 1.7708814202e+00 3.0672565939e+00 
17000 5.6181491704e+00 3.1691716964e-03 1.7707885853e+00 -3.0670957991e+00 1.7707885853e+00 3.0670957991e+00 
17100 5.6181491714e+00 3.0537441427e-03 1.7706991013e+00 -3.0669408083e+00 1.7706991013e+00 3.0669408083e+00 
17200 5.6181491017e+00 2.9417774430e-03 1.7706128721e+00 -3.0667914549e+00 1.7706128721e+00 3.0667914549e+00 
17300 5.6181489638e+00 2.8333027604e-03 1.7705298004e+00 -3.0666475706e+00 1.7705298004e+00 3.0666475706e+00 
17400 5.6181487606e+00 2.7283431201e-03 1.7704497882e+00 -3.0665089853e+00 1.7704497882e+00 3.0665089853e+00 
17500 5.6181484961e+00 2.6269136787e-03 1.7703727365e+00 -3.0663755279e+00 1.7703727365e+00 3.0663755279e+00 
17600 5.6181481746e+00 2.5290219980e-03 1.7702985460e+00 -3.0662470262e+00 1.7702985460e+00 3.0662470262e+00 
17700 5.6181478009e+00 2.4346683257e-03 1.7702271172e+00 -3.0661233080e+00 1.7702271172e+00 3.0661233080e+00 
17800 5.6181473805e+00 2.3438458789e-03 1.7701583506e+00 -3.0660042006e+00 1.7701583506e+00 3.0660042006e+00 
17900 5.6181469186e+00 2.2565411332e-03 1.7700921466e+00 -3.0658895319e+00 1.7700921466e+00 3.0658895319e+00 
18000 5.6181464213e+00 2.1727341136e-03 1.7700284062e+00 -3.0657791303e+00 1.7700284062e+00 3.0657791303e+00 
18100 5.6181458942e+00 2.0923986886e-03 1.7699670308e+00 -3.0656728251e+00 1.7699670308e+00 3.0656728251e+00 
18200 5.6181453434e+00 2.0155028660e-03 1.7699079227e+00 -3.0655704469e+00 1.7699079227e+00 3.0655704469e+00 
18300 5.6181447747e+00 1.9420090898e-03 1.7698509850e+00 -3.0654718278e+00 1.7698509850e+00 3.0654718278e+00 
18400 5.6181441940e+00 1.8718745379e-03 1.7697961216e+00 -3.0653768017e+00 1.7697961216e+00 3.0653768017e+00 
18500 5.6181436069e+00 1.8050514198e-03 1.7697432380e+00 -3.0652852046e+00 1.7697432380e+00 3.0652852046e+00 
18600 5.6181430190e+00 1.7414872733e-03 1.7696922407e+00 -3.0651968746e+00 1.7696922407e+00 3.0651968746e+00 
18700 5.6181424354e+00 1.6811252602e-03 1.7696430378e+00 -3.0651116527e+00 1.7696430378e+00 3.0651116527e+00 
18800 5.6181418612e+00 1.6239044607e-03 1.7695955390e+00 -3.0650293824e+00 1.7695955390e+00 3.0650293824e+00 
18900 5.6181413010e+00 1.5697601645e-03 1.7695496557e+00 -3.0649499102e+00 1.7695496557e+00 3.0649499102e+00 
19000 5.6181407592e+00 1.5186241602e-03 1.7695053011e+00 -3.0648730858e+00 1.7695053011e+00 3.0648730858e+00 
19100 5.6181402397e+00 1.4704250200e-03 1.7694623903e+00 -3.0647987621e+00 1.7694623903e+00 3.0647987621e+00 
19200 5.6181397462e+00 1.4250883822e-03 1.7694208404e+00 -3.0647267956e+00 1.7694208404e+00 3.0647267956e+00 
19300 5.6181392819e+00 1.3825372279e-03 1.7693805707e+00 -3.0646570463e+00 1.7693805707e+00 3.0646570463e+00 
19400 5.6181388497e+00 1.3426921539e-03 1.7693415024e+00 -3.0645893781e+00 1.7693415024e+00 3.0645893781e+00 
19500 5.6181384519e+00 1.3054716397e-03 1.7693035593e+00 -3.0645236587e+00 1.7693035593e+00 3.0645236587e+00 
19600 5.6181380906e+00 1.2707923098e-03 1.7692666672e+00 -3.0644597597e+00 1.7692666672e+00 3.0644597597e+00 
19700 5.6181377675e+00 1.2385691894e-03 1.7692307543e+00 -3.0643975568e+00 1.7692307543e+00 3.0643975568e+00 
19800 5.6181374840e+00 1.2087159537e-03 1.7691957514e+00 -3.0643369299e+00 1.7691957514e+00 3.0643369299e+00 
19900 5.6181372408e+00 1.1811451712e-03 1.7691615915e+00 -3.0642777632e+00 1.7691615915e+00 3.0642777632e+00 
20000 5.6181370388e+00 1.1557685398e-03 1.7691282101e+00 -3.0642199449e+00 1.7691282101e+00 3.0642199449e+00 
20100 5.6181368780e+00 1.1324971150e-03 1.7690955453e+00 -3.0641633678e+00 1.7690955453e+00 3.0641633678e+00 
20200 5.6181367584e+00 1.1112415319e-03 1.7690635375e+00 -3.0641079289e+00 1.7690635375e+00 3.0641079289e+00 
20300 5.6181366798e+00 1.0919122186e-03 1.7690321300e+00 -3.0640535294e+00 1.7690321300e+00 3.0640535294e+00 
20400 5.6181366414e+00 1.0744196018e-03 1.7690012683e+00 -3.0640000753e+00 1.7690012683e+00 3.0640000753e+00 
20500 5.6181366424e+00 1.0586743047e-03 1.7689709004e+00 -3.0639474766e+00 1.7689709004e+00 3.0639474766e+00 
20600 5.6181366818e+00 1.0445873364e-03 1.7689409770e+00 -3.0638956478e+00 1.7689409770e+00 3.0638956478e+00 
20700 5.6181367581e+00 1.0320702729e-03 1.7689114513e+00 -3.0638445078e+00 1.7689114513e+00 3.0638445078e+00 
20800 5.6181368700e+00 1.0210354300e-03 1.7688822789e+00 -3.0637939797e+00 1.7688822789e+00 3.0637939797e+00 
20900 5.6181370158e+00 1.0113960271e-03 1.7688534180e+00 -3.0637439911e+00 1.7688534180e+00 3.0637439911e+00 
21000 5.6181371938e+00 1.0030663428e-03 1.7688248290e+00 -3.0636944735e+00 1.7688248290e+00 3.0636944735e+00 
21100 5.6181374020e+00 9.9596186188e-04 1.7687964751e+00 -3.0636453630e+00 1.7687964751e+00 3.0636453630e+00 
21200 5.6181376386e+00 9.8999941351e-04 1.7687683215e+00 -3.0635965996e+00 1.7687683215e+00 3.0635965996e+00 
21300 5.6181379015e+00 9.8509730070e-04 1.7687403360e+00 -3.0635481273e+00 1.7687403360e+00 3.0635481273e+00 
21400 5.6181381886e+00 9.8117542142e-04 1.7687124886e+00 -3.0634998943e+00 1.7687124886e+00 3.0634998943e+00 
21500 5.6181384978e+00 9.7815538097e-04 1.7686847517e+00 -3.0634518525e+00 1.7686847517e+00 3.0634518525e+00 
21600 5.6181388271e+00 9.7596059596e-04 1.7686570997e+00 -3.0634039579e+00 1.7686570997e+00 3.0634039579e+00 
21700 5.6181391742e+00 9.7451638984e-04 1.7686295094e+00 -3.0633561700e+00 1.7686295094e+00 3.0633561700e+00 
21800 5.6181395373e+00 9.7375008014e-04 1.7686019594e+00 -3.0633084520e+00 1.7686019594e+00 3.0633084520e+00 
21900 5.6181399142e+00 9.7359105758e-04 1.7685744306e+00 -3.0632607708e+00 1.7685744306e+00 3.0632607708e+00 
22000 5.6181403029e+00 9.7397085709e-04 1.7685469060e+00 -3.0632130967e+00 1.7685469060e+00 3.0632130967e+00 
22100 5.6181407015e+00 9.7482322098e-04 1.7685193701e+00 -3.0631654033e+00 1.7685193701e+00 3.0631654033e+00 
22200 5.6181411082e+00 9.7608415440e-04 1.7684918098e+00 -3.0631176673e+00 1.7684918098e+00 3.0631176673e+00 
22300 5.6181415212e+00 9.7769197324e-04 1.7684642133e+00 -3.0630698689e+00 1.7684642133e+00 3.0630698689e+00 
22400 5.6181419388e+00 9.7958734472e-04 1.7684365710e+00 -3.0630219909e+00 1.7684365710e+00 3.0630219909e+00 
22500 5.6181423594e+00 9.8171332077e-04 1.7684088747e+00 -3.0629740195e+00 1.7684088747e+00 3.0629740195e+00 
22600 5.6181427816e+00 9.8401536459e-04 1.7683811178e+00 -3.0629259431e+00 1.7683811178e+00 3.0629259431e+00 
22700 5.6181432040e+00 9.8644137036e-04 1.7683532953e+00 -3.0628777533e+00 1.7683532953e+00 3.0628777533e+00 
22800 5.6181436252e+00 9.8894167658e-04 1.7683254039e+00 -3.0628294439e+00 1.7683254039e+00 3.0628294439e+00 
22900 5.6181440442e+00 9.9146907312e-04 1.7682974413e+00 -3.0627810112e+00 1.7682974413e+00 3.0627810112e+00 
23000 5.6181444597e+00 9.9397880224e-04 1.7682694068e+00 -3.0627324541e+00 1.7682694068e+00 3.0627324541e+00 
23100 5.6181448710e+00 9.9642855390e-04 1.7682413009e+00 -3.0626837732e+00 1.7682413009e+00 3.0626837732e+00 
23200 5.6181452772e+00 9.9877845553e-04 1.7682131253e+00 -3.0626349716e+00 1.7682131253e+00 3.0626349716e+00 
23300 5.6181456774e+00 1.0009910566e-03 1.7681848828e+00 -3.0625860541e+00 1.7681848828e+00 3.0625860541e+00 
23400 5.6181460710e+00 1.0030313080e-03 1.7681565772e+00 -3.0625370275e+00 1.7681565772e+00 3.0625370275e+00 
23500 5.6181464576e+00 1.0048665370e-03 1.7681282136e+00 -3.0624879002e+00 1.7681282136e+00 3.0624879002e+00 
23600 5.6181468366e+00 1.0064664176e-03 1.7680997975e+00 -3.0624386822e+00 1.7680997975e+00 3.0624386822e+00 
23700 5.6181472076e+00 1.0078029363e-03 1.7680713358e+00 -3.0623893850e+00 1.7680713358e+00 3.0623893850e+00 
23800 5.6181475705e+00 1.0088503546e-03 1.7680428358e+00 -3.0623400216e+00 1.7680428358e+00 3.0623400216e+00 
23900 5.6181479249e+00 1.0095851674e-03 1.7680143057e+00 -3.0622906060e+00 1.7680143057e+00 3.0622906060e+00 
24000 5.6181482708e+00 1.0099860576e-03 1.7679857544e+00 -3.0622411537e+00 1.7679857544e+00 3.0622411537e+00 
24100 5.6181486081e+00 1.0100338485e-03 1.7679571913e+00 -3.0621916810e+00 1.7679571913e+00 3.0621916810e+00 
24200 5.6181489367e+00 1.0097114520e-03 1.7679286264e+00 -3.0621422051e+00 1.7679286264e+00 3.0621422051e+00 
24300 5.6181492568e+00 1.0090038155e-03 1.7679000701e+00 -3.0620927442e+00 1.7679000701e+00 3.0620927442e+00 
24400 5.6181495685e+00 1.0078978648e-03 1.7678715334e+00 -3.0620433171e+00 1.7678715334e+00 3.0620433171e+00 
24500 5.6181498719e+00 1.0063824464e-03 1.7678430275e+00 -3.0619939435e+00 1.7678430275e+00 3.0619939435e+00 
24600 5.6181501672e+00 1.0044482665e-03 1.7678145640e+00 -3.0619446433e+00 1.7678145640e+00 3.0619446433e+00 
24700 5.6181504546e+00 1.0020878289e-03 1.7677861548e+00 -3.0618954370e+00 1.7677861548e+00 3.0618954370e+00 
24800 5.6181507344e+00 9.9929537146e-04 1.7677578118e+00 -3.0618463456e+00 1.7677578118e+00 3.0618463456e+00 
24900 5.6181510069e+00 9.9606680067e-04 1.7677295474e+00 -3.0617973902e+00 1.7677295474e+00 3.0617973902e+00 
25000 5.6181512724e+00 9.9239962586e-04 1.7677013739e+00 -3.0617485922e+00 1.7677013739e+00 3.0617485922e+00 
25100 5.6181515311e+00 9.8829289197e-04 1.7676733036e+00 -3.0616999731e+00 1.7676733036e+00 3.0616999731e+00 
25200 5.6181517835e+00 9.8374711182e-04 1.7676453491e+00 -3.0616515544e+00 1.7676453491e+00 3.0616515544e+00 
25300 5.6181520298e+00 9.7876419790e-04 1.7676175227e+00 -3.0616033576e+00 1.7676175227e+00 3.0616033576e+00 
25400 5.6181522705e+00 9.7334739375e-04 1.7675898368e+00 -3.0615554042e+00 1.7675898368e+00 3.0615554042e+00 
25500 5.6181525057e+00 9.6750120524e-04 1.7675623036e+00 -3.0615077155e+00 1.7675623036e+00 3.0615077155e+00 
25600 5.6181527359e+00 9.6123133189e-04 1.7675349355e+00 -3.0614603124e+00 1.7675349355e+00 3.0614603124e+00 
25700 5.6181529614e+00 9.5454459830e-04 1.7675077443e+00 -3.0614132158e+00 1.7675077443e+00 3.0614132158e+00 
25800 5.6181531824e+00 9.4744888599e-04 1.7674807418e+00 -3.0613664461e+00 1.7674807418e+00 3.0613664461e+00 
25900 5.6181533994e+00 9.3995306566e-04 1.7674539396e+00 -3.0613200234e+00 1.7674539396e+00 3.0613200234e+00 
26000 5.6181536126e+00 9.3206693008e-04 1.7674273491e+00 -3.0612739673e+00 1.7674273491e+00 3.0612739673e+00 
26100 5.6181538222e+00 9.2380112777e-04 1.7674009812e+00 -3.0612282968e+00 1.7674009812e+00 3.0612282968e+00 
26200 5.6181540286e+00 9.1516709750e-04 1.7673748468e+00 -3.0611830308e+00 1.7673748468e+00 3.0611830308e+00 
26300 5.6181542319e+00 9.0617700376e-04 1.7673489563e+00 -3.0611381871e+00 1.7673489563e+00 3.0611381871e+00 
26400 5.6181544324e+00 8.9684367342e-04 1.7673233198e+00 -3.0610937833e+00 1.7673233198e+00 3.0610937833e+00 
26500 5.6181546303e+00 8.8718053346e-04 1.7672979469e+00 -3.0610498361e+00 1.7672979469e+00 3.0610498361e+00 
26600 5.6181548259e+00 8.7720155011e-04 1.7672728470e+00 -3.0610063619e+00 1.7672728470e+00 3.0610063619e+00 
26700 5.6181550191e+00 8.6692116923e-04 1.7672480292e+00 -3.0609633761e+00 1.7672480292e+00 3.0609633761e+00 
26800 5.6181552103e+00 8.5635425828e-04 1.7672235018e+00 -3.0609208934e+00 1.7672235018e+00 3.0609208934e+00 
26900 5.6181553996e+00 8.4551604973e-04 1.7671992730e+00 -3.0608789280e+00 1.7671992730e+00 3.0608789280e+00 
27000 5.6181555870e+00 8.3442208608e-04 1.7671753506e+00 -3.0608374931e+00 1.7671753506e+00 3.0608374931e+00 
27100 5.6181557727e+00 8.2308816654e-04 1.7671517417e+00 -3.0607966014e+00 1.7671517417e+00 3.0607966014e+00 
27200 5.6181559567e+00 8.1153029544e-04 1.7671284532e+00 -3.0607562645e+00 1.7671284532e+00 3.0607562645e+00 
27300 5.6181561391e+00 7.9976463230e-04 1.7671054914e+00 -3.0607164935e+00 1.7671054914e+00 3.0607164935e+00 
27400 5.6181563199e+00 7.8780744382e-04 1.7670828623e+00 -3.0606772986e+00 1.7670828623e+00 3.0606772986e+00 
27500 5.6181564993e+00 7.7567505759e-04 1.7670605711e+00 -3.0606386892e+00 1.7670605711e+00 3.0606386892e+00 
27600 5.6181566772e+00 7.6338381769e-04 1.7670386230e+00 -3.0606006740e+00 1.7670386230e+00 3.0606006740e+00 
27700 5.6181568536e+00 7.5095004218e-04 1.7670170224e+00 -3.0605632606e+00 1.7670170224e+00 3.0605632606e+00 
27800 5.6181570285e+00 7.3838998249e-04 1.7669957733e+00 -3.0605264562e+00 1.7669957733e+00 3.0605264562e+00 
27900 5.6181572020e+00 7.2571978467e-04 1.7669748794e+00 -3.0604902669e+00 1.7669748794e+00 3.0604902669e+00 
28000 5.6181573739e+00 7.1295545261e-04 1.7669543438e+00 -3.0604546982e+00 1.7669543438e+00 3.0604546982e+00 
28100 5.6181575443e+00 7.0011281316e-04 1.7669341692e+00 -3.0604197546e+00 1.7669341692e+00 3.0604197546e+00 
28200 5.6181577132e+00 6.8720748315e-04 1.7669143577e+00 -3.0603854401e+00 1.7669143577e+00 3.0603854401e+00 
28300 5.6181578805e+00 6.7425483836e-04 1.7668949112e+00 -3.0603517578e+00 1.7668949112e+00 3.0603517578e+00 
28400 5.6181580461e+00 6.6126998434e-04 1.7668758310e+00 -3.0603187100e+00 1.7668758310e+00 3.0603187100e+00 
28500 5.6181582101e+00 6.4826772920e-04 1.7668571181e+00 -3.0602862982e+00 1.7668571181e+00 3.0602862982e+00 
28600 5.6181583723e+00 6.3526255817e-04 1.7668387729e+00 -3.0602545234e+00 1.7668387729e+00 3.0602545234e+00 
28700 5.6181585327e+00 6.2226861006e-04 1.7668207955e+00 -3.0602233857e+00 1.7668207955e+00 3.0602233857e+00 
28800 5.6181586913e+00 6.0929965562e-04 1.7668031857e+00 -3.0601928846e+00 1.7668031857e+00 3.0601928846e+00 
28900 5.6181588481e+00 5.9636907753e-04 1.7667859427e+00 -3.0601630189e+00 1.7667859427e+00 3.0601630189e+00 
29000 5.6181590029e+00 5.8348985232e-04 1.7667690655e+00 -3.0601337867e+00 1.7667690655e+00 3.0601337867e+00 
29100 5.6181591557e+00 5.7067453393e-04 1.7667525527e+00 -3.0601051856e+00 1.7667525527e+00 3.0601051856e+00 
29200 5.6181593065e+00 5.5793523901e-04 1.7667364023e+00 -3.0600772124e+00 1.7667364023e+00 3.0600772124e+00 
29300 5.6181594553e+00 5.4528363387e-04 1.7667206123e+00 -3.0600498633e+00 1.7667206123e+00 3.0600498633e+00 
29400 5.6181596020e+00 5.3273092307e-04 1.7667051803e+00 -3.0600231342e+00 1.7667051803e+00 3.0600231342e+00 
29500 5.6181597465e+00 5.2028783955e-04 1.7666901033e+00 -3.0599970202e+00 1.7666901033e+00 3.0599970202e+00 
29600 5.6181598888e+00 5.0796463632e-04 1.7666753784e+00 -3.0599715159e+00 1.7666753784e+00 3.0599715159e+00 
29700 5.6181600290e+00 4.9577107967e-04 1.7666610021e+00 -3.0599466155e+00 1.7666610021e+00 3.0599466155e+00 
29800 5.6181601669e+00 4.8371644378e-04 1.7666469709e+00 -3.0599223126e+00 1.7666469709e+00 3.0599223126e+00 
29900 5.6181603026e+00 4.7180950672e-04 1.7666332806e+00 -3.0598986004e+00 1.7666332806e+00 3.0598986004e+00 
30000 5.6181604360e+00 4.6005854786e-04 1.7666199273e+00 -3.0598754718e+00 1.7666199273e+00 3.0598754718e+00 
30100 5.6181605672e+00 4.4847134649e-04 1.7666069064e+00 -3.0598529190e+00 1.7666069064e+00 3.0598529190e+00 
30200 5.6181606960e+00 4.3705518175e-04 1.7665942135e+00 -3.0598309341e+00 1.7665942135e+00 3.0598309341e+00 
30300 5.6181608226e+00 4.2581683374e-04 1.7665818435e+00 -3.0598095086e+00 1.7665818435e+00 3.0598095086e+00 
30400 5.6181609469e+00 4.1476258575e-04 1.7665697915e+00 -3.0597886340e+00 1.7665697915e+00 3.0597886340e+00 
30500 5.6181610690e+00 4.0389822756e-04 1.7665580523e+00 -3.0597683011e+00 1.7665580523e+00 3.0597683011e+00 
30600 5.6181611888e+00 3.9322905988e-04 1.7665466205e+00 -3.0597485007e+00 1.7665466205e+00 3.0597485007e+00 
30700 5.6181613063e+00 3.8275989960e-04 1.7665354907e+00 -3.0597292232e+00 1.7665354907e+00 3.0597292232e+00 
30800 5.6181614216e+00 3.7249508613e-04 1.7665246570e+00 -3.0597104588e+00 1.7665246570e+00 3.0597104588e+00 
30900 5.6181615347e+00 3.6243848853e-04 1.7665141139e+00 -3.0596921975e+00 1.7665141139e+00 3.0596921975e+00 
31000 5.6181616456e+00 3.5259351348e-04 1.7665038553e+00 -3.0596744292e+00 1.7665038553e+00 3.0596744292e+00 
31100 5.6181617543e+00 3.4296311399e-04 1.7664938753e+00 -3.0596571433e+00 1.7664938753e+00 3.0596571433e+00 
31200 5.6181618609e+00 3.3354979890e-04 1.7664841679e+00 -3.0596403296e+00 1.7664841679e+00 3.0596403296e+00 
31300 5.6181619654e+00 3.2435564299e-04 1.7664747268e+00 -3.0596239772e+00 1.7664747268e+00 3.0596239772e+00 
31400 5.6181620679e+00 3.1538229770e-04 1.7664655460e+00 -3.0596080754e+00 1.7664655460e+00 3.0596080754e+00 
31500 5.6181621683e+00 3.0663100242e-04 1.7664566190e+00 -3.0595926136e+00 1.7664566190e+00 3.0595926136e+00 
31600 5.6181622668e+00 2.9810259635e-04 1.7664479398e+00 -3.0595775806e+00 1.7664479398e+00 3.0595775806e+00 
31700 5.6181623633e+00 2.8979753075e-04 1.7664395019e+00 -3.0595629658e+00 1.7664395019e+00 3.0595629658e+00 
31800 5.6181624579e+00 2.8171588161e-04 1.7664312990e+00 -3.0595487580e+00 1.7664312990e+00 3.0595487580e+00 
31900 5.6181625506e+00 2.7385736280e-04 1.7664233249e+00 -3.0595349464e+00 1.7664233249e+00 3.0595349464e+00 
32000 5.6181626415e+00 2.6622133937e-04 1.7664155731e+00 -3.0595215199e+00 1.7664155731e+00 3.0595215199e+00 
32100 5.6181627306e+00 2.5880684129e-04 1.7664080375e+00 -3.0595084678e+00 1.7664080375e+00 3.0595084678e+00 
32200 5.6181628180e+00 2.5161257734e-04 1.7664007117e+00 -3.0594957792e+00 1.7664007117e+00 3.0594957792e+00 
32300 5.6181629037e+00 2.4463694924e-04 1.7663935895e+00 -3.0594834432e+00 1.7663935895e+00 3.0594834432e+00 
32400 5.6181629877e+00 2.3787806586e-04 1.7663866648e+00 -3.0594714492e+00 1.7663866648e+00 3.0594714492e+00 
32500 5.6181630702e+00 2.3133375767e-04 1.7663799313e+00 -3.0594597865e+00 1.7663799313e+00 3.0594597865e+00 
32600 5.6181631511e+00 2.2500159114e-04 1.7663733831e+00 -3.0594484446e+00 1.7663733831e+00 3.0594484446e+00 
32700 5.6181632304e+00 2.1887888327e-04 1.7663670141e+00 -3.0594374132e+00 1.7663670141e+00 3.0594374132e+00 
32800 5.6181633083e+00 2.1296271605e-04 1.7663608183e+00 -3.0594266818e+00 1.7663608183e+00 3.0594266818e+00 
32900 5.6181633847e+00 2.0724995098e-04 1.7663547900e+00 -3.0594162405e+00 1.7663547900e+00 3.0594162405e+00 
33000 5.6181634597e+00 2.0173724344e-04 1.7663489234e+00 -3.0594060793e+00 1.7663489234e+00 3.0594060793e+00 
33100 5.6181635334e+00 1.9642105705e-04 1.7663432129e+00 -3.0593961883e+00 1.7663432129e+00 3.0593961883e+00 
33200 5.6181636057e+00 1.9129767779e-04 1.7663376528e+00 -3.0593865579e+00 1.7663376528e+00 3.0593865579e+00 
33300 5.6181636767e+00 1.8636322812e-04 1.7663322377e+00 -3.0593771787e+00 1.7663322377e+00 3.0593771787e+00 
33400 5.6181637465e+00 1.8161368082e-04 1.7663269622e+00 -3.0593680414e+00 1.7663269622e+00 3.0593680414e+00 
33500 5.6181638150e+00 1.7704487263e-04 1.7663218213e+00 -3.0593591369e+00 1.7663218213e+00 3.0593591369e+00 
33600 5.6181638824e+00 1.7265251772e-04 1.7663168096e+00 -3.0593504564e+00 1.7663168096e+00 3.0593504564e+00 
33700 5.6181639485e+00 1.6843222088e-04 1.7663119222e+00 -3.0593419913e+00 1.7663119222e+00 3.0593419913e+00 
33800 5.6181640136e+00 1.6437949041e-04 1.7663071543e+00 -3.0593337330e+00 1.7663071543e+00 3.0593337330e+00 
33900 5.6181640775e+00 1.6048975080e-04 1.7663025011e+00 -3.0593256735e+00 1.7663025011e+00 3.0593256735e+00 
34000 5.6181641403e+00 1.5675835505e-04 1.7662979580e+00 -3.0593178046e+00 1.7662979580e+00 3.0593178046e+00 
34100 5.6181642021e+00 1.5318059666e-04 1.7662935205e+00 -3.0593101186e+00 1.7662935205e+00 3.0593101186e+00 
34200 5.6181642628e+00 1.4975172130e-04 1.7662891843e+00 -3.0593026081e+00 1.7662891843e+00 3.0593026081e+00 
34300 5.6181643225e+00 1.4646693819e-04 1.7662849452e+00 -3.0592952657e+00 1.7662849452e+00 3.0592952657e+00 
34400 5.6181643812e+00 1.4332143098e-04 1.7662807990e+00 -3.0592880843e+00 1.7662807990e+00 3.0592880843e+00 
34500 5.6181644389e+00 1.4031036842e-04 1.7662767418e+00 -3.0592810571e+00 1.7662767418e+00 3.0592810571e+00 
34600 5.6181644957e+00 1.3742891451e-04 1.7662727699e+00 -3.0592741775e+00 1.7662727699e+00 3.0592741775e+00 
34700 5.6181645515e+00 1.3467223833e-04 1.7662688795e+00 -3.0592674392e+00 1.7662688795e+00 3.0592674392e+00 
34800 5.6181646064e+00 1.3203552350e-04 1.7662650672e+00 -3.0592608360e+00 1.7662650672e+00 3.0592608360e+00 
34900 5.6181646604e+00 1.2951397715e-04 1.7662613295e+00 -3.0592543621e+00 1.7662613295e+00 3.0592543621e+00 
35000 5.6181647134e+00 1.2710283854e-04 1.7662576632e+00 -3.0592480119e+00 1.7662576632e+00 3.0592480119e+00 
35100 5.6181647657e+00 1.2479738730e-04 1.7662540651e+00 -3.0592417798e+00 1.7662540651e+00 3.0592417798e+00 
35200 5.6181648170e+00 1.2259295117e-04 1.7662505323e+00 -3.0592356608e+00 1.7662505323e+00 3.0592356608e+00 
35300 5.6181648675e+00 1.2048491339e-04 1.7662470618e+00 -3.0592296498e+00 1.7662470618e+00 3.0592296498e+00 
35400 5.6181649171e+00 1.1846871966e-04 1.7662436511e+00 -3.0592237422e+00 1.7662436511e+00 3.0592237422e+00 
35500 5.6181649660e+00 1.1653988469e-04 1.7662402974e+00 -3.0592179334e+00 1.7662402974e+00 3.0592179334e+00 
35600 5.6181650140e+00 1.1469399834e-04 1.7662369983e+00 -3.0592122192e+00 1.7662369983e+00 3.0592122192e+00 
35700 5.6181650612e+00 1.1292673132e-04 1.7662337514e+00 -3.0592065955e+00 1.7662337514e+00 3.0592065955e+00 
35800 5.6181651076e+00 1.1123384050e-04 1.7662305546e+00 -3.0592010585e+00 1.7662305546e+00 3.0592010585e+00 
35900 5.6181651532e+00 1.0961117387e-04 1.7662274057e+00 -3.0591956044e+00 1.7662274057e+00 3.0591956044e+00 
36000 5.6181651980e+00 1.0805467502e-04 1.7662243027e+00 -3.0591902299e+00 1.7662243027e+00 3.0591902299e+00 
36100 5.6181652421e+00 1.0656038729e-04 1.7662212438e+00 -3.0591849317e+00 1.7662212438e+00 3.0591849317e+00 
36200 5.6181652854e+00 1.0512445747e-04 1.7662182272e+00 -3.0591797068e+00 1.7662182272e+00 3.0591797068e+00 
36300 5.6181653280e+00 1.0374313923e-04 1.7662152512e+00 -3.0591745522e+00 1.7662152512e+00 3.0591745522e+00 
36400 5.6181653698e+00 1.0241279606e-04 1.7662123144e+00 -3.0591694654e+00 1.7662123144e+00 3.0591694654e+00 
36500 5.6181654110e+00 1.0112990390e-04 1.7662094151e+00 -3.0591644438e+00 1.7662094151e+00 3.0591644438e+00 
36600 5.6181654513e+00 9.9891053464e-05 1.7662065522e+00 -3.0591594851e+00 1.7662065522e+00 3.0591594851e+00 
36700 5.6181654910e+00 9.8692952137e-05 1.7662037244e+00 -3.0591545872e+00 1.7662037244e+00 3.0591545872e+00 
36800 5.6181655300e+00 9.7532425575e-05 1.7662009305e+00 -3.0591497479e+00 1.7662009305e+00 3.0591497479e+00 
36900 5.6181655683e+00 9.6406418994e-05 1.7661981694e+00 -3.0591449656e+00 1.7661981694e+00 3.0591449656e+00 
37000 5.6181656059e+00 9.5311998113e-05 1.7661954402e+00 -3.0591402385e+00 1.7661954402e+00 3.0591402385e+00 
37100 5.6181656429e+00 9.4246349822e-05 1.7661927419e+00 -3.0591355650e+00 1.7661927419e+00 3.0591355650e+00 
37200 5.6181656792e+00 9.3206782539e-05 1.7661900739e+00 -3.0591309438e+00 1.7661900739e+00 3.0591309438e+00 
37300 5.6181657148e+00 9.2190726285e-05 1.7661874352e+00 -3.0591263735e+00 1.7661874352e+00 3.0591263735e+00 
37400 5.6181657498e+00 9.1195732502e-05 1.7661848254e+00 -3.0591218531e+00 1.7661848254e+00 3.0591218531e+00 
37500 5.6181657842e+00 9.0219473599e-05 1.7661822437e+00 -3.0591173814e+00 1.7661822437e+00 3.0591173814e+00 
37600 5.6181658179e+00 8.9259742254e-05 1.7661796896e+00 -3.0591129576e+00 1.7661796896e+00 3.0591129576e+00 
37700 5.6181658510e+00 8.8314450483e-05 1.7661771627e+00 -3.0591085809e+00 1.7661771627e+00 3.0591085809e+00 
37800 5.6181658835e+00 8.7381628479e-05 1.7661746625e+00 -3.0591042505e+00 1.7661746625e+00 3.0591042505e+00 
37900 5.6181659155e+00 8.6459423245e-05 1.7661721887e+00 -3.0590999658e+00 1.7661721887e+00 3.0590999658e+00 
38000 5.6181659468e+00 8.5546097024e-05 1.7661697411e+00 -3.0590957264e+00 1.7661697411e+00 3.0590957264e+00 
38100 5.6181659776e+00 8.4640025537e-05 1.7661673193e+00 -3.0590915317e+00 1.7661673193e+00 3.0590915317e+00 
38200 5.6181660078e+00 8.3739696048e-05 1.7661649232e+00 -3.0590873814e+00 1.7661649232e+00 3.0590873814e+00 
38300 5.6181660374e+00 8.2843705269e-05 1.7661625525e+00 -3.0590832753e+00 1.7661625525e+00 3.0590832753e+00 
38400 5.6181660665e+00 8.1950757097e-05 1.7661602072e+00 -3.0590792131e+00 1.7661602072e+00 3.0590792131e+00 
38500 5.6181660951e+00 8.1059660217e-05 1.7661578872e+00 -3.0590751947e+00 1.7661578872e+00 3.0590751947e+00 
38600 5.6181661232e+00 8.0169325579e-05 1.7661555924e+00 -3.0590712200e+00 1.7661555924e+00 3.0590712200e+00 
38700 5.6181661507e+00 7.9278763749e-05 1.7661533228e+00 -3.0590672890e+00 1.7661533228e+00 3.0590672890e+00 
38800 5.6181661777e+00 7.8387082151e-05 1.7661510784e+00 -3.0590634016e+00 1.7661510784e+00 3.0590634016e+00 
38900 5.6181662042e+00 7.7493482210e-05 1.7661488592e+00 -3.0590595579e+00 1.7661488592e+00 3.0590595579e+00 
39000 5.6181662303e+00 7.6597256414e-05 1.7661466654e+00 -3.0590557580e+00 1.7661466654e+00 3.0590557580e+00 
39100 5.6181662558e+00 7.5697785293e-05 1.7661444969e+00 -3.0590520021e+00 1.7661444969e+00 3.0590520021e+00 
39200 5.6181662809e+00 7.4794534334e-05 1.7661423539e+00 -3.0590482903e+00 1.7661423539e+00 3.0590482903e+00 
39300 5.6181663056e+00 7.3887050834e-05 1.7661402364e+00 -3.0590446227e+00 1.7661402364e+00 3.0590446227e+00 
39400 5.6181663297e+00 7.2974960713e-05 1.7661381446e+00 -3.0590409997e+00 1.7661381446e+00 3.0590409997e+00 
39500 5.6181663535e+00 7.2057965284e-05 1.7661360787e+00 -3.0590374214e+00 1.7661360787e+00 3.0590374214e+00 
39600 5.6181663768e+00 7.1135837988e-05 1.7661340387e+00 -3.0590338880e+00 1.7661340387e+00 3.0590338880e+00 
39700 5.6181663997e+00 7.0208421120e-05 1.7661320248e+00 -3.0590303999e+00 1.7661320248e+00 3.0590303999e+00 
39800 5.6181664223e+00 7.0509795945e-05 1.7661320248e+00 -3.0590303999e+00 1.7661320248e+00 3.0590303999e+00 
39900 5.6181664445e+00 7.0795641408e-05 1.7661320248e+00 -3.0590303999e+00 1.7661320248e+00 3.0590303999e+00 
40000 5.6181664662e+00 6.9821343360e-05 1.7661300206e+00 -3.0590269284e+00 1.7661300206e+00 3.0590269284e+00 
40100 5.6181664876e+00 7.0069477568e-05 1.7661300206e+00 -3.0590269284e+00 1.7661300206e+00 3.0590269284e+00 
40200 5.6181665086e+00 7.0301819008e-05 1.7661300206e+00 -3.0590269284e+00 1.7661300206e+00 3.0590269284e+00 
40300 5.6181665292e+00 7.0518383498e-05 1.7661300206e+00 -3.0590269284e+00 1.7661300206e+00 3.0590269284e+00 
40400 5.6181665495e+00 7.0719225096e-05 1.7661300206e+00 -3.0590269284e+00 1.7661300206e+00 3.0590269284e+00 
40500 5.6181665693e+00 6.9661291161e-05 1.7661280185e+00 -3.0590234606e+00 1.7661280185e+00 3.0590234606e+00 
40600 5.6181665888e+00 6.9824669422e-05 1.7661280185e+00 -3.0590234606e+00 1.7661280185e+00 3.0590234606e+00 
40700 5.6181666080e+00 6.9972668656e-05 1.7661280185e+00 -3.0590234606e+00 1.7661280185e+00 3.0590234606e+00 
40800 5.6181666269e+00 7.0105486788e-05 1.7661280185e+00 -3.0590234606e+00 1.7661280185e+00 3.0590234606e+00 
40900 5.6181666454e+00 7.0223349962e-05 1.7661280185e+00 -3.0590234606e+00 1.7661280185e+00 3.0590234606e+00 
41000 5.6181666636e+00 7.0326510602e-05 1.7661280185e+00 -3.0590234606e+00 1.7661280185e+00 3.0590234606e+00 
41100 5.6181666814e+00 7.0415245513e-05 1.7661280185e+00 -3.0590234606e+00 1.7661280185e+00 3.0590234606e+00 
41200 5.6181666990e+00 7.0489854025e-05 1.7661280185e+00 -3.0590234606e+00 1.7661280185e+00 3.0590234606e+00 
41300 5.6181667162e+00 7.0550656170e-05 1.7661280185e+00 -3.0590234606e+00 1.7661280185e+00 3.0590234606e+00 
41400 5.6181667331e+00 7.0597990905e-05 1.7661280185e+00 -3.0590234606e+00 1.7661280185e+00 3.0590234606e+00 
41500 5.6181667497e+00 7.0632214381e-05 1.7661280185e+00 -3.0590234606e+00 1.7661280185e+00 3.0590234606e+00 
41600 5.6181667660e+00 7.0653698256e-05 1.7661280185e+00 -3.0590234606e+00 1.7661280185e+00 3.0590234606e+00 
41700 5.6181667820e+00 7.0662828053e-05 1.7661280185e+00 -3.0590234606e+00 1.7661280185e+00 3.0590234606e+00 
41800 5.6181667978e+00 7.0660001571e-05 1.7661280185e+00 -3.0590234606e+00 1.7661280185e+00 3.0590234606e+00 
41900 5.6181668132e+00 7.0645627338e-05 1.7661280185e+00 -3.0590234606e+00 1.7661280185e+00 3.0590234606e+00 
42000 5.6181668284e+00 7.0620123115e-05 1.7661280185e+00 -3.0590234606e+00 1.7661280185e+00 3.0590234606e+00 
42100 5.6181668433e+00 7.0583914459e-05 1.7661280185e+00 -3.0590234606e+00 1.7661280185e+00 3.0590234606e+00 
42200 5.6181668580e+00 7.0537433321e-05 1.7661280185e+00 -3.0590234606e+00 1.7661280185e+00 3.0590234606e+00 
42300 5.6181668724e+00 7.0481116712e-05 1.7661280185e+00 -3.0590234606e+00 1.7661280185e+00 3.0590234606e+00 
42400 5.6181668865e+00 7.0415405412e-05 1.7661280185e+00 -3.0590234606e+00 1.7661280185e+00 3.0590234606e+00 
42500 5.6181669004e+00 7.0340742731e-05 1.7661280185e+00 -3.0590234606e+00 1.7661280185e+00 3.0590234606e+00 
42600 5.6181669140e+00 7.0257573326e-05 1.7661280185e+00 -3.0590234606e+00 1.7661280185e+00 3.0590234606e+00 
42700 5.6181669274e+00 7.0166342072e-05 1.7661280185e+00 -3.0590234606e+00 1.7661280185e+00 3.0590234606e+00 
42800 5.6181669406e+00 7.0067492979e-05 1.7661280185e+00 -3.0590234606e+00 1.7661280185e+00 3.0590234606e+00 
42900 5.6181669535e+00 6.9961468172e-05 1.7661280185e+00 -3.0590234606e+00 1.7661280185e+00 3.0590234606e+00 
43000 5.6181669662e+00 6.9848706909e-05 1.7661280185e+00 -3.0590234606e+00 1.7661280185e+00 3.0590234606e+00 
43100 5.6181669787e+00 6.9729644667e-05 1.7661280185e+00 -3.0590234606e+00 1.7661280185e+00 3.0590234606e+00 
43200 5.6181669909e+00 6.9604712270e-05 1.7661280185e+00 -3.0590234606e+00 1.7661280185e+00 3.0590234606e+00 
43300 5.6181670030e+00 6.9474335070e-05 1.7661280185e+00 -3.0590234606e+00 1.7661280185e+00 3.0590234606e+00 
43400 5.6181670148e+00 6.9338932180e-05 1.7661280185e+00 -3.0590234606e+00 1.7661280185e+00 3.0590234606e+00 
43500 5.6181670264e+00 6.9198915757e-05 1.7661280185e+00 -3.0590234606e+00 1.7661280185e+00 3.0590234606e+00 
43600 5.6181670378e+00 6.9054690335e-05 1.7661280185e+00 -3.0590234606e+00 1.7661280185e+00 3.0590234606e+00 
43700 5.6181670490e+00 6.8906652208e-05 1.7661280185e+00 -3.0590234606e+00 1.7661280185e+00 3.0590234606e+00 
43800 5.6181670600e+00 6.8755188851e-05 1.7661280185e+00 -3.0590234606e+00 1.7661280185e+00 3.0590234606e+00 
43900 5.6181670708e+00 6.8600678408e-05 1.7661280185e+00 -3.0590234606e+00 1.7661280185e+00 3.0590234606e+00 
44000 5.6181670814e+00 6.8443489203e-05 1.7661280185e+00 -3.0590234606e+00 1.7661280185e+00 3.0590234606e+00 
44100 5.6181670919e+00 6.8283979317e-05 1.7661280185e+00 -3.0590234606e+00 1.7661280185e+00 3.0590234606e+00 
44200 5.6181671021e+00 6.8122496191e-05 1.7661280185e+00 -3.0590234606e+00 1.7661280185e+00 3.0590234606e+00 
44300 5.6181671122e+00 6.7959376284e-05 1.7661280185e+00 -3.0590234606e+00 1.7661280185e+00 3.0590234606e+00 
44400 5.6181671221e+00 6.7794944771e-05 1.7661280185e+00 -3.0590234606e+00 1.7661280185e+00 3.0590234606e+00 
44500 5.6181671318e+00 6.7629515274e-05 1.7661280185e+00 -3.0590234606e+00 1.7661280185e+00 3.0590234606e+00 
44600 5.6181671413e+00 6.7463389642e-05 1.7661280185e+00 -3.0590234606e+00 1.7661280185e+00 3.0590234606e+00 
44700 5.6181671507e+00 6.7296857764e-05 1.7661280185e+00 -3.0590234606e+00 1.7661280185e+00 3.0590234606e+00 
44800 5.6181671599e+00 6.7130197414e-05 1.7661280185e+00 -3.0590234606e+00 1.7661280185e+00 3.0590234606e+00 
44900 5.6181671690e+00 6.6963674148e-05 1.7661280185e+00 -3.0590234606e+00 1.7661280185e+00 3.0590234606e+00 
45000 5.6181671779e+00 6.6797541212e-05 1.7661280185e+00 -3.0590234606e+00 1.7661280185e+00 3.0590234606e+00 
45100 5.6181671866e+00 6.6632039503e-05 1.7661280185e+00 -3.0590234606e+00 1.7661280185e+00 3.0590234606e+00 
45200 5.6181671952e+00 6.6467397552e-05 1.7661280185e+00 -3.0590234606e+00 1.7661280185e+00 3.0590234606e+00 
45300 5.6181672036e+00 6.6303831531e-05 1.7661280185e+00 -3.0590234606e+00 1.7661280185e+00 3.0590234606e+00 
45400 5.6181672119e+00 6.6141545308e-05 1.7661280185e+00 -3.0590234606e+00 1.7661280185e+00 3.0590234606e+00 
45500 5.6181672200e+00 6.5980730503e-05 1.7661280185e+00 -3.0590234606e+00 1.7661280185e+00 3.0590234606e+00 
45600 5.6181672280e+00 6.5821566598e-05 1.7661280185e+00 -3.0590234606e+00 1.7661280185e+00 3.0590234606e+00 
45700 5.6181672358e+00 6.5664221045e-05 1.7661280185e+00 -3.0590234606e+00 1.7661280185e+00 3.0590234606e+00 
45800 5.6181672436e+00 6.5508849417e-05 1.7661280185e+00 -3.0590234606e+00 1.7661280185e+00 3.0590234606e+00 
45900 5.6181672511e+00 6.5355595572e-05 1.7661280185e+00 -3.0590234606e+00 1.7661280185e+00 3.0590234606e+00 
46000 5.6181672586e+00 6.5204591837e-05 1.7661280185e+00 -3.0590234606e+00 1.7661280185e+00 3.0590234606e+00 
46100 5.6181672659e+00 6.5055959212e-05 1.7661280185e+00 -3.0590234606e+00 1.7661280185e+00 3.0590234606e+00 
46200 5.6181672731e+00 6.4909807596e-05 1.7661280185e+00 -3.0590234606e+00 1.7661280185e+00 3.0590234606e+00 
46300 5.6181672801e+00 6.4766236020e-05 1.7661280185e+00 -3.0590234606e+00 1.7661280185e+00 3.0590234606e+00 
46400 5.6181672871e+00 6.4625332908e-05 1.7661280185e+00 -3.0590234606e+00 1.7661280185e+00 3.0590234606e+00 
46500 5.6181672939e+00 6.4487176338e-05 1.7661280185e+00 -3.0590234606e+00 1.7661280185e+00 3.0590234606e+00 
46600 5.6181673006e+00 6.4351834326e-05 1.7661280185e+00 -3.0590234606e+00 1.7661280185e+00 3.0590234606e+00 
46700 5.6181673072e+00 6.4219365120e-05 1.7661280185e+00 -3.0590234606e+00 1.7661280185e+00 3.0590234606e+00 
46800 5.6181673137e+00 6.4089817492e-05 1.7661280185e+00 -3.0590234606e+00 1.7661280185e+00 3.0590234606e+00 
46900 5.6181673200e+00 6.3963231063e-05 1.7661280185e+00 -3.0590234606e+00 1.7661280185e+00 3.0590234606e+00 
47000 5.6181673263e+00 6.3839636611e-05 1.7661280185e+00 -3.0590234606e+00 1.7661280185e+00 3.0590234606e+00 
47100 5.6181673324e+00 6.3719056401e-05 1.7661280185e+00 -3.0590234606e+00 1.7661280185e+00 3.0590234606e+00 
47200 5.6181673384e+00 6.3601504516e-05 1.7661280185e+00 -3.0590234606e+00 1.7661280185e+00 3.0590234606e+00 
47300 5.6181673443e+00 6.3486987195e-05 1.7661280185e+00 -3.0590234606e+00 1.7661280185e+00 3.0590234606e+00 
47400 5.6181673502e+00 6.3375503168e-05 1.7661280185e+00 -3.0590234606e+00 1.7661280185e+00 3.0590234606e+00 
47500 5.6181673559e+00 6.3267044005e-05 1.7661280185e+00 -3.0590234606e+00 1.7661280185e+00 3.0590234606e+00 
47600 5.6181673615e+00 6.3161594457e-05 1.7661280185e+00 -3.0590234606e+00 1.7661280185e+00 3.0590234606e+00 
47700 5.6181673670e+00 6.3059132799e-05 1.7661280185e+00 -3.0590234606e+00 1.7661280185e+00 3.0590234606e+00 
47800 5.6181673725e+00 6.2959631180e-05 1.7661280185e+00 -3.0590234606e+00 1.7661280185e+00 3.0590234606e+00 
47900 5.6181673778e+00 6.2863055968e-05 1.7661280185e+00 -3.0590234606e+00 1.7661280185e+00 3.0590234606e+00 
48000 5.6181673831e+00 6.2769368090e-05 1.7661280185e+00 -3.0590234606e+00 1.7661280185e+00 3.0590234606e+00 
48100 5.6181673882e+00 6.2678523375e-05 1.7661280185e+00 -3.0590234606e+00 1.7661280185e+00 3.0590234606e+00 
48200 5.6181673933e+00 6.2590472893e-05 1.7661280185e+00 -3.0590234606e+00 1.7661280185e+00 3.0590234606e+00 
48300 5.6181673983e+00 6.2505163287e-05 1.7661280185e+00 -3.0590234606e+00 1.7661280185e+00 3.0590234606e+00 
48400 5.6181674032e+00 6.2422537106e-05 1.7661280185e+00 -3.0590234606e+00 1.7661280185e+00 3.0590234606e+00 
48500 5.6181674080e+00 6.2342533130e-05 1.7661280185e+00 -3.0590234606e+00 1.7661280185e+00 3.0590234606e+00 
48600 5.6181674127e+00 6.2265086689e-05 1.7661280185e+00 -3.0590234606e+00 1.7661280185e+00 3.0590234606e+00 
48700 5.6181674174e+00 6.2190129979e-05 1.7661280185e+00 -3.0590234606e+00 1.7661280185e+00 3.0590234606e+00 
48800 5.6181674219e+00 6.2117592368e-05 1.7661280185e+00 -3.0590234606e+00 1.7661280185e+00 3.0590234606e+00 
48900 5.6181674264e+00 6.2047400696e-05 1.7661280185e+00 -3.0590234606e+00 1.7661280185e+00 3.0590234606e+00 
49000 5.6181674308e+00 6.1979479577e-05 1.7661280185e+00 -3.0590234606e+00 1.7661280185e+00 3.0590234606e+00 
49100 5.6181674352e+00 6.1913751670e-05 1.7661280185e+00 -3.0590234606e+00 1.7661280185e+00 3.0590234606e+00 
49200 5.6181674394e+00 6.1850137976e-05 1.7661280185e+00 -3.0590234606e+00 1.7661280185e+00 3.0590234606e+00 
49300 5.6181674436e+00 6.1788558091e-05 1.7661280185e+00 -3.0590234606e+00 1.7661280185e+00 3.0590234606e+00 
49400 5.6181674477e+00 6.1728930478e-05 1.7661280185e+00 -3.0590234606e+00 1.7661280185e+00 3.0590234606e+00 
49500 5.6181674518e+00 6.1671172716e-05 1.7661280185e+00 -3.0590234606e+00 1.7661280185e+00 3.0590234606e+00 
49600 5.6181674558e+00 6.1615201745e-05 1.7661280185e+00 -3.0590234606e+00 1.7661280185e+00 3.0590234606e+00 
49700 5.6181674597e+00 6.1560934101e-05 1.7661280185e+00 -3.0590234606e+00 1.7661280185e+00 3.0590234606e+00 
49800 5.6181674635e+00 6.1508286136e-05 1.7661280185e+00 -3.0590234606e+00 1.7661280185e+00 3.0590234606e+00 
49900 5.6181674673e+00 6.1457174245e-05 1.7661280185e+00 -3.0590234606e+00 1.7661280185e+00 3.0590234606e+00 
50000 5.6181674710e+00 6.1407515059e-05 1.7661280185e+00 -3.0590234606e+00 1.7661280185e+00 3.0590234606e+00 
50100 5.6181674747e+00 6.1359225652e-05 1.7661280185e+00 -3.0590234606e+00 1.7661280185e+00 3.0590234606e+00 
50200 5.6181674783e+00 6.1312223723e-05 1.7661280185e+00 -3.0590234606e+00 1.7661280185e+00 3.0590234606e+00 
50300 5.6181674818e+00 6.1266427776e-05 1.7661280185e+00 -3.0590234606e+00 1.7661280185e+00 3.0590234606e+00 
50400 5.6181674853e+00 6.1221757285e-05 1.7661280185e+00 -3.0590234606e+00 1.7661280185e+00 3.0590234606e+00 
50500 5.6181674887e+00 6.1178132853e-05 1.7661280185e+00 -3.0590234606e+00 1.7661280185e+00 3.0590234606e+00 
50600 5.6181674921e+00 6.1135476363e-05 1.7661280185e+00 -3.0590234606e+00 1.7661280185e+00 3.0590234606e+00 
50700 5.6181674954e+00 6.1093711113e-05 1.7661280185e+00 -3.0590234606e+00 1.7661280185e+00 3.0590234606e+00 
50800 5.6181674986e+00 6.1052761948e-05 1.7661280185e+00 -3.0590234606e+00 1.7661280185e+00 3.0590234606e+00 
50900 5.6181675018e+00 6.1012555381e-05 1.7661280185e+00 -3.0590234606e+00 1.7661280185e+00 3.0590234606e+00 
51000 5.6181675050e+00 6.0973019699e-05 1.7661280185e+00 -3.0590234606e+00 1.7661280185e+00 3.0590234606e+00 
51100 5.6181675080e+00 6.0934085074e-05 1.7661280185e+00 -3.0590234606e+00 1.7661280185e+00 3.0590234606e+00 
51200 5.6181675111e+00 6.0895683645e-05 1.7661280185e+00 -3.0590234606e+00 1.7661280185e+00 3.0590234606e+00 
51300 5.6181675141e+00 6.0857749611e-05 1.7661280185e+00 -3.0590234606e+00 1.7661280185e+00 3.0590234606e+00 
51400 5.6181675170e+00 6.0820219300e-05 1.7661280185e+00 -3.0590234606e+00 1.7661280185e+00 3.0590234606e+00 
51500 5.6181675199e+00 6.0783031243e-05 1.7661280185e+00 -3.0590234606e+00 1.7661280185e+00 3.0590234606e+00 
51600 5.6181675227e+00 6.0746126228e-05 1.7661280185e+00 -3.0590234606e+00 1.7661280185e+00 3.0590234606e+00 
51700 5.6181675255e+00 6.0709447352e-05 1.7661280185e+00 -3.0590234606e+00 1.7661280185e+00 3.0590234606e+00 
51800 5.6181675282e+00 6.0672940067e-05 1.7661280185e+00 -3.0590234606e+00 1.7661280185e+00 3.0590234606e+00 
51900 5.6181675309e+00 6.0636552209e-05 1.7661280185e+00 -3.0590234606e+00 1.7661280185e+00 3.0590234606e+00 
52000 5.6181675336e+00 6.0600234037e-05 1.7661280185e+00 -3.0590234606e+00 1.7661280185e+00 3.0590234606e+00 
52100 5.6181675362e+00 6.0563938246e-05 1.7661280185e+00 -3.0590234606e+00 1.7661280185e+00 3.0590234606e+00 
52200 5.6181675388e+00 6.0527619986e-05 1.7661280185e+00 -3.0590234606e+00 1.7661280185e+00 3.0590234606e+00 
52300 5.6181675413e+00 6.0491236867e-05 1.7661280185e+00 -3.0590234606e+00 1.7661280185e+00 3.0590234606e+00 
52400 5.6181675438e+00 6.0454748964e-05 1.7661280185e+00 -3.0590234606e+00 1.7661280185e+00 3.0590234606e+00 
52500 5.6181675462e+00 6.0418118813e-05 1.7661280185e+00 -3.0590234606e+00 1.7661280185e+00 3.0590234606e+00 
52600 5.6181675486e+00 6.0381311399e-05 1.7661280185e+00 -3.0590234606e+00 1.7661280185e+00 3.0590234606e+00 
52700 5.6181675510e+00 6.0344294143e-05 1.7661280185e+00 -3.0590234606e+00 1.7661280185e+00 3.0590234606e+00 
52800 5.6181675533e+00 6.0307036879e-05 1.7661280185e+00 -3.0590234606e+00 1.7661280185e+00 3.0590234606e+00 
52900 5.6181675556e+00 6.0269511831e-05 1.7661280185e+00 -3.0590234606e+00 1.7661280185e+00 3.0590234606e+00 
53000 5.6181675578e+00 6.0231693586e-05 1.7661280185e+00 -3.0590234606e+00 1.7661280185e+00 3.0590234606e+00 
53100 5.6181675600e+00 6.0193559051e-05 1.7661280185e+00 -3.0590234606e+00 1.7661280185e+00 3.0590234606e+00 
53200 5.6181675622e+00 6.0155087423e-05 1.7661280185e+00 -3.0590234606e+00 1.7661280185e+00 3.0590234606e+00 
53300 5.6181675643e+00 6.0116260143e-05 1.7661280185e+00 -3.0590234606e+00 1.7661280185e+00 3.0590234606e+00 
53400 5.6181675664e+00 6.0077060851e-05 1.7661280185e+00 -3.0590234606e+00 1.7661280185e+00 3.0590234606e+00 
53500 5.6181675685e+00 6.0037475336e-05 1.7661280185e+00 -3.0590234606e+00 1.7661280185e+00 3.0590234606e+00 
53600 5.6181675705e+00 5.9997491486e-05 1.7661280185e+00 -3.0590234606e+00 1.7661280185e+00 3.0590234606e+00 
53700 5.6181675725e+00 5.9957099230e-05 1.7661280185e+00 -3.0590234606e+00 1.7661280185e+00 3.0590234606e+00 
53800 5.6181675745e+00 5.9916290482e-05 1.7661280185e+00 -3.0590234606e+00 1.7661280185e+00 3.0590234606e+00 
53900 5.6181675764e+00 5.9875059081e-05 1.7661280185e+00 -3.0590234606e+00 1.7661280185e+00 3.0590234606e+00 
54000 5.6181675783e+00 5.9833400732e-05 1.7661280185e+00 -3.0590234606e+00 1.7661280185e+00 3.0590234606e+00 
54100 5.6181675802e+00 5.9791312933e-05 1.7661280185e+00 -3.0590234606e+00 1.7661280185e+00 3.0590234606e+00 
54200 5.6181675820e+00 5.9748794922e-05 1.7661280185e+00 -3.0590234606e+00 1.7661280185e+00 3.0590234606e+00 
54300 5.6181675838e+00 5.9705847600e-05 1.7661280185e+00 -3.0590234606e+00 1.7661280185e+00 3.0590234606e+00 
54400 5.6181675856e+00 5.9662473471e-05 1.7661280185e+00 -3.0590234606e+00 1.7661280185e+00 3.0590234606e+00 
54500 5.6181675874e+00 5.9618676567e-05 1.7661280185e+00 -3.0590234606e+00 1.7661280185e+00 3.0590234606e+00 
54600 5.6181675891e+00 5.9574462377e-05 1.7661280185e+00 -3.0590234606e+00 1.7661280185e+00 3.0590234606e+00 
54700 5.6181675908e+00 5.9529837786e-05 1.7661280185e+00 -3.0590234606e+00 1.7661280185e+00 3.0590234606e+00 
54800 5.6181675924e+00 5.9484810994e-05 1.7661280185e+00 -3.0590234606e+00 1.7661280185e+00 3.0590234606e+00 
54900 5.6181675941e+00 5.9439391452e-05 1.7661280185e+00 -3.0590234606e+00 1.7661280185e+00 3.0590234606e+00 
55000 5.6181675957e+00 5.9393589787e-05 1.7661280185e+00 -3.0590234606e+00 1.7661280185e+00 3.0590234606e+00 
55100 5.6181675973e+00 5.9347417734e-05 1.7661280185e+00 -3.0590234606e+00 1.7661280185e+00 3.0590234606e+00 
55200 5.6181675988e+00 5.9300888063e-05 1.7661280185e+00 -3.0590234606e+00 1.7661280185e+00 3.0590234606e+00 
55300 5.6181676004e+00 5.9254014512e-05 1.7661280185e+00 -3.0590234606e+00 1.7661280185e+00 3.0590234606e+00 
55400 5.6181676019e+00 5.9206811713e-05 1.7661280185e+00 -3.0590234606e+00 1.7661280185e+00 3.0590234606e+00 
55500 5.6181676034e+00 5.9159295130e-05 1.7661280185e+00 -3.0590234606e+00 1.7661280185e+00 3.0590234606e+00 
55600 5.6181676048e+00 5.9111480982e-05 1.7661280185e+00 -3.0590234606e+00 1.7661280185e+00 3.0590234606e+00 
55700 5.6181676063e+00 5.9063386187e-05 1.7661280185e+00 -3.0590234606e+00 1.7661280185e+00 3.0590234606e+00 
55800 5.6181676077e+00 5.9015028288e-05 1.7661280185e+00 -3.0590234606e+00 1.7661280185e+00 3.0590234606e+00 
55900 5.6181676091e+00 5.8966425390e-05 1.7661280185e+00 -3.0590234606e+00 1.7661280185e+00 3.0590234606e+00 
56000 5.6181676105e+00 5.8917596099e-05 1.7661280185e+00 -3.0590234606e+00 1.7661280185e+00 3.0590234606e+00 
56100 5.6181676118e+00 5.8868559460e-05 1.7661280185e+00 -3.0590234606e+00 1.7661280185e+00 3.0590234606e+00 
56200 5.6181676131e+00 5.8819334893e-05 1.7661280185e+00 -3.0590234606e+00 1.7661280185e+00 3.0590234606e+00 
56300 5.6181676144e+00 5.8769942137e-05 1.7661280185e+00 -3.0590234606e+00 1.7661280185e+00 3.0590234606e+00 
56400 5.6181676157e+00 5.8720401194e-05 1.7661280185e+00 -3.0590234606e+00 1.7661280185e+00 3.0590234606e+00 
56500 5.6181676170e+00 5.8670732271e-05 1.7661280185e+00 -3.0590234606e+00 1.7661280185e+00 3.0590234606e+00 
56600 5.6181676182e+00 5.8620955727e-05 1.7661280185e+00 -3.0590234606e+00 1.7661280185e+00 3.0590234606e+00 
56700 5.6181676195e+00 5.8571092021e-05 1.7661280185e+00 -3.0590234606e+00 1.7661280185e+00 3.0590234606e+00 
56800 5.6181676207e+00 5.8521161660e-05 1.7661280185e+00 -3.0590234606e+00 1.7661280185e+00 3.0590234606e+00 
56900 5.6181676218e+00 5.8471185157e-05 1.7661280185e+00 -3.0590234606e+00 1.7661280185e+00 3.0590234606e+00 
57000 5.6181676230e+00 5.8421182975e-05 1.7661280185e+00 -3.0590234606e+00 1.7661280185e+00 3.0590234606e+00 
57100 5.6181676242e+00 5.8371175494e-05 1.7661280185e+00 -3.0590234606e+00 1.7661280185e+00 3.0590234606e+00 
57200 5.6181676253e+00 5.8321182956e-05 1.7661280185e+00 -3.0590234606e+00 1.7661280185e+00 3.0590234606e+00 
57300 5.6181676264e+00 5.8271225436e-05 1.7661280185e+00 -3.0590234606e+00 1.7661280185e+00 3.0590234606e+00 
57400 5.6181676275e+00 5.8221322795e-05 1.7661280185e+00 -3.0590234606e+00 1.7661280185e+00 3.0590234606e+00 
57500 5.6181676286e+00 5.8171494651e-05 1.7661280185e+00 -3.0590234606e+00 1.7661280185e+00 3.0590234606e+00 
57600 5.6181676296e+00 5.8121760336e-05 1.7661280185e+00 -3.0590234606e+00 1.7661280185e+00 3.0590234606e+00 
57700 5.6181676307e+00 5.8072138872e-05 1.7661280185e+00 -3.0590234606e+00 1.7661280185e+00 3.0590234606e+00 
57800 5.6181676317e+00 5.8022648933e-05 1.7661280185e+00 -3.0590234606e+00 1.7661280185e+00 3.0590234606e+00 
57900 5.6181676327e+00 5.7973308823e-05 1.7661280185e+00 -3.0590234606e+00 1.7661280185e+00 3.0590234606e+00 
58000 5.6181676337e+00 5.7924136445e-05 1.7661280185e+00 -3.0590234606e+00 1.7661280185e+00 3.0590234606e+00 
58100 5.6181676347e+00 5.7875149278e-05 1.7661280185e+00 -3.0590234606e+00 1.7661280185e+00 3.0590234606e+00 
58200 5.6181676356e+00 5.7826364353e-05 1.7661280185e+00 -3.0590234606e+00 1.7661280185e+00 3.0590234606e+00 
58300 5.6181676366e+00 5.7777798237e-05 1.7661280185e+00 -3.0590234606e+00 1.7661280185e+00 3.0590234606e+00 
58400 5.6181676375e+00 5.7729467006e-05 1.7661280185e+00 -3.0590234606e+00 1.7661280185e+00 3.0590234606e+00 
58500 5.6181676384e+00 5.7681386235e-05 1.7661280185e+00 -3.0590234606e+00 1.7661280185e+00 3.0590234606e+00 
58600 5.6181676393e+00 5.7633570977e-05 1.7661280185e+00 -3.0590234606e+00 1.7661280185e+00 3.0590234606e+00 
58700 5.6181676402e+00 5.7586035753e-05 1.7661280185e+00 -3.0590234606e+00 1.7661280185e+00 3.0590234606e+00 
58800 5.6181676411e+00 5.7538794541e-05 1.7661280185e+00 -3.0590234606e+00 1.7661280185e+00 3.0590234606e+00 
58900 5.6181676420e+00 5.7491860761e-05 1.7661280185e+00 -3.0590234606e+00 1.7661280185e+00 3.0590234606e+00 
59000 5.6181676428e+00 5.7445247270e-05 1.7661280185e+00 -3.0590234606e+00 1.7661280185e+00 3.0590234606e+00 
59100 5.6181676437e+00 5.7398966356e-05 1.7661280185e+00 -3.0590234606e+00 1.7661280185e+00 3.0590234606e+00 
59200 5.6181676445e+00 5.7353029727e-05 1.7661280185e+00 -3.0590234606e+00 1.7661280185e+00 3.0590234606e+00 
59300 5.6181676453e+00 5.7307448513e-05 1.7661280185e+00 -3.0590234606e+00 1.7661280185e+00 3.0590234606e+00 
59400 5.6181676461e+00 5.7262233260e-05 1.7661280185e+00 -3.0590234606e+00 1.7661280185e+00 3.0590234606e+00 
59500 5.6181676469e+00 5.7217393927e-05 1.7661280185e+00 -3.0590234606e+00 1.7661280185e+00 3.0590234606e+00 
59600 5.6181676476e+00 5.7172939892e-05 1.7661280185e+00 -3.0590234606e+00 1.7661280185e+00 3.0590234606e+00 
59700 5.6181676484e+00 5.7128879946e-05 1.7661280185e+00 -3.0590234606e+00 1.7661280185e+00 3.0590234606e+00 
59800 5.6181676491e+00 5.7085222302e-05 1.7661280185e+00 -3.0590234606e+00 1.7661280185e+00 3.0590234606e+00 
59900 5.6181676499e+00 5.7041974594e-05 1.7661280185e+00 -3.0590234606e+00 1.7661280185e+00 3.0590234606e+00 
60000 5.6181676506e+00 5.6999143883e-05 1.7661280185e+00 -3.0590234606e+00 1.7661280185e+00 3.0590234606e+00 
60100 5.6181676513e+00 5.6956736662e-05 1.7661280185e+00 -3.0590234606e+00 1.7661280185e+00 3.0590234606e+00 
60200 5.6181676520e+00 5.6914758865e-05 1.7661280185e+00 -3.0590234606e+00 1.7661280185e+00 3.0590234606e+00 
60300 5.6181676527e+00 5.6873215874e-05 1.7661280185e+00 -3.0590234606e+00 1.7661280185e+00 3.0590234606e+00 
60400 5.6181676534e+00 5.6832112523e-05 1.7661280185e+00 -3.0590234606e+00 1.7661280185e+00 3.0590234606e+00 
60500 5.6181676541e+00 5.6791453117e-05 1.7661280185e+00 -3.0590234606e+00 1.7661280185e+00 3.0590234606e+00 
60600 5.6181676547e+00 5.6751241430e-05 1.7661280185e+00 -3.0590234606e+00 1.7661280185e+00 3.0590234606e+00 
60700 5.6181676554e+00 5.6711480726e-05 1.7661280185e+00 -3.0590234606e+00 1.7661280185e+00 3.0590234606e+00 
60800 5.6181676560e+00 5.6672173765e-05 1.7661280185e+00 -3.0590234606e+00 1.7661280185e+00 3.0590234606e+00 
60900 5.6181676566e+00 5.6633322817e-05 1.7661280185e+00 -3.0590234606e+00 1.7661280185e+00 3.0590234606e+00 
61000 5.6181676573e+00 5.6594929671e-05 1.7661280185e+00 -3.0590234606e+00 1.7661280185e+00 3.0590234606e+00 
61100 5.6181676579e+00 5.6556995654e-05 1.7661280185e+00 -3.0590234606e+00 1.7661280185e+00 3.0590234606e+00 
61200 5.6181676585e+00 5.6519521642e-05 1.7661280185e+00 -3.0590234606e+00 1.7661280185e+00 3.0590234606e+00 
61300 5.6181676591e+00 5.6482508072e-05 1.7661280185e+00 -3.0590234606e+00 1.7661280185e+00 3.0590234606e+00 
61400 5.6181676596e+00 5.6445954957e-05 1.7661280185e+00 -3.0590234606e+00 1.7661280185e+00 3.0590234606e+00 
61500 5.6181676602e+00 5.6409861904e-05 1.7661280185e+00 -3.0590234606e+00 1.7661280185e+00 3.0590234606e+00 
61600 5.6181676608e+00 5.6374228124e-05 1.7661280185e+00 -3.0590234606e+00 1.7661280185e+00 3.0590234606e+00 
61700 5.6181676613e+00 5.6339052452e-05 1.7661280185e+00 -3.0590234606e+00 1.7661280185e+00 3.0590234606e+00 
61800 5.6181676619e+00 5.6304333356e-05 1.7661280185e+00 -3.0590234606e+00 1.7661280185e+00 3.0590234606e+00 
61900 5.6181676624e+00 5.6270068958e-05 1.7661280185e+00 -3.0590234606e+00 1.7661280185e+00 3.0590234606e+00 
62000 5.6181676630e+00 5.6236257050e-05 1.7661280185e+00 -3.0590234606e+00 1.7661280185e+00 3.0590234606e+00 
62100 5.6181676635e+00 5.6202895102e-05 1.7661280185e+00 -3.0590234606e+00 1.7661280185e+00 3.0590234606e+00 
62200 5.6181676640e+00 5.6169980288e-05 1.7661280185e+00 -3.0590234606e+00 1.7661280185e+00 3.0590234606e+00 
62300 5.6181676645e+00 5.6137509491e-05 1.7661280185e+00 -3.0590234606e+00 1.7661280185e+00 3.0590234606e+00 
62400 5.6181676650e+00 5.6105479329e-05 1.7661280185e+00 -3.0590234606e+00 1.7661280185e+00 3.0590234606e+00 
62500 5.6181676655e+00 5.6073886163e-05 1.7661280185e+00 -3.0590234606e+00 1.7661280185e+00 3.0590234606e+00 
62600 5.6181676660e+00 5.6042726112e-05 1.7661280185e+00 -3.0590234606e+00 1.7661280185e+00 3.0590234606e+00 
62700 5.6181676665e+00 5.6011995074e-05 1.7661280185e+00 -3.0590234606e+00 1.7661280185e+00 3.0590234606e+00 
62800 5.6181676669e+00 5.5981688738e-05 1.7661280185e+00 -3.0590234606e+00 1.7661280185e+00 3.0590234606e+00 
62900 5.6181676674e+00 5.5951802597e-05 1.7661280185e+00 -3.0590234606e+00 1.7661280185e+00 3.0590234606e+00 
63000 5.6181676678e+00 5.5922331965e-05 1.7661280185e+00 -3.0590234606e+00 1.7661280185e+00 3.0590234606e+00 
63100 5.6181676683e+00 5.5893271991e-05 1.7661280185e+00 -3.0590234606e+00 1.7661280185e+00 3.0590234606e+00 
63200 5.6181676687e+00 5.5864617672e-05 1.7661280185e+00 -3.0590234606e+00 1.7661280185e+00 3.0590234606e+00 
63300 5.6181676692e+00 5.5836363869e-05 1.7661280185e+00 -3.0590234606e+00 1.7661280185e+00 3.0590234606e+00 
63400 5.6181676696e+00 5.5808505317e-05 1.7661280185e+00 -3.0590234606e+00 1.7661280185e+00 3.0590234606e+00 
63500 5.6181676700e+00 5.5781036642e-05 1.7661280185e+00 -3.0590234606e+00 1.7661280185e+00 3.0590234606e+00 
63600 5.6181676704e+00 5.5753952372e-05 1.7661280185e+00 -3.0590234606e+00 1.7661280185e+00 3.0590234606e+00 
63700 5.6181676708e+00 5.5727246951e-05 1.7661280185e+00 -3.0590234606e+00 1.7661280185e+00 3.0590234606e+00 
63800 5.6181676712e+00 5.5700914749e-05 1.7661280185e+00 -3.0590234606e+00 1.7661280185e+00 3.0590234606e+00 
63900 5.6181676716e+00 5.5674950075e-05 1.7661280185e+00 -3.0590234606e+00 1.7661280185e+00 3.0590234606e+00 
64000 5.6181676720e+00 5.5649347188e-05 1.7661280185e+00 -3.0590234606e+00 1.7661280185e+00 3.0590234606e+00 
64100 5.6181676724e+00 5.5624100309e-05 1.7661280185e+00 -3.0590234606e+00 1.7661280185e+00 3.0590234606e+00 
64200 5.6181676728e+00 5.5599203632e-05 1.7661280185e+00 -3.0590234606e+00 1.7661280185e+00 3.0590234606e+00 
64300 5.6181676732e+00 5.5574651331e-05 1.7661280185e+00 -3.0590234606e+00 1.7661280185e+00 3.0590234606e+00 
64400 5.6181676735e+00 5.5550437575e-05 1.7661280185e+00 -3.0590234606e+00 1.7661280185e+00 3.0590234606e+00 
64500 5.6181676739e+00 5.5526556533e-05 1.7661280185e+00 -3.0590234606e+00 1.7661280185e+00 3.0590234606e+00 
64600 5.6181676743e+00 5.5503002387e-05 1.7661280185e+00 -3.0590234606e+00 1.7661280185e+00 3.0590234606e+00 
64700 5.6181676746e+00 5.5479769334e-05 1.7661280185e+00 -3.0590234606e+00 1.7661280185e+00 3.0590234606e+00 
64800 5.6181676750e+00 5.5456851604e-05 1.7661280185e+00 -3.0590234606e+00 1.7661280185e+00 3.0590234606e+00 
64900 5.6181676753e+00 5.5434243458e-05 1.7661280185e+00 -3.0590234606e+00 1.7661280185e+00 3.0590234606e+00 
65000 5.6181676756e+00 5.5411939202e-05 1.7661280185e+00 -3.0590234606e+00 1.7661280185e+00 3.0590234606e+00 
65100 5.6181676760e+00 5.5389933193e-05 1.7661280185e+00 -3.0590234606e+00 1.7661280185e+00 3.0590234606e+00 
65200 5.6181676763e+00 5.5368219840e-05 1.7661280185e+00 -3.0590234606e+00 1.7661280185e+00 3.0590234606e+00 
65300 5.6181676766e+00 5.5346793618e-05 1.7661280185e+00 -3.0590234606e+00 1.7661280185e+00 3.0590234606e+00 
65400 5.6181676769e+00 5.5325649070e-05 1.7661280185e+00 -3.0590234606e+00 1.7661280185e+00 3.0590234606e+00 
65500 5.6181676772e+00 5.5304780811e-05 1.7661280185e+00 -3.0590234606e+00 1.7661280185e+00 3.0590234606e+00 
65600 5.6181676775e+00 5.5284183536e-05 1.7661280185e+00 -3.0590234606e+00 1.7661280185e+00 3.0590234606e+00 
65700 5.6181676778e+00 5.5263852022e-05 1.7661280185e+00 -3.0590234606e+00 1.7661280185e+00 3.0590234606e+00 
65800 5.6181676781e+00 5.5243781133e-05 1.7661280185e+00 -3.0590234606e+00 1.7661280185e+00 3.0590234606e+00 
65900 5.6181676784e+00 5.5223965824e-05 1.7661280185e+00 -3.0590234606e+00 1.7661280185e+00 3.0590234606e+00 
66000 5.6181676787e+00 5.5204401147e-05 1.7661280185e+00 -3.0590234606e+00 1.7661280185e+00 3.0590234606e+00 
66100 5.6181676790e+00 5.5185082249e-05 1.7661280185e+00 -3.0590234606e+00 1.7661280185e+00 3.0590234606e+00 
66200 5.6181676793e+00 5.5166004378e-05 1.7661280185e+00 -3.0590234606e+00 1.7661280185e+00 3.0590234606e+00 
66300 5.6181676796e+00 5.5147162884e-05 1.7661280185e+00 -3.0590234606e+00 1.7661280185e+00 3.0590234606e+00 
66400 5.6181676798e+00 5.5128553222e-05 1.7661280185e+00 -3.0590234606e+00 1.7661280185e+00 3.0590234606e+00 
66500 5.6181676801e+00 5.5110170956e-05 1.7661280185e+00 -3.0590234606e+00 1.7661280185e+00 3.0590234606e+00 
66600 5.6181676804e+00 5.5092011757e-05 1.7661280185e+00 -3.0590234606e+00 1.7661280185e+00 3.0590234606e+00 
66700 5.6181676806e+00 5.5074071403e-05 1.7661280185e+00 -3.0590234606e+00 1.7661280185e+00 3.0590234606e+00 
66800 5.6181676809e+00 5.5056345784e-05 1.7661280185e+00 -3.0590234606e+00 1.7661280185e+00 3.0590234606e+00 
66900 5.6181676811e+00 5.5038830901e-05 1.7661280185e+00 -3.0590234606e+00 1.7661280185e+00 3.0590234606e+00 
67000 5.6181676814e+00 5.5021522865e-05 1.7661280185e+00 -3.0590234606e+00 1.7661280185e+00 3.0590234606e+00 
67100 5.6181676816e+00 5.5004417899e-05 1.7661280185e+00 -3.0590234606e+00 1.7661280185e+00 3.0590234606e+00 
67200 5.6181676819e+00 5.4987512337e-05 1.7661280185e+00 -3.0590234606e+00 1.7661280185e+00 3.0590234606e+00 
67300 5.6181676821e+00 5.4970802622e-05 1.7661280185e+00 -3.0590234606e+00 1.7661280185e+00 3.0590234606e+00 
67400 5.6181676823e+00 5.4954285310e-05 1.7661280185e+00 -3.0590234606e+00 1.7661280185e+00 3.0590234606e+00 
67500 5.6181676826e+00 5.4937957064e-05 1.7661280185e+00 -3.0590234606e+00 1.7661280185e+00 3.0590234606e+00 
67600 5.6181676828e+00 5.4921814656e-05 1.7661280185e+00 -3.0590234606e+00 1.7661280185e+00 3.0590234606e+00 
67700 5.6181676830e+00 5.4905854966e-05 1.7661280185e+00 -3.0590234606e+00 1.7661280185e+00 3.0590234606e+00 
67800 5.6181676833e+00 5.4890074977e-05 1.7661280185e+00 -3.0590234606e+00 1.7661280185e+00 3.0590234606e+00 
67900 5.6181676835e+00 5.4874471777e-05 1.7661280185e+00 -3.0590234606e+00 1.7661280185e+00 3.0590234606e+00 
68000 5.6181676837e+00 5.4859042560e-05 1.7661280185e+00 -3.0590234606e+00 1.7661280185e+00 3.0590234606e+00 
68100 5.6181676839e+00 5.4843784614e-05 1.7661280185e+00 -3.0590234606e+00 1.7661280185e+00 3.0590234606e+00 
68200 5.6181676841e+00 5.4828695332e-05 1.7661280185e+00 -3.0590234606e+00 1.7661280185e+00 3.0590234606e+00 
68300 5.6181676843e+00 5.4813772202e-05 1.7661280185e+00 -3.0590234606e+00 1.7661280185e+00 3.0590234606e+00 
68400 5.6181676845e+00 5.4799012803e-05 1.7661280185e+00 -3.0590234606e+00 1.7661280185e+00 3.0590234606e+00 
68500 5.6181676847e+00 5.4784414808e-05 1.7661280185e+00 -3.0590234606e+00 1.7661280185e+00 3.0590234606e+00 
68600 5.6181676849e+00 5.4769975983e-05 1.7661280185e+00 -3.0590234606e+00 1.7661280185e+00 3.0590234606e+00 
68700 5.6181676851e+00 5.4755694178e-05 1.7661280185e+00 -3.0590234606e+00 1.7661280185e+00 3.0590234606e+00 
68800 5.6181676853e+00 5.4741567327e-05 1.7661280185e+00 -3.0590234606e+00 1.7661280185e+00 3.0590234606e+00 
68900 5.6181676855e+00 5.4727593449e-05 1.7661280185e+00 -3.0590234606e+00 1.7661280185e+00 3.0590234606e+00 
69000 5.6181676857e+00 5.4713770639e-05 1.7661280185e+00 -3.0590234606e+00 1.7661280185e+00 3.0590234606e+00 
69100 5.6181676858e+00 5.4700097074e-05 1.7661280185e+00 -3.0590234606e+00 1.7661280185e+00 3.0590234606e+00 
69200 5.6181676860e+00 5.4686571002e-05 1.7661280185e+00 -3.0590234606e+00 1.7661280185e+00 3.0590234606e+00 
69300 5.6181676862e+00 5.4673190740e-05 1.7661280185e+00 -3.0590234606e+00 1.7661280185e+00 3.0590234606e+00 
69400 5.6181676864e+00 5.4659954680e-05 1.7661280185e+00 -3.0590234606e+00 1.7661280185e+00 3.0590234606e+00 
69500 5.6181676865e+00 5.4646861273e-05 1.7661280185e+00 -3.0590234606e+00 1.7661280185e+00 3.0590234606e+00 
69600 5.6181676867e+00 5.4633909036e-05 1.7661280185e+00 -3.0590234606e+00 1.7661280185e+00 3.0590234606e+00 
69700 5.6181676869e+00 5.4621096549e-05 1.7661280185e+00 -3.0590234606e+00 1.7661280185e+00 3.0590234606e+00 
69800 5.6181676871e+00 5.4608422446e-05 1.7661280185e+00 -3.0590234606e+00 1.7661280185e+00 3.0590234606e+00 
69900 5.6181676872e+00 5.4595885415e-05 1.7661280185e+00 -3.0590234606e+00 1.7661280185e+00 3.0590234606e+00 
70000 5.6181676874e+00 5.4583484200e-05 1.7661280185e+00 -3.0590234606e+00 1.7661280185e+00 3.0590234606e+00 
70100 5.6181676875e+00 5.4571217590e-05 1.7661280185e+00 -3.0590234606e+00 1.7661280185e+00 3.0590234606e+00 
70200 5.6181676877e+00 5.4559084423e-05 1.7661280185e+00 -3.0590234606e+00 1.7661280185e+00 3.0590234606e+00 
70300 5.6181676878e+00 5.4547083582e-05 1.7661280185e+00 -3.0590234606e+00 1.7661280185e+00 3.0590234606e+00 
70400 5.6181676880e+00 5.4535213987e-05 1.7661280185e+00 -3.0590234606e+00 1.7661280185e+00 3.0590234606e+00 
70500 5.6181676881e+00 5.4523474602e-05 1.7661280185e+00 -3.0590234606e+00 1.7661280185e+00 3.0590234606e+00 
70600 5.6181676883e+00 5.4511864423e-05 1.7661280185e+00 -3.0590234606e+00 1.7661280185e+00 3.0590234606e+00 
70700 5.6181676884e+00 5.4500382481e-05 1.7661280185e+00 -3.0590234606e+00 1.7661280185e+00 3.0590234606e+00 
70800 5.6181676886e+00 5.4489027840e-05 1.7661280185e+00 -3.0590234606e+00 1.7661280185e+00 3.0590234606e+00 
70900 5.6181676887e+00 5.4477799592e-05 1.7661280185e+00 -3.0590234606e+00 1.7661280185e+00 3.0590234606e+00 
71000 5.6181676889e+00 5.4466696852e-05 1.7661280185e+00 -3.0590234606e+00 1.7661280185e+00 3.0590234606e+00 
71100 5.6181676890e+00 5.4455718767e-05 1.7661280185e+00 -3.0590234606e+00 1.7661280185e+00 3.0590234606e+00 
71200 5.6181676891e+00 5.4444864499e-05 1.7661280185e+00 -3.0590234606e+00 1.7661280185e+00 3.0590234606e+00 
71300 5.6181676893e+00 5.4434133232e-05 1.7661280185e+00 -3.0590234606e+00 1.7661280185e+00 3.0590234606e+00 
71400 5.6181676894e+00 5.4423524173e-05 1.7661280185e+00 -3.0590234606e+00 1.7661280185e+00 3.0590234606e+00 
71500 5.6181676895e+00 5.4413036539e-05 1.7661280185e+00 -3.0590234606e+00 1.7661280185e+00 3.0590234606e+00 
71600 5.6181676896e+00 5.4402669563e-05 1.7661280185e+00 -3.0590234606e+00 1.7661280185e+00 3.0590234606e+00 
71700 5.6181676898e+00 5.4392422493e-05 1.7661280185e+00 -3.0590234606e+00 1.7661280185e+00 3.0590234606e+00 
71800 5.6181676899e+00 5.4382294585e-05 1.7661280185e+00 -3.0590234606e+00 1.7661280185e+00 3.0590234606e+00 
71900 5.6181676900e+00 5.4372285105e-05 1.7661280185e+00 -3.0590234606e+00 1.7661280185e+00 3.0590234606e+00 
72000 5.6181676901e+00 5.4362393326e-05 1.7661280185e+00 -3.0590234606e+00 1.7661280185e+00 3.0590234606e+00 
72100 5.6181676902e+00 5.4352618528e-05 1.7661280185e+00 -3.0590234606e+00 1.7661280185e+00 3.0590234606e+00 
72200 5.6181676904e+00 5.4342959997e-05 1.7661280185e+00 -3.0590234606e+00 1.7661280185e+00 3.0590234606e+00 
72300 5.6181676905e+00 5.4333417018e-05 1.7661280185e+00 -3.0590234606e+00 1.7661280185e+00 3.0590234606e+00 
72400 5.6181676906e+00 5.4323988881e-05 1.7661280185e+00 -3.0590234606e+00 1.7661280185e+00 3.0590234606e+00 
72500 5.6181676907e+00 5.4314674878e-05 1.7661280185e+00 -3.0590234606e+00 1.7661280185e+00 3.0590234606e+00 
72600 5.6181676908e+00 5.4305474297e-05 1.7661280185e+00 -3.0590234606e+00 1.7661280185e+00 3.0590234606e+00 
72700 5.6181676909e+00 5.4296386426e-05 1.7661280185e+00 -3.0590234606e+00 1.7661280185e+00 3.0590234606e+00 
72800 5.6181676910e+00 5.4287410553e-05 1.7661280185e+00 -3.0590234606e+00 1.7661280185e+00 3.0590234606e+00 
72900 5.6181676911e+00 5.4278545961e-05 1.7661280185e+00 -3.0590234606e+00 1.7661280185e+00 3.0590234606e+00 
73000 5.6181676912e+00 5.4269791927e-05 1.7661280185e+00 -3.0590234606e+00 1.7661280185e+00 3.0590234606e+00 
73100 5.6181676913e+00 5.4261147727e-05 1.7661280185e+00 -3.0590234606e+00 1.7661280185e+00 3.0590234606e+00 
73200 5.6181676914e+00 5.4252612629e-05 1.7661280185e+00 -3.0590234606e+00 1.7661280185e+00 3.0590234606e+00 
73300 5.6181676915e+00 5.4244185895e-05 1.7661280185e+00 -3.0590234606e+00 1.7661280185e+00 3.0590234606e+00 
73400 5.6181676916e+00 5.4235866782e-05 1.7661280185e+00 -3.0590234606e+00 1.7661280185e+00 3.0590234606e+00 
73500 5.6181676917e+00 5.4227654536e-05 1.7661280185e+00 -3.0590234606e+00 1.7661280185e+00 3.0590234606e+00 
73600 5.6181676918e+00 5.4219548401e-05 1.7661280185e+00 -3.0590234606e+00 1.7661280185e+00 3.0590234606e+00 
73700 5.6181676919e+00 5.4211547609e-05 1.7661280185e+00 -3.0590234606e+00 1.7661280185e+00 3.0590234606e+00 
73800 5.6181676920e+00 5.4203651384e-05 1.7661280185e+00 -3.0590234606e+00 1.7661280185e+00 3.0590234606e+00 
73900 5.6181676921e+00 5.4195858943e-05 1.7661280185e+00 -3.0590234606e+00 1.7661280185e+00 3.0590234606e+00 
74000 5.6181676922e+00 5.4188169495e-05 1.7661280185e+00 -3.0590234606e+00 1.7661280185e+00 3.0590234606e+00 
74100 5.6181676923e+00 5.4180582236e-05 1.7661280185e+00 -3.0590234606e+00 1.7661280185e+00 3.0590234606e+00 
74200 5.6181676924e+00 5.4173096358e-05 1.7661280185e+00 -3.0590234606e+00 1.7661280185e+00 3.0590234606e+00 
74300 5.6181676925e+00 5.4165711040e-05 1.7661280185e+00 -3.0590234606e+00 1.7661280185e+00 3.0590234606e+00 
74400 5.6181676925e+00 5.4158425457e-05 1.7661280185e+00 -3.0590234606e+00 1.7661280185e+00 3.0590234606e+00 
74500 5.6181676926e+00 5.4151238769e-05 1.7661280185e+00 -3.0590234606e+00 1.7661280185e+00 3.0590234606e+00 
74600 5.6181676927e+00 5.4144150128e-05 1.7661280185e+00 -3.0590234606e+00 1.7661280185e+00 3.0590234606e+00 
74700 5.6181676928e+00 5.4137158684e-05 1.7661280185e+00 -3.0590234606e+00 1.7661280185e+00 3.0590234606e+00 
74800 5.6181676929e+00 5.4130263571e-05 1.7661280185e+00 -3.0590234606e+00 1.7661280185e+00 3.0590234606e+00 
74900 5.6181676929e+00 5.4123463918e-05 1.7661280185e+00 -3.0590234606e+00 1.7661280185e+00 3.0590234606e+00 
75000 5.6181676930e+00 5.4116758845e-05 1.7661280185e+00 -3.0590234606e+00 1.7661280185e+00 3.0590234606e+00 
75100 5.6181676931e+00 5.4110147463e-05 1.7661280185e+00 -3.0590234606e+00 1.7661280185e+00 3.0590234606e+00 
75200 5.6181676932e+00 5.4103628879e-05 1.7661280185e+00 -3.0590234606e+00 1.7661280185e+00 3.0590234606e+00 
75300 5.6181676932e+00 5.4097202188e-05 1.7661280185e+00 -3.0590234606e+00 1.7661280185e+00 3.0590234606e+00 
75400 5.6181676933e+00 5.4090866482e-05 1.7661280185e+00 -3.0590234606e+00 1.7661280185e+00 3.0590234606e+00 
75500 5.6181676934e+00 5.4084620845e-05 1.7661280185e+00 -3.0590234606e+00 1.7661280185e+00 3.0590234606e+00 
75600 5.6181676935e+00 5.4078464355e-05 1.7661280185e+00 -3.0590234606e+00 1.7661280185e+00 3.0590234606e+00 
75700 5.6181676935e+00 5.4072396081e-05 1.7661280185e+00 -3.0590234606e+00 1.7661280185e+00 3.0590234606e+00 
75800 5.6181676936e+00 5.4066415091e-05 1.7661280185e+00 -3.0590234606e+00 1.7661280185e+00 3.0590234606e+00 
75900 5.6181676937e+00 5.4060520449e-05 1.7661280185e+00 -3.0590234606e+00 1.7661280185e+00 3.0590234606e+00 
76000 5.6181676937e+00 5.4054711211e-05 1.7661280185e+00 -3.0590234606e+00 1.7661280185e+00 3.0590234606e+00 
76100 5.6181676938e+00 5.4048986429e-05 1.7661280185e+00 -3.0590234606e+00 1.7661280185e+00 3.0590234606e+00 
76200 5.6181676939e+00 5.4043345154e-05 1.7661280185e+00 -3.0590234606e+00 1.7661280185e+00 3.0590234606e+00 
76300 5.6181676939e+00 5.4037786432e-05 1.7661280185e+00 -3.0590234606e+00 1.7661280185e+00 3.0590234606e+00 
76400 5.6181676940e+00 5.4032309308e-05 1.7661280185e+00 -3.0590234606e+00 1.7661280185e+00 3.0590234606e+00 
76500 5.6181676941e+00 5.4026912823e-05 1.7661280185e+00 -3.0590234606e+00 1.7661280185e+00 3.0590234606e+00 
76600 5.6181676941e+00 5.4021596020e-05 1.7661280185e+00 -3.0590234606e+00 1.7661280185e+00 3.0590234606e+00 
76700 5.6181676942e+00 5.4016357934e-05 1.7661280185e+00 -3.0590234606e+00 1.7661280185e+00 3.0590234606e+00 
76800 5.6181676943e+00 5.4011197609e-05 1.7661280185e+00 -3.0590234606e+00 1.7661280185e+00 3.0590234606e+00 
76900 5.6181676943e+00 5.4006114081e-05 1.7661280185e+00 -3.0590234606e+00 1.7661280185e+00 3.0590234606e+00 
77000 5.6181676944e+00 5.4001106389e-05 1.7661280185e+00 -3.0590234606e+00 1.7661280185e+00 3.0590234606e+00 
77100 5.6181676944e+00 5.3996173575e-05 1.7661280185e+00 -3.0590234606e+00 1.7661280185e+00 3.0590234606e+00 
77200 5.6181676945e+00 5.3991314680e-05 1.7661280185e+00 -3.0590234606e+00 1.7661280185e+00 3.0590234606e+00 
77300 5.6181676945e+00 5.3986528746e-05 1.7661280185e+00 -3.0590234606e+00 1.7661280185e+00 3.0590234606e+00 
77400 5.6181676946e+00 5.3981814822e-05 1.7661280185e+00 -3.0590234606e+00 1.7661280185e+00 3.0590234606e+00 
77500 5.6181676947e+00 5.3977171954e-05 1.7661280185e+00 -3.0590234606e+00 1.7661280185e+00 3.0590234606e+00 
77600 5.6181676947e+00 5.3972599195e-05 1.7661280185e+00 -3.0590234606e+00 1.7661280185e+00 3.0590234606e+00 
77700 5.6181676948e+00 5.3968095601e-05 1.7661280185e+00 -3.0590234606e+00 1.7661280185e+00 3.0590234606e+00 
77800 5.6181676948e+00 5.3963660231e-05 1.7661280185e+00 -3.0590234606e+00 1.7661280185e+00 3.0590234606e+00 
77900 5.6181676949e+00 5.3959292151e-05 1.7661280185e+00 -3.0590234606e+00 1.7661280185e+00 3.0590234606e+00 
78000 5.6181676949e+00 5.3954990431e-05 1.7661280185e+00 -3.0590234606e+00 1.7661280185e+00 3.0590234606e+00 
78100 5.6181676950e+00 5.3950754144e-05 1.7661280185e+00 -3.0590234606e+00 1.7661280185e+00 3.0590234606e+00 
78200 5.6181676950e+00 5.3946582373e-05 1.7661280185e+00 -3.0590234606e+00 1.7661280185e+00 3.0590234606e+00 
78300 5.6181676950e+00 5.3946003421e-05 1.7661280185e+00 -3.0590234606e+00 1.7661280185e+00 3.0590234606e+00 
78300 5.6181676950e+00 5.3946003421e-05 1.7661280185e+00 -3.0590234606e+00 1.7661280185e+00 3.0590234606e+00 
