# step Hamiltonian StressXX CellTensor1 CellTensor2 CellTensor3 CellTensor4 
0 5.5436840453e+00 -4.6199563644e-01 1.6087831444e+00 -2.7864941444e+00 1.6087831444e+00 2.7864941444e+00 
100 5.5417874898e+00 -4.6643199496e-01 1.6087831444e+00 -2.7864941444e+00 1.6087831444e+00 2.7864941444e+00 
200 5.5327754624e+00 -4.5522392454e-01 1.6233011427e+00 -2.8116400552e+00 1.6233011427e+00 2.8116400552e+00 
300 5.5253593244e+00 -4.4445989393e-01 1.6373427042e+00 -2.8359607530e+00 1.6373427042e+00 2.8359607530e+00 
400 5.5194249446e+00 -4.3414310654e-01 1.6509338996e+00 -2.8595013941e+00 1.6509338996e+00 2.8595013941e+00 
500 5.5148531089e+00 -4.2427613784e-01 1.6640996242e+00 -2.8823050979e+00 1.6640996242e+00 2.8823050979e+00 
600 5.5115208777e+00 -4.1486083618e-01 1.6768636952e+00 -2.9044131174e+00 1.6768636952e+00 2.9044131174e+00 
700 5.5093029510e+00 -4.0589823203e-01 1.6892489346e+00 -2.9258649813e+00 1.6892489346e+00 2.9258649813e+00 
800 5.5080730174e+00 -3.9738845036e-01 1.7012772377e+00 -2.9466986135e+00 1.7012772377e+00 2.9466986135e+00 
900 5.5077050682e+00 -3.8933062402e-01 1.7129696302e+00 -2.9669504313e+00 1.7129696302e+00 2.9669504313e+00 
1000 5.5080746567e+00 -3.8172280878e-01 1.7243463137e+00 -2.9866554252e+00 1.7243463137e+00 2.9866554252e+00 
1100 5.5090600860e+00 -3.7456190173e-01 1.7354267035e+00 -3.0058472232e+00 1.7354267035e+00 3.0058472232e+00 
1200 5.5105435083e+00 -3.6784356627e-01 1.7462294559e+00 -3.0245581392e+00 1.7462294559e+00 3.0245581392e+00 
1300 5.5124119252e+00 -3.6156216688e-01 1.7567724898e+00 -3.0428192096e+00 1.7567724898e+00 3.0428192096e+00 
1400 5.5145580750e+00 -3.5571071705e-01 1.7670730010e+00 -3.0606602183e+00 1.7670730010e+00 3.0606602183e+00 
1500 5.5168812019e+00 -3.5028084351e-01 1.7771474711e+00 -3.0781097124e+00 1.7771474711e+00 3.0781097124e+00 
1600 5.5192876979e+00 -3.4526276909e-01 1.7870116722e+00 -3.0951950100e+00 1.7870116722e+00 3.0951950100e+00 
1700 5.5216916186e+00 -3.4064531614e-01 1.7966806681e+00 -3.1119422021e+00 1.7966806681e+00 3.1119422021e+00 
1800 5.5240150685e+00 -3.3641593143e-01 1.8061688122e+00 -3.1283761498e+00 1.8061688122e+00 3.1283761498e+00 
1900 5.5261884605e+00 -3.3256073271e-01 1.8154897447e+00 -3.1445204785e+00 1.8154897447e+00 3.1445204785e+00 
2000 5.5281506527e+00 -3.2906457644e-01 1.8246563884e+00 -3.1603975711e+00 1.8246563884e+00 3.1603975711e+00 
2100 5.5298489699e+00 -3.2591114518e-01 1.8336809444e+00 -3.1760285605e+00 1.8336809444e+00 3.1760285605e+00 
2200 5.5312391159e+00 -3.2308305282e-01 1.8425748887e+00 -3.1914333240e+00 1.8425748887e+00 3.1914333240e+00 
2300 5.5322849891e+00 -3.2056196505e-01 1.8513489704e+00 -3.2066304792e+00 1.8513489704e+00 3.2066304792e+00 
2400 5.5329584087e+00 -3.1832873229e-01 1.8600132106e+00 -3.2216373835e+00 1.8600132106e+00 3.2216373835e+00 
2500 5.5332387657e+00 -3.1636353189e-01 1.8685769051e+00 -3.2364701374e+00 1.8685769051e+00 3.2364701374e+00 
2600 5.5331126089e+00 -3.1464601632e-01 1.8770486283e+00 -3.2511435925e+00 1.8770486283e+00 3.2511435925e+00 
2700 5.5325731774e+00 -3.1315546427e-01 1.8854362409e+00 -3.2656713637e+00 1.8854362409e+00 3.2656713637e+00 
2800 5.5316198931e+00 -3.1187093142e-01 1.8937468997e+00 -3.2800658469e+00 1.8937468997e+00 3.2800658469e+00 
2900 5.5302578229e+00 -3.1077139807e-01 1.9019870705e+00 -3.2943382415e+00 1.9019870705e+00 3.2943382415e+00 
3000 5.5284971211e+00 -3.0983591110e-01 1.9101625447e+00 -3.3084985781e+00 1.9101625447e+00 3.3084985781e+00 
3100 5.5263524638e+00 -3.0904371800e-01 1.9182784570e+00 -3.3225557506e+00 1.9182784570e+00 3.3225557506e+00 
3200 5.5238424811e+00 -3.0837439119e-01 1.9263393072e+00 -3.3365175526e+00 1.9263393072e+00 3.3365175526e+00 
3300 5.5209891985e+00 -3.0780794122e-01 1.9343489828e+00 -3.3503907178e+00 1.9343489828e+00 3.3503907178e+00 
3400 5.5178174912e+00 -3.0732491786e-01 1.9423107853e+00 -3.3641809642e+00 1.9423107853e+00 3.3641809642e+00 
3500 5.5143545594e+00 -3.0690649841e-01 1.9502274561e+00 -3.3778930402e+00 1.9502274561e+00 3.3778930402e+00 
3600 5.5106294277e+00 -3.0653456306e-01 1.9581012055e+00 -3.3915307743e+00 1.9581012055e+00 3.3915307743e+00 
3700 5.5066724737e+00 -3.0619175736e-01 1.9659337417e+00 -3.4050971250e+00 1.9659337417e+00 3.4050971250e+00 
3800 5.5025149872e+00 -3.0586154200e-01 1.9737263011e+00 -3.4185942337e+00 1.9737263011e+00 3.4185942337e+00 
3900 5.4981887637e+00 -3.0552823068e-01 1.9814796781e+00 -3.4320234766e+00 1.9814796781e+00 3.4320234766e+00 
4000 5.4937257313e+00 -3.0517701666e-01 1.9891942560e+00 -3.4453855175e+00 1.9891942560e+00 3.4453855175e+00 
4100 5.4891576132e+00 -3.0479398894e-01 1.9968700374e+00 -3.4586803608e+00 1.9968700374e+00 3.4586803608e+00 
4200 5.4845156246e+00 -3.0436613912e-01 2.0045066735e+00 -3.4719074026e+00 2.0045066735e+00 3.4719074026e+00 
4300 5.4798302041e+00 -3.0388135981e-01 2.0121034939e+00 -3.4850654815e+00 2.0121034939e+00 3.4850654815e+00 
4400 5.4751307783e+00 -3.0332843582e-01 2.0196595348e+00 -3.4981529282e+00 2.0196595348e+00 3.4981529282e+00 
4500 5.4704455575e+00 -3.0269702919e-01 2.0271735663e+00 -3.5111676126e+00 2.0271735663e+00 3.5111676126e+00 
4600 5.4658013629e+00 -3.0197765888e-01 2.0346441193e+00 -3.5241069900e+00 2.0346441193e+00 3.5241069900e+00 
4700 5.4612234809e+00 -3.0116167645e-01 2.0420695102e+00 -3.5369681442e+00 2.0420695102e+00 3.5369681442e+00 
4800 5.4567355450e+00 -3.0024123831e-01 2.0494478651e+00 -3.5497478299e+00 2.0494478651e+00 3.5497478299e+00 
4900 5.4523594414e+00 -2.9920927564e-01 2.0567771428e+00 -3.5624425112e+00 2.0567771428e+00 3.5624425112e+00 
5000 5.4481152381e+00 -2.9805946264e-01 2.0640551557e+00 -3.5750483993e+00 2.0640551557e+00 3.5750483993e+00 
5100 5.4440211337e+00 -2.9678618385e-01 2.0712795903e+00 -3.5875614871e+00 2.0712795903e+00 3.5875614871e+00 
5200 5.4400934259e+00 -2.9538450113e-01 2.0784480259e+00 -3.5999775817e+00 2.0784480259e+00 3.5999775817e+00 
5300 5.4363464957e+00 -2.9385012089e-01 2.0855579520e+00 -3.6122923350e+00 2.0855579520e+00 3.6122923350e+00 
5400 5.4327928081e+00 -2.9217936200e-01 2.0926067851e+00 -3.6245012721e+00 2.0926067851e+00 3.6245012721e+00 
5500 5.4294429251e+00 -2.9036912474e-01 2.0995918834e+00 -3.6365998172e+00 2.0995918834e+00 3.6365998172e+00 
5600 5.4263055310e+00 -2.8841686126e-01 2.1065105610e+00 -3.6485833183e+00 2.1065105610e+00 3.6485833183e+00 
5700 5.4233874689e+00 -2.8632054758e-01 2.1133601012e+00 -3.6604470699e+00 2.1133601012e+00 3.6604470699e+00 
5800 5.4206937853e+00 -2.8407865761e-01 2.1201377681e+00 -3.6721863334e+00 2.1201377681e+00 3.6721863334e+00 
5900 5.4182277840e+00 -2.8169013912e-01 2.1268408183e+00 -3.6837963570e+00 2.1268408183e+00 3.6837963570e+00 
6000 5.4159910859e+00 -2.7915439191e-01 2.1334665109e+00 -3.6952723931e+00 2.1334665109e+00 3.6952723931e+00 
6100 5.4139836960e+00 -2.7647124820e-01 2.1400121169e+00 -3.7066097153e+00 2.1400121169e+00 3.7066097153e+00 
6200 5.4122040751e+00 -2.7364095524e-01 2.1464749289e+00 -3.7178036339e+00 2.1464749289e+00 3.7178036339e+00 
6300 5.4106492161e+00 -2.7066416025e-01 2.1528522684e+00 -3.7288495100e+00 2.1528522684e+00 3.7288495100e+00 
6400 5.4093147249e+00 -2.6754189745e-01 2.1591414946e+00 -3.7397427693e+00 2.1591414946e+00 3.7397427693e+00 
6500 5.4081949041e+00 -2.6427557739e-01 2.1653400110e+00 -3.7504789147e+00 2.1653400110e+00 3.7504789147e+00 
6600 5.4072828401e+00 -2.6086697820e-01 2.1714452730e+00 -3.7610535386e+00 2.1714452730e+00 3.7610535386e+00 
6700 5.4065704930e+00 -2.5731823883e-01 2.1774547939e+00 -3.7714623342e+00 2.1774547939e+00 3.7714623342e+00 
6800 5.4060487882e+00 -2.5363185409e-01 2.1833661520e+00 -3.7817011067e+00 2.1833661520e+00 3.7817011067e+00 
6900 5.4057077112e+00 -2.4981067131e-01 2.1891769961e+00 -3.7917657841e+00 2.1891769961e+00 3.7917657841e+00 
7000 5.4055364033e+00 -2.4585788839e-01 2.1948850522e+00 -3.8016524272e+00 2.1948850522e+00 3.8016524272e+00 
7100 5.4055232590e+00 -2.4177705308e-01 2.2004881288e+00 -3.8113572406e+00 2.2004881288e+00 3.8113572406e+00 
7200 5.4056560256e+00 -2.3757206331e-01 2.2059841232e+00 -3.8208765820e+00 2.2059841232e+00 3.8208765820e+00 
7300 5.4059219030e+00 -2.3324716811e-01 2.2113710268e+00 -3.8302069728e+00 2.2113710268e+00 3.8302069728e+00 
7400 5.4063076457e+00 -2.2880696908e-01 2.2166469315e+00 -3.8393451079e+00 2.2166469315e+00 3.8393451079e+00 
7500 5.4067996647e+00 -2.2425642197e-01 2.2218100351e+00 -3.8482878656e+00 2.2218100351e+00 3.8482878656e+00 
7600 5.4073841306e+00 -2.1960083807e-01 2.2268586469e+00 -3.8570323177e+00 2.2268586469e+00 3.8570323177e+00 
7700 5.4080470770e+00 -2.1484588513e-01 2.2317911939e+00 -3.8655757397e+00 2.2317911939e+00 3.8655757397e+00 
7800 5.4087745036e+00 -2.0999758742e-01 2.2366062265e+00 -3.8739156208e+00 2.2366062265e+00 3.8739156208e+00 
7900 5.4095524794e+00 -2.0506232461e-01 2.2413024241e+00 -3.8820496736e+00 2.2413024241e+00 3.8820496736e+00 
8000 5.4103672451e+00 -2.0004682912e-01 2.2458786013e+00 -3.8899758450e+00 2.2458786013e+00 3.8899758450e+00 
8100 5.4112053140e+00 -1.9495818156e-01 2.2503337133e+00 -3.8976923254e+00 2.2503337133e+00 3.8976923254e+00 
8200 5.4120535714e+00 -1.8980380392e-01 2.2546668619e+00 -3.9051975589e+00 2.2546668619e+00 3.9051975589e+00 
8300 5.4128993716e+00 -1.8459145026e-01 2.2588773010e+00 -3.9124902534e+00 2.2588773010e+00 3.9124902534e+00 
8400 5.4137306314e+00 -1.7932919448e-01 2.2629644419e+00 -3.9195693891e+00 2.2629644419e+00 3.9195693891e+00 
8500 5.4145359204e+00 -1.7402541504e-01 2.2669278589e+00 -3.9264342288e+00 2.2669278589e+00 3.9264342288e+00 
8600 5.4153045459e+00 -1.6868877627e-01 2.2707672939e+00 -3.9330843252e+00 2.2707672939e+00 3.9330843252e+00 
8700 5.4160266327e+00 -1.6332820619e-01 2.2744826612e+00 -3.9395195301e+00 2.2744826612e+00 3.9395195301e+00 
8800 5.4166931965e+00 -1.5795287072e-01 2.2780740517e+00 -3.9457400009e+00 2.2780740517e+00 3.9457400009e+00 
8900 5.4172962094e+00 -1.5257214417e-01 2.2815417369e+00 -3.9517462078e+00 2.2815417369e+00 3.9517462078e+00 
9000 5.4178286577e+00 -1.4719557614e-01 2.2848861717e+00 -3.9575389390e+00 2.2848861717e+00 3.9575389390e+00 
9100 5.4182845897e+00 -1.4183285480e-01 2.2881079977e+00 -3.9631193052e+00 2.2881079977e+00 3.9631193052e+00 
9200 5.4186591546e+00 -1.3649376686e-01 2.2912080444e+00 -3.9684887436e+00 2.2912080444e+00 3.9684887436e+00 
9300 5.4189486292e+00 -1.3118815448e-01 2.2941873309e+00 -3.9736490191e+00 2.2941873309e+00 3.9736490191e+00 
9400 5.4191504337e+00 -1.2592586936e-01 2.2970470661e+00 -3.9786022259e+00 2.2970470661e+00 3.9786022259e+00 
9500 5.4192631354e+00 -1.2071672462e-01 2.2997886487e+00 -3.9833507862e+00 2.2997886487e+00 3.9833507862e+00 
9600 5.4192864396e+00 -1.1557044475e-01 2.3024136651e+00 -3.9878974480e+00 2.3024136651e+00 3.9878974480e+00 
9700 5.4192211676e+00 -1.1049661444e-01 2.3049238878e+00 -3.9922452812e+00 2.3049238878e+00 3.9922452812e+00 
9800 5.4190692220e+00 -1.0550462667e-01 2.3073212716e+00 -3.9963976718e+00 2.3073212716e+00 3.9963976718e+00 
9900 5.4188335389e+00 -1.0060363083e-01 2.3096079500e+00 -4.0003583149e+00 2.3096079500e+00 4.0003583149e+00 
10000 5.4185180285e+00 -9.5802481565e-02 2.3117862294e+00 -4.0041312055e+00 2.3117862294e+00 4.0041312055e+00 
10100 5.4181275029e+00 -9.1109688894e-02 2.3138585832e+00 -4.0077206276e+00 2.3138585832e+00 4.0077206276e+00 
10200 5.4176675937e+00 -8.6533370443e-02 2.3158276447e+00 -4.0111311422e+00 2.3158276447e+00 4.0111311422e+00 
10300 5.4171446597e+00 -8.2081206288e-02 2.3176961990e+00 -4.0143675733e+00 2.3176961990e+00 4.0143675733e+00 
10400 5.4165656853e+00 -7.7760397104e-02 2.3194671743e+00 -4.0174349923e+00 2.3194671743e+00 4.0174349923e+00 
10500 5.4159381731e+00 -7.3577626120e-02 2.3211436316e+00 -4.0203387016e+00 2.3211436316e+00 4.0203387016e+00 
10600 5.4152700296e+00 -6.9539025387e-02 2.3227287553e+00 -4.0230842164e+00 2.3227287553e+00 4.0230842164e+00 
10700 5.4145694478e+00 -6.5650146731e-02 2.3242258412e+00 -4.0256772452e+00 2.3242258412e+00 4.0256772452e+00 
10800 5.4138447886e+00 -6.1915937704e-02 2.3256382855e+00 -4.0281236705e+00 2.3256382855e+00 4.0281236705e+00 
10900 5.4131044605e+00 -5.8340722754e-02 2.3269695725e+00 -4.0304295273e+00 2.3269695725e+00 4.0304295273e+00 
11000 5.4123568034e+00 -5.4928189708e-02 2.3282232623e+00 -4.0326009816e+00 2.3282232623e+00 4.0326009816e+00 
11100 5.4116099743e+00 -5.1681381582e-02 2.3294029779e+00 -4.0346443090e+00 2.3294029779e+00 4.0346443090e+00 
11200 5.4108718405e+00 -4.8602693647e-02 2.3305123926e+00 -4.0365658717e+00 2.3305123926e+00 4.0365658717e+00 
11300 5.4101498783e+00 -4.5693875562e-02 2.3315552173e+00 -4.0383720970e+00 2.3315552173e+00 4.0383720970e+00 
11400 5.4094510825e+00 -4.2956038329e-02 2.3325351871e+00 -4.0400694545e+00 2.3325351871e+00 4.0400694545e+00 
11500 5.4087818847e+00 -4.0389665747e-02 2.3334560492e+00 -4.0416644344e+00 2.3334560492e+00 4.0416644344e+00 
11600 5.4081480839e+00 -3.7994629985e-02 2.3343215500e+00 -4.0431635258e+00 2.3343215500e+00 4.0431635258e+00 
11700 5.4075547890e+00 -3.5770210858e-02 2.3351354232e+00 -4.0445731956e+00 2.3351354232e+00 4.0445731956e+00 
11800 5.4070063739e+00 -3.3715118349e-02 2.3359013781e+00 -4.0458998683e+00 2.3359013781e+00 4.0458998683e+00 
11900 5.4065064465e+00 -3.1827517922e-02 2.3366230878e+00 -4.0471499062e+00 2.3366230878e+00 4.0471499062e+00 
12000 5.4060578303e+00 -3.0105058151e-02 2.3373041789e+00 -4.0483295906e+00 2.3373041789e+00 4.0483295906e+00 
12100 5.4056625593e+00 -2.8544900222e-02 2.3379482209e+00 -4.0494451040e+00 2.3379482209e+00 4.0494451040e+00 
12200 5.4053218859e+00 -2.7143748851e-02 2.3385587165e+00 -4.0505025134e+00 2.3385587165e+00 4.0505025134e+00 
12300 5.4050362999e+00 -2.5897884238e-02 2.3391390925e+00 -4.0515077543e+00 2.3391390925e+00 4.0515077543e+00 
12400 5.4048055589e+00 -2.4803194659e-02 2.3396926916e+00 -4.0524666160e+00 2.3396926916e+00 4.0524666160e+00 
12500 5.4046287292e+00 -2.3855209373e-02 2.3402227641e+00 -4.0533847284e+00 2.3402227641e+00 4.0533847284e+00 
12600 5.4045042346e+00 -2.3049131548e-02 2.3407324607e+00 -4.0542675489e+00 2.3407324607e+00 4.0542675489e+00 
12700 5.4044299128e+00 -2.2379870950e-02 2.3412248267e+00 -4.0551203517e+00 2.3412248267e+00 4.0551203517e+00 
12800 5.4044030783e+00 -2.1842076192e-02 2.3417027951e+00 -4.0559482174e+00 2.3417027951e+00 4.0559482174e+00 
12900 5.4044205894e+00 -2.1430166344e-02 2.3421691823e+00 -4.0567560236e+00 2.3421691823e+00 4.0567560236e+00 
13000 5.4044789189e+00 -2.1138361800e-02 2.3426266826e+00 -4.0575484374e+00 2.3426266826e+00 4.0575484374e+00 
13100 5.4045742256e+00 -2.0960714255e-02 2.3430778650e+00 -4.0583299083e+00 2.3430778650e+00 4.0583299083e+00 
13200 5.4047024275e+00 -2.0891135739e-02 2.3435251694e+00 -4.0591046623e+00 2.3435251694e+00 4.0591046623e+00 
13300 5.4048592733e+00 -2.0923426629e-02 2.3439709039e+00 -4.0598766970e+00 2.3439709039e+00 4.0598766970e+00 
13400 5.4050404121e+00 -2.1051302609e-02 2.3444172424e+00 -4.0606497780e+00 2.3444172424e+00 4.0606497780e+00 
13500 5.4052414602e+00 -2.1268420535e-02 2.3448662234e+00 -4.0614274359e+00 2.3448662234e+00 4.0614274359e+00 
13600 5.4054580642e+00 -2.1568403205e-02 2.3453197483e+00 -4.0622129641e+00 2.3453197483e+00 4.0622129641e+00 
13700 5.4056859589e+00 -2.1944863006e-02 2.3457795813e+00 -4.0630094182e+00 2.3457795813e+00 4.0630094182e+00 
13800 5.4059210202e+00 -2.2391424445e-02 2.3462473489e+00 -4.0638196154e+00 2.3462473489e+00 4.0638196154e+00 
13900 5.4061593126e+00 -2.2901745551e-02 2.3467245403e+00 -4.0646461352e+00 2.3467245403e+00 4.0646461352e+00 
14000 5.4063971298e+00 -2.3469538153e-02 2.3472125085e+00 -4.0654913209e+00 2.3472125085e+00 4.0654913209e+00 
14100 5.4066310299e+00 -2.4088587024e-02 2.3477124712e+00 -4.0663572816e+00 2.3477124712e+00 4.0663572816e+00 
14200 5.4068578638e+00 -2.4752767901e-02 2.3482255124e+00 -4.0672458950e+00 2.3482255124e+00 4.0672458950e+00 
14300 5.4070747970e+00 -2.5456064365e-02 2.3487525847e+00 -4.0681588111e+00 2.3487525847e+00 4.0681588111e+00 
14400 5.4072793262e+00 -2.6192583595e-02 2.3492945116e+00 -4.0690974560e+00 2.3492945116e+00 4.0690974560e+00 
14500 5.4074692893e+00 -2.6956570980e-02 2.3498519900e+00 -4.0700630369e+00 2.3498519900e+00 4.0700630369e+00 
14600 5.4076428699e+00 -2.7742423599e-02 2.3504255935e+00 -4.0710565473e+00 2.3504255935e+00 4.0710565473e+00 
14700 5.4077985966e+00 -2.8544702566e-02 2.3510157756e+00 -4.0720787728e+00 2.3510157756e+00 4.0720787728e+00 
14800 5.4079353381e+00 -2.9358144251e-02 2.3516228734e+00 -4.0731302970e+00 2.3516228734e+00 4.0731302970e+00 
14900 5.4080522936e+00 -3.0177670373e-02 2.3522471113e+00 -4.0742115088e+00 2.3522471113e+00 4.0742115088e+00 
15000 5.4081489791e+00 -3.0998396992e-02 2.3528886052e+00 -4.0753226088e+00 2.3528886052e+00 4.0753226088e+00 
15100 5.4082252111e+00 -3.1815642401e-02 2.3535473666e+00 -4.0764636169e+00 2.3535473666e+00 4.0764636169e+00 
15200 5.4082810872e+00 -3.2624933949e-02 2.3542233072e+00 -4.0776343804e+00 2.3542233072e+00 4.0776343804e+00 
15300 5.4083169648e+00 -3.3422013809e-02 2.3549162434e+00 -4.0788345812e+00 2.3549162434e+00 4.0788345812e+00 
15400 5.4083334373e+00 -3.4202843735e-02 2.3556259012e+00 -4.0800637445e+00 2.3556259012e+00 4.0800637445e+00 
15500 5.4083313098e+00 -3.4963608825e-02 2.3563519206e+00 -4.0813212469e+00 2.3563519206e+00 4.0813212469e+00 
15600 5.4083115736e+00 -3.5700720339e-02 2.3570938607e+00 -4.0826063250e+00 2.3570938607e+00 4.0826063250e+00 
15700 5.4082753804e+00 -3.6410817608e-02 2.3578512050e+00 -4.0839180838e+00 2.3578512050e+00 4.0839180838e+00 
15800 5.4082240163e+00 -3.7090769082e-02 2.3586233658e+00 -4.0852555055e+00 2.3586233658e+00 4.0852555055e+00 
15900 5.4081588763e+00 -3.7737672557e-02 2.3594096895e+00 -4.0866174581e+00 2.3594096895e+00 4.0866174581e+00 
16000 5.4080814392e+00 -3.8348854646e-02 2.3602094617e+00 -4.0880027041e+00 2.3602094617e+00 4.0880027041e+00 
16100 5.4079932435e+00 -3.8921869520e-02 2.3610219119e+00 -4.0894099092e+00 2.3610219119e+00 4.0894099092e+00 
16200 5.4078958641e+00 -3.9454497002e-02 2.3618462188e+00 -4.0908376506e+00 2.3618462188e+00 4.0908376506e+00 
16300 5.4077908911e+00 -3.9944740029e-02 2.3626815150e+00 -4.0922844260e+00 2.3626815150e+00 4.0922844260e+00 
16400 5.4076799091e+00 -4.0390821575e-02 2.3635268917e+00 -4.0937486615e+00 2.3635268917e+00 4.0937486615e+00 
16500 5.4075644784e+00 -4.0791181044e-02 2.3643814040e+00 -4.0952287202e+00 2.3643814040e+00 4.0952287202e+00 
16600 5.4074461183e+00 -4.1144470221e-02 2.3652440749e+00 -4.0967229100e+00 2.3652440749e+00 4.0967229100e+00 
16700 5.4073262913e+00 -4.1449548794e-02 2.3661139004e+00 -4.0982294919e+00 2.3661139004e+00 4.0982294919e+00 
16800 5.4072063902e+00 -4.1705479518e-02 2.3669898536e+00 -4.0997466875e+00 2.3669898536e+00 4.0997466875e+00 
16900 5.4070877256e+00 -4.1911523054e-02 2.3678708896e+00 -4.1012726866e+00 2.3678708896e+00 4.1012726866e+00 
17000 5.4069715165e+00 -4.2067132520e-02 2.3687559492e+00 -4.1028056547e+00 2.3687559492e+00 4.1028056547e+00 
17100 5.4068588818e+00 -4.2171947794e-02 2.3696439630e+00 -4.1043437397e+00 2.3696439630e+00 4.1043437397e+00 
17200 5.4067508339e+00 -4.2225789613e-02 2.3705338559e+00 -4.1058850794e+00 2.3705338559e+00 4.1058850794e+00 
17300 5.4066482738e+00 -4.2228653473e-02 2.3714245504e+00 -4.1074278076e+00 2.3714245504e+00 4.1074278076e+00 
17400 5.4065519878e+00 -4.2180703396e-02 2.3723149708e+00 -4.1089700610e+00 2.3723149708e+00 4.1089700610e+00 
17500 5.4064626456e+00 -4.2082265551e-02 2.3732040462e+00 -4.1105099847e+00 2.3732040462e+00 4.1105099847e+00 
17600 5.4063808003e+00 -4.1933821777e-02 2.3740907143e+00 -4.1120457389e+00 2.3740907143e+00 4.1120457389e+00 
17700 5.4063068888e+00 -4.1736003019e-02 2.3749739244e+00 -4.1135755037e+00 2.3749739244e+00 4.1135755037e+00 
17800 5.4062412346e+00 -4.1489582685e-02 2.3758526409e+00 -4.1150974854e+00 2.3758526409e+00 4.1150974854e+00 
17900 5.4061840504e+00 -4.1195469957e-02 2.3767258458e+00 -4.1166099206e+00 2.3767258458e+00 4.1166099206e+00 
18000 5.4061354428e+00 -4.0854703050e-02 2.3775925417e+00 -4.1181110820e+00 2.3775925417e+00 4.1181110820e+00 
18100 5.4060954172e+00 -4.0468442438e-02 2.3784517546e+00 -4.1195992824e+00 2.3784517546e+00 4.1195992824e+00 
18200 5.4060638836e+00 -4.0037964056e-02 2.3793025361e+00 -4.1210728791e+00 2.3793025361e+00 4.1210728791e+00 
18300 5.4060406638e+00 -3.9564652477e-02 2.3801439659e+00 -4.1225302783e+00 2.3801439659e+00 4.1225302783e+00 
18400 5.4060254976e+00 -3.9049994081e-02 2.3809751542e+00 -4.1239699386e+00 2.3809751542e+00 4.1239699386e+00 
18500 5.4060180510e+00 -3.8495570205e-02 2.3817952433e+00 -4.1253903746e+00 2.3817952433e+00 4.1253903746e+00 
18600 5.4060179240e+00 -3.7903050301e-02 2.3826034099e+00 -4.1267901602e+00 2.3826034099e+00 4.1267901602e+00 
18700 5.4060246587e+00 -3.7274185076e-02 2.3833988666e+00 -4.1281679317e+00 2.3833988666e+00 4.1281679317e+00 
18800 5.4060377474e+00 -3.6610799646e-02 2.3841808638e+00 -4.1295223905e+00 2.3841808638e+00 4.1295223905e+00 
18900 5.4060566415e+00 -3.5914786681e-02 2.3849486907e+00 -4.1308523057e+00 2.3849486907e+00 4.1308523057e+00 
19000 5.4060807592e+00 -3.5188099572e-02 2.3857016770e+00 -4.1321565163e+00 2.3857016770e+00 4.1321565163e+00 
19100 5.4061094944e+00 -3.4432745599e-02 2.3864391940e+00 -4.1334339332e+00 2.3864391940e+00 4.1334339332e+00 
19200 5.4061422240e+00 -3.3650779114e-02 2.3871606555e+00 -4.1346835412e+00 2.3871606555e+00 4.1346835412e+00 
19300 5.4061783165e+00 -3.2844294755e-02 2.3878655187e+00 -4.1359044001e+00 2.3878655187e+00 4.1359044001e+00 
19400 5.4062171386e+00 -3.2015420676e-02 2.3885532851e+00 -4.1370956463e+00 2.3885532851e+00 4.1370956463e+00 
19500 5.4062580630e+00 -3.1166311820e-02 2.3892235008e+00 -4.1382564940e+00 2.3892235008e+00 4.1382564940e+00 
19600 5.4063004746e+00 -3.0299143230e-02 2.3898757572e+00 -4.1393862353e+00 2.3898757572e+00 4.1393862353e+00 
19700 5.4063437769e+00 -2.9416103409e-02 2.3905096915e+00 -4.1404842416e+00 2.3905096915e+00 4.1404842416e+00 
19800 5.4063873975e+00 -2.8519387753e-02 2.3911249863e+00 -4.1415499635e+00 2.3911249863e+00 4.1415499635e+00 
19900 5.4064307934e+00 -2.7611192043e-02 2.3917213703e+00 -4.1425829309e+00 2.3917213703e+00 4.1425829309e+00 
20000 5.4064734550e+00 -2.6693706035e-02 2.3922986178e+00 -4.1435827528e+00 2.3922986178e+00 4.1435827528e+00 
20100 5.4065149109e+00 -2.5769107145e-02 2.3928565486e+00 -4.1445491174e+00 2.3928565486e+00 4.1445491174e+00 
20200 5.4065547301e+00 -2.4839554244e-02 2.3933950279e+00 -4.1454817909e+00 2.3933950279e+00 4.1454817909e+00 
20300 5.4065925258e+00 -2.3907181589e-02 2.3939139654e+00 -4.1463806171e+00 2.3939139654e+00 4.1463806171e+00 
20400 5.4066279567e+00 -2.2974092898e-02 2.3944133153e+00 -4.1472455164e+00 2.3944133153e+00 4.1472455164e+00 
20500 5.4066607286e+00 -2.2042355582e-02 2.3948930750e+00 -4.1480764846e+00 2.3948930750e+00 4.1480764846e+00 
20600 5.4066905956e+00 -2.1113995159e-02 2.3953532847e+00 -4.1488735912e+00 2.3953532847e+00 4.1488735912e+00 
20700 5.4067173599e+00 -2.0190989864e-02 2.3957940264e+00 -4.1496369783e+00 2.3957940264e+00 4.1496369783e+00 
20800 5.4067408719e+00 -1.9275265472e-02 2.3962154229e+00 -4.1503668583e+00 2.3962154229e+00 4.1503668583e+00 
20900 5.4067610293e+00 -1.8368690345e-02 2.3966176364e+00 -4.1510635126e+00 2.3966176364e+00 4.1510635126e+00 
21000 5.4067777756e+00 -1.7473070733e-02 2.3970008677e+00 -4.1517272887e+00 2.3970008677e+00 4.1517272887e+00 
21100 5.4067910985e+00 -1.6590146333e-02 2.3973653548e+00 -4.1523585987e+00 2.3973653548e+00 4.1523585987e+00 
21200 5.4068010276e+00 -1.5721586123e-02 2.3977113710e+00 -4.1529579164e+00 2.3977113710e+00 4.1529579164e+00 
21300 5.4068076319e+00 -1.4868984492e-02 2.3980392241e+00 -4.1535257747e+00 2.3980392241e+00 4.1535257747e+00 
21400 5.4068110171e+00 -1.4033857672e-02 2.3983492546e+00 -4.1540627632e+00 2.3983492546e+00 4.1540627632e+00 
21500 5.4068113220e+00 -1.3217640487e-02 2.3986418338e+00 -4.1545695253e+00 2.3986418338e+00 4.1545695253e+00 
21600 5.4068087152e+00 -1.2421683429e-02 2.3989173625e+00 -4.1550467550e+00 2.3989173625e+00 4.1550467550e+00 
21700 5.4068033917e+00 -1.1647250070e-02 2.3991762690e+00 -4.1554951943e+00 2.3991762690e+00 4.1554951943e+00 
21800 5.4067955691e+00 -1.0895514818e-02 2.3994190075e+00 -4.1559156296e+00 2.3994190075e+00 4.1559156296e+00 
21900 5.4067854835e+00 -1.0167561021e-02 2.3996460559e+00 -4.1563088890e+00 2.3996460559e+00 4.1563088890e+00 
22000 5.4067733861e+00 -9.4643794215e-03 2.3998579145e+00 -4.1566758388e+00 2.3998579145e+00 4.1566758388e+00 
22100 5.4067595388e+00 -8.7868669707e-03 2.4000551034e+00 -4.1570173800e+00 2.4000551034e+00 4.1570173800e+00 
22200 5.4067442112e+00 -8.1358259912e-03 2.4002381613e+00 -4.1573344456e+00 2.4002381613e+00 4.1573344456e+00 
22300 5.4067276760e+00 -7.5119636959e-03 2.4004076428e+00 -4.1576279962e+00 2.4004076428e+00 4.1576279962e+00 
22400 5.4067102061e+00 -6.9158920539e-03 2.4005641172e+00 -4.1578990178e+00 2.4005641172e+00 4.1578990178e+00 
22500 5.4066920712e+00 -6.3481280001e-03 2.4007081658e+00 -4.1581485174e+00 2.4007081658e+00 4.1581485174e+00 
22600 5.4066735342e+00 -5.8090939808e-03 2.4008403807e+00 -4.1583775202e+00 2.4008403807e+00 4.1583775202e+00 
22700 5.4066548490e+00 -5.2991188257e-03 2.4009613621e+00 -4.1585870662e+00 2.4009613621e+00 4.1585870662e+00 
22800 5.4066362572e+00 -4.8184389368e-03 2.4010717171e+00 -4.1587782066e+00 2.4010717171e+00 4.1587782066e+00 
22900 5.4066179861e+00 -4.3671997812e-03 2.4011720571e+00 -4.1589520007e+00 2.4011720571e+00 4.1589520007e+00 
23000 5.4066002467e+00 -3.9454576753e-03 2.4012629966e+00 -4.1591095125e+00 2.4012629966e+00 4.1591095125e+00 
23100 5.4065832317e+00 -3.5531818453e-03 2.4013451509e+00 -4.1592518079e+00 2.4013451509e+00 4.1592518079e+00 
23200 5.4065671142e+00 -3.1902567484e-03 2.4014191344e+00 -4.1593799511e+00 2.4014191344e+00 4.1593799511e+00 
23300 5.4065520468e+00 -2.8564846391e-03 2.4014855591e+00 -4.1594950021e+00 2.4014855591e+00 4.1594950021e+00 
23400 5.4065381605e+00 -2.5515883619e-03 2.4015450327e+00 -4.1595980133e+00 2.4015450327e+00 4.1595980133e+00 
23500 5.4065255644e+00 -2.2752143533e-03 2.4015981568e+00 -4.1596900269e+00 2.4015981568e+00 4.1596900269e+00 
23600 5.4065143456e+00 -2.0269358349e-03 2.4016455257e+00 -4.1597720722e+00 2.4016455257e+00 4.1597720722e+00 
23700 5.4065045691e+00 -1.8062561783e-03 2.4016877247e+00 -4.1598451631e+00 2.4016877247e+00 4.1598451631e+00 
23800 5.4064962785e+00 -1.6126124231e-03 2.4017253287e+00 -4.1599102951e+00 2.4017253287e+00 4.1599102951e+00 
23900 5.4064894962e+00 -1.4453789290e-03 2.4017589007e+00 -4.1599684436e+00 2.4017589007e+00 4.1599684436e+00 
24000 5.4064842250e+00 -1.3038711434e-03 2.4017889908e+00 -4.1600205611e+00 2.4017889908e+00 4.1600205611e+00 
24100 5.4064804482e+00 -1.1873494645e-03 2.4018161346e+00 -4.1600675756e+00 2.4018161346e+00 4.1600675756e+00 
24200 5.4064781318e+00 -1.0950231830e-03 2.4018408524e+00 -4.1601103880e+00 2.4018408524e+00 4.1601103880e+00 
24300 5.4064772254e+00 -1.0260544832e-03 2.4018636479e+00 -4.1601498710e+00 2.4018636479e+00 4.1601498710e+00 
24400 5.4064776637e+00 -9.7956248602e-04 2.4018850075e+00 -4.1601868669e+00 2.4018850075e+00 4.1601868669e+00 
24500 5.4064793687e+00 -9.5462731703e-04 2.4019053991e+00 -4.1602221861e+00 2.4019053991e+00 4.1602221861e+00 
24600 5.4064822507e+00 -9.5029418276e-04 2.4019252714e+00 -4.1602566060e+00 2.4019252714e+00 4.1602566060e+00 
24700 5.4064862106e+00 -9.6557743946e-04 2.4019450533e+00 -4.1602908694e+00 2.4019450533e+00 4.1602908694e+00 
24800 5.4064911413e+00 -9.9946463914e-04 2.4019651533e+00 -4.1603256835e+00 2.4019651533e+00 4.1603256835e+00 
24900 5.4064969299e+00 -1.0509205387e-03 2.4019859584e+00 -4.1603617191e+00 2.4019859584e+00 4.1603617191e+00 
25000 5.4065034592e+00 -1.1188910581e-03 2.4020078345e+00 -4.1603996096e+00 2.4020078345e+00 4.1603996096e+00 
25100 5.4065106095e+00 -1.2023071756e-03 2.4020311253e+00 -4.1604399504e+00 2.4020311253e+00 4.1604399504e+00 
25200 5.4065182602e+00 -1.3000887469e-03 2.4020561523e+00 -4.1604832983e+00 2.4020561523e+00 4.1604832983e+00 
25300 5.4065262912e+00 -1.4111482386e-03 2.4020832143e+00 -4.1605301712e+00 2.4020832143e+00 4.1605301712e+00 
25400 5.4065345849e+00 -1.5343943643e-03 2.4021125878e+00 -4.1605810476e+00 2.4021125878e+00 4.1605810476e+00 
25500 5.4065430269e+00 -1.6687356147e-03 2.4021445263e+00 -4.1606363667e+00 2.4021445263e+00 4.1606363667e+00 
25600 5.4065515077e+00 -1.8130836735e-03 2.4021792607e+00 -4.1606965284e+00 2.4021792607e+00 4.1606965284e+00 
25700 5.4065599236e+00 -1.9663567101e-03 2.4022169991e+00 -4.1607618932e+00 2.4022169991e+00 4.1607618932e+00 
25800 5.4065681777e+00 -2.1274825439e-03 2.4022579272e+00 -4.1608327827e+00 2.4022579272e+00 4.1608327827e+00 
25900 5.4065761805e+00 -2.2954016724e-03 2.4023022082e+00 -4.1609094797e+00 2.4023022082e+00 4.1609094797e+00 
26000 5.4065838511e+00 -2.4690701593e-03 2.4023499834e+00 -4.1609922288e+00 2.4023499834e+00 4.1609922288e+00 
26100 5.4065911172e+00 -2.6474623773e-03 2.4024013722e+00 -4.1610812368e+00 2.4024013722e+00 4.1610812368e+00 
26200 5.4065979157e+00 -2.8295736013e-03 2.4024564728e+00 -4.1611766738e+00 2.4024564728e+00 4.1611766738e+00 
26300 5.4066041930e+00 -3.0144224506e-03 2.4025153622e+00 -4.1612786732e+00 2.4025153622e+00 4.1612786732e+00 
26400 5.4066099050e+00 -3.2010531756e-03 2.4025780972e+00 -4.1613873334e+00 2.4025780972e+00 4.1613873334e+00 
26500 5.4066150170e+00 -3.3885377888e-03 2.4026447145e+00 -4.1615027181e+00 2.4026447145e+00 4.1615027181e+00 
26600 5.4066195040e+00 -3.5759780387e-03 2.4027152317e+00 -4.1616248574e+00 2.4027152317e+00 4.1616248574e+00 
26700 5.4066233499e+00 -3.7625072252e-03 2.4027896474e+00 -4.1617537492e+00 2.4027896474e+00 4.1617537492e+00 
26800 5.4066265476e+00 -3.9472918578e-03 2.4028679424e+00 -4.1618893601e+00 2.4028679424e+00 4.1618893601e+00 
26900 5.4066290982e+00 -4.1295331557e-03 2.4029500800e+00 -4.1620316266e+00 2.4029500800e+00 4.1620316266e+00 
27000 5.4066310109e+00 -4.3084683931e-03 2.4030360068e+00 -4.1621804562e+00 2.4030360068e+00 4.1621804562e+00 
27100 5.4066323019e+00 -4.4833720882e-03 2.4031256537e+00 -4.1623357292e+00 2.4031256537e+00 4.1623357292e+00 
27200 5.4066329944e+00 -4.6535570402e-03 2.4032189364e+00 -4.1624972996e+00 2.4032189364e+00 4.1624972996e+00 
27300 5.4066331173e+00 -4.8183752163e-03 2.4033157563e+00 -4.1626649966e+00 2.4033157563e+00 4.1626649966e+00 
27400 5.4066327051e+00 -4.9772184904e-03 2.4034160013e+00 -4.1628386260e+00 2.4034160013e+00 4.1628386260e+00 
27500 5.4066317965e+00 -5.1295192372e-03 2.4035195468e+00 -4.1630179720e+00 2.4035195468e+00 4.1630179720e+00 
27600 5.4066304343e+00 -5.2747507850e-03 2.4036262560e+00 -4.1632027979e+00 2.4036262560e+00 4.1632027979e+00 
27700 5.4066286642e+00 -5.4124277318e-03 2.4037359817e+00 -4.1633928483e+00 2.4037359817e+00 4.1633928483e+00 
27800 5.4066265342e+00 -5.5421061261e-03 2.4038485663e+00 -4.1635878505e+00 2.4038485663e+00 4.1635878505e+00 
27900 5.4066240940e+00 -5.6633835191e-03 2.4039638429e+00 -4.1637875154e+00 2.4039638429e+00 4.1637875154e+00 
28000 5.4066213940e+00 -5.7758988916e-03 2.4040816365e+00 -4.1639915399e+00 2.4040816365e+00 4.1639915399e+00 
28100 5.4066184850e+00 -5.8793324598e-03 2.4042017644e+00 -4.1641996076e+00 2.4042017644e+00 4.1641996076e+00 
28200 5.4066154174e+00 -5.9734053646e-03 2.4043240374e+00 -4.1644113907e+00 2.4043240374e+00 4.1644113907e+00 
28300 5.4066122405e+00 -6.0578792505e-03 2.4044482607e+00 -4.1646265516e+00 2.4044482607e+00 4.1646265516e+00 
28400 5.4066090020e+00 -6.1325557369e-03 2.4045742341e+00 -4.1648447440e+00 2.4045742341e+00 4.1648447440e+00 
28500 5.4066057477e+00 -6.1972757887e-03 2.4047017538e+00 -4.1650656146e+00 2.4047017538e+00 4.1650656146e+00 
28600 5.4066025209e+00 -6.2519189901e-03 2.4048306124e+00 -4.1652888042e+00 2.4048306124e+00 4.1652888042e+00 
28700 5.4065993619e+00 -6.2964027270e-03 2.4049606002e+00 -4.1655139498e+00 2.4049606002e+00 4.1655139498e+00 
28800 5.4065963080e+00 -6.3306812836e-03 2.4050915059e+00 -4.1657406851e+00 2.4050915059e+00 4.1657406851e+00 
28900 5.4065933930e+00 -6.3547448574e-03 2.4052231171e+00 -4.1659686423e+00 2.4052231171e+00 4.1659686423e+00 
29000 5.4065906471e+00 -6.3686184994e-03 2.4053552213e+00 -4.1661974536e+00 2.4053552213e+00 4.1661974536e+00 
29100 5.4065880964e+00 -6.3723609828e-03 2.4054876067e+00 -4.1664267518e+00 2.4054876067e+00 4.1664267518e+00 
29200 5.4065857635e+00 -6.3660636071e-03 2.4056200626e+00 -4.1666561721e+00 2.4056200626e+00 4.1666561721e+00 
29300 5.4065836667e+00 -6.3498489417e-03 2.4057523803e+00 -4.1668853531e+00 2.4057523803e+00 4.1668853531e+00 
29400 5.4065818207e+00 -6.3238695150e-03 2.4058843537e+00 -4.1671139377e+00 2.4058843537e+00 4.1671139377e+00 
29500 5.4065802359e+00 -6.2883064539e-03 2.4060157799e+00 -4.1673415746e+00 2.4060157799e+00 4.1673415746e+00 
29600 5.4065789192e+00 -6.2433680780e-03 2.4061464599e+00 -4.1675679191e+00 2.4061464599e+00 4.1675679191e+00 
29700 5.4065778737e+00 -6.1892884550e-03 2.4062761990e+00 -4.1677926337e+00 2.4062761990e+00 4.1677926337e+00 
29800 5.4065770991e+00 -6.1263259216e-03 2.4064048073e+00 -4.1680153899e+00 2.4064048073e+00 4.1680153899e+00 
29900 5.4065765917e+00 -6.0547615751e-03 2.4065321006e+00 -4.1682358682e+00 2.4065321006e+00 4.1682358682e+00 
30000 5.4065763449e+00 -5.9748977399e-03 2.4066579001e+00 -4.1684537595e+00 2.4066579001e+00 4.1684537595e+00 
30100 5.4065763491e+00 -5.8870564151e-03 2.4067820339e+00 -4.1686687654e+00 2.4067820339e+00 4.1686687654e+00 
30200 5.4065765924e+00 -5.7915777073e-03 2.4069043363e+00 -4.1688805995e+00 2.4069043363e+00 4.1688805995e+00 
30300 5.4065770605e+00 -5.6888182522e-03 2.4070246491e+00 -4.1690889873e+00 2.4070246491e+00 4.1690889873e+00 
30400 5.4065777372e+00 -5.5791496325e-03 2.4071428212e+00 -4.1692936674e+00 2.4071428212e+00 4.1692936674e+00 
30500 5.4065786047e+00 -5.4629567936e-03 2.4072587095e+00 -4.1694943919e+00 2.4072587095e+00 4.1694943919e+00 
30600 5.4065796439e+00 -5.3406364631e-03 2.4073721788e+00 -4.1696909265e+00 2.4073721788e+00 4.1696909265e+00 
30700 5.4065808347e+00 -5.2125955787e-03 2.4074831022e+00 -4.1698830514e+00 2.4074831022e+00 4.1698830514e+00 
30800 5.4065821562e+00 -5.0792497278e-03 2.4075913612e+00 -4.1700705615e+00 2.4075913612e+00 4.1700705615e+00 
30900 5.4065835870e+00 -4.9410216034e-03 2.4076968460e+00 -4.1702532666e+00 2.4076968460e+00 4.1702532666e+00 
31000 5.4065851059e+00 -4.7983394806e-03 2.4077994557e+00 -4.1704309916e+00 2.4077994557e+00 4.1704309916e+00 
31100 5.4065866914e+00 -4.6516357169e-03 2.4078990979e+00 -4.1706035771e+00 2.4078990979e+00 4.1706035771e+00 
31200 5.4065883228e+00 -4.5013452808e-03 2.4079956897e+00 -4.1707708791e+00 2.4079956897e+00 4.1707708791e+00 
31300 5.4065899796e+00 -4.3479043114e-03 2.4080891570e+00 -4.1709327691e+00 2.4080891570e+00 4.1709327691e+00 
31400 5.4065916423e+00 -4.1917487135e-03 2.4081794346e+00 -4.1710891345e+00 2.4081794346e+00 4.1710891345e+00 
31500 5.4065932926e+00 -4.0333127907e-03 2.4082664666e+00 -4.1712398784e+00 2.4082664666e+00 4.1712398784e+00 
31600 5.4065949130e+00 -3.8730279198e-03 2.4083502060e+00 -4.1713849193e+00 2.4083502060e+00 4.1713849193e+00 
31700 5.4065964876e+00 -3.7113212694e-03 2.4084306148e+00 -4.1715241913e+00 2.4084306148e+00 4.1715241913e+00 
31800 5.4065980019e+00 -3.5486145661e-03 2.4085076638e+00 -4.1716576440e+00 2.4085076638e+00 4.1716576440e+00 
31900 5.4065994427e+00 -3.3853229099e-03 2.4085813325e+00 -4.1717852420e+00 2.4085813325e+00 4.1717852420e+00 
32000 5.4066007988e+00 -3.2218536417e-03 2.4086516091e+00 -4.1719069647e+00 2.4086516091e+00 4.1719069647e+00 
32100 5.4066020602e+00 -3.0586052651e-03 2.4087184903e+00 -4.1720228062e+00 2.4087184903e+00 4.1720228062e+00 
32200 5.4066032189e+00 -2.8959664250e-03 2.4087819808e+00 -4.1721327752e+00 2.4087819808e+00 4.1721327752e+00 
32300 5.4066042686e+00 -2.7343149428e-03 2.4088420938e+00 -4.1722368938e+00 2.4088420938e+00 4.1722368938e+00 
32400 5.4066052044e+00 -2.5740169132e-03 2.4088988498e+00 -4.1723351981e+00 2.4088988498e+00 4.1723351981e+00 
32500 5.4066060232e+00 -2.4154258599e-03 2.4089522772e+00 -4.1724277372e+00 2.4089522772e+00 4.1724277372e+00 
32600 5.4066067234e+00 -2.2588819549e-03 2.4090024118e+00 -4.1725145727e+00 2.4090024118e+00 4.1725145727e+00 
32700 5.4066073050e+00 -2.1047113003e-03 2.4090492961e+00 -4.1725957788e+00 2.4090492961e+00 4.1725957788e+00 
32800 5.4066077694e+00 -1.9532252734e-03 2.4090929797e+00 -4.1726714409e+00 2.4090929797e+00 4.1726714409e+00 
32900 5.4066081192e+00 -1.8047199368e-03 2.4091335184e+00 -4.1727416561e+00 2.4091335184e+00 4.1727416561e+00 
33000 5.4066083583e+00 -1.6594755124e-03 2.4091709743e+00 -4.1728065315e+00 2.4091709743e+00 4.1728065315e+00 
33100 5.4066084918e+00 -1.5177559197e-03 2.4092054151e+00 -4.1728661849e+00 2.4092054151e+00 4.1728661849e+00 
33200 5.4066085255e+00 -1.3798083796e-03 2.4092369143e+00 -4.1729207431e+00 2.4092369143e+00 4.1729207431e+00 
33300 5.4066084664e+00 -1.2458630803e-03 2.4092655502e+00 -4.1729703418e+00 2.4092655502e+00 4.1729703418e+00 
33400 5.4066083219e+00 -1.1161329085e-03 2.4092914059e+00 -4.1730151252e+00 2.4092914059e+00 4.1730151252e+00 
33500 5.4066081002e+00 -9.9081324202e-04 2.4093145690e+00 -4.1730552449e+00 2.4093145690e+00 4.1730552449e+00 
33600 5.4066078098e+00 -8.7008180408e-04 2.4093351312e+00 -4.1730908597e+00 2.4093351312e+00 4.1730908597e+00 
33700 5.4066074596e+00 -7.5409857871e-04 2.4093531877e+00 -4.1731221344e+00 2.4093531877e+00 4.1731221344e+00 
33800 5.4066070588e+00 -6.4300578471e-04 2.4093688371e+00 -4.1731492400e+00 2.4093688371e+00 4.1731492400e+00 
33900 5.4066066163e+00 -5.3692790743e-04 2.4093821810e+00 -4.1731723523e+00 2.4093821810e+00 4.1731723523e+00 
34000 5.4066061415e+00 -4.3597178646e-04 2.4093933234e+00 -4.1731916516e+00 2.4093933234e+00 4.1731916516e+00 
34100 5.4066056432e+00 -3.4022675756e-04 2.4094023708e+00 -4.1732073220e+00 2.4094023708e+00 4.1732073220e+00 
34200 5.4066051302e+00 -2.4976484658e-04 2.4094094312e+00 -4.1732195510e+00 2.4094094312e+00 4.1732195510e+00 
34300 5.4066046109e+00 -1.6464101366e-04 2.4094146143e+00 -4.1732285284e+00 2.4094146143e+00 4.1732285284e+00 
34400 5.4066040931e+00 -8.4893445196e-05 2.4094180309e+00 -4.1732344462e+00 2.4094180309e+00 4.1732344462e+00 
34500 5.4066035843e+00 -1.0543891422e-05 2.4094197926e+00 -4.1732374975e+00 2.4094197926e+00 4.1732374975e+00 
34600 5.4066030914e+00 5.8313038619e-05 2.4094197926e+00 -4.1732374975e+00 2.4094197926e+00 4.1732374975e+00 
34700 5.4066026209e+00 1.2235590841e-04 2.4094197926e+00 -4.1732374975e+00 2.4094197926e+00 4.1732374975e+00 
34800 5.4066021781e+00 1.8054376273e-04 2.4094172535e+00 -4.1732330996e+00 2.4094172535e+00 4.1732330996e+00 
34900 5.4066017681e+00 2.3340286364e-04 2.4094135068e+00 -4.1732266103e+00 2.4094135068e+00 4.1732266103e+00 
35000 5.4066013950e+00 2.8098714082e-04 2.4094086633e+00 -4.1732182210e+00 2.4094086633e+00 4.1732182210e+00 
35100 5.4066010623e+00 3.2336411647e-04 2.4094028322e+00 -4.1732081214e+00 2.4094028322e+00 4.1732081214e+00 
35200 5.4066007729e+00 3.6061432003e-04 2.4093961218e+00 -4.1731964985e+00 2.4093961218e+00 4.1731964985e+00 
35300 5.4066005288e+00 3.9283067824e-04 2.4093886383e+00 -4.1731835367e+00 2.4093886383e+00 4.1731835367e+00 
35400 5.4066003314e+00 4.2011788325e-04 2.4093804862e+00 -4.1731694169e+00 2.4093804862e+00 4.1731694169e+00 
35500 5.4066001815e+00 4.4259174156e-04 2.4093717678e+00 -4.1731543162e+00 2.4093717678e+00 4.1731543162e+00 
35600 5.4066000791e+00 4.6037850650e-04 2.4093625831e+00 -4.1731384077e+00 2.4093625831e+00 4.1731384077e+00 
35700 5.4066000236e+00 4.7361419686e-04 2.4093530291e+00 -4.1731218598e+00 2.4093530291e+00 4.1731218598e+00 
35800 5.4066000141e+00 4.8244390451e-04 2.4093432005e+00 -4.1731048361e+00 2.4093432005e+00 4.1731048361e+00 
35900 5.4066000488e+00 4.8702109333e-04 2.4093331885e+00 -4.1730874949e+00 2.4093331885e+00 4.1730874949e+00 
36000 5.4066001257e+00 4.8750689233e-04 2.4093230816e+00 -4.1730699891e+00 2.4093230816e+00 4.1730699891e+00 
36100 5.4066002423e+00 4.8406938517e-04 2.4093129645e+00 -4.1730524658e+00 2.4093129645e+00 4.1730524658e+00 
36200 5.4066003957e+00 4.7688289867e-04 2.4093029187e+00 -4.1730350660e+00 2.4093029187e+00 4.1730350660e+00 
36300 5.4066005829e+00 4.6612729257e-04 2.4092930220e+00 -4.1730179244e+00 2.4092930220e+00 4.1730179244e+00 
36400 5.4066008003e+00 4.5198725288e-04 2.4092833485e+00 -4.1730011694e+00 2.4092833485e+00 4.1730011694e+00 
36500 5.4066010445e+00 4.3465159089e-04 2.4092739684e+00 -4.1729849226e+00 2.4092739684e+00 4.1729849226e+00 
36600 5.4066013117e+00 4.1431255008e-04 2.4092649480e+00 -4.1729692988e+00 2.4092649480e+00 4.1729692988e+00 
36700 5.4066015981e+00 3.9116512275e-04 2.4092563497e+00 -4.1729544061e+00 2.4092563497e+00 4.1729544061e+00 
36800 5.4066018998e+00 3.6540637840e-04 2.4092482317e+00 -4.1729403454e+00 2.4092482317e+00 4.1729403454e+00 
36900 5.4066022131e+00 3.3723480558e-04 2.4092406483e+00 -4.1729272105e+00 2.4092406483e+00 4.1729272105e+00 
37000 5.4066025342e+00 3.0684966892e-04 2.4092336495e+00 -4.1729150883e+00 2.4092336495e+00 4.1729150883e+00 
37100 5.4066028595e+00 2.7445038288e-04 2.4092272813e+00 -4.1729040582e+00 2.4092272813e+00 4.1729040582e+00 
37200 5.4066031855e+00 2.4023590383e-04 2.4092215855e+00 -4.1728941928e+00 2.4092215855e+00 4.1728941928e+00 
37300 5.4066035088e+00 2.0440414155e-04 2.4092165998e+00 -4.1728855572e+00 2.4092165998e+00 4.1728855572e+00 
37400 5.4066038264e+00 1.6715139175e-04 2.4092123576e+00 -4.1728782096e+00 2.4092123576e+00 4.1728782096e+00 
37500 5.4066041355e+00 1.2867179042e-04 2.4092088886e+00 -4.1728722011e+00 2.4092088886e+00 4.1728722011e+00 
37600 5.4066044334e+00 8.9156791323e-05 2.4092062182e+00 -4.1728675759e+00 2.4092062182e+00 4.1728675759e+00 
37700 5.4066047178e+00 4.8794667327e-05 2.4092043679e+00 -4.1728643710e+00 2.4092043679e+00 4.1728643710e+00 
37800 5.4066049867e+00 8.1815769889e-06 2.4092043679e+00 -4.1728643710e+00 2.4092043679e+00 4.1728643710e+00 
37900 5.4066052383e+00 -3.3251526497e-05 2.4092043679e+00 -4.1728643710e+00 2.4092043679e+00 4.1728643710e+00 
38000 5.4066054713e+00 -7.5339180897e-05 2.4092043679e+00 -4.1728643710e+00 2.4092043679e+00 4.1728643710e+00 
38100 5.4066056844e+00 -1.1728432447e-04 2.4092059314e+00 -4.1728670792e+00 2.4092059314e+00 4.1728670792e+00 
38200 5.4066058769e+00 -1.5919860456e-04 2.4092083655e+00 -4.1728712951e+00 2.4092083655e+00 4.1728712951e+00 
38300 5.4066060482e+00 -2.0092188342e-04 2.4092116695e+00 -4.1728770178e+00 2.4092116695e+00 4.1728770178e+00 
38400 5.4066061981e+00 -2.4229996889e-04 2.4092158394e+00 -4.1728842402e+00 2.4092158394e+00 4.1728842402e+00 
38500 5.4066063266e+00 -2.8318490078e-04 2.4092208680e+00 -4.1728929500e+00 2.4092208680e+00 4.1728929500e+00 
38600 5.4066064339e+00 -3.2343520957e-04 2.4092267451e+00 -4.1729031294e+00 2.4092267451e+00 4.1729031294e+00 
38700 5.4066065206e+00 -3.6291614747e-04 2.4092334575e+00 -4.1729147557e+00 2.4092334575e+00 4.1729147557e+00 
38800 5.4066065872e+00 -4.0149989219e-04 2.4092409893e+00 -4.1729278011e+00 2.4092409893e+00 4.1729278011e+00 
38900 5.4066066349e+00 -4.3906572337e-04 2.4092493218e+00 -4.1729422334e+00 2.4092493218e+00 4.1729422334e+00 
39000 5.4066066645e+00 -4.7550017212e-04 2.4092584339e+00 -4.1729580161e+00 2.4092584339e+00 4.1729580161e+00 
39100 5.4066066775e+00 -5.1069714409e-04 2.4092683021e+00 -4.1729751083e+00 2.4092683021e+00 4.1729751083e+00 
39200 5.4066066750e+00 -5.4455801634e-04 2.4092789007e+00 -4.1729934656e+00 2.4092789007e+00 4.1729934656e+00 
39300 5.4066066586e+00 -5.7699170866e-04 2.4092902020e+00 -4.1730130400e+00 2.4092902020e+00 4.1730130400e+00 
39400 5.4066066297e+00 -6.0791472982e-04 2.4093021763e+00 -4.1730337801e+00 2.4093021763e+00 4.1730337801e+00 
39500 5.4066065901e+00 -6.3725119937e-04 2.4093147923e+00 -4.1730556316e+00 2.4093147923e+00 4.1730556316e+00 
39600 5.4066065412e+00 -6.6493284580e-04 2.4093280170e+00 -4.1730785376e+00 2.4093280170e+00 4.1730785376e+00 
39700 5.4066064847e+00 -6.9089898153e-04 2.4093418162e+00 -4.1731024384e+00 2.4093418162e+00 4.1731024384e+00 
39800 5.4066064223e+00 -7.1509645575e-04 2.4093561541e+00 -4.1731272724e+00 2.4093561541e+00 4.1731272724e+00 
39900 5.4066063555e+00 -7.3747958575e-04 2.4093709941e+00 -4.1731529761e+00 2.4093709941e+00 4.1731529761e+00 
40000 5.4066062859e+00 -7.5801006770e-04 2.4093862985e+00 -4.1731794841e+00 2.4093862985e+00 4.1731794841e+00 
40100 5.4066062149e+00 -7.7665686768e-04 2.4094020289e+00 -4.1732067299e+00 2.4094020289e+00 4.1732067299e+00 
40200 5.4066061439e+00 -7.9339609394e-04 2.4094181461e+00 -4.1732346458e+00 2.4094181461e+00 4.1732346458e+00 
40300 5.4066060743e+00 -8.0821085129e-04 2.4094346106e+00 -4.1732631631e+00 2.4094346106e+00 4.1732631631e+00 
40400 5.4066060073e+00 -8.2109107862e-04 2.4094513824e+00 -4.1732922128e+00 2.4094513824e+00 4.1732922128e+00 
40500 5.4066059440e+00 -8.3203337048e-04 2.4094684214e+00 -4.1733217251e+00 2.4094684214e+00 4.1733217251e+00 
40600 5.4066058853e+00 -8.4104078380e-04 2.4094856874e+00 -4.1733516306e+00 2.4094856874e+00 4.1733516306e+00 
40700 5.4066058321e+00 -8.4812263077e-04 2.4095031401e+00 -4.1733818596e+00 2.4095031401e+00 4.1733818596e+00 
40800 5.4066057852e+00 -8.5329425875e-04 2.4095207396e+00 -4.1734123429e+00 2.4095207396e+00 4.1734123429e+00 
40900 5.4066057452e+00 -8.5657681850e-04 2.4095384464e+00 -4.1734430119e+00 2.4095384464e+00 4.1734430119e+00 
41000 5.4066057126e+00 -8.5799702157e-04 2.4095562211e+00 -4.1734737987e+00 2.4095562211e+00 4.1734737987e+00 
41100 5.4066056877e+00 -8.5758688795e-04 2.4095740252e+00 -4.1735046362e+00 2.4095740252e+00 4.1735046362e+00 
41200 5.4066056707e+00 -8.5538348510e-04 2.4095918206e+00 -4.1735354588e+00 2.4095918206e+00 4.1735354588e+00 
41300 5.4066056619e+00 -8.5142865923e-04 2.4096095702e+00 -4.1735662020e+00 2.4096095702e+00 4.1735662020e+00 
41400 5.4066056611e+00 -8.4576876005e-04 2.4096272376e+00 -4.1735968028e+00 2.4096272376e+00 4.1735968028e+00 
41500 5.4066056683e+00 -8.3845435983e-04 2.4096447874e+00 -4.1736271999e+00 2.4096447874e+00 4.1736271999e+00 
41600 5.4066056834e+00 -8.2953996792e-04 2.4096621853e+00 -4.1736573340e+00 2.4096621853e+00 4.1736573340e+00 
41700 5.4066057059e+00 -8.1908374166e-04 2.4096793981e+00 -4.1736871474e+00 2.4096793981e+00 4.1736871474e+00 
41800 5.4066057356e+00 -8.0714719463e-04 2.4096963938e+00 -4.1737165849e+00 2.4096963938e+00 4.1737165849e+00 
41900 5.4066057720e+00 -7.9379490319e-04 2.4097131417e+00 -4.1737455931e+00 2.4097131417e+00 4.1737455931e+00 
42000 5.4066058146e+00 -7.7909421240e-04 2.4097296125e+00 -4.1737741213e+00 2.4097296125e+00 4.1737741213e+00 
42100 5.4066058628e+00 -7.6311494193e-04 2.4097457781e+00 -4.1738021210e+00 2.4097457781e+00 4.1738021210e+00 
42200 5.4066059161e+00 -7.4592909318e-04 2.4097616120e+00 -4.1738295462e+00 2.4097616120e+00 4.1738295462e+00 
42300 5.4066059737e+00 -7.2761055821e-04 2.4097770893e+00 -4.1738563536e+00 2.4097770893e+00 4.1738563536e+00 
42400 5.4066060351e+00 -7.0823483141e-04 2.4097921863e+00 -4.1738825024e+00 2.4097921863e+00 4.1738825024e+00 
42500 5.4066060996e+00 -6.8787872474e-04 2.4098068813e+00 -4.1739079548e+00 2.4098068813e+00 4.1739079548e+00 
42600 5.4066061665e+00 -6.6662008723e-04 2.4098211538e+00 -4.1739326755e+00 2.4098211538e+00 4.1739326755e+00 
42700 5.4066062352e+00 -6.4453752951e-04 2.4098349851e+00 -4.1739566321e+00 2.4098349851e+00 4.1739566321e+00 
42800 5.4066063049e+00 -6.2171015407e-04 2.4098483582e+00 -4.1739797950e+00 2.4098483582e+00 4.1739797950e+00 
42900 5.4066063750e+00 -5.9821729185e-04 2.4098612576e+00 -4.1740021373e+00 2.4098612576e+00 4.1740021373e+00 
43000 5.4066064450e+00 -5.7413824592e-04 2.4098736695e+00 -4.1740236353e+00 2.4098736695e+00 4.1740236353e+00 
43100 5.4066065142e+00 -5.4955204266e-04 2.4098855817e+00 -4.1740442679e+00 2.4098855817e+00 4.1740442679e+00 
43200 5.4066065821e+00 -5.2453719112e-04 2.4098969837e+00 -4.1740640168e+00 2.4098969837e+00 4.1740640168e+00 
43300 5.4066066482e+00 -4.9917145097e-04 2.4099078667e+00 -4.1740828667e+00 2.4099078667e+00 4.1740828667e+00 
43400 5.4066067121e+00 -4.7353160960e-04 2.4099182234e+00 -4.1741008049e+00 2.4099182234e+00 4.1741008049e+00 
43500 5.4066067733e+00 -4.4769326874e-04 2.4099280480e+00 -4.1741178217e+00 2.4099280480e+00 4.1741178217e+00 
43600 5.4066068314e+00 -4.2173064096e-04 2.4099373365e+00 -4.1741339099e+00 2.4099373365e+00 4.1741339099e+00 
43700 5.4066068863e+00 -3.9571635644e-04 2.4099460864e+00 -4.1741490651e+00 2.4099460864e+00 4.1741490651e+00 
43800 5.4066069376e+00 -3.6972128033e-04 2.4099542964e+00 -4.1741632853e+00 2.4099542964e+00 4.1741632853e+00 
43900 5.4066069852e+00 -3.4381434092e-04 2.4099619672e+00 -4.1741765714e+00 2.4099619672e+00 4.1741765714e+00 
44000 5.4066070289e+00 -3.1806236879e-04 2.4099691003e+00 -4.1741889265e+00 2.4099691003e+00 4.1741889265e+00 
44100 5.4066070685e+00 -2.9252994733e-04 2.4099756992e+00 -4.1742003561e+00 2.4099756992e+00 4.1742003561e+00 
44200 5.4066071042e+00 -2.6727927447e-04 2.4099817684e+00 -4.1742108682e+00 2.4099817684e+00 4.1742108682e+00 
44300 5.4066071359e+00 -2.4237003604e-04 2.4099873136e+00 -4.1742204728e+00 2.4099873136e+00 4.1742204728e+00 
44400 5.4066071635e+00 -2.1785929049e-04 2.4099923421e+00 -4.1742291824e+00 2.4099923421e+00 4.1742291824e+00 
44500 5.4066071874e+00 -1.9380136541e-04 2.4099968620e+00 -4.1742370111e+00 2.4099968620e+00 4.1742370111e+00 
44600 5.4066072075e+00 -1.7024776537e-04 2.4100008828e+00 -4.1742439753e+00 2.4100008828e+00 4.1742439753e+00 
44700 5.4066072240e+00 -1.4724709142e-04 2.4100044149e+00 -4.1742500931e+00 2.4100044149e+00 4.1742500931e+00 
44800 5.4066072372e+00 -1.2484497201e-04 2.4100074698e+00 -4.1742553844e+00 2.4100074698e+00 4.1742553844e+00 
44900 5.4066072472e+00 -1.0308400519e-04 2.4100100600e+00 -4.1742598706e+00 2.4100100600e+00 4.1742598706e+00 
45000 5.4066072543e+00 -8.2003711973e-05 2.4100121986e+00 -4.1742635749e+00 2.4100121986e+00 4.1742635749e+00 
45100 5.4066072589e+00 -6.1640500780e-05 2.4100138999e+00 -4.1742665216e+00 2.4100138999e+00 4.1742665216e+00 
45200 5.4066072610e+00 -4.2546654914e-05 2.4100138999e+00 -4.1742665216e+00 2.4100138999e+00 4.1742665216e+00 
45300 5.4066072611e+00 -2.4078285985e-05 2.4100138999e+00 -4.1742665216e+00 2.4100138999e+00 4.1742665216e+00 
45400 5.4066072594e+00 -6.2659659293e-06 2.4100138999e+00 -4.1742665216e+00 2.4100138999e+00 4.1742665216e+00 
45500 5.4066072562e+00 1.0862626799e-05 2.4100138999e+00 -4.1742665216e+00 2.4100138999e+00 4.1742665216e+00 
45600 5.4066072519e+00 2.7282707015e-05 2.4100138999e+00 -4.1742665216e+00 2.4100138999e+00 4.1742665216e+00 
45700 5.4066072467e+00 4.2972373040e-05 2.4100138999e+00 -4.1742665216e+00 2.4100138999e+00 4.1742665216e+00 
45800 5.4066072409e+00 5.7912587803e-05 2.4100138999e+00 -4.1742665216e+00 2.4100138999e+00 4.1742665216e+00 
45900 5.4066072349e+00 7.2087151148e-05 2.4100138999e+00 -4.1742665216e+00 2.4100138999e+00 4.1742665216e+00 
46000 5.4066072288e+00 8.4875591100e-05 2.4100124044e+00 -4.1742639312e+00 2.4100124044e+00 4.1742639312e+00 
46100 5.4066072228e+00 9.6754776694e-05 2.4100106435e+00 -4.1742608813e+00 2.4100106435e+00 4.1742608813e+00 
46200 5.4066072171e+00 1.0772200764e-04 2.4100086361e+00 -4.1742574044e+00 2.4100086361e+00 4.1742574044e+00 
46300 5.4066072121e+00 1.1777736385e-04 2.4100064012e+00 -4.1742535335e+00 2.4100064012e+00 4.1742535335e+00 
46400 5.4066072078e+00 1.2692362556e-04 2.4100039577e+00 -4.1742493012e+00 2.4100039577e+00 4.1742493012e+00 
46500 5.4066072044e+00 1.3516618725e-04 2.4100013245e+00 -4.1742447403e+00 2.4100013245e+00 4.1742447403e+00 
46600 5.4066072021e+00 1.4251296599e-04 2.4099985202e+00 -4.1742398831e+00 2.4099985202e+00 4.1742398831e+00 
46700 5.4066072009e+00 1.4897430444e-04 2.4099955635e+00 -4.1742347620e+00 2.4099955635e+00 4.1742347620e+00 
46800 5.4066072010e+00 1.5456286917e-04 2.4099924727e+00 -4.1742294086e+00 2.4099924727e+00 4.1742294086e+00 
46900 5.4066072024e+00 1.5929354459e-04 2.4099892660e+00 -4.1742238544e+00 2.4099892660e+00 4.1742238544e+00 
47000 5.4066072052e+00 1.6318332314e-04 2.4099859612e+00 -4.1742181302e+00 2.4099859612e+00 4.1742181302e+00 
47100 5.4066072094e+00 1.6625119195e-04 2.4099825756e+00 -4.1742122663e+00 2.4099825756e+00 4.1742122663e+00 
47200 5.4066072149e+00 1.6851801671e-04 2.4099791264e+00 -4.1742062920e+00 2.4099791264e+00 4.1742062920e+00 
47300 5.4066072218e+00 1.7000642294e-04 2.4099756301e+00 -4.1742002364e+00 2.4099756301e+00 4.1742002364e+00 
47400 5.4066072300e+00 1.7074067535e-04 2.4099721030e+00 -4.1741941272e+00 2.4099721030e+00 4.1741941272e+00 
47500 5.4066072395e+00 1.7074655547e-04 2.4099685606e+00 -4.1741879916e+00 2.4099685606e+00 4.1741879916e+00 
47600 5.4066072503e+00 1.7005123824e-04 2.4099650181e+00 -4.1741818558e+00 2.4099650181e+00 4.1741818558e+00 
47700 5.4066072621e+00 1.6868316779e-04 2.4099614900e+00 -4.1741757450e+00 2.4099614900e+00 4.1741757450e+00 
47800 5.4066072751e+00 1.6667193294e-04 2.4099579903e+00 -4.1741696833e+00 2.4099579903e+00 4.1741696833e+00 
47900 5.4066072889e+00 1.6404814272e-04 2.4099545323e+00 -4.1741636939e+00 2.4099545323e+00 4.1741636939e+00 
48000 5.4066073036e+00 1.6084330246e-04 2.4099511288e+00 -4.1741577988e+00 2.4099511288e+00 4.1741577988e+00 
48100 5.4066073190e+00 1.5708969058e-04 2.4099477917e+00 -4.1741520188e+00 2.4099477917e+00 4.1741520188e+00 
48200 5.4066073351e+00 1.5282023669e-04 2.4099445325e+00 -4.1741463737e+00 2.4099445325e+00 4.1741463737e+00 
48300 5.4066073516e+00 1.4806840121e-04 2.4099413619e+00 -4.1741408821e+00 2.4099413619e+00 4.1741408821e+00 
48400 5.4066073684e+00 1.4286805690e-04 2.4099382899e+00 -4.1741355611e+00 2.4099382899e+00 4.1741355611e+00 
48500 5.4066073856e+00 1.3725337250e-04 2.4099353257e+00 -4.1741304271e+00 2.4099353257e+00 4.1741304271e+00 
48600 5.4066074028e+00 1.3125869897e-04 2.4099324781e+00 -4.1741254948e+00 2.4099324781e+00 4.1741254948e+00 
48700 5.4066074201e+00 1.2491845846e-04 2.4099297548e+00 -4.1741207779e+00 2.4099297548e+00 4.1741207779e+00 
48800 5.4066074372e+00 1.1826703635e-04 2.4099271630e+00 -4.1741162889e+00 2.4099271630e+00 4.1741162889e+00 
48900 5.4066074542e+00 1.1133867654e-04 2.4099247093e+00 -4.1741120389e+00 2.4099247093e+00 4.1741120389e+00 
49000 5.4066074708e+00 1.0416738032e-04 2.4099223993e+00 -4.1741080379e+00 2.4099223993e+00 4.1741080379e+00 
49100 5.4066074871e+00 9.6786808916e-05 2.4099202381e+00 -4.1741042945e+00 2.4099202381e+00 4.1741042945e+00 
49200 5.4066075028e+00 8.9230190057e-05 2.4099182300e+00 -4.1741008164e+00 2.4099182300e+00 4.1741008164e+00 
49300 5.4066075181e+00 8.1530228525e-05 2.4099163787e+00 -4.1740976098e+00 2.4099163787e+00 4.1740976098e+00 
49400 5.4066075327e+00 7.3719021058e-05 2.4099146871e+00 -4.1740946800e+00 2.4099146871e+00 4.1740946800e+00 
49500 5.4066075467e+00 6.5827975628e-05 2.4099131576e+00 -4.1740920308e+00 2.4099131576e+00 4.1740920308e+00 
49600 5.4066075600e+00 5.8442170670e-05 2.4099131576e+00 -4.1740920308e+00 2.4099131576e+00 4.1740920308e+00 
49700 5.4066075726e+00 5.0980910235e-05 2.4099131576e+00 -4.1740920308e+00 2.4099131576e+00 4.1740920308e+00 
49800 5.4066075844e+00 4.3471917779e-05 2.4099131576e+00 -4.1740920308e+00 2.4099131576e+00 4.1740920308e+00 
49900 5.4066075953e+00 3.5942141704e-05 2.4099131576e+00 -4.1740920308e+00 2.4099131576e+00 4.1740920308e+00 
50000 5.4066076055e+00 2.8417694920e-05 2.4099131576e+00 -4.1740920308e+00 2.4099131576e+00 4.1740920308e+00 
50100 5.4066076149e+00 2.0923799093e-05 2.4099131576e+00 -4.1740920308e+00 2.4099131576e+00 4.1740920308e+00 
50200 5.4066076235e+00 1.3484733598e-05 2.4099131576e+00 -4.1740920308e+00 2.4099131576e+00 4.1740920308e+00 
50300 5.4066076313e+00 6.1237892081e-06 2.4099131576e+00 -4.1740920308e+00 2.4099131576e+00 4.1740920308e+00 
50400 5.4066076384e+00 -1.1367735303e-06 2.4099131576e+00 -4.1740920308e+00 2.4099131576e+00 4.1740920308e+00 
50500 5.4066076448e+00 -8.2757612322e-06 2.4099131576e+00 -4.1740920308e+00 2.4099131576e+00 4.1740920308e+00 
50600 5.4066076506e+00 -1.5273079980e-05 2.4099131576e+00 -4.1740920308e+00 2.4099131576e+00 4.1740920308e+00 
50700 5.4066076557e+00 -2.2109763025e-05 2.4099131576e+00 -4.1740920308e+00 2.4099131576e+00 4.1740920308e+00 
50800 5.4066076603e+00 -2.8767993994e-05 2.4099131576e+00 -4.1740920308e+00 2.4099131576e+00 4.1740920308e+00 
50900 5.4066076644e+00 -3.5231125629e-05 2.4099131576e+00 -4.1740920308e+00 2.4099131576e+00 4.1740920308e+00 
51000 5.4066076680e+00 -4.1483694188e-05 2.4099131576e+00 -4.1740920308e+00 2.4099131576e+00 4.1740920308e+00 
51100 5.4066076712e+00 -4.7511429588e-05 2.4099131576e+00 -4.1740920308e+00 2.4099131576e+00 4.1740920308e+00 
51200 5.4066076741e+00 -5.3301261405e-05 2.4099131576e+00 -4.1740920308e+00 2.4099131576e+00 4.1740920308e+00 
51300 5.4066076767e+00 -5.8841320851e-05 2.4099131576e+00 -4.1740920308e+00 2.4099131576e+00 4.1740920308e+00 
51400 5.4066076790e+00 -6.4120938854e-05 2.4099131576e+00 -4.1740920308e+00 2.4099131576e+00 4.1740920308e+00 
51500 5.4066076812e+00 -6.9130640374e-05 2.4099131576e+00 -4.1740920308e+00 2.4099131576e+00 4.1740920308e+00 
51600 5.4066076832e+00 -7.3862135124e-05 2.4099131576e+00 -4.1740920308e+00 2.4099131576e+00 4.1740920308e+00 
51700 5.4066076850e+00 -7.7686306778e-05 2.4099146901e+00 -4.1740946851e+00 2.4099146901e+00 4.1740946851e+00 
51800 5.4066076867e+00 -8.1174855630e-05 2.4099163019e+00 -4.1740974768e+00 2.4099163019e+00 4.1740974768e+00 
51900 5.4066076885e+00 -8.4324831727e-05 2.4099179861e+00 -4.1741003939e+00 2.4099179861e+00 4.1741003939e+00 
52000 5.4066076902e+00 -8.7134479839e-05 2.4099197356e+00 -4.1741034242e+00 2.4099197356e+00 4.1741034242e+00 
52100 5.4066076920e+00 -8.9603208969e-05 2.4099215434e+00 -4.1741065555e+00 2.4099215434e+00 4.1741065555e+00 
52200 5.4066076938e+00 -9.1731559110e-05 2.4099234025e+00 -4.1741097754e+00 2.4099234025e+00 4.1741097754e+00 
52300 5.4066076958e+00 -9.3521165498e-05 2.4099253057e+00 -4.1741130719e+00 2.4099253057e+00 4.1741130719e+00 
52400 5.4066076979e+00 -9.4974720481e-05 2.4099272460e+00 -4.1741164326e+00 2.4099272460e+00 4.1741164326e+00 
52500 5.4066077002e+00 -9.6095933212e-05 2.4099292165e+00 -4.1741198456e+00 2.4099292165e+00 4.1741198456e+00 
52600 5.4066077026e+00 -9.6889487409e-05 2.4099312103e+00 -4.1741232989e+00 2.4099312103e+00 4.1741232989e+00 
52700 5.4066077052e+00 -9.7360997299e-05 2.4099332205e+00 -4.1741267807e+00 2.4099332205e+00 4.1741267807e+00 
52800 5.4066077081e+00 -9.7516961945e-05 2.4099352405e+00 -4.1741302794e+00 2.4099352405e+00 4.1741302794e+00 
52900 5.4066077111e+00 -9.7364718214e-05 2.4099372637e+00 -4.1741337838e+00 2.4099372637e+00 4.1741337838e+00 
53000 5.4066077143e+00 -9.6912392466e-05 2.4099392838e+00 -4.1741372826e+00 2.4099392838e+00 4.1741372826e+00 
53100 5.4066077178e+00 -9.6168851256e-05 2.4099412944e+00 -4.1741407652e+00 2.4099412944e+00 4.1741407652e+00 
53200 5.4066077214e+00 -9.5143651157e-05 2.4099432897e+00 -4.1741442211e+00 2.4099432897e+00 4.1741442211e+00 
53300 5.4066077252e+00 -9.3846987910e-05 2.4099452637e+00 -4.1741476401e+00 2.4099452637e+00 4.1741476401e+00 
53400 5.4066077292e+00 -9.2289645098e-05 2.4099472108e+00 -4.1741510126e+00 2.4099472108e+00 4.1741510126e+00 
53500 5.4066077334e+00 -9.0482942484e-05 2.4099491255e+00 -4.1741543291e+00 2.4099491255e+00 4.1741543291e+00 
53600 5.4066077377e+00 -8.8438684220e-05 2.4099510028e+00 -4.1741575806e+00 2.4099510028e+00 4.1741575806e+00 
53700 5.4066077421e+00 -8.6169107034e-05 2.4099528377e+00 -4.1741607587e+00 2.4099528377e+00 4.1741607587e+00 
53800 5.4066077467e+00 -8.3686828632e-05 2.4099546254e+00 -4.1741638552e+00 2.4099546254e+00 4.1741638552e+00 
53900 5.4066077514e+00 -8.1004796425e-05 2.4099563617e+00 -4.1741668625e+00 2.4099563617e+00 4.1741668625e+00 
54000 5.4066077561e+00 -7.8136236709e-05 2.4099580423e+00 -4.1741697734e+00 2.4099580423e+00 4.1741697734e+00 
54100 5.4066077609e+00 -7.5094604505e-05 2.4099596635e+00 -4.1741725813e+00 2.4099596635e+00 4.1741725813e+00 
54200 5.4066077657e+00 -7.1893534154e-05 2.4099612215e+00 -4.1741752798e+00 2.4099612215e+00 4.1741752798e+00 
54300 5.4066077706e+00 -6.8546790775e-05 2.4099627131e+00 -4.1741778634e+00 2.4099627131e+00 4.1741778634e+00 
54400 5.4066077755e+00 -6.5645428921e-05 2.4099627131e+00 -4.1741778634e+00 2.4099627131e+00 4.1741778634e+00 
54500 5.4066077804e+00 -6.2608105802e-05 2.4099627131e+00 -4.1741778634e+00 2.4099627131e+00 4.1741778634e+00 
54600 5.4066077852e+00 -5.9447432627e-05 2.4099627131e+00 -4.1741778634e+00 2.4099627131e+00 4.1741778634e+00 
54700 5.4066077899e+00 -5.6176035088e-05 2.4099627131e+00 -4.1741778634e+00 2.4099627131e+00 4.1741778634e+00 
54800 5.4066077946e+00 -5.2806511556e-05 2.4099627131e+00 -4.1741778634e+00 2.4099627131e+00 4.1741778634e+00 
54900 5.4066077991e+00 -4.9351392806e-05 2.4099627131e+00 -4.1741778634e+00 2.4099627131e+00 4.1741778634e+00 
55000 5.4066078036e+00 -4.5823103307e-05 2.4099627131e+00 -4.1741778634e+00 2.4099627131e+00 4.1741778634e+00 
55100 5.4066078078e+00 -4.2233924165e-05 2.4099627131e+00 -4.1741778634e+00 2.4099627131e+00 4.1741778634e+00 
55200 5.4066078120e+00 -3.8595957774e-05 2.4099627131e+00 -4.1741778634e+00 2.4099627131e+00 4.1741778634e+00 
55300 5.4066078160e+00 -3.4921094239e-05 2.4099627131e+00 -4.1741778634e+00 2.4099627131e+00 4.1741778634e+00 
55400 5.4066078198e+00 -3.1220979601e-05 2.4099627131e+00 -4.1741778634e+00 2.4099627131e+00 4.1741778634e+00 
55500 5.4066078235e+00 -2.7506985914e-05 2.4099627131e+00 -4.1741778634e+00 2.4099627131e+00 4.1741778634e+00 
55600 5.4066078271e+00 -2.3790183223e-05 2.4099627131e+00 -4.1741778634e+00 2.4099627131e+00 4.1741778634e+00 
55700 5.4066078304e+00 -2.0081313427e-05 2.4099627131e+00 -4.1741778634e+00 2.4099627131e+00 4.1741778634e+00 
55800 5.4066078337e+00 -1.6390766099e-05 2.4099627131e+00 -4.1741778634e+00 2.4099627131e+00 4.1741778634e+00 
55900 5.4066078367e+00 -1.2728556214e-05 2.4099627131e+00 -4.1741778634e+00 2.4099627131e+00 4.1741778634e+00 
56000 5.4066078396e+00 -9.1043038620e-06 2.4099627131e+00 -4.1741778634e+00 2.4099627131e+00 4.1741778634e+00 
56100 5.4066078423e+00 -5.5272158859e-06 2.4099627131e+00 -4.1741778634e+00 2.4099627131e+00 4.1741778634e+00 
56200 5.4066078450e+00 -2.0060694546e-06 2.4099627131e+00 -4.1741778634e+00 2.4099627131e+00 4.1741778634e+00 
56300 5.4066078474e+00 1.4508024112e-06 2.4099627131e+00 -4.1741778634e+00 2.4099627131e+00 4.1741778634e+00 
56400 5.4066078498e+00 4.8355234298e-06 2.4099627131e+00 -4.1741778634e+00 2.4099627131e+00 4.1741778634e+00 
56500 5.4066078520e+00 8.1406847439e-06 2.4099627131e+00 -4.1741778634e+00 2.4099627131e+00 4.1741778634e+00 
56600 5.4066078541e+00 1.1359353756e-05 2.4099627131e+00 -4.1741778634e+00 2.4099627131e+00 4.1741778634e+00 
56700 5.4066078561e+00 1.4485081145e-05 2.4099627131e+00 -4.1741778634e+00 2.4099627131e+00 4.1741778634e+00 
56800 5.4066078580e+00 1.7511906084e-05 2.4099627131e+00 -4.1741778634e+00 2.4099627131e+00 4.1741778634e+00 
56900 5.4066078598e+00 2.0434359726e-05 2.4099627131e+00 -4.1741778634e+00 2.4099627131e+00 4.1741778634e+00 
57000 5.4066078616e+00 2.3247466992e-05 2.4099627131e+00 -4.1741778634e+00 2.4099627131e+00 4.1741778634e+00 
57100 5.4066078632e+00 2.5946746706e-05 2.4099627131e+00 -4.1741778634e+00 2.4099627131e+00 4.1741778634e+00 
57200 5.4066078649e+00 2.8528210151e-05 2.4099627131e+00 -4.1741778634e+00 2.4099627131e+00 4.1741778634e+00 
57300 5.4066078664e+00 3.0988358074e-05 2.4099627131e+00 -4.1741778634e+00 2.4099627131e+00 4.1741778634e+00 
57400 5.4066078680e+00 3.3324176239e-05 2.4099627131e+00 -4.1741778634e+00 2.4099627131e+00 4.1741778634e+00 
57500 5.4066078695e+00 3.5533129549e-05 2.4099627131e+00 -4.1741778634e+00 2.4099627131e+00 4.1741778634e+00 
57600 5.4066078710e+00 3.7613154844e-05 2.4099627131e+00 -4.1741778634e+00 2.4099627131e+00 4.1741778634e+00 
57700 5.4066078724e+00 3.9562652390e-05 2.4099627131e+00 -4.1741778634e+00 2.4099627131e+00 4.1741778634e+00 
57800 5.4066078739e+00 4.1380476205e-05 2.4099627131e+00 -4.1741778634e+00 2.4099627131e+00 4.1741778634e+00 
57900 5.4066078754e+00 4.3065923201e-05 2.4099627131e+00 -4.1741778634e+00 2.4099627131e+00 4.1741778634e+00 
58000 5.4066078768e+00 4.4618721299e-05 2.4099627131e+00 -4.1741778634e+00 2.4099627131e+00 4.1741778634e+00 
58100 5.4066078783e+00 4.6039016526e-05 2.4099627131e+00 -4.1741778634e+00 2.4099627131e+00 4.1741778634e+00 
58200 5.4066078797e+00 4.7327359210e-05 2.4099627131e+00 -4.1741778634e+00 2.4099627131e+00 4.1741778634e+00 
58300 5.4066078812e+00 4.8484689327e-05 2.4099627131e+00 -4.1741778634e+00 2.4099627131e+00 4.1741778634e+00 
58400 5.4066078827e+00 4.9512321077e-05 2.4099627131e+00 -4.1741778634e+00 2.4099627131e+00 4.1741778634e+00 
58500 5.4066078842e+00 5.0411926773e-05 2.4099627131e+00 -4.1741778634e+00 2.4099627131e+00 4.1741778634e+00 
58600 5.4066078857e+00 5.1185520100e-05 2.4099627131e+00 -4.1741778634e+00 2.4099627131e+00 4.1741778634e+00 
58700 5.4066078873e+00 5.1835438840e-05 2.4099627131e+00 -4.1741778634e+00 2.4099627131e+00 4.1741778634e+00 
58800 5.4066078888e+00 5.2364327114e-05 2.4099627131e+00 -4.1741778634e+00 2.4099627131e+00 4.1741778634e+00 
58900 5.4066078904e+00 5.2775117228e-05 2.4099627131e+00 -4.1741778634e+00 2.4099627131e+00 4.1741778634e+00 
59000 5.4066078920e+00 5.3071011198e-05 2.4099627131e+00 -4.1741778634e+00 2.4099627131e+00 4.1741778634e+00 
59100 5.4066078936e+00 5.3255462001e-05 2.4099627131e+00 -4.1741778634e+00 2.4099627131e+00 4.1741778634e+00 
59200 5.4066078952e+00 5.3332154648e-05 2.4099627131e+00 -4.1741778634e+00 2.4099627131e+00 4.1741778634e+00 
59300 5.4066078968e+00 5.3304987118e-05 2.4099627131e+00 -4.1741778634e+00 2.4099627131e+00 4.1741778634e+00 
59400 5.4066078985e+00 5.3178051254e-05 2.4099627131e+00 -4.1741778634e+00 2.4099627131e+00 4.1741778634e+00 
59500 5.4066079001e+00 5.2955613647e-05 2.4099627131e+00 -4.1741778634e+00 2.4099627131e+00 4.1741778634e+00 
59600 5.4066079017e+00 5.2642096577e-05 2.4099627131e+00 -4.1741778634e+00 2.4099627131e+00 4.1741778634e+00 
59700 5.4066079034e+00 5.2242059105e-05 2.4099627131e+00 -4.1741778634e+00 2.4099627131e+00 4.1741778634e+00 
59800 5.4066079050e+00 5.1760178319e-05 2.4099627131e+00 -4.1741778634e+00 2.4099627131e+00 4.1741778634e+00 
59900 5.4066079066e+00 5.1201230821e-05 2.4099627131e+00 -4.1741778634e+00 2.4099627131e+00 4.1741778634e+00 
60000 5.4066079082e+00 5.0570074503e-05 2.4099627131e+00 -4.1741778634e+00 2.4099627131e+00 4.1741778634e+00 
60100 5.4066079098e+00 4.9871630655e-05 2.4099627131e+00 -4.1741778634e+00 2.4099627131e+00 4.1741778634e+00 
60200 5.4066079114e+00 4.9110866443e-05 2.4099627131e+00 -4.1741778634e+00 2.4099627131e+00 4.1741778634e+00 
60300 5.4066079130e+00 4.8292777824e-05 2.4099627131e+00 -4.1741778634e+00 2.4099627131e+00 4.1741778634e+00 
60400 5.4066079145e+00 4.7422372917e-05 2.4099627131e+00 -4.1741778634e+00 2.4099627131e+00 4.1741778634e+00 
60500 5.4066079160e+00 4.6504655872e-05 2.4099627131e+00 -4.1741778634e+00 2.4099627131e+00 4.1741778634e+00 
60600 5.4066079175e+00 4.5544611284e-05 2.4099627131e+00 -4.1741778634e+00 2.4099627131e+00 4.1741778634e+00 
60700 5.4066079190e+00 4.4547189163e-05 2.4099627131e+00 -4.1741778634e+00 2.4099627131e+00 4.1741778634e+00 
60800 5.4066079204e+00 4.3517290519e-05 2.4099627131e+00 -4.1741778634e+00 2.4099627131e+00 4.1741778634e+00 
60900 5.4066079218e+00 4.2459753548e-05 2.4099627131e+00 -4.1741778634e+00 2.4099627131e+00 4.1741778634e+00 
61000 5.4066079231e+00 4.1379340480e-05 2.4099627131e+00 -4.1741778634e+00 2.4099627131e+00 4.1741778634e+00 
61100 5.4066079245e+00 4.0280725104e-05 2.4099627131e+00 -4.1741778634e+00 2.4099627131e+00 4.1741778634e+00 
61200 5.4066079258e+00 3.9168480943e-05 2.4099627131e+00 -4.1741778634e+00 2.4099627131e+00 4.1741778634e+00 
61300 5.4066079270e+00 3.8047070174e-05 2.4099627131e+00 -4.1741778634e+00 2.4099627131e+00 4.1741778634e+00 
61400 5.4066079283e+00 3.6920833225e-05 2.4099627131e+00 -4.1741778634e+00 2.4099627131e+00 4.1741778634e+00 
61500 5.4066079295e+00 3.5793979119e-05 2.4099627131e+00 -4.1741778634e+00 2.4099627131e+00 4.1741778634e+00 
61600 5.4066079306e+00 3.4670576529e-05 2.4099627131e+00 -4.1741778634e+00 2.4099627131e+00 4.1741778634e+00 
61700 5.4066079318e+00 3.3554545587e-05 2.4099627131e+00 -4.1741778634e+00 2.4099627131e+00 4.1741778634e+00 
61800 5.4066079328e+00 3.2449650405e-05 2.4099627131e+00 -4.1741778634e+00 2.4099627131e+00 4.1741778634e+00 
61900 5.4066079339e+00 3.1359492358e-05 2.4099627131e+00 -4.1741778634e+00 2.4099627131e+00 4.1741778634e+00 
62000 5.4066079349e+00 3.0287504074e-05 2.4099627131e+00 -4.1741778634e+00 2.4099627131e+00 4.1741778634e+00 
62100 5.4066079359e+00 2.9236944179e-05 2.4099627131e+00 -4.1741778634e+00 2.4099627131e+00 4.1741778634e+00 
62200 5.4066079369e+00 2.8210892736e-05 2.4099627131e+00 -4.1741778634e+00 2.4099627131e+00 4.1741778634e+00 
62300 5.4066079379e+00 2.7212247422e-05 2.4099627131e+00 -4.1741778634e+00 2.4099627131e+00 4.1741778634e+00 
62400 5.4066079388e+00 2.6243720377e-05 2.4099627131e+00 -4.1741778634e+00 2.4099627131e+00 4.1741778634e+00 
62500 5.4066079397e+00 2.5307835775e-05 2.4099627131e+00 -4.1741778634e+00 2.4099627131e+00 4.1741778634e+00 
62600 5.4066079406e+00 2.4406928039e-05 2.4099627131e+00 -4.1741778634e+00 2.4099627131e+00 4.1741778634e+00 
62700 5.4066079414e+00 2.3543140720e-05 2.4099627131e+00 -4.1741778634e+00 2.4099627131e+00 4.1741778634e+00 
62800 5.4066079423e+00 2.2718426032e-05 2.4099627131e+00 -4.1741778634e+00 2.4099627131e+00 4.1741778634e+00 
62900 5.4066079431e+00 2.1934544978e-05 2.4099627131e+00 -4.1741778634e+00 2.4099627131e+00 4.1741778634e+00 
63000 5.4066079439e+00 2.1193068106e-05 2.4099627131e+00 -4.1741778634e+00 2.4099627131e+00 4.1741778634e+00 
63100 5.4066079447e+00 2.0495376808e-05 2.4099627131e+00 -4.1741778634e+00 2.4099627131e+00 4.1741778634e+00 
63200 5.4066079454e+00 1.9842665197e-05 2.4099627131e+00 -4.1741778634e+00 2.4099627131e+00 4.1741778634e+00 
63300 5.4066079462e+00 1.9235942514e-05 2.4099627131e+00 -4.1741778634e+00 2.4099627131e+00 4.1741778634e+00 
63400 5.4066079469e+00 1.8676036025e-05 2.4099627131e+00 -4.1741778634e+00 2.4099627131e+00 4.1741778634e+00 
63500 5.4066079477e+00 1.8163594407e-05 2.4099627131e+00 -4.1741778634e+00 2.4099627131e+00 4.1741778634e+00 
63600 5.4066079484e+00 1.7699091588e-05 2.4099627131e+00 -4.1741778634e+00 2.4099627131e+00 4.1741778634e+00 
63700 5.4066079491e+00 1.7282831001e-05 2.4099627131e+00 -4.1741778634e+00 2.4099627131e+00 4.1741778634e+00 
63800 5.4066079498e+00 1.6914950261e-05 2.4099627131e+00 -4.1741778634e+00 2.4099627131e+00 4.1741778634e+00 
63900 5.4066079505e+00 1.6595426181e-05 2.4099627131e+00 -4.1741778634e+00 2.4099627131e+00 4.1741778634e+00 
64000 5.4066079512e+00 1.6324080153e-05 2.4099627131e+00 -4.1741778634e+00 2.4099627131e+00 4.1741778634e+00 
64100 5.4066079519e+00 1.6100583843e-05 2.4099627131e+00 -4.1741778634e+00 2.4099627131e+00 4.1741778634e+00 
64200 5.4066079526e+00 1.5924465154e-05 2.4099627131e+00 -4.1741778634e+00 2.4099627131e+00 4.1741778634e+00 
64300 5.4066079533e+00 1.5795114478e-05 2.4099627131e+00 -4.1741778634e+00 2.4099627131e+00 4.1741778634e+00 
64400 5.4066079540e+00 1.5711791135e-05 2.4099627131e+00 -4.1741778634e+00 2.4099627131e+00 4.1741778634e+00 
64500 5.4066079547e+00 1.5673630059e-05 2.4099627131e+00 -4.1741778634e+00 2.4099627131e+00 4.1741778634e+00 
64600 5.4066079553e+00 1.5679648625e-05 2.4099627131e+00 -4.1741778634e+00 2.4099627131e+00 4.1741778634e+00 
64700 5.4066079560e+00 1.5728753643e-05 2.4099627131e+00 -4.1741778634e+00 2.4099627131e+00 4.1741778634e+00 
64800 5.4066079567e+00 1.5819748457e-05 2.4099627131e+00 -4.1741778634e+00 2.4099627131e+00 4.1741778634e+00 
64900 5.4066079573e+00 1.5951340149e-05 2.4099627131e+00 -4.1741778634e+00 2.4099627131e+00 4.1741778634e+00 
65000 5.4066079580e+00 1.6122146807e-05 2.4099627131e+00 -4.1741778634e+00 2.4099627131e+00 4.1741778634e+00 
65100 5.4066079586e+00 1.6330704832e-05 2.4099627131e+00 -4.1741778634e+00 2.4099627131e+00 4.1741778634e+00 
65200 5.4066079593e+00 1.6575476266e-05 2.4099627131e+00 -4.1741778634e+00 2.4099627131e+00 4.1741778634e+00 
65300 5.4066079599e+00 1.6854856119e-05 2.4099627131e+00 -4.1741778634e+00 2.4099627131e+00 4.1741778634e+00 
65400 5.4066079605e+00 1.7167179663e-05 2.4099627131e+00 -4.1741778634e+00 2.4099627131e+00 4.1741778634e+00 
65500 5.4066079612e+00 1.7510729665e-05 2.4099627131e+00 -4.1741778634e+00 2.4099627131e+00 4.1741778634e+00 
65600 5.4066079618e+00 1.7883743568e-05 2.4099627131e+00 -4.1741778634e+00 2.4099627131e+00 4.1741778634e+00 
65700 5.4066079624e+00 1.8284420569e-05 2.4099627131e+00 -4.1741778634e+00 2.4099627131e+00 4.1741778634e+00 
65800 5.4066079630e+00 1.8710928584e-05 2.4099627131e+00 -4.1741778634e+00 2.4099627131e+00 4.1741778634e+00 
65900 5.4066079636e+00 1.9161411083e-05 2.4099627131e+00 -4.1741778634e+00 2.4099627131e+00 4.1741778634e+00 
66000 5.4066079642e+00 1.9633993787e-05 2.4099627131e+00 -4.1741778634e+00 2.4099627131e+00 4.1741778634e+00 
66100 5.4066079648e+00 2.0126791186e-05 2.4099627131e+00 -4.1741778634e+00 2.4099627131e+00 4.1741778634e+00 
66200 5.4066079653e+00 2.0637912892e-05 2.4099627131e+00 -4.1741778634e+00 2.4099627131e+00 4.1741778634e+00 
66300 5.4066079659e+00 2.1165469791e-05 2.4099627131e+00 -4.1741778634e+00 2.4099627131e+00 4.1741778634e+00 
66400 5.4066079665e+00 2.1707579992e-05 2.4099627131e+00 -4.1741778634e+00 2.4099627131e+00 4.1741778634e+00 
66500 5.4066079670e+00 2.2262374555e-05 2.4099627131e+00 -4.1741778634e+00 2.4099627131e+00 4.1741778634e+00 
66600 5.4066079676e+00 2.2828002995e-05 2.4099627131e+00 -4.1741778634e+00 2.4099627131e+00 4.1741778634e+00 
66700 5.4066079681e+00 2.3402638538e-05 2.4099627131e+00 -4.1741778634e+00 2.4099627131e+00 4.1741778634e+00 
66800 5.4066079686e+00 2.3984483140e-05 2.4099627131e+00 -4.1741778634e+00 2.4099627131e+00 4.1741778634e+00 
66900 5.4066079691e+00 2.4571772243e-05 2.4099627131e+00 -4.1741778634e+00 2.4099627131e+00 4.1741778634e+00 
67000 5.4066079696e+00 2.5162779267e-05 2.4099627131e+00 -4.1741778634e+00 2.4099627131e+00 4.1741778634e+00 
67100 5.4066079701e+00 2.5755819843e-05 2.4099627131e+00 -4.1741778634e+00 2.4099627131e+00 4.1741778634e+00 
67200 5.4066079706e+00 2.6349255765e-05 2.4099627131e+00 -4.1741778634e+00 2.4099627131e+00 4.1741778634e+00 
67300 5.4066079711e+00 2.6941498674e-05 2.4099627131e+00 -4.1741778634e+00 2.4099627131e+00 4.1741778634e+00 
67400 5.4066079715e+00 2.7531013451e-05 2.4099627131e+00 -4.1741778634e+00 2.4099627131e+00 4.1741778634e+00 
67500 5.4066079720e+00 2.8116321342e-05 2.4099627131e+00 -4.1741778634e+00 2.4099627131e+00 4.1741778634e+00 
67600 5.4066079724e+00 2.8696002798e-05 2.4099627131e+00 -4.1741778634e+00 2.4099627131e+00 4.1741778634e+00 
67700 5.4066079728e+00 2.9268700035e-05 2.4099627131e+00 -4.1741778634e+00 2.4099627131e+00 4.1741778634e+00 
67800 5.4066079733e+00 2.9833119312e-05 2.4099627131e+00 -4.1741778634e+00 2.4099627131e+00 4.1741778634e+00 
67900 5.4066079737e+00 3.0388032932e-05 2.4099627131e+00 -4.1741778634e+00 2.4099627131e+00 4.1741778634e+00 
68000 5.4066079741e+00 3.0932280969e-05 2.4099627131e+00 -4.1741778634e+00 2.4099627131e+00 4.1741778634e+00 
68100 5.4066079745e+00 3.1464772730e-05 2.4099627131e+00 -4.1741778634e+00 2.4099627131e+00 4.1741778634e+00 
68200 5.4066079749e+00 3.1984487937e-05 2.4099627131e+00 -4.1741778634e+00 2.4099627131e+00 4.1741778634e+00 
68300 5.4066079753e+00 3.2490477654e-05 2.4099627131e+00 -4.1741778634e+00 2.4099627131e+00 4.1741778634e+00 
68400 5.4066079757e+00 3.2981864970e-05 2.4099627131e+00 -4.1741778634e+00 2.4099627131e+00 4.1741778634e+00 
68500 5.4066079760e+00 3.3457845402e-05 2.4099627131e+00 -4.1741778634e+00 2.4099627131e+00 4.1741778634e+00 
68600 5.4066079764e+00 3.3917687095e-05 2.4099627131e+00 -4.1741778634e+00 2.4099627131e+00 4.1741778634e+00 
68700 5.4066079768e+00 3.4360730740e-05 2.4099627131e+00 -4.1741778634e+00 2.4099627131e+00 4.1741778634e+00 
68800 5.4066079771e+00 3.4786389312e-05 2.4099627131e+00 -4.1741778634e+00 2.4099627131e+00 4.1741778634e+00 
68900 5.4066079775e+00 3.5194147553e-05 2.4099627131e+00 -4.1741778634e+00 2.4099627131e+00 4.1741778634e+00 
69000 5.4066079778e+00 3.5583561257e-05 2.4099627131e+00 -4.1741778634e+00 2.4099627131e+00 4.1741778634e+00 
69100 5.4066079782e+00 3.5954256367e-05 2.4099627131e+00 -4.1741778634e+00 2.4099627131e+00 4.1741778634e+00 
69200 5.4066079785e+00 3.6305927848e-05 2.4099627131e+00 -4.1741778634e+00 2.4099627131e+00 4.1741778634e+00 
69300 5.4066079788e+00 3.6638338415e-05 2.4099627131e+00 -4.1741778634e+00 2.4099627131e+00 4.1741778634e+00 
69400 5.4066079792e+00 3.6951317058e-05 2.4099627131e+00 -4.1741778634e+00 2.4099627131e+00 4.1741778634e+00 
69500 5.4066079795e+00 3.7244757428e-05 2.4099627131e+00 -4.1741778634e+00 2.4099627131e+00 4.1741778634e+00 
69600 5.4066079798e+00 3.7518616060e-05 2.4099627131e+00 -4.1741778634e+00 2.4099627131e+00 4.1741778634e+00 
69700 5.4066079801e+00 3.7772910458e-05 2.4099627131e+00 -4.1741778634e+00 2.4099627131e+00 4.1741778634e+00 
69800 5.4066079804e+00 3.8007717051e-05 2.4099627131e+00 -4.1741778634e+00 2.4099627131e+00 4.1741778634e+00 
69900 5.4066079807e+00 3.8223169026e-05 2.4099627131e+00 -4.1741778634e+00 2.4099627131e+00 4.1741778634e+00 
70000 5.4066079810e+00 3.8419454059e-05 2.4099627131e+00 -4.1741778634e+00 2.4099627131e+00 4.1741778634e+00 
70100 5.4066079813e+00 3.8596811949e-05 2.4099627131e+00 -4.1741778634e+00 2.4099627131e+00 4.1741778634e+00 
70200 5.4066079816e+00 3.8755532152e-05 2.4099627131e+00 -4.1741778634e+00 2.4099627131e+00 4.1741778634e+00 
70300 5.4066079819e+00 3.8895951260e-05 2.4099627131e+00 -4.1741778634e+00 2.4099627131e+00 4.1741778634e+00 
70400 5.4066079822e+00 3.9018450390e-05 2.4099627131e+00 -4.1741778634e+00 2.4099627131e+00 4.1741778634e+00 
70500 5.4066079825e+00 3.9123452539e-05 2.4099627131e+00 -4.1741778634e+00 2.4099627131e+00 4.1741778634e+00 
70600 5.4066079828e+00 3.9211419881e-05 2.4099627131e+00 -4.1741778634e+00 2.4099627131e+00 4.1741778634e+00 
70700 5.4066079830e+00 3.9282851033e-05 2.4099627131e+00 -4.1741778634e+00 2.4099627131e+00 4.1741778634e+00 
70800 5.4066079833e+00 3.9338278301e-05 2.4099627131e+00 -4.1741778634e+00 2.4099627131e+00 4.1741778634e+00 
70900 5.4066079836e+00 3.9378264893e-05 2.4099627131e+00 -4.1741778634e+00 2.4099627131e+00 4.1741778634e+00 
71000 5.4066079839e+00 3.9403402156e-05 2.4099627131e+00 -4.1741778634e+00 2.4099627131e+00 4.1741778634e+00 
71100 5.4066079841e+00 3.9414306777e-05 2.4099627131e+00 -4.1741778634e+00 2.4099627131e+00 4.1741778634e+00 
71200 5.4066079844e+00 3.9411618027e-05 2.4099627131e+00 -4.1741778634e+00 2.4099627131e+00 4.1741778634e+00 
71300 5.4066079846e+00 3.9395995014e-05 2.4099627131e+00 -4.1741778634e+00 2.4099627131e+00 4.1741778634e+00 
71400 5.4066079849e+00 3.9368113960e-05 2.4099627131e+00 -4.1741778634e+00 2.4099627131e+00 4.1741778634e+00 
71500 5.4066079851e+00 3.9328665512e-05 2.4099627131e+00 -4.1741778634e+00 2.4099627131e+00 4.1741778634e+00 
71600 5.4066079854e+00 3.9278352106e-05 2.4099627131e+00 -4.1741778634e+00 2.4099627131e+00 4.1741778634e+00 
71700 5.4066079856e+00 3.9217885378e-05 2.4099627131e+00 -4.1741778634e+00 2.4099627131e+00 4.1741778634e+00 
71800 5.4066079859e+00 3.9147983618e-05 2.4099627131e+00 -4.1741778634e+00 2.4099627131e+00 4.1741778634e+00 
71900 5.4066079861e+00 3.9069369305e-05 2.4099627131e+00 -4.1741778634e+00 2.4099627131e+00 4.1741778634e+00 
72000 5.4066079864e+00 3.8982766701e-05 2.4099627131e+00 -4.1741778634e+00 2.4099627131e+00 4.1741778634e+00 
72100 5.4066079866e+00 3.8888899514e-05 2.4099627131e+00 -4.1741778634e+00 2.4099627131e+00 4.1741778634e+00 
72200 5.4066079868e+00 3.8788488656e-05 2.4099627131e+00 -4.1741778634e+00 2.4099627131e+00 4.1741778634e+00 
72300 5.4066079870e+00 3.8682250054e-05 2.4099627131e+00 -4.1741778634e+00 2.4099627131e+00 4.1741778634e+00 
72400 5.4066079873e+00 3.8570892596e-05 2.4099627131e+00 -4.1741778634e+00 2.4099627131e+00 4.1741778634e+00 
72500 5.4066079875e+00 3.8455116111e-05 2.4099627131e+00 -4.1741778634e+00 2.4099627131e+00 4.1741778634e+00 
72600 5.4066079877e+00 3.8335609488e-05 2.4099627131e+00 -4.1741778634e+00 2.4099627131e+00 4.1741778634e+00 
72700 5.4066079879e+00 3.8213048874e-05 2.4099627131e+00 -4.1741778634e+00 2.4099627131e+00 4.1741778634e+00 
72800 5.4066079881e+00 3.8088095968e-05 2.4099627131e+00 -4.1741778634e+00 2.4099627131e+00 4.1741778634e+00 
72900 5.4066079883e+00 3.7961396428e-05 2.4099627131e+00 -4.1741778634e+00 2.4099627131e+00 4.1741778634e+00 
73000 5.4066079885e+00 3.7833578374e-05 2.4099627131e+00 -4.1741778634e+00 2.4099627131e+00 4.1741778634e+00 
73100 5.4066079887e+00 3.7705250991e-05 2.4099627131e+00 -4.1741778634e+00 2.4099627131e+00 4.1741778634e+00 
73200 5.4066079889e+00 3.7577003259e-05 2.4099627131e+00 -4.1741778634e+00 2.4099627131e+00 4.1741778634e+00 
73300 5.4066079891e+00 3.7449402760e-05 2.4099627131e+00 -4.1741778634e+00 2.4099627131e+00 4.1741778634e+00 
73400 5.4066079893e+00 3.7322994616e-05 2.4099627131e+00 -4.1741778634e+00 2.4099627131e+00 4.1741778634e+00 
73500 5.4066079895e+00 3.7198300518e-05 2.4099627131e+00 -4.1741778634e+00 2.4099627131e+00 4.1741778634e+00 
73600 5.4066079897e+00 3.7075817864e-05 2.4099627131e+00 -4.1741778634e+00 2.4099627131e+00 4.1741778634e+00 
73700 5.4066079898e+00 3.6956019012e-05 2.4099627131e+00 -4.1741778634e+00 2.4099627131e+00 4.1741778634e+00 
73800 5.4066079900e+00 3.6839350628e-05 2.4099627131e+00 -4.1741778634e+00 2.4099627131e+00 4.1741778634e+00 
73900 5.4066079902e+00 3.6726233136e-05 2.4099627131e+00 -4.1741778634e+00 2.4099627131e+00 4.1741778634e+00 
74000 5.4066079904e+00 3.6617060266e-05 2.4099627131e+00 -4.1741778634e+00 2.4099627131e+00 4.1741778634e+00 
74100 5.4066079905e+00 3.6512198725e-05 2.4099627131e+00 -4.1741778634e+00 2.4099627131e+00 4.1741778634e+00 
74200 5.4066079907e+00 3.6411987924e-05 2.4099627131e+00 -4.1741778634e+00 2.4099627131e+00 4.1741778634e+00 
74300 5.4066079909e+00 3.6316739838e-05 2.4099627131e+00 -4.1741778634e+00 2.4099627131e+00 4.1741778634e+00 
74400 5.4066079910e+00 3.6226738936e-05 2.4099627131e+00 -4.1741778634e+00 2.4099627131e+00 4.1741778634e+00 
74500 5.4066079912e+00 3.6142242212e-05 2.4099627131e+00 -4.1741778634e+00 2.4099627131e+00 4.1741778634e+00 
74600 5.4066079913e+00 3.6063479283e-05 2.4099627131e+00 -4.1741778634e+00 2.4099627131e+00 4.1741778634e+00 
74700 5.4066079915e+00 3.5990652604e-05 2.4099627131e+00 -4.1741778634e+00 2.4099627131e+00 4.1741778634e+00 
74800 5.4066079916e+00 3.5923937715e-05 2.4099627131e+00 -4.1741778634e+00 2.4099627131e+00 4.1741778634e+00 
74900 5.4066079918e+00 3.5863483621e-05 2.4099627131e+00 -4.1741778634e+00 2.4099627131e+00 4.1741778634e+00 
75000 5.4066079919e+00 3.5809413193e-05 2.4099627131e+00 -4.1741778634e+00 2.4099627131e+00 4.1741778634e+00 
75100 5.4066079921e+00 3.5761823663e-05 2.4099627131e+00 -4.1741778634e+00 2.4099627131e+00 4.1741778634e+00 
75200 5.4066079922e+00 3.5720787185e-05 2.4099627131e+00 -4.1741778634e+00 2.4099627131e+00 4.1741778634e+00 
75300 5.4066079924e+00 3.5686351453e-05 2.4099627131e+00 -4.1741778634e+00 2.4099627131e+00 4.1741778634e+00 
75400 5.4066079925e+00 3.5658540358e-05 2.4099627131e+00 -4.1741778634e+00 2.4099627131e+00 4.1741778634e+00 
75500 5.4066079926e+00 3.5637354744e-05 2.4099627131e+00 -4.1741778634e+00 2.4099627131e+00 4.1741778634e+00 
75600 5.4066079928e+00 3.5622773156e-05 2.4099627131e+00 -4.1741778634e+00 2.4099627131e+00 4.1741778634e+00 
75700 5.4066079929e+00 3.5614752677e-05 2.4099627131e+00 -4.1741778634e+00 2.4099627131e+00 4.1741778634e+00 
75800 5.4066079930e+00 3.5613229785e-05 2.4099627131e+00 -4.1741778634e+00 2.4099627131e+00 4.1741778634e+00 
75900 5.4066079932e+00 3.5618121247e-05 2.4099627131e+00 -4.1741778634e+00 2.4099627131e+00 4.1741778634e+00 
76000 5.4066079933e+00 3.5629325057e-05 2.4099627131e+00 -4.1741778634e+00 2.4099627131e+00 4.1741778634e+00 
76100 5.4066079934e+00 3.5646721389e-05 2.4099627131e+00 -4.1741778634e+00 2.4099627131e+00 4.1741778634e+00 
76200 5.4066079936e+00 3.5670173588e-05 2.4099627131e+00 -4.1741778634e+00 2.4099627131e+00 4.1741778634e+00 
76300 5.4066079937e+00 3.5699529165e-05 2.4099627131e+00 -4.1741778634e+00 2.4099627131e+00 4.1741778634e+00 
76400 5.4066079938e+00 3.5734620824e-05 2.4099627131e+00 -4.1741778634e+00 2.4099627131e+00 4.1741778634e+00 
76500 5.4066079939e+00 3.5775267502e-05 2.4099627131e+00 -4.1741778634e+00 2.4099627131e+00 4.1741778634e+00 
76600 5.4066079940e+00 3.5821275402e-05 2.4099627131e+00 -4.1741778634e+00 2.4099627131e+00 4.1741778634e+00 
76700 5.4066079942e+00 3.5872439049e-05 2.4099627131e+00 -4.1741778634e+00 2.4099627131e+00 4.1741778634e+00 
76800 5.4066079943e+00 3.5928542340e-05 2.4099627131e+00 -4.1741778634e+00 2.4099627131e+00 4.1741778634e+00 
76900 5.4066079944e+00 3.5989359596e-05 2.4099627131e+00 -4.1741778634e+00 2.4099627131e+00 4.1741778634e+00 
77000 5.4066079945e+00 3.6054656608e-05 2.4099627131e+00 -4.1741778634e+00 2.4099627131e+00 4.1741778634e+00 
77100 5.4066079946e+00 3.6124191674e-05 2.4099627131e+00 -4.1741778634e+00 2.4099627131e+00 4.1741778634e+00 
77200 5.4066079947e+00 3.6197716621e-05 2.4099627131e+00 -4.1741778634e+00 2.4099627131e+00 4.1741778634e+00 
77300 5.4066079948e+00 3.6274977832e-05 2.4099627131e+00 -4.1741778634e+00 2.4099627131e+00 4.1741778634e+00 
77400 5.4066079949e+00 3.6355717232e-05 2.4099627131e+00 -4.1741778634e+00 2.4099627131e+00 4.1741778634e+00 
77500 5.4066079950e+00 3.6439673271e-05 2.4099627131e+00 -4.1741778634e+00 2.4099627131e+00 4.1741778634e+00 
77600 5.4066079951e+00 3.6526581883e-05 2.4099627131e+00 -4.1741778634e+00 2.4099627131e+00 4.1741778634e+00 
77700 5.4066079952e+00 3.6616177415e-05 2.4099627131e+00 -4.1741778634e+00 2.4099627131e+00 4.1741778634e+00 
77800 5.4066079953e+00 3.6708193538e-05 2.4099627131e+00 -4.1741778634e+00 2.4099627131e+00 4.1741778634e+00 
77900 5.4066079954e+00 3.6802364123e-05 2.4099627131e+00 -4.1741778634e+00 2.4099627131e+00 4.1741778634e+00 
78000 5.4066079955e+00 3.6898424092e-05 2.4099627131e+00 -4.1741778634e+00 2.4099627131e+00 4.1741778634e+00 
78100 5.4066079956e+00 3.6996110239e-05 2.4099627131e+00 -4.1741778634e+00 2.4099627131e+00 4.1741778634e+00 
78200 5.4066079957e+00 3.7095162009e-05 2.4099627131e+00 -4.1741778634e+00 2.4099627131e+00 4.1741778634e+00 
78300 5.4066079958e+00 3.7195322248e-05 2.4099627131e+00 -4.1741778634e+00 2.4099627131e+00 4.1741778634e+00 
78400 5.4066079959e+00 3.7296337921e-05 2.4099627131e+00 -4.1741778634e+00 2.4099627131e+00 4.1741778634e+00 
78500 5.4066079960e+00 3.7397960795e-05 2.4099627131e+00 -4.1741778634e+00 2.4099627131e+00 4.1741778634e+00 
78600 5.4066079961e+00 3.7499948064e-05 2.4099627131e+00 -4.1741778634e+00 2.4099627131e+00 4.1741778634e+00 
78700 5.4066079962e+00 3.7602062960e-05 2.4099627131e+00 -4.1741778634e+00 2.4099627131e+00 4.1741778634e+00 
78800 5.4066079963e+00 3.7704075318e-05 2.4099627131e+00 -4.1741778634e+00 2.4099627131e+00 4.1741778634e+00 
78900 5.4066079964e+00 3.7805762092e-05 2.4099627131e+00 -4.1741778634e+00 2.4099627131e+00 4.1741778634e+00 
79000 5.4066079964e+00 3.7906907835e-05 2.4099627131e+00 -4.1741778634e+00 2.4099627131e+00 4.1741778634e+00 
79100 5.4066079965e+00 3.8007305146e-05 2.4099627131e+00 -4.1741778634e+00 2.4099627131e+00 4.1741778634e+00 
79200 5.4066079966e+00 3.8106755081e-05 2.4099627131e+00 -4.1741778634e+00 2.4099627131e+00 4.1741778634e+00 
79300 5.4066079967e+00 3.8205067488e-05 2.4099627131e+00 -4.1741778634e+00 2.4099627131e+00 4.1741778634e+00 
79400 5.4066079968e+00 3.8302061360e-05 2.4099627131e+00 -4.1741778634e+00 2.4099627131e+00 4.1741778634e+00 
79500 5.4066079969e+00 3.8397565089e-05 2.4099627131e+00 -4.1741778634e+00 2.4099627131e+00 4.1741778634e+00 
79600 5.4066079969e+00 3.8491416728e-05 2.4099627131e+00 -4.1741778634e+00 2.4099627131e+00 4.1741778634e+00 
79700 5.4066079970e+00 3.8583464183e-05 2.4099627131e+00 -4.1741778634e+00 2.4099627131e+00 4.1741778634e+00 
79800 5.4066079971e+00 3.8673565388e-05 2.4099627131e+00 -4.1741778634e+00 2.4099627131e+00 4.1741778634e+00 
79900 5.4066079972e+00 3.8761588421e-05 2.4099627131e+00 -4.1741778634e+00 2.4099627131e+00 4.1741778634e+00 
80000 5.4066079972e+00 3.8847411608e-05 2.4099627131e+00 -4.1741778634e+00 2.4099627131e+00 4.1741778634e+00 
80100 5.4066079973e+00 3.8930923569e-05 2.4099627131e+00 -4.1741778634e+00 2.4099627131e+00 4.1741778634e+00 
80200 5.4066079974e+00 3.9012023241e-05 2.4099627131e+00 -4.1741778634e+00 2.4099627131e+00 4.1741778634e+00 
80300 5.4066079974e+00 3.9090619865e-05 2.4099627131e+00 -4.1741778634e+00 2.4099627131e+00 4.1741778634e+00 
80400 5.4066079975e+00 3.9166632949e-05 2.4099627131e+00 -4.1741778634e+00 2.4099627131e+00 4.1741778634e+00 
80500 5.4066079976e+00 3.9239992176e-05 2.4099627131e+00 -4.1741778634e+00 2.4099627131e+00 4.1741778634e+00 
80600 5.4066079977e+00 3.9310637318e-05 2.4099627131e+00 -4.1741778634e+00 2.4099627131e+00 4.1741778634e+00 
80700 5.4066079977e+00 3.9378518082e-05 2.4099627131e+00 -4.1741778634e+00 2.4099627131e+00 4.1741778634e+00 
80800 5.4066079978e+00 3.9443593953e-05 2.4099627131e+00 -4.1741778634e+00 2.4099627131e+00 4.1741778634e+00 
80900 5.4066079978e+00 3.9505834014e-05 2.4099627131e+00 -4.1741778634e+00 2.4099627131e+00 4.1741778634e+00 
81000 5.4066079979e+00 3.9565216727e-05 2.4099627131e+00 -4.1741778634e+00 2.4099627131e+00 4.1741778634e+00 
81100 5.4066079980e+00 3.9621729696e-05 2.4099627131e+00 -4.1741778634e+00 2.4099627131e+00 4.1741778634e+00 
81200 5.4066079980e+00 3.9675369414e-05 2.4099627131e+00 -4.1741778634e+00 2.4099627131e+00 4.1741778634e+00 
81300 5.4066079981e+00 3.9726140988e-05 2.4099627131e+00 -4.1741778634e+00 2.4099627131e+00 4.1741778634e+00 
81400 5.4066079982e+00 3.9774057837e-05 2.4099627131e+00 -4.1741778634e+00 2.4099627131e+00 4.1741778634e+00 
81500 5.4066079982e+00 3.9819141387e-05 2.4099627131e+00 -4.1741778634e+00 2.4099627131e+00 4.1741778634e+00 
81600 5.4066079983e+00 3.9861420740e-05 2.4099627131e+00 -4.1741778634e+00 2.4099627131e+00 4.1741778634e+00 
81700 5.4066079983e+00 3.9900932335e-05 2.4099627131e+00 -4.1741778634e+00 2.4099627131e+00 4.1741778634e+00 
81800 5.4066079984e+00 3.9937719599e-05 2.4099627131e+00 -4.1741778634e+00 2.4099627131e+00 4.1741778634e+00 
81900 5.4066079984e+00 3.9971832571e-05 2.4099627131e+00 -4.1741778634e+00 2.4099627131e+00 4.1741778634e+00 
82000 5.4066079985e+00 4.0003327549e-05 2.4099627131e+00 -4.1741778634e+00 2.4099627131e+00 4.1741778634e+00 
82100 5.4066079986e+00 4.0032266686e-05 2.4099627131e+00 -4.1741778634e+00 2.4099627131e+00 4.1741778634e+00 
82200 5.4066079986e+00 4.0058717627e-05 2.4099627131e+00 -4.1741778634e+00 2.4099627131e+00 4.1741778634e+00 
82300 5.4066079987e+00 4.0082753100e-05 2.4099627131e+00 -4.1741778634e+00 2.4099627131e+00 4.1741778634e+00 
82400 5.4066079987e+00 4.0104450533e-05 2.4099627131e+00 -4.1741778634e+00 2.4099627131e+00 4.1741778634e+00 
82500 5.4066079988e+00 4.0123891648e-05 2.4099627131e+00 -4.1741778634e+00 2.4099627131e+00 4.1741778634e+00 
82600 5.4066079988e+00 4.0141162073e-05 2.4099627131e+00 -4.1741778634e+00 2.4099627131e+00 4.1741778634e+00 
82700 5.4066079989e+00 4.0156350936e-05 2.4099627131e+00 -4.1741778634e+00 2.4099627131e+00 4.1741778634e+00 
82800 5.4066079989e+00 4.0169550481e-05 2.4099627131e+00 -4.1741778634e+00 2.4099627131e+00 4.1741778634e+00 
82900 5.4066079990e+00 4.0180855668e-05 2.4099627131e+00 -4.1741778634e+00 2.4099627131e+00 4.1741778634e+00 
83000 5.4066079990e+00 4.0183892314e-05 2.4099627131e+00 -4.1741778634e+00 2.4099627131e+00 4.1741778634e+00 
83000 5.4066079990e+00 4.0183892314e-05 2.4099627131e+00 -4.1741778634e+00 2.4099627131e+00 4.1741778634e+00 
