# step Hamiltonian StressXX CellTensor1 CellTensor2 CellTensor3 CellTensor4 
0 6.7597384140e+00 -1.9870129892e-03 1.6087831444e+00 -2.7864941444e+00 1.6087831444e+00 2.7864941444e+00 
100 6.7527862664e+00 -1.3901192385e-03 1.6087831444e+00 -2.7864941444e+00 1.6087831444e+00 2.7864941444e+00 
200 6.7459764213e+00 -9.6789086674e-04 1.6088263486e+00 -2.7865689763e+00 1.6088263486e+00 2.7865689763e+00 
300 6.7393198299e+00 -7.7433472278e-04 1.6088564293e+00 -2.7866210777e+00 1.6088564293e+00 2.7866210777e+00 
400 6.7328256050e+00 -7.9360613319e-04 1.6088804942e+00 -2.7866627592e+00 1.6088804942e+00 2.7866627592e+00 
500 6.7265012733e+00 -1.0104448811e-03 1.6089051575e+00 -2.7867054774e+00 1.6089051575e+00 2.7867054774e+00 
600 6.7203528687e+00 -1.4101763337e-03 1.6089365593e+00 -2.7867598668e+00 1.6089365593e+00 2.7867598668e+00 
700 6.7143850250e+00 -1.9787114252e-03 1.6089803827e+00 -2.7868357712e+00 1.6089803827e+00 2.7868357712e+00 
800 6.7086010680e+00 -2.7025453036e-03 1.6090418727e+00 -2.7869422750e+00 1.6090418727e+00 2.7869422750e+00 
900 6.7030031066e+00 -3.5687544972e-03 1.6091258534e+00 -2.7870877338e+00 1.6091258534e+00 2.7870877338e+00 
1000 6.6975921225e+00 -4.5649924997e-03 1.6092367458e+00 -2.7872798050e+00 1.6092367458e+00 2.7872798050e+00 
1100 6.6923680593e+00 -5.6794837142e-03 1.6093785850e+00 -2.7875254779e+00 1.6093785850e+00 2.7875254779e+00 
1200 6.6873299091e+00 -6.9010157419e-03 1.6095550378e+00 -2.7878311031e+00 1.6095550378e+00 2.7878311031e+00 
1300 6.6824757984e+00 -8.2189300329e-03 1.6097694191e+00 -2.7882024224e+00 1.6097694191e+00 2.7882024224e+00 
1400 6.6778030714e+00 -9.6231109561e-03 1.6100247087e+00 -2.7886445969e+00 1.6100247087e+00 2.7886445969e+00 
1500 6.6733083711e+00 -1.1103973370e-02 1.6103235677e+00 -2.7891622359e+00 1.6103235677e+00 2.7891622359e+00 
1600 6.6689877183e+00 -1.2652448804e-02 1.6106683546e+00 -2.7897594244e+00 1.6106683546e+00 2.7897594244e+00 
1700 6.6648365879e+00 -1.4259970382e-02 1.6110611407e+00 -2.7904397498e+00 1.6110611407e+00 2.7904397498e+00 
1800 6.6608499822e+00 -1.5918456625e-02 1.6115037255e+00 -2.7912063292e+00 1.6115037255e+00 2.7912063292e+00 
1900 6.6570225015e+00 -1.7620294305e-02 1.6119976514e+00 -2.7920618340e+00 1.6119976514e+00 2.7920618340e+00 
2000 6.6533484112e+00 -1.9358320496e-02 1.6125442183e+00 -2.7930085155e+00 1.6125442183e+00 2.7930085155e+00 
2100 6.6498217062e+00 -2.1125804002e-02 1.6131444971e+00 -2.7940482289e+00 1.6131444971e+00 2.7940482289e+00 
2200 6.6464361713e+00 -2.2916426327e-02 1.6137993433e+00 -2.7951824558e+00 1.6137993433e+00 2.7951824558e+00 
2300 6.6431854387e+00 -2.4724262337e-02 1.6145094101e+00 -2.7964123276e+00 1.6145094101e+00 2.7964123276e+00 
2400 6.6400630413e+00 -2.6543760800e-02 1.6152751602e+00 -2.7977386457e+00 1.6152751602e+00 2.7977386457e+00 
2500 6.6370624631e+00 -2.8369724918e-02 1.6160968781e+00 -2.7991619028e+00 1.6160968781e+00 2.7991619028e+00 
2600 6.6341771860e+00 -3.0197293023e-02 1.6169746810e+00 -2.8006823021e+00 1.6169746810e+00 2.8006823021e+00 
2700 6.6314007318e+00 -3.2021919540e-02 1.6179085299e+00 -2.8022997757e+00 1.6179085299e+00 2.8022997757e+00 
2800 6.6287267024e+00 -3.3839356346e-02 1.6188982391e+00 -2.8040140025e+00 1.6188982391e+00 2.8040140025e+00 
2900 6.6261488153e+00 -3.5645634629e-02 1.6199434869e+00 -2.8058244247e+00 1.6199434869e+00 2.8058244247e+00 
3000 6.6236609355e+00 -3.7437047323e-02 1.6210438236e+00 -2.8077302638e+00 1.6210438236e+00 2.8077302638e+00 
3100 6.6212571047e+00 -3.9210132213e-02 1.6221986810e+00 -2.8097305355e+00 1.6221986810e+00 2.8097305355e+00 
3200 6.6189315668e+00 -4.0961655757e-02 1.6234073800e+00 -2.8118240635e+00 1.6234073800e+00 2.8118240635e+00 
3300 6.6166787897e+00 -4.2688597688e-02 1.6246691384e+00 -2.8140094931e+00 1.6246691384e+00 2.8140094931e+00 
3400 6.6144934848e+00 -4.4388136426e-02 1.6259830781e+00 -2.8162853035e+00 1.6259830781e+00 2.8162853035e+00 
3500 6.6123706228e+00 -4.6057635333e-02 1.6273482319e+00 -2.8186498193e+00 1.6273482319e+00 2.8186498193e+00 
3600 6.6103054467e+00 -4.7694629821e-02 1.6287635499e+00 -2.8211012220e+00 1.6287635499e+00 2.8211012220e+00 
3700 6.6082934826e+00 -4.9296815329e-02 1.6302279052e+00 -2.8236375597e+00 1.6302279052e+00 2.8236375597e+00 
3800 6.6063305469e+00 -5.0862036160e-02 1.6317400995e+00 -2.8262567571e+00 1.6317400995e+00 2.8262567571e+00 
3900 6.6044127516e+00 -5.2388275172e-02 1.6332988688e+00 -2.8289566246e+00 1.6332988688e+00 2.8289566246e+00 
4000 6.6025365075e+00 -5.3873644309e-02 1.6349028875e+00 -2.8317348666e+00 1.6349028875e+00 2.8317348666e+00 
4100 6.6006985246e+00 -5.5316375939e-02 1.6365507739e+00 -2.8345890895e+00 1.6365507739e+00 2.8345890895e+00 
4200 6.5988958110e+00 -5.6714814995e-02 1.6382410938e+00 -2.8375168095e+00 1.6382410938e+00 2.8375168095e+00 
4300 6.5971256692e+00 -5.8067411859e-02 1.6399723650e+00 -2.8405154591e+00 1.6399723650e+00 2.8405154591e+00 
4400 6.5953856916e+00 -5.9372715981e-02 1.6417430609e+00 -2.8435823945e+00 1.6417430609e+00 2.8435823945e+00 
4500 6.5936737538e+00 -6.0629370171e-02 1.6435516144e+00 -2.8467149010e+00 1.6435516144e+00 2.8467149010e+00 
4600 6.5919880067e+00 -6.1836105557e-02 1.6453964210e+00 -2.8499101998e+00 1.6453964210e+00 2.8499101998e+00 
4700 6.5903268669e+00 -6.2991737128e-02 1.6472758423e+00 -2.8531654530e+00 1.6472758423e+00 2.8531654530e+00 
4800 6.5886890067e+00 -6.4095159864e-02 1.6491882090e+00 -2.8564777692e+00 1.6491882090e+00 2.8564777692e+00 
4900 6.5870733426e+00 -6.5145345372e-02 1.6511318238e+00 -2.8598442088e+00 1.6511318238e+00 2.8598442088e+00 
5000 6.5854790229e+00 -6.6141339024e-02 1.6531049643e+00 -2.8632617884e+00 1.6531049643e+00 2.8632617884e+00 
5100 6.5839054148e+00 -6.7082257521e-02 1.6551058858e+00 -2.8667274860e+00 1.6551058858e+00 2.8667274860e+00 
5200 6.5823520908e+00 -6.7967286871e-02 1.6571328234e+00 -2.8702382451e+00 1.6571328234e+00 2.8702382451e+00 
5300 6.5808188147e+00 -6.8795680730e-02 1.6591839954e+00 -2.8737909792e+00 1.6591839954e+00 2.8737909792e+00 
5400 6.5793055268e+00 -6.9566759069e-02 1.6612576048e+00 -2.8773825760e+00 1.6612576048e+00 2.8773825760e+00 
5500 6.5778123297e+00 -7.0279907133e-02 1.6633518421e+00 -2.8810099014e+00 1.6633518421e+00 2.8810099014e+00 
5600 6.5763394727e+00 -7.0934574657e-02 1.6654648877e+00 -2.8846698037e+00 1.6654648877e+00 2.8846698037e+00 
5700 6.5748873379e+00 -7.1530275312e-02 1.6675949138e+00 -2.8883591171e+00 1.6675949138e+00 2.8883591171e+00 
5800 6.5734564241e+00 -7.2066586343e-02 1.6697400867e+00 -2.8920746655e+00 1.6697400867e+00 2.8920746655e+00 
5900 6.5720473330e+00 -7.2543148373e-02 1.6718985690e+00 -2.8958132666e+00 1.6718985690e+00 2.8958132666e+00 
6000 6.5706607539e+00 -7.2959665346e-02 1.6740685217e+00 -2.8995717350e+00 1.6740685217e+00 2.8995717350e+00 
6100 6.5692974499e+00 -7.3315904593e-02 1.6762481061e+00 -2.9033468859e+00 1.6762481061e+00 2.9033468859e+00 
6200 6.5679582435e+00 -7.3611696983e-02 1.6784354860e+00 -2.9071355389e+00 1.6784354860e+00 2.9071355389e+00 
6300 6.5666440034e+00 -7.3846937146e-02 1.6806288293e+00 -2.9109345210e+00 1.6806288293e+00 2.9109345210e+00 
6400 6.5653556307e+00 -7.4021583751e-02 1.6828263105e+00 -2.9147406701e+00 1.6828263105e+00 2.9147406701e+00 
6500 6.5640940472e+00 -7.4135659821e-02 1.6850261123e+00 -2.9185508385e+00 1.6850261123e+00 2.9185508385e+00 
6600 6.5628601824e+00 -7.4189253056e-02 1.6872264274e+00 -2.9223618962e+00 1.6872264274e+00 2.9223618962e+00 
6700 6.5616549625e+00 -7.4182516173e-02 1.6894254608e+00 -2.9261707337e+00 1.6894254608e+00 2.9261707337e+00 
6800 6.5604792996e+00 -7.4115667228e-02 1.6916214311e+00 -2.9299742658e+00 1.6916214311e+00 2.9299742658e+00 
6900 6.5593340809e+00 -7.3988989922e-02 1.6938125727e+00 -2.9337694345e+00 1.6938125727e+00 2.9337694345e+00 
7000 6.5582201596e+00 -7.3802833870e-02 1.6959971376e+00 -2.9375532119e+00 1.6959971376e+00 2.9375532119e+00 
7100 6.5571383461e+00 -7.3557614835e-02 1.6981733970e+00 -2.9413226037e+00 1.6981733970e+00 2.9413226037e+00 
7200 6.5560893992e+00 -7.3253814909e-02 1.7003396431e+00 -2.9450746521e+00 1.7003396431e+00 2.9450746521e+00 
7300 6.5550740195e+00 -7.2891982636e-02 1.7024941910e+00 -2.9488064384e+00 1.7024941910e+00 2.9488064384e+00 
7400 6.5540928420e+00 -7.2472733077e-02 1.7046353801e+00 -2.9525150867e+00 1.7046353801e+00 2.9525150867e+00 
7500 6.5531464302e+00 -7.1996747794e-02 1.7067615760e+00 -2.9561977661e+00 1.7067615760e+00 2.9561977661e+00 
7600 6.5522352713e+00 -7.1464774774e-02 1.7088711723e+00 -2.9598516941e+00 1.7088711723e+00 2.9598516941e+00 
7700 6.5513597710e+00 -7.0877628256e-02 1.7109625919e+00 -2.9634741390e+00 1.7109625919e+00 2.9634741390e+00 
7800 6.5505202500e+00 -7.0236188486e-02 1.7130342886e+00 -2.9670624229e+00 1.7130342886e+00 2.9670624229e+00 
7900 6.5497169410e+00 -6.9541401378e-02 1.7150847490e+00 -2.9706139246e+00 1.7150847490e+00 2.9706139246e+00 
8000 6.5489499860e+00 -6.8794278082e-02 1.7171124939e+00 -2.9741260817e+00 1.7171124939e+00 2.9741260817e+00 
8100 6.5482194346e+00 -6.7995894456e-02 1.7191160795e+00 -2.9775963938e+00 1.7191160795e+00 2.9775963938e+00 
8200 6.5475252431e+00 -6.7147390442e-02 1.7210940994e+00 -2.9810224248e+00 1.7210940994e+00 2.9810224248e+00 
8300 6.5468672738e+00 -6.6249969335e-02 1.7230451857e+00 -2.9844018053e+00 1.7230451857e+00 2.9844018053e+00 
8400 6.5462452955e+00 -6.5304896946e-02 1.7249680103e+00 -2.9877322353e+00 1.7249680103e+00 2.9877322353e+00 
8500 6.5456589839e+00 -6.4313500664e-02 1.7268612868e+00 -2.9910114864e+00 1.7268612868e+00 2.9910114864e+00 
8600 6.5451079232e+00 -6.3277168393e-02 1.7287237713e+00 -2.9942374041e+00 1.7287237713e+00 2.9942374041e+00 
8700 6.5445916080e+00 -6.2197347389e-02 1.7305542639e+00 -2.9974079103e+00 1.7305542639e+00 2.9974079103e+00 
8800 6.5441094457e+00 -6.1075542971e-02 1.7323516100e+00 -3.0005210052e+00 1.7323516100e+00 3.0005210052e+00 
8900 6.5436607592e+00 -5.9913317114e-02 1.7341147016e+00 -3.0035747693e+00 1.7341147016e+00 3.0035747693e+00 
9000 6.5432447907e+00 -5.8712286920e-02 1.7358424782e+00 -3.0065673661e+00 1.7358424782e+00 3.0065673661e+00 
9100 6.5428607050e+00 -5.7474122962e-02 1.7375339281e+00 -3.0094970433e+00 1.7375339281e+00 3.0094970433e+00 
9200 6.5425075942e+00 -5.6200547507e-02 1.7391880895e+00 -3.0123621349e+00 1.7391880895e+00 3.0123621349e+00 
9300 6.5421844818e+00 -5.4893332598e-02 1.7408040516e+00 -3.0151610634e+00 1.7408040516e+00 3.0151610634e+00 
9400 6.5418903278e+00 -5.3554298016e-02 1.7423809554e+00 -3.0178923409e+00 1.7423809554e+00 3.0178923409e+00 
9500 6.5416240339e+00 -5.2185309096e-02 1.7439179948e+00 -3.0205545713e+00 1.7439179948e+00 3.0205545713e+00 
9600 6.5413844487e+00 -5.0788274422e-02 1.7454144174e+00 -3.0231464512e+00 1.7454144174e+00 3.0231464512e+00 
9700 6.5411703738e+00 -4.9365143370e-02 1.7468695252e+00 -3.0256667719e+00 1.7468695252e+00 3.0256667719e+00 
9800 6.5409805690e+00 -4.7917903527e-02 1.7482826758e+00 -3.0281144205e+00 1.7482826758e+00 3.0281144205e+00 
9900 6.5408137588e+00 -4.6448577961e-02 1.7496532825e+00 -3.0304883809e+00 1.7496532825e+00 3.0304883809e+00 
10000 6.5406686382e+00 -4.4959222363e-02 1.7509808154e+00 -3.0327877354e+00 1.7509808154e+00 3.0327877354e+00 
10100 6.5405438790e+00 -4.3451922044e-02 1.7522648019e+00 -3.0350116651e+00 1.7522648019e+00 3.0350116651e+00 
10200 6.5404381361e+00 -4.1928788802e-02 1.7535048268e+00 -3.0371594514e+00 1.7535048268e+00 3.0371594514e+00 
10300 6.5403500534e+00 -4.0391957658e-02 1.7547005336e+00 -3.0392304762e+00 1.7547005336e+00 3.0392304762e+00 
10400 6.5402782701e+00 -3.8843583449e-02 1.7558516237e+00 -3.0412242228e+00 1.7558516237e+00 3.0412242228e+00 
10500 6.5402214270e+00 -3.7285837313e-02 1.7569578578e+00 -3.0431402765e+00 1.7569578578e+00 3.0431402765e+00 
10600 6.5401781723e+00 -3.5720903033e-02 1.7580190554e+00 -3.0449783246e+00 1.7580190554e+00 3.0449783246e+00 
10700 6.5401471677e+00 -3.4150973283e-02 1.7590350951e+00 -3.0467381569e+00 1.7590350951e+00 3.0467381569e+00 
10800 6.5401270937e+00 -3.2578245747e-02 1.7600059146e+00 -3.0484196657e+00 1.7600059146e+00 3.0484196657e+00 
10900 6.5401166558e+00 -3.1004919152e-02 1.7609315109e+00 -3.0500228455e+00 1.7609315109e+00 3.0500228455e+00 
11000 6.5401145891e+00 -2.9433189192e-02 1.7618119398e+00 -3.0515477932e+00 1.7618119398e+00 3.0515477932e+00 
11100 6.5401196639e+00 -2.7865244379e-02 1.7626473160e+00 -3.0529947071e+00 1.7626473160e+00 3.0529947071e+00 
11200 6.5401306901e+00 -2.6303261817e-02 1.7634378124e+00 -3.0543638870e+00 1.7634378124e+00 3.0543638870e+00 
11300 6.5401465220e+00 -2.4749402912e-02 1.7641836599e+00 -3.0556557328e+00 1.7641836599e+00 3.0556557328e+00 
11400 6.5401660623e+00 -2.3205809037e-02 1.7648851470e+00 -3.0568707442e+00 1.7648851470e+00 3.0568707442e+00 
11500 6.5401882660e+00 -2.1674597158e-02 1.7655426190e+00 -3.0580095190e+00 1.7655426190e+00 3.0580095190e+00 
11600 6.5402121436e+00 -2.0157855437e-02 1.7661564771e+00 -3.0590727524e+00 1.7661564771e+00 3.0590727524e+00 
11700 6.5402367646e+00 -1.8657638838e-02 1.7667271779e+00 -3.0600612353e+00 1.7667271779e+00 3.0600612353e+00 
11800 6.5402612601e+00 -1.7175964731e-02 1.7672552325e+00 -3.0609758527e+00 1.7672552325e+00 3.0609758527e+00 
11900 6.5402848249e+00 -1.5714808533e-02 1.7677412051e+00 -3.0618175819e+00 1.7677412051e+00 3.0618175819e+00 
12000 6.5403067195e+00 -1.4276099388e-02 1.7681857121e+00 -3.0625874906e+00 1.7681857121e+00 3.0625874906e+00 
12100 6.5403262716e+00 -1.2861715913e-02 1.7685894209e+00 -3.0632867347e+00 1.7685894209e+00 3.0632867347e+00 
12200 6.5403428774e+00 -1.1473482016e-02 1.7689530484e+00 -3.0639165561e+00 1.7689530484e+00 3.0639165561e+00 
12300 6.5403560017e+00 -1.0113162827e-02 1.7692773598e+00 -3.0644782799e+00 1.7692773598e+00 3.0644782799e+00 
12400 6.5403651788e+00 -8.7824607286e-03 1.7695631668e+00 -3.0649733121e+00 1.7695631668e+00 3.0649733121e+00 
12500 6.5403700117e+00 -7.4830115394e-03 1.7698113259e+00 -3.0654031363e+00 1.7698113259e+00 3.0654031363e+00 
12600 6.5403701719e+00 -6.2163808375e-03 1.7700227372e+00 -3.0657693114e+00 1.7700227372e+00 3.0657693114e+00 
12700 6.5403653986e+00 -4.9840604629e-03 1.7701983418e+00 -3.0660734675e+00 1.7701983418e+00 3.0660734675e+00 
12800 6.5403554968e+00 -3.7874652072e-03 1.7703391206e+00 -3.0663173035e+00 1.7703391206e+00 3.0663173035e+00 
12900 6.5403403360e+00 -2.6279297077e-03 1.7704460917e+00 -3.0665025829e+00 1.7704460917e+00 3.0665025829e+00 
13000 6.5403198482e+00 -1.5067055640e-03 1.7705203088e+00 -3.0666311307e+00 1.7705203088e+00 3.0666311307e+00 
13100 6.5402940251e+00 -4.2495869065e-04 1.7705628588e+00 -3.0667048294e+00 1.7705628588e+00 3.0667048294e+00 
13200 6.5402629159e+00 6.1623308110e-04 1.7705748595e+00 -3.0667256152e+00 1.7705748595e+00 3.0667256152e+00 
13300 6.5402266240e+00 1.6158821378e-03 1.7705574574e+00 -3.0666954740e+00 1.7705574574e+00 3.0666954740e+00 
13400 6.5401853038e+00 2.5730929452e-03 1.7705118256e+00 -3.0666164374e+00 1.7705118256e+00 3.0666164374e+00 
13500 6.5401391576e+00 3.4870636268e-03 1.7704391609e+00 -3.0664905783e+00 1.7704391609e+00 3.0664905783e+00 
13600 6.5400884313e+00 4.3570872495e-03 1.7703406816e+00 -3.0663200072e+00 1.7703406816e+00 3.0663200072e+00 
13700 6.5400334111e+00 5.1825528122e-03 1.7702176252e+00 -3.0661068672e+00 1.7702176252e+00 3.0661068672e+00 
13800 6.5399744195e+00 5.9629459316e-03 1.7700712454e+00 -3.0658533300e+00 1.7700712454e+00 3.0658533300e+00 
13900 6.5399118109e+00 6.6978492212e-03 1.7699028100e+00 -3.0655615914e+00 1.7699028100e+00 3.0655615914e+00 
14000 6.5398459677e+00 7.3869423635e-03 1.7697135982e+00 -3.0652338670e+00 1.7697135982e+00 3.0652338670e+00 
14100 6.5397772958e+00 8.0300018761e-03 1.7695048979e+00 -3.0648723873e+00 1.7695048979e+00 3.0648723873e+00 
14200 6.5397062208e+00 8.6269005724e-03 1.7692780030e+00 -3.0644793940e+00 1.7692780030e+00 3.0644793940e+00 
14300 6.5396331834e+00 9.1776067230e-03 1.7690342114e+00 -3.0640571345e+00 1.7690342114e+00 3.0640571345e+00 
14400 6.5395586355e+00 9.6821829218e-03 1.7687748218e+00 -3.0636078585e+00 1.7687748218e+00 3.0636078585e+00 
14500 6.5394830356e+00 1.0140784666e-02 1.7685011314e+00 -3.0631338129e+00 1.7685011314e+00 3.0631338129e+00 
14600 6.5394068456e+00 1.0553658660e-02 1.7682144335e+00 -3.0626372376e+00 1.7682144335e+00 3.0626372376e+00 
14700 6.5393305260e+00 1.0921140845e-02 1.7679160149e+00 -3.0621203614e+00 1.7679160149e+00 3.0621203614e+00 
14800 6.5392545328e+00 1.1243654185e-02 1.7676071535e+00 -3.0615853976e+00 1.7676071535e+00 3.0615853976e+00 
14900 6.5391793136e+00 1.1521706203e-02 1.7672891157e+00 -3.0610345400e+00 1.7672891157e+00 3.0610345400e+00 
15000 6.5391053045e+00 1.1755886291e-02 1.7669631545e+00 -3.0604699588e+00 1.7669631545e+00 3.0604699588e+00 
15100 6.5390329264e+00 1.1946862811e-02 1.7666305070e+00 -3.0598937964e+00 1.7666305070e+00 3.0598937964e+00 
15200 6.5389625827e+00 1.2095380001e-02 1.7662923922e+00 -3.0593081642e+00 1.7662923922e+00 3.0593081642e+00 
15300 6.5388946563e+00 1.2202254699e-02 1.7659500086e+00 -3.0587151385e+00 1.7659500086e+00 3.0587151385e+00 
15400 6.5388295069e+00 1.2268372914e-02 1.7656045329e+00 -3.0581167570e+00 1.7656045329e+00 3.0581167570e+00 
15500 6.5387674694e+00 1.2294686251e-02 1.7652571173e+00 -3.0575150156e+00 1.7652571173e+00 3.0575150156e+00 
15600 6.5387088515e+00 1.2282208212e-02 1.7649088881e+00 -3.0569118649e+00 1.7649088881e+00 3.0569118649e+00 
15700 6.5386539321e+00 1.2232010397e-02 1.7645609437e+00 -3.0563092075e+00 1.7645609437e+00 3.0563092075e+00 
15800 6.5386029604e+00 1.2145218617e-02 1.7642143529e+00 -3.0557088947e+00 1.7642143529e+00 3.0557088947e+00 
15900 6.5385561543e+00 1.2023008939e-02 1.7638701537e+00 -3.0551127242e+00 1.7638701537e+00 3.0551127242e+00 
16000 6.5385137000e+00 1.1866603686e-02 1.7635293514e+00 -3.0545224372e+00 1.7635293514e+00 3.0545224372e+00 
16100 6.5384757510e+00 1.1677267404e-02 1.7631929173e+00 -3.0539397163e+00 1.7631929173e+00 3.0539397163e+00 
16200 6.5384424287e+00 1.1456302817e-02 1.7628617879e+00 -3.0533661833e+00 1.7628617879e+00 3.0533661833e+00 
16300 6.5384138214e+00 1.1205046781e-02 1.7625368631e+00 -3.0528033970e+00 1.7625368631e+00 3.0528033970e+00 
16400 6.5383899854e+00 1.0924866266e-02 1.7622190056e+00 -3.0522528518e+00 1.7622190056e+00 3.0522528518e+00 
16500 6.5383709451e+00 1.0617154367e-02 1.7619090400e+00 -3.0517159756e+00 1.7619090400e+00 3.0517159756e+00 
16600 6.5383566938e+00 1.0283326363e-02 1.7616077517e+00 -3.0511941289e+00 1.7616077517e+00 3.0511941289e+00 
16700 6.5383471947e+00 9.9248158430e-03 1.7613158864e+00 -3.0506886034e+00 1.7613158864e+00 3.0506886034e+00 
16800 6.5383423820e+00 9.5430709041e-03 1.7610341496e+00 -3.0502006209e+00 1.7610341496e+00 3.0502006209e+00 
16900 6.5383421624e+00 9.1395504352e-03 1.7607632058e+00 -3.0497313325e+00 1.7607632058e+00 3.0497313325e+00 
17000 6.5383464163e+00 8.7157204991e-03 1.7605036784e+00 -3.0492818178e+00 1.7605036784e+00 3.0492818178e+00 
17100 6.5383549997e+00 8.2730508186e-03 1.7602561493e+00 -3.0488530849e+00 1.7602561493e+00 3.0488530849e+00 
17200 6.5383677460e+00 7.8130113777e-03 1.7600211589e+00 -3.0484460696e+00 1.7600211589e+00 3.0484460696e+00 
17300 6.5383844675e+00 7.3370691430e-03 1.7597992057e+00 -3.0480616353e+00 1.7597992057e+00 3.0480616353e+00 
17400 6.5384049578e+00 6.8466849115e-03 1.7595907465e+00 -3.0477005735e+00 1.7595907465e+00 3.0477005735e+00 
17500 6.5384289935e+00 6.3433102917e-03 1.7593961968e+00 -3.0473636035e+00 1.7593961968e+00 3.0473636035e+00 
17600 6.5384563368e+00 5.8283848192e-03 1.7592159303e+00 -3.0470513728e+00 1.7592159303e+00 3.0470513728e+00 
17700 6.5384867368e+00 5.3033332128e-03 1.7590502800e+00 -3.0467644581e+00 1.7590502800e+00 3.0467644581e+00 
17800 6.5385199325e+00 4.7695627705e-03 1.7588995380e+00 -3.0465033652e+00 1.7588995380e+00 3.0465033652e+00 
17900 6.5385556543e+00 4.2284609088e-03 1.7587639560e+00 -3.0462685303e+00 1.7587639560e+00 3.0462685303e+00 
18000 6.5385936265e+00 3.6813928453e-03 1.7586437462e+00 -3.0460603208e+00 1.7586437462e+00 3.0460603208e+00 
18100 6.5386335692e+00 3.1296994240e-03 1.7585390816e+00 -3.0458790364e+00 1.7585390816e+00 3.0458790364e+00 
18200 6.5386752004e+00 2.5746950827e-03 1.7584500965e+00 -3.0457249098e+00 1.7584500965e+00 3.0457249098e+00 
18300 6.5387182381e+00 2.0176659614e-03 1.7583768878e+00 -3.0455981086e+00 1.7583768878e+00 3.0455981086e+00 
18400 6.5387624018e+00 1.4598681489e-03 1.7583195152e+00 -3.0454987362e+00 1.7583195152e+00 3.0454987362e+00 
18500 6.5388074147e+00 9.0252606664e-04 1.7582780022e+00 -3.0454268336e+00 1.7582780022e+00 3.0454268336e+00 
18600 6.5388530055e+00 3.4683098456e-04 1.7582523372e+00 -3.0453823805e+00 1.7582523372e+00 3.0453823805e+00 
18700 6.5388989097e+00 -2.0606033188e-04 1.7582424742e+00 -3.0453652974e+00 1.7582424742e+00 3.0453652974e+00 
18800 6.5389448710e+00 -7.5502684869e-04 1.7582483341e+00 -3.0453754470e+00 1.7582483341e+00 3.0453754470e+00 
18900 6.5389906433e+00 -1.2989843676e-03 1.7582698051e+00 -3.0454126359e+00 1.7582698051e+00 3.0454126359e+00 
19000 6.5390359914e+00 -1.8368865116e-03 1.7583067445e+00 -3.0454766168e+00 1.7583067445e+00 3.0454766168e+00 
19100 6.5390806923e+00 -2.3677255960e-03 1.7583589793e+00 -3.0455670901e+00 1.7583589793e+00 3.0455670901e+00 
19200 6.5391245362e+00 -2.8905333894e-03 1.7584263075e+00 -3.0456837059e+00 1.7584263075e+00 3.0456837059e+00 
19300 6.5391673274e+00 -3.4043817691e-03 1.7585084990e+00 -3.0458260658e+00 1.7585084990e+00 3.0458260658e+00 
19400 6.5392088851e+00 -3.9083832743e-03 1.7586052973e+00 -3.0459937254e+00 1.7586052973e+00 3.0459937254e+00 
19500 6.5392490439e+00 -4.4016915635e-03 1.7587164202e+00 -3.0461861958e+00 1.7587164202e+00 3.0461861958e+00 
19600 6.5392876541e+00 -4.8835017778e-03 1.7588415610e+00 -3.0464029461e+00 1.7588415610e+00 3.0464029461e+00 
19700 6.5393245826e+00 -5.3530508174e-03 1.7589803900e+00 -3.0466434050e+00 1.7589803900e+00 3.0466434050e+00 
19800 6.5393597123e+00 -5.8096175328e-03 1.7591325557e+00 -3.0469069637e+00 1.7591325557e+00 3.0469069637e+00 
19900 6.5393929431e+00 -6.2525228363e-03 1.7592976856e+00 -3.0471929771e+00 1.7592976856e+00 3.0471929771e+00 
20000 6.5394241911e+00 -6.6811297381e-03 1.7594753880e+00 -3.0475007667e+00 1.7594753880e+00 3.0475007667e+00 
20100 6.5394533887e+00 -7.0948433089e-03 1.7596652528e+00 -3.0478296222e+00 1.7596652528e+00 3.0478296222e+00 
20200 6.5394804848e+00 -7.4931105760e-03 1.7598668531e+00 -3.0481788040e+00 1.7598668531e+00 3.0481788040e+00 
20300 6.5395054438e+00 -7.8754203524e-03 1.7600797459e+00 -3.0485475453e+00 1.7600797459e+00 3.0485475453e+00 
20400 6.5395282454e+00 -8.2413030067e-03 1.7603034740e+00 -3.0489350538e+00 1.7603034740e+00 3.0489350538e+00 
20500 6.5395488844e+00 -8.5903301731e-03 1.7605375668e+00 -3.0493405143e+00 1.7605375668e+00 3.0493405143e+00 
20600 6.5395673694e+00 -8.9221144076e-03 1.7607815414e+00 -3.0497630907e+00 1.7607815414e+00 3.0497630907e+00 
20700 6.5395837229e+00 -9.2363087914e-03 1.7610349041e+00 -3.0502019278e+00 1.7610349041e+00 3.0502019278e+00 
20800 6.5395979800e+00 -9.5326064858e-03 1.7612971516e+00 -3.0506561537e+00 1.7612971516e+00 3.0506561537e+00 
20900 6.5396101879e+00 -9.8107402398e-03 1.7615677717e+00 -3.0511248816e+00 1.7615677717e+00 3.0511248816e+00 
21000 6.5396204049e+00 -1.0070481855e-02 1.7618462452e+00 -3.0516072118e+00 1.7618462452e+00 3.0516072118e+00 
21100 6.5396286996e+00 -1.0311641606e-02 1.7621320464e+00 -3.0521022340e+00 1.7621320464e+00 3.0521022340e+00 
21200 6.5396351500e+00 -1.0534067625e-02 1.7624246444e+00 -3.0526090286e+00 1.7624246444e+00 3.0526090286e+00 
21300 6.5396398424e+00 -1.0737645249e-02 1.7627235044e+00 -3.0531266693e+00 1.7627235044e+00 3.0531266693e+00 
21400 6.5396428707e+00 -1.0922296326e-02 1.7630280886e+00 -3.0536542246e+00 1.7630280886e+00 3.0536542246e+00 
21500 6.5396443354e+00 -1.1087978495e-02 1.7633378572e+00 -3.0541907597e+00 1.7633378572e+00 3.0541907597e+00 
21600 6.5396443424e+00 -1.1234684434e-02 1.7636522697e+00 -3.0547353380e+00 1.7636522697e+00 3.0547353380e+00 
21700 6.5396430022e+00 -1.1362441068e-02 1.7639707855e+00 -3.0552870236e+00 1.7639707855e+00 3.0552870236e+00 
21800 6.5396404290e+00 -1.1471308765e-02 1.7642928653e+00 -3.0558448821e+00 1.7642928653e+00 3.0558448821e+00 
21900 6.5396367399e+00 -1.1561380492e-02 1.7646179718e+00 -3.0564079831e+00 1.7646179718e+00 3.0564079831e+00 
22000 6.5396320534e+00 -1.1632780952e-02 1.7649455707e+00 -3.0569754010e+00 1.7649455707e+00 3.0569754010e+00 
22100 6.5396264892e+00 -1.1685665695e-02 1.7652751316e+00 -3.0575462173e+00 1.7652751316e+00 3.0575462173e+00 
22200 6.5396201672e+00 -1.1720220211e-02 1.7656061291e+00 -3.0581195217e+00 1.7656061291e+00 3.0581195217e+00 
22300 6.5396132062e+00 -1.1736658991e-02 1.7659380431e+00 -3.0586944136e+00 1.7659380431e+00 3.0586944136e+00 
22400 6.5396057239e+00 -1.1735224583e-02 1.7662703601e+00 -3.0592700037e+00 1.7662703601e+00 3.0592700037e+00 
22500 6.5395978353e+00 -1.1716186619e-02 1.7666025741e+00 -3.0598454151e+00 1.7666025741e+00 3.0598454151e+00 
22600 6.5395896530e+00 -1.1679840825e-02 1.7669341867e+00 -3.0604197849e+00 1.7669341867e+00 3.0604197849e+00 
22700 6.5395812856e+00 -1.1626508022e-02 1.7672647084e+00 -3.0609922654e+00 1.7672647084e+00 3.0609922654e+00 
22800 6.5395728379e+00 -1.1556533103e-02 1.7675936594e+00 -3.0615620252e+00 1.7675936594e+00 3.0615620252e+00 
22900 6.5395644098e+00 -1.1470284004e-02 1.7679205696e+00 -3.0621282504e+00 1.7679205696e+00 3.0621282504e+00 
23000 6.5395560963e+00 -1.1368150655e-02 1.7682449800e+00 -3.0626901456e+00 1.7682449800e+00 3.0626901456e+00 
23100 6.5395479865e+00 -1.1250543927e-02 1.7685664427e+00 -3.0632469353e+00 1.7685664427e+00 3.0632469353e+00 
23200 6.5395401641e+00 -1.1117894561e-02 1.7688845218e+00 -3.0637978644e+00 1.7688845218e+00 3.0637978644e+00 
23300 6.5395327060e+00 -1.0970652095e-02 1.7691987940e+00 -3.0643421998e+00 1.7691987940e+00 3.0643421998e+00 
23400 6.5395256830e+00 -1.0809283775e-02 1.7695088488e+00 -3.0648792305e+00 1.7695088488e+00 3.0648792305e+00 
23500 6.5395191593e+00 -1.0634273468e-02 1.7698142893e+00 -3.0654082691e+00 1.7698142893e+00 3.0654082691e+00 
23600 6.5395131918e+00 -1.0446120560e-02 1.7701147325e+00 -3.0659286520e+00 1.7701147325e+00 3.0659286520e+00 
23700 6.5395078310e+00 -1.0245338859e-02 1.7704098098e+00 -3.0664397407e+00 1.7704098098e+00 3.0664397407e+00 
23800 6.5395031202e+00 -1.0032455483e-02 1.7706991670e+00 -3.0669409222e+00 1.7706991670e+00 3.0669409222e+00 
23900 6.5394990958e+00 -9.8080097591e-03 1.7709824654e+00 -3.0674316093e+00 1.7709824654e+00 3.0674316093e+00 
24000 6.5394957872e+00 -9.5725521086e-03 1.7712593813e+00 -3.0679112418e+00 1.7712593813e+00 3.0679112418e+00 
24100 6.5394932172e+00 -9.3266429430e-03 1.7715296070e+00 -3.0683792864e+00 1.7715296070e+00 3.0683792864e+00 
24200 6.5394914017e+00 -9.0708515551e-03 1.7717928505e+00 -3.0688352375e+00 1.7717928505e+00 3.0688352375e+00 
24300 6.5394903502e+00 -8.8057550151e-03 1.7720488361e+00 -3.0692786176e+00 1.7720488361e+00 3.0692786176e+00 
24400 6.5394900662e+00 -8.5319370704e-03 1.7722973045e+00 -3.0697089774e+00 1.7722973045e+00 3.0697089774e+00 
24500 6.5394905466e+00 -8.2499870511e-03 1.7725380127e+00 -3.0701258963e+00 1.7725380127e+00 3.0701258963e+00 
24600 6.5394917832e+00 -7.9604987816e-03 1.7727707345e+00 -3.0705289824e+00 1.7727707345e+00 3.0705289824e+00 
24700 6.5394937618e+00 -7.6640695013e-03 1.7729952607e+00 -3.0709178731e+00 1.7729952607e+00 3.0709178731e+00 
24800 6.5394964635e+00 -7.3612987929e-03 1.7732113984e+00 -3.0712922347e+00 1.7732113984e+00 3.0712922347e+00 
24900 6.5394998643e+00 -7.0527875234e-03 1.7734189722e+00 -3.0716517629e+00 1.7734189722e+00 3.0716517629e+00 
25000 6.5395039361e+00 -6.7391367960e-03 1.7736178231e+00 -3.0719961828e+00 1.7736178231e+00 3.0719961828e+00 
25100 6.5395086467e+00 -6.4209469154e-03 1.7738078093e+00 -3.0723252485e+00 1.7738078093e+00 3.0723252485e+00 
25200 6.5395139600e+00 -6.0988163687e-03 1.7739888056e+00 -3.0726387434e+00 1.7739888056e+00 3.0726387434e+00 
25300 6.5395198371e+00 -5.7733408216e-03 1.7741607040e+00 -3.0729364801e+00 1.7741607040e+00 3.0729364801e+00 
25400 6.5395262361e+00 -5.4451121331e-03 1.7743234127e+00 -3.0732182999e+00 1.7743234127e+00 3.0732182999e+00 
25500 6.5395331127e+00 -5.1147173881e-03 1.7744768569e+00 -3.0734840730e+00 1.7744768569e+00 3.0734840730e+00 
25600 6.5395404206e+00 -4.7827379514e-03 1.7746209778e+00 -3.0737336978e+00 1.7746209778e+00 3.0737336978e+00 
25700 6.5395481119e+00 -4.4497485420e-03 1.7747557333e+00 -3.0739671012e+00 1.7747557333e+00 3.0739671012e+00 
25800 6.5395561376e+00 -4.1163163321e-03 1.7748810971e+00 -3.0741842376e+00 1.7748810971e+00 3.0741842376e+00 
25900 6.5395644479e+00 -3.7830000685e-03 1.7749970587e+00 -3.0743850890e+00 1.7749970587e+00 3.0743850890e+00 
26000 6.5395729926e+00 -3.4503492209e-03 1.7751036233e+00 -3.0745696643e+00 1.7751036233e+00 3.0745696643e+00 
26100 6.5395817213e+00 -3.1189031564e-03 1.7752008115e+00 -3.0747379991e+00 1.7752008115e+00 3.0747379991e+00 
26200 6.5395905841e+00 -2.7891903424e-03 1.7752886587e+00 -3.0748901549e+00 1.7752886587e+00 3.0748901549e+00 
26300 6.5395995318e+00 -2.4617275783e-03 1.7753672152e+00 -3.0750262189e+00 1.7753672152e+00 3.0750262189e+00 
26400 6.5396085161e+00 -2.1370192579e-03 1.7754365458e+00 -3.0751463029e+00 1.7754365458e+00 3.0751463029e+00 
26500 6.5396174899e+00 -1.8155566632e-03 1.7754967290e+00 -3.0752505434e+00 1.7754967290e+00 3.0752505434e+00 
26600 6.5396264079e+00 -1.4978172908e-03 1.7755478574e+00 -3.0753391003e+00 1.7755478574e+00 3.0753391003e+00 
26700 6.5396352263e+00 -1.1842642114e-03 1.7755900366e+00 -3.0754121568e+00 1.7755900366e+00 3.0754121568e+00 
26800 6.5396439038e+00 -8.7534546465e-04 1.7756233852e+00 -3.0754699182e+00 1.7756233852e+00 3.0754699182e+00 
26900 6.5396524009e+00 -5.7149348838e-04 1.7756480342e+00 -3.0755126116e+00 1.7756480342e+00 3.0755126116e+00 
27000 6.5396606808e+00 -2.7312458462e-04 1.7756641268e+00 -3.0755404847e+00 1.7756641268e+00 3.0755404847e+00 
27100 6.5396687095e+00 1.9361577721e-05 1.7756718175e+00 -3.0755538055e+00 1.7756718175e+00 3.0755538055e+00 
27200 6.5396764559e+00 3.0620666554e-04 1.7756718175e+00 -3.0755538055e+00 1.7756718175e+00 3.0755538055e+00 
27300 6.5396838911e+00 5.8578074994e-04 1.7756631953e+00 -3.0755388713e+00 1.7756631953e+00 3.0755388713e+00 
27400 6.5396909895e+00 8.5837811760e-04 1.7756467006e+00 -3.0755103017e+00 1.7756467006e+00 3.0755103017e+00 
27500 6.5396977287e+00 1.1236697881e-03 1.7756225298e+00 -3.0754684367e+00 1.7756225298e+00 3.0754684367e+00 
27600 6.5397040892e+00 1.3813453293e-03 1.7755908883e+00 -3.0754136320e+00 1.7755908883e+00 3.0754136320e+00 
27700 6.5397100549e+00 1.6311131223e-03 1.7755519903e+00 -3.0753462586e+00 1.7755519903e+00 3.0753462586e+00 
27800 6.5397156124e+00 1.8727005859e-03 1.7755060579e+00 -3.0752667014e+00 1.7755060579e+00 3.0752667014e+00 
27900 6.5397207518e+00 2.1058543620e-03 1.7754533211e+00 -3.0751753585e+00 1.7754533211e+00 3.0751753585e+00 
28000 6.5397254660e+00 2.3303404604e-03 1.7753940167e+00 -3.0750726404e+00 1.7753940167e+00 3.0750726404e+00 
28100 6.5397297508e+00 2.5459443646e-03 1.7753283883e+00 -3.0749589686e+00 1.7753283883e+00 3.0749589686e+00 
28200 6.5397336052e+00 2.7524710978e-03 1.7752566853e+00 -3.0748347754e+00 1.7752566853e+00 3.0748347754e+00 
28300 6.5397370308e+00 2.9497452492e-03 1.7751791627e+00 -3.0747005023e+00 1.7751791627e+00 3.0747005023e+00 
28400 6.5397400318e+00 3.1376109630e-03 1.7750960803e+00 -3.0745565994e+00 1.7750960803e+00 3.0745565994e+00 
28500 6.5397426152e+00 3.3159318876e-03 1.7750077024e+00 -3.0744035244e+00 1.7750077024e+00 3.0744035244e+00 
28600 6.5397447901e+00 3.4845910879e-03 1.7749142971e+00 -3.0742417416e+00 1.7749142971e+00 3.0742417416e+00 
28700 6.5397465682e+00 3.6434909209e-03 1.7748161358e+00 -3.0740717212e+00 1.7748161358e+00 3.0740717212e+00 
28800 6.5397479631e+00 3.7925528747e-03 1.7747134926e+00 -3.0738939380e+00 1.7747134926e+00 3.0738939380e+00 
28900 6.5397489903e+00 3.9317173722e-03 1.7746066439e+00 -3.0737088707e+00 1.7746066439e+00 3.0737088707e+00 
29000 6.5397496672e+00 4.0609435407e-03 1.7744958679e+00 -3.0735170010e+00 1.7744958679e+00 3.0735170010e+00 
29100 6.5397500126e+00 4.1802089480e-03 1.7743814439e+00 -3.0733188128e+00 1.7743814439e+00 3.0733188128e+00 
29200 6.5397500467e+00 4.2895093065e-03 1.7742636518e+00 -3.0731147909e+00 1.7742636518e+00 3.0731147909e+00 
29300 6.5397497911e+00 4.3888581458e-03 1.7741427717e+00 -3.0729054205e+00 1.7741427717e+00 3.0729054205e+00 
29400 6.5397492680e+00 4.4782864562e-03 1.7740190836e+00 -3.0726911864e+00 1.7740190836e+00 3.0726911864e+00 
29500 6.5397485009e+00 4.5578423025e-03 1.7738928665e+00 -3.0724725719e+00 1.7738928665e+00 3.0724725719e+00 
29600 6.5397475134e+00 4.6275904124e-03 1.7737643980e+00 -3.0722500579e+00 1.7737643980e+00 3.0722500579e+00 
29700 6.5397463300e+00 4.6876117370e-03 1.7736339541e+00 -3.0720241225e+00 1.7736339541e+00 3.0720241225e+00 
29800 6.5397449750e+00 4.7380029893e-03 1.7735018086e+00 -3.0717952399e+00 1.7735018086e+00 3.0717952399e+00 
29900 6.5397434731e+00 4.7788761576e-03 1.7733682327e+00 -3.0715638795e+00 1.7733682327e+00 3.0715638795e+00 
30000 6.5397418489e+00 4.8103579996e-03 1.7732334943e+00 -3.0713305058e+00 1.7732334943e+00 3.0713305058e+00 
30100 6.5397401264e+00 4.8325895154e-03 1.7730978580e+00 -3.0710955768e+00 1.7730978580e+00 3.0710955768e+00 
30200 6.5397383295e+00 4.8457254031e-03 1.7729615844e+00 -3.0708595441e+00 1.7729615844e+00 3.0708595441e+00 
30300 6.5397364815e+00 4.8499334975e-03 1.7728249299e+00 -3.0706228516e+00 1.7728249299e+00 3.0706228516e+00 
30400 6.5397346048e+00 4.8453941938e-03 1.7726881462e+00 -3.0703859352e+00 1.7726881462e+00 3.0703859352e+00 
30500 6.5397327212e+00 4.8322998586e-03 1.7725514800e+00 -3.0701492224e+00 1.7725514800e+00 3.0701492224e+00 
30600 6.5397308513e+00 4.8108542283e-03 1.7724151726e+00 -3.0699131310e+00 1.7724151726e+00 3.0699131310e+00 
30700 6.5397290150e+00 4.7812717976e-03 1.7722794597e+00 -3.0696780694e+00 1.7722794597e+00 3.0696780694e+00 
30800 6.5397272308e+00 4.7437772003e-03 1.7721445709e+00 -3.0694444352e+00 1.7721445709e+00 3.0694444352e+00 
30900 6.5397255159e+00 4.6986045818e-03 1.7720107298e+00 -3.0692126155e+00 1.7720107298e+00 3.0692126155e+00 
31000 6.5397238864e+00 4.6459969676e-03 1.7718781531e+00 -3.0689829860e+00 1.7718781531e+00 3.0689829860e+00 
31100 6.5397223570e+00 4.5862056265e-03 1.7717470510e+00 -3.0687559105e+00 1.7717470510e+00 3.0687559105e+00 
31200 6.5397209409e+00 4.5194894330e-03 1.7716176265e+00 -3.0685317406e+00 1.7716176265e+00 3.0685317406e+00 
31300 6.5397196499e+00 4.4461142276e-03 1.7714900754e+00 -3.0683108157e+00 1.7714900754e+00 3.0683108157e+00 
31400 6.5397184944e+00 4.3663521779e-03 1.7713645861e+00 -3.0680934618e+00 1.7713645861e+00 3.0680934618e+00 
31500 6.5397174834e+00 4.2804811424e-03 1.7712413392e+00 -3.0678799920e+00 1.7712413392e+00 3.0678799920e+00 
31600 6.5397166240e+00 4.1887840365e-03 1.7711205078e+00 -3.0676707058e+00 1.7711205078e+00 3.0676707058e+00 
31700 6.5397159225e+00 4.0915482038e-03 1.7710022567e+00 -3.0674658890e+00 1.7710022567e+00 3.0674658890e+00 
31800 6.5397153831e+00 3.9890647927e-03 1.7708867429e+00 -3.0672658132e+00 1.7708867429e+00 3.0672658132e+00 
31900 6.5397150089e+00 3.8816281408e-03 1.7707741151e+00 -3.0670707361e+00 1.7707741151e+00 3.0670707361e+00 
32000 6.5397148018e+00 3.7695351664e-03 1.7706645137e+00 -3.0668809008e+00 1.7706645137e+00 3.0668809008e+00 
32100 6.5397147619e+00 3.6530847701e-03 1.7705580707e+00 -3.0666965361e+00 1.7705580707e+00 3.0666965361e+00 
32200 6.5397148883e+00 3.5325772461e-03 1.7704549097e+00 -3.0665178561e+00 1.7704549097e+00 3.0665178561e+00 
32300 6.5397151789e+00 3.4083137052e-03 1.7703551460e+00 -3.0663450602e+00 1.7703551460e+00 3.0663450602e+00 
32400 6.5397156304e+00 3.2805955094e-03 1.7702588861e+00 -3.0661783333e+00 1.7702588861e+00 3.0661783333e+00 
32500 6.5397162382e+00 3.1497237195e-03 1.7701662283e+00 -3.0660178452e+00 1.7701662283e+00 3.0660178452e+00 
32600 6.5397169969e+00 3.0159985574e-03 1.7700772621e+00 -3.0658637513e+00 1.7700772621e+00 3.0658637513e+00 
32700 6.5397179002e+00 2.8797188814e-03 1.7699920688e+00 -3.0657161922e+00 1.7699920688e+00 3.0657161922e+00 
32800 6.5397189409e+00 2.7411816778e-03 1.7699107211e+00 -3.0655752938e+00 1.7699107211e+00 3.0655752938e+00 
32900 6.5397201109e+00 2.6006815675e-03 1.7698332832e+00 -3.0654411675e+00 1.7698332832e+00 3.0654411675e+00 
33000 6.5397214015e+00 2.4585103297e-03 1.7697598112e+00 -3.0653139103e+00 1.7697598112e+00 3.0653139103e+00 
33100 6.5397228036e+00 2.3149564413e-03 1.7696903528e+00 -3.0651936048e+00 1.7696903528e+00 3.0651936048e+00 
33200 6.5397243072e+00 2.1703046350e-03 1.7696249475e+00 -3.0650803195e+00 1.7696249475e+00 3.0650803195e+00 
33300 6.5397259024e+00 2.0248354731e-03 1.7695636269e+00 -3.0649741090e+00 1.7695636269e+00 3.0649741090e+00 
33400 6.5397275786e+00 1.8788249414e-03 1.7695064143e+00 -3.0648750139e+00 1.7695064143e+00 3.0648750139e+00 
33500 6.5397293250e+00 1.7325440593e-03 1.7694533256e+00 -3.0647830616e+00 1.7694533256e+00 3.0647830616e+00 
33600 6.5397311308e+00 1.5862585102e-03 1.7694043688e+00 -3.0646982659e+00 1.7694043688e+00 3.0646982659e+00 
33700 6.5397329851e+00 1.4402282885e-03 1.7693595444e+00 -3.0646206277e+00 1.7693595444e+00 3.0646206277e+00 
33800 6.5397348770e+00 1.2947073677e-03 1.7693188454e+00 -3.0645501350e+00 1.7693188454e+00 3.0645501350e+00 
33900 6.5397367956e+00 1.1499433851e-03 1.7692822578e+00 -3.0644867634e+00 1.7692822578e+00 3.0644867634e+00 
34000 6.5397387303e+00 1.0061773470e-03 1.7692497604e+00 -3.0644304763e+00 1.7692497604e+00 3.0644304763e+00 
34100 6.5397406707e+00 8.6364335216e-04 1.7692213253e+00 -3.0643812253e+00 1.7692213253e+00 3.0643812253e+00 
34200 6.5397426067e+00 7.2256833418e-04 1.7691969180e+00 -3.0643389505e+00 1.7691969180e+00 3.0643389505e+00 
34300 6.5397445285e+00 5.8317182274e-04 1.7691764972e+00 -3.0643035807e+00 1.7691764972e+00 3.0643035807e+00 
34400 6.5397464268e+00 4.4566572362e-04 1.7691600158e+00 -3.0642750340e+00 1.7691600158e+00 3.0642750340e+00 
34500 6.5397482927e+00 3.1025411726e-04 1.7691474204e+00 -3.0642532182e+00 1.7691474204e+00 3.0642532182e+00 
34600 6.5397501179e+00 1.7713307575e-04 1.7691386519e+00 -3.0642380308e+00 1.7691386519e+00 3.0642380308e+00 
34700 6.5397518945e+00 4.6490498092e-05 1.7691336457e+00 -3.0642293598e+00 1.7691336457e+00 3.0642293598e+00 
34800 6.5397536151e+00 -7.9970657735e-05 1.7691336457e+00 -3.0642293598e+00 1.7691336457e+00 3.0642293598e+00 
34900 6.5397552732e+00 -2.0516734187e-04 1.7691359059e+00 -3.0642332745e+00 1.7691359059e+00 3.0642332745e+00 
35000 6.5397568629e+00 -3.2737023646e-04 1.7691417044e+00 -3.0642433179e+00 1.7691417044e+00 3.0642433179e+00 
35100 6.5397583789e+00 -4.4642556166e-04 1.7691509567e+00 -3.0642593432e+00 1.7691509567e+00 3.0642593432e+00 
35200 6.5397598166e+00 -5.6218826271e-04 1.7691635736e+00 -3.0642811964e+00 1.7691635736e+00 3.0642811964e+00 
35300 6.5397611719e+00 -6.7452207074e-04 1.7691794622e+00 -3.0643087162e+00 1.7691794622e+00 3.0643087162e+00 
35400 6.5397624415e+00 -7.8329954737e-04 1.7691985253e+00 -3.0643417346e+00 1.7691985253e+00 3.0643417346e+00 
35500 6.5397636228e+00 -8.8840211338e-04 1.7692206625e+00 -3.0643800773e+00 1.7692206625e+00 3.0643800773e+00 
35600 6.5397647137e+00 -9.8972006176e-04 1.7692457697e+00 -3.0644235643e+00 1.7692457697e+00 3.0644235643e+00 
35700 6.5397657129e+00 -1.0871525556e-03 1.7692737399e+00 -3.0644720101e+00 1.7692737399e+00 3.0644720101e+00 
35800 6.5397666198e+00 -1.1806076112e-03 1.7693044631e+00 -3.0645252242e+00 1.7693044631e+00 3.0645252242e+00 
35900 6.5397674342e+00 -1.2700020668e-03 1.7693378269e+00 -3.0645830119e+00 1.7693378269e+00 3.0645830119e+00 
36000 6.5397681565e+00 -1.3552615369e-03 1.7693737162e+00 -3.0646451740e+00 1.7693737162e+00 3.0646451740e+00 
36100 6.5397687880e+00 -1.4363203540e-03 1.7694120141e+00 -3.0647115079e+00 1.7694120141e+00 3.0647115079e+00 
36200 6.5397693301e+00 -1.5131214960e-03 1.7694526017e+00 -3.0647818078e+00 1.7694526017e+00 3.0647818078e+00 
36300 6.5397697850e+00 -1.5856165017e-03 1.7694953587e+00 -3.0648558650e+00 1.7694953587e+00 3.0648558650e+00 
36400 6.5397701553e+00 -1.6537653735e-03 1.7695401631e+00 -3.0649334685e+00 1.7695401631e+00 3.0649334685e+00 
36500 6.5397704440e+00 -1.7175364688e-03 1.7695868920e+00 -3.0650144053e+00 1.7695868920e+00 3.0650144053e+00 
36600 6.5397706545e+00 -1.7769063793e-03 1.7696354215e+00 -3.0650984609e+00 1.7696354215e+00 3.0650984609e+00 
36700 6.5397707906e+00 -1.8318598000e-03 1.7696856272e+00 -3.0651854197e+00 1.7696856272e+00 3.0651854197e+00 
36800 6.5397708563e+00 -1.8823893873e-03 1.7697373841e+00 -3.0652750652e+00 1.7697373841e+00 3.0652750652e+00 
36900 6.5397708561e+00 -1.9284956069e-03 1.7697905671e+00 -3.0653671809e+00 1.7697905671e+00 3.0653671809e+00 
37000 6.5397707946e+00 -1.9701865729e-03 1.7698450511e+00 -3.0654615500e+00 1.7698450511e+00 3.0654615500e+00 
37100 6.5397706766e+00 -2.0074778764e-03 1.7699007112e+00 -3.0655579562e+00 1.7699007112e+00 3.0655579562e+00 
37200 6.5397705070e+00 -2.0403924070e-03 1.7699574231e+00 -3.0656561841e+00 1.7699574231e+00 3.0656561841e+00 
37300 6.5397702909e+00 -2.0689601647e-03 1.7700150630e+00 -3.0657560193e+00 1.7700150630e+00 3.0657560193e+00 
37400 6.5397700336e+00 -2.0932180647e-03 1.7700735080e+00 -3.0658572491e+00 1.7700735080e+00 3.0658572491e+00 
37500 6.5397697403e+00 -2.1132097350e-03 1.7701326364e+00 -3.0659596623e+00 1.7701326364e+00 3.0659596623e+00 
37600 6.5397694161e+00 -2.1289853067e-03 1.7701923274e+00 -3.0660630503e+00 1.7701923274e+00 3.0660630503e+00 
37700 6.5397690662e+00 -2.1406011981e-03 1.7702524621e+00 -3.0661672065e+00 1.7702524621e+00 3.0661672065e+00 
37800 6.5397686958e+00 -2.1481198930e-03 1.7703129227e+00 -3.0662719275e+00 1.7703129227e+00 3.0662719275e+00 
37900 6.5397683099e+00 -2.1516097131e-03 1.7703735937e+00 -3.0663770127e+00 1.7703735937e+00 3.0663770127e+00 
38000 6.5397679134e+00 -2.1511445861e-03 1.7704343612e+00 -3.0664822650e+00 1.7704343612e+00 3.0664822650e+00 
38100 6.5397675110e+00 -2.1468038081e-03 1.7704951134e+00 -3.0665874910e+00 1.7704951134e+00 3.0665874910e+00 
38200 6.5397671074e+00 -2.1386718029e-03 1.7705557410e+00 -3.0666925010e+00 1.7705557410e+00 3.0666925010e+00 
38300 6.5397667068e+00 -2.1268378772e-03 1.7706161368e+00 -3.0667971096e+00 1.7706161368e+00 3.0667971096e+00 
38400 6.5397663134e+00 -2.1113959724e-03 1.7706761964e+00 -3.0669011359e+00 1.7706761964e+00 3.0669011359e+00 
38500 6.5397659311e+00 -2.0924444135e-03 1.7707358179e+00 -3.0670044034e+00 1.7707358179e+00 3.0670044034e+00 
38600 6.5397655635e+00 -2.0700856563e-03 1.7707949023e+00 -3.0671067405e+00 1.7707949023e+00 3.0671067405e+00 
38700 6.5397652140e+00 -2.0444260318e-03 1.7708533533e+00 -3.0672079807e+00 1.7708533533e+00 3.0672079807e+00 
38800 6.5397648857e+00 -2.0155754896e-03 1.7709110780e+00 -3.0673079627e+00 1.7709110780e+00 3.0673079627e+00 
38900 6.5397645813e+00 -1.9836473399e-03 1.7709679861e+00 -3.0674065306e+00 1.7709679861e+00 3.0674065306e+00 
39000 6.5397643033e+00 -1.9487579953e-03 1.7710239911e+00 -3.0675035339e+00 1.7710239911e+00 3.0675035339e+00 
39100 6.5397640538e+00 -1.9110267117e-03 1.7710790092e+00 -3.0675988281e+00 1.7710790092e+00 3.0675988281e+00 
39200 6.5397638348e+00 -1.8705753295e-03 1.7711329604e+00 -3.0676922743e+00 1.7711329604e+00 3.0676922743e+00 
39300 6.5397636477e+00 -1.8275280161e-03 1.7711857679e+00 -3.0677837397e+00 1.7711857679e+00 3.0677837397e+00 
39400 6.5397634939e+00 -1.7820110079e-03 1.7712373587e+00 -3.0678730975e+00 1.7712373587e+00 3.0678730975e+00 
39500 6.5397633742e+00 -1.7341523551e-03 1.7712876631e+00 -3.0679602273e+00 1.7712876631e+00 3.0679602273e+00 
39600 6.5397632893e+00 -1.6840816671e-03 1.7713366150e+00 -3.0680450146e+00 1.7713366150e+00 3.0680450146e+00 
39700 6.5397632396e+00 -1.6319298608e-03 1.7713841523e+00 -3.0681273515e+00 1.7713841523e+00 3.0681273515e+00 
39800 6.5397632251e+00 -1.5778289105e-03 1.7714302162e+00 -3.0682071365e+00 1.7714302162e+00 3.0682071365e+00 
39900 6.5397632457e+00 -1.5219116014e-03 1.7714747518e+00 -3.0682842745e+00 1.7714747518e+00 3.0682842745e+00 
40000 6.5397633008e+00 -1.4643112860e-03 1.7715177080e+00 -3.0683586768e+00 1.7715177080e+00 3.0683586768e+00 
40100 6.5397633899e+00 -1.4051616437e-03 1.7715590375e+00 -3.0684302615e+00 1.7715590375e+00 3.0684302615e+00 
40200 6.5397635119e+00 -1.3445964443e-03 1.7715986965e+00 -3.0684989530e+00 1.7715986965e+00 3.0684989530e+00 
40300 6.5397636658e+00 -1.2827493162e-03 1.7716366454e+00 -3.0685646823e+00 1.7716366454e+00 3.0685646823e+00 
40400 6.5397638503e+00 -1.2197535184e-03 1.7716728479e+00 -3.0686273869e+00 1.7716728479e+00 3.0686273869e+00 
40500 6.5397640638e+00 -1.1557417176e-03 1.7717072717e+00 -3.0686870108e+00 1.7717072717e+00 3.0686870108e+00 
40600 6.5397643048e+00 -1.0908457702e-03 1.7717398885e+00 -3.0687435046e+00 1.7717398885e+00 3.0687435046e+00 
40700 6.5397645713e+00 -1.0251965098e-03 1.7717706731e+00 -3.0687968252e+00 1.7717706731e+00 3.0687968252e+00 
40800 6.5397648615e+00 -9.5892354002e-04 1.7717996046e+00 -3.0688469360e+00 1.7717996046e+00 3.0688469360e+00 
40900 6.5397651734e+00 -8.9215503342e-04 1.7718266654e+00 -3.0688938067e+00 1.7718266654e+00 3.0688938067e+00 
41000 6.5397655048e+00 -8.2501753652e-04 1.7718518416e+00 -3.0689374132e+00 1.7718518416e+00 3.0689374132e+00 
41100 6.5397658536e+00 -7.5763578099e-04 1.7718751229e+00 -3.0689777375e+00 1.7718751229e+00 3.0689777375e+00 
41200 6.5397662175e+00 -6.9013250139e-04 1.7718965024e+00 -3.0690147680e+00 1.7718965024e+00 3.0690147680e+00 
41300 6.5397665943e+00 -6.2262825982e-04 1.7719159769e+00 -3.0690484987e+00 1.7719159769e+00 3.0690484987e+00 
41400 6.5397669817e+00 -5.5524127729e-04 1.7719335462e+00 -3.0690789297e+00 1.7719335462e+00 3.0690789297e+00 
41500 6.5397673774e+00 -4.8808727238e-04 1.7719492139e+00 -3.0691060670e+00 1.7719492139e+00 3.0691060670e+00 
41600 6.5397677793e+00 -4.2127930704e-04 1.7719629866e+00 -3.0691299219e+00 1.7719629866e+00 3.0691299219e+00 
41700 6.5397681849e+00 -3.5492763986e-04 1.7719748739e+00 -3.0691505114e+00 1.7719748739e+00 3.0691505114e+00 
41800 6.5397685923e+00 -2.8913958691e-04 1.7719848890e+00 -3.0691678579e+00 1.7719848890e+00 3.0691678579e+00 
41900 6.5397689993e+00 -2.2401939020e-04 1.7719930476e+00 -3.0691819891e+00 1.7719930476e+00 3.0691819891e+00 
42000 6.5397694038e+00 -1.5966809394e-04 1.7719993687e+00 -3.0691929376e+00 1.7719993687e+00 3.0691929376e+00 
42100 6.5397698038e+00 -9.6183428642e-05 1.7720038740e+00 -3.0692007411e+00 1.7720038740e+00 3.0692007411e+00 
42200 6.5397701976e+00 -3.3659703185e-05 1.7720065880e+00 -3.0692054418e+00 1.7720065880e+00 3.0692054418e+00 
42300 6.5397705833e+00 2.6718701402e-05 1.7720065880e+00 -3.0692054418e+00 1.7720065880e+00 3.0692054418e+00 
42400 6.5397709593e+00 8.7948997905e-05 1.7720065880e+00 -3.0692054418e+00 1.7720065880e+00 3.0692054418e+00 
42500 6.5397713242e+00 1.4706427160e-04 1.7720041064e+00 -3.0692011435e+00 1.7720041064e+00 3.0692011435e+00 
42600 6.5397716764e+00 2.0487726479e-04 1.7719999567e+00 -3.0691939561e+00 1.7719999567e+00 3.0691939561e+00 
42700 6.5397720149e+00 2.6131213071e-04 1.7719941758e+00 -3.0691839432e+00 1.7719941758e+00 3.0691839432e+00 
42800 6.5397723383e+00 3.1629692240e-04 1.7719868024e+00 -3.0691711721e+00 1.7719868024e+00 3.0691711721e+00 
42900 6.5397726457e+00 3.6976364436e-04 1.7719778775e+00 -3.0691557137e+00 1.7719778775e+00 3.0691557137e+00 
43000 6.5397729363e+00 4.2164829627e-04 1.7719674438e+00 -3.0691376421e+00 1.7719674438e+00 3.0691376421e+00 
43100 6.5397732093e+00 4.7189090873e-04 1.7719555461e+00 -3.0691170346e+00 1.7719555461e+00 3.0691170346e+00 
43200 6.5397734643e+00 5.2043557119e-04 1.7719422306e+00 -3.0690939715e+00 1.7719422306e+00 3.0690939715e+00 
43300 6.5397737006e+00 5.6723045212e-04 1.7719275452e+00 -3.0690685355e+00 1.7719275452e+00 3.0690685355e+00 
43400 6.5397739181e+00 6.1222781149e-04 1.7719115392e+00 -3.0690408123e+00 1.7719115392e+00 3.0690408123e+00 
43500 6.5397741165e+00 6.5538400574e-04 1.7718942633e+00 -3.0690108896e+00 1.7718942633e+00 3.0690108896e+00 
43600 6.5397742959e+00 6.9665948529e-04 1.7718757694e+00 -3.0689788573e+00 1.7718757694e+00 3.0689788573e+00 
43700 6.5397744563e+00 7.3601878479e-04 1.7718561106e+00 -3.0689448073e+00 1.7718561106e+00 3.0689448073e+00 
43800 6.5397745979e+00 7.7343050622e-04 1.7718353410e+00 -3.0689088332e+00 1.7718353410e+00 3.0689088332e+00 
43900 6.5397747210e+00 8.0886729504e-04 1.7718135153e+00 -3.0688710301e+00 1.7718135153e+00 3.0688710301e+00 
44000 6.5397748261e+00 8.4230580953e-04 1.7717906894e+00 -3.0688314944e+00 1.7717906894e+00 3.0688314944e+00 
44100 6.5397749136e+00 8.7372668343e-04 1.7717669196e+00 -3.0687903238e+00 1.7717669196e+00 3.0687903238e+00 
44200 6.5397749842e+00 9.0311448232e-04 1.7717422627e+00 -3.0687476169e+00 1.7717422627e+00 3.0687476169e+00 
44300 6.5397750386e+00 9.3045765361e-04 1.7717167761e+00 -3.0687034729e+00 1.7717167761e+00 3.0687034729e+00 
44400 6.5397750775e+00 9.5574847055e-04 1.7716905175e+00 -3.0686579917e+00 1.7716905175e+00 3.0686579917e+00 
44500 6.5397751018e+00 9.7898297053e-04 1.7716635448e+00 -3.0686112736e+00 1.7716635448e+00 3.0686112736e+00 
44600 6.5397751125e+00 1.0001608876e-03 1.7716359160e+00 -3.0685634190e+00 1.7716359160e+00 3.0685634190e+00 
44700 6.5397751103e+00 1.0192855801e-03 1.7716076890e+00 -3.0685145285e+00 1.7716076890e+00 3.0685145285e+00 
44800 6.5397750964e+00 1.0363639522e-03 1.7715789218e+00 -3.0684647023e+00 1.7715789218e+00 3.0684647023e+00 
44900 6.5397750718e+00 1.0514063721e-03 1.7715496722e+00 -3.0684140404e+00 1.7715496722e+00 3.0684140404e+00 
45000 6.5397750375e+00 1.0644265838e-03 1.7715199975e+00 -3.0683626423e+00 1.7715199975e+00 3.0683626423e+00 
45100 6.5397749946e+00 1.0754416164e-03 1.7714899549e+00 -3.0683106069e+00 1.7714899549e+00 3.0683106069e+00 
45200 6.5397749442e+00 1.0844716875e-03 1.7714596008e+00 -3.0682580321e+00 1.7714596008e+00 3.0682580321e+00 
45300 6.5397748874e+00 1.0915401042e-03 1.7714289913e+00 -3.0682050150e+00 1.7714289913e+00 3.0682050150e+00 
45400 6.5397748252e+00 1.0966731593e-03 1.7713981818e+00 -3.0681516513e+00 1.7713981818e+00 3.0681516513e+00 
45500 6.5397747587e+00 1.0999000255e-03 1.7713672269e+00 -3.0680980358e+00 1.7713672269e+00 3.0680980358e+00 
45600 6.5397746889e+00 1.1012526451e-03 1.7713361803e+00 -3.0680442616e+00 1.7713361803e+00 3.0680442616e+00 
45700 6.5397746170e+00 1.1007656183e-03 1.7713050951e+00 -3.0679904204e+00 1.7713050951e+00 3.0679904204e+00 
45800 6.5397745438e+00 1.0984760876e-03 1.7712740230e+00 -3.0679366020e+00 1.7712740230e+00 3.0679366020e+00 
45900 6.5397744703e+00 1.0944236211e-03 1.7712430150e+00 -3.0678828945e+00 1.7712430150e+00 3.0678828945e+00 
46000 6.5397743974e+00 1.0886500934e-03 1.7712121209e+00 -3.0678293843e+00 1.7712121209e+00 3.0678293843e+00 
46100 6.5397743261e+00 1.0811995643e-03 1.7711813892e+00 -3.0677761555e+00 1.7711813892e+00 3.0677761555e+00 
46200 6.5397742570e+00 1.0721181566e-03 1.7711508673e+00 -3.0677232900e+00 1.7711508673e+00 3.0677232900e+00 
46300 6.5397741910e+00 1.0614539328e-03 1.7711206012e+00 -3.0676708676e+00 1.7711206012e+00 3.0676708676e+00 
46400 6.5397741288e+00 1.0492567700e-03 1.7710906357e+00 -3.0676189658e+00 1.7710906357e+00 3.0676189658e+00 
46500 6.5397740710e+00 1.0355782352e-03 1.7710610140e+00 -3.0675676596e+00 1.7710610140e+00 3.0675676596e+00 
46600 6.5397740181e+00 1.0204714590e-03 1.7710317780e+00 -3.0675170213e+00 1.7710317780e+00 3.0675170213e+00 
46700 6.5397739707e+00 1.0039910103e-03 1.7710029680e+00 -3.0674671209e+00 1.7710029680e+00 3.0674671209e+00 
46800 6.5397739293e+00 9.8619276961e-04 1.7709746228e+00 -3.0674180256e+00 1.7709746228e+00 3.0674180256e+00 
46900 6.5397738942e+00 9.6713380404e-04 1.7709467797e+00 -3.0673697999e+00 1.7709467797e+00 3.0673697999e+00 
47000 6.5397738658e+00 9.4687224164e-04 1.7709194742e+00 -3.0673225054e+00 1.7709194742e+00 3.0673225054e+00 
47100 6.5397738443e+00 9.2546714708e-04 1.7708927403e+00 -3.0672762010e+00 1.7708927403e+00 3.0672762010e+00 
47200 6.5397738299e+00 9.0297839793e-04 1.7708666104e+00 -3.0672309427e+00 1.7708666104e+00 3.0672309427e+00 
47300 6.5397738227e+00 8.7946656224e-04 1.7708411151e+00 -3.0671867835e+00 1.7708411151e+00 3.0671867835e+00 
47400 6.5397738228e+00 8.5499277730e-04 1.7708162833e+00 -3.0671437735e+00 1.7708162833e+00 3.0671437735e+00 
47500 6.5397738303e+00 8.2961862996e-04 1.7707921421e+00 -3.0671019598e+00 1.7707921421e+00 3.0671019598e+00 
47600 6.5397738450e+00 8.0340603870e-04 1.7707687171e+00 -3.0670613865e+00 1.7707687171e+00 3.0670613865e+00 
47700 6.5397738669e+00 7.7641713745e-04 1.7707460319e+00 -3.0670220946e+00 1.7707460319e+00 3.0670220946e+00 
47800 6.5397738959e+00 7.4871416159e-04 1.7707241085e+00 -3.0669841221e+00 1.7707241085e+00 3.0669841221e+00 
47900 6.5397739316e+00 7.2035933605e-04 1.7707029671e+00 -3.0669475041e+00 1.7707029671e+00 3.0669475041e+00 
48000 6.5397739740e+00 6.9141476586e-04 1.7706826261e+00 -3.0669122724e+00 1.7706826261e+00 3.0669122724e+00 
48100 6.5397740227e+00 6.6194232912e-04 1.7706631021e+00 -3.0668784560e+00 1.7706631021e+00 3.0668784560e+00 
48200 6.5397740774e+00 6.3200357271e-04 1.7706444102e+00 -3.0668460807e+00 1.7706444102e+00 3.0668460807e+00 
48300 6.5397741378e+00 6.0165961069e-04 1.7706265636e+00 -3.0668151693e+00 1.7706265636e+00 3.0668151693e+00 
48400 6.5397742034e+00 5.7097102569e-04 1.7706095736e+00 -3.0667857418e+00 1.7706095736e+00 3.0667857418e+00 
48500 6.5397742739e+00 5.3999777324e-04 1.7705934500e+00 -3.0667578150e+00 1.7705934500e+00 3.0667578150e+00 
48600 6.5397743488e+00 5.0879908927e-04 1.7705782010e+00 -3.0667314029e+00 1.7705782010e+00 3.0667314029e+00 
48700 6.5397744277e+00 4.7743340082e-04 1.7705638328e+00 -3.0667065165e+00 1.7705638328e+00 3.0667065165e+00 
48800 6.5397745101e+00 4.4595824000e-04 1.7705503503e+00 -3.0666831641e+00 1.7705503503e+00 3.0666831641e+00 
48900 6.5397745956e+00 4.1443016146e-04 1.7705377566e+00 -3.0666613511e+00 1.7705377566e+00 3.0666613511e+00 
49000 6.5397746837e+00 3.8290466318e-04 1.7705260531e+00 -3.0666410801e+00 1.7705260531e+00 3.0666410801e+00 
49100 6.5397747740e+00 3.5143611091e-04 1.7705152398e+00 -3.0666223509e+00 1.7705152398e+00 3.0666223509e+00 
49200 6.5397748658e+00 3.2007766612e-04 1.7705053151e+00 -3.0666051608e+00 1.7705053151e+00 3.0666051608e+00 
49300 6.5397749588e+00 2.8888121760e-04 1.7704962760e+00 -3.0665895046e+00 1.7704962760e+00 3.0665895046e+00 
49400 6.5397750525e+00 2.5789731672e-04 1.7704881178e+00 -3.0665753742e+00 1.7704881178e+00 3.0665753742e+00 
49500 6.5397751464e+00 2.2717511646e-04 1.7704808345e+00 -3.0665627593e+00 1.7704808345e+00 3.0665627593e+00 
49600 6.5397752402e+00 1.9676231410e-04 1.7704744189e+00 -3.0665516471e+00 1.7704744189e+00 3.0665516471e+00 
49700 6.5397753332e+00 1.6670509770e-04 1.7704688622e+00 -3.0665420225e+00 1.7704688622e+00 3.0665420225e+00 
49800 6.5397754253e+00 1.3704809634e-04 1.7704641542e+00 -3.0665338681e+00 1.7704641542e+00 3.0665338681e+00 
49900 6.5397755159e+00 1.0783433414e-04 1.7704602838e+00 -3.0665271644e+00 1.7704602838e+00 3.0665271644e+00 
50000 6.5397756047e+00 7.9105188027e-05 1.7704572384e+00 -3.0665218896e+00 1.7704572384e+00 3.0665218896e+00 
50100 6.5397756914e+00 5.0900349301e-05 1.7704550044e+00 -3.0665180202e+00 1.7704550044e+00 3.0665180202e+00 
50200 6.5397757756e+00 2.4918446131e-05 1.7704550044e+00 -3.0665180202e+00 1.7704550044e+00 3.0665180202e+00 
50300 6.5397758570e+00 -1.3571785370e-06 1.7704550044e+00 -3.0665180202e+00 1.7704550044e+00 3.0665180202e+00 
50400 6.5397759353e+00 -2.7876697766e-05 1.7704550044e+00 -3.0665180202e+00 1.7704550044e+00 3.0665180202e+00 
50500 6.5397760105e+00 -5.4591474601e-05 1.7704550044e+00 -3.0665180202e+00 1.7704550044e+00 3.0665180202e+00 
50600 6.5397760824e+00 -8.1454095255e-05 1.7704550044e+00 -3.0665180202e+00 1.7704550044e+00 3.0665180202e+00 
50700 6.5397761505e+00 -1.0576122644e-04 1.7704573048e+00 -3.0665220045e+00 1.7704573048e+00 3.0665220045e+00 
50800 6.5397762149e+00 -1.2931687093e-04 1.7704602916e+00 -3.0665271779e+00 1.7704602916e+00 3.0665271779e+00 
50900 6.5397762753e+00 -1.5209570675e-04 1.7704639437e+00 -3.0665335034e+00 1.7704639437e+00 3.0665335034e+00 
51000 6.5397763318e+00 -1.7407428103e-04 1.7704682391e+00 -3.0665409432e+00 1.7704682391e+00 3.0665409432e+00 
51100 6.5397763843e+00 -1.9523101253e-04 1.7704731551e+00 -3.0665494581e+00 1.7704731551e+00 3.0665494581e+00 
51200 6.5397764326e+00 -2.1554619085e-04 1.7704786686e+00 -3.0665590078e+00 1.7704786686e+00 3.0665590078e+00 
51300 6.5397764769e+00 -2.3500197246e-04 1.7704847559e+00 -3.0665695512e+00 1.7704847559e+00 3.0665695512e+00 
51400 6.5397765171e+00 -2.5358237352e-04 1.7704913925e+00 -3.0665810462e+00 1.7704913925e+00 3.0665810462e+00 
51500 6.5397765533e+00 -2.7127325968e-04 1.7704985539e+00 -3.0665934501e+00 1.7704985539e+00 3.0665934501e+00 
51600 6.5397765856e+00 -2.8806233290e-04 1.7705062148e+00 -3.0666067192e+00 1.7705062148e+00 3.0666067192e+00 
51700 6.5397766139e+00 -3.0393911529e-04 1.7705143499e+00 -3.0666208095e+00 1.7705143499e+00 3.0666208095e+00 
51800 6.5397766386e+00 -3.1889493029e-04 1.7705229332e+00 -3.0666356763e+00 1.7705229332e+00 3.0666356763e+00 
51900 6.5397766596e+00 -3.3292288095e-04 1.7705319389e+00 -3.0666512746e+00 1.7705319389e+00 3.0666512746e+00 
52000 6.5397766771e+00 -3.4601782574e-04 1.7705413407e+00 -3.0666675590e+00 1.7705413407e+00 3.0666675590e+00 
52100 6.5397766913e+00 -3.5817635169e-04 1.7705511122e+00 -3.0666844838e+00 1.7705511122e+00 3.0666844838e+00 
52200 6.5397767024e+00 -3.6939674521e-04 1.7705612271e+00 -3.0667020032e+00 1.7705612271e+00 3.0667020032e+00 
52300 6.5397767106e+00 -3.7967896051e-04 1.7705716587e+00 -3.0667200713e+00 1.7705716587e+00 3.0667200713e+00 
52400 6.5397767160e+00 -3.8902458583e-04 1.7705823806e+00 -3.0667386422e+00 1.7705823806e+00 3.0667386422e+00 
52500 6.5397767189e+00 -3.9743680747e-04 1.7705933664e+00 -3.0667576702e+00 1.7705933664e+00 3.0667576702e+00 
52600 6.5397767195e+00 -4.0492037188e-04 1.7706045897e+00 -3.0667771095e+00 1.7706045897e+00 3.0667771095e+00 
52700 6.5397767180e+00 -4.1148154580e-04 1.7706160242e+00 -3.0667969147e+00 1.7706160242e+00 3.0667969147e+00 
52800 6.5397767146e+00 -4.1712807456e-04 1.7706276440e+00 -3.0668170407e+00 1.7706276440e+00 3.0668170407e+00 
52900 6.5397767096e+00 -4.2186913871e-04 1.7706394231e+00 -3.0668374427e+00 1.7706394231e+00 3.0668374427e+00 
53000 6.5397767032e+00 -4.2571530903e-04 1.7706513360e+00 -3.0668580765e+00 1.7706513360e+00 3.0668580765e+00 
53100 6.5397766956e+00 -4.2867850011e-04 1.7706633575e+00 -3.0668788982e+00 1.7706633575e+00 3.0668788982e+00 
53200 6.5397766870e+00 -4.3077192246e-04 1.7706754625e+00 -3.0668998648e+00 1.7706754625e+00 3.0668998648e+00 
53300 6.5397766778e+00 -4.3201003343e-04 1.7706876266e+00 -3.0669209336e+00 1.7706876266e+00 3.0669209336e+00 
53400 6.5397766679e+00 -4.3240848692e-04 1.7706998255e+00 -3.0669420627e+00 1.7706998255e+00 3.0669420627e+00 
53500 6.5397766578e+00 -4.3198408207e-04 1.7707120356e+00 -3.0669632113e+00 1.7707120356e+00 3.0669632113e+00 
53600 6.5397766475e+00 -4.3075471102e-04 1.7707242337e+00 -3.0669843389e+00 1.7707242337e+00 3.0669843389e+00 
53700 6.5397766373e+00 -4.2873930575e-04 1.7707363969e+00 -3.0670054063e+00 1.7707363969e+00 3.0670054063e+00 
53800 6.5397766274e+00 -4.2595778431e-04 1.7707485032e+00 -3.0670263749e+00 1.7707485032e+00 3.0670263749e+00 
53900 6.5397766179e+00 -4.2243099636e-04 1.7707605308e+00 -3.0670472074e+00 1.7707605308e+00 3.0670472074e+00 
54000 6.5397766090e+00 -4.1818066814e-04 1.7707724588e+00 -3.0670678673e+00 1.7707724588e+00 3.0670678673e+00 
54100 6.5397766008e+00 -4.1322934719e-04 1.7707842667e+00 -3.0670883191e+00 1.7707842667e+00 3.0670883191e+00 
54200 6.5397765935e+00 -4.0760034657e-04 1.7707959346e+00 -3.0671085286e+00 1.7707959346e+00 3.0671085286e+00 
54300 6.5397765871e+00 -4.0131768901e-04 1.7708074436e+00 -3.0671284628e+00 1.7708074436e+00 3.0671284628e+00 
54400 6.5397765818e+00 -3.9440605085e-04 1.7708187751e+00 -3.0671480895e+00 1.7708187751e+00 3.0671480895e+00 
54500 6.5397765778e+00 -3.8689070607e-04 1.7708299114e+00 -3.0671673781e+00 1.7708299114e+00 3.0671673781e+00 
54600 6.5397765750e+00 -3.7879747028e-04 1.7708408354e+00 -3.0671862990e+00 1.7708408354e+00 3.0671862990e+00 
54700 6.5397765735e+00 -3.7015264501e-04 1.7708515308e+00 -3.0672048240e+00 1.7708515308e+00 3.0672048240e+00 
54800 6.5397765734e+00 -3.6098296216e-04 1.7708619821e+00 -3.0672229262e+00 1.7708619821e+00 3.0672229262e+00 
54900 6.5397765748e+00 -3.5131552890e-04 1.7708721744e+00 -3.0672405798e+00 1.7708721744e+00 3.0672405798e+00 
55000 6.5397765776e+00 -3.4117777295e-04 1.7708820937e+00 -3.0672577605e+00 1.7708820937e+00 3.0672577605e+00 
55100 6.5397765819e+00 -3.3059738842e-04 1.7708917267e+00 -3.0672744453e+00 1.7708917267e+00 3.0672744453e+00 
55200 6.5397765876e+00 -3.1960228224e-04 1.7709010609e+00 -3.0672906127e+00 1.7709010609e+00 3.0672906127e+00 
55300 6.5397765948e+00 -3.0822052135e-04 1.7709100846e+00 -3.0673062422e+00 1.7709100846e+00 3.0673062422e+00 
55400 6.5397766035e+00 -2.9648028052e-04 1.7709187870e+00 -3.0673213151e+00 1.7709187870e+00 3.0673213151e+00 
55500 6.5397766136e+00 -2.8440979120e-04 1.7709271578e+00 -3.0673358138e+00 1.7709271578e+00 3.0673358138e+00 
55600 6.5397766251e+00 -2.7203729114e-04 1.7709351877e+00 -3.0673497221e+00 1.7709351877e+00 3.0673497221e+00 
55700 6.5397766379e+00 -2.5939097502e-04 1.7709428684e+00 -3.0673630253e+00 1.7709428684e+00 3.0673630253e+00 
55800 6.5397766519e+00 -2.4649894623e-04 1.7709501919e+00 -3.0673757100e+00 1.7709501919e+00 3.0673757100e+00 
55900 6.5397766672e+00 -2.3338916961e-04 1.7709571514e+00 -3.0673877643e+00 1.7709571514e+00 3.0673877643e+00 
56000 6.5397766836e+00 -2.2008942550e-04 1.7709637408e+00 -3.0673991774e+00 1.7709637408e+00 3.0673991774e+00 
56100 6.5397767010e+00 -2.0662726492e-04 1.7709699546e+00 -3.0674099400e+00 1.7709699546e+00 3.0674099400e+00 
56200 6.5397767194e+00 -1.9302996611e-04 1.7709757883e+00 -3.0674200444e+00 1.7709757883e+00 3.0674200444e+00 
56300 6.5397767387e+00 -1.7932449235e-04 1.7709812382e+00 -3.0674294837e+00 1.7709812382e+00 3.0674294837e+00 
56400 6.5397767588e+00 -1.6553745119e-04 1.7709863010e+00 -3.0674382529e+00 1.7709863010e+00 3.0674382529e+00 
56500 6.5397767796e+00 -1.5169505510e-04 1.7709909746e+00 -3.0674463478e+00 1.7709909746e+00 3.0674463478e+00 
56600 6.5397768010e+00 -1.3782308356e-04 1.7709952574e+00 -3.0674537658e+00 1.7709952574e+00 3.0674537658e+00 
56700 6.5397768228e+00 -1.2394684671e-04 1.7709991485e+00 -3.0674605054e+00 1.7709991485e+00 3.0674605054e+00 
56800 6.5397768451e+00 -1.1009115049e-04 1.7710026479e+00 -3.0674665664e+00 1.7710026479e+00 3.0674665664e+00 
56900 6.5397768676e+00 -9.6280263329e-05 1.7710057560e+00 -3.0674719499e+00 1.7710057560e+00 3.0674719499e+00 
57000 6.5397768904e+00 -8.2537884520e-05 1.7710084743e+00 -3.0674766580e+00 1.7710084743e+00 3.0674766580e+00 
57100 6.5397769132e+00 -6.8887114117e-05 1.7710108045e+00 -3.0674806942e+00 1.7710108045e+00 3.0674806942e+00 
57200 6.5397769362e+00 -5.7594209515e-05 1.7710108045e+00 -3.0674806942e+00 1.7710108045e+00 3.0674806942e+00 
57300 6.5397769590e+00 -4.6009452771e-05 1.7710108045e+00 -3.0674806942e+00 1.7710108045e+00 3.0674806942e+00 
57400 6.5397769815e+00 -3.4157259595e-05 1.7710108045e+00 -3.0674806942e+00 1.7710108045e+00 3.0674806942e+00 
57500 6.5397770037e+00 -2.2061706164e-05 1.7710108045e+00 -3.0674806942e+00 1.7710108045e+00 3.0674806942e+00 
57600 6.5397770256e+00 -9.7465050278e-06 1.7710108045e+00 -3.0674806942e+00 1.7710108045e+00 3.0674806942e+00 
57700 6.5397770470e+00 2.7650178191e-06 1.7710108045e+00 -3.0674806942e+00 1.7710108045e+00 3.0674806942e+00 
57800 6.5397770679e+00 1.5449944697e-05 1.7710108045e+00 -3.0674806942e+00 1.7710108045e+00 3.0674806942e+00 
57900 6.5397770883e+00 2.8285786819e-05 1.7710108045e+00 -3.0674806942e+00 1.7710108045e+00 3.0674806942e+00 
58000 6.5397771081e+00 4.1250503699e-05 1.7710108045e+00 -3.0674806942e+00 1.7710108045e+00 3.0674806942e+00 
58100 6.5397771274e+00 5.4322521393e-05 1.7710108045e+00 -3.0674806942e+00 1.7710108045e+00 3.0674806942e+00 
58200 6.5397771460e+00 6.7480749573e-05 1.7710108045e+00 -3.0674806942e+00 1.7710108045e+00 3.0674806942e+00 
58300 6.5397771639e+00 8.0704597447e-05 1.7710108045e+00 -3.0674806942e+00 1.7710108045e+00 3.0674806942e+00 
58400 6.5397771810e+00 9.1344952247e-05 1.7710085260e+00 -3.0674767477e+00 1.7710085260e+00 3.0674767477e+00 
58500 6.5397771972e+00 1.0164922297e-04 1.7710059471e+00 -3.0674722809e+00 1.7710059471e+00 3.0674722809e+00 
58600 6.5397772125e+00 1.1160561975e-04 1.7710030773e+00 -3.0674673102e+00 1.7710030773e+00 3.0674673102e+00 
58700 6.5397772270e+00 1.2120320915e-04 1.7709999264e+00 -3.0674618527e+00 1.7709999264e+00 3.0674618527e+00 
58800 6.5397772406e+00 1.3043191587e-04 1.7709965045e+00 -3.0674559258e+00 1.7709965045e+00 3.0674559258e+00 
58900 6.5397772533e+00 1.3928252293e-04 1.7709928221e+00 -3.0674495476e+00 1.7709928221e+00 3.0674495476e+00 
59000 6.5397772651e+00 1.4774667038e-04 1.7709888897e+00 -3.0674427367e+00 1.7709888897e+00 3.0674427367e+00 
59100 6.5397772760e+00 1.5581685248e-04 1.7709847184e+00 -3.0674355117e+00 1.7709847184e+00 3.0674355117e+00 
59200 6.5397772861e+00 1.6348641350e-04 1.7709803193e+00 -3.0674278922e+00 1.7709803193e+00 3.0674278922e+00 
59300 6.5397772953e+00 1.7074954210e-04 1.7709757036e+00 -3.0674198976e+00 1.7709757036e+00 3.0674198976e+00 
59400 6.5397773036e+00 1.7760126434e-04 1.7709708828e+00 -3.0674115477e+00 1.7709708828e+00 3.0674115477e+00 
59500 6.5397773112e+00 1.8403743540e-04 1.7709658686e+00 -3.0674028628e+00 1.7709658686e+00 3.0674028628e+00 
59600 6.5397773179e+00 1.9005472995e-04 1.7709606726e+00 -3.0673938632e+00 1.7709606726e+00 3.0673938632e+00 
59700 6.5397773239e+00 1.9565063136e-04 1.7709553067e+00 -3.0673845692e+00 1.7709553067e+00 3.0673845692e+00 
59800 6.5397773292e+00 2.0082341964e-04 1.7709497829e+00 -3.0673750016e+00 1.7709497829e+00 3.0673750016e+00 
59900 6.5397773338e+00 2.0557215830e-04 1.7709441129e+00 -3.0673651810e+00 1.7709441129e+00 3.0673651810e+00 
60000 6.5397773377e+00 2.0989668001e-04 1.7709383089e+00 -3.0673551281e+00 1.7709383089e+00 3.0673551281e+00 
60100 6.5397773410e+00 2.1379757128e-04 1.7709323828e+00 -3.0673448637e+00 1.7709323828e+00 3.0673448637e+00 
60200 6.5397773438e+00 2.1727615612e-04 1.7709263465e+00 -3.0673344086e+00 1.7709263465e+00 3.0673344086e+00 
60300 6.5397773460e+00 2.2033447867e-04 1.7709202120e+00 -3.0673237832e+00 1.7709202120e+00 3.0673237832e+00 
60400 6.5397773478e+00 2.2297528499e-04 1.7709139911e+00 -3.0673130083e+00 1.7709139911e+00 3.0673130083e+00 
60500 6.5397773492e+00 2.2520200395e-04 1.7709076956e+00 -3.0673021042e+00 1.7709076956e+00 3.0673021042e+00 
60600 6.5397773502e+00 2.2701872731e-04 1.7709013372e+00 -3.0672910912e+00 1.7709013372e+00 3.0672910912e+00 
60700 6.5397773508e+00 2.2843018909e-04 1.7708949275e+00 -3.0672799893e+00 1.7708949275e+00 3.0672799893e+00 
60800 6.5397773512e+00 2.2944174409e-04 1.7708884779e+00 -3.0672688183e+00 1.7708884779e+00 3.0672688183e+00 
60900 6.5397773514e+00 2.3005934595e-04 1.7708819998e+00 -3.0672575978e+00 1.7708819998e+00 3.0672575978e+00 
61000 6.5397773513e+00 2.3028952442e-04 1.7708755042e+00 -3.0672463471e+00 1.7708755042e+00 3.0672463471e+00 
61100 6.5397773512e+00 2.3013936222e-04 1.7708690020e+00 -3.0672350851e+00 1.7708690020e+00 3.0672350851e+00 
61200 6.5397773509e+00 2.2961647130e-04 1.7708625041e+00 -3.0672238304e+00 1.7708625041e+00 3.0672238304e+00 
61300 6.5397773506e+00 2.2872896868e-04 1.7708560209e+00 -3.0672126012e+00 1.7708560209e+00 3.0672126012e+00 
61400 6.5397773503e+00 2.2748545193e-04 1.7708495628e+00 -3.0672014153e+00 1.7708495628e+00 3.0672014153e+00 
61500 6.5397773500e+00 2.2589497426e-04 1.7708431398e+00 -3.0671902903e+00 1.7708431398e+00 3.0671902903e+00 
61600 6.5397773497e+00 2.2396701932e-04 1.7708367616e+00 -3.0671792430e+00 1.7708367616e+00 3.0671792430e+00 
61700 6.5397773496e+00 2.2171147574e-04 1.7708304378e+00 -3.0671682899e+00 1.7708304378e+00 3.0671682899e+00 
61800 6.5397773495e+00 2.1913861157e-04 1.7708241777e+00 -3.0671574471e+00 1.7708241777e+00 3.0671574471e+00 
61900 6.5397773497e+00 2.1625904840e-04 1.7708179903e+00 -3.0671467301e+00 1.7708179903e+00 3.0671467301e+00 
62000 6.5397773500e+00 2.1308373559e-04 1.7708118841e+00 -3.0671361538e+00 1.7708118841e+00 3.0671361538e+00 
62100 6.5397773505e+00 2.0962392424e-04 1.7708058675e+00 -3.0671257329e+00 1.7708058675e+00 3.0671257329e+00 
62200 6.5397773512e+00 2.0589114132e-04 1.7707999486e+00 -3.0671154811e+00 1.7707999486e+00 3.0671154811e+00 
62300 6.5397773522e+00 2.0189716379e-04 1.7707941351e+00 -3.0671054118e+00 1.7707941351e+00 3.0671054118e+00 
62400 6.5397773535e+00 1.9765399277e-04 1.7707884344e+00 -3.0670955378e+00 1.7707884344e+00 3.0670955378e+00 
62500 6.5397773550e+00 1.9317382787e-04 1.7707828534e+00 -3.0670858713e+00 1.7707828534e+00 3.0670858713e+00 
62600 6.5397773568e+00 1.8846904172e-04 1.7707773990e+00 -3.0670764239e+00 1.7707773990e+00 3.0670764239e+00 
62700 6.5397773588e+00 1.8355215466e-04 1.7707720773e+00 -3.0670672065e+00 1.7707720773e+00 3.0670672065e+00 
62800 6.5397773612e+00 1.7843580975e-04 1.7707668945e+00 -3.0670582296e+00 1.7707668945e+00 3.0670582296e+00 
62900 6.5397773638e+00 1.7313274801e-04 1.7707618561e+00 -3.0670495029e+00 1.7707618561e+00 3.0670495029e+00 
63000 6.5397773668e+00 1.6765578403e-04 1.7707569675e+00 -3.0670410355e+00 1.7707569675e+00 3.0670410355e+00 
63100 6.5397773700e+00 1.6201778194e-04 1.7707522334e+00 -3.0670328359e+00 1.7707522334e+00 3.0670328359e+00 
63200 6.5397773735e+00 1.5623163179e-04 1.7707476586e+00 -3.0670249121e+00 1.7707476586e+00 3.0670249121e+00 
63300 6.5397773772e+00 1.5031022636e-04 1.7707432472e+00 -3.0670172712e+00 1.7707432472e+00 3.0670172712e+00 
63400 6.5397773812e+00 1.4426643839e-04 1.7707390029e+00 -3.0670099200e+00 1.7707390029e+00 3.0670099200e+00 
63500 6.5397773855e+00 1.3811309843e-04 1.7707349293e+00 -3.0670028642e+00 1.7707349293e+00 3.0670028642e+00 
63600 6.5397773900e+00 1.3186297309e-04 1.7707310294e+00 -3.0669961094e+00 1.7707310294e+00 3.0669961094e+00 
63700 6.5397773947e+00 1.2552874388e-04 1.7707273060e+00 -3.0669896603e+00 1.7707273060e+00 3.0669896603e+00 
63800 6.5397773997e+00 1.1912298673e-04 1.7707237614e+00 -3.0669835210e+00 1.7707237614e+00 3.0669835210e+00 
63900 6.5397774048e+00 1.1265815193e-04 1.7707203978e+00 -3.0669776949e+00 1.7707203978e+00 3.0669776949e+00 
64000 6.5397774101e+00 1.0614654487e-04 1.7707172166e+00 -3.0669721850e+00 1.7707172166e+00 3.0669721850e+00 
64100 6.5397774155e+00 9.9600307321e-05 1.7707142193e+00 -3.0669669936e+00 1.7707142193e+00 3.0669669936e+00 
64200 6.5397774210e+00 9.3031399429e-05 1.7707114069e+00 -3.0669621223e+00 1.7707114069e+00 3.0669621223e+00 
64300 6.5397774267e+00 8.6451582393e-05 1.7707087800e+00 -3.0669575723e+00 1.7707087800e+00 3.0669575723e+00 
64400 6.5397774325e+00 7.9872401832e-05 1.7707063388e+00 -3.0669533441e+00 1.7707063388e+00 3.0669533441e+00 
64500 6.5397774383e+00 7.3305171871e-05 1.7707040834e+00 -3.0669494377e+00 1.7707040834e+00 3.0669494377e+00 
64600 6.5397774441e+00 6.6760959960e-05 1.7707020135e+00 -3.0669458524e+00 1.7707020135e+00 3.0669458524e+00 
64700 6.5397774502e+00 6.2427123989e-05 1.7707020135e+00 -3.0669458524e+00 1.7707020135e+00 3.0669458524e+00 
64800 6.5397774561e+00 5.7938108519e-05 1.7707020135e+00 -3.0669458524e+00 1.7707020135e+00 3.0669458524e+00 
64900 6.5397774621e+00 5.3305756760e-05 1.7707020135e+00 -3.0669458524e+00 1.7707020135e+00 3.0669458524e+00 
65000 6.5397774679e+00 4.8541753970e-05 1.7707020135e+00 -3.0669458524e+00 1.7707020135e+00 3.0669458524e+00 
65100 6.5397774737e+00 4.3657615804e-05 1.7707020135e+00 -3.0669458524e+00 1.7707020135e+00 3.0669458524e+00 
65200 6.5397774794e+00 3.8664677235e-05 1.7707020135e+00 -3.0669458524e+00 1.7707020135e+00 3.0669458524e+00 
65300 6.5397774849e+00 3.3574082031e-05 1.7707020135e+00 -3.0669458524e+00 1.7707020135e+00 3.0669458524e+00 
65400 6.5397774904e+00 2.8396772763e-05 1.7707020135e+00 -3.0669458524e+00 1.7707020135e+00 3.0669458524e+00 
65500 6.5397774957e+00 2.3143481399e-05 1.7707020135e+00 -3.0669458524e+00 1.7707020135e+00 3.0669458524e+00 
65600 6.5397775009e+00 1.7824720414e-05 1.7707020135e+00 -3.0669458524e+00 1.7707020135e+00 3.0669458524e+00 
65700 6.5397775059e+00 1.2450774485e-05 1.7707020135e+00 -3.0669458524e+00 1.7707020135e+00 3.0669458524e+00 
65800 6.5397775108e+00 7.0316927024e-06 1.7707020135e+00 -3.0669458524e+00 1.7707020135e+00 3.0669458524e+00 
65900 6.5397775156e+00 1.5772813476e-06 1.7707020135e+00 -3.0669458524e+00 1.7707020135e+00 3.0669458524e+00 
66000 6.5397775201e+00 -3.9029028041e-06 1.7707020135e+00 -3.0669458524e+00 1.7707020135e+00 3.0669458524e+00 
66100 6.5397775245e+00 -9.3995586338e-06 1.7707020135e+00 -3.0669458524e+00 1.7707020135e+00 3.0669458524e+00 
66200 6.5397775288e+00 -1.4903646309e-05 1.7707020135e+00 -3.0669458524e+00 1.7707020135e+00 3.0669458524e+00 
66300 6.5397775328e+00 -2.0406392393e-05 1.7707020135e+00 -3.0669458524e+00 1.7707020135e+00 3.0669458524e+00 
66400 6.5397775367e+00 -2.5899294425e-05 1.7707020135e+00 -3.0669458524e+00 1.7707020135e+00 3.0669458524e+00 
66500 6.5397775405e+00 -3.1374125008e-05 1.7707020135e+00 -3.0669458524e+00 1.7707020135e+00 3.0669458524e+00 
66600 6.5397775440e+00 -3.6822935381e-05 1.7707020135e+00 -3.0669458524e+00 1.7707020135e+00 3.0669458524e+00 
66700 6.5397775474e+00 -4.2238058504e-05 1.7707020135e+00 -3.0669458524e+00 1.7707020135e+00 3.0669458524e+00 
66800 6.5397775506e+00 -4.7612111667e-05 1.7707020135e+00 -3.0669458524e+00 1.7707020135e+00 3.0669458524e+00 
66900 6.5397775537e+00 -5.2937998612e-05 1.7707020135e+00 -3.0669458524e+00 1.7707020135e+00 3.0669458524e+00 
67000 6.5397775566e+00 -5.8208911199e-05 1.7707020135e+00 -3.0669458524e+00 1.7707020135e+00 3.0669458524e+00 
67100 6.5397775594e+00 -6.3418330615e-05 1.7707020135e+00 -3.0669458524e+00 1.7707020135e+00 3.0669458524e+00 
67200 6.5397775620e+00 -6.8560028135e-05 1.7707020135e+00 -3.0669458524e+00 1.7707020135e+00 3.0669458524e+00 
67300 6.5397775645e+00 -7.3628065466e-05 1.7707020135e+00 -3.0669458524e+00 1.7707020135e+00 3.0669458524e+00 
67400 6.5397775666e+00 -7.6216667120e-05 1.7707040925e+00 -3.0669494535e+00 1.7707040925e+00 3.0669494535e+00 
67500 6.5397775686e+00 -7.8622210037e-05 1.7707062447e+00 -3.0669531811e+00 1.7707062447e+00 3.0669531811e+00 
67600 6.5397775705e+00 -8.0843562753e-05 1.7707084648e+00 -3.0669570264e+00 1.7707084648e+00 3.0669570264e+00 
67700 6.5397775721e+00 -8.2879970472e-05 1.7707107476e+00 -3.0669609803e+00 1.7707107476e+00 3.0669609803e+00 
67800 6.5397775737e+00 -8.4731047356e-05 1.7707130879e+00 -3.0669650339e+00 1.7707130879e+00 3.0669650339e+00 
67900 6.5397775751e+00 -8.6396768286e-05 1.7707154805e+00 -3.0669691779e+00 1.7707154805e+00 3.0669691779e+00 
68000 6.5397775763e+00 -8.7877460332e-05 1.7707179201e+00 -3.0669734034e+00 1.7707179201e+00 3.0669734034e+00 
68100 6.5397775775e+00 -8.9173793751e-05 1.7707204015e+00 -3.0669777013e+00 1.7707204015e+00 3.0669777013e+00 
68200 6.5397775786e+00 -9.0286772701e-05 1.7707229195e+00 -3.0669820627e+00 1.7707229195e+00 3.0669820627e+00 
68300 6.5397775795e+00 -9.1217725553e-05 1.7707254689e+00 -3.0669864784e+00 1.7707254689e+00 3.0669864784e+00 
68400 6.5397775804e+00 -9.1968294944e-05 1.7707280446e+00 -3.0669909397e+00 1.7707280446e+00 3.0669909397e+00 
68500 6.5397775812e+00 -9.2540427488e-05 1.7707306415e+00 -3.0669954377e+00 1.7707306415e+00 3.0669954377e+00 
68600 6.5397775820e+00 -9.2936363233e-05 1.7707332546e+00 -3.0669999636e+00 1.7707332546e+00 3.0669999636e+00 
68700 6.5397775827e+00 -9.3158624873e-05 1.7707358788e+00 -3.0670045089e+00 1.7707358788e+00 3.0670045089e+00 
68800 6.5397775833e+00 -9.3210006705e-05 1.7707385093e+00 -3.0670090651e+00 1.7707385093e+00 3.0670090651e+00 
68900 6.5397775839e+00 -9.3093563402e-05 1.7707411413e+00 -3.0670136238e+00 1.7707411413e+00 3.0670136238e+00 
69000 6.5397775845e+00 -9.2812598588e-05 1.7707437699e+00 -3.0670181767e+00 1.7707437699e+00 3.0670181767e+00 
69100 6.5397775851e+00 -9.2370653238e-05 1.7707463907e+00 -3.0670227160e+00 1.7707463907e+00 3.0670227160e+00 
69200 6.5397775857e+00 -9.1771493960e-05 1.7707489989e+00 -3.0670272336e+00 1.7707489989e+00 3.0670272336e+00 
69300 6.5397775863e+00 -9.1019101121e-05 1.7707515902e+00 -3.0670317219e+00 1.7707515902e+00 3.0670317219e+00 
69400 6.5397775868e+00 -9.0117656894e-05 1.7707541603e+00 -3.0670361734e+00 1.7707541603e+00 3.0670361734e+00 
69500 6.5397775874e+00 -8.9071533231e-05 1.7707567049e+00 -3.0670405808e+00 1.7707567049e+00 3.0670405808e+00 
69600 6.5397775880e+00 -8.7885279768e-05 1.7707592200e+00 -3.0670449370e+00 1.7707592200e+00 3.0670449370e+00 
69700 6.5397775887e+00 -8.6563611678e-05 1.7707617016e+00 -3.0670492352e+00 1.7707617016e+00 3.0670492352e+00 
69800 6.5397775893e+00 -8.5111397541e-05 1.7707641458e+00 -3.0670534688e+00 1.7707641458e+00 3.0670534688e+00 
69900 6.5397775900e+00 -8.3533647181e-05 1.7707665490e+00 -3.0670576313e+00 1.7707665490e+00 3.0670576313e+00 
70000 6.5397775908e+00 -8.1835499559e-05 1.7707689077e+00 -3.0670617167e+00 1.7707689077e+00 3.0670617167e+00 
70100 6.5397775916e+00 -8.0022210683e-05 1.7707712185e+00 -3.0670657190e+00 1.7707712185e+00 3.0670657190e+00 
70200 6.5397775924e+00 -7.8099141598e-05 1.7707734780e+00 -3.0670696326e+00 1.7707734780e+00 3.0670696326e+00 
70300 6.5397775933e+00 -7.6071746427e-05 1.7707756832e+00 -3.0670734522e+00 1.7707756832e+00 3.0670734522e+00 
70400 6.5397775942e+00 -7.3945560561e-05 1.7707778312e+00 -3.0670771726e+00 1.7707778312e+00 3.0670771726e+00 
70500 6.5397775952e+00 -7.1726188918e-05 1.7707799191e+00 -3.0670807890e+00 1.7707799191e+00 3.0670807890e+00 
70600 6.5397775962e+00 -6.9419294354e-05 1.7707819444e+00 -3.0670842969e+00 1.7707819444e+00 3.0670842969e+00 
70700 6.5397775975e+00 -6.9293018427e-05 1.7707819444e+00 -3.0670842969e+00 1.7707819444e+00 3.0670842969e+00 
70800 6.5397775988e+00 -6.9026056435e-05 1.7707819444e+00 -3.0670842969e+00 1.7707819444e+00 3.0670842969e+00 
70900 6.5397776001e+00 -6.8622693153e-05 1.7707819444e+00 -3.0670842969e+00 1.7707819444e+00 3.0670842969e+00 
71000 6.5397776014e+00 -6.8087282720e-05 1.7707819444e+00 -3.0670842969e+00 1.7707819444e+00 3.0670842969e+00 
71100 6.5397776028e+00 -6.7424240582e-05 1.7707819444e+00 -3.0670842969e+00 1.7707819444e+00 3.0670842969e+00 
71200 6.5397776042e+00 -6.6638035524e-05 1.7707819444e+00 -3.0670842969e+00 1.7707819444e+00 3.0670842969e+00 
71300 6.5397776057e+00 -6.5733181880e-05 1.7707819444e+00 -3.0670842969e+00 1.7707819444e+00 3.0670842969e+00 
71400 6.5397776071e+00 -6.4714231880e-05 1.7707819444e+00 -3.0670842969e+00 1.7707819444e+00 3.0670842969e+00 
71500 6.5397776086e+00 -6.3585768143e-05 1.7707819444e+00 -3.0670842969e+00 1.7707819444e+00 3.0670842969e+00 
71600 6.5397776101e+00 -6.2352396338e-05 1.7707819444e+00 -3.0670842969e+00 1.7707819444e+00 3.0670842969e+00 
71700 6.5397776116e+00 -6.1018738013e-05 1.7707819444e+00 -3.0670842969e+00 1.7707819444e+00 3.0670842969e+00 
71800 6.5397776132e+00 -5.9589423595e-05 1.7707819444e+00 -3.0670842969e+00 1.7707819444e+00 3.0670842969e+00 
71900 6.5397776147e+00 -5.8069085575e-05 1.7707819444e+00 -3.0670842969e+00 1.7707819444e+00 3.0670842969e+00 
72000 6.5397776162e+00 -5.6462351870e-05 1.7707819444e+00 -3.0670842969e+00 1.7707819444e+00 3.0670842969e+00 
72100 6.5397776178e+00 -5.4773839379e-05 1.7707819444e+00 -3.0670842969e+00 1.7707819444e+00 3.0670842969e+00 
72200 6.5397776193e+00 -5.3008147733e-05 1.7707819444e+00 -3.0670842969e+00 1.7707819444e+00 3.0670842969e+00 
72300 6.5397776208e+00 -5.1169853225e-05 1.7707819444e+00 -3.0670842969e+00 1.7707819444e+00 3.0670842969e+00 
72400 6.5397776223e+00 -4.9263502980e-05 1.7707819444e+00 -3.0670842969e+00 1.7707819444e+00 3.0670842969e+00 
72500 6.5397776239e+00 -4.7293609275e-05 1.7707819444e+00 -3.0670842969e+00 1.7707819444e+00 3.0670842969e+00 
72600 6.5397776254e+00 -4.5264644126e-05 1.7707819444e+00 -3.0670842969e+00 1.7707819444e+00 3.0670842969e+00 
72700 6.5397776268e+00 -4.3181034024e-05 1.7707819444e+00 -3.0670842969e+00 1.7707819444e+00 3.0670842969e+00 
72800 6.5397776283e+00 -4.1047154922e-05 1.7707819444e+00 -3.0670842969e+00 1.7707819444e+00 3.0670842969e+00 
72900 6.5397776298e+00 -3.8867327425e-05 1.7707819444e+00 -3.0670842969e+00 1.7707819444e+00 3.0670842969e+00 
73000 6.5397776312e+00 -3.6645812176e-05 1.7707819444e+00 -3.0670842969e+00 1.7707819444e+00 3.0670842969e+00 
73100 6.5397776326e+00 -3.4386805495e-05 1.7707819444e+00 -3.0670842969e+00 1.7707819444e+00 3.0670842969e+00 
73200 6.5397776340e+00 -3.2094435182e-05 1.7707819444e+00 -3.0670842969e+00 1.7707819444e+00 3.0670842969e+00 
73300 6.5397776353e+00 -2.9772756576e-05 1.7707819444e+00 -3.0670842969e+00 1.7707819444e+00 3.0670842969e+00 
73400 6.5397776367e+00 -2.7425748817e-05 1.7707819444e+00 -3.0670842969e+00 1.7707819444e+00 3.0670842969e+00 
73500 6.5397776380e+00 -2.5057311315e-05 1.7707819444e+00 -3.0670842969e+00 1.7707819444e+00 3.0670842969e+00 
73600 6.5397776392e+00 -2.2671260433e-05 1.7707819444e+00 -3.0670842969e+00 1.7707819444e+00 3.0670842969e+00 
73700 6.5397776405e+00 -2.0271326396e-05 1.7707819444e+00 -3.0670842969e+00 1.7707819444e+00 3.0670842969e+00 
73800 6.5397776417e+00 -1.7861150409e-05 1.7707819444e+00 -3.0670842969e+00 1.7707819444e+00 3.0670842969e+00 
73900 6.5397776429e+00 -1.5444281957e-05 1.7707819444e+00 -3.0670842969e+00 1.7707819444e+00 3.0670842969e+00 
74000 6.5397776440e+00 -1.3024176363e-05 1.7707819444e+00 -3.0670842969e+00 1.7707819444e+00 3.0670842969e+00 
74100 6.5397776451e+00 -1.0604192500e-05 1.7707819444e+00 -3.0670842969e+00 1.7707819444e+00 3.0670842969e+00 
74200 6.5397776462e+00 -8.1875907531e-06 1.7707819444e+00 -3.0670842969e+00 1.7707819444e+00 3.0670842969e+00 
74300 6.5397776473e+00 -5.7775311397e-06 1.7707819444e+00 -3.0670842969e+00 1.7707819444e+00 3.0670842969e+00 
74400 6.5397776483e+00 -3.3770716565e-06 1.7707819444e+00 -3.0670842969e+00 1.7707819444e+00 3.0670842969e+00 
74500 6.5397776493e+00 -9.8916682018e-07 1.7707819444e+00 -3.0670842969e+00 1.7707819444e+00 3.0670842969e+00 
74600 6.5397776503e+00 1.3833336207e-06 1.7707819444e+00 -3.0670842969e+00 1.7707819444e+00 3.0670842969e+00 
74700 6.5397776512e+00 3.7376857624e-06 1.7707819444e+00 -3.0670842969e+00 1.7707819444e+00 3.0670842969e+00 
74800 6.5397776521e+00 6.0712524515e-06 1.7707819444e+00 -3.0670842969e+00 1.7707819444e+00 3.0670842969e+00 
74900 6.5397776530e+00 8.3815040072e-06 1.7707819444e+00 -3.0670842969e+00 1.7707819444e+00 3.0670842969e+00 
75000 6.5397776538e+00 1.0666018760e-05 1.7707819444e+00 -3.0670842969e+00 1.7707819444e+00 3.0670842969e+00 
75100 6.5397776546e+00 1.2922483429e-05 1.7707819444e+00 -3.0670842969e+00 1.7707819444e+00 3.0670842969e+00 
75200 6.5397776554e+00 1.5148693327e-05 1.7707819444e+00 -3.0670842969e+00 1.7707819444e+00 3.0670842969e+00 
75300 6.5397776562e+00 1.7342552391e-05 1.7707819444e+00 -3.0670842969e+00 1.7707819444e+00 3.0670842969e+00 
75400 6.5397776570e+00 1.9502073066e-05 1.7707819444e+00 -3.0670842969e+00 1.7707819444e+00 3.0670842969e+00 
75500 6.5397776577e+00 2.1625376032e-05 1.7707819444e+00 -3.0670842969e+00 1.7707819444e+00 3.0670842969e+00 
75600 6.5397776584e+00 2.3710689777e-05 1.7707819444e+00 -3.0670842969e+00 1.7707819444e+00 3.0670842969e+00 
75700 6.5397776591e+00 2.5756350030e-05 1.7707819444e+00 -3.0670842969e+00 1.7707819444e+00 3.0670842969e+00 
75800 6.5397776597e+00 2.7760799039e-05 1.7707819444e+00 -3.0670842969e+00 1.7707819444e+00 3.0670842969e+00 
75900 6.5397776604e+00 2.9722584740e-05 1.7707819444e+00 -3.0670842969e+00 1.7707819444e+00 3.0670842969e+00 
76000 6.5397776610e+00 3.1640359770e-05 1.7707819444e+00 -3.0670842969e+00 1.7707819444e+00 3.0670842969e+00 
76100 6.5397776616e+00 3.3512880372e-05 1.7707819444e+00 -3.0670842969e+00 1.7707819444e+00 3.0670842969e+00 
76200 6.5397776622e+00 3.5339005167e-05 1.7707819444e+00 -3.0670842969e+00 1.7707819444e+00 3.0670842969e+00 
76300 6.5397776628e+00 3.7117693829e-05 1.7707819444e+00 -3.0670842969e+00 1.7707819444e+00 3.0670842969e+00 
76400 6.5397776633e+00 3.8848005618e-05 1.7707819444e+00 -3.0670842969e+00 1.7707819444e+00 3.0670842969e+00 
76500 6.5397776639e+00 4.0529097856e-05 1.7707819444e+00 -3.0670842969e+00 1.7707819444e+00 3.0670842969e+00 
76600 6.5397776644e+00 4.2160224261e-05 1.7707819444e+00 -3.0670842969e+00 1.7707819444e+00 3.0670842969e+00 
76700 6.5397776649e+00 4.3740733205e-05 1.7707819444e+00 -3.0670842969e+00 1.7707819444e+00 3.0670842969e+00 
76800 6.5397776654e+00 4.5270065893e-05 1.7707819444e+00 -3.0670842969e+00 1.7707819444e+00 3.0670842969e+00 
76900 6.5397776659e+00 4.6747754428e-05 1.7707819444e+00 -3.0670842969e+00 1.7707819444e+00 3.0670842969e+00 
77000 6.5397776664e+00 4.8173419840e-05 1.7707819444e+00 -3.0670842969e+00 1.7707819444e+00 3.0670842969e+00 
77100 6.5397776669e+00 4.9546770004e-05 1.7707819444e+00 -3.0670842969e+00 1.7707819444e+00 3.0670842969e+00 
77200 6.5397776674e+00 5.0867597514e-05 1.7707819444e+00 -3.0670842969e+00 1.7707819444e+00 3.0670842969e+00 
77300 6.5397776679e+00 5.2135777478e-05 1.7707819444e+00 -3.0670842969e+00 1.7707819444e+00 3.0670842969e+00 
77400 6.5397776684e+00 5.3351265272e-05 1.7707819444e+00 -3.0670842969e+00 1.7707819444e+00 3.0670842969e+00 
77500 6.5397776688e+00 5.4514094226e-05 1.7707819444e+00 -3.0670842969e+00 1.7707819444e+00 3.0670842969e+00 
77600 6.5397776693e+00 5.5624373274e-05 1.7707819444e+00 -3.0670842969e+00 1.7707819444e+00 3.0670842969e+00 
77700 6.5397776697e+00 5.6682284544e-05 1.7707819444e+00 -3.0670842969e+00 1.7707819444e+00 3.0670842969e+00 
77800 6.5397776702e+00 5.7688080936e-05 1.7707819444e+00 -3.0670842969e+00 1.7707819444e+00 3.0670842969e+00 
77900 6.5397776706e+00 5.8642083644e-05 1.7707819444e+00 -3.0670842969e+00 1.7707819444e+00 3.0670842969e+00 
78000 6.5397776711e+00 5.9544679655e-05 1.7707819444e+00 -3.0670842969e+00 1.7707819444e+00 3.0670842969e+00 
78100 6.5397776715e+00 6.0396319231e-05 1.7707819444e+00 -3.0670842969e+00 1.7707819444e+00 3.0670842969e+00 
78200 6.5397776720e+00 6.1197513362e-05 1.7707819444e+00 -3.0670842969e+00 1.7707819444e+00 3.0670842969e+00 
78300 6.5397776724e+00 6.1948831209e-05 1.7707819444e+00 -3.0670842969e+00 1.7707819444e+00 3.0670842969e+00 
78400 6.5397776729e+00 6.2650897524e-05 1.7707819444e+00 -3.0670842969e+00 1.7707819444e+00 3.0670842969e+00 
78500 6.5397776733e+00 6.3304390095e-05 1.7707819444e+00 -3.0670842969e+00 1.7707819444e+00 3.0670842969e+00 
78600 6.5397776737e+00 6.3910037140e-05 1.7707819444e+00 -3.0670842969e+00 1.7707819444e+00 3.0670842969e+00 
78700 6.5397776742e+00 6.4468614747e-05 1.7707819444e+00 -3.0670842969e+00 1.7707819444e+00 3.0670842969e+00 
78800 6.5397776746e+00 6.4980944283e-05 1.7707819444e+00 -3.0670842969e+00 1.7707819444e+00 3.0670842969e+00 
78900 6.5397776750e+00 6.5447889839e-05 1.7707819444e+00 -3.0670842969e+00 1.7707819444e+00 3.0670842969e+00 
79000 6.5397776755e+00 6.5870355667e-05 1.7707819444e+00 -3.0670842969e+00 1.7707819444e+00 3.0670842969e+00 
79100 6.5397776759e+00 6.6249283649e-05 1.7707819444e+00 -3.0670842969e+00 1.7707819444e+00 3.0670842969e+00 
79200 6.5397776763e+00 6.6585650766e-05 1.7707819444e+00 -3.0670842969e+00 1.7707819444e+00 3.0670842969e+00 
79300 6.5397776768e+00 6.6880466604e-05 1.7707819444e+00 -3.0670842969e+00 1.7707819444e+00 3.0670842969e+00 
79400 6.5397776772e+00 6.7134770884e-05 1.7707819444e+00 -3.0670842969e+00 1.7707819444e+00 3.0670842969e+00 
79500 6.5397776776e+00 6.7349631006e-05 1.7707819444e+00 -3.0670842969e+00 1.7707819444e+00 3.0670842969e+00 
79600 6.5397776780e+00 6.7526139637e-05 1.7707819444e+00 -3.0670842969e+00 1.7707819444e+00 3.0670842969e+00 
79700 6.5397776784e+00 6.7665412339e-05 1.7707819444e+00 -3.0670842969e+00 1.7707819444e+00 3.0670842969e+00 
79800 6.5397776789e+00 6.7768585205e-05 1.7707819444e+00 -3.0670842969e+00 1.7707819444e+00 3.0670842969e+00 
79900 6.5397776793e+00 6.7836812570e-05 1.7707819444e+00 -3.0670842969e+00 1.7707819444e+00 3.0670842969e+00 
80000 6.5397776797e+00 6.7871264731e-05 1.7707819444e+00 -3.0670842969e+00 1.7707819444e+00 3.0670842969e+00 
80100 6.5397776801e+00 6.7873125730e-05 1.7707819444e+00 -3.0670842969e+00 1.7707819444e+00 3.0670842969e+00 
80200 6.5397776805e+00 6.7843591170e-05 1.7707819444e+00 -3.0670842969e+00 1.7707819444e+00 3.0670842969e+00 
80300 6.5397776809e+00 6.7783866098e-05 1.7707819444e+00 -3.0670842969e+00 1.7707819444e+00 3.0670842969e+00 
80400 6.5397776813e+00 6.7695162903e-05 1.7707819444e+00 -3.0670842969e+00 1.7707819444e+00 3.0670842969e+00 
80500 6.5397776817e+00 6.7578699297e-05 1.7707819444e+00 -3.0670842969e+00 1.7707819444e+00 3.0670842969e+00 
80600 6.5397776821e+00 6.7435696330e-05 1.7707819444e+00 -3.0670842969e+00 1.7707819444e+00 3.0670842969e+00 
80700 6.5397776825e+00 6.7267376469e-05 1.7707819444e+00 -3.0670842969e+00 1.7707819444e+00 3.0670842969e+00 
80800 6.5397776829e+00 6.7074961720e-05 1.7707819444e+00 -3.0670842969e+00 1.7707819444e+00 3.0670842969e+00 
80900 6.5397776833e+00 6.6859671820e-05 1.7707819444e+00 -3.0670842969e+00 1.7707819444e+00 3.0670842969e+00 
81000 6.5397776837e+00 6.6622722467e-05 1.7707819444e+00 -3.0670842969e+00 1.7707819444e+00 3.0670842969e+00 
81100 6.5397776840e+00 6.6365323642e-05 1.7707819444e+00 -3.0670842969e+00 1.7707819444e+00 3.0670842969e+00 
81200 6.5397776844e+00 6.6088677941e-05 1.7707819444e+00 -3.0670842969e+00 1.7707819444e+00 3.0670842969e+00 
81300 6.5397776848e+00 6.5793979013e-05 1.7707819444e+00 -3.0670842969e+00 1.7707819444e+00 3.0670842969e+00 
81400 6.5397776851e+00 6.5482410036e-05 1.7707819444e+00 -3.0670842969e+00 1.7707819444e+00 3.0670842969e+00 
81500 6.5397776855e+00 6.5155142249e-05 1.7707819444e+00 -3.0670842969e+00 1.7707819444e+00 3.0670842969e+00 
81600 6.5397776858e+00 6.4813333563e-05 1.7707819444e+00 -3.0670842969e+00 1.7707819444e+00 3.0670842969e+00 
81700 6.5397776862e+00 6.4458127217e-05 1.7707819444e+00 -3.0670842969e+00 1.7707819444e+00 3.0670842969e+00 
81800 6.5397776865e+00 6.4090650503e-05 1.7707819444e+00 -3.0670842969e+00 1.7707819444e+00 3.0670842969e+00 
81900 6.5397776869e+00 6.3712013564e-05 1.7707819444e+00 -3.0670842969e+00 1.7707819444e+00 3.0670842969e+00 
82000 6.5397776872e+00 6.3323308221e-05 1.7707819444e+00 -3.0670842969e+00 1.7707819444e+00 3.0670842969e+00 
82100 6.5397776875e+00 6.2925606901e-05 1.7707819444e+00 -3.0670842969e+00 1.7707819444e+00 3.0670842969e+00 
82200 6.5397776879e+00 6.2519961604e-05 1.7707819444e+00 -3.0670842969e+00 1.7707819444e+00 3.0670842969e+00 
82300 6.5397776882e+00 6.2107402932e-05 1.7707819444e+00 -3.0670842969e+00 1.7707819444e+00 3.0670842969e+00 
82400 6.5397776885e+00 6.1688939189e-05 1.7707819444e+00 -3.0670842969e+00 1.7707819444e+00 3.0670842969e+00 
82500 6.5397776888e+00 6.1265555531e-05 1.7707819444e+00 -3.0670842969e+00 1.7707819444e+00 3.0670842969e+00 
82600 6.5397776891e+00 6.0838213182e-05 1.7707819444e+00 -3.0670842969e+00 1.7707819444e+00 3.0670842969e+00 
82700 6.5397776894e+00 6.0407848714e-05 1.7707819444e+00 -3.0670842969e+00 1.7707819444e+00 3.0670842969e+00 
82800 6.5397776897e+00 5.9975373369e-05 1.7707819444e+00 -3.0670842969e+00 1.7707819444e+00 3.0670842969e+00 
82900 6.5397776900e+00 5.9541672459e-05 1.7707819444e+00 -3.0670842969e+00 1.7707819444e+00 3.0670842969e+00 
83000 6.5397776902e+00 5.9107604815e-05 1.7707819444e+00 -3.0670842969e+00 1.7707819444e+00 3.0670842969e+00 
83100 6.5397776905e+00 5.8674002281e-05 1.7707819444e+00 -3.0670842969e+00 1.7707819444e+00 3.0670842969e+00 
83200 6.5397776908e+00 5.8241669290e-05 1.7707819444e+00 -3.0670842969e+00 1.7707819444e+00 3.0670842969e+00 
83300 6.5397776911e+00 5.7811382468e-05 1.7707819444e+00 -3.0670842969e+00 1.7707819444e+00 3.0670842969e+00 
83400 6.5397776913e+00 5.7383890305e-05 1.7707819444e+00 -3.0670842969e+00 1.7707819444e+00 3.0670842969e+00 
83500 6.5397776916e+00 5.6959912877e-05 1.7707819444e+00 -3.0670842969e+00 1.7707819444e+00 3.0670842969e+00 
83600 6.5397776918e+00 5.6540141621e-05 1.7707819444e+00 -3.0670842969e+00 1.7707819444e+00 3.0670842969e+00 
83700 6.5397776921e+00 5.6125239153e-05 1.7707819444e+00 -3.0670842969e+00 1.7707819444e+00 3.0670842969e+00 
83800 6.5397776923e+00 5.5715839143e-05 1.7707819444e+00 -3.0670842969e+00 1.7707819444e+00 3.0670842969e+00 
83900 6.5397776926e+00 5.5312546226e-05 1.7707819444e+00 -3.0670842969e+00 1.7707819444e+00 3.0670842969e+00 
84000 6.5397776928e+00 5.4915935980e-05 1.7707819444e+00 -3.0670842969e+00 1.7707819444e+00 3.0670842969e+00 
84100 6.5397776930e+00 5.4526554925e-05 1.7707819444e+00 -3.0670842969e+00 1.7707819444e+00 3.0670842969e+00 
84200 6.5397776933e+00 5.4144920588e-05 1.7707819444e+00 -3.0670842969e+00 1.7707819444e+00 3.0670842969e+00 
84300 6.5397776935e+00 5.3771521593e-05 1.7707819444e+00 -3.0670842969e+00 1.7707819444e+00 3.0670842969e+00 
84400 6.5397776937e+00 5.3406817797e-05 1.7707819444e+00 -3.0670842969e+00 1.7707819444e+00 3.0670842969e+00 
84500 6.5397776939e+00 5.3051240472e-05 1.7707819444e+00 -3.0670842969e+00 1.7707819444e+00 3.0670842969e+00 
84600 6.5397776941e+00 5.2705192517e-05 1.7707819444e+00 -3.0670842969e+00 1.7707819444e+00 3.0670842969e+00 
84700 6.5397776943e+00 5.2369048712e-05 1.7707819444e+00 -3.0670842969e+00 1.7707819444e+00 3.0670842969e+00 
84800 6.5397776945e+00 5.2043156004e-05 1.7707819444e+00 -3.0670842969e+00 1.7707819444e+00 3.0670842969e+00 
84900 6.5397776947e+00 5.1727833827e-05 1.7707819444e+00 -3.0670842969e+00 1.7707819444e+00 3.0670842969e+00 
85000 6.5397776949e+00 5.1423374455e-05 1.7707819444e+00 -3.0670842969e+00 1.7707819444e+00 3.0670842969e+00 
85100 6.5397776951e+00 5.1130043391e-05 1.7707819444e+00 -3.0670842969e+00 1.7707819444e+00 3.0670842969e+00 
85200 6.5397776953e+00 5.0848079771e-05 1.7707819444e+00 -3.0670842969e+00 1.7707819444e+00 3.0670842969e+00 
85300 6.5397776955e+00 5.0577696808e-05 1.7707819444e+00 -3.0670842969e+00 1.7707819444e+00 3.0670842969e+00 
85400 6.5397776957e+00 5.0319082259e-05 1.7707819444e+00 -3.0670842969e+00 1.7707819444e+00 3.0670842969e+00 
85500 6.5397776959e+00 5.0072398924e-05 1.7707819444e+00 -3.0670842969e+00 1.7707819444e+00 3.0670842969e+00 
85600 6.5397776961e+00 4.9837785148e-05 1.7707819444e+00 -3.0670842969e+00 1.7707819444e+00 3.0670842969e+00 
85700 6.5397776963e+00 4.9615355367e-05 1.7707819444e+00 -3.0670842969e+00 1.7707819444e+00 3.0670842969e+00 
85800 6.5397776964e+00 4.9405200658e-05 1.7707819444e+00 -3.0670842969e+00 1.7707819444e+00 3.0670842969e+00 
85900 6.5397776966e+00 4.9207389325e-05 1.7707819444e+00 -3.0670842969e+00 1.7707819444e+00 3.0670842969e+00 
86000 6.5397776968e+00 4.9021967482e-05 1.7707819444e+00 -3.0670842969e+00 1.7707819444e+00 3.0670842969e+00 
86100 6.5397776970e+00 4.8848959667e-05 1.7707819444e+00 -3.0670842969e+00 1.7707819444e+00 3.0670842969e+00 
86200 6.5397776971e+00 4.8688369467e-05 1.7707819444e+00 -3.0670842969e+00 1.7707819444e+00 3.0670842969e+00 
86300 6.5397776973e+00 4.8540180150e-05 1.7707819444e+00 -3.0670842969e+00 1.7707819444e+00 3.0670842969e+00 
86400 6.5397776975e+00 4.8404355324e-05 1.7707819444e+00 -3.0670842969e+00 1.7707819444e+00 3.0670842969e+00 
86500 6.5397776976e+00 4.8280839588e-05 1.7707819444e+00 -3.0670842969e+00 1.7707819444e+00 3.0670842969e+00 
86600 6.5397776978e+00 4.8169559200e-05 1.7707819444e+00 -3.0670842969e+00 1.7707819444e+00 3.0670842969e+00 
86700 6.5397776980e+00 4.8070422764e-05 1.7707819444e+00 -3.0670842969e+00 1.7707819444e+00 3.0670842969e+00 
86800 6.5397776981e+00 4.7983321901e-05 1.7707819444e+00 -3.0670842969e+00 1.7707819444e+00 3.0670842969e+00 
86900 6.5397776983e+00 4.7908131946e-05 1.7707819444e+00 -3.0670842969e+00 1.7707819444e+00 3.0670842969e+00 
87000 6.5397776984e+00 4.7844712638e-05 1.7707819444e+00 -3.0670842969e+00 1.7707819444e+00 3.0670842969e+00 
87100 6.5397776986e+00 4.7792908818e-05 1.7707819444e+00 -3.0670842969e+00 1.7707819444e+00 3.0670842969e+00 
87200 6.5397776987e+00 4.7752551124e-05 1.7707819444e+00 -3.0670842969e+00 1.7707819444e+00 3.0670842969e+00 
87300 6.5397776989e+00 4.7723456694e-05 1.7707819444e+00 -3.0670842969e+00 1.7707819444e+00 3.0670842969e+00 
87400 6.5397776990e+00 4.7705429860e-05 1.7707819444e+00 -3.0670842969e+00 1.7707819444e+00 3.0670842969e+00 
87500 6.5397776992e+00 4.7698262847e-05 1.7707819444e+00 -3.0670842969e+00 1.7707819444e+00 3.0670842969e+00 
87600 6.5397776993e+00 4.7701736467e-05 1.7707819444e+00 -3.0670842969e+00 1.7707819444e+00 3.0670842969e+00 
87700 6.5397776995e+00 4.7715620813e-05 1.7707819444e+00 -3.0670842969e+00 1.7707819444e+00 3.0670842969e+00 
87800 6.5397776996e+00 4.7739675943e-05 1.7707819444e+00 -3.0670842969e+00 1.7707819444e+00 3.0670842969e+00 
87900 6.5397776997e+00 4.7773652558e-05 1.7707819444e+00 -3.0670842969e+00 1.7707819444e+00 3.0670842969e+00 
88000 6.5397776999e+00 4.7817292685e-05 1.7707819444e+00 -3.0670842969e+00 1.7707819444e+00 3.0670842969e+00 
88100 6.5397777000e+00 4.7870330341e-05 1.7707819444e+00 -3.0670842969e+00 1.7707819444e+00 3.0670842969e+00 
88200 6.5397777002e+00 4.7932492195e-05 1.7707819444e+00 -3.0670842969e+00 1.7707819444e+00 3.0670842969e+00 
88300 6.5397777003e+00 4.8003498218e-05 1.7707819444e+00 -3.0670842969e+00 1.7707819444e+00 3.0670842969e+00 
88400 6.5397777004e+00 4.8083062326e-05 1.7707819444e+00 -3.0670842969e+00 1.7707819444e+00 3.0670842969e+00 
88500 6.5397777006e+00 4.8170893016e-05 1.7707819444e+00 -3.0670842969e+00 1.7707819444e+00 3.0670842969e+00 
88600 6.5397777007e+00 4.8266693982e-05 1.7707819444e+00 -3.0670842969e+00 1.7707819444e+00 3.0670842969e+00 
88700 6.5397777008e+00 4.8370164731e-05 1.7707819444e+00 -3.0670842969e+00 1.7707819444e+00 3.0670842969e+00 
88800 6.5397777009e+00 4.8481001179e-05 1.7707819444e+00 -3.0670842969e+00 1.7707819444e+00 3.0670842969e+00 
88900 6.5397777011e+00 4.8598896233e-05 1.7707819444e+00 -3.0670842969e+00 1.7707819444e+00 3.0670842969e+00 
89000 6.5397777012e+00 4.8723540370e-05 1.7707819444e+00 -3.0670842969e+00 1.7707819444e+00 3.0670842969e+00 
89100 6.5397777013e+00 4.8854622199e-05 1.7707819444e+00 -3.0670842969e+00 1.7707819444e+00 3.0670842969e+00 
89200 6.5397777014e+00 4.8991828998e-05 1.7707819444e+00 -3.0670842969e+00 1.7707819444e+00 3.0670842969e+00 
89300 6.5397777016e+00 4.9134847252e-05 1.7707819444e+00 -3.0670842969e+00 1.7707819444e+00 3.0670842969e+00 
89400 6.5397777017e+00 4.9283363161e-05 1.7707819444e+00 -3.0670842969e+00 1.7707819444e+00 3.0670842969e+00 
89500 6.5397777018e+00 4.9437063147e-05 1.7707819444e+00 -3.0670842969e+00 1.7707819444e+00 3.0670842969e+00 
89600 6.5397777019e+00 4.9595634351e-05 1.7707819444e+00 -3.0670842969e+00 1.7707819444e+00 3.0670842969e+00 
89700 6.5397777020e+00 4.9758765077e-05 1.7707819444e+00 -3.0670842969e+00 1.7707819444e+00 3.0670842969e+00 
89800 6.5397777021e+00 4.9926145269e-05 1.7707819444e+00 -3.0670842969e+00 1.7707819444e+00 3.0670842969e+00 
89900 6.5397777023e+00 5.0097466933e-05 1.7707819444e+00 -3.0670842969e+00 1.7707819444e+00 3.0670842969e+00 
90000 6.5397777024e+00 5.0272424576e-05 1.7707819444e+00 -3.0670842969e+00 1.7707819444e+00 3.0670842969e+00 
90100 6.5397777025e+00 5.0450715590e-05 1.7707819444e+00 -3.0670842969e+00 1.7707819444e+00 3.0670842969e+00 
90200 6.5397777026e+00 5.0632040657e-05 1.7707819444e+00 -3.0670842969e+00 1.7707819444e+00 3.0670842969e+00 
90300 6.5397777027e+00 5.0816104118e-05 1.7707819444e+00 -3.0670842969e+00 1.7707819444e+00 3.0670842969e+00 
90400 6.5397777028e+00 5.1002614315e-05 1.7707819444e+00 -3.0670842969e+00 1.7707819444e+00 3.0670842969e+00 
90500 6.5397777029e+00 5.1191283940e-05 1.7707819444e+00 -3.0670842969e+00 1.7707819444e+00 3.0670842969e+00 
90600 6.5397777030e+00 5.1381830358e-05 1.7707819444e+00 -3.0670842969e+00 1.7707819444e+00 3.0670842969e+00 
90700 6.5397777031e+00 5.1573975903e-05 1.7707819444e+00 -3.0670842969e+00 1.7707819444e+00 3.0670842969e+00 
90800 6.5397777032e+00 5.1767448168e-05 1.7707819444e+00 -3.0670842969e+00 1.7707819444e+00 3.0670842969e+00 
90900 6.5397777033e+00 5.1961980277e-05 1.7707819444e+00 -3.0670842969e+00 1.7707819444e+00 3.0670842969e+00 
91000 6.5397777034e+00 5.2157311140e-05 1.7707819444e+00 -3.0670842969e+00 1.7707819444e+00 3.0670842969e+00 
91100 6.5397777035e+00 5.2353185680e-05 1.7707819444e+00 -3.0670842969e+00 1.7707819444e+00 3.0670842969e+00 
91200 6.5397777036e+00 5.2549355068e-05 1.7707819444e+00 -3.0670842969e+00 1.7707819444e+00 3.0670842969e+00 
91300 6.5397777037e+00 5.2745576917e-05 1.7707819444e+00 -3.0670842969e+00 1.7707819444e+00 3.0670842969e+00 
91400 6.5397777038e+00 5.2941615475e-05 1.7707819444e+00 -3.0670842969e+00 1.7707819444e+00 3.0670842969e+00 
91500 6.5397777038e+00 5.3137241793e-05 1.7707819444e+00 -3.0670842969e+00 1.7707819444e+00 3.0670842969e+00 
91600 6.5397777039e+00 5.3332233882e-05 1.7707819444e+00 -3.0670842969e+00 1.7707819444e+00 3.0670842969e+00 
91700 6.5397777040e+00 5.3526376862e-05 1.7707819444e+00 -3.0670842969e+00 1.7707819444e+00 3.0670842969e+00 
91800 6.5397777041e+00 5.3719463074e-05 1.7707819444e+00 -3.0670842969e+00 1.7707819444e+00 3.0670842969e+00 
91900 6.5397777042e+00 5.3911292205e-05 1.7707819444e+00 -3.0670842969e+00 1.7707819444e+00 3.0670842969e+00 
92000 6.5397777043e+00 5.4101671367e-05 1.7707819444e+00 -3.0670842969e+00 1.7707819444e+00 3.0670842969e+00 
92100 6.5397777044e+00 5.4290415199e-05 1.7707819444e+00 -3.0670842969e+00 1.7707819444e+00 3.0670842969e+00 
92200 6.5397777044e+00 5.4477345917e-05 1.7707819444e+00 -3.0670842969e+00 1.7707819444e+00 3.0670842969e+00 
92300 6.5397777045e+00 5.4662293374e-05 1.7707819444e+00 -3.0670842969e+00 1.7707819444e+00 3.0670842969e+00 
92400 6.5397777046e+00 5.4845095104e-05 1.7707819444e+00 -3.0670842969e+00 1.7707819444e+00 3.0670842969e+00 
92500 6.5397777047e+00 5.5025596343e-05 1.7707819444e+00 -3.0670842969e+00 1.7707819444e+00 3.0670842969e+00 
92600 6.5397777048e+00 5.5203650047e-05 1.7707819444e+00 -3.0670842969e+00 1.7707819444e+00 3.0670842969e+00 
92700 6.5397777048e+00 5.5379116887e-05 1.7707819444e+00 -3.0670842969e+00 1.7707819444e+00 3.0670842969e+00 
92800 6.5397777049e+00 5.5551865251e-05 1.7707819444e+00 -3.0670842969e+00 1.7707819444e+00 3.0670842969e+00 
92900 6.5397777050e+00 5.5721771208e-05 1.7707819444e+00 -3.0670842969e+00 1.7707819444e+00 3.0670842969e+00 
93000 6.5397777051e+00 5.5888718483e-05 1.7707819444e+00 -3.0670842969e+00 1.7707819444e+00 3.0670842969e+00 
93100 6.5397777051e+00 5.6052598419e-05 1.7707819444e+00 -3.0670842969e+00 1.7707819444e+00 3.0670842969e+00 
93200 6.5397777052e+00 5.6213309903e-05 1.7707819444e+00 -3.0670842969e+00 1.7707819444e+00 3.0670842969e+00 
93300 6.5397777053e+00 5.6370759318e-05 1.7707819444e+00 -3.0670842969e+00 1.7707819444e+00 3.0670842969e+00 
93400 6.5397777053e+00 5.6524860467e-05 1.7707819444e+00 -3.0670842969e+00 1.7707819444e+00 3.0670842969e+00 
93500 6.5397777054e+00 5.6675534480e-05 1.7707819444e+00 -3.0670842969e+00 1.7707819444e+00 3.0670842969e+00 
93600 6.5397777055e+00 5.6822709728e-05 1.7707819444e+00 -3.0670842969e+00 1.7707819444e+00 3.0670842969e+00 
93700 6.5397777055e+00 5.6966321721e-05 1.7707819444e+00 -3.0670842969e+00 1.7707819444e+00 3.0670842969e+00 
93800 6.5397777056e+00 5.7106312999e-05 1.7707819444e+00 -3.0670842969e+00 1.7707819444e+00 3.0670842969e+00 
93900 6.5397777057e+00 5.7242633012e-05 1.7707819444e+00 -3.0670842969e+00 1.7707819444e+00 3.0670842969e+00 
94000 6.5397777057e+00 5.7375238001e-05 1.7707819444e+00 -3.0670842969e+00 1.7707819444e+00 3.0670842969e+00 
94100 6.5397777058e+00 5.7504090860e-05 1.7707819444e+00 -3.0670842969e+00 1.7707819444e+00 3.0670842969e+00 
94200 6.5397777059e+00 5.7629161004e-05 1.7707819444e+00 -3.0670842969e+00 1.7707819444e+00 3.0670842969e+00 
94300 6.5397777059e+00 5.7750424226e-05 1.7707819444e+00 -3.0670842969e+00 1.7707819444e+00 3.0670842969e+00 
94400 6.5397777060e+00 5.7867862542e-05 1.7707819444e+00 -3.0670842969e+00 1.7707819444e+00 3.0670842969e+00 
94500 6.5397777060e+00 5.7981464041e-05 1.7707819444e+00 -3.0670842969e+00 1.7707819444e+00 3.0670842969e+00 
94600 6.5397777061e+00 5.8091222730e-05 1.7707819444e+00 -3.0670842969e+00 1.7707819444e+00 3.0670842969e+00 
94700 6.5397777062e+00 5.8197138356e-05 1.7707819444e+00 -3.0670842969e+00 1.7707819444e+00 3.0670842969e+00 
94800 6.5397777062e+00 5.8299216253e-05 1.7707819444e+00 -3.0670842969e+00 1.7707819444e+00 3.0670842969e+00 
94900 6.5397777063e+00 5.8397467166e-05 1.7707819444e+00 -3.0670842969e+00 1.7707819444e+00 3.0670842969e+00 
95000 6.5397777063e+00 5.8491907070e-05 1.7707819444e+00 -3.0670842969e+00 1.7707819444e+00 3.0670842969e+00 
95100 6.5397777064e+00 5.8582557003e-05 1.7707819444e+00 -3.0670842969e+00 1.7707819444e+00 3.0670842969e+00 
95200 6.5397777064e+00 5.8669442877e-05 1.7707819444e+00 -3.0670842969e+00 1.7707819444e+00 3.0670842969e+00 
95300 6.5397777065e+00 5.8752595298e-05 1.7707819444e+00 -3.0670842969e+00 1.7707819444e+00 3.0670842969e+00 
95400 6.5397777066e+00 5.8832049381e-05 1.7707819444e+00 -3.0670842969e+00 1.7707819444e+00 3.0670842969e+00 
95500 6.5397777066e+00 5.8907844568e-05 1.7707819444e+00 -3.0670842969e+00 1.7707819444e+00 3.0670842969e+00 
95600 6.5397777067e+00 5.8980024439e-05 1.7707819444e+00 -3.0670842969e+00 1.7707819444e+00 3.0670842969e+00 
95700 6.5397777067e+00 5.9048636523e-05 1.7707819444e+00 -3.0670842969e+00 1.7707819444e+00 3.0670842969e+00 
95800 6.5397777068e+00 5.9113732102e-05 1.7707819444e+00 -3.0670842969e+00 1.7707819444e+00 3.0670842969e+00 
95900 6.5397777068e+00 5.9175366040e-05 1.7707819444e+00 -3.0670842969e+00 1.7707819444e+00 3.0670842969e+00 
96000 6.5397777069e+00 5.9233596578e-05 1.7707819444e+00 -3.0670842969e+00 1.7707819444e+00 3.0670842969e+00 
96100 6.5397777069e+00 5.9288485152e-05 1.7707819444e+00 -3.0670842969e+00 1.7707819444e+00 3.0670842969e+00 
96200 6.5397777070e+00 5.9340096209e-05 1.7707819444e+00 -3.0670842969e+00 1.7707819444e+00 3.0670842969e+00 
96300 6.5397777070e+00 5.9381911573e-05 1.7707819444e+00 -3.0670842969e+00 1.7707819444e+00 3.0670842969e+00 
96300 6.5397777070e+00 5.9381911573e-05 1.7707819444e+00 -3.0670842969e+00 1.7707819444e+00 3.0670842969e+00 
