# step Hamiltonian StressXX CellTensor1 CellTensor2 CellTensor3 CellTensor4 
0 5.1780847634e+00 3.7462074415e-02 1.7438352029e+00 -3.0204111715e+00 1.7438352029e+00 3.0204111715e+00 
100 5.1648086899e+00 3.8060977209e-02 1.7438352029e+00 -3.0204111715e+00 1.7438352029e+00 3.0204111715e+00 
200 5.1522453132e+00 3.7999868081e-02 1.7427440160e+00 -3.0185211802e+00 1.7427440160e+00 3.0185211802e+00 
300 5.1403954934e+00 3.8094934075e-02 1.7416538988e+00 -3.0166330419e+00 1.7416538988e+00 3.0166330419e+00 
400 5.1292155543e+00 3.8329129181e-02 1.7405603708e+00 -3.0147389959e+00 1.7405603708e+00 3.0147389959e+00 
500 5.1186646304e+00 3.8686618214e-02 1.7394594298e+00 -3.0128321102e+00 1.7394594298e+00 3.0128321102e+00 
600 5.1087044641e+00 3.9152687128e-02 1.7383475185e+00 -3.0109062232e+00 1.7383475185e+00 3.0109062232e+00 
700 5.0992992158e+00 3.9713659718e-02 1.7372214934e+00 -3.0089558906e+00 1.7372214934e+00 3.0089558906e+00 
800 5.0904152865e+00 4.0356820791e-02 1.7360785965e+00 -3.0069763351e+00 1.7360785965e+00 3.0069763351e+00 
900 5.0820211543e+00 4.1070345772e-02 1.7349164281e+00 -3.0049634003e+00 1.7349164281e+00 3.0049634003e+00 
1000 5.0740872234e+00 4.1843236667e-02 1.7337329223e+00 -3.0029135082e+00 1.7337329223e+00 3.0029135082e+00 
1100 5.0665856862e+00 4.2665264181e-02 1.7325263241e+00 -3.0008236188e+00 1.7325263241e+00 3.0008236188e+00 
1200 5.0594903987e+00 4.3526915757e-02 1.7312951680e+00 -2.9986911939e+00 1.7312951680e+00 2.9986911939e+00 
1300 5.0527767664e+00 4.4419349217e-02 1.7300382580e+00 -2.9965141619e+00 1.7300382580e+00 2.9965141619e+00 
1400 5.0464216422e+00 4.5334351624e-02 1.7287546491e+00 -2.9942908860e+00 1.7287546491e+00 2.9942908860e+00 
1500 5.0404032342e+00 4.6264302956e-02 1.7274436297e+00 -2.9920201339e+00 1.7274436297e+00 2.9920201339e+00 
1600 5.0347010227e+00 4.7202144123e-02 1.7261047055e+00 -2.9897010491e+00 1.7261047055e+00 2.9897010491e+00 
1700 5.0292956850e+00 4.8141348854e-02 1.7247375837e+00 -2.9873331247e+00 1.7247375837e+00 2.9873331247e+00 
1800 5.0241690287e+00 4.9075898935e-02 1.7233421584e+00 -2.9849161771e+00 1.7233421584e+00 2.9849161771e+00 
1900 5.0193039301e+00 5.0000262314e-02 1.7219184963e+00 -2.9824503222e+00 1.7219184963e+00 2.9824503222e+00 
2000 5.0146842785e+00 5.0909373550e-02 1.7204668240e+00 -2.9799359519e+00 1.7204668240e+00 2.9799359519e+00 
2100 5.0102949255e+00 5.1798616145e-02 1.7189875141e+00 -2.9773737120e+00 1.7189875141e+00 2.9773737120e+00 
2200 5.0061216375e+00 5.2663806293e-02 1.7174810738e+00 -2.9747644808e+00 1.7174810738e+00 2.9747644808e+00 
2300 5.0021510514e+00 5.3501177625e-02 1.7159481322e+00 -2.9721093481e+00 1.7159481322e+00 2.9721093481e+00 
2400 4.9983706335e+00 5.4307366589e-02 1.7143894292e+00 -2.9694095953e+00 1.7143894292e+00 2.9694095953e+00 
2500 4.9947686394e+00 5.5079398118e-02 1.7128058043e+00 -2.9666666765e+00 1.7128058043e+00 2.9666666765e+00 
2600 4.9913340762e+00 5.5814671336e-02 1.7111981856e+00 -2.9638821992e+00 1.7111981856e+00 2.9638821992e+00 
2700 4.9880566657e+00 5.6510945059e-02 1.7095675797e+00 -2.9610579070e+00 1.7095675797e+00 2.9610579070e+00 
2800 4.9849268085e+00 5.7166322948e-02 1.7079150615e+00 -2.9581956615e+00 1.7079150615e+00 2.9581956615e+00 
2900 4.9819355492e+00 5.7779238190e-02 1.7062417646e+00 -2.9552974264e+00 1.7062417646e+00 2.9552974264e+00 
3000 4.9790745419e+00 5.8348437657e-02 1.7045488723e+00 -2.9523652508e+00 1.7045488723e+00 2.9523652508e+00 
3100 4.9763360168e+00 5.8872965520e-02 1.7028376083e+00 -2.9494012546e+00 1.7028376083e+00 2.9494012546e+00 
3200 4.9737127470e+00 5.9352146357e-02 1.7011092287e+00 -2.9464076134e+00 1.7011092287e+00 2.9464076134e+00 
3300 4.9711980163e+00 5.9785567807e-02 1.6993650141e+00 -2.9433865450e+00 1.6993650141e+00 2.9433865450e+00 
3400 4.9687855874e+00 6.0173062870e-02 1.6976062618e+00 -2.9403402967e+00 1.6976062618e+00 2.9403402967e+00 
3500 4.9664696714e+00 6.0514691951e-02 1.6958342790e+00 -2.9372711324e+00 1.6958342790e+00 2.9372711324e+00 
3600 4.9642448978e+00 6.0810724788e-02 1.6940503762e+00 -2.9341813222e+00 1.6940503762e+00 2.9341813222e+00 
3700 4.9621062854e+00 6.1061622396e-02 1.6922558612e+00 -2.9310731311e+00 1.6922558612e+00 2.9310731311e+00 
3800 4.9600492148e+00 6.1268019151e-02 1.6904520335e+00 -2.9279488098e+00 1.6904520335e+00 2.9279488098e+00 
3900 4.9580694015e+00 6.1430705168e-02 1.6886401791e+00 -2.9248105858e+00 1.6886401791e+00 2.9248105858e+00 
4000 4.9561628706e+00 6.1550609082e-02 1.6868215659e+00 -2.9216606555e+00 1.6868215659e+00 2.9216606555e+00 
4100 4.9543259327e+00 6.1628781362e-02 1.6849974399e+00 -2.9185011766e+00 1.6849974399e+00 2.9185011766e+00 
4200 4.9525551610e+00 6.1666378254e-02 1.6831690211e+00 -2.9153342622e+00 1.6831690211e+00 2.9153342622e+00 
4300 4.9508473702e+00 6.1664646444e-02 1.6813375003e+00 -2.9121619752e+00 1.6813375003e+00 2.9121619752e+00 
4400 4.9491995959e+00 6.1624908519e-02 1.6795040366e+00 -2.9089863229e+00 1.6795040366e+00 2.9089863229e+00 
4500 4.9476090766e+00 6.1548549273e-02 1.6776697547e+00 -2.9058092535e+00 1.6776697547e+00 2.9058092535e+00 
4600 4.9460732359e+00 6.1437002907e-02 1.6758357430e+00 -2.9026326520e+00 1.6758357430e+00 2.9026326520e+00 
4700 4.9445896667e+00 6.1291741147e-02 1.6740030517e+00 -2.8994583376e+00 1.6740030517e+00 2.8994583376e+00 
4800 4.9431561166e+00 6.1114262293e-02 1.6721726919e+00 -2.8962880614e+00 1.6721726919e+00 2.8962880614e+00 
4900 4.9417704743e+00 6.0906081187e-02 1.6703456342e+00 -2.8931235047e+00 1.6703456342e+00 2.8931235047e+00 
5000 4.9404307575e+00 6.0668720108e-02 1.6685228082e+00 -2.8899662774e+00 1.6685228082e+00 2.8899662774e+00 
5100 4.9391351011e+00 6.0403700550e-02 1.6667051019e+00 -2.8868179177e+00 1.6667051019e+00 2.8868179177e+00 
5200 4.9378817481e+00 6.0112535866e-02 1.6648933613e+00 -2.8836798910e+00 1.6648933613e+00 2.8836798910e+00 
5300 4.9366690394e+00 5.9796724741e-02 1.6630883911e+00 -2.8805535908e+00 1.6630883911e+00 2.8805535908e+00 
5400 4.9354954061e+00 5.9457745441e-02 1.6612909538e+00 -2.8774403382e+00 1.6612909538e+00 2.8774403382e+00 
5500 4.9343593619e+00 5.9097050807e-02 1.6595017712e+00 -2.8743413829e+00 1.6595017712e+00 2.8743413829e+00 
5600 4.9332594962e+00 5.8716063937e-02 1.6577215239e+00 -2.8712579041e+00 1.6577215239e+00 2.8712579041e+00 
5700 4.9321944684e+00 5.8316174507e-02 1.6559508526e+00 -2.8681910115e+00 1.6559508526e+00 2.8681910115e+00 
5800 4.9311630023e+00 5.7898735688e-02 1.6541903586e+00 -2.8651417466e+00 1.6541903586e+00 2.8651417466e+00 
5900 4.9301638813e+00 5.7465061602e-02 1.6524406049e+00 -2.8621110841e+00 1.6524406049e+00 2.8621110841e+00 
6000 4.9291959442e+00 5.7016425275e-02 1.6507021166e+00 -2.8590999341e+00 1.6507021166e+00 2.8590999341e+00 
6100 4.9282580811e+00 5.6554057039e-02 1.6489753825e+00 -2.8561091429e+00 1.6489753825e+00 2.8561091429e+00 
6200 4.9273492300e+00 5.6079143339e-02 1.6472608558e+00 -2.8531394956e+00 1.6472608558e+00 2.8531394956e+00 
6300 4.9264683739e+00 5.5592825897e-02 1.6455589555e+00 -2.8501917178e+00 1.6455589555e+00 2.8501917178e+00 
6400 4.9256145377e+00 5.5096201208e-02 1.6438700672e+00 -2.8472664775e+00 1.6438700672e+00 2.8472664775e+00 
6500 4.9247867860e+00 5.4590320317e-02 1.6421945446e+00 -2.8443643871e+00 1.6421945446e+00 2.8443643871e+00 
6600 4.9239842205e+00 5.4076188846e-02 1.6405327104e+00 -2.8414860058e+00 1.6405327104e+00 2.8414860058e+00 
6700 4.9232059781e+00 5.3554767250e-02 1.6388848577e+00 -2.8386318412e+00 1.6388848577e+00 2.8386318412e+00 
6800 4.9224512292e+00 5.3026971256e-02 1.6372512511e+00 -2.8358023517e+00 1.6372512511e+00 2.8358023517e+00 
6900 4.9217191758e+00 5.2493672472e-02 1.6356321282e+00 -2.8329979485e+00 1.6356321282e+00 2.8329979485e+00 
7000 4.9210090500e+00 5.1955699136e-02 1.6340277002e+00 -2.8302189977e+00 1.6340277002e+00 2.8302189977e+00 
7100 4.9203201125e+00 5.1413836985e-02 1.6324381535e+00 -2.8274658221e+00 1.6324381535e+00 2.8274658221e+00 
7200 4.9196516517e+00 5.0868830225e-02 1.6308636509e+00 -2.8247387035e+00 1.6308636509e+00 2.8247387035e+00 
7300 4.9190029818e+00 5.0321382580e-02 1.6293043324e+00 -2.8220378848e+00 1.6293043324e+00 2.8220378848e+00 
7400 4.9183734424e+00 4.9772158414e-02 1.6277603168e+00 -2.8193635713e+00 1.6277603168e+00 2.8193635713e+00 
7500 4.9177623970e+00 4.9221783897e-02 1.6262317024e+00 -2.8167159334e+00 1.6262317024e+00 2.8167159334e+00 
7600 4.9171692319e+00 4.8670848219e-02 1.6247185680e+00 -2.8140951077e+00 1.6247185680e+00 2.8140951077e+00 
7700 4.9165933560e+00 4.8119904830e-02 1.6232209744e+00 -2.8115011995e+00 1.6232209744e+00 2.8115011995e+00 
7800 4.9160341990e+00 4.7569472699e-02 1.6217389650e+00 -2.8089342839e+00 1.6217389650e+00 2.8089342839e+00 
7900 4.9154912113e+00 4.7020037583e-02 1.6202725669e+00 -2.8063944080e+00 1.6202725669e+00 2.8063944080e+00 
8000 4.9149638628e+00 4.6472053305e-02 1.6188217921e+00 -2.8038815923e+00 1.6188217921e+00 2.8038815923e+00 
8100 4.9144516425e+00 4.5925943021e-02 1.6173866378e+00 -2.8013958322e+00 1.6173866378e+00 2.8013958322e+00 
8200 4.9139540572e+00 4.5382100485e-02 1.6159670880e+00 -2.7989370998e+00 1.6159670880e+00 2.7989370998e+00 
8300 4.9134706317e+00 4.4840891296e-02 1.6145631138e+00 -2.7965053452e+00 1.6145631138e+00 2.7965053452e+00 
8400 4.9130009072e+00 4.4302654134e-02 1.6131746745e+00 -2.7941004977e+00 1.6131746745e+00 2.7941004977e+00 
8500 4.9125444415e+00 4.3767701963e-02 1.6118017183e+00 -2.7917224678e+00 1.6118017183e+00 2.7917224678e+00 
8600 4.9121008078e+00 4.3236323224e-02 1.6104441831e+00 -2.7893711478e+00 1.6104441831e+00 2.7893711478e+00 
8700 4.9116695945e+00 4.2708782992e-02 1.6091019971e+00 -2.7870464136e+00 1.6091019971e+00 2.7870464136e+00 
8800 4.9112504044e+00 4.2185324107e-02 1.6077750797e+00 -2.7847481253e+00 1.6077750797e+00 2.7847481253e+00 
8900 4.9108428543e+00 4.1666168277e-02 1.6064633421e+00 -2.7824761290e+00 1.6064633421e+00 2.7824761290e+00 
9000 4.9104465745e+00 4.1151517148e-02 1.6051666876e+00 -2.7802302576e+00 1.6051666876e+00 2.7802302576e+00 
9100 4.9100612082e+00 4.0641553339e-02 1.6038850128e+00 -2.7780103316e+00 1.6038850128e+00 2.7780103316e+00 
9200 4.9096864111e+00 4.0136441449e-02 1.6026182075e+00 -2.7758161606e+00 1.6026182075e+00 2.7758161606e+00 
9300 4.9093218508e+00 3.9636329028e-02 1.6013661560e+00 -2.7736475438e+00 1.6013661560e+00 2.7736475438e+00 
9400 4.9089672067e+00 3.9141347513e-02 1.6001287370e+00 -2.7715042711e+00 1.6001287370e+00 2.7715042711e+00 
9500 4.9086221691e+00 3.8651613135e-02 1.5989058242e+00 -2.7693861240e+00 1.5989058242e+00 2.7693861240e+00 
9600 4.9082864392e+00 3.8167227783e-02 1.5976972871e+00 -2.7672928764e+00 1.5976972871e+00 2.7672928764e+00 
9700 4.9079597285e+00 3.7688279845e-02 1.5965029912e+00 -2.7652242951e+00 1.5965029912e+00 2.7652242951e+00 
9800 4.9076417583e+00 3.7214845009e-02 1.5953227982e+00 -2.7631801409e+00 1.5953227982e+00 2.7631801409e+00 
9900 4.9073322596e+00 3.6746987035e-02 1.5941565669e+00 -2.7611601691e+00 1.5941565669e+00 2.7611601691e+00 
10000 4.9070309727e+00 3.6284758491e-02 1.5930041532e+00 -2.7591641301e+00 1.5930041532e+00 2.7591641301e+00 
10100 4.9067376466e+00 3.5828201461e-02 1.5918654107e+00 -2.7571917701e+00 1.5918654107e+00 2.7571917701e+00 
10200 4.9064520389e+00 3.5377348219e-02 1.5907401907e+00 -2.7552428319e+00 1.5907401907e+00 2.7552428319e+00 
10300 4.9061739155e+00 3.4932221878e-02 1.5896283427e+00 -2.7533170548e+00 1.5896283427e+00 2.7533170548e+00 
10400 4.9059030502e+00 3.4492836999e-02 1.5885297150e+00 -2.7514141758e+00 1.5885297150e+00 2.7514141758e+00 
10500 4.9056392243e+00 3.4059200185e-02 1.5874441544e+00 -2.7495339297e+00 1.5874441544e+00 2.7495339297e+00 
10600 4.9053822268e+00 3.3631310636e-02 1.5863715069e+00 -2.7476760496e+00 1.5863715069e+00 2.7476760496e+00 
10700 4.9051318533e+00 3.3209160683e-02 1.5853116176e+00 -2.7458402675e+00 1.5853116176e+00 2.7458402675e+00 
10800 4.9048879065e+00 3.2792736290e-02 1.5842643314e+00 -2.7440263145e+00 1.5842643314e+00 2.7440263145e+00 
10900 4.9046501957e+00 3.2382017541e-02 1.5832294926e+00 -2.7422339212e+00 1.5832294926e+00 2.7422339212e+00 
11000 4.9044185365e+00 3.1976979089e-02 1.5822069456e+00 -2.7404628179e+00 1.5822069456e+00 2.7404628179e+00 
11100 4.9041927505e+00 3.1577590593e-02 1.5811965351e+00 -2.7387127355e+00 1.5811965351e+00 2.7387127355e+00 
11200 4.9039726652e+00 3.1183817124e-02 1.5801981056e+00 -2.7369834049e+00 1.5801981056e+00 2.7369834049e+00 
11300 4.9037581138e+00 3.0795619555e-02 1.5792115024e+00 -2.7352745580e+00 1.5792115024e+00 2.7352745580e+00 
11400 4.9035489351e+00 3.0412954924e-02 1.5782365713e+00 -2.7335859278e+00 1.5782365713e+00 2.7335859278e+00 
11500 4.9033449728e+00 3.0035776782e-02 1.5772731587e+00 -2.7319172483e+00 1.5772731587e+00 2.7319172483e+00 
11600 4.9031460760e+00 2.9664035522e-02 1.5763211120e+00 -2.7302682551e+00 1.5763211120e+00 2.7302682551e+00 
11700 4.9029520986e+00 2.9297678678e-02 1.5753802795e+00 -2.7286386854e+00 1.5753802795e+00 2.7286386854e+00 
11800 4.9027628992e+00 2.8936651225e-02 1.5744505105e+00 -2.7270282783e+00 1.5744505105e+00 2.7270282783e+00 
11900 4.9025783409e+00 2.8580895844e-02 1.5735316555e+00 -2.7254367747e+00 1.5735316555e+00 2.7254367747e+00 
12000 4.9023982914e+00 2.8230353181e-02 1.5726235662e+00 -2.7238639179e+00 1.5726235662e+00 2.7238639179e+00 
12100 4.9022226223e+00 2.7884962087e-02 1.5717260957e+00 -2.7223094533e+00 1.5717260957e+00 2.7223094533e+00 
12200 4.9020512095e+00 2.7544659843e-02 1.5708390984e+00 -2.7207731289e+00 1.5708390984e+00 2.7207731289e+00 
12300 4.9018839329e+00 2.7209382374e-02 1.5699624301e+00 -2.7192546949e+00 1.5699624301e+00 2.7192546949e+00 
12400 4.9017206761e+00 2.6879064439e-02 1.5690959483e+00 -2.7177539044e+00 1.5690959483e+00 2.7177539044e+00 
12500 4.9015613263e+00 2.6553639825e-02 1.5682395119e+00 -2.7162705130e+00 1.5682395119e+00 2.7162705130e+00 
12600 4.9014057745e+00 2.6233041512e-02 1.5673929814e+00 -2.7148042793e+00 1.5673929814e+00 2.7148042793e+00 
12700 4.9012539149e+00 2.5917201837e-02 1.5665562192e+00 -2.7133549645e+00 1.5665562192e+00 2.7133549645e+00 
12800 4.9011056451e+00 2.5606052640e-02 1.5657290890e+00 -2.7119223330e+00 1.5657290890e+00 2.7119223330e+00 
12900 4.9009608659e+00 2.5299525407e-02 1.5649114564e+00 -2.7105061518e+00 1.5649114564e+00 2.7105061518e+00 
13000 4.9008194811e+00 2.4997551396e-02 1.5641031887e+00 -2.7091061911e+00 1.5641031887e+00 2.7091061911e+00 
13100 4.9006813977e+00 2.4700061754e-02 1.5633041551e+00 -2.7077222242e+00 1.5633041551e+00 2.7077222242e+00 
13200 4.9005465253e+00 2.4406987632e-02 1.5625142262e+00 -2.7063540274e+00 1.5625142262e+00 2.7063540274e+00 
13300 4.9004147766e+00 2.4118260283e-02 1.5617332748e+00 -2.7050013799e+00 1.5617332748e+00 2.7050013799e+00 
13400 4.9002860667e+00 2.3833811156e-02 1.5609611753e+00 -2.7036640642e+00 1.5609611753e+00 2.7036640642e+00 
13500 4.9001603135e+00 2.3553571981e-02 1.5601978037e+00 -2.7023418659e+00 1.5601978037e+00 2.7023418659e+00 
13600 4.9000374372e+00 2.3277474850e-02 1.5594430381e+00 -2.7010345735e+00 1.5594430381e+00 2.7010345735e+00 
13700 4.8999173608e+00 2.3005452288e-02 1.5586967583e+00 -2.6997419790e+00 1.5586967583e+00 2.6997419790e+00 
13800 4.8998000093e+00 2.2737437316e-02 1.5579588458e+00 -2.6984638771e+00 1.5579588458e+00 2.6984638771e+00 
13900 4.8996853102e+00 2.2473363513e-02 1.5572291840e+00 -2.6972000657e+00 1.5572291840e+00 2.6972000657e+00 
14000 4.8995731930e+00 2.2213165071e-02 1.5565076580e+00 -2.6959503460e+00 1.5565076580e+00 2.6959503460e+00 
14100 4.8994635895e+00 2.1956776839e-02 1.5557941547e+00 -2.6947145221e+00 1.5557941547e+00 2.6947145221e+00 
14200 4.8993564335e+00 2.1704134370e-02 1.5550885628e+00 -2.6934924010e+00 1.5550885628e+00 2.6934924010e+00 
14300 4.8992516607e+00 2.1455173958e-02 1.5543907726e+00 -2.6922837929e+00 1.5543907726e+00 2.6922837929e+00 
14400 4.8991492090e+00 2.1209832675e-02 1.5537006763e+00 -2.6910885111e+00 1.5537006763e+00 2.6910885111e+00 
14500 4.8990490178e+00 2.0968048397e-02 1.5530181678e+00 -2.6899063717e+00 1.5530181678e+00 2.6899063717e+00 
14600 4.8989510285e+00 2.0729759834e-02 1.5523431426e+00 -2.6887371937e+00 1.5523431426e+00 2.6887371937e+00 
14700 4.8988551843e+00 2.0494906553e-02 1.5516754979e+00 -2.6875807992e+00 1.5516754979e+00 2.6875807992e+00 
14800 4.8987614300e+00 2.0263428994e-02 1.5510151326e+00 -2.6864370130e+00 1.5510151326e+00 2.6864370130e+00 
14900 4.8986697119e+00 2.0035268491e-02 1.5503619473e+00 -2.6853056628e+00 1.5503619473e+00 2.6853056628e+00 
15000 4.8985799782e+00 1.9810367281e-02 1.5497158441e+00 -2.6841865793e+00 1.5497158441e+00 2.6841865793e+00 
15100 4.8984921784e+00 1.9588668521e-02 1.5490767268e+00 -2.6830795956e+00 1.5490767268e+00 2.6830795956e+00 
15200 4.8984062634e+00 1.9370116288e-02 1.5484445007e+00 -2.6819845478e+00 1.5484445007e+00 2.6819845478e+00 
15300 4.8983221858e+00 1.9154655593e-02 1.5478190726e+00 -2.6809012747e+00 1.5478190726e+00 2.6809012747e+00 
15400 4.8982398994e+00 1.8942232381e-02 1.5472003511e+00 -2.6798296176e+00 1.5472003511e+00 2.6798296176e+00 
15500 4.8981593594e+00 1.8732793533e-02 1.5465882461e+00 -2.6787694206e+00 1.5465882461e+00 2.6787694206e+00 
15600 4.8980805223e+00 1.8526286869e-02 1.5459826689e+00 -2.6777205302e+00 1.5459826689e+00 2.6777205302e+00 
15700 4.8980033458e+00 1.8322661142e-02 1.5453835325e+00 -2.6766827955e+00 1.5453835325e+00 2.6766827955e+00 
15800 4.8979277888e+00 1.8121866039e-02 1.5447907512e+00 -2.6756560682e+00 1.5447907512e+00 2.6756560682e+00 
15900 4.8978538116e+00 1.7923852176e-02 1.5442042408e+00 -2.6746402022e+00 1.5442042408e+00 2.6746402022e+00 
16000 4.8977813753e+00 1.7728571091e-02 1.5436239183e+00 -2.6736350542e+00 1.5436239183e+00 2.6736350542e+00 
16100 4.8977104424e+00 1.7535975237e-02 1.5430497022e+00 -2.6726404829e+00 1.5430497022e+00 2.6726404829e+00 
16200 4.8976409763e+00 1.7346017977e-02 1.5424815126e+00 -2.6716563495e+00 1.5424815126e+00 2.6716563495e+00 
16300 4.8975729415e+00 1.7158653573e-02 1.5419192704e+00 -2.6706825174e+00 1.5419192704e+00 2.6706825174e+00 
16400 4.8975063034e+00 1.6973837175e-02 1.5413628981e+00 -2.6697188525e+00 1.5413628981e+00 2.6697188525e+00 
16500 4.8974410286e+00 1.6791524816e-02 1.5408123196e+00 -2.6687652225e+00 1.5408123196e+00 2.6687652225e+00 
16600 4.8973770843e+00 1.6611673394e-02 1.5402674598e+00 -2.6678214976e+00 1.5402674598e+00 2.6678214976e+00 
16700 4.8973144390e+00 1.6434240667e-02 1.5397282449e+00 -2.6668875500e+00 1.5397282449e+00 2.6668875500e+00 
16800 4.8972530619e+00 1.6259185235e-02 1.5391946023e+00 -2.6659632539e+00 1.5391946023e+00 2.6659632539e+00 
16900 4.8971929228e+00 1.6086466533e-02 1.5386664607e+00 -2.6650484858e+00 1.5386664607e+00 2.6650484858e+00 
17000 4.8971339928e+00 1.5916044814e-02 1.5381437497e+00 -2.6641431239e+00 1.5381437497e+00 2.6641431239e+00 
17100 4.8970762435e+00 1.5747881137e-02 1.5376264004e+00 -2.6632470486e+00 1.5376264004e+00 2.6632470486e+00 
17200 4.8970196473e+00 1.5581937353e-02 1.5371143447e+00 -2.6623601421e+00 1.5371143447e+00 2.6623601421e+00 
17300 4.8969641775e+00 1.5418176094e-02 1.5366075158e+00 -2.6614822886e+00 1.5366075158e+00 2.6614822886e+00 
17400 4.8969098079e+00 1.5256560755e-02 1.5361058478e+00 -2.6606133742e+00 1.5361058478e+00 2.6606133742e+00 
17500 4.8968565132e+00 1.5097055481e-02 1.5356092759e+00 -2.6597532865e+00 1.5356092759e+00 2.6597532865e+00 
17600 4.8968042687e+00 1.4939625154e-02 1.5351177365e+00 -2.6589019152e+00 1.5351177365e+00 2.6589019152e+00 
17700 4.8967530505e+00 1.4784235378e-02 1.5346311668e+00 -2.6580591518e+00 1.5346311668e+00 2.6580591518e+00 
17800 4.8967028350e+00 1.4630852466e-02 1.5341495051e+00 -2.6572248892e+00 1.5341495051e+00 2.6572248892e+00 
17900 4.8966535996e+00 1.4479443423e-02 1.5336726906e+00 -2.6563990223e+00 1.5336726906e+00 2.6563990223e+00 
18000 4.8966053221e+00 1.4329975934e-02 1.5332006635e+00 -2.6555814474e+00 1.5332006635e+00 2.6555814474e+00 
18100 4.8965579809e+00 1.4182418349e-02 1.5327333650e+00 -2.6547720627e+00 1.5327333650e+00 2.6547720627e+00 
18200 4.8965115551e+00 1.4036739667e-02 1.5322707371e+00 -2.6539707676e+00 1.5322707371e+00 2.6539707676e+00 
18300 4.8964660242e+00 1.3892909528e-02 1.5318127227e+00 -2.6531774635e+00 1.5318127227e+00 2.6531774635e+00 
18400 4.8964213683e+00 1.3750898191e-02 1.5313592658e+00 -2.6523920529e+00 1.5313592658e+00 2.6523920529e+00 
18500 4.8963775680e+00 1.3610676526e-02 1.5309103108e+00 -2.6516144402e+00 1.5309103108e+00 2.6516144402e+00 
18600 4.8963346044e+00 1.3472215998e-02 1.5304658035e+00 -2.6508445308e+00 1.5304658035e+00 2.6508445308e+00 
18700 4.8962924592e+00 1.3335488654e-02 1.5300256901e+00 -2.6500822321e+00 1.5300256901e+00 2.6500822321e+00 
18800 4.8962511143e+00 1.3200467110e-02 1.5295899178e+00 -2.6493274524e+00 1.5295899178e+00 2.6493274524e+00 
18900 4.8962105523e+00 1.3067124538e-02 1.5291584346e+00 -2.6485801016e+00 1.5291584346e+00 2.6485801016e+00 
19000 4.8961707561e+00 1.2935434653e-02 1.5287311893e+00 -2.6478400910e+00 1.5287311893e+00 2.6478400910e+00 
19100 4.8961317093e+00 1.2805371700e-02 1.5283081313e+00 -2.6471073331e+00 1.5283081313e+00 2.6471073331e+00 
19200 4.8960933956e+00 1.2676910440e-02 1.5278892110e+00 -2.6463817418e+00 1.5278892110e+00 2.6463817418e+00 
19300 4.8960557991e+00 1.2550026142e-02 1.5274743794e+00 -2.6456632323e+00 1.5274743794e+00 2.6456632323e+00 
19400 4.8960189047e+00 1.2424694568e-02 1.5270635881e+00 -2.6449517209e+00 1.5270635881e+00 2.6449517209e+00 
19500 4.8959826972e+00 1.2300891960e-02 1.5266567896e+00 -2.6442471253e+00 1.5266567896e+00 2.6442471253e+00 
19600 4.8959471621e+00 1.2178595032e-02 1.5262539371e+00 -2.6435493643e+00 1.5262539371e+00 2.6435493643e+00 
19700 4.8959122850e+00 1.2057780955e-02 1.5258549843e+00 -2.6428583578e+00 1.5258549843e+00 2.6428583578e+00 
19800 4.8958780522e+00 1.1938427351e-02 1.5254598858e+00 -2.6421740271e+00 1.5254598858e+00 2.6421740271e+00 
19900 4.8958444499e+00 1.1820512275e-02 1.5250685967e+00 -2.6414962945e+00 1.5250685967e+00 2.6414962945e+00 
20000 4.8958114650e+00 1.1704014211e-02 1.5246810728e+00 -2.6408250834e+00 1.5246810728e+00 2.6408250834e+00 
20100 4.8957790846e+00 1.1588912058e-02 1.5242972704e+00 -2.6401603182e+00 1.5242972704e+00 2.6401603182e+00 
20200 4.8957472961e+00 1.1475185121e-02 1.5239171467e+00 -2.6395019247e+00 1.5239171467e+00 2.6395019247e+00 
20300 4.8957160872e+00 1.1362813101e-02 1.5235406593e+00 -2.6388498293e+00 1.5235406593e+00 2.6388498293e+00 
20400 4.8956854458e+00 1.1251776086e-02 1.5231677664e+00 -2.6382039599e+00 1.5231677664e+00 2.6382039599e+00 
20500 4.8956553603e+00 1.1142054541e-02 1.5227984269e+00 -2.6375642451e+00 1.5227984269e+00 2.6375642451e+00 
20600 4.8956258192e+00 1.1033629297e-02 1.5224326002e+00 -2.6369306146e+00 1.5224326002e+00 2.6369306146e+00 
20700 4.8955968114e+00 1.0926481547e-02 1.5220702461e+00 -2.6363029990e+00 1.5220702461e+00 2.6363029990e+00 
20800 4.8955683260e+00 1.0820592831e-02 1.5217113254e+00 -2.6356813300e+00 1.5217113254e+00 2.6356813300e+00 
20900 4.8955403523e+00 1.0715945033e-02 1.5213557990e+00 -2.6350655402e+00 1.5213557990e+00 2.6350655402e+00 
21000 4.8955128799e+00 1.0612520369e-02 1.5210036285e+00 -2.6344555631e+00 1.5210036285e+00 2.6344555631e+00 
21100 4.8954858987e+00 1.0510301381e-02 1.5206547761e+00 -2.6338513330e+00 1.5206547761e+00 2.6338513330e+00 
21200 4.8954593988e+00 1.0409270930e-02 1.5203092045e+00 -2.6332527854e+00 1.5203092045e+00 2.6332527854e+00 
21300 4.8954333705e+00 1.0309412185e-02 1.5199668768e+00 -2.6326598564e+00 1.5199668768e+00 2.6326598564e+00 
21400 4.8954078043e+00 1.0210708617e-02 1.5196277566e+00 -2.6320724830e+00 1.5196277566e+00 2.6320724830e+00 
21500 4.8953826911e+00 1.0113143995e-02 1.5192918081e+00 -2.6314906032e+00 1.5192918081e+00 2.6314906032e+00 
21600 4.8953580216e+00 1.0016702373e-02 1.5189589960e+00 -2.6309141557e+00 1.5189589960e+00 2.6309141557e+00 
21700 4.8953337873e+00 9.9213680903e-03 1.5186292853e+00 -2.6303430800e+00 1.5186292853e+00 2.6303430800e+00 
21800 4.8953099793e+00 9.8271257579e-03 1.5183026417e+00 -2.6297773166e+00 1.5183026417e+00 2.6297773166e+00 
21900 4.8952865893e+00 9.7339602565e-03 1.5179790311e+00 -2.6292168066e+00 1.5179790311e+00 2.6292168066e+00 
22000 4.8952636091e+00 9.6418567290e-03 1.5176584200e+00 -2.6286614920e+00 1.5176584200e+00 2.6286614920e+00 
22100 4.8952410306e+00 9.5508005742e-03 1.5173407754e+00 -2.6281113154e+00 1.5173407754e+00 2.6281113154e+00 
22200 4.8952188459e+00 9.4607774411e-03 1.5170260646e+00 -2.6275662203e+00 1.5170260646e+00 2.6275662203e+00 
22300 4.8951970474e+00 9.3717732231e-03 1.5167142554e+00 -2.6270261509e+00 1.5167142554e+00 2.6270261509e+00 
22400 4.8951756275e+00 9.2837740525e-03 1.5164053160e+00 -2.6264910522e+00 1.5164053160e+00 2.6264910522e+00 
22500 4.8951545788e+00 9.1967662949e-03 1.5160992151e+00 -2.6259608699e+00 1.5160992151e+00 2.6259608699e+00 
22600 4.8951338943e+00 9.1107365441e-03 1.5157959216e+00 -2.6254355502e+00 1.5157959216e+00 2.6254355502e+00 
22700 4.8951135667e+00 9.0256716170e-03 1.5154954051e+00 -2.6249150402e+00 1.5154954051e+00 2.6249150402e+00 
22800 4.8950935893e+00 8.9415585486e-03 1.5151976353e+00 -2.6243992878e+00 1.5151976353e+00 2.6243992878e+00 
22900 4.8950739553e+00 8.8583845870e-03 1.5149025824e+00 -2.6238882412e+00 1.5149025824e+00 2.6238882412e+00 
23000 4.8950546582e+00 8.7761371890e-03 1.5146102171e+00 -2.6233818496e+00 1.5146102171e+00 2.6233818496e+00 
23100 4.8950356915e+00 8.6948040152e-03 1.5143205103e+00 -2.6228800627e+00 1.5143205103e+00 2.6228800627e+00 
23200 4.8950170488e+00 8.6143729260e-03 1.5140334334e+00 -2.6223828309e+00 1.5140334334e+00 2.6223828309e+00 
23300 4.8949987242e+00 8.5348319770e-03 1.5137489580e+00 -2.6218901052e+00 1.5137489580e+00 2.6218901052e+00 
23400 4.8949807114e+00 8.4561694150e-03 1.5134670564e+00 -2.6214018372e+00 1.5134670564e+00 2.6214018372e+00 
23500 4.8949630046e+00 8.3783736736e-03 1.5131877008e+00 -2.6209179792e+00 1.5131877008e+00 2.6209179792e+00 
23600 4.8949455981e+00 8.3014333700e-03 1.5129108641e+00 -2.6204384839e+00 1.5129108641e+00 2.6204384839e+00 
23700 4.8949284861e+00 8.2253373003e-03 1.5126365193e+00 -2.6199633049e+00 1.5126365193e+00 2.6199633049e+00 
23800 4.8949116632e+00 8.1500744364e-03 1.5123646401e+00 -2.6194923962e+00 1.5123646401e+00 2.6194923962e+00 
23900 4.8948951239e+00 8.0756339221e-03 1.5120952000e+00 -2.6190257123e+00 1.5120952000e+00 2.6190257123e+00 
24000 4.8948788630e+00 8.0020050697e-03 1.5118281733e+00 -2.6185632084e+00 1.5118281733e+00 2.6185632084e+00 
24100 4.8948628752e+00 7.9291773568e-03 1.5115635344e+00 -2.6181048404e+00 1.5115635344e+00 2.6181048404e+00 
24200 4.8948471554e+00 7.8571404225e-03 1.5113012580e+00 -2.6176505644e+00 1.5113012580e+00 2.6176505644e+00 
24300 4.8948316988e+00 7.7858840645e-03 1.5110413192e+00 -2.6172003373e+00 1.5110413192e+00 2.6172003373e+00 
24400 4.8948165004e+00 7.7153982361e-03 1.5107836935e+00 -2.6167541164e+00 1.5107836935e+00 2.6167541164e+00 
24500 4.8948015554e+00 7.6456730427e-03 1.5105283565e+00 -2.6163118597e+00 1.5105283565e+00 2.6163118597e+00 
24600 4.8947868593e+00 7.5766987394e-03 1.5102752841e+00 -2.6158735255e+00 1.5102752841e+00 2.6158735255e+00 
24700 4.8947724073e+00 7.5084657276e-03 1.5100244527e+00 -2.6154390728e+00 1.5100244527e+00 2.6154390728e+00 
24800 4.8947581951e+00 7.4409645527e-03 1.5097758389e+00 -2.6150084610e+00 1.5097758389e+00 2.6150084610e+00 
24900 4.8947442183e+00 7.3741859010e-03 1.5095294194e+00 -2.6145816500e+00 1.5095294194e+00 2.6145816500e+00 
25000 4.8947304725e+00 7.3081205972e-03 1.5092851716e+00 -2.6141586003e+00 1.5092851716e+00 2.6141586003e+00 
25100 4.8947169536e+00 7.2427596017e-03 1.5090430727e+00 -2.6137392727e+00 1.5090430727e+00 2.6137392727e+00 
25200 4.8947036574e+00 7.1780940083e-03 1.5088031005e+00 -2.6133236286e+00 1.5088031005e+00 2.6133236286e+00 
25300 4.8946905799e+00 7.1141150417e-03 1.5085652329e+00 -2.6129116300e+00 1.5085652329e+00 2.6129116300e+00 
25400 4.8946777171e+00 7.0508140550e-03 1.5083294483e+00 -2.6125032391e+00 1.5083294483e+00 2.6125032391e+00 
25500 4.8946650652e+00 6.9881825273e-03 1.5080957251e+00 -2.6120984186e+00 1.5080957251e+00 2.6120984186e+00 
25600 4.8946526204e+00 6.9262120618e-03 1.5078640421e+00 -2.6116971318e+00 1.5078640421e+00 2.6116971318e+00 
25700 4.8946403789e+00 6.8648943834e-03 1.5076343783e+00 -2.6112993424e+00 1.5076343783e+00 2.6112993424e+00 
25800 4.8946283371e+00 6.8042213364e-03 1.5074067129e+00 -2.6109050145e+00 1.5074067129e+00 2.6109050145e+00 
25900 4.8946164915e+00 6.7441848826e-03 1.5071810256e+00 -2.6105141126e+00 1.5071810256e+00 2.6105141126e+00 
26000 4.8946048385e+00 6.6847770993e-03 1.5069572961e+00 -2.6101266017e+00 1.5069572961e+00 2.6101266017e+00 
26100 4.8945933746e+00 6.6259901770e-03 1.5067355044e+00 -2.6097424472e+00 1.5067355044e+00 2.6097424472e+00 
26200 4.8945820966e+00 6.5678164180e-03 1.5065156307e+00 -2.6093616148e+00 1.5065156307e+00 2.6093616148e+00 
26300 4.8945710012e+00 6.5102482340e-03 1.5062976556e+00 -2.6089840708e+00 1.5062976556e+00 2.6089840708e+00 
26400 4.8945600850e+00 6.4532781444e-03 1.5060815598e+00 -2.6086097819e+00 1.5060815598e+00 2.6086097819e+00 
26500 4.8945493450e+00 6.3968987746e-03 1.5058673242e+00 -2.6082387150e+00 1.5058673242e+00 2.6082387150e+00 
26600 4.8945387780e+00 6.3411028542e-03 1.5056549301e+00 -2.6078708375e+00 1.5056549301e+00 2.6078708375e+00 
26700 4.8945283810e+00 6.2858832153e-03 1.5054443587e+00 -2.6075061173e+00 1.5054443587e+00 2.6075061173e+00 
26800 4.8945181510e+00 6.2312327905e-03 1.5052355919e+00 -2.6071445225e+00 1.5052355919e+00 2.6071445225e+00 
26900 4.8945080851e+00 6.1771446119e-03 1.5050286113e+00 -2.6067860217e+00 1.5050286113e+00 2.6067860217e+00 
27000 4.8944981804e+00 6.1236118088e-03 1.5048233991e+00 -2.6064305837e+00 1.5048233991e+00 2.6064305837e+00 
27100 4.8944884341e+00 6.0706276067e-03 1.5046199376e+00 -2.6060781780e+00 1.5046199376e+00 2.6060781780e+00 
27200 4.8944788434e+00 6.0181853252e-03 1.5044182092e+00 -2.6057287741e+00 1.5044182092e+00 2.6057287741e+00 
27300 4.8944694056e+00 5.9662783772e-03 1.5042181966e+00 -2.6053823421e+00 1.5042181966e+00 2.6053823421e+00 
27400 4.8944601181e+00 5.9149002666e-03 1.5040198827e+00 -2.6050388524e+00 1.5040198827e+00 2.6050388524e+00 
27500 4.8944509783e+00 5.8640445876e-03 1.5038232506e+00 -2.6046982756e+00 1.5038232506e+00 2.6046982756e+00 
27600 4.8944419836e+00 5.8137050228e-03 1.5036282836e+00 -2.6043605829e+00 1.5036282836e+00 2.6043605829e+00 
27700 4.8944331315e+00 5.7638753422e-03 1.5034349652e+00 -2.6040257456e+00 1.5034349652e+00 2.6040257456e+00 
27800 4.8944244196e+00 5.7145494014e-03 1.5032432791e+00 -2.6036937355e+00 1.5032432791e+00 2.6036937355e+00 
27900 4.8944158454e+00 5.6657211406e-03 1.5030532091e+00 -2.6033645246e+00 1.5030532091e+00 2.6033645246e+00 
28000 4.8944074066e+00 5.6173845834e-03 1.5028647393e+00 -2.6030380853e+00 1.5028647393e+00 2.6030380853e+00 
28100 4.8943991009e+00 5.5695338351e-03 1.5026778539e+00 -2.6027143904e+00 1.5026778539e+00 2.6027143904e+00 
28200 4.8943909259e+00 5.5221630818e-03 1.5024925374e+00 -2.6023934128e+00 1.5024925374e+00 2.6023934128e+00 
28300 4.8943828795e+00 5.4752665890e-03 1.5023087744e+00 -2.6020751260e+00 1.5023087744e+00 2.6020751260e+00 
28400 4.8943749595e+00 5.4288387005e-03 1.5021265497e+00 -2.6017595035e+00 1.5021265497e+00 2.6017595035e+00 
28500 4.8943671637e+00 5.3828738374e-03 1.5019458482e+00 -2.6014465194e+00 1.5019458482e+00 2.6014465194e+00 
28600 4.8943594900e+00 5.3373664964e-03 1.5017666551e+00 -2.6011361478e+00 1.5017666551e+00 2.6011361478e+00 
28700 4.8943519364e+00 5.2923112491e-03 1.5015889557e+00 -2.6008283634e+00 1.5015889557e+00 2.6008283634e+00 
28800 4.8943445008e+00 5.2477027410e-03 1.5014127355e+00 -2.6005231410e+00 1.5014127355e+00 2.6005231410e+00 
28900 4.8943371812e+00 5.2035356898e-03 1.5012379800e+00 -2.6002204557e+00 1.5012379800e+00 2.6002204557e+00 
29000 4.8943299756e+00 5.1598048851e-03 1.5010646752e+00 -2.5999202829e+00 1.5010646752e+00 2.5999202829e+00 
29100 4.8943228822e+00 5.1165051868e-03 1.5008928070e+00 -2.5996225984e+00 1.5008928070e+00 2.5996225984e+00 
29200 4.8943158991e+00 5.0736315241e-03 1.5007223615e+00 -2.5993273782e+00 1.5007223615e+00 2.5993273782e+00 
29300 4.8943090244e+00 5.0311788948e-03 1.5005533250e+00 -2.5990345984e+00 1.5005533250e+00 2.5990345984e+00 
29400 4.8943022563e+00 4.9891423639e-03 1.5003856840e+00 -2.5987442357e+00 1.5003856840e+00 2.5987442357e+00 
29500 4.8942955930e+00 4.9475170631e-03 1.5002194251e+00 -2.5984562668e+00 1.5002194251e+00 2.5984562668e+00 
29600 4.8942890327e+00 4.9062981892e-03 1.5000545350e+00 -2.5981706687e+00 1.5000545350e+00 2.5981706687e+00 
29700 4.8942825739e+00 4.8654810038e-03 1.4998910006e+00 -2.5978874189e+00 1.4998910006e+00 2.5978874189e+00 
29800 4.8942762147e+00 4.8250608318e-03 1.4997288091e+00 -2.5976064949e+00 1.4997288091e+00 2.5976064949e+00 
29900 4.8942699535e+00 4.7850330610e-03 1.4995679475e+00 -2.5973278745e+00 1.4995679475e+00 2.5973278745e+00 
30000 4.8942637887e+00 4.7453931407e-03 1.4994084033e+00 -2.5970515358e+00 1.4994084033e+00 2.5970515358e+00 
30100 4.8942577187e+00 4.7061365812e-03 1.4992501639e+00 -2.5967774571e+00 1.4992501639e+00 2.5967774571e+00 
30200 4.8942517419e+00 4.6672589526e-03 1.4990932169e+00 -2.5965056170e+00 1.4990932169e+00 2.5965056170e+00 
30300 4.8942458568e+00 4.6287558843e-03 1.4989375502e+00 -2.5962359944e+00 1.4989375502e+00 2.5962359944e+00 
30400 4.8942400619e+00 4.5906230638e-03 1.4987831517e+00 -2.5959685682e+00 1.4987831517e+00 2.5959685682e+00 
30500 4.8942343557e+00 4.5528562360e-03 1.4986300093e+00 -2.5957033178e+00 1.4986300093e+00 2.5957033178e+00 
30600 4.8942287367e+00 4.5154512026e-03 1.4984781112e+00 -2.5954402227e+00 1.4984781112e+00 2.5954402227e+00 
30700 4.8942232036e+00 4.4784038207e-03 1.4983274458e+00 -2.5951792626e+00 1.4983274458e+00 2.5951792626e+00 
30800 4.8942177549e+00 4.4417100028e-03 1.4981780016e+00 -2.5949204175e+00 1.4981780016e+00 2.5949204175e+00 
30900 4.8942123891e+00 4.4053657153e-03 1.4980297669e+00 -2.5946636676e+00 1.4980297669e+00 2.5946636676e+00 
31000 4.8942071051e+00 4.3693669782e-03 1.4978827307e+00 -2.5944089933e+00 1.4978827307e+00 2.5944089933e+00 
31100 4.8942019014e+00 4.3337098640e-03 1.4977368816e+00 -2.5941563753e+00 1.4977368816e+00 2.5941563753e+00 
31200 4.8941967767e+00 4.2983904973e-03 1.4975922087e+00 -2.5939057945e+00 1.4975922087e+00 2.5939057945e+00 
31300 4.8941917298e+00 4.2634050535e-03 1.4974487009e+00 -2.5936572317e+00 1.4974487009e+00 2.5936572317e+00 
31400 4.8941867594e+00 4.2287497590e-03 1.4973063476e+00 -2.5934106685e+00 1.4973063476e+00 2.5934106685e+00 
31500 4.8941818643e+00 4.1944208893e-03 1.4971651379e+00 -2.5931660861e+00 1.4971651379e+00 2.5931660861e+00 
31600 4.8941770431e+00 4.1604147695e-03 1.4970250613e+00 -2.5929234663e+00 1.4970250613e+00 2.5929234663e+00 
31700 4.8941722949e+00 4.1267277726e-03 1.4968861074e+00 -2.5926827911e+00 1.4968861074e+00 2.5926827911e+00 
31800 4.8941676182e+00 4.0933563193e-03 1.4967482657e+00 -2.5924440424e+00 1.4967482657e+00 2.5924440424e+00 
31900 4.8941630121e+00 4.0602968774e-03 1.4966115262e+00 -2.5922072025e+00 1.4966115262e+00 2.5922072025e+00 
32000 4.8941584754e+00 4.0275459608e-03 1.4964758786e+00 -2.5919722540e+00 1.4964758786e+00 2.5919722540e+00 
32100 4.8941540069e+00 3.9951001292e-03 1.4963413129e+00 -2.5917391794e+00 1.4963413129e+00 2.5917391794e+00 
32200 4.8941496056e+00 3.9629559872e-03 1.4962078192e+00 -2.5915079616e+00 1.4962078192e+00 2.5915079616e+00 
32300 4.8941452704e+00 3.9311101837e-03 1.4960753879e+00 -2.5912785837e+00 1.4960753879e+00 2.5912785837e+00 
32400 4.8941410003e+00 3.8995594114e-03 1.4959440090e+00 -2.5910510289e+00 1.4959440090e+00 2.5910510289e+00 
32500 4.8941367941e+00 3.8683004058e-03 1.4958136732e+00 -2.5908252806e+00 1.4958136732e+00 2.5908252806e+00 
32600 4.8941326509e+00 3.8373299454e-03 1.4956843708e+00 -2.5906013224e+00 1.4956843708e+00 2.5906013224e+00 
32700 4.8941285697e+00 3.8066448501e-03 1.4955560926e+00 -2.5903791379e+00 1.4955560926e+00 2.5903791379e+00 
32800 4.8941245495e+00 3.7762419813e-03 1.4954288292e+00 -2.5901587113e+00 1.4954288292e+00 2.5901587113e+00 
32900 4.8941205893e+00 3.7461182410e-03 1.4953025715e+00 -2.5899400265e+00 1.4953025715e+00 2.5899400265e+00 
33000 4.8941166882e+00 3.7162705714e-03 1.4951773103e+00 -2.5897230678e+00 1.4951773103e+00 2.5897230678e+00 
33100 4.8941128452e+00 3.6866959542e-03 1.4950530368e+00 -2.5895078198e+00 1.4950530368e+00 2.5895078198e+00 
33200 4.8941090594e+00 3.6573914101e-03 1.4949297420e+00 -2.5892942669e+00 1.4949297420e+00 2.5892942669e+00 
33300 4.8941053299e+00 3.6283539981e-03 1.4948074171e+00 -2.5890823940e+00 1.4948074171e+00 2.5890823940e+00 
33400 4.8941016559e+00 3.5995808154e-03 1.4946860535e+00 -2.5888721861e+00 1.4946860535e+00 2.5888721861e+00 
33500 4.8940980364e+00 3.5710689962e-03 1.4945656425e+00 -2.5886636281e+00 1.4945656425e+00 2.5886636281e+00 
33600 4.8940944706e+00 3.5428157117e-03 1.4944461757e+00 -2.5884567054e+00 1.4944461757e+00 2.5884567054e+00 
33700 4.8940909576e+00 3.5148181693e-03 1.4943276445e+00 -2.5882514034e+00 1.4943276445e+00 2.5882514034e+00 
33800 4.8940874967e+00 3.4870736124e-03 1.4942100407e+00 -2.5880477077e+00 1.4942100407e+00 2.5880477077e+00 
33900 4.8940840869e+00 3.4595793193e-03 1.4940933560e+00 -2.5878456039e+00 1.4940933560e+00 2.5878456039e+00 
34000 4.8940807276e+00 3.4323326034e-03 1.4939775823e+00 -2.5876450780e+00 1.4939775823e+00 2.5876450780e+00 
34100 4.8940774178e+00 3.4053308122e-03 1.4938627115e+00 -2.5874461159e+00 1.4938627115e+00 2.5874461159e+00 
34200 4.8940741569e+00 3.3785713271e-03 1.4937487356e+00 -2.5872487038e+00 1.4937487356e+00 2.5872487038e+00 
34300 4.8940709441e+00 3.3520515626e-03 1.4936356467e+00 -2.5870528280e+00 1.4936356467e+00 2.5870528280e+00 
34400 4.8940677786e+00 3.3257689663e-03 1.4935234369e+00 -2.5868584750e+00 1.4935234369e+00 2.5868584750e+00 
34500 4.8940646597e+00 3.2997210181e-03 1.4934120986e+00 -2.5866656314e+00 1.4934120986e+00 2.5866656314e+00 
34600 4.8940615867e+00 3.2739052296e-03 1.4933016241e+00 -2.5864742839e+00 1.4933016241e+00 2.5864742839e+00 
34700 4.8940585588e+00 3.2483191442e-03 1.4931920057e+00 -2.5862844194e+00 1.4931920057e+00 2.5862844194e+00 
34800 4.8940555753e+00 3.2229603359e-03 1.4930832361e+00 -2.5860960248e+00 1.4930832361e+00 2.5860960248e+00 
34900 4.8940526356e+00 3.1978264097e-03 1.4929753077e+00 -2.5859090873e+00 1.4929753077e+00 2.5859090873e+00 
35000 4.8940497390e+00 3.1729150004e-03 1.4928682132e+00 -2.5857235942e+00 1.4928682132e+00 2.5857235942e+00 
35100 4.8940468848e+00 3.1482237728e-03 1.4927619454e+00 -2.5855395330e+00 1.4927619454e+00 2.5855395330e+00 
35200 4.8940440724e+00 3.1237504207e-03 1.4926564970e+00 -2.5853568910e+00 1.4926564970e+00 2.5853568910e+00 
35300 4.8940413011e+00 3.0994926669e-03 1.4925518609e+00 -2.5851756560e+00 1.4925518609e+00 2.5851756560e+00 
35400 4.8940385703e+00 3.0754482627e-03 1.4924480301e+00 -2.5849958158e+00 1.4924480301e+00 2.5849958158e+00 
35500 4.8940358794e+00 3.0516149875e-03 1.4923449976e+00 -2.5848173583e+00 1.4923449976e+00 2.5848173583e+00 
35600 4.8940332277e+00 3.0279906481e-03 1.4922427565e+00 -2.5846402715e+00 1.4922427565e+00 2.5846402715e+00 
35700 4.8940306147e+00 3.0045730789e-03 1.4921413000e+00 -2.5844645436e+00 1.4921413000e+00 2.5844645436e+00 
35800 4.8940280397e+00 2.9813601410e-03 1.4920406212e+00 -2.5842901628e+00 1.4920406212e+00 2.5842901628e+00 
35900 4.8940255022e+00 2.9583497221e-03 1.4919407135e+00 -2.5841171176e+00 1.4919407135e+00 2.5841171176e+00 
36000 4.8940230015e+00 2.9355397358e-03 1.4918415702e+00 -2.5839453965e+00 1.4918415702e+00 2.5839453965e+00 
36100 4.8940205373e+00 2.9129281217e-03 1.4917431849e+00 -2.5837749880e+00 1.4917431849e+00 2.5837749880e+00 
36200 4.8940181088e+00 2.8905128447e-03 1.4916455509e+00 -2.5836058810e+00 1.4916455509e+00 2.5836058810e+00 
36300 4.8940157155e+00 2.8682918948e-03 1.4915486619e+00 -2.5834380643e+00 1.4915486619e+00 2.5834380643e+00 
36400 4.8940133569e+00 2.8462632865e-03 1.4914525114e+00 -2.5832715269e+00 1.4914525114e+00 2.5832715269e+00 
36500 4.8940110325e+00 2.8244250589e-03 1.4913570933e+00 -2.5831062578e+00 1.4913570933e+00 2.5831062578e+00 
36600 4.8940087418e+00 2.8027752748e-03 1.4912624012e+00 -2.5829422462e+00 1.4912624012e+00 2.5829422462e+00 
36700 4.8940064842e+00 2.7813120210e-03 1.4911684289e+00 -2.5827794815e+00 1.4911684289e+00 2.5827794815e+00 
36800 4.8940042592e+00 2.7600334071e-03 1.4910751704e+00 -2.5826179530e+00 1.4910751704e+00 2.5826179530e+00 
36900 4.8940020664e+00 2.7389375662e-03 1.4909826196e+00 -2.5824576503e+00 1.4909826196e+00 2.5824576503e+00 
37000 4.8939999052e+00 2.7180226538e-03 1.4908907704e+00 -2.5822985629e+00 1.4908907704e+00 2.5822985629e+00 
37100 4.8939977752e+00 2.6972868479e-03 1.4907996170e+00 -2.5821406806e+00 1.4907996170e+00 2.5821406806e+00 
37200 4.8939956759e+00 2.6767283482e-03 1.4907091535e+00 -2.5819839932e+00 1.4907091535e+00 2.5819839932e+00 
37300 4.8939936069e+00 2.6563453764e-03 1.4906193741e+00 -2.5818284906e+00 1.4906193741e+00 2.5818284906e+00 
37400 4.8939915676e+00 2.6361361757e-03 1.4905302729e+00 -2.5816741628e+00 1.4905302729e+00 2.5816741628e+00 
37500 4.8939895577e+00 2.6160990102e-03 1.4904418443e+00 -2.5815210000e+00 1.4904418443e+00 2.5815210000e+00 
37600 4.8939875766e+00 2.5962321649e-03 1.4903540826e+00 -2.5813689923e+00 1.4903540826e+00 2.5813689923e+00 
37700 4.8939856241e+00 2.5765339452e-03 1.4902669823e+00 -2.5812181301e+00 1.4902669823e+00 2.5812181301e+00 
37800 4.8939836995e+00 2.5570026770e-03 1.4901805377e+00 -2.5810684038e+00 1.4901805377e+00 2.5810684038e+00 
37900 4.8939818026e+00 2.5376367059e-03 1.4900947435e+00 -2.5809198038e+00 1.4900947435e+00 2.5809198038e+00 
38000 4.8939799328e+00 2.5184343974e-03 1.4900095941e+00 -2.5807723208e+00 1.4900095941e+00 2.5807723208e+00 
38100 4.8939780899e+00 2.4993941362e-03 1.4899250842e+00 -2.5806259454e+00 1.4899250842e+00 2.5806259454e+00 
38200 4.8939762733e+00 2.4805143263e-03 1.4898412085e+00 -2.5804806684e+00 1.4898412085e+00 2.5804806684e+00 
38300 4.8939744828e+00 2.4617933904e-03 1.4897579617e+00 -2.5803364806e+00 1.4897579617e+00 2.5803364806e+00 
38400 4.8939727178e+00 2.4432297699e-03 1.4896753385e+00 -2.5801933731e+00 1.4896753385e+00 2.5801933731e+00 
38500 4.8939709781e+00 2.4248219246e-03 1.4895933338e+00 -2.5800513368e+00 1.4895933338e+00 2.5800513368e+00 
38600 4.8939692632e+00 2.4065683323e-03 1.4895119425e+00 -2.5799103629e+00 1.4895119425e+00 2.5799103629e+00 
38700 4.8939675728e+00 2.3884674886e-03 1.4894311594e+00 -2.5797704425e+00 1.4894311594e+00 2.5797704425e+00 
38800 4.8939659065e+00 2.3705179068e-03 1.4893509796e+00 -2.5796315670e+00 1.4893509796e+00 2.5796315670e+00 
38900 4.8939642639e+00 2.3527181176e-03 1.4892713981e+00 -2.5794937277e+00 1.4892713981e+00 2.5794937277e+00 
39000 4.8939626448e+00 2.3350666686e-03 1.4891924099e+00 -2.5793569162e+00 1.4891924099e+00 2.5793569162e+00 
39100 4.8939610487e+00 2.3175621244e-03 1.4891140101e+00 -2.5792211238e+00 1.4891140101e+00 2.5792211238e+00 
39200 4.8939594753e+00 2.3002030662e-03 1.4890361940e+00 -2.5790863423e+00 1.4890361940e+00 2.5790863423e+00 
39300 4.8939579243e+00 2.2829880918e-03 1.4889589567e+00 -2.5789525634e+00 1.4889589567e+00 2.5789525634e+00 
39400 4.8939563953e+00 2.2659158149e-03 1.4888822934e+00 -2.5788197787e+00 1.4888822934e+00 2.5788197787e+00 
39500 4.8939548881e+00 2.2489848652e-03 1.4888061996e+00 -2.5786879803e+00 1.4888061996e+00 2.5786879803e+00 
39600 4.8939534022e+00 2.2321938885e-03 1.4887306704e+00 -2.5785571599e+00 1.4887306704e+00 2.5785571599e+00 
39700 4.8939519374e+00 2.2155415457e-03 1.4886557013e+00 -2.5784273097e+00 1.4886557013e+00 2.5784273097e+00 
39800 4.8939504934e+00 2.1990265132e-03 1.4885812878e+00 -2.5782984216e+00 1.4885812878e+00 2.5782984216e+00 
39900 4.8939490699e+00 2.1826474825e-03 1.4885074252e+00 -2.5781704879e+00 1.4885074252e+00 2.5781704879e+00 
40000 4.8939476665e+00 2.1664031601e-03 1.4884341092e+00 -2.5780435008e+00 1.4884341092e+00 2.5780435008e+00 
40100 4.8939462830e+00 2.1502922670e-03 1.4883613352e+00 -2.5779174526e+00 1.4883613352e+00 2.5779174526e+00 
40200 4.8939449190e+00 2.1343135389e-03 1.4882890989e+00 -2.5777923356e+00 1.4882890989e+00 2.5777923356e+00 
40300 4.8939435744e+00 2.1184657257e-03 1.4882173959e+00 -2.5776681423e+00 1.4882173959e+00 2.5776681423e+00 
40400 4.8939422487e+00 2.1027475914e-03 1.4881462218e+00 -2.5775448653e+00 1.4881462218e+00 2.5775448653e+00 
40500 4.8939409418e+00 2.0871579139e-03 1.4880755725e+00 -2.5774224970e+00 1.4880755725e+00 2.5774224970e+00 
40600 4.8939396533e+00 2.0716954850e-03 1.4880054436e+00 -2.5773010302e+00 1.4880054436e+00 2.5773010302e+00 
40700 4.8939383829e+00 2.0563591099e-03 1.4879358310e+00 -2.5771804576e+00 1.4879358310e+00 2.5771804576e+00 
40800 4.8939371305e+00 2.0411476072e-03 1.4878667304e+00 -2.5770607720e+00 1.4878667304e+00 2.5770607720e+00 
40900 4.8939358958e+00 2.0260598087e-03 1.4877981379e+00 -2.5769419662e+00 1.4877981379e+00 2.5769419662e+00 
41000 4.8939346784e+00 2.0110945593e-03 1.4877300492e+00 -2.5768240331e+00 1.4877300492e+00 2.5768240331e+00 
41100 4.8939334782e+00 1.9962507165e-03 1.4876624603e+00 -2.5767069658e+00 1.4876624603e+00 2.5767069658e+00 
41200 4.8939322948e+00 1.9815271507e-03 1.4875953673e+00 -2.5765907573e+00 1.4875953673e+00 2.5765907573e+00 
41300 4.8939311281e+00 1.9669227447e-03 1.4875287661e+00 -2.5764754006e+00 1.4875287661e+00 2.5764754006e+00 
41400 4.8939299778e+00 1.9524363937e-03 1.4874626528e+00 -2.5763608891e+00 1.4874626528e+00 2.5763608891e+00 
41500 4.8939288436e+00 1.9380670050e-03 1.4873970235e+00 -2.5762472158e+00 1.4873970235e+00 2.5762472158e+00 
41600 4.8939277254e+00 1.9238134980e-03 1.4873318744e+00 -2.5761343742e+00 1.4873318744e+00 2.5761343742e+00 
41700 4.8939266229e+00 1.9096748038e-03 1.4872672016e+00 -2.5760223575e+00 1.4872672016e+00 2.5760223575e+00 
41800 4.8939255358e+00 1.8956498652e-03 1.4872030012e+00 -2.5759111593e+00 1.4872030012e+00 2.5759111593e+00 
41900 4.8939244640e+00 1.8817376369e-03 1.4871392696e+00 -2.5758007729e+00 1.4871392696e+00 2.5758007729e+00 
42000 4.8939234072e+00 1.8679370845e-03 1.4870760031e+00 -2.5756911920e+00 1.4870760031e+00 2.5756911920e+00 
42100 4.8939223652e+00 1.8542471851e-03 1.4870131978e+00 -2.5755824101e+00 1.4870131978e+00 2.5755824101e+00 
42200 4.8939213377e+00 1.8406669269e-03 1.4869508502e+00 -2.5754744209e+00 1.4869508502e+00 2.5754744209e+00 
42300 4.8939203247e+00 1.8271953089e-03 1.4868889566e+00 -2.5753672181e+00 1.4868889566e+00 2.5753672181e+00 
42400 4.8939193258e+00 1.8138313412e-03 1.4868275135e+00 -2.5752607954e+00 1.4868275135e+00 2.5752607954e+00 
42500 4.8939183409e+00 1.8005740442e-03 1.4867665172e+00 -2.5751551468e+00 1.4867665172e+00 2.5751551468e+00 
42600 4.8939173697e+00 1.7874224491e-03 1.4867059642e+00 -2.5750502660e+00 1.4867059642e+00 2.5750502660e+00 
42700 4.8939164121e+00 1.7743755974e-03 1.4866458511e+00 -2.5749461470e+00 1.4866458511e+00 2.5749461470e+00 
42800 4.8939154679e+00 1.7614325409e-03 1.4865861744e+00 -2.5748427839e+00 1.4865861744e+00 2.5748427839e+00 
42900 4.8939145368e+00 1.7485923414e-03 1.4865269306e+00 -2.5747401706e+00 1.4865269306e+00 2.5747401706e+00 
43000 4.8939136187e+00 1.7358540709e-03 1.4864681163e+00 -2.5746383012e+00 1.4864681163e+00 2.5746383012e+00 
43100 4.8939127134e+00 1.7232168110e-03 1.4864097281e+00 -2.5745371699e+00 1.4864097281e+00 2.5745371699e+00 
43200 4.8939118208e+00 1.7106796534e-03 1.4863517627e+00 -2.5744367710e+00 1.4863517627e+00 2.5744367710e+00 
43300 4.8939109405e+00 1.6982416991e-03 1.4862942169e+00 -2.5743370986e+00 1.4862942169e+00 2.5743370986e+00 
43400 4.8939100725e+00 1.6859020588e-03 1.4862370872e+00 -2.5742381471e+00 1.4862370872e+00 2.5742381471e+00 
43500 4.8939092166e+00 1.6736598525e-03 1.4861803704e+00 -2.5741399107e+00 1.4861803704e+00 2.5741399107e+00 
43600 4.8939083726e+00 1.6615142093e-03 1.4861240633e+00 -2.5740423840e+00 1.4861240633e+00 2.5740423840e+00 
43700 4.8939075403e+00 1.6494642679e-03 1.4860681627e+00 -2.5739455614e+00 1.4860681627e+00 2.5739455614e+00 
43800 4.8939067196e+00 1.6375091755e-03 1.4860126655e+00 -2.5738494373e+00 1.4860126655e+00 2.5738494373e+00 
43900 4.8939059103e+00 1.6256480884e-03 1.4859575684e+00 -2.5737540064e+00 1.4859575684e+00 2.5737540064e+00 
44000 4.8939051122e+00 1.6138801720e-03 1.4859028684e+00 -2.5736592632e+00 1.4859028684e+00 2.5736592632e+00 
44100 4.8939043252e+00 1.6022045999e-03 1.4858485623e+00 -2.5735652023e+00 1.4858485623e+00 2.5735652023e+00 
44200 4.8939035491e+00 1.5906205547e-03 1.4857946472e+00 -2.5734718186e+00 1.4857946472e+00 2.5734718186e+00 
44300 4.8939027838e+00 1.5791272271e-03 1.4857411199e+00 -2.5733791066e+00 1.4857411199e+00 2.5733791066e+00 
44400 4.8939020290e+00 1.5677238165e-03 1.4856879775e+00 -2.5732870612e+00 1.4856879775e+00 2.5732870612e+00 
44500 4.8939012848e+00 1.5564095304e-03 1.4856352169e+00 -2.5731956772e+00 1.4856352169e+00 2.5731956772e+00 
44600 4.8939005508e+00 1.5451835846e-03 1.4855828353e+00 -2.5731049496e+00 1.4855828353e+00 2.5731049496e+00 
44700 4.8938998270e+00 1.5340452027e-03 1.4855308296e+00 -2.5730148731e+00 1.4855308296e+00 2.5730148731e+00 
44800 4.8938991132e+00 1.5229936164e-03 1.4854791970e+00 -2.5729254428e+00 1.4854791970e+00 2.5729254428e+00 
44900 4.8938984093e+00 1.5120280655e-03 1.4854279346e+00 -2.5728366537e+00 1.4854279346e+00 2.5728366537e+00 
45000 4.8938977151e+00 1.5011477973e-03 1.4853770395e+00 -2.5727485009e+00 1.4853770395e+00 2.5727485009e+00 
45100 4.8938970305e+00 1.4903520667e-03 1.4853265089e+00 -2.5726609793e+00 1.4853265089e+00 2.5726609793e+00 
45200 4.8938963553e+00 1.4796401365e-03 1.4852763401e+00 -2.5725740843e+00 1.4852763401e+00 2.5725740843e+00 
45300 4.8938956895e+00 1.4690112767e-03 1.4852265301e+00 -2.5724878108e+00 1.4852265301e+00 2.5724878108e+00 
45400 4.8938950329e+00 1.4584647648e-03 1.4851770762e+00 -2.5724021543e+00 1.4851770762e+00 2.5724021543e+00 
45500 4.8938943853e+00 1.4479998858e-03 1.4851279758e+00 -2.5723171098e+00 1.4851279758e+00 2.5723171098e+00 
45600 4.8938937467e+00 1.4376159316e-03 1.4850792261e+00 -2.5722326728e+00 1.4850792261e+00 2.5722326728e+00 
45700 4.8938931168e+00 1.4273122014e-03 1.4850308243e+00 -2.5721488385e+00 1.4850308243e+00 2.5721488385e+00 
45800 4.8938924957e+00 1.4170880015e-03 1.4849827679e+00 -2.5720656024e+00 1.4849827679e+00 2.5720656024e+00 
45900 4.8938918831e+00 1.4069426450e-03 1.4849350542e+00 -2.5719829599e+00 1.4849350542e+00 2.5719829599e+00 
46000 4.8938912789e+00 1.3968754520e-03 1.4848876806e+00 -2.5719009063e+00 1.4848876806e+00 2.5719009063e+00 
46100 4.8938906831e+00 1.3868857495e-03 1.4848406445e+00 -2.5718194373e+00 1.4848406445e+00 2.5718194373e+00 
46200 4.8938900954e+00 1.3769728710e-03 1.4847939432e+00 -2.5717385484e+00 1.4847939432e+00 2.5717385484e+00 
46300 4.8938895158e+00 1.3671361567e-03 1.4847475743e+00 -2.5716582351e+00 1.4847475743e+00 2.5716582351e+00 
46400 4.8938889442e+00 1.3573749534e-03 1.4847015352e+00 -2.5715784930e+00 1.4847015352e+00 2.5715784930e+00 
46500 4.8938883805e+00 1.3476886144e-03 1.4846558234e+00 -2.5714993178e+00 1.4846558234e+00 2.5714993178e+00 
46600 4.8938878245e+00 1.3380764995e-03 1.4846104364e+00 -2.5714207052e+00 1.4846104364e+00 2.5714207052e+00 
46700 4.8938872761e+00 1.3285379746e-03 1.4845653717e+00 -2.5713426509e+00 1.4845653717e+00 2.5713426509e+00 
46800 4.8938867353e+00 1.3190724119e-03 1.4845206269e+00 -2.5712651507e+00 1.4845206269e+00 2.5712651507e+00 
46900 4.8938862019e+00 1.3096791901e-03 1.4844761996e+00 -2.5711882003e+00 1.4844761996e+00 2.5711882003e+00 
47000 4.8938856758e+00 1.3003576935e-03 1.4844320873e+00 -2.5711117955e+00 1.4844320873e+00 2.5711117955e+00 
47100 4.8938851569e+00 1.2911073129e-03 1.4843882877e+00 -2.5710359324e+00 1.4843882877e+00 2.5710359324e+00 
47200 4.8938846452e+00 1.2819274447e-03 1.4843447983e+00 -2.5709606066e+00 1.4843447983e+00 2.5709606066e+00 
47300 4.8938841404e+00 1.2728174916e-03 1.4843016169e+00 -2.5708858143e+00 1.4843016169e+00 2.5708858143e+00 
47400 4.8938836426e+00 1.2637768618e-03 1.4842587412e+00 -2.5708115513e+00 1.4842587412e+00 2.5708115513e+00 
47500 4.8938831516e+00 1.2548049693e-03 1.4842161687e+00 -2.5707378136e+00 1.4842161687e+00 2.5707378136e+00 
47600 4.8938826673e+00 1.2459012340e-03 1.4841738973e+00 -2.5706645974e+00 1.4841738973e+00 2.5706645974e+00 
47700 4.8938821896e+00 1.2370650812e-03 1.4841319246e+00 -2.5705918985e+00 1.4841319246e+00 2.5705918985e+00 
47800 4.8938817185e+00 1.2282959420e-03 1.4840902484e+00 -2.5705197132e+00 1.4840902484e+00 2.5705197132e+00 
47900 4.8938812538e+00 1.2195932528e-03 1.4840488665e+00 -2.5704480377e+00 1.4840488665e+00 2.5704480377e+00 
48000 4.8938807955e+00 1.2109564556e-03 1.4840077766e+00 -2.5703768679e+00 1.4840077766e+00 2.5703768679e+00 
48100 4.8938803434e+00 1.2023849977e-03 1.4839669766e+00 -2.5703062002e+00 1.4839669766e+00 2.5703062002e+00 
48200 4.8938798975e+00 1.1938783316e-03 1.4839264642e+00 -2.5702360308e+00 1.4839264642e+00 2.5702360308e+00 
48300 4.8938794577e+00 1.1854359153e-03 1.4838862374e+00 -2.5701663559e+00 1.4838862374e+00 2.5701663559e+00 
48400 4.8938790239e+00 1.1770572119e-03 1.4838462940e+00 -2.5700971718e+00 1.4838462940e+00 2.5700971718e+00 
48500 4.8938785960e+00 1.1687416896e-03 1.4838066318e+00 -2.5700284748e+00 1.4838066318e+00 2.5700284748e+00 
48600 4.8938781740e+00 1.1604888216e-03 1.4837672487e+00 -2.5699602614e+00 1.4837672487e+00 2.5699602614e+00 
48700 4.8938777577e+00 1.1522980864e-03 1.4837281427e+00 -2.5698925279e+00 1.4837281427e+00 2.5698925279e+00 
48800 4.8938773471e+00 1.1441689673e-03 1.4836893117e+00 -2.5698252706e+00 1.4836893117e+00 2.5698252706e+00 
48900 4.8938769421e+00 1.1361009524e-03 1.4836507537e+00 -2.5697584860e+00 1.4836507537e+00 2.5697584860e+00 
49000 4.8938765426e+00 1.1280935348e-03 1.4836124665e+00 -2.5696921707e+00 1.4836124665e+00 2.5696921707e+00 
49100 4.8938761486e+00 1.1201462125e-03 1.4835744482e+00 -2.5696263211e+00 1.4835744482e+00 2.5696263211e+00 
49200 4.8938757599e+00 1.1122584881e-03 1.4835366967e+00 -2.5695609336e+00 1.4835366967e+00 2.5695609336e+00 
49300 4.8938753765e+00 1.1044298688e-03 1.4834992102e+00 -2.5694960050e+00 1.4834992102e+00 2.5694960050e+00 
49400 4.8938749984e+00 1.0966598668e-03 1.4834619865e+00 -2.5694315318e+00 1.4834619865e+00 2.5694315318e+00 
49500 4.8938746254e+00 1.0889479985e-03 1.4834250238e+00 -2.5693675105e+00 1.4834250238e+00 2.5693675105e+00 
49600 4.8938742574e+00 1.0812937851e-03 1.4833883201e+00 -2.5693039378e+00 1.4833883201e+00 2.5693039378e+00 
49700 4.8938738945e+00 1.0736967522e-03 1.4833518735e+00 -2.5692408104e+00 1.4833518735e+00 2.5692408104e+00 
49800 4.8938735365e+00 1.0661564299e-03 1.4833156821e+00 -2.5691781251e+00 1.4833156821e+00 2.5691781251e+00 
49900 4.8938731834e+00 1.0586723527e-03 1.4832797440e+00 -2.5691158784e+00 1.4832797440e+00 2.5691158784e+00 
50000 4.8938728350e+00 1.0512440593e-03 1.4832440572e+00 -2.5690540671e+00 1.4832440572e+00 2.5690540671e+00 
50100 4.8938724914e+00 1.0438710929e-03 1.4832086200e+00 -2.5689926881e+00 1.4832086200e+00 2.5689926881e+00 
50200 4.8938721525e+00 1.0365530008e-03 1.4831734306e+00 -2.5689317382e+00 1.4831734306e+00 2.5689317382e+00 
50300 4.8938718181e+00 1.0292893347e-03 1.4831384869e+00 -2.5688712140e+00 1.4831384869e+00 2.5688712140e+00 
50400 4.8938714883e+00 1.0220796502e-03 1.4831037874e+00 -2.5688111126e+00 1.4831037874e+00 2.5688111126e+00 
50500 4.8938711630e+00 1.0149235073e-03 1.4830693300e+00 -2.5687514308e+00 1.4830693300e+00 2.5687514308e+00 
50600 4.8938708421e+00 1.0078204699e-03 1.4830351132e+00 -2.5686921654e+00 1.4830351132e+00 2.5686921654e+00 
50700 4.8938705256e+00 1.0007701059e-03 1.4830011350e+00 -2.5686333135e+00 1.4830011350e+00 2.5686333135e+00 
50800 4.8938702133e+00 9.9377198731e-04 1.4829673938e+00 -2.5685748719e+00 1.4829673938e+00 2.5685748719e+00 
50900 4.8938699053e+00 9.8682569001e-04 1.4829338877e+00 -2.5685168377e+00 1.4829338877e+00 2.5685168377e+00 
51000 4.8938696014e+00 9.7993079381e-04 1.4829006151e+00 -2.5684592079e+00 1.4829006151e+00 2.5684592079e+00 
51100 4.8938693017e+00 9.7308688237e-04 1.4828675742e+00 -2.5684019794e+00 1.4828675742e+00 2.5684019794e+00 
51200 4.8938690060e+00 9.6629354317e-04 1.4828347633e+00 -2.5683451493e+00 1.4828347633e+00 2.5683451493e+00 
51300 4.8938687143e+00 9.5955036747e-04 1.4828021808e+00 -2.5682887147e+00 1.4828021808e+00 2.5682887147e+00 
51400 4.8938684266e+00 9.5285695026e-04 1.4827698249e+00 -2.5682326727e+00 1.4827698249e+00 2.5682326727e+00 
51500 4.8938681427e+00 9.4621289024e-04 1.4827376941e+00 -2.5681770204e+00 1.4827376941e+00 2.5681770204e+00 
51600 4.8938678627e+00 9.3961778977e-04 1.4827057865e+00 -2.5681217550e+00 1.4827057865e+00 2.5681217550e+00 
51700 4.8938675865e+00 9.3307125482e-04 1.4826741007e+00 -2.5680668735e+00 1.4826741007e+00 2.5680668735e+00 
51800 4.8938673141e+00 9.2657289495e-04 1.4826426350e+00 -2.5680123733e+00 1.4826426350e+00 2.5680123733e+00 
51900 4.8938670453e+00 9.2012232327e-04 1.4826113878e+00 -2.5679582515e+00 1.4826113878e+00 2.5679582515e+00 
52000 4.8938667801e+00 9.1371915638e-04 1.4825803574e+00 -2.5679045054e+00 1.4825803574e+00 2.5679045054e+00 
52100 4.8938665185e+00 9.0736301438e-04 1.4825495424e+00 -2.5678511321e+00 1.4825495424e+00 2.5678511321e+00 
52200 4.8938662605e+00 9.0105352077e-04 1.4825189410e+00 -2.5677981291e+00 1.4825189410e+00 2.5677981291e+00 
52300 4.8938660059e+00 8.9479030248e-04 1.4824885519e+00 -2.5677454935e+00 1.4824885519e+00 2.5677454935e+00 
52400 4.8938657548e+00 8.8857298979e-04 1.4824583733e+00 -2.5676932227e+00 1.4824583733e+00 2.5676932227e+00 
52500 4.8938655071e+00 8.8240121631e-04 1.4824284038e+00 -2.5676413140e+00 1.4824284038e+00 2.5676413140e+00 
52600 4.8938652627e+00 8.7627461894e-04 1.4823986419e+00 -2.5675897649e+00 1.4823986419e+00 2.5675897649e+00 
52700 4.8938650216e+00 8.7019283784e-04 1.4823690860e+00 -2.5675385726e+00 1.4823690860e+00 2.5675385726e+00 
52800 4.8938647838e+00 8.6415551640e-04 1.4823397347e+00 -2.5674877346e+00 1.4823397347e+00 2.5674877346e+00 
52900 4.8938645492e+00 8.5816230121e-04 1.4823105865e+00 -2.5674372483e+00 1.4823105865e+00 2.5674372483e+00 
53000 4.8938643177e+00 8.5221284200e-04 1.4822816398e+00 -2.5673871112e+00 1.4822816398e+00 2.5673871112e+00 
53100 4.8938640894e+00 8.4630679165e-04 1.4822528932e+00 -2.5673373207e+00 1.4822528932e+00 2.5673373207e+00 
53200 4.8938638641e+00 8.4044380612e-04 1.4822243453e+00 -2.5672878743e+00 1.4822243453e+00 2.5672878743e+00 
53300 4.8938636419e+00 8.3462354443e-04 1.4821959946e+00 -2.5672387695e+00 1.4821959946e+00 2.5672387695e+00 
53400 4.8938634226e+00 8.2884566866e-04 1.4821678398e+00 -2.5671900038e+00 1.4821678398e+00 2.5671900038e+00 
53500 4.8938632063e+00 8.2310984385e-04 1.4821398793e+00 -2.5671415748e+00 1.4821398793e+00 2.5671415748e+00 
53600 4.8938629930e+00 8.1741573804e-04 1.4821121117e+00 -2.5670934800e+00 1.4821121117e+00 2.5670934800e+00 
53700 4.8938627825e+00 8.1176302220e-04 1.4820845358e+00 -2.5670457171e+00 1.4820845358e+00 2.5670457171e+00 
53800 4.8938625748e+00 8.0615137021e-04 1.4820571500e+00 -2.5669982835e+00 1.4820571500e+00 2.5669982835e+00 
53900 4.8938623699e+00 8.0058045884e-04 1.4820299530e+00 -2.5669511770e+00 1.4820299530e+00 2.5669511770e+00 
54000 4.8938621678e+00 7.9504996769e-04 1.4820029435e+00 -2.5669043952e+00 1.4820029435e+00 2.5669043952e+00 
54100 4.8938619684e+00 7.8955957921e-04 1.4819761201e+00 -2.5668579357e+00 1.4819761201e+00 2.5668579357e+00 
54200 4.8938617717e+00 7.8410897862e-04 1.4819494815e+00 -2.5668117961e+00 1.4819494815e+00 2.5668117961e+00 
54300 4.8938615776e+00 7.7869785392e-04 1.4819230262e+00 -2.5667659743e+00 1.4819230262e+00 2.5667659743e+00 
54400 4.8938613861e+00 7.7332589584e-04 1.4818967531e+00 -2.5667204679e+00 1.4818967531e+00 2.5667204679e+00 
54500 4.8938611973e+00 7.6799279784e-04 1.4818706607e+00 -2.5666752746e+00 1.4818706607e+00 2.5666752746e+00 
54600 4.8938610109e+00 7.6269825603e-04 1.4818447478e+00 -2.5666303922e+00 1.4818447478e+00 2.5666303922e+00 
54700 4.8938608270e+00 7.5744196920e-04 1.4818190132e+00 -2.5665858184e+00 1.4818190132e+00 2.5665858184e+00 
54800 4.8938606457e+00 7.5222363876e-04 1.4817934554e+00 -2.5665415511e+00 1.4817934554e+00 2.5665415511e+00 
54900 4.8938604667e+00 7.4704296874e-04 1.4817680733e+00 -2.5664975879e+00 1.4817680733e+00 2.5664975879e+00 
55000 4.8938602902e+00 7.4189966573e-04 1.4817428655e+00 -2.5664539268e+00 1.4817428655e+00 2.5664539268e+00 
55100 4.8938601160e+00 7.3679343888e-04 1.4817178309e+00 -2.5664105656e+00 1.4817178309e+00 2.5664105656e+00 
55200 4.8938599442e+00 7.3172399985e-04 1.4816929681e+00 -2.5663675020e+00 1.4816929681e+00 2.5663675020e+00 
55300 4.8938597746e+00 7.2669106282e-04 1.4816682760e+00 -2.5663247341e+00 1.4816682760e+00 2.5663247341e+00 
55400 4.8938596074e+00 7.2169434446e-04 1.4816437534e+00 -2.5662822596e+00 1.4816437534e+00 2.5662822596e+00 
55500 4.8938594424e+00 7.1673356385e-04 1.4816193989e+00 -2.5662400764e+00 1.4816193989e+00 2.5662400764e+00 
55600 4.8938592796e+00 7.1180844253e-04 1.4815952115e+00 -2.5661981826e+00 1.4815952115e+00 2.5661981826e+00 
55700 4.8938591189e+00 7.0691870444e-04 1.4815711899e+00 -2.5661565759e+00 1.4815711899e+00 2.5661565759e+00 
55800 4.8938589605e+00 7.0206407589e-04 1.4815473329e+00 -2.5661152543e+00 1.4815473329e+00 2.5661152543e+00 
55900 4.8938588041e+00 6.9724428555e-04 1.4815236393e+00 -2.5660742159e+00 1.4815236393e+00 2.5660742159e+00 
56000 4.8938586499e+00 6.9245906444e-04 1.4815001081e+00 -2.5660334586e+00 1.4815001081e+00 2.5660334586e+00 
56100 4.8938584977e+00 6.8770814586e-04 1.4814767379e+00 -2.5659929803e+00 1.4814767379e+00 2.5659929803e+00 
56200 4.8938583475e+00 6.8299126542e-04 1.4814535278e+00 -2.5659527791e+00 1.4814535278e+00 2.5659527791e+00 
56300 4.8938581994e+00 6.7830816100e-04 1.4814304764e+00 -2.5659128531e+00 1.4814304764e+00 2.5659128531e+00 
56400 4.8938580533e+00 6.7365857270e-04 1.4814075828e+00 -2.5658732001e+00 1.4814075828e+00 2.5658732001e+00 
56500 4.8938579091e+00 6.6904224287e-04 1.4813848457e+00 -2.5658338184e+00 1.4813848457e+00 2.5658338184e+00 
56600 4.8938577668e+00 6.6445891604e-04 1.4813622642e+00 -2.5657947059e+00 1.4813622642e+00 2.5657947059e+00 
56700 4.8938576264e+00 6.5990833892e-04 1.4813398369e+00 -2.5657558608e+00 1.4813398369e+00 2.5657558608e+00 
56800 4.8938574880e+00 6.5539026038e-04 1.4813175629e+00 -2.5657172812e+00 1.4813175629e+00 2.5657172812e+00 
56900 4.8938573513e+00 6.5090443144e-04 1.4812954411e+00 -2.5656789650e+00 1.4812954411e+00 2.5656789650e+00 
57000 4.8938572165e+00 6.4645060522e-04 1.4812734704e+00 -2.5656409106e+00 1.4812734704e+00 2.5656409106e+00 
57100 4.8938570835e+00 6.4202853694e-04 1.4812516497e+00 -2.5656031160e+00 1.4812516497e+00 2.5656031160e+00 
57200 4.8938569523e+00 6.3763798390e-04 1.4812299779e+00 -2.5655655794e+00 1.4812299779e+00 2.5655655794e+00 
57300 4.8938568228e+00 6.3327870544e-04 1.4812084540e+00 -2.5655282990e+00 1.4812084540e+00 2.5655282990e+00 
57400 4.8938566951e+00 6.2895046296e-04 1.4811870770e+00 -2.5654912728e+00 1.4811870770e+00 2.5654912728e+00 
57500 4.8938565690e+00 6.2465301985e-04 1.4811658457e+00 -2.5654544992e+00 1.4811658457e+00 2.5654544992e+00 
57600 4.8938564447e+00 6.2038614151e-04 1.4811447592e+00 -2.5654179764e+00 1.4811447592e+00 2.5654179764e+00 
57700 4.8938563220e+00 6.1614959533e-04 1.4811238165e+00 -2.5653817025e+00 1.4811238165e+00 2.5653817025e+00 
57800 4.8938562010e+00 6.1194315063e-04 1.4811030165e+00 -2.5653456758e+00 1.4811030165e+00 2.5653456758e+00 
57900 4.8938560815e+00 6.0776657869e-04 1.4810823582e+00 -2.5653098945e+00 1.4810823582e+00 2.5653098945e+00 
58000 4.8938559637e+00 6.0361965271e-04 1.4810618406e+00 -2.5652743570e+00 1.4810618406e+00 2.5652743570e+00 
58100 4.8938558474e+00 5.9950214778e-04 1.4810414627e+00 -2.5652390615e+00 1.4810414627e+00 2.5652390615e+00 
58200 4.8938557327e+00 5.9541384089e-04 1.4810212235e+00 -2.5652040062e+00 1.4810212235e+00 2.5652040062e+00 
58300 4.8938556195e+00 5.9135451089e-04 1.4810011221e+00 -2.5651691895e+00 1.4810011221e+00 2.5651691895e+00 
58400 4.8938555078e+00 5.8732393848e-04 1.4809811575e+00 -2.5651346098e+00 1.4809811575e+00 2.5651346098e+00 
58500 4.8938553976e+00 5.8332190618e-04 1.4809613286e+00 -2.5651002652e+00 1.4809613286e+00 2.5651002652e+00 
58600 4.8938552889e+00 5.7934819836e-04 1.4809416346e+00 -2.5650661542e+00 1.4809416346e+00 2.5650661542e+00 
58700 4.8938551817e+00 5.7540260114e-04 1.4809220746e+00 -2.5650322752e+00 1.4809220746e+00 2.5650322752e+00 
58800 4.8938550758e+00 5.7148490245e-04 1.4809026474e+00 -2.5649986264e+00 1.4809026474e+00 2.5649986264e+00 
58900 4.8938549714e+00 5.6759489199e-04 1.4808833523e+00 -2.5649652063e+00 1.4808833523e+00 2.5649652063e+00 
59000 4.8938548684e+00 5.6373236117e-04 1.4808641883e+00 -2.5649320132e+00 1.4808641883e+00 2.5649320132e+00 
59100 4.8938547667e+00 5.5989710317e-04 1.4808451544e+00 -2.5648990456e+00 1.4808451544e+00 2.5648990456e+00 
59200 4.8938546664e+00 5.5608891287e-04 1.4808262498e+00 -2.5648663019e+00 1.4808262498e+00 2.5648663019e+00 
59300 4.8938545674e+00 5.5230758683e-04 1.4808074736e+00 -2.5648337804e+00 1.4808074736e+00 2.5648337804e+00 
59400 4.8938544698e+00 5.4855292333e-04 1.4807888247e+00 -2.5648014797e+00 1.4807888247e+00 2.5648014797e+00 
59500 4.8938543734e+00 5.4482472227e-04 1.4807703024e+00 -2.5647693982e+00 1.4807703024e+00 2.5647693982e+00 
59600 4.8938542784e+00 5.4112278525e-04 1.4807519058e+00 -2.5647375343e+00 1.4807519058e+00 2.5647375343e+00 
59700 4.8938541846e+00 5.3744691547e-04 1.4807336340e+00 -2.5647058865e+00 1.4807336340e+00 2.5647058865e+00 
59800 4.8938540920e+00 5.3379691776e-04 1.4807154860e+00 -2.5646744533e+00 1.4807154860e+00 2.5646744533e+00 
59900 4.8938540007e+00 5.3017259855e-04 1.4806974611e+00 -2.5646432332e+00 1.4806974611e+00 2.5646432332e+00 
60000 4.8938539106e+00 5.2657376589e-04 1.4806795583e+00 -2.5646122247e+00 1.4806795583e+00 2.5646122247e+00 
60100 4.8938538217e+00 5.2300022936e-04 1.4806617769e+00 -2.5645814263e+00 1.4806617769e+00 2.5645814263e+00 
60200 4.8938537340e+00 5.1945180013e-04 1.4806441159e+00 -2.5645508366e+00 1.4806441159e+00 2.5645508366e+00 
60300 4.8938536474e+00 5.1592829092e-04 1.4806265745e+00 -2.5645204540e+00 1.4806265745e+00 2.5645204540e+00 
60400 4.8938535620e+00 5.1242951596e-04 1.4806091519e+00 -2.5644902772e+00 1.4806091519e+00 2.5644902772e+00 
60500 4.8938534777e+00 5.0895529101e-04 1.4805918472e+00 -2.5644603047e+00 1.4805918472e+00 2.5644603047e+00 
60600 4.8938533946e+00 5.0550543334e-04 1.4805746597e+00 -2.5644305350e+00 1.4805746597e+00 2.5644305350e+00 
60700 4.8938533125e+00 5.0207976171e-04 1.4805575885e+00 -2.5644009668e+00 1.4805575885e+00 2.5644009668e+00 
60800 4.8938532316e+00 4.9867809634e-04 1.4805406327e+00 -2.5643715986e+00 1.4805406327e+00 2.5643715986e+00 
60900 4.8938531517e+00 4.9530025892e-04 1.4805237917e+00 -2.5643424290e+00 1.4805237917e+00 2.5643424290e+00 
61000 4.8938530729e+00 4.9194607261e-04 1.4805070645e+00 -2.5643134567e+00 1.4805070645e+00 2.5643134567e+00 
61100 4.8938529951e+00 4.8861536198e-04 1.4804904505e+00 -2.5642846803e+00 1.4804904505e+00 2.5642846803e+00 
61200 4.8938529184e+00 4.8530795303e-04 1.4804739487e+00 -2.5642560984e+00 1.4804739487e+00 2.5642560984e+00 
61300 4.8938528427e+00 4.8202367318e-04 1.4804575584e+00 -2.5642277096e+00 1.4804575584e+00 2.5642277096e+00 
61400 4.8938527679e+00 4.7876235124e-04 1.4804412789e+00 -2.5641995127e+00 1.4804412789e+00 2.5641995127e+00 
61500 4.8938526942e+00 4.7552381740e-04 1.4804251093e+00 -2.5641715062e+00 1.4804251093e+00 2.5641715062e+00 
61600 4.8938526215e+00 4.7230790322e-04 1.4804090490e+00 -2.5641436888e+00 1.4804090490e+00 2.5641436888e+00 
61700 4.8938525497e+00 4.6911444165e-04 1.4803930971e+00 -2.5641160593e+00 1.4803930971e+00 2.5641160593e+00 
61800 4.8938524789e+00 4.6594326694e-04 1.4803772529e+00 -2.5640886163e+00 1.4803772529e+00 2.5640886163e+00 
61900 4.8938524090e+00 4.6279421471e-04 1.4803615156e+00 -2.5640613585e+00 1.4803615156e+00 2.5640613585e+00 
62000 4.8938523401e+00 4.5966712188e-04 1.4803458845e+00 -2.5640342847e+00 1.4803458845e+00 2.5640342847e+00 
62100 4.8938522720e+00 4.5656182671e-04 1.4803303588e+00 -2.5640073935e+00 1.4803303588e+00 2.5640073935e+00 
62200 4.8938522049e+00 4.5347816873e-04 1.4803149379e+00 -2.5639806837e+00 1.4803149379e+00 2.5639806837e+00 
62300 4.8938521386e+00 4.5041598876e-04 1.4802996210e+00 -2.5639541540e+00 1.4802996210e+00 2.5639541540e+00 
62400 4.8938520733e+00 4.4737512892e-04 1.4802844073e+00 -2.5639278032e+00 1.4802844073e+00 2.5639278032e+00 
62500 4.8938520088e+00 4.4435543257e-04 1.4802692963e+00 -2.5639016300e+00 1.4802692963e+00 2.5639016300e+00 
62600 4.8938519451e+00 4.4135674434e-04 1.4802542870e+00 -2.5638756332e+00 1.4802542870e+00 2.5638756332e+00 
62700 4.8938518823e+00 4.3837891008e-04 1.4802393789e+00 -2.5638498116e+00 1.4802393789e+00 2.5638498116e+00 
62800 4.8938518204e+00 4.3542177689e-04 1.4802245712e+00 -2.5638241639e+00 1.4802245712e+00 2.5638241639e+00 
62900 4.8938517592e+00 4.3248519308e-04 1.4802098633e+00 -2.5637986891e+00 1.4802098633e+00 2.5637986891e+00 
63000 4.8938516989e+00 4.2956900817e-04 1.4801952544e+00 -2.5637733857e+00 1.4801952544e+00 2.5637733857e+00 
63100 4.8938516393e+00 4.2667307289e-04 1.4801807439e+00 -2.5637482527e+00 1.4801807439e+00 2.5637482527e+00 
63200 4.8938515806e+00 4.2379723913e-04 1.4801663310e+00 -2.5637232890e+00 1.4801663310e+00 2.5637232890e+00 
63300 4.8938515226e+00 4.2094135999e-04 1.4801520152e+00 -2.5636984932e+00 1.4801520152e+00 2.5636984932e+00 
63400 4.8938514654e+00 4.1810528970e-04 1.4801377957e+00 -2.5636738643e+00 1.4801377957e+00 2.5636738643e+00 
63500 4.8938514090e+00 4.1528888368e-04 1.4801236718e+00 -2.5636494011e+00 1.4801236718e+00 2.5636494011e+00 
63600 4.8938513533e+00 4.1249199848e-04 1.4801096430e+00 -2.5636251024e+00 1.4801096430e+00 2.5636251024e+00 
63700 4.8938512983e+00 4.0971449177e-04 1.4800957085e+00 -2.5636009672e+00 1.4800957085e+00 2.5636009672e+00 
63800 4.8938512441e+00 4.0695622237e-04 1.4800818677e+00 -2.5635769942e+00 1.4800818677e+00 2.5635769942e+00 
63900 4.8938511906e+00 4.0421705021e-04 1.4800681200e+00 -2.5635531824e+00 1.4800681200e+00 2.5635531824e+00 
64000 4.8938511378e+00 4.0149683632e-04 1.4800544646e+00 -2.5635295307e+00 1.4800544646e+00 2.5635295307e+00 
64100 4.8938510857e+00 3.9879544282e-04 1.4800409011e+00 -2.5635060379e+00 1.4800409011e+00 2.5635060379e+00 
64200 4.8938510343e+00 3.9611273293e-04 1.4800274286e+00 -2.5634827030e+00 1.4800274286e+00 2.5634827030e+00 
64300 4.8938509835e+00 3.9344857094e-04 1.4800140467e+00 -2.5634595248e+00 1.4800140467e+00 2.5634595248e+00 
64400 4.8938509335e+00 3.9080282219e-04 1.4800007547e+00 -2.5634365024e+00 1.4800007547e+00 2.5634365024e+00 
64500 4.8938508841e+00 3.8817535312e-04 1.4799875519e+00 -2.5634136345e+00 1.4799875519e+00 2.5634136345e+00 
64600 4.8938508353e+00 3.8556603117e-04 1.4799744378e+00 -2.5633909202e+00 1.4799744378e+00 2.5633909202e+00 
64700 4.8938507872e+00 3.8297472485e-04 1.4799614117e+00 -2.5633683583e+00 1.4799614117e+00 2.5633683583e+00 
64800 4.8938507398e+00 3.8040130369e-04 1.4799484731e+00 -2.5633459479e+00 1.4799484731e+00 2.5633459479e+00 
64900 4.8938506929e+00 3.7784563825e-04 1.4799356212e+00 -2.5633236879e+00 1.4799356212e+00 2.5633236879e+00 
65000 4.8938506467e+00 3.7530760009e-04 1.4799228556e+00 -2.5633015772e+00 1.4799228556e+00 2.5633015772e+00 
65100 4.8938506011e+00 3.7278706177e-04 1.4799101757e+00 -2.5632796149e+00 1.4799101757e+00 2.5632796149e+00 
65200 4.8938505561e+00 3.7028389687e-04 1.4798975808e+00 -2.5632577999e+00 1.4798975808e+00 2.5632577999e+00 
65300 4.8938505117e+00 3.6779797992e-04 1.4798850703e+00 -2.5632361312e+00 1.4798850703e+00 2.5632361312e+00 
65400 4.8938504679e+00 3.6532918646e-04 1.4798726438e+00 -2.5632146078e+00 1.4798726438e+00 2.5632146078e+00 
65500 4.8938504246e+00 3.6287739298e-04 1.4798603005e+00 -2.5631932286e+00 1.4798603005e+00 2.5631932286e+00 
65600 4.8938503820e+00 3.6044247693e-04 1.4798480400e+00 -2.5631719928e+00 1.4798480400e+00 2.5631719928e+00 
65700 4.8938503399e+00 3.5802431672e-04 1.4798358617e+00 -2.5631508993e+00 1.4798358617e+00 2.5631508993e+00 
65800 4.8938502983e+00 3.5562279171e-04 1.4798237649e+00 -2.5631299471e+00 1.4798237649e+00 2.5631299471e+00 
65900 4.8938502573e+00 3.5323778219e-04 1.4798117492e+00 -2.5631091353e+00 1.4798117492e+00 2.5631091353e+00 
66000 4.8938502169e+00 3.5086916935e-04 1.4797998140e+00 -2.5630884629e+00 1.4797998140e+00 2.5630884629e+00 
66100 4.8938501769e+00 3.4851683536e-04 1.4797879588e+00 -2.5630679290e+00 1.4797879588e+00 2.5630679290e+00 
66200 4.8938501375e+00 3.4618066324e-04 1.4797761829e+00 -2.5630475326e+00 1.4797761829e+00 2.5630475326e+00 
66300 4.8938500987e+00 3.4386053695e-04 1.4797644858e+00 -2.5630272727e+00 1.4797644858e+00 2.5630272727e+00 
66400 4.8938500603e+00 3.4155634134e-04 1.4797528671e+00 -2.5630071484e+00 1.4797528671e+00 2.5630071484e+00 
66500 4.8938500224e+00 3.3926796214e-04 1.4797413261e+00 -2.5629871589e+00 1.4797413261e+00 2.5629871589e+00 
66600 4.8938499851e+00 3.3699528596e-04 1.4797298624e+00 -2.5629673031e+00 1.4797298624e+00 2.5629673031e+00 
66700 4.8938499482e+00 3.3473820031e-04 1.4797184753e+00 -2.5629475801e+00 1.4797184753e+00 2.5629475801e+00 
66800 4.8938499118e+00 3.3249659354e-04 1.4797071645e+00 -2.5629279892e+00 1.4797071645e+00 2.5629279892e+00 
66900 4.8938498759e+00 3.3027035485e-04 1.4796959293e+00 -2.5629085292e+00 1.4796959293e+00 2.5629085292e+00 
67000 4.8938498405e+00 3.2805937432e-04 1.4796847692e+00 -2.5628891994e+00 1.4796847692e+00 2.5628891994e+00 
67100 4.8938498056e+00 3.2586354285e-04 1.4796736838e+00 -2.5628699989e+00 1.4796736838e+00 2.5628699989e+00 
67200 4.8938497711e+00 3.2368275219e-04 1.4796626724e+00 -2.5628509267e+00 1.4796626724e+00 2.5628509267e+00 
67300 4.8938497370e+00 3.2151689492e-04 1.4796517347e+00 -2.5628319821e+00 1.4796517347e+00 2.5628319821e+00 
67400 4.8938497035e+00 3.1936586443e-04 1.4796408701e+00 -2.5628131640e+00 1.4796408701e+00 2.5628131640e+00 
67500 4.8938496703e+00 3.1722955495e-04 1.4796300781e+00 -2.5627944717e+00 1.4796300781e+00 2.5627944717e+00 
67600 4.8938496376e+00 3.1510786149e-04 1.4796193583e+00 -2.5627759044e+00 1.4796193583e+00 2.5627759044e+00 
67700 4.8938496053e+00 3.1300067987e-04 1.4796087100e+00 -2.5627574610e+00 1.4796087100e+00 2.5627574610e+00 
67800 4.8938495735e+00 3.1090790673e-04 1.4795981329e+00 -2.5627391409e+00 1.4795981329e+00 2.5627391409e+00 
67900 4.8938495420e+00 3.0882943946e-04 1.4795876264e+00 -2.5627209431e+00 1.4795876264e+00 2.5627209431e+00 
68000 4.8938495110e+00 3.0676517626e-04 1.4795771901e+00 -2.5627028669e+00 1.4795771901e+00 2.5627028669e+00 
68100 4.8938494804e+00 3.0471501609e-04 1.4795668234e+00 -2.5626849114e+00 1.4795668234e+00 2.5626849114e+00 
68200 4.8938494502e+00 3.0267885869e-04 1.4795565260e+00 -2.5626670757e+00 1.4795565260e+00 2.5626670757e+00 
68300 4.8938494204e+00 3.0065660455e-04 1.4795462973e+00 -2.5626493591e+00 1.4795462973e+00 2.5626493591e+00 
68400 4.8938493910e+00 2.9864815492e-04 1.4795361369e+00 -2.5626317607e+00 1.4795361369e+00 2.5626317607e+00 
68500 4.8938493620e+00 2.9665341182e-04 1.4795260443e+00 -2.5626142798e+00 1.4795260443e+00 2.5626142798e+00 
68600 4.8938493333e+00 2.9467227798e-04 1.4795160190e+00 -2.5625969155e+00 1.4795160190e+00 2.5625969155e+00 
68700 4.8938493051e+00 2.9270465688e-04 1.4795060606e+00 -2.5625796671e+00 1.4795060606e+00 2.5625796671e+00 
68800 4.8938492772e+00 2.9075045274e-04 1.4794961686e+00 -2.5625625337e+00 1.4794961686e+00 2.5625625337e+00 
68900 4.8938492496e+00 2.8880957049e-04 1.4794863427e+00 -2.5625455146e+00 1.4794863427e+00 2.5625455146e+00 
69000 4.8938492225e+00 2.8688191580e-04 1.4794765822e+00 -2.5625286090e+00 1.4794765822e+00 2.5625286090e+00 
69100 4.8938491957e+00 2.8496739502e-04 1.4794668868e+00 -2.5625118161e+00 1.4794668868e+00 2.5625118161e+00 
69200 4.8938491692e+00 2.8306591524e-04 1.4794572561e+00 -2.5624951352e+00 1.4794572561e+00 2.5624951352e+00 
69300 4.8938491431e+00 2.8117738423e-04 1.4794476896e+00 -2.5624785654e+00 1.4794476896e+00 2.5624785654e+00 
69400 4.8938491174e+00 2.7930171047e-04 1.4794381868e+00 -2.5624621062e+00 1.4794381868e+00 2.5624621062e+00 
69500 4.8938490920e+00 2.7743880311e-04 1.4794287473e+00 -2.5624457566e+00 1.4794287473e+00 2.5624457566e+00 
69600 4.8938490669e+00 2.7558857200e-04 1.4794193708e+00 -2.5624295159e+00 1.4794193708e+00 2.5624295159e+00 
69700 4.8938490421e+00 2.7375092765e-04 1.4794100567e+00 -2.5624133835e+00 1.4794100567e+00 2.5624133835e+00 
69800 4.8938490177e+00 2.7192578128e-04 1.4794008047e+00 -2.5623973585e+00 1.4794008047e+00 2.5623973585e+00 
69900 4.8938489936e+00 2.7011304473e-04 1.4793916143e+00 -2.5623814403e+00 1.4793916143e+00 2.5623814403e+00 
70000 4.8938489698e+00 2.6831263053e-04 1.4793824851e+00 -2.5623656281e+00 1.4793824851e+00 2.5623656281e+00 
70100 4.8938489463e+00 2.6652445186e-04 1.4793734167e+00 -2.5623499212e+00 1.4793734167e+00 2.5623499212e+00 
70200 4.8938489232e+00 2.6474842255e-04 1.4793644087e+00 -2.5623343188e+00 1.4793644087e+00 2.5623343188e+00 
70300 4.8938489003e+00 2.6298445707e-04 1.4793554607e+00 -2.5623188204e+00 1.4793554607e+00 2.5623188204e+00 
70400 4.8938488777e+00 2.6123247054e-04 1.4793465722e+00 -2.5623034251e+00 1.4793465722e+00 2.5623034251e+00 
70500 4.8938488555e+00 2.5949237870e-04 1.4793377429e+00 -2.5622881323e+00 1.4793377429e+00 2.5622881323e+00 
70600 4.8938488335e+00 2.5776409793e-04 1.4793289724e+00 -2.5622729412e+00 1.4793289724e+00 2.5622729412e+00 
70700 4.8938488118e+00 2.5604754524e-04 1.4793202602e+00 -2.5622578513e+00 1.4793202602e+00 2.5622578513e+00 
70800 4.8938487904e+00 2.5434263824e-04 1.4793116059e+00 -2.5622428617e+00 1.4793116059e+00 2.5622428617e+00 
70900 4.8938487693e+00 2.5264929517e-04 1.4793030093e+00 -2.5622279719e+00 1.4793030093e+00 2.5622279719e+00 
71000 4.8938487485e+00 2.5096743488e-04 1.4792944698e+00 -2.5622131811e+00 1.4792944698e+00 2.5622131811e+00 
71100 4.8938487279e+00 2.4929697681e-04 1.4792859872e+00 -2.5621984887e+00 1.4792859872e+00 2.5621984887e+00 
71200 4.8938487076e+00 2.4763784101e-04 1.4792775609e+00 -2.5621838940e+00 1.4792775609e+00 2.5621838940e+00 
71300 4.8938486876e+00 2.4598994811e-04 1.4792691907e+00 -2.5621693964e+00 1.4792691907e+00 2.5621693964e+00 
71400 4.8938486678e+00 2.4435321936e-04 1.4792608761e+00 -2.5621549951e+00 1.4792608761e+00 2.5621549951e+00 
71500 4.8938486483e+00 2.4272757657e-04 1.4792526168e+00 -2.5621406896e+00 1.4792526168e+00 2.5621406896e+00 
71600 4.8938486291e+00 2.4111294213e-04 1.4792444124e+00 -2.5621264792e+00 1.4792444124e+00 2.5621264792e+00 
71700 4.8938486101e+00 2.3950923901e-04 1.4792362626e+00 -2.5621123632e+00 1.4792362626e+00 2.5621123632e+00 
71800 4.8938485914e+00 2.3791639076e-04 1.4792281669e+00 -2.5620983410e+00 1.4792281669e+00 2.5620983410e+00 
71900 4.8938485729e+00 2.3633432148e-04 1.4792201250e+00 -2.5620844121e+00 1.4792201250e+00 2.5620844121e+00 
72000 4.8938485546e+00 2.3476295583e-04 1.4792121365e+00 -2.5620705756e+00 1.4792121365e+00 2.5620705756e+00 
72100 4.8938485366e+00 2.3320221905e-04 1.4792042011e+00 -2.5620568311e+00 1.4792042011e+00 2.5620568311e+00 
72200 4.8938485188e+00 2.3165203691e-04 1.4791963184e+00 -2.5620431779e+00 1.4791963184e+00 2.5620431779e+00 
72300 4.8938485013e+00 2.3011233574e-04 1.4791884881e+00 -2.5620296154e+00 1.4791884881e+00 2.5620296154e+00 
72400 4.8938484840e+00 2.2858304240e-04 1.4791807098e+00 -2.5620161429e+00 1.4791807098e+00 2.5620161429e+00 
72500 4.8938484669e+00 2.2706408430e-04 1.4791729831e+00 -2.5620027599e+00 1.4791729831e+00 2.5620027599e+00 
72600 4.8938484500e+00 2.2555538939e-04 1.4791653077e+00 -2.5619894658e+00 1.4791653077e+00 2.5619894658e+00 
72700 4.8938484334e+00 2.2405688614e-04 1.4791576833e+00 -2.5619762599e+00 1.4791576833e+00 2.5619762599e+00 
72800 4.8938484170e+00 2.2256850355e-04 1.4791501095e+00 -2.5619631417e+00 1.4791501095e+00 2.5619631417e+00 
72900 4.8938484008e+00 2.2109017113e-04 1.4791425860e+00 -2.5619501106e+00 1.4791425860e+00 2.5619501106e+00 
73000 4.8938483848e+00 2.1962181893e-04 1.4791351124e+00 -2.5619371660e+00 1.4791351124e+00 2.5619371660e+00 
73100 4.8938483690e+00 2.1816337750e-04 1.4791276884e+00 -2.5619243073e+00 1.4791276884e+00 2.5619243073e+00 
73200 4.8938483534e+00 2.1671477791e-04 1.4791203137e+00 -2.5619115339e+00 1.4791203137e+00 2.5619115339e+00 
73300 4.8938483381e+00 2.1527595171e-04 1.4791129879e+00 -2.5618988452e+00 1.4791129879e+00 2.5618988452e+00 
73400 4.8938483229e+00 2.1384683098e-04 1.4791057107e+00 -2.5618862408e+00 1.4791057107e+00 2.5618862408e+00 
73500 4.8938483079e+00 2.1242734829e-04 1.4790984818e+00 -2.5618737199e+00 1.4790984818e+00 2.5618737199e+00 
73600 4.8938482932e+00 2.1101743669e-04 1.4790913009e+00 -2.5618612821e+00 1.4790913009e+00 2.5618612821e+00 
73700 4.8938482786e+00 2.0961702974e-04 1.4790841675e+00 -2.5618489268e+00 1.4790841675e+00 2.5618489268e+00 
73800 4.8938482642e+00 2.0822606147e-04 1.4790770815e+00 -2.5618366534e+00 1.4790770815e+00 2.5618366534e+00 
73900 4.8938482500e+00 2.0684446639e-04 1.4790700424e+00 -2.5618244614e+00 1.4790700424e+00 2.5618244614e+00 
74000 4.8938482360e+00 2.0547217951e-04 1.4790630501e+00 -2.5618123503e+00 1.4790630501e+00 2.5618123503e+00 
74100 4.8938482222e+00 2.0410913630e-04 1.4790561040e+00 -2.5618003194e+00 1.4790561040e+00 2.5618003194e+00 
74200 4.8938482085e+00 2.0275527268e-04 1.4790492041e+00 -2.5617883683e+00 1.4790492041e+00 2.5617883683e+00 
74300 4.8938481951e+00 2.0141052508e-04 1.4790423498e+00 -2.5617764964e+00 1.4790423498e+00 2.5617764964e+00 
74400 4.8938481818e+00 2.0007483035e-04 1.4790355410e+00 -2.5617647032e+00 1.4790355410e+00 2.5617647032e+00 
74500 4.8938481687e+00 1.9874812584e-04 1.4790287773e+00 -2.5617529882e+00 1.4790287773e+00 2.5617529882e+00 
74600 4.8938481557e+00 1.9743034932e-04 1.4790220585e+00 -2.5617413508e+00 1.4790220585e+00 2.5617413508e+00 
74700 4.8938481430e+00 1.9612143904e-04 1.4790153841e+00 -2.5617297904e+00 1.4790153841e+00 2.5617297904e+00 
74800 4.8938481304e+00 1.9482133367e-04 1.4790087540e+00 -2.5617183067e+00 1.4790087540e+00 2.5617183067e+00 
74900 4.8938481179e+00 1.9352997235e-04 1.4790021678e+00 -2.5617068991e+00 1.4790021678e+00 2.5617068991e+00 
75000 4.8938481057e+00 1.9224729466e-04 1.4789956252e+00 -2.5616955670e+00 1.4789956252e+00 2.5616955670e+00 
75100 4.8938480935e+00 1.9097324060e-04 1.4789891259e+00 -2.5616843100e+00 1.4789891259e+00 2.5616843100e+00 
75200 4.8938480816e+00 1.8970775062e-04 1.4789826697e+00 -2.5616731275e+00 1.4789826697e+00 2.5616731275e+00 
75300 4.8938480698e+00 1.8845076559e-04 1.4789762563e+00 -2.5616620191e+00 1.4789762563e+00 2.5616620191e+00 
75400 4.8938480581e+00 1.8720222684e-04 1.4789698853e+00 -2.5616509842e+00 1.4789698853e+00 2.5616509842e+00 
75500 4.8938480467e+00 1.8596207607e-04 1.4789635565e+00 -2.5616400224e+00 1.4789635565e+00 2.5616400224e+00 
75600 4.8938480353e+00 1.8473025545e-04 1.4789572696e+00 -2.5616291332e+00 1.4789572696e+00 2.5616291332e+00 
75700 4.8938480241e+00 1.8350670754e-04 1.4789510243e+00 -2.5616183160e+00 1.4789510243e+00 2.5616183160e+00 
75800 4.8938480131e+00 1.8229137533e-04 1.4789448204e+00 -2.5616075705e+00 1.4789448204e+00 2.5616075705e+00 
75900 4.8938480022e+00 1.8108420221e-04 1.4789386575e+00 -2.5615968961e+00 1.4789386575e+00 2.5615968961e+00 
76000 4.8938479914e+00 1.7988513200e-04 1.4789325354e+00 -2.5615862923e+00 1.4789325354e+00 2.5615862923e+00 
76100 4.8938479808e+00 1.7869410888e-04 1.4789264538e+00 -2.5615757587e+00 1.4789264538e+00 2.5615757587e+00 
76200 4.8938479703e+00 1.7751107749e-04 1.4789204125e+00 -2.5615652948e+00 1.4789204125e+00 2.5615652948e+00 
76300 4.8938479600e+00 1.7633598282e-04 1.4789144111e+00 -2.5615549001e+00 1.4789144111e+00 2.5615549001e+00 
76400 4.8938479498e+00 1.7516877029e-04 1.4789084494e+00 -2.5615445742e+00 1.4789084494e+00 2.5615445742e+00 
76500 4.8938479397e+00 1.7400938569e-04 1.4789025272e+00 -2.5615343166e+00 1.4789025272e+00 2.5615343166e+00 
76600 4.8938479298e+00 1.7285777521e-04 1.4788966442e+00 -2.5615241268e+00 1.4788966442e+00 2.5615241268e+00 
76700 4.8938479200e+00 1.7171388543e-04 1.4788908000e+00 -2.5615140045e+00 1.4788908000e+00 2.5615140045e+00 
76800 4.8938479103e+00 1.7057766330e-04 1.4788849945e+00 -2.5615039491e+00 1.4788849945e+00 2.5615039491e+00 
76900 4.8938479008e+00 1.6944905616e-04 1.4788792274e+00 -2.5614939602e+00 1.4788792274e+00 2.5614939602e+00 
77000 4.8938478913e+00 1.6832801174e-04 1.4788734985e+00 -2.5614840373e+00 1.4788734985e+00 2.5614840373e+00 
77100 4.8938478820e+00 1.6721447812e-04 1.4788678074e+00 -2.5614741800e+00 1.4788678074e+00 2.5614741800e+00 
77200 4.8938478729e+00 1.6610840377e-04 1.4788621539e+00 -2.5614643880e+00 1.4788621539e+00 2.5614643880e+00 
77300 4.8938478638e+00 1.6500973751e-04 1.4788565378e+00 -2.5614546606e+00 1.4788565378e+00 2.5614546606e+00 
77400 4.8938478549e+00 1.6391842856e-04 1.4788509589e+00 -2.5614449976e+00 1.4788509589e+00 2.5614449976e+00 
77500 4.8938478460e+00 1.6283442647e-04 1.4788454168e+00 -2.5614353984e+00 1.4788454168e+00 2.5614353984e+00 
77600 4.8938478373e+00 1.6175768117e-04 1.4788399113e+00 -2.5614258627e+00 1.4788399113e+00 2.5614258627e+00 
77700 4.8938478287e+00 1.6068814293e-04 1.4788344423e+00 -2.5614163900e+00 1.4788344423e+00 2.5614163900e+00 
77800 4.8938478203e+00 1.5962576241e-04 1.4788290093e+00 -2.5614069799e+00 1.4788290093e+00 2.5614069799e+00 
77900 4.8938478119e+00 1.5857049057e-04 1.4788236123e+00 -2.5613976319e+00 1.4788236123e+00 2.5613976319e+00 
78000 4.8938478036e+00 1.5752227877e-04 1.4788182509e+00 -2.5613883458e+00 1.4788182509e+00 2.5613883458e+00 
78100 4.8938477955e+00 1.5648107869e-04 1.4788129250e+00 -2.5613791210e+00 1.4788129250e+00 2.5613791210e+00 
78200 4.8938477874e+00 1.5544684236e-04 1.4788076342e+00 -2.5613699571e+00 1.4788076342e+00 2.5613699571e+00 
78300 4.8938477795e+00 1.5441952216e-04 1.4788023784e+00 -2.5613608538e+00 1.4788023784e+00 2.5613608538e+00 
78400 4.8938477717e+00 1.5339907079e-04 1.4787971573e+00 -2.5613518105e+00 1.4787971573e+00 2.5613518105e+00 
78500 4.8938477639e+00 1.5238544130e-04 1.4787919707e+00 -2.5613428271e+00 1.4787919707e+00 2.5613428271e+00 
78600 4.8938477563e+00 1.5137858707e-04 1.4787868183e+00 -2.5613339029e+00 1.4787868183e+00 2.5613339029e+00 
78700 4.8938477488e+00 1.5037846183e-04 1.4787817000e+00 -2.5613250377e+00 1.4787817000e+00 2.5613250377e+00 
78800 4.8938477413e+00 1.4938501960e-04 1.4787766155e+00 -2.5613162310e+00 1.4787766155e+00 2.5613162310e+00 
78900 4.8938477340e+00 1.4839821477e-04 1.4787715645e+00 -2.5613074825e+00 1.4787715645e+00 2.5613074825e+00 
79000 4.8938477268e+00 1.4741800202e-04 1.4787665469e+00 -2.5612987917e+00 1.4787665469e+00 2.5612987917e+00 
79100 4.8938477196e+00 1.4644433637e-04 1.4787615624e+00 -2.5612901584e+00 1.4787615624e+00 2.5612901584e+00 
79200 4.8938477126e+00 1.4547717315e-04 1.4787566108e+00 -2.5612815820e+00 1.4787566108e+00 2.5612815820e+00 
79300 4.8938477056e+00 1.4451646802e-04 1.4787516919e+00 -2.5612730622e+00 1.4787516919e+00 2.5612730622e+00 
79400 4.8938476988e+00 1.4356217694e-04 1.4787468055e+00 -2.5612645986e+00 1.4787468055e+00 2.5612645986e+00 
79500 4.8938476920e+00 1.4261425618e-04 1.4787419513e+00 -2.5612561909e+00 1.4787419513e+00 2.5612561909e+00 
79600 4.8938476853e+00 1.4167266233e-04 1.4787371292e+00 -2.5612478387e+00 1.4787371292e+00 2.5612478387e+00 
79700 4.8938476787e+00 1.4073735229e-04 1.4787323388e+00 -2.5612395417e+00 1.4787323388e+00 2.5612395417e+00 
79800 4.8938476722e+00 1.3980828325e-04 1.4787275801e+00 -2.5612312993e+00 1.4787275801e+00 2.5612312993e+00 
79900 4.8938476658e+00 1.3888541272e-04 1.4787228528e+00 -2.5612231114e+00 1.4787228528e+00 2.5612231114e+00 
80000 4.8938476594e+00 1.3796869850e-04 1.4787181567e+00 -2.5612149774e+00 1.4787181567e+00 2.5612149774e+00 
80100 4.8938476531e+00 1.3705809869e-04 1.4787134915e+00 -2.5612068972e+00 1.4787134915e+00 2.5612068972e+00 
80200 4.8938476470e+00 1.3615357167e-04 1.4787088572e+00 -2.5611988702e+00 1.4787088572e+00 2.5611988702e+00 
80300 4.8938476409e+00 1.3525507615e-04 1.4787042534e+00 -2.5611908962e+00 1.4787042534e+00 2.5611908962e+00 
80400 4.8938476349e+00 1.3436257110e-04 1.4786996799e+00 -2.5611829748e+00 1.4786996799e+00 2.5611829748e+00 
80500 4.8938476289e+00 1.3347601580e-04 1.4786951367e+00 -2.5611751056e+00 1.4786951367e+00 2.5611751056e+00 
80600 4.8938476231e+00 1.3259536979e-04 1.4786906234e+00 -2.5611672884e+00 1.4786906234e+00 2.5611672884e+00 
80700 4.8938476173e+00 1.3172059293e-04 1.4786861398e+00 -2.5611595226e+00 1.4786861398e+00 2.5611595226e+00 
80800 4.8938476116e+00 1.3085164533e-04 1.4786816859e+00 -2.5611518081e+00 1.4786816859e+00 2.5611518081e+00 
80900 4.8938476059e+00 1.2998848740e-04 1.4786772613e+00 -2.5611441445e+00 1.4786772613e+00 2.5611441445e+00 
81000 4.8938476004e+00 1.2913107983e-04 1.4786728658e+00 -2.5611365314e+00 1.4786728658e+00 2.5611365314e+00 
81100 4.8938475949e+00 1.2827938357e-04 1.4786684994e+00 -2.5611289685e+00 1.4786684994e+00 2.5611289685e+00 
81200 4.8938475895e+00 1.2743335987e-04 1.4786641617e+00 -2.5611214554e+00 1.4786641617e+00 2.5611214554e+00 
81300 4.8938475841e+00 1.2659297022e-04 1.4786598527e+00 -2.5611139919e+00 1.4786598527e+00 2.5611139919e+00 
81400 4.8938475788e+00 1.2575817640e-04 1.4786555720e+00 -2.5611065776e+00 1.4786555720e+00 2.5611065776e+00 
81500 4.8938475736e+00 1.2492894046e-04 1.4786513195e+00 -2.5610992121e+00 1.4786513195e+00 2.5610992121e+00 
81600 4.8938475685e+00 1.2410522472e-04 1.4786470951e+00 -2.5610918952e+00 1.4786470951e+00 2.5610918952e+00 
81700 4.8938475634e+00 1.2328699175e-04 1.4786428985e+00 -2.5610846265e+00 1.4786428985e+00 2.5610846265e+00 
81800 4.8938475584e+00 1.2247420438e-04 1.4786387296e+00 -2.5610774057e+00 1.4786387296e+00 2.5610774057e+00 
81900 4.8938475535e+00 1.2166682572e-04 1.4786345882e+00 -2.5610702325e+00 1.4786345882e+00 2.5610702325e+00 
82000 4.8938475486e+00 1.2086481912e-04 1.4786304740e+00 -2.5610631066e+00 1.4786304740e+00 2.5610631066e+00 
82100 4.8938475438e+00 1.2006814821e-04 1.4786263870e+00 -2.5610560276e+00 1.4786263870e+00 2.5610560276e+00 
82200 4.8938475391e+00 1.1927677684e-04 1.4786223268e+00 -2.5610489953e+00 1.4786223268e+00 2.5610489953e+00 
82300 4.8938475344e+00 1.1849066914e-04 1.4786182935e+00 -2.5610420093e+00 1.4786182935e+00 2.5610420093e+00 
82400 4.8938475298e+00 1.1770978948e-04 1.4786142867e+00 -2.5610350693e+00 1.4786142867e+00 2.5610350693e+00 
82500 4.8938475252e+00 1.1693410249e-04 1.4786103063e+00 -2.5610281750e+00 1.4786103063e+00 2.5610281750e+00 
82600 4.8938475207e+00 1.1616357303e-04 1.4786063521e+00 -2.5610213262e+00 1.4786063521e+00 2.5610213262e+00 
82700 4.8938475162e+00 1.1539816622e-04 1.4786024239e+00 -2.5610145224e+00 1.4786024239e+00 2.5610145224e+00 
82800 4.8938475119e+00 1.1463784741e-04 1.4785985217e+00 -2.5610077635e+00 1.4785985217e+00 2.5610077635e+00 
82900 4.8938475075e+00 1.1388258221e-04 1.4785946451e+00 -2.5610010491e+00 1.4785946451e+00 2.5610010491e+00 
83000 4.8938475033e+00 1.1313233645e-04 1.4785907940e+00 -2.5609943789e+00 1.4785907940e+00 2.5609943789e+00 
83100 4.8938474990e+00 1.1238707622e-04 1.4785869684e+00 -2.5609877526e+00 1.4785869684e+00 2.5609877526e+00 
83200 4.8938474949e+00 1.1164676782e-04 1.4785831679e+00 -2.5609811700e+00 1.4785831679e+00 2.5609811700e+00 
83300 4.8938474908e+00 1.1091137781e-04 1.4785793924e+00 -2.5609746307e+00 1.4785793924e+00 2.5609746307e+00 
83400 4.8938474867e+00 1.1018087297e-04 1.4785756418e+00 -2.5609681345e+00 1.4785756418e+00 2.5609681345e+00 
83500 4.8938474827e+00 1.0945522031e-04 1.4785719159e+00 -2.5609616810e+00 1.4785719159e+00 2.5609616810e+00 
83600 4.8938474788e+00 1.0873438708e-04 1.4785682145e+00 -2.5609552700e+00 1.4785682145e+00 2.5609552700e+00 
83700 4.8938474749e+00 1.0801834075e-04 1.4785645375e+00 -2.5609489012e+00 1.4785645375e+00 2.5609489012e+00 
83800 4.8938474710e+00 1.0730704901e-04 1.4785608847e+00 -2.5609425744e+00 1.4785608847e+00 2.5609425744e+00 
83900 4.8938474672e+00 1.0660047978e-04 1.4785572559e+00 -2.5609362892e+00 1.4785572559e+00 2.5609362892e+00 
84000 4.8938474635e+00 1.0589860122e-04 1.4785536511e+00 -2.5609300453e+00 1.4785536511e+00 2.5609300453e+00 
84100 4.8938474598e+00 1.0520138168e-04 1.4785500699e+00 -2.5609238426e+00 1.4785500699e+00 2.5609238426e+00 
84200 4.8938474562e+00 1.0450878976e-04 1.4785465123e+00 -2.5609176807e+00 1.4785465123e+00 2.5609176807e+00 
84300 4.8938474526e+00 1.0382079425e-04 1.4785429781e+00 -2.5609115593e+00 1.4785429781e+00 2.5609115593e+00 
84400 4.8938474490e+00 1.0313736419e-04 1.4785394672e+00 -2.5609054782e+00 1.4785394672e+00 2.5609054782e+00 
84500 4.8938474455e+00 1.0245846879e-04 1.4785359794e+00 -2.5608994372e+00 1.4785359794e+00 2.5608994372e+00 
84600 4.8938474420e+00 1.0178407752e-04 1.4785325146e+00 -2.5608934359e+00 1.4785325146e+00 2.5608934359e+00 
84700 4.8938474386e+00 1.0111416002e-04 1.4785290725e+00 -2.5608874740e+00 1.4785290725e+00 2.5608874740e+00 
84800 4.8938474352e+00 1.0044868618e-04 1.4785256531e+00 -2.5608815514e+00 1.4785256531e+00 2.5608815514e+00 
84900 4.8938474319e+00 9.9787626076e-05 1.4785222562e+00 -2.5608756678e+00 1.4785222562e+00 2.5608756678e+00 
85000 4.8938474286e+00 9.9130949987e-05 1.4785188816e+00 -2.5608698229e+00 1.4785188816e+00 2.5608698229e+00 
85100 4.8938474254e+00 9.8478628409e-05 1.4785155292e+00 -2.5608640164e+00 1.4785155292e+00 2.5608640164e+00 
85200 4.8938474222e+00 9.7830632039e-05 1.4785121989e+00 -2.5608582481e+00 1.4785121989e+00 2.5608582481e+00 
85300 4.8938474190e+00 9.7186931776e-05 1.4785088905e+00 -2.5608525178e+00 1.4785088905e+00 2.5608525178e+00 
85400 4.8938474159e+00 9.6547498720e-05 1.4785056038e+00 -2.5608468251e+00 1.4785056038e+00 2.5608468251e+00 
85500 4.8938474129e+00 9.5912304172e-05 1.4785023388e+00 -2.5608411699e+00 1.4785023388e+00 2.5608411699e+00 
85600 4.8938474098e+00 9.5281319630e-05 1.4784990952e+00 -2.5608355519e+00 1.4784990952e+00 2.5608355519e+00 
85700 4.8938474068e+00 9.4654516790e-05 1.4784958730e+00 -2.5608299708e+00 1.4784958730e+00 2.5608299708e+00 
85800 4.8938474039e+00 9.4031867542e-05 1.4784926720e+00 -2.5608244265e+00 1.4784926720e+00 2.5608244265e+00 
85900 4.8938474010e+00 9.3413343971e-05 1.4784894920e+00 -2.5608189185e+00 1.4784894920e+00 2.5608189185e+00 
86000 4.8938473981e+00 9.2798918356e-05 1.4784863329e+00 -2.5608134469e+00 1.4784863329e+00 2.5608134469e+00 
86100 4.8938473952e+00 9.2188563163e-05 1.4784831946e+00 -2.5608080112e+00 1.4784831946e+00 2.5608080112e+00 
86200 4.8938473924e+00 9.1582251054e-05 1.4784800769e+00 -2.5608026112e+00 1.4784800769e+00 2.5608026112e+00 
86300 4.8938473897e+00 9.0979954874e-05 1.4784769797e+00 -2.5607972467e+00 1.4784769797e+00 2.5607972467e+00 
86400 4.8938473869e+00 9.0381647658e-05 1.4784739029e+00 -2.5607919175e+00 1.4784739029e+00 2.5607919175e+00 
86500 4.8938473842e+00 8.9787302626e-05 1.4784708463e+00 -2.5607866234e+00 1.4784708463e+00 2.5607866234e+00 
86600 4.8938473816e+00 8.9196893183e-05 1.4784678098e+00 -2.5607813640e+00 1.4784678098e+00 2.5607813640e+00 
86700 4.8938473790e+00 8.8610392916e-05 1.4784647933e+00 -2.5607761392e+00 1.4784647933e+00 2.5607761392e+00 
86800 4.8938473764e+00 8.8027775595e-05 1.4784617966e+00 -2.5607709488e+00 1.4784617966e+00 2.5607709488e+00 
86900 4.8938473738e+00 8.7449015169e-05 1.4784588196e+00 -2.5607657925e+00 1.4784588196e+00 2.5607657925e+00 
87000 4.8938473713e+00 8.6874085768e-05 1.4784558622e+00 -2.5607606700e+00 1.4784558622e+00 2.5607606700e+00 
87100 4.8938473688e+00 8.6302961699e-05 1.4784529242e+00 -2.5607555813e+00 1.4784529242e+00 2.5607555813e+00 
87200 4.8938473663e+00 8.5735617444e-05 1.4784500055e+00 -2.5607505259e+00 1.4784500055e+00 2.5607505259e+00 
87300 4.8938473639e+00 8.5172027664e-05 1.4784471060e+00 -2.5607455038e+00 1.4784471060e+00 2.5607455038e+00 
87400 4.8938473615e+00 8.4612167191e-05 1.4784442255e+00 -2.5607405148e+00 1.4784442255e+00 2.5607405148e+00 
87500 4.8938473592e+00 8.4056011032e-05 1.4784413640e+00 -2.5607355584e+00 1.4784413640e+00 2.5607355584e+00 
87600 4.8938473568e+00 8.3503534362e-05 1.4784385213e+00 -2.5607306347e+00 1.4784385213e+00 2.5607306347e+00 
87700 4.8938473545e+00 8.2954712532e-05 1.4784356972e+00 -2.5607257433e+00 1.4784356972e+00 2.5607257433e+00 
87800 4.8938473523e+00 8.2409521057e-05 1.4784328917e+00 -2.5607208841e+00 1.4784328917e+00 2.5607208841e+00 
87900 4.8938473500e+00 8.1867935622e-05 1.4784301047e+00 -2.5607160567e+00 1.4784301047e+00 2.5607160567e+00 
88000 4.8938473478e+00 8.1329932080e-05 1.4784273359e+00 -2.5607112611e+00 1.4784273359e+00 2.5607112611e+00 
88100 4.8938473456e+00 8.0795486447e-05 1.4784245854e+00 -2.5607064970e+00 1.4784245854e+00 2.5607064970e+00 
88200 4.8938473435e+00 8.0264574904e-05 1.4784218529e+00 -2.5607017642e+00 1.4784218529e+00 2.5607017642e+00 
88300 4.8938473413e+00 7.9737173798e-05 1.4784191384e+00 -2.5606970625e+00 1.4784191384e+00 2.5606970625e+00 
88400 4.8938473393e+00 7.9213259633e-05 1.4784164417e+00 -2.5606923917e+00 1.4784164417e+00 2.5606923917e+00 
88500 4.8938473372e+00 7.8692809079e-05 1.4784137627e+00 -2.5606877516e+00 1.4784137627e+00 2.5606877516e+00 
88600 4.8938473351e+00 7.8175798962e-05 1.4784111013e+00 -2.5606831419e+00 1.4784111013e+00 2.5606831419e+00 
88700 4.8938473331e+00 7.7662206268e-05 1.4784084574e+00 -2.5606785625e+00 1.4784084574e+00 2.5606785625e+00 
88800 4.8938473311e+00 7.7152008141e-05 1.4784058308e+00 -2.5606740132e+00 1.4784058308e+00 2.5606740132e+00 
88900 4.8938473292e+00 7.6645181881e-05 1.4784032215e+00 -2.5606694938e+00 1.4784032215e+00 2.5606694938e+00 
89000 4.8938473272e+00 7.6141704941e-05 1.4784006294e+00 -2.5606650040e+00 1.4784006294e+00 2.5606650040e+00 
89100 4.8938473253e+00 7.5641554932e-05 1.4783980542e+00 -2.5606605437e+00 1.4783980542e+00 2.5606605437e+00 
89200 4.8938473234e+00 7.5144709615e-05 1.4783954960e+00 -2.5606561128e+00 1.4783954960e+00 2.5606561128e+00 
89300 4.8938473216e+00 7.4651146904e-05 1.4783929546e+00 -2.5606517109e+00 1.4783929546e+00 2.5606517109e+00 
89400 4.8938473197e+00 7.4160844864e-05 1.4783904298e+00 -2.5606473379e+00 1.4783904298e+00 2.5606473379e+00 
89500 4.8938473179e+00 7.3673781710e-05 1.4783879217e+00 -2.5606429936e+00 1.4783879217e+00 2.5606429936e+00 
89600 4.8938473161e+00 7.3189935804e-05 1.4783854300e+00 -2.5606386779e+00 1.4783854300e+00 2.5606386779e+00 
89700 4.8938473143e+00 7.2709285658e-05 1.4783829546e+00 -2.5606343905e+00 1.4783829546e+00 2.5606343905e+00 
89800 4.8938473126e+00 7.2231809929e-05 1.4783804956e+00 -2.5606301312e+00 1.4783804956e+00 2.5606301312e+00 
89900 4.8938473109e+00 7.1757487420e-05 1.4783780526e+00 -2.5606258999e+00 1.4783780526e+00 2.5606258999e+00 
90000 4.8938473092e+00 7.1286297079e-05 1.4783756257e+00 -2.5606216964e+00 1.4783756257e+00 2.5606216964e+00 
90100 4.8938473075e+00 7.0818217997e-05 1.4783732148e+00 -2.5606175205e+00 1.4783732148e+00 2.5606175205e+00 
90200 4.8938473058e+00 7.0353229407e-05 1.4783708196e+00 -2.5606133720e+00 1.4783708196e+00 2.5606133720e+00 
90300 4.8938473044e+00 7.0706473067e-05 1.4783708196e+00 -2.5606133720e+00 1.4783708196e+00 2.5606133720e+00 
90400 4.8938473030e+00 7.1060063045e-05 1.4783708196e+00 -2.5606133720e+00 1.4783708196e+00 2.5606133720e+00 
90500 4.8938473015e+00 7.0590516595e-05 1.4783684163e+00 -2.5606092093e+00 1.4783684163e+00 2.5606092093e+00 
90600 4.8938473001e+00 7.0941659254e-05 1.4783684163e+00 -2.5606092093e+00 1.4783684163e+00 2.5606092093e+00 
90700 4.8938472985e+00 7.0470935145e-05 1.4783660170e+00 -2.5606050536e+00 1.4783660170e+00 2.5606050536e+00 
90800 4.8938472972e+00 7.0819396982e-05 1.4783660170e+00 -2.5606050536e+00 1.4783660170e+00 2.5606050536e+00 
90900 4.8938472957e+00 7.0347323766e-05 1.4783636218e+00 -2.5606009050e+00 1.4783636218e+00 2.5606009050e+00 
91000 4.8938472944e+00 7.0692905565e-05 1.4783636218e+00 -2.5606009050e+00 1.4783636218e+00 2.5606009050e+00 
91100 4.8938472932e+00 7.1038358068e-05 1.4783636218e+00 -2.5606009050e+00 1.4783636218e+00 2.5606009050e+00 
91200 4.8938472917e+00 7.0560560507e-05 1.4783612192e+00 -2.5605967436e+00 1.4783612192e+00 2.5605967436e+00 
91300 4.8938472905e+00 7.0902718368e-05 1.4783612192e+00 -2.5605967436e+00 1.4783612192e+00 2.5605967436e+00 
91400 4.8938472891e+00 7.0423156783e-05 1.4783588212e+00 -2.5605925901e+00 1.4783588212e+00 2.5605925901e+00 
91500 4.8938472879e+00 7.0761907581e-05 1.4783588212e+00 -2.5605925901e+00 1.4783588212e+00 2.5605925901e+00 
91600 4.8938472865e+00 7.0280537658e-05 1.4783564279e+00 -2.5605884448e+00 1.4783564279e+00 2.5605884448e+00 
91700 4.8938472853e+00 7.0615785813e-05 1.4783564279e+00 -2.5605884448e+00 1.4783564279e+00 2.5605884448e+00 
91800 4.8938472842e+00 7.0950626258e-05 1.4783564279e+00 -2.5605884448e+00 1.4783564279e+00 2.5605884448e+00 
91900 4.8938472828e+00 7.0463046155e-05 1.4783540283e+00 -2.5605842885e+00 1.4783540283e+00 2.5605842885e+00 
92000 4.8938472817e+00 7.0794098548e-05 1.4783540283e+00 -2.5605842885e+00 1.4783540283e+00 2.5605842885e+00 
92100 4.8938472804e+00 7.0304538386e-05 1.4783516339e+00 -2.5605801414e+00 1.4783516339e+00 2.5605801414e+00 
92200 4.8938472793e+00 7.0631762003e-05 1.4783516339e+00 -2.5605801414e+00 1.4783516339e+00 2.5605801414e+00 
92300 4.8938472783e+00 7.0958433556e-05 1.4783516339e+00 -2.5605801414e+00 1.4783516339e+00 2.5605801414e+00 
92400 4.8938472770e+00 7.0462509399e-05 1.4783492340e+00 -2.5605759846e+00 1.4783492340e+00 2.5605759846e+00 
92500 4.8938472760e+00 7.0785135899e-05 1.4783492340e+00 -2.5605759846e+00 1.4783492340e+00 2.5605759846e+00 
92600 4.8938472747e+00 7.0287187839e-05 1.4783468399e+00 -2.5605718380e+00 1.4783468399e+00 2.5605718380e+00 
92700 4.8938472737e+00 7.0605767533e-05 1.4783468399e+00 -2.5605718380e+00 1.4783468399e+00 2.5605718380e+00 
92800 4.8938472727e+00 7.0923698881e-05 1.4783468399e+00 -2.5605718380e+00 1.4783468399e+00 2.5605718380e+00 
92900 4.8938472715e+00 7.0419395226e-05 1.4783444412e+00 -2.5605676832e+00 1.4783444412e+00 2.5605676832e+00 
93000 4.8938472706e+00 7.0733113428e-05 1.4783444412e+00 -2.5605676832e+00 1.4783444412e+00 2.5605676832e+00 
93100 4.8938472694e+00 7.0226831480e-05 1.4783420489e+00 -2.5605635396e+00 1.4783420489e+00 2.5605635396e+00 
93200 4.8938472684e+00 7.0536363290e-05 1.4783420489e+00 -2.5605635396e+00 1.4783420489e+00 2.5605635396e+00 
93300 4.8938472675e+00 7.0845185419e-05 1.4783420489e+00 -2.5605635396e+00 1.4783420489e+00 2.5605635396e+00 
93400 4.8938472664e+00 7.0332671332e-05 1.4783396528e+00 -2.5605593895e+00 1.4783396528e+00 2.5605593895e+00 
93500 4.8938472655e+00 7.0637177885e-05 1.4783396528e+00 -2.5605593895e+00 1.4783396528e+00 2.5605593895e+00 
93600 4.8938472646e+00 7.0940920521e-05 1.4783396528e+00 -2.5605593895e+00 1.4783396528e+00 2.5605593895e+00 
93700 4.8938472635e+00 7.0422195346e-05 1.4783372534e+00 -2.5605552337e+00 1.4783372534e+00 2.5605552337e+00 
93800 4.8938472627e+00 7.0721524470e-05 1.4783372534e+00 -2.5605552337e+00 1.4783372534e+00 2.5605552337e+00 
93900 4.8938472616e+00 7.0200972596e-05 1.4783348615e+00 -2.5605510907e+00 1.4783348615e+00 2.5605510907e+00 
94000 4.8938472607e+00 7.0495954172e-05 1.4783348615e+00 -2.5605510907e+00 1.4783348615e+00 2.5605510907e+00 
94100 4.8938472599e+00 7.0790158231e-05 1.4783348615e+00 -2.5605510907e+00 1.4783348615e+00 2.5605510907e+00 
94200 4.8938472589e+00 7.0263672086e-05 1.4783324673e+00 -2.5605469438e+00 1.4783324673e+00 2.5605469438e+00 
94300 4.8938472581e+00 7.0553450420e-05 1.4783324673e+00 -2.5605469438e+00 1.4783324673e+00 2.5605469438e+00 
94400 4.8938472573e+00 7.0842419575e-05 1.4783324673e+00 -2.5605469438e+00 1.4783324673e+00 2.5605469438e+00 
94500 4.8938472563e+00 7.0310090187e-05 1.4783300712e+00 -2.5605427937e+00 1.4783300712e+00 2.5605427937e+00 
94600 4.8938472555e+00 7.0594578940e-05 1.4783300712e+00 -2.5605427937e+00 1.4783300712e+00 2.5605427937e+00 
94700 4.8938472548e+00 7.0878237175e-05 1.4783300712e+00 -2.5605427937e+00 1.4783300712e+00 2.5605427937e+00 
94800 4.8938472538e+00 7.0340188062e-05 1.4783276740e+00 -2.5605386416e+00 1.4783276740e+00 2.5605386416e+00 
94900 4.8938472531e+00 7.0619330590e-05 1.4783276740e+00 -2.5605386416e+00 1.4783276740e+00 2.5605386416e+00 
95000 4.8938472523e+00 7.0897629749e-05 1.4783276740e+00 -2.5605386416e+00 1.4783276740e+00 2.5605386416e+00 
95100 4.8938472514e+00 7.0354010386e-05 1.4783252761e+00 -2.5605344883e+00 1.4783252761e+00 2.5605344883e+00 
95200 4.8938472507e+00 7.0627774649e-05 1.4783252761e+00 -2.5605344883e+00 1.4783252761e+00 2.5605344883e+00 
95300 4.8938472500e+00 7.0900689732e-05 1.4783252761e+00 -2.5605344883e+00 1.4783252761e+00 2.5605344883e+00 
95400 4.8938472491e+00 7.0351670319e-05 1.4783228781e+00 -2.5605303348e+00 1.4783228781e+00 2.5605303348e+00 
95500 4.8938472484e+00 7.0620044824e-05 1.4783228781e+00 -2.5605303348e+00 1.4783228781e+00 2.5605303348e+00 
95600 4.8938472477e+00 7.0887570207e-05 1.4783228781e+00 -2.5605303348e+00 1.4783228781e+00 2.5605303348e+00 
95700 4.8938472469e+00 7.0333337464e-05 1.4783204805e+00 -2.5605261821e+00 1.4783204805e+00 2.5605261821e+00 
95800 4.8938472462e+00 7.0596327986e-05 1.4783204805e+00 -2.5605261821e+00 1.4783204805e+00 2.5605261821e+00 
95900 4.8938472456e+00 7.0858474364e-05 1.4783204805e+00 -2.5605261821e+00 1.4783204805e+00 2.5605261821e+00 
96000 4.8938472447e+00 7.0299228084e-05 1.4783180839e+00 -2.5605220311e+00 1.4783180839e+00 2.5605220311e+00 
96100 4.8938472441e+00 7.0556854986e-05 1.4783180839e+00 -2.5605220311e+00 1.4783180839e+00 2.5605220311e+00 
96200 4.8938472435e+00 7.0813646860e-05 1.4783180839e+00 -2.5605220311e+00 1.4783180839e+00 2.5605220311e+00 
96300 4.8938472427e+00 7.0249597074e-05 1.4783156889e+00 -2.5605178827e+00 1.4783156889e+00 2.5605178827e+00 
96400 4.8938472421e+00 7.0501893088e-05 1.4783156889e+00 -2.5605178827e+00 1.4783156889e+00 2.5605178827e+00 
96500 4.8938472415e+00 7.0753366677e-05 1.4783156889e+00 -2.5605178827e+00 1.4783156889e+00 2.5605178827e+00 
96600 4.8938472407e+00 7.0184731287e-05 1.4783132958e+00 -2.5605137379e+00 1.4783132958e+00 2.5605137379e+00 
96700 4.8938472401e+00 7.0431739655e-05 1.4783132958e+00 -2.5605137379e+00 1.4783132958e+00 2.5605137379e+00 
96800 4.8938472395e+00 7.0677941137e-05 1.4783132958e+00 -2.5605137379e+00 1.4783132958e+00 2.5605137379e+00 
96900 4.8938472390e+00 7.0923286701e-05 1.4783132958e+00 -2.5605137379e+00 1.4783132958e+00 2.5605137379e+00 
97000 4.8938472382e+00 7.0346555479e-05 1.4783108970e+00 -2.5605095830e+00 1.4783108970e+00 2.5605095830e+00 
97100 4.8938472377e+00 7.0587376625e-05 1.4783108970e+00 -2.5605095830e+00 1.4783108970e+00 2.5605095830e+00 
97200 4.8938472371e+00 7.0827371301e-05 1.4783108970e+00 -2.5605095830e+00 1.4783108970e+00 2.5605095830e+00 
97300 4.8938472364e+00 7.0246448923e-05 1.4783085015e+00 -2.5605054338e+00 1.4783085015e+00 2.5605054338e+00 
97400 4.8938472359e+00 7.0481981365e-05 1.4783085015e+00 -2.5605054338e+00 1.4783085015e+00 2.5605054338e+00 
97500 4.8938472354e+00 7.0716716332e-05 1.4783085015e+00 -2.5605054338e+00 1.4783085015e+00 2.5605054338e+00 
97600 4.8938472346e+00 7.0131863761e-05 1.4783061097e+00 -2.5605012911e+00 1.4783061097e+00 2.5605012911e+00 
97700 4.8938472341e+00 7.0362198658e-05 1.4783061097e+00 -2.5605012911e+00 1.4783061097e+00 2.5605012911e+00 
97800 4.8938472337e+00 7.0591764886e-05 1.4783061097e+00 -2.5605012911e+00 1.4783061097e+00 2.5605012911e+00 
97900 4.8938472332e+00 7.0820517311e-05 1.4783061097e+00 -2.5605012911e+00 1.4783061097e+00 2.5605012911e+00 
98000 4.8938472325e+00 7.0228493946e-05 1.4783037143e+00 -2.5604971423e+00 1.4783037143e+00 2.5604971423e+00 
98100 4.8938472320e+00 7.0452820702e-05 1.4783037143e+00 -2.5604971423e+00 1.4783037143e+00 2.5604971423e+00 
98200 4.8938472315e+00 7.0676373136e-05 1.4783037143e+00 -2.5604971423e+00 1.4783037143e+00 2.5604971423e+00 
98300 4.8938472311e+00 7.0899109059e-05 1.4783037143e+00 -2.5604971423e+00 1.4783037143e+00 2.5604971423e+00 
98400 4.8938472304e+00 7.0300184613e-05 1.4783013164e+00 -2.5604929888e+00 1.4783013164e+00 2.5604929888e+00 
98500 4.8938472300e+00 7.0518494403e-05 1.4783013164e+00 -2.5604929888e+00 1.4783013164e+00 2.5604929888e+00 
98600 4.8938472295e+00 7.0736034893e-05 1.4783013164e+00 -2.5604929888e+00 1.4783013164e+00 2.5604929888e+00 
98700 4.8938472289e+00 7.0133866488e-05 1.4782989239e+00 -2.5604888449e+00 1.4782989239e+00 2.5604888449e+00 
98800 4.8938472285e+00 7.0347077540e-05 1.4782989239e+00 -2.5604888449e+00 1.4782989239e+00 2.5604888449e+00 
98900 4.8938472280e+00 7.0559562516e-05 1.4782989239e+00 -2.5604888449e+00 1.4782989239e+00 2.5604888449e+00 
99000 4.8938472276e+00 7.0771280408e-05 1.4782989239e+00 -2.5604888449e+00 1.4782989239e+00 2.5604888449e+00 
99100 4.8938472270e+00 7.0162909931e-05 1.4782965302e+00 -2.5604846990e+00 1.4782965302e+00 2.5604846990e+00 
99200 4.8938472266e+00 7.0370308596e-05 1.4782965302e+00 -2.5604846990e+00 1.4782965302e+00 2.5604846990e+00 
99300 4.8938472262e+00 7.0576990242e-05 1.4782965302e+00 -2.5604846990e+00 1.4782965302e+00 2.5604846990e+00 
99400 4.8938472258e+00 7.0782915767e-05 1.4782965302e+00 -2.5604846990e+00 1.4782965302e+00 2.5604846990e+00 
99500 4.8938472252e+00 7.0168654095e-05 1.4782941361e+00 -2.5604805523e+00 1.4782941361e+00 2.5604805523e+00 
99600 4.8938472248e+00 7.0370286985e-05 1.4782941361e+00 -2.5604805523e+00 1.4782941361e+00 2.5604805523e+00 
99700 4.8938472245e+00 7.0571218714e-05 1.4782941361e+00 -2.5604805523e+00 1.4782941361e+00 2.5604805523e+00 
99800 4.8938472241e+00 7.0771411560e-05 1.4782941361e+00 -2.5604805523e+00 1.4782941361e+00 2.5604805523e+00 
99900 4.8938472235e+00 7.0151591305e-05 1.4782917425e+00 -2.5604764063e+00 1.4782917425e+00 2.5604764063e+00 
100000 4.8938472231e+00 7.0347530115e-05 1.4782917425e+00 -2.5604764063e+00 1.4782917425e+00 2.5604764063e+00 
100100 4.8938472228e+00 7.0542788504e-05 1.4782917425e+00 -2.5604764063e+00 1.4782917425e+00 2.5604764063e+00 
100200 4.8938472224e+00 7.0737329754e-05 1.4782917425e+00 -2.5604764063e+00 1.4782917425e+00 2.5604764063e+00 
100300 4.8938472219e+00 7.0112296800e-05 1.4782893499e+00 -2.5604722623e+00 1.4782893499e+00 2.5604722623e+00 
100400 4.8938472215e+00 7.0302631476e-05 1.4782893499e+00 -2.5604722623e+00 1.4782893499e+00 2.5604722623e+00 
100500 4.8938472212e+00 7.0492309973e-05 1.4782893499e+00 -2.5604722623e+00 1.4782893499e+00 2.5604722623e+00 
100600 4.8938472209e+00 7.0681296306e-05 1.4782893499e+00 -2.5604722623e+00 1.4782893499e+00 2.5604722623e+00 
100700 4.8938472206e+00 7.0869557512e-05 1.4782893499e+00 -2.5604722623e+00 1.4782893499e+00 2.5604722623e+00 
100800 4.8938472200e+00 7.0236736301e-05 1.4782869529e+00 -2.5604681106e+00 1.4782869529e+00 2.5604681106e+00 
100900 4.8938472197e+00 7.0420779969e-05 1.4782869529e+00 -2.5604681106e+00 1.4782869529e+00 2.5604681106e+00 
101000 4.8938472194e+00 7.0604169258e-05 1.4782869529e+00 -2.5604681106e+00 1.4782869529e+00 2.5604681106e+00 
101100 4.8938472191e+00 7.0786870833e-05 1.4782869529e+00 -2.5604681106e+00 1.4782869529e+00 2.5604681106e+00 
101200 4.8938472185e+00 7.0149504370e-05 1.4782845587e+00 -2.5604639637e+00 1.4782845587e+00 2.5604639637e+00 
101300 4.8938472183e+00 7.0328065377e-05 1.4782845587e+00 -2.5604639637e+00 1.4782845587e+00 2.5604639637e+00 
101400 4.8938472180e+00 7.0506008342e-05 1.4782845587e+00 -2.5604639637e+00 1.4782845587e+00 2.5604639637e+00 
101500 4.8938472177e+00 7.0683299703e-05 1.4782845587e+00 -2.5604639637e+00 1.4782845587e+00 2.5604639637e+00 
101600 4.8938472174e+00 7.0859908728e-05 1.4782845587e+00 -2.5604639637e+00 1.4782845587e+00 2.5604639637e+00 
101700 4.8938472169e+00 7.0215637164e-05 1.4782821620e+00 -2.5604598125e+00 1.4782821620e+00 2.5604598125e+00 
101800 4.8938472166e+00 7.0388120535e-05 1.4782821620e+00 -2.5604598125e+00 1.4782821620e+00 2.5604598125e+00 
101900 4.8938472163e+00 7.0559997971e-05 1.4782821620e+00 -2.5604598125e+00 1.4782821620e+00 2.5604598125e+00 
102000 4.8938472161e+00 7.0731237743e-05 1.4782821620e+00 -2.5604598125e+00 1.4782821620e+00 2.5604598125e+00 
102100 4.8938472156e+00 7.0083148745e-05 1.4782797696e+00 -2.5604556688e+00 1.4782797696e+00 2.5604556688e+00 
102200 4.8938472153e+00 7.0250354407e-05 1.4782797696e+00 -2.5604556688e+00 1.4782797696e+00 2.5604556688e+00 
102300 4.8938472150e+00 7.0416996028e-05 1.4782797696e+00 -2.5604556688e+00 1.4782797696e+00 2.5604556688e+00 
102400 4.8938472148e+00 7.0583041203e-05 1.4782797696e+00 -2.5604556688e+00 1.4782797696e+00 2.5604556688e+00 
102500 4.8938472145e+00 7.0748460260e-05 1.4782797696e+00 -2.5604556688e+00 1.4782797696e+00 2.5604556688e+00 
102600 4.8938472141e+00 7.0094387973e-05 1.4782773767e+00 -2.5604515242e+00 1.4782773767e+00 2.5604515242e+00 
102700 4.8938472138e+00 7.0255800808e-05 1.4782773767e+00 -2.5604515242e+00 1.4782773767e+00 2.5604515242e+00 
102800 4.8938472136e+00 7.0416666351e-05 1.4782773767e+00 -2.5604515242e+00 1.4782773767e+00 2.5604515242e+00 
102900 4.8938472133e+00 7.0576953631e-05 1.4782773767e+00 -2.5604515242e+00 1.4782773767e+00 2.5604515242e+00 
103000 4.8938472131e+00 7.0736634290e-05 1.4782773767e+00 -2.5604515242e+00 1.4782773767e+00 2.5604515242e+00 
103100 4.8938472127e+00 7.0077003601e-05 1.4782749842e+00 -2.5604473802e+00 1.4782749842e+00 2.5604473802e+00 
103200 4.8938472124e+00 7.0232720950e-05 1.4782749842e+00 -2.5604473802e+00 1.4782749842e+00 2.5604473802e+00 
103300 4.8938472122e+00 7.0387913777e-05 1.4782749842e+00 -2.5604473802e+00 1.4782749842e+00 2.5604473802e+00 
103400 4.8938472120e+00 7.0542552031e-05 1.4782749842e+00 -2.5604473802e+00 1.4782749842e+00 2.5604473802e+00 
103500 4.8938472118e+00 7.0696608197e-05 1.4782749842e+00 -2.5604473802e+00 1.4782749842e+00 2.5604473802e+00 
103600 4.8938472116e+00 7.0850057072e-05 1.4782749842e+00 -2.5604473802e+00 1.4782749842e+00 2.5604473802e+00 
103700 4.8938472111e+00 7.0182910492e-05 1.4782725878e+00 -2.5604432295e+00 1.4782725878e+00 2.5604432295e+00 
103800 4.8938472109e+00 7.0332398825e-05 1.4782725878e+00 -2.5604432295e+00 1.4782725878e+00 2.5604432295e+00 
103900 4.8938472107e+00 7.0481370173e-05 1.4782725878e+00 -2.5604432295e+00 1.4782725878e+00 2.5604432295e+00 
104000 4.8938472105e+00 7.0629796695e-05 1.4782725878e+00 -2.5604432295e+00 1.4782725878e+00 2.5604432295e+00 
104100 4.8938472103e+00 7.0777652899e-05 1.4782725878e+00 -2.5604432295e+00 1.4782725878e+00 2.5604432295e+00 
104200 4.8938472099e+00 7.0105808842e-05 1.4782701939e+00 -2.5604390831e+00 1.4782701939e+00 2.5604390831e+00 
104300 4.8938472097e+00 7.0249780393e-05 1.4782701939e+00 -2.5604390831e+00 1.4782701939e+00 2.5604390831e+00 
104400 4.8938472095e+00 7.0393271045e-05 1.4782701939e+00 -2.5604390831e+00 1.4782701939e+00 2.5604390831e+00 
104500 4.8938472093e+00 7.0536252768e-05 1.4782701939e+00 -2.5604390831e+00 1.4782701939e+00 2.5604390831e+00 
104600 4.8938472091e+00 7.0678699894e-05 1.4782701939e+00 -2.5604390831e+00 1.4782701939e+00 2.5604390831e+00 
104700 4.8938472089e+00 7.0820588919e-05 1.4782701939e+00 -2.5604390831e+00 1.4782701939e+00 2.5604390831e+00 
104800 4.8938472085e+00 7.0142319001e-05 1.4782677985e+00 -2.5604349342e+00 1.4782677985e+00 2.5604349342e+00 
104900 4.8938472083e+00 7.0280351445e-05 1.4782677985e+00 -2.5604349342e+00 1.4782677985e+00 2.5604349342e+00 
105000 4.8938472082e+00 7.0417920294e-05 1.4782677985e+00 -2.5604349342e+00 1.4782677985e+00 2.5604349342e+00 
105100 4.8938472080e+00 7.0554998905e-05 1.4782677985e+00 -2.5604349342e+00 1.4782677985e+00 2.5604349342e+00 
105200 4.8938472078e+00 7.0691562881e-05 1.4782677985e+00 -2.5604349342e+00 1.4782677985e+00 2.5604349342e+00 
105300 4.8938472076e+00 7.0827589877e-05 1.4782677985e+00 -2.5604349342e+00 1.4782677985e+00 2.5604349342e+00 
105400 4.8938472073e+00 7.0143422155e-05 1.4782654029e+00 -2.5604307848e+00 1.4782654029e+00 2.5604307848e+00 
105500 4.8938472071e+00 7.0275637623e-05 1.4782654029e+00 -2.5604307848e+00 1.4782654029e+00 2.5604307848e+00 
105600 4.8938472069e+00 7.0407413561e-05 1.4782654029e+00 -2.5604307848e+00 1.4782654029e+00 2.5604307848e+00 
105700 4.8938472068e+00 7.0538724139e-05 1.4782654029e+00 -2.5604307848e+00 1.4782654029e+00 2.5604307848e+00 
105800 4.8938472066e+00 7.0669545706e-05 1.4782654029e+00 -2.5604307848e+00 1.4782654029e+00 2.5604307848e+00 
105900 4.8938472065e+00 7.0799856603e-05 1.4782654029e+00 -2.5604307848e+00 1.4782654029e+00 2.5604307848e+00 
106000 4.8938472061e+00 7.0110342626e-05 1.4782630082e+00 -2.5604266371e+00 1.4782630082e+00 2.5604266371e+00 
106100 4.8938472059e+00 7.0236897453e-05 1.4782630082e+00 -2.5604266371e+00 1.4782630082e+00 2.5604266371e+00 
106200 4.8938472058e+00 7.0363040707e-05 1.4782630082e+00 -2.5604266371e+00 1.4782630082e+00 2.5604266371e+00 
106300 4.8938472056e+00 7.0488747040e-05 1.4782630082e+00 -2.5604266371e+00 1.4782630082e+00 2.5604266371e+00 
106400 4.8938472055e+00 7.0613993237e-05 1.4782630082e+00 -2.5604266371e+00 1.4782630082e+00 2.5604266371e+00 
106500 4.8938472053e+00 7.0738758035e-05 1.4782630082e+00 -2.5604266371e+00 1.4782630082e+00 2.5604266371e+00 
106600 4.8938472050e+00 7.0044455552e-05 1.4782606155e+00 -2.5604224929e+00 1.4782606155e+00 2.5604224929e+00 
106700 4.8938472048e+00 7.0165526156e-05 1.4782606155e+00 -2.5604224929e+00 1.4782606155e+00 2.5604224929e+00 
106800 4.8938472047e+00 7.0286215304e-05 1.4782606155e+00 -2.5604224929e+00 1.4782606155e+00 2.5604224929e+00 
106900 4.8938472046e+00 7.0406497923e-05 1.4782606155e+00 -2.5604224929e+00 1.4782606155e+00 2.5604224929e+00 
107000 4.8938472044e+00 7.0526351047e-05 1.4782606155e+00 -2.5604224929e+00 1.4782606155e+00 2.5604224929e+00 
107100 4.8938472043e+00 7.0645753633e-05 1.4782606155e+00 -2.5604224929e+00 1.4782606155e+00 2.5604224929e+00 
107200 4.8938472042e+00 7.0764686405e-05 1.4782606155e+00 -2.5604224929e+00 1.4782606155e+00 2.5604224929e+00 
107300 4.8938472038e+00 7.0064288933e-05 1.4782582220e+00 -2.5604183473e+00 1.4782582220e+00 2.5604183473e+00 
107400 4.8938472037e+00 7.0179554948e-05 1.4782582220e+00 -2.5604183473e+00 1.4782582220e+00 2.5604183473e+00 
107500 4.8938472036e+00 7.0294456124e-05 1.4782582220e+00 -2.5604183473e+00 1.4782582220e+00 2.5604183473e+00 
107600 4.8938472034e+00 7.0408968769e-05 1.4782582220e+00 -2.5604183473e+00 1.4782582220e+00 2.5604183473e+00 
107700 4.8938472033e+00 7.0523071177e-05 1.4782582220e+00 -2.5604183473e+00 1.4782582220e+00 2.5604183473e+00 
107800 4.8938472032e+00 7.0636743462e-05 1.4782582220e+00 -2.5604183473e+00 1.4782582220e+00 2.5604183473e+00 
107900 4.8938472031e+00 7.0749967399e-05 1.4782582220e+00 -2.5604183473e+00 1.4782582220e+00 2.5604183473e+00 
108000 4.8938472028e+00 7.0044076234e-05 1.4782558290e+00 -2.5604142024e+00 1.4782558290e+00 2.5604142024e+00 
108100 4.8938472026e+00 7.0153679687e-05 1.4782558290e+00 -2.5604142024e+00 1.4782558290e+00 2.5604142024e+00 
108200 4.8938472025e+00 7.0262942384e-05 1.4782558290e+00 -2.5604142024e+00 1.4782558290e+00 2.5604142024e+00 
108300 4.8938472024e+00 7.0371841370e-05 1.4782558290e+00 -2.5604142024e+00 1.4782558290e+00 2.5604142024e+00 
108400 4.8938472023e+00 7.0480355617e-05 1.4782558290e+00 -2.5604142024e+00 1.4782558290e+00 2.5604142024e+00 
108500 4.8938472022e+00 7.0588465852e-05 1.4782558290e+00 -2.5604142024e+00 1.4782558290e+00 2.5604142024e+00 
108600 4.8938472021e+00 7.0696154417e-05 1.4782558290e+00 -2.5604142024e+00 1.4782558290e+00 2.5604142024e+00 
108700 4.8938472020e+00 7.0803405126e-05 1.4782558290e+00 -2.5604142024e+00 1.4782558290e+00 2.5604142024e+00 
108800 4.8938472017e+00 7.0090959299e-05 1.4782534342e+00 -2.5604100545e+00 1.4782534342e+00 2.5604100545e+00 
108900 4.8938472016e+00 7.0194613892e-05 1.4782534342e+00 -2.5604100545e+00 1.4782534342e+00 2.5604100545e+00 
109000 4.8938472015e+00 7.0297943471e-05 1.4782534342e+00 -2.5604100545e+00 1.4782534342e+00 2.5604100545e+00 
109100 4.8938472014e+00 7.0400926510e-05 1.4782534342e+00 -2.5604100545e+00 1.4782534342e+00 2.5604100545e+00 
109200 4.8938472013e+00 7.0503543287e-05 1.4782534342e+00 -2.5604100545e+00 1.4782534342e+00 2.5604100545e+00 
109300 4.8938472012e+00 7.0605775735e-05 1.4782534342e+00 -2.5604100545e+00 1.4782534342e+00 2.5604100545e+00 
109400 4.8938472011e+00 7.0707607293e-05 1.4782534342e+00 -2.5604100545e+00 1.4782534342e+00 2.5604100545e+00 
109500 4.8938472010e+00 7.0809022789e-05 1.4782534342e+00 -2.5604100545e+00 1.4782534342e+00 2.5604100545e+00 
109600 4.8938472007e+00 7.0090722501e-05 1.4782510392e+00 -2.5604059062e+00 1.4782510392e+00 2.5604059062e+00 
109700 4.8938472006e+00 7.0188587932e-05 1.4782510392e+00 -2.5604059062e+00 1.4782510392e+00 2.5604059062e+00 
109800 4.8938472005e+00 7.0286152709e-05 1.4782510392e+00 -2.5604059062e+00 1.4782510392e+00 2.5604059062e+00 
109900 4.8938472004e+00 7.0383396022e-05 1.4782510392e+00 -2.5604059062e+00 1.4782510392e+00 2.5604059062e+00 
110000 4.8938472003e+00 7.0480298810e-05 1.4782510392e+00 -2.5604059062e+00 1.4782510392e+00 2.5604059062e+00 
110100 4.8938472002e+00 7.0576843605e-05 1.4782510392e+00 -2.5604059062e+00 1.4782510392e+00 2.5604059062e+00 
110200 4.8938472001e+00 7.0673014402e-05 1.4782510392e+00 -2.5604059062e+00 1.4782510392e+00 2.5604059062e+00 
110300 4.8938472001e+00 7.0768796535e-05 1.4782510392e+00 -2.5604059062e+00 1.4782510392e+00 2.5604059062e+00 
110400 4.8938471997e+00 7.0045377772e-05 1.4782486455e+00 -2.5604017602e+00 1.4782486455e+00 2.5604017602e+00 
110500 4.8938471997e+00 7.0137667481e-05 1.4782486455e+00 -2.5604017602e+00 1.4782486455e+00 2.5604017602e+00 
110600 4.8938471996e+00 7.0229685116e-05 1.4782486455e+00 -2.5604017602e+00 1.4782486455e+00 2.5604017602e+00 
110700 4.8938471995e+00 7.0321410231e-05 1.4782486455e+00 -2.5604017602e+00 1.4782486455e+00 2.5604017602e+00 
110800 4.8938471994e+00 7.0412824089e-05 1.4782486455e+00 -2.5604017602e+00 1.4782486455e+00 2.5604017602e+00 
110900 4.8938471993e+00 7.0503909523e-05 1.4782486455e+00 -2.5604017602e+00 1.4782486455e+00 2.5604017602e+00 
111000 4.8938471993e+00 7.0594650799e-05 1.4782486455e+00 -2.5604017602e+00 1.4782486455e+00 2.5604017602e+00 
111100 4.8938471992e+00 7.0685033494e-05 1.4782486455e+00 -2.5604017602e+00 1.4782486455e+00 2.5604017602e+00 
111200 4.8938471991e+00 7.0775044391e-05 1.4782486455e+00 -2.5604017602e+00 1.4782486455e+00 2.5604017602e+00 
111300 4.8938471988e+00 7.0045823363e-05 1.4782462516e+00 -2.5603976139e+00 1.4782462516e+00 2.5603976139e+00 
111400 4.8938471988e+00 7.0132379163e-05 1.4782462516e+00 -2.5603976139e+00 1.4782462516e+00 2.5603976139e+00 
111500 4.8938471987e+00 7.0218683410e-05 1.4782462516e+00 -2.5603976139e+00 1.4782462516e+00 2.5603976139e+00 
111600 4.8938471986e+00 7.0304716671e-05 1.4782462516e+00 -2.5603976139e+00 1.4782462516e+00 2.5603976139e+00 
111700 4.8938471985e+00 7.0390461138e-05 1.4782462516e+00 -2.5603976139e+00 1.4782462516e+00 2.5603976139e+00 
111800 4.8938471985e+00 7.0475900495e-05 1.4782462516e+00 -2.5603976139e+00 1.4782462516e+00 2.5603976139e+00 
111900 4.8938471984e+00 7.0561019784e-05 1.4782462516e+00 -2.5603976139e+00 1.4782462516e+00 2.5603976139e+00 
112000 4.8938471983e+00 7.0645805295e-05 1.4782462516e+00 -2.5603976139e+00 1.4782462516e+00 2.5603976139e+00 
112100 4.8938471983e+00 7.0730244461e-05 1.4782462516e+00 -2.5603976139e+00 1.4782462516e+00 2.5603976139e+00 
112200 4.8938471980e+00 6.9996017531e-05 1.4782438592e+00 -2.5603934702e+00 1.4782438592e+00 2.5603934702e+00 
112300 4.8938471979e+00 7.0077055906e-05 1.4782438592e+00 -2.5603934702e+00 1.4782438592e+00 2.5603934702e+00 
112400 4.8938471979e+00 7.0157869714e-05 1.4782438592e+00 -2.5603934702e+00 1.4782438592e+00 2.5603934702e+00 
112500 4.8938471978e+00 7.0238439981e-05 1.4782438592e+00 -2.5603934702e+00 1.4782438592e+00 2.5603934702e+00 
112600 4.8938471977e+00 7.0318749319e-05 1.4782438592e+00 -2.5603934702e+00 1.4782438592e+00 2.5603934702e+00 
112700 4.8938471977e+00 7.0398781791e-05 1.4782438592e+00 -2.5603934702e+00 1.4782438592e+00 2.5603934702e+00 
112800 4.8938471976e+00 7.0478522789e-05 1.4782438592e+00 -2.5603934702e+00 1.4782438592e+00 2.5603934702e+00 
112900 4.8938471976e+00 7.0557958915e-05 1.4782438592e+00 -2.5603934702e+00 1.4782438592e+00 2.5603934702e+00 
113000 4.8938471975e+00 7.0637077887e-05 1.4782438592e+00 -2.5603934702e+00 1.4782438592e+00 2.5603934702e+00 
113100 4.8938471975e+00 7.0715868443e-05 1.4782438592e+00 -2.5603934702e+00 1.4782438592e+00 2.5603934702e+00 
113200 4.8938471972e+00 6.9976200765e-05 1.4782414674e+00 -2.5603893273e+00 1.4782414674e+00 2.5603893273e+00 
113300 4.8938471971e+00 7.0051630378e-05 1.4782414674e+00 -2.5603893273e+00 1.4782414674e+00 2.5603893273e+00 
113400 4.8938471971e+00 7.0126856598e-05 1.4782414674e+00 -2.5603893273e+00 1.4782414674e+00 2.5603893273e+00 
113500 4.8938471970e+00 7.0201861367e-05 1.4782414674e+00 -2.5603893273e+00 1.4782414674e+00 2.5603893273e+00 
113600 4.8938471970e+00 7.0276628134e-05 1.4782414674e+00 -2.5603893273e+00 1.4782414674e+00 2.5603893273e+00 
113700 4.8938471969e+00 7.0351141729e-05 1.4782414674e+00 -2.5603893273e+00 1.4782414674e+00 2.5603893273e+00 
113800 4.8938471969e+00 7.0425388242e-05 1.4782414674e+00 -2.5603893273e+00 1.4782414674e+00 2.5603893273e+00 
113900 4.8938471968e+00 7.0499354919e-05 1.4782414674e+00 -2.5603893273e+00 1.4782414674e+00 2.5603893273e+00 
114000 4.8938471968e+00 7.0573030060e-05 1.4782414674e+00 -2.5603893273e+00 1.4782414674e+00 2.5603893273e+00 
114100 4.8938471967e+00 7.0646402938e-05 1.4782414674e+00 -2.5603893273e+00 1.4782414674e+00 2.5603893273e+00 
114200 4.8938471967e+00 7.0719463713e-05 1.4782414674e+00 -2.5603893273e+00 1.4782414674e+00 2.5603893273e+00 
114300 4.8938471964e+00 6.9974065251e-05 1.4782390753e+00 -2.5603851842e+00 1.4782390753e+00 2.5603851842e+00 
114400 4.8938471963e+00 7.0043801348e-05 1.4782390753e+00 -2.5603851842e+00 1.4782390753e+00 2.5603851842e+00 
114500 4.8938471963e+00 7.0113353965e-05 1.4782390753e+00 -2.5603851842e+00 1.4782390753e+00 2.5603851842e+00 
114600 4.8938471963e+00 7.0182706047e-05 1.4782390753e+00 -2.5603851842e+00 1.4782390753e+00 2.5603851842e+00 
114700 4.8938471962e+00 7.0251841965e-05 1.4782390753e+00 -2.5603851842e+00 1.4782390753e+00 2.5603851842e+00 
114800 4.8938471962e+00 7.0320747394e-05 1.4782390753e+00 -2.5603851842e+00 1.4782390753e+00 2.5603851842e+00 
114800 4.8938471962e+00 7.0320747394e-05 1.4782390753e+00 -2.5603851842e+00 1.4782390753e+00 2.5603851842e+00 
