# step Hamiltonian StressXX CellTensor1 CellTensor2 CellTensor3 CellTensor4 
0 5.4848020104e+00 -4.0704524360e-02 1.6087831444e+00 -2.7864941444e+00 1.6087831444e+00 2.7864941444e+00 
100 5.4848382946e+00 -4.1931149027e-02 1.6087831444e+00 -2.7864941444e+00 1.6087831444e+00 2.7864941444e+00 
200 5.4847853237e+00 -4.1818322288e-02 1.6100865147e+00 -2.7887516481e+00 1.6100865147e+00 2.7887516481e+00 
300 5.4847043152e+00 -4.1703246129e-02 1.6113853250e+00 -2.7910012535e+00 1.6113853250e+00 2.7910012535e+00 
400 5.4845904438e+00 -4.1583474196e-02 1.6126795165e+00 -2.7932428589e+00 1.6126795165e+00 2.7932428589e+00 
500 5.4844399852e+00 -4.1456715438e-02 1.6139689547e+00 -2.7954762313e+00 1.6139689547e+00 2.7954762313e+00 
600 5.4842502316e+00 -4.1320822885e-02 1.6152534344e+00 -2.7977010156e+00 1.6152534344e+00 2.7977010156e+00 
700 5.4840194069e+00 -4.1173784696e-02 1.6165326848e+00 -2.7999167422e+00 1.6165326848e+00 2.7999167422e+00 
800 5.4837465821e+00 -4.1013717187e-02 1.6178063735e+00 -2.8021228357e+00 1.6178063735e+00 2.8021228357e+00 
900 5.4834315920e+00 -4.0838859552e-02 1.6190741108e+00 -2.8043186211e+00 1.6190741108e+00 2.8043186211e+00 
1000 5.4830749531e+00 -4.0647570036e-02 1.6203354538e+00 -2.8065033313e+00 1.6203354538e+00 2.8065033313e+00 
1100 5.4826777837e+00 -4.0438323306e-02 1.6215899104e+00 -2.8086761139e+00 1.6215899104e+00 2.8086761139e+00 
1200 5.4822417261e+00 -4.0209708809e-02 1.6228369428e+00 -2.8108360373e+00 1.6228369428e+00 2.8108360373e+00 
1300 5.4817688726e+00 -3.9960429903e-02 1.6240759712e+00 -2.8129820974e+00 1.6240759712e+00 2.8129820974e+00 
1400 5.4812616933e+00 -3.9689303598e-02 1.6253063776e+00 -2.8151132239e+00 1.6253063776e+00 2.8151132239e+00 
1500 5.4807229692e+00 -3.9395260701e-02 1.6265275095e+00 -2.8172282864e+00 1.6265275095e+00 2.8172282864e+00 
1600 5.4801557274e+00 -3.9077346256e-02 1.6277386832e+00 -2.8193261007e+00 1.6277386832e+00 2.8193261007e+00 
1700 5.4795631820e+00 -3.8734720108e-02 1.6289391875e+00 -2.8214054351e+00 1.6289391875e+00 2.8214054351e+00 
1800 5.4789486781e+00 -3.8366657500e-02 1.6301282874e+00 -2.8234650166e+00 1.6301282874e+00 2.8234650166e+00 
1900 5.4783156406e+00 -3.7972549578e-02 1.6313052276e+00 -2.8255035368e+00 1.6313052276e+00 2.8255035368e+00 
2000 5.4776675268e+00 -3.7551903731e-02 1.6324692360e+00 -2.8275196586e+00 1.6324692360e+00 2.8275196586e+00 
2100 5.4770077847e+00 -3.7104343690e-02 1.6336195275e+00 -2.8295120219e+00 1.6336195275e+00 2.8295120219e+00 
2200 5.4763398142e+00 -3.6629609322e-02 1.6347553073e+00 -2.8314792502e+00 1.6347553073e+00 2.8314792502e+00 
2300 5.4756669333e+00 -3.6127556073e-02 1.6358757744e+00 -2.8334199561e+00 1.6358757744e+00 2.8334199561e+00 
2400 5.4749923488e+00 -3.5598154024e-02 1.6369801253e+00 -2.8353327480e+00 1.6369801253e+00 2.8353327480e+00 
2500 5.4743191307e+00 -3.5041486543e-02 1.6380675573e+00 -2.8372162355e+00 1.6380675573e+00 2.8372162355e+00 
2600 5.4736501903e+00 -3.4457748503e-02 1.6391372720e+00 -2.8390690356e+00 1.6391372720e+00 2.8390690356e+00 
2700 5.4729882625e+00 -3.3847244075e-02 1.6401884783e+00 -2.8408897784e+00 1.6401884783e+00 2.8408897784e+00 
2800 5.4723358917e+00 -3.3210384081e-02 1.6412203960e+00 -2.8426771123e+00 1.6412203960e+00 2.8426771123e+00 
2900 5.4716954206e+00 -3.2547682934e-02 1.6422322587e+00 -2.8444297099e+00 1.6422322587e+00 2.8444297099e+00 
3000 5.4710689825e+00 -3.1859755162e-02 1.6432233169e+00 -2.8461462730e+00 1.6432233169e+00 2.8461462730e+00 
3100 5.4704584963e+00 -3.1147311546e-02 1.6441928408e+00 -2.8478255377e+00 1.6441928408e+00 2.8478255377e+00 
3200 5.4698656642e+00 -3.0411154882e-02 1.6451401232e+00 -2.8494662790e+00 1.6451401232e+00 2.8494662790e+00 
3300 5.4692919719e+00 -2.9652175419e-02 1.6460644822e+00 -2.8510673157e+00 1.6460644822e+00 2.8510673157e+00 
3400 5.4687386909e+00 -2.8871345964e-02 1.6469652634e+00 -2.8526275145e+00 1.6469652634e+00 2.8526275145e+00 
3500 5.4682068825e+00 -2.8069716729e-02 1.6478418424e+00 -2.8541457940e+00 1.6478418424e+00 2.8541457940e+00 
3600 5.4676974040e+00 -2.7248409911e-02 1.6486936273e+00 -2.8556211286e+00 1.6486936273e+00 2.8556211286e+00 
3700 5.4672109161e+00 -2.6408614072e-02 1.6495200599e+00 -2.8570525519e+00 1.6495200599e+00 2.8570525519e+00 
3800 5.4667478914e+00 -2.5551578335e-02 1.6503206185e+00 -2.8584391601e+00 1.6503206185e+00 2.8584391601e+00 
3900 5.4663086243e+00 -2.4678606438e-02 1.6510948188e+00 -2.8597801143e+00 1.6510948188e+00 2.8597801143e+00 
4000 5.4658932415e+00 -2.3791050673e-02 1.6518422159e+00 -2.8610746440e+00 1.6518422159e+00 2.8610746440e+00 
4100 5.4655017132e+00 -2.2890305762e-02 1.6525624051e+00 -2.8623220483e+00 1.6525624051e+00 2.8623220483e+00 
4200 5.4651338653e+00 -2.1977802679e-02 1.6532550235e+00 -2.8635216986e+00 1.6532550235e+00 2.8635216986e+00 
4300 5.4647893910e+00 -2.1055002470e-02 1.6539197508e+00 -2.8646730400e+00 1.6539197508e+00 2.8646730400e+00 
4400 5.4644678632e+00 -2.0123390092e-02 1.6545563099e+00 -2.8657755927e+00 1.6545563099e+00 2.8657755927e+00 
4500 5.4641687472e+00 -1.9184468314e-02 1.6551644676e+00 -2.8668289527e+00 1.6551644676e+00 2.8668289527e+00 
4600 5.4638914125e+00 -1.8239751686e-02 1.6557440350e+00 -2.8678327929e+00 1.6557440350e+00 2.8678327929e+00 
4700 5.4636351456e+00 -1.7290760632e-02 1.6562948678e+00 -2.8687868633e+00 1.6562948678e+00 2.8687868633e+00 
4800 5.4633991608e+00 -1.6339015669e-02 1.6568168663e+00 -2.8696909912e+00 1.6568168663e+00 2.8696909912e+00 
4900 5.4631826130e+00 -1.5386031793e-02 1.6573099752e+00 -2.8705450810e+00 1.6573099752e+00 2.8705450810e+00 
5000 5.4629846075e+00 -1.4433313041e-02 1.6577741838e+00 -2.8713491138e+00 1.6577741838e+00 2.8713491138e+00 
5100 5.4628042114e+00 -1.3482347265e-02 1.6582095249e+00 -2.8721031467e+00 1.6582095249e+00 2.8721031467e+00 
5200 5.4626404631e+00 -1.2534601121e-02 1.6586160748e+00 -2.8728073118e+00 1.6586160748e+00 2.8728073118e+00 
5300 5.4624923821e+00 -1.1591515300e-02 1.6589939524e+00 -2.8734618150e+00 1.6589939524e+00 2.8734618150e+00 
5400 5.4623589773e+00 -1.0654500018e-02 1.6593433184e+00 -2.8740669347e+00 1.6593433184e+00 2.8740669347e+00 
5500 5.4622392556e+00 -9.7249307714e-03 1.6596643744e+00 -2.8746230200e+00 1.6596643744e+00 2.8746230200e+00 
5600 5.4621322292e+00 -8.8041443681e-03 1.6599573619e+00 -2.8751304892e+00 1.6599573619e+00 2.8751304892e+00 
5700 5.4620369220e+00 -7.8934352557e-03 1.6602225608e+00 -2.8755898272e+00 1.6602225608e+00 2.8755898272e+00 
5800 5.4619523764e+00 -6.9940521402e-03 1.6604602887e+00 -2.8760015840e+00 1.6604602887e+00 2.8760015840e+00 
5900 5.4618776583e+00 -6.1071949099e-03 1.6606708990e+00 -2.8763663717e+00 1.6606708990e+00 2.8763663717e+00 
6000 5.4618118617e+00 -5.2340118642e-03 1.6608547797e+00 -2.8766848625e+00 1.6608547797e+00 2.8766848625e+00 
6100 5.4617541135e+00 -4.3755972505e-03 1.6610123520e+00 -2.8769577857e+00 1.6610123520e+00 2.8769577857e+00 
6200 5.4617035764e+00 -3.5329891090e-03 1.6611440685e+00 -2.8771859254e+00 1.6611440685e+00 2.8771859254e+00 
6300 5.4616594520e+00 -2.7071674234e-03 1.6612504117e+00 -2.8773701172e+00 1.6612504117e+00 2.8773701172e+00 
6400 5.4616209834e+00 -1.8990525751e-03 1.6613318922e+00 -2.8775112455e+00 1.6613318922e+00 2.8775112455e+00 
6500 5.4615874567e+00 -1.1095040947e-03 1.6613890470e+00 -2.8776102406e+00 1.6613890470e+00 2.8776102406e+00 
6600 5.4615582023e+00 -3.3931970550e-04 1.6614224380e+00 -2.8776680755e+00 1.6614224380e+00 2.8776680755e+00 
6700 5.4615325960e+00 4.1076534946e-04 1.6614326497e+00 -2.8776857627e+00 1.6614326497e+00 2.8776857627e+00 
6800 5.4615100592e+00 1.1400787056e-03 1.6614202880e+00 -2.8776643515e+00 1.6614202880e+00 2.8776643515e+00 
6900 5.4614900588e+00 1.8480110108e-03 1.6613859777e+00 -2.8776049244e+00 1.6613859777e+00 2.8776049244e+00 
7000 5.4614721072e+00 2.5340158055e-03 1.6613303615e+00 -2.8775085943e+00 1.6613303615e+00 2.8775085943e+00 
7100 5.4614557612e+00 3.1976091629e-03 1.6612540974e+00 -2.8773765010e+00 1.6612540974e+00 2.8773765010e+00 
7200 5.4614406210e+00 3.8383691004e-03 1.6611578575e+00 -2.8772098086e+00 1.6611578575e+00 2.8772098086e+00 
7300 5.4614263293e+00 4.4559347768e-03 1.6610423259e+00 -2.8770097020e+00 1.6610423259e+00 2.8770097020e+00 
7400 5.4614125695e+00 5.0500054895e-03 1.6609081971e+00 -2.8767773840e+00 1.6609081971e+00 2.8767773840e+00 
7500 5.4613990642e+00 5.6203394860e-03 1.6607561740e+00 -2.8765140723e+00 1.6607561740e+00 2.8765140723e+00 
7600 5.4613855732e+00 6.1667526046e-03 1.6605869666e+00 -2.8762209965e+00 1.6605869666e+00 2.8762209965e+00 
7700 5.4613718917e+00 6.6891167590e-03 1.6604012901e+00 -2.8758993955e+00 1.6604012901e+00 2.8758993955e+00 
7800 5.4613578483e+00 7.1873582829e-03 1.6601998635e+00 -2.8755505143e+00 1.6601998635e+00 2.8755505143e+00 
7900 5.4613433024e+00 7.6614561478e-03 1.6599834075e+00 -2.8751756016e+00 1.6599834075e+00 2.8751756016e+00 
8000 5.4613281427e+00 8.1114400705e-03 1.6597526438e+00 -2.8747759071e+00 1.6597526438e+00 2.8747759071e+00 
8100 5.4613122845e+00 8.5373885236e-03 1.6595082929e+00 -2.8743526789e+00 1.6595082929e+00 2.8743526789e+00 
8200 5.4612956675e+00 8.9394266643e-03 1.6592510731e+00 -2.8739071612e+00 1.6592510731e+00 2.8739071612e+00 
8300 5.4612782540e+00 9.3177241936e-03 1.6589816990e+00 -2.8734405916e+00 1.6589816990e+00 2.8734405916e+00 
8400 5.4612600263e+00 9.6724931613e-03 1.6587008804e+00 -2.8729541993e+00 1.6587008804e+00 2.8729541993e+00 
8500 5.4612409847e+00 1.0003985728e-02 1.6584093206e+00 -2.8724492030e+00 1.6584093206e+00 2.8724492030e+00 
8600 5.4612211455e+00 1.0312491895e-02 1.6581077158e+00 -2.8719268082e+00 1.6581077158e+00 2.8719268082e+00 
8700 5.4612005391e+00 1.0598337218e-02 1.6577967538e+00 -2.8713882063e+00 1.6577967538e+00 2.8713882063e+00 
8800 5.4611792078e+00 1.0861880514e-02 1.6574771128e+00 -2.8708345718e+00 1.6574771128e+00 2.8708345718e+00 
8900 5.4611572042e+00 1.1103511560e-02 1.6571494606e+00 -2.8702670614e+00 1.6571494606e+00 2.8702670614e+00 
9000 5.4611345896e+00 1.1323648818e-02 1.6568144534e+00 -2.8696868121e+00 1.6568144534e+00 2.8696868121e+00 
9100 5.4611114319e+00 1.1522737169e-02 1.6564727356e+00 -2.8690949395e+00 1.6564727356e+00 2.8690949395e+00 
9200 5.4610878046e+00 1.1701245680e-02 1.6561249384e+00 -2.8684925370e+00 1.6561249384e+00 2.8684925370e+00 
9300 5.4610637852e+00 1.1859665405e-02 1.6557716791e+00 -2.8678806740e+00 1.6557716791e+00 2.8678806740e+00 
9400 5.4610394538e+00 1.1998507227e-02 1.6554135610e+00 -2.8672603951e+00 1.6554135610e+00 2.8672603951e+00 
9500 5.4610148920e+00 1.2118299753e-02 1.6550511721e+00 -2.8666327192e+00 1.6550511721e+00 2.8666327192e+00 
9600 5.4609901819e+00 1.2219587255e-02 1.6546850851e+00 -2.8659986380e+00 1.6546850851e+00 2.8659986380e+00 
9700 5.4609654049e+00 1.2302927674e-02 1.6543158568e+00 -2.8653591157e+00 1.6543158568e+00 2.8653591157e+00 
9800 5.4609406412e+00 1.2368890686e-02 1.6539440273e+00 -2.8647150882e+00 1.6539440273e+00 2.8647150882e+00 
9900 5.4609159686e+00 1.2418055831e-02 1.6535701204e+00 -2.8640674623e+00 1.6535701204e+00 2.8640674623e+00 
10000 5.4608914621e+00 1.2451010711e-02 1.6531946423e+00 -2.8634171153e+00 1.6531946423e+00 2.8634171153e+00 
10100 5.4608671935e+00 1.2468349260e-02 1.6528180824e+00 -2.8627648943e+00 1.6528180824e+00 2.8627648943e+00 
10200 5.4608432303e+00 1.2470670086e-02 1.6524409121e+00 -2.8621116163e+00 1.6524409121e+00 2.8621116163e+00 
10300 5.4608196362e+00 1.2458574885e-02 1.6520635856e+00 -2.8614580676e+00 1.6520635856e+00 2.8614580676e+00 
10400 5.4607964698e+00 1.2432666935e-02 1.6516865390e+00 -2.8608050037e+00 1.6516865390e+00 2.8608050037e+00 
10500 5.4607737852e+00 1.2393549657e-02 1.6513101905e+00 -2.8601531490e+00 1.6513101905e+00 2.8601531490e+00 
10600 5.4607516313e+00 1.2341825262e-02 1.6509349406e+00 -2.8595031971e+00 1.6509349406e+00 2.8595031971e+00 
10700 5.4607300520e+00 1.2278093464e-02 1.6505611718e+00 -2.8588558105e+00 1.6505611718e+00 2.8588558105e+00 
10800 5.4607090860e+00 1.2202950274e-02 1.6501892488e+00 -2.8582116210e+00 1.6501892488e+00 2.8582116210e+00 
10900 5.4606887667e+00 1.2116986868e-02 1.6498195187e+00 -2.8575712296e+00 1.6498195187e+00 2.8575712296e+00 
11000 5.4606691226e+00 1.2020788524e-02 1.6494523107e+00 -2.8569352068e+00 1.6494523107e+00 2.8569352068e+00 
11100 5.4606501771e+00 1.1914933637e-02 1.6490879368e+00 -2.8563040928e+00 1.6490879368e+00 2.8563040928e+00 
11200 5.4606319488e+00 1.1799992801e-02 1.6487266917e+00 -2.8556783979e+00 1.6487266917e+00 2.8556783979e+00 
11300 5.4606144515e+00 1.1676527958e-02 1.6483688530e+00 -2.8550586030e+00 1.6483688530e+00 2.8550586030e+00 
11400 5.4605976946e+00 1.1545091621e-02 1.6480146814e+00 -2.8544451598e+00 1.6480146814e+00 2.8544451598e+00 
11500 5.4605816832e+00 1.1406226159e-02 1.6476644211e+00 -2.8538384911e+00 1.6476644211e+00 2.8538384911e+00 
11600 5.4605664183e+00 1.1260463143e-02 1.6473183000e+00 -2.8532389919e+00 1.6473183000e+00 2.8532389919e+00 
11700 5.4605518972e+00 1.1108322755e-02 1.6469765302e+00 -2.8526470292e+00 1.6469765302e+00 2.8526470292e+00 
11800 5.4605381137e+00 1.0950313261e-02 1.6466393079e+00 -2.8520629430e+00 1.6466393079e+00 2.8520629430e+00 
11900 5.4605250583e+00 1.0786930536e-02 1.6463068142e+00 -2.8514870470e+00 1.6463068142e+00 2.8514870470e+00 
12000 5.4605127187e+00 1.0618657642e-02 1.6459792151e+00 -2.8509196287e+00 1.6459792151e+00 2.8509196287e+00 
12100 5.4605010797e+00 1.0445964468e-02 1.6456566621e+00 -2.8503609505e+00 1.6456566621e+00 2.8503609505e+00 
12200 5.4604901241e+00 1.0269307407e-02 1.6453392925e+00 -2.8498112502e+00 1.6453392925e+00 2.8498112502e+00 
12300 5.4604798322e+00 1.0089129093e-02 1.6450272297e+00 -2.8492707417e+00 1.6450272297e+00 2.8492707417e+00 
12400 5.4604701827e+00 9.9058581800e-03 1.6447205838e+00 -2.8487396155e+00 1.6447205838e+00 2.8487396155e+00 
12500 5.4604611527e+00 9.7199091590e-03 1.6444194520e+00 -2.8482180398e+00 1.6444194520e+00 2.8482180398e+00 
12600 5.4604527180e+00 9.5316822244e-03 1.6441239186e+00 -2.8477061609e+00 1.6441239186e+00 2.8477061609e+00 
12700 5.4604448535e+00 9.3415631750e-03 1.6438340559e+00 -2.8472041040e+00 1.6438340559e+00 2.8472041040e+00 
12800 5.4604375331e+00 9.1499233528e-03 1.6435499246e+00 -2.8467119742e+00 1.6435499246e+00 2.8467119742e+00 
12900 5.4604307302e+00 8.9571196170e-03 1.6432715739e+00 -2.8462298567e+00 1.6432715739e+00 2.8462298567e+00 
13000 5.4604244178e+00 8.7634943500e-03 1.6429990422e+00 -2.8457578179e+00 1.6429990422e+00 2.8457578179e+00 
13100 5.4604185688e+00 8.5693754951e-03 1.6427323574e+00 -2.8452959063e+00 1.6427323574e+00 2.8452959063e+00 
13200 5.4604131561e+00 8.3750766223e-03 1.6424715374e+00 -2.8448441528e+00 1.6424715374e+00 2.8448441528e+00 
13300 5.4604081527e+00 8.1808970208e-03 1.6422165906e+00 -2.8444025719e+00 1.6422165906e+00 2.8444025719e+00 
13400 5.4604035320e+00 7.9871218175e-03 1.6419675159e+00 -2.8439711619e+00 1.6419675159e+00 2.8439711619e+00 
13500 5.4603992680e+00 7.7940221175e-03 1.6417243039e+00 -2.8435499064e+00 1.6417243039e+00 2.8435499064e+00 
13600 5.4603953351e+00 7.6018551671e-03 1.6414869366e+00 -2.8431387741e+00 1.6414869366e+00 2.8431387741e+00 
13700 5.4603917084e+00 7.4108645363e-03 1.6412553881e+00 -2.8427377204e+00 1.6412553881e+00 2.8427377204e+00 
13800 5.4603883640e+00 7.2212803196e-03 1.6410296251e+00 -2.8423466874e+00 1.6410296251e+00 2.8423466874e+00 
13900 5.4603852788e+00 7.0333193535e-03 1.6408096072e+00 -2.8419656051e+00 1.6408096072e+00 2.8419656051e+00 
14000 5.4603824306e+00 6.8471854498e-03 1.6405952872e+00 -2.8415943920e+00 1.6405952872e+00 2.8415943920e+00 
14100 5.4603797983e+00 6.6630696423e-03 1.6403866117e+00 -2.8412329555e+00 1.6403866117e+00 2.8412329555e+00 
14200 5.4603773618e+00 6.4811504465e-03 1.6401835214e+00 -2.8408811928e+00 1.6401835214e+00 2.8408811928e+00 
14300 5.4603751021e+00 6.3015941302e-03 1.6399859514e+00 -2.8405389915e+00 1.6399859514e+00 2.8405389915e+00 
14400 5.4603730014e+00 6.1245549948e-03 1.6397938317e+00 -2.8402062305e+00 1.6397938317e+00 2.8402062305e+00 
14500 5.4603710428e+00 5.9501756654e-03 1.6396070876e+00 -2.8398827801e+00 1.6396070876e+00 2.8398827801e+00 
14600 5.4603692109e+00 5.7785873883e-03 1.6394256396e+00 -2.8395685031e+00 1.6394256396e+00 2.8395685031e+00 
14700 5.4603674910e+00 5.6099103363e-03 1.6392494046e+00 -2.8392632551e+00 1.6392494046e+00 2.8392632551e+00 
14800 5.4603658699e+00 5.4442539191e-03 1.6390782954e+00 -2.8389668853e+00 1.6390782954e+00 2.8389668853e+00 
14900 5.4603643352e+00 5.2817170987e-03 1.6389122216e+00 -2.8386792369e+00 1.6389122216e+00 2.8386792369e+00 
15000 5.4603628759e+00 5.1223887097e-03 1.6387510894e+00 -2.8384001477e+00 1.6387510894e+00 2.8384001477e+00 
15100 5.4603614816e+00 4.9663477816e-03 1.6385948024e+00 -2.8381294509e+00 1.6385948024e+00 2.8381294509e+00 
15200 5.4603601433e+00 4.8136638644e-03 1.6384432619e+00 -2.8378669749e+00 1.6384432619e+00 2.8378669749e+00 
15300 5.4603588527e+00 4.6643973558e-03 1.6382963666e+00 -2.8376125448e+00 1.6382963666e+00 2.8376125448e+00 
15400 5.4603576027e+00 4.5185998288e-03 1.6381540135e+00 -2.8373659821e+00 1.6381540135e+00 2.8373659821e+00 
15500 5.4603563868e+00 4.3763143605e-03 1.6380160981e+00 -2.8371271054e+00 1.6380160981e+00 2.8371271054e+00 
15600 5.4603551994e+00 4.2375758601e-03 1.6378825141e+00 -2.8368957312e+00 1.6378825141e+00 2.8368957312e+00 
15700 5.4603540358e+00 4.1024113959e-03 1.6377531543e+00 -2.8366716736e+00 1.6377531543e+00 2.8366716736e+00 
15800 5.4603528919e+00 3.9708405211e-03 1.6376279108e+00 -2.8364547455e+00 1.6376279108e+00 2.8364547455e+00 
15900 5.4603517643e+00 3.8428755978e-03 1.6375066748e+00 -2.8362447584e+00 1.6375066748e+00 2.8362447584e+00 
16000 5.4603506504e+00 3.7185221183e-03 1.6373893369e+00 -2.8360415233e+00 1.6373893369e+00 2.8360415233e+00 
16100 5.4603495479e+00 3.5977790236e-03 1.6372757879e+00 -2.8358448507e+00 1.6372757879e+00 2.8358448507e+00 
16200 5.4603484553e+00 3.4806390186e-03 1.6371659182e+00 -2.8356545508e+00 1.6371659182e+00 2.8356545508e+00 
16300 5.4603473712e+00 3.3670888833e-03 1.6370596187e+00 -2.8354704345e+00 1.6370596187e+00 2.8354704345e+00 
16400 5.4603462951e+00 3.2571097809e-03 1.6369567802e+00 -2.8352923131e+00 1.6369567802e+00 2.8352923131e+00 
16500 5.4603452265e+00 3.1506775600e-03 1.6368572945e+00 -2.8351199988e+00 1.6368572945e+00 2.8351199988e+00 
16600 5.4603441655e+00 3.0477630535e-03 1.6367610537e+00 -2.8349533049e+00 1.6367610537e+00 2.8349533049e+00 
16700 5.4603431123e+00 2.9483323715e-03 1.6366679511e+00 -2.8347920465e+00 1.6366679511e+00 2.8347920465e+00 
16800 5.4603420674e+00 2.8523471891e-03 1.6365778808e+00 -2.8346360401e+00 1.6365778808e+00 2.8346360401e+00 
16900 5.4603410315e+00 2.7597650292e-03 1.6364907379e+00 -2.8344851042e+00 1.6364907379e+00 2.8344851042e+00 
17000 5.4603400057e+00 2.6705395387e-03 1.6364064190e+00 -2.8343390596e+00 1.6364064190e+00 2.8343390596e+00 
17100 5.4603389909e+00 2.5846207593e-03 1.6363248220e+00 -2.8341977294e+00 1.6363248220e+00 2.8341977294e+00 
17200 5.4603379882e+00 2.5019553918e-03 1.6362458463e+00 -2.8340609394e+00 1.6362458463e+00 2.8340609394e+00 
17300 5.4603369991e+00 2.4224870542e-03 1.6361693927e+00 -2.8339285180e+00 1.6361693927e+00 2.8339285180e+00 
17400 5.4603360246e+00 2.3461565334e-03 1.6360953641e+00 -2.8338002966e+00 1.6360953641e+00 2.8338002966e+00 
17500 5.4603350662e+00 2.2729020297e-03 1.6360236647e+00 -2.8336761097e+00 1.6360236647e+00 2.8336761097e+00 
17600 5.4603341252e+00 2.2026593955e-03 1.6359542010e+00 -2.8335557950e+00 1.6359542010e+00 2.8335557950e+00 
17700 5.4603332028e+00 2.1353623658e-03 1.6358868811e+00 -2.8334391935e+00 1.6358868811e+00 2.8334391935e+00 
17800 5.4603323004e+00 2.0709427835e-03 1.6358216154e+00 -2.8333261499e+00 1.6358216154e+00 2.8333261499e+00 
17900 5.4603314191e+00 2.0093308158e-03 1.6357583160e+00 -2.8332165122e+00 1.6357583160e+00 2.8332165122e+00 
18000 5.4603305601e+00 1.9504551648e-03 1.6356968974e+00 -2.8331101321e+00 1.6356968974e+00 2.8331101321e+00 
18100 5.4603297246e+00 1.8942432703e-03 1.6356372763e+00 -2.8330068652e+00 1.6356372763e+00 2.8330068652e+00 
18200 5.4603289134e+00 1.8406215060e-03 1.6355793712e+00 -2.8329065708e+00 1.6355793712e+00 2.8329065708e+00 
18300 5.4603281276e+00 1.7895153679e-03 1.6355231034e+00 -2.8328091120e+00 1.6355231034e+00 2.8328091120e+00 
18400 5.4603273678e+00 1.7408496557e-03 1.6354683960e+00 -2.8327143560e+00 1.6354683960e+00 2.8327143560e+00 
18500 5.4603266348e+00 1.6945486473e-03 1.6354151745e+00 -2.8326221737e+00 1.6354151745e+00 2.8326221737e+00 
18600 5.4603259292e+00 1.6505362658e-03 1.6353633669e+00 -2.8325324403e+00 1.6353633669e+00 2.8325324403e+00 
18700 5.4603252515e+00 1.6087362392e-03 1.6353129032e+00 -2.8324450347e+00 1.6353129032e+00 2.8324450347e+00 
18800 5.4603246020e+00 1.5690722534e-03 1.6352637161e+00 -2.8323598400e+00 1.6352637161e+00 2.8323598400e+00 
18900 5.4603239810e+00 1.5314680981e-03 1.6352157402e+00 -2.8322767433e+00 1.6352157402e+00 2.8322767433e+00 
19000 5.4603233886e+00 1.4958478049e-03 1.6351689127e+00 -2.8321956357e+00 1.6351689127e+00 2.8321956357e+00 
19100 5.4603228249e+00 1.4621357798e-03 1.6351231730e+00 -2.8321164124e+00 1.6351231730e+00 2.8321164124e+00 
19200 5.4603222899e+00 1.4302569274e-03 1.6350784630e+00 -2.8320389723e+00 1.6350784630e+00 2.8320389723e+00 
19300 5.4603217833e+00 1.4001367694e-03 1.6350347265e+00 -2.8319632185e+00 1.6350347265e+00 2.8319632185e+00 
19400 5.4603213050e+00 1.3717015558e-03 1.6349919100e+00 -2.8318890581e+00 1.6349919100e+00 2.8318890581e+00 
19500 5.4603208546e+00 1.3448783696e-03 1.6349499619e+00 -2.8318164019e+00 1.6349499619e+00 2.8318164019e+00 
19600 5.4603204318e+00 1.3195952251e-03 1.6349088330e+00 -2.8317451646e+00 1.6349088330e+00 2.8317451646e+00 
19700 5.4603200359e+00 1.2957811599e-03 1.6348684764e+00 -2.8316752648e+00 1.6348684764e+00 2.8316752648e+00 
19800 5.4603196665e+00 1.2733663204e-03 1.6348288470e+00 -2.8316066247e+00 1.6348288470e+00 2.8316066247e+00 
19900 5.4603193229e+00 1.2522820410e-03 1.6347899022e+00 -2.8315391703e+00 1.6347899022e+00 2.8315391703e+00 
20000 5.4603190044e+00 1.2324609180e-03 1.6347516014e+00 -2.8314728313e+00 1.6347516014e+00 2.8314728313e+00 
20100 5.4603187103e+00 1.2138368767e-03 1.6347139058e+00 -2.8314075407e+00 1.6347139058e+00 2.8314075407e+00 
20200 5.4603184399e+00 1.1963452335e-03 1.6346767791e+00 -2.8313432353e+00 1.6346767791e+00 2.8313432353e+00 
20300 5.4603181922e+00 1.1799227522e-03 1.6346401865e+00 -2.8312798551e+00 1.6346401865e+00 2.8312798551e+00 
20400 5.4603179665e+00 1.1645076943e-03 1.6346040954e+00 -2.8312173435e+00 1.6346040954e+00 2.8312173435e+00 
20500 5.4603177619e+00 1.1500398650e-03 1.6345684751e+00 -2.8311556473e+00 1.6345684751e+00 2.8311556473e+00 
20600 5.4603175774e+00 1.1364606532e-03 1.6345332965e+00 -2.8310947162e+00 1.6345332965e+00 2.8310947162e+00 
20700 5.4603174122e+00 1.1237130669e-03 1.6344985326e+00 -2.8310345033e+00 1.6344985326e+00 2.8310345033e+00 
20800 5.4603172654e+00 1.1117417641e-03 1.6344641578e+00 -2.8309749645e+00 1.6344641578e+00 2.8309749645e+00 
20900 5.4603171359e+00 1.1004930780e-03 1.6344301486e+00 -2.8309160588e+00 1.6344301486e+00 2.8309160588e+00 
21000 5.4603170230e+00 1.0899150388e-03 1.6343964827e+00 -2.8308577478e+00 1.6343964827e+00 2.8308577478e+00 
21100 5.4603169255e+00 1.0799573910e-03 1.6343631398e+00 -2.8307999962e+00 1.6343631398e+00 2.8307999962e+00 
21200 5.4603168428e+00 1.0705716055e-03 1.6343301008e+00 -2.8307427710e+00 1.6343301008e+00 2.8307427710e+00 
21300 5.4603167737e+00 1.0617108893e-03 1.6342973483e+00 -2.8306860420e+00 1.6342973483e+00 2.8306860420e+00 
21400 5.4603167176e+00 1.0533301900e-03 1.6342648662e+00 -2.8306297814e+00 1.6342648662e+00 2.8306297814e+00 
21500 5.4603166734e+00 1.0453861974e-03 1.6342326399e+00 -2.8305739638e+00 1.6342326399e+00 2.8305739638e+00 
21600 5.4603166403e+00 1.0378373416e-03 1.6342006560e+00 -2.8305185660e+00 1.6342006560e+00 2.8305185660e+00 
21700 5.4603166176e+00 1.0306437869e-03 1.6341689025e+00 -2.8304635672e+00 1.6341689025e+00 2.8304635672e+00 
21800 5.4603166044e+00 1.0237674241e-03 1.6341373684e+00 -2.8304089486e+00 1.6341373684e+00 2.8304089486e+00 
21900 5.4603166000e+00 1.0171718580e-03 1.6341060441e+00 -2.8303546933e+00 1.6341060441e+00 2.8303546933e+00 
22000 5.4603166036e+00 1.0108223938e-03 1.6340749210e+00 -2.8303007865e+00 1.6340749210e+00 2.8303007865e+00 
22100 5.4603166146e+00 1.0046860191e-03 1.6340439916e+00 -2.8302472152e+00 1.6340439916e+00 2.8302472152e+00 
22200 5.4603166322e+00 9.9873138516e-04 1.6340132494e+00 -2.8301939681e+00 1.6340132494e+00 2.8301939681e+00 
22300 5.4603166558e+00 9.9292878404e-04 1.6339826888e+00 -2.8301410356e+00 1.6339826888e+00 2.8301410356e+00 
22400 5.4603166848e+00 9.8725012497e-04 1.6339523052e+00 -2.8300884097e+00 1.6339523052e+00 2.8300884097e+00 
22500 5.4603167187e+00 9.8166890785e-04 1.6339220948e+00 -2.8300360837e+00 1.6339220948e+00 2.8300360837e+00 
22600 5.4603167569e+00 9.7616019503e-04 1.6338920546e+00 -2.8299840526e+00 1.6338920546e+00 2.8299840526e+00 
22700 5.4603167988e+00 9.7070058147e-04 1.6338621824e+00 -2.8299323126e+00 1.6338621824e+00 2.8299323126e+00 
22800 5.4603168442e+00 9.6526816303e-04 1.6338324768e+00 -2.8298808609e+00 1.6338324768e+00 2.8298808609e+00 
22900 5.4603168924e+00 9.5984250355e-04 1.6338029369e+00 -2.8298296963e+00 1.6338029369e+00 2.8298296963e+00 
23000 5.4603169431e+00 9.5440460032e-04 1.6337735625e+00 -2.8297788184e+00 1.6337735625e+00 2.8297788184e+00 
23100 5.4603169959e+00 9.4893684855e-04 1.6337443540e+00 -2.8297282277e+00 1.6337443540e+00 2.8297282277e+00 
23200 5.4603170505e+00 9.4342300462e-04 1.6337153123e+00 -2.8296779260e+00 1.6337153123e+00 2.8296779260e+00 
23300 5.4603171066e+00 9.3784814839e-04 1.6336864389e+00 -2.8296279157e+00 1.6336864389e+00 2.8296279157e+00 
23400 5.4603171638e+00 9.3219864476e-04 1.6336577355e+00 -2.8295782001e+00 1.6336577355e+00 2.8295782001e+00 
23500 5.4603172219e+00 9.2646210438e-04 1.6336292046e+00 -2.8295287830e+00 1.6336292046e+00 2.8295287830e+00 
23600 5.4603172807e+00 9.2062734382e-04 1.6336008487e+00 -2.8294796692e+00 1.6336008487e+00 2.8294796692e+00 
23700 5.4603173400e+00 9.1468434523e-04 1.6335726709e+00 -2.8294308639e+00 1.6335726709e+00 2.8294308639e+00 
23800 5.4603173996e+00 9.0862421562e-04 1.6335446746e+00 -2.8293823728e+00 1.6335446746e+00 2.8293823728e+00 
23900 5.4603174592e+00 9.0243914579e-04 1.6335168632e+00 -2.8293342021e+00 1.6335168632e+00 2.8293342021e+00 
24000 5.4603175189e+00 8.9612236909e-04 1.6334892407e+00 -2.8292863585e+00 1.6334892407e+00 2.8292863585e+00 
24100 5.4603175784e+00 8.8966812014e-04 1.6334618111e+00 -2.8292388490e+00 1.6334618111e+00 2.8292388490e+00 
24200 5.4603176376e+00 8.8307159340e-04 1.6334345786e+00 -2.8291916809e+00 1.6334345786e+00 2.8291916809e+00 
24300 5.4603176965e+00 8.7632890192e-04 1.6334075475e+00 -2.8291448618e+00 1.6334075475e+00 2.8291448618e+00 
24400 5.4603177550e+00 8.6943703618e-04 1.6333807224e+00 -2.8290983993e+00 1.6333807224e+00 2.8290983993e+00 
24500 5.4603178130e+00 8.6239382319e-04 1.6333541078e+00 -2.8290523015e+00 1.6333541078e+00 2.8290523015e+00 
24600 5.4603178704e+00 8.5519788583e-04 1.6333277084e+00 -2.8290065764e+00 1.6333277084e+00 2.8290065764e+00 
24700 5.4603179273e+00 8.4784860260e-04 1.6333015289e+00 -2.8289612321e+00 1.6333015289e+00 2.8289612321e+00 
24800 5.4603179835e+00 8.4034606781e-04 1.6332755739e+00 -2.8289162768e+00 1.6332755739e+00 2.8289162768e+00 
24900 5.4603180392e+00 8.3269105220e-04 1.6332498482e+00 -2.8288717185e+00 1.6332498482e+00 2.8288717185e+00 
25000 5.4603180942e+00 8.2488496414e-04 1.6332243564e+00 -2.8288275655e+00 1.6332243564e+00 2.8288275655e+00 
25100 5.4603181485e+00 8.1692981146e-04 1.6331991032e+00 -2.8287838256e+00 1.6331991032e+00 2.8287838256e+00 
25200 5.4603182023e+00 8.0882816384e-04 1.6331740932e+00 -2.8287405070e+00 1.6331740932e+00 2.8287405070e+00 
25300 5.4603182554e+00 8.0058311598e-04 1.6331493308e+00 -2.8286976172e+00 1.6331493308e+00 2.8286976172e+00 
25400 5.4603183079e+00 7.9219825144e-04 1.6331248204e+00 -2.8286551641e+00 1.6331248204e+00 2.8286551641e+00 
25500 5.4603183598e+00 7.8367760727e-04 1.6331005664e+00 -2.8286131549e+00 1.6331005664e+00 2.8286131549e+00 
25600 5.4603184111e+00 7.7502563950e-04 1.6330765729e+00 -2.8285715969e+00 1.6330765729e+00 2.8285715969e+00 
25700 5.4603184618e+00 7.6624718935e-04 1.6330528440e+00 -2.8285304972e+00 1.6330528440e+00 2.8285304972e+00 
25800 5.4603185120e+00 7.5734745042e-04 1.6330293835e+00 -2.8284898624e+00 1.6330293835e+00 2.8284898624e+00 
25900 5.4603185617e+00 7.4833193671e-04 1.6330061951e+00 -2.8284496990e+00 1.6330061951e+00 2.8284496990e+00 
26000 5.4603186109e+00 7.3920645156e-04 1.6329832824e+00 -2.8284100131e+00 1.6329832824e+00 2.8284100131e+00 
26100 5.4603186597e+00 7.2997705757e-04 1.6329606489e+00 -2.8283708106e+00 1.6329606489e+00 2.8283708106e+00 
26200 5.4603187080e+00 7.2065004735e-04 1.6329382976e+00 -2.8283320970e+00 1.6329382976e+00 2.8283320970e+00 
26300 5.4603187558e+00 7.1123191542e-04 1.6329162316e+00 -2.8282938776e+00 1.6329162316e+00 2.8282938776e+00 
26400 5.4603188033e+00 7.0172933089e-04 1.6328944537e+00 -2.8282561571e+00 1.6328944537e+00 2.8282561571e+00 
26500 5.4603188504e+00 6.9214911124e-04 1.6328729664e+00 -2.8282189401e+00 1.6328729664e+00 2.8282189401e+00 
26600 5.4603188971e+00 6.8249819707e-04 1.6328517723e+00 -2.8281822308e+00 1.6328517723e+00 2.8281822308e+00 
26700 5.4603189435e+00 6.7278362783e-04 1.6328308733e+00 -2.8281460328e+00 1.6328308733e+00 2.8281460328e+00 
26800 5.4603189896e+00 6.6301251852e-04 1.6328102716e+00 -2.8281103496e+00 1.6328102716e+00 2.8281103496e+00 
26900 5.4603190354e+00 6.5319203743e-04 1.6327899689e+00 -2.8280751842e+00 1.6327899689e+00 2.8280751842e+00 
27000 5.4603190808e+00 6.4332938487e-04 1.6327699666e+00 -2.8280405392e+00 1.6327699666e+00 2.8280405392e+00 
27100 5.4603191260e+00 6.3343177284e-04 1.6327502661e+00 -2.8280064169e+00 1.6327502661e+00 2.8280064169e+00 
27200 5.4603191710e+00 6.2350640572e-04 1.6327308684e+00 -2.8279728192e+00 1.6327308684e+00 2.8279728192e+00 
27300 5.4603192156e+00 6.1356046195e-04 1.6327117745e+00 -2.8279397475e+00 1.6327117745e+00 2.8279397475e+00 
27400 5.4603192600e+00 6.0360107661e-04 1.6326929849e+00 -2.8279072030e+00 1.6326929849e+00 2.8279072030e+00 
27500 5.4603193041e+00 5.9363532504e-04 1.6326745001e+00 -2.8278751864e+00 1.6326745001e+00 2.8278751864e+00 
27600 5.4603193480e+00 5.8367020733e-04 1.6326563203e+00 -2.8278436980e+00 1.6326563203e+00 2.8278436980e+00 
27700 5.4603193917e+00 5.7371263376e-04 1.6326384455e+00 -2.8278127379e+00 1.6326384455e+00 2.8278127379e+00 
27800 5.4603194350e+00 5.6376941117e-04 1.6326208754e+00 -2.8277823057e+00 1.6326208754e+00 2.8277823057e+00 
27900 5.4603194782e+00 5.5384723023e-04 1.6326036096e+00 -2.8277524005e+00 1.6326036096e+00 2.8277524005e+00 
28000 5.4603195210e+00 5.4395265354e-04 1.6325866476e+00 -2.8277230214e+00 1.6325866476e+00 2.8277230214e+00 
28100 5.4603195636e+00 5.3409210467e-04 1.6325699884e+00 -2.8276941668e+00 1.6325699884e+00 2.8276941668e+00 
28200 5.4603196060e+00 5.2427185797e-04 1.6325536310e+00 -2.8276658350e+00 1.6325536310e+00 2.8276658350e+00 
28300 5.4603196481e+00 5.1449802924e-04 1.6325375742e+00 -2.8276380238e+00 1.6325375742e+00 2.8276380238e+00 
28400 5.4603196899e+00 5.0477656724e-04 1.6325218166e+00 -2.8276107309e+00 1.6325218166e+00 2.8276107309e+00 
28500 5.4603197314e+00 4.9511324589e-04 1.6325063566e+00 -2.8275839534e+00 1.6325063566e+00 2.8275839534e+00 
28600 5.4603197726e+00 4.8551365731e-04 1.6324911925e+00 -2.8275576882e+00 1.6324911925e+00 2.8275576882e+00 
28700 5.4603198135e+00 4.7598320557e-04 1.6324763221e+00 -2.8275319321e+00 1.6324763221e+00 2.8275319321e+00 
28800 5.4603198540e+00 4.6652710119e-04 1.6324617436e+00 -2.8275066813e+00 1.6324617436e+00 2.8275066813e+00 
28900 5.4603198943e+00 4.5715035625e-04 1.6324474546e+00 -2.8274819320e+00 1.6324474546e+00 2.8274819320e+00 
29000 5.4603199342e+00 4.4785778027e-04 1.6324334526e+00 -2.8274576798e+00 1.6324334526e+00 2.8274576798e+00 
29100 5.4603199738e+00 4.3865397667e-04 1.6324197351e+00 -2.8274339205e+00 1.6324197351e+00 2.8274339205e+00 
29200 5.4603200130e+00 4.2954333988e-04 1.6324062994e+00 -2.8274106492e+00 1.6324062994e+00 2.8274106492e+00 
29300 5.4603200519e+00 4.2053005307e-04 1.6323931427e+00 -2.8273878611e+00 1.6323931427e+00 2.8273878611e+00 
29400 5.4603200904e+00 4.1161808639e-04 1.6323802619e+00 -2.8273655509e+00 1.6323802619e+00 2.8273655509e+00 
29500 5.4603201284e+00 4.0281119584e-04 1.6323676540e+00 -2.8273437134e+00 1.6323676540e+00 2.8273437134e+00 
29600 5.4603201661e+00 3.9411292263e-04 1.6323553158e+00 -2.8273223430e+00 1.6323553158e+00 2.8273223430e+00 
29700 5.4603202034e+00 3.8552659302e-04 1.6323432439e+00 -2.8273014338e+00 1.6323432439e+00 2.8273014338e+00 
29800 5.4603202403e+00 3.7705531871e-04 1.6323314349e+00 -2.8272809801e+00 1.6323314349e+00 2.8272809801e+00 
29900 5.4603202768e+00 3.6870199761e-04 1.6323198853e+00 -2.8272609756e+00 1.6323198853e+00 2.8272609756e+00 
30000 5.4603203128e+00 3.6046931510e-04 1.6323085916e+00 -2.8272414142e+00 1.6323085916e+00 2.8272414142e+00 
30100 5.4603203484e+00 3.5235974567e-04 1.6322975499e+00 -2.8272222894e+00 1.6322975499e+00 2.8272222894e+00 
30200 5.4603203836e+00 3.4437555499e-04 1.6322867565e+00 -2.8272035948e+00 1.6322867565e+00 2.8272035948e+00 
30300 5.4603204183e+00 3.3651880227e-04 1.6322762077e+00 -2.8271853236e+00 1.6322762077e+00 2.8271853236e+00 
30400 5.4603204525e+00 3.2879134305e-04 1.6322658994e+00 -2.8271674692e+00 1.6322658994e+00 2.8271674692e+00 
30500 5.4603204863e+00 3.2119483226e-04 1.6322558278e+00 -2.8271500247e+00 1.6322558278e+00 2.8271500247e+00 
30600 5.4603205197e+00 3.1373072754e-04 1.6322459888e+00 -2.8271329831e+00 1.6322459888e+00 2.8271329831e+00 
30700 5.4603205525e+00 3.0640029300e-04 1.6322363784e+00 -2.8271163374e+00 1.6322363784e+00 2.8271163374e+00 
30800 5.4603205849e+00 2.9920460302e-04 1.6322269925e+00 -2.8271000805e+00 1.6322269925e+00 2.8271000805e+00 
30900 5.4603206169e+00 2.9214454646e-04 1.6322178270e+00 -2.8270842054e+00 1.6322178270e+00 2.8270842054e+00 
31000 5.4603206483e+00 2.8522083100e-04 1.6322088777e+00 -2.8270687047e+00 1.6322088777e+00 2.8270687047e+00 
31100 5.4603206793e+00 2.7843398772e-04 1.6322001404e+00 -2.8270535714e+00 1.6322001404e+00 2.8270535714e+00 
31200 5.4603207098e+00 2.7178437584e-04 1.6321916110e+00 -2.8270387980e+00 1.6321916110e+00 2.8270387980e+00 
31300 5.4603207399e+00 2.6527218761e-04 1.6321832853e+00 -2.8270243774e+00 1.6321832853e+00 2.8270243774e+00 
31400 5.4603207695e+00 2.5889745340e-04 1.6321751590e+00 -2.8270103022e+00 1.6321751590e+00 2.8270103022e+00 
31500 5.4603207986e+00 2.5266004686e-04 1.6321672280e+00 -2.8269965653e+00 1.6321672280e+00 2.8269965653e+00 
31600 5.4603208272e+00 2.4655969019e-04 1.6321594879e+00 -2.8269831592e+00 1.6321594879e+00 2.8269831592e+00 
31700 5.4603208554e+00 2.4059595957e-04 1.6321519348e+00 -2.8269700767e+00 1.6321519348e+00 2.8269700767e+00 
31800 5.4603208831e+00 2.3476829060e-04 1.6321445643e+00 -2.8269573106e+00 1.6321445643e+00 2.8269573106e+00 
31900 5.4603209104e+00 2.2907598381e-04 1.6321373723e+00 -2.8269448537e+00 1.6321373723e+00 2.8269448537e+00 
32000 5.4603209372e+00 2.2351821030e-04 1.6321303546e+00 -2.8269326987e+00 1.6321303546e+00 2.8269326987e+00 
32100 5.4603209636e+00 2.1809401727e-04 1.6321235072e+00 -2.8269208386e+00 1.6321235072e+00 2.8269208386e+00 
32200 5.4603209895e+00 2.1280233375e-04 1.6321168259e+00 -2.8269092663e+00 1.6321168259e+00 2.8269092663e+00 
32300 5.4603210150e+00 2.0764197619e-04 1.6321103067e+00 -2.8268979747e+00 1.6321103067e+00 2.8268979747e+00 
32400 5.4603210400e+00 2.0261165410e-04 1.6321039455e+00 -2.8268869569e+00 1.6321039455e+00 2.8268869569e+00 
32500 5.4603210646e+00 1.9770997574e-04 1.6320977384e+00 -2.8268762059e+00 1.6320977384e+00 2.8268762059e+00 
32600 5.4603210888e+00 1.9293545366e-04 1.6320916815e+00 -2.8268657150e+00 1.6320916815e+00 2.8268657150e+00 
32700 5.4603211125e+00 1.8828651032e-04 1.6320857708e+00 -2.8268554774e+00 1.6320857708e+00 2.8268554774e+00 
32800 5.4603211359e+00 1.8376148362e-04 1.6320800026e+00 -2.8268454865e+00 1.6320800026e+00 2.8268454865e+00 
32900 5.4603211588e+00 1.7935863233e-04 1.6320743729e+00 -2.8268357356e+00 1.6320743729e+00 2.8268357356e+00 
33000 5.4603211814e+00 1.7507614156e-04 1.6320688781e+00 -2.8268262183e+00 1.6320688781e+00 2.8268262183e+00 
33100 5.4603212035e+00 1.7091212804e-04 1.6320635145e+00 -2.8268169282e+00 1.6320635145e+00 2.8268169282e+00 
33200 5.4603212253e+00 1.6686464543e-04 1.6320582784e+00 -2.8268078591e+00 1.6320582784e+00 2.8268078591e+00 
33300 5.4603212466e+00 1.6293168947e-04 1.6320531663e+00 -2.8267990047e+00 1.6320531663e+00 2.8267990047e+00 
33400 5.4603212676e+00 1.5911120308e-04 1.6320481747e+00 -2.8267903590e+00 1.6320481747e+00 2.8267903590e+00 
33500 5.4603212883e+00 1.5540108131e-04 1.6320433001e+00 -2.8267819159e+00 1.6320433001e+00 2.8267819159e+00 
33600 5.4603213085e+00 1.5179917625e-04 1.6320385392e+00 -2.8267736698e+00 1.6320385392e+00 2.8267736698e+00 
33700 5.4603213284e+00 1.4830330177e-04 1.6320338886e+00 -2.8267656147e+00 1.6320338886e+00 2.8267656147e+00 
33800 5.4603213480e+00 1.4491123821e-04 1.6320293451e+00 -2.8267577451e+00 1.6320293451e+00 2.8267577451e+00 
33900 5.4603213672e+00 1.4162073685e-04 1.6320249055e+00 -2.8267500555e+00 1.6320249055e+00 2.8267500555e+00 
34000 5.4603213861e+00 1.3842952439e-04 1.6320205667e+00 -2.8267425405e+00 1.6320205667e+00 2.8267425405e+00 
34100 5.4603214046e+00 1.3533530718e-04 1.6320163256e+00 -2.8267351948e+00 1.6320163256e+00 2.8267351948e+00 
34200 5.4603214228e+00 1.3233577539e-04 1.6320121794e+00 -2.8267280132e+00 1.6320121794e+00 2.8267280132e+00 
34300 5.4603214408e+00 1.2942860703e-04 1.6320081250e+00 -2.8267209909e+00 1.6320081250e+00 2.8267209909e+00 
34400 5.4603214583e+00 1.2661147184e-04 1.6320041597e+00 -2.8267141227e+00 1.6320041597e+00 2.8267141227e+00 
34500 5.4603214756e+00 1.2388203500e-04 1.6320002807e+00 -2.8267074041e+00 1.6320002807e+00 2.8267074041e+00 
34600 5.4603214926e+00 1.2123796080e-04 1.6319964853e+00 -2.8267008302e+00 1.6319964853e+00 2.8267008302e+00 
34700 5.4603215093e+00 1.1867691605e-04 1.6319927709e+00 -2.8266943967e+00 1.6319927709e+00 2.8266943967e+00 
34800 5.4603215257e+00 1.1619657344e-04 1.6319891349e+00 -2.8266880990e+00 1.6319891349e+00 2.8266880990e+00 
34900 5.4603215418e+00 1.1379461473e-04 1.6319855749e+00 -2.8266819330e+00 1.6319855749e+00 2.8266819330e+00 
35000 5.4603215576e+00 1.1146873378e-04 1.6319820886e+00 -2.8266758944e+00 1.6319820886e+00 2.8266758944e+00 
35100 5.4603215732e+00 1.0921663944e-04 1.6319786734e+00 -2.8266699792e+00 1.6319786734e+00 2.8266699792e+00 
35200 5.4603215884e+00 1.0703605836e-04 1.6319753273e+00 -2.8266641835e+00 1.6319753273e+00 2.8266641835e+00 
35300 5.4603216035e+00 1.0492473756e-04 1.6319720479e+00 -2.8266585036e+00 1.6319720479e+00 2.8266585036e+00 
35400 5.4603216182e+00 1.0288044695e-04 1.6319688333e+00 -2.8266529356e+00 1.6319688333e+00 2.8266529356e+00 
35500 5.4603216327e+00 1.0090098166e-04 1.6319656812e+00 -2.8266474761e+00 1.6319656812e+00 2.8266474761e+00 
35600 5.4603216470e+00 9.8984164243e-05 1.6319625899e+00 -2.8266421217e+00 1.6319625899e+00 2.8266421217e+00 
35700 5.4603216610e+00 9.7127846751e-05 1.6319595572e+00 -2.8266368689e+00 1.6319595572e+00 2.8266368689e+00 
35800 5.4603216747e+00 9.5329912677e-05 1.6319565814e+00 -2.8266317147e+00 1.6319565814e+00 2.8266317147e+00 
35900 5.4603216883e+00 9.3588278756e-05 1.6319536607e+00 -2.8266266558e+00 1.6319536607e+00 2.8266266558e+00 
36000 5.4603217016e+00 9.1900896638e-05 1.6319507933e+00 -2.8266216894e+00 1.6319507933e+00 2.8266216894e+00 
36100 5.4603217146e+00 9.0265754440e-05 1.6319479776e+00 -2.8266168125e+00 1.6319479776e+00 2.8266168125e+00 
36200 5.4603217275e+00 8.8680878172e-05 1.6319452120e+00 -2.8266120224e+00 1.6319452120e+00 2.8266120224e+00 
36300 5.4603217401e+00 8.7144333024e-05 1.6319424950e+00 -2.8266073164e+00 1.6319424950e+00 2.8266073164e+00 
36400 5.4603217525e+00 8.5654224562e-05 1.6319398250e+00 -2.8266026919e+00 1.6319398250e+00 2.8266026919e+00 
36500 5.4603217647e+00 8.4208699783e-05 1.6319372007e+00 -2.8265981464e+00 1.6319372007e+00 2.8265981464e+00 
36600 5.4603217766e+00 8.2805948059e-05 1.6319346207e+00 -2.8265936777e+00 1.6319346207e+00 2.8265936777e+00 
36700 5.4603217884e+00 8.1444201990e-05 1.6319320837e+00 -2.8265892834e+00 1.6319320837e+00 2.8265892834e+00 
36800 5.4603218000e+00 8.0121738115e-05 1.6319295883e+00 -2.8265849614e+00 1.6319295883e+00 2.8265849614e+00 
36900 5.4603218113e+00 7.8836877550e-05 1.6319271335e+00 -2.8265807095e+00 1.6319271335e+00 2.8265807095e+00 
37000 5.4603218225e+00 7.7587986507e-05 1.6319247181e+00 -2.8265765258e+00 1.6319247181e+00 2.8265765258e+00 
37100 5.4603218335e+00 7.6373476714e-05 1.6319223409e+00 -2.8265724084e+00 1.6319223409e+00 2.8265724084e+00 
37200 5.4603218443e+00 7.5191805753e-05 1.6319200009e+00 -2.8265683554e+00 1.6319200009e+00 2.8265683554e+00 
37300 5.4603218549e+00 7.4041477291e-05 1.6319176971e+00 -2.8265643652e+00 1.6319176971e+00 2.8265643652e+00 
37400 5.4603218653e+00 7.2921041233e-05 1.6319154286e+00 -2.8265604359e+00 1.6319154286e+00 2.8265604359e+00 
37500 5.4603218755e+00 7.1829093785e-05 1.6319131943e+00 -2.8265565662e+00 1.6319131943e+00 2.8265565662e+00 
37600 5.4603218855e+00 7.0764277442e-05 1.6319109936e+00 -2.8265527543e+00 1.6319109936e+00 2.8265527543e+00 
37700 5.4603218954e+00 6.9725280888e-05 1.6319088254e+00 -2.8265489990e+00 1.6319088254e+00 2.8265489990e+00 
37800 5.4603219053e+00 7.0444658853e-05 1.6319088254e+00 -2.8265489990e+00 1.6319088254e+00 2.8265489990e+00 
37900 5.4603219150e+00 7.1173604259e-05 1.6319088254e+00 -2.8265489990e+00 1.6319088254e+00 2.8265489990e+00 
38000 5.4603219244e+00 7.0141528247e-05 1.6319066448e+00 -2.8265452219e+00 1.6319066448e+00 2.8265452219e+00 
38100 5.4603219338e+00 7.0875628260e-05 1.6319066448e+00 -2.8265452219e+00 1.6319066448e+00 2.8265452219e+00 
38200 5.4603219428e+00 6.9854597895e-05 1.6319044732e+00 -2.8265414607e+00 1.6319044732e+00 2.8265414607e+00 
38300 5.4603219518e+00 7.0590888268e-05 1.6319044732e+00 -2.8265414607e+00 1.6319044732e+00 2.8265414607e+00 
38400 5.4603219607e+00 7.1332998524e-05 1.6319044732e+00 -2.8265414607e+00 1.6319044732e+00 2.8265414607e+00 
38500 5.4603219693e+00 7.0306436313e-05 1.6319022876e+00 -2.8265376752e+00 1.6319022876e+00 2.8265376752e+00 
38600 5.4603219778e+00 7.1046353100e-05 1.6319022876e+00 -2.8265376752e+00 1.6319022876e+00 2.8265376752e+00 
38700 5.4603219861e+00 7.0023333607e-05 1.6319001108e+00 -2.8265339048e+00 1.6319001108e+00 2.8265339048e+00 
38800 5.4603219944e+00 7.0758358227e-05 1.6319001108e+00 -2.8265339048e+00 1.6319001108e+00 2.8265339048e+00 
38900 5.4603220023e+00 6.9736288954e-05 1.6318979429e+00 -2.8265301498e+00 1.6318979429e+00 2.8265301498e+00 
39000 5.4603220103e+00 7.0463871837e-05 1.6318979429e+00 -2.8265301498e+00 1.6318979429e+00 2.8265301498e+00 
39100 5.4603220181e+00 7.1192620126e-05 1.6318979429e+00 -2.8265301498e+00 1.6318979429e+00 2.8265301498e+00 
39200 5.4603220257e+00 7.0151651330e-05 1.6318957616e+00 -2.8265263717e+00 1.6318957616e+00 2.8265263717e+00 
39300 5.4603220332e+00 7.0869287833e-05 1.6318957616e+00 -2.8265263717e+00 1.6318957616e+00 2.8265263717e+00 
39400 5.4603220405e+00 6.9824109320e-05 1.6318935902e+00 -2.8265226108e+00 1.6318935902e+00 2.8265226108e+00 
39500 5.4603220478e+00 7.0528460035e-05 1.6318935902e+00 -2.8265226108e+00 1.6318935902e+00 2.8265226108e+00 
39600 5.4603220550e+00 7.1231207826e-05 1.6318935902e+00 -2.8265226108e+00 1.6318935902e+00 2.8265226108e+00 
39700 5.4603220618e+00 7.0160605500e-05 1.6318914077e+00 -2.8265188306e+00 1.6318914077e+00 2.8265188306e+00 
39800 5.4603220687e+00 7.0846996822e-05 1.6318914077e+00 -2.8265188306e+00 1.6318914077e+00 2.8265188306e+00 
39900 5.4603220753e+00 6.9768655055e-05 1.6318892370e+00 -2.8265150709e+00 1.6318892370e+00 2.8265150709e+00 
40000 5.4603220820e+00 7.0436932478e-05 1.6318892370e+00 -2.8265150709e+00 1.6318892370e+00 2.8265150709e+00 
40100 5.4603220886e+00 7.1101345829e-05 1.6318892370e+00 -2.8265150709e+00 1.6318892370e+00 2.8265150709e+00 
40200 5.4603220948e+00 6.9993474471e-05 1.6318870585e+00 -2.8265112976e+00 1.6318870585e+00 2.8265112976e+00 
40300 5.4603221011e+00 7.0637342413e-05 1.6318870585e+00 -2.8265112976e+00 1.6318870585e+00 2.8265112976e+00 
40400 5.4603221073e+00 7.1276238843e-05 1.6318870585e+00 -2.8265112976e+00 1.6318870585e+00 2.8265112976e+00 
40500 5.4603221132e+00 7.0137448871e-05 1.6318848747e+00 -2.8265075150e+00 1.6318848747e+00 2.8265075150e+00 
40600 5.4603221192e+00 7.0753731204e-05 1.6318848747e+00 -2.8265075150e+00 1.6318848747e+00 2.8265075150e+00 
40700 5.4603221249e+00 6.9604706305e-05 1.6318827068e+00 -2.8265037602e+00 1.6318827068e+00 2.8265037602e+00 
40800 5.4603221307e+00 7.0197287860e-05 1.6318827068e+00 -2.8265037602e+00 1.6318827068e+00 2.8265037602e+00 
40900 5.4603221363e+00 7.0783445560e-05 1.6318827068e+00 -2.8265037602e+00 1.6318827068e+00 2.8265037602e+00 
41000 5.4603221417e+00 6.9602810292e-05 1.6318805381e+00 -2.8265000038e+00 1.6318805381e+00 2.8265000038e+00 
41100 5.4603221472e+00 7.0163832592e-05 1.6318805381e+00 -2.8265000038e+00 1.6318805381e+00 2.8265000038e+00 
41200 5.4603221525e+00 7.0717797601e-05 1.6318805381e+00 -2.8265000038e+00 1.6318805381e+00 2.8265000038e+00 
41300 5.4603221576e+00 6.9506016952e-05 1.6318783713e+00 -2.8264962509e+00 1.6318783713e+00 2.8264962509e+00 
41400 5.4603221628e+00 7.0033749621e-05 1.6318783713e+00 -2.8264962509e+00 1.6318783713e+00 2.8264962509e+00 
41500 5.4603221679e+00 7.0553948784e-05 1.6318783713e+00 -2.8264962509e+00 1.6318783713e+00 2.8264962509e+00 
41600 5.4603221729e+00 7.1066495227e-05 1.6318783713e+00 -2.8264962509e+00 1.6318783713e+00 2.8264962509e+00 
41700 5.4603221776e+00 6.9804084236e-05 1.6318761938e+00 -2.8264924794e+00 1.6318761938e+00 2.8264924794e+00 
41800 5.4603221824e+00 7.0289328642e-05 1.6318761938e+00 -2.8264924794e+00 1.6318761938e+00 2.8264924794e+00 
41900 5.4603221871e+00 7.0766620118e-05 1.6318761938e+00 -2.8264924794e+00 1.6318761938e+00 2.8264924794e+00 
42000 5.4603221915e+00 6.9476152020e-05 1.6318740256e+00 -2.8264887239e+00 1.6318740256e+00 2.8264887239e+00 
42100 5.4603221961e+00 6.9925730382e-05 1.6318740256e+00 -2.8264887239e+00 1.6318740256e+00 2.8264887239e+00 
42200 5.4603222006e+00 7.0367193019e-05 1.6318740256e+00 -2.8264887239e+00 1.6318740256e+00 2.8264887239e+00 
42300 5.4603222050e+00 7.0800520260e-05 1.6318740256e+00 -2.8264887239e+00 1.6318740256e+00 2.8264887239e+00 
42400 5.4603222091e+00 6.9465106221e-05 1.6318718563e+00 -2.8264849665e+00 1.6318718563e+00 2.8264849665e+00 
42500 5.4603222133e+00 6.9870498217e-05 1.6318718563e+00 -2.8264849665e+00 1.6318718563e+00 2.8264849665e+00 
42600 5.4603222175e+00 7.0267737251e-05 1.6318718563e+00 -2.8264849665e+00 1.6318718563e+00 2.8264849665e+00 
42700 5.4603222215e+00 7.0656849082e-05 1.6318718563e+00 -2.8264849665e+00 1.6318718563e+00 2.8264849665e+00 
42800 5.4603222256e+00 7.1037864631e-05 1.6318718563e+00 -2.8264849665e+00 1.6318718563e+00 2.8264849665e+00 
42900 5.4603222293e+00 6.9644318227e-05 1.6318696797e+00 -2.8264811966e+00 1.6318696797e+00 2.8264811966e+00 
43000 5.4603222332e+00 6.9997582979e-05 1.6318696797e+00 -2.8264811966e+00 1.6318696797e+00 2.8264811966e+00 
43100 5.4603222370e+00 7.0342875414e-05 1.6318696797e+00 -2.8264811966e+00 1.6318696797e+00 2.8264811966e+00 
43200 5.4603222407e+00 7.0680265060e-05 1.6318696797e+00 -2.8264811966e+00 1.6318696797e+00 2.8264811966e+00 
43300 5.4603222444e+00 7.1009824860e-05 1.6318696797e+00 -2.8264811966e+00 1.6318696797e+00 2.8264811966e+00 
43400 5.4603222478e+00 6.9565819504e-05 1.6318675040e+00 -2.8264774281e+00 1.6318675040e+00 2.8264774281e+00 
43500 5.4603222513e+00 6.9868285249e-05 1.6318675040e+00 -2.8264774281e+00 1.6318675040e+00 2.8264774281e+00 
43600 5.4603222548e+00 7.0163160599e-05 1.6318675040e+00 -2.8264774281e+00 1.6318675040e+00 2.8264774281e+00 
43700 5.4603222582e+00 7.0450550071e-05 1.6318675040e+00 -2.8264774281e+00 1.6318675040e+00 2.8264774281e+00 
43800 5.4603222615e+00 7.0730559847e-05 1.6318675040e+00 -2.8264774281e+00 1.6318675040e+00 2.8264774281e+00 
43900 5.4603222646e+00 6.9244423199e-05 1.6318653368e+00 -2.8264736745e+00 1.6318653368e+00 2.8264736745e+00 
44000 5.4603222678e+00 6.9498378192e-05 1.6318653368e+00 -2.8264736745e+00 1.6318653368e+00 2.8264736745e+00 
44100 5.4603222710e+00 6.9745282343e-05 1.6318653368e+00 -2.8264736745e+00 1.6318653368e+00 2.8264736745e+00 
44200 5.4603222741e+00 6.9985266517e-05 1.6318653368e+00 -2.8264736745e+00 1.6318653368e+00 2.8264736745e+00 
44300 5.4603222772e+00 7.0218461595e-05 1.6318653368e+00 -2.8264736745e+00 1.6318653368e+00 2.8264736745e+00 
44400 5.4603222802e+00 7.0444998350e-05 1.6318653368e+00 -2.8264736745e+00 1.6318653368e+00 2.8264736745e+00 
44500 5.4603222831e+00 7.0665007310e-05 1.6318653368e+00 -2.8264736745e+00 1.6318653368e+00 2.8264736745e+00 
44600 5.4603222860e+00 7.0878618653e-05 1.6318653368e+00 -2.8264736745e+00 1.6318653368e+00 2.8264736745e+00 
44700 5.4603222887e+00 6.9323397275e-05 1.6318631651e+00 -2.8264699130e+00 1.6318631651e+00 2.8264699130e+00 
44800 5.4603222915e+00 6.9512958113e-05 1.6318631651e+00 -2.8264699130e+00 1.6318631651e+00 2.8264699130e+00 
44900 5.4603222942e+00 6.9696510409e-05 1.6318631651e+00 -2.8264699130e+00 1.6318631651e+00 2.8264699130e+00 
45000 5.4603222969e+00 6.9874201375e-05 1.6318631651e+00 -2.8264699130e+00 1.6318631651e+00 2.8264699130e+00 
45100 5.4603222996e+00 7.0046176429e-05 1.6318631651e+00 -2.8264699130e+00 1.6318631651e+00 2.8264699130e+00 
45200 5.4603223022e+00 7.0212579110e-05 1.6318631651e+00 -2.8264699130e+00 1.6318631651e+00 2.8264699130e+00 
45300 5.4603223047e+00 7.0373551001e-05 1.6318631651e+00 -2.8264699130e+00 1.6318631651e+00 2.8264699130e+00 
45400 5.4603223072e+00 7.0529231664e-05 1.6318631651e+00 -2.8264699130e+00 1.6318631651e+00 2.8264699130e+00 
45500 5.4603223097e+00 7.0679758569e-05 1.6318631651e+00 -2.8264699130e+00 1.6318631651e+00 2.8264699130e+00 
45600 5.4603223121e+00 7.0825267043e-05 1.6318631651e+00 -2.8264699130e+00 1.6318631651e+00 2.8264699130e+00 
45700 5.4603223143e+00 6.9204642411e-05 1.6318609951e+00 -2.8264661543e+00 1.6318609951e+00 2.8264661543e+00 
45800 5.4603223167e+00 6.9328876525e-05 1.6318609951e+00 -2.8264661543e+00 1.6318609951e+00 2.8264661543e+00 
45900 5.4603223190e+00 6.9448486572e-05 1.6318609951e+00 -2.8264661543e+00 1.6318609951e+00 2.8264661543e+00 
46000 5.4603223212e+00 6.9563618355e-05 1.6318609951e+00 -2.8264661543e+00 1.6318609951e+00 2.8264661543e+00 
46100 5.4603223234e+00 6.9674414398e-05 1.6318609951e+00 -2.8264661543e+00 1.6318609951e+00 2.8264661543e+00 
46200 5.4603223256e+00 6.9781013929e-05 1.6318609951e+00 -2.8264661543e+00 1.6318609951e+00 2.8264661543e+00 
46300 5.4603223278e+00 6.9883552867e-05 1.6318609951e+00 -2.8264661543e+00 1.6318609951e+00 2.8264661543e+00 
46400 5.4603223299e+00 6.9982163811e-05 1.6318609951e+00 -2.8264661543e+00 1.6318609951e+00 2.8264661543e+00 
46500 5.4603223319e+00 7.0076976039e-05 1.6318609951e+00 -2.8264661543e+00 1.6318609951e+00 2.8264661543e+00 
46600 5.4603223340e+00 7.0168115508e-05 1.6318609951e+00 -2.8264661543e+00 1.6318609951e+00 2.8264661543e+00 
46700 5.4603223360e+00 7.0255704863e-05 1.6318609951e+00 -2.8264661543e+00 1.6318609951e+00 2.8264661543e+00 
46800 5.4603223379e+00 7.0339863452e-05 1.6318609951e+00 -2.8264661543e+00 1.6318609951e+00 2.8264661543e+00 
46900 5.4603223398e+00 7.0420707335e-05 1.6318609951e+00 -2.8264661543e+00 1.6318609951e+00 2.8264661543e+00 
47000 5.4603223417e+00 7.0498349310e-05 1.6318609951e+00 -2.8264661543e+00 1.6318609951e+00 2.8264661543e+00 
47100 5.4603223436e+00 7.0572898932e-05 1.6318609951e+00 -2.8264661543e+00 1.6318609951e+00 2.8264661543e+00 
47200 5.4603223454e+00 7.0644462551e-05 1.6318609951e+00 -2.8264661543e+00 1.6318609951e+00 2.8264661543e+00 
47300 5.4603223472e+00 7.0713143334e-05 1.6318609951e+00 -2.8264661543e+00 1.6318609951e+00 2.8264661543e+00 
47400 5.4603223488e+00 6.9020568859e-05 1.6318588284e+00 -2.8264624016e+00 1.6318588284e+00 2.8264624016e+00 
47500 5.4603223505e+00 6.9072165305e-05 1.6318588284e+00 -2.8264624016e+00 1.6318588284e+00 2.8264624016e+00 
47600 5.4603223522e+00 6.9121171430e-05 1.6318588284e+00 -2.8264624016e+00 1.6318588284e+00 2.8264624016e+00 
47700 5.4603223539e+00 6.9167697573e-05 1.6318588284e+00 -2.8264624016e+00 1.6318588284e+00 2.8264624016e+00 
47800 5.4603223556e+00 6.9211850183e-05 1.6318588284e+00 -2.8264624016e+00 1.6318588284e+00 2.8264624016e+00 
47900 5.4603223572e+00 6.9253731873e-05 1.6318588284e+00 -2.8264624016e+00 1.6318588284e+00 2.8264624016e+00 
48000 5.4603223588e+00 6.9293441482e-05 1.6318588284e+00 -2.8264624016e+00 1.6318588284e+00 2.8264624016e+00 
48100 5.4603223603e+00 6.9331074134e-05 1.6318588284e+00 -2.8264624016e+00 1.6318588284e+00 2.8264624016e+00 
48200 5.4603223619e+00 6.9366721310e-05 1.6318588284e+00 -2.8264624016e+00 1.6318588284e+00 2.8264624016e+00 
48300 5.4603223634e+00 6.9400470913e-05 1.6318588284e+00 -2.8264624016e+00 1.6318588284e+00 2.8264624016e+00 
48400 5.4603223649e+00 6.9432407337e-05 1.6318588284e+00 -2.8264624016e+00 1.6318588284e+00 2.8264624016e+00 
48500 5.4603223663e+00 6.9462611543e-05 1.6318588284e+00 -2.8264624016e+00 1.6318588284e+00 2.8264624016e+00 
48600 5.4603223677e+00 6.9491161137e-05 1.6318588284e+00 -2.8264624016e+00 1.6318588284e+00 2.8264624016e+00 
48700 5.4603223691e+00 6.9518130439e-05 1.6318588284e+00 -2.8264624016e+00 1.6318588284e+00 2.8264624016e+00 
48800 5.4603223705e+00 6.9543590566e-05 1.6318588284e+00 -2.8264624016e+00 1.6318588284e+00 2.8264624016e+00 
48900 5.4603223719e+00 6.9567609513e-05 1.6318588284e+00 -2.8264624016e+00 1.6318588284e+00 2.8264624016e+00 
49000 5.4603223732e+00 6.9590252228e-05 1.6318588284e+00 -2.8264624016e+00 1.6318588284e+00 2.8264624016e+00 
49100 5.4603223745e+00 6.9611580700e-05 1.6318588284e+00 -2.8264624016e+00 1.6318588284e+00 2.8264624016e+00 
49200 5.4603223758e+00 6.9631654034e-05 1.6318588284e+00 -2.8264624016e+00 1.6318588284e+00 2.8264624016e+00 
49300 5.4603223771e+00 6.9650528543e-05 1.6318588284e+00 -2.8264624016e+00 1.6318588284e+00 2.8264624016e+00 
49400 5.4603223783e+00 6.9668257820e-05 1.6318588284e+00 -2.8264624016e+00 1.6318588284e+00 2.8264624016e+00 
49500 5.4603223796e+00 6.9684892830e-05 1.6318588284e+00 -2.8264624016e+00 1.6318588284e+00 2.8264624016e+00 
49600 5.4603223808e+00 6.9700481988e-05 1.6318588284e+00 -2.8264624016e+00 1.6318588284e+00 2.8264624016e+00 
49700 5.4603223820e+00 6.9715071246e-05 1.6318588284e+00 -2.8264624016e+00 1.6318588284e+00 2.8264624016e+00 
49800 5.4603223831e+00 6.9728704174e-05 1.6318588284e+00 -2.8264624016e+00 1.6318588284e+00 2.8264624016e+00 
49900 5.4603223843e+00 6.9741422039e-05 1.6318588284e+00 -2.8264624016e+00 1.6318588284e+00 2.8264624016e+00 
50000 5.4603223854e+00 6.9753263893e-05 1.6318588284e+00 -2.8264624016e+00 1.6318588284e+00 2.8264624016e+00 
50100 5.4603223865e+00 6.9764266654e-05 1.6318588284e+00 -2.8264624016e+00 1.6318588284e+00 2.8264624016e+00 
50200 5.4603223876e+00 6.9774465180e-05 1.6318588284e+00 -2.8264624016e+00 1.6318588284e+00 2.8264624016e+00 
50300 5.4603223887e+00 6.9783892353e-05 1.6318588284e+00 -2.8264624016e+00 1.6318588284e+00 2.8264624016e+00 
50400 5.4603223897e+00 6.9792579163e-05 1.6318588284e+00 -2.8264624016e+00 1.6318588284e+00 2.8264624016e+00 
50500 5.4603223907e+00 6.9800554776e-05 1.6318588284e+00 -2.8264624016e+00 1.6318588284e+00 2.8264624016e+00 
50600 5.4603223918e+00 6.9807846615e-05 1.6318588284e+00 -2.8264624016e+00 1.6318588284e+00 2.8264624016e+00 
50700 5.4603223928e+00 6.9814480440e-05 1.6318588284e+00 -2.8264624016e+00 1.6318588284e+00 2.8264624016e+00 
50800 5.4603223937e+00 6.9820480413e-05 1.6318588284e+00 -2.8264624016e+00 1.6318588284e+00 2.8264624016e+00 
50900 5.4603223947e+00 6.9825869178e-05 1.6318588284e+00 -2.8264624016e+00 1.6318588284e+00 2.8264624016e+00 
51000 5.4603223957e+00 6.9830667930e-05 1.6318588284e+00 -2.8264624016e+00 1.6318588284e+00 2.8264624016e+00 
51100 5.4603223966e+00 6.9834896486e-05 1.6318588284e+00 -2.8264624016e+00 1.6318588284e+00 2.8264624016e+00 
51200 5.4603223975e+00 6.9838573350e-05 1.6318588284e+00 -2.8264624016e+00 1.6318588284e+00 2.8264624016e+00 
51300 5.4603223984e+00 6.9841715782e-05 1.6318588284e+00 -2.8264624016e+00 1.6318588284e+00 2.8264624016e+00 
51400 5.4603223993e+00 6.9844339868e-05 1.6318588284e+00 -2.8264624016e+00 1.6318588284e+00 2.8264624016e+00 
51500 5.4603224002e+00 6.9846460575e-05 1.6318588284e+00 -2.8264624016e+00 1.6318588284e+00 2.8264624016e+00 
51600 5.4603224010e+00 6.9848091817e-05 1.6318588284e+00 -2.8264624016e+00 1.6318588284e+00 2.8264624016e+00 
51700 5.4603224019e+00 6.9849246518e-05 1.6318588284e+00 -2.8264624016e+00 1.6318588284e+00 2.8264624016e+00 
51800 5.4603224027e+00 6.9849936667e-05 1.6318588284e+00 -2.8264624016e+00 1.6318588284e+00 2.8264624016e+00 
51900 5.4603224035e+00 6.9850173374e-05 1.6318588284e+00 -2.8264624016e+00 1.6318588284e+00 2.8264624016e+00 
52000 5.4603224043e+00 6.9849966929e-05 1.6318588284e+00 -2.8264624016e+00 1.6318588284e+00 2.8264624016e+00 
52100 5.4603224051e+00 6.9849326851e-05 1.6318588284e+00 -2.8264624016e+00 1.6318588284e+00 2.8264624016e+00 
52200 5.4603224059e+00 6.9848261943e-05 1.6318588284e+00 -2.8264624016e+00 1.6318588284e+00 2.8264624016e+00 
52300 5.4603224066e+00 6.9846780340e-05 1.6318588284e+00 -2.8264624016e+00 1.6318588284e+00 2.8264624016e+00 
52400 5.4603224074e+00 6.9844889557e-05 1.6318588284e+00 -2.8264624016e+00 1.6318588284e+00 2.8264624016e+00 
52500 5.4603224081e+00 6.9842596536e-05 1.6318588284e+00 -2.8264624016e+00 1.6318588284e+00 2.8264624016e+00 
52600 5.4603224089e+00 6.9839907689e-05 1.6318588284e+00 -2.8264624016e+00 1.6318588284e+00 2.8264624016e+00 
52700 5.4603224096e+00 6.9836828943e-05 1.6318588284e+00 -2.8264624016e+00 1.6318588284e+00 2.8264624016e+00 
52800 5.4603224103e+00 6.9833365779e-05 1.6318588284e+00 -2.8264624016e+00 1.6318588284e+00 2.8264624016e+00 
52900 5.4603224110e+00 6.9829523271e-05 1.6318588284e+00 -2.8264624016e+00 1.6318588284e+00 2.8264624016e+00 
53000 5.4603224116e+00 6.9825306127e-05 1.6318588284e+00 -2.8264624016e+00 1.6318588284e+00 2.8264624016e+00 
53100 5.4603224123e+00 6.9820718720e-05 1.6318588284e+00 -2.8264624016e+00 1.6318588284e+00 2.8264624016e+00 
53200 5.4603224130e+00 6.9815765127e-05 1.6318588284e+00 -2.8264624016e+00 1.6318588284e+00 2.8264624016e+00 
53300 5.4603224136e+00 6.9810449156e-05 1.6318588284e+00 -2.8264624016e+00 1.6318588284e+00 2.8264624016e+00 
53400 5.4603224142e+00 6.9804774384e-05 1.6318588284e+00 -2.8264624016e+00 1.6318588284e+00 2.8264624016e+00 
53500 5.4603224149e+00 6.9798744179e-05 1.6318588284e+00 -2.8264624016e+00 1.6318588284e+00 2.8264624016e+00 
53600 5.4603224155e+00 6.9792361734e-05 1.6318588284e+00 -2.8264624016e+00 1.6318588284e+00 2.8264624016e+00 
53700 5.4603224161e+00 6.9785630089e-05 1.6318588284e+00 -2.8264624016e+00 1.6318588284e+00 2.8264624016e+00 
53800 5.4603224167e+00 6.9778552159e-05 1.6318588284e+00 -2.8264624016e+00 1.6318588284e+00 2.8264624016e+00 
53900 5.4603224173e+00 6.9771130756e-05 1.6318588284e+00 -2.8264624016e+00 1.6318588284e+00 2.8264624016e+00 
54000 5.4603224178e+00 6.9763368611e-05 1.6318588284e+00 -2.8264624016e+00 1.6318588284e+00 2.8264624016e+00 
54100 5.4603224184e+00 6.9755268393e-05 1.6318588284e+00 -2.8264624016e+00 1.6318588284e+00 2.8264624016e+00 
54200 5.4603224190e+00 6.9746832730e-05 1.6318588284e+00 -2.8264624016e+00 1.6318588284e+00 2.8264624016e+00 
54300 5.4603224195e+00 6.9738064229e-05 1.6318588284e+00 -2.8264624016e+00 1.6318588284e+00 2.8264624016e+00 
54400 5.4603224200e+00 6.9728965488e-05 1.6318588284e+00 -2.8264624016e+00 1.6318588284e+00 2.8264624016e+00 
54500 5.4603224206e+00 6.9719539115e-05 1.6318588284e+00 -2.8264624016e+00 1.6318588284e+00 2.8264624016e+00 
54600 5.4603224211e+00 6.9709787739e-05 1.6318588284e+00 -2.8264624016e+00 1.6318588284e+00 2.8264624016e+00 
54700 5.4603224216e+00 6.9699714028e-05 1.6318588284e+00 -2.8264624016e+00 1.6318588284e+00 2.8264624016e+00 
54800 5.4603224221e+00 6.9689320694e-05 1.6318588284e+00 -2.8264624016e+00 1.6318588284e+00 2.8264624016e+00 
54900 5.4603224226e+00 6.9678610509e-05 1.6318588284e+00 -2.8264624016e+00 1.6318588284e+00 2.8264624016e+00 
55000 5.4603224231e+00 6.9667586315e-05 1.6318588284e+00 -2.8264624016e+00 1.6318588284e+00 2.8264624016e+00 
55100 5.4603224236e+00 6.9656251030e-05 1.6318588284e+00 -2.8264624016e+00 1.6318588284e+00 2.8264624016e+00 
55200 5.4603224240e+00 6.9644607657e-05 1.6318588284e+00 -2.8264624016e+00 1.6318588284e+00 2.8264624016e+00 
55300 5.4603224245e+00 6.9632659290e-05 1.6318588284e+00 -2.8264624016e+00 1.6318588284e+00 2.8264624016e+00 
55400 5.4603224250e+00 6.9620409120e-05 1.6318588284e+00 -2.8264624016e+00 1.6318588284e+00 2.8264624016e+00 
55500 5.4603224254e+00 6.9607860446e-05 1.6318588284e+00 -2.8264624016e+00 1.6318588284e+00 2.8264624016e+00 
55600 5.4603224259e+00 6.9595016666e-05 1.6318588284e+00 -2.8264624016e+00 1.6318588284e+00 2.8264624016e+00 
55700 5.4603224263e+00 6.9581881297e-05 1.6318588284e+00 -2.8264624016e+00 1.6318588284e+00 2.8264624016e+00 
55800 5.4603224267e+00 6.9568457963e-05 1.6318588284e+00 -2.8264624016e+00 1.6318588284e+00 2.8264624016e+00 
55900 5.4603224271e+00 6.9554750408e-05 1.6318588284e+00 -2.8264624016e+00 1.6318588284e+00 2.8264624016e+00 
56000 5.4603224276e+00 6.9540762490e-05 1.6318588284e+00 -2.8264624016e+00 1.6318588284e+00 2.8264624016e+00 
56100 5.4603224280e+00 6.9526498187e-05 1.6318588284e+00 -2.8264624016e+00 1.6318588284e+00 2.8264624016e+00 
56200 5.4603224284e+00 6.9511961595e-05 1.6318588284e+00 -2.8264624016e+00 1.6318588284e+00 2.8264624016e+00 
56300 5.4603224288e+00 6.9497156926e-05 1.6318588284e+00 -2.8264624016e+00 1.6318588284e+00 2.8264624016e+00 
56400 5.4603224291e+00 6.9482088511e-05 1.6318588284e+00 -2.8264624016e+00 1.6318588284e+00 2.8264624016e+00 
56500 5.4603224295e+00 6.9466760794e-05 1.6318588284e+00 -2.8264624016e+00 1.6318588284e+00 2.8264624016e+00 
56600 5.4603224299e+00 6.9451178336e-05 1.6318588284e+00 -2.8264624016e+00 1.6318588284e+00 2.8264624016e+00 
56700 5.4603224303e+00 6.9435345806e-05 1.6318588284e+00 -2.8264624016e+00 1.6318588284e+00 2.8264624016e+00 
56800 5.4603224306e+00 6.9419267983e-05 1.6318588284e+00 -2.8264624016e+00 1.6318588284e+00 2.8264624016e+00 
56900 5.4603224310e+00 6.9402949754e-05 1.6318588284e+00 -2.8264624016e+00 1.6318588284e+00 2.8264624016e+00 
57000 5.4603224314e+00 6.9386396103e-05 1.6318588284e+00 -2.8264624016e+00 1.6318588284e+00 2.8264624016e+00 
57100 5.4603224317e+00 6.9369612117e-05 1.6318588284e+00 -2.8264624016e+00 1.6318588284e+00 2.8264624016e+00 
57200 5.4603224320e+00 6.9352602978e-05 1.6318588284e+00 -2.8264624016e+00 1.6318588284e+00 2.8264624016e+00 
57300 5.4603224324e+00 6.9335373955e-05 1.6318588284e+00 -2.8264624016e+00 1.6318588284e+00 2.8264624016e+00 
57400 5.4603224327e+00 6.9317930406e-05 1.6318588284e+00 -2.8264624016e+00 1.6318588284e+00 2.8264624016e+00 
57500 5.4603224330e+00 6.9300277769e-05 1.6318588284e+00 -2.8264624016e+00 1.6318588284e+00 2.8264624016e+00 
57600 5.4603224334e+00 6.9282421559e-05 1.6318588284e+00 -2.8264624016e+00 1.6318588284e+00 2.8264624016e+00 
57700 5.4603224337e+00 6.9264367360e-05 1.6318588284e+00 -2.8264624016e+00 1.6318588284e+00 2.8264624016e+00 
57800 5.4603224340e+00 6.9246120829e-05 1.6318588284e+00 -2.8264624016e+00 1.6318588284e+00 2.8264624016e+00 
57900 5.4603224343e+00 6.9227687676e-05 1.6318588284e+00 -2.8264624016e+00 1.6318588284e+00 2.8264624016e+00 
58000 5.4603224346e+00 6.9209073671e-05 1.6318588284e+00 -2.8264624016e+00 1.6318588284e+00 2.8264624016e+00 
58100 5.4603224349e+00 6.9190284634e-05 1.6318588284e+00 -2.8264624016e+00 1.6318588284e+00 2.8264624016e+00 
58200 5.4603224352e+00 6.9171326430e-05 1.6318588284e+00 -2.8264624016e+00 1.6318588284e+00 2.8264624016e+00 
58300 5.4603224355e+00 6.9152204961e-05 1.6318588284e+00 -2.8264624016e+00 1.6318588284e+00 2.8264624016e+00 
58400 5.4603224357e+00 6.9132926165e-05 1.6318588284e+00 -2.8264624016e+00 1.6318588284e+00 2.8264624016e+00 
58500 5.4603224360e+00 6.9113496007e-05 1.6318588284e+00 -2.8264624016e+00 1.6318588284e+00 2.8264624016e+00 
58600 5.4603224363e+00 6.9093920475e-05 1.6318588284e+00 -2.8264624016e+00 1.6318588284e+00 2.8264624016e+00 
58700 5.4603224366e+00 6.9074205575e-05 1.6318588284e+00 -2.8264624016e+00 1.6318588284e+00 2.8264624016e+00 
58800 5.4603224368e+00 6.9054357320e-05 1.6318588284e+00 -2.8264624016e+00 1.6318588284e+00 2.8264624016e+00 
58900 5.4603224371e+00 6.9034381736e-05 1.6318588284e+00 -2.8264624016e+00 1.6318588284e+00 2.8264624016e+00 
59000 5.4603224373e+00 6.9014284844e-05 1.6318588284e+00 -2.8264624016e+00 1.6318588284e+00 2.8264624016e+00 
59100 5.4603224376e+00 6.8994072663e-05 1.6318588284e+00 -2.8264624016e+00 1.6318588284e+00 2.8264624016e+00 
59200 5.4603224378e+00 6.8973751200e-05 1.6318588284e+00 -2.8264624016e+00 1.6318588284e+00 2.8264624016e+00 
59300 5.4603224381e+00 6.8953326450e-05 1.6318588284e+00 -2.8264624016e+00 1.6318588284e+00 2.8264624016e+00 
59400 5.4603224383e+00 6.8932804385e-05 1.6318588284e+00 -2.8264624016e+00 1.6318588284e+00 2.8264624016e+00 
59500 5.4603224386e+00 6.8912190953e-05 1.6318588284e+00 -2.8264624016e+00 1.6318588284e+00 2.8264624016e+00 
59600 5.4603224388e+00 6.8891492073e-05 1.6318588284e+00 -2.8264624016e+00 1.6318588284e+00 2.8264624016e+00 
59700 5.4603224390e+00 6.8870713627e-05 1.6318588284e+00 -2.8264624016e+00 1.6318588284e+00 2.8264624016e+00 
59800 5.4603224393e+00 6.8849861460e-05 1.6318588284e+00 -2.8264624016e+00 1.6318588284e+00 2.8264624016e+00 
59900 5.4603224395e+00 6.8828941373e-05 1.6318588284e+00 -2.8264624016e+00 1.6318588284e+00 2.8264624016e+00 
60000 5.4603224397e+00 6.8807959119e-05 1.6318588284e+00 -2.8264624016e+00 1.6318588284e+00 2.8264624016e+00 
60100 5.4603224399e+00 6.8786920397e-05 1.6318588284e+00 -2.8264624016e+00 1.6318588284e+00 2.8264624016e+00 
60200 5.4603224401e+00 6.8765830853e-05 1.6318588284e+00 -2.8264624016e+00 1.6318588284e+00 2.8264624016e+00 
60300 5.4603224403e+00 6.8744696070e-05 1.6318588284e+00 -2.8264624016e+00 1.6318588284e+00 2.8264624016e+00 
60400 5.4603224405e+00 6.8723521571e-05 1.6318588284e+00 -2.8264624016e+00 1.6318588284e+00 2.8264624016e+00 
60500 5.4603224407e+00 6.8702312809e-05 1.6318588284e+00 -2.8264624016e+00 1.6318588284e+00 2.8264624016e+00 
60600 5.4603224409e+00 6.8681075168e-05 1.6318588284e+00 -2.8264624016e+00 1.6318588284e+00 2.8264624016e+00 
60700 5.4603224411e+00 6.8659813957e-05 1.6318588284e+00 -2.8264624016e+00 1.6318588284e+00 2.8264624016e+00 
60800 5.4603224413e+00 6.8638534410e-05 1.6318588284e+00 -2.8264624016e+00 1.6318588284e+00 2.8264624016e+00 
60900 5.4603224415e+00 6.8617241681e-05 1.6318588284e+00 -2.8264624016e+00 1.6318588284e+00 2.8264624016e+00 
61000 5.4603224417e+00 6.8595940839e-05 1.6318588284e+00 -2.8264624016e+00 1.6318588284e+00 2.8264624016e+00 
61100 5.4603224419e+00 6.8574636872e-05 1.6318588284e+00 -2.8264624016e+00 1.6318588284e+00 2.8264624016e+00 
61200 5.4603224421e+00 6.8553334680e-05 1.6318588284e+00 -2.8264624016e+00 1.6318588284e+00 2.8264624016e+00 
61300 5.4603224423e+00 6.8532039070e-05 1.6318588284e+00 -2.8264624016e+00 1.6318588284e+00 2.8264624016e+00 
61400 5.4603224424e+00 6.8510754763e-05 1.6318588284e+00 -2.8264624016e+00 1.6318588284e+00 2.8264624016e+00 
61500 5.4603224426e+00 6.8489486382e-05 1.6318588284e+00 -2.8264624016e+00 1.6318588284e+00 2.8264624016e+00 
61600 5.4603224428e+00 6.8468238457e-05 1.6318588284e+00 -2.8264624016e+00 1.6318588284e+00 2.8264624016e+00 
61700 5.4603224429e+00 6.8447015421e-05 1.6318588284e+00 -2.8264624016e+00 1.6318588284e+00 2.8264624016e+00 
61800 5.4603224431e+00 6.8425821610e-05 1.6318588284e+00 -2.8264624016e+00 1.6318588284e+00 2.8264624016e+00 
61900 5.4603224433e+00 6.8404661258e-05 1.6318588284e+00 -2.8264624016e+00 1.6318588284e+00 2.8264624016e+00 
62000 5.4603224434e+00 6.8383538502e-05 1.6318588284e+00 -2.8264624016e+00 1.6318588284e+00 2.8264624016e+00 
62100 5.4603224436e+00 6.8362457375e-05 1.6318588284e+00 -2.8264624016e+00 1.6318588284e+00 2.8264624016e+00 
62200 5.4603224437e+00 6.8341421808e-05 1.6318588284e+00 -2.8264624016e+00 1.6318588284e+00 2.8264624016e+00 
62300 5.4603224439e+00 6.8320435630e-05 1.6318588284e+00 -2.8264624016e+00 1.6318588284e+00 2.8264624016e+00 
62400 5.4603224440e+00 6.8299502565e-05 1.6318588284e+00 -2.8264624016e+00 1.6318588284e+00 2.8264624016e+00 
62500 5.4603224442e+00 6.8278626236e-05 1.6318588284e+00 -2.8264624016e+00 1.6318588284e+00 2.8264624016e+00 
62600 5.4603224443e+00 6.8257810159e-05 1.6318588284e+00 -2.8264624016e+00 1.6318588284e+00 2.8264624016e+00 
62700 5.4603224445e+00 6.8237057747e-05 1.6318588284e+00 -2.8264624016e+00 1.6318588284e+00 2.8264624016e+00 
62800 5.4603224446e+00 6.8216372309e-05 1.6318588284e+00 -2.8264624016e+00 1.6318588284e+00 2.8264624016e+00 
62900 5.4603224448e+00 6.8195757049e-05 1.6318588284e+00 -2.8264624016e+00 1.6318588284e+00 2.8264624016e+00 
63000 5.4603224449e+00 6.8175215067e-05 1.6318588284e+00 -2.8264624016e+00 1.6318588284e+00 2.8264624016e+00 
63100 5.4603224450e+00 6.8154749361e-05 1.6318588284e+00 -2.8264624016e+00 1.6318588284e+00 2.8264624016e+00 
63200 5.4603224452e+00 6.8134362823e-05 1.6318588284e+00 -2.8264624016e+00 1.6318588284e+00 2.8264624016e+00 
63300 5.4603224453e+00 6.8114058245e-05 1.6318588284e+00 -2.8264624016e+00 1.6318588284e+00 2.8264624016e+00 
63400 5.4603224454e+00 6.8093838313e-05 1.6318588284e+00 -2.8264624016e+00 1.6318588284e+00 2.8264624016e+00 
63500 5.4603224456e+00 6.8073705618e-05 1.6318588284e+00 -2.8264624016e+00 1.6318588284e+00 2.8264624016e+00 
63600 5.4603224457e+00 6.8053662645e-05 1.6318588284e+00 -2.8264624016e+00 1.6318588284e+00 2.8264624016e+00 
63700 5.4603224458e+00 6.8033711781e-05 1.6318588284e+00 -2.8264624016e+00 1.6318588284e+00 2.8264624016e+00 
63800 5.4603224459e+00 6.8013855317e-05 1.6318588284e+00 -2.8264624016e+00 1.6318588284e+00 2.8264624016e+00 
63900 5.4603224461e+00 6.7994095441e-05 1.6318588284e+00 -2.8264624016e+00 1.6318588284e+00 2.8264624016e+00 
64000 5.4603224462e+00 6.7974434250e-05 1.6318588284e+00 -2.8264624016e+00 1.6318588284e+00 2.8264624016e+00 
64100 5.4603224463e+00 6.7954873742e-05 1.6318588284e+00 -2.8264624016e+00 1.6318588284e+00 2.8264624016e+00 
64200 5.4603224464e+00 6.7935415824e-05 1.6318588284e+00 -2.8264624016e+00 1.6318588284e+00 2.8264624016e+00 
64300 5.4603224465e+00 6.7916062309e-05 1.6318588284e+00 -2.8264624016e+00 1.6318588284e+00 2.8264624016e+00 
64400 5.4603224466e+00 6.7896814918e-05 1.6318588284e+00 -2.8264624016e+00 1.6318588284e+00 2.8264624016e+00 
64500 5.4603224467e+00 6.7877675284e-05 1.6318588284e+00 -2.8264624016e+00 1.6318588284e+00 2.8264624016e+00 
64600 5.4603224468e+00 6.7858644951e-05 1.6318588284e+00 -2.8264624016e+00 1.6318588284e+00 2.8264624016e+00 
64700 5.4603224469e+00 6.7839725377e-05 1.6318588284e+00 -2.8264624016e+00 1.6318588284e+00 2.8264624016e+00 
64800 5.4603224471e+00 6.7820917934e-05 1.6318588284e+00 -2.8264624016e+00 1.6318588284e+00 2.8264624016e+00 
64900 5.4603224472e+00 6.7802223909e-05 1.6318588284e+00 -2.8264624016e+00 1.6318588284e+00 2.8264624016e+00 
65000 5.4603224473e+00 6.7783644512e-05 1.6318588284e+00 -2.8264624016e+00 1.6318588284e+00 2.8264624016e+00 
65100 5.4603224474e+00 6.7765180869e-05 1.6318588284e+00 -2.8264624016e+00 1.6318588284e+00 2.8264624016e+00 
65200 5.4603224475e+00 6.7746834027e-05 1.6318588284e+00 -2.8264624016e+00 1.6318588284e+00 2.8264624016e+00 
65300 5.4603224476e+00 6.7728604960e-05 1.6318588284e+00 -2.8264624016e+00 1.6318588284e+00 2.8264624016e+00 
65400 5.4603224476e+00 6.7710494564e-05 1.6318588284e+00 -2.8264624016e+00 1.6318588284e+00 2.8264624016e+00 
65500 5.4603224477e+00 6.7692503665e-05 1.6318588284e+00 -2.8264624016e+00 1.6318588284e+00 2.8264624016e+00 
65600 5.4603224478e+00 6.7674633013e-05 1.6318588284e+00 -2.8264624016e+00 1.6318588284e+00 2.8264624016e+00 
65700 5.4603224479e+00 6.7656883293e-05 1.6318588284e+00 -2.8264624016e+00 1.6318588284e+00 2.8264624016e+00 
65800 5.4603224480e+00 6.7639255121e-05 1.6318588284e+00 -2.8264624016e+00 1.6318588284e+00 2.8264624016e+00 
65900 5.4603224481e+00 6.7621749046e-05 1.6318588284e+00 -2.8264624016e+00 1.6318588284e+00 2.8264624016e+00 
66000 5.4603224482e+00 6.7604365554e-05 1.6318588284e+00 -2.8264624016e+00 1.6318588284e+00 2.8264624016e+00 
66100 5.4603224483e+00 6.7587105069e-05 1.6318588284e+00 -2.8264624016e+00 1.6318588284e+00 2.8264624016e+00 
66200 5.4603224484e+00 6.7569967953e-05 1.6318588284e+00 -2.8264624016e+00 1.6318588284e+00 2.8264624016e+00 
66300 5.4603224484e+00 6.7552954513e-05 1.6318588284e+00 -2.8264624016e+00 1.6318588284e+00 2.8264624016e+00 
66400 5.4603224485e+00 6.7536064996e-05 1.6318588284e+00 -2.8264624016e+00 1.6318588284e+00 2.8264624016e+00 
66500 5.4603224486e+00 6.7519299595e-05 1.6318588284e+00 -2.8264624016e+00 1.6318588284e+00 2.8264624016e+00 
66600 5.4603224487e+00 6.7502658452e-05 1.6318588284e+00 -2.8264624016e+00 1.6318588284e+00 2.8264624016e+00 
66700 5.4603224488e+00 6.7486141653e-05 1.6318588284e+00 -2.8264624016e+00 1.6318588284e+00 2.8264624016e+00 
66800 5.4603224488e+00 6.7469749240e-05 1.6318588284e+00 -2.8264624016e+00 1.6318588284e+00 2.8264624016e+00 
66900 5.4603224489e+00 6.7453481202e-05 1.6318588284e+00 -2.8264624016e+00 1.6318588284e+00 2.8264624016e+00 
67000 5.4603224490e+00 6.7437337488e-05 1.6318588284e+00 -2.8264624016e+00 1.6318588284e+00 2.8264624016e+00 
67100 5.4603224491e+00 6.7421317997e-05 1.6318588284e+00 -2.8264624016e+00 1.6318588284e+00 2.8264624016e+00 
67200 5.4603224491e+00 6.7405422588e-05 1.6318588284e+00 -2.8264624016e+00 1.6318588284e+00 2.8264624016e+00 
67300 5.4603224492e+00 6.7389651079e-05 1.6318588284e+00 -2.8264624016e+00 1.6318588284e+00 2.8264624016e+00 
67400 5.4603224493e+00 6.7374003248e-05 1.6318588284e+00 -2.8264624016e+00 1.6318588284e+00 2.8264624016e+00 
67500 5.4603224493e+00 6.7358478837e-05 1.6318588284e+00 -2.8264624016e+00 1.6318588284e+00 2.8264624016e+00 
67600 5.4603224494e+00 6.7343077550e-05 1.6318588284e+00 -2.8264624016e+00 1.6318588284e+00 2.8264624016e+00 
67700 5.4603224495e+00 6.7327799056e-05 1.6318588284e+00 -2.8264624016e+00 1.6318588284e+00 2.8264624016e+00 
67800 5.4603224496e+00 6.7312642995e-05 1.6318588284e+00 -2.8264624016e+00 1.6318588284e+00 2.8264624016e+00 
67900 5.4603224496e+00 6.7297608970e-05 1.6318588284e+00 -2.8264624016e+00 1.6318588284e+00 2.8264624016e+00 
68000 5.4603224497e+00 6.7282696559e-05 1.6318588284e+00 -2.8264624016e+00 1.6318588284e+00 2.8264624016e+00 
68100 5.4603224497e+00 6.7267905310e-05 1.6318588284e+00 -2.8264624016e+00 1.6318588284e+00 2.8264624016e+00 
68200 5.4603224498e+00 6.7253234741e-05 1.6318588284e+00 -2.8264624016e+00 1.6318588284e+00 2.8264624016e+00 
68300 5.4603224499e+00 6.7238684348e-05 1.6318588284e+00 -2.8264624016e+00 1.6318588284e+00 2.8264624016e+00 
68400 5.4603224499e+00 6.7224253603e-05 1.6318588284e+00 -2.8264624016e+00 1.6318588284e+00 2.8264624016e+00 
68500 5.4603224500e+00 6.7209941950e-05 1.6318588284e+00 -2.8264624016e+00 1.6318588284e+00 2.8264624016e+00 
68600 5.4603224500e+00 6.7195748818e-05 1.6318588284e+00 -2.8264624016e+00 1.6318588284e+00 2.8264624016e+00 
68700 5.4603224501e+00 6.7181673611e-05 1.6318588284e+00 -2.8264624016e+00 1.6318588284e+00 2.8264624016e+00 
68800 5.4603224502e+00 6.7167715714e-05 1.6318588284e+00 -2.8264624016e+00 1.6318588284e+00 2.8264624016e+00 
68900 5.4603224502e+00 6.7153874498e-05 1.6318588284e+00 -2.8264624016e+00 1.6318588284e+00 2.8264624016e+00 
69000 5.4603224503e+00 6.7140149312e-05 1.6318588284e+00 -2.8264624016e+00 1.6318588284e+00 2.8264624016e+00 
69100 5.4603224503e+00 6.7126539493e-05 1.6318588284e+00 -2.8264624016e+00 1.6318588284e+00 2.8264624016e+00 
69200 5.4603224504e+00 6.7113044361e-05 1.6318588284e+00 -2.8264624016e+00 1.6318588284e+00 2.8264624016e+00 
69300 5.4603224504e+00 6.7099663224e-05 1.6318588284e+00 -2.8264624016e+00 1.6318588284e+00 2.8264624016e+00 
69400 5.4603224505e+00 6.7086395377e-05 1.6318588284e+00 -2.8264624016e+00 1.6318588284e+00 2.8264624016e+00 
69500 5.4603224505e+00 6.7073240103e-05 1.6318588284e+00 -2.8264624016e+00 1.6318588284e+00 2.8264624016e+00 
69600 5.4603224506e+00 6.7060196675e-05 1.6318588284e+00 -2.8264624016e+00 1.6318588284e+00 2.8264624016e+00 
69700 5.4603224506e+00 6.7047264356e-05 1.6318588284e+00 -2.8264624016e+00 1.6318588284e+00 2.8264624016e+00 
69800 5.4603224507e+00 6.7035975233e-05 1.6318588284e+00 -2.8264624016e+00 1.6318588284e+00 2.8264624016e+00 
69800 5.4603224507e+00 6.7035975233e-05 1.6318588284e+00 -2.8264624016e+00 1.6318588284e+00 2.8264624016e+00 
