# step Hamiltonian StressXX CellTensor1 CellTensor2 CellTensor3 CellTensor4 
0 5.4537972972e+00 -2.2812604702e-02 1.6087831444e+00 -2.7864941444e+00 1.6087831444e+00 2.7864941444e+00 
100 5.4534904153e+00 -2.3786505440e-02 1.6087831444e+00 -2.7864941444e+00 1.6087831444e+00 2.7864941444e+00 
200 5.4531289395e+00 -2.3959765101e-02 1.6095224710e+00 -2.7877746958e+00 1.6095224710e+00 2.7877746958e+00 
300 5.4527348113e+00 -2.4099528415e-02 1.6102668412e+00 -2.7890639828e+00 1.6102668412e+00 2.7890639828e+00 
400 5.4523092424e+00 -2.4205368308e-02 1.6110152077e+00 -2.7903601915e+00 1.6110152077e+00 2.7903601915e+00 
500 5.4518537848e+00 -2.4276947453e-02 1.6117665119e+00 -2.7916614885e+00 1.6117665119e+00 2.7916614885e+00 
600 5.4513702817e+00 -2.4314015114e-02 1.6125196866e+00 -2.7929660254e+00 1.6125196866e+00 2.7929660254e+00 
700 5.4508608198e+00 -2.4316404762e-02 1.6132736591e+00 -2.7942719440e+00 1.6132736591e+00 2.7942719440e+00 
800 5.4503276845e+00 -2.4284032299e-02 1.6140273532e+00 -2.7955773805e+00 1.6140273532e+00 2.7955773805e+00 
900 5.4497733161e+00 -2.4216894739e-02 1.6147796923e+00 -2.7968804701e+00 1.6147796923e+00 2.7968804701e+00 
1000 5.4492002696e+00 -2.4115069231e-02 1.6155296017e+00 -2.7981793512e+00 1.6155296017e+00 2.7981793512e+00 
1100 5.4486111770e+00 -2.3978712285e-02 1.6162760109e+00 -2.7994721700e+00 1.6162760109e+00 2.7994721700e+00 
1200 5.4480087114e+00 -2.3808059126e-02 1.6170178565e+00 -2.8007570843e+00 1.6170178565e+00 2.8007570843e+00 
1300 5.4473955558e+00 -2.3603423065e-02 1.6177540842e+00 -2.8020322680e+00 1.6177540842e+00 2.8020322680e+00 
1400 5.4467743729e+00 -2.3365194830e-02 1.6184836511e+00 -2.8032959149e+00 1.6184836511e+00 2.8032959149e+00 
1500 5.4461477792e+00 -2.3093841783e-02 1.6192055283e+00 -2.8045462430e+00 1.6192055283e+00 2.8045462430e+00 
1600 5.4455183215e+00 -2.2789906967e-02 1.6199187033e+00 -2.8057814982e+00 1.6199187033e+00 2.8057814982e+00 
1700 5.4448884564e+00 -2.2454007962e-02 1.6206221816e+00 -2.8069999585e+00 1.6206221816e+00 2.8069999585e+00 
1800 5.4442605325e+00 -2.2086835492e-02 1.6213149899e+00 -2.8081999375e+00 1.6213149899e+00 2.8081999375e+00 
1900 5.4436367752e+00 -2.1689151774e-02 1.6219961771e+00 -2.8093797884e+00 1.6219961771e+00 2.8093797884e+00 
2000 5.4430192749e+00 -2.1261788593e-02 1.6226648174e+00 -2.8105379074e+00 1.6226648174e+00 2.8105379074e+00 
2100 5.4424099763e+00 -2.0805645092e-02 1.6233200118e+00 -2.8116727374e+00 1.6233200118e+00 2.8116727374e+00 
2200 5.4418106716e+00 -2.0321685268e-02 1.6239608902e+00 -2.8127827713e+00 1.6239608902e+00 2.8127827713e+00 
2300 5.4412229948e+00 -1.9810935196e-02 1.6245866131e+00 -2.8138665552e+00 1.6245866131e+00 2.8138665552e+00 
2400 5.4406484183e+00 -1.9274479963e-02 1.6251963736e+00 -2.8149226913e+00 1.6251963736e+00 2.8149226913e+00 
2500 5.4400882518e+00 -1.8713460350e-02 1.6257893989e+00 -2.8159498412e+00 1.6257893989e+00 2.8159498412e+00 
2600 5.4395436425e+00 -1.8129069262e-02 1.6263649520e+00 -2.8169467285e+00 1.6263649520e+00 2.8169467285e+00 
2700 5.4390155768e+00 -1.7522547928e-02 1.6269223332e+00 -2.8179121411e+00 1.6269223332e+00 2.8179121411e+00 
2800 5.4385048838e+00 -1.6895181899e-02 1.6274608812e+00 -2.8188449335e+00 1.6274608812e+00 2.8188449335e+00 
2900 5.4380122397e+00 -1.6248296855e-02 1.6279799744e+00 -2.8197440294e+00 1.6279799744e+00 2.8197440294e+00 
3000 5.4375381734e+00 -1.5583254262e-02 1.6284790324e+00 -2.8206084231e+00 1.6284790324e+00 2.8206084231e+00 
3100 5.4370830727e+00 -1.4901446889e-02 1.6289575162e+00 -2.8214371814e+00 1.6289575162e+00 2.8214371814e+00 
3200 5.4366471921e+00 -1.4204294224e-02 1.6294149297e+00 -2.8222294449e+00 1.6294149297e+00 2.8222294449e+00 
3300 5.4362306599e+00 -1.3493237804e-02 1.6298508201e+00 -2.8229844292e+00 1.6298508201e+00 2.8229844292e+00 
3400 5.4358334871e+00 -1.2769736506e-02 1.6302647785e+00 -2.8237014262e+00 1.6302647785e+00 2.8237014262e+00 
3500 5.4354555761e+00 -1.2035261797e-02 1.6306564403e+00 -2.8243798043e+00 1.6306564403e+00 2.8243798043e+00 
3600 5.4350967292e+00 -1.1291292995e-02 1.6310254854e+00 -2.8250190092e+00 1.6310254854e+00 2.8250190092e+00 
3700 5.4347566580e+00 -1.0539312558e-02 1.6313716386e+00 -2.8256185640e+00 1.6313716386e+00 2.8256185640e+00 
3800 5.4344349927e+00 -9.7808014168e-03 1.6316946692e+00 -2.8261780695e+00 1.6316946692e+00 2.8261780695e+00 
3900 5.4341312906e+00 -9.0172343937e-03 1.6319943913e+00 -2.8266972035e+00 1.6319943913e+00 2.8266972035e+00 
4000 5.4338450456e+00 -8.2500757104e-03 1.6322706634e+00 -2.8271757207e+00 1.6322706634e+00 2.8271757207e+00 
4100 5.4335756966e+00 -7.4807746223e-03 1.6325233877e+00 -2.8276134520e+00 1.6325233877e+00 2.8276134520e+00 
4200 5.4333226362e+00 -6.7107611897e-03 1.6327525100e+00 -2.8280103034e+00 1.6327525100e+00 2.8280103034e+00 
4300 5.4330852184e+00 -5.9414422087e-03 1.6329580188e+00 -2.8283662552e+00 1.6329580188e+00 2.8283662552e+00 
4400 5.4328627668e+00 -5.1741973168e-03 1.6331399449e+00 -2.8286813604e+00 1.6331399449e+00 2.8286813604e+00 
4500 5.4326545820e+00 -4.4103752901e-03 1.6332983600e+00 -2.8289557434e+00 1.6332983600e+00 2.8289557434e+00 
4600 5.4324599482e+00 -3.6512905451e-03 1.6334333762e+00 -2.8291895984e+00 1.6334333762e+00 2.8291895984e+00 
4700 5.4322781396e+00 -2.8982198567e-03 1.6335451449e+00 -2.8293831873e+00 1.6335451449e+00 2.8293831873e+00 
4800 5.4321084269e+00 -2.1523993039e-03 1.6336338552e+00 -2.8295368381e+00 1.6336338552e+00 2.8295368381e+00 
4900 5.4319500824e+00 -1.4150214513e-03 1.6336997333e+00 -2.8296509423e+00 1.6336997333e+00 2.8296509423e+00 
5000 5.4318023850e+00 -6.8723277271e-04 1.6337430407e+00 -2.8297259531e+00 1.6337430407e+00 2.8297259531e+00 
5100 5.4316646249e+00 2.9868676796e-05 1.6337640732e+00 -2.8297623824e+00 1.6337640732e+00 2.8297623824e+00 
5200 5.4315361091e+00 7.3603705306e-04 1.6337640732e+00 -2.8297623824e+00 1.6337640732e+00 2.8297623824e+00 
5300 5.4314161600e+00 1.4286580006e-03 1.6337415475e+00 -2.8297233667e+00 1.6337415475e+00 2.8297233667e+00 
5400 5.4313041236e+00 2.1076079608e-03 1.6336978242e+00 -2.8296476357e+00 1.6336978242e+00 2.8296476357e+00 
5500 5.4311993702e+00 2.7720007490e-03 1.6336333204e+00 -2.8295359118e+00 1.6336333204e+00 2.8295359118e+00 
5600 5.4311012969e+00 3.4210064520e-03 1.6335484795e+00 -2.8293889632e+00 1.6335484795e+00 2.8293889632e+00 
5700 5.4310093292e+00 4.0538522478e-03 1.6334437698e+00 -2.8292076005e+00 1.6334437698e+00 2.8292076005e+00 
5800 5.4309229220e+00 4.6698229836e-03 1.6333196822e+00 -2.8289926746e+00 1.6333196822e+00 2.8289926746e+00 
5900 5.4308415615e+00 5.2682615194e-03 1.6331767293e+00 -2.8287450729e+00 1.6331767293e+00 2.8287450729e+00 
6000 5.4307647650e+00 5.8485688438e-03 1.6330154432e+00 -2.8284657172e+00 1.6330154432e+00 2.8284657172e+00 
6100 5.4306920817e+00 6.4102039713e-03 1.6328363738e+00 -2.8281555599e+00 1.6328363738e+00 2.8281555599e+00 
6200 5.4306230927e+00 6.9526836299e-03 1.6326400873e+00 -2.8278155816e+00 1.6326400873e+00 2.8278155816e+00 
6300 5.4305574105e+00 7.4755817496e-03 1.6324271643e+00 -2.8274467882e+00 1.6324271643e+00 2.8274467882e+00 
6400 5.4304946792e+00 7.9785287614e-03 1.6321981983e+00 -2.8270502074e+00 1.6321981983e+00 2.8270502074e+00 
6500 5.4304345733e+00 8.4612107207e-03 1.6319537938e+00 -2.8266268865e+00 1.6319537938e+00 2.8266268865e+00 
6600 5.4303767970e+00 8.9233682633e-03 1.6316945651e+00 -2.8261778892e+00 1.6316945651e+00 2.8261778892e+00 
6700 5.4303210831e+00 9.3647954098e-03 1.6314211340e+00 -2.8257042927e+00 1.6314211340e+00 2.8257042927e+00 
6800 5.4302671925e+00 9.7853382281e-03 1.6311341290e+00 -2.8252071854e+00 1.6311341290e+00 2.8252071854e+00 
6900 5.4302149119e+00 1.0184893368e-02 1.6308341832e+00 -2.8246876640e+00 1.6308341832e+00 2.8246876640e+00 
7000 5.4301640534e+00 1.0563406479e-02 1.6305219329e+00 -2.8241468306e+00 1.6305219329e+00 2.8241468306e+00 
7100 5.4301144525e+00 1.0920870528e-02 1.6301980165e+00 -2.8235857909e+00 1.6301980165e+00 2.8235857909e+00 
7200 5.4300659672e+00 1.1257324021e-02 1.6298630726e+00 -2.8230056512e+00 1.6298630726e+00 2.8230056512e+00 
7300 5.4300184758e+00 1.1572849151e-02 1.6295177391e+00 -2.8224075160e+00 1.6295177391e+00 2.8224075160e+00 
7400 5.4299718760e+00 1.1867569877e-02 1.6291626516e+00 -2.8217924863e+00 1.6291626516e+00 2.8217924863e+00 
7500 5.4299260831e+00 1.2141649949e-02 1.6287984422e+00 -2.8211616571e+00 1.6287984422e+00 2.8211616571e+00 
7600 5.4298810285e+00 1.2395290885e-02 1.6284257384e+00 -2.8205161152e+00 1.6284257384e+00 2.8205161152e+00 
7700 5.4298366583e+00 1.2628729925e-02 1.6280451620e+00 -2.8198569376e+00 1.6280451620e+00 2.8198569376e+00 
7800 5.4297929317e+00 1.2842237947e-02 1.6276573279e+00 -2.8191851892e+00 1.6276573279e+00 2.8191851892e+00 
7900 5.4297498198e+00 1.3036117389e-02 1.6272628432e+00 -2.8185019216e+00 1.6272628432e+00 2.8185019216e+00 
8000 5.4297073042e+00 1.3210700146e-02 1.6268623061e+00 -2.8178081711e+00 1.6268623061e+00 2.8178081711e+00 
8100 5.4296653755e+00 1.3366345492e-02 1.6264563052e+00 -2.8171049569e+00 1.6264563052e+00 2.8171049569e+00 
8200 5.4296240321e+00 1.3503438001e-02 1.6260454186e+00 -2.8163932804e+00 1.6260454186e+00 2.8163932804e+00 
8300 5.4295832794e+00 1.3622385497e-02 1.6256302130e+00 -2.8156741232e+00 1.6256302130e+00 2.8156741232e+00 
8400 5.4295431281e+00 1.3723617023e-02 1.6252112432e+00 -2.8149484462e+00 1.6252112432e+00 2.8149484462e+00 
8500 5.4295035937e+00 1.3807580855e-02 1.6247890512e+00 -2.8142171883e+00 1.6247890512e+00 2.8142171883e+00 
8600 5.4294646950e+00 1.3874742547e-02 1.6243641659e+00 -2.8134812654e+00 1.6243641659e+00 2.8134812654e+00 
8700 5.4294264539e+00 1.3925583023e-02 1.6239371024e+00 -2.8127415696e+00 1.6239371024e+00 2.8127415696e+00 
8800 5.4293888940e+00 1.3960596718e-02 1.6235083613e+00 -2.8119989683e+00 1.6235083613e+00 2.8119989683e+00 
8900 5.4293520399e+00 1.3980289779e-02 1.6230784288e+00 -2.8112543034e+00 1.6230784288e+00 2.8112543034e+00 
9000 5.4293159171e+00 1.3985178310e-02 1.6226477758e+00 -2.8105083905e+00 1.6226477758e+00 2.8105083905e+00 
9100 5.4292805507e+00 1.3975786689e-02 1.6222168579e+00 -2.8097620189e+00 1.6222168579e+00 2.8097620189e+00 
9200 5.4292459652e+00 1.3952645943e-02 1.6217861150e+00 -2.8090159503e+00 1.6217861150e+00 2.8090159503e+00 
9300 5.4292121843e+00 1.3916292187e-02 1.6213559711e+00 -2.8082709191e+00 1.6213559711e+00 2.8082709191e+00 
9400 5.4291792299e+00 1.3867265133e-02 1.6209268341e+00 -2.8075276320e+00 1.6209268341e+00 2.8075276320e+00 
9500 5.4291471223e+00 1.3806106660e-02 1.6204990956e+00 -2.8067867672e+00 1.6204990956e+00 2.8067867672e+00 
9600 5.4291158797e+00 1.3733359460e-02 1.6200731311e+00 -2.8060489751e+00 1.6200731311e+00 2.8060489751e+00 
9700 5.4290855181e+00 1.3649565748e-02 1.6196492996e+00 -2.8053148774e+00 1.6196492996e+00 2.8053148774e+00 
9800 5.4290560507e+00 1.3555266045e-02 1.6192279438e+00 -2.8045850677e+00 1.6192279438e+00 2.8045850677e+00 
9900 5.4290274885e+00 1.3450998027e-02 1.6188093899e+00 -2.8038601111e+00 1.6188093899e+00 2.8038601111e+00 
10000 5.4289998397e+00 1.3337295443e-02 1.6183939481e+00 -2.8031405448e+00 1.6183939481e+00 2.8031405448e+00 
10100 5.4289731097e+00 1.3214687103e-02 1.6179819122e+00 -2.8024268776e+00 1.6179819122e+00 2.8024268776e+00 
10200 5.4289473012e+00 1.3083695933e-02 1.6175735599e+00 -2.8017195907e+00 1.6175735599e+00 2.8017195907e+00 
10300 5.4289224143e+00 1.2944838093e-02 1.6171691532e+00 -2.8010191379e+00 1.6171691532e+00 2.8010191379e+00 
10400 5.4288984463e+00 1.2798622165e-02 1.6167689383e+00 -2.8003259453e+00 1.6167689383e+00 2.8003259453e+00 
10500 5.4288753922e+00 1.2645548398e-02 1.6163731459e+00 -2.7996404126e+00 1.6163731459e+00 2.7996404126e+00 
10600 5.4288532441e+00 1.2486108019e-02 1.6159819912e+00 -2.7989629128e+00 1.6159819912e+00 2.7989629128e+00 
10700 5.4288319922e+00 1.2320782605e-02 1.6155956747e+00 -2.7982937930e+00 1.6155956747e+00 2.7982937930e+00 
10800 5.4288116243e+00 1.2150043510e-02 1.6152143819e+00 -2.7976333746e+00 1.6152143819e+00 2.7976333746e+00 
10900 5.4287921259e+00 1.1974351351e-02 1.6148382841e+00 -2.7969819541e+00 1.6148382841e+00 2.7969819541e+00 
11000 5.4287734810e+00 1.1794155543e-02 1.6144675382e+00 -2.7963398034e+00 1.6144675382e+00 2.7963398034e+00 
11100 5.4287556714e+00 1.1609893898e-02 1.6141022875e+00 -2.7957071705e+00 1.6141022875e+00 2.7957071705e+00 
11200 5.4287386777e+00 1.1421992258e-02 1.6137426615e+00 -2.7950842800e+00 1.6137426615e+00 2.7950842800e+00 
11300 5.4287224788e+00 1.1230864193e-02 1.6133887768e+00 -2.7944713338e+00 1.6133887768e+00 2.7944713338e+00 
11400 5.4287070524e+00 1.1036910731e-02 1.6130407373e+00 -2.7938685117e+00 1.6130407373e+00 2.7938685117e+00 
11500 5.4286923754e+00 1.0840520141e-02 1.6126986344e+00 -2.7932759720e+00 1.6126986344e+00 2.7932759720e+00 
11600 5.4286784233e+00 1.0642067754e-02 1.6123625473e+00 -2.7926938521e+00 1.6123625473e+00 2.7926938521e+00 
11700 5.4286651712e+00 1.0441915827e-02 1.6120325438e+00 -2.7921222693e+00 1.6120325438e+00 2.7921222693e+00 
11800 5.4286525936e+00 1.0240413438e-02 1.6117086804e+00 -2.7915613215e+00 1.6117086804e+00 2.7915613215e+00 
11900 5.4286406644e+00 1.0037896423e-02 1.6113910028e+00 -2.7910110877e+00 1.6113910028e+00 2.7910110877e+00 
12000 5.4286293573e+00 9.8346873456e-03 1.6110795460e+00 -2.7904716287e+00 1.6110795460e+00 2.7904716287e+00 
12100 5.4286186459e+00 9.6310954954e-03 1.6107743352e+00 -2.7899429881e+00 1.6107743352e+00 2.7899429881e+00 
12200 5.4286085039e+00 9.4274169183e-03 1.6104753859e+00 -2.7894251927e+00 1.6104753859e+00 2.7894251927e+00 
12300 5.4285989047e+00 9.2239344742e-03 1.6101827043e+00 -2.7889182533e+00 1.6101827043e+00 2.7889182533e+00 
12400 5.4285898224e+00 9.0209179199e-03 1.6098962877e+00 -2.7884221652e+00 1.6098962877e+00 2.7884221652e+00 
12500 5.4285812312e+00 8.8186240174e-03 1.6096161250e+00 -2.7879369092e+00 1.6096161250e+00 2.7879369092e+00 
12600 5.4285731057e+00 8.6172966631e-03 1.6093421972e+00 -2.7874624523e+00 1.6093421972e+00 2.7874624523e+00 
12700 5.4285654212e+00 8.4171670392e-03 1.6090744773e+00 -2.7869987479e+00 1.6090744773e+00 2.7869987479e+00 
12800 5.4285581534e+00 8.2184537832e-03 1.6088129313e+00 -2.7865457370e+00 1.6088129313e+00 2.7865457370e+00 
12900 5.4285512787e+00 8.0213631757e-03 1.6085575183e+00 -2.7861033486e+00 1.6085575183e+00 2.7861033486e+00 
13000 5.4285447745e+00 7.8260893436e-03 1.6083081907e+00 -2.7856715005e+00 1.6083081907e+00 2.7856715005e+00 
13100 5.4285386185e+00 7.6328144785e-03 1.6080648949e+00 -2.7852500998e+00 1.6080648949e+00 2.7852500998e+00 
13200 5.4285327896e+00 7.4417090684e-03 1.6078275716e+00 -2.7848390438e+00 1.6078275716e+00 2.7848390438e+00 
13300 5.4285272675e+00 7.2529321409e-03 1.6075961559e+00 -2.7844382200e+00 1.6075961559e+00 2.7844382200e+00 
13400 5.4285220325e+00 7.0666315175e-03 1.6073705780e+00 -2.7840475077e+00 1.6073705780e+00 2.7840475077e+00 
13500 5.4285170662e+00 6.8829440776e-03 1.6071507634e+00 -2.7836667776e+00 1.6071507634e+00 2.7836667776e+00 
13600 5.4285123509e+00 6.7019960306e-03 1.6069366332e+00 -2.7832958932e+00 1.6069366332e+00 2.7832958932e+00 
13700 5.4285078698e+00 6.5239031951e-03 1.6067281044e+00 -2.7829347107e+00 1.6067281044e+00 2.7829347107e+00 
13800 5.4285036071e+00 6.3487712852e-03 1.6065250904e+00 -2.7825830802e+00 1.6065250904e+00 2.7825830802e+00 
13900 5.4284995479e+00 6.1766962016e-03 1.6063275012e+00 -2.7822408456e+00 1.6063275012e+00 2.7822408456e+00 
14000 5.4284956781e+00 6.0077643267e-03 1.6061352436e+00 -2.7819078457e+00 1.6061352436e+00 2.7819078457e+00 
14100 5.4284919846e+00 5.8420528245e-03 1.6059482217e+00 -2.7815839143e+00 1.6059482217e+00 2.7815839143e+00 
14200 5.4284884552e+00 5.6796299419e-03 1.6057663372e+00 -2.7812688811e+00 1.6057663372e+00 2.7812688811e+00 
14300 5.4284850785e+00 5.5205553127e-03 1.6055894894e+00 -2.7809625717e+00 1.6055894894e+00 2.7809625717e+00 
14400 5.4284818438e+00 5.3648802629e-03 1.6054175757e+00 -2.7806648084e+00 1.6054175757e+00 2.7806648084e+00 
14500 5.4284787415e+00 5.2126481162e-03 1.6052504918e+00 -2.7803754107e+00 1.6052504918e+00 2.7803754107e+00 
14600 5.4284757624e+00 5.0638944993e-03 1.6050881321e+00 -2.7800941954e+00 1.6050881321e+00 2.7800941954e+00 
14700 5.4284728983e+00 4.9186476475e-03 1.6049303896e+00 -2.7798209774e+00 1.6049303896e+00 2.7798209774e+00 
14800 5.4284701415e+00 4.7769287075e-03 1.6047771565e+00 -2.7795555699e+00 1.6047771565e+00 2.7795555699e+00 
14900 5.4284674852e+00 4.6387520400e-03 1.6046283242e+00 -2.7792977847e+00 1.6046283242e+00 2.7792977847e+00 
15000 5.4284649230e+00 4.5041255188e-03 1.6044837835e+00 -2.7790474329e+00 1.6044837835e+00 2.7790474329e+00 
15100 5.4284624492e+00 4.3730508281e-03 1.6043434249e+00 -2.7788043247e+00 1.6043434249e+00 2.7788043247e+00 
15200 5.4284600586e+00 4.2455237560e-03 1.6042071390e+00 -2.7785682706e+00 1.6042071390e+00 2.7785682706e+00 
15300 5.4284577466e+00 4.1215344850e-03 1.6040748161e+00 -2.7783390807e+00 1.6040748161e+00 2.7783390807e+00 
15400 5.4284555089e+00 4.0010678781e-03 1.6039463471e+00 -2.7781165657e+00 1.6039463471e+00 2.7781165657e+00 
15500 5.4284533420e+00 3.8841037614e-03 1.6038216230e+00 -2.7779005372e+00 1.6038216230e+00 2.7779005372e+00 
15600 5.4284512423e+00 3.7706172011e-03 1.6037005355e+00 -2.7776908075e+00 1.6037005355e+00 2.7776908075e+00 
15700 5.4284492070e+00 3.6605787768e-03 1.6035829770e+00 -2.7774871903e+00 1.6035829770e+00 2.7774871903e+00 
15800 5.4284472335e+00 3.5539548492e-03 1.6034688409e+00 -2.7772895007e+00 1.6034688409e+00 2.7772895007e+00 
15900 5.4284453195e+00 3.4507078225e-03 1.6033580213e+00 -2.7770975556e+00 1.6033580213e+00 2.7770975556e+00 
16000 5.4284434628e+00 3.3507964010e-03 1.6032504137e+00 -2.7769111739e+00 1.6032504137e+00 2.7769111739e+00 
16100 5.4284416619e+00 3.2541758409e-03 1.6031459148e+00 -2.7767301763e+00 1.6031459148e+00 2.7767301763e+00 
16200 5.4284399150e+00 3.1607981953e-03 1.6030444224e+00 -2.7765543864e+00 1.6030444224e+00 2.7765543864e+00 
16300 5.4284382208e+00 3.0706125536e-03 1.6029458361e+00 -2.7763836299e+00 1.6029458361e+00 2.7763836299e+00 
16400 5.4284365781e+00 2.9835652748e-03 1.6028500567e+00 -2.7762177352e+00 1.6028500567e+00 2.7762177352e+00 
16500 5.4284349860e+00 2.8996002142e-03 1.6027569870e+00 -2.7760565337e+00 1.6027569870e+00 2.7760565337e+00 
16600 5.4284334433e+00 2.8186589439e-03 1.6026665312e+00 -2.7758998596e+00 1.6026665312e+00 2.7758998596e+00 
16700 5.4284319494e+00 2.7406809672e-03 1.6025785955e+00 -2.7757475505e+00 1.6025785955e+00 2.7757475505e+00 
16800 5.4284305035e+00 2.6656039258e-03 1.6024930878e+00 -2.7755994468e+00 1.6024930878e+00 2.7755994468e+00 
16900 5.4284291048e+00 2.5933638007e-03 1.6024099180e+00 -2.7754553924e+00 1.6024099180e+00 2.7754553924e+00 
17000 5.4284277529e+00 2.5238951069e-03 1.6023289979e+00 -2.7753152348e+00 1.6023289979e+00 2.7753152348e+00 
17100 5.4284264471e+00 2.4571310808e-03 1.6022502415e+00 -2.7751788247e+00 1.6022502415e+00 2.7751788247e+00 
17200 5.4284251868e+00 2.3930038612e-03 1.6021735646e+00 -2.7750460164e+00 1.6021735646e+00 2.7750460164e+00 
17300 5.4284239716e+00 2.3314446636e-03 1.6020988852e+00 -2.7749166680e+00 1.6020988852e+00 2.7749166680e+00 
17400 5.4284228009e+00 2.2723839483e-03 1.6020261236e+00 -2.7747906411e+00 1.6020261236e+00 2.7747906411e+00 
17500 5.4284216741e+00 2.2157515809e-03 1.6019552019e+00 -2.7746678012e+00 1.6019552019e+00 2.7746678012e+00 
17600 5.4284205908e+00 2.1614769869e-03 1.6018860447e+00 -2.7745480173e+00 1.6018860447e+00 2.7745480173e+00 
17700 5.4284195503e+00 2.1094892997e-03 1.6018185785e+00 -2.7744311625e+00 1.6018185785e+00 2.7744311625e+00 
17800 5.4284185521e+00 2.0597175018e-03 1.6017527323e+00 -2.7743171135e+00 1.6017527323e+00 2.7743171135e+00 
17900 5.4284175957e+00 2.0120905595e-03 1.6016884370e+00 -2.7742057507e+00 1.6016884370e+00 2.7742057507e+00 
18000 5.4284166802e+00 1.9665375516e-03 1.6016256258e+00 -2.7740969587e+00 1.6016256258e+00 2.7740969587e+00 
18100 5.4284158052e+00 1.9229877913e-03 1.6015642343e+00 -2.7739906254e+00 1.6015642343e+00 2.7739906254e+00 
18200 5.4284149699e+00 1.8813709421e-03 1.6015042000e+00 -2.7738866430e+00 1.6015042000e+00 2.7738866430e+00 
18300 5.4284141736e+00 1.8416171275e-03 1.6014454628e+00 -2.7737849070e+00 1.6014454628e+00 2.7737849070e+00 
18400 5.4284134155e+00 1.8036570345e-03 1.6013879645e+00 -2.7736853172e+00 1.6013879645e+00 2.7736853172e+00 
18500 5.4284126948e+00 1.7674220113e-03 1.6013316494e+00 -2.7735877765e+00 1.6013316494e+00 2.7735877765e+00 
18600 5.4284120107e+00 1.7328441589e-03 1.6012764637e+00 -2.7734921921e+00 1.6012764637e+00 2.7734921921e+00 
18700 5.4284113624e+00 1.6998564171e-03 1.6012223558e+00 -2.7733984745e+00 1.6012223558e+00 2.7733984745e+00 
18800 5.4284107490e+00 1.6683926449e-03 1.6011692761e+00 -2.7733065378e+00 1.6011692761e+00 2.7733065378e+00 
18900 5.4284101696e+00 1.6383876951e-03 1.6011171772e+00 -2.7732162998e+00 1.6011171772e+00 2.7732162998e+00 
19000 5.4284096232e+00 1.6097774839e-03 1.6010660136e+00 -2.7731276818e+00 1.6010660136e+00 2.7731276818e+00 
19100 5.4284091090e+00 1.5824990548e-03 1.6010157418e+00 -2.7730406085e+00 1.6010157418e+00 2.7730406085e+00 
19200 5.4284086259e+00 1.5564906374e-03 1.6009663204e+00 -2.7729550081e+00 1.6009663204e+00 2.7729550081e+00 
19300 5.4284081729e+00 1.5316917016e-03 1.6009177096e+00 -2.7728708118e+00 1.6009177096e+00 2.7728708118e+00 
19400 5.4284077491e+00 1.5080430065e-03 1.6008698719e+00 -2.7727879545e+00 1.6008698719e+00 2.7727879545e+00 
19500 5.4284073534e+00 1.4854866444e-03 1.6008227714e+00 -2.7727063740e+00 1.6008227714e+00 2.7727063740e+00 
19600 5.4284069849e+00 1.4639660809e-03 1.6007763741e+00 -2.7726260114e+00 1.6007763741e+00 2.7726260114e+00 
19700 5.4284066426e+00 1.4434261900e-03 1.6007306475e+00 -2.7725468107e+00 1.6007306475e+00 2.7725468107e+00 
19800 5.4284063253e+00 1.4238132847e-03 1.6006855613e+00 -2.7724687190e+00 1.6006855613e+00 2.7724687190e+00 
19900 5.4284060322e+00 1.4050751439e-03 1.6006410863e+00 -2.7723916862e+00 1.6006410863e+00 2.7723916862e+00 
20000 5.4284057621e+00 1.3871610353e-03 1.6005971955e+00 -2.7723156651e+00 1.6005971955e+00 2.7723156651e+00 
20100 5.4284055141e+00 1.3700217336e-03 1.6005538631e+00 -2.7722406112e+00 1.6005538631e+00 2.7722406112e+00 
20200 5.4284052872e+00 1.3536095364e-03 1.6005110650e+00 -2.7721664826e+00 1.6005110650e+00 2.7721664826e+00 
20300 5.4284050805e+00 1.3378782750e-03 1.6004687783e+00 -2.7720932400e+00 1.6004687783e+00 2.7720932400e+00 
20400 5.4284048929e+00 1.3227833228e-03 1.6004269821e+00 -2.7720208468e+00 1.6004269821e+00 2.7720208468e+00 
20500 5.4284047235e+00 1.3082815998e-03 1.6003856563e+00 -2.7719492684e+00 1.6003856563e+00 2.7719492684e+00 
20600 5.4284045714e+00 1.2943315746e-03 1.6003447825e+00 -2.7718784730e+00 1.6003447825e+00 2.7718784730e+00 
20700 5.4284044357e+00 1.2808932625e-03 1.6003043436e+00 -2.7718084306e+00 1.6003043436e+00 2.7718084306e+00 
20800 5.4284043155e+00 1.2679282218e-03 1.6002643234e+00 -2.7717391137e+00 1.6002643234e+00 2.7717391137e+00 
20900 5.4284042100e+00 1.2553995463e-03 1.6002247074e+00 -2.7716704967e+00 1.6002247074e+00 2.7716704967e+00 
21000 5.4284041182e+00 1.2432718562e-03 1.6001854818e+00 -2.7716025560e+00 1.6001854818e+00 2.7716025560e+00 
21100 5.4284040394e+00 1.2315112859e-03 1.6001466342e+00 -2.7715352700e+00 1.6001466342e+00 2.7715352700e+00 
21200 5.4284039729e+00 1.2200854699e-03 1.6001081532e+00 -2.7714686189e+00 1.6001081532e+00 2.7714686189e+00 
21300 5.4284039177e+00 1.2089635260e-03 1.6000700282e+00 -2.7714025846e+00 1.6000700282e+00 2.7714025846e+00 
21400 5.4284038734e+00 1.1981160376e-03 1.6000322499e+00 -2.7713371506e+00 1.6000322499e+00 2.7713371506e+00 
21500 5.4284038390e+00 1.1875150324e-03 1.5999948097e+00 -2.7712723022e+00 1.5999948097e+00 2.7712723022e+00 
21600 5.4284038140e+00 1.1771339611e-03 1.5999576999e+00 -2.7712080261e+00 1.5999576999e+00 2.7712080261e+00 
21700 5.4284037978e+00 1.1669476733e-03 1.5999209136e+00 -2.7711443105e+00 1.5999209136e+00 2.7711443105e+00 
21800 5.4284037896e+00 1.1569323921e-03 1.5998844448e+00 -2.7710811447e+00 1.5998844448e+00 2.7710811447e+00 
21900 5.4284037890e+00 1.1470656878e-03 1.5998482882e+00 -2.7710185196e+00 1.5998482882e+00 2.7710185196e+00 
22000 5.4284037953e+00 1.1373264497e-03 1.5998124391e+00 -2.7709564272e+00 1.5998124391e+00 2.7709564272e+00 
22100 5.4284038081e+00 1.1276948571e-03 1.5997768937e+00 -2.7708948606e+00 1.5997768937e+00 2.7708948606e+00 
22200 5.4284038268e+00 1.1181523490e-03 1.5997416484e+00 -2.7708338140e+00 1.5997416484e+00 2.7708338140e+00 
22300 5.4284038510e+00 1.1086815934e-03 1.5997067006e+00 -2.7707732827e+00 1.5997067006e+00 2.7707732827e+00 
22400 5.4284038803e+00 1.0992664549e-03 1.5996720481e+00 -2.7707132628e+00 1.5996720481e+00 2.7707132628e+00 
22500 5.4284039141e+00 1.0898919621e-03 1.5996376891e+00 -2.7706537512e+00 1.5996376891e+00 2.7706537512e+00 
22600 5.4284039522e+00 1.0805442745e-03 1.5996036224e+00 -2.7705947460e+00 1.5996036224e+00 2.7705947460e+00 
22700 5.4284039941e+00 1.0712106487e-03 1.5995698471e+00 -2.7705362455e+00 1.5995698471e+00 2.7705362455e+00 
22800 5.4284040396e+00 1.0618794037e-03 1.5995363629e+00 -2.7704782491e+00 1.5995363629e+00 2.7704782491e+00 
22900 5.4284040882e+00 1.0525398864e-03 1.5995031697e+00 -2.7704207568e+00 1.5995031697e+00 2.7704207568e+00 
23000 5.4284041397e+00 1.0431824370e-03 1.5994702677e+00 -2.7703637689e+00 1.5994702677e+00 2.7703637689e+00 
23100 5.4284041938e+00 1.0337983533e-03 1.5994376576e+00 -2.7703072865e+00 1.5994376576e+00 2.7703072865e+00 
23200 5.4284042502e+00 1.0243798556e-03 1.5994053401e+00 -2.7702513110e+00 1.5994053401e+00 2.7702513110e+00 
23300 5.4284043087e+00 1.0149200515e-03 1.5993733165e+00 -2.7701958444e+00 1.5993733165e+00 2.7701958444e+00 
23400 5.4284043692e+00 1.0054129007e-03 1.5993415879e+00 -2.7701408889e+00 1.5993415879e+00 2.7701408889e+00 
23500 5.4284044313e+00 9.9585317927e-04 1.5993101559e+00 -2.7700864471e+00 1.5993101559e+00 2.7700864471e+00 
23600 5.4284044948e+00 9.8623644530e-04 1.5992790222e+00 -2.7700325219e+00 1.5992790222e+00 2.7700325219e+00 
23700 5.4284045597e+00 9.7655900348e-04 1.5992481885e+00 -2.7699791164e+00 1.5992481885e+00 2.7699791164e+00 
23800 5.4284046257e+00 9.6681787085e-04 1.5992176568e+00 -2.7699262339e+00 1.5992176568e+00 2.7699262339e+00 
23900 5.4284046928e+00 9.5701074244e-04 1.5991874290e+00 -2.7698738779e+00 1.5991874290e+00 2.7698738779e+00 
24000 5.4284047607e+00 9.4713595745e-04 1.5991575073e+00 -2.7698220520e+00 1.5991575073e+00 2.7698220520e+00 
24100 5.4284048293e+00 9.3719246584e-04 1.5991278938e+00 -2.7697707599e+00 1.5991278938e+00 2.7697707599e+00 
24200 5.4284048985e+00 9.2717979529e-04 1.5990985907e+00 -2.7697200054e+00 1.5990985907e+00 2.7697200054e+00 
24300 5.4284049683e+00 9.1709801883e-04 1.5990696001e+00 -2.7696697922e+00 1.5990696001e+00 2.7696697922e+00 
24400 5.4284050385e+00 9.0694772291e-04 1.5990409242e+00 -2.7696201240e+00 1.5990409242e+00 2.7696201240e+00 
24500 5.4284051091e+00 8.9672997606e-04 1.5990125651e+00 -2.7695710048e+00 1.5990125651e+00 2.7695710048e+00 
24600 5.4284051800e+00 8.8644629823e-04 1.5989845251e+00 -2.7695224380e+00 1.5989845251e+00 2.7695224380e+00 
24700 5.4284052510e+00 8.7609863075e-04 1.5989568061e+00 -2.7694744273e+00 1.5989568061e+00 2.7694744273e+00 
24800 5.4284053222e+00 8.6568930692e-04 1.5989294103e+00 -2.7694269763e+00 1.5989294103e+00 2.7694269763e+00 
24900 5.4284053934e+00 8.5522102337e-04 1.5989023394e+00 -2.7693800883e+00 1.5989023394e+00 2.7693800883e+00 
25000 5.4284054647e+00 8.4469681214e-04 1.5988755955e+00 -2.7693337664e+00 1.5988755955e+00 2.7693337664e+00 
25100 5.4284055360e+00 8.3412001341e-04 1.5988491803e+00 -2.7692880138e+00 1.5988491803e+00 2.7692880138e+00 
25200 5.4284056072e+00 8.2349424913e-04 1.5988230953e+00 -2.7692428334e+00 1.5988230953e+00 2.7692428334e+00 
25300 5.4284056783e+00 8.1282339729e-04 1.5987973422e+00 -2.7691982278e+00 1.5987973422e+00 2.7691982278e+00 
25400 5.4284057493e+00 8.0211156709e-04 1.5987719225e+00 -2.7691541994e+00 1.5987719225e+00 2.7691541994e+00 
25500 5.4284058201e+00 7.9136307484e-04 1.5987468373e+00 -2.7691107506e+00 1.5987468373e+00 2.7691107506e+00 
25600 5.4284058907e+00 7.8058242065e-04 1.5987220879e+00 -2.7690678834e+00 1.5987220879e+00 2.7690678834e+00 
25700 5.4284059611e+00 7.6977426604e-04 1.5986976752e+00 -2.7690255995e+00 1.5986976752e+00 2.7690255995e+00 
25800 5.4284060313e+00 7.5894341221e-04 1.5986736003e+00 -2.7689839004e+00 1.5986736003e+00 2.7689839004e+00 
25900 5.4284061011e+00 7.4809477927e-04 1.5986498637e+00 -2.7689427874e+00 1.5986498637e+00 2.7689427874e+00 
26000 5.4284061707e+00 7.3723338624e-04 1.5986264660e+00 -2.7689022615e+00 1.5986264660e+00 2.7689022615e+00 
26100 5.4284062400e+00 7.2636433182e-04 1.5986034077e+00 -2.7688623233e+00 1.5986034077e+00 2.7688623233e+00 
26200 5.4284063089e+00 7.1549277604e-04 1.5985806891e+00 -2.7688229735e+00 1.5985806891e+00 2.7688229735e+00 
26300 5.4284063775e+00 7.0462392276e-04 1.5985583101e+00 -2.7687842120e+00 1.5985583101e+00 2.7687842120e+00 
26400 5.4284064457e+00 6.9376300283e-04 1.5985362708e+00 -2.7687460388e+00 1.5985362708e+00 2.7687460388e+00 
26500 5.4284065135e+00 6.8291525825e-04 1.5985145709e+00 -2.7687084535e+00 1.5985145709e+00 2.7687084535e+00 
26600 5.4284065809e+00 6.7208592693e-04 1.5984932100e+00 -2.7686714553e+00 1.5984932100e+00 2.7686714553e+00 
26700 5.4284066479e+00 6.6128022842e-04 1.5984721876e+00 -2.7686350434e+00 1.5984721876e+00 2.7686350434e+00 
26800 5.4284067145e+00 6.5050335027e-04 1.5984515029e+00 -2.7685992164e+00 1.5984515029e+00 2.7685992164e+00 
26900 5.4284067807e+00 6.3976043521e-04 1.5984311550e+00 -2.7685639729e+00 1.5984311550e+00 2.7685639729e+00 
27000 5.4284068463e+00 6.2905656913e-04 1.5984111429e+00 -2.7685293109e+00 1.5984111429e+00 2.7685293109e+00 
27100 5.4284069116e+00 6.1839676970e-04 1.5983914654e+00 -2.7684952284e+00 1.5983914654e+00 2.7684952284e+00 
27200 5.4284069763e+00 6.0778597581e-04 1.5983721211e+00 -2.7684617231e+00 1.5983721211e+00 2.7684617231e+00 
27300 5.4284070405e+00 5.9722903768e-04 1.5983531085e+00 -2.7684287923e+00 1.5983531085e+00 2.7684287923e+00 
27400 5.4284071043e+00 5.8673070764e-04 1.5983344259e+00 -2.7683964331e+00 1.5983344259e+00 2.7683964331e+00 
27500 5.4284071675e+00 5.7629563164e-04 1.5983160715e+00 -2.7683646423e+00 1.5983160715e+00 2.7683646423e+00 
27600 5.4284072302e+00 5.6592834143e-04 1.5982980433e+00 -2.7683334166e+00 1.5982980433e+00 2.7683334166e+00 
27700 5.4284072923e+00 5.5563324731e-04 1.5982803392e+00 -2.7683027523e+00 1.5982803392e+00 2.7683027523e+00 
27800 5.4284073539e+00 5.4541463160e-04 1.5982629570e+00 -2.7682726454e+00 1.5982629570e+00 2.7682726454e+00 
27900 5.4284074150e+00 5.3527664269e-04 1.5982458943e+00 -2.7682430920e+00 1.5982458943e+00 2.7682430920e+00 
28000 5.4284074754e+00 5.2522328964e-04 1.5982291486e+00 -2.7682140875e+00 1.5982291486e+00 2.7682140875e+00 
28100 5.4284075353e+00 5.1525843745e-04 1.5982127172e+00 -2.7681856275e+00 1.5982127172e+00 2.7681856275e+00 
28200 5.4284075946e+00 5.0538580277e-04 1.5981965974e+00 -2.7681577072e+00 1.5981965974e+00 2.7681577072e+00 
28300 5.4284076533e+00 4.9560895029e-04 1.5981807863e+00 -2.7681303216e+00 1.5981807863e+00 2.7681303216e+00 
28400 5.4284077114e+00 4.8593128951e-04 1.5981652809e+00 -2.7681034654e+00 1.5981652809e+00 2.7681034654e+00 
28500 5.4284077688e+00 4.7635607208e-04 1.5981500782e+00 -2.7680771335e+00 1.5981500782e+00 2.7680771335e+00 
28600 5.4284078257e+00 4.6688638966e-04 1.5981351748e+00 -2.7680513202e+00 1.5981351748e+00 2.7680513202e+00 
28700 5.4284078819e+00 4.5752517214e-04 1.5981205676e+00 -2.7680260197e+00 1.5981205676e+00 2.7680260197e+00 
28800 5.4284079374e+00 4.4827518641e-04 1.5981062532e+00 -2.7680012264e+00 1.5981062532e+00 2.7680012264e+00 
28900 5.4284079924e+00 4.3913903546e-04 1.5980922280e+00 -2.7679769341e+00 1.5980922280e+00 2.7679769341e+00 
29000 5.4284080466e+00 4.3011915799e-04 1.5980784885e+00 -2.7679531366e+00 1.5980784885e+00 2.7679531366e+00 
29100 5.4284081002e+00 4.2121782828e-04 1.5980650312e+00 -2.7679298278e+00 1.5980650312e+00 2.7679298278e+00 
29200 5.4284081532e+00 4.1243715655e-04 1.5980518522e+00 -2.7679070011e+00 1.5980518522e+00 2.7679070011e+00 
29300 5.4284082055e+00 4.0377908958e-04 1.5980389478e+00 -2.7678846501e+00 1.5980389478e+00 2.7678846501e+00 
29400 5.4284082571e+00 3.9524541173e-04 1.5980263143e+00 -2.7678627681e+00 1.5980263143e+00 2.7678627681e+00 
29500 5.4284083080e+00 3.8683774621e-04 1.5980139476e+00 -2.7678413485e+00 1.5980139476e+00 2.7678413485e+00 
29600 5.4284083583e+00 3.7855755670e-04 1.5980018439e+00 -2.7678203843e+00 1.5980018439e+00 2.7678203843e+00 
29700 5.4284084079e+00 3.7040614920e-04 1.5979899992e+00 -2.7677998686e+00 1.5979899992e+00 2.7677998686e+00 
29800 5.4284084568e+00 3.6238467419e-04 1.5979784095e+00 -2.7677797946e+00 1.5979784095e+00 2.7677797946e+00 
29900 5.4284085050e+00 3.5449412898e-04 1.5979670706e+00 -2.7677601552e+00 1.5979670706e+00 2.7677601552e+00 
30000 5.4284085526e+00 3.4673536033e-04 1.5979559786e+00 -2.7677409432e+00 1.5979559786e+00 2.7677409432e+00 
30100 5.4284085995e+00 3.3910906730e-04 1.5979451293e+00 -2.7677221517e+00 1.5979451293e+00 2.7677221517e+00 
30200 5.4284086457e+00 3.3161580416e-04 1.5979345185e+00 -2.7677037733e+00 1.5979345185e+00 2.7677037733e+00 
30300 5.4284086912e+00 3.2425598372e-04 1.5979241421e+00 -2.7676858008e+00 1.5979241421e+00 2.7676858008e+00 
30400 5.4284087361e+00 3.1702988055e-04 1.5979139960e+00 -2.7676682272e+00 1.5979139960e+00 2.7676682272e+00 
30500 5.4284087802e+00 3.0993763459e-04 1.5979040759e+00 -2.7676510451e+00 1.5979040759e+00 2.7676510451e+00 
30600 5.4284088237e+00 3.0297925472e-04 1.5978943776e+00 -2.7676342472e+00 1.5978943776e+00 2.7676342472e+00 
30700 5.4284088666e+00 2.9615462255e-04 1.5978848971e+00 -2.7676178264e+00 1.5978848971e+00 2.7676178264e+00 
30800 5.4284089087e+00 2.8946349631e-04 1.5978756300e+00 -2.7676017753e+00 1.5978756300e+00 2.7676017753e+00 
30900 5.4284089503e+00 2.8290551476e-04 1.5978665722e+00 -2.7675860868e+00 1.5978665722e+00 2.7675860868e+00 
31000 5.4284089911e+00 2.7648020129e-04 1.5978577197e+00 -2.7675707537e+00 1.5978577197e+00 2.7675707537e+00 
31100 5.4284090313e+00 2.7018696801e-04 1.5978490681e+00 -2.7675557687e+00 1.5978490681e+00 2.7675557687e+00 
31200 5.4284090709e+00 2.6402511994e-04 1.5978406134e+00 -2.7675411248e+00 1.5978406134e+00 2.7675411248e+00 
31300 5.4284091098e+00 2.5799385920e-04 1.5978323514e+00 -2.7675268147e+00 1.5978323514e+00 2.7675268147e+00 
31400 5.4284091481e+00 2.5209228934e-04 1.5978242782e+00 -2.7675128314e+00 1.5978242782e+00 2.7675128314e+00 
31500 5.4284091858e+00 2.4631941953e-04 1.5978163896e+00 -2.7674991679e+00 1.5978163896e+00 2.7674991679e+00 
31600 5.4284092228e+00 2.4067416895e-04 1.5978086816e+00 -2.7674858173e+00 1.5978086816e+00 2.7674858173e+00 
31700 5.4284092592e+00 2.3515537104e-04 1.5978011502e+00 -2.7674727726e+00 1.5978011502e+00 2.7674727726e+00 
31800 5.4284092950e+00 2.2976177786e-04 1.5977937915e+00 -2.7674600269e+00 1.5977937915e+00 2.7674600269e+00 
31900 5.4284093302e+00 2.2449206431e-04 1.5977866015e+00 -2.7674475735e+00 1.5977866015e+00 2.7674475735e+00 
32000 5.4284093649e+00 2.1934483247e-04 1.5977795765e+00 -2.7674354057e+00 1.5977795765e+00 2.7674354057e+00 
32100 5.4284093989e+00 2.1431861583e-04 1.5977727124e+00 -2.7674235168e+00 1.5977727124e+00 2.7674235168e+00 
32200 5.4284094323e+00 2.0941188349e-04 1.5977660056e+00 -2.7674119003e+00 1.5977660056e+00 2.7674119003e+00 
32300 5.4284094652e+00 2.0462304436e-04 1.5977594524e+00 -2.7674005498e+00 1.5977594524e+00 2.7674005498e+00 
32400 5.4284094975e+00 1.9995045125e-04 1.5977530489e+00 -2.7673894587e+00 1.5977530489e+00 2.7673894587e+00 
32500 5.4284095293e+00 1.9539240497e-04 1.5977467917e+00 -2.7673786208e+00 1.5977467917e+00 2.7673786208e+00 
32600 5.4284095605e+00 1.9094715832e-04 1.5977406771e+00 -2.7673680300e+00 1.5977406771e+00 2.7673680300e+00 
32700 5.4284095911e+00 1.8661292005e-04 1.5977347015e+00 -2.7673576801e+00 1.5977347015e+00 2.7673576801e+00 
32800 5.4284096212e+00 1.8238785874e-04 1.5977288616e+00 -2.7673475650e+00 1.5977288616e+00 2.7673475650e+00 
32900 5.4284096508e+00 1.7827010658e-04 1.5977231539e+00 -2.7673376790e+00 1.5977231539e+00 2.7673376790e+00 
33000 5.4284096799e+00 1.7425776309e-04 1.5977175750e+00 -2.7673280161e+00 1.5977175750e+00 2.7673280161e+00 
33100 5.4284097085e+00 1.7034889879e-04 1.5977121217e+00 -2.7673185706e+00 1.5977121217e+00 2.7673185706e+00 
33200 5.4284097366e+00 1.6654155871e-04 1.5977067907e+00 -2.7673093370e+00 1.5977067907e+00 2.7673093370e+00 
33300 5.4284097641e+00 1.6283376591e-04 1.5977015788e+00 -2.7673003098e+00 1.5977015788e+00 2.7673003098e+00 
33400 5.4284097912e+00 1.5922352478e-04 1.5976964829e+00 -2.7672914835e+00 1.5976964829e+00 2.7672914835e+00 
33500 5.4284098178e+00 1.5570882436e-04 1.5976915000e+00 -2.7672828528e+00 1.5976915000e+00 2.7672828528e+00 
33600 5.4284098439e+00 1.5228764149e-04 1.5976866271e+00 -2.7672744127e+00 1.5976866271e+00 2.7672744127e+00 
33700 5.4284098696e+00 1.4895794393e-04 1.5976818612e+00 -2.7672661579e+00 1.5976818612e+00 2.7672661579e+00 
33800 5.4284098948e+00 1.4571769329e-04 1.5976771995e+00 -2.7672580836e+00 1.5976771995e+00 2.7672580836e+00 
33900 5.4284099196e+00 1.4256484793e-04 1.5976726392e+00 -2.7672501850e+00 1.5976726392e+00 2.7672501850e+00 
34000 5.4284099439e+00 1.3949736570e-04 1.5976681776e+00 -2.7672424572e+00 1.5976681776e+00 2.7672424572e+00 
34100 5.4284099678e+00 1.3651320665e-04 1.5976638119e+00 -2.7672348957e+00 1.5976638119e+00 2.7672348957e+00 
34200 5.4284099913e+00 1.3361033557e-04 1.5976595396e+00 -2.7672274959e+00 1.5976595396e+00 2.7672274959e+00 
34300 5.4284100143e+00 1.3078672442e-04 1.5976553582e+00 -2.7672202534e+00 1.5976553582e+00 2.7672202534e+00 
34400 5.4284100370e+00 1.2804035473e-04 1.5976512651e+00 -2.7672131640e+00 1.5976512651e+00 2.7672131640e+00 
34500 5.4284100592e+00 1.2536921980e-04 1.5976472580e+00 -2.7672062234e+00 1.5976472580e+00 2.7672062234e+00 
34600 5.4284100810e+00 1.2277132684e-04 1.5976433344e+00 -2.7671994276e+00 1.5976433344e+00 2.7671994276e+00 
34700 5.4284101025e+00 1.2024469904e-04 1.5976394922e+00 -2.7671927726e+00 1.5976394922e+00 2.7671927726e+00 
34800 5.4284101235e+00 1.1778737746e-04 1.5976357290e+00 -2.7671862546e+00 1.5976357290e+00 2.7671862546e+00 
34900 5.4284101442e+00 1.1539742287e-04 1.5976320427e+00 -2.7671798697e+00 1.5976320427e+00 2.7671798697e+00 
35000 5.4284101645e+00 1.1307291747e-04 1.5976284312e+00 -2.7671736144e+00 1.5976284312e+00 2.7671736144e+00 
35100 5.4284101845e+00 1.1081196651e-04 1.5976248924e+00 -2.7671674850e+00 1.5976248924e+00 2.7671674850e+00 
35200 5.4284102040e+00 1.0861269982e-04 1.5976214244e+00 -2.7671614782e+00 1.5976214244e+00 2.7671614782e+00 
35300 5.4284102233e+00 1.0647327320e-04 1.5976180252e+00 -2.7671555907e+00 1.5976180252e+00 2.7671555907e+00 
35400 5.4284102422e+00 1.0439186980e-04 1.5976146929e+00 -2.7671498190e+00 1.5976146929e+00 2.7671498190e+00 
35500 5.4284102607e+00 1.0236670129e-04 1.5976114258e+00 -2.7671441602e+00 1.5976114258e+00 2.7671441602e+00 
35600 5.4284102789e+00 1.0039600901e-04 1.5976082221e+00 -2.7671386112e+00 1.5976082221e+00 2.7671386112e+00 
35700 5.4284102968e+00 9.8478065060e-05 1.5976050800e+00 -2.7671331690e+00 1.5976050800e+00 2.7671331690e+00 
35800 5.4284103144e+00 9.6611173174e-05 1.5976019979e+00 -2.7671278307e+00 1.5976019979e+00 2.7671278307e+00 
35900 5.4284103316e+00 9.4793669641e-05 1.5975989743e+00 -2.7671225936e+00 1.5975989743e+00 2.7671225936e+00 
36000 5.4284103486e+00 9.3023924066e-05 1.5975960075e+00 -2.7671174550e+00 1.5975960075e+00 2.7671174550e+00 
36100 5.4284103652e+00 9.1300340062e-05 1.5975930962e+00 -2.7671124124e+00 1.5975930962e+00 2.7671124124e+00 
36200 5.4284103815e+00 8.9621355866e-05 1.5975902387e+00 -2.7671074632e+00 1.5975902387e+00 2.7671074632e+00 
36300 5.4284103976e+00 8.7985444871e-05 1.5975874339e+00 -2.7671026050e+00 1.5975874339e+00 2.7671026050e+00 
36400 5.4284104133e+00 8.6391116089e-05 1.5975846802e+00 -2.7670978354e+00 1.5975846802e+00 2.7670978354e+00 
36500 5.4284104288e+00 8.4836914520e-05 1.5975819764e+00 -2.7670931523e+00 1.5975819764e+00 2.7670931523e+00 
36600 5.4284104440e+00 8.3321421481e-05 1.5975793212e+00 -2.7670885534e+00 1.5975793212e+00 2.7670885534e+00 
36700 5.4284104589e+00 8.1843254838e-05 1.5975767134e+00 -2.7670840367e+00 1.5975767134e+00 2.7670840367e+00 
36800 5.4284104735e+00 8.0401069172e-05 1.5975741520e+00 -2.7670796001e+00 1.5975741520e+00 2.7670796001e+00 
36900 5.4284104879e+00 7.8993555909e-05 1.5975716356e+00 -2.7670752416e+00 1.5975716356e+00 2.7670752416e+00 
37000 5.4284105020e+00 7.7619443350e-05 1.5975691633e+00 -2.7670709595e+00 1.5975691633e+00 2.7670709595e+00 
37100 5.4284105159e+00 7.6277496664e-05 1.5975667340e+00 -2.7670667518e+00 1.5975667340e+00 2.7670667518e+00 
37200 5.4284105295e+00 7.4966517828e-05 1.5975643467e+00 -2.7670626169e+00 1.5975643467e+00 2.7670626169e+00 
37300 5.4284105429e+00 7.3685345492e-05 1.5975620004e+00 -2.7670585530e+00 1.5975620004e+00 2.7670585530e+00 
37400 5.4284105560e+00 7.2432854814e-05 1.5975596943e+00 -2.7670545586e+00 1.5975596943e+00 2.7670545586e+00 
37500 5.4284105689e+00 7.1207957230e-05 1.5975574273e+00 -2.7670506321e+00 1.5975574273e+00 2.7670506321e+00 
37600 5.4284105815e+00 7.0009600184e-05 1.5975551986e+00 -2.7670467719e+00 1.5975551986e+00 2.7670467719e+00 
37700 5.4284105941e+00 7.0748203075e-05 1.5975551986e+00 -2.7670467719e+00 1.5975551986e+00 2.7670467719e+00 
37800 5.4284106063e+00 6.9560677344e-05 1.5975529844e+00 -2.7670429367e+00 1.5975529844e+00 2.7670429367e+00 
37900 5.4284106185e+00 7.0296666550e-05 1.5975529844e+00 -2.7670429367e+00 1.5975529844e+00 2.7670429367e+00 
38000 5.4284106304e+00 7.1037150876e-05 1.5975529844e+00 -2.7670429367e+00 1.5975529844e+00 2.7670429367e+00 
38100 5.4284106419e+00 6.9842183178e-05 1.5975507611e+00 -2.7670390858e+00 1.5975507611e+00 2.7670390858e+00 
38200 5.4284106534e+00 7.0577118036e-05 1.5975507611e+00 -2.7670390858e+00 1.5975507611e+00 2.7670390858e+00 
38300 5.4284106647e+00 7.1315104962e-05 1.5975507611e+00 -2.7670390858e+00 1.5975507611e+00 2.7670390858e+00 
38400 5.4284106756e+00 7.0108615171e-05 1.5975485290e+00 -2.7670352199e+00 1.5975485290e+00 2.7670352199e+00 
38500 5.4284106865e+00 7.0838131096e-05 1.5975485290e+00 -2.7670352199e+00 1.5975485290e+00 2.7670352199e+00 
38600 5.4284106970e+00 6.9635232657e-05 1.5975463120e+00 -2.7670313797e+00 1.5975463120e+00 2.7670313797e+00 
38700 5.4284107075e+00 7.0354467102e-05 1.5975463120e+00 -2.7670313797e+00 1.5975463120e+00 2.7670313797e+00 
38800 5.4284107178e+00 7.1074414534e-05 1.5975463120e+00 -2.7670313797e+00 1.5975463120e+00 2.7670313797e+00 
38900 5.4284107277e+00 6.9854153351e-05 1.5975440875e+00 -2.7670275268e+00 1.5975440875e+00 2.7670275268e+00 
39000 5.4284107376e+00 7.0561109738e-05 1.5975440875e+00 -2.7670275268e+00 1.5975440875e+00 2.7670275268e+00 
39100 5.4284107474e+00 7.1267481066e-05 1.5975440875e+00 -2.7670275268e+00 1.5975440875e+00 2.7670275268e+00 
39200 5.4284107568e+00 7.0027100328e-05 1.5975418569e+00 -2.7670236634e+00 1.5975418569e+00 2.7670236634e+00 
39300 5.4284107662e+00 7.0717930380e-05 1.5975418569e+00 -2.7670236634e+00 1.5975418569e+00 2.7670236634e+00 
39400 5.4284107752e+00 6.9476194537e-05 1.5975396436e+00 -2.7670198298e+00 1.5975396436e+00 2.7670198298e+00 
39500 5.4284107842e+00 7.0149986798e-05 1.5975396436e+00 -2.7670198298e+00 1.5975396436e+00 2.7670198298e+00 
39600 5.4284107931e+00 7.0821228752e-05 1.5975396436e+00 -2.7670198298e+00 1.5975396436e+00 2.7670198298e+00 
39700 5.4284108017e+00 6.9555994757e-05 1.5975374270e+00 -2.7670159906e+00 1.5975374270e+00 2.7670159906e+00 
39800 5.4284108102e+00 7.0208040662e-05 1.5975374270e+00 -2.7670159906e+00 1.5975374270e+00 2.7670159906e+00 
39900 5.4284108186e+00 7.0856520668e-05 1.5975374270e+00 -2.7670159906e+00 1.5975374270e+00 2.7670159906e+00 
40000 5.4284108267e+00 6.9566579565e-05 1.5975352093e+00 -2.7670121495e+00 1.5975352093e+00 2.7670121495e+00 
40100 5.4284108348e+00 7.0193939237e-05 1.5975352093e+00 -2.7670121495e+00 1.5975352093e+00 2.7670121495e+00 
40200 5.4284108428e+00 7.0816832359e-05 1.5975352093e+00 -2.7670121495e+00 1.5975352093e+00 2.7670121495e+00 
40300 5.4284108504e+00 6.9501522710e-05 1.5975329929e+00 -2.7670083105e+00 1.5975329929e+00 2.7670083105e+00 
40400 5.4284108580e+00 7.0101621449e-05 1.5975329929e+00 -2.7670083105e+00 1.5975329929e+00 2.7670083105e+00 
40500 5.4284108656e+00 7.0696473697e-05 1.5975329929e+00 -2.7670083105e+00 1.5975329929e+00 2.7670083105e+00 
40600 5.4284108729e+00 7.1285863057e-05 1.5975329929e+00 -2.7670083105e+00 1.5975329929e+00 2.7670083105e+00 
40700 5.4284108800e+00 6.9923289369e-05 1.5975307618e+00 -2.7670044461e+00 1.5975307618e+00 2.7670044461e+00 
40800 5.4284108871e+00 7.0487944974e-05 1.5975307618e+00 -2.7670044461e+00 1.5975307618e+00 2.7670044461e+00 
40900 5.4284108941e+00 7.1046498467e-05 1.5975307618e+00 -2.7670044461e+00 1.5975307618e+00 2.7670044461e+00 
41000 5.4284109008e+00 6.9659021312e-05 1.5975285382e+00 -2.7670005946e+00 1.5975285382e+00 2.7670005946e+00 
41100 5.4284109075e+00 7.0191734166e-05 1.5975285382e+00 -2.7670005946e+00 1.5975285382e+00 2.7670005946e+00 
41200 5.4284109141e+00 7.0717832426e-05 1.5975285382e+00 -2.7670005946e+00 1.5975285382e+00 2.7670005946e+00 
41300 5.4284109204e+00 6.9306395990e-05 1.5975263248e+00 -2.7669967610e+00 1.5975263248e+00 2.7669967610e+00 
41400 5.4284109268e+00 6.9805813842e-05 1.5975263248e+00 -2.7669967610e+00 1.5975263248e+00 2.7669967610e+00 
41500 5.4284109330e+00 7.0298228068e-05 1.5975263248e+00 -2.7669967610e+00 1.5975263248e+00 2.7669967610e+00 
41600 5.4284109392e+00 7.0783551747e-05 1.5975263248e+00 -2.7669967610e+00 1.5975263248e+00 2.7669967610e+00 
41700 5.4284109450e+00 6.9329108032e-05 1.5975241094e+00 -2.7669929238e+00 1.5975241094e+00 2.7669929238e+00 
41800 5.4284109509e+00 6.9786921046e-05 1.5975241094e+00 -2.7669929238e+00 1.5975241094e+00 2.7669929238e+00 
41900 5.4284109568e+00 7.0237387055e-05 1.5975241094e+00 -2.7669929238e+00 1.5975241094e+00 2.7669929238e+00 
42000 5.4284109625e+00 7.0680462285e-05 1.5975241094e+00 -2.7669929238e+00 1.5975241094e+00 2.7669929238e+00 
42100 5.4284109681e+00 7.1116106978e-05 1.5975241094e+00 -2.7669929238e+00 1.5975241094e+00 2.7669929238e+00 
42200 5.4284109734e+00 6.9602603011e-05 1.5975218836e+00 -2.7669890685e+00 1.5975218836e+00 2.7669890685e+00 
42300 5.4284109788e+00 7.0010135027e-05 1.5975218836e+00 -2.7669890685e+00 1.5975218836e+00 2.7669890685e+00 
42400 5.4284109841e+00 7.0410117748e-05 1.5975218836e+00 -2.7669890685e+00 1.5975218836e+00 2.7669890685e+00 
42500 5.4284109893e+00 7.0802552007e-05 1.5975218836e+00 -2.7669890685e+00 1.5975218836e+00 2.7669890685e+00 
42600 5.4284109942e+00 6.9254311727e-05 1.5975196676e+00 -2.7669852303e+00 1.5975196676e+00 2.7669852303e+00 
42700 5.4284109992e+00 6.9618573755e-05 1.5975196676e+00 -2.7669852303e+00 1.5975196676e+00 2.7669852303e+00 
42800 5.4284110041e+00 6.9975284741e-05 1.5975196676e+00 -2.7669852303e+00 1.5975196676e+00 2.7669852303e+00 
42900 5.4284110089e+00 7.0324482091e-05 1.5975196676e+00 -2.7669852303e+00 1.5975196676e+00 2.7669852303e+00 
43000 5.4284110137e+00 7.0666205338e-05 1.5975196676e+00 -2.7669852303e+00 1.5975196676e+00 2.7669852303e+00 
43100 5.4284110184e+00 7.1000496153e-05 1.5975196676e+00 -2.7669852303e+00 1.5975196676e+00 2.7669852303e+00 
43200 5.4284110227e+00 6.9388853632e-05 1.5975174453e+00 -2.7669813813e+00 1.5975174453e+00 2.7669813813e+00 
43300 5.4284110272e+00 6.9695286376e-05 1.5975174453e+00 -2.7669813813e+00 1.5975174453e+00 2.7669813813e+00 
43400 5.4284110316e+00 6.9994400158e-05 1.5975174453e+00 -2.7669813813e+00 1.5975174453e+00 2.7669813813e+00 
43500 5.4284110360e+00 7.0286268914e-05 1.5975174453e+00 -2.7669813813e+00 1.5975174453e+00 2.7669813813e+00 
43600 5.4284110402e+00 7.0570967534e-05 1.5975174453e+00 -2.7669813813e+00 1.5975174453e+00 2.7669813813e+00 
43700 5.4284110444e+00 7.0848571852e-05 1.5975174453e+00 -2.7669813813e+00 1.5975174453e+00 2.7669813813e+00 
43800 5.4284110483e+00 6.9184751050e-05 1.5975152279e+00 -2.7669775406e+00 1.5975152279e+00 2.7669775406e+00 
43900 5.4284110523e+00 6.9435299632e-05 1.5975152279e+00 -2.7669775406e+00 1.5975152279e+00 2.7669775406e+00 
44000 5.4284110563e+00 6.9678962529e-05 1.5975152279e+00 -2.7669775406e+00 1.5975152279e+00 2.7669775406e+00 
44100 5.4284110602e+00 6.9915842835e-05 1.5975152279e+00 -2.7669775406e+00 1.5975152279e+00 2.7669775406e+00 
44200 5.4284110640e+00 7.0146043337e-05 1.5975152279e+00 -2.7669775406e+00 1.5975152279e+00 2.7669775406e+00 
44300 5.4284110678e+00 7.0369666498e-05 1.5975152279e+00 -2.7669775406e+00 1.5975152279e+00 2.7669775406e+00 
44400 5.4284110714e+00 7.0586814439e-05 1.5975152279e+00 -2.7669775406e+00 1.5975152279e+00 2.7669775406e+00 
44500 5.4284110750e+00 7.0797588925e-05 1.5975152279e+00 -2.7669775406e+00 1.5975152279e+00 2.7669775406e+00 
44600 5.4284110784e+00 6.9069062931e-05 1.5975130120e+00 -2.7669737026e+00 1.5975130120e+00 2.7669737026e+00 
44700 5.4284110819e+00 6.9254305864e-05 1.5975130120e+00 -2.7669737026e+00 1.5975130120e+00 2.7669737026e+00 
44800 5.4284110853e+00 6.9433453913e-05 1.5975130120e+00 -2.7669737026e+00 1.5975130120e+00 2.7669737026e+00 
44900 5.4284110887e+00 6.9606630877e-05 1.5975130120e+00 -2.7669737026e+00 1.5975130120e+00 2.7669737026e+00 
45000 5.4284110920e+00 6.9773958958e-05 1.5975130120e+00 -2.7669737026e+00 1.5975130120e+00 2.7669737026e+00 
45100 5.4284110952e+00 6.9935558752e-05 1.5975130120e+00 -2.7669737026e+00 1.5975130120e+00 2.7669737026e+00 
45200 5.4284110984e+00 7.0091549246e-05 1.5975130120e+00 -2.7669737026e+00 1.5975130120e+00 2.7669737026e+00 
45300 5.4284111015e+00 7.0242047814e-05 1.5975130120e+00 -2.7669737026e+00 1.5975130120e+00 2.7669737026e+00 
45400 5.4284111046e+00 7.0387170208e-05 1.5975130120e+00 -2.7669737026e+00 1.5975130120e+00 2.7669737026e+00 
45500 5.4284111076e+00 7.0527030561e-05 1.5975130120e+00 -2.7669737026e+00 1.5975130120e+00 2.7669737026e+00 
45600 5.4284111106e+00 7.0661741377e-05 1.5975130120e+00 -2.7669737026e+00 1.5975130120e+00 2.7669737026e+00 
45700 5.4284111135e+00 7.0791413539e-05 1.5975130120e+00 -2.7669737026e+00 1.5975130120e+00 2.7669737026e+00 
45800 5.4284111162e+00 6.8983279880e-05 1.5975107963e+00 -2.7669698649e+00 1.5975107963e+00 2.7669698649e+00 
45900 5.4284111190e+00 6.9090114293e-05 1.5975107963e+00 -2.7669698649e+00 1.5975107963e+00 2.7669698649e+00 
46000 5.4284111218e+00 6.9192208545e-05 1.5975107963e+00 -2.7669698649e+00 1.5975107963e+00 2.7669698649e+00 
46100 5.4284111245e+00 6.9289690698e-05 1.5975107963e+00 -2.7669698649e+00 1.5975107963e+00 2.7669698649e+00 
46200 5.4284111271e+00 6.9382686059e-05 1.5975107963e+00 -2.7669698649e+00 1.5975107963e+00 2.7669698649e+00 
46300 5.4284111298e+00 6.9471317211e-05 1.5975107963e+00 -2.7669698649e+00 1.5975107963e+00 2.7669698649e+00 
46400 5.4284111323e+00 6.9555704018e-05 1.5975107963e+00 -2.7669698649e+00 1.5975107963e+00 2.7669698649e+00 
46500 5.4284111349e+00 6.9635963667e-05 1.5975107963e+00 -2.7669698649e+00 1.5975107963e+00 2.7669698649e+00 
46600 5.4284111373e+00 6.9712210676e-05 1.5975107963e+00 -2.7669698649e+00 1.5975107963e+00 2.7669698649e+00 
46700 5.4284111398e+00 6.9784556933e-05 1.5975107963e+00 -2.7669698649e+00 1.5975107963e+00 2.7669698649e+00 
46800 5.4284111422e+00 6.9853111719e-05 1.5975107963e+00 -2.7669698649e+00 1.5975107963e+00 2.7669698649e+00 
46900 5.4284111445e+00 6.9917981739e-05 1.5975107963e+00 -2.7669698649e+00 1.5975107963e+00 2.7669698649e+00 
47000 5.4284111468e+00 6.9979271154e-05 1.5975107963e+00 -2.7669698649e+00 1.5975107963e+00 2.7669698649e+00 
47100 5.4284111491e+00 7.0037081614e-05 1.5975107963e+00 -2.7669698649e+00 1.5975107963e+00 2.7669698649e+00 
47200 5.4284111514e+00 7.0091512294e-05 1.5975107963e+00 -2.7669698649e+00 1.5975107963e+00 2.7669698649e+00 
47300 5.4284111535e+00 7.0142659922e-05 1.5975107963e+00 -2.7669698649e+00 1.5975107963e+00 2.7669698649e+00 
47400 5.4284111557e+00 7.0190618824e-05 1.5975107963e+00 -2.7669698649e+00 1.5975107963e+00 2.7669698649e+00 
47500 5.4284111578e+00 7.0235480957e-05 1.5975107963e+00 -2.7669698649e+00 1.5975107963e+00 2.7669698649e+00 
47600 5.4284111599e+00 7.0277335947e-05 1.5975107963e+00 -2.7669698649e+00 1.5975107963e+00 2.7669698649e+00 
47700 5.4284111620e+00 7.0316271128e-05 1.5975107963e+00 -2.7669698649e+00 1.5975107963e+00 2.7669698649e+00 
47800 5.4284111640e+00 7.0352371582e-05 1.5975107963e+00 -2.7669698649e+00 1.5975107963e+00 2.7669698649e+00 
47900 5.4284111659e+00 7.0385720179e-05 1.5975107963e+00 -2.7669698649e+00 1.5975107963e+00 2.7669698649e+00 
48000 5.4284111679e+00 7.0416397617e-05 1.5975107963e+00 -2.7669698649e+00 1.5975107963e+00 2.7669698649e+00 
48100 5.4284111698e+00 7.0444482464e-05 1.5975107963e+00 -2.7669698649e+00 1.5975107963e+00 2.7669698649e+00 
48200 5.4284111717e+00 7.0470051199e-05 1.5975107963e+00 -2.7669698649e+00 1.5975107963e+00 2.7669698649e+00 
48300 5.4284111735e+00 7.0493178253e-05 1.5975107963e+00 -2.7669698649e+00 1.5975107963e+00 2.7669698649e+00 
48400 5.4284111753e+00 7.0513936051e-05 1.5975107963e+00 -2.7669698649e+00 1.5975107963e+00 2.7669698649e+00 
48500 5.4284111771e+00 7.0532395056e-05 1.5975107963e+00 -2.7669698649e+00 1.5975107963e+00 2.7669698649e+00 
48600 5.4284111789e+00 7.0548623808e-05 1.5975107963e+00 -2.7669698649e+00 1.5975107963e+00 2.7669698649e+00 
48700 5.4284111806e+00 7.0562688969e-05 1.5975107963e+00 -2.7669698649e+00 1.5975107963e+00 2.7669698649e+00 
48800 5.4284111823e+00 7.0574655363e-05 1.5975107963e+00 -2.7669698649e+00 1.5975107963e+00 2.7669698649e+00 
48900 5.4284111839e+00 7.0584586021e-05 1.5975107963e+00 -2.7669698649e+00 1.5975107963e+00 2.7669698649e+00 
49000 5.4284111856e+00 7.0592542221e-05 1.5975107963e+00 -2.7669698649e+00 1.5975107963e+00 2.7669698649e+00 
49100 5.4284111872e+00 7.0598583528e-05 1.5975107963e+00 -2.7669698649e+00 1.5975107963e+00 2.7669698649e+00 
49200 5.4284111888e+00 7.0602767839e-05 1.5975107963e+00 -2.7669698649e+00 1.5975107963e+00 2.7669698649e+00 
49300 5.4284111903e+00 7.0605151422e-05 1.5975107963e+00 -2.7669698649e+00 1.5975107963e+00 2.7669698649e+00 
49400 5.4284111918e+00 7.0605788959e-05 1.5975107963e+00 -2.7669698649e+00 1.5975107963e+00 2.7669698649e+00 
49500 5.4284111933e+00 7.0604733585e-05 1.5975107963e+00 -2.7669698649e+00 1.5975107963e+00 2.7669698649e+00 
49600 5.4284111948e+00 7.0602036927e-05 1.5975107963e+00 -2.7669698649e+00 1.5975107963e+00 2.7669698649e+00 
49700 5.4284111963e+00 7.0597749149e-05 1.5975107963e+00 -2.7669698649e+00 1.5975107963e+00 2.7669698649e+00 
49800 5.4284111977e+00 7.0591918984e-05 1.5975107963e+00 -2.7669698649e+00 1.5975107963e+00 2.7669698649e+00 
49900 5.4284111991e+00 7.0584593779e-05 1.5975107963e+00 -2.7669698649e+00 1.5975107963e+00 2.7669698649e+00 
50000 5.4284112005e+00 7.0575819529e-05 1.5975107963e+00 -2.7669698649e+00 1.5975107963e+00 2.7669698649e+00 
50100 5.4284112018e+00 7.0565640918e-05 1.5975107963e+00 -2.7669698649e+00 1.5975107963e+00 2.7669698649e+00 
50200 5.4284112031e+00 7.0554101356e-05 1.5975107963e+00 -2.7669698649e+00 1.5975107963e+00 2.7669698649e+00 
50300 5.4284112045e+00 7.0541243012e-05 1.5975107963e+00 -2.7669698649e+00 1.5975107963e+00 2.7669698649e+00 
50400 5.4284112057e+00 7.0527106853e-05 1.5975107963e+00 -2.7669698649e+00 1.5975107963e+00 2.7669698649e+00 
50500 5.4284112070e+00 7.0511732679e-05 1.5975107963e+00 -2.7669698649e+00 1.5975107963e+00 2.7669698649e+00 
50600 5.4284112083e+00 7.0495159159e-05 1.5975107963e+00 -2.7669698649e+00 1.5975107963e+00 2.7669698649e+00 
50700 5.4284112095e+00 7.0477423861e-05 1.5975107963e+00 -2.7669698649e+00 1.5975107963e+00 2.7669698649e+00 
50800 5.4284112107e+00 7.0458563288e-05 1.5975107963e+00 -2.7669698649e+00 1.5975107963e+00 2.7669698649e+00 
50900 5.4284112119e+00 7.0438612912e-05 1.5975107963e+00 -2.7669698649e+00 1.5975107963e+00 2.7669698649e+00 
51000 5.4284112130e+00 7.0417607205e-05 1.5975107963e+00 -2.7669698649e+00 1.5975107963e+00 2.7669698649e+00 
51100 5.4284112142e+00 7.0395579665e-05 1.5975107963e+00 -2.7669698649e+00 1.5975107963e+00 2.7669698649e+00 
51200 5.4284112153e+00 7.0372562858e-05 1.5975107963e+00 -2.7669698649e+00 1.5975107963e+00 2.7669698649e+00 
51300 5.4284112164e+00 7.0348588434e-05 1.5975107963e+00 -2.7669698649e+00 1.5975107963e+00 2.7669698649e+00 
51400 5.4284112175e+00 7.0323687168e-05 1.5975107963e+00 -2.7669698649e+00 1.5975107963e+00 2.7669698649e+00 
51500 5.4284112185e+00 7.0297888981e-05 1.5975107963e+00 -2.7669698649e+00 1.5975107963e+00 2.7669698649e+00 
51600 5.4284112196e+00 7.0271222970e-05 1.5975107963e+00 -2.7669698649e+00 1.5975107963e+00 2.7669698649e+00 
51700 5.4284112206e+00 7.0243717436e-05 1.5975107963e+00 -2.7669698649e+00 1.5975107963e+00 2.7669698649e+00 
51800 5.4284112216e+00 7.0215399909e-05 1.5975107963e+00 -2.7669698649e+00 1.5975107963e+00 2.7669698649e+00 
51900 5.4284112226e+00 7.0186297171e-05 1.5975107963e+00 -2.7669698649e+00 1.5975107963e+00 2.7669698649e+00 
52000 5.4284112236e+00 7.0156435285e-05 1.5975107963e+00 -2.7669698649e+00 1.5975107963e+00 2.7669698649e+00 
52100 5.4284112246e+00 7.0125839618e-05 1.5975107963e+00 -2.7669698649e+00 1.5975107963e+00 2.7669698649e+00 
52200 5.4284112255e+00 7.0094534863e-05 1.5975107963e+00 -2.7669698649e+00 1.5975107963e+00 2.7669698649e+00 
52300 5.4284112265e+00 7.0062545060e-05 1.5975107963e+00 -2.7669698649e+00 1.5975107963e+00 2.7669698649e+00 
52400 5.4284112274e+00 7.0029893622e-05 1.5975107963e+00 -2.7669698649e+00 1.5975107963e+00 2.7669698649e+00 
52500 5.4284112283e+00 6.9996603354e-05 1.5975107963e+00 -2.7669698649e+00 1.5975107963e+00 2.7669698649e+00 
52600 5.4284112292e+00 6.9962696472e-05 1.5975107963e+00 -2.7669698649e+00 1.5975107963e+00 2.7669698649e+00 
52700 5.4284112301e+00 6.9928194626e-05 1.5975107963e+00 -2.7669698649e+00 1.5975107963e+00 2.7669698649e+00 
52800 5.4284112309e+00 6.9893118914e-05 1.5975107963e+00 -2.7669698649e+00 1.5975107963e+00 2.7669698649e+00 
52900 5.4284112318e+00 6.9857489912e-05 1.5975107963e+00 -2.7669698649e+00 1.5975107963e+00 2.7669698649e+00 
53000 5.4284112326e+00 6.9821327676e-05 1.5975107963e+00 -2.7669698649e+00 1.5975107963e+00 2.7669698649e+00 
53100 5.4284112334e+00 6.9784651770e-05 1.5975107963e+00 -2.7669698649e+00 1.5975107963e+00 2.7669698649e+00 
53200 5.4284112342e+00 6.9747481281e-05 1.5975107963e+00 -2.7669698649e+00 1.5975107963e+00 2.7669698649e+00 
53300 5.4284112350e+00 6.9709834832e-05 1.5975107963e+00 -2.7669698649e+00 1.5975107963e+00 2.7669698649e+00 
53400 5.4284112358e+00 6.9671730599e-05 1.5975107963e+00 -2.7669698649e+00 1.5975107963e+00 2.7669698649e+00 
53500 5.4284112366e+00 6.9633186329e-05 1.5975107963e+00 -2.7669698649e+00 1.5975107963e+00 2.7669698649e+00 
53600 5.4284112373e+00 6.9594219348e-05 1.5975107963e+00 -2.7669698649e+00 1.5975107963e+00 2.7669698649e+00 
53700 5.4284112381e+00 6.9554846579e-05 1.5975107963e+00 -2.7669698649e+00 1.5975107963e+00 2.7669698649e+00 
53800 5.4284112388e+00 6.9515084555e-05 1.5975107963e+00 -2.7669698649e+00 1.5975107963e+00 2.7669698649e+00 
53900 5.4284112395e+00 6.9474949428e-05 1.5975107963e+00 -2.7669698649e+00 1.5975107963e+00 2.7669698649e+00 
54000 5.4284112402e+00 6.9434456987e-05 1.5975107963e+00 -2.7669698649e+00 1.5975107963e+00 2.7669698649e+00 
54100 5.4284112409e+00 6.9393622666e-05 1.5975107963e+00 -2.7669698649e+00 1.5975107963e+00 2.7669698649e+00 
54200 5.4284112416e+00 6.9352461555e-05 1.5975107963e+00 -2.7669698649e+00 1.5975107963e+00 2.7669698649e+00 
54300 5.4284112423e+00 6.9310988409e-05 1.5975107963e+00 -2.7669698649e+00 1.5975107963e+00 2.7669698649e+00 
54400 5.4284112429e+00 6.9269217666e-05 1.5975107963e+00 -2.7669698649e+00 1.5975107963e+00 2.7669698649e+00 
54500 5.4284112436e+00 6.9227163444e-05 1.5975107963e+00 -2.7669698649e+00 1.5975107963e+00 2.7669698649e+00 
54600 5.4284112442e+00 6.9184839562e-05 1.5975107963e+00 -2.7669698649e+00 1.5975107963e+00 2.7669698649e+00 
54700 5.4284112449e+00 6.9142259545e-05 1.5975107963e+00 -2.7669698649e+00 1.5975107963e+00 2.7669698649e+00 
54800 5.4284112455e+00 6.9099436628e-05 1.5975107963e+00 -2.7669698649e+00 1.5975107963e+00 2.7669698649e+00 
54900 5.4284112461e+00 6.9056383771e-05 1.5975107963e+00 -2.7669698649e+00 1.5975107963e+00 2.7669698649e+00 
55000 5.4284112467e+00 6.9013113665e-05 1.5975107963e+00 -2.7669698649e+00 1.5975107963e+00 2.7669698649e+00 
55100 5.4284112473e+00 6.8969638733e-05 1.5975107963e+00 -2.7669698649e+00 1.5975107963e+00 2.7669698649e+00 
55200 5.4284112479e+00 6.8925971145e-05 1.5975107963e+00 -2.7669698649e+00 1.5975107963e+00 2.7669698649e+00 
55300 5.4284112484e+00 6.8882122822e-05 1.5975107963e+00 -2.7669698649e+00 1.5975107963e+00 2.7669698649e+00 
55400 5.4284112490e+00 6.8838105442e-05 1.5975107963e+00 -2.7669698649e+00 1.5975107963e+00 2.7669698649e+00 
55500 5.4284112496e+00 6.8793930445e-05 1.5975107963e+00 -2.7669698649e+00 1.5975107963e+00 2.7669698649e+00 
55600 5.4284112501e+00 6.8749609041e-05 1.5975107963e+00 -2.7669698649e+00 1.5975107963e+00 2.7669698649e+00 
55700 5.4284112506e+00 6.8705152212e-05 1.5975107963e+00 -2.7669698649e+00 1.5975107963e+00 2.7669698649e+00 
55800 5.4284112512e+00 6.8660570722e-05 1.5975107963e+00 -2.7669698649e+00 1.5975107963e+00 2.7669698649e+00 
55900 5.4284112517e+00 6.8615875117e-05 1.5975107963e+00 -2.7669698649e+00 1.5975107963e+00 2.7669698649e+00 
56000 5.4284112522e+00 6.8571075737e-05 1.5975107963e+00 -2.7669698649e+00 1.5975107963e+00 2.7669698649e+00 
56100 5.4284112527e+00 6.8526182708e-05 1.5975107963e+00 -2.7669698649e+00 1.5975107963e+00 2.7669698649e+00 
56200 5.4284112532e+00 6.8481205960e-05 1.5975107963e+00 -2.7669698649e+00 1.5975107963e+00 2.7669698649e+00 
56300 5.4284112537e+00 6.8436155222e-05 1.5975107963e+00 -2.7669698649e+00 1.5975107963e+00 2.7669698649e+00 
56400 5.4284112542e+00 6.8391040028e-05 1.5975107963e+00 -2.7669698649e+00 1.5975107963e+00 2.7669698649e+00 
56500 5.4284112546e+00 6.8345869724e-05 1.5975107963e+00 -2.7669698649e+00 1.5975107963e+00 2.7669698649e+00 
56600 5.4284112551e+00 6.8300653466e-05 1.5975107963e+00 -2.7669698649e+00 1.5975107963e+00 2.7669698649e+00 
56700 5.4284112556e+00 6.8255400225e-05 1.5975107963e+00 -2.7669698649e+00 1.5975107963e+00 2.7669698649e+00 
56800 5.4284112560e+00 6.8210118794e-05 1.5975107963e+00 -2.7669698649e+00 1.5975107963e+00 2.7669698649e+00 
56900 5.4284112565e+00 6.8164817787e-05 1.5975107963e+00 -2.7669698649e+00 1.5975107963e+00 2.7669698649e+00 
57000 5.4284112569e+00 6.8119505639e-05 1.5975107963e+00 -2.7669698649e+00 1.5975107963e+00 2.7669698649e+00 
57100 5.4284112573e+00 6.8074190618e-05 1.5975107963e+00 -2.7669698649e+00 1.5975107963e+00 2.7669698649e+00 
57200 5.4284112577e+00 6.8028880818e-05 1.5975107963e+00 -2.7669698649e+00 1.5975107963e+00 2.7669698649e+00 
57300 5.4284112582e+00 6.7983584166e-05 1.5975107963e+00 -2.7669698649e+00 1.5975107963e+00 2.7669698649e+00 
57400 5.4284112586e+00 6.7938308426e-05 1.5975107963e+00 -2.7669698649e+00 1.5975107963e+00 2.7669698649e+00 
57500 5.4284112590e+00 6.7893061194e-05 1.5975107963e+00 -2.7669698649e+00 1.5975107963e+00 2.7669698649e+00 
57600 5.4284112594e+00 6.7847849908e-05 1.5975107963e+00 -2.7669698649e+00 1.5975107963e+00 2.7669698649e+00 
57700 5.4284112598e+00 6.7802681847e-05 1.5975107963e+00 -2.7669698649e+00 1.5975107963e+00 2.7669698649e+00 
57800 5.4284112601e+00 6.7757564133e-05 1.5975107963e+00 -2.7669698649e+00 1.5975107963e+00 2.7669698649e+00 
57900 5.4284112605e+00 6.7712503730e-05 1.5975107963e+00 -2.7669698649e+00 1.5975107963e+00 2.7669698649e+00 
58000 5.4284112609e+00 6.7667507452e-05 1.5975107963e+00 -2.7669698649e+00 1.5975107963e+00 2.7669698649e+00 
58100 5.4284112613e+00 6.7622581958e-05 1.5975107963e+00 -2.7669698649e+00 1.5975107963e+00 2.7669698649e+00 
58200 5.4284112616e+00 6.7577733760e-05 1.5975107963e+00 -2.7669698649e+00 1.5975107963e+00 2.7669698649e+00 
58300 5.4284112620e+00 6.7532969217e-05 1.5975107963e+00 -2.7669698649e+00 1.5975107963e+00 2.7669698649e+00 
58400 5.4284112623e+00 6.7488294547e-05 1.5975107963e+00 -2.7669698649e+00 1.5975107963e+00 2.7669698649e+00 
58500 5.4284112627e+00 6.7443715816e-05 1.5975107963e+00 -2.7669698649e+00 1.5975107963e+00 2.7669698649e+00 
58600 5.4284112630e+00 6.7399238952e-05 1.5975107963e+00 -2.7669698649e+00 1.5975107963e+00 2.7669698649e+00 
58700 5.4284112633e+00 6.7354869736e-05 1.5975107963e+00 -2.7669698649e+00 1.5975107963e+00 2.7669698649e+00 
58800 5.4284112637e+00 6.7310613810e-05 1.5975107963e+00 -2.7669698649e+00 1.5975107963e+00 2.7669698649e+00 
58900 5.4284112640e+00 6.7266476675e-05 1.5975107963e+00 -2.7669698649e+00 1.5975107963e+00 2.7669698649e+00 
59000 5.4284112643e+00 6.7222463696e-05 1.5975107963e+00 -2.7669698649e+00 1.5975107963e+00 2.7669698649e+00 
59100 5.4284112646e+00 6.7178580098e-05 1.5975107963e+00 -2.7669698649e+00 1.5975107963e+00 2.7669698649e+00 
59200 5.4284112649e+00 6.7134830971e-05 1.5975107963e+00 -2.7669698649e+00 1.5975107963e+00 2.7669698649e+00 
59300 5.4284112652e+00 6.7091221274e-05 1.5975107963e+00 -2.7669698649e+00 1.5975107963e+00 2.7669698649e+00 
59400 5.4284112655e+00 6.7047755827e-05 1.5975107963e+00 -2.7669698649e+00 1.5975107963e+00 2.7669698649e+00 
59500 5.4284112658e+00 6.7004439324e-05 1.5975107963e+00 -2.7669698649e+00 1.5975107963e+00 2.7669698649e+00 
59600 5.4284112661e+00 6.6961276325e-05 1.5975107963e+00 -2.7669698649e+00 1.5975107963e+00 2.7669698649e+00 
59700 5.4284112664e+00 6.6918271261e-05 1.5975107963e+00 -2.7669698649e+00 1.5975107963e+00 2.7669698649e+00 
59800 5.4284112667e+00 6.6875428437e-05 1.5975107963e+00 -2.7669698649e+00 1.5975107963e+00 2.7669698649e+00 
59900 5.4284112670e+00 6.6832752030e-05 1.5975107963e+00 -2.7669698649e+00 1.5975107963e+00 2.7669698649e+00 
60000 5.4284112672e+00 6.6790246093e-05 1.5975107963e+00 -2.7669698649e+00 1.5975107963e+00 2.7669698649e+00 
60100 5.4284112675e+00 6.6747914553e-05 1.5975107963e+00 -2.7669698649e+00 1.5975107963e+00 2.7669698649e+00 
60200 5.4284112678e+00 6.6705761217e-05 1.5975107963e+00 -2.7669698649e+00 1.5975107963e+00 2.7669698649e+00 
60300 5.4284112680e+00 6.6663789767e-05 1.5975107963e+00 -2.7669698649e+00 1.5975107963e+00 2.7669698649e+00 
60400 5.4284112683e+00 6.6622003769e-05 1.5975107963e+00 -2.7669698649e+00 1.5975107963e+00 2.7669698649e+00 
60500 5.4284112685e+00 6.6580406667e-05 1.5975107963e+00 -2.7669698649e+00 1.5975107963e+00 2.7669698649e+00 
60600 5.4284112688e+00 6.6539001790e-05 1.5975107963e+00 -2.7669698649e+00 1.5975107963e+00 2.7669698649e+00 
60700 5.4284112690e+00 6.6497792351e-05 1.5975107963e+00 -2.7669698649e+00 1.5975107963e+00 2.7669698649e+00 
60800 5.4284112693e+00 6.6456781446e-05 1.5975107963e+00 -2.7669698649e+00 1.5975107963e+00 2.7669698649e+00 
60900 5.4284112695e+00 6.6415972059e-05 1.5975107963e+00 -2.7669698649e+00 1.5975107963e+00 2.7669698649e+00 
61000 5.4284112697e+00 6.6375367064e-05 1.5975107963e+00 -2.7669698649e+00 1.5975107963e+00 2.7669698649e+00 
61100 5.4284112700e+00 6.6334969222e-05 1.5975107963e+00 -2.7669698649e+00 1.5975107963e+00 2.7669698649e+00 
61200 5.4284112702e+00 6.6294781187e-05 1.5975107963e+00 -2.7669698649e+00 1.5975107963e+00 2.7669698649e+00 
61300 5.4284112704e+00 6.6254805501e-05 1.5975107963e+00 -2.7669698649e+00 1.5975107963e+00 2.7669698649e+00 
61400 5.4284112706e+00 6.6215044607e-05 1.5975107963e+00 -2.7669698649e+00 1.5975107963e+00 2.7669698649e+00 
61500 5.4284112709e+00 6.6175500835e-05 1.5975107963e+00 -2.7669698649e+00 1.5975107963e+00 2.7669698649e+00 
61600 5.4284112711e+00 6.6136176420e-05 1.5975107963e+00 -2.7669698649e+00 1.5975107963e+00 2.7669698649e+00 
61700 5.4284112713e+00 6.6097073489e-05 1.5975107963e+00 -2.7669698649e+00 1.5975107963e+00 2.7669698649e+00 
61800 5.4284112715e+00 6.6058194071e-05 1.5975107963e+00 -2.7669698649e+00 1.5975107963e+00 2.7669698649e+00 
61900 5.4284112717e+00 6.6019540096e-05 1.5975107963e+00 -2.7669698649e+00 1.5975107963e+00 2.7669698649e+00 
62000 5.4284112719e+00 6.5981113397e-05 1.5975107963e+00 -2.7669698649e+00 1.5975107963e+00 2.7669698649e+00 
62100 5.4284112721e+00 6.5942915709e-05 1.5975107963e+00 -2.7669698649e+00 1.5975107963e+00 2.7669698649e+00 
62200 5.4284112723e+00 6.5904948677e-05 1.5975107963e+00 -2.7669698649e+00 1.5975107963e+00 2.7669698649e+00 
62300 5.4284112725e+00 6.5867213848e-05 1.5975107963e+00 -2.7669698649e+00 1.5975107963e+00 2.7669698649e+00 
62400 5.4284112727e+00 6.5829712682e-05 1.5975107963e+00 -2.7669698649e+00 1.5975107963e+00 2.7669698649e+00 
62500 5.4284112728e+00 6.5792446547e-05 1.5975107963e+00 -2.7669698649e+00 1.5975107963e+00 2.7669698649e+00 
62600 5.4284112730e+00 6.5755416723e-05 1.5975107963e+00 -2.7669698649e+00 1.5975107963e+00 2.7669698649e+00 
62700 5.4284112732e+00 6.5718624403e-05 1.5975107963e+00 -2.7669698649e+00 1.5975107963e+00 2.7669698649e+00 
62800 5.4284112734e+00 6.5682070696e-05 1.5975107963e+00 -2.7669698649e+00 1.5975107963e+00 2.7669698649e+00 
62900 5.4284112736e+00 6.5645756628e-05 1.5975107963e+00 -2.7669698649e+00 1.5975107963e+00 2.7669698649e+00 
63000 5.4284112737e+00 6.5609683142e-05 1.5975107963e+00 -2.7669698649e+00 1.5975107963e+00 2.7669698649e+00 
63100 5.4284112739e+00 6.5573851100e-05 1.5975107963e+00 -2.7669698649e+00 1.5975107963e+00 2.7669698649e+00 
63200 5.4284112741e+00 6.5538261286e-05 1.5975107963e+00 -2.7669698649e+00 1.5975107963e+00 2.7669698649e+00 
63300 5.4284112742e+00 6.5502914408e-05 1.5975107963e+00 -2.7669698649e+00 1.5975107963e+00 2.7669698649e+00 
63400 5.4284112744e+00 6.5467811096e-05 1.5975107963e+00 -2.7669698649e+00 1.5975107963e+00 2.7669698649e+00 
63500 5.4284112745e+00 6.5432951908e-05 1.5975107963e+00 -2.7669698649e+00 1.5975107963e+00 2.7669698649e+00 
63600 5.4284112747e+00 6.5398337327e-05 1.5975107963e+00 -2.7669698649e+00 1.5975107963e+00 2.7669698649e+00 
63700 5.4284112749e+00 6.5363967769e-05 1.5975107963e+00 -2.7669698649e+00 1.5975107963e+00 2.7669698649e+00 
63800 5.4284112750e+00 6.5329843575e-05 1.5975107963e+00 -2.7669698649e+00 1.5975107963e+00 2.7669698649e+00 
63900 5.4284112752e+00 6.5295965024e-05 1.5975107963e+00 -2.7669698649e+00 1.5975107963e+00 2.7669698649e+00 
64000 5.4284112753e+00 6.5262332326e-05 1.5975107963e+00 -2.7669698649e+00 1.5975107963e+00 2.7669698649e+00 
64100 5.4284112755e+00 6.5228945625e-05 1.5975107963e+00 -2.7669698649e+00 1.5975107963e+00 2.7669698649e+00 
64200 5.4284112756e+00 6.5195805004e-05 1.5975107963e+00 -2.7669698649e+00 1.5975107963e+00 2.7669698649e+00 
64300 5.4284112757e+00 6.5162910485e-05 1.5975107963e+00 -2.7669698649e+00 1.5975107963e+00 2.7669698649e+00 
64400 5.4284112759e+00 6.5130262026e-05 1.5975107963e+00 -2.7669698649e+00 1.5975107963e+00 2.7669698649e+00 
64500 5.4284112760e+00 6.5097859531e-05 1.5975107963e+00 -2.7669698649e+00 1.5975107963e+00 2.7669698649e+00 
64600 5.4284112761e+00 6.5065702844e-05 1.5975107963e+00 -2.7669698649e+00 1.5975107963e+00 2.7669698649e+00 
64700 5.4284112763e+00 6.5033791754e-05 1.5975107963e+00 -2.7669698649e+00 1.5975107963e+00 2.7669698649e+00 
64800 5.4284112764e+00 6.5002125998e-05 1.5975107963e+00 -2.7669698649e+00 1.5975107963e+00 2.7669698649e+00 
64900 5.4284112765e+00 6.4970705257e-05 1.5975107963e+00 -2.7669698649e+00 1.5975107963e+00 2.7669698649e+00 
65000 5.4284112767e+00 6.4939529163e-05 1.5975107963e+00 -2.7669698649e+00 1.5975107963e+00 2.7669698649e+00 
65100 5.4284112768e+00 6.4908597299e-05 1.5975107963e+00 -2.7669698649e+00 1.5975107963e+00 2.7669698649e+00 
65200 5.4284112769e+00 6.4877909197e-05 1.5975107963e+00 -2.7669698649e+00 1.5975107963e+00 2.7669698649e+00 
65300 5.4284112770e+00 6.4847464345e-05 1.5975107963e+00 -2.7669698649e+00 1.5975107963e+00 2.7669698649e+00 
65400 5.4284112772e+00 6.4817262183e-05 1.5975107963e+00 -2.7669698649e+00 1.5975107963e+00 2.7669698649e+00 
65500 5.4284112773e+00 6.4787302110e-05 1.5975107963e+00 -2.7669698649e+00 1.5975107963e+00 2.7669698649e+00 
65600 5.4284112774e+00 6.4757583480e-05 1.5975107963e+00 -2.7669698649e+00 1.5975107963e+00 2.7669698649e+00 
65700 5.4284112775e+00 6.4728105607e-05 1.5975107963e+00 -2.7669698649e+00 1.5975107963e+00 2.7669698649e+00 
65800 5.4284112776e+00 6.4698867765e-05 1.5975107963e+00 -2.7669698649e+00 1.5975107963e+00 2.7669698649e+00 
65900 5.4284112777e+00 6.4669869188e-05 1.5975107963e+00 -2.7669698649e+00 1.5975107963e+00 2.7669698649e+00 
66000 5.4284112778e+00 6.4641109075e-05 1.5975107963e+00 -2.7669698649e+00 1.5975107963e+00 2.7669698649e+00 
66100 5.4284112779e+00 6.4612586588e-05 1.5975107963e+00 -2.7669698649e+00 1.5975107963e+00 2.7669698649e+00 
66200 5.4284112781e+00 6.4584300852e-05 1.5975107963e+00 -2.7669698649e+00 1.5975107963e+00 2.7669698649e+00 
66300 5.4284112782e+00 6.4556250963e-05 1.5975107963e+00 -2.7669698649e+00 1.5975107963e+00 2.7669698649e+00 
66400 5.4284112783e+00 6.4528435981e-05 1.5975107963e+00 -2.7669698649e+00 1.5975107963e+00 2.7669698649e+00 
66500 5.4284112784e+00 6.4500854938e-05 1.5975107963e+00 -2.7669698649e+00 1.5975107963e+00 2.7669698649e+00 
66600 5.4284112785e+00 6.4473506835e-05 1.5975107963e+00 -2.7669698649e+00 1.5975107963e+00 2.7669698649e+00 
66700 5.4284112786e+00 6.4446390642e-05 1.5975107963e+00 -2.7669698649e+00 1.5975107963e+00 2.7669698649e+00 
66800 5.4284112787e+00 6.4419505304e-05 1.5975107963e+00 -2.7669698649e+00 1.5975107963e+00 2.7669698649e+00 
66900 5.4284112788e+00 6.4392849742e-05 1.5975107963e+00 -2.7669698649e+00 1.5975107963e+00 2.7669698649e+00 
67000 5.4284112788e+00 6.4366422847e-05 1.5975107963e+00 -2.7669698649e+00 1.5975107963e+00 2.7669698649e+00 
67100 5.4284112789e+00 6.4340223488e-05 1.5975107963e+00 -2.7669698649e+00 1.5975107963e+00 2.7669698649e+00 
67200 5.4284112790e+00 6.4314250512e-05 1.5975107963e+00 -2.7669698649e+00 1.5975107963e+00 2.7669698649e+00 
67300 5.4284112791e+00 6.4288502743e-05 1.5975107963e+00 -2.7669698649e+00 1.5975107963e+00 2.7669698649e+00 
67400 5.4284112792e+00 6.4262978985e-05 1.5975107963e+00 -2.7669698649e+00 1.5975107963e+00 2.7669698649e+00 
67500 5.4284112793e+00 6.4237678020e-05 1.5975107963e+00 -2.7669698649e+00 1.5975107963e+00 2.7669698649e+00 
67600 5.4284112794e+00 6.4212598613e-05 1.5975107963e+00 -2.7669698649e+00 1.5975107963e+00 2.7669698649e+00 
67700 5.4284112795e+00 6.4187739512e-05 1.5975107963e+00 -2.7669698649e+00 1.5975107963e+00 2.7669698649e+00 
67800 5.4284112796e+00 6.4163099444e-05 1.5975107963e+00 -2.7669698649e+00 1.5975107963e+00 2.7669698649e+00 
67900 5.4284112796e+00 6.4138677123e-05 1.5975107963e+00 -2.7669698649e+00 1.5975107963e+00 2.7669698649e+00 
68000 5.4284112797e+00 6.4114471249e-05 1.5975107963e+00 -2.7669698649e+00 1.5975107963e+00 2.7669698649e+00 
68100 5.4284112798e+00 6.4090480504e-05 1.5975107963e+00 -2.7669698649e+00 1.5975107963e+00 2.7669698649e+00 
68200 5.4284112799e+00 6.4066703562e-05 1.5975107963e+00 -2.7669698649e+00 1.5975107963e+00 2.7669698649e+00 
68300 5.4284112800e+00 6.4043139077e-05 1.5975107963e+00 -2.7669698649e+00 1.5975107963e+00 2.7669698649e+00 
68400 5.4284112800e+00 6.4019785698e-05 1.5975107963e+00 -2.7669698649e+00 1.5975107963e+00 2.7669698649e+00 
68500 5.4284112801e+00 6.3996642060e-05 1.5975107963e+00 -2.7669698649e+00 1.5975107963e+00 2.7669698649e+00 
68600 5.4284112802e+00 6.3973706788e-05 1.5975107963e+00 -2.7669698649e+00 1.5975107963e+00 2.7669698649e+00 
68700 5.4284112803e+00 6.3950978498e-05 1.5975107963e+00 -2.7669698649e+00 1.5975107963e+00 2.7669698649e+00 
68800 5.4284112803e+00 6.3928455797e-05 1.5975107963e+00 -2.7669698649e+00 1.5975107963e+00 2.7669698649e+00 
68900 5.4284112804e+00 6.3906137287e-05 1.5975107963e+00 -2.7669698649e+00 1.5975107963e+00 2.7669698649e+00 
69000 5.4284112805e+00 6.3884021557e-05 1.5975107963e+00 -2.7669698649e+00 1.5975107963e+00 2.7669698649e+00 
69100 5.4284112805e+00 6.3862107194e-05 1.5975107963e+00 -2.7669698649e+00 1.5975107963e+00 2.7669698649e+00 
69200 5.4284112806e+00 6.3840392779e-05 1.5975107963e+00 -2.7669698649e+00 1.5975107963e+00 2.7669698649e+00 
69300 5.4284112807e+00 6.3818876885e-05 1.5975107963e+00 -2.7669698649e+00 1.5975107963e+00 2.7669698649e+00 
69400 5.4284112807e+00 6.3797558083e-05 1.5975107963e+00 -2.7669698649e+00 1.5975107963e+00 2.7669698649e+00 
69500 5.4284112808e+00 6.3776434939e-05 1.5975107963e+00 -2.7669698649e+00 1.5975107963e+00 2.7669698649e+00 
69600 5.4284112809e+00 6.3755506015e-05 1.5975107963e+00 -2.7669698649e+00 1.5975107963e+00 2.7669698649e+00 
69700 5.4284112809e+00 6.3734769871e-05 1.5975107963e+00 -2.7669698649e+00 1.5975107963e+00 2.7669698649e+00 
69800 5.4284112810e+00 6.3714225067e-05 1.5975107963e+00 -2.7669698649e+00 1.5975107963e+00 2.7669698649e+00 
69900 5.4284112811e+00 6.3693870156e-05 1.5975107963e+00 -2.7669698649e+00 1.5975107963e+00 2.7669698649e+00 
70000 5.4284112811e+00 6.3673703694e-05 1.5975107963e+00 -2.7669698649e+00 1.5975107963e+00 2.7669698649e+00 
70100 5.4284112812e+00 6.3653724234e-05 1.5975107963e+00 -2.7669698649e+00 1.5975107963e+00 2.7669698649e+00 
70200 5.4284112812e+00 6.3633930332e-05 1.5975107963e+00 -2.7669698649e+00 1.5975107963e+00 2.7669698649e+00 
70300 5.4284112813e+00 6.3614320539e-05 1.5975107963e+00 -2.7669698649e+00 1.5975107963e+00 2.7669698649e+00 
70400 5.4284112813e+00 6.3594893412e-05 1.5975107963e+00 -2.7669698649e+00 1.5975107963e+00 2.7669698649e+00 
70500 5.4284112814e+00 6.3575647505e-05 1.5975107963e+00 -2.7669698649e+00 1.5975107963e+00 2.7669698649e+00 
70600 5.4284112815e+00 6.3556581377e-05 1.5975107963e+00 -2.7669698649e+00 1.5975107963e+00 2.7669698649e+00 
70700 5.4284112815e+00 6.3537693585e-05 1.5975107963e+00 -2.7669698649e+00 1.5975107963e+00 2.7669698649e+00 
70800 5.4284112816e+00 6.3518982692e-05 1.5975107963e+00 -2.7669698649e+00 1.5975107963e+00 2.7669698649e+00 
70900 5.4284112816e+00 6.3500447262e-05 1.5975107963e+00 -2.7669698649e+00 1.5975107963e+00 2.7669698649e+00 
71000 5.4284112817e+00 6.3482085863e-05 1.5975107963e+00 -2.7669698649e+00 1.5975107963e+00 2.7669698649e+00 
71100 5.4284112817e+00 6.3463897063e-05 1.5975107963e+00 -2.7669698649e+00 1.5975107963e+00 2.7669698649e+00 
71200 5.4284112818e+00 6.3445879438e-05 1.5975107963e+00 -2.7669698649e+00 1.5975107963e+00 2.7669698649e+00 
71300 5.4284112818e+00 6.3428031566e-05 1.5975107963e+00 -2.7669698649e+00 1.5975107963e+00 2.7669698649e+00 
71400 5.4284112819e+00 6.3412046232e-05 1.5975107963e+00 -2.7669698649e+00 1.5975107963e+00 2.7669698649e+00 
71400 5.4284112819e+00 6.3412046232e-05 1.5975107963e+00 -2.7669698649e+00 1.5975107963e+00 2.7669698649e+00 
