# step Hamiltonian StressXX CellTensor1 CellTensor2 CellTensor3 CellTensor4 
0 6.3225578305e+00 4.6212410843e-02 2.5594246509e+00 -4.4330535334e+00 2.5594246509e+00 4.4330535334e+00 
100 6.3217359536e+00 5.4510608503e-02 2.5594246509e+00 -4.4330535334e+00 2.5594246509e+00 4.4330535334e+00 
200 6.3205966357e+00 6.2360725648e-02 2.5583598251e+00 -4.4312092011e+00 2.5583598251e+00 4.4312092011e+00 
300 6.3191753135e+00 6.9954410204e-02 2.5571411581e+00 -4.4290984080e+00 2.5571411581e+00 4.4290984080e+00 
400 6.3174771000e+00 7.7293204127e-02 2.5557734555e+00 -4.4267294776e+00 2.5557734555e+00 4.4267294776e+00 
500 6.3155094262e+00 8.4377309408e-02 2.5542614753e+00 -4.4241106511e+00 2.5542614753e+00 4.4241106511e+00 
600 6.3132819924e+00 9.1205983931e-02 2.5526099567e+00 -4.4212501369e+00 2.5526099567e+00 4.4212501369e+00 
700 6.3108066373e+00 9.7777848765e-02 2.5508236411e+00 -4.4181561476e+00 2.5508236411e+00 4.4181561476e+00 
800 6.3080971496e+00 1.0409111907e-01 2.5489072876e+00 -4.4148369260e+00 2.5489072876e+00 4.4148369260e+00 
900 6.3051690394e+00 1.1014377074e-01 2.5468656832e+00 -4.4113007633e+00 2.5468656832e+00 4.4113007633e+00 
1000 6.3020392875e+00 1.1593365488e-01 2.5447036498e+00 -4.4075560117e+00 2.5447036498e+00 4.4075560117e+00 
1100 6.2987260851e+00 1.2145857209e-01 2.5424260498e+00 -4.4036110927e+00 2.5424260498e+00 4.4036110927e+00 
1200 6.2952485768e+00 1.2671631775e-01 2.5400377888e+00 -4.3994745034e+00 2.5400377888e+00 4.3994745034e+00 
1300 6.2916266132e+00 1.3170470869e-01 2.5375438189e+00 -4.3951548208e+00 2.5375438189e+00 4.3951548208e+00 
1400 6.2878805214e+00 1.3642160005e-01 2.5349491398e+00 -4.3906607048e+00 2.5349491398e+00 4.3906607048e+00 
1500 6.2840308945e+00 1.4086489967e-01 2.5322588011e+00 -4.3860009013e+00 2.5322588011e+00 4.3860009013e+00 
1600 6.2800984032e+00 1.4503258545e-01 2.5294779028e+00 -4.3811842442e+00 2.5294779028e+00 4.3811842442e+00 
1700 6.2761036283e+00 1.4892272921e-01 2.5266115967e+00 -4.3762196564e+00 2.5266115967e+00 4.3762196564e+00 
1800 6.2720669128e+00 1.5253352911e-01 2.5236650863e+00 -4.3711161508e+00 2.5236650863e+00 4.3711161508e+00 
1900 6.2680082303e+00 1.5586335086e-01 2.5206436266e+00 -4.3658828290e+00 2.5206436266e+00 4.3658828290e+00 
2000 6.2639470684e+00 1.5891077709e-01 2.5175525222e+00 -4.3605288792e+00 2.5175525222e+00 4.3605288792e+00 
2100 6.2599023231e+00 1.6167466304e-01 2.5143971256e+00 -4.3550635720e+00 2.5143971256e+00 4.3550635720e+00 
2200 6.2558922012e+00 1.6415419625e-01 2.5111828330e+00 -4.3494962538e+00 2.5111828330e+00 4.3494962538e+00 
2300 6.2519341301e+00 1.6634895770e-01 2.5079150792e+00 -4.3438363383e+00 2.5079150792e+00 4.3438363383e+00 
2400 6.2480446715e+00 1.6825898154e-01 2.5045993321e+00 -4.3380932958e+00 2.5045993321e+00 4.3380932958e+00 
2500 6.2442394398e+00 1.6988481105e-01 2.5012410839e+00 -4.3322766394e+00 2.5012410839e+00 4.3322766394e+00 
2600 6.2405330233e+00 1.7122754847e-01 2.4978458431e+00 -4.3263959098e+00 2.4978458431e+00 4.3263959098e+00 
2700 6.2369389104e+00 1.7228889694e-01 2.4944191238e+00 -4.3204606577e+00 2.4944191238e+00 4.3204606577e+00 
2800 6.2334694191e+00 1.7307119323e-01 2.4909664344e+00 -4.3144804243e+00 2.4909664344e+00 4.3144804243e+00 
2900 6.2301356340e+00 1.7357743038e-01 2.4874932662e+00 -4.3084647205e+00 2.4874932662e+00 4.3084647205e+00 
3000 6.2269473492e+00 1.7381126989e-01 2.4840050799e+00 -4.3024230047e+00 2.4840050799e+00 4.3024230047e+00 
3100 6.2239130209e+00 1.7377704368e-01 2.4805072930e+00 -4.2963646600e+00 2.4805072930e+00 4.2963646600e+00 
3200 6.2210397303e+00 1.7347974601e-01 2.4770052657e+00 -4.2902989708e+00 2.4770052657e+00 4.2902989708e+00 
3300 6.2183331575e+00 1.7292501649e-01 2.4735042878e+00 -4.2842350992e+00 2.4735042878e+00 4.2842350992e+00 
3400 6.2157975693e+00 1.7211911479e-01 2.4700095651e+00 -4.2781820620e+00 2.4700095651e+00 4.2781820620e+00 
3500 6.2134358200e+00 1.7106888861e-01 2.4665262063e+00 -4.2721487075e+00 2.4665262063e+00 4.2721487075e+00 
3600 6.2112493666e+00 1.6978173575e-01 2.4630592100e+00 -4.2661436937e+00 2.4630592100e+00 4.2661436937e+00 
3700 6.2092382991e+00 1.6826556185e-01 2.4596134527e+00 -4.2601754670e+00 2.4596134527e+00 4.2601754670e+00 
3800 6.2074013841e+00 1.6652873482e-01 2.4561936774e+00 -4.2542522425e+00 2.4561936774e+00 4.2542522425e+00 
3900 6.2057361229e+00 1.6458003718e-01 2.4528044826e+00 -4.2483819849e+00 2.4528044826e+00 4.2483819849e+00 
4000 6.2042388218e+00 1.6242861734e-01 2.4494503126e+00 -4.2425723920e+00 2.4494503126e+00 4.2425723920e+00 
4100 6.2029046748e+00 1.6008394068e-01 2.4461354479e+00 -4.2368308780e+00 2.4461354479e+00 4.2368308780e+00 
4200 6.2017278559e+00 1.5755574122e-01 2.4428639978e+00 -4.2311645602e+00 2.4428639978e+00 4.2311645602e+00 
4300 6.2007016207e+00 1.5485397452e-01 2.4396398922e+00 -4.2255802455e+00 2.4396398922e+00 4.2255802455e+00 
4400 6.1998184144e+00 1.5198877233e-01 2.4364668756e+00 -4.2200844196e+00 2.4364668756e+00 4.2200844196e+00 
4500 6.1990699853e+00 1.4897039922e-01 2.4333485016e+00 -4.2146832372e+00 2.4333485016e+00 4.2146832372e+00 
4600 6.1984475020e+00 1.4580921165e-01 2.4302881276e+00 -4.2093825141e+00 2.4302881276e+00 4.2093825141e+00 
4700 6.1979416713e+00 1.4251561949e-01 2.4272889117e+00 -4.2041877197e+00 2.4272889117e+00 4.2041877197e+00 
4800 6.1975428568e+00 1.3910005010e-01 2.4243538087e+00 -4.1991039722e+00 2.4243538087e+00 4.1991039722e+00 
4900 6.1972411951e+00 1.3557291503e-01 2.4214855685e+00 -4.1941360344e+00 2.4214855685e+00 4.1941360344e+00 
5000 6.1970267088e+00 1.3194457921e-01 2.4186867336e+00 -4.1892883102e+00 2.4186867336e+00 4.1892883102e+00 
5100 6.1968894149e+00 1.2822533261e-01 2.4159596390e+00 -4.1845648438e+00 2.4159596390e+00 4.1845648438e+00 
5200 6.1968194272e+00 1.2442536429e-01 2.4133064110e+00 -4.1799693182e+00 2.4133064110e+00 4.1799693182e+00 
5300 6.1968070512e+00 1.2055473856e-01 2.4107289682e+00 -4.1755050561e+00 2.4107289682e+00 4.1755050561e+00 
5400 6.1968428721e+00 1.1662337331e-01 2.4082290215e+00 -4.1711750215e+00 2.4082290215e+00 4.1711750215e+00 
5500 6.1969178332e+00 1.1264102022e-01 2.4058080763e+00 -4.1669818214e+00 2.4058080763e+00 4.1669818214e+00 
5600 6.1970233062e+00 1.0861724673e-01 2.4034674337e+00 -4.1629277096e+00 2.4034674337e+00 4.1629277096e+00 
5700 6.1971511515e+00 1.0456141975e-01 2.4012081934e+00 -4.1590145905e+00 2.4012081934e+00 4.1590145905e+00 
5800 6.1972937693e+00 1.0048269077e-01 2.3990312559e+00 -4.1552440242e+00 2.3990312559e+00 4.1552440242e+00 
5900 6.1974441407e+00 9.6389982498e-02 2.3969373261e+00 -4.1516172314e+00 2.3969373261e+00 4.1516172314e+00 
6000 6.1975958604e+00 9.2291976718e-02 2.3949269170e+00 -4.1481351006e+00 2.3949269170e+00 4.1481351006e+00 
6100 6.1977431590e+00 8.8197103398e-02 2.3930003532e+00 -4.1447981942e+00 2.3930003532e+00 4.1447981942e+00 
6200 6.1978809171e+00 8.4113530913e-02 2.3911577756e+00 -4.1416067563e+00 2.3911577756e+00 4.1416067563e+00 
6300 6.1980046717e+00 8.0049157315e-02 2.3893991461e+00 -4.1385607206e+00 2.3893991461e+00 4.1385607206e+00 
6400 6.1981106132e+00 7.6011602612e-02 2.3877242523e+00 -4.1356597194e+00 2.3877242523e+00 4.1356597194e+00 
6500 6.1981955769e+00 7.2008201957e-02 2.3861327127e+00 -4.1329030921e+00 2.3861327127e+00 4.1329030921e+00 
6600 6.1982570267e+00 6.8045999748e-02 2.3846239826e+00 -4.1302898948e+00 2.3846239826e+00 4.1302898948e+00 
6700 6.1982930338e+00 6.4131744554e-02 2.3831973591e+00 -4.1278189104e+00 2.3831973591e+00 4.1278189104e+00 
6800 6.1983022491e+00 6.0271884851e-02 2.3818519878e+00 -4.1254886590e+00 2.3818519878e+00 4.1254886590e+00 
6900 6.1982838722e+00 5.6472565524e-02 2.3805868683e+00 -4.1232974078e+00 2.3805868683e+00 4.1232974078e+00 
7000 6.1982376163e+00 5.2739625105e-02 2.3794008609e+00 -4.1212431827e+00 2.3794008609e+00 4.1212431827e+00 
7100 6.1981636692e+00 4.9078593708e-02 2.3782926927e+00 -4.1193237790e+00 2.3782926927e+00 4.1193237790e+00 
7200 6.1980626531e+00 4.5494691631e-02 2.3772609643e+00 -4.1175367730e+00 2.3772609643e+00 4.1175367730e+00 
7300 6.1979355816e+00 4.1992828602e-02 2.3763041564e+00 -4.1158795332e+00 2.3763041564e+00 4.1158795332e+00 
7400 6.1977838159e+00 3.8577603614e-02 2.3754206368e+00 -4.1143492324e+00 2.3754206368e+00 4.1143492324e+00 
7500 6.1976090204e+00 3.5253305344e-02 2.3746086669e+00 -4.1129428591e+00 2.3746086669e+00 4.1129428591e+00 
7600 6.1974131181e+00 3.2023913095e-02 2.3738664084e+00 -4.1116572297e+00 2.3738664084e+00 4.1116572297e+00 
7700 6.1971982466e+00 2.8893098251e-02 2.3731919308e+00 -4.1104890002e+00 2.3731919308e+00 4.1104890002e+00 
7800 6.1969667144e+00 2.5864226189e-02 2.3725832176e+00 -4.1094346781e+00 2.3725832176e+00 4.1094346781e+00 
7900 6.1967209588e+00 2.2940358630e-02 2.3720381738e+00 -4.1084906345e+00 2.3720381738e+00 4.1084906345e+00 
8000 6.1964635058e+00 2.0124256383e-02 2.3715546323e+00 -4.1076531160e+00 2.3715546323e+00 4.1076531160e+00 
8100 6.1961969309e+00 1.7418382457e-02 2.3711303609e+00 -4.1069182564e+00 2.3711303609e+00 4.1069182564e+00 
8200 6.1959238229e+00 1.4824905499e-02 2.3707630691e+00 -4.1062820884e+00 2.3707630691e+00 4.1062820884e+00 
8300 6.1956467496e+00 1.2345703532e-02 2.3704504149e+00 -4.1057405555e+00 2.3704504149e+00 4.1057405555e+00 
8400 6.1953682263e+00 9.9823679701e-03 2.3701900113e+00 -4.1052895232e+00 2.3701900113e+00 4.1052895232e+00 
8500 6.1950906871e+00 7.7362078620e-03 2.3699794328e+00 -4.1049247906e+00 2.3699794328e+00 4.1049247906e+00 
8600 6.1948164584e+00 5.6082543640e-03 2.3698162222e+00 -4.1046421014e+00 2.3698162222e+00 4.1046421014e+00 
8700 6.1945477360e+00 3.5992654013e-03 2.3696978964e+00 -4.1044371551e+00 2.3696978964e+00 4.1044371551e+00 
8800 6.1942865650e+00 1.7097305072e-03 2.3696219532e+00 -4.1043056177e+00 2.3696219532e+00 4.1043056177e+00 
8900 6.1940348219e+00 -6.0124177578e-05 2.3695858773e+00 -4.1042431324e+00 2.3695858773e+00 4.1042431324e+00 
9000 6.1937942045e+00 -1.7108417548e-03 2.3695858773e+00 -4.1042431324e+00 2.3695858773e+00 4.1042431324e+00 
9100 6.1935662084e+00 -3.2416857185e-03 2.3696219774e+00 -4.1043056596e+00 2.3696219774e+00 4.1043056596e+00 
9200 6.1933521311e+00 -4.6536996287e-03 2.3696903786e+00 -4.1044241340e+00 2.3696903786e+00 4.1044241340e+00 
9300 6.1931530608e+00 -5.9476580646e-03 2.3697885715e+00 -4.1045942090e+00 2.3697885715e+00 4.1045942090e+00 
9400 6.1929698740e+00 -7.1245718820e-03 2.3699140618e+00 -4.1048115646e+00 2.3699140618e+00 4.1048115646e+00 
9500 6.1928032346e+00 -8.1856823778e-03 2.3700643762e+00 -4.1050719169e+00 2.3700643762e+00 4.1050719169e+00 
9600 6.1926535951e+00 -9.1324553023e-03 2.3702370674e+00 -4.1053710267e+00 2.3702370674e+00 4.1053710267e+00 
9700 6.1925212013e+00 -9.9665747089e-03 2.3704297185e+00 -4.1057047083e+00 2.3704297185e+00 4.1057047083e+00 
9800 6.1924060979e+00 -1.0689936626e-02 2.3706399488e+00 -4.1060688378e+00 2.3706399488e+00 4.1060688378e+00 
9900 6.1923081368e+00 -1.1304642533e-02 2.3708654176e+00 -4.1064593612e+00 2.3708654176e+00 4.1064593612e+00 
10000 6.1922269866e+00 -1.1812992627e-02 2.3711038291e+00 -4.1068723020e+00 2.3711038291e+00 4.1068723020e+00 
10100 6.1921621446e+00 -1.2217478856e-02 2.3713529367e+00 -4.1073037691e+00 2.3713529367e+00 4.1073037691e+00 
10200 6.1921129492e+00 -1.2520777701e-02 2.3716105470e+00 -4.1077499632e+00 2.3716105470e+00 4.1077499632e+00 
10300 6.1920785942e+00 -1.2725742685e-02 2.3718745240e+00 -4.1082071847e+00 2.3718745240e+00 4.1082071847e+00 
10400 6.1920581440e+00 -1.2835396594e-02 2.3721427924e+00 -4.1086718393e+00 2.3721427924e+00 4.1086718393e+00 
10500 6.1920505496e+00 -1.2852923389e-02 2.3724133419e+00 -4.1091404448e+00 2.3724133419e+00 4.1091404448e+00 
10600 6.1920546653e+00 -1.2781659787e-02 2.3726842300e+00 -4.1096096366e+00 2.3726842300e+00 4.1096096366e+00 
10700 6.1920692658e+00 -1.2625086509e-02 2.3729535853e+00 -4.1100761737e+00 2.3729535853e+00 4.1100761737e+00 
10800 6.1920930636e+00 -1.2386819175e-02 2.3732196108e+00 -4.1105369433e+00 2.3732196108e+00 4.1105369433e+00 
10900 6.1921247264e+00 -1.2070598837e-02 2.3734805863e+00 -4.1109889663e+00 2.3734805863e+00 4.1109889663e+00 
11000 6.1921628948e+00 -1.1680282153e-02 2.3737348714e+00 -4.1114294010e+00 2.3737348714e+00 4.1114294010e+00 
11100 6.1922061988e+00 -1.1219831197e-02 2.3739809074e+00 -4.1118555478e+00 2.3739809074e+00 4.1118555478e+00 
11200 6.1922532750e+00 -1.0693302911e-02 2.3742172197e+00 -4.1122648527e+00 2.3742172197e+00 4.1122648527e+00 
11300 6.1923027821e+00 -1.0104838213e-02 2.3744424196e+00 -4.1126549104e+00 2.3744424196e+00 4.1126549104e+00 
11400 6.1923534162e+00 -9.4586507704e-03 2.3746552062e+00 -4.1130234676e+00 2.3746552062e+00 4.1130234676e+00 
11500 6.1924039251e+00 -8.7590154642e-03 2.3748543674e+00 -4.1133684249e+00 2.3748543674e+00 4.1133684249e+00 
11600 6.1924531215e+00 -8.0102565661e-03 2.3750387814e+00 -4.1136878393e+00 2.3750387814e+00 4.1136878393e+00 
11700 6.1924998943e+00 -7.2167356647e-03 2.3752074176e+00 -4.1139799258e+00 2.3752074176e+00 4.1139799258e+00 
11800 6.1925432203e+00 -6.3828393714e-03 2.3753593372e+00 -4.1142430583e+00 2.3753593372e+00 4.1142430583e+00 
11900 6.1925821723e+00 -5.5129668524e-03 2.3754936937e+00 -4.1144757706e+00 2.3754936937e+00 4.1144757706e+00 
12000 6.1926159278e+00 -4.6115172287e-03 2.3756097330e+00 -4.1146767566e+00 2.3756097330e+00 4.1146767566e+00 
12100 6.1926437746e+00 -3.6828768962e-03 2.3757067933e+00 -4.1148448700e+00 2.3757067933e+00 4.1148448700e+00 
12200 6.1926651159e+00 -2.7314068182e-03 2.3757843050e+00 -4.1149791240e+00 2.3757843050e+00 4.1149791240e+00 
12300 6.1926794732e+00 -1.7614298471e-03 2.3758417895e+00 -4.1150786902e+00 2.3758417895e+00 4.1150786902e+00 
12400 6.1926864880e+00 -7.7721813535e-04 2.3758788592e+00 -4.1151428968e+00 2.3758788592e+00 4.1151428968e+00 
12500 6.1926859217e+00 2.1701930573e-04 2.3758952156e+00 -4.1151712270e+00 2.3758952156e+00 4.1151712270e+00 
12600 6.1926776544e+00 1.2171488349e-03 2.3758906485e+00 -4.1151633165e+00 2.3758906485e+00 4.1151633165e+00 
12700 6.1926616815e+00 2.2191241363e-03 2.3758650340e+00 -4.1151189508e+00 2.3758650340e+00 4.1151189508e+00 
12800 6.1926381099e+00 3.2189978391e-03 2.3758183328e+00 -4.1150380619e+00 2.3758183328e+00 4.1150380619e+00 
12900 6.1926071524e+00 4.2129327380e-03 2.3757505881e+00 -4.1149207246e+00 2.3757505881e+00 4.1149207246e+00 
13000 6.1925691204e+00 5.1972125576e-03 2.3756619233e+00 -4.1147671528e+00 2.3756619233e+00 4.1147671528e+00 
13100 6.1925244171e+00 6.1682522001e-03 2.3755525396e+00 -4.1145776947e+00 2.3755525396e+00 4.1145776947e+00 
13200 6.1924735280e+00 7.1226074230e-03 2.3754227131e+00 -4.1143528285e+00 2.3754227131e+00 4.1143528285e+00 
13300 6.1924170118e+00 8.0569838947e-03 2.3752727917e+00 -4.1140931571e+00 2.3752727917e+00 4.1140931571e+00 
13400 6.1923554905e+00 8.9682455810e-03 2.3751031925e+00 -4.1137994026e+00 2.3751031925e+00 4.1137994026e+00 
13500 6.1922896382e+00 9.8534224187e-03 2.3749143980e+00 -4.1134724010e+00 2.3749143980e+00 4.1134724010e+00 
13600 6.1922201710e+00 1.0709717239e-02 2.3747069531e+00 -4.1131130959e+00 2.3747069531e+00 4.1131130959e+00 
13700 6.1921478356e+00 1.1534511909e-02 2.3744814611e+00 -4.1127225323e+00 2.3744814611e+00 4.1127225323e+00 
13800 6.1920733980e+00 1.2325372660e-02 2.3742385804e+00 -4.1123018505e+00 2.3742385804e+00 4.1123018505e+00 
13900 6.1919976332e+00 1.3080054588e-02 2.3739790204e+00 -4.1118522794e+00 2.3739790204e+00 4.1118522794e+00 
14000 6.1919213140e+00 1.3796505307e-02 2.3737035377e+00 -4.1113751294e+00 2.3737035377e+00 4.1113751294e+00 
14100 6.1918452009e+00 1.4472867747e-02 2.3734129323e+00 -4.1108717860e+00 2.3734129323e+00 4.1108717860e+00 
14200 6.1917700328e+00 1.5107482091e-02 2.3731080431e+00 -4.1103437025e+00 2.3731080431e+00 4.1103437025e+00 
14300 6.1916965173e+00 1.5698886866e-02 2.3727897444e+00 -4.1097923930e+00 2.3727897444e+00 4.1097923930e+00 
14400 6.1916253232e+00 1.6245819180e-02 2.3724589413e+00 -4.1092194253e+00 2.3724589413e+00 4.1092194253e+00 
14500 6.1915570725e+00 1.6747214135e-02 2.3721165660e+00 -4.1086264138e+00 2.3721165660e+00 4.1086264138e+00 
14600 6.1914923339e+00 1.7202203431e-02 2.3717635733e+00 -4.1080150124e+00 2.3717635733e+00 4.1080150124e+00 
14700 6.1914316176e+00 1.7610113183e-02 2.3714009367e+00 -4.1073869074e+00 2.3714009367e+00 4.1073869074e+00 
14800 6.1913753706e+00 1.7970460988e-02 2.3710296445e+00 -4.1067438105e+00 2.3710296445e+00 4.1067438105e+00 
14900 6.1913239727e+00 1.8282952278e-02 2.3706506956e+00 -4.1060874517e+00 2.3706506956e+00 4.1060874517e+00 
15000 6.1912777350e+00 1.8547475986e-02 2.3702650956e+00 -4.1054195730e+00 2.3702650956e+00 4.1054195730e+00 
15100 6.1912368975e+00 1.8764099581e-02 2.3698738532e+00 -4.1047419212e+00 2.3698738532e+00 4.1047419212e+00 
15200 6.1912016292e+00 1.8933063507e-02 2.3694779760e+00 -4.1040562419e+00 2.3694779760e+00 4.1040562419e+00 
15300 6.1911720283e+00 1.9054775083e-02 2.3690784675e+00 -4.1033642729e+00 2.3690784675e+00 4.1033642729e+00 
15400 6.1911481239e+00 1.9129801895e-02 2.3686763231e+00 -4.1026677382e+00 2.3686763231e+00 4.1026677382e+00 
15500 6.1911298784e+00 1.9158864752e-02 2.3682725267e+00 -4.1019683424e+00 2.3682725267e+00 4.1019683424e+00 
15600 6.1911171902e+00 1.9142830239e-02 2.3678680479e+00 -4.1012677646e+00 2.3678680479e+00 4.1012677646e+00 
15700 6.1911098976e+00 1.9082702928e-02 2.3674638386e+00 -4.1005676536e+00 2.3674638386e+00 4.1005676536e+00 
15800 6.1911077838e+00 1.8979617291e-02 2.3670608301e+00 -4.0998696224e+00 2.3670608301e+00 4.0998696224e+00 
15900 6.1911105811e+00 1.8834829371e-02 2.3666599304e+00 -4.0991752437e+00 2.3666599304e+00 4.0991752437e+00 
16000 6.1911179767e+00 1.8649708255e-02 2.3662620215e+00 -4.0984860452e+00 2.3662620215e+00 4.0984860452e+00 
16100 6.1911296188e+00 1.8425727398e-02 2.3658679571e+00 -4.0978035057e+00 2.3658679571e+00 4.0978035057e+00 
16200 6.1911451218e+00 1.8164455849e-02 2.3654785604e+00 -4.0971290509e+00 2.3654785604e+00 4.0971290509e+00 
16300 6.1911640733e+00 1.7867549414e-02 2.3650946220e+00 -4.0964640500e+00 2.3650946220e+00 4.0964640500e+00 
16400 6.1911860400e+00 1.7536741807e-02 2.3647168977e+00 -4.0958098123e+00 2.3647168977e+00 4.0958098123e+00 
16500 6.1912105737e+00 1.7173835825e-02 2.3643461073e+00 -4.0951675846e+00 2.3643461073e+00 4.0951675846e+00 
16600 6.1912372179e+00 1.6780694584e-02 2.3639829330e+00 -4.0945385482e+00 2.3639829330e+00 4.0945385482e+00 
16700 6.1912655135e+00 1.6359232853e-02 2.3636280177e+00 -4.0939238169e+00 2.3636280177e+00 4.0939238169e+00 
16800 6.1912950042e+00 1.5911408522e-02 2.3632819642e+00 -4.0933244347e+00 2.3632819642e+00 4.0933244347e+00 
16900 6.1913252425e+00 1.5439214229e-02 2.3629453343e+00 -4.0927413745e+00 2.3629453343e+00 4.0927413745e+00 
17000 6.1913557941e+00 1.4944669173e-02 2.3626186475e+00 -4.0921755364e+00 2.3626186475e+00 4.0921755364e+00 
17100 6.1913862429e+00 1.4429811145e-02 2.3623023812e+00 -4.0916277470e+00 2.3623023812e+00 4.0916277470e+00 
17200 6.1914161948e+00 1.3896688798e-02 2.3619969694e+00 -4.0910987583e+00 2.3619969694e+00 4.0910987583e+00 
17300 6.1914452817e+00 1.3347354168e-02 2.3617028030e+00 -4.0905892472e+00 2.3617028030e+00 4.0905892472e+00 
17400 6.1914731642e+00 1.2783855480e-02 2.3614202296e+00 -4.0900998157e+00 2.3614202296e+00 4.0900998157e+00 
17500 6.1914995346e+00 1.2208230234e-02 2.3611495533e+00 -4.0896309906e+00 2.3611495533e+00 4.0896309906e+00 
17600 6.1915241187e+00 1.1622498606e-02 2.3608910350e+00 -4.0891832238e+00 2.3608910350e+00 4.0891832238e+00 
17700 6.1915466778e+00 1.1028657161e-02 2.3606448928e+00 -4.0887568930e+00 2.3606448928e+00 4.0887568930e+00 
17800 6.1915670091e+00 1.0428672887e-02 2.3604113025e+00 -4.0883523027e+00 2.3604113025e+00 4.0883523027e+00 
17900 6.1915849469e+00 9.8244775694e-03 2.3601903980e+00 -4.0879696849e+00 2.3601903980e+00 4.0879696849e+00 
18000 6.1916003623e+00 9.2179624980e-03 2.3599822722e+00 -4.0876092003e+00 2.3599822722e+00 4.0876092003e+00 
18100 6.1916131629e+00 8.6109735145e-03 2.3597869776e+00 -4.0872709402e+00 2.3597869776e+00 4.0872709402e+00 
18200 6.1916232922e+00 8.0053064063e-03 2.3596045276e+00 -4.0869549275e+00 2.3596045276e+00 4.0869549275e+00 
18300 6.1916307282e+00 7.4027026419e-03 2.3594348972e+00 -4.0866611192e+00 2.3594348972e+00 4.0866611192e+00 
18400 6.1916354821e+00 6.8048454494e-03 2.3592780245e+00 -4.0863894076e+00 2.3592780245e+00 4.0863894076e+00 
18500 6.1916375962e+00 6.2133562341e-03 2.3591338114e+00 -4.0861396232e+00 2.3591338114e+00 4.0861396232e+00 
18600 6.1916371419e+00 5.6297913331e-03 2.3590021254e+00 -4.0859115363e+00 2.3590021254e+00 4.0859115363e+00 
18700 6.1916342174e+00 5.0556391014e-03 2.3588828007e+00 -4.0857048599e+00 2.3588828007e+00 4.0857048599e+00 
18800 6.1916289454e+00 4.4923173238e-03 2.3587756398e+00 -4.0855192517e+00 2.3587756398e+00 4.0855192517e+00 
18900 6.1916214700e+00 3.9411709454e-03 2.3586804148e+00 -4.0853543172e+00 2.3586804148e+00 4.0853543172e+00 
19000 6.1916119541e+00 3.4034701151e-03 2.3585968692e+00 -4.0852096120e+00 2.3585968692e+00 4.0852096120e+00 
19100 6.1916005765e+00 2.8804085317e-03 2.3585247192e+00 -4.0850846446e+00 2.3585247192e+00 4.0850846446e+00 
19200 6.1915875294e+00 2.3731020851e-03 2.3584636557e+00 -4.0849788795e+00 2.3584636557e+00 4.0849788795e+00 
19300 6.1915730148e+00 1.8825877843e-03 2.3584133456e+00 -4.0848917398e+00 2.3584133456e+00 4.0848917398e+00 
19400 6.1915572423e+00 1.4098229601e-03 2.3583734335e+00 -4.0848226101e+00 2.3583734335e+00 4.0848226101e+00 
19500 6.1915404261e+00 9.5568473544e-04 2.3583435438e+00 -4.0847708396e+00 2.3583435438e+00 4.0847708396e+00 
19600 6.1915227822e+00 5.2096975073e-04 2.3583232821e+00 -4.0847357453e+00 2.3583232821e+00 4.0847357453e+00 
19700 6.1915045259e+00 1.0639413568e-04 2.3583122368e+00 -4.0847166142e+00 2.3583122368e+00 4.0847166142e+00 
19800 6.1914858697e+00 -2.8740628405e-04 2.3583099810e+00 -4.0847127071e+00 2.3583099810e+00 4.0847127071e+00 
19900 6.1914670206e+00 -6.5987555531e-04 2.3583160745e+00 -4.0847232614e+00 2.3583160745e+00 4.0847232614e+00 
20000 6.1914481781e+00 -1.0105369519e-03 2.3583300649e+00 -4.0847474935e+00 2.3583300649e+00 4.0847474935e+00 
20100 6.1914295328e+00 -1.3389921251e-03 2.3583514898e+00 -4.0847846024e+00 2.3583514898e+00 4.0847846024e+00 
20200 6.1914112640e+00 -1.6449200614e-03 2.3583798782e+00 -4.0848337725e+00 2.3583798782e+00 4.0848337725e+00 
20300 6.1913935387e+00 -1.9280758566e-03 2.3584147522e+00 -4.0848941761e+00 2.3584147522e+00 4.0848941761e+00 
20400 6.1913765105e+00 -2.1882893178e-03 2.3584556288e+00 -4.0849649765e+00 2.3584556288e+00 4.0849649765e+00 
20500 6.1913603179e+00 -2.4254634019e-03 2.3585020214e+00 -4.0850453308e+00 2.3585020214e+00 4.0850453308e+00 
20600 6.1913450841e+00 -2.6395725018e-03 2.3585534412e+00 -4.0851343925e+00 2.3585534412e+00 4.0851343925e+00 
20700 6.1913309164e+00 -2.8306605884e-03 2.3586093988e+00 -4.0852313140e+00 2.3586093988e+00 4.0852313140e+00 
20800 6.1913179051e+00 -2.9988392190e-03 2.3586694061e+00 -4.0853352496e+00 2.3586694061e+00 4.0853352496e+00 
20900 6.1913061243e+00 -3.1442854210e-03 2.3587329769e+00 -4.0854453575e+00 2.3587329769e+00 4.0854453575e+00 
21000 6.1912956312e+00 -3.2672394589e-03 2.3587996292e+00 -4.0855608027e+00 2.3587996292e+00 4.0855608027e+00 
21100 6.1912864663e+00 -3.3680024951e-03 2.3588688860e+00 -4.0856807589e+00 2.3588688860e+00 4.0856807589e+00 
21200 6.1912786544e+00 -3.4469341515e-03 2.3589402765e+00 -4.0858044110e+00 2.3589402765e+00 4.0858044110e+00 
21300 6.1912722043e+00 -3.5044499809e-03 2.3590133380e+00 -4.0859309571e+00 2.3590133380e+00 4.0859309571e+00 
21400 6.1912671099e+00 -3.5410188567e-03 2.3590876163e+00 -4.0860596109e+00 2.3590876163e+00 4.0860596109e+00 
21500 6.1912633512e+00 -3.5571602881e-03 2.3591626673e+00 -4.0861896030e+00 2.3591626673e+00 4.0861896030e+00 
21600 6.1912608945e+00 -3.5534416694e-03 2.3592380580e+00 -4.0863201835e+00 2.3592380580e+00 4.0863201835e+00 
21700 6.1912596944e+00 -3.5304754710e-03 2.3593133675e+00 -4.0864506234e+00 2.3593133675e+00 4.0864506234e+00 
21800 6.1912596938e+00 -3.4889163787e-03 2.3593881878e+00 -4.0865802161e+00 2.3593881878e+00 4.0865802161e+00 
21900 6.1912608261e+00 -3.4294583909e-03 2.3594621251e+00 -4.0867082792e+00 2.3594621251e+00 4.0867082792e+00 
22000 6.1912630157e+00 -3.3528318783e-03 2.3595348001e+00 -4.0868341559e+00 2.3595348001e+00 4.0868341559e+00 
22100 6.1912661793e+00 -3.2598006158e-03 2.3596058490e+00 -4.0869572163e+00 2.3596058490e+00 4.0869572163e+00 
22200 6.1912702279e+00 -3.1511587928e-03 2.3596749244e+00 -4.0870768585e+00 2.3596749244e+00 4.0870768585e+00 
22300 6.1912750670e+00 -3.0277280081e-03 2.3597416958e+00 -4.0871925099e+00 2.3597416958e+00 4.0871925099e+00 
22400 6.1912805989e+00 -2.8903542586e-03 2.3598058499e+00 -4.0873036280e+00 2.3598058499e+00 4.0873036280e+00 
22500 6.1912867230e+00 -2.7399049266e-03 2.3598670915e+00 -4.0874097016e+00 2.3598670915e+00 4.0874097016e+00 
22600 6.1912933379e+00 -2.5772657743e-03 2.3599251438e+00 -4.0875102512e+00 2.3599251438e+00 4.0875102512e+00 
22700 6.1913003420e+00 -2.4033379515e-03 2.3599797489e+00 -4.0876048299e+00 2.3599797489e+00 4.0876048299e+00 
22800 6.1913076348e+00 -2.2190350229e-03 2.3600306677e+00 -4.0876930238e+00 2.3600306677e+00 4.0876930238e+00 
22900 6.1913151180e+00 -2.0252800237e-03 2.3600776807e+00 -4.0877744527e+00 2.3600776807e+00 4.0877744527e+00 
23000 6.1913226964e+00 -1.8230025472e-03 2.3601205879e+00 -4.0878487702e+00 2.3601205879e+00 4.0878487702e+00 
23100 6.1913302788e+00 -1.6131358745e-03 2.3601592089e+00 -4.0879156638e+00 2.3601592089e+00 4.0879156638e+00 
23200 6.1913377789e+00 -1.3966141491e-03 2.3601933833e+00 -4.0879748556e+00 2.3601933833e+00 4.0879748556e+00 
23300 6.1913451160e+00 -1.1743696064e-03 2.3602229702e+00 -4.0880261016e+00 2.3602229702e+00 4.0880261016e+00 
23400 6.1913522155e+00 -9.4732986156e-04 2.3602478486e+00 -4.0880691923e+00 2.3602478486e+00 4.0880691923e+00 
23500 6.1913590095e+00 -7.1641526343e-04 2.3602679171e+00 -4.0881039519e+00 2.3602679171e+00 4.0881039519e+00 
23600 6.1913654372e+00 -4.8253632027e-04 2.3602830937e+00 -4.0881302385e+00 2.3602830937e+00 4.0881302385e+00 
23700 6.1913714455e+00 -2.4659120276e-04 2.3602933157e+00 -4.0881479436e+00 2.3602933157e+00 4.0881479436e+00 
23800 6.1913769888e+00 -9.4633302557e-06 2.3602985394e+00 -4.0881569914e+00 2.3602985394e+00 4.0881569914e+00 
23900 6.1913820291e+00 2.2789624603e-04 2.3602985394e+00 -4.0881569914e+00 2.3602985394e+00 4.0881569914e+00 
24000 6.1913865367e+00 4.6480969422e-04 2.3602937118e+00 -4.0881486295e+00 2.3602937118e+00 4.0881486295e+00 
24100 6.1913904894e+00 7.0036686565e-04 2.3602838653e+00 -4.0881315750e+00 2.3602838653e+00 4.0881315750e+00 
24200 6.1913938729e+00 9.3376563562e-04 2.3602690288e+00 -4.0881058775e+00 2.3602690288e+00 4.0881058775e+00 
24300 6.1913966800e+00 1.1642292717e-03 2.3602492480e+00 -4.0880716160e+00 2.3602492480e+00 4.0880716160e+00 
24400 6.1913989110e+00 1.3910082432e-03 2.3602245847e+00 -4.0880288980e+00 2.3602245847e+00 4.0880288980e+00 
24500 6.1914005725e+00 1.6133819156e-03 2.3601951171e+00 -4.0879778586e+00 2.3601951171e+00 4.0879778586e+00 
24600 6.1914016780e+00 1.8306601258e-03 2.3601609382e+00 -4.0879186589e+00 2.3601609382e+00 4.0879186589e+00 
24700 6.1914022465e+00 2.0421846359e-03 2.3601221557e+00 -4.0878514858e+00 2.3601221557e+00 4.0878514858e+00 
24800 6.1914023024e+00 2.2473304622e-03 2.3600788915e+00 -4.0877765499e+00 2.3600788915e+00 4.0877765499e+00 
24900 6.1914018750e+00 2.4455070783e-03 2.3600312803e+00 -4.0876940849e+00 2.3600312803e+00 4.0876940849e+00 
25000 6.1914009977e+00 2.6361594892e-03 2.3599794696e+00 -4.0876043462e+00 2.3599794696e+00 4.0876043462e+00 
25100 6.1913997076e+00 2.8187691767e-03 2.3599236185e+00 -4.0875076092e+00 2.3599236185e+00 4.0875076092e+00 
25200 6.1913980445e+00 2.9928549134e-03 2.3598638971e+00 -4.0874041688e+00 2.3598638971e+00 4.0874041688e+00 
25300 6.1913960510e+00 3.1579734465e-03 2.3598004858e+00 -4.0872943371e+00 2.3598004858e+00 4.0872943371e+00 
25400 6.1913937709e+00 3.3137200501e-03 2.3597335743e+00 -4.0871784429e+00 2.3597335743e+00 4.0871784429e+00 
25500 6.1913912495e+00 3.4597289477e-03 2.3596633607e+00 -4.0870568296e+00 2.3596633607e+00 4.0870568296e+00 
25600 6.1913885325e+00 3.5956736044e-03 2.3595900513e+00 -4.0869298539e+00 2.3595900513e+00 4.0869298539e+00 
25700 6.1913856653e+00 3.7212668909e-03 2.3595138590e+00 -4.0867978849e+00 2.3595138590e+00 4.0867978849e+00 
25800 6.1913826930e+00 3.8362611213e-03 2.3594350028e+00 -4.0866613019e+00 2.3594350028e+00 4.0866613019e+00 
25900 6.1913796595e+00 3.9404479666e-03 2.3593537071e+00 -4.0865204936e+00 2.3593537071e+00 4.0865204936e+00 
26000 6.1913766069e+00 4.0336582450e-03 2.3592702006e+00 -4.0863758562e+00 2.3592702006e+00 4.0863758562e+00 
26100 6.1913735754e+00 4.1157615955e-03 2.3591847158e+00 -4.0862277923e+00 2.3591847158e+00 4.0862277923e+00 
26200 6.1913706028e+00 4.1866660336e-03 2.3590974879e+00 -4.0860767090e+00 2.3590974879e+00 4.0860767090e+00 
26300 6.1913677240e+00 4.2463173972e-03 2.3590087540e+00 -4.0859230174e+00 2.3590087540e+00 4.0859230174e+00 
26400 6.1913649711e+00 4.2946986827e-03 2.3589187524e+00 -4.0857671301e+00 2.3589187524e+00 4.0857671301e+00 
26500 6.1913623727e+00 4.3318292791e-03 2.3588277219e+00 -4.0856094606e+00 2.3588277219e+00 4.0856094606e+00 
26600 6.1913599539e+00 4.3577641024e-03 2.3587359008e+00 -4.0854504219e+00 2.3587359008e+00 4.0854504219e+00 
26700 6.1913577364e+00 4.3725926360e-03 2.3586435264e+00 -4.0852904247e+00 2.3586435264e+00 4.0852904247e+00 
26800 6.1913557379e+00 4.3764378823e-03 2.3585508341e+00 -4.0851298769e+00 2.3585508341e+00 4.0851298769e+00 
26900 6.1913539726e+00 4.3694552311e-03 2.3584580566e+00 -4.0849691815e+00 2.3584580566e+00 4.0849691815e+00 
27000 6.1913524508e+00 4.3518312495e-03 2.3583654235e+00 -4.0848087363e+00 2.3583654235e+00 4.0848087363e+00 
27100 6.1913511795e+00 4.3237823996e-03 2.3582731603e+00 -4.0846489319e+00 2.3582731603e+00 4.0846489319e+00 
27200 6.1913501616e+00 4.2855536902e-03 2.3581814883e+00 -4.0844901512e+00 2.3581814883e+00 4.0844901512e+00 
27300 6.1913493971e+00 4.2374172675e-03 2.3580906232e+00 -4.0843327683e+00 2.3580906232e+00 4.0843327683e+00 
27400 6.1913488824e+00 4.1796709513e-03 2.3580007753e+00 -4.0841771472e+00 2.3580007753e+00 4.0841771472e+00 
27500 6.1913486109e+00 4.1126367237e-03 2.3579121485e+00 -4.0840236409e+00 2.3579121485e+00 4.0840236409e+00 
27600 6.1913485734e+00 4.0366591740e-03 2.3578249397e+00 -4.0838725909e+00 2.3578249397e+00 4.0838725909e+00 
27700 6.1913487579e+00 3.9521039091e-03 2.3577393389e+00 -4.0837243260e+00 2.3577393389e+00 4.0837243260e+00 
27800 6.1913491503e+00 3.8593559326e-03 2.3576555281e+00 -4.0835791614e+00 2.3576555281e+00 4.0835791614e+00 
27900 6.1913497345e+00 3.7588180006e-03 2.3575736812e+00 -4.0834373985e+00 2.3575736812e+00 4.0834373985e+00 
28000 6.1913504926e+00 3.6509089592e-03 2.3574939638e+00 -4.0832993238e+00 2.3574939638e+00 4.0832993238e+00 
28100 6.1913514054e+00 3.5360620698e-03 2.3574165322e+00 -4.0831652084e+00 2.3574165322e+00 4.0831652084e+00 
28200 6.1913524527e+00 3.4147233283e-03 2.3573415339e+00 -4.0830353075e+00 2.3573415339e+00 4.0830353075e+00 
28300 6.1913536135e+00 3.2873497830e-03 2.3572691069e+00 -4.0829098602e+00 2.3572691069e+00 4.0829098602e+00 
28400 6.1913548662e+00 3.1544078586e-03 2.3571993793e+00 -4.0827890885e+00 2.3571993793e+00 4.0827890885e+00 
28500 6.1913561893e+00 3.0163716885e-03 2.3571324695e+00 -4.0826731974e+00 2.3571324695e+00 4.0826731974e+00 
28600 6.1913575612e+00 2.8737214636e-03 2.3570684859e+00 -4.0825623745e+00 2.3570684859e+00 4.0825623745e+00 
28700 6.1913589608e+00 2.7269418014e-03 2.3570075265e+00 -4.0824567897e+00 2.3570075265e+00 4.0824567897e+00 
28800 6.1913603678e+00 2.5765201391e-03 2.3569496792e+00 -4.0823565953e+00 2.3569496792e+00 4.0823565953e+00 
28900 6.1913617623e+00 2.4229451573e-03 2.3568950215e+00 -4.0822619253e+00 2.3568950215e+00 4.0822619253e+00 
29000 6.1913631260e+00 2.2667052367e-03 2.3568436204e+00 -4.0821728961e+00 2.3568436204e+00 4.0821728961e+00 
29100 6.1913644416e+00 2.1082869534e-03 2.3567955329e+00 -4.0820896060e+00 2.3567955329e+00 4.0820896060e+00 
29200 6.1913656931e+00 1.9481736153e-03 2.3567508052e+00 -4.0820121354e+00 2.3567508052e+00 4.0820121354e+00 
29300 6.1913668663e+00 1.7868438440e-03 2.3567094735e+00 -4.0819405469e+00 2.3567094735e+00 4.0819405469e+00 
29400 6.1913679486e+00 1.6247702059e-03 2.3566715639e+00 -4.0818748855e+00 2.3566715639e+00 4.0818748855e+00 
29500 6.1913689289e+00 1.4624178939e-03 2.3566370923e+00 -4.0818151789e+00 2.3566370923e+00 4.0818151789e+00 
29600 6.1913697982e+00 1.3002434647e-03 2.3566060647e+00 -4.0817614375e+00 2.3566060647e+00 4.0817614375e+00 
29700 6.1913705493e+00 1.1386936326e-03 2.3565784776e+00 -4.0817136552e+00 2.3565784776e+00 4.0817136552e+00 
29800 6.1913711766e+00 9.7820412294e-04 2.3565543177e+00 -4.0816718091e+00 2.3565543177e+00 4.0816718091e+00 
29900 6.1913716765e+00 8.1919858656e-04 2.3565335628e+00 -4.0816358605e+00 2.3565335628e+00 4.0816358605e+00 
30000 6.1913720473e+00 6.6208757810e-04 2.3565161814e+00 -4.0816057550e+00 2.3565161814e+00 4.0816057550e+00 
30100 6.1913722886e+00 5.0726759855e-04 2.3565021334e+00 -4.0815814231e+00 2.3565021334e+00 4.0815814231e+00 
30200 6.1913724022e+00 3.5512020403e-04 2.3564913702e+00 -4.0815627808e+00 2.3564913702e+00 4.0815627808e+00 
30300 6.1913723911e+00 2.0601118164e-04 2.3564838353e+00 -4.0815497300e+00 2.3564838353e+00 4.0815497300e+00 
30400 6.1913722597e+00 6.0289793135e-05 2.3564794641e+00 -4.0815421589e+00 2.3564794641e+00 4.0815421589e+00 
30500 6.1913720137e+00 -8.1168708040e-05 2.3564794641e+00 -4.0815421589e+00 2.3564794641e+00 4.0815421589e+00 
30600 6.1913716604e+00 -2.1913550856e-04 2.3564811864e+00 -4.0815451419e+00 2.3564811864e+00 4.0815451419e+00 
30700 6.1913712079e+00 -3.5277218839e-04 2.3564858360e+00 -4.0815531953e+00 2.3564858360e+00 4.0815531953e+00 
30800 6.1913706653e+00 -4.8180177732e-04 2.3564933212e+00 -4.0815661600e+00 2.3564933212e+00 4.0815661600e+00 
30900 6.1913700422e+00 -6.0596658700e-04 2.3565035440e+00 -4.0815838665e+00 2.3565035440e+00 4.0815838665e+00 
31000 6.1913693491e+00 -7.2502855514e-04 2.3565164014e+00 -4.0816061360e+00 2.3565164014e+00 4.0816061360e+00 
31100 6.1913685968e+00 -8.3876952237e-04 2.3565317849e+00 -4.0816327810e+00 2.3565317849e+00 4.0816327810e+00 
31200 6.1913677964e+00 -9.4699144273e-04 2.3565495816e+00 -4.0816636058e+00 2.3565495816e+00 4.0816636058e+00 
31300 6.1913669591e+00 -1.0495165287e-03 2.3565696744e+00 -4.0816984076e+00 2.3565696744e+00 4.0816984076e+00 
31400 6.1913660963e+00 -1.1461873321e-03 2.3565919423e+00 -4.0817369767e+00 2.3565919423e+00 4.0817369767e+00 
31500 6.1913652190e+00 -1.2368667619e-03 2.3566162611e+00 -4.0817790981e+00 2.3566162611e+00 4.0817790981e+00 
31600 6.1913643382e+00 -1.3214380413e-03 2.3566425036e+00 -4.0818245514e+00 2.3566425036e+00 4.0818245514e+00 
31700 6.1913634642e+00 -1.3998046041e-03 2.3566705401e+00 -4.0818731121e+00 2.3566705401e+00 4.0818731121e+00 
31800 6.1913626072e+00 -1.4718899342e-03 2.3567002389e+00 -4.0819245520e+00 2.3567002389e+00 4.0819245520e+00 
31900 6.1913617766e+00 -1.5376373482e-03 2.3567314667e+00 -4.0819786402e+00 2.3567314667e+00 4.0819786402e+00 
32000 6.1913609809e+00 -1.5970097245e-03 2.3567640891e+00 -4.0820351437e+00 2.3567640891e+00 4.0820351437e+00 
32100 6.1913602283e+00 -1.6499891802e-03 2.3567979705e+00 -4.0820938282e+00 2.3567979705e+00 4.0820938282e+00 
32200 6.1913595259e+00 -1.6965766982e-03 2.3568329755e+00 -4.0821544586e+00 2.3568329755e+00 4.0821544586e+00 
32300 6.1913588799e+00 -1.7367917071e-03 2.3568689683e+00 -4.0822167999e+00 2.3568689683e+00 4.0822167999e+00 
32400 6.1913582957e+00 -1.7706716155e-03 2.3569058138e+00 -4.0822806181e+00 2.3569058138e+00 4.0822806181e+00 
32500 6.1913577778e+00 -1.7982713042e-03 2.3569433773e+00 -4.0823456801e+00 2.3569433773e+00 4.0823456801e+00 
32600 6.1913573296e+00 -1.8196625778e-03 2.3569815258e+00 -4.0824117552e+00 2.3569815258e+00 4.0824117552e+00 
32700 6.1913569537e+00 -1.8349335790e-03 2.3570201275e+00 -4.0824786152e+00 2.3570201275e+00 4.0824786152e+00 
32800 6.1913566518e+00 -1.8441881671e-03 2.3570590524e+00 -4.0825460353e+00 2.3570590524e+00 4.0825460353e+00 
32900 6.1913564244e+00 -1.8475452650e-03 2.3570981731e+00 -4.0826137942e+00 2.3570981731e+00 4.0826137942e+00 
33000 6.1913562715e+00 -1.8451381758e-03 2.3571373643e+00 -4.0826816753e+00 2.3571373643e+00 4.0826816753e+00 
33100 6.1913561920e+00 -1.8371138725e-03 2.3571765038e+00 -4.0827494669e+00 2.3571765038e+00 4.0827494669e+00 
33200 6.1913561840e+00 -1.8236322633e-03 2.3572154724e+00 -4.0828169626e+00 2.3572154724e+00 4.0828169626e+00 
33300 6.1913562449e+00 -1.8048654348e-03 2.3572541544e+00 -4.0828839618e+00 2.3572541544e+00 4.0828839618e+00 
33400 6.1913563716e+00 -1.7809968770e-03 2.3572924377e+00 -4.0829502705e+00 2.3572924377e+00 4.0829502705e+00 
33500 6.1913565601e+00 -1.7522206911e-03 2.3573302142e+00 -4.0830157012e+00 2.3573302142e+00 4.0830157012e+00 
33600 6.1913568061e+00 -1.7187407837e-03 2.3573673796e+00 -4.0830800736e+00 2.3573673796e+00 4.0830800736e+00 
33700 6.1913571046e+00 -1.6807700512e-03 2.3574038344e+00 -4.0831432151e+00 2.3574038344e+00 4.0831432151e+00 
33800 6.1913574503e+00 -1.6385295540e-03 2.3574394832e+00 -4.0832049607e+00 2.3574394832e+00 4.0832049607e+00 
33900 6.1913578378e+00 -1.5922476863e-03 2.3574742356e+00 -4.0832651537e+00 2.3574742356e+00 4.0832651537e+00 
34000 6.1913582611e+00 -1.5421593423e-03 2.3575080059e+00 -4.0833236455e+00 2.3575080059e+00 4.0833236455e+00 
34100 6.1913587143e+00 -1.4885050815e-03 2.3575407134e+00 -4.0833802965e+00 2.3575407134e+00 4.0833802965e+00 
34200 6.1913591913e+00 -1.4315302960e-03 2.3575722825e+00 -4.0834349758e+00 2.3575722825e+00 4.0834349758e+00 
34300 6.1913596860e+00 -1.3714843820e-03 2.3576026428e+00 -4.0834875614e+00 2.3576026428e+00 4.0834875614e+00 
34400 6.1913601925e+00 -1.3086199179e-03 2.3576317293e+00 -4.0835379407e+00 2.3576317293e+00 4.0835379407e+00 
34500 6.1913607048e+00 -1.2431918506e-03 2.3576594822e+00 -4.0835860101e+00 2.3576594822e+00 4.0835860101e+00 
34600 6.1913612173e+00 -1.1754566940e-03 2.3576858472e+00 -4.0836316757e+00 2.3576858472e+00 4.0836316757e+00 
34700 6.1913617244e+00 -1.1056717394e-03 2.3577107754e+00 -4.0836748526e+00 2.3577107754e+00 4.0836748526e+00 
34800 6.1913622211e+00 -1.0340942822e-03 2.3577342235e+00 -4.0837154658e+00 2.3577342235e+00 4.0837154658e+00 
34900 6.1913627025e+00 -9.6098086470e-04 2.3577561533e+00 -4.0837534494e+00 2.3577561533e+00 4.0837534494e+00 
35000 6.1913631643e+00 -8.8658653890e-04 2.3577765325e+00 -4.0837887472e+00 2.3577765325e+00 4.0837887472e+00 
35100 6.1913636023e+00 -8.1116414964e-04 2.3577953339e+00 -4.0838213121e+00 2.3577953339e+00 4.0838213121e+00 
35200 6.1913640130e+00 -7.3496364026e-04 2.3578125356e+00 -4.0838511064e+00 2.3578125356e+00 4.0838511064e+00 
35300 6.1913643934e+00 -6.5823138249e-04 2.3578281214e+00 -4.0838781017e+00 2.3578281214e+00 4.0838781017e+00 
35400 6.1913647407e+00 -5.8120953183e-04 2.3578420798e+00 -4.0839022784e+00 2.3578420798e+00 4.0839022784e+00 
35500 6.1913650530e+00 -5.0413540987e-04 2.3578544048e+00 -4.0839236260e+00 2.3578544048e+00 4.0839236260e+00 
35600 6.1913653284e+00 -4.2724091484e-04 2.3578650954e+00 -4.0839421426e+00 2.3578650954e+00 4.0839421426e+00 
35700 6.1913655659e+00 -3.5075196153e-04 2.3578741553e+00 -4.0839578349e+00 2.3578741553e+00 4.0839578349e+00 
35800 6.1913657648e+00 -2.7488795154e-04 2.3578815932e+00 -4.0839707177e+00 2.3578815932e+00 4.0839707177e+00 
35900 6.1913659249e+00 -1.9986127495e-04 2.3578874223e+00 -4.0839808140e+00 2.3578874223e+00 4.0839808140e+00 
36000 6.1913660464e+00 -1.2587684407e-04 2.3578916605e+00 -4.0839881547e+00 2.3578916605e+00 4.0839881547e+00 
36100 6.1913661299e+00 -5.3131660035e-05 2.3578943298e+00 -4.0839927780e+00 2.3578943298e+00 4.0839927780e+00 
36200 6.1913661764e+00 1.7707839946e-05 2.3578943298e+00 -4.0839927780e+00 2.3578943298e+00 4.0839927780e+00 
36300 6.1913661875e+00 8.7575317032e-05 2.3578943298e+00 -4.0839927780e+00 2.3578943298e+00 4.0839927780e+00 
36400 6.1913661647e+00 1.5550461224e-04 2.3578924727e+00 -4.0839895615e+00 2.3578924727e+00 4.0839895615e+00 
36500 6.1913661103e+00 2.2149303165e-04 2.3578891752e+00 -4.0839838500e+00 2.3578891752e+00 4.0839838500e+00 
36600 6.1913660264e+00 2.8538845192e-04 2.3578844783e+00 -4.0839757148e+00 2.3578844783e+00 4.0839757148e+00 
36700 6.1913659156e+00 3.4704854940e-04 2.3578784265e+00 -4.0839652328e+00 2.3578784265e+00 4.0839652328e+00 
36800 6.1913657805e+00 4.0634099335e-04 2.3578710672e+00 -4.0839524861e+00 2.3578710672e+00 4.0839524861e+00 
36900 6.1913656241e+00 4.6314360472e-04 2.3578624505e+00 -4.0839375615e+00 2.3578624505e+00 4.0839375615e+00 
37000 6.1913654493e+00 5.1734448098e-04 2.3578526292e+00 -4.0839205506e+00 2.3578526292e+00 4.0839205506e+00 
37100 6.1913652589e+00 5.6884208719e-04 2.3578416586e+00 -4.0839015489e+00 2.3578416586e+00 4.0839015489e+00 
37200 6.1913650562e+00 6.1754531397e-04 2.3578295958e+00 -4.0838806555e+00 2.3578295958e+00 4.0838806555e+00 
37300 6.1913648441e+00 6.6337350279e-04 2.3578165002e+00 -4.0838579733e+00 2.3578165002e+00 4.0838579733e+00 
37400 6.1913646255e+00 7.0625643944e-04 2.3578024327e+00 -4.0838336076e+00 2.3578024327e+00 4.0838336076e+00 
37500 6.1913644033e+00 7.4613431625e-04 2.3577874557e+00 -4.0838076667e+00 2.3577874557e+00 4.0838076667e+00 
37600 6.1913641805e+00 7.8295766398e-04 2.3577716329e+00 -4.0837802609e+00 2.3577716329e+00 4.0837802609e+00 
37700 6.1913639595e+00 8.1668725433e-04 2.3577550292e+00 -4.0837515024e+00 2.3577550292e+00 4.0837515024e+00 
37800 6.1913637429e+00 8.4729397404e-04 2.3577377100e+00 -4.0837215047e+00 2.3577377100e+00 4.0837215047e+00 
37900 6.1913635330e+00 8.7475867144e-04 2.3577197417e+00 -4.0836903826e+00 2.3577197417e+00 4.0836903826e+00 
38000 6.1913633320e+00 8.9907197696e-04 2.3577011908e+00 -4.0836582515e+00 2.3577011908e+00 4.0836582515e+00 
38100 6.1913631417e+00 9.2023409831e-04 2.3576821241e+00 -4.0836252270e+00 2.3576821241e+00 4.0836252270e+00 
38200 6.1913629638e+00 9.3825459191e-04 2.3576626085e+00 -4.0835914250e+00 2.3576626085e+00 4.0835914250e+00 
38300 6.1913627998e+00 9.5315211164e-04 2.3576427105e+00 -4.0835569607e+00 2.3576427105e+00 4.0835569607e+00 
38400 6.1913626510e+00 9.6495413628e-04 2.3576224964e+00 -4.0835219489e+00 2.3576224964e+00 4.0835219489e+00 
38500 6.1913625181e+00 9.7369667696e-04 2.3576020319e+00 -4.0834865033e+00 2.3576020319e+00 4.0834865033e+00 
38600 6.1913624021e+00 9.7942396602e-04 2.3575813818e+00 -4.0834507363e+00 2.3575813818e+00 4.0834507363e+00 
38700 6.1913623035e+00 9.8218812865e-04 2.3575606100e+00 -4.0834147585e+00 2.3575606100e+00 4.0834147585e+00 
38800 6.1913622223e+00 9.8204883869e-04 2.3575397795e+00 -4.0833786789e+00 2.3575397795e+00 4.0833786789e+00 
38900 6.1913621588e+00 9.7907296018e-04 2.3575189517e+00 -4.0833426041e+00 2.3575189517e+00 4.0833426041e+00 
39000 6.1913621128e+00 9.7333417585e-04 2.3574981868e+00 -4.0833066383e+00 2.3574981868e+00 4.0833066383e+00 
39100 6.1913620839e+00 9.6491260419e-04 2.3574775435e+00 -4.0832708830e+00 2.3574775435e+00 4.0832708830e+00 
39200 6.1913620715e+00 9.5389440651e-04 2.3574570785e+00 -4.0832354367e+00 2.3574570785e+00 4.0832354367e+00 
39300 6.1913620750e+00 9.4037138535e-04 2.3574368471e+00 -4.0832003949e+00 2.3574368471e+00 4.0832003949e+00 
39400 6.1913620935e+00 9.2444057573e-04 2.3574169024e+00 -4.0831658496e+00 2.3574169024e+00 4.0831658496e+00 
39500 6.1913621259e+00 9.0620383067e-04 2.3573972954e+00 -4.0831318892e+00 2.3573972954e+00 4.0831318892e+00 
39600 6.1913621712e+00 8.8576740235e-04 2.3573780749e+00 -4.0830985985e+00 2.3573780749e+00 4.0830985985e+00 
39700 6.1913622281e+00 8.6324152026e-04 2.3573592878e+00 -4.0830660582e+00 2.3573592878e+00 4.0830660582e+00 
39800 6.1913622954e+00 8.3873996774e-04 2.3573409784e+00 -4.0830343453e+00 2.3573409784e+00 4.0830343453e+00 
39900 6.1913623718e+00 8.1237965821e-04 2.3573231884e+00 -4.0830035322e+00 2.3573231884e+00 4.0830035322e+00 
40000 6.1913624557e+00 7.8428021239e-04 2.3573059575e+00 -4.0829736873e+00 2.3573059575e+00 4.0829736873e+00 
40100 6.1913625459e+00 7.5456353771e-04 2.3572893224e+00 -4.0829448745e+00 2.3572893224e+00 4.0829448745e+00 
40200 6.1913626409e+00 7.2335341117e-04 2.3572733175e+00 -4.0829171533e+00 2.3572733175e+00 4.0829171533e+00 
40300 6.1913627393e+00 6.9077506687e-04 2.3572579745e+00 -4.0828905784e+00 2.3572579745e+00 4.0828905784e+00 
40400 6.1913628398e+00 6.5695478917e-04 2.3572433224e+00 -4.0828652003e+00 2.3572433224e+00 4.0828652003e+00 
40500 6.1913629411e+00 6.2201951274e-04 2.3572293876e+00 -4.0828410645e+00 2.3572293876e+00 4.0828410645e+00 
40600 6.1913630418e+00 5.8609643044e-04 2.3572161938e+00 -4.0828182121e+00 2.3572161938e+00 4.0828182121e+00 
40700 6.1913631409e+00 5.4931261002e-04 2.3572037618e+00 -4.0827966793e+00 2.3572037618e+00 4.0827966793e+00 
40800 6.1913632371e+00 5.1179462056e-04 2.3571921101e+00 -4.0827764978e+00 2.3571921101e+00 4.0827764978e+00 
40900 6.1913633295e+00 4.7366816956e-04 2.3571812541e+00 -4.0827576947e+00 2.3571812541e+00 4.0827576947e+00 
41000 6.1913634172e+00 4.3505775145e-04 2.3571712067e+00 -4.0827402922e+00 2.3571712067e+00 4.0827402922e+00 
41100 6.1913634994e+00 3.9608630837e-04 2.3571619783e+00 -4.0827243081e+00 2.3571619783e+00 4.0827243081e+00 
41200 6.1913635753e+00 3.5687490377e-04 2.3571535766e+00 -4.0827097559e+00 2.3571535766e+00 4.0827097559e+00 
41300 6.1913636443e+00 3.1754240966e-04 2.3571460065e+00 -4.0826966442e+00 2.3571460065e+00 4.0826966442e+00 
41400 6.1913637060e+00 2.7820520801e-04 2.3571392708e+00 -4.0826849775e+00 2.3571392708e+00 4.0826849775e+00 
41500 6.1913637601e+00 2.3897690680e-04 2.3571333695e+00 -4.0826747561e+00 2.3571333695e+00 4.0826747561e+00 
41600 6.1913638062e+00 1.9996807130e-04 2.3571283002e+00 -4.0826659760e+00 2.3571283002e+00 4.0826659760e+00 
41700 6.1913638442e+00 1.6128597090e-04 2.3571240585e+00 -4.0826586290e+00 2.3571240585e+00 4.0826586290e+00 
41800 6.1913638742e+00 1.2303434191e-04 2.3571206372e+00 -4.0826527033e+00 2.3571206372e+00 4.0826527033e+00 
41900 6.1913638960e+00 8.5313166681e-05 2.3571180274e+00 -4.0826481829e+00 2.3571180274e+00 4.0826481829e+00 
42000 6.1913639100e+00 4.8218469113e-05 2.3571162177e+00 -4.0826450484e+00 2.3571162177e+00 4.0826450484e+00 
42100 6.1913639163e+00 1.2276555734e-05 2.3571162177e+00 -4.0826450484e+00 2.3571162177e+00 4.0826450484e+00 
42200 6.1913639152e+00 -2.3182391922e-05 2.3571162177e+00 -4.0826450484e+00 2.3571162177e+00 4.0826450484e+00 
42300 6.1913639073e+00 -5.8071242149e-05 2.3571162177e+00 -4.0826450484e+00 2.3571162177e+00 4.0826450484e+00 
42400 6.1913638930e+00 -9.2306908856e-05 2.3571162177e+00 -4.0826450484e+00 2.3571162177e+00 4.0826450484e+00 
42500 6.1913638728e+00 -1.2497905205e-04 2.3571181757e+00 -4.0826484398e+00 2.3571181757e+00 4.0826484398e+00 
42600 6.1913638472e+00 -1.5654117573e-04 2.3571208268e+00 -4.0826530317e+00 2.3571208268e+00 4.0826530317e+00 
42700 6.1913638169e+00 -1.8692928501e-04 2.3571241474e+00 -4.0826587831e+00 2.3571241474e+00 4.0826587831e+00 
42800 6.1913637824e+00 -2.1608436875e-04 2.3571281126e+00 -4.0826656511e+00 2.3571281126e+00 4.0826656511e+00 
42900 6.1913637445e+00 -2.4395245308e-04 2.3571326963e+00 -4.0826735901e+00 2.3571326963e+00 4.0826735901e+00 
43000 6.1913637038e+00 -2.7048463883e-04 2.3571378711e+00 -4.0826825531e+00 2.3571378711e+00 4.0826825531e+00 
43100 6.1913636610e+00 -2.9563712287e-04 2.3571436086e+00 -4.0826924909e+00 2.3571436086e+00 4.0826924909e+00 
43200 6.1913636167e+00 -3.1937120404e-04 2.3571498797e+00 -4.0827033527e+00 2.3571498797e+00 4.0827033527e+00 
43300 6.1913635716e+00 -3.4165327377e-04 2.3571566542e+00 -4.0827150865e+00 2.3571566542e+00 4.0827150865e+00 
43400 6.1913635262e+00 -3.6245479184e-04 2.3571639014e+00 -4.0827276390e+00 2.3571639014e+00 4.0827276390e+00 
43500 6.1913634813e+00 -3.8175224786e-04 2.3571715898e+00 -4.0827409556e+00 2.3571715898e+00 4.0827409556e+00 
43600 6.1913634374e+00 -3.9952710876e-04 2.3571796874e+00 -4.0827549812e+00 2.3571796874e+00 4.0827549812e+00 
43700 6.1913633950e+00 -4.1576575279e-04 2.3571881621e+00 -4.0827696598e+00 2.3571881621e+00 4.0827696598e+00 
43800 6.1913633545e+00 -4.3045939076e-04 2.3571969812e+00 -4.0827849350e+00 2.3571969812e+00 4.0827849350e+00 
43900 6.1913633164e+00 -4.4360397475e-04 2.3572061120e+00 -4.0828007499e+00 2.3572061120e+00 4.0828007499e+00 
44000 6.1913632812e+00 -4.5520009510e-04 2.3572155215e+00 -4.0828170477e+00 2.3572155215e+00 4.0828170477e+00 
44100 6.1913632490e+00 -4.6525286621e-04 2.3572251770e+00 -4.0828337714e+00 2.3572251770e+00 4.0828337714e+00 
44200 6.1913632203e+00 -4.7377180162e-04 2.3572350457e+00 -4.0828508645e+00 2.3572350457e+00 4.0828508645e+00 
44300 6.1913631951e+00 -4.8077067923e-04 2.3572450950e+00 -4.0828682704e+00 2.3572450950e+00 4.0828682704e+00 
44400 6.1913631738e+00 -4.8626739709e-04 2.3572552927e+00 -4.0828859334e+00 2.3572552927e+00 4.0828859334e+00 
44500 6.1913631564e+00 -4.9028382049e-04 2.3572656070e+00 -4.0829037982e+00 2.3572656070e+00 4.0829037982e+00 
44600 6.1913631429e+00 -4.9284562102e-04 2.3572760064e+00 -4.0829218106e+00 2.3572760064e+00 4.0829218106e+00 
44700 6.1913631334e+00 -4.9398210828e-04 2.3572864601e+00 -4.0829399169e+00 2.3572864601e+00 4.0829399169e+00 
44800 6.1913631278e+00 -4.9372605479e-04 2.3572969379e+00 -4.0829580650e+00 2.3572969379e+00 4.0829580650e+00 
44900 6.1913631261e+00 -4.9211351495e-04 2.3573074102e+00 -4.0829762035e+00 2.3573074102e+00 4.0829762035e+00 
45000 6.1913631280e+00 -4.8918363864e-04 2.3573178483e+00 -4.0829942828e+00 2.3573178483e+00 4.0829942828e+00 
45100 6.1913631336e+00 -4.8497848001e-04 2.3573282241e+00 -4.0830122543e+00 2.3573282241e+00 4.0830122543e+00 
45200 6.1913631424e+00 -4.7954280249e-04 2.3573385107e+00 -4.0830300712e+00 2.3573385107e+00 4.0830300712e+00 
45300 6.1913631544e+00 -4.7292388023e-04 2.3573486820e+00 -4.0830476884e+00 2.3573486820e+00 4.0830476884e+00 
45400 6.1913631692e+00 -4.6517129704e-04 2.3573587129e+00 -4.0830650624e+00 2.3573587129e+00 4.0830650624e+00 
45500 6.1913631866e+00 -4.5633674320e-04 2.3573685793e+00 -4.0830821514e+00 2.3573685793e+00 4.0830821514e+00 
45600 6.1913632062e+00 -4.4647381097e-04 2.3573782582e+00 -4.0830989159e+00 2.3573782582e+00 4.0830989159e+00 
45700 6.1913632278e+00 -4.3563778938e-04 2.3573877279e+00 -4.0831153179e+00 2.3573877279e+00 4.0831153179e+00 
45800 6.1913632510e+00 -4.2388545881e-04 2.3573969678e+00 -4.0831313218e+00 2.3573969678e+00 4.0831313218e+00 
45900 6.1913632754e+00 -4.1127488622e-04 2.3574059583e+00 -4.0831468939e+00 2.3574059583e+00 4.0831468939e+00 
46000 6.1913633008e+00 -3.9786522135e-04 2.3574146814e+00 -4.0831620026e+00 2.3574146814e+00 4.0831620026e+00 
46100 6.1913633268e+00 -3.8371649472e-04 2.3574231200e+00 -4.0831766187e+00 2.3574231200e+00 4.0831766187e+00 
46200 6.1913633531e+00 -3.6888941772e-04 2.3574312584e+00 -4.0831907150e+00 2.3574312584e+00 4.0831907150e+00 
46300 6.1913633794e+00 -3.5344518566e-04 2.3574390824e+00 -4.0832042665e+00 2.3574390824e+00 4.0832042665e+00 
46400 6.1913634054e+00 -3.3744528392e-04 2.3574465788e+00 -4.0832172506e+00 2.3574465788e+00 4.0832172506e+00 
46500 6.1913634308e+00 -3.2095129806e-04 2.3574537358e+00 -4.0832296469e+00 2.3574537358e+00 4.0832296469e+00 
46600 6.1913634554e+00 -3.0402472813e-04 2.3574605430e+00 -4.0832414373e+00 2.3574605430e+00 4.0832414373e+00 
46700 6.1913634789e+00 -2.8672680767e-04 2.3574669911e+00 -4.0832526058e+00 2.3574669911e+00 4.0832526058e+00 
46800 6.1913635010e+00 -2.6911832798e-04 2.3574730724e+00 -4.0832631388e+00 2.3574730724e+00 4.0832631388e+00 
46900 6.1913635217e+00 -2.5125946780e-04 2.3574787801e+00 -4.0832730250e+00 2.3574787801e+00 4.0832730250e+00 
47000 6.1913635408e+00 -2.3320962904e-04 2.3574841091e+00 -4.0832822550e+00 2.3574841091e+00 4.0832822550e+00 
47100 6.1913635580e+00 -2.1502727870e-04 2.3574890553e+00 -4.0832908220e+00 2.3574890553e+00 4.0832908220e+00 
47200 6.1913635733e+00 -1.9676979751e-04 2.3574936158e+00 -4.0832987211e+00 2.3574936158e+00 4.0832987211e+00 
47300 6.1913635867e+00 -1.7849333535e-04 2.3574977891e+00 -4.0833059494e+00 2.3574977891e+00 4.0833059494e+00 
47400 6.1913635980e+00 -1.6025267392e-04 2.3575015747e+00 -4.0833125064e+00 2.3575015747e+00 4.0833125064e+00 
47500 6.1913636073e+00 -1.4210109683e-04 2.3575049735e+00 -4.0833183932e+00 2.3575049735e+00 4.0833183932e+00 
47600 6.1913636144e+00 -1.2409026725e-04 2.3575079873e+00 -4.0833236133e+00 2.3575079873e+00 4.0833236133e+00 
47700 6.1913636196e+00 -1.0627011346e-04 2.3575106191e+00 -4.0833281717e+00 2.3575106191e+00 4.0833281717e+00 
47800 6.1913636227e+00 -8.8688722322e-05 2.3575128730e+00 -4.0833320755e+00 2.3575128730e+00 4.0833320755e+00 
47900 6.1913636240e+00 -7.1392240883e-05 2.3575147540e+00 -4.0833353335e+00 2.3575147540e+00 4.0833353335e+00 
48000 6.1913636233e+00 -5.4424786148e-05 2.3575162681e+00 -4.0833379560e+00 2.3575162681e+00 4.0833379560e+00 
48100 6.1913636210e+00 -3.8318202587e-05 2.3575162681e+00 -4.0833379560e+00 2.3575162681e+00 4.0833379560e+00 
48200 6.1913636170e+00 -2.2478553216e-05 2.3575162681e+00 -4.0833379560e+00 2.3575162681e+00 4.0833379560e+00 
48300 6.1913636115e+00 -6.9458409642e-06 2.3575162681e+00 -4.0833379560e+00 2.3575162681e+00 4.0833379560e+00 
48400 6.1913636046e+00 8.2419760885e-06 2.3575162681e+00 -4.0833379560e+00 2.3575162681e+00 4.0833379560e+00 
48500 6.1913635966e+00 2.3049053832e-05 2.3575162681e+00 -4.0833379560e+00 2.3575162681e+00 4.0833379560e+00 
48600 6.1913635875e+00 3.7441721428e-05 2.3575162681e+00 -4.0833379560e+00 2.3575162681e+00 4.0833379560e+00 
48700 6.1913635777e+00 5.1388531027e-05 2.3575162681e+00 -4.0833379560e+00 2.3575162681e+00 4.0833379560e+00 
48800 6.1913635672e+00 6.4860298140e-05 2.3575162681e+00 -4.0833379560e+00 2.3575162681e+00 4.0833379560e+00 
48900 6.1913635562e+00 7.7830132923e-05 2.3575162681e+00 -4.0833379560e+00 2.3575162681e+00 4.0833379560e+00 
49000 6.1913635448e+00 8.9572824170e-05 2.3575146174e+00 -4.0833350970e+00 2.3575146174e+00 4.0833350970e+00 
49100 6.1913635332e+00 1.0065325526e-04 2.3575127177e+00 -4.0833318066e+00 2.3575127177e+00 4.0833318066e+00 
49200 6.1913635216e+00 1.1105572622e-04 2.3575105830e+00 -4.0833281091e+00 2.3575105830e+00 4.0833281091e+00 
49300 6.1913635101e+00 1.2076698290e-04 2.3575082276e+00 -4.0833240295e+00 2.3575082276e+00 4.0833240295e+00 
49400 6.1913634988e+00 1.2977619660e-04 2.3575056663e+00 -4.0833195931e+00 2.3575056663e+00 4.0833195931e+00 
49500 6.1913634880e+00 1.3807493680e-04 2.3575029139e+00 -4.0833148258e+00 2.3575029139e+00 4.0833148258e+00 
49600 6.1913634776e+00 1.4565713728e-04 2.3574999855e+00 -4.0833097537e+00 2.3574999855e+00 4.0833097537e+00 
49700 6.1913634679e+00 1.5251905582e-04 2.3574968962e+00 -4.0833044030e+00 2.3574968962e+00 4.0833044030e+00 
49800 6.1913634589e+00 1.5865922786e-04 2.3574936615e+00 -4.0832988002e+00 2.3574936615e+00 4.0832988002e+00 
49900 6.1913634508e+00 1.6407841428e-04 2.3574902965e+00 -4.0832929718e+00 2.3574902965e+00 4.0832929718e+00 
50000 6.1913634435e+00 1.6877954379e-04 2.3574868165e+00 -4.0832869444e+00 2.3574868165e+00 4.0832869444e+00 
50100 6.1913634371e+00 1.7276765009e-04 2.3574832369e+00 -4.0832807443e+00 2.3574832369e+00 4.0832807443e+00 
50200 6.1913634317e+00 1.7604980413e-04 2.3574795726e+00 -4.0832743976e+00 2.3574795726e+00 4.0832743976e+00 
50300 6.1913634273e+00 1.7863504197e-04 2.3574758388e+00 -4.0832679304e+00 2.3574758388e+00 4.0832679304e+00 
50400 6.1913634239e+00 1.8053428828e-04 2.3574720501e+00 -4.0832613682e+00 2.3574720501e+00 4.0832613682e+00 
50500 6.1913634216e+00 1.8176027610e-04 2.3574682211e+00 -4.0832547362e+00 2.3574682211e+00 4.0832547362e+00 
50600 6.1913634203e+00 1.8232746306e-04 2.3574643661e+00 -4.0832480592e+00 2.3574643661e+00 4.0832480592e+00 
50700 6.1913634200e+00 1.8225194438e-04 2.3574604991e+00 -4.0832413613e+00 2.3574604991e+00 4.0832413613e+00 
50800 6.1913634206e+00 1.8155136309e-04 2.3574566337e+00 -4.0832346662e+00 2.3574566337e+00 4.0832346662e+00 
50900 6.1913634222e+00 1.8024481773e-04 2.3574527831e+00 -4.0832279968e+00 2.3574527831e+00 4.0832279968e+00 
51000 6.1913634247e+00 1.7835276794e-04 2.3574489602e+00 -4.0832213754e+00 2.3574489602e+00 4.0832213754e+00 
51100 6.1913634280e+00 1.7589693821e-04 2.3574451775e+00 -4.0832148235e+00 2.3574451775e+00 4.0832148235e+00 
51200 6.1913634320e+00 1.7290022018e-04 2.3574414468e+00 -4.0832083618e+00 2.3574414468e+00 4.0832083618e+00 
51300 6.1913634367e+00 1.6938657386e-04 2.3574377797e+00 -4.0832020101e+00 2.3574377797e+00 4.0832020101e+00 
51400 6.1913634420e+00 1.6538092792e-04 2.3574341871e+00 -4.0831957876e+00 2.3574341871e+00 4.0831957876e+00 
51500 6.1913634478e+00 1.6090907968e-04 2.3574306795e+00 -4.0831897121e+00 2.3574306795e+00 4.0831897121e+00 
51600 6.1913634541e+00 1.5599759476e-04 2.3574272667e+00 -4.0831838010e+00 2.3574272667e+00 4.0831838010e+00 
51700 6.1913634607e+00 1.5067370702e-04 2.3574239580e+00 -4.0831780703e+00 2.3574239580e+00 4.0831780703e+00 
51800 6.1913634676e+00 1.4496521884e-04 2.3574207623e+00 -4.0831725351e+00 2.3574207623e+00 4.0831725351e+00 
51900 6.1913634746e+00 1.3890040225e-04 2.3574176876e+00 -4.0831672096e+00 2.3574176876e+00 4.0831672096e+00 
52000 6.1913634818e+00 1.3250790096e-04 2.3574147416e+00 -4.0831621070e+00 2.3574147416e+00 4.0831621070e+00 
52100 6.1913634890e+00 1.2581663382e-04 2.3574119312e+00 -4.0831572391e+00 2.3574119312e+00 4.0831572391e+00 
52200 6.1913634961e+00 1.1885569969e-04 2.3574092626e+00 -4.0831526171e+00 2.3574092626e+00 4.0831526171e+00 
52300 6.1913635031e+00 1.1165428426e-04 2.3574067417e+00 -4.0831482508e+00 2.3574067417e+00 4.0831482508e+00 
52400 6.1913635100e+00 1.0424156884e-04 2.3574043736e+00 -4.0831441490e+00 2.3574043736e+00 4.0831441490e+00 
52500 6.1913635165e+00 9.6646641387e-05 2.3574021626e+00 -4.0831403195e+00 2.3574021626e+00 4.0831403195e+00 
52600 6.1913635228e+00 8.8898410144e-05 2.3574001128e+00 -4.0831367691e+00 2.3574001128e+00 4.0831367691e+00 
52700 6.1913635286e+00 8.1025519826e-05 2.3573982273e+00 -4.0831335033e+00 2.3573982273e+00 4.0831335033e+00 
52800 6.1913635341e+00 7.3056270775e-05 2.3573965087e+00 -4.0831305267e+00 2.3573965087e+00 4.0831305267e+00 
52900 6.1913635391e+00 6.5018541134e-05 2.3573949592e+00 -4.0831278429e+00 2.3573949592e+00 4.0831278429e+00 
53000 6.1913635437e+00 5.7525158482e-05 2.3573949592e+00 -4.0831278429e+00 2.3573949592e+00 4.0831278429e+00 
53100 6.1913635478e+00 4.9951228618e-05 2.3573949592e+00 -4.0831278429e+00 2.3573949592e+00 4.0831278429e+00 
53200 6.1913635513e+00 4.2322478903e-05 2.3573949592e+00 -4.0831278429e+00 2.3573949592e+00 4.0831278429e+00 
53300 6.1913635543e+00 3.4664118829e-05 2.3573949592e+00 -4.0831278429e+00 2.3573949592e+00 4.0831278429e+00 
53400 6.1913635567e+00 2.7000769155e-05 2.3573949592e+00 -4.0831278429e+00 2.3573949592e+00 4.0831278429e+00 
53500 6.1913635586e+00 1.9356395670e-05 2.3573949592e+00 -4.0831278429e+00 2.3573949592e+00 4.0831278429e+00 
53600 6.1913635600e+00 1.1754247576e-05 2.3573949592e+00 -4.0831278429e+00 2.3573949592e+00 4.0831278429e+00 
53700 6.1913635608e+00 4.2168004848e-06 2.3573949592e+00 -4.0831278429e+00 2.3573949592e+00 4.0831278429e+00 
53800 6.1913635612e+00 -3.2342959979e-06 2.3573949592e+00 -4.0831278429e+00 2.3573949592e+00 4.0831278429e+00 
53900 6.1913635611e+00 -1.0578266089e-05 2.3573949592e+00 -4.0831278429e+00 2.3573949592e+00 4.0831278429e+00 
54000 6.1913635606e+00 -1.7795251122e-05 2.3573949592e+00 -4.0831278429e+00 2.3573949592e+00 4.0831278429e+00 
54100 6.1913635597e+00 -2.4866348326e-05 2.3573949592e+00 -4.0831278429e+00 2.3573949592e+00 4.0831278429e+00 
54200 6.1913635584e+00 -3.1773645153e-05 2.3573949592e+00 -4.0831278429e+00 2.3573949592e+00 4.0831278429e+00 
54300 6.1913635568e+00 -3.8500249199e-05 2.3573949592e+00 -4.0831278429e+00 2.3573949592e+00 4.0831278429e+00 
54400 6.1913635550e+00 -4.5030313795e-05 2.3573949592e+00 -4.0831278429e+00 2.3573949592e+00 4.0831278429e+00 
54500 6.1913635529e+00 -5.1349059342e-05 2.3573949592e+00 -4.0831278429e+00 2.3573949592e+00 4.0831278429e+00 
54600 6.1913635507e+00 -5.7442790463e-05 2.3573949592e+00 -4.0831278429e+00 2.3573949592e+00 4.0831278429e+00 
54700 6.1913635483e+00 -6.3298909076e-05 2.3573949592e+00 -4.0831278429e+00 2.3573949592e+00 4.0831278429e+00 
54800 6.1913635458e+00 -6.8905923463e-05 2.3573949592e+00 -4.0831278429e+00 2.3573949592e+00 4.0831278429e+00 
54900 6.1913635433e+00 -7.4253453486e-05 2.3573949592e+00 -4.0831278429e+00 2.3573949592e+00 4.0831278429e+00 
55000 6.1913635406e+00 -7.8663759111e-05 2.3573965341e+00 -4.0831305707e+00 2.3573965341e+00 4.0831305707e+00 
55100 6.1913635379e+00 -8.2750047118e-05 2.3573982026e+00 -4.0831334605e+00 2.3573982026e+00 4.0831334605e+00 
55200 6.1913635353e+00 -8.6507190546e-05 2.3573999577e+00 -4.0831365004e+00 2.3573999577e+00 4.0831365004e+00 
55300 6.1913635327e+00 -8.9931194938e-05 2.3574017925e+00 -4.0831396784e+00 2.3574017925e+00 4.0831396784e+00 
55400 6.1913635302e+00 -9.3019184556e-05 2.3574036999e+00 -4.0831429822e+00 2.3574036999e+00 4.0831429822e+00 
55500 6.1913635278e+00 -9.5769385375e-05 2.3574056728e+00 -4.0831463994e+00 2.3574056728e+00 4.0831463994e+00 
55600 6.1913635256e+00 -9.8181104952e-05 2.3574077041e+00 -4.0831499176e+00 2.3574077041e+00 4.0831499176e+00 
55700 6.1913635235e+00 -1.0025470934e-04 2.3574097865e+00 -4.0831535244e+00 2.3574097865e+00 4.0831535244e+00 
55800 6.1913635216e+00 -1.0199159727e-04 2.3574119128e+00 -4.0831572074e+00 2.3574119128e+00 4.0831572074e+00 
55900 6.1913635200e+00 -1.0339417156e-04 2.3574140760e+00 -4.0831609542e+00 2.3574140760e+00 4.0831609542e+00 
56000 6.1913635185e+00 -1.0446580826e-04 2.3574162690e+00 -4.0831647525e+00 2.3574162690e+00 4.0831647525e+00 
56100 6.1913635173e+00 -1.0521082329e-04 2.3574184847e+00 -4.0831685902e+00 2.3574184847e+00 4.0831685902e+00 
56200 6.1913635163e+00 -1.0563443703e-04 2.3574207162e+00 -4.0831724552e+00 2.3574207162e+00 4.0831724552e+00 
56300 6.1913635156e+00 -1.0574273701e-04 2.3574229566e+00 -4.0831763358e+00 2.3574229566e+00 4.0831763358e+00 
56400 6.1913635151e+00 -1.0554263861e-04 2.3574251994e+00 -4.0831802204e+00 2.3574251994e+00 4.0831802204e+00 
56500 6.1913635148e+00 -1.0504184434e-04 2.3574274379e+00 -4.0831840976e+00 2.3574274379e+00 4.0831840976e+00 
56600 6.1913635148e+00 -1.0424880149e-04 2.3574296658e+00 -4.0831879564e+00 2.3574296658e+00 4.0831879564e+00 
56700 6.1913635150e+00 -1.0317265859e-04 2.3574318769e+00 -4.0831917861e+00 2.3574318769e+00 4.0831917861e+00 
56800 6.1913635154e+00 -1.0182322068e-04 2.3574340651e+00 -4.0831955763e+00 2.3574340651e+00 4.0831955763e+00 
56900 6.1913635160e+00 -1.0021090366e-04 2.3574362247e+00 -4.0831993168e+00 2.3574362247e+00 4.0831993168e+00 
57000 6.1913635168e+00 -9.8346687859e-05 2.3574383502e+00 -4.0832029982e+00 2.3574383502e+00 4.0832029982e+00 
57100 6.1913635178e+00 -9.6242070899e-05 2.3574404360e+00 -4.0832066110e+00 2.3574404360e+00 4.0832066110e+00 
57200 6.1913635189e+00 -9.3909020205e-05 2.3574424773e+00 -4.0832101466e+00 2.3574424773e+00 4.0832101466e+00 
57300 6.1913635202e+00 -9.1359925099e-05 2.3574444690e+00 -4.0832135964e+00 2.3574444690e+00 4.0832135964e+00 
57400 6.1913635216e+00 -8.8607548808e-05 2.3574464067e+00 -4.0832169526e+00 2.3574464067e+00 4.0832169526e+00 
57500 6.1913635230e+00 -8.5664980457e-05 2.3574482860e+00 -4.0832202076e+00 2.3574482860e+00 4.0832202076e+00 
57600 6.1913635246e+00 -8.2545587167e-05 2.3574501029e+00 -4.0832233546e+00 2.3574501029e+00 4.0832233546e+00 
57700 6.1913635262e+00 -7.9262966511e-05 2.3574518537e+00 -4.0832263870e+00 2.3574518537e+00 4.0832263870e+00 
57800 6.1913635279e+00 -7.5830899325e-05 2.3574535348e+00 -4.0832292987e+00 2.3574535348e+00 4.0832292987e+00 
57900 6.1913635296e+00 -7.2263303143e-05 2.3574551431e+00 -4.0832320844e+00 2.3574551431e+00 4.0832320844e+00 
58000 6.1913635312e+00 -6.8574186284e-05 2.3574566758e+00 -4.0832347391e+00 2.3574566758e+00 4.0832347391e+00 
58100 6.1913635330e+00 -6.5394899283e-05 2.3574566758e+00 -4.0832347391e+00 2.3574566758e+00 4.0832347391e+00 
58200 6.1913635347e+00 -6.2094879035e-05 2.3574566758e+00 -4.0832347391e+00 2.3574566758e+00 4.0832347391e+00 
58300 6.1913635363e+00 -5.8687429346e-05 2.3574566758e+00 -4.0832347391e+00 2.3574566758e+00 4.0832347391e+00 
58400 6.1913635379e+00 -5.5185867268e-05 2.3574566758e+00 -4.0832347391e+00 2.3574566758e+00 4.0832347391e+00 
58500 6.1913635393e+00 -5.1603475969e-05 2.3574566758e+00 -4.0832347391e+00 2.3574566758e+00 4.0832347391e+00 
58600 6.1913635407e+00 -4.7953459579e-05 2.3574566758e+00 -4.0832347391e+00 2.3574566758e+00 4.0832347391e+00 
58700 6.1913635420e+00 -4.4248900015e-05 2.3574566758e+00 -4.0832347391e+00 2.3574566758e+00 4.0832347391e+00 
58800 6.1913635431e+00 -4.0502715858e-05 2.3574566758e+00 -4.0832347391e+00 2.3574566758e+00 4.0832347391e+00 
58900 6.1913635441e+00 -3.6727623252e-05 2.3574566758e+00 -4.0832347391e+00 2.3574566758e+00 4.0832347391e+00 
59000 6.1913635450e+00 -3.2936098898e-05 2.3574566758e+00 -4.0832347391e+00 2.3574566758e+00 4.0832347391e+00 
59100 6.1913635458e+00 -2.9140345153e-05 2.3574566758e+00 -4.0832347391e+00 2.3574566758e+00 4.0832347391e+00 
59200 6.1913635465e+00 -2.5352257232e-05 2.3574566758e+00 -4.0832347391e+00 2.3574566758e+00 4.0832347391e+00 
59300 6.1913635470e+00 -2.1583392562e-05 2.3574566758e+00 -4.0832347391e+00 2.3574566758e+00 4.0832347391e+00 
59400 6.1913635474e+00 -1.7844942266e-05 2.3574566758e+00 -4.0832347391e+00 2.3574566758e+00 4.0832347391e+00 
59500 6.1913635477e+00 -1.4147704802e-05 2.3574566758e+00 -4.0832347391e+00 2.3574566758e+00 4.0832347391e+00 
59600 6.1913635479e+00 -1.0502061749e-05 2.3574566758e+00 -4.0832347391e+00 2.3574566758e+00 4.0832347391e+00 
59700 6.1913635480e+00 -6.9179557322e-06 2.3574566758e+00 -4.0832347391e+00 2.3574566758e+00 4.0832347391e+00 
59800 6.1913635480e+00 -3.4048705173e-06 2.3574566758e+00 -4.0832347391e+00 2.3574566758e+00 4.0832347391e+00 
59900 6.1913635479e+00 2.8186815035e-08 2.3574566758e+00 -4.0832347391e+00 2.3574566758e+00 4.0832347391e+00 
60000 6.1913635477e+00 3.3727015634e-06 2.3574566758e+00 -4.0832347391e+00 2.3574566758e+00 4.0832347391e+00 
60100 6.1913635474e+00 6.6206650118e-06 2.3574566758e+00 -4.0832347391e+00 2.3574566758e+00 4.0832347391e+00 
60200 6.1913635471e+00 9.7645859967e-06 2.3574566758e+00 -4.0832347391e+00 2.3574566758e+00 4.0832347391e+00 
60300 6.1913635467e+00 1.2797500435e-05 2.3574566758e+00 -4.0832347391e+00 2.3574566758e+00 4.0832347391e+00 
60400 6.1913635463e+00 1.5712978873e-05 2.3574566758e+00 -4.0832347391e+00 2.3574566758e+00 4.0832347391e+00 
60500 6.1913635459e+00 1.8505132088e-05 2.3574566758e+00 -4.0832347391e+00 2.3574566758e+00 4.0832347391e+00 
60600 6.1913635454e+00 2.1168614784e-05 2.3574566758e+00 -4.0832347391e+00 2.3574566758e+00 4.0832347391e+00 
60700 6.1913635450e+00 2.3698627434e-05 2.3574566758e+00 -4.0832347391e+00 2.3574566758e+00 4.0832347391e+00 
60800 6.1913635445e+00 2.6090916331e-05 2.3574566758e+00 -4.0832347391e+00 2.3574566758e+00 4.0832347391e+00 
60900 6.1913635440e+00 2.8341771875e-05 2.3574566758e+00 -4.0832347391e+00 2.3574566758e+00 4.0832347391e+00 
61000 6.1913635435e+00 3.0448025195e-05 2.3574566758e+00 -4.0832347391e+00 2.3574566758e+00 4.0832347391e+00 
61100 6.1913635431e+00 3.2407043140e-05 2.3574566758e+00 -4.0832347391e+00 2.3574566758e+00 4.0832347391e+00 
61200 6.1913635427e+00 3.4216721711e-05 2.3574566758e+00 -4.0832347391e+00 2.3574566758e+00 4.0832347391e+00 
61300 6.1913635423e+00 3.5875478005e-05 2.3574566758e+00 -4.0832347391e+00 2.3574566758e+00 4.0832347391e+00 
61400 6.1913635419e+00 3.7382240739e-05 2.3574566758e+00 -4.0832347391e+00 2.3574566758e+00 4.0832347391e+00 
61500 6.1913635416e+00 3.8736439438e-05 2.3574566758e+00 -4.0832347391e+00 2.3574566758e+00 4.0832347391e+00 
61600 6.1913635413e+00 3.9937992333e-05 2.3574566758e+00 -4.0832347391e+00 2.3574566758e+00 4.0832347391e+00 
61700 6.1913635411e+00 4.0987293074e-05 2.3574566758e+00 -4.0832347391e+00 2.3574566758e+00 4.0832347391e+00 
61800 6.1913635409e+00 4.1885196321e-05 2.3574566758e+00 -4.0832347391e+00 2.3574566758e+00 4.0832347391e+00 
61900 6.1913635408e+00 4.2633002303e-05 2.3574566758e+00 -4.0832347391e+00 2.3574566758e+00 4.0832347391e+00 
62000 6.1913635407e+00 4.3232440405e-05 2.3574566758e+00 -4.0832347391e+00 2.3574566758e+00 4.0832347391e+00 
62100 6.1913635407e+00 4.3685651867e-05 2.3574566758e+00 -4.0832347391e+00 2.3574566758e+00 4.0832347391e+00 
62200 6.1913635407e+00 4.3995171708e-05 2.3574566758e+00 -4.0832347391e+00 2.3574566758e+00 4.0832347391e+00 
62300 6.1913635407e+00 4.4163909900e-05 2.3574566758e+00 -4.0832347391e+00 2.3574566758e+00 4.0832347391e+00 
62400 6.1913635408e+00 4.4195131922e-05 2.3574566758e+00 -4.0832347391e+00 2.3574566758e+00 4.0832347391e+00 
62500 6.1913635410e+00 4.4092438727e-05 2.3574566758e+00 -4.0832347391e+00 2.3574566758e+00 4.0832347391e+00 
62600 6.1913635412e+00 4.3859746266e-05 2.3574566758e+00 -4.0832347391e+00 2.3574566758e+00 4.0832347391e+00 
62700 6.1913635414e+00 4.3501264564e-05 2.3574566758e+00 -4.0832347391e+00 2.3574566758e+00 4.0832347391e+00 
62800 6.1913635417e+00 4.3021476497e-05 2.3574566758e+00 -4.0832347391e+00 2.3574566758e+00 4.0832347391e+00 
62900 6.1913635420e+00 4.2425116308e-05 2.3574566758e+00 -4.0832347391e+00 2.3574566758e+00 4.0832347391e+00 
63000 6.1913635423e+00 4.1717147945e-05 2.3574566758e+00 -4.0832347391e+00 2.3574566758e+00 4.0832347391e+00 
63100 6.1913635426e+00 4.0902743298e-05 2.3574566758e+00 -4.0832347391e+00 2.3574566758e+00 4.0832347391e+00 
63200 6.1913635430e+00 3.9987260400e-05 2.3574566758e+00 -4.0832347391e+00 2.3574566758e+00 4.0832347391e+00 
63300 6.1913635434e+00 3.8976221672e-05 2.3574566758e+00 -4.0832347391e+00 2.3574566758e+00 4.0832347391e+00 
63400 6.1913635437e+00 3.7875292238e-05 2.3574566758e+00 -4.0832347391e+00 2.3574566758e+00 4.0832347391e+00 
63500 6.1913635441e+00 3.6690258469e-05 2.3574566758e+00 -4.0832347391e+00 2.3574566758e+00 4.0832347391e+00 
63600 6.1913635445e+00 3.5427006685e-05 2.3574566758e+00 -4.0832347391e+00 2.3574566758e+00 4.0832347391e+00 
63700 6.1913635449e+00 3.4091502201e-05 2.3574566758e+00 -4.0832347391e+00 2.3574566758e+00 4.0832347391e+00 
63800 6.1913635453e+00 3.2689768691e-05 2.3574566758e+00 -4.0832347391e+00 2.3574566758e+00 4.0832347391e+00 
63900 6.1913635457e+00 3.1227867960e-05 2.3574566758e+00 -4.0832347391e+00 2.3574566758e+00 4.0832347391e+00 
64000 6.1913635461e+00 2.9711880163e-05 2.3574566758e+00 -4.0832347391e+00 2.3574566758e+00 4.0832347391e+00 
64100 6.1913635464e+00 2.8147884541e-05 2.3574566758e+00 -4.0832347391e+00 2.3574566758e+00 4.0832347391e+00 
64200 6.1913635468e+00 2.6541940678e-05 2.3574566758e+00 -4.0832347391e+00 2.3574566758e+00 4.0832347391e+00 
64300 6.1913635471e+00 2.4900070370e-05 2.3574566758e+00 -4.0832347391e+00 2.3574566758e+00 4.0832347391e+00 
64400 6.1913635474e+00 2.3228240102e-05 2.3574566758e+00 -4.0832347391e+00 2.3574566758e+00 4.0832347391e+00 
64500 6.1913635476e+00 2.1532344207e-05 2.3574566758e+00 -4.0832347391e+00 2.3574566758e+00 4.0832347391e+00 
64600 6.1913635479e+00 1.9818188717e-05 2.3574566758e+00 -4.0832347391e+00 2.3574566758e+00 4.0832347391e+00 
64700 6.1913635481e+00 1.8091475937e-05 2.3574566758e+00 -4.0832347391e+00 2.3574566758e+00 4.0832347391e+00 
64800 6.1913635483e+00 1.6357789787e-05 2.3574566758e+00 -4.0832347391e+00 2.3574566758e+00 4.0832347391e+00 
64900 6.1913635485e+00 1.4622581904e-05 2.3574566758e+00 -4.0832347391e+00 2.3574566758e+00 4.0832347391e+00 
65000 6.1913635487e+00 1.2891158565e-05 2.3574566758e+00 -4.0832347391e+00 2.3574566758e+00 4.0832347391e+00 
65100 6.1913635488e+00 1.1168668425e-05 2.3574566758e+00 -4.0832347391e+00 2.3574566758e+00 4.0832347391e+00 
65200 6.1913635489e+00 9.4600910642e-06 2.3574566758e+00 -4.0832347391e+00 2.3574566758e+00 4.0832347391e+00 
65300 6.1913635490e+00 7.7702264191e-06 2.3574566758e+00 -4.0832347391e+00 2.3574566758e+00 4.0832347391e+00 
65400 6.1913635491e+00 6.1036850350e-06 2.3574566758e+00 -4.0832347391e+00 2.3574566758e+00 4.0832347391e+00 
65500 6.1913635491e+00 4.4648791841e-06 2.3574566758e+00 -4.0832347391e+00 2.3574566758e+00 4.0832347391e+00 
65600 6.1913635492e+00 2.8580148662e-06 2.3574566758e+00 -4.0832347391e+00 2.3574566758e+00 4.0832347391e+00 
65700 6.1913635492e+00 1.2870846444e-06 2.3574566758e+00 -4.0832347391e+00 2.3574566758e+00 4.0832347391e+00 
65800 6.1913635492e+00 -2.4413864098e-07 2.3574566758e+00 -4.0832347391e+00 2.3574566758e+00 4.0832347391e+00 
65900 6.1913635492e+00 -1.7321073131e-06 2.3574566758e+00 -4.0832347391e+00 2.3574566758e+00 4.0832347391e+00 
66000 6.1913635491e+00 -3.1735034410e-06 2.3574566758e+00 -4.0832347391e+00 2.3574566758e+00 4.0832347391e+00 
66100 6.1913635491e+00 -4.5652426010e-06 2.3574566758e+00 -4.0832347391e+00 2.3574566758e+00 4.0832347391e+00 
66200 6.1913635490e+00 -5.9044767888e-06 2.3574566758e+00 -4.0832347391e+00 2.3574566758e+00 4.0832347391e+00 
66300 6.1913635490e+00 -7.1885965418e-06 2.3574566758e+00 -4.0832347391e+00 2.3574566758e+00 4.0832347391e+00 
66400 6.1913635489e+00 -8.4152322603e-06 2.3574566758e+00 -4.0832347391e+00 2.3574566758e+00 4.0832347391e+00 
66500 6.1913635489e+00 -9.5822547441e-06 2.3574566758e+00 -4.0832347391e+00 2.3574566758e+00 4.0832347391e+00 
66600 6.1913635488e+00 -1.0687774985e-05 2.3574566758e+00 -4.0832347391e+00 2.3574566758e+00 4.0832347391e+00 
66700 6.1913635488e+00 -1.1730143221e-05 2.3574566758e+00 -4.0832347391e+00 2.3574566758e+00 4.0832347391e+00 
66800 6.1913635487e+00 -1.2707947282e-05 2.3574566758e+00 -4.0832347391e+00 2.3574566758e+00 4.0832347391e+00 
66900 6.1913635486e+00 -1.3620010238e-05 2.3574566758e+00 -4.0832347391e+00 2.3574566758e+00 4.0832347391e+00 
67000 6.1913635486e+00 -1.4465387425e-05 2.3574566758e+00 -4.0832347391e+00 2.3574566758e+00 4.0832347391e+00 
67100 6.1913635485e+00 -1.5243362794e-05 2.3574566758e+00 -4.0832347391e+00 2.3574566758e+00 4.0832347391e+00 
67200 6.1913635485e+00 -1.5953444696e-05 2.3574566758e+00 -4.0832347391e+00 2.3574566758e+00 4.0832347391e+00 
67300 6.1913635485e+00 -1.6595361078e-05 2.3574566758e+00 -4.0832347391e+00 2.3574566758e+00 4.0832347391e+00 
67400 6.1913635484e+00 -1.7169054145e-05 2.3574566758e+00 -4.0832347391e+00 2.3574566758e+00 4.0832347391e+00 
67500 6.1913635484e+00 -1.7674674519e-05 2.3574566758e+00 -4.0832347391e+00 2.3574566758e+00 4.0832347391e+00 
67600 6.1913635484e+00 -1.8112574910e-05 2.3574566758e+00 -4.0832347391e+00 2.3574566758e+00 4.0832347391e+00 
67700 6.1913635484e+00 -1.8483303359e-05 2.3574566758e+00 -4.0832347391e+00 2.3574566758e+00 4.0832347391e+00 
67800 6.1913635484e+00 -1.8787596058e-05 2.3574566758e+00 -4.0832347391e+00 2.3574566758e+00 4.0832347391e+00 
67900 6.1913635484e+00 -1.9026369814e-05 2.3574566758e+00 -4.0832347391e+00 2.3574566758e+00 4.0832347391e+00 
68000 6.1913635484e+00 -1.9200714149e-05 2.3574566758e+00 -4.0832347391e+00 2.3574566758e+00 4.0832347391e+00 
68100 6.1913635485e+00 -1.9311883111e-05 2.3574566758e+00 -4.0832347391e+00 2.3574566758e+00 4.0832347391e+00 
68200 6.1913635485e+00 -1.9361286802e-05 2.3574566758e+00 -4.0832347391e+00 2.3574566758e+00 4.0832347391e+00 
68300 6.1913635486e+00 -1.9350482679e-05 2.3574566758e+00 -4.0832347391e+00 2.3574566758e+00 4.0832347391e+00 
68400 6.1913635486e+00 -1.9281166622e-05 2.3574566758e+00 -4.0832347391e+00 2.3574566758e+00 4.0832347391e+00 
68500 6.1913635487e+00 -1.9155163870e-05 2.3574566758e+00 -4.0832347391e+00 2.3574566758e+00 4.0832347391e+00 
68600 6.1913635488e+00 -1.8974419780e-05 2.3574566758e+00 -4.0832347391e+00 2.3574566758e+00 4.0832347391e+00 
68700 6.1913635488e+00 -1.8740990501e-05 2.3574566758e+00 -4.0832347391e+00 2.3574566758e+00 4.0832347391e+00 
68800 6.1913635489e+00 -1.8457033570e-05 2.3574566758e+00 -4.0832347391e+00 2.3574566758e+00 4.0832347391e+00 
68900 6.1913635490e+00 -1.8124798454e-05 2.3574566758e+00 -4.0832347391e+00 2.3574566758e+00 4.0832347391e+00 
69000 6.1913635491e+00 -1.7746617092e-05 2.3574566758e+00 -4.0832347391e+00 2.3574566758e+00 4.0832347391e+00 
69100 6.1913635492e+00 -1.7324894437e-05 2.3574566758e+00 -4.0832347391e+00 2.3574566758e+00 4.0832347391e+00 
69200 6.1913635493e+00 -1.6862099057e-05 2.3574566758e+00 -4.0832347391e+00 2.3574566758e+00 4.0832347391e+00 
69300 6.1913635494e+00 -1.6360753806e-05 2.3574566758e+00 -4.0832347391e+00 2.3574566758e+00 4.0832347391e+00 
69400 6.1913635495e+00 -1.5823426584e-05 2.3574566758e+00 -4.0832347391e+00 2.3574566758e+00 4.0832347391e+00 
69500 6.1913635496e+00 -1.5252721230e-05 2.3574566758e+00 -4.0832347391e+00 2.3574566758e+00 4.0832347391e+00 
69600 6.1913635497e+00 -1.4651268561e-05 2.3574566758e+00 -4.0832347391e+00 2.3574566758e+00 4.0832347391e+00 
69700 6.1913635497e+00 -1.4021717580e-05 2.3574566758e+00 -4.0832347391e+00 2.3574566758e+00 4.0832347391e+00 
69800 6.1913635498e+00 -1.3366726897e-05 2.3574566758e+00 -4.0832347391e+00 2.3574566758e+00 4.0832347391e+00 
69900 6.1913635499e+00 -1.2688956328e-05 2.3574566758e+00 -4.0832347391e+00 2.3574566758e+00 4.0832347391e+00 
70000 6.1913635500e+00 -1.1991058772e-05 2.3574566758e+00 -4.0832347391e+00 2.3574566758e+00 4.0832347391e+00 
70100 6.1913635501e+00 -1.1275672311e-05 2.3574566758e+00 -4.0832347391e+00 2.3574566758e+00 4.0832347391e+00 
70200 6.1913635502e+00 -1.0545412590e-05 2.3574566758e+00 -4.0832347391e+00 2.3574566758e+00 4.0832347391e+00 
70300 6.1913635502e+00 -9.8028654842e-06 2.3574566758e+00 -4.0832347391e+00 2.3574566758e+00 4.0832347391e+00 
70400 6.1913635503e+00 -9.0505800661e-06 2.3574566758e+00 -4.0832347391e+00 2.3574566758e+00 4.0832347391e+00 
70500 6.1913635504e+00 -8.2910618918e-06 2.3574566758e+00 -4.0832347391e+00 2.3574566758e+00 4.0832347391e+00 
70600 6.1913635504e+00 -7.5267665934e-06 2.3574566758e+00 -4.0832347391e+00 2.3574566758e+00 4.0832347391e+00 
70700 6.1913635505e+00 -6.7600938265e-06 2.3574566758e+00 -4.0832347391e+00 2.3574566758e+00 4.0832347391e+00 
70800 6.1913635505e+00 -6.0699892969e-06 2.3574566758e+00 -4.0832347391e+00 2.3574566758e+00 4.0832347391e+00 
70800 6.1913635505e+00 -6.0699892969e-06 2.3574566758e+00 -4.0832347391e+00 2.3574566758e+00 4.0832347391e+00 
