# step Hamiltonian StressXX CellTensor1 CellTensor2 CellTensor3 CellTensor4 
0 4.5381262014e+00 -4.6176085981e-01 1.7438352029e+00 -3.0204111715e+00 1.7438352029e+00 3.0204111715e+00 
100 4.5448181597e+00 -4.6232425274e-01 1.7438352029e+00 -3.0204111715e+00 1.7438352029e+00 3.0204111715e+00 
200 4.5470607765e+00 -4.4959609894e-01 1.7571078323e+00 -3.0434000399e+00 1.7571078323e+00 3.0434000399e+00 
300 4.5519101465e+00 -4.3754819779e-01 1.7699168852e+00 -3.0655859703e+00 1.7699168852e+00 3.0655859703e+00 
400 4.5589682083e+00 -4.2619067363e-01 1.7822918717e+00 -3.0870200758e+00 1.7822918717e+00 3.0870200758e+00 
500 4.5678240935e+00 -4.1554063900e-01 1.7942614041e+00 -3.1077519139e+00 1.7942614041e+00 3.1077519139e+00 
600 4.5780637711e+00 -4.0561852145e-01 1.8058534925e+00 -3.1278300000e+00 1.8058534925e+00 3.1278300000e+00 
700 4.5892792414e+00 -3.9644493752e-01 1.8170957209e+00 -3.1473021107e+00 1.8170957209e+00 3.1473021107e+00 
800 4.6010770456e+00 -3.8803806572e-01 1.8280153228e+00 -3.1662154161e+00 1.8280153228e+00 3.1662154161e+00 
900 4.6130858813e+00 -3.8041149484e-01 1.8386391778e+00 -3.1846164727e+00 1.8386391778e+00 3.1846164727e+00 
1000 4.6249631511e+00 -3.7357253750e-01 1.8489937440e+00 -3.2025511075e+00 1.8489937440e+00 3.2025511075e+00 
1100 4.6364003117e+00 -3.6752100364e-01 1.8591049426e+00 -3.2200642173e+00 1.8591049426e+00 3.2200642173e+00 
1200 4.6471269384e+00 -3.6224842551e-01 1.8689980084e+00 -3.2371995098e+00 1.8689980084e+00 3.2371995098e+00 
1300 4.6569134733e+00 -3.5773771657e-01 1.8786973194e+00 -3.2539992093e+00 1.8786973194e+00 3.2539992093e+00 
1400 4.6655726739e+00 -3.5396323495e-01 1.8882262187e+00 -3.2705037470e+00 1.8882262187e+00 3.2705037470e+00 
1500 4.6729598273e+00 -3.5089120843e-01 1.8976068380e+00 -3.2867514562e+00 1.8976068380e+00 3.2867514562e+00 
1600 4.6789718387e+00 -3.4848046625e-01 1.9068599340e+00 -3.3027782886e+00 1.9068599340e+00 3.3027782886e+00 
1700 4.6835453335e+00 -3.4668341323e-01 1.9160047445e+00 -3.3186175650e+00 1.9160047445e+00 3.3186175650e+00 
1800 4.6866539389e+00 -3.4544717675e-01 1.9250588703e+00 -3.3342997709e+00 1.9250588703e+00 3.3342997709e+00 
1900 4.6883049224e+00 -3.4471485575e-01 1.9340381873e+00 -3.3498524042e+00 1.9340381873e+00 3.3498524042e+00 
2000 4.6885353695e+00 -3.4442680442e-01 1.9429567903e+00 -3.3652998776e+00 1.9429567903e+00 3.3652998776e+00 
2100 4.6874080750e+00 -3.4452189039e-01 1.9518269691e+00 -3.3806634781e+00 1.9518269691e+00 3.3806634781e+00 
2200 4.6850073103e+00 -3.4493867667e-01 1.9606592162e+00 -3.3959613788e+00 1.9606592162e+00 3.3959613788e+00 
2300 4.6814346104e+00 -3.4561648871e-01 1.9694622618e+00 -3.4112087011e+00 1.9694622618e+00 3.4112087011e+00 
2400 4.6768046998e+00 -3.4649633933e-01 1.9782431354e+00 -3.4264176203e+00 1.9782431354e+00 3.4264176203e+00 
2500 4.6712416530e+00 -3.4752169632e-01 1.9870072469e+00 -3.4415975067e+00 1.9870072469e+00 3.4415975067e+00 
2600 4.6648753629e+00 -3.4863908783e-01 1.9957584855e+00 -3.4567550964e+00 1.9957584855e+00 3.4567550964e+00 
2700 4.6578383625e+00 -3.4979854917e-01 2.0044993298e+00 -3.4718946829e+00 2.0044993298e+00 3.4718946829e+00 
2800 4.6502630300e+00 -3.5095392170e-01 2.0132309670e+00 -3.4870183223e+00 2.0132309670e+00 3.4870183223e+00 
2900 4.6422791860e+00 -3.5206301896e-01 2.0219534155e+00 -3.5021260463e+00 2.0219534155e+00 3.5021260463e+00 
3000 4.6340120779e+00 -3.5308767830e-01 2.0306656485e+00 -3.5172160764e+00 2.0306656485e+00 3.5172160764e+00 
3100 4.6255807366e+00 -3.5399371741e-01 2.0393657157e+00 -3.5322850347e+00 2.0393657157e+00 3.5322850347e+00 
3200 4.6170966797e+00 -3.5475081525e-01 2.0480508606e+00 -3.5473281471e+00 2.0480508606e+00 3.5473281471e+00 
3300 4.6086629329e+00 -3.5533233581e-01 2.0567176324e+00 -3.5623394361e+00 2.0567176324e+00 3.5623394361e+00 
3400 4.6003733345e+00 -3.5571511164e-01 2.0653619894e+00 -3.5773119017e+00 2.0653619894e+00 3.5773119017e+00 
3500 4.5923120918e+00 -3.5587920170e-01 2.0739793959e+00 -3.5922376875e+00 2.0739793959e+00 3.5922376875e+00 
3600 4.5845535516e+00 -3.5580763637e-01 2.0825649093e+00 -3.6071082329e+00 2.0825649093e+00 3.6071082329e+00 
3700 4.5771621556e+00 -3.5548615965e-01 2.0911132597e+00 -3.6219144101e+00 2.0911132597e+00 3.6219144101e+00 
3800 4.5701925470e+00 -3.5490297690e-01 2.0996189208e+00 -3.6366466473e+00 2.0996189208e+00 3.6366466473e+00 
3900 4.5636898025e+00 -3.5404851434e-01 2.1080761726e+00 -3.6512950372e+00 2.1080761726e+00 3.6512950372e+00 
4000 4.5576897639e+00 -3.5291519472e-01 2.1164791573e+00 -3.6658494337e+00 2.1164791573e+00 3.6658494337e+00 
4100 4.5522194468e+00 -3.5149723246e-01 2.1248219276e+00 -3.6802995357e+00 2.1248219276e+00 3.6802995357e+00 
4200 4.5472975083e+00 -3.4979044993e-01 2.1330984892e+00 -3.6946349609e+00 2.1330984892e+00 3.6946349609e+00 
4300 4.5429347565e+00 -3.4779211593e-01 2.1413028379e+00 -3.7088453097e+00 2.1413028379e+00 3.7088453097e+00 
4400 4.5391346893e+00 -3.4550080638e-01 2.1494289917e+00 -3.7229202209e+00 2.1494289917e+00 3.7229202209e+00 
4500 4.5358940509e+00 -3.4291628688e-01 2.1574710186e+00 -3.7368494202e+00 2.1574710186e+00 3.7368494202e+00 
4600 4.5332033968e+00 -3.4003941621e-01 2.1654230615e+00 -3.7506227624e+00 2.1654230615e+00 3.7506227624e+00 
4700 4.5310476619e+00 -3.3687206944e-01 2.1732793592e+00 -3.7642302692e+00 2.1732793592e+00 3.7642302692e+00 
4800 4.5294067243e+00 -3.3341707934e-01 2.1810342661e+00 -3.7776621619e+00 2.1810342661e+00 3.7776621619e+00 
4900 4.5282559632e+00 -3.2967819435e-01 2.1886822694e+00 -3.7909088922e+00 2.1886822694e+00 3.7909088922e+00 
5000 4.5275668067e+00 -3.2566005133e-01 2.1962180051e+00 -3.8039611693e+00 2.1962180051e+00 3.8039611693e+00 
5100 4.5273072691e+00 -3.2136816117e-01 2.2036362728e+00 -3.8168099860e+00 2.2036362728e+00 3.8168099860e+00 
5200 4.5274424762e+00 -3.1680890537e-01 2.2109320506e+00 -3.8294466437e+00 2.2109320506e+00 3.8294466437e+00 
5300 4.5279351786e+00 -3.1198954133e-01 2.2181005083e+00 -3.8418627766e+00 2.2181005083e+00 3.8418627766e+00 
5400 4.5287462533e+00 -3.0691821433e-01 2.2251370219e+00 -3.8540503757e+00 2.2251370219e+00 3.8540503757e+00 
5500 4.5298351942e+00 -3.0160397370e-01 2.2320371873e+00 -3.8660018127e+00 2.2320371873e+00 3.8660018127e+00 
5600 4.5311605904e+00 -2.9605679100e-01 2.2387968343e+00 -3.8777098648e+00 2.2387968343e+00 3.8777098648e+00 
5700 4.5326805951e+00 -2.9028757750e-01 2.2454120413e+00 -3.8891677394e+00 2.2454120413e+00 3.8891677394e+00 
5800 4.5343533830e+00 -2.8430819859e-01 2.2518791495e+00 -3.9003690995e+00 2.2518791495e+00 3.9003690995e+00 
5900 4.5361375959e+00 -2.7813148249e-01 2.2581947784e+00 -3.9113080896e+00 2.2581947784e+00 3.9113080896e+00 
6000 4.5379927767e+00 -2.7177122077e-01 2.2643558403e+00 -3.9219793617e+00 2.2643558403e+00 3.9219793617e+00 
6100 4.5398797886e+00 -2.6524215837e-01 2.2703595553e+00 -3.9323781013e+00 2.2703595553e+00 3.9323781013e+00 
6200 4.5417612177e+00 -2.5855997109e-01 2.2762034669e+00 -3.9425000529e+00 2.2762034669e+00 3.9425000529e+00 
6300 4.5436017560e+00 -2.5174122876e-01 2.2818854552e+00 -3.9523415454e+00 2.2818854552e+00 3.9523415454e+00 
6400 4.5453685596e+00 -2.4480334306e-01 2.2874037516e+00 -3.9618995152e+00 2.2874037516e+00 3.9618995152e+00 
6500 4.5470315785e+00 -2.3776449939e-01 2.2927569510e+00 -3.9711715286e+00 2.2927569510e+00 3.9711715286e+00 
6600 4.5485638528e+00 -2.3064357303e-01 2.2979440232e+00 -3.9801558012e+00 2.2979440232e+00 3.9801558012e+00 
6700 4.5499417685e+00 -2.2346003055e-01 2.3029643226e+00 -3.9888512148e+00 2.3029643226e+00 3.9888512148e+00 
6800 4.5511452691e+00 -2.1623381825e-01 2.3078175963e+00 -3.9972573315e+00 2.3078175963e+00 3.9972573315e+00 
6900 4.5521580164e+00 -2.0898524000e-01 2.3125039899e+00 -4.0053744031e+00 2.3125039899e+00 4.0053744031e+00 
7000 4.5529674973e+00 -2.0173482758e-01 2.3170240505e+00 -4.0132033779e+00 2.3170240505e+00 4.0132033779e+00 
7100 4.5535650713e+00 -1.9450320660e-01 2.3213787287e+00 -4.0207459017e+00 2.3213787287e+00 4.0207459017e+00 
7200 4.5539459590e+00 -1.8731096155e-01 2.3255693763e+00 -4.0280043162e+00 2.3255693763e+00 4.0280043162e+00 
7300 4.5541091686e+00 -1.8017850304e-01 2.3295977431e+00 -4.0349816522e+00 2.3295977431e+00 4.0349816522e+00 
7400 4.5540573633e+00 -1.7312593990e-01 2.3334659704e+00 -4.0416816184e+00 2.3334659704e+00 4.0416816184e+00 
7500 4.5537966709e+00 -1.6617295815e-01 2.3371765824e+00 -4.0481085870e+00 2.3371765824e+00 4.0481085870e+00 
7600 4.5533364415e+00 -1.5933870814e-01 2.3407324759e+00 -4.0542675752e+00 2.3407324759e+00 4.0542675752e+00 
7700 4.5526889573e+00 -1.5264170019e-01 2.3441369074e+00 -4.0601642235e+00 2.3441369074e+00 4.0601642235e+00 
7800 4.5518691029e+00 -1.4609970865e-01 2.3473934788e+00 -4.0658047707e+00 2.3473934788e+00 4.0658047707e+00 
7900 4.5508940023e+00 -1.3972968341e-01 2.3505061216e+00 -4.0711960261e+00 2.3505061216e+00 4.0711960261e+00 
8000 4.5497826312e+00 -1.3354766793e-01 2.3534790791e+00 -4.0763453395e+00 2.3534790791e+00 4.0763453395e+00 
8100 4.5485554120e+00 -1.2756872264e-01 2.3563168878e+00 -4.0812605684e+00 2.3563168878e+00 4.0812605684e+00 
8200 4.5472338005e+00 -1.2180685292e-01 2.3590243572e+00 -4.0859500430e+00 2.3590243572e+00 4.0859500430e+00 
8300 4.5458398695e+00 -1.1627494106e-01 2.3616065486e+00 -4.0904225297e+00 2.3616065486e+00 4.0904225297e+00 
8400 4.5443958986e+00 -1.1098468241e-01 2.3640687522e+00 -4.0946871913e+00 2.3640687522e+00 4.0946871913e+00 
8500 4.5429239761e+00 -1.0594652606e-01 2.3664164637e+00 -4.0987535470e+00 2.3664164637e+00 4.0987535470e+00 
8600 4.5414456181e+00 -1.0116962127e-01 2.3686553599e+00 -4.1026314289e+00 2.3686553599e+00 4.1026314289e+00 
8700 4.5399814122e+00 -9.6661770852e-02 2.3707912723e+00 -4.1063309378e+00 2.3707912723e+00 4.1063309378e+00 
8800 4.5385506904e+00 -9.2429393084e-02 2.3728301615e+00 -4.1098623974e+00 2.3728301615e+00 4.1098623974e+00 
8900 4.5371712360e+00 -8.8477493519e-02 2.3747780891e+00 -4.1132363070e+00 2.3747780891e+00 4.1132363070e+00 
9000 4.5358590296e+00 -8.4809648067e-02 2.3766411906e+00 -4.1164632934e+00 2.3766411906e+00 4.1164632934e+00 
9100 4.5346280380e+00 -8.1427998227e-02 2.3784256470e+00 -4.1195540626e+00 2.3784256470e+00 4.1195540626e+00 
9200 4.5334900487e+00 -7.8333258993e-02 2.3801376567e+00 -4.1225193505e+00 2.3801376567e+00 4.1225193505e+00 
9300 4.5324545537e+00 -7.5524739519e-02 2.3817834077e+00 -4.1253698748e+00 2.3817834077e+00 4.1253698748e+00 
9400 4.5315286826e+00 -7.3000376148e-02 2.3833690497e+00 -4.1281162872e+00 2.3833690497e+00 4.1281162872e+00 
9500 4.5307171858e+00 -7.0756777053e-02 2.3849006671e+00 -4.1307691263e+00 2.3849006671e+00 4.1307691263e+00 
9600 4.5300224679e+00 -6.8789277402e-02 2.3863842531e+00 -4.1333387728e+00 2.3863842531e+00 4.1333387728e+00 
9700 4.5294446671e+00 -6.7092003759e-02 2.3878256848e+00 -4.1358354057e+00 2.3878256848e+00 4.1358354057e+00 
9800 4.5289817798e+00 -6.5657946289e-02 2.3892306990e+00 -4.1382689616e+00 2.3892306990e+00 4.1382689616e+00 
9900 4.5286298228e+00 -6.4479037320e-02 2.3906048701e+00 -4.1406490958e+00 2.3906048701e+00 4.1406490958e+00 
10000 4.5283830312e+00 -6.3546234844e-02 2.3919535893e+00 -4.1429851461e+00 2.3919535893e+00 4.1429851461e+00 
10100 4.5282340832e+00 -6.2849609613e-02 2.3932820456e+00 -4.1452860998e+00 2.3932820456e+00 4.1452860998e+00 
10200 4.5281743454e+00 -6.2378434652e-02 2.3945952078e+00 -4.1475605635e+00 2.3945952078e+00 4.1475605635e+00 
10300 4.5281941334e+00 -6.2121276119e-02 2.3958978098e+00 -4.1498167362e+00 2.3958978098e+00 4.1498167362e+00 
10400 4.5282829784e+00 -6.2066084608e-02 2.3971943357e+00 -4.1520623851e+00 2.3971943357e+00 4.1520623851e+00 
10500 4.5284298936e+00 -6.2200286121e-02 2.3984890090e+00 -4.1543048250e+00 2.3984890090e+00 4.1543048250e+00 
10600 4.5286236351e+00 -6.2510872067e-02 2.3997857814e+00 -4.1565509007e+00 2.3997857814e+00 4.1565509007e+00 
10700 4.5288529496e+00 -6.2984487737e-02 2.4010883252e+00 -4.1588069728e+00 2.4010883252e+00 4.1588069728e+00 
10800 4.5291068048e+00 -6.3607518770e-02 2.4024000267e+00 -4.1610789063e+00 2.4024000267e+00 4.1610789063e+00 
10900 4.5293745986e+00 -6.4366175220e-02 2.4037239810e+00 -4.1633720624e+00 2.4037239810e+00 4.1633720624e+00 
11000 4.5296463423e+00 -6.5246572839e-02 2.4050629897e+00 -4.1656912935e+00 2.4050629897e+00 4.1656912935e+00 
11100 4.5299128166e+00 -6.6234811241e-02 2.4064195592e+00 -4.1680409408e+00 2.4064195592e+00 4.1680409408e+00 
11200 4.5301656992e+00 -6.7317048632e-02 2.4077959011e+00 -4.1704248349e+00 2.4077959011e+00 4.1704248349e+00 
11300 4.5303976619e+00 -6.8479572808e-02 2.4091939340e+00 -4.1728462990e+00 2.4091939340e+00 4.1728462990e+00 
11400 4.5306024387e+00 -6.9708868146e-02 2.4106152870e+00 -4.1753081546e+00 2.4106152870e+00 4.1753081546e+00 
11500 4.5307748659e+00 -7.0991678334e-02 2.4120613044e+00 -4.1778127302e+00 2.4120613044e+00 4.1778127302e+00 
11600 4.5309108949e+00 -7.2315064620e-02 2.4135330517e+00 -4.1803618712e+00 2.4135330517e+00 4.1803618712e+00 
11700 4.5310075810e+00 -7.3666459379e-02 2.4150313229e+00 -4.1829569531e+00 2.4150313229e+00 4.1829569531e+00 
11800 4.5310630497e+00 -7.5033714869e-02 2.4165566490e+00 -4.1855988955e+00 2.4165566490e+00 4.1855988955e+00 
11900 4.5310764437e+00 -7.6405147049e-02 2.4181093075e+00 -4.1882881788e+00 2.4181093075e+00 4.1882881788e+00 
12000 4.5310478541e+00 -7.7769574423e-02 2.4196893325e+00 -4.1910248624e+00 2.4196893325e+00 4.1910248624e+00 
12100 4.5309782380e+00 -7.9116351892e-02 2.4212965259e+00 -4.1938086031e+00 2.4212965259e+00 4.1938086031e+00 
12200 4.5308693261e+00 -8.0435399676e-02 2.4229304696e+00 -4.1966386765e+00 2.4229304696e+00 4.1966386765e+00 
12300 4.5307235230e+00 -8.1717227393e-02 2.4245905374e+00 -4.1995139983e+00 2.4245905374e+00 4.1995139983e+00 
12400 4.5305438031e+00 -8.2952953443e-02 2.4262759083e+00 -4.2024331464e+00 2.4262759083e+00 4.2024331464e+00 
12500 4.5303336047e+00 -8.4134319896e-02 2.4279855796e+00 -4.2053943840e+00 2.4279855796e+00 4.2053943840e+00 
12600 4.5300967245e+00 -8.5253703083e-02 2.4297183807e+00 -4.2083956834e+00 2.4297183807e+00 4.2083956834e+00 
12700 4.5298372148e+00 -8.6304120172e-02 2.4314729864e+00 -4.2114347497e+00 2.4314729864e+00 4.2114347497e+00 
12800 4.5295592848e+00 -8.7279231987e-02 2.4332479313e+00 -4.2145090444e+00 2.4332479313e+00 4.2145090444e+00 
12900 4.5292672079e+00 -8.8173342370e-02 2.4350416233e+00 -4.2176158101e+00 2.4350416233e+00 4.2176158101e+00 
13000 4.5289652360e+00 -8.8981394378e-02 2.4368523574e+00 -4.2207520936e+00 2.4368523574e+00 4.2207520936e+00 
13100 4.5286575216e+00 -8.9698963634e-02 2.4386783297e+00 -4.2239147704e+00 2.4386783297e+00 4.2239147704e+00 
13200 4.5283480490e+00 -9.0322249106e-02 2.4405176504e+00 -4.2271005673e+00 2.4405176504e+00 4.2271005673e+00 
13300 4.5280405741e+00 -9.0848061621e-02 2.4423683572e+00 -4.2303060855e+00 2.4423683572e+00 4.2303060855e+00 
13400 4.5277385738e+00 -9.1273810381e-02 2.4442284285e+00 -4.2335278234e+00 2.4442284285e+00 4.2335278234e+00 
13500 4.5274452048e+00 -9.1597487726e-02 2.4460957953e+00 -4.2367621977e+00 2.4460957953e+00 4.2367621977e+00 
13600 4.5271632711e+00 -9.1817652401e-02 2.4479683541e+00 -4.2400055647e+00 2.4479683541e+00 4.2400055647e+00 
13700 4.5268952012e+00 -9.1933411512e-02 2.4498439782e+00 -4.2432542408e+00 2.4498439782e+00 4.2432542408e+00 
13800 4.5266430333e+00 -9.1944401386e-02 2.4517205291e+00 -4.2465045223e+00 2.4517205291e+00 4.2465045223e+00 
13900 4.5264084086e+00 -9.1850767474e-02 2.4535958675e+00 -4.2497527037e+00 2.4535958675e+00 4.2497527037e+00 
14000 4.5261925722e+00 -9.1653143467e-02 2.4554678635e+00 -4.2529950960e+00 2.4554678635e+00 4.2529950960e+00 
14100 4.5259963805e+00 -9.1352629725e-02 2.4573344069e+00 -4.2562280439e+00 2.4573344069e+00 4.2562280439e+00 
14200 4.5258203148e+00 -9.0950771122e-02 2.4591934159e+00 -4.2594479420e+00 2.4591934159e+00 4.2594479420e+00 
14300 4.5256645005e+00 -9.0449534409e-02 2.4610428467e+00 -4.2626512502e+00 2.4610428467e+00 4.2626512502e+00 
14400 4.5255287304e+00 -8.9851285130e-02 2.4628807014e+00 -4.2658345078e+00 2.4628807014e+00 4.2658345078e+00 
14500 4.5254124920e+00 -8.9158764175e-02 2.4647050360e+00 -4.2689943480e+00 2.4647050360e+00 4.2689943480e+00 
14600 4.5253149985e+00 -8.8375063999e-02 2.4665139677e+00 -4.2721275096e+00 2.4665139677e+00 4.2721275096e+00 
14700 4.5252352211e+00 -8.7503604538e-02 2.4683056817e+00 -4.2752308494e+00 2.4683056817e+00 4.2752308494e+00 
14800 4.5251719239e+00 -8.6548108873e-02 2.4700784376e+00 -4.2783013527e+00 2.4700784376e+00 4.2783013527e+00 
14900 4.5251236996e+00 -8.5512578644e-02 2.4718305750e+00 -4.2813361436e+00 2.4718305750e+00 4.2813361436e+00 
15000 4.5250890050e+00 -8.4401269263e-02 2.4735605185e+00 -4.2843324936e+00 2.4735605185e+00 4.2843324936e+00 
15100 4.5250661969e+00 -8.3218664944e-02 2.4752667829e+00 -4.2872878302e+00 2.4752667829e+00 4.2872878302e+00 
15200 4.5250535671e+00 -8.1969453591e-02 2.4769479770e+00 -4.2901997438e+00 2.4769479770e+00 4.2901997438e+00 
15300 4.5250493758e+00 -8.0658501567e-02 2.4786028073e+00 -4.2930659940e+00 2.4786028073e+00 4.2930659940e+00 
15400 4.5250518834e+00 -7.9290828406e-02 2.4802300814e+00 -4.2958845154e+00 2.4802300814e+00 4.2958845154e+00 
15500 4.5250593805e+00 -7.7871581503e-02 2.4818287101e+00 -4.2986534215e+00 2.4818287101e+00 4.2986534215e+00 
15600 4.5250702145e+00 -7.6406010851e-02 2.4833977100e+00 -4.3013710091e+00 2.4833977100e+00 4.3013710091e+00 
15700 4.5250828147e+00 -7.4899443872e-02 2.4849362049e+00 -4.3040357604e+00 2.4849362049e+00 4.3040357604e+00 
15800 4.5250957132e+00 -7.3357260427e-02 2.4864434269e+00 -4.3066463455e+00 2.4864434269e+00 4.3066463455e+00 
15900 4.5251075634e+00 -7.1784868084e-02 2.4879187170e+00 -4.3092016230e+00 2.4879187170e+00 4.3092016230e+00 
16000 4.5251171551e+00 -7.0187677700e-02 2.4893615254e+00 -4.3117006405e+00 2.4893615254e+00 4.3117006405e+00 
16100 4.5251234260e+00 -6.8571079443e-02 2.4907714110e+00 -4.3141426339e+00 2.4907714110e+00 4.3141426339e+00 
16200 4.5251254701e+00 -6.6940419302e-02 2.4921480406e+00 -4.3165270263e+00 2.4921480406e+00 4.3165270263e+00 
16300 4.5251225430e+00 -6.5300976215e-02 2.4934911877e+00 -4.3188534253e+00 2.4934911877e+00 4.3188534253e+00 
16400 4.5251140637e+00 -6.3657939878e-02 2.4948007309e+00 -4.3211216207e+00 2.4948007309e+00 4.3211216207e+00 
16500 4.5250996138e+00 -6.2016389344e-02 2.4960766517e+00 -4.3233315803e+00 2.4960766517e+00 4.3233315803e+00 
16600 4.5250789339e+00 -6.0381272503e-02 2.4973190320e+00 -4.3254834462e+00 2.4973190320e+00 4.3254834462e+00 
16700 4.5250519166e+00 -5.8757386531e-02 2.4985280514e+00 -4.3275775292e+00 2.4985280514e+00 4.3275775292e+00 
16800 4.5250185987e+00 -5.7149359386e-02 2.4997039836e+00 -4.3296143035e+00 2.4997039836e+00 4.3296143035e+00 
16900 4.5249791501e+00 -5.5561632450e-02 2.5008471933e+00 -4.3315944007e+00 2.5008471933e+00 4.3315944007e+00 
17000 4.5249338617e+00 -5.3998444377e-02 2.5019581317e+00 -4.3335186025e+00 2.5019581317e+00 4.3335186025e+00 
17100 4.5248831316e+00 -5.2463816230e-02 2.5030373329e+00 -4.3353878338e+00 2.5030373329e+00 4.3353878338e+00 
17200 4.5248274503e+00 -5.0961537963e-02 2.5040854090e+00 -4.3372031550e+00 2.5040854090e+00 4.3372031550e+00 
17300 4.5247673852e+00 -4.9495156310e-02 2.5051030458e+00 -4.3389657536e+00 2.5051030458e+00 4.3389657536e+00 
17400 4.5247035649e+00 -4.8067964121e-02 2.5060909974e+00 -4.3406769358e+00 2.5060909974e+00 4.3406769358e+00 
17500 4.5246366631e+00 -4.6682991201e-02 2.5070500812e+00 -4.3423381178e+00 2.5070500812e+00 4.3423381178e+00 
17600 4.5245673826e+00 -4.5342996662e-02 2.5079811731e+00 -4.3439508162e+00 2.5079811731e+00 4.3439508162e+00 
17700 4.5244964404e+00 -4.4050462827e-02 2.5088852014e+00 -4.3455166392e+00 2.5088852014e+00 4.3455166392e+00 
17800 4.5244245527e+00 -4.2807590683e-02 2.5097631418e+00 -4.3470372765e+00 2.5097631418e+00 4.3470372765e+00 
17900 4.5243524215e+00 -4.1616296902e-02 2.5106160114e+00 -4.3485144900e+00 2.5106160114e+00 4.3485144900e+00 
18000 4.5242807221e+00 -4.0478212403e-02 2.5114448634e+00 -4.3499501039e+00 2.5114448634e+00 4.3499501039e+00 
18100 4.5242100918e+00 -3.9394682442e-02 2.5122507815e+00 -4.3513459949e+00 2.5122507815e+00 4.3513459949e+00 
18200 4.5241411203e+00 -3.8366768212e-02 2.5130348738e+00 -4.3527040827e+00 2.5130348738e+00 4.3527040827e+00 
18300 4.5240743414e+00 -3.7395249896e-02 2.5137982677e+00 -4.3540263197e+00 2.5137982677e+00 4.3540263197e+00 
18400 4.5240102264e+00 -3.6480631140e-02 2.5145421042e+00 -4.3553146822e+00 2.5145421042e+00 4.3553146822e+00 
18500 4.5239491792e+00 -3.5623144872e-02 2.5152675321e+00 -4.3565711603e+00 2.5152675321e+00 4.3565711603e+00 
18600 4.5238915329e+00 -3.4822760421e-02 2.5159757037e+00 -4.3577977493e+00 2.5159757037e+00 4.3577977493e+00 
18700 4.5238375477e+00 -3.4079191840e-02 2.5166677683e+00 -4.3589964405e+00 2.5166677683e+00 4.3589964405e+00 
18800 4.5237874110e+00 -3.3391907367e-02 2.5173448684e+00 -4.3601692122e+00 2.5173448684e+00 4.3601692122e+00 
18900 4.5237412385e+00 -3.2760139926e-02 2.5180081341e+00 -4.3613180222e+00 2.5180081341e+00 4.3613180222e+00 
19000 4.5236990761e+00 -3.2182898586e-02 2.5186586791e+00 -4.3624447991e+00 2.5186586791e+00 4.3624447991e+00 
19100 4.5236609042e+00 -3.1658980858e-02 2.5192975957e+00 -4.3635514352e+00 2.5192975957e+00 4.3635514352e+00 
19200 4.5236266419e+00 -3.1186985760e-02 2.5199259514e+00 -4.3646397791e+00 2.5199259514e+00 4.3646397791e+00 
19300 4.5235961525e+00 -3.0765327517e-02 2.5205447843e+00 -4.3657116291e+00 2.5205447843e+00 4.3657116291e+00 
19400 4.5235692499e+00 -3.0392249810e-02 2.5211551001e+00 -4.3667687272e+00 2.5211551001e+00 4.3667687272e+00 
19500 4.5235457049e+00 -3.0065840455e-02 2.5217578687e+00 -4.3678127530e+00 2.5217578687e+00 4.3678127530e+00 
19600 4.5235252529e+00 -2.9784046422e-02 2.5223540208e+00 -4.3688453187e+00 2.5223540208e+00 4.3688453187e+00 
19700 4.5235076007e+00 -2.9544689074e-02 2.5229444456e+00 -4.3698679645e+00 2.5229444456e+00 4.3698679645e+00 
19800 4.5234924340e+00 -2.9345479542e-02 2.5235299883e+00 -4.3708821541e+00 2.5235299883e+00 4.3708821541e+00 
19900 4.5234794245e+00 -2.9184034123e-02 2.5241114477e+00 -4.3718892713e+00 2.5241114477e+00 4.3718892713e+00 
20000 4.5234682372e+00 -2.9057889622e-02 2.5246895748e+00 -4.3728906170e+00 2.5246895748e+00 4.3728906170e+00 
20100 4.5234585368e+00 -2.8964518531e-02 2.5252650712e+00 -4.3738874059e+00 2.5252650712e+00 4.3738874059e+00 
20200 4.5234499939e+00 -2.8901343983e-02 2.5258385875e+00 -4.3748807653e+00 2.5258385875e+00 4.3748807653e+00 
20300 4.5234422906e+00 -2.8865754387e-02 2.5264107230e+00 -4.3758717329e+00 2.5264107230e+00 4.3758717329e+00 
20400 4.5234351257e+00 -2.8855117671e-02 2.5269820244e+00 -4.3768612561e+00 2.5269820244e+00 4.3768612561e+00 
20500 4.5234282186e+00 -2.8866795080e-02 2.5275529862e+00 -4.3778501909e+00 2.5275529862e+00 4.3778501909e+00 
20600 4.5234213135e+00 -2.8898154455e-02 2.5281240500e+00 -4.3788393025e+00 2.5281240500e+00 4.3788393025e+00 
20700 4.5234141817e+00 -2.8946582948e-02 2.5286956051e+00 -4.3798292649e+00 2.5286956051e+00 4.3798292649e+00 
20800 4.5234066241e+00 -2.9009499123e-02 2.5292679886e+00 -4.3808206623e+00 2.5292679886e+00 4.3808206623e+00 
20900 4.5233984727e+00 -2.9084364404e-02 2.5298414865e+00 -4.3818139897e+00 2.5298414865e+00 4.3818139897e+00 
21000 4.5233895910e+00 -2.9168693835e-02 2.5304163341e+00 -4.3828096549e+00 2.5304163341e+00 4.3828096549e+00 
21100 4.5233798742e+00 -2.9260066125e-02 2.5309927175e+00 -4.3838079803e+00 2.5309927175e+00 4.3838079803e+00 
21200 4.5233692489e+00 -2.9356132957e-02 2.5315707749e+00 -4.3848092051e+00 2.5315707749e+00 4.3848092051e+00 
21300 4.5233576719e+00 -2.9454627539e-02 2.5321505978e+00 -4.3858134877e+00 2.5321505978e+00 4.3858134877e+00 
21400 4.5233451282e+00 -2.9553372402e-02 2.5327322329e+00 -4.3868209093e+00 2.5327322329e+00 4.3868209093e+00 
21500 4.5233316297e+00 -2.9650286419e-02 2.5333156840e+00 -4.3878314762e+00 2.5333156840e+00 4.3878314762e+00 
21600 4.5233172124e+00 -2.9743391061e-02 2.5339009136e+00 -4.3888451237e+00 2.5339009136e+00 4.3888451237e+00 
21700 4.5233019338e+00 -2.9830815887e-02 2.5344878454e+00 -4.3898617193e+00 2.5344878454e+00 4.3898617193e+00 
21800 4.5232858702e+00 -2.9910803273e-02 2.5350763660e+00 -4.3908810670e+00 2.5350763660e+00 4.3908810670e+00 
21900 4.5232691136e+00 -2.9981712404e-02 2.5356663278e+00 -4.3919029108e+00 2.5356663278e+00 4.3919029108e+00 
22000 4.5232517685e+00 -3.0042022527e-02 2.5362575507e+00 -4.3929269388e+00 2.5362575507e+00 4.3929269388e+00 
22100 4.5232339494e+00 -3.0090335499e-02 2.5368498247e+00 -4.3939527876e+00 2.5368498247e+00 4.3939527876e+00 
22200 4.5232157769e+00 -3.0125377640e-02 2.5374429128e+00 -4.3949800463e+00 2.5374429128e+00 4.3949800463e+00 
22300 4.5231973758e+00 -3.0146000922e-02 2.5380365528e+00 -4.3960082609e+00 2.5380365528e+00 4.3960082609e+00 
22400 4.5231788715e+00 -3.0151183508e-02 2.5386304602e+00 -4.3970369388e+00 2.5386304602e+00 4.3970369388e+00 
22500 4.5231603876e+00 -3.0140029685e-02 2.5392243308e+00 -4.3980655528e+00 2.5392243308e+00 4.3980655528e+00 
22600 4.5231420442e+00 -3.0111769201e-02 2.5398178429e+00 -4.3990935458e+00 2.5398178429e+00 4.3990935458e+00 
22700 4.5231239549e+00 -3.0065756048e-02 2.5404106598e+00 -4.4001203348e+00 2.5404106598e+00 4.4001203348e+00 
22800 4.5231062256e+00 -3.0001466712e-02 2.5410024327e+00 -4.4011453155e+00 2.5410024327e+00 4.4011453155e+00 
22900 4.5230889527e+00 -2.9918497935e-02 2.5415928026e+00 -4.4021678662e+00 2.5415928026e+00 4.4021678662e+00 
23000 4.5230722220e+00 -2.9816563999e-02 2.5421814030e+00 -4.4031873521e+00 2.5421814030e+00 4.4031873521e+00 
23100 4.5230561076e+00 -2.9695493583e-02 2.5427678622e+00 -4.4042031291e+00 2.5427678622e+00 4.4042031291e+00 
23200 4.5230406714e+00 -2.9555226220e-02 2.5433518052e+00 -4.4052145480e+00 2.5433518052e+00 4.4052145480e+00 
23300 4.5230259627e+00 -2.9395808375e-02 2.5439328563e+00 -4.4062209582e+00 2.5439328563e+00 4.4062209582e+00 
23400 4.5230120179e+00 -2.9217389193e-02 2.5445106413e+00 -4.4072217110e+00 2.5445106413e+00 4.4072217110e+00 
23500 4.5229988611e+00 -2.9020215934e-02 2.5450847887e+00 -4.4082161637e+00 2.5450847887e+00 4.4082161637e+00 
23600 4.5229865038e+00 -2.8804629140e-02 2.5456549328e+00 -4.4092036821e+00 2.5456549328e+00 4.4092036821e+00 
23700 4.5229749461e+00 -2.8571057548e-02 2.5462207144e+00 -4.4101836447e+00 2.5462207144e+00 4.4101836447e+00 
23800 4.5229641770e+00 -2.8320012799e-02 2.5467817833e+00 -4.4111554445e+00 2.5467817833e+00 4.4111554445e+00 
23900 4.5229541757e+00 -2.8052083960e-02 2.5473377996e+00 -4.4121184930e+00 2.5473377996e+00 4.4121184930e+00 
24000 4.5229449123e+00 -2.7767931889e-02 2.5478884352e+00 -4.4130722217e+00 2.5478884352e+00 4.4130722217e+00 
24100 4.5229363488e+00 -2.7468283485e-02 2.5484333751e+00 -4.4140160853e+00 2.5484333751e+00 4.4140160853e+00 
24200 4.5229284410e+00 -2.7153925834e-02 2.5489723190e+00 -4.4149495635e+00 2.5489723190e+00 4.4149495635e+00 
24300 4.5229211389e+00 -2.6825700291e-02 2.5495049821e+00 -4.4158721631e+00 2.5495049821e+00 4.4158721631e+00 
24400 4.5229143883e+00 -2.6484496528e-02 2.5500310964e+00 -4.4167834199e+00 2.5500310964e+00 4.4167834199e+00 
24500 4.5229081321e+00 -2.6131246557e-02 2.5505504116e+00 -4.4176829001e+00 2.5505504116e+00 4.4176829001e+00 
24600 4.5229023116e+00 -2.5766918774e-02 2.5510626955e+00 -4.4185702019e+00 2.5510626955e+00 4.4185702019e+00 
24700 4.5228968670e+00 -2.5392512043e-02 2.5515677354e+00 -4.4194449567e+00 2.5515677354e+00 4.4194449567e+00 
24800 4.5228917395e+00 -2.5009049832e-02 2.5520653381e+00 -4.4203068298e+00 2.5520653381e+00 4.4203068298e+00 
24900 4.5228868714e+00 -2.4617574447e-02 2.5525553304e+00 -4.4211555214e+00 2.5525553304e+00 4.4211555214e+00 
25000 4.5228822075e+00 -2.4219141361e-02 2.5530375599e+00 -4.4219907674e+00 2.5530375599e+00 4.4219907674e+00 
25100 4.5228776958e+00 -2.3814813686e-02 2.5535118947e+00 -4.4228123394e+00 2.5535118947e+00 4.4228123394e+00 
25200 4.5228732878e+00 -2.3405656783e-02 2.5539782238e+00 -4.4236200451e+00 2.5539782238e+00 4.4236200451e+00 
25300 4.5228689400e+00 -2.2992733048e-02 2.5544364571e+00 -4.4244137284e+00 2.5544364571e+00 4.4244137284e+00 
25400 4.5228646131e+00 -2.2577096881e-02 2.5548865252e+00 -4.4251932692e+00 2.5548865252e+00 4.4251932692e+00 
25500 4.5228602735e+00 -2.2159789862e-02 2.5553283794e+00 -4.4259585832e+00 2.5553283794e+00 4.4259585832e+00 
25600 4.5228558926e+00 -2.1741836146e-02 2.5557619913e+00 -4.4267096211e+00 2.5557619913e+00 4.4267096211e+00 
25700 4.5228514474e+00 -2.1324238090e-02 2.5561873525e+00 -4.4274463682e+00 2.5561873525e+00 4.4274463682e+00 
25800 4.5228469204e+00 -2.0907972128e-02 2.5566044741e+00 -4.4281688440e+00 2.5566044741e+00 4.4281688440e+00 
25900 4.5228422994e+00 -2.0493984909e-02 2.5570133862e+00 -4.4288771005e+00 2.5570133862e+00 4.4288771005e+00 
26000 4.5228375772e+00 -2.0083189693e-02 2.5574141373e+00 -4.4295712218e+00 2.5574141373e+00 4.4295712218e+00 
26100 4.5228327516e+00 -1.9676463035e-02 2.5578067938e+00 -4.4302513228e+00 2.5578067938e+00 4.4302513228e+00 
26200 4.5228278248e+00 -1.9274641749e-02 2.5581914389e+00 -4.4309175476e+00 2.5581914389e+00 4.4309175476e+00 
26300 4.5228228030e+00 -1.8878520163e-02 2.5585681721e+00 -4.4315700687e+00 2.5585681721e+00 4.4315700687e+00 
26400 4.5228176963e+00 -1.8488847670e-02 2.5589371084e+00 -4.4322090851e+00 2.5589371084e+00 4.4322090851e+00 
26500 4.5228125176e+00 -1.8106326573e-02 2.5592983772e+00 -4.4328348210e+00 2.5592983772e+00 4.4328348210e+00 
26600 4.5228072824e+00 -1.7731610232e-02 2.5596521215e+00 -4.4334475241e+00 2.5596521215e+00 4.4334475241e+00 
26700 4.5228020086e+00 -1.7365301509e-02 2.5599984969e+00 -4.4340474639e+00 2.5599984969e+00 4.4340474639e+00 
26800 4.5227967152e+00 -1.7007951510e-02 2.5603376706e+00 -4.4346349300e+00 2.5603376706e+00 4.4346349300e+00 
26900 4.5227914226e+00 -1.6660058619e-02 2.5606698205e+00 -4.4352102306e+00 2.5606698205e+00 4.4352102306e+00 
27000 4.5227861516e+00 -1.6322067825e-02 2.5609951341e+00 -4.4357736902e+00 2.5609951341e+00 4.4357736902e+00 
27100 4.5227809229e+00 -1.5994370326e-02 2.5613138072e+00 -4.4363256482e+00 2.5613138072e+00 4.4363256482e+00 
27200 4.5227757569e+00 -1.5677303420e-02 2.5616260433e+00 -4.4368664571e+00 2.5616260433e+00 4.4368664571e+00 
27300 4.5227706733e+00 -1.5371150653e-02 2.5619320524e+00 -4.4373964803e+00 2.5619320524e+00 4.4373964803e+00 
27400 4.5227656905e+00 -1.5076142235e-02 2.5622320496e+00 -4.4379160908e+00 2.5622320496e+00 4.4379160908e+00 
27500 4.5227608256e+00 -1.4792455697e-02 2.5625262547e+00 -4.4384256688e+00 2.5625262547e+00 4.4384256688e+00 
27600 4.5227560938e+00 -1.4520216793e-02 2.5628148904e+00 -4.4389256006e+00 2.5628148904e+00 4.4389256006e+00 
27700 4.5227515085e+00 -1.4259500616e-02 2.5630981821e+00 -4.4394162762e+00 2.5630981821e+00 4.4394162762e+00 
27800 4.5227470809e+00 -1.4010332939e-02 2.5633763564e+00 -4.4398980881e+00 2.5633763564e+00 4.4398980881e+00 
27900 4.5227428201e+00 -1.3772691739e-02 2.5636496401e+00 -4.4403714295e+00 2.5636496401e+00 4.4403714295e+00 
28000 4.5227387329e+00 -1.3546508920e-02 2.5639182597e+00 -4.4408366923e+00 2.5639182597e+00 4.4408366923e+00 
28100 4.5227348239e+00 -1.3331672187e-02 2.5641824402e+00 -4.4412942663e+00 2.5641824402e+00 4.4412942663e+00 
28200 4.5227310954e+00 -1.3128027089e-02 2.5644424041e+00 -4.4417445370e+00 2.5644424041e+00 4.4417445370e+00 
28300 4.5227275478e+00 -1.2935379190e-02 2.5646983710e+00 -4.4421878846e+00 2.5646983710e+00 4.4421878846e+00 
28400 4.5227241791e+00 -1.2753496361e-02 2.5649505564e+00 -4.4426246826e+00 2.5649505564e+00 4.4426246826e+00 
28500 4.5227209857e+00 -1.2582111184e-02 2.5651991714e+00 -4.4430552963e+00 2.5651991714e+00 4.4430552963e+00 
28600 4.5227179622e+00 -1.2420923440e-02 2.5654444215e+00 -4.4434800821e+00 2.5654444215e+00 4.4434800821e+00 
28700 4.5227151018e+00 -1.2269602673e-02 2.5656865067e+00 -4.4438993858e+00 2.5656865067e+00 4.4438993858e+00 
28800 4.5227123961e+00 -1.2127790812e-02 2.5659256199e+00 -4.4443135422e+00 2.5659256199e+00 4.4443135422e+00 
28900 4.5227098359e+00 -1.1995104830e-02 2.5661619475e+00 -4.4447228734e+00 2.5661619475e+00 4.4447228734e+00 
29000 4.5227074110e+00 -1.1871139445e-02 2.5663956678e+00 -4.4451276890e+00 2.5663956678e+00 4.4451276890e+00 
29100 4.5227051106e+00 -1.1755469812e-02 2.5666269517e+00 -4.4455282844e+00 2.5666269517e+00 4.4455282844e+00 
29200 4.5227029234e+00 -1.1647654237e-02 2.5668559613e+00 -4.4459249407e+00 2.5668559613e+00 4.4459249407e+00 
29300 4.5227008381e+00 -1.1547236854e-02 2.5670828503e+00 -4.4463179239e+00 2.5670828503e+00 4.4463179239e+00 
29400 4.5226988431e+00 -1.1453750293e-02 2.5673077632e+00 -4.4467074846e+00 2.5673077632e+00 4.4467074846e+00 
29500 4.5226969271e+00 -1.1366718294e-02 2.5675308358e+00 -4.4470938575e+00 2.5675308358e+00 4.4470938575e+00 
29600 4.5226950794e+00 -1.1285658271e-02 2.5677521940e+00 -4.4474772612e+00 2.5677521940e+00 4.4474772612e+00 
29700 4.5226932894e+00 -1.1210083822e-02 2.5679719547e+00 -4.4478578979e+00 2.5679719547e+00 4.4478578979e+00 
29800 4.5226915475e+00 -1.1139507152e-02 2.5681902250e+00 -4.4482359532e+00 2.5681902250e+00 4.4482359532e+00 
29900 4.5226898446e+00 -1.1073441423e-02 2.5684071027e+00 -4.4486115964e+00 2.5684071027e+00 4.4486115964e+00 
30000 4.5226881727e+00 -1.1011403008e-02 2.5686226760e+00 -4.4489849802e+00 2.5686226760e+00 4.4489849802e+00 
30100 4.5226865246e+00 -1.0952913649e-02 2.5688370234e+00 -4.4493562410e+00 2.5688370234e+00 4.4493562410e+00 
30200 4.5226848939e+00 -1.0897502502e-02 2.5690502146e+00 -4.4497254988e+00 2.5690502146e+00 4.4497254988e+00 
30300 4.5226832756e+00 -1.0844708082e-02 2.5692623095e+00 -4.4500928581e+00 2.5692623095e+00 4.4500928581e+00 
30400 4.5226816653e+00 -1.0794080075e-02 2.5694733595e+00 -4.4504584074e+00 2.5694733595e+00 4.4504584074e+00 
30500 4.5226800598e+00 -1.0745181042e-02 2.5696834070e+00 -4.4508222203e+00 2.5696834070e+00 4.4508222203e+00 
30600 4.5226784568e+00 -1.0697587986e-02 2.5698924858e+00 -4.4511843554e+00 2.5698924858e+00 4.4511843554e+00 
30700 4.5226768549e+00 -1.0650893800e-02 2.5701006216e+00 -4.4515448572e+00 2.5701006216e+00 4.4515448572e+00 
30800 4.5226752537e+00 -1.0604708577e-02 2.5703078321e+00 -4.4519037563e+00 2.5703078321e+00 4.4519037563e+00 
30900 4.5226736532e+00 -1.0558660789e-02 2.5705141274e+00 -4.4522610703e+00 2.5705141274e+00 4.4522610703e+00 
31000 4.5226720545e+00 -1.0512398340e-02 2.5707195105e+00 -4.4526168042e+00 2.5707195105e+00 4.4526168042e+00 
31100 4.5226704591e+00 -1.0465589475e-02 2.5709239773e+00 -4.4529709512e+00 2.5709239773e+00 4.4529709512e+00 
31200 4.5226688692e+00 -1.0417923565e-02 2.5711275175e+00 -4.4533234931e+00 2.5711275175e+00 4.4533234931e+00 
31300 4.5226672871e+00 -1.0369111759e-02 2.5713301147e+00 -4.4536744016e+00 2.5713301147e+00 4.4536744016e+00 
31400 4.5226657158e+00 -1.0318887508e-02 2.5715317466e+00 -4.4540236384e+00 2.5715317466e+00 4.4540236384e+00 
31500 4.5226641584e+00 -1.0267006958e-02 2.5717323862e+00 -4.4543711564e+00 2.5717323862e+00 4.4543711564e+00 
31600 4.5226626180e+00 -1.0213249226e-02 2.5719320015e+00 -4.4547169002e+00 2.5719320015e+00 4.4547169002e+00 
31700 4.5226610979e+00 -1.0157416552e-02 2.5721305561e+00 -4.4550608069e+00 2.5721305561e+00 4.4550608069e+00 
31800 4.5226596014e+00 -1.0099334332e-02 2.5723280101e+00 -4.4554028071e+00 2.5723280101e+00 4.4554028071e+00 
31900 4.5226581317e+00 -1.0038851047e-02 2.5725243198e+00 -4.4557428256e+00 2.5725243198e+00 4.4557428256e+00 
32000 4.5226566917e+00 -9.9758380764e-03 2.5727194390e+00 -4.4560807820e+00 2.5727194390e+00 4.4560807820e+00 
32100 4.5226552842e+00 -9.9101894121e-03 2.5729133188e+00 -4.4564165916e+00 2.5729133188e+00 4.4564165916e+00 
32200 4.5226539117e+00 -9.8418212776e-03 2.5731059081e+00 -4.4567501661e+00 2.5731059081e+00 4.4567501661e+00 
32300 4.5226525765e+00 -9.7706716513e-03 2.5732971545e+00 -4.4570814145e+00 2.5732971545e+00 4.4570814145e+00 
32400 4.5226512803e+00 -9.6966997063e-03 2.5734870041e+00 -4.4574102438e+00 2.5734870041e+00 4.4574102438e+00 
32500 4.5226500245e+00 -9.6198851690e-03 2.5736754026e+00 -4.4577365594e+00 2.5736754026e+00 4.4577365594e+00 
32600 4.5226488104e+00 -9.5402276042e-03 2.5738622948e+00 -4.4580602663e+00 2.5738622948e+00 4.4580602663e+00 
32700 4.5226476386e+00 -9.4577456311e-03 2.5740476261e+00 -4.4583812695e+00 2.5740476261e+00 4.4583812695e+00 
32800 4.5226465094e+00 -9.3724760790e-03 2.5742313418e+00 -4.4586994744e+00 2.5742313418e+00 4.4586994744e+00 
32900 4.5226454228e+00 -9.2844730864e-03 2.5744133881e+00 -4.4590147878e+00 2.5744133881e+00 4.4590147878e+00 
33000 4.5226443784e+00 -9.1938071509e-03 2.5745937123e+00 -4.4593271185e+00 2.5745937123e+00 4.4593271185e+00 
33100 4.5226433754e+00 -9.1005641375e-03 2.5747722631e+00 -4.4596363775e+00 2.5747722631e+00 4.4596363775e+00 
33200 4.5226424128e+00 -9.0048442482e-03 2.5749489907e+00 -4.4599424788e+00 2.5749489907e+00 4.4599424788e+00 
33300 4.5226414893e+00 -8.9067609632e-03 2.5751238475e+00 -4.4602453396e+00 2.5751238475e+00 4.4602453396e+00 
33400 4.5226406033e+00 -8.8064399564e-03 2.5752967879e+00 -4.4605448812e+00 2.5752967879e+00 4.4605448812e+00 
33500 4.5226397530e+00 -8.7040179934e-03 2.5754677689e+00 -4.4608410290e+00 2.5754677689e+00 4.4608410290e+00 
33600 4.5226389366e+00 -8.5996418161e-03 2.5756367501e+00 -4.4611337131e+00 2.5756367501e+00 4.4611337131e+00 
33700 4.5226381519e+00 -8.4934670222e-03 2.5758036940e+00 -4.4614228683e+00 2.5758036940e+00 4.4614228683e+00 
33800 4.5226373970e+00 -8.3856569416e-03 2.5759685660e+00 -4.4617084350e+00 2.5759685660e+00 4.4617084350e+00 
33900 4.5226366695e+00 -8.2763815185e-03 2.5761313348e+00 -4.4619903588e+00 2.5761313348e+00 4.4619903588e+00 
34000 4.5226359673e+00 -8.1658162019e-03 2.5762919723e+00 -4.4622685911e+00 2.5762919723e+00 4.4622685911e+00 
34100 4.5226352882e+00 -8.0541408509e-03 2.5764504539e+00 -4.4625430894e+00 2.5764504539e+00 4.4625430894e+00 
34200 4.5226346301e+00 -7.9415386587e-03 2.5766067586e+00 -4.4628138170e+00 2.5766067586e+00 4.4628138170e+00 
34300 4.5226339911e+00 -7.8281950999e-03 2.5767608686e+00 -4.4630807433e+00 2.5767608686e+00 4.4630807433e+00 
34400 4.5226333690e+00 -7.7142969052e-03 2.5769127700e+00 -4.4633438443e+00 2.5769127700e+00 4.4633438443e+00 
34500 4.5226327623e+00 -7.6000310681e-03 2.5770624524e+00 -4.4636031019e+00 2.5770624524e+00 4.4636031019e+00 
34600 4.5226321692e+00 -7.4855838859e-03 2.5772099091e+00 -4.4638585044e+00 2.5772099091e+00 4.4638585044e+00 
34700 4.5226315882e+00 -7.3711400395e-03 2.5773551370e+00 -4.4641100464e+00 2.5773551370e+00 4.4641100464e+00 
34800 4.5226310180e+00 -7.2568817146e-03 2.5774981365e+00 -4.4643577288e+00 2.5774981365e+00 4.4643577288e+00 
34900 4.5226304574e+00 -7.1429877667e-03 2.5776389115e+00 -4.4646015583e+00 2.5776389115e+00 4.4646015583e+00 
35000 4.5226299056e+00 -7.0296329325e-03 2.5777774695e+00 -4.4648415479e+00 2.5777774695e+00 4.4648415479e+00 
35100 4.5226293617e+00 -6.9169870909e-03 2.5779138214e+00 -4.4650777162e+00 2.5779138214e+00 4.4650777162e+00 
35200 4.5226288250e+00 -6.8052145735e-03 2.5780479812e+00 -4.4653100878e+00 2.5780479812e+00 4.4653100878e+00 
35300 4.5226282952e+00 -6.6944735273e-03 2.5781799662e+00 -4.4655386925e+00 2.5781799662e+00 4.4655386925e+00 
35400 4.5226277719e+00 -6.5849153309e-03 2.5783097967e+00 -4.4657635656e+00 2.5783097967e+00 4.4657635656e+00 
35500 4.5226272549e+00 -6.4766840646e-03 2.5784374961e+00 -4.4659847473e+00 2.5784374961e+00 4.4659847473e+00 
35600 4.5226267444e+00 -6.3699160356e-03 2.5785630903e+00 -4.4662022829e+00 2.5785630903e+00 4.4662022829e+00 
35700 4.5226262402e+00 -6.2647393574e-03 2.5786866080e+00 -4.4664162219e+00 2.5786866080e+00 4.4664162219e+00 
35800 4.5226257428e+00 -6.1612735859e-03 2.5788080805e+00 -4.4666266184e+00 2.5788080805e+00 4.4666266184e+00 
35900 4.5226252522e+00 -6.0596294088e-03 2.5789275411e+00 -4.4668335303e+00 2.5789275411e+00 4.4668335303e+00 
36000 4.5226247689e+00 -5.9599083908e-03 2.5790450255e+00 -4.4670370193e+00 2.5790450255e+00 4.4670370193e+00 
36100 4.5226242933e+00 -5.8622027719e-03 2.5791605713e+00 -4.4672371503e+00 2.5791605713e+00 4.4672371503e+00 
36200 4.5226238258e+00 -5.7665953190e-03 2.5792742177e+00 -4.4674339917e+00 2.5792742177e+00 4.4674339917e+00 
36300 4.5226233668e+00 -5.6731592289e-03 2.5793860056e+00 -4.4676276141e+00 2.5793860056e+00 4.4676276141e+00 
36400 4.5226229168e+00 -5.5819580818e-03 2.5794959775e+00 -4.4678180910e+00 2.5794959775e+00 4.4678180910e+00 
36500 4.5226224763e+00 -5.4930458435e-03 2.5796041769e+00 -4.4680054978e+00 2.5796041769e+00 4.4680054978e+00 
36600 4.5226220457e+00 -5.4064669146e-03 2.5797106484e+00 -4.4681899118e+00 2.5797106484e+00 4.4681899118e+00 
36700 4.5226216253e+00 -5.3222562246e-03 2.5798154373e+00 -4.4683714116e+00 2.5798154373e+00 4.4683714116e+00 
36800 4.5226212155e+00 -5.2404393697e-03 2.5799185899e+00 -4.4685500771e+00 2.5799185899e+00 4.4685500771e+00 
36900 4.5226208166e+00 -5.1610327900e-03 2.5800201527e+00 -4.4687259890e+00 2.5800201527e+00 4.4687259890e+00 
37000 4.5226204289e+00 -5.0840439869e-03 2.5801201725e+00 -4.4688992285e+00 2.5801201725e+00 4.4688992285e+00 
37100 4.5226200524e+00 -5.0094717747e-03 2.5802186966e+00 -4.4690698771e+00 2.5802186966e+00 4.4690698771e+00 
37200 4.5226196874e+00 -4.9373065674e-03 2.5803157717e+00 -4.4692380162e+00 2.5803157717e+00 4.4692380162e+00 
37300 4.5226193339e+00 -4.8675306945e-03 2.5804114448e+00 -4.4694037269e+00 2.5804114448e+00 4.4694037269e+00 
37400 4.5226189918e+00 -4.8001187469e-03 2.5805057624e+00 -4.4695670896e+00 2.5805057624e+00 4.4695670896e+00 
37500 4.5226186611e+00 -4.7350379467e-03 2.5805987703e+00 -4.4697281840e+00 2.5805987703e+00 4.4697281840e+00 
37600 4.5226183416e+00 -4.6722485404e-03 2.5806905138e+00 -4.4698870885e+00 2.5806905138e+00 4.4698870885e+00 
37700 4.5226180332e+00 -4.6117042124e-03 2.5807810376e+00 -4.4700438803e+00 2.5807810376e+00 4.4700438803e+00 
37800 4.5226177355e+00 -4.5533525148e-03 2.5808703851e+00 -4.4701986348e+00 2.5808703851e+00 4.4701986348e+00 
37900 4.5226174482e+00 -4.4971353130e-03 2.5809585991e+00 -4.4703514260e+00 2.5809585991e+00 4.4703514260e+00 
38000 4.5226171710e+00 -4.4429892413e-03 2.5810457211e+00 -4.4705023255e+00 2.5810457211e+00 4.4705023255e+00 
38100 4.5226169036e+00 -4.3908461696e-03 2.5811317911e+00 -4.4706514032e+00 2.5811317911e+00 4.4706514032e+00 
38200 4.5226166454e+00 -4.3406336751e-03 2.5812168482e+00 -4.4707987264e+00 2.5812168482e+00 4.4707987264e+00 
38300 4.5226163960e+00 -4.2922755185e-03 2.5813009298e+00 -4.4709443600e+00 2.5813009298e+00 4.4709443600e+00 
38400 4.5226161550e+00 -4.2456921219e-03 2.5813840719e+00 -4.4710883664e+00 2.5813840719e+00 4.4710883664e+00 
38500 4.5226159220e+00 -4.2008010451e-03 2.5814663091e+00 -4.4712308054e+00 2.5814663091e+00 4.4712308054e+00 
38600 4.5226156964e+00 -4.1575174594e-03 2.5815476742e+00 -4.4713717338e+00 2.5815476742e+00 4.4713717338e+00 
38700 4.5226154778e+00 -4.1157546158e-03 2.5816281983e+00 -4.4715112057e+00 2.5816281983e+00 4.4715112057e+00 
38800 4.5226152657e+00 -4.0754243050e-03 2.5817079111e+00 -4.4716492723e+00 2.5817079111e+00 4.4716492723e+00 
38900 4.5226150596e+00 -4.0364373089e-03 2.5817868404e+00 -4.4717859818e+00 2.5817868404e+00 4.4717859818e+00 
39000 4.5226148593e+00 -3.9987038402e-03 2.5818650121e+00 -4.4719213793e+00 2.5818650121e+00 4.4719213793e+00 
39100 4.5226146642e+00 -3.9621339690e-03 2.5819424508e+00 -4.4720555070e+00 2.5819424508e+00 4.4720555070e+00 
39200 4.5226144739e+00 -3.9266380345e-03 2.5820191790e+00 -4.4721884041e+00 2.5820191790e+00 4.4721884041e+00 
39300 4.5226142883e+00 -3.8921270413e-03 2.5820952175e+00 -4.4723201066e+00 2.5820952175e+00 4.4723201066e+00 
39400 4.5226141068e+00 -3.8585130373e-03 2.5821705854e+00 -4.4724506478e+00 2.5821705854e+00 4.4724506478e+00 
39500 4.5226139293e+00 -3.8257094734e-03 2.5822453003e+00 -4.4725800578e+00 2.5822453003e+00 4.4725800578e+00 
39600 4.5226137555e+00 -3.7936315433e-03 2.5823193779e+00 -4.4727083638e+00 2.5823193779e+00 4.4727083638e+00 
39700 4.5226135851e+00 -3.7621965027e-03 2.5823928322e+00 -4.4728355904e+00 2.5823928322e+00 4.4728355904e+00 
39800 4.5226134181e+00 -3.7313239673e-03 2.5824656757e+00 -4.4729617592e+00 2.5824656757e+00 4.4729617592e+00 
39900 4.5226132542e+00 -3.7009361878e-03 2.5825379195e+00 -4.4730868891e+00 2.5825379195e+00 4.4730868891e+00 
40000 4.5226130934e+00 -3.6709583034e-03 2.5826095729e+00 -4.4732109964e+00 2.5826095729e+00 4.4732109964e+00 
40100 4.5226129355e+00 -3.6413185714e-03 2.5826806440e+00 -4.4733340951e+00 2.5826806440e+00 4.4733340951e+00 
40200 4.5226127804e+00 -3.6119485736e-03 2.5827511392e+00 -4.4734561965e+00 2.5827511392e+00 4.4734561965e+00 
40300 4.5226126283e+00 -3.5827834001e-03 2.5828210640e+00 -4.4735773097e+00 2.5828210640e+00 4.4735773097e+00 
40400 4.5226124789e+00 -3.5537618080e-03 2.5828904223e+00 -4.4736974417e+00 2.5828904223e+00 4.4736974417e+00 
40500 4.5226123323e+00 -3.5248263586e-03 2.5829592168e+00 -4.4738165975e+00 2.5829592168e+00 4.4738165975e+00 
40600 4.5226121886e+00 -3.4959235298e-03 2.5830274495e+00 -4.4739347798e+00 2.5830274495e+00 4.4739347798e+00 
40700 4.5226120477e+00 -3.4670038067e-03 2.5830951208e+00 -4.4740519900e+00 2.5830951208e+00 4.4740519900e+00 
40800 4.5226119097e+00 -3.4380217493e-03 2.5831622306e+00 -4.4741682276e+00 2.5831622306e+00 4.4741682276e+00 
40900 4.5226117746e+00 -3.4089360382e-03 2.5832287776e+00 -4.4742834905e+00 2.5832287776e+00 4.4742834905e+00 
41000 4.5226116424e+00 -3.3797094990e-03 2.5832947600e+00 -4.4743977753e+00 2.5832947600e+00 4.4743977753e+00 
41100 4.5226115133e+00 -3.3503091062e-03 2.5833601750e+00 -4.4745110773e+00 2.5833601750e+00 4.4745110773e+00 
41200 4.5226113871e+00 -3.3207059667e-03 2.5834250193e+00 -4.4746233909e+00 2.5834250193e+00 4.4746233909e+00 
41300 4.5226112641e+00 -3.2908752844e-03 2.5834892890e+00 -4.4747347093e+00 2.5834892890e+00 4.4747347093e+00 
41400 4.5226111441e+00 -3.2607963068e-03 2.5835529798e+00 -4.4748450250e+00 2.5835529798e+00 4.4748450250e+00 
41500 4.5226110273e+00 -3.2304522537e-03 2.5836160868e+00 -4.4749543297e+00 2.5836160868e+00 4.4749543297e+00 
41600 4.5226109136e+00 -3.1998302300e-03 2.5836786051e+00 -4.4750626145e+00 2.5836786051e+00 4.4750626145e+00 
41700 4.5226108031e+00 -3.1689211228e-03 2.5837405293e+00 -4.4751698703e+00 2.5837405293e+00 4.4751698703e+00 
41800 4.5226106957e+00 -3.1377194846e-03 2.5838018538e+00 -4.4752760875e+00 2.5838018538e+00 4.4752760875e+00 
41900 4.5226105914e+00 -3.1062234028e-03 2.5838625731e+00 -4.4753812564e+00 2.5838625731e+00 4.4753812564e+00 
42000 4.5226104902e+00 -3.0744343578e-03 2.5839226815e+00 -4.4754853672e+00 2.5839226815e+00 4.4754853672e+00 
42100 4.5226103920e+00 -3.0423570697e-03 2.5839821733e+00 -4.4755884101e+00 2.5839821733e+00 4.4755884101e+00 
42200 4.5226102969e+00 -3.0099993349e-03 2.5840410431e+00 -4.4756903755e+00 2.5840410431e+00 4.4756903755e+00 
42300 4.5226102047e+00 -2.9773718549e-03 2.5840992854e+00 -4.4757912541e+00 2.5840992854e+00 4.4757912541e+00 
42400 4.5226101154e+00 -2.9444880570e-03 2.5841568951e+00 -4.4758910370e+00 2.5841568951e+00 4.4758910370e+00 
42500 4.5226100290e+00 -2.9113639082e-03 2.5842138672e+00 -4.4759897157e+00 2.5842138672e+00 4.4759897157e+00 
42600 4.5226099452e+00 -2.8780177251e-03 2.5842701972e+00 -4.4760872821e+00 2.5842701972e+00 4.4760872821e+00 
42700 4.5226098641e+00 -2.8444699785e-03 2.5843258808e+00 -4.4761837289e+00 2.5843258808e+00 4.4761837289e+00 
42800 4.5226097855e+00 -2.8107430952e-03 2.5843809141e+00 -4.4762790493e+00 2.5843809141e+00 4.4762790493e+00 
42900 4.5226097094e+00 -2.7768612584e-03 2.5844352937e+00 -4.4763732376e+00 2.5844352937e+00 4.4763732376e+00 
43000 4.5226096356e+00 -2.7428502066e-03 2.5844890167e+00 -4.4764662885e+00 2.5844890167e+00 4.4764662885e+00 
43100 4.5226095641e+00 -2.7087370324e-03 2.5845420806e+00 -4.4765581978e+00 2.5845420806e+00 4.4765581978e+00 
43200 4.5226094947e+00 -2.6745499828e-03 2.5845944834e+00 -4.4766489622e+00 2.5845944834e+00 4.4766489622e+00 
43300 4.5226094274e+00 -2.6403182616e-03 2.5846462238e+00 -4.4767385792e+00 2.5846462238e+00 4.4767385792e+00 
43400 4.5226093620e+00 -2.6060718337e-03 2.5846973009e+00 -4.4768270474e+00 2.5846973009e+00 4.4768270474e+00 
43500 4.5226092985e+00 -2.5718412338e-03 2.5847477146e+00 -4.4769143664e+00 2.5847477146e+00 4.4769143664e+00 
43600 4.5226092367e+00 -2.5376573797e-03 2.5847974651e+00 -4.4770005368e+00 2.5847974651e+00 4.4770005368e+00 
43700 4.5226091766e+00 -2.5035513903e-03 2.5848465534e+00 -4.4770855602e+00 2.5848465534e+00 4.4770855602e+00 
43800 4.5226091180e+00 -2.4695544095e-03 2.5848949810e+00 -4.4771694393e+00 2.5848949810e+00 4.4771694393e+00 
43900 4.5226090610e+00 -2.4356974370e-03 2.5849427501e+00 -4.4772521778e+00 2.5849427501e+00 4.4772521778e+00 
44000 4.5226090054e+00 -2.4020111661e-03 2.5849898634e+00 -4.4773337804e+00 2.5849898634e+00 4.4773337804e+00 
44100 4.5226089512e+00 -2.3685258287e-03 2.5850363243e+00 -4.4774142531e+00 2.5850363243e+00 4.4774142531e+00 
44200 4.5226088983e+00 -2.3352710488e-03 2.5850821366e+00 -4.4774936024e+00 2.5850821366e+00 4.4774936024e+00 
44300 4.5226088466e+00 -2.3022757044e-03 2.5851273050e+00 -4.4775718363e+00 2.5851273050e+00 4.4775718363e+00 
44400 4.5226087961e+00 -2.2695677984e-03 2.5851718344e+00 -4.4776489634e+00 2.5851718344e+00 4.4776489634e+00 
44500 4.5226087468e+00 -2.2371743381e-03 2.5852157304e+00 -4.4777249935e+00 2.5852157304e+00 4.4777249935e+00 
44600 4.5226086986e+00 -2.2051212249e-03 2.5852589991e+00 -4.4777999372e+00 2.5852589991e+00 4.4777999372e+00 
44700 4.5226086514e+00 -2.1734331530e-03 2.5853016472e+00 -4.4778738059e+00 2.5853016472e+00 4.4778738059e+00 
44800 4.5226086054e+00 -2.1421335178e-03 2.5853436817e+00 -4.4779466118e+00 2.5853436817e+00 4.4779466118e+00 
44900 4.5226085604e+00 -2.1112443347e-03 2.5853851103e+00 -4.4780183681e+00 2.5853851103e+00 4.4780183681e+00 
45000 4.5226085164e+00 -2.0807861672e-03 2.5854259407e+00 -4.4780890886e+00 2.5854259407e+00 4.4780890886e+00 
45100 4.5226084734e+00 -2.0507780649e-03 2.5854661815e+00 -4.4781587877e+00 2.5854661815e+00 4.4781587877e+00 
45200 4.5226084314e+00 -2.0212375117e-03 2.5855058414e+00 -4.4782274805e+00 2.5855058414e+00 4.4782274805e+00 
45300 4.5226083904e+00 -1.9921803829e-03 2.5855449293e+00 -4.4782951828e+00 2.5855449293e+00 4.4782951828e+00 
45400 4.5226083503e+00 -1.9636209127e-03 2.5855834548e+00 -4.4783619108e+00 2.5855834548e+00 4.4783619108e+00 
45500 4.5226083113e+00 -1.9355716702e-03 2.5856214273e+00 -4.4784276813e+00 2.5856214273e+00 4.4784276813e+00 
45600 4.5226082732e+00 -1.9080435453e-03 2.5856588570e+00 -4.4784925113e+00 2.5856588570e+00 4.4784925113e+00 
45700 4.5226082360e+00 -1.8810457428e-03 2.5856957537e+00 -4.4785564183e+00 2.5856957537e+00 4.4785564183e+00 
45800 4.5226081999e+00 -1.8545857851e-03 2.5857321279e+00 -4.4786194202e+00 2.5857321279e+00 4.4786194202e+00 
45900 4.5226081646e+00 -1.8286695240e-03 2.5857679899e+00 -4.4786815350e+00 2.5857679899e+00 4.4786815350e+00 
46000 4.5226081304e+00 -1.8033011586e-03 2.5858033502e+00 -4.4787427810e+00 2.5858033502e+00 4.4787427810e+00 
46100 4.5226080970e+00 -1.7784832628e-03 2.5858382196e+00 -4.4788031764e+00 2.5858382196e+00 4.4788031764e+00 
46200 4.5226080646e+00 -1.7542168178e-03 2.5858726085e+00 -4.4788627399e+00 2.5858726085e+00 4.4788627399e+00 
46300 4.5226080332e+00 -1.7305012532e-03 2.5859065279e+00 -4.4789214899e+00 2.5859065279e+00 4.4789214899e+00 
46400 4.5226080026e+00 -1.7073344924e-03 2.5859399882e+00 -4.4789794448e+00 2.5859399882e+00 4.4789794448e+00 
46500 4.5226079730e+00 -1.6847130056e-03 2.5859730001e+00 -4.4790366232e+00 2.5859730001e+00 4.4790366232e+00 
46600 4.5226079442e+00 -1.6626318665e-03 2.5860055743e+00 -4.4790930433e+00 2.5860055743e+00 4.4790930433e+00 
46700 4.5226079163e+00 -1.6410848151e-03 2.5860377210e+00 -4.4791487231e+00 2.5860377210e+00 4.4791487231e+00 
46800 4.5226078893e+00 -1.6200643237e-03 2.5860694508e+00 -4.4792036807e+00 2.5860694508e+00 4.4792036807e+00 
46900 4.5226078631e+00 -1.5995616676e-03 2.5861007738e+00 -4.4792579337e+00 2.5861007738e+00 4.4792579337e+00 
47000 4.5226078377e+00 -1.5795669991e-03 2.5861317000e+00 -4.4793114994e+00 2.5861317000e+00 4.4793114994e+00 
47100 4.5226078131e+00 -1.5600694235e-03 2.5861622392e+00 -4.4793643950e+00 2.5861622392e+00 4.4793643950e+00 
47200 4.5226077893e+00 -1.5410570789e-03 2.5861924011e+00 -4.4794166369e+00 2.5861924011e+00 4.4794166369e+00 
47300 4.5226077663e+00 -1.5225172166e-03 2.5862221951e+00 -4.4794682416e+00 2.5862221951e+00 4.4794682416e+00 
47400 4.5226077440e+00 -1.5044362840e-03 2.5862516304e+00 -4.4795192249e+00 2.5862516304e+00 4.4795192249e+00 
47500 4.5226077224e+00 -1.4868000079e-03 2.5862807157e+00 -4.4795696022e+00 2.5862807157e+00 4.4795696022e+00 
47600 4.5226077014e+00 -1.4695934784e-03 2.5863094597e+00 -4.4796193883e+00 2.5863094597e+00 4.4796193883e+00 
47700 4.5226076811e+00 -1.4528012333e-03 2.5863378708e+00 -4.4796685977e+00 2.5863378708e+00 4.4796685977e+00 
47800 4.5226076615e+00 -1.4364073417e-03 2.5863659569e+00 -4.4797172443e+00 2.5863659569e+00 4.4797172443e+00 
47900 4.5226076424e+00 -1.4203954877e-03 2.5863937258e+00 -4.4797653414e+00 2.5863937258e+00 4.4797653414e+00 
48000 4.5226076239e+00 -1.4047490520e-03 2.5864211848e+00 -4.4798129019e+00 2.5864211848e+00 4.4798129019e+00 
48100 4.5226076060e+00 -1.3894511930e-03 2.5864483411e+00 -4.4798599379e+00 2.5864483411e+00 4.4798599379e+00 
48200 4.5226075885e+00 -1.3744849257e-03 2.5864752014e+00 -4.4799064613e+00 2.5864752014e+00 4.4799064613e+00 
48300 4.5226075716e+00 -1.3598331986e-03 2.5865017720e+00 -4.4799524830e+00 2.5865017720e+00 4.4799524830e+00 
48400 4.5226075552e+00 -1.3454789680e-03 2.5865280592e+00 -4.4799980137e+00 2.5865280592e+00 4.4799980137e+00 
48500 4.5226075393e+00 -1.3314052703e-03 2.5865540686e+00 -4.4800430633e+00 2.5865540686e+00 4.4800430633e+00 
48600 4.5226075238e+00 -1.3175952905e-03 2.5865798057e+00 -4.4800876413e+00 2.5865798057e+00 4.4800876413e+00 
48700 4.5226075087e+00 -1.3040324283e-03 2.5866052756e+00 -4.4801317564e+00 2.5866052756e+00 4.4801317564e+00 
48800 4.5226074940e+00 -1.2907003606e-03 2.5866304830e+00 -4.4801754170e+00 2.5866304830e+00 4.4801754170e+00 
48900 4.5226074797e+00 -1.2775831001e-03 2.5866554325e+00 -4.4802186308e+00 2.5866554325e+00 4.4802186308e+00 
49000 4.5226074658e+00 -1.2646650511e-03 2.5866801282e+00 -4.4802614050e+00 2.5866801282e+00 4.4802614050e+00 
49100 4.5226074523e+00 -1.2519310604e-03 2.5867045740e+00 -4.4803037463e+00 2.5867045740e+00 4.4803037463e+00 
49200 4.5226074391e+00 -1.2393664654e-03 2.5867287733e+00 -4.4803456608e+00 2.5867287733e+00 4.4803456608e+00 
49300 4.5226074263e+00 -1.2269571372e-03 2.5867527296e+00 -4.4803871543e+00 2.5867527296e+00 4.4803871543e+00 
49400 4.5226074138e+00 -1.2146895200e-03 2.5867764458e+00 -4.4804282320e+00 2.5867764458e+00 4.4804282320e+00 
49500 4.5226074016e+00 -1.2025506670e-03 2.5867999247e+00 -4.4804688986e+00 2.5867999247e+00 4.4804688986e+00 
49600 4.5226073898e+00 -1.1905282707e-03 2.5868231687e+00 -4.4805091584e+00 2.5868231687e+00 4.4805091584e+00 
49700 4.5226073782e+00 -1.1786106909e-03 2.5868461801e+00 -4.4805490154e+00 2.5868461801e+00 4.4805490154e+00 
49800 4.5226073670e+00 -1.1667869768e-03 2.5868689610e+00 -4.4805884730e+00 2.5868689610e+00 4.4805884730e+00 
49900 4.5226073561e+00 -1.1550468862e-03 2.5868915132e+00 -4.4806275344e+00 2.5868915132e+00 4.4806275344e+00 
50000 4.5226073454e+00 -1.1433809005e-03 2.5869138382e+00 -4.4806662025e+00 2.5869138382e+00 4.4806662025e+00 
50100 4.5226073351e+00 -1.1317802350e-03 2.5869359375e+00 -4.4807044797e+00 2.5869359375e+00 4.4807044797e+00 
50200 4.5226073250e+00 -1.1202368467e-03 2.5869578125e+00 -4.4807423683e+00 2.5869578125e+00 4.4807423683e+00 
50300 4.5226073152e+00 -1.1087434367e-03 2.5869794641e+00 -4.4807798700e+00 2.5869794641e+00 4.4807798700e+00 
50400 4.5226073057e+00 -1.0972934504e-03 2.5870008935e+00 -4.4808169867e+00 2.5870008935e+00 4.4808169867e+00 
50500 4.5226072965e+00 -1.0858810735e-03 2.5870221013e+00 -4.4808537198e+00 2.5870221013e+00 4.4808537198e+00 
50600 4.5226072875e+00 -1.0745012247e-03 2.5870430884e+00 -4.4808900706e+00 2.5870430884e+00 4.4808900706e+00 
50700 4.5226072788e+00 -1.0631495453e-03 2.5870638555e+00 -4.4809260401e+00 2.5870638555e+00 4.4809260401e+00 
50800 4.5226072704e+00 -1.0518223857e-03 2.5870844029e+00 -4.4809616293e+00 2.5870844029e+00 4.4809616293e+00 
50900 4.5226072622e+00 -1.0405167895e-03 2.5871047313e+00 -4.4809968390e+00 2.5871047313e+00 4.4809968390e+00 
51000 4.5226072542e+00 -1.0292304739e-03 2.5871248410e+00 -4.4810316701e+00 2.5871248410e+00 4.4810316701e+00 
51100 4.5226072465e+00 -1.0179618087e-03 2.5871447324e+00 -4.4810661230e+00 2.5871447324e+00 4.4810661230e+00 
51200 4.5226072391e+00 -1.0067097927e-03 2.5871644059e+00 -4.4811001985e+00 2.5871644059e+00 4.4811001985e+00 
51300 4.5226072319e+00 -9.9547402723e-04 2.5871838617e+00 -4.4811338971e+00 2.5871838617e+00 4.4811338971e+00 
51400 4.5226072249e+00 -9.8425468932e-04 2.5872031003e+00 -4.4811672193e+00 2.5872031003e+00 4.4811672193e+00 
51500 4.5226072182e+00 -9.7305250167e-04 2.5872221220e+00 -4.4812001657e+00 2.5872221220e+00 4.4812001657e+00 
51600 4.5226072116e+00 -9.6186870204e-04 2.5872409269e+00 -4.4812327369e+00 2.5872409269e+00 4.4812327369e+00 
51700 4.5226072053e+00 -9.5070501110e-04 2.5872595157e+00 -4.4812649335e+00 2.5872595157e+00 4.4812649335e+00 
51800 4.5226071992e+00 -9.3956359918e-04 2.5872778885e+00 -4.4812967562e+00 2.5872778885e+00 4.4812967562e+00 
51900 4.5226071933e+00 -9.2844705220e-04 2.5872960459e+00 -4.4813282057e+00 2.5872960459e+00 4.4813282057e+00 
52000 4.5226071876e+00 -9.1735833687e-04 2.5873139883e+00 -4.4813592829e+00 2.5873139883e+00 4.4813592829e+00 
52100 4.5226071821e+00 -9.0630076546e-04 2.5873317164e+00 -4.4813899888e+00 2.5873317164e+00 4.4813899888e+00 
52200 4.5226071767e+00 -8.9527796022e-04 2.5873492306e+00 -4.4814203243e+00 2.5873492306e+00 4.4814203243e+00 
52300 4.5226071716e+00 -8.8429381768e-04 2.5873665317e+00 -4.4814502906e+00 2.5873665317e+00 4.4814502906e+00 
52400 4.5226071666e+00 -8.7335247308e-04 2.5873836204e+00 -4.4814798892e+00 2.5873836204e+00 4.4814798892e+00 
52500 4.5226071618e+00 -8.6245826491e-04 2.5874004975e+00 -4.4815091212e+00 2.5874004975e+00 4.4815091212e+00 
52600 4.5226071571e+00 -8.5161569996e-04 2.5874171640e+00 -4.4815379885e+00 2.5874171640e+00 4.4815379885e+00 
52700 4.5226071526e+00 -8.4082941885e-04 2.5874336209e+00 -4.4815664927e+00 2.5874336209e+00 4.4815664927e+00 
52800 4.5226071483e+00 -8.3010416221e-04 2.5874498693e+00 -4.4815946356e+00 2.5874498693e+00 4.4815946356e+00 
52900 4.5226071440e+00 -8.1944473782e-04 2.5874659103e+00 -4.4816224194e+00 2.5874659103e+00 4.4816224194e+00 
53000 4.5226071400e+00 -8.0885598856e-04 2.5874817452e+00 -4.4816498463e+00 2.5874817452e+00 4.4816498463e+00 
53100 4.5226071360e+00 -7.9834276151e-04 2.5874973754e+00 -4.4816769186e+00 2.5874973754e+00 4.4816769186e+00 
53200 4.5226071322e+00 -7.8790987826e-04 2.5875128023e+00 -4.4817036388e+00 2.5875128023e+00 4.4817036388e+00 
53300 4.5226071285e+00 -7.7756210644e-04 2.5875280276e+00 -4.4817300097e+00 2.5875280276e+00 4.4817300097e+00 
53400 4.5226071249e+00 -7.6730413263e-04 2.5875430528e+00 -4.4817560342e+00 2.5875430528e+00 4.4817560342e+00 
53500 4.5226071215e+00 -7.5714053680e-04 2.5875578797e+00 -4.4817817151e+00 2.5875578797e+00 4.4817817151e+00 
53600 4.5226071181e+00 -7.4707576817e-04 2.5875725101e+00 -4.4818070557e+00 2.5875725101e+00 4.4818070557e+00 
53700 4.5226071149e+00 -7.3711412275e-04 2.5875869459e+00 -4.4818320594e+00 2.5875869459e+00 4.4818320594e+00 
53800 4.5226071117e+00 -7.2725972245e-04 2.5876011892e+00 -4.4818567295e+00 2.5876011892e+00 4.4818567295e+00 
53900 4.5226071087e+00 -7.1751649584e-04 2.5876152420e+00 -4.4818810696e+00 2.5876152420e+00 4.4818810696e+00 
54000 4.5226071057e+00 -7.0788816074e-04 2.5876291065e+00 -4.4819050835e+00 2.5876291065e+00 4.4819050835e+00 
54100 4.5226071029e+00 -6.9837820841e-04 2.5876427848e+00 -4.4819287751e+00 2.5876427848e+00 4.4819287751e+00 
54200 4.5226071001e+00 -6.8898988951e-04 2.5876562793e+00 -4.4819521483e+00 2.5876562793e+00 4.4819521483e+00 
54300 4.5226070974e+00 -6.7972620187e-04 2.5876695923e+00 -4.4819752071e+00 2.5876695923e+00 4.4819752071e+00 
54400 4.5226070949e+00 -6.7058987989e-04 2.5876827263e+00 -4.4819979558e+00 2.5876827263e+00 4.4819979558e+00 
54500 4.5226070924e+00 -6.6158338574e-04 2.5876956836e+00 -4.4820203986e+00 2.5876956836e+00 4.4820203986e+00 
54600 4.5226070899e+00 -6.5270890228e-04 2.5877084669e+00 -4.4820425398e+00 2.5877084669e+00 4.4820425398e+00 
54700 4.5226070876e+00 -6.4396832753e-04 2.5877210786e+00 -4.4820643840e+00 2.5877210786e+00 4.4820643840e+00 
54800 4.5226070853e+00 -6.3536327097e-04 2.5877335214e+00 -4.4820859355e+00 2.5877335214e+00 4.4820859355e+00 
54900 4.5226070832e+00 -6.2689505125e-04 2.5877457978e+00 -4.4821071989e+00 2.5877457978e+00 4.4821071989e+00 
55000 4.5226070811e+00 -6.1856469556e-04 2.5877579106e+00 -4.4821281789e+00 2.5877579106e+00 4.4821281789e+00 
55100 4.5226070790e+00 -6.1037294045e-04 2.5877698624e+00 -4.4821488799e+00 2.5877698624e+00 4.4821488799e+00 
55200 4.5226070771e+00 -6.0232023413e-04 2.5877816558e+00 -4.4821693067e+00 2.5877816558e+00 4.4821693067e+00 
55300 4.5226070752e+00 -5.9440674005e-04 2.5877932936e+00 -4.4821894640e+00 2.5877932936e+00 4.4821894640e+00 
55400 4.5226070734e+00 -5.8663234188e-04 2.5878047784e+00 -4.4822093563e+00 2.5878047784e+00 4.4822093563e+00 
55500 4.5226070716e+00 -5.7899664966e-04 2.5878161130e+00 -4.4822289883e+00 2.5878161130e+00 4.4822289883e+00 
55600 4.5226070700e+00 -5.7149900711e-04 2.5878273000e+00 -4.4822483647e+00 2.5878273000e+00 4.4822483647e+00 
55700 4.5226070684e+00 -5.6413850003e-04 2.5878383420e+00 -4.4822674902e+00 2.5878383420e+00 4.4822674902e+00 
55800 4.5226070668e+00 -5.5691396570e-04 2.5878492418e+00 -4.4822863692e+00 2.5878492418e+00 4.4822863692e+00 
55900 4.5226070653e+00 -5.4982400315e-04 2.5878600020e+00 -4.4823050064e+00 2.5878600020e+00 4.4823050064e+00 
56000 4.5226070639e+00 -5.4286698431e-04 2.5878706252e+00 -4.4823234062e+00 2.5878706252e+00 4.4823234062e+00 
56100 4.5226070625e+00 -5.3604106584e-04 2.5878811138e+00 -4.4823415731e+00 2.5878811138e+00 4.4823415731e+00 
56200 4.5226070612e+00 -5.2934420172e-04 2.5878914706e+00 -4.4823595116e+00 2.5878914706e+00 4.4823595116e+00 
56300 4.5226070600e+00 -5.2277415627e-04 2.5879016979e+00 -4.4823772258e+00 2.5879016979e+00 4.4823772258e+00 
56400 4.5226070588e+00 -5.1632851780e-04 2.5879117983e+00 -4.4823947202e+00 2.5879117983e+00 4.4823947202e+00 
56500 4.5226070576e+00 -5.1000471255e-04 2.5879217741e+00 -4.4824119987e+00 2.5879217741e+00 4.4824119987e+00 
56600 4.5226070565e+00 -5.0380001899e-04 2.5879316276e+00 -4.4824290656e+00 2.5879316276e+00 4.4824290656e+00 
56700 4.5226070555e+00 -4.9771158242e-04 2.5879413613e+00 -4.4824459248e+00 2.5879413613e+00 4.4824459248e+00 
56800 4.5226070545e+00 -4.9173642961e-04 2.5879509773e+00 -4.4824625801e+00 2.5879509773e+00 4.4824625801e+00 
56900 4.5226070535e+00 -4.8587148359e-04 2.5879604778e+00 -4.4824790355e+00 2.5879604778e+00 4.4824790355e+00 
57000 4.5226070526e+00 -4.8011357846e-04 2.5879698649e+00 -4.4824952945e+00 2.5879698649e+00 4.4824952945e+00 
57100 4.5226070517e+00 -4.7445947409e-04 2.5879791408e+00 -4.4825113608e+00 2.5879791408e+00 4.4825113608e+00 
57200 4.5226070509e+00 -4.6890587071e-04 2.5879883074e+00 -4.4825272378e+00 2.5879883074e+00 4.4825272378e+00 
57300 4.5226070501e+00 -4.6344942327e-04 2.5879973667e+00 -4.4825429290e+00 2.5879973667e+00 4.4825429290e+00 
57400 4.5226070494e+00 -4.5808675559e-04 2.5880063205e+00 -4.4825584375e+00 2.5880063205e+00 4.4825584375e+00 
57500 4.5226070486e+00 -4.5281447411e-04 2.5880151707e+00 -4.4825737664e+00 2.5880151707e+00 4.4825737664e+00 
57600 4.5226070479e+00 -4.4762918131e-04 2.5880239190e+00 -4.4825889189e+00 2.5880239190e+00 4.4825889189e+00 
57700 4.5226070473e+00 -4.4252748870e-04 2.5880325671e+00 -4.4826038979e+00 2.5880325671e+00 4.4826038979e+00 
57800 4.5226070467e+00 -4.3750602931e-04 2.5880411166e+00 -4.4826187060e+00 2.5880411166e+00 4.4826187060e+00 
57900 4.5226070461e+00 -4.3256146967e-04 2.5880495691e+00 -4.4826333461e+00 2.5880495691e+00 4.4826333461e+00 
58000 4.5226070455e+00 -4.2769052120e-04 2.5880579260e+00 -4.4826478207e+00 2.5880579260e+00 4.4826478207e+00 
58100 4.5226070450e+00 -4.2288995107e-04 2.5880661887e+00 -4.4826621323e+00 2.5880661887e+00 4.4826621323e+00 
58200 4.5226070445e+00 -4.1815659234e-04 2.5880743588e+00 -4.4826762831e+00 2.5880743588e+00 4.4826762831e+00 
58300 4.5226070440e+00 -4.1348735355e-04 2.5880824373e+00 -4.4826902756e+00 2.5880824373e+00 4.4826902756e+00 
58400 4.5226070436e+00 -4.0887922751e-04 2.5880904256e+00 -4.4827041117e+00 2.5880904256e+00 4.4827041117e+00 
58500 4.5226070431e+00 -4.0432929954e-04 2.5880983248e+00 -4.4827177936e+00 2.5880983248e+00 4.4827177936e+00 
58600 4.5226070427e+00 -3.9983475485e-04 2.5881061362e+00 -4.4827313232e+00 2.5881061362e+00 4.4827313232e+00 
58700 4.5226070423e+00 -3.9539288531e-04 2.5881138606e+00 -4.4827447024e+00 2.5881138606e+00 4.4827447024e+00 
58800 4.5226070420e+00 -3.9100109546e-04 2.5881214993e+00 -4.4827579329e+00 2.5881214993e+00 4.4827579329e+00 
58900 4.5226070416e+00 -3.8665690776e-04 2.5881290530e+00 -4.4827710164e+00 2.5881290530e+00 4.4827710164e+00 
59000 4.5226070413e+00 -3.8235796714e-04 2.5881365228e+00 -4.4827839545e+00 2.5881365228e+00 4.4827839545e+00 
59100 4.5226070410e+00 -3.7810204485e-04 2.5881439096e+00 -4.4827967487e+00 2.5881439096e+00 4.4827967487e+00 
59200 4.5226070408e+00 -3.7388704153e-04 2.5881512141e+00 -4.4828094005e+00 2.5881512141e+00 4.4828094005e+00 
59300 4.5226070405e+00 -3.6971098961e-04 2.5881584372e+00 -4.4828219112e+00 2.5881584372e+00 4.4828219112e+00 
59400 4.5226070403e+00 -3.6557205506e-04 2.5881655795e+00 -4.4828342821e+00 2.5881655795e+00 4.4828342821e+00 
59500 4.5226070400e+00 -3.6146853836e-04 2.5881726419e+00 -4.4828465145e+00 2.5881726419e+00 4.4828465145e+00 
59600 4.5226070398e+00 -3.5739887491e-04 2.5881796250e+00 -4.4828586096e+00 2.5881796250e+00 4.4828586096e+00 
59700 4.5226070396e+00 -3.5336163478e-04 2.5881865294e+00 -4.4828705684e+00 2.5881865294e+00 4.4828705684e+00 
59800 4.5226070395e+00 -3.4935552181e-04 2.5881933559e+00 -4.4828823922e+00 2.5881933559e+00 4.4828823922e+00 
59900 4.5226070393e+00 -3.4537937219e-04 2.5882001049e+00 -4.4828940818e+00 2.5882001049e+00 4.4828940818e+00 
60000 4.5226070392e+00 -3.4143215245e-04 2.5882067771e+00 -4.4829056384e+00 2.5882067771e+00 4.4829056384e+00 
60100 4.5226070390e+00 -3.3751295690e-04 2.5882133730e+00 -4.4829170629e+00 2.5882133730e+00 4.4829170629e+00 
60200 4.5226070389e+00 -3.3362100462e-04 2.5882198932e+00 -4.4829283562e+00 2.5882198932e+00 4.4829283562e+00 
60300 4.5226070388e+00 -3.2975563600e-04 2.5882263382e+00 -4.4829395192e+00 2.5882263382e+00 4.4829395192e+00 
60400 4.5226070387e+00 -3.2591630877e-04 2.5882327085e+00 -4.4829505529e+00 2.5882327085e+00 4.4829505529e+00 
60500 4.5226070386e+00 -3.2210259373e-04 2.5882390046e+00 -4.4829614581e+00 2.5882390046e+00 4.4829614581e+00 
60600 4.5226070386e+00 -3.1831417008e-04 2.5882452270e+00 -4.4829722357e+00 2.5882452270e+00 4.4829722357e+00 
60700 4.5226070385e+00 -3.1455082039e-04 2.5882513763e+00 -4.4829828865e+00 2.5882513763e+00 4.4829828865e+00 
60800 4.5226070385e+00 -3.1081242537e-04 2.5882574528e+00 -4.4829934113e+00 2.5882574528e+00 4.4829934113e+00 
60900 4.5226070385e+00 -3.0709895830e-04 2.5882634571e+00 -4.4830038110e+00 2.5882634571e+00 4.4830038110e+00 
61000 4.5226070385e+00 -3.0341047930e-04 2.5882693896e+00 -4.4830140865e+00 2.5882693896e+00 4.4830140865e+00 
61100 4.5226070384e+00 -2.9974712941e-04 2.5882752509e+00 -4.4830242385e+00 2.5882752509e+00 4.4830242385e+00 
61200 4.5226070385e+00 -2.9610912448e-04 2.5882810414e+00 -4.4830342679e+00 2.5882810414e+00 4.4830342679e+00 
61300 4.5226070385e+00 -2.9249674902e-04 2.5882867615e+00 -4.4830441756e+00 2.5882867615e+00 4.4830441756e+00 
61400 4.5226070385e+00 -2.8891034994e-04 2.5882924119e+00 -4.4830539623e+00 2.5882924119e+00 4.4830539623e+00 
61500 4.5226070385e+00 -2.8535033020e-04 2.5882979930e+00 -4.4830636291e+00 2.5882979930e+00 4.4830636291e+00 
61600 4.5226070386e+00 -2.8181714253e-04 2.5883035054e+00 -4.4830731767e+00 2.5883035054e+00 4.4830731767e+00 
61700 4.5226070386e+00 -2.7831128314e-04 2.5883089494e+00 -4.4830826061e+00 2.5883089494e+00 4.4830826061e+00 
61800 4.5226070387e+00 -2.7483328542e-04 2.5883143257e+00 -4.4830919181e+00 2.5883143257e+00 4.4830919181e+00 
61900 4.5226070387e+00 -2.7138371378e-04 2.5883196348e+00 -4.4831011138e+00 2.5883196348e+00 4.4831011138e+00 
62000 4.5226070388e+00 -2.6796315760e-04 2.5883248773e+00 -4.4831101940e+00 2.5883248773e+00 4.4831101940e+00 
62100 4.5226070389e+00 -2.6457222526e-04 2.5883300537e+00 -4.4831191598e+00 2.5883300537e+00 4.4831191598e+00 
62200 4.5226070390e+00 -2.6121153835e-04 2.5883351646e+00 -4.4831280121e+00 2.5883351646e+00 4.4831280121e+00 
62300 4.5226070390e+00 -2.5788172603e-04 2.5883402105e+00 -4.4831367519e+00 2.5883402105e+00 4.4831367519e+00 
62400 4.5226070391e+00 -2.5458341965e-04 2.5883451921e+00 -4.4831453803e+00 2.5883451921e+00 4.4831453803e+00 
62500 4.5226070392e+00 -2.5131724751e-04 2.5883501100e+00 -4.4831538983e+00 2.5883501100e+00 4.4831538983e+00 
62600 4.5226070393e+00 -2.4808382985e-04 2.5883549648e+00 -4.4831623070e+00 2.5883549648e+00 4.4831623070e+00 
62700 4.5226070395e+00 -2.4488377419e-04 2.5883597571e+00 -4.4831706075e+00 2.5883597571e+00 4.4831706075e+00 
62800 4.5226070396e+00 -2.4171767076e-04 2.5883644876e+00 -4.4831788010e+00 2.5883644876e+00 4.4831788010e+00 
62900 4.5226070397e+00 -2.3858608840e-04 2.5883691569e+00 -4.4831868885e+00 2.5883691569e+00 4.4831868885e+00 
63000 4.5226070398e+00 -2.3548957054e-04 2.5883737657e+00 -4.4831948712e+00 2.5883737657e+00 4.4831948712e+00 
63100 4.5226070399e+00 -2.3242863162e-04 2.5883783147e+00 -4.4832027502e+00 2.5883783147e+00 4.4832027502e+00 
63200 4.5226070401e+00 -2.2940375375e-04 2.5883828045e+00 -4.4832105269e+00 2.5883828045e+00 4.4832105269e+00 
63300 4.5226070402e+00 -2.2641538370e-04 2.5883872359e+00 -4.4832182023e+00 2.5883872359e+00 4.4832182023e+00 
63400 4.5226070403e+00 -2.2346393008e-04 2.5883916096e+00 -4.4832257778e+00 2.5883916096e+00 4.4832257778e+00 
63500 4.5226070405e+00 -2.2054976105e-04 2.5883959263e+00 -4.4832332544e+00 2.5883959263e+00 4.4832332544e+00 
63600 4.5226070406e+00 -2.1767320208e-04 2.5884001866e+00 -4.4832406336e+00 2.5884001866e+00 4.4832406336e+00 
63700 4.5226070408e+00 -2.1483453425e-04 2.5884043914e+00 -4.4832479165e+00 2.5884043914e+00 4.4832479165e+00 
63800 4.5226070409e+00 -2.1203399265e-04 2.5884085414e+00 -4.4832551044e+00 2.5884085414e+00 4.4832551044e+00 
63900 4.5226070411e+00 -2.0927176524e-04 2.5884126372e+00 -4.4832621986e+00 2.5884126372e+00 4.4832621986e+00 
64000 4.5226070412e+00 -2.0654799191e-04 2.5884166797e+00 -4.4832692004e+00 2.5884166797e+00 4.4832692004e+00 
64100 4.5226070414e+00 -2.0386276385e-04 2.5884206695e+00 -4.4832761110e+00 2.5884206695e+00 4.4832761110e+00 
64200 4.5226070415e+00 -2.0121612322e-04 2.5884246075e+00 -4.4832829318e+00 2.5884246075e+00 4.4832829318e+00 
64300 4.5226070417e+00 -1.9860806304e-04 2.5884284944e+00 -4.4832896640e+00 2.5884284944e+00 4.4832896640e+00 
64400 4.5226070419e+00 -1.9603852742e-04 2.5884323308e+00 -4.4832963089e+00 2.5884323308e+00 4.4832963089e+00 
64500 4.5226070420e+00 -1.9350741197e-04 2.5884361176e+00 -4.4833028679e+00 2.5884361176e+00 4.4833028679e+00 
64600 4.5226070422e+00 -1.9101456445e-04 2.5884398556e+00 -4.4833093422e+00 2.5884398556e+00 4.4833093422e+00 
64700 4.5226070424e+00 -1.8855978572e-04 2.5884435453e+00 -4.4833157330e+00 2.5884435453e+00 4.4833157330e+00 
64800 4.5226070425e+00 -1.8614283079e-04 2.5884471877e+00 -4.4833220417e+00 2.5884471877e+00 4.4833220417e+00 
64900 4.5226070427e+00 -1.8376341019e-04 2.5884507833e+00 -4.4833282696e+00 2.5884507833e+00 4.4833282696e+00 
65000 4.5226070429e+00 -1.8142119143e-04 2.5884543330e+00 -4.4833344178e+00 2.5884543330e+00 4.4833344178e+00 
65100 4.5226070430e+00 -1.7911580068e-04 2.5884578374e+00 -4.4833404877e+00 2.5884578374e+00 4.4833404877e+00 
65200 4.5226070432e+00 -1.7684682459e-04 2.5884612973e+00 -4.4833464804e+00 2.5884612973e+00 4.4833464804e+00 
65300 4.5226070434e+00 -1.7461381226e-04 2.5884647134e+00 -4.4833523972e+00 2.5884647134e+00 4.4833523972e+00 
65400 4.5226070436e+00 -1.7241627734e-04 2.5884680863e+00 -4.4833582392e+00 2.5884680863e+00 4.4833582392e+00 
65500 4.5226070437e+00 -1.7025370024e-04 2.5884714168e+00 -4.4833640078e+00 2.5884714168e+00 4.4833640078e+00 
65600 4.5226070439e+00 -1.6812553042e-04 2.5884747055e+00 -4.4833697040e+00 2.5884747055e+00 4.4833697040e+00 
65700 4.5226070441e+00 -1.6603118877e-04 2.5884779530e+00 -4.4833753289e+00 2.5884779530e+00 4.4833753289e+00 
65800 4.5226070443e+00 -1.6397007011e-04 2.5884811602e+00 -4.4833808838e+00 2.5884811602e+00 4.4833808838e+00 
65900 4.5226070444e+00 -1.6194154563e-04 2.5884843275e+00 -4.4833863698e+00 2.5884843275e+00 4.4833863698e+00 
66000 4.5226070446e+00 -1.5994496548e-04 2.5884874556e+00 -4.4833917878e+00 2.5884874556e+00 4.4833917878e+00 
66100 4.5226070448e+00 -1.5797966133e-04 2.5884905451e+00 -4.4833971391e+00 2.5884905451e+00 4.4833971391e+00 
66200 4.5226070450e+00 -1.5604494893e-04 2.5884935967e+00 -4.4834024246e+00 2.5884935967e+00 4.4834024246e+00 
66300 4.5226070452e+00 -1.5414013073e-04 2.5884966109e+00 -4.4834076453e+00 2.5884966109e+00 4.4834076453e+00 
66400 4.5226070453e+00 -1.5226449839e-04 2.5884995883e+00 -4.4834128023e+00 2.5884995883e+00 4.4834128023e+00 
66500 4.5226070455e+00 -1.5041733538e-04 2.5885025295e+00 -4.4834178966e+00 2.5885025295e+00 4.4834178966e+00 
66600 4.5226070457e+00 -1.4859791940e-04 2.5885054350e+00 -4.4834229291e+00 2.5885054350e+00 4.4834229291e+00 
66700 4.5226070459e+00 -1.4680552491e-04 2.5885083053e+00 -4.4834279006e+00 2.5885083053e+00 4.4834279006e+00 
66800 4.5226070460e+00 -1.4503942545e-04 2.5885111410e+00 -4.4834328122e+00 2.5885111410e+00 4.4834328122e+00 
66900 4.5226070462e+00 -1.4329889602e-04 2.5885139426e+00 -4.4834376648e+00 2.5885139426e+00 4.4834376648e+00 
67000 4.5226070464e+00 -1.4158321529e-04 2.5885167106e+00 -4.4834424590e+00 2.5885167106e+00 4.4834424590e+00 
67100 4.5226070466e+00 -1.3989166775e-04 2.5885194455e+00 -4.4834471959e+00 2.5885194455e+00 4.4834471959e+00 
67200 4.5226070467e+00 -1.3822354579e-04 2.5885221476e+00 -4.4834518762e+00 2.5885221476e+00 4.4834518762e+00 
67300 4.5226070469e+00 -1.3657815168e-04 2.5885248175e+00 -4.4834565006e+00 2.5885248175e+00 4.4834565006e+00 
67400 4.5226070471e+00 -1.3495479938e-04 2.5885274557e+00 -4.4834610700e+00 2.5885274557e+00 4.4834610700e+00 
67500 4.5226070473e+00 -1.3335281633e-04 2.5885300625e+00 -4.4834655851e+00 2.5885300625e+00 4.4834655851e+00 
67600 4.5226070474e+00 -1.3177154506e-04 2.5885326383e+00 -4.4834700466e+00 2.5885326383e+00 4.4834700466e+00 
67700 4.5226070476e+00 -1.3021034471e-04 2.5885351836e+00 -4.4834744552e+00 2.5885351836e+00 4.4834744552e+00 
67800 4.5226070478e+00 -1.2866859238e-04 2.5885376987e+00 -4.4834788115e+00 2.5885376987e+00 4.4834788115e+00 
67900 4.5226070480e+00 -1.2714568447e-04 2.5885401841e+00 -4.4834831163e+00 2.5885401841e+00 4.4834831163e+00 
68000 4.5226070481e+00 -1.2564103772e-04 2.5885426400e+00 -4.4834873701e+00 2.5885426400e+00 4.4834873701e+00 
68100 4.5226070483e+00 -1.2415409029e-04 2.5885450669e+00 -4.4834915736e+00 2.5885450669e+00 4.4834915736e+00 
68200 4.5226070485e+00 -1.2268430260e-04 2.5885474650e+00 -4.4834957273e+00 2.5885474650e+00 4.4834957273e+00 
68300 4.5226070486e+00 -1.2123115812e-04 2.5885498348e+00 -4.4834998318e+00 2.5885498348e+00 4.4834998318e+00 
68400 4.5226070488e+00 -1.1979416394e-04 2.5885521765e+00 -4.4835038877e+00 2.5885521765e+00 4.4835038877e+00 
68500 4.5226070490e+00 -1.1837285129e-04 2.5885544904e+00 -4.4835078955e+00 2.5885544904e+00 4.4835078955e+00 
68600 4.5226070491e+00 -1.1696677596e-04 2.5885567769e+00 -4.4835118558e+00 2.5885567769e+00 4.4835118558e+00 
68700 4.5226070493e+00 -1.1557551849e-04 2.5885590362e+00 -4.4835157690e+00 2.5885590362e+00 4.4835157690e+00 
68800 4.5226070495e+00 -1.1419868435e-04 2.5885612686e+00 -4.4835196357e+00 2.5885612686e+00 4.4835196357e+00 
68900 4.5226070496e+00 -1.1283590392e-04 2.5885634744e+00 -4.4835234563e+00 2.5885634744e+00 4.4835234563e+00 
69000 4.5226070498e+00 -1.1148683245e-04 2.5885656539e+00 -4.4835272314e+00 2.5885656539e+00 4.4835272314e+00 
69100 4.5226070499e+00 -1.1015114983e-04 2.5885678074e+00 -4.4835309612e+00 2.5885678074e+00 4.4835309612e+00 
69200 4.5226070501e+00 -1.0882856034e-04 2.5885699350e+00 -4.4835346464e+00 2.5885699350e+00 4.4835346464e+00 
69300 4.5226070502e+00 -1.0751879220e-04 2.5885720371e+00 -4.4835382874e+00 2.5885720371e+00 4.4835382874e+00 
69400 4.5226070504e+00 -1.0622159712e-04 2.5885741139e+00 -4.4835418845e+00 2.5885741139e+00 4.4835418845e+00 
69500 4.5226070506e+00 -1.0493674974e-04 2.5885761657e+00 -4.4835454382e+00 2.5885761657e+00 4.4835454382e+00 
69600 4.5226070507e+00 -1.0366404697e-04 2.5885781926e+00 -4.4835489489e+00 2.5885781926e+00 4.4835489489e+00 
69700 4.5226070509e+00 -1.0240330728e-04 2.5885801949e+00 -4.4835524171e+00 2.5885801949e+00 4.4835524171e+00 
69800 4.5226070510e+00 -1.0115436988e-04 2.5885821729e+00 -4.4835558431e+00 2.5885821729e+00 4.4835558431e+00 
69900 4.5226070512e+00 -9.9917093929e-05 2.5885841268e+00 -4.4835592272e+00 2.5885841268e+00 4.4835592272e+00 
70000 4.5226070513e+00 -9.8691357579e-05 2.5885860567e+00 -4.4835625700e+00 2.5885860567e+00 4.4835625700e+00 
70100 4.5226070515e+00 -9.7477057037e-05 2.5885879630e+00 -4.4835658718e+00 2.5885879630e+00 4.4835658718e+00 
70200 4.5226070516e+00 -9.6274105582e-05 2.5885898458e+00 -4.4835691329e+00 2.5885898458e+00 4.4835691329e+00 
70300 4.5226070518e+00 -9.5082432515e-05 2.5885917054e+00 -4.4835723538e+00 2.5885917054e+00 4.4835723538e+00 
70400 4.5226070519e+00 -9.3901982110e-05 2.5885935420e+00 -4.4835755349e+00 2.5885935420e+00 4.4835755349e+00 
70500 4.5226070520e+00 -9.2732712525e-05 2.5885953558e+00 -4.4835786764e+00 2.5885953558e+00 4.4835786764e+00 
70600 4.5226070522e+00 -9.1574594691e-05 2.5885971469e+00 -4.4835817788e+00 2.5885971469e+00 4.4835817788e+00 
70700 4.5226070523e+00 -9.0427611211e-05 2.5885989157e+00 -4.4835848425e+00 2.5885989157e+00 4.4835848425e+00 
70800 4.5226070525e+00 -8.9291755216e-05 2.5886006624e+00 -4.4835878678e+00 2.5886006624e+00 4.4835878678e+00 
70900 4.5226070526e+00 -8.8167029268e-05 2.5886023871e+00 -4.4835908551e+00 2.5886023871e+00 4.4835908551e+00 
71000 4.5226070527e+00 -8.7053444224e-05 2.5886040901e+00 -4.4835938047e+00 2.5886040901e+00 4.4835938047e+00 
71100 4.5226070529e+00 -8.5951018130e-05 2.5886057716e+00 -4.4835967171e+00 2.5886057716e+00 4.4835967171e+00 
71200 4.5226070530e+00 -8.4859775142e-05 2.5886074317e+00 -4.4835995926e+00 2.5886074317e+00 4.4835995926e+00 
71300 4.5226070531e+00 -8.3779744430e-05 2.5886090708e+00 -4.4836024316e+00 2.5886090708e+00 4.4836024316e+00 
71400 4.5226070533e+00 -8.2710959154e-05 2.5886106891e+00 -4.4836052345e+00 2.5886106891e+00 4.4836052345e+00 
71500 4.5226070534e+00 -8.1653455407e-05 2.5886122867e+00 -4.4836080016e+00 2.5886122867e+00 4.4836080016e+00 
71600 4.5226070535e+00 -8.0607271265e-05 2.5886138638e+00 -4.4836107334e+00 2.5886138638e+00 4.4836107334e+00 
71700 4.5226070537e+00 -7.9572445801e-05 2.5886154208e+00 -4.4836134301e+00 2.5886154208e+00 4.4836134301e+00 
71800 4.5226070538e+00 -7.8549018182e-05 2.5886169578e+00 -4.4836160922e+00 2.5886169578e+00 4.4836160922e+00 
71900 4.5226070539e+00 -7.7537026794e-05 2.5886184750e+00 -4.4836187201e+00 2.5886184750e+00 4.4836187201e+00 
72000 4.5226070540e+00 -7.6536508400e-05 2.5886199726e+00 -4.4836213141e+00 2.5886199726e+00 4.4836213141e+00 
72100 4.5226070542e+00 -7.5547497374e-05 2.5886214509e+00 -4.4836238746e+00 2.5886214509e+00 4.4836238746e+00 
72200 4.5226070543e+00 -7.4570024951e-05 2.5886229102e+00 -4.4836264021e+00 2.5886229102e+00 4.4836264021e+00 
72300 4.5226070544e+00 -7.3604118535e-05 2.5886243505e+00 -4.4836288968e+00 2.5886243505e+00 4.4836288968e+00 
72400 4.5226070545e+00 -7.2649801090e-05 2.5886257722e+00 -4.4836313592e+00 2.5886257722e+00 4.4836313592e+00 
72500 4.5226070546e+00 -7.1707090523e-05 2.5886271754e+00 -4.4836337897e+00 2.5886271754e+00 4.4836337897e+00 
72600 4.5226070548e+00 -7.0775999187e-05 2.5886285605e+00 -4.4836361887e+00 2.5886285605e+00 4.4836361887e+00 
72700 4.5226070549e+00 -6.9856533388e-05 2.5886299275e+00 -4.4836385565e+00 2.5886299275e+00 4.4836385565e+00 
72800 4.5226070551e+00 -6.9391168787e-05 2.5886299275e+00 -4.4836385565e+00 2.5886299275e+00 4.4836385565e+00 
72900 4.5226070552e+00 -6.8938455023e-05 2.5886299275e+00 -4.4836385565e+00 2.5886299275e+00 4.4836385565e+00 
73000 4.5226070554e+00 -6.8499401616e-05 2.5886299275e+00 -4.4836385565e+00 2.5886299275e+00 4.4836385565e+00 
73100 4.5226070556e+00 -6.8074952768e-05 2.5886299275e+00 -4.4836385565e+00 2.5886299275e+00 4.4836385565e+00 
73200 4.5226070558e+00 -6.7665982410e-05 2.5886299275e+00 -4.4836385565e+00 2.5886299275e+00 4.4836385565e+00 
73300 4.5226070559e+00 -6.7273289993e-05 2.5886299275e+00 -4.4836385565e+00 2.5886299275e+00 4.4836385565e+00 
73400 4.5226070561e+00 -6.6897597023e-05 2.5886299275e+00 -4.4836385565e+00 2.5886299275e+00 4.4836385565e+00 
73500 4.5226070563e+00 -6.6539544314e-05 2.5886299275e+00 -4.4836385565e+00 2.5886299275e+00 4.4836385565e+00 
73600 4.5226070564e+00 -6.6199689908e-05 2.5886299275e+00 -4.4836385565e+00 2.5886299275e+00 4.4836385565e+00 
73700 4.5226070566e+00 -6.5878507659e-05 2.5886299275e+00 -4.4836385565e+00 2.5886299275e+00 4.4836385565e+00 
73800 4.5226070567e+00 -6.5576386421e-05 2.5886299275e+00 -4.4836385565e+00 2.5886299275e+00 4.4836385565e+00 
73900 4.5226070569e+00 -6.5293629815e-05 2.5886299275e+00 -4.4836385565e+00 2.5886299275e+00 4.4836385565e+00 
74000 4.5226070570e+00 -6.5030456576e-05 2.5886299275e+00 -4.4836385565e+00 2.5886299275e+00 4.4836385565e+00 
74100 4.5226070572e+00 -6.4787001384e-05 2.5886299275e+00 -4.4836385565e+00 2.5886299275e+00 4.4836385565e+00 
74200 4.5226070573e+00 -6.4563316201e-05 2.5886299275e+00 -4.4836385565e+00 2.5886299275e+00 4.4836385565e+00 
74300 4.5226070575e+00 -6.4359372052e-05 2.5886299275e+00 -4.4836385565e+00 2.5886299275e+00 4.4836385565e+00 
74400 4.5226070576e+00 -6.4175061222e-05 2.5886299275e+00 -4.4836385565e+00 2.5886299275e+00 4.4836385565e+00 
74500 4.5226070577e+00 -6.4010199833e-05 2.5886299275e+00 -4.4836385565e+00 2.5886299275e+00 4.4836385565e+00 
74600 4.5226070579e+00 -6.3864530775e-05 2.5886299275e+00 -4.4836385565e+00 2.5886299275e+00 4.4836385565e+00 
74700 4.5226070580e+00 -6.3737726937e-05 2.5886299275e+00 -4.4836385565e+00 2.5886299275e+00 4.4836385565e+00 
74800 4.5226070581e+00 -6.3629394739e-05 2.5886299275e+00 -4.4836385565e+00 2.5886299275e+00 4.4836385565e+00 
74900 4.5226070583e+00 -6.3539077889e-05 2.5886299275e+00 -4.4836385565e+00 2.5886299275e+00 4.4836385565e+00 
75000 4.5226070584e+00 -6.3466261360e-05 2.5886299275e+00 -4.4836385565e+00 2.5886299275e+00 4.4836385565e+00 
75100 4.5226070585e+00 -6.3410375552e-05 2.5886299275e+00 -4.4836385565e+00 2.5886299275e+00 4.4836385565e+00 
75200 4.5226070586e+00 -6.3370800601e-05 2.5886299275e+00 -4.4836385565e+00 2.5886299275e+00 4.4836385565e+00 
75300 4.5226070588e+00 -6.3346870813e-05 2.5886299275e+00 -4.4836385565e+00 2.5886299275e+00 4.4836385565e+00 
75400 4.5226070589e+00 -6.3337879165e-05 2.5886299275e+00 -4.4836385565e+00 2.5886299275e+00 4.4836385565e+00 
75500 4.5226070590e+00 -6.3343081893e-05 2.5886299275e+00 -4.4836385565e+00 2.5886299275e+00 4.4836385565e+00 
75600 4.5226070591e+00 -6.3361703099e-05 2.5886299275e+00 -4.4836385565e+00 2.5886299275e+00 4.4836385565e+00 
75700 4.5226070592e+00 -6.3392939360e-05 2.5886299275e+00 -4.4836385565e+00 2.5886299275e+00 4.4836385565e+00 
75800 4.5226070594e+00 -6.3435964330e-05 2.5886299275e+00 -4.4836385565e+00 2.5886299275e+00 4.4836385565e+00 
75900 4.5226070595e+00 -6.3489933289e-05 2.5886299275e+00 -4.4836385565e+00 2.5886299275e+00 4.4836385565e+00 
76000 4.5226070596e+00 -6.3553987622e-05 2.5886299275e+00 -4.4836385565e+00 2.5886299275e+00 4.4836385565e+00 
76100 4.5226070597e+00 -6.3627259222e-05 2.5886299275e+00 -4.4836385565e+00 2.5886299275e+00 4.4836385565e+00 
76200 4.5226070598e+00 -6.3708874780e-05 2.5886299275e+00 -4.4836385565e+00 2.5886299275e+00 4.4836385565e+00 
76300 4.5226070599e+00 -6.3797959951e-05 2.5886299275e+00 -4.4836385565e+00 2.5886299275e+00 4.4836385565e+00 
76400 4.5226070600e+00 -6.3893643367e-05 2.5886299275e+00 -4.4836385565e+00 2.5886299275e+00 4.4836385565e+00 
76500 4.5226070601e+00 -6.3995060512e-05 2.5886299275e+00 -4.4836385565e+00 2.5886299275e+00 4.4836385565e+00 
76600 4.5226070602e+00 -6.4101357402e-05 2.5886299275e+00 -4.4836385565e+00 2.5886299275e+00 4.4836385565e+00 
76700 4.5226070603e+00 -6.4211694102e-05 2.5886299275e+00 -4.4836385565e+00 2.5886299275e+00 4.4836385565e+00 
76800 4.5226070604e+00 -6.4325248031e-05 2.5886299275e+00 -4.4836385565e+00 2.5886299275e+00 4.4836385565e+00 
76900 4.5226070605e+00 -6.4441217072e-05 2.5886299275e+00 -4.4836385565e+00 2.5886299275e+00 4.4836385565e+00 
77000 4.5226070606e+00 -6.4558822463e-05 2.5886299275e+00 -4.4836385565e+00 2.5886299275e+00 4.4836385565e+00 
77100 4.5226070607e+00 -6.4677311472e-05 2.5886299275e+00 -4.4836385565e+00 2.5886299275e+00 4.4836385565e+00 
77200 4.5226070608e+00 -6.4795959849e-05 2.5886299275e+00 -4.4836385565e+00 2.5886299275e+00 4.4836385565e+00 
77300 4.5226070609e+00 -6.4914074044e-05 2.5886299275e+00 -4.4836385565e+00 2.5886299275e+00 4.4836385565e+00 
77400 4.5226070610e+00 -6.5030993210e-05 2.5886299275e+00 -4.4836385565e+00 2.5886299275e+00 4.4836385565e+00 
77500 4.5226070611e+00 -6.5146090937e-05 2.5886299275e+00 -4.4836385565e+00 2.5886299275e+00 4.4836385565e+00 
77600 4.5226070611e+00 -6.5258776812e-05 2.5886299275e+00 -4.4836385565e+00 2.5886299275e+00 4.4836385565e+00 
77700 4.5226070612e+00 -6.5368497694e-05 2.5886299275e+00 -4.4836385565e+00 2.5886299275e+00 4.4836385565e+00 
77800 4.5226070613e+00 -6.5474738787e-05 2.5886299275e+00 -4.4836385565e+00 2.5886299275e+00 4.4836385565e+00 
77900 4.5226070614e+00 -6.5577024491e-05 2.5886299275e+00 -4.4836385565e+00 2.5886299275e+00 4.4836385565e+00 
78000 4.5226070615e+00 -6.5674919030e-05 2.5886299275e+00 -4.4836385565e+00 2.5886299275e+00 4.4836385565e+00 
78100 4.5226070615e+00 -6.5768026853e-05 2.5886299275e+00 -4.4836385565e+00 2.5886299275e+00 4.4836385565e+00 
78200 4.5226070616e+00 -6.5855992841e-05 2.5886299275e+00 -4.4836385565e+00 2.5886299275e+00 4.4836385565e+00 
78300 4.5226070617e+00 -6.5938502305e-05 2.5886299275e+00 -4.4836385565e+00 2.5886299275e+00 4.4836385565e+00 
78400 4.5226070618e+00 -6.6015280806e-05 2.5886299275e+00 -4.4836385565e+00 2.5886299275e+00 4.4836385565e+00 
78500 4.5226070618e+00 -6.6086093765e-05 2.5886299275e+00 -4.4836385565e+00 2.5886299275e+00 4.4836385565e+00 
78600 4.5226070619e+00 -6.6150745915e-05 2.5886299275e+00 -4.4836385565e+00 2.5886299275e+00 4.4836385565e+00 
78700 4.5226070620e+00 -6.6209080588e-05 2.5886299275e+00 -4.4836385565e+00 2.5886299275e+00 4.4836385565e+00 
78800 4.5226070621e+00 -6.6260978832e-05 2.5886299275e+00 -4.4836385565e+00 2.5886299275e+00 4.4836385565e+00 
78900 4.5226070621e+00 -6.6306358395e-05 2.5886299275e+00 -4.4836385565e+00 2.5886299275e+00 4.4836385565e+00 
79000 4.5226070622e+00 -6.6345172571e-05 2.5886299275e+00 -4.4836385565e+00 2.5886299275e+00 4.4836385565e+00 
79100 4.5226070623e+00 -6.6377408922e-05 2.5886299275e+00 -4.4836385565e+00 2.5886299275e+00 4.4836385565e+00 
79200 4.5226070623e+00 -6.6403087878e-05 2.5886299275e+00 -4.4836385565e+00 2.5886299275e+00 4.4836385565e+00 
79300 4.5226070624e+00 -6.6422261256e-05 2.5886299275e+00 -4.4836385565e+00 2.5886299275e+00 4.4836385565e+00 
79400 4.5226070625e+00 -6.6435010669e-05 2.5886299275e+00 -4.4836385565e+00 2.5886299275e+00 4.4836385565e+00 
79500 4.5226070625e+00 -6.6441445865e-05 2.5886299275e+00 -4.4836385565e+00 2.5886299275e+00 4.4836385565e+00 
79600 4.5226070626e+00 -6.6441703001e-05 2.5886299275e+00 -4.4836385565e+00 2.5886299275e+00 4.4836385565e+00 
79700 4.5226070626e+00 -6.6435942852e-05 2.5886299275e+00 -4.4836385565e+00 2.5886299275e+00 4.4836385565e+00 
79800 4.5226070627e+00 -6.6424348982e-05 2.5886299275e+00 -4.4836385565e+00 2.5886299275e+00 4.4836385565e+00 
79900 4.5226070628e+00 -6.6407125882e-05 2.5886299275e+00 -4.4836385565e+00 2.5886299275e+00 4.4836385565e+00 
80000 4.5226070628e+00 -6.6384497073e-05 2.5886299275e+00 -4.4836385565e+00 2.5886299275e+00 4.4836385565e+00 
80100 4.5226070629e+00 -6.6356703209e-05 2.5886299275e+00 -4.4836385565e+00 2.5886299275e+00 4.4836385565e+00 
80200 4.5226070629e+00 -6.6324000160e-05 2.5886299275e+00 -4.4836385565e+00 2.5886299275e+00 4.4836385565e+00 
80300 4.5226070630e+00 -6.6286657120e-05 2.5886299275e+00 -4.4836385565e+00 2.5886299275e+00 4.4836385565e+00 
80400 4.5226070630e+00 -6.6244954712e-05 2.5886299275e+00 -4.4836385565e+00 2.5886299275e+00 4.4836385565e+00 
80500 4.5226070631e+00 -6.6199183128e-05 2.5886299275e+00 -4.4836385565e+00 2.5886299275e+00 4.4836385565e+00 
80600 4.5226070632e+00 -6.6149640295e-05 2.5886299275e+00 -4.4836385565e+00 2.5886299275e+00 4.4836385565e+00 
80700 4.5226070632e+00 -6.6096630075e-05 2.5886299275e+00 -4.4836385565e+00 2.5886299275e+00 4.4836385565e+00 
80800 4.5226070633e+00 -6.6040460520e-05 2.5886299275e+00 -4.4836385565e+00 2.5886299275e+00 4.4836385565e+00 
80900 4.5226070633e+00 -6.5981442182e-05 2.5886299275e+00 -4.4836385565e+00 2.5886299275e+00 4.4836385565e+00 
81000 4.5226070634e+00 -6.5919886476e-05 2.5886299275e+00 -4.4836385565e+00 2.5886299275e+00 4.4836385565e+00 
81100 4.5226070634e+00 -6.5875454196e-05 2.5886299275e+00 -4.4836385565e+00 2.5886299275e+00 4.4836385565e+00 
81100 4.5226070634e+00 -6.5875454195e-05 2.5886299275e+00 -4.4836385565e+00 2.5886299275e+00 4.4836385565e+00 
