# step Hamiltonian StressXX CellTensor1 CellTensor2 CellTensor3 CellTensor4 
0 6.2765694777e+00 8.7434623880e-02 1.7438352029e+00 -3.0204111715e+00 1.7438352029e+00 3.0204111715e+00 
100 6.2746761927e+00 9.2216300423e-02 1.7438352029e+00 -3.0204111715e+00 1.7438352029e+00 3.0204111715e+00 
200 6.2725194126e+00 9.4519834720e-02 1.7411918063e+00 -3.0158326742e+00 1.7411918063e+00 3.0158326742e+00 
300 6.2703672098e+00 9.6404574460e-02 1.7384782845e+00 -3.0111327166e+00 1.7384782845e+00 3.0111327166e+00 
400 6.2682278131e+00 9.7893170223e-02 1.7357063514e+00 -3.0063315877e+00 1.7357063514e+00 3.0063315877e+00 
500 6.2661089683e+00 9.9007515815e-02 1.7328871355e+00 -3.0014485625e+00 1.7328871355e+00 3.0014485625e+00 
600 6.2640179175e+00 9.9768797706e-02 1.7300312003e+00 -2.9965019376e+00 1.7300312003e+00 2.9965019376e+00 
700 6.2619613824e+00 1.0019753613e-01 1.7271485633e+00 -2.9915090639e+00 1.7271485633e+00 2.9915090639e+00 
800 6.2599455514e+00 1.0031361869e-01 1.7242487131e+00 -2.9864863760e+00 1.7242487131e+00 2.9864863760e+00 
900 6.2579760698e+00 1.0013632739e-01 1.7213406244e+00 -2.9814494186e+00 1.7213406244e+00 2.9814494186e+00 
1000 6.2560580340e+00 9.9684359782e-02 1.7184327723e+00 -2.9764128710e+00 1.7184327723e+00 2.9764128710e+00 
1100 6.2541959886e+00 9.8975845162e-02 1.7155331456e+00 -2.9713905703e+00 1.7155331456e+00 2.9713905703e+00 
1200 6.2523939267e+00 9.8028356415e-02 1.7126492590e+00 -2.9663955322e+00 1.7126492590e+00 2.9663955322e+00 
1300 6.2506552943e+00 9.6858918328e-02 1.7097881651e+00 -2.9614399721e+00 1.7097881651e+00 2.9614399721e+00 
1400 6.2489829967e+00 9.5484012990e-02 1.7069564654e+00 -2.9565353244e+00 1.7069564654e+00 2.9565353244e+00 
1500 6.2473794086e+00 9.3919582915e-02 1.7041603222e+00 -2.9516922623e+00 1.7041603222e+00 2.9516922623e+00 
1600 6.2458463869e+00 9.2181032481e-02 1.7014054690e+00 -2.9469207166e+00 1.7014054690e+00 2.9469207166e+00 
1700 6.2443852863e+00 9.0283228209e-02 1.6986972218e+00 -2.9422298949e+00 1.6986972218e+00 2.9422298949e+00 
1800 6.2429969775e+00 8.8240498376e-02 1.6960404902e+00 -2.9376283008e+00 1.6960404902e+00 2.9376283008e+00 
1900 6.2416818677e+00 8.6066632372e-02 1.6934397885e+00 -2.9331237533e+00 1.6934397885e+00 2.9331237533e+00 
2000 6.2404399234e+00 8.3774880199e-02 1.6908992472e+00 -2.9287234067e+00 1.6908992472e+00 2.9287234067e+00 
2100 6.2392706947e+00 8.1377952414e-02 1.6884226244e+00 -2.9244337701e+00 1.6884226244e+00 2.9244337701e+00 
2200 6.2381733423e+00 7.8888020797e-02 1.6860133175e+00 -2.9202607281e+00 1.6860133175e+00 2.9202607281e+00 
2300 6.2371466646e+00 7.6316719950e-02 1.6836743753e+00 -2.9162095615e+00 1.6836743753e+00 2.9162095615e+00 
2400 6.2361891269e+00 7.3675149992e-02 1.6814085104e+00 -2.9122849682e+00 1.6814085104e+00 2.9122849682e+00 
2500 6.2352988914e+00 7.0973880482e-02 1.6792181108e+00 -2.9084910849e+00 1.6792181108e+00 2.9084910849e+00 
2600 6.2344738474e+00 6.8222955630e-02 1.6771052532e+00 -2.9048315082e+00 1.6771052532e+00 2.9048315082e+00 
2700 6.2337116420e+00 6.5431900839e-02 1.6750717151e+00 -2.9013093169e+00 1.6750717151e+00 2.9013093169e+00 
2800 6.2330097113e+00 6.2609730578e-02 1.6731189876e+00 -2.8979270937e+00 1.6731189876e+00 2.8979270937e+00 
2900 6.2323653108e+00 5.9764957554e-02 1.6712482884e+00 -2.8946869476e+00 1.6712482884e+00 2.8946869476e+00 
3000 6.2317755457e+00 5.6905603131e-02 1.6694605741e+00 -2.8915905356e+00 1.6694605741e+00 2.8915905356e+00 
3100 6.2312374009e+00 5.4039208904e-02 1.6677565533e+00 -2.8886390850e+00 1.6677565533e+00 2.8886390850e+00 
3200 6.2307477694e+00 5.1172849343e-02 1.6661366990e+00 -2.8858334151e+00 1.6661366990e+00 2.8858334151e+00 
3300 6.2303034804e+00 4.8313145383e-02 1.6646012614e+00 -2.8831739590e+00 1.6646012614e+00 2.8831739590e+00 
3400 6.2299013258e+00 4.5466278857e-02 1.6631502797e+00 -2.8806607850e+00 1.6631502797e+00 2.8806607850e+00 
3500 6.2295380855e+00 4.2638007609e-02 1.6617835948e+00 -2.8782936174e+00 1.6617835948e+00 2.8782936174e+00 
3600 6.2292105513e+00 3.9833681197e-02 1.6605008611e+00 -2.8760718574e+00 1.6605008611e+00 2.8760718574e+00 
3700 6.2289155488e+00 3.7058257014e-02 1.6593015578e+00 -2.8739946032e+00 1.6593015578e+00 2.8739946032e+00 
3800 6.2286499586e+00 3.4316316727e-02 1.6581850008e+00 -2.8720606697e+00 1.6581850008e+00 2.8720606697e+00 
3900 6.2284107345e+00 3.1612082881e-02 1.6571503531e+00 -2.8702686073e+00 1.6571503531e+00 2.8702686073e+00 
4000 6.2281949211e+00 2.8949435572e-02 1.6561966361e+00 -2.8686167210e+00 1.6561966361e+00 2.8686167210e+00 
4100 6.2279996686e+00 2.6331929053e-02 1.6553227396e+00 -2.8671030879e+00 1.6553227396e+00 2.8671030879e+00 
4200 6.2278222469e+00 2.3762808189e-02 1.6545274319e+00 -2.8657255745e+00 1.6545274319e+00 2.8657255745e+00 
4300 6.2276600570e+00 2.1245024645e-02 1.6538093692e+00 -2.8644818535e+00 1.6538093692e+00 2.8644818535e+00 
4400 6.2275106406e+00 1.8781252746e-02 1.6531671051e+00 -2.8633694194e+00 1.6531671051e+00 2.8633694194e+00 
4500 6.2273716890e+00 1.6373904907e-02 1.6525990991e+00 -2.8623856041e+00 1.6525990991e+00 2.8623856041e+00 
4600 6.2272410491e+00 1.4025146596e-02 1.6521037252e+00 -2.8615275915e+00 1.6521037252e+00 2.8615275915e+00 
4700 6.2271167284e+00 1.1736910749e-02 1.6516792802e+00 -2.8607924310e+00 1.6516792802e+00 2.8607924310e+00 
4800 6.2269968983e+00 9.5109116231e-03 1.6513239905e+00 -2.8601770514e+00 1.6513239905e+00 2.8601770514e+00 
4900 6.2268798961e+00 7.3486580185e-03 1.6510360205e+00 -2.8596782727e+00 1.6510360205e+00 2.8596782727e+00 
5000 6.2267642253e+00 5.2514658777e-03 1.6508134787e+00 -2.8592928189e+00 1.6508134787e+00 2.8592928189e+00 
5100 6.2266485547e+00 3.2204702217e-03 1.6506544243e+00 -2.8590173287e+00 1.6506544243e+00 2.8590173287e+00 
5200 6.2265317164e+00 1.2566364248e-03 1.6505568740e+00 -2.8588483665e+00 1.6505568740e+00 2.8588483665e+00 
5300 6.2264127027e+00 -6.3922917608e-04 1.6505188071e+00 -2.8587824327e+00 1.6505188071e+00 2.8587824327e+00 
5400 6.2262906614e+00 -2.4664693340e-03 1.6505381716e+00 -2.8588159730e+00 1.6505381716e+00 2.8588159730e+00 
5500 6.2261648915e+00 -4.2245665941e-03 1.6506128893e+00 -2.8589453879e+00 1.6506128893e+00 2.8589453879e+00 
5600 6.2260348365e+00 -5.9131346317e-03 1.6507408606e+00 -2.8591670406e+00 1.6507408606e+00 2.8591670406e+00 
5700 6.2259000780e+00 -7.5319102067e-03 1.6509199693e+00 -2.8594772660e+00 1.6509199693e+00 2.8594772660e+00 
5800 6.2257603286e+00 -9.0807457098e-03 1.6511480871e+00 -2.8598723776e+00 1.6511480871e+00 2.8598723776e+00 
5900 6.2256154237e+00 -1.0559602276e-02 1.6514230775e+00 -2.8603486750e+00 1.6514230775e+00 2.8603486750e+00 
6000 6.2254653136e+00 -1.1968543436e-02 1.6517428000e+00 -2.8609024506e+00 1.6517428000e+00 2.8609024506e+00 
6100 6.2253100547e+00 -1.3307729279e-02 1.6521051137e+00 -2.8615299964e+00 1.6521051137e+00 2.8615299964e+00 
6200 6.2251498011e+00 -1.4577411083e-02 1.6525078807e+00 -2.8622276093e+00 1.6525078807e+00 2.8622276093e+00 
6300 6.2249847949e+00 -1.5777926403e-02 1.6529489697e+00 -2.8629915978e+00 1.6529489697e+00 2.8629915978e+00 
6400 6.2248153578e+00 -1.6909694559e-02 1.6534262586e+00 -2.8638182865e+00 1.6534262586e+00 2.8638182865e+00 
6500 6.2246418816e+00 -1.7973212508e-02 1.6539376381e+00 -2.8647040218e+00 1.6539376381e+00 2.8647040218e+00 
6600 6.2244648194e+00 -1.8969051064e-02 1.6544810140e+00 -2.8656451764e+00 1.6544810140e+00 2.8656451764e+00 
6700 6.2242846765e+00 -1.9897851429e-02 1.6550543100e+00 -2.8666381542e+00 1.6550543100e+00 2.8666381542e+00 
6800 6.2241020019e+00 -2.0760322009e-02 1.6556554702e+00 -2.8676793942e+00 1.6556554702e+00 2.8676793942e+00 
6900 6.2239173794e+00 -2.1557235485e-02 1.6562824615e+00 -2.8687653750e+00 1.6562824615e+00 2.8687653750e+00 
7000 6.2237314198e+00 -2.2289426106e-02 1.6569332758e+00 -2.8698926184e+00 1.6569332758e+00 2.8698926184e+00 
7100 6.2235447529e+00 -2.2957787181e-02 1.6576059321e+00 -2.8710576934e+00 1.6576059321e+00 2.8710576934e+00 
7200 6.2233580196e+00 -2.3563268737e-02 1.6582984787e+00 -2.8722572192e+00 1.6582984787e+00 2.8722572192e+00 
7300 6.2231718653e+00 -2.4106875330e-02 1.6590089946e+00 -2.8734878689e+00 1.6590089946e+00 2.8734878689e+00 
7400 6.2229869327e+00 -2.4589663973e-02 1.6597355921e+00 -2.8747463726e+00 1.6597355921e+00 2.8747463726e+00 
7500 6.2228038558e+00 -2.5012742168e-02 1.6604764177e+00 -2.8760295202e+00 1.6604764177e+00 2.8760295202e+00 
7600 6.2226232542e+00 -2.5377266015e-02 1.6612296543e+00 -2.8773341643e+00 1.6612296543e+00 2.8773341643e+00 
7700 6.2224457272e+00 -2.5684438384e-02 1.6619935225e+00 -2.8786572228e+00 1.6619935225e+00 2.8786572228e+00 
7800 6.2222718496e+00 -2.5935507136e-02 1.6627662820e+00 -2.8799956816e+00 1.6627662820e+00 2.8799956816e+00 
7900 6.2221021671e+00 -2.6131763370e-02 1.6635462333e+00 -2.8813465968e+00 1.6635462333e+00 2.8813465968e+00 
8000 6.2219371923e+00 -2.6274539680e-02 1.6643317185e+00 -2.8827070971e+00 1.6643317185e+00 2.8827070971e+00 
8100 6.2217774015e+00 -2.6365208428e-02 1.6651211229e+00 -2.8840743856e+00 1.6651211229e+00 2.8840743856e+00 
8200 6.2216232319e+00 -2.6405179993e-02 1.6659128760e+00 -2.8854457422e+00 1.6659128760e+00 2.8854457422e+00 
8300 6.2214750792e+00 -2.6395901013e-02 1.6667054527e+00 -2.8868185253e+00 1.6667054527e+00 2.8868185253e+00 
8400 6.2213332954e+00 -2.6338852592e-02 1.6674973739e+00 -2.8881901731e+00 1.6674973739e+00 2.8881901731e+00 
8500 6.2211981878e+00 -2.6235548480e-02 1.6682872082e+00 -2.8895582062e+00 1.6682872082e+00 2.8895582062e+00 
8600 6.2210700178e+00 -2.6087533203e-02 1.6690735718e+00 -2.8909202280e+00 1.6690735718e+00 2.8909202280e+00 
8700 6.2209490004e+00 -2.5896380153e-02 1.6698551302e+00 -2.8922739268e+00 1.6698551302e+00 2.8922739268e+00 
8800 6.2208353038e+00 -2.5663689629e-02 1.6706305982e+00 -2.8936170767e+00 1.6706305982e+00 2.8936170767e+00 
8900 6.2207290501e+00 -2.5391086819e-02 1.6713987409e+00 -2.8949475389e+00 1.6713987409e+00 2.8949475389e+00 
9000 6.2206303153e+00 -2.5080219733e-02 1.6721583744e+00 -2.8962632627e+00 1.6721583744e+00 2.8962632627e+00 
9100 6.2205391308e+00 -2.4732757076e-02 1.6729083660e+00 -2.8975622862e+00 1.6729083660e+00 2.8975622862e+00 
9200 6.2204554844e+00 -2.4350386065e-02 1.6736476347e+00 -2.8988427373e+00 1.6736476347e+00 2.8988427373e+00 
9300 6.2203793218e+00 -2.3934810194e-02 1.6743751519e+00 -2.9001028341e+00 1.6743751519e+00 2.9001028341e+00 
9400 6.2203105485e+00 -2.3487746937e-02 1.6750899413e+00 -2.9013408856e+00 1.6750899413e+00 2.9013408856e+00 
9500 6.2202490317e+00 -2.3010925404e-02 1.6757910793e+00 -2.9025552923e+00 1.6757910793e+00 2.9025552923e+00 
9600 6.2201946029e+00 -2.2506083944e-02 1.6764776952e+00 -2.9037445459e+00 1.6764776952e+00 2.9037445459e+00 
9700 6.2201470598e+00 -2.1974967707e-02 1.6771489713e+00 -2.9049072301e+00 1.6771489713e+00 2.9049072301e+00 
9800 6.2201061696e+00 -2.1419326157e-02 1.6778041426e+00 -2.9060420201e+00 1.6778041426e+00 2.9060420201e+00 
9900 6.2200716708e+00 -2.0840910545e-02 1.6784424973e+00 -2.9071476829e+00 1.6784424973e+00 2.9071476829e+00 
10000 6.2200432771e+00 -2.0241471363e-02 1.6790633763e+00 -2.9082230769e+00 1.6790633763e+00 2.9082230769e+00 
10100 6.2200206794e+00 -1.9622755752e-02 1.6796661732e+00 -2.9092671517e+00 1.6796661732e+00 2.9092671517e+00 
10200 6.2200035490e+00 -1.8986504905e-02 1.6802503337e+00 -2.9102789473e+00 1.6802503337e+00 2.9102789473e+00 
10300 6.2199915411e+00 -1.8334451441e-02 1.6808153557e+00 -2.9112575942e+00 1.6808153557e+00 2.9112575942e+00 
10400 6.2199842969e+00 -1.7668316785e-02 1.6813607887e+00 -2.9122023118e+00 1.6813607887e+00 2.9122023118e+00 
10500 6.2199814474e+00 -1.6989808533e-02 1.6818862332e+00 -2.9131124084e+00 1.6818862332e+00 2.9131124084e+00 
10600 6.2199826155e+00 -1.6300617835e-02 1.6823913404e+00 -2.9139872798e+00 1.6823913404e+00 2.9139872798e+00 
10700 6.2199874196e+00 -1.5602416780e-02 1.6828758115e+00 -2.9148264084e+00 1.6828758115e+00 2.9148264084e+00 
10800 6.2199954761e+00 -1.4896855819e-02 1.6833393969e+00 -2.9156293619e+00 1.6833393969e+00 2.9156293619e+00 
10900 6.2200064018e+00 -1.4185561197e-02 1.6837818956e+00 -2.9163957920e+00 1.6837818956e+00 2.9163957920e+00 
11000 6.2200198170e+00 -1.3470132441e-02 1.6842031542e+00 -2.9171254333e+00 1.6842031542e+00 2.9171254333e+00 
11100 6.2200353475e+00 -1.2752139883e-02 1.6846030663e+00 -2.9178181015e+00 1.6846030663e+00 2.9178181015e+00 
11200 6.2200526270e+00 -1.2033122240e-02 1.6849815714e+00 -2.9184736915e+00 1.6849815714e+00 2.9184736915e+00 
11300 6.2200712994e+00 -1.1314584254e-02 1.6853386539e+00 -2.9190921765e+00 1.6853386539e+00 2.9190921765e+00 
11400 6.2200910208e+00 -1.0597994403e-02 1.6856743419e+00 -2.9196736052e+00 1.6856743419e+00 2.9196736052e+00 
11500 6.2201114610e+00 -9.8847826911e-03 1.6859887064e+00 -2.9202181005e+00 1.6859887064e+00 2.9202181005e+00 
11600 6.2201323056e+00 -9.1763385181e-03 1.6862818599e+00 -2.9207258572e+00 1.6862818599e+00 2.9207258572e+00 
11700 6.2201532570e+00 -8.4740086467e-03 1.6865539551e+00 -2.9211971400e+00 1.6865539551e+00 2.9211971400e+00 
11800 6.2201740360e+00 -7.7790952653e-03 1.6868051839e+00 -2.9216322811e+00 1.6868051839e+00 2.9216322811e+00 
11900 6.2201943827e+00 -7.0928541583e-03 1.6870357759e+00 -2.9220316780e+00 1.6870357759e+00 2.9220316780e+00 
12000 6.2202140577e+00 -6.4164929881e-03 1.6872459967e+00 -2.9223957911e+00 1.6872459967e+00 2.9223957911e+00 
12100 6.2202328423e+00 -5.7511696943e-03 1.6874361472e+00 -2.9227251415e+00 1.6874361472e+00 2.9227251415e+00 
12200 6.2202505394e+00 -5.0979910177e-03 1.6876065615e+00 -2.9230203078e+00 1.6876065615e+00 2.9230203078e+00 
12300 6.2202669739e+00 -4.4580111512e-03 1.6877576058e+00 -2.9232819242e+00 1.6877576058e+00 2.9232819242e+00 
12400 6.2202819926e+00 -3.8322305243e-03 1.6878896766e+00 -2.9235106775e+00 1.6878896766e+00 2.9235106775e+00 
12500 6.2202954643e+00 -3.2215947236e-03 1.6880031992e+00 -2.9237073044e+00 1.6880031992e+00 2.9237073044e+00 
12600 6.2203072798e+00 -2.6269935534e-03 1.6880986264e+00 -2.9238725890e+00 1.6880986264e+00 2.9238725890e+00 
12700 6.2203173514e+00 -2.0492602382e-03 1.6881764362e+00 -2.9240073596e+00 1.6881764362e+00 2.9240073596e+00 
12800 6.2203256124e+00 -1.4891707705e-03 1.6882371310e+00 -2.9241124862e+00 1.6882371310e+00 2.9241124862e+00 
12900 6.2203320166e+00 -9.4744340383e-04 1.6882812356e+00 -2.9241888774e+00 1.6882812356e+00 2.9241888774e+00 
13000 6.2203365376e+00 -4.2473829292e-04 1.6883092950e+00 -2.9242374779e+00 1.6883092950e+00 2.9242374779e+00 
13100 6.2203391680e+00 7.8342719547e-05 1.6883218739e+00 -2.9242592651e+00 1.6883218739e+00 2.9242592651e+00 
13200 6.2203399182e+00 5.6125616944e-04 1.6883195537e+00 -2.9242552465e+00 1.6883195537e+00 2.9242552465e+00 
13300 6.2203388156e+00 1.0235168925e-03 1.6883029320e+00 -2.9242264568e+00 1.6883029320e+00 2.9242264568e+00 
13400 6.2203359033e+00 1.4646978020e-03 1.6882726201e+00 -2.9241739550e+00 1.6882726201e+00 2.9241739550e+00 
13500 6.2203312391e+00 1.8844295249e-03 1.6882292417e+00 -2.9240988214e+00 1.6882292417e+00 2.9240988214e+00 
13600 6.2203248941e+00 2.2823998996e-03 1.6881734312e+00 -2.9240021548e+00 1.6881734312e+00 2.9240021548e+00 
13700 6.2203169516e+00 2.6583533386e-03 1.6881058319e+00 -2.9238850695e+00 1.6881058319e+00 2.9238850695e+00 
13800 6.2203075054e+00 3.0120900600e-03 1.6880270948e+00 -2.9237486927e+00 1.6880270948e+00 2.9237486927e+00 
13900 6.2202966590e+00 3.3434651926e-03 1.6879378763e+00 -2.9235941618e+00 1.6879378763e+00 2.9235941618e+00 
14000 6.2202845236e+00 3.6523877587e-03 1.6878388374e+00 -2.9234226213e+00 1.6878388374e+00 2.9234226213e+00 
14100 6.2202712175e+00 3.9388195411e-03 1.6877306413e+00 -2.9232352203e+00 1.6877306413e+00 2.9232352203e+00 
14200 6.2202568641e+00 4.2027738393e-03 1.6876139529e+00 -2.9230331099e+00 1.6876139529e+00 2.9230331099e+00 
14300 6.2202415909e+00 4.4443141212e-03 1.6874894362e+00 -2.9228174407e+00 1.6874894362e+00 2.9228174407e+00 
14400 6.2202255282e+00 4.6635525764e-03 1.6873577537e+00 -2.9225893599e+00 1.6873577537e+00 2.9225893599e+00 
14500 6.2202088077e+00 4.8606485789e-03 1.6872195646e+00 -2.9223500094e+00 1.6872195646e+00 2.9223500094e+00 
14600 6.2201915617e+00 5.0358070646e-03 1.6870755235e+00 -2.9221005229e+00 1.6870755235e+00 2.9221005229e+00 
14700 6.2201739214e+00 5.1892768324e-03 1.6869262790e+00 -2.9218420239e+00 1.6869262790e+00 2.9218420239e+00 
14800 6.2201560164e+00 5.3213487738e-03 1.6867724727e+00 -2.9215756236e+00 1.6867724727e+00 2.9215756236e+00 
14900 6.2201379731e+00 5.4323540419e-03 1.6866147376e+00 -2.9213024183e+00 1.6866147376e+00 2.9213024183e+00 
15000 6.2201199144e+00 5.5226621633e-03 1.6864536970e+00 -2.9210234879e+00 1.6864536970e+00 2.9210234879e+00 
15100 6.2201019583e+00 5.5926791032e-03 1.6862899637e+00 -2.9207398935e+00 1.6862899637e+00 2.9207398935e+00 
15200 6.2200842175e+00 5.6428452902e-03 1.6861241385e+00 -2.9204526758e+00 1.6861241385e+00 2.9204526758e+00 
15300 6.2200667984e+00 5.6736336073e-03 1.6859568095e+00 -2.9201628533e+00 1.6859568095e+00 2.9201628533e+00 
15400 6.2200498008e+00 5.6855473584e-03 1.6857885507e+00 -2.9198714207e+00 1.6857885507e+00 2.9198714207e+00 
15500 6.2200333172e+00 5.6791182148e-03 1.6856199218e+00 -2.9195793469e+00 1.6856199218e+00 2.9195793469e+00 
15600 6.2200174324e+00 5.6549041512e-03 1.6854514668e+00 -2.9192875742e+00 1.6854514668e+00 2.9192875742e+00 
15700 6.2200022230e+00 5.6134873760e-03 1.6852837132e+00 -2.9189970165e+00 1.6852837132e+00 2.9189970165e+00 
15800 6.2199877575e+00 5.5554722633e-03 1.6851171717e+00 -2.9187085581e+00 1.6851171717e+00 2.9187085581e+00 
15900 6.2199740958e+00 5.4814832933e-03 1.6849523350e+00 -2.9184230526e+00 1.6849523350e+00 2.9184230526e+00 
16000 6.2199612892e+00 5.3921630057e-03 1.6847896777e+00 -2.9181413219e+00 1.6847896777e+00 2.9181413219e+00 
16100 6.2199493803e+00 5.2881699732e-03 1.6846296555e+00 -2.9178641552e+00 1.6846296555e+00 2.9178641552e+00 
16200 6.2199384032e+00 5.1701767999e-03 1.6844727044e+00 -2.9175923080e+00 1.6844727044e+00 2.9175923080e+00 
16300 6.2199283836e+00 5.0388681492e-03 1.6843192410e+00 -2.9173265016e+00 1.6843192410e+00 2.9173265016e+00 
16400 6.2199193386e+00 4.8949388070e-03 1.6841696615e+00 -2.9170674223e+00 1.6841696615e+00 2.9170674223e+00 
16500 6.2199112777e+00 4.7390917834e-03 1.6840243416e+00 -2.9168157208e+00 1.6840243416e+00 2.9168157208e+00 
16600 6.2199042021e+00 4.5720364579e-03 1.6838836362e+00 -2.9165720119e+00 1.6838836362e+00 2.9165720119e+00 
16700 6.2198981061e+00 4.3944867713e-03 1.6837478793e+00 -2.9163368741e+00 1.6837478793e+00 2.9163368741e+00 
16800 6.2198929767e+00 4.2071594671e-03 1.6836173838e+00 -2.9161108493e+00 1.6836173838e+00 2.9161108493e+00 
16900 6.2198887944e+00 4.0107723871e-03 1.6834924413e+00 -2.9158944425e+00 1.6834924413e+00 2.9158944425e+00 
17000 6.2198855334e+00 3.8060428216e-03 1.6833733221e+00 -2.9156881220e+00 1.6833733221e+00 2.9156881220e+00 
17100 6.2198831625e+00 3.5936859184e-03 1.6832602753e+00 -2.9154923192e+00 1.6832602753e+00 2.9154923192e+00 
17200 6.2198816452e+00 3.3744131510e-03 1.6831535287e+00 -2.9153074286e+00 1.6831535287e+00 2.9153074286e+00 
17300 6.2198809406e+00 3.1489308496e-03 1.6830532889e+00 -2.9151338081e+00 1.6830532889e+00 2.9151338081e+00 
17400 6.2198810034e+00 2.9179387936e-03 1.6829597416e+00 -2.9149717795e+00 1.6829597416e+00 2.9149717795e+00 
17500 6.2198817853e+00 2.6821288696e-03 1.6828730516e+00 -2.9148216281e+00 1.6828730516e+00 2.9148216281e+00 
17600 6.2198832345e+00 2.4421837931e-03 1.6827933633e+00 -2.9146836038e+00 1.6827933633e+00 2.9146836038e+00 
17700 6.2198852973e+00 2.1987758968e-03 1.6827208004e+00 -2.9145579212e+00 1.6827208004e+00 2.9145579212e+00 
17800 6.2198879177e+00 1.9525659831e-03 1.6826554669e+00 -2.9144447602e+00 1.6826554669e+00 2.9144447602e+00 
17900 6.2198910388e+00 1.7042022435e-03 1.6825974468e+00 -2.9143442666e+00 1.6825974468e+00 2.9143442666e+00 
18000 6.2198946025e+00 1.4543192433e-03 1.6825468051e+00 -2.9142565525e+00 1.6825468051e+00 2.9142565525e+00 
18100 6.2198985506e+00 1.2035369711e-03 1.6825035875e+00 -2.9141816974e+00 1.6825035875e+00 2.9141816974e+00 
18200 6.2199028251e+00 9.5245995359e-04 1.6824678213e+00 -2.9141197487e+00 1.6824678213e+00 2.9141197487e+00 
18300 6.2199073685e+00 7.0167643358e-04 1.6824395160e+00 -2.9140707223e+00 1.6824395160e+00 2.9140707223e+00 
18400 6.2199121243e+00 4.5175761208e-04 1.6824186631e+00 -2.9140346040e+00 1.6824186631e+00 2.9140346040e+00 
18500 6.2199170375e+00 2.0325695188e-04 1.6824052372e+00 -2.9140113498e+00 1.6824052372e+00 2.9140113498e+00 
18600 6.2199220549e+00 -4.3290457459e-05 1.6823991966e+00 -2.9140008871e+00 1.6823991966e+00 2.9140008871e+00 
18700 6.2199271262e+00 -2.8877321424e-04 1.6823991966e+00 -2.9140008871e+00 1.6823991966e+00 2.9140008871e+00 
18800 6.2199322019e+00 -5.2984568005e-04 1.6824077788e+00 -2.9140157519e+00 1.6824077788e+00 2.9140157519e+00 
18900 6.2199372359e+00 -7.6747721113e-04 1.6824235255e+00 -2.9140430259e+00 1.6824235255e+00 2.9140430259e+00 
19000 6.2199421852e+00 -1.0012112644e-03 1.6824463342e+00 -2.9140825318e+00 1.6824463342e+00 2.9140825318e+00 
19100 6.2199470098e+00 -1.2306119788e-03 1.6824760889e+00 -2.9141340685e+00 1.6824760889e+00 2.9141340685e+00 
19200 6.2199516728e+00 -1.4552644710e-03 1.6825126605e+00 -2.9141974123e+00 1.6825126605e+00 2.9141974123e+00 
19300 6.2199561410e+00 -1.6747750806e-03 1.6825559074e+00 -2.9142723182e+00 1.6825559074e+00 2.9142723182e+00 
19400 6.2199603844e+00 -1.8887715642e-03 1.6826056765e+00 -2.9143585207e+00 1.6826056765e+00 2.9143585207e+00 
19500 6.2199643766e+00 -2.0969032425e-03 1.6826618032e+00 -2.9144557350e+00 1.6826618032e+00 2.9144557350e+00 
19600 6.2199680949e+00 -2.2988411004e-03 1.6827241127e+00 -2.9145636582e+00 1.6827241127e+00 2.9145636582e+00 
19700 6.2199715199e+00 -2.4942778416e-03 1.6827924202e+00 -2.9146819705e+00 1.6827924202e+00 2.9146819705e+00 
19800 6.2199746359e+00 -2.6829279000e-03 1.6828665321e+00 -2.9148103359e+00 1.6828665321e+00 2.9148103359e+00 
19900 6.2199774307e+00 -2.8645274100e-03 1.6829462457e+00 -2.9149484040e+00 1.6829462457e+00 2.9149484040e+00 
20000 6.2199798952e+00 -3.0388341352e-03 1.6830313510e+00 -2.9150958106e+00 1.6830313510e+00 2.9150958106e+00 
20100 6.2199820240e+00 -3.2056273591e-03 1.6831216304e+00 -2.9152521792e+00 1.6831216304e+00 2.9152521792e+00 
20200 6.2199838144e+00 -3.3647077386e-03 1.6832168599e+00 -2.9154171215e+00 1.6832168599e+00 2.9154171215e+00 
20300 6.2199852671e+00 -3.5158971215e-03 1.6833168096e+00 -2.9155902395e+00 1.6833168096e+00 2.9155902395e+00 
20400 6.2199863852e+00 -3.6590383299e-03 1.6834212443e+00 -2.9157711257e+00 1.6834212443e+00 2.9157711257e+00 
20500 6.2199871750e+00 -3.7939949113e-03 1.6835299241e+00 -2.9159593647e+00 1.6835299241e+00 2.9159593647e+00 
20600 6.2199876448e+00 -3.9206508572e-03 1.6836426051e+00 -2.9161545339e+00 1.6836426051e+00 2.9161545339e+00 
20700 6.2199878053e+00 -4.0389102937e-03 1.6837590401e+00 -2.9163562051e+00 1.6837590401e+00 2.9163562051e+00 
20800 6.2199876695e+00 -4.1486971418e-03 1.6838789788e+00 -2.9165639451e+00 1.6838789788e+00 2.9165639451e+00 
20900 6.2199872520e+00 -4.2499547519e-03 1.6840021690e+00 -2.9167773168e+00 1.6840021690e+00 2.9167773168e+00 
21000 6.2199865691e+00 -4.3426455121e-03 1.6841283567e+00 -2.9169958803e+00 1.6841283567e+00 2.9169958803e+00 
21100 6.2199856385e+00 -4.4267504321e-03 1.6842572869e+00 -2.9172191940e+00 1.6842572869e+00 2.9172191940e+00 
21200 6.2199844791e+00 -4.5022687045e-03 1.6843887042e+00 -2.9174468153e+00 1.6843887042e+00 2.9174468153e+00 
21300 6.2199831110e+00 -4.5692172439e-03 1.6845223529e+00 -2.9176783017e+00 1.6845223529e+00 2.9176783017e+00 
21400 6.2199815547e+00 -4.6276302058e-03 1.6846579782e+00 -2.9179132117e+00 1.6846579782e+00 2.9179132117e+00 
21500 6.2199798315e+00 -4.6775584865e-03 1.6847953264e+00 -2.9181511056e+00 1.6847953264e+00 2.9181511056e+00 
21600 6.2199779630e+00 -4.7190692045e-03 1.6849341451e+00 -2.9183915467e+00 1.6849341451e+00 2.9183915467e+00 
21700 6.2199759709e+00 -4.7522451662e-03 1.6850741842e+00 -2.9186341016e+00 1.6850741842e+00 2.9186341016e+00 
21800 6.2199738771e+00 -4.7771843155e-03 1.6852151962e+00 -2.9188783415e+00 1.6852151962e+00 2.9188783415e+00 
21900 6.2199717029e+00 -4.7939991692e-03 1.6853569363e+00 -2.9191238425e+00 1.6853569363e+00 2.9191238425e+00 
22000 6.2199694697e+00 -4.8028162395e-03 1.6854991633e+00 -2.9193701870e+00 1.6854991633e+00 2.9193701870e+00 
22100 6.2199671979e+00 -4.8037754453e-03 1.6856416399e+00 -2.9196169637e+00 1.6856416399e+00 2.9196169637e+00 
22200 6.2199649077e+00 -4.7970295116e-03 1.6857841329e+00 -2.9198637688e+00 1.6857841329e+00 2.9198637688e+00 
22300 6.2199626182e+00 -4.7827433608e-03 1.6859264138e+00 -2.9201102065e+00 1.6859264138e+00 2.9201102065e+00 
22400 6.2199603476e+00 -4.7610934948e-03 1.6860682590e+00 -2.9203558896e+00 1.6860682590e+00 2.9203558896e+00 
22500 6.2199581133e+00 -4.7322673705e-03 1.6862094502e+00 -2.9206004399e+00 1.6862094502e+00 2.9206004399e+00 
22600 6.2199559314e+00 -4.6964627691e-03 1.6863497748e+00 -2.9208434892e+00 1.6863497748e+00 2.9208434892e+00 
22700 6.2199538168e+00 -4.6538871607e-03 1.6864890260e+00 -2.9210846795e+00 1.6864890260e+00 2.9210846795e+00 
22800 6.2199517833e+00 -4.6047570652e-03 1.6866270035e+00 -2.9213236636e+00 1.6866270035e+00 2.9213236636e+00 
22900 6.2199498434e+00 -4.5492974105e-03 1.6867635133e+00 -2.9215601053e+00 1.6867635133e+00 2.9215601053e+00 
23000 6.2199480082e+00 -4.4877408896e-03 1.6868983679e+00 -2.9217936804e+00 1.6868983679e+00 2.9217936804e+00 
23100 6.2199462874e+00 -4.4203273169e-03 1.6870313872e+00 -2.9220240765e+00 1.6870313872e+00 2.9220240765e+00 
23200 6.2199446894e+00 -4.3473029857e-03 1.6871623979e+00 -2.9222509938e+00 1.6871623979e+00 2.9222509938e+00 
23300 6.2199432212e+00 -4.2689200272e-03 1.6872912343e+00 -2.9224741450e+00 1.6872912343e+00 2.9224741450e+00 
23400 6.2199418885e+00 -4.1854357727e-03 1.6874177381e+00 -2.9226932559e+00 1.6874177381e+00 2.9226932559e+00 
23500 6.2199406957e+00 -4.0971121194e-03 1.6875417585e+00 -2.9229080657e+00 1.6875417585e+00 2.9229080657e+00 
23600 6.2199396458e+00 -4.0042149015e-03 1.6876631529e+00 -2.9231183269e+00 1.6876631529e+00 2.9231183269e+00 
23700 6.2199387405e+00 -3.9070132675e-03 1.6877817862e+00 -2.9233238058e+00 1.6877817862e+00 2.9233238058e+00 
23800 6.2199379804e+00 -3.8057790638e-03 1.6878975316e+00 -2.9235242826e+00 1.6878975316e+00 2.9235242826e+00 
23900 6.2199373648e+00 -3.7007862269e-03 1.6880102701e+00 -2.9237195515e+00 1.6880102701e+00 2.9237195515e+00 
24000 6.2199368921e+00 -3.5923101846e-03 1.6881198911e+00 -2.9239094206e+00 1.6881198911e+00 2.9239094206e+00 
24100 6.2199365595e+00 -3.4806272670e-03 1.6882262919e+00 -2.9240937123e+00 1.6882262919e+00 2.9240937123e+00 
24200 6.2199363632e+00 -3.3660141277e-03 1.6883293783e+00 -2.9242722631e+00 1.6883293783e+00 2.9242722631e+00 
24300 6.2199362987e+00 -3.2487471779e-03 1.6884290640e+00 -2.9244449239e+00 1.6884290640e+00 2.9244449239e+00 
24400 6.2199363605e+00 -3.1291020322e-03 1.6885252711e+00 -2.9246115595e+00 1.6885252711e+00 2.9246115595e+00 
24500 6.2199365426e+00 -3.0073529677e-03 1.6886179298e+00 -2.9247720490e+00 1.6886179298e+00 2.9247720490e+00 
24600 6.2199368381e+00 -2.8837723982e-03 1.6887069784e+00 -2.9249262856e+00 1.6887069784e+00 2.9249262856e+00 
24700 6.2199372397e+00 -2.7586303623e-03 1.6887923631e+00 -2.9250741764e+00 1.6887923631e+00 2.9250741764e+00 
24800 6.2199377397e+00 -2.6321940277e-03 1.6888740384e+00 -2.9252156422e+00 1.6888740384e+00 2.9252156422e+00 
24900 6.2199383298e+00 -2.5047272121e-03 1.6889519665e+00 -2.9253506176e+00 1.6889519665e+00 2.9253506176e+00 
25000 6.2199390015e+00 -2.3764899201e-03 1.6890261174e+00 -2.9254790507e+00 1.6890261174e+00 2.9254790507e+00 
25100 6.2199397463e+00 -2.2477378995e-03 1.6890964688e+00 -2.9256009028e+00 1.6890964688e+00 2.9256009028e+00 
25200 6.2199405551e+00 -2.1187222137e-03 1.6891630059e+00 -2.9257161485e+00 1.6891630059e+00 2.9257161485e+00 
25300 6.2199414192e+00 -1.9896888343e-03 1.6892257215e+00 -2.9258247750e+00 1.6892257215e+00 2.9258247750e+00 
25400 6.2199423295e+00 -1.8608782528e-03 1.6892846153e+00 -2.9259267822e+00 1.6892846153e+00 2.9259267822e+00 
25500 6.2199432774e+00 -1.7325251109e-03 1.6893396945e+00 -2.9260221821e+00 1.6893396945e+00 2.9260221821e+00 
25600 6.2199442542e+00 -1.6048578519e-03 1.6893909729e+00 -2.9261109990e+00 1.6893909729e+00 2.9261109990e+00 
25700 6.2199452513e+00 -1.4780983923e-03 1.6894384713e+00 -2.9261932685e+00 1.6894384713e+00 2.9261932685e+00 
25800 6.2199462606e+00 -1.3524618135e-03 1.6894822167e+00 -2.9262690378e+00 1.6894822167e+00 2.9262690378e+00 
25900 6.2199472743e+00 -1.2281560750e-03 1.6895222428e+00 -2.9263383650e+00 1.6895222428e+00 2.9263383650e+00 
26000 6.2199482847e+00 -1.1053817484e-03 1.6895585892e+00 -2.9264013188e+00 1.6895585892e+00 2.9264013188e+00 
26100 6.2199492849e+00 -9.8433177297e-04 1.6895913014e+00 -2.9264579781e+00 1.6895913014e+00 2.9264579781e+00 
26200 6.2199502680e+00 -8.6519123227e-04 1.6896204308e+00 -2.9265084317e+00 1.6896204308e+00 2.9265084317e+00 
26300 6.2199512280e+00 -7.4813715235e-04 1.6896460340e+00 -2.9265527777e+00 1.6896460340e+00 2.9265527777e+00 
26400 6.2199521592e+00 -6.3333832137e-04 1.6896681729e+00 -2.9265911234e+00 1.6896681729e+00 2.9265911234e+00 
26500 6.2199530563e+00 -5.2095513060e-04 1.6896869144e+00 -2.9266235847e+00 1.6896869144e+00 2.9266235847e+00 
26600 6.2199539147e+00 -4.1113943669e-04 1.6897023302e+00 -2.9266502856e+00 1.6897023302e+00 2.9266502856e+00 
26700 6.2199547303e+00 -3.0403444507e-04 1.6897144962e+00 -2.9266713578e+00 1.6897144962e+00 2.9266713578e+00 
26800 6.2199554996e+00 -1.9977461439e-04 1.6897234929e+00 -2.9266869404e+00 1.6897234929e+00 2.9266869404e+00 
26900 6.2199562195e+00 -9.8485581590e-05 1.6897294043e+00 -2.9266971794e+00 1.6897294043e+00 2.9266971794e+00 
27000 6.2199568876e+00 -2.8410750430e-07 1.6897323186e+00 -2.9267022270e+00 1.6897323186e+00 2.9267022270e+00 
27100 6.2199575020e+00 9.4712911593e-05 1.6897323186e+00 -2.9267022270e+00 1.6897323186e+00 2.9267022270e+00 
27200 6.2199580612e+00 1.8642488543e-04 1.6897295160e+00 -2.9266973727e+00 1.6897295160e+00 2.9266973727e+00 
27300 6.2199585645e+00 2.7475250741e-04 1.6897239996e+00 -2.9266878180e+00 1.6897239996e+00 2.9266878180e+00 
27400 6.2199590113e+00 3.5961466908e-04 1.6897158695e+00 -2.9266737363e+00 1.6897158695e+00 2.9266737363e+00 
27500 6.2199594019e+00 4.4093911597e-04 1.6897052282e+00 -2.9266553051e+00 1.6897052282e+00 2.9266553051e+00 
27600 6.2199597366e+00 5.1866238734e-04 1.6896921804e+00 -2.9266327056e+00 1.6896921804e+00 2.9266327056e+00 
27700 6.2199600165e+00 5.9272973851e-04 1.6896768326e+00 -2.9266061224e+00 1.6896768326e+00 2.9266061224e+00 
27800 6.2199602430e+00 6.6309504650e-04 1.6896592929e+00 -2.9265757428e+00 1.6896592929e+00 2.9265757428e+00 
27900 6.2199604176e+00 7.2972069919e-04 1.6896396708e+00 -2.9265417563e+00 1.6896396708e+00 2.9265417563e+00 
28000 6.2199605424e+00 7.9257746911e-04 1.6896180769e+00 -2.9265043545e+00 1.6896180769e+00 2.9265043545e+00 
28100 6.2199606198e+00 8.5164437210e-04 1.6895946226e+00 -2.9264637305e+00 1.6895946226e+00 2.9264637305e+00 
28200 6.2199606523e+00 9.0690851176e-04 1.6895694200e+00 -2.9264200784e+00 1.6895694200e+00 2.9264200784e+00 
28300 6.2199606427e+00 9.5836491027e-04 1.6895425816e+00 -2.9263735929e+00 1.6895425816e+00 2.9263735929e+00 
28400 6.2199605941e+00 1.0060163264e-03 1.6895142200e+00 -2.9263244692e+00 1.6895142200e+00 2.9263244692e+00 
28500 6.2199605095e+00 1.0498730612e-03 1.6894844478e+00 -2.9262729021e+00 1.6894844478e+00 2.9262729021e+00 
28600 6.2199603924e+00 1.0899527525e-03 1.6894533771e+00 -2.9262190861e+00 1.6894533771e+00 2.9262190861e+00 
28700 6.2199602460e+00 1.1262801583e-03 1.6894211196e+00 -2.9261632145e+00 1.6894211196e+00 2.9261632145e+00 
28800 6.2199600739e+00 1.1588869311e-03 1.6893877864e+00 -2.9261054797e+00 1.6893877864e+00 2.9261054797e+00 
28900 6.2199598794e+00 1.1878113817e-03 1.6893534875e+00 -2.9260460723e+00 1.6893534875e+00 2.9260460723e+00 
29000 6.2199596661e+00 1.2130982361e-03 1.6893183318e+00 -2.9259851809e+00 1.6893183318e+00 2.9259851809e+00 
29100 6.2199594374e+00 1.2347983836e-03 1.6892824270e+00 -2.9259229919e+00 1.6892824270e+00 2.9259229919e+00 
29200 6.2199591967e+00 1.2529686186e-03 1.6892458791e+00 -2.9258596891e+00 1.6892458791e+00 2.9258596891e+00 
29300 6.2199589473e+00 1.2676713762e-03 1.6892087926e+00 -2.9257954534e+00 1.6892087926e+00 2.9257954534e+00 
29400 6.2199586923e+00 1.2789744620e-03 1.6891712701e+00 -2.9257304625e+00 1.6891712701e+00 2.9257304625e+00 
29500 6.2199584349e+00 1.2869507782e-03 1.6891334122e+00 -2.9256648907e+00 1.6891334122e+00 2.9256648907e+00 
29600 6.2199581781e+00 1.2916780448e-03 1.6890953173e+00 -2.9255989085e+00 1.6890953173e+00 2.9255989085e+00 
29700 6.2199579245e+00 1.2932385182e-03 1.6890570817e+00 -2.9255326824e+00 1.6890570817e+00 2.9255326824e+00 
29800 6.2199576768e+00 1.2917187075e-03 1.6890187990e+00 -2.9254663748e+00 1.6890187990e+00 2.9254663748e+00 
29900 6.2199574375e+00 1.2872090882e-03 1.6889805604e+00 -2.9254001436e+00 1.6889805604e+00 2.9254001436e+00 
30000 6.2199572086e+00 1.2798038159e-03 1.6889424545e+00 -2.9253341422e+00 1.6889424545e+00 2.9253341422e+00 
30100 6.2199569923e+00 1.2696004389e-03 1.6889045669e+00 -2.9252685189e+00 1.6889045669e+00 2.9252685189e+00 
30200 6.2199567904e+00 1.2566996114e-03 1.6888669805e+00 -2.9252034174e+00 1.6888669805e+00 2.9252034174e+00 
30300 6.2199566044e+00 1.2412048073e-03 1.6888297752e+00 -2.9251389760e+00 1.6888297752e+00 2.9251389760e+00 
30400 6.2199564357e+00 1.2232220355e-03 1.6887930279e+00 -2.9250753278e+00 1.6887930279e+00 2.9250753278e+00 
30500 6.2199562855e+00 1.2028595576e-03 1.6887568121e+00 -2.9250126003e+00 1.6887568121e+00 2.9250126003e+00 
30600 6.2199561547e+00 1.1802276078e-03 1.6887211985e+00 -2.9249509156e+00 1.6887211985e+00 2.9249509156e+00 
30700 6.2199560440e+00 1.1554381165e-03 1.6886862542e+00 -2.9248903903e+00 1.6886862542e+00 2.9248903903e+00 
30800 6.2199559540e+00 1.1286044369e-03 1.6886520432e+00 -2.9248311351e+00 1.6886520432e+00 2.9248311351e+00 
30900 6.2199558849e+00 1.0998410764e-03 1.6886186260e+00 -2.9247732548e+00 1.6886186260e+00 2.9247732548e+00 
31000 6.2199558369e+00 1.0692634320e-03 1.6885860598e+00 -2.9247168485e+00 1.6885860598e+00 2.9247168485e+00 
31100 6.2199558100e+00 1.0369875319e-03 1.6885543984e+00 -2.9246620093e+00 1.6885543984e+00 2.9246620093e+00 
31200 6.2199558037e+00 1.0031297814e-03 1.6885236921e+00 -2.9246088245e+00 1.6885236921e+00 2.9246088245e+00 
31300 6.2199558179e+00 9.6780671524e-04 1.6884939878e+00 -2.9245573752e+00 1.6884939878e+00 2.9245573752e+00 
31400 6.2199558518e+00 9.3113475640e-04 1.6884653290e+00 -2.9245077367e+00 1.6884653290e+00 2.9245077367e+00 
31500 6.2199559048e+00 8.9322998120e-04 1.6884377557e+00 -2.9244599783e+00 1.6884377557e+00 2.9244599783e+00 
31600 6.2199559761e+00 8.5420789146e-04 1.6884113044e+00 -2.9244141633e+00 1.6884113044e+00 2.9244141633e+00 
31700 6.2199560647e+00 8.1418319386e-04 1.6883860083e+00 -2.9243703491e+00 1.6883860083e+00 2.9243703491e+00 
31800 6.2199561696e+00 7.7326958683e-04 1.6883618970e+00 -2.9243285872e+00 1.6883618970e+00 2.9243285872e+00 
31900 6.2199562895e+00 7.3157955513e-04 1.6883389971e+00 -2.9242889234e+00 1.6883389971e+00 2.9242889234e+00 
32000 6.2199564234e+00 6.8922417240e-04 1.6883173315e+00 -2.9242513974e+00 1.6883173315e+00 2.9242513974e+00 
32100 6.2199565699e+00 6.4631291180e-04 1.6882969200e+00 -2.9242160436e+00 1.6882969200e+00 2.9242160436e+00 
32200 6.2199567278e+00 6.0295346507e-04 1.6882777790e+00 -2.9241828905e+00 1.6882777790e+00 2.9241828905e+00 
32300 6.2199568955e+00 5.5925156992e-04 1.6882599220e+00 -2.9241519613e+00 1.6882599220e+00 2.9241519613e+00 
32400 6.2199570719e+00 5.1531084610e-04 1.6882433591e+00 -2.9241232734e+00 1.6882433591e+00 2.9241232734e+00 
32500 6.2199572554e+00 4.7123264008e-04 1.6882280973e+00 -2.9240968394e+00 1.6882280973e+00 2.9240968394e+00 
32600 6.2199574448e+00 4.2711587852e-04 1.6882141409e+00 -2.9240726661e+00 1.6882141409e+00 2.9240726661e+00 
32700 6.2199576386e+00 3.8305693058e-04 1.6882014910e+00 -2.9240507558e+00 1.6882014910e+00 2.9240507558e+00 
32800 6.2199578354e+00 3.3914947902e-04 1.6881901459e+00 -2.9240311055e+00 1.6881901459e+00 2.9240311055e+00 
32900 6.2199580341e+00 2.9548440026e-04 1.6881801012e+00 -2.9240137075e+00 1.6881801012e+00 2.9240137075e+00 
33000 6.2199582332e+00 2.5214965324e-04 1.6881713496e+00 -2.9239985494e+00 1.6881713496e+00 2.9239985494e+00 
33100 6.2199584316e+00 2.0923017719e-04 1.6881638815e+00 -2.9239856142e+00 1.6881638815e+00 2.9239856142e+00 
33200 6.2199586281e+00 1.6680779816e-04 1.6881576845e+00 -2.9239748807e+00 1.6881576845e+00 2.9239748807e+00 
33300 6.2199588217e+00 1.2496114440e-04 1.6881527440e+00 -2.9239663235e+00 1.6881527440e+00 2.9239663235e+00 
33400 6.2199590112e+00 8.3765570366e-05 1.6881490429e+00 -2.9239599130e+00 1.6881490429e+00 2.9239599130e+00 
33500 6.2199591958e+00 4.3293089352e-05 1.6881465619e+00 -2.9239556158e+00 1.6881465619e+00 2.9239556158e+00 
33600 6.2199593746e+00 4.9978218950e-06 1.6881465619e+00 -2.9239556158e+00 1.6881465619e+00 2.9239556158e+00 
33700 6.2199595466e+00 -3.3703938031e-05 1.6881465619e+00 -2.9239556158e+00 1.6881465619e+00 2.9239556158e+00 
33800 6.2199597115e+00 -7.2728168203e-05 1.6881465619e+00 -2.9239556158e+00 1.6881465619e+00 2.9239556158e+00 
33900 6.2199598684e+00 -1.0966585599e-04 1.6881487159e+00 -2.9239593468e+00 1.6881487159e+00 2.9239593468e+00 
34000 6.2199600169e+00 -1.4557190291e-04 1.6881519641e+00 -2.9239649727e+00 1.6881519641e+00 2.9239649727e+00 
34100 6.2199601564e+00 -1.8039531775e-04 1.6881562756e+00 -2.9239724405e+00 1.6881562756e+00 2.9239724405e+00 
34200 6.2199602868e+00 -2.1408868931e-04 1.6881616186e+00 -2.9239816948e+00 1.6881616186e+00 2.9239816948e+00 
34300 6.2199604076e+00 -2.4660818961e-04 1.6881679595e+00 -2.9239926776e+00 1.6881679595e+00 2.9239926776e+00 
34400 6.2199605188e+00 -2.7791356977e-04 1.6881752635e+00 -2.9240053285e+00 1.6881752635e+00 2.9240053285e+00 
34500 6.2199606201e+00 -3.0796814883e-04 1.6881834947e+00 -2.9240195853e+00 1.6881834947e+00 2.9240195853e+00 
34600 6.2199607117e+00 -3.3673879575e-04 1.6881926160e+00 -2.9240353839e+00 1.6881926160e+00 2.9240353839e+00 
34700 6.2199607934e+00 -3.6419590471e-04 1.6882025894e+00 -2.9240526583e+00 1.6882025894e+00 2.9240526583e+00 
34800 6.2199608656e+00 -3.9031336404e-04 1.6882133759e+00 -2.9240713410e+00 1.6882133759e+00 2.9240713410e+00 
34900 6.2199609282e+00 -4.1506851894e-04 1.6882249358e+00 -2.9240913635e+00 1.6882249358e+00 2.9240913635e+00 
35000 6.2199609817e+00 -4.3844212820e-04 1.6882372289e+00 -2.9241126557e+00 1.6882372289e+00 2.9241126557e+00 
35100 6.2199610262e+00 -4.6041831530e-04 1.6882502141e+00 -2.9241351468e+00 1.6882502141e+00 2.9241351468e+00 
35200 6.2199610622e+00 -4.8098451391e-04 1.6882638501e+00 -2.9241587650e+00 1.6882638501e+00 2.9241587650e+00 
35300 6.2199610900e+00 -5.0013140828e-04 1.6882780951e+00 -2.9241834380e+00 1.6882780951e+00 2.9241834380e+00 
35400 6.2199611101e+00 -5.1785286861e-04 1.6882929070e+00 -2.9242090929e+00 1.6882929070e+00 2.9242090929e+00 
35500 6.2199611230e+00 -5.3414588165e-04 1.6883082436e+00 -2.9242356567e+00 1.6883082436e+00 2.9242356567e+00 
35600 6.2199611291e+00 -5.4901047692e-04 1.6883240626e+00 -2.9242630560e+00 1.6883240626e+00 2.9242630560e+00 
35700 6.2199611290e+00 -5.6244964868e-04 1.6883403216e+00 -2.9242912175e+00 1.6883403216e+00 2.9242912175e+00 
35800 6.2199611233e+00 -5.7446927396e-04 1.6883569785e+00 -2.9243200681e+00 1.6883569785e+00 2.9243200681e+00 
35900 6.2199611125e+00 -5.8507802689e-04 1.6883739912e+00 -2.9243495350e+00 1.6883739912e+00 2.9243495350e+00 
36000 6.2199610971e+00 -5.9428728962e-04 1.6883913179e+00 -2.9243795457e+00 1.6883913179e+00 2.9243795457e+00 
36100 6.2199610778e+00 -6.0211106008e-04 1.6884089172e+00 -2.9244100285e+00 1.6884089172e+00 2.9244100285e+00 
36200 6.2199610551e+00 -6.0856585680e-04 1.6884267479e+00 -2.9244409123e+00 1.6884267479e+00 2.9244409123e+00 
36300 6.2199610295e+00 -6.1367062115e-04 1.6884447697e+00 -2.9244721268e+00 1.6884447697e+00 2.9244721268e+00 
36400 6.2199610017e+00 -6.1744661709e-04 1.6884629424e+00 -2.9245036029e+00 1.6884629424e+00 2.9245036029e+00 
36500 6.2199609722e+00 -6.1991732889e-04 1.6884812267e+00 -2.9245352722e+00 1.6884812267e+00 2.9245352722e+00 
36600 6.2199609415e+00 -6.2110835689e-04 1.6884995839e+00 -2.9245670680e+00 1.6884995839e+00 2.9245670680e+00 
36700 6.2199609101e+00 -6.2104731168e-04 1.6885179763e+00 -2.9245989244e+00 1.6885179763e+00 2.9245989244e+00 
36800 6.2199608785e+00 -6.1976370687e-04 1.6885363666e+00 -2.9246307774e+00 1.6885363666e+00 2.9246307774e+00 
36900 6.2199608471e+00 -6.1728885076e-04 1.6885547188e+00 -2.9246625643e+00 1.6885547188e+00 2.9246625643e+00 
37000 6.2199608164e+00 -6.1365573703e-04 1.6885729974e+00 -2.9246942238e+00 1.6885729974e+00 2.9246942238e+00 
37100 6.2199607867e+00 -6.0889893489e-04 1.6885911683e+00 -2.9247256967e+00 1.6885911683e+00 2.9247256967e+00 
37200 6.2199607585e+00 -6.0305447871e-04 1.6886091981e+00 -2.9247569253e+00 1.6886091981e+00 2.9247569253e+00 
37300 6.2199607320e+00 -5.9615975749e-04 1.6886270547e+00 -2.9247878538e+00 1.6886270547e+00 2.9247878538e+00 
37400 6.2199607076e+00 -5.8825340436e-04 1.6886447069e+00 -2.9248184283e+00 1.6886447069e+00 2.9248184283e+00 
37500 6.2199606855e+00 -5.7937518628e-04 1.6886621249e+00 -2.9248485971e+00 1.6886621249e+00 2.9248485971e+00 
37600 6.2199606659e+00 -5.6956589427e-04 1.6886792798e+00 -2.9248783102e+00 1.6886792798e+00 2.9248783102e+00 
37700 6.2199606491e+00 -5.5886723421e-04 1.6886961440e+00 -2.9249075200e+00 1.6886961440e+00 2.9249075200e+00 
37800 6.2199606351e+00 -5.4732171859e-04 1.6887126913e+00 -2.9249361808e+00 1.6887126913e+00 2.9249361808e+00 
37900 6.2199606241e+00 -5.3497255928e-04 1.6887288967e+00 -2.9249642492e+00 1.6887288967e+00 2.9249642492e+00 
38000 6.2199606163e+00 -5.2186356150e-04 1.6887447362e+00 -2.9249916841e+00 1.6887447362e+00 2.9249916841e+00 
38100 6.2199606116e+00 -5.0803901930e-04 1.6887601874e+00 -2.9250184465e+00 1.6887601874e+00 2.9250184465e+00 
38200 6.2199606100e+00 -4.9354361256e-04 1.6887752292e+00 -2.9250444996e+00 1.6887752292e+00 2.9250444996e+00 
38300 6.2199606116e+00 -4.7842230585e-04 1.6887898417e+00 -2.9250698092e+00 1.6887898417e+00 2.9250698092e+00 
38400 6.2199606164e+00 -4.6272024908e-04 1.6888040064e+00 -2.9250943431e+00 1.6888040064e+00 2.9250943431e+00 
38500 6.2199606242e+00 -4.4648268039e-04 1.6888177061e+00 -2.9251180716e+00 1.6888177061e+00 2.9251180716e+00 
38600 6.2199606350e+00 -4.2975483112e-04 1.6888309249e+00 -2.9251409673e+00 1.6888309249e+00 2.9251409673e+00 
38700 6.2199606487e+00 -4.1258183325e-04 1.6888436483e+00 -2.9251630050e+00 1.6888436483e+00 2.9251630050e+00 
38800 6.2199606651e+00 -3.9500862927e-04 1.6888558633e+00 -2.9251841619e+00 1.6888558633e+00 2.9251841619e+00 
38900 6.2199606842e+00 -3.7707988467e-04 1.6888675579e+00 -2.9252044175e+00 1.6888675579e+00 2.9252044175e+00 
39000 6.2199607057e+00 -3.5883990318e-04 1.6888787216e+00 -2.9252237536e+00 1.6888787216e+00 2.9252237536e+00 
39100 6.2199607294e+00 -3.4033254480e-04 1.6888893452e+00 -2.9252421542e+00 1.6888893452e+00 2.9252421542e+00 
39200 6.2199607553e+00 -3.2160114683e-04 1.6888994208e+00 -2.9252596057e+00 1.6888994208e+00 2.9252596057e+00 
39300 6.2199607830e+00 -3.0268844782e-04 1.6889089419e+00 -2.9252760967e+00 1.6889089419e+00 2.9252760967e+00 
39400 6.2199608124e+00 -2.8363651474e-04 1.6889179029e+00 -2.9252916177e+00 1.6889179029e+00 2.9252916177e+00 
39500 6.2199608433e+00 -2.6448667319e-04 1.6889262999e+00 -2.9253061617e+00 1.6889262999e+00 2.9253061617e+00 
39600 6.2199608754e+00 -2.4527944096e-04 1.6889341300e+00 -2.9253197237e+00 1.6889341300e+00 2.9253197237e+00 
39700 6.2199609085e+00 -2.2605446484e-04 1.6889413913e+00 -2.9253323008e+00 1.6889413913e+00 2.9253323008e+00 
39800 6.2199609424e+00 -2.0685046076e-04 1.6889480835e+00 -2.9253438920e+00 1.6889480835e+00 2.9253438920e+00 
39900 6.2199609770e+00 -1.8770515737e-04 1.6889542072e+00 -2.9253544985e+00 1.6889542072e+00 2.9253544985e+00 
40000 6.2199610119e+00 -1.6865524296e-04 1.6889597640e+00 -2.9253641232e+00 1.6889597640e+00 2.9253641232e+00 
40100 6.2199610470e+00 -1.4973631590e-04 1.6889647569e+00 -2.9253727711e+00 1.6889647569e+00 2.9253727711e+00 
40200 6.2199610821e+00 -1.3098283852e-04 1.6889691897e+00 -2.9253804490e+00 1.6889691897e+00 2.9253804490e+00 
40300 6.2199611170e+00 -1.1242809446e-04 1.6889730673e+00 -2.9253871652e+00 1.6889730673e+00 2.9253871652e+00 
40400 6.2199611516e+00 -9.4104149454e-05 1.6889763956e+00 -2.9253929299e+00 1.6889763956e+00 2.9253929299e+00 
40500 6.2199611855e+00 -7.6041815697e-05 1.6889791814e+00 -2.9253977551e+00 1.6889791814e+00 2.9253977551e+00 
40600 6.2199612187e+00 -5.8270619573e-05 1.6889814325e+00 -2.9254016542e+00 1.6889814325e+00 2.9254016542e+00 
40700 6.2199612512e+00 -4.2678684920e-05 1.6889814325e+00 -2.9254016542e+00 1.6889814325e+00 2.9254016542e+00 
40800 6.2199612825e+00 -2.6884909048e-05 1.6889814325e+00 -2.9254016542e+00 1.6889814325e+00 2.9254016542e+00 
40900 6.2199613126e+00 -1.0924261561e-05 1.6889814325e+00 -2.9254016542e+00 1.6889814325e+00 2.9254016542e+00 
41000 6.2199613415e+00 5.1691881778e-06 1.6889814325e+00 -2.9254016542e+00 1.6889814325e+00 2.9254016542e+00 
41100 6.2199613690e+00 2.1362303546e-05 1.6889814325e+00 -2.9254016542e+00 1.6889814325e+00 2.9254016542e+00 
41200 6.2199613952e+00 3.7622910274e-05 1.6889814325e+00 -2.9254016542e+00 1.6889814325e+00 2.9254016542e+00 
41300 6.2199614200e+00 5.3919823213e-05 1.6889814325e+00 -2.9254016542e+00 1.6889814325e+00 2.9254016542e+00 
41400 6.2199614434e+00 7.0222870304e-05 1.6889814325e+00 -2.9254016542e+00 1.6889814325e+00 2.9254016542e+00 
41500 6.2199614654e+00 8.6502913803e-05 1.6889814325e+00 -2.9254016542e+00 1.6889814325e+00 2.9254016542e+00 
41600 6.2199614856e+00 9.9970382693e-05 1.6889788717e+00 -2.9253972188e+00 1.6889788717e+00 2.9253972188e+00 
41700 6.2199615042e+00 1.1291644447e-04 1.6889759122e+00 -2.9253920928e+00 1.6889759122e+00 2.9253920928e+00 
41800 6.2199615212e+00 1.2532807883e-04 1.6889725695e+00 -2.9253863030e+00 1.6889725695e+00 2.9253863030e+00 
41900 6.2199615365e+00 1.3719368031e-04 1.6889688593e+00 -2.9253798767e+00 1.6889688593e+00 2.9253798767e+00 
42000 6.2199615503e+00 1.4850304660e-04 1.6889647979e+00 -2.9253728421e+00 1.6889647979e+00 2.9253728421e+00 
42100 6.2199615625e+00 1.5924736408e-04 1.6889604016e+00 -2.9253652275e+00 1.6889604016e+00 2.9253652275e+00 
42200 6.2199615732e+00 1.6941919108e-04 1.6889556872e+00 -2.9253570620e+00 1.6889556872e+00 2.9253570620e+00 
42300 6.2199615825e+00 1.7901243853e-04 1.6889506717e+00 -2.9253483749e+00 1.6889506717e+00 2.9253483749e+00 
42400 6.2199615903e+00 1.8802234850e-04 1.6889453722e+00 -2.9253391959e+00 1.6889453722e+00 2.9253391959e+00 
42500 6.2199615968e+00 1.9644547042e-04 1.6889398059e+00 -2.9253295548e+00 1.6889398059e+00 2.9253295548e+00 
42600 6.2199616020e+00 2.0427963524e-04 1.6889339903e+00 -2.9253194818e+00 1.6889339903e+00 2.9253194818e+00 
42700 6.2199616061e+00 2.1152392763e-04 1.6889279427e+00 -2.9253090071e+00 1.6889279427e+00 2.9253090071e+00 
42800 6.2199616090e+00 2.1817865627e-04 1.6889216806e+00 -2.9252981609e+00 1.6889216806e+00 2.9252981609e+00 
42900 6.2199616109e+00 2.2424532241e-04 1.6889152215e+00 -2.9252869734e+00 1.6889152215e+00 2.9252869734e+00 
43000 6.2199616118e+00 2.2972658670e-04 1.6889085828e+00 -2.9252754748e+00 1.6889085828e+00 2.9252754748e+00 
43100 6.2199616119e+00 2.3462623453e-04 1.6889017818e+00 -2.9252636950e+00 1.6889017818e+00 2.9252636950e+00 
43200 6.2199616113e+00 2.3894913992e-04 1.6888948357e+00 -2.9252516640e+00 1.6888948357e+00 2.9252516640e+00 
43300 6.2199616100e+00 2.4270122806e-04 1.6888877615e+00 -2.9252394113e+00 1.6888877615e+00 2.9252394113e+00 
43400 6.2199616081e+00 2.4588943665e-04 1.6888805763e+00 -2.9252269661e+00 1.6888805763e+00 2.9252269661e+00 
43500 6.2199616058e+00 2.4852167613e-04 1.6888732967e+00 -2.9252143573e+00 1.6888732967e+00 2.9252143573e+00 
43600 6.2199616030e+00 2.5060678892e-04 1.6888659390e+00 -2.9252016136e+00 1.6888659390e+00 2.9252016136e+00 
43700 6.2199615999e+00 2.5215450774e-04 1.6888585197e+00 -2.9251887629e+00 1.6888585197e+00 2.9251887629e+00 
43800 6.2199615967e+00 2.5317541324e-04 1.6888510544e+00 -2.9251758327e+00 1.6888510544e+00 2.9251758327e+00 
43900 6.2199615933e+00 2.5368089080e-04 1.6888435589e+00 -2.9251628501e+00 1.6888435589e+00 2.9251628501e+00 
44000 6.2199615898e+00 2.5368308700e-04 1.6888360485e+00 -2.9251498416e+00 1.6888360485e+00 2.9251498416e+00 
44100 6.2199615863e+00 2.5319486537e-04 1.6888285379e+00 -2.9251368329e+00 1.6888285379e+00 2.9251368329e+00 
44200 6.2199615829e+00 2.5222976201e-04 1.6888210417e+00 -2.9251238491e+00 1.6888210417e+00 2.9251238491e+00 
44300 6.2199615797e+00 2.5080194080e-04 1.6888135741e+00 -2.9251109148e+00 1.6888135741e+00 2.9251109148e+00 
44400 6.2199615766e+00 2.4892614856e-04 1.6888061487e+00 -2.9250980537e+00 1.6888061487e+00 2.9250980537e+00 
44500 6.2199615739e+00 2.4661767006e-04 1.6887987788e+00 -2.9250852887e+00 1.6887987788e+00 2.9250852887e+00 
44600 6.2199615714e+00 2.4389228316e-04 1.6887914773e+00 -2.9250726420e+00 1.6887914773e+00 2.9250726420e+00 
44700 6.2199615692e+00 2.4076621400e-04 1.6887842564e+00 -2.9250601350e+00 1.6887842564e+00 2.9250601350e+00 
44800 6.2199615675e+00 2.3725609245e-04 1.6887771280e+00 -2.9250477883e+00 1.6887771280e+00 2.9250477883e+00 
44900 6.2199615661e+00 2.3337890787e-04 1.6887701035e+00 -2.9250356215e+00 1.6887701035e+00 2.9250356215e+00 
45000 6.2199615652e+00 2.2915196519e-04 1.6887631938e+00 -2.9250236535e+00 1.6887631938e+00 2.9250236535e+00 
45100 6.2199615647e+00 2.2459284159e-04 1.6887564092e+00 -2.9250119023e+00 1.6887564092e+00 2.9250119023e+00 
45200 6.2199615647e+00 2.1971934359e-04 1.6887497595e+00 -2.9250003847e+00 1.6887497595e+00 2.9250003847e+00 
45300 6.2199615652e+00 2.1454946483e-04 1.6887432541e+00 -2.9249891171e+00 1.6887432541e+00 2.9249891171e+00 
45400 6.2199615662e+00 2.0910134452e-04 1.6887369018e+00 -2.9249781145e+00 1.6887369018e+00 2.9249781145e+00 
45500 6.2199615676e+00 2.0339322670e-04 1.6887307107e+00 -2.9249673913e+00 1.6887307107e+00 2.9249673913e+00 
45600 6.2199615696e+00 1.9744342025e-04 1.6887246887e+00 -2.9249569608e+00 1.6887246887e+00 2.9249569608e+00 
45700 6.2199615719e+00 1.9127025981e-04 1.6887188427e+00 -2.9249468353e+00 1.6887188427e+00 2.9249468353e+00 
45800 6.2199615748e+00 1.8489206768e-04 1.6887131796e+00 -2.9249370264e+00 1.6887131796e+00 2.9249370264e+00 
45900 6.2199615781e+00 1.7832711669e-04 1.6887077052e+00 -2.9249275446e+00 1.6887077052e+00 2.9249275446e+00 
46000 6.2199615818e+00 1.7159359410e-04 1.6887024252e+00 -2.9249183994e+00 1.6887024252e+00 2.9249183994e+00 
46100 6.2199615859e+00 1.6470956661e-04 1.6886973446e+00 -2.9249095995e+00 1.6886973446e+00 2.9249095995e+00 
46200 6.2199615903e+00 1.5769294654e-04 1.6886924678e+00 -2.9249011526e+00 1.6886924678e+00 2.9249011526e+00 
46300 6.2199615952e+00 1.5056145915e-04 1.6886877987e+00 -2.9248930655e+00 1.6886877987e+00 2.9248930655e+00 
46400 6.2199616003e+00 1.4333261119e-04 1.6886833408e+00 -2.9248853441e+00 1.6886833408e+00 2.9248853441e+00 
46500 6.2199616057e+00 1.3602366066e-04 1.6886790968e+00 -2.9248779934e+00 1.6886790968e+00 2.9248779934e+00 
46600 6.2199616113e+00 1.2865158796e-04 1.6886750693e+00 -2.9248710176e+00 1.6886750693e+00 2.9248710176e+00 
46700 6.2199616172e+00 1.2123306821e-04 1.6886712601e+00 -2.9248644197e+00 1.6886712601e+00 2.9248644197e+00 
46800 6.2199616232e+00 1.1378444500e-04 1.6886676705e+00 -2.9248582024e+00 1.6886676705e+00 2.9248582024e+00 
46900 6.2199616294e+00 1.0632170542e-04 1.6886643014e+00 -2.9248523670e+00 1.6886643014e+00 2.9248523670e+00 
47000 6.2199616357e+00 9.8860456517e-05 1.6886611533e+00 -2.9248469143e+00 1.6886611533e+00 2.9248469143e+00 
47100 6.2199616421e+00 9.1415903054e-05 1.6886582261e+00 -2.9248418443e+00 1.6886582261e+00 2.9248418443e+00 
47200 6.2199616485e+00 8.4002826742e-05 1.6886555194e+00 -2.9248371561e+00 1.6886555194e+00 2.9248371561e+00 
47300 6.2199616549e+00 7.6635566800e-05 1.6886530321e+00 -2.9248328480e+00 1.6886530321e+00 2.9248328480e+00 
47400 6.2199616613e+00 6.9328001946e-05 1.6886507630e+00 -2.9248289177e+00 1.6886507630e+00 2.9248289177e+00 
47500 6.2199616678e+00 6.4308702330e-05 1.6886507630e+00 -2.9248289177e+00 1.6886507630e+00 2.9248289177e+00 
47600 6.2199616742e+00 5.9154855628e-05 1.6886507630e+00 -2.9248289177e+00 1.6886507630e+00 2.9248289177e+00 
47700 6.2199616804e+00 5.3881819155e-05 1.6886507630e+00 -2.9248289177e+00 1.6886507630e+00 2.9248289177e+00 
47800 6.2199616865e+00 4.8504640160e-05 1.6886507630e+00 -2.9248289177e+00 1.6886507630e+00 2.9248289177e+00 
47900 6.2199616923e+00 4.3038038135e-05 1.6886507630e+00 -2.9248289177e+00 1.6886507630e+00 2.9248289177e+00 
48000 6.2199616980e+00 3.7496388361e-05 1.6886507630e+00 -2.9248289177e+00 1.6886507630e+00 2.9248289177e+00 
48100 6.2199617034e+00 3.1893706704e-05 1.6886507630e+00 -2.9248289177e+00 1.6886507630e+00 2.9248289177e+00 
48200 6.2199617086e+00 2.6243635597e-05 1.6886507630e+00 -2.9248289177e+00 1.6886507630e+00 2.9248289177e+00 
48300 6.2199617135e+00 2.0559431240e-05 1.6886507630e+00 -2.9248289177e+00 1.6886507630e+00 2.9248289177e+00 
48400 6.2199617182e+00 1.4853951979e-05 1.6886507630e+00 -2.9248289177e+00 1.6886507630e+00 2.9248289177e+00 
48500 6.2199617227e+00 9.1396478446e-06 1.6886507630e+00 -2.9248289177e+00 1.6886507630e+00 2.9248289177e+00 
48600 6.2199617269e+00 3.4285512278e-06 1.6886507630e+00 -2.9248289177e+00 1.6886507630e+00 2.9248289177e+00 
48700 6.2199617309e+00 -2.2677313310e-06 1.6886507630e+00 -2.9248289177e+00 1.6886507630e+00 2.9248289177e+00 
48800 6.2199617346e+00 -7.9380262402e-06 1.6886507630e+00 -2.9248289177e+00 1.6886507630e+00 2.9248289177e+00 
48900 6.2199617381e+00 -1.3571598914e-05 1.6886507630e+00 -2.9248289177e+00 1.6886507630e+00 2.9248289177e+00 
49000 6.2199617413e+00 -1.9158158766e-05 1.6886507630e+00 -2.9248289177e+00 1.6886507630e+00 2.9248289177e+00 
49100 6.2199617443e+00 -2.4687863193e-05 1.6886507630e+00 -2.9248289177e+00 1.6886507630e+00 2.9248289177e+00 
49200 6.2199617471e+00 -3.0151320586e-05 1.6886507630e+00 -2.9248289177e+00 1.6886507630e+00 2.9248289177e+00 
49300 6.2199617496e+00 -3.5539592359e-05 1.6886507630e+00 -2.9248289177e+00 1.6886507630e+00 2.9248289177e+00 
49400 6.2199617519e+00 -4.0844194065e-05 1.6886507630e+00 -2.9248289177e+00 1.6886507630e+00 2.9248289177e+00 
49500 6.2199617541e+00 -4.6057095621e-05 1.6886507630e+00 -2.9248289177e+00 1.6886507630e+00 2.9248289177e+00 
49600 6.2199617560e+00 -5.1170720648e-05 1.6886507630e+00 -2.9248289177e+00 1.6886507630e+00 2.9248289177e+00 
49700 6.2199617577e+00 -5.6177944996e-05 1.6886507630e+00 -2.9248289177e+00 1.6886507630e+00 2.9248289177e+00 
49800 6.2199617593e+00 -6.1072094448e-05 1.6886507630e+00 -2.9248289177e+00 1.6886507630e+00 2.9248289177e+00 
49900 6.2199617607e+00 -6.5846941674e-05 1.6886507630e+00 -2.9248289177e+00 1.6886507630e+00 2.9248289177e+00 
50000 6.2199617619e+00 -7.0496702430e-05 1.6886507630e+00 -2.9248289177e+00 1.6886507630e+00 2.9248289177e+00 
50100 6.2199617630e+00 -7.5016031061e-05 1.6886507630e+00 -2.9248289177e+00 1.6886507630e+00 2.9248289177e+00 
50200 6.2199617638e+00 -7.7003570138e-05 1.6886529842e+00 -2.9248327649e+00 1.6886529842e+00 2.9248327649e+00 
50300 6.2199617644e+00 -7.8776327146e-05 1.6886552642e+00 -2.9248367141e+00 1.6886552642e+00 2.9248367141e+00 
50400 6.2199617649e+00 -8.0335375217e-05 1.6886575967e+00 -2.9248407541e+00 1.6886575967e+00 2.9248407541e+00 
50500 6.2199617652e+00 -8.1682231986e-05 1.6886599754e+00 -2.9248448741e+00 1.6886599754e+00 2.9248448741e+00 
50600 6.2199617655e+00 -8.2818843937e-05 1.6886623939e+00 -2.9248490631e+00 1.6886623939e+00 2.9248490631e+00 
50700 6.2199617656e+00 -8.3747570271e-05 1.6886648461e+00 -2.9248533105e+00 1.6886648461e+00 2.9248533105e+00 
50800 6.2199617657e+00 -8.4471166409e-05 1.6886673258e+00 -2.9248576054e+00 1.6886673258e+00 2.9248576054e+00 
50900 6.2199617657e+00 -8.4992767169e-05 1.6886698270e+00 -2.9248619375e+00 1.6886698270e+00 2.9248619375e+00 
51000 6.2199617657e+00 -8.5315869598e-05 1.6886723435e+00 -2.9248662963e+00 1.6886723435e+00 2.9248662963e+00 
51100 6.2199617656e+00 -8.5444315583e-05 1.6886748696e+00 -2.9248706717e+00 1.6886748696e+00 2.9248706717e+00 
51200 6.2199617655e+00 -8.5382274225e-05 1.6886773996e+00 -2.9248750536e+00 1.6886773996e+00 2.9248750536e+00 
51300 6.2199617654e+00 -8.5134224027e-05 1.6886799276e+00 -2.9248794324e+00 1.6886799276e+00 2.9248794324e+00 
51400 6.2199617653e+00 -8.4704934944e-05 1.6886824484e+00 -2.9248837984e+00 1.6886824484e+00 2.9248837984e+00 
51500 6.2199617652e+00 -8.4099450324e-05 1.6886849564e+00 -2.9248881425e+00 1.6886849564e+00 2.9248881425e+00 
51600 6.2199617651e+00 -8.3323068803e-05 1.6886874465e+00 -2.9248924554e+00 1.6886874465e+00 2.9248924554e+00 
51700 6.2199617651e+00 -8.2381326135e-05 1.6886899136e+00 -2.9248967286e+00 1.6886899136e+00 2.9248967286e+00 
51800 6.2199617651e+00 -8.1279977061e-05 1.6886923528e+00 -2.9249009534e+00 1.6886923528e+00 2.9249009534e+00 
51900 6.2199617651e+00 -8.0024977213e-05 1.6886947594e+00 -2.9249051217e+00 1.6886947594e+00 2.9249051217e+00 
52000 6.2199617652e+00 -7.8622465077e-05 1.6886971288e+00 -2.9249092257e+00 1.6886971288e+00 2.9249092257e+00 
52100 6.2199617653e+00 -7.7078744099e-05 1.6886994567e+00 -2.9249132578e+00 1.6886994567e+00 2.9249132578e+00 
52200 6.2199617655e+00 -7.5400264909e-05 1.6887017389e+00 -2.9249172106e+00 1.6887017389e+00 2.9249172106e+00 
52300 6.2199617658e+00 -7.3593607721e-05 1.6887039714e+00 -2.9249210774e+00 1.6887039714e+00 2.9249210774e+00 
52400 6.2199617661e+00 -7.1665464952e-05 1.6887061504e+00 -2.9249248516e+00 1.6887061504e+00 2.9249248516e+00 
52500 6.2199617665e+00 -6.9622624072e-05 1.6887082723e+00 -2.9249285268e+00 1.6887082723e+00 2.9249285268e+00 
52600 6.2199617672e+00 -6.9695685181e-05 1.6887082723e+00 -2.9249285268e+00 1.6887082723e+00 2.9249285268e+00 
52700 6.2199617679e+00 -6.9609812475e-05 1.6887082723e+00 -2.9249285268e+00 1.6887082723e+00 2.9249285268e+00 
52800 6.2199617686e+00 -6.9369746341e-05 1.6887082723e+00 -2.9249285268e+00 1.6887082723e+00 2.9249285268e+00 
52900 6.2199617694e+00 -6.8980358243e-05 1.6887082723e+00 -2.9249285268e+00 1.6887082723e+00 2.9249285268e+00 
53000 6.2199617703e+00 -6.8446636957e-05 1.6887082723e+00 -2.9249285268e+00 1.6887082723e+00 2.9249285268e+00 
53100 6.2199617712e+00 -6.7773675072e-05 1.6887082723e+00 -2.9249285268e+00 1.6887082723e+00 2.9249285268e+00 
53200 6.2199617721e+00 -6.6966655772e-05 1.6887082723e+00 -2.9249285268e+00 1.6887082723e+00 2.9249285268e+00 
53300 6.2199617731e+00 -6.6030839891e-05 1.6887082723e+00 -2.9249285268e+00 1.6887082723e+00 2.9249285268e+00 
53400 6.2199617741e+00 -6.4971553305e-05 1.6887082723e+00 -2.9249285268e+00 1.6887082723e+00 2.9249285268e+00 
53500 6.2199617752e+00 -6.3794174613e-05 1.6887082723e+00 -2.9249285268e+00 1.6887082723e+00 2.9249285268e+00 
53600 6.2199617763e+00 -6.2504123173e-05 1.6887082723e+00 -2.9249285268e+00 1.6887082723e+00 2.9249285268e+00 
53700 6.2199617774e+00 -6.1106847461e-05 1.6887082723e+00 -2.9249285268e+00 1.6887082723e+00 2.9249285268e+00 
53800 6.2199617785e+00 -5.9607813799e-05 1.6887082723e+00 -2.9249285268e+00 1.6887082723e+00 2.9249285268e+00 
53900 6.2199617796e+00 -5.8012495426e-05 1.6887082723e+00 -2.9249285268e+00 1.6887082723e+00 2.9249285268e+00 
54000 6.2199617808e+00 -5.6326361958e-05 1.6887082723e+00 -2.9249285268e+00 1.6887082723e+00 2.9249285268e+00 
54100 6.2199617819e+00 -5.4554869207e-05 1.6887082723e+00 -2.9249285268e+00 1.6887082723e+00 2.9249285268e+00 
54200 6.2199617831e+00 -5.2703449390e-05 1.6887082723e+00 -2.9249285268e+00 1.6887082723e+00 2.9249285268e+00 
54300 6.2199617842e+00 -5.0777501727e-05 1.6887082723e+00 -2.9249285268e+00 1.6887082723e+00 2.9249285268e+00 
54400 6.2199617854e+00 -4.8782383416e-05 1.6887082723e+00 -2.9249285268e+00 1.6887082723e+00 2.9249285268e+00 
54500 6.2199617865e+00 -4.6723401024e-05 1.6887082723e+00 -2.9249285268e+00 1.6887082723e+00 2.9249285268e+00 
54600 6.2199617877e+00 -4.4605802252e-05 1.6887082723e+00 -2.9249285268e+00 1.6887082723e+00 2.9249285268e+00 
54700 6.2199617888e+00 -4.2434768116e-05 1.6887082723e+00 -2.9249285268e+00 1.6887082723e+00 2.9249285268e+00 
54800 6.2199617899e+00 -4.0215405518e-05 1.6887082723e+00 -2.9249285268e+00 1.6887082723e+00 2.9249285268e+00 
54900 6.2199617910e+00 -3.7952740217e-05 1.6887082723e+00 -2.9249285268e+00 1.6887082723e+00 2.9249285268e+00 
55000 6.2199617920e+00 -3.5651710196e-05 1.6887082723e+00 -2.9249285268e+00 1.6887082723e+00 2.9249285268e+00 
55100 6.2199617931e+00 -3.3317159440e-05 1.6887082723e+00 -2.9249285268e+00 1.6887082723e+00 2.9249285268e+00 
55200 6.2199617941e+00 -3.0953832080e-05 1.6887082723e+00 -2.9249285268e+00 1.6887082723e+00 2.9249285268e+00 
55300 6.2199617951e+00 -2.8566366960e-05 1.6887082723e+00 -2.9249285268e+00 1.6887082723e+00 2.9249285268e+00 
55400 6.2199617961e+00 -2.6159292573e-05 1.6887082723e+00 -2.9249285268e+00 1.6887082723e+00 2.9249285268e+00 
55500 6.2199617970e+00 -2.3737022388e-05 1.6887082723e+00 -2.9249285268e+00 1.6887082723e+00 2.9249285268e+00 
55600 6.2199617979e+00 -2.1303850553e-05 1.6887082723e+00 -2.9249285268e+00 1.6887082723e+00 2.9249285268e+00 
55700 6.2199617988e+00 -1.8863947976e-05 1.6887082723e+00 -2.9249285268e+00 1.6887082723e+00 2.9249285268e+00 
55800 6.2199617997e+00 -1.6421358770e-05 1.6887082723e+00 -2.9249285268e+00 1.6887082723e+00 2.9249285268e+00 
55900 6.2199618005e+00 -1.3979997071e-05 1.6887082723e+00 -2.9249285268e+00 1.6887082723e+00 2.9249285268e+00 
56000 6.2199618013e+00 -1.1543644195e-05 1.6887082723e+00 -2.9249285268e+00 1.6887082723e+00 2.9249285268e+00 
56100 6.2199618021e+00 -9.1159461592e-06 1.6887082723e+00 -2.9249285268e+00 1.6887082723e+00 2.9249285268e+00 
56200 6.2199618028e+00 -6.7004115302e-06 1.6887082723e+00 -2.9249285268e+00 1.6887082723e+00 2.9249285268e+00 
56300 6.2199618035e+00 -4.3004096235e-06 1.6887082723e+00 -2.9249285268e+00 1.6887082723e+00 2.9249285268e+00 
56400 6.2199618042e+00 -1.9191690067e-06 1.6887082723e+00 -2.9249285268e+00 1.6887082723e+00 2.9249285268e+00 
56500 6.2199618048e+00 4.4022366552e-07 1.6887082723e+00 -2.9249285268e+00 1.6887082723e+00 2.9249285268e+00 
56600 6.2199618054e+00 2.7748245107e-06 1.6887082723e+00 -2.9249285268e+00 1.6887082723e+00 2.9249285268e+00 
56700 6.2199618060e+00 5.0818329906e-06 1.6887082723e+00 -2.9249285268e+00 1.6887082723e+00 2.9249285268e+00 
56800 6.2199618066e+00 7.3585921773e-06 1.6887082723e+00 -2.9249285268e+00 1.6887082723e+00 2.9249285268e+00 
56900 6.2199618072e+00 9.6025887577e-06 1.6887082723e+00 -2.9249285268e+00 1.6887082723e+00 2.9249285268e+00 
57000 6.2199618077e+00 1.1811452756e-05 1.6887082723e+00 -2.9249285268e+00 1.6887082723e+00 2.9249285268e+00 
57100 6.2199618082e+00 1.3982956995e-05 1.6887082723e+00 -2.9249285268e+00 1.6887082723e+00 2.9249285268e+00 
57200 6.2199618086e+00 1.6115016330e-05 1.6887082723e+00 -2.9249285268e+00 1.6887082723e+00 2.9249285268e+00 
57300 6.2199618091e+00 1.8205686607e-05 1.6887082723e+00 -2.9249285268e+00 1.6887082723e+00 2.9249285268e+00 
57400 6.2199618095e+00 2.0253163419e-05 1.6887082723e+00 -2.9249285268e+00 1.6887082723e+00 2.9249285268e+00 
57500 6.2199618099e+00 2.2255780647e-05 1.6887082723e+00 -2.9249285268e+00 1.6887082723e+00 2.9249285268e+00 
57600 6.2199618103e+00 2.4212008763e-05 1.6887082723e+00 -2.9249285268e+00 1.6887082723e+00 2.9249285268e+00 
57700 6.2199618107e+00 2.6120452963e-05 1.6887082723e+00 -2.9249285268e+00 1.6887082723e+00 2.9249285268e+00 
57800 6.2199618111e+00 2.7979851116e-05 1.6887082723e+00 -2.9249285268e+00 1.6887082723e+00 2.9249285268e+00 
57900 6.2199618114e+00 2.9789071499e-05 1.6887082723e+00 -2.9249285268e+00 1.6887082723e+00 2.9249285268e+00 
58000 6.2199618118e+00 3.1547110407e-05 1.6887082723e+00 -2.9249285268e+00 1.6887082723e+00 2.9249285268e+00 
58100 6.2199618121e+00 3.3253089593e-05 1.6887082723e+00 -2.9249285268e+00 1.6887082723e+00 2.9249285268e+00 
58200 6.2199618124e+00 3.4906253549e-05 1.6887082723e+00 -2.9249285268e+00 1.6887082723e+00 2.9249285268e+00 
58300 6.2199618128e+00 3.6505966663e-05 1.6887082723e+00 -2.9249285268e+00 1.6887082723e+00 2.9249285268e+00 
58400 6.2199618131e+00 3.8051710257e-05 1.6887082723e+00 -2.9249285268e+00 1.6887082723e+00 2.9249285268e+00 
58500 6.2199618134e+00 3.9543079493e-05 1.6887082723e+00 -2.9249285268e+00 1.6887082723e+00 2.9249285268e+00 
58600 6.2199618136e+00 4.0979780188e-05 1.6887082723e+00 -2.9249285268e+00 1.6887082723e+00 2.9249285268e+00 
58700 6.2199618139e+00 4.2361625519e-05 1.6887082723e+00 -2.9249285268e+00 1.6887082723e+00 2.9249285268e+00 
58800 6.2199618142e+00 4.3688532658e-05 1.6887082723e+00 -2.9249285268e+00 1.6887082723e+00 2.9249285268e+00 
58900 6.2199618145e+00 4.4960519315e-05 1.6887082723e+00 -2.9249285268e+00 1.6887082723e+00 2.9249285268e+00 
59000 6.2199618148e+00 4.6177700217e-05 1.6887082723e+00 -2.9249285268e+00 1.6887082723e+00 2.9249285268e+00 
59100 6.2199618150e+00 4.7340283542e-05 1.6887082723e+00 -2.9249285268e+00 1.6887082723e+00 2.9249285268e+00 
59200 6.2199618153e+00 4.8448567274e-05 1.6887082723e+00 -2.9249285268e+00 1.6887082723e+00 2.9249285268e+00 
59300 6.2199618156e+00 4.9502935545e-05 1.6887082723e+00 -2.9249285268e+00 1.6887082723e+00 2.9249285268e+00 
59400 6.2199618158e+00 5.0503854926e-05 1.6887082723e+00 -2.9249285268e+00 1.6887082723e+00 2.9249285268e+00 
59500 6.2199618161e+00 5.1451870704e-05 1.6887082723e+00 -2.9249285268e+00 1.6887082723e+00 2.9249285268e+00 
59600 6.2199618164e+00 5.2347603130e-05 1.6887082723e+00 -2.9249285268e+00 1.6887082723e+00 2.9249285268e+00 
59700 6.2199618166e+00 5.3191743671e-05 1.6887082723e+00 -2.9249285268e+00 1.6887082723e+00 2.9249285268e+00 
59800 6.2199618169e+00 5.3985051247e-05 1.6887082723e+00 -2.9249285268e+00 1.6887082723e+00 2.9249285268e+00 
59900 6.2199618171e+00 5.4728348477e-05 1.6887082723e+00 -2.9249285268e+00 1.6887082723e+00 2.9249285268e+00 
60000 6.2199618174e+00 5.5422517946e-05 1.6887082723e+00 -2.9249285268e+00 1.6887082723e+00 2.9249285268e+00 
60100 6.2199618177e+00 5.6068498477e-05 1.6887082723e+00 -2.9249285268e+00 1.6887082723e+00 2.9249285268e+00 
60200 6.2199618179e+00 5.6667281431e-05 1.6887082723e+00 -2.9249285268e+00 1.6887082723e+00 2.9249285268e+00 
60300 6.2199618182e+00 5.7219907050e-05 1.6887082723e+00 -2.9249285268e+00 1.6887082723e+00 2.9249285268e+00 
60400 6.2199618185e+00 5.7727460820e-05 1.6887082723e+00 -2.9249285268e+00 1.6887082723e+00 2.9249285268e+00 
60500 6.2199618187e+00 5.8191069880e-05 1.6887082723e+00 -2.9249285268e+00 1.6887082723e+00 2.9249285268e+00 
60600 6.2199618190e+00 5.8611899488e-05 1.6887082723e+00 -2.9249285268e+00 1.6887082723e+00 2.9249285268e+00 
60700 6.2199618192e+00 5.8991149529e-05 1.6887082723e+00 -2.9249285268e+00 1.6887082723e+00 2.9249285268e+00 
60800 6.2199618195e+00 5.9330051088e-05 1.6887082723e+00 -2.9249285268e+00 1.6887082723e+00 2.9249285268e+00 
60900 6.2199618198e+00 5.9629863076e-05 1.6887082723e+00 -2.9249285268e+00 1.6887082723e+00 2.9249285268e+00 
61000 6.2199618200e+00 5.9891868930e-05 1.6887082723e+00 -2.9249285268e+00 1.6887082723e+00 2.9249285268e+00 
61100 6.2199618203e+00 6.0117373379e-05 1.6887082723e+00 -2.9249285268e+00 1.6887082723e+00 2.9249285268e+00 
61200 6.2199618206e+00 6.0307699279e-05 1.6887082723e+00 -2.9249285268e+00 1.6887082723e+00 2.9249285268e+00 
61300 6.2199618208e+00 6.0464184534e-05 1.6887082723e+00 -2.9249285268e+00 1.6887082723e+00 2.9249285268e+00 
61400 6.2199618211e+00 6.0588179089e-05 1.6887082723e+00 -2.9249285268e+00 1.6887082723e+00 2.9249285268e+00 
61500 6.2199618213e+00 6.0681042011e-05 1.6887082723e+00 -2.9249285268e+00 1.6887082723e+00 2.9249285268e+00 
61600 6.2199618216e+00 6.0744138648e-05 1.6887082723e+00 -2.9249285268e+00 1.6887082723e+00 2.9249285268e+00 
61700 6.2199618218e+00 6.0778837888e-05 1.6887082723e+00 -2.9249285268e+00 1.6887082723e+00 2.9249285268e+00 
61800 6.2199618221e+00 6.0786509491e-05 1.6887082723e+00 -2.9249285268e+00 1.6887082723e+00 2.9249285268e+00 
61900 6.2199618224e+00 6.0768521528e-05 1.6887082723e+00 -2.9249285268e+00 1.6887082723e+00 2.9249285268e+00 
62000 6.2199618226e+00 6.0726237901e-05 1.6887082723e+00 -2.9249285268e+00 1.6887082723e+00 2.9249285268e+00 
62100 6.2199618228e+00 6.0661015968e-05 1.6887082723e+00 -2.9249285268e+00 1.6887082723e+00 2.9249285268e+00 
62200 6.2199618231e+00 6.0574204255e-05 1.6887082723e+00 -2.9249285268e+00 1.6887082723e+00 2.9249285268e+00 
62300 6.2199618233e+00 6.0467140270e-05 1.6887082723e+00 -2.9249285268e+00 1.6887082723e+00 2.9249285268e+00 
62400 6.2199618236e+00 6.0341148413e-05 1.6887082723e+00 -2.9249285268e+00 1.6887082723e+00 2.9249285268e+00 
62500 6.2199618238e+00 6.0197537982e-05 1.6887082723e+00 -2.9249285268e+00 1.6887082723e+00 2.9249285268e+00 
62600 6.2199618240e+00 6.0037601278e-05 1.6887082723e+00 -2.9249285268e+00 1.6887082723e+00 2.9249285268e+00 
62700 6.2199618243e+00 5.9862611807e-05 1.6887082723e+00 -2.9249285268e+00 1.6887082723e+00 2.9249285268e+00 
62800 6.2199618245e+00 5.9673822589e-05 1.6887082723e+00 -2.9249285268e+00 1.6887082723e+00 2.9249285268e+00 
62900 6.2199618247e+00 5.9472464553e-05 1.6887082723e+00 -2.9249285268e+00 1.6887082723e+00 2.9249285268e+00 
63000 6.2199618249e+00 5.9259745032e-05 1.6887082723e+00 -2.9249285268e+00 1.6887082723e+00 2.9249285268e+00 
63100 6.2199618251e+00 5.9036846360e-05 1.6887082723e+00 -2.9249285268e+00 1.6887082723e+00 2.9249285268e+00 
63200 6.2199618253e+00 5.8804924567e-05 1.6887082723e+00 -2.9249285268e+00 1.6887082723e+00 2.9249285268e+00 
63300 6.2199618255e+00 5.8565108154e-05 1.6887082723e+00 -2.9249285268e+00 1.6887082723e+00 2.9249285268e+00 
63400 6.2199618257e+00 5.8318496983e-05 1.6887082723e+00 -2.9249285268e+00 1.6887082723e+00 2.9249285268e+00 
63500 6.2199618259e+00 5.8066161243e-05 1.6887082723e+00 -2.9249285268e+00 1.6887082723e+00 2.9249285268e+00 
63600 6.2199618261e+00 5.7809140518e-05 1.6887082723e+00 -2.9249285268e+00 1.6887082723e+00 2.9249285268e+00 
63700 6.2199618263e+00 5.7548442946e-05 1.6887082723e+00 -2.9249285268e+00 1.6887082723e+00 2.9249285268e+00 
63800 6.2199618265e+00 5.7285044448e-05 1.6887082723e+00 -2.9249285268e+00 1.6887082723e+00 2.9249285268e+00 
63900 6.2199618267e+00 5.7019888074e-05 1.6887082723e+00 -2.9249285268e+00 1.6887082723e+00 2.9249285268e+00 
64000 6.2199618269e+00 5.6753883410e-05 1.6887082723e+00 -2.9249285268e+00 1.6887082723e+00 2.9249285268e+00 
64100 6.2199618270e+00 5.6487906078e-05 1.6887082723e+00 -2.9249285268e+00 1.6887082723e+00 2.9249285268e+00 
64200 6.2199618272e+00 5.6222797315e-05 1.6887082723e+00 -2.9249285268e+00 1.6887082723e+00 2.9249285268e+00 
64300 6.2199618274e+00 5.5959363637e-05 1.6887082723e+00 -2.9249285268e+00 1.6887082723e+00 2.9249285268e+00 
64400 6.2199618275e+00 5.5698376566e-05 1.6887082723e+00 -2.9249285268e+00 1.6887082723e+00 2.9249285268e+00 
64500 6.2199618277e+00 5.5440572453e-05 1.6887082723e+00 -2.9249285268e+00 1.6887082723e+00 2.9249285268e+00 
64600 6.2199618279e+00 5.5186652349e-05 1.6887082723e+00 -2.9249285268e+00 1.6887082723e+00 2.9249285268e+00 
64700 6.2199618280e+00 5.4937281968e-05 1.6887082723e+00 -2.9249285268e+00 1.6887082723e+00 2.9249285268e+00 
64800 6.2199618282e+00 5.4693091703e-05 1.6887082723e+00 -2.9249285268e+00 1.6887082723e+00 2.9249285268e+00 
64900 6.2199618283e+00 5.4454676718e-05 1.6887082723e+00 -2.9249285268e+00 1.6887082723e+00 2.9249285268e+00 
65000 6.2199618285e+00 5.4222597095e-05 1.6887082723e+00 -2.9249285268e+00 1.6887082723e+00 2.9249285268e+00 
65100 6.2199618286e+00 5.3997378045e-05 1.6887082723e+00 -2.9249285268e+00 1.6887082723e+00 2.9249285268e+00 
65200 6.2199618287e+00 5.3779510178e-05 1.6887082723e+00 -2.9249285268e+00 1.6887082723e+00 2.9249285268e+00 
65300 6.2199618289e+00 5.3569449824e-05 1.6887082723e+00 -2.9249285268e+00 1.6887082723e+00 2.9249285268e+00 
65400 6.2199618290e+00 5.3367619413e-05 1.6887082723e+00 -2.9249285268e+00 1.6887082723e+00 2.9249285268e+00 
65500 6.2199618291e+00 5.3174407903e-05 1.6887082723e+00 -2.9249285268e+00 1.6887082723e+00 2.9249285268e+00 
65600 6.2199618293e+00 5.2990171252e-05 1.6887082723e+00 -2.9249285268e+00 1.6887082723e+00 2.9249285268e+00 
65700 6.2199618294e+00 5.2815232937e-05 1.6887082723e+00 -2.9249285268e+00 1.6887082723e+00 2.9249285268e+00 
65800 6.2199618295e+00 5.2649884526e-05 1.6887082723e+00 -2.9249285268e+00 1.6887082723e+00 2.9249285268e+00 
65900 6.2199618296e+00 5.2494386264e-05 1.6887082723e+00 -2.9249285268e+00 1.6887082723e+00 2.9249285268e+00 
66000 6.2199618298e+00 5.2348967730e-05 1.6887082723e+00 -2.9249285268e+00 1.6887082723e+00 2.9249285268e+00 
66100 6.2199618299e+00 5.2213828505e-05 1.6887082723e+00 -2.9249285268e+00 1.6887082723e+00 2.9249285268e+00 
66200 6.2199618300e+00 5.2089138882e-05 1.6887082723e+00 -2.9249285268e+00 1.6887082723e+00 2.9249285268e+00 
66300 6.2199618301e+00 5.1975040595e-05 1.6887082723e+00 -2.9249285268e+00 1.6887082723e+00 2.9249285268e+00 
66400 6.2199618302e+00 5.1871647603e-05 1.6887082723e+00 -2.9249285268e+00 1.6887082723e+00 2.9249285268e+00 
66500 6.2199618303e+00 5.1779046861e-05 1.6887082723e+00 -2.9249285268e+00 1.6887082723e+00 2.9249285268e+00 
66600 6.2199618304e+00 5.1697299144e-05 1.6887082723e+00 -2.9249285268e+00 1.6887082723e+00 2.9249285268e+00 
66700 6.2199618305e+00 5.1626439882e-05 1.6887082723e+00 -2.9249285268e+00 1.6887082723e+00 2.9249285268e+00 
66800 6.2199618306e+00 5.1566480004e-05 1.6887082723e+00 -2.9249285268e+00 1.6887082723e+00 2.9249285268e+00 
66900 6.2199618307e+00 5.1517406814e-05 1.6887082723e+00 -2.9249285268e+00 1.6887082723e+00 2.9249285268e+00 
67000 6.2199618308e+00 5.1479184870e-05 1.6887082723e+00 -2.9249285268e+00 1.6887082723e+00 2.9249285268e+00 
67100 6.2199618309e+00 5.1451756874e-05 1.6887082723e+00 -2.9249285268e+00 1.6887082723e+00 2.9249285268e+00 
67200 6.2199618310e+00 5.1435044585e-05 1.6887082723e+00 -2.9249285268e+00 1.6887082723e+00 2.9249285268e+00 
67300 6.2199618311e+00 5.1428949712e-05 1.6887082723e+00 -2.9249285268e+00 1.6887082723e+00 2.9249285268e+00 
67400 6.2199618312e+00 5.1433354850e-05 1.6887082723e+00 -2.9249285268e+00 1.6887082723e+00 2.9249285268e+00 
67500 6.2199618313e+00 5.1448124383e-05 1.6887082723e+00 -2.9249285268e+00 1.6887082723e+00 2.9249285268e+00 
67600 6.2199618314e+00 5.1473105418e-05 1.6887082723e+00 -2.9249285268e+00 1.6887082723e+00 2.9249285268e+00 
67700 6.2199618315e+00 5.1508128697e-05 1.6887082723e+00 -2.9249285268e+00 1.6887082723e+00 2.9249285268e+00 
67800 6.2199618316e+00 5.1553009520e-05 1.6887082723e+00 -2.9249285268e+00 1.6887082723e+00 2.9249285268e+00 
67900 6.2199618317e+00 5.1607548661e-05 1.6887082723e+00 -2.9249285268e+00 1.6887082723e+00 2.9249285268e+00 
68000 6.2199618318e+00 5.1671533278e-05 1.6887082723e+00 -2.9249285268e+00 1.6887082723e+00 2.9249285268e+00 
68100 6.2199618319e+00 5.1744737821e-05 1.6887082723e+00 -2.9249285268e+00 1.6887082723e+00 2.9249285268e+00 
68200 6.2199618320e+00 5.1826924921e-05 1.6887082723e+00 -2.9249285268e+00 1.6887082723e+00 2.9249285268e+00 
68300 6.2199618321e+00 5.1917846284e-05 1.6887082723e+00 -2.9249285268e+00 1.6887082723e+00 2.9249285268e+00 
68400 6.2199618322e+00 5.2017243564e-05 1.6887082723e+00 -2.9249285268e+00 1.6887082723e+00 2.9249285268e+00 
68500 6.2199618322e+00 5.2124849225e-05 1.6887082723e+00 -2.9249285268e+00 1.6887082723e+00 2.9249285268e+00 
68600 6.2199618323e+00 5.2240387397e-05 1.6887082723e+00 -2.9249285268e+00 1.6887082723e+00 2.9249285268e+00 
68700 6.2199618324e+00 5.2363574706e-05 1.6887082723e+00 -2.9249285268e+00 1.6887082723e+00 2.9249285268e+00 
68800 6.2199618325e+00 5.2494121098e-05 1.6887082723e+00 -2.9249285268e+00 1.6887082723e+00 2.9249285268e+00 
68900 6.2199618326e+00 5.2631730648e-05 1.6887082723e+00 -2.9249285268e+00 1.6887082723e+00 2.9249285268e+00 
69000 6.2199618326e+00 5.2776102335e-05 1.6887082723e+00 -2.9249285268e+00 1.6887082723e+00 2.9249285268e+00 
69100 6.2199618327e+00 5.2926930821e-05 1.6887082723e+00 -2.9249285268e+00 1.6887082723e+00 2.9249285268e+00 
69200 6.2199618328e+00 5.3083907201e-05 1.6887082723e+00 -2.9249285268e+00 1.6887082723e+00 2.9249285268e+00 
69300 6.2199618329e+00 5.3246719723e-05 1.6887082723e+00 -2.9249285268e+00 1.6887082723e+00 2.9249285268e+00 
69400 6.2199618330e+00 5.3415054508e-05 1.6887082723e+00 -2.9249285268e+00 1.6887082723e+00 2.9249285268e+00 
69500 6.2199618330e+00 5.3588596233e-05 1.6887082723e+00 -2.9249285268e+00 1.6887082723e+00 2.9249285268e+00 
69600 6.2199618331e+00 5.3767028796e-05 1.6887082723e+00 -2.9249285268e+00 1.6887082723e+00 2.9249285268e+00 
69700 6.2199618332e+00 5.3950035964e-05 1.6887082723e+00 -2.9249285268e+00 1.6887082723e+00 2.9249285268e+00 
69800 6.2199618333e+00 5.4137301992e-05 1.6887082723e+00 -2.9249285268e+00 1.6887082723e+00 2.9249285268e+00 
69900 6.2199618333e+00 5.4328512228e-05 1.6887082723e+00 -2.9249285268e+00 1.6887082723e+00 2.9249285268e+00 
70000 6.2199618334e+00 5.4523353675e-05 1.6887082723e+00 -2.9249285268e+00 1.6887082723e+00 2.9249285268e+00 
70100 6.2199618335e+00 5.4721515560e-05 1.6887082723e+00 -2.9249285268e+00 1.6887082723e+00 2.9249285268e+00 
70200 6.2199618335e+00 5.4922689849e-05 1.6887082723e+00 -2.9249285268e+00 1.6887082723e+00 2.9249285268e+00 
70300 6.2199618336e+00 5.5126571758e-05 1.6887082723e+00 -2.9249285268e+00 1.6887082723e+00 2.9249285268e+00 
70400 6.2199618337e+00 5.5332860230e-05 1.6887082723e+00 -2.9249285268e+00 1.6887082723e+00 2.9249285268e+00 
70500 6.2199618337e+00 5.5541258396e-05 1.6887082723e+00 -2.9249285268e+00 1.6887082723e+00 2.9249285268e+00 
70600 6.2199618338e+00 5.5751473997e-05 1.6887082723e+00 -2.9249285268e+00 1.6887082723e+00 2.9249285268e+00 
70700 6.2199618339e+00 5.5963219803e-05 1.6887082723e+00 -2.9249285268e+00 1.6887082723e+00 2.9249285268e+00 
70800 6.2199618339e+00 5.6176213996e-05 1.6887082723e+00 -2.9249285268e+00 1.6887082723e+00 2.9249285268e+00 
70900 6.2199618340e+00 5.6390180522e-05 1.6887082723e+00 -2.9249285268e+00 1.6887082723e+00 2.9249285268e+00 
71000 6.2199618341e+00 5.6604849432e-05 1.6887082723e+00 -2.9249285268e+00 1.6887082723e+00 2.9249285268e+00 
71100 6.2199618341e+00 5.6819957199e-05 1.6887082723e+00 -2.9249285268e+00 1.6887082723e+00 2.9249285268e+00 
71200 6.2199618342e+00 5.7035247000e-05 1.6887082723e+00 -2.9249285268e+00 1.6887082723e+00 2.9249285268e+00 
71300 6.2199618342e+00 5.7250468990e-05 1.6887082723e+00 -2.9249285268e+00 1.6887082723e+00 2.9249285268e+00 
71400 6.2199618343e+00 5.7465380538e-05 1.6887082723e+00 -2.9249285268e+00 1.6887082723e+00 2.9249285268e+00 
71500 6.2199618344e+00 5.7679746460e-05 1.6887082723e+00 -2.9249285268e+00 1.6887082723e+00 2.9249285268e+00 
71600 6.2199618344e+00 5.7893339210e-05 1.6887082723e+00 -2.9249285268e+00 1.6887082723e+00 2.9249285268e+00 
71700 6.2199618345e+00 5.8105939054e-05 1.6887082723e+00 -2.9249285268e+00 1.6887082723e+00 2.9249285268e+00 
71800 6.2199618345e+00 5.8317334243e-05 1.6887082723e+00 -2.9249285268e+00 1.6887082723e+00 2.9249285268e+00 
71900 6.2199618346e+00 5.8527321129e-05 1.6887082723e+00 -2.9249285268e+00 1.6887082723e+00 2.9249285268e+00 
72000 6.2199618346e+00 5.8735704299e-05 1.6887082723e+00 -2.9249285268e+00 1.6887082723e+00 2.9249285268e+00 
72100 6.2199618347e+00 5.8942296659e-05 1.6887082723e+00 -2.9249285268e+00 1.6887082723e+00 2.9249285268e+00 
72200 6.2199618347e+00 5.9146919520e-05 1.6887082723e+00 -2.9249285268e+00 1.6887082723e+00 2.9249285268e+00 
72300 6.2199618348e+00 5.9349402647e-05 1.6887082723e+00 -2.9249285268e+00 1.6887082723e+00 2.9249285268e+00 
72400 6.2199618348e+00 5.9549584305e-05 1.6887082723e+00 -2.9249285268e+00 1.6887082723e+00 2.9249285268e+00 
72500 6.2199618349e+00 5.9747311285e-05 1.6887082723e+00 -2.9249285268e+00 1.6887082723e+00 2.9249285268e+00 
72600 6.2199618349e+00 5.9942438896e-05 1.6887082723e+00 -2.9249285268e+00 1.6887082723e+00 2.9249285268e+00 
72700 6.2199618350e+00 6.0134830976e-05 1.6887082723e+00 -2.9249285268e+00 1.6887082723e+00 2.9249285268e+00 
72800 6.2199618350e+00 6.0324359840e-05 1.6887082723e+00 -2.9249285268e+00 1.6887082723e+00 2.9249285268e+00 
72900 6.2199618351e+00 6.0510906261e-05 1.6887082723e+00 -2.9249285268e+00 1.6887082723e+00 2.9249285268e+00 
73000 6.2199618351e+00 6.0694359393e-05 1.6887082723e+00 -2.9249285268e+00 1.6887082723e+00 2.9249285268e+00 
73100 6.2199618351e+00 6.0737916299e-05 1.6887082723e+00 -2.9249285268e+00 1.6887082723e+00 2.9249285268e+00 
73100 6.2199618351e+00 6.0737916299e-05 1.6887082723e+00 -2.9249285268e+00 1.6887082723e+00 2.9249285268e+00 
