# step Hamiltonian StressXX CellTensor1 CellTensor2 CellTensor3 CellTensor4 
0 5.0131048560e+00 -3.3990093725e-02 1.5325540980e+00 -2.6544615630e+00 1.5325540980e+00 2.6544615630e+00 
100 5.0117901366e+00 -3.5485058464e-02 1.5325540980e+00 -2.6544615630e+00 1.5325540980e+00 2.6544615630e+00 
200 5.0103179800e+00 -3.5775262505e-02 1.5337119534e+00 -2.6564670275e+00 1.5337119534e+00 2.6564670275e+00 
300 5.0087530531e+00 -3.6009448384e-02 1.5348783978e+00 -2.6584873684e+00 1.5348783978e+00 2.6584873684e+00 
400 5.0071084420e+00 -3.6183256622e-02 1.5360515862e+00 -2.6605193904e+00 1.5360515862e+00 2.6605193904e+00 
500 5.0053971971e+00 -3.6293010061e-02 1.5372295375e+00 -2.6625596618e+00 1.5372295375e+00 2.6625596618e+00 
600 5.0036321758e+00 -3.6335675573e-02 1.5384101566e+00 -2.6646045541e+00 1.5384101566e+00 2.6646045541e+00 
700 5.0018259047e+00 -3.6308829252e-02 1.5395912564e+00 -2.6666502790e+00 1.5395912564e+00 2.6666502790e+00 
800 4.9999904587e+00 -3.6210624241e-02 1.5407705779e+00 -2.6686929238e+00 1.5407705779e+00 2.6686929238e+00 
900 4.9981373579e+00 -3.6039760527e-02 1.5419458088e+00 -2.6707284834e+00 1.5419458088e+00 2.6707284834e+00 
1000 4.9962774819e+00 -3.5795456160e-02 1.5431146018e+00 -2.6727528922e+00 1.5431146018e+00 2.6727528922e+00 
1100 4.9944210006e+00 -3.5477419483e-02 1.5442745914e+00 -2.6747620531e+00 1.5442745914e+00 2.6747620531e+00 
1200 4.9925773208e+00 -3.5085822026e-02 1.5454234096e+00 -2.6767518646e+00 1.5454234096e+00 2.6767518646e+00 
1300 4.9907550478e+00 -3.4621271849e-02 1.5465587008e+00 -2.6787182467e+00 1.5465587008e+00 2.6787182467e+00 
1400 4.9889619601e+00 -3.4084787107e-02 1.5476781360e+00 -2.6806571654e+00 1.5476781360e+00 2.6806571654e+00 
1500 4.9872049978e+00 -3.3477769743e-02 1.5487794253e+00 -2.6825646543e+00 1.5487794253e+00 2.6825646543e+00 
1600 4.9854902611e+00 -3.2801979200e-02 1.5498603300e+00 -2.6844368362e+00 1.5498603300e+00 2.6844368362e+00 
1700 4.9838230205e+00 -3.2059506115e-02 1.5509186741e+00 -2.6862699419e+00 1.5509186741e+00 2.6862699419e+00 
1800 4.9822077350e+00 -3.1252745961e-02 1.5519523538e+00 -2.6880603278e+00 1.5519523538e+00 2.6880603278e+00 
1900 4.9806480781e+00 -3.0384372654e-02 1.5529593475e+00 -2.6898044919e+00 1.5529593475e+00 2.6898044919e+00 
2000 4.9791469719e+00 -2.9457312150e-02 1.5539377234e+00 -2.6914990887e+00 1.5539377234e+00 2.6914990887e+00 
2100 4.9777066248e+00 -2.8474716059e-02 1.5548856477e+00 -2.6931409417e+00 1.5548856477e+00 2.6931409417e+00 
2200 4.9763285751e+00 -2.7439935351e-02 1.5558013905e+00 -2.6947270549e+00 1.5558013905e+00 2.6947270549e+00 
2300 4.9750137382e+00 -2.6356494213e-02 1.5566833323e+00 -2.6962546229e+00 1.5566833323e+00 2.6962546229e+00 
2400 4.9737624550e+00 -2.5228064125e-02 1.5575299683e+00 -2.6977210394e+00 1.5575299683e+00 2.6977210394e+00 
2500 4.9725745438e+00 -2.4058438262e-02 1.5583399126e+00 -2.6991239040e+00 1.5583399126e+00 2.6991239040e+00 
2600 4.9714493516e+00 -2.2851506283e-02 1.5591119015e+00 -2.7004610281e+00 1.5591119015e+00 2.7004610281e+00 
2700 4.9703858068e+00 -2.1611229634e-02 1.5598447962e+00 -2.7017304389e+00 1.5598447962e+00 2.7017304389e+00 
2800 4.9693824704e+00 -2.0341617436e-02 1.5605375840e+00 -2.7029303825e+00 1.5605375840e+00 2.7029303825e+00 
2900 4.9684375868e+00 -1.9046703075e-02 1.5611893796e+00 -2.7040593257e+00 1.5611893796e+00 2.7040593257e+00 
3000 4.9675491328e+00 -1.7730521590e-02 1.5617994255e+00 -2.7051159562e+00 1.5617994255e+00 2.7051159562e+00 
3100 4.9667148648e+00 -1.6397087960e-02 1.5623670911e+00 -2.7060991818e+00 1.5623670911e+00 2.7060991818e+00 
3200 4.9659323632e+00 -1.5050376387e-02 1.5628918719e+00 -2.7070081288e+00 1.5628918719e+00 2.7070081288e+00 
3300 4.9651990748e+00 -1.3694300667e-02 1.5633733879e+00 -2.7078421390e+00 1.5633733879e+00 2.7078421390e+00 
3400 4.9645123518e+00 -1.2332695748e-02 1.5638113811e+00 -2.7086007656e+00 1.5638113811e+00 2.7086007656e+00 
3500 4.9638694876e+00 -1.0969300536e-02 1.5642057130e+00 -2.7092837685e+00 1.5642057130e+00 2.7092837685e+00 
3600 4.9632677504e+00 -9.6077420497e-03 1.5645563610e+00 -2.7098911085e+00 1.5645563610e+00 2.7098911085e+00 
3700 4.9627044122e+00 -8.2515209609e-03 1.5648634147e+00 -2.7104229411e+00 1.5648634147e+00 2.7104229411e+00 
3800 4.9621767756e+00 -6.9039985914e-03 1.5651270719e+00 -2.7108796089e+00 1.5651270719e+00 2.7108796089e+00 
3900 4.9616821971e+00 -5.5683853972e-03 1.5653476343e+00 -2.7112616340e+00 1.5653476343e+00 2.7112616340e+00 
4000 4.9612181064e+00 -4.2477309691e-03 1.5655255018e+00 -2.7115697097e+00 1.5655255018e+00 2.7115697097e+00 
4100 4.9607820243e+00 -2.9449155622e-03 1.5656611685e+00 -2.7118046912e+00 1.5656611685e+00 2.7118046912e+00 
4200 4.9603715760e+00 -1.6626431528e-03 1.5657552164e+00 -2.7119675871e+00 1.5657552164e+00 2.7119675871e+00 
4300 4.9599845024e+00 -4.0343600624e-04 1.5658083107e+00 -2.7120595490e+00 1.5658083107e+00 2.7120595490e+00 
4400 4.9596186691e+00 8.3036927491e-04 1.5658211934e+00 -2.7120818625e+00 1.5658211934e+00 2.7120818625e+00 
4500 4.9592720719e+00 2.0366242655e-03 1.5657946780e+00 -2.7120359365e+00 1.5657946780e+00 2.7120359365e+00 
4600 4.9589428416e+00 3.2133698537e-03 1.5657296436e+00 -2.7119232937e+00 1.5657296436e+00 2.7119232937e+00 
4700 4.9586292450e+00 4.3588360660e-03 1.5656270290e+00 -2.7117455599e+00 1.5656270290e+00 2.7117455599e+00 
4800 4.9583296857e+00 5.4714406612e-03 1.5654878269e+00 -2.7115044548e+00 1.5654878269e+00 2.7115044548e+00 
4900 4.9580427024e+00 6.5497865820e-03 1.5653130782e+00 -2.7112017812e+00 1.5653130782e+00 2.7112017812e+00 
5000 4.9577669662e+00 7.5926583591e-03 1.5651038664e+00 -2.7108394157e+00 1.5651038664e+00 2.7108394157e+00 
5100 4.9575012763e+00 8.5990175708e-03 1.5648613118e+00 -2.7104192988e+00 1.5648613118e+00 2.7104192988e+00 
5200 4.9572445555e+00 9.5679974612e-03 1.5645865665e+00 -2.7099434260e+00 1.5645865665e+00 2.7099434260e+00 
5300 4.9569958439e+00 1.0498896826e-02 1.5642808089e+00 -2.7094138382e+00 1.5642808089e+00 2.7094138382e+00 
5400 4.9567542929e+00 1.1391173273e-02 1.5639452386e+00 -2.7088326136e+00 1.5639452386e+00 2.7088326136e+00 
5500 4.9565191584e+00 1.2244435961e-02 1.5635810721e+00 -2.7082018586e+00 1.5635810721e+00 2.7082018586e+00 
5600 4.9562897932e+00 1.3058437923e-02 1.5631895374e+00 -2.7075237006e+00 1.5631895374e+00 2.7075237006e+00 
5700 4.9560656402e+00 1.3833068076e-02 1.5627718703e+00 -2.7068002800e+00 1.5627718703e+00 2.7068002800e+00 
5800 4.9558462248e+00 1.4568342998e-02 1.5623293100e+00 -2.7060337431e+00 1.5623293100e+00 2.7060337431e+00 
5900 4.9556311474e+00 1.5264398581e-02 1.5618630953e+00 -2.7052262355e+00 1.5618630953e+00 2.7052262355e+00 
6000 4.9554200763e+00 1.5921481618e-02 1.5613744609e+00 -2.7043798958e+00 1.5613744609e+00 2.7043798958e+00 
6100 4.9552127409e+00 1.6539941414e-02 1.5608646339e+00 -2.7034968497e+00 1.5608646339e+00 2.7034968497e+00 
6200 4.9550089245e+00 1.7120221482e-02 1.5603348312e+00 -2.7025792045e+00 1.5603348312e+00 2.7025792045e+00 
6300 4.9548084584e+00 1.7662851375e-02 1.5597862561e+00 -2.7016290445e+00 1.5597862561e+00 2.7016290445e+00 
6400 4.9546112151e+00 1.8168438717e-02 1.5592200958e+00 -2.7006484261e+00 1.5592200958e+00 2.7006484261e+00 
6500 4.9544171035e+00 1.8637661461e-02 1.5586375190e+00 -2.6996393736e+00 1.5586375190e+00 2.6996393736e+00 
6600 4.9542260626e+00 1.9071260424e-02 1.5580396742e+00 -2.6986038758e+00 1.5580396742e+00 2.6986038758e+00 
6700 4.9540380575e+00 1.9470032116e-02 1.5574276868e+00 -2.6975438827e+00 1.5574276868e+00 2.6975438827e+00 
6800 4.9538530741e+00 1.9834821890e-02 1.5568026585e+00 -2.6964613018e+00 1.5568026585e+00 2.6964613018e+00 
6900 4.9536711157e+00 2.0166517430e-02 1.5561656648e+00 -2.6953579964e+00 1.5561656648e+00 2.6953579964e+00 
7000 4.9534921988e+00 2.0466042582e-02 1.5555177544e+00 -2.6942357827e+00 1.5555177544e+00 2.6942357827e+00 
7100 4.9533163499e+00 2.0734351546e-02 1.5548599477e+00 -2.6930964281e+00 1.5548599477e+00 2.6930964281e+00 
7200 4.9531436028e+00 2.0972423416e-02 1.5541932360e+00 -2.6919416495e+00 1.5541932360e+00 2.6919416495e+00 
7300 4.9529739957e+00 2.1181257080e-02 1.5535185803e+00 -2.6907731116e+00 1.5535185803e+00 2.6907731116e+00 
7400 4.9528075692e+00 2.1361866465e-02 1.5528369114e+00 -2.6895924263e+00 1.5528369114e+00 2.6895924263e+00 
7500 4.9526443642e+00 2.1515276126e-02 1.5521491286e+00 -2.6884011517e+00 1.5521491286e+00 2.6884011517e+00 
7600 4.9524844203e+00 2.1642517174e-02 1.5514561000e+00 -2.6872007910e+00 1.5514561000e+00 2.6872007910e+00 
7700 4.9523277744e+00 2.1744623511e-02 1.5507586618e+00 -2.6859927926e+00 1.5507586618e+00 2.6859927926e+00 
7800 4.9521744595e+00 2.1822628393e-02 1.5500576184e+00 -2.6847785497e+00 1.5500576184e+00 2.6847785497e+00 
7900 4.9520245040e+00 2.1877561276e-02 1.5493537421e+00 -2.6835594002e+00 1.5493537421e+00 2.6835594002e+00 
8000 4.9518779309e+00 2.1910444954e-02 1.5486477736e+00 -2.6823366269e+00 1.5486477736e+00 2.6823366269e+00 
8100 4.9517347571e+00 2.1922292958e-02 1.5479404218e+00 -2.6811114576e+00 1.5479404218e+00 2.6811114576e+00 
8200 4.9515949931e+00 2.1914107217e-02 1.5472323641e+00 -2.6798850658e+00 1.5472323641e+00 2.6798850658e+00 
8300 4.9514586431e+00 2.1886875951e-02 1.5465242470e+00 -2.6786585709e+00 1.5465242470e+00 2.6786585709e+00 
8400 4.9513257043e+00 2.1841571800e-02 1.5458166860e+00 -2.6774330393e+00 1.5458166860e+00 2.6774330393e+00 
8500 4.9511961674e+00 2.1779150151e-02 1.5451102663e+00 -2.6762094845e+00 1.5451102663e+00 2.6762094845e+00 
8600 4.9510700167e+00 2.1700547679e-02 1.5444055433e+00 -2.6749888685e+00 1.5444055433e+00 2.6749888685e+00 
8700 4.9509472298e+00 2.1606681056e-02 1.5437030432e+00 -2.6737721026e+00 1.5437030432e+00 2.6737721026e+00 
8800 4.9508277785e+00 2.1498445848e-02 1.5430032633e+00 -2.6725600482e+00 1.5430032633e+00 2.6725600482e+00 
8900 4.9507116284e+00 2.1376715559e-02 1.5423066728e+00 -2.6713535181e+00 1.5423066728e+00 2.6713535181e+00 
9000 4.9505987399e+00 2.1242340835e-02 1.5416137135e+00 -2.6701532775e+00 1.5416137135e+00 2.6701532775e+00 
9100 4.9504890682e+00 2.1096148793e-02 1.5409248004e+00 -2.6689600450e+00 1.5409248004e+00 2.6689600450e+00 
9200 4.9503825637e+00 2.0938942489e-02 1.5402403223e+00 -2.6677744941e+00 1.5402403223e+00 2.6677744941e+00 
9300 4.9502791726e+00 2.0771500495e-02 1.5395606426e+00 -2.6665972543e+00 1.5395606426e+00 2.6665972543e+00 
9400 4.9501788371e+00 2.0594576584e-02 1.5388861000e+00 -2.6654289123e+00 1.5388861000e+00 2.6654289123e+00 
9500 4.9500814961e+00 2.0408899521e-02 1.5382170095e+00 -2.6642700135e+00 1.5382170095e+00 2.6642700135e+00 
9600 4.9499870854e+00 2.0215172934e-02 1.5375536625e+00 -2.6631210628e+00 1.5375536625e+00 2.6631210628e+00 
9700 4.9498955382e+00 2.0014075276e-02 1.5368963283e+00 -2.6619825266e+00 1.5368963283e+00 2.6619825266e+00 
9800 4.9498067855e+00 1.9806259858e-02 1.5362452544e+00 -2.6608548336e+00 1.5362452544e+00 2.6608548336e+00 
9900 4.9497207565e+00 1.9592354955e-02 1.5356006674e+00 -2.6597383761e+00 1.5356006674e+00 2.6597383761e+00 
10000 4.9496373791e+00 1.9372963967e-02 1.5349627738e+00 -2.6586335120e+00 1.5349627738e+00 2.6586335120e+00 
10100 4.9495565800e+00 1.9148665646e-02 1.5343317606e+00 -2.6575405650e+00 1.5343317606e+00 2.6575405650e+00 
10200 4.9494782854e+00 1.8920014364e-02 1.5337077962e+00 -2.6564598270e+00 1.5337077962e+00 2.6564598270e+00 
10300 4.9494024209e+00 1.8687540431e-02 1.5330910312e+00 -2.6553915587e+00 1.5330910312e+00 2.6553915587e+00 
10400 4.9493289123e+00 1.8451750458e-02 1.5324815990e+00 -2.6543359911e+00 1.5324815990e+00 2.6543359911e+00 
10500 4.9492576854e+00 1.8213127747e-02 1.5318796165e+00 -2.6532933268e+00 1.5318796165e+00 2.6532933268e+00 
10600 4.9491886666e+00 1.7972132721e-02 1.5312851850e+00 -2.6522637413e+00 1.5312851850e+00 2.6522637413e+00 
10700 4.9491217830e+00 1.7729203376e-02 1.5306983908e+00 -2.6512473840e+00 1.5306983908e+00 2.6512473840e+00 
10800 4.9490569625e+00 1.7484755762e-02 1.5301193060e+00 -2.6502443796e+00 1.5301193060e+00 2.6502443796e+00 
10900 4.9489941344e+00 1.7239184482e-02 1.5295479889e+00 -2.6492548293e+00 1.5295479889e+00 2.6492548293e+00 
11000 4.9489332290e+00 1.6992863213e-02 1.5289844850e+00 -2.6482788119e+00 1.5289844850e+00 2.6482788119e+00 
11100 4.9488741782e+00 1.6746145235e-02 1.5284288275e+00 -2.6473163849e+00 1.5284288275e+00 2.6473163849e+00 
11200 4.9488169154e+00 1.6499363979e-02 1.5278810380e+00 -2.6463675857e+00 1.5278810380e+00 2.6463675857e+00 
11300 4.9487613757e+00 1.6252833584e-02 1.5273411271e+00 -2.6454324326e+00 1.5273411271e+00 2.6454324326e+00 
11400 4.9487074961e+00 1.6006849456e-02 1.5268090950e+00 -2.6445109261e+00 1.5268090950e+00 2.6445109261e+00 
11500 4.9486552152e+00 1.5761688841e-02 1.5262849321e+00 -2.6436030493e+00 1.5262849321e+00 2.6436030493e+00 
11600 4.9486044736e+00 1.5517611395e-02 1.5257686196e+00 -2.6427087698e+00 1.5257686196e+00 2.6427087698e+00 
11700 4.9485552140e+00 1.5274859758e-02 1.5252601301e+00 -2.6418280400e+00 1.5252601301e+00 2.6418280400e+00 
11800 4.9485073810e+00 1.5033660128e-02 1.5247594278e+00 -2.6409607983e+00 1.5247594278e+00 2.6409607983e+00 
11900 4.9484609210e+00 1.4794222836e-02 1.5242664697e+00 -2.6401069698e+00 1.5242664697e+00 2.6401069698e+00 
12000 4.9484157827e+00 1.4556742915e-02 1.5237812056e+00 -2.6392664677e+00 1.5237812056e+00 2.6392664677e+00 
12100 4.9483719167e+00 1.4321400665e-02 1.5233035785e+00 -2.6384391933e+00 1.5233035785e+00 2.6384391933e+00 
12200 4.9483292755e+00 1.4088362216e-02 1.5228335257e+00 -2.6376250379e+00 1.5228335257e+00 2.6376250379e+00 
12300 4.9482878136e+00 1.3857780085e-02 1.5223709784e+00 -2.6368238826e+00 1.5223709784e+00 2.6368238826e+00 
12400 4.9482474875e+00 1.3629793720e-02 1.5219158630e+00 -2.6360355996e+00 1.5219158630e+00 2.6360355996e+00 
12500 4.9482082556e+00 1.3404530043e-02 1.5214681009e+00 -2.6352600529e+00 1.5214681009e+00 2.6352600529e+00 
12600 4.9481700780e+00 1.3182103985e-02 1.5210276092e+00 -2.6344970988e+00 1.5210276092e+00 2.6344970988e+00 
12700 4.9481329167e+00 1.2962619001e-02 1.5205943009e+00 -2.6337465868e+00 1.5205943009e+00 2.6337465868e+00 
12800 4.9480967355e+00 1.2746167593e-02 1.5201680855e+00 -2.6330083601e+00 1.5201680855e+00 2.6330083601e+00 
12900 4.9480614999e+00 1.2532831803e-02 1.5197488693e+00 -2.6322822564e+00 1.5197488693e+00 2.6322822564e+00 
13000 4.9480271769e+00 1.2322683713e-02 1.5193365556e+00 -2.6315681081e+00 1.5193365556e+00 2.6315681081e+00 
13100 4.9479937352e+00 1.2115785920e-02 1.5189310452e+00 -2.6308657435e+00 1.5189310452e+00 2.6308657435e+00 
13200 4.9479611449e+00 1.1912192012e-02 1.5185322366e+00 -2.6301749868e+00 1.5185322366e+00 2.6301749868e+00 
13300 4.9479293777e+00 1.1711947019e-02 1.5181400263e+00 -2.6294956586e+00 1.5181400263e+00 2.6294956586e+00 
13400 4.9478984065e+00 1.1515087861e-02 1.5177543093e+00 -2.6288275770e+00 1.5177543093e+00 2.6288275770e+00 
13500 4.9478682057e+00 1.1321643786e-02 1.5173749788e+00 -2.6281705575e+00 1.5173749788e+00 2.6281705575e+00 
13600 4.9478387508e+00 1.1131636786e-02 1.5170019273e+00 -2.6275244133e+00 1.5170019273e+00 2.6275244133e+00 
13700 4.9478100186e+00 1.0945082009e-02 1.5166350462e+00 -2.6268889565e+00 1.5166350462e+00 2.6268889565e+00 
13800 4.9477819871e+00 1.0761988154e-02 1.5162742261e+00 -2.6262639978e+00 1.5162742261e+00 2.6262639978e+00 
13900 4.9477546351e+00 1.0582357860e-02 1.5159193573e+00 -2.6256493470e+00 1.5159193573e+00 2.6256493470e+00 
14000 4.9477279426e+00 1.0406188070e-02 1.5155703298e+00 -2.6250448136e+00 1.5155703298e+00 2.6250448136e+00 
14100 4.9477018906e+00 1.0233470399e-02 1.5152270334e+00 -2.6244502069e+00 1.5152270334e+00 2.6244502069e+00 
14200 4.9476764609e+00 1.0064191475e-02 1.5148893583e+00 -2.6238653364e+00 1.5148893583e+00 2.6238653364e+00 
14300 4.9476516361e+00 9.8983332768e-03 1.5145571946e+00 -2.6232900121e+00 1.5145571946e+00 2.6232900121e+00 
14400 4.9476273996e+00 9.7358734570e-03 1.5142304332e+00 -2.6227240447e+00 1.5142304332e+00 2.6227240447e+00 
14500 4.9476037358e+00 9.5767856518e-03 1.5139089653e+00 -2.6221672460e+00 1.5139089653e+00 2.6221672460e+00 
14600 4.9475806294e+00 9.4210397806e-03 1.5135926830e+00 -2.6216194290e+00 1.5135926830e+00 2.6216194290e+00 
14700 4.9475580660e+00 9.2686023330e-03 1.5132814792e+00 -2.6210804081e+00 1.5132814792e+00 2.6210804081e+00 
14800 4.9475360318e+00 9.1194366446e-03 1.5129752477e+00 -2.6205499996e+00 1.5129752477e+00 2.6205499996e+00 
14900 4.9475145133e+00 8.9735031613e-03 1.5126738834e+00 -2.6200280214e+00 1.5126738834e+00 2.6200280214e+00 
15000 4.9474934979e+00 8.8307596925e-03 1.5123772825e+00 -2.6195142935e+00 1.5123772825e+00 2.6195142935e+00 
15100 4.9474729733e+00 8.6911616535e-03 1.5120853422e+00 -2.6190086381e+00 1.5120853422e+00 2.6190086381e+00 
15200 4.9474529276e+00 8.5546622968e-03 1.5117979614e+00 -2.6185108800e+00 1.5117979614e+00 2.6185108800e+00 
15300 4.9474333495e+00 8.4212129334e-03 1.5115150402e+00 -2.6180208460e+00 1.5115150402e+00 2.6180208460e+00 
15400 4.9474142279e+00 8.2907631432e-03 1.5112364801e+00 -2.6175383658e+00 1.5112364801e+00 2.6175383658e+00 
15500 4.9473955522e+00 8.1632609760e-03 1.5109621845e+00 -2.6170632718e+00 1.5109621845e+00 2.6170632718e+00 
15600 4.9473773121e+00 8.0386531422e-03 1.5106920580e+00 -2.6165953990e+00 1.5106920580e+00 2.6165953990e+00 
15700 4.9473594976e+00 7.9168851945e-03 1.5104260072e+00 -2.6161345855e+00 1.5104260072e+00 2.6161345855e+00 
15800 4.9473420991e+00 7.7979016997e-03 1.5101639402e+00 -2.6156806721e+00 1.5101639402e+00 2.6156806721e+00 
15900 4.9473251072e+00 7.6816464018e-03 1.5099057669e+00 -2.6152335029e+00 1.5099057669e+00 2.6152335029e+00 
16000 4.9473085126e+00 7.5680623765e-03 1.5096513990e+00 -2.6147929248e+00 1.5096513990e+00 2.6147929248e+00 
16100 4.9472923066e+00 7.4570921768e-03 1.5094007500e+00 -2.6143587880e+00 1.5094007500e+00 2.6143587880e+00 
16200 4.9472764805e+00 7.3486779707e-03 1.5091537351e+00 -2.6139309457e+00 1.5091537351e+00 2.6139309457e+00 
16300 4.9472610258e+00 7.2427616704e-03 1.5089102715e+00 -2.6135092543e+00 1.5089102715e+00 2.6135092543e+00 
16400 4.9472459343e+00 7.1392850542e-03 1.5086702781e+00 -2.6130935736e+00 1.5086702781e+00 2.6130935736e+00 
16500 4.9472311979e+00 7.0381898809e-03 1.5084336758e+00 -2.6126837663e+00 1.5084336758e+00 2.6126837663e+00 
16600 4.9472168087e+00 6.9394179967e-03 1.5082003872e+00 -2.6122796985e+00 1.5082003872e+00 2.6122796985e+00 
16700 4.9472027591e+00 6.8429114353e-03 1.5079703368e+00 -2.6118812396e+00 1.5079703368e+00 2.6118812396e+00 
16800 4.9471890414e+00 6.7486125113e-03 1.5077434510e+00 -2.6114882619e+00 1.5077434510e+00 2.6114882619e+00 
16900 4.9471756484e+00 6.6564639068e-03 1.5075196581e+00 -2.6111006413e+00 1.5075196581e+00 2.6111006413e+00 
17000 4.9471625728e+00 6.5664087522e-03 1.5072988881e+00 -2.6107182565e+00 1.5072988881e+00 2.6107182565e+00 
17100 4.9471498074e+00 6.4783907007e-03 1.5070810730e+00 -2.6103409896e+00 1.5070810730e+00 2.6103409896e+00 
17200 4.9471373453e+00 6.3923539973e-03 1.5068661464e+00 -2.6099687257e+00 1.5068661464e+00 2.6099687257e+00 
17300 4.9471251798e+00 6.3082435419e-03 1.5066540438e+00 -2.6096013533e+00 1.5066540438e+00 2.6096013533e+00 
17400 4.9471133041e+00 6.2260049475e-03 1.5064447025e+00 -2.6092387636e+00 1.5064447025e+00 2.6092387636e+00 
17500 4.9471017116e+00 6.1455845929e-03 1.5062380616e+00 -2.6088808510e+00 1.5062380616e+00 2.6088808510e+00 
17600 4.9470903959e+00 6.0669296711e-03 1.5060340618e+00 -2.6085275129e+00 1.5060340618e+00 2.6085275129e+00 
17700 4.9470793507e+00 5.9899882326e-03 1.5058326455e+00 -2.6081786498e+00 1.5058326455e+00 2.6081786498e+00 
17800 4.9470685698e+00 5.9147092245e-03 1.5056337570e+00 -2.6078341648e+00 1.5056337570e+00 2.6078341648e+00 
17900 4.9470580471e+00 5.8410425252e-03 1.5054373420e+00 -2.6074939640e+00 1.5054373420e+00 2.6074939640e+00 
18000 4.9470477766e+00 5.7689389754e-03 1.5052433480e+00 -2.6071579565e+00 1.5052433480e+00 2.6071579565e+00 
18100 4.9470377525e+00 5.6983504050e-03 1.5050517240e+00 -2.6068260539e+00 1.5050517240e+00 2.6068260539e+00 
18200 4.9470279689e+00 5.6292296565e-03 1.5048624205e+00 -2.6064981707e+00 1.5048624205e+00 2.6064981707e+00 
18300 4.9470184204e+00 5.5615306050e-03 1.5046753897e+00 -2.6061742238e+00 1.5046753897e+00 2.6061742238e+00 
18400 4.9470091013e+00 5.4952081748e-03 1.5044905851e+00 -2.6058541329e+00 1.5044905851e+00 2.6058541329e+00 
18500 4.9470000062e+00 5.4302183531e-03 1.5043079619e+00 -2.6055378203e+00 1.5043079619e+00 2.6055378203e+00 
18600 4.9469911297e+00 5.3665182006e-03 1.5041274766e+00 -2.6052252106e+00 1.5041274766e+00 2.6052252106e+00 
18700 4.9469824668e+00 5.3040658597e-03 1.5039490871e+00 -2.6049162308e+00 1.5039490871e+00 2.6049162308e+00 
18800 4.9469740122e+00 5.2428205594e-03 1.5037727526e+00 -2.6046108105e+00 1.5037727526e+00 2.6046108105e+00 
18900 4.9469657610e+00 5.1827426189e-03 1.5035984337e+00 -2.6043088814e+00 1.5035984337e+00 2.6043088814e+00 
19000 4.9469577083e+00 5.1237934478e-03 1.5034260924e+00 -2.6040103774e+00 1.5034260924e+00 2.6040103774e+00 
19100 4.9469498492e+00 5.0659355449e-03 1.5032556917e+00 -2.6037152348e+00 1.5032556917e+00 2.6037152348e+00 
19200 4.9469421791e+00 5.0091324946e-03 1.5030871960e+00 -2.6034233918e+00 1.5030871960e+00 2.6034233918e+00 
19300 4.9469346933e+00 4.9533489616e-03 1.5029205710e+00 -2.6031347887e+00 1.5029205710e+00 2.6031347887e+00 
19400 4.9469273874e+00 4.8985506840e-03 1.5027557832e+00 -2.6028493679e+00 1.5027557832e+00 2.6028493679e+00 
19500 4.9469202569e+00 4.8447044648e-03 1.5025928006e+00 -2.6025670737e+00 1.5025928006e+00 2.6025670737e+00 
19600 4.9469132976e+00 4.7917781613e-03 1.5024315920e+00 -2.6022878522e+00 1.5024315920e+00 2.6022878522e+00 
19700 4.9469065053e+00 4.7397406741e-03 1.5022721274e+00 -2.6020116514e+00 1.5022721274e+00 2.6020116514e+00 
19800 4.9468998757e+00 4.6885619342e-03 1.5021143777e+00 -2.6017384210e+00 1.5021143777e+00 2.6017384210e+00 
19900 4.9468934050e+00 4.6382128889e-03 1.5019583150e+00 -2.6014681125e+00 1.5019583150e+00 2.6014681125e+00 
20000 4.9468870891e+00 4.5886654875e-03 1.5018039121e+00 -2.6012006788e+00 1.5018039121e+00 2.6012006788e+00 
20100 4.9468809242e+00 4.5398926643e-03 1.5016511429e+00 -2.6009360748e+00 1.5016511429e+00 2.6009360748e+00 
20200 4.9468749067e+00 4.4918683232e-03 1.5014999821e+00 -2.6006742566e+00 1.5014999821e+00 2.6006742566e+00 
20300 4.9468690328e+00 4.4445673189e-03 1.5013504052e+00 -2.6004151818e+00 1.5013504052e+00 2.6004151818e+00 
20400 4.9468632989e+00 4.3979654395e-03 1.5012023887e+00 -2.6001588096e+00 1.5012023887e+00 2.6001588096e+00 
20500 4.9468577016e+00 4.3520393874e-03 1.5010559096e+00 -2.5999051005e+00 1.5010559096e+00 2.5999051005e+00 
20600 4.9468522375e+00 4.3067667599e-03 1.5009109460e+00 -2.5996540162e+00 1.5009109460e+00 2.5996540162e+00 
20700 4.9468469033e+00 4.2621260293e-03 1.5007674766e+00 -2.5994055198e+00 1.5007674766e+00 2.5994055198e+00 
20800 4.9468416957e+00 4.2180965229e-03 1.5006254806e+00 -2.5991595755e+00 1.5006254806e+00 2.5991595755e+00 
20900 4.9468366115e+00 4.1746584022e-03 1.5004849382e+00 -2.5989161489e+00 1.5004849382e+00 2.5989161489e+00 
21000 4.9468316478e+00 4.1317926421e-03 1.5003458300e+00 -2.5986752065e+00 1.5003458300e+00 2.5986752065e+00 
21100 4.9468268014e+00 4.0894810100e-03 1.5002081374e+00 -2.5984367160e+00 1.5002081374e+00 2.5984367160e+00 
21200 4.9468220696e+00 4.0477060446e-03 1.5000718424e+00 -2.5982006460e+00 1.5000718424e+00 2.5982006460e+00 
21300 4.9468174494e+00 4.0064510342e-03 1.4999369273e+00 -2.5979669663e+00 1.4999369273e+00 2.5979669663e+00 
21400 4.9468129380e+00 3.9656999958e-03 1.4998033753e+00 -2.5977356474e+00 1.4998033753e+00 2.5977356474e+00 
21500 4.9468085328e+00 3.9254376537e-03 1.4996711699e+00 -2.5975066610e+00 1.4996711699e+00 2.5975066610e+00 
21600 4.9468042311e+00 3.8856494176e-03 1.4995402952e+00 -2.5972799794e+00 1.4995402952e+00 2.5972799794e+00 
21700 4.9468000304e+00 3.8463213620e-03 1.4994107358e+00 -2.5970555757e+00 1.4994107358e+00 2.5970555757e+00 
21800 4.9467959281e+00 3.8074402045e-03 1.4992824765e+00 -2.5968334242e+00 1.4992824765e+00 2.5968334242e+00 
21900 4.9467919219e+00 3.7689932851e-03 1.4991555029e+00 -2.5966134994e+00 1.4991555029e+00 2.5966134994e+00 
22000 4.9467880093e+00 3.7309685450e-03 1.4990298007e+00 -2.5963957769e+00 1.4990298007e+00 2.5963957769e+00 
22100 4.9467841881e+00 3.6933545064e-03 1.4989053564e+00 -2.5961802329e+00 1.4989053564e+00 2.5961802329e+00 
22200 4.9467804560e+00 3.6561402513e-03 1.4987821563e+00 -2.5959668442e+00 1.4987821563e+00 2.5959668442e+00 
22300 4.9467768108e+00 3.6193154022e-03 1.4986601876e+00 -2.5957555882e+00 1.4986601876e+00 2.5957555882e+00 
22400 4.9467732504e+00 3.5828701015e-03 1.4985394375e+00 -2.5955464429e+00 1.4985394375e+00 2.5955464429e+00 
22500 4.9467697727e+00 3.5467949920e-03 1.4984198937e+00 -2.5953393870e+00 1.4984198937e+00 2.5953393870e+00 
22600 4.9467663757e+00 3.5110811979e-03 1.4983015441e+00 -2.5951343994e+00 1.4983015441e+00 2.5951343994e+00 
22700 4.9467630574e+00 3.4757203055e-03 1.4981843769e+00 -2.5949314599e+00 1.4981843769e+00 2.5949314599e+00 
22800 4.9467598159e+00 3.4407043445e-03 1.4980683807e+00 -2.5947305485e+00 1.4980683807e+00 2.5947305485e+00 
22900 4.9467566494e+00 3.4060257701e-03 1.4979535441e+00 -2.5945316457e+00 1.4979535441e+00 2.5945316457e+00 
23000 4.9467535560e+00 3.3716774448e-03 1.4978398562e+00 -2.5943347326e+00 1.4978398562e+00 2.5943347326e+00 
23100 4.9467505339e+00 3.3376526209e-03 1.4977273063e+00 -2.5941397904e+00 1.4977273063e+00 2.5941397904e+00 
23200 4.9467475815e+00 3.3039449233e-03 1.4976158838e+00 -2.5939468009e+00 1.4976158838e+00 2.5939468009e+00 
23300 4.9467446970e+00 3.2705483333e-03 1.4975055783e+00 -2.5937557463e+00 1.4975055783e+00 2.5937557463e+00 
23400 4.9467418789e+00 3.2374571714e-03 1.4973963798e+00 -2.5935666088e+00 1.4973963798e+00 2.5935666088e+00 
23500 4.9467391255e+00 3.2046660821e-03 1.4972882782e+00 -2.5933793714e+00 1.4972882782e+00 2.5933793714e+00 
23600 4.9467364352e+00 3.1721700180e-03 1.4971812638e+00 -2.5931940170e+00 1.4971812638e+00 2.5931940170e+00 
23700 4.9467338067e+00 3.1399642251e-03 1.4970753270e+00 -2.5930105291e+00 1.4970753270e+00 2.5930105291e+00 
23800 4.9467312383e+00 3.1080442278e-03 1.4969704583e+00 -2.5928288911e+00 1.4969704583e+00 2.5928288911e+00 
23900 4.9467287287e+00 3.0764058148e-03 1.4968666483e+00 -2.5926490870e+00 1.4968666483e+00 2.5926490870e+00 
24000 4.9467262764e+00 3.0450450253e-03 1.4967638880e+00 -2.5924711009e+00 1.4967638880e+00 2.5924711009e+00 
24100 4.9467238802e+00 3.0139581356e-03 1.4966621682e+00 -2.5922949170e+00 1.4966621682e+00 2.5922949170e+00 
24200 4.9467215386e+00 2.9831416462e-03 1.4965614800e+00 -2.5921205200e+00 1.4965614800e+00 2.5921205200e+00 
24300 4.9467192505e+00 2.9525922692e-03 1.4964618145e+00 -2.5919478944e+00 1.4964618145e+00 2.5919478944e+00 
24400 4.9467170144e+00 2.9223069161e-03 1.4963631632e+00 -2.5917770252e+00 1.4963631632e+00 2.5917770252e+00 
24500 4.9467148293e+00 2.8922826864e-03 1.4962655173e+00 -2.5916078975e+00 1.4962655173e+00 2.5916078975e+00 
24600 4.9467126938e+00 2.8625168560e-03 1.4961688683e+00 -2.5914404965e+00 1.4961688683e+00 2.5914404965e+00 
24700 4.9467106069e+00 2.8330068661e-03 1.4960732077e+00 -2.5912748076e+00 1.4960732077e+00 2.5912748076e+00 
24800 4.9467085674e+00 2.8037503135e-03 1.4959785273e+00 -2.5911108163e+00 1.4959785273e+00 2.5911108163e+00 
24900 4.9467065742e+00 2.7747449398e-03 1.4958848187e+00 -2.5909485083e+00 1.4958848187e+00 2.5909485083e+00 
25000 4.9467046262e+00 2.7459886218e-03 1.4957920737e+00 -2.5907878692e+00 1.4957920737e+00 2.5907878692e+00 
25100 4.9467027224e+00 2.7174793624e-03 1.4957002842e+00 -2.5906288851e+00 1.4957002842e+00 2.5906288851e+00 
25200 4.9467008617e+00 2.6892152815e-03 1.4956094421e+00 -2.5904715420e+00 1.4956094421e+00 2.5904715420e+00 
25300 4.9466990431e+00 2.6611946078e-03 1.4955195393e+00 -2.5903158258e+00 1.4955195393e+00 2.5903158258e+00 
25400 4.9466972657e+00 2.6334156697e-03 1.4954305680e+00 -2.5901617229e+00 1.4954305680e+00 2.5901617229e+00 
25500 4.9466955284e+00 2.6058768886e-03 1.4953425201e+00 -2.5900092195e+00 1.4953425201e+00 2.5900092195e+00 
25600 4.9466938304e+00 2.5785767705e-03 1.4952553878e+00 -2.5898583020e+00 1.4952553878e+00 2.5898583020e+00 
25700 4.9466921708e+00 2.5515138994e-03 1.4951691633e+00 -2.5897089568e+00 1.4951691633e+00 2.5897089568e+00 
25800 4.9466905486e+00 2.5246869299e-03 1.4950838389e+00 -2.5895611705e+00 1.4950838389e+00 2.5895611705e+00 
25900 4.9466889631e+00 2.4980945815e-03 1.4949994067e+00 -2.5894149298e+00 1.4949994067e+00 2.5894149298e+00 
26000 4.9466874132e+00 2.4717356318e-03 1.4949158592e+00 -2.5892702211e+00 1.4949158592e+00 2.5892702211e+00 
26100 4.9466858984e+00 2.4456089107e-03 1.4948331885e+00 -2.5891270314e+00 1.4948331885e+00 2.5891270314e+00 
26200 4.9466844176e+00 2.4197132951e-03 1.4947513872e+00 -2.5889853473e+00 1.4947513872e+00 2.5889853473e+00 
26300 4.9466829702e+00 2.3940477034e-03 1.4946704476e+00 -2.5888451558e+00 1.4946704476e+00 2.5888451558e+00 
26400 4.9466815554e+00 2.3686110907e-03 1.4945903622e+00 -2.5887064438e+00 1.4945903622e+00 2.5887064438e+00 
26500 4.9466801725e+00 2.3434024438e-03 1.4945111234e+00 -2.5885691982e+00 1.4945111234e+00 2.5885691982e+00 
26600 4.9466788206e+00 2.3184207771e-03 1.4944327238e+00 -2.5884334061e+00 1.4944327238e+00 2.5884334061e+00 
26700 4.9466774991e+00 2.2936651281e-03 1.4943551559e+00 -2.5882990545e+00 1.4943551559e+00 2.5882990545e+00 
26800 4.9466762073e+00 2.2691345538e-03 1.4942784122e+00 -2.5881661306e+00 1.4942784122e+00 2.5881661306e+00 
26900 4.9466749446e+00 2.2448281267e-03 1.4942024854e+00 -2.5880346216e+00 1.4942024854e+00 2.5880346216e+00 
27000 4.9466737102e+00 2.2207449314e-03 1.4941273681e+00 -2.5879045146e+00 1.4941273681e+00 2.5879045146e+00 
27100 4.9466725035e+00 2.1968840617e-03 1.4940530530e+00 -2.5877757969e+00 1.4940530530e+00 2.5877757969e+00 
27200 4.9466713238e+00 2.1732446171e-03 1.4939795326e+00 -2.5876484560e+00 1.4939795326e+00 2.5876484560e+00 
27300 4.9466701707e+00 2.1498257003e-03 1.4939067998e+00 -2.5875224790e+00 1.4939067998e+00 2.5875224790e+00 
27400 4.9466690434e+00 2.1266264147e-03 1.4938348472e+00 -2.5873978535e+00 1.4938348472e+00 2.5873978535e+00 
27500 4.9466679413e+00 2.1036458618e-03 1.4937636677e+00 -2.5872745669e+00 1.4937636677e+00 2.5872745669e+00 
27600 4.9466668640e+00 2.0808831388e-03 1.4936932540e+00 -2.5871526068e+00 1.4936932540e+00 2.5871526068e+00 
27700 4.9466658108e+00 2.0583373372e-03 1.4936235989e+00 -2.5870319606e+00 1.4936235989e+00 2.5870319606e+00 
27800 4.9466647811e+00 2.0360075404e-03 1.4935546952e+00 -2.5869126160e+00 1.4935546952e+00 2.5869126160e+00 
27900 4.9466637746e+00 2.0138928221e-03 1.4934865360e+00 -2.5867945607e+00 1.4934865360e+00 2.5867945607e+00 
28000 4.9466627905e+00 1.9919922449e-03 1.4934191139e+00 -2.5866777824e+00 1.4934191139e+00 2.5866777824e+00 
28100 4.9466618284e+00 1.9703048589e-03 1.4933524221e+00 -2.5865622687e+00 1.4933524221e+00 2.5865622687e+00 
28200 4.9466608879e+00 1.9488297004e-03 1.4932864534e+00 -2.5864480076e+00 1.4932864534e+00 2.5864480076e+00 
28300 4.9466599684e+00 1.9275657908e-03 1.4932212008e+00 -2.5863349868e+00 1.4932212008e+00 2.5863349868e+00 
28400 4.9466590694e+00 1.9065121358e-03 1.4931566574e+00 -2.5862231943e+00 1.4931566574e+00 2.5862231943e+00 
28500 4.9466581906e+00 1.8856677242e-03 1.4930928162e+00 -2.5861126181e+00 1.4930928162e+00 2.5861126181e+00 
28600 4.9466573313e+00 1.8650315277e-03 1.4930296703e+00 -2.5860032462e+00 1.4930296703e+00 2.5860032462e+00 
28700 4.9466564912e+00 1.8446024996e-03 1.4929672128e+00 -2.5858950666e+00 1.4929672128e+00 2.5858950666e+00 
28800 4.9466556699e+00 1.8243795751e-03 1.4929054368e+00 -2.5857880675e+00 1.4929054368e+00 2.5857880675e+00 
28900 4.9466548670e+00 1.8043616702e-03 1.4928443356e+00 -2.5856822370e+00 1.4928443356e+00 2.5856822370e+00 
29000 4.9466540819e+00 1.7845476819e-03 1.4927839023e+00 -2.5855775635e+00 1.4927839023e+00 2.5855775635e+00 
29100 4.9466533143e+00 1.7649364876e-03 1.4927241302e+00 -2.5854740353e+00 1.4927241302e+00 2.5854740353e+00 
29200 4.9466525639e+00 1.7455269452e-03 1.4926650127e+00 -2.5853716406e+00 1.4926650127e+00 2.5853716406e+00 
29300 4.9466518302e+00 1.7263178930e-03 1.4926065429e+00 -2.5852703680e+00 1.4926065429e+00 2.5852703680e+00 
29400 4.9466511128e+00 1.7073081497e-03 1.4925487143e+00 -2.5851702059e+00 1.4925487143e+00 2.5851702059e+00 
29500 4.9466504114e+00 1.6884965145e-03 1.4924915203e+00 -2.5850711430e+00 1.4924915203e+00 2.5850711430e+00 
29600 4.9466497257e+00 1.6698817674e-03 1.4924349543e+00 -2.5849731678e+00 1.4924349543e+00 2.5849731678e+00 
29700 4.9466490552e+00 1.6514626691e-03 1.4923790097e+00 -2.5848762690e+00 1.4923790097e+00 2.5848762690e+00 
29800 4.9466483996e+00 1.6332379616e-03 1.4923236802e+00 -2.5847804355e+00 1.4923236802e+00 2.5847804355e+00 
29900 4.9466477586e+00 1.6152063683e-03 1.4922689592e+00 -2.5846856560e+00 1.4922689592e+00 2.5846856560e+00 
30000 4.9466471319e+00 1.5973665945e-03 1.4922148404e+00 -2.5845919194e+00 1.4922148404e+00 2.5845919194e+00 
30100 4.9466465191e+00 1.5797173278e-03 1.4921613174e+00 -2.5844992148e+00 1.4921613174e+00 2.5844992148e+00 
30200 4.9466459200e+00 1.5622572387e-03 1.4921083838e+00 -2.5844075312e+00 1.4921083838e+00 2.5844075312e+00 
30300 4.9466453342e+00 1.5449849808e-03 1.4920560335e+00 -2.5843168577e+00 1.4920560335e+00 2.5843168577e+00 
30400 4.9466447614e+00 1.5278991915e-03 1.4920042601e+00 -2.5842271836e+00 1.4920042601e+00 2.5842271836e+00 
30500 4.9466442013e+00 1.5109984927e-03 1.4919530575e+00 -2.5841384981e+00 1.4919530575e+00 2.5841384981e+00 
30600 4.9466436537e+00 1.4942814910e-03 1.4919024195e+00 -2.5840507905e+00 1.4919024195e+00 2.5840507905e+00 
30700 4.9466431182e+00 1.4777467790e-03 1.4918523400e+00 -2.5839640503e+00 1.4918523400e+00 2.5839640503e+00 
30800 4.9466425946e+00 1.4613929351e-03 1.4918028131e+00 -2.5838782671e+00 1.4918028131e+00 2.5838782671e+00 
30900 4.9466420827e+00 1.4452185248e-03 1.4917538326e+00 -2.5837934304e+00 1.4917538326e+00 2.5837934304e+00 
31000 4.9466415821e+00 1.4292221010e-03 1.4917053926e+00 -2.5837095299e+00 1.4917053926e+00 2.5837095299e+00 
31100 4.9466410927e+00 1.4134022051e-03 1.4916574872e+00 -2.5836265553e+00 1.4916574872e+00 2.5836265553e+00 
31200 4.9466406140e+00 1.3977573673e-03 1.4916101105e+00 -2.5835444965e+00 1.4916101105e+00 2.5835444965e+00 
31300 4.9466401461e+00 1.3822861073e-03 1.4915632568e+00 -2.5834633435e+00 1.4915632568e+00 2.5834633435e+00 
31400 4.9466396884e+00 1.3669869354e-03 1.4915169202e+00 -2.5833830862e+00 1.4915169202e+00 2.5833830862e+00 
31500 4.9466392410e+00 1.3518583528e-03 1.4914710951e+00 -2.5833037147e+00 1.4914710951e+00 2.5833037147e+00 
31600 4.9466388034e+00 1.3368988528e-03 1.4914257757e+00 -2.5832252192e+00 1.4914257757e+00 2.5832252192e+00 
31700 4.9466383756e+00 1.3221069210e-03 1.4913809564e+00 -2.5831475899e+00 1.4913809564e+00 2.5831475899e+00 
31800 4.9466379573e+00 1.3074810363e-03 1.4913366317e+00 -2.5830708173e+00 1.4913366317e+00 2.5830708173e+00 
31900 4.9466375482e+00 1.2930196718e-03 1.4912927960e+00 -2.5829948917e+00 1.4912927960e+00 2.5829948917e+00 
32000 4.9466371482e+00 1.2787212950e-03 1.4912494439e+00 -2.5829198037e+00 1.4912494439e+00 2.5829198037e+00 
32100 4.9466367570e+00 1.2645843691e-03 1.4912065700e+00 -2.5828455438e+00 1.4912065700e+00 2.5828455438e+00 
32200 4.9466363745e+00 1.2506073534e-03 1.4911641688e+00 -2.5827721028e+00 1.4911641688e+00 2.5827721028e+00 
32300 4.9466360005e+00 1.2367887040e-03 1.4911222351e+00 -2.5826994714e+00 1.4911222351e+00 2.5826994714e+00 
32400 4.9466356347e+00 1.2231268747e-03 1.4910807635e+00 -2.5826276406e+00 1.4910807635e+00 2.5826276406e+00 
32500 4.9466352771e+00 1.2096203173e-03 1.4910397489e+00 -2.5825566013e+00 1.4910397489e+00 2.5825566013e+00 
32600 4.9466349274e+00 1.1962674826e-03 1.4909991861e+00 -2.5824863444e+00 1.4909991861e+00 2.5824863444e+00 
32700 4.9466345854e+00 1.1830668213e-03 1.4909590700e+00 -2.5824168613e+00 1.4909590700e+00 2.5824168613e+00 
32800 4.9466342510e+00 1.1700167838e-03 1.4909193955e+00 -2.5823481430e+00 1.4909193955e+00 2.5823481430e+00 
32900 4.9466339240e+00 1.1571158219e-03 1.4908801576e+00 -2.5822801809e+00 1.4908801576e+00 2.5822801809e+00 
33000 4.9466336042e+00 1.1443623885e-03 1.4908413513e+00 -2.5822129664e+00 1.4908413513e+00 2.5822129664e+00 
33100 4.9466332915e+00 1.1317549390e-03 1.4908029717e+00 -2.5821464911e+00 1.4908029717e+00 2.5821464911e+00 
33200 4.9466329857e+00 1.1192919311e-03 1.4907650140e+00 -2.5820807463e+00 1.4907650140e+00 2.5820807463e+00 
33300 4.9466326867e+00 1.1069718261e-03 1.4907274733e+00 -2.5820157239e+00 1.4907274733e+00 2.5820157239e+00 
33400 4.9466323943e+00 1.0947930892e-03 1.4906903448e+00 -2.5819514156e+00 1.4906903448e+00 2.5819514156e+00 
33500 4.9466321083e+00 1.0827541898e-03 1.4906536240e+00 -2.5818878132e+00 1.4906536240e+00 2.5818878132e+00 
33600 4.9466318287e+00 1.0708536024e-03 1.4906173060e+00 -2.5818249087e+00 1.4906173060e+00 2.5818249087e+00 
33700 4.9466315553e+00 1.0590898071e-03 1.4905813864e+00 -2.5817626940e+00 1.4905813864e+00 2.5817626940e+00 
33800 4.9466312879e+00 1.0474612898e-03 1.4905458604e+00 -2.5817011613e+00 1.4905458604e+00 2.5817011613e+00 
33900 4.9466310264e+00 1.0359665430e-03 1.4905107237e+00 -2.5816403027e+00 1.4905107237e+00 2.5816403027e+00 
34000 4.9466307707e+00 1.0246040659e-03 1.4904759718e+00 -2.5815801106e+00 1.4904759718e+00 2.5815801106e+00 
34100 4.9466305206e+00 1.0133723655e-03 1.4904416002e+00 -2.5815205773e+00 1.4904416002e+00 2.5815205773e+00 
34200 4.9466302761e+00 1.0022699562e-03 1.4904076047e+00 -2.5814616953e+00 1.4904076047e+00 2.5814616953e+00 
34300 4.9466300370e+00 9.9129536105e-04 1.4903739808e+00 -2.5814034570e+00 1.4903739808e+00 2.5814034570e+00 
34400 4.9466298032e+00 9.8044711144e-04 1.4903407243e+00 -2.5813458551e+00 1.4903407243e+00 2.5813458551e+00 
34500 4.9466295745e+00 9.6972374793e-04 1.4903078310e+00 -2.5812888822e+00 1.4903078310e+00 2.5812888822e+00 
34600 4.9466293509e+00 9.5912382044e-04 1.4902752968e+00 -2.5812325313e+00 1.4902752968e+00 2.5812325313e+00 
34700 4.9466291322e+00 9.4864588866e-04 1.4902431175e+00 -2.5811767951e+00 1.4902431175e+00 2.5811767951e+00 
34800 4.9466289183e+00 9.3828852233e-04 1.4902112890e+00 -2.5811216666e+00 1.4902112890e+00 2.5811216666e+00 
34900 4.9466287092e+00 9.2805030160e-04 1.4901798074e+00 -2.5810671389e+00 1.4901798074e+00 2.5810671389e+00 
35000 4.9466285047e+00 9.1792981730e-04 1.4901486687e+00 -2.5810132050e+00 1.4901486687e+00 2.5810132050e+00 
35100 4.9466283048e+00 9.0792567125e-04 1.4901178688e+00 -2.5809598581e+00 1.4901178688e+00 2.5809598581e+00 
35200 4.9466281092e+00 8.9803647647e-04 1.4900874040e+00 -2.5809070915e+00 1.4900874040e+00 2.5809070915e+00 
35300 4.9466279179e+00 8.8826085752e-04 1.4900572705e+00 -2.5808548986e+00 1.4900572705e+00 2.5808548986e+00 
35400 4.9466277309e+00 8.7859745065e-04 1.4900274643e+00 -2.5808032728e+00 1.4900274643e+00 2.5808032728e+00 
35500 4.9466275480e+00 8.6904490405e-04 1.4899979818e+00 -2.5807522076e+00 1.4899979818e+00 2.5807522076e+00 
35600 4.9466273692e+00 8.5960187806e-04 1.4899688193e+00 -2.5807016967e+00 1.4899688193e+00 2.5807016967e+00 
35700 4.9466271943e+00 8.5026704537e-04 1.4899399731e+00 -2.5806517336e+00 1.4899399731e+00 2.5806517336e+00 
35800 4.9466270233e+00 8.4103909114e-04 1.4899114396e+00 -2.5806023121e+00 1.4899114396e+00 2.5806023121e+00 
35900 4.9466268560e+00 8.3191671323e-04 1.4898832152e+00 -2.5805534260e+00 1.4898832152e+00 2.5805534260e+00 
36000 4.9466266925e+00 8.2289862229e-04 1.4898552964e+00 -2.5805050693e+00 1.4898552964e+00 2.5805050693e+00 
36100 4.9466265325e+00 8.1398354193e-04 1.4898276798e+00 -2.5804572359e+00 1.4898276798e+00 2.5804572359e+00 
36200 4.9466263761e+00 8.0517020880e-04 1.4898003618e+00 -2.5804099198e+00 1.4898003618e+00 2.5804099198e+00 
36300 4.9466262231e+00 7.9645737274e-04 1.4897733391e+00 -2.5803631151e+00 1.4897733391e+00 2.5803631151e+00 
36400 4.9466260736e+00 7.8784379685e-04 1.4897466084e+00 -2.5803168161e+00 1.4897466084e+00 2.5803168161e+00 
36500 4.9466259273e+00 7.7932825754e-04 1.4897201663e+00 -2.5802710170e+00 1.4897201663e+00 2.5802710170e+00 
36600 4.9466257842e+00 7.7090954466e-04 1.4896940095e+00 -2.5802257121e+00 1.4896940095e+00 2.5802257121e+00 
36700 4.9466256444e+00 7.6258646153e-04 1.4896681348e+00 -2.5801808958e+00 1.4896681348e+00 2.5801808958e+00 
36800 4.9466255076e+00 7.5435782496e-04 1.4896425390e+00 -2.5801365627e+00 1.4896425390e+00 2.5801365627e+00 
36900 4.9466253738e+00 7.4622246533e-04 1.4896172190e+00 -2.5800927071e+00 1.4896172190e+00 2.5800927071e+00 
37000 4.9466252430e+00 7.3817922657e-04 1.4895921716e+00 -2.5800493237e+00 1.4895921716e+00 2.5800493237e+00 
37100 4.9466251151e+00 7.3022696621e-04 1.4895673938e+00 -2.5800064073e+00 1.4895673938e+00 2.5800064073e+00 
37200 4.9466249900e+00 7.2236455539e-04 1.4895428825e+00 -2.5799639525e+00 1.4895428825e+00 2.5799639525e+00 
37300 4.9466248676e+00 7.1459087880e-04 1.4895186347e+00 -2.5799219540e+00 1.4895186347e+00 2.5799219540e+00 
37400 4.9466247480e+00 7.0690483473e-04 1.4894946474e+00 -2.5798804069e+00 1.4894946474e+00 2.5798804069e+00 
37500 4.9466246310e+00 6.9930533501e-04 1.4894709178e+00 -2.5798393060e+00 1.4894709178e+00 2.5798393060e+00 
37600 4.9466245166e+00 6.9179130501e-04 1.4894474429e+00 -2.5797986463e+00 1.4894474429e+00 2.5797986463e+00 
37700 4.9466244047e+00 6.8436168355e-04 1.4894242199e+00 -2.5797584228e+00 1.4894242199e+00 2.5797584228e+00 
37800 4.9466242953e+00 6.7701542292e-04 1.4894012459e+00 -2.5797186307e+00 1.4894012459e+00 2.5797186307e+00 
37900 4.9466241884e+00 6.6975148877e-04 1.4893785182e+00 -2.5796792652e+00 1.4893785182e+00 2.5796792652e+00 
38000 4.9466240838e+00 6.6256886007e-04 1.4893560340e+00 -2.5796403214e+00 1.4893560340e+00 2.5796403214e+00 
38100 4.9466239815e+00 6.5546652906e-04 1.4893337906e+00 -2.5796017947e+00 1.4893337906e+00 2.5796017947e+00 
38200 4.9466238814e+00 6.4844350115e-04 1.4893117853e+00 -2.5795636804e+00 1.4893117853e+00 2.5795636804e+00 
38300 4.9466237836e+00 6.4149879485e-04 1.4892900154e+00 -2.5795259739e+00 1.4892900154e+00 2.5795259739e+00 
38400 4.9466236879e+00 6.3463144170e-04 1.4892684784e+00 -2.5794886707e+00 1.4892684784e+00 2.5794886707e+00 
38500 4.9466235944e+00 6.2784048615e-04 1.4892471716e+00 -2.5794517663e+00 1.4892471716e+00 2.5794517663e+00 
38600 4.9466235029e+00 6.2112498549e-04 1.4892260925e+00 -2.5794152562e+00 1.4892260925e+00 2.5794152562e+00 
38700 4.9466234134e+00 6.1448400973e-04 1.4892052386e+00 -2.5793791362e+00 1.4892052386e+00 2.5793791362e+00 
38800 4.9466233260e+00 6.0791664151e-04 1.4891846074e+00 -2.5793434019e+00 1.4891846074e+00 2.5793434019e+00 
38900 4.9466232404e+00 6.0142197600e-04 1.4891641964e+00 -2.5793080490e+00 1.4891641964e+00 2.5793080490e+00 
39000 4.9466231568e+00 5.9499912075e-04 1.4891440032e+00 -2.5792730733e+00 1.4891440032e+00 2.5792730733e+00 
39100 4.9466230750e+00 5.8864719560e-04 1.4891240253e+00 -2.5792384707e+00 1.4891240253e+00 2.5792384707e+00 
39200 4.9466229950e+00 5.8236533257e-04 1.4891042605e+00 -2.5792042369e+00 1.4891042605e+00 2.5792042369e+00 
39300 4.9466229168e+00 5.7615267572e-04 1.4890847063e+00 -2.5791703681e+00 1.4890847063e+00 2.5791703681e+00 
39400 4.9466228403e+00 5.7000838100e-04 1.4890653605e+00 -2.5791368602e+00 1.4890653605e+00 2.5791368602e+00 
39500 4.9466227655e+00 5.6393161620e-04 1.4890462207e+00 -2.5791037091e+00 1.4890462207e+00 2.5791037091e+00 
39600 4.9466226924e+00 5.5792156070e-04 1.4890272848e+00 -2.5790709111e+00 1.4890272848e+00 2.5790709111e+00 
39700 4.9466226209e+00 5.5197740547e-04 1.4890085504e+00 -2.5790384622e+00 1.4890085504e+00 2.5790384622e+00 
39800 4.9466225510e+00 5.4609835283e-04 1.4889900154e+00 -2.5790063586e+00 1.4889900154e+00 2.5790063586e+00 
39900 4.9466224826e+00 5.4028361636e-04 1.4889716775e+00 -2.5789745965e+00 1.4889716775e+00 2.5789745965e+00 
40000 4.9466224157e+00 5.3453242074e-04 1.4889535347e+00 -2.5789431722e+00 1.4889535347e+00 2.5789431722e+00 
40100 4.9466223503e+00 5.2884400165e-04 1.4889355848e+00 -2.5789120821e+00 1.4889355848e+00 2.5789120821e+00 
40200 4.9466222864e+00 5.2321760559e-04 1.4889178257e+00 -2.5788813224e+00 1.4889178257e+00 2.5788813224e+00 
40300 4.9466222239e+00 5.1765248973e-04 1.4889002554e+00 -2.5788508897e+00 1.4889002554e+00 2.5788508897e+00 
40400 4.9466221628e+00 5.1214792181e-04 1.4888828717e+00 -2.5788207802e+00 1.4888828717e+00 2.5788207802e+00 
40500 4.9466221030e+00 5.0670317997e-04 1.4888656726e+00 -2.5787909906e+00 1.4888656726e+00 2.5787909906e+00 
40600 4.9466220445e+00 5.0131755260e-04 1.4888486562e+00 -2.5787615174e+00 1.4888486562e+00 2.5787615174e+00 
40700 4.9466219874e+00 4.9599033821e-04 1.4888318205e+00 -2.5787323571e+00 1.4888318205e+00 2.5787323571e+00 
40800 4.9466219315e+00 4.9072084527e-04 1.4888151635e+00 -2.5787035063e+00 1.4888151635e+00 2.5787035063e+00 
40900 4.9466218769e+00 4.8550839210e-04 1.4887986833e+00 -2.5786749617e+00 1.4887986833e+00 2.5786749617e+00 
41000 4.9466218234e+00 4.8035230668e-04 1.4887823780e+00 -2.5786467201e+00 1.4887823780e+00 2.5786467201e+00 
41100 4.9466217712e+00 4.7525192652e-04 1.4887662456e+00 -2.5786187780e+00 1.4887662456e+00 2.5786187780e+00 
41200 4.9466217201e+00 4.7020659855e-04 1.4887502844e+00 -2.5785911323e+00 1.4887502844e+00 2.5785911323e+00 
41300 4.9466216701e+00 4.6521567892e-04 1.4887344924e+00 -2.5785637798e+00 1.4887344924e+00 2.5785637798e+00 
41400 4.9466216213e+00 4.6027853291e-04 1.4887188679e+00 -2.5785367174e+00 1.4887188679e+00 2.5785367174e+00 
41500 4.9466215736e+00 4.5539453474e-04 1.4887034091e+00 -2.5785099419e+00 1.4887034091e+00 2.5785099419e+00 
41600 4.9466215269e+00 4.5056306749e-04 1.4886881141e+00 -2.5784834502e+00 1.4886881141e+00 2.5784834502e+00 
41700 4.9466214812e+00 4.4578352288e-04 1.4886729812e+00 -2.5784572393e+00 1.4886729812e+00 2.5784572393e+00 
41800 4.9466214366e+00 4.4105530120e-04 1.4886580087e+00 -2.5784313062e+00 1.4886580087e+00 2.5784313062e+00 
41900 4.9466213929e+00 4.3637781114e-04 1.4886431949e+00 -2.5784056479e+00 1.4886431949e+00 2.5784056479e+00 
42000 4.9466213502e+00 4.3175046965e-04 1.4886285380e+00 -2.5783802614e+00 1.4886285380e+00 2.5783802614e+00 
42100 4.9466213085e+00 4.2717270182e-04 1.4886140364e+00 -2.5783551439e+00 1.4886140364e+00 2.5783551439e+00 
42200 4.9466212677e+00 4.2264394074e-04 1.4885996884e+00 -2.5783302925e+00 1.4885996884e+00 2.5783302925e+00 
42300 4.9466212278e+00 4.1816362734e-04 1.4885854924e+00 -2.5783057043e+00 1.4885854924e+00 2.5783057043e+00 
42400 4.9466211888e+00 4.1373121032e-04 1.4885714468e+00 -2.5782813765e+00 1.4885714468e+00 2.5782813765e+00 
42500 4.9466211507e+00 4.0934614593e-04 1.4885575499e+00 -2.5782573064e+00 1.4885575499e+00 2.5782573064e+00 
42600 4.9466211134e+00 4.0500789795e-04 1.4885438002e+00 -2.5782334912e+00 1.4885438002e+00 2.5782334912e+00 
42700 4.9466210769e+00 4.0071593746e-04 1.4885301960e+00 -2.5782099281e+00 1.4885301960e+00 2.5782099281e+00 
42800 4.9466210413e+00 3.9646974278e-04 1.4885167359e+00 -2.5781866145e+00 1.4885167359e+00 2.5781866145e+00 
42900 4.9466210064e+00 3.9226879931e-04 1.4885034183e+00 -2.5781635478e+00 1.4885034183e+00 2.5781635478e+00 
43000 4.9466209723e+00 3.8811259943e-04 1.4884902417e+00 -2.5781407252e+00 1.4884902417e+00 2.5781407252e+00 
43100 4.9466209390e+00 3.8400064239e-04 1.4884772046e+00 -2.5781181443e+00 1.4884772046e+00 2.5781181443e+00 
43200 4.9466209065e+00 3.7993243412e-04 1.4884643055e+00 -2.5780958024e+00 1.4884643055e+00 2.5780958024e+00 
43300 4.9466208746e+00 3.7590748723e-04 1.4884515430e+00 -2.5780736970e+00 1.4884515430e+00 2.5780736970e+00 
43400 4.9466208435e+00 3.7192532078e-04 1.4884389155e+00 -2.5780518257e+00 1.4884389155e+00 2.5780518257e+00 
43500 4.9466208130e+00 3.6798546024e-04 1.4884264217e+00 -2.5780301858e+00 1.4884264217e+00 2.5780301858e+00 
43600 4.9466207833e+00 3.6408743734e-04 1.4884140602e+00 -2.5780087750e+00 1.4884140602e+00 2.5780087750e+00 
43700 4.9466207542e+00 3.6023078997e-04 1.4884018295e+00 -2.5779875908e+00 1.4884018295e+00 2.5779875908e+00 
43800 4.9466207257e+00 3.5641506211e-04 1.4883897283e+00 -2.5779666308e+00 1.4883897283e+00 2.5779666308e+00 
43900 4.9466206979e+00 3.5263980364e-04 1.4883777551e+00 -2.5779458927e+00 1.4883777551e+00 2.5779458927e+00 
44000 4.9466206707e+00 3.4890457032e-04 1.4883659087e+00 -2.5779253740e+00 1.4883659087e+00 2.5779253740e+00 
44100 4.9466206442e+00 3.4520892363e-04 1.4883541876e+00 -2.5779050726e+00 1.4883541876e+00 2.5779050726e+00 
44200 4.9466206182e+00 3.4155243071e-04 1.4883425906e+00 -2.5778849860e+00 1.4883425906e+00 2.5778849860e+00 
44300 4.9466205928e+00 3.3793466422e-04 1.4883311164e+00 -2.5778651121e+00 1.4883311164e+00 2.5778651121e+00 
44400 4.9466205679e+00 3.3435520229e-04 1.4883197636e+00 -2.5778454485e+00 1.4883197636e+00 2.5778454485e+00 
44500 4.9466205436e+00 3.3081362838e-04 1.4883085310e+00 -2.5778259930e+00 1.4883085310e+00 2.5778259930e+00 
44600 4.9466205199e+00 3.2730953121e-04 1.4882974172e+00 -2.5778067434e+00 1.4882974172e+00 2.5778067434e+00 
44700 4.9466204967e+00 3.2384250466e-04 1.4882864211e+00 -2.5777876976e+00 1.4882864211e+00 2.5777876976e+00 
44800 4.9466204740e+00 3.2041214771e-04 1.4882755414e+00 -2.5777688534e+00 1.4882755414e+00 2.5777688534e+00 
44900 4.9466204518e+00 3.1701806428e-04 1.4882647769e+00 -2.5777502087e+00 1.4882647769e+00 2.5777502087e+00 
45000 4.9466204301e+00 3.1365986324e-04 1.4882541263e+00 -2.5777317614e+00 1.4882541263e+00 2.5777317614e+00 
45100 4.9466204090e+00 3.1033715823e-04 1.4882435885e+00 -2.5777135093e+00 1.4882435885e+00 2.5777135093e+00 
45200 4.9466203882e+00 3.0704956767e-04 1.4882331622e+00 -2.5776954505e+00 1.4882331622e+00 2.5776954505e+00 
45300 4.9466203680e+00 3.0379671458e-04 1.4882228463e+00 -2.5776775828e+00 1.4882228463e+00 2.5776775828e+00 
45400 4.9466203482e+00 3.0057822660e-04 1.4882126396e+00 -2.5776599043e+00 1.4882126396e+00 2.5776599043e+00 
45500 4.9466203288e+00 2.9739373583e-04 1.4882025410e+00 -2.5776424130e+00 1.4882025410e+00 2.5776424130e+00 
45600 4.9466203099e+00 2.9424287881e-04 1.4881925493e+00 -2.5776251069e+00 1.4881925493e+00 2.5776251069e+00 
45700 4.9466202914e+00 2.9112529642e-04 1.4881826634e+00 -2.5776079840e+00 1.4881826634e+00 2.5776079840e+00 
45800 4.9466202733e+00 2.8804063380e-04 1.4881728822e+00 -2.5775910424e+00 1.4881728822e+00 2.5775910424e+00 
45900 4.9466202557e+00 2.8498854030e-04 1.4881632045e+00 -2.5775742802e+00 1.4881632045e+00 2.5775742802e+00 
46000 4.9466202384e+00 2.8196866940e-04 1.4881536294e+00 -2.5775576956e+00 1.4881536294e+00 2.5775576956e+00 
46100 4.9466202215e+00 2.7898067866e-04 1.4881441556e+00 -2.5775412865e+00 1.4881441556e+00 2.5775412865e+00 
46200 4.9466202050e+00 2.7602422960e-04 1.4881347822e+00 -2.5775250513e+00 1.4881347822e+00 2.5775250513e+00 
46300 4.9466201889e+00 2.7309898770e-04 1.4881255080e+00 -2.5775089879e+00 1.4881255080e+00 2.5775089879e+00 
46400 4.9466201731e+00 2.7020462231e-04 1.4881163321e+00 -2.5774930948e+00 1.4881163321e+00 2.5774930948e+00 
46500 4.9466201577e+00 2.6734080657e-04 1.4881072534e+00 -2.5774773699e+00 1.4881072534e+00 2.5774773699e+00 
46600 4.9466201426e+00 2.6450721737e-04 1.4880982708e+00 -2.5774618117e+00 1.4880982708e+00 2.5774618117e+00 
46700 4.9466201279e+00 2.6170353530e-04 1.4880893834e+00 -2.5774464182e+00 1.4880893834e+00 2.5774464182e+00 
46800 4.9466201135e+00 2.5892944455e-04 1.4880805901e+00 -2.5774311878e+00 1.4880805901e+00 2.5774311878e+00 
46900 4.9466200994e+00 2.5618463293e-04 1.4880718900e+00 -2.5774161188e+00 1.4880718900e+00 2.5774161188e+00 
47000 4.9466200856e+00 2.5346879171e-04 1.4880632821e+00 -2.5774012094e+00 1.4880632821e+00 2.5774012094e+00 
47100 4.9466200722e+00 2.5078161567e-04 1.4880547653e+00 -2.5773864580e+00 1.4880547653e+00 2.5773864580e+00 
47200 4.9466200591e+00 2.4812280298e-04 1.4880463389e+00 -2.5773718629e+00 1.4880463389e+00 2.5773718629e+00 
47300 4.9466200462e+00 2.4549205516e-04 1.4880380017e+00 -2.5773574225e+00 1.4880380017e+00 2.5773574225e+00 
47400 4.9466200337e+00 2.4288907706e-04 1.4880297528e+00 -2.5773431351e+00 1.4880297528e+00 2.5773431351e+00 
47500 4.9466200214e+00 2.4031357678e-04 1.4880215914e+00 -2.5773289991e+00 1.4880215914e+00 2.5773289991e+00 
47600 4.9466200094e+00 2.3776526563e-04 1.4880135165e+00 -2.5773150129e+00 1.4880135165e+00 2.5773150129e+00 
47700 4.9466199977e+00 2.3524385808e-04 1.4880055271e+00 -2.5773011749e+00 1.4880055271e+00 2.5773011749e+00 
47800 4.9466199862e+00 2.3274907174e-04 1.4879976225e+00 -2.5772874837e+00 1.4879976225e+00 2.5772874837e+00 
47900 4.9466199751e+00 2.3028062727e-04 1.4879898016e+00 -2.5772739375e+00 1.4879898016e+00 2.5772739375e+00 
48000 4.9466199641e+00 2.2783824838e-04 1.4879820636e+00 -2.5772605349e+00 1.4879820636e+00 2.5772605349e+00 
48100 4.9466199534e+00 2.2542166176e-04 1.4879744077e+00 -2.5772472745e+00 1.4879744077e+00 2.5772472745e+00 
48200 4.9466199430e+00 2.2303059704e-04 1.4879668329e+00 -2.5772341546e+00 1.4879668329e+00 2.5772341546e+00 
48300 4.9466199328e+00 2.2066478678e-04 1.4879593384e+00 -2.5772211738e+00 1.4879593384e+00 2.5772211738e+00 
48400 4.9466199228e+00 2.1832396639e-04 1.4879519234e+00 -2.5772083306e+00 1.4879519234e+00 2.5772083306e+00 
48500 4.9466199130e+00 2.1600787409e-04 1.4879445870e+00 -2.5771956236e+00 1.4879445870e+00 2.5771956236e+00 
48600 4.9466199035e+00 2.1371625094e-04 1.4879373284e+00 -2.5771830513e+00 1.4879373284e+00 2.5771830513e+00 
48700 4.9466198942e+00 2.1144884071e-04 1.4879301468e+00 -2.5771706124e+00 1.4879301468e+00 2.5771706124e+00 
48800 4.9466198851e+00 2.0920538989e-04 1.4879230414e+00 -2.5771583054e+00 1.4879230414e+00 2.5771583054e+00 
48900 4.9466198762e+00 2.0698564768e-04 1.4879160113e+00 -2.5771461289e+00 1.4879160113e+00 2.5771461289e+00 
49000 4.9466198675e+00 2.0478936590e-04 1.4879090557e+00 -2.5771340815e+00 1.4879090557e+00 2.5771340815e+00 
49100 4.9466198590e+00 2.0261629899e-04 1.4879021739e+00 -2.5771221619e+00 1.4879021739e+00 2.5771221619e+00 
49200 4.9466198507e+00 2.0046620398e-04 1.4878953651e+00 -2.5771103688e+00 1.4878953651e+00 2.5771103688e+00 
49300 4.9466198426e+00 1.9833884043e-04 1.4878886286e+00 -2.5770987007e+00 1.4878886286e+00 2.5770987007e+00 
49400 4.9466198347e+00 1.9623397044e-04 1.4878819635e+00 -2.5770871564e+00 1.4878819635e+00 2.5770871564e+00 
49500 4.9466198269e+00 1.9415135857e-04 1.4878753691e+00 -2.5770757346e+00 1.4878753691e+00 2.5770757346e+00 
49600 4.9466198194e+00 1.9209077185e-04 1.4878688446e+00 -2.5770644339e+00 1.4878688446e+00 2.5770644339e+00 
49700 4.9466198120e+00 1.9005197973e-04 1.4878623894e+00 -2.5770532531e+00 1.4878623894e+00 2.5770532531e+00 
49800 4.9466198047e+00 1.8803475406e-04 1.4878560027e+00 -2.5770421909e+00 1.4878560027e+00 2.5770421909e+00 
49900 4.9466197977e+00 1.8603886906e-04 1.4878496837e+00 -2.5770312461e+00 1.4878496837e+00 2.5770312461e+00 
50000 4.9466197908e+00 1.8406410128e-04 1.4878434317e+00 -2.5770204175e+00 1.4878434317e+00 2.5770204175e+00 
50100 4.9466197841e+00 1.8211022959e-04 1.4878372461e+00 -2.5770097037e+00 1.4878372461e+00 2.5770097037e+00 
50200 4.9466197775e+00 1.8017703514e-04 1.4878311262e+00 -2.5769991036e+00 1.4878311262e+00 2.5769991036e+00 
50300 4.9466197710e+00 1.7826430134e-04 1.4878250712e+00 -2.5769886160e+00 1.4878250712e+00 2.5769886160e+00 
50400 4.9466197647e+00 1.7637181385e-04 1.4878190804e+00 -2.5769782397e+00 1.4878190804e+00 2.5769782397e+00 
50500 4.9466197586e+00 1.7449936052e-04 1.4878131532e+00 -2.5769679735e+00 1.4878131532e+00 2.5769679735e+00 
50600 4.9466197526e+00 1.7264673139e-04 1.4878072889e+00 -2.5769578163e+00 1.4878072889e+00 2.5769578163e+00 
50700 4.9466197467e+00 1.7081371866e-04 1.4878014869e+00 -2.5769477668e+00 1.4878014869e+00 2.5769477668e+00 
50800 4.9466197410e+00 1.6900011667e-04 1.4877957464e+00 -2.5769378241e+00 1.4877957464e+00 2.5769378241e+00 
50900 4.9466197354e+00 1.6720572187e-04 1.4877900669e+00 -2.5769279868e+00 1.4877900669e+00 2.5769279868e+00 
51000 4.9466197300e+00 1.6543033278e-04 1.4877844476e+00 -2.5769182540e+00 1.4877844476e+00 2.5769182540e+00 
51100 4.9466197246e+00 1.6367375003e-04 1.4877788880e+00 -2.5769086244e+00 1.4877788880e+00 2.5769086244e+00 
51200 4.9466197194e+00 1.6193577625e-04 1.4877733874e+00 -2.5768990971e+00 1.4877733874e+00 2.5768990971e+00 
51300 4.9466197143e+00 1.6021621613e-04 1.4877679452e+00 -2.5768896709e+00 1.4877679452e+00 2.5768896709e+00 
51400 4.9466197093e+00 1.5851487634e-04 1.4877625607e+00 -2.5768803448e+00 1.4877625607e+00 2.5768803448e+00 
51500 4.9466197045e+00 1.5683156554e-04 1.4877572334e+00 -2.5768711176e+00 1.4877572334e+00 2.5768711176e+00 
51600 4.9466196997e+00 1.5516609434e-04 1.4877519627e+00 -2.5768619885e+00 1.4877519627e+00 2.5768619885e+00 
51700 4.9466196951e+00 1.5351827530e-04 1.4877467479e+00 -2.5768529562e+00 1.4877467479e+00 2.5768529562e+00 
51800 4.9466196905e+00 1.5188792289e-04 1.4877415885e+00 -2.5768440198e+00 1.4877415885e+00 2.5768440198e+00 
51900 4.9466196861e+00 1.5027485349e-04 1.4877364839e+00 -2.5768351783e+00 1.4877364839e+00 2.5768351783e+00 
52000 4.9466196818e+00 1.4867888536e-04 1.4877314334e+00 -2.5768264307e+00 1.4877314334e+00 2.5768264307e+00 
52100 4.9466196776e+00 1.4709983862e-04 1.4877264366e+00 -2.5768177759e+00 1.4877264366e+00 2.5768177759e+00 
52200 4.9466196734e+00 1.4553753522e-04 1.4877214928e+00 -2.5768092130e+00 1.4877214928e+00 2.5768092130e+00 
52300 4.9466196694e+00 1.4399179895e-04 1.4877166015e+00 -2.5768007411e+00 1.4877166015e+00 2.5768007411e+00 
52400 4.9466196655e+00 1.4246245541e-04 1.4877117622e+00 -2.5767923591e+00 1.4877117622e+00 2.5767923591e+00 
52500 4.9466196616e+00 1.4094933196e-04 1.4877069742e+00 -2.5767840661e+00 1.4877069742e+00 2.5767840661e+00 
52600 4.9466196579e+00 1.3945225775e-04 1.4877022371e+00 -2.5767758611e+00 1.4877022371e+00 2.5767758611e+00 
52700 4.9466196542e+00 1.3797106369e-04 1.4876975502e+00 -2.5767677433e+00 1.4876975502e+00 2.5767677433e+00 
52800 4.9466196506e+00 1.3650558241e-04 1.4876929132e+00 -2.5767597117e+00 1.4876929132e+00 2.5767597117e+00 
52900 4.9466196471e+00 1.3505564826e-04 1.4876883253e+00 -2.5767517653e+00 1.4876883253e+00 2.5767517653e+00 
53000 4.9466196437e+00 1.3362109729e-04 1.4876837862e+00 -2.5767439033e+00 1.4876837862e+00 2.5767439033e+00 
53100 4.9466196404e+00 1.3220176724e-04 1.4876792953e+00 -2.5767361249e+00 1.4876792953e+00 2.5767361249e+00 
53200 4.9466196371e+00 1.3079749752e-04 1.4876748521e+00 -2.5767284290e+00 1.4876748521e+00 2.5767284290e+00 
53300 4.9466196339e+00 1.2940812917e-04 1.4876704561e+00 -2.5767208148e+00 1.4876704561e+00 2.5767208148e+00 
53400 4.9466196308e+00 1.2803350489e-04 1.4876661067e+00 -2.5767132815e+00 1.4876661067e+00 2.5767132815e+00 
53500 4.9466196278e+00 1.2667346899e-04 1.4876618035e+00 -2.5767058282e+00 1.4876618035e+00 2.5767058282e+00 
53600 4.9466196248e+00 1.2532786738e-04 1.4876575461e+00 -2.5766984541e+00 1.4876575461e+00 2.5766984541e+00 
53700 4.9466196219e+00 1.2399654756e-04 1.4876533338e+00 -2.5766911582e+00 1.4876533338e+00 2.5766911582e+00 
53800 4.9466196191e+00 1.2267935861e-04 1.4876491663e+00 -2.5766839399e+00 1.4876491663e+00 2.5766839399e+00 
53900 4.9466196163e+00 1.2137615116e-04 1.4876450430e+00 -2.5766767982e+00 1.4876450430e+00 2.5766767982e+00 
54000 4.9466196136e+00 1.2008677737e-04 1.4876409636e+00 -2.5766697323e+00 1.4876409636e+00 2.5766697323e+00 
54100 4.9466196110e+00 1.1881109095e-04 1.4876369274e+00 -2.5766627415e+00 1.4876369274e+00 2.5766627415e+00 
54200 4.9466196084e+00 1.1754894711e-04 1.4876329341e+00 -2.5766558250e+00 1.4876329341e+00 2.5766558250e+00 
54300 4.9466196059e+00 1.1630020256e-04 1.4876289833e+00 -2.5766489818e+00 1.4876289833e+00 2.5766489818e+00 
54400 4.9466196035e+00 1.1506471550e-04 1.4876250744e+00 -2.5766422114e+00 1.4876250744e+00 2.5766422114e+00 
54500 4.9466196011e+00 1.1384234558e-04 1.4876212070e+00 -2.5766355129e+00 1.4876212070e+00 2.5766355129e+00 
54600 4.9466195988e+00 1.1263295393e-04 1.4876173807e+00 -2.5766288855e+00 1.4876173807e+00 2.5766288855e+00 
54700 4.9466195965e+00 1.1143640309e-04 1.4876135950e+00 -2.5766223285e+00 1.4876135950e+00 2.5766223285e+00 
54800 4.9466195943e+00 1.1025255707e-04 1.4876098495e+00 -2.5766158412e+00 1.4876098495e+00 2.5766158412e+00 
54900 4.9466195921e+00 1.0908128124e-04 1.4876061438e+00 -2.5766094227e+00 1.4876061438e+00 2.5766094227e+00 
55000 4.9466195900e+00 1.0792244242e-04 1.4876024775e+00 -2.5766030724e+00 1.4876024775e+00 2.5766030724e+00 
55100 4.9466195879e+00 1.0677590878e-04 1.4875988501e+00 -2.5765967896e+00 1.4875988501e+00 2.5765967896e+00 
55200 4.9466195859e+00 1.0564154988e-04 1.4875952612e+00 -2.5765905735e+00 1.4875952612e+00 2.5765905735e+00 
55300 4.9466195839e+00 1.0451923663e-04 1.4875917105e+00 -2.5765844234e+00 1.4875917105e+00 2.5765844234e+00 
55400 4.9466195820e+00 1.0340884129e-04 1.4875881974e+00 -2.5765783387e+00 1.4875881974e+00 2.5765783387e+00 
55500 4.9466195801e+00 1.0231023747e-04 1.4875847217e+00 -2.5765723186e+00 1.4875847217e+00 2.5765723186e+00 
55600 4.9466195783e+00 1.0122330006e-04 1.4875812829e+00 -2.5765663624e+00 1.4875812829e+00 2.5765663624e+00 
55700 4.9466195765e+00 1.0014790529e-04 1.4875778806e+00 -2.5765604695e+00 1.4875778806e+00 2.5765604695e+00 
55800 4.9466195747e+00 9.9083930673e-05 1.4875745145e+00 -2.5765546391e+00 1.4875745145e+00 2.5765546391e+00 
55900 4.9466195730e+00 9.8031255006e-05 1.4875711841e+00 -2.5765488707e+00 1.4875711841e+00 2.5765488707e+00 
56000 4.9466195714e+00 9.6989758352e-05 1.4875678891e+00 -2.5765431636e+00 1.4875678891e+00 2.5765431636e+00 
56100 4.9466195697e+00 9.5959322034e-05 1.4875646291e+00 -2.5765375171e+00 1.4875646291e+00 2.5765375171e+00 
56200 4.9466195682e+00 9.4939828615e-05 1.4875614037e+00 -2.5765319306e+00 1.4875614037e+00 2.5765319306e+00 
56300 4.9466195666e+00 9.3931161896e-05 1.4875582126e+00 -2.5765264034e+00 1.4875582126e+00 2.5765264034e+00 
56400 4.9466195651e+00 9.2933206892e-05 1.4875550554e+00 -2.5765209349e+00 1.4875550554e+00 2.5765209349e+00 
56500 4.9466195636e+00 9.1945849829e-05 1.4875519317e+00 -2.5765155245e+00 1.4875519317e+00 2.5765155245e+00 
56600 4.9466195622e+00 9.0968978130e-05 1.4875488412e+00 -2.5765101716e+00 1.4875488412e+00 2.5765101716e+00 
56700 4.9466195608e+00 9.0002480401e-05 1.4875457835e+00 -2.5765048756e+00 1.4875457835e+00 2.5765048756e+00 
56800 4.9466195594e+00 8.9046246418e-05 1.4875427583e+00 -2.5764996358e+00 1.4875427583e+00 2.5764996358e+00 
56900 4.9466195581e+00 8.8100167122e-05 1.4875397652e+00 -2.5764944516e+00 1.4875397652e+00 2.5764944516e+00 
57000 4.9466195568e+00 8.7164134603e-05 1.4875368039e+00 -2.5764893226e+00 1.4875368039e+00 2.5764893226e+00 
57100 4.9466195555e+00 8.6238042084e-05 1.4875338741e+00 -2.5764842480e+00 1.4875338741e+00 2.5764842480e+00 
57200 4.9466195543e+00 8.5321783920e-05 1.4875309754e+00 -2.5764792273e+00 1.4875309754e+00 2.5764792273e+00 
57300 4.9466195531e+00 8.4415255579e-05 1.4875281075e+00 -2.5764742600e+00 1.4875281075e+00 2.5764742600e+00 
57400 4.9466195519e+00 8.3518353632e-05 1.4875252701e+00 -2.5764693454e+00 1.4875252701e+00 2.5764693454e+00 
57500 4.9466195507e+00 8.2630975746e-05 1.4875224628e+00 -2.5764644830e+00 1.4875224628e+00 2.5764644830e+00 
57600 4.9466195496e+00 8.1753020667e-05 1.4875196854e+00 -2.5764596723e+00 1.4875196854e+00 2.5764596723e+00 
57700 4.9466195485e+00 8.0884388213e-05 1.4875169374e+00 -2.5764549127e+00 1.4875169374e+00 2.5764549127e+00 
57800 4.9466195474e+00 8.0024979265e-05 1.4875142186e+00 -2.5764502036e+00 1.4875142186e+00 2.5764502036e+00 
57900 4.9466195464e+00 7.9174695749e-05 1.4875115287e+00 -2.5764455446e+00 1.4875115287e+00 2.5764455446e+00 
58000 4.9466195454e+00 7.8333440633e-05 1.4875088674e+00 -2.5764409351e+00 1.4875088674e+00 2.5764409351e+00 
58100 4.9466195444e+00 7.7501117914e-05 1.4875062344e+00 -2.5764363745e+00 1.4875062344e+00 2.5764363745e+00 
58200 4.9466195434e+00 7.6677632603e-05 1.4875036293e+00 -2.5764318624e+00 1.4875036293e+00 2.5764318624e+00 
58300 4.9466195425e+00 7.5862890725e-05 1.4875010519e+00 -2.5764273982e+00 1.4875010519e+00 2.5764273982e+00 
58400 4.9466195416e+00 7.5056799297e-05 1.4874985019e+00 -2.5764229815e+00 1.4874985019e+00 2.5764229815e+00 
58500 4.9466195407e+00 7.4259266323e-05 1.4874959790e+00 -2.5764186117e+00 1.4874959790e+00 2.5764186117e+00 
58600 4.9466195398e+00 7.3470200789e-05 1.4874934829e+00 -2.5764142883e+00 1.4874934829e+00 2.5764142883e+00 
58700 4.9466195389e+00 7.2689512645e-05 1.4874910133e+00 -2.5764100108e+00 1.4874910133e+00 2.5764100108e+00 
58800 4.9466195381e+00 7.1917112797e-05 1.4874885699e+00 -2.5764057788e+00 1.4874885699e+00 2.5764057788e+00 
58900 4.9466195373e+00 7.1152913099e-05 1.4874861525e+00 -2.5764015917e+00 1.4874861525e+00 2.5764015917e+00 
59000 4.9466195365e+00 7.0396826346e-05 1.4874837608e+00 -2.5763974491e+00 1.4874837608e+00 2.5763974491e+00 
59100 4.9466195360e+00 7.1158384788e-05 1.4874837608e+00 -2.5763974491e+00 1.4874837608e+00 2.5763974491e+00 
59200 4.9466195352e+00 7.0394812754e-05 1.4874813689e+00 -2.5763933062e+00 1.4874813689e+00 2.5763933062e+00 
59300 4.9466195347e+00 7.1148722088e-05 1.4874813689e+00 -2.5763933062e+00 1.4874813689e+00 2.5763933062e+00 
59400 4.9466195340e+00 7.0377475728e-05 1.4874789773e+00 -2.5763891639e+00 1.4874789773e+00 2.5763891639e+00 
59500 4.9466195335e+00 7.1123239707e-05 1.4874789773e+00 -2.5763891639e+00 1.4874789773e+00 2.5763891639e+00 
59600 4.9466195328e+00 7.0344176000e-05 1.4874765866e+00 -2.5763850230e+00 1.4874765866e+00 2.5763850230e+00 
59700 4.9466195323e+00 7.1081329559e-05 1.4874765866e+00 -2.5763850230e+00 1.4874765866e+00 2.5763850230e+00 
59800 4.9466195317e+00 7.0294349499e-05 1.4874741973e+00 -2.5763808846e+00 1.4874741973e+00 2.5763808846e+00 
59900 4.9466195313e+00 7.1022458436e-05 1.4874741973e+00 -2.5763808846e+00 1.4874741973e+00 2.5763808846e+00 
60000 4.9466195306e+00 7.0227505145e-05 1.4874718099e+00 -2.5763767496e+00 1.4874718099e+00 2.5763767496e+00 
60100 4.9466195302e+00 7.0946165858e-05 1.4874718099e+00 -2.5763767496e+00 1.4874718099e+00 2.5763767496e+00 
60200 4.9466195296e+00 7.0143222779e-05 1.4874694251e+00 -2.5763726190e+00 1.4874694251e+00 2.5763726190e+00 
60300 4.9466195293e+00 7.0852062019e-05 1.4874694251e+00 -2.5763726190e+00 1.4874694251e+00 2.5763726190e+00 
60400 4.9466195287e+00 7.0041151166e-05 1.4874670435e+00 -2.5763684939e+00 1.4874670435e+00 2.5763684939e+00 
60500 4.9466195283e+00 7.0739825780e-05 1.4874670435e+00 -2.5763684939e+00 1.4874670435e+00 2.5763684939e+00 
60600 4.9466195278e+00 6.9921005992e-05 1.4874646656e+00 -2.5763643753e+00 1.4874646656e+00 2.5763643753e+00 
60700 4.9466195274e+00 7.0609202640e-05 1.4874646656e+00 -2.5763643753e+00 1.4874646656e+00 2.5763643753e+00 
60800 4.9466195271e+00 7.1296586461e-05 1.4874646656e+00 -2.5763643753e+00 1.4874646656e+00 2.5763643753e+00 
60900 4.9466195266e+00 7.0454216214e-05 1.4874622690e+00 -2.5763602243e+00 1.4874622690e+00 2.5763602243e+00 
61000 4.9466195263e+00 7.1130367561e-05 1.4874622690e+00 -2.5763602243e+00 1.4874622690e+00 2.5763602243e+00 
61100 4.9466195258e+00 7.0280214952e-05 1.4874598780e+00 -2.5763560830e+00 1.4874598780e+00 2.5763560830e+00 
61200 4.9466195255e+00 7.0944903788e-05 1.4874598780e+00 -2.5763560830e+00 1.4874598780e+00 2.5763560830e+00 
61300 4.9466195251e+00 7.0087163920e-05 1.4874574933e+00 -2.5763519525e+00 1.4874574933e+00 2.5763519525e+00 
61400 4.9466195248e+00 7.0740188691e-05 1.4874574933e+00 -2.5763519525e+00 1.4874574933e+00 2.5763519525e+00 
61500 4.9466195243e+00 6.9875085051e-05 1.4874551154e+00 -2.5763478338e+00 1.4874551154e+00 2.5763478338e+00 
61600 4.9466195241e+00 7.0516272164e-05 1.4874551154e+00 -2.5763478338e+00 1.4874551154e+00 2.5763478338e+00 
61700 4.9466195239e+00 7.1156014144e-05 1.4874551154e+00 -2.5763478338e+00 1.4874551154e+00 2.5763478338e+00 
61800 4.9466195234e+00 7.0268481256e-05 1.4874527235e+00 -2.5763436910e+00 1.4874527235e+00 2.5763436910e+00 
61900 4.9466195232e+00 7.0895836897e-05 1.4874527235e+00 -2.5763436910e+00 1.4874527235e+00 2.5763436910e+00 
62000 4.9466195228e+00 7.0001441178e-05 1.4874503404e+00 -2.5763395633e+00 1.4874503404e+00 2.5763395633e+00 
62100 4.9466195226e+00 7.0616314276e-05 1.4874503404e+00 -2.5763395633e+00 1.4874503404e+00 2.5763395633e+00 
62200 4.9466195224e+00 7.1229455711e-05 1.4874503404e+00 -2.5763395633e+00 1.4874503404e+00 2.5763395633e+00 
62300 4.9466195220e+00 7.0313511515e-05 1.4874479460e+00 -2.5763354162e+00 1.4874479460e+00 2.5763354162e+00 
62400 4.9466195219e+00 7.0913733861e-05 1.4874479460e+00 -2.5763354162e+00 1.4874479460e+00 2.5763354162e+00 
62500 4.9466195215e+00 6.9991616782e-05 1.4874455623e+00 -2.5763312874e+00 1.4874455623e+00 2.5763312874e+00 
62600 4.9466195213e+00 7.0578896537e-05 1.4874455623e+00 -2.5763312874e+00 1.4874455623e+00 2.5763312874e+00 
62700 4.9466195212e+00 7.1164239797e-05 1.4874455623e+00 -2.5763312874e+00 1.4874455623e+00 2.5763312874e+00 
62800 4.9466195208e+00 7.0221737463e-05 1.4874431701e+00 -2.5763271441e+00 1.4874431701e+00 2.5763271441e+00 
62900 4.9466195207e+00 7.0793806685e-05 1.4874431701e+00 -2.5763271441e+00 1.4874431701e+00 2.5763271441e+00 
63000 4.9466195203e+00 6.9845978682e-05 1.4874407904e+00 -2.5763230223e+00 1.4874407904e+00 2.5763230223e+00 
63100 4.9466195202e+00 7.0404817480e-05 1.4874407904e+00 -2.5763230223e+00 1.4874407904e+00 2.5763230223e+00 
63200 4.9466195200e+00 7.0961590056e-05 1.4874407904e+00 -2.5763230223e+00 1.4874407904e+00 2.5763230223e+00 
63300 4.9466195197e+00 6.9994774918e-05 1.4874384051e+00 -2.5763188907e+00 1.4874384051e+00 2.5763188907e+00 
63400 4.9466195196e+00 7.0538082418e-05 1.4874384051e+00 -2.5763188907e+00 1.4874384051e+00 2.5763188907e+00 
63500 4.9466195195e+00 7.1079230561e-05 1.4874384051e+00 -2.5763188907e+00 1.4874384051e+00 2.5763188907e+00 
63600 4.9466195192e+00 7.0094201009e-05 1.4874360158e+00 -2.5763147523e+00 1.4874360158e+00 2.5763147523e+00 
63700 4.9466195191e+00 7.0621707818e-05 1.4874360158e+00 -2.5763147523e+00 1.4874360158e+00 2.5763147523e+00 
63800 4.9466195190e+00 7.1146987236e-05 1.4874360158e+00 -2.5763147523e+00 1.4874360158e+00 2.5763147523e+00 
63900 4.9466195187e+00 7.0144592266e-05 1.4874336242e+00 -2.5763106099e+00 1.4874336242e+00 2.5763106099e+00 
64000 4.9466195186e+00 7.0656109124e-05 1.4874336242e+00 -2.5763106099e+00 1.4874336242e+00 2.5763106099e+00 
64100 4.9466195185e+00 7.1165353980e-05 1.4874336242e+00 -2.5763106099e+00 1.4874336242e+00 2.5763106099e+00 
64200 4.9466195182e+00 7.0146508793e-05 1.4874312319e+00 -2.5763064665e+00 1.4874312319e+00 2.5763064665e+00 
64300 4.9466195181e+00 7.0641921474e-05 1.4874312319e+00 -2.5763064665e+00 1.4874312319e+00 2.5763064665e+00 
64400 4.9466195181e+00 7.1135039285e-05 1.4874312319e+00 -2.5763064665e+00 1.4874312319e+00 2.5763064665e+00 
64500 4.9466195178e+00 7.0100715557e-05 1.4874288407e+00 -2.5763023248e+00 1.4874288407e+00 2.5763023248e+00 
64600 4.9466195177e+00 7.0579979706e-05 1.4874288407e+00 -2.5763023248e+00 1.4874288407e+00 2.5763023248e+00 
64700 4.9466195176e+00 7.1056946162e-05 1.4874288407e+00 -2.5763023248e+00 1.4874288407e+00 2.5763023248e+00 
64800 4.9466195174e+00 7.0008162691e-05 1.4874264522e+00 -2.5762981877e+00 1.4874264522e+00 2.5762981877e+00 
64900 4.9466195173e+00 7.0471298610e-05 1.4874264522e+00 -2.5762981877e+00 1.4874264522e+00 2.5762981877e+00 
65000 4.9466195173e+00 7.0932152354e-05 1.4874264522e+00 -2.5762981877e+00 1.4874264522e+00 2.5762981877e+00 
65100 4.9466195170e+00 6.9869966101e-05 1.4874240678e+00 -2.5762940578e+00 1.4874240678e+00 2.5762940578e+00 
65200 4.9466195170e+00 7.0317053508e-05 1.4874240678e+00 -2.5762940578e+00 1.4874240678e+00 2.5762940578e+00 
65300 4.9466195169e+00 7.0761890907e-05 1.4874240678e+00 -2.5762940578e+00 1.4874240678e+00 2.5762940578e+00 
65400 4.9466195167e+00 6.9687388447e-05 1.4874216891e+00 -2.5762899378e+00 1.4874216891e+00 2.5762899378e+00 
65500 4.9466195166e+00 7.0118561250e-05 1.4874216891e+00 -2.5762899378e+00 1.4874216891e+00 2.5762899378e+00 
65600 4.9466195166e+00 7.0547531189e-05 1.4874216891e+00 -2.5762899378e+00 1.4874216891e+00 2.5762899378e+00 
65700 4.9466195166e+00 7.0974235170e-05 1.4874216891e+00 -2.5762899378e+00 1.4874216891e+00 2.5762899378e+00 
65800 4.9466195163e+00 6.9877055530e-05 1.4874193033e+00 -2.5762858054e+00 1.4874193033e+00 2.5762858054e+00 
65900 4.9466195163e+00 7.0290056961e-05 1.4874193033e+00 -2.5762858054e+00 1.4874193033e+00 2.5762858054e+00 
66000 4.9466195163e+00 7.0700860843e-05 1.4874193033e+00 -2.5762858054e+00 1.4874193033e+00 2.5762858054e+00 
66100 4.9466195162e+00 7.1109410508e-05 1.4874193033e+00 -2.5762858054e+00 1.4874193033e+00 2.5762858054e+00 
66200 4.9466195160e+00 6.9991212996e-05 1.4874169129e+00 -2.5762816652e+00 1.4874169129e+00 2.5762816652e+00 
66300 4.9466195160e+00 7.0386084900e-05 1.4874169129e+00 -2.5762816652e+00 1.4874169129e+00 2.5762816652e+00 
66400 4.9466195160e+00 7.0778789602e-05 1.4874169129e+00 -2.5762816652e+00 1.4874169129e+00 2.5762816652e+00 
66500 4.9466195157e+00 6.9651935837e-05 1.4874145337e+00 -2.5762775442e+00 1.4874145337e+00 2.5762775442e+00 
66600 4.9466195157e+00 7.0031189500e-05 1.4874145337e+00 -2.5762775442e+00 1.4874145337e+00 2.5762775442e+00 
66700 4.9466195157e+00 7.0408372401e-05 1.4874145337e+00 -2.5762775442e+00 1.4874145337e+00 2.5762775442e+00 
66800 4.9466195157e+00 7.0783436787e-05 1.4874145337e+00 -2.5762775442e+00 1.4874145337e+00 2.5762775442e+00 
66900 4.9466195155e+00 6.9638911292e-05 1.4874121543e+00 -2.5762734230e+00 1.4874121543e+00 2.5762734230e+00 
67000 4.9466195155e+00 7.0000635964e-05 1.4874121543e+00 -2.5762734230e+00 1.4874121543e+00 2.5762734230e+00 
67100 4.9466195155e+00 7.0360352837e-05 1.4874121543e+00 -2.5762734230e+00 1.4874121543e+00 2.5762734230e+00 
67200 4.9466195155e+00 7.0718018561e-05 1.4874121543e+00 -2.5762734230e+00 1.4874121543e+00 2.5762734230e+00 
67300 4.9466195152e+00 6.9557582072e-05 1.4874097770e+00 -2.5762693055e+00 1.4874097770e+00 2.5762693055e+00 
67400 4.9466195152e+00 6.9902063599e-05 1.4874097770e+00 -2.5762693055e+00 1.4874097770e+00 2.5762693055e+00 
67500 4.9466195152e+00 7.0244616708e-05 1.4874097770e+00 -2.5762693055e+00 1.4874097770e+00 2.5762693055e+00 
67600 4.9466195152e+00 7.0585201811e-05 1.4874097770e+00 -2.5762693055e+00 1.4874097770e+00 2.5762693055e+00 
67700 4.9466195152e+00 7.0923780683e-05 1.4874097770e+00 -2.5762693055e+00 1.4874097770e+00 2.5762693055e+00 
67800 4.9466195150e+00 6.9739913413e-05 1.4874073929e+00 -2.5762651761e+00 1.4874073929e+00 2.5762651761e+00 
67900 4.9466195150e+00 7.0065386429e-05 1.4874073929e+00 -2.5762651761e+00 1.4874073929e+00 2.5762651761e+00 
68000 4.9466195150e+00 7.0388990975e-05 1.4874073929e+00 -2.5762651761e+00 1.4874073929e+00 2.5762651761e+00 
68100 4.9466195150e+00 7.0710691894e-05 1.4874073929e+00 -2.5762651761e+00 1.4874073929e+00 2.5762651761e+00 
68200 4.9466195148e+00 6.9514631931e-05 1.4874050159e+00 -2.5762610590e+00 1.4874050159e+00 2.5762610590e+00 
68300 4.9466195148e+00 6.9823467844e-05 1.4874050159e+00 -2.5762610590e+00 1.4874050159e+00 2.5762610590e+00 
68400 4.9466195148e+00 7.0130545600e-05 1.4874050159e+00 -2.5762610590e+00 1.4874050159e+00 2.5762610590e+00 
68500 4.9466195149e+00 7.0435832607e-05 1.4874050159e+00 -2.5762610590e+00 1.4874050159e+00 2.5762610590e+00 
68600 4.9466195149e+00 7.0739297354e-05 1.4874050159e+00 -2.5762610590e+00 1.4874050159e+00 2.5762610590e+00 
68700 4.9466195147e+00 6.9524487775e-05 1.4874026380e+00 -2.5762569403e+00 1.4874026380e+00 2.5762569403e+00 
68800 4.9466195147e+00 6.9815256927e-05 1.4874026380e+00 -2.5762569403e+00 1.4874026380e+00 2.5762569403e+00 
68900 4.9466195147e+00 7.0104359483e-05 1.4874026380e+00 -2.5762569403e+00 1.4874026380e+00 2.5762569403e+00 
69000 4.9466195147e+00 7.0391765936e-05 1.4874026380e+00 -2.5762569403e+00 1.4874026380e+00 2.5762569403e+00 
69100 4.9466195147e+00 7.0677447736e-05 1.4874026380e+00 -2.5762569403e+00 1.4874026380e+00 2.5762569403e+00 
69200 4.9466195147e+00 7.0961377263e-05 1.4874026380e+00 -2.5762569403e+00 1.4874026380e+00 2.5762569403e+00 
69300 4.9466195145e+00 6.9722362975e-05 1.4874002526e+00 -2.5762528086e+00 1.4874002526e+00 2.5762528086e+00 
69400 4.9466195146e+00 6.9993719783e-05 1.4874002526e+00 -2.5762528086e+00 1.4874002526e+00 2.5762528086e+00 
69500 4.9466195146e+00 7.0263491606e-05 1.4874002526e+00 -2.5762528086e+00 1.4874002526e+00 2.5762528086e+00 
69600 4.9466195146e+00 7.0531652291e-05 1.4874002526e+00 -2.5762528086e+00 1.4874002526e+00 2.5762528086e+00 
69700 4.9466195146e+00 7.0798176518e-05 1.4874002526e+00 -2.5762528086e+00 1.4874002526e+00 2.5762528086e+00 
69800 4.9466195144e+00 6.9545385794e-05 1.4873978726e+00 -2.5762486865e+00 1.4873978726e+00 2.5762486865e+00 
69900 4.9466195144e+00 6.9799596059e-05 1.4873978726e+00 -2.5762486865e+00 1.4873978726e+00 2.5762486865e+00 
70000 4.9466195144e+00 7.0052342897e-05 1.4873978726e+00 -2.5762486865e+00 1.4873978726e+00 2.5762486865e+00 
70100 4.9466195145e+00 7.0303602067e-05 1.4873978726e+00 -2.5762486865e+00 1.4873978726e+00 2.5762486865e+00 
70200 4.9466195145e+00 7.0553350059e-05 1.4873978726e+00 -2.5762486865e+00 1.4873978726e+00 2.5762486865e+00 
70300 4.9466195145e+00 7.0801564091e-05 1.4873978726e+00 -2.5762486865e+00 1.4873978726e+00 2.5762486865e+00 
70400 4.9466195143e+00 6.9530510112e-05 1.4873954926e+00 -2.5762445641e+00 1.4873954926e+00 2.5762445641e+00 
70500 4.9466195143e+00 6.9766621869e-05 1.4873954926e+00 -2.5762445641e+00 1.4873954926e+00 2.5762445641e+00 
70600 4.9466195144e+00 7.0001379700e-05 1.4873954926e+00 -2.5762445641e+00 1.4873954926e+00 2.5762445641e+00 
70700 4.9466195144e+00 7.0234761492e-05 1.4873954926e+00 -2.5762445641e+00 1.4873954926e+00 2.5762445641e+00 
70800 4.9466195144e+00 7.0466745774e-05 1.4873954926e+00 -2.5762445641e+00 1.4873954926e+00 2.5762445641e+00 
70900 4.9466195144e+00 7.0697311707e-05 1.4873954926e+00 -2.5762445641e+00 1.4873954926e+00 2.5762445641e+00 
71000 4.9466195145e+00 7.0926439075e-05 1.4873954926e+00 -2.5762445641e+00 1.4873954926e+00 2.5762445641e+00 
71100 4.9466195142e+00 6.9633735718e-05 1.4873931083e+00 -2.5762404345e+00 1.4873931083e+00 2.5762404345e+00 
71200 4.9466195143e+00 6.9850943037e-05 1.4873931083e+00 -2.5762404345e+00 1.4873931083e+00 2.5762404345e+00 
71300 4.9466195143e+00 7.0066899412e-05 1.4873931083e+00 -2.5762404345e+00 1.4873931083e+00 2.5762404345e+00 
71400 4.9466195143e+00 7.0281584933e-05 1.4873931083e+00 -2.5762404345e+00 1.4873931083e+00 2.5762404345e+00 
71500 4.9466195143e+00 7.0494980253e-05 1.4873931083e+00 -2.5762404345e+00 1.4873931083e+00 2.5762404345e+00 
71600 4.9466195144e+00 7.0707066577e-05 1.4873931083e+00 -2.5762404345e+00 1.4873931083e+00 2.5762404345e+00 
71700 4.9466195144e+00 7.0917825655e-05 1.4873931083e+00 -2.5762404345e+00 1.4873931083e+00 2.5762404345e+00 
71800 4.9466195142e+00 6.9607066365e-05 1.4873907244e+00 -2.5762363053e+00 1.4873907244e+00 2.5762363053e+00 
71900 4.9466195142e+00 6.9806134670e-05 1.4873907244e+00 -2.5762363053e+00 1.4873907244e+00 2.5762363053e+00 
72000 4.9466195142e+00 7.0004068790e-05 1.4873907244e+00 -2.5762363053e+00 1.4873907244e+00 2.5762363053e+00 
72100 4.9466195143e+00 7.0200850493e-05 1.4873907244e+00 -2.5762363053e+00 1.4873907244e+00 2.5762363053e+00 
72200 4.9466195143e+00 7.0396462042e-05 1.4873907244e+00 -2.5762363053e+00 1.4873907244e+00 2.5762363053e+00 
72300 4.9466195143e+00 7.0590886186e-05 1.4873907244e+00 -2.5762363053e+00 1.4873907244e+00 2.5762363053e+00 
72400 4.9466195143e+00 7.0784106151e-05 1.4873907244e+00 -2.5762363053e+00 1.4873907244e+00 2.5762363053e+00 
72500 4.9466195141e+00 6.9458811519e-05 1.4873883449e+00 -2.5762321840e+00 1.4873883449e+00 2.5762321840e+00 
72600 4.9466195142e+00 6.9640607915e-05 1.4873883449e+00 -2.5762321840e+00 1.4873883449e+00 2.5762321840e+00 
72700 4.9466195142e+00 6.9821396784e-05 1.4873883449e+00 -2.5762321840e+00 1.4873883449e+00 2.5762321840e+00 
72800 4.9466195142e+00 7.0001161123e-05 1.4873883449e+00 -2.5762321840e+00 1.4873883449e+00 2.5762321840e+00 
72900 4.9466195142e+00 7.0179884356e-05 1.4873883449e+00 -2.5762321840e+00 1.4873883449e+00 2.5762321840e+00 
73000 4.9466195143e+00 7.0357550336e-05 1.4873883449e+00 -2.5762321840e+00 1.4873883449e+00 2.5762321840e+00 
73100 4.9466195143e+00 7.0534143334e-05 1.4873883449e+00 -2.5762321840e+00 1.4873883449e+00 2.5762321840e+00 
73200 4.9466195143e+00 7.0709648033e-05 1.4873883449e+00 -2.5762321840e+00 1.4873883449e+00 2.5762321840e+00 
73300 4.9466195143e+00 7.0884049536e-05 1.4873883449e+00 -2.5762321840e+00 1.4873883449e+00 2.5762321840e+00 
73400 4.9466195141e+00 6.9537912940e-05 1.4873859621e+00 -2.5762280568e+00 1.4873859621e+00 2.5762280568e+00 
73500 4.9466195142e+00 6.9701085472e-05 1.4873859621e+00 -2.5762280568e+00 1.4873859621e+00 2.5762280568e+00 
73600 4.9466195142e+00 6.9863357068e-05 1.4873859621e+00 -2.5762280568e+00 1.4873859621e+00 2.5762280568e+00 
73700 4.9466195142e+00 7.0024712360e-05 1.4873859621e+00 -2.5762280568e+00 1.4873859621e+00 2.5762280568e+00 
73800 4.9466195142e+00 7.0185136361e-05 1.4873859621e+00 -2.5762280568e+00 1.4873859621e+00 2.5762280568e+00 
73900 4.9466195143e+00 7.0344614456e-05 1.4873859621e+00 -2.5762280568e+00 1.4873859621e+00 2.5762280568e+00 
74000 4.9466195143e+00 7.0503132403e-05 1.4873859621e+00 -2.5762280568e+00 1.4873859621e+00 2.5762280568e+00 
74100 4.9466195143e+00 7.0660676326e-05 1.4873859621e+00 -2.5762280568e+00 1.4873859621e+00 2.5762280568e+00 
74200 4.9466195143e+00 7.0817232717e-05 1.4873859621e+00 -2.5762280568e+00 1.4873859621e+00 2.5762280568e+00 
74300 4.9466195141e+00 6.9454814108e-05 1.4873835815e+00 -2.5762239335e+00 1.4873835815e+00 2.5762239335e+00 
74400 4.9466195142e+00 6.9600385264e-05 1.4873835815e+00 -2.5762239335e+00 1.4873835815e+00 2.5762239335e+00 
74500 4.9466195142e+00 6.9745174828e-05 1.4873835815e+00 -2.5762239335e+00 1.4873835815e+00 2.5762239335e+00 
74600 4.9466195142e+00 6.9889168646e-05 1.4873835815e+00 -2.5762239335e+00 1.4873835815e+00 2.5762239335e+00 
74700 4.9466195142e+00 7.0032352897e-05 1.4873835815e+00 -2.5762239335e+00 1.4873835815e+00 2.5762239335e+00 
74800 4.9466195143e+00 7.0174714091e-05 1.4873835815e+00 -2.5762239335e+00 1.4873835815e+00 2.5762239335e+00 
74900 4.9466195143e+00 7.0316239064e-05 1.4873835815e+00 -2.5762239335e+00 1.4873835815e+00 2.5762239335e+00 
75000 4.9466195143e+00 7.0456914976e-05 1.4873835815e+00 -2.5762239335e+00 1.4873835815e+00 2.5762239335e+00 
75100 4.9466195143e+00 7.0596729311e-05 1.4873835815e+00 -2.5762239335e+00 1.4873835815e+00 2.5762239335e+00 
75200 4.9466195144e+00 7.0735669876e-05 1.4873835815e+00 -2.5762239335e+00 1.4873835815e+00 2.5762239335e+00 
75300 4.9466195141e+00 6.9357512487e-05 1.4873812036e+00 -2.5762198149e+00 1.4873812036e+00 2.5762198149e+00 
75400 4.9466195142e+00 6.9485709394e-05 1.4873812036e+00 -2.5762198149e+00 1.4873812036e+00 2.5762198149e+00 
75500 4.9466195142e+00 6.9613241888e-05 1.4873812036e+00 -2.5762198149e+00 1.4873812036e+00 2.5762198149e+00 
75600 4.9466195142e+00 6.9740096963e-05 1.4873812036e+00 -2.5762198149e+00 1.4873812036e+00 2.5762198149e+00 
75700 4.9466195142e+00 6.9866261906e-05 1.4873812036e+00 -2.5762198149e+00 1.4873812036e+00 2.5762198149e+00 
75800 4.9466195143e+00 6.9991724296e-05 1.4873812036e+00 -2.5762198149e+00 1.4873812036e+00 2.5762198149e+00 
75900 4.9466195143e+00 7.0116471996e-05 1.4873812036e+00 -2.5762198149e+00 1.4873812036e+00 2.5762198149e+00 
76000 4.9466195143e+00 7.0240493154e-05 1.4873812036e+00 -2.5762198149e+00 1.4873812036e+00 2.5762198149e+00 
76100 4.9466195143e+00 7.0363776201e-05 1.4873812036e+00 -2.5762198149e+00 1.4873812036e+00 2.5762198149e+00 
76200 4.9466195143e+00 7.0383432233e-05 1.4873812036e+00 -2.5762198149e+00 1.4873812036e+00 2.5762198149e+00 
76200 4.9466195143e+00 7.0383432233e-05 1.4873812036e+00 -2.5762198149e+00 1.4873812036e+00 2.5762198149e+00 
