# step Hamiltonian StressXX CellTensor1 CellTensor2 CellTensor3 CellTensor4 
0 4.7919118191e+00 1.1795558365e-01 1.7439943123e+00 -3.0206867570e+00 1.7439943123e+00 3.0206867570e+00 
100 4.7881127349e+00 1.1551913499e-01 1.7439943123e+00 -3.0206867570e+00 1.7439943123e+00 3.0206867570e+00 
200 4.7836948400e+00 1.1081776213e-01 1.7406834499e+00 -3.0149521752e+00 1.7406834499e+00 3.0149521752e+00 
300 4.7792111345e+00 1.0629271968e-01 1.7375012537e+00 -3.0094404497e+00 1.7375012537e+00 3.0094404497e+00 
400 4.7747314631e+00 1.0197561938e-01 1.7344433717e+00 -3.0041440426e+00 1.7344433717e+00 3.0041440426e+00 
500 4.7703135635e+00 9.7890514270e-02 1.7315044817e+00 -2.9990537359e+00 1.7315044817e+00 2.9990537359e+00 
600 4.7660043771e+00 9.4054904261e-02 1.7286785048e+00 -2.9941590002e+00 1.7286785048e+00 2.9941590002e+00 
700 4.7618412683e+00 9.0480638072e-02 1.7259587915e+00 -2.9894483187e+00 1.7259587915e+00 2.9894483187e+00 
800 4.7578531518e+00 8.7174716376e-02 1.7233382857e+00 -2.9849094695e+00 1.7233382857e+00 2.9849094695e+00 
900 4.7540615305e+00 8.4140002525e-02 1.7208096655e+00 -2.9805297707e+00 1.7208096655e+00 2.9805297707e+00 
1000 4.7504814463e+00 8.1375848406e-02 1.7183654657e+00 -2.9762962926e+00 1.7183654657e+00 2.9762962926e+00 
1100 4.7471223492e+00 7.8878643455e-02 1.7159981831e+00 -2.9721960388e+00 1.7159981831e+00 2.9721960388e+00 
1200 4.7439888883e+00 7.6642295011e-02 1.7137003656e+00 -2.9682161022e+00 1.7137003656e+00 2.9682161022e+00 
1300 4.7410816303e+00 7.4658647975e-02 1.7114646888e+00 -2.9643437963e+00 1.7114646888e+00 2.9643437963e+00 
1400 4.7383977104e+00 7.2917851316e-02 1.7092840195e+00 -2.9605667663e+00 1.7092840195e+00 2.9605667663e+00 
1500 4.7359314197e+00 7.1408678427e-02 1.7071514696e+00 -2.9568730816e+00 1.7071514696e+00 2.9568730816e+00 
1600 4.7336747352e+00 7.0118807672e-02 1.7050604402e+00 -2.9532513124e+00 1.7050604402e+00 2.9532513124e+00 
1700 4.7316177946e+00 6.9035068765e-02 1.7030046568e+00 -2.9496905912e+00 1.7030046568e+00 2.9496905912e+00 
1800 4.7297493222e+00 6.8143659956e-02 1.7009781985e+00 -2.9461806624e+00 1.7009781985e+00 2.9461806624e+00 
1900 4.7280570077e+00 6.7430340249e-02 1.6989755194e+00 -2.9427119205e+00 1.6989755194e+00 2.9427119205e+00 
2000 4.7265278415e+00 6.6880600288e-02 1.6969914650e+00 -2.9392754374e+00 1.6969914650e+00 2.9392754374e+00 
2100 4.7251484108e+00 6.6479814853e-02 1.6950212830e+00 -2.9358629820e+00 1.6950212830e+00 2.9358629820e+00 
2200 4.7239051579e+00 6.6213379397e-02 1.6930606297e+00 -2.9324670309e+00 1.6930606297e+00 2.9324670309e+00 
2300 4.7227846031e+00 6.6066832507e-02 1.6911055721e+00 -2.9290807719e+00 1.6911055721e+00 2.9290807719e+00 
2400 4.7217735362e+00 6.6025965725e-02 1.6891525865e+00 -2.9256981015e+00 1.6891525865e+00 2.9256981015e+00 
2500 4.7208591770e+00 6.6076921776e-02 1.6871985529e+00 -2.9223136160e+00 1.6871985529e+00 2.9223136160e+00 
2600 4.7200293078e+00 6.6206281929e-02 1.6852407476e+00 -2.9189225978e+00 1.6852407476e+00 2.9189225978e+00 
2700 4.7192723793e+00 6.6401142951e-02 1.6832768322e+00 -2.9155209965e+00 1.6832768322e+00 2.9155209965e+00 
2800 4.7185775935e+00 6.6649183924e-02 1.6813048404e+00 -2.9121054066e+00 1.6813048404e+00 2.9121054066e+00 
2900 4.7179349629e+00 6.6938723088e-02 1.6793231631e+00 -2.9086730408e+00 1.6793231631e+00 2.9086730408e+00 
3000 4.7173353501e+00 6.7258764781e-02 1.6773305309e+00 -2.9052217007e+00 1.6773305309e+00 2.9052217007e+00 
3100 4.7167704894e+00 6.7599036555e-02 1.6753259961e+00 -2.9017497445e+00 1.6753259961e+00 2.9017497445e+00 
3200 4.7162329911e+00 6.7950016593e-02 1.6733089125e+00 -2.8982560532e+00 1.6733089125e+00 2.8982560532e+00 
3300 4.7157163321e+00 6.8302951611e-02 1.6712789150e+00 -2.8947399944e+00 1.6712789150e+00 2.8947399944e+00 
3400 4.7152148337e+00 6.8649865548e-02 1.6692358982e+00 -2.8912013856e+00 1.6692358982e+00 2.8912013856e+00 
3500 4.7147236292e+00 6.8983559476e-02 1.6671799949e+00 -2.8876404565e+00 1.6671799949e+00 2.8876404565e+00 
3600 4.7142386221e+00 6.9297603264e-02 1.6651115538e+00 -2.8840578114e+00 1.6651115538e+00 2.8840578114e+00 
3700 4.7137564383e+00 6.9586319705e-02 1.6630311180e+00 -2.8804543910e+00 1.6630311180e+00 2.8804543910e+00 
3800 4.7132743729e+00 6.9844761861e-02 1.6609394040e+00 -2.8768314360e+00 1.6609394040e+00 2.8768314360e+00 
3900 4.7127903330e+00 7.0068684532e-02 1.6588372801e+00 -2.8731904506e+00 1.6588372801e+00 2.8731904506e+00 
4000 4.7123027795e+00 7.0254510767e-02 1.6567257470e+00 -2.8695331680e+00 1.6567257470e+00 2.8695331680e+00 
4100 4.7118106675e+00 7.0399294404e-02 1.6546059180e+00 -2.8658615164e+00 1.6546059180e+00 2.8658615164e+00 
4200 4.7113133872e+00 7.0500679608e-02 1.6524790009e+00 -2.8621775881e+00 1.6524790009e+00 2.8621775881e+00 
4300 4.7108107065e+00 7.0556858345e-02 1.6503462812e+00 -2.8584836091e+00 1.6503462812e+00 2.8584836091e+00 
4400 4.7103027162e+00 7.0566526694e-02 1.6482091053e+00 -2.8547819118e+00 1.6482091053e+00 2.8547819118e+00 
4500 4.7097897776e+00 7.0528840808e-02 1.6460688662e+00 -2.8510749090e+00 1.6460688662e+00 2.8510749090e+00 
4600 4.7092724737e+00 7.0443373247e-02 1.6439269897e+00 -2.8473650702e+00 1.6439269897e+00 2.8473650702e+00 
4700 4.7087515650e+00 7.0310070309e-02 1.6417849222e+00 -2.8436549004e+00 1.6417849222e+00 2.8436549004e+00 
4800 4.7082279477e+00 7.0129210872e-02 1.6396441191e+00 -2.8399469206e+00 1.6396441191e+00 2.8399469206e+00 
4900 4.7077026182e+00 6.9901367148e-02 1.6375060348e+00 -2.8362436500e+00 1.6375060348e+00 2.8362436500e+00 
5000 4.7071766393e+00 6.9627367666e-02 1.6353721141e+00 -2.8325475908e+00 1.6353721141e+00 2.8325475908e+00 
5100 4.7066511127e+00 6.9308262682e-02 1.6332437837e+00 -2.8288612145e+00 1.6332437837e+00 2.8288612145e+00 
5200 4.7061271535e+00 6.8945292133e-02 1.6311224459e+00 -2.8251869496e+00 1.6311224459e+00 2.8251869496e+00 
5300 4.7056058695e+00 6.8539856203e-02 1.6290094719e+00 -2.8215271714e+00 1.6290094719e+00 2.8215271714e+00 
5400 4.7050883435e+00 6.8093488460e-02 1.6269061973e+00 -2.8178841929e+00 1.6269061973e+00 2.8178841929e+00 
5500 4.7045756187e+00 6.7607831528e-02 1.6248139172e+00 -2.8142602574e+00 1.6248139172e+00 2.8142602574e+00 
5600 4.7040686865e+00 6.7084615160e-02 1.6227338825e+00 -2.8106575317e+00 1.6227338825e+00 2.8106575317e+00 
5700 4.7035684782e+00 6.6525636615e-02 1.6206672974e+00 -2.8070781012e+00 1.6206672974e+00 2.8070781012e+00 
5800 4.7030758572e+00 6.5932743162e-02 1.6186153161e+00 -2.8035239655e+00 1.6186153161e+00 2.8035239655e+00 
5900 4.7025916145e+00 6.5307816563e-02 1.6165790417e+00 -2.7999970348e+00 1.6165790417e+00 2.7999970348e+00 
6000 4.7021164654e+00 6.4652759382e-02 1.6145595241e+00 -2.7964991275e+00 1.6145595241e+00 2.7964991275e+00 
6100 4.7016510478e+00 6.3969482932e-02 1.6125577589e+00 -2.7930319686e+00 1.6125577589e+00 2.7930319686e+00 
6200 4.7011959216e+00 6.3259896730e-02 1.6105746872e+00 -2.7895971876e+00 1.6105746872e+00 2.7895971876e+00 
6300 4.7007515698e+00 6.2525899293e-02 1.6086111948e+00 -2.7861963189e+00 1.6086111948e+00 2.7861963189e+00 
6400 4.7003183996e+00 6.1769370140e-02 1.6066681120e+00 -2.7828308009e+00 1.6066681120e+00 2.7828308009e+00 
6500 4.6998967447e+00 6.0992162877e-02 1.6047462142e+00 -2.7795019762e+00 1.6047462142e+00 2.7795019762e+00 
6600 4.6994868685e+00 6.0196099241e-02 1.6028462218e+00 -2.7762110930e+00 1.6028462218e+00 2.7762110930e+00 
6700 4.6990889674e+00 5.9382963998e-02 1.6009688012e+00 -2.7729593050e+00 1.6009688012e+00 2.7729593050e+00 
6800 4.6987031740e+00 5.8554500602e-02 1.5991145650e+00 -2.7697476737e+00 1.5991145650e+00 2.7697476737e+00 
6900 4.6983295617e+00 5.7712407534e-02 1.5972840734e+00 -2.7665771693e+00 1.5972840734e+00 2.7665771693e+00 
7000 4.6979681485e+00 5.6858335237e-02 1.5954778351e+00 -2.7634486727e+00 1.5954778351e+00 2.7634486727e+00 
7100 4.6976189012e+00 5.5993883586e-02 1.5936963080e+00 -2.7603629772e+00 1.5936963080e+00 2.7603629772e+00 
7200 4.6972817400e+00 5.5120599836e-02 1.5919399010e+00 -2.7573207912e+00 1.5919399010e+00 2.7573207912e+00 
7300 4.6969565422e+00 5.4239976992e-02 1.5902089752e+00 -2.7543227397e+00 1.5902089752e+00 2.7543227397e+00 
7400 4.6966431470e+00 5.3353452560e-02 1.5885038448e+00 -2.7513693673e+00 1.5885038448e+00 2.7513693673e+00 
7500 4.6963413592e+00 5.2462407632e-02 1.5868247793e+00 -2.7484611404e+00 1.5868247793e+00 2.7484611404e+00 
7600 4.6960509534e+00 5.1568166279e-02 1.5851720042e+00 -2.7455984500e+00 1.5851720042e+00 2.7455984500e+00 
7700 4.6957716779e+00 5.0671995212e-02 1.5835457031e+00 -2.7427816139e+00 1.5835457031e+00 2.7427816139e+00 
7800 4.6955032582e+00 4.9775103684e-02 1.5819460192e+00 -2.7400108800e+00 1.5819460192e+00 2.7400108800e+00 
7900 4.6952454005e+00 4.8878643617e-02 1.5803730563e+00 -2.7372864285e+00 1.5803730563e+00 2.7372864285e+00 
8000 4.6949977952e+00 4.7983709914e-02 1.5788268814e+00 -2.7346083749e+00 1.5788268814e+00 2.7346083749e+00 
8100 4.6947601200e+00 4.7091340951e-02 1.5773075253e+00 -2.7319767730e+00 1.5773075253e+00 2.7319767730e+00 
8200 4.6945320425e+00 4.6202519227e-02 1.5758149848e+00 -2.7293916171e+00 1.5758149848e+00 2.7293916171e+00 
8300 4.6943132234e+00 4.5318172145e-02 1.5743492243e+00 -2.7268528453e+00 1.5743492243e+00 2.7268528453e+00 
8400 4.6941033185e+00 4.4439172923e-02 1.5729101769e+00 -2.7243603422e+00 1.5729101769e+00 2.7243603422e+00 
8500 4.6939019812e+00 4.3566341611e-02 1.5714977468e+00 -2.7219139414e+00 1.5714977468e+00 2.7219139414e+00 
8600 4.6937088646e+00 4.2700446200e-02 1.5701118100e+00 -2.7195134285e+00 1.5701118100e+00 2.7195134285e+00 
8700 4.6935236236e+00 4.1842203823e-02 1.5687522165e+00 -2.7171585434e+00 1.5687522165e+00 2.7171585434e+00 
8800 4.6933459159e+00 4.0992282015e-02 1.5674187914e+00 -2.7148489834e+00 1.5674187914e+00 2.7148489834e+00 
8900 4.6931754043e+00 4.0151300048e-02 1.5661113368e+00 -2.7125844057e+00 1.5661113368e+00 2.7125844057e+00 
9000 4.6930117576e+00 3.9319830307e-02 1.5648296330e+00 -2.7103644295e+00 1.5648296330e+00 2.7103644295e+00 
9100 4.6928546517e+00 3.8498399714e-02 1.5635734399e+00 -2.7081886392e+00 1.5635734399e+00 2.7081886392e+00 
9200 4.6927037709e+00 3.7687491185e-02 1.5623424985e+00 -2.7060565863e+00 1.5623424985e+00 2.7060565863e+00 
9300 4.6925588085e+00 3.6887545109e-02 1.5611365325e+00 -2.7039677919e+00 1.5611365325e+00 2.7039677919e+00 
9400 4.6924194675e+00 3.6098960858e-02 1.5599552493e+00 -2.7019217493e+00 1.5599552493e+00 2.7019217493e+00 
9500 4.6922854614e+00 3.5322098295e-02 1.5587983412e+00 -2.6999179258e+00 1.5587983412e+00 2.6999179258e+00 
9600 4.6921565143e+00 3.4557279298e-02 1.5576654873e+00 -2.6979557652e+00 1.5576654873e+00 2.6979557652e+00 
9700 4.6920323616e+00 3.3804789284e-02 1.5565563540e+00 -2.6960346899e+00 1.5565563540e+00 2.6960346899e+00 
9800 4.6919127497e+00 3.3064878726e-02 1.5554705964e+00 -2.6941541027e+00 1.5554705964e+00 2.6941541027e+00 
9900 4.6917974369e+00 3.2337764667e-02 1.5544078598e+00 -2.6923133889e+00 1.5544078598e+00 2.6923133889e+00 
10000 4.6916861927e+00 3.1623632209e-02 1.5533677803e+00 -2.6905119183e+00 1.5533677803e+00 2.6905119183e+00 
10100 4.6915787981e+00 3.0922636006e-02 1.5523499860e+00 -2.6887490470e+00 1.5523499860e+00 2.6887490470e+00 
10200 4.6914750456e+00 3.0234901714e-02 1.5513540983e+00 -2.6870241188e+00 1.5513540983e+00 2.6870241188e+00 
10300 4.6913747387e+00 2.9560527438e-02 1.5503797323e+00 -2.6853364673e+00 1.5503797323e+00 2.6853364673e+00 
10400 4.6912776921e+00 2.8899585136e-02 1.5494264982e+00 -2.6836854174e+00 1.5494264982e+00 2.6836854174e+00 
10500 4.6911837310e+00 2.8252122014e-02 1.5484940020e+00 -2.6820702868e+00 1.5484940020e+00 2.6820702868e+00 
10600 4.6910926912e+00 2.7618161872e-02 1.5475818465e+00 -2.6804903871e+00 1.5475818465e+00 2.6804903871e+00 
10700 4.6910044185e+00 2.6997706433e-02 1.5466896318e+00 -2.6789450258e+00 1.5466896318e+00 2.6789450258e+00 
10800 4.6909187684e+00 2.6390736628e-02 1.5458169562e+00 -2.6774335074e+00 1.5458169562e+00 2.6774335074e+00 
10900 4.6908356057e+00 2.5797213858e-02 1.5449634171e+00 -2.6759551342e+00 1.5449634171e+00 2.6759551342e+00 
11000 4.6907548043e+00 2.5217081208e-02 1.5441286112e+00 -2.6745092081e+00 1.5441286112e+00 2.6745092081e+00 
11100 4.6906762464e+00 2.4650264633e-02 1.5433121359e+00 -2.6730950314e+00 1.5433121359e+00 2.6730950314e+00 
11200 4.6905998225e+00 2.4096674106e-02 1.5425135892e+00 -2.6717119078e+00 1.5425135892e+00 2.6717119078e+00 
11300 4.6905254305e+00 2.3556204726e-02 1.5417325705e+00 -2.6703591437e+00 1.5417325705e+00 2.6703591437e+00 
11400 4.6904529760e+00 2.3028737791e-02 1.5409686812e+00 -2.6690360488e+00 1.5409686812e+00 2.6690360488e+00 
11500 4.6903823709e+00 2.2514141828e-02 1.5402215254e+00 -2.6677419368e+00 1.5402215254e+00 2.6677419368e+00 
11600 4.6903135340e+00 2.2012273594e-02 1.5394907097e+00 -2.6664761270e+00 1.5394907097e+00 2.6664761270e+00 
11700 4.6902463898e+00 2.1522979032e-02 1.5387758444e+00 -2.6652379440e+00 1.5387758444e+00 2.6652379440e+00 
11800 4.6901808685e+00 2.1046094191e-02 1.5380765435e+00 -2.6640267192e+00 1.5380765435e+00 2.6640267192e+00 
11900 4.6901169057e+00 2.0581446111e-02 1.5373924250e+00 -2.6628417912e+00 1.5373924250e+00 2.6628417912e+00 
12000 4.6900544415e+00 2.0128853666e-02 1.5367231114e+00 -2.6616825061e+00 1.5367231114e+00 2.6616825061e+00 
12100 4.6899934208e+00 1.9688128378e-02 1.5360682301e+00 -2.6605482185e+00 1.5360682301e+00 2.6605482185e+00 
12200 4.6899337925e+00 1.9259075191e-02 1.5354274136e+00 -2.6594382917e+00 1.5354274136e+00 2.6594382917e+00 
12300 4.6898755094e+00 1.8841493206e-02 1.5348002995e+00 -2.6583520982e+00 1.5348002995e+00 2.6583520982e+00 
12400 4.6898185279e+00 1.8435176389e-02 1.5341865311e+00 -2.6572890202e+00 1.5341865311e+00 2.6572890202e+00 
12500 4.6897628073e+00 1.8039914241e-02 1.5335857576e+00 -2.6562484500e+00 1.5335857576e+00 2.6562484500e+00 
12600 4.6897083102e+00 1.7655492434e-02 1.5329976340e+00 -2.6552297900e+00 1.5329976340e+00 2.6552297900e+00 
12700 4.6896550016e+00 1.7281693415e-02 1.5324218214e+00 -2.6542324533e+00 1.5324218214e+00 2.6542324533e+00 
12800 4.6896028492e+00 1.6918296982e-02 1.5318579873e+00 -2.6532558640e+00 1.5318579873e+00 2.6532558640e+00 
12900 4.6895518225e+00 1.6565080825e-02 1.5313058056e+00 -2.6522994572e+00 1.5313058056e+00 2.6522994572e+00 
13000 4.6895018935e+00 1.6221821036e-02 1.5307649565e+00 -2.6513626792e+00 1.5307649565e+00 2.6513626792e+00 
13100 4.6894530355e+00 1.5888292595e-02 1.5302351272e+00 -2.6504449878e+00 1.5302351272e+00 2.6504449878e+00 
13200 4.6894052236e+00 1.5564269827e-02 1.5297160111e+00 -2.6495458523e+00 1.5297160111e+00 2.6495458523e+00 
13300 4.6893584345e+00 1.5249526824e-02 1.5292073086e+00 -2.6486647538e+00 1.5292073086e+00 2.6486647538e+00 
13400 4.6893126459e+00 1.4943837849e-02 1.5287087268e+00 -2.6478011848e+00 1.5287087268e+00 2.6478011848e+00 
13500 4.6892678368e+00 1.4646977715e-02 1.5282199796e+00 -2.6469546499e+00 1.5282199796e+00 2.6469546499e+00 
13600 4.6892239871e+00 1.4358722129e-02 1.5277407878e+00 -2.6461246652e+00 1.5277407878e+00 2.6461246652e+00 
13700 4.6891810776e+00 1.4078848024e-02 1.5272708787e+00 -2.6453107588e+00 1.5272708787e+00 2.6453107588e+00 
13800 4.6891390901e+00 1.3807133861e-02 1.5268099866e+00 -2.6445124703e+00 1.5268099866e+00 2.6445124703e+00 
13900 4.6890980068e+00 1.3543359912e-02 1.5263578527e+00 -2.6437293514e+00 1.5263578527e+00 2.6437293514e+00 
14000 4.6890578107e+00 1.3287308519e-02 1.5259142246e+00 -2.6429609650e+00 1.5259142246e+00 2.6429609650e+00 
14100 4.6890184851e+00 1.3038764335e-02 1.5254788569e+00 -2.6422068860e+00 1.5254788569e+00 2.6422068860e+00 
14200 4.6889800140e+00 1.2797514546e-02 1.5250515106e+00 -2.6414667005e+00 1.5250515106e+00 2.6414667005e+00 
14300 4.6889423818e+00 1.2563349070e-02 1.5246319533e+00 -2.6407400060e+00 1.5246319533e+00 2.6407400060e+00 
14400 4.6889055729e+00 1.2336060741e-02 1.5242199594e+00 -2.6400264116e+00 1.5242199594e+00 2.6400264116e+00 
14500 4.6888695725e+00 1.2115445480e-02 1.5238153093e+00 -2.6393255371e+00 1.5238153093e+00 2.6393255371e+00 
14600 4.6888343657e+00 1.1901302439e-02 1.5234177900e+00 -2.6386370135e+00 1.5234177900e+00 2.6386370135e+00 
14700 4.6887999380e+00 1.1693434141e-02 1.5230271948e+00 -2.6379604828e+00 1.5230271948e+00 2.6379604828e+00 
14800 4.6887662750e+00 1.1491646597e-02 1.5226433231e+00 -2.6372955974e+00 1.5226433231e+00 2.6372955974e+00 
14900 4.6887333626e+00 1.1295749413e-02 1.5222659802e+00 -2.6366420204e+00 1.5222659802e+00 2.6366420204e+00 
15000 4.6887011868e+00 1.1105555880e-02 1.5218949777e+00 -2.6359994251e+00 1.5218949777e+00 2.6359994251e+00 
15100 4.6886697338e+00 1.0920883056e-02 1.5215301328e+00 -2.6353674953e+00 1.5215301328e+00 2.6353674953e+00 
15200 4.6886389897e+00 1.0741551834e-02 1.5211712686e+00 -2.6347459242e+00 1.5211712686e+00 2.6347459242e+00 
15300 4.6886089411e+00 1.0567386993e-02 1.5208182138e+00 -2.6341344154e+00 1.5208182138e+00 2.6341344154e+00 
15400 4.6885795745e+00 1.0398217250e-02 1.5204708026e+00 -2.6335326816e+00 1.5204708026e+00 2.6335326816e+00 
15500 4.6885508764e+00 1.0233875290e-02 1.5201288748e+00 -2.6329404451e+00 1.5201288748e+00 2.6329404451e+00 
15600 4.6885228338e+00 1.0074197795e-02 1.5197922751e+00 -2.6323574374e+00 1.5197922751e+00 2.6323574374e+00 
15700 4.6884954334e+00 9.9190254555e-03 1.5194608538e+00 -2.6317833988e+00 1.5194608538e+00 2.6317833988e+00 
15800 4.6884686622e+00 9.7682029855e-03 1.5191344659e+00 -2.6312180785e+00 1.5191344659e+00 2.6312180785e+00 
15900 4.6884425074e+00 9.6215791170e-03 1.5188129717e+00 -2.6306612343e+00 1.5188129717e+00 2.6306612343e+00 
16000 4.6884169562e+00 9.4790065953e-03 1.5184962361e+00 -2.6301126320e+00 1.5184962361e+00 2.6301126320e+00 
16100 4.6883919958e+00 9.3403421644e-03 1.5181841286e+00 -2.6295720459e+00 1.5181841286e+00 2.6295720459e+00 
16200 4.6883676139e+00 9.2054465466e-03 1.5178765234e+00 -2.6290392581e+00 1.5178765234e+00 2.6290392581e+00 
16300 4.6883437980e+00 9.0741844161e-03 1.5175732991e+00 -2.6285140582e+00 1.5175732991e+00 2.6285140582e+00 
16400 4.6883205359e+00 8.9464243672e-03 1.5172743387e+00 -2.6279962436e+00 1.5172743387e+00 2.6279962436e+00 
16500 4.6882978154e+00 8.8220388771e-03 1.5169795293e+00 -2.6274856188e+00 1.5169795293e+00 2.6274856188e+00 
16600 4.6882756246e+00 8.7009042646e-03 1.5166887621e+00 -2.6269819953e+00 1.5166887621e+00 2.6269819953e+00 
16700 4.6882539517e+00 8.5829006442e-03 1.5164019324e+00 -2.6264851915e+00 1.5164019324e+00 2.6264851915e+00 
16800 4.6882327850e+00 8.4679118761e-03 1.5161189390e+00 -2.6259950326e+00 1.5161189390e+00 2.6259950326e+00 
16900 4.6882121130e+00 8.3558255133e-03 1.5158396848e+00 -2.6255113502e+00 1.5158396848e+00 2.6255113502e+00 
17000 4.6881919245e+00 8.2465327449e-03 1.5155640761e+00 -2.6250339819e+00 1.5155640761e+00 2.6250339819e+00 
17100 4.6881722083e+00 8.1399283367e-03 1.5152920227e+00 -2.6245627716e+00 1.5152920227e+00 2.6245627716e+00 
17200 4.6881529534e+00 8.0359105697e-03 1.5150234379e+00 -2.6240975691e+00 1.5150234379e+00 2.6240975691e+00 
17300 4.6881341490e+00 7.9343811753e-03 1.5147582382e+00 -2.6236382297e+00 1.5147582382e+00 2.6236382297e+00 
17400 4.6881157846e+00 7.8352452696e-03 1.5144963432e+00 -2.6231846143e+00 1.5144963432e+00 2.6231846143e+00 
17500 4.6880978496e+00 7.7384112853e-03 1.5142376756e+00 -2.6227365889e+00 1.5142376756e+00 2.6227365889e+00 
17600 4.6880803340e+00 7.6437909025e-03 1.5139821611e+00 -2.6222940248e+00 1.5139821611e+00 2.6222940248e+00 
17700 4.6880632276e+00 7.5512989777e-03 1.5137297282e+00 -2.6218567982e+00 1.5137297282e+00 2.6218567982e+00 
17800 4.6880465206e+00 7.4608534723e-03 1.5134803081e+00 -2.6214247899e+00 1.5134803081e+00 2.6214247899e+00 
17900 4.6880302034e+00 7.3723753804e-03 1.5132338348e+00 -2.6209978856e+00 1.5132338348e+00 2.6209978856e+00 
18000 4.6880142665e+00 7.2857886550e-03 1.5129902446e+00 -2.6205759750e+00 1.5129902446e+00 2.6205759750e+00 
18100 4.6879987006e+00 7.2010201350e-03 1.5127494765e+00 -2.6201589525e+00 1.5127494765e+00 2.6201589525e+00 
18200 4.6879834968e+00 7.1179994710e-03 1.5125114718e+00 -2.6197467161e+00 1.5125114718e+00 2.6197467161e+00 
18300 4.6879686461e+00 7.0366590513e-03 1.5122761739e+00 -2.6193391683e+00 1.5122761739e+00 2.6193391683e+00 
18400 4.6879541399e+00 6.9569339283e-03 1.5120435286e+00 -2.6189362148e+00 1.5120435286e+00 2.6189362148e+00 
18500 4.6879399697e+00 6.8787617444e-03 1.5118134837e+00 -2.6185377654e+00 1.5118134837e+00 2.6185377654e+00 
18600 4.6879261272e+00 6.8020826584e-03 1.5115859891e+00 -2.6181437331e+00 1.5115859891e+00 2.6181437331e+00 
18700 4.6879126044e+00 6.7268392729e-03 1.5113609965e+00 -2.6177540345e+00 1.5113609965e+00 2.6177540345e+00 
18800 4.6878993934e+00 6.6529765612e-03 1.5111384595e+00 -2.6173685891e+00 1.5111384595e+00 2.6173685891e+00 
18900 4.6878864864e+00 6.5804417959e-03 1.5109183336e+00 -2.6169873198e+00 1.5109183336e+00 2.6169873198e+00 
19000 4.6878738759e+00 6.5091844774e-03 1.5107005758e+00 -2.6166101523e+00 1.5107005758e+00 2.6166101523e+00 
19100 4.6878615547e+00 6.4391562636e-03 1.5104851450e+00 -2.6162370152e+00 1.5104851450e+00 2.6162370152e+00 
19200 4.6878495155e+00 6.3703109004e-03 1.5102720014e+00 -2.6158678396e+00 1.5102720014e+00 2.6158678396e+00 
19300 4.6878377514e+00 6.3026041533e-03 1.5100611068e+00 -2.6155025596e+00 1.5100611068e+00 2.6155025596e+00 
19400 4.6878262557e+00 6.2359937398e-03 1.5098524246e+00 -2.6151411113e+00 1.5098524246e+00 2.6151411113e+00 
19500 4.6878150215e+00 6.1704392629e-03 1.5096459192e+00 -2.6147834336e+00 1.5096459192e+00 2.6147834336e+00 
19600 4.6878040426e+00 6.1059021460e-03 1.5094415568e+00 -2.6144294673e+00 1.5094415568e+00 2.6144294673e+00 
19700 4.6877933127e+00 6.0423455686e-03 1.5092393043e+00 -2.6140791558e+00 1.5092393043e+00 2.6140791558e+00 
19800 4.6877828255e+00 5.9797344033e-03 1.5090391302e+00 -2.6137324441e+00 1.5090391302e+00 2.6137324441e+00 
19900 4.6877725753e+00 5.9180351547e-03 1.5088410040e+00 -2.6133892795e+00 1.5088410040e+00 2.6133892795e+00 
20000 4.6877625560e+00 5.8572158984e-03 1.5086448963e+00 -2.6130496110e+00 1.5086448963e+00 2.6130496110e+00 
20100 4.6877527622e+00 5.7972462221e-03 1.5084507787e+00 -2.6127133894e+00 1.5084507787e+00 2.6127133894e+00 
20200 4.6877431882e+00 5.7380971682e-03 1.5082586238e+00 -2.6123805674e+00 1.5082586238e+00 2.6123805674e+00 
20300 4.6877338288e+00 5.6797411771e-03 1.5080684052e+00 -2.6120510992e+00 1.5080684052e+00 2.6120510992e+00 
20400 4.6877246787e+00 5.6221520321e-03 1.5078800974e+00 -2.6117249404e+00 1.5078800974e+00 2.6117249404e+00 
20500 4.6877157328e+00 5.5653048062e-03 1.5076936755e+00 -2.6114020483e+00 1.5076936755e+00 2.6114020483e+00 
20600 4.6877069863e+00 5.5091758090e-03 1.5075091158e+00 -2.6110823814e+00 1.5075091158e+00 2.6110823814e+00 
20700 4.6876984342e+00 5.4537425369e-03 1.5073263950e+00 -2.6107658997e+00 1.5073263950e+00 2.6107658997e+00 
20800 4.6876900720e+00 5.3989836224e-03 1.5071454908e+00 -2.6104525645e+00 1.5071454908e+00 2.6104525645e+00 
20900 4.6876818950e+00 5.3448787868e-03 1.5069663815e+00 -2.6101423380e+00 1.5069663815e+00 2.6101423380e+00 
21000 4.6876738989e+00 5.2914087930e-03 1.5067890459e+00 -2.6098351838e+00 1.5067890459e+00 2.6098351838e+00 
21100 4.6876660793e+00 5.2385554004e-03 1.5066134638e+00 -2.6095310666e+00 1.5066134638e+00 2.6095310666e+00 
21200 4.6876584319e+00 5.1863013202e-03 1.5064396151e+00 -2.6092299519e+00 1.5064396151e+00 2.6092299519e+00 
21300 4.6876509529e+00 5.1346301735e-03 1.5062674807e+00 -2.6089318063e+00 1.5062674807e+00 2.6089318063e+00 
21400 4.6876436380e+00 5.0835264492e-03 1.5060970417e+00 -2.6086365974e+00 1.5060970417e+00 2.6086365974e+00 
21500 4.6876364835e+00 5.0329754644e-03 1.5059282799e+00 -2.6083442934e+00 1.5059282799e+00 2.6083442934e+00 
21600 4.6876294856e+00 4.9829633253e-03 1.5057611776e+00 -2.6080548637e+00 1.5057611776e+00 2.6080548637e+00 
21700 4.6876226407e+00 4.9334768899e-03 1.5055957174e+00 -2.6077682782e+00 1.5055957174e+00 2.6077682782e+00 
21800 4.6876159450e+00 4.8845037316e-03 1.5054318823e+00 -2.6074845075e+00 1.5054318823e+00 2.6074845075e+00 
21900 4.6876093953e+00 4.8360321044e-03 1.5052696559e+00 -2.6072035231e+00 1.5052696559e+00 2.6072035231e+00 
22000 4.6876029880e+00 4.7880509089e-03 1.5051090220e+00 -2.6069252971e+00 1.5051090220e+00 2.6069252971e+00 
22100 4.6875967199e+00 4.7405496599e-03 1.5049499649e+00 -2.6066498021e+00 1.5049499649e+00 2.6066498021e+00 
22200 4.6875905877e+00 4.6935184549e-03 1.5047924691e+00 -2.6063770113e+00 1.5047924691e+00 2.6063770113e+00 
22300 4.6875845883e+00 4.6469479440e-03 1.5046365194e+00 -2.6061068985e+00 1.5046365194e+00 2.6061068985e+00 
22400 4.6875787187e+00 4.6008293004e-03 1.5044821011e+00 -2.6058394382e+00 1.5044821011e+00 2.6058394382e+00 
22500 4.6875729759e+00 4.5551541931e-03 1.5043291996e+00 -2.6055746050e+00 1.5043291996e+00 2.6055746050e+00 
22600 4.6875673569e+00 4.5099147592e-03 1.5041778006e+00 -2.6053123743e+00 1.5041778006e+00 2.6053123743e+00 
22700 4.6875618590e+00 4.4651035787e-03 1.5040278902e+00 -2.6050527218e+00 1.5040278902e+00 2.6050527218e+00 
22800 4.6875564794e+00 4.4207136492e-03 1.5038794544e+00 -2.6047956235e+00 1.5038794544e+00 2.6047956235e+00 
22900 4.6875512154e+00 4.3767383623e-03 1.5037324798e+00 -2.6045410561e+00 1.5037324798e+00 2.6045410561e+00 
23000 4.6875460643e+00 4.3331714807e-03 1.5035869530e+00 -2.6042889962e+00 1.5035869530e+00 2.6042889962e+00 
23100 4.6875410237e+00 4.2900071164e-03 1.5034428608e+00 -2.6040394213e+00 1.5034428608e+00 2.6040394213e+00 
23200 4.6875360911e+00 4.2472397095e-03 1.5033001903e+00 -2.6037923087e+00 1.5033001903e+00 2.6037923087e+00 
23300 4.6875312639e+00 4.2048640087e-03 1.5031589287e+00 -2.6035476363e+00 1.5031589287e+00 2.6035476363e+00 
23400 4.6875265399e+00 4.1628750514e-03 1.5030190633e+00 -2.6033053823e+00 1.5030190633e+00 2.6033053823e+00 
23500 4.6875219167e+00 4.1212681459e-03 1.5028805816e+00 -2.6030655251e+00 1.5028805816e+00 2.6030655251e+00 
23600 4.6875173921e+00 4.0800388539e-03 1.5027434714e+00 -2.6028280432e+00 1.5027434714e+00 2.6028280432e+00 
23700 4.6875129639e+00 4.0391829736e-03 1.5026077205e+00 -2.6025929157e+00 1.5026077205e+00 2.6025929157e+00 
23800 4.6875086299e+00 3.9986965238e-03 1.5024733167e+00 -2.6023601215e+00 1.5024733167e+00 2.6023601215e+00 
23900 4.6875043880e+00 3.9585757291e-03 1.5023402482e+00 -2.6021296401e+00 1.5023402482e+00 2.6021296401e+00 
24000 4.6875002363e+00 3.9188170050e-03 1.5022085031e+00 -2.6019014510e+00 1.5022085031e+00 2.6019014510e+00 
24100 4.6874961726e+00 3.8794169447e-03 1.5020780698e+00 -2.6016755339e+00 1.5020780698e+00 2.6016755339e+00 
24200 4.6874921950e+00 3.8403723057e-03 1.5019489367e+00 -2.6014518687e+00 1.5019489367e+00 2.6014518687e+00 
24300 4.6874883017e+00 3.8016799976e-03 1.5018210922e+00 -2.6012304356e+00 1.5018210922e+00 2.6012304356e+00 
24400 4.6874844908e+00 3.7633370704e-03 1.5016945250e+00 -2.6010112147e+00 1.5016945250e+00 2.6010112147e+00 
24500 4.6874807604e+00 3.7253407034e-03 1.5015692237e+00 -2.6007941865e+00 1.5015692237e+00 2.6007941865e+00 
24600 4.6874771088e+00 3.6876881945e-03 1.5014451772e+00 -2.6005793316e+00 1.5014451772e+00 2.6005793316e+00 
24700 4.6874735343e+00 3.6503769506e-03 1.5013223742e+00 -2.6003666307e+00 1.5013223742e+00 2.6003666307e+00 
24800 4.6874700352e+00 3.6134044778e-03 1.5012008038e+00 -2.6001560645e+00 1.5012008038e+00 2.6001560645e+00 
24900 4.6874666098e+00 3.5767683730e-03 1.5010804549e+00 -2.5999476142e+00 1.5010804549e+00 2.5999476142e+00 
25000 4.6874632565e+00 3.5404663152e-03 1.5009613167e+00 -2.5997412607e+00 1.5009613167e+00 2.5997412607e+00 
25100 4.6874599737e+00 3.5044960578e-03 1.5008433783e+00 -2.5995369854e+00 1.5008433783e+00 2.5995369854e+00 
25200 4.6874567600e+00 3.4688554212e-03 1.5007266289e+00 -2.5993347696e+00 1.5007266289e+00 2.5993347696e+00 
25300 4.6874536138e+00 3.4335422858e-03 1.5006110579e+00 -2.5991345946e+00 1.5006110579e+00 2.5991345946e+00 
25400 4.6874505335e+00 3.3985545855e-03 1.5004966545e+00 -2.5989364422e+00 1.5004966545e+00 2.5989364422e+00 
25500 4.6874475179e+00 3.3638903019e-03 1.5003834083e+00 -2.5987402940e+00 1.5003834083e+00 2.5987402940e+00 
25600 4.6874445655e+00 3.3295474580e-03 1.5002713087e+00 -2.5985461317e+00 1.5002713087e+00 2.5985461317e+00 
25700 4.6874416749e+00 3.2955241135e-03 1.5001603452e+00 -2.5983539374e+00 1.5001603452e+00 2.5983539374e+00 
25800 4.6874388448e+00 3.2618183597e-03 1.5000505075e+00 -2.5981636929e+00 1.5000505075e+00 2.5981636929e+00 
25900 4.6874360738e+00 3.2284283145e-03 1.4999417852e+00 -2.5979753803e+00 1.4999417852e+00 2.5979753803e+00 
26000 4.6874333608e+00 3.1953521188e-03 1.4998341680e+00 -2.5977889819e+00 1.4998341680e+00 2.5977889819e+00 
26100 4.6874307044e+00 3.1625879321e-03 1.4997276457e+00 -2.5976044799e+00 1.4997276457e+00 2.5976044799e+00 
26200 4.6874281034e+00 3.1301339287e-03 1.4996222082e+00 -2.5974218568e+00 1.4996222082e+00 2.5974218568e+00 
26300 4.6874255567e+00 3.0979882951e-03 1.4995178454e+00 -2.5972410950e+00 1.4995178454e+00 2.5972410950e+00 
26400 4.6874230630e+00 3.0661492260e-03 1.4994145471e+00 -2.5970621771e+00 1.4994145471e+00 2.5970621771e+00 
26500 4.6874206212e+00 3.0346149222e-03 1.4993123034e+00 -2.5968850858e+00 1.4993123034e+00 2.5968850858e+00 
26600 4.6874182303e+00 3.0033835875e-03 1.4992111043e+00 -2.5967098039e+00 1.4992111043e+00 2.5967098039e+00 
26700 4.6874158890e+00 2.9724534267e-03 1.4991109399e+00 -2.5965363141e+00 1.4991109399e+00 2.5965363141e+00 
26800 4.6874135964e+00 2.9418226434e-03 1.4990118005e+00 -2.5963645995e+00 1.4990118005e+00 2.5963645995e+00 
26900 4.6874113515e+00 2.9114894380e-03 1.4989136761e+00 -2.5961946432e+00 1.4989136761e+00 2.5961946432e+00 
27000 4.6874091531e+00 2.8814520061e-03 1.4988165572e+00 -2.5960264283e+00 1.4988165572e+00 2.5960264283e+00 
27100 4.6874070003e+00 2.8517085369e-03 1.4987204340e+00 -2.5958599380e+00 1.4987204340e+00 2.5958599380e+00 
27200 4.6874048921e+00 2.8222572120e-03 1.4986252969e+00 -2.5956951557e+00 1.4986252969e+00 2.5956951557e+00 
27300 4.6874028275e+00 2.7930962039e-03 1.4985311363e+00 -2.5955320649e+00 1.4985311363e+00 2.5955320649e+00 
27400 4.6874008057e+00 2.7642236756e-03 1.4984379428e+00 -2.5953706490e+00 1.4984379428e+00 2.5953706490e+00 
27500 4.6873988257e+00 2.7356377790e-03 1.4983457069e+00 -2.5952108917e+00 1.4983457069e+00 2.5952108917e+00 
27600 4.6873968867e+00 2.7073366546e-03 1.4982544193e+00 -2.5950527768e+00 1.4982544193e+00 2.5950527768e+00 
27700 4.6873949877e+00 2.6793184311e-03 1.4981640705e+00 -2.5948962881e+00 1.4981640705e+00 2.5948962881e+00 
27800 4.6873931279e+00 2.6515812243e-03 1.4980746513e+00 -2.5947414096e+00 1.4980746513e+00 2.5947414096e+00 
27900 4.6873913064e+00 2.6241231373e-03 1.4979861525e+00 -2.5945881252e+00 1.4979861525e+00 2.5945881252e+00 
28000 4.6873895226e+00 2.5969422602e-03 1.4978985650e+00 -2.5944364192e+00 1.4978985650e+00 2.5944364192e+00 
28100 4.6873877755e+00 2.5700366694e-03 1.4978118797e+00 -2.5942862758e+00 1.4978118797e+00 2.5942862758e+00 
28200 4.6873860643e+00 2.5434044284e-03 1.4977260875e+00 -2.5941376793e+00 1.4977260875e+00 2.5941376793e+00 
28300 4.6873843884e+00 2.5170435872e-03 1.4976411794e+00 -2.5939906142e+00 1.4976411794e+00 2.5939906142e+00 
28400 4.6873827470e+00 2.4909521825e-03 1.4975571466e+00 -2.5938450651e+00 1.4975571466e+00 2.5938450651e+00 
28500 4.6873811393e+00 2.4651282382e-03 1.4974739802e+00 -2.5937010167e+00 1.4974739802e+00 2.5937010167e+00 
28600 4.6873795646e+00 2.4395697653e-03 1.4973916714e+00 -2.5935584536e+00 1.4973916714e+00 2.5935584536e+00 
28700 4.6873780223e+00 2.4142747623e-03 1.4973102115e+00 -2.5934173609e+00 1.4973102115e+00 2.5934173609e+00 
28800 4.6873765116e+00 2.3892412158e-03 1.4972295918e+00 -2.5932777236e+00 1.4972295918e+00 2.5932777236e+00 
28900 4.6873750319e+00 2.3644671007e-03 1.4971498038e+00 -2.5931395267e+00 1.4971498038e+00 2.5931395267e+00 
29000 4.6873735825e+00 2.3399503805e-03 1.4970708388e+00 -2.5930027554e+00 1.4970708388e+00 2.5930027554e+00 
29100 4.6873721629e+00 2.3156890082e-03 1.4969926886e+00 -2.5928673952e+00 1.4969926886e+00 2.5928673952e+00 
29200 4.6873707722e+00 2.2916809267e-03 1.4969153445e+00 -2.5927334314e+00 1.4969153445e+00 2.5927334314e+00 
29300 4.6873694101e+00 2.2679240692e-03 1.4968387984e+00 -2.5926008496e+00 1.4968387984e+00 2.5926008496e+00 
29400 4.6873680758e+00 2.2444163601e-03 1.4967630419e+00 -2.5924696355e+00 1.4967630419e+00 2.5924696355e+00 
29500 4.6873667688e+00 2.2211557154e-03 1.4966880669e+00 -2.5923397749e+00 1.4966880669e+00 2.5923397749e+00 
29600 4.6873654884e+00 2.1981400436e-03 1.4966138651e+00 -2.5922112537e+00 1.4966138651e+00 2.5922112537e+00 
29700 4.6873642343e+00 2.1753672460e-03 1.4965404286e+00 -2.5920840579e+00 1.4965404286e+00 2.5920840579e+00 
29800 4.6873630057e+00 2.1528352179e-03 1.4964677493e+00 -2.5919581737e+00 1.4964677493e+00 2.5919581737e+00 
29900 4.6873618022e+00 2.1305418488e-03 1.4963958194e+00 -2.5918335874e+00 1.4963958194e+00 2.5918335874e+00 
30000 4.6873606232e+00 2.1084850236e-03 1.4963246308e+00 -2.5917102852e+00 1.4963246308e+00 2.5917102852e+00 
30100 4.6873594682e+00 2.0866626229e-03 1.4962541759e+00 -2.5915882537e+00 1.4962541759e+00 2.5915882537e+00 
30200 4.6873583368e+00 2.0650725240e-03 1.4961844469e+00 -2.5914674795e+00 1.4961844469e+00 2.5914674795e+00 
30300 4.6873572283e+00 2.0437126015e-03 1.4961154361e+00 -2.5913479493e+00 1.4961154361e+00 2.5913479493e+00 
30400 4.6873561425e+00 2.0225807282e-03 1.4960471360e+00 -2.5912296501e+00 1.4960471360e+00 2.5912296501e+00 
30500 4.6873550787e+00 2.0016747757e-03 1.4959795390e+00 -2.5911125687e+00 1.4959795390e+00 2.5911125687e+00 
30600 4.6873540365e+00 1.9809926150e-03 1.4959126377e+00 -2.5909966922e+00 1.4959126377e+00 2.5909966922e+00 
30700 4.6873530155e+00 1.9605321175e-03 1.4958464247e+00 -2.5908820079e+00 1.4958464247e+00 2.5908820079e+00 
30800 4.6873520153e+00 1.9402911558e-03 1.4957808926e+00 -2.5907685030e+00 1.4957808926e+00 2.5907685030e+00 
30900 4.6873510353e+00 1.9202676039e-03 1.4957160343e+00 -2.5906561651e+00 1.4957160343e+00 2.5906561651e+00 
31000 4.6873500752e+00 1.9004593384e-03 1.4956518425e+00 -2.5905449816e+00 1.4956518425e+00 2.5905449816e+00 
31100 4.6873491346e+00 1.8808642391e-03 1.4955883101e+00 -2.5904349404e+00 1.4955883101e+00 2.5904349404e+00 
31200 4.6873482131e+00 1.8614801893e-03 1.4955254302e+00 -2.5903260291e+00 1.4955254302e+00 2.5903260291e+00 
31300 4.6873473102e+00 1.8423050772e-03 1.4954631956e+00 -2.5902182356e+00 1.4954631956e+00 2.5902182356e+00 
31400 4.6873464256e+00 1.8233367958e-03 1.4954015996e+00 -2.5901115482e+00 1.4954015996e+00 2.5901115482e+00 
31500 4.6873455589e+00 1.8045732440e-03 1.4953406352e+00 -2.5900059548e+00 1.4953406352e+00 2.5900059548e+00 
31600 4.6873447098e+00 1.7860123271e-03 1.4952802957e+00 -2.5899014437e+00 1.4952802957e+00 2.5899014437e+00 
31700 4.6873438778e+00 1.7676519575e-03 1.4952205745e+00 -2.5897980035e+00 1.4952205745e+00 2.5897980035e+00 
31800 4.6873430626e+00 1.7494900552e-03 1.4951614648e+00 -2.5896956225e+00 1.4951614648e+00 2.5896956225e+00 
31900 4.6873422639e+00 1.7315245481e-03 1.4951029601e+00 -2.5895942895e+00 1.4951029601e+00 2.5895942895e+00 
32000 4.6873414814e+00 1.7137533734e-03 1.4950450539e+00 -2.5894939930e+00 1.4950450539e+00 2.5894939930e+00 
32100 4.6873407146e+00 1.6961744771e-03 1.4949877399e+00 -2.5893947222e+00 1.4949877399e+00 2.5893947222e+00 
32200 4.6873399633e+00 1.6787858154e-03 1.4949310115e+00 -2.5892964658e+00 1.4949310115e+00 2.5892964658e+00 
32300 4.6873392272e+00 1.6615853546e-03 1.4948748626e+00 -2.5891992130e+00 1.4948748626e+00 2.5891992130e+00 
32400 4.6873385059e+00 1.6445710719e-03 1.4948192869e+00 -2.5891029530e+00 1.4948192869e+00 2.5891029530e+00 
32500 4.6873377991e+00 1.6277409559e-03 1.4947642782e+00 -2.5890076752e+00 1.4947642782e+00 2.5890076752e+00 
32600 4.6873371066e+00 1.6110930068e-03 1.4947098304e+00 -2.5889133689e+00 1.4947098304e+00 2.5889133689e+00 
32700 4.6873364280e+00 1.5946252372e-03 1.4946559376e+00 -2.5888200237e+00 1.4946559376e+00 2.5888200237e+00 
32800 4.6873357631e+00 1.5783356720e-03 1.4946025937e+00 -2.5887276294e+00 1.4946025937e+00 2.5887276294e+00 
32900 4.6873351116e+00 1.5622223494e-03 1.4945497928e+00 -2.5886361756e+00 1.4945497928e+00 2.5886361756e+00 
33000 4.6873344732e+00 1.5462833209e-03 1.4944975291e+00 -2.5885456523e+00 1.4944975291e+00 2.5885456523e+00 
33100 4.6873338476e+00 1.5305166516e-03 1.4944457969e+00 -2.5884560494e+00 1.4944457969e+00 2.5884560494e+00 
33200 4.6873332346e+00 1.5149204210e-03 1.4943945904e+00 -2.5883673570e+00 1.4943945904e+00 2.5883673570e+00 
33300 4.6873326339e+00 1.4994927225e-03 1.4943439039e+00 -2.5882795655e+00 1.4943439039e+00 2.5882795655e+00 
33400 4.6873320453e+00 1.4842316647e-03 1.4942937319e+00 -2.5881926651e+00 1.4942937319e+00 2.5881926651e+00 
33500 4.6873314685e+00 1.4691353711e-03 1.4942440688e+00 -2.5881066461e+00 1.4942440688e+00 2.5881066461e+00 
33600 4.6873309033e+00 1.4542019801e-03 1.4941949093e+00 -2.5880214993e+00 1.4941949093e+00 2.5880214993e+00 
33700 4.6873303495e+00 1.4394296461e-03 1.4941462478e+00 -2.5879372152e+00 1.4941462478e+00 2.5879372152e+00 
33800 4.6873298067e+00 1.4248165390e-03 1.4940980791e+00 -2.5878537845e+00 1.4940980791e+00 2.5878537845e+00 
33900 4.6873292748e+00 1.4103608447e-03 1.4940503979e+00 -2.5877711982e+00 1.4940503979e+00 2.5877711982e+00 
34000 4.6873287536e+00 1.3960607653e-03 1.4940031989e+00 -2.5876894472e+00 1.4940031989e+00 2.5876894472e+00 
34100 4.6873282429e+00 1.3819145192e-03 1.4939564770e+00 -2.5876085224e+00 1.4939564770e+00 2.5876085224e+00 
34200 4.6873277423e+00 1.3679203414e-03 1.4939102271e+00 -2.5875284152e+00 1.4939102271e+00 2.5875284152e+00 
34300 4.6873272518e+00 1.3540764836e-03 1.4938644441e+00 -2.5874491168e+00 1.4938644441e+00 2.5874491168e+00 
34400 4.6873267712e+00 1.3403812141e-03 1.4938191231e+00 -2.5873706184e+00 1.4938191231e+00 2.5873706184e+00 
34500 4.6873263001e+00 1.3268328183e-03 1.4937742590e+00 -2.5872929117e+00 1.4937742590e+00 2.5872929117e+00 
34600 4.6873258385e+00 1.3134295988e-03 1.4937298472e+00 -2.5872159881e+00 1.4937298472e+00 2.5872159881e+00 
34700 4.6873253861e+00 1.3001698751e-03 1.4936858826e+00 -2.5871398392e+00 1.4936858826e+00 2.5871398392e+00 
34800 4.6873249427e+00 1.2870519839e-03 1.4936423606e+00 -2.5870644569e+00 1.4936423606e+00 2.5870644569e+00 
34900 4.6873245082e+00 1.2740742794e-03 1.4935992765e+00 -2.5869898330e+00 1.4935992765e+00 2.5869898330e+00 
35000 4.6873240824e+00 1.2612351331e-03 1.4935566256e+00 -2.5869159594e+00 1.4935566256e+00 2.5869159594e+00 
35100 4.6873236651e+00 1.2485329336e-03 1.4935144032e+00 -2.5868428282e+00 1.4935144032e+00 2.5868428282e+00 
35200 4.6873232562e+00 1.2359660874e-03 1.4934726049e+00 -2.5867704314e+00 1.4934726049e+00 2.5867704314e+00 
35300 4.6873228554e+00 1.2235330180e-03 1.4934312262e+00 -2.5866987613e+00 1.4934312262e+00 2.5866987613e+00 
35400 4.6873224626e+00 1.2112321666e-03 1.4933902625e+00 -2.5866278102e+00 1.4933902625e+00 2.5866278102e+00 
35500 4.6873220777e+00 1.1990619917e-03 1.4933497096e+00 -2.5865575705e+00 1.4933497096e+00 2.5865575705e+00 
35600 4.6873217004e+00 1.1870209694e-03 1.4933095631e+00 -2.5864880347e+00 1.4933095631e+00 2.5864880347e+00 
35700 4.6873213307e+00 1.1751075930e-03 1.4932698186e+00 -2.5864191952e+00 1.4932698186e+00 2.5864191952e+00 
35800 4.6873209683e+00 1.1633203733e-03 1.4932304720e+00 -2.5863510449e+00 1.4932304720e+00 2.5863510449e+00 
35900 4.6873206132e+00 1.1516578383e-03 1.4931915190e+00 -2.5862835764e+00 1.4931915190e+00 2.5862835764e+00 
36000 4.6873202651e+00 1.1401185335e-03 1.4931529555e+00 -2.5862167825e+00 1.4931529555e+00 2.5862167825e+00 
36100 4.6873199240e+00 1.1287010214e-03 1.4931147775e+00 -2.5861506561e+00 1.4931147775e+00 2.5861506561e+00 
36200 4.6873195897e+00 1.1174038817e-03 1.4930769808e+00 -2.5860851903e+00 1.4930769808e+00 2.5860851903e+00 
36300 4.6873192620e+00 1.1062257113e-03 1.4930395614e+00 -2.5860203781e+00 1.4930395614e+00 2.5860203781e+00 
36400 4.6873189409e+00 1.0951651238e-03 1.4930025155e+00 -2.5859562127e+00 1.4930025155e+00 2.5859562127e+00 
36500 4.6873186261e+00 1.0842207500e-03 1.4929658391e+00 -2.5858926872e+00 1.4929658391e+00 2.5858926872e+00 
36600 4.6873183176e+00 1.0733912374e-03 1.4929295282e+00 -2.5858297950e+00 1.4929295282e+00 2.5858297950e+00 
36700 4.6873180153e+00 1.0626752500e-03 1.4928935792e+00 -2.5857675295e+00 1.4928935792e+00 2.5857675295e+00 
36800 4.6873177190e+00 1.0520714687e-03 1.4928579882e+00 -2.5857058841e+00 1.4928579882e+00 2.5857058841e+00 
36900 4.6873174285e+00 1.0415785906e-03 1.4928227515e+00 -2.5856448524e+00 1.4928227515e+00 2.5856448524e+00 
37000 4.6873171439e+00 1.0311953294e-03 1.4927878655e+00 -2.5855844279e+00 1.4927878655e+00 2.5855844279e+00 
37100 4.6873168649e+00 1.0209204148e-03 1.4927533264e+00 -2.5855246044e+00 1.4927533264e+00 2.5855246044e+00 
37200 4.6873165914e+00 1.0107525927e-03 1.4927191306e+00 -2.5854653756e+00 1.4927191306e+00 2.5854653756e+00 
37300 4.6873163234e+00 1.0006906249e-03 1.4926852746e+00 -2.5854067354e+00 1.4926852746e+00 2.5854067354e+00 
37400 4.6873160607e+00 9.9073328916e-04 1.4926517550e+00 -2.5853486776e+00 1.4926517550e+00 2.5853486776e+00 
37500 4.6873158033e+00 9.8087937869e-04 1.4926185681e+00 -2.5852911962e+00 1.4926185681e+00 2.5852911962e+00 
37600 4.6873155509e+00 9.7112770241e-04 1.4925857105e+00 -2.5852342853e+00 1.4925857105e+00 2.5852342853e+00 
37700 4.6873153036e+00 9.6147708454e-04 1.4925531789e+00 -2.5851779389e+00 1.4925531789e+00 2.5851779389e+00 
37800 4.6873150611e+00 9.5192636457e-04 1.4925209699e+00 -2.5851221512e+00 1.4925209699e+00 2.5851221512e+00 
37900 4.6873148235e+00 9.4247439702e-04 1.4924890801e+00 -2.5850669165e+00 1.4924890801e+00 2.5850669165e+00 
38000 4.6873145906e+00 9.3312005135e-04 1.4924575063e+00 -2.5850122291e+00 1.4924575063e+00 2.5850122291e+00 
38100 4.6873143623e+00 9.2386221178e-04 1.4924262452e+00 -2.5849580833e+00 1.4924262452e+00 2.5849580833e+00 
38200 4.6873141386e+00 9.1469977710e-04 1.4923952936e+00 -2.5849044736e+00 1.4923952936e+00 2.5849044736e+00 
38300 4.6873139192e+00 9.0563166054e-04 1.4923646484e+00 -2.5848513944e+00 1.4923646484e+00 2.5848513944e+00 
38400 4.6873137043e+00 8.9665678959e-04 1.4923343063e+00 -2.5847988404e+00 1.4923343063e+00 2.5847988404e+00 
38500 4.6873134936e+00 8.8777410584e-04 1.4923042643e+00 -2.5847468062e+00 1.4923042643e+00 2.5847468062e+00 
38600 4.6873132870e+00 8.7898256480e-04 1.4922745194e+00 -2.5846952864e+00 1.4922745194e+00 2.5846952864e+00 
38700 4.6873130846e+00 8.7028113574e-04 1.4922450684e+00 -2.5846442757e+00 1.4922450684e+00 2.5846442757e+00 
38800 4.6873128862e+00 8.6166880151e-04 1.4922159083e+00 -2.5845937691e+00 1.4922159083e+00 2.5845937691e+00 
38900 4.6873126917e+00 8.5314455841e-04 1.4921870363e+00 -2.5845437613e+00 1.4921870363e+00 2.5845437613e+00 
39000 4.6873125010e+00 8.4470741594e-04 1.4921584493e+00 -2.5844942472e+00 1.4921584493e+00 2.5844942472e+00 
39100 4.6873123142e+00 8.3635639672e-04 1.4921301445e+00 -2.5844452218e+00 1.4921301445e+00 2.5844452218e+00 
39200 4.6873121310e+00 8.2809053624e-04 1.4921021190e+00 -2.5843966803e+00 1.4921021190e+00 2.5843966803e+00 
39300 4.6873119515e+00 8.1990888274e-04 1.4920743700e+00 -2.5843486175e+00 1.4920743700e+00 2.5843486175e+00 
39400 4.6873117755e+00 8.1181049701e-04 1.4920468946e+00 -2.5843010288e+00 1.4920468946e+00 2.5843010288e+00 
39500 4.6873116030e+00 8.0379445224e-04 1.4920196901e+00 -2.5842539092e+00 1.4920196901e+00 2.5842539092e+00 
39600 4.6873114339e+00 7.9585983384e-04 1.4919927537e+00 -2.5842072540e+00 1.4919927537e+00 2.5842072540e+00 
39700 4.6873112682e+00 7.8800573925e-04 1.4919660828e+00 -2.5841610585e+00 1.4919660828e+00 2.5841610585e+00 
39800 4.6873111057e+00 7.8023127783e-04 1.4919396746e+00 -2.5841153182e+00 1.4919396746e+00 2.5841153182e+00 
39900 4.6873109465e+00 7.7253557060e-04 1.4919135264e+00 -2.5840700282e+00 1.4919135264e+00 2.5840700282e+00 
40000 4.6873107904e+00 7.6491775017e-04 1.4918876357e+00 -2.5840251843e+00 1.4918876357e+00 2.5840251843e+00 
40100 4.6873106374e+00 7.5737696049e-04 1.4918619999e+00 -2.5839807817e+00 1.4918619999e+00 2.5839807817e+00 
40200 4.6873104874e+00 7.4991235675e-04 1.4918366164e+00 -2.5839368161e+00 1.4918366164e+00 2.5839368161e+00 
40300 4.6873103403e+00 7.4252310516e-04 1.4918114826e+00 -2.5838932831e+00 1.4918114826e+00 2.5838932831e+00 
40400 4.6873101962e+00 7.3520838284e-04 1.4917865960e+00 -2.5838501783e+00 1.4917865960e+00 2.5838501783e+00 
40500 4.6873100550e+00 7.2796737761e-04 1.4917619542e+00 -2.5838074975e+00 1.4917619542e+00 2.5838074975e+00 
40600 4.6873099165e+00 7.2079928786e-04 1.4917375547e+00 -2.5837652363e+00 1.4917375547e+00 2.5837652363e+00 
40700 4.6873097808e+00 7.1370332238e-04 1.4917133950e+00 -2.5837233905e+00 1.4917133950e+00 2.5837233905e+00 
40800 4.6873096477e+00 7.0667870020e-04 1.4916894728e+00 -2.5836819560e+00 1.4916894728e+00 2.5836819560e+00 
40900 4.6873095173e+00 6.9972465044e-04 1.4916657857e+00 -2.5836409287e+00 1.4916657857e+00 2.5836409287e+00 
41000 4.6873093894e+00 6.9284041216e-04 1.4916423313e+00 -2.5836003045e+00 1.4916423313e+00 2.5836003045e+00 
41100 4.6873092641e+00 6.8602523418e-04 1.4916191073e+00 -2.5835600793e+00 1.4916191073e+00 2.5835600793e+00 
41200 4.6873091412e+00 6.7927837496e-04 1.4915961113e+00 -2.5835202492e+00 1.4915961113e+00 2.5835202492e+00 
41300 4.6873090208e+00 6.7259910246e-04 1.4915733412e+00 -2.5834808102e+00 1.4915733412e+00 2.5834808102e+00 
41400 4.6873089028e+00 6.6598669393e-04 1.4915507946e+00 -2.5834417584e+00 1.4915507946e+00 2.5834417584e+00 
41500 4.6873087870e+00 6.5944043585e-04 1.4915284694e+00 -2.5834030899e+00 1.4915284694e+00 2.5834030899e+00 
41600 4.6873086736e+00 6.5295962371e-04 1.4915063632e+00 -2.5833648009e+00 1.4915063632e+00 2.5833648009e+00 
41700 4.6873085624e+00 6.4654356191e-04 1.4914844740e+00 -2.5833268877e+00 1.4914844740e+00 2.5833268877e+00 
41800 4.6873084534e+00 6.4019156362e-04 1.4914627996e+00 -2.5832893465e+00 1.4914627996e+00 2.5832893465e+00 
41900 4.6873083465e+00 6.3390295063e-04 1.4914413378e+00 -2.5832521735e+00 1.4914413378e+00 2.5832521735e+00 
42000 4.6873082418e+00 6.2767705320e-04 1.4914200865e+00 -2.5832153652e+00 1.4914200865e+00 2.5832153652e+00 
42100 4.6873081391e+00 6.2151320996e-04 1.4913990436e+00 -2.5831789178e+00 1.4913990436e+00 2.5831789178e+00 
42200 4.6873080385e+00 6.1541076776e-04 1.4913782070e+00 -2.5831428279e+00 1.4913782070e+00 2.5831428279e+00 
42300 4.6873079398e+00 6.0936908152e-04 1.4913575748e+00 -2.5831070918e+00 1.4913575748e+00 2.5831070918e+00 
42400 4.6873078431e+00 6.0338751415e-04 1.4913371448e+00 -2.5830717061e+00 1.4913371448e+00 2.5830717061e+00 
42500 4.6873077483e+00 5.9746543637e-04 1.4913169151e+00 -2.5830366672e+00 1.4913169151e+00 2.5830366672e+00 
42600 4.6873076553e+00 5.9160222663e-04 1.4912968837e+00 -2.5830019717e+00 1.4912968837e+00 2.5830019717e+00 
42700 4.6873075642e+00 5.8579727096e-04 1.4912770486e+00 -2.5829676163e+00 1.4912770486e+00 2.5829676163e+00 
42800 4.6873074749e+00 5.8004996285e-04 1.4912574078e+00 -2.5829335975e+00 1.4912574078e+00 2.5829335975e+00 
42900 4.6873073873e+00 5.7435970316e-04 1.4912379595e+00 -2.5828999121e+00 1.4912379595e+00 2.5828999121e+00 
43000 4.6873073015e+00 5.6872589997e-04 1.4912187018e+00 -2.5828665566e+00 1.4912187018e+00 2.5828665566e+00 
43100 4.6873072173e+00 5.6314796848e-04 1.4911996326e+00 -2.5828335279e+00 1.4911996326e+00 2.5828335279e+00 
43200 4.6873071349e+00 5.5762533090e-04 1.4911807503e+00 -2.5828008228e+00 1.4911807503e+00 2.5828008228e+00 
43300 4.6873070540e+00 5.5215741635e-04 1.4911620529e+00 -2.5827684379e+00 1.4911620529e+00 2.5827684379e+00 
43400 4.6873069747e+00 5.4674366072e-04 1.4911435386e+00 -2.5827363702e+00 1.4911435386e+00 2.5827363702e+00 
43500 4.6873068970e+00 5.4138350659e-04 1.4911252056e+00 -2.5827046165e+00 1.4911252056e+00 2.5827046165e+00 
43600 4.6873068209e+00 5.3607640312e-04 1.4911070521e+00 -2.5826731738e+00 1.4911070521e+00 2.5826731738e+00 
43700 4.6873067462e+00 5.3082180594e-04 1.4910890764e+00 -2.5826420389e+00 1.4910890764e+00 2.5826420389e+00 
43800 4.6873066730e+00 5.2561917705e-04 1.4910712766e+00 -2.5826112088e+00 1.4910712766e+00 2.5826112088e+00 
43900 4.6873066012e+00 5.2046798474e-04 1.4910536511e+00 -2.5825806805e+00 1.4910536511e+00 2.5825806805e+00 
44000 4.6873065309e+00 5.1536770347e-04 1.4910361981e+00 -2.5825504510e+00 1.4910361981e+00 2.5825504510e+00 
44100 4.6873064619e+00 5.1031781379e-04 1.4910189159e+00 -2.5825205174e+00 1.4910189159e+00 2.5825205174e+00 
44200 4.6873063943e+00 5.0531780221e-04 1.4910018029e+00 -2.5824908768e+00 1.4910018029e+00 2.5824908768e+00 
44300 4.6873063280e+00 5.0036716118e-04 1.4909848573e+00 -2.5824615262e+00 1.4909848573e+00 2.5824615262e+00 
44400 4.6873062631e+00 4.9546538893e-04 1.4909680776e+00 -2.5824324629e+00 1.4909680776e+00 2.5824324629e+00 
44500 4.6873061994e+00 4.9061198943e-04 1.4909514621e+00 -2.5824036840e+00 1.4909514621e+00 2.5824036840e+00 
44600 4.6873061369e+00 4.8580647225e-04 1.4909350091e+00 -2.5823751866e+00 1.4909350091e+00 2.5823751866e+00 
44700 4.6873060757e+00 4.8104835254e-04 1.4909187172e+00 -2.5823469681e+00 1.4909187172e+00 2.5823469681e+00 
44800 4.6873060157e+00 4.7633715091e-04 1.4909025846e+00 -2.5823190256e+00 1.4909025846e+00 2.5823190256e+00 
44900 4.6873059569e+00 4.7167239335e-04 1.4908866098e+00 -2.5822913565e+00 1.4908866098e+00 2.5822913565e+00 
45000 4.6873058992e+00 4.6705361113e-04 1.4908707913e+00 -2.5822639581e+00 1.4908707913e+00 2.5822639581e+00 
45100 4.6873058427e+00 4.6248034079e-04 1.4908551276e+00 -2.5822368277e+00 1.4908551276e+00 2.5822368277e+00 
45200 4.6873057873e+00 4.5795212398e-04 1.4908396170e+00 -2.5822099626e+00 1.4908396170e+00 2.5822099626e+00 
45300 4.6873057330e+00 4.5346850744e-04 1.4908242582e+00 -2.5821833603e+00 1.4908242582e+00 2.5821833603e+00 
45400 4.6873056797e+00 4.4902904291e-04 1.4908090496e+00 -2.5821570182e+00 1.4908090496e+00 2.5821570182e+00 
45500 4.6873056275e+00 4.4463328707e-04 1.4907939897e+00 -2.5821309337e+00 1.4907939897e+00 2.5821309337e+00 
45600 4.6873055763e+00 4.4028080141e-04 1.4907790771e+00 -2.5821051043e+00 1.4907790771e+00 2.5821051043e+00 
45700 4.6873055261e+00 4.3597115226e-04 1.4907643103e+00 -2.5820795275e+00 1.4907643103e+00 2.5820795275e+00 
45800 4.6873054769e+00 4.3170391064e-04 1.4907496879e+00 -2.5820542008e+00 1.4907496879e+00 2.5820542008e+00 
45900 4.6873054287e+00 4.2747865223e-04 1.4907352085e+00 -2.5820291218e+00 1.4907352085e+00 2.5820291218e+00 
46000 4.6873053814e+00 4.2329495729e-04 1.4907208707e+00 -2.5820042879e+00 1.4907208707e+00 2.5820042879e+00 
46100 4.6873053351e+00 4.1915241062e-04 1.4907066730e+00 -2.5819796969e+00 1.4907066730e+00 2.5819796969e+00 
46200 4.6873052896e+00 4.1505060145e-04 1.4906926142e+00 -2.5819553463e+00 1.4906926142e+00 2.5819553463e+00 
46300 4.6873052451e+00 4.1098912343e-04 1.4906786928e+00 -2.5819312337e+00 1.4906786928e+00 2.5819312337e+00 
46400 4.6873052014e+00 4.0696757455e-04 1.4906649076e+00 -2.5819073569e+00 1.4906649076e+00 2.5819073569e+00 
46500 4.6873051586e+00 4.0298555707e-04 1.4906512570e+00 -2.5818837136e+00 1.4906512570e+00 2.5818837136e+00 
46600 4.6873051167e+00 3.9904267747e-04 1.4906377400e+00 -2.5818603013e+00 1.4906377400e+00 2.5818603013e+00 
46700 4.6873050755e+00 3.9513854640e-04 1.4906243550e+00 -2.5818371179e+00 1.4906243550e+00 2.5818371179e+00 
46800 4.6873050352e+00 3.9127277862e-04 1.4906111009e+00 -2.5818141611e+00 1.4906111009e+00 2.5818141611e+00 
46900 4.6873049957e+00 3.8744499294e-04 1.4905979763e+00 -2.5817914287e+00 1.4905979763e+00 2.5817914287e+00 
47000 4.6873049569e+00 3.8365481217e-04 1.4905849801e+00 -2.5817689185e+00 1.4905849801e+00 2.5817689185e+00 
47100 4.6873049189e+00 3.7990186307e-04 1.4905721108e+00 -2.5817466283e+00 1.4905721108e+00 2.5817466283e+00 
47200 4.6873048816e+00 3.7618577630e-04 1.4905593673e+00 -2.5817245559e+00 1.4905593673e+00 2.5817245559e+00 
47300 4.6873048451e+00 3.7250618636e-04 1.4905467484e+00 -2.5817026993e+00 1.4905467484e+00 2.5817026993e+00 
47400 4.6873048093e+00 3.6886273156e-04 1.4905342528e+00 -2.5816810563e+00 1.4905342528e+00 2.5816810563e+00 
47500 4.6873047742e+00 3.6525505395e-04 1.4905218793e+00 -2.5816596248e+00 1.4905218793e+00 2.5816596248e+00 
47600 4.6873047398e+00 3.6168279928e-04 1.4905096268e+00 -2.5816384027e+00 1.4905096268e+00 2.5816384027e+00 
47700 4.6873047061e+00 3.5814561696e-04 1.4904974939e+00 -2.5816173880e+00 1.4904974939e+00 2.5816173880e+00 
47800 4.6873046730e+00 3.5464316000e-04 1.4904854796e+00 -2.5815965787e+00 1.4904854796e+00 2.5815965787e+00 
47900 4.6873046406e+00 3.5117508499e-04 1.4904735827e+00 -2.5815759727e+00 1.4904735827e+00 2.5815759727e+00 
48000 4.6873046088e+00 3.4774105204e-04 1.4904618021e+00 -2.5815555680e+00 1.4904618021e+00 2.5815555680e+00 
48100 4.6873045776e+00 3.4434072472e-04 1.4904501366e+00 -2.5815353627e+00 1.4904501366e+00 2.5815353627e+00 
48200 4.6873045471e+00 3.4097377005e-04 1.4904385850e+00 -2.5815153548e+00 1.4904385850e+00 2.5815153548e+00 
48300 4.6873045172e+00 3.3763985844e-04 1.4904271463e+00 -2.5814955424e+00 1.4904271463e+00 2.5814955424e+00 
48400 4.6873044878e+00 3.3433866365e-04 1.4904158194e+00 -2.5814759236e+00 1.4904158194e+00 2.5814759236e+00 
48500 4.6873044590e+00 3.3106986277e-04 1.4904046031e+00 -2.5814564964e+00 1.4904046031e+00 2.5814564964e+00 
48600 4.6873044308e+00 3.2783313614e-04 1.4903934964e+00 -2.5814372591e+00 1.4903934964e+00 2.5814372591e+00 
48700 4.6873044031e+00 3.2462816734e-04 1.4903824982e+00 -2.5814182096e+00 1.4903824982e+00 2.5814182096e+00 
48800 4.6873043760e+00 3.2145464317e-04 1.4903716075e+00 -2.5813993463e+00 1.4903716075e+00 2.5813993463e+00 
48900 4.6873043494e+00 3.1831225356e-04 1.4903608231e+00 -2.5813806672e+00 1.4903608231e+00 2.5813806672e+00 
49000 4.6873043234e+00 3.1520069159e-04 1.4903501441e+00 -2.5813621706e+00 1.4903501441e+00 2.5813621706e+00 
49100 4.6873042978e+00 3.1211965341e-04 1.4903395694e+00 -2.5813438547e+00 1.4903395694e+00 2.5813438547e+00 
49200 4.6873042728e+00 3.0906883823e-04 1.4903290980e+00 -2.5813257177e+00 1.4903290980e+00 2.5813257177e+00 
49300 4.6873042482e+00 3.0604794828e-04 1.4903187288e+00 -2.5813077578e+00 1.4903187288e+00 2.5813077578e+00 
49400 4.6873042242e+00 3.0305668877e-04 1.4903084610e+00 -2.5812899734e+00 1.4903084610e+00 2.5812899734e+00 
49500 4.6873042006e+00 3.0009476785e-04 1.4902982934e+00 -2.5812723626e+00 1.4902982934e+00 2.5812723626e+00 
49600 4.6873041774e+00 2.9716189662e-04 1.4902882251e+00 -2.5812549239e+00 1.4902882251e+00 2.5812549239e+00 
49700 4.6873041547e+00 2.9425778902e-04 1.4902782552e+00 -2.5812376554e+00 1.4902782552e+00 2.5812376554e+00 
49800 4.6873041325e+00 2.9138216189e-04 1.4902683826e+00 -2.5812205556e+00 1.4902683826e+00 2.5812205556e+00 
49900 4.6873041107e+00 2.8853473486e-04 1.4902586065e+00 -2.5812036228e+00 1.4902586065e+00 2.5812036228e+00 
50000 4.6873040893e+00 2.8571523035e-04 1.4902489258e+00 -2.5811868554e+00 1.4902489258e+00 2.5811868554e+00 
50100 4.6873040684e+00 2.8292337357e-04 1.4902393396e+00 -2.5811702517e+00 1.4902393396e+00 2.5811702517e+00 
50200 4.6873040478e+00 2.8015889243e-04 1.4902298471e+00 -2.5811538101e+00 1.4902298471e+00 2.5811538101e+00 
50300 4.6873040277e+00 2.7742151757e-04 1.4902204473e+00 -2.5811375291e+00 1.4902204473e+00 2.5811375291e+00 
50400 4.6873040080e+00 2.7471098227e-04 1.4902111392e+00 -2.5811214071e+00 1.4902111392e+00 2.5811214071e+00 
50500 4.6873039886e+00 2.7202702247e-04 1.4902019220e+00 -2.5811054425e+00 1.4902019220e+00 2.5811054425e+00 
50600 4.6873039696e+00 2.6936937673e-04 1.4901927949e+00 -2.5810896338e+00 1.4901927949e+00 2.5810896338e+00 
50700 4.6873039510e+00 2.6673778621e-04 1.4901837568e+00 -2.5810739794e+00 1.4901837568e+00 2.5810739794e+00 
50800 4.6873039328e+00 2.6413199460e-04 1.4901748070e+00 -2.5810584778e+00 1.4901748070e+00 2.5810584778e+00 
50900 4.6873039149e+00 2.6155174815e-04 1.4901659445e+00 -2.5810431276e+00 1.4901659445e+00 2.5810431276e+00 
51000 4.6873038974e+00 2.5899679559e-04 1.4901571686e+00 -2.5810279273e+00 1.4901571686e+00 2.5810279273e+00 
51100 4.6873038802e+00 2.5646688818e-04 1.4901484784e+00 -2.5810128754e+00 1.4901484784e+00 2.5810128754e+00 
51200 4.6873038634e+00 2.5396177958e-04 1.4901398730e+00 -2.5809979704e+00 1.4901398730e+00 2.5809979704e+00 
51300 4.6873038469e+00 2.5148122592e-04 1.4901313516e+00 -2.5809832109e+00 1.4901313516e+00 2.5809832109e+00 
51400 4.6873038307e+00 2.4902498572e-04 1.4901229133e+00 -2.5809685954e+00 1.4901229133e+00 2.5809685954e+00 
51500 4.6873038148e+00 2.4659281988e-04 1.4901145575e+00 -2.5809541227e+00 1.4901145575e+00 2.5809541227e+00 
51600 4.6873037992e+00 2.4418449166e-04 1.4901062832e+00 -2.5809397912e+00 1.4901062832e+00 2.5809397912e+00 
51700 4.6873037840e+00 2.4179976666e-04 1.4900980897e+00 -2.5809255996e+00 1.4900980897e+00 2.5809255996e+00 
51800 4.6873037690e+00 2.3943841277e-04 1.4900899762e+00 -2.5809115466e+00 1.4900899762e+00 2.5809115466e+00 
51900 4.6873037544e+00 2.3710020019e-04 1.4900819418e+00 -2.5808976306e+00 1.4900819418e+00 2.5808976306e+00 
52000 4.6873037400e+00 2.3478490136e-04 1.4900739859e+00 -2.5808838506e+00 1.4900739859e+00 2.5808838506e+00 
52100 4.6873037259e+00 2.3249229097e-04 1.4900661076e+00 -2.5808702050e+00 1.4900661076e+00 2.5808702050e+00 
52200 4.6873037121e+00 2.3022214593e-04 1.4900583062e+00 -2.5808566925e+00 1.4900583062e+00 2.5808566925e+00 
52300 4.6873036986e+00 2.2797424534e-04 1.4900505809e+00 -2.5808433120e+00 1.4900505809e+00 2.5808433120e+00 
52400 4.6873036853e+00 2.2574837047e-04 1.4900429310e+00 -2.5808300620e+00 1.4900429310e+00 2.5808300620e+00 
52500 4.6873036723e+00 2.2354430475e-04 1.4900353558e+00 -2.5808169413e+00 1.4900353558e+00 2.5808169413e+00 
52600 4.6873036595e+00 2.2136183373e-04 1.4900278545e+00 -2.5808039487e+00 1.4900278545e+00 2.5808039487e+00 
52700 4.6873036470e+00 2.1920074509e-04 1.4900204264e+00 -2.5807910828e+00 1.4900204264e+00 2.5807910828e+00 
52800 4.6873036348e+00 2.1706082855e-04 1.4900130708e+00 -2.5807783425e+00 1.4900130708e+00 2.5807783425e+00 
52900 4.6873036227e+00 2.1494187596e-04 1.4900057869e+00 -2.5807657265e+00 1.4900057869e+00 2.5807657265e+00 
53000 4.6873036110e+00 2.1284368117e-04 1.4899985741e+00 -2.5807532336e+00 1.4899985741e+00 2.5807532336e+00 
53100 4.6873035994e+00 2.1076604007e-04 1.4899914317e+00 -2.5807408626e+00 1.4899914317e+00 2.5807408626e+00 
53200 4.6873035881e+00 2.0870875056e-04 1.4899843590e+00 -2.5807286123e+00 1.4899843590e+00 2.5807286123e+00 
53300 4.6873035770e+00 2.0667161253e-04 1.4899773553e+00 -2.5807164815e+00 1.4899773553e+00 2.5807164815e+00 
53400 4.6873035661e+00 2.0465442783e-04 1.4899704199e+00 -2.5807044691e+00 1.4899704199e+00 2.5807044691e+00 
53500 4.6873035554e+00 2.0265700025e-04 1.4899635522e+00 -2.5806925738e+00 1.4899635522e+00 2.5806925738e+00 
53600 4.6873035450e+00 2.0067913553e-04 1.4899567515e+00 -2.5806807946e+00 1.4899567515e+00 2.5806807946e+00 
53700 4.6873035347e+00 1.9872064130e-04 1.4899500171e+00 -2.5806691303e+00 1.4899500171e+00 2.5806691303e+00 
53800 4.6873035247e+00 1.9678132710e-04 1.4899433484e+00 -2.5806575798e+00 1.4899433484e+00 2.5806575798e+00 
53900 4.6873035148e+00 1.9486100433e-04 1.4899367447e+00 -2.5806461419e+00 1.4899367447e+00 2.5806461419e+00 
54000 4.6873035051e+00 1.9295948623e-04 1.4899302055e+00 -2.5806348156e+00 1.4899302055e+00 2.5806348156e+00 
54100 4.6873034957e+00 1.9107658792e-04 1.4899237300e+00 -2.5806235998e+00 1.4899237300e+00 2.5806235998e+00 
54200 4.6873034864e+00 1.8921212629e-04 1.4899173177e+00 -2.5806124934e+00 1.4899173177e+00 2.5806124934e+00 
54300 4.6873034773e+00 1.8736592005e-04 1.4899109680e+00 -2.5806014953e+00 1.4899109680e+00 2.5806014953e+00 
54400 4.6873034683e+00 1.8553778971e-04 1.4899046802e+00 -2.5805906045e+00 1.4899046802e+00 2.5805906045e+00 
54500 4.6873034596e+00 1.8372755753e-04 1.4898984537e+00 -2.5805798199e+00 1.4898984537e+00 2.5805798199e+00 
54600 4.6873034510e+00 1.8193504751e-04 1.4898922879e+00 -2.5805691405e+00 1.4898922879e+00 2.5805691405e+00 
54700 4.6873034426e+00 1.8016008539e-04 1.4898861823e+00 -2.5805585652e+00 1.4898861823e+00 2.5805585652e+00 
54800 4.6873034344e+00 1.7840249864e-04 1.4898801362e+00 -2.5805480930e+00 1.4898801362e+00 2.5805480930e+00 
54900 4.6873034263e+00 1.7666211640e-04 1.4898741490e+00 -2.5805377230e+00 1.4898741490e+00 2.5805377230e+00 
55000 4.6873034184e+00 1.7493876950e-04 1.4898682203e+00 -2.5805274541e+00 1.4898682203e+00 2.5805274541e+00 
55100 4.6873034106e+00 1.7323229046e-04 1.4898623493e+00 -2.5805172853e+00 1.4898623493e+00 2.5805172853e+00 
55200 4.6873034030e+00 1.7154251341e-04 1.4898565356e+00 -2.5805072157e+00 1.4898565356e+00 2.5805072157e+00 
55300 4.6873033955e+00 1.6986927414e-04 1.4898507786e+00 -2.5804972443e+00 1.4898507786e+00 2.5804972443e+00 
55400 4.6873033882e+00 1.6821241005e-04 1.4898450778e+00 -2.5804873701e+00 1.4898450778e+00 2.5804873701e+00 
55500 4.6873033810e+00 1.6657176014e-04 1.4898394325e+00 -2.5804775921e+00 1.4898394325e+00 2.5804775921e+00 
55600 4.6873033740e+00 1.6494716500e-04 1.4898338422e+00 -2.5804679095e+00 1.4898338422e+00 2.5804679095e+00 
55700 4.6873033671e+00 1.6333846677e-04 1.4898283064e+00 -2.5804583213e+00 1.4898283064e+00 2.5804583213e+00 
55800 4.6873033604e+00 1.6174550919e-04 1.4898228247e+00 -2.5804488266e+00 1.4898228247e+00 2.5804488266e+00 
55900 4.6873033537e+00 1.6016813748e-04 1.4898173963e+00 -2.5804394244e+00 1.4898173963e+00 2.5804394244e+00 
56000 4.6873033472e+00 1.5860619844e-04 1.4898120209e+00 -2.5804301139e+00 1.4898120209e+00 2.5804301139e+00 
56100 4.6873033409e+00 1.5705954035e-04 1.4898066979e+00 -2.5804208942e+00 1.4898066979e+00 2.5804208942e+00 
56200 4.6873033346e+00 1.5552801298e-04 1.4898014267e+00 -2.5804117643e+00 1.4898014267e+00 2.5804117643e+00 
56300 4.6873033285e+00 1.5401146761e-04 1.4897962070e+00 -2.5804027234e+00 1.4897962070e+00 2.5804027234e+00 
56400 4.6873033225e+00 1.5250975697e-04 1.4897910381e+00 -2.5803937707e+00 1.4897910381e+00 2.5803937707e+00 
56500 4.6873033166e+00 1.5102273522e-04 1.4897859196e+00 -2.5803849052e+00 1.4897859196e+00 2.5803849052e+00 
56600 4.6873033109e+00 1.4955025801e-04 1.4897808510e+00 -2.5803761261e+00 1.4897808510e+00 2.5803761261e+00 
56700 4.6873033052e+00 1.4809218236e-04 1.4897758318e+00 -2.5803674326e+00 1.4897758318e+00 2.5803674326e+00 
56800 4.6873032997e+00 1.4664836673e-04 1.4897708615e+00 -2.5803588238e+00 1.4897708615e+00 2.5803588238e+00 
56900 4.6873032942e+00 1.4521867097e-04 1.4897659397e+00 -2.5803502989e+00 1.4897659397e+00 2.5803502989e+00 
57000 4.6873032889e+00 1.4380295632e-04 1.4897610658e+00 -2.5803418571e+00 1.4897610658e+00 2.5803418571e+00 
57100 4.6873032837e+00 1.4240108537e-04 1.4897562394e+00 -2.5803334976e+00 1.4897562394e+00 2.5803334976e+00 
57200 4.6873032786e+00 1.4101292209e-04 1.4897514601e+00 -2.5803252196e+00 1.4897514601e+00 2.5803252196e+00 
57300 4.6873032736e+00 1.3963833177e-04 1.4897467273e+00 -2.5803170222e+00 1.4897467273e+00 2.5803170222e+00 
57400 4.6873032686e+00 1.3827718104e-04 1.4897420407e+00 -2.5803089047e+00 1.4897420407e+00 2.5803089047e+00 
57500 4.6873032638e+00 1.3692933786e-04 1.4897373997e+00 -2.5803008663e+00 1.4897373997e+00 2.5803008663e+00 
57600 4.6873032591e+00 1.3559467147e-04 1.4897328040e+00 -2.5802929062e+00 1.4897328040e+00 2.5802929062e+00 
57700 4.6873032545e+00 1.3427305241e-04 1.4897282530e+00 -2.5802850237e+00 1.4897282530e+00 2.5802850237e+00 
57800 4.6873032499e+00 1.3296435250e-04 1.4897237464e+00 -2.5802772180e+00 1.4897237464e+00 2.5802772180e+00 
57900 4.6873032455e+00 1.3166844483e-04 1.4897192837e+00 -2.5802694883e+00 1.4897192837e+00 2.5802694883e+00 
58000 4.6873032411e+00 1.3038520372e-04 1.4897148644e+00 -2.5802618340e+00 1.4897148644e+00 2.5802618340e+00 
58100 4.6873032368e+00 1.2911450478e-04 1.4897104882e+00 -2.5802542542e+00 1.4897104882e+00 2.5802542542e+00 
58200 4.6873032326e+00 1.2785622479e-04 1.4897061547e+00 -2.5802467483e+00 1.4897061547e+00 2.5802467483e+00 
58300 4.6873032285e+00 1.2661024178e-04 1.4897018634e+00 -2.5802393155e+00 1.4897018634e+00 2.5802393155e+00 
58400 4.6873032245e+00 1.2537643499e-04 1.4896976139e+00 -2.5802319551e+00 1.4896976139e+00 2.5802319551e+00 
58500 4.6873032206e+00 1.2415468483e-04 1.4896934058e+00 -2.5802246665e+00 1.4896934058e+00 2.5802246665e+00 
58600 4.6873032167e+00 1.2294487291e-04 1.4896892386e+00 -2.5802174488e+00 1.4896892386e+00 2.5802174488e+00 
58700 4.6873032129e+00 1.2174688200e-04 1.4896851121e+00 -2.5802103014e+00 1.4896851121e+00 2.5802103014e+00 
58800 4.6873032092e+00 1.2056059603e-04 1.4896810258e+00 -2.5802032237e+00 1.4896810258e+00 2.5802032237e+00 
58900 4.6873032055e+00 1.1938590008e-04 1.4896769793e+00 -2.5801962149e+00 1.4896769793e+00 2.5801962149e+00 
59000 4.6873032019e+00 1.1822268036e-04 1.4896729722e+00 -2.5801892744e+00 1.4896729722e+00 2.5801892744e+00 
59100 4.6873031984e+00 1.1707082421e-04 1.4896690041e+00 -2.5801824015e+00 1.4896690041e+00 2.5801824015e+00 
59200 4.6873031950e+00 1.1593022008e-04 1.4896650747e+00 -2.5801755956e+00 1.4896650747e+00 2.5801755956e+00 
59300 4.6873031916e+00 1.1480075752e-04 1.4896611835e+00 -2.5801688559e+00 1.4896611835e+00 2.5801688559e+00 
59400 4.6873031883e+00 1.1368232717e-04 1.4896573303e+00 -2.5801621819e+00 1.4896573303e+00 2.5801621819e+00 
59500 4.6873031851e+00 1.1257482075e-04 1.4896535145e+00 -2.5801555729e+00 1.4896535145e+00 2.5801555729e+00 
59600 4.6873031819e+00 1.1147813107e-04 1.4896497360e+00 -2.5801490282e+00 1.4896497360e+00 2.5801490282e+00 
59700 4.6873031788e+00 1.1039215197e-04 1.4896459942e+00 -2.5801425473e+00 1.4896459942e+00 2.5801425473e+00 
59800 4.6873031758e+00 1.0931677835e-04 1.4896422889e+00 -2.5801361295e+00 1.4896422889e+00 2.5801361295e+00 
59900 4.6873031728e+00 1.0825190615e-04 1.4896386197e+00 -2.5801297742e+00 1.4896386197e+00 2.5801297742e+00 
60000 4.6873031698e+00 1.0719743235e-04 1.4896349862e+00 -2.5801234808e+00 1.4896349862e+00 2.5801234808e+00 
60100 4.6873031670e+00 1.0615325492e-04 1.4896313881e+00 -2.5801172487e+00 1.4896313881e+00 2.5801172487e+00 
60200 4.6873031641e+00 1.0511927286e-04 1.4896278250e+00 -2.5801110773e+00 1.4896278250e+00 2.5801110773e+00 
60300 4.6873031614e+00 1.0409538616e-04 1.4896242966e+00 -2.5801049660e+00 1.4896242966e+00 2.5801049660e+00 
60400 4.6873031587e+00 1.0308149580e-04 1.4896208026e+00 -2.5800989142e+00 1.4896208026e+00 2.5800989142e+00 
60500 4.6873031560e+00 1.0207750374e-04 1.4896173426e+00 -2.5800929213e+00 1.4896173426e+00 2.5800929213e+00 
60600 4.6873031534e+00 1.0108331290e-04 1.4896139163e+00 -2.5800869868e+00 1.4896139163e+00 2.5800869868e+00 
60700 4.6873031509e+00 1.0009882717e-04 1.4896105234e+00 -2.5800811100e+00 1.4896105234e+00 2.5800811100e+00 
60800 4.6873031484e+00 9.9123951380e-05 1.4896071635e+00 -2.5800752905e+00 1.4896071635e+00 2.5800752905e+00 
60900 4.6873031459e+00 9.8158591306e-05 1.4896038363e+00 -2.5800695277e+00 1.4896038363e+00 2.5800695277e+00 
61000 4.6873031435e+00 9.7202653652e-05 1.4896005415e+00 -2.5800638209e+00 1.4896005415e+00 2.5800638209e+00 
61100 4.6873031412e+00 9.6256046043e-05 1.4895972788e+00 -2.5800581697e+00 1.4895972788e+00 2.5800581697e+00 
61200 4.6873031389e+00 9.5318677018e-05 1.4895940479e+00 -2.5800525736e+00 1.4895940479e+00 2.5800525736e+00 
61300 4.6873031366e+00 9.4390456019e-05 1.4895908484e+00 -2.5800470319e+00 1.4895908484e+00 2.5800470319e+00 
61400 4.6873031344e+00 9.3471293379e-05 1.4895876801e+00 -2.5800415442e+00 1.4895876801e+00 2.5800415442e+00 
61500 4.6873031322e+00 9.2561100319e-05 1.4895845426e+00 -2.5800361099e+00 1.4895845426e+00 2.5800361099e+00 
61600 4.6873031301e+00 9.1659788938e-05 1.4895814356e+00 -2.5800307285e+00 1.4895814356e+00 2.5800307285e+00 
61700 4.6873031280e+00 9.0767272200e-05 1.4895783589e+00 -2.5800253995e+00 1.4895783589e+00 2.5800253995e+00 
61800 4.6873031260e+00 8.9883463929e-05 1.4895753122e+00 -2.5800201224e+00 1.4895753122e+00 2.5800201224e+00 
61900 4.6873031239e+00 8.9008278798e-05 1.4895722951e+00 -2.5800148967e+00 1.4895722951e+00 2.5800148967e+00 
62000 4.6873031220e+00 8.8141632326e-05 1.4895693074e+00 -2.5800097218e+00 1.4895693074e+00 2.5800097218e+00 
62100 4.6873031201e+00 8.7283440862e-05 1.4895663488e+00 -2.5800045973e+00 1.4895663488e+00 2.5800045973e+00 
62200 4.6873031182e+00 8.6433621583e-05 1.4895634190e+00 -2.5799995227e+00 1.4895634190e+00 2.5799995227e+00 
62300 4.6873031163e+00 8.5592092481e-05 1.4895605176e+00 -2.5799944975e+00 1.4895605176e+00 2.5799944975e+00 
62400 4.6873031145e+00 8.4758772360e-05 1.4895576446e+00 -2.5799895212e+00 1.4895576446e+00 2.5799895212e+00 
62500 4.6873031127e+00 8.3933580821e-05 1.4895547995e+00 -2.5799845934e+00 1.4895547995e+00 2.5799845934e+00 
62600 4.6873031110e+00 8.3116438263e-05 1.4895519821e+00 -2.5799797135e+00 1.4895519821e+00 2.5799797135e+00 
62700 4.6873031093e+00 8.2307265866e-05 1.4895491921e+00 -2.5799748811e+00 1.4895491921e+00 2.5799748811e+00 
62800 4.6873031076e+00 8.1505985589e-05 1.4895464293e+00 -2.5799700957e+00 1.4895464293e+00 2.5799700957e+00 
62900 4.6873031059e+00 8.0712520162e-05 1.4895436933e+00 -2.5799653570e+00 1.4895436933e+00 2.5799653570e+00 
63000 4.6873031043e+00 7.9926793073e-05 1.4895409840e+00 -2.5799606643e+00 1.4895409840e+00 2.5799606643e+00 
63100 4.6873031028e+00 7.9148728569e-05 1.4895383011e+00 -2.5799560173e+00 1.4895383011e+00 2.5799560173e+00 
63200 4.6873031012e+00 7.8378251642e-05 1.4895356443e+00 -2.5799514156e+00 1.4895356443e+00 2.5799514156e+00 
63300 4.6873030997e+00 7.7615288022e-05 1.4895330133e+00 -2.5799468586e+00 1.4895330133e+00 2.5799468586e+00 
63400 4.6873030982e+00 7.6859764173e-05 1.4895304080e+00 -2.5799423460e+00 1.4895304080e+00 2.5799423460e+00 
63500 4.6873030967e+00 7.6111607284e-05 1.4895278280e+00 -2.5799378773e+00 1.4895278280e+00 2.5799378773e+00 
63600 4.6873030953e+00 7.5370745259e-05 1.4895252731e+00 -2.5799334521e+00 1.4895252731e+00 2.5799334521e+00 
63700 4.6873030939e+00 7.4637106714e-05 1.4895227431e+00 -2.5799290700e+00 1.4895227431e+00 2.5799290700e+00 
63800 4.6873030925e+00 7.3910620970e-05 1.4895202377e+00 -2.5799247305e+00 1.4895202377e+00 2.5799247305e+00 
63900 4.6873030912e+00 7.3191218042e-05 1.4895177566e+00 -2.5799204333e+00 1.4895177566e+00 2.5799204333e+00 
64000 4.6873030899e+00 7.2478828634e-05 1.4895152998e+00 -2.5799161778e+00 1.4895152998e+00 2.5799161778e+00 
64100 4.6873030886e+00 7.1773384136e-05 1.4895128668e+00 -2.5799119638e+00 1.4895128668e+00 2.5799119638e+00 
64200 4.6873030873e+00 7.1074816609e-05 1.4895104575e+00 -2.5799077908e+00 1.4895104575e+00 2.5799077908e+00 
64300 4.6873030861e+00 7.0383058786e-05 1.4895080717e+00 -2.5799036584e+00 1.4895080717e+00 2.5799036584e+00 
64400 4.6873030851e+00 7.1008789486e-05 1.4895080717e+00 -2.5799036584e+00 1.4895080717e+00 2.5799036584e+00 
64500 4.6873030839e+00 7.0314379162e-05 1.4895056880e+00 -2.5798995298e+00 1.4895056880e+00 2.5798995298e+00 
64600 4.6873030829e+00 7.0935830738e-05 1.4895056880e+00 -2.5798995298e+00 1.4895056880e+00 2.5798995298e+00 
64700 4.6873030818e+00 7.0238158172e-05 1.4895033068e+00 -2.5798954055e+00 1.4895033068e+00 2.5798954055e+00 
64800 4.6873030809e+00 7.0854633385e-05 1.4895033068e+00 -2.5798954055e+00 1.4895033068e+00 2.5798954055e+00 
64900 4.6873030798e+00 7.0153191977e-05 1.4895009284e+00 -2.5798912859e+00 1.4895009284e+00 2.5798912859e+00 
65000 4.6873030789e+00 7.0764068135e-05 1.4895009284e+00 -2.5798912859e+00 1.4895009284e+00 2.5798912859e+00 
65100 4.6873030778e+00 7.0058442807e-05 1.4894985530e+00 -2.5798871715e+00 1.4894985530e+00 2.5798871715e+00 
65200 4.6873030770e+00 7.0663164070e-05 1.4894985530e+00 -2.5798871715e+00 1.4894985530e+00 2.5798871715e+00 
65300 4.6873030762e+00 7.1268890347e-05 1.4894985530e+00 -2.5798871715e+00 1.4894985530e+00 2.5798871715e+00 
65400 4.6873030752e+00 7.0548190446e-05 1.4894961606e+00 -2.5798830278e+00 1.4894961606e+00 2.5798830278e+00 
65500 4.6873030744e+00 7.1146620083e-05 1.4894961606e+00 -2.5798830278e+00 1.4894961606e+00 2.5798830278e+00 
65600 4.6873030734e+00 7.0420714908e-05 1.4894937723e+00 -2.5798788912e+00 1.4894937723e+00 2.5798788912e+00 
65700 4.6873030727e+00 7.1011465850e-05 1.4894937723e+00 -2.5798788912e+00 1.4894937723e+00 2.5798788912e+00 
65800 4.6873030717e+00 7.0280234304e-05 1.4894913886e+00 -2.5798747624e+00 1.4894913886e+00 2.5798747624e+00 
65900 4.6873030710e+00 7.0862968369e-05 1.4894913886e+00 -2.5798747624e+00 1.4894913886e+00 2.5798747624e+00 
66000 4.6873030701e+00 7.0126339985e-05 1.4894890098e+00 -2.5798706423e+00 1.4894890098e+00 2.5798706423e+00 
66100 4.6873030694e+00 7.0700759421e-05 1.4894890098e+00 -2.5798706423e+00 1.4894890098e+00 2.5798706423e+00 
66200 4.6873030687e+00 7.1275197004e-05 1.4894890098e+00 -2.5798706423e+00 1.4894890098e+00 2.5798706423e+00 
66300 4.6873030679e+00 7.0522239411e-05 1.4894866172e+00 -2.5798664982e+00 1.4894866172e+00 2.5798664982e+00 
66400 4.6873030672e+00 7.1087565459e-05 1.4894866172e+00 -2.5798664982e+00 1.4894866172e+00 2.5798664982e+00 
66500 4.6873030664e+00 7.0328903737e-05 1.4894842309e+00 -2.5798623649e+00 1.4894842309e+00 2.5798623649e+00 
66600 4.6873030658e+00 7.0884942519e-05 1.4894842309e+00 -2.5798623649e+00 1.4894842309e+00 2.5798623649e+00 
66700 4.6873030650e+00 7.0120692573e-05 1.4894818514e+00 -2.5798582435e+00 1.4894818514e+00 2.5798582435e+00 
66800 4.6873030644e+00 7.0667295838e-05 1.4894818514e+00 -2.5798582435e+00 1.4894818514e+00 2.5798582435e+00 
66900 4.6873030638e+00 7.1213408228e-05 1.4894818514e+00 -2.5798582435e+00 1.4894818514e+00 2.5798582435e+00 
67000 4.6873030630e+00 7.0432855190e-05 1.4894794608e+00 -2.5798541030e+00 1.4894794608e+00 2.5798541030e+00 
67100 4.6873030625e+00 7.0968938377e-05 1.4894794608e+00 -2.5798541030e+00 1.4894794608e+00 2.5798541030e+00 
67200 4.6873030617e+00 7.0182879321e-05 1.4894770785e+00 -2.5798499766e+00 1.4894770785e+00 2.5798499766e+00 
67300 4.6873030612e+00 7.0708880634e-05 1.4894770785e+00 -2.5798499766e+00 1.4894770785e+00 2.5798499766e+00 
67400 4.6873030607e+00 7.1234104732e-05 1.4894770785e+00 -2.5798499766e+00 1.4894770785e+00 2.5798499766e+00 
67500 4.6873030600e+00 7.0432049322e-05 1.4894746872e+00 -2.5798458349e+00 1.4894746872e+00 2.5798458349e+00 
67600 4.6873030595e+00 7.0946727650e-05 1.4894746872e+00 -2.5798458349e+00 1.4894746872e+00 2.5798458349e+00 
67700 4.6873030588e+00 7.0139484954e-05 1.4894723056e+00 -2.5798417098e+00 1.4894723056e+00 2.5798417098e+00 
67800 4.6873030584e+00 7.0643643772e-05 1.4894723056e+00 -2.5798417098e+00 1.4894723056e+00 2.5798417098e+00 
67900 4.6873030579e+00 7.1146831184e-05 1.4894723056e+00 -2.5798417098e+00 1.4894723056e+00 2.5798417098e+00 
68000 4.6873030573e+00 7.0324221470e-05 1.4894699173e+00 -2.5798375731e+00 1.4894699173e+00 2.5798375731e+00 
68100 4.6873030568e+00 7.0816533775e-05 1.4894699173e+00 -2.5798375731e+00 1.4894699173e+00 2.5798375731e+00 
68200 4.6873030562e+00 6.9989236242e-05 1.4894675401e+00 -2.5798334556e+00 1.4894675401e+00 2.5798334556e+00 
68300 4.6873030558e+00 7.0470765388e-05 1.4894675401e+00 -2.5798334556e+00 1.4894675401e+00 2.5798334556e+00 
68400 4.6873030554e+00 7.0951204774e-05 1.4894675401e+00 -2.5798334556e+00 1.4894675401e+00 2.5798334556e+00 
68500 4.6873030548e+00 7.0109417423e-05 1.4894651583e+00 -2.5798293303e+00 1.4894651583e+00 2.5798293303e+00 
68600 4.6873030544e+00 7.0578809028e-05 1.4894651583e+00 -2.5798293303e+00 1.4894651583e+00 2.5798293303e+00 
68700 4.6873030540e+00 7.1047003135e-05 1.4894651583e+00 -2.5798293303e+00 1.4894651583e+00 2.5798293303e+00 
68800 4.6873030534e+00 7.0191108522e-05 1.4894627733e+00 -2.5798251994e+00 1.4894627733e+00 2.5798251994e+00 
68900 4.6873030530e+00 7.0648057385e-05 1.4894627733e+00 -2.5798251994e+00 1.4894627733e+00 2.5798251994e+00 
69000 4.6873030527e+00 7.1103730104e-05 1.4894627733e+00 -2.5798251994e+00 1.4894627733e+00 2.5798251994e+00 
69100 4.6873030521e+00 7.0234206640e-05 1.4894603864e+00 -2.5798210652e+00 1.4894603864e+00 2.5798210652e+00 
69200 4.6873030518e+00 7.0678495851e-05 1.4894603864e+00 -2.5798210652e+00 1.4894603864e+00 2.5798210652e+00 
69300 4.6873030515e+00 7.1121455670e-05 1.4894603864e+00 -2.5798210652e+00 1.4894603864e+00 2.5798210652e+00 
69400 4.6873030509e+00 7.0238861553e-05 1.4894579989e+00 -2.5798169299e+00 1.4894579989e+00 2.5798169299e+00 
69500 4.6873030506e+00 7.0670351929e-05 1.4894579989e+00 -2.5798169299e+00 1.4894579989e+00 2.5798169299e+00 
69600 4.6873030503e+00 7.1100481878e-05 1.4894579989e+00 -2.5798169299e+00 1.4894579989e+00 2.5798169299e+00 
69700 4.6873030498e+00 7.0205441180e-05 1.4894556122e+00 -2.5798127959e+00 1.4894556122e+00 2.5798127959e+00 
69800 4.6873030495e+00 7.0624062087e-05 1.4894556122e+00 -2.5798127959e+00 1.4894556122e+00 2.5798127959e+00 
69900 4.6873030492e+00 7.1041310955e-05 1.4894556122e+00 -2.5798127959e+00 1.4894556122e+00 2.5798127959e+00 
70000 4.6873030487e+00 7.0134501492e-05 1.4894532273e+00 -2.5798086653e+00 1.4894532273e+00 2.5798086653e+00 
70100 4.6873030484e+00 7.0540242757e-05 1.4894532273e+00 -2.5798086653e+00 1.4894532273e+00 2.5798086653e+00 
70200 4.6873030482e+00 7.0944617333e-05 1.4894532273e+00 -2.5798086653e+00 1.4894532273e+00 2.5798086653e+00 
70300 4.6873030477e+00 7.0026760007e-05 1.4894508458e+00 -2.5798045403e+00 1.4894508458e+00 2.5798045403e+00 
70400 4.6873030474e+00 7.0419664732e-05 1.4894508458e+00 -2.5798045403e+00 1.4894508458e+00 2.5798045403e+00 
70500 4.6873030472e+00 7.0811222884e-05 1.4894508458e+00 -2.5798045403e+00 1.4894508458e+00 2.5798045403e+00 
70600 4.6873030467e+00 6.9883072266e-05 1.4894484687e+00 -2.5798004230e+00 1.4894484687e+00 2.5798004230e+00 
70700 4.6873030465e+00 7.0263230373e-05 1.4894484687e+00 -2.5798004230e+00 1.4894484687e+00 2.5798004230e+00 
70800 4.6873030463e+00 7.0642074824e-05 1.4894484687e+00 -2.5798004230e+00 1.4894484687e+00 2.5798004230e+00 
70900 4.6873030460e+00 7.1019500583e-05 1.4894484687e+00 -2.5798004230e+00 1.4894484687e+00 2.5798004230e+00 
71000 4.6873030456e+00 7.0073298924e-05 1.4894460846e+00 -2.5797962937e+00 1.4894460846e+00 2.5797962937e+00 
71100 4.6873030454e+00 7.0439186015e-05 1.4894460846e+00 -2.5797962937e+00 1.4894460846e+00 2.5797962937e+00 
71200 4.6873030452e+00 7.0803717645e-05 1.4894460846e+00 -2.5797962937e+00 1.4894460846e+00 2.5797962937e+00 
71300 4.6873030447e+00 6.9848718191e-05 1.4894437078e+00 -2.5797921768e+00 1.4894437078e+00 2.5797921768e+00 
71400 4.6873030445e+00 7.0201870630e-05 1.4894437078e+00 -2.5797921768e+00 1.4894437078e+00 2.5797921768e+00 
71500 4.6873030443e+00 7.0553737133e-05 1.4894437078e+00 -2.5797921768e+00 1.4894437078e+00 2.5797921768e+00 
71600 4.6873030442e+00 7.0904223687e-05 1.4894437078e+00 -2.5797921768e+00 1.4894437078e+00 2.5797921768e+00 
71700 4.6873030437e+00 6.9933310280e-05 1.4894413275e+00 -2.5797880542e+00 1.4894413275e+00 2.5797880542e+00 
71800 4.6873030436e+00 7.0272380107e-05 1.4894413275e+00 -2.5797880542e+00 1.4894413275e+00 2.5797880542e+00 
71900 4.6873030434e+00 7.0610162577e-05 1.4894413275e+00 -2.5797880542e+00 1.4894413275e+00 2.5797880542e+00 
72000 4.6873030432e+00 7.0946570383e-05 1.4894413275e+00 -2.5797880542e+00 1.4894413275e+00 2.5797880542e+00 
72100 4.6873030428e+00 6.9960819217e-05 1.4894389459e+00 -2.5797839290e+00 1.4894389459e+00 2.5797839290e+00 
72200 4.6873030426e+00 7.0285834466e-05 1.4894389459e+00 -2.5797839290e+00 1.4894389459e+00 2.5797839290e+00 
72300 4.6873030425e+00 7.0609585882e-05 1.4894389459e+00 -2.5797839290e+00 1.4894389459e+00 2.5797839290e+00 
72400 4.6873030423e+00 7.0931991525e-05 1.4894389459e+00 -2.5797839290e+00 1.4894389459e+00 2.5797839290e+00 
72500 4.6873030419e+00 6.9932560289e-05 1.4894365647e+00 -2.5797798047e+00 1.4894365647e+00 2.5797798047e+00 
72600 4.6873030418e+00 7.0243647805e-05 1.4894365647e+00 -2.5797798047e+00 1.4894365647e+00 2.5797798047e+00 
72700 4.6873030416e+00 7.0553514767e-05 1.4894365647e+00 -2.5797798047e+00 1.4894365647e+00 2.5797798047e+00 
72800 4.6873030415e+00 7.0862083550e-05 1.4894365647e+00 -2.5797798047e+00 1.4894365647e+00 2.5797798047e+00 
72900 4.6873030411e+00 6.9850184293e-05 1.4894341859e+00 -2.5797756845e+00 1.4894341859e+00 2.5797756845e+00 
73000 4.6873030410e+00 7.0147550388e-05 1.4894341859e+00 -2.5797756845e+00 1.4894341859e+00 2.5797756845e+00 
73100 4.6873030409e+00 7.0443754788e-05 1.4894341859e+00 -2.5797756845e+00 1.4894341859e+00 2.5797756845e+00 
73200 4.6873030407e+00 7.0738723333e-05 1.4894341859e+00 -2.5797756845e+00 1.4894341859e+00 2.5797756845e+00 
73300 4.6873030404e+00 6.9715600723e-05 1.4894318112e+00 -2.5797715714e+00 1.4894318112e+00 2.5797715714e+00 
73400 4.6873030403e+00 6.9999515430e-05 1.4894318112e+00 -2.5797715714e+00 1.4894318112e+00 2.5797715714e+00 
73500 4.6873030401e+00 7.0282339460e-05 1.4894318112e+00 -2.5797715714e+00 1.4894318112e+00 2.5797715714e+00 
73600 4.6873030400e+00 7.0564001428e-05 1.4894318112e+00 -2.5797715714e+00 1.4894318112e+00 2.5797715714e+00 
73700 4.6873030399e+00 7.0844434359e-05 1.4894318112e+00 -2.5797715714e+00 1.4894318112e+00 2.5797715714e+00 
73800 4.6873030396e+00 6.9804840588e-05 1.4894294330e+00 -2.5797674522e+00 1.4894294330e+00 2.5797674522e+00 
73900 4.6873030394e+00 7.0074240542e-05 1.4894294330e+00 -2.5797674522e+00 1.4894294330e+00 2.5797674522e+00 
74000 4.6873030393e+00 7.0342576178e-05 1.4894294330e+00 -2.5797674522e+00 1.4894294330e+00 2.5797674522e+00 
74100 4.6873030392e+00 7.0609781676e-05 1.4894294330e+00 -2.5797674522e+00 1.4894294330e+00 2.5797674522e+00 
74200 4.6873030391e+00 7.0875795291e-05 1.4894294330e+00 -2.5797674522e+00 1.4894294330e+00 2.5797674522e+00 
74300 4.6873030388e+00 6.9821257957e-05 1.4894270537e+00 -2.5797633311e+00 1.4894270537e+00 2.5797633311e+00 
74400 4.6873030387e+00 7.0076323581e-05 1.4894270537e+00 -2.5797633311e+00 1.4894270537e+00 2.5797633311e+00 
74500 4.6873030386e+00 7.0330376081e-05 1.4894270537e+00 -2.5797633311e+00 1.4894270537e+00 2.5797633311e+00 
74600 4.6873030385e+00 7.0583353718e-05 1.4894270537e+00 -2.5797633311e+00 1.4894270537e+00 2.5797633311e+00 
74700 4.6873030384e+00 7.0835198578e-05 1.4894270537e+00 -2.5797633311e+00 1.4894270537e+00 2.5797633311e+00 
74800 4.6873030381e+00 6.9767327164e-05 1.4894246757e+00 -2.5797592124e+00 1.4894246757e+00 2.5797592124e+00 
74900 4.6873030380e+00 7.0008357592e-05 1.4894246757e+00 -2.5797592124e+00 1.4894246757e+00 2.5797592124e+00 
75000 4.6873030379e+00 7.0248443986e-05 1.4894246757e+00 -2.5797592124e+00 1.4894246757e+00 2.5797592124e+00 
75100 4.6873030378e+00 7.0487527600e-05 1.4894246757e+00 -2.5797592124e+00 1.4894246757e+00 2.5797592124e+00 
75200 4.6873030378e+00 7.0725553336e-05 1.4894246757e+00 -2.5797592124e+00 1.4894246757e+00 2.5797592124e+00 
75300 4.6873030375e+00 6.9645996463e-05 1.4894223015e+00 -2.5797551001e+00 1.4894223015e+00 2.5797551001e+00 
75400 4.6873030374e+00 6.9873378253e-05 1.4894223015e+00 -2.5797551001e+00 1.4894223015e+00 2.5797551001e+00 
75500 4.6873030373e+00 7.0099897819e-05 1.4894223015e+00 -2.5797551001e+00 1.4894223015e+00 2.5797551001e+00 
75600 4.6873030372e+00 7.0325498607e-05 1.4894223015e+00 -2.5797551001e+00 1.4894223015e+00 2.5797551001e+00 
75700 4.6873030372e+00 7.0550127567e-05 1.4894223015e+00 -2.5797551001e+00 1.4894223015e+00 2.5797551001e+00 
75800 4.6873030371e+00 7.0773734931e-05 1.4894223015e+00 -2.5797551001e+00 1.4894223015e+00 2.5797551001e+00 
75900 4.6873030368e+00 6.9678921896e-05 1.4894199256e+00 -2.5797509850e+00 1.4894199256e+00 2.5797509850e+00 
76000 4.6873030367e+00 6.9891966734e-05 1.4894199256e+00 -2.5797509850e+00 1.4894199256e+00 2.5797509850e+00 
76100 4.6873030367e+00 7.0104199877e-05 1.4894199256e+00 -2.5797509850e+00 1.4894199256e+00 2.5797509850e+00 
76200 4.6873030366e+00 7.0315568845e-05 1.4894199256e+00 -2.5797509850e+00 1.4894199256e+00 2.5797509850e+00 
76300 4.6873030365e+00 7.0526024403e-05 1.4894199256e+00 -2.5797509850e+00 1.4894199256e+00 2.5797509850e+00 
76400 4.6873030365e+00 7.0735520350e-05 1.4894199256e+00 -2.5797509850e+00 1.4894199256e+00 2.5797509850e+00 
76500 4.6873030362e+00 6.9627388918e-05 1.4894175510e+00 -2.5797468720e+00 1.4894175510e+00 2.5797468720e+00 
76600 4.6873030361e+00 6.9826460590e-05 1.4894175510e+00 -2.5797468720e+00 1.4894175510e+00 2.5797468720e+00 
76700 4.6873030361e+00 7.0024791773e-05 1.4894175510e+00 -2.5797468720e+00 1.4894175510e+00 2.5797468720e+00 
76800 4.6873030360e+00 7.0222332730e-05 1.4894175510e+00 -2.5797468720e+00 1.4894175510e+00 2.5797468720e+00 
76900 4.6873030360e+00 7.0419036794e-05 1.4894175510e+00 -2.5797468720e+00 1.4894175510e+00 2.5797468720e+00 
77000 4.6873030359e+00 7.0614860167e-05 1.4894175510e+00 -2.5797468720e+00 1.4894175510e+00 2.5797468720e+00 
77100 4.6873030359e+00 7.0809761730e-05 1.4894175510e+00 -2.5797468720e+00 1.4894175510e+00 2.5797468720e+00 
77200 4.6873030356e+00 6.9685714826e-05 1.4894151739e+00 -2.5797427548e+00 1.4894151739e+00 2.5797427548e+00 
77300 4.6873030355e+00 6.9870272827e-05 1.4894151739e+00 -2.5797427548e+00 1.4894151739e+00 2.5797427548e+00 
77400 4.6873030355e+00 7.0054141887e-05 1.4894151739e+00 -2.5797427548e+00 1.4894151739e+00 2.5797427548e+00 
77500 4.6873030354e+00 7.0237276160e-05 1.4894151739e+00 -2.5797427548e+00 1.4894151739e+00 2.5797427548e+00 
77600 4.6873030354e+00 7.0419632624e-05 1.4894151739e+00 -2.5797427548e+00 1.4894151739e+00 2.5797427548e+00 
77700 4.6873030354e+00 7.0601170898e-05 1.4894151739e+00 -2.5797427548e+00 1.4894151739e+00 2.5797427548e+00 
77800 4.6873030353e+00 7.0781853063e-05 1.4894151739e+00 -2.5797427548e+00 1.4894151739e+00 2.5797427548e+00 
77900 4.6873030350e+00 6.9644191492e-05 1.4894127978e+00 -2.5797386392e+00 1.4894127978e+00 2.5797386392e+00 
78000 4.6873030350e+00 6.9814673559e-05 1.4894127978e+00 -2.5797386392e+00 1.4894127978e+00 2.5797386392e+00 
78100 4.6873030350e+00 6.9984540706e-05 1.4894127978e+00 -2.5797386392e+00 1.4894127978e+00 2.5797386392e+00 
78200 4.6873030349e+00 7.0153749563e-05 1.4894127978e+00 -2.5797386392e+00 1.4894127978e+00 2.5797386392e+00 
78300 4.6873030349e+00 7.0322259426e-05 1.4894127978e+00 -2.5797386392e+00 1.4894127978e+00 2.5797386392e+00 
78400 4.6873030348e+00 7.0490032082e-05 1.4894127978e+00 -2.5797386392e+00 1.4894127978e+00 2.5797386392e+00 
78500 4.6873030348e+00 7.0657031647e-05 1.4894127978e+00 -2.5797386392e+00 1.4894127978e+00 2.5797386392e+00 
78600 4.6873030348e+00 7.0823224421e-05 1.4894127978e+00 -2.5797386392e+00 1.4894127978e+00 2.5797386392e+00 
78700 4.6873030345e+00 6.9670374392e-05 1.4894104202e+00 -2.5797345211e+00 1.4894104202e+00 2.5797345211e+00 
78800 4.6873030345e+00 6.9826472320e-05 1.4894104202e+00 -2.5797345211e+00 1.4894104202e+00 2.5797345211e+00 
78900 4.6873030344e+00 6.9982015958e-05 1.4894104202e+00 -2.5797345211e+00 1.4894104202e+00 2.5797345211e+00 
79000 4.6873030344e+00 7.0136965173e-05 1.4894104202e+00 -2.5797345211e+00 1.4894104202e+00 2.5797345211e+00 
79100 4.6873030344e+00 7.0291282299e-05 1.4894104202e+00 -2.5797345211e+00 1.4894104202e+00 2.5797345211e+00 
79200 4.6873030344e+00 7.0444931970e-05 1.4894104202e+00 -2.5797345211e+00 1.4894104202e+00 2.5797345211e+00 
79300 4.6873030343e+00 7.0597880971e-05 1.4894104202e+00 -2.5797345211e+00 1.4894104202e+00 2.5797345211e+00 
79400 4.6873030343e+00 7.0750098105e-05 1.4894104202e+00 -2.5797345211e+00 1.4894104202e+00 2.5797345211e+00 
79500 4.6873030340e+00 6.9584726640e-05 1.4894080451e+00 -2.5797304073e+00 1.4894080451e+00 2.5797304073e+00 
79600 4.6873030340e+00 6.9727014282e-05 1.4894080451e+00 -2.5797304073e+00 1.4894080451e+00 2.5797304073e+00 
79700 4.6873030340e+00 6.9868828822e-05 1.4894080451e+00 -2.5797304073e+00 1.4894080451e+00 2.5797304073e+00 
79800 4.6873030340e+00 7.0010132070e-05 1.4894080451e+00 -2.5797304073e+00 1.4894080451e+00 2.5797304073e+00 
79900 4.6873030339e+00 7.0150888181e-05 1.4894080451e+00 -2.5797304073e+00 1.4894080451e+00 2.5797304073e+00 
80000 4.6873030339e+00 7.0215442916e-05 1.4894080451e+00 -2.5797304073e+00 1.4894080451e+00 2.5797304073e+00 
80000 4.6873030339e+00 7.0215442916e-05 1.4894080451e+00 -2.5797304073e+00 1.4894080451e+00 2.5797304073e+00 
